patch_n	x	y	stress_yy
0	 0.000000e+00	 0.000000e+00	-7.938785e+15
0	 0.000000e+00	 7.407407e-02	 3.496523e+14
0	 0.000000e+00	 1.481481e-01	 3.907113e+14
0	 0.000000e+00	 2.222222e-01	 1.441291e+15
0	 0.000000e+00	 2.962963e-01	 1.417308e+15
0	 0.000000e+00	 3.703704e-01	 8.760529e-01
0	 7.407407e-02	 0.000000e+00	 3.908005e+14
0	 7.407407e-02	 7.407407e-02	 2.048597e+14
0	 7.407407e-02	 1.481481e-01	 6.882328e+14
0	 7.407407e-02	 2.222222e-01	 5.069660e+14
0	 7.407407e-02	 2.962963e-01	 5.116743e+14
0	 7.407407e-02	 3.703704e-01	 6.496970e-01
0	 1.481481e-01	 0.000000e+00	 1.206667e+15
0	 1.481481e-01	 7.407407e-02	 2.571051e+14
0	 1.481481e-01	 1.481481e-01	 2.908864e+14
0	 1.481481e-01	 2.222222e-01	 2.012816e+14
0	 1.481481e-01	 2.962963e-01	-1.151772e-02
0	 1.481481e-01	 3.703704e-01	 5.714856e-01
0	 2.222222e-01	 0.000000e+00	 6.876499e+14
0	 2.222222e-01	 7.407407e-02	 2.870319e+15
0	 2.222222e-01	 1.481481e-01	 4.636931e+15
0	 2.222222e-01	 2.222222e-01	 3.442971e+14
0	 2.222222e-01	 2.962963e-01	-3.584784e+14
0	 2.222222e-01	 3.703704e-01	 5.658075e-01
0	 2.962963e-01	 0.000000e+00	-2.650656e+14
0	 2.962963e-01	 7.407407e-02	-1.642582e+14
0	 2.962963e-01	 1.481481e-01	-5.652840e+14
0	 2.962963e-01	 2.222222e-01	-2.295646e+15
0	 2.962963e-01	 2.962963e-01	 2.005689e+15
0	 2.962963e-01	 3.703704e-01	-2.003453e+14
0	 3.703704e-01	 0.000000e+00	-7.685845e+13
0	 3.703704e-01	 7.407407e-02	-1.208246e+14
0	 3.703704e-01	 1.481481e-01	-9.305675e+14
0	 3.703704e-01	 2.222222e-01	-4.276408e+14
0	 3.703704e-01	 2.962963e-01	 4.458205e-01
0	 3.703704e-01	 3.703704e-01	 4.696062e-01
0	 0.000000e+00	 3.703704e-01	 1.047340e+15
0	 0.000000e+00	 4.444444e-01	-1.366278e+15
0	 0.000000e+00	 5.185185e-01	-2.100807e+15
0	 0.000000e+00	 5.925926e-01	 1.160255e+15
0	 0.000000e+00	 6.666667e-01	 5.069660e+14
0	 0.000000e+00	 7.407407e-01	-2.862003e+00
0	 7.407407e-02	 3.703704e-01	 2.600910e+14
0	 7.407407e-02	 4.444444e-01	-3.635418e+14
0	 7.407407e-02	 5.185185e-01	-7.112484e+14
0	 7.407407e-02	 5.925926e-01	-4.749394e+15
0	 7.407407e-02	 6.666667e-01	 2.012816e+14
0	 7.407407e-02	 7.407407e-01	-2.808881e+00
0	 1.481481e-01	 3.703704e-01	 1.720030e+15
0	 1.481481e-01	 4.444444e-01	 1.889788e+15
0	 1.481481e-01	 5.185185e-01	-2.570732e+15
0	 1.481481e-01	 5.925926e-01	 4.826456e+14
0	 1.481481e-01	 6.666667e-01	 3.442971e+14
0	 1.481481e-01	 7.407407e-01	-2.789210e+00
0	 2.222222e-01	 3.703704e-01	 3.609118e+14
0	 2.222222e-01	 4.444444e-01	 2.333624e+14
0	 2.222222e-01	 5.185185e-01	 4.937401e+14
0	 2.222222e-01	 5.925926e-01	 2.593614e+15
0	 2.222222e-01	 6.666667e-01	-2.295646e+15
0	 2.222222e-01	 7.407407e-01	-2.638621e+00
0	 2.962963e-01	 3.703704e-01	 2.144657e+14
0	 2.962963e-01	 4.444444e-01	 1.996424e+14
0	 2.962963e-01	 5.185185e-01	 6.596715e+15
0	 2.962963e-01	 5.925926e-01	-1.878788e+14
0	 2.962963e-01	 6.666667e-01	-4.276408e+14
0	 2.962963e-01	 7.407407e-01	-3.849898e+14
0	 3.703704e-01	 3.703704e-01	 2.084972e+15
0	 3.703704e-01	 4.444444e-01	 2.656520e+15
0	 3.703704e-01	 5.185185e-01	 1.223682e+14
0	 3.703704e-01	 5.925926e-01	 5.786560e+14
0	 3.703704e-01	 6.666667e-01	-6.454047e-01
0	 3.703704e-01	 7.407407e-01	-1.287216e+00
0	 0.000000e+00	 7.407407e-01	 1.432652e+15
0	 0.000000e+00	 8.148148e-01	-1.487779e+15
0	 0.000000e+00	 8.888889e-01	-3.545780e+14
0	 0.000000e+00	 9.629630e-01	-7.126447e+14
0	 0.000000e+00	 1.037037e+00	-4.749394e+15
0	 0.000000e+00	 1.111111e+00	 3.352865e+01
0	 7.407407e-02	 7.407407e-01	-1.321413e+15
0	 7.407407e-02	 8.148148e-01	 4.030412e+15
0	 7.407407e-02	 8.888889e-01	-1.928192e+16
0	 7.407407e-02	 9.629630e-01	-5.273201e+14
0	 7.407407e-02	 1.037037e+00	 4.826456e+14
0	 7.407407e-02	 1.111111e+00	 3.232025e+01
0	 1.481481e-01	 7.407407e-01	 8.189313e+15
0	 1.481481e-01	 8.148148e-01	 3.177814e+14
0	 1.481481e-01	 8.888889e-01	-3.937897e+14
0	 1.481481e-01	 9.629630e-01	-1.043795e+15
0	 1.481481e-01	 1.037037e+00	 2.593614e+15
0	 1.481481e-01	 1.111111e+00	 3.187062e+01
0	 2.222222e-01	 7.407407e-01	-2.829215e+14
0	 2.222222e-01	 8.148148e-01	-2.955825e+14
0	 2.222222e-01	 8.888889e-01	-6.605103e+14
0	 2.222222e-01	 9.629630e-01	-3.567650e+14
0	 2.222222e-01	 1.037037e+00	-1.878788e+14
0	 2.222222e-01	 1.111111e+00	 3.203452e+01
0	 2.962963e-01	 7.407407e-01	-3.733046e+14
0	 2.962963e-01	 8.148148e-01	-4.020807e+14
0	 2.962963e-01	 8.888889e-01	-2.272574e+29
0	 2.962963e-01	 9.629630e-01	-2.151488e+14
0	 2.962963e-01	 1.037037e+00	 5.786560e+14
0	 2.962963e-01	 1.111111e+00	-2.524707e+14
0	 3.703704e-01	 7.407407e-01	-2.219211e+14
0	 3.703704e-01	 8.148148e-01	-1.982407e+14
0	 3.703704e-01	 8.888889e-01	-1.787384e+14
0	 3.703704e-01	 9.629630e-01	-4.801886e+14
0	 3.703704e-01	 1.037037e+00	 2.044536e+01
0	 3.703704e-01	 1.111111e+00	 3.362195e+01
0	 0.000000e+00	 1.111111e+00	-4.511829e+14
0	 0.000000e+00	 1.185185e+00	-2.663365e+14
0	 0.000000e+00	 1.259259e+00	-1.566159e+15
0	 0.000000e+00	 1.333333e+00	-1.864921e+14
0	 0.000000e+00	 1.407407e+00	-5.273201e+14
0	 0.000000e+00	 1.481481e+00	 5.781303e+01
0	 7.407407e-02	 1.111111e+00	-3.801513e+14
0	 7.407407e-02	 1.185185e+00	-4.171964e+14
0	 7.407407e-02	 1.259259e+00	-1.913649e+14
0	 7.407407e-02	 1.333333e+00	-3.920770e+15
0	 7.407407e-02	 1.407407e+00	-1.043795e+15
0	 7.407407e-02	 1.481481e+00	 5.823675e+01
0	 1.481481e-01	 1.111111e+00	-2.037912e+15
0	 1.481481e-01	 1.185185e+00	 8.641519e+14
0	 1.481481e-01	 1.259259e+00	-7.257092e+14
0	 1.481481e-01	 1.333333e+00	-5.377729e+14
0	 1.481481e-01	 1.407407e+00	-3.567650e+14
0	 1.481481e-01	 1.481481e+00	 5.806330e+01
0	 2.222222e-01	 1.111111e+00	 3.281584e+14
0	 2.222222e-01	 1.185185e+00	 5.535314e+14
0	 2.222222e-01	 1.259259e+00	 2.277622e+14
0	 2.222222e-01	 1.333333e+00	 3.537031e+14
0	 2.222222e-01	 1.407407e+00	-2.151488e+14
0	 2.222222e-01	 1.481481e+00	 5.726679e+01
0	 2.962963e-01	 1.111111e+00	 2.824383e+14
0	 2.962963e-01	 1.185185e+00	 4.014391e+14
0	 2.962963e-01	 1.259259e+00	-6.445688e+14
0	 2.962963e-01	 1.333333e+00	-6.135311e+15
0	 2.962963e-01	 1.407407e+00	-4.801886e+14
0	 2.962963e-01	 1.481481e+00	-2.375936e+14
0	 3.703704e-01	 1.111111e+00	-1.701996e+15
0	 3.703704e-01	 1.185185e+00	-3.311201e+14
0	 3.703704e-01	 1.259259e+00	 3.791416e+14
0	 3.703704e-01	 1.333333e+00	-9.130592e+14
0	 3.703704e-01	 1.407407e+00	 5.826304e+01
0	 3.703704e-01	 1.481481e+00	 5.370103e+01
0	 0.000000e+00	 1.481481e+00	-8.692632e+14
0	 0.000000e+00	 1.555556e+00	-1.281246e+15
0	 0.000000e+00	 1.629630e+00	 4.549109e+14
0	 0.000000e+00	 1.703704e+00	 1.275752e+15
0	 0.000000e+00	 1.777778e+00	-3.920770e+15
0	 0.000000e+00	 1.851852e+00	 2.056693e+01
0	 7.407407e-02	 1.481481e+00	-4.260131e+14
0	 7.407407e-02	 1.555556e+00	-7.410680e+14
0	 7.407407e-02	 1.629630e+00	-9.160650e+14
0	 7.407407e-02	 1.703704e+00	 8.859240e+14
0	 7.407407e-02	 1.777778e+00	-5.377729e+14
0	 7.407407e-02	 1.851852e+00	 2.130082e+01
0	 1.481481e-01	 1.481481e+00	-1.210726e+14
0	 1.481481e-01	 1.555556e+00	-3.582324e+14
0	 1.481481e-01	 1.629630e+00	 3.044513e+14
0	 1.481481e-01	 1.703704e+00	 8.562344e+14
0	 1.481481e-01	 1.777778e+00	 3.537031e+14
0	 1.481481e-01	 1.851852e+00	 2.146737e+01
0	 2.222222e-01	 1.481481e+00	-2.855969e+14
0	 2.222222e-01	 1.555556e+00	-1.900538e+14
0	 2.222222e-01	 1.629630e+00	-1.492023e+14
0	 2.222222e-01	 1.703704e+00	-1.076471e+15
0	 2.222222e-01	 1.777778e+00	-6.135311e+15
0	 2.222222e-01	 1.851852e+00	 2.116258e+01
0	 2.962963e-01	 1.481481e+00	-2.552755e+14
0	 2.962963e-01	 1.555556e+00	-3.039378e+14
0	 2.962963e-01	 1.629630e+00	-3.264660e+14
0	 2.962963e-01	 1.703704e+00	 2.789595e+14
0	 2.962963e-01	 1.777778e+00	-9.130592e+14
0	 2.962963e-01	 1.851852e+00	-1.434115e+14
0	 3.703704e-01	 1.481481e+00	-1.148742e+14
0	 3.703704e-01	 1.555556e+00	-9.623790e+13
0	 3.703704e-01	 1.629630e+00	 8.074424e+15
0	 3.703704e-01	 1.703704e+00	 3.663549e+14
0	 3.703704e-01	 1.777778e+00	 2.647603e+01
0	 3.703704e-01	 1.851852e+00	 1.952298e+01
0	 0.000000e+00	 1.851852e+00	 2.969436e+14
0	 0.000000e+00	 1.925926e+00	 5.292667e+14
0	 0.000000e+00	 2.000000e+00	 3.932621e+14
0	 0.000000e+00	 2.074074e+00	-1.276803e+15
0	 0.000000e+00	 2.148148e+00	 8.859240e+14
0	 0.000000e+00	 2.222222e+00	 4.589233e+00
0	 7.407407e-02	 1.851852e+00	 1.681221e+14
0	 7.407407e-02	 1.925926e+00	 2.992687e+14
0	 7.407407e-02	 2.000000e+00	 3.719824e+14
0	 7.407407e-02	 2.074074e+00	 3.074894e+15
0	 7.407407e-02	 2.148148e+00	 8.562344e+14
0	 7.407407e-02	 2.222222e+00	 4.545282e+00
0	 1.481481e-01	 1.851852e+00	 2.776712e+14
0	 1.481481e-01	 1.925926e+00	 4.722386e+14
0	 1.481481e-01	 2.000000e+00	 2.611241e+14
0	 1.481481e-01	 2.074074e+00	 2.445280e+14
0	 1.481481e-01	 2.148148e+00	-1.076471e+15
0	 1.481481e-01	 2.222222e+00	 4.588965e+00
0	 2.222222e-01	 1.851852e+00	-9.090388e+14
0	 2.222222e-01	 1.925926e+00	 3.169024e+14
0	 2.222222e-01	 2.000000e+00	 3.924737e+14
0	 2.222222e-01	 2.074074e+00	-1.006122e+15
0	 2.222222e-01	 2.148148e+00	 2.789595e+14
0	 2.222222e-01	 2.222222e+00	 4.699089e+00
0	 2.962963e-01	 1.851852e+00	-3.565764e+14
0	 2.962963e-01	 1.925926e+00	-1.746934e+14
0	 2.962963e-01	 2.000000e+00	 2.698227e+14
0	 2.962963e-01	 2.074074e+00	 5.335175e+14
0	 2.962963e-01	 2.148148e+00	 3.663549e+14
0	 2.962963e-01	 2.222222e+00	 1.019022e+15
0	 3.703704e-01	 1.851852e+00	-3.196145e+14
0	 3.703704e-01	 1.925926e+00	 2.530186e+14
0	 3.703704e-01	 2.000000e+00	-2.671357e+14
0	 3.703704e-01	 2.074074e+00	-2.439388e+14
0	 3.703704e-01	 2.148148e+00	 4.651701e+00
0	 3.703704e-01	 2.222222e+00	 5.033888e+00
0	 0.000000e+00	 2.222222e+00	 5.219528e+14
0	 0.000000e+00	 2.296296e+00	-3.826800e+14
0	 0.000000e+00	 2.370370e+00	-6.439768e+14
0	 0.000000e+00	 2.444444e+00	-3.386211e+14
0	 0.000000e+00	 2.518519e+00	 3.074894e+15
0	 0.000000e+00	 2.592593e+00	 7.140548e+00
0	 7.407407e-02	 2.222222e+00	-3.440662e+14
0	 7.407407e-02	 2.296296e+00	-5.350662e+15
0	 7.407407e-02	 2.370370e+00	-6.967416e+14
0	 7.407407e-02	 2.444444e+00	-5.455363e+14
0	 7.407407e-02	 2.518519e+00	 2.445280e+14
0	 7.407407e-02	 2.592593e+00	 7.195453e+00
0	 1.481481e-01	 2.222222e+00	-4.384054e+14
0	 1.481481e-01	 2.296296e+00	 6.104812e+14
0	 1.481481e-01	 2.370370e+00	-3.591959e+14
0	 1.481481e-01	 2.444444e+00	 1.110924e+15
0	 1.481481e-01	 2.518519e+00	-1.006122e+15
0	 1.481481e-01	 2.592593e+00	 7.252780e+00
0	 2.222222e-01	 2.222222e+00	-3.202905e+14
0	 2.222222e-01	 2.296296e+00	-2.919391e+14
0	 2.222222e-01	 2.370370e+00	-2.626319e+14
0	 2.222222e-01	 2.444444e+00	-2.954755e+14
0	 2.222222e-01	 2.518519e+00	 5.335175e+14
0	 2.222222e-01	 2.592593e+00	 7.321257e+00
0	 2.962963e-01	 2.222222e+00	-3.110878e+14
0	 2.962963e-01	 2.296296e+00	-1.402308e+16
0	 2.962963e-01	 2.370370e+00	-8.752299e+14
0	 2.962963e-01	 2.444444e+00	-2.244714e+14
0	 2.962963e-01	 2.518519e+00	-2.439388e+14
0	 2.962963e-01	 2.592593e+00	 4.275574e+17
0	 3.703704e-01	 2.222222e+00	-3.486522e+14
0	 3.703704e-01	 2.296296e+00	-8.786885e+13
0	 3.703704e-01	 2.370370e+00	-1.414656e+14
0	 3.703704e-01	 2.444444e+00	-1.229154e+14
0	 3.703704e-01	 2.518519e+00	 7.599222e+00
0	 3.703704e-01	 2.592593e+00	 7.526559e+00
0	 0.000000e+00	 2.592593e+00	 7.229072e+14
0	 0.000000e+00	 2.666667e+00	-3.655838e+14
0	 0.000000e+00	 2.740741e+00	 9.263234e+14
0	 0.000000e+00	 2.814815e+00	 3.600829e+14
0	 0.000000e+00	 2.888889e+00	-5.455363e+14
0	 0.000000e+00	 2.962963e+00	 7.440876e+00
0	 7.407407e-02	 2.592593e+00	-3.144717e+15
0	 7.407407e-02	 2.666667e+00	-3.600970e+14
0	 7.407407e-02	 2.740741e+00	-7.805577e+14
0	 7.407407e-02	 2.814815e+00	 1.383738e+15
0	 7.407407e-02	 2.888889e+00	 1.110924e+15
0	 7.407407e-02	 2.962963e+00	 7.425318e+00
0	 1.481481e-01	 2.592593e+00	-8.060076e+14
0	 1.481481e-01	 2.666667e+00	-5.251702e+14
0	 1.481481e-01	 2.740741e+00	-1.468344e+15
0	 1.481481e-01	 2.814815e+00	-4.336533e+14
0	 1.481481e-01	 2.888889e+00	-2.954755e+14
0	 1.481481e-01	 2.962963e+00	 7.440722e+00
0	 2.222222e-01	 2.592593e+00	-3.162823e+14
0	 2.222222e-01	 2.666667e+00	-2.036032e+14
0	 2.222222e-01	 2.740741e+00	-1.808141e+15
0	 2.222222e-01	 2.814815e+00	-2.863202e+14
0	 2.222222e-01	 2.888889e+00	-2.244714e+14
0	 2.222222e-01	 2.962963e+00	 7.481191e+00
0	 2.962963e-01	 2.592593e+00	-1.735590e+15
0	 2.962963e-01	 2.666667e+00	-2.218352e+14
0	 2.962963e-01	 2.740741e+00	 9.674919e+14
0	 2.962963e-01	 2.814815e+00	-4.205600e+14
0	 2.962963e-01	 2.888889e+00	-1.229154e+14
0	 2.962963e-01	 2.962963e+00	-1.363780e+14
0	 3.703704e-01	 2.592593e+00	-9.656422e+13
0	 3.703704e-01	 2.666667e+00	-9.617842e+14
0	 3.703704e-01	 2.740741e+00	 9.813958e+14
0	 3.703704e-01	 2.814815e+00	 4.775816e+14
0	 3.703704e-01	 2.888889e+00	 7.404192e+00
0	 3.703704e-01	 2.962963e+00	 7.613733e+00
0	 0.000000e+00	 2.962963e+00	-1.675639e+15
0	 0.000000e+00	 3.037037e+00	-6.802186e+14
0	 0.000000e+00	 3.111111e+00	 7.689084e+14
0	 0.000000e+00	 3.185185e+00	 1.888220e+14
0	 0.000000e+00	 3.259259e+00	 1.383738e+15
0	 0.000000e+00	 3.333333e+00	 8.150728e+00
0	 7.407407e-02	 2.962963e+00	 4.286273e+14
0	 7.407407e-02	 3.037037e+00	-3.555226e+14
0	 7.407407e-02	 3.111111e+00	 3.756695e+14
0	 7.407407e-02	 3.185185e+00	 1.041241e+15
0	 7.407407e-02	 3.259259e+00	-4.336533e+14
0	 7.407407e-02	 3.333333e+00	 8.169585e+00
0	 1.481481e-01	 2.962963e+00	 9.608178e+14
0	 1.481481e-01	 3.037037e+00	-7.792018e+14
0	 1.481481e-01	 3.111111e+00	 1.050676e+16
0	 1.481481e-01	 3.185185e+00	 1.074507e+14
0	 1.481481e-01	 3.259259e+00	-2.863202e+14
0	 1.481481e-01	 3.333333e+00	 8.192002e+00
0	 2.222222e-01	 2.962963e+00	-7.601627e+14
0	 2.222222e-01	 3.037037e+00	-1.947035e+16
0	 2.222222e-01	 3.111111e+00	 5.304746e+14
0	 2.222222e-01	 3.185185e+00	 3.734971e+14
0	 2.222222e-01	 3.259259e+00	-4.205600e+14
0	 2.222222e-01	 3.333333e+00	 8.219508e+00
0	 2.962963e-01	 2.962963e+00	 4.149891e+14
0	 2.962963e-01	 3.037037e+00	 5.086430e+14
0	 2.962963e-01	 3.111111e+00	 4.358971e+14
0	 2.962963e-01	 3.185185e+00	-1.094124e+15
0	 2.962963e-01	 3.259259e+00	 4.775816e+14
0	 2.962963e-01	 3.333333e+00	 6.403721e+14
0	 3.703704e-01	 2.962963e+00	-1.671317e+15
0	 3.703704e-01	 3.037037e+00	 1.392707e+14
0	 3.703704e-01	 3.111111e+00	-2.934604e+14
0	 3.703704e-01	 3.185185e+00	-1.666053e+16
0	 3.703704e-01	 3.259259e+00	 8.259247e+00
0	 3.703704e-01	 3.333333e+00	 8.295905e+00
0	 0.000000e+00	 3.333333e+00	 2.464778e+14
0	 0.000000e+00	 3.407407e+00	 2.737856e+14
0	 0.000000e+00	 3.481481e+00	 1.096709e+15
0	 0.000000e+00	 3.555556e+00	 5.846578e+14
0	 0.000000e+00	 3.629630e+00	 1.041241e+15
0	 0.000000e+00	 3.703704e+00	 8.464312e+00
0	 7.407407e-02	 3.333333e+00	 4.000384e+14
0	 7.407407e-02	 3.407407e+00	-1.847739e+15
0	 7.407407e-02	 3.481481e+00	 2.815438e+14
0	 7.407407e-02	 3.555556e+00	-7.884762e+14
0	 7.407407e-02	 3.629630e+00	 1.074507e+14
0	 7.407407e-02	 3.703704e+00	 8.460230e+00
0	 1.481481e-01	 3.333333e+00	-1.384961e+16
0	 1.481481e-01	 3.407407e+00	 2.128961e+14
0	 1.481481e-01	 3.481481e+00	-1.633026e+15
0	 1.481481e-01	 3.555556e+00	 8.357233e+14
0	 1.481481e-01	 3.629630e+00	 3.734971e+14
0	 1.481481e-01	 3.703704e+00	 8.467656e+00
0	 2.222222e-01	 3.333333e+00	 4.016706e+14
0	 2.222222e-01	 3.407407e+00	 2.045720e+14
0	 2.222222e-01	 3.481481e+00	 4.708158e+14
0	 2.222222e-01	 3.555556e+00	 4.280268e+14
0	 2.222222e-01	 3.629630e+00	-1.094124e+15
0	 2.222222e-01	 3.703704e+00	 8.485243e+00
0	 2.962963e-01	 3.333333e+00	-3.712651e+14
0	 2.962963e-01	 3.407407e+00	 4.904164e+14
0	 2.962963e-01	 3.481481e+00	-7.198770e+14
0	 2.962963e-01	 3.555556e+00	 2.776419e+14
0	 2.962963e-01	 3.629630e+00	-1.666053e+16
0	 2.962963e-01	 3.703704e+00	-2.573861e+14
0	 3.703704e-01	 3.333333e+00	-1.678866e+14
0	 3.703704e-01	 3.407407e+00	 2.050467e+14
0	 3.703704e-01	 3.481481e+00	 1.364146e+14
0	 3.703704e-01	 3.555556e+00	 1.143153e+14
0	 3.703704e-01	 3.629630e+00	 8.463966e+00
0	 3.703704e-01	 3.703704e+00	 8.545507e+00
0	 0.000000e+00	 3.703704e+00	-3.264258e+14
0	 0.000000e+00	 3.777778e+00	-1.544509e+15
0	 0.000000e+00	 3.851852e+00	-2.275972e+14
0	 0.000000e+00	 3.925926e+00	-2.812590e+14
0	 0.000000e+00	 4.000000e+00	-7.884762e+14
0	 0.000000e+00	 4.074074e+00	 8.791711e+00
0	 7.407407e-02	 3.703704e+00	 1.597477e+15
0	 7.407407e-02	 3.777778e+00	-8.456256e+14
0	 7.407407e-02	 3.851852e+00	-3.597906e+14
0	 7.407407e-02	 3.925926e+00	 1.781127e+15
0	 7.407407e-02	 4.000000e+00	 8.357233e+14
0	 7.407407e-02	 4.074074e+00	 8.798346e+00
0	 1.481481e-01	 3.703704e+00	-7.926554e+14
0	 1.481481e-01	 3.777778e+00	-5.787865e+14
0	 1.481481e-01	 3.851852e+00	-4.495608e+14
0	 1.481481e-01	 3.925926e+00	 9.843472e+15
0	 1.481481e-01	 4.000000e+00	 4.280268e+14
0	 1.481481e-01	 4.074074e+00	 8.807766e+00
0	 2.222222e-01	 3.703704e+00	-9.488682e+14
0	 2.222222e-01	 3.777778e+00	-1.672874e+16
0	 2.222222e-01	 3.851852e+00	 4.353354e+14
0	 2.222222e-01	 3.925926e+00	 1.278445e+15
0	 2.222222e-01	 4.000000e+00	 2.776419e+14
0	 2.222222e-01	 4.074074e+00	 8.820280e+00
0	 2.962963e-01	 3.703704e+00	-6.102447e+14
0	 2.962963e-01	 3.777778e+00	-1.383919e+15
0	 2.962963e-01	 3.851852e+00	-2.561767e+14
0	 2.962963e-01	 3.925926e+00	-6.162357e+14
0	 2.962963e-01	 4.000000e+00	 1.143153e+14
0	 2.962963e-01	 4.074074e+00	 7.650801e+14
0	 3.703704e-01	 3.703704e+00	 5.547889e+14
0	 3.703704e-01	 3.777778e+00	 7.550727e+13
0	 3.703704e-01	 3.851852e+00	-3.568024e+14
0	 3.703704e-01	 3.925926e+00	 1.361686e+14
0	 3.703704e-01	 4.000000e+00	 8.816104e+00
0	 3.703704e-01	 4.074074e+00	 8.855822e+00
0	 0.000000e+00	 4.074074e+00	 2.597589e+14
0	 0.000000e+00	 4.148148e+00	 6.950177e+14
0	 0.000000e+00	 4.222222e+00	-6.227536e+14
0	 0.000000e+00	 4.296296e+00	-4.858732e+15
0	 0.000000e+00	 4.370370e+00	 1.781127e+15
0	 0.000000e+00	 4.444444e+00	 9.006533e+00
0	 7.407407e-02	 4.074074e+00	 2.566150e+14
0	 7.407407e-02	 4.148148e+00	-3.092181e+14
0	 7.407407e-02	 4.222222e+00	-9.687859e+14
0	 7.407407e-02	 4.296296e+00	-5.025057e+15
0	 7.407407e-02	 4.370370e+00	 9.843472e+15
0	 7.407407e-02	 4.444444e+00	 9.006052e+00
0	 1.481481e-01	 4.074074e+00	 3.601307e+14
0	 1.481481e-01	 4.148148e+00	 8.735834e+15
0	 1.481481e-01	 4.222222e+00	-5.618325e+14
0	 1.481481e-01	 4.296296e+00	-3.050786e+15
0	 1.481481e-01	 4.370370e+00	 1.278445e+15
0	 1.481481e-01	 4.444444e+00	 9.010360e+00
0	 2.222222e-01	 4.074074e+00	 1.093017e+15
0	 2.222222e-01	 4.148148e+00	 2.548945e+14
0	 2.222222e-01	 4.222222e+00	 2.449602e+15
0	 2.222222e-01	 4.296296e+00	 3.959280e+14
0	 2.222222e-01	 4.370370e+00	-6.162357e+14
0	 2.222222e-01	 4.444444e+00	 9.019081e+00
0	 2.962963e-01	 4.074074e+00	 2.292532e+14
0	 2.962963e-01	 4.148148e+00	-4.750831e+14
0	 2.962963e-01	 4.222222e+00	 2.935118e+14
0	 2.962963e-01	 4.296296e+00	-8.397670e+14
0	 2.962963e-01	 4.370370e+00	 1.361686e+14
0	 2.962963e-01	 4.444444e+00	 6.607796e+14
0	 3.703704e-01	 4.074074e+00	-1.517155e+14
0	 3.703704e-01	 4.148148e+00	 1.751071e+14
0	 3.703704e-01	 4.222222e+00	-2.170301e+14
0	 3.703704e-01	 4.296296e+00	 1.296562e+14
0	 3.703704e-01	 4.370370e+00	 9.006236e+00
0	 3.703704e-01	 4.444444e+00	 9.048256e+00
0	 0.000000e+00	 4.444444e+00	-3.351126e+14
0	 0.000000e+00	 4.518519e+00	 1.537113e+29
0	 0.000000e+00	 4.592593e+00	-2.799860e+14
0	 0.000000e+00	 4.666667e+00	-7.441462e+14
0	 0.000000e+00	 4.740741e+00	-5.025057e+15
0	 0.000000e+00	 4.814815e+00	 9.192563e+00
0	 7.407407e-02	 4.444444e+00	-2.583953e+14
0	 7.407407e-02	 4.518519e+00	-5.281721e+14
0	 7.407407e-02	 4.592593e+00	-1.891800e+14
0	 7.407407e-02	 4.666667e+00	-4.488327e+14
0	 7.407407e-02	 4.740741e+00	-3.050786e+15
0	 7.407407e-02	 4.814815e+00	 9.194967e+00
0	 1.481481e-01	 4.444444e+00	-3.455502e+14
0	 1.481481e-01	 4.518519e+00	-4.815554e+14
0	 1.481481e-01	 4.592593e+00	-1.391760e+14
0	 1.481481e-01	 4.666667e+00	-2.664445e+14
0	 1.481481e-01	 4.740741e+00	 3.959280e+14
0	 1.481481e-01	 4.814815e+00	 9.199325e+00
0	 2.222222e-01	 4.444444e+00	-3.002218e+14
0	 2.222222e-01	 4.518519e+00	-5.525531e+14
0	 2.222222e-01	 4.592593e+00	-1.889382e+14
0	 2.222222e-01	 4.666667e+00	-2.073868e+14
0	 2.222222e-01	 4.740741e+00	-8.397670e+14
0	 2.222222e-01	 4.814815e+00	 9.205698e+00
0	 2.962963e-01	 4.444444e+00	-8.317670e+13
0	 2.962963e-01	 4.518519e+00	 1.642228e+14
0	 2.962963e-01	 4.592593e+00	-7.527652e+13
0	 2.962963e-01	 4.666667e+00	-3.757294e+14
0	 2.962963e-01	 4.740741e+00	 1.296562e+14
0	 2.962963e-01	 4.814815e+00	 4.340247e+14
0	 3.703704e-01	 4.444444e+00	-1.760495e+14
0	 3.703704e-01	 4.518519e+00	 6.837958e+13
0	 3.703704e-01	 4.592593e+00	-1.595103e+14
0	 3.703704e-01	 4.666667e+00	 1.355542e+14
0	 3.703704e-01	 4.740741e+00	 9.195542e+00
0	 3.703704e-01	 4.814815e+00	 9.224730e+00
0	 0.000000e+00	 4.814815e+00	 6.419167e+14
0	 0.000000e+00	 4.888889e+00	-2.087692e+14
0	 0.000000e+00	 4.962963e+00	-2.933799e+15
0	 0.000000e+00	 5.037037e+00	-5.351452e+14
0	 0.000000e+00	 5.111111e+00	-4.488327e+14
0	 0.000000e+00	 5.185185e+00	 9.335529e+00
0	 7.407407e-02	 4.814815e+00	 4.101041e+14
0	 7.407407e-02	 4.888889e+00	 4.667569e+15
0	 7.407407e-02	 4.962963e+00	 7.540211e+14
0	 7.407407e-02	 5.037037e+00	-6.874374e+14
0	 7.407407e-02	 5.111111e+00	-2.664445e+14
0	 7.407407e-02	 5.185185e+00	 9.335902e+00
0	 1.481481e-01	 4.814815e+00	-5.615933e+15
0	 1.481481e-01	 4.888889e+00	 2.397833e+15
0	 1.481481e-01	 4.962963e+00	-3.808679e+14
0	 1.481481e-01	 5.037037e+00	 1.140937e+15
0	 1.481481e-01	 5.111111e+00	-2.073868e+14
0	 1.481481e-01	 5.185185e+00	 9.338494e+00
0	 2.222222e-01	 4.814815e+00	-7.057507e+14
0	 2.222222e-01	 4.888889e+00	 3.306099e+14
0	 2.222222e-01	 4.962963e+00	-3.776874e+14
0	 2.222222e-01	 5.037037e+00	 3.670880e+14
0	 2.222222e-01	 5.111111e+00	-3.757294e+14
0	 2.222222e-01	 5.185185e+00	 9.343187e+00
0	 2.962963e-01	 4.814815e+00	 8.468093e+14
0	 2.962963e-01	 4.888889e+00	-1.408994e+14
0	 2.962963e-01	 4.962963e+00	-6.026280e+15
0	 2.962963e-01	 5.037037e+00	-1.357386e+14
0	 2.962963e-01	 5.111111e+00	 1.355542e+14
0	 2.962963e-01	 5.185185e+00	-1.118670e+14
0	 3.703704e-01	 4.814815e+00	-1.889358e+14
0	 3.703704e-01	 4.888889e+00	-3.580254e+14
0	 3.703704e-01	 4.962963e+00	 3.295666e+14
0	 3.703704e-01	 5.037037e+00	-3.103956e+14
0	 3.703704e-01	 5.111111e+00	 9.332476e+00
0	 3.703704e-01	 5.185185e+00	 9.358408e+00
0	 0.000000e+00	 5.185185e+00	-9.955481e+14
0	 0.000000e+00	 5.259259e+00	-1.194477e+15
0	 0.000000e+00	 5.333333e+00	-2.239739e+14
0	 0.000000e+00	 5.407407e+00	-1.514956e+15
0	 0.000000e+00	 5.481481e+00	-6.874374e+14
0	 0.000000e+00	 5.555556e+00	 9.455216e+00
0	 7.407407e-02	 5.185185e+00	-6.357125e+14
0	 7.407407e-02	 5.259259e+00	-1.093032e+15
0	 7.407407e-02	 5.333333e+00	-1.316899e+15
0	 7.407407e-02	 5.407407e+00	-4.208837e+14
0	 7.407407e-02	 5.481481e+00	 1.140937e+15
0	 7.407407e-02	 5.555556e+00	 9.456178e+00
0	 1.481481e-01	 5.185185e+00	 3.859432e+14
0	 1.481481e-01	 5.259259e+00	-2.024646e+15
0	 1.481481e-01	 5.333333e+00	-2.885978e+14
0	 1.481481e-01	 5.407407e+00	 7.408548e+14
0	 1.481481e-01	 5.481481e+00	 3.670880e+14
0	 1.481481e-01	 5.555556e+00	 9.458409e+00
0	 2.222222e-01	 5.185185e+00	-4.076371e+14
0	 2.222222e-01	 5.259259e+00	-1.080060e+15
0	 2.222222e-01	 5.333333e+00	 1.775886e+14
0	 2.222222e-01	 5.407407e+00	-3.803534e+14
0	 2.222222e-01	 5.481481e+00	-1.357386e+14
0	 2.222222e-01	 5.555556e+00	 9.461913e+00
0	 2.962963e-01	 5.185185e+00	 1.750402e+15
0	 2.962963e-01	 5.259259e+00	 2.031001e+14
0	 2.962963e-01	 5.333333e+00	-1.254219e+14
0	 2.962963e-01	 5.407407e+00	 2.208540e+14
0	 2.962963e-01	 5.481481e+00	-3.103956e+14
0	 2.962963e-01	 5.555556e+00	 2.255913e+14
0	 3.703704e-01	 5.185185e+00	-3.376473e+14
0	 3.703704e-01	 5.259259e+00	 5.918406e+14
0	 3.703704e-01	 5.333333e+00	-6.513804e+13
0	 3.703704e-01	 5.407407e+00	 5.299749e+15
0	 3.703704e-01	 5.481481e+00	 9.452157e+00
0	 3.703704e-01	 5.555556e+00	 9.472759e+00
0	 0.000000e+00	 5.555556e+00	 3.974009e+14
0	 0.000000e+00	 5.629630e+00	-5.463845e+14
0	 0.000000e+00	 5.703704e+00	-5.589453e+14
0	 0.000000e+00	 5.777778e+00	 2.468496e+14
0	 0.000000e+00	 5.851852e+00	-4.208837e+14
0	 0.000000e+00	 5.925926e+00	 9.553428e+00
0	 7.407407e-02	 5.555556e+00	 3.243465e+14
0	 7.407407e-02	 5.629630e+00	-5.543888e+14
0	 7.407407e-02	 5.703704e+00	 3.033155e+14
0	 7.407407e-02	 5.777778e+00	 1.166048e+15
0	 7.407407e-02	 5.851852e+00	 7.408548e+14
0	 7.407407e-02	 5.925926e+00	 9.553841e+00
0	 1.481481e-01	 5.555556e+00	-5.522813e+14
0	 1.481481e-01	 5.629630e+00	-3.846558e+14
0	 1.481481e-01	 5.703704e+00	 6.131027e+14
0	 1.481481e-01	 5.777778e+00	-1.292868e+15
0	 1.481481e-01	 5.851852e+00	-3.803534e+14
0	 1.481481e-01	 5.925926e+00	 9.555396e+00
0	 2.222222e-01	 5.555556e+00	-2.905551e+14
0	 2.222222e-01	 5.629630e+00	 4.239357e+14
0	 2.222222e-01	 5.703704e+00	-2.689033e+14
0	 2.222222e-01	 5.777778e+00	 2.901919e+14
0	 2.222222e-01	 5.851852e+00	 2.208540e+14
0	 2.222222e-01	 5.925926e+00	 9.558053e+00
0	 2.962963e-01	 5.555556e+00	 5.396352e+15
0	 2.962963e-01	 5.629630e+00	-6.072539e+14
0	 2.962963e-01	 5.703704e+00	 4.018617e+14
0	 2.962963e-01	 5.777778e+00	-1.137362e+14
0	 2.962963e-01	 5.851852e+00	 5.299749e+15
0	 2.962963e-01	 5.925926e+00	-4.812326e+14
0	 3.703704e-01	 5.555556e+00	-4.374702e+14
0	 3.703704e-01	 5.629630e+00	-1.582826e+14
0	 3.703704e-01	 5.703704e+00	 5.391128e+14
0	 3.703704e-01	 5.777778e+00	-1.615289e+14
0	 3.703704e-01	 5.851852e+00	 9.548832e+00
0	 3.703704e-01	 5.925926e+00	 9.566518e+00
0	 0.000000e+00	 5.925926e+00	 4.206080e+14
0	 0.000000e+00	 6.000000e+00	-1.852754e+15
0	 0.000000e+00	 6.074074e+00	-6.445648e+14
0	 0.000000e+00	 6.148148e+00	-7.993246e+14
0	 0.000000e+00	 6.222222e+00	 1.166048e+15
0	 0.000000e+00	 6.296296e+00	 9.636417e+00
0	 7.407407e-02	 5.925926e+00	-4.291581e+14
0	 7.407407e-02	 6.000000e+00	 6.110510e+14
0	 7.407407e-02	 6.074074e+00	 6.380931e+14
0	 7.407407e-02	 6.148148e+00	 3.811185e+14
0	 7.407407e-02	 6.222222e+00	-1.292868e+15
0	 7.407407e-02	 6.296296e+00	 9.636865e+00
0	 1.481481e-01	 5.925926e+00	 8.572803e+14
0	 1.481481e-01	 6.000000e+00	 3.745125e+15
0	 1.481481e-01	 6.074074e+00	-2.420820e+14
0	 1.481481e-01	 6.148148e+00	-5.596613e+14
0	 1.481481e-01	 6.222222e+00	 2.901919e+14
0	 1.481481e-01	 6.296296e+00	 9.638097e+00
0	 2.222222e-01	 5.925926e+00	-4.280398e+14
0	 2.222222e-01	 6.000000e+00	 5.156191e+14
0	 2.222222e-01	 6.074074e+00	 2.244705e+14
0	 2.222222e-01	 6.148148e+00	-3.463576e+14
0	 2.222222e-01	 6.222222e+00	-1.137362e+14
0	 2.222222e-01	 6.296296e+00	 9.640106e+00
0	 2.962963e-01	 5.925926e+00	 2.409641e+14
0	 2.962963e-01	 6.000000e+00	 3.020948e+14
0	 2.962963e-01	 6.074074e+00	-2.340059e+14
0	 2.962963e-01	 6.148148e+00	 2.556099e+14
0	 2.962963e-01	 6.222222e+00	-1.615289e+14
0	 2.962963e-01	 6.296296e+00	-1.027524e+14
0	 3.703704e-01	 5.925926e+00	-2.183889e+14
0	 3.703704e-01	 6.000000e+00	 1.132675e+14
0	 3.703704e-01	 6.074074e+00	 5.276946e+14
0	 3.703704e-01	 6.148148e+00	-1.129911e+14
0	 3.703704e-01	 6.222222e+00	 9.631588e+00
0	 3.703704e-01	 6.296296e+00	 9.646431e+00
0	 0.000000e+00	 6.296296e+00	-6.980665e+14
0	 0.000000e+00	 6.370370e+00	 6.509140e+14
0	 0.000000e+00	 6.444444e+00	 7.497207e+14
0	 0.000000e+00	 6.518519e+00	 9.278617e+14
0	 0.000000e+00	 6.592593e+00	 3.811185e+14
0	 0.000000e+00	 6.666667e+00	 9.706729e+00
0	 7.407407e-02	 6.296296e+00	 2.084107e+14
0	 7.407407e-02	 6.370370e+00	 5.789454e+14
0	 7.407407e-02	 6.444444e+00	 5.642296e+14
0	 7.407407e-02	 6.518519e+00	-9.768908e+14
0	 7.407407e-02	 6.592593e+00	-5.596613e+14
0	 7.407407e-02	 6.666667e+00	 9.707018e+00
0	 1.481481e-01	 6.296296e+00	-1.359368e+15
0	 1.481481e-01	 6.370370e+00	 5.750156e+14
0	 1.481481e-01	 6.444444e+00	-4.266178e+14
0	 1.481481e-01	 6.518519e+00	 4.347198e+14
0	 1.481481e-01	 6.592593e+00	-3.463576e+14
0	 1.481481e-01	 6.666667e+00	 9.707937e+00
0	 2.222222e-01	 6.296296e+00	-1.656547e+15
0	 2.222222e-01	 6.370370e+00	 3.907676e+14
0	 2.222222e-01	 6.444444e+00	 6.664066e+14
0	 2.222222e-01	 6.518519e+00	 2.416294e+14
0	 2.222222e-01	 6.592593e+00	 2.556099e+14
0	 2.222222e-01	 6.666667e+00	 9.709471e+00
0	 2.962963e-01	 6.296296e+00	-1.266633e+15
0	 2.962963e-01	 6.370370e+00	 1.537161e+14
0	 2.962963e-01	 6.444444e+00	-2.716241e+14
0	 2.962963e-01	 6.518519e+00	-1.939427e+14
0	 2.962963e-01	 6.592593e+00	-1.129911e+14
0	 2.962963e-01	 6.666667e+00	-1.665863e+14
0	 3.703704e-01	 6.296296e+00	-1.086029e+14
0	 3.703704e-01	 6.370370e+00	 1.689454e+14
0	 3.703704e-01	 6.444444e+00	-1.240962e+14
0	 3.703704e-01	 6.518519e+00	-6.359906e+14
0	 3.703704e-01	 6.592593e+00	 9.701548e+00
0	 3.703704e-01	 6.666667e+00	 9.714329e+00
0	 0.000000e+00	 6.666667e+00	 6.067753e+15
0	 0.000000e+00	 6.740741e+00	-7.479631e+14
0	 0.000000e+00	 6.814815e+00	-3.858475e+14
0	 0.000000e+00	 6.888889e+00	 2.901979e+16
0	 0.000000e+00	 6.962963e+00	-9.768908e+14
0	 0.000000e+00	 7.037037e+00	 9.767055e+00
0	 7.407407e-02	 6.666667e+00	 2.531709e+14
0	 7.407407e-02	 6.740741e+00	 8.460416e+15
0	 7.407407e-02	 6.814815e+00	-4.073284e+14
0	 7.407407e-02	 6.888889e+00	-9.606006e+15
0	 7.407407e-02	 6.962963e+00	 4.347198e+14
0	 7.407407e-02	 7.037037e+00	 9.767290e+00
0	 1.481481e-01	 6.666667e+00	 2.397240e+14
0	 1.481481e-01	 6.740741e+00	 4.154148e+14
0	 1.481481e-01	 6.814815e+00	-3.845316e+14
0	 1.481481e-01	 6.888889e+00	 1.349650e+15
0	 1.481481e-01	 6.962963e+00	 2.416294e+14
0	 1.481481e-01	 7.037037e+00	 9.767987e+00
0	 2.222222e-01	 6.666667e+00	-1.170621e+15
0	 2.222222e-01	 6.740741e+00	 2.747198e+14
0	 2.222222e-01	 6.814815e+00	 1.362613e+14
0	 2.222222e-01	 6.888889e+00	-2.662179e+14
0	 2.222222e-01	 6.962963e+00	-1.939427e+14
0	 2.222222e-01	 7.037037e+00	 9.769143e+00
0	 2.962963e-01	 6.666667e+00	-2.141913e+14
0	 2.962963e-01	 6.740741e+00	 2.781295e+14
0	 2.962963e-01	 6.814815e+00	-1.455289e+14
0	 2.962963e-01	 6.888889e+00	 1.727316e+14
0	 2.962963e-01	 6.962963e+00	-6.359906e+14
0	 2.962963e-01	 7.037037e+00	-2.844253e+14
0	 3.703704e-01	 6.666667e+00	-1.738379e+14
0	 3.703704e-01	 6.740741e+00	 1.553632e+14
0	 3.703704e-01	 6.814815e+00	 5.191499e+14
0	 3.703704e-01	 6.888889e+00	-1.295575e+14
0	 3.703704e-01	 6.962963e+00	 9.761812e+00
0	 3.703704e-01	 7.037037e+00	 9.772803e+00
0	 0.000000e+00	 7.037037e+00	 1.400693e+15
0	 0.000000e+00	 7.111111e+00	 9.681340e+14
0	 0.000000e+00	 7.185185e+00	 2.730695e+15
0	 0.000000e+00	 7.259259e+00	 7.895521e+14
0	 0.000000e+00	 7.333333e+00	-9.606006e+15
0	 0.000000e+00	 7.407407e+00	 9.818983e+00
0	 7.407407e-02	 7.037037e+00	 5.950467e+14
0	 7.407407e-02	 7.111111e+00	-3.878994e+14
0	 7.407407e-02	 7.185185e+00	 1.057522e+15
0	 7.407407e-02	 7.259259e+00	-3.493159e+14
0	 7.407407e-02	 7.333333e+00	 1.349650e+15
0	 7.407407e-02	 7.407407e+00	 9.819156e+00
0	 1.481481e-01	 7.037037e+00	-1.673516e+15
0	 1.481481e-01	 7.111111e+00	-1.409566e+14
0	 1.481481e-01	 7.185185e+00	 7.436457e+14
0	 1.481481e-01	 7.259259e+00	-4.752117e+14
0	 1.481481e-01	 7.333333e+00	-2.662179e+14
0	 1.481481e-01	 7.407407e+00	 9.819679e+00
0	 2.222222e-01	 7.037037e+00	-1.285116e+14
0	 2.222222e-01	 7.111111e+00	-4.264406e+14
0	 2.222222e-01	 7.185185e+00	-1.646029e+14
0	 2.222222e-01	 7.259259e+00	 8.922928e+14
0	 2.222222e-01	 7.333333e+00	 1.727316e+14
0	 2.222222e-01	 7.407407e+00	 9.820545e+00
0	 2.962963e-01	 7.037037e+00	-6.016684e+14
0	 2.962963e-01	 7.111111e+00	 1.843204e+15
0	 2.962963e-01	 7.185185e+00	 4.909707e+14
0	 2.962963e-01	 7.259259e+00	-7.156688e+13
0	 2.962963e-01	 7.333333e+00	-1.295575e+14
0	 2.962963e-01	 7.407407e+00	-8.136530e+13
0	 3.703704e-01	 7.037037e+00	-9.803548e+14
0	 3.703704e-01	 7.111111e+00	 3.708412e+14
0	 3.703704e-01	 7.185185e+00	 1.316348e+14
0	 3.703704e-01	 7.259259e+00	-1.221626e+14
0	 3.703704e-01	 7.333333e+00	 9.813765e+00
0	 3.703704e-01	 7.407407e+00	 9.823285e+00
0	 0.000000e+00	 7.407407e+00	 8.864202e+15
0	 0.000000e+00	 7.481481e+00	 2.420541e+14
0	 0.000000e+00	 7.555556e+00	-5.473833e+14
0	 0.000000e+00	 7.629630e+00	 2.695044e+14
0	 0.000000e+00	 7.703704e+00	-3.493159e+14
0	 0.000000e+00	 7.777778e+00	 9.863803e+00
0	 7.407407e-02	 7.407407e+00	-4.045352e+15
0	 7.407407e-02	 7.481481e+00	 1.604275e+14
0	 7.407407e-02	 7.555556e+00	-3.262925e+14
0	 7.407407e-02	 7.629630e+00	-1.590565e+15
0	 7.407407e-02	 7.703704e+00	-4.752117e+14
0	 7.407407e-02	 7.777778e+00	 9.863928e+00
0	 1.481481e-01	 7.407407e+00	-4.256704e+15
0	 1.481481e-01	 7.481481e+00	-3.058729e+15
0	 1.481481e-01	 7.555556e+00	-5.507710e+14
0	 1.481481e-01	 7.629630e+00	-2.564510e+14
0	 1.481481e-01	 7.703704e+00	 8.922928e+14
0	 1.481481e-01	 7.777778e+00	 9.864307e+00
0	 2.222222e-01	 7.407407e+00	-2.049082e+14
0	 2.222222e-01	 7.481481e+00	-2.388307e+14
0	 2.222222e-01	 7.555556e+00	 5.228467e+15
0	 2.222222e-01	 7.629630e+00	-9.317119e+14
0	 2.222222e-01	 7.703704e+00	-7.156688e+13
0	 2.222222e-01	 7.777778e+00	 9.864938e+00
0	 2.962963e-01	 7.407407e+00	 1.654126e+14
0	 2.962963e-01	 7.481481e+00	 6.780585e+13
0	 2.962963e-01	 7.555556e+00	-8.262816e+14
0	 2.962963e-01	 7.629630e+00	-9.646318e+13
0	 2.962963e-01	 7.703704e+00	-1.221626e+14
0	 2.962963e-01	 7.777778e+00	 7.940354e+13
0	 3.703704e-01	 7.407407e+00	 2.951840e+14
0	 3.703704e-01	 7.481481e+00	-1.159301e+14
0	 3.703704e-01	 7.555556e+00	-8.664587e+13
0	 3.703704e-01	 7.629630e+00	-4.055572e+14
0	 3.703704e-01	 7.703704e+00	 9.858716e+00
0	 3.703704e-01	 7.777778e+00	 9.866938e+00
0	 0.000000e+00	 7.777778e+00	 3.105310e+14
0	 0.000000e+00	 7.851852e+00	-5.759378e+14
0	 0.000000e+00	 7.925926e+00	 4.419392e+14
0	 0.000000e+00	 8.000000e+00	 4.075645e+03
0	 0.000000e+00	 8.074074e+00	-1.590565e+15
0	 0.000000e+00	 8.148148e+00	 9.902265e+00
0	 7.407407e-02	 7.777778e+00	-2.130516e+14
0	 7.407407e-02	 7.851852e+00	-1.384007e+14
0	 7.407407e-02	 7.925926e+00	-2.834157e+14
0	 7.407407e-02	 8.000000e+00	 1.851030e+15
0	 7.407407e-02	 8.074074e+00	-2.564510e+14
0	 7.407407e-02	 8.148148e+00	 9.902355e+00
0	 1.481481e-01	 7.777778e+00	 5.306712e+14
0	 1.481481e-01	 7.851852e+00	-1.713104e+14
0	 1.481481e-01	 7.925926e+00	-5.240154e+14
0	 1.481481e-01	 8.000000e+00	-1.799874e+14
0	 1.481481e-01	 8.074074e+00	-9.317119e+14
0	 1.481481e-01	 8.148148e+00	 9.902623e+00
0	 2.222222e-01	 7.777778e+00	-2.631511e+14
0	 2.222222e-01	 7.851852e+00	-3.501793e+15
0	 2.222222e-01	 7.925926e+00	 2.574120e+15
0	 2.222222e-01	 8.000000e+00	 4.075645e+03
0	 2.222222e-01	 8.074074e+00	-9.646318e+13
0	 2.222222e-01	 8.148148e+00	 9.903067e+00
0	 2.962963e-01	 7.777778e+00	 2.719568e+14
0	 2.962963e-01	 7.851852e+00	-9.558175e+13
0	 2.962963e-01	 7.925926e+00	-7.732451e+13
0	 2.962963e-01	 8.000000e+00	 1.620486e+14
0	 2.962963e-01	 8.074074e+00	-4.055572e+14
0	 2.962963e-01	 8.148148e+00	 4.960647e+13
0	 3.703704e-01	 7.777778e+00	-1.871361e+14
0	 3.703704e-01	 7.851852e+00	-2.026913e+14
0	 3.703704e-01	 7.925926e+00	-2.188565e+16
0	 3.703704e-01	 8.000000e+00	 4.075645e+03
0	 3.703704e-01	 8.074074e+00	 9.897427e+00
0	 3.703704e-01	 8.148148e+00	 9.904472e+00
0	 0.000000e+00	 8.148148e+00	 9.902265e+00
0	 0.000000e+00	 8.222222e+00	 9.909242e+00
0	 0.000000e+00	 8.296296e+00	 9.915979e+00
0	 0.000000e+00	 8.370370e+00	 9.922481e+00
0	 0.000000e+00	 8.444444e+00	 9.941727e+12
0	 0.000000e+00	 8.518519e+00	 9.934804e+00
0	 7.407407e-02	 8.148148e+00	 9.902355e+00
0	 7.407407e-02	 8.222222e+00	 9.909325e+00
0	 7.407407e-02	 8.296296e+00	 9.916055e+00
0	 7.407407e-02	 8.370370e+00	 9.922550e+00
0	 7.407407e-02	 8.444444e+00	-1.943920e+13
0	 7.407407e-02	 8.518519e+00	 9.934861e+00
0	 1.481481e-01	 8.148148e+00	 9.902623e+00
0	 1.481481e-01	 8.222222e+00	 9.909573e+00
0	 1.481481e-01	 8.296296e+00	 9.916284e+00
0	 1.481481e-01	 8.370370e+00	 9.922760e+00
0	 1.481481e-01	 8.444444e+00	-3.038014e+13
0	 1.481481e-01	 8.518519e+00	 9.935036e+00
0	 2.222222e-01	 8.148148e+00	 9.903067e+00
0	 2.222222e-01	 8.222222e+00	 9.909985e+00
0	 2.222222e-01	 8.296296e+00	 9.916663e+00
0	 2.222222e-01	 8.370370e+00	 9.923109e+00
0	 2.222222e-01	 8.444444e+00	 4.862086e+13
0	 2.222222e-01	 8.518519e+00	 9.935328e+00
0	 2.962963e-01	 8.148148e+00	 9.903685e+00
0	 2.962963e-01	 8.222222e+00	 9.910556e+00
0	 2.962963e-01	 8.296296e+00	 9.917190e+00
0	 2.962963e-01	 8.370370e+00	 9.923594e+00
0	 2.962963e-01	 8.444444e+00	 9.929774e+00
0	 2.962963e-01	 8.518519e+00	 9.935735e+00
0	 3.703704e-01	 8.148148e+00	 9.904472e+00
0	 3.703704e-01	 8.222222e+00	 9.911285e+00
0	 3.703704e-01	 8.296296e+00	 9.917863e+00
0	 3.703704e-01	 8.370370e+00	 9.924214e+00
0	 3.703704e-01	 8.444444e+00	 9.930342e+00
0	 3.703704e-01	 8.518519e+00	 9.936254e+00
0	 0.000000e+00	 8.518519e+00	-1.699041e+13
0	 0.000000e+00	 8.592593e+00	-8.591848e+13
0	 0.000000e+00	 8.666667e+00	 4.576818e+13
0	 0.000000e+00	 8.740741e+00	 9.951494e+00
0	 0.000000e+00	 8.814815e+00	 9.956579e+00
0	 0.000000e+00	 8.888889e+00	 9.961440e+00
0	 7.407407e-02	 8.518519e+00	 9.934861e+00
0	 7.407407e-02	 8.592593e+00	 9.940668e+00
0	 7.407407e-02	 8.666667e+00	 9.946224e+00
0	 7.407407e-02	 8.740741e+00	 9.951538e+00
0	 7.407407e-02	 8.814815e+00	 9.956619e+00
0	 7.407407e-02	 8.888889e+00	 9.961475e+00
0	 1.481481e-01	 8.518519e+00	 9.935036e+00
0	 1.481481e-01	 8.592593e+00	 9.940827e+00
0	 1.481481e-01	 8.666667e+00	 9.946369e+00
0	 1.481481e-01	 8.740741e+00	 9.951669e+00
0	 1.481481e-01	 8.814815e+00	 9.956736e+00
0	 1.481481e-01	 8.888889e+00	 9.961579e+00
0	 2.222222e-01	 8.518519e+00	 9.935328e+00
0	 2.222222e-01	 8.592593e+00	 9.941093e+00
0	 2.222222e-01	 8.666667e+00	 9.946609e+00
0	 2.222222e-01	 8.740741e+00	 9.951885e+00
0	 2.222222e-01	 8.814815e+00	 9.956930e+00
0	 2.222222e-01	 8.888889e+00	 9.961752e+00
0	 2.962963e-01	 8.518519e+00	 9.935735e+00
0	 2.962963e-01	 8.592593e+00	 9.941463e+00
0	 2.962963e-01	 8.666667e+00	 9.946944e+00
0	 2.962963e-01	 8.740741e+00	 9.952186e+00
0	 2.962963e-01	 8.814815e+00	 9.957199e+00
0	 2.962963e-01	 8.888889e+00	 9.961991e+00
0	 3.703704e-01	 8.518519e+00	 9.936254e+00
0	 3.703704e-01	 8.592593e+00	 9.941934e+00
0	 3.703704e-01	 8.666667e+00	 9.947370e+00
0	 3.703704e-01	 8.740741e+00	 9.952570e+00
0	 3.703704e-01	 8.814815e+00	 9.957542e+00
0	 3.703704e-01	 8.888889e+00	 9.962295e+00
0	 0.000000e+00	 8.888889e+00	-2.897798e+13
0	 0.000000e+00	 8.962963e+00	-3.028078e+14
0	 0.000000e+00	 9.037037e+00	-7.279557e+13
0	 0.000000e+00	 9.111111e+00	 9.974447e+00
0	 0.000000e+00	 9.185185e+00	 9.978260e+00
0	 0.000000e+00	 9.259259e+00	 9.981831e+00
0	 7.407407e-02	 8.888889e+00	 9.961475e+00
0	 7.407407e-02	 8.962963e+00	 9.966080e+00
0	 7.407407e-02	 9.037037e+00	 9.970407e+00
0	 7.407407e-02	 9.111111e+00	 9.974469e+00
0	 7.407407e-02	 9.185185e+00	 9.978279e+00
0	 7.407407e-02	 9.259259e+00	 9.981847e+00
0	 1.481481e-01	 8.888889e+00	 9.961579e+00
0	 1.481481e-01	 8.962963e+00	 9.966171e+00
0	 1.481481e-01	 9.037037e+00	 9.970487e+00
0	 1.481481e-01	 9.111111e+00	 9.974538e+00
0	 1.481481e-01	 9.185185e+00	 9.978337e+00
0	 1.481481e-01	 9.259259e+00	 9.981896e+00
0	 2.222222e-01	 8.888889e+00	 9.961752e+00
0	 2.222222e-01	 8.962963e+00	 9.966323e+00
0	 2.222222e-01	 9.037037e+00	 9.970619e+00
0	 2.222222e-01	 9.111111e+00	 9.974653e+00
0	 2.222222e-01	 9.185185e+00	 9.978435e+00
0	 2.222222e-01	 9.259259e+00	 9.981977e+00
0	 2.962963e-01	 8.888889e+00	 9.961991e+00
0	 2.962963e-01	 8.962963e+00	 9.966534e+00
0	 2.962963e-01	 9.037037e+00	 9.970803e+00
0	 2.962963e-01	 9.111111e+00	 9.974811e+00
0	 2.962963e-01	 9.185185e+00	 9.978570e+00
0	 2.962963e-01	 9.259259e+00	 9.982090e+00
0	 3.703704e-01	 8.888889e+00	 9.962295e+00
0	 3.703704e-01	 8.962963e+00	 9.966802e+00
0	 3.703704e-01	 9.037037e+00	 9.971037e+00
0	 3.703704e-01	 9.111111e+00	 9.975013e+00
0	 3.703704e-01	 9.185185e+00	 9.978741e+00
0	 3.703704e-01	 9.259259e+00	 9.982234e+00
0	 0.000000e+00	 9.259259e+00	-1.681761e+14
0	 0.000000e+00	 9.333333e+00	 6.598328e+13
0	 0.000000e+00	 9.407407e+00	 5.986721e+13
0	 0.000000e+00	 9.481481e+00	 9.990718e+00
0	 0.000000e+00	 9.555556e+00	 9.993068e+00
0	 0.000000e+00	 9.629630e+00	 9.995140e+00
0	 7.407407e-02	 9.259259e+00	 9.981847e+00
0	 7.407407e-02	 9.333333e+00	 9.985129e+00
0	 7.407407e-02	 9.407407e+00	 9.988083e+00
0	 7.407407e-02	 9.481481e+00	 9.990726e+00
0	 7.407407e-02	 9.555556e+00	 9.993074e+00
0	 7.407407e-02	 9.629630e+00	 9.995144e+00
0	 1.481481e-01	 9.259259e+00	 9.981896e+00
0	 1.481481e-01	 9.333333e+00	 9.985169e+00
0	 1.481481e-01	 9.407407e+00	 9.988116e+00
0	 1.481481e-01	 9.481481e+00	 9.990752e+00
0	 1.481481e-01	 9.555556e+00	 9.993094e+00
0	 1.481481e-01	 9.629630e+00	 9.995158e+00
0	 2.222222e-01	 9.259259e+00	 9.981977e+00
0	 2.222222e-01	 9.333333e+00	 9.985236e+00
0	 2.222222e-01	 9.407407e+00	 9.988170e+00
0	 2.222222e-01	 9.481481e+00	 9.990794e+00
0	 2.222222e-01	 9.555556e+00	 9.993126e+00
0	 2.222222e-01	 9.629630e+00	 9.995181e+00
0	 2.962963e-01	 9.259259e+00	 9.982090e+00
0	 2.962963e-01	 9.333333e+00	 9.985329e+00
0	 2.962963e-01	 9.407407e+00	 9.988244e+00
0	 2.962963e-01	 9.481481e+00	 9.990852e+00
0	 2.962963e-01	 9.555556e+00	 9.993169e+00
0	 2.962963e-01	 9.629630e+00	 9.995211e+00
0	 3.703704e-01	 9.259259e+00	 9.982234e+00
0	 3.703704e-01	 9.333333e+00	 9.985446e+00
0	 3.703704e-01	 9.407407e+00	 9.988338e+00
0	 3.703704e-01	 9.481481e+00	 9.990925e+00
0	 3.703704e-01	 9.555556e+00	 9.993223e+00
0	 3.703704e-01	 9.629630e+00	 9.995248e+00
0	 0.000000e+00	 9.629630e+00	 3.104385e+14
0	 0.000000e+00	 9.703704e+00	 1.032261e+14
0	 0.000000e+00	 9.777778e+00	 1.029123e+14
0	 0.000000e+00	 9.851852e+00	 9.999169e+00
0	 0.000000e+00	 9.925926e+00	 9.999776e+00
0	 0.000000e+00	 1.000000e+01	 1.000005e+01
0	 7.407407e-02	 9.629630e+00	 9.995144e+00
0	 7.407407e-02	 9.703704e+00	 9.996875e+00
0	 7.407407e-02	 9.777778e+00	 9.998209e+00
0	 7.407407e-02	 9.851852e+00	 9.999169e+00
0	 7.407407e-02	 9.925926e+00	 9.999776e+00
0	 7.407407e-02	 1.000000e+01	 1.000005e+01
0	 1.481481e-01	 9.629630e+00	 9.995158e+00
0	 1.481481e-01	 9.703704e+00	 9.996884e+00
0	 1.481481e-01	 9.777778e+00	 9.998214e+00
0	 1.481481e-01	 9.851852e+00	 9.999171e+00
0	 1.481481e-01	 9.925926e+00	 9.999777e+00
0	 1.481481e-01	 1.000000e+01	 1.000005e+01
0	 2.222222e-01	 9.629630e+00	 9.995181e+00
0	 2.222222e-01	 9.703704e+00	 9.996899e+00
0	 2.222222e-01	 9.777778e+00	 9.998223e+00
0	 2.222222e-01	 9.851852e+00	 9.999176e+00
0	 2.222222e-01	 9.925926e+00	 9.999779e+00
0	 2.222222e-01	 1.000000e+01	 1.000005e+01
0	 2.962963e-01	 9.629630e+00	 9.995211e+00
0	 2.962963e-01	 9.703704e+00	 9.996918e+00
0	 2.962963e-01	 9.777778e+00	 9.998234e+00
0	 2.962963e-01	 9.851852e+00	 9.999181e+00
0	 2.962963e-01	 9.925926e+00	 9.999780e+00
0	 2.962963e-01	 1.000000e+01	 1.000005e+01
0	 3.703704e-01	 9.629630e+00	 9.995248e+00
0	 3.703704e-01	 9.703704e+00	 9.996941e+00
0	 3.703704e-01	 9.777778e+00	 9.998247e+00
0	 3.703704e-01	 9.851852e+00	 9.999186e+00
0	 3.703704e-01	 9.925926e+00	 9.999780e+00
0	 3.703704e-01	 1.000000e+01	 1.000005e+01
0	 3.703704e-01	 0.000000e+00	-1.494125e+14
0	 3.703704e-01	 7.407407e-02	-1.052902e+14
0	 3.703704e-01	 1.481481e-01	-2.085228e+14
0	 3.703704e-01	 2.222222e-01	 3.661929e-01
0	 3.703704e-01	 2.962963e-01	 4.458205e-01
0	 3.703704e-01	 3.703704e-01	 4.696062e-01
0	 4.444444e-01	 0.000000e+00	-3.679279e-01
0	 4.444444e-01	 7.407407e-02	-4.007252e-02
0	 4.444444e-01	 1.481481e-01	 2.743720e-01
0	 4.444444e-01	 2.222222e-01	 4.811348e-01
0	 4.444444e-01	 2.962963e-01	 4.859452e-01
0	 4.444444e-01	 3.703704e-01	 1.945323e-01
0	 5.185185e-01	 0.000000e+00	-3.636564e-01
0	 5.185185e-01	 7.407407e-02	 1.096945e-02
0	 5.185185e-01	 1.481481e-01	 3.533941e-01
0	 5.185185e-01	 2.222222e-01	 5.238848e-01
0	 5.185185e-01	 2.962963e-01	 3.827087e-01
0	 5.185185e-01	 3.703704e-01	-2.098671e-01
0	 5.925926e-01	 0.000000e+00	-1.627440e-01
0	 5.925926e-01	 7.407407e-02	 2.071243e-01
0	 5.925926e-01	 1.481481e-01	 5.004773e-01
0	 5.925926e-01	 2.222222e-01	 5.683365e-01
0	 5.925926e-01	 2.962963e-01	 2.617239e-01
0	 5.925926e-01	 3.703704e-01	-5.683388e-01
0	 6.666667e-01	 0.000000e+00	 1.410701e-01
0	 6.666667e-01	 7.407407e-02	 5.126098e-01
0	 6.666667e-01	 1.481481e-01	 7.357167e-01
0	 6.666667e-01	 2.222222e-01	 6.883837e-01
0	 6.666667e-01	 2.962963e-01	 2.486039e-01
0	 6.666667e-01	 3.703704e-01	-7.056298e-01
0	 7.407407e-01	 0.000000e+00	 4.540467e-01
0	 7.407407e-01	 7.407407e-02	 8.916434e-01
0	 7.407407e-01	 1.481481e-01	 1.079208e+00
0	 7.407407e-01	 2.222222e-01	 9.579200e-01
0	 7.407407e-01	 2.962963e-01	 4.689615e-01
0	 7.407407e-01	 3.703704e-01	-4.464872e-01
0	 3.703704e-01	 3.703704e-01	 1.844286e+14
0	 3.703704e-01	 4.444444e-01	 3.202685e+14
0	 3.703704e-01	 5.185185e-01	-5.446305e+14
0	 3.703704e-01	 5.925926e-01	-1.548248e-01
0	 3.703704e-01	 6.666667e-01	-6.454047e-01
0	 3.703704e-01	 7.407407e-01	-1.287216e+00
0	 4.444444e-01	 3.703704e-01	 1.945323e-01
0	 4.444444e-01	 4.444444e-01	-2.057507e-01
0	 4.444444e-01	 5.185185e-01	-4.418887e-01
0	 4.444444e-01	 5.925926e-01	-4.796594e-01
0	 4.444444e-01	 6.666667e-01	-2.848409e-01
0	 4.444444e-01	 7.407407e-01	 1.767891e-01
0	 5.185185e-01	 3.703704e-01	-2.098671e-01
0	 5.185185e-01	 4.444444e-01	-8.507053e-01
0	 5.185185e-01	 5.185185e-01	-1.002939e+00
0	 5.185185e-01	 5.925926e-01	-6.057048e-01
0	 5.185185e-01	 6.666667e-01	 4.018592e-01
0	 5.185185e-01	 7.407407e-01	 2.080616e+00
0	 5.925926e-01	 3.703704e-01	-5.683388e-01
0	 5.925926e-01	 4.444444e-01	-1.337542e+00
0	 5.925926e-01	 5.185185e-01	-1.312980e+00
0	 5.925926e-01	 5.925926e-01	-4.207410e-01
0	 5.925926e-01	 6.666667e-01	 1.413089e+00
0	 5.925926e-01	 7.407407e-01	 4.262423e+00
0	 6.666667e-01	 3.703704e-01	-7.056298e-01
0	 6.666667e-01	 4.444444e-01	-1.465610e+00
0	 6.666667e-01	 5.185185e-01	-1.192374e+00
0	 6.666667e-01	 5.925926e-01	 1.874520e-01
0	 6.666667e-01	 6.666667e-01	 2.747242e+00
0	 6.666667e-01	 7.407407e-01	 6.560371e+00
0	 7.407407e-01	 3.703704e-01	-4.464872e-01
0	 7.407407e-01	 4.444444e-01	-1.034260e+00
0	 7.407407e-01	 5.185185e-01	-4.614815e-01
0	 7.407407e-01	 5.925926e-01	 1.331094e+00
0	 7.407407e-01	 6.666667e-01	 4.402712e+00
0	 7.407407e-01	 7.407407e-01	 8.812618e+00
0	 3.703704e-01	 7.407407e-01	-3.449324e+15
0	 3.703704e-01	 8.148148e-01	-1.095402e+14
0	 3.703704e-01	 8.888889e-01	-1.271062e+14
0	 3.703704e-01	 9.629630e-01	 1.037880e+01
0	 3.703704e-01	 1.037037e+00	 2.044536e+01
0	 3.703704e-01	 1.111111e+00	 3.362195e+01
0	 4.444444e-01	 7.407407e-01	 1.767891e-01
0	 4.444444e-01	 8.148148e-01	 2.049373e+00
0	 4.444444e-01	 8.888889e-01	 6.446412e+00
0	 4.444444e-01	 9.629630e-01	 1.335616e+01
0	 4.444444e-01	 1.037037e+00	 2.276688e+01
0	 4.444444e-01	 1.111111e+00	 3.466683e+01
0	 5.185185e-01	 7.407407e-01	 2.080616e+00
0	 5.185185e-01	 8.148148e-01	 5.065476e+00
0	 5.185185e-01	 8.888889e-01	 9.932653e+00
0	 5.185185e-01	 9.629630e-01	 1.665496e+01
0	 5.185185e-01	 1.037037e+00	 2.520522e+01
0	 5.185185e-01	 1.111111e+00	 3.555625e+01
0	 5.925926e-01	 7.407407e-01	 4.262423e+00
0	 5.925926e-01	 8.148148e-01	 8.264848e+00
0	 5.925926e-01	 8.888889e-01	 1.348623e+01
0	 5.925926e-01	 9.629630e-01	 1.989290e+01
0	 5.925926e-01	 1.037037e+00	 2.745119e+01
0	 5.925926e-01	 1.111111e+00	 3.612743e+01
0	 6.666667e-01	 7.407407e-01	 6.560371e+00
0	 6.666667e-01	 8.148148e-01	 1.133886e+01
0	 6.666667e-01	 8.888889e-01	 1.672503e+01
0	 6.666667e-01	 9.629630e-01	 2.268767e+01
0	 6.666667e-01	 1.037037e+00	 2.919559e+01
0	 6.666667e-01	 1.111111e+00	 3.621760e+01
0	 7.407407e-01	 7.407407e-01	 8.812618e+00
0	 7.407407e-01	 8.148148e-01	 1.397889e+01
0	 7.407407e-01	 8.888889e-01	 1.926693e+01
0	 7.407407e-01	 9.629630e-01	 2.465698e+01
0	 7.407407e-01	 1.037037e+00	 3.012925e+01
0	 7.407407e-01	 1.111111e+00	 3.566398e+01
0	 3.703704e-01	 1.111111e+00	 2.965319e+14
0	 3.703704e-01	 1.185185e+00	-3.751554e+15
0	 3.703704e-01	 1.259259e+00	-1.897155e+15
0	 3.703704e-01	 1.333333e+00	 5.853546e+01
0	 3.703704e-01	 1.407407e+00	 5.826304e+01
0	 3.703704e-01	 1.481481e+00	 5.370103e+01
0	 4.444444e-01	 1.111111e+00	 3.466683e+01
0	 4.444444e-01	 1.185185e+00	 4.582025e+01
0	 4.444444e-01	 1.259259e+00	 5.300988e+01
0	 4.444444e-01	 1.333333e+00	 5.625174e+01
0	 4.444444e-01	 1.407407e+00	 5.556183e+01
0	 4.444444e-01	 1.481481e+00	 5.095618e+01
0	 5.185185e-01	 1.111111e+00	 3.555625e+01
0	 5.185185e-01	 1.185185e+00	 4.502131e+01
0	 5.185185e-01	 1.259259e+00	 5.094802e+01
0	 5.185185e-01	 1.333333e+00	 5.336073e+01
0	 5.185185e-01	 1.407407e+00	 5.228380e+01
0	 5.185185e-01	 1.481481e+00	 4.774158e+01
0	 5.925926e-01	 1.111111e+00	 3.612743e+01
0	 5.925926e-01	 1.185185e+00	 4.381283e+01
0	 5.925926e-01	 1.259259e+00	 4.843725e+01
0	 5.925926e-01	 1.333333e+00	 5.002503e+01
0	 5.925926e-01	 1.407407e+00	 4.860052e+01
0	 5.925926e-01	 1.481481e+00	 4.418806e+01
0	 6.666667e-01	 1.111111e+00	 3.621760e+01
0	 6.666667e-01	 1.185185e+00	 4.219022e+01
0	 6.666667e-01	 1.259259e+00	 4.558145e+01
0	 6.666667e-01	 1.333333e+00	 4.640725e+01
0	 6.666667e-01	 1.407407e+00	 4.468358e+01
0	 6.666667e-01	 1.481481e+00	 4.042644e+01
0	 7.407407e-01	 1.111111e+00	 3.566398e+01
0	 7.407407e-01	 1.185185e+00	 4.014892e+01
0	 7.407407e-01	 1.259259e+00	 4.248450e+01
0	 7.407407e-01	 1.333333e+00	 4.266997e+01
0	 7.407407e-01	 1.407407e+00	 4.070457e+01
0	 7.407407e-01	 1.481481e+00	 3.658756e+01
0	 3.703704e-01	 1.481481e+00	-1.737818e+14
0	 3.703704e-01	 1.555556e+00	-1.272502e+14
0	 3.703704e-01	 1.629630e+00	-4.971843e+14
0	 3.703704e-01	 1.703704e+00	 3.336489e+01
0	 3.703704e-01	 1.777778e+00	 2.647603e+01
0	 3.703704e-01	 1.851852e+00	 1.952298e+01
0	 4.444444e-01	 1.481481e+00	 5.095618e+01
0	 4.444444e-01	 1.555556e+00	 4.441607e+01
0	 4.444444e-01	 1.629630e+00	 3.790317e+01
0	 4.444444e-01	 1.703704e+00	 3.140411e+01
0	 4.444444e-01	 1.777778e+00	 2.490549e+01
0	 4.444444e-01	 1.851852e+00	 1.839392e+01
0	 5.185185e-01	 1.481481e+00	 4.774158e+01
0	 5.185185e-01	 1.555556e+00	 4.151645e+01
0	 5.185185e-01	 1.629630e+00	 3.536334e+01
0	 5.185185e-01	 1.703704e+00	 2.926540e+01
0	 5.185185e-01	 1.777778e+00	 2.320582e+01
0	 5.185185e-01	 1.851852e+00	 1.716775e+01
0	 5.925926e-01	 1.481481e+00	 4.418806e+01
0	 5.925926e-01	 1.555556e+00	 3.834778e+01
0	 5.925926e-01	 1.629630e+00	 3.261309e+01
0	 5.925926e-01	 1.703704e+00	 2.696818e+01
0	 5.925926e-01	 1.777778e+00	 2.139725e+01
0	 5.925926e-01	 1.851852e+00	 1.588452e+01
0	 6.666667e-01	 1.481481e+00	 4.042644e+01
0	 6.666667e-01	 1.555556e+00	 3.498475e+01
0	 6.666667e-01	 1.629630e+00	 2.968998e+01
0	 6.666667e-01	 1.703704e+00	 2.453184e+01
0	 6.666667e-01	 1.777778e+00	 1.950005e+01
0	 6.666667e-01	 1.851852e+00	 1.458433e+01
0	 7.407407e-01	 1.481481e+00	 3.658756e+01
0	 7.407407e-01	 1.555556e+00	 3.150208e+01
0	 7.407407e-01	 1.629630e+00	 2.663160e+01
0	 7.407407e-01	 1.703704e+00	 2.197582e+01
0	 7.407407e-01	 1.777778e+00	 1.753446e+01
0	 7.407407e-01	 1.851852e+00	 1.330724e+01
0	 3.703704e-01	 1.851852e+00	 1.935462e+14
0	 3.703704e-01	 1.925926e+00	 2.921466e+14
0	 3.703704e-01	 2.000000e+00	-2.056973e+15
0	 3.703704e-01	 2.074074e+00	 5.912771e+00
0	 3.703704e-01	 2.148148e+00	 4.651701e+00
0	 3.703704e-01	 2.222222e+00	 5.033888e+00
0	 4.444444e-01	 1.851852e+00	 1.839392e+01
0	 4.444444e-01	 1.925926e+00	 1.264754e+01
0	 4.444444e-01	 2.000000e+00	 8.454815e+00
0	 4.444444e-01	 2.074074e+00	 5.817819e+00
0	 4.444444e-01	 2.148148e+00	 4.738636e+00
0	 4.444444e-01	 2.222222e+00	 5.219347e+00
0	 5.185185e-01	 1.851852e+00	 1.716775e+01
0	 5.185185e-01	 1.925926e+00	 1.187158e+01
0	 5.185185e-01	 2.000000e+00	 8.048969e+00
0	 5.185185e-01	 2.074074e+00	 5.700011e+00
0	 5.185185e-01	 2.148148e+00	 4.824783e+00
0	 5.185185e-01	 2.222222e+00	 5.423367e+00
0	 5.925926e-01	 1.851852e+00	 1.588452e+01
0	 5.925926e-01	 1.925926e+00	 1.108667e+01
0	 5.925926e-01	 2.000000e+00	 7.669092e+00
0	 5.925926e-01	 2.074074e+00	 5.629042e+00
0	 5.925926e-01	 2.148148e+00	 4.963785e+00
0	 5.925926e-01	 2.222222e+00	 5.670581e+00
0	 6.666667e-01	 1.851852e+00	 1.458433e+01
0	 6.666667e-01	 1.925926e+00	 1.035574e+01
0	 6.666667e-01	 2.000000e+00	 7.387966e+00
0	 6.666667e-01	 2.074074e+00	 5.674609e+00
0	 6.666667e-01	 2.148148e+00	 5.209289e+00
0	 6.666667e-01	 2.222222e+00	 5.985622e+00
0	 7.407407e-01	 1.851852e+00	 1.330724e+01
0	 7.407407e-01	 1.925926e+00	 9.741701e+00
0	 7.407407e-01	 2.000000e+00	 7.278375e+00
0	 7.407407e-01	 2.074074e+00	 5.906406e+00
0	 7.407407e-01	 2.148148e+00	 5.614938e+00
0	 7.407407e-01	 2.222222e+00	 6.393120e+00
0	 3.703704e-01	 2.222222e+00	-1.392033e+15
0	 3.703704e-01	 2.296296e+00	-1.164995e+14
0	 3.703704e-01	 2.370370e+00	-1.169577e+14
0	 3.703704e-01	 2.444444e+00	 7.383997e+00
0	 3.703704e-01	 2.518519e+00	 7.599222e+00
0	 3.703704e-01	 2.592593e+00	 7.526559e+00
0	 4.444444e-01	 2.222222e+00	 5.219347e+00
0	 4.444444e-01	 2.296296e+00	 6.326104e+00
0	 4.444444e-01	 2.370370e+00	 7.124691e+00
0	 4.444444e-01	 2.444444e+00	 7.616631e+00
0	 4.444444e-01	 2.518519e+00	 7.803446e+00
0	 4.444444e-01	 2.592593e+00	 7.686657e+00
0	 5.185185e-01	 2.222222e+00	 5.423367e+00
0	 5.185185e-01	 2.296296e+00	 6.586849e+00
0	 5.185185e-01	 2.370370e+00	 7.409587e+00
0	 5.185185e-01	 2.444444e+00	 7.896569e+00
0	 5.185185e-01	 2.518519e+00	 8.052787e+00
0	 5.185185e-01	 2.592593e+00	 7.883230e+00
0	 5.925926e-01	 2.222222e+00	 5.670581e+00
0	 5.925926e-01	 2.296296e+00	 6.875604e+00
0	 5.925926e-01	 2.370370e+00	 7.712261e+00
0	 5.925926e-01	 2.444444e+00	 8.188666e+00
0	 5.925926e-01	 2.518519e+00	 8.312933e+00
0	 5.925926e-01	 2.592593e+00	 8.093176e+00
0	 6.666667e-01	 2.222222e+00	 5.985622e+00
0	 6.666667e-01	 2.296296e+00	 7.186695e+00
0	 6.666667e-01	 2.370370e+00	 8.007115e+00
0	 6.666667e-01	 2.444444e+00	 8.457776e+00
0	 6.666667e-01	 2.518519e+00	 8.549570e+00
0	 6.666667e-01	 2.592593e+00	 8.293391e+00
0	 7.407407e-01	 2.222222e+00	 6.393120e+00
0	 7.407407e-01	 2.296296e+00	 7.514450e+00
0	 7.407407e-01	 2.370370e+00	 8.268552e+00
0	 7.407407e-01	 2.444444e+00	 8.668754e+00
0	 7.407407e-01	 2.518519e+00	 8.728385e+00
0	 7.407407e-01	 2.592593e+00	 8.460772e+00
0	 3.703704e-01	 2.592593e+00	-5.315281e+14
0	 3.703704e-01	 2.666667e+00	-5.329908e+14
0	 3.703704e-01	 2.740741e+00	-2.671592e+14
0	 3.703704e-01	 2.814815e+00	 7.292302e+00
0	 3.703704e-01	 2.888889e+00	 7.404192e+00
0	 3.703704e-01	 2.962963e+00	 7.613733e+00
0	 4.444444e-01	 2.592593e+00	 7.686657e+00
0	 4.444444e-01	 2.666667e+00	 7.473406e+00
0	 4.444444e-01	 2.740741e+00	 7.368854e+00
0	 4.444444e-01	 2.814815e+00	 7.371553e+00
0	 4.444444e-01	 2.888889e+00	 7.480057e+00
0	 4.444444e-01	 2.962963e+00	 7.692921e+00
0	 5.185185e-01	 2.592593e+00	 7.883230e+00
0	 5.185185e-01	 2.666667e+00	 7.617075e+00
0	 5.185185e-01	 2.740741e+00	 7.477512e+00
0	 5.185185e-01	 2.814815e+00	 7.460551e+00
0	 5.185185e-01	 2.888889e+00	 7.562200e+00
0	 5.185185e-01	 2.962963e+00	 7.778469e+00
0	 5.925926e-01	 2.592593e+00	 8.093176e+00
0	 5.925926e-01	 2.666667e+00	 7.777222e+00
0	 5.925926e-01	 2.740741e+00	 7.603469e+00
0	 5.925926e-01	 2.814815e+00	 7.565883e+00
0	 5.925926e-01	 2.888889e+00	 7.658431e+00
0	 5.925926e-01	 2.962963e+00	 7.875080e+00
0	 6.666667e-01	 2.592593e+00	 8.293391e+00
0	 6.666667e-01	 2.666667e+00	 7.944975e+00
0	 6.666667e-01	 2.740741e+00	 7.747749e+00
0	 6.666667e-01	 2.814815e+00	 7.694137e+00
0	 6.666667e-01	 2.888889e+00	 7.776564e+00
0	 6.666667e-01	 2.962963e+00	 7.987455e+00
0	 7.407407e-01	 2.592593e+00	 8.460772e+00
0	 7.407407e-01	 2.666667e+00	 8.111464e+00
0	 7.407407e-01	 2.740741e+00	 7.911379e+00
0	 7.407407e-01	 2.814815e+00	 7.851900e+00
0	 7.407407e-01	 2.888889e+00	 7.924412e+00
0	 7.407407e-01	 2.962963e+00	 8.120298e+00
0	 3.703704e-01	 2.962963e+00	-4.778368e+14
0	 3.703704e-01	 3.037037e+00	 4.786212e+14
0	 3.703704e-01	 3.111111e+00	 4.313875e+14
0	 3.703704e-01	 3.185185e+00	 8.172024e+00
0	 3.703704e-01	 3.259259e+00	 8.259247e+00
0	 3.703704e-01	 3.333333e+00	 8.295905e+00
0	 4.444444e-01	 2.962963e+00	 7.692921e+00
0	 4.444444e-01	 3.037037e+00	 7.929968e+00
0	 4.444444e-01	 3.111111e+00	 8.112877e+00
0	 4.444444e-01	 3.185185e+00	 8.242982e+00
0	 4.444444e-01	 3.259259e+00	 8.321619e+00
0	 4.444444e-01	 3.333333e+00	 8.350120e+00
0	 5.185185e-01	 2.962963e+00	 7.778469e+00
0	 5.185185e-01	 3.037037e+00	 8.019822e+00
0	 5.185185e-01	 3.111111e+00	 8.201348e+00
0	 5.185185e-01	 3.185185e+00	 8.325991e+00
0	 5.185185e-01	 3.259259e+00	 8.396700e+00
0	 5.185185e-01	 3.333333e+00	 8.416420e+00
0	 5.925926e-01	 2.962963e+00	 7.875080e+00
0	 5.925926e-01	 3.037037e+00	 8.118288e+00
0	 5.925926e-01	 3.111111e+00	 8.297310e+00
0	 5.925926e-01	 3.185185e+00	 8.416305e+00
0	 5.925926e-01	 3.259259e+00	 8.479433e+00
0	 5.925926e-01	 3.333333e+00	 8.490855e+00
0	 6.666667e-01	 2.962963e+00	 7.987455e+00
0	 6.666667e-01	 3.037037e+00	 8.225498e+00
0	 6.666667e-01	 3.111111e+00	 8.397747e+00
0	 6.666667e-01	 3.185185e+00	 8.509177e+00
0	 6.666667e-01	 3.259259e+00	 8.564762e+00
0	 6.666667e-01	 3.333333e+00	 8.569477e+00
0	 7.407407e-01	 2.962963e+00	 8.120298e+00
0	 7.407407e-01	 3.037037e+00	 8.341586e+00
0	 7.407407e-01	 3.111111e+00	 8.499644e+00
0	 7.407407e-01	 3.185185e+00	 8.599862e+00
0	 7.407407e-01	 3.259259e+00	 8.647630e+00
0	 7.407407e-01	 3.333333e+00	 8.648339e+00
0	 3.703704e-01	 3.333333e+00	-9.619218e+14
0	 3.703704e-01	 3.407407e+00	-7.220911e+14
0	 3.703704e-01	 3.481481e+00	-7.226592e+14
0	 3.703704e-01	 3.555556e+00	 8.398462e+00
0	 3.703704e-01	 3.629630e+00	 8.463966e+00
0	 3.703704e-01	 3.703704e+00	 8.545507e+00
0	 4.444444e-01	 3.333333e+00	 8.350120e+00
0	 4.444444e-01	 3.407407e+00	 8.363195e+00
0	 4.444444e-01	 3.481481e+00	 8.394092e+00
0	 4.444444e-01	 3.555556e+00	 8.441955e+00
0	 4.444444e-01	 3.629630e+00	 8.505930e+00
0	 4.444444e-01	 3.703704e+00	 8.585163e+00
0	 5.185185e-01	 3.333333e+00	 8.416420e+00
0	 5.185185e-01	 3.407407e+00	 8.422250e+00
0	 5.185185e-01	 3.481481e+00	 8.448197e+00
0	 5.185185e-01	 3.555556e+00	 8.492571e+00
0	 5.185185e-01	 3.629630e+00	 8.553679e+00
0	 5.185185e-01	 3.703704e+00	 8.629831e+00
0	 5.925926e-01	 3.333333e+00	 8.490855e+00
0	 5.925926e-01	 3.407407e+00	 8.489486e+00
0	 5.925926e-01	 3.481481e+00	 8.509950e+00
0	 5.925926e-01	 3.555556e+00	 8.549963e+00
0	 5.925926e-01	 3.629630e+00	 8.607243e+00
0	 5.925926e-01	 3.703704e+00	 8.679509e+00
0	 6.666667e-01	 3.333333e+00	 8.569477e+00
0	 6.666667e-01	 3.407407e+00	 8.562569e+00
0	 6.666667e-01	 3.481481e+00	 8.578214e+00
0	 6.666667e-01	 3.555556e+00	 8.613785e+00
0	 6.666667e-01	 3.629630e+00	 8.666654e+00
0	 6.666667e-01	 3.703704e+00	 8.734192e+00
0	 7.407407e-01	 3.333333e+00	 8.648339e+00
0	 7.407407e-01	 3.407407e+00	 8.639161e+00
0	 7.407407e-01	 3.481481e+00	 8.651854e+00
0	 7.407407e-01	 3.555556e+00	 8.683691e+00
0	 7.407407e-01	 3.629630e+00	 8.731941e+00
0	 7.407407e-01	 3.703704e+00	 8.793878e+00
0	 3.703704e-01	 3.703704e+00	 2.286185e+14
0	 3.703704e-01	 3.777778e+00	 1.498564e+14
0	 3.703704e-01	 3.851852e+00	 3.105487e+14
0	 3.703704e-01	 3.925926e+00	 8.765106e+00
0	 3.703704e-01	 4.000000e+00	 8.816104e+00
0	 3.703704e-01	 4.074074e+00	 8.855822e+00
0	 4.444444e-01	 3.703704e+00	 8.585163e+00
0	 4.444444e-01	 3.777778e+00	 8.665918e+00
0	 4.444444e-01	 3.851852e+00	 8.735334e+00
0	 4.444444e-01	 3.925926e+00	 8.793859e+00
0	 4.444444e-01	 4.000000e+00	 8.841946e+00
0	 4.444444e-01	 4.074074e+00	 8.880046e+00
0	 5.185185e-01	 3.703704e+00	 8.629831e+00
0	 5.185185e-01	 3.777778e+00	 8.706904e+00
0	 5.185185e-01	 3.851852e+00	 8.772491e+00
0	 5.185185e-01	 3.925926e+00	 8.827470e+00
0	 5.185185e-01	 4.000000e+00	 8.872723e+00
0	 5.185185e-01	 4.074074e+00	 8.909130e+00
0	 5.925926e-01	 3.703704e+00	 8.679509e+00
0	 5.925926e-01	 3.777778e+00	 8.752437e+00
0	 5.925926e-01	 3.851852e+00	 8.814015e+00
0	 5.925926e-01	 3.925926e+00	 8.865421e+00
0	 5.925926e-01	 4.000000e+00	 8.907836e+00
0	 5.925926e-01	 4.074074e+00	 8.942441e+00
0	 6.666667e-01	 3.703704e+00	 8.734192e+00
0	 6.666667e-01	 3.777778e+00	 8.802296e+00
0	 6.666667e-01	 3.851852e+00	 8.859513e+00
0	 6.666667e-01	 3.925926e+00	 8.907193e+00
0	 6.666667e-01	 4.000000e+00	 8.946686e+00
0	 6.666667e-01	 4.074074e+00	 8.979344e+00
0	 7.407407e-01	 3.703704e+00	 8.793878e+00
0	 7.407407e-01	 3.777778e+00	 8.856259e+00
0	 7.407407e-01	 3.851852e+00	 8.908592e+00
0	 7.407407e-01	 3.925926e+00	 8.952266e+00
0	 7.407407e-01	 4.000000e+00	 8.988674e+00
0	 7.407407e-01	 4.074074e+00	 9.019206e+00
0	 3.703704e-01	 4.074074e+00	 1.582626e+14
0	 3.703704e-01	 4.148148e+00	 1.674478e+14
0	 3.703704e-01	 4.222222e+00	-7.258398e+14
0	 3.703704e-01	 4.296296e+00	 8.965974e+00
0	 3.703704e-01	 4.370370e+00	 9.006236e+00
0	 3.703704e-01	 4.444444e+00	 9.048256e+00
0	 4.444444e-01	 4.074074e+00	 8.880046e+00
0	 4.444444e-01	 4.148148e+00	 8.914339e+00
0	 4.444444e-01	 4.222222e+00	 8.950535e+00
0	 4.444444e-01	 4.296296e+00	 8.988379e+00
0	 4.444444e-01	 4.370370e+00	 9.027618e+00
0	 4.444444e-01	 4.444444e+00	 9.067997e+00
0	 5.185185e-01	 4.074074e+00	 8.909130e+00
0	 5.185185e-01	 4.148148e+00	 8.942510e+00
0	 5.185185e-01	 4.222222e+00	 8.977801e+00
0	 5.185185e-01	 4.296296e+00	 9.014568e+00
0	 5.185185e-01	 4.370370e+00	 9.052370e+00
0	 5.185185e-01	 4.444444e+00	 9.090770e+00
0	 5.925926e-01	 4.074074e+00	 8.942441e+00
0	 5.925926e-01	 4.148148e+00	 8.974641e+00
0	 5.925926e-01	 4.222222e+00	 9.008683e+00
0	 5.925926e-01	 4.296296e+00	 9.044009e+00
0	 5.925926e-01	 4.370370e+00	 9.080056e+00
0	 5.925926e-01	 4.444444e+00	 9.116267e+00
0	 6.666667e-01	 4.074074e+00	 8.979344e+00
0	 6.666667e-01	 4.148148e+00	 9.010102e+00
0	 6.666667e-01	 4.222222e+00	 9.042584e+00
0	 6.666667e-01	 4.296296e+00	 9.076171e+00
0	 6.666667e-01	 4.370370e+00	 9.110242e+00
0	 6.666667e-01	 4.444444e+00	 9.144178e+00
0	 7.407407e-01	 4.074074e+00	 9.019206e+00
0	 7.407407e-01	 4.148148e+00	 9.048263e+00
0	 7.407407e-01	 4.222222e+00	 9.078909e+00
0	 7.407407e-01	 4.296296e+00	 9.110525e+00
0	 7.407407e-01	 4.370370e+00	 9.142493e+00
0	 7.407407e-01	 4.444444e+00	 9.174195e+00
0	 3.703704e-01	 4.444444e+00	-2.812499e+14
0	 3.703704e-01	 4.518519e+00	-5.451315e+14
0	 3.703704e-01	 4.592593e+00	-1.558164e+14
0	 3.703704e-01	 4.666667e+00	 9.163291e+00
0	 3.703704e-01	 4.740741e+00	 9.195542e+00
0	 3.703704e-01	 4.814815e+00	 9.224730e+00
0	 4.444444e-01	 4.444444e+00	 9.067997e+00
0	 4.444444e-01	 4.518519e+00	 9.107409e+00
0	 4.444444e-01	 4.592593e+00	 9.143982e+00
0	 4.444444e-01	 4.666667e+00	 9.177812e+00
0	 4.444444e-01	 4.740741e+00	 9.208997e+00
0	 4.444444e-01	 4.814815e+00	 9.237634e+00
0	 5.185185e-01	 4.444444e+00	 9.090770e+00
0	 5.185185e-01	 4.518519e+00	 9.127980e+00
0	 5.185185e-01	 4.592593e+00	 9.162620e+00
0	 5.185185e-01	 4.666667e+00	 9.194869e+00
0	 5.185185e-01	 4.740741e+00	 9.224905e+00
0	 5.185185e-01	 4.814815e+00	 9.252908e+00
0	 5.925926e-01	 4.444444e+00	 9.116267e+00
0	 5.925926e-01	 4.518519e+00	 9.151161e+00
0	 5.925926e-01	 4.592593e+00	 9.183789e+00
0	 5.925926e-01	 4.666667e+00	 9.214384e+00
0	 5.925926e-01	 4.740741e+00	 9.243182e+00
0	 5.925926e-01	 4.814815e+00	 9.270415e+00
0	 6.666667e-01	 4.444444e+00	 9.144178e+00
0	 6.666667e-01	 4.518519e+00	 9.176765e+00
0	 6.666667e-01	 4.592593e+00	 9.207378e+00
0	 6.666667e-01	 4.666667e+00	 9.236282e+00
0	 6.666667e-01	 4.740741e+00	 9.263741e+00
0	 6.666667e-01	 4.814815e+00	 9.290019e+00
0	 7.407407e-01	 4.444444e+00	 9.174195e+00
0	 7.407407e-01	 4.518519e+00	 9.204601e+00
0	 7.407407e-01	 4.592593e+00	 9.233275e+00
0	 7.407407e-01	 4.666667e+00	 9.260483e+00
0	 7.407407e-01	 4.740741e+00	 9.286496e+00
0	 7.407407e-01	 4.814815e+00	 9.311582e+00
0	 3.703704e-01	 4.814815e+00	-5.140308e+14
0	 3.703704e-01	 4.888889e+00	 2.732399e+14
0	 3.703704e-01	 4.962963e+00	-2.734152e+14
0	 3.703704e-01	 5.037037e+00	 9.306117e+00
0	 3.703704e-01	 5.111111e+00	 9.332476e+00
0	 3.703704e-01	 5.185185e+00	 9.358408e+00
0	 4.444444e-01	 4.814815e+00	 9.237634e+00
0	 4.444444e-01	 4.888889e+00	 9.264836e+00
0	 4.444444e-01	 4.962963e+00	 9.291612e+00
0	 4.444444e-01	 5.037037e+00	 9.317900e+00
0	 4.444444e-01	 5.111111e+00	 9.343639e+00
0	 4.444444e-01	 5.185185e+00	 9.368770e+00
0	 5.185185e-01	 4.814815e+00	 9.252908e+00
0	 5.185185e-01	 4.888889e+00	 9.279720e+00
0	 5.185185e-01	 4.962963e+00	 9.306009e+00
0	 5.185185e-01	 5.037037e+00	 9.331689e+00
0	 5.185185e-01	 5.111111e+00	 9.356674e+00
0	 5.185185e-01	 5.185185e+00	 9.380876e+00
0	 5.925926e-01	 4.814815e+00	 9.270415e+00
0	 5.925926e-01	 4.888889e+00	 9.296673e+00
0	 5.925926e-01	 4.962963e+00	 9.322320e+00
0	 5.925926e-01	 5.037037e+00	 9.347252e+00
0	 5.925926e-01	 5.111111e+00	 9.371368e+00
0	 5.925926e-01	 5.185185e+00	 9.394564e+00
0	 6.666667e-01	 4.814815e+00	 9.290019e+00
0	 6.666667e-01	 4.888889e+00	 9.315499e+00
0	 6.666667e-01	 4.962963e+00	 9.340314e+00
0	 6.666667e-01	 5.037037e+00	 9.364354e+00
0	 6.666667e-01	 5.111111e+00	 9.387511e+00
0	 6.666667e-01	 5.185185e+00	 9.409675e+00
0	 7.407407e-01	 4.814815e+00	 9.311582e+00
0	 7.407407e-01	 4.888889e+00	 9.336001e+00
0	 7.407407e-01	 4.962963e+00	 9.359764e+00
0	 7.407407e-01	 5.037037e+00	 9.382763e+00
0	 7.407407e-01	 5.111111e+00	 9.404893e+00
0	 7.407407e-01	 5.185185e+00	 9.426046e+00
0	 3.703704e-01	 5.185185e+00	-2.828720e+14
0	 3.703704e-01	 5.259259e+00	-1.097084e+15
0	 3.703704e-01	 5.333333e+00	-5.490532e+14
0	 3.703704e-01	 5.407407e+00	 9.430423e+00
0	 3.703704e-01	 5.481481e+00	 9.452157e+00
0	 3.703704e-01	 5.555556e+00	 9.472759e+00
0	 4.444444e-01	 5.185185e+00	 9.368770e+00
0	 4.444444e-01	 5.259259e+00	 9.393061e+00
0	 4.444444e-01	 5.333333e+00	 9.416331e+00
0	 4.444444e-01	 5.407407e+00	 9.438593e+00
0	 4.444444e-01	 5.481481e+00	 9.459857e+00
0	 4.444444e-01	 5.555556e+00	 9.480136e+00
0	 5.185185e-01	 5.185185e+00	 9.380876e+00
0	 5.185185e-01	 5.259259e+00	 9.404205e+00
0	 5.185185e-01	 5.333333e+00	 9.426644e+00
0	 5.185185e-01	 5.407407e+00	 9.448212e+00
0	 5.185185e-01	 5.481481e+00	 9.468931e+00
0	 5.185185e-01	 5.555556e+00	 9.488820e+00
0	 5.925926e-01	 5.185185e+00	 9.394564e+00
0	 5.925926e-01	 5.259259e+00	 9.416876e+00
0	 5.925926e-01	 5.333333e+00	 9.438423e+00
0	 5.925926e-01	 5.407407e+00	 9.459233e+00
0	 5.925926e-01	 5.481481e+00	 9.479333e+00
0	 5.925926e-01	 5.555556e+00	 9.498752e+00
0	 6.666667e-01	 5.185185e+00	 9.409675e+00
0	 6.666667e-01	 5.259259e+00	 9.430966e+00
0	 6.666667e-01	 5.333333e+00	 9.451599e+00
0	 6.666667e-01	 5.407407e+00	 9.471606e+00
0	 6.666667e-01	 5.481481e+00	 9.491020e+00
0	 6.666667e-01	 5.555556e+00	 9.509873e+00
0	 7.407407e-01	 5.185185e+00	 9.426046e+00
0	 7.407407e-01	 5.259259e+00	 9.446369e+00
0	 7.407407e-01	 5.333333e+00	 9.466104e+00
0	 7.407407e-01	 5.407407e+00	 9.485286e+00
0	 7.407407e-01	 5.481481e+00	 9.503948e+00
0	 7.407407e-01	 5.555556e+00	 9.522126e+00
0	 3.703704e-01	 5.555556e+00	-5.183822e+14
0	 3.703704e-01	 5.629630e+00	 2.757090e+14
0	 3.703704e-01	 5.703704e+00	-2.760426e+14
0	 3.703704e-01	 5.777778e+00	 9.530598e+00
0	 3.703704e-01	 5.851852e+00	 9.548832e+00
0	 3.703704e-01	 5.925926e+00	 9.566518e+00
0	 4.444444e-01	 5.555556e+00	 9.480136e+00
0	 4.444444e-01	 5.629630e+00	 9.499664e+00
0	 4.444444e-01	 5.703704e+00	 9.518658e+00
0	 4.444444e-01	 5.777778e+00	 9.537102e+00
0	 4.444444e-01	 5.851852e+00	 9.554984e+00
0	 4.444444e-01	 5.925926e+00	 9.572288e+00
0	 5.185185e-01	 5.555556e+00	 9.488820e+00
0	 5.185185e-01	 5.629630e+00	 9.508025e+00
0	 5.185185e-01	 5.703704e+00	 9.526665e+00
0	 5.185185e-01	 5.777778e+00	 9.544728e+00
0	 5.185185e-01	 5.851852e+00	 9.562199e+00
0	 5.185185e-01	 5.925926e+00	 9.579066e+00
0	 5.925926e-01	 5.555556e+00	 9.498752e+00
0	 5.925926e-01	 5.629630e+00	 9.517551e+00
0	 5.925926e-01	 5.703704e+00	 9.535767e+00
0	 5.925926e-01	 5.777778e+00	 9.553386e+00
0	 5.925926e-01	 5.851852e+00	 9.570396e+00
0	 5.925926e-01	 5.925926e+00	 9.586782e+00
0	 6.666667e-01	 5.555556e+00	 9.509873e+00
0	 6.666667e-01	 5.629630e+00	 9.528167e+00
0	 6.666667e-01	 5.703704e+00	 9.545877e+00
0	 6.666667e-01	 5.777778e+00	 9.562989e+00
0	 6.666667e-01	 5.851852e+00	 9.579490e+00
0	 6.666667e-01	 5.925926e+00	 9.595367e+00
0	 7.407407e-01	 5.555556e+00	 9.522126e+00
0	 7.407407e-01	 5.629630e+00	 9.539797e+00
0	 7.407407e-01	 5.703704e+00	 9.556908e+00
0	 7.407407e-01	 5.777778e+00	 9.573446e+00
0	 7.407407e-01	 5.851852e+00	 9.589398e+00
0	 7.407407e-01	 5.925926e+00	 9.604753e+00
0	 3.703704e-01	 5.925926e+00	-2.860622e+14
0	 3.703704e-01	 6.000000e+00	-1.110011e+15
0	 3.703704e-01	 6.074074e+00	-5.557843e+14
0	 3.703704e-01	 6.148148e+00	 9.616175e+00
0	 3.703704e-01	 6.222222e+00	 9.631588e+00
0	 3.703704e-01	 6.296296e+00	 9.646431e+00
0	 4.444444e-01	 5.925926e+00	 9.572288e+00
0	 4.444444e-01	 6.000000e+00	 9.589036e+00
0	 4.444444e-01	 6.074074e+00	 9.605257e+00
0	 4.444444e-01	 6.148148e+00	 9.620950e+00
0	 4.444444e-01	 6.222222e+00	 9.636114e+00
0	 4.444444e-01	 6.296296e+00	 9.650746e+00
0	 5.185185e-01	 5.925926e+00	 9.579066e+00
0	 5.185185e-01	 6.000000e+00	 9.595385e+00
0	 5.185185e-01	 6.074074e+00	 9.611222e+00
0	 5.185185e-01	 6.148148e+00	 9.626575e+00
0	 5.185185e-01	 6.222222e+00	 9.641442e+00
0	 5.185185e-01	 6.296296e+00	 9.655819e+00
0	 5.925926e-01	 5.925926e+00	 9.586782e+00
0	 5.925926e-01	 6.000000e+00	 9.602633e+00
0	 5.925926e-01	 6.074074e+00	 9.618044e+00
0	 5.925926e-01	 6.148148e+00	 9.633014e+00
0	 5.925926e-01	 6.222222e+00	 9.647539e+00
0	 5.925926e-01	 6.296296e+00	 9.661618e+00
0	 6.666667e-01	 5.925926e+00	 9.595367e+00
0	 6.666667e-01	 6.000000e+00	 9.610727e+00
0	 6.666667e-01	 6.074074e+00	 9.625683e+00
0	 6.666667e-01	 6.148148e+00	 9.640233e+00
0	 6.666667e-01	 6.222222e+00	 9.654376e+00
0	 6.666667e-01	 6.296296e+00	 9.668110e+00
0	 7.407407e-01	 5.925926e+00	 9.604753e+00
0	 7.407407e-01	 6.000000e+00	 9.619614e+00
0	 7.407407e-01	 6.074074e+00	 9.634095e+00
0	 7.407407e-01	 6.148148e+00	 9.648197e+00
0	 7.407407e-01	 6.222222e+00	 9.661919e+00
0	 7.407407e-01	 6.296296e+00	 9.675260e+00
0	 3.703704e-01	 6.296296e+00	-5.253606e+14
0	 3.703704e-01	 6.370370e+00	 2.795008e+14
0	 3.703704e-01	 6.444444e+00	-2.799035e+14
0	 3.703704e-01	 6.518519e+00	 9.688361e+00
0	 3.703704e-01	 6.592593e+00	 9.701548e+00
0	 3.703704e-01	 6.666667e+00	 9.714329e+00
0	 4.444444e-01	 6.296296e+00	 9.650746e+00
0	 4.444444e-01	 6.370370e+00	 9.664916e+00
0	 4.444444e-01	 6.444444e+00	 9.678695e+00
0	 4.444444e-01	 6.518519e+00	 9.692077e+00
0	 4.444444e-01	 6.592593e+00	 9.705061e+00
0	 4.444444e-01	 6.666667e+00	 9.717642e+00
0	 5.185185e-01	 6.296296e+00	 9.655819e+00
0	 5.185185e-01	 6.370370e+00	 9.669755e+00
0	 5.185185e-01	 6.444444e+00	 9.683297e+00
0	 5.185185e-01	 6.518519e+00	 9.696443e+00
0	 5.185185e-01	 6.592593e+00	 9.709192e+00
0	 5.185185e-01	 6.666667e+00	 9.721542e+00
0	 5.925926e-01	 6.296296e+00	 9.661618e+00
0	 5.925926e-01	 6.370370e+00	 9.675277e+00
0	 5.925926e-01	 6.444444e+00	 9.688545e+00
0	 5.925926e-01	 6.518519e+00	 9.701421e+00
0	 5.925926e-01	 6.592593e+00	 9.713905e+00
0	 5.925926e-01	 6.666667e+00	 9.725997e+00
0	 6.666667e-01	 6.296296e+00	 9.668110e+00
0	 6.666667e-01	 6.370370e+00	 9.681447e+00
0	 6.666667e-01	 6.444444e+00	 9.694402e+00
0	 6.666667e-01	 6.518519e+00	 9.706976e+00
0	 6.666667e-01	 6.592593e+00	 9.719167e+00
0	 6.666667e-01	 6.666667e+00	 9.730978e+00
0	 7.407407e-01	 6.296296e+00	 9.675260e+00
0	 7.407407e-01	 6.370370e+00	 9.688229e+00
0	 7.407407e-01	 6.444444e+00	 9.700833e+00
0	 7.407407e-01	 6.518519e+00	 9.713071e+00
0	 7.407407e-01	 6.592593e+00	 9.724944e+00
0	 7.407407e-01	 6.666667e+00	 9.736453e+00
0	 3.703704e-01	 6.666667e+00	-2.901507e+14
0	 3.703704e-01	 6.740741e+00	-1.125808e+15
0	 3.703704e-01	 6.814815e+00	-5.636144e+14
0	 3.703704e-01	 6.888889e+00	 9.750470e+00
0	 3.703704e-01	 6.962963e+00	 9.761812e+00
0	 3.703704e-01	 7.037037e+00	 9.772803e+00
0	 4.444444e-01	 6.666667e+00	 9.717642e+00
0	 4.444444e-01	 6.740741e+00	 9.729852e+00
0	 4.444444e-01	 6.814815e+00	 9.741724e+00
0	 4.444444e-01	 6.888889e+00	 9.753258e+00
0	 4.444444e-01	 6.962963e+00	 9.764451e+00
0	 4.444444e-01	 7.037037e+00	 9.775304e+00
0	 5.185185e-01	 6.666667e+00	 9.721542e+00
0	 5.185185e-01	 6.740741e+00	 9.733532e+00
0	 5.185185e-01	 6.814815e+00	 9.745199e+00
0	 5.185185e-01	 6.888889e+00	 9.756541e+00
0	 5.185185e-01	 6.962963e+00	 9.767557e+00
0	 5.185185e-01	 7.037037e+00	 9.778246e+00
0	 5.925926e-01	 6.666667e+00	 9.725997e+00
0	 5.925926e-01	 6.740741e+00	 9.737740e+00
0	 5.925926e-01	 6.814815e+00	 9.749175e+00
0	 5.925926e-01	 6.888889e+00	 9.760299e+00
0	 5.925926e-01	 6.962963e+00	 9.771112e+00
0	 5.925926e-01	 7.037037e+00	 9.781610e+00
0	 6.666667e-01	 6.666667e+00	 9.730978e+00
0	 6.666667e-01	 6.740741e+00	 9.742451e+00
0	 6.666667e-01	 6.814815e+00	 9.753629e+00
0	 6.666667e-01	 6.888889e+00	 9.764511e+00
0	 6.666667e-01	 6.962963e+00	 9.775095e+00
0	 6.666667e-01	 7.037037e+00	 9.785378e+00
0	 7.407407e-01	 6.666667e+00	 9.736453e+00
0	 7.407407e-01	 6.740741e+00	 9.747638e+00
0	 7.407407e-01	 6.814815e+00	 9.758539e+00
0	 7.407407e-01	 6.888889e+00	 9.769156e+00
0	 7.407407e-01	 6.962963e+00	 9.779487e+00
0	 7.407407e-01	 7.037037e+00	 9.789532e+00
0	 3.703704e-01	 7.037037e+00	-5.322569e+14
0	 3.703704e-01	 7.111111e+00	 2.830249e+14
0	 3.703704e-01	 7.185185e+00	-2.832597e+14
0	 3.703704e-01	 7.259259e+00	 9.803957e+00
0	 3.703704e-01	 7.333333e+00	 9.813765e+00
0	 3.703704e-01	 7.407407e+00	 9.823285e+00
0	 4.444444e-01	 7.037037e+00	 9.775304e+00
0	 4.444444e-01	 7.111111e+00	 9.785844e+00
0	 4.444444e-01	 7.185185e+00	 9.796098e+00
0	 4.444444e-01	 7.259259e+00	 9.806068e+00
0	 4.444444e-01	 7.333333e+00	 9.815754e+00
0	 4.444444e-01	 7.407407e+00	 9.825156e+00
0	 5.185185e-01	 7.037037e+00	 9.778246e+00
0	 5.185185e-01	 7.111111e+00	 9.788629e+00
0	 5.185185e-01	 7.185185e+00	 9.798731e+00
0	 5.185185e-01	 7.259259e+00	 9.808552e+00
0	 5.185185e-01	 7.333333e+00	 9.818095e+00
0	 5.185185e-01	 7.407407e+00	 9.827360e+00
0	 5.925926e-01	 7.037037e+00	 9.781610e+00
0	 5.925926e-01	 7.111111e+00	 9.791813e+00
0	 5.925926e-01	 7.185185e+00	 9.801739e+00
0	 5.925926e-01	 7.259259e+00	 9.811391e+00
0	 5.925926e-01	 7.333333e+00	 9.820772e+00
0	 5.925926e-01	 7.407407e+00	 9.829881e+00
0	 6.666667e-01	 7.037037e+00	 9.785378e+00
0	 6.666667e-01	 7.111111e+00	 9.795377e+00
0	 6.666667e-01	 7.185185e+00	 9.805106e+00
0	 6.666667e-01	 7.259259e+00	 9.814570e+00
0	 6.666667e-01	 7.333333e+00	 9.823769e+00
0	 6.666667e-01	 7.407407e+00	 9.832707e+00
0	 7.407407e-01	 7.037037e+00	 9.789532e+00
0	 7.407407e-01	 7.111111e+00	 9.799303e+00
0	 7.407407e-01	 7.185185e+00	 9.808815e+00
0	 7.407407e-01	 7.259259e+00	 9.818071e+00
0	 7.407407e-01	 7.333333e+00	 9.827072e+00
0	 7.407407e-01	 7.407407e+00	 9.835821e+00
0	 3.703704e-01	 7.407407e+00	-3.948026e+14
0	 3.703704e-01	 7.481481e+00	-3.493536e+14
0	 3.703704e-01	 7.555556e+00	-2.838926e+14
0	 3.703704e-01	 7.629630e+00	 9.850243e+00
0	 3.703704e-01	 7.703704e+00	 9.858716e+00
0	 3.703704e-01	 7.777778e+00	 9.866938e+00
0	 4.444444e-01	 7.407407e+00	 9.825156e+00
0	 4.444444e-01	 7.481481e+00	 9.834289e+00
0	 4.444444e-01	 7.555556e+00	 9.843169e+00
0	 4.444444e-01	 7.629630e+00	 9.851796e+00
0	 4.444444e-01	 7.703704e+00	 9.860175e+00
0	 4.444444e-01	 7.777778e+00	 9.868306e+00
0	 5.185185e-01	 7.407407e+00	 9.827360e+00
0	 5.185185e-01	 7.481481e+00	 9.836362e+00
0	 5.185185e-01	 7.555556e+00	 9.845118e+00
0	 5.185185e-01	 7.629630e+00	 9.853627e+00
0	 5.185185e-01	 7.703704e+00	 9.861892e+00
0	 5.185185e-01	 7.777778e+00	 9.869916e+00
0	 5.925926e-01	 7.407407e+00	 9.829881e+00
0	 5.925926e-01	 7.481481e+00	 9.838736e+00
0	 5.925926e-01	 7.555556e+00	 9.847349e+00
0	 5.925926e-01	 7.629630e+00	 9.855723e+00
0	 5.925926e-01	 7.703704e+00	 9.863859e+00
0	 5.925926e-01	 7.777778e+00	 9.871758e+00
0	 6.666667e-01	 7.407407e+00	 9.832707e+00
0	 6.666667e-01	 7.481481e+00	 9.841396e+00
0	 6.666667e-01	 7.555556e+00	 9.849850e+00
0	 6.666667e-01	 7.629630e+00	 9.858072e+00
0	 6.666667e-01	 7.703704e+00	 9.866062e+00
0	 6.666667e-01	 7.777778e+00	 9.873824e+00
0	 7.407407e-01	 7.407407e+00	 9.835821e+00
0	 7.407407e-01	 7.481481e+00	 9.844329e+00
0	 7.407407e-01	 7.555556e+00	 9.852609e+00
0	 7.407407e-01	 7.629630e+00	 9.860663e+00
0	 7.407407e-01	 7.703704e+00	 9.868493e+00
0	 7.407407e-01	 7.777778e+00	 9.876101e+00
0	 3.703704e-01	 7.777778e+00	 1.261424e+14
0	 3.703704e-01	 7.851852e+00	-6.239984e+27
0	 3.703704e-01	 7.925926e+00	-1.134751e+14
0	 3.703704e-01	 8.000000e+00	 9.890155e+00
0	 3.703704e-01	 8.074074e+00	 9.897427e+00
0	 3.703704e-01	 8.148148e+00	 9.904472e+00
0	 4.444444e-01	 7.777778e+00	 9.868306e+00
0	 4.444444e-01	 7.851852e+00	 9.876194e+00
0	 4.444444e-01	 7.925926e+00	 9.883847e+00
0	 4.444444e-01	 8.000000e+00	 9.891269e+00
0	 4.444444e-01	 8.074074e+00	 9.898462e+00
0	 4.444444e-01	 8.148148e+00	 9.905432e+00
0	 5.185185e-01	 7.777778e+00	 9.869916e+00
0	 5.185185e-01	 7.851852e+00	 9.877701e+00
0	 5.185185e-01	 7.925926e+00	 9.885254e+00
0	 5.185185e-01	 8.000000e+00	 9.892580e+00
0	 5.185185e-01	 8.074074e+00	 9.899681e+00
0	 5.185185e-01	 8.148148e+00	 9.906563e+00
0	 5.925926e-01	 7.777778e+00	 9.871758e+00
0	 5.925926e-01	 7.851852e+00	 9.879425e+00
0	 5.925926e-01	 7.925926e+00	 9.886865e+00
0	 5.925926e-01	 8.000000e+00	 9.894080e+00
0	 5.925926e-01	 8.074074e+00	 9.901077e+00
0	 5.925926e-01	 8.148148e+00	 9.907859e+00
0	 6.666667e-01	 7.777778e+00	 9.873824e+00
0	 6.666667e-01	 7.851852e+00	 9.881358e+00
0	 6.666667e-01	 7.925926e+00	 9.888669e+00
0	 6.666667e-01	 8.000000e+00	 9.895763e+00
0	 6.666667e-01	 8.074074e+00	 9.902642e+00
0	 6.666667e-01	 8.148148e+00	 9.909312e+00
0	 7.407407e-01	 7.777778e+00	 9.876101e+00
0	 7.407407e-01	 7.851852e+00	 9.883489e+00
0	 7.407407e-01	 7.925926e+00	 9.890660e+00
0	 7.407407e-01	 8.000000e+00	 9.897618e+00
0	 7.407407e-01	 8.074074e+00	 9.904368e+00
0	 7.407407e-01	 8.148148e+00	 9.910914e+00
0	 3.703704e-01	 8.148148e+00	 9.904472e+00
0	 3.703704e-01	 8.222222e+00	 9.911285e+00
0	 3.703704e-01	 8.296296e+00	 9.917863e+00
0	 3.703704e-01	 8.370370e+00	 9.924214e+00
0	 3.703704e-01	 8.444444e+00	 9.930342e+00
0	 3.703704e-01	 8.518519e+00	 9.936254e+00
0	 4.444444e-01	 8.148148e+00	 9.905432e+00
0	 4.444444e-01	 8.222222e+00	 9.912173e+00
0	 4.444444e-01	 8.296296e+00	 9.918684e+00
0	 4.444444e-01	 8.370370e+00	 9.924969e+00
0	 4.444444e-01	 8.444444e+00	 9.931034e+00
0	 4.444444e-01	 8.518519e+00	 9.936887e+00
0	 5.185185e-01	 8.148148e+00	 9.906563e+00
0	 5.185185e-01	 8.222222e+00	 9.913221e+00
0	 5.185185e-01	 8.296296e+00	 9.919651e+00
0	 5.185185e-01	 8.370370e+00	 9.925859e+00
0	 5.185185e-01	 8.444444e+00	 9.931851e+00
0	 5.185185e-01	 8.518519e+00	 9.937633e+00
0	 5.925926e-01	 8.148148e+00	 9.907859e+00
0	 5.925926e-01	 8.222222e+00	 9.914421e+00
0	 5.925926e-01	 8.296296e+00	 9.920759e+00
0	 5.925926e-01	 8.370370e+00	 9.926879e+00
0	 5.925926e-01	 8.444444e+00	 9.932787e+00
0	 5.925926e-01	 8.518519e+00	 9.938487e+00
0	 6.666667e-01	 8.148148e+00	 9.909312e+00
0	 6.666667e-01	 8.222222e+00	 9.915766e+00
0	 6.666667e-01	 8.296296e+00	 9.922001e+00
0	 6.666667e-01	 8.370370e+00	 9.928022e+00
0	 6.666667e-01	 8.444444e+00	 9.933835e+00
0	 6.666667e-01	 8.518519e+00	 9.939445e+00
0	 7.407407e-01	 8.148148e+00	 9.910914e+00
0	 7.407407e-01	 8.222222e+00	 9.917250e+00
0	 7.407407e-01	 8.296296e+00	 9.923371e+00
0	 7.407407e-01	 8.370370e+00	 9.929283e+00
0	 7.407407e-01	 8.444444e+00	 9.934991e+00
0	 7.407407e-01	 8.518519e+00	 9.940501e+00
0	 3.703704e-01	 8.518519e+00	 9.936254e+00
0	 3.703704e-01	 8.592593e+00	 9.941934e+00
0	 3.703704e-01	 8.666667e+00	 9.947370e+00
0	 3.703704e-01	 8.740741e+00	 9.952570e+00
0	 3.703704e-01	 8.814815e+00	 9.957542e+00
0	 3.703704e-01	 8.888889e+00	 9.962295e+00
0	 4.444444e-01	 8.518519e+00	 9.936887e+00
0	 4.444444e-01	 8.592593e+00	 9.942510e+00
0	 4.444444e-01	 8.666667e+00	 9.947891e+00
0	 4.444444e-01	 8.740741e+00	 9.953039e+00
0	 4.444444e-01	 8.814815e+00	 9.957961e+00
0	 4.444444e-01	 8.888889e+00	 9.962667e+00
0	 5.185185e-01	 8.518519e+00	 9.937633e+00
0	 5.185185e-01	 8.592593e+00	 9.943189e+00
0	 5.185185e-01	 8.666667e+00	 9.948506e+00
0	 5.185185e-01	 8.740741e+00	 9.953592e+00
0	 5.185185e-01	 8.814815e+00	 9.958456e+00
0	 5.185185e-01	 8.888889e+00	 9.963107e+00
0	 5.925926e-01	 8.518519e+00	 9.938487e+00
0	 5.925926e-01	 8.592593e+00	 9.943966e+00
0	 5.925926e-01	 8.666667e+00	 9.949210e+00
0	 5.925926e-01	 8.740741e+00	 9.954226e+00
0	 5.925926e-01	 8.814815e+00	 9.959023e+00
0	 5.925926e-01	 8.888889e+00	 9.963610e+00
0	 6.666667e-01	 8.518519e+00	 9.939445e+00
0	 6.666667e-01	 8.592593e+00	 9.944837e+00
0	 6.666667e-01	 8.666667e+00	 9.949998e+00
0	 6.666667e-01	 8.740741e+00	 9.954936e+00
0	 6.666667e-01	 8.814815e+00	 9.959658e+00
0	 6.666667e-01	 8.888889e+00	 9.964174e+00
0	 7.407407e-01	 8.518519e+00	 9.940501e+00
0	 7.407407e-01	 8.592593e+00	 9.945797e+00
0	 7.407407e-01	 8.666667e+00	 9.950867e+00
0	 7.407407e-01	 8.740741e+00	 9.955718e+00
0	 7.407407e-01	 8.814815e+00	 9.960358e+00
0	 7.407407e-01	 8.888889e+00	 9.964795e+00
0	 3.703704e-01	 8.888889e+00	 9.962295e+00
0	 3.703704e-01	 8.962963e+00	 9.966802e+00
0	 3.703704e-01	 9.037037e+00	 9.971037e+00
0	 3.703704e-01	 9.111111e+00	 9.975013e+00
0	 3.703704e-01	 9.185185e+00	 9.978741e+00
0	 3.703704e-01	 9.259259e+00	 9.982234e+00
0	 4.444444e-01	 8.888889e+00	 9.962667e+00
0	 4.444444e-01	 8.962963e+00	 9.967129e+00
0	 4.444444e-01	 9.037037e+00	 9.971323e+00
0	 4.444444e-01	 9.111111e+00	 9.975260e+00
0	 4.444444e-01	 9.185185e+00	 9.978951e+00
0	 4.444444e-01	 9.259259e+00	 9.982409e+00
0	 5.185185e-01	 8.888889e+00	 9.963107e+00
0	 5.185185e-01	 8.962963e+00	 9.967517e+00
0	 5.185185e-01	 9.037037e+00	 9.971661e+00
0	 5.185185e-01	 9.111111e+00	 9.975552e+00
0	 5.185185e-01	 9.185185e+00	 9.979200e+00
0	 5.185185e-01	 9.259259e+00	 9.982618e+00
0	 5.925926e-01	 8.888889e+00	 9.963610e+00
0	 5.925926e-01	 8.962963e+00	 9.967961e+00
0	 5.925926e-01	 9.037037e+00	 9.972049e+00
0	 5.925926e-01	 9.111111e+00	 9.975887e+00
0	 5.925926e-01	 9.185185e+00	 9.979486e+00
0	 5.925926e-01	 9.259259e+00	 9.982857e+00
0	 6.666667e-01	 8.888889e+00	 9.964174e+00
0	 6.666667e-01	 8.962963e+00	 9.968457e+00
0	 6.666667e-01	 9.037037e+00	 9.972483e+00
0	 6.666667e-01	 9.111111e+00	 9.976262e+00
0	 6.666667e-01	 9.185185e+00	 9.979805e+00
0	 6.666667e-01	 9.259259e+00	 9.983124e+00
0	 7.407407e-01	 8.888889e+00	 9.964795e+00
0	 7.407407e-01	 8.962963e+00	 9.969004e+00
0	 7.407407e-01	 9.037037e+00	 9.972959e+00
0	 7.407407e-01	 9.111111e+00	 9.976672e+00
0	 7.407407e-01	 9.185185e+00	 9.980154e+00
0	 7.407407e-01	 9.259259e+00	 9.983416e+00
0	 3.703704e-01	 9.259259e+00	 9.982234e+00
0	 3.703704e-01	 9.333333e+00	 9.985446e+00
0	 3.703704e-01	 9.407407e+00	 9.988338e+00
0	 3.703704e-01	 9.481481e+00	 9.990925e+00
0	 3.703704e-01	 9.555556e+00	 9.993223e+00
0	 3.703704e-01	 9.629630e+00	 9.995248e+00
0	 4.444444e-01	 9.259259e+00	 9.982409e+00
0	 4.444444e-01	 9.333333e+00	 9.985590e+00
0	 4.444444e-01	 9.407407e+00	 9.988453e+00
0	 4.444444e-01	 9.481481e+00	 9.991014e+00
0	 4.444444e-01	 9.555556e+00	 9.993290e+00
0	 4.444444e-01	 9.629630e+00	 9.995295e+00
0	 5.185185e-01	 9.259259e+00	 9.982618e+00
0	 5.185185e-01	 9.333333e+00	 9.985762e+00
0	 5.185185e-01	 9.407407e+00	 9.988591e+00
0	 5.185185e-01	 9.481481e+00	 9.991123e+00
0	 5.185185e-01	 9.555556e+00	 9.993371e+00
0	 5.185185e-01	 9.629630e+00	 9.995353e+00
0	 5.925926e-01	 9.259259e+00	 9.982857e+00
0	 5.925926e-01	 9.333333e+00	 9.985958e+00
0	 5.925926e-01	 9.407407e+00	 9.988750e+00
0	 5.925926e-01	 9.481481e+00	 9.991247e+00
0	 5.925926e-01	 9.555556e+00	 9.993465e+00
0	 5.925926e-01	 9.629630e+00	 9.995419e+00
0	 6.666667e-01	 9.259259e+00	 9.983124e+00
0	 6.666667e-01	 9.333333e+00	 9.986177e+00
0	 6.666667e-01	 9.407407e+00	 9.988926e+00
0	 6.666667e-01	 9.481481e+00	 9.991384e+00
0	 6.666667e-01	 9.555556e+00	 9.993568e+00
0	 6.666667e-01	 9.629630e+00	 9.995492e+00
0	 7.407407e-01	 9.259259e+00	 9.983416e+00
0	 7.407407e-01	 9.333333e+00	 9.986416e+00
0	 7.407407e-01	 9.407407e+00	 9.989117e+00
0	 7.407407e-01	 9.481481e+00	 9.991532e+00
0	 7.407407e-01	 9.555556e+00	 9.993678e+00
0	 7.407407e-01	 9.629630e+00	 9.995568e+00
0	 3.703704e-01	 9.629630e+00	 9.995248e+00
0	 3.703704e-01	 9.703704e+00	 9.996941e+00
0	 3.703704e-01	 9.777778e+00	 9.998247e+00
0	 3.703704e-01	 9.851852e+00	 9.999186e+00
0	 3.703704e-01	 9.925926e+00	 9.999780e+00
0	 3.703704e-01	 1.000000e+01	 1.000005e+01
0	 4.444444e-01	 9.629630e+00	 9.995295e+00
0	 4.444444e-01	 9.703704e+00	 9.996971e+00
0	 4.444444e-01	 9.777778e+00	 9.998264e+00
0	 4.444444e-01	 9.851852e+00	 9.999193e+00
0	 4.444444e-01	 9.925926e+00	 9.999781e+00
0	 4.444444e-01	 1.000000e+01	 1.000005e+01
0	 5.185185e-01	 9.629630e+00	 9.995353e+00
0	 5.185185e-01	 9.703704e+00	 9.997009e+00
0	 5.185185e-01	 9.777778e+00	 9.998286e+00
0	 5.185185e-01	 9.851852e+00	 9.999205e+00
0	 5.185185e-01	 9.925926e+00	 9.999786e+00
0	 5.185185e-01	 1.000000e+01	 1.000005e+01
0	 5.925926e-01	 9.629630e+00	 9.995419e+00
0	 5.925926e-01	 9.703704e+00	 9.997053e+00
0	 5.925926e-01	 9.777778e+00	 9.998313e+00
0	 5.925926e-01	 9.851852e+00	 9.999219e+00
0	 5.925926e-01	 9.925926e+00	 9.999792e+00
0	 5.925926e-01	 1.000000e+01	 1.000005e+01
0	 6.666667e-01	 9.629630e+00	 9.995492e+00
0	 6.666667e-01	 9.703704e+00	 9.997100e+00
0	 6.666667e-01	 9.777778e+00	 9.998340e+00
0	 6.666667e-01	 9.851852e+00	 9.999232e+00
0	 6.666667e-01	 9.925926e+00	 9.999796e+00
0	 6.666667e-01	 1.000000e+01	 1.000005e+01
0	 7.407407e-01	 9.629630e+00	 9.995568e+00
0	 7.407407e-01	 9.703704e+00	 9.997148e+00
0	 7.407407e-01	 9.777778e+00	 9.998366e+00
0	 7.407407e-01	 9.851852e+00	 9.999242e+00
0	 7.407407e-01	 9.925926e+00	 9.999795e+00
0	 7.407407e-01	 1.000000e+01	 1.000005e+01
0	 7.407407e-01	 0.000000e+00	 4.540467e-01
0	 7.407407e-01	 7.407407e-02	 8.916434e-01
0	 7.407407e-01	 1.481481e-01	 1.079208e+00
0	 7.407407e-01	 2.222222e-01	 9.579200e-01
0	 7.407407e-01	 2.962963e-01	 4.689615e-01
0	 7.407407e-01	 3.703704e-01	-4.464872e-01
0	 8.148148e-01	 0.000000e+00	 3.570745e-01
0	 8.148148e-01	 7.407407e-02	 8.896640e-01
0	 8.148148e-01	 1.481481e-01	 1.120302e+00
0	 8.148148e-01	 2.222222e-01	 1.060462e+00
0	 8.148148e-01	 2.962963e-01	 7.216173e-01
0	 8.148148e-01	 3.703704e-01	 1.152397e-01
0	 8.888889e-01	 0.000000e+00	-3.944644e-01
0	 8.888889e-01	 7.407407e-02	 1.869138e-01
0	 8.888889e-01	 1.481481e-01	 5.236174e-01
0	 8.888889e-01	 2.222222e-01	 6.754036e-01
0	 8.888889e-01	 2.962963e-01	 7.020299e-01
0	 8.888889e-01	 3.703704e-01	 6.632535e-01
0	 9.629630e-01	 0.000000e+00	-1.632569e+00
0	 9.629630e-01	 7.407407e-02	-1.050185e+00
0	 9.629630e-01	 1.481481e-01	-5.778564e-01
0	 9.629630e-01	 2.222222e-01	-1.295494e-01
0	 9.629630e-01	 2.962963e-01	 3.807699e-01
0	 9.629630e-01	 3.703704e-01	 1.039136e+00
0	 1.037037e+00	 0.000000e+00	-3.189237e+00
0	 1.037037e+00	 7.407407e-02	-2.655209e+00
0	 1.037037e+00	 1.481481e-01	-2.051128e+00
0	 1.037037e+00	 2.222222e-01	-1.286690e+00
0	 1.037037e+00	 2.962963e-01	-2.715920e-01
0	 1.037037e+00	 3.703704e-01	 1.084468e+00
0	 1.111111e+00	 0.000000e+00	-4.896469e+00
0	 1.111111e+00	 7.407407e-02	-4.461738e+00
0	 1.111111e+00	 1.481481e-01	-3.763206e+00
0	 1.111111e+00	 2.222222e-01	-2.728310e+00
0	 1.111111e+00	 2.962963e-01	-1.284486e+00
0	 1.111111e+00	 3.703704e-01	 6.408304e-01
0	 7.407407e-01	 3.703704e-01	-4.464872e-01
0	 7.407407e-01	 4.444444e-01	-1.034260e+00
0	 7.407407e-01	 5.185185e-01	-4.614815e-01
0	 7.407407e-01	 5.925926e-01	 1.331094e+00
0	 7.407407e-01	 6.666667e-01	 4.402712e+00
0	 7.407407e-01	 7.407407e-01	 8.812618e+00
0	 8.148148e-01	 3.703704e-01	 1.152397e-01
0	 8.148148e-01	 4.444444e-01	-7.142954e-02
0	 8.148148e-01	 5.185185e-01	 8.678068e-01
0	 8.148148e-01	 5.925926e-01	 2.972857e+00
0	 8.148148e-01	 6.666667e-01	 6.283627e+00
0	 8.148148e-01	 7.407407e-01	 1.084003e+01
0	 8.888889e-01	 3.703704e-01	 6.632535e-01
0	 8.888889e-01	 4.444444e-01	 1.079897e+00
0	 8.888889e-01	 5.185185e-01	 2.448772e+00
0	 8.888889e-01	 5.925926e-01	 4.793620e+00
0	 8.888889e-01	 6.666667e-01	 8.138185e+00
0	 8.888889e-01	 7.407407e-01	 1.250621e+01
0	 9.629630e-01	 3.703704e-01	 1.039136e+00
0	 9.629630e-01	 4.444444e-01	 2.147796e+00
0	 9.629630e-01	 5.185185e-01	 3.958807e+00
0	 9.629630e-01	 5.925926e-01	 6.482919e+00
0	 9.629630e-01	 6.666667e-01	 9.730879e+00
0	 9.629630e-01	 7.407407e-01	 1.371344e+01
0	 1.037037e+00	 3.703704e-01	 1.084468e+00
0	 1.037037e+00	 4.444444e-01	 2.860344e+00
0	 1.037037e+00	 5.185185e-01	 5.075308e+00
0	 1.037037e+00	 5.925926e-01	 7.730287e+00
0	 1.037037e+00	 6.666667e-01	 1.082621e+01
0	 1.037037e+00	 7.407407e-01	 1.436399e+01
0	 1.111111e+00	 3.703704e-01	 6.408304e-01
0	 1.111111e+00	 4.444444e-01	 2.945619e+00
0	 1.111111e+00	 5.185185e-01	 5.475669e+00
0	 1.111111e+00	 5.925926e-01	 8.225258e+00
0	 1.111111e+00	 6.666667e-01	 1.118866e+01
0	 1.111111e+00	 7.407407e-01	 1.436015e+01
0	 7.407407e-01	 7.407407e-01	 8.812618e+00
0	 7.407407e-01	 8.148148e-01	 1.397889e+01
0	 7.407407e-01	 8.888889e-01	 1.926693e+01
0	 7.407407e-01	 9.629630e-01	 2.465698e+01
0	 7.407407e-01	 1.037037e+00	 3.012925e+01
0	 7.407407e-01	 1.111111e+00	 3.566398e+01
0	 8.148148e-01	 7.407407e-01	 1.084003e+01
0	 8.148148e-01	 8.148148e-01	 1.594390e+01
0	 8.148148e-01	 8.888889e-01	 2.086612e+01
0	 8.148148e-01	 9.629630e-01	 2.560018e+01
0	 8.148148e-01	 1.037037e+00	 3.013956e+01
0	 8.148148e-01	 1.111111e+00	 3.447774e+01
0	 8.888889e-01	 7.407407e-01	 1.250621e+01
0	 8.888889e-01	 8.148148e-01	 1.722885e+01
0	 8.888889e-01	 8.888889e-01	 2.162240e+01
0	 8.888889e-01	 9.629630e-01	 2.568826e+01
0	 8.888889e-01	 1.037037e+00	 2.942787e+01
0	 8.888889e-01	 1.111111e+00	 3.284263e+01
0	 9.629630e-01	 7.407407e-01	 1.371344e+01
0	 9.629630e-01	 8.148148e-01	 1.787914e+01
0	 9.629630e-01	 8.888889e-01	 2.167207e+01
0	 9.629630e-01	 9.629630e-01	 2.509629e+01
0	 9.629630e-01	 1.037037e+00	 2.815582e+01
0	 9.629630e-01	 1.111111e+00	 3.085472e+01
0	 1.037037e+00	 7.407407e-01	 1.436399e+01
0	 1.037037e+00	 8.148148e-01	 1.794015e+01
0	 1.037037e+00	 8.888889e-01	 2.115148e+01
0	 1.037037e+00	 9.629630e-01	 2.399934e+01
0	 1.037037e+00	 1.037037e+00	 2.648509e+01
0	 1.037037e+00	 1.111111e+00	 2.861010e+01
0	 1.111111e+00	 7.407407e-01	 1.436015e+01
0	 1.111111e+00	 8.148148e-01	 1.745727e+01
0	 1.111111e+00	 8.888889e-01	 2.019693e+01
0	 1.111111e+00	 9.629630e-01	 2.257250e+01
0	 1.111111e+00	 1.037037e+00	 2.457735e+01
0	 1.111111e+00	 1.111111e+00	 2.620484e+01
0	 7.407407e-01	 1.111111e+00	 3.566398e+01
0	 7.407407e-01	 1.185185e+00	 4.014892e+01
0	 7.407407e-01	 1.259259e+00	 4.248450e+01
0	 7.407407e-01	 1.333333e+00	 4.266997e+01
0	 7.407407e-01	 1.407407e+00	 4.070457e+01
0	 7.407407e-01	 1.481481e+00	 3.658756e+01
0	 8.148148e-01	 1.111111e+00	 3.447774e+01
0	 8.148148e-01	 1.185185e+00	 3.781088e+01
0	 8.148148e-01	 1.259259e+00	 3.932757e+01
0	 8.148148e-01	 1.333333e+00	 3.900985e+01
0	 8.148148e-01	 1.407407e+00	 3.683982e+01
0	 8.148148e-01	 1.481481e+00	 3.279953e+01
0	 8.888889e-01	 1.111111e+00	 3.284263e+01
0	 8.888889e-01	 1.185185e+00	 3.531558e+01
0	 8.888889e-01	 1.259259e+00	 3.621036e+01
0	 8.888889e-01	 1.333333e+00	 3.549931e+01
0	 8.888889e-01	 1.407407e+00	 3.315477e+01
0	 8.888889e-01	 1.481481e+00	 2.914909e+01
0	 9.629630e-01	 1.111111e+00	 3.085472e+01
0	 9.629630e-01	 1.185185e+00	 3.268464e+01
0	 9.629630e-01	 1.259259e+00	 3.311457e+01
0	 9.629630e-01	 1.333333e+00	 3.211456e+01
0	 9.629630e-01	 1.407407e+00	 2.965468e+01
0	 9.629630e-01	 1.481481e+00	 2.570498e+01
0	 1.037037e+00	 1.111111e+00	 2.861010e+01
0	 1.037037e+00	 1.185185e+00	 2.993973e+01
0	 1.037037e+00	 1.259259e+00	 3.002190e+01
0	 1.037037e+00	 1.333333e+00	 2.883185e+01
0	 1.037037e+00	 1.407407e+00	 2.634479e+01
0	 1.037037e+00	 1.481481e+00	 2.253596e+01
0	 1.111111e+00	 1.111111e+00	 2.620484e+01
0	 1.111111e+00	 1.185185e+00	 2.710248e+01
0	 1.111111e+00	 1.259259e+00	 2.691405e+01
0	 1.111111e+00	 1.333333e+00	 2.562740e+01
0	 1.111111e+00	 1.407407e+00	 2.323036e+01
0	 1.111111e+00	 1.481481e+00	 1.971079e+01
0	 7.407407e-01	 1.481481e+00	 3.658756e+01
0	 7.407407e-01	 1.555556e+00	 3.150208e+01
0	 7.407407e-01	 1.629630e+00	 2.663160e+01
0	 7.407407e-01	 1.703704e+00	 2.197582e+01
0	 7.407407e-01	 1.777778e+00	 1.753446e+01
0	 7.407407e-01	 1.851852e+00	 1.330724e+01
0	 8.148148e-01	 1.481481e+00	 3.279953e+01
0	 8.148148e-01	 1.555556e+00	 2.798053e+01
0	 8.148148e-01	 1.629630e+00	 2.349279e+01
0	 8.148148e-01	 1.703704e+00	 1.934606e+01
0	 8.148148e-01	 1.777778e+00	 1.555007e+01
0	 8.148148e-01	 1.851852e+00	 1.211455e+01
0	 8.888889e-01	 1.481481e+00	 2.914909e+01
0	 8.888889e-01	 1.555556e+00	 2.453946e+01
0	 8.888889e-01	 1.629630e+00	 2.041177e+01
0	 8.888889e-01	 1.703704e+00	 1.678136e+01
0	 8.888889e-01	 1.777778e+00	 1.366359e+01
0	 8.888889e-01	 1.851852e+00	 1.107379e+01
0	 9.629630e-01	 1.481481e+00	 2.570498e+01
0	 9.629630e-01	 1.555556e+00	 2.131145e+01
0	 9.629630e-01	 1.629630e+00	 1.755108e+01
0	 9.629630e-01	 1.703704e+00	 1.444040e+01
0	 9.629630e-01	 1.777778e+00	 1.199598e+01
0	 9.629630e-01	 1.851852e+00	 1.023435e+01
0	 1.037037e+00	 1.481481e+00	 2.253596e+01
0	 1.037037e+00	 1.555556e+00	 1.842907e+01
0	 1.037037e+00	 1.629630e+00	 1.507327e+01
0	 1.037037e+00	 1.703704e+00	 1.248187e+01
0	 1.037037e+00	 1.777778e+00	 1.066822e+01
0	 1.037037e+00	 1.851852e+00	 9.645634e+00
0	 1.111111e+00	 1.481481e+00	 1.971079e+01
0	 1.111111e+00	 1.555556e+00	 1.602491e+01
0	 1.111111e+00	 1.629630e+00	 1.314090e+01
0	 1.111111e+00	 1.703704e+00	 1.106444e+01
0	 1.111111e+00	 1.777778e+00	 9.801256e+00
0	 1.111111e+00	 1.851852e+00	 9.357037e+00
0	 7.407407e-01	 1.851852e+00	 1.330724e+01
0	 7.407407e-01	 1.925926e+00	 9.741701e+00
0	 7.407407e-01	 2.000000e+00	 7.278375e+00
0	 7.407407e-01	 2.074074e+00	 5.906406e+00
0	 7.407407e-01	 2.148148e+00	 5.614938e+00
0	 7.407407e-01	 2.222222e+00	 6.393120e+00
0	 8.148148e-01	 1.851852e+00	 1.211455e+01
0	 8.148148e-01	 1.925926e+00	 9.314064e+00
0	 8.148148e-01	 2.000000e+00	 7.407216e+00
0	 8.148148e-01	 2.074074e+00	 6.379813e+00
0	 8.148148e-01	 2.148148e+00	 6.217666e+00
0	 8.148148e-01	 2.222222e+00	 6.906582e+00
0	 8.888889e-01	 1.851852e+00	 1.107379e+01
0	 8.888889e-01	 1.925926e+00	 9.083420e+00
0	 8.888889e-01	 2.000000e+00	 7.744070e+00
0	 8.888889e-01	 2.074074e+00	 7.041298e+00
0	 8.888889e-01	 2.148148e+00	 6.960662e+00
0	 8.888889e-01	 2.222222e+00	 7.487721e+00
0	 9.629630e-01	 1.851852e+00	 1.023435e+01
0	 9.629630e-01	 1.925926e+00	 9.024277e+00
0	 9.629630e-01	 2.000000e+00	 8.215757e+00
0	 9.629630e-01	 2.074074e+00	 7.797185e+00
0	 9.629630e-01	 2.148148e+00	 7.756959e+00
0	 9.629630e-01	 2.222222e+00	 8.083475e+00
0	 1.037037e+00	 1.851852e+00	 9.645634e+00
0	 1.037037e+00	 1.925926e+00	 9.111144e+00
0	 1.037037e+00	 2.000000e+00	 8.749093e+00
0	 1.037037e+00	 2.074074e+00	 8.553802e+00
0	 1.037037e+00	 2.148148e+00	 8.519591e+00
0	 1.037037e+00	 2.222222e+00	 8.640783e+00
0	 1.111111e+00	 1.851852e+00	 9.357037e+00
0	 1.111111e+00	 1.925926e+00	 9.318529e+00
0	 1.111111e+00	 2.000000e+00	 9.270897e+00
0	 1.111111e+00	 2.074074e+00	 9.217473e+00
0	 1.111111e+00	 2.148148e+00	 9.161591e+00
0	 1.111111e+00	 2.222222e+00	 9.106584e+00
0	 7.407407e-01	 2.222222e+00	 6.393120e+00
0	 7.407407e-01	 2.296296e+00	 7.514450e+00
0	 7.407407e-01	 2.370370e+00	 8.268552e+00
0	 7.407407e-01	 2.444444e+00	 8.668754e+00
0	 7.407407e-01	 2.518519e+00	 8.728385e+00
0	 7.407407e-01	 2.592593e+00	 8.460772e+00
0	 8.148148e-01	 2.222222e+00	 6.906582e+00
0	 8.148148e-01	 2.296296e+00	 7.851800e+00
0	 8.148148e-01	 2.370370e+00	 8.477683e+00
0	 8.148148e-01	 2.444444e+00	 8.798734e+00
0	 8.148148e-01	 2.518519e+00	 8.829454e+00
0	 8.148148e-01	 2.592593e+00	 8.584345e+00
0	 8.888889e-01	 2.222222e+00	 7.487721e+00
0	 8.888889e-01	 2.296296e+00	 8.187312e+00
0	 8.888889e-01	 2.370370e+00	 8.642895e+00
0	 8.888889e-01	 2.444444e+00	 8.867964e+00
0	 8.888889e-01	 2.518519e+00	 8.876014e+00
0	 8.888889e-01	 2.592593e+00	 8.680537e+00
0	 9.629630e-01	 2.222222e+00	 8.083475e+00
0	 9.629630e-01	 2.296296e+00	 8.508774e+00
0	 9.629630e-01	 2.370370e+00	 8.779505e+00
0	 9.629630e-01	 2.444444e+00	 8.905974e+00
0	 9.629630e-01	 2.518519e+00	 8.898487e+00
0	 9.629630e-01	 2.592593e+00	 8.767350e+00
0	 1.037037e+00	 2.222222e+00	 8.640783e+00
0	 1.037037e+00	 2.296296e+00	 8.803971e+00
0	 1.037037e+00	 2.370370e+00	 8.902828e+00
0	 1.037037e+00	 2.444444e+00	 8.942291e+00
0	 1.037037e+00	 2.518519e+00	 8.927298e+00
0	 1.037037e+00	 2.592593e+00	 8.862787e+00
0	 1.111111e+00	 2.222222e+00	 9.106584e+00
0	 1.111111e+00	 2.296296e+00	 9.060689e+00
0	 1.111111e+00	 2.370370e+00	 9.028180e+00
0	 1.111111e+00	 2.444444e+00	 9.006444e+00
0	 1.111111e+00	 2.518519e+00	 8.992872e+00
0	 1.111111e+00	 2.592593e+00	 8.984850e+00
0	 7.407407e-01	 2.592593e+00	 8.460772e+00
0	 7.407407e-01	 2.666667e+00	 8.111464e+00
0	 7.407407e-01	 2.740741e+00	 7.911379e+00
0	 7.407407e-01	 2.814815e+00	 7.851900e+00
0	 7.407407e-01	 2.888889e+00	 7.924412e+00
0	 7.407407e-01	 2.962963e+00	 8.120298e+00
0	 8.148148e-01	 2.592593e+00	 8.584345e+00
0	 8.148148e-01	 2.666667e+00	 8.275382e+00
0	 8.148148e-01	 2.740741e+00	 8.099016e+00
0	 8.148148e-01	 2.814815e+00	 8.046464e+00
0	 8.148148e-01	 2.888889e+00	 8.108944e+00
0	 8.148148e-01	 2.962963e+00	 8.277673e+00
0	 8.888889e-01	 2.592593e+00	 8.680537e+00
0	 8.888889e-01	 2.666667e+00	 8.442377e+00
0	 8.888889e-01	 2.740741e+00	 8.308246e+00
0	 8.888889e-01	 2.814815e+00	 8.270440e+00
0	 8.888889e-01	 2.888889e+00	 8.321260e+00
0	 8.888889e-01	 2.962963e+00	 8.453002e+00
0	 9.629630e-01	 2.592593e+00	 8.767350e+00
0	 9.629630e-01	 2.666667e+00	 8.614018e+00
0	 9.629630e-01	 2.740741e+00	 8.529492e+00
0	 9.629630e-01	 2.814815e+00	 8.508399e+00
0	 9.629630e-01	 2.888889e+00	 8.545365e+00
0	 9.629630e-01	 2.962963e+00	 8.635017e+00
0	 1.037037e+00	 2.592593e+00	 8.862787e+00
0	 1.037037e+00	 2.666667e+00	 8.791872e+00
0	 1.037037e+00	 2.740741e+00	 8.753179e+00
0	 1.037037e+00	 2.814815e+00	 8.744910e+00
0	 1.037037e+00	 2.888889e+00	 8.765267e+00
0	 1.037037e+00	 2.962963e+00	 8.812451e+00
0	 1.111111e+00	 2.592593e+00	 8.984850e+00
0	 1.111111e+00	 2.666667e+00	 8.977507e+00
0	 1.111111e+00	 2.740741e+00	 8.969729e+00
0	 1.111111e+00	 2.814815e+00	 8.964542e+00
0	 1.111111e+00	 2.888889e+00	 8.964970e+00
0	 1.111111e+00	 2.962963e+00	 8.974038e+00
0	 7.407407e-01	 2.962963e+00	 8.120298e+00
0	 7.407407e-01	 3.037037e+00	 8.341586e+00
0	 7.407407e-01	 3.111111e+00	 8.499644e+00
0	 7.407407e-01	 3.185185e+00	 8.599862e+00
0	 7.407407e-01	 3.259259e+00	 8.647630e+00
0	 7.407407e-01	 3.333333e+00	 8.648339e+00
0	 8.148148e-01	 2.962963e+00	 8.277673e+00
0	 8.148148e-01	 3.037037e+00	 8.467220e+00
0	 8.148148e-01	 3.111111e+00	 8.601527e+00
0	 8.148148e-01	 3.185185e+00	 8.685870e+00
0	 8.148148e-01	 3.259259e+00	 8.725529e+00
0	 8.148148e-01	 3.333333e+00	 8.725781e+00
0	 8.888889e-01	 2.962963e+00	 8.453002e+00
0	 8.888889e-01	 3.037037e+00	 8.599747e+00
0	 8.888889e-01	 3.111111e+00	 8.703715e+00
0	 8.888889e-01	 3.185185e+00	 8.769411e+00
0	 8.888889e-01	 3.259259e+00	 8.801339e+00
0	 8.888889e-01	 3.333333e+00	 8.804006e+00
0	 9.629630e-01	 2.962963e+00	 8.635017e+00
0	 9.629630e-01	 3.037037e+00	 8.734324e+00
0	 9.629630e-01	 3.111111e+00	 8.805887e+00
0	 9.629630e-01	 3.185185e+00	 8.852781e+00
0	 9.629630e-01	 3.259259e+00	 8.878080e+00
0	 9.629630e-01	 3.333333e+00	 8.884857e+00
0	 1.037037e+00	 2.962963e+00	 8.812451e+00
0	 1.037037e+00	 3.037037e+00	 8.866104e+00
0	 1.037037e+00	 3.111111e+00	 8.907720e+00
0	 1.037037e+00	 3.185185e+00	 8.938281e+00
0	 1.037037e+00	 3.259259e+00	 8.958772e+00
0	 1.037037e+00	 3.333333e+00	 8.970175e+00
0	 1.111111e+00	 2.962963e+00	 8.974038e+00
0	 1.111111e+00	 3.037037e+00	 8.990243e+00
0	 1.111111e+00	 3.111111e+00	 9.008890e+00
0	 1.111111e+00	 3.185185e+00	 9.028210e+00
0	 1.111111e+00	 3.259259e+00	 9.046437e+00
0	 1.111111e+00	 3.333333e+00	 9.061804e+00
0	 7.407407e-01	 3.333333e+00	 8.648339e+00
0	 7.407407e-01	 3.407407e+00	 8.639161e+00
0	 7.407407e-01	 3.481481e+00	 8.651854e+00
0	 7.407407e-01	 3.555556e+00	 8.683691e+00
0	 7.407407e-01	 3.629630e+00	 8.731941e+00
0	 7.407407e-01	 3.703704e+00	 8.793878e+00
0	 8.148148e-01	 3.333333e+00	 8.725781e+00
0	 8.148148e-01	 3.407407e+00	 8.718657e+00
0	 8.148148e-01	 3.481481e+00	 8.730970e+00
0	 8.148148e-01	 3.555556e+00	 8.760172e+00
0	 8.148148e-01	 3.629630e+00	 8.803714e+00
0	 8.148148e-01	 3.703704e+00	 8.859045e+00
0	 8.888889e-01	 3.333333e+00	 8.804006e+00
0	 8.888889e-01	 3.407407e+00	 8.802000e+00
0	 8.888889e-01	 3.481481e+00	 8.815537e+00
0	 8.888889e-01	 3.555556e+00	 8.842562e+00
0	 8.888889e-01	 3.629630e+00	 8.881020e+00
0	 8.888889e-01	 3.703704e+00	 8.928855e+00
0	 9.629630e-01	 3.333333e+00	 8.884857e+00
0	 9.629630e-01	 3.407407e+00	 8.889178e+00
0	 9.629630e-01	 3.481481e+00	 8.904231e+00
0	 9.629630e-01	 3.555556e+00	 8.928770e+00
0	 9.629630e-01	 3.629630e+00	 8.961550e+00
0	 9.629630e-01	 3.703704e+00	 9.001324e+00
0	 1.037037e+00	 3.333333e+00	 8.970175e+00
0	 1.037037e+00	 3.407407e+00	 8.980177e+00
0	 1.037037e+00	 3.481481e+00	 8.995729e+00
0	 1.037037e+00	 3.555556e+00	 9.016709e+00
0	 1.037037e+00	 3.629630e+00	 9.042995e+00
0	 1.037037e+00	 3.703704e+00	 9.074468e+00
0	 1.111111e+00	 3.333333e+00	 9.061804e+00
0	 1.111111e+00	 3.407407e+00	 9.074984e+00
0	 1.111111e+00	 3.481481e+00	 9.088706e+00
0	 1.111111e+00	 3.555556e+00	 9.104288e+00
0	 1.111111e+00	 3.629630e+00	 9.123048e+00
0	 1.111111e+00	 3.703704e+00	 9.146303e+00
0	 7.407407e-01	 3.703704e+00	 8.793878e+00
0	 7.407407e-01	 3.777778e+00	 8.856259e+00
0	 7.407407e-01	 3.851852e+00	 8.908592e+00
0	 7.407407e-01	 3.925926e+00	 8.952266e+00
0	 7.407407e-01	 4.000000e+00	 8.988674e+00
0	 7.407407e-01	 4.074074e+00	 9.019206e+00
0	 8.148148e-01	 3.703704e+00	 8.859045e+00
0	 8.148148e-01	 3.777778e+00	 8.914600e+00
0	 8.148148e-01	 3.851852e+00	 8.961373e+00
0	 8.148148e-01	 3.925926e+00	 9.000656e+00
0	 8.148148e-01	 4.000000e+00	 9.033743e+00
0	 8.148148e-01	 4.074074e+00	 9.061926e+00
0	 8.888889e-01	 3.703704e+00	 8.928855e+00
0	 8.888889e-01	 3.777778e+00	 8.976780e+00
0	 8.888889e-01	 3.851852e+00	 9.017571e+00
0	 8.888889e-01	 3.925926e+00	 9.052276e+00
0	 8.888889e-01	 4.000000e+00	 9.081941e+00
0	 8.888889e-01	 4.074074e+00	 9.107614e+00
0	 9.629630e-01	 3.703704e+00	 9.001324e+00
0	 9.629630e-01	 3.777778e+00	 9.041359e+00
0	 9.629630e-01	 3.851852e+00	 9.076186e+00
0	 9.629630e-01	 3.925926e+00	 9.106458e+00
0	 9.629630e-01	 4.000000e+00	 9.132827e+00
0	 9.629630e-01	 4.074074e+00	 9.155946e+00
0	 1.037037e+00	 3.703704e+00	 9.074468e+00
0	 1.037037e+00	 3.777778e+00	 9.106899e+00
0	 1.037037e+00	 3.851852e+00	 9.136218e+00
0	 1.037037e+00	 3.925926e+00	 9.162534e+00
0	 1.037037e+00	 4.000000e+00	 9.185958e+00
0	 1.037037e+00	 4.074074e+00	 9.206600e+00
0	 1.111111e+00	 3.703704e+00	 9.146303e+00
0	 1.111111e+00	 3.777778e+00	 9.171961e+00
0	 1.111111e+00	 3.851852e+00	 9.196666e+00
0	 1.111111e+00	 3.925926e+00	 9.219837e+00
0	 1.111111e+00	 4.000000e+00	 9.240893e+00
0	 1.111111e+00	 4.074074e+00	 9.259255e+00
0	 7.407407e-01	 4.074074e+00	 9.019206e+00
0	 7.407407e-01	 4.148148e+00	 9.048263e+00
0	 7.407407e-01	 4.222222e+00	 9.078909e+00
0	 7.407407e-01	 4.296296e+00	 9.110525e+00
0	 7.407407e-01	 4.370370e+00	 9.142493e+00
0	 7.407407e-01	 4.444444e+00	 9.174195e+00
0	 8.148148e-01	 4.074074e+00	 9.061926e+00
0	 8.148148e-01	 4.148148e+00	 9.089000e+00
0	 8.148148e-01	 4.222222e+00	 9.117528e+00
0	 8.148148e-01	 4.296296e+00	 9.146956e+00
0	 8.148148e-01	 4.370370e+00	 9.176733e+00
0	 8.148148e-01	 4.444444e+00	 9.206305e+00
0	 8.888889e-01	 4.074074e+00	 9.107614e+00
0	 8.888889e-01	 4.148148e+00	 9.132429e+00
0	 8.888889e-01	 4.222222e+00	 9.158542e+00
0	 8.888889e-01	 4.296296e+00	 9.185532e+00
0	 8.888889e-01	 4.370370e+00	 9.212975e+00
0	 8.888889e-01	 4.444444e+00	 9.240450e+00
0	 9.629630e-01	 4.074074e+00	 9.155946e+00
0	 9.629630e-01	 4.148148e+00	 9.178278e+00
0	 9.629630e-01	 4.222222e+00	 9.201700e+00
0	 9.629630e-01	 4.296296e+00	 9.225987e+00
0	 9.629630e-01	 4.370370e+00	 9.250912e+00
0	 9.629630e-01	 4.444444e+00	 9.276248e+00
0	 1.037037e+00	 4.074074e+00	 9.206600e+00
0	 1.037037e+00	 4.148148e+00	 9.226276e+00
0	 1.037037e+00	 4.222222e+00	 9.246751e+00
0	 1.037037e+00	 4.296296e+00	 9.268060e+00
0	 1.037037e+00	 4.370370e+00	 9.290237e+00
0	 1.037037e+00	 4.444444e+00	 9.313316e+00
0	 1.111111e+00	 4.074074e+00	 9.259255e+00
0	 1.111111e+00	 4.148148e+00	 9.276152e+00
0	 1.111111e+00	 4.222222e+00	 9.293442e+00
0	 1.111111e+00	 4.296296e+00	 9.311486e+00
0	 1.111111e+00	 4.370370e+00	 9.330643e+00
0	 1.111111e+00	 4.444444e+00	 9.351274e+00
0	 7.407407e-01	 4.444444e+00	 9.174195e+00
0	 7.407407e-01	 4.518519e+00	 9.204601e+00
0	 7.407407e-01	 4.592593e+00	 9.233275e+00
0	 7.407407e-01	 4.666667e+00	 9.260483e+00
0	 7.407407e-01	 4.740741e+00	 9.286496e+00
0	 7.407407e-01	 4.814815e+00	 9.311582e+00
0	 8.148148e-01	 4.444444e+00	 9.206305e+00
0	 8.148148e-01	 4.518519e+00	 9.234723e+00
0	 8.148148e-01	 4.592593e+00	 9.261571e+00
0	 8.148148e-01	 4.666667e+00	 9.287094e+00
0	 8.148148e-01	 4.740741e+00	 9.311539e+00
0	 8.148148e-01	 4.814815e+00	 9.335151e+00
0	 8.888889e-01	 4.444444e+00	 9.240450e+00
0	 8.888889e-01	 4.518519e+00	 9.267009e+00
0	 8.888889e-01	 4.592593e+00	 9.292114e+00
0	 8.888889e-01	 4.666667e+00	 9.315962e+00
0	 8.888889e-01	 4.740741e+00	 9.338747e+00
0	 8.888889e-01	 4.814815e+00	 9.360666e+00
0	 9.629630e-01	 4.444444e+00	 9.276248e+00
0	 9.629630e-01	 4.518519e+00	 9.301006e+00
0	 9.629630e-01	 4.592593e+00	 9.324427e+00
0	 9.629630e-01	 4.666667e+00	 9.346626e+00
0	 9.629630e-01	 4.740741e+00	 9.367720e+00
0	 9.629630e-01	 4.814815e+00	 9.387825e+00
0	 1.037037e+00	 4.444444e+00	 9.313316e+00
0	 1.037037e+00	 4.518519e+00	 9.336265e+00
0	 1.037037e+00	 4.592593e+00	 9.358032e+00
0	 1.037037e+00	 4.666667e+00	 9.378626e+00
0	 1.037037e+00	 4.740741e+00	 9.398056e+00
0	 1.037037e+00	 4.814815e+00	 9.416331e+00
0	 1.111111e+00	 4.444444e+00	 9.351274e+00
0	 1.111111e+00	 4.518519e+00	 9.372334e+00
0	 1.111111e+00	 4.592593e+00	 9.392451e+00
0	 1.111111e+00	 4.666667e+00	 9.411500e+00
0	 1.111111e+00	 4.740741e+00	 9.429353e+00
0	 1.111111e+00	 4.814815e+00	 9.445883e+00
0	 7.407407e-01	 4.814815e+00	 9.311582e+00
0	 7.407407e-01	 4.888889e+00	 9.336001e+00
0	 7.407407e-01	 4.962963e+00	 9.359764e+00
0	 7.407407e-01	 5.037037e+00	 9.382763e+00
0	 7.407407e-01	 5.111111e+00	 9.404893e+00
0	 7.407407e-01	 5.185185e+00	 9.426046e+00
0	 8.148148e-01	 4.814815e+00	 9.335151e+00
0	 8.148148e-01	 4.888889e+00	 9.358177e+00
0	 8.148148e-01	 4.962963e+00	 9.380633e+00
0	 8.148148e-01	 5.037037e+00	 9.402427e+00
0	 8.148148e-01	 5.111111e+00	 9.423464e+00
0	 8.148148e-01	 5.185185e+00	 9.443651e+00
0	 8.888889e-01	 4.814815e+00	 9.360666e+00
0	 8.888889e-01	 4.888889e+00	 9.382025e+00
0	 8.888889e-01	 4.962963e+00	 9.402955e+00
0	 8.888889e-01	 5.037037e+00	 9.423389e+00
0	 8.888889e-01	 5.111111e+00	 9.443256e+00
0	 8.888889e-01	 5.185185e+00	 9.462489e+00
0	 9.629630e-01	 4.814815e+00	 9.387825e+00
0	 9.629630e-01	 4.888889e+00	 9.407351e+00
0	 9.629630e-01	 4.962963e+00	 9.426607e+00
0	 9.629630e-01	 5.037037e+00	 9.445561e+00
0	 9.629630e-01	 5.111111e+00	 9.464182e+00
0	 9.629630e-01	 5.185185e+00	 9.482435e+00
0	 1.037037e+00	 4.814815e+00	 9.416331e+00
0	 1.037037e+00	 4.888889e+00	 9.433962e+00
0	 1.037037e+00	 4.962963e+00	 9.451466e+00
0	 1.037037e+00	 5.037037e+00	 9.468857e+00
0	 1.037037e+00	 5.111111e+00	 9.486151e+00
0	 1.037037e+00	 5.185185e+00	 9.503365e+00
0	 1.111111e+00	 4.814815e+00	 9.445883e+00
0	 1.111111e+00	 4.888889e+00	 9.461665e+00
0	 1.111111e+00	 4.962963e+00	 9.477407e+00
0	 1.111111e+00	 5.037037e+00	 9.493186e+00
0	 1.111111e+00	 5.111111e+00	 9.509077e+00
0	 1.111111e+00	 5.185185e+00	 9.525155e+00
0	 7.407407e-01	 5.185185e+00	 9.426046e+00
0	 7.407407e-01	 5.259259e+00	 9.446369e+00
0	 7.407407e-01	 5.333333e+00	 9.466104e+00
0	 7.407407e-01	 5.407407e+00	 9.485286e+00
0	 7.407407e-01	 5.481481e+00	 9.503948e+00
0	 7.407407e-01	 5.555556e+00	 9.522126e+00
0	 8.148148e-01	 5.185185e+00	 9.443651e+00
0	 8.148148e-01	 5.259259e+00	 9.463089e+00
0	 8.148148e-01	 5.333333e+00	 9.481963e+00
0	 8.148148e-01	 5.407407e+00	 9.500307e+00
0	 8.148148e-01	 5.481481e+00	 9.518154e+00
0	 8.148148e-01	 5.555556e+00	 9.535538e+00
0	 8.888889e-01	 5.185185e+00	 9.462489e+00
0	 8.888889e-01	 5.259259e+00	 9.481088e+00
0	 8.888889e-01	 5.333333e+00	 9.499118e+00
0	 8.888889e-01	 5.407407e+00	 9.516608e+00
0	 8.888889e-01	 5.481481e+00	 9.533585e+00
0	 8.888889e-01	 5.555556e+00	 9.550076e+00
0	 9.629630e-01	 5.185185e+00	 9.482435e+00
0	 9.629630e-01	 5.259259e+00	 9.500198e+00
0	 9.629630e-01	 5.333333e+00	 9.517378e+00
0	 9.629630e-01	 5.407407e+00	 9.533992e+00
0	 9.629630e-01	 5.481481e+00	 9.550059e+00
0	 9.629630e-01	 5.555556e+00	 9.565596e+00
0	 1.037037e+00	 5.185185e+00	 9.503365e+00
0	 1.037037e+00	 5.259259e+00	 9.520250e+00
0	 1.037037e+00	 5.333333e+00	 9.536549e+00
0	 1.037037e+00	 5.407407e+00	 9.552264e+00
0	 1.037037e+00	 5.481481e+00	 9.567398e+00
0	 1.037037e+00	 5.555556e+00	 9.581952e+00
0	 1.111111e+00	 5.185185e+00	 9.525155e+00
0	 1.111111e+00	 5.259259e+00	 9.541078e+00
0	 1.111111e+00	 5.333333e+00	 9.556442e+00
0	 1.111111e+00	 5.407407e+00	 9.571228e+00
0	 1.111111e+00	 5.481481e+00	 9.585420e+00
0	 1.111111e+00	 5.555556e+00	 9.598998e+00
0	 7.407407e-01	 5.555556e+00	 9.522126e+00
0	 7.407407e-01	 5.629630e+00	 9.539797e+00
0	 7.407407e-01	 5.703704e+00	 9.556908e+00
0	 7.407407e-01	 5.777778e+00	 9.573446e+00
0	 7.407407e-01	 5.851852e+00	 9.589398e+00
0	 7.407407e-01	 5.925926e+00	 9.604753e+00
0	 8.148148e-01	 5.555556e+00	 9.535538e+00
0	 8.148148e-01	 5.629630e+00	 9.552451e+00
0	 8.148148e-01	 5.703704e+00	 9.568859e+00
0	 8.148148e-01	 5.777778e+00	 9.584749e+00
0	 8.148148e-01	 5.851852e+00	 9.600110e+00
0	 8.148148e-01	 5.925926e+00	 9.614930e+00
0	 8.888889e-01	 5.555556e+00	 9.550076e+00
0	 8.888889e-01	 5.629630e+00	 9.566121e+00
0	 8.888889e-01	 5.703704e+00	 9.581733e+00
0	 8.888889e-01	 5.777778e+00	 9.596905e+00
0	 8.888889e-01	 5.851852e+00	 9.611628e+00
0	 8.888889e-01	 5.925926e+00	 9.625894e+00
0	 9.629630e-01	 5.555556e+00	 9.565596e+00
0	 9.629630e-01	 5.629630e+00	 9.580699e+00
0	 9.629630e-01	 5.703704e+00	 9.595452e+00
0	 9.629630e-01	 5.777778e+00	 9.609852e+00
0	 9.629630e-01	 5.851852e+00	 9.623895e+00
0	 9.629630e-01	 5.925926e+00	 9.637578e+00
0	 1.037037e+00	 5.555556e+00	 9.581952e+00
0	 1.037037e+00	 5.629630e+00	 9.596080e+00
0	 1.037037e+00	 5.703704e+00	 9.609937e+00
0	 1.037037e+00	 5.777778e+00	 9.623526e+00
0	 1.037037e+00	 5.851852e+00	 9.636852e+00
0	 1.037037e+00	 5.925926e+00	 9.649919e+00
0	 1.111111e+00	 5.555556e+00	 9.598998e+00
0	 1.111111e+00	 5.629630e+00	 9.612156e+00
0	 1.111111e+00	 5.703704e+00	 9.625108e+00
0	 1.111111e+00	 5.777778e+00	 9.637866e+00
0	 1.111111e+00	 5.851852e+00	 9.650442e+00
0	 1.111111e+00	 5.925926e+00	 9.662850e+00
0	 7.407407e-01	 5.925926e+00	 9.604753e+00
0	 7.407407e-01	 6.000000e+00	 9.619614e+00
0	 7.407407e-01	 6.074074e+00	 9.634095e+00
0	 7.407407e-01	 6.148148e+00	 9.648197e+00
0	 7.407407e-01	 6.222222e+00	 9.661919e+00
0	 7.407407e-01	 6.296296e+00	 9.675260e+00
0	 8.148148e-01	 5.925926e+00	 9.614930e+00
0	 8.148148e-01	 6.000000e+00	 9.629292e+00
0	 8.148148e-01	 6.074074e+00	 9.643287e+00
0	 8.148148e-01	 6.148148e+00	 9.656916e+00
0	 8.148148e-01	 6.222222e+00	 9.670180e+00
0	 8.148148e-01	 6.296296e+00	 9.683081e+00
0	 8.888889e-01	 5.925926e+00	 9.625894e+00
0	 8.888889e-01	 6.000000e+00	 9.639746e+00
0	 8.888889e-01	 6.074074e+00	 9.653237e+00
0	 8.888889e-01	 6.148148e+00	 9.666368e+00
0	 8.888889e-01	 6.222222e+00	 9.679141e+00
0	 8.888889e-01	 6.296296e+00	 9.691560e+00
0	 9.629630e-01	 5.925926e+00	 9.637578e+00
0	 9.629630e-01	 6.000000e+00	 9.650901e+00
0	 9.629630e-01	 6.074074e+00	 9.663865e+00
0	 9.629630e-01	 6.148148e+00	 9.676473e+00
0	 9.629630e-01	 6.222222e+00	 9.688727e+00
0	 9.629630e-01	 6.296296e+00	 9.700631e+00
0	 1.037037e+00	 5.925926e+00	 9.649919e+00
0	 1.037037e+00	 6.000000e+00	 9.662680e+00
0	 1.037037e+00	 6.074074e+00	 9.675090e+00
0	 1.037037e+00	 6.148148e+00	 9.687150e+00
0	 1.037037e+00	 6.222222e+00	 9.698862e+00
0	 1.037037e+00	 6.296296e+00	 9.710227e+00
0	 1.111111e+00	 5.925926e+00	 9.662850e+00
0	 1.111111e+00	 6.000000e+00	 9.675010e+00
0	 1.111111e+00	 6.074074e+00	 9.686832e+00
0	 1.111111e+00	 6.148148e+00	 9.698318e+00
0	 1.111111e+00	 6.222222e+00	 9.709469e+00
0	 1.111111e+00	 6.296296e+00	 9.720284e+00
0	 7.407407e-01	 6.296296e+00	 9.675260e+00
0	 7.407407e-01	 6.370370e+00	 9.688229e+00
0	 7.407407e-01	 6.444444e+00	 9.700833e+00
0	 7.407407e-01	 6.518519e+00	 9.713071e+00
0	 7.407407e-01	 6.592593e+00	 9.724944e+00
0	 7.407407e-01	 6.666667e+00	 9.736453e+00
0	 8.148148e-01	 6.296296e+00	 9.683081e+00
0	 8.148148e-01	 6.370370e+00	 9.695631e+00
0	 8.148148e-01	 6.444444e+00	 9.707840e+00
0	 8.148148e-01	 6.518519e+00	 9.719708e+00
0	 8.148148e-01	 6.592593e+00	 9.731235e+00
0	 8.148148e-01	 6.666667e+00	 9.742422e+00
0	 8.888889e-01	 6.296296e+00	 9.691560e+00
0	 8.888889e-01	 6.370370e+00	 9.703646e+00
0	 8.888889e-01	 6.444444e+00	 9.715421e+00
0	 8.888889e-01	 6.518519e+00	 9.726885e+00
0	 8.888889e-01	 6.592593e+00	 9.738037e+00
0	 8.888889e-01	 6.666667e+00	 9.748879e+00
0	 9.629630e-01	 6.296296e+00	 9.700631e+00
0	 9.629630e-01	 6.370370e+00	 9.712220e+00
0	 9.629630e-01	 6.444444e+00	 9.723529e+00
0	 9.629630e-01	 6.518519e+00	 9.734560e+00
0	 9.629630e-01	 6.592593e+00	 9.745313e+00
0	 9.629630e-01	 6.666667e+00	 9.755787e+00
0	 1.037037e+00	 6.296296e+00	 9.710227e+00
0	 1.037037e+00	 6.370370e+00	 9.721296e+00
0	 1.037037e+00	 6.444444e+00	 9.732118e+00
0	 1.037037e+00	 6.518519e+00	 9.742693e+00
0	 1.037037e+00	 6.592593e+00	 9.753023e+00
0	 1.037037e+00	 6.666667e+00	 9.763109e+00
0	 1.111111e+00	 6.296296e+00	 9.720284e+00
0	 1.111111e+00	 6.370370e+00	 9.730821e+00
0	 1.111111e+00	 6.444444e+00	 9.741140e+00
0	 1.111111e+00	 6.518519e+00	 9.751242e+00
0	 1.111111e+00	 6.592593e+00	 9.761131e+00
0	 1.111111e+00	 6.666667e+00	 9.770807e+00
0	 7.407407e-01	 6.666667e+00	 9.736453e+00
0	 7.407407e-01	 6.740741e+00	 9.747638e+00
0	 7.407407e-01	 6.814815e+00	 9.758539e+00
0	 7.407407e-01	 6.888889e+00	 9.769156e+00
0	 7.407407e-01	 6.962963e+00	 9.779487e+00
0	 7.407407e-01	 7.037037e+00	 9.789532e+00
0	 8.148148e-01	 6.666667e+00	 9.742422e+00
0	 8.148148e-01	 6.740741e+00	 9.753301e+00
0	 8.148148e-01	 6.814815e+00	 9.763905e+00
0	 8.148148e-01	 6.888889e+00	 9.774236e+00
0	 8.148148e-01	 6.962963e+00	 9.784292e+00
0	 8.148148e-01	 7.037037e+00	 9.794074e+00
0	 8.888889e-01	 6.666667e+00	 9.748879e+00
0	 8.888889e-01	 6.740741e+00	 9.759432e+00
0	 8.888889e-01	 6.814815e+00	 9.769720e+00
0	 8.888889e-01	 6.888889e+00	 9.779744e+00
0	 8.888889e-01	 6.962963e+00	 9.789504e+00
0	 8.888889e-01	 7.037037e+00	 9.799001e+00
0	 9.629630e-01	 6.666667e+00	 9.755787e+00
0	 9.629630e-01	 6.740741e+00	 9.765995e+00
0	 9.629630e-01	 6.814815e+00	 9.775947e+00
0	 9.629630e-01	 6.888889e+00	 9.785644e+00
0	 9.629630e-01	 6.962963e+00	 9.795088e+00
0	 9.629630e-01	 7.037037e+00	 9.804282e+00
0	 1.037037e+00	 6.666667e+00	 9.763109e+00
0	 1.037037e+00	 6.740741e+00	 9.772951e+00
0	 1.037037e+00	 6.814815e+00	 9.782547e+00
0	 1.037037e+00	 6.888889e+00	 9.791900e+00
0	 1.037037e+00	 6.962963e+00	 9.801011e+00
0	 1.037037e+00	 7.037037e+00	 9.809884e+00
0	 1.111111e+00	 6.666667e+00	 9.770807e+00
0	 1.111111e+00	 6.740741e+00	 9.780261e+00
0	 1.111111e+00	 6.814815e+00	 9.789483e+00
0	 1.111111e+00	 6.888889e+00	 9.798475e+00
0	 1.111111e+00	 6.962963e+00	 9.807238e+00
0	 1.111111e+00	 7.037037e+00	 9.815777e+00
0	 7.407407e-01	 7.037037e+00	 9.789532e+00
0	 7.407407e-01	 7.111111e+00	 9.799303e+00
0	 7.407407e-01	 7.185185e+00	 9.808815e+00
0	 7.407407e-01	 7.259259e+00	 9.818071e+00
0	 7.407407e-01	 7.333333e+00	 9.827072e+00
0	 7.407407e-01	 7.407407e+00	 9.835821e+00
0	 8.148148e-01	 7.037037e+00	 9.794074e+00
0	 8.148148e-01	 7.111111e+00	 9.803595e+00
0	 8.148148e-01	 7.185185e+00	 9.812868e+00
0	 8.148148e-01	 7.259259e+00	 9.821896e+00
0	 8.148148e-01	 7.333333e+00	 9.830681e+00
0	 8.148148e-01	 7.407407e+00	 9.839225e+00
0	 8.888889e-01	 7.037037e+00	 9.799001e+00
0	 8.888889e-01	 7.111111e+00	 9.808250e+00
0	 8.888889e-01	 7.185185e+00	 9.817263e+00
0	 8.888889e-01	 7.259259e+00	 9.826044e+00
0	 8.888889e-01	 7.333333e+00	 9.834595e+00
0	 8.888889e-01	 7.407407e+00	 9.842917e+00
0	 9.629630e-01	 7.037037e+00	 9.804282e+00
0	 9.629630e-01	 7.111111e+00	 9.813239e+00
0	 9.629630e-01	 7.185185e+00	 9.821975e+00
0	 9.629630e-01	 7.259259e+00	 9.830491e+00
0	 9.629630e-01	 7.333333e+00	 9.838791e+00
0	 9.629630e-01	 7.407407e+00	 9.846875e+00
0	 1.037037e+00	 7.037037e+00	 9.809884e+00
0	 1.037037e+00	 7.111111e+00	 9.818534e+00
0	 1.037037e+00	 7.185185e+00	 9.826976e+00
0	 1.037037e+00	 7.259259e+00	 9.835213e+00
0	 1.037037e+00	 7.333333e+00	 9.843246e+00
0	 1.037037e+00	 7.407407e+00	 9.851079e+00
0	 1.111111e+00	 7.037037e+00	 9.815777e+00
0	 1.111111e+00	 7.111111e+00	 9.824107e+00
0	 1.111111e+00	 7.185185e+00	 9.832242e+00
0	 1.111111e+00	 7.259259e+00	 9.840186e+00
0	 1.111111e+00	 7.333333e+00	 9.847940e+00
0	 1.111111e+00	 7.407407e+00	 9.855507e+00
0	 7.407407e-01	 7.407407e+00	 9.835821e+00
0	 7.407407e-01	 7.481481e+00	 9.844329e+00
0	 7.407407e-01	 7.555556e+00	 9.852609e+00
0	 7.407407e-01	 7.629630e+00	 9.860663e+00
0	 7.407407e-01	 7.703704e+00	 9.868493e+00
0	 7.407407e-01	 7.777778e+00	 9.876101e+00
0	 8.148148e-01	 7.407407e+00	 9.839225e+00
0	 8.148148e-01	 7.481481e+00	 9.847537e+00
0	 8.148148e-01	 7.555556e+00	 9.855628e+00
0	 8.148148e-01	 7.629630e+00	 9.863499e+00
0	 8.148148e-01	 7.703704e+00	 9.871153e+00
0	 8.148148e-01	 7.777778e+00	 9.878594e+00
0	 8.888889e-01	 7.407407e+00	 9.842917e+00
0	 8.888889e-01	 7.481481e+00	 9.851017e+00
0	 8.888889e-01	 7.555556e+00	 9.858902e+00
0	 8.888889e-01	 7.629630e+00	 9.866576e+00
0	 8.888889e-01	 7.703704e+00	 9.874041e+00
0	 8.888889e-01	 7.777778e+00	 9.881300e+00
0	 9.629630e-01	 7.407407e+00	 9.846875e+00
0	 9.629630e-01	 7.481481e+00	 9.854748e+00
0	 9.629630e-01	 7.555556e+00	 9.862414e+00
0	 9.629630e-01	 7.629630e+00	 9.869877e+00
0	 9.629630e-01	 7.703704e+00	 9.877139e+00
0	 9.629630e-01	 7.777778e+00	 9.884204e+00
0	 1.037037e+00	 7.407407e+00	 9.851079e+00
0	 1.037037e+00	 7.481481e+00	 9.858711e+00
0	 1.037037e+00	 7.555556e+00	 9.866145e+00
0	 1.037037e+00	 7.629630e+00	 9.873384e+00
0	 1.037037e+00	 7.703704e+00	 9.880431e+00
0	 1.037037e+00	 7.777778e+00	 9.887290e+00
0	 1.111111e+00	 7.407407e+00	 9.855507e+00
0	 1.111111e+00	 7.481481e+00	 9.862886e+00
0	 1.111111e+00	 7.555556e+00	 9.870075e+00
0	 1.111111e+00	 7.629630e+00	 9.877078e+00
0	 1.111111e+00	 7.703704e+00	 9.883900e+00
0	 1.111111e+00	 7.777778e+00	 9.890543e+00
0	 7.407407e-01	 7.777778e+00	 9.876101e+00
0	 7.407407e-01	 7.851852e+00	 9.883489e+00
0	 7.407407e-01	 7.925926e+00	 9.890660e+00
0	 7.407407e-01	 8.000000e+00	 9.897618e+00
0	 7.407407e-01	 8.074074e+00	 9.904368e+00
0	 7.407407e-01	 8.148148e+00	 9.910914e+00
0	 8.148148e-01	 7.777778e+00	 9.878594e+00
0	 8.148148e-01	 7.851852e+00	 9.885821e+00
0	 8.148148e-01	 7.925926e+00	 9.892838e+00
0	 8.148148e-01	 8.000000e+00	 9.899649e+00
0	 8.148148e-01	 8.074074e+00	 9.906257e+00
0	 8.148148e-01	 8.148148e+00	 9.912668e+00
0	 8.888889e-01	 7.777778e+00	 9.881300e+00
0	 8.888889e-01	 7.851852e+00	 9.888354e+00
0	 8.888889e-01	 7.925926e+00	 9.895203e+00
0	 8.888889e-01	 8.000000e+00	 9.901854e+00
0	 8.888889e-01	 8.074074e+00	 9.908309e+00
0	 8.888889e-01	 8.148148e+00	 9.914574e+00
0	 9.629630e-01	 7.777778e+00	 9.884204e+00
0	 9.629630e-01	 7.851852e+00	 9.891071e+00
0	 9.629630e-01	 7.925926e+00	 9.897743e+00
0	 9.629630e-01	 8.000000e+00	 9.904221e+00
0	 9.629630e-01	 8.074074e+00	 9.910512e+00
0	 9.629630e-01	 8.148148e+00	 9.916619e+00
0	 1.037037e+00	 7.777778e+00	 9.887290e+00
0	 1.037037e+00	 7.851852e+00	 9.893960e+00
0	 1.037037e+00	 7.925926e+00	 9.900442e+00
0	 1.037037e+00	 8.000000e+00	 9.906738e+00
0	 1.037037e+00	 8.074074e+00	 9.912854e+00
0	 1.037037e+00	 8.148148e+00	 9.918794e+00
0	 1.111111e+00	 7.777778e+00	 9.890543e+00
0	 1.111111e+00	 7.851852e+00	 9.897005e+00
0	 1.111111e+00	 7.925926e+00	 9.903287e+00
0	 1.111111e+00	 8.000000e+00	 9.909391e+00
0	 1.111111e+00	 8.074074e+00	 9.915323e+00
0	 1.111111e+00	 8.148148e+00	 9.921087e+00
0	 7.407407e-01	 8.148148e+00	 9.910914e+00
0	 7.407407e-01	 8.222222e+00	 9.917250e+00
0	 7.407407e-01	 8.296296e+00	 9.923371e+00
0	 7.407407e-01	 8.370370e+00	 9.929283e+00
0	 7.407407e-01	 8.444444e+00	 9.934991e+00
0	 7.407407e-01	 8.518519e+00	 9.940501e+00
0	 8.148148e-01	 8.148148e+00	 9.912668e+00
0	 8.148148e-01	 8.222222e+00	 9.918875e+00
0	 8.148148e-01	 8.296296e+00	 9.924871e+00
0	 8.148148e-01	 8.370370e+00	 9.930663e+00
0	 8.148148e-01	 8.444444e+00	 9.936256e+00
0	 8.148148e-01	 8.518519e+00	 9.941657e+00
0	 8.888889e-01	 8.148148e+00	 9.914574e+00
0	 8.888889e-01	 8.222222e+00	 9.920640e+00
0	 8.888889e-01	 8.296296e+00	 9.926501e+00
0	 8.888889e-01	 8.370370e+00	 9.932163e+00
0	 8.888889e-01	 8.444444e+00	 9.937632e+00
0	 8.888889e-01	 8.518519e+00	 9.942914e+00
0	 9.629630e-01	 8.148148e+00	 9.916619e+00
0	 9.629630e-01	 8.222222e+00	 9.922534e+00
0	 9.629630e-01	 8.296296e+00	 9.928251e+00
0	 9.629630e-01	 8.370370e+00	 9.933774e+00
0	 9.629630e-01	 8.444444e+00	 9.939110e+00
0	 9.629630e-01	 8.518519e+00	 9.944265e+00
0	 1.037037e+00	 8.148148e+00	 9.918794e+00
0	 1.037037e+00	 8.222222e+00	 9.924549e+00
0	 1.037037e+00	 8.296296e+00	 9.930111e+00
0	 1.037037e+00	 8.370370e+00	 9.935486e+00
0	 1.037037e+00	 8.444444e+00	 9.940681e+00
0	 1.037037e+00	 8.518519e+00	 9.945700e+00
0	 1.111111e+00	 8.148148e+00	 9.921087e+00
0	 1.111111e+00	 8.222222e+00	 9.926672e+00
0	 1.111111e+00	 8.296296e+00	 9.932072e+00
0	 1.111111e+00	 8.370370e+00	 9.937292e+00
0	 1.111111e+00	 8.444444e+00	 9.942337e+00
0	 1.111111e+00	 8.518519e+00	 9.947213e+00
0	 7.407407e-01	 8.518519e+00	 9.940501e+00
0	 7.407407e-01	 8.592593e+00	 9.945797e+00
0	 7.407407e-01	 8.666667e+00	 9.950867e+00
0	 7.407407e-01	 8.740741e+00	 9.955718e+00
0	 7.407407e-01	 8.814815e+00	 9.960358e+00
0	 7.407407e-01	 8.888889e+00	 9.964795e+00
0	 8.148148e-01	 8.518519e+00	 9.941657e+00
0	 8.148148e-01	 8.592593e+00	 9.946849e+00
0	 8.148148e-01	 8.666667e+00	 9.951819e+00
0	 8.148148e-01	 8.740741e+00	 9.956575e+00
0	 8.148148e-01	 8.814815e+00	 9.961124e+00
0	 8.148148e-01	 8.888889e+00	 9.965476e+00
0	 8.888889e-01	 8.518519e+00	 9.942914e+00
0	 8.888889e-01	 8.592593e+00	 9.947993e+00
0	 8.888889e-01	 8.666667e+00	 9.952855e+00
0	 8.888889e-01	 8.740741e+00	 9.957508e+00
0	 8.888889e-01	 8.814815e+00	 9.961959e+00
0	 8.888889e-01	 8.888889e+00	 9.966217e+00
0	 9.629630e-01	 8.518519e+00	 9.944265e+00
0	 9.629630e-01	 8.592593e+00	 9.949222e+00
0	 9.629630e-01	 8.666667e+00	 9.953968e+00
0	 9.629630e-01	 8.740741e+00	 9.958510e+00
0	 9.629630e-01	 8.814815e+00	 9.962856e+00
0	 9.629630e-01	 8.888889e+00	 9.967014e+00
0	 1.037037e+00	 8.518519e+00	 9.945700e+00
0	 1.037037e+00	 8.592593e+00	 9.950529e+00
0	 1.037037e+00	 8.666667e+00	 9.955151e+00
0	 1.037037e+00	 8.740741e+00	 9.959575e+00
0	 1.037037e+00	 8.814815e+00	 9.963809e+00
0	 1.037037e+00	 8.888889e+00	 9.967861e+00
0	 1.111111e+00	 8.518519e+00	 9.947213e+00
0	 1.111111e+00	 8.592593e+00	 9.951905e+00
0	 1.111111e+00	 8.666667e+00	 9.956397e+00
0	 1.111111e+00	 8.740741e+00	 9.960697e+00
0	 1.111111e+00	 8.814815e+00	 9.964813e+00
0	 1.111111e+00	 8.888889e+00	 9.968751e+00
0	 7.407407e-01	 8.888889e+00	 9.964795e+00
0	 7.407407e-01	 8.962963e+00	 9.969004e+00
0	 7.407407e-01	 9.037037e+00	 9.972959e+00
0	 7.407407e-01	 9.111111e+00	 9.976672e+00
0	 7.407407e-01	 9.185185e+00	 9.980154e+00
0	 7.407407e-01	 9.259259e+00	 9.983416e+00
0	 8.148148e-01	 8.888889e+00	 9.965476e+00
0	 8.148148e-01	 8.962963e+00	 9.969603e+00
0	 8.148148e-01	 9.037037e+00	 9.973482e+00
0	 8.148148e-01	 9.111111e+00	 9.977123e+00
0	 8.148148e-01	 9.185185e+00	 9.980538e+00
0	 8.148148e-01	 9.259259e+00	 9.983736e+00
0	 8.888889e-01	 8.888889e+00	 9.966217e+00
0	 8.888889e-01	 8.962963e+00	 9.970256e+00
0	 8.888889e-01	 9.037037e+00	 9.974052e+00
0	 8.888889e-01	 9.111111e+00	 9.977616e+00
0	 8.888889e-01	 9.185185e+00	 9.980957e+00
0	 8.888889e-01	 9.259259e+00	 9.984088e+00
0	 9.629630e-01	 8.888889e+00	 9.967014e+00
0	 9.629630e-01	 8.962963e+00	 9.970958e+00
0	 9.629630e-01	 9.037037e+00	 9.974665e+00
0	 9.629630e-01	 9.111111e+00	 9.978145e+00
0	 9.629630e-01	 9.185185e+00	 9.981409e+00
0	 9.629630e-01	 9.259259e+00	 9.984466e+00
0	 1.037037e+00	 8.888889e+00	 9.967861e+00
0	 1.037037e+00	 8.962963e+00	 9.971704e+00
0	 1.037037e+00	 9.037037e+00	 9.975316e+00
0	 1.037037e+00	 9.111111e+00	 9.978707e+00
0	 1.037037e+00	 9.185185e+00	 9.981887e+00
0	 1.037037e+00	 9.259259e+00	 9.984867e+00
0	 1.111111e+00	 8.888889e+00	 9.968751e+00
0	 1.111111e+00	 8.962963e+00	 9.972488e+00
0	 1.111111e+00	 9.037037e+00	 9.976000e+00
0	 1.111111e+00	 9.111111e+00	 9.979297e+00
0	 1.111111e+00	 9.185185e+00	 9.982389e+00
0	 1.111111e+00	 9.259259e+00	 9.985286e+00
0	 7.407407e-01	 9.259259e+00	 9.983416e+00
0	 7.407407e-01	 9.333333e+00	 9.986416e+00
0	 7.407407e-01	 9.407407e+00	 9.989117e+00
0	 7.407407e-01	 9.481481e+00	 9.991532e+00
0	 7.407407e-01	 9.555556e+00	 9.993678e+00
0	 7.407407e-01	 9.629630e+00	 9.995568e+00
0	 8.148148e-01	 9.259259e+00	 9.983736e+00
0	 8.148148e-01	 9.333333e+00	 9.986679e+00
0	 8.148148e-01	 9.407407e+00	 9.989327e+00
0	 8.148148e-01	 9.481481e+00	 9.991696e+00
0	 8.148148e-01	 9.555556e+00	 9.993799e+00
0	 8.148148e-01	 9.629630e+00	 9.995652e+00
0	 8.888889e-01	 9.259259e+00	 9.984088e+00
0	 8.888889e-01	 9.333333e+00	 9.986968e+00
0	 8.888889e-01	 9.407407e+00	 9.989559e+00
0	 8.888889e-01	 9.481481e+00	 9.991877e+00
0	 8.888889e-01	 9.555556e+00	 9.993936e+00
0	 8.888889e-01	 9.629630e+00	 9.995749e+00
0	 9.629630e-01	 9.259259e+00	 9.984466e+00
0	 9.629630e-01	 9.333333e+00	 9.987279e+00
0	 9.629630e-01	 9.407407e+00	 9.989810e+00
0	 9.629630e-01	 9.481481e+00	 9.992074e+00
0	 9.629630e-01	 9.555556e+00	 9.994084e+00
0	 9.629630e-01	 9.629630e+00	 9.995854e+00
0	 1.037037e+00	 9.259259e+00	 9.984867e+00
0	 1.037037e+00	 9.333333e+00	 9.987608e+00
0	 1.037037e+00	 9.407407e+00	 9.990075e+00
0	 1.037037e+00	 9.481481e+00	 9.992280e+00
0	 1.037037e+00	 9.555556e+00	 9.994239e+00
0	 1.037037e+00	 9.629630e+00	 9.995963e+00
0	 1.111111e+00	 9.259259e+00	 9.985286e+00
0	 1.111111e+00	 9.333333e+00	 9.987951e+00
0	 1.111111e+00	 9.407407e+00	 9.990349e+00
0	 1.111111e+00	 9.481481e+00	 9.992493e+00
0	 1.111111e+00	 9.555556e+00	 9.994397e+00
0	 1.111111e+00	 9.629630e+00	 9.996073e+00
0	 7.407407e-01	 9.629630e+00	 9.995568e+00
0	 7.407407e-01	 9.703704e+00	 9.997148e+00
0	 7.407407e-01	 9.777778e+00	 9.998366e+00
0	 7.407407e-01	 9.851852e+00	 9.999242e+00
0	 7.407407e-01	 9.925926e+00	 9.999795e+00
0	 7.407407e-01	 1.000000e+01	 1.000005e+01
0	 8.148148e-01	 9.629630e+00	 9.995652e+00
0	 8.148148e-01	 9.703704e+00	 9.997201e+00
0	 8.148148e-01	 9.777778e+00	 9.998395e+00
0	 8.148148e-01	 9.851852e+00	 9.999254e+00
0	 8.148148e-01	 9.925926e+00	 9.999796e+00
0	 8.148148e-01	 1.000000e+01	 1.000004e+01
0	 8.888889e-01	 9.629630e+00	 9.995749e+00
0	 8.888889e-01	 9.703704e+00	 9.997264e+00
0	 8.888889e-01	 9.777778e+00	 9.998433e+00
0	 8.888889e-01	 9.851852e+00	 9.999273e+00
0	 8.888889e-01	 9.925926e+00	 9.999803e+00
0	 8.888889e-01	 1.000000e+01	 1.000004e+01
0	 9.629630e-01	 9.629630e+00	 9.995854e+00
0	 9.629630e-01	 9.703704e+00	 9.997334e+00
0	 9.629630e-01	 9.777778e+00	 9.998475e+00
0	 9.629630e-01	 9.851852e+00	 9.999295e+00
0	 9.629630e-01	 9.925926e+00	 9.999813e+00
0	 9.629630e-01	 1.000000e+01	 1.000005e+01
0	 1.037037e+00	 9.629630e+00	 9.995963e+00
0	 1.037037e+00	 9.703704e+00	 9.997405e+00
0	 1.037037e+00	 9.777778e+00	 9.998516e+00
0	 1.037037e+00	 9.851852e+00	 9.999315e+00
0	 1.037037e+00	 9.925926e+00	 9.999820e+00
0	 1.037037e+00	 1.000000e+01	 1.000005e+01
0	 1.111111e+00	 9.629630e+00	 9.996073e+00
0	 1.111111e+00	 9.703704e+00	 9.997473e+00
0	 1.111111e+00	 9.777778e+00	 9.998553e+00
0	 1.111111e+00	 9.851852e+00	 9.999330e+00
0	 1.111111e+00	 9.925926e+00	 9.999819e+00
0	 1.111111e+00	 1.000000e+01	 1.000004e+01
0	 1.111111e+00	 0.000000e+00	-4.896469e+00
0	 1.111111e+00	 7.407407e-02	-4.461738e+00
0	 1.111111e+00	 1.481481e-01	-3.763206e+00
0	 1.111111e+00	 2.222222e-01	-2.728310e+00
0	 1.111111e+00	 2.962963e-01	-1.284486e+00
0	 1.111111e+00	 3.703704e-01	 6.408304e-01
0	 1.185185e+00	 0.000000e+00	-5.963277e+00
0	 1.185185e+00	 7.407407e-02	-5.628505e+00
0	 1.185185e+00	 1.481481e-01	-4.893748e+00
0	 1.185185e+00	 2.222222e-01	-3.713149e+00
0	 1.185185e+00	 2.962963e-01	-2.040850e+00
0	 1.185185e+00	 3.703704e-01	 1.690073e-01
0	 1.259259e+00	 0.000000e+00	-5.860063e+00
0	 1.259259e+00	 7.407407e-02	-5.584438e+00
0	 1.259259e+00	 1.481481e-01	-4.861646e+00
0	 1.259259e+00	 2.222222e-01	-3.668461e+00
0	 1.259259e+00	 2.962963e-01	-1.981656e+00
0	 1.259259e+00	 3.703704e-01	 2.219961e-01
0	 1.333333e+00	 0.000000e+00	-4.810903e+00
0	 1.333333e+00	 7.407407e-02	-4.568405e+00
0	 1.333333e+00	 1.481481e-01	-3.892765e+00
0	 1.333333e+00	 2.222222e-01	-2.779313e+00
0	 1.333333e+00	 2.962963e-01	-1.223381e+00
0	 1.333333e+00	 3.703704e-01	 7.797010e-01
0	 1.407407e+00	 0.000000e+00	-3.039878e+00
0	 1.407407e+00	 7.407407e-02	-2.819271e+00
0	 1.407407e+00	 1.481481e-01	-2.212965e+00
0	 1.407407e+00	 2.222222e-01	-1.230772e+00
0	 1.407407e+00	 2.962963e-01	 1.174964e-01
0	 1.407407e+00	 3.703704e-01	 1.822026e+00
0	 1.481481e+00	 0.000000e+00	-7.710633e-01
0	 1.481481e+00	 7.407407e-02	-5.759048e-01
0	 1.481481e+00	 1.481481e-01	-4.811070e-02
0	 1.481481e+00	 2.222222e-01	 7.920980e-01
0	 1.481481e+00	 2.962963e-01	 1.924500e+00
0	 1.481481e+00	 3.703704e-01	 3.328875e+00
0	 1.111111e+00	 3.703704e-01	 6.408304e-01
0	 1.111111e+00	 4.444444e-01	 2.945619e+00
0	 1.111111e+00	 5.185185e-01	 5.475669e+00
0	 1.111111e+00	 5.925926e-01	 8.225258e+00
0	 1.111111e+00	 6.666667e-01	 1.118866e+01
0	 1.111111e+00	 7.407407e-01	 1.436015e+01
0	 1.185185e+00	 3.703704e-01	 1.690073e-01
0	 1.185185e+00	 4.444444e-01	 2.721063e+00
0	 1.185185e+00	 5.185185e-01	 5.382516e+00
0	 1.185185e+00	 5.925926e-01	 8.143066e+00
0	 1.185185e+00	 6.666667e-01	 1.099241e+01
0	 1.185185e+00	 7.407407e-01	 1.392024e+01
0	 1.259259e+00	 3.703704e-01	 2.219961e-01
0	 1.259259e+00	 4.444444e-01	 2.734319e+00
0	 1.259259e+00	 5.185185e-01	 5.322377e+00
0	 1.259259e+00	 5.925926e-01	 7.972258e+00
0	 1.259259e+00	 6.666667e-01	 1.067005e+01
0	 1.259259e+00	 7.407407e-01	 1.340184e+01
0	 1.333333e+00	 3.703704e-01	 7.797010e-01
0	 1.333333e+00	 4.444444e-01	 3.058765e+00
0	 1.333333e+00	 5.185185e-01	 5.428495e+00
0	 1.333333e+00	 5.925926e-01	 7.872337e+00
0	 1.333333e+00	 6.666667e-01	 1.037374e+01
0	 1.333333e+00	 7.407407e-01	 1.291615e+01
0	 1.407407e+00	 3.703704e-01	 1.822026e+00
0	 1.407407e+00	 4.444444e-01	 3.767779e+00
0	 1.407407e+00	 5.185185e-01	 5.834113e+00
0	 1.407407e+00	 5.925926e-01	 8.002804e+00
0	 1.407407e+00	 6.666667e-01	 1.025563e+01
0	 1.407407e+00	 7.407407e-01	 1.257436e+01
0	 1.481481e+00	 3.703704e-01	 3.328875e+00
0	 1.481481e+00	 4.444444e-01	 4.934740e+00
0	 1.481481e+00	 5.185185e-01	 6.672476e+00
0	 1.481481e+00	 5.925926e-01	 8.523161e+00
0	 1.481481e+00	 6.666667e-01	 1.046787e+01
0	 1.481481e+00	 7.407407e-01	 1.248768e+01
0	 1.111111e+00	 7.407407e-01	 1.436015e+01
0	 1.111111e+00	 8.148148e-01	 1.745727e+01
0	 1.111111e+00	 8.888889e-01	 2.019693e+01
0	 1.111111e+00	 9.629630e-01	 2.257250e+01
0	 1.111111e+00	 1.037037e+00	 2.457735e+01
0	 1.111111e+00	 1.111111e+00	 2.620484e+01
0	 1.185185e+00	 7.407407e-01	 1.392024e+01
0	 1.185185e+00	 8.148148e-01	 1.669479e+01
0	 1.185185e+00	 8.888889e-01	 1.908076e+01
0	 1.185185e+00	 9.629630e-01	 2.106254e+01
0	 1.185185e+00	 1.037037e+00	 2.262455e+01
0	 1.185185e+00	 1.111111e+00	 2.375117e+01
0	 1.259259e+00	 7.407407e-01	 1.340184e+01
0	 1.259259e+00	 8.148148e-01	 1.593004e+01
0	 1.259259e+00	 8.888889e-01	 1.801221e+01
0	 1.259259e+00	 9.629630e-01	 1.962714e+01
0	 1.259259e+00	 1.037037e+00	 2.075364e+01
0	 1.259259e+00	 1.111111e+00	 2.137050e+01
0	 1.333333e+00	 7.407407e-01	 1.291615e+01
0	 1.333333e+00	 8.148148e-01	 1.522795e+01
0	 1.333333e+00	 8.888889e-01	 1.703294e+01
0	 1.333333e+00	 9.629630e-01	 1.830767e+01
0	 1.333333e+00	 1.037037e+00	 1.902873e+01
0	 1.333333e+00	 1.111111e+00	 1.917268e+01
0	 1.407407e+00	 7.407407e-01	 1.257436e+01
0	 1.407407e+00	 8.148148e-01	 1.465345e+01
0	 1.407407e+00	 8.888889e-01	 1.618461e+01
0	 1.407407e+00	 9.629630e-01	 1.714555e+01
0	 1.407407e+00	 1.037037e+00	 1.751396e+01
0	 1.407407e+00	 1.111111e+00	 1.726755e+01
0	 1.481481e+00	 7.407407e-01	 1.248768e+01
0	 1.481481e+00	 8.148148e-01	 1.427148e+01
0	 1.481481e+00	 8.888889e-01	 1.550891e+01
0	 1.481481e+00	 9.629630e-01	 1.618216e+01
0	 1.481481e+00	 1.037037e+00	 1.627345e+01
0	 1.481481e+00	 1.111111e+00	 1.576497e+01
0	 1.111111e+00	 1.111111e+00	 2.620484e+01
0	 1.111111e+00	 1.185185e+00	 2.710248e+01
0	 1.111111e+00	 1.259259e+00	 2.691405e+01
0	 1.111111e+00	 1.333333e+00	 2.562740e+01
0	 1.111111e+00	 1.407407e+00	 2.323036e+01
0	 1.111111e+00	 1.481481e+00	 1.971079e+01
0	 1.185185e+00	 1.111111e+00	 2.375117e+01
0	 1.185185e+00	 1.185185e+00	 2.421466e+01
0	 1.185185e+00	 1.259259e+00	 2.379911e+01
0	 1.185185e+00	 1.333333e+00	 2.250671e+01
0	 1.185185e+00	 1.407407e+00	 2.033963e+01
0	 1.185185e+00	 1.481481e+00	 1.730007e+01
0	 1.259259e+00	 1.111111e+00	 2.137050e+01
0	 1.259259e+00	 1.185185e+00	 2.140440e+01
0	 1.259259e+00	 1.259259e+00	 2.080450e+01
0	 1.259259e+00	 1.333333e+00	 1.958334e+01
0	 1.259259e+00	 1.407407e+00	 1.775346e+01
0	 1.259259e+00	 1.481481e+00	 1.532742e+01
0	 1.333333e+00	 1.111111e+00	 1.917268e+01
0	 1.333333e+00	 1.185185e+00	 1.882287e+01
0	 1.333333e+00	 1.259259e+00	 1.809088e+01
0	 1.333333e+00	 1.333333e+00	 1.699565e+01
0	 1.333333e+00	 1.407407e+00	 1.555607e+01
0	 1.333333e+00	 1.481481e+00	 1.379109e+01
0	 1.407407e+00	 1.111111e+00	 1.726755e+01
0	 1.407407e+00	 1.185185e+00	 1.662121e+01
0	 1.407407e+00	 1.259259e+00	 1.581891e+01
0	 1.407407e+00	 1.333333e+00	 1.488196e+01
0	 1.407407e+00	 1.407407e+00	 1.383166e+01
0	 1.407407e+00	 1.481481e+00	 1.268933e+01
0	 1.481481e+00	 1.111111e+00	 1.576497e+01
0	 1.481481e+00	 1.185185e+00	 1.495061e+01
0	 1.481481e+00	 1.259259e+00	 1.414925e+01
0	 1.481481e+00	 1.333333e+00	 1.338063e+01
0	 1.481481e+00	 1.407407e+00	 1.266444e+01
0	 1.481481e+00	 1.481481e+00	 1.202041e+01
0	 1.111111e+00	 1.481481e+00	 1.971079e+01
0	 1.111111e+00	 1.555556e+00	 1.602491e+01
0	 1.111111e+00	 1.629630e+00	 1.314090e+01
0	 1.111111e+00	 1.703704e+00	 1.106444e+01
0	 1.111111e+00	 1.777778e+00	 9.801256e+00
0	 1.111111e+00	 1.851852e+00	 9.357037e+00
0	 1.185185e+00	 1.481481e+00	 1.730007e+01
0	 1.185185e+00	 1.555556e+00	 1.420446e+01
0	 1.185185e+00	 1.629630e+00	 1.186610e+01
0	 1.185185e+00	 1.703704e+00	 1.028245e+01
0	 1.185185e+00	 1.777778e+00	 9.450966e+00
0	 1.185185e+00	 1.851852e+00	 9.369105e+00
0	 1.259259e+00	 1.481481e+00	 1.532742e+01
0	 1.259259e+00	 1.555556e+00	 1.292713e+01
0	 1.259259e+00	 1.629630e+00	 1.116109e+01
0	 1.259259e+00	 1.703704e+00	 1.002171e+01
0	 1.259259e+00	 1.777778e+00	 9.501380e+00
0	 1.259259e+00	 1.851852e+00	 9.592507e+00
0	 1.333333e+00	 1.481481e+00	 1.379109e+01
0	 1.333333e+00	 1.555556e+00	 1.210632e+01
0	 1.333333e+00	 1.629630e+00	 1.088849e+01
0	 1.333333e+00	 1.703704e+00	 1.012811e+01
0	 1.333333e+00	 1.777778e+00	 9.815715e+00
0	 1.333333e+00	 1.851852e+00	 9.941822e+00
0	 1.407407e+00	 1.481481e+00	 1.268933e+01
0	 1.407407e+00	 1.555556e+00	 1.165547e+01
0	 1.407407e+00	 1.629630e+00	 1.091094e+01
0	 1.407407e+00	 1.703704e+00	 1.044757e+01
0	 1.407407e+00	 1.777778e+00	 1.025719e+01
0	 1.407407e+00	 1.851852e+00	 1.033163e+01
0	 1.481481e+00	 1.481481e+00	 1.202041e+01
0	 1.481481e+00	 1.555556e+00	 1.148800e+01
0	 1.481481e+00	 1.629630e+00	 1.109108e+01
0	 1.481481e+00	 1.703704e+00	 1.082597e+01
0	 1.481481e+00	 1.777778e+00	 1.068901e+01
0	 1.481481e+00	 1.851852e+00	 1.067651e+01
0	 1.111111e+00	 1.851852e+00	 9.357037e+00
0	 1.111111e+00	 1.925926e+00	 9.318529e+00
0	 1.111111e+00	 2.000000e+00	 9.270897e+00
0	 1.111111e+00	 2.074074e+00	 9.217473e+00
0	 1.111111e+00	 2.148148e+00	 9.161591e+00
0	 1.111111e+00	 2.222222e+00	 9.106584e+00
0	 1.185185e+00	 1.851852e+00	 9.369105e+00
0	 1.185185e+00	 1.925926e+00	 9.598433e+00
0	 1.185185e+00	 2.000000e+00	 9.710169e+00
0	 1.185185e+00	 2.074074e+00	 9.716261e+00
0	 1.185185e+00	 2.148148e+00	 9.628657e+00
0	 1.185185e+00	 2.222222e+00	 9.459304e+00
0	 1.259259e+00	 1.851852e+00	 9.592507e+00
0	 1.259259e+00	 1.925926e+00	 9.902277e+00
0	 1.259259e+00	 2.000000e+00	 1.005406e+01
0	 1.259259e+00	 2.074074e+00	 1.006454e+01
0	 1.259259e+00	 2.148148e+00	 9.950401e+00
0	 1.259259e+00	 2.222222e+00	 9.728310e+00
0	 1.333333e+00	 1.851852e+00	 9.941822e+00
0	 1.333333e+00	 1.925926e+00	 1.020370e+01
0	 1.333333e+00	 2.000000e+00	 1.031663e+01
0	 1.333333e+00	 2.074074e+00	 1.029813e+01
0	 1.333333e+00	 2.148148e+00	 1.016573e+01
0	 1.333333e+00	 2.222222e+00	 9.936954e+00
0	 1.407407e+00	 1.851852e+00	 1.033163e+01
0	 1.407407e+00	 1.925926e+00	 1.047635e+01
0	 1.407407e+00	 2.000000e+00	 1.051191e+01
0	 1.407407e+00	 2.074074e+00	 1.045281e+01
0	 1.407407e+00	 2.148148e+00	 1.031354e+01
0	 1.407407e+00	 2.222222e+00	 1.010859e+01
0	 1.481481e+00	 1.851852e+00	 1.067651e+01
0	 1.481481e+00	 1.925926e+00	 1.069386e+01
0	 1.481481e+00	 2.000000e+00	 1.065397e+01
0	 1.481481e+00	 2.074074e+00	 1.056441e+01
0	 1.481481e+00	 2.148148e+00	 1.043275e+01
0	 1.481481e+00	 2.222222e+00	 1.026657e+01
0	 1.111111e+00	 2.222222e+00	 9.106584e+00
0	 1.111111e+00	 2.296296e+00	 9.060689e+00
0	 1.111111e+00	 2.370370e+00	 9.028180e+00
0	 1.111111e+00	 2.444444e+00	 9.006444e+00
0	 1.111111e+00	 2.518519e+00	 8.992872e+00
0	 1.111111e+00	 2.592593e+00	 8.984850e+00
0	 1.185185e+00	 2.222222e+00	 9.459304e+00
0	 1.185185e+00	 2.296296e+00	 9.287971e+00
0	 1.185185e+00	 2.370370e+00	 9.179984e+00
0	 1.185185e+00	 2.444444e+00	 9.125621e+00
0	 1.185185e+00	 2.518519e+00	 9.115161e+00
0	 1.185185e+00	 2.592593e+00	 9.138884e+00
0	 1.259259e+00	 2.222222e+00	 9.728310e+00
0	 1.259259e+00	 2.296296e+00	 9.504368e+00
0	 1.259259e+00	 2.370370e+00	 9.364372e+00
0	 1.259259e+00	 2.444444e+00	 9.294553e+00
0	 1.259259e+00	 2.518519e+00	 9.281143e+00
0	 1.259259e+00	 2.592593e+00	 9.310372e+00
0	 1.333333e+00	 2.222222e+00	 9.936954e+00
0	 1.333333e+00	 2.296296e+00	 9.711921e+00
0	 1.333333e+00	 2.370370e+00	 9.569217e+00
0	 1.333333e+00	 2.444444e+00	 9.494087e+00
0	 1.333333e+00	 2.518519e+00	 9.471775e+00
0	 1.333333e+00	 2.592593e+00	 9.487524e+00
0	 1.407407e+00	 2.222222e+00	 1.010859e+01
0	 1.407407e+00	 2.296296e+00	 9.912676e+00
0	 1.407407e+00	 2.370370e+00	 9.782396e+00
0	 1.407407e+00	 2.444444e+00	 9.705070e+00
0	 1.407407e+00	 2.518519e+00	 9.668014e+00
0	 1.407407e+00	 2.592593e+00	 9.658548e+00
0	 1.481481e+00	 2.222222e+00	 1.026657e+01
0	 1.481481e+00	 2.296296e+00	 1.010868e+01
0	 1.481481e+00	 2.370370e+00	 9.991783e+00
0	 1.481481e+00	 2.444444e+00	 9.908347e+00
0	 1.481481e+00	 2.518519e+00	 9.850820e+00
0	 1.481481e+00	 2.592593e+00	 9.811654e+00
0	 1.111111e+00	 2.592593e+00	 8.984850e+00
0	 1.111111e+00	 2.666667e+00	 8.977507e+00
0	 1.111111e+00	 2.740741e+00	 8.969729e+00
0	 1.111111e+00	 2.814815e+00	 8.964542e+00
0	 1.111111e+00	 2.888889e+00	 8.964970e+00
0	 1.111111e+00	 2.962963e+00	 8.974038e+00
0	 1.185185e+00	 2.592593e+00	 9.138884e+00
0	 1.185185e+00	 2.666667e+00	 9.163097e+00
0	 1.185185e+00	 2.740741e+00	 9.165568e+00
0	 1.185185e+00	 2.814815e+00	 9.153771e+00
0	 1.185185e+00	 2.888889e+00	 9.135175e+00
0	 1.185185e+00	 2.962963e+00	 9.117254e+00
0	 1.259259e+00	 2.592593e+00	 9.310372e+00
0	 1.259259e+00	 2.666667e+00	 9.338093e+00
0	 1.259259e+00	 2.740741e+00	 9.335948e+00
0	 1.259259e+00	 2.814815e+00	 9.313856e+00
0	 1.259259e+00	 2.888889e+00	 9.281737e+00
0	 1.259259e+00	 2.962963e+00	 9.249509e+00
0	 1.333333e+00	 2.592593e+00	 9.487524e+00
0	 1.333333e+00	 2.666667e+00	 9.499978e+00
0	 1.333333e+00	 2.740741e+00	 9.484530e+00
0	 1.333333e+00	 2.814815e+00	 9.451545e+00
0	 1.333333e+00	 2.888889e+00	 9.411391e+00
0	 1.333333e+00	 2.962963e+00	 9.374434e+00
0	 1.407407e+00	 2.592593e+00	 9.658548e+00
0	 1.407407e+00	 2.666667e+00	 9.646237e+00
0	 1.407407e+00	 2.740741e+00	 9.614977e+00
0	 1.407407e+00	 2.814815e+00	 9.573584e+00
0	 1.407407e+00	 2.888889e+00	 9.530874e+00
0	 1.407407e+00	 2.962963e+00	 9.495661e+00
0	 1.481481e+00	 2.592593e+00	 9.811654e+00
0	 1.481481e+00	 2.666667e+00	 9.774351e+00
0	 1.481481e+00	 2.740741e+00	 9.730952e+00
0	 1.481481e+00	 2.814815e+00	 9.686721e+00
0	 1.481481e+00	 2.888889e+00	 9.646923e+00
0	 1.481481e+00	 2.962963e+00	 9.616820e+00
0	 1.111111e+00	 2.962963e+00	 8.974038e+00
0	 1.111111e+00	 3.037037e+00	 8.990243e+00
0	 1.111111e+00	 3.111111e+00	 9.008890e+00
0	 1.111111e+00	 3.185185e+00	 9.028210e+00
0	 1.111111e+00	 3.259259e+00	 9.046437e+00
0	 1.111111e+00	 3.333333e+00	 9.061804e+00
0	 1.185185e+00	 2.962963e+00	 9.117254e+00
0	 1.185185e+00	 3.037037e+00	 9.109718e+00
0	 1.185185e+00	 3.111111e+00	 9.114450e+00
0	 1.185185e+00	 3.185185e+00	 9.127179e+00
0	 1.185185e+00	 3.259259e+00	 9.143633e+00
0	 1.185185e+00	 3.333333e+00	 9.159540e+00
0	 1.259259e+00	 2.962963e+00	 9.249509e+00
0	 1.259259e+00	 3.037037e+00	 9.230494e+00
0	 1.259259e+00	 3.111111e+00	 9.227651e+00
0	 1.259259e+00	 3.185185e+00	 9.235353e+00
0	 1.259259e+00	 3.259259e+00	 9.247975e+00
0	 1.259259e+00	 3.333333e+00	 9.259891e+00
0	 1.333333e+00	 2.962963e+00	 9.374434e+00
0	 1.333333e+00	 3.037037e+00	 9.352213e+00
0	 1.333333e+00	 3.111111e+00	 9.345465e+00
0	 1.333333e+00	 3.185185e+00	 9.348363e+00
0	 1.333333e+00	 3.259259e+00	 9.355075e+00
0	 1.333333e+00	 3.333333e+00	 9.359774e+00
0	 1.407407e+00	 2.962963e+00	 9.495661e+00
0	 1.407407e+00	 3.037037e+00	 9.474513e+00
0	 1.407407e+00	 3.111111e+00	 9.464866e+00
0	 1.407407e+00	 3.185185e+00	 9.461837e+00
0	 1.407407e+00	 3.259259e+00	 9.460543e+00
0	 1.407407e+00	 3.333333e+00	 9.456101e+00
0	 1.481481e+00	 2.962963e+00	 9.616820e+00
0	 1.481481e+00	 3.037037e+00	 9.597037e+00
0	 1.481481e+00	 3.111111e+00	 9.582827e+00
0	 1.481481e+00	 3.185185e+00	 9.571406e+00
0	 1.481481e+00	 3.259259e+00	 9.559988e+00
0	 1.481481e+00	 3.333333e+00	 9.545788e+00
0	 1.111111e+00	 3.333333e+00	 9.061804e+00
0	 1.111111e+00	 3.407407e+00	 9.074984e+00
0	 1.111111e+00	 3.481481e+00	 9.088706e+00
0	 1.111111e+00	 3.555556e+00	 9.104288e+00
0	 1.111111e+00	 3.629630e+00	 9.123048e+00
0	 1.111111e+00	 3.703704e+00	 9.146303e+00
0	 1.185185e+00	 3.333333e+00	 9.159540e+00
0	 1.185185e+00	 3.407407e+00	 9.171466e+00
0	 1.185185e+00	 3.481481e+00	 9.180564e+00
0	 1.185185e+00	 3.555556e+00	 9.189441e+00
0	 1.185185e+00	 3.629630e+00	 9.200703e+00
0	 1.185185e+00	 3.703704e+00	 9.216958e+00
0	 1.259259e+00	 3.333333e+00	 9.259891e+00
0	 1.259259e+00	 3.407407e+00	 9.266577e+00
0	 1.259259e+00	 3.481481e+00	 9.269447e+00
0	 1.259259e+00	 3.555556e+00	 9.271784e+00
0	 1.259259e+00	 3.629630e+00	 9.276870e+00
0	 1.259259e+00	 3.703704e+00	 9.287989e+00
0	 1.333333e+00	 3.333333e+00	 9.359774e+00
0	 1.333333e+00	 3.407407e+00	 9.358934e+00
0	 1.333333e+00	 3.481481e+00	 9.355148e+00
0	 1.333333e+00	 3.555556e+00	 9.351760e+00
0	 1.333333e+00	 3.629630e+00	 9.352113e+00
0	 1.333333e+00	 3.703704e+00	 9.359552e+00
0	 1.407407e+00	 3.333333e+00	 9.456101e+00
0	 1.407407e+00	 3.407407e+00	 9.447154e+00
0	 1.407407e+00	 3.481481e+00	 9.437459e+00
0	 1.407407e+00	 3.555556e+00	 9.429808e+00
0	 1.407407e+00	 3.629630e+00	 9.426993e+00
0	 1.407407e+00	 3.703704e+00	 9.431806e+00
0	 1.481481e+00	 3.333333e+00	 9.545788e+00
0	 1.481481e+00	 3.407407e+00	 9.529854e+00
0	 1.481481e+00	 3.481481e+00	 9.516173e+00
0	 1.481481e+00	 3.555556e+00	 9.506371e+00
0	 1.481481e+00	 3.629630e+00	 9.502074e+00
0	 1.481481e+00	 3.703704e+00	 9.504908e+00
0	 1.111111e+00	 3.703704e+00	 9.146303e+00
0	 1.111111e+00	 3.777778e+00	 9.171961e+00
0	 1.111111e+00	 3.851852e+00	 9.196666e+00
0	 1.111111e+00	 3.925926e+00	 9.219837e+00
0	 1.111111e+00	 4.000000e+00	 9.240893e+00
0	 1.111111e+00	 4.074074e+00	 9.259255e+00
0	 1.185185e+00	 3.703704e+00	 9.216958e+00
0	 1.185185e+00	 3.777778e+00	 9.237314e+00
0	 1.185185e+00	 3.851852e+00	 9.258344e+00
0	 1.185185e+00	 3.925926e+00	 9.278855e+00
0	 1.185185e+00	 4.000000e+00	 9.297651e+00
0	 1.185185e+00	 4.074074e+00	 9.313539e+00
0	 1.259259e+00	 3.703704e+00	 9.287989e+00
0	 1.259259e+00	 3.777778e+00	 9.304406e+00
0	 1.259259e+00	 3.851852e+00	 9.322197e+00
0	 1.259259e+00	 3.925926e+00	 9.339855e+00
0	 1.259259e+00	 4.000000e+00	 9.355873e+00
0	 1.259259e+00	 4.074074e+00	 9.368744e+00
0	 1.333333e+00	 3.703704e+00	 9.359552e+00
0	 1.333333e+00	 3.777778e+00	 9.372821e+00
0	 1.333333e+00	 3.851852e+00	 9.387421e+00
0	 1.333333e+00	 3.925926e+00	 9.401836e+00
0	 1.333333e+00	 4.000000e+00	 9.414547e+00
0	 1.333333e+00	 4.074074e+00	 9.424038e+00
0	 1.407407e+00	 3.703704e+00	 9.431806e+00
0	 1.407407e+00	 3.777778e+00	 9.442141e+00
0	 1.407407e+00	 3.851852e+00	 9.453213e+00
0	 1.407407e+00	 3.925926e+00	 9.463796e+00
0	 1.407407e+00	 4.000000e+00	 9.472664e+00
0	 1.407407e+00	 4.074074e+00	 9.478589e+00
0	 1.481481e+00	 3.703704e+00	 9.504908e+00
0	 1.481481e+00	 3.777778e+00	 9.511949e+00
0	 1.481481e+00	 3.851852e+00	 9.518769e+00
0	 1.481481e+00	 3.925926e+00	 9.524735e+00
0	 1.481481e+00	 4.000000e+00	 9.529212e+00
0	 1.481481e+00	 4.074074e+00	 9.531565e+00
0	 1.111111e+00	 4.074074e+00	 9.259255e+00
0	 1.111111e+00	 4.148148e+00	 9.276152e+00
0	 1.111111e+00	 4.222222e+00	 9.293442e+00
0	 1.111111e+00	 4.296296e+00	 9.311486e+00
0	 1.111111e+00	 4.370370e+00	 9.330643e+00
0	 1.111111e+00	 4.444444e+00	 9.351274e+00
0	 1.185185e+00	 4.074074e+00	 9.313539e+00
0	 1.185185e+00	 4.148148e+00	 9.327406e+00
0	 1.185185e+00	 4.222222e+00	 9.341366e+00
0	 1.185185e+00	 4.296296e+00	 9.356066e+00
0	 1.185185e+00	 4.370370e+00	 9.372154e+00
0	 1.185185e+00	 4.444444e+00	 9.390277e+00
0	 1.259259e+00	 4.074074e+00	 9.368744e+00
0	 1.259259e+00	 4.148148e+00	 9.379327e+00
0	 1.259259e+00	 4.222222e+00	 9.390009e+00
0	 1.259259e+00	 4.296296e+00	 9.401583e+00
0	 1.259259e+00	 4.370370e+00	 9.414840e+00
0	 1.259259e+00	 4.444444e+00	 9.430573e+00
0	 1.333333e+00	 4.074074e+00	 9.424038e+00
0	 1.333333e+00	 4.148148e+00	 9.431325e+00
0	 1.333333e+00	 4.222222e+00	 9.438962e+00
0	 1.333333e+00	 4.296296e+00	 9.447745e+00
0	 1.333333e+00	 4.370370e+00	 9.458467e+00
0	 1.333333e+00	 4.444444e+00	 9.471921e+00
0	 1.407407e+00	 4.074074e+00	 9.478589e+00
0	 1.407407e+00	 4.148148e+00	 9.482810e+00
0	 1.407407e+00	 4.222222e+00	 9.487816e+00
0	 1.407407e+00	 4.296296e+00	 9.494261e+00
0	 1.407407e+00	 4.370370e+00	 9.502798e+00
0	 1.407407e+00	 4.444444e+00	 9.514080e+00
0	 1.481481e+00	 4.074074e+00	 9.531565e+00
0	 1.481481e+00	 4.148148e+00	 9.533192e+00
0	 1.481481e+00	 4.222222e+00	 9.536161e+00
0	 1.481481e+00	 4.296296e+00	 9.540840e+00
0	 1.481481e+00	 4.370370e+00	 9.547599e+00
0	 1.481481e+00	 4.444444e+00	 9.556807e+00
0	 1.111111e+00	 4.444444e+00	 9.351274e+00
0	 1.111111e+00	 4.518519e+00	 9.372334e+00
0	 1.111111e+00	 4.592593e+00	 9.392451e+00
0	 1.111111e+00	 4.666667e+00	 9.411500e+00
0	 1.111111e+00	 4.740741e+00	 9.429353e+00
0	 1.111111e+00	 4.814815e+00	 9.445883e+00
0	 1.185185e+00	 4.444444e+00	 9.390277e+00
0	 1.185185e+00	 4.518519e+00	 9.409368e+00
0	 1.185185e+00	 4.592593e+00	 9.427766e+00
0	 1.185185e+00	 4.666667e+00	 9.445225e+00
0	 1.185185e+00	 4.740741e+00	 9.461499e+00
0	 1.185185e+00	 4.814815e+00	 9.476342e+00
0	 1.259259e+00	 4.444444e+00	 9.430573e+00
0	 1.259259e+00	 4.518519e+00	 9.447642e+00
0	 1.259259e+00	 4.592593e+00	 9.464179e+00
0	 1.259259e+00	 4.666667e+00	 9.479883e+00
0	 1.259259e+00	 4.740741e+00	 9.494451e+00
0	 1.259259e+00	 4.814815e+00	 9.507581e+00
0	 1.333333e+00	 4.444444e+00	 9.471921e+00
0	 1.333333e+00	 4.518519e+00	 9.486883e+00
0	 1.333333e+00	 4.592593e+00	 9.501399e+00
0	 1.333333e+00	 4.666667e+00	 9.515175e+00
0	 1.333333e+00	 4.740741e+00	 9.527915e+00
0	 1.333333e+00	 4.814815e+00	 9.539322e+00
0	 1.407407e+00	 4.444444e+00	 9.514080e+00
0	 1.407407e+00	 4.518519e+00	 9.526817e+00
0	 1.407407e+00	 4.592593e+00	 9.539133e+00
0	 1.407407e+00	 4.666667e+00	 9.550801e+00
0	 1.407407e+00	 4.740741e+00	 9.561595e+00
0	 1.407407e+00	 4.814815e+00	 9.571286e+00
0	 1.481481e+00	 4.444444e+00	 9.556807e+00
0	 1.481481e+00	 4.518519e+00	 9.567171e+00
0	 1.481481e+00	 4.592593e+00	 9.577088e+00
0	 1.481481e+00	 4.666667e+00	 9.586462e+00
0	 1.481481e+00	 4.740741e+00	 9.595196e+00
0	 1.481481e+00	 4.814815e+00	 9.603194e+00
0	 1.111111e+00	 4.814815e+00	 9.445883e+00
0	 1.111111e+00	 4.888889e+00	 9.461665e+00
0	 1.111111e+00	 4.962963e+00	 9.477407e+00
0	 1.111111e+00	 5.037037e+00	 9.493186e+00
0	 1.111111e+00	 5.111111e+00	 9.509077e+00
0	 1.111111e+00	 5.185185e+00	 9.525155e+00
0	 1.185185e+00	 4.814815e+00	 9.476342e+00
0	 1.185185e+00	 4.888889e+00	 9.490354e+00
0	 1.185185e+00	 4.962963e+00	 9.504383e+00
0	 1.185185e+00	 5.037037e+00	 9.518558e+00
0	 1.185185e+00	 5.111111e+00	 9.533006e+00
0	 1.185185e+00	 5.185185e+00	 9.547855e+00
0	 1.259259e+00	 4.814815e+00	 9.507581e+00
0	 1.259259e+00	 4.888889e+00	 9.519883e+00
0	 1.259259e+00	 4.962963e+00	 9.532271e+00
0	 1.259259e+00	 5.037037e+00	 9.544898e+00
0	 1.259259e+00	 5.111111e+00	 9.557917e+00
0	 1.259259e+00	 5.185185e+00	 9.571484e+00
0	 1.333333e+00	 4.814815e+00	 9.539322e+00
0	 1.333333e+00	 4.888889e+00	 9.549996e+00
0	 1.333333e+00	 4.962963e+00	 9.560835e+00
0	 1.333333e+00	 5.037037e+00	 9.571991e+00
0	 1.333333e+00	 5.111111e+00	 9.583618e+00
0	 1.333333e+00	 5.185185e+00	 9.595869e+00
0	 1.407407e+00	 4.814815e+00	 9.571286e+00
0	 1.407407e+00	 4.888889e+00	 9.580436e+00
0	 1.407407e+00	 4.962963e+00	 9.589841e+00
0	 1.407407e+00	 5.037037e+00	 9.599625e+00
0	 1.407407e+00	 5.111111e+00	 9.609915e+00
0	 1.407407e+00	 5.185185e+00	 9.620837e+00
0	 1.481481e+00	 4.814815e+00	 9.603194e+00
0	 1.481481e+00	 4.888889e+00	 9.610947e+00
0	 1.481481e+00	 4.962963e+00	 9.619053e+00
0	 1.481481e+00	 5.037037e+00	 9.627585e+00
0	 1.481481e+00	 5.111111e+00	 9.636615e+00
0	 1.481481e+00	 5.185185e+00	 9.646215e+00
0	 1.111111e+00	 5.185185e+00	 9.525155e+00
0	 1.111111e+00	 5.259259e+00	 9.541078e+00
0	 1.111111e+00	 5.333333e+00	 9.556442e+00
0	 1.111111e+00	 5.407407e+00	 9.571228e+00
0	 1.111111e+00	 5.481481e+00	 9.585420e+00
0	 1.111111e+00	 5.555556e+00	 9.598998e+00
0	 1.185185e+00	 5.185185e+00	 9.547855e+00
0	 1.185185e+00	 5.259259e+00	 9.562706e+00
0	 1.185185e+00	 5.333333e+00	 9.577050e+00
0	 1.185185e+00	 5.407407e+00	 9.590854e+00
0	 1.185185e+00	 5.481481e+00	 9.604081e+00
0	 1.185185e+00	 5.555556e+00	 9.616696e+00
0	 1.259259e+00	 5.185185e+00	 9.571484e+00
0	 1.259259e+00	 5.259259e+00	 9.585166e+00
0	 1.259259e+00	 5.333333e+00	 9.598403e+00
0	 1.259259e+00	 5.407407e+00	 9.611153e+00
0	 1.259259e+00	 5.481481e+00	 9.623374e+00
0	 1.259259e+00	 5.555556e+00	 9.635022e+00
0	 1.333333e+00	 5.185185e+00	 9.595869e+00
0	 1.333333e+00	 5.259259e+00	 9.608305e+00
0	 1.333333e+00	 5.333333e+00	 9.620360e+00
0	 1.333333e+00	 5.407407e+00	 9.631996e+00
0	 1.333333e+00	 5.481481e+00	 9.643174e+00
0	 1.333333e+00	 5.555556e+00	 9.653854e+00
0	 1.407407e+00	 5.185185e+00	 9.620837e+00
0	 1.407407e+00	 5.259259e+00	 9.631966e+00
0	 1.407407e+00	 5.333333e+00	 9.642780e+00
0	 1.407407e+00	 5.407407e+00	 9.653252e+00
0	 1.407407e+00	 5.481481e+00	 9.663357e+00
0	 1.407407e+00	 5.555556e+00	 9.673069e+00
0	 1.481481e+00	 5.185185e+00	 9.646215e+00
0	 1.481481e+00	 5.259259e+00	 9.655996e+00
0	 1.481481e+00	 5.333333e+00	 9.665522e+00
0	 1.481481e+00	 5.407407e+00	 9.674790e+00
0	 1.481481e+00	 5.481481e+00	 9.683798e+00
0	 1.481481e+00	 5.555556e+00	 9.692544e+00
0	 1.111111e+00	 5.555556e+00	 9.598998e+00
0	 1.111111e+00	 5.629630e+00	 9.612156e+00
0	 1.111111e+00	 5.703704e+00	 9.625108e+00
0	 1.111111e+00	 5.777778e+00	 9.637866e+00
0	 1.111111e+00	 5.851852e+00	 9.650442e+00
0	 1.111111e+00	 5.925926e+00	 9.662850e+00
0	 1.185185e+00	 5.555556e+00	 9.616696e+00
0	 1.185185e+00	 5.629630e+00	 9.628908e+00
0	 1.185185e+00	 5.703704e+00	 9.640962e+00
0	 1.185185e+00	 5.777778e+00	 9.652879e+00
0	 1.185185e+00	 5.851852e+00	 9.664680e+00
0	 1.185185e+00	 5.925926e+00	 9.676384e+00
0	 1.259259e+00	 5.555556e+00	 9.635022e+00
0	 1.259259e+00	 5.629630e+00	 9.646304e+00
0	 1.259259e+00	 5.703704e+00	 9.657470e+00
0	 1.259259e+00	 5.777778e+00	 9.668543e+00
0	 1.259259e+00	 5.851852e+00	 9.679549e+00
0	 1.259259e+00	 5.925926e+00	 9.690513e+00
0	 1.333333e+00	 5.555556e+00	 9.653854e+00
0	 1.333333e+00	 5.629630e+00	 9.664224e+00
0	 1.333333e+00	 5.703704e+00	 9.674512e+00
0	 1.333333e+00	 5.777778e+00	 9.684745e+00
0	 1.333333e+00	 5.851852e+00	 9.694946e+00
0	 1.333333e+00	 5.925926e+00	 9.705142e+00
0	 1.407407e+00	 5.555556e+00	 9.673069e+00
0	 1.407407e+00	 5.629630e+00	 9.682545e+00
0	 1.407407e+00	 5.703704e+00	 9.691971e+00
0	 1.407407e+00	 5.777778e+00	 9.701371e+00
0	 1.407407e+00	 5.851852e+00	 9.710766e+00
0	 1.407407e+00	 5.925926e+00	 9.720177e+00
0	 1.481481e+00	 5.555556e+00	 9.692544e+00
0	 1.481481e+00	 5.629630e+00	 9.701145e+00
0	 1.481481e+00	 5.703704e+00	 9.709729e+00
0	 1.481481e+00	 5.777778e+00	 9.718311e+00
0	 1.481481e+00	 5.851852e+00	 9.726904e+00
0	 1.481481e+00	 5.925926e+00	 9.735524e+00
0	 1.111111e+00	 5.925926e+00	 9.662850e+00
0	 1.111111e+00	 6.000000e+00	 9.675010e+00
0	 1.111111e+00	 6.074074e+00	 9.686832e+00
0	 1.111111e+00	 6.148148e+00	 9.698318e+00
0	 1.111111e+00	 6.222222e+00	 9.709469e+00
0	 1.111111e+00	 6.296296e+00	 9.720284e+00
0	 1.185185e+00	 5.925926e+00	 9.676384e+00
0	 1.185185e+00	 6.000000e+00	 9.687892e+00
0	 1.185185e+00	 6.074074e+00	 9.699087e+00
0	 1.185185e+00	 6.148148e+00	 9.709969e+00
0	 1.185185e+00	 6.222222e+00	 9.720538e+00
0	 1.185185e+00	 6.296296e+00	 9.730792e+00
0	 1.259259e+00	 5.925926e+00	 9.690513e+00
0	 1.259259e+00	 6.000000e+00	 9.701323e+00
0	 1.259259e+00	 6.074074e+00	 9.711852e+00
0	 1.259259e+00	 6.148148e+00	 9.722099e+00
0	 1.259259e+00	 6.222222e+00	 9.732064e+00
0	 1.259259e+00	 6.296296e+00	 9.741745e+00
0	 1.333333e+00	 5.925926e+00	 9.705142e+00
0	 1.333333e+00	 6.000000e+00	 9.715220e+00
0	 1.333333e+00	 6.074074e+00	 9.725052e+00
0	 1.333333e+00	 6.148148e+00	 9.734639e+00
0	 1.333333e+00	 6.222222e+00	 9.743981e+00
0	 1.333333e+00	 6.296296e+00	 9.753078e+00
0	 1.407407e+00	 5.925926e+00	 9.720177e+00
0	 1.407407e+00	 6.000000e+00	 9.729499e+00
0	 1.407407e+00	 6.074074e+00	 9.738612e+00
0	 1.407407e+00	 6.148148e+00	 9.747519e+00
0	 1.407407e+00	 6.222222e+00	 9.756224e+00
0	 1.407407e+00	 6.296296e+00	 9.764729e+00
0	 1.481481e+00	 5.925926e+00	 9.735524e+00
0	 1.481481e+00	 6.000000e+00	 9.744074e+00
0	 1.481481e+00	 6.074074e+00	 9.752454e+00
0	 1.481481e+00	 6.148148e+00	 9.760670e+00
0	 1.481481e+00	 6.222222e+00	 9.768728e+00
0	 1.481481e+00	 6.296296e+00	 9.776633e+00
0	 1.111111e+00	 6.296296e+00	 9.720284e+00
0	 1.111111e+00	 6.370370e+00	 9.730821e+00
0	 1.111111e+00	 6.444444e+00	 9.741140e+00
0	 1.111111e+00	 6.518519e+00	 9.751242e+00
0	 1.111111e+00	 6.592593e+00	 9.761131e+00
0	 1.111111e+00	 6.666667e+00	 9.770807e+00
0	 1.185185e+00	 6.296296e+00	 9.730792e+00
0	 1.185185e+00	 6.370370e+00	 9.740791e+00
0	 1.185185e+00	 6.444444e+00	 9.750596e+00
0	 1.185185e+00	 6.518519e+00	 9.760211e+00
0	 1.185185e+00	 6.592593e+00	 9.769639e+00
0	 1.185185e+00	 6.666667e+00	 9.778883e+00
0	 1.259259e+00	 6.296296e+00	 9.741745e+00
0	 1.259259e+00	 6.370370e+00	 9.751197e+00
0	 1.259259e+00	 6.444444e+00	 9.760477e+00
0	 1.259259e+00	 6.518519e+00	 9.769590e+00
0	 1.259259e+00	 6.592593e+00	 9.778541e+00
0	 1.259259e+00	 6.666667e+00	 9.787333e+00
0	 1.333333e+00	 6.296296e+00	 9.753078e+00
0	 1.333333e+00	 6.370370e+00	 9.761976e+00
0	 1.333333e+00	 6.444444e+00	 9.770723e+00
0	 1.333333e+00	 6.518519e+00	 9.779323e+00
0	 1.333333e+00	 6.592593e+00	 9.787783e+00
0	 1.333333e+00	 6.666667e+00	 9.796106e+00
0	 1.407407e+00	 6.296296e+00	 9.764729e+00
0	 1.407407e+00	 6.370370e+00	 9.773067e+00
0	 1.407407e+00	 6.444444e+00	 9.781273e+00
0	 1.407407e+00	 6.518519e+00	 9.789353e+00
0	 1.407407e+00	 6.592593e+00	 9.797311e+00
0	 1.407407e+00	 6.666667e+00	 9.805152e+00
0	 1.481481e+00	 6.296296e+00	 9.776633e+00
0	 1.481481e+00	 6.370370e+00	 9.784407e+00
0	 1.481481e+00	 6.444444e+00	 9.792068e+00
0	 1.481481e+00	 6.518519e+00	 9.799621e+00
0	 1.481481e+00	 6.592593e+00	 9.807071e+00
0	 1.481481e+00	 6.666667e+00	 9.814423e+00
0	 1.111111e+00	 6.666667e+00	 9.770807e+00
0	 1.111111e+00	 6.740741e+00	 9.780261e+00
0	 1.111111e+00	 6.814815e+00	 9.789483e+00
0	 1.111111e+00	 6.888889e+00	 9.798475e+00
0	 1.111111e+00	 6.962963e+00	 9.807238e+00
0	 1.111111e+00	 7.037037e+00	 9.815777e+00
0	 1.185185e+00	 6.666667e+00	 9.778883e+00
0	 1.185185e+00	 6.740741e+00	 9.787928e+00
0	 1.185185e+00	 6.814815e+00	 9.796755e+00
0	 1.185185e+00	 6.888889e+00	 9.805367e+00
0	 1.185185e+00	 6.962963e+00	 9.813768e+00
0	 1.185185e+00	 7.037037e+00	 9.821960e+00
0	 1.259259e+00	 6.666667e+00	 9.787333e+00
0	 1.259259e+00	 6.740741e+00	 9.795946e+00
0	 1.259259e+00	 6.814815e+00	 9.804359e+00
0	 1.259259e+00	 6.888889e+00	 9.812574e+00
0	 1.259259e+00	 6.962963e+00	 9.820597e+00
0	 1.259259e+00	 7.037037e+00	 9.828429e+00
0	 1.333333e+00	 6.666667e+00	 9.796106e+00
0	 1.333333e+00	 6.740741e+00	 9.804270e+00
0	 1.333333e+00	 6.814815e+00	 9.812253e+00
0	 1.333333e+00	 6.888889e+00	 9.820058e+00
0	 1.333333e+00	 6.962963e+00	 9.827689e+00
0	 1.333333e+00	 7.037037e+00	 9.835149e+00
0	 1.407407e+00	 6.666667e+00	 9.805152e+00
0	 1.407407e+00	 6.740741e+00	 9.812855e+00
0	 1.407407e+00	 6.814815e+00	 9.820395e+00
0	 1.407407e+00	 6.888889e+00	 9.827778e+00
0	 1.407407e+00	 6.962963e+00	 9.835007e+00
0	 1.407407e+00	 7.037037e+00	 9.842087e+00
0	 1.481481e+00	 6.666667e+00	 9.814423e+00
0	 1.481481e+00	 6.740741e+00	 9.821655e+00
0	 1.481481e+00	 6.814815e+00	 9.828744e+00
0	 1.481481e+00	 6.888889e+00	 9.835696e+00
0	 1.481481e+00	 6.962963e+00	 9.842516e+00
0	 1.481481e+00	 7.037037e+00	 9.849207e+00
0	 1.111111e+00	 7.037037e+00	 9.815777e+00
0	 1.111111e+00	 7.111111e+00	 9.824107e+00
0	 1.111111e+00	 7.185185e+00	 9.832242e+00
0	 1.111111e+00	 7.259259e+00	 9.840186e+00
0	 1.111111e+00	 7.333333e+00	 9.847940e+00
0	 1.111111e+00	 7.407407e+00	 9.855507e+00
0	 1.185185e+00	 7.037037e+00	 9.821960e+00
0	 1.185185e+00	 7.111111e+00	 9.829957e+00
0	 1.185185e+00	 7.185185e+00	 9.837773e+00
0	 1.185185e+00	 7.259259e+00	 9.845411e+00
0	 1.185185e+00	 7.333333e+00	 9.852873e+00
0	 1.185185e+00	 7.407407e+00	 9.860162e+00
0	 1.259259e+00	 7.037037e+00	 9.828429e+00
0	 1.259259e+00	 7.111111e+00	 9.836081e+00
0	 1.259259e+00	 7.185185e+00	 9.843566e+00
0	 1.259259e+00	 7.259259e+00	 9.850886e+00
0	 1.259259e+00	 7.333333e+00	 9.858043e+00
0	 1.259259e+00	 7.407407e+00	 9.865040e+00
0	 1.333333e+00	 7.037037e+00	 9.835149e+00
0	 1.333333e+00	 7.111111e+00	 9.842447e+00
0	 1.333333e+00	 7.185185e+00	 9.849590e+00
0	 1.333333e+00	 7.259259e+00	 9.856580e+00
0	 1.333333e+00	 7.333333e+00	 9.863421e+00
0	 1.333333e+00	 7.407407e+00	 9.870116e+00
0	 1.407407e+00	 7.037037e+00	 9.842087e+00
0	 1.407407e+00	 7.111111e+00	 9.849021e+00
0	 1.407407e+00	 7.185185e+00	 9.855812e+00
0	 1.407407e+00	 7.259259e+00	 9.862464e+00
0	 1.407407e+00	 7.333333e+00	 9.868980e+00
0	 1.407407e+00	 7.407407e+00	 9.875364e+00
0	 1.481481e+00	 7.037037e+00	 9.849207e+00
0	 1.481481e+00	 7.111111e+00	 9.855769e+00
0	 1.481481e+00	 7.185185e+00	 9.862202e+00
0	 1.481481e+00	 7.259259e+00	 9.868508e+00
0	 1.481481e+00	 7.333333e+00	 9.874692e+00
0	 1.481481e+00	 7.407407e+00	 9.880757e+00
0	 1.111111e+00	 7.407407e+00	 9.855507e+00
0	 1.111111e+00	 7.481481e+00	 9.862886e+00
0	 1.111111e+00	 7.555556e+00	 9.870075e+00
0	 1.111111e+00	 7.629630e+00	 9.877078e+00
0	 1.111111e+00	 7.703704e+00	 9.883900e+00
0	 1.111111e+00	 7.777778e+00	 9.890543e+00
0	 1.185185e+00	 7.407407e+00	 9.860162e+00
0	 1.185185e+00	 7.481481e+00	 9.867274e+00
0	 1.185185e+00	 7.555556e+00	 9.874206e+00
0	 1.185185e+00	 7.629630e+00	 9.880962e+00
0	 1.185185e+00	 7.703704e+00	 9.887547e+00
0	 1.185185e+00	 7.777778e+00	 9.893963e+00
0	 1.259259e+00	 7.407407e+00	 9.865040e+00
0	 1.259259e+00	 7.481481e+00	 9.871873e+00
0	 1.259259e+00	 7.555556e+00	 9.878536e+00
0	 1.259259e+00	 7.629630e+00	 9.885034e+00
0	 1.259259e+00	 7.703704e+00	 9.891371e+00
0	 1.259259e+00	 7.777778e+00	 9.897550e+00
0	 1.333333e+00	 7.407407e+00	 9.870116e+00
0	 1.333333e+00	 7.481481e+00	 9.876659e+00
0	 1.333333e+00	 7.555556e+00	 9.883043e+00
0	 1.333333e+00	 7.629630e+00	 9.889272e+00
0	 1.333333e+00	 7.703704e+00	 9.895352e+00
0	 1.333333e+00	 7.777778e+00	 9.901285e+00
0	 1.407407e+00	 7.407407e+00	 9.875364e+00
0	 1.407407e+00	 7.481481e+00	 9.881607e+00
0	 1.407407e+00	 7.555556e+00	 9.887703e+00
0	 1.407407e+00	 7.629630e+00	 9.893656e+00
0	 1.407407e+00	 7.703704e+00	 9.899470e+00
0	 1.407407e+00	 7.777778e+00	 9.905149e+00
0	 1.481481e+00	 7.407407e+00	 9.880757e+00
0	 1.481481e+00	 7.481481e+00	 9.886694e+00
0	 1.481481e+00	 7.555556e+00	 9.892495e+00
0	 1.481481e+00	 7.629630e+00	 9.898164e+00
0	 1.481481e+00	 7.703704e+00	 9.903706e+00
0	 1.481481e+00	 7.777778e+00	 9.909124e+00
0	 1.111111e+00	 7.777778e+00	 9.890543e+00
0	 1.111111e+00	 7.851852e+00	 9.897005e+00
0	 1.111111e+00	 7.925926e+00	 9.903287e+00
0	 1.111111e+00	 8.000000e+00	 9.909391e+00
0	 1.111111e+00	 8.074074e+00	 9.915323e+00
0	 1.111111e+00	 8.148148e+00	 9.921087e+00
0	 1.185185e+00	 7.777778e+00	 9.893963e+00
0	 1.185185e+00	 7.851852e+00	 9.900208e+00
0	 1.185185e+00	 7.925926e+00	 9.906280e+00
0	 1.185185e+00	 8.000000e+00	 9.912183e+00
0	 1.185185e+00	 8.074074e+00	 9.917921e+00
0	 1.185185e+00	 8.148148e+00	 9.923500e+00
0	 1.259259e+00	 7.777778e+00	 9.897550e+00
0	 1.259259e+00	 7.851852e+00	 9.903567e+00
0	 1.259259e+00	 7.925926e+00	 9.909420e+00
0	 1.259259e+00	 8.000000e+00	 9.915112e+00
0	 1.259259e+00	 8.074074e+00	 9.920648e+00
0	 1.259259e+00	 8.148148e+00	 9.926033e+00
0	 1.333333e+00	 7.777778e+00	 9.901285e+00
0	 1.333333e+00	 7.851852e+00	 9.907066e+00
0	 1.333333e+00	 7.925926e+00	 9.912691e+00
0	 1.333333e+00	 8.000000e+00	 9.918164e+00
0	 1.333333e+00	 8.074074e+00	 9.923490e+00
0	 1.333333e+00	 8.148148e+00	 9.928672e+00
0	 1.407407e+00	 7.777778e+00	 9.905149e+00
0	 1.407407e+00	 7.851852e+00	 9.910687e+00
0	 1.407407e+00	 7.925926e+00	 9.916077e+00
0	 1.407407e+00	 8.000000e+00	 9.921323e+00
0	 1.407407e+00	 8.074074e+00	 9.926431e+00
0	 1.407407e+00	 8.148148e+00	 9.931405e+00
0	 1.481481e+00	 7.777778e+00	 9.909124e+00
0	 1.481481e+00	 7.851852e+00	 9.914411e+00
0	 1.481481e+00	 7.925926e+00	 9.919559e+00
0	 1.481481e+00	 8.000000e+00	 9.924573e+00
0	 1.481481e+00	 8.074074e+00	 9.929458e+00
0	 1.481481e+00	 8.148148e+00	 9.934217e+00
0	 1.111111e+00	 8.148148e+00	 9.921087e+00
0	 1.111111e+00	 8.222222e+00	 9.926672e+00
0	 1.111111e+00	 8.296296e+00	 9.932072e+00
0	 1.111111e+00	 8.370370e+00	 9.937292e+00
0	 1.111111e+00	 8.444444e+00	 9.942337e+00
0	 1.111111e+00	 8.518519e+00	 9.947213e+00
0	 1.185185e+00	 8.148148e+00	 9.923500e+00
0	 1.185185e+00	 8.222222e+00	 9.928908e+00
0	 1.185185e+00	 8.296296e+00	 9.934136e+00
0	 1.185185e+00	 8.370370e+00	 9.939192e+00
0	 1.185185e+00	 8.444444e+00	 9.944080e+00
0	 1.185185e+00	 8.518519e+00	 9.948806e+00
0	 1.259259e+00	 8.148148e+00	 9.926033e+00
0	 1.259259e+00	 8.222222e+00	 9.931255e+00
0	 1.259259e+00	 8.296296e+00	 9.936305e+00
0	 1.259259e+00	 8.370370e+00	 9.941188e+00
0	 1.259259e+00	 8.444444e+00	 9.945912e+00
0	 1.259259e+00	 8.518519e+00	 9.950481e+00
0	 1.333333e+00	 8.148148e+00	 9.928672e+00
0	 1.333333e+00	 8.222222e+00	 9.933701e+00
0	 1.333333e+00	 8.296296e+00	 9.938564e+00
0	 1.333333e+00	 8.370370e+00	 9.943270e+00
0	 1.333333e+00	 8.444444e+00	 9.947822e+00
0	 1.333333e+00	 8.518519e+00	 9.952227e+00
0	 1.407407e+00	 8.148148e+00	 9.931405e+00
0	 1.407407e+00	 8.222222e+00	 9.936233e+00
0	 1.407407e+00	 8.296296e+00	 9.940904e+00
0	 1.407407e+00	 8.370370e+00	 9.945425e+00
0	 1.407407e+00	 8.444444e+00	 9.949799e+00
0	 1.407407e+00	 8.518519e+00	 9.954034e+00
0	 1.481481e+00	 8.148148e+00	 9.934217e+00
0	 1.481481e+00	 8.222222e+00	 9.938839e+00
0	 1.481481e+00	 8.296296e+00	 9.943312e+00
0	 1.481481e+00	 8.370370e+00	 9.947642e+00
0	 1.481481e+00	 8.444444e+00	 9.951834e+00
0	 1.481481e+00	 8.518519e+00	 9.955894e+00
0	 1.111111e+00	 8.518519e+00	 9.947213e+00
0	 1.111111e+00	 8.592593e+00	 9.951905e+00
0	 1.111111e+00	 8.666667e+00	 9.956397e+00
0	 1.111111e+00	 8.740741e+00	 9.960697e+00
0	 1.111111e+00	 8.814815e+00	 9.964813e+00
0	 1.111111e+00	 8.888889e+00	 9.968751e+00
0	 1.185185e+00	 8.518519e+00	 9.948806e+00
0	 1.185185e+00	 8.592593e+00	 9.953355e+00
0	 1.185185e+00	 8.666667e+00	 9.957710e+00
0	 1.185185e+00	 8.740741e+00	 9.961879e+00
0	 1.185185e+00	 8.814815e+00	 9.965870e+00
0	 1.185185e+00	 8.888889e+00	 9.969689e+00
0	 1.259259e+00	 8.518519e+00	 9.950481e+00
0	 1.259259e+00	 8.592593e+00	 9.954878e+00
0	 1.259259e+00	 8.666667e+00	 9.959090e+00
0	 1.259259e+00	 8.740741e+00	 9.963122e+00
0	 1.259259e+00	 8.814815e+00	 9.966982e+00
0	 1.259259e+00	 8.888889e+00	 9.970678e+00
0	 1.333333e+00	 8.518519e+00	 9.952227e+00
0	 1.333333e+00	 8.592593e+00	 9.956468e+00
0	 1.333333e+00	 8.666667e+00	 9.960529e+00
0	 1.333333e+00	 8.740741e+00	 9.964419e+00
0	 1.333333e+00	 8.814815e+00	 9.968143e+00
0	 1.333333e+00	 8.888889e+00	 9.971709e+00
0	 1.407407e+00	 8.518519e+00	 9.954034e+00
0	 1.407407e+00	 8.592593e+00	 9.958113e+00
0	 1.407407e+00	 8.666667e+00	 9.962020e+00
0	 1.407407e+00	 8.740741e+00	 9.965761e+00
0	 1.407407e+00	 8.814815e+00	 9.969344e+00
0	 1.407407e+00	 8.888889e+00	 9.972776e+00
0	 1.481481e+00	 8.518519e+00	 9.955894e+00
0	 1.481481e+00	 8.592593e+00	 9.959805e+00
0	 1.481481e+00	 8.666667e+00	 9.963552e+00
0	 1.481481e+00	 8.740741e+00	 9.967141e+00
0	 1.481481e+00	 8.814815e+00	 9.970578e+00
0	 1.481481e+00	 8.888889e+00	 9.973872e+00
0	 1.111111e+00	 8.888889e+00	 9.968751e+00
0	 1.111111e+00	 8.962963e+00	 9.972488e+00
0	 1.111111e+00	 9.037037e+00	 9.976000e+00
0	 1.111111e+00	 9.111111e+00	 9.979297e+00
0	 1.111111e+00	 9.185185e+00	 9.982389e+00
0	 1.111111e+00	 9.259259e+00	 9.985286e+00
0	 1.185185e+00	 8.888889e+00	 9.969689e+00
0	 1.185185e+00	 8.962963e+00	 9.973314e+00
0	 1.185185e+00	 9.037037e+00	 9.976720e+00
0	 1.185185e+00	 9.111111e+00	 9.979918e+00
0	 1.185185e+00	 9.185185e+00	 9.982917e+00
0	 1.185185e+00	 9.259259e+00	 9.985728e+00
0	 1.259259e+00	 8.888889e+00	 9.970678e+00
0	 1.259259e+00	 8.962963e+00	 9.974185e+00
0	 1.259259e+00	 9.037037e+00	 9.977481e+00
0	 1.259259e+00	 9.111111e+00	 9.980575e+00
0	 1.259259e+00	 9.185185e+00	 9.983477e+00
0	 1.259259e+00	 9.259259e+00	 9.986196e+00
0	 1.333333e+00	 8.888889e+00	 9.971709e+00
0	 1.333333e+00	 8.962963e+00	 9.975094e+00
0	 1.333333e+00	 9.037037e+00	 9.978274e+00
0	 1.333333e+00	 9.111111e+00	 9.981261e+00
0	 1.333333e+00	 9.185185e+00	 9.984062e+00
0	 1.333333e+00	 9.259259e+00	 9.986686e+00
0	 1.407407e+00	 8.888889e+00	 9.972776e+00
0	 1.407407e+00	 8.962963e+00	 9.976034e+00
0	 1.407407e+00	 9.037037e+00	 9.979095e+00
0	 1.407407e+00	 9.111111e+00	 9.981970e+00
0	 1.407407e+00	 9.185185e+00	 9.984665e+00
0	 1.407407e+00	 9.259259e+00	 9.987192e+00
0	 1.481481e+00	 8.888889e+00	 9.973872e+00
0	 1.481481e+00	 8.962963e+00	 9.976998e+00
0	 1.481481e+00	 9.037037e+00	 9.979937e+00
0	 1.481481e+00	 9.111111e+00	 9.982695e+00
0	 1.481481e+00	 9.185185e+00	 9.985283e+00
0	 1.481481e+00	 9.259259e+00	 9.987707e+00
0	 1.111111e+00	 9.259259e+00	 9.985286e+00
0	 1.111111e+00	 9.333333e+00	 9.987951e+00
0	 1.111111e+00	 9.407407e+00	 9.990349e+00
0	 1.111111e+00	 9.481481e+00	 9.992493e+00
0	 1.111111e+00	 9.555556e+00	 9.994397e+00
0	 1.111111e+00	 9.629630e+00	 9.996073e+00
0	 1.185185e+00	 9.259259e+00	 9.985728e+00
0	 1.185185e+00	 9.333333e+00	 9.988313e+00
0	 1.185185e+00	 9.407407e+00	 9.990639e+00
0	 1.185185e+00	 9.481481e+00	 9.992719e+00
0	 1.185185e+00	 9.555556e+00	 9.994564e+00
0	 1.185185e+00	 9.629630e+00	 9.996189e+00
0	 1.259259e+00	 9.259259e+00	 9.986196e+00
0	 1.259259e+00	 9.333333e+00	 9.988698e+00
0	 1.259259e+00	 9.407407e+00	 9.990948e+00
0	 1.259259e+00	 9.481481e+00	 9.992961e+00
0	 1.259259e+00	 9.555556e+00	 9.994746e+00
0	 1.259259e+00	 9.629630e+00	 9.996318e+00
0	 1.333333e+00	 9.259259e+00	 9.986686e+00
0	 1.333333e+00	 9.333333e+00	 9.989100e+00
0	 1.333333e+00	 9.407407e+00	 9.991273e+00
0	 1.333333e+00	 9.481481e+00	 9.993215e+00
0	 1.333333e+00	 9.555556e+00	 9.994938e+00
0	 1.333333e+00	 9.629630e+00	 9.996454e+00
0	 1.407407e+00	 9.259259e+00	 9.987192e+00
0	 1.407407e+00	 9.333333e+00	 9.989515e+00
0	 1.407407e+00	 9.407407e+00	 9.991606e+00
0	 1.407407e+00	 9.481481e+00	 9.993475e+00
0	 1.407407e+00	 9.555556e+00	 9.995133e+00
0	 1.407407e+00	 9.629630e+00	 9.996592e+00
0	 1.481481e+00	 9.259259e+00	 9.987707e+00
0	 1.481481e+00	 9.333333e+00	 9.989938e+00
0	 1.481481e+00	 9.407407e+00	 9.991944e+00
0	 1.481481e+00	 9.481481e+00	 9.993737e+00
0	 1.481481e+00	 9.555556e+00	 9.995328e+00
0	 1.481481e+00	 9.629630e+00	 9.996727e+00
0	 1.111111e+00	 9.629630e+00	 9.996073e+00
0	 1.111111e+00	 9.703704e+00	 9.997473e+00
0	 1.111111e+00	 9.777778e+00	 9.998553e+00
0	 1.111111e+00	 9.851852e+00	 9.999330e+00
0	 1.111111e+00	 9.925926e+00	 9.999819e+00
0	 1.111111e+00	 1.000000e+01	 1.000004e+01
0	 1.185185e+00	 9.629630e+00	 9.996189e+00
0	 1.185185e+00	 9.703704e+00	 9.997547e+00
0	 1.185185e+00	 9.777778e+00	 9.998594e+00
0	 1.185185e+00	 9.851852e+00	 9.999346e+00
0	 1.185185e+00	 9.925926e+00	 9.999820e+00
0	 1.185185e+00	 1.000000e+01	 1.000003e+01
0	 1.259259e+00	 9.629630e+00	 9.996318e+00
0	 1.259259e+00	 9.703704e+00	 9.997631e+00
0	 1.259259e+00	 9.777778e+00	 9.998644e+00
0	 1.259259e+00	 9.851852e+00	 9.999371e+00
0	 1.259259e+00	 9.925926e+00	 9.999830e+00
0	 1.259259e+00	 1.000000e+01	 1.000003e+01
0	 1.333333e+00	 9.629630e+00	 9.996454e+00
0	 1.333333e+00	 9.703704e+00	 9.997720e+00
0	 1.333333e+00	 9.777778e+00	 9.998697e+00
0	 1.333333e+00	 9.851852e+00	 9.999400e+00
0	 1.333333e+00	 9.925926e+00	 9.999842e+00
0	 1.333333e+00	 1.000000e+01	 1.000004e+01
0	 1.407407e+00	 9.629630e+00	 9.996592e+00
0	 1.407407e+00	 9.703704e+00	 9.997810e+00
0	 1.407407e+00	 9.777778e+00	 9.998750e+00
0	 1.407407e+00	 9.851852e+00	 9.999425e+00
0	 1.407407e+00	 9.925926e+00	 9.999851e+00
0	 1.407407e+00	 1.000000e+01	 1.000004e+01
0	 1.481481e+00	 9.629630e+00	 9.996727e+00
0	 1.481481e+00	 9.703704e+00	 9.997895e+00
0	 1.481481e+00	 9.777778e+00	 9.998796e+00
0	 1.481481e+00	 9.851852e+00	 9.999444e+00
0	 1.481481e+00	 9.925926e+00	 9.999851e+00
0	 1.481481e+00	 1.000000e+01	 1.000003e+01
0	 1.481481e+00	 0.000000e+00	-7.710633e-01
0	 1.481481e+00	 7.407407e-02	-5.759048e-01
0	 1.481481e+00	 1.481481e-01	-4.811070e-02
0	 1.481481e+00	 2.222222e-01	 7.920980e-01
0	 1.481481e+00	 2.962963e-01	 1.924500e+00
0	 1.481481e+00	 3.703704e-01	 3.328875e+00
0	 1.555556e+00	 0.000000e+00	 1.530539e+00
0	 1.555556e+00	 7.407407e-02	 1.673033e+00
0	 1.555556e+00	 1.481481e-01	 2.114986e+00
0	 1.555556e+00	 2.222222e-01	 2.829836e+00
0	 1.555556e+00	 2.962963e-01	 3.791015e+00
0	 1.555556e+00	 3.703704e-01	 4.971959e+00
0	 1.629630e+00	 0.000000e+00	 3.591780e+00
0	 1.629630e+00	 7.407407e-02	 3.655286e+00
0	 1.629630e+00	 1.481481e-01	 4.002655e+00
0	 1.629630e+00	 2.222222e-01	 4.605029e+00
0	 1.629630e+00	 2.962963e-01	 5.433554e+00
0	 1.629630e+00	 3.703704e-01	 6.459373e+00
0	 1.703704e+00	 0.000000e+00	 5.476355e+00
0	 1.703704e+00	 7.407407e-02	 5.456601e+00
0	 1.703704e+00	 1.481481e-01	 5.708742e+00
0	 1.703704e+00	 2.222222e-01	 6.205683e+00
0	 1.703704e+00	 2.962963e-01	 6.920330e+00
0	 1.703704e+00	 3.703704e-01	 7.825592e+00
0	 1.777778e+00	 0.000000e+00	 7.247961e+00
0	 1.777778e+00	 7.407407e-02	 7.162724e+00
0	 1.777778e+00	 1.481481e-01	 7.327096e+00
0	 1.777778e+00	 2.222222e-01	 7.719800e+00
0	 1.777778e+00	 2.962963e-01	 8.319559e+00
0	 1.777778e+00	 3.703704e-01	 9.105095e+00
0	 1.851852e+00	 0.000000e+00	 8.970295e+00
0	 1.851852e+00	 7.407407e-02	 8.859399e+00
0	 1.851852e+00	 1.481481e-01	 8.951566e+00
0	 1.851852e+00	 2.222222e-01	 9.235387e+00
0	 1.851852e+00	 2.962963e-01	 9.699453e+00
0	 1.851852e+00	 3.703704e-01	 1.033236e+01
0	 1.481481e+00	 3.703704e-01	 3.328875e+00
0	 1.481481e+00	 4.444444e-01	 4.934740e+00
0	 1.481481e+00	 5.185185e-01	 6.672476e+00
0	 1.481481e+00	 5.925926e-01	 8.523161e+00
0	 1.481481e+00	 6.666667e-01	 1.046787e+01
0	 1.481481e+00	 7.407407e-01	 1.248768e+01
0	 1.555556e+00	 3.703704e-01	 4.971959e+00
0	 1.555556e+00	 4.444444e-01	 6.312096e+00
0	 1.555556e+00	 5.185185e-01	 7.755966e+00
0	 1.555556e+00	 5.925926e-01	 9.284676e+00
0	 1.555556e+00	 6.666667e-01	 1.087933e+01
0	 1.555556e+00	 7.407407e-01	 1.252105e+01
0	 1.629630e+00	 3.703704e-01	 6.459373e+00
0	 1.629630e+00	 4.444444e-01	 7.604829e+00
0	 1.629630e+00	 5.185185e-01	 8.799256e+00
0	 1.629630e+00	 5.925926e-01	 1.002429e+01
0	 1.629630e+00	 6.666667e-01	 1.126155e+01
0	 1.629630e+00	 7.407407e-01	 1.249268e+01
0	 1.703704e+00	 3.703704e-01	 7.825592e+00
0	 1.703704e+00	 4.444444e-01	 8.815112e+00
0	 1.703704e+00	 5.185185e-01	 9.789032e+00
0	 1.703704e+00	 5.925926e-01	 1.073000e+01
0	 1.703704e+00	 6.666667e-01	 1.162067e+01
0	 1.703704e+00	 7.407407e-01	 1.244368e+01
0	 1.777778e+00	 3.703704e-01	 9.105095e+00
0	 1.777778e+00	 4.444444e-01	 9.945121e+00
0	 1.777778e+00	 5.185185e-01	 1.071198e+01
0	 1.777778e+00	 5.925926e-01	 1.138982e+01
0	 1.777778e+00	 6.666667e-01	 1.196282e+01
0	 1.777778e+00	 7.407407e-01	 1.241513e+01
0	 1.851852e+00	 3.703704e-01	 1.033236e+01
0	 1.851852e+00	 4.444444e-01	 1.099703e+01
0	 1.851852e+00	 5.185185e-01	 1.155477e+01
0	 1.851852e+00	 5.925926e-01	 1.199176e+01
0	 1.851852e+00	 6.666667e-01	 1.229415e+01
0	 1.851852e+00	 7.407407e-01	 1.244811e+01
0	 1.481481e+00	 7.407407e-01	 1.248768e+01
0	 1.481481e+00	 8.148148e-01	 1.427148e+01
0	 1.481481e+00	 8.888889e-01	 1.550891e+01
0	 1.481481e+00	 9.629630e-01	 1.618216e+01
0	 1.481481e+00	 1.037037e+00	 1.627345e+01
0	 1.481481e+00	 1.111111e+00	 1.576497e+01
0	 1.555556e+00	 7.407407e-01	 1.252105e+01
0	 1.555556e+00	 8.148148e-01	 1.394120e+01
0	 1.555556e+00	 8.888889e-01	 1.487586e+01
0	 1.555556e+00	 9.629630e-01	 1.531310e+01
0	 1.555556e+00	 1.037037e+00	 1.524103e+01
0	 1.555556e+00	 1.111111e+00	 1.464773e+01
0	 1.629630e+00	 7.407407e-01	 1.249268e+01
0	 1.629630e+00	 8.148148e-01	 1.352683e+01
0	 1.629630e+00	 8.888889e-01	 1.418100e+01
0	 1.629630e+00	 9.629630e-01	 1.444860e+01
0	 1.629630e+00	 1.037037e+00	 1.432305e+01
0	 1.629630e+00	 1.111111e+00	 1.379775e+01
0	 1.703704e+00	 7.407407e-01	 1.244368e+01
0	 1.703704e+00	 8.148148e-01	 1.310083e+01
0	 1.703704e+00	 8.888889e-01	 1.350424e+01
0	 1.703704e+00	 9.629630e-01	 1.365206e+01
0	 1.703704e+00	 1.037037e+00	 1.354245e+01
0	 1.703704e+00	 1.111111e+00	 1.317355e+01
0	 1.777778e+00	 7.407407e-01	 1.241513e+01
0	 1.777778e+00	 8.148148e-01	 1.273567e+01
0	 1.777778e+00	 8.888889e-01	 1.292548e+01
0	 1.777778e+00	 9.629630e-01	 1.298688e+01
0	 1.777778e+00	 1.037037e+00	 1.292216e+01
0	 1.777778e+00	 1.111111e+00	 1.273365e+01
0	 1.851852e+00	 7.407407e-01	 1.244811e+01
0	 1.851852e+00	 8.148148e-01	 1.250383e+01
0	 1.851852e+00	 8.888889e-01	 1.252464e+01
0	 1.851852e+00	 9.629630e-01	 1.251643e+01
0	 1.851852e+00	 1.037037e+00	 1.248510e+01
0	 1.851852e+00	 1.111111e+00	 1.243656e+01
0	 1.481481e+00	 1.111111e+00	 1.576497e+01
0	 1.481481e+00	 1.185185e+00	 1.495061e+01
0	 1.481481e+00	 1.259259e+00	 1.414925e+01
0	 1.481481e+00	 1.333333e+00	 1.338063e+01
0	 1.481481e+00	 1.407407e+00	 1.266444e+01
0	 1.481481e+00	 1.481481e+00	 1.202041e+01
0	 1.555556e+00	 1.111111e+00	 1.464773e+01
0	 1.555556e+00	 1.185185e+00	 1.383360e+01
0	 1.555556e+00	 1.259259e+00	 1.311776e+01
0	 1.555556e+00	 1.333333e+00	 1.251649e+01
0	 1.555556e+00	 1.407407e+00	 1.204603e+01
0	 1.555556e+00	 1.481481e+00	 1.172265e+01
0	 1.629630e+00	 1.111111e+00	 1.379775e+01
0	 1.629630e+00	 1.185185e+00	 1.312211e+01
0	 1.629630e+00	 1.259259e+00	 1.255860e+01
0	 1.629630e+00	 1.333333e+00	 1.212027e+01
0	 1.629630e+00	 1.407407e+00	 1.182018e+01
0	 1.629630e+00	 1.481481e+00	 1.167137e+01
0	 1.703704e+00	 1.111111e+00	 1.317355e+01
0	 1.703704e+00	 1.185185e+00	 1.271137e+01
0	 1.703704e+00	 1.259259e+00	 1.232985e+01
0	 1.703704e+00	 1.333333e+00	 1.203911e+01
0	 1.703704e+00	 1.407407e+00	 1.184926e+01
0	 1.703704e+00	 1.481481e+00	 1.177040e+01
0	 1.777778e+00	 1.111111e+00	 1.273365e+01
0	 1.777778e+00	 1.185185e+00	 1.249659e+01
0	 1.777778e+00	 1.259259e+00	 1.228963e+01
0	 1.777778e+00	 1.333333e+00	 1.212018e+01
0	 1.777778e+00	 1.407407e+00	 1.199567e+01
0	 1.777778e+00	 1.481481e+00	 1.192351e+01
0	 1.851852e+00	 1.111111e+00	 1.243656e+01
0	 1.851852e+00	 1.185185e+00	 1.237301e+01
0	 1.851852e+00	 1.259259e+00	 1.229604e+01
0	 1.851852e+00	 1.333333e+00	 1.221064e+01
0	 1.851852e+00	 1.407407e+00	 1.212181e+01
0	 1.851852e+00	 1.481481e+00	 1.203452e+01
0	 1.481481e+00	 1.481481e+00	 1.202041e+01
0	 1.481481e+00	 1.555556e+00	 1.148800e+01
0	 1.481481e+00	 1.629630e+00	 1.109108e+01
0	 1.481481e+00	 1.703704e+00	 1.082597e+01
0	 1.481481e+00	 1.777778e+00	 1.068901e+01
0	 1.481481e+00	 1.851852e+00	 1.067651e+01
0	 1.555556e+00	 1.481481e+00	 1.172265e+01
0	 1.555556e+00	 1.555556e+00	 1.149438e+01
0	 1.555556e+00	 1.629630e+00	 1.129939e+01
0	 1.555556e+00	 1.703704e+00	 1.113905e+01
0	 1.555556e+00	 1.777778e+00	 1.101477e+01
0	 1.555556e+00	 1.851852e+00	 1.092793e+01
0	 1.629630e+00	 1.481481e+00	 1.167137e+01
0	 1.629630e+00	 1.555556e+00	 1.159078e+01
0	 1.629630e+00	 1.629630e+00	 1.148957e+01
0	 1.629630e+00	 1.703704e+00	 1.137216e+01
0	 1.629630e+00	 1.777778e+00	 1.124297e+01
0	 1.629630e+00	 1.851852e+00	 1.110642e+01
0	 1.703704e+00	 1.481481e+00	 1.177040e+01
0	 1.703704e+00	 1.555556e+00	 1.172918e+01
0	 1.703704e+00	 1.629630e+00	 1.164914e+01
0	 1.703704e+00	 1.703704e+00	 1.153568e+01
0	 1.703704e+00	 1.777778e+00	 1.139421e+01
0	 1.703704e+00	 1.851852e+00	 1.123016e+01
0	 1.777778e+00	 1.481481e+00	 1.192351e+01
0	 1.777778e+00	 1.555556e+00	 1.186154e+01
0	 1.777778e+00	 1.629630e+00	 1.176556e+01
0	 1.777778e+00	 1.703704e+00	 1.163996e+01
0	 1.777778e+00	 1.777778e+00	 1.148908e+01
0	 1.777778e+00	 1.851852e+00	 1.131732e+01
0	 1.851852e+00	 1.481481e+00	 1.203452e+01
0	 1.851852e+00	 1.555556e+00	 1.193983e+01
0	 1.851852e+00	 1.629630e+00	 1.182635e+01
0	 1.851852e+00	 1.703704e+00	 1.169537e+01
0	 1.851852e+00	 1.777778e+00	 1.154817e+01
0	 1.851852e+00	 1.851852e+00	 1.138606e+01
0	 1.481481e+00	 1.851852e+00	 1.067651e+01
0	 1.481481e+00	 1.925926e+00	 1.069386e+01
0	 1.481481e+00	 2.000000e+00	 1.065397e+01
0	 1.481481e+00	 2.074074e+00	 1.056441e+01
0	 1.481481e+00	 2.148148e+00	 1.043275e+01
0	 1.481481e+00	 2.222222e+00	 1.026657e+01
0	 1.555556e+00	 1.851852e+00	 1.092793e+01
0	 1.555556e+00	 1.925926e+00	 1.085325e+01
0	 1.555556e+00	 2.000000e+00	 1.076453e+01
0	 1.555556e+00	 2.074074e+00	 1.066177e+01
0	 1.555556e+00	 2.148148e+00	 1.054496e+01
0	 1.555556e+00	 2.222222e+00	 1.041410e+01
0	 1.629630e+00	 1.851852e+00	 1.110642e+01
0	 1.629630e+00	 1.925926e+00	 1.097612e+01
0	 1.629630e+00	 2.000000e+00	 1.085937e+01
0	 1.629630e+00	 2.074074e+00	 1.075115e+01
0	 1.629630e+00	 2.148148e+00	 1.064642e+01
0	 1.629630e+00	 2.222222e+00	 1.054015e+01
0	 1.703704e+00	 1.851852e+00	 1.123016e+01
0	 1.703704e+00	 1.925926e+00	 1.107300e+01
0	 1.703704e+00	 2.000000e+00	 1.094358e+01
0	 1.703704e+00	 2.074074e+00	 1.083440e+01
0	 1.703704e+00	 2.148148e+00	 1.073796e+01
0	 1.703704e+00	 2.222222e+00	 1.064676e+01
0	 1.777778e+00	 1.851852e+00	 1.131732e+01
0	 1.777778e+00	 1.925926e+00	 1.115441e+01
0	 1.777778e+00	 2.000000e+00	 1.102224e+01
0	 1.777778e+00	 2.074074e+00	 1.091339e+01
0	 1.777778e+00	 2.148148e+00	 1.082043e+01
0	 1.777778e+00	 2.222222e+00	 1.073594e+01
0	 1.851852e+00	 1.851852e+00	 1.138606e+01
0	 1.851852e+00	 1.925926e+00	 1.123088e+01
0	 1.851852e+00	 2.000000e+00	 1.110044e+01
0	 1.851852e+00	 2.074074e+00	 1.098996e+01
0	 1.851852e+00	 2.148148e+00	 1.089465e+01
0	 1.851852e+00	 2.222222e+00	 1.080972e+01
0	 1.481481e+00	 2.222222e+00	 1.026657e+01
0	 1.481481e+00	 2.296296e+00	 1.010868e+01
0	 1.481481e+00	 2.370370e+00	 9.991783e+00
0	 1.481481e+00	 2.444444e+00	 9.908347e+00
0	 1.481481e+00	 2.518519e+00	 9.850820e+00
0	 1.481481e+00	 2.592593e+00	 9.811654e+00
0	 1.555556e+00	 2.222222e+00	 1.041410e+01
0	 1.555556e+00	 2.296296e+00	 1.028630e+01
0	 1.555556e+00	 2.370370e+00	 1.017750e+01
0	 1.555556e+00	 2.444444e+00	 1.008589e+01
0	 1.555556e+00	 2.518519e+00	 1.000966e+01
0	 1.555556e+00	 2.592593e+00	 9.947003e+00
0	 1.629630e+00	 2.222222e+00	 1.054015e+01
0	 1.629630e+00	 2.296296e+00	 1.043311e+01
0	 1.629630e+00	 2.370370e+00	 1.033080e+01
0	 1.629630e+00	 2.444444e+00	 1.023532e+01
0	 1.629630e+00	 2.518519e+00	 1.014874e+01
0	 1.629630e+00	 2.592593e+00	 1.007316e+01
0	 1.703704e+00	 2.222222e+00	 1.064676e+01
0	 1.703704e+00	 2.296296e+00	 1.055291e+01
0	 1.703704e+00	 2.370370e+00	 1.045627e+01
0	 1.703704e+00	 2.444444e+00	 1.036097e+01
0	 1.703704e+00	 2.518519e+00	 1.027115e+01
0	 1.703704e+00	 2.592593e+00	 1.019093e+01
0	 1.777778e+00	 2.222222e+00	 1.073594e+01
0	 1.777778e+00	 2.296296e+00	 1.064949e+01
0	 1.777778e+00	 2.370370e+00	 1.055846e+01
0	 1.777778e+00	 2.444444e+00	 1.046718e+01
0	 1.777778e+00	 2.518519e+00	 1.037996e+01
0	 1.777778e+00	 2.592593e+00	 1.030114e+01
0	 1.851852e+00	 2.222222e+00	 1.080972e+01
0	 1.851852e+00	 2.296296e+00	 1.072668e+01
0	 1.851852e+00	 2.370370e+00	 1.064197e+01
0	 1.851852e+00	 2.444444e+00	 1.055827e+01
0	 1.851852e+00	 2.518519e+00	 1.047825e+01
0	 1.851852e+00	 2.592593e+00	 1.040458e+01
0	 1.481481e+00	 2.592593e+00	 9.811654e+00
0	 1.481481e+00	 2.666667e+00	 9.774351e+00
0	 1.481481e+00	 2.740741e+00	 9.730952e+00
0	 1.481481e+00	 2.814815e+00	 9.686721e+00
0	 1.481481e+00	 2.888889e+00	 9.646923e+00
0	 1.481481e+00	 2.962963e+00	 9.616820e+00
0	 1.555556e+00	 2.592593e+00	 9.947003e+00
0	 1.555556e+00	 2.666667e+00	 9.892498e+00
0	 1.555556e+00	 2.740741e+00	 9.842805e+00
0	 1.555556e+00	 2.814815e+00	 9.799254e+00
0	 1.555556e+00	 2.888889e+00	 9.763178e+00
0	 1.555556e+00	 2.962963e+00	 9.735906e+00
0	 1.629630e+00	 2.592593e+00	 1.007316e+01
0	 1.629630e+00	 2.666667e+00	 1.000954e+01
0	 1.629630e+00	 2.740741e+00	 9.956561e+00
0	 1.629630e+00	 2.814815e+00	 9.912847e+00
0	 1.629630e+00	 2.888889e+00	 9.877035e+00
0	 1.629630e+00	 2.962963e+00	 9.847757e+00
0	 1.703704e+00	 2.592593e+00	 1.019093e+01
0	 1.703704e+00	 2.666667e+00	 1.012400e+01
0	 1.703704e+00	 2.740741e+00	 1.006940e+01
0	 1.703704e+00	 2.814815e+00	 1.002430e+01
0	 1.703704e+00	 2.888889e+00	 9.985862e+00
0	 1.703704e+00	 2.962963e+00	 9.951272e+00
0	 1.777778e+00	 2.592593e+00	 1.030114e+01
0	 1.777778e+00	 2.666667e+00	 1.023439e+01
0	 1.777778e+00	 2.740741e+00	 1.017850e+01
0	 1.777778e+00	 2.814815e+00	 1.013039e+01
0	 1.777778e+00	 2.888889e+00	 1.008703e+01
0	 1.777778e+00	 2.962963e+00	 1.004535e+01
0	 1.851852e+00	 2.592593e+00	 1.040458e+01
0	 1.851852e+00	 2.666667e+00	 1.033923e+01
0	 1.851852e+00	 2.740741e+00	 1.028103e+01
0	 1.851852e+00	 2.814815e+00	 1.022794e+01
0	 1.851852e+00	 2.888889e+00	 1.017790e+01
0	 1.851852e+00	 2.962963e+00	 1.012889e+01
0	 1.481481e+00	 2.962963e+00	 9.616820e+00
0	 1.481481e+00	 3.037037e+00	 9.597037e+00
0	 1.481481e+00	 3.111111e+00	 9.582827e+00
0	 1.481481e+00	 3.185185e+00	 9.571406e+00
0	 1.481481e+00	 3.259259e+00	 9.559988e+00
0	 1.481481e+00	 3.333333e+00	 9.545788e+00
0	 1.555556e+00	 2.962963e+00	 9.735906e+00
0	 1.555556e+00	 3.037037e+00	 9.714035e+00
0	 1.555556e+00	 3.111111e+00	 9.692947e+00
0	 1.555556e+00	 3.185185e+00	 9.672156e+00
0	 1.555556e+00	 3.259259e+00	 9.651172e+00
0	 1.555556e+00	 3.333333e+00	 9.629509e+00
0	 1.629630e+00	 2.962963e+00	 9.847757e+00
0	 1.629630e+00	 3.037037e+00	 9.820379e+00
0	 1.629630e+00	 3.111111e+00	 9.791884e+00
0	 1.629630e+00	 3.185185e+00	 9.763333e+00
0	 1.629630e+00	 3.259259e+00	 9.735787e+00
0	 1.629630e+00	 3.333333e+00	 9.710306e+00
0	 1.703704e+00	 2.962963e+00	 9.951272e+00
0	 1.703704e+00	 3.037037e+00	 9.916637e+00
0	 1.703704e+00	 3.111111e+00	 9.881197e+00
0	 1.703704e+00	 3.185185e+00	 9.846812e+00
0	 1.703704e+00	 3.259259e+00	 9.815342e+00
0	 1.703704e+00	 3.333333e+00	 9.788648e+00
0	 1.777778e+00	 2.962963e+00	 1.004535e+01
0	 1.777778e+00	 3.037037e+00	 1.000338e+01
0	 1.777778e+00	 3.111111e+00	 9.962444e+00
0	 1.777778e+00	 3.185185e+00	 9.924464e+00
0	 1.777778e+00	 3.259259e+00	 9.891346e+00
0	 1.777778e+00	 3.333333e+00	 9.865001e+00
0	 1.851852e+00	 2.962963e+00	 1.012889e+01
0	 1.851852e+00	 3.037037e+00	 1.008116e+01
0	 1.851852e+00	 3.111111e+00	 1.003718e+01
0	 1.851852e+00	 3.185185e+00	 9.998162e+00
0	 1.851852e+00	 3.259259e+00	 9.965309e+00
0	 1.851852e+00	 3.333333e+00	 9.939834e+00
0	 1.481481e+00	 3.333333e+00	 9.545788e+00
0	 1.481481e+00	 3.407407e+00	 9.529854e+00
0	 1.481481e+00	 3.481481e+00	 9.516173e+00
0	 1.481481e+00	 3.555556e+00	 9.506371e+00
0	 1.481481e+00	 3.629630e+00	 9.502074e+00
0	 1.481481e+00	 3.703704e+00	 9.504908e+00
0	 1.555556e+00	 3.333333e+00	 9.629509e+00
0	 1.555556e+00	 3.407407e+00	 9.609476e+00
0	 1.555556e+00	 3.481481e+00	 9.593950e+00
0	 1.555556e+00	 3.555556e+00	 9.583290e+00
0	 1.555556e+00	 3.629630e+00	 9.577858e+00
0	 1.555556e+00	 3.703704e+00	 9.578012e+00
0	 1.629630e+00	 3.333333e+00	 9.710306e+00
0	 1.629630e+00	 3.407407e+00	 9.688925e+00
0	 1.629630e+00	 3.481481e+00	 9.672646e+00
0	 1.629630e+00	 3.555556e+00	 9.660981e+00
0	 1.629630e+00	 3.629630e+00	 9.653443e+00
0	 1.629630e+00	 3.703704e+00	 9.649542e+00
0	 1.703704e+00	 3.333333e+00	 9.788648e+00
0	 1.703704e+00	 3.407407e+00	 9.767507e+00
0	 1.703704e+00	 3.481481e+00	 9.750848e+00
0	 1.703704e+00	 3.555556e+00	 9.737748e+00
0	 1.703704e+00	 3.629630e+00	 9.727289e+00
0	 1.703704e+00	 3.703704e+00	 9.718552e+00
0	 1.777778e+00	 3.333333e+00	 9.865001e+00
0	 1.777778e+00	 3.407407e+00	 9.844530e+00
0	 1.777778e+00	 3.481481e+00	 9.827139e+00
0	 1.777778e+00	 3.555556e+00	 9.811893e+00
0	 1.777778e+00	 3.629630e+00	 9.797858e+00
0	 1.777778e+00	 3.703704e+00	 9.784099e+00
0	 1.851852e+00	 3.333333e+00	 9.939834e+00
0	 1.851852e+00	 3.407407e+00	 9.919301e+00
0	 1.851852e+00	 3.481481e+00	 9.900107e+00
0	 1.851852e+00	 3.555556e+00	 9.881721e+00
0	 1.851852e+00	 3.629630e+00	 9.863609e+00
0	 1.851852e+00	 3.703704e+00	 9.845237e+00
0	 1.481481e+00	 3.703704e+00	 9.504908e+00
0	 1.481481e+00	 3.777778e+00	 9.511949e+00
0	 1.481481e+00	 3.851852e+00	 9.518769e+00
0	 1.481481e+00	 3.925926e+00	 9.524735e+00
0	 1.481481e+00	 4.000000e+00	 9.529212e+00
0	 1.481481e+00	 4.074074e+00	 9.531565e+00
0	 1.555556e+00	 3.703704e+00	 9.578012e+00
0	 1.555556e+00	 3.777778e+00	 9.580676e+00
0	 1.555556e+00	 3.851852e+00	 9.582527e+00
0	 1.555556e+00	 3.925926e+00	 9.583565e+00
0	 1.555556e+00	 4.000000e+00	 9.583790e+00
0	 1.555556e+00	 4.074074e+00	 9.583199e+00
0	 1.629630e+00	 3.703704e+00	 9.649542e+00
0	 1.629630e+00	 3.777778e+00	 9.646862e+00
0	 1.629630e+00	 3.851852e+00	 9.643584e+00
0	 1.629630e+00	 3.925926e+00	 9.640122e+00
0	 1.629630e+00	 4.000000e+00	 9.636888e+00
0	 1.629630e+00	 4.074074e+00	 9.634296e+00
0	 1.703704e+00	 3.703704e+00	 9.718552e+00
0	 1.703704e+00	 3.777778e+00	 9.710254e+00
0	 1.703704e+00	 3.851852e+00	 9.702130e+00
0	 1.703704e+00	 3.925926e+00	 9.694787e+00
0	 1.703704e+00	 4.000000e+00	 9.688834e+00
0	 1.703704e+00	 4.074074e+00	 9.684878e+00
0	 1.777778e+00	 3.703704e+00	 9.784099e+00
0	 1.777778e+00	 3.777778e+00	 9.770599e+00
0	 1.777778e+00	 3.851852e+00	 9.758353e+00
0	 1.777778e+00	 3.925926e+00	 9.747945e+00
0	 1.777778e+00	 4.000000e+00	 9.739956e+00
0	 1.777778e+00	 4.074074e+00	 9.734969e+00
0	 1.851852e+00	 3.703704e+00	 9.845237e+00
0	 1.851852e+00	 3.777778e+00	 9.827644e+00
0	 1.851852e+00	 3.851852e+00	 9.812444e+00
0	 1.851852e+00	 3.925926e+00	 9.799977e+00
0	 1.851852e+00	 4.000000e+00	 9.790581e+00
0	 1.851852e+00	 4.074074e+00	 9.784594e+00
0	 1.481481e+00	 4.074074e+00	 9.531565e+00
0	 1.481481e+00	 4.148148e+00	 9.533192e+00
0	 1.481481e+00	 4.222222e+00	 9.536161e+00
0	 1.481481e+00	 4.296296e+00	 9.540840e+00
0	 1.481481e+00	 4.370370e+00	 9.547599e+00
0	 1.481481e+00	 4.444444e+00	 9.556807e+00
0	 1.555556e+00	 4.074074e+00	 9.583199e+00
0	 1.555556e+00	 4.148148e+00	 9.583022e+00
0	 1.555556e+00	 4.222222e+00	 9.584529e+00
0	 1.555556e+00	 4.296296e+00	 9.587791e+00
0	 1.555556e+00	 4.370370e+00	 9.592876e+00
0	 1.555556e+00	 4.444444e+00	 9.599851e+00
0	 1.629630e+00	 4.074074e+00	 9.634296e+00
0	 1.629630e+00	 4.148148e+00	 9.633013e+00
0	 1.629630e+00	 4.222222e+00	 9.633349e+00
0	 1.629630e+00	 4.296296e+00	 9.635180e+00
0	 1.629630e+00	 4.370370e+00	 9.638378e+00
0	 1.629630e+00	 4.444444e+00	 9.642819e+00
0	 1.703704e+00	 4.074074e+00	 9.684878e+00
0	 1.703704e+00	 4.148148e+00	 9.682829e+00
0	 1.703704e+00	 4.222222e+00	 9.682055e+00
0	 1.703704e+00	 4.296296e+00	 9.682344e+00
0	 1.703704e+00	 4.370370e+00	 9.683483e+00
0	 1.703704e+00	 4.444444e+00	 9.685261e+00
0	 1.777778e+00	 4.074074e+00	 9.734969e+00
0	 1.777778e+00	 4.148148e+00	 9.732133e+00
0	 1.777778e+00	 4.222222e+00	 9.730081e+00
0	 1.777778e+00	 4.296296e+00	 9.728623e+00
0	 1.777778e+00	 4.370370e+00	 9.727569e+00
0	 1.777778e+00	 4.444444e+00	 9.726727e+00
0	 1.851852e+00	 4.074074e+00	 9.784594e+00
0	 1.851852e+00	 4.148148e+00	 9.780586e+00
0	 1.851852e+00	 4.222222e+00	 9.776861e+00
0	 1.851852e+00	 4.296296e+00	 9.773358e+00
0	 1.851852e+00	 4.370370e+00	 9.770014e+00
0	 1.851852e+00	 4.444444e+00	 9.766767e+00
0	 1.481481e+00	 4.444444e+00	 9.556807e+00
0	 1.481481e+00	 4.518519e+00	 9.567171e+00
0	 1.481481e+00	 4.592593e+00	 9.577088e+00
0	 1.481481e+00	 4.666667e+00	 9.586462e+00
0	 1.481481e+00	 4.740741e+00	 9.595196e+00
0	 1.481481e+00	 4.814815e+00	 9.603194e+00
0	 1.555556e+00	 4.444444e+00	 9.599851e+00
0	 1.555556e+00	 4.518519e+00	 9.607588e+00
0	 1.555556e+00	 4.592593e+00	 9.614940e+00
0	 1.555556e+00	 4.666667e+00	 9.621948e+00
0	 1.555556e+00	 4.740741e+00	 9.628653e+00
0	 1.555556e+00	 4.814815e+00	 9.635094e+00
0	 1.629630e+00	 4.444444e+00	 9.642819e+00
0	 1.629630e+00	 4.518519e+00	 9.647725e+00
0	 1.629630e+00	 4.592593e+00	 9.652485e+00
0	 1.629630e+00	 4.666667e+00	 9.657226e+00
0	 1.629630e+00	 4.740741e+00	 9.662074e+00
0	 1.629630e+00	 4.814815e+00	 9.667152e+00
0	 1.703704e+00	 4.444444e+00	 9.685261e+00
0	 1.703704e+00	 4.518519e+00	 9.687337e+00
0	 1.703704e+00	 4.592593e+00	 9.689616e+00
0	 1.703704e+00	 4.666667e+00	 9.692258e+00
0	 1.703704e+00	 4.740741e+00	 9.695423e+00
0	 1.703704e+00	 4.814815e+00	 9.699269e+00
0	 1.777778e+00	 4.444444e+00	 9.726727e+00
0	 1.777778e+00	 4.518519e+00	 9.726178e+00
0	 1.777778e+00	 4.592593e+00	 9.726224e+00
0	 1.777778e+00	 4.666667e+00	 9.727007e+00
0	 1.777778e+00	 4.740741e+00	 9.728666e+00
0	 1.777778e+00	 4.814815e+00	 9.731345e+00
0	 1.851852e+00	 4.444444e+00	 9.766767e+00
0	 1.851852e+00	 4.518519e+00	 9.764005e+00
0	 1.851852e+00	 4.592593e+00	 9.762203e+00
0	 1.851852e+00	 4.666667e+00	 9.761433e+00
0	 1.851852e+00	 4.740741e+00	 9.761769e+00
0	 1.851852e+00	 4.814815e+00	 9.763281e+00
0	 1.481481e+00	 4.814815e+00	 9.603194e+00
0	 1.481481e+00	 4.888889e+00	 9.610947e+00
0	 1.481481e+00	 4.962963e+00	 9.619053e+00
0	 1.481481e+00	 5.037037e+00	 9.627585e+00
0	 1.481481e+00	 5.111111e+00	 9.636615e+00
0	 1.481481e+00	 5.185185e+00	 9.646215e+00
0	 1.555556e+00	 4.814815e+00	 9.635094e+00
0	 1.555556e+00	 4.888889e+00	 9.641616e+00
0	 1.555556e+00	 4.962963e+00	 9.648545e+00
0	 1.555556e+00	 5.037037e+00	 9.655898e+00
0	 1.555556e+00	 5.111111e+00	 9.663689e+00
0	 1.555556e+00	 5.185185e+00	 9.671936e+00
0	 1.629630e+00	 4.814815e+00	 9.667152e+00
0	 1.629630e+00	 4.888889e+00	 9.672584e+00
0	 1.629630e+00	 4.962963e+00	 9.678393e+00
0	 1.629630e+00	 5.037037e+00	 9.684563e+00
0	 1.629630e+00	 5.111111e+00	 9.691076e+00
0	 1.629630e+00	 5.185185e+00	 9.697916e+00
0	 1.703704e+00	 4.814815e+00	 9.699269e+00
0	 1.703704e+00	 4.888889e+00	 9.703667e+00
0	 1.703704e+00	 4.962963e+00	 9.708362e+00
0	 1.703704e+00	 5.037037e+00	 9.713327e+00
0	 1.703704e+00	 5.111111e+00	 9.718534e+00
0	 1.703704e+00	 5.185185e+00	 9.723954e+00
0	 1.777778e+00	 4.814815e+00	 9.731345e+00
0	 1.777778e+00	 4.888889e+00	 9.734684e+00
0	 1.777778e+00	 4.962963e+00	 9.738220e+00
0	 1.777778e+00	 5.037037e+00	 9.741937e+00
0	 1.777778e+00	 5.111111e+00	 9.745819e+00
0	 1.777778e+00	 5.185185e+00	 9.749851e+00
0	 1.851852e+00	 4.814815e+00	 9.763281e+00
0	 1.851852e+00	 4.888889e+00	 9.765453e+00
0	 1.851852e+00	 4.962963e+00	 9.767732e+00
0	 1.851852e+00	 5.037037e+00	 9.770138e+00
0	 1.851852e+00	 5.111111e+00	 9.772690e+00
0	 1.851852e+00	 5.185185e+00	 9.775407e+00
0	 1.481481e+00	 5.185185e+00	 9.646215e+00
0	 1.481481e+00	 5.259259e+00	 9.655996e+00
0	 1.481481e+00	 5.333333e+00	 9.665522e+00
0	 1.481481e+00	 5.407407e+00	 9.674790e+00
0	 1.481481e+00	 5.481481e+00	 9.683798e+00
0	 1.481481e+00	 5.555556e+00	 9.692544e+00
0	 1.555556e+00	 5.185185e+00	 9.671936e+00
0	 1.555556e+00	 5.259259e+00	 9.680319e+00
0	 1.555556e+00	 5.333333e+00	 9.688524e+00
0	 1.555556e+00	 5.407407e+00	 9.696572e+00
0	 1.555556e+00	 5.481481e+00	 9.704485e+00
0	 1.555556e+00	 5.555556e+00	 9.712283e+00
0	 1.629630e+00	 5.185185e+00	 9.697916e+00
0	 1.629630e+00	 5.259259e+00	 9.704866e+00
0	 1.629630e+00	 5.333333e+00	 9.711745e+00
0	 1.629630e+00	 5.407407e+00	 9.718589e+00
0	 1.629630e+00	 5.481481e+00	 9.725432e+00
0	 1.629630e+00	 5.555556e+00	 9.732308e+00
0	 1.703704e+00	 5.185185e+00	 9.723954e+00
0	 1.703704e+00	 5.259259e+00	 9.729487e+00
0	 1.703704e+00	 5.333333e+00	 9.735071e+00
0	 1.703704e+00	 5.407407e+00	 9.740748e+00
0	 1.703704e+00	 5.481481e+00	 9.746554e+00
0	 1.703704e+00	 5.555556e+00	 9.752528e+00
0	 1.777778e+00	 5.185185e+00	 9.749851e+00
0	 1.777778e+00	 5.259259e+00	 9.754032e+00
0	 1.777778e+00	 5.333333e+00	 9.758390e+00
0	 1.777778e+00	 5.407407e+00	 9.762958e+00
0	 1.777778e+00	 5.481481e+00	 9.767768e+00
0	 1.777778e+00	 5.555556e+00	 9.772852e+00
0	 1.851852e+00	 5.185185e+00	 9.775407e+00
0	 1.851852e+00	 5.259259e+00	 9.778352e+00
0	 1.851852e+00	 5.333333e+00	 9.781587e+00
0	 1.851852e+00	 5.407407e+00	 9.785127e+00
0	 1.851852e+00	 5.481481e+00	 9.788988e+00
0	 1.851852e+00	 5.555556e+00	 9.793187e+00
0	 1.481481e+00	 5.555556e+00	 9.692544e+00
0	 1.481481e+00	 5.629630e+00	 9.701145e+00
0	 1.481481e+00	 5.703704e+00	 9.709729e+00
0	 1.481481e+00	 5.777778e+00	 9.718311e+00
0	 1.481481e+00	 5.851852e+00	 9.726904e+00
0	 1.481481e+00	 5.925926e+00	 9.735524e+00
0	 1.555556e+00	 5.555556e+00	 9.712283e+00
0	 1.555556e+00	 5.629630e+00	 9.720032e+00
0	 1.555556e+00	 5.703704e+00	 9.727787e+00
0	 1.555556e+00	 5.777778e+00	 9.735556e+00
0	 1.555556e+00	 5.851852e+00	 9.743346e+00
0	 1.555556e+00	 5.925926e+00	 9.751164e+00
0	 1.629630e+00	 5.555556e+00	 9.732308e+00
0	 1.629630e+00	 5.629630e+00	 9.739221e+00
0	 1.629630e+00	 5.703704e+00	 9.746150e+00
0	 1.629630e+00	 5.777778e+00	 9.753101e+00
0	 1.629630e+00	 5.851852e+00	 9.760077e+00
0	 1.629630e+00	 5.925926e+00	 9.767081e+00
0	 1.703704e+00	 5.555556e+00	 9.752528e+00
0	 1.703704e+00	 5.629630e+00	 9.758609e+00
0	 1.703704e+00	 5.703704e+00	 9.764709e+00
0	 1.703704e+00	 5.777778e+00	 9.770835e+00
0	 1.703704e+00	 5.851852e+00	 9.776990e+00
0	 1.703704e+00	 5.925926e+00	 9.783179e+00
0	 1.777778e+00	 5.555556e+00	 9.772852e+00
0	 1.777778e+00	 5.629630e+00	 9.778092e+00
0	 1.777778e+00	 5.703704e+00	 9.783354e+00
0	 1.777778e+00	 5.777778e+00	 9.788646e+00
0	 1.777778e+00	 5.851852e+00	 9.793979e+00
0	 1.777778e+00	 5.925926e+00	 9.799361e+00
0	 1.851852e+00	 5.555556e+00	 9.793187e+00
0	 1.851852e+00	 5.629630e+00	 9.797567e+00
0	 1.851852e+00	 5.703704e+00	 9.801974e+00
0	 1.851852e+00	 5.777778e+00	 9.806425e+00
0	 1.851852e+00	 5.851852e+00	 9.810939e+00
0	 1.851852e+00	 5.925926e+00	 9.815533e+00
0	 1.481481e+00	 5.925926e+00	 9.735524e+00
0	 1.481481e+00	 6.000000e+00	 9.744074e+00
0	 1.481481e+00	 6.074074e+00	 9.752454e+00
0	 1.481481e+00	 6.148148e+00	 9.760670e+00
0	 1.481481e+00	 6.222222e+00	 9.768728e+00
0	 1.481481e+00	 6.296296e+00	 9.776633e+00
0	 1.555556e+00	 5.925926e+00	 9.751164e+00
0	 1.555556e+00	 6.000000e+00	 9.758931e+00
0	 1.555556e+00	 6.074074e+00	 9.766568e+00
0	 1.555556e+00	 6.148148e+00	 9.774083e+00
0	 1.555556e+00	 6.222222e+00	 9.781487e+00
0	 1.555556e+00	 6.296296e+00	 9.788789e+00
0	 1.629630e+00	 5.925926e+00	 9.767081e+00
0	 1.629630e+00	 6.000000e+00	 9.774055e+00
0	 1.629630e+00	 6.074074e+00	 9.780942e+00
0	 1.629630e+00	 6.148148e+00	 9.787754e+00
0	 1.629630e+00	 6.222222e+00	 9.794502e+00
0	 1.629630e+00	 6.296296e+00	 9.801196e+00
0	 1.703704e+00	 5.925926e+00	 9.783179e+00
0	 1.703704e+00	 6.000000e+00	 9.789362e+00
0	 1.703704e+00	 6.074074e+00	 9.795504e+00
0	 1.703704e+00	 6.148148e+00	 9.801616e+00
0	 1.703704e+00	 6.222222e+00	 9.807708e+00
0	 1.703704e+00	 6.296296e+00	 9.813792e+00
0	 1.777778e+00	 5.925926e+00	 9.799361e+00
0	 1.777778e+00	 6.000000e+00	 9.804768e+00
0	 1.777778e+00	 6.074074e+00	 9.810178e+00
0	 1.777778e+00	 6.148148e+00	 9.815600e+00
0	 1.777778e+00	 6.222222e+00	 9.821044e+00
0	 1.777778e+00	 6.296296e+00	 9.826518e+00
0	 1.851852e+00	 5.925926e+00	 9.815533e+00
0	 1.851852e+00	 6.000000e+00	 9.820191e+00
0	 1.851852e+00	 6.074074e+00	 9.824892e+00
0	 1.851852e+00	 6.148148e+00	 9.829641e+00
0	 1.851852e+00	 6.222222e+00	 9.834446e+00
0	 1.851852e+00	 6.296296e+00	 9.839313e+00
0	 1.481481e+00	 6.296296e+00	 9.776633e+00
0	 1.481481e+00	 6.370370e+00	 9.784407e+00
0	 1.481481e+00	 6.444444e+00	 9.792068e+00
0	 1.481481e+00	 6.518519e+00	 9.799621e+00
0	 1.481481e+00	 6.592593e+00	 9.807071e+00
0	 1.481481e+00	 6.666667e+00	 9.814423e+00
0	 1.555556e+00	 6.296296e+00	 9.788789e+00
0	 1.555556e+00	 6.370370e+00	 9.795994e+00
0	 1.555556e+00	 6.444444e+00	 9.803104e+00
0	 1.555556e+00	 6.518519e+00	 9.810124e+00
0	 1.555556e+00	 6.592593e+00	 9.817058e+00
0	 1.555556e+00	 6.666667e+00	 9.823913e+00
0	 1.629630e+00	 6.296296e+00	 9.801196e+00
0	 1.629630e+00	 6.370370e+00	 9.807826e+00
0	 1.629630e+00	 6.444444e+00	 9.814377e+00
0	 1.629630e+00	 6.518519e+00	 9.820857e+00
0	 1.629630e+00	 6.592593e+00	 9.827269e+00
0	 1.629630e+00	 6.666667e+00	 9.833618e+00
0	 1.703704e+00	 6.296296e+00	 9.813792e+00
0	 1.703704e+00	 6.370370e+00	 9.819843e+00
0	 1.703704e+00	 6.444444e+00	 9.825831e+00
0	 1.703704e+00	 6.518519e+00	 9.831765e+00
0	 1.703704e+00	 6.592593e+00	 9.837648e+00
0	 1.703704e+00	 6.666667e+00	 9.843489e+00
0	 1.777778e+00	 6.296296e+00	 9.826518e+00
0	 1.777778e+00	 6.370370e+00	 9.831985e+00
0	 1.777778e+00	 6.444444e+00	 9.837407e+00
0	 1.777778e+00	 6.518519e+00	 9.842791e+00
0	 1.777778e+00	 6.592593e+00	 9.848144e+00
0	 1.777778e+00	 6.666667e+00	 9.853474e+00
0	 1.851852e+00	 6.296296e+00	 9.839313e+00
0	 1.851852e+00	 6.370370e+00	 9.844194e+00
0	 1.851852e+00	 6.444444e+00	 9.849046e+00
0	 1.851852e+00	 6.518519e+00	 9.853879e+00
0	 1.851852e+00	 6.592593e+00	 9.858702e+00
0	 1.851852e+00	 6.666667e+00	 9.863525e+00
0	 1.481481e+00	 6.666667e+00	 9.814423e+00
0	 1.481481e+00	 6.740741e+00	 9.821655e+00
0	 1.481481e+00	 6.814815e+00	 9.828744e+00
0	 1.481481e+00	 6.888889e+00	 9.835696e+00
0	 1.481481e+00	 6.962963e+00	 9.842516e+00
0	 1.481481e+00	 7.037037e+00	 9.849207e+00
0	 1.555556e+00	 6.666667e+00	 9.823913e+00
0	 1.555556e+00	 6.740741e+00	 9.830666e+00
0	 1.555556e+00	 6.814815e+00	 9.837298e+00
0	 1.555556e+00	 6.888889e+00	 9.843812e+00
0	 1.555556e+00	 6.962963e+00	 9.850214e+00
0	 1.555556e+00	 7.037037e+00	 9.856509e+00
0	 1.629630e+00	 6.666667e+00	 9.833618e+00
0	 1.629630e+00	 6.740741e+00	 9.839886e+00
0	 1.629630e+00	 6.814815e+00	 9.846052e+00
0	 1.629630e+00	 6.888889e+00	 9.852121e+00
0	 1.629630e+00	 6.962963e+00	 9.858099e+00
0	 1.629630e+00	 7.037037e+00	 9.863990e+00
0	 1.703704e+00	 6.666667e+00	 9.843489e+00
0	 1.703704e+00	 6.740741e+00	 9.849267e+00
0	 1.703704e+00	 6.814815e+00	 9.854963e+00
0	 1.703704e+00	 6.888889e+00	 9.860583e+00
0	 1.703704e+00	 6.962963e+00	 9.866132e+00
0	 1.703704e+00	 7.037037e+00	 9.871615e+00
0	 1.777778e+00	 6.666667e+00	 9.853474e+00
0	 1.777778e+00	 6.740741e+00	 9.858763e+00
0	 1.777778e+00	 6.814815e+00	 9.863989e+00
0	 1.777778e+00	 6.888889e+00	 9.869159e+00
0	 1.777778e+00	 6.962963e+00	 9.874277e+00
0	 1.777778e+00	 7.037037e+00	 9.879347e+00
0	 1.851852e+00	 6.666667e+00	 9.863525e+00
0	 1.851852e+00	 6.740741e+00	 9.868327e+00
0	 1.851852e+00	 6.814815e+00	 9.873086e+00
0	 1.851852e+00	 6.888889e+00	 9.877807e+00
0	 1.851852e+00	 6.962963e+00	 9.882494e+00
0	 1.851852e+00	 7.037037e+00	 9.887152e+00
0	 1.481481e+00	 7.037037e+00	 9.849207e+00
0	 1.481481e+00	 7.111111e+00	 9.855769e+00
0	 1.481481e+00	 7.185185e+00	 9.862202e+00
0	 1.481481e+00	 7.259259e+00	 9.868508e+00
0	 1.481481e+00	 7.333333e+00	 9.874692e+00
0	 1.481481e+00	 7.407407e+00	 9.880757e+00
0	 1.555556e+00	 7.037037e+00	 9.856509e+00
0	 1.555556e+00	 7.111111e+00	 9.862692e+00
0	 1.555556e+00	 7.185185e+00	 9.868758e+00
0	 1.555556e+00	 7.259259e+00	 9.874711e+00
0	 1.555556e+00	 7.333333e+00	 9.880555e+00
0	 1.555556e+00	 7.407407e+00	 9.886294e+00
0	 1.629630e+00	 7.037037e+00	 9.863990e+00
0	 1.629630e+00	 7.111111e+00	 9.869787e+00
0	 1.629630e+00	 7.185185e+00	 9.875479e+00
0	 1.629630e+00	 7.259259e+00	 9.881072e+00
0	 1.629630e+00	 7.333333e+00	 9.886569e+00
0	 1.629630e+00	 7.407407e+00	 9.891976e+00
0	 1.703704e+00	 7.037037e+00	 9.871615e+00
0	 1.703704e+00	 7.111111e+00	 9.877019e+00
0	 1.703704e+00	 7.185185e+00	 9.882332e+00
0	 1.703704e+00	 7.259259e+00	 9.887559e+00
0	 1.703704e+00	 7.333333e+00	 9.892705e+00
0	 1.703704e+00	 7.407407e+00	 9.897774e+00
0	 1.777778e+00	 7.037037e+00	 9.879347e+00
0	 1.777778e+00	 7.111111e+00	 9.884356e+00
0	 1.777778e+00	 7.185185e+00	 9.889286e+00
0	 1.777778e+00	 7.259259e+00	 9.894143e+00
0	 1.777778e+00	 7.333333e+00	 9.898933e+00
0	 1.777778e+00	 7.407407e+00	 9.903661e+00
0	 1.851852e+00	 7.037037e+00	 9.887152e+00
0	 1.851852e+00	 7.111111e+00	 9.891762e+00
0	 1.851852e+00	 7.185185e+00	 9.896307e+00
0	 1.851852e+00	 7.259259e+00	 9.900793e+00
0	 1.851852e+00	 7.333333e+00	 9.905226e+00
0	 1.851852e+00	 7.407407e+00	 9.909610e+00
0	 1.481481e+00	 7.407407e+00	 9.880757e+00
0	 1.481481e+00	 7.481481e+00	 9.886694e+00
0	 1.481481e+00	 7.555556e+00	 9.892495e+00
0	 1.481481e+00	 7.629630e+00	 9.898164e+00
0	 1.481481e+00	 7.703704e+00	 9.903706e+00
0	 1.481481e+00	 7.777778e+00	 9.909124e+00
0	 1.555556e+00	 7.407407e+00	 9.886294e+00
0	 1.555556e+00	 7.481481e+00	 9.891918e+00
0	 1.555556e+00	 7.555556e+00	 9.897418e+00
0	 1.555556e+00	 7.629630e+00	 9.902797e+00
0	 1.555556e+00	 7.703704e+00	 9.908060e+00
0	 1.555556e+00	 7.777778e+00	 9.913211e+00
0	 1.629630e+00	 7.407407e+00	 9.891976e+00
0	 1.629630e+00	 7.481481e+00	 9.897280e+00
0	 1.629630e+00	 7.555556e+00	 9.902471e+00
0	 1.629630e+00	 7.629630e+00	 9.907554e+00
0	 1.629630e+00	 7.703704e+00	 9.912531e+00
0	 1.629630e+00	 7.777778e+00	 9.917408e+00
0	 1.703704e+00	 7.407407e+00	 9.897774e+00
0	 1.703704e+00	 7.481481e+00	 9.902753e+00
0	 1.703704e+00	 7.555556e+00	 9.907631e+00
0	 1.703704e+00	 7.629630e+00	 9.912412e+00
0	 1.703704e+00	 7.703704e+00	 9.917099e+00
0	 1.703704e+00	 7.777778e+00	 9.921698e+00
0	 1.777778e+00	 7.407407e+00	 9.903661e+00
0	 1.777778e+00	 7.481481e+00	 9.908312e+00
0	 1.777778e+00	 7.555556e+00	 9.912874e+00
0	 1.777778e+00	 7.629630e+00	 9.917349e+00
0	 1.777778e+00	 7.703704e+00	 9.921742e+00
0	 1.777778e+00	 7.777778e+00	 9.926058e+00
0	 1.851852e+00	 7.407407e+00	 9.909610e+00
0	 1.851852e+00	 7.481481e+00	 9.913931e+00
0	 1.851852e+00	 7.555556e+00	 9.918174e+00
0	 1.851852e+00	 7.629630e+00	 9.922341e+00
0	 1.851852e+00	 7.703704e+00	 9.926438e+00
0	 1.851852e+00	 7.777778e+00	 9.930470e+00
0	 1.481481e+00	 7.777778e+00	 9.909124e+00
0	 1.481481e+00	 7.851852e+00	 9.914411e+00
0	 1.481481e+00	 7.925926e+00	 9.919559e+00
0	 1.481481e+00	 8.000000e+00	 9.924573e+00
0	 1.481481e+00	 8.074074e+00	 9.929458e+00
0	 1.481481e+00	 8.148148e+00	 9.934217e+00
0	 1.555556e+00	 7.777778e+00	 9.913211e+00
0	 1.555556e+00	 7.851852e+00	 9.918241e+00
0	 1.555556e+00	 7.925926e+00	 9.923141e+00
0	 1.555556e+00	 8.000000e+00	 9.927916e+00
0	 1.555556e+00	 8.074074e+00	 9.932571e+00
0	 1.555556e+00	 8.148148e+00	 9.937110e+00
0	 1.629630e+00	 7.777778e+00	 9.917408e+00
0	 1.629630e+00	 7.851852e+00	 9.922175e+00
0	 1.629630e+00	 7.925926e+00	 9.926822e+00
0	 1.629630e+00	 8.000000e+00	 9.931352e+00
0	 1.629630e+00	 8.074074e+00	 9.935771e+00
0	 1.629630e+00	 8.148148e+00	 9.940085e+00
0	 1.703704e+00	 7.777778e+00	 9.921698e+00
0	 1.703704e+00	 7.851852e+00	 9.926196e+00
0	 1.703704e+00	 7.925926e+00	 9.930584e+00
0	 1.703704e+00	 8.000000e+00	 9.934865e+00
0	 1.703704e+00	 8.074074e+00	 9.939044e+00
0	 1.703704e+00	 8.148148e+00	 9.943127e+00
0	 1.777778e+00	 7.777778e+00	 9.926058e+00
0	 1.777778e+00	 7.851852e+00	 9.930285e+00
0	 1.777778e+00	 7.925926e+00	 9.934409e+00
0	 1.777778e+00	 8.000000e+00	 9.938437e+00
0	 1.777778e+00	 8.074074e+00	 9.942373e+00
0	 1.777778e+00	 8.148148e+00	 9.946222e+00
0	 1.851852e+00	 7.777778e+00	 9.930470e+00
0	 1.851852e+00	 7.851852e+00	 9.934421e+00
0	 1.851852e+00	 7.925926e+00	 9.938281e+00
0	 1.851852e+00	 8.000000e+00	 9.942053e+00
0	 1.851852e+00	 8.074074e+00	 9.945742e+00
0	 1.851852e+00	 8.148148e+00	 9.949354e+00
0	 1.481481e+00	 8.148148e+00	 9.934217e+00
0	 1.481481e+00	 8.222222e+00	 9.938839e+00
0	 1.481481e+00	 8.296296e+00	 9.943312e+00
0	 1.481481e+00	 8.370370e+00	 9.947642e+00
0	 1.481481e+00	 8.444444e+00	 9.951834e+00
0	 1.481481e+00	 8.518519e+00	 9.955894e+00
0	 1.555556e+00	 8.148148e+00	 9.937110e+00
0	 1.555556e+00	 8.222222e+00	 9.941520e+00
0	 1.555556e+00	 8.296296e+00	 9.945790e+00
0	 1.555556e+00	 8.370370e+00	 9.949924e+00
0	 1.555556e+00	 8.444444e+00	 9.953928e+00
0	 1.555556e+00	 8.518519e+00	 9.957808e+00
0	 1.629630e+00	 8.148148e+00	 9.940085e+00
0	 1.629630e+00	 8.222222e+00	 9.944278e+00
0	 1.629630e+00	 8.296296e+00	 9.948339e+00
0	 1.629630e+00	 8.370370e+00	 9.952272e+00
0	 1.629630e+00	 8.444444e+00	 9.956084e+00
0	 1.629630e+00	 8.518519e+00	 9.959780e+00
0	 1.703704e+00	 8.148148e+00	 9.943127e+00
0	 1.703704e+00	 8.222222e+00	 9.947099e+00
0	 1.703704e+00	 8.296296e+00	 9.950947e+00
0	 1.703704e+00	 8.370370e+00	 9.954675e+00
0	 1.703704e+00	 8.444444e+00	 9.958290e+00
0	 1.703704e+00	 8.518519e+00	 9.961797e+00
0	 1.777778e+00	 8.148148e+00	 9.946222e+00
0	 1.777778e+00	 8.222222e+00	 9.949969e+00
0	 1.777778e+00	 8.296296e+00	 9.953600e+00
0	 1.777778e+00	 8.370370e+00	 9.957120e+00
0	 1.777778e+00	 8.444444e+00	 9.960535e+00
0	 1.777778e+00	 8.518519e+00	 9.963850e+00
0	 1.851852e+00	 8.148148e+00	 9.949354e+00
0	 1.851852e+00	 8.222222e+00	 9.952874e+00
0	 1.851852e+00	 8.296296e+00	 9.956285e+00
0	 1.851852e+00	 8.370370e+00	 9.959595e+00
0	 1.851852e+00	 8.444444e+00	 9.962807e+00
0	 1.851852e+00	 8.518519e+00	 9.965927e+00
0	 1.481481e+00	 8.518519e+00	 9.955894e+00
0	 1.481481e+00	 8.592593e+00	 9.959805e+00
0	 1.481481e+00	 8.666667e+00	 9.963552e+00
0	 1.481481e+00	 8.740741e+00	 9.967141e+00
0	 1.481481e+00	 8.814815e+00	 9.970578e+00
0	 1.481481e+00	 8.888889e+00	 9.973872e+00
0	 1.555556e+00	 8.518519e+00	 9.957808e+00
0	 1.555556e+00	 8.592593e+00	 9.961547e+00
0	 1.555556e+00	 8.666667e+00	 9.965129e+00
0	 1.555556e+00	 8.740741e+00	 9.968561e+00
0	 1.555556e+00	 8.814815e+00	 9.971849e+00
0	 1.555556e+00	 8.888889e+00	 9.975000e+00
0	 1.629630e+00	 8.518519e+00	 9.959780e+00
0	 1.629630e+00	 8.592593e+00	 9.963342e+00
0	 1.629630e+00	 8.666667e+00	 9.966755e+00
0	 1.629630e+00	 8.740741e+00	 9.970026e+00
0	 1.629630e+00	 8.814815e+00	 9.973160e+00
0	 1.629630e+00	 8.888889e+00	 9.976165e+00
0	 1.703704e+00	 8.518519e+00	 9.961797e+00
0	 1.703704e+00	 8.592593e+00	 9.965179e+00
0	 1.703704e+00	 8.666667e+00	 9.968419e+00
0	 1.703704e+00	 8.740741e+00	 9.971525e+00
0	 1.703704e+00	 8.814815e+00	 9.974503e+00
0	 1.703704e+00	 8.888889e+00	 9.977358e+00
0	 1.777778e+00	 8.518519e+00	 9.963850e+00
0	 1.777778e+00	 8.592593e+00	 9.967048e+00
0	 1.777778e+00	 8.666667e+00	 9.970113e+00
0	 1.777778e+00	 8.740741e+00	 9.973051e+00
0	 1.777778e+00	 8.814815e+00	 9.975869e+00
0	 1.777778e+00	 8.888889e+00	 9.978571e+00
0	 1.851852e+00	 8.518519e+00	 9.965927e+00
0	 1.851852e+00	 8.592593e+00	 9.968939e+00
0	 1.851852e+00	 8.666667e+00	 9.971826e+00
0	 1.851852e+00	 8.740741e+00	 9.974594e+00
0	 1.851852e+00	 8.814815e+00	 9.977249e+00
0	 1.851852e+00	 8.888889e+00	 9.979797e+00
0	 1.481481e+00	 8.888889e+00	 9.973872e+00
0	 1.481481e+00	 8.962963e+00	 9.976998e+00
0	 1.481481e+00	 9.037037e+00	 9.979937e+00
0	 1.481481e+00	 9.111111e+00	 9.982695e+00
0	 1.481481e+00	 9.185185e+00	 9.985283e+00
0	 1.481481e+00	 9.259259e+00	 9.987707e+00
0	 1.555556e+00	 8.888889e+00	 9.975000e+00
0	 1.555556e+00	 8.962963e+00	 9.977992e+00
0	 1.555556e+00	 9.037037e+00	 9.980804e+00
0	 1.555556e+00	 9.111111e+00	 9.983443e+00
0	 1.555556e+00	 9.185185e+00	 9.985919e+00
0	 1.555556e+00	 9.259259e+00	 9.988239e+00
0	 1.629630e+00	 8.888889e+00	 9.976165e+00
0	 1.629630e+00	 8.962963e+00	 9.979018e+00
0	 1.629630e+00	 9.037037e+00	 9.981700e+00
0	 1.629630e+00	 9.111111e+00	 9.984217e+00
0	 1.629630e+00	 9.185185e+00	 9.986578e+00
0	 1.629630e+00	 9.259259e+00	 9.988791e+00
0	 1.703704e+00	 8.888889e+00	 9.977358e+00
0	 1.703704e+00	 8.962963e+00	 9.980070e+00
0	 1.703704e+00	 9.037037e+00	 9.982618e+00
0	 1.703704e+00	 9.111111e+00	 9.985011e+00
0	 1.703704e+00	 9.185185e+00	 9.987255e+00
0	 1.703704e+00	 9.259259e+00	 9.989358e+00
0	 1.777778e+00	 8.888889e+00	 9.978571e+00
0	 1.777778e+00	 8.962963e+00	 9.981139e+00
0	 1.777778e+00	 9.037037e+00	 9.983552e+00
0	 1.777778e+00	 9.111111e+00	 9.985817e+00
0	 1.777778e+00	 9.185185e+00	 9.987942e+00
0	 1.777778e+00	 9.259259e+00	 9.989933e+00
0	 1.851852e+00	 8.888889e+00	 9.979797e+00
0	 1.851852e+00	 8.962963e+00	 9.982218e+00
0	 1.851852e+00	 9.037037e+00	 9.984494e+00
0	 1.851852e+00	 9.111111e+00	 9.986629e+00
0	 1.851852e+00	 9.185185e+00	 9.988633e+00
0	 1.851852e+00	 9.259259e+00	 9.990510e+00
0	 1.481481e+00	 9.259259e+00	 9.987707e+00
0	 1.481481e+00	 9.333333e+00	 9.989938e+00
0	 1.481481e+00	 9.407407e+00	 9.991944e+00
0	 1.481481e+00	 9.481481e+00	 9.993737e+00
0	 1.481481e+00	 9.555556e+00	 9.995328e+00
0	 1.481481e+00	 9.629630e+00	 9.996727e+00
0	 1.555556e+00	 9.259259e+00	 9.988239e+00
0	 1.555556e+00	 9.333333e+00	 9.990373e+00
0	 1.555556e+00	 9.407407e+00	 9.992292e+00
0	 1.555556e+00	 9.481481e+00	 9.994008e+00
0	 1.555556e+00	 9.555556e+00	 9.995529e+00
0	 1.555556e+00	 9.629630e+00	 9.996866e+00
0	 1.629630e+00	 9.259259e+00	 9.988791e+00
0	 1.629630e+00	 9.333333e+00	 9.990826e+00
0	 1.629630e+00	 9.407407e+00	 9.992657e+00
0	 1.629630e+00	 9.481481e+00	 9.994293e+00
0	 1.629630e+00	 9.555556e+00	 9.995743e+00
0	 1.629630e+00	 9.629630e+00	 9.997017e+00
0	 1.703704e+00	 9.259259e+00	 9.989358e+00
0	 1.703704e+00	 9.333333e+00	 9.991292e+00
0	 1.703704e+00	 9.407407e+00	 9.993032e+00
0	 1.703704e+00	 9.481481e+00	 9.994586e+00
0	 1.703704e+00	 9.555556e+00	 9.995964e+00
0	 1.703704e+00	 9.629630e+00	 9.997175e+00
0	 1.777778e+00	 9.259259e+00	 9.989933e+00
0	 1.777778e+00	 9.333333e+00	 9.991765e+00
0	 1.777778e+00	 9.407407e+00	 9.993412e+00
0	 1.777778e+00	 9.481481e+00	 9.994883e+00
0	 1.777778e+00	 9.555556e+00	 9.996187e+00
0	 1.777778e+00	 9.629630e+00	 9.997332e+00
0	 1.851852e+00	 9.259259e+00	 9.990510e+00
0	 1.851852e+00	 9.333333e+00	 9.992237e+00
0	 1.851852e+00	 9.407407e+00	 9.993790e+00
0	 1.851852e+00	 9.481481e+00	 9.995176e+00
0	 1.851852e+00	 9.555556e+00	 9.996405e+00
0	 1.851852e+00	 9.629630e+00	 9.997483e+00
0	 1.481481e+00	 9.629630e+00	 9.996727e+00
0	 1.481481e+00	 9.703704e+00	 9.997895e+00
0	 1.481481e+00	 9.777778e+00	 9.998796e+00
0	 1.481481e+00	 9.851852e+00	 9.999444e+00
0	 1.481481e+00	 9.925926e+00	 9.999851e+00
0	 1.481481e+00	 1.000000e+01	 1.000003e+01
0	 1.555556e+00	 9.629630e+00	 9.996866e+00
0	 1.555556e+00	 9.703704e+00	 9.997983e+00
0	 1.555556e+00	 9.777778e+00	 9.998844e+00
0	 1.555556e+00	 9.851852e+00	 9.999463e+00
0	 1.555556e+00	 9.925926e+00	 9.999851e+00
0	 1.555556e+00	 1.000000e+01	 1.000002e+01
0	 1.629630e+00	 9.629630e+00	 9.997017e+00
0	 1.629630e+00	 9.703704e+00	 9.998082e+00
0	 1.629630e+00	 9.777778e+00	 9.998903e+00
0	 1.629630e+00	 9.851852e+00	 9.999492e+00
0	 1.629630e+00	 9.925926e+00	 9.999862e+00
0	 1.629630e+00	 1.000000e+01	 1.000002e+01
0	 1.703704e+00	 9.629630e+00	 9.997175e+00
0	 1.703704e+00	 9.703704e+00	 9.998185e+00
0	 1.703704e+00	 9.777778e+00	 9.998965e+00
0	 1.703704e+00	 9.851852e+00	 9.999525e+00
0	 1.703704e+00	 9.925926e+00	 9.999876e+00
0	 1.703704e+00	 1.000000e+01	 1.000003e+01
0	 1.777778e+00	 9.629630e+00	 9.997332e+00
0	 1.777778e+00	 9.703704e+00	 9.998287e+00
0	 1.777778e+00	 9.777778e+00	 9.999025e+00
0	 1.777778e+00	 9.851852e+00	 9.999555e+00
0	 1.777778e+00	 9.925926e+00	 9.999886e+00
0	 1.777778e+00	 1.000000e+01	 1.000003e+01
0	 1.851852e+00	 9.629630e+00	 9.997483e+00
0	 1.851852e+00	 9.703704e+00	 9.998382e+00
0	 1.851852e+00	 9.777778e+00	 9.999077e+00
0	 1.851852e+00	 9.851852e+00	 9.999575e+00
0	 1.851852e+00	 9.925926e+00	 9.999887e+00
0	 1.851852e+00	 1.000000e+01	 1.000002e+01
0	 1.851852e+00	 0.000000e+00	 8.970295e+00
0	 1.851852e+00	 7.407407e-02	 8.859399e+00
0	 1.851852e+00	 1.481481e-01	 8.951566e+00
0	 1.851852e+00	 2.222222e-01	 9.235387e+00
0	 1.851852e+00	 2.962963e-01	 9.699453e+00
0	 1.851852e+00	 3.703704e-01	 1.033236e+01
0	 1.925926e+00	 0.000000e+00	 1.044120e+01
0	 1.925926e+00	 7.407407e-02	 1.035339e+01
0	 1.925926e+00	 1.481481e-01	 1.040214e+01
0	 1.925926e+00	 2.222222e-01	 1.058612e+01
0	 1.925926e+00	 2.962963e-01	 1.090397e+01
0	 1.925926e+00	 3.703704e-01	 1.135435e+01
0	 2.000000e+00	 0.000000e+00	 1.144183e+01
0	 2.000000e+00	 7.407407e-02	 1.140667e+01
0	 2.000000e+00	 1.481481e-01	 1.144133e+01
0	 2.000000e+00	 2.222222e-01	 1.155087e+01
0	 2.000000e+00	 2.962963e-01	 1.174031e+01
0	 2.000000e+00	 3.703704e-01	 1.201470e+01
0	 2.074074e+00	 0.000000e+00	 1.201088e+01
0	 2.074074e+00	 7.407407e-02	 1.203783e+01
0	 2.074074e+00	 1.481481e-01	 1.207675e+01
0	 2.074074e+00	 2.222222e-01	 1.213539e+01
0	 2.074074e+00	 2.962963e-01	 1.222152e+01
0	 2.074074e+00	 3.703704e-01	 1.234288e+01
0	 2.148148e+00	 0.000000e+00	 1.218703e+01
0	 2.148148e+00	 7.407407e-02	 1.226545e+01
0	 2.148148e+00	 1.481481e-01	 1.231600e+01
0	 2.148148e+00	 2.222222e-01	 1.234547e+01
0	 2.148148e+00	 2.962963e-01	 1.236067e+01
0	 2.148148e+00	 3.703704e-01	 1.236837e+01
0	 2.222222e+00	 0.000000e+00	 1.200897e+01
0	 2.222222e+00	 7.407407e-02	 1.210813e+01
0	 2.222222e+00	 1.481481e-01	 1.216671e+01
0	 2.222222e+00	 2.222222e-01	 1.218688e+01
0	 2.222222e+00	 2.962963e-01	 1.217081e+01
0	 2.222222e+00	 3.703704e-01	 1.212064e+01
0	 1.851852e+00	 3.703704e-01	 1.033236e+01
0	 1.851852e+00	 4.444444e-01	 1.099703e+01
0	 1.851852e+00	 5.185185e-01	 1.155477e+01
0	 1.851852e+00	 5.925926e-01	 1.199176e+01
0	 1.851852e+00	 6.666667e-01	 1.229415e+01
0	 1.851852e+00	 7.407407e-01	 1.244811e+01
0	 1.925926e+00	 3.703704e-01	 1.135435e+01
0	 1.925926e+00	 4.444444e-01	 1.182130e+01
0	 1.925926e+00	 5.185185e-01	 1.218214e+01
0	 1.925926e+00	 5.925926e-01	 1.242544e+01
0	 1.925926e+00	 6.666667e-01	 1.253973e+01
0	 1.925926e+00	 7.407407e-01	 1.251358e+01
0	 2.000000e+00	 3.703704e-01	 1.201470e+01
0	 2.000000e+00	 4.444444e-01	 1.229638e+01
0	 2.000000e+00	 5.185185e-01	 1.249847e+01
0	 2.000000e+00	 5.925926e-01	 1.261220e+01
0	 2.000000e+00	 6.666667e-01	 1.262877e+01
0	 2.000000e+00	 7.407407e-01	 1.253940e+01
0	 2.074074e+00	 3.703704e-01	 1.234288e+01
0	 2.074074e+00	 4.444444e-01	 1.246640e+01
0	 2.074074e+00	 5.185185e-01	 1.254993e+01
0	 2.074074e+00	 5.925926e-01	 1.258762e+01
0	 2.074074e+00	 6.666667e-01	 1.257361e+01
0	 2.074074e+00	 7.407407e-01	 1.250205e+01
0	 2.148148e+00	 3.703704e-01	 1.236837e+01
0	 2.148148e+00	 4.444444e-01	 1.237550e+01
0	 2.148148e+00	 5.185185e-01	 1.238269e+01
0	 2.148148e+00	 5.925926e-01	 1.238727e+01
0	 2.148148e+00	 6.666667e-01	 1.238660e+01
0	 2.148148e+00	 7.407407e-01	 1.237801e+01
0	 2.222222e+00	 3.703704e-01	 1.212064e+01
0	 2.222222e+00	 4.444444e-01	 1.206782e+01
0	 2.222222e+00	 5.185185e-01	 1.204291e+01
0	 2.222222e+00	 5.925926e-01	 1.204672e+01
0	 2.222222e+00	 6.666667e-01	 1.208006e+01
0	 2.222222e+00	 7.407407e-01	 1.214376e+01
0	 1.851852e+00	 7.407407e-01	 1.244811e+01
0	 1.851852e+00	 8.148148e-01	 1.250383e+01
0	 1.851852e+00	 8.888889e-01	 1.252464e+01
0	 1.851852e+00	 9.629630e-01	 1.251643e+01
0	 1.851852e+00	 1.037037e+00	 1.248510e+01
0	 1.851852e+00	 1.111111e+00	 1.243656e+01
0	 1.925926e+00	 7.407407e-01	 1.251358e+01
0	 1.925926e+00	 8.148148e-01	 1.241771e+01
0	 1.925926e+00	 8.888889e-01	 1.233615e+01
0	 1.925926e+00	 9.629630e-01	 1.227743e+01
0	 1.925926e+00	 1.037037e+00	 1.225005e+01
0	 1.925926e+00	 1.111111e+00	 1.226256e+01
0	 2.000000e+00	 7.407407e-01	 1.253940e+01
0	 2.000000e+00	 8.148148e-01	 1.240264e+01
0	 2.000000e+00	 8.888889e-01	 1.228945e+01
0	 2.000000e+00	 9.629630e-01	 1.220961e+01
0	 2.000000e+00	 1.037037e+00	 1.217294e+01
0	 2.000000e+00	 1.111111e+00	 1.218921e+01
0	 2.074074e+00	 7.407407e-01	 1.250205e+01
0	 2.074074e+00	 8.148148e-01	 1.240049e+01
0	 2.074074e+00	 8.888889e-01	 1.230687e+01
0	 2.074074e+00	 9.629630e-01	 1.223093e+01
0	 2.074074e+00	 1.037037e+00	 1.218239e+01
0	 2.074074e+00	 1.111111e+00	 1.217098e+01
0	 2.148148e+00	 7.407407e-01	 1.237801e+01
0	 2.148148e+00	 8.148148e-01	 1.235310e+01
0	 2.148148e+00	 8.888889e-01	 1.231077e+01
0	 2.148148e+00	 9.629630e-01	 1.225932e+01
0	 2.148148e+00	 1.037037e+00	 1.220707e+01
0	 2.148148e+00	 1.111111e+00	 1.216231e+01
0	 2.222222e+00	 7.407407e-01	 1.214376e+01
0	 2.222222e+00	 8.148148e-01	 1.220234e+01
0	 2.222222e+00	 8.888889e-01	 1.222348e+01
0	 2.222222e+00	 9.629630e-01	 1.221272e+01
0	 2.222222e+00	 1.037037e+00	 1.217561e+01
0	 2.222222e+00	 1.111111e+00	 1.211768e+01
0	 1.851852e+00	 1.111111e+00	 1.243656e+01
0	 1.851852e+00	 1.185185e+00	 1.237301e+01
0	 1.851852e+00	 1.259259e+00	 1.229604e+01
0	 1.851852e+00	 1.333333e+00	 1.221064e+01
0	 1.851852e+00	 1.407407e+00	 1.212181e+01
0	 1.851852e+00	 1.481481e+00	 1.203452e+01
0	 1.925926e+00	 1.111111e+00	 1.226256e+01
0	 1.925926e+00	 1.185185e+00	 1.228049e+01
0	 1.925926e+00	 1.259259e+00	 1.226567e+01
0	 1.925926e+00	 1.333333e+00	 1.222098e+01
0	 1.925926e+00	 1.407407e+00	 1.214931e+01
0	 1.925926e+00	 1.481481e+00	 1.205357e+01
0	 2.000000e+00	 1.111111e+00	 1.218921e+01
0	 2.000000e+00	 1.185185e+00	 1.221812e+01
0	 2.000000e+00	 1.259259e+00	 1.221362e+01
0	 2.000000e+00	 1.333333e+00	 1.217695e+01
0	 2.000000e+00	 1.407407e+00	 1.210931e+01
0	 2.000000e+00	 1.481481e+00	 1.201193e+01
0	 2.074074e+00	 1.111111e+00	 1.217098e+01
0	 2.074074e+00	 1.185185e+00	 1.216987e+01
0	 2.074074e+00	 1.259259e+00	 1.214576e+01
0	 2.074074e+00	 1.333333e+00	 1.209862e+01
0	 2.074074e+00	 1.407407e+00	 1.202840e+01
0	 2.074074e+00	 1.481481e+00	 1.193510e+01
0	 2.148148e+00	 1.111111e+00	 1.216231e+01
0	 2.148148e+00	 1.185185e+00	 1.211974e+01
0	 2.148148e+00	 1.259259e+00	 1.206795e+01
0	 2.148148e+00	 1.333333e+00	 1.200605e+01
0	 2.148148e+00	 1.407407e+00	 1.193320e+01
0	 2.148148e+00	 1.481481e+00	 1.184853e+01
0	 2.222222e+00	 1.111111e+00	 1.211768e+01
0	 2.222222e+00	 1.185185e+00	 1.205174e+01
0	 2.222222e+00	 1.259259e+00	 1.198604e+01
0	 2.222222e+00	 1.333333e+00	 1.191932e+01
0	 2.222222e+00	 1.407407e+00	 1.185030e+01
0	 2.222222e+00	 1.481481e+00	 1.177770e+01
0	 1.851852e+00	 1.481481e+00	 1.203452e+01
0	 1.851852e+00	 1.555556e+00	 1.193983e+01
0	 1.851852e+00	 1.629630e+00	 1.182635e+01
0	 1.851852e+00	 1.703704e+00	 1.169537e+01
0	 1.851852e+00	 1.777778e+00	 1.154817e+01
0	 1.851852e+00	 1.851852e+00	 1.138606e+01
0	 1.925926e+00	 1.481481e+00	 1.205357e+01
0	 1.925926e+00	 1.555556e+00	 1.194490e+01
0	 1.925926e+00	 1.629630e+00	 1.183114e+01
0	 1.925926e+00	 1.703704e+00	 1.171014e+01
0	 1.925926e+00	 1.777778e+00	 1.157978e+01
0	 1.925926e+00	 1.851852e+00	 1.143792e+01
0	 2.000000e+00	 1.481481e+00	 1.201193e+01
0	 2.000000e+00	 1.555556e+00	 1.190342e+01
0	 2.000000e+00	 1.629630e+00	 1.179873e+01
0	 2.000000e+00	 1.703704e+00	 1.169367e+01
0	 2.000000e+00	 1.777778e+00	 1.158402e+01
0	 2.000000e+00	 1.851852e+00	 1.146558e+01
0	 2.074074e+00	 1.481481e+00	 1.193510e+01
0	 2.074074e+00	 1.555556e+00	 1.183605e+01
0	 2.074074e+00	 1.629630e+00	 1.174536e+01
0	 2.074074e+00	 1.703704e+00	 1.165808e+01
0	 2.074074e+00	 1.777778e+00	 1.156926e+01
0	 2.074074e+00	 1.851852e+00	 1.147398e+01
0	 2.148148e+00	 1.481481e+00	 1.184853e+01
0	 2.148148e+00	 1.555556e+00	 1.176350e+01
0	 2.148148e+00	 1.629630e+00	 1.168726e+01
0	 2.148148e+00	 1.703704e+00	 1.161549e+01
0	 2.148148e+00	 1.777778e+00	 1.154385e+01
0	 2.148148e+00	 1.851852e+00	 1.146803e+01
0	 2.222222e+00	 1.481481e+00	 1.177770e+01
0	 2.222222e+00	 1.555556e+00	 1.170643e+01
0	 2.222222e+00	 1.629630e+00	 1.164066e+01
0	 2.222222e+00	 1.703704e+00	 1.157801e+01
0	 2.222222e+00	 1.777778e+00	 1.151613e+01
0	 2.222222e+00	 1.851852e+00	 1.145265e+01
0	 1.851852e+00	 1.851852e+00	 1.138606e+01
0	 1.851852e+00	 1.925926e+00	 1.123088e+01
0	 1.851852e+00	 2.000000e+00	 1.110044e+01
0	 1.851852e+00	 2.074074e+00	 1.098996e+01
0	 1.851852e+00	 2.148148e+00	 1.089465e+01
0	 1.851852e+00	 2.222222e+00	 1.080972e+01
0	 1.925926e+00	 1.851852e+00	 1.143792e+01
0	 1.925926e+00	 1.925926e+00	 1.129769e+01
0	 1.925926e+00	 2.000000e+00	 1.117269e+01
0	 1.925926e+00	 2.074074e+00	 1.106150e+01
0	 1.925926e+00	 2.148148e+00	 1.096269e+01
0	 1.925926e+00	 2.222222e+00	 1.087483e+01
0	 2.000000e+00	 1.851852e+00	 1.146558e+01
0	 2.000000e+00	 1.925926e+00	 1.134445e+01
0	 2.000000e+00	 2.000000e+00	 1.123009e+01
0	 2.000000e+00	 2.074074e+00	 1.112330e+01
0	 2.000000e+00	 2.148148e+00	 1.102491e+01
0	 2.000000e+00	 2.222222e+00	 1.093573e+01
0	 2.074074e+00	 1.851852e+00	 1.147398e+01
0	 2.074074e+00	 1.925926e+00	 1.137323e+01
0	 2.074074e+00	 2.000000e+00	 1.127263e+01
0	 2.074074e+00	 2.074074e+00	 1.117411e+01
0	 2.074074e+00	 2.148148e+00	 1.107961e+01
0	 2.074074e+00	 2.222222e+00	 1.099106e+01
0	 2.148148e+00	 1.851852e+00	 1.146803e+01
0	 2.148148e+00	 1.925926e+00	 1.138609e+01
0	 2.148148e+00	 2.000000e+00	 1.130032e+01
0	 2.148148e+00	 2.074074e+00	 1.121266e+01
0	 2.148148e+00	 2.148148e+00	 1.112505e+01
0	 2.148148e+00	 2.222222e+00	 1.103945e+01
0	 2.222222e+00	 1.851852e+00	 1.145265e+01
0	 2.222222e+00	 1.925926e+00	 1.138509e+01
0	 2.222222e+00	 2.000000e+00	 1.131317e+01
0	 2.222222e+00	 2.074074e+00	 1.123770e+01
0	 2.222222e+00	 2.148148e+00	 1.115954e+01
0	 2.222222e+00	 2.222222e+00	 1.107952e+01
0	 1.851852e+00	 2.222222e+00	 1.080972e+01
0	 1.851852e+00	 2.296296e+00	 1.072668e+01
0	 1.851852e+00	 2.370370e+00	 1.064197e+01
0	 1.851852e+00	 2.444444e+00	 1.055827e+01
0	 1.851852e+00	 2.518519e+00	 1.047825e+01
0	 1.851852e+00	 2.592593e+00	 1.040458e+01
0	 1.925926e+00	 2.222222e+00	 1.087483e+01
0	 1.925926e+00	 2.296296e+00	 1.079311e+01
0	 1.925926e+00	 2.370370e+00	 1.071396e+01
0	 1.925926e+00	 2.444444e+00	 1.063783e+01
0	 1.925926e+00	 2.518519e+00	 1.056516e+01
0	 1.925926e+00	 2.592593e+00	 1.049639e+01
0	 2.000000e+00	 2.222222e+00	 1.093573e+01
0	 2.000000e+00	 2.296296e+00	 1.085448e+01
0	 2.000000e+00	 2.370370e+00	 1.077862e+01
0	 2.000000e+00	 2.444444e+00	 1.070708e+01
0	 2.000000e+00	 2.518519e+00	 1.063878e+01
0	 2.000000e+00	 2.592593e+00	 1.057264e+01
0	 2.074074e+00	 2.222222e+00	 1.099106e+01
0	 2.074074e+00	 2.296296e+00	 1.091017e+01
0	 2.074074e+00	 2.370370e+00	 1.083605e+01
0	 2.074074e+00	 2.444444e+00	 1.076683e+01
0	 2.074074e+00	 2.518519e+00	 1.070060e+01
0	 2.074074e+00	 2.592593e+00	 1.063550e+01
0	 2.148148e+00	 2.222222e+00	 1.103945e+01
0	 2.148148e+00	 2.296296e+00	 1.095953e+01
0	 2.148148e+00	 2.370370e+00	 1.088633e+01
0	 2.148148e+00	 2.444444e+00	 1.081787e+01
0	 2.148148e+00	 2.518519e+00	 1.075215e+01
0	 2.148148e+00	 2.592593e+00	 1.068717e+01
0	 2.222222e+00	 2.222222e+00	 1.107952e+01
0	 2.222222e+00	 2.296296e+00	 1.100193e+01
0	 2.222222e+00	 2.370370e+00	 1.092957e+01
0	 2.222222e+00	 2.444444e+00	 1.086103e+01
0	 2.222222e+00	 2.518519e+00	 1.079492e+01
0	 2.222222e+00	 2.592593e+00	 1.072984e+01
0	 1.851852e+00	 2.592593e+00	 1.040458e+01
0	 1.851852e+00	 2.666667e+00	 1.033923e+01
0	 1.851852e+00	 2.740741e+00	 1.028103e+01
0	 1.851852e+00	 2.814815e+00	 1.022794e+01
0	 1.851852e+00	 2.888889e+00	 1.017790e+01
0	 1.851852e+00	 2.962963e+00	 1.012889e+01
0	 1.925926e+00	 2.592593e+00	 1.049639e+01
0	 1.925926e+00	 2.666667e+00	 1.043179e+01
0	 1.925926e+00	 2.740741e+00	 1.037086e+01
0	 1.925926e+00	 2.814815e+00	 1.031297e+01
0	 1.925926e+00	 2.888889e+00	 1.025748e+01
0	 1.925926e+00	 2.962963e+00	 1.020375e+01
0	 2.000000e+00	 2.592593e+00	 1.057264e+01
0	 2.000000e+00	 2.666667e+00	 1.050811e+01
0	 2.000000e+00	 2.740741e+00	 1.044556e+01
0	 2.000000e+00	 2.814815e+00	 1.038529e+01
0	 2.000000e+00	 2.888889e+00	 1.032762e+01
0	 2.000000e+00	 2.962963e+00	 1.027286e+01
0	 2.074074e+00	 2.592593e+00	 1.063550e+01
0	 2.074074e+00	 2.666667e+00	 1.057086e+01
0	 2.074074e+00	 2.740741e+00	 1.050785e+01
0	 2.074074e+00	 2.814815e+00	 1.044728e+01
0	 2.074074e+00	 2.888889e+00	 1.038997e+01
0	 2.074074e+00	 2.962963e+00	 1.033672e+01
0	 2.148148e+00	 2.592593e+00	 1.068717e+01
0	 2.148148e+00	 2.666667e+00	 1.062272e+01
0	 2.148148e+00	 2.740741e+00	 1.056048e+01
0	 2.148148e+00	 2.814815e+00	 1.050134e+01
0	 2.148148e+00	 2.888889e+00	 1.044616e+01
0	 2.148148e+00	 2.962963e+00	 1.039583e+01
0	 2.222222e+00	 2.592593e+00	 1.072984e+01
0	 2.222222e+00	 2.666667e+00	 1.066634e+01
0	 2.222222e+00	 2.740741e+00	 1.060618e+01
0	 2.222222e+00	 2.814815e+00	 1.054987e+01
0	 2.222222e+00	 2.888889e+00	 1.049786e+01
0	 2.222222e+00	 2.962963e+00	 1.045066e+01
0	 1.851852e+00	 2.962963e+00	 1.012889e+01
0	 1.851852e+00	 3.037037e+00	 1.008116e+01
0	 1.851852e+00	 3.111111e+00	 1.003718e+01
0	 1.851852e+00	 3.185185e+00	 9.998162e+00
0	 1.851852e+00	 3.259259e+00	 9.965309e+00
0	 1.851852e+00	 3.333333e+00	 9.939834e+00
0	 1.925926e+00	 2.962963e+00	 1.020375e+01
0	 1.925926e+00	 3.037037e+00	 1.015342e+01
0	 1.925926e+00	 3.111111e+00	 1.010879e+01
0	 1.925926e+00	 3.185185e+00	 1.007013e+01
0	 1.925926e+00	 3.259259e+00	 1.003774e+01
0	 1.925926e+00	 3.333333e+00	 1.001189e+01
0	 2.000000e+00	 2.962963e+00	 1.027286e+01
0	 2.000000e+00	 3.037037e+00	 1.022279e+01
0	 2.000000e+00	 3.111111e+00	 1.017875e+01
0	 2.000000e+00	 3.185185e+00	 1.014040e+01
0	 2.000000e+00	 3.259259e+00	 1.010738e+01
0	 2.000000e+00	 3.333333e+00	 1.007936e+01
0	 2.074074e+00	 2.962963e+00	 1.033672e+01
0	 2.074074e+00	 3.037037e+00	 1.028864e+01
0	 2.074074e+00	 3.111111e+00	 1.024579e+01
0	 2.074074e+00	 3.185185e+00	 1.020751e+01
0	 2.074074e+00	 3.259259e+00	 1.017310e+01
0	 2.074074e+00	 3.333333e+00	 1.014188e+01
0	 2.148148e+00	 2.962963e+00	 1.039583e+01
0	 2.148148e+00	 3.037037e+00	 1.035034e+01
0	 2.148148e+00	 3.111111e+00	 1.030864e+01
0	 2.148148e+00	 3.185185e+00	 1.027002e+01
0	 2.148148e+00	 3.259259e+00	 1.023375e+01
0	 2.148148e+00	 3.333333e+00	 1.019910e+01
0	 2.222222e+00	 2.962963e+00	 1.045066e+01
0	 2.222222e+00	 3.037037e+00	 1.040726e+01
0	 2.222222e+00	 3.111111e+00	 1.036602e+01
0	 2.222222e+00	 3.185185e+00	 1.032649e+01
0	 2.222222e+00	 3.259259e+00	 1.028820e+01
0	 2.222222e+00	 3.333333e+00	 1.025067e+01
0	 1.851852e+00	 3.333333e+00	 9.939834e+00
0	 1.851852e+00	 3.407407e+00	 9.919301e+00
0	 1.851852e+00	 3.481481e+00	 9.900107e+00
0	 1.851852e+00	 3.555556e+00	 9.881721e+00
0	 1.851852e+00	 3.629630e+00	 9.863609e+00
0	 1.851852e+00	 3.703704e+00	 9.845237e+00
0	 1.925926e+00	 3.333333e+00	 1.001189e+01
0	 1.925926e+00	 3.407407e+00	 9.989525e+00
0	 1.925926e+00	 3.481481e+00	 9.967390e+00
0	 1.925926e+00	 3.555556e+00	 9.945468e+00
0	 1.925926e+00	 3.629630e+00	 9.923747e+00
0	 1.925926e+00	 3.703704e+00	 9.902213e+00
0	 2.000000e+00	 3.333333e+00	 1.007936e+01
0	 2.000000e+00	 3.407407e+00	 1.005370e+01
0	 2.000000e+00	 3.481481e+00	 1.002822e+01
0	 2.000000e+00	 3.555556e+00	 1.000325e+01
0	 2.000000e+00	 3.629630e+00	 9.979110e+00
0	 2.000000e+00	 3.703704e+00	 9.956129e+00
0	 2.074074e+00	 3.333333e+00	 1.014188e+01
0	 2.074074e+00	 3.407407e+00	 1.011230e+01
0	 2.074074e+00	 3.481481e+00	 1.008357e+01
0	 2.074074e+00	 3.555556e+00	 1.005618e+01
0	 2.074074e+00	 3.629630e+00	 1.003060e+01
0	 2.074074e+00	 3.703704e+00	 1.000732e+01
0	 2.148148e+00	 3.333333e+00	 1.019910e+01
0	 2.148148e+00	 3.407407e+00	 1.016582e+01
0	 2.148148e+00	 3.481481e+00	 1.013443e+01
0	 2.148148e+00	 3.555556e+00	 1.010537e+01
0	 2.148148e+00	 3.629630e+00	 1.007913e+01
0	 2.148148e+00	 3.703704e+00	 1.005614e+01
0	 2.222222e+00	 3.333333e+00	 1.025067e+01
0	 2.222222e+00	 3.407407e+00	 1.021475e+01
0	 2.222222e+00	 3.481481e+00	 1.018176e+01
0	 2.222222e+00	 3.555556e+00	 1.015196e+01
0	 2.222222e+00	 3.629630e+00	 1.012559e+01
0	 2.222222e+00	 3.703704e+00	 1.010292e+01
0	 1.851852e+00	 3.703704e+00	 9.845237e+00
0	 1.851852e+00	 3.777778e+00	 9.827644e+00
0	 1.851852e+00	 3.851852e+00	 9.812444e+00
0	 1.851852e+00	 3.925926e+00	 9.799977e+00
0	 1.851852e+00	 4.000000e+00	 9.790581e+00
0	 1.851852e+00	 4.074074e+00	 9.784594e+00
0	 1.925926e+00	 3.703704e+00	 9.902213e+00
0	 1.925926e+00	 3.777778e+00	 9.882283e+00
0	 1.925926e+00	 3.851852e+00	 9.865405e+00
0	 1.925926e+00	 3.925926e+00	 9.851617e+00
0	 1.925926e+00	 4.000000e+00	 9.840957e+00
0	 1.925926e+00	 4.074074e+00	 9.833460e+00
0	 2.000000e+00	 3.703704e+00	 9.956129e+00
0	 2.000000e+00	 3.777778e+00	 9.935392e+00
0	 2.000000e+00	 3.851852e+00	 9.917666e+00
0	 2.000000e+00	 3.925926e+00	 9.902793e+00
0	 2.000000e+00	 4.000000e+00	 9.890615e+00
0	 2.000000e+00	 4.074074e+00	 9.880974e+00
0	 2.074074e+00	 3.703704e+00	 1.000732e+01
0	 2.074074e+00	 3.777778e+00	 9.986689e+00
0	 2.074074e+00	 3.851852e+00	 9.968557e+00
0	 2.074074e+00	 3.925926e+00	 9.952681e+00
0	 2.074074e+00	 4.000000e+00	 9.938813e+00
0	 2.074074e+00	 4.074074e+00	 9.926707e+00
0	 2.148148e+00	 3.703704e+00	 1.005614e+01
0	 2.148148e+00	 3.777778e+00	 1.003589e+01
0	 2.148148e+00	 3.851852e+00	 1.001741e+01
0	 2.148148e+00	 3.925926e+00	 1.000046e+01
0	 2.148148e+00	 4.000000e+00	 9.984808e+00
0	 2.148148e+00	 4.074074e+00	 9.970231e+00
0	 2.222222e+00	 3.703704e+00	 1.010292e+01
0	 2.222222e+00	 3.777778e+00	 1.008272e+01
0	 2.222222e+00	 3.851852e+00	 1.006355e+01
0	 2.222222e+00	 3.925926e+00	 1.004530e+01
0	 2.222222e+00	 4.000000e+00	 1.002786e+01
0	 2.222222e+00	 4.074074e+00	 1.001112e+01
0	 1.851852e+00	 4.074074e+00	 9.784594e+00
0	 1.851852e+00	 4.148148e+00	 9.780586e+00
0	 1.851852e+00	 4.222222e+00	 9.776861e+00
0	 1.851852e+00	 4.296296e+00	 9.773358e+00
0	 1.851852e+00	 4.370370e+00	 9.770014e+00
0	 1.851852e+00	 4.444444e+00	 9.766767e+00
0	 1.925926e+00	 4.074074e+00	 9.833460e+00
0	 1.925926e+00	 4.148148e+00	 9.827555e+00
0	 1.925926e+00	 4.222222e+00	 9.821702e+00
0	 1.925926e+00	 4.296296e+00	 9.815994e+00
0	 1.925926e+00	 4.370370e+00	 9.810519e+00
0	 1.925926e+00	 4.444444e+00	 9.805369e+00
0	 2.000000e+00	 4.074074e+00	 9.880974e+00
0	 2.000000e+00	 4.148148e+00	 9.872587e+00
0	 2.000000e+00	 4.222222e+00	 9.864399e+00
0	 2.000000e+00	 4.296296e+00	 9.856592e+00
0	 2.000000e+00	 4.370370e+00	 9.849349e+00
0	 2.000000e+00	 4.444444e+00	 9.842853e+00
0	 2.074074e+00	 4.074074e+00	 9.926707e+00
0	 2.074074e+00	 4.148148e+00	 9.915620e+00
0	 2.074074e+00	 4.222222e+00	 9.905117e+00
0	 2.074074e+00	 4.296296e+00	 9.895413e+00
0	 2.074074e+00	 4.370370e+00	 9.886724e+00
0	 2.074074e+00	 4.444444e+00	 9.879265e+00
0	 2.148148e+00	 4.074074e+00	 9.970231e+00
0	 2.148148e+00	 4.148148e+00	 9.956590e+00
0	 2.148148e+00	 4.222222e+00	 9.944023e+00
0	 2.148148e+00	 4.296296e+00	 9.932719e+00
0	 2.148148e+00	 4.370370e+00	 9.922865e+00
0	 2.148148e+00	 4.444444e+00	 9.914650e+00
0	 2.222222e+00	 4.074074e+00	 1.001112e+01
0	 2.222222e+00	 4.148148e+00	 9.995432e+00
0	 2.222222e+00	 4.222222e+00	 9.981283e+00
0	 2.222222e+00	 4.296296e+00	 9.968770e+00
0	 2.222222e+00	 4.370370e+00	 9.957994e+00
0	 2.222222e+00	 4.444444e+00	 9.949056e+00
0	 1.851852e+00	 4.444444e+00	 9.766767e+00
0	 1.851852e+00	 4.518519e+00	 9.764005e+00
0	 1.851852e+00	 4.592593e+00	 9.762203e+00
0	 1.851852e+00	 4.666667e+00	 9.761433e+00
0	 1.851852e+00	 4.740741e+00	 9.761769e+00
0	 1.851852e+00	 4.814815e+00	 9.763281e+00
0	 1.925926e+00	 4.444444e+00	 9.805369e+00
0	 1.925926e+00	 4.518519e+00	 9.800993e+00
0	 1.925926e+00	 4.592593e+00	 9.797775e+00
0	 1.925926e+00	 4.666667e+00	 9.795709e+00
0	 1.925926e+00	 4.740741e+00	 9.794787e+00
0	 1.925926e+00	 4.814815e+00	 9.795002e+00
0	 2.000000e+00	 4.444444e+00	 9.842853e+00
0	 2.000000e+00	 4.518519e+00	 9.837380e+00
0	 2.000000e+00	 4.592593e+00	 9.833047e+00
0	 2.000000e+00	 4.666667e+00	 9.829800e+00
0	 2.000000e+00	 4.740741e+00	 9.827585e+00
0	 2.000000e+00	 4.814815e+00	 9.826347e+00
0	 2.074074e+00	 4.444444e+00	 9.879265e+00
0	 2.074074e+00	 4.518519e+00	 9.873006e+00
0	 2.074074e+00	 4.592593e+00	 9.867727e+00
0	 2.074074e+00	 4.666667e+00	 9.863361e+00
0	 2.074074e+00	 4.740741e+00	 9.859836e+00
0	 2.074074e+00	 4.814815e+00	 9.857084e+00
0	 2.148148e+00	 4.444444e+00	 9.914650e+00
0	 2.148148e+00	 4.518519e+00	 9.907712e+00
0	 2.148148e+00	 4.592593e+00	 9.901528e+00
0	 2.148148e+00	 4.666667e+00	 9.896047e+00
0	 2.148148e+00	 4.740741e+00	 9.891215e+00
0	 2.148148e+00	 4.814815e+00	 9.886979e+00
0	 2.222222e+00	 4.444444e+00	 9.949056e+00
0	 2.222222e+00	 4.518519e+00	 9.941339e+00
0	 2.222222e+00	 4.592593e+00	 9.934160e+00
0	 2.222222e+00	 4.666667e+00	 9.927514e+00
0	 2.222222e+00	 4.740741e+00	 9.921396e+00
0	 2.222222e+00	 4.814815e+00	 9.915803e+00
0	 1.851852e+00	 4.814815e+00	 9.763281e+00
0	 1.851852e+00	 4.888889e+00	 9.765453e+00
0	 1.851852e+00	 4.962963e+00	 9.767732e+00
0	 1.851852e+00	 5.037037e+00	 9.770138e+00
0	 1.851852e+00	 5.111111e+00	 9.772690e+00
0	 1.851852e+00	 5.185185e+00	 9.775407e+00
0	 1.925926e+00	 4.814815e+00	 9.795002e+00
0	 1.925926e+00	 4.888889e+00	 9.795813e+00
0	 1.925926e+00	 4.962963e+00	 9.796722e+00
0	 1.925926e+00	 5.037037e+00	 9.797784e+00
0	 1.925926e+00	 5.111111e+00	 9.799056e+00
0	 1.925926e+00	 5.185185e+00	 9.800596e+00
0	 2.000000e+00	 4.814815e+00	 9.826347e+00
0	 2.000000e+00	 4.888889e+00	 9.825648e+00
0	 2.000000e+00	 4.962963e+00	 9.825136e+00
0	 2.000000e+00	 5.037037e+00	 9.824887e+00
0	 2.000000e+00	 5.111111e+00	 9.824981e+00
0	 2.000000e+00	 5.185185e+00	 9.825493e+00
0	 2.074074e+00	 4.814815e+00	 9.857084e+00
0	 2.074074e+00	 4.888889e+00	 9.854837e+00
0	 2.074074e+00	 4.962963e+00	 9.852928e+00
0	 2.074074e+00	 5.037037e+00	 9.851440e+00
0	 2.074074e+00	 5.111111e+00	 9.850452e+00
0	 2.074074e+00	 5.185185e+00	 9.850047e+00
0	 2.148148e+00	 4.814815e+00	 9.886979e+00
0	 2.148148e+00	 4.888889e+00	 9.883259e+00
0	 2.148148e+00	 4.962963e+00	 9.880054e+00
0	 2.148148e+00	 5.037037e+00	 9.877431e+00
0	 2.148148e+00	 5.111111e+00	 9.875459e+00
0	 2.148148e+00	 5.185185e+00	 9.874206e+00
0	 2.222222e+00	 4.814815e+00	 9.915803e+00
0	 2.222222e+00	 4.888889e+00	 9.910796e+00
0	 2.222222e+00	 4.962963e+00	 9.906466e+00
0	 2.222222e+00	 5.037037e+00	 9.902852e+00
0	 2.222222e+00	 5.111111e+00	 9.899990e+00
0	 2.222222e+00	 5.185185e+00	 9.897918e+00
0	 1.851852e+00	 5.185185e+00	 9.775407e+00
0	 1.851852e+00	 5.259259e+00	 9.778352e+00
0	 1.851852e+00	 5.333333e+00	 9.781587e+00
0	 1.851852e+00	 5.407407e+00	 9.785127e+00
0	 1.851852e+00	 5.481481e+00	 9.788988e+00
0	 1.851852e+00	 5.555556e+00	 9.793187e+00
0	 1.925926e+00	 5.185185e+00	 9.800596e+00
0	 1.925926e+00	 5.259259e+00	 9.802467e+00
0	 1.925926e+00	 5.333333e+00	 9.804695e+00
0	 1.925926e+00	 5.407407e+00	 9.807280e+00
0	 1.925926e+00	 5.481481e+00	 9.810218e+00
0	 1.925926e+00	 5.555556e+00	 9.813509e+00
0	 2.000000e+00	 5.185185e+00	 9.825493e+00
0	 2.000000e+00	 5.259259e+00	 9.826429e+00
0	 2.000000e+00	 5.333333e+00	 9.827737e+00
0	 2.000000e+00	 5.407407e+00	 9.829404e+00
0	 2.000000e+00	 5.481481e+00	 9.831422e+00
0	 2.000000e+00	 5.555556e+00	 9.833779e+00
0	 2.074074e+00	 5.185185e+00	 9.850047e+00
0	 2.074074e+00	 5.259259e+00	 9.850137e+00
0	 2.074074e+00	 5.333333e+00	 9.850577e+00
0	 2.074074e+00	 5.407407e+00	 9.851356e+00
0	 2.074074e+00	 5.481481e+00	 9.852461e+00
0	 2.074074e+00	 5.555556e+00	 9.853881e+00
0	 2.148148e+00	 5.185185e+00	 9.874206e+00
0	 2.148148e+00	 5.259259e+00	 9.873490e+00
0	 2.148148e+00	 5.333333e+00	 9.873085e+00
0	 2.148148e+00	 5.407407e+00	 9.872988e+00
0	 2.148148e+00	 5.481481e+00	 9.873194e+00
0	 2.148148e+00	 5.555556e+00	 9.873700e+00
0	 2.222222e+00	 5.185185e+00	 9.897918e+00
0	 2.222222e+00	 5.259259e+00	 9.896386e+00
0	 2.222222e+00	 5.333333e+00	 9.895128e+00
0	 2.222222e+00	 5.407407e+00	 9.894156e+00
0	 2.222222e+00	 5.481481e+00	 9.893482e+00
0	 2.222222e+00	 5.555556e+00	 9.893119e+00
0	 1.851852e+00	 5.555556e+00	 9.793187e+00
0	 1.851852e+00	 5.629630e+00	 9.797567e+00
0	 1.851852e+00	 5.703704e+00	 9.801974e+00
0	 1.851852e+00	 5.777778e+00	 9.806425e+00
0	 1.851852e+00	 5.851852e+00	 9.810939e+00
0	 1.851852e+00	 5.925926e+00	 9.815533e+00
0	 1.925926e+00	 5.555556e+00	 9.813509e+00
0	 1.925926e+00	 5.629630e+00	 9.816992e+00
0	 1.925926e+00	 5.703704e+00	 9.820525e+00
0	 1.925926e+00	 5.777778e+00	 9.824134e+00
0	 1.925926e+00	 5.851852e+00	 9.827844e+00
0	 1.925926e+00	 5.925926e+00	 9.831681e+00
0	 2.000000e+00	 5.555556e+00	 9.833779e+00
0	 2.000000e+00	 5.629630e+00	 9.836339e+00
0	 2.000000e+00	 5.703704e+00	 9.838994e+00
0	 2.000000e+00	 5.777778e+00	 9.841772e+00
0	 2.000000e+00	 5.851852e+00	 9.844704e+00
0	 2.000000e+00	 5.925926e+00	 9.847818e+00
0	 2.074074e+00	 5.555556e+00	 9.853881e+00
0	 2.074074e+00	 5.629630e+00	 9.855522e+00
0	 2.074074e+00	 5.703704e+00	 9.857313e+00
0	 2.074074e+00	 5.777778e+00	 9.859286e+00
0	 2.074074e+00	 5.851852e+00	 9.861467e+00
0	 2.074074e+00	 5.925926e+00	 9.863888e+00
0	 2.148148e+00	 5.555556e+00	 9.873700e+00
0	 2.148148e+00	 5.629630e+00	 9.874452e+00
0	 2.148148e+00	 5.703704e+00	 9.875417e+00
0	 2.148148e+00	 5.777778e+00	 9.876619e+00
0	 2.148148e+00	 5.851852e+00	 9.878083e+00
0	 2.148148e+00	 5.925926e+00	 9.879833e+00
0	 2.222222e+00	 5.555556e+00	 9.893119e+00
0	 2.222222e+00	 5.629630e+00	 9.893044e+00
0	 2.222222e+00	 5.703704e+00	 9.893238e+00
0	 2.222222e+00	 5.777778e+00	 9.893718e+00
0	 2.222222e+00	 5.851852e+00	 9.894498e+00
0	 2.222222e+00	 5.925926e+00	 9.895595e+00
0	 1.851852e+00	 5.925926e+00	 9.815533e+00
0	 1.851852e+00	 6.000000e+00	 9.820191e+00
0	 1.851852e+00	 6.074074e+00	 9.824892e+00
0	 1.851852e+00	 6.148148e+00	 9.829641e+00
0	 1.851852e+00	 6.222222e+00	 9.834446e+00
0	 1.851852e+00	 6.296296e+00	 9.839313e+00
0	 1.925926e+00	 5.925926e+00	 9.831681e+00
0	 1.925926e+00	 6.000000e+00	 9.835625e+00
0	 1.925926e+00	 6.074074e+00	 9.839642e+00
0	 1.925926e+00	 6.148148e+00	 9.843736e+00
0	 1.925926e+00	 6.222222e+00	 9.847910e+00
0	 1.925926e+00	 6.296296e+00	 9.852166e+00
0	 2.000000e+00	 5.925926e+00	 9.847818e+00
0	 2.000000e+00	 6.000000e+00	 9.851079e+00
0	 2.000000e+00	 6.074074e+00	 9.854433e+00
0	 2.000000e+00	 6.148148e+00	 9.857881e+00
0	 2.000000e+00	 6.222222e+00	 9.861426e+00
0	 2.000000e+00	 6.296296e+00	 9.865070e+00
0	 2.074074e+00	 5.925926e+00	 9.863888e+00
0	 2.074074e+00	 6.000000e+00	 9.866488e+00
0	 2.074074e+00	 6.074074e+00	 9.869193e+00
0	 2.074074e+00	 6.148148e+00	 9.872005e+00
0	 2.074074e+00	 6.222222e+00	 9.874927e+00
0	 2.074074e+00	 6.296296e+00	 9.877962e+00
0	 2.148148e+00	 5.925926e+00	 9.879833e+00
0	 2.148148e+00	 6.000000e+00	 9.881788e+00
0	 2.148148e+00	 6.074074e+00	 9.883855e+00
0	 2.148148e+00	 6.148148e+00	 9.886039e+00
0	 2.148148e+00	 6.222222e+00	 9.888346e+00
0	 2.148148e+00	 6.296296e+00	 9.890782e+00
0	 2.222222e+00	 5.925926e+00	 9.895595e+00
0	 2.222222e+00	 6.000000e+00	 9.896912e+00
0	 2.222222e+00	 6.074074e+00	 9.898348e+00
0	 2.222222e+00	 6.148148e+00	 9.899912e+00
0	 2.222222e+00	 6.222222e+00	 9.901616e+00
0	 2.222222e+00	 6.296296e+00	 9.903468e+00
0	 1.851852e+00	 6.296296e+00	 9.839313e+00
0	 1.851852e+00	 6.370370e+00	 9.844194e+00
0	 1.851852e+00	 6.444444e+00	 9.849046e+00
0	 1.851852e+00	 6.518519e+00	 9.853879e+00
0	 1.851852e+00	 6.592593e+00	 9.858702e+00
0	 1.851852e+00	 6.666667e+00	 9.863525e+00
0	 1.925926e+00	 6.296296e+00	 9.852166e+00
0	 1.925926e+00	 6.370370e+00	 9.856457e+00
0	 1.925926e+00	 6.444444e+00	 9.860738e+00
0	 1.925926e+00	 6.518519e+00	 9.865021e+00
0	 1.925926e+00	 6.592593e+00	 9.869316e+00
0	 1.925926e+00	 6.666667e+00	 9.873635e+00
0	 2.000000e+00	 6.296296e+00	 9.865070e+00
0	 2.000000e+00	 6.370370e+00	 9.868767e+00
0	 2.000000e+00	 6.444444e+00	 9.872477e+00
0	 2.000000e+00	 6.518519e+00	 9.876213e+00
0	 2.000000e+00	 6.592593e+00	 9.879985e+00
0	 2.000000e+00	 6.666667e+00	 9.883807e+00
0	 2.074074e+00	 6.296296e+00	 9.877962e+00
0	 2.074074e+00	 6.370370e+00	 9.881070e+00
0	 2.074074e+00	 6.444444e+00	 9.884216e+00
0	 2.074074e+00	 6.518519e+00	 9.887411e+00
0	 2.074074e+00	 6.592593e+00	 9.890668e+00
0	 2.074074e+00	 6.666667e+00	 9.893999e+00
0	 2.148148e+00	 6.296296e+00	 9.890782e+00
0	 2.148148e+00	 6.370370e+00	 9.893312e+00
0	 2.148148e+00	 6.444444e+00	 9.895905e+00
0	 2.148148e+00	 6.518519e+00	 9.898572e+00
0	 2.148148e+00	 6.592593e+00	 9.901323e+00
0	 2.148148e+00	 6.666667e+00	 9.904170e+00
0	 2.222222e+00	 6.296296e+00	 9.903468e+00
0	 2.222222e+00	 6.370370e+00	 9.905439e+00
0	 2.222222e+00	 6.444444e+00	 9.907497e+00
0	 2.222222e+00	 6.518519e+00	 9.909651e+00
0	 2.222222e+00	 6.592593e+00	 9.911909e+00
0	 2.222222e+00	 6.666667e+00	 9.914279e+00
0	 1.851852e+00	 6.666667e+00	 9.863525e+00
0	 1.851852e+00	 6.740741e+00	 9.868327e+00
0	 1.851852e+00	 6.814815e+00	 9.873086e+00
0	 1.851852e+00	 6.888889e+00	 9.877807e+00
0	 1.851852e+00	 6.962963e+00	 9.882494e+00
0	 1.851852e+00	 7.037037e+00	 9.887152e+00
0	 1.925926e+00	 6.666667e+00	 9.873635e+00
0	 1.925926e+00	 6.740741e+00	 9.877956e+00
0	 1.925926e+00	 6.814815e+00	 9.882251e+00
0	 1.925926e+00	 6.888889e+00	 9.886525e+00
0	 1.925926e+00	 6.962963e+00	 9.890781e+00
0	 1.925926e+00	 7.037037e+00	 9.895025e+00
0	 2.000000e+00	 6.666667e+00	 9.883807e+00
0	 2.000000e+00	 6.740741e+00	 9.887650e+00
0	 2.000000e+00	 6.814815e+00	 9.891483e+00
0	 2.000000e+00	 6.888889e+00	 9.895310e+00
0	 2.000000e+00	 6.962963e+00	 9.899136e+00
0	 2.000000e+00	 7.037037e+00	 9.902964e+00
0	 2.074074e+00	 6.666667e+00	 9.893999e+00
0	 2.074074e+00	 6.740741e+00	 9.897369e+00
0	 2.074074e+00	 6.814815e+00	 9.900744e+00
0	 2.074074e+00	 6.888889e+00	 9.904126e+00
0	 2.074074e+00	 6.962963e+00	 9.907522e+00
0	 2.074074e+00	 7.037037e+00	 9.910935e+00
0	 2.148148e+00	 6.666667e+00	 9.904170e+00
0	 2.148148e+00	 6.740741e+00	 9.907073e+00
0	 2.148148e+00	 6.814815e+00	 9.909992e+00
0	 2.148148e+00	 6.888889e+00	 9.912934e+00
0	 2.148148e+00	 6.962963e+00	 9.915903e+00
0	 2.148148e+00	 7.037037e+00	 9.918904e+00
0	 2.222222e+00	 6.666667e+00	 9.914279e+00
0	 2.222222e+00	 6.740741e+00	 9.916721e+00
0	 2.222222e+00	 6.814815e+00	 9.919190e+00
0	 2.222222e+00	 6.888889e+00	 9.921695e+00
0	 2.222222e+00	 6.962963e+00	 9.924242e+00
0	 2.222222e+00	 7.037037e+00	 9.926837e+00
0	 1.851852e+00	 7.037037e+00	 9.887152e+00
0	 1.851852e+00	 7.111111e+00	 9.891762e+00
0	 1.851852e+00	 7.185185e+00	 9.896307e+00
0	 1.851852e+00	 7.259259e+00	 9.900793e+00
0	 1.851852e+00	 7.333333e+00	 9.905226e+00
0	 1.851852e+00	 7.407407e+00	 9.909610e+00
0	 1.925926e+00	 7.037037e+00	 9.895025e+00
0	 1.925926e+00	 7.111111e+00	 9.899235e+00
0	 1.925926e+00	 7.185185e+00	 9.903394e+00
0	 1.925926e+00	 7.259259e+00	 9.907507e+00
0	 1.925926e+00	 7.333333e+00	 9.911581e+00
0	 1.925926e+00	 7.407407e+00	 9.915620e+00
0	 2.000000e+00	 7.037037e+00	 9.902964e+00
0	 2.000000e+00	 7.111111e+00	 9.906773e+00
0	 2.000000e+00	 7.185185e+00	 9.910545e+00
0	 2.000000e+00	 7.259259e+00	 9.914284e+00
0	 2.000000e+00	 7.333333e+00	 9.917998e+00
0	 2.000000e+00	 7.407407e+00	 9.921691e+00
0	 2.074074e+00	 7.037037e+00	 9.910935e+00
0	 2.074074e+00	 7.111111e+00	 9.914345e+00
0	 2.074074e+00	 7.185185e+00	 9.917730e+00
0	 2.074074e+00	 7.259259e+00	 9.921096e+00
0	 2.074074e+00	 7.333333e+00	 9.924450e+00
0	 2.074074e+00	 7.407407e+00	 9.927799e+00
0	 2.148148e+00	 7.037037e+00	 9.918904e+00
0	 2.148148e+00	 7.111111e+00	 9.921917e+00
0	 2.148148e+00	 7.185185e+00	 9.924919e+00
0	 2.148148e+00	 7.259259e+00	 9.927915e+00
0	 2.148148e+00	 7.333333e+00	 9.930912e+00
0	 2.148148e+00	 7.407407e+00	 9.933916e+00
0	 2.222222e+00	 7.037037e+00	 9.926837e+00
0	 2.222222e+00	 7.111111e+00	 9.929458e+00
0	 2.222222e+00	 7.185185e+00	 9.932082e+00
0	 2.222222e+00	 7.259259e+00	 9.934713e+00
0	 2.222222e+00	 7.333333e+00	 9.937357e+00
0	 2.222222e+00	 7.407407e+00	 9.940020e+00
0	 1.851852e+00	 7.407407e+00	 9.909610e+00
0	 1.851852e+00	 7.481481e+00	 9.913931e+00
0	 1.851852e+00	 7.555556e+00	 9.918174e+00
0	 1.851852e+00	 7.629630e+00	 9.922341e+00
0	 1.851852e+00	 7.703704e+00	 9.926438e+00
0	 1.851852e+00	 7.777778e+00	 9.930470e+00
0	 1.925926e+00	 7.407407e+00	 9.915620e+00
0	 1.925926e+00	 7.481481e+00	 9.919610e+00
0	 1.925926e+00	 7.555556e+00	 9.923531e+00
0	 1.925926e+00	 7.629630e+00	 9.927389e+00
0	 1.925926e+00	 7.703704e+00	 9.931188e+00
0	 1.925926e+00	 7.777778e+00	 9.934932e+00
0	 2.000000e+00	 7.407407e+00	 9.921691e+00
0	 2.000000e+00	 7.481481e+00	 9.925348e+00
0	 2.000000e+00	 7.555556e+00	 9.928947e+00
0	 2.000000e+00	 7.629630e+00	 9.932493e+00
0	 2.000000e+00	 7.703704e+00	 9.935992e+00
0	 2.000000e+00	 7.777778e+00	 9.939447e+00
0	 2.074074e+00	 7.407407e+00	 9.927799e+00
0	 2.074074e+00	 7.481481e+00	 9.931121e+00
0	 2.074074e+00	 7.555556e+00	 9.934397e+00
0	 2.074074e+00	 7.629630e+00	 9.937632e+00
0	 2.074074e+00	 7.703704e+00	 9.940829e+00
0	 2.074074e+00	 7.777778e+00	 9.943994e+00
0	 2.148148e+00	 7.407407e+00	 9.933916e+00
0	 2.148148e+00	 7.481481e+00	 9.936906e+00
0	 2.148148e+00	 7.555556e+00	 9.939860e+00
0	 2.148148e+00	 7.629630e+00	 9.942783e+00
0	 2.148148e+00	 7.703704e+00	 9.945679e+00
0	 2.148148e+00	 7.777778e+00	 9.948553e+00
0	 2.222222e+00	 7.407407e+00	 9.940020e+00
0	 2.222222e+00	 7.481481e+00	 9.942679e+00
0	 2.222222e+00	 7.555556e+00	 9.945312e+00
0	 2.222222e+00	 7.629630e+00	 9.947925e+00
0	 2.222222e+00	 7.703704e+00	 9.950521e+00
0	 2.222222e+00	 7.777778e+00	 9.953107e+00
0	 1.851852e+00	 7.777778e+00	 9.930470e+00
0	 1.851852e+00	 7.851852e+00	 9.934421e+00
0	 1.851852e+00	 7.925926e+00	 9.938281e+00
0	 1.851852e+00	 8.000000e+00	 9.942053e+00
0	 1.851852e+00	 8.074074e+00	 9.945742e+00
0	 1.851852e+00	 8.148148e+00	 9.949354e+00
0	 1.925926e+00	 7.777778e+00	 9.934932e+00
0	 1.925926e+00	 7.851852e+00	 9.938607e+00
0	 1.925926e+00	 7.925926e+00	 9.942199e+00
0	 1.925926e+00	 8.000000e+00	 9.945713e+00
0	 1.925926e+00	 8.074074e+00	 9.949154e+00
0	 1.925926e+00	 8.148148e+00	 9.952526e+00
0	 2.000000e+00	 7.777778e+00	 9.939447e+00
0	 2.000000e+00	 7.851852e+00	 9.942843e+00
0	 2.000000e+00	 7.925926e+00	 9.946165e+00
0	 2.000000e+00	 8.000000e+00	 9.949419e+00
0	 2.000000e+00	 8.074074e+00	 9.952609e+00
0	 2.000000e+00	 8.148148e+00	 9.955740e+00
0	 2.074074e+00	 7.777778e+00	 9.943994e+00
0	 2.074074e+00	 7.851852e+00	 9.947110e+00
0	 2.074074e+00	 7.925926e+00	 9.950161e+00
0	 2.074074e+00	 8.000000e+00	 9.953154e+00
0	 2.074074e+00	 8.074074e+00	 9.956091e+00
0	 2.074074e+00	 8.148148e+00	 9.958980e+00
0	 2.148148e+00	 7.777778e+00	 9.948553e+00
0	 2.148148e+00	 7.851852e+00	 9.951390e+00
0	 2.148148e+00	 7.925926e+00	 9.954171e+00
0	 2.148148e+00	 8.000000e+00	 9.956902e+00
0	 2.148148e+00	 8.074074e+00	 9.959587e+00
0	 2.148148e+00	 8.148148e+00	 9.962232e+00
0	 2.222222e+00	 7.777778e+00	 9.953107e+00
0	 2.222222e+00	 7.851852e+00	 9.955664e+00
0	 2.222222e+00	 7.925926e+00	 9.958176e+00
0	 2.222222e+00	 8.000000e+00	 9.960646e+00
0	 2.222222e+00	 8.074074e+00	 9.963080e+00
0	 2.222222e+00	 8.148148e+00	 9.965482e+00
0	 1.851852e+00	 8.148148e+00	 9.949354e+00
0	 1.851852e+00	 8.222222e+00	 9.952874e+00
0	 1.851852e+00	 8.296296e+00	 9.956285e+00
0	 1.851852e+00	 8.370370e+00	 9.959595e+00
0	 1.851852e+00	 8.444444e+00	 9.962807e+00
0	 1.851852e+00	 8.518519e+00	 9.965927e+00
0	 1.925926e+00	 8.148148e+00	 9.952526e+00
0	 1.925926e+00	 8.222222e+00	 9.955815e+00
0	 1.925926e+00	 8.296296e+00	 9.959005e+00
0	 1.925926e+00	 8.370370e+00	 9.962102e+00
0	 1.925926e+00	 8.444444e+00	 9.965109e+00
0	 1.925926e+00	 8.518519e+00	 9.968032e+00
0	 2.000000e+00	 8.148148e+00	 9.955740e+00
0	 2.000000e+00	 8.222222e+00	 9.958796e+00
0	 2.000000e+00	 8.296296e+00	 9.961762e+00
0	 2.000000e+00	 8.370370e+00	 9.964643e+00
0	 2.000000e+00	 8.444444e+00	 9.967443e+00
0	 2.000000e+00	 8.518519e+00	 9.970167e+00
0	 2.074074e+00	 8.148148e+00	 9.958980e+00
0	 2.074074e+00	 8.222222e+00	 9.961802e+00
0	 2.074074e+00	 8.296296e+00	 9.964543e+00
0	 2.074074e+00	 8.370370e+00	 9.967206e+00
0	 2.074074e+00	 8.444444e+00	 9.969798e+00
0	 2.074074e+00	 8.518519e+00	 9.972322e+00
0	 2.148148e+00	 8.148148e+00	 9.962232e+00
0	 2.148148e+00	 8.222222e+00	 9.964820e+00
0	 2.148148e+00	 8.296296e+00	 9.967334e+00
0	 2.148148e+00	 8.370370e+00	 9.969780e+00
0	 2.148148e+00	 8.444444e+00	 9.972162e+00
0	 2.148148e+00	 8.518519e+00	 9.974485e+00
0	 2.222222e+00	 8.148148e+00	 9.965482e+00
0	 2.222222e+00	 8.222222e+00	 9.967835e+00
0	 2.222222e+00	 8.296296e+00	 9.970124e+00
0	 2.222222e+00	 8.370370e+00	 9.972352e+00
0	 2.222222e+00	 8.444444e+00	 9.974525e+00
0	 2.222222e+00	 8.518519e+00	 9.976647e+00
0	 1.851852e+00	 8.518519e+00	 9.965927e+00
0	 1.851852e+00	 8.592593e+00	 9.968939e+00
0	 1.851852e+00	 8.666667e+00	 9.971826e+00
0	 1.851852e+00	 8.740741e+00	 9.974594e+00
0	 1.851852e+00	 8.814815e+00	 9.977249e+00
0	 1.851852e+00	 8.888889e+00	 9.979797e+00
0	 1.925926e+00	 8.518519e+00	 9.968032e+00
0	 1.925926e+00	 8.592593e+00	 9.970855e+00
0	 1.925926e+00	 8.666667e+00	 9.973562e+00
0	 1.925926e+00	 8.740741e+00	 9.976157e+00
0	 1.925926e+00	 8.814815e+00	 9.978648e+00
0	 1.925926e+00	 8.888889e+00	 9.981040e+00
0	 2.000000e+00	 8.518519e+00	 9.970167e+00
0	 2.000000e+00	 8.592593e+00	 9.972799e+00
0	 2.000000e+00	 8.666667e+00	 9.975324e+00
0	 2.000000e+00	 8.740741e+00	 9.977746e+00
0	 2.000000e+00	 8.814815e+00	 9.980070e+00
0	 2.000000e+00	 8.888889e+00	 9.982303e+00
0	 2.074074e+00	 8.518519e+00	 9.972322e+00
0	 2.074074e+00	 8.592593e+00	 9.974762e+00
0	 2.074074e+00	 8.666667e+00	 9.977103e+00
0	 2.074074e+00	 8.740741e+00	 9.979349e+00
0	 2.074074e+00	 8.814815e+00	 9.981507e+00
0	 2.074074e+00	 8.888889e+00	 9.983580e+00
0	 2.148148e+00	 8.518519e+00	 9.974485e+00
0	 2.148148e+00	 8.592593e+00	 9.976733e+00
0	 2.148148e+00	 8.666667e+00	 9.978889e+00
0	 2.148148e+00	 8.740741e+00	 9.980959e+00
0	 2.148148e+00	 8.814815e+00	 9.982948e+00
0	 2.148148e+00	 8.888889e+00	 9.984861e+00
0	 2.222222e+00	 8.518519e+00	 9.976647e+00
0	 2.222222e+00	 8.592593e+00	 9.978701e+00
0	 2.222222e+00	 8.666667e+00	 9.980673e+00
0	 2.222222e+00	 8.740741e+00	 9.982567e+00
0	 2.222222e+00	 8.814815e+00	 9.984387e+00
0	 2.222222e+00	 8.888889e+00	 9.986138e+00
0	 1.851852e+00	 8.888889e+00	 9.979797e+00
0	 1.851852e+00	 8.962963e+00	 9.982218e+00
0	 1.851852e+00	 9.037037e+00	 9.984494e+00
0	 1.851852e+00	 9.111111e+00	 9.986629e+00
0	 1.851852e+00	 9.185185e+00	 9.988633e+00
0	 1.851852e+00	 9.259259e+00	 9.990510e+00
0	 1.925926e+00	 8.888889e+00	 9.981040e+00
0	 1.925926e+00	 8.962963e+00	 9.983312e+00
0	 1.925926e+00	 9.037037e+00	 9.985448e+00
0	 1.925926e+00	 9.111111e+00	 9.987453e+00
0	 1.925926e+00	 9.185185e+00	 9.989333e+00
0	 1.925926e+00	 9.259259e+00	 9.991095e+00
0	 2.000000e+00	 8.888889e+00	 9.982303e+00
0	 2.000000e+00	 8.962963e+00	 9.984426e+00
0	 2.000000e+00	 9.037037e+00	 9.986420e+00
0	 2.000000e+00	 9.111111e+00	 9.988292e+00
0	 2.000000e+00	 9.185185e+00	 9.990048e+00
0	 2.000000e+00	 9.259259e+00	 9.991694e+00
0	 2.074074e+00	 8.888889e+00	 9.983580e+00
0	 2.074074e+00	 8.962963e+00	 9.985551e+00
0	 2.074074e+00	 9.037037e+00	 9.987403e+00
0	 2.074074e+00	 9.111111e+00	 9.989142e+00
0	 2.074074e+00	 9.185185e+00	 9.990772e+00
0	 2.074074e+00	 9.259259e+00	 9.992301e+00
0	 2.148148e+00	 8.888889e+00	 9.984861e+00
0	 2.148148e+00	 8.962963e+00	 9.986680e+00
0	 2.148148e+00	 9.037037e+00	 9.988389e+00
0	 2.148148e+00	 9.111111e+00	 9.989993e+00
0	 2.148148e+00	 9.185185e+00	 9.991498e+00
0	 2.148148e+00	 9.259259e+00	 9.992908e+00
0	 2.222222e+00	 8.888889e+00	 9.986138e+00
0	 2.222222e+00	 8.962963e+00	 9.987805e+00
0	 2.222222e+00	 9.037037e+00	 9.989370e+00
0	 2.222222e+00	 9.111111e+00	 9.990840e+00
0	 2.222222e+00	 9.185185e+00	 9.992218e+00
0	 2.222222e+00	 9.259259e+00	 9.993509e+00
0	 1.851852e+00	 9.259259e+00	 9.990510e+00
0	 1.851852e+00	 9.333333e+00	 9.992237e+00
0	 1.851852e+00	 9.407407e+00	 9.993790e+00
0	 1.851852e+00	 9.481481e+00	 9.995176e+00
0	 1.851852e+00	 9.555556e+00	 9.996405e+00
0	 1.851852e+00	 9.629630e+00	 9.997483e+00
0	 1.925926e+00	 9.259259e+00	 9.991095e+00
0	 1.925926e+00	 9.333333e+00	 9.992716e+00
0	 1.925926e+00	 9.407407e+00	 9.994173e+00
0	 1.925926e+00	 9.481481e+00	 9.995474e+00
0	 1.925926e+00	 9.555556e+00	 9.996626e+00
0	 1.925926e+00	 9.629630e+00	 9.997636e+00
0	 2.000000e+00	 9.259259e+00	 9.991694e+00
0	 2.000000e+00	 9.333333e+00	 9.993208e+00
0	 2.000000e+00	 9.407407e+00	 9.994568e+00
0	 2.000000e+00	 9.481481e+00	 9.995783e+00
0	 2.000000e+00	 9.555556e+00	 9.996858e+00
0	 2.000000e+00	 9.629630e+00	 9.997800e+00
0	 2.074074e+00	 9.259259e+00	 9.992301e+00
0	 2.074074e+00	 9.333333e+00	 9.993706e+00
0	 2.074074e+00	 9.407407e+00	 9.994970e+00
0	 2.074074e+00	 9.481481e+00	 9.996097e+00
0	 2.074074e+00	 9.555556e+00	 9.997094e+00
0	 2.074074e+00	 9.629630e+00	 9.997968e+00
0	 2.148148e+00	 9.259259e+00	 9.992908e+00
0	 2.148148e+00	 9.333333e+00	 9.994205e+00
0	 2.148148e+00	 9.407407e+00	 9.995370e+00
0	 2.148148e+00	 9.481481e+00	 9.996410e+00
0	 2.148148e+00	 9.555556e+00	 9.997329e+00
0	 2.148148e+00	 9.629630e+00	 9.998134e+00
0	 2.222222e+00	 9.259259e+00	 9.993509e+00
0	 2.222222e+00	 9.333333e+00	 9.994697e+00
0	 2.222222e+00	 9.407407e+00	 9.995764e+00
0	 2.222222e+00	 9.481481e+00	 9.996715e+00
0	 2.222222e+00	 9.555556e+00	 9.997556e+00
0	 2.222222e+00	 9.629630e+00	 9.998291e+00
0	 1.851852e+00	 9.629630e+00	 9.997483e+00
0	 1.851852e+00	 9.703704e+00	 9.998382e+00
0	 1.851852e+00	 9.777778e+00	 9.999077e+00
0	 1.851852e+00	 9.851852e+00	 9.999575e+00
0	 1.851852e+00	 9.925926e+00	 9.999887e+00
0	 1.851852e+00	 1.000000e+01	 1.000002e+01
0	 1.925926e+00	 9.629630e+00	 9.997636e+00
0	 1.925926e+00	 9.703704e+00	 9.998479e+00
0	 1.925926e+00	 9.777778e+00	 9.999130e+00
0	 1.925926e+00	 9.851852e+00	 9.999596e+00
0	 1.925926e+00	 9.925926e+00	 9.999887e+00
0	 1.925926e+00	 1.000000e+01	 1.000001e+01
0	 2.000000e+00	 9.629630e+00	 9.997800e+00
0	 2.000000e+00	 9.703704e+00	 9.998586e+00
0	 2.000000e+00	 9.777778e+00	 9.999192e+00
0	 2.000000e+00	 9.851852e+00	 9.999627e+00
0	 2.000000e+00	 9.925926e+00	 9.999899e+00
0	 2.000000e+00	 1.000000e+01	 1.000001e+01
0	 2.074074e+00	 9.629630e+00	 9.997968e+00
0	 2.074074e+00	 9.703704e+00	 9.998696e+00
0	 2.074074e+00	 9.777778e+00	 9.999259e+00
0	 2.074074e+00	 9.851852e+00	 9.999662e+00
0	 2.074074e+00	 9.925926e+00	 9.999913e+00
0	 2.074074e+00	 1.000000e+01	 1.000002e+01
0	 2.148148e+00	 9.629630e+00	 9.998134e+00
0	 2.148148e+00	 9.703704e+00	 9.998804e+00
0	 2.148148e+00	 9.777778e+00	 9.999322e+00
0	 2.148148e+00	 9.851852e+00	 9.999694e+00
0	 2.148148e+00	 9.925926e+00	 9.999924e+00
0	 2.148148e+00	 1.000000e+01	 1.000002e+01
0	 2.222222e+00	 9.629630e+00	 9.998291e+00
0	 2.222222e+00	 9.703704e+00	 9.998903e+00
0	 2.222222e+00	 9.777778e+00	 9.999376e+00
0	 2.222222e+00	 9.851852e+00	 9.999715e+00
0	 2.222222e+00	 9.925926e+00	 9.999925e+00
0	 2.222222e+00	 1.000000e+01	 1.000001e+01
0	 2.222222e+00	 0.000000e+00	 1.200897e+01
0	 2.222222e+00	 7.407407e-02	 1.210813e+01
0	 2.222222e+00	 1.481481e-01	 1.216671e+01
0	 2.222222e+00	 2.222222e-01	 1.218688e+01
0	 2.222222e+00	 2.962963e-01	 1.217081e+01
0	 2.222222e+00	 3.703704e-01	 1.212064e+01
0	 2.296296e+00	 0.000000e+00	 1.171275e+01
0	 2.296296e+00	 7.407407e-02	 1.179602e+01
0	 2.296296e+00	 1.481481e-01	 1.184921e+01
0	 2.296296e+00	 2.222222e-01	 1.186916e+01
0	 2.296296e+00	 2.962963e-01	 1.185270e+01
0	 2.296296e+00	 3.703704e-01	 1.179667e+01
0	 2.370370e+00	 0.000000e+00	 1.150041e+01
0	 2.370370e+00	 7.407407e-02	 1.154760e+01
0	 2.370370e+00	 1.481481e-01	 1.158385e+01
0	 2.370370e+00	 2.222222e-01	 1.160295e+01
0	 2.370370e+00	 2.962963e-01	 1.159868e+01
0	 2.370370e+00	 3.703704e-01	 1.156482e+01
0	 2.444444e+00	 0.000000e+00	 1.135956e+01
0	 2.444444e+00	 7.407407e-02	 1.136391e+01
0	 2.444444e+00	 1.481481e-01	 1.137828e+01
0	 2.444444e+00	 2.222222e-01	 1.139568e+01
0	 2.444444e+00	 2.962963e-01	 1.140913e+01
0	 2.444444e+00	 3.703704e-01	 1.141164e+01
0	 2.518519e+00	 0.000000e+00	 1.127784e+01
0	 2.518519e+00	 7.407407e-02	 1.124601e+01
0	 2.518519e+00	 1.481481e-01	 1.124014e+01
0	 2.518519e+00	 2.222222e-01	 1.125478e+01
0	 2.518519e+00	 2.962963e-01	 1.128445e+01
0	 2.518519e+00	 3.703704e-01	 1.132367e+01
0	 2.592593e+00	 0.000000e+00	 1.124287e+01
0	 2.592593e+00	 7.407407e-02	 1.119492e+01
0	 2.592593e+00	 1.481481e-01	 1.117709e+01
0	 2.592593e+00	 2.222222e-01	 1.118769e+01
0	 2.592593e+00	 2.962963e-01	 1.122504e+01
0	 2.592593e+00	 3.703704e-01	 1.128746e+01
0	 2.222222e+00	 3.703704e-01	 1.212064e+01
0	 2.222222e+00	 4.444444e-01	 1.206782e+01
0	 2.222222e+00	 5.185185e-01	 1.204291e+01
0	 2.222222e+00	 5.925926e-01	 1.204672e+01
0	 2.222222e+00	 6.666667e-01	 1.208006e+01
0	 2.222222e+00	 7.407407e-01	 1.214376e+01
0	 2.296296e+00	 3.703704e-01	 1.179667e+01
0	 2.296296e+00	 4.444444e-01	 1.173603e+01
0	 2.296296e+00	 5.185185e-01	 1.171042e+01
0	 2.296296e+00	 5.925926e-01	 1.172365e+01
0	 2.296296e+00	 6.666667e-01	 1.177953e+01
0	 2.296296e+00	 7.407407e-01	 1.188185e+01
0	 2.370370e+00	 3.703704e-01	 1.156482e+01
0	 2.370370e+00	 4.444444e-01	 1.152538e+01
0	 2.370370e+00	 5.185185e-01	 1.151222e+01
0	 2.370370e+00	 5.925926e-01	 1.153090e+01
0	 2.370370e+00	 6.666667e-01	 1.158701e+01
0	 2.370370e+00	 7.407407e-01	 1.168611e+01
0	 2.444444e+00	 3.703704e-01	 1.141164e+01
0	 2.444444e+00	 4.444444e-01	 1.140887e+01
0	 2.444444e+00	 5.185185e-01	 1.141522e+01
0	 2.444444e+00	 5.925926e-01	 1.143678e+01
0	 2.444444e+00	 6.666667e-01	 1.147965e+01
0	 2.444444e+00	 7.407407e-01	 1.154993e+01
0	 2.518519e+00	 3.703704e-01	 1.132367e+01
0	 2.518519e+00	 4.444444e-01	 1.135953e+01
0	 2.518519e+00	 5.185185e-01	 1.138636e+01
0	 2.518519e+00	 5.925926e-01	 1.140956e+01
0	 2.518519e+00	 6.666667e-01	 1.143454e+01
0	 2.518519e+00	 7.407407e-01	 1.146669e+01
0	 2.592593e+00	 3.703704e-01	 1.128746e+01
0	 2.592593e+00	 4.444444e-01	 1.135035e+01
0	 2.592593e+00	 5.185185e-01	 1.139257e+01
0	 2.592593e+00	 5.925926e-01	 1.141756e+01
0	 2.592593e+00	 6.666667e-01	 1.142881e+01
0	 2.592593e+00	 7.407407e-01	 1.142977e+01
0	 2.222222e+00	 7.407407e-01	 1.214376e+01
0	 2.222222e+00	 8.148148e-01	 1.220234e+01
0	 2.222222e+00	 8.888889e-01	 1.222348e+01
0	 2.222222e+00	 9.629630e-01	 1.221272e+01
0	 2.222222e+00	 1.037037e+00	 1.217561e+01
0	 2.222222e+00	 1.111111e+00	 1.211768e+01
0	 2.296296e+00	 7.407407e-01	 1.188185e+01
0	 2.296296e+00	 8.148148e-01	 1.198702e+01
0	 2.296296e+00	 8.888889e-01	 1.205056e+01
0	 2.296296e+00	 9.629630e-01	 1.207503e+01
0	 2.296296e+00	 1.037037e+00	 1.206297e+01
0	 2.296296e+00	 1.111111e+00	 1.201693e+01
0	 2.370370e+00	 7.407407e-01	 1.168611e+01
0	 2.370370e+00	 8.148148e-01	 1.179169e+01
0	 2.370370e+00	 8.888889e-01	 1.186380e+01
0	 2.370370e+00	 9.629630e-01	 1.190289e+01
0	 2.370370e+00	 1.037037e+00	 1.190942e+01
0	 2.370370e+00	 1.111111e+00	 1.188381e+01
0	 2.444444e+00	 7.407407e-01	 1.154993e+01
0	 2.444444e+00	 8.148148e-01	 1.162680e+01
0	 2.444444e+00	 8.888889e-01	 1.168488e+01
0	 2.444444e+00	 9.629630e-01	 1.172338e+01
0	 2.444444e+00	 1.037037e+00	 1.174156e+01
0	 2.444444e+00	 1.111111e+00	 1.173865e+01
0	 2.518519e+00	 7.407407e-01	 1.146669e+01
0	 2.518519e+00	 8.148148e-01	 1.150283e+01
0	 2.518519e+00	 8.888889e-01	 1.153549e+01
0	 2.518519e+00	 9.629630e-01	 1.156359e+01
0	 2.518519e+00	 1.037037e+00	 1.158603e+01
0	 2.518519e+00	 1.111111e+00	 1.160174e+01
0	 2.592593e+00	 7.407407e-01	 1.142977e+01
0	 2.592593e+00	 8.148148e-01	 1.143024e+01
0	 2.592593e+00	 8.888889e-01	 1.143734e+01
0	 2.592593e+00	 9.629630e-01	 1.145057e+01
0	 2.592593e+00	 1.037037e+00	 1.146943e+01
0	 2.592593e+00	 1.111111e+00	 1.149340e+01
0	 2.222222e+00	 1.111111e+00	 1.211768e+01
0	 2.222222e+00	 1.185185e+00	 1.205174e+01
0	 2.222222e+00	 1.259259e+00	 1.198604e+01
0	 2.222222e+00	 1.333333e+00	 1.191932e+01
0	 2.222222e+00	 1.407407e+00	 1.185030e+01
0	 2.222222e+00	 1.481481e+00	 1.177770e+01
0	 2.296296e+00	 1.111111e+00	 1.201693e+01
0	 2.296296e+00	 1.185185e+00	 1.195649e+01
0	 2.296296e+00	 1.259259e+00	 1.189862e+01
0	 2.296296e+00	 1.333333e+00	 1.184194e+01
0	 2.296296e+00	 1.407407e+00	 1.178507e+01
0	 2.296296e+00	 1.481481e+00	 1.172665e+01
0	 2.370370e+00	 1.111111e+00	 1.188381e+01
0	 2.370370e+00	 1.185185e+00	 1.184328e+01
0	 2.370370e+00	 1.259259e+00	 1.180386e+01
0	 2.370370e+00	 1.333333e+00	 1.176429e+01
0	 2.370370e+00	 1.407407e+00	 1.172327e+01
0	 2.370370e+00	 1.481481e+00	 1.167955e+01
0	 2.444444e+00	 1.111111e+00	 1.173865e+01
0	 2.444444e+00	 1.185185e+00	 1.172406e+01
0	 2.444444e+00	 1.259259e+00	 1.170708e+01
0	 2.444444e+00	 1.333333e+00	 1.168675e+01
0	 2.444444e+00	 1.407407e+00	 1.166208e+01
0	 2.444444e+00	 1.481481e+00	 1.163210e+01
0	 2.518519e+00	 1.111111e+00	 1.160174e+01
0	 2.518519e+00	 1.185185e+00	 1.161077e+01
0	 2.518519e+00	 1.259259e+00	 1.161358e+01
0	 2.518519e+00	 1.333333e+00	 1.160969e+01
0	 2.518519e+00	 1.407407e+00	 1.159865e+01
0	 2.518519e+00	 1.481481e+00	 1.157998e+01
0	 2.592593e+00	 1.111111e+00	 1.149340e+01
0	 2.592593e+00	 1.185185e+00	 1.151535e+01
0	 2.592593e+00	 1.259259e+00	 1.152864e+01
0	 2.592593e+00	 1.333333e+00	 1.153350e+01
0	 2.592593e+00	 1.407407e+00	 1.153017e+01
0	 2.592593e+00	 1.481481e+00	 1.151889e+01
0	 2.222222e+00	 1.481481e+00	 1.177770e+01
0	 2.222222e+00	 1.555556e+00	 1.170643e+01
0	 2.222222e+00	 1.629630e+00	 1.164066e+01
0	 2.222222e+00	 1.703704e+00	 1.157801e+01
0	 2.222222e+00	 1.777778e+00	 1.151613e+01
0	 2.222222e+00	 1.851852e+00	 1.145265e+01
0	 2.296296e+00	 1.481481e+00	 1.172665e+01
0	 2.296296e+00	 1.555556e+00	 1.166732e+01
0	 2.296296e+00	 1.629630e+00	 1.160855e+01
0	 2.296296e+00	 1.703704e+00	 1.155020e+01
0	 2.296296e+00	 1.777778e+00	 1.149215e+01
0	 2.296296e+00	 1.851852e+00	 1.143426e+01
0	 2.370370e+00	 1.481481e+00	 1.167955e+01
0	 2.370370e+00	 1.555556e+00	 1.163172e+01
0	 2.370370e+00	 1.629630e+00	 1.158011e+01
0	 2.370370e+00	 1.703704e+00	 1.152601e+01
0	 2.370370e+00	 1.777778e+00	 1.147072e+01
0	 2.370370e+00	 1.851852e+00	 1.141554e+01
0	 2.444444e+00	 1.481481e+00	 1.163210e+01
0	 2.444444e+00	 1.555556e+00	 1.159499e+01
0	 2.444444e+00	 1.629630e+00	 1.155087e+01
0	 2.444444e+00	 1.703704e+00	 1.150168e+01
0	 2.444444e+00	 1.777778e+00	 1.144934e+01
0	 2.444444e+00	 1.851852e+00	 1.139579e+01
0	 2.518519e+00	 1.481481e+00	 1.157998e+01
0	 2.518519e+00	 1.555556e+00	 1.155246e+01
0	 2.518519e+00	 1.629630e+00	 1.151636e+01
0	 2.518519e+00	 1.703704e+00	 1.147346e+01
0	 2.518519e+00	 1.777778e+00	 1.142552e+01
0	 2.518519e+00	 1.851852e+00	 1.137431e+01
0	 2.592593e+00	 1.481481e+00	 1.151889e+01
0	 2.592593e+00	 1.555556e+00	 1.149947e+01
0	 2.592593e+00	 1.629630e+00	 1.147210e+01
0	 2.592593e+00	 1.703704e+00	 1.143759e+01
0	 2.592593e+00	 1.777778e+00	 1.139676e+01
0	 2.592593e+00	 1.851852e+00	 1.135042e+01
0	 2.222222e+00	 1.851852e+00	 1.145265e+01
0	 2.222222e+00	 1.925926e+00	 1.138509e+01
0	 2.222222e+00	 2.000000e+00	 1.131317e+01
0	 2.222222e+00	 2.074074e+00	 1.123770e+01
0	 2.222222e+00	 2.148148e+00	 1.115954e+01
0	 2.222222e+00	 2.222222e+00	 1.107952e+01
0	 2.296296e+00	 1.851852e+00	 1.143426e+01
0	 2.296296e+00	 1.925926e+00	 1.137526e+01
0	 2.296296e+00	 2.000000e+00	 1.131362e+01
0	 2.296296e+00	 2.074074e+00	 1.124876e+01
0	 2.296296e+00	 2.148148e+00	 1.118011e+01
0	 2.296296e+00	 2.222222e+00	 1.110710e+01
0	 2.370370e+00	 1.851852e+00	 1.141554e+01
0	 2.370370e+00	 1.925926e+00	 1.136098e+01
0	 2.370370e+00	 2.000000e+00	 1.130573e+01
0	 2.370370e+00	 2.074074e+00	 1.124831e+01
0	 2.370370e+00	 2.148148e+00	 1.118723e+01
0	 2.370370e+00	 2.222222e+00	 1.112103e+01
0	 2.444444e+00	 1.851852e+00	 1.139579e+01
0	 2.444444e+00	 1.925926e+00	 1.134337e+01
0	 2.444444e+00	 2.000000e+00	 1.129191e+01
0	 2.444444e+00	 2.074074e+00	 1.123951e+01
0	 2.444444e+00	 2.148148e+00	 1.118431e+01
0	 2.444444e+00	 2.222222e+00	 1.112444e+01
0	 2.518519e+00	 1.851852e+00	 1.137431e+01
0	 2.518519e+00	 1.925926e+00	 1.132354e+01
0	 2.518519e+00	 2.000000e+00	 1.127453e+01
0	 2.518519e+00	 2.074074e+00	 1.122553e+01
0	 2.518519e+00	 2.148148e+00	 1.117475e+01
0	 2.518519e+00	 2.222222e+00	 1.112045e+01
0	 2.592593e+00	 1.851852e+00	 1.135042e+01
0	 2.592593e+00	 1.925926e+00	 1.130259e+01
0	 2.592593e+00	 2.000000e+00	 1.125600e+01
0	 2.592593e+00	 2.074074e+00	 1.120951e+01
0	 2.592593e+00	 2.148148e+00	 1.116196e+01
0	 2.592593e+00	 2.222222e+00	 1.111219e+01
0	 2.222222e+00	 2.222222e+00	 1.107952e+01
0	 2.222222e+00	 2.296296e+00	 1.100193e+01
0	 2.222222e+00	 2.370370e+00	 1.092957e+01
0	 2.222222e+00	 2.444444e+00	 1.086103e+01
0	 2.222222e+00	 2.518519e+00	 1.079492e+01
0	 2.222222e+00	 2.592593e+00	 1.072984e+01
0	 2.296296e+00	 2.222222e+00	 1.110710e+01
0	 2.296296e+00	 2.296296e+00	 1.103355e+01
0	 2.296296e+00	 2.370370e+00	 1.096325e+01
0	 2.296296e+00	 2.444444e+00	 1.089563e+01
0	 2.296296e+00	 2.518519e+00	 1.083011e+01
0	 2.296296e+00	 2.592593e+00	 1.076612e+01
0	 2.370370e+00	 2.222222e+00	 1.112103e+01
0	 2.370370e+00	 2.296296e+00	 1.105269e+01
0	 2.370370e+00	 2.370370e+00	 1.098617e+01
0	 2.370370e+00	 2.444444e+00	 1.092145e+01
0	 2.370370e+00	 2.518519e+00	 1.085852e+01
0	 2.370370e+00	 2.592593e+00	 1.079735e+01
0	 2.444444e+00	 2.222222e+00	 1.112444e+01
0	 2.444444e+00	 2.296296e+00	 1.106196e+01
0	 2.444444e+00	 2.370370e+00	 1.100038e+01
0	 2.444444e+00	 2.444444e+00	 1.093997e+01
0	 2.444444e+00	 2.518519e+00	 1.088102e+01
0	 2.444444e+00	 2.592593e+00	 1.082380e+01
0	 2.518519e+00	 2.222222e+00	 1.112045e+01
0	 2.518519e+00	 2.296296e+00	 1.106392e+01
0	 2.518519e+00	 2.370370e+00	 1.100788e+01
0	 2.518519e+00	 2.444444e+00	 1.095264e+01
0	 2.518519e+00	 2.518519e+00	 1.089850e+01
0	 2.518519e+00	 2.592593e+00	 1.084577e+01
0	 2.592593e+00	 2.222222e+00	 1.111219e+01
0	 2.592593e+00	 2.296296e+00	 1.106118e+01
0	 2.592593e+00	 2.370370e+00	 1.101074e+01
0	 2.592593e+00	 2.444444e+00	 1.096093e+01
0	 2.592593e+00	 2.518519e+00	 1.091184e+01
0	 2.592593e+00	 2.592593e+00	 1.086354e+01
0	 2.222222e+00	 2.592593e+00	 1.072984e+01
0	 2.222222e+00	 2.666667e+00	 1.066634e+01
0	 2.222222e+00	 2.740741e+00	 1.060618e+01
0	 2.222222e+00	 2.814815e+00	 1.054987e+01
0	 2.222222e+00	 2.888889e+00	 1.049786e+01
0	 2.222222e+00	 2.962963e+00	 1.045066e+01
0	 2.296296e+00	 2.592593e+00	 1.076612e+01
0	 2.296296e+00	 2.666667e+00	 1.070478e+01
0	 2.296296e+00	 2.740741e+00	 1.064754e+01
0	 2.296296e+00	 2.814815e+00	 1.059437e+01
0	 2.296296e+00	 2.888889e+00	 1.054521e+01
0	 2.296296e+00	 2.962963e+00	 1.050001e+01
0	 2.370370e+00	 2.592593e+00	 1.079735e+01
0	 2.370370e+00	 2.666667e+00	 1.073920e+01
0	 2.370370e+00	 2.740741e+00	 1.068506e+01
0	 2.370370e+00	 2.814815e+00	 1.063454e+01
0	 2.370370e+00	 2.888889e+00	 1.058721e+01
0	 2.370370e+00	 2.962963e+00	 1.054267e+01
0	 2.444444e+00	 2.592593e+00	 1.082380e+01
0	 2.444444e+00	 2.666667e+00	 1.076941e+01
0	 2.444444e+00	 2.740741e+00	 1.071835e+01
0	 2.444444e+00	 2.814815e+00	 1.067003e+01
0	 2.444444e+00	 2.888889e+00	 1.062385e+01
0	 2.444444e+00	 2.962963e+00	 1.057921e+01
0	 2.518519e+00	 2.592593e+00	 1.084577e+01
0	 2.518519e+00	 2.666667e+00	 1.079522e+01
0	 2.518519e+00	 2.740741e+00	 1.074700e+01
0	 2.518519e+00	 2.814815e+00	 1.070050e+01
0	 2.518519e+00	 2.888889e+00	 1.065509e+01
0	 2.518519e+00	 2.962963e+00	 1.061018e+01
0	 2.592593e+00	 2.592593e+00	 1.086354e+01
0	 2.592593e+00	 2.666667e+00	 1.081646e+01
0	 2.592593e+00	 2.740741e+00	 1.077063e+01
0	 2.592593e+00	 2.814815e+00	 1.072560e+01
0	 2.592593e+00	 2.888889e+00	 1.068092e+01
0	 2.592593e+00	 2.962963e+00	 1.063612e+01
0	 2.222222e+00	 2.962963e+00	 1.045066e+01
0	 2.222222e+00	 3.037037e+00	 1.040726e+01
0	 2.222222e+00	 3.111111e+00	 1.036602e+01
0	 2.222222e+00	 3.185185e+00	 1.032649e+01
0	 2.222222e+00	 3.259259e+00	 1.028820e+01
0	 2.222222e+00	 3.333333e+00	 1.025067e+01
0	 2.296296e+00	 2.962963e+00	 1.050001e+01
0	 2.296296e+00	 3.037037e+00	 1.045737e+01
0	 2.296296e+00	 3.111111e+00	 1.041587e+01
0	 2.296296e+00	 3.185185e+00	 1.037537e+01
0	 2.296296e+00	 3.259259e+00	 1.033574e+01
0	 2.296296e+00	 3.333333e+00	 1.029688e+01
0	 2.370370e+00	 2.962963e+00	 1.054267e+01
0	 2.370370e+00	 3.037037e+00	 1.049982e+01
0	 2.370370e+00	 3.111111e+00	 1.045789e+01
0	 2.370370e+00	 3.185185e+00	 1.041697e+01
0	 2.370370e+00	 3.259259e+00	 1.037719e+01
0	 2.370370e+00	 3.333333e+00	 1.033862e+01
0	 2.444444e+00	 2.962963e+00	 1.057921e+01
0	 2.444444e+00	 3.037037e+00	 1.053571e+01
0	 2.444444e+00	 3.111111e+00	 1.049348e+01
0	 2.444444e+00	 3.185185e+00	 1.045271e+01
0	 2.444444e+00	 3.259259e+00	 1.041363e+01
0	 2.444444e+00	 3.333333e+00	 1.037644e+01
0	 2.518519e+00	 2.962963e+00	 1.061018e+01
0	 2.518519e+00	 3.037037e+00	 1.056617e+01
0	 2.518519e+00	 3.111111e+00	 1.052404e+01
0	 2.518519e+00	 3.185185e+00	 1.048398e+01
0	 2.518519e+00	 3.259259e+00	 1.044618e+01
0	 2.518519e+00	 3.333333e+00	 1.041086e+01
0	 2.592593e+00	 2.962963e+00	 1.063612e+01
0	 2.592593e+00	 3.037037e+00	 1.059232e+01
0	 2.592593e+00	 3.111111e+00	 1.055098e+01
0	 2.592593e+00	 3.185185e+00	 1.051216e+01
0	 2.592593e+00	 3.259259e+00	 1.047595e+01
0	 2.592593e+00	 3.333333e+00	 1.044241e+01
0	 2.222222e+00	 3.333333e+00	 1.025067e+01
0	 2.222222e+00	 3.407407e+00	 1.021475e+01
0	 2.222222e+00	 3.481481e+00	 1.018176e+01
0	 2.222222e+00	 3.555556e+00	 1.015196e+01
0	 2.222222e+00	 3.629630e+00	 1.012559e+01
0	 2.222222e+00	 3.703704e+00	 1.010292e+01
0	 2.296296e+00	 3.333333e+00	 1.029688e+01
0	 2.296296e+00	 3.407407e+00	 1.026007e+01
0	 2.296296e+00	 3.481481e+00	 1.022672e+01
0	 2.296296e+00	 3.555556e+00	 1.019682e+01
0	 2.296296e+00	 3.629630e+00	 1.017038e+01
0	 2.296296e+00	 3.703704e+00	 1.014739e+01
0	 2.370370e+00	 3.333333e+00	 1.033862e+01
0	 2.370370e+00	 3.407407e+00	 1.030242e+01
0	 2.370370e+00	 3.481481e+00	 1.026951e+01
0	 2.370370e+00	 3.555556e+00	 1.023975e+01
0	 2.370370e+00	 3.629630e+00	 1.021296e+01
0	 2.370370e+00	 3.703704e+00	 1.018898e+01
0	 2.444444e+00	 3.333333e+00	 1.037644e+01
0	 2.444444e+00	 3.407407e+00	 1.034171e+01
0	 2.444444e+00	 3.481481e+00	 1.030970e+01
0	 2.444444e+00	 3.555556e+00	 1.028017e+01
0	 2.444444e+00	 3.629630e+00	 1.025287e+01
0	 2.444444e+00	 3.703704e+00	 1.022755e+01
0	 2.518519e+00	 3.333333e+00	 1.041086e+01
0	 2.518519e+00	 3.407407e+00	 1.037788e+01
0	 2.518519e+00	 3.481481e+00	 1.034685e+01
0	 2.518519e+00	 3.555556e+00	 1.031751e+01
0	 2.518519e+00	 3.629630e+00	 1.028963e+01
0	 2.518519e+00	 3.703704e+00	 1.026297e+01
0	 2.592593e+00	 3.333333e+00	 1.044241e+01
0	 2.592593e+00	 3.407407e+00	 1.041087e+01
0	 2.592593e+00	 3.481481e+00	 1.038052e+01
0	 2.592593e+00	 3.555556e+00	 1.035120e+01
0	 2.592593e+00	 3.629630e+00	 1.032278e+01
0	 2.592593e+00	 3.703704e+00	 1.029509e+01
0	 2.222222e+00	 3.703704e+00	 1.010292e+01
0	 2.222222e+00	 3.777778e+00	 1.008272e+01
0	 2.222222e+00	 3.851852e+00	 1.006355e+01
0	 2.222222e+00	 3.925926e+00	 1.004530e+01
0	 2.222222e+00	 4.000000e+00	 1.002786e+01
0	 2.222222e+00	 4.074074e+00	 1.001112e+01
0	 2.296296e+00	 3.703704e+00	 1.014739e+01
0	 2.296296e+00	 3.777778e+00	 1.012644e+01
0	 2.296296e+00	 3.851852e+00	 1.010611e+01
0	 2.296296e+00	 3.925926e+00	 1.008645e+01
0	 2.296296e+00	 4.000000e+00	 1.006751e+01
0	 2.296296e+00	 4.074074e+00	 1.004932e+01
0	 2.370370e+00	 3.703704e+00	 1.018898e+01
0	 2.370370e+00	 3.777778e+00	 1.016664e+01
0	 2.370370e+00	 3.851852e+00	 1.014496e+01
0	 2.370370e+00	 3.925926e+00	 1.012408e+01
0	 2.370370e+00	 4.000000e+00	 1.010412e+01
0	 2.370370e+00	 4.074074e+00	 1.008521e+01
0	 2.444444e+00	 3.703704e+00	 1.022755e+01
0	 2.444444e+00	 3.777778e+00	 1.020358e+01
0	 2.444444e+00	 3.851852e+00	 1.018057e+01
0	 2.444444e+00	 3.925926e+00	 1.015869e+01
0	 2.444444e+00	 4.000000e+00	 1.013811e+01
0	 2.444444e+00	 4.074074e+00	 1.011900e+01
0	 2.518519e+00	 3.703704e+00	 1.026297e+01
0	 2.518519e+00	 3.777778e+00	 1.023748e+01
0	 2.518519e+00	 3.851852e+00	 1.021338e+01
0	 2.518519e+00	 3.925926e+00	 1.019082e+01
0	 2.518519e+00	 4.000000e+00	 1.016993e+01
0	 2.518519e+00	 4.074074e+00	 1.015087e+01
0	 2.592593e+00	 3.703704e+00	 1.029509e+01
0	 2.592593e+00	 3.777778e+00	 1.026858e+01
0	 2.592593e+00	 3.851852e+00	 1.024386e+01
0	 2.592593e+00	 3.925926e+00	 1.022099e+01
0	 2.592593e+00	 4.000000e+00	 1.020002e+01
0	 2.592593e+00	 4.074074e+00	 1.018104e+01
0	 2.222222e+00	 4.074074e+00	 1.001112e+01
0	 2.222222e+00	 4.148148e+00	 9.995432e+00
0	 2.222222e+00	 4.222222e+00	 9.981283e+00
0	 2.222222e+00	 4.296296e+00	 9.968770e+00
0	 2.222222e+00	 4.370370e+00	 9.957994e+00
0	 2.222222e+00	 4.444444e+00	 9.949056e+00
0	 2.296296e+00	 4.074074e+00	 1.004932e+01
0	 2.296296e+00	 4.148148e+00	 1.003240e+01
0	 2.296296e+00	 4.222222e+00	 1.001725e+01
0	 2.296296e+00	 4.296296e+00	 1.000387e+01
0	 2.296296e+00	 4.370370e+00	 9.992254e+00
0	 2.296296e+00	 4.444444e+00	 9.982406e+00
0	 2.370370e+00	 4.074074e+00	 1.008521e+01
0	 2.370370e+00	 4.148148e+00	 1.006776e+01
0	 2.370370e+00	 4.222222e+00	 1.005203e+01
0	 2.370370e+00	 4.296296e+00	 1.003794e+01
0	 2.370370e+00	 4.370370e+00	 1.002545e+01
0	 2.370370e+00	 4.444444e+00	 1.001449e+01
0	 2.444444e+00	 4.074074e+00	 1.011900e+01
0	 2.444444e+00	 4.148148e+00	 1.010144e+01
0	 2.444444e+00	 4.222222e+00	 1.008536e+01
0	 2.444444e+00	 4.296296e+00	 1.007068e+01
0	 2.444444e+00	 4.370370e+00	 1.005731e+01
0	 2.444444e+00	 4.444444e+00	 1.004515e+01
0	 2.518519e+00	 4.074074e+00	 1.015087e+01
0	 2.518519e+00	 4.148148e+00	 1.013337e+01
0	 2.518519e+00	 4.222222e+00	 1.011704e+01
0	 2.518519e+00	 4.296296e+00	 1.010178e+01
0	 2.518519e+00	 4.370370e+00	 1.008754e+01
0	 2.518519e+00	 4.444444e+00	 1.007422e+01
0	 2.592593e+00	 4.074074e+00	 1.018104e+01
0	 2.592593e+00	 4.148148e+00	 1.016350e+01
0	 2.592593e+00	 4.222222e+00	 1.014681e+01
0	 2.592593e+00	 4.296296e+00	 1.013094e+01
0	 2.592593e+00	 4.370370e+00	 1.011586e+01
0	 2.592593e+00	 4.444444e+00	 1.010154e+01
0	 2.222222e+00	 4.444444e+00	 9.949056e+00
0	 2.222222e+00	 4.518519e+00	 9.941339e+00
0	 2.222222e+00	 4.592593e+00	 9.934160e+00
0	 2.222222e+00	 4.666667e+00	 9.927514e+00
0	 2.222222e+00	 4.740741e+00	 9.921396e+00
0	 2.222222e+00	 4.814815e+00	 9.915803e+00
0	 2.296296e+00	 4.444444e+00	 9.982406e+00
0	 2.296296e+00	 4.518519e+00	 9.973647e+00
0	 2.296296e+00	 4.592593e+00	 9.965329e+00
0	 2.296296e+00	 4.666667e+00	 9.957501e+00
0	 2.296296e+00	 4.740741e+00	 9.950210e+00
0	 2.296296e+00	 4.814815e+00	 9.943507e+00
0	 2.370370e+00	 4.444444e+00	 1.001449e+01
0	 2.370370e+00	 4.518519e+00	 1.000449e+01
0	 2.370370e+00	 4.592593e+00	 9.994985e+00
0	 2.370370e+00	 4.666667e+00	 9.986050e+00
0	 2.370370e+00	 4.740741e+00	 9.977767e+00
0	 2.370370e+00	 4.814815e+00	 9.970214e+00
0	 2.444444e+00	 4.444444e+00	 1.004515e+01
0	 2.444444e+00	 4.518519e+00	 1.003385e+01
0	 2.444444e+00	 4.592593e+00	 1.002320e+01
0	 2.444444e+00	 4.666667e+00	 1.001327e+01
0	 2.444444e+00	 4.740741e+00	 1.000416e+01
0	 2.444444e+00	 4.814815e+00	 9.995942e+00
0	 2.518519e+00	 4.444444e+00	 1.007422e+01
0	 2.518519e+00	 4.518519e+00	 1.006172e+01
0	 2.518519e+00	 4.592593e+00	 1.005005e+01
0	 2.518519e+00	 4.666667e+00	 1.003927e+01
0	 2.518519e+00	 4.740741e+00	 1.002947e+01
0	 2.518519e+00	 4.814815e+00	 1.002071e+01
0	 2.592593e+00	 4.444444e+00	 1.010154e+01
0	 2.592593e+00	 4.518519e+00	 1.008808e+01
0	 2.592593e+00	 4.592593e+00	 1.007561e+01
0	 2.592593e+00	 4.666667e+00	 1.006417e+01
0	 2.592593e+00	 4.740741e+00	 1.005380e+01
0	 2.592593e+00	 4.814815e+00	 1.004454e+01
0	 2.222222e+00	 4.814815e+00	 9.915803e+00
0	 2.222222e+00	 4.888889e+00	 9.910796e+00
0	 2.222222e+00	 4.962963e+00	 9.906466e+00
0	 2.222222e+00	 5.037037e+00	 9.902852e+00
0	 2.222222e+00	 5.111111e+00	 9.899990e+00
0	 2.222222e+00	 5.185185e+00	 9.897918e+00
0	 2.296296e+00	 4.814815e+00	 9.943507e+00
0	 2.296296e+00	 4.888889e+00	 9.937494e+00
0	 2.296296e+00	 4.962963e+00	 9.932248e+00
0	 2.296296e+00	 5.037037e+00	 9.927772e+00
0	 2.296296e+00	 5.111111e+00	 9.924071e+00
0	 2.296296e+00	 5.185185e+00	 9.921152e+00
0	 2.370370e+00	 4.814815e+00	 9.970214e+00
0	 2.370370e+00	 4.888889e+00	 9.963440e+00
0	 2.370370e+00	 4.962963e+00	 9.957430e+00
0	 2.370370e+00	 5.037037e+00	 9.952171e+00
0	 2.370370e+00	 5.111111e+00	 9.947646e+00
0	 2.370370e+00	 5.185185e+00	 9.943842e+00
0	 2.444444e+00	 4.814815e+00	 9.995942e+00
0	 2.444444e+00	 4.888889e+00	 9.988567e+00
0	 2.444444e+00	 4.962963e+00	 9.981895e+00
0	 2.444444e+00	 5.037037e+00	 9.975906e+00
0	 2.444444e+00	 5.111111e+00	 9.970577e+00
0	 2.444444e+00	 5.185185e+00	 9.965888e+00
0	 2.518519e+00	 4.814815e+00	 1.002071e+01
0	 2.518519e+00	 4.888889e+00	 1.001281e+01
0	 2.518519e+00	 4.962963e+00	 1.000552e+01
0	 2.518519e+00	 5.037037e+00	 9.998833e+00
0	 2.518519e+00	 5.111111e+00	 9.992727e+00
0	 2.518519e+00	 5.185185e+00	 9.987188e+00
0	 2.592593e+00	 4.814815e+00	 1.004454e+01
0	 2.592593e+00	 4.888889e+00	 1.003610e+01
0	 2.592593e+00	 4.962963e+00	 1.002819e+01
0	 2.592593e+00	 5.037037e+00	 1.002081e+01
0	 2.592593e+00	 5.111111e+00	 1.001396e+01
0	 2.592593e+00	 5.185185e+00	 1.000764e+01
0	 2.222222e+00	 5.185185e+00	 9.897918e+00
0	 2.222222e+00	 5.259259e+00	 9.896386e+00
0	 2.222222e+00	 5.333333e+00	 9.895128e+00
0	 2.222222e+00	 5.407407e+00	 9.894156e+00
0	 2.222222e+00	 5.481481e+00	 9.893482e+00
0	 2.222222e+00	 5.555556e+00	 9.893119e+00
0	 2.296296e+00	 5.185185e+00	 9.921152e+00
0	 2.296296e+00	 5.259259e+00	 9.918749e+00
0	 2.296296e+00	 5.333333e+00	 9.916616e+00
0	 2.296296e+00	 5.407407e+00	 9.914780e+00
0	 2.296296e+00	 5.481481e+00	 9.913270e+00
0	 2.296296e+00	 5.555556e+00	 9.912115e+00
0	 2.370370e+00	 5.185185e+00	 9.943842e+00
0	 2.370370e+00	 5.259259e+00	 9.940533e+00
0	 2.370370e+00	 5.333333e+00	 9.937530e+00
0	 2.370370e+00	 5.407407e+00	 9.934868e+00
0	 2.370370e+00	 5.481481e+00	 9.932587e+00
0	 2.370370e+00	 5.555556e+00	 9.930722e+00
0	 2.444444e+00	 5.185185e+00	 9.965888e+00
0	 2.444444e+00	 5.259259e+00	 9.961681e+00
0	 2.444444e+00	 5.333333e+00	 9.957841e+00
0	 2.444444e+00	 5.407407e+00	 9.954405e+00
0	 2.444444e+00	 5.481481e+00	 9.951414e+00
0	 2.444444e+00	 5.555556e+00	 9.948905e+00
0	 2.518519e+00	 5.185185e+00	 9.987188e+00
0	 2.518519e+00	 5.259259e+00	 9.982136e+00
0	 2.518519e+00	 5.333333e+00	 9.977521e+00
0	 2.518519e+00	 5.407407e+00	 9.973376e+00
0	 2.518519e+00	 5.481481e+00	 9.969735e+00
0	 2.518519e+00	 5.555556e+00	 9.966631e+00
0	 2.592593e+00	 5.185185e+00	 1.000764e+01
0	 2.592593e+00	 5.259259e+00	 1.000184e+01
0	 2.592593e+00	 5.333333e+00	 9.996541e+00
0	 2.592593e+00	 5.407407e+00	 9.991766e+00
0	 2.592593e+00	 5.481481e+00	 9.987534e+00
0	 2.592593e+00	 5.555556e+00	 9.983866e+00
0	 2.222222e+00	 5.555556e+00	 9.893119e+00
0	 2.222222e+00	 5.629630e+00	 9.893044e+00
0	 2.222222e+00	 5.703704e+00	 9.893238e+00
0	 2.222222e+00	 5.777778e+00	 9.893718e+00
0	 2.222222e+00	 5.851852e+00	 9.894498e+00
0	 2.222222e+00	 5.925926e+00	 9.895595e+00
0	 2.296296e+00	 5.555556e+00	 9.912115e+00
0	 2.296296e+00	 5.629630e+00	 9.911298e+00
0	 2.296296e+00	 5.703704e+00	 9.910787e+00
0	 2.296296e+00	 5.777778e+00	 9.910589e+00
0	 2.296296e+00	 5.851852e+00	 9.910712e+00
0	 2.296296e+00	 5.925926e+00	 9.911161e+00
0	 2.370370e+00	 5.555556e+00	 9.930722e+00
0	 2.370370e+00	 5.629630e+00	 9.929238e+00
0	 2.370370e+00	 5.703704e+00	 9.928073e+00
0	 2.370370e+00	 5.777778e+00	 9.927229e+00
0	 2.370370e+00	 5.851852e+00	 9.926708e+00
0	 2.370370e+00	 5.925926e+00	 9.926511e+00
0	 2.444444e+00	 5.555556e+00	 9.948905e+00
0	 2.444444e+00	 5.629630e+00	 9.946809e+00
0	 2.444444e+00	 5.703704e+00	 9.945028e+00
0	 2.444444e+00	 5.777778e+00	 9.943564e+00
0	 2.444444e+00	 5.851852e+00	 9.942416e+00
0	 2.444444e+00	 5.925926e+00	 9.941586e+00
0	 2.518519e+00	 5.555556e+00	 9.966631e+00
0	 2.518519e+00	 5.629630e+00	 9.963957e+00
0	 2.518519e+00	 5.703704e+00	 9.961586e+00
0	 2.518519e+00	 5.777778e+00	 9.959522e+00
0	 2.518519e+00	 5.851852e+00	 9.957767e+00
0	 2.518519e+00	 5.925926e+00	 9.956325e+00
0	 2.592593e+00	 5.555556e+00	 9.983866e+00
0	 2.592593e+00	 5.629630e+00	 9.980627e+00
0	 2.592593e+00	 5.703704e+00	 9.977679e+00
0	 2.592593e+00	 5.777778e+00	 9.975030e+00
0	 2.592593e+00	 5.851852e+00	 9.972689e+00
0	 2.592593e+00	 5.925926e+00	 9.970667e+00
0	 2.222222e+00	 5.925926e+00	 9.895595e+00
0	 2.222222e+00	 6.000000e+00	 9.896912e+00
0	 2.222222e+00	 6.074074e+00	 9.898348e+00
0	 2.222222e+00	 6.148148e+00	 9.899912e+00
0	 2.222222e+00	 6.222222e+00	 9.901616e+00
0	 2.222222e+00	 6.296296e+00	 9.903468e+00
0	 2.296296e+00	 5.925926e+00	 9.911161e+00
0	 2.296296e+00	 6.000000e+00	 9.911837e+00
0	 2.296296e+00	 6.074074e+00	 9.912646e+00
0	 2.296296e+00	 6.148148e+00	 9.913601e+00
0	 2.296296e+00	 6.222222e+00	 9.914718e+00
0	 2.296296e+00	 6.296296e+00	 9.916010e+00
0	 2.370370e+00	 5.925926e+00	 9.926511e+00
0	 2.370370e+00	 6.000000e+00	 9.926549e+00
0	 2.370370e+00	 6.074074e+00	 9.926742e+00
0	 2.370370e+00	 6.148148e+00	 9.927106e+00
0	 2.370370e+00	 6.222222e+00	 9.927658e+00
0	 2.370370e+00	 6.296296e+00	 9.928416e+00
0	 2.444444e+00	 5.925926e+00	 9.941586e+00
0	 2.444444e+00	 6.000000e+00	 9.941000e+00
0	 2.444444e+00	 6.074074e+00	 9.940596e+00
0	 2.444444e+00	 6.148148e+00	 9.940391e+00
0	 2.444444e+00	 6.222222e+00	 9.940403e+00
0	 2.444444e+00	 6.296296e+00	 9.940649e+00
0	 2.518519e+00	 5.925926e+00	 9.956325e+00
0	 2.518519e+00	 6.000000e+00	 9.955141e+00
0	 2.518519e+00	 6.074074e+00	 9.954168e+00
0	 2.518519e+00	 6.148148e+00	 9.953423e+00
0	 2.518519e+00	 6.222222e+00	 9.952919e+00
0	 2.518519e+00	 6.296296e+00	 9.952672e+00
0	 2.592593e+00	 5.925926e+00	 9.970667e+00
0	 2.592593e+00	 6.000000e+00	 9.968924e+00
0	 2.592593e+00	 6.074074e+00	 9.967419e+00
0	 2.592593e+00	 6.148148e+00	 9.966165e+00
0	 2.592593e+00	 6.222222e+00	 9.965172e+00
0	 2.592593e+00	 6.296296e+00	 9.964452e+00
0	 2.222222e+00	 6.296296e+00	 9.903468e+00
0	 2.222222e+00	 6.370370e+00	 9.905439e+00
0	 2.222222e+00	 6.444444e+00	 9.907497e+00
0	 2.222222e+00	 6.518519e+00	 9.909651e+00
0	 2.222222e+00	 6.592593e+00	 9.911909e+00
0	 2.222222e+00	 6.666667e+00	 9.914279e+00
0	 2.296296e+00	 6.296296e+00	 9.916010e+00
0	 2.296296e+00	 6.370370e+00	 9.917447e+00
0	 2.296296e+00	 6.444444e+00	 9.918990e+00
0	 2.296296e+00	 6.518519e+00	 9.920645e+00
0	 2.296296e+00	 6.592593e+00	 9.922420e+00
0	 2.296296e+00	 6.666667e+00	 9.924321e+00
0	 2.370370e+00	 6.296296e+00	 9.928416e+00
0	 2.370370e+00	 6.370370e+00	 9.929340e+00
0	 2.370370e+00	 6.444444e+00	 9.930384e+00
0	 2.370370e+00	 6.518519e+00	 9.931554e+00
0	 2.370370e+00	 6.592593e+00	 9.932854e+00
0	 2.370370e+00	 6.666667e+00	 9.934289e+00
0	 2.444444e+00	 6.296296e+00	 9.940649e+00
0	 2.444444e+00	 6.370370e+00	 9.941079e+00
0	 2.444444e+00	 6.444444e+00	 9.941640e+00
0	 2.444444e+00	 6.518519e+00	 9.942335e+00
0	 2.444444e+00	 6.592593e+00	 9.943169e+00
0	 2.444444e+00	 6.666667e+00	 9.944149e+00
0	 2.518519e+00	 6.296296e+00	 9.952672e+00
0	 2.518519e+00	 6.370370e+00	 9.952626e+00
0	 2.518519e+00	 6.444444e+00	 9.952715e+00
0	 2.518519e+00	 6.518519e+00	 9.952947e+00
0	 2.518519e+00	 6.592593e+00	 9.953328e+00
0	 2.518519e+00	 6.666667e+00	 9.953862e+00
0	 2.592593e+00	 6.296296e+00	 9.964452e+00
0	 2.592593e+00	 6.370370e+00	 9.963940e+00
0	 2.592593e+00	 6.444444e+00	 9.963570e+00
0	 2.592593e+00	 6.518519e+00	 9.963351e+00
0	 2.592593e+00	 6.592593e+00	 9.963289e+00
0	 2.592593e+00	 6.666667e+00	 9.963394e+00
0	 2.222222e+00	 6.666667e+00	 9.914279e+00
0	 2.222222e+00	 6.740741e+00	 9.916721e+00
0	 2.222222e+00	 6.814815e+00	 9.919190e+00
0	 2.222222e+00	 6.888889e+00	 9.921695e+00
0	 2.222222e+00	 6.962963e+00	 9.924242e+00
0	 2.222222e+00	 7.037037e+00	 9.926837e+00
0	 2.296296e+00	 6.666667e+00	 9.924321e+00
0	 2.296296e+00	 6.740741e+00	 9.926304e+00
0	 2.296296e+00	 6.814815e+00	 9.928329e+00
0	 2.296296e+00	 6.888889e+00	 9.930403e+00
0	 2.296296e+00	 6.962963e+00	 9.932534e+00
0	 2.296296e+00	 7.037037e+00	 9.934730e+00
0	 2.370370e+00	 6.666667e+00	 9.934289e+00
0	 2.370370e+00	 6.740741e+00	 9.935820e+00
0	 2.370370e+00	 6.814815e+00	 9.937406e+00
0	 2.370370e+00	 6.888889e+00	 9.939057e+00
0	 2.370370e+00	 6.962963e+00	 9.940780e+00
0	 2.370370e+00	 7.037037e+00	 9.942584e+00
0	 2.444444e+00	 6.666667e+00	 9.944149e+00
0	 2.444444e+00	 6.740741e+00	 9.945235e+00
0	 2.444444e+00	 6.814815e+00	 9.946392e+00
0	 2.444444e+00	 6.888889e+00	 9.947628e+00
0	 2.444444e+00	 6.962963e+00	 9.948953e+00
0	 2.444444e+00	 7.037037e+00	 9.950373e+00
0	 2.518519e+00	 6.666667e+00	 9.953862e+00
0	 2.518519e+00	 6.740741e+00	 9.954516e+00
0	 2.518519e+00	 6.814815e+00	 9.955256e+00
0	 2.518519e+00	 6.888889e+00	 9.956090e+00
0	 2.518519e+00	 6.962963e+00	 9.957026e+00
0	 2.518519e+00	 7.037037e+00	 9.958071e+00
0	 2.592593e+00	 6.666667e+00	 9.963394e+00
0	 2.592593e+00	 6.740741e+00	 9.963631e+00
0	 2.592593e+00	 6.814815e+00	 9.963969e+00
0	 2.592593e+00	 6.888889e+00	 9.964413e+00
0	 2.592593e+00	 6.962963e+00	 9.964972e+00
0	 2.592593e+00	 7.037037e+00	 9.965651e+00
0	 2.222222e+00	 7.037037e+00	 9.926837e+00
0	 2.222222e+00	 7.111111e+00	 9.929458e+00
0	 2.222222e+00	 7.185185e+00	 9.932082e+00
0	 2.222222e+00	 7.259259e+00	 9.934713e+00
0	 2.222222e+00	 7.333333e+00	 9.937357e+00
0	 2.222222e+00	 7.407407e+00	 9.940020e+00
0	 2.296296e+00	 7.037037e+00	 9.934730e+00
0	 2.296296e+00	 7.111111e+00	 9.936966e+00
0	 2.296296e+00	 7.185185e+00	 9.939217e+00
0	 2.296296e+00	 7.259259e+00	 9.941487e+00
0	 2.296296e+00	 7.333333e+00	 9.943782e+00
0	 2.296296e+00	 7.407407e+00	 9.946106e+00
0	 2.370370e+00	 7.037037e+00	 9.942584e+00
0	 2.370370e+00	 7.111111e+00	 9.944442e+00
0	 2.370370e+00	 7.185185e+00	 9.946326e+00
0	 2.370370e+00	 7.259259e+00	 9.948239e+00
0	 2.370370e+00	 7.333333e+00	 9.950188e+00
0	 2.370370e+00	 7.407407e+00	 9.952176e+00
0	 2.444444e+00	 7.037037e+00	 9.950373e+00
0	 2.444444e+00	 7.111111e+00	 9.951860e+00
0	 2.444444e+00	 7.185185e+00	 9.953382e+00
0	 2.444444e+00	 7.259259e+00	 9.954944e+00
0	 2.444444e+00	 7.333333e+00	 9.956551e+00
0	 2.444444e+00	 7.407407e+00	 9.958207e+00
0	 2.518519e+00	 7.037037e+00	 9.958071e+00
0	 2.518519e+00	 7.111111e+00	 9.959193e+00
0	 2.518519e+00	 7.185185e+00	 9.960360e+00
0	 2.518519e+00	 7.259259e+00	 9.961576e+00
0	 2.518519e+00	 7.333333e+00	 9.962847e+00
0	 2.518519e+00	 7.407407e+00	 9.964177e+00
0	 2.592593e+00	 7.037037e+00	 9.965651e+00
0	 2.592593e+00	 7.111111e+00	 9.966417e+00
0	 2.592593e+00	 7.185185e+00	 9.967236e+00
0	 2.592593e+00	 7.259259e+00	 9.968113e+00
0	 2.592593e+00	 7.333333e+00	 9.969053e+00
0	 2.592593e+00	 7.407407e+00	 9.970064e+00
0	 2.222222e+00	 7.407407e+00	 9.940020e+00
0	 2.222222e+00	 7.481481e+00	 9.942679e+00
0	 2.222222e+00	 7.555556e+00	 9.945312e+00
0	 2.222222e+00	 7.629630e+00	 9.947925e+00
0	 2.222222e+00	 7.703704e+00	 9.950521e+00
0	 2.222222e+00	 7.777778e+00	 9.953107e+00
0	 2.296296e+00	 7.407407e+00	 9.946106e+00
0	 2.296296e+00	 7.481481e+00	 9.948437e+00
0	 2.296296e+00	 7.555556e+00	 9.950753e+00
0	 2.296296e+00	 7.629630e+00	 9.953057e+00
0	 2.296296e+00	 7.703704e+00	 9.955356e+00
0	 2.296296e+00	 7.777778e+00	 9.957654e+00
0	 2.370370e+00	 7.407407e+00	 9.952176e+00
0	 2.370370e+00	 7.481481e+00	 9.954181e+00
0	 2.370370e+00	 7.555556e+00	 9.956181e+00
0	 2.370370e+00	 7.629630e+00	 9.958180e+00
0	 2.370370e+00	 7.703704e+00	 9.960183e+00
0	 2.370370e+00	 7.777778e+00	 9.962196e+00
0	 2.444444e+00	 7.407407e+00	 9.958207e+00
0	 2.444444e+00	 7.481481e+00	 9.959890e+00
0	 2.444444e+00	 7.555556e+00	 9.961578e+00
0	 2.444444e+00	 7.629630e+00	 9.963275e+00
0	 2.444444e+00	 7.703704e+00	 9.964986e+00
0	 2.444444e+00	 7.777778e+00	 9.966717e+00
0	 2.518519e+00	 7.407407e+00	 9.964177e+00
0	 2.518519e+00	 7.481481e+00	 9.965544e+00
0	 2.518519e+00	 7.555556e+00	 9.966924e+00
0	 2.518519e+00	 7.629630e+00	 9.968324e+00
0	 2.518519e+00	 7.703704e+00	 9.969747e+00
0	 2.518519e+00	 7.777778e+00	 9.971200e+00
0	 2.592593e+00	 7.407407e+00	 9.970064e+00
0	 2.592593e+00	 7.481481e+00	 9.971120e+00
0	 2.592593e+00	 7.555556e+00	 9.972200e+00
0	 2.592593e+00	 7.629630e+00	 9.973308e+00
0	 2.592593e+00	 7.703704e+00	 9.974449e+00
0	 2.592593e+00	 7.777778e+00	 9.975627e+00
0	 2.222222e+00	 7.777778e+00	 9.953107e+00
0	 2.222222e+00	 7.851852e+00	 9.955664e+00
0	 2.222222e+00	 7.925926e+00	 9.958176e+00
0	 2.222222e+00	 8.000000e+00	 9.960646e+00
0	 2.222222e+00	 8.074074e+00	 9.963080e+00
0	 2.222222e+00	 8.148148e+00	 9.965482e+00
0	 2.296296e+00	 7.777778e+00	 9.957654e+00
0	 2.296296e+00	 7.851852e+00	 9.959934e+00
0	 2.296296e+00	 7.925926e+00	 9.962178e+00
0	 2.296296e+00	 8.000000e+00	 9.964389e+00
0	 2.296296e+00	 8.074074e+00	 9.966572e+00
0	 2.296296e+00	 8.148148e+00	 9.968731e+00
0	 2.370370e+00	 7.777778e+00	 9.962196e+00
0	 2.370370e+00	 7.851852e+00	 9.964201e+00
0	 2.370370e+00	 7.925926e+00	 9.966178e+00
0	 2.370370e+00	 8.000000e+00	 9.968130e+00
0	 2.370370e+00	 8.074074e+00	 9.970064e+00
0	 2.370370e+00	 8.148148e+00	 9.971982e+00
0	 2.444444e+00	 7.777778e+00	 9.966717e+00
0	 2.444444e+00	 7.851852e+00	 9.968449e+00
0	 2.444444e+00	 7.925926e+00	 9.970161e+00
0	 2.444444e+00	 8.000000e+00	 9.971857e+00
0	 2.444444e+00	 8.074074e+00	 9.973542e+00
0	 2.444444e+00	 8.148148e+00	 9.975220e+00
0	 2.518519e+00	 7.777778e+00	 9.971200e+00
0	 2.518519e+00	 7.851852e+00	 9.972661e+00
0	 2.518519e+00	 7.925926e+00	 9.974111e+00
0	 2.518519e+00	 8.000000e+00	 9.975554e+00
0	 2.518519e+00	 8.074074e+00	 9.976994e+00
0	 2.518519e+00	 8.148148e+00	 9.978434e+00
0	 2.592593e+00	 7.777778e+00	 9.975627e+00
0	 2.592593e+00	 7.851852e+00	 9.976823e+00
0	 2.592593e+00	 7.925926e+00	 9.978015e+00
0	 2.592593e+00	 8.000000e+00	 9.979207e+00
0	 2.592593e+00	 8.074074e+00	 9.980405e+00
0	 2.592593e+00	 8.148148e+00	 9.981611e+00
0	 2.222222e+00	 8.148148e+00	 9.965482e+00
0	 2.222222e+00	 8.222222e+00	 9.967835e+00
0	 2.222222e+00	 8.296296e+00	 9.970124e+00
0	 2.222222e+00	 8.370370e+00	 9.972352e+00
0	 2.222222e+00	 8.444444e+00	 9.974525e+00
0	 2.222222e+00	 8.518519e+00	 9.976647e+00
0	 2.296296e+00	 8.148148e+00	 9.968731e+00
0	 2.296296e+00	 8.222222e+00	 9.970851e+00
0	 2.296296e+00	 8.296296e+00	 9.972914e+00
0	 2.296296e+00	 8.370370e+00	 9.974925e+00
0	 2.296296e+00	 8.444444e+00	 9.976889e+00
0	 2.296296e+00	 8.518519e+00	 9.978809e+00
0	 2.370370e+00	 8.148148e+00	 9.971982e+00
0	 2.370370e+00	 8.222222e+00	 9.973868e+00
0	 2.370370e+00	 8.296296e+00	 9.975707e+00
0	 2.370370e+00	 8.370370e+00	 9.977501e+00
0	 2.370370e+00	 8.444444e+00	 9.979256e+00
0	 2.370370e+00	 8.518519e+00	 9.980976e+00
0	 2.444444e+00	 8.148148e+00	 9.975220e+00
0	 2.444444e+00	 8.222222e+00	 9.976875e+00
0	 2.444444e+00	 8.296296e+00	 9.978490e+00
0	 2.444444e+00	 8.370370e+00	 9.980069e+00
0	 2.444444e+00	 8.444444e+00	 9.981617e+00
0	 2.444444e+00	 8.518519e+00	 9.983137e+00
0	 2.518519e+00	 8.148148e+00	 9.978434e+00
0	 2.518519e+00	 8.222222e+00	 9.979860e+00
0	 2.518519e+00	 8.296296e+00	 9.981253e+00
0	 2.518519e+00	 8.370370e+00	 9.982619e+00
0	 2.518519e+00	 8.444444e+00	 9.983961e+00
0	 2.518519e+00	 8.518519e+00	 9.985282e+00
0	 2.592593e+00	 8.148148e+00	 9.981611e+00
0	 2.592593e+00	 8.222222e+00	 9.982809e+00
0	 2.592593e+00	 8.296296e+00	 9.983984e+00
0	 2.592593e+00	 8.370370e+00	 9.985139e+00
0	 2.592593e+00	 8.444444e+00	 9.986277e+00
0	 2.592593e+00	 8.518519e+00	 9.987403e+00
0	 2.222222e+00	 8.518519e+00	 9.976647e+00
0	 2.222222e+00	 8.592593e+00	 9.978701e+00
0	 2.222222e+00	 8.666667e+00	 9.980673e+00
0	 2.222222e+00	 8.740741e+00	 9.982567e+00
0	 2.222222e+00	 8.814815e+00	 9.984387e+00
0	 2.222222e+00	 8.888889e+00	 9.986138e+00
0	 2.296296e+00	 8.518519e+00	 9.978809e+00
0	 2.296296e+00	 8.592593e+00	 9.980671e+00
0	 2.296296e+00	 8.666667e+00	 9.982458e+00
0	 2.296296e+00	 8.740741e+00	 9.984175e+00
0	 2.296296e+00	 8.814815e+00	 9.985827e+00
0	 2.296296e+00	 8.888889e+00	 9.987417e+00
0	 2.370370e+00	 8.518519e+00	 9.980976e+00
0	 2.370370e+00	 8.592593e+00	 9.982645e+00
0	 2.370370e+00	 8.666667e+00	 9.984248e+00
0	 2.370370e+00	 8.740741e+00	 9.985789e+00
0	 2.370370e+00	 8.814815e+00	 9.987272e+00
0	 2.370370e+00	 8.888889e+00	 9.988701e+00
0	 2.444444e+00	 8.518519e+00	 9.983137e+00
0	 2.444444e+00	 8.592593e+00	 9.984614e+00
0	 2.444444e+00	 8.666667e+00	 9.986033e+00
0	 2.444444e+00	 8.740741e+00	 9.987399e+00
0	 2.444444e+00	 8.814815e+00	 9.988715e+00
0	 2.444444e+00	 8.888889e+00	 9.989984e+00
0	 2.518519e+00	 8.518519e+00	 9.985282e+00
0	 2.518519e+00	 8.592593e+00	 9.986569e+00
0	 2.518519e+00	 8.666667e+00	 9.987806e+00
0	 2.518519e+00	 8.740741e+00	 9.988998e+00
0	 2.518519e+00	 8.814815e+00	 9.990146e+00
0	 2.518519e+00	 8.888889e+00	 9.991256e+00
0	 2.592593e+00	 8.518519e+00	 9.987403e+00
0	 2.592593e+00	 8.592593e+00	 9.988501e+00
0	 2.592593e+00	 8.666667e+00	 9.989557e+00
0	 2.592593e+00	 8.740741e+00	 9.990576e+00
0	 2.592593e+00	 8.814815e+00	 9.991560e+00
0	 2.592593e+00	 8.888889e+00	 9.992511e+00
0	 2.222222e+00	 8.888889e+00	 9.986138e+00
0	 2.222222e+00	 8.962963e+00	 9.987805e+00
0	 2.222222e+00	 9.037037e+00	 9.989370e+00
0	 2.222222e+00	 9.111111e+00	 9.990840e+00
0	 2.222222e+00	 9.185185e+00	 9.992218e+00
0	 2.222222e+00	 9.259259e+00	 9.993509e+00
0	 2.296296e+00	 8.888889e+00	 9.987417e+00
0	 2.296296e+00	 8.962963e+00	 9.988931e+00
0	 2.296296e+00	 9.037037e+00	 9.990352e+00
0	 2.296296e+00	 9.111111e+00	 9.991687e+00
0	 2.296296e+00	 9.185185e+00	 9.992938e+00
0	 2.296296e+00	 9.259259e+00	 9.994111e+00
0	 2.370370e+00	 8.888889e+00	 9.988701e+00
0	 2.370370e+00	 8.962963e+00	 9.990062e+00
0	 2.370370e+00	 9.037037e+00	 9.991341e+00
0	 2.370370e+00	 9.111111e+00	 9.992541e+00
0	 2.370370e+00	 9.185185e+00	 9.993666e+00
0	 2.370370e+00	 9.259259e+00	 9.994720e+00
0	 2.444444e+00	 8.888889e+00	 9.989984e+00
0	 2.444444e+00	 8.962963e+00	 9.991193e+00
0	 2.444444e+00	 9.037037e+00	 9.992328e+00
0	 2.444444e+00	 9.111111e+00	 9.993394e+00
0	 2.444444e+00	 9.185185e+00	 9.994393e+00
0	 2.444444e+00	 9.259259e+00	 9.995330e+00
0	 2.518519e+00	 8.888889e+00	 9.991256e+00
0	 2.518519e+00	 8.962963e+00	 9.992314e+00
0	 2.518519e+00	 9.037037e+00	 9.993308e+00
0	 2.518519e+00	 9.111111e+00	 9.994240e+00
0	 2.518519e+00	 9.185185e+00	 9.995114e+00
0	 2.518519e+00	 9.259259e+00	 9.995933e+00
0	 2.592593e+00	 8.888889e+00	 9.992511e+00
0	 2.592593e+00	 8.962963e+00	 9.993420e+00
0	 2.592593e+00	 9.037037e+00	 9.994272e+00
0	 2.592593e+00	 9.111111e+00	 9.995072e+00
0	 2.592593e+00	 9.185185e+00	 9.995822e+00
0	 2.592593e+00	 9.259259e+00	 9.996524e+00
0	 2.222222e+00	 9.259259e+00	 9.993509e+00
0	 2.222222e+00	 9.333333e+00	 9.994697e+00
0	 2.222222e+00	 9.407407e+00	 9.995764e+00
0	 2.222222e+00	 9.481481e+00	 9.996715e+00
0	 2.222222e+00	 9.555556e+00	 9.997556e+00
0	 2.222222e+00	 9.629630e+00	 9.998291e+00
0	 2.296296e+00	 9.259259e+00	 9.994111e+00
0	 2.296296e+00	 9.333333e+00	 9.995190e+00
0	 2.296296e+00	 9.407407e+00	 9.996158e+00
0	 2.296296e+00	 9.481481e+00	 9.997021e+00
0	 2.296296e+00	 9.555556e+00	 9.997783e+00
0	 2.296296e+00	 9.629630e+00	 9.998448e+00
0	 2.370370e+00	 9.259259e+00	 9.994720e+00
0	 2.370370e+00	 9.333333e+00	 9.995690e+00
0	 2.370370e+00	 9.407407e+00	 9.996560e+00
0	 2.370370e+00	 9.481481e+00	 9.997335e+00
0	 2.370370e+00	 9.555556e+00	 9.998019e+00
0	 2.370370e+00	 9.629630e+00	 9.998615e+00
0	 2.444444e+00	 9.259259e+00	 9.995330e+00
0	 2.444444e+00	 9.333333e+00	 9.996190e+00
0	 2.444444e+00	 9.407407e+00	 9.996963e+00
0	 2.444444e+00	 9.481481e+00	 9.997650e+00
0	 2.444444e+00	 9.555556e+00	 9.998256e+00
0	 2.444444e+00	 9.629630e+00	 9.998783e+00
0	 2.518519e+00	 9.259259e+00	 9.995933e+00
0	 2.518519e+00	 9.333333e+00	 9.996686e+00
0	 2.518519e+00	 9.407407e+00	 9.997361e+00
0	 2.518519e+00	 9.481481e+00	 9.997961e+00
0	 2.518519e+00	 9.555556e+00	 9.998489e+00
0	 2.518519e+00	 9.629630e+00	 9.998948e+00
0	 2.592593e+00	 9.259259e+00	 9.996524e+00
0	 2.592593e+00	 9.333333e+00	 9.997169e+00
0	 2.592593e+00	 9.407407e+00	 9.997748e+00
0	 2.592593e+00	 9.481481e+00	 9.998261e+00
0	 2.592593e+00	 9.555556e+00	 9.998712e+00
0	 2.592593e+00	 9.629630e+00	 9.999102e+00
0	 2.222222e+00	 9.629630e+00	 9.998291e+00
0	 2.222222e+00	 9.703704e+00	 9.998903e+00
0	 2.222222e+00	 9.777778e+00	 9.999376e+00
0	 2.222222e+00	 9.851852e+00	 9.999715e+00
0	 2.222222e+00	 9.925926e+00	 9.999925e+00
0	 2.222222e+00	 1.000000e+01	 1.000001e+01
0	 2.296296e+00	 9.629630e+00	 9.998448e+00
0	 2.296296e+00	 9.703704e+00	 9.999002e+00
0	 2.296296e+00	 9.777778e+00	 9.999430e+00
0	 2.296296e+00	 9.851852e+00	 9.999736e+00
0	 2.296296e+00	 9.925926e+00	 9.999925e+00
0	 2.296296e+00	 1.000000e+01	 1.000000e+01
0	 2.370370e+00	 9.629630e+00	 9.998615e+00
0	 2.370370e+00	 9.703704e+00	 9.999111e+00
0	 2.370370e+00	 9.777778e+00	 9.999494e+00
0	 2.370370e+00	 9.851852e+00	 9.999768e+00
0	 2.370370e+00	 9.925926e+00	 9.999936e+00
0	 2.370370e+00	 1.000000e+01	 1.000000e+01
0	 2.444444e+00	 9.629630e+00	 9.998783e+00
0	 2.444444e+00	 9.703704e+00	 9.999221e+00
0	 2.444444e+00	 9.777778e+00	 9.999560e+00
0	 2.444444e+00	 9.851852e+00	 9.999803e+00
0	 2.444444e+00	 9.925926e+00	 9.999951e+00
0	 2.444444e+00	 1.000000e+01	 1.000001e+01
0	 2.518519e+00	 9.629630e+00	 9.998948e+00
0	 2.518519e+00	 9.703704e+00	 9.999329e+00
0	 2.518519e+00	 9.777778e+00	 9.999623e+00
0	 2.518519e+00	 9.851852e+00	 9.999834e+00
0	 2.518519e+00	 9.925926e+00	 9.999962e+00
0	 2.518519e+00	 1.000000e+01	 1.000001e+01
0	 2.592593e+00	 9.629630e+00	 9.999102e+00
0	 2.592593e+00	 9.703704e+00	 9.999426e+00
0	 2.592593e+00	 9.777778e+00	 9.999676e+00
0	 2.592593e+00	 9.851852e+00	 9.999855e+00
0	 2.592593e+00	 9.925926e+00	 9.999963e+00
0	 2.592593e+00	 1.000000e+01	 1.000000e+01
0	 2.592593e+00	 0.000000e+00	 1.124287e+01
0	 2.592593e+00	 7.407407e-02	 1.119492e+01
0	 2.592593e+00	 1.481481e-01	 1.117709e+01
0	 2.592593e+00	 2.222222e-01	 1.118769e+01
0	 2.592593e+00	 2.962963e-01	 1.122504e+01
0	 2.592593e+00	 3.703704e-01	 1.128746e+01
0	 2.666667e+00	 0.000000e+00	 1.121500e+01
0	 2.666667e+00	 7.407407e-02	 1.117421e+01
0	 2.666667e+00	 1.481481e-01	 1.115611e+01
0	 2.666667e+00	 2.222222e-01	 1.116313e+01
0	 2.666667e+00	 2.962963e-01	 1.119770e+01
0	 2.666667e+00	 3.703704e-01	 1.126225e+01
0	 2.740741e+00	 0.000000e+00	 1.116643e+01
0	 2.740741e+00	 7.407407e-02	 1.114499e+01
0	 2.740741e+00	 1.481481e-01	 1.113460e+01
0	 2.740741e+00	 2.222222e-01	 1.114015e+01
0	 2.740741e+00	 2.962963e-01	 1.116652e+01
0	 2.740741e+00	 3.703704e-01	 1.121859e+01
0	 2.814815e+00	 0.000000e+00	 1.110257e+01
0	 2.814815e+00	 7.407407e-02	 1.110469e+01
0	 2.814815e+00	 1.481481e-01	 1.110580e+01
0	 2.814815e+00	 2.222222e-01	 1.111159e+01
0	 2.814815e+00	 2.962963e-01	 1.112776e+01
0	 2.814815e+00	 3.703704e-01	 1.115999e+01
0	 2.888889e+00	 0.000000e+00	 1.102880e+01
0	 2.888889e+00	 7.407407e-02	 1.105072e+01
0	 2.888889e+00	 1.481481e-01	 1.106294e+01
0	 2.888889e+00	 2.222222e-01	 1.107031e+01
0	 2.888889e+00	 2.962963e-01	 1.107770e+01
0	 2.888889e+00	 3.703704e-01	 1.108995e+01
0	 2.962963e+00	 0.000000e+00	 1.095052e+01
0	 2.962963e+00	 7.407407e-02	 1.098048e+01
0	 2.962963e+00	 1.481481e-01	 1.099923e+01
0	 2.962963e+00	 2.222222e-01	 1.100915e+01
0	 2.962963e+00	 2.962963e-01	 1.101261e+01
0	 2.962963e+00	 3.703704e-01	 1.101197e+01
0	 2.592593e+00	 3.703704e-01	 1.128746e+01
0	 2.592593e+00	 4.444444e-01	 1.135035e+01
0	 2.592593e+00	 5.185185e-01	 1.139257e+01
0	 2.592593e+00	 5.925926e-01	 1.141756e+01
0	 2.592593e+00	 6.666667e-01	 1.142881e+01
0	 2.592593e+00	 7.407407e-01	 1.142977e+01
0	 2.666667e+00	 3.703704e-01	 1.126225e+01
0	 2.666667e+00	 4.444444e-01	 1.133124e+01
0	 2.666667e+00	 5.185185e-01	 1.137841e+01
0	 2.666667e+00	 5.925926e-01	 1.140503e+01
0	 2.666667e+00	 6.666667e-01	 1.141239e+01
0	 2.666667e+00	 7.407407e-01	 1.140177e+01
0	 2.740741e+00	 3.703704e-01	 1.121859e+01
0	 2.740741e+00	 4.444444e-01	 1.127729e+01
0	 2.740741e+00	 5.185185e-01	 1.132019e+01
0	 2.740741e+00	 5.925926e-01	 1.134712e+01
0	 2.740741e+00	 6.666667e-01	 1.135790e+01
0	 2.740741e+00	 7.407407e-01	 1.135237e+01
0	 2.814815e+00	 3.703704e-01	 1.115999e+01
0	 2.814815e+00	 4.444444e-01	 1.119934e+01
0	 2.814815e+00	 5.185185e-01	 1.123247e+01
0	 2.814815e+00	 5.925926e-01	 1.125849e+01
0	 2.814815e+00	 6.666667e-01	 1.127649e+01
0	 2.814815e+00	 7.407407e-01	 1.128557e+01
0	 2.888889e+00	 3.703704e-01	 1.108995e+01
0	 2.888889e+00	 4.444444e-01	 1.110821e+01
0	 2.888889e+00	 5.185185e-01	 1.112978e+01
0	 2.888889e+00	 5.925926e-01	 1.115377e+01
0	 2.888889e+00	 6.666667e-01	 1.117928e+01
0	 2.888889e+00	 7.407407e-01	 1.120540e+01
0	 2.962963e+00	 3.703704e-01	 1.101197e+01
0	 2.962963e+00	 4.444444e-01	 1.101473e+01
0	 2.962963e+00	 5.185185e-01	 1.102667e+01
0	 2.962963e+00	 5.925926e-01	 1.104762e+01
0	 2.962963e+00	 6.666667e-01	 1.107742e+01
0	 2.962963e+00	 7.407407e-01	 1.111588e+01
0	 2.592593e+00	 7.407407e-01	 1.142977e+01
0	 2.592593e+00	 8.148148e-01	 1.143024e+01
0	 2.592593e+00	 8.888889e-01	 1.143734e+01
0	 2.592593e+00	 9.629630e-01	 1.145057e+01
0	 2.592593e+00	 1.037037e+00	 1.146943e+01
0	 2.592593e+00	 1.111111e+00	 1.149340e+01
0	 2.666667e+00	 7.407407e-01	 1.140177e+01
0	 2.666667e+00	 8.148148e-01	 1.138691e+01
0	 2.666667e+00	 8.888889e-01	 1.138090e+01
0	 2.666667e+00	 9.629630e-01	 1.138415e+01
0	 2.666667e+00	 1.037037e+00	 1.139702e+01
0	 2.666667e+00	 1.111111e+00	 1.141991e+01
0	 2.740741e+00	 7.407407e-01	 1.135237e+01
0	 2.740741e+00	 8.148148e-01	 1.134129e+01
0	 2.740741e+00	 8.888889e-01	 1.133623e+01
0	 2.740741e+00	 9.629630e-01	 1.133819e+01
0	 2.740741e+00	 1.037037e+00	 1.134817e+01
0	 2.740741e+00	 1.111111e+00	 1.136719e+01
0	 2.814815e+00	 7.407407e-01	 1.128557e+01
0	 2.814815e+00	 8.148148e-01	 1.128970e+01
0	 2.814815e+00	 8.888889e-01	 1.129435e+01
0	 2.814815e+00	 9.629630e-01	 1.130088e+01
0	 2.814815e+00	 1.037037e+00	 1.131065e+01
0	 2.814815e+00	 1.111111e+00	 1.132502e+01
0	 2.888889e+00	 7.407407e-01	 1.120540e+01
0	 2.888889e+00	 8.148148e-01	 1.122845e+01
0	 2.888889e+00	 8.888889e-01	 1.124629e+01
0	 2.888889e+00	 9.629630e-01	 1.126040e+01
0	 2.888889e+00	 1.037037e+00	 1.127220e+01
0	 2.888889e+00	 1.111111e+00	 1.128317e+01
0	 2.962963e+00	 7.407407e-01	 1.111588e+01
0	 2.962963e+00	 8.148148e-01	 1.115383e+01
0	 2.962963e+00	 8.888889e-01	 1.118309e+01
0	 2.962963e+00	 9.629630e-01	 1.120492e+01
0	 2.962963e+00	 1.037037e+00	 1.122061e+01
0	 2.962963e+00	 1.111111e+00	 1.123143e+01
0	 2.592593e+00	 1.111111e+00	 1.149340e+01
0	 2.592593e+00	 1.185185e+00	 1.151535e+01
0	 2.592593e+00	 1.259259e+00	 1.152864e+01
0	 2.592593e+00	 1.333333e+00	 1.153350e+01
0	 2.592593e+00	 1.407407e+00	 1.153017e+01
0	 2.592593e+00	 1.481481e+00	 1.151889e+01
0	 2.666667e+00	 1.111111e+00	 1.141991e+01
0	 2.666667e+00	 1.185185e+00	 1.144306e+01
0	 2.666667e+00	 1.259259e+00	 1.145706e+01
0	 2.666667e+00	 1.333333e+00	 1.146282e+01
0	 2.666667e+00	 1.407407e+00	 1.146122e+01
0	 2.666667e+00	 1.481481e+00	 1.145318e+01
0	 2.740741e+00	 1.111111e+00	 1.136719e+01
0	 2.740741e+00	 1.185185e+00	 1.138637e+01
0	 2.740741e+00	 1.259259e+00	 1.139703e+01
0	 2.740741e+00	 1.333333e+00	 1.140043e+01
0	 2.740741e+00	 1.407407e+00	 1.139786e+01
0	 2.740741e+00	 1.481481e+00	 1.139057e+01
0	 2.814815e+00	 1.111111e+00	 1.132502e+01
0	 2.814815e+00	 1.185185e+00	 1.133809e+01
0	 2.814815e+00	 1.259259e+00	 1.134395e+01
0	 2.814815e+00	 1.333333e+00	 1.134396e+01
0	 2.814815e+00	 1.407407e+00	 1.133946e+01
0	 2.814815e+00	 1.481481e+00	 1.133181e+01
0	 2.888889e+00	 1.111111e+00	 1.128317e+01
0	 2.888889e+00	 1.185185e+00	 1.129102e+01
0	 2.888889e+00	 1.259259e+00	 1.129324e+01
0	 2.888889e+00	 1.333333e+00	 1.129099e+01
0	 2.888889e+00	 1.407407e+00	 1.128541e+01
0	 2.888889e+00	 1.481481e+00	 1.127765e+01
0	 2.962963e+00	 1.111111e+00	 1.123143e+01
0	 2.962963e+00	 1.185185e+00	 1.123795e+01
0	 2.962963e+00	 1.259259e+00	 1.124029e+01
0	 2.962963e+00	 1.333333e+00	 1.123912e+01
0	 2.962963e+00	 1.407407e+00	 1.123509e+01
0	 2.962963e+00	 1.481481e+00	 1.122884e+01
0	 2.592593e+00	 1.481481e+00	 1.151889e+01
0	 2.592593e+00	 1.555556e+00	 1.149947e+01
0	 2.592593e+00	 1.629630e+00	 1.147210e+01
0	 2.592593e+00	 1.703704e+00	 1.143759e+01
0	 2.592593e+00	 1.777778e+00	 1.139676e+01
0	 2.592593e+00	 1.851852e+00	 1.135042e+01
0	 2.666667e+00	 1.481481e+00	 1.145318e+01
0	 2.666667e+00	 1.555556e+00	 1.143938e+01
0	 2.666667e+00	 1.629630e+00	 1.141967e+01
0	 2.666667e+00	 1.703704e+00	 1.139372e+01
0	 2.666667e+00	 1.777778e+00	 1.136121e+01
0	 2.666667e+00	 1.851852e+00	 1.132179e+01
0	 2.740741e+00	 1.481481e+00	 1.139057e+01
0	 2.740741e+00	 1.555556e+00	 1.137979e+01
0	 2.740741e+00	 1.629630e+00	 1.136516e+01
0	 2.740741e+00	 1.703704e+00	 1.134564e+01
0	 2.740741e+00	 1.777778e+00	 1.132019e+01
0	 2.740741e+00	 1.851852e+00	 1.128774e+01
0	 2.814815e+00	 1.481481e+00	 1.133181e+01
0	 2.814815e+00	 1.555556e+00	 1.132242e+01
0	 2.814815e+00	 1.629630e+00	 1.131088e+01
0	 2.814815e+00	 1.703704e+00	 1.129585e+01
0	 2.814815e+00	 1.777778e+00	 1.127600e+01
0	 2.814815e+00	 1.851852e+00	 1.125000e+01
0	 2.888889e+00	 1.481481e+00	 1.127765e+01
0	 2.888889e+00	 1.555556e+00	 1.126899e+01
0	 2.888889e+00	 1.629630e+00	 1.125911e+01
0	 2.888889e+00	 1.703704e+00	 1.124684e+01
0	 2.888889e+00	 1.777778e+00	 1.123097e+01
0	 2.888889e+00	 1.851852e+00	 1.121030e+01
0	 2.962963e+00	 1.481481e+00	 1.122884e+01
0	 2.962963e+00	 1.555556e+00	 1.122121e+01
0	 2.962963e+00	 1.629630e+00	 1.121218e+01
0	 2.962963e+00	 1.703704e+00	 1.120111e+01
0	 2.962963e+00	 1.777778e+00	 1.118738e+01
0	 2.962963e+00	 1.851852e+00	 1.117037e+01
0	 2.592593e+00	 1.851852e+00	 1.135042e+01
0	 2.592593e+00	 1.925926e+00	 1.130259e+01
0	 2.592593e+00	 2.000000e+00	 1.125600e+01
0	 2.592593e+00	 2.074074e+00	 1.120951e+01
0	 2.592593e+00	 2.148148e+00	 1.116196e+01
0	 2.592593e+00	 2.222222e+00	 1.111219e+01
0	 2.666667e+00	 1.851852e+00	 1.132179e+01
0	 2.666667e+00	 1.925926e+00	 1.127888e+01
0	 2.666667e+00	 2.000000e+00	 1.123586e+01
0	 2.666667e+00	 2.074074e+00	 1.119232e+01
0	 2.666667e+00	 2.148148e+00	 1.114786e+01
0	 2.666667e+00	 2.222222e+00	 1.110206e+01
0	 2.740741e+00	 1.851852e+00	 1.128774e+01
0	 2.740741e+00	 1.925926e+00	 1.125074e+01
0	 2.740741e+00	 2.000000e+00	 1.121241e+01
0	 2.740741e+00	 2.074074e+00	 1.117283e+01
0	 2.740741e+00	 2.148148e+00	 1.113210e+01
0	 2.740741e+00	 2.222222e+00	 1.109033e+01
0	 2.814815e+00	 1.851852e+00	 1.125000e+01
0	 2.814815e+00	 1.925926e+00	 1.121921e+01
0	 2.814815e+00	 2.000000e+00	 1.118615e+01
0	 2.814815e+00	 2.074074e+00	 1.115118e+01
0	 2.814815e+00	 2.148148e+00	 1.111465e+01
0	 2.814815e+00	 2.222222e+00	 1.107694e+01
0	 2.888889e+00	 1.851852e+00	 1.121030e+01
0	 2.888889e+00	 1.925926e+00	 1.118534e+01
0	 2.888889e+00	 2.000000e+00	 1.115762e+01
0	 2.888889e+00	 2.074074e+00	 1.112754e+01
0	 2.888889e+00	 2.148148e+00	 1.109548e+01
0	 2.888889e+00	 2.222222e+00	 1.106181e+01
0	 2.962963e+00	 1.851852e+00	 1.117037e+01
0	 2.962963e+00	 1.925926e+00	 1.115016e+01
0	 2.962963e+00	 2.000000e+00	 1.112734e+01
0	 2.962963e+00	 2.074074e+00	 1.110208e+01
0	 2.962963e+00	 2.148148e+00	 1.107455e+01
0	 2.962963e+00	 2.222222e+00	 1.104490e+01
0	 2.592593e+00	 2.222222e+00	 1.111219e+01
0	 2.592593e+00	 2.296296e+00	 1.106118e+01
0	 2.592593e+00	 2.370370e+00	 1.101074e+01
0	 2.592593e+00	 2.444444e+00	 1.096093e+01
0	 2.592593e+00	 2.518519e+00	 1.091184e+01
0	 2.592593e+00	 2.592593e+00	 1.086354e+01
0	 2.666667e+00	 2.222222e+00	 1.110206e+01
0	 2.666667e+00	 2.296296e+00	 1.105590e+01
0	 2.666667e+00	 2.370370e+00	 1.101047e+01
0	 2.666667e+00	 2.444444e+00	 1.096553e+01
0	 2.666667e+00	 2.518519e+00	 1.092087e+01
0	 2.666667e+00	 2.592593e+00	 1.087624e+01
0	 2.740741e+00	 2.222222e+00	 1.109033e+01
0	 2.740741e+00	 2.296296e+00	 1.104853e+01
0	 2.740741e+00	 2.370370e+00	 1.100737e+01
0	 2.740741e+00	 2.444444e+00	 1.096642e+01
0	 2.740741e+00	 2.518519e+00	 1.092524e+01
0	 2.740741e+00	 2.592593e+00	 1.088342e+01
0	 2.814815e+00	 2.222222e+00	 1.107694e+01
0	 2.814815e+00	 2.296296e+00	 1.103910e+01
0	 2.814815e+00	 2.370370e+00	 1.100160e+01
0	 2.814815e+00	 2.444444e+00	 1.096393e+01
0	 2.814815e+00	 2.518519e+00	 1.092556e+01
0	 2.814815e+00	 2.592593e+00	 1.088598e+01
0	 2.888889e+00	 2.222222e+00	 1.106181e+01
0	 2.888889e+00	 2.296296e+00	 1.102760e+01
0	 2.888889e+00	 2.370370e+00	 1.099330e+01
0	 2.888889e+00	 2.444444e+00	 1.095842e+01
0	 2.888889e+00	 2.518519e+00	 1.092243e+01
0	 2.888889e+00	 2.592593e+00	 1.088485e+01
0	 2.962963e+00	 2.222222e+00	 1.104490e+01
0	 2.962963e+00	 2.296296e+00	 1.101407e+01
0	 2.962963e+00	 2.370370e+00	 1.098264e+01
0	 2.962963e+00	 2.444444e+00	 1.095023e+01
0	 2.962963e+00	 2.518519e+00	 1.091645e+01
0	 2.962963e+00	 2.592593e+00	 1.088092e+01
0	 2.592593e+00	 2.592593e+00	 1.086354e+01
0	 2.592593e+00	 2.666667e+00	 1.081646e+01
0	 2.592593e+00	 2.740741e+00	 1.077063e+01
0	 2.592593e+00	 2.814815e+00	 1.072560e+01
0	 2.592593e+00	 2.888889e+00	 1.068092e+01
0	 2.592593e+00	 2.962963e+00	 1.063612e+01
0	 2.666667e+00	 2.592593e+00	 1.087624e+01
0	 2.666667e+00	 2.666667e+00	 1.083192e+01
0	 2.666667e+00	 2.740741e+00	 1.078814e+01
0	 2.666667e+00	 2.814815e+00	 1.074466e+01
0	 2.666667e+00	 2.888889e+00	 1.070122e+01
0	 2.666667e+00	 2.962963e+00	 1.065757e+01
0	 2.740741e+00	 2.592593e+00	 1.088342e+01
0	 2.740741e+00	 2.666667e+00	 1.084132e+01
0	 2.740741e+00	 2.740741e+00	 1.079955e+01
0	 2.740741e+00	 2.814815e+00	 1.075798e+01
0	 2.740741e+00	 2.888889e+00	 1.071651e+01
0	 2.740741e+00	 2.962963e+00	 1.067503e+01
0	 2.814815e+00	 2.592593e+00	 1.088598e+01
0	 2.814815e+00	 2.666667e+00	 1.084584e+01
0	 2.814815e+00	 2.740741e+00	 1.080610e+01
0	 2.814815e+00	 2.814815e+00	 1.076674e+01
0	 2.814815e+00	 2.888889e+00	 1.072773e+01
0	 2.814815e+00	 2.962963e+00	 1.068903e+01
0	 2.888889e+00	 2.592593e+00	 1.088485e+01
0	 2.888889e+00	 2.666667e+00	 1.084663e+01
0	 2.888889e+00	 2.740741e+00	 1.080906e+01
0	 2.888889e+00	 2.814815e+00	 1.077213e+01
0	 2.888889e+00	 2.888889e+00	 1.073581e+01
0	 2.888889e+00	 2.962963e+00	 1.070009e+01
0	 2.962963e+00	 2.592593e+00	 1.088092e+01
0	 2.962963e+00	 2.666667e+00	 1.084487e+01
0	 2.962963e+00	 2.740741e+00	 1.080969e+01
0	 2.962963e+00	 2.814815e+00	 1.077533e+01
0	 2.962963e+00	 2.888889e+00	 1.074170e+01
0	 2.962963e+00	 2.962963e+00	 1.070873e+01
0	 2.592593e+00	 2.962963e+00	 1.063612e+01
0	 2.592593e+00	 3.037037e+00	 1.059232e+01
0	 2.592593e+00	 3.111111e+00	 1.055098e+01
0	 2.592593e+00	 3.185185e+00	 1.051216e+01
0	 2.592593e+00	 3.259259e+00	 1.047595e+01
0	 2.592593e+00	 3.333333e+00	 1.044241e+01
0	 2.666667e+00	 2.962963e+00	 1.065757e+01
0	 2.666667e+00	 3.037037e+00	 1.061510e+01
0	 2.666667e+00	 3.111111e+00	 1.057528e+01
0	 2.666667e+00	 3.185185e+00	 1.053803e+01
0	 2.666667e+00	 3.259259e+00	 1.050325e+01
0	 2.666667e+00	 3.333333e+00	 1.047087e+01
0	 2.740741e+00	 2.962963e+00	 1.067503e+01
0	 2.740741e+00	 3.037037e+00	 1.063478e+01
0	 2.740741e+00	 3.111111e+00	 1.059693e+01
0	 2.740741e+00	 3.185185e+00	 1.056127e+01
0	 2.740741e+00	 3.259259e+00	 1.052762e+01
0	 2.740741e+00	 3.333333e+00	 1.049579e+01
0	 2.814815e+00	 2.962963e+00	 1.068903e+01
0	 2.814815e+00	 3.037037e+00	 1.065149e+01
0	 2.814815e+00	 3.111111e+00	 1.061580e+01
0	 2.814815e+00	 3.185185e+00	 1.058171e+01
0	 2.814815e+00	 3.259259e+00	 1.054898e+01
0	 2.814815e+00	 3.333333e+00	 1.051736e+01
0	 2.888889e+00	 2.962963e+00	 1.070009e+01
0	 2.888889e+00	 3.037037e+00	 1.066533e+01
0	 2.888889e+00	 3.111111e+00	 1.063176e+01
0	 2.888889e+00	 3.185185e+00	 1.059914e+01
0	 2.888889e+00	 3.259259e+00	 1.056723e+01
0	 2.888889e+00	 3.333333e+00	 1.053578e+01
0	 2.962963e+00	 2.962963e+00	 1.070873e+01
0	 2.962963e+00	 3.037037e+00	 1.067642e+01
0	 2.962963e+00	 3.111111e+00	 1.064470e+01
0	 2.962963e+00	 3.185185e+00	 1.061338e+01
0	 2.962963e+00	 3.259259e+00	 1.058229e+01
0	 2.962963e+00	 3.333333e+00	 1.055123e+01
0	 2.592593e+00	 3.333333e+00	 1.044241e+01
0	 2.592593e+00	 3.407407e+00	 1.041087e+01
0	 2.592593e+00	 3.481481e+00	 1.038052e+01
0	 2.592593e+00	 3.555556e+00	 1.035120e+01
0	 2.592593e+00	 3.629630e+00	 1.032278e+01
0	 2.592593e+00	 3.703704e+00	 1.029509e+01
0	 2.666667e+00	 3.333333e+00	 1.047087e+01
0	 2.666667e+00	 3.407407e+00	 1.044004e+01
0	 2.666667e+00	 3.481481e+00	 1.040997e+01
0	 2.666667e+00	 3.555556e+00	 1.038062e+01
0	 2.666667e+00	 3.629630e+00	 1.035196e+01
0	 2.666667e+00	 3.703704e+00	 1.032394e+01
0	 2.740741e+00	 3.333333e+00	 1.049579e+01
0	 2.740741e+00	 3.407407e+00	 1.046513e+01
0	 2.740741e+00	 3.481481e+00	 1.043518e+01
0	 2.740741e+00	 3.555556e+00	 1.040596e+01
0	 2.740741e+00	 3.629630e+00	 1.037751e+01
0	 2.740741e+00	 3.703704e+00	 1.034985e+01
0	 2.814815e+00	 3.333333e+00	 1.051736e+01
0	 2.814815e+00	 3.407407e+00	 1.048664e+01
0	 2.814815e+00	 3.481481e+00	 1.045679e+01
0	 2.814815e+00	 3.555556e+00	 1.042789e+01
0	 2.814815e+00	 3.629630e+00	 1.040000e+01
0	 2.814815e+00	 3.703704e+00	 1.037316e+01
0	 2.888889e+00	 3.333333e+00	 1.053578e+01
0	 2.888889e+00	 3.407407e+00	 1.050504e+01
0	 2.888889e+00	 3.481481e+00	 1.047547e+01
0	 2.888889e+00	 3.555556e+00	 1.044710e+01
0	 2.888889e+00	 3.629630e+00	 1.042000e+01
0	 2.888889e+00	 3.703704e+00	 1.039419e+01
0	 2.962963e+00	 3.333333e+00	 1.055123e+01
0	 2.962963e+00	 3.407407e+00	 1.052083e+01
0	 2.962963e+00	 3.481481e+00	 1.049185e+01
0	 2.962963e+00	 3.555556e+00	 1.046426e+01
0	 2.962963e+00	 3.629630e+00	 1.043807e+01
0	 2.962963e+00	 3.703704e+00	 1.041327e+01
0	 2.592593e+00	 3.703704e+00	 1.029509e+01
0	 2.592593e+00	 3.777778e+00	 1.026858e+01
0	 2.592593e+00	 3.851852e+00	 1.024386e+01
0	 2.592593e+00	 3.925926e+00	 1.022099e+01
0	 2.592593e+00	 4.000000e+00	 1.020002e+01
0	 2.592593e+00	 4.074074e+00	 1.018104e+01
0	 2.666667e+00	 3.703704e+00	 1.032394e+01
0	 2.666667e+00	 3.777778e+00	 1.029721e+01
0	 2.666667e+00	 3.851852e+00	 1.027242e+01
0	 2.666667e+00	 3.925926e+00	 1.024954e+01
0	 2.666667e+00	 4.000000e+00	 1.022855e+01
0	 2.666667e+00	 4.074074e+00	 1.020942e+01
0	 2.740741e+00	 3.703704e+00	 1.034985e+01
0	 2.740741e+00	 3.777778e+00	 1.032355e+01
0	 2.740741e+00	 3.851852e+00	 1.029908e+01
0	 2.740741e+00	 3.925926e+00	 1.027635e+01
0	 2.740741e+00	 4.000000e+00	 1.025528e+01
0	 2.740741e+00	 4.074074e+00	 1.023578e+01
0	 2.814815e+00	 3.703704e+00	 1.037316e+01
0	 2.814815e+00	 3.777778e+00	 1.034769e+01
0	 2.814815e+00	 3.851852e+00	 1.032377e+01
0	 2.814815e+00	 3.925926e+00	 1.030127e+01
0	 2.814815e+00	 4.000000e+00	 1.028009e+01
0	 2.814815e+00	 4.074074e+00	 1.026012e+01
0	 2.888889e+00	 3.703704e+00	 1.039419e+01
0	 2.888889e+00	 3.777778e+00	 1.036969e+01
0	 2.888889e+00	 3.851852e+00	 1.034636e+01
0	 2.888889e+00	 3.925926e+00	 1.032411e+01
0	 2.888889e+00	 4.000000e+00	 1.030283e+01
0	 2.888889e+00	 4.074074e+00	 1.028241e+01
0	 2.962963e+00	 3.703704e+00	 1.041327e+01
0	 2.962963e+00	 3.777778e+00	 1.038961e+01
0	 2.962963e+00	 3.851852e+00	 1.036678e+01
0	 2.962963e+00	 3.925926e+00	 1.034472e+01
0	 2.962963e+00	 4.000000e+00	 1.032337e+01
0	 2.962963e+00	 4.074074e+00	 1.030266e+01
0	 2.592593e+00	 4.074074e+00	 1.018104e+01
0	 2.592593e+00	 4.148148e+00	 1.016350e+01
0	 2.592593e+00	 4.222222e+00	 1.014681e+01
0	 2.592593e+00	 4.296296e+00	 1.013094e+01
0	 2.592593e+00	 4.370370e+00	 1.011586e+01
0	 2.592593e+00	 4.444444e+00	 1.010154e+01
0	 2.666667e+00	 4.074074e+00	 1.020942e+01
0	 2.666667e+00	 4.148148e+00	 1.019154e+01
0	 2.666667e+00	 4.222222e+00	 1.017435e+01
0	 2.666667e+00	 4.296296e+00	 1.015786e+01
0	 2.666667e+00	 4.370370e+00	 1.014210e+01
0	 2.666667e+00	 4.444444e+00	 1.012709e+01
0	 2.740741e+00	 4.074074e+00	 1.023578e+01
0	 2.740741e+00	 4.148148e+00	 1.021736e+01
0	 2.740741e+00	 4.222222e+00	 1.019962e+01
0	 2.740741e+00	 4.296296e+00	 1.018261e+01
0	 2.740741e+00	 4.370370e+00	 1.016639e+01
0	 2.740741e+00	 4.444444e+00	 1.015101e+01
0	 2.814815e+00	 4.074074e+00	 1.026012e+01
0	 2.814815e+00	 4.148148e+00	 1.024108e+01
0	 2.814815e+00	 4.222222e+00	 1.022283e+01
0	 2.814815e+00	 4.296296e+00	 1.020542e+01
0	 2.814815e+00	 4.370370e+00	 1.018893e+01
0	 2.814815e+00	 4.444444e+00	 1.017341e+01
0	 2.888889e+00	 4.074074e+00	 1.028241e+01
0	 2.888889e+00	 4.148148e+00	 1.026284e+01
0	 2.888889e+00	 4.222222e+00	 1.024420e+01
0	 2.888889e+00	 4.296296e+00	 1.022654e+01
0	 2.888889e+00	 4.370370e+00	 1.020993e+01
0	 2.888889e+00	 4.444444e+00	 1.019440e+01
0	 2.962963e+00	 4.074074e+00	 1.030266e+01
0	 2.962963e+00	 4.148148e+00	 1.028277e+01
0	 2.962963e+00	 4.222222e+00	 1.026395e+01
0	 2.962963e+00	 4.296296e+00	 1.024621e+01
0	 2.962963e+00	 4.370370e+00	 1.022959e+01
0	 2.962963e+00	 4.444444e+00	 1.021408e+01
0	 2.592593e+00	 4.444444e+00	 1.010154e+01
0	 2.592593e+00	 4.518519e+00	 1.008808e+01
0	 2.592593e+00	 4.592593e+00	 1.007561e+01
0	 2.592593e+00	 4.666667e+00	 1.006417e+01
0	 2.592593e+00	 4.740741e+00	 1.005380e+01
0	 2.592593e+00	 4.814815e+00	 1.004454e+01
0	 2.666667e+00	 4.444444e+00	 1.012709e+01
0	 2.666667e+00	 4.518519e+00	 1.011301e+01
0	 2.666667e+00	 4.592593e+00	 1.010000e+01
0	 2.666667e+00	 4.666667e+00	 1.008806e+01
0	 2.666667e+00	 4.740741e+00	 1.007718e+01
0	 2.666667e+00	 4.814815e+00	 1.006738e+01
0	 2.740741e+00	 4.444444e+00	 1.015101e+01
0	 2.740741e+00	 4.518519e+00	 1.013661e+01
0	 2.740741e+00	 4.592593e+00	 1.012325e+01
0	 2.740741e+00	 4.666667e+00	 1.011091e+01
0	 2.740741e+00	 4.740741e+00	 1.009955e+01
0	 2.740741e+00	 4.814815e+00	 1.008915e+01
0	 2.814815e+00	 4.444444e+00	 1.017341e+01
0	 2.814815e+00	 4.518519e+00	 1.015889e+01
0	 2.814815e+00	 4.592593e+00	 1.014531e+01
0	 2.814815e+00	 4.666667e+00	 1.013262e+01
0	 2.814815e+00	 4.740741e+00	 1.012080e+01
0	 2.814815e+00	 4.814815e+00	 1.010981e+01
0	 2.888889e+00	 4.444444e+00	 1.019440e+01
0	 2.888889e+00	 4.518519e+00	 1.017985e+01
0	 2.888889e+00	 4.592593e+00	 1.016609e+01
0	 2.888889e+00	 4.666667e+00	 1.015311e+01
0	 2.888889e+00	 4.740741e+00	 1.014085e+01
0	 2.888889e+00	 4.814815e+00	 1.012930e+01
0	 2.962963e+00	 4.444444e+00	 1.021408e+01
0	 2.962963e+00	 4.518519e+00	 1.019948e+01
0	 2.962963e+00	 4.592593e+00	 1.018555e+01
0	 2.962963e+00	 4.666667e+00	 1.017226e+01
0	 2.962963e+00	 4.740741e+00	 1.015961e+01
0	 2.962963e+00	 4.814815e+00	 1.014759e+01
0	 2.592593e+00	 4.814815e+00	 1.004454e+01
0	 2.592593e+00	 4.888889e+00	 1.003610e+01
0	 2.592593e+00	 4.962963e+00	 1.002819e+01
0	 2.592593e+00	 5.037037e+00	 1.002081e+01
0	 2.592593e+00	 5.111111e+00	 1.001396e+01
0	 2.592593e+00	 5.185185e+00	 1.000764e+01
0	 2.666667e+00	 4.814815e+00	 1.006738e+01
0	 2.666667e+00	 4.888889e+00	 1.005834e+01
0	 2.666667e+00	 4.962963e+00	 1.004978e+01
0	 2.666667e+00	 5.037037e+00	 1.004173e+01
0	 2.666667e+00	 5.111111e+00	 1.003420e+01
0	 2.666667e+00	 5.185185e+00	 1.002723e+01
0	 2.740741e+00	 4.814815e+00	 1.008915e+01
0	 2.740741e+00	 4.888889e+00	 1.007946e+01
0	 2.740741e+00	 4.962963e+00	 1.007026e+01
0	 2.740741e+00	 5.037037e+00	 1.006160e+01
0	 2.740741e+00	 5.111111e+00	 1.005349e+01
0	 2.740741e+00	 5.185185e+00	 1.004599e+01
0	 2.814815e+00	 4.814815e+00	 1.010981e+01
0	 2.814815e+00	 4.888889e+00	 1.009948e+01
0	 2.814815e+00	 4.962963e+00	 1.008968e+01
0	 2.814815e+00	 5.037037e+00	 1.008047e+01
0	 2.814815e+00	 5.111111e+00	 1.007188e+01
0	 2.814815e+00	 5.185185e+00	 1.006395e+01
0	 2.888889e+00	 4.814815e+00	 1.012930e+01
0	 2.888889e+00	 4.888889e+00	 1.011838e+01
0	 2.888889e+00	 4.962963e+00	 1.010807e+01
0	 2.888889e+00	 5.037037e+00	 1.009840e+01
0	 2.888889e+00	 5.111111e+00	 1.008940e+01
0	 2.888889e+00	 5.185185e+00	 1.008110e+01
0	 2.962963e+00	 4.814815e+00	 1.014759e+01
0	 2.962963e+00	 4.888889e+00	 1.013620e+01
0	 2.962963e+00	 4.962963e+00	 1.012547e+01
0	 2.962963e+00	 5.037037e+00	 1.011543e+01
0	 2.962963e+00	 5.111111e+00	 1.010609e+01
0	 2.962963e+00	 5.185185e+00	 1.009747e+01
0	 2.592593e+00	 5.185185e+00	 1.000764e+01
0	 2.592593e+00	 5.259259e+00	 1.000184e+01
0	 2.592593e+00	 5.333333e+00	 9.996541e+00
0	 2.592593e+00	 5.407407e+00	 9.991766e+00
0	 2.592593e+00	 5.481481e+00	 9.987534e+00
0	 2.592593e+00	 5.555556e+00	 9.983866e+00
0	 2.666667e+00	 5.185185e+00	 1.002723e+01
0	 2.666667e+00	 5.259259e+00	 1.002081e+01
0	 2.666667e+00	 5.333333e+00	 1.001493e+01
0	 2.666667e+00	 5.407407e+00	 1.000959e+01
0	 2.666667e+00	 5.481481e+00	 1.000481e+01
0	 2.666667e+00	 5.555556e+00	 1.000059e+01
0	 2.740741e+00	 5.185185e+00	 1.004599e+01
0	 2.740741e+00	 5.259259e+00	 1.003907e+01
0	 2.740741e+00	 5.333333e+00	 1.003270e+01
0	 2.740741e+00	 5.407407e+00	 1.002685e+01
0	 2.740741e+00	 5.481481e+00	 1.002154e+01
0	 2.740741e+00	 5.555556e+00	 1.001677e+01
0	 2.814815e+00	 5.185185e+00	 1.006395e+01
0	 2.814815e+00	 5.259259e+00	 1.005661e+01
0	 2.814815e+00	 5.333333e+00	 1.004980e+01
0	 2.814815e+00	 5.407407e+00	 1.004349e+01
0	 2.814815e+00	 5.481481e+00	 1.003768e+01
0	 2.814815e+00	 5.555556e+00	 1.003236e+01
0	 2.888889e+00	 5.185185e+00	 1.008110e+01
0	 2.888889e+00	 5.259259e+00	 1.007341e+01
0	 2.888889e+00	 5.333333e+00	 1.006619e+01
0	 2.888889e+00	 5.407407e+00	 1.005944e+01
0	 2.888889e+00	 5.481481e+00	 1.005315e+01
0	 2.888889e+00	 5.555556e+00	 1.004733e+01
0	 2.962963e+00	 5.185185e+00	 1.009747e+01
0	 2.962963e+00	 5.259259e+00	 1.008943e+01
0	 2.962963e+00	 5.333333e+00	 1.008182e+01
0	 2.962963e+00	 5.407407e+00	 1.007465e+01
0	 2.962963e+00	 5.481481e+00	 1.006792e+01
0	 2.962963e+00	 5.555556e+00	 1.006164e+01
0	 2.592593e+00	 5.555556e+00	 9.983866e+00
0	 2.592593e+00	 5.629630e+00	 9.980627e+00
0	 2.592593e+00	 5.703704e+00	 9.977679e+00
0	 2.592593e+00	 5.777778e+00	 9.975030e+00
0	 2.592593e+00	 5.851852e+00	 9.972689e+00
0	 2.592593e+00	 5.925926e+00	 9.970667e+00
0	 2.666667e+00	 5.555556e+00	 1.000059e+01
0	 2.666667e+00	 5.629630e+00	 9.996780e+00
0	 2.666667e+00	 5.703704e+00	 9.993262e+00
0	 2.666667e+00	 5.777778e+00	 9.990049e+00
0	 2.666667e+00	 5.851852e+00	 9.987157e+00
0	 2.666667e+00	 5.925926e+00	 9.984601e+00
0	 2.740741e+00	 5.555556e+00	 1.001677e+01
0	 2.740741e+00	 5.629630e+00	 1.001240e+01
0	 2.740741e+00	 5.703704e+00	 1.000833e+01
0	 2.740741e+00	 5.777778e+00	 1.000458e+01
0	 2.740741e+00	 5.851852e+00	 1.000118e+01
0	 2.740741e+00	 5.925926e+00	 9.998140e+00
0	 2.814815e+00	 5.555556e+00	 1.003236e+01
0	 2.814815e+00	 5.629630e+00	 1.002745e+01
0	 2.814815e+00	 5.703704e+00	 1.002286e+01
0	 2.814815e+00	 5.777778e+00	 1.001862e+01
0	 2.814815e+00	 5.851852e+00	 1.001475e+01
0	 2.814815e+00	 5.925926e+00	 1.001127e+01
0	 2.888889e+00	 5.555556e+00	 1.004733e+01
0	 2.888889e+00	 5.629630e+00	 1.004191e+01
0	 2.888889e+00	 5.703704e+00	 1.003685e+01
0	 2.888889e+00	 5.777778e+00	 1.003216e+01
0	 2.888889e+00	 5.851852e+00	 1.002786e+01
0	 2.888889e+00	 5.925926e+00	 1.002396e+01
0	 2.962963e+00	 5.555556e+00	 1.006164e+01
0	 2.962963e+00	 5.629630e+00	 1.005577e+01
0	 2.962963e+00	 5.703704e+00	 1.005028e+01
0	 2.962963e+00	 5.777778e+00	 1.004518e+01
0	 2.962963e+00	 5.851852e+00	 1.004048e+01
0	 2.962963e+00	 5.925926e+00	 1.003620e+01
0	 2.592593e+00	 5.925926e+00	 9.970667e+00
0	 2.592593e+00	 6.000000e+00	 9.968924e+00
0	 2.592593e+00	 6.074074e+00	 9.967419e+00
0	 2.592593e+00	 6.148148e+00	 9.966165e+00
0	 2.592593e+00	 6.222222e+00	 9.965172e+00
0	 2.592593e+00	 6.296296e+00	 9.964452e+00
0	 2.666667e+00	 5.925926e+00	 9.984601e+00
0	 2.666667e+00	 6.000000e+00	 9.982346e+00
0	 2.666667e+00	 6.074074e+00	 9.980349e+00
0	 2.666667e+00	 6.148148e+00	 9.978617e+00
0	 2.666667e+00	 6.222222e+00	 9.977157e+00
0	 2.666667e+00	 6.296296e+00	 9.975975e+00
0	 2.740741e+00	 5.925926e+00	 9.998140e+00
0	 2.740741e+00	 6.000000e+00	 9.995418e+00
0	 2.740741e+00	 6.074074e+00	 9.992963e+00
0	 2.740741e+00	 6.148148e+00	 9.990777e+00
0	 2.740741e+00	 6.222222e+00	 9.988866e+00
0	 2.740741e+00	 6.296296e+00	 9.987234e+00
0	 2.814815e+00	 5.925926e+00	 1.001127e+01
0	 2.814815e+00	 6.000000e+00	 1.000811e+01
0	 2.814815e+00	 6.074074e+00	 1.000523e+01
0	 2.814815e+00	 6.148148e+00	 1.000261e+01
0	 2.814815e+00	 6.222222e+00	 1.000027e+01
0	 2.814815e+00	 6.296296e+00	 9.998198e+00
0	 2.888889e+00	 5.925926e+00	 1.002396e+01
0	 2.888889e+00	 6.000000e+00	 1.002040e+01
0	 2.888889e+00	 6.074074e+00	 1.001711e+01
0	 2.888889e+00	 6.148148e+00	 1.001408e+01
0	 2.888889e+00	 6.222222e+00	 1.001132e+01
0	 2.888889e+00	 6.296296e+00	 1.000884e+01
0	 2.962963e+00	 5.925926e+00	 1.003620e+01
0	 2.962963e+00	 6.000000e+00	 1.003226e+01
0	 2.962963e+00	 6.074074e+00	 1.002857e+01
0	 2.962963e+00	 6.148148e+00	 1.002515e+01
0	 2.962963e+00	 6.222222e+00	 1.002200e+01
0	 2.962963e+00	 6.296296e+00	 1.001912e+01
0	 2.592593e+00	 6.296296e+00	 9.964452e+00
0	 2.592593e+00	 6.370370e+00	 9.963940e+00
0	 2.592593e+00	 6.444444e+00	 9.963570e+00
0	 2.592593e+00	 6.518519e+00	 9.963351e+00
0	 2.592593e+00	 6.592593e+00	 9.963289e+00
0	 2.592593e+00	 6.666667e+00	 9.963394e+00
0	 2.666667e+00	 6.296296e+00	 9.975975e+00
0	 2.666667e+00	 6.370370e+00	 9.975006e+00
0	 2.666667e+00	 6.444444e+00	 9.974189e+00
0	 2.666667e+00	 6.518519e+00	 9.973531e+00
0	 2.666667e+00	 6.592593e+00	 9.973044e+00
0	 2.666667e+00	 6.666667e+00	 9.972736e+00
0	 2.740741e+00	 6.296296e+00	 9.987234e+00
0	 2.740741e+00	 6.370370e+00	 9.985820e+00
0	 2.740741e+00	 6.444444e+00	 9.984568e+00
0	 2.740741e+00	 6.518519e+00	 9.983490e+00
0	 2.740741e+00	 6.592593e+00	 9.982595e+00
0	 2.740741e+00	 6.666667e+00	 9.981894e+00
0	 2.814815e+00	 6.296296e+00	 9.998198e+00
0	 2.814815e+00	 6.370370e+00	 9.996354e+00
0	 2.814815e+00	 6.444444e+00	 9.994687e+00
0	 2.814815e+00	 6.518519e+00	 9.993205e+00
0	 2.814815e+00	 6.592593e+00	 9.991922e+00
0	 2.814815e+00	 6.666667e+00	 9.990845e+00
0	 2.888889e+00	 6.296296e+00	 1.000884e+01
0	 2.888889e+00	 6.370370e+00	 1.000658e+01
0	 2.888889e+00	 6.444444e+00	 1.000452e+01
0	 2.888889e+00	 6.518519e+00	 1.000266e+01
0	 2.888889e+00	 6.592593e+00	 1.000101e+01
0	 2.888889e+00	 6.666667e+00	 9.999571e+00
0	 2.962963e+00	 6.296296e+00	 1.001912e+01
0	 2.962963e+00	 6.370370e+00	 1.001648e+01
0	 2.962963e+00	 6.444444e+00	 1.001405e+01
0	 2.962963e+00	 6.518519e+00	 1.001183e+01
0	 2.962963e+00	 6.592593e+00	 1.000983e+01
0	 2.962963e+00	 6.666667e+00	 1.000805e+01
0	 2.592593e+00	 6.666667e+00	 9.963394e+00
0	 2.592593e+00	 6.740741e+00	 9.963631e+00
0	 2.592593e+00	 6.814815e+00	 9.963969e+00
0	 2.592593e+00	 6.888889e+00	 9.964413e+00
0	 2.592593e+00	 6.962963e+00	 9.964972e+00
0	 2.592593e+00	 7.037037e+00	 9.965651e+00
0	 2.666667e+00	 6.666667e+00	 9.972736e+00
0	 2.666667e+00	 6.740741e+00	 9.972575e+00
0	 2.666667e+00	 6.814815e+00	 9.972526e+00
0	 2.666667e+00	 6.888889e+00	 9.972595e+00
0	 2.666667e+00	 6.962963e+00	 9.972788e+00
0	 2.666667e+00	 7.037037e+00	 9.973109e+00
0	 2.740741e+00	 6.666667e+00	 9.981894e+00
0	 2.740741e+00	 6.740741e+00	 9.981352e+00
0	 2.740741e+00	 6.814815e+00	 9.980931e+00
0	 2.740741e+00	 6.888889e+00	 9.980636e+00
0	 2.740741e+00	 6.962963e+00	 9.980472e+00
0	 2.740741e+00	 7.037037e+00	 9.980443e+00
0	 2.814815e+00	 6.666667e+00	 9.990845e+00
0	 2.814815e+00	 6.740741e+00	 9.989939e+00
0	 2.814815e+00	 6.814815e+00	 9.989159e+00
0	 2.814815e+00	 6.888889e+00	 9.988512e+00
0	 2.814815e+00	 6.962963e+00	 9.988002e+00
0	 2.814815e+00	 7.037037e+00	 9.987633e+00
0	 2.888889e+00	 6.666667e+00	 9.999571e+00
0	 2.888889e+00	 6.740741e+00	 9.998313e+00
0	 2.888889e+00	 6.814815e+00	 9.997188e+00
0	 2.888889e+00	 6.888889e+00	 9.996201e+00
0	 2.888889e+00	 6.962963e+00	 9.995356e+00
0	 2.888889e+00	 7.037037e+00	 9.994658e+00
0	 2.962963e+00	 6.666667e+00	 1.000805e+01
0	 2.962963e+00	 6.740741e+00	 1.000645e+01
0	 2.962963e+00	 6.814815e+00	 1.000499e+01
0	 2.962963e+00	 6.888889e+00	 1.000368e+01
0	 2.962963e+00	 6.962963e+00	 1.000251e+01
0	 2.962963e+00	 7.037037e+00	 1.000150e+01
0	 2.592593e+00	 7.037037e+00	 9.965651e+00
0	 2.592593e+00	 7.111111e+00	 9.966417e+00
0	 2.592593e+00	 7.185185e+00	 9.967236e+00
0	 2.592593e+00	 7.259259e+00	 9.968113e+00
0	 2.592593e+00	 7.333333e+00	 9.969053e+00
0	 2.592593e+00	 7.407407e+00	 9.970064e+00
0	 2.666667e+00	 7.037037e+00	 9.973109e+00
0	 2.666667e+00	 7.111111e+00	 9.973525e+00
0	 2.666667e+00	 7.185185e+00	 9.974003e+00
0	 2.666667e+00	 7.259259e+00	 9.974549e+00
0	 2.666667e+00	 7.333333e+00	 9.975167e+00
0	 2.666667e+00	 7.407407e+00	 9.975865e+00
0	 2.740741e+00	 7.037037e+00	 9.980443e+00
0	 2.740741e+00	 7.111111e+00	 9.980518e+00
0	 2.740741e+00	 7.185185e+00	 9.980663e+00
0	 2.740741e+00	 7.259259e+00	 9.980885e+00
0	 2.740741e+00	 7.333333e+00	 9.981189e+00
0	 2.740741e+00	 7.407407e+00	 9.981583e+00
0	 2.814815e+00	 7.037037e+00	 9.987633e+00
0	 2.814815e+00	 7.111111e+00	 9.987375e+00
0	 2.814815e+00	 7.185185e+00	 9.987197e+00
0	 2.814815e+00	 7.259259e+00	 9.987104e+00
0	 2.814815e+00	 7.333333e+00	 9.987104e+00
0	 2.814815e+00	 7.407407e+00	 9.987202e+00
0	 2.888889e+00	 7.037037e+00	 9.994658e+00
0	 2.888889e+00	 7.111111e+00	 9.994078e+00
0	 2.888889e+00	 7.185185e+00	 9.993587e+00
0	 2.888889e+00	 7.259259e+00	 9.993191e+00
0	 2.888889e+00	 7.333333e+00	 9.992895e+00
0	 2.888889e+00	 7.407407e+00	 9.992705e+00
0	 2.962963e+00	 7.037037e+00	 1.000150e+01
0	 2.962963e+00	 7.111111e+00	 1.000061e+01
0	 2.962963e+00	 7.185185e+00	 9.999815e+00
0	 2.962963e+00	 7.259259e+00	 9.999126e+00
0	 2.962963e+00	 7.333333e+00	 9.998546e+00
0	 2.962963e+00	 7.407407e+00	 9.998078e+00
0	 2.592593e+00	 7.407407e+00	 9.970064e+00
0	 2.592593e+00	 7.481481e+00	 9.971120e+00
0	 2.592593e+00	 7.555556e+00	 9.972200e+00
0	 2.592593e+00	 7.629630e+00	 9.973308e+00
0	 2.592593e+00	 7.703704e+00	 9.974449e+00
0	 2.592593e+00	 7.777778e+00	 9.975627e+00
0	 2.666667e+00	 7.407407e+00	 9.975865e+00
0	 2.666667e+00	 7.481481e+00	 9.976619e+00
0	 2.666667e+00	 7.555556e+00	 9.977405e+00
0	 2.666667e+00	 7.629630e+00	 9.978228e+00
0	 2.666667e+00	 7.703704e+00	 9.979091e+00
0	 2.666667e+00	 7.777778e+00	 9.980000e+00
0	 2.740741e+00	 7.407407e+00	 9.981583e+00
0	 2.740741e+00	 7.481481e+00	 9.982042e+00
0	 2.740741e+00	 7.555556e+00	 9.982540e+00
0	 2.740741e+00	 7.629630e+00	 9.983083e+00
0	 2.740741e+00	 7.703704e+00	 9.983674e+00
0	 2.740741e+00	 7.777778e+00	 9.984318e+00
0	 2.814815e+00	 7.407407e+00	 9.987202e+00
0	 2.814815e+00	 7.481481e+00	 9.987373e+00
0	 2.814815e+00	 7.555556e+00	 9.987591e+00
0	 2.814815e+00	 7.629630e+00	 9.987860e+00
0	 2.814815e+00	 7.703704e+00	 9.988184e+00
0	 2.814815e+00	 7.777778e+00	 9.988568e+00
0	 2.888889e+00	 7.407407e+00	 9.992705e+00
0	 2.888889e+00	 7.481481e+00	 9.992596e+00
0	 2.888889e+00	 7.555556e+00	 9.992541e+00
0	 2.888889e+00	 7.629630e+00	 9.992543e+00
0	 2.888889e+00	 7.703704e+00	 9.992607e+00
0	 2.888889e+00	 7.777778e+00	 9.992737e+00
0	 2.962963e+00	 7.407407e+00	 9.998078e+00
0	 2.962963e+00	 7.481481e+00	 9.997696e+00
0	 2.962963e+00	 7.555556e+00	 9.997375e+00
0	 2.962963e+00	 7.629630e+00	 9.997117e+00
0	 2.962963e+00	 7.703704e+00	 9.996928e+00
0	 2.962963e+00	 7.777778e+00	 9.996811e+00
0	 2.592593e+00	 7.777778e+00	 9.975627e+00
0	 2.592593e+00	 7.851852e+00	 9.976823e+00
0	 2.592593e+00	 7.925926e+00	 9.978015e+00
0	 2.592593e+00	 8.000000e+00	 9.979207e+00
0	 2.592593e+00	 8.074074e+00	 9.980405e+00
0	 2.592593e+00	 8.148148e+00	 9.981611e+00
0	 2.666667e+00	 7.777778e+00	 9.980000e+00
0	 2.666667e+00	 7.851852e+00	 9.980933e+00
0	 2.666667e+00	 7.925926e+00	 9.981871e+00
0	 2.666667e+00	 8.000000e+00	 9.982817e+00
0	 2.666667e+00	 8.074074e+00	 9.983775e+00
0	 2.666667e+00	 8.148148e+00	 9.984750e+00
0	 2.740741e+00	 7.777778e+00	 9.984318e+00
0	 2.740741e+00	 7.851852e+00	 9.984993e+00
0	 2.740741e+00	 7.925926e+00	 9.985681e+00
0	 2.740741e+00	 8.000000e+00	 9.986385e+00
0	 2.740741e+00	 8.074074e+00	 9.987108e+00
0	 2.740741e+00	 8.148148e+00	 9.987856e+00
0	 2.814815e+00	 7.777778e+00	 9.988568e+00
0	 2.814815e+00	 7.851852e+00	 9.988991e+00
0	 2.814815e+00	 7.925926e+00	 9.989434e+00
0	 2.814815e+00	 8.000000e+00	 9.989900e+00
0	 2.814815e+00	 8.074074e+00	 9.990393e+00
0	 2.814815e+00	 8.148148e+00	 9.990917e+00
0	 2.888889e+00	 7.777778e+00	 9.992737e+00
0	 2.888889e+00	 7.851852e+00	 9.992913e+00
0	 2.888889e+00	 7.925926e+00	 9.993116e+00
0	 2.888889e+00	 8.000000e+00	 9.993350e+00
0	 2.888889e+00	 8.074074e+00	 9.993618e+00
0	 2.888889e+00	 8.148148e+00	 9.993924e+00
0	 2.962963e+00	 7.777778e+00	 9.996811e+00
0	 2.962963e+00	 7.851852e+00	 9.996747e+00
0	 2.962963e+00	 7.925926e+00	 9.996717e+00
0	 2.962963e+00	 8.000000e+00	 9.996725e+00
0	 2.962963e+00	 8.074074e+00	 9.996773e+00
0	 2.962963e+00	 8.148148e+00	 9.996865e+00
0	 2.592593e+00	 8.148148e+00	 9.981611e+00
0	 2.592593e+00	 8.222222e+00	 9.982809e+00
0	 2.592593e+00	 8.296296e+00	 9.983984e+00
0	 2.592593e+00	 8.370370e+00	 9.985139e+00
0	 2.592593e+00	 8.444444e+00	 9.986277e+00
0	 2.592593e+00	 8.518519e+00	 9.987403e+00
0	 2.666667e+00	 8.148148e+00	 9.984750e+00
0	 2.666667e+00	 8.222222e+00	 9.985726e+00
0	 2.666667e+00	 8.296296e+00	 9.986685e+00
0	 2.666667e+00	 8.370370e+00	 9.987632e+00
0	 2.666667e+00	 8.444444e+00	 9.988569e+00
0	 2.666667e+00	 8.518519e+00	 9.989500e+00
0	 2.740741e+00	 8.148148e+00	 9.987856e+00
0	 2.740741e+00	 8.222222e+00	 9.988611e+00
0	 2.740741e+00	 8.296296e+00	 9.989358e+00
0	 2.740741e+00	 8.370370e+00	 9.990100e+00
0	 2.740741e+00	 8.444444e+00	 9.990839e+00
0	 2.740741e+00	 8.518519e+00	 9.991579e+00
0	 2.814815e+00	 8.148148e+00	 9.990917e+00
0	 2.814815e+00	 8.222222e+00	 9.991457e+00
0	 2.814815e+00	 8.296296e+00	 9.991995e+00
0	 2.814815e+00	 8.370370e+00	 9.992534e+00
0	 2.814815e+00	 8.444444e+00	 9.993078e+00
0	 2.814815e+00	 8.518519e+00	 9.993630e+00
0	 2.888889e+00	 8.148148e+00	 9.993924e+00
0	 2.888889e+00	 8.222222e+00	 9.994251e+00
0	 2.888889e+00	 8.296296e+00	 9.994584e+00
0	 2.888889e+00	 8.370370e+00	 9.994926e+00
0	 2.888889e+00	 8.444444e+00	 9.995278e+00
0	 2.888889e+00	 8.518519e+00	 9.995645e+00
0	 2.962963e+00	 8.148148e+00	 9.996865e+00
0	 2.962963e+00	 8.222222e+00	 9.996985e+00
0	 2.962963e+00	 8.296296e+00	 9.997118e+00
0	 2.962963e+00	 8.370370e+00	 9.997265e+00
0	 2.962963e+00	 8.444444e+00	 9.997430e+00
0	 2.962963e+00	 8.518519e+00	 9.997615e+00
0	 2.592593e+00	 8.518519e+00	 9.987403e+00
0	 2.592593e+00	 8.592593e+00	 9.988501e+00
0	 2.592593e+00	 8.666667e+00	 9.989557e+00
0	 2.592593e+00	 8.740741e+00	 9.990576e+00
0	 2.592593e+00	 8.814815e+00	 9.991560e+00
0	 2.592593e+00	 8.888889e+00	 9.992511e+00
0	 2.666667e+00	 8.518519e+00	 9.989500e+00
0	 2.666667e+00	 8.592593e+00	 9.990412e+00
0	 2.666667e+00	 8.666667e+00	 9.991290e+00
0	 2.666667e+00	 8.740741e+00	 9.992138e+00
0	 2.666667e+00	 8.814815e+00	 9.992958e+00
0	 2.666667e+00	 8.888889e+00	 9.993753e+00
0	 2.740741e+00	 8.518519e+00	 9.991579e+00
0	 2.740741e+00	 8.592593e+00	 9.992306e+00
0	 2.740741e+00	 8.666667e+00	 9.993008e+00
0	 2.740741e+00	 8.740741e+00	 9.993687e+00
0	 2.740741e+00	 8.814815e+00	 9.994346e+00
0	 2.740741e+00	 8.888889e+00	 9.994987e+00
0	 2.814815e+00	 8.518519e+00	 9.993630e+00
0	 2.814815e+00	 8.592593e+00	 9.994176e+00
0	 2.814815e+00	 8.666667e+00	 9.994704e+00
0	 2.814815e+00	 8.740741e+00	 9.995217e+00
0	 2.814815e+00	 8.814815e+00	 9.995717e+00
0	 2.814815e+00	 8.888889e+00	 9.996206e+00
0	 2.888889e+00	 8.518519e+00	 9.995645e+00
0	 2.888889e+00	 8.592593e+00	 9.996013e+00
0	 2.888889e+00	 8.666667e+00	 9.996371e+00
0	 2.888889e+00	 8.740741e+00	 9.996720e+00
0	 2.888889e+00	 8.814815e+00	 9.997064e+00
0	 2.888889e+00	 8.888889e+00	 9.997403e+00
0	 2.962963e+00	 8.518519e+00	 9.997615e+00
0	 2.962963e+00	 8.592593e+00	 9.997809e+00
0	 2.962963e+00	 8.666667e+00	 9.998000e+00
0	 2.962963e+00	 8.740741e+00	 9.998189e+00
0	 2.962963e+00	 8.814815e+00	 9.998380e+00
0	 2.962963e+00	 8.888889e+00	 9.998572e+00
0	 2.592593e+00	 8.888889e+00	 9.992511e+00
0	 2.592593e+00	 8.962963e+00	 9.993420e+00
0	 2.592593e+00	 9.037037e+00	 9.994272e+00
0	 2.592593e+00	 9.111111e+00	 9.995072e+00
0	 2.592593e+00	 9.185185e+00	 9.995822e+00
0	 2.592593e+00	 9.259259e+00	 9.996524e+00
0	 2.666667e+00	 8.888889e+00	 9.993753e+00
0	 2.666667e+00	 8.962963e+00	 9.994513e+00
0	 2.666667e+00	 9.037037e+00	 9.995227e+00
0	 2.666667e+00	 9.111111e+00	 9.995895e+00
0	 2.666667e+00	 9.185185e+00	 9.996522e+00
0	 2.666667e+00	 9.259259e+00	 9.997109e+00
0	 2.740741e+00	 8.888889e+00	 9.994987e+00
0	 2.740741e+00	 8.962963e+00	 9.995601e+00
0	 2.740741e+00	 9.037037e+00	 9.996176e+00
0	 2.740741e+00	 9.111111e+00	 9.996716e+00
0	 2.740741e+00	 9.185185e+00	 9.997221e+00
0	 2.740741e+00	 9.259259e+00	 9.997694e+00
0	 2.814815e+00	 8.888889e+00	 9.996206e+00
0	 2.814815e+00	 8.962963e+00	 9.996676e+00
0	 2.814815e+00	 9.037037e+00	 9.997115e+00
0	 2.814815e+00	 9.111111e+00	 9.997527e+00
0	 2.814815e+00	 9.185185e+00	 9.997913e+00
0	 2.814815e+00	 9.259259e+00	 9.998273e+00
0	 2.888889e+00	 8.888889e+00	 9.997403e+00
0	 2.888889e+00	 8.962963e+00	 9.997731e+00
0	 2.888889e+00	 9.037037e+00	 9.998037e+00
0	 2.888889e+00	 9.111111e+00	 9.998323e+00
0	 2.888889e+00	 9.185185e+00	 9.998591e+00
0	 2.888889e+00	 9.259259e+00	 9.998841e+00
0	 2.962963e+00	 8.888889e+00	 9.998572e+00
0	 2.962963e+00	 8.962963e+00	 9.998760e+00
0	 2.962963e+00	 9.037037e+00	 9.998935e+00
0	 2.962963e+00	 9.111111e+00	 9.999098e+00
0	 2.962963e+00	 9.185185e+00	 9.999250e+00
0	 2.962963e+00	 9.259259e+00	 9.999391e+00
0	 2.592593e+00	 9.259259e+00	 9.996524e+00
0	 2.592593e+00	 9.333333e+00	 9.997169e+00
0	 2.592593e+00	 9.407407e+00	 9.997748e+00
0	 2.592593e+00	 9.481481e+00	 9.998261e+00
0	 2.592593e+00	 9.555556e+00	 9.998712e+00
0	 2.592593e+00	 9.629630e+00	 9.999102e+00
0	 2.666667e+00	 9.259259e+00	 9.997109e+00
0	 2.666667e+00	 9.333333e+00	 9.997648e+00
0	 2.666667e+00	 9.407407e+00	 9.998130e+00
0	 2.666667e+00	 9.481481e+00	 9.998558e+00
0	 2.666667e+00	 9.555556e+00	 9.998932e+00
0	 2.666667e+00	 9.629630e+00	 9.999255e+00
0	 2.740741e+00	 9.259259e+00	 9.997694e+00
0	 2.740741e+00	 9.333333e+00	 9.998128e+00
0	 2.740741e+00	 9.407407e+00	 9.998516e+00
0	 2.740741e+00	 9.481481e+00	 9.998859e+00
0	 2.740741e+00	 9.555556e+00	 9.999158e+00
0	 2.740741e+00	 9.629630e+00	 9.999414e+00
0	 2.814815e+00	 9.259259e+00	 9.998273e+00
0	 2.814815e+00	 9.333333e+00	 9.998604e+00
0	 2.814815e+00	 9.407407e+00	 9.998899e+00
0	 2.814815e+00	 9.481481e+00	 9.999158e+00
0	 2.814815e+00	 9.555556e+00	 9.999383e+00
0	 2.814815e+00	 9.629630e+00	 9.999574e+00
0	 2.888889e+00	 9.259259e+00	 9.998841e+00
0	 2.888889e+00	 9.333333e+00	 9.999070e+00
0	 2.888889e+00	 9.407407e+00	 9.999273e+00
0	 2.888889e+00	 9.481481e+00	 9.999451e+00
0	 2.888889e+00	 9.555556e+00	 9.999603e+00
0	 2.888889e+00	 9.629630e+00	 9.999729e+00
0	 2.962963e+00	 9.259259e+00	 9.999391e+00
0	 2.962963e+00	 9.333333e+00	 9.999520e+00
0	 2.962963e+00	 9.407407e+00	 9.999633e+00
0	 2.962963e+00	 9.481481e+00	 9.999730e+00
0	 2.962963e+00	 9.555556e+00	 9.999810e+00
0	 2.962963e+00	 9.629630e+00	 9.999872e+00
0	 2.592593e+00	 9.629630e+00	 9.999102e+00
0	 2.592593e+00	 9.703704e+00	 9.999426e+00
0	 2.592593e+00	 9.777778e+00	 9.999676e+00
0	 2.592593e+00	 9.851852e+00	 9.999855e+00
0	 2.592593e+00	 9.925926e+00	 9.999963e+00
0	 2.592593e+00	 1.000000e+01	 1.000000e+01
0	 2.666667e+00	 9.629630e+00	 9.999255e+00
0	 2.666667e+00	 9.703704e+00	 9.999522e+00
0	 2.666667e+00	 9.777778e+00	 9.999729e+00
0	 2.666667e+00	 9.851852e+00	 9.999876e+00
0	 2.666667e+00	 9.925926e+00	 9.999963e+00
0	 2.666667e+00	 1.000000e+01	 9.999992e+00
0	 2.740741e+00	 9.629630e+00	 9.999414e+00
0	 2.740741e+00	 9.703704e+00	 9.999625e+00
0	 2.740741e+00	 9.777778e+00	 9.999789e+00
0	 2.740741e+00	 9.851852e+00	 9.999906e+00
0	 2.740741e+00	 9.925926e+00	 9.999974e+00
0	 2.740741e+00	 1.000000e+01	 9.999994e+00
0	 2.814815e+00	 9.629630e+00	 9.999574e+00
0	 2.814815e+00	 9.703704e+00	 9.999731e+00
0	 2.814815e+00	 9.777778e+00	 9.999852e+00
0	 2.814815e+00	 9.851852e+00	 9.999938e+00
0	 2.814815e+00	 9.925926e+00	 9.999988e+00
0	 2.814815e+00	 1.000000e+01	 9.999999e+00
0	 2.888889e+00	 9.629630e+00	 9.999729e+00
0	 2.888889e+00	 9.703704e+00	 9.999831e+00
0	 2.888889e+00	 9.777778e+00	 9.999912e+00
0	 2.888889e+00	 9.851852e+00	 9.999968e+00
0	 2.888889e+00	 9.925926e+00	 9.999998e+00
0	 2.888889e+00	 1.000000e+01	 1.000000e+01
0	 2.962963e+00	 9.629630e+00	 9.999872e+00
0	 2.962963e+00	 9.703704e+00	 9.999922e+00
0	 2.962963e+00	 9.777778e+00	 9.999961e+00
0	 2.962963e+00	 9.851852e+00	 9.999988e+00
0	 2.962963e+00	 9.925926e+00	 9.999999e+00
0	 2.962963e+00	 1.000000e+01	 9.999993e+00
0	 2.962963e+00	 0.000000e+00	 1.095052e+01
0	 2.962963e+00	 7.407407e-02	 1.098048e+01
0	 2.962963e+00	 1.481481e-01	 1.099923e+01
0	 2.962963e+00	 2.222222e-01	 1.100915e+01
0	 2.962963e+00	 2.962963e-01	 1.101261e+01
0	 2.962963e+00	 3.703704e-01	 1.101197e+01
0	 3.037037e+00	 0.000000e+00	 1.088199e+01
0	 3.037037e+00	 7.407407e-02	 1.090699e+01
0	 3.037037e+00	 1.481481e-01	 1.092563e+01
0	 3.037037e+00	 2.222222e-01	 1.093748e+01
0	 3.037037e+00	 2.962963e-01	 1.094213e+01
0	 3.037037e+00	 3.703704e-01	 1.093915e+01
0	 3.111111e+00	 0.000000e+00	 1.083112e+01
0	 3.111111e+00	 7.407407e-02	 1.084510e+01
0	 3.111111e+00	 1.481481e-01	 1.085921e+01
0	 3.111111e+00	 2.222222e-01	 1.087130e+01
0	 3.111111e+00	 2.962963e-01	 1.087920e+01
0	 3.111111e+00	 3.703704e-01	 1.088075e+01
0	 3.185185e+00	 0.000000e+00	 1.079385e+01
0	 3.185185e+00	 7.407407e-02	 1.079497e+01
0	 3.185185e+00	 1.481481e-01	 1.080246e+01
0	 3.185185e+00	 2.222222e-01	 1.081346e+01
0	 3.185185e+00	 2.962963e-01	 1.082511e+01
0	 3.185185e+00	 3.703704e-01	 1.083454e+01
0	 3.259259e+00	 0.000000e+00	 1.076612e+01
0	 3.259259e+00	 7.407407e-02	 1.075679e+01
0	 3.259259e+00	 1.481481e-01	 1.075786e+01
0	 3.259259e+00	 2.222222e-01	 1.076680e+01
0	 3.259259e+00	 2.962963e-01	 1.078112e+01
0	 3.259259e+00	 3.703704e-01	 1.079828e+01
0	 3.333333e+00	 0.000000e+00	 1.074387e+01
0	 3.333333e+00	 7.407407e-02	 1.073073e+01
0	 3.333333e+00	 1.481481e-01	 1.072787e+01
0	 3.333333e+00	 2.222222e-01	 1.073417e+01
0	 3.333333e+00	 2.962963e-01	 1.074851e+01
0	 3.333333e+00	 3.703704e-01	 1.076976e+01
0	 2.962963e+00	 3.703704e-01	 1.101197e+01
0	 2.962963e+00	 4.444444e-01	 1.101473e+01
0	 2.962963e+00	 5.185185e-01	 1.102667e+01
0	 2.962963e+00	 5.925926e-01	 1.104762e+01
0	 2.962963e+00	 6.666667e-01	 1.107742e+01
0	 2.962963e+00	 7.407407e-01	 1.111588e+01
0	 3.037037e+00	 3.703704e-01	 1.093915e+01
0	 3.037037e+00	 4.444444e-01	 1.093689e+01
0	 3.037037e+00	 5.185185e-01	 1.094445e+01
0	 3.037037e+00	 5.925926e-01	 1.096258e+01
0	 3.037037e+00	 6.666667e-01	 1.099202e+01
0	 3.037037e+00	 7.407407e-01	 1.103351e+01
0	 3.111111e+00	 3.703704e-01	 1.088075e+01
0	 3.111111e+00	 4.444444e-01	 1.088156e+01
0	 3.111111e+00	 5.185185e-01	 1.088955e+01
0	 3.111111e+00	 5.925926e-01	 1.090604e+01
0	 3.111111e+00	 6.666667e-01	 1.093235e+01
0	 3.111111e+00	 7.407407e-01	 1.096980e+01
0	 3.185185e+00	 3.703704e-01	 1.083454e+01
0	 3.185185e+00	 4.444444e-01	 1.084287e+01
0	 3.185185e+00	 5.185185e-01	 1.085415e+01
0	 3.185185e+00	 5.925926e-01	 1.086994e+01
0	 3.185185e+00	 6.666667e-01	 1.089177e+01
0	 3.185185e+00	 7.407407e-01	 1.092121e+01
0	 3.259259e+00	 3.703704e-01	 1.079828e+01
0	 3.259259e+00	 4.444444e-01	 1.081497e+01
0	 3.259259e+00	 5.185185e-01	 1.083047e+01
0	 3.259259e+00	 5.925926e-01	 1.084622e+01
0	 3.259259e+00	 6.666667e-01	 1.086366e+01
0	 3.259259e+00	 7.407407e-01	 1.088421e+01
0	 3.333333e+00	 3.703704e-01	 1.076976e+01
0	 3.333333e+00	 4.444444e-01	 1.079200e+01
0	 3.333333e+00	 5.185185e-01	 1.081070e+01
0	 3.333333e+00	 5.925926e-01	 1.082682e+01
0	 3.333333e+00	 6.666667e-01	 1.084136e+01
0	 3.333333e+00	 7.407407e-01	 1.085528e+01
0	 2.962963e+00	 7.407407e-01	 1.111588e+01
0	 2.962963e+00	 8.148148e-01	 1.115383e+01
0	 2.962963e+00	 8.888889e-01	 1.118309e+01
0	 2.962963e+00	 9.629630e-01	 1.120492e+01
0	 2.962963e+00	 1.037037e+00	 1.122061e+01
0	 2.962963e+00	 1.111111e+00	 1.123143e+01
0	 3.037037e+00	 7.407407e-01	 1.103351e+01
0	 3.037037e+00	 8.148148e-01	 1.107648e+01
0	 3.037037e+00	 8.888889e-01	 1.111048e+01
0	 3.037037e+00	 9.629630e-01	 1.113652e+01
0	 3.037037e+00	 1.037037e+00	 1.115560e+01
0	 3.037037e+00	 1.111111e+00	 1.116871e+01
0	 3.111111e+00	 7.407407e-01	 1.096980e+01
0	 3.111111e+00	 8.148148e-01	 1.100941e+01
0	 3.111111e+00	 8.888889e-01	 1.104181e+01
0	 3.111111e+00	 9.629630e-01	 1.106778e+01
0	 3.111111e+00	 1.037037e+00	 1.108806e+01
0	 3.111111e+00	 1.111111e+00	 1.110344e+01
0	 3.185185e+00	 7.407407e-01	 1.092121e+01
0	 3.185185e+00	 8.148148e-01	 1.095257e+01
0	 3.185185e+00	 8.888889e-01	 1.097951e+01
0	 3.185185e+00	 9.629630e-01	 1.100263e+01
0	 3.185185e+00	 1.037037e+00	 1.102249e+01
0	 3.185185e+00	 1.111111e+00	 1.103969e+01
0	 3.259259e+00	 7.407407e-01	 1.088421e+01
0	 3.259259e+00	 8.148148e-01	 1.090589e+01
0	 3.259259e+00	 8.888889e-01	 1.092601e+01
0	 3.259259e+00	 9.629630e-01	 1.094502e+01
0	 3.259259e+00	 1.037037e+00	 1.096338e+01
0	 3.259259e+00	 1.111111e+00	 1.098153e+01
0	 3.333333e+00	 7.407407e-01	 1.085528e+01
0	 3.333333e+00	 8.148148e-01	 1.086931e+01
0	 3.333333e+00	 8.888889e-01	 1.088373e+01
0	 3.333333e+00	 9.629630e-01	 1.089892e+01
0	 3.333333e+00	 1.037037e+00	 1.091522e+01
0	 3.333333e+00	 1.111111e+00	 1.093301e+01
0	 2.962963e+00	 1.111111e+00	 1.123143e+01
0	 2.962963e+00	 1.185185e+00	 1.123795e+01
0	 2.962963e+00	 1.259259e+00	 1.124029e+01
0	 2.962963e+00	 1.333333e+00	 1.123912e+01
0	 2.962963e+00	 1.407407e+00	 1.123509e+01
0	 2.962963e+00	 1.481481e+00	 1.122884e+01
0	 3.037037e+00	 1.111111e+00	 1.116871e+01
0	 3.037037e+00	 1.185185e+00	 1.117755e+01
0	 3.037037e+00	 1.259259e+00	 1.118326e+01
0	 3.037037e+00	 1.333333e+00	 1.118595e+01
0	 3.037037e+00	 1.407407e+00	 1.118573e+01
0	 3.037037e+00	 1.481481e+00	 1.118272e+01
0	 3.111111e+00	 1.111111e+00	 1.110344e+01
0	 3.111111e+00	 1.185185e+00	 1.111543e+01
0	 3.111111e+00	 1.259259e+00	 1.112493e+01
0	 3.111111e+00	 1.333333e+00	 1.113172e+01
0	 3.111111e+00	 1.407407e+00	 1.113559e+01
0	 3.111111e+00	 1.481481e+00	 1.113630e+01
0	 3.185185e+00	 1.111111e+00	 1.103969e+01
0	 3.185185e+00	 1.185185e+00	 1.105477e+01
0	 3.185185e+00	 1.259259e+00	 1.106767e+01
0	 3.185185e+00	 1.333333e+00	 1.107805e+01
0	 3.185185e+00	 1.407407e+00	 1.108557e+01
0	 3.185185e+00	 1.481481e+00	 1.108989e+01
0	 3.259259e+00	 1.111111e+00	 1.098153e+01
0	 3.259259e+00	 1.185185e+00	 1.099874e+01
0	 3.259259e+00	 1.259259e+00	 1.101383e+01
0	 3.259259e+00	 1.333333e+00	 1.102654e+01
0	 3.259259e+00	 1.407407e+00	 1.103661e+01
0	 3.259259e+00	 1.481481e+00	 1.104377e+01
0	 3.333333e+00	 1.111111e+00	 1.093301e+01
0	 3.333333e+00	 1.185185e+00	 1.095052e+01
0	 3.333333e+00	 1.259259e+00	 1.096578e+01
0	 3.333333e+00	 1.333333e+00	 1.097880e+01
0	 3.333333e+00	 1.407407e+00	 1.098961e+01
0	 3.333333e+00	 1.481481e+00	 1.099824e+01
0	 2.962963e+00	 1.481481e+00	 1.122884e+01
0	 2.962963e+00	 1.555556e+00	 1.122121e+01
0	 2.962963e+00	 1.629630e+00	 1.121218e+01
0	 2.962963e+00	 1.703704e+00	 1.120111e+01
0	 2.962963e+00	 1.777778e+00	 1.118738e+01
0	 2.962963e+00	 1.851852e+00	 1.117037e+01
0	 3.037037e+00	 1.481481e+00	 1.118272e+01
0	 3.037037e+00	 1.555556e+00	 1.117716e+01
0	 3.037037e+00	 1.629630e+00	 1.116928e+01
0	 3.037037e+00	 1.703704e+00	 1.115910e+01
0	 3.037037e+00	 1.777778e+00	 1.114669e+01
0	 3.037037e+00	 1.851852e+00	 1.113208e+01
0	 3.111111e+00	 1.481481e+00	 1.113630e+01
0	 3.111111e+00	 1.555556e+00	 1.113362e+01
0	 3.111111e+00	 1.629630e+00	 1.112774e+01
0	 3.111111e+00	 1.703704e+00	 1.111916e+01
0	 3.111111e+00	 1.777778e+00	 1.110836e+01
0	 3.111111e+00	 1.851852e+00	 1.109581e+01
0	 3.185185e+00	 1.481481e+00	 1.108989e+01
0	 3.185185e+00	 1.555556e+00	 1.109036e+01
0	 3.185185e+00	 1.629630e+00	 1.108702e+01
0	 3.185185e+00	 1.703704e+00	 1.108057e+01
0	 3.185185e+00	 1.777778e+00	 1.107170e+01
0	 3.185185e+00	 1.851852e+00	 1.106110e+01
0	 3.259259e+00	 1.481481e+00	 1.104377e+01
0	 3.259259e+00	 1.555556e+00	 1.104718e+01
0	 3.259259e+00	 1.629630e+00	 1.104658e+01
0	 3.259259e+00	 1.703704e+00	 1.104264e+01
0	 3.259259e+00	 1.777778e+00	 1.103604e+01
0	 3.259259e+00	 1.851852e+00	 1.102745e+01
0	 3.333333e+00	 1.481481e+00	 1.099824e+01
0	 3.333333e+00	 1.555556e+00	 1.100385e+01
0	 3.333333e+00	 1.629630e+00	 1.100586e+01
0	 3.333333e+00	 1.703704e+00	 1.100467e+01
0	 3.333333e+00	 1.777778e+00	 1.100071e+01
0	 3.333333e+00	 1.851852e+00	 1.099438e+01
0	 2.962963e+00	 1.851852e+00	 1.117037e+01
0	 2.962963e+00	 1.925926e+00	 1.115016e+01
0	 2.962963e+00	 2.000000e+00	 1.112734e+01
0	 2.962963e+00	 2.074074e+00	 1.110208e+01
0	 2.962963e+00	 2.148148e+00	 1.107455e+01
0	 2.962963e+00	 2.222222e+00	 1.104490e+01
0	 3.037037e+00	 1.851852e+00	 1.113208e+01
0	 3.037037e+00	 1.925926e+00	 1.111535e+01
0	 3.037037e+00	 2.000000e+00	 1.109649e+01
0	 3.037037e+00	 2.074074e+00	 1.107535e+01
0	 3.037037e+00	 2.148148e+00	 1.105183e+01
0	 3.037037e+00	 2.222222e+00	 1.102579e+01
0	 3.111111e+00	 1.851852e+00	 1.109581e+01
0	 3.111111e+00	 1.925926e+00	 1.108177e+01
0	 3.111111e+00	 2.000000e+00	 1.106592e+01
0	 3.111111e+00	 2.074074e+00	 1.104797e+01
0	 3.111111e+00	 2.148148e+00	 1.102760e+01
0	 3.111111e+00	 2.222222e+00	 1.100451e+01
0	 3.185185e+00	 1.851852e+00	 1.106110e+01
0	 3.185185e+00	 1.925926e+00	 1.104919e+01
0	 3.185185e+00	 2.000000e+00	 1.103568e+01
0	 3.185185e+00	 2.074074e+00	 1.102017e+01
0	 3.185185e+00	 2.148148e+00	 1.100229e+01
0	 3.185185e+00	 2.222222e+00	 1.098164e+01
0	 3.259259e+00	 1.851852e+00	 1.102745e+01
0	 3.259259e+00	 1.925926e+00	 1.101741e+01
0	 3.259259e+00	 2.000000e+00	 1.100578e+01
0	 3.259259e+00	 2.074074e+00	 1.099220e+01
0	 3.259259e+00	 2.148148e+00	 1.097631e+01
0	 3.259259e+00	 2.222222e+00	 1.095776e+01
0	 3.333333e+00	 1.851852e+00	 1.099438e+01
0	 3.333333e+00	 1.925926e+00	 1.098620e+01
0	 3.333333e+00	 2.000000e+00	 1.097625e+01
0	 3.333333e+00	 2.074074e+00	 1.096429e+01
0	 3.333333e+00	 2.148148e+00	 1.095009e+01
0	 3.333333e+00	 2.222222e+00	 1.093343e+01
0	 2.962963e+00	 2.222222e+00	 1.104490e+01
0	 2.962963e+00	 2.296296e+00	 1.101407e+01
0	 2.962963e+00	 2.370370e+00	 1.098264e+01
0	 2.962963e+00	 2.444444e+00	 1.095023e+01
0	 2.962963e+00	 2.518519e+00	 1.091645e+01
0	 2.962963e+00	 2.592593e+00	 1.088092e+01
0	 3.037037e+00	 2.222222e+00	 1.102579e+01
0	 3.037037e+00	 2.296296e+00	 1.099802e+01
0	 3.037037e+00	 2.370370e+00	 1.096927e+01
0	 3.037037e+00	 2.444444e+00	 1.093930e+01
0	 3.037037e+00	 2.518519e+00	 1.090789e+01
0	 3.037037e+00	 2.592593e+00	 1.087481e+01
0	 3.111111e+00	 2.222222e+00	 1.100451e+01
0	 3.111111e+00	 2.296296e+00	 1.097943e+01
0	 3.111111e+00	 2.370370e+00	 1.095322e+01
0	 3.111111e+00	 2.444444e+00	 1.092578e+01
0	 3.111111e+00	 2.518519e+00	 1.089698e+01
0	 3.111111e+00	 2.592593e+00	 1.086670e+01
0	 3.185185e+00	 2.222222e+00	 1.098164e+01
0	 3.185185e+00	 2.296296e+00	 1.095896e+01
0	 3.185185e+00	 2.370370e+00	 1.093519e+01
0	 3.185185e+00	 2.444444e+00	 1.091030e+01
0	 3.185185e+00	 2.518519e+00	 1.088422e+01
0	 3.185185e+00	 2.592593e+00	 1.085691e+01
0	 3.259259e+00	 2.222222e+00	 1.095776e+01
0	 3.259259e+00	 2.296296e+00	 1.093729e+01
0	 3.259259e+00	 2.370370e+00	 1.091589e+01
0	 3.259259e+00	 2.444444e+00	 1.089351e+01
0	 3.259259e+00	 2.518519e+00	 1.087014e+01
0	 3.259259e+00	 2.592593e+00	 1.084573e+01
0	 3.333333e+00	 2.222222e+00	 1.093343e+01
0	 3.333333e+00	 2.296296e+00	 1.091510e+01
0	 3.333333e+00	 2.370370e+00	 1.089600e+01
0	 3.333333e+00	 2.444444e+00	 1.087607e+01
0	 3.333333e+00	 2.518519e+00	 1.085524e+01
0	 3.333333e+00	 2.592593e+00	 1.083347e+01
0	 2.962963e+00	 2.592593e+00	 1.088092e+01
0	 2.962963e+00	 2.666667e+00	 1.084487e+01
0	 2.962963e+00	 2.740741e+00	 1.080969e+01
0	 2.962963e+00	 2.814815e+00	 1.077533e+01
0	 2.962963e+00	 2.888889e+00	 1.074170e+01
0	 2.962963e+00	 2.962963e+00	 1.070873e+01
0	 3.037037e+00	 2.592593e+00	 1.087481e+01
0	 3.037037e+00	 2.666667e+00	 1.084132e+01
0	 3.037037e+00	 2.740741e+00	 1.080873e+01
0	 3.037037e+00	 2.814815e+00	 1.077688e+01
0	 3.037037e+00	 2.888889e+00	 1.074564e+01
0	 3.037037e+00	 2.962963e+00	 1.071485e+01
0	 3.111111e+00	 2.592593e+00	 1.086670e+01
0	 3.111111e+00	 2.666667e+00	 1.083605e+01
0	 3.111111e+00	 2.740741e+00	 1.080607e+01
0	 3.111111e+00	 2.814815e+00	 1.077657e+01
0	 3.111111e+00	 2.888889e+00	 1.074734e+01
0	 3.111111e+00	 2.962963e+00	 1.071821e+01
0	 3.185185e+00	 2.592593e+00	 1.085691e+01
0	 3.185185e+00	 2.666667e+00	 1.082918e+01
0	 3.185185e+00	 2.740741e+00	 1.080174e+01
0	 3.185185e+00	 2.814815e+00	 1.077440e+01
0	 3.185185e+00	 2.888889e+00	 1.074693e+01
0	 3.185185e+00	 2.962963e+00	 1.071912e+01
0	 3.259259e+00	 2.592593e+00	 1.084573e+01
0	 3.259259e+00	 2.666667e+00	 1.082080e+01
0	 3.259259e+00	 2.740741e+00	 1.079575e+01
0	 3.259259e+00	 2.814815e+00	 1.077039e+01
0	 3.259259e+00	 2.888889e+00	 1.074451e+01
0	 3.259259e+00	 2.962963e+00	 1.071792e+01
0	 3.333333e+00	 2.592593e+00	 1.083347e+01
0	 3.333333e+00	 2.666667e+00	 1.081103e+01
0	 3.333333e+00	 2.740741e+00	 1.078811e+01
0	 3.333333e+00	 2.814815e+00	 1.076456e+01
0	 3.333333e+00	 2.888889e+00	 1.074021e+01
0	 3.333333e+00	 2.962963e+00	 1.071491e+01
0	 2.962963e+00	 2.962963e+00	 1.070873e+01
0	 2.962963e+00	 3.037037e+00	 1.067642e+01
0	 2.962963e+00	 3.111111e+00	 1.064470e+01
0	 2.962963e+00	 3.185185e+00	 1.061338e+01
0	 2.962963e+00	 3.259259e+00	 1.058229e+01
0	 2.962963e+00	 3.333333e+00	 1.055123e+01
0	 3.037037e+00	 2.962963e+00	 1.071485e+01
0	 3.037037e+00	 3.037037e+00	 1.068439e+01
0	 3.037037e+00	 3.111111e+00	 1.065417e+01
0	 3.037037e+00	 3.185185e+00	 1.062408e+01
0	 3.037037e+00	 3.259259e+00	 1.059401e+01
0	 3.037037e+00	 3.333333e+00	 1.056385e+01
0	 3.111111e+00	 2.962963e+00	 1.071821e+01
0	 3.111111e+00	 3.037037e+00	 1.068915e+01
0	 3.111111e+00	 3.111111e+00	 1.066025e+01
0	 3.111111e+00	 3.185185e+00	 1.063144e+01
0	 3.111111e+00	 3.259259e+00	 1.060267e+01
0	 3.111111e+00	 3.333333e+00	 1.057387e+01
0	 3.185185e+00	 2.962963e+00	 1.071912e+01
0	 3.185185e+00	 3.037037e+00	 1.069121e+01
0	 3.185185e+00	 3.111111e+00	 1.066355e+01
0	 3.185185e+00	 3.185185e+00	 1.063609e+01
0	 3.185185e+00	 3.259259e+00	 1.060880e+01
0	 3.185185e+00	 3.333333e+00	 1.058163e+01
0	 3.259259e+00	 2.962963e+00	 1.071792e+01
0	 3.259259e+00	 3.037037e+00	 1.069111e+01
0	 3.259259e+00	 3.111111e+00	 1.066470e+01
0	 3.259259e+00	 3.185185e+00	 1.063865e+01
0	 3.259259e+00	 3.259259e+00	 1.061293e+01
0	 3.259259e+00	 3.333333e+00	 1.058749e+01
0	 3.333333e+00	 2.962963e+00	 1.071491e+01
0	 3.333333e+00	 3.037037e+00	 1.068935e+01
0	 3.333333e+00	 3.111111e+00	 1.066433e+01
0	 3.333333e+00	 3.185185e+00	 1.063977e+01
0	 3.333333e+00	 3.259259e+00	 1.061561e+01
0	 3.333333e+00	 3.333333e+00	 1.059179e+01
0	 2.962963e+00	 3.333333e+00	 1.055123e+01
0	 2.962963e+00	 3.407407e+00	 1.052083e+01
0	 2.962963e+00	 3.481481e+00	 1.049185e+01
0	 2.962963e+00	 3.555556e+00	 1.046426e+01
0	 2.962963e+00	 3.629630e+00	 1.043807e+01
0	 2.962963e+00	 3.703704e+00	 1.041327e+01
0	 3.037037e+00	 3.333333e+00	 1.056385e+01
0	 3.037037e+00	 3.407407e+00	 1.053436e+01
0	 3.037037e+00	 3.481481e+00	 1.050633e+01
0	 3.037037e+00	 3.555556e+00	 1.047970e+01
0	 3.037037e+00	 3.629630e+00	 1.045439e+01
0	 3.037037e+00	 3.703704e+00	 1.043034e+01
0	 3.111111e+00	 3.333333e+00	 1.057387e+01
0	 3.111111e+00	 3.407407e+00	 1.054572e+01
0	 3.111111e+00	 3.481481e+00	 1.051890e+01
0	 3.111111e+00	 3.555556e+00	 1.049328e+01
0	 3.111111e+00	 3.629630e+00	 1.046875e+01
0	 3.111111e+00	 3.703704e+00	 1.044521e+01
0	 3.185185e+00	 3.333333e+00	 1.058163e+01
0	 3.185185e+00	 3.407407e+00	 1.055508e+01
0	 3.185185e+00	 3.481481e+00	 1.052957e+01
0	 3.185185e+00	 3.555556e+00	 1.050497e+01
0	 3.185185e+00	 3.629630e+00	 1.048116e+01
0	 3.185185e+00	 3.703704e+00	 1.045801e+01
0	 3.259259e+00	 3.333333e+00	 1.058749e+01
0	 3.259259e+00	 3.407407e+00	 1.056257e+01
0	 3.259259e+00	 3.481481e+00	 1.053838e+01
0	 3.259259e+00	 3.555556e+00	 1.051477e+01
0	 3.259259e+00	 3.629630e+00	 1.049163e+01
0	 3.259259e+00	 3.703704e+00	 1.046885e+01
0	 3.333333e+00	 3.333333e+00	 1.059179e+01
0	 3.333333e+00	 3.407407e+00	 1.056835e+01
0	 3.333333e+00	 3.481481e+00	 1.054534e+01
0	 3.333333e+00	 3.555556e+00	 1.052265e+01
0	 3.333333e+00	 3.629630e+00	 1.050018e+01
0	 3.333333e+00	 3.703704e+00	 1.047786e+01
0	 2.962963e+00	 3.703704e+00	 1.041327e+01
0	 2.962963e+00	 3.777778e+00	 1.038961e+01
0	 2.962963e+00	 3.851852e+00	 1.036678e+01
0	 2.962963e+00	 3.925926e+00	 1.034472e+01
0	 2.962963e+00	 4.000000e+00	 1.032337e+01
0	 2.962963e+00	 4.074074e+00	 1.030266e+01
0	 3.037037e+00	 3.703704e+00	 1.043034e+01
0	 3.037037e+00	 3.777778e+00	 1.040722e+01
0	 3.037037e+00	 3.851852e+00	 1.038473e+01
0	 3.037037e+00	 3.925926e+00	 1.036285e+01
0	 3.037037e+00	 4.000000e+00	 1.034157e+01
0	 3.037037e+00	 4.074074e+00	 1.032085e+01
0	 3.111111e+00	 3.703704e+00	 1.044521e+01
0	 3.111111e+00	 3.777778e+00	 1.042242e+01
0	 3.111111e+00	 3.851852e+00	 1.040021e+01
0	 3.111111e+00	 3.925926e+00	 1.037859e+01
0	 3.111111e+00	 4.000000e+00	 1.035756e+01
0	 3.111111e+00	 4.074074e+00	 1.033714e+01
0	 3.185185e+00	 3.703704e+00	 1.045801e+01
0	 3.185185e+00	 3.777778e+00	 1.043545e+01
0	 3.185185e+00	 3.851852e+00	 1.041352e+01
0	 3.185185e+00	 3.925926e+00	 1.039224e+01
0	 3.185185e+00	 4.000000e+00	 1.037163e+01
0	 3.185185e+00	 4.074074e+00	 1.035171e+01
0	 3.259259e+00	 3.703704e+00	 1.046885e+01
0	 3.259259e+00	 3.777778e+00	 1.044655e+01
0	 3.259259e+00	 3.851852e+00	 1.042498e+01
0	 3.259259e+00	 3.925926e+00	 1.040415e+01
0	 3.259259e+00	 4.000000e+00	 1.038406e+01
0	 3.259259e+00	 4.074074e+00	 1.036473e+01
0	 3.333333e+00	 3.703704e+00	 1.047786e+01
0	 3.333333e+00	 3.777778e+00	 1.045598e+01
0	 3.333333e+00	 3.851852e+00	 1.043491e+01
0	 3.333333e+00	 3.925926e+00	 1.041463e+01
0	 3.333333e+00	 4.000000e+00	 1.039513e+01
0	 3.333333e+00	 4.074074e+00	 1.037639e+01
0	 2.962963e+00	 4.074074e+00	 1.030266e+01
0	 2.962963e+00	 4.148148e+00	 1.028277e+01
0	 2.962963e+00	 4.222222e+00	 1.026395e+01
0	 2.962963e+00	 4.296296e+00	 1.024621e+01
0	 2.962963e+00	 4.370370e+00	 1.022959e+01
0	 2.962963e+00	 4.444444e+00	 1.021408e+01
0	 3.037037e+00	 4.074074e+00	 1.032085e+01
0	 3.037037e+00	 4.148148e+00	 1.030098e+01
0	 3.037037e+00	 4.222222e+00	 1.028222e+01
0	 3.037037e+00	 4.296296e+00	 1.026456e+01
0	 3.037037e+00	 4.370370e+00	 1.024796e+01
0	 3.037037e+00	 4.444444e+00	 1.023242e+01
0	 3.111111e+00	 4.074074e+00	 1.033714e+01
0	 3.111111e+00	 4.148148e+00	 1.031757e+01
0	 3.111111e+00	 4.222222e+00	 1.029904e+01
0	 3.111111e+00	 4.296296e+00	 1.028153e+01
0	 3.111111e+00	 4.370370e+00	 1.026497e+01
0	 3.111111e+00	 4.444444e+00	 1.024932e+01
0	 3.185185e+00	 4.074074e+00	 1.035171e+01
0	 3.185185e+00	 4.148148e+00	 1.033260e+01
0	 3.185185e+00	 4.222222e+00	 1.031442e+01
0	 3.185185e+00	 4.296296e+00	 1.029710e+01
0	 3.185185e+00	 4.370370e+00	 1.028059e+01
0	 3.185185e+00	 4.444444e+00	 1.026482e+01
0	 3.259259e+00	 4.074074e+00	 1.036473e+01
0	 3.259259e+00	 4.148148e+00	 1.034617e+01
0	 3.259259e+00	 4.222222e+00	 1.032836e+01
0	 3.259259e+00	 4.296296e+00	 1.031126e+01
0	 3.259259e+00	 4.370370e+00	 1.029480e+01
0	 3.259259e+00	 4.444444e+00	 1.027894e+01
0	 3.333333e+00	 4.074074e+00	 1.037639e+01
0	 3.333333e+00	 4.148148e+00	 1.035833e+01
0	 3.333333e+00	 4.222222e+00	 1.034088e+01
0	 3.333333e+00	 4.296296e+00	 1.032398e+01
0	 3.333333e+00	 4.370370e+00	 1.030760e+01
0	 3.333333e+00	 4.444444e+00	 1.029171e+01
0	 2.962963e+00	 4.444444e+00	 1.021408e+01
0	 2.962963e+00	 4.518519e+00	 1.019948e+01
0	 2.962963e+00	 4.592593e+00	 1.018555e+01
0	 2.962963e+00	 4.666667e+00	 1.017226e+01
0	 2.962963e+00	 4.740741e+00	 1.015961e+01
0	 2.962963e+00	 4.814815e+00	 1.014759e+01
0	 3.037037e+00	 4.444444e+00	 1.023242e+01
0	 3.037037e+00	 4.518519e+00	 1.021769e+01
0	 3.037037e+00	 4.592593e+00	 1.020353e+01
0	 3.037037e+00	 4.666667e+00	 1.018997e+01
0	 3.037037e+00	 4.740741e+00	 1.017701e+01
0	 3.037037e+00	 4.814815e+00	 1.016465e+01
0	 3.111111e+00	 4.444444e+00	 1.024932e+01
0	 3.111111e+00	 4.518519e+00	 1.023439e+01
0	 3.111111e+00	 4.592593e+00	 1.022003e+01
0	 3.111111e+00	 4.666667e+00	 1.020626e+01
0	 3.111111e+00	 4.740741e+00	 1.019309e+01
0	 3.111111e+00	 4.814815e+00	 1.018055e+01
0	 3.185185e+00	 4.444444e+00	 1.026482e+01
0	 3.185185e+00	 4.518519e+00	 1.024969e+01
0	 3.185185e+00	 4.592593e+00	 1.023516e+01
0	 3.185185e+00	 4.666667e+00	 1.022124e+01
0	 3.185185e+00	 4.740741e+00	 1.020796e+01
0	 3.185185e+00	 4.814815e+00	 1.019534e+01
0	 3.259259e+00	 4.444444e+00	 1.027894e+01
0	 3.259259e+00	 4.518519e+00	 1.026367e+01
0	 3.259259e+00	 4.592593e+00	 1.024903e+01
0	 3.259259e+00	 4.666667e+00	 1.023504e+01
0	 3.259259e+00	 4.740741e+00	 1.022173e+01
0	 3.259259e+00	 4.814815e+00	 1.020910e+01
0	 3.333333e+00	 4.444444e+00	 1.029171e+01
0	 3.333333e+00	 4.518519e+00	 1.027639e+01
0	 3.333333e+00	 4.592593e+00	 1.026175e+01
0	 3.333333e+00	 4.666667e+00	 1.024778e+01
0	 3.333333e+00	 4.740741e+00	 1.023450e+01
0	 3.333333e+00	 4.814815e+00	 1.022189e+01
0	 2.962963e+00	 4.814815e+00	 1.014759e+01
0	 2.962963e+00	 4.888889e+00	 1.013620e+01
0	 2.962963e+00	 4.962963e+00	 1.012547e+01
0	 2.962963e+00	 5.037037e+00	 1.011543e+01
0	 2.962963e+00	 5.111111e+00	 1.010609e+01
0	 2.962963e+00	 5.185185e+00	 1.009747e+01
0	 3.037037e+00	 4.814815e+00	 1.016465e+01
0	 3.037037e+00	 4.888889e+00	 1.015294e+01
0	 3.037037e+00	 4.962963e+00	 1.014193e+01
0	 3.037037e+00	 5.037037e+00	 1.013161e+01
0	 3.037037e+00	 5.111111e+00	 1.012197e+01
0	 3.037037e+00	 5.185185e+00	 1.011303e+01
0	 3.111111e+00	 4.814815e+00	 1.018055e+01
0	 3.111111e+00	 4.888889e+00	 1.016867e+01
0	 3.111111e+00	 4.962963e+00	 1.015746e+01
0	 3.111111e+00	 5.037037e+00	 1.014691e+01
0	 3.111111e+00	 5.111111e+00	 1.013700e+01
0	 3.111111e+00	 5.185185e+00	 1.012773e+01
0	 3.185185e+00	 4.814815e+00	 1.019534e+01
0	 3.185185e+00	 4.888889e+00	 1.018338e+01
0	 3.185185e+00	 4.962963e+00	 1.017204e+01
0	 3.185185e+00	 5.037037e+00	 1.016131e+01
0	 3.185185e+00	 5.111111e+00	 1.015116e+01
0	 3.185185e+00	 5.185185e+00	 1.014158e+01
0	 3.259259e+00	 4.814815e+00	 1.020910e+01
0	 3.259259e+00	 4.888889e+00	 1.019712e+01
0	 3.259259e+00	 4.962963e+00	 1.018568e+01
0	 3.259259e+00	 5.037037e+00	 1.017479e+01
0	 3.259259e+00	 5.111111e+00	 1.016443e+01
0	 3.259259e+00	 5.185185e+00	 1.015458e+01
0	 3.333333e+00	 4.814815e+00	 1.022189e+01
0	 3.333333e+00	 4.888889e+00	 1.020989e+01
0	 3.333333e+00	 4.962963e+00	 1.019837e+01
0	 3.333333e+00	 5.037037e+00	 1.018734e+01
0	 3.333333e+00	 5.111111e+00	 1.017679e+01
0	 3.333333e+00	 5.185185e+00	 1.016671e+01
0	 2.962963e+00	 5.185185e+00	 1.009747e+01
0	 2.962963e+00	 5.259259e+00	 1.008943e+01
0	 2.962963e+00	 5.333333e+00	 1.008182e+01
0	 2.962963e+00	 5.407407e+00	 1.007465e+01
0	 2.962963e+00	 5.481481e+00	 1.006792e+01
0	 2.962963e+00	 5.555556e+00	 1.006164e+01
0	 3.037037e+00	 5.185185e+00	 1.011303e+01
0	 3.037037e+00	 5.259259e+00	 1.010463e+01
0	 3.037037e+00	 5.333333e+00	 1.009664e+01
0	 3.037037e+00	 5.407407e+00	 1.008908e+01
0	 3.037037e+00	 5.481481e+00	 1.008195e+01
0	 3.037037e+00	 5.555556e+00	 1.007527e+01
0	 3.111111e+00	 5.185185e+00	 1.012773e+01
0	 3.111111e+00	 5.259259e+00	 1.011898e+01
0	 3.111111e+00	 5.333333e+00	 1.011063e+01
0	 3.111111e+00	 5.407407e+00	 1.010272e+01
0	 3.111111e+00	 5.481481e+00	 1.009525e+01
0	 3.111111e+00	 5.555556e+00	 1.008824e+01
0	 3.185185e+00	 5.185185e+00	 1.014158e+01
0	 3.185185e+00	 5.259259e+00	 1.013249e+01
0	 3.185185e+00	 5.333333e+00	 1.012383e+01
0	 3.185185e+00	 5.407407e+00	 1.011561e+01
0	 3.185185e+00	 5.481481e+00	 1.010785e+01
0	 3.185185e+00	 5.555556e+00	 1.010057e+01
0	 3.259259e+00	 5.185185e+00	 1.015458e+01
0	 3.259259e+00	 5.259259e+00	 1.014519e+01
0	 3.259259e+00	 5.333333e+00	 1.013625e+01
0	 3.259259e+00	 5.407407e+00	 1.012777e+01
0	 3.259259e+00	 5.481481e+00	 1.011977e+01
0	 3.259259e+00	 5.555556e+00	 1.011225e+01
0	 3.333333e+00	 5.185185e+00	 1.016671e+01
0	 3.333333e+00	 5.259259e+00	 1.015708e+01
0	 3.333333e+00	 5.333333e+00	 1.014793e+01
0	 3.333333e+00	 5.407407e+00	 1.013924e+01
0	 3.333333e+00	 5.481481e+00	 1.013104e+01
0	 3.333333e+00	 5.555556e+00	 1.012331e+01
0	 2.962963e+00	 5.555556e+00	 1.006164e+01
0	 2.962963e+00	 5.629630e+00	 1.005577e+01
0	 2.962963e+00	 5.703704e+00	 1.005028e+01
0	 2.962963e+00	 5.777778e+00	 1.004518e+01
0	 2.962963e+00	 5.851852e+00	 1.004048e+01
0	 2.962963e+00	 5.925926e+00	 1.003620e+01
0	 3.037037e+00	 5.555556e+00	 1.007527e+01
0	 3.037037e+00	 5.629630e+00	 1.006901e+01
0	 3.037037e+00	 5.703704e+00	 1.006315e+01
0	 3.037037e+00	 5.777778e+00	 1.005769e+01
0	 3.037037e+00	 5.851852e+00	 1.005263e+01
0	 3.037037e+00	 5.925926e+00	 1.004798e+01
0	 3.111111e+00	 5.555556e+00	 1.008824e+01
0	 3.111111e+00	 5.629630e+00	 1.008166e+01
0	 3.111111e+00	 5.703704e+00	 1.007548e+01
0	 3.111111e+00	 5.777778e+00	 1.006969e+01
0	 3.111111e+00	 5.851852e+00	 1.006429e+01
0	 3.111111e+00	 5.925926e+00	 1.005929e+01
0	 3.185185e+00	 5.555556e+00	 1.010057e+01
0	 3.185185e+00	 5.629630e+00	 1.009372e+01
0	 3.185185e+00	 5.703704e+00	 1.008725e+01
0	 3.185185e+00	 5.777778e+00	 1.008115e+01
0	 3.185185e+00	 5.851852e+00	 1.007544e+01
0	 3.185185e+00	 5.925926e+00	 1.007010e+01
0	 3.259259e+00	 5.555556e+00	 1.011225e+01
0	 3.259259e+00	 5.629630e+00	 1.010516e+01
0	 3.259259e+00	 5.703704e+00	 1.009844e+01
0	 3.259259e+00	 5.777778e+00	 1.009207e+01
0	 3.259259e+00	 5.851852e+00	 1.008606e+01
0	 3.259259e+00	 5.925926e+00	 1.008041e+01
0	 3.333333e+00	 5.555556e+00	 1.012331e+01
0	 3.333333e+00	 5.629630e+00	 1.011600e+01
0	 3.333333e+00	 5.703704e+00	 1.010904e+01
0	 3.333333e+00	 5.777778e+00	 1.010241e+01
0	 3.333333e+00	 5.851852e+00	 1.009613e+01
0	 3.333333e+00	 5.925926e+00	 1.009020e+01
0	 2.962963e+00	 5.925926e+00	 1.003620e+01
0	 2.962963e+00	 6.000000e+00	 1.003226e+01
0	 2.962963e+00	 6.074074e+00	 1.002857e+01
0	 2.962963e+00	 6.148148e+00	 1.002515e+01
0	 2.962963e+00	 6.222222e+00	 1.002200e+01
0	 2.962963e+00	 6.296296e+00	 1.001912e+01
0	 3.037037e+00	 5.925926e+00	 1.004798e+01
0	 3.037037e+00	 6.000000e+00	 1.004367e+01
0	 3.037037e+00	 6.074074e+00	 1.003960e+01
0	 3.037037e+00	 6.148148e+00	 1.003581e+01
0	 3.037037e+00	 6.222222e+00	 1.003228e+01
0	 3.037037e+00	 6.296296e+00	 1.002904e+01
0	 3.111111e+00	 5.925926e+00	 1.005929e+01
0	 3.111111e+00	 6.000000e+00	 1.005461e+01
0	 3.111111e+00	 6.074074e+00	 1.005019e+01
0	 3.111111e+00	 6.148148e+00	 1.004604e+01
0	 3.111111e+00	 6.222222e+00	 1.004218e+01
0	 3.111111e+00	 6.296296e+00	 1.003861e+01
0	 3.185185e+00	 5.925926e+00	 1.007010e+01
0	 3.185185e+00	 6.000000e+00	 1.006508e+01
0	 3.185185e+00	 6.074074e+00	 1.006033e+01
0	 3.185185e+00	 6.148148e+00	 1.005586e+01
0	 3.185185e+00	 6.222222e+00	 1.005168e+01
0	 3.185185e+00	 6.296296e+00	 1.004780e+01
0	 3.259259e+00	 5.925926e+00	 1.008041e+01
0	 3.259259e+00	 6.000000e+00	 1.007507e+01
0	 3.259259e+00	 6.074074e+00	 1.007002e+01
0	 3.259259e+00	 6.148148e+00	 1.006525e+01
0	 3.259259e+00	 6.222222e+00	 1.006079e+01
0	 3.259259e+00	 6.296296e+00	 1.005663e+01
0	 3.333333e+00	 5.925926e+00	 1.009020e+01
0	 3.333333e+00	 6.000000e+00	 1.008458e+01
0	 3.333333e+00	 6.074074e+00	 1.007925e+01
0	 3.333333e+00	 6.148148e+00	 1.007422e+01
0	 3.333333e+00	 6.222222e+00	 1.006949e+01
0	 3.333333e+00	 6.296296e+00	 1.006507e+01
0	 2.962963e+00	 6.296296e+00	 1.001912e+01
0	 2.962963e+00	 6.370370e+00	 1.001648e+01
0	 2.962963e+00	 6.444444e+00	 1.001405e+01
0	 2.962963e+00	 6.518519e+00	 1.001183e+01
0	 2.962963e+00	 6.592593e+00	 1.000983e+01
0	 2.962963e+00	 6.666667e+00	 1.000805e+01
0	 3.037037e+00	 6.296296e+00	 1.002904e+01
0	 3.037037e+00	 6.370370e+00	 1.002605e+01
0	 3.037037e+00	 6.444444e+00	 1.002327e+01
0	 3.037037e+00	 6.518519e+00	 1.002071e+01
0	 3.037037e+00	 6.592593e+00	 1.001838e+01
0	 3.037037e+00	 6.666667e+00	 1.001627e+01
0	 3.111111e+00	 6.296296e+00	 1.003861e+01
0	 3.111111e+00	 6.370370e+00	 1.003529e+01
0	 3.111111e+00	 6.444444e+00	 1.003219e+01
0	 3.111111e+00	 6.518519e+00	 1.002931e+01
0	 3.111111e+00	 6.592593e+00	 1.002666e+01
0	 3.111111e+00	 6.666667e+00	 1.002424e+01
0	 3.185185e+00	 6.296296e+00	 1.004780e+01
0	 3.185185e+00	 6.370370e+00	 1.004419e+01
0	 3.185185e+00	 6.444444e+00	 1.004079e+01
0	 3.185185e+00	 6.518519e+00	 1.003761e+01
0	 3.185185e+00	 6.592593e+00	 1.003466e+01
0	 3.185185e+00	 6.666667e+00	 1.003193e+01
0	 3.259259e+00	 6.296296e+00	 1.005663e+01
0	 3.259259e+00	 6.370370e+00	 1.005273e+01
0	 3.259259e+00	 6.444444e+00	 1.004905e+01
0	 3.259259e+00	 6.518519e+00	 1.004559e+01
0	 3.259259e+00	 6.592593e+00	 1.004235e+01
0	 3.259259e+00	 6.666667e+00	 1.003934e+01
0	 3.333333e+00	 6.296296e+00	 1.006507e+01
0	 3.333333e+00	 6.370370e+00	 1.006091e+01
0	 3.333333e+00	 6.444444e+00	 1.005697e+01
0	 3.333333e+00	 6.518519e+00	 1.005324e+01
0	 3.333333e+00	 6.592593e+00	 1.004973e+01
0	 3.333333e+00	 6.666667e+00	 1.004644e+01
0	 2.962963e+00	 6.666667e+00	 1.000805e+01
0	 2.962963e+00	 6.740741e+00	 1.000645e+01
0	 2.962963e+00	 6.814815e+00	 1.000499e+01
0	 2.962963e+00	 6.888889e+00	 1.000368e+01
0	 2.962963e+00	 6.962963e+00	 1.000251e+01
0	 2.962963e+00	 7.037037e+00	 1.000150e+01
0	 3.037037e+00	 6.666667e+00	 1.001627e+01
0	 3.037037e+00	 6.740741e+00	 1.001435e+01
0	 3.037037e+00	 6.814815e+00	 1.001257e+01
0	 3.037037e+00	 6.888889e+00	 1.001094e+01
0	 3.037037e+00	 6.962963e+00	 1.000946e+01
0	 3.037037e+00	 7.037037e+00	 1.000814e+01
0	 3.111111e+00	 6.666667e+00	 1.002424e+01
0	 3.111111e+00	 6.740741e+00	 1.002200e+01
0	 3.111111e+00	 6.814815e+00	 1.001991e+01
0	 3.111111e+00	 6.888889e+00	 1.001798e+01
0	 3.111111e+00	 6.962963e+00	 1.001621e+01
0	 3.111111e+00	 7.037037e+00	 1.001460e+01
0	 3.185185e+00	 6.666667e+00	 1.003193e+01
0	 3.185185e+00	 6.740741e+00	 1.002939e+01
0	 3.185185e+00	 6.814815e+00	 1.002701e+01
0	 3.185185e+00	 6.888889e+00	 1.002479e+01
0	 3.185185e+00	 6.962963e+00	 1.002274e+01
0	 3.185185e+00	 7.037037e+00	 1.002086e+01
0	 3.259259e+00	 6.666667e+00	 1.003934e+01
0	 3.259259e+00	 6.740741e+00	 1.003652e+01
0	 3.259259e+00	 6.814815e+00	 1.003386e+01
0	 3.259259e+00	 6.888889e+00	 1.003137e+01
0	 3.259259e+00	 6.962963e+00	 1.002905e+01
0	 3.259259e+00	 7.037037e+00	 1.002691e+01
0	 3.333333e+00	 6.666667e+00	 1.004644e+01
0	 3.333333e+00	 6.740741e+00	 1.004336e+01
0	 3.333333e+00	 6.814815e+00	 1.004044e+01
0	 3.333333e+00	 6.888889e+00	 1.003769e+01
0	 3.333333e+00	 6.962963e+00	 1.003513e+01
0	 3.333333e+00	 7.037037e+00	 1.003274e+01
0	 2.962963e+00	 7.037037e+00	 1.000150e+01
0	 2.962963e+00	 7.111111e+00	 1.000061e+01
0	 2.962963e+00	 7.185185e+00	 9.999815e+00
0	 2.962963e+00	 7.259259e+00	 9.999126e+00
0	 2.962963e+00	 7.333333e+00	 9.998546e+00
0	 2.962963e+00	 7.407407e+00	 9.998078e+00
0	 3.037037e+00	 7.037037e+00	 1.000814e+01
0	 3.037037e+00	 7.111111e+00	 1.000696e+01
0	 3.037037e+00	 7.185185e+00	 1.000588e+01
0	 3.037037e+00	 7.259259e+00	 1.000491e+01
0	 3.037037e+00	 7.333333e+00	 1.000405e+01
0	 3.037037e+00	 7.407407e+00	 1.000332e+01
0	 3.111111e+00	 7.037037e+00	 1.001460e+01
0	 3.111111e+00	 7.111111e+00	 1.001314e+01
0	 3.111111e+00	 7.185185e+00	 1.001178e+01
0	 3.111111e+00	 7.259259e+00	 1.001054e+01
0	 3.111111e+00	 7.333333e+00	 1.000942e+01
0	 3.111111e+00	 7.407407e+00	 1.000842e+01
0	 3.185185e+00	 7.037037e+00	 1.002086e+01
0	 3.185185e+00	 7.111111e+00	 1.001913e+01
0	 3.185185e+00	 7.185185e+00	 1.001751e+01
0	 3.185185e+00	 7.259259e+00	 1.001601e+01
0	 3.185185e+00	 7.333333e+00	 1.001463e+01
0	 3.185185e+00	 7.407407e+00	 1.001338e+01
0	 3.259259e+00	 7.037037e+00	 1.002691e+01
0	 3.259259e+00	 7.111111e+00	 1.002492e+01
0	 3.259259e+00	 7.185185e+00	 1.002305e+01
0	 3.259259e+00	 7.259259e+00	 1.002130e+01
0	 3.259259e+00	 7.333333e+00	 1.001968e+01
0	 3.259259e+00	 7.407407e+00	 1.001819e+01
0	 3.333333e+00	 7.037037e+00	 1.003274e+01
0	 3.333333e+00	 7.111111e+00	 1.003051e+01
0	 3.333333e+00	 7.185185e+00	 1.002840e+01
0	 3.333333e+00	 7.259259e+00	 1.002641e+01
0	 3.333333e+00	 7.333333e+00	 1.002455e+01
0	 3.333333e+00	 7.407407e+00	 1.002283e+01
0	 2.962963e+00	 7.407407e+00	 9.998078e+00
0	 2.962963e+00	 7.481481e+00	 9.997696e+00
0	 2.962963e+00	 7.555556e+00	 9.997375e+00
0	 2.962963e+00	 7.629630e+00	 9.997117e+00
0	 2.962963e+00	 7.703704e+00	 9.996928e+00
0	 2.962963e+00	 7.777778e+00	 9.996811e+00
0	 3.037037e+00	 7.407407e+00	 1.000332e+01
0	 3.037037e+00	 7.481481e+00	 1.000267e+01
0	 3.037037e+00	 7.555556e+00	 1.000209e+01
0	 3.037037e+00	 7.629630e+00	 1.000158e+01
0	 3.037037e+00	 7.703704e+00	 1.000115e+01
0	 3.037037e+00	 7.777778e+00	 1.000079e+01
0	 3.111111e+00	 7.407407e+00	 1.000842e+01
0	 3.111111e+00	 7.481481e+00	 1.000752e+01
0	 3.111111e+00	 7.555556e+00	 1.000669e+01
0	 3.111111e+00	 7.629630e+00	 1.000594e+01
0	 3.111111e+00	 7.703704e+00	 1.000526e+01
0	 3.111111e+00	 7.777778e+00	 1.000468e+01
0	 3.185185e+00	 7.407407e+00	 1.001338e+01
0	 3.185185e+00	 7.481481e+00	 1.001223e+01
0	 3.185185e+00	 7.555556e+00	 1.001116e+01
0	 3.185185e+00	 7.629630e+00	 1.001017e+01
0	 3.185185e+00	 7.703704e+00	 1.000927e+01
0	 3.185185e+00	 7.777778e+00	 1.000846e+01
0	 3.259259e+00	 7.407407e+00	 1.001819e+01
0	 3.259259e+00	 7.481481e+00	 1.001680e+01
0	 3.259259e+00	 7.555556e+00	 1.001550e+01
0	 3.259259e+00	 7.629630e+00	 1.001428e+01
0	 3.259259e+00	 7.703704e+00	 1.001316e+01
0	 3.259259e+00	 7.777778e+00	 1.001213e+01
0	 3.333333e+00	 7.407407e+00	 1.002283e+01
0	 3.333333e+00	 7.481481e+00	 1.002121e+01
0	 3.333333e+00	 7.555556e+00	 1.001969e+01
0	 3.333333e+00	 7.629630e+00	 1.001825e+01
0	 3.333333e+00	 7.703704e+00	 1.001692e+01
0	 3.333333e+00	 7.777778e+00	 1.001568e+01
0	 2.962963e+00	 7.777778e+00	 9.996811e+00
0	 2.962963e+00	 7.851852e+00	 9.996747e+00
0	 2.962963e+00	 7.925926e+00	 9.996717e+00
0	 2.962963e+00	 8.000000e+00	 9.996725e+00
0	 2.962963e+00	 8.074074e+00	 9.996773e+00
0	 2.962963e+00	 8.148148e+00	 9.996865e+00
0	 3.037037e+00	 7.777778e+00	 1.000079e+01
0	 3.037037e+00	 7.851852e+00	 1.000049e+01
0	 3.037037e+00	 7.925926e+00	 1.000024e+01
0	 3.037037e+00	 8.000000e+00	 1.000002e+01
0	 3.037037e+00	 8.074074e+00	 9.999858e+00
0	 3.037037e+00	 8.148148e+00	 9.999741e+00
0	 3.111111e+00	 7.777778e+00	 1.000468e+01
0	 3.111111e+00	 7.851852e+00	 1.000415e+01
0	 3.111111e+00	 7.925926e+00	 1.000368e+01
0	 3.111111e+00	 8.000000e+00	 1.000325e+01
0	 3.111111e+00	 8.074074e+00	 1.000288e+01
0	 3.111111e+00	 8.148148e+00	 1.000256e+01
0	 3.185185e+00	 7.777778e+00	 1.000846e+01
0	 3.185185e+00	 7.851852e+00	 1.000772e+01
0	 3.185185e+00	 7.925926e+00	 1.000703e+01
0	 3.185185e+00	 8.000000e+00	 1.000639e+01
0	 3.185185e+00	 8.074074e+00	 1.000582e+01
0	 3.185185e+00	 8.148148e+00	 1.000530e+01
0	 3.259259e+00	 7.777778e+00	 1.001213e+01
0	 3.259259e+00	 7.851852e+00	 1.001118e+01
0	 3.259259e+00	 7.925926e+00	 1.001028e+01
0	 3.259259e+00	 8.000000e+00	 1.000945e+01
0	 3.259259e+00	 8.074074e+00	 1.000868e+01
0	 3.259259e+00	 8.148148e+00	 1.000797e+01
0	 3.333333e+00	 7.777778e+00	 1.001568e+01
0	 3.333333e+00	 7.851852e+00	 1.001453e+01
0	 3.333333e+00	 7.925926e+00	 1.001343e+01
0	 3.333333e+00	 8.000000e+00	 1.001240e+01
0	 3.333333e+00	 8.074074e+00	 1.001144e+01
0	 3.333333e+00	 8.148148e+00	 1.001055e+01
0	 2.962963e+00	 8.148148e+00	 9.996865e+00
0	 2.962963e+00	 8.222222e+00	 9.996985e+00
0	 2.962963e+00	 8.296296e+00	 9.997118e+00
0	 2.962963e+00	 8.370370e+00	 9.997265e+00
0	 2.962963e+00	 8.444444e+00	 9.997430e+00
0	 2.962963e+00	 8.518519e+00	 9.997615e+00
0	 3.037037e+00	 8.148148e+00	 9.999741e+00
0	 3.037037e+00	 8.222222e+00	 9.999659e+00
0	 3.037037e+00	 8.296296e+00	 9.999596e+00
0	 3.037037e+00	 8.370370e+00	 9.999554e+00
0	 3.037037e+00	 8.444444e+00	 9.999536e+00
0	 3.037037e+00	 8.518519e+00	 9.999544e+00
0	 3.111111e+00	 8.148148e+00	 1.000256e+01
0	 3.111111e+00	 8.222222e+00	 1.000228e+01
0	 3.111111e+00	 8.296296e+00	 1.000202e+01
0	 3.111111e+00	 8.370370e+00	 1.000180e+01
0	 3.111111e+00	 8.444444e+00	 1.000160e+01
0	 3.111111e+00	 8.518519e+00	 1.000143e+01
0	 3.185185e+00	 8.148148e+00	 1.000530e+01
0	 3.185185e+00	 8.222222e+00	 1.000483e+01
0	 3.185185e+00	 8.296296e+00	 1.000439e+01
0	 3.185185e+00	 8.370370e+00	 1.000398e+01
0	 3.185185e+00	 8.444444e+00	 1.000361e+01
0	 3.185185e+00	 8.518519e+00	 1.000328e+01
0	 3.259259e+00	 8.148148e+00	 1.000797e+01
0	 3.259259e+00	 8.222222e+00	 1.000731e+01
0	 3.259259e+00	 8.296296e+00	 1.000669e+01
0	 3.259259e+00	 8.370370e+00	 1.000611e+01
0	 3.259259e+00	 8.444444e+00	 1.000557e+01
0	 3.259259e+00	 8.518519e+00	 1.000507e+01
0	 3.333333e+00	 8.148148e+00	 1.001055e+01
0	 3.333333e+00	 8.222222e+00	 1.000971e+01
0	 3.333333e+00	 8.296296e+00	 1.000892e+01
0	 3.333333e+00	 8.370370e+00	 1.000817e+01
0	 3.333333e+00	 8.444444e+00	 1.000747e+01
0	 3.333333e+00	 8.518519e+00	 1.000681e+01
0	 2.962963e+00	 8.518519e+00	 9.997615e+00
0	 2.962963e+00	 8.592593e+00	 9.997809e+00
0	 2.962963e+00	 8.666667e+00	 9.998000e+00
0	 2.962963e+00	 8.740741e+00	 9.998189e+00
0	 2.962963e+00	 8.814815e+00	 9.998380e+00
0	 2.962963e+00	 8.888889e+00	 9.998572e+00
0	 3.037037e+00	 8.518519e+00	 9.999544e+00
0	 3.037037e+00	 8.592593e+00	 9.999567e+00
0	 3.037037e+00	 8.666667e+00	 9.999594e+00
0	 3.037037e+00	 8.740741e+00	 9.999627e+00
0	 3.037037e+00	 8.814815e+00	 9.999668e+00
0	 3.037037e+00	 8.888889e+00	 9.999717e+00
0	 3.111111e+00	 8.518519e+00	 1.000143e+01
0	 3.111111e+00	 8.592593e+00	 1.000129e+01
0	 3.111111e+00	 8.666667e+00	 1.000116e+01
0	 3.111111e+00	 8.740741e+00	 1.000104e+01
0	 3.111111e+00	 8.814815e+00	 1.000093e+01
0	 3.111111e+00	 8.888889e+00	 1.000084e+01
0	 3.185185e+00	 8.518519e+00	 1.000328e+01
0	 3.185185e+00	 8.592593e+00	 1.000297e+01
0	 3.185185e+00	 8.666667e+00	 1.000269e+01
0	 3.185185e+00	 8.740741e+00	 1.000242e+01
0	 3.185185e+00	 8.814815e+00	 1.000217e+01
0	 3.185185e+00	 8.888889e+00	 1.000194e+01
0	 3.259259e+00	 8.518519e+00	 1.000507e+01
0	 3.259259e+00	 8.592593e+00	 1.000461e+01
0	 3.259259e+00	 8.666667e+00	 1.000417e+01
0	 3.259259e+00	 8.740741e+00	 1.000376e+01
0	 3.259259e+00	 8.814815e+00	 1.000337e+01
0	 3.259259e+00	 8.888889e+00	 1.000301e+01
0	 3.333333e+00	 8.518519e+00	 1.000681e+01
0	 3.333333e+00	 8.592593e+00	 1.000619e+01
0	 3.333333e+00	 8.666667e+00	 1.000561e+01
0	 3.333333e+00	 8.740741e+00	 1.000506e+01
0	 3.333333e+00	 8.814815e+00	 1.000453e+01
0	 3.333333e+00	 8.888889e+00	 1.000404e+01
0	 2.962963e+00	 8.888889e+00	 9.998572e+00
0	 2.962963e+00	 8.962963e+00	 9.998760e+00
0	 2.962963e+00	 9.037037e+00	 9.998935e+00
0	 2.962963e+00	 9.111111e+00	 9.999098e+00
0	 2.962963e+00	 9.185185e+00	 9.999250e+00
0	 2.962963e+00	 9.259259e+00	 9.999391e+00
0	 3.037037e+00	 8.888889e+00	 9.999717e+00
0	 3.037037e+00	 8.962963e+00	 9.999768e+00
0	 3.037037e+00	 9.037037e+00	 9.999814e+00
0	 3.037037e+00	 9.111111e+00	 9.999856e+00
0	 3.037037e+00	 9.185185e+00	 9.999895e+00
0	 3.037037e+00	 9.259259e+00	 9.999929e+00
0	 3.111111e+00	 8.888889e+00	 1.000084e+01
0	 3.111111e+00	 8.962963e+00	 1.000076e+01
0	 3.111111e+00	 9.037037e+00	 1.000068e+01
0	 3.111111e+00	 9.111111e+00	 1.000060e+01
0	 3.111111e+00	 9.185185e+00	 1.000053e+01
0	 3.111111e+00	 9.259259e+00	 1.000046e+01
0	 3.185185e+00	 8.888889e+00	 1.000194e+01
0	 3.185185e+00	 8.962963e+00	 1.000173e+01
0	 3.185185e+00	 9.037037e+00	 1.000153e+01
0	 3.185185e+00	 9.111111e+00	 1.000134e+01
0	 3.185185e+00	 9.185185e+00	 1.000115e+01
0	 3.185185e+00	 9.259259e+00	 1.000098e+01
0	 3.259259e+00	 8.888889e+00	 1.000301e+01
0	 3.259259e+00	 8.962963e+00	 1.000267e+01
0	 3.259259e+00	 9.037037e+00	 1.000235e+01
0	 3.259259e+00	 9.111111e+00	 1.000205e+01
0	 3.259259e+00	 9.185185e+00	 1.000176e+01
0	 3.259259e+00	 9.259259e+00	 1.000149e+01
0	 3.333333e+00	 8.888889e+00	 1.000404e+01
0	 3.333333e+00	 8.962963e+00	 1.000358e+01
0	 3.333333e+00	 9.037037e+00	 1.000314e+01
0	 3.333333e+00	 9.111111e+00	 1.000273e+01
0	 3.333333e+00	 9.185185e+00	 1.000234e+01
0	 3.333333e+00	 9.259259e+00	 1.000198e+01
0	 2.962963e+00	 9.259259e+00	 9.999391e+00
0	 2.962963e+00	 9.333333e+00	 9.999520e+00
0	 2.962963e+00	 9.407407e+00	 9.999633e+00
0	 2.962963e+00	 9.481481e+00	 9.999730e+00
0	 2.962963e+00	 9.555556e+00	 9.999810e+00
0	 2.962963e+00	 9.629630e+00	 9.999872e+00
0	 3.037037e+00	 9.259259e+00	 9.999929e+00
0	 3.037037e+00	 9.333333e+00	 9.999960e+00
0	 3.037037e+00	 9.407407e+00	 9.999985e+00
0	 3.037037e+00	 9.481481e+00	 1.000000e+01
0	 3.037037e+00	 9.555556e+00	 1.000001e+01
0	 3.037037e+00	 9.629630e+00	 1.000001e+01
0	 3.111111e+00	 9.259259e+00	 1.000046e+01
0	 3.111111e+00	 9.333333e+00	 1.000040e+01
0	 3.111111e+00	 9.407407e+00	 1.000034e+01
0	 3.111111e+00	 9.481481e+00	 1.000028e+01
0	 3.111111e+00	 9.555556e+00	 1.000022e+01
0	 3.111111e+00	 9.629630e+00	 1.000016e+01
0	 3.185185e+00	 9.259259e+00	 1.000098e+01
0	 3.185185e+00	 9.333333e+00	 1.000083e+01
0	 3.185185e+00	 9.407407e+00	 1.000068e+01
0	 3.185185e+00	 9.481481e+00	 1.000055e+01
0	 3.185185e+00	 9.555556e+00	 1.000042e+01
0	 3.185185e+00	 9.629630e+00	 1.000030e+01
0	 3.259259e+00	 9.259259e+00	 1.000149e+01
0	 3.259259e+00	 9.333333e+00	 1.000124e+01
0	 3.259259e+00	 9.407407e+00	 1.000101e+01
0	 3.259259e+00	 9.481481e+00	 1.000081e+01
0	 3.259259e+00	 9.555556e+00	 1.000062e+01
0	 3.259259e+00	 9.629630e+00	 1.000044e+01
0	 3.333333e+00	 9.259259e+00	 1.000198e+01
0	 3.333333e+00	 9.333333e+00	 1.000164e+01
0	 3.333333e+00	 9.407407e+00	 1.000133e+01
0	 3.333333e+00	 9.481481e+00	 1.000105e+01
0	 3.333333e+00	 9.555556e+00	 1.000080e+01
0	 3.333333e+00	 9.629630e+00	 1.000057e+01
0	 2.962963e+00	 9.629630e+00	 9.999872e+00
0	 2.962963e+00	 9.703704e+00	 9.999922e+00
0	 2.962963e+00	 9.777778e+00	 9.999961e+00
0	 2.962963e+00	 9.851852e+00	 9.999988e+00
0	 2.962963e+00	 9.925926e+00	 9.999999e+00
0	 2.962963e+00	 1.000000e+01	 9.999993e+00
0	 3.037037e+00	 9.629630e+00	 1.000001e+01
0	 3.037037e+00	 9.703704e+00	 1.000001e+01
0	 3.037037e+00	 9.777778e+00	 1.000001e+01
0	 3.037037e+00	 9.851852e+00	 1.000001e+01
0	 3.037037e+00	 9.925926e+00	 9.999999e+00
0	 3.037037e+00	 1.000000e+01	 9.999984e+00
0	 3.111111e+00	 9.629630e+00	 1.000016e+01
0	 3.111111e+00	 9.703704e+00	 1.000010e+01
0	 3.111111e+00	 9.777778e+00	 1.000006e+01
0	 3.111111e+00	 9.851852e+00	 1.000003e+01
0	 3.111111e+00	 9.925926e+00	 1.000001e+01
0	 3.111111e+00	 1.000000e+01	 9.999986e+00
0	 3.185185e+00	 9.629630e+00	 1.000030e+01
0	 3.185185e+00	 9.703704e+00	 1.000020e+01
0	 3.185185e+00	 9.777778e+00	 1.000012e+01
0	 3.185185e+00	 9.851852e+00	 1.000006e+01
0	 3.185185e+00	 9.925926e+00	 1.000002e+01
0	 3.185185e+00	 1.000000e+01	 9.999990e+00
0	 3.259259e+00	 9.629630e+00	 1.000044e+01
0	 3.259259e+00	 9.703704e+00	 1.000029e+01
0	 3.259259e+00	 9.777778e+00	 1.000017e+01
0	 3.259259e+00	 9.851852e+00	 1.000009e+01
0	 3.259259e+00	 9.925926e+00	 1.000003e+01
0	 3.259259e+00	 1.000000e+01	 9.999993e+00
0	 3.333333e+00	 9.629630e+00	 1.000057e+01
0	 3.333333e+00	 9.703704e+00	 1.000037e+01
0	 3.333333e+00	 9.777778e+00	 1.000022e+01
0	 3.333333e+00	 9.851852e+00	 1.000011e+01
0	 3.333333e+00	 9.925926e+00	 1.000003e+01
0	 3.333333e+00	 1.000000e+01	 9.999986e+00
0	 3.333333e+00	 0.000000e+00	 1.074387e+01
0	 3.333333e+00	 7.407407e-02	 1.073073e+01
0	 3.333333e+00	 1.481481e-01	 1.072787e+01
0	 3.333333e+00	 2.222222e-01	 1.073417e+01
0	 3.333333e+00	 2.962963e-01	 1.074851e+01
0	 3.333333e+00	 3.703704e-01	 1.076976e+01
0	 3.407407e+00	 0.000000e+00	 1.072006e+01
0	 3.407407e+00	 7.407407e-02	 1.070995e+01
0	 3.407407e+00	 1.481481e-01	 1.070674e+01
0	 3.407407e+00	 2.222222e-01	 1.071093e+01
0	 3.407407e+00	 2.962963e-01	 1.072300e+01
0	 3.407407e+00	 3.703704e-01	 1.074346e+01
0	 3.481481e+00	 0.000000e+00	 1.069169e+01
0	 3.481481e+00	 7.407407e-02	 1.068739e+01
0	 3.481481e+00	 1.481481e-01	 1.068614e+01
0	 3.481481e+00	 2.222222e-01	 1.068943e+01
0	 3.481481e+00	 2.962963e-01	 1.069878e+01
0	 3.481481e+00	 3.703704e-01	 1.071569e+01
0	 3.555556e+00	 0.000000e+00	 1.066071e+01
0	 3.555556e+00	 7.407407e-02	 1.066289e+01
0	 3.555556e+00	 1.481481e-01	 1.066469e+01
0	 3.555556e+00	 2.222222e-01	 1.066801e+01
0	 3.555556e+00	 2.962963e-01	 1.067479e+01
0	 3.555556e+00	 3.703704e-01	 1.068692e+01
0	 3.629630e+00	 0.000000e+00	 1.062910e+01
0	 3.629630e+00	 7.407407e-02	 1.063627e+01
0	 3.629630e+00	 1.481481e-01	 1.064100e+01
0	 3.629630e+00	 2.222222e-01	 1.064499e+01
0	 3.629630e+00	 2.962963e-01	 1.064997e+01
0	 3.629630e+00	 3.703704e-01	 1.065766e+01
0	 3.703704e+00	 0.000000e+00	 1.059881e+01
0	 3.703704e+00	 7.407407e-02	 1.060737e+01
0	 3.703704e+00	 1.481481e-01	 1.061369e+01
0	 3.703704e+00	 2.222222e-01	 1.061868e+01
0	 3.703704e+00	 2.962963e-01	 1.062327e+01
0	 3.703704e+00	 3.703704e-01	 1.062838e+01
0	 3.333333e+00	 3.703704e-01	 1.076976e+01
0	 3.333333e+00	 4.444444e-01	 1.079200e+01
0	 3.333333e+00	 5.185185e-01	 1.081070e+01
0	 3.333333e+00	 5.925926e-01	 1.082682e+01
0	 3.333333e+00	 6.666667e-01	 1.084136e+01
0	 3.333333e+00	 7.407407e-01	 1.085528e+01
0	 3.407407e+00	 3.703704e-01	 1.074346e+01
0	 3.407407e+00	 4.444444e-01	 1.076636e+01
0	 3.407407e+00	 5.185185e-01	 1.078571e+01
0	 3.407407e+00	 5.925926e-01	 1.080195e+01
0	 3.407407e+00	 6.666667e-01	 1.081552e+01
0	 3.407407e+00	 7.407407e-01	 1.082685e+01
0	 3.481481e+00	 3.703704e-01	 1.071569e+01
0	 3.481481e+00	 4.444444e-01	 1.073574e+01
0	 3.481481e+00	 5.185185e-01	 1.075359e+01
0	 3.481481e+00	 5.925926e-01	 1.076930e+01
0	 3.481481e+00	 6.666667e-01	 1.078293e+01
0	 3.481481e+00	 7.407407e-01	 1.079456e+01
0	 3.555556e+00	 3.703704e-01	 1.068692e+01
0	 3.555556e+00	 4.444444e-01	 1.070228e+01
0	 3.555556e+00	 5.185185e-01	 1.071737e+01
0	 3.555556e+00	 5.925926e-01	 1.073206e+01
0	 3.555556e+00	 6.666667e-01	 1.074623e+01
0	 3.555556e+00	 7.407407e-01	 1.075976e+01
0	 3.629630e+00	 3.703704e-01	 1.065766e+01
0	 3.629630e+00	 4.444444e-01	 1.066809e+01
0	 3.629630e+00	 5.185185e-01	 1.068006e+01
0	 3.629630e+00	 5.925926e-01	 1.069342e+01
0	 3.629630e+00	 6.666667e-01	 1.070805e+01
0	 3.629630e+00	 7.407407e-01	 1.072379e+01
0	 3.703704e+00	 3.703704e-01	 1.062838e+01
0	 3.703704e+00	 4.444444e-01	 1.063529e+01
0	 3.703704e+00	 5.185185e-01	 1.064468e+01
0	 3.703704e+00	 5.925926e-01	 1.065658e+01
0	 3.703704e+00	 6.666667e-01	 1.067101e+01
0	 3.703704e+00	 7.407407e-01	 1.068798e+01
0	 3.333333e+00	 7.407407e-01	 1.085528e+01
0	 3.333333e+00	 8.148148e-01	 1.086931e+01
0	 3.333333e+00	 8.888889e-01	 1.088373e+01
0	 3.333333e+00	 9.629630e-01	 1.089892e+01
0	 3.333333e+00	 1.037037e+00	 1.091522e+01
0	 3.333333e+00	 1.111111e+00	 1.093301e+01
0	 3.407407e+00	 7.407407e-01	 1.082685e+01
0	 3.407407e+00	 8.148148e-01	 1.083761e+01
0	 3.407407e+00	 8.888889e-01	 1.084939e+01
0	 3.407407e+00	 9.629630e-01	 1.086250e+01
0	 3.407407e+00	 1.037037e+00	 1.087725e+01
0	 3.407407e+00	 1.111111e+00	 1.089395e+01
0	 3.481481e+00	 7.407407e-01	 1.079456e+01
0	 3.481481e+00	 8.148148e-01	 1.080551e+01
0	 3.481481e+00	 8.888889e-01	 1.081725e+01
0	 3.481481e+00	 9.629630e-01	 1.083004e+01
0	 3.481481e+00	 1.037037e+00	 1.084419e+01
0	 3.481481e+00	 1.111111e+00	 1.085996e+01
0	 3.555556e+00	 7.407407e-01	 1.075976e+01
0	 3.555556e+00	 8.148148e-01	 1.077288e+01
0	 3.555556e+00	 8.888889e-01	 1.078608e+01
0	 3.555556e+00	 9.629630e-01	 1.079962e+01
0	 3.555556e+00	 1.037037e+00	 1.081377e+01
0	 3.555556e+00	 1.111111e+00	 1.082880e+01
0	 3.629630e+00	 7.407407e-01	 1.072379e+01
0	 3.629630e+00	 8.148148e-01	 1.073959e+01
0	 3.629630e+00	 8.888889e-01	 1.075466e+01
0	 3.629630e+00	 9.629630e-01	 1.076928e+01
0	 3.629630e+00	 1.037037e+00	 1.078371e+01
0	 3.629630e+00	 1.111111e+00	 1.079825e+01
0	 3.703704e+00	 7.407407e-01	 1.068798e+01
0	 3.703704e+00	 8.148148e-01	 1.070550e+01
0	 3.703704e+00	 8.888889e-01	 1.072177e+01
0	 3.703704e+00	 9.629630e-01	 1.073708e+01
0	 3.703704e+00	 1.037037e+00	 1.075175e+01
0	 3.703704e+00	 1.111111e+00	 1.076606e+01
0	 3.333333e+00	 1.111111e+00	 1.093301e+01
0	 3.333333e+00	 1.185185e+00	 1.095052e+01
0	 3.333333e+00	 1.259259e+00	 1.096578e+01
0	 3.333333e+00	 1.333333e+00	 1.097880e+01
0	 3.333333e+00	 1.407407e+00	 1.098961e+01
0	 3.333333e+00	 1.481481e+00	 1.099824e+01
0	 3.407407e+00	 1.111111e+00	 1.089395e+01
0	 3.407407e+00	 1.185185e+00	 1.091040e+01
0	 3.407407e+00	 1.259259e+00	 1.092440e+01
0	 3.407407e+00	 1.333333e+00	 1.093633e+01
0	 3.407407e+00	 1.407407e+00	 1.094652e+01
0	 3.407407e+00	 1.481481e+00	 1.095534e+01
0	 3.481481e+00	 1.111111e+00	 1.085996e+01
0	 3.481481e+00	 1.185185e+00	 1.087519e+01
0	 3.481481e+00	 1.259259e+00	 1.088789e+01
0	 3.481481e+00	 1.333333e+00	 1.089862e+01
0	 3.481481e+00	 1.407407e+00	 1.090794e+01
0	 3.481481e+00	 1.481481e+00	 1.091640e+01
0	 3.555556e+00	 1.111111e+00	 1.082880e+01
0	 3.555556e+00	 1.185185e+00	 1.084290e+01
0	 3.555556e+00	 1.259259e+00	 1.085452e+01
0	 3.555556e+00	 1.333333e+00	 1.086427e+01
0	 3.555556e+00	 1.407407e+00	 1.087278e+01
0	 3.555556e+00	 1.481481e+00	 1.088070e+01
0	 3.629630e+00	 1.111111e+00	 1.079825e+01
0	 3.629630e+00	 1.185185e+00	 1.081157e+01
0	 3.629630e+00	 1.259259e+00	 1.082257e+01
0	 3.629630e+00	 1.333333e+00	 1.083184e+01
0	 3.629630e+00	 1.407407e+00	 1.083995e+01
0	 3.629630e+00	 1.481481e+00	 1.084747e+01
0	 3.703704e+00	 1.111111e+00	 1.076606e+01
0	 3.703704e+00	 1.185185e+00	 1.077918e+01
0	 3.703704e+00	 1.259259e+00	 1.079033e+01
0	 3.703704e+00	 1.333333e+00	 1.079992e+01
0	 3.703704e+00	 1.407407e+00	 1.080833e+01
0	 3.703704e+00	 1.481481e+00	 1.081598e+01
0	 3.333333e+00	 1.481481e+00	 1.099824e+01
0	 3.333333e+00	 1.555556e+00	 1.100385e+01
0	 3.333333e+00	 1.629630e+00	 1.100586e+01
0	 3.333333e+00	 1.703704e+00	 1.100467e+01
0	 3.333333e+00	 1.777778e+00	 1.100071e+01
0	 3.333333e+00	 1.851852e+00	 1.099438e+01
0	 3.407407e+00	 1.481481e+00	 1.095534e+01
0	 3.407407e+00	 1.555556e+00	 1.096211e+01
0	 3.407407e+00	 1.629630e+00	 1.096601e+01
0	 3.407407e+00	 1.703704e+00	 1.096714e+01
0	 3.407407e+00	 1.777778e+00	 1.096559e+01
0	 3.407407e+00	 1.851852e+00	 1.096146e+01
0	 3.481481e+00	 1.481481e+00	 1.091640e+01
0	 3.481481e+00	 1.555556e+00	 1.092354e+01
0	 3.481481e+00	 1.629630e+00	 1.092845e+01
0	 3.481481e+00	 1.703704e+00	 1.093102e+01
0	 3.481481e+00	 1.777778e+00	 1.093115e+01
0	 3.481481e+00	 1.851852e+00	 1.092874e+01
0	 3.555556e+00	 1.481481e+00	 1.088070e+01
0	 3.555556e+00	 1.555556e+00	 1.088772e+01
0	 3.555556e+00	 1.629630e+00	 1.089301e+01
0	 3.555556e+00	 1.703704e+00	 1.089636e+01
0	 3.555556e+00	 1.777778e+00	 1.089757e+01
0	 3.555556e+00	 1.851852e+00	 1.089644e+01
0	 3.629630e+00	 1.481481e+00	 1.084747e+01
0	 3.629630e+00	 1.555556e+00	 1.085424e+01
0	 3.629630e+00	 1.629630e+00	 1.085955e+01
0	 3.629630e+00	 1.703704e+00	 1.086320e+01
0	 3.629630e+00	 1.777778e+00	 1.086503e+01
0	 3.629630e+00	 1.851852e+00	 1.086482e+01
0	 3.703704e+00	 1.481481e+00	 1.081598e+01
0	 3.703704e+00	 1.555556e+00	 1.082268e+01
0	 3.703704e+00	 1.629630e+00	 1.082790e+01
0	 3.703704e+00	 1.703704e+00	 1.083159e+01
0	 3.703704e+00	 1.777778e+00	 1.083368e+01
0	 3.703704e+00	 1.851852e+00	 1.083411e+01
0	 3.333333e+00	 1.851852e+00	 1.099438e+01
0	 3.333333e+00	 1.925926e+00	 1.098620e+01
0	 3.333333e+00	 2.000000e+00	 1.097625e+01
0	 3.333333e+00	 2.074074e+00	 1.096429e+01
0	 3.333333e+00	 2.148148e+00	 1.095009e+01
0	 3.333333e+00	 2.222222e+00	 1.093343e+01
0	 3.407407e+00	 1.851852e+00	 1.096146e+01
0	 3.407407e+00	 1.925926e+00	 1.095511e+01
0	 3.407407e+00	 2.000000e+00	 1.094677e+01
0	 3.407407e+00	 2.074074e+00	 1.093636e+01
0	 3.407407e+00	 2.148148e+00	 1.092383e+01
0	 3.407407e+00	 2.222222e+00	 1.090910e+01
0	 3.481481e+00	 1.851852e+00	 1.092874e+01
0	 3.481481e+00	 1.925926e+00	 1.092397e+01
0	 3.481481e+00	 2.000000e+00	 1.091716e+01
0	 3.481481e+00	 2.074074e+00	 1.090834e+01
0	 3.481481e+00	 2.148148e+00	 1.089756e+01
0	 3.481481e+00	 2.222222e+00	 1.088485e+01
0	 3.555556e+00	 1.851852e+00	 1.089644e+01
0	 3.555556e+00	 1.925926e+00	 1.089305e+01
0	 3.555556e+00	 2.000000e+00	 1.088768e+01
0	 3.555556e+00	 2.074074e+00	 1.088043e+01
0	 3.555556e+00	 2.148148e+00	 1.087141e+01
0	 3.555556e+00	 2.222222e+00	 1.086072e+01
0	 3.629630e+00	 1.851852e+00	 1.086482e+01
0	 3.629630e+00	 1.925926e+00	 1.086260e+01
0	 3.629630e+00	 2.000000e+00	 1.085857e+01
0	 3.629630e+00	 2.074074e+00	 1.085285e+01
0	 3.629630e+00	 2.148148e+00	 1.084554e+01
0	 3.629630e+00	 2.222222e+00	 1.083676e+01
0	 3.703704e+00	 1.851852e+00	 1.083411e+01
0	 3.703704e+00	 1.925926e+00	 1.083288e+01
0	 3.703704e+00	 2.000000e+00	 1.083009e+01
0	 3.703704e+00	 2.074074e+00	 1.082580e+01
0	 3.703704e+00	 2.148148e+00	 1.082009e+01
0	 3.703704e+00	 2.222222e+00	 1.081304e+01
0	 3.333333e+00	 2.222222e+00	 1.093343e+01
0	 3.333333e+00	 2.296296e+00	 1.091510e+01
0	 3.333333e+00	 2.370370e+00	 1.089600e+01
0	 3.333333e+00	 2.444444e+00	 1.087607e+01
0	 3.333333e+00	 2.518519e+00	 1.085524e+01
0	 3.333333e+00	 2.592593e+00	 1.083347e+01
0	 3.407407e+00	 2.222222e+00	 1.090910e+01
0	 3.407407e+00	 2.296296e+00	 1.089293e+01
0	 3.407407e+00	 2.370370e+00	 1.087605e+01
0	 3.407407e+00	 2.444444e+00	 1.085836e+01
0	 3.407407e+00	 2.518519e+00	 1.083977e+01
0	 3.407407e+00	 2.592593e+00	 1.082017e+01
0	 3.481481e+00	 2.222222e+00	 1.088485e+01
0	 3.481481e+00	 2.296296e+00	 1.087084e+01
0	 3.481481e+00	 2.370370e+00	 1.085604e+01
0	 3.481481e+00	 2.444444e+00	 1.084035e+01
0	 3.481481e+00	 2.518519e+00	 1.082364e+01
0	 3.481481e+00	 2.592593e+00	 1.080578e+01
0	 3.555556e+00	 2.222222e+00	 1.086072e+01
0	 3.555556e+00	 2.296296e+00	 1.084879e+01
0	 3.555556e+00	 2.370370e+00	 1.083593e+01
0	 3.555556e+00	 2.444444e+00	 1.082201e+01
0	 3.555556e+00	 2.518519e+00	 1.080691e+01
0	 3.555556e+00	 2.592593e+00	 1.079049e+01
0	 3.629630e+00	 2.222222e+00	 1.083676e+01
0	 3.629630e+00	 2.296296e+00	 1.082677e+01
0	 3.629630e+00	 2.370370e+00	 1.081566e+01
0	 3.629630e+00	 2.444444e+00	 1.080332e+01
0	 3.629630e+00	 2.518519e+00	 1.078964e+01
0	 3.629630e+00	 2.592593e+00	 1.077450e+01
0	 3.703704e+00	 2.222222e+00	 1.081304e+01
0	 3.703704e+00	 2.296296e+00	 1.080474e+01
0	 3.703704e+00	 2.370370e+00	 1.079517e+01
0	 3.703704e+00	 2.444444e+00	 1.078425e+01
0	 3.703704e+00	 2.518519e+00	 1.077189e+01
0	 3.703704e+00	 2.592593e+00	 1.075802e+01
0	 3.333333e+00	 2.592593e+00	 1.083347e+01
0	 3.333333e+00	 2.666667e+00	 1.081103e+01
0	 3.333333e+00	 2.740741e+00	 1.078811e+01
0	 3.333333e+00	 2.814815e+00	 1.076456e+01
0	 3.333333e+00	 2.888889e+00	 1.074021e+01
0	 3.333333e+00	 2.962963e+00	 1.071491e+01
0	 3.407407e+00	 2.592593e+00	 1.082017e+01
0	 3.407407e+00	 2.666667e+00	 1.079975e+01
0	 3.407407e+00	 2.740741e+00	 1.077867e+01
0	 3.407407e+00	 2.814815e+00	 1.075680e+01
0	 3.407407e+00	 2.888889e+00	 1.073404e+01
0	 3.407407e+00	 2.962963e+00	 1.071027e+01
0	 3.481481e+00	 2.592593e+00	 1.080578e+01
0	 3.481481e+00	 2.666667e+00	 1.078699e+01
0	 3.481481e+00	 2.740741e+00	 1.076752e+01
0	 3.481481e+00	 2.814815e+00	 1.074728e+01
0	 3.481481e+00	 2.888889e+00	 1.072618e+01
0	 3.481481e+00	 2.962963e+00	 1.070415e+01
0	 3.555556e+00	 2.592593e+00	 1.079049e+01
0	 3.555556e+00	 2.666667e+00	 1.077309e+01
0	 3.555556e+00	 2.740741e+00	 1.075508e+01
0	 3.555556e+00	 2.814815e+00	 1.073640e+01
0	 3.555556e+00	 2.888889e+00	 1.071699e+01
0	 3.555556e+00	 2.962963e+00	 1.069678e+01
0	 3.629630e+00	 2.592593e+00	 1.077450e+01
0	 3.629630e+00	 2.666667e+00	 1.075837e+01
0	 3.629630e+00	 2.740741e+00	 1.074175e+01
0	 3.629630e+00	 2.814815e+00	 1.072459e+01
0	 3.629630e+00	 2.888889e+00	 1.070683e+01
0	 3.629630e+00	 2.962963e+00	 1.068841e+01
0	 3.703704e+00	 2.592593e+00	 1.075802e+01
0	 3.703704e+00	 2.666667e+00	 1.074318e+01
0	 3.703704e+00	 2.740741e+00	 1.072795e+01
0	 3.703704e+00	 2.814815e+00	 1.071226e+01
0	 3.703704e+00	 2.888889e+00	 1.069607e+01
0	 3.703704e+00	 2.962963e+00	 1.067930e+01
0	 3.333333e+00	 2.962963e+00	 1.071491e+01
0	 3.333333e+00	 3.037037e+00	 1.068935e+01
0	 3.333333e+00	 3.111111e+00	 1.066433e+01
0	 3.333333e+00	 3.185185e+00	 1.063977e+01
0	 3.333333e+00	 3.259259e+00	 1.061561e+01
0	 3.333333e+00	 3.333333e+00	 1.059179e+01
0	 3.407407e+00	 2.962963e+00	 1.071027e+01
0	 3.407407e+00	 3.037037e+00	 1.068626e+01
0	 3.407407e+00	 3.111111e+00	 1.066277e+01
0	 3.407407e+00	 3.185185e+00	 1.063971e+01
0	 3.407407e+00	 3.259259e+00	 1.061700e+01
0	 3.407407e+00	 3.333333e+00	 1.059453e+01
0	 3.481481e+00	 2.962963e+00	 1.070415e+01
0	 3.481481e+00	 3.037037e+00	 1.068186e+01
0	 3.481481e+00	 3.111111e+00	 1.065997e+01
0	 3.481481e+00	 3.185185e+00	 1.063837e+01
0	 3.481481e+00	 3.259259e+00	 1.061695e+01
0	 3.481481e+00	 3.333333e+00	 1.059559e+01
0	 3.555556e+00	 2.962963e+00	 1.069678e+01
0	 3.555556e+00	 3.037037e+00	 1.067629e+01
0	 3.555556e+00	 3.111111e+00	 1.065600e+01
0	 3.555556e+00	 3.185185e+00	 1.063579e+01
0	 3.555556e+00	 3.259259e+00	 1.061554e+01
0	 3.555556e+00	 3.333333e+00	 1.059514e+01
0	 3.629630e+00	 2.962963e+00	 1.068841e+01
0	 3.629630e+00	 3.037037e+00	 1.066967e+01
0	 3.629630e+00	 3.111111e+00	 1.065091e+01
0	 3.629630e+00	 3.185185e+00	 1.063200e+01
0	 3.629630e+00	 3.259259e+00	 1.061285e+01
0	 3.629630e+00	 3.333333e+00	 1.059334e+01
0	 3.703704e+00	 2.962963e+00	 1.067930e+01
0	 3.703704e+00	 3.037037e+00	 1.066213e+01
0	 3.703704e+00	 3.111111e+00	 1.064475e+01
0	 3.703704e+00	 3.185185e+00	 1.062705e+01
0	 3.703704e+00	 3.259259e+00	 1.060895e+01
0	 3.703704e+00	 3.333333e+00	 1.059036e+01
0	 3.333333e+00	 3.333333e+00	 1.059179e+01
0	 3.333333e+00	 3.407407e+00	 1.056835e+01
0	 3.333333e+00	 3.481481e+00	 1.054534e+01
0	 3.333333e+00	 3.555556e+00	 1.052265e+01
0	 3.333333e+00	 3.629630e+00	 1.050018e+01
0	 3.333333e+00	 3.703704e+00	 1.047786e+01
0	 3.407407e+00	 3.333333e+00	 1.059453e+01
0	 3.407407e+00	 3.407407e+00	 1.057229e+01
0	 3.407407e+00	 3.481481e+00	 1.055029e+01
0	 3.407407e+00	 3.555556e+00	 1.052846e+01
0	 3.407407e+00	 3.629630e+00	 1.050675e+01
0	 3.407407e+00	 3.703704e+00	 1.048509e+01
0	 3.481481e+00	 3.333333e+00	 1.059559e+01
0	 3.481481e+00	 3.407407e+00	 1.057433e+01
0	 3.481481e+00	 3.481481e+00	 1.055324e+01
0	 3.481481e+00	 3.555556e+00	 1.053229e+01
0	 3.481481e+00	 3.629630e+00	 1.051144e+01
0	 3.481481e+00	 3.703704e+00	 1.049065e+01
0	 3.555556e+00	 3.333333e+00	 1.059514e+01
0	 3.555556e+00	 3.407407e+00	 1.057473e+01
0	 3.555556e+00	 3.481481e+00	 1.055452e+01
0	 3.555556e+00	 3.555556e+00	 1.053446e+01
0	 3.555556e+00	 3.629630e+00	 1.051455e+01
0	 3.555556e+00	 3.703704e+00	 1.049475e+01
0	 3.629630e+00	 3.333333e+00	 1.059334e+01
0	 3.629630e+00	 3.407407e+00	 1.057376e+01
0	 3.629630e+00	 3.481481e+00	 1.055441e+01
0	 3.629630e+00	 3.555556e+00	 1.053529e+01
0	 3.629630e+00	 3.629630e+00	 1.051635e+01
0	 3.629630e+00	 3.703704e+00	 1.049757e+01
0	 3.703704e+00	 3.333333e+00	 1.059036e+01
0	 3.703704e+00	 3.407407e+00	 1.057166e+01
0	 3.703704e+00	 3.481481e+00	 1.055325e+01
0	 3.703704e+00	 3.555556e+00	 1.053508e+01
0	 3.703704e+00	 3.629630e+00	 1.051712e+01
0	 3.703704e+00	 3.703704e+00	 1.049933e+01
0	 3.333333e+00	 3.703704e+00	 1.047786e+01
0	 3.333333e+00	 3.777778e+00	 1.045598e+01
0	 3.333333e+00	 3.851852e+00	 1.043491e+01
0	 3.333333e+00	 3.925926e+00	 1.041463e+01
0	 3.333333e+00	 4.000000e+00	 1.039513e+01
0	 3.333333e+00	 4.074074e+00	 1.037639e+01
0	 3.407407e+00	 3.703704e+00	 1.048509e+01
0	 3.407407e+00	 3.777778e+00	 1.046386e+01
0	 3.407407e+00	 3.851852e+00	 1.044345e+01
0	 3.407407e+00	 3.925926e+00	 1.042381e+01
0	 3.407407e+00	 4.000000e+00	 1.040490e+01
0	 3.407407e+00	 4.074074e+00	 1.038667e+01
0	 3.481481e+00	 3.703704e+00	 1.049065e+01
0	 3.481481e+00	 3.777778e+00	 1.047027e+01
0	 3.481481e+00	 3.851852e+00	 1.045063e+01
0	 3.481481e+00	 3.925926e+00	 1.043166e+01
0	 3.481481e+00	 4.000000e+00	 1.041330e+01
0	 3.481481e+00	 4.074074e+00	 1.039549e+01
0	 3.555556e+00	 3.703704e+00	 1.049475e+01
0	 3.555556e+00	 3.777778e+00	 1.047532e+01
0	 3.555556e+00	 3.851852e+00	 1.045649e+01
0	 3.555556e+00	 3.925926e+00	 1.043820e+01
0	 3.555556e+00	 4.000000e+00	 1.042037e+01
0	 3.555556e+00	 4.074074e+00	 1.040293e+01
0	 3.629630e+00	 3.703704e+00	 1.049757e+01
0	 3.629630e+00	 3.777778e+00	 1.047911e+01
0	 3.629630e+00	 3.851852e+00	 1.046110e+01
0	 3.629630e+00	 3.925926e+00	 1.044347e+01
0	 3.629630e+00	 4.000000e+00	 1.042616e+01
0	 3.629630e+00	 4.074074e+00	 1.040910e+01
0	 3.703704e+00	 3.703704e+00	 1.049933e+01
0	 3.703704e+00	 3.777778e+00	 1.048177e+01
0	 3.703704e+00	 3.851852e+00	 1.046453e+01
0	 3.703704e+00	 3.925926e+00	 1.044753e+01
0	 3.703704e+00	 4.000000e+00	 1.043073e+01
0	 3.703704e+00	 4.074074e+00	 1.041408e+01
0	 3.333333e+00	 4.074074e+00	 1.037639e+01
0	 3.333333e+00	 4.148148e+00	 1.035833e+01
0	 3.333333e+00	 4.222222e+00	 1.034088e+01
0	 3.333333e+00	 4.296296e+00	 1.032398e+01
0	 3.333333e+00	 4.370370e+00	 1.030760e+01
0	 3.333333e+00	 4.444444e+00	 1.029171e+01
0	 3.407407e+00	 4.074074e+00	 1.038667e+01
0	 3.407407e+00	 4.148148e+00	 1.036901e+01
0	 3.407407e+00	 4.222222e+00	 1.035185e+01
0	 3.407407e+00	 4.296296e+00	 1.033516e+01
0	 3.407407e+00	 4.370370e+00	 1.031893e+01
0	 3.407407e+00	 4.444444e+00	 1.030315e+01
0	 3.481481e+00	 4.074074e+00	 1.039549e+01
0	 3.481481e+00	 4.148148e+00	 1.037815e+01
0	 3.481481e+00	 4.222222e+00	 1.036127e+01
0	 3.481481e+00	 4.296296e+00	 1.034484e+01
0	 3.481481e+00	 4.370370e+00	 1.032885e+01
0	 3.481481e+00	 4.444444e+00	 1.031330e+01
0	 3.555556e+00	 4.074074e+00	 1.040293e+01
0	 3.555556e+00	 4.148148e+00	 1.038589e+01
0	 3.555556e+00	 4.222222e+00	 1.036931e+01
0	 3.555556e+00	 4.296296e+00	 1.035318e+01
0	 3.555556e+00	 4.370370e+00	 1.033750e+01
0	 3.555556e+00	 4.444444e+00	 1.032228e+01
0	 3.629630e+00	 4.074074e+00	 1.040910e+01
0	 3.629630e+00	 4.148148e+00	 1.039238e+01
0	 3.629630e+00	 4.222222e+00	 1.037613e+01
0	 3.629630e+00	 4.296296e+00	 1.036035e+01
0	 3.629630e+00	 4.370370e+00	 1.034503e+01
0	 3.629630e+00	 4.444444e+00	 1.033018e+01
0	 3.703704e+00	 4.074074e+00	 1.041408e+01
0	 3.703704e+00	 4.148148e+00	 1.039773e+01
0	 3.703704e+00	 4.222222e+00	 1.038188e+01
0	 3.703704e+00	 4.296296e+00	 1.036651e+01
0	 3.703704e+00	 4.370370e+00	 1.035159e+01
0	 3.703704e+00	 4.444444e+00	 1.033713e+01
0	 3.333333e+00	 4.444444e+00	 1.029171e+01
0	 3.333333e+00	 4.518519e+00	 1.027639e+01
0	 3.333333e+00	 4.592593e+00	 1.026175e+01
0	 3.333333e+00	 4.666667e+00	 1.024778e+01
0	 3.333333e+00	 4.740741e+00	 1.023450e+01
0	 3.333333e+00	 4.814815e+00	 1.022189e+01
0	 3.407407e+00	 4.444444e+00	 1.030315e+01
0	 3.407407e+00	 4.518519e+00	 1.028792e+01
0	 3.407407e+00	 4.592593e+00	 1.027338e+01
0	 3.407407e+00	 4.666667e+00	 1.025950e+01
0	 3.407407e+00	 4.740741e+00	 1.024628e+01
0	 3.407407e+00	 4.814815e+00	 1.023369e+01
0	 3.481481e+00	 4.444444e+00	 1.031330e+01
0	 3.481481e+00	 4.518519e+00	 1.029830e+01
0	 3.481481e+00	 4.592593e+00	 1.028394e+01
0	 3.481481e+00	 4.666667e+00	 1.027020e+01
0	 3.481481e+00	 4.740741e+00	 1.025704e+01
0	 3.481481e+00	 4.814815e+00	 1.024446e+01
0	 3.555556e+00	 4.444444e+00	 1.032228e+01
0	 3.555556e+00	 4.518519e+00	 1.030758e+01
0	 3.555556e+00	 4.592593e+00	 1.029345e+01
0	 3.555556e+00	 4.666667e+00	 1.027987e+01
0	 3.555556e+00	 4.740741e+00	 1.026681e+01
0	 3.555556e+00	 4.814815e+00	 1.025423e+01
0	 3.629630e+00	 4.444444e+00	 1.033018e+01
0	 3.629630e+00	 4.518519e+00	 1.031582e+01
0	 3.629630e+00	 4.592593e+00	 1.030196e+01
0	 3.629630e+00	 4.666667e+00	 1.028856e+01
0	 3.629630e+00	 4.740741e+00	 1.027560e+01
0	 3.629630e+00	 4.814815e+00	 1.026305e+01
0	 3.703704e+00	 4.444444e+00	 1.033713e+01
0	 3.703704e+00	 4.518519e+00	 1.032310e+01
0	 3.703704e+00	 4.592593e+00	 1.030949e+01
0	 3.703704e+00	 4.666667e+00	 1.029627e+01
0	 3.703704e+00	 4.740741e+00	 1.028343e+01
0	 3.703704e+00	 4.814815e+00	 1.027095e+01
0	 3.333333e+00	 4.814815e+00	 1.022189e+01
0	 3.333333e+00	 4.888889e+00	 1.020989e+01
0	 3.333333e+00	 4.962963e+00	 1.019837e+01
0	 3.333333e+00	 5.037037e+00	 1.018734e+01
0	 3.333333e+00	 5.111111e+00	 1.017679e+01
0	 3.333333e+00	 5.185185e+00	 1.016671e+01
0	 3.407407e+00	 4.814815e+00	 1.023369e+01
0	 3.407407e+00	 4.888889e+00	 1.022165e+01
0	 3.407407e+00	 4.962963e+00	 1.021005e+01
0	 3.407407e+00	 5.037037e+00	 1.019890e+01
0	 3.407407e+00	 5.111111e+00	 1.018821e+01
0	 3.407407e+00	 5.185185e+00	 1.017796e+01
0	 3.481481e+00	 4.814815e+00	 1.024446e+01
0	 3.481481e+00	 4.888889e+00	 1.023237e+01
0	 3.481481e+00	 4.962963e+00	 1.022070e+01
0	 3.481481e+00	 5.037037e+00	 1.020948e+01
0	 3.481481e+00	 5.111111e+00	 1.019870e+01
0	 3.481481e+00	 5.185185e+00	 1.018838e+01
0	 3.555556e+00	 4.814815e+00	 1.025423e+01
0	 3.555556e+00	 4.888889e+00	 1.024211e+01
0	 3.555556e+00	 4.962963e+00	 1.023041e+01
0	 3.555556e+00	 5.037037e+00	 1.021915e+01
0	 3.555556e+00	 5.111111e+00	 1.020834e+01
0	 3.555556e+00	 5.185185e+00	 1.019798e+01
0	 3.629630e+00	 4.814815e+00	 1.026305e+01
0	 3.629630e+00	 4.888889e+00	 1.025092e+01
0	 3.629630e+00	 4.962963e+00	 1.023923e+01
0	 3.629630e+00	 5.037037e+00	 1.022798e+01
0	 3.629630e+00	 5.111111e+00	 1.021718e+01
0	 3.629630e+00	 5.185185e+00	 1.020683e+01
0	 3.703704e+00	 4.814815e+00	 1.027095e+01
0	 3.703704e+00	 4.888889e+00	 1.025886e+01
0	 3.703704e+00	 4.962963e+00	 1.024722e+01
0	 3.703704e+00	 5.037037e+00	 1.023603e+01
0	 3.703704e+00	 5.111111e+00	 1.022527e+01
0	 3.703704e+00	 5.185185e+00	 1.021496e+01
0	 3.333333e+00	 5.185185e+00	 1.016671e+01
0	 3.333333e+00	 5.259259e+00	 1.015708e+01
0	 3.333333e+00	 5.333333e+00	 1.014793e+01
0	 3.333333e+00	 5.407407e+00	 1.013924e+01
0	 3.333333e+00	 5.481481e+00	 1.013104e+01
0	 3.333333e+00	 5.555556e+00	 1.012331e+01
0	 3.407407e+00	 5.185185e+00	 1.017796e+01
0	 3.407407e+00	 5.259259e+00	 1.016818e+01
0	 3.407407e+00	 5.333333e+00	 1.015887e+01
0	 3.407407e+00	 5.407407e+00	 1.015003e+01
0	 3.407407e+00	 5.481481e+00	 1.014165e+01
0	 3.407407e+00	 5.555556e+00	 1.013373e+01
0	 3.481481e+00	 5.185185e+00	 1.018838e+01
0	 3.481481e+00	 5.259259e+00	 1.017851e+01
0	 3.481481e+00	 5.333333e+00	 1.016909e+01
0	 3.481481e+00	 5.407407e+00	 1.016012e+01
0	 3.481481e+00	 5.481481e+00	 1.015159e+01
0	 3.481481e+00	 5.555556e+00	 1.014349e+01
0	 3.555556e+00	 5.185185e+00	 1.019798e+01
0	 3.555556e+00	 5.259259e+00	 1.018807e+01
0	 3.555556e+00	 5.333333e+00	 1.017859e+01
0	 3.555556e+00	 5.407407e+00	 1.016952e+01
0	 3.555556e+00	 5.481481e+00	 1.016087e+01
0	 3.555556e+00	 5.555556e+00	 1.015261e+01
0	 3.629630e+00	 5.185185e+00	 1.020683e+01
0	 3.629630e+00	 5.259259e+00	 1.019691e+01
0	 3.629630e+00	 5.333333e+00	 1.018739e+01
0	 3.629630e+00	 5.407407e+00	 1.017825e+01
0	 3.629630e+00	 5.481481e+00	 1.016948e+01
0	 3.629630e+00	 5.555556e+00	 1.016109e+01
0	 3.703704e+00	 5.185185e+00	 1.021496e+01
0	 3.703704e+00	 5.259259e+00	 1.020504e+01
0	 3.703704e+00	 5.333333e+00	 1.019549e+01
0	 3.703704e+00	 5.407407e+00	 1.018629e+01
0	 3.703704e+00	 5.481481e+00	 1.017744e+01
0	 3.703704e+00	 5.555556e+00	 1.016894e+01
0	 3.333333e+00	 5.555556e+00	 1.012331e+01
0	 3.333333e+00	 5.629630e+00	 1.011600e+01
0	 3.333333e+00	 5.703704e+00	 1.010904e+01
0	 3.333333e+00	 5.777778e+00	 1.010241e+01
0	 3.333333e+00	 5.851852e+00	 1.009613e+01
0	 3.333333e+00	 5.925926e+00	 1.009020e+01
0	 3.407407e+00	 5.555556e+00	 1.013373e+01
0	 3.407407e+00	 5.629630e+00	 1.012621e+01
0	 3.407407e+00	 5.703704e+00	 1.011902e+01
0	 3.407407e+00	 5.777778e+00	 1.011216e+01
0	 3.407407e+00	 5.851852e+00	 1.010564e+01
0	 3.407407e+00	 5.925926e+00	 1.009946e+01
0	 3.481481e+00	 5.555556e+00	 1.014349e+01
0	 3.481481e+00	 5.629630e+00	 1.013578e+01
0	 3.481481e+00	 5.703704e+00	 1.012838e+01
0	 3.481481e+00	 5.777778e+00	 1.012131e+01
0	 3.481481e+00	 5.851852e+00	 1.011458e+01
0	 3.481481e+00	 5.925926e+00	 1.010820e+01
0	 3.555556e+00	 5.555556e+00	 1.015261e+01
0	 3.555556e+00	 5.629630e+00	 1.014471e+01
0	 3.555556e+00	 5.703704e+00	 1.013714e+01
0	 3.555556e+00	 5.777778e+00	 1.012990e+01
0	 3.555556e+00	 5.851852e+00	 1.012299e+01
0	 3.555556e+00	 5.925926e+00	 1.011644e+01
0	 3.629630e+00	 5.555556e+00	 1.016109e+01
0	 3.629630e+00	 5.629630e+00	 1.015304e+01
0	 3.629630e+00	 5.703704e+00	 1.014532e+01
0	 3.629630e+00	 5.777778e+00	 1.013793e+01
0	 3.629630e+00	 5.851852e+00	 1.013088e+01
0	 3.629630e+00	 5.925926e+00	 1.012417e+01
0	 3.703704e+00	 5.555556e+00	 1.016894e+01
0	 3.703704e+00	 5.629630e+00	 1.016077e+01
0	 3.703704e+00	 5.703704e+00	 1.015293e+01
0	 3.703704e+00	 5.777778e+00	 1.014543e+01
0	 3.703704e+00	 5.851852e+00	 1.013826e+01
0	 3.703704e+00	 5.925926e+00	 1.013143e+01
0	 3.333333e+00	 5.925926e+00	 1.009020e+01
0	 3.333333e+00	 6.000000e+00	 1.008458e+01
0	 3.333333e+00	 6.074074e+00	 1.007925e+01
0	 3.333333e+00	 6.148148e+00	 1.007422e+01
0	 3.333333e+00	 6.222222e+00	 1.006949e+01
0	 3.333333e+00	 6.296296e+00	 1.006507e+01
0	 3.407407e+00	 5.925926e+00	 1.009946e+01
0	 3.407407e+00	 6.000000e+00	 1.009360e+01
0	 3.407407e+00	 6.074074e+00	 1.008803e+01
0	 3.407407e+00	 6.148148e+00	 1.008276e+01
0	 3.407407e+00	 6.222222e+00	 1.007779e+01
0	 3.407407e+00	 6.296296e+00	 1.007313e+01
0	 3.481481e+00	 5.925926e+00	 1.010820e+01
0	 3.481481e+00	 6.000000e+00	 1.010214e+01
0	 3.481481e+00	 6.074074e+00	 1.009636e+01
0	 3.481481e+00	 6.148148e+00	 1.009088e+01
0	 3.481481e+00	 6.222222e+00	 1.008568e+01
0	 3.481481e+00	 6.296296e+00	 1.008079e+01
0	 3.555556e+00	 5.925926e+00	 1.011644e+01
0	 3.555556e+00	 6.000000e+00	 1.011019e+01
0	 3.555556e+00	 6.074074e+00	 1.010423e+01
0	 3.555556e+00	 6.148148e+00	 1.009856e+01
0	 3.555556e+00	 6.222222e+00	 1.009316e+01
0	 3.555556e+00	 6.296296e+00	 1.008805e+01
0	 3.629630e+00	 5.925926e+00	 1.012417e+01
0	 3.629630e+00	 6.000000e+00	 1.011778e+01
0	 3.629630e+00	 6.074074e+00	 1.011166e+01
0	 3.629630e+00	 6.148148e+00	 1.010580e+01
0	 3.629630e+00	 6.222222e+00	 1.010022e+01
0	 3.629630e+00	 6.296296e+00	 1.009492e+01
0	 3.703704e+00	 5.925926e+00	 1.013143e+01
0	 3.703704e+00	 6.000000e+00	 1.012489e+01
0	 3.703704e+00	 6.074074e+00	 1.011862e+01
0	 3.703704e+00	 6.148148e+00	 1.011261e+01
0	 3.703704e+00	 6.222222e+00	 1.010686e+01
0	 3.703704e+00	 6.296296e+00	 1.010138e+01
0	 3.333333e+00	 6.296296e+00	 1.006507e+01
0	 3.333333e+00	 6.370370e+00	 1.006091e+01
0	 3.333333e+00	 6.444444e+00	 1.005697e+01
0	 3.333333e+00	 6.518519e+00	 1.005324e+01
0	 3.333333e+00	 6.592593e+00	 1.004973e+01
0	 3.333333e+00	 6.666667e+00	 1.004644e+01
0	 3.407407e+00	 6.296296e+00	 1.007313e+01
0	 3.407407e+00	 6.370370e+00	 1.006872e+01
0	 3.407407e+00	 6.444444e+00	 1.006452e+01
0	 3.407407e+00	 6.518519e+00	 1.006054e+01
0	 3.407407e+00	 6.592593e+00	 1.005678e+01
0	 3.407407e+00	 6.666667e+00	 1.005325e+01
0	 3.481481e+00	 6.296296e+00	 1.008079e+01
0	 3.481481e+00	 6.370370e+00	 1.007614e+01
0	 3.481481e+00	 6.444444e+00	 1.007171e+01
0	 3.481481e+00	 6.518519e+00	 1.006750e+01
0	 3.481481e+00	 6.592593e+00	 1.006350e+01
0	 3.481481e+00	 6.666667e+00	 1.005974e+01
0	 3.555556e+00	 6.296296e+00	 1.008805e+01
0	 3.555556e+00	 6.370370e+00	 1.008319e+01
0	 3.555556e+00	 6.444444e+00	 1.007854e+01
0	 3.555556e+00	 6.518519e+00	 1.007411e+01
0	 3.555556e+00	 6.592593e+00	 1.006991e+01
0	 3.555556e+00	 6.666667e+00	 1.006594e+01
0	 3.629630e+00	 6.296296e+00	 1.009492e+01
0	 3.629630e+00	 6.370370e+00	 1.008985e+01
0	 3.629630e+00	 6.444444e+00	 1.008501e+01
0	 3.629630e+00	 6.518519e+00	 1.008038e+01
0	 3.629630e+00	 6.592593e+00	 1.007599e+01
0	 3.629630e+00	 6.666667e+00	 1.007183e+01
0	 3.703704e+00	 6.296296e+00	 1.010138e+01
0	 3.703704e+00	 6.370370e+00	 1.009614e+01
0	 3.703704e+00	 6.444444e+00	 1.009112e+01
0	 3.703704e+00	 6.518519e+00	 1.008632e+01
0	 3.703704e+00	 6.592593e+00	 1.008175e+01
0	 3.703704e+00	 6.666667e+00	 1.007741e+01
0	 3.333333e+00	 6.666667e+00	 1.004644e+01
0	 3.333333e+00	 6.740741e+00	 1.004336e+01
0	 3.333333e+00	 6.814815e+00	 1.004044e+01
0	 3.333333e+00	 6.888889e+00	 1.003769e+01
0	 3.333333e+00	 6.962963e+00	 1.003513e+01
0	 3.333333e+00	 7.037037e+00	 1.003274e+01
0	 3.407407e+00	 6.666667e+00	 1.005325e+01
0	 3.407407e+00	 6.740741e+00	 1.004991e+01
0	 3.407407e+00	 6.814815e+00	 1.004675e+01
0	 3.407407e+00	 6.888889e+00	 1.004377e+01
0	 3.407407e+00	 6.962963e+00	 1.004097e+01
0	 3.407407e+00	 7.037037e+00	 1.003835e+01
0	 3.481481e+00	 6.666667e+00	 1.005974e+01
0	 3.481481e+00	 6.740741e+00	 1.005619e+01
0	 3.481481e+00	 6.814815e+00	 1.005280e+01
0	 3.481481e+00	 6.888889e+00	 1.004959e+01
0	 3.481481e+00	 6.962963e+00	 1.004657e+01
0	 3.481481e+00	 7.037037e+00	 1.004372e+01
0	 3.555556e+00	 6.666667e+00	 1.006594e+01
0	 3.555556e+00	 6.740741e+00	 1.006217e+01
0	 3.555556e+00	 6.814815e+00	 1.005858e+01
0	 3.555556e+00	 6.888889e+00	 1.005516e+01
0	 3.555556e+00	 6.962963e+00	 1.005193e+01
0	 3.555556e+00	 7.037037e+00	 1.004887e+01
0	 3.629630e+00	 6.666667e+00	 1.007183e+01
0	 3.629630e+00	 6.740741e+00	 1.006787e+01
0	 3.629630e+00	 6.814815e+00	 1.006408e+01
0	 3.629630e+00	 6.888889e+00	 1.006047e+01
0	 3.629630e+00	 6.962963e+00	 1.005704e+01
0	 3.629630e+00	 7.037037e+00	 1.005378e+01
0	 3.703704e+00	 6.666667e+00	 1.007741e+01
0	 3.703704e+00	 6.740741e+00	 1.007327e+01
0	 3.703704e+00	 6.814815e+00	 1.006930e+01
0	 3.703704e+00	 6.888889e+00	 1.006551e+01
0	 3.703704e+00	 6.962963e+00	 1.006189e+01
0	 3.703704e+00	 7.037037e+00	 1.005845e+01
0	 3.333333e+00	 7.037037e+00	 1.003274e+01
0	 3.333333e+00	 7.111111e+00	 1.003051e+01
0	 3.333333e+00	 7.185185e+00	 1.002840e+01
0	 3.333333e+00	 7.259259e+00	 1.002641e+01
0	 3.333333e+00	 7.333333e+00	 1.002455e+01
0	 3.333333e+00	 7.407407e+00	 1.002283e+01
0	 3.407407e+00	 7.037037e+00	 1.003835e+01
0	 3.407407e+00	 7.111111e+00	 1.003588e+01
0	 3.407407e+00	 7.185185e+00	 1.003354e+01
0	 3.407407e+00	 7.259259e+00	 1.003132e+01
0	 3.407407e+00	 7.333333e+00	 1.002924e+01
0	 3.407407e+00	 7.407407e+00	 1.002729e+01
0	 3.481481e+00	 7.037037e+00	 1.004372e+01
0	 3.481481e+00	 7.111111e+00	 1.004104e+01
0	 3.481481e+00	 7.185185e+00	 1.003847e+01
0	 3.481481e+00	 7.259259e+00	 1.003604e+01
0	 3.481481e+00	 7.333333e+00	 1.003375e+01
0	 3.481481e+00	 7.407407e+00	 1.003160e+01
0	 3.555556e+00	 7.037037e+00	 1.004887e+01
0	 3.555556e+00	 7.111111e+00	 1.004597e+01
0	 3.555556e+00	 7.185185e+00	 1.004320e+01
0	 3.555556e+00	 7.259259e+00	 1.004057e+01
0	 3.555556e+00	 7.333333e+00	 1.003808e+01
0	 3.555556e+00	 7.407407e+00	 1.003573e+01
0	 3.629630e+00	 7.037037e+00	 1.005378e+01
0	 3.629630e+00	 7.111111e+00	 1.005069e+01
0	 3.629630e+00	 7.185185e+00	 1.004772e+01
0	 3.629630e+00	 7.259259e+00	 1.004490e+01
0	 3.629630e+00	 7.333333e+00	 1.004222e+01
0	 3.629630e+00	 7.407407e+00	 1.003968e+01
0	 3.703704e+00	 7.037037e+00	 1.005845e+01
0	 3.703704e+00	 7.111111e+00	 1.005517e+01
0	 3.703704e+00	 7.185185e+00	 1.005203e+01
0	 3.703704e+00	 7.259259e+00	 1.004902e+01
0	 3.703704e+00	 7.333333e+00	 1.004616e+01
0	 3.703704e+00	 7.407407e+00	 1.004345e+01
0	 3.333333e+00	 7.407407e+00	 1.002283e+01
0	 3.333333e+00	 7.481481e+00	 1.002121e+01
0	 3.333333e+00	 7.555556e+00	 1.001969e+01
0	 3.333333e+00	 7.629630e+00	 1.001825e+01
0	 3.333333e+00	 7.703704e+00	 1.001692e+01
0	 3.333333e+00	 7.777778e+00	 1.001568e+01
0	 3.407407e+00	 7.407407e+00	 1.002729e+01
0	 3.407407e+00	 7.481481e+00	 1.002546e+01
0	 3.407407e+00	 7.555556e+00	 1.002373e+01
0	 3.407407e+00	 7.629630e+00	 1.002209e+01
0	 3.407407e+00	 7.703704e+00	 1.002055e+01
0	 3.407407e+00	 7.777778e+00	 1.001911e+01
0	 3.481481e+00	 7.407407e+00	 1.003160e+01
0	 3.481481e+00	 7.481481e+00	 1.002956e+01
0	 3.481481e+00	 7.555556e+00	 1.002762e+01
0	 3.481481e+00	 7.629630e+00	 1.002579e+01
0	 3.481481e+00	 7.703704e+00	 1.002405e+01
0	 3.481481e+00	 7.777778e+00	 1.002243e+01
0	 3.555556e+00	 7.407407e+00	 1.003573e+01
0	 3.555556e+00	 7.481481e+00	 1.003350e+01
0	 3.555556e+00	 7.555556e+00	 1.003137e+01
0	 3.555556e+00	 7.629630e+00	 1.002934e+01
0	 3.555556e+00	 7.703704e+00	 1.002742e+01
0	 3.555556e+00	 7.777778e+00	 1.002561e+01
0	 3.629630e+00	 7.407407e+00	 1.003968e+01
0	 3.629630e+00	 7.481481e+00	 1.003727e+01
0	 3.629630e+00	 7.555556e+00	 1.003496e+01
0	 3.629630e+00	 7.629630e+00	 1.003275e+01
0	 3.629630e+00	 7.703704e+00	 1.003066e+01
0	 3.629630e+00	 7.777778e+00	 1.002867e+01
0	 3.703704e+00	 7.407407e+00	 1.004345e+01
0	 3.703704e+00	 7.481481e+00	 1.004086e+01
0	 3.703704e+00	 7.555556e+00	 1.003838e+01
0	 3.703704e+00	 7.629630e+00	 1.003601e+01
0	 3.703704e+00	 7.703704e+00	 1.003374e+01
0	 3.703704e+00	 7.777778e+00	 1.003159e+01
0	 3.333333e+00	 7.777778e+00	 1.001568e+01
0	 3.333333e+00	 7.851852e+00	 1.001453e+01
0	 3.333333e+00	 7.925926e+00	 1.001343e+01
0	 3.333333e+00	 8.000000e+00	 1.001240e+01
0	 3.333333e+00	 8.074074e+00	 1.001144e+01
0	 3.333333e+00	 8.148148e+00	 1.001055e+01
0	 3.407407e+00	 7.777778e+00	 1.001911e+01
0	 3.407407e+00	 7.851852e+00	 1.001776e+01
0	 3.407407e+00	 7.925926e+00	 1.001648e+01
0	 3.407407e+00	 8.000000e+00	 1.001526e+01
0	 3.407407e+00	 8.074074e+00	 1.001412e+01
0	 3.407407e+00	 8.148148e+00	 1.001304e+01
0	 3.481481e+00	 7.777778e+00	 1.002243e+01
0	 3.481481e+00	 7.851852e+00	 1.002089e+01
0	 3.481481e+00	 7.925926e+00	 1.001942e+01
0	 3.481481e+00	 8.000000e+00	 1.001802e+01
0	 3.481481e+00	 8.074074e+00	 1.001670e+01
0	 3.481481e+00	 8.148148e+00	 1.001546e+01
0	 3.555556e+00	 7.777778e+00	 1.002561e+01
0	 3.555556e+00	 7.851852e+00	 1.002389e+01
0	 3.555556e+00	 7.925926e+00	 1.002225e+01
0	 3.555556e+00	 8.000000e+00	 1.002068e+01
0	 3.555556e+00	 8.074074e+00	 1.001919e+01
0	 3.555556e+00	 8.148148e+00	 1.001779e+01
0	 3.629630e+00	 7.777778e+00	 1.002867e+01
0	 3.629630e+00	 7.851852e+00	 1.002678e+01
0	 3.629630e+00	 7.925926e+00	 1.002496e+01
0	 3.629630e+00	 8.000000e+00	 1.002323e+01
0	 3.629630e+00	 8.074074e+00	 1.002158e+01
0	 3.629630e+00	 8.148148e+00	 1.002002e+01
0	 3.703704e+00	 7.777778e+00	 1.003159e+01
0	 3.703704e+00	 7.851852e+00	 1.002953e+01
0	 3.703704e+00	 7.925926e+00	 1.002756e+01
0	 3.703704e+00	 8.000000e+00	 1.002567e+01
0	 3.703704e+00	 8.074074e+00	 1.002387e+01
0	 3.703704e+00	 8.148148e+00	 1.002216e+01
0	 3.333333e+00	 8.148148e+00	 1.001055e+01
0	 3.333333e+00	 8.222222e+00	 1.000971e+01
0	 3.333333e+00	 8.296296e+00	 1.000892e+01
0	 3.333333e+00	 8.370370e+00	 1.000817e+01
0	 3.333333e+00	 8.444444e+00	 1.000747e+01
0	 3.333333e+00	 8.518519e+00	 1.000681e+01
0	 3.407407e+00	 8.148148e+00	 1.001304e+01
0	 3.407407e+00	 8.222222e+00	 1.001203e+01
0	 3.407407e+00	 8.296296e+00	 1.001107e+01
0	 3.407407e+00	 8.370370e+00	 1.001016e+01
0	 3.407407e+00	 8.444444e+00	 1.000930e+01
0	 3.407407e+00	 8.518519e+00	 1.000849e+01
0	 3.481481e+00	 8.148148e+00	 1.001546e+01
0	 3.481481e+00	 8.222222e+00	 1.001428e+01
0	 3.481481e+00	 8.296296e+00	 1.001316e+01
0	 3.481481e+00	 8.370370e+00	 1.001209e+01
0	 3.481481e+00	 8.444444e+00	 1.001108e+01
0	 3.481481e+00	 8.518519e+00	 1.001012e+01
0	 3.555556e+00	 8.148148e+00	 1.001779e+01
0	 3.555556e+00	 8.222222e+00	 1.001645e+01
0	 3.555556e+00	 8.296296e+00	 1.001517e+01
0	 3.555556e+00	 8.370370e+00	 1.001395e+01
0	 3.555556e+00	 8.444444e+00	 1.001279e+01
0	 3.555556e+00	 8.518519e+00	 1.001169e+01
0	 3.629630e+00	 8.148148e+00	 1.002002e+01
0	 3.629630e+00	 8.222222e+00	 1.001853e+01
0	 3.629630e+00	 8.296296e+00	 1.001711e+01
0	 3.629630e+00	 8.370370e+00	 1.001574e+01
0	 3.629630e+00	 8.444444e+00	 1.001444e+01
0	 3.629630e+00	 8.518519e+00	 1.001321e+01
0	 3.703704e+00	 8.148148e+00	 1.002216e+01
0	 3.703704e+00	 8.222222e+00	 1.002052e+01
0	 3.703704e+00	 8.296296e+00	 1.001896e+01
0	 3.703704e+00	 8.370370e+00	 1.001745e+01
0	 3.703704e+00	 8.444444e+00	 1.001602e+01
0	 3.703704e+00	 8.518519e+00	 1.001465e+01
0	 3.333333e+00	 8.518519e+00	 1.000681e+01
0	 3.333333e+00	 8.592593e+00	 1.000619e+01
0	 3.333333e+00	 8.666667e+00	 1.000561e+01
0	 3.333333e+00	 8.740741e+00	 1.000506e+01
0	 3.333333e+00	 8.814815e+00	 1.000453e+01
0	 3.333333e+00	 8.888889e+00	 1.000404e+01
0	 3.407407e+00	 8.518519e+00	 1.000849e+01
0	 3.407407e+00	 8.592593e+00	 1.000773e+01
0	 3.407407e+00	 8.666667e+00	 1.000700e+01
0	 3.407407e+00	 8.740741e+00	 1.000631e+01
0	 3.407407e+00	 8.814815e+00	 1.000566e+01
0	 3.407407e+00	 8.888889e+00	 1.000504e+01
0	 3.481481e+00	 8.518519e+00	 1.001012e+01
0	 3.481481e+00	 8.592593e+00	 1.000921e+01
0	 3.481481e+00	 8.666667e+00	 1.000835e+01
0	 3.481481e+00	 8.740741e+00	 1.000753e+01
0	 3.481481e+00	 8.814815e+00	 1.000675e+01
0	 3.481481e+00	 8.888889e+00	 1.000601e+01
0	 3.555556e+00	 8.518519e+00	 1.001169e+01
0	 3.555556e+00	 8.592593e+00	 1.001065e+01
0	 3.555556e+00	 8.666667e+00	 1.000965e+01
0	 3.555556e+00	 8.740741e+00	 1.000870e+01
0	 3.555556e+00	 8.814815e+00	 1.000780e+01
0	 3.555556e+00	 8.888889e+00	 1.000695e+01
0	 3.629630e+00	 8.518519e+00	 1.001321e+01
0	 3.629630e+00	 8.592593e+00	 1.001203e+01
0	 3.629630e+00	 8.666667e+00	 1.001091e+01
0	 3.629630e+00	 8.740741e+00	 1.000983e+01
0	 3.629630e+00	 8.814815e+00	 1.000882e+01
0	 3.629630e+00	 8.888889e+00	 1.000785e+01
0	 3.703704e+00	 8.518519e+00	 1.001465e+01
0	 3.703704e+00	 8.592593e+00	 1.001335e+01
0	 3.703704e+00	 8.666667e+00	 1.001210e+01
0	 3.703704e+00	 8.740741e+00	 1.001092e+01
0	 3.703704e+00	 8.814815e+00	 1.000978e+01
0	 3.703704e+00	 8.888889e+00	 1.000871e+01
0	 3.333333e+00	 8.888889e+00	 1.000404e+01
0	 3.333333e+00	 8.962963e+00	 1.000358e+01
0	 3.333333e+00	 9.037037e+00	 1.000314e+01
0	 3.333333e+00	 9.111111e+00	 1.000273e+01
0	 3.333333e+00	 9.185185e+00	 1.000234e+01
0	 3.333333e+00	 9.259259e+00	 1.000198e+01
0	 3.407407e+00	 8.888889e+00	 1.000504e+01
0	 3.407407e+00	 8.962963e+00	 1.000446e+01
0	 3.407407e+00	 9.037037e+00	 1.000391e+01
0	 3.407407e+00	 9.111111e+00	 1.000339e+01
0	 3.407407e+00	 9.185185e+00	 1.000290e+01
0	 3.407407e+00	 9.259259e+00	 1.000245e+01
0	 3.481481e+00	 8.888889e+00	 1.000601e+01
0	 3.481481e+00	 8.962963e+00	 1.000531e+01
0	 3.481481e+00	 9.037037e+00	 1.000466e+01
0	 3.481481e+00	 9.111111e+00	 1.000404e+01
0	 3.481481e+00	 9.185185e+00	 1.000345e+01
0	 3.481481e+00	 9.259259e+00	 1.000291e+01
0	 3.555556e+00	 8.888889e+00	 1.000695e+01
0	 3.555556e+00	 8.962963e+00	 1.000614e+01
0	 3.555556e+00	 9.037037e+00	 1.000538e+01
0	 3.555556e+00	 9.111111e+00	 1.000466e+01
0	 3.555556e+00	 9.185185e+00	 1.000399e+01
0	 3.555556e+00	 9.259259e+00	 1.000335e+01
0	 3.629630e+00	 8.888889e+00	 1.000785e+01
0	 3.629630e+00	 8.962963e+00	 1.000693e+01
0	 3.629630e+00	 9.037037e+00	 1.000607e+01
0	 3.629630e+00	 9.111111e+00	 1.000526e+01
0	 3.629630e+00	 9.185185e+00	 1.000450e+01
0	 3.629630e+00	 9.259259e+00	 1.000378e+01
0	 3.703704e+00	 8.888889e+00	 1.000871e+01
0	 3.703704e+00	 8.962963e+00	 1.000769e+01
0	 3.703704e+00	 9.037037e+00	 1.000673e+01
0	 3.703704e+00	 9.111111e+00	 1.000583e+01
0	 3.703704e+00	 9.185185e+00	 1.000498e+01
0	 3.703704e+00	 9.259259e+00	 1.000418e+01
0	 3.333333e+00	 9.259259e+00	 1.000198e+01
0	 3.333333e+00	 9.333333e+00	 1.000164e+01
0	 3.333333e+00	 9.407407e+00	 1.000133e+01
0	 3.333333e+00	 9.481481e+00	 1.000105e+01
0	 3.333333e+00	 9.555556e+00	 1.000080e+01
0	 3.333333e+00	 9.629630e+00	 1.000057e+01
0	 3.407407e+00	 9.259259e+00	 1.000245e+01
0	 3.407407e+00	 9.333333e+00	 1.000202e+01
0	 3.407407e+00	 9.407407e+00	 1.000164e+01
0	 3.407407e+00	 9.481481e+00	 1.000129e+01
0	 3.407407e+00	 9.555556e+00	 1.000097e+01
0	 3.407407e+00	 9.629630e+00	 1.000069e+01
0	 3.481481e+00	 9.259259e+00	 1.000291e+01
0	 3.481481e+00	 9.333333e+00	 1.000240e+01
0	 3.481481e+00	 9.407407e+00	 1.000194e+01
0	 3.481481e+00	 9.481481e+00	 1.000153e+01
0	 3.481481e+00	 9.555556e+00	 1.000115e+01
0	 3.481481e+00	 9.629630e+00	 1.000081e+01
0	 3.555556e+00	 9.259259e+00	 1.000335e+01
0	 3.555556e+00	 9.333333e+00	 1.000276e+01
0	 3.555556e+00	 9.407407e+00	 1.000223e+01
0	 3.555556e+00	 9.481481e+00	 1.000175e+01
0	 3.555556e+00	 9.555556e+00	 1.000132e+01
0	 3.555556e+00	 9.629630e+00	 1.000093e+01
0	 3.629630e+00	 9.259259e+00	 1.000378e+01
0	 3.629630e+00	 9.333333e+00	 1.000311e+01
0	 3.629630e+00	 9.407407e+00	 1.000251e+01
0	 3.629630e+00	 9.481481e+00	 1.000197e+01
0	 3.629630e+00	 9.555556e+00	 1.000149e+01
0	 3.629630e+00	 9.629630e+00	 1.000105e+01
0	 3.703704e+00	 9.259259e+00	 1.000418e+01
0	 3.703704e+00	 9.333333e+00	 1.000345e+01
0	 3.703704e+00	 9.407407e+00	 1.000278e+01
0	 3.703704e+00	 9.481481e+00	 1.000218e+01
0	 3.703704e+00	 9.555556e+00	 1.000164e+01
0	 3.703704e+00	 9.629630e+00	 1.000115e+01
0	 3.333333e+00	 9.629630e+00	 1.000057e+01
0	 3.333333e+00	 9.703704e+00	 1.000037e+01
0	 3.333333e+00	 9.777778e+00	 1.000022e+01
0	 3.333333e+00	 9.851852e+00	 1.000011e+01
0	 3.333333e+00	 9.925926e+00	 1.000003e+01
0	 3.333333e+00	 1.000000e+01	 9.999986e+00
0	 3.407407e+00	 9.629630e+00	 1.000069e+01
0	 3.407407e+00	 9.703704e+00	 1.000044e+01
0	 3.407407e+00	 9.777778e+00	 1.000026e+01
0	 3.407407e+00	 9.851852e+00	 1.000012e+01
0	 3.407407e+00	 9.925926e+00	 1.000003e+01
0	 3.407407e+00	 1.000000e+01	 9.999978e+00
0	 3.481481e+00	 9.629630e+00	 1.000081e+01
0	 3.481481e+00	 9.703704e+00	 1.000052e+01
0	 3.481481e+00	 9.777778e+00	 1.000030e+01
0	 3.481481e+00	 9.851852e+00	 1.000015e+01
0	 3.481481e+00	 9.925926e+00	 1.000004e+01
0	 3.481481e+00	 1.000000e+01	 9.999979e+00
0	 3.555556e+00	 9.629630e+00	 1.000093e+01
0	 3.555556e+00	 9.703704e+00	 1.000060e+01
0	 3.555556e+00	 9.777778e+00	 1.000035e+01
0	 3.555556e+00	 9.851852e+00	 1.000017e+01
0	 3.555556e+00	 9.925926e+00	 1.000005e+01
0	 3.555556e+00	 1.000000e+01	 9.999983e+00
0	 3.629630e+00	 9.629630e+00	 1.000105e+01
0	 3.629630e+00	 9.703704e+00	 1.000068e+01
0	 3.629630e+00	 9.777778e+00	 1.000040e+01
0	 3.629630e+00	 9.851852e+00	 1.000019e+01
0	 3.629630e+00	 9.925926e+00	 1.000006e+01
0	 3.629630e+00	 1.000000e+01	 9.999985e+00
0	 3.703704e+00	 9.629630e+00	 1.000115e+01
0	 3.703704e+00	 9.703704e+00	 1.000075e+01
0	 3.703704e+00	 9.777778e+00	 1.000043e+01
0	 3.703704e+00	 9.851852e+00	 1.000021e+01
0	 3.703704e+00	 9.925926e+00	 1.000006e+01
0	 3.703704e+00	 1.000000e+01	 9.999980e+00
0	 3.703704e+00	 0.000000e+00	 1.059881e+01
0	 3.703704e+00	 7.407407e-02	 1.060737e+01
0	 3.703704e+00	 1.481481e-01	 1.061369e+01
0	 3.703704e+00	 2.222222e-01	 1.061868e+01
0	 3.703704e+00	 2.962963e-01	 1.062327e+01
0	 3.703704e+00	 3.703704e-01	 1.062838e+01
0	 3.777778e+00	 0.000000e+00	 1.057248e+01
0	 3.777778e+00	 7.407407e-02	 1.057901e+01
0	 3.777778e+00	 1.481481e-01	 1.058511e+01
0	 3.777778e+00	 2.222222e-01	 1.059077e+01
0	 3.777778e+00	 2.962963e-01	 1.059598e+01
0	 3.777778e+00	 3.703704e-01	 1.060073e+01
0	 3.851852e+00	 0.000000e+00	 1.055061e+01
0	 3.851852e+00	 7.407407e-02	 1.055397e+01
0	 3.851852e+00	 1.481481e-01	 1.055878e+01
0	 3.851852e+00	 2.222222e-01	 1.056444e+01
0	 3.851852e+00	 2.962963e-01	 1.057032e+01
0	 3.851852e+00	 3.703704e-01	 1.057584e+01
0	 3.925926e+00	 0.000000e+00	 1.053199e+01
0	 3.925926e+00	 7.407407e-02	 1.053205e+01
0	 3.925926e+00	 1.481481e-01	 1.053509e+01
0	 3.925926e+00	 2.222222e-01	 1.054024e+01
0	 3.925926e+00	 2.962963e-01	 1.054662e+01
0	 3.925926e+00	 3.703704e-01	 1.055337e+01
0	 4.000000e+00	 0.000000e+00	 1.051540e+01
0	 4.000000e+00	 7.407407e-02	 1.051304e+01
0	 4.000000e+00	 1.481481e-01	 1.051442e+01
0	 4.000000e+00	 2.222222e-01	 1.051874e+01
0	 4.000000e+00	 2.962963e-01	 1.052520e+01
0	 4.000000e+00	 3.703704e-01	 1.053300e+01
0	 4.074074e+00	 0.000000e+00	 1.049960e+01
0	 4.074074e+00	 7.407407e-02	 1.049672e+01
0	 4.074074e+00	 1.481481e-01	 1.049716e+01
0	 4.074074e+00	 2.222222e-01	 1.050051e+01
0	 4.074074e+00	 2.962963e-01	 1.050639e+01
0	 4.074074e+00	 3.703704e-01	 1.051441e+01
0	 3.703704e+00	 3.703704e-01	 1.062838e+01
0	 3.703704e+00	 4.444444e-01	 1.063529e+01
0	 3.703704e+00	 5.185185e-01	 1.064468e+01
0	 3.703704e+00	 5.925926e-01	 1.065658e+01
0	 3.703704e+00	 6.666667e-01	 1.067101e+01
0	 3.703704e+00	 7.407407e-01	 1.068798e+01
0	 3.777778e+00	 3.703704e-01	 1.060073e+01
0	 3.777778e+00	 4.444444e-01	 1.060638e+01
0	 3.777778e+00	 5.185185e-01	 1.061443e+01
0	 3.777778e+00	 5.925926e-01	 1.062512e+01
0	 3.777778e+00	 6.666667e-01	 1.063867e+01
0	 3.777778e+00	 7.407407e-01	 1.065531e+01
0	 3.851852e+00	 3.703704e-01	 1.057584e+01
0	 3.851852e+00	 4.444444e-01	 1.058176e+01
0	 3.851852e+00	 5.185185e-01	 1.058950e+01
0	 3.851852e+00	 5.925926e-01	 1.059943e+01
0	 3.851852e+00	 6.666667e-01	 1.061189e+01
0	 3.851852e+00	 7.407407e-01	 1.062725e+01
0	 3.925926e+00	 3.703704e-01	 1.055337e+01
0	 3.925926e+00	 4.444444e-01	 1.056039e+01
0	 3.925926e+00	 5.185185e-01	 1.056844e+01
0	 3.925926e+00	 5.925926e-01	 1.057793e+01
0	 3.925926e+00	 6.666667e-01	 1.058927e+01
0	 3.925926e+00	 7.407407e-01	 1.060286e+01
0	 4.000000e+00	 3.703704e-01	 1.053300e+01
0	 4.000000e+00	 4.444444e-01	 1.054124e+01
0	 4.000000e+00	 5.185185e-01	 1.054980e+01
0	 4.000000e+00	 5.925926e-01	 1.055905e+01
0	 4.000000e+00	 6.666667e-01	 1.056938e+01
0	 4.000000e+00	 7.407407e-01	 1.058118e+01
0	 4.074074e+00	 3.703704e-01	 1.051441e+01
0	 4.074074e+00	 4.444444e-01	 1.052327e+01
0	 4.074074e+00	 5.185185e-01	 1.053210e+01
0	 4.074074e+00	 5.925926e-01	 1.054119e+01
0	 4.074074e+00	 6.666667e-01	 1.055083e+01
0	 4.074074e+00	 7.407407e-01	 1.056128e+01
0	 3.703704e+00	 7.407407e-01	 1.068798e+01
0	 3.703704e+00	 8.148148e-01	 1.070550e+01
0	 3.703704e+00	 8.888889e-01	 1.072177e+01
0	 3.703704e+00	 9.629630e-01	 1.073708e+01
0	 3.703704e+00	 1.037037e+00	 1.075175e+01
0	 3.703704e+00	 1.111111e+00	 1.076606e+01
0	 3.777778e+00	 7.407407e-01	 1.065531e+01
0	 3.777778e+00	 8.148148e-01	 1.067280e+01
0	 3.777778e+00	 8.888889e-01	 1.068895e+01
0	 3.777778e+00	 9.629630e-01	 1.070410e+01
0	 3.777778e+00	 1.037037e+00	 1.071858e+01
0	 3.777778e+00	 1.111111e+00	 1.073270e+01
0	 3.851852e+00	 7.407407e-01	 1.062725e+01
0	 3.851852e+00	 8.148148e-01	 1.064350e+01
0	 3.851852e+00	 8.888889e-01	 1.065861e+01
0	 3.851852e+00	 9.629630e-01	 1.067293e+01
0	 3.851852e+00	 1.037037e+00	 1.068677e+01
0	 3.851852e+00	 1.111111e+00	 1.070048e+01
0	 3.925926e+00	 7.407407e-01	 1.060286e+01
0	 3.925926e+00	 8.148148e-01	 1.061721e+01
0	 3.925926e+00	 8.888889e-01	 1.063079e+01
0	 3.925926e+00	 9.629630e-01	 1.064390e+01
0	 3.925926e+00	 1.037037e+00	 1.065686e+01
0	 3.925926e+00	 1.111111e+00	 1.066999e+01
0	 4.000000e+00	 7.407407e-01	 1.058118e+01
0	 4.000000e+00	 8.148148e-01	 1.059355e+01
0	 4.000000e+00	 8.888889e-01	 1.060552e+01
0	 4.000000e+00	 9.629630e-01	 1.061736e+01
0	 4.000000e+00	 1.037037e+00	 1.062937e+01
0	 4.000000e+00	 1.111111e+00	 1.064182e+01
0	 4.074074e+00	 7.407407e-01	 1.056128e+01
0	 4.074074e+00	 8.148148e-01	 1.057211e+01
0	 4.074074e+00	 8.888889e-01	 1.058283e+01
0	 4.074074e+00	 9.629630e-01	 1.059366e+01
0	 4.074074e+00	 1.037037e+00	 1.060482e+01
0	 4.074074e+00	 1.111111e+00	 1.061655e+01
0	 3.703704e+00	 1.111111e+00	 1.076606e+01
0	 3.703704e+00	 1.185185e+00	 1.077918e+01
0	 3.703704e+00	 1.259259e+00	 1.079033e+01
0	 3.703704e+00	 1.333333e+00	 1.079992e+01
0	 3.703704e+00	 1.407407e+00	 1.080833e+01
0	 3.703704e+00	 1.481481e+00	 1.081598e+01
0	 3.777778e+00	 1.111111e+00	 1.073270e+01
0	 3.777778e+00	 1.185185e+00	 1.074591e+01
0	 3.777778e+00	 1.259259e+00	 1.075757e+01
0	 3.777778e+00	 1.333333e+00	 1.076788e+01
0	 3.777778e+00	 1.407407e+00	 1.077704e+01
0	 3.777778e+00	 1.481481e+00	 1.078524e+01
0	 3.851852e+00	 1.111111e+00	 1.070048e+01
0	 3.851852e+00	 1.185185e+00	 1.071361e+01
0	 3.851852e+00	 1.259259e+00	 1.072556e+01
0	 3.851852e+00	 1.333333e+00	 1.073639e+01
0	 3.851852e+00	 1.407407e+00	 1.074615e+01
0	 3.851852e+00	 1.481481e+00	 1.075492e+01
0	 3.925926e+00	 1.111111e+00	 1.066999e+01
0	 3.925926e+00	 1.185185e+00	 1.068285e+01
0	 3.925926e+00	 1.259259e+00	 1.069482e+01
0	 3.925926e+00	 1.333333e+00	 1.070589e+01
0	 3.925926e+00	 1.407407e+00	 1.071605e+01
0	 3.925926e+00	 1.481481e+00	 1.072529e+01
0	 4.000000e+00	 1.111111e+00	 1.064182e+01
0	 4.000000e+00	 1.185185e+00	 1.065422e+01
0	 4.000000e+00	 1.259259e+00	 1.066590e+01
0	 4.000000e+00	 1.333333e+00	 1.067687e+01
0	 4.000000e+00	 1.407407e+00	 1.068710e+01
0	 4.000000e+00	 1.481481e+00	 1.069659e+01
0	 4.074074e+00	 1.111111e+00	 1.061655e+01
0	 4.074074e+00	 1.185185e+00	 1.062828e+01
0	 4.074074e+00	 1.259259e+00	 1.063933e+01
0	 4.074074e+00	 1.333333e+00	 1.064978e+01
0	 4.074074e+00	 1.407407e+00	 1.065968e+01
0	 4.074074e+00	 1.481481e+00	 1.066909e+01
0	 3.703704e+00	 1.481481e+00	 1.081598e+01
0	 3.703704e+00	 1.555556e+00	 1.082268e+01
0	 3.703704e+00	 1.629630e+00	 1.082790e+01
0	 3.703704e+00	 1.703704e+00	 1.083159e+01
0	 3.703704e+00	 1.777778e+00	 1.083368e+01
0	 3.703704e+00	 1.851852e+00	 1.083411e+01
0	 3.777778e+00	 1.481481e+00	 1.078524e+01
0	 3.777778e+00	 1.555556e+00	 1.079219e+01
0	 3.777778e+00	 1.629630e+00	 1.079752e+01
0	 3.777778e+00	 1.703704e+00	 1.080132e+01
0	 3.777778e+00	 1.777778e+00	 1.080368e+01
0	 3.777778e+00	 1.851852e+00	 1.080469e+01
0	 3.851852e+00	 1.481481e+00	 1.075492e+01
0	 3.851852e+00	 1.555556e+00	 1.076230e+01
0	 3.851852e+00	 1.629630e+00	 1.076796e+01
0	 3.851852e+00	 1.703704e+00	 1.077212e+01
0	 3.851852e+00	 1.777778e+00	 1.077494e+01
0	 3.851852e+00	 1.851852e+00	 1.077663e+01
0	 3.925926e+00	 1.481481e+00	 1.072529e+01
0	 3.925926e+00	 1.555556e+00	 1.073313e+01
0	 3.925926e+00	 1.629630e+00	 1.073926e+01
0	 3.925926e+00	 1.703704e+00	 1.074392e+01
0	 3.925926e+00	 1.777778e+00	 1.074734e+01
0	 3.925926e+00	 1.851852e+00	 1.074976e+01
0	 4.000000e+00	 1.481481e+00	 1.069659e+01
0	 4.000000e+00	 1.555556e+00	 1.070483e+01
0	 4.000000e+00	 1.629630e+00	 1.071145e+01
0	 4.000000e+00	 1.703704e+00	 1.071667e+01
0	 4.000000e+00	 1.777778e+00	 1.072074e+01
0	 4.000000e+00	 1.851852e+00	 1.072389e+01
0	 4.074074e+00	 1.481481e+00	 1.066909e+01
0	 4.074074e+00	 1.555556e+00	 1.067752e+01
0	 4.074074e+00	 1.629630e+00	 1.068453e+01
0	 4.074074e+00	 1.703704e+00	 1.069030e+01
0	 4.074074e+00	 1.777778e+00	 1.069501e+01
0	 4.074074e+00	 1.851852e+00	 1.069883e+01
0	 3.703704e+00	 1.851852e+00	 1.083411e+01
0	 3.703704e+00	 1.925926e+00	 1.083288e+01
0	 3.703704e+00	 2.000000e+00	 1.083009e+01
0	 3.703704e+00	 2.074074e+00	 1.082580e+01
0	 3.703704e+00	 2.148148e+00	 1.082009e+01
0	 3.703704e+00	 2.222222e+00	 1.081304e+01
0	 3.777778e+00	 1.851852e+00	 1.080469e+01
0	 3.777778e+00	 1.925926e+00	 1.080436e+01
0	 3.777778e+00	 2.000000e+00	 1.080267e+01
0	 3.777778e+00	 2.074074e+00	 1.079963e+01
0	 3.777778e+00	 2.148148e+00	 1.079527e+01
0	 3.777778e+00	 2.222222e+00	 1.078961e+01
0	 3.851852e+00	 1.851852e+00	 1.077663e+01
0	 3.851852e+00	 1.925926e+00	 1.077718e+01
0	 3.851852e+00	 2.000000e+00	 1.077646e+01
0	 3.851852e+00	 2.074074e+00	 1.077445e+01
0	 3.851852e+00	 2.148148e+00	 1.077114e+01
0	 3.851852e+00	 2.222222e+00	 1.076653e+01
0	 3.925926e+00	 1.851852e+00	 1.074976e+01
0	 3.925926e+00	 1.925926e+00	 1.075114e+01
0	 3.925926e+00	 2.000000e+00	 1.075126e+01
0	 3.925926e+00	 2.074074e+00	 1.075009e+01
0	 3.925926e+00	 2.148148e+00	 1.074761e+01
0	 3.925926e+00	 2.222222e+00	 1.074379e+01
0	 4.000000e+00	 1.851852e+00	 1.072389e+01
0	 4.000000e+00	 1.925926e+00	 1.072602e+01
0	 4.000000e+00	 2.000000e+00	 1.072686e+01
0	 4.000000e+00	 2.074074e+00	 1.072639e+01
0	 4.000000e+00	 2.148148e+00	 1.072458e+01
0	 4.000000e+00	 2.222222e+00	 1.072141e+01
0	 4.074074e+00	 1.851852e+00	 1.069883e+01
0	 4.074074e+00	 1.925926e+00	 1.070161e+01
0	 4.074074e+00	 2.000000e+00	 1.070306e+01
0	 4.074074e+00	 2.074074e+00	 1.070317e+01
0	 4.074074e+00	 2.148148e+00	 1.070195e+01
0	 4.074074e+00	 2.222222e+00	 1.069939e+01
0	 3.703704e+00	 2.222222e+00	 1.081304e+01
0	 3.703704e+00	 2.296296e+00	 1.080474e+01
0	 3.703704e+00	 2.370370e+00	 1.079517e+01
0	 3.703704e+00	 2.444444e+00	 1.078425e+01
0	 3.703704e+00	 2.518519e+00	 1.077189e+01
0	 3.703704e+00	 2.592593e+00	 1.075802e+01
0	 3.777778e+00	 2.222222e+00	 1.078961e+01
0	 3.777778e+00	 2.296296e+00	 1.078267e+01
0	 3.777778e+00	 2.370370e+00	 1.077440e+01
0	 3.777778e+00	 2.444444e+00	 1.076477e+01
0	 3.777778e+00	 2.518519e+00	 1.075371e+01
0	 3.777778e+00	 2.592593e+00	 1.074117e+01
0	 3.851852e+00	 2.222222e+00	 1.076653e+01
0	 3.851852e+00	 2.296296e+00	 1.076062e+01
0	 3.851852e+00	 2.370370e+00	 1.075345e+01
0	 3.851852e+00	 2.444444e+00	 1.074499e+01
0	 3.851852e+00	 2.518519e+00	 1.073520e+01
0	 3.851852e+00	 2.592593e+00	 1.072406e+01
0	 3.925926e+00	 2.222222e+00	 1.074379e+01
0	 3.925926e+00	 2.296296e+00	 1.073871e+01
0	 3.925926e+00	 2.370370e+00	 1.073248e+01
0	 3.925926e+00	 2.444444e+00	 1.072509e+01
0	 3.925926e+00	 2.518519e+00	 1.071653e+01
0	 3.925926e+00	 2.592593e+00	 1.070678e+01
0	 4.000000e+00	 2.222222e+00	 1.072141e+01
0	 4.000000e+00	 2.296296e+00	 1.071704e+01
0	 4.000000e+00	 2.370370e+00	 1.071167e+01
0	 4.000000e+00	 2.444444e+00	 1.070528e+01
0	 4.000000e+00	 2.518519e+00	 1.069786e+01
0	 4.000000e+00	 2.592593e+00	 1.068942e+01
0	 4.074074e+00	 2.222222e+00	 1.069939e+01
0	 4.074074e+00	 2.296296e+00	 1.069573e+01
0	 4.074074e+00	 2.370370e+00	 1.069117e+01
0	 4.074074e+00	 2.444444e+00	 1.068572e+01
0	 4.074074e+00	 2.518519e+00	 1.067937e+01
0	 4.074074e+00	 2.592593e+00	 1.067210e+01
0	 3.703704e+00	 2.592593e+00	 1.075802e+01
0	 3.703704e+00	 2.666667e+00	 1.074318e+01
0	 3.703704e+00	 2.740741e+00	 1.072795e+01
0	 3.703704e+00	 2.814815e+00	 1.071226e+01
0	 3.703704e+00	 2.888889e+00	 1.069607e+01
0	 3.703704e+00	 2.962963e+00	 1.067930e+01
0	 3.777778e+00	 2.592593e+00	 1.074117e+01
0	 3.777778e+00	 2.666667e+00	 1.072773e+01
0	 3.777778e+00	 2.740741e+00	 1.071390e+01
0	 3.777778e+00	 2.814815e+00	 1.069963e+01
0	 3.777778e+00	 2.888889e+00	 1.068485e+01
0	 3.777778e+00	 2.962963e+00	 1.066948e+01
0	 3.851852e+00	 2.592593e+00	 1.072406e+01
0	 3.851852e+00	 2.666667e+00	 1.071205e+01
0	 3.851852e+00	 2.740741e+00	 1.069960e+01
0	 3.851852e+00	 2.814815e+00	 1.068665e+01
0	 3.851852e+00	 2.888889e+00	 1.067311e+01
0	 3.851852e+00	 2.962963e+00	 1.065891e+01
0	 3.925926e+00	 2.592593e+00	 1.070678e+01
0	 3.925926e+00	 2.666667e+00	 1.069618e+01
0	 3.925926e+00	 2.740741e+00	 1.068505e+01
0	 3.925926e+00	 2.814815e+00	 1.067331e+01
0	 3.925926e+00	 2.888889e+00	 1.066089e+01
0	 3.925926e+00	 2.962963e+00	 1.064771e+01
0	 4.000000e+00	 2.592593e+00	 1.068942e+01
0	 4.000000e+00	 2.666667e+00	 1.068016e+01
0	 4.000000e+00	 2.740741e+00	 1.067025e+01
0	 4.000000e+00	 2.814815e+00	 1.065963e+01
0	 4.000000e+00	 2.888889e+00	 1.064822e+01
0	 4.000000e+00	 2.962963e+00	 1.063597e+01
0	 4.074074e+00	 2.592593e+00	 1.067210e+01
0	 4.074074e+00	 2.666667e+00	 1.066403e+01
0	 4.074074e+00	 2.740741e+00	 1.065521e+01
0	 4.074074e+00	 2.814815e+00	 1.064560e+01
0	 4.074074e+00	 2.888889e+00	 1.063515e+01
0	 4.074074e+00	 2.962963e+00	 1.062381e+01
0	 3.703704e+00	 2.962963e+00	 1.067930e+01
0	 3.703704e+00	 3.037037e+00	 1.066213e+01
0	 3.703704e+00	 3.111111e+00	 1.064475e+01
0	 3.703704e+00	 3.185185e+00	 1.062705e+01
0	 3.703704e+00	 3.259259e+00	 1.060895e+01
0	 3.703704e+00	 3.333333e+00	 1.059036e+01
0	 3.777778e+00	 2.962963e+00	 1.066948e+01
0	 3.777778e+00	 3.037037e+00	 1.065364e+01
0	 3.777778e+00	 3.111111e+00	 1.063747e+01
0	 3.777778e+00	 3.185185e+00	 1.062090e+01
0	 3.777778e+00	 3.259259e+00	 1.060386e+01
0	 3.777778e+00	 3.333333e+00	 1.058629e+01
0	 3.851852e+00	 2.962963e+00	 1.065891e+01
0	 3.851852e+00	 3.037037e+00	 1.064419e+01
0	 3.851852e+00	 3.111111e+00	 1.062911e+01
0	 3.851852e+00	 3.185185e+00	 1.061361e+01
0	 3.851852e+00	 3.259259e+00	 1.059765e+01
0	 3.851852e+00	 3.333333e+00	 1.058118e+01
0	 3.925926e+00	 2.962963e+00	 1.064771e+01
0	 3.925926e+00	 3.037037e+00	 1.063397e+01
0	 3.925926e+00	 3.111111e+00	 1.061989e+01
0	 3.925926e+00	 3.185185e+00	 1.060543e+01
0	 3.925926e+00	 3.259259e+00	 1.059055e+01
0	 3.925926e+00	 3.333333e+00	 1.057521e+01
0	 4.000000e+00	 2.962963e+00	 1.063597e+01
0	 4.000000e+00	 3.037037e+00	 1.062314e+01
0	 4.000000e+00	 3.111111e+00	 1.061002e+01
0	 4.000000e+00	 3.185185e+00	 1.059657e+01
0	 4.000000e+00	 3.259259e+00	 1.058275e+01
0	 4.000000e+00	 3.333333e+00	 1.056852e+01
0	 4.074074e+00	 2.962963e+00	 1.062381e+01
0	 4.074074e+00	 3.037037e+00	 1.061189e+01
0	 4.074074e+00	 3.111111e+00	 1.059972e+01
0	 4.074074e+00	 3.185185e+00	 1.058725e+01
0	 4.074074e+00	 3.259259e+00	 1.057445e+01
0	 4.074074e+00	 3.333333e+00	 1.056127e+01
0	 3.703704e+00	 3.333333e+00	 1.059036e+01
0	 3.703704e+00	 3.407407e+00	 1.057166e+01
0	 3.703704e+00	 3.481481e+00	 1.055325e+01
0	 3.703704e+00	 3.555556e+00	 1.053508e+01
0	 3.703704e+00	 3.629630e+00	 1.051712e+01
0	 3.703704e+00	 3.703704e+00	 1.049933e+01
0	 3.777778e+00	 3.333333e+00	 1.058629e+01
0	 3.777778e+00	 3.407407e+00	 1.056859e+01
0	 3.777778e+00	 3.481481e+00	 1.055117e+01
0	 3.777778e+00	 3.555556e+00	 1.053397e+01
0	 3.777778e+00	 3.629630e+00	 1.051694e+01
0	 3.777778e+00	 3.703704e+00	 1.050002e+01
0	 3.851852e+00	 3.333333e+00	 1.058118e+01
0	 3.851852e+00	 3.407407e+00	 1.056457e+01
0	 3.851852e+00	 3.481481e+00	 1.054817e+01
0	 3.851852e+00	 3.555556e+00	 1.053192e+01
0	 3.851852e+00	 3.629630e+00	 1.051575e+01
0	 3.851852e+00	 3.703704e+00	 1.049960e+01
0	 3.925926e+00	 3.333333e+00	 1.057521e+01
0	 3.925926e+00	 3.407407e+00	 1.055971e+01
0	 3.925926e+00	 3.481481e+00	 1.054432e+01
0	 3.925926e+00	 3.555556e+00	 1.052899e+01
0	 3.925926e+00	 3.629630e+00	 1.051362e+01
0	 3.925926e+00	 3.703704e+00	 1.049817e+01
0	 4.000000e+00	 3.333333e+00	 1.056852e+01
0	 4.000000e+00	 3.407407e+00	 1.055411e+01
0	 4.000000e+00	 3.481481e+00	 1.053969e+01
0	 4.000000e+00	 3.555556e+00	 1.052522e+01
0	 4.000000e+00	 3.629630e+00	 1.051062e+01
0	 4.000000e+00	 3.703704e+00	 1.049583e+01
0	 4.074074e+00	 3.333333e+00	 1.056127e+01
0	 4.074074e+00	 3.407407e+00	 1.054786e+01
0	 4.074074e+00	 3.481481e+00	 1.053435e+01
0	 4.074074e+00	 3.555556e+00	 1.052069e+01
0	 4.074074e+00	 3.629630e+00	 1.050682e+01
0	 4.074074e+00	 3.703704e+00	 1.049270e+01
0	 3.703704e+00	 3.703704e+00	 1.049933e+01
0	 3.703704e+00	 3.777778e+00	 1.048177e+01
0	 3.703704e+00	 3.851852e+00	 1.046453e+01
0	 3.703704e+00	 3.925926e+00	 1.044753e+01
0	 3.703704e+00	 4.000000e+00	 1.043073e+01
0	 3.703704e+00	 4.074074e+00	 1.041408e+01
0	 3.777778e+00	 3.703704e+00	 1.050002e+01
0	 3.777778e+00	 3.777778e+00	 1.048326e+01
0	 3.777778e+00	 3.851852e+00	 1.046670e+01
0	 3.777778e+00	 3.925926e+00	 1.045031e+01
0	 3.777778e+00	 4.000000e+00	 1.043406e+01
0	 3.777778e+00	 4.074074e+00	 1.041790e+01
0	 3.851852e+00	 3.703704e+00	 1.049960e+01
0	 3.851852e+00	 3.777778e+00	 1.048353e+01
0	 3.851852e+00	 3.851852e+00	 1.046762e+01
0	 3.851852e+00	 3.925926e+00	 1.045184e+01
0	 3.851852e+00	 4.000000e+00	 1.043618e+01
0	 3.851852e+00	 4.074074e+00	 1.042061e+01
0	 3.925926e+00	 3.703704e+00	 1.049817e+01
0	 3.925926e+00	 3.777778e+00	 1.048273e+01
0	 3.925926e+00	 3.851852e+00	 1.046745e+01
0	 3.925926e+00	 3.925926e+00	 1.045230e+01
0	 3.925926e+00	 4.000000e+00	 1.043727e+01
0	 3.925926e+00	 4.074074e+00	 1.042233e+01
0	 4.000000e+00	 3.703704e+00	 1.049583e+01
0	 4.000000e+00	 3.777778e+00	 1.048102e+01
0	 4.000000e+00	 3.851852e+00	 1.046637e+01
0	 4.000000e+00	 3.925926e+00	 1.045185e+01
0	 4.000000e+00	 4.000000e+00	 1.043746e+01
0	 4.000000e+00	 4.074074e+00	 1.042317e+01
0	 4.074074e+00	 3.703704e+00	 1.049270e+01
0	 4.074074e+00	 3.777778e+00	 1.047853e+01
0	 4.074074e+00	 3.851852e+00	 1.046452e+01
0	 4.074074e+00	 3.925926e+00	 1.045066e+01
0	 4.074074e+00	 4.000000e+00	 1.043692e+01
0	 4.074074e+00	 4.074074e+00	 1.042326e+01
0	 3.703704e+00	 4.074074e+00	 1.041408e+01
0	 3.703704e+00	 4.148148e+00	 1.039773e+01
0	 3.703704e+00	 4.222222e+00	 1.038188e+01
0	 3.703704e+00	 4.296296e+00	 1.036651e+01
0	 3.703704e+00	 4.370370e+00	 1.035159e+01
0	 3.703704e+00	 4.444444e+00	 1.033713e+01
0	 3.777778e+00	 4.074074e+00	 1.041790e+01
0	 3.777778e+00	 4.148148e+00	 1.040203e+01
0	 3.777778e+00	 4.222222e+00	 1.038665e+01
0	 3.777778e+00	 4.296296e+00	 1.037172e+01
0	 3.777778e+00	 4.370370e+00	 1.035721e+01
0	 3.777778e+00	 4.444444e+00	 1.034310e+01
0	 3.851852e+00	 4.074074e+00	 1.042061e+01
0	 3.851852e+00	 4.148148e+00	 1.040530e+01
0	 3.851852e+00	 4.222222e+00	 1.039043e+01
0	 3.851852e+00	 4.296296e+00	 1.037596e+01
0	 3.851852e+00	 4.370370e+00	 1.036185e+01
0	 3.851852e+00	 4.444444e+00	 1.034807e+01
0	 3.925926e+00	 4.074074e+00	 1.042233e+01
0	 3.925926e+00	 4.148148e+00	 1.040763e+01
0	 3.925926e+00	 4.222222e+00	 1.039329e+01
0	 3.925926e+00	 4.296296e+00	 1.037929e+01
0	 3.925926e+00	 4.370370e+00	 1.036557e+01
0	 3.925926e+00	 4.444444e+00	 1.035210e+01
0	 4.000000e+00	 4.074074e+00	 1.042317e+01
0	 4.000000e+00	 4.148148e+00	 1.040908e+01
0	 4.000000e+00	 4.222222e+00	 1.039529e+01
0	 4.000000e+00	 4.296296e+00	 1.038174e+01
0	 4.000000e+00	 4.370370e+00	 1.036841e+01
0	 4.000000e+00	 4.444444e+00	 1.035526e+01
0	 4.074074e+00	 4.074074e+00	 1.042326e+01
0	 4.074074e+00	 4.148148e+00	 1.040976e+01
0	 4.074074e+00	 4.222222e+00	 1.039647e+01
0	 4.074074e+00	 4.296296e+00	 1.038338e+01
0	 4.074074e+00	 4.370370e+00	 1.037043e+01
0	 4.074074e+00	 4.444444e+00	 1.035761e+01
0	 3.703704e+00	 4.444444e+00	 1.033713e+01
0	 3.703704e+00	 4.518519e+00	 1.032310e+01
0	 3.703704e+00	 4.592593e+00	 1.030949e+01
0	 3.703704e+00	 4.666667e+00	 1.029627e+01
0	 3.703704e+00	 4.740741e+00	 1.028343e+01
0	 3.703704e+00	 4.814815e+00	 1.027095e+01
0	 3.777778e+00	 4.444444e+00	 1.034310e+01
0	 3.777778e+00	 4.518519e+00	 1.032937e+01
0	 3.777778e+00	 4.592593e+00	 1.031600e+01
0	 3.777778e+00	 4.666667e+00	 1.030298e+01
0	 3.777778e+00	 4.740741e+00	 1.029029e+01
0	 3.777778e+00	 4.814815e+00	 1.027794e+01
0	 3.851852e+00	 4.444444e+00	 1.034807e+01
0	 3.851852e+00	 4.518519e+00	 1.033461e+01
0	 3.851852e+00	 4.592593e+00	 1.032148e+01
0	 3.851852e+00	 4.666667e+00	 1.030868e+01
0	 3.851852e+00	 4.740741e+00	 1.029620e+01
0	 3.851852e+00	 4.814815e+00	 1.028403e+01
0	 3.925926e+00	 4.444444e+00	 1.035210e+01
0	 3.925926e+00	 4.518519e+00	 1.033890e+01
0	 3.925926e+00	 4.592593e+00	 1.032603e+01
0	 3.925926e+00	 4.666667e+00	 1.031348e+01
0	 3.925926e+00	 4.740741e+00	 1.030124e+01
0	 3.925926e+00	 4.814815e+00	 1.028930e+01
0	 4.000000e+00	 4.444444e+00	 1.035526e+01
0	 4.000000e+00	 4.518519e+00	 1.034234e+01
0	 4.000000e+00	 4.592593e+00	 1.032975e+01
0	 4.000000e+00	 4.666667e+00	 1.031747e+01
0	 4.000000e+00	 4.740741e+00	 1.030549e+01
0	 4.000000e+00	 4.814815e+00	 1.029381e+01
0	 4.074074e+00	 4.444444e+00	 1.035761e+01
0	 4.074074e+00	 4.518519e+00	 1.034501e+01
0	 4.074074e+00	 4.592593e+00	 1.033272e+01
0	 4.074074e+00	 4.666667e+00	 1.032073e+01
0	 4.074074e+00	 4.740741e+00	 1.030904e+01
0	 4.074074e+00	 4.814815e+00	 1.029763e+01
0	 3.703704e+00	 4.814815e+00	 1.027095e+01
0	 3.703704e+00	 4.888889e+00	 1.025886e+01
0	 3.703704e+00	 4.962963e+00	 1.024722e+01
0	 3.703704e+00	 5.037037e+00	 1.023603e+01
0	 3.703704e+00	 5.111111e+00	 1.022527e+01
0	 3.703704e+00	 5.185185e+00	 1.021496e+01
0	 3.777778e+00	 4.814815e+00	 1.027794e+01
0	 3.777778e+00	 4.888889e+00	 1.026596e+01
0	 3.777778e+00	 4.962963e+00	 1.025442e+01
0	 3.777778e+00	 5.037037e+00	 1.024332e+01
0	 3.777778e+00	 5.111111e+00	 1.023263e+01
0	 3.777778e+00	 5.185185e+00	 1.022235e+01
0	 3.851852e+00	 4.814815e+00	 1.028403e+01
0	 3.851852e+00	 4.888889e+00	 1.027223e+01
0	 3.851852e+00	 4.962963e+00	 1.026084e+01
0	 3.851852e+00	 5.037037e+00	 1.024985e+01
0	 3.851852e+00	 5.111111e+00	 1.023924e+01
0	 3.851852e+00	 5.185185e+00	 1.022901e+01
0	 3.925926e+00	 4.814815e+00	 1.028930e+01
0	 3.925926e+00	 4.888889e+00	 1.027771e+01
0	 3.925926e+00	 4.962963e+00	 1.026649e+01
0	 3.925926e+00	 5.037037e+00	 1.025564e+01
0	 3.925926e+00	 5.111111e+00	 1.024513e+01
0	 3.925926e+00	 5.185185e+00	 1.023495e+01
0	 4.000000e+00	 4.814815e+00	 1.029381e+01
0	 4.000000e+00	 4.888889e+00	 1.028245e+01
0	 4.000000e+00	 4.962963e+00	 1.027143e+01
0	 4.000000e+00	 5.037037e+00	 1.026072e+01
0	 4.000000e+00	 5.111111e+00	 1.025032e+01
0	 4.000000e+00	 5.185185e+00	 1.024021e+01
0	 4.074074e+00	 4.814815e+00	 1.029763e+01
0	 4.074074e+00	 4.888889e+00	 1.028650e+01
0	 4.074074e+00	 4.962963e+00	 1.027567e+01
0	 4.074074e+00	 5.037037e+00	 1.026513e+01
0	 4.074074e+00	 5.111111e+00	 1.025484e+01
0	 4.074074e+00	 5.185185e+00	 1.024482e+01
0	 3.703704e+00	 5.185185e+00	 1.021496e+01
0	 3.703704e+00	 5.259259e+00	 1.020504e+01
0	 3.703704e+00	 5.333333e+00	 1.019549e+01
0	 3.703704e+00	 5.407407e+00	 1.018629e+01
0	 3.703704e+00	 5.481481e+00	 1.017744e+01
0	 3.703704e+00	 5.555556e+00	 1.016894e+01
0	 3.777778e+00	 5.185185e+00	 1.022235e+01
0	 3.777778e+00	 5.259259e+00	 1.021245e+01
0	 3.777778e+00	 5.333333e+00	 1.020288e+01
0	 3.777778e+00	 5.407407e+00	 1.019364e+01
0	 3.777778e+00	 5.481481e+00	 1.018473e+01
0	 3.777778e+00	 5.555556e+00	 1.017616e+01
0	 3.851852e+00	 5.185185e+00	 1.022901e+01
0	 3.851852e+00	 5.259259e+00	 1.021911e+01
0	 3.851852e+00	 5.333333e+00	 1.020954e+01
0	 3.851852e+00	 5.407407e+00	 1.020029e+01
0	 3.851852e+00	 5.481481e+00	 1.019136e+01
0	 3.851852e+00	 5.555556e+00	 1.018275e+01
0	 3.925926e+00	 5.185185e+00	 1.023495e+01
0	 3.925926e+00	 5.259259e+00	 1.022508e+01
0	 3.925926e+00	 5.333333e+00	 1.021552e+01
0	 3.925926e+00	 5.407407e+00	 1.020629e+01
0	 3.925926e+00	 5.481481e+00	 1.019736e+01
0	 3.925926e+00	 5.555556e+00	 1.018875e+01
0	 4.000000e+00	 5.185185e+00	 1.024021e+01
0	 4.000000e+00	 5.259259e+00	 1.023038e+01
0	 4.000000e+00	 5.333333e+00	 1.022087e+01
0	 4.000000e+00	 5.407407e+00	 1.021167e+01
0	 4.000000e+00	 5.481481e+00	 1.020278e+01
0	 4.000000e+00	 5.555556e+00	 1.019419e+01
0	 4.074074e+00	 5.185185e+00	 1.024482e+01
0	 4.074074e+00	 5.259259e+00	 1.023507e+01
0	 4.074074e+00	 5.333333e+00	 1.022563e+01
0	 4.074074e+00	 5.407407e+00	 1.021649e+01
0	 4.074074e+00	 5.481481e+00	 1.020765e+01
0	 4.074074e+00	 5.555556e+00	 1.019910e+01
0	 3.703704e+00	 5.555556e+00	 1.016894e+01
0	 3.703704e+00	 5.629630e+00	 1.016077e+01
0	 3.703704e+00	 5.703704e+00	 1.015293e+01
0	 3.703704e+00	 5.777778e+00	 1.014543e+01
0	 3.703704e+00	 5.851852e+00	 1.013826e+01
0	 3.703704e+00	 5.925926e+00	 1.013143e+01
0	 3.777778e+00	 5.555556e+00	 1.017616e+01
0	 3.777778e+00	 5.629630e+00	 1.016791e+01
0	 3.777778e+00	 5.703704e+00	 1.015999e+01
0	 3.777778e+00	 5.777778e+00	 1.015240e+01
0	 3.777778e+00	 5.851852e+00	 1.014513e+01
0	 3.777778e+00	 5.925926e+00	 1.013818e+01
0	 3.851852e+00	 5.555556e+00	 1.018275e+01
0	 3.851852e+00	 5.629630e+00	 1.017446e+01
0	 3.851852e+00	 5.703704e+00	 1.016649e+01
0	 3.851852e+00	 5.777778e+00	 1.015883e+01
0	 3.851852e+00	 5.851852e+00	 1.015148e+01
0	 3.851852e+00	 5.925926e+00	 1.014444e+01
0	 3.925926e+00	 5.555556e+00	 1.018875e+01
0	 3.925926e+00	 5.629630e+00	 1.018045e+01
0	 3.925926e+00	 5.703704e+00	 1.017246e+01
0	 3.925926e+00	 5.777778e+00	 1.016475e+01
0	 3.925926e+00	 5.851852e+00	 1.015734e+01
0	 3.925926e+00	 5.925926e+00	 1.015021e+01
0	 4.000000e+00	 5.555556e+00	 1.019419e+01
0	 4.000000e+00	 5.629630e+00	 1.018590e+01
0	 4.000000e+00	 5.703704e+00	 1.017789e+01
0	 4.000000e+00	 5.777778e+00	 1.017016e+01
0	 4.000000e+00	 5.851852e+00	 1.016270e+01
0	 4.000000e+00	 5.925926e+00	 1.015551e+01
0	 4.074074e+00	 5.555556e+00	 1.019910e+01
0	 4.074074e+00	 5.629630e+00	 1.019083e+01
0	 4.074074e+00	 5.703704e+00	 1.018282e+01
0	 4.074074e+00	 5.777778e+00	 1.017508e+01
0	 4.074074e+00	 5.851852e+00	 1.016758e+01
0	 4.074074e+00	 5.925926e+00	 1.016034e+01
0	 3.703704e+00	 5.925926e+00	 1.013143e+01
0	 3.703704e+00	 6.000000e+00	 1.012489e+01
0	 3.703704e+00	 6.074074e+00	 1.011862e+01
0	 3.703704e+00	 6.148148e+00	 1.011261e+01
0	 3.703704e+00	 6.222222e+00	 1.010686e+01
0	 3.703704e+00	 6.296296e+00	 1.010138e+01
0	 3.777778e+00	 5.925926e+00	 1.013818e+01
0	 3.777778e+00	 6.000000e+00	 1.013153e+01
0	 3.777778e+00	 6.074074e+00	 1.012512e+01
0	 3.777778e+00	 6.148148e+00	 1.011897e+01
0	 3.777778e+00	 6.222222e+00	 1.011307e+01
0	 3.777778e+00	 6.296296e+00	 1.010744e+01
0	 3.851852e+00	 5.925926e+00	 1.014444e+01
0	 3.851852e+00	 6.000000e+00	 1.013767e+01
0	 3.851852e+00	 6.074074e+00	 1.013115e+01
0	 3.851852e+00	 6.148148e+00	 1.012488e+01
0	 3.851852e+00	 6.222222e+00	 1.011886e+01
0	 3.851852e+00	 6.296296e+00	 1.011309e+01
0	 3.925926e+00	 5.925926e+00	 1.015021e+01
0	 3.925926e+00	 6.000000e+00	 1.014335e+01
0	 3.925926e+00	 6.074074e+00	 1.013673e+01
0	 3.925926e+00	 6.148148e+00	 1.013035e+01
0	 3.925926e+00	 6.222222e+00	 1.012423e+01
0	 3.925926e+00	 6.296296e+00	 1.011836e+01
0	 4.000000e+00	 5.925926e+00	 1.015551e+01
0	 4.000000e+00	 6.000000e+00	 1.014857e+01
0	 4.000000e+00	 6.074074e+00	 1.014187e+01
0	 4.000000e+00	 6.148148e+00	 1.013541e+01
0	 4.000000e+00	 6.222222e+00	 1.012920e+01
0	 4.000000e+00	 6.296296e+00	 1.012324e+01
0	 4.074074e+00	 5.925926e+00	 1.016034e+01
0	 4.074074e+00	 6.000000e+00	 1.015335e+01
0	 4.074074e+00	 6.074074e+00	 1.014659e+01
0	 4.074074e+00	 6.148148e+00	 1.014007e+01
0	 4.074074e+00	 6.222222e+00	 1.013379e+01
0	 4.074074e+00	 6.296296e+00	 1.012775e+01
0	 3.703704e+00	 6.296296e+00	 1.010138e+01
0	 3.703704e+00	 6.370370e+00	 1.009614e+01
0	 3.703704e+00	 6.444444e+00	 1.009112e+01
0	 3.703704e+00	 6.518519e+00	 1.008632e+01
0	 3.703704e+00	 6.592593e+00	 1.008175e+01
0	 3.703704e+00	 6.666667e+00	 1.007741e+01
0	 3.777778e+00	 6.296296e+00	 1.010744e+01
0	 3.777778e+00	 6.370370e+00	 1.010204e+01
0	 3.777778e+00	 6.444444e+00	 1.009686e+01
0	 3.777778e+00	 6.518519e+00	 1.009191e+01
0	 3.777778e+00	 6.592593e+00	 1.008718e+01
0	 3.777778e+00	 6.666667e+00	 1.008268e+01
0	 3.851852e+00	 6.296296e+00	 1.011309e+01
0	 3.851852e+00	 6.370370e+00	 1.010756e+01
0	 3.851852e+00	 6.444444e+00	 1.010225e+01
0	 3.851852e+00	 6.518519e+00	 1.009716e+01
0	 3.851852e+00	 6.592593e+00	 1.009229e+01
0	 3.851852e+00	 6.666667e+00	 1.008763e+01
0	 3.925926e+00	 6.296296e+00	 1.011836e+01
0	 3.925926e+00	 6.370370e+00	 1.011272e+01
0	 3.925926e+00	 6.444444e+00	 1.010729e+01
0	 3.925926e+00	 6.518519e+00	 1.010207e+01
0	 3.925926e+00	 6.592593e+00	 1.009707e+01
0	 3.925926e+00	 6.666667e+00	 1.009228e+01
0	 4.000000e+00	 6.296296e+00	 1.012324e+01
0	 4.000000e+00	 6.370370e+00	 1.011751e+01
0	 4.000000e+00	 6.444444e+00	 1.011197e+01
0	 4.000000e+00	 6.518519e+00	 1.010665e+01
0	 4.000000e+00	 6.592593e+00	 1.010153e+01
0	 4.000000e+00	 6.666667e+00	 1.009661e+01
0	 4.074074e+00	 6.296296e+00	 1.012775e+01
0	 4.074074e+00	 6.370370e+00	 1.012194e+01
0	 4.074074e+00	 6.444444e+00	 1.011632e+01
0	 4.074074e+00	 6.518519e+00	 1.011089e+01
0	 4.074074e+00	 6.592593e+00	 1.010567e+01
0	 4.074074e+00	 6.666667e+00	 1.010065e+01
0	 3.703704e+00	 6.666667e+00	 1.007741e+01
0	 3.703704e+00	 6.740741e+00	 1.007327e+01
0	 3.703704e+00	 6.814815e+00	 1.006930e+01
0	 3.703704e+00	 6.888889e+00	 1.006551e+01
0	 3.703704e+00	 6.962963e+00	 1.006189e+01
0	 3.703704e+00	 7.037037e+00	 1.005845e+01
0	 3.777778e+00	 6.666667e+00	 1.008268e+01
0	 3.777778e+00	 6.740741e+00	 1.007837e+01
0	 3.777778e+00	 6.814815e+00	 1.007423e+01
0	 3.777778e+00	 6.888889e+00	 1.007027e+01
0	 3.777778e+00	 6.962963e+00	 1.006648e+01
0	 3.777778e+00	 7.037037e+00	 1.006287e+01
0	 3.851852e+00	 6.666667e+00	 1.008763e+01
0	 3.851852e+00	 6.740741e+00	 1.008317e+01
0	 3.851852e+00	 6.814815e+00	 1.007888e+01
0	 3.851852e+00	 6.888889e+00	 1.007476e+01
0	 3.851852e+00	 6.962963e+00	 1.007082e+01
0	 3.851852e+00	 7.037037e+00	 1.006705e+01
0	 3.925926e+00	 6.666667e+00	 1.009228e+01
0	 3.925926e+00	 6.740741e+00	 1.008768e+01
0	 3.925926e+00	 6.814815e+00	 1.008324e+01
0	 3.925926e+00	 6.888889e+00	 1.007898e+01
0	 3.925926e+00	 6.962963e+00	 1.007490e+01
0	 3.925926e+00	 7.037037e+00	 1.007099e+01
0	 4.000000e+00	 6.666667e+00	 1.009661e+01
0	 4.000000e+00	 6.740741e+00	 1.009189e+01
0	 4.000000e+00	 6.814815e+00	 1.008733e+01
0	 4.000000e+00	 6.888889e+00	 1.008294e+01
0	 4.000000e+00	 6.962963e+00	 1.007873e+01
0	 4.000000e+00	 7.037037e+00	 1.007469e+01
0	 4.074074e+00	 6.666667e+00	 1.010065e+01
0	 4.074074e+00	 6.740741e+00	 1.009580e+01
0	 4.074074e+00	 6.814815e+00	 1.009113e+01
0	 4.074074e+00	 6.888889e+00	 1.008663e+01
0	 4.074074e+00	 6.962963e+00	 1.008231e+01
0	 4.074074e+00	 7.037037e+00	 1.007815e+01
0	 3.703704e+00	 7.037037e+00	 1.005845e+01
0	 3.703704e+00	 7.111111e+00	 1.005517e+01
0	 3.703704e+00	 7.185185e+00	 1.005203e+01
0	 3.703704e+00	 7.259259e+00	 1.004902e+01
0	 3.703704e+00	 7.333333e+00	 1.004616e+01
0	 3.703704e+00	 7.407407e+00	 1.004345e+01
0	 3.777778e+00	 7.037037e+00	 1.006287e+01
0	 3.777778e+00	 7.111111e+00	 1.005942e+01
0	 3.777778e+00	 7.185185e+00	 1.005611e+01
0	 3.777778e+00	 7.259259e+00	 1.005294e+01
0	 3.777778e+00	 7.333333e+00	 1.004992e+01
0	 3.777778e+00	 7.407407e+00	 1.004704e+01
0	 3.851852e+00	 7.037037e+00	 1.006705e+01
0	 3.851852e+00	 7.111111e+00	 1.006345e+01
0	 3.851852e+00	 7.185185e+00	 1.005998e+01
0	 3.851852e+00	 7.259259e+00	 1.005666e+01
0	 3.851852e+00	 7.333333e+00	 1.005348e+01
0	 3.851852e+00	 7.407407e+00	 1.005044e+01
0	 3.925926e+00	 7.037037e+00	 1.007099e+01
0	 3.925926e+00	 7.111111e+00	 1.006724e+01
0	 3.925926e+00	 7.185185e+00	 1.006364e+01
0	 3.925926e+00	 7.259259e+00	 1.006017e+01
0	 3.925926e+00	 7.333333e+00	 1.005684e+01
0	 3.925926e+00	 7.407407e+00	 1.005366e+01
0	 4.000000e+00	 7.037037e+00	 1.007469e+01
0	 4.000000e+00	 7.111111e+00	 1.007081e+01
0	 4.000000e+00	 7.185185e+00	 1.006707e+01
0	 4.000000e+00	 7.259259e+00	 1.006347e+01
0	 4.000000e+00	 7.333333e+00	 1.006002e+01
0	 4.000000e+00	 7.407407e+00	 1.005670e+01
0	 4.074074e+00	 7.037037e+00	 1.007815e+01
0	 4.074074e+00	 7.111111e+00	 1.007415e+01
0	 4.074074e+00	 7.185185e+00	 1.007029e+01
0	 4.074074e+00	 7.259259e+00	 1.006657e+01
0	 4.074074e+00	 7.333333e+00	 1.006299e+01
0	 4.074074e+00	 7.407407e+00	 1.005955e+01
0	 3.703704e+00	 7.407407e+00	 1.004345e+01
0	 3.703704e+00	 7.481481e+00	 1.004086e+01
0	 3.703704e+00	 7.555556e+00	 1.003838e+01
0	 3.703704e+00	 7.629630e+00	 1.003601e+01
0	 3.703704e+00	 7.703704e+00	 1.003374e+01
0	 3.703704e+00	 7.777778e+00	 1.003159e+01
0	 3.777778e+00	 7.407407e+00	 1.004704e+01
0	 3.777778e+00	 7.481481e+00	 1.004429e+01
0	 3.777778e+00	 7.555556e+00	 1.004164e+01
0	 3.777778e+00	 7.629630e+00	 1.003911e+01
0	 3.777778e+00	 7.703704e+00	 1.003668e+01
0	 3.777778e+00	 7.777778e+00	 1.003437e+01
0	 3.851852e+00	 7.407407e+00	 1.005044e+01
0	 3.851852e+00	 7.481481e+00	 1.004754e+01
0	 3.851852e+00	 7.555556e+00	 1.004474e+01
0	 3.851852e+00	 7.629630e+00	 1.004205e+01
0	 3.851852e+00	 7.703704e+00	 1.003948e+01
0	 3.851852e+00	 7.777778e+00	 1.003702e+01
0	 3.925926e+00	 7.407407e+00	 1.005366e+01
0	 3.925926e+00	 7.481481e+00	 1.005061e+01
0	 3.925926e+00	 7.555556e+00	 1.004767e+01
0	 3.925926e+00	 7.629630e+00	 1.004484e+01
0	 3.925926e+00	 7.703704e+00	 1.004213e+01
0	 3.925926e+00	 7.777778e+00	 1.003954e+01
0	 4.000000e+00	 7.407407e+00	 1.005670e+01
0	 4.000000e+00	 7.481481e+00	 1.005351e+01
0	 4.000000e+00	 7.555556e+00	 1.005044e+01
0	 4.000000e+00	 7.629630e+00	 1.004748e+01
0	 4.000000e+00	 7.703704e+00	 1.004464e+01
0	 4.000000e+00	 7.777778e+00	 1.004191e+01
0	 4.074074e+00	 7.407407e+00	 1.005955e+01
0	 4.074074e+00	 7.481481e+00	 1.005624e+01
0	 4.074074e+00	 7.555556e+00	 1.005304e+01
0	 4.074074e+00	 7.629630e+00	 1.004996e+01
0	 4.074074e+00	 7.703704e+00	 1.004700e+01
0	 4.074074e+00	 7.777778e+00	 1.004415e+01
0	 3.703704e+00	 7.777778e+00	 1.003159e+01
0	 3.703704e+00	 7.851852e+00	 1.002953e+01
0	 3.703704e+00	 7.925926e+00	 1.002756e+01
0	 3.703704e+00	 8.000000e+00	 1.002567e+01
0	 3.703704e+00	 8.074074e+00	 1.002387e+01
0	 3.703704e+00	 8.148148e+00	 1.002216e+01
0	 3.777778e+00	 7.777778e+00	 1.003437e+01
0	 3.777778e+00	 7.851852e+00	 1.003216e+01
0	 3.777778e+00	 7.925926e+00	 1.003004e+01
0	 3.777778e+00	 8.000000e+00	 1.002801e+01
0	 3.777778e+00	 8.074074e+00	 1.002606e+01
0	 3.777778e+00	 8.148148e+00	 1.002420e+01
0	 3.851852e+00	 7.777778e+00	 1.003702e+01
0	 3.851852e+00	 7.851852e+00	 1.003467e+01
0	 3.851852e+00	 7.925926e+00	 1.003240e+01
0	 3.851852e+00	 8.000000e+00	 1.003023e+01
0	 3.851852e+00	 8.074074e+00	 1.002814e+01
0	 3.851852e+00	 8.148148e+00	 1.002615e+01
0	 3.925926e+00	 7.777778e+00	 1.003954e+01
0	 3.925926e+00	 7.851852e+00	 1.003704e+01
0	 3.925926e+00	 7.925926e+00	 1.003465e+01
0	 3.925926e+00	 8.000000e+00	 1.003234e+01
0	 3.925926e+00	 8.074074e+00	 1.003013e+01
0	 3.925926e+00	 8.148148e+00	 1.002801e+01
0	 4.000000e+00	 7.777778e+00	 1.004191e+01
0	 4.000000e+00	 7.851852e+00	 1.003929e+01
0	 4.000000e+00	 7.925926e+00	 1.003677e+01
0	 4.000000e+00	 8.000000e+00	 1.003434e+01
0	 4.000000e+00	 8.074074e+00	 1.003200e+01
0	 4.000000e+00	 8.148148e+00	 1.002976e+01
0	 4.074074e+00	 7.777778e+00	 1.004415e+01
0	 4.074074e+00	 7.851852e+00	 1.004141e+01
0	 4.074074e+00	 7.925926e+00	 1.003877e+01
0	 4.074074e+00	 8.000000e+00	 1.003622e+01
0	 4.074074e+00	 8.074074e+00	 1.003377e+01
0	 4.074074e+00	 8.148148e+00	 1.003141e+01
0	 3.703704e+00	 8.148148e+00	 1.002216e+01
0	 3.703704e+00	 8.222222e+00	 1.002052e+01
0	 3.703704e+00	 8.296296e+00	 1.001896e+01
0	 3.703704e+00	 8.370370e+00	 1.001745e+01
0	 3.703704e+00	 8.444444e+00	 1.001602e+01
0	 3.703704e+00	 8.518519e+00	 1.001465e+01
0	 3.777778e+00	 8.148148e+00	 1.002420e+01
0	 3.777778e+00	 8.222222e+00	 1.002243e+01
0	 3.777778e+00	 8.296296e+00	 1.002072e+01
0	 3.777778e+00	 8.370370e+00	 1.001909e+01
0	 3.777778e+00	 8.444444e+00	 1.001753e+01
0	 3.777778e+00	 8.518519e+00	 1.001603e+01
0	 3.851852e+00	 8.148148e+00	 1.002615e+01
0	 3.851852e+00	 8.222222e+00	 1.002424e+01
0	 3.851852e+00	 8.296296e+00	 1.002241e+01
0	 3.851852e+00	 8.370370e+00	 1.002065e+01
0	 3.851852e+00	 8.444444e+00	 1.001897e+01
0	 3.851852e+00	 8.518519e+00	 1.001735e+01
0	 3.925926e+00	 8.148148e+00	 1.002801e+01
0	 3.925926e+00	 8.222222e+00	 1.002597e+01
0	 3.925926e+00	 8.296296e+00	 1.002402e+01
0	 3.925926e+00	 8.370370e+00	 1.002214e+01
0	 3.925926e+00	 8.444444e+00	 1.002034e+01
0	 3.925926e+00	 8.518519e+00	 1.001861e+01
0	 4.000000e+00	 8.148148e+00	 1.002976e+01
0	 4.000000e+00	 8.222222e+00	 1.002761e+01
0	 4.000000e+00	 8.296296e+00	 1.002554e+01
0	 4.000000e+00	 8.370370e+00	 1.002355e+01
0	 4.000000e+00	 8.444444e+00	 1.002164e+01
0	 4.000000e+00	 8.518519e+00	 1.001980e+01
0	 4.074074e+00	 8.148148e+00	 1.003141e+01
0	 4.074074e+00	 8.222222e+00	 1.002915e+01
0	 4.074074e+00	 8.296296e+00	 1.002697e+01
0	 4.074074e+00	 8.370370e+00	 1.002487e+01
0	 4.074074e+00	 8.444444e+00	 1.002286e+01
0	 4.074074e+00	 8.518519e+00	 1.002093e+01
0	 3.703704e+00	 8.518519e+00	 1.001465e+01
0	 3.703704e+00	 8.592593e+00	 1.001335e+01
0	 3.703704e+00	 8.666667e+00	 1.001210e+01
0	 3.703704e+00	 8.740741e+00	 1.001092e+01
0	 3.703704e+00	 8.814815e+00	 1.000978e+01
0	 3.703704e+00	 8.888889e+00	 1.000871e+01
0	 3.777778e+00	 8.518519e+00	 1.001603e+01
0	 3.777778e+00	 8.592593e+00	 1.001461e+01
0	 3.777778e+00	 8.666667e+00	 1.001325e+01
0	 3.777778e+00	 8.740741e+00	 1.001195e+01
0	 3.777778e+00	 8.814815e+00	 1.001071e+01
0	 3.777778e+00	 8.888889e+00	 1.000953e+01
0	 3.851852e+00	 8.518519e+00	 1.001735e+01
0	 3.851852e+00	 8.592593e+00	 1.001581e+01
0	 3.851852e+00	 8.666667e+00	 1.001434e+01
0	 3.851852e+00	 8.740741e+00	 1.001294e+01
0	 3.851852e+00	 8.814815e+00	 1.001160e+01
0	 3.851852e+00	 8.888889e+00	 1.001032e+01
0	 3.925926e+00	 8.518519e+00	 1.001861e+01
0	 3.925926e+00	 8.592593e+00	 1.001696e+01
0	 3.925926e+00	 8.666667e+00	 1.001539e+01
0	 3.925926e+00	 8.740741e+00	 1.001388e+01
0	 3.925926e+00	 8.814815e+00	 1.001244e+01
0	 3.925926e+00	 8.888889e+00	 1.001107e+01
0	 4.000000e+00	 8.518519e+00	 1.001980e+01
0	 4.000000e+00	 8.592593e+00	 1.001805e+01
0	 4.000000e+00	 8.666667e+00	 1.001638e+01
0	 4.000000e+00	 8.740741e+00	 1.001477e+01
0	 4.000000e+00	 8.814815e+00	 1.001324e+01
0	 4.000000e+00	 8.888889e+00	 1.001179e+01
0	 4.074074e+00	 8.518519e+00	 1.002093e+01
0	 4.074074e+00	 8.592593e+00	 1.001908e+01
0	 4.074074e+00	 8.666667e+00	 1.001731e+01
0	 4.074074e+00	 8.740741e+00	 1.001562e+01
0	 4.074074e+00	 8.814815e+00	 1.001400e+01
0	 4.074074e+00	 8.888889e+00	 1.001246e+01
0	 3.703704e+00	 8.888889e+00	 1.000871e+01
0	 3.703704e+00	 8.962963e+00	 1.000769e+01
0	 3.703704e+00	 9.037037e+00	 1.000673e+01
0	 3.703704e+00	 9.111111e+00	 1.000583e+01
0	 3.703704e+00	 9.185185e+00	 1.000498e+01
0	 3.703704e+00	 9.259259e+00	 1.000418e+01
0	 3.777778e+00	 8.888889e+00	 1.000953e+01
0	 3.777778e+00	 8.962963e+00	 1.000842e+01
0	 3.777778e+00	 9.037037e+00	 1.000737e+01
0	 3.777778e+00	 9.111111e+00	 1.000638e+01
0	 3.777778e+00	 9.185185e+00	 1.000544e+01
0	 3.777778e+00	 9.259259e+00	 1.000457e+01
0	 3.851852e+00	 8.888889e+00	 1.001032e+01
0	 3.851852e+00	 8.962963e+00	 1.000911e+01
0	 3.851852e+00	 9.037037e+00	 1.000797e+01
0	 3.851852e+00	 9.111111e+00	 1.000690e+01
0	 3.851852e+00	 9.185185e+00	 1.000589e+01
0	 3.851852e+00	 9.259259e+00	 1.000494e+01
0	 3.925926e+00	 8.888889e+00	 1.001107e+01
0	 3.925926e+00	 8.962963e+00	 1.000977e+01
0	 3.925926e+00	 9.037037e+00	 1.000855e+01
0	 3.925926e+00	 9.111111e+00	 1.000740e+01
0	 3.925926e+00	 9.185185e+00	 1.000632e+01
0	 3.925926e+00	 9.259259e+00	 1.000530e+01
0	 4.000000e+00	 8.888889e+00	 1.001179e+01
0	 4.000000e+00	 8.962963e+00	 1.001040e+01
0	 4.000000e+00	 9.037037e+00	 1.000910e+01
0	 4.000000e+00	 9.111111e+00	 1.000787e+01
0	 4.000000e+00	 9.185185e+00	 1.000672e+01
0	 4.000000e+00	 9.259259e+00	 1.000564e+01
0	 4.074074e+00	 8.888889e+00	 1.001246e+01
0	 4.074074e+00	 8.962963e+00	 1.001099e+01
0	 4.074074e+00	 9.037037e+00	 1.000961e+01
0	 4.074074e+00	 9.111111e+00	 1.000832e+01
0	 4.074074e+00	 9.185185e+00	 1.000710e+01
0	 4.074074e+00	 9.259259e+00	 1.000595e+01
0	 3.703704e+00	 9.259259e+00	 1.000418e+01
0	 3.703704e+00	 9.333333e+00	 1.000345e+01
0	 3.703704e+00	 9.407407e+00	 1.000278e+01
0	 3.703704e+00	 9.481481e+00	 1.000218e+01
0	 3.703704e+00	 9.555556e+00	 1.000164e+01
0	 3.703704e+00	 9.629630e+00	 1.000115e+01
0	 3.777778e+00	 9.259259e+00	 1.000457e+01
0	 3.777778e+00	 9.333333e+00	 1.000376e+01
0	 3.777778e+00	 9.407407e+00	 1.000303e+01
0	 3.777778e+00	 9.481481e+00	 1.000237e+01
0	 3.777778e+00	 9.555556e+00	 1.000178e+01
0	 3.777778e+00	 9.629630e+00	 1.000125e+01
0	 3.851852e+00	 9.259259e+00	 1.000494e+01
0	 3.851852e+00	 9.333333e+00	 1.000407e+01
0	 3.851852e+00	 9.407407e+00	 1.000328e+01
0	 3.851852e+00	 9.481481e+00	 1.000256e+01
0	 3.851852e+00	 9.555556e+00	 1.000193e+01
0	 3.851852e+00	 9.629630e+00	 1.000135e+01
0	 3.925926e+00	 9.259259e+00	 1.000530e+01
0	 3.925926e+00	 9.333333e+00	 1.000436e+01
0	 3.925926e+00	 9.407407e+00	 1.000351e+01
0	 3.925926e+00	 9.481481e+00	 1.000275e+01
0	 3.925926e+00	 9.555556e+00	 1.000206e+01
0	 3.925926e+00	 9.629630e+00	 1.000145e+01
0	 4.000000e+00	 9.259259e+00	 1.000564e+01
0	 4.000000e+00	 9.333333e+00	 1.000463e+01
0	 4.000000e+00	 9.407407e+00	 1.000373e+01
0	 4.000000e+00	 9.481481e+00	 1.000292e+01
0	 4.000000e+00	 9.555556e+00	 1.000219e+01
0	 4.000000e+00	 9.629630e+00	 1.000154e+01
0	 4.074074e+00	 9.259259e+00	 1.000595e+01
0	 4.074074e+00	 9.333333e+00	 1.000489e+01
0	 4.074074e+00	 9.407407e+00	 1.000394e+01
0	 4.074074e+00	 9.481481e+00	 1.000308e+01
0	 4.074074e+00	 9.555556e+00	 1.000231e+01
0	 4.074074e+00	 9.629630e+00	 1.000162e+01
0	 3.703704e+00	 9.629630e+00	 1.000115e+01
0	 3.703704e+00	 9.703704e+00	 1.000075e+01
0	 3.703704e+00	 9.777778e+00	 1.000043e+01
0	 3.703704e+00	 9.851852e+00	 1.000021e+01
0	 3.703704e+00	 9.925926e+00	 1.000006e+01
0	 3.703704e+00	 1.000000e+01	 9.999980e+00
0	 3.777778e+00	 9.629630e+00	 1.000125e+01
0	 3.777778e+00	 9.703704e+00	 1.000081e+01
0	 3.777778e+00	 9.777778e+00	 1.000047e+01
0	 3.777778e+00	 9.851852e+00	 1.000022e+01
0	 3.777778e+00	 9.925926e+00	 1.000006e+01
0	 3.777778e+00	 1.000000e+01	 9.999974e+00
0	 3.851852e+00	 9.629630e+00	 1.000135e+01
0	 3.851852e+00	 9.703704e+00	 1.000087e+01
0	 3.851852e+00	 9.777778e+00	 1.000050e+01
0	 3.851852e+00	 9.851852e+00	 1.000024e+01
0	 3.851852e+00	 9.925926e+00	 1.000006e+01
0	 3.851852e+00	 1.000000e+01	 9.999975e+00
0	 3.925926e+00	 9.629630e+00	 1.000145e+01
0	 3.925926e+00	 9.703704e+00	 1.000094e+01
0	 3.925926e+00	 9.777778e+00	 1.000054e+01
0	 3.925926e+00	 9.851852e+00	 1.000026e+01
0	 3.925926e+00	 9.925926e+00	 1.000007e+01
0	 3.925926e+00	 1.000000e+01	 9.999978e+00
0	 4.000000e+00	 9.629630e+00	 1.000154e+01
0	 4.000000e+00	 9.703704e+00	 1.000100e+01
0	 4.000000e+00	 9.777778e+00	 1.000058e+01
0	 4.000000e+00	 9.851852e+00	 1.000027e+01
0	 4.000000e+00	 9.925926e+00	 1.000008e+01
0	 4.000000e+00	 1.000000e+01	 9.999980e+00
0	 4.074074e+00	 9.629630e+00	 1.000162e+01
0	 4.074074e+00	 9.703704e+00	 1.000105e+01
0	 4.074074e+00	 9.777778e+00	 1.000061e+01
0	 4.074074e+00	 9.851852e+00	 1.000029e+01
0	 4.074074e+00	 9.925926e+00	 1.000008e+01
0	 4.074074e+00	 1.000000e+01	 9.999976e+00
0	 4.074074e+00	 0.000000e+00	 1.049960e+01
0	 4.074074e+00	 7.407407e-02	 1.049672e+01
0	 4.074074e+00	 1.481481e-01	 1.049716e+01
0	 4.074074e+00	 2.222222e-01	 1.050051e+01
0	 4.074074e+00	 2.962963e-01	 1.050639e+01
0	 4.074074e+00	 3.703704e-01	 1.051441e+01
0	 4.148148e+00	 0.000000e+00	 1.048326e+01
0	 4.148148e+00	 7.407407e-02	 1.048151e+01
0	 4.148148e+00	 1.481481e-01	 1.048189e+01
0	 4.148148e+00	 2.222222e-01	 1.048451e+01
0	 4.148148e+00	 2.962963e-01	 1.048945e+01
0	 4.148148e+00	 3.703704e-01	 1.049683e+01
0	 4.222222e+00	 0.000000e+00	 1.046624e+01
0	 4.222222e+00	 7.407407e-02	 1.046601e+01
0	 4.222222e+00	 1.481481e-01	 1.046683e+01
0	 4.222222e+00	 2.222222e-01	 1.046911e+01
0	 4.222222e+00	 2.962963e-01	 1.047326e+01
0	 4.222222e+00	 3.703704e-01	 1.047969e+01
0	 4.296296e+00	 0.000000e+00	 1.044908e+01
0	 4.296296e+00	 7.407407e-02	 1.045032e+01
0	 4.296296e+00	 1.481481e-01	 1.045179e+01
0	 4.296296e+00	 2.222222e-01	 1.045403e+01
0	 4.296296e+00	 2.962963e-01	 1.045759e+01
0	 4.296296e+00	 3.703704e-01	 1.046300e+01
0	 4.370370e+00	 0.000000e+00	 1.043233e+01
0	 4.370370e+00	 7.407407e-02	 1.043454e+01
0	 4.370370e+00	 1.481481e-01	 1.043659e+01
0	 4.370370e+00	 2.222222e-01	 1.043897e+01
0	 4.370370e+00	 2.962963e-01	 1.044220e+01
0	 4.370370e+00	 3.703704e-01	 1.044678e+01
0	 4.444444e+00	 0.000000e+00	 1.041656e+01
0	 4.444444e+00	 7.407407e-02	 1.041878e+01
0	 4.444444e+00	 1.481481e-01	 1.042105e+01
0	 4.444444e+00	 2.222222e-01	 1.042365e+01
0	 4.444444e+00	 2.962963e-01	 1.042688e+01
0	 4.444444e+00	 3.703704e-01	 1.043101e+01
0	 4.074074e+00	 3.703704e-01	 1.051441e+01
0	 4.074074e+00	 4.444444e-01	 1.052327e+01
0	 4.074074e+00	 5.185185e-01	 1.053210e+01
0	 4.074074e+00	 5.925926e-01	 1.054119e+01
0	 4.074074e+00	 6.666667e-01	 1.055083e+01
0	 4.074074e+00	 7.407407e-01	 1.056128e+01
0	 4.148148e+00	 3.703704e-01	 1.049683e+01
0	 4.148148e+00	 4.444444e-01	 1.050542e+01
0	 4.148148e+00	 5.185185e-01	 1.051405e+01
0	 4.148148e+00	 5.925926e-01	 1.052288e+01
0	 4.148148e+00	 6.666667e-01	 1.053208e+01
0	 4.148148e+00	 7.407407e-01	 1.054179e+01
0	 4.222222e+00	 3.703704e-01	 1.047969e+01
0	 4.222222e+00	 4.444444e-01	 1.048750e+01
0	 4.222222e+00	 5.185185e-01	 1.049558e+01
0	 4.222222e+00	 5.925926e-01	 1.050400e+01
0	 4.222222e+00	 6.666667e-01	 1.051283e+01
0	 4.222222e+00	 7.407407e-01	 1.052215e+01
0	 4.296296e+00	 3.703704e-01	 1.046300e+01
0	 4.296296e+00	 4.444444e-01	 1.046980e+01
0	 4.296296e+00	 5.185185e-01	 1.047713e+01
0	 4.296296e+00	 5.925926e-01	 1.048503e+01
0	 4.296296e+00	 6.666667e-01	 1.049352e+01
0	 4.296296e+00	 7.407407e-01	 1.050264e+01
0	 4.370370e+00	 3.703704e-01	 1.044678e+01
0	 4.370370e+00	 4.444444e-01	 1.045257e+01
0	 4.370370e+00	 5.185185e-01	 1.045912e+01
0	 4.370370e+00	 5.925926e-01	 1.046645e+01
0	 4.370370e+00	 6.666667e-01	 1.047457e+01
0	 4.370370e+00	 7.407407e-01	 1.048351e+01
0	 4.444444e+00	 3.703704e-01	 1.043101e+01
0	 4.444444e+00	 4.444444e-01	 1.043609e+01
0	 4.444444e+00	 5.185185e-01	 1.044198e+01
0	 4.444444e+00	 5.925926e-01	 1.044874e+01
0	 4.444444e+00	 6.666667e-01	 1.045640e+01
0	 4.444444e+00	 7.407407e-01	 1.046503e+01
0	 4.074074e+00	 7.407407e-01	 1.056128e+01
0	 4.074074e+00	 8.148148e-01	 1.057211e+01
0	 4.074074e+00	 8.888889e-01	 1.058283e+01
0	 4.074074e+00	 9.629630e-01	 1.059366e+01
0	 4.074074e+00	 1.037037e+00	 1.060482e+01
0	 4.074074e+00	 1.111111e+00	 1.061655e+01
0	 4.148148e+00	 7.407407e-01	 1.054179e+01
0	 4.148148e+00	 8.148148e-01	 1.055178e+01
0	 4.148148e+00	 8.888889e-01	 1.056180e+01
0	 4.148148e+00	 9.629630e-01	 1.057202e+01
0	 4.148148e+00	 1.037037e+00	 1.058261e+01
0	 4.148148e+00	 1.111111e+00	 1.059373e+01
0	 4.222222e+00	 7.407407e-01	 1.052215e+01
0	 4.222222e+00	 8.148148e-01	 1.053174e+01
0	 4.222222e+00	 8.888889e-01	 1.054142e+01
0	 4.222222e+00	 9.629630e-01	 1.055131e+01
0	 4.222222e+00	 1.037037e+00	 1.056154e+01
0	 4.222222e+00	 1.111111e+00	 1.057223e+01
0	 4.296296e+00	 7.407407e-01	 1.050264e+01
0	 4.296296e+00	 8.148148e-01	 1.051208e+01
0	 4.296296e+00	 8.888889e-01	 1.052160e+01
0	 4.296296e+00	 9.629630e-01	 1.053130e+01
0	 4.296296e+00	 1.037037e+00	 1.054129e+01
0	 4.296296e+00	 1.111111e+00	 1.055166e+01
0	 4.370370e+00	 7.407407e-01	 1.048351e+01
0	 4.370370e+00	 8.148148e-01	 1.049285e+01
0	 4.370370e+00	 8.888889e-01	 1.050223e+01
0	 4.370370e+00	 9.629630e-01	 1.051176e+01
0	 4.370370e+00	 1.037037e+00	 1.052153e+01
0	 4.370370e+00	 1.111111e+00	 1.053163e+01
0	 4.444444e+00	 7.407407e-01	 1.046503e+01
0	 4.444444e+00	 8.148148e-01	 1.047412e+01
0	 4.444444e+00	 8.888889e-01	 1.048323e+01
0	 4.444444e+00	 9.629630e-01	 1.049247e+01
0	 4.444444e+00	 1.037037e+00	 1.050194e+01
0	 4.444444e+00	 1.111111e+00	 1.051175e+01
0	 4.074074e+00	 1.111111e+00	 1.061655e+01
0	 4.074074e+00	 1.185185e+00	 1.062828e+01
0	 4.074074e+00	 1.259259e+00	 1.063933e+01
0	 4.074074e+00	 1.333333e+00	 1.064978e+01
0	 4.074074e+00	 1.407407e+00	 1.065968e+01
0	 4.074074e+00	 1.481481e+00	 1.066909e+01
0	 4.148148e+00	 1.111111e+00	 1.059373e+01
0	 4.148148e+00	 1.185185e+00	 1.060477e+01
0	 4.148148e+00	 1.259259e+00	 1.061510e+01
0	 4.148148e+00	 1.333333e+00	 1.062486e+01
0	 4.148148e+00	 1.407407e+00	 1.063422e+01
0	 4.148148e+00	 1.481481e+00	 1.064332e+01
0	 4.222222e+00	 1.111111e+00	 1.057223e+01
0	 4.222222e+00	 1.185185e+00	 1.058276e+01
0	 4.222222e+00	 1.259259e+00	 1.059253e+01
0	 4.222222e+00	 1.333333e+00	 1.060175e+01
0	 4.222222e+00	 1.407407e+00	 1.061064e+01
0	 4.222222e+00	 1.481481e+00	 1.061938e+01
0	 4.296296e+00	 1.111111e+00	 1.055166e+01
0	 4.296296e+00	 1.185185e+00	 1.056181e+01
0	 4.296296e+00	 1.259259e+00	 1.057118e+01
0	 4.296296e+00	 1.333333e+00	 1.058000e+01
0	 4.296296e+00	 1.407407e+00	 1.058851e+01
0	 4.296296e+00	 1.481481e+00	 1.059692e+01
0	 4.370370e+00	 1.111111e+00	 1.053163e+01
0	 4.370370e+00	 1.185185e+00	 1.054149e+01
0	 4.370370e+00	 1.259259e+00	 1.055060e+01
0	 4.370370e+00	 1.333333e+00	 1.055917e+01
0	 4.370370e+00	 1.407407e+00	 1.056742e+01
0	 4.370370e+00	 1.481481e+00	 1.057557e+01
0	 4.444444e+00	 1.111111e+00	 1.051175e+01
0	 4.444444e+00	 1.185185e+00	 1.052137e+01
0	 4.444444e+00	 1.259259e+00	 1.053034e+01
0	 4.444444e+00	 1.333333e+00	 1.053881e+01
0	 4.444444e+00	 1.407407e+00	 1.054696e+01
0	 4.444444e+00	 1.481481e+00	 1.055495e+01
0	 4.074074e+00	 1.481481e+00	 1.066909e+01
0	 4.074074e+00	 1.555556e+00	 1.067752e+01
0	 4.074074e+00	 1.629630e+00	 1.068453e+01
0	 4.074074e+00	 1.703704e+00	 1.069030e+01
0	 4.074074e+00	 1.777778e+00	 1.069501e+01
0	 4.074074e+00	 1.851852e+00	 1.069883e+01
0	 4.148148e+00	 1.481481e+00	 1.064332e+01
0	 4.148148e+00	 1.555556e+00	 1.065171e+01
0	 4.148148e+00	 1.629630e+00	 1.065892e+01
0	 4.148148e+00	 1.703704e+00	 1.066506e+01
0	 4.148148e+00	 1.777778e+00	 1.067024e+01
0	 4.148148e+00	 1.851852e+00	 1.067455e+01
0	 4.222222e+00	 1.481481e+00	 1.061938e+01
0	 4.222222e+00	 1.555556e+00	 1.062761e+01
0	 4.222222e+00	 1.629630e+00	 1.063483e+01
0	 4.222222e+00	 1.703704e+00	 1.064112e+01
0	 4.222222e+00	 1.777778e+00	 1.064652e+01
0	 4.222222e+00	 1.851852e+00	 1.065109e+01
0	 4.296296e+00	 1.481481e+00	 1.059692e+01
0	 4.296296e+00	 1.555556e+00	 1.060491e+01
0	 4.296296e+00	 1.629630e+00	 1.061203e+01
0	 4.296296e+00	 1.703704e+00	 1.061829e+01
0	 4.296296e+00	 1.777778e+00	 1.062375e+01
0	 4.296296e+00	 1.851852e+00	 1.062842e+01
0	 4.370370e+00	 1.481481e+00	 1.057557e+01
0	 4.370370e+00	 1.555556e+00	 1.058332e+01
0	 4.370370e+00	 1.629630e+00	 1.059026e+01
0	 4.370370e+00	 1.703704e+00	 1.059641e+01
0	 4.370370e+00	 1.777778e+00	 1.060181e+01
0	 4.370370e+00	 1.851852e+00	 1.060648e+01
0	 4.444444e+00	 1.481481e+00	 1.055495e+01
0	 4.444444e+00	 1.555556e+00	 1.056251e+01
0	 4.444444e+00	 1.629630e+00	 1.056928e+01
0	 4.444444e+00	 1.703704e+00	 1.057529e+01
0	 4.444444e+00	 1.777778e+00	 1.058060e+01
0	 4.444444e+00	 1.851852e+00	 1.058525e+01
0	 4.074074e+00	 1.851852e+00	 1.069883e+01
0	 4.074074e+00	 1.925926e+00	 1.070161e+01
0	 4.074074e+00	 2.000000e+00	 1.070306e+01
0	 4.074074e+00	 2.074074e+00	 1.070317e+01
0	 4.074074e+00	 2.148148e+00	 1.070195e+01
0	 4.074074e+00	 2.222222e+00	 1.069939e+01
0	 4.148148e+00	 1.851852e+00	 1.067455e+01
0	 4.148148e+00	 1.925926e+00	 1.067780e+01
0	 4.148148e+00	 2.000000e+00	 1.067973e+01
0	 4.148148e+00	 2.074074e+00	 1.068036e+01
0	 4.148148e+00	 2.148148e+00	 1.067971e+01
0	 4.148148e+00	 2.222222e+00	 1.067782e+01
0	 4.222222e+00	 1.851852e+00	 1.065109e+01
0	 4.222222e+00	 1.925926e+00	 1.065463e+01
0	 4.222222e+00	 2.000000e+00	 1.065693e+01
0	 4.222222e+00	 2.074074e+00	 1.065801e+01
0	 4.222222e+00	 2.148148e+00	 1.065794e+01
0	 4.222222e+00	 2.222222e+00	 1.065675e+01
0	 4.296296e+00	 1.851852e+00	 1.062842e+01
0	 4.296296e+00	 1.925926e+00	 1.063212e+01
0	 4.296296e+00	 2.000000e+00	 1.063469e+01
0	 4.296296e+00	 2.074074e+00	 1.063619e+01
0	 4.296296e+00	 2.148148e+00	 1.063667e+01
0	 4.296296e+00	 2.222222e+00	 1.063618e+01
0	 4.370370e+00	 1.851852e+00	 1.060648e+01
0	 4.370370e+00	 1.925926e+00	 1.061028e+01
0	 4.370370e+00	 2.000000e+00	 1.061308e+01
0	 4.370370e+00	 2.074074e+00	 1.061495e+01
0	 4.370370e+00	 2.148148e+00	 1.061593e+01
0	 4.370370e+00	 2.222222e+00	 1.061610e+01
0	 4.444444e+00	 1.851852e+00	 1.058525e+01
0	 4.444444e+00	 1.925926e+00	 1.058913e+01
0	 4.444444e+00	 2.000000e+00	 1.059214e+01
0	 4.444444e+00	 2.074074e+00	 1.059434e+01
0	 4.444444e+00	 2.148148e+00	 1.059578e+01
0	 4.444444e+00	 2.222222e+00	 1.059651e+01
0	 4.074074e+00	 2.222222e+00	 1.069939e+01
0	 4.074074e+00	 2.296296e+00	 1.069573e+01
0	 4.074074e+00	 2.370370e+00	 1.069117e+01
0	 4.074074e+00	 2.444444e+00	 1.068572e+01
0	 4.074074e+00	 2.518519e+00	 1.067937e+01
0	 4.074074e+00	 2.592593e+00	 1.067210e+01
0	 4.148148e+00	 2.222222e+00	 1.067782e+01
0	 4.148148e+00	 2.296296e+00	 1.067491e+01
0	 4.148148e+00	 2.370370e+00	 1.067117e+01
0	 4.148148e+00	 2.444444e+00	 1.066660e+01
0	 4.148148e+00	 2.518519e+00	 1.066117e+01
0	 4.148148e+00	 2.592593e+00	 1.065489e+01
0	 4.222222e+00	 2.222222e+00	 1.065675e+01
0	 4.222222e+00	 2.296296e+00	 1.065462e+01
0	 4.222222e+00	 2.370370e+00	 1.065167e+01
0	 4.222222e+00	 2.444444e+00	 1.064789e+01
0	 4.222222e+00	 2.518519e+00	 1.064326e+01
0	 4.222222e+00	 2.592593e+00	 1.063778e+01
0	 4.296296e+00	 2.222222e+00	 1.063618e+01
0	 4.296296e+00	 2.296296e+00	 1.063481e+01
0	 4.296296e+00	 2.370370e+00	 1.063260e+01
0	 4.296296e+00	 2.444444e+00	 1.062954e+01
0	 4.296296e+00	 2.518519e+00	 1.062560e+01
0	 4.296296e+00	 2.592593e+00	 1.062078e+01
0	 4.370370e+00	 2.222222e+00	 1.061610e+01
0	 4.370370e+00	 2.296296e+00	 1.061544e+01
0	 4.370370e+00	 2.370370e+00	 1.061390e+01
0	 4.370370e+00	 2.444444e+00	 1.061147e+01
0	 4.370370e+00	 2.518519e+00	 1.060815e+01
0	 4.370370e+00	 2.592593e+00	 1.060392e+01
0	 4.444444e+00	 2.222222e+00	 1.059651e+01
0	 4.444444e+00	 2.296296e+00	 1.059644e+01
0	 4.444444e+00	 2.370370e+00	 1.059549e+01
0	 4.444444e+00	 2.444444e+00	 1.059363e+01
0	 4.444444e+00	 2.518519e+00	 1.059086e+01
0	 4.444444e+00	 2.592593e+00	 1.058719e+01
0	 4.074074e+00	 2.592593e+00	 1.067210e+01
0	 4.074074e+00	 2.666667e+00	 1.066403e+01
0	 4.074074e+00	 2.740741e+00	 1.065521e+01
0	 4.074074e+00	 2.814815e+00	 1.064560e+01
0	 4.074074e+00	 2.888889e+00	 1.063515e+01
0	 4.074074e+00	 2.962963e+00	 1.062381e+01
0	 4.148148e+00	 2.592593e+00	 1.065489e+01
0	 4.148148e+00	 2.666667e+00	 1.064779e+01
0	 4.148148e+00	 2.740741e+00	 1.063992e+01
0	 4.148148e+00	 2.814815e+00	 1.063124e+01
0	 4.148148e+00	 2.888889e+00	 1.062171e+01
0	 4.148148e+00	 2.962963e+00	 1.061130e+01
0	 4.222222e+00	 2.592593e+00	 1.063778e+01
0	 4.222222e+00	 2.666667e+00	 1.063148e+01
0	 4.222222e+00	 2.740741e+00	 1.062444e+01
0	 4.222222e+00	 2.814815e+00	 1.061661e+01
0	 4.222222e+00	 2.888889e+00	 1.060797e+01
0	 4.222222e+00	 2.962963e+00	 1.059851e+01
0	 4.296296e+00	 2.592593e+00	 1.062078e+01
0	 4.296296e+00	 2.666667e+00	 1.061517e+01
0	 4.296296e+00	 2.740741e+00	 1.060886e+01
0	 4.296296e+00	 2.814815e+00	 1.060182e+01
0	 4.296296e+00	 2.888889e+00	 1.059404e+01
0	 4.296296e+00	 2.962963e+00	 1.058549e+01
0	 4.370370e+00	 2.592593e+00	 1.060392e+01
0	 4.370370e+00	 2.666667e+00	 1.059892e+01
0	 4.370370e+00	 2.740741e+00	 1.059327e+01
0	 4.370370e+00	 2.814815e+00	 1.058697e+01
0	 4.370370e+00	 2.888889e+00	 1.058000e+01
0	 4.370370e+00	 2.962963e+00	 1.057234e+01
0	 4.444444e+00	 2.592593e+00	 1.058719e+01
0	 4.444444e+00	 2.666667e+00	 1.058278e+01
0	 4.444444e+00	 2.740741e+00	 1.057779e+01
0	 4.444444e+00	 2.814815e+00	 1.057219e+01
0	 4.444444e+00	 2.888889e+00	 1.056597e+01
0	 4.444444e+00	 2.962963e+00	 1.055912e+01
0	 4.074074e+00	 2.962963e+00	 1.062381e+01
0	 4.074074e+00	 3.037037e+00	 1.061189e+01
0	 4.074074e+00	 3.111111e+00	 1.059972e+01
0	 4.074074e+00	 3.185185e+00	 1.058725e+01
0	 4.074074e+00	 3.259259e+00	 1.057445e+01
0	 4.074074e+00	 3.333333e+00	 1.056127e+01
0	 4.148148e+00	 2.962963e+00	 1.061130e+01
0	 4.148148e+00	 3.037037e+00	 1.060033e+01
0	 4.148148e+00	 3.111111e+00	 1.058911e+01
0	 4.148148e+00	 3.185185e+00	 1.057759e+01
0	 4.148148e+00	 3.259259e+00	 1.056573e+01
0	 4.148148e+00	 3.333333e+00	 1.055348e+01
0	 4.222222e+00	 2.962963e+00	 1.059851e+01
0	 4.222222e+00	 3.037037e+00	 1.058849e+01
0	 4.222222e+00	 3.111111e+00	 1.057819e+01
0	 4.222222e+00	 3.185185e+00	 1.056757e+01
0	 4.222222e+00	 3.259259e+00	 1.055657e+01
0	 4.222222e+00	 3.333333e+00	 1.054514e+01
0	 4.296296e+00	 2.962963e+00	 1.058549e+01
0	 4.296296e+00	 3.037037e+00	 1.057641e+01
0	 4.296296e+00	 3.111111e+00	 1.056700e+01
0	 4.296296e+00	 3.185185e+00	 1.055722e+01
0	 4.296296e+00	 3.259259e+00	 1.054700e+01
0	 4.296296e+00	 3.333333e+00	 1.053631e+01
0	 4.370370e+00	 2.962963e+00	 1.057234e+01
0	 4.370370e+00	 3.037037e+00	 1.056415e+01
0	 4.370370e+00	 3.111111e+00	 1.055557e+01
0	 4.370370e+00	 3.185185e+00	 1.054656e+01
0	 4.370370e+00	 3.259259e+00	 1.053707e+01
0	 4.370370e+00	 3.333333e+00	 1.052707e+01
0	 4.444444e+00	 2.962963e+00	 1.055912e+01
0	 4.444444e+00	 3.037037e+00	 1.055173e+01
0	 4.444444e+00	 3.111111e+00	 1.054391e+01
0	 4.444444e+00	 3.185185e+00	 1.053563e+01
0	 4.444444e+00	 3.259259e+00	 1.052683e+01
0	 4.444444e+00	 3.333333e+00	 1.051749e+01
0	 4.074074e+00	 3.333333e+00	 1.056127e+01
0	 4.074074e+00	 3.407407e+00	 1.054786e+01
0	 4.074074e+00	 3.481481e+00	 1.053435e+01
0	 4.074074e+00	 3.555556e+00	 1.052069e+01
0	 4.074074e+00	 3.629630e+00	 1.050682e+01
0	 4.074074e+00	 3.703704e+00	 1.049270e+01
0	 4.148148e+00	 3.333333e+00	 1.055348e+01
0	 4.148148e+00	 3.407407e+00	 1.054095e+01
0	 4.148148e+00	 3.481481e+00	 1.052826e+01
0	 4.148148e+00	 3.555556e+00	 1.051537e+01
0	 4.148148e+00	 3.629630e+00	 1.050223e+01
0	 4.148148e+00	 3.703704e+00	 1.048881e+01
0	 4.222222e+00	 3.333333e+00	 1.054514e+01
0	 4.222222e+00	 3.407407e+00	 1.053339e+01
0	 4.222222e+00	 3.481481e+00	 1.052146e+01
0	 4.222222e+00	 3.555556e+00	 1.050931e+01
0	 4.222222e+00	 3.629630e+00	 1.049690e+01
0	 4.222222e+00	 3.703704e+00	 1.048421e+01
0	 4.296296e+00	 3.333333e+00	 1.053631e+01
0	 4.296296e+00	 3.407407e+00	 1.052527e+01
0	 4.296296e+00	 3.481481e+00	 1.051405e+01
0	 4.296296e+00	 3.555556e+00	 1.050262e+01
0	 4.296296e+00	 3.629630e+00	 1.049094e+01
0	 4.296296e+00	 3.703704e+00	 1.047899e+01
0	 4.370370e+00	 3.333333e+00	 1.052707e+01
0	 4.370370e+00	 3.407407e+00	 1.051671e+01
0	 4.370370e+00	 3.481481e+00	 1.050617e+01
0	 4.370370e+00	 3.555556e+00	 1.049543e+01
0	 4.370370e+00	 3.629630e+00	 1.048446e+01
0	 4.370370e+00	 3.703704e+00	 1.047324e+01
0	 4.444444e+00	 3.333333e+00	 1.051749e+01
0	 4.444444e+00	 3.407407e+00	 1.050779e+01
0	 4.444444e+00	 3.481481e+00	 1.049793e+01
0	 4.444444e+00	 3.555556e+00	 1.048787e+01
0	 4.444444e+00	 3.629630e+00	 1.047759e+01
0	 4.444444e+00	 3.703704e+00	 1.046706e+01
0	 4.074074e+00	 3.703704e+00	 1.049270e+01
0	 4.074074e+00	 3.777778e+00	 1.047853e+01
0	 4.074074e+00	 3.851852e+00	 1.046452e+01
0	 4.074074e+00	 3.925926e+00	 1.045066e+01
0	 4.074074e+00	 4.000000e+00	 1.043692e+01
0	 4.074074e+00	 4.074074e+00	 1.042326e+01
0	 4.148148e+00	 3.703704e+00	 1.048881e+01
0	 4.148148e+00	 3.777778e+00	 1.047533e+01
0	 4.148148e+00	 3.851852e+00	 1.046200e+01
0	 4.148148e+00	 3.925926e+00	 1.044879e+01
0	 4.148148e+00	 4.000000e+00	 1.043567e+01
0	 4.148148e+00	 4.074074e+00	 1.042260e+01
0	 4.222222e+00	 3.703704e+00	 1.048421e+01
0	 4.222222e+00	 3.777778e+00	 1.047144e+01
0	 4.222222e+00	 3.851852e+00	 1.045879e+01
0	 4.222222e+00	 3.925926e+00	 1.044622e+01
0	 4.222222e+00	 4.000000e+00	 1.043370e+01
0	 4.222222e+00	 4.074074e+00	 1.042117e+01
0	 4.296296e+00	 3.703704e+00	 1.047899e+01
0	 4.296296e+00	 3.777778e+00	 1.046694e+01
0	 4.296296e+00	 3.851852e+00	 1.045497e+01
0	 4.296296e+00	 3.925926e+00	 1.044302e+01
0	 4.296296e+00	 4.000000e+00	 1.043105e+01
0	 4.296296e+00	 4.074074e+00	 1.041903e+01
0	 4.370370e+00	 3.703704e+00	 1.047324e+01
0	 4.370370e+00	 3.777778e+00	 1.046190e+01
0	 4.370370e+00	 3.851852e+00	 1.045058e+01
0	 4.370370e+00	 3.925926e+00	 1.043922e+01
0	 4.370370e+00	 4.000000e+00	 1.042780e+01
0	 4.370370e+00	 4.074074e+00	 1.041627e+01
0	 4.444444e+00	 3.703704e+00	 1.046706e+01
0	 4.444444e+00	 3.777778e+00	 1.045639e+01
0	 4.444444e+00	 3.851852e+00	 1.044568e+01
0	 4.444444e+00	 3.925926e+00	 1.043489e+01
0	 4.444444e+00	 4.000000e+00	 1.042399e+01
0	 4.444444e+00	 4.074074e+00	 1.041294e+01
0	 4.074074e+00	 4.074074e+00	 1.042326e+01
0	 4.074074e+00	 4.148148e+00	 1.040976e+01
0	 4.074074e+00	 4.222222e+00	 1.039647e+01
0	 4.074074e+00	 4.296296e+00	 1.038338e+01
0	 4.074074e+00	 4.370370e+00	 1.037043e+01
0	 4.074074e+00	 4.444444e+00	 1.035761e+01
0	 4.148148e+00	 4.074074e+00	 1.042260e+01
0	 4.148148e+00	 4.148148e+00	 1.040963e+01
0	 4.148148e+00	 4.222222e+00	 1.039683e+01
0	 4.148148e+00	 4.296296e+00	 1.038417e+01
0	 4.148148e+00	 4.370370e+00	 1.037163e+01
0	 4.148148e+00	 4.444444e+00	 1.035918e+01
0	 4.222222e+00	 4.074074e+00	 1.042117e+01
0	 4.222222e+00	 4.148148e+00	 1.040870e+01
0	 4.222222e+00	 4.222222e+00	 1.039636e+01
0	 4.222222e+00	 4.296296e+00	 1.038414e+01
0	 4.222222e+00	 4.370370e+00	 1.037202e+01
0	 4.222222e+00	 4.444444e+00	 1.035998e+01
0	 4.296296e+00	 4.074074e+00	 1.041903e+01
0	 4.296296e+00	 4.148148e+00	 1.040703e+01
0	 4.296296e+00	 4.222222e+00	 1.039516e+01
0	 4.296296e+00	 4.296296e+00	 1.038339e+01
0	 4.296296e+00	 4.370370e+00	 1.037170e+01
0	 4.296296e+00	 4.444444e+00	 1.036009e+01
0	 4.370370e+00	 4.074074e+00	 1.041627e+01
0	 4.370370e+00	 4.148148e+00	 1.040473e+01
0	 4.370370e+00	 4.222222e+00	 1.039331e+01
0	 4.370370e+00	 4.296296e+00	 1.038199e+01
0	 4.370370e+00	 4.370370e+00	 1.037075e+01
0	 4.370370e+00	 4.444444e+00	 1.035958e+01
0	 4.444444e+00	 4.074074e+00	 1.041294e+01
0	 4.444444e+00	 4.148148e+00	 1.040188e+01
0	 4.444444e+00	 4.222222e+00	 1.039093e+01
0	 4.444444e+00	 4.296296e+00	 1.038006e+01
0	 4.444444e+00	 4.370370e+00	 1.036927e+01
0	 4.444444e+00	 4.444444e+00	 1.035852e+01
0	 4.074074e+00	 4.444444e+00	 1.035761e+01
0	 4.074074e+00	 4.518519e+00	 1.034501e+01
0	 4.074074e+00	 4.592593e+00	 1.033272e+01
0	 4.074074e+00	 4.666667e+00	 1.032073e+01
0	 4.074074e+00	 4.740741e+00	 1.030904e+01
0	 4.074074e+00	 4.814815e+00	 1.029763e+01
0	 4.148148e+00	 4.444444e+00	 1.035918e+01
0	 4.148148e+00	 4.518519e+00	 1.034693e+01
0	 4.148148e+00	 4.592593e+00	 1.033498e+01
0	 4.148148e+00	 4.666667e+00	 1.032331e+01
0	 4.148148e+00	 4.740741e+00	 1.031191e+01
0	 4.148148e+00	 4.814815e+00	 1.030076e+01
0	 4.222222e+00	 4.444444e+00	 1.035998e+01
0	 4.222222e+00	 4.518519e+00	 1.034812e+01
0	 4.222222e+00	 4.592593e+00	 1.033653e+01
0	 4.222222e+00	 4.666667e+00	 1.032519e+01
0	 4.222222e+00	 4.740741e+00	 1.031408e+01
0	 4.222222e+00	 4.814815e+00	 1.030318e+01
0	 4.296296e+00	 4.444444e+00	 1.036009e+01
0	 4.296296e+00	 4.518519e+00	 1.034863e+01
0	 4.296296e+00	 4.592593e+00	 1.033741e+01
0	 4.296296e+00	 4.666667e+00	 1.032641e+01
0	 4.296296e+00	 4.740741e+00	 1.031559e+01
0	 4.296296e+00	 4.814815e+00	 1.030494e+01
0	 4.370370e+00	 4.444444e+00	 1.035958e+01
0	 4.370370e+00	 4.518519e+00	 1.034854e+01
0	 4.370370e+00	 4.592593e+00	 1.033769e+01
0	 4.370370e+00	 4.666667e+00	 1.032701e+01
0	 4.370370e+00	 4.740741e+00	 1.031649e+01
0	 4.370370e+00	 4.814815e+00	 1.030609e+01
0	 4.444444e+00	 4.444444e+00	 1.035852e+01
0	 4.444444e+00	 4.518519e+00	 1.034788e+01
0	 4.444444e+00	 4.592593e+00	 1.033740e+01
0	 4.444444e+00	 4.666667e+00	 1.032705e+01
0	 4.444444e+00	 4.740741e+00	 1.031682e+01
0	 4.444444e+00	 4.814815e+00	 1.030668e+01
0	 4.074074e+00	 4.814815e+00	 1.029763e+01
0	 4.074074e+00	 4.888889e+00	 1.028650e+01
0	 4.074074e+00	 4.962963e+00	 1.027567e+01
0	 4.074074e+00	 5.037037e+00	 1.026513e+01
0	 4.074074e+00	 5.111111e+00	 1.025484e+01
0	 4.074074e+00	 5.185185e+00	 1.024482e+01
0	 4.148148e+00	 4.814815e+00	 1.030076e+01
0	 4.148148e+00	 4.888889e+00	 1.028986e+01
0	 4.148148e+00	 4.962963e+00	 1.027922e+01
0	 4.148148e+00	 5.037037e+00	 1.026883e+01
0	 4.148148e+00	 5.111111e+00	 1.025870e+01
0	 4.148148e+00	 5.185185e+00	 1.024879e+01
0	 4.222222e+00	 4.814815e+00	 1.030318e+01
0	 4.222222e+00	 4.888889e+00	 1.029250e+01
0	 4.222222e+00	 4.962963e+00	 1.028206e+01
0	 4.222222e+00	 5.037037e+00	 1.027186e+01
0	 4.222222e+00	 5.111111e+00	 1.026188e+01
0	 4.222222e+00	 5.185185e+00	 1.025213e+01
0	 4.296296e+00	 4.814815e+00	 1.030494e+01
0	 4.296296e+00	 4.888889e+00	 1.029448e+01
0	 4.296296e+00	 4.962963e+00	 1.028425e+01
0	 4.296296e+00	 5.037037e+00	 1.027424e+01
0	 4.296296e+00	 5.111111e+00	 1.026445e+01
0	 4.296296e+00	 5.185185e+00	 1.025487e+01
0	 4.370370e+00	 4.814815e+00	 1.030609e+01
0	 4.370370e+00	 4.888889e+00	 1.029586e+01
0	 4.370370e+00	 4.962963e+00	 1.028585e+01
0	 4.370370e+00	 5.037037e+00	 1.027606e+01
0	 4.370370e+00	 5.111111e+00	 1.026647e+01
0	 4.370370e+00	 5.185185e+00	 1.025708e+01
0	 4.444444e+00	 4.814815e+00	 1.030668e+01
0	 4.444444e+00	 4.888889e+00	 1.029669e+01
0	 4.444444e+00	 4.962963e+00	 1.028692e+01
0	 4.444444e+00	 5.037037e+00	 1.027735e+01
0	 4.444444e+00	 5.111111e+00	 1.026797e+01
0	 4.444444e+00	 5.185185e+00	 1.025878e+01
0	 4.074074e+00	 5.185185e+00	 1.024482e+01
0	 4.074074e+00	 5.259259e+00	 1.023507e+01
0	 4.074074e+00	 5.333333e+00	 1.022563e+01
0	 4.074074e+00	 5.407407e+00	 1.021649e+01
0	 4.074074e+00	 5.481481e+00	 1.020765e+01
0	 4.074074e+00	 5.555556e+00	 1.019910e+01
0	 4.148148e+00	 5.185185e+00	 1.024879e+01
0	 4.148148e+00	 5.259259e+00	 1.023915e+01
0	 4.148148e+00	 5.333333e+00	 1.022980e+01
0	 4.148148e+00	 5.407407e+00	 1.022075e+01
0	 4.148148e+00	 5.481481e+00	 1.021197e+01
0	 4.148148e+00	 5.555556e+00	 1.020347e+01
0	 4.222222e+00	 5.185185e+00	 1.025213e+01
0	 4.222222e+00	 5.259259e+00	 1.024262e+01
0	 4.222222e+00	 5.333333e+00	 1.023340e+01
0	 4.222222e+00	 5.407407e+00	 1.022444e+01
0	 4.222222e+00	 5.481481e+00	 1.021574e+01
0	 4.222222e+00	 5.555556e+00	 1.020730e+01
0	 4.296296e+00	 5.185185e+00	 1.025487e+01
0	 4.296296e+00	 5.259259e+00	 1.024553e+01
0	 4.296296e+00	 5.333333e+00	 1.023644e+01
0	 4.296296e+00	 5.407407e+00	 1.022760e+01
0	 4.296296e+00	 5.481481e+00	 1.021899e+01
0	 4.296296e+00	 5.555556e+00	 1.021061e+01
0	 4.370370e+00	 5.185185e+00	 1.025708e+01
0	 4.370370e+00	 5.259259e+00	 1.024790e+01
0	 4.370370e+00	 5.333333e+00	 1.023896e+01
0	 4.370370e+00	 5.407407e+00	 1.023024e+01
0	 4.370370e+00	 5.481481e+00	 1.022174e+01
0	 4.370370e+00	 5.555556e+00	 1.021343e+01
0	 4.444444e+00	 5.185185e+00	 1.025878e+01
0	 4.444444e+00	 5.259259e+00	 1.024978e+01
0	 4.444444e+00	 5.333333e+00	 1.024099e+01
0	 4.444444e+00	 5.407407e+00	 1.023240e+01
0	 4.444444e+00	 5.481481e+00	 1.022401e+01
0	 4.444444e+00	 5.555556e+00	 1.021580e+01
0	 4.074074e+00	 5.555556e+00	 1.019910e+01
0	 4.074074e+00	 5.629630e+00	 1.019083e+01
0	 4.074074e+00	 5.703704e+00	 1.018282e+01
0	 4.074074e+00	 5.777778e+00	 1.017508e+01
0	 4.074074e+00	 5.851852e+00	 1.016758e+01
0	 4.074074e+00	 5.925926e+00	 1.016034e+01
0	 4.148148e+00	 5.555556e+00	 1.020347e+01
0	 4.148148e+00	 5.629630e+00	 1.019523e+01
0	 4.148148e+00	 5.703704e+00	 1.018724e+01
0	 4.148148e+00	 5.777778e+00	 1.017949e+01
0	 4.148148e+00	 5.851852e+00	 1.017198e+01
0	 4.148148e+00	 5.925926e+00	 1.016471e+01
0	 4.222222e+00	 5.555556e+00	 1.020730e+01
0	 4.222222e+00	 5.629630e+00	 1.019910e+01
0	 4.222222e+00	 5.703704e+00	 1.019113e+01
0	 4.222222e+00	 5.777778e+00	 1.018339e+01
0	 4.222222e+00	 5.851852e+00	 1.017589e+01
0	 4.222222e+00	 5.925926e+00	 1.016862e+01
0	 4.296296e+00	 5.555556e+00	 1.021061e+01
0	 4.296296e+00	 5.629630e+00	 1.020246e+01
0	 4.296296e+00	 5.703704e+00	 1.019453e+01
0	 4.296296e+00	 5.777778e+00	 1.018683e+01
0	 4.296296e+00	 5.851852e+00	 1.017935e+01
0	 4.296296e+00	 5.925926e+00	 1.017210e+01
0	 4.370370e+00	 5.555556e+00	 1.021343e+01
0	 4.370370e+00	 5.629630e+00	 1.020534e+01
0	 4.370370e+00	 5.703704e+00	 1.019747e+01
0	 4.370370e+00	 5.777778e+00	 1.018982e+01
0	 4.370370e+00	 5.851852e+00	 1.018238e+01
0	 4.370370e+00	 5.925926e+00	 1.017516e+01
0	 4.444444e+00	 5.555556e+00	 1.021580e+01
0	 4.444444e+00	 5.629630e+00	 1.020778e+01
0	 4.444444e+00	 5.703704e+00	 1.019998e+01
0	 4.444444e+00	 5.777778e+00	 1.019239e+01
0	 4.444444e+00	 5.851852e+00	 1.018501e+01
0	 4.444444e+00	 5.925926e+00	 1.017783e+01
0	 4.074074e+00	 5.925926e+00	 1.016034e+01
0	 4.074074e+00	 6.000000e+00	 1.015335e+01
0	 4.074074e+00	 6.074074e+00	 1.014659e+01
0	 4.074074e+00	 6.148148e+00	 1.014007e+01
0	 4.074074e+00	 6.222222e+00	 1.013379e+01
0	 4.074074e+00	 6.296296e+00	 1.012775e+01
0	 4.148148e+00	 5.925926e+00	 1.016471e+01
0	 4.148148e+00	 6.000000e+00	 1.015768e+01
0	 4.148148e+00	 6.074074e+00	 1.015089e+01
0	 4.148148e+00	 6.148148e+00	 1.014432e+01
0	 4.148148e+00	 6.222222e+00	 1.013799e+01
0	 4.148148e+00	 6.296296e+00	 1.013189e+01
0	 4.222222e+00	 5.925926e+00	 1.016862e+01
0	 4.222222e+00	 6.000000e+00	 1.016158e+01
0	 4.222222e+00	 6.074074e+00	 1.015477e+01
0	 4.222222e+00	 6.148148e+00	 1.014818e+01
0	 4.222222e+00	 6.222222e+00	 1.014181e+01
0	 4.222222e+00	 6.296296e+00	 1.013565e+01
0	 4.296296e+00	 5.925926e+00	 1.017210e+01
0	 4.296296e+00	 6.000000e+00	 1.016506e+01
0	 4.296296e+00	 6.074074e+00	 1.015825e+01
0	 4.296296e+00	 6.148148e+00	 1.015164e+01
0	 4.296296e+00	 6.222222e+00	 1.014524e+01
0	 4.296296e+00	 6.296296e+00	 1.013905e+01
0	 4.370370e+00	 5.925926e+00	 1.017516e+01
0	 4.370370e+00	 6.000000e+00	 1.016815e+01
0	 4.370370e+00	 6.074074e+00	 1.016134e+01
0	 4.370370e+00	 6.148148e+00	 1.015473e+01
0	 4.370370e+00	 6.222222e+00	 1.014832e+01
0	 4.370370e+00	 6.296296e+00	 1.014210e+01
0	 4.444444e+00	 5.925926e+00	 1.017783e+01
0	 4.444444e+00	 6.000000e+00	 1.017084e+01
0	 4.444444e+00	 6.074074e+00	 1.016405e+01
0	 4.444444e+00	 6.148148e+00	 1.015745e+01
0	 4.444444e+00	 6.222222e+00	 1.015104e+01
0	 4.444444e+00	 6.296296e+00	 1.014481e+01
0	 4.074074e+00	 6.296296e+00	 1.012775e+01
0	 4.074074e+00	 6.370370e+00	 1.012194e+01
0	 4.074074e+00	 6.444444e+00	 1.011632e+01
0	 4.074074e+00	 6.518519e+00	 1.011089e+01
0	 4.074074e+00	 6.592593e+00	 1.010567e+01
0	 4.074074e+00	 6.666667e+00	 1.010065e+01
0	 4.148148e+00	 6.296296e+00	 1.013189e+01
0	 4.148148e+00	 6.370370e+00	 1.012600e+01
0	 4.148148e+00	 6.444444e+00	 1.012030e+01
0	 4.148148e+00	 6.518519e+00	 1.011480e+01
0	 4.148148e+00	 6.592593e+00	 1.010949e+01
0	 4.148148e+00	 6.666667e+00	 1.010437e+01
0	 4.222222e+00	 6.296296e+00	 1.013565e+01
0	 4.222222e+00	 6.370370e+00	 1.012971e+01
0	 4.222222e+00	 6.444444e+00	 1.012394e+01
0	 4.222222e+00	 6.518519e+00	 1.011837e+01
0	 4.222222e+00	 6.592593e+00	 1.011298e+01
0	 4.222222e+00	 6.666667e+00	 1.010779e+01
0	 4.296296e+00	 6.296296e+00	 1.013905e+01
0	 4.296296e+00	 6.370370e+00	 1.013306e+01
0	 4.296296e+00	 6.444444e+00	 1.012724e+01
0	 4.296296e+00	 6.518519e+00	 1.012162e+01
0	 4.296296e+00	 6.592593e+00	 1.011617e+01
0	 4.296296e+00	 6.666667e+00	 1.011091e+01
0	 4.370370e+00	 6.296296e+00	 1.014210e+01
0	 4.370370e+00	 6.370370e+00	 1.013607e+01
0	 4.370370e+00	 6.444444e+00	 1.013022e+01
0	 4.370370e+00	 6.518519e+00	 1.012455e+01
0	 4.370370e+00	 6.592593e+00	 1.011906e+01
0	 4.370370e+00	 6.666667e+00	 1.011375e+01
0	 4.444444e+00	 6.296296e+00	 1.014481e+01
0	 4.444444e+00	 6.370370e+00	 1.013876e+01
0	 4.444444e+00	 6.444444e+00	 1.013288e+01
0	 4.444444e+00	 6.518519e+00	 1.012719e+01
0	 4.444444e+00	 6.592593e+00	 1.012166e+01
0	 4.444444e+00	 6.666667e+00	 1.011631e+01
0	 4.074074e+00	 6.666667e+00	 1.010065e+01
0	 4.074074e+00	 6.740741e+00	 1.009580e+01
0	 4.074074e+00	 6.814815e+00	 1.009113e+01
0	 4.074074e+00	 6.888889e+00	 1.008663e+01
0	 4.074074e+00	 6.962963e+00	 1.008231e+01
0	 4.074074e+00	 7.037037e+00	 1.007815e+01
0	 4.148148e+00	 6.666667e+00	 1.010437e+01
0	 4.148148e+00	 6.740741e+00	 1.009943e+01
0	 4.148148e+00	 6.814815e+00	 1.009466e+01
0	 4.148148e+00	 6.888889e+00	 1.009006e+01
0	 4.148148e+00	 6.962963e+00	 1.008563e+01
0	 4.148148e+00	 7.037037e+00	 1.008137e+01
0	 4.222222e+00	 6.666667e+00	 1.010779e+01
0	 4.222222e+00	 6.740741e+00	 1.010277e+01
0	 4.222222e+00	 6.814815e+00	 1.009792e+01
0	 4.222222e+00	 6.888889e+00	 1.009323e+01
0	 4.222222e+00	 6.962963e+00	 1.008871e+01
0	 4.222222e+00	 7.037037e+00	 1.008435e+01
0	 4.296296e+00	 6.666667e+00	 1.011091e+01
0	 4.296296e+00	 6.740741e+00	 1.010583e+01
0	 4.296296e+00	 6.814815e+00	 1.010090e+01
0	 4.296296e+00	 6.888889e+00	 1.009614e+01
0	 4.296296e+00	 6.962963e+00	 1.009154e+01
0	 4.296296e+00	 7.037037e+00	 1.008710e+01
0	 4.370370e+00	 6.666667e+00	 1.011375e+01
0	 4.370370e+00	 6.740741e+00	 1.010861e+01
0	 4.370370e+00	 6.814815e+00	 1.010363e+01
0	 4.370370e+00	 6.888889e+00	 1.009880e+01
0	 4.370370e+00	 6.962963e+00	 1.009413e+01
0	 4.370370e+00	 7.037037e+00	 1.008961e+01
0	 4.444444e+00	 6.666667e+00	 1.011631e+01
0	 4.444444e+00	 6.740741e+00	 1.011113e+01
0	 4.444444e+00	 6.814815e+00	 1.010609e+01
0	 4.444444e+00	 6.888889e+00	 1.010121e+01
0	 4.444444e+00	 6.962963e+00	 1.009648e+01
0	 4.444444e+00	 7.037037e+00	 1.009190e+01
0	 4.074074e+00	 7.037037e+00	 1.007815e+01
0	 4.074074e+00	 7.111111e+00	 1.007415e+01
0	 4.074074e+00	 7.185185e+00	 1.007029e+01
0	 4.074074e+00	 7.259259e+00	 1.006657e+01
0	 4.074074e+00	 7.333333e+00	 1.006299e+01
0	 4.074074e+00	 7.407407e+00	 1.005955e+01
0	 4.148148e+00	 7.037037e+00	 1.008137e+01
0	 4.148148e+00	 7.111111e+00	 1.007726e+01
0	 4.148148e+00	 7.185185e+00	 1.007329e+01
0	 4.148148e+00	 7.259259e+00	 1.006946e+01
0	 4.148148e+00	 7.333333e+00	 1.006577e+01
0	 4.148148e+00	 7.407407e+00	 1.006221e+01
0	 4.222222e+00	 7.037037e+00	 1.008435e+01
0	 4.222222e+00	 7.111111e+00	 1.008014e+01
0	 4.222222e+00	 7.185185e+00	 1.007607e+01
0	 4.222222e+00	 7.259259e+00	 1.007214e+01
0	 4.222222e+00	 7.333333e+00	 1.006834e+01
0	 4.222222e+00	 7.407407e+00	 1.006469e+01
0	 4.296296e+00	 7.037037e+00	 1.008710e+01
0	 4.296296e+00	 7.111111e+00	 1.008280e+01
0	 4.296296e+00	 7.185185e+00	 1.007864e+01
0	 4.296296e+00	 7.259259e+00	 1.007462e+01
0	 4.296296e+00	 7.333333e+00	 1.007073e+01
0	 4.296296e+00	 7.407407e+00	 1.006698e+01
0	 4.370370e+00	 7.037037e+00	 1.008961e+01
0	 4.370370e+00	 7.111111e+00	 1.008524e+01
0	 4.370370e+00	 7.185185e+00	 1.008100e+01
0	 4.370370e+00	 7.259259e+00	 1.007690e+01
0	 4.370370e+00	 7.333333e+00	 1.007293e+01
0	 4.370370e+00	 7.407407e+00	 1.006910e+01
0	 4.444444e+00	 7.037037e+00	 1.009190e+01
0	 4.444444e+00	 7.111111e+00	 1.008746e+01
0	 4.444444e+00	 7.185185e+00	 1.008315e+01
0	 4.444444e+00	 7.259259e+00	 1.007898e+01
0	 4.444444e+00	 7.333333e+00	 1.007494e+01
0	 4.444444e+00	 7.407407e+00	 1.007103e+01
0	 4.074074e+00	 7.407407e+00	 1.005955e+01
0	 4.074074e+00	 7.481481e+00	 1.005624e+01
0	 4.074074e+00	 7.555556e+00	 1.005304e+01
0	 4.074074e+00	 7.629630e+00	 1.004996e+01
0	 4.074074e+00	 7.703704e+00	 1.004700e+01
0	 4.074074e+00	 7.777778e+00	 1.004415e+01
0	 4.148148e+00	 7.407407e+00	 1.006221e+01
0	 4.148148e+00	 7.481481e+00	 1.005878e+01
0	 4.148148e+00	 7.555556e+00	 1.005548e+01
0	 4.148148e+00	 7.629630e+00	 1.005228e+01
0	 4.148148e+00	 7.703704e+00	 1.004921e+01
0	 4.148148e+00	 7.777778e+00	 1.004625e+01
0	 4.222222e+00	 7.407407e+00	 1.006469e+01
0	 4.222222e+00	 7.481481e+00	 1.006116e+01
0	 4.222222e+00	 7.555556e+00	 1.005775e+01
0	 4.222222e+00	 7.629630e+00	 1.005445e+01
0	 4.222222e+00	 7.703704e+00	 1.005127e+01
0	 4.222222e+00	 7.777778e+00	 1.004821e+01
0	 4.296296e+00	 7.407407e+00	 1.006698e+01
0	 4.296296e+00	 7.481481e+00	 1.006336e+01
0	 4.296296e+00	 7.555556e+00	 1.005985e+01
0	 4.296296e+00	 7.629630e+00	 1.005646e+01
0	 4.296296e+00	 7.703704e+00	 1.005319e+01
0	 4.296296e+00	 7.777778e+00	 1.005003e+01
0	 4.370370e+00	 7.407407e+00	 1.006910e+01
0	 4.370370e+00	 7.481481e+00	 1.006539e+01
0	 4.370370e+00	 7.555556e+00	 1.006180e+01
0	 4.370370e+00	 7.629630e+00	 1.005832e+01
0	 4.370370e+00	 7.703704e+00	 1.005496e+01
0	 4.370370e+00	 7.777778e+00	 1.005172e+01
0	 4.444444e+00	 7.407407e+00	 1.007103e+01
0	 4.444444e+00	 7.481481e+00	 1.006725e+01
0	 4.444444e+00	 7.555556e+00	 1.006359e+01
0	 4.444444e+00	 7.629630e+00	 1.006003e+01
0	 4.444444e+00	 7.703704e+00	 1.005659e+01
0	 4.444444e+00	 7.777778e+00	 1.005327e+01
0	 4.074074e+00	 7.777778e+00	 1.004415e+01
0	 4.074074e+00	 7.851852e+00	 1.004141e+01
0	 4.074074e+00	 7.925926e+00	 1.003877e+01
0	 4.074074e+00	 8.000000e+00	 1.003622e+01
0	 4.074074e+00	 8.074074e+00	 1.003377e+01
0	 4.074074e+00	 8.148148e+00	 1.003141e+01
0	 4.148148e+00	 7.777778e+00	 1.004625e+01
0	 4.148148e+00	 7.851852e+00	 1.004340e+01
0	 4.148148e+00	 7.925926e+00	 1.004064e+01
0	 4.148148e+00	 8.000000e+00	 1.003799e+01
0	 4.148148e+00	 8.074074e+00	 1.003543e+01
0	 4.148148e+00	 8.148148e+00	 1.003297e+01
0	 4.222222e+00	 7.777778e+00	 1.004821e+01
0	 4.222222e+00	 7.851852e+00	 1.004525e+01
0	 4.222222e+00	 7.925926e+00	 1.004240e+01
0	 4.222222e+00	 8.000000e+00	 1.003964e+01
0	 4.222222e+00	 8.074074e+00	 1.003698e+01
0	 4.222222e+00	 8.148148e+00	 1.003442e+01
0	 4.296296e+00	 7.777778e+00	 1.005003e+01
0	 4.296296e+00	 7.851852e+00	 1.004698e+01
0	 4.296296e+00	 7.925926e+00	 1.004403e+01
0	 4.296296e+00	 8.000000e+00	 1.004118e+01
0	 4.296296e+00	 8.074074e+00	 1.003843e+01
0	 4.296296e+00	 8.148148e+00	 1.003578e+01
0	 4.370370e+00	 7.777778e+00	 1.005172e+01
0	 4.370370e+00	 7.851852e+00	 1.004858e+01
0	 4.370370e+00	 7.925926e+00	 1.004554e+01
0	 4.370370e+00	 8.000000e+00	 1.004261e+01
0	 4.370370e+00	 8.074074e+00	 1.003978e+01
0	 4.370370e+00	 8.148148e+00	 1.003704e+01
0	 4.444444e+00	 7.777778e+00	 1.005327e+01
0	 4.444444e+00	 7.851852e+00	 1.005005e+01
0	 4.444444e+00	 7.925926e+00	 1.004694e+01
0	 4.444444e+00	 8.000000e+00	 1.004393e+01
0	 4.444444e+00	 8.074074e+00	 1.004102e+01
0	 4.444444e+00	 8.148148e+00	 1.003820e+01
0	 4.074074e+00	 8.148148e+00	 1.003141e+01
0	 4.074074e+00	 8.222222e+00	 1.002915e+01
0	 4.074074e+00	 8.296296e+00	 1.002697e+01
0	 4.074074e+00	 8.370370e+00	 1.002487e+01
0	 4.074074e+00	 8.444444e+00	 1.002286e+01
0	 4.074074e+00	 8.518519e+00	 1.002093e+01
0	 4.148148e+00	 8.148148e+00	 1.003297e+01
0	 4.148148e+00	 8.222222e+00	 1.003060e+01
0	 4.148148e+00	 8.296296e+00	 1.002832e+01
0	 4.148148e+00	 8.370370e+00	 1.002612e+01
0	 4.148148e+00	 8.444444e+00	 1.002401e+01
0	 4.148148e+00	 8.518519e+00	 1.002199e+01
0	 4.222222e+00	 8.148148e+00	 1.003442e+01
0	 4.222222e+00	 8.222222e+00	 1.003196e+01
0	 4.222222e+00	 8.296296e+00	 1.002958e+01
0	 4.222222e+00	 8.370370e+00	 1.002729e+01
0	 4.222222e+00	 8.444444e+00	 1.002509e+01
0	 4.222222e+00	 8.518519e+00	 1.002298e+01
0	 4.296296e+00	 8.148148e+00	 1.003578e+01
0	 4.296296e+00	 8.222222e+00	 1.003323e+01
0	 4.296296e+00	 8.296296e+00	 1.003076e+01
0	 4.296296e+00	 8.370370e+00	 1.002839e+01
0	 4.296296e+00	 8.444444e+00	 1.002611e+01
0	 4.296296e+00	 8.518519e+00	 1.002391e+01
0	 4.370370e+00	 8.148148e+00	 1.003704e+01
0	 4.370370e+00	 8.222222e+00	 1.003440e+01
0	 4.370370e+00	 8.296296e+00	 1.003186e+01
0	 4.370370e+00	 8.370370e+00	 1.002941e+01
0	 4.370370e+00	 8.444444e+00	 1.002704e+01
0	 4.370370e+00	 8.518519e+00	 1.002477e+01
0	 4.444444e+00	 8.148148e+00	 1.003820e+01
0	 4.444444e+00	 8.222222e+00	 1.003549e+01
0	 4.444444e+00	 8.296296e+00	 1.003287e+01
0	 4.444444e+00	 8.370370e+00	 1.003035e+01
0	 4.444444e+00	 8.444444e+00	 1.002791e+01
0	 4.444444e+00	 8.518519e+00	 1.002556e+01
0	 4.074074e+00	 8.518519e+00	 1.002093e+01
0	 4.074074e+00	 8.592593e+00	 1.001908e+01
0	 4.074074e+00	 8.666667e+00	 1.001731e+01
0	 4.074074e+00	 8.740741e+00	 1.001562e+01
0	 4.074074e+00	 8.814815e+00	 1.001400e+01
0	 4.074074e+00	 8.888889e+00	 1.001246e+01
0	 4.148148e+00	 8.518519e+00	 1.002199e+01
0	 4.148148e+00	 8.592593e+00	 1.002004e+01
0	 4.148148e+00	 8.666667e+00	 1.001818e+01
0	 4.148148e+00	 8.740741e+00	 1.001641e+01
0	 4.148148e+00	 8.814815e+00	 1.001471e+01
0	 4.148148e+00	 8.888889e+00	 1.001309e+01
0	 4.222222e+00	 8.518519e+00	 1.002298e+01
0	 4.222222e+00	 8.592593e+00	 1.002095e+01
0	 4.222222e+00	 8.666667e+00	 1.001901e+01
0	 4.222222e+00	 8.740741e+00	 1.001715e+01
0	 4.222222e+00	 8.814815e+00	 1.001538e+01
0	 4.222222e+00	 8.888889e+00	 1.001368e+01
0	 4.296296e+00	 8.518519e+00	 1.002391e+01
0	 4.296296e+00	 8.592593e+00	 1.002180e+01
0	 4.296296e+00	 8.666667e+00	 1.001978e+01
0	 4.296296e+00	 8.740741e+00	 1.001785e+01
0	 4.296296e+00	 8.814815e+00	 1.001600e+01
0	 4.296296e+00	 8.888889e+00	 1.001423e+01
0	 4.370370e+00	 8.518519e+00	 1.002477e+01
0	 4.370370e+00	 8.592593e+00	 1.002259e+01
0	 4.370370e+00	 8.666667e+00	 1.002050e+01
0	 4.370370e+00	 8.740741e+00	 1.001849e+01
0	 4.370370e+00	 8.814815e+00	 1.001658e+01
0	 4.370370e+00	 8.888889e+00	 1.001475e+01
0	 4.444444e+00	 8.518519e+00	 1.002556e+01
0	 4.444444e+00	 8.592593e+00	 1.002331e+01
0	 4.444444e+00	 8.666667e+00	 1.002116e+01
0	 4.444444e+00	 8.740741e+00	 1.001909e+01
0	 4.444444e+00	 8.814815e+00	 1.001712e+01
0	 4.444444e+00	 8.888889e+00	 1.001523e+01
0	 4.074074e+00	 8.888889e+00	 1.001246e+01
0	 4.074074e+00	 8.962963e+00	 1.001099e+01
0	 4.074074e+00	 9.037037e+00	 1.000961e+01
0	 4.074074e+00	 9.111111e+00	 1.000832e+01
0	 4.074074e+00	 9.185185e+00	 1.000710e+01
0	 4.074074e+00	 9.259259e+00	 1.000595e+01
0	 4.148148e+00	 8.888889e+00	 1.001309e+01
0	 4.148148e+00	 8.962963e+00	 1.001155e+01
0	 4.148148e+00	 9.037037e+00	 1.001010e+01
0	 4.148148e+00	 9.111111e+00	 1.000873e+01
0	 4.148148e+00	 9.185185e+00	 1.000745e+01
0	 4.148148e+00	 9.259259e+00	 1.000624e+01
0	 4.222222e+00	 8.888889e+00	 1.001368e+01
0	 4.222222e+00	 8.962963e+00	 1.001207e+01
0	 4.222222e+00	 9.037037e+00	 1.001055e+01
0	 4.222222e+00	 9.111111e+00	 1.000913e+01
0	 4.222222e+00	 9.185185e+00	 1.000779e+01
0	 4.222222e+00	 9.259259e+00	 1.000652e+01
0	 4.296296e+00	 8.888889e+00	 1.001423e+01
0	 4.296296e+00	 8.962963e+00	 1.001256e+01
0	 4.296296e+00	 9.037037e+00	 1.001098e+01
0	 4.296296e+00	 9.111111e+00	 1.000950e+01
0	 4.296296e+00	 9.185185e+00	 1.000810e+01
0	 4.296296e+00	 9.259259e+00	 1.000679e+01
0	 4.370370e+00	 8.888889e+00	 1.001475e+01
0	 4.370370e+00	 8.962963e+00	 1.001301e+01
0	 4.370370e+00	 9.037037e+00	 1.001138e+01
0	 4.370370e+00	 9.111111e+00	 1.000984e+01
0	 4.370370e+00	 9.185185e+00	 1.000839e+01
0	 4.370370e+00	 9.259259e+00	 1.000703e+01
0	 4.444444e+00	 8.888889e+00	 1.001523e+01
0	 4.444444e+00	 8.962963e+00	 1.001343e+01
0	 4.444444e+00	 9.037037e+00	 1.001174e+01
0	 4.444444e+00	 9.111111e+00	 1.001015e+01
0	 4.444444e+00	 9.185185e+00	 1.000866e+01
0	 4.444444e+00	 9.259259e+00	 1.000725e+01
0	 4.074074e+00	 9.259259e+00	 1.000595e+01
0	 4.074074e+00	 9.333333e+00	 1.000489e+01
0	 4.074074e+00	 9.407407e+00	 1.000394e+01
0	 4.074074e+00	 9.481481e+00	 1.000308e+01
0	 4.074074e+00	 9.555556e+00	 1.000231e+01
0	 4.074074e+00	 9.629630e+00	 1.000162e+01
0	 4.148148e+00	 9.259259e+00	 1.000624e+01
0	 4.148148e+00	 9.333333e+00	 1.000513e+01
0	 4.148148e+00	 9.407407e+00	 1.000413e+01
0	 4.148148e+00	 9.481481e+00	 1.000323e+01
0	 4.148148e+00	 9.555556e+00	 1.000242e+01
0	 4.148148e+00	 9.629630e+00	 1.000170e+01
0	 4.222222e+00	 9.259259e+00	 1.000652e+01
0	 4.222222e+00	 9.333333e+00	 1.000536e+01
0	 4.222222e+00	 9.407407e+00	 1.000431e+01
0	 4.222222e+00	 9.481481e+00	 1.000337e+01
0	 4.222222e+00	 9.555556e+00	 1.000253e+01
0	 4.222222e+00	 9.629630e+00	 1.000177e+01
0	 4.296296e+00	 9.259259e+00	 1.000679e+01
0	 4.296296e+00	 9.333333e+00	 1.000558e+01
0	 4.296296e+00	 9.407407e+00	 1.000448e+01
0	 4.296296e+00	 9.481481e+00	 1.000350e+01
0	 4.296296e+00	 9.555556e+00	 1.000263e+01
0	 4.296296e+00	 9.629630e+00	 1.000185e+01
0	 4.370370e+00	 9.259259e+00	 1.000703e+01
0	 4.370370e+00	 9.333333e+00	 1.000578e+01
0	 4.370370e+00	 9.407407e+00	 1.000464e+01
0	 4.370370e+00	 9.481481e+00	 1.000363e+01
0	 4.370370e+00	 9.555556e+00	 1.000272e+01
0	 4.370370e+00	 9.629630e+00	 1.000191e+01
0	 4.444444e+00	 9.259259e+00	 1.000725e+01
0	 4.444444e+00	 9.333333e+00	 1.000596e+01
0	 4.444444e+00	 9.407407e+00	 1.000479e+01
0	 4.444444e+00	 9.481481e+00	 1.000374e+01
0	 4.444444e+00	 9.555556e+00	 1.000280e+01
0	 4.444444e+00	 9.629630e+00	 1.000197e+01
0	 4.074074e+00	 9.629630e+00	 1.000162e+01
0	 4.074074e+00	 9.703704e+00	 1.000105e+01
0	 4.074074e+00	 9.777778e+00	 1.000061e+01
0	 4.074074e+00	 9.851852e+00	 1.000029e+01
0	 4.074074e+00	 9.925926e+00	 1.000008e+01
0	 4.074074e+00	 1.000000e+01	 9.999976e+00
0	 4.148148e+00	 9.629630e+00	 1.000170e+01
0	 4.148148e+00	 9.703704e+00	 1.000110e+01
0	 4.148148e+00	 9.777778e+00	 1.000063e+01
0	 4.148148e+00	 9.851852e+00	 1.000030e+01
0	 4.148148e+00	 9.925926e+00	 1.000008e+01
0	 4.148148e+00	 1.000000e+01	 9.999972e+00
0	 4.222222e+00	 9.629630e+00	 1.000177e+01
0	 4.222222e+00	 9.703704e+00	 1.000114e+01
0	 4.222222e+00	 9.777778e+00	 1.000066e+01
0	 4.222222e+00	 9.851852e+00	 1.000031e+01
0	 4.222222e+00	 9.925926e+00	 1.000008e+01
0	 4.222222e+00	 1.000000e+01	 9.999972e+00
0	 4.296296e+00	 9.629630e+00	 1.000185e+01
0	 4.296296e+00	 9.703704e+00	 1.000119e+01
0	 4.296296e+00	 9.777778e+00	 1.000069e+01
0	 4.296296e+00	 9.851852e+00	 1.000032e+01
0	 4.296296e+00	 9.925926e+00	 1.000009e+01
0	 4.296296e+00	 1.000000e+01	 9.999975e+00
0	 4.370370e+00	 9.629630e+00	 1.000191e+01
0	 4.370370e+00	 9.703704e+00	 1.000123e+01
0	 4.370370e+00	 9.777778e+00	 1.000071e+01
0	 4.370370e+00	 9.851852e+00	 1.000034e+01
0	 4.370370e+00	 9.925926e+00	 1.000009e+01
0	 4.370370e+00	 1.000000e+01	 9.999976e+00
0	 4.444444e+00	 9.629630e+00	 1.000197e+01
0	 4.444444e+00	 9.703704e+00	 1.000127e+01
0	 4.444444e+00	 9.777778e+00	 1.000073e+01
0	 4.444444e+00	 9.851852e+00	 1.000034e+01
0	 4.444444e+00	 9.925926e+00	 1.000009e+01
0	 4.444444e+00	 1.000000e+01	 9.999974e+00
0	 4.444444e+00	 0.000000e+00	 1.041656e+01
0	 4.444444e+00	 7.407407e-02	 1.041878e+01
0	 4.444444e+00	 1.481481e-01	 1.042105e+01
0	 4.444444e+00	 2.222222e-01	 1.042365e+01
0	 4.444444e+00	 2.962963e-01	 1.042688e+01
0	 4.444444e+00	 3.703704e-01	 1.043101e+01
0	 4.518519e+00	 0.000000e+00	 1.040211e+01
0	 4.518519e+00	 7.407407e-02	 1.040362e+01
0	 4.518519e+00	 1.481481e-01	 1.040572e+01
0	 4.518519e+00	 2.222222e-01	 1.040843e+01
0	 4.518519e+00	 2.962963e-01	 1.041179e+01
0	 4.518519e+00	 3.703704e-01	 1.041583e+01
0	 4.592593e+00	 0.000000e+00	 1.038879e+01
0	 4.592593e+00	 7.407407e-02	 1.038951e+01
0	 4.592593e+00	 1.481481e-01	 1.039127e+01
0	 4.592593e+00	 2.222222e-01	 1.039391e+01
0	 4.592593e+00	 2.962963e-01	 1.039732e+01
0	 4.592593e+00	 3.703704e-01	 1.040134e+01
0	 4.666667e+00	 0.000000e+00	 1.037631e+01
0	 4.666667e+00	 7.407407e-02	 1.037634e+01
0	 4.666667e+00	 1.481481e-01	 1.037769e+01
0	 4.666667e+00	 2.222222e-01	 1.038015e+01
0	 4.666667e+00	 2.962963e-01	 1.038349e+01
0	 4.666667e+00	 3.703704e-01	 1.038750e+01
0	 4.740741e+00	 0.000000e+00	 1.036435e+01
0	 4.740741e+00	 7.407407e-02	 1.036398e+01
0	 4.740741e+00	 1.481481e-01	 1.036499e+01
0	 4.740741e+00	 2.222222e-01	 1.036718e+01
0	 4.740741e+00	 2.962963e-01	 1.037035e+01
0	 4.740741e+00	 3.703704e-01	 1.037428e+01
0	 4.814815e+00	 0.000000e+00	 1.035264e+01
0	 4.814815e+00	 7.407407e-02	 1.035233e+01
0	 4.814815e+00	 1.481481e-01	 1.035318e+01
0	 4.814815e+00	 2.222222e-01	 1.035508e+01
0	 4.814815e+00	 2.962963e-01	 1.035793e+01
0	 4.814815e+00	 3.703704e-01	 1.036163e+01
0	 4.444444e+00	 3.703704e-01	 1.043101e+01
0	 4.444444e+00	 4.444444e-01	 1.043609e+01
0	 4.444444e+00	 5.185185e-01	 1.044198e+01
0	 4.444444e+00	 5.925926e-01	 1.044874e+01
0	 4.444444e+00	 6.666667e-01	 1.045640e+01
0	 4.444444e+00	 7.407407e-01	 1.046503e+01
0	 4.518519e+00	 3.703704e-01	 1.041583e+01
0	 4.518519e+00	 4.444444e-01	 1.042055e+01
0	 4.518519e+00	 5.185185e-01	 1.042600e+01
0	 4.518519e+00	 5.925926e-01	 1.043228e+01
0	 4.518519e+00	 6.666667e-01	 1.043946e+01
0	 4.518519e+00	 7.407407e-01	 1.044763e+01
0	 4.592593e+00	 3.703704e-01	 1.040134e+01
0	 4.592593e+00	 4.444444e-01	 1.040589e+01
0	 4.592593e+00	 5.185185e-01	 1.041107e+01
0	 4.592593e+00	 5.925926e-01	 1.041698e+01
0	 4.592593e+00	 6.666667e-01	 1.042373e+01
0	 4.592593e+00	 7.407407e-01	 1.043143e+01
0	 4.666667e+00	 3.703704e-01	 1.038750e+01
0	 4.666667e+00	 4.444444e-01	 1.039199e+01
0	 4.666667e+00	 5.185185e-01	 1.039698e+01
0	 4.666667e+00	 5.925926e-01	 1.040261e+01
0	 4.666667e+00	 6.666667e-01	 1.040899e+01
0	 4.666667e+00	 7.407407e-01	 1.041623e+01
0	 4.740741e+00	 3.703704e-01	 1.037428e+01
0	 4.740741e+00	 4.444444e-01	 1.037870e+01
0	 4.740741e+00	 5.185185e-01	 1.038355e+01
0	 4.740741e+00	 5.925926e-01	 1.038895e+01
0	 4.740741e+00	 6.666667e-01	 1.039501e+01
0	 4.740741e+00	 7.407407e-01	 1.040183e+01
0	 4.814815e+00	 3.703704e-01	 1.036163e+01
0	 4.814815e+00	 4.444444e-01	 1.036590e+01
0	 4.814815e+00	 5.185185e-01	 1.037058e+01
0	 4.814815e+00	 5.925926e-01	 1.037577e+01
0	 4.814815e+00	 6.666667e-01	 1.038155e+01
0	 4.814815e+00	 7.407407e-01	 1.038802e+01
0	 4.444444e+00	 7.407407e-01	 1.046503e+01
0	 4.444444e+00	 8.148148e-01	 1.047412e+01
0	 4.444444e+00	 8.888889e-01	 1.048323e+01
0	 4.444444e+00	 9.629630e-01	 1.049247e+01
0	 4.444444e+00	 1.037037e+00	 1.050194e+01
0	 4.444444e+00	 1.111111e+00	 1.051175e+01
0	 4.518519e+00	 7.407407e-01	 1.044763e+01
0	 4.518519e+00	 8.148148e-01	 1.045629e+01
0	 4.518519e+00	 8.888889e-01	 1.046497e+01
0	 4.518519e+00	 9.629630e-01	 1.047377e+01
0	 4.518519e+00	 1.037037e+00	 1.048283e+01
0	 4.518519e+00	 1.111111e+00	 1.049226e+01
0	 4.592593e+00	 7.407407e-01	 1.043143e+01
0	 4.592593e+00	 8.148148e-01	 1.043961e+01
0	 4.592593e+00	 8.888889e-01	 1.044780e+01
0	 4.592593e+00	 9.629630e-01	 1.045612e+01
0	 4.592593e+00	 1.037037e+00	 1.046471e+01
0	 4.592593e+00	 1.111111e+00	 1.047369e+01
0	 4.666667e+00	 7.407407e-01	 1.041623e+01
0	 4.666667e+00	 8.148148e-01	 1.042391e+01
0	 4.666667e+00	 8.888889e-01	 1.043161e+01
0	 4.666667e+00	 9.629630e-01	 1.043945e+01
0	 4.666667e+00	 1.037037e+00	 1.044755e+01
0	 4.666667e+00	 1.111111e+00	 1.045605e+01
0	 4.740741e+00	 7.407407e-01	 1.040183e+01
0	 4.740741e+00	 8.148148e-01	 1.040905e+01
0	 4.740741e+00	 8.888889e-01	 1.041629e+01
0	 4.740741e+00	 9.629630e-01	 1.042367e+01
0	 4.740741e+00	 1.037037e+00	 1.043131e+01
0	 4.740741e+00	 1.111111e+00	 1.043933e+01
0	 4.814815e+00	 7.407407e-01	 1.038802e+01
0	 4.814815e+00	 8.148148e-01	 1.039484e+01
0	 4.814815e+00	 8.888889e-01	 1.040171e+01
0	 4.814815e+00	 9.629630e-01	 1.040871e+01
0	 4.814815e+00	 1.037037e+00	 1.041595e+01
0	 4.814815e+00	 1.111111e+00	 1.042354e+01
0	 4.444444e+00	 1.111111e+00	 1.051175e+01
0	 4.444444e+00	 1.185185e+00	 1.052137e+01
0	 4.444444e+00	 1.259259e+00	 1.053034e+01
0	 4.444444e+00	 1.333333e+00	 1.053881e+01
0	 4.444444e+00	 1.407407e+00	 1.054696e+01
0	 4.444444e+00	 1.481481e+00	 1.055495e+01
0	 4.518519e+00	 1.111111e+00	 1.049226e+01
0	 4.518519e+00	 1.185185e+00	 1.050161e+01
0	 4.518519e+00	 1.259259e+00	 1.051043e+01
0	 4.518519e+00	 1.333333e+00	 1.051883e+01
0	 4.518519e+00	 1.407407e+00	 1.052693e+01
0	 4.518519e+00	 1.481481e+00	 1.053483e+01
0	 4.592593e+00	 1.111111e+00	 1.047369e+01
0	 4.592593e+00	 1.185185e+00	 1.048268e+01
0	 4.592593e+00	 1.259259e+00	 1.049125e+01
0	 4.592593e+00	 1.333333e+00	 1.049949e+01
0	 4.592593e+00	 1.407407e+00	 1.050746e+01
0	 4.592593e+00	 1.481481e+00	 1.051525e+01
0	 4.666667e+00	 1.111111e+00	 1.045605e+01
0	 4.666667e+00	 1.185185e+00	 1.046461e+01
0	 4.666667e+00	 1.259259e+00	 1.047285e+01
0	 4.666667e+00	 1.333333e+00	 1.048084e+01
0	 4.666667e+00	 1.407407e+00	 1.048863e+01
0	 4.666667e+00	 1.481481e+00	 1.049626e+01
0	 4.740741e+00	 1.111111e+00	 1.043933e+01
0	 4.740741e+00	 1.185185e+00	 1.044743e+01
0	 4.740741e+00	 1.259259e+00	 1.045530e+01
0	 4.740741e+00	 1.333333e+00	 1.046297e+01
0	 4.740741e+00	 1.407407e+00	 1.047050e+01
0	 4.740741e+00	 1.481481e+00	 1.047794e+01
0	 4.814815e+00	 1.111111e+00	 1.042354e+01
0	 4.814815e+00	 1.185185e+00	 1.043120e+01
0	 4.814815e+00	 1.259259e+00	 1.043865e+01
0	 4.814815e+00	 1.333333e+00	 1.044595e+01
0	 4.814815e+00	 1.407407e+00	 1.045315e+01
0	 4.814815e+00	 1.481481e+00	 1.046033e+01
0	 4.444444e+00	 1.481481e+00	 1.055495e+01
0	 4.444444e+00	 1.555556e+00	 1.056251e+01
0	 4.444444e+00	 1.629630e+00	 1.056928e+01
0	 4.444444e+00	 1.703704e+00	 1.057529e+01
0	 4.444444e+00	 1.777778e+00	 1.058060e+01
0	 4.444444e+00	 1.851852e+00	 1.058525e+01
0	 4.518519e+00	 1.481481e+00	 1.053483e+01
0	 4.518519e+00	 1.555556e+00	 1.054226e+01
0	 4.518519e+00	 1.629630e+00	 1.054890e+01
0	 4.518519e+00	 1.703704e+00	 1.055482e+01
0	 4.518519e+00	 1.777778e+00	 1.056008e+01
0	 4.518519e+00	 1.851852e+00	 1.056476e+01
0	 4.592593e+00	 1.481481e+00	 1.051525e+01
0	 4.592593e+00	 1.555556e+00	 1.052256e+01
0	 4.592593e+00	 1.629630e+00	 1.052912e+01
0	 4.592593e+00	 1.703704e+00	 1.053500e+01
0	 4.592593e+00	 1.777778e+00	 1.054028e+01
0	 4.592593e+00	 1.851852e+00	 1.054506e+01
0	 4.666667e+00	 1.481481e+00	 1.049626e+01
0	 4.666667e+00	 1.555556e+00	 1.050346e+01
0	 4.666667e+00	 1.629630e+00	 1.050995e+01
0	 4.666667e+00	 1.703704e+00	 1.051581e+01
0	 4.666667e+00	 1.777778e+00	 1.052116e+01
0	 4.666667e+00	 1.851852e+00	 1.052607e+01
0	 4.740741e+00	 1.481481e+00	 1.047794e+01
0	 4.740741e+00	 1.555556e+00	 1.048499e+01
0	 4.740741e+00	 1.629630e+00	 1.049141e+01
0	 4.740741e+00	 1.703704e+00	 1.049727e+01
0	 4.740741e+00	 1.777778e+00	 1.050268e+01
0	 4.740741e+00	 1.851852e+00	 1.050772e+01
0	 4.814815e+00	 1.481481e+00	 1.046033e+01
0	 4.814815e+00	 1.555556e+00	 1.046720e+01
0	 4.814815e+00	 1.629630e+00	 1.047352e+01
0	 4.814815e+00	 1.703704e+00	 1.047936e+01
0	 4.814815e+00	 1.777778e+00	 1.048480e+01
0	 4.814815e+00	 1.851852e+00	 1.048993e+01
0	 4.444444e+00	 1.851852e+00	 1.058525e+01
0	 4.444444e+00	 1.925926e+00	 1.058913e+01
0	 4.444444e+00	 2.000000e+00	 1.059214e+01
0	 4.444444e+00	 2.074074e+00	 1.059434e+01
0	 4.444444e+00	 2.148148e+00	 1.059578e+01
0	 4.444444e+00	 2.222222e+00	 1.059651e+01
0	 4.518519e+00	 1.851852e+00	 1.056476e+01
0	 4.518519e+00	 1.925926e+00	 1.056877e+01
0	 4.518519e+00	 2.000000e+00	 1.057200e+01
0	 4.518519e+00	 2.074074e+00	 1.057450e+01
0	 4.518519e+00	 2.148148e+00	 1.057630e+01
0	 4.518519e+00	 2.222222e+00	 1.057745e+01
0	 4.592593e+00	 1.851852e+00	 1.054506e+01
0	 4.592593e+00	 1.925926e+00	 1.054924e+01
0	 4.592593e+00	 2.000000e+00	 1.055268e+01
0	 4.592593e+00	 2.074074e+00	 1.055542e+01
0	 4.592593e+00	 2.148148e+00	 1.055750e+01
0	 4.592593e+00	 2.222222e+00	 1.055895e+01
0	 4.666667e+00	 1.851852e+00	 1.052607e+01
0	 4.666667e+00	 1.925926e+00	 1.053042e+01
0	 4.666667e+00	 2.000000e+00	 1.053406e+01
0	 4.666667e+00	 2.074074e+00	 1.053700e+01
0	 4.666667e+00	 2.148148e+00	 1.053929e+01
0	 4.666667e+00	 2.222222e+00	 1.054095e+01
0	 4.740741e+00	 1.851852e+00	 1.050772e+01
0	 4.740741e+00	 1.925926e+00	 1.051223e+01
0	 4.740741e+00	 2.000000e+00	 1.051602e+01
0	 4.740741e+00	 2.074074e+00	 1.051913e+01
0	 4.740741e+00	 2.148148e+00	 1.052158e+01
0	 4.740741e+00	 2.222222e+00	 1.052340e+01
0	 4.814815e+00	 1.851852e+00	 1.048993e+01
0	 4.814815e+00	 1.925926e+00	 1.049455e+01
0	 4.814815e+00	 2.000000e+00	 1.049846e+01
0	 4.814815e+00	 2.074074e+00	 1.050169e+01
0	 4.814815e+00	 2.148148e+00	 1.050428e+01
0	 4.814815e+00	 2.222222e+00	 1.050625e+01
0	 4.444444e+00	 2.222222e+00	 1.059651e+01
0	 4.444444e+00	 2.296296e+00	 1.059644e+01
0	 4.444444e+00	 2.370370e+00	 1.059549e+01
0	 4.444444e+00	 2.444444e+00	 1.059363e+01
0	 4.444444e+00	 2.518519e+00	 1.059086e+01
0	 4.444444e+00	 2.592593e+00	 1.058719e+01
0	 4.518519e+00	 2.222222e+00	 1.057745e+01
0	 4.518519e+00	 2.296296e+00	 1.057785e+01
0	 4.518519e+00	 2.370370e+00	 1.057736e+01
0	 4.518519e+00	 2.444444e+00	 1.057599e+01
0	 4.518519e+00	 2.518519e+00	 1.057376e+01
0	 4.518519e+00	 2.592593e+00	 1.057065e+01
0	 4.592593e+00	 2.222222e+00	 1.055895e+01
0	 4.592593e+00	 2.296296e+00	 1.055967e+01
0	 4.592593e+00	 2.370370e+00	 1.055956e+01
0	 4.592593e+00	 2.444444e+00	 1.055863e+01
0	 4.592593e+00	 2.518519e+00	 1.055689e+01
0	 4.592593e+00	 2.592593e+00	 1.055434e+01
0	 4.666667e+00	 2.222222e+00	 1.054095e+01
0	 4.666667e+00	 2.296296e+00	 1.054191e+01
0	 4.666667e+00	 2.370370e+00	 1.054212e+01
0	 4.666667e+00	 2.444444e+00	 1.054157e+01
0	 4.666667e+00	 2.518519e+00	 1.054028e+01
0	 4.666667e+00	 2.592593e+00	 1.053828e+01
0	 4.740741e+00	 2.222222e+00	 1.052340e+01
0	 4.740741e+00	 2.296296e+00	 1.052456e+01
0	 4.740741e+00	 2.370370e+00	 1.052503e+01
0	 4.740741e+00	 2.444444e+00	 1.052483e+01
0	 4.740741e+00	 2.518519e+00	 1.052396e+01
0	 4.740741e+00	 2.592593e+00	 1.052246e+01
0	 4.814815e+00	 2.222222e+00	 1.050625e+01
0	 4.814815e+00	 2.296296e+00	 1.050760e+01
0	 4.814815e+00	 2.370370e+00	 1.050833e+01
0	 4.814815e+00	 2.444444e+00	 1.050844e+01
0	 4.814815e+00	 2.518519e+00	 1.050796e+01
0	 4.814815e+00	 2.592593e+00	 1.050690e+01
0	 4.444444e+00	 2.592593e+00	 1.058719e+01
0	 4.444444e+00	 2.666667e+00	 1.058278e+01
0	 4.444444e+00	 2.740741e+00	 1.057779e+01
0	 4.444444e+00	 2.814815e+00	 1.057219e+01
0	 4.444444e+00	 2.888889e+00	 1.056597e+01
0	 4.444444e+00	 2.962963e+00	 1.055912e+01
0	 4.518519e+00	 2.592593e+00	 1.057065e+01
0	 4.518519e+00	 2.666667e+00	 1.056685e+01
0	 4.518519e+00	 2.740741e+00	 1.056248e+01
0	 4.518519e+00	 2.814815e+00	 1.055754e+01
0	 4.518519e+00	 2.888889e+00	 1.055201e+01
0	 4.518519e+00	 2.962963e+00	 1.054587e+01
0	 4.592593e+00	 2.592593e+00	 1.055434e+01
0	 4.592593e+00	 2.666667e+00	 1.055113e+01
0	 4.592593e+00	 2.740741e+00	 1.054737e+01
0	 4.592593e+00	 2.814815e+00	 1.054304e+01
0	 4.592593e+00	 2.888889e+00	 1.053811e+01
0	 4.592593e+00	 2.962963e+00	 1.053259e+01
0	 4.666667e+00	 2.592593e+00	 1.053828e+01
0	 4.666667e+00	 2.666667e+00	 1.053564e+01
0	 4.666667e+00	 2.740741e+00	 1.053244e+01
0	 4.666667e+00	 2.814815e+00	 1.052866e+01
0	 4.666667e+00	 2.888889e+00	 1.052428e+01
0	 4.666667e+00	 2.962963e+00	 1.051930e+01
0	 4.740741e+00	 2.592593e+00	 1.052246e+01
0	 4.740741e+00	 2.666667e+00	 1.052035e+01
0	 4.740741e+00	 2.740741e+00	 1.051766e+01
0	 4.740741e+00	 2.814815e+00	 1.051439e+01
0	 4.740741e+00	 2.888889e+00	 1.051051e+01
0	 4.740741e+00	 2.962963e+00	 1.050602e+01
0	 4.814815e+00	 2.592593e+00	 1.050690e+01
0	 4.814815e+00	 2.666667e+00	 1.050526e+01
0	 4.814815e+00	 2.740741e+00	 1.050303e+01
0	 4.814815e+00	 2.814815e+00	 1.050022e+01
0	 4.814815e+00	 2.888889e+00	 1.049680e+01
0	 4.814815e+00	 2.962963e+00	 1.049278e+01
0	 4.444444e+00	 2.962963e+00	 1.055912e+01
0	 4.444444e+00	 3.037037e+00	 1.055173e+01
0	 4.444444e+00	 3.111111e+00	 1.054391e+01
0	 4.444444e+00	 3.185185e+00	 1.053563e+01
0	 4.444444e+00	 3.259259e+00	 1.052683e+01
0	 4.444444e+00	 3.333333e+00	 1.051749e+01
0	 4.518519e+00	 2.962963e+00	 1.054587e+01
0	 4.518519e+00	 3.037037e+00	 1.053919e+01
0	 4.518519e+00	 3.111111e+00	 1.053205e+01
0	 4.518519e+00	 3.185185e+00	 1.052443e+01
0	 4.518519e+00	 3.259259e+00	 1.051629e+01
0	 4.518519e+00	 3.333333e+00	 1.050762e+01
0	 4.592593e+00	 2.962963e+00	 1.053259e+01
0	 4.592593e+00	 3.037037e+00	 1.052652e+01
0	 4.592593e+00	 3.111111e+00	 1.052000e+01
0	 4.592593e+00	 3.185185e+00	 1.051301e+01
0	 4.592593e+00	 3.259259e+00	 1.050551e+01
0	 4.592593e+00	 3.333333e+00	 1.049749e+01
0	 4.666667e+00	 2.962963e+00	 1.051930e+01
0	 4.666667e+00	 3.037037e+00	 1.051378e+01
0	 4.666667e+00	 3.111111e+00	 1.050783e+01
0	 4.666667e+00	 3.185185e+00	 1.050142e+01
0	 4.666667e+00	 3.259259e+00	 1.049453e+01
0	 4.666667e+00	 3.333333e+00	 1.048715e+01
0	 4.740741e+00	 2.962963e+00	 1.050602e+01
0	 4.740741e+00	 3.037037e+00	 1.050101e+01
0	 4.740741e+00	 3.111111e+00	 1.049559e+01
0	 4.740741e+00	 3.185185e+00	 1.048973e+01
0	 4.740741e+00	 3.259259e+00	 1.048343e+01
0	 4.740741e+00	 3.333333e+00	 1.047666e+01
0	 4.814815e+00	 2.962963e+00	 1.049278e+01
0	 4.814815e+00	 3.037037e+00	 1.048825e+01
0	 4.814815e+00	 3.111111e+00	 1.048334e+01
0	 4.814815e+00	 3.185185e+00	 1.047801e+01
0	 4.814815e+00	 3.259259e+00	 1.047226e+01
0	 4.814815e+00	 3.333333e+00	 1.046606e+01
0	 4.444444e+00	 3.333333e+00	 1.051749e+01
0	 4.444444e+00	 3.407407e+00	 1.050779e+01
0	 4.444444e+00	 3.481481e+00	 1.049793e+01
0	 4.444444e+00	 3.555556e+00	 1.048787e+01
0	 4.444444e+00	 3.629630e+00	 1.047759e+01
0	 4.444444e+00	 3.703704e+00	 1.046706e+01
0	 4.518519e+00	 3.333333e+00	 1.050762e+01
0	 4.518519e+00	 3.407407e+00	 1.049859e+01
0	 4.518519e+00	 3.481481e+00	 1.048939e+01
0	 4.518519e+00	 3.555556e+00	 1.047999e+01
0	 4.518519e+00	 3.629630e+00	 1.047036e+01
0	 4.518519e+00	 3.703704e+00	 1.046047e+01
0	 4.592593e+00	 3.333333e+00	 1.049749e+01
0	 4.592593e+00	 3.407407e+00	 1.048912e+01
0	 4.592593e+00	 3.481481e+00	 1.048057e+01
0	 4.592593e+00	 3.555556e+00	 1.047179e+01
0	 4.592593e+00	 3.629630e+00	 1.046277e+01
0	 4.592593e+00	 3.703704e+00	 1.045346e+01
0	 4.666667e+00	 3.333333e+00	 1.048715e+01
0	 4.666667e+00	 3.407407e+00	 1.047943e+01
0	 4.666667e+00	 3.481481e+00	 1.047149e+01
0	 4.666667e+00	 3.555556e+00	 1.046331e+01
0	 4.666667e+00	 3.629630e+00	 1.045485e+01
0	 4.666667e+00	 3.703704e+00	 1.044608e+01
0	 4.740741e+00	 3.333333e+00	 1.047666e+01
0	 4.740741e+00	 3.407407e+00	 1.046955e+01
0	 4.740741e+00	 3.481481e+00	 1.046220e+01
0	 4.740741e+00	 3.555556e+00	 1.045457e+01
0	 4.740741e+00	 3.629630e+00	 1.044664e+01
0	 4.740741e+00	 3.703704e+00	 1.043838e+01
0	 4.814815e+00	 3.333333e+00	 1.046606e+01
0	 4.814815e+00	 3.407407e+00	 1.045952e+01
0	 4.814815e+00	 3.481481e+00	 1.045271e+01
0	 4.814815e+00	 3.555556e+00	 1.044560e+01
0	 4.814815e+00	 3.629630e+00	 1.043818e+01
0	 4.814815e+00	 3.703704e+00	 1.043041e+01
0	 4.444444e+00	 3.703704e+00	 1.046706e+01
0	 4.444444e+00	 3.777778e+00	 1.045639e+01
0	 4.444444e+00	 3.851852e+00	 1.044568e+01
0	 4.444444e+00	 3.925926e+00	 1.043489e+01
0	 4.444444e+00	 4.000000e+00	 1.042399e+01
0	 4.444444e+00	 4.074074e+00	 1.041294e+01
0	 4.518519e+00	 3.703704e+00	 1.046047e+01
0	 4.518519e+00	 3.777778e+00	 1.045041e+01
0	 4.518519e+00	 3.851852e+00	 1.044027e+01
0	 4.518519e+00	 3.925926e+00	 1.043002e+01
0	 4.518519e+00	 4.000000e+00	 1.041963e+01
0	 4.518519e+00	 4.074074e+00	 1.040909e+01
0	 4.592593e+00	 3.703704e+00	 1.045346e+01
0	 4.592593e+00	 3.777778e+00	 1.044396e+01
0	 4.592593e+00	 3.851852e+00	 1.043435e+01
0	 4.592593e+00	 3.925926e+00	 1.042463e+01
0	 4.592593e+00	 4.000000e+00	 1.041476e+01
0	 4.592593e+00	 4.074074e+00	 1.040472e+01
0	 4.666667e+00	 3.703704e+00	 1.044608e+01
0	 4.666667e+00	 3.777778e+00	 1.043710e+01
0	 4.666667e+00	 3.851852e+00	 1.042801e+01
0	 4.666667e+00	 3.925926e+00	 1.041879e+01
0	 4.666667e+00	 4.000000e+00	 1.040943e+01
0	 4.666667e+00	 4.074074e+00	 1.039990e+01
0	 4.740741e+00	 3.703704e+00	 1.043838e+01
0	 4.740741e+00	 3.777778e+00	 1.042989e+01
0	 4.740741e+00	 3.851852e+00	 1.042130e+01
0	 4.740741e+00	 3.925926e+00	 1.041259e+01
0	 4.740741e+00	 4.000000e+00	 1.040372e+01
0	 4.740741e+00	 4.074074e+00	 1.039469e+01
0	 4.814815e+00	 3.703704e+00	 1.043041e+01
0	 4.814815e+00	 3.777778e+00	 1.042242e+01
0	 4.814815e+00	 3.851852e+00	 1.041431e+01
0	 4.814815e+00	 3.925926e+00	 1.040608e+01
0	 4.814815e+00	 4.000000e+00	 1.039770e+01
0	 4.814815e+00	 4.074074e+00	 1.038915e+01
0	 4.444444e+00	 4.074074e+00	 1.041294e+01
0	 4.444444e+00	 4.148148e+00	 1.040188e+01
0	 4.444444e+00	 4.222222e+00	 1.039093e+01
0	 4.444444e+00	 4.296296e+00	 1.038006e+01
0	 4.444444e+00	 4.370370e+00	 1.036927e+01
0	 4.444444e+00	 4.444444e+00	 1.035852e+01
0	 4.518519e+00	 4.074074e+00	 1.040909e+01
0	 4.518519e+00	 4.148148e+00	 1.039851e+01
0	 4.518519e+00	 4.222222e+00	 1.038803e+01
0	 4.518519e+00	 4.296296e+00	 1.037762e+01
0	 4.518519e+00	 4.370370e+00	 1.036726e+01
0	 4.518519e+00	 4.444444e+00	 1.035693e+01
0	 4.592593e+00	 4.074074e+00	 1.040472e+01
0	 4.592593e+00	 4.148148e+00	 1.039464e+01
0	 4.592593e+00	 4.222222e+00	 1.038463e+01
0	 4.592593e+00	 4.296296e+00	 1.037467e+01
0	 4.592593e+00	 4.370370e+00	 1.036473e+01
0	 4.592593e+00	 4.444444e+00	 1.035479e+01
0	 4.666667e+00	 4.074074e+00	 1.039990e+01
0	 4.666667e+00	 4.148148e+00	 1.039032e+01
0	 4.666667e+00	 4.222222e+00	 1.038077e+01
0	 4.666667e+00	 4.296296e+00	 1.037125e+01
0	 4.666667e+00	 4.370370e+00	 1.036171e+01
0	 4.666667e+00	 4.444444e+00	 1.035214e+01
0	 4.740741e+00	 4.074074e+00	 1.039469e+01
0	 4.740741e+00	 4.148148e+00	 1.038559e+01
0	 4.740741e+00	 4.222222e+00	 1.037650e+01
0	 4.740741e+00	 4.296296e+00	 1.036740e+01
0	 4.740741e+00	 4.370370e+00	 1.035826e+01
0	 4.740741e+00	 4.444444e+00	 1.034905e+01
0	 4.814815e+00	 4.074074e+00	 1.038915e+01
0	 4.814815e+00	 4.148148e+00	 1.038052e+01
0	 4.814815e+00	 4.222222e+00	 1.037186e+01
0	 4.814815e+00	 4.296296e+00	 1.036316e+01
0	 4.814815e+00	 4.370370e+00	 1.035440e+01
0	 4.814815e+00	 4.444444e+00	 1.034556e+01
0	 4.444444e+00	 4.444444e+00	 1.035852e+01
0	 4.444444e+00	 4.518519e+00	 1.034788e+01
0	 4.444444e+00	 4.592593e+00	 1.033740e+01
0	 4.444444e+00	 4.666667e+00	 1.032705e+01
0	 4.444444e+00	 4.740741e+00	 1.031682e+01
0	 4.444444e+00	 4.814815e+00	 1.030668e+01
0	 4.518519e+00	 4.444444e+00	 1.035693e+01
0	 4.518519e+00	 4.518519e+00	 1.034667e+01
0	 4.518519e+00	 4.592593e+00	 1.033653e+01
0	 4.518519e+00	 4.666667e+00	 1.032651e+01
0	 4.518519e+00	 4.740741e+00	 1.031657e+01
0	 4.518519e+00	 4.814815e+00	 1.030672e+01
0	 4.592593e+00	 4.444444e+00	 1.035479e+01
0	 4.592593e+00	 4.518519e+00	 1.034489e+01
0	 4.592593e+00	 4.592593e+00	 1.033510e+01
0	 4.592593e+00	 4.666667e+00	 1.032540e+01
0	 4.592593e+00	 4.740741e+00	 1.031577e+01
0	 4.592593e+00	 4.814815e+00	 1.030621e+01
0	 4.666667e+00	 4.444444e+00	 1.035214e+01
0	 4.666667e+00	 4.518519e+00	 1.034260e+01
0	 4.666667e+00	 4.592593e+00	 1.033315e+01
0	 4.666667e+00	 4.666667e+00	 1.032377e+01
0	 4.666667e+00	 4.740741e+00	 1.031447e+01
0	 4.666667e+00	 4.814815e+00	 1.030521e+01
0	 4.740741e+00	 4.444444e+00	 1.034905e+01
0	 4.740741e+00	 4.518519e+00	 1.033986e+01
0	 4.740741e+00	 4.592593e+00	 1.033074e+01
0	 4.740741e+00	 4.666667e+00	 1.032170e+01
0	 4.740741e+00	 4.740741e+00	 1.031271e+01
0	 4.740741e+00	 4.814815e+00	 1.030377e+01
0	 4.814815e+00	 4.444444e+00	 1.034556e+01
0	 4.814815e+00	 4.518519e+00	 1.033672e+01
0	 4.814815e+00	 4.592593e+00	 1.032794e+01
0	 4.814815e+00	 4.666667e+00	 1.031923e+01
0	 4.814815e+00	 4.740741e+00	 1.031056e+01
0	 4.814815e+00	 4.814815e+00	 1.030193e+01
0	 4.444444e+00	 4.814815e+00	 1.030668e+01
0	 4.444444e+00	 4.888889e+00	 1.029669e+01
0	 4.444444e+00	 4.962963e+00	 1.028692e+01
0	 4.444444e+00	 5.037037e+00	 1.027735e+01
0	 4.444444e+00	 5.111111e+00	 1.026797e+01
0	 4.444444e+00	 5.185185e+00	 1.025878e+01
0	 4.518519e+00	 4.814815e+00	 1.030672e+01
0	 4.518519e+00	 4.888889e+00	 1.029699e+01
0	 4.518519e+00	 4.962963e+00	 1.028747e+01
0	 4.518519e+00	 5.037037e+00	 1.027814e+01
0	 4.518519e+00	 5.111111e+00	 1.026898e+01
0	 4.518519e+00	 5.185185e+00	 1.025998e+01
0	 4.592593e+00	 4.814815e+00	 1.030621e+01
0	 4.592593e+00	 4.888889e+00	 1.029677e+01
0	 4.592593e+00	 4.962963e+00	 1.028751e+01
0	 4.592593e+00	 5.037037e+00	 1.027842e+01
0	 4.592593e+00	 5.111111e+00	 1.026948e+01
0	 4.592593e+00	 5.185185e+00	 1.026068e+01
0	 4.666667e+00	 4.814815e+00	 1.030521e+01
0	 4.666667e+00	 4.888889e+00	 1.029606e+01
0	 4.666667e+00	 4.962963e+00	 1.028707e+01
0	 4.666667e+00	 5.037037e+00	 1.027823e+01
0	 4.666667e+00	 5.111111e+00	 1.026951e+01
0	 4.666667e+00	 5.185185e+00	 1.026090e+01
0	 4.740741e+00	 4.814815e+00	 1.030377e+01
0	 4.740741e+00	 4.888889e+00	 1.029491e+01
0	 4.740741e+00	 4.962963e+00	 1.028619e+01
0	 4.740741e+00	 5.037037e+00	 1.027759e+01
0	 4.740741e+00	 5.111111e+00	 1.026910e+01
0	 4.740741e+00	 5.185185e+00	 1.026070e+01
0	 4.814815e+00	 4.814815e+00	 1.030193e+01
0	 4.814815e+00	 4.888889e+00	 1.029336e+01
0	 4.814815e+00	 4.962963e+00	 1.028491e+01
0	 4.814815e+00	 5.037037e+00	 1.027655e+01
0	 4.814815e+00	 5.111111e+00	 1.026828e+01
0	 4.814815e+00	 5.185185e+00	 1.026009e+01
0	 4.444444e+00	 5.185185e+00	 1.025878e+01
0	 4.444444e+00	 5.259259e+00	 1.024978e+01
0	 4.444444e+00	 5.333333e+00	 1.024099e+01
0	 4.444444e+00	 5.407407e+00	 1.023240e+01
0	 4.444444e+00	 5.481481e+00	 1.022401e+01
0	 4.444444e+00	 5.555556e+00	 1.021580e+01
0	 4.518519e+00	 5.185185e+00	 1.025998e+01
0	 4.518519e+00	 5.259259e+00	 1.025116e+01
0	 4.518519e+00	 5.333333e+00	 1.024252e+01
0	 4.518519e+00	 5.407407e+00	 1.023408e+01
0	 4.518519e+00	 5.481481e+00	 1.022580e+01
0	 4.518519e+00	 5.555556e+00	 1.021770e+01
0	 4.592593e+00	 5.185185e+00	 1.026068e+01
0	 4.592593e+00	 5.259259e+00	 1.025203e+01
0	 4.592593e+00	 5.333333e+00	 1.024356e+01
0	 4.592593e+00	 5.407407e+00	 1.023526e+01
0	 4.592593e+00	 5.481481e+00	 1.022712e+01
0	 4.592593e+00	 5.555556e+00	 1.021914e+01
0	 4.666667e+00	 5.185185e+00	 1.026090e+01
0	 4.666667e+00	 5.259259e+00	 1.025244e+01
0	 4.666667e+00	 5.333333e+00	 1.024414e+01
0	 4.666667e+00	 5.407407e+00	 1.023599e+01
0	 4.666667e+00	 5.481481e+00	 1.022800e+01
0	 4.666667e+00	 5.555556e+00	 1.022016e+01
0	 4.740741e+00	 5.185185e+00	 1.026070e+01
0	 4.740741e+00	 5.259259e+00	 1.025242e+01
0	 4.740741e+00	 5.333333e+00	 1.024429e+01
0	 4.740741e+00	 5.407407e+00	 1.023631e+01
0	 4.740741e+00	 5.481481e+00	 1.022848e+01
0	 4.740741e+00	 5.555556e+00	 1.022078e+01
0	 4.814815e+00	 5.185185e+00	 1.026009e+01
0	 4.814815e+00	 5.259259e+00	 1.025200e+01
0	 4.814815e+00	 5.333333e+00	 1.024406e+01
0	 4.814815e+00	 5.407407e+00	 1.023626e+01
0	 4.814815e+00	 5.481481e+00	 1.022859e+01
0	 4.814815e+00	 5.555556e+00	 1.022105e+01
0	 4.444444e+00	 5.555556e+00	 1.021580e+01
0	 4.444444e+00	 5.629630e+00	 1.020778e+01
0	 4.444444e+00	 5.703704e+00	 1.019998e+01
0	 4.444444e+00	 5.777778e+00	 1.019239e+01
0	 4.444444e+00	 5.851852e+00	 1.018501e+01
0	 4.444444e+00	 5.925926e+00	 1.017783e+01
0	 4.518519e+00	 5.555556e+00	 1.021770e+01
0	 4.518519e+00	 5.629630e+00	 1.020978e+01
0	 4.518519e+00	 5.703704e+00	 1.020206e+01
0	 4.518519e+00	 5.777778e+00	 1.019455e+01
0	 4.518519e+00	 5.851852e+00	 1.018723e+01
0	 4.518519e+00	 5.925926e+00	 1.018010e+01
0	 4.592593e+00	 5.555556e+00	 1.021914e+01
0	 4.592593e+00	 5.629630e+00	 1.021133e+01
0	 4.592593e+00	 5.703704e+00	 1.020372e+01
0	 4.592593e+00	 5.777778e+00	 1.019629e+01
0	 4.592593e+00	 5.851852e+00	 1.018905e+01
0	 4.592593e+00	 5.925926e+00	 1.018198e+01
0	 4.666667e+00	 5.555556e+00	 1.022016e+01
0	 4.666667e+00	 5.629630e+00	 1.021248e+01
0	 4.666667e+00	 5.703704e+00	 1.020498e+01
0	 4.666667e+00	 5.777778e+00	 1.019765e+01
0	 4.666667e+00	 5.851852e+00	 1.019049e+01
0	 4.666667e+00	 5.925926e+00	 1.018348e+01
0	 4.740741e+00	 5.555556e+00	 1.022078e+01
0	 4.740741e+00	 5.629630e+00	 1.021324e+01
0	 4.740741e+00	 5.703704e+00	 1.020586e+01
0	 4.740741e+00	 5.777778e+00	 1.019863e+01
0	 4.740741e+00	 5.851852e+00	 1.019156e+01
0	 4.740741e+00	 5.925926e+00	 1.018463e+01
0	 4.814815e+00	 5.555556e+00	 1.022105e+01
0	 4.814815e+00	 5.629630e+00	 1.021364e+01
0	 4.814815e+00	 5.703704e+00	 1.020638e+01
0	 4.814815e+00	 5.777778e+00	 1.019927e+01
0	 4.814815e+00	 5.851852e+00	 1.019229e+01
0	 4.814815e+00	 5.925926e+00	 1.018545e+01
0	 4.444444e+00	 5.925926e+00	 1.017783e+01
0	 4.444444e+00	 6.000000e+00	 1.017084e+01
0	 4.444444e+00	 6.074074e+00	 1.016405e+01
0	 4.444444e+00	 6.148148e+00	 1.015745e+01
0	 4.444444e+00	 6.222222e+00	 1.015104e+01
0	 4.444444e+00	 6.296296e+00	 1.014481e+01
0	 4.518519e+00	 5.925926e+00	 1.018010e+01
0	 4.518519e+00	 6.000000e+00	 1.017316e+01
0	 4.518519e+00	 6.074074e+00	 1.016640e+01
0	 4.518519e+00	 6.148148e+00	 1.015981e+01
0	 4.518519e+00	 6.222222e+00	 1.015341e+01
0	 4.518519e+00	 6.296296e+00	 1.014718e+01
0	 4.592593e+00	 5.925926e+00	 1.018198e+01
0	 4.592593e+00	 6.000000e+00	 1.017508e+01
0	 4.592593e+00	 6.074074e+00	 1.016836e+01
0	 4.592593e+00	 6.148148e+00	 1.016181e+01
0	 4.592593e+00	 6.222222e+00	 1.015543e+01
0	 4.592593e+00	 6.296296e+00	 1.014921e+01
0	 4.666667e+00	 5.925926e+00	 1.018348e+01
0	 4.666667e+00	 6.000000e+00	 1.017664e+01
0	 4.666667e+00	 6.074074e+00	 1.016997e+01
0	 4.666667e+00	 6.148148e+00	 1.016346e+01
0	 4.666667e+00	 6.222222e+00	 1.015711e+01
0	 4.666667e+00	 6.296296e+00	 1.015093e+01
0	 4.740741e+00	 5.925926e+00	 1.018463e+01
0	 4.740741e+00	 6.000000e+00	 1.017786e+01
0	 4.740741e+00	 6.074074e+00	 1.017124e+01
0	 4.740741e+00	 6.148148e+00	 1.016479e+01
0	 4.740741e+00	 6.222222e+00	 1.015849e+01
0	 4.740741e+00	 6.296296e+00	 1.015234e+01
0	 4.814815e+00	 5.925926e+00	 1.018545e+01
0	 4.814815e+00	 6.000000e+00	 1.017875e+01
0	 4.814815e+00	 6.074074e+00	 1.017221e+01
0	 4.814815e+00	 6.148148e+00	 1.016581e+01
0	 4.814815e+00	 6.222222e+00	 1.015956e+01
0	 4.814815e+00	 6.296296e+00	 1.015346e+01
0	 4.444444e+00	 6.296296e+00	 1.014481e+01
0	 4.444444e+00	 6.370370e+00	 1.013876e+01
0	 4.444444e+00	 6.444444e+00	 1.013288e+01
0	 4.444444e+00	 6.518519e+00	 1.012719e+01
0	 4.444444e+00	 6.592593e+00	 1.012166e+01
0	 4.444444e+00	 6.666667e+00	 1.011631e+01
0	 4.518519e+00	 6.296296e+00	 1.014718e+01
0	 4.518519e+00	 6.370370e+00	 1.014112e+01
0	 4.518519e+00	 6.444444e+00	 1.013524e+01
0	 4.518519e+00	 6.518519e+00	 1.012952e+01
0	 4.518519e+00	 6.592593e+00	 1.012398e+01
0	 4.518519e+00	 6.666667e+00	 1.011860e+01
0	 4.592593e+00	 6.296296e+00	 1.014921e+01
0	 4.592593e+00	 6.370370e+00	 1.014316e+01
0	 4.592593e+00	 6.444444e+00	 1.013728e+01
0	 4.592593e+00	 6.518519e+00	 1.013156e+01
0	 4.592593e+00	 6.592593e+00	 1.012600e+01
0	 4.592593e+00	 6.666667e+00	 1.012060e+01
0	 4.666667e+00	 6.296296e+00	 1.015093e+01
0	 4.666667e+00	 6.370370e+00	 1.014490e+01
0	 4.666667e+00	 6.444444e+00	 1.013903e+01
0	 4.666667e+00	 6.518519e+00	 1.013331e+01
0	 4.666667e+00	 6.592593e+00	 1.012775e+01
0	 4.666667e+00	 6.666667e+00	 1.012234e+01
0	 4.740741e+00	 6.296296e+00	 1.015234e+01
0	 4.740741e+00	 6.370370e+00	 1.014634e+01
0	 4.740741e+00	 6.444444e+00	 1.014049e+01
0	 4.740741e+00	 6.518519e+00	 1.013479e+01
0	 4.740741e+00	 6.592593e+00	 1.012924e+01
0	 4.740741e+00	 6.666667e+00	 1.012383e+01
0	 4.814815e+00	 6.296296e+00	 1.015346e+01
0	 4.814815e+00	 6.370370e+00	 1.014750e+01
0	 4.814815e+00	 6.444444e+00	 1.014168e+01
0	 4.814815e+00	 6.518519e+00	 1.013601e+01
0	 4.814815e+00	 6.592593e+00	 1.013047e+01
0	 4.814815e+00	 6.666667e+00	 1.012506e+01
0	 4.444444e+00	 6.666667e+00	 1.011631e+01
0	 4.444444e+00	 6.740741e+00	 1.011113e+01
0	 4.444444e+00	 6.814815e+00	 1.010609e+01
0	 4.444444e+00	 6.888889e+00	 1.010121e+01
0	 4.444444e+00	 6.962963e+00	 1.009648e+01
0	 4.444444e+00	 7.037037e+00	 1.009190e+01
0	 4.518519e+00	 6.666667e+00	 1.011860e+01
0	 4.518519e+00	 6.740741e+00	 1.011338e+01
0	 4.518519e+00	 6.814815e+00	 1.010830e+01
0	 4.518519e+00	 6.888889e+00	 1.010337e+01
0	 4.518519e+00	 6.962963e+00	 1.009859e+01
0	 4.518519e+00	 7.037037e+00	 1.009396e+01
0	 4.592593e+00	 6.666667e+00	 1.012060e+01
0	 4.592593e+00	 6.740741e+00	 1.011536e+01
0	 4.592593e+00	 6.814815e+00	 1.011025e+01
0	 4.592593e+00	 6.888889e+00	 1.010529e+01
0	 4.592593e+00	 6.962963e+00	 1.010047e+01
0	 4.592593e+00	 7.037037e+00	 1.009580e+01
0	 4.666667e+00	 6.666667e+00	 1.012234e+01
0	 4.666667e+00	 6.740741e+00	 1.011708e+01
0	 4.666667e+00	 6.814815e+00	 1.011195e+01
0	 4.666667e+00	 6.888889e+00	 1.010697e+01
0	 4.666667e+00	 6.962963e+00	 1.010212e+01
0	 4.666667e+00	 7.037037e+00	 1.009742e+01
0	 4.740741e+00	 6.666667e+00	 1.012383e+01
0	 4.740741e+00	 6.740741e+00	 1.011855e+01
0	 4.740741e+00	 6.814815e+00	 1.011342e+01
0	 4.740741e+00	 6.888889e+00	 1.010842e+01
0	 4.740741e+00	 6.962963e+00	 1.010356e+01
0	 4.740741e+00	 7.037037e+00	 1.009883e+01
0	 4.814815e+00	 6.666667e+00	 1.012506e+01
0	 4.814815e+00	 6.740741e+00	 1.011979e+01
0	 4.814815e+00	 6.814815e+00	 1.011466e+01
0	 4.814815e+00	 6.888889e+00	 1.010965e+01
0	 4.814815e+00	 6.962963e+00	 1.010478e+01
0	 4.814815e+00	 7.037037e+00	 1.010004e+01
0	 4.444444e+00	 7.037037e+00	 1.009190e+01
0	 4.444444e+00	 7.111111e+00	 1.008746e+01
0	 4.444444e+00	 7.185185e+00	 1.008315e+01
0	 4.444444e+00	 7.259259e+00	 1.007898e+01
0	 4.444444e+00	 7.333333e+00	 1.007494e+01
0	 4.444444e+00	 7.407407e+00	 1.007103e+01
0	 4.518519e+00	 7.037037e+00	 1.009396e+01
0	 4.518519e+00	 7.111111e+00	 1.008946e+01
0	 4.518519e+00	 7.185185e+00	 1.008510e+01
0	 4.518519e+00	 7.259259e+00	 1.008087e+01
0	 4.518519e+00	 7.333333e+00	 1.007677e+01
0	 4.518519e+00	 7.407407e+00	 1.007280e+01
0	 4.592593e+00	 7.037037e+00	 1.009580e+01
0	 4.592593e+00	 7.111111e+00	 1.009126e+01
0	 4.592593e+00	 7.185185e+00	 1.008684e+01
0	 4.592593e+00	 7.259259e+00	 1.008256e+01
0	 4.592593e+00	 7.333333e+00	 1.007841e+01
0	 4.592593e+00	 7.407407e+00	 1.007438e+01
0	 4.666667e+00	 7.037037e+00	 1.009742e+01
0	 4.666667e+00	 7.111111e+00	 1.009284e+01
0	 4.666667e+00	 7.185185e+00	 1.008839e+01
0	 4.666667e+00	 7.259259e+00	 1.008407e+01
0	 4.666667e+00	 7.333333e+00	 1.007987e+01
0	 4.666667e+00	 7.407407e+00	 1.007579e+01
0	 4.740741e+00	 7.037037e+00	 1.009883e+01
0	 4.740741e+00	 7.111111e+00	 1.009423e+01
0	 4.740741e+00	 7.185185e+00	 1.008975e+01
0	 4.740741e+00	 7.259259e+00	 1.008539e+01
0	 4.740741e+00	 7.333333e+00	 1.008116e+01
0	 4.740741e+00	 7.407407e+00	 1.007704e+01
0	 4.814815e+00	 7.037037e+00	 1.010004e+01
0	 4.814815e+00	 7.111111e+00	 1.009542e+01
0	 4.814815e+00	 7.185185e+00	 1.009092e+01
0	 4.814815e+00	 7.259259e+00	 1.008654e+01
0	 4.814815e+00	 7.333333e+00	 1.008228e+01
0	 4.814815e+00	 7.407407e+00	 1.007813e+01
0	 4.444444e+00	 7.407407e+00	 1.007103e+01
0	 4.444444e+00	 7.481481e+00	 1.006725e+01
0	 4.444444e+00	 7.555556e+00	 1.006359e+01
0	 4.444444e+00	 7.629630e+00	 1.006003e+01
0	 4.444444e+00	 7.703704e+00	 1.005659e+01
0	 4.444444e+00	 7.777778e+00	 1.005327e+01
0	 4.518519e+00	 7.407407e+00	 1.007280e+01
0	 4.518519e+00	 7.481481e+00	 1.006895e+01
0	 4.518519e+00	 7.555556e+00	 1.006521e+01
0	 4.518519e+00	 7.629630e+00	 1.006159e+01
0	 4.518519e+00	 7.703704e+00	 1.005808e+01
0	 4.518519e+00	 7.777778e+00	 1.005469e+01
0	 4.592593e+00	 7.407407e+00	 1.007438e+01
0	 4.592593e+00	 7.481481e+00	 1.007047e+01
0	 4.592593e+00	 7.555556e+00	 1.006668e+01
0	 4.592593e+00	 7.629630e+00	 1.006300e+01
0	 4.592593e+00	 7.703704e+00	 1.005943e+01
0	 4.592593e+00	 7.777778e+00	 1.005597e+01
0	 4.666667e+00	 7.407407e+00	 1.007579e+01
0	 4.666667e+00	 7.481481e+00	 1.007184e+01
0	 4.666667e+00	 7.555556e+00	 1.006799e+01
0	 4.666667e+00	 7.629630e+00	 1.006426e+01
0	 4.666667e+00	 7.703704e+00	 1.006064e+01
0	 4.666667e+00	 7.777778e+00	 1.005712e+01
0	 4.740741e+00	 7.407407e+00	 1.007704e+01
0	 4.740741e+00	 7.481481e+00	 1.007304e+01
0	 4.740741e+00	 7.555556e+00	 1.006916e+01
0	 4.740741e+00	 7.629630e+00	 1.006538e+01
0	 4.740741e+00	 7.703704e+00	 1.006171e+01
0	 4.740741e+00	 7.777778e+00	 1.005815e+01
0	 4.814815e+00	 7.407407e+00	 1.007813e+01
0	 4.814815e+00	 7.481481e+00	 1.007410e+01
0	 4.814815e+00	 7.555556e+00	 1.007017e+01
0	 4.814815e+00	 7.629630e+00	 1.006636e+01
0	 4.814815e+00	 7.703704e+00	 1.006266e+01
0	 4.814815e+00	 7.777778e+00	 1.005906e+01
0	 4.444444e+00	 7.777778e+00	 1.005327e+01
0	 4.444444e+00	 7.851852e+00	 1.005005e+01
0	 4.444444e+00	 7.925926e+00	 1.004694e+01
0	 4.444444e+00	 8.000000e+00	 1.004393e+01
0	 4.444444e+00	 8.074074e+00	 1.004102e+01
0	 4.444444e+00	 8.148148e+00	 1.003820e+01
0	 4.518519e+00	 7.777778e+00	 1.005469e+01
0	 4.518519e+00	 7.851852e+00	 1.005140e+01
0	 4.518519e+00	 7.925926e+00	 1.004821e+01
0	 4.518519e+00	 8.000000e+00	 1.004513e+01
0	 4.518519e+00	 8.074074e+00	 1.004215e+01
0	 4.518519e+00	 8.148148e+00	 1.003927e+01
0	 4.592593e+00	 7.777778e+00	 1.005597e+01
0	 4.592593e+00	 7.851852e+00	 1.005262e+01
0	 4.592593e+00	 7.925926e+00	 1.004937e+01
0	 4.592593e+00	 8.000000e+00	 1.004623e+01
0	 4.592593e+00	 8.074074e+00	 1.004318e+01
0	 4.592593e+00	 8.148148e+00	 1.004024e+01
0	 4.666667e+00	 7.777778e+00	 1.005712e+01
0	 4.666667e+00	 7.851852e+00	 1.005372e+01
0	 4.666667e+00	 7.925926e+00	 1.005042e+01
0	 4.666667e+00	 8.000000e+00	 1.004722e+01
0	 4.666667e+00	 8.074074e+00	 1.004412e+01
0	 4.666667e+00	 8.148148e+00	 1.004111e+01
0	 4.740741e+00	 7.777778e+00	 1.005815e+01
0	 4.740741e+00	 7.851852e+00	 1.005470e+01
0	 4.740741e+00	 7.925926e+00	 1.005135e+01
0	 4.740741e+00	 8.000000e+00	 1.004810e+01
0	 4.740741e+00	 8.074074e+00	 1.004495e+01
0	 4.740741e+00	 8.148148e+00	 1.004190e+01
0	 4.814815e+00	 7.777778e+00	 1.005906e+01
0	 4.814815e+00	 7.851852e+00	 1.005556e+01
0	 4.814815e+00	 7.925926e+00	 1.005217e+01
0	 4.814815e+00	 8.000000e+00	 1.004888e+01
0	 4.814815e+00	 8.074074e+00	 1.004569e+01
0	 4.814815e+00	 8.148148e+00	 1.004259e+01
0	 4.444444e+00	 8.148148e+00	 1.003820e+01
0	 4.444444e+00	 8.222222e+00	 1.003549e+01
0	 4.444444e+00	 8.296296e+00	 1.003287e+01
0	 4.444444e+00	 8.370370e+00	 1.003035e+01
0	 4.444444e+00	 8.444444e+00	 1.002791e+01
0	 4.444444e+00	 8.518519e+00	 1.002556e+01
0	 4.518519e+00	 8.148148e+00	 1.003927e+01
0	 4.518519e+00	 8.222222e+00	 1.003649e+01
0	 4.518519e+00	 8.296296e+00	 1.003380e+01
0	 4.518519e+00	 8.370370e+00	 1.003121e+01
0	 4.518519e+00	 8.444444e+00	 1.002871e+01
0	 4.518519e+00	 8.518519e+00	 1.002629e+01
0	 4.592593e+00	 8.148148e+00	 1.004024e+01
0	 4.592593e+00	 8.222222e+00	 1.003739e+01
0	 4.592593e+00	 8.296296e+00	 1.003464e+01
0	 4.592593e+00	 8.370370e+00	 1.003199e+01
0	 4.592593e+00	 8.444444e+00	 1.002943e+01
0	 4.592593e+00	 8.518519e+00	 1.002696e+01
0	 4.666667e+00	 8.148148e+00	 1.004111e+01
0	 4.666667e+00	 8.222222e+00	 1.003821e+01
0	 4.666667e+00	 8.296296e+00	 1.003541e+01
0	 4.666667e+00	 8.370370e+00	 1.003270e+01
0	 4.666667e+00	 8.444444e+00	 1.003009e+01
0	 4.666667e+00	 8.518519e+00	 1.002757e+01
0	 4.740741e+00	 8.148148e+00	 1.004190e+01
0	 4.740741e+00	 8.222222e+00	 1.003895e+01
0	 4.740741e+00	 8.296296e+00	 1.003609e+01
0	 4.740741e+00	 8.370370e+00	 1.003334e+01
0	 4.740741e+00	 8.444444e+00	 1.003068e+01
0	 4.740741e+00	 8.518519e+00	 1.002811e+01
0	 4.814815e+00	 8.148148e+00	 1.004259e+01
0	 4.814815e+00	 8.222222e+00	 1.003959e+01
0	 4.814815e+00	 8.296296e+00	 1.003670e+01
0	 4.814815e+00	 8.370370e+00	 1.003390e+01
0	 4.814815e+00	 8.444444e+00	 1.003120e+01
0	 4.814815e+00	 8.518519e+00	 1.002859e+01
0	 4.444444e+00	 8.518519e+00	 1.002556e+01
0	 4.444444e+00	 8.592593e+00	 1.002331e+01
0	 4.444444e+00	 8.666667e+00	 1.002116e+01
0	 4.444444e+00	 8.740741e+00	 1.001909e+01
0	 4.444444e+00	 8.814815e+00	 1.001712e+01
0	 4.444444e+00	 8.888889e+00	 1.001523e+01
0	 4.518519e+00	 8.518519e+00	 1.002629e+01
0	 4.518519e+00	 8.592593e+00	 1.002398e+01
0	 4.518519e+00	 8.666667e+00	 1.002176e+01
0	 4.518519e+00	 8.740741e+00	 1.001964e+01
0	 4.518519e+00	 8.814815e+00	 1.001761e+01
0	 4.518519e+00	 8.888889e+00	 1.001566e+01
0	 4.592593e+00	 8.518519e+00	 1.002696e+01
0	 4.592593e+00	 8.592593e+00	 1.002459e+01
0	 4.592593e+00	 8.666667e+00	 1.002232e+01
0	 4.592593e+00	 8.740741e+00	 1.002014e+01
0	 4.592593e+00	 8.814815e+00	 1.001806e+01
0	 4.592593e+00	 8.888889e+00	 1.001606e+01
0	 4.666667e+00	 8.518519e+00	 1.002757e+01
0	 4.666667e+00	 8.592593e+00	 1.002514e+01
0	 4.666667e+00	 8.666667e+00	 1.002282e+01
0	 4.666667e+00	 8.740741e+00	 1.002059e+01
0	 4.666667e+00	 8.814815e+00	 1.001846e+01
0	 4.666667e+00	 8.888889e+00	 1.001642e+01
0	 4.740741e+00	 8.518519e+00	 1.002811e+01
0	 4.740741e+00	 8.592593e+00	 1.002564e+01
0	 4.740741e+00	 8.666667e+00	 1.002327e+01
0	 4.740741e+00	 8.740741e+00	 1.002100e+01
0	 4.740741e+00	 8.814815e+00	 1.001883e+01
0	 4.740741e+00	 8.888889e+00	 1.001675e+01
0	 4.814815e+00	 8.518519e+00	 1.002859e+01
0	 4.814815e+00	 8.592593e+00	 1.002607e+01
0	 4.814815e+00	 8.666667e+00	 1.002367e+01
0	 4.814815e+00	 8.740741e+00	 1.002136e+01
0	 4.814815e+00	 8.814815e+00	 1.001915e+01
0	 4.814815e+00	 8.888889e+00	 1.001703e+01
0	 4.444444e+00	 8.888889e+00	 1.001523e+01
0	 4.444444e+00	 8.962963e+00	 1.001343e+01
0	 4.444444e+00	 9.037037e+00	 1.001174e+01
0	 4.444444e+00	 9.111111e+00	 1.001015e+01
0	 4.444444e+00	 9.185185e+00	 1.000866e+01
0	 4.444444e+00	 9.259259e+00	 1.000725e+01
0	 4.518519e+00	 8.888889e+00	 1.001566e+01
0	 4.518519e+00	 8.962963e+00	 1.001382e+01
0	 4.518519e+00	 9.037037e+00	 1.001208e+01
0	 4.518519e+00	 9.111111e+00	 1.001044e+01
0	 4.518519e+00	 9.185185e+00	 1.000890e+01
0	 4.518519e+00	 9.259259e+00	 1.000746e+01
0	 4.592593e+00	 8.888889e+00	 1.001606e+01
0	 4.592593e+00	 8.962963e+00	 1.001417e+01
0	 4.592593e+00	 9.037037e+00	 1.001238e+01
0	 4.592593e+00	 9.111111e+00	 1.001071e+01
0	 4.592593e+00	 9.185185e+00	 1.000913e+01
0	 4.592593e+00	 9.259259e+00	 1.000764e+01
0	 4.666667e+00	 8.888889e+00	 1.001642e+01
0	 4.666667e+00	 8.962963e+00	 1.001449e+01
0	 4.666667e+00	 9.037037e+00	 1.001266e+01
0	 4.666667e+00	 9.111111e+00	 1.001095e+01
0	 4.666667e+00	 9.185185e+00	 1.000933e+01
0	 4.666667e+00	 9.259259e+00	 1.000781e+01
0	 4.740741e+00	 8.888889e+00	 1.001675e+01
0	 4.740741e+00	 8.962963e+00	 1.001477e+01
0	 4.740741e+00	 9.037037e+00	 1.001291e+01
0	 4.740741e+00	 9.111111e+00	 1.001116e+01
0	 4.740741e+00	 9.185185e+00	 1.000951e+01
0	 4.740741e+00	 9.259259e+00	 1.000797e+01
0	 4.814815e+00	 8.888889e+00	 1.001703e+01
0	 4.814815e+00	 8.962963e+00	 1.001502e+01
0	 4.814815e+00	 9.037037e+00	 1.001313e+01
0	 4.814815e+00	 9.111111e+00	 1.001135e+01
0	 4.814815e+00	 9.185185e+00	 1.000967e+01
0	 4.814815e+00	 9.259259e+00	 1.000810e+01
0	 4.444444e+00	 9.259259e+00	 1.000725e+01
0	 4.444444e+00	 9.333333e+00	 1.000596e+01
0	 4.444444e+00	 9.407407e+00	 1.000479e+01
0	 4.444444e+00	 9.481481e+00	 1.000374e+01
0	 4.444444e+00	 9.555556e+00	 1.000280e+01
0	 4.444444e+00	 9.629630e+00	 1.000197e+01
0	 4.518519e+00	 9.259259e+00	 1.000746e+01
0	 4.518519e+00	 9.333333e+00	 1.000612e+01
0	 4.518519e+00	 9.407407e+00	 1.000492e+01
0	 4.518519e+00	 9.481481e+00	 1.000384e+01
0	 4.518519e+00	 9.555556e+00	 1.000288e+01
0	 4.518519e+00	 9.629630e+00	 1.000202e+01
0	 4.592593e+00	 9.259259e+00	 1.000764e+01
0	 4.592593e+00	 9.333333e+00	 1.000628e+01
0	 4.592593e+00	 9.407407e+00	 1.000504e+01
0	 4.592593e+00	 9.481481e+00	 1.000393e+01
0	 4.592593e+00	 9.555556e+00	 1.000295e+01
0	 4.592593e+00	 9.629630e+00	 1.000207e+01
0	 4.666667e+00	 9.259259e+00	 1.000781e+01
0	 4.666667e+00	 9.333333e+00	 1.000641e+01
0	 4.666667e+00	 9.407407e+00	 1.000515e+01
0	 4.666667e+00	 9.481481e+00	 1.000402e+01
0	 4.666667e+00	 9.555556e+00	 1.000301e+01
0	 4.666667e+00	 9.629630e+00	 1.000212e+01
0	 4.740741e+00	 9.259259e+00	 1.000797e+01
0	 4.740741e+00	 9.333333e+00	 1.000654e+01
0	 4.740741e+00	 9.407407e+00	 1.000525e+01
0	 4.740741e+00	 9.481481e+00	 1.000410e+01
0	 4.740741e+00	 9.555556e+00	 1.000307e+01
0	 4.740741e+00	 9.629630e+00	 1.000216e+01
0	 4.814815e+00	 9.259259e+00	 1.000810e+01
0	 4.814815e+00	 9.333333e+00	 1.000665e+01
0	 4.814815e+00	 9.407407e+00	 1.000534e+01
0	 4.814815e+00	 9.481481e+00	 1.000416e+01
0	 4.814815e+00	 9.555556e+00	 1.000312e+01
0	 4.814815e+00	 9.629630e+00	 1.000219e+01
0	 4.444444e+00	 9.629630e+00	 1.000197e+01
0	 4.444444e+00	 9.703704e+00	 1.000127e+01
0	 4.444444e+00	 9.777778e+00	 1.000073e+01
0	 4.444444e+00	 9.851852e+00	 1.000034e+01
0	 4.444444e+00	 9.925926e+00	 1.000009e+01
0	 4.444444e+00	 1.000000e+01	 9.999974e+00
0	 4.518519e+00	 9.629630e+00	 1.000202e+01
0	 4.518519e+00	 9.703704e+00	 1.000130e+01
0	 4.518519e+00	 9.777778e+00	 1.000075e+01
0	 4.518519e+00	 9.851852e+00	 1.000035e+01
0	 4.518519e+00	 9.925926e+00	 1.000009e+01
0	 4.518519e+00	 1.000000e+01	 9.999971e+00
0	 4.592593e+00	 9.629630e+00	 1.000207e+01
0	 4.592593e+00	 9.703704e+00	 1.000133e+01
0	 4.592593e+00	 9.777778e+00	 1.000077e+01
0	 4.592593e+00	 9.851852e+00	 1.000036e+01
0	 4.592593e+00	 9.925926e+00	 1.000010e+01
0	 4.592593e+00	 1.000000e+01	 9.999971e+00
0	 4.666667e+00	 9.629630e+00	 1.000212e+01
0	 4.666667e+00	 9.703704e+00	 1.000136e+01
0	 4.666667e+00	 9.777778e+00	 1.000078e+01
0	 4.666667e+00	 9.851852e+00	 1.000037e+01
0	 4.666667e+00	 9.925926e+00	 1.000010e+01
0	 4.666667e+00	 1.000000e+01	 9.999973e+00
0	 4.740741e+00	 9.629630e+00	 1.000216e+01
0	 4.740741e+00	 9.703704e+00	 1.000139e+01
0	 4.740741e+00	 9.777778e+00	 1.000080e+01
0	 4.740741e+00	 9.851852e+00	 1.000037e+01
0	 4.740741e+00	 9.925926e+00	 1.000010e+01
0	 4.740741e+00	 1.000000e+01	 9.999974e+00
0	 4.814815e+00	 9.629630e+00	 1.000219e+01
0	 4.814815e+00	 9.703704e+00	 1.000141e+01
0	 4.814815e+00	 9.777778e+00	 1.000081e+01
0	 4.814815e+00	 9.851852e+00	 1.000038e+01
0	 4.814815e+00	 9.925926e+00	 1.000010e+01
0	 4.814815e+00	 1.000000e+01	 9.999973e+00
0	 4.814815e+00	 0.000000e+00	 1.035264e+01
0	 4.814815e+00	 7.407407e-02	 1.035233e+01
0	 4.814815e+00	 1.481481e-01	 1.035318e+01
0	 4.814815e+00	 2.222222e-01	 1.035508e+01
0	 4.814815e+00	 2.962963e-01	 1.035793e+01
0	 4.814815e+00	 3.703704e-01	 1.036163e+01
0	 4.888889e+00	 0.000000e+00	 1.034095e+01
0	 4.888889e+00	 7.407407e-02	 1.034101e+01
0	 4.888889e+00	 1.481481e-01	 1.034186e+01
0	 4.888889e+00	 2.222222e-01	 1.034353e+01
0	 4.888889e+00	 2.962963e-01	 1.034605e+01
0	 4.888889e+00	 3.703704e-01	 1.034944e+01
0	 4.962963e+00	 0.000000e+00	 1.032937e+01
0	 4.962963e+00	 7.407407e-02	 1.032975e+01
0	 4.962963e+00	 1.481481e-01	 1.033066e+01
0	 4.962963e+00	 2.222222e-01	 1.033220e+01
0	 4.962963e+00	 2.962963e-01	 1.033448e+01
0	 4.962963e+00	 3.703704e-01	 1.033759e+01
0	 5.037037e+00	 0.000000e+00	 1.031799e+01
0	 5.037037e+00	 7.407407e-02	 1.031862e+01
0	 5.037037e+00	 1.481481e-01	 1.031960e+01
0	 5.037037e+00	 2.222222e-01	 1.032107e+01
0	 5.037037e+00	 2.962963e-01	 1.032318e+01
0	 5.037037e+00	 3.703704e-01	 1.032607e+01
0	 5.111111e+00	 0.000000e+00	 1.030693e+01
0	 5.111111e+00	 7.407407e-02	 1.030764e+01
0	 5.111111e+00	 1.481481e-01	 1.030866e+01
0	 5.111111e+00	 2.222222e-01	 1.031011e+01
0	 5.111111e+00	 2.962963e-01	 1.031212e+01
0	 5.111111e+00	 3.703704e-01	 1.031485e+01
0	 5.185185e+00	 0.000000e+00	 1.029629e+01
0	 5.185185e+00	 7.407407e-02	 1.029688e+01
0	 5.185185e+00	 1.481481e-01	 1.029785e+01
0	 5.185185e+00	 2.222222e-01	 1.029929e+01
0	 5.185185e+00	 2.962963e-01	 1.030128e+01
0	 5.185185e+00	 3.703704e-01	 1.030391e+01
0	 4.814815e+00	 3.703704e-01	 1.036163e+01
0	 4.814815e+00	 4.444444e-01	 1.036590e+01
0	 4.814815e+00	 5.185185e-01	 1.037058e+01
0	 4.814815e+00	 5.925926e-01	 1.037577e+01
0	 4.814815e+00	 6.666667e-01	 1.038155e+01
0	 4.814815e+00	 7.407407e-01	 1.038802e+01
0	 4.888889e+00	 3.703704e-01	 1.034944e+01
0	 4.888889e+00	 4.444444e-01	 1.035347e+01
0	 4.888889e+00	 5.185185e-01	 1.035793e+01
0	 4.888889e+00	 5.925926e-01	 1.036290e+01
0	 4.888889e+00	 6.666667e-01	 1.036843e+01
0	 4.888889e+00	 7.407407e-01	 1.037458e+01
0	 4.962963e+00	 3.703704e-01	 1.033759e+01
0	 4.962963e+00	 4.444444e-01	 1.034137e+01
0	 4.962963e+00	 5.185185e-01	 1.034560e+01
0	 4.962963e+00	 5.925926e-01	 1.035033e+01
0	 4.962963e+00	 6.666667e-01	 1.035559e+01
0	 4.962963e+00	 7.407407e-01	 1.036144e+01
0	 5.037037e+00	 3.703704e-01	 1.032607e+01
0	 5.037037e+00	 4.444444e-01	 1.032961e+01
0	 5.037037e+00	 5.185185e-01	 1.033360e+01
0	 5.037037e+00	 5.925926e-01	 1.033808e+01
0	 5.037037e+00	 6.666667e-01	 1.034307e+01
0	 5.037037e+00	 7.407407e-01	 1.034861e+01
0	 5.111111e+00	 3.703704e-01	 1.031485e+01
0	 5.111111e+00	 4.444444e-01	 1.031817e+01
0	 5.111111e+00	 5.185185e-01	 1.032194e+01
0	 5.111111e+00	 5.925926e-01	 1.032616e+01
0	 5.111111e+00	 6.666667e-01	 1.033088e+01
0	 5.111111e+00	 7.407407e-01	 1.033612e+01
0	 5.185185e+00	 3.703704e-01	 1.030391e+01
0	 5.185185e+00	 4.444444e-01	 1.030707e+01
0	 5.185185e+00	 5.185185e-01	 1.031062e+01
0	 5.185185e+00	 5.925926e-01	 1.031461e+01
0	 5.185185e+00	 6.666667e-01	 1.031905e+01
0	 5.185185e+00	 7.407407e-01	 1.032399e+01
0	 4.814815e+00	 7.407407e-01	 1.038802e+01
0	 4.814815e+00	 8.148148e-01	 1.039484e+01
0	 4.814815e+00	 8.888889e-01	 1.040171e+01
0	 4.814815e+00	 9.629630e-01	 1.040871e+01
0	 4.814815e+00	 1.037037e+00	 1.041595e+01
0	 4.814815e+00	 1.111111e+00	 1.042354e+01
0	 4.888889e+00	 7.407407e-01	 1.037458e+01
0	 4.888889e+00	 8.148148e-01	 1.038107e+01
0	 4.888889e+00	 8.888889e-01	 1.038763e+01
0	 4.888889e+00	 9.629630e-01	 1.039433e+01
0	 4.888889e+00	 1.037037e+00	 1.040125e+01
0	 4.888889e+00	 1.111111e+00	 1.040847e+01
0	 4.962963e+00	 7.407407e-01	 1.036144e+01
0	 4.962963e+00	 8.148148e-01	 1.036761e+01
0	 4.962963e+00	 8.888889e-01	 1.037388e+01
0	 4.962963e+00	 9.629630e-01	 1.038030e+01
0	 4.962963e+00	 1.037037e+00	 1.038695e+01
0	 4.962963e+00	 1.111111e+00	 1.039389e+01
0	 5.037037e+00	 7.407407e-01	 1.034861e+01
0	 5.037037e+00	 8.148148e-01	 1.035448e+01
0	 5.037037e+00	 8.888889e-01	 1.036047e+01
0	 5.037037e+00	 9.629630e-01	 1.036664e+01
0	 5.037037e+00	 1.037037e+00	 1.037304e+01
0	 5.037037e+00	 1.111111e+00	 1.037974e+01
0	 5.111111e+00	 7.407407e-01	 1.033612e+01
0	 5.111111e+00	 8.148148e-01	 1.034169e+01
0	 5.111111e+00	 8.888889e-01	 1.034740e+01
0	 5.111111e+00	 9.629630e-01	 1.035332e+01
0	 5.111111e+00	 1.037037e+00	 1.035949e+01
0	 5.111111e+00	 1.111111e+00	 1.036596e+01
0	 5.185185e+00	 7.407407e-01	 1.032399e+01
0	 5.185185e+00	 8.148148e-01	 1.032925e+01
0	 5.185185e+00	 8.888889e-01	 1.033468e+01
0	 5.185185e+00	 9.629630e-01	 1.034033e+01
0	 5.185185e+00	 1.037037e+00	 1.034624e+01
0	 5.185185e+00	 1.111111e+00	 1.035248e+01
0	 4.814815e+00	 1.111111e+00	 1.042354e+01
0	 4.814815e+00	 1.185185e+00	 1.043120e+01
0	 4.814815e+00	 1.259259e+00	 1.043865e+01
0	 4.814815e+00	 1.333333e+00	 1.044595e+01
0	 4.814815e+00	 1.407407e+00	 1.045315e+01
0	 4.814815e+00	 1.481481e+00	 1.046033e+01
0	 4.888889e+00	 1.111111e+00	 1.040847e+01
0	 4.888889e+00	 1.185185e+00	 1.041575e+01
0	 4.888889e+00	 1.259259e+00	 1.042282e+01
0	 4.888889e+00	 1.333333e+00	 1.042976e+01
0	 4.888889e+00	 1.407407e+00	 1.043664e+01
0	 4.888889e+00	 1.481481e+00	 1.044354e+01
0	 4.962963e+00	 1.111111e+00	 1.039389e+01
0	 4.962963e+00	 1.185185e+00	 1.040087e+01
0	 4.962963e+00	 1.259259e+00	 1.040764e+01
0	 4.962963e+00	 1.333333e+00	 1.041429e+01
0	 4.962963e+00	 1.407407e+00	 1.042090e+01
0	 4.962963e+00	 1.481481e+00	 1.042754e+01
0	 5.037037e+00	 1.111111e+00	 1.037974e+01
0	 5.037037e+00	 1.185185e+00	 1.038648e+01
0	 5.037037e+00	 1.259259e+00	 1.039300e+01
0	 5.037037e+00	 1.333333e+00	 1.039941e+01
0	 5.037037e+00	 1.407407e+00	 1.040578e+01
0	 5.037037e+00	 1.481481e+00	 1.041219e+01
0	 5.111111e+00	 1.111111e+00	 1.036596e+01
0	 5.111111e+00	 1.185185e+00	 1.037248e+01
0	 5.111111e+00	 1.259259e+00	 1.037879e+01
0	 5.111111e+00	 1.333333e+00	 1.038500e+01
0	 5.111111e+00	 1.407407e+00	 1.039116e+01
0	 5.111111e+00	 1.481481e+00	 1.039737e+01
0	 5.185185e+00	 1.111111e+00	 1.035248e+01
0	 5.185185e+00	 1.185185e+00	 1.035878e+01
0	 5.185185e+00	 1.259259e+00	 1.036491e+01
0	 5.185185e+00	 1.333333e+00	 1.037093e+01
0	 5.185185e+00	 1.407407e+00	 1.037691e+01
0	 5.185185e+00	 1.481481e+00	 1.038294e+01
0	 4.814815e+00	 1.481481e+00	 1.046033e+01
0	 4.814815e+00	 1.555556e+00	 1.046720e+01
0	 4.814815e+00	 1.629630e+00	 1.047352e+01
0	 4.814815e+00	 1.703704e+00	 1.047936e+01
0	 4.814815e+00	 1.777778e+00	 1.048480e+01
0	 4.814815e+00	 1.851852e+00	 1.048993e+01
0	 4.888889e+00	 1.481481e+00	 1.044354e+01
0	 4.888889e+00	 1.555556e+00	 1.045021e+01
0	 4.888889e+00	 1.629630e+00	 1.045639e+01
0	 4.888889e+00	 1.703704e+00	 1.046216e+01
0	 4.888889e+00	 1.777778e+00	 1.046757e+01
0	 4.888889e+00	 1.851852e+00	 1.047271e+01
0	 4.962963e+00	 1.481481e+00	 1.042754e+01
0	 4.962963e+00	 1.555556e+00	 1.043400e+01
0	 4.962963e+00	 1.629630e+00	 1.044002e+01
0	 4.962963e+00	 1.703704e+00	 1.044567e+01
0	 4.962963e+00	 1.777778e+00	 1.045101e+01
0	 4.962963e+00	 1.851852e+00	 1.045607e+01
0	 5.037037e+00	 1.481481e+00	 1.041219e+01
0	 5.037037e+00	 1.555556e+00	 1.041845e+01
0	 5.037037e+00	 1.629630e+00	 1.042430e+01
0	 5.037037e+00	 1.703704e+00	 1.042981e+01
0	 5.037037e+00	 1.777778e+00	 1.043502e+01
0	 5.037037e+00	 1.851852e+00	 1.043997e+01
0	 5.111111e+00	 1.481481e+00	 1.039737e+01
0	 5.111111e+00	 1.555556e+00	 1.040343e+01
0	 5.111111e+00	 1.629630e+00	 1.040911e+01
0	 5.111111e+00	 1.703704e+00	 1.041446e+01
0	 5.111111e+00	 1.777778e+00	 1.041953e+01
0	 5.111111e+00	 1.851852e+00	 1.042436e+01
0	 5.185185e+00	 1.481481e+00	 1.038294e+01
0	 5.185185e+00	 1.555556e+00	 1.038881e+01
0	 5.185185e+00	 1.629630e+00	 1.039433e+01
0	 5.185185e+00	 1.703704e+00	 1.039953e+01
0	 5.185185e+00	 1.777778e+00	 1.040446e+01
0	 5.185185e+00	 1.851852e+00	 1.040917e+01
0	 4.814815e+00	 1.851852e+00	 1.048993e+01
0	 4.814815e+00	 1.925926e+00	 1.049455e+01
0	 4.814815e+00	 2.000000e+00	 1.049846e+01
0	 4.814815e+00	 2.074074e+00	 1.050169e+01
0	 4.814815e+00	 2.148148e+00	 1.050428e+01
0	 4.814815e+00	 2.222222e+00	 1.050625e+01
0	 4.888889e+00	 1.851852e+00	 1.047271e+01
0	 4.888889e+00	 1.925926e+00	 1.047736e+01
0	 4.888889e+00	 2.000000e+00	 1.048134e+01
0	 4.888889e+00	 2.074074e+00	 1.048466e+01
0	 4.888889e+00	 2.148148e+00	 1.048738e+01
0	 4.888889e+00	 2.222222e+00	 1.048951e+01
0	 4.962963e+00	 1.851852e+00	 1.045607e+01
0	 4.962963e+00	 1.925926e+00	 1.046070e+01
0	 4.962963e+00	 2.000000e+00	 1.046469e+01
0	 4.962963e+00	 2.074074e+00	 1.046808e+01
0	 4.962963e+00	 2.148148e+00	 1.047092e+01
0	 4.962963e+00	 2.222222e+00	 1.047323e+01
0	 5.037037e+00	 1.851852e+00	 1.043997e+01
0	 5.037037e+00	 1.925926e+00	 1.044452e+01
0	 5.037037e+00	 2.000000e+00	 1.044850e+01
0	 5.037037e+00	 2.074074e+00	 1.045194e+01
0	 5.037037e+00	 2.148148e+00	 1.045488e+01
0	 5.037037e+00	 2.222222e+00	 1.045737e+01
0	 5.111111e+00	 1.851852e+00	 1.042436e+01
0	 5.111111e+00	 1.925926e+00	 1.042881e+01
0	 5.111111e+00	 2.000000e+00	 1.043276e+01
0	 5.111111e+00	 2.074074e+00	 1.043623e+01
0	 5.111111e+00	 2.148148e+00	 1.043927e+01
0	 5.111111e+00	 2.222222e+00	 1.044190e+01
0	 5.185185e+00	 1.851852e+00	 1.040917e+01
0	 5.185185e+00	 1.925926e+00	 1.041354e+01
0	 5.185185e+00	 2.000000e+00	 1.041745e+01
0	 5.185185e+00	 2.074074e+00	 1.042094e+01
0	 5.185185e+00	 2.148148e+00	 1.042405e+01
0	 5.185185e+00	 2.222222e+00	 1.042681e+01
0	 4.814815e+00	 2.222222e+00	 1.050625e+01
0	 4.814815e+00	 2.296296e+00	 1.050760e+01
0	 4.814815e+00	 2.370370e+00	 1.050833e+01
0	 4.814815e+00	 2.444444e+00	 1.050844e+01
0	 4.814815e+00	 2.518519e+00	 1.050796e+01
0	 4.814815e+00	 2.592593e+00	 1.050690e+01
0	 4.888889e+00	 2.222222e+00	 1.048951e+01
0	 4.888889e+00	 2.296296e+00	 1.049107e+01
0	 4.888889e+00	 2.370370e+00	 1.049205e+01
0	 4.888889e+00	 2.444444e+00	 1.049246e+01
0	 4.888889e+00	 2.518519e+00	 1.049231e+01
0	 4.888889e+00	 2.592593e+00	 1.049162e+01
0	 4.962963e+00	 2.222222e+00	 1.047323e+01
0	 4.962963e+00	 2.296296e+00	 1.047500e+01
0	 4.962963e+00	 2.370370e+00	 1.047622e+01
0	 4.962963e+00	 2.444444e+00	 1.047690e+01
0	 4.962963e+00	 2.518519e+00	 1.047703e+01
0	 4.962963e+00	 2.592593e+00	 1.047665e+01
0	 5.037037e+00	 2.222222e+00	 1.045737e+01
0	 5.037037e+00	 2.296296e+00	 1.045935e+01
0	 5.037037e+00	 2.370370e+00	 1.046079e+01
0	 5.037037e+00	 2.444444e+00	 1.046170e+01
0	 5.037037e+00	 2.518519e+00	 1.046208e+01
0	 5.037037e+00	 2.592593e+00	 1.046196e+01
0	 5.111111e+00	 2.222222e+00	 1.044190e+01
0	 5.111111e+00	 2.296296e+00	 1.044408e+01
0	 5.111111e+00	 2.370370e+00	 1.044571e+01
0	 5.111111e+00	 2.444444e+00	 1.044682e+01
0	 5.111111e+00	 2.518519e+00	 1.044742e+01
0	 5.111111e+00	 2.592593e+00	 1.044752e+01
0	 5.185185e+00	 2.222222e+00	 1.042681e+01
0	 5.185185e+00	 2.296296e+00	 1.042914e+01
0	 5.185185e+00	 2.370370e+00	 1.043094e+01
0	 5.185185e+00	 2.444444e+00	 1.043223e+01
0	 5.185185e+00	 2.518519e+00	 1.043301e+01
0	 5.185185e+00	 2.592593e+00	 1.043332e+01
0	 4.814815e+00	 2.592593e+00	 1.050690e+01
0	 4.814815e+00	 2.666667e+00	 1.050526e+01
0	 4.814815e+00	 2.740741e+00	 1.050303e+01
0	 4.814815e+00	 2.814815e+00	 1.050022e+01
0	 4.814815e+00	 2.888889e+00	 1.049680e+01
0	 4.814815e+00	 2.962963e+00	 1.049278e+01
0	 4.888889e+00	 2.592593e+00	 1.049162e+01
0	 4.888889e+00	 2.666667e+00	 1.049038e+01
0	 4.888889e+00	 2.740741e+00	 1.048856e+01
0	 4.888889e+00	 2.814815e+00	 1.048616e+01
0	 4.888889e+00	 2.888889e+00	 1.048318e+01
0	 4.888889e+00	 2.962963e+00	 1.047961e+01
0	 4.962963e+00	 2.592593e+00	 1.047665e+01
0	 4.962963e+00	 2.666667e+00	 1.047573e+01
0	 4.962963e+00	 2.740741e+00	 1.047426e+01
0	 4.962963e+00	 2.814815e+00	 1.047224e+01
0	 4.962963e+00	 2.888889e+00	 1.046966e+01
0	 4.962963e+00	 2.962963e+00	 1.046653e+01
0	 5.037037e+00	 2.592593e+00	 1.046196e+01
0	 5.037037e+00	 2.666667e+00	 1.046132e+01
0	 5.037037e+00	 2.740741e+00	 1.046015e+01
0	 5.037037e+00	 2.814815e+00	 1.045847e+01
0	 5.037037e+00	 2.888889e+00	 1.045627e+01
0	 5.037037e+00	 2.962963e+00	 1.045356e+01
0	 5.111111e+00	 2.592593e+00	 1.044752e+01
0	 5.111111e+00	 2.666667e+00	 1.044712e+01
0	 5.111111e+00	 2.740741e+00	 1.044624e+01
0	 5.111111e+00	 2.814815e+00	 1.044488e+01
0	 5.111111e+00	 2.888889e+00	 1.044303e+01
0	 5.111111e+00	 2.962963e+00	 1.044070e+01
0	 5.185185e+00	 2.592593e+00	 1.043332e+01
0	 5.185185e+00	 2.666667e+00	 1.043315e+01
0	 5.185185e+00	 2.740741e+00	 1.043254e+01
0	 5.185185e+00	 2.814815e+00	 1.043146e+01
0	 5.185185e+00	 2.888889e+00	 1.042994e+01
0	 5.185185e+00	 2.962963e+00	 1.042797e+01
0	 4.814815e+00	 2.962963e+00	 1.049278e+01
0	 4.814815e+00	 3.037037e+00	 1.048825e+01
0	 4.814815e+00	 3.111111e+00	 1.048334e+01
0	 4.814815e+00	 3.185185e+00	 1.047801e+01
0	 4.814815e+00	 3.259259e+00	 1.047226e+01
0	 4.814815e+00	 3.333333e+00	 1.046606e+01
0	 4.888889e+00	 2.962963e+00	 1.047961e+01
0	 4.888889e+00	 3.037037e+00	 1.047555e+01
0	 4.888889e+00	 3.111111e+00	 1.047112e+01
0	 4.888889e+00	 3.185185e+00	 1.046629e+01
0	 4.888889e+00	 3.259259e+00	 1.046105e+01
0	 4.888889e+00	 3.333333e+00	 1.045538e+01
0	 4.962963e+00	 2.962963e+00	 1.046653e+01
0	 4.962963e+00	 3.037037e+00	 1.046293e+01
0	 4.962963e+00	 3.111111e+00	 1.045896e+01
0	 4.962963e+00	 3.185185e+00	 1.045460e+01
0	 4.962963e+00	 3.259259e+00	 1.044982e+01
0	 4.962963e+00	 3.333333e+00	 1.044462e+01
0	 5.037037e+00	 2.962963e+00	 1.045356e+01
0	 5.037037e+00	 3.037037e+00	 1.045040e+01
0	 5.037037e+00	 3.111111e+00	 1.044686e+01
0	 5.037037e+00	 3.185185e+00	 1.044292e+01
0	 5.037037e+00	 3.259259e+00	 1.043857e+01
0	 5.037037e+00	 3.333333e+00	 1.043380e+01
0	 5.111111e+00	 2.962963e+00	 1.044070e+01
0	 5.111111e+00	 3.037037e+00	 1.043795e+01
0	 5.111111e+00	 3.111111e+00	 1.043480e+01
0	 5.111111e+00	 3.185185e+00	 1.043127e+01
0	 5.111111e+00	 3.259259e+00	 1.042731e+01
0	 5.111111e+00	 3.333333e+00	 1.042294e+01
0	 5.185185e+00	 2.962963e+00	 1.042797e+01
0	 5.185185e+00	 3.037037e+00	 1.042559e+01
0	 5.185185e+00	 3.111111e+00	 1.042281e+01
0	 5.185185e+00	 3.185185e+00	 1.041964e+01
0	 5.185185e+00	 3.259259e+00	 1.041606e+01
0	 5.185185e+00	 3.333333e+00	 1.041206e+01
0	 4.814815e+00	 3.333333e+00	 1.046606e+01
0	 4.814815e+00	 3.407407e+00	 1.045952e+01
0	 4.814815e+00	 3.481481e+00	 1.045271e+01
0	 4.814815e+00	 3.555556e+00	 1.044560e+01
0	 4.814815e+00	 3.629630e+00	 1.043818e+01
0	 4.814815e+00	 3.703704e+00	 1.043041e+01
0	 4.888889e+00	 3.333333e+00	 1.045538e+01
0	 4.888889e+00	 3.407407e+00	 1.044936e+01
0	 4.888889e+00	 3.481481e+00	 1.044305e+01
0	 4.888889e+00	 3.555556e+00	 1.043643e+01
0	 4.888889e+00	 3.629630e+00	 1.042949e+01
0	 4.888889e+00	 3.703704e+00	 1.042221e+01
0	 4.962963e+00	 3.333333e+00	 1.044462e+01
0	 4.962963e+00	 3.407407e+00	 1.043906e+01
0	 4.962963e+00	 3.481481e+00	 1.043321e+01
0	 4.962963e+00	 3.555556e+00	 1.042706e+01
0	 4.962963e+00	 3.629630e+00	 1.042059e+01
0	 4.962963e+00	 3.703704e+00	 1.041379e+01
0	 5.037037e+00	 3.333333e+00	 1.043380e+01
0	 5.037037e+00	 3.407407e+00	 1.042867e+01
0	 5.037037e+00	 3.481481e+00	 1.042326e+01
0	 5.037037e+00	 3.555556e+00	 1.041755e+01
0	 5.037037e+00	 3.629630e+00	 1.041152e+01
0	 5.037037e+00	 3.703704e+00	 1.040518e+01
0	 5.111111e+00	 3.333333e+00	 1.042294e+01
0	 5.111111e+00	 3.407407e+00	 1.041821e+01
0	 5.111111e+00	 3.481481e+00	 1.041321e+01
0	 5.111111e+00	 3.555556e+00	 1.040792e+01
0	 5.111111e+00	 3.629630e+00	 1.040233e+01
0	 5.111111e+00	 3.703704e+00	 1.039642e+01
0	 5.185185e+00	 3.333333e+00	 1.041206e+01
0	 5.185185e+00	 3.407407e+00	 1.040772e+01
0	 5.185185e+00	 3.481481e+00	 1.040311e+01
0	 5.185185e+00	 3.555556e+00	 1.039822e+01
0	 5.185185e+00	 3.629630e+00	 1.039304e+01
0	 5.185185e+00	 3.703704e+00	 1.038756e+01
0	 4.814815e+00	 3.703704e+00	 1.043041e+01
0	 4.814815e+00	 3.777778e+00	 1.042242e+01
0	 4.814815e+00	 3.851852e+00	 1.041431e+01
0	 4.814815e+00	 3.925926e+00	 1.040608e+01
0	 4.814815e+00	 4.000000e+00	 1.039770e+01
0	 4.814815e+00	 4.074074e+00	 1.038915e+01
0	 4.888889e+00	 3.703704e+00	 1.042221e+01
0	 4.888889e+00	 3.777778e+00	 1.041470e+01
0	 4.888889e+00	 3.851852e+00	 1.040707e+01
0	 4.888889e+00	 3.925926e+00	 1.039931e+01
0	 4.888889e+00	 4.000000e+00	 1.039139e+01
0	 4.888889e+00	 4.074074e+00	 1.038330e+01
0	 4.962963e+00	 3.703704e+00	 1.041379e+01
0	 4.962963e+00	 3.777778e+00	 1.040675e+01
0	 4.962963e+00	 3.851852e+00	 1.039958e+01
0	 4.962963e+00	 3.925926e+00	 1.039227e+01
0	 4.962963e+00	 4.000000e+00	 1.038479e+01
0	 4.962963e+00	 4.074074e+00	 1.037712e+01
0	 5.037037e+00	 3.703704e+00	 1.040518e+01
0	 5.037037e+00	 3.777778e+00	 1.039860e+01
0	 5.037037e+00	 3.851852e+00	 1.039188e+01
0	 5.037037e+00	 3.925926e+00	 1.038500e+01
0	 5.037037e+00	 4.000000e+00	 1.037793e+01
0	 5.037037e+00	 4.074074e+00	 1.037066e+01
0	 5.111111e+00	 3.703704e+00	 1.039642e+01
0	 5.111111e+00	 3.777778e+00	 1.039029e+01
0	 5.111111e+00	 3.851852e+00	 1.038399e+01
0	 5.111111e+00	 3.925926e+00	 1.037752e+01
0	 5.111111e+00	 4.000000e+00	 1.037085e+01
0	 5.111111e+00	 4.074074e+00	 1.036396e+01
0	 5.185185e+00	 3.703704e+00	 1.038756e+01
0	 5.185185e+00	 3.777778e+00	 1.038184e+01
0	 5.185185e+00	 3.851852e+00	 1.037594e+01
0	 5.185185e+00	 3.925926e+00	 1.036986e+01
0	 5.185185e+00	 4.000000e+00	 1.036356e+01
0	 5.185185e+00	 4.074074e+00	 1.035705e+01
0	 4.814815e+00	 4.074074e+00	 1.038915e+01
0	 4.814815e+00	 4.148148e+00	 1.038052e+01
0	 4.814815e+00	 4.222222e+00	 1.037186e+01
0	 4.814815e+00	 4.296296e+00	 1.036316e+01
0	 4.814815e+00	 4.370370e+00	 1.035440e+01
0	 4.814815e+00	 4.444444e+00	 1.034556e+01
0	 4.888889e+00	 4.074074e+00	 1.038330e+01
0	 4.888889e+00	 4.148148e+00	 1.037509e+01
0	 4.888889e+00	 4.222222e+00	 1.036685e+01
0	 4.888889e+00	 4.296296e+00	 1.035855e+01
0	 4.888889e+00	 4.370370e+00	 1.035017e+01
0	 4.888889e+00	 4.444444e+00	 1.034169e+01
0	 4.962963e+00	 4.074074e+00	 1.037712e+01
0	 4.962963e+00	 4.148148e+00	 1.036933e+01
0	 4.962963e+00	 4.222222e+00	 1.036148e+01
0	 4.962963e+00	 4.296296e+00	 1.035356e+01
0	 4.962963e+00	 4.370370e+00	 1.034555e+01
0	 4.962963e+00	 4.444444e+00	 1.033744e+01
0	 5.037037e+00	 4.074074e+00	 1.037066e+01
0	 5.037037e+00	 4.148148e+00	 1.036326e+01
0	 5.037037e+00	 4.222222e+00	 1.035579e+01
0	 5.037037e+00	 4.296296e+00	 1.034824e+01
0	 5.037037e+00	 4.370370e+00	 1.034060e+01
0	 5.037037e+00	 4.444444e+00	 1.033286e+01
0	 5.111111e+00	 4.074074e+00	 1.036396e+01
0	 5.111111e+00	 4.148148e+00	 1.035693e+01
0	 5.111111e+00	 4.222222e+00	 1.034983e+01
0	 5.111111e+00	 4.296296e+00	 1.034265e+01
0	 5.111111e+00	 4.370370e+00	 1.033537e+01
0	 5.111111e+00	 4.444444e+00	 1.032799e+01
0	 5.185185e+00	 4.074074e+00	 1.035705e+01
0	 5.185185e+00	 4.148148e+00	 1.035038e+01
0	 5.185185e+00	 4.222222e+00	 1.034364e+01
0	 5.185185e+00	 4.296296e+00	 1.033682e+01
0	 5.185185e+00	 4.370370e+00	 1.032990e+01
0	 5.185185e+00	 4.444444e+00	 1.032286e+01
0	 4.814815e+00	 4.444444e+00	 1.034556e+01
0	 4.814815e+00	 4.518519e+00	 1.033672e+01
0	 4.814815e+00	 4.592593e+00	 1.032794e+01
0	 4.814815e+00	 4.666667e+00	 1.031923e+01
0	 4.814815e+00	 4.740741e+00	 1.031056e+01
0	 4.814815e+00	 4.814815e+00	 1.030193e+01
0	 4.888889e+00	 4.444444e+00	 1.034169e+01
0	 4.888889e+00	 4.518519e+00	 1.033320e+01
0	 4.888889e+00	 4.592593e+00	 1.032477e+01
0	 4.888889e+00	 4.666667e+00	 1.031638e+01
0	 4.888889e+00	 4.740741e+00	 1.030803e+01
0	 4.888889e+00	 4.814815e+00	 1.029969e+01
0	 4.962963e+00	 4.444444e+00	 1.033744e+01
0	 4.962963e+00	 4.518519e+00	 1.032931e+01
0	 4.962963e+00	 4.592593e+00	 1.032122e+01
0	 4.962963e+00	 4.666667e+00	 1.031316e+01
0	 4.962963e+00	 4.740741e+00	 1.030511e+01
0	 4.962963e+00	 4.814815e+00	 1.029706e+01
0	 5.037037e+00	 4.444444e+00	 1.033286e+01
0	 5.037037e+00	 4.518519e+00	 1.032508e+01
0	 5.037037e+00	 4.592593e+00	 1.031733e+01
0	 5.037037e+00	 4.666667e+00	 1.030959e+01
0	 5.037037e+00	 4.740741e+00	 1.030184e+01
0	 5.037037e+00	 4.814815e+00	 1.029408e+01
0	 5.111111e+00	 4.444444e+00	 1.032799e+01
0	 5.111111e+00	 4.518519e+00	 1.032055e+01
0	 5.111111e+00	 4.592593e+00	 1.031313e+01
0	 5.111111e+00	 4.666667e+00	 1.030570e+01
0	 5.111111e+00	 4.740741e+00	 1.029825e+01
0	 5.111111e+00	 4.814815e+00	 1.029076e+01
0	 5.185185e+00	 4.444444e+00	 1.032286e+01
0	 5.185185e+00	 4.518519e+00	 1.031576e+01
0	 5.185185e+00	 4.592593e+00	 1.030866e+01
0	 5.185185e+00	 4.666667e+00	 1.030153e+01
0	 5.185185e+00	 4.740741e+00	 1.029437e+01
0	 5.185185e+00	 4.814815e+00	 1.028716e+01
0	 4.814815e+00	 4.814815e+00	 1.030193e+01
0	 4.814815e+00	 4.888889e+00	 1.029336e+01
0	 4.814815e+00	 4.962963e+00	 1.028491e+01
0	 4.814815e+00	 5.037037e+00	 1.027655e+01
0	 4.814815e+00	 5.111111e+00	 1.026828e+01
0	 4.814815e+00	 5.185185e+00	 1.026009e+01
0	 4.888889e+00	 4.814815e+00	 1.029969e+01
0	 4.888889e+00	 4.888889e+00	 1.029141e+01
0	 4.888889e+00	 4.962963e+00	 1.028322e+01
0	 4.888889e+00	 5.037037e+00	 1.027511e+01
0	 4.888889e+00	 5.111111e+00	 1.026707e+01
0	 4.888889e+00	 5.185185e+00	 1.025909e+01
0	 4.962963e+00	 4.814815e+00	 1.029706e+01
0	 4.962963e+00	 4.888889e+00	 1.028905e+01
0	 4.962963e+00	 4.962963e+00	 1.028112e+01
0	 4.962963e+00	 5.037037e+00	 1.027326e+01
0	 4.962963e+00	 5.111111e+00	 1.026545e+01
0	 4.962963e+00	 5.185185e+00	 1.025770e+01
0	 5.037037e+00	 4.814815e+00	 1.029408e+01
0	 5.037037e+00	 4.888889e+00	 1.028633e+01
0	 5.037037e+00	 4.962963e+00	 1.027866e+01
0	 5.037037e+00	 5.037037e+00	 1.027104e+01
0	 5.037037e+00	 5.111111e+00	 1.026348e+01
0	 5.037037e+00	 5.185185e+00	 1.025595e+01
0	 5.111111e+00	 4.814815e+00	 1.029076e+01
0	 5.111111e+00	 4.888889e+00	 1.028329e+01
0	 5.111111e+00	 4.962963e+00	 1.027587e+01
0	 5.111111e+00	 5.037037e+00	 1.026850e+01
0	 5.111111e+00	 5.111111e+00	 1.026118e+01
0	 5.111111e+00	 5.185185e+00	 1.025388e+01
0	 5.185185e+00	 4.814815e+00	 1.028716e+01
0	 5.185185e+00	 4.888889e+00	 1.027995e+01
0	 5.185185e+00	 4.962963e+00	 1.027279e+01
0	 5.185185e+00	 5.037037e+00	 1.026567e+01
0	 5.185185e+00	 5.111111e+00	 1.025859e+01
0	 5.185185e+00	 5.185185e+00	 1.025152e+01
0	 4.814815e+00	 5.185185e+00	 1.026009e+01
0	 4.814815e+00	 5.259259e+00	 1.025200e+01
0	 4.814815e+00	 5.333333e+00	 1.024406e+01
0	 4.814815e+00	 5.407407e+00	 1.023626e+01
0	 4.814815e+00	 5.481481e+00	 1.022859e+01
0	 4.814815e+00	 5.555556e+00	 1.022105e+01
0	 4.888889e+00	 5.185185e+00	 1.025909e+01
0	 4.888889e+00	 5.259259e+00	 1.025120e+01
0	 4.888889e+00	 5.333333e+00	 1.024346e+01
0	 4.888889e+00	 5.407407e+00	 1.023584e+01
0	 4.888889e+00	 5.481481e+00	 1.022834e+01
0	 4.888889e+00	 5.555556e+00	 1.022094e+01
0	 4.962963e+00	 5.185185e+00	 1.025770e+01
0	 4.962963e+00	 5.259259e+00	 1.025002e+01
0	 4.962963e+00	 5.333333e+00	 1.024248e+01
0	 4.962963e+00	 5.407407e+00	 1.023504e+01
0	 4.962963e+00	 5.481481e+00	 1.022771e+01
0	 4.962963e+00	 5.555556e+00	 1.022048e+01
0	 5.037037e+00	 5.185185e+00	 1.025595e+01
0	 5.037037e+00	 5.259259e+00	 1.024850e+01
0	 5.037037e+00	 5.333333e+00	 1.024115e+01
0	 5.037037e+00	 5.407407e+00	 1.023391e+01
0	 5.037037e+00	 5.481481e+00	 1.022675e+01
0	 5.037037e+00	 5.555556e+00	 1.021968e+01
0	 5.111111e+00	 5.185185e+00	 1.025388e+01
0	 5.111111e+00	 5.259259e+00	 1.024665e+01
0	 5.111111e+00	 5.333333e+00	 1.023951e+01
0	 5.111111e+00	 5.407407e+00	 1.023246e+01
0	 5.111111e+00	 5.481481e+00	 1.022548e+01
0	 5.111111e+00	 5.555556e+00	 1.021857e+01
0	 5.185185e+00	 5.185185e+00	 1.025152e+01
0	 5.185185e+00	 5.259259e+00	 1.024451e+01
0	 5.185185e+00	 5.333333e+00	 1.023757e+01
0	 5.185185e+00	 5.407407e+00	 1.023071e+01
0	 5.185185e+00	 5.481481e+00	 1.022391e+01
0	 5.185185e+00	 5.555556e+00	 1.021717e+01
0	 4.814815e+00	 5.555556e+00	 1.022105e+01
0	 4.814815e+00	 5.629630e+00	 1.021364e+01
0	 4.814815e+00	 5.703704e+00	 1.020638e+01
0	 4.814815e+00	 5.777778e+00	 1.019927e+01
0	 4.814815e+00	 5.851852e+00	 1.019229e+01
0	 4.814815e+00	 5.925926e+00	 1.018545e+01
0	 4.888889e+00	 5.555556e+00	 1.022094e+01
0	 4.888889e+00	 5.629630e+00	 1.021368e+01
0	 4.888889e+00	 5.703704e+00	 1.020655e+01
0	 4.888889e+00	 5.777778e+00	 1.019955e+01
0	 4.888889e+00	 5.851852e+00	 1.019269e+01
0	 4.888889e+00	 5.925926e+00	 1.018594e+01
0	 4.962963e+00	 5.555556e+00	 1.022048e+01
0	 4.962963e+00	 5.629630e+00	 1.021336e+01
0	 4.962963e+00	 5.703704e+00	 1.020636e+01
0	 4.962963e+00	 5.777778e+00	 1.019949e+01
0	 4.962963e+00	 5.851852e+00	 1.019274e+01
0	 4.962963e+00	 5.925926e+00	 1.018610e+01
0	 5.037037e+00	 5.555556e+00	 1.021968e+01
0	 5.037037e+00	 5.629630e+00	 1.021271e+01
0	 5.037037e+00	 5.703704e+00	 1.020585e+01
0	 5.037037e+00	 5.777778e+00	 1.019911e+01
0	 5.037037e+00	 5.851852e+00	 1.019248e+01
0	 5.037037e+00	 5.925926e+00	 1.018595e+01
0	 5.111111e+00	 5.555556e+00	 1.021857e+01
0	 5.111111e+00	 5.629630e+00	 1.021175e+01
0	 5.111111e+00	 5.703704e+00	 1.020503e+01
0	 5.111111e+00	 5.777778e+00	 1.019843e+01
0	 5.111111e+00	 5.851852e+00	 1.019193e+01
0	 5.111111e+00	 5.925926e+00	 1.018552e+01
0	 5.185185e+00	 5.555556e+00	 1.021717e+01
0	 5.185185e+00	 5.629630e+00	 1.021050e+01
0	 5.185185e+00	 5.703704e+00	 1.020394e+01
0	 5.185185e+00	 5.777778e+00	 1.019748e+01
0	 5.185185e+00	 5.851852e+00	 1.019111e+01
0	 5.185185e+00	 5.925926e+00	 1.018483e+01
0	 4.814815e+00	 5.925926e+00	 1.018545e+01
0	 4.814815e+00	 6.000000e+00	 1.017875e+01
0	 4.814815e+00	 6.074074e+00	 1.017221e+01
0	 4.814815e+00	 6.148148e+00	 1.016581e+01
0	 4.814815e+00	 6.222222e+00	 1.015956e+01
0	 4.814815e+00	 6.296296e+00	 1.015346e+01
0	 4.888889e+00	 5.925926e+00	 1.018594e+01
0	 4.888889e+00	 6.000000e+00	 1.017933e+01
0	 4.888889e+00	 6.074074e+00	 1.017286e+01
0	 4.888889e+00	 6.148148e+00	 1.016654e+01
0	 4.888889e+00	 6.222222e+00	 1.016035e+01
0	 4.888889e+00	 6.296296e+00	 1.015430e+01
0	 4.962963e+00	 5.925926e+00	 1.018610e+01
0	 4.962963e+00	 6.000000e+00	 1.017958e+01
0	 4.962963e+00	 6.074074e+00	 1.017320e+01
0	 4.962963e+00	 6.148148e+00	 1.016696e+01
0	 4.962963e+00	 6.222222e+00	 1.016084e+01
0	 4.962963e+00	 6.296296e+00	 1.015485e+01
0	 5.037037e+00	 5.925926e+00	 1.018595e+01
0	 5.037037e+00	 6.000000e+00	 1.017954e+01
0	 5.037037e+00	 6.074074e+00	 1.017326e+01
0	 5.037037e+00	 6.148148e+00	 1.016710e+01
0	 5.037037e+00	 6.222222e+00	 1.016106e+01
0	 5.037037e+00	 6.296296e+00	 1.015514e+01
0	 5.111111e+00	 5.925926e+00	 1.018552e+01
0	 5.111111e+00	 6.000000e+00	 1.017922e+01
0	 5.111111e+00	 6.074074e+00	 1.017304e+01
0	 5.111111e+00	 6.148148e+00	 1.016697e+01
0	 5.111111e+00	 6.222222e+00	 1.016102e+01
0	 5.111111e+00	 6.296296e+00	 1.015517e+01
0	 5.185185e+00	 5.925926e+00	 1.018483e+01
0	 5.185185e+00	 6.000000e+00	 1.017864e+01
0	 5.185185e+00	 6.074074e+00	 1.017257e+01
0	 5.185185e+00	 6.148148e+00	 1.016660e+01
0	 5.185185e+00	 6.222222e+00	 1.016073e+01
0	 5.185185e+00	 6.296296e+00	 1.015496e+01
0	 4.814815e+00	 6.296296e+00	 1.015346e+01
0	 4.814815e+00	 6.370370e+00	 1.014750e+01
0	 4.814815e+00	 6.444444e+00	 1.014168e+01
0	 4.814815e+00	 6.518519e+00	 1.013601e+01
0	 4.814815e+00	 6.592593e+00	 1.013047e+01
0	 4.814815e+00	 6.666667e+00	 1.012506e+01
0	 4.888889e+00	 6.296296e+00	 1.015430e+01
0	 4.888889e+00	 6.370370e+00	 1.014838e+01
0	 4.888889e+00	 6.444444e+00	 1.014260e+01
0	 4.888889e+00	 6.518519e+00	 1.013696e+01
0	 4.888889e+00	 6.592593e+00	 1.013144e+01
0	 4.888889e+00	 6.666667e+00	 1.012606e+01
0	 4.962963e+00	 6.296296e+00	 1.015485e+01
0	 4.962963e+00	 6.370370e+00	 1.014899e+01
0	 4.962963e+00	 6.444444e+00	 1.014326e+01
0	 4.962963e+00	 6.518519e+00	 1.013765e+01
0	 4.962963e+00	 6.592593e+00	 1.013217e+01
0	 4.962963e+00	 6.666667e+00	 1.012681e+01
0	 5.037037e+00	 6.296296e+00	 1.015514e+01
0	 5.037037e+00	 6.370370e+00	 1.014933e+01
0	 5.037037e+00	 6.444444e+00	 1.014365e+01
0	 5.037037e+00	 6.518519e+00	 1.013809e+01
0	 5.037037e+00	 6.592593e+00	 1.013265e+01
0	 5.037037e+00	 6.666667e+00	 1.012733e+01
0	 5.111111e+00	 6.296296e+00	 1.015517e+01
0	 5.111111e+00	 6.370370e+00	 1.014943e+01
0	 5.111111e+00	 6.444444e+00	 1.014381e+01
0	 5.111111e+00	 6.518519e+00	 1.013830e+01
0	 5.111111e+00	 6.592593e+00	 1.013291e+01
0	 5.111111e+00	 6.666667e+00	 1.012763e+01
0	 5.185185e+00	 6.296296e+00	 1.015496e+01
0	 5.185185e+00	 6.370370e+00	 1.014929e+01
0	 5.185185e+00	 6.444444e+00	 1.014374e+01
0	 5.185185e+00	 6.518519e+00	 1.013830e+01
0	 5.185185e+00	 6.592593e+00	 1.013296e+01
0	 5.185185e+00	 6.666667e+00	 1.012773e+01
0	 4.814815e+00	 6.666667e+00	 1.012506e+01
0	 4.814815e+00	 6.740741e+00	 1.011979e+01
0	 4.814815e+00	 6.814815e+00	 1.011466e+01
0	 4.814815e+00	 6.888889e+00	 1.010965e+01
0	 4.814815e+00	 6.962963e+00	 1.010478e+01
0	 4.814815e+00	 7.037037e+00	 1.010004e+01
0	 4.888889e+00	 6.666667e+00	 1.012606e+01
0	 4.888889e+00	 6.740741e+00	 1.012080e+01
0	 4.888889e+00	 6.814815e+00	 1.011567e+01
0	 4.888889e+00	 6.888889e+00	 1.011067e+01
0	 4.888889e+00	 6.962963e+00	 1.010580e+01
0	 4.888889e+00	 7.037037e+00	 1.010105e+01
0	 4.962963e+00	 6.666667e+00	 1.012681e+01
0	 4.962963e+00	 6.740741e+00	 1.012157e+01
0	 4.962963e+00	 6.814815e+00	 1.011646e+01
0	 4.962963e+00	 6.888889e+00	 1.011148e+01
0	 4.962963e+00	 6.962963e+00	 1.010661e+01
0	 4.962963e+00	 7.037037e+00	 1.010186e+01
0	 5.037037e+00	 6.666667e+00	 1.012733e+01
0	 5.037037e+00	 6.740741e+00	 1.012212e+01
0	 5.037037e+00	 6.814815e+00	 1.011704e+01
0	 5.037037e+00	 6.888889e+00	 1.011207e+01
0	 5.037037e+00	 6.962963e+00	 1.010722e+01
0	 5.037037e+00	 7.037037e+00	 1.010248e+01
0	 5.111111e+00	 6.666667e+00	 1.012763e+01
0	 5.111111e+00	 6.740741e+00	 1.012247e+01
0	 5.111111e+00	 6.814815e+00	 1.011741e+01
0	 5.111111e+00	 6.888889e+00	 1.011247e+01
0	 5.111111e+00	 6.962963e+00	 1.010764e+01
0	 5.111111e+00	 7.037037e+00	 1.010292e+01
0	 5.185185e+00	 6.666667e+00	 1.012773e+01
0	 5.185185e+00	 6.740741e+00	 1.012261e+01
0	 5.185185e+00	 6.814815e+00	 1.011760e+01
0	 5.185185e+00	 6.888889e+00	 1.011269e+01
0	 5.185185e+00	 6.962963e+00	 1.010789e+01
0	 5.185185e+00	 7.037037e+00	 1.010319e+01
0	 4.814815e+00	 7.037037e+00	 1.010004e+01
0	 4.814815e+00	 7.111111e+00	 1.009542e+01
0	 4.814815e+00	 7.185185e+00	 1.009092e+01
0	 4.814815e+00	 7.259259e+00	 1.008654e+01
0	 4.814815e+00	 7.333333e+00	 1.008228e+01
0	 4.814815e+00	 7.407407e+00	 1.007813e+01
0	 4.888889e+00	 7.037037e+00	 1.010105e+01
0	 4.888889e+00	 7.111111e+00	 1.009642e+01
0	 4.888889e+00	 7.185185e+00	 1.009191e+01
0	 4.888889e+00	 7.259259e+00	 1.008751e+01
0	 4.888889e+00	 7.333333e+00	 1.008323e+01
0	 4.888889e+00	 7.407407e+00	 1.007906e+01
0	 4.962963e+00	 7.037037e+00	 1.010186e+01
0	 4.962963e+00	 7.111111e+00	 1.009723e+01
0	 4.962963e+00	 7.185185e+00	 1.009271e+01
0	 4.962963e+00	 7.259259e+00	 1.008830e+01
0	 4.962963e+00	 7.333333e+00	 1.008401e+01
0	 4.962963e+00	 7.407407e+00	 1.007982e+01
0	 5.037037e+00	 7.037037e+00	 1.010248e+01
0	 5.037037e+00	 7.111111e+00	 1.009785e+01
0	 5.037037e+00	 7.185185e+00	 1.009334e+01
0	 5.037037e+00	 7.259259e+00	 1.008893e+01
0	 5.037037e+00	 7.333333e+00	 1.008463e+01
0	 5.037037e+00	 7.407407e+00	 1.008044e+01
0	 5.111111e+00	 7.037037e+00	 1.010292e+01
0	 5.111111e+00	 7.111111e+00	 1.009830e+01
0	 5.111111e+00	 7.185185e+00	 1.009380e+01
0	 5.111111e+00	 7.259259e+00	 1.008940e+01
0	 5.111111e+00	 7.333333e+00	 1.008510e+01
0	 5.111111e+00	 7.407407e+00	 1.008091e+01
0	 5.185185e+00	 7.037037e+00	 1.010319e+01
0	 5.185185e+00	 7.111111e+00	 1.009859e+01
0	 5.185185e+00	 7.185185e+00	 1.009410e+01
0	 5.185185e+00	 7.259259e+00	 1.008971e+01
0	 5.185185e+00	 7.333333e+00	 1.008542e+01
0	 5.185185e+00	 7.407407e+00	 1.008124e+01
0	 4.814815e+00	 7.407407e+00	 1.007813e+01
0	 4.814815e+00	 7.481481e+00	 1.007410e+01
0	 4.814815e+00	 7.555556e+00	 1.007017e+01
0	 4.814815e+00	 7.629630e+00	 1.006636e+01
0	 4.814815e+00	 7.703704e+00	 1.006266e+01
0	 4.814815e+00	 7.777778e+00	 1.005906e+01
0	 4.888889e+00	 7.407407e+00	 1.007906e+01
0	 4.888889e+00	 7.481481e+00	 1.007500e+01
0	 4.888889e+00	 7.555556e+00	 1.007105e+01
0	 4.888889e+00	 7.629630e+00	 1.006721e+01
0	 4.888889e+00	 7.703704e+00	 1.006347e+01
0	 4.888889e+00	 7.777778e+00	 1.005984e+01
0	 4.962963e+00	 7.407407e+00	 1.007982e+01
0	 4.962963e+00	 7.481481e+00	 1.007575e+01
0	 4.962963e+00	 7.555556e+00	 1.007178e+01
0	 4.962963e+00	 7.629630e+00	 1.006792e+01
0	 4.962963e+00	 7.703704e+00	 1.006416e+01
0	 4.962963e+00	 7.777778e+00	 1.006050e+01
0	 5.037037e+00	 7.407407e+00	 1.008044e+01
0	 5.037037e+00	 7.481481e+00	 1.007635e+01
0	 5.037037e+00	 7.555556e+00	 1.007237e+01
0	 5.037037e+00	 7.629630e+00	 1.006849e+01
0	 5.037037e+00	 7.703704e+00	 1.006472e+01
0	 5.037037e+00	 7.777778e+00	 1.006104e+01
0	 5.111111e+00	 7.407407e+00	 1.008091e+01
0	 5.111111e+00	 7.481481e+00	 1.007682e+01
0	 5.111111e+00	 7.555556e+00	 1.007283e+01
0	 5.111111e+00	 7.629630e+00	 1.006895e+01
0	 5.111111e+00	 7.703704e+00	 1.006516e+01
0	 5.111111e+00	 7.777778e+00	 1.006147e+01
0	 5.185185e+00	 7.407407e+00	 1.008124e+01
0	 5.185185e+00	 7.481481e+00	 1.007715e+01
0	 5.185185e+00	 7.555556e+00	 1.007316e+01
0	 5.185185e+00	 7.629630e+00	 1.006928e+01
0	 5.185185e+00	 7.703704e+00	 1.006549e+01
0	 5.185185e+00	 7.777778e+00	 1.006179e+01
0	 4.814815e+00	 7.777778e+00	 1.005906e+01
0	 4.814815e+00	 7.851852e+00	 1.005556e+01
0	 4.814815e+00	 7.925926e+00	 1.005217e+01
0	 4.814815e+00	 8.000000e+00	 1.004888e+01
0	 4.814815e+00	 8.074074e+00	 1.004569e+01
0	 4.814815e+00	 8.148148e+00	 1.004259e+01
0	 4.888889e+00	 7.777778e+00	 1.005984e+01
0	 4.888889e+00	 7.851852e+00	 1.005631e+01
0	 4.888889e+00	 7.925926e+00	 1.005288e+01
0	 4.888889e+00	 8.000000e+00	 1.004956e+01
0	 4.888889e+00	 8.074074e+00	 1.004633e+01
0	 4.888889e+00	 8.148148e+00	 1.004319e+01
0	 4.962963e+00	 7.777778e+00	 1.006050e+01
0	 4.962963e+00	 7.851852e+00	 1.005694e+01
0	 4.962963e+00	 7.925926e+00	 1.005349e+01
0	 4.962963e+00	 8.000000e+00	 1.005013e+01
0	 4.962963e+00	 8.074074e+00	 1.004687e+01
0	 4.962963e+00	 8.148148e+00	 1.004371e+01
0	 5.037037e+00	 7.777778e+00	 1.006104e+01
0	 5.037037e+00	 7.851852e+00	 1.005746e+01
0	 5.037037e+00	 7.925926e+00	 1.005399e+01
0	 5.037037e+00	 8.000000e+00	 1.005061e+01
0	 5.037037e+00	 8.074074e+00	 1.004733e+01
0	 5.037037e+00	 8.148148e+00	 1.004414e+01
0	 5.111111e+00	 7.777778e+00	 1.006147e+01
0	 5.111111e+00	 7.851852e+00	 1.005788e+01
0	 5.111111e+00	 7.925926e+00	 1.005438e+01
0	 5.111111e+00	 8.000000e+00	 1.005099e+01
0	 5.111111e+00	 8.074074e+00	 1.004769e+01
0	 5.111111e+00	 8.148148e+00	 1.004448e+01
0	 5.185185e+00	 7.777778e+00	 1.006179e+01
0	 5.185185e+00	 7.851852e+00	 1.005819e+01
0	 5.185185e+00	 7.925926e+00	 1.005469e+01
0	 5.185185e+00	 8.000000e+00	 1.005128e+01
0	 5.185185e+00	 8.074074e+00	 1.004797e+01
0	 5.185185e+00	 8.148148e+00	 1.004475e+01
0	 4.814815e+00	 8.148148e+00	 1.004259e+01
0	 4.814815e+00	 8.222222e+00	 1.003959e+01
0	 4.814815e+00	 8.296296e+00	 1.003670e+01
0	 4.814815e+00	 8.370370e+00	 1.003390e+01
0	 4.814815e+00	 8.444444e+00	 1.003120e+01
0	 4.814815e+00	 8.518519e+00	 1.002859e+01
0	 4.888889e+00	 8.148148e+00	 1.004319e+01
0	 4.888889e+00	 8.222222e+00	 1.004016e+01
0	 4.888889e+00	 8.296296e+00	 1.003723e+01
0	 4.888889e+00	 8.370370e+00	 1.003439e+01
0	 4.888889e+00	 8.444444e+00	 1.003165e+01
0	 4.888889e+00	 8.518519e+00	 1.002901e+01
0	 4.962963e+00	 8.148148e+00	 1.004371e+01
0	 4.962963e+00	 8.222222e+00	 1.004064e+01
0	 4.962963e+00	 8.296296e+00	 1.003768e+01
0	 4.962963e+00	 8.370370e+00	 1.003481e+01
0	 4.962963e+00	 8.444444e+00	 1.003204e+01
0	 4.962963e+00	 8.518519e+00	 1.002937e+01
0	 5.037037e+00	 8.148148e+00	 1.004414e+01
0	 5.037037e+00	 8.222222e+00	 1.004105e+01
0	 5.037037e+00	 8.296296e+00	 1.003806e+01
0	 5.037037e+00	 8.370370e+00	 1.003517e+01
0	 5.037037e+00	 8.444444e+00	 1.003237e+01
0	 5.037037e+00	 8.518519e+00	 1.002967e+01
0	 5.111111e+00	 8.148148e+00	 1.004448e+01
0	 5.111111e+00	 8.222222e+00	 1.004137e+01
0	 5.111111e+00	 8.296296e+00	 1.003837e+01
0	 5.111111e+00	 8.370370e+00	 1.003546e+01
0	 5.111111e+00	 8.444444e+00	 1.003264e+01
0	 5.111111e+00	 8.518519e+00	 1.002991e+01
0	 5.185185e+00	 8.148148e+00	 1.004475e+01
0	 5.185185e+00	 8.222222e+00	 1.004163e+01
0	 5.185185e+00	 8.296296e+00	 1.003860e+01
0	 5.185185e+00	 8.370370e+00	 1.003568e+01
0	 5.185185e+00	 8.444444e+00	 1.003285e+01
0	 5.185185e+00	 8.518519e+00	 1.003011e+01
0	 4.814815e+00	 8.518519e+00	 1.002859e+01
0	 4.814815e+00	 8.592593e+00	 1.002607e+01
0	 4.814815e+00	 8.666667e+00	 1.002367e+01
0	 4.814815e+00	 8.740741e+00	 1.002136e+01
0	 4.814815e+00	 8.814815e+00	 1.001915e+01
0	 4.814815e+00	 8.888889e+00	 1.001703e+01
0	 4.888889e+00	 8.518519e+00	 1.002901e+01
0	 4.888889e+00	 8.592593e+00	 1.002646e+01
0	 4.888889e+00	 8.666667e+00	 1.002402e+01
0	 4.888889e+00	 8.740741e+00	 1.002168e+01
0	 4.888889e+00	 8.814815e+00	 1.001943e+01
0	 4.888889e+00	 8.888889e+00	 1.001729e+01
0	 4.962963e+00	 8.518519e+00	 1.002937e+01
0	 4.962963e+00	 8.592593e+00	 1.002679e+01
0	 4.962963e+00	 8.666667e+00	 1.002432e+01
0	 4.962963e+00	 8.740741e+00	 1.002195e+01
0	 4.962963e+00	 8.814815e+00	 1.001968e+01
0	 4.962963e+00	 8.888889e+00	 1.001750e+01
0	 5.037037e+00	 8.518519e+00	 1.002967e+01
0	 5.037037e+00	 8.592593e+00	 1.002706e+01
0	 5.037037e+00	 8.666667e+00	 1.002457e+01
0	 5.037037e+00	 8.740741e+00	 1.002218e+01
0	 5.037037e+00	 8.814815e+00	 1.001988e+01
0	 5.037037e+00	 8.888889e+00	 1.001768e+01
0	 5.111111e+00	 8.518519e+00	 1.002991e+01
0	 5.111111e+00	 8.592593e+00	 1.002729e+01
0	 5.111111e+00	 8.666667e+00	 1.002477e+01
0	 5.111111e+00	 8.740741e+00	 1.002236e+01
0	 5.111111e+00	 8.814815e+00	 1.002005e+01
0	 5.111111e+00	 8.888889e+00	 1.001783e+01
0	 5.185185e+00	 8.518519e+00	 1.003011e+01
0	 5.185185e+00	 8.592593e+00	 1.002747e+01
0	 5.185185e+00	 8.666667e+00	 1.002493e+01
0	 5.185185e+00	 8.740741e+00	 1.002251e+01
0	 5.185185e+00	 8.814815e+00	 1.002018e+01
0	 5.185185e+00	 8.888889e+00	 1.001795e+01
0	 4.814815e+00	 8.888889e+00	 1.001703e+01
0	 4.814815e+00	 8.962963e+00	 1.001502e+01
0	 4.814815e+00	 9.037037e+00	 1.001313e+01
0	 4.814815e+00	 9.111111e+00	 1.001135e+01
0	 4.814815e+00	 9.185185e+00	 1.000967e+01
0	 4.814815e+00	 9.259259e+00	 1.000810e+01
0	 4.888889e+00	 8.888889e+00	 1.001729e+01
0	 4.888889e+00	 8.962963e+00	 1.001524e+01
0	 4.888889e+00	 9.037037e+00	 1.001332e+01
0	 4.888889e+00	 9.111111e+00	 1.001151e+01
0	 4.888889e+00	 9.185185e+00	 1.000981e+01
0	 4.888889e+00	 9.259259e+00	 1.000822e+01
0	 4.962963e+00	 8.888889e+00	 1.001750e+01
0	 4.962963e+00	 8.962963e+00	 1.001543e+01
0	 4.962963e+00	 9.037037e+00	 1.001349e+01
0	 4.962963e+00	 9.111111e+00	 1.001166e+01
0	 4.962963e+00	 9.185185e+00	 1.000993e+01
0	 4.962963e+00	 9.259259e+00	 1.000832e+01
0	 5.037037e+00	 8.888889e+00	 1.001768e+01
0	 5.037037e+00	 8.962963e+00	 1.001559e+01
0	 5.037037e+00	 9.037037e+00	 1.001363e+01
0	 5.037037e+00	 9.111111e+00	 1.001178e+01
0	 5.037037e+00	 9.185185e+00	 1.001004e+01
0	 5.037037e+00	 9.259259e+00	 1.000840e+01
0	 5.111111e+00	 8.888889e+00	 1.001783e+01
0	 5.111111e+00	 8.962963e+00	 1.001572e+01
0	 5.111111e+00	 9.037037e+00	 1.001374e+01
0	 5.111111e+00	 9.111111e+00	 1.001187e+01
0	 5.111111e+00	 9.185185e+00	 1.001012e+01
0	 5.111111e+00	 9.259259e+00	 1.000847e+01
0	 5.185185e+00	 8.888889e+00	 1.001795e+01
0	 5.185185e+00	 8.962963e+00	 1.001582e+01
0	 5.185185e+00	 9.037037e+00	 1.001383e+01
0	 5.185185e+00	 9.111111e+00	 1.001195e+01
0	 5.185185e+00	 9.185185e+00	 1.001018e+01
0	 5.185185e+00	 9.259259e+00	 1.000852e+01
0	 4.814815e+00	 9.259259e+00	 1.000810e+01
0	 4.814815e+00	 9.333333e+00	 1.000665e+01
0	 4.814815e+00	 9.407407e+00	 1.000534e+01
0	 4.814815e+00	 9.481481e+00	 1.000416e+01
0	 4.814815e+00	 9.555556e+00	 1.000312e+01
0	 4.814815e+00	 9.629630e+00	 1.000219e+01
0	 4.888889e+00	 9.259259e+00	 1.000822e+01
0	 4.888889e+00	 9.333333e+00	 1.000674e+01
0	 4.888889e+00	 9.407407e+00	 1.000541e+01
0	 4.888889e+00	 9.481481e+00	 1.000422e+01
0	 4.888889e+00	 9.555556e+00	 1.000316e+01
0	 4.888889e+00	 9.629630e+00	 1.000222e+01
0	 4.962963e+00	 9.259259e+00	 1.000832e+01
0	 4.962963e+00	 9.333333e+00	 1.000682e+01
0	 4.962963e+00	 9.407407e+00	 1.000548e+01
0	 4.962963e+00	 9.481481e+00	 1.000427e+01
0	 4.962963e+00	 9.555556e+00	 1.000320e+01
0	 4.962963e+00	 9.629630e+00	 1.000224e+01
0	 5.037037e+00	 9.259259e+00	 1.000840e+01
0	 5.037037e+00	 9.333333e+00	 1.000689e+01
0	 5.037037e+00	 9.407407e+00	 1.000553e+01
0	 5.037037e+00	 9.481481e+00	 1.000431e+01
0	 5.037037e+00	 9.555556e+00	 1.000323e+01
0	 5.037037e+00	 9.629630e+00	 1.000227e+01
0	 5.111111e+00	 9.259259e+00	 1.000847e+01
0	 5.111111e+00	 9.333333e+00	 1.000695e+01
0	 5.111111e+00	 9.407407e+00	 1.000558e+01
0	 5.111111e+00	 9.481481e+00	 1.000435e+01
0	 5.111111e+00	 9.555556e+00	 1.000325e+01
0	 5.111111e+00	 9.629630e+00	 1.000228e+01
0	 5.185185e+00	 9.259259e+00	 1.000852e+01
0	 5.185185e+00	 9.333333e+00	 1.000699e+01
0	 5.185185e+00	 9.407407e+00	 1.000561e+01
0	 5.185185e+00	 9.481481e+00	 1.000437e+01
0	 5.185185e+00	 9.555556e+00	 1.000327e+01
0	 5.185185e+00	 9.629630e+00	 1.000229e+01
0	 4.814815e+00	 9.629630e+00	 1.000219e+01
0	 4.814815e+00	 9.703704e+00	 1.000141e+01
0	 4.814815e+00	 9.777778e+00	 1.000081e+01
0	 4.814815e+00	 9.851852e+00	 1.000038e+01
0	 4.814815e+00	 9.925926e+00	 1.000010e+01
0	 4.814815e+00	 1.000000e+01	 9.999973e+00
0	 4.888889e+00	 9.629630e+00	 1.000222e+01
0	 4.888889e+00	 9.703704e+00	 1.000143e+01
0	 4.888889e+00	 9.777778e+00	 1.000082e+01
0	 4.888889e+00	 9.851852e+00	 1.000038e+01
0	 4.888889e+00	 9.925926e+00	 1.000010e+01
0	 4.888889e+00	 1.000000e+01	 9.999972e+00
0	 4.962963e+00	 9.629630e+00	 1.000224e+01
0	 4.962963e+00	 9.703704e+00	 1.000144e+01
0	 4.962963e+00	 9.777778e+00	 1.000083e+01
0	 4.962963e+00	 9.851852e+00	 1.000039e+01
0	 4.962963e+00	 9.925926e+00	 1.000010e+01
0	 4.962963e+00	 1.000000e+01	 9.999972e+00
0	 5.037037e+00	 9.629630e+00	 1.000227e+01
0	 5.037037e+00	 9.703704e+00	 1.000146e+01
0	 5.037037e+00	 9.777778e+00	 1.000084e+01
0	 5.037037e+00	 9.851852e+00	 1.000039e+01
0	 5.037037e+00	 9.925926e+00	 1.000011e+01
0	 5.037037e+00	 1.000000e+01	 9.999973e+00
0	 5.111111e+00	 9.629630e+00	 1.000228e+01
0	 5.111111e+00	 9.703704e+00	 1.000147e+01
0	 5.111111e+00	 9.777778e+00	 1.000084e+01
0	 5.111111e+00	 9.851852e+00	 1.000039e+01
0	 5.111111e+00	 9.925926e+00	 1.000011e+01
0	 5.111111e+00	 1.000000e+01	 9.999974e+00
0	 5.185185e+00	 9.629630e+00	 1.000229e+01
0	 5.185185e+00	 9.703704e+00	 1.000148e+01
0	 5.185185e+00	 9.777778e+00	 1.000085e+01
0	 5.185185e+00	 9.851852e+00	 1.000040e+01
0	 5.185185e+00	 9.925926e+00	 1.000011e+01
0	 5.185185e+00	 1.000000e+01	 9.999974e+00
0	 5.185185e+00	 0.000000e+00	 1.029629e+01
0	 5.185185e+00	 7.407407e-02	 1.029688e+01
0	 5.185185e+00	 1.481481e-01	 1.029785e+01
0	 5.185185e+00	 2.222222e-01	 1.029929e+01
0	 5.185185e+00	 2.962963e-01	 1.030128e+01
0	 5.185185e+00	 3.703704e-01	 1.030391e+01
0	 5.259259e+00	 0.000000e+00	 1.028606e+01
0	 5.259259e+00	 7.407407e-02	 1.028641e+01
0	 5.259259e+00	 1.481481e-01	 1.028729e+01
0	 5.259259e+00	 2.222222e-01	 1.028871e+01
0	 5.259259e+00	 2.962963e-01	 1.029068e+01
0	 5.259259e+00	 3.703704e-01	 1.029324e+01
0	 5.333333e+00	 0.000000e+00	 1.027611e+01
0	 5.333333e+00	 7.407407e-02	 1.027629e+01
0	 5.333333e+00	 1.481481e-01	 1.027708e+01
0	 5.333333e+00	 2.222222e-01	 1.027845e+01
0	 5.333333e+00	 2.962963e-01	 1.028037e+01
0	 5.333333e+00	 3.703704e-01	 1.028282e+01
0	 5.407407e+00	 0.000000e+00	 1.026640e+01
0	 5.407407e+00	 7.407407e-02	 1.026648e+01
0	 5.407407e+00	 1.481481e-01	 1.026719e+01
0	 5.407407e+00	 2.222222e-01	 1.026849e+01
0	 5.407407e+00	 2.962963e-01	 1.027033e+01
0	 5.407407e+00	 3.703704e-01	 1.027266e+01
0	 5.481481e+00	 0.000000e+00	 1.025688e+01
0	 5.481481e+00	 7.407407e-02	 1.025694e+01
0	 5.481481e+00	 1.481481e-01	 1.025760e+01
0	 5.481481e+00	 2.222222e-01	 1.025882e+01
0	 5.481481e+00	 2.962963e-01	 1.026054e+01
0	 5.481481e+00	 3.703704e-01	 1.026273e+01
0	 5.555556e+00	 0.000000e+00	 1.024749e+01
0	 5.555556e+00	 7.407407e-02	 1.024764e+01
0	 5.555556e+00	 1.481481e-01	 1.024829e+01
0	 5.555556e+00	 2.222222e-01	 1.024942e+01
0	 5.555556e+00	 2.962963e-01	 1.025101e+01
0	 5.555556e+00	 3.703704e-01	 1.025304e+01
0	 5.185185e+00	 3.703704e-01	 1.030391e+01
0	 5.185185e+00	 4.444444e-01	 1.030707e+01
0	 5.185185e+00	 5.185185e-01	 1.031062e+01
0	 5.185185e+00	 5.925926e-01	 1.031461e+01
0	 5.185185e+00	 6.666667e-01	 1.031905e+01
0	 5.185185e+00	 7.407407e-01	 1.032399e+01
0	 5.259259e+00	 3.703704e-01	 1.029324e+01
0	 5.259259e+00	 4.444444e-01	 1.029625e+01
0	 5.259259e+00	 5.185185e-01	 1.029962e+01
0	 5.259259e+00	 5.925926e-01	 1.030338e+01
0	 5.259259e+00	 6.666667e-01	 1.030758e+01
0	 5.259259e+00	 7.407407e-01	 1.031225e+01
0	 5.333333e+00	 3.703704e-01	 1.028282e+01
0	 5.333333e+00	 4.444444e-01	 1.028569e+01
0	 5.333333e+00	 5.185185e-01	 1.028888e+01
0	 5.333333e+00	 5.925926e-01	 1.029246e+01
0	 5.333333e+00	 6.666667e-01	 1.029645e+01
0	 5.333333e+00	 7.407407e-01	 1.030089e+01
0	 5.407407e+00	 3.703704e-01	 1.027266e+01
0	 5.407407e+00	 4.444444e-01	 1.027537e+01
0	 5.407407e+00	 5.185185e-01	 1.027841e+01
0	 5.407407e+00	 5.925926e-01	 1.028181e+01
0	 5.407407e+00	 6.666667e-01	 1.028562e+01
0	 5.407407e+00	 7.407407e-01	 1.028987e+01
0	 5.481481e+00	 3.703704e-01	 1.026273e+01
0	 5.481481e+00	 4.444444e-01	 1.026529e+01
0	 5.481481e+00	 5.185185e-01	 1.026817e+01
0	 5.481481e+00	 5.925926e-01	 1.027142e+01
0	 5.481481e+00	 6.666667e-01	 1.027507e+01
0	 5.481481e+00	 7.407407e-01	 1.027916e+01
0	 5.555556e+00	 3.703704e-01	 1.025304e+01
0	 5.555556e+00	 4.444444e-01	 1.025545e+01
0	 5.555556e+00	 5.185185e-01	 1.025818e+01
0	 5.555556e+00	 5.925926e-01	 1.026128e+01
0	 5.555556e+00	 6.666667e-01	 1.026477e+01
0	 5.555556e+00	 7.407407e-01	 1.026870e+01
0	 5.185185e+00	 7.407407e-01	 1.032399e+01
0	 5.185185e+00	 8.148148e-01	 1.032925e+01
0	 5.185185e+00	 8.888889e-01	 1.033468e+01
0	 5.185185e+00	 9.629630e-01	 1.034033e+01
0	 5.185185e+00	 1.037037e+00	 1.034624e+01
0	 5.185185e+00	 1.111111e+00	 1.035248e+01
0	 5.259259e+00	 7.407407e-01	 1.031225e+01
0	 5.259259e+00	 8.148148e-01	 1.031724e+01
0	 5.259259e+00	 8.888889e-01	 1.032239e+01
0	 5.259259e+00	 9.629630e-01	 1.032776e+01
0	 5.259259e+00	 1.037037e+00	 1.033341e+01
0	 5.259259e+00	 1.111111e+00	 1.033938e+01
0	 5.333333e+00	 7.407407e-01	 1.030089e+01
0	 5.333333e+00	 8.148148e-01	 1.030564e+01
0	 5.333333e+00	 8.888889e-01	 1.031055e+01
0	 5.333333e+00	 9.629630e-01	 1.031567e+01
0	 5.333333e+00	 1.037037e+00	 1.032105e+01
0	 5.333333e+00	 1.111111e+00	 1.032674e+01
0	 5.407407e+00	 7.407407e-01	 1.028987e+01
0	 5.407407e+00	 8.148148e-01	 1.029442e+01
0	 5.407407e+00	 8.888889e-01	 1.029911e+01
0	 5.407407e+00	 9.629630e-01	 1.030399e+01
0	 5.407407e+00	 1.037037e+00	 1.030912e+01
0	 5.407407e+00	 1.111111e+00	 1.031453e+01
0	 5.481481e+00	 7.407407e-01	 1.027916e+01
0	 5.481481e+00	 8.148148e-01	 1.028352e+01
0	 5.481481e+00	 8.888889e-01	 1.028802e+01
0	 5.481481e+00	 9.629630e-01	 1.029268e+01
0	 5.481481e+00	 1.037037e+00	 1.029756e+01
0	 5.481481e+00	 1.111111e+00	 1.030271e+01
0	 5.555556e+00	 7.407407e-01	 1.026870e+01
0	 5.555556e+00	 8.148148e-01	 1.027290e+01
0	 5.555556e+00	 8.888889e-01	 1.027720e+01
0	 5.555556e+00	 9.629630e-01	 1.028167e+01
0	 5.555556e+00	 1.037037e+00	 1.028633e+01
0	 5.555556e+00	 1.111111e+00	 1.029124e+01
0	 5.185185e+00	 1.111111e+00	 1.035248e+01
0	 5.185185e+00	 1.185185e+00	 1.035878e+01
0	 5.185185e+00	 1.259259e+00	 1.036491e+01
0	 5.185185e+00	 1.333333e+00	 1.037093e+01
0	 5.185185e+00	 1.407407e+00	 1.037691e+01
0	 5.185185e+00	 1.481481e+00	 1.038294e+01
0	 5.259259e+00	 1.111111e+00	 1.033938e+01
0	 5.259259e+00	 1.185185e+00	 1.034544e+01
0	 5.259259e+00	 1.259259e+00	 1.035136e+01
0	 5.259259e+00	 1.333333e+00	 1.035719e+01
0	 5.259259e+00	 1.407407e+00	 1.036300e+01
0	 5.259259e+00	 1.481481e+00	 1.036885e+01
0	 5.333333e+00	 1.111111e+00	 1.032674e+01
0	 5.333333e+00	 1.185185e+00	 1.033254e+01
0	 5.333333e+00	 1.259259e+00	 1.033823e+01
0	 5.333333e+00	 1.333333e+00	 1.034386e+01
0	 5.333333e+00	 1.407407e+00	 1.034948e+01
0	 5.333333e+00	 1.481481e+00	 1.035514e+01
0	 5.407407e+00	 1.111111e+00	 1.031453e+01
0	 5.407407e+00	 1.185185e+00	 1.032006e+01
0	 5.407407e+00	 1.259259e+00	 1.032551e+01
0	 5.407407e+00	 1.333333e+00	 1.033092e+01
0	 5.407407e+00	 1.407407e+00	 1.033633e+01
0	 5.407407e+00	 1.481481e+00	 1.034180e+01
0	 5.481481e+00	 1.111111e+00	 1.030271e+01
0	 5.481481e+00	 1.185185e+00	 1.030797e+01
0	 5.481481e+00	 1.259259e+00	 1.031317e+01
0	 5.481481e+00	 1.333333e+00	 1.031836e+01
0	 5.481481e+00	 1.407407e+00	 1.032357e+01
0	 5.481481e+00	 1.481481e+00	 1.032884e+01
0	 5.555556e+00	 1.111111e+00	 1.029124e+01
0	 5.555556e+00	 1.185185e+00	 1.029624e+01
0	 5.555556e+00	 1.259259e+00	 1.030121e+01
0	 5.555556e+00	 1.333333e+00	 1.030617e+01
0	 5.555556e+00	 1.407407e+00	 1.031117e+01
0	 5.555556e+00	 1.481481e+00	 1.031624e+01
0	 5.185185e+00	 1.481481e+00	 1.038294e+01
0	 5.185185e+00	 1.555556e+00	 1.038881e+01
0	 5.185185e+00	 1.629630e+00	 1.039433e+01
0	 5.185185e+00	 1.703704e+00	 1.039953e+01
0	 5.185185e+00	 1.777778e+00	 1.040446e+01
0	 5.185185e+00	 1.851852e+00	 1.040917e+01
0	 5.259259e+00	 1.481481e+00	 1.036885e+01
0	 5.259259e+00	 1.555556e+00	 1.037455e+01
0	 5.259259e+00	 1.629630e+00	 1.037991e+01
0	 5.259259e+00	 1.703704e+00	 1.038498e+01
0	 5.259259e+00	 1.777778e+00	 1.038980e+01
0	 5.259259e+00	 1.851852e+00	 1.039441e+01
0	 5.333333e+00	 1.481481e+00	 1.035514e+01
0	 5.333333e+00	 1.555556e+00	 1.036067e+01
0	 5.333333e+00	 1.629630e+00	 1.036588e+01
0	 5.333333e+00	 1.703704e+00	 1.037083e+01
0	 5.333333e+00	 1.777778e+00	 1.037555e+01
0	 5.333333e+00	 1.851852e+00	 1.038009e+01
0	 5.407407e+00	 1.481481e+00	 1.034180e+01
0	 5.407407e+00	 1.555556e+00	 1.034715e+01
0	 5.407407e+00	 1.629630e+00	 1.035223e+01
0	 5.407407e+00	 1.703704e+00	 1.035706e+01
0	 5.407407e+00	 1.777778e+00	 1.036169e+01
0	 5.407407e+00	 1.851852e+00	 1.036618e+01
0	 5.481481e+00	 1.481481e+00	 1.032884e+01
0	 5.481481e+00	 1.555556e+00	 1.033402e+01
0	 5.481481e+00	 1.629630e+00	 1.033894e+01
0	 5.481481e+00	 1.703704e+00	 1.034366e+01
0	 5.481481e+00	 1.777778e+00	 1.034821e+01
0	 5.481481e+00	 1.851852e+00	 1.035264e+01
0	 5.555556e+00	 1.481481e+00	 1.031624e+01
0	 5.555556e+00	 1.555556e+00	 1.032124e+01
0	 5.555556e+00	 1.629630e+00	 1.032602e+01
0	 5.555556e+00	 1.703704e+00	 1.033062e+01
0	 5.555556e+00	 1.777778e+00	 1.033508e+01
0	 5.555556e+00	 1.851852e+00	 1.033944e+01
0	 5.185185e+00	 1.851852e+00	 1.040917e+01
0	 5.185185e+00	 1.925926e+00	 1.041354e+01
0	 5.185185e+00	 2.000000e+00	 1.041745e+01
0	 5.185185e+00	 2.074074e+00	 1.042094e+01
0	 5.185185e+00	 2.148148e+00	 1.042405e+01
0	 5.185185e+00	 2.222222e+00	 1.042681e+01
0	 5.259259e+00	 1.851852e+00	 1.039441e+01
0	 5.259259e+00	 1.925926e+00	 1.039871e+01
0	 5.259259e+00	 2.000000e+00	 1.040260e+01
0	 5.259259e+00	 2.074074e+00	 1.040611e+01
0	 5.259259e+00	 2.148148e+00	 1.040927e+01
0	 5.259259e+00	 2.222222e+00	 1.041211e+01
0	 5.333333e+00	 1.851852e+00	 1.038009e+01
0	 5.333333e+00	 1.925926e+00	 1.038435e+01
0	 5.333333e+00	 2.000000e+00	 1.038823e+01
0	 5.333333e+00	 2.074074e+00	 1.039174e+01
0	 5.333333e+00	 2.148148e+00	 1.039492e+01
0	 5.333333e+00	 2.222222e+00	 1.039780e+01
0	 5.407407e+00	 1.851852e+00	 1.036618e+01
0	 5.407407e+00	 1.925926e+00	 1.037041e+01
0	 5.407407e+00	 2.000000e+00	 1.037426e+01
0	 5.407407e+00	 2.074074e+00	 1.037777e+01
0	 5.407407e+00	 2.148148e+00	 1.038095e+01
0	 5.407407e+00	 2.222222e+00	 1.038386e+01
0	 5.481481e+00	 1.851852e+00	 1.035264e+01
0	 5.481481e+00	 1.925926e+00	 1.035683e+01
0	 5.481481e+00	 2.000000e+00	 1.036066e+01
0	 5.481481e+00	 2.074074e+00	 1.036415e+01
0	 5.481481e+00	 2.148148e+00	 1.036733e+01
0	 5.481481e+00	 2.222222e+00	 1.037023e+01
0	 5.555556e+00	 1.851852e+00	 1.033944e+01
0	 5.555556e+00	 1.925926e+00	 1.034357e+01
0	 5.555556e+00	 2.000000e+00	 1.034736e+01
0	 5.555556e+00	 2.074074e+00	 1.035083e+01
0	 5.555556e+00	 2.148148e+00	 1.035400e+01
0	 5.555556e+00	 2.222222e+00	 1.035690e+01
0	 5.185185e+00	 2.222222e+00	 1.042681e+01
0	 5.185185e+00	 2.296296e+00	 1.042914e+01
0	 5.185185e+00	 2.370370e+00	 1.043094e+01
0	 5.185185e+00	 2.444444e+00	 1.043223e+01
0	 5.185185e+00	 2.518519e+00	 1.043301e+01
0	 5.185185e+00	 2.592593e+00	 1.043332e+01
0	 5.259259e+00	 2.222222e+00	 1.041211e+01
0	 5.259259e+00	 2.296296e+00	 1.041454e+01
0	 5.259259e+00	 2.370370e+00	 1.041647e+01
0	 5.259259e+00	 2.444444e+00	 1.041791e+01
0	 5.259259e+00	 2.518519e+00	 1.041887e+01
0	 5.259259e+00	 2.592593e+00	 1.041937e+01
0	 5.333333e+00	 2.222222e+00	 1.039780e+01
0	 5.333333e+00	 2.296296e+00	 1.040030e+01
0	 5.333333e+00	 2.370370e+00	 1.040233e+01
0	 5.333333e+00	 2.444444e+00	 1.040389e+01
0	 5.333333e+00	 2.518519e+00	 1.040501e+01
0	 5.333333e+00	 2.592593e+00	 1.040570e+01
0	 5.407407e+00	 2.222222e+00	 1.038386e+01
0	 5.407407e+00	 2.296296e+00	 1.038640e+01
0	 5.407407e+00	 2.370370e+00	 1.038849e+01
0	 5.407407e+00	 2.444444e+00	 1.039016e+01
0	 5.407407e+00	 2.518519e+00	 1.039143e+01
0	 5.407407e+00	 2.592593e+00	 1.039230e+01
0	 5.481481e+00	 2.222222e+00	 1.037023e+01
0	 5.481481e+00	 2.296296e+00	 1.037280e+01
0	 5.481481e+00	 2.370370e+00	 1.037495e+01
0	 5.481481e+00	 2.444444e+00	 1.037672e+01
0	 5.481481e+00	 2.518519e+00	 1.037811e+01
0	 5.481481e+00	 2.592593e+00	 1.037914e+01
0	 5.555556e+00	 2.222222e+00	 1.035690e+01
0	 5.555556e+00	 2.296296e+00	 1.035948e+01
0	 5.555556e+00	 2.370370e+00	 1.036169e+01
0	 5.555556e+00	 2.444444e+00	 1.036354e+01
0	 5.555556e+00	 2.518519e+00	 1.036504e+01
0	 5.555556e+00	 2.592593e+00	 1.036621e+01
0	 5.185185e+00	 2.592593e+00	 1.043332e+01
0	 5.185185e+00	 2.666667e+00	 1.043315e+01
0	 5.185185e+00	 2.740741e+00	 1.043254e+01
0	 5.185185e+00	 2.814815e+00	 1.043146e+01
0	 5.185185e+00	 2.888889e+00	 1.042994e+01
0	 5.185185e+00	 2.962963e+00	 1.042797e+01
0	 5.259259e+00	 2.592593e+00	 1.041937e+01
0	 5.259259e+00	 2.666667e+00	 1.041943e+01
0	 5.259259e+00	 2.740741e+00	 1.041906e+01
0	 5.259259e+00	 2.814815e+00	 1.041827e+01
0	 5.259259e+00	 2.888889e+00	 1.041704e+01
0	 5.259259e+00	 2.962963e+00	 1.041539e+01
0	 5.333333e+00	 2.592593e+00	 1.040570e+01
0	 5.333333e+00	 2.666667e+00	 1.040598e+01
0	 5.333333e+00	 2.740741e+00	 1.040584e+01
0	 5.333333e+00	 2.814815e+00	 1.040529e+01
0	 5.333333e+00	 2.888889e+00	 1.040433e+01
0	 5.333333e+00	 2.962963e+00	 1.040295e+01
0	 5.407407e+00	 2.592593e+00	 1.039230e+01
0	 5.407407e+00	 2.666667e+00	 1.039278e+01
0	 5.407407e+00	 2.740741e+00	 1.039285e+01
0	 5.407407e+00	 2.814815e+00	 1.039252e+01
0	 5.407407e+00	 2.888889e+00	 1.039179e+01
0	 5.407407e+00	 2.962963e+00	 1.039067e+01
0	 5.481481e+00	 2.592593e+00	 1.037914e+01
0	 5.481481e+00	 2.666667e+00	 1.037980e+01
0	 5.481481e+00	 2.740741e+00	 1.038007e+01
0	 5.481481e+00	 2.814815e+00	 1.037994e+01
0	 5.481481e+00	 2.888889e+00	 1.037943e+01
0	 5.481481e+00	 2.962963e+00	 1.037853e+01
0	 5.555556e+00	 2.592593e+00	 1.036621e+01
0	 5.555556e+00	 2.666667e+00	 1.036704e+01
0	 5.555556e+00	 2.740741e+00	 1.036747e+01
0	 5.555556e+00	 2.814815e+00	 1.036753e+01
0	 5.555556e+00	 2.888889e+00	 1.036721e+01
0	 5.555556e+00	 2.962963e+00	 1.036652e+01
0	 5.185185e+00	 2.962963e+00	 1.042797e+01
0	 5.185185e+00	 3.037037e+00	 1.042559e+01
0	 5.185185e+00	 3.111111e+00	 1.042281e+01
0	 5.185185e+00	 3.185185e+00	 1.041964e+01
0	 5.185185e+00	 3.259259e+00	 1.041606e+01
0	 5.185185e+00	 3.333333e+00	 1.041206e+01
0	 5.259259e+00	 2.962963e+00	 1.041539e+01
0	 5.259259e+00	 3.037037e+00	 1.041333e+01
0	 5.259259e+00	 3.111111e+00	 1.041089e+01
0	 5.259259e+00	 3.185185e+00	 1.040806e+01
0	 5.259259e+00	 3.259259e+00	 1.040483e+01
0	 5.259259e+00	 3.333333e+00	 1.040119e+01
0	 5.333333e+00	 2.962963e+00	 1.040295e+01
0	 5.333333e+00	 3.037037e+00	 1.040119e+01
0	 5.333333e+00	 3.111111e+00	 1.039905e+01
0	 5.333333e+00	 3.185185e+00	 1.039653e+01
0	 5.333333e+00	 3.259259e+00	 1.039363e+01
0	 5.333333e+00	 3.333333e+00	 1.039034e+01
0	 5.407407e+00	 2.962963e+00	 1.039067e+01
0	 5.407407e+00	 3.037037e+00	 1.038917e+01
0	 5.407407e+00	 3.111111e+00	 1.038730e+01
0	 5.407407e+00	 3.185185e+00	 1.038508e+01
0	 5.407407e+00	 3.259259e+00	 1.038249e+01
0	 5.407407e+00	 3.333333e+00	 1.037952e+01
0	 5.481481e+00	 2.962963e+00	 1.037853e+01
0	 5.481481e+00	 3.037037e+00	 1.037726e+01
0	 5.481481e+00	 3.111111e+00	 1.037566e+01
0	 5.481481e+00	 3.185185e+00	 1.037370e+01
0	 5.481481e+00	 3.259259e+00	 1.037140e+01
0	 5.481481e+00	 3.333333e+00	 1.036875e+01
0	 5.555556e+00	 2.962963e+00	 1.036652e+01
0	 5.555556e+00	 3.037037e+00	 1.036548e+01
0	 5.555556e+00	 3.111111e+00	 1.036412e+01
0	 5.555556e+00	 3.185185e+00	 1.036242e+01
0	 5.555556e+00	 3.259259e+00	 1.036040e+01
0	 5.555556e+00	 3.333333e+00	 1.035803e+01
0	 5.185185e+00	 3.333333e+00	 1.041206e+01
0	 5.185185e+00	 3.407407e+00	 1.040772e+01
0	 5.185185e+00	 3.481481e+00	 1.040311e+01
0	 5.185185e+00	 3.555556e+00	 1.039822e+01
0	 5.185185e+00	 3.629630e+00	 1.039304e+01
0	 5.185185e+00	 3.703704e+00	 1.038756e+01
0	 5.259259e+00	 3.333333e+00	 1.040119e+01
0	 5.259259e+00	 3.407407e+00	 1.039722e+01
0	 5.259259e+00	 3.481481e+00	 1.039298e+01
0	 5.259259e+00	 3.555556e+00	 1.038848e+01
0	 5.259259e+00	 3.629630e+00	 1.038369e+01
0	 5.259259e+00	 3.703704e+00	 1.037859e+01
0	 5.333333e+00	 3.333333e+00	 1.039034e+01
0	 5.333333e+00	 3.407407e+00	 1.038672e+01
0	 5.333333e+00	 3.481481e+00	 1.038285e+01
0	 5.333333e+00	 3.555556e+00	 1.037870e+01
0	 5.333333e+00	 3.629630e+00	 1.037427e+01
0	 5.333333e+00	 3.703704e+00	 1.036954e+01
0	 5.407407e+00	 3.333333e+00	 1.037952e+01
0	 5.407407e+00	 3.407407e+00	 1.037625e+01
0	 5.407407e+00	 3.481481e+00	 1.037271e+01
0	 5.407407e+00	 3.555556e+00	 1.036890e+01
0	 5.407407e+00	 3.629630e+00	 1.036480e+01
0	 5.407407e+00	 3.703704e+00	 1.036040e+01
0	 5.481481e+00	 3.333333e+00	 1.036875e+01
0	 5.481481e+00	 3.407407e+00	 1.036580e+01
0	 5.481481e+00	 3.481481e+00	 1.036257e+01
0	 5.481481e+00	 3.555556e+00	 1.035908e+01
0	 5.481481e+00	 3.629630e+00	 1.035530e+01
0	 5.481481e+00	 3.703704e+00	 1.035122e+01
0	 5.555556e+00	 3.333333e+00	 1.035803e+01
0	 5.555556e+00	 3.407407e+00	 1.035538e+01
0	 5.555556e+00	 3.481481e+00	 1.035245e+01
0	 5.555556e+00	 3.555556e+00	 1.034925e+01
0	 5.555556e+00	 3.629630e+00	 1.034577e+01
0	 5.555556e+00	 3.703704e+00	 1.034199e+01
0	 5.185185e+00	 3.703704e+00	 1.038756e+01
0	 5.185185e+00	 3.777778e+00	 1.038184e+01
0	 5.185185e+00	 3.851852e+00	 1.037594e+01
0	 5.185185e+00	 3.925926e+00	 1.036986e+01
0	 5.185185e+00	 4.000000e+00	 1.036356e+01
0	 5.185185e+00	 4.074074e+00	 1.035705e+01
0	 5.259259e+00	 3.703704e+00	 1.037859e+01
0	 5.259259e+00	 3.777778e+00	 1.037326e+01
0	 5.259259e+00	 3.851852e+00	 1.036774e+01
0	 5.259259e+00	 3.925926e+00	 1.036203e+01
0	 5.259259e+00	 4.000000e+00	 1.035610e+01
0	 5.259259e+00	 4.074074e+00	 1.034994e+01
0	 5.333333e+00	 3.703704e+00	 1.036954e+01
0	 5.333333e+00	 3.777778e+00	 1.036456e+01
0	 5.333333e+00	 3.851852e+00	 1.035940e+01
0	 5.333333e+00	 3.925926e+00	 1.035404e+01
0	 5.333333e+00	 4.000000e+00	 1.034846e+01
0	 5.333333e+00	 4.074074e+00	 1.034266e+01
0	 5.407407e+00	 3.703704e+00	 1.036040e+01
0	 5.407407e+00	 3.777778e+00	 1.035576e+01
0	 5.407407e+00	 3.851852e+00	 1.035094e+01
0	 5.407407e+00	 3.925926e+00	 1.034591e+01
0	 5.407407e+00	 4.000000e+00	 1.034068e+01
0	 5.407407e+00	 4.074074e+00	 1.033522e+01
0	 5.481481e+00	 3.703704e+00	 1.035122e+01
0	 5.481481e+00	 3.777778e+00	 1.034689e+01
0	 5.481481e+00	 3.851852e+00	 1.034239e+01
0	 5.481481e+00	 3.925926e+00	 1.033769e+01
0	 5.481481e+00	 4.000000e+00	 1.033278e+01
0	 5.481481e+00	 4.074074e+00	 1.032766e+01
0	 5.555556e+00	 3.703704e+00	 1.034199e+01
0	 5.555556e+00	 3.777778e+00	 1.033797e+01
0	 5.555556e+00	 3.851852e+00	 1.033378e+01
0	 5.555556e+00	 3.925926e+00	 1.032939e+01
0	 5.555556e+00	 4.000000e+00	 1.032480e+01
0	 5.555556e+00	 4.074074e+00	 1.031999e+01
0	 5.185185e+00	 4.074074e+00	 1.035705e+01
0	 5.185185e+00	 4.148148e+00	 1.035038e+01
0	 5.185185e+00	 4.222222e+00	 1.034364e+01
0	 5.185185e+00	 4.296296e+00	 1.033682e+01
0	 5.185185e+00	 4.370370e+00	 1.032990e+01
0	 5.185185e+00	 4.444444e+00	 1.032286e+01
0	 5.259259e+00	 4.074074e+00	 1.034994e+01
0	 5.259259e+00	 4.148148e+00	 1.034364e+01
0	 5.259259e+00	 4.222222e+00	 1.033725e+01
0	 5.259259e+00	 4.296296e+00	 1.033078e+01
0	 5.259259e+00	 4.370370e+00	 1.032420e+01
0	 5.259259e+00	 4.444444e+00	 1.031749e+01
0	 5.333333e+00	 4.074074e+00	 1.034266e+01
0	 5.333333e+00	 4.148148e+00	 1.033671e+01
0	 5.333333e+00	 4.222222e+00	 1.033067e+01
0	 5.333333e+00	 4.296296e+00	 1.032452e+01
0	 5.333333e+00	 4.370370e+00	 1.031827e+01
0	 5.333333e+00	 4.444444e+00	 1.031188e+01
0	 5.407407e+00	 4.074074e+00	 1.033522e+01
0	 5.407407e+00	 4.148148e+00	 1.032961e+01
0	 5.407407e+00	 4.222222e+00	 1.032390e+01
0	 5.407407e+00	 4.296296e+00	 1.031808e+01
0	 5.407407e+00	 4.370370e+00	 1.031214e+01
0	 5.407407e+00	 4.444444e+00	 1.030606e+01
0	 5.481481e+00	 4.074074e+00	 1.032766e+01
0	 5.481481e+00	 4.148148e+00	 1.032237e+01
0	 5.481481e+00	 4.222222e+00	 1.031698e+01
0	 5.481481e+00	 4.296296e+00	 1.031148e+01
0	 5.481481e+00	 4.370370e+00	 1.030584e+01
0	 5.481481e+00	 4.444444e+00	 1.030005e+01
0	 5.555556e+00	 4.074074e+00	 1.031999e+01
0	 5.555556e+00	 4.148148e+00	 1.031502e+01
0	 5.555556e+00	 4.222222e+00	 1.030994e+01
0	 5.555556e+00	 4.296296e+00	 1.030473e+01
0	 5.555556e+00	 4.370370e+00	 1.029938e+01
0	 5.555556e+00	 4.444444e+00	 1.029388e+01
0	 5.185185e+00	 4.444444e+00	 1.032286e+01
0	 5.185185e+00	 4.518519e+00	 1.031576e+01
0	 5.185185e+00	 4.592593e+00	 1.030866e+01
0	 5.185185e+00	 4.666667e+00	 1.030153e+01
0	 5.185185e+00	 4.740741e+00	 1.029437e+01
0	 5.185185e+00	 4.814815e+00	 1.028716e+01
0	 5.259259e+00	 4.444444e+00	 1.031749e+01
0	 5.259259e+00	 4.518519e+00	 1.031072e+01
0	 5.259259e+00	 4.592593e+00	 1.030392e+01
0	 5.259259e+00	 4.666667e+00	 1.029709e+01
0	 5.259259e+00	 4.740741e+00	 1.029021e+01
0	 5.259259e+00	 4.814815e+00	 1.028328e+01
0	 5.333333e+00	 4.444444e+00	 1.031188e+01
0	 5.333333e+00	 4.518519e+00	 1.030541e+01
0	 5.333333e+00	 4.592593e+00	 1.029892e+01
0	 5.333333e+00	 4.666667e+00	 1.029238e+01
0	 5.333333e+00	 4.740741e+00	 1.028578e+01
0	 5.333333e+00	 4.814815e+00	 1.027912e+01
0	 5.407407e+00	 4.444444e+00	 1.030606e+01
0	 5.407407e+00	 4.518519e+00	 1.029989e+01
0	 5.407407e+00	 4.592593e+00	 1.029368e+01
0	 5.407407e+00	 4.666667e+00	 1.028742e+01
0	 5.407407e+00	 4.740741e+00	 1.028111e+01
0	 5.407407e+00	 4.814815e+00	 1.027472e+01
0	 5.481481e+00	 4.444444e+00	 1.030005e+01
0	 5.481481e+00	 4.518519e+00	 1.029416e+01
0	 5.481481e+00	 4.592593e+00	 1.028824e+01
0	 5.481481e+00	 4.666667e+00	 1.028226e+01
0	 5.481481e+00	 4.740741e+00	 1.027622e+01
0	 5.481481e+00	 4.814815e+00	 1.027010e+01
0	 5.555556e+00	 4.444444e+00	 1.029388e+01
0	 5.555556e+00	 4.518519e+00	 1.028827e+01
0	 5.555556e+00	 4.592593e+00	 1.028263e+01
0	 5.555556e+00	 4.666667e+00	 1.027692e+01
0	 5.555556e+00	 4.740741e+00	 1.027114e+01
0	 5.555556e+00	 4.814815e+00	 1.026529e+01
0	 5.185185e+00	 4.814815e+00	 1.028716e+01
0	 5.185185e+00	 4.888889e+00	 1.027995e+01
0	 5.185185e+00	 4.962963e+00	 1.027279e+01
0	 5.185185e+00	 5.037037e+00	 1.026567e+01
0	 5.185185e+00	 5.111111e+00	 1.025859e+01
0	 5.185185e+00	 5.185185e+00	 1.025152e+01
0	 5.259259e+00	 4.814815e+00	 1.028328e+01
0	 5.259259e+00	 4.888889e+00	 1.027634e+01
0	 5.259259e+00	 4.962963e+00	 1.026943e+01
0	 5.259259e+00	 5.037037e+00	 1.026256e+01
0	 5.259259e+00	 5.111111e+00	 1.025572e+01
0	 5.259259e+00	 5.185185e+00	 1.024888e+01
0	 5.333333e+00	 4.814815e+00	 1.027912e+01
0	 5.333333e+00	 4.888889e+00	 1.027245e+01
0	 5.333333e+00	 4.962963e+00	 1.026580e+01
0	 5.333333e+00	 5.037037e+00	 1.025918e+01
0	 5.333333e+00	 5.111111e+00	 1.025256e+01
0	 5.333333e+00	 5.185185e+00	 1.024595e+01
0	 5.407407e+00	 4.814815e+00	 1.027472e+01
0	 5.407407e+00	 4.888889e+00	 1.026831e+01
0	 5.407407e+00	 4.962963e+00	 1.026192e+01
0	 5.407407e+00	 5.037037e+00	 1.025554e+01
0	 5.407407e+00	 5.111111e+00	 1.024915e+01
0	 5.407407e+00	 5.185185e+00	 1.024276e+01
0	 5.481481e+00	 4.814815e+00	 1.027010e+01
0	 5.481481e+00	 4.888889e+00	 1.026395e+01
0	 5.481481e+00	 4.962963e+00	 1.025781e+01
0	 5.481481e+00	 5.037037e+00	 1.025167e+01
0	 5.481481e+00	 5.111111e+00	 1.024551e+01
0	 5.481481e+00	 5.185185e+00	 1.023934e+01
0	 5.555556e+00	 4.814815e+00	 1.026529e+01
0	 5.555556e+00	 4.888889e+00	 1.025940e+01
0	 5.555556e+00	 4.962963e+00	 1.025350e+01
0	 5.555556e+00	 5.037037e+00	 1.024759e+01
0	 5.555556e+00	 5.111111e+00	 1.024166e+01
0	 5.555556e+00	 5.185185e+00	 1.023570e+01
0	 5.185185e+00	 5.185185e+00	 1.025152e+01
0	 5.185185e+00	 5.259259e+00	 1.024451e+01
0	 5.185185e+00	 5.333333e+00	 1.023757e+01
0	 5.185185e+00	 5.407407e+00	 1.023071e+01
0	 5.185185e+00	 5.481481e+00	 1.022391e+01
0	 5.185185e+00	 5.555556e+00	 1.021717e+01
0	 5.259259e+00	 5.185185e+00	 1.024888e+01
0	 5.259259e+00	 5.259259e+00	 1.024208e+01
0	 5.259259e+00	 5.333333e+00	 1.023535e+01
0	 5.259259e+00	 5.407407e+00	 1.022868e+01
0	 5.259259e+00	 5.481481e+00	 1.022206e+01
0	 5.259259e+00	 5.555556e+00	 1.021549e+01
0	 5.333333e+00	 5.185185e+00	 1.024595e+01
0	 5.333333e+00	 5.259259e+00	 1.023936e+01
0	 5.333333e+00	 5.333333e+00	 1.023283e+01
0	 5.333333e+00	 5.407407e+00	 1.022636e+01
0	 5.333333e+00	 5.481481e+00	 1.021992e+01
0	 5.333333e+00	 5.555556e+00	 1.021353e+01
0	 5.407407e+00	 5.185185e+00	 1.024276e+01
0	 5.407407e+00	 5.259259e+00	 1.023638e+01
0	 5.407407e+00	 5.333333e+00	 1.023006e+01
0	 5.407407e+00	 5.407407e+00	 1.022377e+01
0	 5.407407e+00	 5.481481e+00	 1.021753e+01
0	 5.407407e+00	 5.555556e+00	 1.021131e+01
0	 5.481481e+00	 5.185185e+00	 1.023934e+01
0	 5.481481e+00	 5.259259e+00	 1.023317e+01
0	 5.481481e+00	 5.333333e+00	 1.022704e+01
0	 5.481481e+00	 5.407407e+00	 1.022096e+01
0	 5.481481e+00	 5.481481e+00	 1.021490e+01
0	 5.481481e+00	 5.555556e+00	 1.020887e+01
0	 5.555556e+00	 5.185185e+00	 1.023570e+01
0	 5.555556e+00	 5.259259e+00	 1.022974e+01
0	 5.555556e+00	 5.333333e+00	 1.022382e+01
0	 5.555556e+00	 5.407407e+00	 1.021793e+01
0	 5.555556e+00	 5.481481e+00	 1.021206e+01
0	 5.555556e+00	 5.555556e+00	 1.020621e+01
0	 5.185185e+00	 5.555556e+00	 1.021717e+01
0	 5.185185e+00	 5.629630e+00	 1.021050e+01
0	 5.185185e+00	 5.703704e+00	 1.020394e+01
0	 5.185185e+00	 5.777778e+00	 1.019748e+01
0	 5.185185e+00	 5.851852e+00	 1.019111e+01
0	 5.185185e+00	 5.925926e+00	 1.018483e+01
0	 5.259259e+00	 5.555556e+00	 1.021549e+01
0	 5.259259e+00	 5.629630e+00	 1.020899e+01
0	 5.259259e+00	 5.703704e+00	 1.020258e+01
0	 5.259259e+00	 5.777778e+00	 1.019626e+01
0	 5.259259e+00	 5.851852e+00	 1.019003e+01
0	 5.259259e+00	 5.925926e+00	 1.018387e+01
0	 5.333333e+00	 5.555556e+00	 1.021353e+01
0	 5.333333e+00	 5.629630e+00	 1.020719e+01
0	 5.333333e+00	 5.703704e+00	 1.020095e+01
0	 5.333333e+00	 5.777778e+00	 1.019478e+01
0	 5.333333e+00	 5.851852e+00	 1.018869e+01
0	 5.333333e+00	 5.925926e+00	 1.018266e+01
0	 5.407407e+00	 5.555556e+00	 1.021131e+01
0	 5.407407e+00	 5.629630e+00	 1.020515e+01
0	 5.407407e+00	 5.703704e+00	 1.019906e+01
0	 5.407407e+00	 5.777778e+00	 1.019305e+01
0	 5.407407e+00	 5.851852e+00	 1.018710e+01
0	 5.407407e+00	 5.925926e+00	 1.018121e+01
0	 5.481481e+00	 5.555556e+00	 1.020887e+01
0	 5.481481e+00	 5.629630e+00	 1.020287e+01
0	 5.481481e+00	 5.703704e+00	 1.019695e+01
0	 5.481481e+00	 5.777778e+00	 1.019109e+01
0	 5.481481e+00	 5.851852e+00	 1.018529e+01
0	 5.481481e+00	 5.925926e+00	 1.017953e+01
0	 5.555556e+00	 5.555556e+00	 1.020621e+01
0	 5.555556e+00	 5.629630e+00	 1.020039e+01
0	 5.555556e+00	 5.703704e+00	 1.019463e+01
0	 5.555556e+00	 5.777778e+00	 1.018893e+01
0	 5.555556e+00	 5.851852e+00	 1.018327e+01
0	 5.555556e+00	 5.925926e+00	 1.017766e+01
0	 5.185185e+00	 5.925926e+00	 1.018483e+01
0	 5.185185e+00	 6.000000e+00	 1.017864e+01
0	 5.185185e+00	 6.074074e+00	 1.017257e+01
0	 5.185185e+00	 6.148148e+00	 1.016660e+01
0	 5.185185e+00	 6.222222e+00	 1.016073e+01
0	 5.185185e+00	 6.296296e+00	 1.015496e+01
0	 5.259259e+00	 5.925926e+00	 1.018387e+01
0	 5.259259e+00	 6.000000e+00	 1.017781e+01
0	 5.259259e+00	 6.074074e+00	 1.017184e+01
0	 5.259259e+00	 6.148148e+00	 1.016598e+01
0	 5.259259e+00	 6.222222e+00	 1.016020e+01
0	 5.259259e+00	 6.296296e+00	 1.015452e+01
0	 5.333333e+00	 5.925926e+00	 1.018266e+01
0	 5.333333e+00	 6.000000e+00	 1.017672e+01
0	 5.333333e+00	 6.074074e+00	 1.017087e+01
0	 5.333333e+00	 6.148148e+00	 1.016511e+01
0	 5.333333e+00	 6.222222e+00	 1.015943e+01
0	 5.333333e+00	 6.296296e+00	 1.015384e+01
0	 5.407407e+00	 5.925926e+00	 1.018121e+01
0	 5.407407e+00	 6.000000e+00	 1.017539e+01
0	 5.407407e+00	 6.074074e+00	 1.016966e+01
0	 5.407407e+00	 6.148148e+00	 1.016401e+01
0	 5.407407e+00	 6.222222e+00	 1.015844e+01
0	 5.407407e+00	 6.296296e+00	 1.015295e+01
0	 5.481481e+00	 5.925926e+00	 1.017953e+01
0	 5.481481e+00	 6.000000e+00	 1.017384e+01
0	 5.481481e+00	 6.074074e+00	 1.016823e+01
0	 5.481481e+00	 6.148148e+00	 1.016270e+01
0	 5.481481e+00	 6.222222e+00	 1.015725e+01
0	 5.481481e+00	 6.296296e+00	 1.015186e+01
0	 5.555556e+00	 5.925926e+00	 1.017766e+01
0	 5.555556e+00	 6.000000e+00	 1.017210e+01
0	 5.555556e+00	 6.074074e+00	 1.016661e+01
0	 5.555556e+00	 6.148148e+00	 1.016120e+01
0	 5.555556e+00	 6.222222e+00	 1.015586e+01
0	 5.555556e+00	 6.296296e+00	 1.015058e+01
0	 5.185185e+00	 6.296296e+00	 1.015496e+01
0	 5.185185e+00	 6.370370e+00	 1.014929e+01
0	 5.185185e+00	 6.444444e+00	 1.014374e+01
0	 5.185185e+00	 6.518519e+00	 1.013830e+01
0	 5.185185e+00	 6.592593e+00	 1.013296e+01
0	 5.185185e+00	 6.666667e+00	 1.012773e+01
0	 5.259259e+00	 6.296296e+00	 1.015452e+01
0	 5.259259e+00	 6.370370e+00	 1.014893e+01
0	 5.259259e+00	 6.444444e+00	 1.014345e+01
0	 5.259259e+00	 6.518519e+00	 1.013808e+01
0	 5.259259e+00	 6.592593e+00	 1.013281e+01
0	 5.259259e+00	 6.666667e+00	 1.012763e+01
0	 5.333333e+00	 6.296296e+00	 1.015384e+01
0	 5.333333e+00	 6.370370e+00	 1.014834e+01
0	 5.333333e+00	 6.444444e+00	 1.014294e+01
0	 5.333333e+00	 6.518519e+00	 1.013765e+01
0	 5.333333e+00	 6.592593e+00	 1.013244e+01
0	 5.333333e+00	 6.666667e+00	 1.012733e+01
0	 5.407407e+00	 6.296296e+00	 1.015295e+01
0	 5.407407e+00	 6.370370e+00	 1.014754e+01
0	 5.407407e+00	 6.444444e+00	 1.014223e+01
0	 5.407407e+00	 6.518519e+00	 1.013701e+01
0	 5.407407e+00	 6.592593e+00	 1.013188e+01
0	 5.407407e+00	 6.666667e+00	 1.012683e+01
0	 5.481481e+00	 6.296296e+00	 1.015186e+01
0	 5.481481e+00	 6.370370e+00	 1.014655e+01
0	 5.481481e+00	 6.444444e+00	 1.014133e+01
0	 5.481481e+00	 6.518519e+00	 1.013619e+01
0	 5.481481e+00	 6.592593e+00	 1.013114e+01
0	 5.481481e+00	 6.666667e+00	 1.012616e+01
0	 5.555556e+00	 6.296296e+00	 1.015058e+01
0	 5.555556e+00	 6.370370e+00	 1.014537e+01
0	 5.555556e+00	 6.444444e+00	 1.014024e+01
0	 5.555556e+00	 6.518519e+00	 1.013520e+01
0	 5.555556e+00	 6.592593e+00	 1.013022e+01
0	 5.555556e+00	 6.666667e+00	 1.012533e+01
0	 5.185185e+00	 6.666667e+00	 1.012773e+01
0	 5.185185e+00	 6.740741e+00	 1.012261e+01
0	 5.185185e+00	 6.814815e+00	 1.011760e+01
0	 5.185185e+00	 6.888889e+00	 1.011269e+01
0	 5.185185e+00	 6.962963e+00	 1.010789e+01
0	 5.185185e+00	 7.037037e+00	 1.010319e+01
0	 5.259259e+00	 6.666667e+00	 1.012763e+01
0	 5.259259e+00	 6.740741e+00	 1.012256e+01
0	 5.259259e+00	 6.814815e+00	 1.011759e+01
0	 5.259259e+00	 6.888889e+00	 1.011272e+01
0	 5.259259e+00	 6.962963e+00	 1.010795e+01
0	 5.259259e+00	 7.037037e+00	 1.010328e+01
0	 5.333333e+00	 6.666667e+00	 1.012733e+01
0	 5.333333e+00	 6.740741e+00	 1.012231e+01
0	 5.333333e+00	 6.814815e+00	 1.011739e+01
0	 5.333333e+00	 6.888889e+00	 1.011257e+01
0	 5.333333e+00	 6.962963e+00	 1.010784e+01
0	 5.333333e+00	 7.037037e+00	 1.010321e+01
0	 5.407407e+00	 6.666667e+00	 1.012683e+01
0	 5.407407e+00	 6.740741e+00	 1.012188e+01
0	 5.407407e+00	 6.814815e+00	 1.011701e+01
0	 5.407407e+00	 6.888889e+00	 1.011224e+01
0	 5.407407e+00	 6.962963e+00	 1.010757e+01
0	 5.407407e+00	 7.037037e+00	 1.010298e+01
0	 5.481481e+00	 6.666667e+00	 1.012616e+01
0	 5.481481e+00	 6.740741e+00	 1.012127e+01
0	 5.481481e+00	 6.814815e+00	 1.011647e+01
0	 5.481481e+00	 6.888889e+00	 1.011176e+01
0	 5.481481e+00	 6.962963e+00	 1.010713e+01
0	 5.481481e+00	 7.037037e+00	 1.010259e+01
0	 5.555556e+00	 6.666667e+00	 1.012533e+01
0	 5.555556e+00	 6.740741e+00	 1.012050e+01
0	 5.555556e+00	 6.814815e+00	 1.011577e+01
0	 5.555556e+00	 6.888889e+00	 1.011112e+01
0	 5.555556e+00	 6.962963e+00	 1.010656e+01
0	 5.555556e+00	 7.037037e+00	 1.010207e+01
0	 5.185185e+00	 7.037037e+00	 1.010319e+01
0	 5.185185e+00	 7.111111e+00	 1.009859e+01
0	 5.185185e+00	 7.185185e+00	 1.009410e+01
0	 5.185185e+00	 7.259259e+00	 1.008971e+01
0	 5.185185e+00	 7.333333e+00	 1.008542e+01
0	 5.185185e+00	 7.407407e+00	 1.008124e+01
0	 5.259259e+00	 7.037037e+00	 1.010328e+01
0	 5.259259e+00	 7.111111e+00	 1.009871e+01
0	 5.259259e+00	 7.185185e+00	 1.009424e+01
0	 5.259259e+00	 7.259259e+00	 1.008988e+01
0	 5.259259e+00	 7.333333e+00	 1.008561e+01
0	 5.259259e+00	 7.407407e+00	 1.008143e+01
0	 5.333333e+00	 7.037037e+00	 1.010321e+01
0	 5.333333e+00	 7.111111e+00	 1.009867e+01
0	 5.333333e+00	 7.185185e+00	 1.009423e+01
0	 5.333333e+00	 7.259259e+00	 1.008989e+01
0	 5.333333e+00	 7.333333e+00	 1.008564e+01
0	 5.333333e+00	 7.407407e+00	 1.008148e+01
0	 5.407407e+00	 7.037037e+00	 1.010298e+01
0	 5.407407e+00	 7.111111e+00	 1.009848e+01
0	 5.407407e+00	 7.185185e+00	 1.009407e+01
0	 5.407407e+00	 7.259259e+00	 1.008976e+01
0	 5.407407e+00	 7.333333e+00	 1.008554e+01
0	 5.407407e+00	 7.407407e+00	 1.008141e+01
0	 5.481481e+00	 7.037037e+00	 1.010259e+01
0	 5.481481e+00	 7.111111e+00	 1.009814e+01
0	 5.481481e+00	 7.185185e+00	 1.009378e+01
0	 5.481481e+00	 7.259259e+00	 1.008950e+01
0	 5.481481e+00	 7.333333e+00	 1.008531e+01
0	 5.481481e+00	 7.407407e+00	 1.008121e+01
0	 5.555556e+00	 7.037037e+00	 1.010207e+01
0	 5.555556e+00	 7.111111e+00	 1.009766e+01
0	 5.555556e+00	 7.185185e+00	 1.009335e+01
0	 5.555556e+00	 7.259259e+00	 1.008912e+01
0	 5.555556e+00	 7.333333e+00	 1.008497e+01
0	 5.555556e+00	 7.407407e+00	 1.008090e+01
0	 5.185185e+00	 7.407407e+00	 1.008124e+01
0	 5.185185e+00	 7.481481e+00	 1.007715e+01
0	 5.185185e+00	 7.555556e+00	 1.007316e+01
0	 5.185185e+00	 7.629630e+00	 1.006928e+01
0	 5.185185e+00	 7.703704e+00	 1.006549e+01
0	 5.185185e+00	 7.777778e+00	 1.006179e+01
0	 5.259259e+00	 7.407407e+00	 1.008143e+01
0	 5.259259e+00	 7.481481e+00	 1.007735e+01
0	 5.259259e+00	 7.555556e+00	 1.007337e+01
0	 5.259259e+00	 7.629630e+00	 1.006949e+01
0	 5.259259e+00	 7.703704e+00	 1.006570e+01
0	 5.259259e+00	 7.777778e+00	 1.006200e+01
0	 5.333333e+00	 7.407407e+00	 1.008148e+01
0	 5.333333e+00	 7.481481e+00	 1.007742e+01
0	 5.333333e+00	 7.555556e+00	 1.007346e+01
0	 5.333333e+00	 7.629630e+00	 1.006958e+01
0	 5.333333e+00	 7.703704e+00	 1.006580e+01
0	 5.333333e+00	 7.777778e+00	 1.006211e+01
0	 5.407407e+00	 7.407407e+00	 1.008141e+01
0	 5.407407e+00	 7.481481e+00	 1.007737e+01
0	 5.407407e+00	 7.555556e+00	 1.007342e+01
0	 5.407407e+00	 7.629630e+00	 1.006956e+01
0	 5.407407e+00	 7.703704e+00	 1.006580e+01
0	 5.407407e+00	 7.777778e+00	 1.006211e+01
0	 5.481481e+00	 7.407407e+00	 1.008121e+01
0	 5.481481e+00	 7.481481e+00	 1.007720e+01
0	 5.481481e+00	 7.555556e+00	 1.007327e+01
0	 5.481481e+00	 7.629630e+00	 1.006944e+01
0	 5.481481e+00	 7.703704e+00	 1.006569e+01
0	 5.481481e+00	 7.777778e+00	 1.006202e+01
0	 5.555556e+00	 7.407407e+00	 1.008090e+01
0	 5.555556e+00	 7.481481e+00	 1.007691e+01
0	 5.555556e+00	 7.555556e+00	 1.007302e+01
0	 5.555556e+00	 7.629630e+00	 1.006921e+01
0	 5.555556e+00	 7.703704e+00	 1.006549e+01
0	 5.555556e+00	 7.777778e+00	 1.006184e+01
0	 5.185185e+00	 7.777778e+00	 1.006179e+01
0	 5.185185e+00	 7.851852e+00	 1.005819e+01
0	 5.185185e+00	 7.925926e+00	 1.005469e+01
0	 5.185185e+00	 8.000000e+00	 1.005128e+01
0	 5.185185e+00	 8.074074e+00	 1.004797e+01
0	 5.185185e+00	 8.148148e+00	 1.004475e+01
0	 5.259259e+00	 7.777778e+00	 1.006200e+01
0	 5.259259e+00	 7.851852e+00	 1.005840e+01
0	 5.259259e+00	 7.925926e+00	 1.005489e+01
0	 5.259259e+00	 8.000000e+00	 1.005148e+01
0	 5.259259e+00	 8.074074e+00	 1.004817e+01
0	 5.259259e+00	 8.148148e+00	 1.004494e+01
0	 5.333333e+00	 7.777778e+00	 1.006211e+01
0	 5.333333e+00	 7.851852e+00	 1.005851e+01
0	 5.333333e+00	 7.925926e+00	 1.005501e+01
0	 5.333333e+00	 8.000000e+00	 1.005160e+01
0	 5.333333e+00	 8.074074e+00	 1.004828e+01
0	 5.333333e+00	 8.148148e+00	 1.004505e+01
0	 5.407407e+00	 7.777778e+00	 1.006211e+01
0	 5.407407e+00	 7.851852e+00	 1.005852e+01
0	 5.407407e+00	 7.925926e+00	 1.005503e+01
0	 5.407407e+00	 8.000000e+00	 1.005163e+01
0	 5.407407e+00	 8.074074e+00	 1.004831e+01
0	 5.407407e+00	 8.148148e+00	 1.004508e+01
0	 5.481481e+00	 7.777778e+00	 1.006202e+01
0	 5.481481e+00	 7.851852e+00	 1.005845e+01
0	 5.481481e+00	 7.925926e+00	 1.005497e+01
0	 5.481481e+00	 8.000000e+00	 1.005157e+01
0	 5.481481e+00	 8.074074e+00	 1.004827e+01
0	 5.481481e+00	 8.148148e+00	 1.004505e+01
0	 5.555556e+00	 7.777778e+00	 1.006184e+01
0	 5.555556e+00	 7.851852e+00	 1.005829e+01
0	 5.555556e+00	 7.925926e+00	 1.005482e+01
0	 5.555556e+00	 8.000000e+00	 1.005145e+01
0	 5.555556e+00	 8.074074e+00	 1.004816e+01
0	 5.555556e+00	 8.148148e+00	 1.004495e+01
0	 5.185185e+00	 8.148148e+00	 1.004475e+01
0	 5.185185e+00	 8.222222e+00	 1.004163e+01
0	 5.185185e+00	 8.296296e+00	 1.003860e+01
0	 5.185185e+00	 8.370370e+00	 1.003568e+01
0	 5.185185e+00	 8.444444e+00	 1.003285e+01
0	 5.185185e+00	 8.518519e+00	 1.003011e+01
0	 5.259259e+00	 8.148148e+00	 1.004494e+01
0	 5.259259e+00	 8.222222e+00	 1.004181e+01
0	 5.259259e+00	 8.296296e+00	 1.003877e+01
0	 5.259259e+00	 8.370370e+00	 1.003584e+01
0	 5.259259e+00	 8.444444e+00	 1.003300e+01
0	 5.259259e+00	 8.518519e+00	 1.003024e+01
0	 5.333333e+00	 8.148148e+00	 1.004505e+01
0	 5.333333e+00	 8.222222e+00	 1.004191e+01
0	 5.333333e+00	 8.296296e+00	 1.003888e+01
0	 5.333333e+00	 8.370370e+00	 1.003594e+01
0	 5.333333e+00	 8.444444e+00	 1.003309e+01
0	 5.333333e+00	 8.518519e+00	 1.003033e+01
0	 5.407407e+00	 8.148148e+00	 1.004508e+01
0	 5.407407e+00	 8.222222e+00	 1.004195e+01
0	 5.407407e+00	 8.296296e+00	 1.003891e+01
0	 5.407407e+00	 8.370370e+00	 1.003597e+01
0	 5.407407e+00	 8.444444e+00	 1.003312e+01
0	 5.407407e+00	 8.518519e+00	 1.003036e+01
0	 5.481481e+00	 8.148148e+00	 1.004505e+01
0	 5.481481e+00	 8.222222e+00	 1.004192e+01
0	 5.481481e+00	 8.296296e+00	 1.003889e+01
0	 5.481481e+00	 8.370370e+00	 1.003595e+01
0	 5.481481e+00	 8.444444e+00	 1.003311e+01
0	 5.481481e+00	 8.518519e+00	 1.003035e+01
0	 5.555556e+00	 8.148148e+00	 1.004495e+01
0	 5.555556e+00	 8.222222e+00	 1.004183e+01
0	 5.555556e+00	 8.296296e+00	 1.003881e+01
0	 5.555556e+00	 8.370370e+00	 1.003588e+01
0	 5.555556e+00	 8.444444e+00	 1.003304e+01
0	 5.555556e+00	 8.518519e+00	 1.003029e+01
0	 5.185185e+00	 8.518519e+00	 1.003011e+01
0	 5.185185e+00	 8.592593e+00	 1.002747e+01
0	 5.185185e+00	 8.666667e+00	 1.002493e+01
0	 5.185185e+00	 8.740741e+00	 1.002251e+01
0	 5.185185e+00	 8.814815e+00	 1.002018e+01
0	 5.185185e+00	 8.888889e+00	 1.001795e+01
0	 5.259259e+00	 8.518519e+00	 1.003024e+01
0	 5.259259e+00	 8.592593e+00	 1.002759e+01
0	 5.259259e+00	 8.666667e+00	 1.002505e+01
0	 5.259259e+00	 8.740741e+00	 1.002261e+01
0	 5.259259e+00	 8.814815e+00	 1.002027e+01
0	 5.259259e+00	 8.888889e+00	 1.001803e+01
0	 5.333333e+00	 8.518519e+00	 1.003033e+01
0	 5.333333e+00	 8.592593e+00	 1.002767e+01
0	 5.333333e+00	 8.666667e+00	 1.002512e+01
0	 5.333333e+00	 8.740741e+00	 1.002268e+01
0	 5.333333e+00	 8.814815e+00	 1.002033e+01
0	 5.333333e+00	 8.888889e+00	 1.001808e+01
0	 5.407407e+00	 8.518519e+00	 1.003036e+01
0	 5.407407e+00	 8.592593e+00	 1.002770e+01
0	 5.407407e+00	 8.666667e+00	 1.002515e+01
0	 5.407407e+00	 8.740741e+00	 1.002270e+01
0	 5.407407e+00	 8.814815e+00	 1.002036e+01
0	 5.407407e+00	 8.888889e+00	 1.001810e+01
0	 5.481481e+00	 8.518519e+00	 1.003035e+01
0	 5.481481e+00	 8.592593e+00	 1.002769e+01
0	 5.481481e+00	 8.666667e+00	 1.002514e+01
0	 5.481481e+00	 8.740741e+00	 1.002270e+01
0	 5.481481e+00	 8.814815e+00	 1.002035e+01
0	 5.481481e+00	 8.888889e+00	 1.001810e+01
0	 5.555556e+00	 8.518519e+00	 1.003029e+01
0	 5.555556e+00	 8.592593e+00	 1.002764e+01
0	 5.555556e+00	 8.666667e+00	 1.002509e+01
0	 5.555556e+00	 8.740741e+00	 1.002265e+01
0	 5.555556e+00	 8.814815e+00	 1.002031e+01
0	 5.555556e+00	 8.888889e+00	 1.001806e+01
0	 5.185185e+00	 8.888889e+00	 1.001795e+01
0	 5.185185e+00	 8.962963e+00	 1.001582e+01
0	 5.185185e+00	 9.037037e+00	 1.001383e+01
0	 5.185185e+00	 9.111111e+00	 1.001195e+01
0	 5.185185e+00	 9.185185e+00	 1.001018e+01
0	 5.185185e+00	 9.259259e+00	 1.000852e+01
0	 5.259259e+00	 8.888889e+00	 1.001803e+01
0	 5.259259e+00	 8.962963e+00	 1.001590e+01
0	 5.259259e+00	 9.037037e+00	 1.001389e+01
0	 5.259259e+00	 9.111111e+00	 1.001200e+01
0	 5.259259e+00	 9.185185e+00	 1.001023e+01
0	 5.259259e+00	 9.259259e+00	 1.000856e+01
0	 5.333333e+00	 8.888889e+00	 1.001808e+01
0	 5.333333e+00	 8.962963e+00	 1.001594e+01
0	 5.333333e+00	 9.037037e+00	 1.001393e+01
0	 5.333333e+00	 9.111111e+00	 1.001203e+01
0	 5.333333e+00	 9.185185e+00	 1.001025e+01
0	 5.333333e+00	 9.259259e+00	 1.000858e+01
0	 5.407407e+00	 8.888889e+00	 1.001810e+01
0	 5.407407e+00	 8.962963e+00	 1.001596e+01
0	 5.407407e+00	 9.037037e+00	 1.001394e+01
0	 5.407407e+00	 9.111111e+00	 1.001205e+01
0	 5.407407e+00	 9.185185e+00	 1.001026e+01
0	 5.407407e+00	 9.259259e+00	 1.000859e+01
0	 5.481481e+00	 8.888889e+00	 1.001810e+01
0	 5.481481e+00	 8.962963e+00	 1.001595e+01
0	 5.481481e+00	 9.037037e+00	 1.001394e+01
0	 5.481481e+00	 9.111111e+00	 1.001204e+01
0	 5.481481e+00	 9.185185e+00	 1.001026e+01
0	 5.481481e+00	 9.259259e+00	 1.000858e+01
0	 5.555556e+00	 8.888889e+00	 1.001806e+01
0	 5.555556e+00	 8.962963e+00	 1.001592e+01
0	 5.555556e+00	 9.037037e+00	 1.001391e+01
0	 5.555556e+00	 9.111111e+00	 1.001202e+01
0	 5.555556e+00	 9.185185e+00	 1.001024e+01
0	 5.555556e+00	 9.259259e+00	 1.000856e+01
0	 5.185185e+00	 9.259259e+00	 1.000852e+01
0	 5.185185e+00	 9.333333e+00	 1.000699e+01
0	 5.185185e+00	 9.407407e+00	 1.000561e+01
0	 5.185185e+00	 9.481481e+00	 1.000437e+01
0	 5.185185e+00	 9.555556e+00	 1.000327e+01
0	 5.185185e+00	 9.629630e+00	 1.000229e+01
0	 5.259259e+00	 9.259259e+00	 1.000856e+01
0	 5.259259e+00	 9.333333e+00	 1.000702e+01
0	 5.259259e+00	 9.407407e+00	 1.000563e+01
0	 5.259259e+00	 9.481481e+00	 1.000439e+01
0	 5.259259e+00	 9.555556e+00	 1.000328e+01
0	 5.259259e+00	 9.629630e+00	 1.000230e+01
0	 5.333333e+00	 9.259259e+00	 1.000858e+01
0	 5.333333e+00	 9.333333e+00	 1.000703e+01
0	 5.333333e+00	 9.407407e+00	 1.000564e+01
0	 5.333333e+00	 9.481481e+00	 1.000440e+01
0	 5.333333e+00	 9.555556e+00	 1.000329e+01
0	 5.333333e+00	 9.629630e+00	 1.000231e+01
0	 5.407407e+00	 9.259259e+00	 1.000859e+01
0	 5.407407e+00	 9.333333e+00	 1.000704e+01
0	 5.407407e+00	 9.407407e+00	 1.000565e+01
0	 5.407407e+00	 9.481481e+00	 1.000440e+01
0	 5.407407e+00	 9.555556e+00	 1.000329e+01
0	 5.407407e+00	 9.629630e+00	 1.000231e+01
0	 5.481481e+00	 9.259259e+00	 1.000858e+01
0	 5.481481e+00	 9.333333e+00	 1.000703e+01
0	 5.481481e+00	 9.407407e+00	 1.000564e+01
0	 5.481481e+00	 9.481481e+00	 1.000440e+01
0	 5.481481e+00	 9.555556e+00	 1.000329e+01
0	 5.481481e+00	 9.629630e+00	 1.000231e+01
0	 5.555556e+00	 9.259259e+00	 1.000856e+01
0	 5.555556e+00	 9.333333e+00	 1.000702e+01
0	 5.555556e+00	 9.407407e+00	 1.000563e+01
0	 5.555556e+00	 9.481481e+00	 1.000439e+01
0	 5.555556e+00	 9.555556e+00	 1.000328e+01
0	 5.555556e+00	 9.629630e+00	 1.000230e+01
0	 5.185185e+00	 9.629630e+00	 1.000229e+01
0	 5.185185e+00	 9.703704e+00	 1.000148e+01
0	 5.185185e+00	 9.777778e+00	 1.000085e+01
0	 5.185185e+00	 9.851852e+00	 1.000040e+01
0	 5.185185e+00	 9.925926e+00	 1.000011e+01
0	 5.185185e+00	 1.000000e+01	 9.999974e+00
0	 5.259259e+00	 9.629630e+00	 1.000230e+01
0	 5.259259e+00	 9.703704e+00	 1.000148e+01
0	 5.259259e+00	 9.777778e+00	 1.000085e+01
0	 5.259259e+00	 9.851852e+00	 1.000040e+01
0	 5.259259e+00	 9.925926e+00	 1.000011e+01
0	 5.259259e+00	 1.000000e+01	 9.999973e+00
0	 5.333333e+00	 9.629630e+00	 1.000231e+01
0	 5.333333e+00	 9.703704e+00	 1.000148e+01
0	 5.333333e+00	 9.777778e+00	 1.000085e+01
0	 5.333333e+00	 9.851852e+00	 1.000040e+01
0	 5.333333e+00	 9.925926e+00	 1.000011e+01
0	 5.333333e+00	 1.000000e+01	 9.999973e+00
0	 5.407407e+00	 9.629630e+00	 1.000231e+01
0	 5.407407e+00	 9.703704e+00	 1.000149e+01
0	 5.407407e+00	 9.777778e+00	 1.000085e+01
0	 5.407407e+00	 9.851852e+00	 1.000040e+01
0	 5.407407e+00	 9.925926e+00	 1.000011e+01
0	 5.407407e+00	 1.000000e+01	 9.999974e+00
0	 5.481481e+00	 9.629630e+00	 1.000231e+01
0	 5.481481e+00	 9.703704e+00	 1.000148e+01
0	 5.481481e+00	 9.777778e+00	 1.000085e+01
0	 5.481481e+00	 9.851852e+00	 1.000040e+01
0	 5.481481e+00	 9.925926e+00	 1.000011e+01
0	 5.481481e+00	 1.000000e+01	 9.999974e+00
0	 5.555556e+00	 9.629630e+00	 1.000230e+01
0	 5.555556e+00	 9.703704e+00	 1.000148e+01
0	 5.555556e+00	 9.777778e+00	 1.000085e+01
0	 5.555556e+00	 9.851852e+00	 1.000039e+01
0	 5.555556e+00	 9.925926e+00	 1.000011e+01
0	 5.555556e+00	 1.000000e+01	 9.999975e+00
0	 5.555556e+00	 0.000000e+00	 1.024749e+01
0	 5.555556e+00	 7.407407e-02	 1.024764e+01
0	 5.555556e+00	 1.481481e-01	 1.024829e+01
0	 5.555556e+00	 2.222222e-01	 1.024942e+01
0	 5.555556e+00	 2.962963e-01	 1.025101e+01
0	 5.555556e+00	 3.703704e-01	 1.025304e+01
0	 5.629630e+00	 0.000000e+00	 1.023823e+01
0	 5.629630e+00	 7.407407e-02	 1.023848e+01
0	 5.629630e+00	 1.481481e-01	 1.023913e+01
0	 5.629630e+00	 2.222222e-01	 1.024018e+01
0	 5.629630e+00	 2.962963e-01	 1.024165e+01
0	 5.629630e+00	 3.703704e-01	 1.024355e+01
0	 5.703704e+00	 0.000000e+00	 1.022911e+01
0	 5.703704e+00	 7.407407e-02	 1.022942e+01
0	 5.703704e+00	 1.481481e-01	 1.023005e+01
0	 5.703704e+00	 2.222222e-01	 1.023104e+01
0	 5.703704e+00	 2.962963e-01	 1.023242e+01
0	 5.703704e+00	 3.703704e-01	 1.023421e+01
0	 5.777778e+00	 0.000000e+00	 1.022015e+01
0	 5.777778e+00	 7.407407e-02	 1.022046e+01
0	 5.777778e+00	 1.481481e-01	 1.022106e+01
0	 5.777778e+00	 2.222222e-01	 1.022200e+01
0	 5.777778e+00	 2.962963e-01	 1.022331e+01
0	 5.777778e+00	 3.703704e-01	 1.022503e+01
0	 5.851852e+00	 0.000000e+00	 1.021133e+01
0	 5.851852e+00	 7.407407e-02	 1.021161e+01
0	 5.851852e+00	 1.481481e-01	 1.021218e+01
0	 5.851852e+00	 2.222222e-01	 1.021307e+01
0	 5.851852e+00	 2.962963e-01	 1.021433e+01
0	 5.851852e+00	 3.703704e-01	 1.021599e+01
0	 5.925926e+00	 0.000000e+00	 1.020268e+01
0	 5.925926e+00	 7.407407e-02	 1.020288e+01
0	 5.925926e+00	 1.481481e-01	 1.020340e+01
0	 5.925926e+00	 2.222222e-01	 1.020426e+01
0	 5.925926e+00	 2.962963e-01	 1.020548e+01
0	 5.925926e+00	 3.703704e-01	 1.020709e+01
0	 5.555556e+00	 3.703704e-01	 1.025304e+01
0	 5.555556e+00	 4.444444e-01	 1.025545e+01
0	 5.555556e+00	 5.185185e-01	 1.025818e+01
0	 5.555556e+00	 5.925926e-01	 1.026128e+01
0	 5.555556e+00	 6.666667e-01	 1.026477e+01
0	 5.555556e+00	 7.407407e-01	 1.026870e+01
0	 5.629630e+00	 3.703704e-01	 1.024355e+01
0	 5.629630e+00	 4.444444e-01	 1.024581e+01
0	 5.629630e+00	 5.185185e-01	 1.024841e+01
0	 5.629630e+00	 5.925926e-01	 1.025137e+01
0	 5.629630e+00	 6.666667e-01	 1.025471e+01
0	 5.629630e+00	 7.407407e-01	 1.025847e+01
0	 5.703704e+00	 3.703704e-01	 1.023421e+01
0	 5.703704e+00	 4.444444e-01	 1.023637e+01
0	 5.703704e+00	 5.185185e-01	 1.023885e+01
0	 5.703704e+00	 5.925926e-01	 1.024167e+01
0	 5.703704e+00	 6.666667e-01	 1.024486e+01
0	 5.703704e+00	 7.407407e-01	 1.024844e+01
0	 5.777778e+00	 3.703704e-01	 1.022503e+01
0	 5.777778e+00	 4.444444e-01	 1.022710e+01
0	 5.777778e+00	 5.185185e-01	 1.022948e+01
0	 5.777778e+00	 5.925926e-01	 1.023217e+01
0	 5.777778e+00	 6.666667e-01	 1.023520e+01
0	 5.777778e+00	 7.407407e-01	 1.023860e+01
0	 5.851852e+00	 3.703704e-01	 1.021599e+01
0	 5.851852e+00	 4.444444e-01	 1.021799e+01
0	 5.851852e+00	 5.185185e-01	 1.022027e+01
0	 5.851852e+00	 5.925926e-01	 1.022284e+01
0	 5.851852e+00	 6.666667e-01	 1.022572e+01
0	 5.851852e+00	 7.407407e-01	 1.022893e+01
0	 5.925926e+00	 3.703704e-01	 1.020709e+01
0	 5.925926e+00	 4.444444e-01	 1.020902e+01
0	 5.925926e+00	 5.185185e-01	 1.021120e+01
0	 5.925926e+00	 5.925926e-01	 1.021365e+01
0	 5.925926e+00	 6.666667e-01	 1.021639e+01
0	 5.925926e+00	 7.407407e-01	 1.021943e+01
0	 5.555556e+00	 7.407407e-01	 1.026870e+01
0	 5.555556e+00	 8.148148e-01	 1.027290e+01
0	 5.555556e+00	 8.888889e-01	 1.027720e+01
0	 5.555556e+00	 9.629630e-01	 1.028167e+01
0	 5.555556e+00	 1.037037e+00	 1.028633e+01
0	 5.555556e+00	 1.111111e+00	 1.029124e+01
0	 5.629630e+00	 7.407407e-01	 1.025847e+01
0	 5.629630e+00	 8.148148e-01	 1.026249e+01
0	 5.629630e+00	 8.888889e-01	 1.026661e+01
0	 5.629630e+00	 9.629630e-01	 1.027089e+01
0	 5.629630e+00	 1.037037e+00	 1.027535e+01
0	 5.629630e+00	 1.111111e+00	 1.028004e+01
0	 5.703704e+00	 7.407407e-01	 1.024844e+01
0	 5.703704e+00	 8.148148e-01	 1.025226e+01
0	 5.703704e+00	 8.888889e-01	 1.025621e+01
0	 5.703704e+00	 9.629630e-01	 1.026030e+01
0	 5.703704e+00	 1.037037e+00	 1.026458e+01
0	 5.703704e+00	 1.111111e+00	 1.026909e+01
0	 5.777778e+00	 7.407407e-01	 1.023860e+01
0	 5.777778e+00	 8.148148e-01	 1.024223e+01
0	 5.777778e+00	 8.888889e-01	 1.024599e+01
0	 5.777778e+00	 9.629630e-01	 1.024991e+01
0	 5.777778e+00	 1.037037e+00	 1.025402e+01
0	 5.777778e+00	 1.111111e+00	 1.025835e+01
0	 5.851852e+00	 7.407407e-01	 1.022893e+01
0	 5.851852e+00	 8.148148e-01	 1.023237e+01
0	 5.851852e+00	 8.888889e-01	 1.023595e+01
0	 5.851852e+00	 9.629630e-01	 1.023970e+01
0	 5.851852e+00	 1.037037e+00	 1.024365e+01
0	 5.851852e+00	 1.111111e+00	 1.024782e+01
0	 5.925926e+00	 7.407407e-01	 1.021943e+01
0	 5.925926e+00	 8.148148e-01	 1.022270e+01
0	 5.925926e+00	 8.888889e-01	 1.022611e+01
0	 5.925926e+00	 9.629630e-01	 1.022969e+01
0	 5.925926e+00	 1.037037e+00	 1.023347e+01
0	 5.925926e+00	 1.111111e+00	 1.023749e+01
0	 5.555556e+00	 1.111111e+00	 1.029124e+01
0	 5.555556e+00	 1.185185e+00	 1.029624e+01
0	 5.555556e+00	 1.259259e+00	 1.030121e+01
0	 5.555556e+00	 1.333333e+00	 1.030617e+01
0	 5.555556e+00	 1.407407e+00	 1.031117e+01
0	 5.555556e+00	 1.481481e+00	 1.031624e+01
0	 5.629630e+00	 1.111111e+00	 1.028004e+01
0	 5.629630e+00	 1.185185e+00	 1.028483e+01
0	 5.629630e+00	 1.259259e+00	 1.028959e+01
0	 5.629630e+00	 1.333333e+00	 1.029434e+01
0	 5.629630e+00	 1.407407e+00	 1.029914e+01
0	 5.629630e+00	 1.481481e+00	 1.030403e+01
0	 5.703704e+00	 1.111111e+00	 1.026909e+01
0	 5.703704e+00	 1.185185e+00	 1.027369e+01
0	 5.703704e+00	 1.259259e+00	 1.027825e+01
0	 5.703704e+00	 1.333333e+00	 1.028283e+01
0	 5.703704e+00	 1.407407e+00	 1.028746e+01
0	 5.703704e+00	 1.481481e+00	 1.029216e+01
0	 5.777778e+00	 1.111111e+00	 1.025835e+01
0	 5.777778e+00	 1.185185e+00	 1.026278e+01
0	 5.777778e+00	 1.259259e+00	 1.026718e+01
0	 5.777778e+00	 1.333333e+00	 1.027160e+01
0	 5.777778e+00	 1.407407e+00	 1.027606e+01
0	 5.777778e+00	 1.481481e+00	 1.028061e+01
0	 5.851852e+00	 1.111111e+00	 1.024782e+01
0	 5.851852e+00	 1.185185e+00	 1.025209e+01
0	 5.851852e+00	 1.259259e+00	 1.025634e+01
0	 5.851852e+00	 1.333333e+00	 1.026061e+01
0	 5.851852e+00	 1.407407e+00	 1.026492e+01
0	 5.851852e+00	 1.481481e+00	 1.026931e+01
0	 5.925926e+00	 1.111111e+00	 1.023749e+01
0	 5.925926e+00	 1.185185e+00	 1.024160e+01
0	 5.925926e+00	 1.259259e+00	 1.024570e+01
0	 5.925926e+00	 1.333333e+00	 1.024982e+01
0	 5.925926e+00	 1.407407e+00	 1.025398e+01
0	 5.925926e+00	 1.481481e+00	 1.025823e+01
0	 5.555556e+00	 1.481481e+00	 1.031624e+01
0	 5.555556e+00	 1.555556e+00	 1.032124e+01
0	 5.555556e+00	 1.629630e+00	 1.032602e+01
0	 5.555556e+00	 1.703704e+00	 1.033062e+01
0	 5.555556e+00	 1.777778e+00	 1.033508e+01
0	 5.555556e+00	 1.851852e+00	 1.033944e+01
0	 5.629630e+00	 1.481481e+00	 1.030403e+01
0	 5.629630e+00	 1.555556e+00	 1.030885e+01
0	 5.629630e+00	 1.629630e+00	 1.031348e+01
0	 5.629630e+00	 1.703704e+00	 1.031795e+01
0	 5.629630e+00	 1.777778e+00	 1.032230e+01
0	 5.629630e+00	 1.851852e+00	 1.032657e+01
0	 5.703704e+00	 1.481481e+00	 1.029216e+01
0	 5.703704e+00	 1.555556e+00	 1.029682e+01
0	 5.703704e+00	 1.629630e+00	 1.030131e+01
0	 5.703704e+00	 1.703704e+00	 1.030565e+01
0	 5.703704e+00	 1.777778e+00	 1.030988e+01
0	 5.703704e+00	 1.851852e+00	 1.031404e+01
0	 5.777778e+00	 1.481481e+00	 1.028061e+01
0	 5.777778e+00	 1.555556e+00	 1.028511e+01
0	 5.777778e+00	 1.629630e+00	 1.028946e+01
0	 5.777778e+00	 1.703704e+00	 1.029367e+01
0	 5.777778e+00	 1.777778e+00	 1.029778e+01
0	 5.777778e+00	 1.851852e+00	 1.030182e+01
0	 5.851852e+00	 1.481481e+00	 1.026931e+01
0	 5.851852e+00	 1.555556e+00	 1.027367e+01
0	 5.851852e+00	 1.629630e+00	 1.027788e+01
0	 5.851852e+00	 1.703704e+00	 1.028196e+01
0	 5.851852e+00	 1.777778e+00	 1.028595e+01
0	 5.851852e+00	 1.851852e+00	 1.028988e+01
0	 5.925926e+00	 1.481481e+00	 1.025823e+01
0	 5.925926e+00	 1.555556e+00	 1.026245e+01
0	 5.925926e+00	 1.629630e+00	 1.026652e+01
0	 5.925926e+00	 1.703704e+00	 1.027048e+01
0	 5.925926e+00	 1.777778e+00	 1.027436e+01
0	 5.925926e+00	 1.851852e+00	 1.027818e+01
0	 5.555556e+00	 1.851852e+00	 1.033944e+01
0	 5.555556e+00	 1.925926e+00	 1.034357e+01
0	 5.555556e+00	 2.000000e+00	 1.034736e+01
0	 5.555556e+00	 2.074074e+00	 1.035083e+01
0	 5.555556e+00	 2.148148e+00	 1.035400e+01
0	 5.555556e+00	 2.222222e+00	 1.035690e+01
0	 5.629630e+00	 1.851852e+00	 1.032657e+01
0	 5.629630e+00	 1.925926e+00	 1.033063e+01
0	 5.629630e+00	 2.000000e+00	 1.033436e+01
0	 5.629630e+00	 2.074074e+00	 1.033780e+01
0	 5.629630e+00	 2.148148e+00	 1.034095e+01
0	 5.629630e+00	 2.222222e+00	 1.034386e+01
0	 5.703704e+00	 1.851852e+00	 1.031404e+01
0	 5.703704e+00	 1.925926e+00	 1.031801e+01
0	 5.703704e+00	 2.000000e+00	 1.032168e+01
0	 5.703704e+00	 2.074074e+00	 1.032507e+01
0	 5.703704e+00	 2.148148e+00	 1.032821e+01
0	 5.703704e+00	 2.222222e+00	 1.033112e+01
0	 5.777778e+00	 1.851852e+00	 1.030182e+01
0	 5.777778e+00	 1.925926e+00	 1.030570e+01
0	 5.777778e+00	 2.000000e+00	 1.030929e+01
0	 5.777778e+00	 2.074074e+00	 1.031264e+01
0	 5.777778e+00	 2.148148e+00	 1.031575e+01
0	 5.777778e+00	 2.222222e+00	 1.031867e+01
0	 5.851852e+00	 1.851852e+00	 1.028988e+01
0	 5.851852e+00	 1.925926e+00	 1.029365e+01
0	 5.851852e+00	 2.000000e+00	 1.029718e+01
0	 5.851852e+00	 2.074074e+00	 1.030047e+01
0	 5.851852e+00	 2.148148e+00	 1.030356e+01
0	 5.851852e+00	 2.222222e+00	 1.030647e+01
0	 5.925926e+00	 1.851852e+00	 1.027818e+01
0	 5.925926e+00	 1.925926e+00	 1.028186e+01
0	 5.925926e+00	 2.000000e+00	 1.028531e+01
0	 5.925926e+00	 2.074074e+00	 1.028855e+01
0	 5.925926e+00	 2.148148e+00	 1.029161e+01
0	 5.925926e+00	 2.222222e+00	 1.029451e+01
0	 5.555556e+00	 2.222222e+00	 1.035690e+01
0	 5.555556e+00	 2.296296e+00	 1.035948e+01
0	 5.555556e+00	 2.370370e+00	 1.036169e+01
0	 5.555556e+00	 2.444444e+00	 1.036354e+01
0	 5.555556e+00	 2.518519e+00	 1.036504e+01
0	 5.555556e+00	 2.592593e+00	 1.036621e+01
0	 5.629630e+00	 2.222222e+00	 1.034386e+01
0	 5.629630e+00	 2.296296e+00	 1.034646e+01
0	 5.629630e+00	 2.370370e+00	 1.034872e+01
0	 5.629630e+00	 2.444444e+00	 1.035064e+01
0	 5.629630e+00	 2.518519e+00	 1.035224e+01
0	 5.629630e+00	 2.592593e+00	 1.035353e+01
0	 5.703704e+00	 2.222222e+00	 1.033112e+01
0	 5.703704e+00	 2.296296e+00	 1.033375e+01
0	 5.703704e+00	 2.370370e+00	 1.033605e+01
0	 5.703704e+00	 2.444444e+00	 1.033803e+01
0	 5.703704e+00	 2.518519e+00	 1.033971e+01
0	 5.703704e+00	 2.592593e+00	 1.034110e+01
0	 5.777778e+00	 2.222222e+00	 1.031867e+01
0	 5.777778e+00	 2.296296e+00	 1.032132e+01
0	 5.777778e+00	 2.370370e+00	 1.032366e+01
0	 5.777778e+00	 2.444444e+00	 1.032569e+01
0	 5.777778e+00	 2.518519e+00	 1.032743e+01
0	 5.777778e+00	 2.592593e+00	 1.032890e+01
0	 5.851852e+00	 2.222222e+00	 1.030647e+01
0	 5.851852e+00	 2.296296e+00	 1.030914e+01
0	 5.851852e+00	 2.370370e+00	 1.031151e+01
0	 5.851852e+00	 2.444444e+00	 1.031358e+01
0	 5.851852e+00	 2.518519e+00	 1.031538e+01
0	 5.851852e+00	 2.592593e+00	 1.031692e+01
0	 5.925926e+00	 2.222222e+00	 1.029451e+01
0	 5.925926e+00	 2.296296e+00	 1.029719e+01
0	 5.925926e+00	 2.370370e+00	 1.029958e+01
0	 5.925926e+00	 2.444444e+00	 1.030168e+01
0	 5.925926e+00	 2.518519e+00	 1.030353e+01
0	 5.925926e+00	 2.592593e+00	 1.030512e+01
0	 5.555556e+00	 2.592593e+00	 1.036621e+01
0	 5.555556e+00	 2.666667e+00	 1.036704e+01
0	 5.555556e+00	 2.740741e+00	 1.036747e+01
0	 5.555556e+00	 2.814815e+00	 1.036753e+01
0	 5.555556e+00	 2.888889e+00	 1.036721e+01
0	 5.555556e+00	 2.962963e+00	 1.036652e+01
0	 5.629630e+00	 2.592593e+00	 1.035353e+01
0	 5.629630e+00	 2.666667e+00	 1.035449e+01
0	 5.629630e+00	 2.740741e+00	 1.035508e+01
0	 5.629630e+00	 2.814815e+00	 1.035530e+01
0	 5.629630e+00	 2.888889e+00	 1.035516e+01
0	 5.629630e+00	 2.962963e+00	 1.035467e+01
0	 5.703704e+00	 2.592593e+00	 1.034110e+01
0	 5.703704e+00	 2.666667e+00	 1.034217e+01
0	 5.703704e+00	 2.740741e+00	 1.034289e+01
0	 5.703704e+00	 2.814815e+00	 1.034326e+01
0	 5.703704e+00	 2.888889e+00	 1.034329e+01
0	 5.703704e+00	 2.962963e+00	 1.034298e+01
0	 5.777778e+00	 2.592593e+00	 1.032890e+01
0	 5.777778e+00	 2.666667e+00	 1.033007e+01
0	 5.777778e+00	 2.740741e+00	 1.033090e+01
0	 5.777778e+00	 2.814815e+00	 1.033140e+01
0	 5.777778e+00	 2.888889e+00	 1.033158e+01
0	 5.777778e+00	 2.962963e+00	 1.033145e+01
0	 5.851852e+00	 2.592593e+00	 1.031692e+01
0	 5.851852e+00	 2.666667e+00	 1.031817e+01
0	 5.851852e+00	 2.740741e+00	 1.031910e+01
0	 5.851852e+00	 2.814815e+00	 1.031972e+01
0	 5.851852e+00	 2.888889e+00	 1.032005e+01
0	 5.851852e+00	 2.962963e+00	 1.032008e+01
0	 5.925926e+00	 2.592593e+00	 1.030512e+01
0	 5.925926e+00	 2.666667e+00	 1.030645e+01
0	 5.925926e+00	 2.740741e+00	 1.030747e+01
0	 5.925926e+00	 2.814815e+00	 1.030821e+01
0	 5.925926e+00	 2.888889e+00	 1.030866e+01
0	 5.925926e+00	 2.962963e+00	 1.030884e+01
0	 5.555556e+00	 2.962963e+00	 1.036652e+01
0	 5.555556e+00	 3.037037e+00	 1.036548e+01
0	 5.555556e+00	 3.111111e+00	 1.036412e+01
0	 5.555556e+00	 3.185185e+00	 1.036242e+01
0	 5.555556e+00	 3.259259e+00	 1.036040e+01
0	 5.555556e+00	 3.333333e+00	 1.035803e+01
0	 5.629630e+00	 2.962963e+00	 1.035467e+01
0	 5.629630e+00	 3.037037e+00	 1.035385e+01
0	 5.629630e+00	 3.111111e+00	 1.035271e+01
0	 5.629630e+00	 3.185185e+00	 1.035125e+01
0	 5.629630e+00	 3.259259e+00	 1.034948e+01
0	 5.629630e+00	 3.333333e+00	 1.034738e+01
0	 5.703704e+00	 2.962963e+00	 1.034298e+01
0	 5.703704e+00	 3.037037e+00	 1.034236e+01
0	 5.703704e+00	 3.111111e+00	 1.034143e+01
0	 5.703704e+00	 3.185185e+00	 1.034020e+01
0	 5.703704e+00	 3.259259e+00	 1.033866e+01
0	 5.703704e+00	 3.333333e+00	 1.033681e+01
0	 5.777778e+00	 2.962963e+00	 1.033145e+01
0	 5.777778e+00	 3.037037e+00	 1.033102e+01
0	 5.777778e+00	 3.111111e+00	 1.033029e+01
0	 5.777778e+00	 3.185185e+00	 1.032926e+01
0	 5.777778e+00	 3.259259e+00	 1.032794e+01
0	 5.777778e+00	 3.333333e+00	 1.032631e+01
0	 5.851852e+00	 2.962963e+00	 1.032008e+01
0	 5.851852e+00	 3.037037e+00	 1.031982e+01
0	 5.851852e+00	 3.111111e+00	 1.031927e+01
0	 5.851852e+00	 3.185185e+00	 1.031843e+01
0	 5.851852e+00	 3.259259e+00	 1.031730e+01
0	 5.851852e+00	 3.333333e+00	 1.031588e+01
0	 5.925926e+00	 2.962963e+00	 1.030884e+01
0	 5.925926e+00	 3.037037e+00	 1.030874e+01
0	 5.925926e+00	 3.111111e+00	 1.030836e+01
0	 5.925926e+00	 3.185185e+00	 1.030770e+01
0	 5.925926e+00	 3.259259e+00	 1.030676e+01
0	 5.925926e+00	 3.333333e+00	 1.030553e+01
0	 5.555556e+00	 3.333333e+00	 1.035803e+01
0	 5.555556e+00	 3.407407e+00	 1.035538e+01
0	 5.555556e+00	 3.481481e+00	 1.035245e+01
0	 5.555556e+00	 3.555556e+00	 1.034925e+01
0	 5.555556e+00	 3.629630e+00	 1.034577e+01
0	 5.555556e+00	 3.703704e+00	 1.034199e+01
0	 5.629630e+00	 3.333333e+00	 1.034738e+01
0	 5.629630e+00	 3.407407e+00	 1.034500e+01
0	 5.629630e+00	 3.481481e+00	 1.034235e+01
0	 5.629630e+00	 3.555556e+00	 1.033943e+01
0	 5.629630e+00	 3.629630e+00	 1.033623e+01
0	 5.629630e+00	 3.703704e+00	 1.033274e+01
0	 5.703704e+00	 3.333333e+00	 1.033681e+01
0	 5.703704e+00	 3.407407e+00	 1.033467e+01
0	 5.703704e+00	 3.481481e+00	 1.033228e+01
0	 5.703704e+00	 3.555556e+00	 1.032962e+01
0	 5.703704e+00	 3.629630e+00	 1.032669e+01
0	 5.703704e+00	 3.703704e+00	 1.032348e+01
0	 5.777778e+00	 3.333333e+00	 1.032631e+01
0	 5.777778e+00	 3.407407e+00	 1.032440e+01
0	 5.777778e+00	 3.481481e+00	 1.032224e+01
0	 5.777778e+00	 3.555556e+00	 1.031983e+01
0	 5.777778e+00	 3.629630e+00	 1.031716e+01
0	 5.777778e+00	 3.703704e+00	 1.031421e+01
0	 5.851852e+00	 3.333333e+00	 1.031588e+01
0	 5.851852e+00	 3.407407e+00	 1.031419e+01
0	 5.851852e+00	 3.481481e+00	 1.031226e+01
0	 5.851852e+00	 3.555556e+00	 1.031008e+01
0	 5.851852e+00	 3.629630e+00	 1.030765e+01
0	 5.851852e+00	 3.703704e+00	 1.030496e+01
0	 5.925926e+00	 3.333333e+00	 1.030553e+01
0	 5.925926e+00	 3.407407e+00	 1.030405e+01
0	 5.925926e+00	 3.481481e+00	 1.030233e+01
0	 5.925926e+00	 3.555556e+00	 1.030037e+01
0	 5.925926e+00	 3.629630e+00	 1.029817e+01
0	 5.925926e+00	 3.703704e+00	 1.029572e+01
0	 5.555556e+00	 3.703704e+00	 1.034199e+01
0	 5.555556e+00	 3.777778e+00	 1.033797e+01
0	 5.555556e+00	 3.851852e+00	 1.033378e+01
0	 5.555556e+00	 3.925926e+00	 1.032939e+01
0	 5.555556e+00	 4.000000e+00	 1.032480e+01
0	 5.555556e+00	 4.074074e+00	 1.031999e+01
0	 5.629630e+00	 3.703704e+00	 1.033274e+01
0	 5.629630e+00	 3.777778e+00	 1.032902e+01
0	 5.629630e+00	 3.851852e+00	 1.032512e+01
0	 5.629630e+00	 3.925926e+00	 1.032103e+01
0	 5.629630e+00	 4.000000e+00	 1.031674e+01
0	 5.629630e+00	 4.074074e+00	 1.031223e+01
0	 5.703704e+00	 3.703704e+00	 1.032348e+01
0	 5.703704e+00	 3.777778e+00	 1.032004e+01
0	 5.703704e+00	 3.851852e+00	 1.031643e+01
0	 5.703704e+00	 3.925926e+00	 1.031262e+01
0	 5.703704e+00	 4.000000e+00	 1.030861e+01
0	 5.703704e+00	 4.074074e+00	 1.030439e+01
0	 5.777778e+00	 3.703704e+00	 1.031421e+01
0	 5.777778e+00	 3.777778e+00	 1.031105e+01
0	 5.777778e+00	 3.851852e+00	 1.030770e+01
0	 5.777778e+00	 3.925926e+00	 1.030416e+01
0	 5.777778e+00	 4.000000e+00	 1.030042e+01
0	 5.777778e+00	 4.074074e+00	 1.029647e+01
0	 5.851852e+00	 3.703704e+00	 1.030496e+01
0	 5.851852e+00	 3.777778e+00	 1.030205e+01
0	 5.851852e+00	 3.851852e+00	 1.029896e+01
0	 5.851852e+00	 3.925926e+00	 1.029567e+01
0	 5.851852e+00	 4.000000e+00	 1.029219e+01
0	 5.851852e+00	 4.074074e+00	 1.028849e+01
0	 5.925926e+00	 3.703704e+00	 1.029572e+01
0	 5.925926e+00	 3.777778e+00	 1.029305e+01
0	 5.925926e+00	 3.851852e+00	 1.029021e+01
0	 5.925926e+00	 3.925926e+00	 1.028716e+01
0	 5.925926e+00	 4.000000e+00	 1.028392e+01
0	 5.925926e+00	 4.074074e+00	 1.028047e+01
0	 5.555556e+00	 4.074074e+00	 1.031999e+01
0	 5.555556e+00	 4.148148e+00	 1.031502e+01
0	 5.555556e+00	 4.222222e+00	 1.030994e+01
0	 5.555556e+00	 4.296296e+00	 1.030473e+01
0	 5.555556e+00	 4.370370e+00	 1.029938e+01
0	 5.555556e+00	 4.444444e+00	 1.029388e+01
0	 5.629630e+00	 4.074074e+00	 1.031223e+01
0	 5.629630e+00	 4.148148e+00	 1.030756e+01
0	 5.629630e+00	 4.222222e+00	 1.030277e+01
0	 5.629630e+00	 4.296296e+00	 1.029784e+01
0	 5.629630e+00	 4.370370e+00	 1.029278e+01
0	 5.629630e+00	 4.444444e+00	 1.028756e+01
0	 5.703704e+00	 4.074074e+00	 1.030439e+01
0	 5.703704e+00	 4.148148e+00	 1.030000e+01
0	 5.703704e+00	 4.222222e+00	 1.029548e+01
0	 5.703704e+00	 4.296296e+00	 1.029083e+01
0	 5.703704e+00	 4.370370e+00	 1.028604e+01
0	 5.703704e+00	 4.444444e+00	 1.028109e+01
0	 5.777778e+00	 4.074074e+00	 1.029647e+01
0	 5.777778e+00	 4.148148e+00	 1.029235e+01
0	 5.777778e+00	 4.222222e+00	 1.028810e+01
0	 5.777778e+00	 4.296296e+00	 1.028371e+01
0	 5.777778e+00	 4.370370e+00	 1.027919e+01
0	 5.777778e+00	 4.444444e+00	 1.027451e+01
0	 5.851852e+00	 4.074074e+00	 1.028849e+01
0	 5.851852e+00	 4.148148e+00	 1.028463e+01
0	 5.851852e+00	 4.222222e+00	 1.028063e+01
0	 5.851852e+00	 4.296296e+00	 1.027651e+01
0	 5.851852e+00	 4.370370e+00	 1.027224e+01
0	 5.851852e+00	 4.444444e+00	 1.026781e+01
0	 5.925926e+00	 4.074074e+00	 1.028047e+01
0	 5.925926e+00	 4.148148e+00	 1.027686e+01
0	 5.925926e+00	 4.222222e+00	 1.027311e+01
0	 5.925926e+00	 4.296296e+00	 1.026923e+01
0	 5.925926e+00	 4.370370e+00	 1.026521e+01
0	 5.925926e+00	 4.444444e+00	 1.026104e+01
0	 5.555556e+00	 4.444444e+00	 1.029388e+01
0	 5.555556e+00	 4.518519e+00	 1.028827e+01
0	 5.555556e+00	 4.592593e+00	 1.028263e+01
0	 5.555556e+00	 4.666667e+00	 1.027692e+01
0	 5.555556e+00	 4.740741e+00	 1.027114e+01
0	 5.555556e+00	 4.814815e+00	 1.026529e+01
0	 5.629630e+00	 4.444444e+00	 1.028756e+01
0	 5.629630e+00	 4.518519e+00	 1.028223e+01
0	 5.629630e+00	 4.592593e+00	 1.027685e+01
0	 5.629630e+00	 4.666667e+00	 1.027141e+01
0	 5.629630e+00	 4.740741e+00	 1.026590e+01
0	 5.629630e+00	 4.814815e+00	 1.026030e+01
0	 5.703704e+00	 4.444444e+00	 1.028109e+01
0	 5.703704e+00	 4.518519e+00	 1.027604e+01
0	 5.703704e+00	 4.592593e+00	 1.027093e+01
0	 5.703704e+00	 4.666667e+00	 1.026574e+01
0	 5.703704e+00	 4.740741e+00	 1.026048e+01
0	 5.703704e+00	 4.814815e+00	 1.025513e+01
0	 5.777778e+00	 4.444444e+00	 1.027451e+01
0	 5.777778e+00	 4.518519e+00	 1.026972e+01
0	 5.777778e+00	 4.592593e+00	 1.026486e+01
0	 5.777778e+00	 4.666667e+00	 1.025993e+01
0	 5.777778e+00	 4.740741e+00	 1.025491e+01
0	 5.777778e+00	 4.814815e+00	 1.024980e+01
0	 5.851852e+00	 4.444444e+00	 1.026781e+01
0	 5.851852e+00	 4.518519e+00	 1.026328e+01
0	 5.851852e+00	 4.592593e+00	 1.025867e+01
0	 5.851852e+00	 4.666667e+00	 1.025399e+01
0	 5.851852e+00	 4.740741e+00	 1.024921e+01
0	 5.851852e+00	 4.814815e+00	 1.024433e+01
0	 5.925926e+00	 4.444444e+00	 1.026104e+01
0	 5.925926e+00	 4.518519e+00	 1.025675e+01
0	 5.925926e+00	 4.592593e+00	 1.025239e+01
0	 5.925926e+00	 4.666667e+00	 1.024794e+01
0	 5.925926e+00	 4.740741e+00	 1.024339e+01
0	 5.925926e+00	 4.814815e+00	 1.023874e+01
0	 5.555556e+00	 4.814815e+00	 1.026529e+01
0	 5.555556e+00	 4.888889e+00	 1.025940e+01
0	 5.555556e+00	 4.962963e+00	 1.025350e+01
0	 5.555556e+00	 5.037037e+00	 1.024759e+01
0	 5.555556e+00	 5.111111e+00	 1.024166e+01
0	 5.555556e+00	 5.185185e+00	 1.023570e+01
0	 5.629630e+00	 4.814815e+00	 1.026030e+01
0	 5.629630e+00	 4.888889e+00	 1.025465e+01
0	 5.629630e+00	 4.962963e+00	 1.024900e+01
0	 5.629630e+00	 5.037037e+00	 1.024332e+01
0	 5.629630e+00	 5.111111e+00	 1.023761e+01
0	 5.629630e+00	 5.185185e+00	 1.023187e+01
0	 5.703704e+00	 4.814815e+00	 1.025513e+01
0	 5.703704e+00	 4.888889e+00	 1.024972e+01
0	 5.703704e+00	 4.962963e+00	 1.024430e+01
0	 5.703704e+00	 5.037037e+00	 1.023885e+01
0	 5.703704e+00	 5.111111e+00	 1.023336e+01
0	 5.703704e+00	 5.185185e+00	 1.022783e+01
0	 5.777778e+00	 4.814815e+00	 1.024980e+01
0	 5.777778e+00	 4.888889e+00	 1.024462e+01
0	 5.777778e+00	 4.962963e+00	 1.023943e+01
0	 5.777778e+00	 5.037037e+00	 1.023420e+01
0	 5.777778e+00	 5.111111e+00	 1.022893e+01
0	 5.777778e+00	 5.185185e+00	 1.022362e+01
0	 5.851852e+00	 4.814815e+00	 1.024433e+01
0	 5.851852e+00	 4.888889e+00	 1.023938e+01
0	 5.851852e+00	 4.962963e+00	 1.023441e+01
0	 5.851852e+00	 5.037037e+00	 1.022940e+01
0	 5.851852e+00	 5.111111e+00	 1.022435e+01
0	 5.851852e+00	 5.185185e+00	 1.021924e+01
0	 5.925926e+00	 4.814815e+00	 1.023874e+01
0	 5.925926e+00	 4.888889e+00	 1.023402e+01
0	 5.925926e+00	 4.962963e+00	 1.022926e+01
0	 5.925926e+00	 5.037037e+00	 1.022447e+01
0	 5.925926e+00	 5.111111e+00	 1.021963e+01
0	 5.925926e+00	 5.185185e+00	 1.021473e+01
0	 5.555556e+00	 5.185185e+00	 1.023570e+01
0	 5.555556e+00	 5.259259e+00	 1.022974e+01
0	 5.555556e+00	 5.333333e+00	 1.022382e+01
0	 5.555556e+00	 5.407407e+00	 1.021793e+01
0	 5.555556e+00	 5.481481e+00	 1.021206e+01
0	 5.555556e+00	 5.555556e+00	 1.020621e+01
0	 5.629630e+00	 5.185185e+00	 1.023187e+01
0	 5.629630e+00	 5.259259e+00	 1.022612e+01
0	 5.629630e+00	 5.333333e+00	 1.022040e+01
0	 5.629630e+00	 5.407407e+00	 1.021470e+01
0	 5.629630e+00	 5.481481e+00	 1.020902e+01
0	 5.629630e+00	 5.555556e+00	 1.020335e+01
0	 5.703704e+00	 5.185185e+00	 1.022783e+01
0	 5.703704e+00	 5.259259e+00	 1.022229e+01
0	 5.703704e+00	 5.333333e+00	 1.021677e+01
0	 5.703704e+00	 5.407407e+00	 1.021127e+01
0	 5.703704e+00	 5.481481e+00	 1.020578e+01
0	 5.703704e+00	 5.555556e+00	 1.020028e+01
0	 5.777778e+00	 5.185185e+00	 1.022362e+01
0	 5.777778e+00	 5.259259e+00	 1.021829e+01
0	 5.777778e+00	 5.333333e+00	 1.021297e+01
0	 5.777778e+00	 5.407407e+00	 1.020766e+01
0	 5.777778e+00	 5.481481e+00	 1.020235e+01
0	 5.777778e+00	 5.555556e+00	 1.019703e+01
0	 5.851852e+00	 5.185185e+00	 1.021924e+01
0	 5.851852e+00	 5.259259e+00	 1.021412e+01
0	 5.851852e+00	 5.333333e+00	 1.020900e+01
0	 5.851852e+00	 5.407407e+00	 1.020388e+01
0	 5.851852e+00	 5.481481e+00	 1.019876e+01
0	 5.851852e+00	 5.555556e+00	 1.019362e+01
0	 5.925926e+00	 5.185185e+00	 1.021473e+01
0	 5.925926e+00	 5.259259e+00	 1.020981e+01
0	 5.925926e+00	 5.333333e+00	 1.020489e+01
0	 5.925926e+00	 5.407407e+00	 1.019996e+01
0	 5.925926e+00	 5.481481e+00	 1.019502e+01
0	 5.925926e+00	 5.555556e+00	 1.019005e+01
0	 5.555556e+00	 5.555556e+00	 1.020621e+01
0	 5.555556e+00	 5.629630e+00	 1.020039e+01
0	 5.555556e+00	 5.703704e+00	 1.019463e+01
0	 5.555556e+00	 5.777778e+00	 1.018893e+01
0	 5.555556e+00	 5.851852e+00	 1.018327e+01
0	 5.555556e+00	 5.925926e+00	 1.017766e+01
0	 5.629630e+00	 5.555556e+00	 1.020335e+01
0	 5.629630e+00	 5.629630e+00	 1.019770e+01
0	 5.629630e+00	 5.703704e+00	 1.019211e+01
0	 5.629630e+00	 5.777778e+00	 1.018656e+01
0	 5.629630e+00	 5.851852e+00	 1.018105e+01
0	 5.629630e+00	 5.925926e+00	 1.017558e+01
0	 5.703704e+00	 5.555556e+00	 1.020028e+01
0	 5.703704e+00	 5.629630e+00	 1.019481e+01
0	 5.703704e+00	 5.703704e+00	 1.018938e+01
0	 5.703704e+00	 5.777778e+00	 1.018399e+01
0	 5.703704e+00	 5.851852e+00	 1.017864e+01
0	 5.703704e+00	 5.925926e+00	 1.017331e+01
0	 5.777778e+00	 5.555556e+00	 1.019703e+01
0	 5.777778e+00	 5.629630e+00	 1.019173e+01
0	 5.777778e+00	 5.703704e+00	 1.018647e+01
0	 5.777778e+00	 5.777778e+00	 1.018124e+01
0	 5.777778e+00	 5.851852e+00	 1.017603e+01
0	 5.777778e+00	 5.925926e+00	 1.017085e+01
0	 5.851852e+00	 5.555556e+00	 1.019362e+01
0	 5.851852e+00	 5.629630e+00	 1.018849e+01
0	 5.851852e+00	 5.703704e+00	 1.018339e+01
0	 5.851852e+00	 5.777778e+00	 1.017832e+01
0	 5.851852e+00	 5.851852e+00	 1.017327e+01
0	 5.851852e+00	 5.925926e+00	 1.016824e+01
0	 5.925926e+00	 5.555556e+00	 1.019005e+01
0	 5.925926e+00	 5.629630e+00	 1.018509e+01
0	 5.925926e+00	 5.703704e+00	 1.018016e+01
0	 5.925926e+00	 5.777778e+00	 1.017525e+01
0	 5.925926e+00	 5.851852e+00	 1.017036e+01
0	 5.925926e+00	 5.925926e+00	 1.016547e+01
0	 5.555556e+00	 5.925926e+00	 1.017766e+01
0	 5.555556e+00	 6.000000e+00	 1.017210e+01
0	 5.555556e+00	 6.074074e+00	 1.016661e+01
0	 5.555556e+00	 6.148148e+00	 1.016120e+01
0	 5.555556e+00	 6.222222e+00	 1.015586e+01
0	 5.555556e+00	 6.296296e+00	 1.015058e+01
0	 5.629630e+00	 5.925926e+00	 1.017558e+01
0	 5.629630e+00	 6.000000e+00	 1.017016e+01
0	 5.629630e+00	 6.074074e+00	 1.016480e+01
0	 5.629630e+00	 6.148148e+00	 1.015952e+01
0	 5.629630e+00	 6.222222e+00	 1.015429e+01
0	 5.629630e+00	 6.296296e+00	 1.014912e+01
0	 5.703704e+00	 5.925926e+00	 1.017331e+01
0	 5.703704e+00	 6.000000e+00	 1.016802e+01
0	 5.703704e+00	 6.074074e+00	 1.016280e+01
0	 5.703704e+00	 6.148148e+00	 1.015764e+01
0	 5.703704e+00	 6.222222e+00	 1.015253e+01
0	 5.703704e+00	 6.296296e+00	 1.014747e+01
0	 5.777778e+00	 5.925926e+00	 1.017085e+01
0	 5.777778e+00	 6.000000e+00	 1.016571e+01
0	 5.777778e+00	 6.074074e+00	 1.016062e+01
0	 5.777778e+00	 6.148148e+00	 1.015559e+01
0	 5.777778e+00	 6.222222e+00	 1.015061e+01
0	 5.777778e+00	 6.296296e+00	 1.014566e+01
0	 5.851852e+00	 5.925926e+00	 1.016824e+01
0	 5.851852e+00	 6.000000e+00	 1.016324e+01
0	 5.851852e+00	 6.074074e+00	 1.015829e+01
0	 5.851852e+00	 6.148148e+00	 1.015339e+01
0	 5.851852e+00	 6.222222e+00	 1.014852e+01
0	 5.851852e+00	 6.296296e+00	 1.014370e+01
0	 5.925926e+00	 5.925926e+00	 1.016547e+01
0	 5.925926e+00	 6.000000e+00	 1.016062e+01
0	 5.925926e+00	 6.074074e+00	 1.015581e+01
0	 5.925926e+00	 6.148148e+00	 1.015104e+01
0	 5.925926e+00	 6.222222e+00	 1.014630e+01
0	 5.925926e+00	 6.296296e+00	 1.014160e+01
0	 5.555556e+00	 6.296296e+00	 1.015058e+01
0	 5.555556e+00	 6.370370e+00	 1.014537e+01
0	 5.555556e+00	 6.444444e+00	 1.014024e+01
0	 5.555556e+00	 6.518519e+00	 1.013520e+01
0	 5.555556e+00	 6.592593e+00	 1.013022e+01
0	 5.555556e+00	 6.666667e+00	 1.012533e+01
0	 5.629630e+00	 6.296296e+00	 1.014912e+01
0	 5.629630e+00	 6.370370e+00	 1.014401e+01
0	 5.629630e+00	 6.444444e+00	 1.013898e+01
0	 5.629630e+00	 6.518519e+00	 1.013403e+01
0	 5.629630e+00	 6.592593e+00	 1.012914e+01
0	 5.629630e+00	 6.666667e+00	 1.012433e+01
0	 5.703704e+00	 6.296296e+00	 1.014747e+01
0	 5.703704e+00	 6.370370e+00	 1.014248e+01
0	 5.703704e+00	 6.444444e+00	 1.013755e+01
0	 5.703704e+00	 6.518519e+00	 1.013269e+01
0	 5.703704e+00	 6.592593e+00	 1.012790e+01
0	 5.703704e+00	 6.666667e+00	 1.012317e+01
0	 5.777778e+00	 6.296296e+00	 1.014566e+01
0	 5.777778e+00	 6.370370e+00	 1.014077e+01
0	 5.777778e+00	 6.444444e+00	 1.013595e+01
0	 5.777778e+00	 6.518519e+00	 1.013120e+01
0	 5.777778e+00	 6.592593e+00	 1.012650e+01
0	 5.777778e+00	 6.666667e+00	 1.012185e+01
0	 5.851852e+00	 6.296296e+00	 1.014370e+01
0	 5.851852e+00	 6.370370e+00	 1.013892e+01
0	 5.851852e+00	 6.444444e+00	 1.013421e+01
0	 5.851852e+00	 6.518519e+00	 1.012956e+01
0	 5.851852e+00	 6.592593e+00	 1.012496e+01
0	 5.851852e+00	 6.666667e+00	 1.012041e+01
0	 5.925926e+00	 6.296296e+00	 1.014160e+01
0	 5.925926e+00	 6.370370e+00	 1.013694e+01
0	 5.925926e+00	 6.444444e+00	 1.013233e+01
0	 5.925926e+00	 6.518519e+00	 1.012778e+01
0	 5.925926e+00	 6.592593e+00	 1.012329e+01
0	 5.925926e+00	 6.666667e+00	 1.011883e+01
0	 5.555556e+00	 6.666667e+00	 1.012533e+01
0	 5.555556e+00	 6.740741e+00	 1.012050e+01
0	 5.555556e+00	 6.814815e+00	 1.011577e+01
0	 5.555556e+00	 6.888889e+00	 1.011112e+01
0	 5.555556e+00	 6.962963e+00	 1.010656e+01
0	 5.555556e+00	 7.037037e+00	 1.010207e+01
0	 5.629630e+00	 6.666667e+00	 1.012433e+01
0	 5.629630e+00	 6.740741e+00	 1.011958e+01
0	 5.629630e+00	 6.814815e+00	 1.011492e+01
0	 5.629630e+00	 6.888889e+00	 1.011034e+01
0	 5.629630e+00	 6.962963e+00	 1.010584e+01
0	 5.629630e+00	 7.037037e+00	 1.010141e+01
0	 5.703704e+00	 6.666667e+00	 1.012317e+01
0	 5.703704e+00	 6.740741e+00	 1.011850e+01
0	 5.703704e+00	 6.814815e+00	 1.011392e+01
0	 5.703704e+00	 6.888889e+00	 1.010941e+01
0	 5.703704e+00	 6.962963e+00	 1.010497e+01
0	 5.703704e+00	 7.037037e+00	 1.010061e+01
0	 5.777778e+00	 6.666667e+00	 1.012185e+01
0	 5.777778e+00	 6.740741e+00	 1.011728e+01
0	 5.777778e+00	 6.814815e+00	 1.011277e+01
0	 5.777778e+00	 6.888889e+00	 1.010834e+01
0	 5.777778e+00	 6.962963e+00	 1.010398e+01
0	 5.777778e+00	 7.037037e+00	 1.009968e+01
0	 5.851852e+00	 6.666667e+00	 1.012041e+01
0	 5.851852e+00	 6.740741e+00	 1.011592e+01
0	 5.851852e+00	 6.814815e+00	 1.011150e+01
0	 5.851852e+00	 6.888889e+00	 1.010715e+01
0	 5.851852e+00	 6.962963e+00	 1.010286e+01
0	 5.851852e+00	 7.037037e+00	 1.009863e+01
0	 5.925926e+00	 6.666667e+00	 1.011883e+01
0	 5.925926e+00	 6.740741e+00	 1.011444e+01
0	 5.925926e+00	 6.814815e+00	 1.011011e+01
0	 5.925926e+00	 6.888889e+00	 1.010584e+01
0	 5.925926e+00	 6.962963e+00	 1.010163e+01
0	 5.925926e+00	 7.037037e+00	 1.009747e+01
0	 5.555556e+00	 7.037037e+00	 1.010207e+01
0	 5.555556e+00	 7.111111e+00	 1.009766e+01
0	 5.555556e+00	 7.185185e+00	 1.009335e+01
0	 5.555556e+00	 7.259259e+00	 1.008912e+01
0	 5.555556e+00	 7.333333e+00	 1.008497e+01
0	 5.555556e+00	 7.407407e+00	 1.008090e+01
0	 5.629630e+00	 7.037037e+00	 1.010141e+01
0	 5.629630e+00	 7.111111e+00	 1.009706e+01
0	 5.629630e+00	 7.185185e+00	 1.009279e+01
0	 5.629630e+00	 7.259259e+00	 1.008861e+01
0	 5.629630e+00	 7.333333e+00	 1.008450e+01
0	 5.629630e+00	 7.407407e+00	 1.008047e+01
0	 5.703704e+00	 7.037037e+00	 1.010061e+01
0	 5.703704e+00	 7.111111e+00	 1.009631e+01
0	 5.703704e+00	 7.185185e+00	 1.009210e+01
0	 5.703704e+00	 7.259259e+00	 1.008797e+01
0	 5.703704e+00	 7.333333e+00	 1.008391e+01
0	 5.703704e+00	 7.407407e+00	 1.007993e+01
0	 5.777778e+00	 7.037037e+00	 1.009968e+01
0	 5.777778e+00	 7.111111e+00	 1.009545e+01
0	 5.777778e+00	 7.185185e+00	 1.009130e+01
0	 5.777778e+00	 7.259259e+00	 1.008722e+01
0	 5.777778e+00	 7.333333e+00	 1.008322e+01
0	 5.777778e+00	 7.407407e+00	 1.007928e+01
0	 5.851852e+00	 7.037037e+00	 1.009863e+01
0	 5.851852e+00	 7.111111e+00	 1.009447e+01
0	 5.851852e+00	 7.185185e+00	 1.009038e+01
0	 5.851852e+00	 7.259259e+00	 1.008637e+01
0	 5.851852e+00	 7.333333e+00	 1.008242e+01
0	 5.851852e+00	 7.407407e+00	 1.007854e+01
0	 5.925926e+00	 7.037037e+00	 1.009747e+01
0	 5.925926e+00	 7.111111e+00	 1.009338e+01
0	 5.925926e+00	 7.185185e+00	 1.008936e+01
0	 5.925926e+00	 7.259259e+00	 1.008541e+01
0	 5.925926e+00	 7.333333e+00	 1.008153e+01
0	 5.925926e+00	 7.407407e+00	 1.007770e+01
0	 5.555556e+00	 7.407407e+00	 1.008090e+01
0	 5.555556e+00	 7.481481e+00	 1.007691e+01
0	 5.555556e+00	 7.555556e+00	 1.007302e+01
0	 5.555556e+00	 7.629630e+00	 1.006921e+01
0	 5.555556e+00	 7.703704e+00	 1.006549e+01
0	 5.555556e+00	 7.777778e+00	 1.006184e+01
0	 5.629630e+00	 7.407407e+00	 1.008047e+01
0	 5.629630e+00	 7.481481e+00	 1.007652e+01
0	 5.629630e+00	 7.555556e+00	 1.007266e+01
0	 5.629630e+00	 7.629630e+00	 1.006889e+01
0	 5.629630e+00	 7.703704e+00	 1.006519e+01
0	 5.629630e+00	 7.777778e+00	 1.006157e+01
0	 5.703704e+00	 7.407407e+00	 1.007993e+01
0	 5.703704e+00	 7.481481e+00	 1.007602e+01
0	 5.703704e+00	 7.555556e+00	 1.007220e+01
0	 5.703704e+00	 7.629630e+00	 1.006846e+01
0	 5.703704e+00	 7.703704e+00	 1.006480e+01
0	 5.703704e+00	 7.777778e+00	 1.006122e+01
0	 5.777778e+00	 7.407407e+00	 1.007928e+01
0	 5.777778e+00	 7.481481e+00	 1.007542e+01
0	 5.777778e+00	 7.555556e+00	 1.007165e+01
0	 5.777778e+00	 7.629630e+00	 1.006795e+01
0	 5.777778e+00	 7.703704e+00	 1.006432e+01
0	 5.777778e+00	 7.777778e+00	 1.006077e+01
0	 5.851852e+00	 7.407407e+00	 1.007854e+01
0	 5.851852e+00	 7.481481e+00	 1.007473e+01
0	 5.851852e+00	 7.555556e+00	 1.007100e+01
0	 5.851852e+00	 7.629630e+00	 1.006735e+01
0	 5.851852e+00	 7.703704e+00	 1.006377e+01
0	 5.851852e+00	 7.777778e+00	 1.006025e+01
0	 5.925926e+00	 7.407407e+00	 1.007770e+01
0	 5.925926e+00	 7.481481e+00	 1.007395e+01
0	 5.925926e+00	 7.555556e+00	 1.007027e+01
0	 5.925926e+00	 7.629630e+00	 1.006667e+01
0	 5.925926e+00	 7.703704e+00	 1.006313e+01
0	 5.925926e+00	 7.777778e+00	 1.005966e+01
0	 5.555556e+00	 7.777778e+00	 1.006184e+01
0	 5.555556e+00	 7.851852e+00	 1.005829e+01
0	 5.555556e+00	 7.925926e+00	 1.005482e+01
0	 5.555556e+00	 8.000000e+00	 1.005145e+01
0	 5.555556e+00	 8.074074e+00	 1.004816e+01
0	 5.555556e+00	 8.148148e+00	 1.004495e+01
0	 5.629630e+00	 7.777778e+00	 1.006157e+01
0	 5.629630e+00	 7.851852e+00	 1.005804e+01
0	 5.629630e+00	 7.925926e+00	 1.005460e+01
0	 5.629630e+00	 8.000000e+00	 1.005124e+01
0	 5.629630e+00	 8.074074e+00	 1.004797e+01
0	 5.629630e+00	 8.148148e+00	 1.004478e+01
0	 5.703704e+00	 7.777778e+00	 1.006122e+01
0	 5.703704e+00	 7.851852e+00	 1.005771e+01
0	 5.703704e+00	 7.925926e+00	 1.005430e+01
0	 5.703704e+00	 8.000000e+00	 1.005097e+01
0	 5.703704e+00	 8.074074e+00	 1.004772e+01
0	 5.703704e+00	 8.148148e+00	 1.004455e+01
0	 5.777778e+00	 7.777778e+00	 1.006077e+01
0	 5.777778e+00	 7.851852e+00	 1.005730e+01
0	 5.777778e+00	 7.925926e+00	 1.005392e+01
0	 5.777778e+00	 8.000000e+00	 1.005062e+01
0	 5.777778e+00	 8.074074e+00	 1.004740e+01
0	 5.777778e+00	 8.148148e+00	 1.004425e+01
0	 5.851852e+00	 7.777778e+00	 1.006025e+01
0	 5.851852e+00	 7.851852e+00	 1.005682e+01
0	 5.851852e+00	 7.925926e+00	 1.005347e+01
0	 5.851852e+00	 8.000000e+00	 1.005020e+01
0	 5.851852e+00	 8.074074e+00	 1.004701e+01
0	 5.851852e+00	 8.148148e+00	 1.004390e+01
0	 5.925926e+00	 7.777778e+00	 1.005966e+01
0	 5.925926e+00	 7.851852e+00	 1.005627e+01
0	 5.925926e+00	 7.925926e+00	 1.005296e+01
0	 5.925926e+00	 8.000000e+00	 1.004973e+01
0	 5.925926e+00	 8.074074e+00	 1.004657e+01
0	 5.925926e+00	 8.148148e+00	 1.004349e+01
0	 5.555556e+00	 8.148148e+00	 1.004495e+01
0	 5.555556e+00	 8.222222e+00	 1.004183e+01
0	 5.555556e+00	 8.296296e+00	 1.003881e+01
0	 5.555556e+00	 8.370370e+00	 1.003588e+01
0	 5.555556e+00	 8.444444e+00	 1.003304e+01
0	 5.555556e+00	 8.518519e+00	 1.003029e+01
0	 5.629630e+00	 8.148148e+00	 1.004478e+01
0	 5.629630e+00	 8.222222e+00	 1.004168e+01
0	 5.629630e+00	 8.296296e+00	 1.003867e+01
0	 5.629630e+00	 8.370370e+00	 1.003576e+01
0	 5.629630e+00	 8.444444e+00	 1.003293e+01
0	 5.629630e+00	 8.518519e+00	 1.003019e+01
0	 5.703704e+00	 8.148148e+00	 1.004455e+01
0	 5.703704e+00	 8.222222e+00	 1.004146e+01
0	 5.703704e+00	 8.296296e+00	 1.003847e+01
0	 5.703704e+00	 8.370370e+00	 1.003558e+01
0	 5.703704e+00	 8.444444e+00	 1.003277e+01
0	 5.703704e+00	 8.518519e+00	 1.003004e+01
0	 5.777778e+00	 8.148148e+00	 1.004425e+01
0	 5.777778e+00	 8.222222e+00	 1.004119e+01
0	 5.777778e+00	 8.296296e+00	 1.003822e+01
0	 5.777778e+00	 8.370370e+00	 1.003535e+01
0	 5.777778e+00	 8.444444e+00	 1.003256e+01
0	 5.777778e+00	 8.518519e+00	 1.002985e+01
0	 5.851852e+00	 8.148148e+00	 1.004390e+01
0	 5.851852e+00	 8.222222e+00	 1.004086e+01
0	 5.851852e+00	 8.296296e+00	 1.003793e+01
0	 5.851852e+00	 8.370370e+00	 1.003507e+01
0	 5.851852e+00	 8.444444e+00	 1.003231e+01
0	 5.851852e+00	 8.518519e+00	 1.002962e+01
0	 5.925926e+00	 8.148148e+00	 1.004349e+01
0	 5.925926e+00	 8.222222e+00	 1.004049e+01
0	 5.925926e+00	 8.296296e+00	 1.003758e+01
0	 5.925926e+00	 8.370370e+00	 1.003476e+01
0	 5.925926e+00	 8.444444e+00	 1.003202e+01
0	 5.925926e+00	 8.518519e+00	 1.002936e+01
0	 5.555556e+00	 8.518519e+00	 1.003029e+01
0	 5.555556e+00	 8.592593e+00	 1.002764e+01
0	 5.555556e+00	 8.666667e+00	 1.002509e+01
0	 5.555556e+00	 8.740741e+00	 1.002265e+01
0	 5.555556e+00	 8.814815e+00	 1.002031e+01
0	 5.555556e+00	 8.888889e+00	 1.001806e+01
0	 5.629630e+00	 8.518519e+00	 1.003019e+01
0	 5.629630e+00	 8.592593e+00	 1.002755e+01
0	 5.629630e+00	 8.666667e+00	 1.002501e+01
0	 5.629630e+00	 8.740741e+00	 1.002258e+01
0	 5.629630e+00	 8.814815e+00	 1.002024e+01
0	 5.629630e+00	 8.888889e+00	 1.001800e+01
0	 5.703704e+00	 8.518519e+00	 1.003004e+01
0	 5.703704e+00	 8.592593e+00	 1.002741e+01
0	 5.703704e+00	 8.666667e+00	 1.002489e+01
0	 5.703704e+00	 8.740741e+00	 1.002247e+01
0	 5.703704e+00	 8.814815e+00	 1.002014e+01
0	 5.703704e+00	 8.888889e+00	 1.001791e+01
0	 5.777778e+00	 8.518519e+00	 1.002985e+01
0	 5.777778e+00	 8.592593e+00	 1.002724e+01
0	 5.777778e+00	 8.666667e+00	 1.002473e+01
0	 5.777778e+00	 8.740741e+00	 1.002232e+01
0	 5.777778e+00	 8.814815e+00	 1.002002e+01
0	 5.777778e+00	 8.888889e+00	 1.001780e+01
0	 5.851852e+00	 8.518519e+00	 1.002962e+01
0	 5.851852e+00	 8.592593e+00	 1.002703e+01
0	 5.851852e+00	 8.666667e+00	 1.002454e+01
0	 5.851852e+00	 8.740741e+00	 1.002215e+01
0	 5.851852e+00	 8.814815e+00	 1.001986e+01
0	 5.851852e+00	 8.888889e+00	 1.001766e+01
0	 5.925926e+00	 8.518519e+00	 1.002936e+01
0	 5.925926e+00	 8.592593e+00	 1.002679e+01
0	 5.925926e+00	 8.666667e+00	 1.002432e+01
0	 5.925926e+00	 8.740741e+00	 1.002196e+01
0	 5.925926e+00	 8.814815e+00	 1.001968e+01
0	 5.925926e+00	 8.888889e+00	 1.001750e+01
0	 5.555556e+00	 8.888889e+00	 1.001806e+01
0	 5.555556e+00	 8.962963e+00	 1.001592e+01
0	 5.555556e+00	 9.037037e+00	 1.001391e+01
0	 5.555556e+00	 9.111111e+00	 1.001202e+01
0	 5.555556e+00	 9.185185e+00	 1.001024e+01
0	 5.555556e+00	 9.259259e+00	 1.000856e+01
0	 5.629630e+00	 8.888889e+00	 1.001800e+01
0	 5.629630e+00	 8.962963e+00	 1.001587e+01
0	 5.629630e+00	 9.037037e+00	 1.001386e+01
0	 5.629630e+00	 9.111111e+00	 1.001197e+01
0	 5.629630e+00	 9.185185e+00	 1.001020e+01
0	 5.629630e+00	 9.259259e+00	 1.000853e+01
0	 5.703704e+00	 8.888889e+00	 1.001791e+01
0	 5.703704e+00	 8.962963e+00	 1.001579e+01
0	 5.703704e+00	 9.037037e+00	 1.001379e+01
0	 5.703704e+00	 9.111111e+00	 1.001191e+01
0	 5.703704e+00	 9.185185e+00	 1.001015e+01
0	 5.703704e+00	 9.259259e+00	 1.000849e+01
0	 5.777778e+00	 8.888889e+00	 1.001780e+01
0	 5.777778e+00	 8.962963e+00	 1.001569e+01
0	 5.777778e+00	 9.037037e+00	 1.001370e+01
0	 5.777778e+00	 9.111111e+00	 1.001183e+01
0	 5.777778e+00	 9.185185e+00	 1.001008e+01
0	 5.777778e+00	 9.259259e+00	 1.000843e+01
0	 5.851852e+00	 8.888889e+00	 1.001766e+01
0	 5.851852e+00	 8.962963e+00	 1.001557e+01
0	 5.851852e+00	 9.037037e+00	 1.001360e+01
0	 5.851852e+00	 9.111111e+00	 1.001174e+01
0	 5.851852e+00	 9.185185e+00	 1.001000e+01
0	 5.851852e+00	 9.259259e+00	 1.000836e+01
0	 5.925926e+00	 8.888889e+00	 1.001750e+01
0	 5.925926e+00	 8.962963e+00	 1.001543e+01
0	 5.925926e+00	 9.037037e+00	 1.001347e+01
0	 5.925926e+00	 9.111111e+00	 1.001164e+01
0	 5.925926e+00	 9.185185e+00	 1.000991e+01
0	 5.925926e+00	 9.259259e+00	 1.000828e+01
0	 5.555556e+00	 9.259259e+00	 1.000856e+01
0	 5.555556e+00	 9.333333e+00	 1.000702e+01
0	 5.555556e+00	 9.407407e+00	 1.000563e+01
0	 5.555556e+00	 9.481481e+00	 1.000439e+01
0	 5.555556e+00	 9.555556e+00	 1.000328e+01
0	 5.555556e+00	 9.629630e+00	 1.000230e+01
0	 5.629630e+00	 9.259259e+00	 1.000853e+01
0	 5.629630e+00	 9.333333e+00	 1.000699e+01
0	 5.629630e+00	 9.407407e+00	 1.000561e+01
0	 5.629630e+00	 9.481481e+00	 1.000437e+01
0	 5.629630e+00	 9.555556e+00	 1.000326e+01
0	 5.629630e+00	 9.629630e+00	 1.000229e+01
0	 5.703704e+00	 9.259259e+00	 1.000849e+01
0	 5.703704e+00	 9.333333e+00	 1.000695e+01
0	 5.703704e+00	 9.407407e+00	 1.000558e+01
0	 5.703704e+00	 9.481481e+00	 1.000434e+01
0	 5.703704e+00	 9.555556e+00	 1.000325e+01
0	 5.703704e+00	 9.629630e+00	 1.000228e+01
0	 5.777778e+00	 9.259259e+00	 1.000843e+01
0	 5.777778e+00	 9.333333e+00	 1.000691e+01
0	 5.777778e+00	 9.407407e+00	 1.000554e+01
0	 5.777778e+00	 9.481481e+00	 1.000431e+01
0	 5.777778e+00	 9.555556e+00	 1.000322e+01
0	 5.777778e+00	 9.629630e+00	 1.000226e+01
0	 5.851852e+00	 9.259259e+00	 1.000836e+01
0	 5.851852e+00	 9.333333e+00	 1.000685e+01
0	 5.851852e+00	 9.407407e+00	 1.000549e+01
0	 5.851852e+00	 9.481481e+00	 1.000428e+01
0	 5.851852e+00	 9.555556e+00	 1.000319e+01
0	 5.851852e+00	 9.629630e+00	 1.000224e+01
0	 5.925926e+00	 9.259259e+00	 1.000828e+01
0	 5.925926e+00	 9.333333e+00	 1.000679e+01
0	 5.925926e+00	 9.407407e+00	 1.000544e+01
0	 5.925926e+00	 9.481481e+00	 1.000424e+01
0	 5.925926e+00	 9.555556e+00	 1.000316e+01
0	 5.925926e+00	 9.629630e+00	 1.000222e+01
0	 5.555556e+00	 9.629630e+00	 1.000230e+01
0	 5.555556e+00	 9.703704e+00	 1.000148e+01
0	 5.555556e+00	 9.777778e+00	 1.000085e+01
0	 5.555556e+00	 9.851852e+00	 1.000039e+01
0	 5.555556e+00	 9.925926e+00	 1.000011e+01
0	 5.555556e+00	 1.000000e+01	 9.999975e+00
0	 5.629630e+00	 9.629630e+00	 1.000229e+01
0	 5.629630e+00	 9.703704e+00	 1.000147e+01
0	 5.629630e+00	 9.777778e+00	 1.000084e+01
0	 5.629630e+00	 9.851852e+00	 1.000039e+01
0	 5.629630e+00	 9.925926e+00	 1.000011e+01
0	 5.629630e+00	 1.000000e+01	 9.999976e+00
0	 5.703704e+00	 9.629630e+00	 1.000228e+01
0	 5.703704e+00	 9.703704e+00	 1.000146e+01
0	 5.703704e+00	 9.777778e+00	 1.000084e+01
0	 5.703704e+00	 9.851852e+00	 1.000039e+01
0	 5.703704e+00	 9.925926e+00	 1.000010e+01
0	 5.703704e+00	 1.000000e+01	 9.999976e+00
0	 5.777778e+00	 9.629630e+00	 1.000226e+01
0	 5.777778e+00	 9.703704e+00	 1.000145e+01
0	 5.777778e+00	 9.777778e+00	 1.000083e+01
0	 5.777778e+00	 9.851852e+00	 1.000039e+01
0	 5.777778e+00	 9.925926e+00	 1.000010e+01
0	 5.777778e+00	 1.000000e+01	 9.999975e+00
0	 5.851852e+00	 9.629630e+00	 1.000224e+01
0	 5.851852e+00	 9.703704e+00	 1.000144e+01
0	 5.851852e+00	 9.777778e+00	 1.000082e+01
0	 5.851852e+00	 9.851852e+00	 1.000038e+01
0	 5.851852e+00	 9.925926e+00	 1.000010e+01
0	 5.851852e+00	 1.000000e+01	 9.999976e+00
0	 5.925926e+00	 9.629630e+00	 1.000222e+01
0	 5.925926e+00	 9.703704e+00	 1.000143e+01
0	 5.925926e+00	 9.777778e+00	 1.000082e+01
0	 5.925926e+00	 9.851852e+00	 1.000038e+01
0	 5.925926e+00	 9.925926e+00	 1.000010e+01
0	 5.925926e+00	 1.000000e+01	 9.999978e+00
0	 5.925926e+00	 0.000000e+00	 1.020268e+01
0	 5.925926e+00	 7.407407e-02	 1.020288e+01
0	 5.925926e+00	 1.481481e-01	 1.020340e+01
0	 5.925926e+00	 2.222222e-01	 1.020426e+01
0	 5.925926e+00	 2.962963e-01	 1.020548e+01
0	 5.925926e+00	 3.703704e-01	 1.020709e+01
0	 6.000000e+00	 0.000000e+00	 1.019415e+01
0	 6.000000e+00	 7.407407e-02	 1.019428e+01
0	 6.000000e+00	 1.481481e-01	 1.019475e+01
0	 6.000000e+00	 2.222222e-01	 1.019557e+01
0	 6.000000e+00	 2.962963e-01	 1.019676e+01
0	 6.000000e+00	 3.703704e-01	 1.019831e+01
0	 6.074074e+00	 0.000000e+00	 1.018569e+01
0	 6.074074e+00	 7.407407e-02	 1.018578e+01
0	 6.074074e+00	 1.481481e-01	 1.018623e+01
0	 6.074074e+00	 2.222222e-01	 1.018702e+01
0	 6.074074e+00	 2.962963e-01	 1.018816e+01
0	 6.074074e+00	 3.703704e-01	 1.018964e+01
0	 6.148148e+00	 0.000000e+00	 1.017729e+01
0	 6.148148e+00	 7.407407e-02	 1.017739e+01
0	 6.148148e+00	 1.481481e-01	 1.017782e+01
0	 6.148148e+00	 2.222222e-01	 1.017858e+01
0	 6.148148e+00	 2.962963e-01	 1.017967e+01
0	 6.148148e+00	 3.703704e-01	 1.018107e+01
0	 6.222222e+00	 0.000000e+00	 1.016897e+01
0	 6.222222e+00	 7.407407e-02	 1.016908e+01
0	 6.222222e+00	 1.481481e-01	 1.016951e+01
0	 6.222222e+00	 2.222222e-01	 1.017024e+01
0	 6.222222e+00	 2.962963e-01	 1.017127e+01
0	 6.222222e+00	 3.703704e-01	 1.017260e+01
0	 6.296296e+00	 0.000000e+00	 1.016071e+01
0	 6.296296e+00	 7.407407e-02	 1.016086e+01
0	 6.296296e+00	 1.481481e-01	 1.016129e+01
0	 6.296296e+00	 2.222222e-01	 1.016199e+01
0	 6.296296e+00	 2.962963e-01	 1.016297e+01
0	 6.296296e+00	 3.703704e-01	 1.016421e+01
0	 5.925926e+00	 3.703704e-01	 1.020709e+01
0	 5.925926e+00	 4.444444e-01	 1.020902e+01
0	 5.925926e+00	 5.185185e-01	 1.021120e+01
0	 5.925926e+00	 5.925926e-01	 1.021365e+01
0	 5.925926e+00	 6.666667e-01	 1.021639e+01
0	 5.925926e+00	 7.407407e-01	 1.021943e+01
0	 6.000000e+00	 3.703704e-01	 1.019831e+01
0	 6.000000e+00	 4.444444e-01	 1.020017e+01
0	 6.000000e+00	 5.185185e-01	 1.020225e+01
0	 6.000000e+00	 5.925926e-01	 1.020459e+01
0	 6.000000e+00	 6.666667e-01	 1.020720e+01
0	 6.000000e+00	 7.407407e-01	 1.021009e+01
0	 6.074074e+00	 3.703704e-01	 1.018964e+01
0	 6.074074e+00	 4.444444e-01	 1.019141e+01
0	 6.074074e+00	 5.185185e-01	 1.019339e+01
0	 6.074074e+00	 5.925926e-01	 1.019563e+01
0	 6.074074e+00	 6.666667e-01	 1.019812e+01
0	 6.074074e+00	 7.407407e-01	 1.020089e+01
0	 6.148148e+00	 3.703704e-01	 1.018107e+01
0	 6.148148e+00	 4.444444e-01	 1.018274e+01
0	 6.148148e+00	 5.185185e-01	 1.018463e+01
0	 6.148148e+00	 5.925926e-01	 1.018677e+01
0	 6.148148e+00	 6.666667e-01	 1.018915e+01
0	 6.148148e+00	 7.407407e-01	 1.019182e+01
0	 6.222222e+00	 3.703704e-01	 1.017260e+01
0	 6.222222e+00	 4.444444e-01	 1.017417e+01
0	 6.222222e+00	 5.185185e-01	 1.017597e+01
0	 6.222222e+00	 5.925926e-01	 1.017801e+01
0	 6.222222e+00	 6.666667e-01	 1.018030e+01
0	 6.222222e+00	 7.407407e-01	 1.018287e+01
0	 6.296296e+00	 3.703704e-01	 1.016421e+01
0	 6.296296e+00	 4.444444e-01	 1.016570e+01
0	 6.296296e+00	 5.185185e-01	 1.016741e+01
0	 6.296296e+00	 5.925926e-01	 1.016936e+01
0	 6.296296e+00	 6.666667e-01	 1.017156e+01
0	 6.296296e+00	 7.407407e-01	 1.017404e+01
0	 5.925926e+00	 7.407407e-01	 1.021943e+01
0	 5.925926e+00	 8.148148e-01	 1.022270e+01
0	 5.925926e+00	 8.888889e-01	 1.022611e+01
0	 5.925926e+00	 9.629630e-01	 1.022969e+01
0	 5.925926e+00	 1.037037e+00	 1.023347e+01
0	 5.925926e+00	 1.111111e+00	 1.023749e+01
0	 6.000000e+00	 7.407407e-01	 1.021009e+01
0	 6.000000e+00	 8.148148e-01	 1.021320e+01
0	 6.000000e+00	 8.888889e-01	 1.021645e+01
0	 6.000000e+00	 9.629630e-01	 1.021988e+01
0	 6.000000e+00	 1.037037e+00	 1.022351e+01
0	 6.000000e+00	 1.111111e+00	 1.022736e+01
0	 6.074074e+00	 7.407407e-01	 1.020089e+01
0	 6.074074e+00	 8.148148e-01	 1.020387e+01
0	 6.074074e+00	 8.888889e-01	 1.020699e+01
0	 6.074074e+00	 9.629630e-01	 1.021027e+01
0	 6.074074e+00	 1.037037e+00	 1.021374e+01
0	 6.074074e+00	 1.111111e+00	 1.021743e+01
0	 6.148148e+00	 7.407407e-01	 1.019182e+01
0	 6.148148e+00	 8.148148e-01	 1.019468e+01
0	 6.148148e+00	 8.888889e-01	 1.019768e+01
0	 6.148148e+00	 9.629630e-01	 1.020083e+01
0	 6.148148e+00	 1.037037e+00	 1.020417e+01
0	 6.148148e+00	 1.111111e+00	 1.020770e+01
0	 6.222222e+00	 7.407407e-01	 1.018287e+01
0	 6.222222e+00	 8.148148e-01	 1.018563e+01
0	 6.222222e+00	 8.888889e-01	 1.018852e+01
0	 6.222222e+00	 9.629630e-01	 1.019155e+01
0	 6.222222e+00	 1.037037e+00	 1.019474e+01
0	 6.222222e+00	 1.111111e+00	 1.019813e+01
0	 6.296296e+00	 7.407407e-01	 1.017404e+01
0	 6.296296e+00	 8.148148e-01	 1.017670e+01
0	 6.296296e+00	 8.888889e-01	 1.017947e+01
0	 6.296296e+00	 9.629630e-01	 1.018238e+01
0	 6.296296e+00	 1.037037e+00	 1.018545e+01
0	 6.296296e+00	 1.111111e+00	 1.018870e+01
0	 5.925926e+00	 1.111111e+00	 1.023749e+01
0	 5.925926e+00	 1.185185e+00	 1.024160e+01
0	 5.925926e+00	 1.259259e+00	 1.024570e+01
0	 5.925926e+00	 1.333333e+00	 1.024982e+01
0	 5.925926e+00	 1.407407e+00	 1.025398e+01
0	 5.925926e+00	 1.481481e+00	 1.025823e+01
0	 6.000000e+00	 1.111111e+00	 1.022736e+01
0	 6.000000e+00	 1.185185e+00	 1.023131e+01
0	 6.000000e+00	 1.259259e+00	 1.023526e+01
0	 6.000000e+00	 1.333333e+00	 1.023923e+01
0	 6.000000e+00	 1.407407e+00	 1.024325e+01
0	 6.000000e+00	 1.481481e+00	 1.024735e+01
0	 6.074074e+00	 1.111111e+00	 1.021743e+01
0	 6.074074e+00	 1.185185e+00	 1.022123e+01
0	 6.074074e+00	 1.259259e+00	 1.022502e+01
0	 6.074074e+00	 1.333333e+00	 1.022885e+01
0	 6.074074e+00	 1.407407e+00	 1.023272e+01
0	 6.074074e+00	 1.481481e+00	 1.023669e+01
0	 6.148148e+00	 1.111111e+00	 1.020770e+01
0	 6.148148e+00	 1.185185e+00	 1.021134e+01
0	 6.148148e+00	 1.259259e+00	 1.021498e+01
0	 6.148148e+00	 1.333333e+00	 1.021866e+01
0	 6.148148e+00	 1.407407e+00	 1.022240e+01
0	 6.148148e+00	 1.481481e+00	 1.022622e+01
0	 6.222222e+00	 1.111111e+00	 1.019813e+01
0	 6.222222e+00	 1.185185e+00	 1.020161e+01
0	 6.222222e+00	 1.259259e+00	 1.020511e+01
0	 6.222222e+00	 1.333333e+00	 1.020866e+01
0	 6.222222e+00	 1.407407e+00	 1.021226e+01
0	 6.222222e+00	 1.481481e+00	 1.021595e+01
0	 6.296296e+00	 1.111111e+00	 1.018870e+01
0	 6.296296e+00	 1.185185e+00	 1.019204e+01
0	 6.296296e+00	 1.259259e+00	 1.019541e+01
0	 6.296296e+00	 1.333333e+00	 1.019882e+01
0	 6.296296e+00	 1.407407e+00	 1.020229e+01
0	 6.296296e+00	 1.481481e+00	 1.020586e+01
0	 5.925926e+00	 1.481481e+00	 1.025823e+01
0	 5.925926e+00	 1.555556e+00	 1.026245e+01
0	 5.925926e+00	 1.629630e+00	 1.026652e+01
0	 5.925926e+00	 1.703704e+00	 1.027048e+01
0	 5.925926e+00	 1.777778e+00	 1.027436e+01
0	 5.925926e+00	 1.851852e+00	 1.027818e+01
0	 6.000000e+00	 1.481481e+00	 1.024735e+01
0	 6.000000e+00	 1.555556e+00	 1.025143e+01
0	 6.000000e+00	 1.629630e+00	 1.025538e+01
0	 6.000000e+00	 1.703704e+00	 1.025923e+01
0	 6.000000e+00	 1.777778e+00	 1.026300e+01
0	 6.000000e+00	 1.851852e+00	 1.026672e+01
0	 6.074074e+00	 1.481481e+00	 1.023669e+01
0	 6.074074e+00	 1.555556e+00	 1.024063e+01
0	 6.074074e+00	 1.629630e+00	 1.024447e+01
0	 6.074074e+00	 1.703704e+00	 1.024820e+01
0	 6.074074e+00	 1.777778e+00	 1.025188e+01
0	 6.074074e+00	 1.851852e+00	 1.025551e+01
0	 6.148148e+00	 1.481481e+00	 1.022622e+01
0	 6.148148e+00	 1.555556e+00	 1.023004e+01
0	 6.148148e+00	 1.629630e+00	 1.023376e+01
0	 6.148148e+00	 1.703704e+00	 1.023739e+01
0	 6.148148e+00	 1.777778e+00	 1.024097e+01
0	 6.148148e+00	 1.851852e+00	 1.024452e+01
0	 6.222222e+00	 1.481481e+00	 1.021595e+01
0	 6.222222e+00	 1.555556e+00	 1.021964e+01
0	 6.222222e+00	 1.629630e+00	 1.022324e+01
0	 6.222222e+00	 1.703704e+00	 1.022678e+01
0	 6.222222e+00	 1.777778e+00	 1.023026e+01
0	 6.222222e+00	 1.851852e+00	 1.023373e+01
0	 6.296296e+00	 1.481481e+00	 1.020586e+01
0	 6.296296e+00	 1.555556e+00	 1.020942e+01
0	 6.296296e+00	 1.629630e+00	 1.021291e+01
0	 6.296296e+00	 1.703704e+00	 1.021634e+01
0	 6.296296e+00	 1.777778e+00	 1.021974e+01
0	 6.296296e+00	 1.851852e+00	 1.022312e+01
0	 5.925926e+00	 1.851852e+00	 1.027818e+01
0	 5.925926e+00	 1.925926e+00	 1.028186e+01
0	 5.925926e+00	 2.000000e+00	 1.028531e+01
0	 5.925926e+00	 2.074074e+00	 1.028855e+01
0	 5.925926e+00	 2.148148e+00	 1.029161e+01
0	 5.925926e+00	 2.222222e+00	 1.029451e+01
0	 6.000000e+00	 1.851852e+00	 1.026672e+01
0	 6.000000e+00	 1.925926e+00	 1.027031e+01
0	 6.000000e+00	 2.000000e+00	 1.027369e+01
0	 6.000000e+00	 2.074074e+00	 1.027689e+01
0	 6.000000e+00	 2.148148e+00	 1.027991e+01
0	 6.000000e+00	 2.222222e+00	 1.028279e+01
0	 6.074074e+00	 1.851852e+00	 1.025551e+01
0	 6.074074e+00	 1.925926e+00	 1.025902e+01
0	 6.074074e+00	 2.000000e+00	 1.026234e+01
0	 6.074074e+00	 2.074074e+00	 1.026548e+01
0	 6.074074e+00	 2.148148e+00	 1.026846e+01
0	 6.074074e+00	 2.222222e+00	 1.027132e+01
0	 6.148148e+00	 1.851852e+00	 1.024452e+01
0	 6.148148e+00	 1.925926e+00	 1.024796e+01
0	 6.148148e+00	 2.000000e+00	 1.025121e+01
0	 6.148148e+00	 2.074074e+00	 1.025430e+01
0	 6.148148e+00	 2.148148e+00	 1.025724e+01
0	 6.148148e+00	 2.222222e+00	 1.026006e+01
0	 6.222222e+00	 1.851852e+00	 1.023373e+01
0	 6.222222e+00	 1.925926e+00	 1.023709e+01
0	 6.222222e+00	 2.000000e+00	 1.024029e+01
0	 6.222222e+00	 2.074074e+00	 1.024332e+01
0	 6.222222e+00	 2.148148e+00	 1.024622e+01
0	 6.222222e+00	 2.222222e+00	 1.024901e+01
0	 6.296296e+00	 1.851852e+00	 1.022312e+01
0	 6.296296e+00	 1.925926e+00	 1.022641e+01
0	 6.296296e+00	 2.000000e+00	 1.022954e+01
0	 6.296296e+00	 2.074074e+00	 1.023253e+01
0	 6.296296e+00	 2.148148e+00	 1.023538e+01
0	 6.296296e+00	 2.222222e+00	 1.023813e+01
0	 5.925926e+00	 2.222222e+00	 1.029451e+01
0	 5.925926e+00	 2.296296e+00	 1.029719e+01
0	 5.925926e+00	 2.370370e+00	 1.029958e+01
0	 5.925926e+00	 2.444444e+00	 1.030168e+01
0	 5.925926e+00	 2.518519e+00	 1.030353e+01
0	 5.925926e+00	 2.592593e+00	 1.030512e+01
0	 6.000000e+00	 2.222222e+00	 1.028279e+01
0	 6.000000e+00	 2.296296e+00	 1.028547e+01
0	 6.000000e+00	 2.370370e+00	 1.028786e+01
0	 6.000000e+00	 2.444444e+00	 1.028999e+01
0	 6.000000e+00	 2.518519e+00	 1.029188e+01
0	 6.000000e+00	 2.592593e+00	 1.029353e+01
0	 6.074074e+00	 2.222222e+00	 1.027132e+01
0	 6.074074e+00	 2.296296e+00	 1.027398e+01
0	 6.074074e+00	 2.370370e+00	 1.027637e+01
0	 6.074074e+00	 2.444444e+00	 1.027852e+01
0	 6.074074e+00	 2.518519e+00	 1.028044e+01
0	 6.074074e+00	 2.592593e+00	 1.028214e+01
0	 6.148148e+00	 2.222222e+00	 1.026006e+01
0	 6.148148e+00	 2.296296e+00	 1.026270e+01
0	 6.148148e+00	 2.370370e+00	 1.026509e+01
0	 6.148148e+00	 2.444444e+00	 1.026726e+01
0	 6.148148e+00	 2.518519e+00	 1.026921e+01
0	 6.148148e+00	 2.592593e+00	 1.027095e+01
0	 6.222222e+00	 2.222222e+00	 1.024901e+01
0	 6.222222e+00	 2.296296e+00	 1.025162e+01
0	 6.222222e+00	 2.370370e+00	 1.025401e+01
0	 6.222222e+00	 2.444444e+00	 1.025618e+01
0	 6.222222e+00	 2.518519e+00	 1.025815e+01
0	 6.222222e+00	 2.592593e+00	 1.025994e+01
0	 6.296296e+00	 2.222222e+00	 1.023813e+01
0	 6.296296e+00	 2.296296e+00	 1.024072e+01
0	 6.296296e+00	 2.370370e+00	 1.024309e+01
0	 6.296296e+00	 2.444444e+00	 1.024527e+01
0	 6.296296e+00	 2.518519e+00	 1.024727e+01
0	 6.296296e+00	 2.592593e+00	 1.024909e+01
0	 5.925926e+00	 2.592593e+00	 1.030512e+01
0	 5.925926e+00	 2.666667e+00	 1.030645e+01
0	 5.925926e+00	 2.740741e+00	 1.030747e+01
0	 5.925926e+00	 2.814815e+00	 1.030821e+01
0	 5.925926e+00	 2.888889e+00	 1.030866e+01
0	 5.925926e+00	 2.962963e+00	 1.030884e+01
0	 6.000000e+00	 2.592593e+00	 1.029353e+01
0	 6.000000e+00	 2.666667e+00	 1.029492e+01
0	 6.000000e+00	 2.740741e+00	 1.029604e+01
0	 6.000000e+00	 2.814815e+00	 1.029688e+01
0	 6.000000e+00	 2.888889e+00	 1.029745e+01
0	 6.000000e+00	 2.962963e+00	 1.029776e+01
0	 6.074074e+00	 2.592593e+00	 1.028214e+01
0	 6.074074e+00	 2.666667e+00	 1.028361e+01
0	 6.074074e+00	 2.740741e+00	 1.028480e+01
0	 6.074074e+00	 2.814815e+00	 1.028573e+01
0	 6.074074e+00	 2.888889e+00	 1.028641e+01
0	 6.074074e+00	 2.962963e+00	 1.028684e+01
0	 6.148148e+00	 2.592593e+00	 1.027095e+01
0	 6.148148e+00	 2.666667e+00	 1.027248e+01
0	 6.148148e+00	 2.740741e+00	 1.027374e+01
0	 6.148148e+00	 2.814815e+00	 1.027475e+01
0	 6.148148e+00	 2.888889e+00	 1.027553e+01
0	 6.148148e+00	 2.962963e+00	 1.027606e+01
0	 6.222222e+00	 2.592593e+00	 1.025994e+01
0	 6.222222e+00	 2.666667e+00	 1.026152e+01
0	 6.222222e+00	 2.740741e+00	 1.026284e+01
0	 6.222222e+00	 2.814815e+00	 1.026393e+01
0	 6.222222e+00	 2.888889e+00	 1.026479e+01
0	 6.222222e+00	 2.962963e+00	 1.026542e+01
0	 6.296296e+00	 2.592593e+00	 1.024909e+01
0	 6.296296e+00	 2.666667e+00	 1.025071e+01
0	 6.296296e+00	 2.740741e+00	 1.025210e+01
0	 6.296296e+00	 2.814815e+00	 1.025326e+01
0	 6.296296e+00	 2.888889e+00	 1.025419e+01
0	 6.296296e+00	 2.962963e+00	 1.025491e+01
0	 5.925926e+00	 2.962963e+00	 1.030884e+01
0	 5.925926e+00	 3.037037e+00	 1.030874e+01
0	 5.925926e+00	 3.111111e+00	 1.030836e+01
0	 5.925926e+00	 3.185185e+00	 1.030770e+01
0	 5.925926e+00	 3.259259e+00	 1.030676e+01
0	 5.925926e+00	 3.333333e+00	 1.030553e+01
0	 6.000000e+00	 2.962963e+00	 1.029776e+01
0	 6.000000e+00	 3.037037e+00	 1.029781e+01
0	 6.000000e+00	 3.111111e+00	 1.029758e+01
0	 6.000000e+00	 3.185185e+00	 1.029708e+01
0	 6.000000e+00	 3.259259e+00	 1.029631e+01
0	 6.000000e+00	 3.333333e+00	 1.029527e+01
0	 6.074074e+00	 2.962963e+00	 1.028684e+01
0	 6.074074e+00	 3.037037e+00	 1.028701e+01
0	 6.074074e+00	 3.111111e+00	 1.028692e+01
0	 6.074074e+00	 3.185185e+00	 1.028658e+01
0	 6.074074e+00	 3.259259e+00	 1.028597e+01
0	 6.074074e+00	 3.333333e+00	 1.028510e+01
0	 6.148148e+00	 2.962963e+00	 1.027606e+01
0	 6.148148e+00	 3.037037e+00	 1.027635e+01
0	 6.148148e+00	 3.111111e+00	 1.027640e+01
0	 6.148148e+00	 3.185185e+00	 1.027619e+01
0	 6.148148e+00	 3.259259e+00	 1.027573e+01
0	 6.148148e+00	 3.333333e+00	 1.027503e+01
0	 6.222222e+00	 2.962963e+00	 1.026542e+01
0	 6.222222e+00	 3.037037e+00	 1.026582e+01
0	 6.222222e+00	 3.111111e+00	 1.026599e+01
0	 6.222222e+00	 3.185185e+00	 1.026591e+01
0	 6.222222e+00	 3.259259e+00	 1.026560e+01
0	 6.222222e+00	 3.333333e+00	 1.026505e+01
0	 6.296296e+00	 2.962963e+00	 1.025491e+01
0	 6.296296e+00	 3.037037e+00	 1.025542e+01
0	 6.296296e+00	 3.111111e+00	 1.025569e+01
0	 6.296296e+00	 3.185185e+00	 1.025574e+01
0	 6.296296e+00	 3.259259e+00	 1.025556e+01
0	 6.296296e+00	 3.333333e+00	 1.025516e+01
0	 5.925926e+00	 3.333333e+00	 1.030553e+01
0	 5.925926e+00	 3.407407e+00	 1.030405e+01
0	 5.925926e+00	 3.481481e+00	 1.030233e+01
0	 5.925926e+00	 3.555556e+00	 1.030037e+01
0	 5.925926e+00	 3.629630e+00	 1.029817e+01
0	 5.925926e+00	 3.703704e+00	 1.029572e+01
0	 6.000000e+00	 3.333333e+00	 1.029527e+01
0	 6.000000e+00	 3.407407e+00	 1.029398e+01
0	 6.000000e+00	 3.481481e+00	 1.029246e+01
0	 6.000000e+00	 3.555556e+00	 1.029071e+01
0	 6.000000e+00	 3.629630e+00	 1.028873e+01
0	 6.000000e+00	 3.703704e+00	 1.028651e+01
0	 6.074074e+00	 3.333333e+00	 1.028510e+01
0	 6.074074e+00	 3.407407e+00	 1.028400e+01
0	 6.074074e+00	 3.481481e+00	 1.028267e+01
0	 6.074074e+00	 3.555556e+00	 1.028112e+01
0	 6.074074e+00	 3.629630e+00	 1.027934e+01
0	 6.074074e+00	 3.703704e+00	 1.027733e+01
0	 6.148148e+00	 3.333333e+00	 1.027503e+01
0	 6.148148e+00	 3.407407e+00	 1.027410e+01
0	 6.148148e+00	 3.481481e+00	 1.027296e+01
0	 6.148148e+00	 3.555556e+00	 1.027159e+01
0	 6.148148e+00	 3.629630e+00	 1.027000e+01
0	 6.148148e+00	 3.703704e+00	 1.026818e+01
0	 6.222222e+00	 3.333333e+00	 1.026505e+01
0	 6.222222e+00	 3.407407e+00	 1.026429e+01
0	 6.222222e+00	 3.481481e+00	 1.026331e+01
0	 6.222222e+00	 3.555556e+00	 1.026212e+01
0	 6.222222e+00	 3.629630e+00	 1.026071e+01
0	 6.222222e+00	 3.703704e+00	 1.025908e+01
0	 6.296296e+00	 3.333333e+00	 1.025516e+01
0	 6.296296e+00	 3.407407e+00	 1.025455e+01
0	 6.296296e+00	 3.481481e+00	 1.025373e+01
0	 6.296296e+00	 3.555556e+00	 1.025271e+01
0	 6.296296e+00	 3.629630e+00	 1.025147e+01
0	 6.296296e+00	 3.703704e+00	 1.025002e+01
0	 5.925926e+00	 3.703704e+00	 1.029572e+01
0	 5.925926e+00	 3.777778e+00	 1.029305e+01
0	 5.925926e+00	 3.851852e+00	 1.029021e+01
0	 5.925926e+00	 3.925926e+00	 1.028716e+01
0	 5.925926e+00	 4.000000e+00	 1.028392e+01
0	 5.925926e+00	 4.074074e+00	 1.028047e+01
0	 6.000000e+00	 3.703704e+00	 1.028651e+01
0	 6.000000e+00	 3.777778e+00	 1.028407e+01
0	 6.000000e+00	 3.851852e+00	 1.028145e+01
0	 6.000000e+00	 3.925926e+00	 1.027864e+01
0	 6.000000e+00	 4.000000e+00	 1.027563e+01
0	 6.000000e+00	 4.074074e+00	 1.027242e+01
0	 6.074074e+00	 3.703704e+00	 1.027733e+01
0	 6.074074e+00	 3.777778e+00	 1.027511e+01
0	 6.074074e+00	 3.851852e+00	 1.027270e+01
0	 6.074074e+00	 3.925926e+00	 1.027011e+01
0	 6.074074e+00	 4.000000e+00	 1.026733e+01
0	 6.074074e+00	 4.074074e+00	 1.026435e+01
0	 6.148148e+00	 3.703704e+00	 1.026818e+01
0	 6.148148e+00	 3.777778e+00	 1.026616e+01
0	 6.148148e+00	 3.851852e+00	 1.026397e+01
0	 6.148148e+00	 3.925926e+00	 1.026159e+01
0	 6.148148e+00	 4.000000e+00	 1.025902e+01
0	 6.148148e+00	 4.074074e+00	 1.025626e+01
0	 6.222222e+00	 3.703704e+00	 1.025908e+01
0	 6.222222e+00	 3.777778e+00	 1.025725e+01
0	 6.222222e+00	 3.851852e+00	 1.025525e+01
0	 6.222222e+00	 3.925926e+00	 1.025307e+01
0	 6.222222e+00	 4.000000e+00	 1.025071e+01
0	 6.222222e+00	 4.074074e+00	 1.024816e+01
0	 6.296296e+00	 3.703704e+00	 1.025002e+01
0	 6.296296e+00	 3.777778e+00	 1.024837e+01
0	 6.296296e+00	 3.851852e+00	 1.024656e+01
0	 6.296296e+00	 3.925926e+00	 1.024458e+01
0	 6.296296e+00	 4.000000e+00	 1.024241e+01
0	 6.296296e+00	 4.074074e+00	 1.024006e+01
0	 5.925926e+00	 4.074074e+00	 1.028047e+01
0	 5.925926e+00	 4.148148e+00	 1.027686e+01
0	 5.925926e+00	 4.222222e+00	 1.027311e+01
0	 5.925926e+00	 4.296296e+00	 1.026923e+01
0	 5.925926e+00	 4.370370e+00	 1.026521e+01
0	 5.925926e+00	 4.444444e+00	 1.026104e+01
0	 6.000000e+00	 4.074074e+00	 1.027242e+01
0	 6.000000e+00	 4.148148e+00	 1.026905e+01
0	 6.000000e+00	 4.222222e+00	 1.026554e+01
0	 6.000000e+00	 4.296296e+00	 1.026190e+01
0	 6.000000e+00	 4.370370e+00	 1.025812e+01
0	 6.000000e+00	 4.444444e+00	 1.025419e+01
0	 6.074074e+00	 4.074074e+00	 1.026435e+01
0	 6.074074e+00	 4.148148e+00	 1.026120e+01
0	 6.074074e+00	 4.222222e+00	 1.025793e+01
0	 6.074074e+00	 4.296296e+00	 1.025452e+01
0	 6.074074e+00	 4.370370e+00	 1.025097e+01
0	 6.074074e+00	 4.444444e+00	 1.024726e+01
0	 6.148148e+00	 4.074074e+00	 1.025626e+01
0	 6.148148e+00	 4.148148e+00	 1.025333e+01
0	 6.148148e+00	 4.222222e+00	 1.025028e+01
0	 6.148148e+00	 4.296296e+00	 1.024709e+01
0	 6.148148e+00	 4.370370e+00	 1.024376e+01
0	 6.148148e+00	 4.444444e+00	 1.024028e+01
0	 6.222222e+00	 4.074074e+00	 1.024816e+01
0	 6.222222e+00	 4.148148e+00	 1.024545e+01
0	 6.222222e+00	 4.222222e+00	 1.024261e+01
0	 6.222222e+00	 4.296296e+00	 1.023964e+01
0	 6.222222e+00	 4.370370e+00	 1.023652e+01
0	 6.222222e+00	 4.444444e+00	 1.023324e+01
0	 6.296296e+00	 4.074074e+00	 1.024006e+01
0	 6.296296e+00	 4.148148e+00	 1.023756e+01
0	 6.296296e+00	 4.222222e+00	 1.023493e+01
0	 6.296296e+00	 4.296296e+00	 1.023215e+01
0	 6.296296e+00	 4.370370e+00	 1.022924e+01
0	 6.296296e+00	 4.444444e+00	 1.022617e+01
0	 5.925926e+00	 4.444444e+00	 1.026104e+01
0	 5.925926e+00	 4.518519e+00	 1.025675e+01
0	 5.925926e+00	 4.592593e+00	 1.025239e+01
0	 5.925926e+00	 4.666667e+00	 1.024794e+01
0	 5.925926e+00	 4.740741e+00	 1.024339e+01
0	 5.925926e+00	 4.814815e+00	 1.023874e+01
0	 6.000000e+00	 4.444444e+00	 1.025419e+01
0	 6.000000e+00	 4.518519e+00	 1.025014e+01
0	 6.000000e+00	 4.592593e+00	 1.024601e+01
0	 6.000000e+00	 4.666667e+00	 1.024178e+01
0	 6.000000e+00	 4.740741e+00	 1.023746e+01
0	 6.000000e+00	 4.814815e+00	 1.023303e+01
0	 6.074074e+00	 4.444444e+00	 1.024726e+01
0	 6.074074e+00	 4.518519e+00	 1.024344e+01
0	 6.074074e+00	 4.592593e+00	 1.023953e+01
0	 6.074074e+00	 4.666667e+00	 1.023553e+01
0	 6.074074e+00	 4.740741e+00	 1.023143e+01
0	 6.074074e+00	 4.814815e+00	 1.022722e+01
0	 6.148148e+00	 4.444444e+00	 1.024028e+01
0	 6.148148e+00	 4.518519e+00	 1.023668e+01
0	 6.148148e+00	 4.592593e+00	 1.023299e+01
0	 6.148148e+00	 4.666667e+00	 1.022920e+01
0	 6.148148e+00	 4.740741e+00	 1.022531e+01
0	 6.148148e+00	 4.814815e+00	 1.022132e+01
0	 6.222222e+00	 4.444444e+00	 1.023324e+01
0	 6.222222e+00	 4.518519e+00	 1.022985e+01
0	 6.222222e+00	 4.592593e+00	 1.022637e+01
0	 6.222222e+00	 4.666667e+00	 1.022280e+01
0	 6.222222e+00	 4.740741e+00	 1.021912e+01
0	 6.222222e+00	 4.814815e+00	 1.021534e+01
0	 6.296296e+00	 4.444444e+00	 1.022617e+01
0	 6.296296e+00	 4.518519e+00	 1.022299e+01
0	 6.296296e+00	 4.592593e+00	 1.021972e+01
0	 6.296296e+00	 4.666667e+00	 1.021635e+01
0	 6.296296e+00	 4.740741e+00	 1.021287e+01
0	 6.296296e+00	 4.814815e+00	 1.020929e+01
0	 5.925926e+00	 4.814815e+00	 1.023874e+01
0	 5.925926e+00	 4.888889e+00	 1.023402e+01
0	 5.925926e+00	 4.962963e+00	 1.022926e+01
0	 5.925926e+00	 5.037037e+00	 1.022447e+01
0	 5.925926e+00	 5.111111e+00	 1.021963e+01
0	 5.925926e+00	 5.185185e+00	 1.021473e+01
0	 6.000000e+00	 4.814815e+00	 1.023303e+01
0	 6.000000e+00	 4.888889e+00	 1.022853e+01
0	 6.000000e+00	 4.962963e+00	 1.022400e+01
0	 6.000000e+00	 5.037037e+00	 1.021942e+01
0	 6.000000e+00	 5.111111e+00	 1.021479e+01
0	 6.000000e+00	 5.185185e+00	 1.021009e+01
0	 6.074074e+00	 4.814815e+00	 1.022722e+01
0	 6.074074e+00	 4.888889e+00	 1.022294e+01
0	 6.074074e+00	 4.962963e+00	 1.021862e+01
0	 6.074074e+00	 5.037037e+00	 1.021424e+01
0	 6.074074e+00	 5.111111e+00	 1.020981e+01
0	 6.074074e+00	 5.185185e+00	 1.020532e+01
0	 6.148148e+00	 4.814815e+00	 1.022132e+01
0	 6.148148e+00	 4.888889e+00	 1.021725e+01
0	 6.148148e+00	 4.962963e+00	 1.021313e+01
0	 6.148148e+00	 5.037037e+00	 1.020896e+01
0	 6.148148e+00	 5.111111e+00	 1.020473e+01
0	 6.148148e+00	 5.185185e+00	 1.020043e+01
0	 6.222222e+00	 4.814815e+00	 1.021534e+01
0	 6.222222e+00	 4.888889e+00	 1.021147e+01
0	 6.222222e+00	 4.962963e+00	 1.020756e+01
0	 6.222222e+00	 5.037037e+00	 1.020359e+01
0	 6.222222e+00	 5.111111e+00	 1.019955e+01
0	 6.222222e+00	 5.185185e+00	 1.019545e+01
0	 6.296296e+00	 4.814815e+00	 1.020929e+01
0	 6.296296e+00	 4.888889e+00	 1.020563e+01
0	 6.296296e+00	 4.962963e+00	 1.020191e+01
0	 6.296296e+00	 5.037037e+00	 1.019814e+01
0	 6.296296e+00	 5.111111e+00	 1.019429e+01
0	 6.296296e+00	 5.185185e+00	 1.019037e+01
0	 5.925926e+00	 5.185185e+00	 1.021473e+01
0	 5.925926e+00	 5.259259e+00	 1.020981e+01
0	 5.925926e+00	 5.333333e+00	 1.020489e+01
0	 5.925926e+00	 5.407407e+00	 1.019996e+01
0	 5.925926e+00	 5.481481e+00	 1.019502e+01
0	 5.925926e+00	 5.555556e+00	 1.019005e+01
0	 6.000000e+00	 5.185185e+00	 1.021009e+01
0	 6.000000e+00	 5.259259e+00	 1.020537e+01
0	 6.000000e+00	 5.333333e+00	 1.020064e+01
0	 6.000000e+00	 5.407407e+00	 1.019589e+01
0	 6.000000e+00	 5.481481e+00	 1.019113e+01
0	 6.000000e+00	 5.555556e+00	 1.018634e+01
0	 6.074074e+00	 5.185185e+00	 1.020532e+01
0	 6.074074e+00	 5.259259e+00	 1.020079e+01
0	 6.074074e+00	 5.333333e+00	 1.019625e+01
0	 6.074074e+00	 5.407407e+00	 1.019169e+01
0	 6.074074e+00	 5.481481e+00	 1.018711e+01
0	 6.074074e+00	 5.555556e+00	 1.018250e+01
0	 6.148148e+00	 5.185185e+00	 1.020043e+01
0	 6.148148e+00	 5.259259e+00	 1.019609e+01
0	 6.148148e+00	 5.333333e+00	 1.019174e+01
0	 6.148148e+00	 5.407407e+00	 1.018736e+01
0	 6.148148e+00	 5.481481e+00	 1.018296e+01
0	 6.148148e+00	 5.555556e+00	 1.017852e+01
0	 6.222222e+00	 5.185185e+00	 1.019545e+01
0	 6.222222e+00	 5.259259e+00	 1.019129e+01
0	 6.222222e+00	 5.333333e+00	 1.018712e+01
0	 6.222222e+00	 5.407407e+00	 1.018293e+01
0	 6.222222e+00	 5.481481e+00	 1.017870e+01
0	 6.222222e+00	 5.555556e+00	 1.017444e+01
0	 6.296296e+00	 5.185185e+00	 1.019037e+01
0	 6.296296e+00	 5.259259e+00	 1.018641e+01
0	 6.296296e+00	 5.333333e+00	 1.018242e+01
0	 6.296296e+00	 5.407407e+00	 1.017840e+01
0	 6.296296e+00	 5.481481e+00	 1.017435e+01
0	 6.296296e+00	 5.555556e+00	 1.017026e+01
0	 5.925926e+00	 5.555556e+00	 1.019005e+01
0	 5.925926e+00	 5.629630e+00	 1.018509e+01
0	 5.925926e+00	 5.703704e+00	 1.018016e+01
0	 5.925926e+00	 5.777778e+00	 1.017525e+01
0	 5.925926e+00	 5.851852e+00	 1.017036e+01
0	 5.925926e+00	 5.925926e+00	 1.016547e+01
0	 6.000000e+00	 5.555556e+00	 1.018634e+01
0	 6.000000e+00	 5.629630e+00	 1.018156e+01
0	 6.000000e+00	 5.703704e+00	 1.017679e+01
0	 6.000000e+00	 5.777778e+00	 1.017204e+01
0	 6.000000e+00	 5.851852e+00	 1.016730e+01
0	 6.000000e+00	 5.925926e+00	 1.016257e+01
0	 6.074074e+00	 5.555556e+00	 1.018250e+01
0	 6.074074e+00	 5.629630e+00	 1.017788e+01
0	 6.074074e+00	 5.703704e+00	 1.017328e+01
0	 6.074074e+00	 5.777778e+00	 1.016869e+01
0	 6.074074e+00	 5.851852e+00	 1.016410e+01
0	 6.074074e+00	 5.925926e+00	 1.015952e+01
0	 6.148148e+00	 5.555556e+00	 1.017852e+01
0	 6.148148e+00	 5.629630e+00	 1.017407e+01
0	 6.148148e+00	 5.703704e+00	 1.016964e+01
0	 6.148148e+00	 5.777778e+00	 1.016521e+01
0	 6.148148e+00	 5.851852e+00	 1.016078e+01
0	 6.148148e+00	 5.925926e+00	 1.015634e+01
0	 6.222222e+00	 5.555556e+00	 1.017444e+01
0	 6.222222e+00	 5.629630e+00	 1.017016e+01
0	 6.222222e+00	 5.703704e+00	 1.016589e+01
0	 6.222222e+00	 5.777778e+00	 1.016162e+01
0	 6.222222e+00	 5.851852e+00	 1.015734e+01
0	 6.222222e+00	 5.925926e+00	 1.015306e+01
0	 6.296296e+00	 5.555556e+00	 1.017026e+01
0	 6.296296e+00	 5.629630e+00	 1.016615e+01
0	 6.296296e+00	 5.703704e+00	 1.016204e+01
0	 6.296296e+00	 5.777778e+00	 1.015793e+01
0	 6.296296e+00	 5.851852e+00	 1.015380e+01
0	 6.296296e+00	 5.925926e+00	 1.014967e+01
0	 5.925926e+00	 5.925926e+00	 1.016547e+01
0	 5.925926e+00	 6.000000e+00	 1.016062e+01
0	 5.925926e+00	 6.074074e+00	 1.015581e+01
0	 5.925926e+00	 6.148148e+00	 1.015104e+01
0	 5.925926e+00	 6.222222e+00	 1.014630e+01
0	 5.925926e+00	 6.296296e+00	 1.014160e+01
0	 6.000000e+00	 5.925926e+00	 1.016257e+01
0	 6.000000e+00	 6.000000e+00	 1.015786e+01
0	 6.000000e+00	 6.074074e+00	 1.015318e+01
0	 6.000000e+00	 6.148148e+00	 1.014855e+01
0	 6.000000e+00	 6.222222e+00	 1.014394e+01
0	 6.000000e+00	 6.296296e+00	 1.013936e+01
0	 6.074074e+00	 5.925926e+00	 1.015952e+01
0	 6.074074e+00	 6.000000e+00	 1.015495e+01
0	 6.074074e+00	 6.074074e+00	 1.015042e+01
0	 6.074074e+00	 6.148148e+00	 1.014592e+01
0	 6.074074e+00	 6.222222e+00	 1.014144e+01
0	 6.074074e+00	 6.296296e+00	 1.013698e+01
0	 6.148148e+00	 5.925926e+00	 1.015634e+01
0	 6.148148e+00	 6.000000e+00	 1.015192e+01
0	 6.148148e+00	 6.074074e+00	 1.014753e+01
0	 6.148148e+00	 6.148148e+00	 1.014316e+01
0	 6.148148e+00	 6.222222e+00	 1.013882e+01
0	 6.148148e+00	 6.296296e+00	 1.013449e+01
0	 6.222222e+00	 5.925926e+00	 1.015306e+01
0	 6.222222e+00	 6.000000e+00	 1.014878e+01
0	 6.222222e+00	 6.074074e+00	 1.014453e+01
0	 6.222222e+00	 6.148148e+00	 1.014030e+01
0	 6.222222e+00	 6.222222e+00	 1.013608e+01
0	 6.222222e+00	 6.296296e+00	 1.013188e+01
0	 6.296296e+00	 5.925926e+00	 1.014967e+01
0	 6.296296e+00	 6.000000e+00	 1.014554e+01
0	 6.296296e+00	 6.074074e+00	 1.014143e+01
0	 6.296296e+00	 6.148148e+00	 1.013733e+01
0	 6.296296e+00	 6.222222e+00	 1.013325e+01
0	 6.296296e+00	 6.296296e+00	 1.012918e+01
0	 5.925926e+00	 6.296296e+00	 1.014160e+01
0	 5.925926e+00	 6.370370e+00	 1.013694e+01
0	 5.925926e+00	 6.444444e+00	 1.013233e+01
0	 5.925926e+00	 6.518519e+00	 1.012778e+01
0	 5.925926e+00	 6.592593e+00	 1.012329e+01
0	 5.925926e+00	 6.666667e+00	 1.011883e+01
0	 6.000000e+00	 6.296296e+00	 1.013936e+01
0	 6.000000e+00	 6.370370e+00	 1.013481e+01
0	 6.000000e+00	 6.444444e+00	 1.013033e+01
0	 6.000000e+00	 6.518519e+00	 1.012589e+01
0	 6.000000e+00	 6.592593e+00	 1.012149e+01
0	 6.000000e+00	 6.666667e+00	 1.011714e+01
0	 6.074074e+00	 6.296296e+00	 1.013698e+01
0	 6.074074e+00	 6.370370e+00	 1.013256e+01
0	 6.074074e+00	 6.444444e+00	 1.012819e+01
0	 6.074074e+00	 6.518519e+00	 1.012386e+01
0	 6.074074e+00	 6.592593e+00	 1.011957e+01
0	 6.074074e+00	 6.666667e+00	 1.011532e+01
0	 6.148148e+00	 6.296296e+00	 1.013449e+01
0	 6.148148e+00	 6.370370e+00	 1.013019e+01
0	 6.148148e+00	 6.444444e+00	 1.012593e+01
0	 6.148148e+00	 6.518519e+00	 1.012172e+01
0	 6.148148e+00	 6.592593e+00	 1.011754e+01
0	 6.148148e+00	 6.666667e+00	 1.011339e+01
0	 6.222222e+00	 6.296296e+00	 1.013188e+01
0	 6.222222e+00	 6.370370e+00	 1.012770e+01
0	 6.222222e+00	 6.444444e+00	 1.012357e+01
0	 6.222222e+00	 6.518519e+00	 1.011947e+01
0	 6.222222e+00	 6.592593e+00	 1.011540e+01
0	 6.222222e+00	 6.666667e+00	 1.011136e+01
0	 6.296296e+00	 6.296296e+00	 1.012918e+01
0	 6.296296e+00	 6.370370e+00	 1.012513e+01
0	 6.296296e+00	 6.444444e+00	 1.012111e+01
0	 6.296296e+00	 6.518519e+00	 1.011713e+01
0	 6.296296e+00	 6.592593e+00	 1.011317e+01
0	 6.296296e+00	 6.666667e+00	 1.010924e+01
0	 5.925926e+00	 6.666667e+00	 1.011883e+01
0	 5.925926e+00	 6.740741e+00	 1.011444e+01
0	 5.925926e+00	 6.814815e+00	 1.011011e+01
0	 5.925926e+00	 6.888889e+00	 1.010584e+01
0	 5.925926e+00	 6.962963e+00	 1.010163e+01
0	 5.925926e+00	 7.037037e+00	 1.009747e+01
0	 6.000000e+00	 6.666667e+00	 1.011714e+01
0	 6.000000e+00	 6.740741e+00	 1.011284e+01
0	 6.000000e+00	 6.814815e+00	 1.010860e+01
0	 6.000000e+00	 6.888889e+00	 1.010441e+01
0	 6.000000e+00	 6.962963e+00	 1.010029e+01
0	 6.000000e+00	 7.037037e+00	 1.009621e+01
0	 6.074074e+00	 6.666667e+00	 1.011532e+01
0	 6.074074e+00	 6.740741e+00	 1.011112e+01
0	 6.074074e+00	 6.814815e+00	 1.010697e+01
0	 6.074074e+00	 6.888889e+00	 1.010288e+01
0	 6.074074e+00	 6.962963e+00	 1.009883e+01
0	 6.074074e+00	 7.037037e+00	 1.009484e+01
0	 6.148148e+00	 6.666667e+00	 1.011339e+01
0	 6.148148e+00	 6.740741e+00	 1.010928e+01
0	 6.148148e+00	 6.814815e+00	 1.010523e+01
0	 6.148148e+00	 6.888889e+00	 1.010123e+01
0	 6.148148e+00	 6.962963e+00	 1.009728e+01
0	 6.148148e+00	 7.037037e+00	 1.009337e+01
0	 6.222222e+00	 6.666667e+00	 1.011136e+01
0	 6.222222e+00	 6.740741e+00	 1.010736e+01
0	 6.222222e+00	 6.814815e+00	 1.010340e+01
0	 6.222222e+00	 6.888889e+00	 1.009950e+01
0	 6.222222e+00	 6.962963e+00	 1.009564e+01
0	 6.222222e+00	 7.037037e+00	 1.009181e+01
0	 6.296296e+00	 6.666667e+00	 1.010924e+01
0	 6.296296e+00	 6.740741e+00	 1.010534e+01
0	 6.296296e+00	 6.814815e+00	 1.010149e+01
0	 6.296296e+00	 6.888889e+00	 1.009768e+01
0	 6.296296e+00	 6.962963e+00	 1.009391e+01
0	 6.296296e+00	 7.037037e+00	 1.009018e+01
0	 5.925926e+00	 7.037037e+00	 1.009747e+01
0	 5.925926e+00	 7.111111e+00	 1.009338e+01
0	 5.925926e+00	 7.185185e+00	 1.008936e+01
0	 5.925926e+00	 7.259259e+00	 1.008541e+01
0	 5.925926e+00	 7.333333e+00	 1.008153e+01
0	 5.925926e+00	 7.407407e+00	 1.007770e+01
0	 6.000000e+00	 7.037037e+00	 1.009621e+01
0	 6.000000e+00	 7.111111e+00	 1.009219e+01
0	 6.000000e+00	 7.185185e+00	 1.008824e+01
0	 6.000000e+00	 7.259259e+00	 1.008436e+01
0	 6.000000e+00	 7.333333e+00	 1.008054e+01
0	 6.000000e+00	 7.407407e+00	 1.007678e+01
0	 6.074074e+00	 7.037037e+00	 1.009484e+01
0	 6.074074e+00	 7.111111e+00	 1.009090e+01
0	 6.074074e+00	 7.185185e+00	 1.008703e+01
0	 6.074074e+00	 7.259259e+00	 1.008322e+01
0	 6.074074e+00	 7.333333e+00	 1.007946e+01
0	 6.074074e+00	 7.407407e+00	 1.007576e+01
0	 6.148148e+00	 7.037037e+00	 1.009337e+01
0	 6.148148e+00	 7.111111e+00	 1.008951e+01
0	 6.148148e+00	 7.185185e+00	 1.008572e+01
0	 6.148148e+00	 7.259259e+00	 1.008198e+01
0	 6.148148e+00	 7.333333e+00	 1.007830e+01
0	 6.148148e+00	 7.407407e+00	 1.007467e+01
0	 6.222222e+00	 7.037037e+00	 1.009181e+01
0	 6.222222e+00	 7.111111e+00	 1.008804e+01
0	 6.222222e+00	 7.185185e+00	 1.008433e+01
0	 6.222222e+00	 7.259259e+00	 1.008067e+01
0	 6.222222e+00	 7.333333e+00	 1.007706e+01
0	 6.222222e+00	 7.407407e+00	 1.007350e+01
0	 6.296296e+00	 7.037037e+00	 1.009018e+01
0	 6.296296e+00	 7.111111e+00	 1.008649e+01
0	 6.296296e+00	 7.185185e+00	 1.008286e+01
0	 6.296296e+00	 7.259259e+00	 1.007928e+01
0	 6.296296e+00	 7.333333e+00	 1.007575e+01
0	 6.296296e+00	 7.407407e+00	 1.007226e+01
0	 5.925926e+00	 7.407407e+00	 1.007770e+01
0	 5.925926e+00	 7.481481e+00	 1.007395e+01
0	 5.925926e+00	 7.555556e+00	 1.007027e+01
0	 5.925926e+00	 7.629630e+00	 1.006667e+01
0	 5.925926e+00	 7.703704e+00	 1.006313e+01
0	 5.925926e+00	 7.777778e+00	 1.005966e+01
0	 6.000000e+00	 7.407407e+00	 1.007678e+01
0	 6.000000e+00	 7.481481e+00	 1.007308e+01
0	 6.000000e+00	 7.555556e+00	 1.006946e+01
0	 6.000000e+00	 7.629630e+00	 1.006591e+01
0	 6.000000e+00	 7.703704e+00	 1.006242e+01
0	 6.000000e+00	 7.777778e+00	 1.005900e+01
0	 6.074074e+00	 7.407407e+00	 1.007576e+01
0	 6.074074e+00	 7.481481e+00	 1.007213e+01
0	 6.074074e+00	 7.555556e+00	 1.006857e+01
0	 6.074074e+00	 7.629630e+00	 1.006507e+01
0	 6.074074e+00	 7.703704e+00	 1.006164e+01
0	 6.074074e+00	 7.777778e+00	 1.005827e+01
0	 6.148148e+00	 7.407407e+00	 1.007467e+01
0	 6.148148e+00	 7.481481e+00	 1.007110e+01
0	 6.148148e+00	 7.555556e+00	 1.006760e+01
0	 6.148148e+00	 7.629630e+00	 1.006416e+01
0	 6.148148e+00	 7.703704e+00	 1.006079e+01
0	 6.148148e+00	 7.777778e+00	 1.005747e+01
0	 6.222222e+00	 7.407407e+00	 1.007350e+01
0	 6.222222e+00	 7.481481e+00	 1.007000e+01
0	 6.222222e+00	 7.555556e+00	 1.006656e+01
0	 6.222222e+00	 7.629630e+00	 1.006319e+01
0	 6.222222e+00	 7.703704e+00	 1.005987e+01
0	 6.222222e+00	 7.777778e+00	 1.005662e+01
0	 6.296296e+00	 7.407407e+00	 1.007226e+01
0	 6.296296e+00	 7.481481e+00	 1.006883e+01
0	 6.296296e+00	 7.555556e+00	 1.006546e+01
0	 6.296296e+00	 7.629630e+00	 1.006216e+01
0	 6.296296e+00	 7.703704e+00	 1.005891e+01
0	 6.296296e+00	 7.777778e+00	 1.005571e+01
0	 5.925926e+00	 7.777778e+00	 1.005966e+01
0	 5.925926e+00	 7.851852e+00	 1.005627e+01
0	 5.925926e+00	 7.925926e+00	 1.005296e+01
0	 5.925926e+00	 8.000000e+00	 1.004973e+01
0	 5.925926e+00	 8.074074e+00	 1.004657e+01
0	 5.925926e+00	 8.148148e+00	 1.004349e+01
0	 6.000000e+00	 7.777778e+00	 1.005900e+01
0	 6.000000e+00	 7.851852e+00	 1.005565e+01
0	 6.000000e+00	 7.925926e+00	 1.005239e+01
0	 6.000000e+00	 8.000000e+00	 1.004920e+01
0	 6.000000e+00	 8.074074e+00	 1.004608e+01
0	 6.000000e+00	 8.148148e+00	 1.004303e+01
0	 6.074074e+00	 7.777778e+00	 1.005827e+01
0	 6.074074e+00	 7.851852e+00	 1.005497e+01
0	 6.074074e+00	 7.925926e+00	 1.005175e+01
0	 6.074074e+00	 8.000000e+00	 1.004860e+01
0	 6.074074e+00	 8.074074e+00	 1.004553e+01
0	 6.074074e+00	 8.148148e+00	 1.004252e+01
0	 6.148148e+00	 7.777778e+00	 1.005747e+01
0	 6.148148e+00	 7.851852e+00	 1.005422e+01
0	 6.148148e+00	 7.925926e+00	 1.005105e+01
0	 6.148148e+00	 8.000000e+00	 1.004795e+01
0	 6.148148e+00	 8.074074e+00	 1.004493e+01
0	 6.148148e+00	 8.148148e+00	 1.004196e+01
0	 6.222222e+00	 7.777778e+00	 1.005662e+01
0	 6.222222e+00	 7.851852e+00	 1.005342e+01
0	 6.222222e+00	 7.925926e+00	 1.005030e+01
0	 6.222222e+00	 8.000000e+00	 1.004726e+01
0	 6.222222e+00	 8.074074e+00	 1.004428e+01
0	 6.222222e+00	 8.148148e+00	 1.004136e+01
0	 6.296296e+00	 7.777778e+00	 1.005571e+01
0	 6.296296e+00	 7.851852e+00	 1.005257e+01
0	 6.296296e+00	 7.925926e+00	 1.004951e+01
0	 6.296296e+00	 8.000000e+00	 1.004651e+01
0	 6.296296e+00	 8.074074e+00	 1.004358e+01
0	 6.296296e+00	 8.148148e+00	 1.004072e+01
0	 5.925926e+00	 8.148148e+00	 1.004349e+01
0	 5.925926e+00	 8.222222e+00	 1.004049e+01
0	 5.925926e+00	 8.296296e+00	 1.003758e+01
0	 5.925926e+00	 8.370370e+00	 1.003476e+01
0	 5.925926e+00	 8.444444e+00	 1.003202e+01
0	 5.925926e+00	 8.518519e+00	 1.002936e+01
0	 6.000000e+00	 8.148148e+00	 1.004303e+01
0	 6.000000e+00	 8.222222e+00	 1.004007e+01
0	 6.000000e+00	 8.296296e+00	 1.003719e+01
0	 6.000000e+00	 8.370370e+00	 1.003440e+01
0	 6.000000e+00	 8.444444e+00	 1.003169e+01
0	 6.000000e+00	 8.518519e+00	 1.002905e+01
0	 6.074074e+00	 8.148148e+00	 1.004252e+01
0	 6.074074e+00	 8.222222e+00	 1.003959e+01
0	 6.074074e+00	 8.296296e+00	 1.003675e+01
0	 6.074074e+00	 8.370370e+00	 1.003399e+01
0	 6.074074e+00	 8.444444e+00	 1.003132e+01
0	 6.074074e+00	 8.518519e+00	 1.002872e+01
0	 6.148148e+00	 8.148148e+00	 1.004196e+01
0	 6.148148e+00	 8.222222e+00	 1.003907e+01
0	 6.148148e+00	 8.296296e+00	 1.003627e+01
0	 6.148148e+00	 8.370370e+00	 1.003355e+01
0	 6.148148e+00	 8.444444e+00	 1.003091e+01
0	 6.148148e+00	 8.518519e+00	 1.002835e+01
0	 6.222222e+00	 8.148148e+00	 1.004136e+01
0	 6.222222e+00	 8.222222e+00	 1.003851e+01
0	 6.222222e+00	 8.296296e+00	 1.003576e+01
0	 6.222222e+00	 8.370370e+00	 1.003308e+01
0	 6.222222e+00	 8.444444e+00	 1.003048e+01
0	 6.222222e+00	 8.518519e+00	 1.002795e+01
0	 6.296296e+00	 8.148148e+00	 1.004072e+01
0	 6.296296e+00	 8.222222e+00	 1.003792e+01
0	 6.296296e+00	 8.296296e+00	 1.003520e+01
0	 6.296296e+00	 8.370370e+00	 1.003257e+01
0	 6.296296e+00	 8.444444e+00	 1.003001e+01
0	 6.296296e+00	 8.518519e+00	 1.002752e+01
0	 5.925926e+00	 8.518519e+00	 1.002936e+01
0	 5.925926e+00	 8.592593e+00	 1.002679e+01
0	 5.925926e+00	 8.666667e+00	 1.002432e+01
0	 5.925926e+00	 8.740741e+00	 1.002196e+01
0	 5.925926e+00	 8.814815e+00	 1.001968e+01
0	 5.925926e+00	 8.888889e+00	 1.001750e+01
0	 6.000000e+00	 8.518519e+00	 1.002905e+01
0	 6.000000e+00	 8.592593e+00	 1.002651e+01
0	 6.000000e+00	 8.666667e+00	 1.002407e+01
0	 6.000000e+00	 8.740741e+00	 1.002173e+01
0	 6.000000e+00	 8.814815e+00	 1.001948e+01
0	 6.000000e+00	 8.888889e+00	 1.001732e+01
0	 6.074074e+00	 8.518519e+00	 1.002872e+01
0	 6.074074e+00	 8.592593e+00	 1.002620e+01
0	 6.074074e+00	 8.666667e+00	 1.002379e+01
0	 6.074074e+00	 8.740741e+00	 1.002148e+01
0	 6.074074e+00	 8.814815e+00	 1.001926e+01
0	 6.074074e+00	 8.888889e+00	 1.001712e+01
0	 6.148148e+00	 8.518519e+00	 1.002835e+01
0	 6.148148e+00	 8.592593e+00	 1.002587e+01
0	 6.148148e+00	 8.666667e+00	 1.002349e+01
0	 6.148148e+00	 8.740741e+00	 1.002120e+01
0	 6.148148e+00	 8.814815e+00	 1.001901e+01
0	 6.148148e+00	 8.888889e+00	 1.001690e+01
0	 6.222222e+00	 8.518519e+00	 1.002795e+01
0	 6.222222e+00	 8.592593e+00	 1.002550e+01
0	 6.222222e+00	 8.666667e+00	 1.002316e+01
0	 6.222222e+00	 8.740741e+00	 1.002090e+01
0	 6.222222e+00	 8.814815e+00	 1.001874e+01
0	 6.222222e+00	 8.888889e+00	 1.001666e+01
0	 6.296296e+00	 8.518519e+00	 1.002752e+01
0	 6.296296e+00	 8.592593e+00	 1.002511e+01
0	 6.296296e+00	 8.666667e+00	 1.002280e+01
0	 6.296296e+00	 8.740741e+00	 1.002058e+01
0	 6.296296e+00	 8.814815e+00	 1.001845e+01
0	 6.296296e+00	 8.888889e+00	 1.001641e+01
0	 5.925926e+00	 8.888889e+00	 1.001750e+01
0	 5.925926e+00	 8.962963e+00	 1.001543e+01
0	 5.925926e+00	 9.037037e+00	 1.001347e+01
0	 5.925926e+00	 9.111111e+00	 1.001164e+01
0	 5.925926e+00	 9.185185e+00	 1.000991e+01
0	 5.925926e+00	 9.259259e+00	 1.000828e+01
0	 6.000000e+00	 8.888889e+00	 1.001732e+01
0	 6.000000e+00	 8.962963e+00	 1.001527e+01
0	 6.000000e+00	 9.037037e+00	 1.001333e+01
0	 6.000000e+00	 9.111111e+00	 1.001151e+01
0	 6.000000e+00	 9.185185e+00	 1.000980e+01
0	 6.000000e+00	 9.259259e+00	 1.000820e+01
0	 6.074074e+00	 8.888889e+00	 1.001712e+01
0	 6.074074e+00	 8.962963e+00	 1.001509e+01
0	 6.074074e+00	 9.037037e+00	 1.001318e+01
0	 6.074074e+00	 9.111111e+00	 1.001138e+01
0	 6.074074e+00	 9.185185e+00	 1.000969e+01
0	 6.074074e+00	 9.259259e+00	 1.000810e+01
0	 6.148148e+00	 8.888889e+00	 1.001690e+01
0	 6.148148e+00	 8.962963e+00	 1.001489e+01
0	 6.148148e+00	 9.037037e+00	 1.001300e+01
0	 6.148148e+00	 9.111111e+00	 1.001123e+01
0	 6.148148e+00	 9.185185e+00	 1.000956e+01
0	 6.148148e+00	 9.259259e+00	 1.000799e+01
0	 6.222222e+00	 8.888889e+00	 1.001666e+01
0	 6.222222e+00	 8.962963e+00	 1.001468e+01
0	 6.222222e+00	 9.037037e+00	 1.001282e+01
0	 6.222222e+00	 9.111111e+00	 1.001107e+01
0	 6.222222e+00	 9.185185e+00	 1.000942e+01
0	 6.222222e+00	 9.259259e+00	 1.000788e+01
0	 6.296296e+00	 8.888889e+00	 1.001641e+01
0	 6.296296e+00	 8.962963e+00	 1.001446e+01
0	 6.296296e+00	 9.037037e+00	 1.001262e+01
0	 6.296296e+00	 9.111111e+00	 1.001090e+01
0	 6.296296e+00	 9.185185e+00	 1.000928e+01
0	 6.296296e+00	 9.259259e+00	 1.000775e+01
0	 5.925926e+00	 9.259259e+00	 1.000828e+01
0	 5.925926e+00	 9.333333e+00	 1.000679e+01
0	 5.925926e+00	 9.407407e+00	 1.000544e+01
0	 5.925926e+00	 9.481481e+00	 1.000424e+01
0	 5.925926e+00	 9.555556e+00	 1.000316e+01
0	 5.925926e+00	 9.629630e+00	 1.000222e+01
0	 6.000000e+00	 9.259259e+00	 1.000820e+01
0	 6.000000e+00	 9.333333e+00	 1.000672e+01
0	 6.000000e+00	 9.407407e+00	 1.000538e+01
0	 6.000000e+00	 9.481481e+00	 1.000419e+01
0	 6.000000e+00	 9.555556e+00	 1.000313e+01
0	 6.000000e+00	 9.629630e+00	 1.000219e+01
0	 6.074074e+00	 9.259259e+00	 1.000810e+01
0	 6.074074e+00	 9.333333e+00	 1.000663e+01
0	 6.074074e+00	 9.407407e+00	 1.000532e+01
0	 6.074074e+00	 9.481481e+00	 1.000414e+01
0	 6.074074e+00	 9.555556e+00	 1.000309e+01
0	 6.074074e+00	 9.629630e+00	 1.000217e+01
0	 6.148148e+00	 9.259259e+00	 1.000799e+01
0	 6.148148e+00	 9.333333e+00	 1.000655e+01
0	 6.148148e+00	 9.407407e+00	 1.000524e+01
0	 6.148148e+00	 9.481481e+00	 1.000408e+01
0	 6.148148e+00	 9.555556e+00	 1.000305e+01
0	 6.148148e+00	 9.629630e+00	 1.000214e+01
0	 6.222222e+00	 9.259259e+00	 1.000788e+01
0	 6.222222e+00	 9.333333e+00	 1.000645e+01
0	 6.222222e+00	 9.407407e+00	 1.000517e+01
0	 6.222222e+00	 9.481481e+00	 1.000402e+01
0	 6.222222e+00	 9.555556e+00	 1.000300e+01
0	 6.222222e+00	 9.629630e+00	 1.000210e+01
0	 6.296296e+00	 9.259259e+00	 1.000775e+01
0	 6.296296e+00	 9.333333e+00	 1.000635e+01
0	 6.296296e+00	 9.407407e+00	 1.000509e+01
0	 6.296296e+00	 9.481481e+00	 1.000396e+01
0	 6.296296e+00	 9.555556e+00	 1.000295e+01
0	 6.296296e+00	 9.629630e+00	 1.000207e+01
0	 5.925926e+00	 9.629630e+00	 1.000222e+01
0	 5.925926e+00	 9.703704e+00	 1.000143e+01
0	 5.925926e+00	 9.777778e+00	 1.000082e+01
0	 5.925926e+00	 9.851852e+00	 1.000038e+01
0	 5.925926e+00	 9.925926e+00	 1.000010e+01
0	 5.925926e+00	 1.000000e+01	 9.999978e+00
0	 6.000000e+00	 9.629630e+00	 1.000219e+01
0	 6.000000e+00	 9.703704e+00	 1.000141e+01
0	 6.000000e+00	 9.777778e+00	 1.000081e+01
0	 6.000000e+00	 9.851852e+00	 1.000037e+01
0	 6.000000e+00	 9.925926e+00	 1.000010e+01
0	 6.000000e+00	 1.000000e+01	 9.999979e+00
0	 6.074074e+00	 9.629630e+00	 1.000217e+01
0	 6.074074e+00	 9.703704e+00	 1.000139e+01
0	 6.074074e+00	 9.777778e+00	 1.000080e+01
0	 6.074074e+00	 9.851852e+00	 1.000037e+01
0	 6.074074e+00	 9.925926e+00	 1.000010e+01
0	 6.074074e+00	 1.000000e+01	 9.999979e+00
0	 6.148148e+00	 9.629630e+00	 1.000214e+01
0	 6.148148e+00	 9.703704e+00	 1.000137e+01
0	 6.148148e+00	 9.777778e+00	 1.000078e+01
0	 6.148148e+00	 9.851852e+00	 1.000036e+01
0	 6.148148e+00	 9.925926e+00	 1.000010e+01
0	 6.148148e+00	 1.000000e+01	 9.999978e+00
0	 6.222222e+00	 9.629630e+00	 1.000210e+01
0	 6.222222e+00	 9.703704e+00	 1.000135e+01
0	 6.222222e+00	 9.777778e+00	 1.000077e+01
0	 6.222222e+00	 9.851852e+00	 1.000036e+01
0	 6.222222e+00	 9.925926e+00	 1.000009e+01
0	 6.222222e+00	 1.000000e+01	 9.999978e+00
0	 6.296296e+00	 9.629630e+00	 1.000207e+01
0	 6.296296e+00	 9.703704e+00	 1.000133e+01
0	 6.296296e+00	 9.777778e+00	 1.000076e+01
0	 6.296296e+00	 9.851852e+00	 1.000035e+01
0	 6.296296e+00	 9.925926e+00	 1.000009e+01
0	 6.296296e+00	 1.000000e+01	 9.999981e+00
0	 6.296296e+00	 0.000000e+00	 1.016071e+01
0	 6.296296e+00	 7.407407e-02	 1.016086e+01
0	 6.296296e+00	 1.481481e-01	 1.016129e+01
0	 6.296296e+00	 2.222222e-01	 1.016199e+01
0	 6.296296e+00	 2.962963e-01	 1.016297e+01
0	 6.296296e+00	 3.703704e-01	 1.016421e+01
0	 6.370370e+00	 0.000000e+00	 1.015252e+01
0	 6.370370e+00	 7.407407e-02	 1.015270e+01
0	 6.370370e+00	 1.481481e-01	 1.015312e+01
0	 6.370370e+00	 2.222222e-01	 1.015379e+01
0	 6.370370e+00	 2.962963e-01	 1.015471e+01
0	 6.370370e+00	 3.703704e-01	 1.015589e+01
0	 6.444444e+00	 0.000000e+00	 1.014440e+01
0	 6.444444e+00	 7.407407e-02	 1.014458e+01
0	 6.444444e+00	 1.481481e-01	 1.014498e+01
0	 6.444444e+00	 2.222222e-01	 1.014562e+01
0	 6.444444e+00	 2.962963e-01	 1.014650e+01
0	 6.444444e+00	 3.703704e-01	 1.014763e+01
0	 6.518519e+00	 0.000000e+00	 1.013633e+01
0	 6.518519e+00	 7.407407e-02	 1.013649e+01
0	 6.518519e+00	 1.481481e-01	 1.013687e+01
0	 6.518519e+00	 2.222222e-01	 1.013748e+01
0	 6.518519e+00	 2.962963e-01	 1.013832e+01
0	 6.518519e+00	 3.703704e-01	 1.013942e+01
0	 6.592593e+00	 0.000000e+00	 1.012831e+01
0	 6.592593e+00	 7.407407e-02	 1.012845e+01
0	 6.592593e+00	 1.481481e-01	 1.012880e+01
0	 6.592593e+00	 2.222222e-01	 1.012938e+01
0	 6.592593e+00	 2.962963e-01	 1.013019e+01
0	 6.592593e+00	 3.703704e-01	 1.013125e+01
0	 6.666667e+00	 0.000000e+00	 1.012033e+01
0	 6.666667e+00	 7.407407e-02	 1.012043e+01
0	 6.666667e+00	 1.481481e-01	 1.012076e+01
0	 6.666667e+00	 2.222222e-01	 1.012131e+01
0	 6.666667e+00	 2.962963e-01	 1.012209e+01
0	 6.666667e+00	 3.703704e-01	 1.012312e+01
0	 6.296296e+00	 3.703704e-01	 1.016421e+01
0	 6.296296e+00	 4.444444e-01	 1.016570e+01
0	 6.296296e+00	 5.185185e-01	 1.016741e+01
0	 6.296296e+00	 5.925926e-01	 1.016936e+01
0	 6.296296e+00	 6.666667e-01	 1.017156e+01
0	 6.296296e+00	 7.407407e-01	 1.017404e+01
0	 6.370370e+00	 3.703704e-01	 1.015589e+01
0	 6.370370e+00	 4.444444e-01	 1.015731e+01
0	 6.370370e+00	 5.185185e-01	 1.015895e+01
0	 6.370370e+00	 5.925926e-01	 1.016081e+01
0	 6.370370e+00	 6.666667e-01	 1.016293e+01
0	 6.370370e+00	 7.407407e-01	 1.016530e+01
0	 6.444444e+00	 3.703704e-01	 1.014763e+01
0	 6.444444e+00	 4.444444e-01	 1.014899e+01
0	 6.444444e+00	 5.185185e-01	 1.015056e+01
0	 6.444444e+00	 5.925926e-01	 1.015235e+01
0	 6.444444e+00	 6.666667e-01	 1.015438e+01
0	 6.444444e+00	 7.407407e-01	 1.015665e+01
0	 6.518519e+00	 3.703704e-01	 1.013942e+01
0	 6.518519e+00	 4.444444e-01	 1.014073e+01
0	 6.518519e+00	 5.185185e-01	 1.014224e+01
0	 6.518519e+00	 5.925926e-01	 1.014396e+01
0	 6.518519e+00	 6.666667e-01	 1.014591e+01
0	 6.518519e+00	 7.407407e-01	 1.014808e+01
0	 6.592593e+00	 3.703704e-01	 1.013125e+01
0	 6.592593e+00	 4.444444e-01	 1.013252e+01
0	 6.592593e+00	 5.185185e-01	 1.013398e+01
0	 6.592593e+00	 5.925926e-01	 1.013563e+01
0	 6.592593e+00	 6.666667e-01	 1.013749e+01
0	 6.592593e+00	 7.407407e-01	 1.013957e+01
0	 6.666667e+00	 3.703704e-01	 1.012312e+01
0	 6.666667e+00	 4.444444e-01	 1.012435e+01
0	 6.666667e+00	 5.185185e-01	 1.012576e+01
0	 6.666667e+00	 5.925926e-01	 1.012735e+01
0	 6.666667e+00	 6.666667e-01	 1.012913e+01
0	 6.666667e+00	 7.407407e-01	 1.013112e+01
0	 6.296296e+00	 7.407407e-01	 1.017404e+01
0	 6.296296e+00	 8.148148e-01	 1.017670e+01
0	 6.296296e+00	 8.888889e-01	 1.017947e+01
0	 6.296296e+00	 9.629630e-01	 1.018238e+01
0	 6.296296e+00	 1.037037e+00	 1.018545e+01
0	 6.296296e+00	 1.111111e+00	 1.018870e+01
0	 6.370370e+00	 7.407407e-01	 1.016530e+01
0	 6.370370e+00	 8.148148e-01	 1.016785e+01
0	 6.370370e+00	 8.888889e-01	 1.017052e+01
0	 6.370370e+00	 9.629630e-01	 1.017332e+01
0	 6.370370e+00	 1.037037e+00	 1.017627e+01
0	 6.370370e+00	 1.111111e+00	 1.017939e+01
0	 6.444444e+00	 7.407407e-01	 1.015665e+01
0	 6.444444e+00	 8.148148e-01	 1.015910e+01
0	 6.444444e+00	 8.888889e-01	 1.016166e+01
0	 6.444444e+00	 9.629630e-01	 1.016435e+01
0	 6.444444e+00	 1.037037e+00	 1.016718e+01
0	 6.444444e+00	 1.111111e+00	 1.017019e+01
0	 6.518519e+00	 7.407407e-01	 1.014808e+01
0	 6.518519e+00	 8.148148e-01	 1.015042e+01
0	 6.518519e+00	 8.888889e-01	 1.015288e+01
0	 6.518519e+00	 9.629630e-01	 1.015546e+01
0	 6.518519e+00	 1.037037e+00	 1.015819e+01
0	 6.518519e+00	 1.111111e+00	 1.016109e+01
0	 6.592593e+00	 7.407407e-01	 1.013957e+01
0	 6.592593e+00	 8.148148e-01	 1.014181e+01
0	 6.592593e+00	 8.888889e-01	 1.014417e+01
0	 6.592593e+00	 9.629630e-01	 1.014665e+01
0	 6.592593e+00	 1.037037e+00	 1.014929e+01
0	 6.592593e+00	 1.111111e+00	 1.015208e+01
0	 6.666667e+00	 7.407407e-01	 1.013112e+01
0	 6.666667e+00	 8.148148e-01	 1.013327e+01
0	 6.666667e+00	 8.888889e-01	 1.013553e+01
0	 6.666667e+00	 9.629630e-01	 1.013792e+01
0	 6.666667e+00	 1.037037e+00	 1.014046e+01
0	 6.666667e+00	 1.111111e+00	 1.014316e+01
0	 6.296296e+00	 1.111111e+00	 1.018870e+01
0	 6.296296e+00	 1.185185e+00	 1.019204e+01
0	 6.296296e+00	 1.259259e+00	 1.019541e+01
0	 6.296296e+00	 1.333333e+00	 1.019882e+01
0	 6.296296e+00	 1.407407e+00	 1.020229e+01
0	 6.296296e+00	 1.481481e+00	 1.020586e+01
0	 6.370370e+00	 1.111111e+00	 1.017939e+01
0	 6.370370e+00	 1.185185e+00	 1.018260e+01
0	 6.370370e+00	 1.259259e+00	 1.018585e+01
0	 6.370370e+00	 1.333333e+00	 1.018913e+01
0	 6.370370e+00	 1.407407e+00	 1.019249e+01
0	 6.370370e+00	 1.481481e+00	 1.019593e+01
0	 6.444444e+00	 1.111111e+00	 1.017019e+01
0	 6.444444e+00	 1.185185e+00	 1.017329e+01
0	 6.444444e+00	 1.259259e+00	 1.017642e+01
0	 6.444444e+00	 1.333333e+00	 1.017959e+01
0	 6.444444e+00	 1.407407e+00	 1.018283e+01
0	 6.444444e+00	 1.481481e+00	 1.018616e+01
0	 6.518519e+00	 1.111111e+00	 1.016109e+01
0	 6.518519e+00	 1.185185e+00	 1.016408e+01
0	 6.518519e+00	 1.259259e+00	 1.016710e+01
0	 6.518519e+00	 1.333333e+00	 1.017018e+01
0	 6.518519e+00	 1.407407e+00	 1.017331e+01
0	 6.518519e+00	 1.481481e+00	 1.017654e+01
0	 6.592593e+00	 1.111111e+00	 1.015208e+01
0	 6.592593e+00	 1.185185e+00	 1.015497e+01
0	 6.592593e+00	 1.259259e+00	 1.015790e+01
0	 6.592593e+00	 1.333333e+00	 1.016087e+01
0	 6.592593e+00	 1.407407e+00	 1.016391e+01
0	 6.592593e+00	 1.481481e+00	 1.016703e+01
0	 6.666667e+00	 1.111111e+00	 1.014316e+01
0	 6.666667e+00	 1.185185e+00	 1.014595e+01
0	 6.666667e+00	 1.259259e+00	 1.014878e+01
0	 6.666667e+00	 1.333333e+00	 1.015166e+01
0	 6.666667e+00	 1.407407e+00	 1.015460e+01
0	 6.666667e+00	 1.481481e+00	 1.015763e+01
0	 6.296296e+00	 1.481481e+00	 1.020586e+01
0	 6.296296e+00	 1.555556e+00	 1.020942e+01
0	 6.296296e+00	 1.629630e+00	 1.021291e+01
0	 6.296296e+00	 1.703704e+00	 1.021634e+01
0	 6.296296e+00	 1.777778e+00	 1.021974e+01
0	 6.296296e+00	 1.851852e+00	 1.022312e+01
0	 6.370370e+00	 1.481481e+00	 1.019593e+01
0	 6.370370e+00	 1.555556e+00	 1.019938e+01
0	 6.370370e+00	 1.629630e+00	 1.020276e+01
0	 6.370370e+00	 1.703704e+00	 1.020609e+01
0	 6.370370e+00	 1.777778e+00	 1.020940e+01
0	 6.370370e+00	 1.851852e+00	 1.021269e+01
0	 6.444444e+00	 1.481481e+00	 1.018616e+01
0	 6.444444e+00	 1.555556e+00	 1.018951e+01
0	 6.444444e+00	 1.629630e+00	 1.019278e+01
0	 6.444444e+00	 1.703704e+00	 1.019602e+01
0	 6.444444e+00	 1.777778e+00	 1.019923e+01
0	 6.444444e+00	 1.851852e+00	 1.020244e+01
0	 6.518519e+00	 1.481481e+00	 1.017654e+01
0	 6.518519e+00	 1.555556e+00	 1.017978e+01
0	 6.518519e+00	 1.629630e+00	 1.018296e+01
0	 6.518519e+00	 1.703704e+00	 1.018610e+01
0	 6.518519e+00	 1.777778e+00	 1.018923e+01
0	 6.518519e+00	 1.851852e+00	 1.019236e+01
0	 6.592593e+00	 1.481481e+00	 1.016703e+01
0	 6.592593e+00	 1.555556e+00	 1.017017e+01
0	 6.592593e+00	 1.629630e+00	 1.017326e+01
0	 6.592593e+00	 1.703704e+00	 1.017632e+01
0	 6.592593e+00	 1.777778e+00	 1.017937e+01
0	 6.592593e+00	 1.851852e+00	 1.018241e+01
0	 6.666667e+00	 1.481481e+00	 1.015763e+01
0	 6.666667e+00	 1.555556e+00	 1.016067e+01
0	 6.666667e+00	 1.629630e+00	 1.016368e+01
0	 6.666667e+00	 1.703704e+00	 1.016666e+01
0	 6.666667e+00	 1.777778e+00	 1.016962e+01
0	 6.666667e+00	 1.851852e+00	 1.017260e+01
0	 6.296296e+00	 1.851852e+00	 1.022312e+01
0	 6.296296e+00	 1.925926e+00	 1.022641e+01
0	 6.296296e+00	 2.000000e+00	 1.022954e+01
0	 6.296296e+00	 2.074074e+00	 1.023253e+01
0	 6.296296e+00	 2.148148e+00	 1.023538e+01
0	 6.296296e+00	 2.222222e+00	 1.023813e+01
0	 6.370370e+00	 1.851852e+00	 1.021269e+01
0	 6.370370e+00	 1.925926e+00	 1.021591e+01
0	 6.370370e+00	 2.000000e+00	 1.021897e+01
0	 6.370370e+00	 2.074074e+00	 1.022190e+01
0	 6.370370e+00	 2.148148e+00	 1.022472e+01
0	 6.370370e+00	 2.222222e+00	 1.022743e+01
0	 6.444444e+00	 1.851852e+00	 1.020244e+01
0	 6.444444e+00	 1.925926e+00	 1.020559e+01
0	 6.444444e+00	 2.000000e+00	 1.020859e+01
0	 6.444444e+00	 2.074074e+00	 1.021146e+01
0	 6.444444e+00	 2.148148e+00	 1.021423e+01
0	 6.444444e+00	 2.222222e+00	 1.021691e+01
0	 6.518519e+00	 1.851852e+00	 1.019236e+01
0	 6.518519e+00	 1.925926e+00	 1.019542e+01
0	 6.518519e+00	 2.000000e+00	 1.019836e+01
0	 6.518519e+00	 2.074074e+00	 1.020119e+01
0	 6.518519e+00	 2.148148e+00	 1.020391e+01
0	 6.518519e+00	 2.222222e+00	 1.020656e+01
0	 6.592593e+00	 1.851852e+00	 1.018241e+01
0	 6.592593e+00	 1.925926e+00	 1.018541e+01
0	 6.592593e+00	 2.000000e+00	 1.018828e+01
0	 6.592593e+00	 2.074074e+00	 1.019106e+01
0	 6.592593e+00	 2.148148e+00	 1.019375e+01
0	 6.592593e+00	 2.222222e+00	 1.019636e+01
0	 6.666667e+00	 1.851852e+00	 1.017260e+01
0	 6.666667e+00	 1.925926e+00	 1.017552e+01
0	 6.666667e+00	 2.000000e+00	 1.017834e+01
0	 6.666667e+00	 2.074074e+00	 1.018106e+01
0	 6.666667e+00	 2.148148e+00	 1.018371e+01
0	 6.666667e+00	 2.222222e+00	 1.018629e+01
0	 6.296296e+00	 2.222222e+00	 1.023813e+01
0	 6.296296e+00	 2.296296e+00	 1.024072e+01
0	 6.296296e+00	 2.370370e+00	 1.024309e+01
0	 6.296296e+00	 2.444444e+00	 1.024527e+01
0	 6.296296e+00	 2.518519e+00	 1.024727e+01
0	 6.296296e+00	 2.592593e+00	 1.024909e+01
0	 6.370370e+00	 2.222222e+00	 1.022743e+01
0	 6.370370e+00	 2.296296e+00	 1.022999e+01
0	 6.370370e+00	 2.370370e+00	 1.023236e+01
0	 6.370370e+00	 2.444444e+00	 1.023454e+01
0	 6.370370e+00	 2.518519e+00	 1.023655e+01
0	 6.370370e+00	 2.592593e+00	 1.023841e+01
0	 6.444444e+00	 2.222222e+00	 1.021691e+01
0	 6.444444e+00	 2.296296e+00	 1.021945e+01
0	 6.444444e+00	 2.370370e+00	 1.022181e+01
0	 6.444444e+00	 2.444444e+00	 1.022399e+01
0	 6.444444e+00	 2.518519e+00	 1.022602e+01
0	 6.444444e+00	 2.592593e+00	 1.022789e+01
0	 6.518519e+00	 2.222222e+00	 1.020656e+01
0	 6.518519e+00	 2.296296e+00	 1.020908e+01
0	 6.518519e+00	 2.370370e+00	 1.021143e+01
0	 6.518519e+00	 2.444444e+00	 1.021361e+01
0	 6.518519e+00	 2.518519e+00	 1.021564e+01
0	 6.518519e+00	 2.592593e+00	 1.021753e+01
0	 6.592593e+00	 2.222222e+00	 1.019636e+01
0	 6.592593e+00	 2.296296e+00	 1.019886e+01
0	 6.592593e+00	 2.370370e+00	 1.020119e+01
0	 6.592593e+00	 2.444444e+00	 1.020337e+01
0	 6.592593e+00	 2.518519e+00	 1.020541e+01
0	 6.592593e+00	 2.592593e+00	 1.020731e+01
0	 6.666667e+00	 2.222222e+00	 1.018629e+01
0	 6.666667e+00	 2.296296e+00	 1.018877e+01
0	 6.666667e+00	 2.370370e+00	 1.019109e+01
0	 6.666667e+00	 2.444444e+00	 1.019326e+01
0	 6.666667e+00	 2.518519e+00	 1.019530e+01
0	 6.666667e+00	 2.592593e+00	 1.019722e+01
0	 6.296296e+00	 2.592593e+00	 1.024909e+01
0	 6.296296e+00	 2.666667e+00	 1.025071e+01
0	 6.296296e+00	 2.740741e+00	 1.025210e+01
0	 6.296296e+00	 2.814815e+00	 1.025326e+01
0	 6.296296e+00	 2.888889e+00	 1.025419e+01
0	 6.296296e+00	 2.962963e+00	 1.025491e+01
0	 6.370370e+00	 2.592593e+00	 1.023841e+01
0	 6.370370e+00	 2.666667e+00	 1.024007e+01
0	 6.370370e+00	 2.740741e+00	 1.024150e+01
0	 6.370370e+00	 2.814815e+00	 1.024272e+01
0	 6.370370e+00	 2.888889e+00	 1.024373e+01
0	 6.370370e+00	 2.962963e+00	 1.024454e+01
0	 6.444444e+00	 2.592593e+00	 1.022789e+01
0	 6.444444e+00	 2.666667e+00	 1.022958e+01
0	 6.444444e+00	 2.740741e+00	 1.023107e+01
0	 6.444444e+00	 2.814815e+00	 1.023234e+01
0	 6.444444e+00	 2.888889e+00	 1.023342e+01
0	 6.444444e+00	 2.962963e+00	 1.023430e+01
0	 6.518519e+00	 2.592593e+00	 1.021753e+01
0	 6.518519e+00	 2.666667e+00	 1.021925e+01
0	 6.518519e+00	 2.740741e+00	 1.022077e+01
0	 6.518519e+00	 2.814815e+00	 1.022210e+01
0	 6.518519e+00	 2.888889e+00	 1.022324e+01
0	 6.518519e+00	 2.962963e+00	 1.022420e+01
0	 6.592593e+00	 2.592593e+00	 1.020731e+01
0	 6.592593e+00	 2.666667e+00	 1.020906e+01
0	 6.592593e+00	 2.740741e+00	 1.021062e+01
0	 6.592593e+00	 2.814815e+00	 1.021199e+01
0	 6.592593e+00	 2.888889e+00	 1.021319e+01
0	 6.592593e+00	 2.962963e+00	 1.021422e+01
0	 6.666667e+00	 2.592593e+00	 1.019722e+01
0	 6.666667e+00	 2.666667e+00	 1.019899e+01
0	 6.666667e+00	 2.740741e+00	 1.020058e+01
0	 6.666667e+00	 2.814815e+00	 1.020200e+01
0	 6.666667e+00	 2.888889e+00	 1.020325e+01
0	 6.666667e+00	 2.962963e+00	 1.020435e+01
0	 6.296296e+00	 2.962963e+00	 1.025491e+01
0	 6.296296e+00	 3.037037e+00	 1.025542e+01
0	 6.296296e+00	 3.111111e+00	 1.025569e+01
0	 6.296296e+00	 3.185185e+00	 1.025574e+01
0	 6.296296e+00	 3.259259e+00	 1.025556e+01
0	 6.296296e+00	 3.333333e+00	 1.025516e+01
0	 6.370370e+00	 2.962963e+00	 1.024454e+01
0	 6.370370e+00	 3.037037e+00	 1.024514e+01
0	 6.370370e+00	 3.111111e+00	 1.024552e+01
0	 6.370370e+00	 3.185185e+00	 1.024568e+01
0	 6.370370e+00	 3.259259e+00	 1.024563e+01
0	 6.370370e+00	 3.333333e+00	 1.024537e+01
0	 6.444444e+00	 2.962963e+00	 1.023430e+01
0	 6.444444e+00	 3.037037e+00	 1.023499e+01
0	 6.444444e+00	 3.111111e+00	 1.023547e+01
0	 6.444444e+00	 3.185185e+00	 1.023574e+01
0	 6.444444e+00	 3.259259e+00	 1.023581e+01
0	 6.444444e+00	 3.333333e+00	 1.023567e+01
0	 6.518519e+00	 2.962963e+00	 1.022420e+01
0	 6.518519e+00	 3.037037e+00	 1.022497e+01
0	 6.518519e+00	 3.111111e+00	 1.022554e+01
0	 6.518519e+00	 3.185185e+00	 1.022592e+01
0	 6.518519e+00	 3.259259e+00	 1.022609e+01
0	 6.518519e+00	 3.333333e+00	 1.022607e+01
0	 6.592593e+00	 2.962963e+00	 1.021422e+01
0	 6.592593e+00	 3.037037e+00	 1.021507e+01
0	 6.592593e+00	 3.111111e+00	 1.021573e+01
0	 6.592593e+00	 3.185185e+00	 1.021620e+01
0	 6.592593e+00	 3.259259e+00	 1.021647e+01
0	 6.592593e+00	 3.333333e+00	 1.021657e+01
0	 6.666667e+00	 2.962963e+00	 1.020435e+01
0	 6.666667e+00	 3.037037e+00	 1.020527e+01
0	 6.666667e+00	 3.111111e+00	 1.020601e+01
0	 6.666667e+00	 3.185185e+00	 1.020657e+01
0	 6.666667e+00	 3.259259e+00	 1.020695e+01
0	 6.666667e+00	 3.333333e+00	 1.020715e+01
0	 6.296296e+00	 3.333333e+00	 1.025516e+01
0	 6.296296e+00	 3.407407e+00	 1.025455e+01
0	 6.296296e+00	 3.481481e+00	 1.025373e+01
0	 6.296296e+00	 3.555556e+00	 1.025271e+01
0	 6.296296e+00	 3.629630e+00	 1.025147e+01
0	 6.296296e+00	 3.703704e+00	 1.025002e+01
0	 6.370370e+00	 3.333333e+00	 1.024537e+01
0	 6.370370e+00	 3.407407e+00	 1.024490e+01
0	 6.370370e+00	 3.481481e+00	 1.024423e+01
0	 6.370370e+00	 3.555556e+00	 1.024336e+01
0	 6.370370e+00	 3.629630e+00	 1.024229e+01
0	 6.370370e+00	 3.703704e+00	 1.024100e+01
0	 6.444444e+00	 3.333333e+00	 1.023567e+01
0	 6.444444e+00	 3.407407e+00	 1.023534e+01
0	 6.444444e+00	 3.481481e+00	 1.023481e+01
0	 6.444444e+00	 3.555556e+00	 1.023409e+01
0	 6.444444e+00	 3.629630e+00	 1.023317e+01
0	 6.444444e+00	 3.703704e+00	 1.023205e+01
0	 6.518519e+00	 3.333333e+00	 1.022607e+01
0	 6.518519e+00	 3.407407e+00	 1.022587e+01
0	 6.518519e+00	 3.481481e+00	 1.022547e+01
0	 6.518519e+00	 3.555556e+00	 1.022489e+01
0	 6.518519e+00	 3.629630e+00	 1.022412e+01
0	 6.518519e+00	 3.703704e+00	 1.022316e+01
0	 6.592593e+00	 3.333333e+00	 1.021657e+01
0	 6.592593e+00	 3.407407e+00	 1.021648e+01
0	 6.592593e+00	 3.481481e+00	 1.021621e+01
0	 6.592593e+00	 3.555556e+00	 1.021576e+01
0	 6.592593e+00	 3.629630e+00	 1.021513e+01
0	 6.592593e+00	 3.703704e+00	 1.021432e+01
0	 6.666667e+00	 3.333333e+00	 1.020715e+01
0	 6.666667e+00	 3.407407e+00	 1.020717e+01
0	 6.666667e+00	 3.481481e+00	 1.020703e+01
0	 6.666667e+00	 3.555556e+00	 1.020670e+01
0	 6.666667e+00	 3.629630e+00	 1.020621e+01
0	 6.666667e+00	 3.703704e+00	 1.020554e+01
0	 6.296296e+00	 3.703704e+00	 1.025002e+01
0	 6.296296e+00	 3.777778e+00	 1.024837e+01
0	 6.296296e+00	 3.851852e+00	 1.024656e+01
0	 6.296296e+00	 3.925926e+00	 1.024458e+01
0	 6.296296e+00	 4.000000e+00	 1.024241e+01
0	 6.296296e+00	 4.074074e+00	 1.024006e+01
0	 6.370370e+00	 3.703704e+00	 1.024100e+01
0	 6.370370e+00	 3.777778e+00	 1.023954e+01
0	 6.370370e+00	 3.851852e+00	 1.023791e+01
0	 6.370370e+00	 3.925926e+00	 1.023611e+01
0	 6.370370e+00	 4.000000e+00	 1.023413e+01
0	 6.370370e+00	 4.074074e+00	 1.023198e+01
0	 6.444444e+00	 3.703704e+00	 1.023205e+01
0	 6.444444e+00	 3.777778e+00	 1.023075e+01
0	 6.444444e+00	 3.851852e+00	 1.022930e+01
0	 6.444444e+00	 3.925926e+00	 1.022767e+01
0	 6.444444e+00	 4.000000e+00	 1.022587e+01
0	 6.444444e+00	 4.074074e+00	 1.022391e+01
0	 6.518519e+00	 3.703704e+00	 1.022316e+01
0	 6.518519e+00	 3.777778e+00	 1.022202e+01
0	 6.518519e+00	 3.851852e+00	 1.022073e+01
0	 6.518519e+00	 3.925926e+00	 1.021927e+01
0	 6.518519e+00	 4.000000e+00	 1.021764e+01
0	 6.518519e+00	 4.074074e+00	 1.021585e+01
0	 6.592593e+00	 3.703704e+00	 1.021432e+01
0	 6.592593e+00	 3.777778e+00	 1.021334e+01
0	 6.592593e+00	 3.851852e+00	 1.021220e+01
0	 6.592593e+00	 3.925926e+00	 1.021090e+01
0	 6.592593e+00	 4.000000e+00	 1.020945e+01
0	 6.592593e+00	 4.074074e+00	 1.020782e+01
0	 6.666667e+00	 3.703704e+00	 1.020554e+01
0	 6.666667e+00	 3.777778e+00	 1.020470e+01
0	 6.666667e+00	 3.851852e+00	 1.020372e+01
0	 6.666667e+00	 3.925926e+00	 1.020258e+01
0	 6.666667e+00	 4.000000e+00	 1.020128e+01
0	 6.666667e+00	 4.074074e+00	 1.019982e+01
0	 6.296296e+00	 4.074074e+00	 1.024006e+01
0	 6.296296e+00	 4.148148e+00	 1.023756e+01
0	 6.296296e+00	 4.222222e+00	 1.023493e+01
0	 6.296296e+00	 4.296296e+00	 1.023215e+01
0	 6.296296e+00	 4.370370e+00	 1.022924e+01
0	 6.296296e+00	 4.444444e+00	 1.022617e+01
0	 6.370370e+00	 4.074074e+00	 1.023198e+01
0	 6.370370e+00	 4.148148e+00	 1.022967e+01
0	 6.370370e+00	 4.222222e+00	 1.022723e+01
0	 6.370370e+00	 4.296296e+00	 1.022466e+01
0	 6.370370e+00	 4.370370e+00	 1.022194e+01
0	 6.370370e+00	 4.444444e+00	 1.021908e+01
0	 6.444444e+00	 4.074074e+00	 1.022391e+01
0	 6.444444e+00	 4.148148e+00	 1.022179e+01
0	 6.444444e+00	 4.222222e+00	 1.021953e+01
0	 6.444444e+00	 4.296296e+00	 1.021715e+01
0	 6.444444e+00	 4.370370e+00	 1.021462e+01
0	 6.444444e+00	 4.444444e+00	 1.021195e+01
0	 6.518519e+00	 4.074074e+00	 1.021585e+01
0	 6.518519e+00	 4.148148e+00	 1.021391e+01
0	 6.518519e+00	 4.222222e+00	 1.021184e+01
0	 6.518519e+00	 4.296296e+00	 1.020964e+01
0	 6.518519e+00	 4.370370e+00	 1.020730e+01
0	 6.518519e+00	 4.444444e+00	 1.020482e+01
0	 6.592593e+00	 4.074074e+00	 1.020782e+01
0	 6.592593e+00	 4.148148e+00	 1.020605e+01
0	 6.592593e+00	 4.222222e+00	 1.020416e+01
0	 6.592593e+00	 4.296296e+00	 1.020213e+01
0	 6.592593e+00	 4.370370e+00	 1.019997e+01
0	 6.592593e+00	 4.444444e+00	 1.019767e+01
0	 6.666667e+00	 4.074074e+00	 1.019982e+01
0	 6.666667e+00	 4.148148e+00	 1.019822e+01
0	 6.666667e+00	 4.222222e+00	 1.019649e+01
0	 6.666667e+00	 4.296296e+00	 1.019463e+01
0	 6.666667e+00	 4.370370e+00	 1.019265e+01
0	 6.666667e+00	 4.444444e+00	 1.019053e+01
0	 6.296296e+00	 4.444444e+00	 1.022617e+01
0	 6.296296e+00	 4.518519e+00	 1.022299e+01
0	 6.296296e+00	 4.592593e+00	 1.021972e+01
0	 6.296296e+00	 4.666667e+00	 1.021635e+01
0	 6.296296e+00	 4.740741e+00	 1.021287e+01
0	 6.296296e+00	 4.814815e+00	 1.020929e+01
0	 6.370370e+00	 4.444444e+00	 1.021908e+01
0	 6.370370e+00	 4.518519e+00	 1.021609e+01
0	 6.370370e+00	 4.592593e+00	 1.021302e+01
0	 6.370370e+00	 4.666667e+00	 1.020985e+01
0	 6.370370e+00	 4.740741e+00	 1.020657e+01
0	 6.370370e+00	 4.814815e+00	 1.020319e+01
0	 6.444444e+00	 4.444444e+00	 1.021195e+01
0	 6.444444e+00	 4.518519e+00	 1.020917e+01
0	 6.444444e+00	 4.592593e+00	 1.020628e+01
0	 6.444444e+00	 4.666667e+00	 1.020331e+01
0	 6.444444e+00	 4.740741e+00	 1.020023e+01
0	 6.444444e+00	 4.814815e+00	 1.019703e+01
0	 6.518519e+00	 4.444444e+00	 1.020482e+01
0	 6.518519e+00	 4.518519e+00	 1.020222e+01
0	 6.518519e+00	 4.592593e+00	 1.019952e+01
0	 6.518519e+00	 4.666667e+00	 1.019673e+01
0	 6.518519e+00	 4.740741e+00	 1.019384e+01
0	 6.518519e+00	 4.814815e+00	 1.019083e+01
0	 6.592593e+00	 4.444444e+00	 1.019767e+01
0	 6.592593e+00	 4.518519e+00	 1.019525e+01
0	 6.592593e+00	 4.592593e+00	 1.019275e+01
0	 6.592593e+00	 4.666667e+00	 1.019014e+01
0	 6.592593e+00	 4.740741e+00	 1.018742e+01
0	 6.592593e+00	 4.814815e+00	 1.018460e+01
0	 6.666667e+00	 4.444444e+00	 1.019053e+01
0	 6.666667e+00	 4.518519e+00	 1.018829e+01
0	 6.666667e+00	 4.592593e+00	 1.018596e+01
0	 6.666667e+00	 4.666667e+00	 1.018352e+01
0	 6.666667e+00	 4.740741e+00	 1.018099e+01
0	 6.666667e+00	 4.814815e+00	 1.017834e+01
0	 6.296296e+00	 4.814815e+00	 1.020929e+01
0	 6.296296e+00	 4.888889e+00	 1.020563e+01
0	 6.296296e+00	 4.962963e+00	 1.020191e+01
0	 6.296296e+00	 5.037037e+00	 1.019814e+01
0	 6.296296e+00	 5.111111e+00	 1.019429e+01
0	 6.296296e+00	 5.185185e+00	 1.019037e+01
0	 6.370370e+00	 4.814815e+00	 1.020319e+01
0	 6.370370e+00	 4.888889e+00	 1.019973e+01
0	 6.370370e+00	 4.962963e+00	 1.019620e+01
0	 6.370370e+00	 5.037037e+00	 1.019261e+01
0	 6.370370e+00	 5.111111e+00	 1.018896e+01
0	 6.370370e+00	 5.185185e+00	 1.018522e+01
0	 6.444444e+00	 4.814815e+00	 1.019703e+01
0	 6.444444e+00	 4.888889e+00	 1.019376e+01
0	 6.444444e+00	 4.962963e+00	 1.019042e+01
0	 6.444444e+00	 5.037037e+00	 1.018702e+01
0	 6.444444e+00	 5.111111e+00	 1.018355e+01
0	 6.444444e+00	 5.185185e+00	 1.018000e+01
0	 6.518519e+00	 4.814815e+00	 1.019083e+01
0	 6.518519e+00	 4.888889e+00	 1.018774e+01
0	 6.518519e+00	 4.962963e+00	 1.018459e+01
0	 6.518519e+00	 5.037037e+00	 1.018137e+01
0	 6.518519e+00	 5.111111e+00	 1.017808e+01
0	 6.518519e+00	 5.185185e+00	 1.017471e+01
0	 6.592593e+00	 4.814815e+00	 1.018460e+01
0	 6.592593e+00	 4.888889e+00	 1.018169e+01
0	 6.592593e+00	 4.962963e+00	 1.017872e+01
0	 6.592593e+00	 5.037037e+00	 1.017568e+01
0	 6.592593e+00	 5.111111e+00	 1.017256e+01
0	 6.592593e+00	 5.185185e+00	 1.016937e+01
0	 6.666667e+00	 4.814815e+00	 1.017834e+01
0	 6.666667e+00	 4.888889e+00	 1.017561e+01
0	 6.666667e+00	 4.962963e+00	 1.017281e+01
0	 6.666667e+00	 5.037037e+00	 1.016995e+01
0	 6.666667e+00	 5.111111e+00	 1.016700e+01
0	 6.666667e+00	 5.185185e+00	 1.016398e+01
0	 6.296296e+00	 5.185185e+00	 1.019037e+01
0	 6.296296e+00	 5.259259e+00	 1.018641e+01
0	 6.296296e+00	 5.333333e+00	 1.018242e+01
0	 6.296296e+00	 5.407407e+00	 1.017840e+01
0	 6.296296e+00	 5.481481e+00	 1.017435e+01
0	 6.296296e+00	 5.555556e+00	 1.017026e+01
0	 6.370370e+00	 5.185185e+00	 1.018522e+01
0	 6.370370e+00	 5.259259e+00	 1.018144e+01
0	 6.370370e+00	 5.333333e+00	 1.017763e+01
0	 6.370370e+00	 5.407407e+00	 1.017379e+01
0	 6.370370e+00	 5.481481e+00	 1.016991e+01
0	 6.370370e+00	 5.555556e+00	 1.016599e+01
0	 6.444444e+00	 5.185185e+00	 1.018000e+01
0	 6.444444e+00	 5.259259e+00	 1.017639e+01
0	 6.444444e+00	 5.333333e+00	 1.017276e+01
0	 6.444444e+00	 5.407407e+00	 1.016909e+01
0	 6.444444e+00	 5.481481e+00	 1.016538e+01
0	 6.444444e+00	 5.555556e+00	 1.016163e+01
0	 6.518519e+00	 5.185185e+00	 1.017471e+01
0	 6.518519e+00	 5.259259e+00	 1.017128e+01
0	 6.518519e+00	 5.333333e+00	 1.016782e+01
0	 6.518519e+00	 5.407407e+00	 1.016432e+01
0	 6.518519e+00	 5.481481e+00	 1.016078e+01
0	 6.518519e+00	 5.555556e+00	 1.015719e+01
0	 6.592593e+00	 5.185185e+00	 1.016937e+01
0	 6.592593e+00	 5.259259e+00	 1.016611e+01
0	 6.592593e+00	 5.333333e+00	 1.016283e+01
0	 6.592593e+00	 5.407407e+00	 1.015950e+01
0	 6.592593e+00	 5.481481e+00	 1.015612e+01
0	 6.592593e+00	 5.555556e+00	 1.015269e+01
0	 6.666667e+00	 5.185185e+00	 1.016398e+01
0	 6.666667e+00	 5.259259e+00	 1.016090e+01
0	 6.666667e+00	 5.333333e+00	 1.015778e+01
0	 6.666667e+00	 5.407407e+00	 1.015462e+01
0	 6.666667e+00	 5.481481e+00	 1.015141e+01
0	 6.666667e+00	 5.555556e+00	 1.014814e+01
0	 6.296296e+00	 5.555556e+00	 1.017026e+01
0	 6.296296e+00	 5.629630e+00	 1.016615e+01
0	 6.296296e+00	 5.703704e+00	 1.016204e+01
0	 6.296296e+00	 5.777778e+00	 1.015793e+01
0	 6.296296e+00	 5.851852e+00	 1.015380e+01
0	 6.296296e+00	 5.925926e+00	 1.014967e+01
0	 6.370370e+00	 5.555556e+00	 1.016599e+01
0	 6.370370e+00	 5.629630e+00	 1.016204e+01
0	 6.370370e+00	 5.703704e+00	 1.015809e+01
0	 6.370370e+00	 5.777778e+00	 1.015414e+01
0	 6.370370e+00	 5.851852e+00	 1.015017e+01
0	 6.370370e+00	 5.925926e+00	 1.014618e+01
0	 6.444444e+00	 5.555556e+00	 1.016163e+01
0	 6.444444e+00	 5.629630e+00	 1.015785e+01
0	 6.444444e+00	 5.703704e+00	 1.015406e+01
0	 6.444444e+00	 5.777778e+00	 1.015026e+01
0	 6.444444e+00	 5.851852e+00	 1.014644e+01
0	 6.444444e+00	 5.925926e+00	 1.014261e+01
0	 6.518519e+00	 5.555556e+00	 1.015719e+01
0	 6.518519e+00	 5.629630e+00	 1.015357e+01
0	 6.518519e+00	 5.703704e+00	 1.014994e+01
0	 6.518519e+00	 5.777778e+00	 1.014630e+01
0	 6.518519e+00	 5.851852e+00	 1.014263e+01
0	 6.518519e+00	 5.925926e+00	 1.013895e+01
0	 6.592593e+00	 5.555556e+00	 1.015269e+01
0	 6.592593e+00	 5.629630e+00	 1.014923e+01
0	 6.592593e+00	 5.703704e+00	 1.014576e+01
0	 6.592593e+00	 5.777778e+00	 1.014227e+01
0	 6.592593e+00	 5.851852e+00	 1.013876e+01
0	 6.592593e+00	 5.925926e+00	 1.013522e+01
0	 6.666667e+00	 5.555556e+00	 1.014814e+01
0	 6.666667e+00	 5.629630e+00	 1.014484e+01
0	 6.666667e+00	 5.703704e+00	 1.014152e+01
0	 6.666667e+00	 5.777778e+00	 1.013818e+01
0	 6.666667e+00	 5.851852e+00	 1.013482e+01
0	 6.666667e+00	 5.925926e+00	 1.013143e+01
0	 6.296296e+00	 5.925926e+00	 1.014967e+01
0	 6.296296e+00	 6.000000e+00	 1.014554e+01
0	 6.296296e+00	 6.074074e+00	 1.014143e+01
0	 6.296296e+00	 6.148148e+00	 1.013733e+01
0	 6.296296e+00	 6.222222e+00	 1.013325e+01
0	 6.296296e+00	 6.296296e+00	 1.012918e+01
0	 6.370370e+00	 5.925926e+00	 1.014618e+01
0	 6.370370e+00	 6.000000e+00	 1.014220e+01
0	 6.370370e+00	 6.074074e+00	 1.013823e+01
0	 6.370370e+00	 6.148148e+00	 1.013427e+01
0	 6.370370e+00	 6.222222e+00	 1.013033e+01
0	 6.370370e+00	 6.296296e+00	 1.012638e+01
0	 6.444444e+00	 5.925926e+00	 1.014261e+01
0	 6.444444e+00	 6.000000e+00	 1.013877e+01
0	 6.444444e+00	 6.074074e+00	 1.013494e+01
0	 6.444444e+00	 6.148148e+00	 1.013112e+01
0	 6.444444e+00	 6.222222e+00	 1.012731e+01
0	 6.444444e+00	 6.296296e+00	 1.012349e+01
0	 6.518519e+00	 5.925926e+00	 1.013895e+01
0	 6.518519e+00	 6.000000e+00	 1.013525e+01
0	 6.518519e+00	 6.074074e+00	 1.013156e+01
0	 6.518519e+00	 6.148148e+00	 1.012788e+01
0	 6.518519e+00	 6.222222e+00	 1.012420e+01
0	 6.518519e+00	 6.296296e+00	 1.012052e+01
0	 6.592593e+00	 5.925926e+00	 1.013522e+01
0	 6.592593e+00	 6.000000e+00	 1.013166e+01
0	 6.592593e+00	 6.074074e+00	 1.012812e+01
0	 6.592593e+00	 6.148148e+00	 1.012458e+01
0	 6.592593e+00	 6.222222e+00	 1.012103e+01
0	 6.592593e+00	 6.296296e+00	 1.011748e+01
0	 6.666667e+00	 5.925926e+00	 1.013143e+01
0	 6.666667e+00	 6.000000e+00	 1.012802e+01
0	 6.666667e+00	 6.074074e+00	 1.012462e+01
0	 6.666667e+00	 6.148148e+00	 1.012121e+01
0	 6.666667e+00	 6.222222e+00	 1.011780e+01
0	 6.666667e+00	 6.296296e+00	 1.011437e+01
0	 6.296296e+00	 6.296296e+00	 1.012918e+01
0	 6.296296e+00	 6.370370e+00	 1.012513e+01
0	 6.296296e+00	 6.444444e+00	 1.012111e+01
0	 6.296296e+00	 6.518519e+00	 1.011713e+01
0	 6.296296e+00	 6.592593e+00	 1.011317e+01
0	 6.296296e+00	 6.666667e+00	 1.010924e+01
0	 6.370370e+00	 6.296296e+00	 1.012638e+01
0	 6.370370e+00	 6.370370e+00	 1.012246e+01
0	 6.370370e+00	 6.444444e+00	 1.011856e+01
0	 6.370370e+00	 6.518519e+00	 1.011469e+01
0	 6.370370e+00	 6.592593e+00	 1.011085e+01
0	 6.370370e+00	 6.666667e+00	 1.010703e+01
0	 6.444444e+00	 6.296296e+00	 1.012349e+01
0	 6.444444e+00	 6.370370e+00	 1.011969e+01
0	 6.444444e+00	 6.444444e+00	 1.011592e+01
0	 6.444444e+00	 6.518519e+00	 1.011217e+01
0	 6.444444e+00	 6.592593e+00	 1.010844e+01
0	 6.444444e+00	 6.666667e+00	 1.010473e+01
0	 6.518519e+00	 6.296296e+00	 1.012052e+01
0	 6.518519e+00	 6.370370e+00	 1.011685e+01
0	 6.518519e+00	 6.444444e+00	 1.011320e+01
0	 6.518519e+00	 6.518519e+00	 1.010957e+01
0	 6.518519e+00	 6.592593e+00	 1.010596e+01
0	 6.518519e+00	 6.666667e+00	 1.010236e+01
0	 6.592593e+00	 6.296296e+00	 1.011748e+01
0	 6.592593e+00	 6.370370e+00	 1.011393e+01
0	 6.592593e+00	 6.444444e+00	 1.011041e+01
0	 6.592593e+00	 6.518519e+00	 1.010690e+01
0	 6.592593e+00	 6.592593e+00	 1.010340e+01
0	 6.592593e+00	 6.666667e+00	 1.009992e+01
0	 6.666667e+00	 6.296296e+00	 1.011437e+01
0	 6.666667e+00	 6.370370e+00	 1.011096e+01
0	 6.666667e+00	 6.444444e+00	 1.010755e+01
0	 6.666667e+00	 6.518519e+00	 1.010417e+01
0	 6.666667e+00	 6.592593e+00	 1.010079e+01
0	 6.666667e+00	 6.666667e+00	 1.009742e+01
0	 6.296296e+00	 6.666667e+00	 1.010924e+01
0	 6.296296e+00	 6.740741e+00	 1.010534e+01
0	 6.296296e+00	 6.814815e+00	 1.010149e+01
0	 6.296296e+00	 6.888889e+00	 1.009768e+01
0	 6.296296e+00	 6.962963e+00	 1.009391e+01
0	 6.296296e+00	 7.037037e+00	 1.009018e+01
0	 6.370370e+00	 6.666667e+00	 1.010703e+01
0	 6.370370e+00	 6.740741e+00	 1.010324e+01
0	 6.370370e+00	 6.814815e+00	 1.009949e+01
0	 6.370370e+00	 6.888889e+00	 1.009578e+01
0	 6.370370e+00	 6.962963e+00	 1.009210e+01
0	 6.370370e+00	 7.037037e+00	 1.008846e+01
0	 6.444444e+00	 6.666667e+00	 1.010473e+01
0	 6.444444e+00	 6.740741e+00	 1.010105e+01
0	 6.444444e+00	 6.814815e+00	 1.009740e+01
0	 6.444444e+00	 6.888889e+00	 1.009380e+01
0	 6.444444e+00	 6.962963e+00	 1.009022e+01
0	 6.444444e+00	 7.037037e+00	 1.008667e+01
0	 6.518519e+00	 6.666667e+00	 1.010236e+01
0	 6.518519e+00	 6.740741e+00	 1.009878e+01
0	 6.518519e+00	 6.814815e+00	 1.009525e+01
0	 6.518519e+00	 6.888889e+00	 1.009174e+01
0	 6.518519e+00	 6.962963e+00	 1.008826e+01
0	 6.518519e+00	 7.037037e+00	 1.008481e+01
0	 6.592593e+00	 6.666667e+00	 1.009992e+01
0	 6.592593e+00	 6.740741e+00	 1.009645e+01
0	 6.592593e+00	 6.814815e+00	 1.009302e+01
0	 6.592593e+00	 6.888889e+00	 1.008962e+01
0	 6.592593e+00	 6.962963e+00	 1.008625e+01
0	 6.592593e+00	 7.037037e+00	 1.008289e+01
0	 6.666667e+00	 6.666667e+00	 1.009742e+01
0	 6.666667e+00	 6.740741e+00	 1.009407e+01
0	 6.666667e+00	 6.814815e+00	 1.009074e+01
0	 6.666667e+00	 6.888889e+00	 1.008745e+01
0	 6.666667e+00	 6.962963e+00	 1.008417e+01
0	 6.666667e+00	 7.037037e+00	 1.008092e+01
0	 6.296296e+00	 7.037037e+00	 1.009018e+01
0	 6.296296e+00	 7.111111e+00	 1.008649e+01
0	 6.296296e+00	 7.185185e+00	 1.008286e+01
0	 6.296296e+00	 7.259259e+00	 1.007928e+01
0	 6.296296e+00	 7.333333e+00	 1.007575e+01
0	 6.296296e+00	 7.407407e+00	 1.007226e+01
0	 6.370370e+00	 7.037037e+00	 1.008846e+01
0	 6.370370e+00	 7.111111e+00	 1.008487e+01
0	 6.370370e+00	 7.185185e+00	 1.008132e+01
0	 6.370370e+00	 7.259259e+00	 1.007782e+01
0	 6.370370e+00	 7.333333e+00	 1.007437e+01
0	 6.370370e+00	 7.407407e+00	 1.007096e+01
0	 6.444444e+00	 7.037037e+00	 1.008667e+01
0	 6.444444e+00	 7.111111e+00	 1.008317e+01
0	 6.444444e+00	 7.185185e+00	 1.007971e+01
0	 6.444444e+00	 7.259259e+00	 1.007630e+01
0	 6.444444e+00	 7.333333e+00	 1.007293e+01
0	 6.444444e+00	 7.407407e+00	 1.006959e+01
0	 6.518519e+00	 7.037037e+00	 1.008481e+01
0	 6.518519e+00	 7.111111e+00	 1.008140e+01
0	 6.518519e+00	 7.185185e+00	 1.007803e+01
0	 6.518519e+00	 7.259259e+00	 1.007470e+01
0	 6.518519e+00	 7.333333e+00	 1.007142e+01
0	 6.518519e+00	 7.407407e+00	 1.006817e+01
0	 6.592593e+00	 7.037037e+00	 1.008289e+01
0	 6.592593e+00	 7.111111e+00	 1.007957e+01
0	 6.592593e+00	 7.185185e+00	 1.007630e+01
0	 6.592593e+00	 7.259259e+00	 1.007306e+01
0	 6.592593e+00	 7.333333e+00	 1.006986e+01
0	 6.592593e+00	 7.407407e+00	 1.006669e+01
0	 6.666667e+00	 7.037037e+00	 1.008092e+01
0	 6.666667e+00	 7.111111e+00	 1.007770e+01
0	 6.666667e+00	 7.185185e+00	 1.007451e+01
0	 6.666667e+00	 7.259259e+00	 1.007136e+01
0	 6.666667e+00	 7.333333e+00	 1.006825e+01
0	 6.666667e+00	 7.407407e+00	 1.006517e+01
0	 6.296296e+00	 7.407407e+00	 1.007226e+01
0	 6.296296e+00	 7.481481e+00	 1.006883e+01
0	 6.296296e+00	 7.555556e+00	 1.006546e+01
0	 6.296296e+00	 7.629630e+00	 1.006216e+01
0	 6.296296e+00	 7.703704e+00	 1.005891e+01
0	 6.296296e+00	 7.777778e+00	 1.005571e+01
0	 6.370370e+00	 7.407407e+00	 1.007096e+01
0	 6.370370e+00	 7.481481e+00	 1.006760e+01
0	 6.370370e+00	 7.555556e+00	 1.006431e+01
0	 6.370370e+00	 7.629630e+00	 1.006107e+01
0	 6.370370e+00	 7.703704e+00	 1.005788e+01
0	 6.370370e+00	 7.777778e+00	 1.005475e+01
0	 6.444444e+00	 7.407407e+00	 1.006959e+01
0	 6.444444e+00	 7.481481e+00	 1.006631e+01
0	 6.444444e+00	 7.555556e+00	 1.006309e+01
0	 6.444444e+00	 7.629630e+00	 1.005992e+01
0	 6.444444e+00	 7.703704e+00	 1.005680e+01
0	 6.444444e+00	 7.777778e+00	 1.005373e+01
0	 6.518519e+00	 7.407407e+00	 1.006817e+01
0	 6.518519e+00	 7.481481e+00	 1.006496e+01
0	 6.518519e+00	 7.555556e+00	 1.006182e+01
0	 6.518519e+00	 7.629630e+00	 1.005872e+01
0	 6.518519e+00	 7.703704e+00	 1.005567e+01
0	 6.518519e+00	 7.777778e+00	 1.005267e+01
0	 6.592593e+00	 7.407407e+00	 1.006669e+01
0	 6.592593e+00	 7.481481e+00	 1.006357e+01
0	 6.592593e+00	 7.555556e+00	 1.006050e+01
0	 6.592593e+00	 7.629630e+00	 1.005748e+01
0	 6.592593e+00	 7.703704e+00	 1.005450e+01
0	 6.592593e+00	 7.777778e+00	 1.005157e+01
0	 6.666667e+00	 7.407407e+00	 1.006517e+01
0	 6.666667e+00	 7.481481e+00	 1.006213e+01
0	 6.666667e+00	 7.555556e+00	 1.005914e+01
0	 6.666667e+00	 7.629630e+00	 1.005619e+01
0	 6.666667e+00	 7.703704e+00	 1.005329e+01
0	 6.666667e+00	 7.777778e+00	 1.005043e+01
0	 6.296296e+00	 7.777778e+00	 1.005571e+01
0	 6.296296e+00	 7.851852e+00	 1.005257e+01
0	 6.296296e+00	 7.925926e+00	 1.004951e+01
0	 6.296296e+00	 8.000000e+00	 1.004651e+01
0	 6.296296e+00	 8.074074e+00	 1.004358e+01
0	 6.296296e+00	 8.148148e+00	 1.004072e+01
0	 6.370370e+00	 7.777778e+00	 1.005475e+01
0	 6.370370e+00	 7.851852e+00	 1.005167e+01
0	 6.370370e+00	 7.925926e+00	 1.004867e+01
0	 6.370370e+00	 8.000000e+00	 1.004573e+01
0	 6.370370e+00	 8.074074e+00	 1.004285e+01
0	 6.370370e+00	 8.148148e+00	 1.004003e+01
0	 6.444444e+00	 7.777778e+00	 1.005373e+01
0	 6.444444e+00	 7.851852e+00	 1.005072e+01
0	 6.444444e+00	 7.925926e+00	 1.004778e+01
0	 6.444444e+00	 8.000000e+00	 1.004489e+01
0	 6.444444e+00	 8.074074e+00	 1.004207e+01
0	 6.444444e+00	 8.148148e+00	 1.003931e+01
0	 6.518519e+00	 7.777778e+00	 1.005267e+01
0	 6.518519e+00	 7.851852e+00	 1.004972e+01
0	 6.518519e+00	 7.925926e+00	 1.004684e+01
0	 6.518519e+00	 8.000000e+00	 1.004402e+01
0	 6.518519e+00	 8.074074e+00	 1.004126e+01
0	 6.518519e+00	 8.148148e+00	 1.003855e+01
0	 6.592593e+00	 7.777778e+00	 1.005157e+01
0	 6.592593e+00	 7.851852e+00	 1.004869e+01
0	 6.592593e+00	 7.925926e+00	 1.004587e+01
0	 6.592593e+00	 8.000000e+00	 1.004312e+01
0	 6.592593e+00	 8.074074e+00	 1.004042e+01
0	 6.592593e+00	 8.148148e+00	 1.003777e+01
0	 6.666667e+00	 7.777778e+00	 1.005043e+01
0	 6.666667e+00	 7.851852e+00	 1.004762e+01
0	 6.666667e+00	 7.925926e+00	 1.004487e+01
0	 6.666667e+00	 8.000000e+00	 1.004218e+01
0	 6.666667e+00	 8.074074e+00	 1.003954e+01
0	 6.666667e+00	 8.148148e+00	 1.003695e+01
0	 6.296296e+00	 8.148148e+00	 1.004072e+01
0	 6.296296e+00	 8.222222e+00	 1.003792e+01
0	 6.296296e+00	 8.296296e+00	 1.003520e+01
0	 6.296296e+00	 8.370370e+00	 1.003257e+01
0	 6.296296e+00	 8.444444e+00	 1.003001e+01
0	 6.296296e+00	 8.518519e+00	 1.002752e+01
0	 6.370370e+00	 8.148148e+00	 1.004003e+01
0	 6.370370e+00	 8.222222e+00	 1.003729e+01
0	 6.370370e+00	 8.296296e+00	 1.003462e+01
0	 6.370370e+00	 8.370370e+00	 1.003203e+01
0	 6.370370e+00	 8.444444e+00	 1.002951e+01
0	 6.370370e+00	 8.518519e+00	 1.002706e+01
0	 6.444444e+00	 8.148148e+00	 1.003931e+01
0	 6.444444e+00	 8.222222e+00	 1.003662e+01
0	 6.444444e+00	 8.296296e+00	 1.003400e+01
0	 6.444444e+00	 8.370370e+00	 1.003146e+01
0	 6.444444e+00	 8.444444e+00	 1.002899e+01
0	 6.444444e+00	 8.518519e+00	 1.002658e+01
0	 6.518519e+00	 8.148148e+00	 1.003855e+01
0	 6.518519e+00	 8.222222e+00	 1.003591e+01
0	 6.518519e+00	 8.296296e+00	 1.003335e+01
0	 6.518519e+00	 8.370370e+00	 1.003086e+01
0	 6.518519e+00	 8.444444e+00	 1.002843e+01
0	 6.518519e+00	 8.518519e+00	 1.002608e+01
0	 6.592593e+00	 8.148148e+00	 1.003777e+01
0	 6.592593e+00	 8.222222e+00	 1.003518e+01
0	 6.592593e+00	 8.296296e+00	 1.003267e+01
0	 6.592593e+00	 8.370370e+00	 1.003023e+01
0	 6.592593e+00	 8.444444e+00	 1.002786e+01
0	 6.592593e+00	 8.518519e+00	 1.002555e+01
0	 6.666667e+00	 8.148148e+00	 1.003695e+01
0	 6.666667e+00	 8.222222e+00	 1.003443e+01
0	 6.666667e+00	 8.296296e+00	 1.003197e+01
0	 6.666667e+00	 8.370370e+00	 1.002959e+01
0	 6.666667e+00	 8.444444e+00	 1.002727e+01
0	 6.666667e+00	 8.518519e+00	 1.002501e+01
0	 6.296296e+00	 8.518519e+00	 1.002752e+01
0	 6.296296e+00	 8.592593e+00	 1.002511e+01
0	 6.296296e+00	 8.666667e+00	 1.002280e+01
0	 6.296296e+00	 8.740741e+00	 1.002058e+01
0	 6.296296e+00	 8.814815e+00	 1.001845e+01
0	 6.296296e+00	 8.888889e+00	 1.001641e+01
0	 6.370370e+00	 8.518519e+00	 1.002706e+01
0	 6.370370e+00	 8.592593e+00	 1.002470e+01
0	 6.370370e+00	 8.666667e+00	 1.002243e+01
0	 6.370370e+00	 8.740741e+00	 1.002024e+01
0	 6.370370e+00	 8.814815e+00	 1.001815e+01
0	 6.370370e+00	 8.888889e+00	 1.001613e+01
0	 6.444444e+00	 8.518519e+00	 1.002658e+01
0	 6.444444e+00	 8.592593e+00	 1.002426e+01
0	 6.444444e+00	 8.666667e+00	 1.002203e+01
0	 6.444444e+00	 8.740741e+00	 1.001988e+01
0	 6.444444e+00	 8.814815e+00	 1.001783e+01
0	 6.444444e+00	 8.888889e+00	 1.001585e+01
0	 6.518519e+00	 8.518519e+00	 1.002608e+01
0	 6.518519e+00	 8.592593e+00	 1.002380e+01
0	 6.518519e+00	 8.666667e+00	 1.002161e+01
0	 6.518519e+00	 8.740741e+00	 1.001951e+01
0	 6.518519e+00	 8.814815e+00	 1.001749e+01
0	 6.518519e+00	 8.888889e+00	 1.001554e+01
0	 6.592593e+00	 8.518519e+00	 1.002555e+01
0	 6.592593e+00	 8.592593e+00	 1.002332e+01
0	 6.592593e+00	 8.666667e+00	 1.002117e+01
0	 6.592593e+00	 8.740741e+00	 1.001911e+01
0	 6.592593e+00	 8.814815e+00	 1.001713e+01
0	 6.592593e+00	 8.888889e+00	 1.001523e+01
0	 6.666667e+00	 8.518519e+00	 1.002501e+01
0	 6.666667e+00	 8.592593e+00	 1.002282e+01
0	 6.666667e+00	 8.666667e+00	 1.002072e+01
0	 6.666667e+00	 8.740741e+00	 1.001871e+01
0	 6.666667e+00	 8.814815e+00	 1.001677e+01
0	 6.666667e+00	 8.888889e+00	 1.001491e+01
0	 6.296296e+00	 8.888889e+00	 1.001641e+01
0	 6.296296e+00	 8.962963e+00	 1.001446e+01
0	 6.296296e+00	 9.037037e+00	 1.001262e+01
0	 6.296296e+00	 9.111111e+00	 1.001090e+01
0	 6.296296e+00	 9.185185e+00	 1.000928e+01
0	 6.296296e+00	 9.259259e+00	 1.000775e+01
0	 6.370370e+00	 8.888889e+00	 1.001613e+01
0	 6.370370e+00	 8.962963e+00	 1.001422e+01
0	 6.370370e+00	 9.037037e+00	 1.001241e+01
0	 6.370370e+00	 9.111111e+00	 1.001072e+01
0	 6.370370e+00	 9.185185e+00	 1.000912e+01
0	 6.370370e+00	 9.259259e+00	 1.000762e+01
0	 6.444444e+00	 8.888889e+00	 1.001585e+01
0	 6.444444e+00	 8.962963e+00	 1.001396e+01
0	 6.444444e+00	 9.037037e+00	 1.001219e+01
0	 6.444444e+00	 9.111111e+00	 1.001052e+01
0	 6.444444e+00	 9.185185e+00	 1.000896e+01
0	 6.444444e+00	 9.259259e+00	 1.000749e+01
0	 6.518519e+00	 8.888889e+00	 1.001554e+01
0	 6.518519e+00	 8.962963e+00	 1.001370e+01
0	 6.518519e+00	 9.037037e+00	 1.001196e+01
0	 6.518519e+00	 9.111111e+00	 1.001032e+01
0	 6.518519e+00	 9.185185e+00	 1.000878e+01
0	 6.518519e+00	 9.259259e+00	 1.000734e+01
0	 6.592593e+00	 8.888889e+00	 1.001523e+01
0	 6.592593e+00	 8.962963e+00	 1.001342e+01
0	 6.592593e+00	 9.037037e+00	 1.001171e+01
0	 6.592593e+00	 9.111111e+00	 1.001011e+01
0	 6.592593e+00	 9.185185e+00	 1.000860e+01
0	 6.592593e+00	 9.259259e+00	 1.000719e+01
0	 6.666667e+00	 8.888889e+00	 1.001491e+01
0	 6.666667e+00	 8.962963e+00	 1.001313e+01
0	 6.666667e+00	 9.037037e+00	 1.001146e+01
0	 6.666667e+00	 9.111111e+00	 1.000989e+01
0	 6.666667e+00	 9.185185e+00	 1.000842e+01
0	 6.666667e+00	 9.259259e+00	 1.000703e+01
0	 6.296296e+00	 9.259259e+00	 1.000775e+01
0	 6.296296e+00	 9.333333e+00	 1.000635e+01
0	 6.296296e+00	 9.407407e+00	 1.000509e+01
0	 6.296296e+00	 9.481481e+00	 1.000396e+01
0	 6.296296e+00	 9.555556e+00	 1.000295e+01
0	 6.296296e+00	 9.629630e+00	 1.000207e+01
0	 6.370370e+00	 9.259259e+00	 1.000762e+01
0	 6.370370e+00	 9.333333e+00	 1.000624e+01
0	 6.370370e+00	 9.407407e+00	 1.000500e+01
0	 6.370370e+00	 9.481481e+00	 1.000389e+01
0	 6.370370e+00	 9.555556e+00	 1.000290e+01
0	 6.370370e+00	 9.629630e+00	 1.000204e+01
0	 6.444444e+00	 9.259259e+00	 1.000749e+01
0	 6.444444e+00	 9.333333e+00	 1.000613e+01
0	 6.444444e+00	 9.407407e+00	 1.000491e+01
0	 6.444444e+00	 9.481481e+00	 1.000382e+01
0	 6.444444e+00	 9.555556e+00	 1.000285e+01
0	 6.444444e+00	 9.629630e+00	 1.000200e+01
0	 6.518519e+00	 9.259259e+00	 1.000734e+01
0	 6.518519e+00	 9.333333e+00	 1.000601e+01
0	 6.518519e+00	 9.407407e+00	 1.000481e+01
0	 6.518519e+00	 9.481481e+00	 1.000374e+01
0	 6.518519e+00	 9.555556e+00	 1.000279e+01
0	 6.518519e+00	 9.629630e+00	 1.000196e+01
0	 6.592593e+00	 9.259259e+00	 1.000719e+01
0	 6.592593e+00	 9.333333e+00	 1.000588e+01
0	 6.592593e+00	 9.407407e+00	 1.000471e+01
0	 6.592593e+00	 9.481481e+00	 1.000366e+01
0	 6.592593e+00	 9.555556e+00	 1.000273e+01
0	 6.592593e+00	 9.629630e+00	 1.000191e+01
0	 6.666667e+00	 9.259259e+00	 1.000703e+01
0	 6.666667e+00	 9.333333e+00	 1.000576e+01
0	 6.666667e+00	 9.407407e+00	 1.000461e+01
0	 6.666667e+00	 9.481481e+00	 1.000358e+01
0	 6.666667e+00	 9.555556e+00	 1.000267e+01
0	 6.666667e+00	 9.629630e+00	 1.000187e+01
0	 6.296296e+00	 9.629630e+00	 1.000207e+01
0	 6.296296e+00	 9.703704e+00	 1.000133e+01
0	 6.296296e+00	 9.777778e+00	 1.000076e+01
0	 6.296296e+00	 9.851852e+00	 1.000035e+01
0	 6.296296e+00	 9.925926e+00	 1.000009e+01
0	 6.296296e+00	 1.000000e+01	 9.999981e+00
0	 6.370370e+00	 9.629630e+00	 1.000204e+01
0	 6.370370e+00	 9.703704e+00	 1.000131e+01
0	 6.370370e+00	 9.777778e+00	 1.000075e+01
0	 6.370370e+00	 9.851852e+00	 1.000035e+01
0	 6.370370e+00	 9.925926e+00	 1.000009e+01
0	 6.370370e+00	 1.000000e+01	 9.999983e+00
0	 6.444444e+00	 9.629630e+00	 1.000200e+01
0	 6.444444e+00	 9.703704e+00	 1.000128e+01
0	 6.444444e+00	 9.777778e+00	 1.000073e+01
0	 6.444444e+00	 9.851852e+00	 1.000034e+01
0	 6.444444e+00	 9.925926e+00	 1.000009e+01
0	 6.444444e+00	 1.000000e+01	 9.999982e+00
0	 6.518519e+00	 9.629630e+00	 1.000196e+01
0	 6.518519e+00	 9.703704e+00	 1.000126e+01
0	 6.518519e+00	 9.777778e+00	 1.000072e+01
0	 6.518519e+00	 9.851852e+00	 1.000033e+01
0	 6.518519e+00	 9.925926e+00	 1.000009e+01
0	 6.518519e+00	 1.000000e+01	 9.999981e+00
0	 6.592593e+00	 9.629630e+00	 1.000191e+01
0	 6.592593e+00	 9.703704e+00	 1.000123e+01
0	 6.592593e+00	 9.777778e+00	 1.000070e+01
0	 6.592593e+00	 9.851852e+00	 1.000032e+01
0	 6.592593e+00	 9.925926e+00	 1.000008e+01
0	 6.592593e+00	 1.000000e+01	 9.999981e+00
0	 6.666667e+00	 9.629630e+00	 1.000187e+01
0	 6.666667e+00	 9.703704e+00	 1.000120e+01
0	 6.666667e+00	 9.777778e+00	 1.000069e+01
0	 6.666667e+00	 9.851852e+00	 1.000032e+01
0	 6.666667e+00	 9.925926e+00	 1.000008e+01
0	 6.666667e+00	 1.000000e+01	 9.999984e+00
0	 6.666667e+00	 0.000000e+00	 1.012033e+01
0	 6.666667e+00	 7.407407e-02	 1.012043e+01
0	 6.666667e+00	 1.481481e-01	 1.012076e+01
0	 6.666667e+00	 2.222222e-01	 1.012131e+01
0	 6.666667e+00	 2.962963e-01	 1.012209e+01
0	 6.666667e+00	 3.703704e-01	 1.012312e+01
0	 6.740741e+00	 0.000000e+00	 1.011236e+01
0	 6.740741e+00	 7.407407e-02	 1.011244e+01
0	 6.740741e+00	 1.481481e-01	 1.011275e+01
0	 6.740741e+00	 2.222222e-01	 1.011328e+01
0	 6.740741e+00	 2.962963e-01	 1.011403e+01
0	 6.740741e+00	 3.703704e-01	 1.011502e+01
0	 6.814815e+00	 0.000000e+00	 1.010439e+01
0	 6.814815e+00	 7.407407e-02	 1.010447e+01
0	 6.814815e+00	 1.481481e-01	 1.010476e+01
0	 6.814815e+00	 2.222222e-01	 1.010527e+01
0	 6.814815e+00	 2.962963e-01	 1.010600e+01
0	 6.814815e+00	 3.703704e-01	 1.010695e+01
0	 6.888889e+00	 0.000000e+00	 1.009641e+01
0	 6.888889e+00	 7.407407e-02	 1.009649e+01
0	 6.888889e+00	 1.481481e-01	 1.009678e+01
0	 6.888889e+00	 2.222222e-01	 1.009728e+01
0	 6.888889e+00	 2.962963e-01	 1.009798e+01
0	 6.888889e+00	 3.703704e-01	 1.009889e+01
0	 6.962963e+00	 0.000000e+00	 1.008843e+01
0	 6.962963e+00	 7.407407e-02	 1.008853e+01
0	 6.962963e+00	 1.481481e-01	 1.008881e+01
0	 6.962963e+00	 2.222222e-01	 1.008929e+01
0	 6.962963e+00	 2.962963e-01	 1.008997e+01
0	 6.962963e+00	 3.703704e-01	 1.009084e+01
0	 7.037037e+00	 0.000000e+00	 1.008045e+01
0	 7.037037e+00	 7.407407e-02	 1.008055e+01
0	 7.037037e+00	 1.481481e-01	 1.008084e+01
0	 7.037037e+00	 2.222222e-01	 1.008130e+01
0	 7.037037e+00	 2.962963e-01	 1.008195e+01
0	 7.037037e+00	 3.703704e-01	 1.008278e+01
0	 6.666667e+00	 3.703704e-01	 1.012312e+01
0	 6.666667e+00	 4.444444e-01	 1.012435e+01
0	 6.666667e+00	 5.185185e-01	 1.012576e+01
0	 6.666667e+00	 5.925926e-01	 1.012735e+01
0	 6.666667e+00	 6.666667e-01	 1.012913e+01
0	 6.666667e+00	 7.407407e-01	 1.013112e+01
0	 6.740741e+00	 3.703704e-01	 1.011502e+01
0	 6.740741e+00	 4.444444e-01	 1.011621e+01
0	 6.740741e+00	 5.185185e-01	 1.011756e+01
0	 6.740741e+00	 5.925926e-01	 1.011909e+01
0	 6.740741e+00	 6.666667e-01	 1.012081e+01
0	 6.740741e+00	 7.407407e-01	 1.012272e+01
0	 6.814815e+00	 3.703704e-01	 1.010695e+01
0	 6.814815e+00	 4.444444e-01	 1.010809e+01
0	 6.814815e+00	 5.185185e-01	 1.010939e+01
0	 6.814815e+00	 5.925926e-01	 1.011086e+01
0	 6.814815e+00	 6.666667e-01	 1.011251e+01
0	 6.814815e+00	 7.407407e-01	 1.011435e+01
0	 6.888889e+00	 3.703704e-01	 1.009889e+01
0	 6.888889e+00	 4.444444e-01	 1.009998e+01
0	 6.888889e+00	 5.185185e-01	 1.010123e+01
0	 6.888889e+00	 5.925926e-01	 1.010265e+01
0	 6.888889e+00	 6.666667e-01	 1.010424e+01
0	 6.888889e+00	 7.407407e-01	 1.010602e+01
0	 6.962963e+00	 3.703704e-01	 1.009084e+01
0	 6.962963e+00	 4.444444e-01	 1.009188e+01
0	 6.962963e+00	 5.185185e-01	 1.009308e+01
0	 6.962963e+00	 5.925926e-01	 1.009445e+01
0	 6.962963e+00	 6.666667e-01	 1.009599e+01
0	 6.962963e+00	 7.407407e-01	 1.009771e+01
0	 7.037037e+00	 3.703704e-01	 1.008278e+01
0	 7.037037e+00	 4.444444e-01	 1.008379e+01
0	 7.037037e+00	 5.185185e-01	 1.008494e+01
0	 7.037037e+00	 5.925926e-01	 1.008626e+01
0	 7.037037e+00	 6.666667e-01	 1.008775e+01
0	 7.037037e+00	 7.407407e-01	 1.008942e+01
0	 6.666667e+00	 7.407407e-01	 1.013112e+01
0	 6.666667e+00	 8.148148e-01	 1.013327e+01
0	 6.666667e+00	 8.888889e-01	 1.013553e+01
0	 6.666667e+00	 9.629630e-01	 1.013792e+01
0	 6.666667e+00	 1.037037e+00	 1.014046e+01
0	 6.666667e+00	 1.111111e+00	 1.014316e+01
0	 6.740741e+00	 7.407407e-01	 1.012272e+01
0	 6.740741e+00	 8.148148e-01	 1.012478e+01
0	 6.740741e+00	 8.888889e-01	 1.012696e+01
0	 6.740741e+00	 9.629630e-01	 1.012926e+01
0	 6.740741e+00	 1.037037e+00	 1.013171e+01
0	 6.740741e+00	 1.111111e+00	 1.013432e+01
0	 6.814815e+00	 7.407407e-01	 1.011435e+01
0	 6.814815e+00	 8.148148e-01	 1.011634e+01
0	 6.814815e+00	 8.888889e-01	 1.011844e+01
0	 6.814815e+00	 9.629630e-01	 1.012067e+01
0	 6.814815e+00	 1.037037e+00	 1.012303e+01
0	 6.814815e+00	 1.111111e+00	 1.012555e+01
0	 6.888889e+00	 7.407407e-01	 1.010602e+01
0	 6.888889e+00	 8.148148e-01	 1.010794e+01
0	 6.888889e+00	 8.888889e-01	 1.010997e+01
0	 6.888889e+00	 9.629630e-01	 1.011213e+01
0	 6.888889e+00	 1.037037e+00	 1.011441e+01
0	 6.888889e+00	 1.111111e+00	 1.011684e+01
0	 6.962963e+00	 7.407407e-01	 1.009771e+01
0	 6.962963e+00	 8.148148e-01	 1.009957e+01
0	 6.962963e+00	 8.888889e-01	 1.010154e+01
0	 6.962963e+00	 9.629630e-01	 1.010362e+01
0	 6.962963e+00	 1.037037e+00	 1.010583e+01
0	 6.962963e+00	 1.111111e+00	 1.010818e+01
0	 7.037037e+00	 7.407407e-01	 1.008942e+01
0	 7.037037e+00	 8.148148e-01	 1.009122e+01
0	 7.037037e+00	 8.888889e-01	 1.009313e+01
0	 7.037037e+00	 9.629630e-01	 1.009515e+01
0	 7.037037e+00	 1.037037e+00	 1.009729e+01
0	 7.037037e+00	 1.111111e+00	 1.009956e+01
0	 6.666667e+00	 1.111111e+00	 1.014316e+01
0	 6.666667e+00	 1.185185e+00	 1.014595e+01
0	 6.666667e+00	 1.259259e+00	 1.014878e+01
0	 6.666667e+00	 1.333333e+00	 1.015166e+01
0	 6.666667e+00	 1.407407e+00	 1.015460e+01
0	 6.666667e+00	 1.481481e+00	 1.015763e+01
0	 6.740741e+00	 1.111111e+00	 1.013432e+01
0	 6.740741e+00	 1.185185e+00	 1.013701e+01
0	 6.740741e+00	 1.259259e+00	 1.013975e+01
0	 6.740741e+00	 1.333333e+00	 1.014253e+01
0	 6.740741e+00	 1.407407e+00	 1.014538e+01
0	 6.740741e+00	 1.481481e+00	 1.014832e+01
0	 6.814815e+00	 1.111111e+00	 1.012555e+01
0	 6.814815e+00	 1.185185e+00	 1.012815e+01
0	 6.814815e+00	 1.259259e+00	 1.013080e+01
0	 6.814815e+00	 1.333333e+00	 1.013349e+01
0	 6.814815e+00	 1.407407e+00	 1.013626e+01
0	 6.814815e+00	 1.481481e+00	 1.013911e+01
0	 6.888889e+00	 1.111111e+00	 1.011684e+01
0	 6.888889e+00	 1.185185e+00	 1.011936e+01
0	 6.888889e+00	 1.259259e+00	 1.012192e+01
0	 6.888889e+00	 1.333333e+00	 1.012453e+01
0	 6.888889e+00	 1.407407e+00	 1.012722e+01
0	 6.888889e+00	 1.481481e+00	 1.012998e+01
0	 6.962963e+00	 1.111111e+00	 1.010818e+01
0	 6.962963e+00	 1.185185e+00	 1.011062e+01
0	 6.962963e+00	 1.259259e+00	 1.011310e+01
0	 6.962963e+00	 1.333333e+00	 1.011564e+01
0	 6.962963e+00	 1.407407e+00	 1.011824e+01
0	 6.962963e+00	 1.481481e+00	 1.012093e+01
0	 7.037037e+00	 1.111111e+00	 1.009956e+01
0	 7.037037e+00	 1.185185e+00	 1.010192e+01
0	 7.037037e+00	 1.259259e+00	 1.010433e+01
0	 7.037037e+00	 1.333333e+00	 1.010679e+01
0	 7.037037e+00	 1.407407e+00	 1.010933e+01
0	 7.037037e+00	 1.481481e+00	 1.011195e+01
0	 6.666667e+00	 1.481481e+00	 1.015763e+01
0	 6.666667e+00	 1.555556e+00	 1.016067e+01
0	 6.666667e+00	 1.629630e+00	 1.016368e+01
0	 6.666667e+00	 1.703704e+00	 1.016666e+01
0	 6.666667e+00	 1.777778e+00	 1.016962e+01
0	 6.666667e+00	 1.851852e+00	 1.017260e+01
0	 6.740741e+00	 1.481481e+00	 1.014832e+01
0	 6.740741e+00	 1.555556e+00	 1.015128e+01
0	 6.740741e+00	 1.629630e+00	 1.015420e+01
0	 6.740741e+00	 1.703704e+00	 1.015710e+01
0	 6.740741e+00	 1.777778e+00	 1.015999e+01
0	 6.740741e+00	 1.851852e+00	 1.016290e+01
0	 6.814815e+00	 1.481481e+00	 1.013911e+01
0	 6.814815e+00	 1.555556e+00	 1.014198e+01
0	 6.814815e+00	 1.629630e+00	 1.014483e+01
0	 6.814815e+00	 1.703704e+00	 1.014766e+01
0	 6.814815e+00	 1.777778e+00	 1.015048e+01
0	 6.814815e+00	 1.851852e+00	 1.015332e+01
0	 6.888889e+00	 1.481481e+00	 1.012998e+01
0	 6.888889e+00	 1.555556e+00	 1.013278e+01
0	 6.888889e+00	 1.629630e+00	 1.013555e+01
0	 6.888889e+00	 1.703704e+00	 1.013831e+01
0	 6.888889e+00	 1.777778e+00	 1.014107e+01
0	 6.888889e+00	 1.851852e+00	 1.014385e+01
0	 6.962963e+00	 1.481481e+00	 1.012093e+01
0	 6.962963e+00	 1.555556e+00	 1.012365e+01
0	 6.962963e+00	 1.629630e+00	 1.012636e+01
0	 6.962963e+00	 1.703704e+00	 1.012905e+01
0	 6.962963e+00	 1.777778e+00	 1.013175e+01
0	 6.962963e+00	 1.851852e+00	 1.013447e+01
0	 7.037037e+00	 1.481481e+00	 1.011195e+01
0	 7.037037e+00	 1.555556e+00	 1.011460e+01
0	 7.037037e+00	 1.629630e+00	 1.011723e+01
0	 7.037037e+00	 1.703704e+00	 1.011987e+01
0	 7.037037e+00	 1.777778e+00	 1.012251e+01
0	 7.037037e+00	 1.851852e+00	 1.012518e+01
0	 6.666667e+00	 1.851852e+00	 1.017260e+01
0	 6.666667e+00	 1.925926e+00	 1.017552e+01
0	 6.666667e+00	 2.000000e+00	 1.017834e+01
0	 6.666667e+00	 2.074074e+00	 1.018106e+01
0	 6.666667e+00	 2.148148e+00	 1.018371e+01
0	 6.666667e+00	 2.222222e+00	 1.018629e+01
0	 6.740741e+00	 1.851852e+00	 1.016290e+01
0	 6.740741e+00	 1.925926e+00	 1.016576e+01
0	 6.740741e+00	 2.000000e+00	 1.016852e+01
0	 6.740741e+00	 2.074074e+00	 1.017120e+01
0	 6.740741e+00	 2.148148e+00	 1.017380e+01
0	 6.740741e+00	 2.222222e+00	 1.017636e+01
0	 6.814815e+00	 1.851852e+00	 1.015332e+01
0	 6.814815e+00	 1.925926e+00	 1.015612e+01
0	 6.814815e+00	 2.000000e+00	 1.015883e+01
0	 6.814815e+00	 2.074074e+00	 1.016146e+01
0	 6.814815e+00	 2.148148e+00	 1.016403e+01
0	 6.814815e+00	 2.222222e+00	 1.016655e+01
0	 6.888889e+00	 1.851852e+00	 1.014385e+01
0	 6.888889e+00	 1.925926e+00	 1.014659e+01
0	 6.888889e+00	 2.000000e+00	 1.014926e+01
0	 6.888889e+00	 2.074074e+00	 1.015185e+01
0	 6.888889e+00	 2.148148e+00	 1.015438e+01
0	 6.888889e+00	 2.222222e+00	 1.015687e+01
0	 6.962963e+00	 1.851852e+00	 1.013447e+01
0	 6.962963e+00	 1.925926e+00	 1.013716e+01
0	 6.962963e+00	 2.000000e+00	 1.013978e+01
0	 6.962963e+00	 2.074074e+00	 1.014233e+01
0	 6.962963e+00	 2.148148e+00	 1.014483e+01
0	 6.962963e+00	 2.222222e+00	 1.014729e+01
0	 7.037037e+00	 1.851852e+00	 1.012518e+01
0	 7.037037e+00	 1.925926e+00	 1.012782e+01
0	 7.037037e+00	 2.000000e+00	 1.013039e+01
0	 7.037037e+00	 2.074074e+00	 1.013291e+01
0	 7.037037e+00	 2.148148e+00	 1.013538e+01
0	 7.037037e+00	 2.222222e+00	 1.013781e+01
0	 6.666667e+00	 2.222222e+00	 1.018629e+01
0	 6.666667e+00	 2.296296e+00	 1.018877e+01
0	 6.666667e+00	 2.370370e+00	 1.019109e+01
0	 6.666667e+00	 2.444444e+00	 1.019326e+01
0	 6.666667e+00	 2.518519e+00	 1.019530e+01
0	 6.666667e+00	 2.592593e+00	 1.019722e+01
0	 6.740741e+00	 2.222222e+00	 1.017636e+01
0	 6.740741e+00	 2.296296e+00	 1.017881e+01
0	 6.740741e+00	 2.370370e+00	 1.018111e+01
0	 6.740741e+00	 2.444444e+00	 1.018328e+01
0	 6.740741e+00	 2.518519e+00	 1.018533e+01
0	 6.740741e+00	 2.592593e+00	 1.018726e+01
0	 6.814815e+00	 2.222222e+00	 1.016655e+01
0	 6.814815e+00	 2.296296e+00	 1.016898e+01
0	 6.814815e+00	 2.370370e+00	 1.017127e+01
0	 6.814815e+00	 2.444444e+00	 1.017344e+01
0	 6.814815e+00	 2.518519e+00	 1.017549e+01
0	 6.814815e+00	 2.592593e+00	 1.017743e+01
0	 6.888889e+00	 2.222222e+00	 1.015687e+01
0	 6.888889e+00	 2.296296e+00	 1.015928e+01
0	 6.888889e+00	 2.370370e+00	 1.016155e+01
0	 6.888889e+00	 2.444444e+00	 1.016371e+01
0	 6.888889e+00	 2.518519e+00	 1.016577e+01
0	 6.888889e+00	 2.592593e+00	 1.016772e+01
0	 6.962963e+00	 2.222222e+00	 1.014729e+01
0	 6.962963e+00	 2.296296e+00	 1.014968e+01
0	 6.962963e+00	 2.370370e+00	 1.015194e+01
0	 6.962963e+00	 2.444444e+00	 1.015410e+01
0	 6.962963e+00	 2.518519e+00	 1.015616e+01
0	 6.962963e+00	 2.592593e+00	 1.015812e+01
0	 7.037037e+00	 2.222222e+00	 1.013781e+01
0	 7.037037e+00	 2.296296e+00	 1.014017e+01
0	 7.037037e+00	 2.370370e+00	 1.014243e+01
0	 7.037037e+00	 2.444444e+00	 1.014458e+01
0	 7.037037e+00	 2.518519e+00	 1.014664e+01
0	 7.037037e+00	 2.592593e+00	 1.014862e+01
0	 6.666667e+00	 2.592593e+00	 1.019722e+01
0	 6.666667e+00	 2.666667e+00	 1.019899e+01
0	 6.666667e+00	 2.740741e+00	 1.020058e+01
0	 6.666667e+00	 2.814815e+00	 1.020200e+01
0	 6.666667e+00	 2.888889e+00	 1.020325e+01
0	 6.666667e+00	 2.962963e+00	 1.020435e+01
0	 6.740741e+00	 2.592593e+00	 1.018726e+01
0	 6.740741e+00	 2.666667e+00	 1.018905e+01
0	 6.740741e+00	 2.740741e+00	 1.019067e+01
0	 6.740741e+00	 2.814815e+00	 1.019213e+01
0	 6.740741e+00	 2.888889e+00	 1.019344e+01
0	 6.740741e+00	 2.962963e+00	 1.019460e+01
0	 6.814815e+00	 2.592593e+00	 1.017743e+01
0	 6.814815e+00	 2.666667e+00	 1.017924e+01
0	 6.814815e+00	 2.740741e+00	 1.018090e+01
0	 6.814815e+00	 2.814815e+00	 1.018240e+01
0	 6.814815e+00	 2.888889e+00	 1.018375e+01
0	 6.814815e+00	 2.962963e+00	 1.018496e+01
0	 6.888889e+00	 2.592593e+00	 1.016772e+01
0	 6.888889e+00	 2.666667e+00	 1.016956e+01
0	 6.888889e+00	 2.740741e+00	 1.017124e+01
0	 6.888889e+00	 2.814815e+00	 1.017277e+01
0	 6.888889e+00	 2.888889e+00	 1.017417e+01
0	 6.888889e+00	 2.962963e+00	 1.017544e+01
0	 6.962963e+00	 2.592593e+00	 1.015812e+01
0	 6.962963e+00	 2.666667e+00	 1.015998e+01
0	 6.962963e+00	 2.740741e+00	 1.016168e+01
0	 6.962963e+00	 2.814815e+00	 1.016326e+01
0	 6.962963e+00	 2.888889e+00	 1.016470e+01
0	 6.962963e+00	 2.962963e+00	 1.016601e+01
0	 7.037037e+00	 2.592593e+00	 1.014862e+01
0	 7.037037e+00	 2.666667e+00	 1.015049e+01
0	 7.037037e+00	 2.740741e+00	 1.015223e+01
0	 7.037037e+00	 2.814815e+00	 1.015383e+01
0	 7.037037e+00	 2.888889e+00	 1.015531e+01
0	 7.037037e+00	 2.962963e+00	 1.015668e+01
0	 6.666667e+00	 2.962963e+00	 1.020435e+01
0	 6.666667e+00	 3.037037e+00	 1.020527e+01
0	 6.666667e+00	 3.111111e+00	 1.020601e+01
0	 6.666667e+00	 3.185185e+00	 1.020657e+01
0	 6.666667e+00	 3.259259e+00	 1.020695e+01
0	 6.666667e+00	 3.333333e+00	 1.020715e+01
0	 6.740741e+00	 2.962963e+00	 1.019460e+01
0	 6.740741e+00	 3.037037e+00	 1.019559e+01
0	 6.740741e+00	 3.111111e+00	 1.019641e+01
0	 6.740741e+00	 3.185185e+00	 1.019705e+01
0	 6.740741e+00	 3.259259e+00	 1.019752e+01
0	 6.740741e+00	 3.333333e+00	 1.019782e+01
0	 6.814815e+00	 2.962963e+00	 1.018496e+01
0	 6.814815e+00	 3.037037e+00	 1.018602e+01
0	 6.814815e+00	 3.111111e+00	 1.018691e+01
0	 6.814815e+00	 3.185185e+00	 1.018763e+01
0	 6.814815e+00	 3.259259e+00	 1.018819e+01
0	 6.814815e+00	 3.333333e+00	 1.018859e+01
0	 6.888889e+00	 2.962963e+00	 1.017544e+01
0	 6.888889e+00	 3.037037e+00	 1.017655e+01
0	 6.888889e+00	 3.111111e+00	 1.017751e+01
0	 6.888889e+00	 3.185185e+00	 1.017831e+01
0	 6.888889e+00	 3.259259e+00	 1.017895e+01
0	 6.888889e+00	 3.333333e+00	 1.017945e+01
0	 6.962963e+00	 2.962963e+00	 1.016601e+01
0	 6.962963e+00	 3.037037e+00	 1.016719e+01
0	 6.962963e+00	 3.111111e+00	 1.016821e+01
0	 6.962963e+00	 3.185185e+00	 1.016908e+01
0	 6.962963e+00	 3.259259e+00	 1.016981e+01
0	 6.962963e+00	 3.333333e+00	 1.017039e+01
0	 7.037037e+00	 2.962963e+00	 1.015668e+01
0	 7.037037e+00	 3.037037e+00	 1.015791e+01
0	 7.037037e+00	 3.111111e+00	 1.015900e+01
0	 7.037037e+00	 3.185185e+00	 1.015994e+01
0	 7.037037e+00	 3.259259e+00	 1.016075e+01
0	 7.037037e+00	 3.333333e+00	 1.016142e+01
0	 6.666667e+00	 3.333333e+00	 1.020715e+01
0	 6.666667e+00	 3.407407e+00	 1.020717e+01
0	 6.666667e+00	 3.481481e+00	 1.020703e+01
0	 6.666667e+00	 3.555556e+00	 1.020670e+01
0	 6.666667e+00	 3.629630e+00	 1.020621e+01
0	 6.666667e+00	 3.703704e+00	 1.020554e+01
0	 6.740741e+00	 3.333333e+00	 1.019782e+01
0	 6.740741e+00	 3.407407e+00	 1.019795e+01
0	 6.740741e+00	 3.481481e+00	 1.019792e+01
0	 6.740741e+00	 3.555556e+00	 1.019772e+01
0	 6.740741e+00	 3.629630e+00	 1.019735e+01
0	 6.740741e+00	 3.703704e+00	 1.019682e+01
0	 6.814815e+00	 3.333333e+00	 1.018859e+01
0	 6.814815e+00	 3.407407e+00	 1.018883e+01
0	 6.814815e+00	 3.481481e+00	 1.018890e+01
0	 6.814815e+00	 3.555556e+00	 1.018882e+01
0	 6.814815e+00	 3.629630e+00	 1.018858e+01
0	 6.814815e+00	 3.703704e+00	 1.018817e+01
0	 6.888889e+00	 3.333333e+00	 1.017945e+01
0	 6.888889e+00	 3.407407e+00	 1.017979e+01
0	 6.888889e+00	 3.481481e+00	 1.017997e+01
0	 6.888889e+00	 3.555556e+00	 1.018000e+01
0	 6.888889e+00	 3.629630e+00	 1.017987e+01
0	 6.888889e+00	 3.703704e+00	 1.017959e+01
0	 6.962963e+00	 3.333333e+00	 1.017039e+01
0	 6.962963e+00	 3.407407e+00	 1.017083e+01
0	 6.962963e+00	 3.481481e+00	 1.017111e+01
0	 6.962963e+00	 3.555556e+00	 1.017125e+01
0	 6.962963e+00	 3.629630e+00	 1.017124e+01
0	 6.962963e+00	 3.703704e+00	 1.017108e+01
0	 7.037037e+00	 3.333333e+00	 1.016142e+01
0	 7.037037e+00	 3.407407e+00	 1.016195e+01
0	 7.037037e+00	 3.481481e+00	 1.016233e+01
0	 7.037037e+00	 3.555556e+00	 1.016257e+01
0	 7.037037e+00	 3.629630e+00	 1.016267e+01
0	 7.037037e+00	 3.703704e+00	 1.016262e+01
0	 6.666667e+00	 3.703704e+00	 1.020554e+01
0	 6.666667e+00	 3.777778e+00	 1.020470e+01
0	 6.666667e+00	 3.851852e+00	 1.020372e+01
0	 6.666667e+00	 3.925926e+00	 1.020258e+01
0	 6.666667e+00	 4.000000e+00	 1.020128e+01
0	 6.666667e+00	 4.074074e+00	 1.019982e+01
0	 6.740741e+00	 3.703704e+00	 1.019682e+01
0	 6.740741e+00	 3.777778e+00	 1.019613e+01
0	 6.740741e+00	 3.851852e+00	 1.019529e+01
0	 6.740741e+00	 3.925926e+00	 1.019430e+01
0	 6.740741e+00	 4.000000e+00	 1.019315e+01
0	 6.740741e+00	 4.074074e+00	 1.019185e+01
0	 6.814815e+00	 3.703704e+00	 1.018817e+01
0	 6.814815e+00	 3.777778e+00	 1.018762e+01
0	 6.814815e+00	 3.851852e+00	 1.018691e+01
0	 6.814815e+00	 3.925926e+00	 1.018607e+01
0	 6.814815e+00	 4.000000e+00	 1.018507e+01
0	 6.814815e+00	 4.074074e+00	 1.018392e+01
0	 6.888889e+00	 3.703704e+00	 1.017959e+01
0	 6.888889e+00	 3.777778e+00	 1.017916e+01
0	 6.888889e+00	 3.851852e+00	 1.017860e+01
0	 6.888889e+00	 3.925926e+00	 1.017788e+01
0	 6.888889e+00	 4.000000e+00	 1.017703e+01
0	 6.888889e+00	 4.074074e+00	 1.017603e+01
0	 6.962963e+00	 3.703704e+00	 1.017108e+01
0	 6.962963e+00	 3.777778e+00	 1.017077e+01
0	 6.962963e+00	 3.851852e+00	 1.017033e+01
0	 6.962963e+00	 3.925926e+00	 1.016976e+01
0	 6.962963e+00	 4.000000e+00	 1.016904e+01
0	 6.962963e+00	 4.074074e+00	 1.016818e+01
0	 7.037037e+00	 3.703704e+00	 1.016262e+01
0	 7.037037e+00	 3.777778e+00	 1.016244e+01
0	 7.037037e+00	 3.851852e+00	 1.016213e+01
0	 7.037037e+00	 3.925926e+00	 1.016168e+01
0	 7.037037e+00	 4.000000e+00	 1.016110e+01
0	 7.037037e+00	 4.074074e+00	 1.016038e+01
0	 6.666667e+00	 4.074074e+00	 1.019982e+01
0	 6.666667e+00	 4.148148e+00	 1.019822e+01
0	 6.666667e+00	 4.222222e+00	 1.019649e+01
0	 6.666667e+00	 4.296296e+00	 1.019463e+01
0	 6.666667e+00	 4.370370e+00	 1.019265e+01
0	 6.666667e+00	 4.444444e+00	 1.019053e+01
0	 6.740741e+00	 4.074074e+00	 1.019185e+01
0	 6.740741e+00	 4.148148e+00	 1.019041e+01
0	 6.740741e+00	 4.222222e+00	 1.018884e+01
0	 6.740741e+00	 4.296296e+00	 1.018716e+01
0	 6.740741e+00	 4.370370e+00	 1.018534e+01
0	 6.740741e+00	 4.444444e+00	 1.018339e+01
0	 6.814815e+00	 4.074074e+00	 1.018392e+01
0	 6.814815e+00	 4.148148e+00	 1.018263e+01
0	 6.814815e+00	 4.222222e+00	 1.018123e+01
0	 6.814815e+00	 4.296296e+00	 1.017970e+01
0	 6.814815e+00	 4.370370e+00	 1.017804e+01
0	 6.814815e+00	 4.444444e+00	 1.017626e+01
0	 6.888889e+00	 4.074074e+00	 1.017603e+01
0	 6.888889e+00	 4.148148e+00	 1.017489e+01
0	 6.888889e+00	 4.222222e+00	 1.017364e+01
0	 6.888889e+00	 4.296296e+00	 1.017227e+01
0	 6.888889e+00	 4.370370e+00	 1.017077e+01
0	 6.888889e+00	 4.444444e+00	 1.016915e+01
0	 6.962963e+00	 4.074074e+00	 1.016818e+01
0	 6.962963e+00	 4.148148e+00	 1.016719e+01
0	 6.962963e+00	 4.222222e+00	 1.016609e+01
0	 6.962963e+00	 4.296296e+00	 1.016487e+01
0	 6.962963e+00	 4.370370e+00	 1.016352e+01
0	 6.962963e+00	 4.444444e+00	 1.016205e+01
0	 7.037037e+00	 4.074074e+00	 1.016038e+01
0	 7.037037e+00	 4.148148e+00	 1.015953e+01
0	 7.037037e+00	 4.222222e+00	 1.015857e+01
0	 7.037037e+00	 4.296296e+00	 1.015750e+01
0	 7.037037e+00	 4.370370e+00	 1.015630e+01
0	 7.037037e+00	 4.444444e+00	 1.015499e+01
0	 6.666667e+00	 4.444444e+00	 1.019053e+01
0	 6.666667e+00	 4.518519e+00	 1.018829e+01
0	 6.666667e+00	 4.592593e+00	 1.018596e+01
0	 6.666667e+00	 4.666667e+00	 1.018352e+01
0	 6.666667e+00	 4.740741e+00	 1.018099e+01
0	 6.666667e+00	 4.814815e+00	 1.017834e+01
0	 6.740741e+00	 4.444444e+00	 1.018339e+01
0	 6.740741e+00	 4.518519e+00	 1.018132e+01
0	 6.740741e+00	 4.592593e+00	 1.017916e+01
0	 6.740741e+00	 4.666667e+00	 1.017690e+01
0	 6.740741e+00	 4.740741e+00	 1.017454e+01
0	 6.740741e+00	 4.814815e+00	 1.017207e+01
0	 6.814815e+00	 4.444444e+00	 1.017626e+01
0	 6.814815e+00	 4.518519e+00	 1.017436e+01
0	 6.814815e+00	 4.592593e+00	 1.017237e+01
0	 6.814815e+00	 4.666667e+00	 1.017028e+01
0	 6.814815e+00	 4.740741e+00	 1.016808e+01
0	 6.814815e+00	 4.814815e+00	 1.016578e+01
0	 6.888889e+00	 4.444444e+00	 1.016915e+01
0	 6.888889e+00	 4.518519e+00	 1.016741e+01
0	 6.888889e+00	 4.592593e+00	 1.016558e+01
0	 6.888889e+00	 4.666667e+00	 1.016365e+01
0	 6.888889e+00	 4.740741e+00	 1.016162e+01
0	 6.888889e+00	 4.814815e+00	 1.015948e+01
0	 6.962963e+00	 4.444444e+00	 1.016205e+01
0	 6.962963e+00	 4.518519e+00	 1.016047e+01
0	 6.962963e+00	 4.592593e+00	 1.015880e+01
0	 6.962963e+00	 4.666667e+00	 1.015703e+01
0	 6.962963e+00	 4.740741e+00	 1.015516e+01
0	 6.962963e+00	 4.814815e+00	 1.015319e+01
0	 7.037037e+00	 4.444444e+00	 1.015499e+01
0	 7.037037e+00	 4.518519e+00	 1.015356e+01
0	 7.037037e+00	 4.592593e+00	 1.015204e+01
0	 7.037037e+00	 4.666667e+00	 1.015043e+01
0	 7.037037e+00	 4.740741e+00	 1.014872e+01
0	 7.037037e+00	 4.814815e+00	 1.014690e+01
0	 6.666667e+00	 4.814815e+00	 1.017834e+01
0	 6.666667e+00	 4.888889e+00	 1.017561e+01
0	 6.666667e+00	 4.962963e+00	 1.017281e+01
0	 6.666667e+00	 5.037037e+00	 1.016995e+01
0	 6.666667e+00	 5.111111e+00	 1.016700e+01
0	 6.666667e+00	 5.185185e+00	 1.016398e+01
0	 6.740741e+00	 4.814815e+00	 1.017207e+01
0	 6.740741e+00	 4.888889e+00	 1.016951e+01
0	 6.740741e+00	 4.962963e+00	 1.016688e+01
0	 6.740741e+00	 5.037037e+00	 1.016419e+01
0	 6.740741e+00	 5.111111e+00	 1.016142e+01
0	 6.740741e+00	 5.185185e+00	 1.015856e+01
0	 6.814815e+00	 4.814815e+00	 1.016578e+01
0	 6.814815e+00	 4.888889e+00	 1.016339e+01
0	 6.814815e+00	 4.962963e+00	 1.016093e+01
0	 6.814815e+00	 5.037037e+00	 1.015840e+01
0	 6.814815e+00	 5.111111e+00	 1.015580e+01
0	 6.814815e+00	 5.185185e+00	 1.015311e+01
0	 6.888889e+00	 4.814815e+00	 1.015948e+01
0	 6.888889e+00	 4.888889e+00	 1.015726e+01
0	 6.888889e+00	 4.962963e+00	 1.015497e+01
0	 6.888889e+00	 5.037037e+00	 1.015260e+01
0	 6.888889e+00	 5.111111e+00	 1.015016e+01
0	 6.888889e+00	 5.185185e+00	 1.014764e+01
0	 6.962963e+00	 4.814815e+00	 1.015319e+01
0	 6.962963e+00	 4.888889e+00	 1.015113e+01
0	 6.962963e+00	 4.962963e+00	 1.014900e+01
0	 6.962963e+00	 5.037037e+00	 1.014679e+01
0	 6.962963e+00	 5.111111e+00	 1.014451e+01
0	 6.962963e+00	 5.185185e+00	 1.014215e+01
0	 7.037037e+00	 4.814815e+00	 1.014690e+01
0	 7.037037e+00	 4.888889e+00	 1.014500e+01
0	 7.037037e+00	 4.962963e+00	 1.014303e+01
0	 7.037037e+00	 5.037037e+00	 1.014098e+01
0	 7.037037e+00	 5.111111e+00	 1.013885e+01
0	 7.037037e+00	 5.185185e+00	 1.013665e+01
0	 6.666667e+00	 5.185185e+00	 1.016398e+01
0	 6.666667e+00	 5.259259e+00	 1.016090e+01
0	 6.666667e+00	 5.333333e+00	 1.015778e+01
0	 6.666667e+00	 5.407407e+00	 1.015462e+01
0	 6.666667e+00	 5.481481e+00	 1.015141e+01
0	 6.666667e+00	 5.555556e+00	 1.014814e+01
0	 6.740741e+00	 5.185185e+00	 1.015856e+01
0	 6.740741e+00	 5.259259e+00	 1.015565e+01
0	 6.740741e+00	 5.333333e+00	 1.015270e+01
0	 6.740741e+00	 5.407407e+00	 1.014970e+01
0	 6.740741e+00	 5.481481e+00	 1.014664e+01
0	 6.740741e+00	 5.555556e+00	 1.014354e+01
0	 6.814815e+00	 5.185185e+00	 1.015311e+01
0	 6.814815e+00	 5.259259e+00	 1.015036e+01
0	 6.814815e+00	 5.333333e+00	 1.014757e+01
0	 6.814815e+00	 5.407407e+00	 1.014473e+01
0	 6.814815e+00	 5.481481e+00	 1.014184e+01
0	 6.814815e+00	 5.555556e+00	 1.013889e+01
0	 6.888889e+00	 5.185185e+00	 1.014764e+01
0	 6.888889e+00	 5.259259e+00	 1.014505e+01
0	 6.888889e+00	 5.333333e+00	 1.014242e+01
0	 6.888889e+00	 5.407407e+00	 1.013973e+01
0	 6.888889e+00	 5.481481e+00	 1.013700e+01
0	 6.888889e+00	 5.555556e+00	 1.013420e+01
0	 6.962963e+00	 5.185185e+00	 1.014215e+01
0	 6.962963e+00	 5.259259e+00	 1.013972e+01
0	 6.962963e+00	 5.333333e+00	 1.013724e+01
0	 6.962963e+00	 5.407407e+00	 1.013472e+01
0	 6.962963e+00	 5.481481e+00	 1.013213e+01
0	 6.962963e+00	 5.555556e+00	 1.012949e+01
0	 7.037037e+00	 5.185185e+00	 1.013665e+01
0	 7.037037e+00	 5.259259e+00	 1.013438e+01
0	 7.037037e+00	 5.333333e+00	 1.013206e+01
0	 7.037037e+00	 5.407407e+00	 1.012968e+01
0	 7.037037e+00	 5.481481e+00	 1.012725e+01
0	 7.037037e+00	 5.555556e+00	 1.012476e+01
0	 6.666667e+00	 5.555556e+00	 1.014814e+01
0	 6.666667e+00	 5.629630e+00	 1.014484e+01
0	 6.666667e+00	 5.703704e+00	 1.014152e+01
0	 6.666667e+00	 5.777778e+00	 1.013818e+01
0	 6.666667e+00	 5.851852e+00	 1.013482e+01
0	 6.666667e+00	 5.925926e+00	 1.013143e+01
0	 6.740741e+00	 5.555556e+00	 1.014354e+01
0	 6.740741e+00	 5.629630e+00	 1.014039e+01
0	 6.740741e+00	 5.703704e+00	 1.013723e+01
0	 6.740741e+00	 5.777778e+00	 1.013404e+01
0	 6.740741e+00	 5.851852e+00	 1.013083e+01
0	 6.740741e+00	 5.925926e+00	 1.012758e+01
0	 6.814815e+00	 5.555556e+00	 1.013889e+01
0	 6.814815e+00	 5.629630e+00	 1.013590e+01
0	 6.814815e+00	 5.703704e+00	 1.013289e+01
0	 6.814815e+00	 5.777778e+00	 1.012985e+01
0	 6.814815e+00	 5.851852e+00	 1.012678e+01
0	 6.814815e+00	 5.925926e+00	 1.012368e+01
0	 6.888889e+00	 5.555556e+00	 1.013420e+01
0	 6.888889e+00	 5.629630e+00	 1.013137e+01
0	 6.888889e+00	 5.703704e+00	 1.012851e+01
0	 6.888889e+00	 5.777778e+00	 1.012562e+01
0	 6.888889e+00	 5.851852e+00	 1.012270e+01
0	 6.888889e+00	 5.925926e+00	 1.011974e+01
0	 6.962963e+00	 5.555556e+00	 1.012949e+01
0	 6.962963e+00	 5.629630e+00	 1.012681e+01
0	 6.962963e+00	 5.703704e+00	 1.012410e+01
0	 6.962963e+00	 5.777778e+00	 1.012135e+01
0	 6.962963e+00	 5.851852e+00	 1.011858e+01
0	 6.962963e+00	 5.925926e+00	 1.011576e+01
0	 7.037037e+00	 5.555556e+00	 1.012476e+01
0	 7.037037e+00	 5.629630e+00	 1.012223e+01
0	 7.037037e+00	 5.703704e+00	 1.011966e+01
0	 7.037037e+00	 5.777778e+00	 1.011707e+01
0	 7.037037e+00	 5.851852e+00	 1.011443e+01
0	 7.037037e+00	 5.925926e+00	 1.011176e+01
0	 6.666667e+00	 5.925926e+00	 1.013143e+01
0	 6.666667e+00	 6.000000e+00	 1.012802e+01
0	 6.666667e+00	 6.074074e+00	 1.012462e+01
0	 6.666667e+00	 6.148148e+00	 1.012121e+01
0	 6.666667e+00	 6.222222e+00	 1.011780e+01
0	 6.666667e+00	 6.296296e+00	 1.011437e+01
0	 6.740741e+00	 5.925926e+00	 1.012758e+01
0	 6.740741e+00	 6.000000e+00	 1.012432e+01
0	 6.740741e+00	 6.074074e+00	 1.012105e+01
0	 6.740741e+00	 6.148148e+00	 1.011778e+01
0	 6.740741e+00	 6.222222e+00	 1.011451e+01
0	 6.740741e+00	 6.296296e+00	 1.011121e+01
0	 6.814815e+00	 5.925926e+00	 1.012368e+01
0	 6.814815e+00	 6.000000e+00	 1.012056e+01
0	 6.814815e+00	 6.074074e+00	 1.011744e+01
0	 6.814815e+00	 6.148148e+00	 1.011430e+01
0	 6.814815e+00	 6.222222e+00	 1.011116e+01
0	 6.814815e+00	 6.296296e+00	 1.010800e+01
0	 6.888889e+00	 5.925926e+00	 1.011974e+01
0	 6.888889e+00	 6.000000e+00	 1.011676e+01
0	 6.888889e+00	 6.074074e+00	 1.011377e+01
0	 6.888889e+00	 6.148148e+00	 1.011077e+01
0	 6.888889e+00	 6.222222e+00	 1.010776e+01
0	 6.888889e+00	 6.296296e+00	 1.010473e+01
0	 6.962963e+00	 5.925926e+00	 1.011576e+01
0	 6.962963e+00	 6.000000e+00	 1.011292e+01
0	 6.962963e+00	 6.074074e+00	 1.011007e+01
0	 6.962963e+00	 6.148148e+00	 1.010721e+01
0	 6.962963e+00	 6.222222e+00	 1.010433e+01
0	 6.962963e+00	 6.296296e+00	 1.010143e+01
0	 7.037037e+00	 5.925926e+00	 1.011176e+01
0	 7.037037e+00	 6.000000e+00	 1.010906e+01
0	 7.037037e+00	 6.074074e+00	 1.010634e+01
0	 7.037037e+00	 6.148148e+00	 1.010362e+01
0	 7.037037e+00	 6.222222e+00	 1.010087e+01
0	 7.037037e+00	 6.296296e+00	 1.009810e+01
0	 6.666667e+00	 6.296296e+00	 1.011437e+01
0	 6.666667e+00	 6.370370e+00	 1.011096e+01
0	 6.666667e+00	 6.444444e+00	 1.010755e+01
0	 6.666667e+00	 6.518519e+00	 1.010417e+01
0	 6.666667e+00	 6.592593e+00	 1.010079e+01
0	 6.666667e+00	 6.666667e+00	 1.009742e+01
0	 6.740741e+00	 6.296296e+00	 1.011121e+01
0	 6.740741e+00	 6.370370e+00	 1.010792e+01
0	 6.740741e+00	 6.444444e+00	 1.010465e+01
0	 6.740741e+00	 6.518519e+00	 1.010138e+01
0	 6.740741e+00	 6.592593e+00	 1.009812e+01
0	 6.740741e+00	 6.666667e+00	 1.009487e+01
0	 6.814815e+00	 6.296296e+00	 1.010800e+01
0	 6.814815e+00	 6.370370e+00	 1.010483e+01
0	 6.814815e+00	 6.444444e+00	 1.010168e+01
0	 6.814815e+00	 6.518519e+00	 1.009854e+01
0	 6.814815e+00	 6.592593e+00	 1.009540e+01
0	 6.814815e+00	 6.666667e+00	 1.009226e+01
0	 6.888889e+00	 6.296296e+00	 1.010473e+01
0	 6.888889e+00	 6.370370e+00	 1.010170e+01
0	 6.888889e+00	 6.444444e+00	 1.009867e+01
0	 6.888889e+00	 6.518519e+00	 1.009565e+01
0	 6.888889e+00	 6.592593e+00	 1.009263e+01
0	 6.888889e+00	 6.666667e+00	 1.008960e+01
0	 6.962963e+00	 6.296296e+00	 1.010143e+01
0	 6.962963e+00	 6.370370e+00	 1.009852e+01
0	 6.962963e+00	 6.444444e+00	 1.009562e+01
0	 6.962963e+00	 6.518519e+00	 1.009272e+01
0	 6.962963e+00	 6.592593e+00	 1.008982e+01
0	 6.962963e+00	 6.666667e+00	 1.008691e+01
0	 7.037037e+00	 6.296296e+00	 1.009810e+01
0	 7.037037e+00	 6.370370e+00	 1.009532e+01
0	 7.037037e+00	 6.444444e+00	 1.009254e+01
0	 7.037037e+00	 6.518519e+00	 1.008976e+01
0	 7.037037e+00	 6.592593e+00	 1.008698e+01
0	 7.037037e+00	 6.666667e+00	 1.008419e+01
0	 6.666667e+00	 6.666667e+00	 1.009742e+01
0	 6.666667e+00	 6.740741e+00	 1.009407e+01
0	 6.666667e+00	 6.814815e+00	 1.009074e+01
0	 6.666667e+00	 6.888889e+00	 1.008745e+01
0	 6.666667e+00	 6.962963e+00	 1.008417e+01
0	 6.666667e+00	 7.037037e+00	 1.008092e+01
0	 6.740741e+00	 6.666667e+00	 1.009487e+01
0	 6.740741e+00	 6.740741e+00	 1.009163e+01
0	 6.740741e+00	 6.814815e+00	 1.008841e+01
0	 6.740741e+00	 6.888889e+00	 1.008522e+01
0	 6.740741e+00	 6.962963e+00	 1.008205e+01
0	 6.740741e+00	 7.037037e+00	 1.007890e+01
0	 6.814815e+00	 6.666667e+00	 1.009226e+01
0	 6.814815e+00	 6.740741e+00	 1.008913e+01
0	 6.814815e+00	 6.814815e+00	 1.008603e+01
0	 6.814815e+00	 6.888889e+00	 1.008294e+01
0	 6.814815e+00	 6.962963e+00	 1.007988e+01
0	 6.814815e+00	 7.037037e+00	 1.007682e+01
0	 6.888889e+00	 6.666667e+00	 1.008960e+01
0	 6.888889e+00	 6.740741e+00	 1.008659e+01
0	 6.888889e+00	 6.814815e+00	 1.008359e+01
0	 6.888889e+00	 6.888889e+00	 1.008062e+01
0	 6.888889e+00	 6.962963e+00	 1.007766e+01
0	 6.888889e+00	 7.037037e+00	 1.007471e+01
0	 6.962963e+00	 6.666667e+00	 1.008691e+01
0	 6.962963e+00	 6.740741e+00	 1.008401e+01
0	 6.962963e+00	 6.814815e+00	 1.008112e+01
0	 6.962963e+00	 6.888889e+00	 1.007826e+01
0	 6.962963e+00	 6.962963e+00	 1.007540e+01
0	 6.962963e+00	 7.037037e+00	 1.007255e+01
0	 7.037037e+00	 6.666667e+00	 1.008419e+01
0	 7.037037e+00	 6.740741e+00	 1.008140e+01
0	 7.037037e+00	 6.814815e+00	 1.007863e+01
0	 7.037037e+00	 6.888889e+00	 1.007587e+01
0	 7.037037e+00	 6.962963e+00	 1.007312e+01
0	 7.037037e+00	 7.037037e+00	 1.007037e+01
0	 6.666667e+00	 7.037037e+00	 1.008092e+01
0	 6.666667e+00	 7.111111e+00	 1.007770e+01
0	 6.666667e+00	 7.185185e+00	 1.007451e+01
0	 6.666667e+00	 7.259259e+00	 1.007136e+01
0	 6.666667e+00	 7.333333e+00	 1.006825e+01
0	 6.666667e+00	 7.407407e+00	 1.006517e+01
0	 6.740741e+00	 7.037037e+00	 1.007890e+01
0	 6.740741e+00	 7.111111e+00	 1.007577e+01
0	 6.740741e+00	 7.185185e+00	 1.007268e+01
0	 6.740741e+00	 7.259259e+00	 1.006962e+01
0	 6.740741e+00	 7.333333e+00	 1.006660e+01
0	 6.740741e+00	 7.407407e+00	 1.006360e+01
0	 6.814815e+00	 7.037037e+00	 1.007682e+01
0	 6.814815e+00	 7.111111e+00	 1.007379e+01
0	 6.814815e+00	 7.185185e+00	 1.007080e+01
0	 6.814815e+00	 7.259259e+00	 1.006784e+01
0	 6.814815e+00	 7.333333e+00	 1.006490e+01
0	 6.814815e+00	 7.407407e+00	 1.006200e+01
0	 6.888889e+00	 7.037037e+00	 1.007471e+01
0	 6.888889e+00	 7.111111e+00	 1.007178e+01
0	 6.888889e+00	 7.185185e+00	 1.006888e+01
0	 6.888889e+00	 7.259259e+00	 1.006601e+01
0	 6.888889e+00	 7.333333e+00	 1.006317e+01
0	 6.888889e+00	 7.407407e+00	 1.006035e+01
0	 6.962963e+00	 7.037037e+00	 1.007255e+01
0	 6.962963e+00	 7.111111e+00	 1.006972e+01
0	 6.962963e+00	 7.185185e+00	 1.006693e+01
0	 6.962963e+00	 7.259259e+00	 1.006415e+01
0	 6.962963e+00	 7.333333e+00	 1.006140e+01
0	 6.962963e+00	 7.407407e+00	 1.005867e+01
0	 7.037037e+00	 7.037037e+00	 1.007037e+01
0	 7.037037e+00	 7.111111e+00	 1.006765e+01
0	 7.037037e+00	 7.185185e+00	 1.006494e+01
0	 7.037037e+00	 7.259259e+00	 1.006227e+01
0	 7.037037e+00	 7.333333e+00	 1.005961e+01
0	 7.037037e+00	 7.407407e+00	 1.005697e+01
0	 6.666667e+00	 7.407407e+00	 1.006517e+01
0	 6.666667e+00	 7.481481e+00	 1.006213e+01
0	 6.666667e+00	 7.555556e+00	 1.005914e+01
0	 6.666667e+00	 7.629630e+00	 1.005619e+01
0	 6.666667e+00	 7.703704e+00	 1.005329e+01
0	 6.666667e+00	 7.777778e+00	 1.005043e+01
0	 6.740741e+00	 7.407407e+00	 1.006360e+01
0	 6.740741e+00	 7.481481e+00	 1.006065e+01
0	 6.740741e+00	 7.555556e+00	 1.005774e+01
0	 6.740741e+00	 7.629630e+00	 1.005487e+01
0	 6.740741e+00	 7.703704e+00	 1.005204e+01
0	 6.740741e+00	 7.777778e+00	 1.004926e+01
0	 6.814815e+00	 7.407407e+00	 1.006200e+01
0	 6.814815e+00	 7.481481e+00	 1.005912e+01
0	 6.814815e+00	 7.555556e+00	 1.005629e+01
0	 6.814815e+00	 7.629630e+00	 1.005351e+01
0	 6.814815e+00	 7.703704e+00	 1.005076e+01
0	 6.814815e+00	 7.777778e+00	 1.004805e+01
0	 6.888889e+00	 7.407407e+00	 1.006035e+01
0	 6.888889e+00	 7.481481e+00	 1.005756e+01
0	 6.888889e+00	 7.555556e+00	 1.005482e+01
0	 6.888889e+00	 7.629630e+00	 1.005211e+01
0	 6.888889e+00	 7.703704e+00	 1.004945e+01
0	 6.888889e+00	 7.777778e+00	 1.004681e+01
0	 6.962963e+00	 7.407407e+00	 1.005867e+01
0	 6.962963e+00	 7.481481e+00	 1.005597e+01
0	 6.962963e+00	 7.555556e+00	 1.005331e+01
0	 6.962963e+00	 7.629630e+00	 1.005069e+01
0	 6.962963e+00	 7.703704e+00	 1.004810e+01
0	 6.962963e+00	 7.777778e+00	 1.004555e+01
0	 7.037037e+00	 7.407407e+00	 1.005697e+01
0	 7.037037e+00	 7.481481e+00	 1.005436e+01
0	 7.037037e+00	 7.555556e+00	 1.005179e+01
0	 7.037037e+00	 7.629630e+00	 1.004925e+01
0	 7.037037e+00	 7.703704e+00	 1.004674e+01
0	 7.037037e+00	 7.777778e+00	 1.004426e+01
0	 6.666667e+00	 7.777778e+00	 1.005043e+01
0	 6.666667e+00	 7.851852e+00	 1.004762e+01
0	 6.666667e+00	 7.925926e+00	 1.004487e+01
0	 6.666667e+00	 8.000000e+00	 1.004218e+01
0	 6.666667e+00	 8.074074e+00	 1.003954e+01
0	 6.666667e+00	 8.148148e+00	 1.003695e+01
0	 6.740741e+00	 7.777778e+00	 1.004926e+01
0	 6.740741e+00	 7.851852e+00	 1.004652e+01
0	 6.740741e+00	 7.925926e+00	 1.004384e+01
0	 6.740741e+00	 8.000000e+00	 1.004121e+01
0	 6.740741e+00	 8.074074e+00	 1.003864e+01
0	 6.740741e+00	 8.148148e+00	 1.003611e+01
0	 6.814815e+00	 7.777778e+00	 1.004805e+01
0	 6.814815e+00	 7.851852e+00	 1.004538e+01
0	 6.814815e+00	 7.925926e+00	 1.004277e+01
0	 6.814815e+00	 8.000000e+00	 1.004021e+01
0	 6.814815e+00	 8.074074e+00	 1.003771e+01
0	 6.814815e+00	 8.148148e+00	 1.003524e+01
0	 6.888889e+00	 7.777778e+00	 1.004681e+01
0	 6.888889e+00	 7.851852e+00	 1.004422e+01
0	 6.888889e+00	 7.925926e+00	 1.004168e+01
0	 6.888889e+00	 8.000000e+00	 1.003919e+01
0	 6.888889e+00	 8.074074e+00	 1.003675e+01
0	 6.888889e+00	 8.148148e+00	 1.003435e+01
0	 6.962963e+00	 7.777778e+00	 1.004555e+01
0	 6.962963e+00	 7.851852e+00	 1.004303e+01
0	 6.962963e+00	 7.925926e+00	 1.004056e+01
0	 6.962963e+00	 8.000000e+00	 1.003815e+01
0	 6.962963e+00	 8.074074e+00	 1.003578e+01
0	 6.962963e+00	 8.148148e+00	 1.003344e+01
0	 7.037037e+00	 7.777778e+00	 1.004426e+01
0	 7.037037e+00	 7.851852e+00	 1.004182e+01
0	 7.037037e+00	 7.925926e+00	 1.003943e+01
0	 7.037037e+00	 8.000000e+00	 1.003709e+01
0	 7.037037e+00	 8.074074e+00	 1.003478e+01
0	 7.037037e+00	 8.148148e+00	 1.003252e+01
0	 6.666667e+00	 8.148148e+00	 1.003695e+01
0	 6.666667e+00	 8.222222e+00	 1.003443e+01
0	 6.666667e+00	 8.296296e+00	 1.003197e+01
0	 6.666667e+00	 8.370370e+00	 1.002959e+01
0	 6.666667e+00	 8.444444e+00	 1.002727e+01
0	 6.666667e+00	 8.518519e+00	 1.002501e+01
0	 6.740741e+00	 8.148148e+00	 1.003611e+01
0	 6.740741e+00	 8.222222e+00	 1.003365e+01
0	 6.740741e+00	 8.296296e+00	 1.003125e+01
0	 6.740741e+00	 8.370370e+00	 1.002892e+01
0	 6.740741e+00	 8.444444e+00	 1.002665e+01
0	 6.740741e+00	 8.518519e+00	 1.002444e+01
0	 6.814815e+00	 8.148148e+00	 1.003524e+01
0	 6.814815e+00	 8.222222e+00	 1.003284e+01
0	 6.814815e+00	 8.296296e+00	 1.003050e+01
0	 6.814815e+00	 8.370370e+00	 1.002823e+01
0	 6.814815e+00	 8.444444e+00	 1.002602e+01
0	 6.814815e+00	 8.518519e+00	 1.002386e+01
0	 6.888889e+00	 8.148148e+00	 1.003435e+01
0	 6.888889e+00	 8.222222e+00	 1.003201e+01
0	 6.888889e+00	 8.296296e+00	 1.002974e+01
0	 6.888889e+00	 8.370370e+00	 1.002752e+01
0	 6.888889e+00	 8.444444e+00	 1.002537e+01
0	 6.888889e+00	 8.518519e+00	 1.002327e+01
0	 6.962963e+00	 8.148148e+00	 1.003344e+01
0	 6.962963e+00	 8.222222e+00	 1.003117e+01
0	 6.962963e+00	 8.296296e+00	 1.002895e+01
0	 6.962963e+00	 8.370370e+00	 1.002680e+01
0	 6.962963e+00	 8.444444e+00	 1.002470e+01
0	 6.962963e+00	 8.518519e+00	 1.002266e+01
0	 7.037037e+00	 8.148148e+00	 1.003252e+01
0	 7.037037e+00	 8.222222e+00	 1.003031e+01
0	 7.037037e+00	 8.296296e+00	 1.002816e+01
0	 7.037037e+00	 8.370370e+00	 1.002606e+01
0	 7.037037e+00	 8.444444e+00	 1.002403e+01
0	 7.037037e+00	 8.518519e+00	 1.002204e+01
0	 6.666667e+00	 8.518519e+00	 1.002501e+01
0	 6.666667e+00	 8.592593e+00	 1.002282e+01
0	 6.666667e+00	 8.666667e+00	 1.002072e+01
0	 6.666667e+00	 8.740741e+00	 1.001871e+01
0	 6.666667e+00	 8.814815e+00	 1.001677e+01
0	 6.666667e+00	 8.888889e+00	 1.001491e+01
0	 6.740741e+00	 8.518519e+00	 1.002444e+01
0	 6.740741e+00	 8.592593e+00	 1.002231e+01
0	 6.740741e+00	 8.666667e+00	 1.002026e+01
0	 6.740741e+00	 8.740741e+00	 1.001829e+01
0	 6.740741e+00	 8.814815e+00	 1.001639e+01
0	 6.740741e+00	 8.888889e+00	 1.001457e+01
0	 6.814815e+00	 8.518519e+00	 1.002386e+01
0	 6.814815e+00	 8.592593e+00	 1.002178e+01
0	 6.814815e+00	 8.666667e+00	 1.001978e+01
0	 6.814815e+00	 8.740741e+00	 1.001785e+01
0	 6.814815e+00	 8.814815e+00	 1.001600e+01
0	 6.814815e+00	 8.888889e+00	 1.001422e+01
0	 6.888889e+00	 8.518519e+00	 1.002327e+01
0	 6.888889e+00	 8.592593e+00	 1.002123e+01
0	 6.888889e+00	 8.666667e+00	 1.001928e+01
0	 6.888889e+00	 8.740741e+00	 1.001741e+01
0	 6.888889e+00	 8.814815e+00	 1.001560e+01
0	 6.888889e+00	 8.888889e+00	 1.001387e+01
0	 6.962963e+00	 8.518519e+00	 1.002266e+01
0	 6.962963e+00	 8.592593e+00	 1.002068e+01
0	 6.962963e+00	 8.666667e+00	 1.001878e+01
0	 6.962963e+00	 8.740741e+00	 1.001695e+01
0	 6.962963e+00	 8.814815e+00	 1.001520e+01
0	 6.962963e+00	 8.888889e+00	 1.001350e+01
0	 7.037037e+00	 8.518519e+00	 1.002204e+01
0	 7.037037e+00	 8.592593e+00	 1.002011e+01
0	 7.037037e+00	 8.666667e+00	 1.001827e+01
0	 7.037037e+00	 8.740741e+00	 1.001649e+01
0	 7.037037e+00	 8.814815e+00	 1.001478e+01
0	 7.037037e+00	 8.888889e+00	 1.001314e+01
0	 6.666667e+00	 8.888889e+00	 1.001491e+01
0	 6.666667e+00	 8.962963e+00	 1.001313e+01
0	 6.666667e+00	 9.037037e+00	 1.001146e+01
0	 6.666667e+00	 9.111111e+00	 1.000989e+01
0	 6.666667e+00	 9.185185e+00	 1.000842e+01
0	 6.666667e+00	 9.259259e+00	 1.000703e+01
0	 6.740741e+00	 8.888889e+00	 1.001457e+01
0	 6.740741e+00	 8.962963e+00	 1.001284e+01
0	 6.740741e+00	 9.037037e+00	 1.001120e+01
0	 6.740741e+00	 9.111111e+00	 1.000967e+01
0	 6.740741e+00	 9.185185e+00	 1.000823e+01
0	 6.740741e+00	 9.259259e+00	 1.000687e+01
0	 6.814815e+00	 8.888889e+00	 1.001422e+01
0	 6.814815e+00	 8.962963e+00	 1.001253e+01
0	 6.814815e+00	 9.037037e+00	 1.001094e+01
0	 6.814815e+00	 9.111111e+00	 1.000944e+01
0	 6.814815e+00	 9.185185e+00	 1.000803e+01
0	 6.814815e+00	 9.259259e+00	 1.000671e+01
0	 6.888889e+00	 8.888889e+00	 1.001387e+01
0	 6.888889e+00	 8.962963e+00	 1.001222e+01
0	 6.888889e+00	 9.037037e+00	 1.001066e+01
0	 6.888889e+00	 9.111111e+00	 1.000920e+01
0	 6.888889e+00	 9.185185e+00	 1.000783e+01
0	 6.888889e+00	 9.259259e+00	 1.000654e+01
0	 6.962963e+00	 8.888889e+00	 1.001350e+01
0	 6.962963e+00	 8.962963e+00	 1.001190e+01
0	 6.962963e+00	 9.037037e+00	 1.001038e+01
0	 6.962963e+00	 9.111111e+00	 1.000896e+01
0	 6.962963e+00	 9.185185e+00	 1.000762e+01
0	 6.962963e+00	 9.259259e+00	 1.000636e+01
0	 7.037037e+00	 8.888889e+00	 1.001314e+01
0	 7.037037e+00	 8.962963e+00	 1.001157e+01
0	 7.037037e+00	 9.037037e+00	 1.001010e+01
0	 7.037037e+00	 9.111111e+00	 1.000871e+01
0	 7.037037e+00	 9.185185e+00	 1.000741e+01
0	 7.037037e+00	 9.259259e+00	 1.000619e+01
0	 6.666667e+00	 9.259259e+00	 1.000703e+01
0	 6.666667e+00	 9.333333e+00	 1.000576e+01
0	 6.666667e+00	 9.407407e+00	 1.000461e+01
0	 6.666667e+00	 9.481481e+00	 1.000358e+01
0	 6.666667e+00	 9.555556e+00	 1.000267e+01
0	 6.666667e+00	 9.629630e+00	 1.000187e+01
0	 6.740741e+00	 9.259259e+00	 1.000687e+01
0	 6.740741e+00	 9.333333e+00	 1.000563e+01
0	 6.740741e+00	 9.407407e+00	 1.000450e+01
0	 6.740741e+00	 9.481481e+00	 1.000350e+01
0	 6.740741e+00	 9.555556e+00	 1.000261e+01
0	 6.740741e+00	 9.629630e+00	 1.000183e+01
0	 6.814815e+00	 9.259259e+00	 1.000671e+01
0	 6.814815e+00	 9.333333e+00	 1.000549e+01
0	 6.814815e+00	 9.407407e+00	 1.000439e+01
0	 6.814815e+00	 9.481481e+00	 1.000342e+01
0	 6.814815e+00	 9.555556e+00	 1.000255e+01
0	 6.814815e+00	 9.629630e+00	 1.000178e+01
0	 6.888889e+00	 9.259259e+00	 1.000654e+01
0	 6.888889e+00	 9.333333e+00	 1.000535e+01
0	 6.888889e+00	 9.407407e+00	 1.000428e+01
0	 6.888889e+00	 9.481481e+00	 1.000333e+01
0	 6.888889e+00	 9.555556e+00	 1.000248e+01
0	 6.888889e+00	 9.629630e+00	 1.000174e+01
0	 6.962963e+00	 9.259259e+00	 1.000636e+01
0	 6.962963e+00	 9.333333e+00	 1.000521e+01
0	 6.962963e+00	 9.407407e+00	 1.000417e+01
0	 6.962963e+00	 9.481481e+00	 1.000324e+01
0	 6.962963e+00	 9.555556e+00	 1.000241e+01
0	 6.962963e+00	 9.629630e+00	 1.000169e+01
0	 7.037037e+00	 9.259259e+00	 1.000619e+01
0	 7.037037e+00	 9.333333e+00	 1.000506e+01
0	 7.037037e+00	 9.407407e+00	 1.000405e+01
0	 7.037037e+00	 9.481481e+00	 1.000315e+01
0	 7.037037e+00	 9.555556e+00	 1.000235e+01
0	 7.037037e+00	 9.629630e+00	 1.000164e+01
0	 6.666667e+00	 9.629630e+00	 1.000187e+01
0	 6.666667e+00	 9.703704e+00	 1.000120e+01
0	 6.666667e+00	 9.777778e+00	 1.000069e+01
0	 6.666667e+00	 9.851852e+00	 1.000032e+01
0	 6.666667e+00	 9.925926e+00	 1.000008e+01
0	 6.666667e+00	 1.000000e+01	 9.999984e+00
0	 6.740741e+00	 9.629630e+00	 1.000183e+01
0	 6.740741e+00	 9.703704e+00	 1.000118e+01
0	 6.740741e+00	 9.777778e+00	 1.000067e+01
0	 6.740741e+00	 9.851852e+00	 1.000031e+01
0	 6.740741e+00	 9.925926e+00	 1.000008e+01
0	 6.740741e+00	 1.000000e+01	 9.999986e+00
0	 6.814815e+00	 9.629630e+00	 1.000178e+01
0	 6.814815e+00	 9.703704e+00	 1.000115e+01
0	 6.814815e+00	 9.777778e+00	 1.000065e+01
0	 6.814815e+00	 9.851852e+00	 1.000030e+01
0	 6.814815e+00	 9.925926e+00	 1.000008e+01
0	 6.814815e+00	 1.000000e+01	 9.999986e+00
0	 6.888889e+00	 9.629630e+00	 1.000174e+01
0	 6.888889e+00	 9.703704e+00	 1.000112e+01
0	 6.888889e+00	 9.777778e+00	 1.000064e+01
0	 6.888889e+00	 9.851852e+00	 1.000029e+01
0	 6.888889e+00	 9.925926e+00	 1.000008e+01
0	 6.888889e+00	 1.000000e+01	 9.999984e+00
0	 6.962963e+00	 9.629630e+00	 1.000169e+01
0	 6.962963e+00	 9.703704e+00	 1.000108e+01
0	 6.962963e+00	 9.777778e+00	 1.000062e+01
0	 6.962963e+00	 9.851852e+00	 1.000028e+01
0	 6.962963e+00	 9.925926e+00	 1.000007e+01
0	 6.962963e+00	 1.000000e+01	 9.999984e+00
0	 7.037037e+00	 9.629630e+00	 1.000164e+01
0	 7.037037e+00	 9.703704e+00	 1.000106e+01
0	 7.037037e+00	 9.777778e+00	 1.000060e+01
0	 7.037037e+00	 9.851852e+00	 1.000028e+01
0	 7.037037e+00	 9.925926e+00	 1.000007e+01
0	 7.037037e+00	 1.000000e+01	 9.999987e+00
0	 7.037037e+00	 0.000000e+00	 1.008045e+01
0	 7.037037e+00	 7.407407e-02	 1.008055e+01
0	 7.037037e+00	 1.481481e-01	 1.008084e+01
0	 7.037037e+00	 2.222222e-01	 1.008130e+01
0	 7.037037e+00	 2.962963e-01	 1.008195e+01
0	 7.037037e+00	 3.703704e-01	 1.008278e+01
0	 7.111111e+00	 0.000000e+00	 1.007246e+01
0	 7.111111e+00	 7.407407e-02	 1.007257e+01
0	 7.111111e+00	 1.481481e-01	 1.007285e+01
0	 7.111111e+00	 2.222222e-01	 1.007330e+01
0	 7.111111e+00	 2.962963e-01	 1.007392e+01
0	 7.111111e+00	 3.703704e-01	 1.007472e+01
0	 7.185185e+00	 0.000000e+00	 1.006446e+01
0	 7.185185e+00	 7.407407e-02	 1.006456e+01
0	 7.185185e+00	 1.481481e-01	 1.006483e+01
0	 7.185185e+00	 2.222222e-01	 1.006527e+01
0	 7.185185e+00	 2.962963e-01	 1.006587e+01
0	 7.185185e+00	 3.703704e-01	 1.006665e+01
0	 7.259259e+00	 0.000000e+00	 1.005643e+01
0	 7.259259e+00	 7.407407e-02	 1.005653e+01
0	 7.259259e+00	 1.481481e-01	 1.005679e+01
0	 7.259259e+00	 2.222222e-01	 1.005720e+01
0	 7.259259e+00	 2.962963e-01	 1.005779e+01
0	 7.259259e+00	 3.703704e-01	 1.005854e+01
0	 7.333333e+00	 0.000000e+00	 1.004838e+01
0	 7.333333e+00	 7.407407e-02	 1.004846e+01
0	 7.333333e+00	 1.481481e-01	 1.004870e+01
0	 7.333333e+00	 2.222222e-01	 1.004911e+01
0	 7.333333e+00	 2.962963e-01	 1.004968e+01
0	 7.333333e+00	 3.703704e-01	 1.005041e+01
0	 7.407407e+00	 0.000000e+00	 1.004028e+01
0	 7.407407e+00	 7.407407e-02	 1.004035e+01
0	 7.407407e+00	 1.481481e-01	 1.004058e+01
0	 7.407407e+00	 2.222222e-01	 1.004097e+01
0	 7.407407e+00	 2.962963e-01	 1.004153e+01
0	 7.407407e+00	 3.703704e-01	 1.004224e+01
0	 7.037037e+00	 3.703704e-01	 1.008278e+01
0	 7.037037e+00	 4.444444e-01	 1.008379e+01
0	 7.037037e+00	 5.185185e-01	 1.008494e+01
0	 7.037037e+00	 5.925926e-01	 1.008626e+01
0	 7.037037e+00	 6.666667e-01	 1.008775e+01
0	 7.037037e+00	 7.407407e-01	 1.008942e+01
0	 7.111111e+00	 3.703704e-01	 1.007472e+01
0	 7.111111e+00	 4.444444e-01	 1.007569e+01
0	 7.111111e+00	 5.185185e-01	 1.007681e+01
0	 7.111111e+00	 5.925926e-01	 1.007808e+01
0	 7.111111e+00	 6.666667e-01	 1.007952e+01
0	 7.111111e+00	 7.407407e-01	 1.008114e+01
0	 7.185185e+00	 3.703704e-01	 1.006665e+01
0	 7.185185e+00	 4.444444e-01	 1.006758e+01
0	 7.185185e+00	 5.185185e-01	 1.006866e+01
0	 7.185185e+00	 5.925926e-01	 1.006990e+01
0	 7.185185e+00	 6.666667e-01	 1.007129e+01
0	 7.185185e+00	 7.407407e-01	 1.007286e+01
0	 7.259259e+00	 3.703704e-01	 1.005854e+01
0	 7.259259e+00	 4.444444e-01	 1.005945e+01
0	 7.259259e+00	 5.185185e-01	 1.006050e+01
0	 7.259259e+00	 5.925926e-01	 1.006170e+01
0	 7.259259e+00	 6.666667e-01	 1.006306e+01
0	 7.259259e+00	 7.407407e-01	 1.006457e+01
0	 7.333333e+00	 3.703704e-01	 1.005041e+01
0	 7.333333e+00	 4.444444e-01	 1.005130e+01
0	 7.333333e+00	 5.185185e-01	 1.005232e+01
0	 7.333333e+00	 5.925926e-01	 1.005349e+01
0	 7.333333e+00	 6.666667e-01	 1.005480e+01
0	 7.333333e+00	 7.407407e-01	 1.005627e+01
0	 7.407407e+00	 3.703704e-01	 1.004224e+01
0	 7.407407e+00	 4.444444e-01	 1.004311e+01
0	 7.407407e+00	 5.185185e-01	 1.004411e+01
0	 7.407407e+00	 5.925926e-01	 1.004524e+01
0	 7.407407e+00	 6.666667e-01	 1.004652e+01
0	 7.407407e+00	 7.407407e-01	 1.004795e+01
0	 7.037037e+00	 7.407407e-01	 1.008942e+01
0	 7.037037e+00	 8.148148e-01	 1.009122e+01
0	 7.037037e+00	 8.888889e-01	 1.009313e+01
0	 7.037037e+00	 9.629630e-01	 1.009515e+01
0	 7.037037e+00	 1.037037e+00	 1.009729e+01
0	 7.037037e+00	 1.111111e+00	 1.009956e+01
0	 7.111111e+00	 7.407407e-01	 1.008114e+01
0	 7.111111e+00	 8.148148e-01	 1.008288e+01
0	 7.111111e+00	 8.888889e-01	 1.008473e+01
0	 7.111111e+00	 9.629630e-01	 1.008669e+01
0	 7.111111e+00	 1.037037e+00	 1.008876e+01
0	 7.111111e+00	 1.111111e+00	 1.009097e+01
0	 7.185185e+00	 7.407407e-01	 1.007286e+01
0	 7.185185e+00	 8.148148e-01	 1.007455e+01
0	 7.185185e+00	 8.888889e-01	 1.007634e+01
0	 7.185185e+00	 9.629630e-01	 1.007824e+01
0	 7.185185e+00	 1.037037e+00	 1.008025e+01
0	 7.185185e+00	 1.111111e+00	 1.008240e+01
0	 7.259259e+00	 7.407407e-01	 1.006457e+01
0	 7.259259e+00	 8.148148e-01	 1.006621e+01
0	 7.259259e+00	 8.888889e-01	 1.006795e+01
0	 7.259259e+00	 9.629630e-01	 1.006979e+01
0	 7.259259e+00	 1.037037e+00	 1.007175e+01
0	 7.259259e+00	 1.111111e+00	 1.007384e+01
0	 7.333333e+00	 7.407407e-01	 1.005627e+01
0	 7.333333e+00	 8.148148e-01	 1.005786e+01
0	 7.333333e+00	 8.888889e-01	 1.005955e+01
0	 7.333333e+00	 9.629630e-01	 1.006135e+01
0	 7.333333e+00	 1.037037e+00	 1.006326e+01
0	 7.333333e+00	 1.111111e+00	 1.006529e+01
0	 7.407407e+00	 7.407407e-01	 1.004795e+01
0	 7.407407e+00	 8.148148e-01	 1.004949e+01
0	 7.407407e+00	 8.888889e-01	 1.005114e+01
0	 7.407407e+00	 9.629630e-01	 1.005289e+01
0	 7.407407e+00	 1.037037e+00	 1.005475e+01
0	 7.407407e+00	 1.111111e+00	 1.005674e+01
0	 7.037037e+00	 1.111111e+00	 1.009956e+01
0	 7.037037e+00	 1.185185e+00	 1.010192e+01
0	 7.037037e+00	 1.259259e+00	 1.010433e+01
0	 7.037037e+00	 1.333333e+00	 1.010679e+01
0	 7.037037e+00	 1.407407e+00	 1.010933e+01
0	 7.037037e+00	 1.481481e+00	 1.011195e+01
0	 7.111111e+00	 1.111111e+00	 1.009097e+01
0	 7.111111e+00	 1.185185e+00	 1.009326e+01
0	 7.111111e+00	 1.259259e+00	 1.009560e+01
0	 7.111111e+00	 1.333333e+00	 1.009800e+01
0	 7.111111e+00	 1.407407e+00	 1.010047e+01
0	 7.111111e+00	 1.481481e+00	 1.010302e+01
0	 7.185185e+00	 1.111111e+00	 1.008240e+01
0	 7.185185e+00	 1.185185e+00	 1.008463e+01
0	 7.185185e+00	 1.259259e+00	 1.008690e+01
0	 7.185185e+00	 1.333333e+00	 1.008924e+01
0	 7.185185e+00	 1.407407e+00	 1.009165e+01
0	 7.185185e+00	 1.481481e+00	 1.009414e+01
0	 7.259259e+00	 1.111111e+00	 1.007384e+01
0	 7.259259e+00	 1.185185e+00	 1.007601e+01
0	 7.259259e+00	 1.259259e+00	 1.007824e+01
0	 7.259259e+00	 1.333333e+00	 1.008052e+01
0	 7.259259e+00	 1.407407e+00	 1.008287e+01
0	 7.259259e+00	 1.481481e+00	 1.008530e+01
0	 7.333333e+00	 1.111111e+00	 1.006529e+01
0	 7.333333e+00	 1.185185e+00	 1.006741e+01
0	 7.333333e+00	 1.259259e+00	 1.006958e+01
0	 7.333333e+00	 1.333333e+00	 1.007181e+01
0	 7.333333e+00	 1.407407e+00	 1.007411e+01
0	 7.333333e+00	 1.481481e+00	 1.007649e+01
0	 7.407407e+00	 1.111111e+00	 1.005674e+01
0	 7.407407e+00	 1.185185e+00	 1.005881e+01
0	 7.407407e+00	 1.259259e+00	 1.006093e+01
0	 7.407407e+00	 1.333333e+00	 1.006312e+01
0	 7.407407e+00	 1.407407e+00	 1.006537e+01
0	 7.407407e+00	 1.481481e+00	 1.006770e+01
0	 7.037037e+00	 1.481481e+00	 1.011195e+01
0	 7.037037e+00	 1.555556e+00	 1.011460e+01
0	 7.037037e+00	 1.629630e+00	 1.011723e+01
0	 7.037037e+00	 1.703704e+00	 1.011987e+01
0	 7.037037e+00	 1.777778e+00	 1.012251e+01
0	 7.037037e+00	 1.851852e+00	 1.012518e+01
0	 7.111111e+00	 1.481481e+00	 1.010302e+01
0	 7.111111e+00	 1.555556e+00	 1.010560e+01
0	 7.111111e+00	 1.629630e+00	 1.010818e+01
0	 7.111111e+00	 1.703704e+00	 1.011075e+01
0	 7.111111e+00	 1.777778e+00	 1.011334e+01
0	 7.111111e+00	 1.851852e+00	 1.011596e+01
0	 7.185185e+00	 1.481481e+00	 1.009414e+01
0	 7.185185e+00	 1.555556e+00	 1.009666e+01
0	 7.185185e+00	 1.629630e+00	 1.009918e+01
0	 7.185185e+00	 1.703704e+00	 1.010171e+01
0	 7.185185e+00	 1.777778e+00	 1.010425e+01
0	 7.185185e+00	 1.851852e+00	 1.010681e+01
0	 7.259259e+00	 1.481481e+00	 1.008530e+01
0	 7.259259e+00	 1.555556e+00	 1.008777e+01
0	 7.259259e+00	 1.629630e+00	 1.009024e+01
0	 7.259259e+00	 1.703704e+00	 1.009272e+01
0	 7.259259e+00	 1.777778e+00	 1.009521e+01
0	 7.259259e+00	 1.851852e+00	 1.009773e+01
0	 7.333333e+00	 1.481481e+00	 1.007649e+01
0	 7.333333e+00	 1.555556e+00	 1.007891e+01
0	 7.333333e+00	 1.629630e+00	 1.008133e+01
0	 7.333333e+00	 1.703704e+00	 1.008377e+01
0	 7.333333e+00	 1.777778e+00	 1.008622e+01
0	 7.333333e+00	 1.851852e+00	 1.008870e+01
0	 7.407407e+00	 1.481481e+00	 1.006770e+01
0	 7.407407e+00	 1.555556e+00	 1.007008e+01
0	 7.407407e+00	 1.629630e+00	 1.007246e+01
0	 7.407407e+00	 1.703704e+00	 1.007485e+01
0	 7.407407e+00	 1.777778e+00	 1.007727e+01
0	 7.407407e+00	 1.851852e+00	 1.007972e+01
0	 7.037037e+00	 1.851852e+00	 1.012518e+01
0	 7.037037e+00	 1.925926e+00	 1.012782e+01
0	 7.037037e+00	 2.000000e+00	 1.013039e+01
0	 7.037037e+00	 2.074074e+00	 1.013291e+01
0	 7.037037e+00	 2.148148e+00	 1.013538e+01
0	 7.037037e+00	 2.222222e+00	 1.013781e+01
0	 7.111111e+00	 1.851852e+00	 1.011596e+01
0	 7.111111e+00	 1.925926e+00	 1.011855e+01
0	 7.111111e+00	 2.000000e+00	 1.012109e+01
0	 7.111111e+00	 2.074074e+00	 1.012357e+01
0	 7.111111e+00	 2.148148e+00	 1.012601e+01
0	 7.111111e+00	 2.222222e+00	 1.012842e+01
0	 7.185185e+00	 1.851852e+00	 1.010681e+01
0	 7.185185e+00	 1.925926e+00	 1.010937e+01
0	 7.185185e+00	 2.000000e+00	 1.011186e+01
0	 7.185185e+00	 2.074074e+00	 1.011431e+01
0	 7.185185e+00	 2.148148e+00	 1.011673e+01
0	 7.185185e+00	 2.222222e+00	 1.011912e+01
0	 7.259259e+00	 1.851852e+00	 1.009773e+01
0	 7.259259e+00	 1.925926e+00	 1.010025e+01
0	 7.259259e+00	 2.000000e+00	 1.010271e+01
0	 7.259259e+00	 2.074074e+00	 1.010513e+01
0	 7.259259e+00	 2.148148e+00	 1.010753e+01
0	 7.259259e+00	 2.222222e+00	 1.010990e+01
0	 7.333333e+00	 1.851852e+00	 1.008870e+01
0	 7.333333e+00	 1.925926e+00	 1.009118e+01
0	 7.333333e+00	 2.000000e+00	 1.009362e+01
0	 7.333333e+00	 2.074074e+00	 1.009602e+01
0	 7.333333e+00	 2.148148e+00	 1.009839e+01
0	 7.333333e+00	 2.222222e+00	 1.010075e+01
0	 7.407407e+00	 1.851852e+00	 1.007972e+01
0	 7.407407e+00	 1.925926e+00	 1.008216e+01
0	 7.407407e+00	 2.000000e+00	 1.008457e+01
0	 7.407407e+00	 2.074074e+00	 1.008695e+01
0	 7.407407e+00	 2.148148e+00	 1.008931e+01
0	 7.407407e+00	 2.222222e+00	 1.009165e+01
0	 7.037037e+00	 2.222222e+00	 1.013781e+01
0	 7.037037e+00	 2.296296e+00	 1.014017e+01
0	 7.037037e+00	 2.370370e+00	 1.014243e+01
0	 7.037037e+00	 2.444444e+00	 1.014458e+01
0	 7.037037e+00	 2.518519e+00	 1.014664e+01
0	 7.037037e+00	 2.592593e+00	 1.014862e+01
0	 7.111111e+00	 2.222222e+00	 1.012842e+01
0	 7.111111e+00	 2.296296e+00	 1.013076e+01
0	 7.111111e+00	 2.370370e+00	 1.013301e+01
0	 7.111111e+00	 2.444444e+00	 1.013516e+01
0	 7.111111e+00	 2.518519e+00	 1.013722e+01
0	 7.111111e+00	 2.592593e+00	 1.013921e+01
0	 7.185185e+00	 2.222222e+00	 1.011912e+01
0	 7.185185e+00	 2.296296e+00	 1.012145e+01
0	 7.185185e+00	 2.370370e+00	 1.012368e+01
0	 7.185185e+00	 2.444444e+00	 1.012583e+01
0	 7.185185e+00	 2.518519e+00	 1.012791e+01
0	 7.185185e+00	 2.592593e+00	 1.012991e+01
0	 7.259259e+00	 2.222222e+00	 1.010990e+01
0	 7.259259e+00	 2.296296e+00	 1.011222e+01
0	 7.259259e+00	 2.370370e+00	 1.011445e+01
0	 7.259259e+00	 2.444444e+00	 1.011660e+01
0	 7.259259e+00	 2.518519e+00	 1.011868e+01
0	 7.259259e+00	 2.592593e+00	 1.012069e+01
0	 7.333333e+00	 2.222222e+00	 1.010075e+01
0	 7.333333e+00	 2.296296e+00	 1.010306e+01
0	 7.333333e+00	 2.370370e+00	 1.010528e+01
0	 7.333333e+00	 2.444444e+00	 1.010744e+01
0	 7.333333e+00	 2.518519e+00	 1.010952e+01
0	 7.333333e+00	 2.592593e+00	 1.011155e+01
0	 7.407407e+00	 2.222222e+00	 1.009165e+01
0	 7.407407e+00	 2.296296e+00	 1.009395e+01
0	 7.407407e+00	 2.370370e+00	 1.009618e+01
0	 7.407407e+00	 2.444444e+00	 1.009834e+01
0	 7.407407e+00	 2.518519e+00	 1.010044e+01
0	 7.407407e+00	 2.592593e+00	 1.010248e+01
0	 7.037037e+00	 2.592593e+00	 1.014862e+01
0	 7.037037e+00	 2.666667e+00	 1.015049e+01
0	 7.037037e+00	 2.740741e+00	 1.015223e+01
0	 7.037037e+00	 2.814815e+00	 1.015383e+01
0	 7.037037e+00	 2.888889e+00	 1.015531e+01
0	 7.037037e+00	 2.962963e+00	 1.015668e+01
0	 7.111111e+00	 2.592593e+00	 1.013921e+01
0	 7.111111e+00	 2.666667e+00	 1.014110e+01
0	 7.111111e+00	 2.740741e+00	 1.014287e+01
0	 7.111111e+00	 2.814815e+00	 1.014451e+01
0	 7.111111e+00	 2.888889e+00	 1.014603e+01
0	 7.111111e+00	 2.962963e+00	 1.014744e+01
0	 7.185185e+00	 2.592593e+00	 1.012991e+01
0	 7.185185e+00	 2.666667e+00	 1.013182e+01
0	 7.185185e+00	 2.740741e+00	 1.013360e+01
0	 7.185185e+00	 2.814815e+00	 1.013528e+01
0	 7.185185e+00	 2.888889e+00	 1.013684e+01
0	 7.185185e+00	 2.962963e+00	 1.013830e+01
0	 7.259259e+00	 2.592593e+00	 1.012069e+01
0	 7.259259e+00	 2.666667e+00	 1.012262e+01
0	 7.259259e+00	 2.740741e+00	 1.012443e+01
0	 7.259259e+00	 2.814815e+00	 1.012614e+01
0	 7.259259e+00	 2.888889e+00	 1.012774e+01
0	 7.259259e+00	 2.962963e+00	 1.012925e+01
0	 7.333333e+00	 2.592593e+00	 1.011155e+01
0	 7.333333e+00	 2.666667e+00	 1.011350e+01
0	 7.333333e+00	 2.740741e+00	 1.011534e+01
0	 7.333333e+00	 2.814815e+00	 1.011708e+01
0	 7.333333e+00	 2.888889e+00	 1.011873e+01
0	 7.333333e+00	 2.962963e+00	 1.012028e+01
0	 7.407407e+00	 2.592593e+00	 1.010248e+01
0	 7.407407e+00	 2.666667e+00	 1.010445e+01
0	 7.407407e+00	 2.740741e+00	 1.010632e+01
0	 7.407407e+00	 2.814815e+00	 1.010810e+01
0	 7.407407e+00	 2.888889e+00	 1.010979e+01
0	 7.407407e+00	 2.962963e+00	 1.011139e+01
0	 7.037037e+00	 2.962963e+00	 1.015668e+01
0	 7.037037e+00	 3.037037e+00	 1.015791e+01
0	 7.037037e+00	 3.111111e+00	 1.015900e+01
0	 7.037037e+00	 3.185185e+00	 1.015994e+01
0	 7.037037e+00	 3.259259e+00	 1.016075e+01
0	 7.037037e+00	 3.333333e+00	 1.016142e+01
0	 7.111111e+00	 2.962963e+00	 1.014744e+01
0	 7.111111e+00	 3.037037e+00	 1.014873e+01
0	 7.111111e+00	 3.111111e+00	 1.014988e+01
0	 7.111111e+00	 3.185185e+00	 1.015089e+01
0	 7.111111e+00	 3.259259e+00	 1.015178e+01
0	 7.111111e+00	 3.333333e+00	 1.015253e+01
0	 7.185185e+00	 2.962963e+00	 1.013830e+01
0	 7.185185e+00	 3.037037e+00	 1.013964e+01
0	 7.185185e+00	 3.111111e+00	 1.014086e+01
0	 7.185185e+00	 3.185185e+00	 1.014194e+01
0	 7.185185e+00	 3.259259e+00	 1.014289e+01
0	 7.185185e+00	 3.333333e+00	 1.014373e+01
0	 7.259259e+00	 2.962963e+00	 1.012925e+01
0	 7.259259e+00	 3.037037e+00	 1.013065e+01
0	 7.259259e+00	 3.111111e+00	 1.013192e+01
0	 7.259259e+00	 3.185185e+00	 1.013307e+01
0	 7.259259e+00	 3.259259e+00	 1.013410e+01
0	 7.259259e+00	 3.333333e+00	 1.013501e+01
0	 7.333333e+00	 2.962963e+00	 1.012028e+01
0	 7.333333e+00	 3.037037e+00	 1.012173e+01
0	 7.333333e+00	 3.111111e+00	 1.012306e+01
0	 7.333333e+00	 3.185185e+00	 1.012428e+01
0	 7.333333e+00	 3.259259e+00	 1.012538e+01
0	 7.333333e+00	 3.333333e+00	 1.012637e+01
0	 7.407407e+00	 2.962963e+00	 1.011139e+01
0	 7.407407e+00	 3.037037e+00	 1.011289e+01
0	 7.407407e+00	 3.111111e+00	 1.011428e+01
0	 7.407407e+00	 3.185185e+00	 1.011556e+01
0	 7.407407e+00	 3.259259e+00	 1.011673e+01
0	 7.407407e+00	 3.333333e+00	 1.011780e+01
0	 7.037037e+00	 3.333333e+00	 1.016142e+01
0	 7.037037e+00	 3.407407e+00	 1.016195e+01
0	 7.037037e+00	 3.481481e+00	 1.016233e+01
0	 7.037037e+00	 3.555556e+00	 1.016257e+01
0	 7.037037e+00	 3.629630e+00	 1.016267e+01
0	 7.037037e+00	 3.703704e+00	 1.016262e+01
0	 7.111111e+00	 3.333333e+00	 1.015253e+01
0	 7.111111e+00	 3.407407e+00	 1.015315e+01
0	 7.111111e+00	 3.481481e+00	 1.015363e+01
0	 7.111111e+00	 3.555556e+00	 1.015397e+01
0	 7.111111e+00	 3.629630e+00	 1.015417e+01
0	 7.111111e+00	 3.703704e+00	 1.015424e+01
0	 7.185185e+00	 3.333333e+00	 1.014373e+01
0	 7.185185e+00	 3.407407e+00	 1.014443e+01
0	 7.185185e+00	 3.481481e+00	 1.014500e+01
0	 7.185185e+00	 3.555556e+00	 1.014544e+01
0	 7.185185e+00	 3.629630e+00	 1.014575e+01
0	 7.185185e+00	 3.703704e+00	 1.014593e+01
0	 7.259259e+00	 3.333333e+00	 1.013501e+01
0	 7.259259e+00	 3.407407e+00	 1.013580e+01
0	 7.259259e+00	 3.481481e+00	 1.013646e+01
0	 7.259259e+00	 3.555556e+00	 1.013699e+01
0	 7.259259e+00	 3.629630e+00	 1.013740e+01
0	 7.259259e+00	 3.703704e+00	 1.013769e+01
0	 7.333333e+00	 3.333333e+00	 1.012637e+01
0	 7.333333e+00	 3.407407e+00	 1.012724e+01
0	 7.333333e+00	 3.481481e+00	 1.012799e+01
0	 7.333333e+00	 3.555556e+00	 1.012862e+01
0	 7.333333e+00	 3.629630e+00	 1.012912e+01
0	 7.333333e+00	 3.703704e+00	 1.012951e+01
0	 7.407407e+00	 3.333333e+00	 1.011780e+01
0	 7.407407e+00	 3.407407e+00	 1.011875e+01
0	 7.407407e+00	 3.481481e+00	 1.011959e+01
0	 7.407407e+00	 3.555556e+00	 1.012031e+01
0	 7.407407e+00	 3.629630e+00	 1.012091e+01
0	 7.407407e+00	 3.703704e+00	 1.012141e+01
0	 7.037037e+00	 3.703704e+00	 1.016262e+01
0	 7.037037e+00	 3.777778e+00	 1.016244e+01
0	 7.037037e+00	 3.851852e+00	 1.016213e+01
0	 7.037037e+00	 3.925926e+00	 1.016168e+01
0	 7.037037e+00	 4.000000e+00	 1.016110e+01
0	 7.037037e+00	 4.074074e+00	 1.016038e+01
0	 7.111111e+00	 3.703704e+00	 1.015424e+01
0	 7.111111e+00	 3.777778e+00	 1.015418e+01
0	 7.111111e+00	 3.851852e+00	 1.015398e+01
0	 7.111111e+00	 3.925926e+00	 1.015366e+01
0	 7.111111e+00	 4.000000e+00	 1.015321e+01
0	 7.111111e+00	 4.074074e+00	 1.015262e+01
0	 7.185185e+00	 3.703704e+00	 1.014593e+01
0	 7.185185e+00	 3.777778e+00	 1.014598e+01
0	 7.185185e+00	 3.851852e+00	 1.014590e+01
0	 7.185185e+00	 3.925926e+00	 1.014570e+01
0	 7.185185e+00	 4.000000e+00	 1.014538e+01
0	 7.185185e+00	 4.074074e+00	 1.014492e+01
0	 7.259259e+00	 3.703704e+00	 1.013769e+01
0	 7.259259e+00	 3.777778e+00	 1.013785e+01
0	 7.259259e+00	 3.851852e+00	 1.013789e+01
0	 7.259259e+00	 3.925926e+00	 1.013781e+01
0	 7.259259e+00	 4.000000e+00	 1.013760e+01
0	 7.259259e+00	 4.074074e+00	 1.013728e+01
0	 7.333333e+00	 3.703704e+00	 1.012951e+01
0	 7.333333e+00	 3.777778e+00	 1.012978e+01
0	 7.333333e+00	 3.851852e+00	 1.012994e+01
0	 7.333333e+00	 3.925926e+00	 1.012997e+01
0	 7.333333e+00	 4.000000e+00	 1.012989e+01
0	 7.333333e+00	 4.074074e+00	 1.012969e+01
0	 7.407407e+00	 3.703704e+00	 1.012141e+01
0	 7.407407e+00	 3.777778e+00	 1.012178e+01
0	 7.407407e+00	 3.851852e+00	 1.012205e+01
0	 7.407407e+00	 3.925926e+00	 1.012220e+01
0	 7.407407e+00	 4.000000e+00	 1.012223e+01
0	 7.407407e+00	 4.074074e+00	 1.012216e+01
0	 7.037037e+00	 4.074074e+00	 1.016038e+01
0	 7.037037e+00	 4.148148e+00	 1.015953e+01
0	 7.037037e+00	 4.222222e+00	 1.015857e+01
0	 7.037037e+00	 4.296296e+00	 1.015750e+01
0	 7.037037e+00	 4.370370e+00	 1.015630e+01
0	 7.037037e+00	 4.444444e+00	 1.015499e+01
0	 7.111111e+00	 4.074074e+00	 1.015262e+01
0	 7.111111e+00	 4.148148e+00	 1.015192e+01
0	 7.111111e+00	 4.222222e+00	 1.015110e+01
0	 7.111111e+00	 4.296296e+00	 1.015017e+01
0	 7.111111e+00	 4.370370e+00	 1.014912e+01
0	 7.111111e+00	 4.444444e+00	 1.014795e+01
0	 7.185185e+00	 4.074074e+00	 1.014492e+01
0	 7.185185e+00	 4.148148e+00	 1.014435e+01
0	 7.185185e+00	 4.222222e+00	 1.014367e+01
0	 7.185185e+00	 4.296296e+00	 1.014288e+01
0	 7.185185e+00	 4.370370e+00	 1.014197e+01
0	 7.185185e+00	 4.444444e+00	 1.014095e+01
0	 7.259259e+00	 4.074074e+00	 1.013728e+01
0	 7.259259e+00	 4.148148e+00	 1.013684e+01
0	 7.259259e+00	 4.222222e+00	 1.013629e+01
0	 7.259259e+00	 4.296296e+00	 1.013563e+01
0	 7.259259e+00	 4.370370e+00	 1.013486e+01
0	 7.259259e+00	 4.444444e+00	 1.013398e+01
0	 7.333333e+00	 4.074074e+00	 1.012969e+01
0	 7.333333e+00	 4.148148e+00	 1.012938e+01
0	 7.333333e+00	 4.222222e+00	 1.012896e+01
0	 7.333333e+00	 4.296296e+00	 1.012843e+01
0	 7.333333e+00	 4.370370e+00	 1.012780e+01
0	 7.333333e+00	 4.444444e+00	 1.012706e+01
0	 7.407407e+00	 4.074074e+00	 1.012216e+01
0	 7.407407e+00	 4.148148e+00	 1.012197e+01
0	 7.407407e+00	 4.222222e+00	 1.012168e+01
0	 7.407407e+00	 4.296296e+00	 1.012128e+01
0	 7.407407e+00	 4.370370e+00	 1.012078e+01
0	 7.407407e+00	 4.444444e+00	 1.012018e+01
0	 7.037037e+00	 4.444444e+00	 1.015499e+01
0	 7.037037e+00	 4.518519e+00	 1.015356e+01
0	 7.037037e+00	 4.592593e+00	 1.015204e+01
0	 7.037037e+00	 4.666667e+00	 1.015043e+01
0	 7.037037e+00	 4.740741e+00	 1.014872e+01
0	 7.037037e+00	 4.814815e+00	 1.014690e+01
0	 7.111111e+00	 4.444444e+00	 1.014795e+01
0	 7.111111e+00	 4.518519e+00	 1.014667e+01
0	 7.111111e+00	 4.592593e+00	 1.014531e+01
0	 7.111111e+00	 4.666667e+00	 1.014385e+01
0	 7.111111e+00	 4.740741e+00	 1.014229e+01
0	 7.111111e+00	 4.814815e+00	 1.014063e+01
0	 7.185185e+00	 4.444444e+00	 1.014095e+01
0	 7.185185e+00	 4.518519e+00	 1.013982e+01
0	 7.185185e+00	 4.592593e+00	 1.013860e+01
0	 7.185185e+00	 4.666667e+00	 1.013729e+01
0	 7.185185e+00	 4.740741e+00	 1.013588e+01
0	 7.185185e+00	 4.814815e+00	 1.013437e+01
0	 7.259259e+00	 4.444444e+00	 1.013398e+01
0	 7.259259e+00	 4.518519e+00	 1.013300e+01
0	 7.259259e+00	 4.592593e+00	 1.013192e+01
0	 7.259259e+00	 4.666667e+00	 1.013076e+01
0	 7.259259e+00	 4.740741e+00	 1.012949e+01
0	 7.259259e+00	 4.814815e+00	 1.012813e+01
0	 7.333333e+00	 4.444444e+00	 1.012706e+01
0	 7.333333e+00	 4.518519e+00	 1.012621e+01
0	 7.333333e+00	 4.592593e+00	 1.012528e+01
0	 7.333333e+00	 4.666667e+00	 1.012426e+01
0	 7.333333e+00	 4.740741e+00	 1.012314e+01
0	 7.333333e+00	 4.814815e+00	 1.012192e+01
0	 7.407407e+00	 4.444444e+00	 1.012018e+01
0	 7.407407e+00	 4.518519e+00	 1.011947e+01
0	 7.407407e+00	 4.592593e+00	 1.011868e+01
0	 7.407407e+00	 4.666667e+00	 1.011780e+01
0	 7.407407e+00	 4.740741e+00	 1.011682e+01
0	 7.407407e+00	 4.814815e+00	 1.011575e+01
0	 7.037037e+00	 4.814815e+00	 1.014690e+01
0	 7.037037e+00	 4.888889e+00	 1.014500e+01
0	 7.037037e+00	 4.962963e+00	 1.014303e+01
0	 7.037037e+00	 5.037037e+00	 1.014098e+01
0	 7.037037e+00	 5.111111e+00	 1.013885e+01
0	 7.037037e+00	 5.185185e+00	 1.013665e+01
0	 7.111111e+00	 4.814815e+00	 1.014063e+01
0	 7.111111e+00	 4.888889e+00	 1.013888e+01
0	 7.111111e+00	 4.962963e+00	 1.013706e+01
0	 7.111111e+00	 5.037037e+00	 1.013517e+01
0	 7.111111e+00	 5.111111e+00	 1.013320e+01
0	 7.111111e+00	 5.185185e+00	 1.013115e+01
0	 7.185185e+00	 4.814815e+00	 1.013437e+01
0	 7.185185e+00	 4.888889e+00	 1.013277e+01
0	 7.185185e+00	 4.962963e+00	 1.013111e+01
0	 7.185185e+00	 5.037037e+00	 1.012937e+01
0	 7.185185e+00	 5.111111e+00	 1.012755e+01
0	 7.185185e+00	 5.185185e+00	 1.012565e+01
0	 7.259259e+00	 4.814815e+00	 1.012813e+01
0	 7.259259e+00	 4.888889e+00	 1.012669e+01
0	 7.259259e+00	 4.962963e+00	 1.012517e+01
0	 7.259259e+00	 5.037037e+00	 1.012358e+01
0	 7.259259e+00	 5.111111e+00	 1.012191e+01
0	 7.259259e+00	 5.185185e+00	 1.012016e+01
0	 7.333333e+00	 4.814815e+00	 1.012192e+01
0	 7.333333e+00	 4.888889e+00	 1.012062e+01
0	 7.333333e+00	 4.962963e+00	 1.011925e+01
0	 7.333333e+00	 5.037037e+00	 1.011781e+01
0	 7.333333e+00	 5.111111e+00	 1.011628e+01
0	 7.333333e+00	 5.185185e+00	 1.011468e+01
0	 7.407407e+00	 4.814815e+00	 1.011575e+01
0	 7.407407e+00	 4.888889e+00	 1.011459e+01
0	 7.407407e+00	 4.962963e+00	 1.011336e+01
0	 7.407407e+00	 5.037037e+00	 1.011206e+01
0	 7.407407e+00	 5.111111e+00	 1.011068e+01
0	 7.407407e+00	 5.185185e+00	 1.010923e+01
0	 7.037037e+00	 5.185185e+00	 1.013665e+01
0	 7.037037e+00	 5.259259e+00	 1.013438e+01
0	 7.037037e+00	 5.333333e+00	 1.013206e+01
0	 7.037037e+00	 5.407407e+00	 1.012968e+01
0	 7.037037e+00	 5.481481e+00	 1.012725e+01
0	 7.037037e+00	 5.555556e+00	 1.012476e+01
0	 7.111111e+00	 5.185185e+00	 1.013115e+01
0	 7.111111e+00	 5.259259e+00	 1.012903e+01
0	 7.111111e+00	 5.333333e+00	 1.012686e+01
0	 7.111111e+00	 5.407407e+00	 1.012464e+01
0	 7.111111e+00	 5.481481e+00	 1.012236e+01
0	 7.111111e+00	 5.555556e+00	 1.012002e+01
0	 7.185185e+00	 5.185185e+00	 1.012565e+01
0	 7.185185e+00	 5.259259e+00	 1.012368e+01
0	 7.185185e+00	 5.333333e+00	 1.012166e+01
0	 7.185185e+00	 5.407407e+00	 1.011959e+01
0	 7.185185e+00	 5.481481e+00	 1.011746e+01
0	 7.185185e+00	 5.555556e+00	 1.011527e+01
0	 7.259259e+00	 5.185185e+00	 1.012016e+01
0	 7.259259e+00	 5.259259e+00	 1.011834e+01
0	 7.259259e+00	 5.333333e+00	 1.011647e+01
0	 7.259259e+00	 5.407407e+00	 1.011454e+01
0	 7.259259e+00	 5.481481e+00	 1.011256e+01
0	 7.259259e+00	 5.555556e+00	 1.011051e+01
0	 7.333333e+00	 5.185185e+00	 1.011468e+01
0	 7.333333e+00	 5.259259e+00	 1.011301e+01
0	 7.333333e+00	 5.333333e+00	 1.011128e+01
0	 7.333333e+00	 5.407407e+00	 1.010950e+01
0	 7.333333e+00	 5.481481e+00	 1.010766e+01
0	 7.333333e+00	 5.555556e+00	 1.010575e+01
0	 7.407407e+00	 5.185185e+00	 1.010923e+01
0	 7.407407e+00	 5.259259e+00	 1.010770e+01
0	 7.407407e+00	 5.333333e+00	 1.010612e+01
0	 7.407407e+00	 5.407407e+00	 1.010448e+01
0	 7.407407e+00	 5.481481e+00	 1.010278e+01
0	 7.407407e+00	 5.555556e+00	 1.010101e+01
0	 7.037037e+00	 5.555556e+00	 1.012476e+01
0	 7.037037e+00	 5.629630e+00	 1.012223e+01
0	 7.037037e+00	 5.703704e+00	 1.011966e+01
0	 7.037037e+00	 5.777778e+00	 1.011707e+01
0	 7.037037e+00	 5.851852e+00	 1.011443e+01
0	 7.037037e+00	 5.925926e+00	 1.011176e+01
0	 7.111111e+00	 5.555556e+00	 1.012002e+01
0	 7.111111e+00	 5.629630e+00	 1.011763e+01
0	 7.111111e+00	 5.703704e+00	 1.011521e+01
0	 7.111111e+00	 5.777778e+00	 1.011276e+01
0	 7.111111e+00	 5.851852e+00	 1.011027e+01
0	 7.111111e+00	 5.925926e+00	 1.010773e+01
0	 7.185185e+00	 5.555556e+00	 1.011527e+01
0	 7.185185e+00	 5.629630e+00	 1.011302e+01
0	 7.185185e+00	 5.703704e+00	 1.011075e+01
0	 7.185185e+00	 5.777778e+00	 1.010844e+01
0	 7.185185e+00	 5.851852e+00	 1.010609e+01
0	 7.185185e+00	 5.925926e+00	 1.010369e+01
0	 7.259259e+00	 5.555556e+00	 1.011051e+01
0	 7.259259e+00	 5.629630e+00	 1.010841e+01
0	 7.259259e+00	 5.703704e+00	 1.010628e+01
0	 7.259259e+00	 5.777778e+00	 1.010411e+01
0	 7.259259e+00	 5.851852e+00	 1.010189e+01
0	 7.259259e+00	 5.925926e+00	 1.009964e+01
0	 7.333333e+00	 5.555556e+00	 1.010575e+01
0	 7.333333e+00	 5.629630e+00	 1.010380e+01
0	 7.333333e+00	 5.703704e+00	 1.010181e+01
0	 7.333333e+00	 5.777778e+00	 1.009977e+01
0	 7.333333e+00	 5.851852e+00	 1.009770e+01
0	 7.333333e+00	 5.925926e+00	 1.009558e+01
0	 7.407407e+00	 5.555556e+00	 1.010101e+01
0	 7.407407e+00	 5.629630e+00	 1.009920e+01
0	 7.407407e+00	 5.703704e+00	 1.009735e+01
0	 7.407407e+00	 5.777778e+00	 1.009545e+01
0	 7.407407e+00	 5.851852e+00	 1.009351e+01
0	 7.407407e+00	 5.925926e+00	 1.009152e+01
0	 7.037037e+00	 5.925926e+00	 1.011176e+01
0	 7.037037e+00	 6.000000e+00	 1.010906e+01
0	 7.037037e+00	 6.074074e+00	 1.010634e+01
0	 7.037037e+00	 6.148148e+00	 1.010362e+01
0	 7.037037e+00	 6.222222e+00	 1.010087e+01
0	 7.037037e+00	 6.296296e+00	 1.009810e+01
0	 7.111111e+00	 5.925926e+00	 1.010773e+01
0	 7.111111e+00	 6.000000e+00	 1.010517e+01
0	 7.111111e+00	 6.074074e+00	 1.010259e+01
0	 7.111111e+00	 6.148148e+00	 1.010000e+01
0	 7.111111e+00	 6.222222e+00	 1.009738e+01
0	 7.111111e+00	 6.296296e+00	 1.009474e+01
0	 7.185185e+00	 5.925926e+00	 1.010369e+01
0	 7.185185e+00	 6.000000e+00	 1.010126e+01
0	 7.185185e+00	 6.074074e+00	 1.009882e+01
0	 7.185185e+00	 6.148148e+00	 1.009636e+01
0	 7.185185e+00	 6.222222e+00	 1.009387e+01
0	 7.185185e+00	 6.296296e+00	 1.009136e+01
0	 7.259259e+00	 5.925926e+00	 1.009964e+01
0	 7.259259e+00	 6.000000e+00	 1.009734e+01
0	 7.259259e+00	 6.074074e+00	 1.009504e+01
0	 7.259259e+00	 6.148148e+00	 1.009270e+01
0	 7.259259e+00	 6.222222e+00	 1.009035e+01
0	 7.259259e+00	 6.296296e+00	 1.008796e+01
0	 7.333333e+00	 5.925926e+00	 1.009558e+01
0	 7.333333e+00	 6.000000e+00	 1.009342e+01
0	 7.333333e+00	 6.074074e+00	 1.009124e+01
0	 7.333333e+00	 6.148148e+00	 1.008904e+01
0	 7.333333e+00	 6.222222e+00	 1.008681e+01
0	 7.333333e+00	 6.296296e+00	 1.008455e+01
0	 7.407407e+00	 5.925926e+00	 1.009152e+01
0	 7.407407e+00	 6.000000e+00	 1.008950e+01
0	 7.407407e+00	 6.074074e+00	 1.008745e+01
0	 7.407407e+00	 6.148148e+00	 1.008538e+01
0	 7.407407e+00	 6.222222e+00	 1.008328e+01
0	 7.407407e+00	 6.296296e+00	 1.008114e+01
0	 7.037037e+00	 6.296296e+00	 1.009810e+01
0	 7.037037e+00	 6.370370e+00	 1.009532e+01
0	 7.037037e+00	 6.444444e+00	 1.009254e+01
0	 7.037037e+00	 6.518519e+00	 1.008976e+01
0	 7.037037e+00	 6.592593e+00	 1.008698e+01
0	 7.037037e+00	 6.666667e+00	 1.008419e+01
0	 7.111111e+00	 6.296296e+00	 1.009474e+01
0	 7.111111e+00	 6.370370e+00	 1.009209e+01
0	 7.111111e+00	 6.444444e+00	 1.008943e+01
0	 7.111111e+00	 6.518519e+00	 1.008677e+01
0	 7.111111e+00	 6.592593e+00	 1.008411e+01
0	 7.111111e+00	 6.666667e+00	 1.008143e+01
0	 7.185185e+00	 6.296296e+00	 1.009136e+01
0	 7.185185e+00	 6.370370e+00	 1.008883e+01
0	 7.185185e+00	 6.444444e+00	 1.008630e+01
0	 7.185185e+00	 6.518519e+00	 1.008376e+01
0	 7.185185e+00	 6.592593e+00	 1.008122e+01
0	 7.185185e+00	 6.666667e+00	 1.007866e+01
0	 7.259259e+00	 6.296296e+00	 1.008796e+01
0	 7.259259e+00	 6.370370e+00	 1.008556e+01
0	 7.259259e+00	 6.444444e+00	 1.008315e+01
0	 7.259259e+00	 6.518519e+00	 1.008073e+01
0	 7.259259e+00	 6.592593e+00	 1.007830e+01
0	 7.259259e+00	 6.666667e+00	 1.007586e+01
0	 7.333333e+00	 6.296296e+00	 1.008455e+01
0	 7.333333e+00	 6.370370e+00	 1.008227e+01
0	 7.333333e+00	 6.444444e+00	 1.007999e+01
0	 7.333333e+00	 6.518519e+00	 1.007769e+01
0	 7.333333e+00	 6.592593e+00	 1.007538e+01
0	 7.333333e+00	 6.666667e+00	 1.007305e+01
0	 7.407407e+00	 6.296296e+00	 1.008114e+01
0	 7.407407e+00	 6.370370e+00	 1.007899e+01
0	 7.407407e+00	 6.444444e+00	 1.007682e+01
0	 7.407407e+00	 6.518519e+00	 1.007465e+01
0	 7.407407e+00	 6.592593e+00	 1.007245e+01
0	 7.407407e+00	 6.666667e+00	 1.007024e+01
0	 7.037037e+00	 6.666667e+00	 1.008419e+01
0	 7.037037e+00	 6.740741e+00	 1.008140e+01
0	 7.037037e+00	 6.814815e+00	 1.007863e+01
0	 7.037037e+00	 6.888889e+00	 1.007587e+01
0	 7.037037e+00	 6.962963e+00	 1.007312e+01
0	 7.037037e+00	 7.037037e+00	 1.007037e+01
0	 7.111111e+00	 6.666667e+00	 1.008143e+01
0	 7.111111e+00	 6.740741e+00	 1.007876e+01
0	 7.111111e+00	 6.814815e+00	 1.007610e+01
0	 7.111111e+00	 6.888889e+00	 1.007345e+01
0	 7.111111e+00	 6.962963e+00	 1.007081e+01
0	 7.111111e+00	 7.037037e+00	 1.006817e+01
0	 7.185185e+00	 6.666667e+00	 1.007866e+01
0	 7.185185e+00	 6.740741e+00	 1.007610e+01
0	 7.185185e+00	 6.814815e+00	 1.007355e+01
0	 7.185185e+00	 6.888889e+00	 1.007101e+01
0	 7.185185e+00	 6.962963e+00	 1.006847e+01
0	 7.185185e+00	 7.037037e+00	 1.006593e+01
0	 7.259259e+00	 6.666667e+00	 1.007586e+01
0	 7.259259e+00	 6.740741e+00	 1.007342e+01
0	 7.259259e+00	 6.814815e+00	 1.007098e+01
0	 7.259259e+00	 6.888889e+00	 1.006855e+01
0	 7.259259e+00	 6.962963e+00	 1.006612e+01
0	 7.259259e+00	 7.037037e+00	 1.006368e+01
0	 7.333333e+00	 6.666667e+00	 1.007305e+01
0	 7.333333e+00	 6.740741e+00	 1.007072e+01
0	 7.333333e+00	 6.814815e+00	 1.006840e+01
0	 7.333333e+00	 6.888889e+00	 1.006607e+01
0	 7.333333e+00	 6.962963e+00	 1.006375e+01
0	 7.333333e+00	 7.037037e+00	 1.006142e+01
0	 7.407407e+00	 6.666667e+00	 1.007024e+01
0	 7.407407e+00	 6.740741e+00	 1.006802e+01
0	 7.407407e+00	 6.814815e+00	 1.006581e+01
0	 7.407407e+00	 6.888889e+00	 1.006359e+01
0	 7.407407e+00	 6.962963e+00	 1.006137e+01
0	 7.407407e+00	 7.037037e+00	 1.005915e+01
0	 7.037037e+00	 7.037037e+00	 1.007037e+01
0	 7.037037e+00	 7.111111e+00	 1.006765e+01
0	 7.037037e+00	 7.185185e+00	 1.006494e+01
0	 7.037037e+00	 7.259259e+00	 1.006227e+01
0	 7.037037e+00	 7.333333e+00	 1.005961e+01
0	 7.037037e+00	 7.407407e+00	 1.005697e+01
0	 7.111111e+00	 7.037037e+00	 1.006817e+01
0	 7.111111e+00	 7.111111e+00	 1.006554e+01
0	 7.111111e+00	 7.185185e+00	 1.006294e+01
0	 7.111111e+00	 7.259259e+00	 1.006036e+01
0	 7.111111e+00	 7.333333e+00	 1.005779e+01
0	 7.111111e+00	 7.407407e+00	 1.005525e+01
0	 7.185185e+00	 7.037037e+00	 1.006593e+01
0	 7.185185e+00	 7.111111e+00	 1.006341e+01
0	 7.185185e+00	 7.185185e+00	 1.006091e+01
0	 7.185185e+00	 7.259259e+00	 1.005842e+01
0	 7.185185e+00	 7.333333e+00	 1.005595e+01
0	 7.185185e+00	 7.407407e+00	 1.005350e+01
0	 7.259259e+00	 7.037037e+00	 1.006368e+01
0	 7.259259e+00	 7.111111e+00	 1.006126e+01
0	 7.259259e+00	 7.185185e+00	 1.005886e+01
0	 7.259259e+00	 7.259259e+00	 1.005647e+01
0	 7.259259e+00	 7.333333e+00	 1.005410e+01
0	 7.259259e+00	 7.407407e+00	 1.005173e+01
0	 7.333333e+00	 7.037037e+00	 1.006142e+01
0	 7.333333e+00	 7.111111e+00	 1.005910e+01
0	 7.333333e+00	 7.185185e+00	 1.005679e+01
0	 7.333333e+00	 7.259259e+00	 1.005450e+01
0	 7.333333e+00	 7.333333e+00	 1.005222e+01
0	 7.333333e+00	 7.407407e+00	 1.004995e+01
0	 7.407407e+00	 7.037037e+00	 1.005915e+01
0	 7.407407e+00	 7.111111e+00	 1.005693e+01
0	 7.407407e+00	 7.185185e+00	 1.005472e+01
0	 7.407407e+00	 7.259259e+00	 1.005253e+01
0	 7.407407e+00	 7.333333e+00	 1.005035e+01
0	 7.407407e+00	 7.407407e+00	 1.004817e+01
0	 7.037037e+00	 7.407407e+00	 1.005697e+01
0	 7.037037e+00	 7.481481e+00	 1.005436e+01
0	 7.037037e+00	 7.555556e+00	 1.005179e+01
0	 7.037037e+00	 7.629630e+00	 1.004925e+01
0	 7.037037e+00	 7.703704e+00	 1.004674e+01
0	 7.037037e+00	 7.777778e+00	 1.004426e+01
0	 7.111111e+00	 7.407407e+00	 1.005525e+01
0	 7.111111e+00	 7.481481e+00	 1.005272e+01
0	 7.111111e+00	 7.555556e+00	 1.005024e+01
0	 7.111111e+00	 7.629630e+00	 1.004778e+01
0	 7.111111e+00	 7.703704e+00	 1.004536e+01
0	 7.111111e+00	 7.777778e+00	 1.004296e+01
0	 7.185185e+00	 7.407407e+00	 1.005350e+01
0	 7.185185e+00	 7.481481e+00	 1.005107e+01
0	 7.185185e+00	 7.555556e+00	 1.004867e+01
0	 7.185185e+00	 7.629630e+00	 1.004630e+01
0	 7.185185e+00	 7.703704e+00	 1.004395e+01
0	 7.185185e+00	 7.777778e+00	 1.004164e+01
0	 7.259259e+00	 7.407407e+00	 1.005173e+01
0	 7.259259e+00	 7.481481e+00	 1.004939e+01
0	 7.259259e+00	 7.555556e+00	 1.004708e+01
0	 7.259259e+00	 7.629630e+00	 1.004479e+01
0	 7.259259e+00	 7.703704e+00	 1.004254e+01
0	 7.259259e+00	 7.777778e+00	 1.004030e+01
0	 7.333333e+00	 7.407407e+00	 1.004995e+01
0	 7.333333e+00	 7.481481e+00	 1.004770e+01
0	 7.333333e+00	 7.555556e+00	 1.004548e+01
0	 7.333333e+00	 7.629630e+00	 1.004328e+01
0	 7.333333e+00	 7.703704e+00	 1.004111e+01
0	 7.333333e+00	 7.777778e+00	 1.003895e+01
0	 7.407407e+00	 7.407407e+00	 1.004817e+01
0	 7.407407e+00	 7.481481e+00	 1.004601e+01
0	 7.407407e+00	 7.555556e+00	 1.004387e+01
0	 7.407407e+00	 7.629630e+00	 1.004176e+01
0	 7.407407e+00	 7.703704e+00	 1.003967e+01
0	 7.407407e+00	 7.777778e+00	 1.003760e+01
0	 7.037037e+00	 7.777778e+00	 1.004426e+01
0	 7.037037e+00	 7.851852e+00	 1.004182e+01
0	 7.037037e+00	 7.925926e+00	 1.003943e+01
0	 7.037037e+00	 8.000000e+00	 1.003709e+01
0	 7.037037e+00	 8.074074e+00	 1.003478e+01
0	 7.037037e+00	 8.148148e+00	 1.003252e+01
0	 7.111111e+00	 7.777778e+00	 1.004296e+01
0	 7.111111e+00	 7.851852e+00	 1.004060e+01
0	 7.111111e+00	 7.925926e+00	 1.003828e+01
0	 7.111111e+00	 8.000000e+00	 1.003601e+01
0	 7.111111e+00	 8.074074e+00	 1.003378e+01
0	 7.111111e+00	 8.148148e+00	 1.003158e+01
0	 7.185185e+00	 7.777778e+00	 1.004164e+01
0	 7.185185e+00	 7.851852e+00	 1.003935e+01
0	 7.185185e+00	 7.925926e+00	 1.003711e+01
0	 7.185185e+00	 8.000000e+00	 1.003491e+01
0	 7.185185e+00	 8.074074e+00	 1.003275e+01
0	 7.185185e+00	 8.148148e+00	 1.003063e+01
0	 7.259259e+00	 7.777778e+00	 1.004030e+01
0	 7.259259e+00	 7.851852e+00	 1.003809e+01
0	 7.259259e+00	 7.925926e+00	 1.003593e+01
0	 7.259259e+00	 8.000000e+00	 1.003381e+01
0	 7.259259e+00	 8.074074e+00	 1.003172e+01
0	 7.259259e+00	 8.148148e+00	 1.002966e+01
0	 7.333333e+00	 7.777778e+00	 1.003895e+01
0	 7.333333e+00	 7.851852e+00	 1.003682e+01
0	 7.333333e+00	 7.925926e+00	 1.003474e+01
0	 7.333333e+00	 8.000000e+00	 1.003269e+01
0	 7.333333e+00	 8.074074e+00	 1.003067e+01
0	 7.333333e+00	 8.148148e+00	 1.002869e+01
0	 7.407407e+00	 7.777778e+00	 1.003760e+01
0	 7.407407e+00	 7.851852e+00	 1.003555e+01
0	 7.407407e+00	 7.925926e+00	 1.003354e+01
0	 7.407407e+00	 8.000000e+00	 1.003157e+01
0	 7.407407e+00	 8.074074e+00	 1.002963e+01
0	 7.407407e+00	 8.148148e+00	 1.002771e+01
0	 7.037037e+00	 8.148148e+00	 1.003252e+01
0	 7.037037e+00	 8.222222e+00	 1.003031e+01
0	 7.037037e+00	 8.296296e+00	 1.002816e+01
0	 7.037037e+00	 8.370370e+00	 1.002606e+01
0	 7.037037e+00	 8.444444e+00	 1.002403e+01
0	 7.037037e+00	 8.518519e+00	 1.002204e+01
0	 7.111111e+00	 8.148148e+00	 1.003158e+01
0	 7.111111e+00	 8.222222e+00	 1.002944e+01
0	 7.111111e+00	 8.296296e+00	 1.002735e+01
0	 7.111111e+00	 8.370370e+00	 1.002532e+01
0	 7.111111e+00	 8.444444e+00	 1.002334e+01
0	 7.111111e+00	 8.518519e+00	 1.002141e+01
0	 7.185185e+00	 8.148148e+00	 1.003063e+01
0	 7.185185e+00	 8.222222e+00	 1.002855e+01
0	 7.185185e+00	 8.296296e+00	 1.002653e+01
0	 7.185185e+00	 8.370370e+00	 1.002456e+01
0	 7.185185e+00	 8.444444e+00	 1.002264e+01
0	 7.185185e+00	 8.518519e+00	 1.002077e+01
0	 7.259259e+00	 8.148148e+00	 1.002966e+01
0	 7.259259e+00	 8.222222e+00	 1.002765e+01
0	 7.259259e+00	 8.296296e+00	 1.002570e+01
0	 7.259259e+00	 8.370370e+00	 1.002379e+01
0	 7.259259e+00	 8.444444e+00	 1.002193e+01
0	 7.259259e+00	 8.518519e+00	 1.002012e+01
0	 7.333333e+00	 8.148148e+00	 1.002869e+01
0	 7.333333e+00	 8.222222e+00	 1.002675e+01
0	 7.333333e+00	 8.296296e+00	 1.002486e+01
0	 7.333333e+00	 8.370370e+00	 1.002302e+01
0	 7.333333e+00	 8.444444e+00	 1.002122e+01
0	 7.333333e+00	 8.518519e+00	 1.001947e+01
0	 7.407407e+00	 8.148148e+00	 1.002771e+01
0	 7.407407e+00	 8.222222e+00	 1.002584e+01
0	 7.407407e+00	 8.296296e+00	 1.002402e+01
0	 7.407407e+00	 8.370370e+00	 1.002224e+01
0	 7.407407e+00	 8.444444e+00	 1.002051e+01
0	 7.407407e+00	 8.518519e+00	 1.001881e+01
0	 7.037037e+00	 8.518519e+00	 1.002204e+01
0	 7.037037e+00	 8.592593e+00	 1.002011e+01
0	 7.037037e+00	 8.666667e+00	 1.001827e+01
0	 7.037037e+00	 8.740741e+00	 1.001649e+01
0	 7.037037e+00	 8.814815e+00	 1.001478e+01
0	 7.037037e+00	 8.888889e+00	 1.001314e+01
0	 7.111111e+00	 8.518519e+00	 1.002141e+01
0	 7.111111e+00	 8.592593e+00	 1.001954e+01
0	 7.111111e+00	 8.666667e+00	 1.001775e+01
0	 7.111111e+00	 8.740741e+00	 1.001602e+01
0	 7.111111e+00	 8.814815e+00	 1.001436e+01
0	 7.111111e+00	 8.888889e+00	 1.001276e+01
0	 7.185185e+00	 8.518519e+00	 1.002077e+01
0	 7.185185e+00	 8.592593e+00	 1.001896e+01
0	 7.185185e+00	 8.666667e+00	 1.001722e+01
0	 7.185185e+00	 8.740741e+00	 1.001554e+01
0	 7.185185e+00	 8.814815e+00	 1.001393e+01
0	 7.185185e+00	 8.888889e+00	 1.001238e+01
0	 7.259259e+00	 8.518519e+00	 1.002012e+01
0	 7.259259e+00	 8.592593e+00	 1.001837e+01
0	 7.259259e+00	 8.666667e+00	 1.001668e+01
0	 7.259259e+00	 8.740741e+00	 1.001506e+01
0	 7.259259e+00	 8.814815e+00	 1.001350e+01
0	 7.259259e+00	 8.888889e+00	 1.001200e+01
0	 7.333333e+00	 8.518519e+00	 1.001947e+01
0	 7.333333e+00	 8.592593e+00	 1.001777e+01
0	 7.333333e+00	 8.666667e+00	 1.001614e+01
0	 7.333333e+00	 8.740741e+00	 1.001457e+01
0	 7.333333e+00	 8.814815e+00	 1.001306e+01
0	 7.333333e+00	 8.888889e+00	 1.001161e+01
0	 7.407407e+00	 8.518519e+00	 1.001881e+01
0	 7.407407e+00	 8.592593e+00	 1.001717e+01
0	 7.407407e+00	 8.666667e+00	 1.001560e+01
0	 7.407407e+00	 8.740741e+00	 1.001408e+01
0	 7.407407e+00	 8.814815e+00	 1.001262e+01
0	 7.407407e+00	 8.888889e+00	 1.001122e+01
0	 7.037037e+00	 8.888889e+00	 1.001314e+01
0	 7.037037e+00	 8.962963e+00	 1.001157e+01
0	 7.037037e+00	 9.037037e+00	 1.001010e+01
0	 7.037037e+00	 9.111111e+00	 1.000871e+01
0	 7.037037e+00	 9.185185e+00	 1.000741e+01
0	 7.037037e+00	 9.259259e+00	 1.000619e+01
0	 7.111111e+00	 8.888889e+00	 1.001276e+01
0	 7.111111e+00	 8.962963e+00	 1.001124e+01
0	 7.111111e+00	 9.037037e+00	 1.000981e+01
0	 7.111111e+00	 9.111111e+00	 1.000847e+01
0	 7.111111e+00	 9.185185e+00	 1.000720e+01
0	 7.111111e+00	 9.259259e+00	 1.000601e+01
0	 7.185185e+00	 8.888889e+00	 1.001238e+01
0	 7.185185e+00	 8.962963e+00	 1.001091e+01
0	 7.185185e+00	 9.037037e+00	 1.000952e+01
0	 7.185185e+00	 9.111111e+00	 1.000821e+01
0	 7.185185e+00	 9.185185e+00	 1.000698e+01
0	 7.185185e+00	 9.259259e+00	 1.000583e+01
0	 7.259259e+00	 8.888889e+00	 1.001200e+01
0	 7.259259e+00	 8.962963e+00	 1.001056e+01
0	 7.259259e+00	 9.037037e+00	 1.000922e+01
0	 7.259259e+00	 9.111111e+00	 1.000795e+01
0	 7.259259e+00	 9.185185e+00	 1.000677e+01
0	 7.259259e+00	 9.259259e+00	 1.000565e+01
0	 7.333333e+00	 8.888889e+00	 1.001161e+01
0	 7.333333e+00	 8.962963e+00	 1.001022e+01
0	 7.333333e+00	 9.037037e+00	 1.000892e+01
0	 7.333333e+00	 9.111111e+00	 1.000770e+01
0	 7.333333e+00	 9.185185e+00	 1.000654e+01
0	 7.333333e+00	 9.259259e+00	 1.000546e+01
0	 7.407407e+00	 8.888889e+00	 1.001122e+01
0	 7.407407e+00	 8.962963e+00	 1.000988e+01
0	 7.407407e+00	 9.037037e+00	 1.000862e+01
0	 7.407407e+00	 9.111111e+00	 1.000744e+01
0	 7.407407e+00	 9.185185e+00	 1.000633e+01
0	 7.407407e+00	 9.259259e+00	 1.000528e+01
0	 7.037037e+00	 9.259259e+00	 1.000619e+01
0	 7.037037e+00	 9.333333e+00	 1.000506e+01
0	 7.037037e+00	 9.407407e+00	 1.000405e+01
0	 7.037037e+00	 9.481481e+00	 1.000315e+01
0	 7.037037e+00	 9.555556e+00	 1.000235e+01
0	 7.037037e+00	 9.629630e+00	 1.000164e+01
0	 7.111111e+00	 9.259259e+00	 1.000601e+01
0	 7.111111e+00	 9.333333e+00	 1.000492e+01
0	 7.111111e+00	 9.407407e+00	 1.000394e+01
0	 7.111111e+00	 9.481481e+00	 1.000306e+01
0	 7.111111e+00	 9.555556e+00	 1.000228e+01
0	 7.111111e+00	 9.629630e+00	 1.000160e+01
0	 7.185185e+00	 9.259259e+00	 1.000583e+01
0	 7.185185e+00	 9.333333e+00	 1.000477e+01
0	 7.185185e+00	 9.407407e+00	 1.000382e+01
0	 7.185185e+00	 9.481481e+00	 1.000296e+01
0	 7.185185e+00	 9.555556e+00	 1.000221e+01
0	 7.185185e+00	 9.629630e+00	 1.000155e+01
0	 7.259259e+00	 9.259259e+00	 1.000565e+01
0	 7.259259e+00	 9.333333e+00	 1.000462e+01
0	 7.259259e+00	 9.407407e+00	 1.000369e+01
0	 7.259259e+00	 9.481481e+00	 1.000287e+01
0	 7.259259e+00	 9.555556e+00	 1.000214e+01
0	 7.259259e+00	 9.629630e+00	 1.000150e+01
0	 7.333333e+00	 9.259259e+00	 1.000546e+01
0	 7.333333e+00	 9.333333e+00	 1.000447e+01
0	 7.333333e+00	 9.407407e+00	 1.000357e+01
0	 7.333333e+00	 9.481481e+00	 1.000277e+01
0	 7.333333e+00	 9.555556e+00	 1.000207e+01
0	 7.333333e+00	 9.629630e+00	 1.000145e+01
0	 7.407407e+00	 9.259259e+00	 1.000528e+01
0	 7.407407e+00	 9.333333e+00	 1.000432e+01
0	 7.407407e+00	 9.407407e+00	 1.000345e+01
0	 7.407407e+00	 9.481481e+00	 1.000268e+01
0	 7.407407e+00	 9.555556e+00	 1.000200e+01
0	 7.407407e+00	 9.629630e+00	 1.000140e+01
0	 7.037037e+00	 9.629630e+00	 1.000164e+01
0	 7.037037e+00	 9.703704e+00	 1.000106e+01
0	 7.037037e+00	 9.777778e+00	 1.000060e+01
0	 7.037037e+00	 9.851852e+00	 1.000028e+01
0	 7.037037e+00	 9.925926e+00	 1.000007e+01
0	 7.037037e+00	 1.000000e+01	 9.999987e+00
0	 7.111111e+00	 9.629630e+00	 1.000160e+01
0	 7.111111e+00	 9.703704e+00	 1.000103e+01
0	 7.111111e+00	 9.777778e+00	 1.000059e+01
0	 7.111111e+00	 9.851852e+00	 1.000027e+01
0	 7.111111e+00	 9.925926e+00	 1.000007e+01
0	 7.111111e+00	 1.000000e+01	 9.999990e+00
0	 7.185185e+00	 9.629630e+00	 1.000155e+01
0	 7.185185e+00	 9.703704e+00	 1.000099e+01
0	 7.185185e+00	 9.777778e+00	 1.000057e+01
0	 7.185185e+00	 9.851852e+00	 1.000026e+01
0	 7.185185e+00	 9.925926e+00	 1.000007e+01
0	 7.185185e+00	 1.000000e+01	 9.999989e+00
0	 7.259259e+00	 9.629630e+00	 1.000150e+01
0	 7.259259e+00	 9.703704e+00	 1.000096e+01
0	 7.259259e+00	 9.777778e+00	 1.000055e+01
0	 7.259259e+00	 9.851852e+00	 1.000025e+01
0	 7.259259e+00	 9.925926e+00	 1.000007e+01
0	 7.259259e+00	 1.000000e+01	 9.999988e+00
0	 7.333333e+00	 9.629630e+00	 1.000145e+01
0	 7.333333e+00	 9.703704e+00	 1.000093e+01
0	 7.333333e+00	 9.777778e+00	 1.000053e+01
0	 7.333333e+00	 9.851852e+00	 1.000024e+01
0	 7.333333e+00	 9.925926e+00	 1.000006e+01
0	 7.333333e+00	 1.000000e+01	 9.999987e+00
0	 7.407407e+00	 9.629630e+00	 1.000140e+01
0	 7.407407e+00	 9.703704e+00	 1.000090e+01
0	 7.407407e+00	 9.777778e+00	 1.000051e+01
0	 7.407407e+00	 9.851852e+00	 1.000023e+01
0	 7.407407e+00	 9.925926e+00	 1.000006e+01
0	 7.407407e+00	 1.000000e+01	 9.999990e+00
0	 7.407407e+00	 0.000000e+00	 1.004028e+01
0	 7.407407e+00	 7.407407e-02	 1.004035e+01
0	 7.407407e+00	 1.481481e-01	 1.004058e+01
0	 7.407407e+00	 2.222222e-01	 1.004097e+01
0	 7.407407e+00	 2.962963e-01	 1.004153e+01
0	 7.407407e+00	 3.703704e-01	 1.004224e+01
0	 7.481481e+00	 0.000000e+00	 1.003213e+01
0	 7.481481e+00	 7.407407e-02	 1.003219e+01
0	 7.481481e+00	 1.481481e-01	 1.003242e+01
0	 7.481481e+00	 2.222222e-01	 1.003280e+01
0	 7.481481e+00	 2.962963e-01	 1.003334e+01
0	 7.481481e+00	 3.703704e-01	 1.003403e+01
0	 7.555556e+00	 0.000000e+00	 1.002391e+01
0	 7.555556e+00	 7.407407e-02	 1.002398e+01
0	 7.555556e+00	 1.481481e-01	 1.002420e+01
0	 7.555556e+00	 2.222222e-01	 1.002457e+01
0	 7.555556e+00	 2.962963e-01	 1.002509e+01
0	 7.555556e+00	 3.703704e-01	 1.002578e+01
0	 7.629630e+00	 0.000000e+00	 1.001563e+01
0	 7.629630e+00	 7.407407e-02	 1.001570e+01
0	 7.629630e+00	 1.481481e-01	 1.001592e+01
0	 7.629630e+00	 2.222222e-01	 1.001628e+01
0	 7.629630e+00	 2.962963e-01	 1.001679e+01
0	 7.629630e+00	 3.703704e-01	 1.001746e+01
0	 7.703704e+00	 0.000000e+00	 1.000728e+01
0	 7.703704e+00	 7.407407e-02	 1.000735e+01
0	 7.703704e+00	 1.481481e-01	 1.000756e+01
0	 7.703704e+00	 2.222222e-01	 1.000792e+01
0	 7.703704e+00	 2.962963e-01	 1.000842e+01
0	 7.703704e+00	 3.703704e-01	 1.000907e+01
0	 7.777778e+00	 0.000000e+00	 9.998844e+00
0	 7.777778e+00	 7.407407e-02	 9.998919e+00
0	 7.777778e+00	 1.481481e-01	 9.999133e+00
0	 7.777778e+00	 2.222222e-01	 9.999486e+00
0	 7.777778e+00	 2.962963e-01	 9.999979e+00
0	 7.777778e+00	 3.703704e-01	 1.000061e+01
0	 7.407407e+00	 3.703704e-01	 1.004224e+01
0	 7.407407e+00	 4.444444e-01	 1.004311e+01
0	 7.407407e+00	 5.185185e-01	 1.004411e+01
0	 7.407407e+00	 5.925926e-01	 1.004524e+01
0	 7.407407e+00	 6.666667e-01	 1.004652e+01
0	 7.407407e+00	 7.407407e-01	 1.004795e+01
0	 7.481481e+00	 3.703704e-01	 1.003403e+01
0	 7.481481e+00	 4.444444e-01	 1.003488e+01
0	 7.481481e+00	 5.185185e-01	 1.003585e+01
0	 7.481481e+00	 5.925926e-01	 1.003696e+01
0	 7.481481e+00	 6.666667e-01	 1.003820e+01
0	 7.481481e+00	 7.407407e-01	 1.003959e+01
0	 7.555556e+00	 3.703704e-01	 1.002578e+01
0	 7.555556e+00	 4.444444e-01	 1.002660e+01
0	 7.555556e+00	 5.185185e-01	 1.002755e+01
0	 7.555556e+00	 5.925926e-01	 1.002863e+01
0	 7.555556e+00	 6.666667e-01	 1.002984e+01
0	 7.555556e+00	 7.407407e-01	 1.003120e+01
0	 7.629630e+00	 3.703704e-01	 1.001746e+01
0	 7.629630e+00	 4.444444e-01	 1.001826e+01
0	 7.629630e+00	 5.185185e-01	 1.001919e+01
0	 7.629630e+00	 5.925926e-01	 1.002024e+01
0	 7.629630e+00	 6.666667e-01	 1.002143e+01
0	 7.629630e+00	 7.407407e-01	 1.002276e+01
0	 7.703704e+00	 3.703704e-01	 1.000907e+01
0	 7.703704e+00	 4.444444e-01	 1.000986e+01
0	 7.703704e+00	 5.185185e-01	 1.001076e+01
0	 7.703704e+00	 5.925926e-01	 1.001180e+01
0	 7.703704e+00	 6.666667e-01	 1.001297e+01
0	 7.703704e+00	 7.407407e-01	 1.001427e+01
0	 7.777778e+00	 3.703704e-01	 1.000061e+01
0	 7.777778e+00	 4.444444e-01	 1.000138e+01
0	 7.777778e+00	 5.185185e-01	 1.000227e+01
0	 7.777778e+00	 5.925926e-01	 1.000329e+01
0	 7.777778e+00	 6.666667e-01	 1.000444e+01
0	 7.777778e+00	 7.407407e-01	 1.000572e+01
0	 7.407407e+00	 7.407407e-01	 1.004795e+01
0	 7.407407e+00	 8.148148e-01	 1.004949e+01
0	 7.407407e+00	 8.888889e-01	 1.005114e+01
0	 7.407407e+00	 9.629630e-01	 1.005289e+01
0	 7.407407e+00	 1.037037e+00	 1.005475e+01
0	 7.407407e+00	 1.111111e+00	 1.005674e+01
0	 7.481481e+00	 7.407407e-01	 1.003959e+01
0	 7.481481e+00	 8.148148e-01	 1.004110e+01
0	 7.481481e+00	 8.888889e-01	 1.004271e+01
0	 7.481481e+00	 9.629630e-01	 1.004442e+01
0	 7.481481e+00	 1.037037e+00	 1.004624e+01
0	 7.481481e+00	 1.111111e+00	 1.004818e+01
0	 7.555556e+00	 7.407407e-01	 1.003120e+01
0	 7.555556e+00	 8.148148e-01	 1.003267e+01
0	 7.555556e+00	 8.888889e-01	 1.003425e+01
0	 7.555556e+00	 9.629630e-01	 1.003592e+01
0	 7.555556e+00	 1.037037e+00	 1.003771e+01
0	 7.555556e+00	 1.111111e+00	 1.003961e+01
0	 7.629630e+00	 7.407407e-01	 1.002276e+01
0	 7.629630e+00	 8.148148e-01	 1.002421e+01
0	 7.629630e+00	 8.888889e-01	 1.002575e+01
0	 7.629630e+00	 9.629630e-01	 1.002739e+01
0	 7.629630e+00	 1.037037e+00	 1.002914e+01
0	 7.629630e+00	 1.111111e+00	 1.003101e+01
0	 7.703704e+00	 7.407407e-01	 1.001427e+01
0	 7.703704e+00	 8.148148e-01	 1.001569e+01
0	 7.703704e+00	 8.888889e-01	 1.001721e+01
0	 7.703704e+00	 9.629630e-01	 1.001882e+01
0	 7.703704e+00	 1.037037e+00	 1.002055e+01
0	 7.703704e+00	 1.111111e+00	 1.002238e+01
0	 7.777778e+00	 7.407407e-01	 1.000572e+01
0	 7.777778e+00	 8.148148e-01	 1.000712e+01
0	 7.777778e+00	 8.888889e-01	 1.000861e+01
0	 7.777778e+00	 9.629630e-01	 1.001020e+01
0	 7.777778e+00	 1.037037e+00	 1.001190e+01
0	 7.777778e+00	 1.111111e+00	 1.001371e+01
0	 7.407407e+00	 1.111111e+00	 1.005674e+01
0	 7.407407e+00	 1.185185e+00	 1.005881e+01
0	 7.407407e+00	 1.259259e+00	 1.006093e+01
0	 7.407407e+00	 1.333333e+00	 1.006312e+01
0	 7.407407e+00	 1.407407e+00	 1.006537e+01
0	 7.407407e+00	 1.481481e+00	 1.006770e+01
0	 7.481481e+00	 1.111111e+00	 1.004818e+01
0	 7.481481e+00	 1.185185e+00	 1.005020e+01
0	 7.481481e+00	 1.259259e+00	 1.005228e+01
0	 7.481481e+00	 1.333333e+00	 1.005443e+01
0	 7.481481e+00	 1.407407e+00	 1.005664e+01
0	 7.481481e+00	 1.481481e+00	 1.005893e+01
0	 7.555556e+00	 1.111111e+00	 1.003961e+01
0	 7.555556e+00	 1.185185e+00	 1.004159e+01
0	 7.555556e+00	 1.259259e+00	 1.004363e+01
0	 7.555556e+00	 1.333333e+00	 1.004573e+01
0	 7.555556e+00	 1.407407e+00	 1.004791e+01
0	 7.555556e+00	 1.481481e+00	 1.005016e+01
0	 7.629630e+00	 1.111111e+00	 1.003101e+01
0	 7.629630e+00	 1.185185e+00	 1.003296e+01
0	 7.629630e+00	 1.259259e+00	 1.003496e+01
0	 7.629630e+00	 1.333333e+00	 1.003703e+01
0	 7.629630e+00	 1.407407e+00	 1.003917e+01
0	 7.629630e+00	 1.481481e+00	 1.004139e+01
0	 7.703704e+00	 1.111111e+00	 1.002238e+01
0	 7.703704e+00	 1.185185e+00	 1.002430e+01
0	 7.703704e+00	 1.259259e+00	 1.002627e+01
0	 7.703704e+00	 1.333333e+00	 1.002831e+01
0	 7.703704e+00	 1.407407e+00	 1.003043e+01
0	 7.703704e+00	 1.481481e+00	 1.003262e+01
0	 7.777778e+00	 1.111111e+00	 1.001371e+01
0	 7.777778e+00	 1.185185e+00	 1.001560e+01
0	 7.777778e+00	 1.259259e+00	 1.001755e+01
0	 7.777778e+00	 1.333333e+00	 1.001957e+01
0	 7.777778e+00	 1.407407e+00	 1.002166e+01
0	 7.777778e+00	 1.481481e+00	 1.002383e+01
0	 7.407407e+00	 1.481481e+00	 1.006770e+01
0	 7.407407e+00	 1.555556e+00	 1.007008e+01
0	 7.407407e+00	 1.629630e+00	 1.007246e+01
0	 7.407407e+00	 1.703704e+00	 1.007485e+01
0	 7.407407e+00	 1.777778e+00	 1.007727e+01
0	 7.407407e+00	 1.851852e+00	 1.007972e+01
0	 7.481481e+00	 1.481481e+00	 1.005893e+01
0	 7.481481e+00	 1.555556e+00	 1.006126e+01
0	 7.481481e+00	 1.629630e+00	 1.006360e+01
0	 7.481481e+00	 1.703704e+00	 1.006596e+01
0	 7.481481e+00	 1.777778e+00	 1.006835e+01
0	 7.481481e+00	 1.851852e+00	 1.007077e+01
0	 7.555556e+00	 1.481481e+00	 1.005016e+01
0	 7.555556e+00	 1.555556e+00	 1.005246e+01
0	 7.555556e+00	 1.629630e+00	 1.005477e+01
0	 7.555556e+00	 1.703704e+00	 1.005710e+01
0	 7.555556e+00	 1.777778e+00	 1.005945e+01
0	 7.555556e+00	 1.851852e+00	 1.006185e+01
0	 7.629630e+00	 1.481481e+00	 1.004139e+01
0	 7.629630e+00	 1.555556e+00	 1.004366e+01
0	 7.629630e+00	 1.629630e+00	 1.004594e+01
0	 7.629630e+00	 1.703704e+00	 1.004825e+01
0	 7.629630e+00	 1.777778e+00	 1.005058e+01
0	 7.629630e+00	 1.851852e+00	 1.005296e+01
0	 7.703704e+00	 1.481481e+00	 1.003262e+01
0	 7.703704e+00	 1.555556e+00	 1.003486e+01
0	 7.703704e+00	 1.629630e+00	 1.003712e+01
0	 7.703704e+00	 1.703704e+00	 1.003940e+01
0	 7.703704e+00	 1.777778e+00	 1.004172e+01
0	 7.703704e+00	 1.851852e+00	 1.004408e+01
0	 7.777778e+00	 1.481481e+00	 1.002383e+01
0	 7.777778e+00	 1.555556e+00	 1.002605e+01
0	 7.777778e+00	 1.629630e+00	 1.002829e+01
0	 7.777778e+00	 1.703704e+00	 1.003056e+01
0	 7.777778e+00	 1.777778e+00	 1.003286e+01
0	 7.777778e+00	 1.851852e+00	 1.003521e+01
0	 7.407407e+00	 1.851852e+00	 1.007972e+01
0	 7.407407e+00	 1.925926e+00	 1.008216e+01
0	 7.407407e+00	 2.000000e+00	 1.008457e+01
0	 7.407407e+00	 2.074074e+00	 1.008695e+01
0	 7.407407e+00	 2.148148e+00	 1.008931e+01
0	 7.407407e+00	 2.222222e+00	 1.009165e+01
0	 7.481481e+00	 1.851852e+00	 1.007077e+01
0	 7.481481e+00	 1.925926e+00	 1.007319e+01
0	 7.481481e+00	 2.000000e+00	 1.007557e+01
0	 7.481481e+00	 2.074074e+00	 1.007793e+01
0	 7.481481e+00	 2.148148e+00	 1.008028e+01
0	 7.481481e+00	 2.222222e+00	 1.008261e+01
0	 7.555556e+00	 1.851852e+00	 1.006185e+01
0	 7.555556e+00	 1.925926e+00	 1.006425e+01
0	 7.555556e+00	 2.000000e+00	 1.006662e+01
0	 7.555556e+00	 2.074074e+00	 1.006897e+01
0	 7.555556e+00	 2.148148e+00	 1.007130e+01
0	 7.555556e+00	 2.222222e+00	 1.007363e+01
0	 7.629630e+00	 1.851852e+00	 1.005296e+01
0	 7.629630e+00	 1.925926e+00	 1.005534e+01
0	 7.629630e+00	 2.000000e+00	 1.005770e+01
0	 7.629630e+00	 2.074074e+00	 1.006004e+01
0	 7.629630e+00	 2.148148e+00	 1.006237e+01
0	 7.629630e+00	 2.222222e+00	 1.006470e+01
0	 7.703704e+00	 1.851852e+00	 1.004408e+01
0	 7.703704e+00	 1.925926e+00	 1.004645e+01
0	 7.703704e+00	 2.000000e+00	 1.004880e+01
0	 7.703704e+00	 2.074074e+00	 1.005113e+01
0	 7.703704e+00	 2.148148e+00	 1.005346e+01
0	 7.703704e+00	 2.222222e+00	 1.005580e+01
0	 7.777778e+00	 1.851852e+00	 1.003521e+01
0	 7.777778e+00	 1.925926e+00	 1.003757e+01
0	 7.777778e+00	 2.000000e+00	 1.003991e+01
0	 7.777778e+00	 2.074074e+00	 1.004225e+01
0	 7.777778e+00	 2.148148e+00	 1.004458e+01
0	 7.777778e+00	 2.222222e+00	 1.004692e+01
0	 7.407407e+00	 2.222222e+00	 1.009165e+01
0	 7.407407e+00	 2.296296e+00	 1.009395e+01
0	 7.407407e+00	 2.370370e+00	 1.009618e+01
0	 7.407407e+00	 2.444444e+00	 1.009834e+01
0	 7.407407e+00	 2.518519e+00	 1.010044e+01
0	 7.407407e+00	 2.592593e+00	 1.010248e+01
0	 7.481481e+00	 2.222222e+00	 1.008261e+01
0	 7.481481e+00	 2.296296e+00	 1.008491e+01
0	 7.481481e+00	 2.370370e+00	 1.008714e+01
0	 7.481481e+00	 2.444444e+00	 1.008931e+01
0	 7.481481e+00	 2.518519e+00	 1.009142e+01
0	 7.481481e+00	 2.592593e+00	 1.009348e+01
0	 7.555556e+00	 2.222222e+00	 1.007363e+01
0	 7.555556e+00	 2.296296e+00	 1.007593e+01
0	 7.555556e+00	 2.370370e+00	 1.007816e+01
0	 7.555556e+00	 2.444444e+00	 1.008034e+01
0	 7.555556e+00	 2.518519e+00	 1.008247e+01
0	 7.555556e+00	 2.592593e+00	 1.008455e+01
0	 7.629630e+00	 2.222222e+00	 1.006470e+01
0	 7.629630e+00	 2.296296e+00	 1.006700e+01
0	 7.629630e+00	 2.370370e+00	 1.006924e+01
0	 7.629630e+00	 2.444444e+00	 1.007143e+01
0	 7.629630e+00	 2.518519e+00	 1.007358e+01
0	 7.629630e+00	 2.592593e+00	 1.007568e+01
0	 7.703704e+00	 2.222222e+00	 1.005580e+01
0	 7.703704e+00	 2.296296e+00	 1.005810e+01
0	 7.703704e+00	 2.370370e+00	 1.006036e+01
0	 7.703704e+00	 2.444444e+00	 1.006257e+01
0	 7.703704e+00	 2.518519e+00	 1.006473e+01
0	 7.703704e+00	 2.592593e+00	 1.006687e+01
0	 7.777778e+00	 2.222222e+00	 1.004692e+01
0	 7.777778e+00	 2.296296e+00	 1.004924e+01
0	 7.777778e+00	 2.370370e+00	 1.005151e+01
0	 7.777778e+00	 2.444444e+00	 1.005374e+01
0	 7.777778e+00	 2.518519e+00	 1.005593e+01
0	 7.777778e+00	 2.592593e+00	 1.005810e+01
0	 7.407407e+00	 2.592593e+00	 1.010248e+01
0	 7.407407e+00	 2.666667e+00	 1.010445e+01
0	 7.407407e+00	 2.740741e+00	 1.010632e+01
0	 7.407407e+00	 2.814815e+00	 1.010810e+01
0	 7.407407e+00	 2.888889e+00	 1.010979e+01
0	 7.407407e+00	 2.962963e+00	 1.011139e+01
0	 7.481481e+00	 2.592593e+00	 1.009348e+01
0	 7.481481e+00	 2.666667e+00	 1.009548e+01
0	 7.481481e+00	 2.740741e+00	 1.009738e+01
0	 7.481481e+00	 2.814815e+00	 1.009919e+01
0	 7.481481e+00	 2.888889e+00	 1.010092e+01
0	 7.481481e+00	 2.962963e+00	 1.010257e+01
0	 7.555556e+00	 2.592593e+00	 1.008455e+01
0	 7.555556e+00	 2.666667e+00	 1.008657e+01
0	 7.555556e+00	 2.740741e+00	 1.008851e+01
0	 7.555556e+00	 2.814815e+00	 1.009035e+01
0	 7.555556e+00	 2.888889e+00	 1.009213e+01
0	 7.555556e+00	 2.962963e+00	 1.009383e+01
0	 7.629630e+00	 2.592593e+00	 1.007568e+01
0	 7.629630e+00	 2.666667e+00	 1.007773e+01
0	 7.629630e+00	 2.740741e+00	 1.007970e+01
0	 7.629630e+00	 2.814815e+00	 1.008159e+01
0	 7.629630e+00	 2.888889e+00	 1.008340e+01
0	 7.629630e+00	 2.962963e+00	 1.008515e+01
0	 7.703704e+00	 2.592593e+00	 1.006687e+01
0	 7.703704e+00	 2.666667e+00	 1.006895e+01
0	 7.703704e+00	 2.740741e+00	 1.007095e+01
0	 7.703704e+00	 2.814815e+00	 1.007288e+01
0	 7.703704e+00	 2.888889e+00	 1.007474e+01
0	 7.703704e+00	 2.962963e+00	 1.007655e+01
0	 7.777778e+00	 2.592593e+00	 1.005810e+01
0	 7.777778e+00	 2.666667e+00	 1.006021e+01
0	 7.777778e+00	 2.740741e+00	 1.006225e+01
0	 7.777778e+00	 2.814815e+00	 1.006423e+01
0	 7.777778e+00	 2.888889e+00	 1.006614e+01
0	 7.777778e+00	 2.962963e+00	 1.006799e+01
0	 7.407407e+00	 2.962963e+00	 1.011139e+01
0	 7.407407e+00	 3.037037e+00	 1.011289e+01
0	 7.407407e+00	 3.111111e+00	 1.011428e+01
0	 7.407407e+00	 3.185185e+00	 1.011556e+01
0	 7.407407e+00	 3.259259e+00	 1.011673e+01
0	 7.407407e+00	 3.333333e+00	 1.011780e+01
0	 7.481481e+00	 2.962963e+00	 1.010257e+01
0	 7.481481e+00	 3.037037e+00	 1.010413e+01
0	 7.481481e+00	 3.111111e+00	 1.010557e+01
0	 7.481481e+00	 3.185185e+00	 1.010692e+01
0	 7.481481e+00	 3.259259e+00	 1.010816e+01
0	 7.481481e+00	 3.333333e+00	 1.010930e+01
0	 7.555556e+00	 2.962963e+00	 1.009383e+01
0	 7.555556e+00	 3.037037e+00	 1.009544e+01
0	 7.555556e+00	 3.111111e+00	 1.009695e+01
0	 7.555556e+00	 3.185185e+00	 1.009835e+01
0	 7.555556e+00	 3.259259e+00	 1.009967e+01
0	 7.555556e+00	 3.333333e+00	 1.010088e+01
0	 7.629630e+00	 2.962963e+00	 1.008515e+01
0	 7.629630e+00	 3.037037e+00	 1.008682e+01
0	 7.629630e+00	 3.111111e+00	 1.008839e+01
0	 7.629630e+00	 3.185185e+00	 1.008986e+01
0	 7.629630e+00	 3.259259e+00	 1.009125e+01
0	 7.629630e+00	 3.333333e+00	 1.009254e+01
0	 7.703704e+00	 2.962963e+00	 1.007655e+01
0	 7.703704e+00	 3.037037e+00	 1.007827e+01
0	 7.703704e+00	 3.111111e+00	 1.007990e+01
0	 7.703704e+00	 3.185185e+00	 1.008144e+01
0	 7.703704e+00	 3.259259e+00	 1.008289e+01
0	 7.703704e+00	 3.333333e+00	 1.008427e+01
0	 7.777778e+00	 2.962963e+00	 1.006799e+01
0	 7.777778e+00	 3.037037e+00	 1.006977e+01
0	 7.777778e+00	 3.111111e+00	 1.007147e+01
0	 7.777778e+00	 3.185185e+00	 1.007308e+01
0	 7.777778e+00	 3.259259e+00	 1.007461e+01
0	 7.777778e+00	 3.333333e+00	 1.007606e+01
0	 7.407407e+00	 3.333333e+00	 1.011780e+01
0	 7.407407e+00	 3.407407e+00	 1.011875e+01
0	 7.407407e+00	 3.481481e+00	 1.011959e+01
0	 7.407407e+00	 3.555556e+00	 1.012031e+01
0	 7.407407e+00	 3.629630e+00	 1.012091e+01
0	 7.407407e+00	 3.703704e+00	 1.012141e+01
0	 7.481481e+00	 3.333333e+00	 1.010930e+01
0	 7.481481e+00	 3.407407e+00	 1.011034e+01
0	 7.481481e+00	 3.481481e+00	 1.011126e+01
0	 7.481481e+00	 3.555556e+00	 1.011207e+01
0	 7.481481e+00	 3.629630e+00	 1.011277e+01
0	 7.481481e+00	 3.703704e+00	 1.011337e+01
0	 7.555556e+00	 3.333333e+00	 1.010088e+01
0	 7.555556e+00	 3.407407e+00	 1.010200e+01
0	 7.555556e+00	 3.481481e+00	 1.010301e+01
0	 7.555556e+00	 3.555556e+00	 1.010391e+01
0	 7.555556e+00	 3.629630e+00	 1.010471e+01
0	 7.555556e+00	 3.703704e+00	 1.010540e+01
0	 7.629630e+00	 3.333333e+00	 1.009254e+01
0	 7.629630e+00	 3.407407e+00	 1.009374e+01
0	 7.629630e+00	 3.481481e+00	 1.009483e+01
0	 7.629630e+00	 3.555556e+00	 1.009583e+01
0	 7.629630e+00	 3.629630e+00	 1.009672e+01
0	 7.629630e+00	 3.703704e+00	 1.009751e+01
0	 7.703704e+00	 3.333333e+00	 1.008427e+01
0	 7.703704e+00	 3.407407e+00	 1.008555e+01
0	 7.703704e+00	 3.481481e+00	 1.008673e+01
0	 7.703704e+00	 3.555556e+00	 1.008781e+01
0	 7.703704e+00	 3.629630e+00	 1.008879e+01
0	 7.703704e+00	 3.703704e+00	 1.008968e+01
0	 7.777778e+00	 3.333333e+00	 1.007606e+01
0	 7.777778e+00	 3.407407e+00	 1.007742e+01
0	 7.777778e+00	 3.481481e+00	 1.007868e+01
0	 7.777778e+00	 3.555556e+00	 1.007986e+01
0	 7.777778e+00	 3.629630e+00	 1.008094e+01
0	 7.777778e+00	 3.703704e+00	 1.008192e+01
0	 7.407407e+00	 3.703704e+00	 1.012141e+01
0	 7.407407e+00	 3.777778e+00	 1.012178e+01
0	 7.407407e+00	 3.851852e+00	 1.012205e+01
0	 7.407407e+00	 3.925926e+00	 1.012220e+01
0	 7.407407e+00	 4.000000e+00	 1.012223e+01
0	 7.407407e+00	 4.074074e+00	 1.012216e+01
0	 7.481481e+00	 3.703704e+00	 1.011337e+01
0	 7.481481e+00	 3.777778e+00	 1.011385e+01
0	 7.481481e+00	 3.851852e+00	 1.011422e+01
0	 7.481481e+00	 3.925926e+00	 1.011449e+01
0	 7.481481e+00	 4.000000e+00	 1.011464e+01
0	 7.481481e+00	 4.074074e+00	 1.011468e+01
0	 7.555556e+00	 3.703704e+00	 1.010540e+01
0	 7.555556e+00	 3.777778e+00	 1.010599e+01
0	 7.555556e+00	 3.851852e+00	 1.010647e+01
0	 7.555556e+00	 3.925926e+00	 1.010684e+01
0	 7.555556e+00	 4.000000e+00	 1.010711e+01
0	 7.555556e+00	 4.074074e+00	 1.010727e+01
0	 7.629630e+00	 3.703704e+00	 1.009751e+01
0	 7.629630e+00	 3.777778e+00	 1.009820e+01
0	 7.629630e+00	 3.851852e+00	 1.009878e+01
0	 7.629630e+00	 3.925926e+00	 1.009927e+01
0	 7.629630e+00	 4.000000e+00	 1.009965e+01
0	 7.629630e+00	 4.074074e+00	 1.009993e+01
0	 7.703704e+00	 3.703704e+00	 1.008968e+01
0	 7.703704e+00	 3.777778e+00	 1.009047e+01
0	 7.703704e+00	 3.851852e+00	 1.009117e+01
0	 7.703704e+00	 3.925926e+00	 1.009176e+01
0	 7.703704e+00	 4.000000e+00	 1.009225e+01
0	 7.703704e+00	 4.074074e+00	 1.009265e+01
0	 7.777778e+00	 3.703704e+00	 1.008192e+01
0	 7.777778e+00	 3.777778e+00	 1.008282e+01
0	 7.777778e+00	 3.851852e+00	 1.008362e+01
0	 7.777778e+00	 3.925926e+00	 1.008432e+01
0	 7.777778e+00	 4.000000e+00	 1.008492e+01
0	 7.777778e+00	 4.074074e+00	 1.008543e+01
0	 7.407407e+00	 4.074074e+00	 1.012216e+01
0	 7.407407e+00	 4.148148e+00	 1.012197e+01
0	 7.407407e+00	 4.222222e+00	 1.012168e+01
0	 7.407407e+00	 4.296296e+00	 1.012128e+01
0	 7.407407e+00	 4.370370e+00	 1.012078e+01
0	 7.407407e+00	 4.444444e+00	 1.012018e+01
0	 7.481481e+00	 4.074074e+00	 1.011468e+01
0	 7.481481e+00	 4.148148e+00	 1.011462e+01
0	 7.481481e+00	 4.222222e+00	 1.011445e+01
0	 7.481481e+00	 4.296296e+00	 1.011419e+01
0	 7.481481e+00	 4.370370e+00	 1.011382e+01
0	 7.481481e+00	 4.444444e+00	 1.011335e+01
0	 7.555556e+00	 4.074074e+00	 1.010727e+01
0	 7.555556e+00	 4.148148e+00	 1.010733e+01
0	 7.555556e+00	 4.222222e+00	 1.010729e+01
0	 7.555556e+00	 4.296296e+00	 1.010715e+01
0	 7.555556e+00	 4.370370e+00	 1.010691e+01
0	 7.555556e+00	 4.444444e+00	 1.010657e+01
0	 7.629630e+00	 4.074074e+00	 1.009993e+01
0	 7.629630e+00	 4.148148e+00	 1.010011e+01
0	 7.629630e+00	 4.222222e+00	 1.010019e+01
0	 7.629630e+00	 4.296296e+00	 1.010017e+01
0	 7.629630e+00	 4.370370e+00	 1.010006e+01
0	 7.629630e+00	 4.444444e+00	 1.009985e+01
0	 7.703704e+00	 4.074074e+00	 1.009265e+01
0	 7.703704e+00	 4.148148e+00	 1.009294e+01
0	 7.703704e+00	 4.222222e+00	 1.009315e+01
0	 7.703704e+00	 4.296296e+00	 1.009326e+01
0	 7.703704e+00	 4.370370e+00	 1.009327e+01
0	 7.703704e+00	 4.444444e+00	 1.009318e+01
0	 7.777778e+00	 4.074074e+00	 1.008543e+01
0	 7.777778e+00	 4.148148e+00	 1.008585e+01
0	 7.777778e+00	 4.222222e+00	 1.008617e+01
0	 7.777778e+00	 4.296296e+00	 1.008640e+01
0	 7.777778e+00	 4.370370e+00	 1.008654e+01
0	 7.777778e+00	 4.444444e+00	 1.008658e+01
0	 7.407407e+00	 4.444444e+00	 1.012018e+01
0	 7.407407e+00	 4.518519e+00	 1.011947e+01
0	 7.407407e+00	 4.592593e+00	 1.011868e+01
0	 7.407407e+00	 4.666667e+00	 1.011780e+01
0	 7.407407e+00	 4.740741e+00	 1.011682e+01
0	 7.407407e+00	 4.814815e+00	 1.011575e+01
0	 7.481481e+00	 4.444444e+00	 1.011335e+01
0	 7.481481e+00	 4.518519e+00	 1.011278e+01
0	 7.481481e+00	 4.592593e+00	 1.011212e+01
0	 7.481481e+00	 4.666667e+00	 1.011138e+01
0	 7.481481e+00	 4.740741e+00	 1.011054e+01
0	 7.481481e+00	 4.814815e+00	 1.010961e+01
0	 7.555556e+00	 4.444444e+00	 1.010657e+01
0	 7.555556e+00	 4.518519e+00	 1.010613e+01
0	 7.555556e+00	 4.592593e+00	 1.010561e+01
0	 7.555556e+00	 4.666667e+00	 1.010500e+01
0	 7.555556e+00	 4.740741e+00	 1.010430e+01
0	 7.555556e+00	 4.814815e+00	 1.010351e+01
0	 7.629630e+00	 4.444444e+00	 1.009985e+01
0	 7.629630e+00	 4.518519e+00	 1.009954e+01
0	 7.629630e+00	 4.592593e+00	 1.009915e+01
0	 7.629630e+00	 4.666667e+00	 1.009868e+01
0	 7.629630e+00	 4.740741e+00	 1.009811e+01
0	 7.629630e+00	 4.814815e+00	 1.009746e+01
0	 7.703704e+00	 4.444444e+00	 1.009318e+01
0	 7.703704e+00	 4.518519e+00	 1.009301e+01
0	 7.703704e+00	 4.592593e+00	 1.009275e+01
0	 7.703704e+00	 4.666667e+00	 1.009241e+01
0	 7.703704e+00	 4.740741e+00	 1.009197e+01
0	 7.703704e+00	 4.814815e+00	 1.009145e+01
0	 7.777778e+00	 4.444444e+00	 1.008658e+01
0	 7.777778e+00	 4.518519e+00	 1.008654e+01
0	 7.777778e+00	 4.592593e+00	 1.008641e+01
0	 7.777778e+00	 4.666667e+00	 1.008619e+01
0	 7.777778e+00	 4.740741e+00	 1.008589e+01
0	 7.777778e+00	 4.814815e+00	 1.008550e+01
0	 7.407407e+00	 4.814815e+00	 1.011575e+01
0	 7.407407e+00	 4.888889e+00	 1.011459e+01
0	 7.407407e+00	 4.962963e+00	 1.011336e+01
0	 7.407407e+00	 5.037037e+00	 1.011206e+01
0	 7.407407e+00	 5.111111e+00	 1.011068e+01
0	 7.407407e+00	 5.185185e+00	 1.010923e+01
0	 7.481481e+00	 4.814815e+00	 1.010961e+01
0	 7.481481e+00	 4.888889e+00	 1.010859e+01
0	 7.481481e+00	 4.962963e+00	 1.010751e+01
0	 7.481481e+00	 5.037037e+00	 1.010635e+01
0	 7.481481e+00	 5.111111e+00	 1.010511e+01
0	 7.481481e+00	 5.185185e+00	 1.010380e+01
0	 7.555556e+00	 4.814815e+00	 1.010351e+01
0	 7.555556e+00	 4.888889e+00	 1.010264e+01
0	 7.555556e+00	 4.962963e+00	 1.010169e+01
0	 7.555556e+00	 5.037037e+00	 1.010067e+01
0	 7.555556e+00	 5.111111e+00	 1.009957e+01
0	 7.555556e+00	 5.185185e+00	 1.009840e+01
0	 7.629630e+00	 4.814815e+00	 1.009746e+01
0	 7.629630e+00	 4.888889e+00	 1.009672e+01
0	 7.629630e+00	 4.962963e+00	 1.009591e+01
0	 7.629630e+00	 5.037037e+00	 1.009503e+01
0	 7.629630e+00	 5.111111e+00	 1.009407e+01
0	 7.629630e+00	 5.185185e+00	 1.009303e+01
0	 7.703704e+00	 4.814815e+00	 1.009145e+01
0	 7.703704e+00	 4.888889e+00	 1.009085e+01
0	 7.703704e+00	 4.962963e+00	 1.009018e+01
0	 7.703704e+00	 5.037037e+00	 1.008943e+01
0	 7.703704e+00	 5.111111e+00	 1.008861e+01
0	 7.703704e+00	 5.185185e+00	 1.008771e+01
0	 7.777778e+00	 4.814815e+00	 1.008550e+01
0	 7.777778e+00	 4.888889e+00	 1.008504e+01
0	 7.777778e+00	 4.962963e+00	 1.008450e+01
0	 7.777778e+00	 5.037037e+00	 1.008388e+01
0	 7.777778e+00	 5.111111e+00	 1.008320e+01
0	 7.777778e+00	 5.185185e+00	 1.008243e+01
0	 7.407407e+00	 5.185185e+00	 1.010923e+01
0	 7.407407e+00	 5.259259e+00	 1.010770e+01
0	 7.407407e+00	 5.333333e+00	 1.010612e+01
0	 7.407407e+00	 5.407407e+00	 1.010448e+01
0	 7.407407e+00	 5.481481e+00	 1.010278e+01
0	 7.407407e+00	 5.555556e+00	 1.010101e+01
0	 7.481481e+00	 5.185185e+00	 1.010380e+01
0	 7.481481e+00	 5.259259e+00	 1.010241e+01
0	 7.481481e+00	 5.333333e+00	 1.010097e+01
0	 7.481481e+00	 5.407407e+00	 1.009947e+01
0	 7.481481e+00	 5.481481e+00	 1.009791e+01
0	 7.481481e+00	 5.555556e+00	 1.009629e+01
0	 7.555556e+00	 5.185185e+00	 1.009840e+01
0	 7.555556e+00	 5.259259e+00	 1.009715e+01
0	 7.555556e+00	 5.333333e+00	 1.009585e+01
0	 7.555556e+00	 5.407407e+00	 1.009449e+01
0	 7.555556e+00	 5.481481e+00	 1.009307e+01
0	 7.555556e+00	 5.555556e+00	 1.009158e+01
0	 7.629630e+00	 5.185185e+00	 1.009303e+01
0	 7.629630e+00	 5.259259e+00	 1.009192e+01
0	 7.629630e+00	 5.333333e+00	 1.009076e+01
0	 7.629630e+00	 5.407407e+00	 1.008954e+01
0	 7.629630e+00	 5.481481e+00	 1.008825e+01
0	 7.629630e+00	 5.555556e+00	 1.008690e+01
0	 7.703704e+00	 5.185185e+00	 1.008771e+01
0	 7.703704e+00	 5.259259e+00	 1.008674e+01
0	 7.703704e+00	 5.333333e+00	 1.008571e+01
0	 7.703704e+00	 5.407407e+00	 1.008462e+01
0	 7.703704e+00	 5.481481e+00	 1.008347e+01
0	 7.703704e+00	 5.555556e+00	 1.008225e+01
0	 7.777778e+00	 5.185185e+00	 1.008243e+01
0	 7.777778e+00	 5.259259e+00	 1.008159e+01
0	 7.777778e+00	 5.333333e+00	 1.008070e+01
0	 7.777778e+00	 5.407407e+00	 1.007974e+01
0	 7.777778e+00	 5.481481e+00	 1.007873e+01
0	 7.777778e+00	 5.555556e+00	 1.007764e+01
0	 7.407407e+00	 5.555556e+00	 1.010101e+01
0	 7.407407e+00	 5.629630e+00	 1.009920e+01
0	 7.407407e+00	 5.703704e+00	 1.009735e+01
0	 7.407407e+00	 5.777778e+00	 1.009545e+01
0	 7.407407e+00	 5.851852e+00	 1.009351e+01
0	 7.407407e+00	 5.925926e+00	 1.009152e+01
0	 7.481481e+00	 5.555556e+00	 1.009629e+01
0	 7.481481e+00	 5.629630e+00	 1.009461e+01
0	 7.481481e+00	 5.703704e+00	 1.009290e+01
0	 7.481481e+00	 5.777778e+00	 1.009114e+01
0	 7.481481e+00	 5.851852e+00	 1.008933e+01
0	 7.481481e+00	 5.925926e+00	 1.008748e+01
0	 7.555556e+00	 5.555556e+00	 1.009158e+01
0	 7.555556e+00	 5.629630e+00	 1.009004e+01
0	 7.555556e+00	 5.703704e+00	 1.008846e+01
0	 7.555556e+00	 5.777778e+00	 1.008684e+01
0	 7.555556e+00	 5.851852e+00	 1.008516e+01
0	 7.555556e+00	 5.925926e+00	 1.008344e+01
0	 7.629630e+00	 5.555556e+00	 1.008690e+01
0	 7.629630e+00	 5.629630e+00	 1.008550e+01
0	 7.629630e+00	 5.703704e+00	 1.008405e+01
0	 7.629630e+00	 5.777778e+00	 1.008255e+01
0	 7.629630e+00	 5.851852e+00	 1.008101e+01
0	 7.629630e+00	 5.925926e+00	 1.007942e+01
0	 7.703704e+00	 5.555556e+00	 1.008225e+01
0	 7.703704e+00	 5.629630e+00	 1.008098e+01
0	 7.703704e+00	 5.703704e+00	 1.007966e+01
0	 7.703704e+00	 5.777778e+00	 1.007830e+01
0	 7.703704e+00	 5.851852e+00	 1.007689e+01
0	 7.703704e+00	 5.925926e+00	 1.007542e+01
0	 7.777778e+00	 5.555556e+00	 1.007764e+01
0	 7.777778e+00	 5.629630e+00	 1.007650e+01
0	 7.777778e+00	 5.703704e+00	 1.007532e+01
0	 7.777778e+00	 5.777778e+00	 1.007408e+01
0	 7.777778e+00	 5.851852e+00	 1.007280e+01
0	 7.777778e+00	 5.925926e+00	 1.007146e+01
0	 7.407407e+00	 5.925926e+00	 1.009152e+01
0	 7.407407e+00	 6.000000e+00	 1.008950e+01
0	 7.407407e+00	 6.074074e+00	 1.008745e+01
0	 7.407407e+00	 6.148148e+00	 1.008538e+01
0	 7.407407e+00	 6.222222e+00	 1.008328e+01
0	 7.407407e+00	 6.296296e+00	 1.008114e+01
0	 7.481481e+00	 5.925926e+00	 1.008748e+01
0	 7.481481e+00	 6.000000e+00	 1.008558e+01
0	 7.481481e+00	 6.074074e+00	 1.008367e+01
0	 7.481481e+00	 6.148148e+00	 1.008172e+01
0	 7.481481e+00	 6.222222e+00	 1.007975e+01
0	 7.481481e+00	 6.296296e+00	 1.007774e+01
0	 7.555556e+00	 5.925926e+00	 1.008344e+01
0	 7.555556e+00	 6.000000e+00	 1.008168e+01
0	 7.555556e+00	 6.074074e+00	 1.007989e+01
0	 7.555556e+00	 6.148148e+00	 1.007807e+01
0	 7.555556e+00	 6.222222e+00	 1.007622e+01
0	 7.555556e+00	 6.296296e+00	 1.007433e+01
0	 7.629630e+00	 5.925926e+00	 1.007942e+01
0	 7.629630e+00	 6.000000e+00	 1.007779e+01
0	 7.629630e+00	 6.074074e+00	 1.007613e+01
0	 7.629630e+00	 6.148148e+00	 1.007443e+01
0	 7.629630e+00	 6.222222e+00	 1.007270e+01
0	 7.629630e+00	 6.296296e+00	 1.007094e+01
0	 7.703704e+00	 5.925926e+00	 1.007542e+01
0	 7.703704e+00	 6.000000e+00	 1.007392e+01
0	 7.703704e+00	 6.074074e+00	 1.007238e+01
0	 7.703704e+00	 6.148148e+00	 1.007081e+01
0	 7.703704e+00	 6.222222e+00	 1.006921e+01
0	 7.703704e+00	 6.296296e+00	 1.006756e+01
0	 7.777778e+00	 5.925926e+00	 1.007146e+01
0	 7.777778e+00	 6.000000e+00	 1.007008e+01
0	 7.777778e+00	 6.074074e+00	 1.006867e+01
0	 7.777778e+00	 6.148148e+00	 1.006722e+01
0	 7.777778e+00	 6.222222e+00	 1.006574e+01
0	 7.777778e+00	 6.296296e+00	 1.006421e+01
0	 7.407407e+00	 6.296296e+00	 1.008114e+01
0	 7.407407e+00	 6.370370e+00	 1.007899e+01
0	 7.407407e+00	 6.444444e+00	 1.007682e+01
0	 7.407407e+00	 6.518519e+00	 1.007465e+01
0	 7.407407e+00	 6.592593e+00	 1.007245e+01
0	 7.407407e+00	 6.666667e+00	 1.007024e+01
0	 7.481481e+00	 6.296296e+00	 1.007774e+01
0	 7.481481e+00	 6.370370e+00	 1.007570e+01
0	 7.481481e+00	 6.444444e+00	 1.007366e+01
0	 7.481481e+00	 6.518519e+00	 1.007160e+01
0	 7.481481e+00	 6.592593e+00	 1.006952e+01
0	 7.481481e+00	 6.666667e+00	 1.006743e+01
0	 7.555556e+00	 6.296296e+00	 1.007433e+01
0	 7.555556e+00	 6.370370e+00	 1.007242e+01
0	 7.555556e+00	 6.444444e+00	 1.007050e+01
0	 7.555556e+00	 6.518519e+00	 1.006855e+01
0	 7.555556e+00	 6.592593e+00	 1.006659e+01
0	 7.555556e+00	 6.666667e+00	 1.006461e+01
0	 7.629630e+00	 6.296296e+00	 1.007094e+01
0	 7.629630e+00	 6.370370e+00	 1.006915e+01
0	 7.629630e+00	 6.444444e+00	 1.006734e+01
0	 7.629630e+00	 6.518519e+00	 1.006552e+01
0	 7.629630e+00	 6.592593e+00	 1.006367e+01
0	 7.629630e+00	 6.666667e+00	 1.006180e+01
0	 7.703704e+00	 6.296296e+00	 1.006756e+01
0	 7.703704e+00	 6.370370e+00	 1.006589e+01
0	 7.703704e+00	 6.444444e+00	 1.006420e+01
0	 7.703704e+00	 6.518519e+00	 1.006249e+01
0	 7.703704e+00	 6.592593e+00	 1.006076e+01
0	 7.703704e+00	 6.666667e+00	 1.005900e+01
0	 7.777778e+00	 6.296296e+00	 1.006421e+01
0	 7.777778e+00	 6.370370e+00	 1.006266e+01
0	 7.777778e+00	 6.444444e+00	 1.006108e+01
0	 7.777778e+00	 6.518519e+00	 1.005949e+01
0	 7.777778e+00	 6.592593e+00	 1.005787e+01
0	 7.777778e+00	 6.666667e+00	 1.005622e+01
0	 7.407407e+00	 6.666667e+00	 1.007024e+01
0	 7.407407e+00	 6.740741e+00	 1.006802e+01
0	 7.407407e+00	 6.814815e+00	 1.006581e+01
0	 7.407407e+00	 6.888889e+00	 1.006359e+01
0	 7.407407e+00	 6.962963e+00	 1.006137e+01
0	 7.407407e+00	 7.037037e+00	 1.005915e+01
0	 7.481481e+00	 6.666667e+00	 1.006743e+01
0	 7.481481e+00	 6.740741e+00	 1.006532e+01
0	 7.481481e+00	 6.814815e+00	 1.006321e+01
0	 7.481481e+00	 6.888889e+00	 1.006111e+01
0	 7.481481e+00	 6.962963e+00	 1.005899e+01
0	 7.481481e+00	 7.037037e+00	 1.005687e+01
0	 7.555556e+00	 6.666667e+00	 1.006461e+01
0	 7.555556e+00	 6.740741e+00	 1.006261e+01
0	 7.555556e+00	 6.814815e+00	 1.006062e+01
0	 7.555556e+00	 6.888889e+00	 1.005862e+01
0	 7.555556e+00	 6.962963e+00	 1.005661e+01
0	 7.555556e+00	 7.037037e+00	 1.005459e+01
0	 7.629630e+00	 6.666667e+00	 1.006180e+01
0	 7.629630e+00	 6.740741e+00	 1.005991e+01
0	 7.629630e+00	 6.814815e+00	 1.005803e+01
0	 7.629630e+00	 6.888889e+00	 1.005613e+01
0	 7.629630e+00	 6.962963e+00	 1.005423e+01
0	 7.629630e+00	 7.037037e+00	 1.005231e+01
0	 7.703704e+00	 6.666667e+00	 1.005900e+01
0	 7.703704e+00	 6.740741e+00	 1.005722e+01
0	 7.703704e+00	 6.814815e+00	 1.005544e+01
0	 7.703704e+00	 6.888889e+00	 1.005365e+01
0	 7.703704e+00	 6.962963e+00	 1.005185e+01
0	 7.703704e+00	 7.037037e+00	 1.005004e+01
0	 7.777778e+00	 6.666667e+00	 1.005622e+01
0	 7.777778e+00	 6.740741e+00	 1.005455e+01
0	 7.777778e+00	 6.814815e+00	 1.005288e+01
0	 7.777778e+00	 6.888889e+00	 1.005119e+01
0	 7.777778e+00	 6.962963e+00	 1.004950e+01
0	 7.777778e+00	 7.037037e+00	 1.004778e+01
0	 7.407407e+00	 7.037037e+00	 1.005915e+01
0	 7.407407e+00	 7.111111e+00	 1.005693e+01
0	 7.407407e+00	 7.185185e+00	 1.005472e+01
0	 7.407407e+00	 7.259259e+00	 1.005253e+01
0	 7.407407e+00	 7.333333e+00	 1.005035e+01
0	 7.407407e+00	 7.407407e+00	 1.004817e+01
0	 7.481481e+00	 7.037037e+00	 1.005687e+01
0	 7.481481e+00	 7.111111e+00	 1.005475e+01
0	 7.481481e+00	 7.185185e+00	 1.005265e+01
0	 7.481481e+00	 7.259259e+00	 1.005055e+01
0	 7.481481e+00	 7.333333e+00	 1.004846e+01
0	 7.481481e+00	 7.407407e+00	 1.004638e+01
0	 7.555556e+00	 7.037037e+00	 1.005459e+01
0	 7.555556e+00	 7.111111e+00	 1.005257e+01
0	 7.555556e+00	 7.185185e+00	 1.005057e+01
0	 7.555556e+00	 7.259259e+00	 1.004857e+01
0	 7.555556e+00	 7.333333e+00	 1.004657e+01
0	 7.555556e+00	 7.407407e+00	 1.004458e+01
0	 7.629630e+00	 7.037037e+00	 1.005231e+01
0	 7.629630e+00	 7.111111e+00	 1.005040e+01
0	 7.629630e+00	 7.185185e+00	 1.004849e+01
0	 7.629630e+00	 7.259259e+00	 1.004659e+01
0	 7.629630e+00	 7.333333e+00	 1.004469e+01
0	 7.629630e+00	 7.407407e+00	 1.004279e+01
0	 7.703704e+00	 7.037037e+00	 1.005004e+01
0	 7.703704e+00	 7.111111e+00	 1.004823e+01
0	 7.703704e+00	 7.185185e+00	 1.004641e+01
0	 7.703704e+00	 7.259259e+00	 1.004461e+01
0	 7.703704e+00	 7.333333e+00	 1.004280e+01
0	 7.703704e+00	 7.407407e+00	 1.004099e+01
0	 7.777778e+00	 7.037037e+00	 1.004778e+01
0	 7.777778e+00	 7.111111e+00	 1.004607e+01
0	 7.777778e+00	 7.185185e+00	 1.004435e+01
0	 7.777778e+00	 7.259259e+00	 1.004264e+01
0	 7.777778e+00	 7.333333e+00	 1.004093e+01
0	 7.777778e+00	 7.407407e+00	 1.003921e+01
0	 7.407407e+00	 7.407407e+00	 1.004817e+01
0	 7.407407e+00	 7.481481e+00	 1.004601e+01
0	 7.407407e+00	 7.555556e+00	 1.004387e+01
0	 7.407407e+00	 7.629630e+00	 1.004176e+01
0	 7.407407e+00	 7.703704e+00	 1.003967e+01
0	 7.407407e+00	 7.777778e+00	 1.003760e+01
0	 7.481481e+00	 7.407407e+00	 1.004638e+01
0	 7.481481e+00	 7.481481e+00	 1.004431e+01
0	 7.481481e+00	 7.555556e+00	 1.004226e+01
0	 7.481481e+00	 7.629630e+00	 1.004024e+01
0	 7.481481e+00	 7.703704e+00	 1.003823e+01
0	 7.481481e+00	 7.777778e+00	 1.003624e+01
0	 7.555556e+00	 7.407407e+00	 1.004458e+01
0	 7.555556e+00	 7.481481e+00	 1.004260e+01
0	 7.555556e+00	 7.555556e+00	 1.004064e+01
0	 7.555556e+00	 7.629630e+00	 1.003870e+01
0	 7.555556e+00	 7.703704e+00	 1.003678e+01
0	 7.555556e+00	 7.777778e+00	 1.003487e+01
0	 7.629630e+00	 7.407407e+00	 1.004279e+01
0	 7.629630e+00	 7.481481e+00	 1.004090e+01
0	 7.629630e+00	 7.555556e+00	 1.003903e+01
0	 7.629630e+00	 7.629630e+00	 1.003717e+01
0	 7.629630e+00	 7.703704e+00	 1.003533e+01
0	 7.629630e+00	 7.777778e+00	 1.003350e+01
0	 7.703704e+00	 7.407407e+00	 1.004099e+01
0	 7.703704e+00	 7.481481e+00	 1.003919e+01
0	 7.703704e+00	 7.555556e+00	 1.003741e+01
0	 7.703704e+00	 7.629630e+00	 1.003564e+01
0	 7.703704e+00	 7.703704e+00	 1.003389e+01
0	 7.703704e+00	 7.777778e+00	 1.003214e+01
0	 7.777778e+00	 7.407407e+00	 1.003921e+01
0	 7.777778e+00	 7.481481e+00	 1.003750e+01
0	 7.777778e+00	 7.555556e+00	 1.003580e+01
0	 7.777778e+00	 7.629630e+00	 1.003412e+01
0	 7.777778e+00	 7.703704e+00	 1.003245e+01
0	 7.777778e+00	 7.777778e+00	 1.003078e+01
0	 7.407407e+00	 7.777778e+00	 1.003760e+01
0	 7.407407e+00	 7.851852e+00	 1.003555e+01
0	 7.407407e+00	 7.925926e+00	 1.003354e+01
0	 7.407407e+00	 8.000000e+00	 1.003157e+01
0	 7.407407e+00	 8.074074e+00	 1.002963e+01
0	 7.407407e+00	 8.148148e+00	 1.002771e+01
0	 7.481481e+00	 7.777778e+00	 1.003624e+01
0	 7.481481e+00	 7.851852e+00	 1.003427e+01
0	 7.481481e+00	 7.925926e+00	 1.003234e+01
0	 7.481481e+00	 8.000000e+00	 1.003044e+01
0	 7.481481e+00	 8.074074e+00	 1.002857e+01
0	 7.481481e+00	 8.148148e+00	 1.002673e+01
0	 7.555556e+00	 7.777778e+00	 1.003487e+01
0	 7.555556e+00	 7.851852e+00	 1.003298e+01
0	 7.555556e+00	 7.925926e+00	 1.003113e+01
0	 7.555556e+00	 8.000000e+00	 1.002931e+01
0	 7.555556e+00	 8.074074e+00	 1.002751e+01
0	 7.555556e+00	 8.148148e+00	 1.002574e+01
0	 7.629630e+00	 7.777778e+00	 1.003350e+01
0	 7.629630e+00	 7.851852e+00	 1.003170e+01
0	 7.629630e+00	 7.925926e+00	 1.002992e+01
0	 7.629630e+00	 8.000000e+00	 1.002818e+01
0	 7.629630e+00	 8.074074e+00	 1.002645e+01
0	 7.629630e+00	 8.148148e+00	 1.002475e+01
0	 7.703704e+00	 7.777778e+00	 1.003214e+01
0	 7.703704e+00	 7.851852e+00	 1.003041e+01
0	 7.703704e+00	 7.925926e+00	 1.002871e+01
0	 7.703704e+00	 8.000000e+00	 1.002704e+01
0	 7.703704e+00	 8.074074e+00	 1.002539e+01
0	 7.703704e+00	 8.148148e+00	 1.002377e+01
0	 7.777778e+00	 7.777778e+00	 1.003078e+01
0	 7.777778e+00	 7.851852e+00	 1.002913e+01
0	 7.777778e+00	 7.925926e+00	 1.002751e+01
0	 7.777778e+00	 8.000000e+00	 1.002592e+01
0	 7.777778e+00	 8.074074e+00	 1.002434e+01
0	 7.777778e+00	 8.148148e+00	 1.002278e+01
0	 7.407407e+00	 8.148148e+00	 1.002771e+01
0	 7.407407e+00	 8.222222e+00	 1.002584e+01
0	 7.407407e+00	 8.296296e+00	 1.002402e+01
0	 7.407407e+00	 8.370370e+00	 1.002224e+01
0	 7.407407e+00	 8.444444e+00	 1.002051e+01
0	 7.407407e+00	 8.518519e+00	 1.001881e+01
0	 7.481481e+00	 8.148148e+00	 1.002673e+01
0	 7.481481e+00	 8.222222e+00	 1.002493e+01
0	 7.481481e+00	 8.296296e+00	 1.002317e+01
0	 7.481481e+00	 8.370370e+00	 1.002146e+01
0	 7.481481e+00	 8.444444e+00	 1.001979e+01
0	 7.481481e+00	 8.518519e+00	 1.001816e+01
0	 7.555556e+00	 8.148148e+00	 1.002574e+01
0	 7.555556e+00	 8.222222e+00	 1.002401e+01
0	 7.555556e+00	 8.296296e+00	 1.002232e+01
0	 7.555556e+00	 8.370370e+00	 1.002067e+01
0	 7.555556e+00	 8.444444e+00	 1.001906e+01
0	 7.555556e+00	 8.518519e+00	 1.001749e+01
0	 7.629630e+00	 8.148148e+00	 1.002475e+01
0	 7.629630e+00	 8.222222e+00	 1.002309e+01
0	 7.629630e+00	 8.296296e+00	 1.002147e+01
0	 7.629630e+00	 8.370370e+00	 1.001988e+01
0	 7.629630e+00	 8.444444e+00	 1.001834e+01
0	 7.629630e+00	 8.518519e+00	 1.001683e+01
0	 7.703704e+00	 8.148148e+00	 1.002377e+01
0	 7.703704e+00	 8.222222e+00	 1.002217e+01
0	 7.703704e+00	 8.296296e+00	 1.002062e+01
0	 7.703704e+00	 8.370370e+00	 1.001910e+01
0	 7.703704e+00	 8.444444e+00	 1.001762e+01
0	 7.703704e+00	 8.518519e+00	 1.001617e+01
0	 7.777778e+00	 8.148148e+00	 1.002278e+01
0	 7.777778e+00	 8.222222e+00	 1.002126e+01
0	 7.777778e+00	 8.296296e+00	 1.001977e+01
0	 7.777778e+00	 8.370370e+00	 1.001832e+01
0	 7.777778e+00	 8.444444e+00	 1.001690e+01
0	 7.777778e+00	 8.518519e+00	 1.001551e+01
0	 7.407407e+00	 8.518519e+00	 1.001881e+01
0	 7.407407e+00	 8.592593e+00	 1.001717e+01
0	 7.407407e+00	 8.666667e+00	 1.001560e+01
0	 7.407407e+00	 8.740741e+00	 1.001408e+01
0	 7.407407e+00	 8.814815e+00	 1.001262e+01
0	 7.407407e+00	 8.888889e+00	 1.001122e+01
0	 7.481481e+00	 8.518519e+00	 1.001816e+01
0	 7.481481e+00	 8.592593e+00	 1.001657e+01
0	 7.481481e+00	 8.666667e+00	 1.001505e+01
0	 7.481481e+00	 8.740741e+00	 1.001359e+01
0	 7.481481e+00	 8.814815e+00	 1.001218e+01
0	 7.481481e+00	 8.888889e+00	 1.001083e+01
0	 7.555556e+00	 8.518519e+00	 1.001749e+01
0	 7.555556e+00	 8.592593e+00	 1.001597e+01
0	 7.555556e+00	 8.666667e+00	 1.001451e+01
0	 7.555556e+00	 8.740741e+00	 1.001310e+01
0	 7.555556e+00	 8.814815e+00	 1.001174e+01
0	 7.555556e+00	 8.888889e+00	 1.001044e+01
0	 7.629630e+00	 8.518519e+00	 1.001683e+01
0	 7.629630e+00	 8.592593e+00	 1.001536e+01
0	 7.629630e+00	 8.666667e+00	 1.001396e+01
0	 7.629630e+00	 8.740741e+00	 1.001260e+01
0	 7.629630e+00	 8.814815e+00	 1.001130e+01
0	 7.629630e+00	 8.888889e+00	 1.001004e+01
0	 7.703704e+00	 8.518519e+00	 1.001617e+01
0	 7.703704e+00	 8.592593e+00	 1.001476e+01
0	 7.703704e+00	 8.666667e+00	 1.001341e+01
0	 7.703704e+00	 8.740741e+00	 1.001211e+01
0	 7.703704e+00	 8.814815e+00	 1.001086e+01
0	 7.703704e+00	 8.888889e+00	 1.000965e+01
0	 7.777778e+00	 8.518519e+00	 1.001551e+01
0	 7.777778e+00	 8.592593e+00	 1.001416e+01
0	 7.777778e+00	 8.666667e+00	 1.001286e+01
0	 7.777778e+00	 8.740741e+00	 1.001162e+01
0	 7.777778e+00	 8.814815e+00	 1.001042e+01
0	 7.777778e+00	 8.888889e+00	 1.000926e+01
0	 7.407407e+00	 8.888889e+00	 1.001122e+01
0	 7.407407e+00	 8.962963e+00	 1.000988e+01
0	 7.407407e+00	 9.037037e+00	 1.000862e+01
0	 7.407407e+00	 9.111111e+00	 1.000744e+01
0	 7.407407e+00	 9.185185e+00	 1.000633e+01
0	 7.407407e+00	 9.259259e+00	 1.000528e+01
0	 7.481481e+00	 8.888889e+00	 1.001083e+01
0	 7.481481e+00	 8.962963e+00	 1.000954e+01
0	 7.481481e+00	 9.037037e+00	 1.000832e+01
0	 7.481481e+00	 9.111111e+00	 1.000718e+01
0	 7.481481e+00	 9.185185e+00	 1.000611e+01
0	 7.481481e+00	 9.259259e+00	 1.000510e+01
0	 7.555556e+00	 8.888889e+00	 1.001044e+01
0	 7.555556e+00	 8.962963e+00	 1.000919e+01
0	 7.555556e+00	 9.037037e+00	 1.000802e+01
0	 7.555556e+00	 9.111111e+00	 1.000692e+01
0	 7.555556e+00	 9.185185e+00	 1.000588e+01
0	 7.555556e+00	 9.259259e+00	 1.000491e+01
0	 7.629630e+00	 8.888889e+00	 1.001004e+01
0	 7.629630e+00	 8.962963e+00	 1.000884e+01
0	 7.629630e+00	 9.037037e+00	 1.000771e+01
0	 7.629630e+00	 9.111111e+00	 1.000666e+01
0	 7.629630e+00	 9.185185e+00	 1.000566e+01
0	 7.629630e+00	 9.259259e+00	 1.000472e+01
0	 7.703704e+00	 8.888889e+00	 1.000965e+01
0	 7.703704e+00	 8.962963e+00	 1.000850e+01
0	 7.703704e+00	 9.037037e+00	 1.000741e+01
0	 7.703704e+00	 9.111111e+00	 1.000639e+01
0	 7.703704e+00	 9.185185e+00	 1.000544e+01
0	 7.703704e+00	 9.259259e+00	 1.000454e+01
0	 7.777778e+00	 8.888889e+00	 1.000926e+01
0	 7.777778e+00	 8.962963e+00	 1.000815e+01
0	 7.777778e+00	 9.037037e+00	 1.000711e+01
0	 7.777778e+00	 9.111111e+00	 1.000614e+01
0	 7.777778e+00	 9.185185e+00	 1.000522e+01
0	 7.777778e+00	 9.259259e+00	 1.000435e+01
0	 7.407407e+00	 9.259259e+00	 1.000528e+01
0	 7.407407e+00	 9.333333e+00	 1.000432e+01
0	 7.407407e+00	 9.407407e+00	 1.000345e+01
0	 7.407407e+00	 9.481481e+00	 1.000268e+01
0	 7.407407e+00	 9.555556e+00	 1.000200e+01
0	 7.407407e+00	 9.629630e+00	 1.000140e+01
0	 7.481481e+00	 9.259259e+00	 1.000510e+01
0	 7.481481e+00	 9.333333e+00	 1.000417e+01
0	 7.481481e+00	 9.407407e+00	 1.000333e+01
0	 7.481481e+00	 9.481481e+00	 1.000259e+01
0	 7.481481e+00	 9.555556e+00	 1.000193e+01
0	 7.481481e+00	 9.629630e+00	 1.000135e+01
0	 7.555556e+00	 9.259259e+00	 1.000491e+01
0	 7.555556e+00	 9.333333e+00	 1.000402e+01
0	 7.555556e+00	 9.407407e+00	 1.000321e+01
0	 7.555556e+00	 9.481481e+00	 1.000249e+01
0	 7.555556e+00	 9.555556e+00	 1.000186e+01
0	 7.555556e+00	 9.629630e+00	 1.000130e+01
0	 7.629630e+00	 9.259259e+00	 1.000472e+01
0	 7.629630e+00	 9.333333e+00	 1.000386e+01
0	 7.629630e+00	 9.407407e+00	 1.000309e+01
0	 7.629630e+00	 9.481481e+00	 1.000240e+01
0	 7.629630e+00	 9.555556e+00	 1.000178e+01
0	 7.629630e+00	 9.629630e+00	 1.000125e+01
0	 7.703704e+00	 9.259259e+00	 1.000454e+01
0	 7.703704e+00	 9.333333e+00	 1.000371e+01
0	 7.703704e+00	 9.407407e+00	 1.000296e+01
0	 7.703704e+00	 9.481481e+00	 1.000230e+01
0	 7.703704e+00	 9.555556e+00	 1.000171e+01
0	 7.703704e+00	 9.629630e+00	 1.000120e+01
0	 7.777778e+00	 9.259259e+00	 1.000435e+01
0	 7.777778e+00	 9.333333e+00	 1.000356e+01
0	 7.777778e+00	 9.407407e+00	 1.000285e+01
0	 7.777778e+00	 9.481481e+00	 1.000221e+01
0	 7.777778e+00	 9.555556e+00	 1.000164e+01
0	 7.777778e+00	 9.629630e+00	 1.000115e+01
0	 7.407407e+00	 9.629630e+00	 1.000140e+01
0	 7.407407e+00	 9.703704e+00	 1.000090e+01
0	 7.407407e+00	 9.777778e+00	 1.000051e+01
0	 7.407407e+00	 9.851852e+00	 1.000023e+01
0	 7.407407e+00	 9.925926e+00	 1.000006e+01
0	 7.407407e+00	 1.000000e+01	 9.999990e+00
0	 7.481481e+00	 9.629630e+00	 1.000135e+01
0	 7.481481e+00	 9.703704e+00	 1.000087e+01
0	 7.481481e+00	 9.777778e+00	 1.000049e+01
0	 7.481481e+00	 9.851852e+00	 1.000023e+01
0	 7.481481e+00	 9.925926e+00	 1.000006e+01
0	 7.481481e+00	 1.000000e+01	 9.999993e+00
0	 7.555556e+00	 9.629630e+00	 1.000130e+01
0	 7.555556e+00	 9.703704e+00	 1.000083e+01
0	 7.555556e+00	 9.777778e+00	 1.000048e+01
0	 7.555556e+00	 9.851852e+00	 1.000022e+01
0	 7.555556e+00	 9.925926e+00	 1.000006e+01
0	 7.555556e+00	 1.000000e+01	 9.999992e+00
0	 7.629630e+00	 9.629630e+00	 1.000125e+01
0	 7.629630e+00	 9.703704e+00	 1.000080e+01
0	 7.629630e+00	 9.777778e+00	 1.000046e+01
0	 7.629630e+00	 9.851852e+00	 1.000021e+01
0	 7.629630e+00	 9.925926e+00	 1.000005e+01
0	 7.629630e+00	 1.000000e+01	 9.999990e+00
0	 7.703704e+00	 9.629630e+00	 1.000120e+01
0	 7.703704e+00	 9.703704e+00	 1.000077e+01
0	 7.703704e+00	 9.777778e+00	 1.000044e+01
0	 7.703704e+00	 9.851852e+00	 1.000020e+01
0	 7.703704e+00	 9.925926e+00	 1.000005e+01
0	 7.703704e+00	 1.000000e+01	 9.999990e+00
0	 7.777778e+00	 9.629630e+00	 1.000115e+01
0	 7.777778e+00	 9.703704e+00	 1.000074e+01
0	 7.777778e+00	 9.777778e+00	 1.000042e+01
0	 7.777778e+00	 9.851852e+00	 1.000019e+01
0	 7.777778e+00	 9.925926e+00	 1.000005e+01
0	 7.777778e+00	 1.000000e+01	 9.999992e+00
0	 7.777778e+00	 0.000000e+00	 9.998844e+00
0	 7.777778e+00	 7.407407e-02	 9.998919e+00
0	 7.777778e+00	 1.481481e-01	 9.999133e+00
0	 7.777778e+00	 2.222222e-01	 9.999486e+00
0	 7.777778e+00	 2.962963e-01	 9.999979e+00
0	 7.777778e+00	 3.703704e-01	 1.000061e+01
0	 7.851852e+00	 0.000000e+00	 9.990330e+00
0	 7.851852e+00	 7.407407e-02	 9.990406e+00
0	 7.851852e+00	 1.481481e-01	 9.990617e+00
0	 7.851852e+00	 2.222222e-01	 9.990965e+00
0	 7.851852e+00	 2.962963e-01	 9.991450e+00
0	 7.851852e+00	 3.703704e-01	 9.992074e+00
0	 7.925926e+00	 0.000000e+00	 9.981725e+00
0	 7.925926e+00	 7.407407e-02	 9.981800e+00
0	 7.925926e+00	 1.481481e-01	 9.982008e+00
0	 7.925926e+00	 2.222222e-01	 9.982350e+00
0	 7.925926e+00	 2.962963e-01	 9.982829e+00
0	 7.925926e+00	 3.703704e-01	 9.983445e+00
0	 8.000000e+00	 0.000000e+00	 9.973020e+00
0	 8.000000e+00	 7.407407e-02	 9.973091e+00
0	 8.000000e+00	 1.481481e-01	 9.973295e+00
0	 8.000000e+00	 2.222222e-01	 9.973634e+00
0	 8.000000e+00	 2.962963e-01	 9.974107e+00
0	 8.000000e+00	 3.703704e-01	 9.974717e+00
0	 8.074074e+00	 0.000000e+00	 9.964202e+00
0	 8.074074e+00	 7.407407e-02	 9.964270e+00
0	 8.074074e+00	 1.481481e-01	 9.964471e+00
0	 8.074074e+00	 2.222222e-01	 9.964806e+00
0	 8.074074e+00	 2.962963e-01	 9.965275e+00
0	 8.074074e+00	 3.703704e-01	 9.965881e+00
0	 8.148148e+00	 0.000000e+00	 9.955262e+00
0	 8.148148e+00	 7.407407e-02	 9.955327e+00
0	 8.148148e+00	 1.481481e-01	 9.955526e+00
0	 8.148148e+00	 2.222222e-01	 9.955858e+00
0	 8.148148e+00	 2.962963e-01	 9.956325e+00
0	 8.148148e+00	 3.703704e-01	 9.956928e+00
0	 7.777778e+00	 3.703704e-01	 1.000061e+01
0	 7.777778e+00	 4.444444e-01	 1.000138e+01
0	 7.777778e+00	 5.185185e-01	 1.000227e+01
0	 7.777778e+00	 5.925926e-01	 1.000329e+01
0	 7.777778e+00	 6.666667e-01	 1.000444e+01
0	 7.777778e+00	 7.407407e-01	 1.000572e+01
0	 7.851852e+00	 3.703704e-01	 9.992074e+00
0	 7.851852e+00	 4.444444e-01	 9.992828e+00
0	 7.851852e+00	 5.185185e-01	 9.993705e+00
0	 7.851852e+00	 5.925926e-01	 9.994708e+00
0	 7.851852e+00	 6.666667e-01	 9.995840e+00
0	 7.851852e+00	 7.407407e-01	 9.997106e+00
0	 7.925926e+00	 3.703704e-01	 9.983445e+00
0	 7.925926e+00	 4.444444e-01	 9.984189e+00
0	 7.925926e+00	 5.185185e-01	 9.985055e+00
0	 7.925926e+00	 5.925926e-01	 9.986046e+00
0	 7.925926e+00	 6.666667e-01	 9.987165e+00
0	 7.925926e+00	 7.407407e-01	 9.988414e+00
0	 8.000000e+00	 3.703704e-01	 9.974717e+00
0	 8.000000e+00	 4.444444e-01	 9.975454e+00
0	 8.000000e+00	 5.185185e-01	 9.976313e+00
0	 8.000000e+00	 5.925926e-01	 9.977294e+00
0	 8.000000e+00	 6.666667e-01	 9.978402e+00
0	 8.000000e+00	 7.407407e-01	 9.979639e+00
0	 8.074074e+00	 3.703704e-01	 9.965881e+00
0	 8.074074e+00	 4.444444e-01	 9.966614e+00
0	 8.074074e+00	 5.185185e-01	 9.967467e+00
0	 8.074074e+00	 5.925926e-01	 9.968441e+00
0	 8.074074e+00	 6.666667e-01	 9.969541e+00
0	 8.074074e+00	 7.407407e-01	 9.970769e+00
0	 8.148148e+00	 3.703704e-01	 9.956928e+00
0	 8.148148e+00	 4.444444e-01	 9.957658e+00
0	 8.148148e+00	 5.185185e-01	 9.958507e+00
0	 8.148148e+00	 5.925926e-01	 9.959478e+00
0	 8.148148e+00	 6.666667e-01	 9.960573e+00
0	 8.148148e+00	 7.407407e-01	 9.961794e+00
0	 7.777778e+00	 7.407407e-01	 1.000572e+01
0	 7.777778e+00	 8.148148e-01	 1.000712e+01
0	 7.777778e+00	 8.888889e-01	 1.000861e+01
0	 7.777778e+00	 9.629630e-01	 1.001020e+01
0	 7.777778e+00	 1.037037e+00	 1.001190e+01
0	 7.777778e+00	 1.111111e+00	 1.001371e+01
0	 7.851852e+00	 7.407407e-01	 9.997106e+00
0	 7.851852e+00	 8.148148e-01	 9.998484e+00
0	 7.851852e+00	 8.888889e-01	 9.999955e+00
0	 7.851852e+00	 9.629630e-01	 1.000153e+01
0	 7.851852e+00	 1.037037e+00	 1.000320e+01
0	 7.851852e+00	 1.111111e+00	 1.000499e+01
0	 7.925926e+00	 7.407407e-01	 9.988414e+00
0	 7.925926e+00	 8.148148e-01	 9.989776e+00
0	 7.925926e+00	 8.888889e-01	 9.991231e+00
0	 7.925926e+00	 9.629630e-01	 9.992786e+00
0	 7.925926e+00	 1.037037e+00	 9.994445e+00
0	 7.925926e+00	 1.111111e+00	 9.996213e+00
0	 8.000000e+00	 7.407407e-01	 9.979639e+00
0	 8.000000e+00	 8.148148e-01	 9.980987e+00
0	 8.000000e+00	 8.888889e-01	 9.982430e+00
0	 8.000000e+00	 9.629630e-01	 9.983973e+00
0	 8.000000e+00	 1.037037e+00	 9.985620e+00
0	 8.000000e+00	 1.111111e+00	 9.987375e+00
0	 8.074074e+00	 7.407407e-01	 9.970769e+00
0	 8.074074e+00	 8.148148e-01	 9.972108e+00
0	 8.074074e+00	 8.888889e-01	 9.973542e+00
0	 8.074074e+00	 9.629630e-01	 9.975077e+00
0	 8.074074e+00	 1.037037e+00	 9.976716e+00
0	 8.074074e+00	 1.111111e+00	 9.978464e+00
0	 8.148148e+00	 7.407407e-01	 9.961794e+00
0	 8.148148e+00	 8.148148e-01	 9.963127e+00
0	 8.148148e+00	 8.888889e-01	 9.964557e+00
0	 8.148148e+00	 9.629630e-01	 9.966088e+00
0	 8.148148e+00	 1.037037e+00	 9.967724e+00
0	 8.148148e+00	 1.111111e+00	 9.969469e+00
0	 7.777778e+00	 1.111111e+00	 1.001371e+01
0	 7.777778e+00	 1.185185e+00	 1.001560e+01
0	 7.777778e+00	 1.259259e+00	 1.001755e+01
0	 7.777778e+00	 1.333333e+00	 1.001957e+01
0	 7.777778e+00	 1.407407e+00	 1.002166e+01
0	 7.777778e+00	 1.481481e+00	 1.002383e+01
0	 7.851852e+00	 1.111111e+00	 1.000499e+01
0	 7.851852e+00	 1.185185e+00	 1.000686e+01
0	 7.851852e+00	 1.259259e+00	 1.000879e+01
0	 7.851852e+00	 1.333333e+00	 1.001079e+01
0	 7.851852e+00	 1.407407e+00	 1.001286e+01
0	 7.851852e+00	 1.481481e+00	 1.001501e+01
0	 7.925926e+00	 1.111111e+00	 9.996213e+00
0	 7.925926e+00	 1.185185e+00	 9.998066e+00
0	 7.925926e+00	 1.259259e+00	 9.999982e+00
0	 7.925926e+00	 1.333333e+00	 1.000197e+01
0	 7.925926e+00	 1.407407e+00	 1.000403e+01
0	 7.925926e+00	 1.481481e+00	 1.000617e+01
0	 8.000000e+00	 1.111111e+00	 9.987375e+00
0	 8.000000e+00	 1.185185e+00	 9.989217e+00
0	 8.000000e+00	 1.259259e+00	 9.991123e+00
0	 8.000000e+00	 1.333333e+00	 9.993099e+00
0	 8.000000e+00	 1.407407e+00	 9.995151e+00
0	 8.000000e+00	 1.481481e+00	 9.997283e+00
0	 8.074074e+00	 1.111111e+00	 9.978464e+00
0	 8.074074e+00	 1.185185e+00	 9.980299e+00
0	 8.074074e+00	 1.259259e+00	 9.982200e+00
0	 8.074074e+00	 1.333333e+00	 9.984173e+00
0	 8.074074e+00	 1.407407e+00	 9.986222e+00
0	 8.074074e+00	 1.481481e+00	 9.988352e+00
0	 8.148148e+00	 1.111111e+00	 9.969469e+00
0	 8.148148e+00	 1.185185e+00	 9.971302e+00
0	 8.148148e+00	 1.259259e+00	 9.973203e+00
0	 8.148148e+00	 1.333333e+00	 9.975177e+00
0	 8.148148e+00	 1.407407e+00	 9.977228e+00
0	 8.148148e+00	 1.481481e+00	 9.979362e+00
0	 7.777778e+00	 1.481481e+00	 1.002383e+01
0	 7.777778e+00	 1.555556e+00	 1.002605e+01
0	 7.777778e+00	 1.629630e+00	 1.002829e+01
0	 7.777778e+00	 1.703704e+00	 1.003056e+01
0	 7.777778e+00	 1.777778e+00	 1.003286e+01
0	 7.777778e+00	 1.851852e+00	 1.003521e+01
0	 7.851852e+00	 1.481481e+00	 1.001501e+01
0	 7.851852e+00	 1.555556e+00	 1.001721e+01
0	 7.851852e+00	 1.629630e+00	 1.001944e+01
0	 7.851852e+00	 1.703704e+00	 1.002170e+01
0	 7.851852e+00	 1.777778e+00	 1.002400e+01
0	 7.851852e+00	 1.851852e+00	 1.002634e+01
0	 7.925926e+00	 1.481481e+00	 1.000617e+01
0	 7.925926e+00	 1.555556e+00	 1.000836e+01
0	 7.925926e+00	 1.629630e+00	 1.001058e+01
0	 7.925926e+00	 1.703704e+00	 1.001283e+01
0	 7.925926e+00	 1.777778e+00	 1.001512e+01
0	 7.925926e+00	 1.851852e+00	 1.001746e+01
0	 8.000000e+00	 1.481481e+00	 9.997283e+00
0	 8.000000e+00	 1.555556e+00	 9.999470e+00
0	 8.000000e+00	 1.629630e+00	 1.000169e+01
0	 8.000000e+00	 1.703704e+00	 1.000394e+01
0	 8.000000e+00	 1.777778e+00	 1.000624e+01
0	 8.000000e+00	 1.851852e+00	 1.000858e+01
0	 8.074074e+00	 1.481481e+00	 9.988352e+00
0	 8.074074e+00	 1.555556e+00	 9.990539e+00
0	 8.074074e+00	 1.629630e+00	 9.992759e+00
0	 8.074074e+00	 1.703704e+00	 9.995019e+00
0	 8.074074e+00	 1.777778e+00	 9.997322e+00
0	 8.074074e+00	 1.851852e+00	 9.999675e+00
0	 8.148148e+00	 1.481481e+00	 9.979362e+00
0	 8.148148e+00	 1.555556e+00	 9.981555e+00
0	 8.148148e+00	 1.629630e+00	 9.983784e+00
0	 8.148148e+00	 1.703704e+00	 9.986054e+00
0	 8.148148e+00	 1.777778e+00	 9.988371e+00
0	 8.148148e+00	 1.851852e+00	 9.990739e+00
0	 7.777778e+00	 1.851852e+00	 1.003521e+01
0	 7.777778e+00	 1.925926e+00	 1.003757e+01
0	 7.777778e+00	 2.000000e+00	 1.003991e+01
0	 7.777778e+00	 2.074074e+00	 1.004225e+01
0	 7.777778e+00	 2.148148e+00	 1.004458e+01
0	 7.777778e+00	 2.222222e+00	 1.004692e+01
0	 7.851852e+00	 1.851852e+00	 1.002634e+01
0	 7.851852e+00	 1.925926e+00	 1.002869e+01
0	 7.851852e+00	 2.000000e+00	 1.003104e+01
0	 7.851852e+00	 2.074074e+00	 1.003338e+01
0	 7.851852e+00	 2.148148e+00	 1.003572e+01
0	 7.851852e+00	 2.222222e+00	 1.003807e+01
0	 7.925926e+00	 1.851852e+00	 1.001746e+01
0	 7.925926e+00	 1.925926e+00	 1.001982e+01
0	 7.925926e+00	 2.000000e+00	 1.002217e+01
0	 7.925926e+00	 2.074074e+00	 1.002452e+01
0	 7.925926e+00	 2.148148e+00	 1.002688e+01
0	 7.925926e+00	 2.222222e+00	 1.002924e+01
0	 8.000000e+00	 1.851852e+00	 1.000858e+01
0	 8.000000e+00	 1.925926e+00	 1.001094e+01
0	 8.000000e+00	 2.000000e+00	 1.001331e+01
0	 8.000000e+00	 2.074074e+00	 1.001567e+01
0	 8.000000e+00	 2.148148e+00	 1.001804e+01
0	 8.000000e+00	 2.222222e+00	 1.002043e+01
0	 8.074074e+00	 1.851852e+00	 9.999675e+00
0	 8.074074e+00	 1.925926e+00	 1.000205e+01
0	 8.074074e+00	 2.000000e+00	 1.000443e+01
0	 8.074074e+00	 2.074074e+00	 1.000682e+01
0	 8.074074e+00	 2.148148e+00	 1.000921e+01
0	 8.074074e+00	 2.222222e+00	 1.001162e+01
0	 8.148148e+00	 1.851852e+00	 9.990739e+00
0	 8.148148e+00	 1.925926e+00	 9.993136e+00
0	 8.148148e+00	 2.000000e+00	 9.995536e+00
0	 8.148148e+00	 2.074074e+00	 9.997947e+00
0	 8.148148e+00	 2.148148e+00	 1.000037e+01
0	 8.148148e+00	 2.222222e+00	 1.000281e+01
0	 7.777778e+00	 2.222222e+00	 1.004692e+01
0	 7.777778e+00	 2.296296e+00	 1.004924e+01
0	 7.777778e+00	 2.370370e+00	 1.005151e+01
0	 7.777778e+00	 2.444444e+00	 1.005374e+01
0	 7.777778e+00	 2.518519e+00	 1.005593e+01
0	 7.777778e+00	 2.592593e+00	 1.005810e+01
0	 7.851852e+00	 2.222222e+00	 1.003807e+01
0	 7.851852e+00	 2.296296e+00	 1.004040e+01
0	 7.851852e+00	 2.370370e+00	 1.004269e+01
0	 7.851852e+00	 2.444444e+00	 1.004495e+01
0	 7.851852e+00	 2.518519e+00	 1.004717e+01
0	 7.851852e+00	 2.592593e+00	 1.004937e+01
0	 7.925926e+00	 2.222222e+00	 1.002924e+01
0	 7.925926e+00	 2.296296e+00	 1.003159e+01
0	 7.925926e+00	 2.370370e+00	 1.003391e+01
0	 7.925926e+00	 2.444444e+00	 1.003619e+01
0	 7.925926e+00	 2.518519e+00	 1.003845e+01
0	 7.925926e+00	 2.592593e+00	 1.004068e+01
0	 8.000000e+00	 2.222222e+00	 1.002043e+01
0	 8.000000e+00	 2.296296e+00	 1.002281e+01
0	 8.000000e+00	 2.370370e+00	 1.002515e+01
0	 8.000000e+00	 2.444444e+00	 1.002747e+01
0	 8.000000e+00	 2.518519e+00	 1.002976e+01
0	 8.000000e+00	 2.592593e+00	 1.003203e+01
0	 8.074074e+00	 2.222222e+00	 1.001162e+01
0	 8.074074e+00	 2.296296e+00	 1.001403e+01
0	 8.074074e+00	 2.370370e+00	 1.001641e+01
0	 8.074074e+00	 2.444444e+00	 1.001876e+01
0	 8.074074e+00	 2.518519e+00	 1.002110e+01
0	 8.074074e+00	 2.592593e+00	 1.002341e+01
0	 8.148148e+00	 2.222222e+00	 1.000281e+01
0	 8.148148e+00	 2.296296e+00	 1.000526e+01
0	 8.148148e+00	 2.370370e+00	 1.000767e+01
0	 8.148148e+00	 2.444444e+00	 1.001007e+01
0	 8.148148e+00	 2.518519e+00	 1.001245e+01
0	 8.148148e+00	 2.592593e+00	 1.001482e+01
0	 7.777778e+00	 2.592593e+00	 1.005810e+01
0	 7.777778e+00	 2.666667e+00	 1.006021e+01
0	 7.777778e+00	 2.740741e+00	 1.006225e+01
0	 7.777778e+00	 2.814815e+00	 1.006423e+01
0	 7.777778e+00	 2.888889e+00	 1.006614e+01
0	 7.777778e+00	 2.962963e+00	 1.006799e+01
0	 7.851852e+00	 2.592593e+00	 1.004937e+01
0	 7.851852e+00	 2.666667e+00	 1.005152e+01
0	 7.851852e+00	 2.740741e+00	 1.005360e+01
0	 7.851852e+00	 2.814815e+00	 1.005562e+01
0	 7.851852e+00	 2.888889e+00	 1.005759e+01
0	 7.851852e+00	 2.962963e+00	 1.005950e+01
0	 7.925926e+00	 2.592593e+00	 1.004068e+01
0	 7.925926e+00	 2.666667e+00	 1.004287e+01
0	 7.925926e+00	 2.740741e+00	 1.004500e+01
0	 7.925926e+00	 2.814815e+00	 1.004708e+01
0	 7.925926e+00	 2.888889e+00	 1.004910e+01
0	 7.925926e+00	 2.962963e+00	 1.005107e+01
0	 8.000000e+00	 2.592593e+00	 1.003203e+01
0	 8.000000e+00	 2.666667e+00	 1.003427e+01
0	 8.000000e+00	 2.740741e+00	 1.003645e+01
0	 8.000000e+00	 2.814815e+00	 1.003858e+01
0	 8.000000e+00	 2.888889e+00	 1.004065e+01
0	 8.000000e+00	 2.962963e+00	 1.004269e+01
0	 8.074074e+00	 2.592593e+00	 1.002341e+01
0	 8.074074e+00	 2.666667e+00	 1.002570e+01
0	 8.074074e+00	 2.740741e+00	 1.002793e+01
0	 8.074074e+00	 2.814815e+00	 1.003012e+01
0	 8.074074e+00	 2.888889e+00	 1.003226e+01
0	 8.074074e+00	 2.962963e+00	 1.003435e+01
0	 8.148148e+00	 2.592593e+00	 1.001482e+01
0	 8.148148e+00	 2.666667e+00	 1.001716e+01
0	 8.148148e+00	 2.740741e+00	 1.001945e+01
0	 8.148148e+00	 2.814815e+00	 1.002169e+01
0	 8.148148e+00	 2.888889e+00	 1.002390e+01
0	 8.148148e+00	 2.962963e+00	 1.002607e+01
0	 7.777778e+00	 2.962963e+00	 1.006799e+01
0	 7.777778e+00	 3.037037e+00	 1.006977e+01
0	 7.777778e+00	 3.111111e+00	 1.007147e+01
0	 7.777778e+00	 3.185185e+00	 1.007308e+01
0	 7.777778e+00	 3.259259e+00	 1.007461e+01
0	 7.777778e+00	 3.333333e+00	 1.007606e+01
0	 7.851852e+00	 2.962963e+00	 1.005950e+01
0	 7.851852e+00	 3.037037e+00	 1.006134e+01
0	 7.851852e+00	 3.111111e+00	 1.006310e+01
0	 7.851852e+00	 3.185185e+00	 1.006478e+01
0	 7.851852e+00	 3.259259e+00	 1.006638e+01
0	 7.851852e+00	 3.333333e+00	 1.006791e+01
0	 7.925926e+00	 2.962963e+00	 1.005107e+01
0	 7.925926e+00	 3.037037e+00	 1.005297e+01
0	 7.925926e+00	 3.111111e+00	 1.005480e+01
0	 7.925926e+00	 3.185185e+00	 1.005655e+01
0	 7.925926e+00	 3.259259e+00	 1.005823e+01
0	 7.925926e+00	 3.333333e+00	 1.005984e+01
0	 8.000000e+00	 2.962963e+00	 1.004269e+01
0	 8.000000e+00	 3.037037e+00	 1.004466e+01
0	 8.000000e+00	 3.111111e+00	 1.004656e+01
0	 8.000000e+00	 3.185185e+00	 1.004838e+01
0	 8.000000e+00	 3.259259e+00	 1.005014e+01
0	 8.000000e+00	 3.333333e+00	 1.005183e+01
0	 8.074074e+00	 2.962963e+00	 1.003435e+01
0	 8.074074e+00	 3.037037e+00	 1.003640e+01
0	 8.074074e+00	 3.111111e+00	 1.003837e+01
0	 8.074074e+00	 3.185185e+00	 1.004027e+01
0	 8.074074e+00	 3.259259e+00	 1.004211e+01
0	 8.074074e+00	 3.333333e+00	 1.004388e+01
0	 8.148148e+00	 2.962963e+00	 1.002607e+01
0	 8.148148e+00	 3.037037e+00	 1.002818e+01
0	 8.148148e+00	 3.111111e+00	 1.003023e+01
0	 8.148148e+00	 3.185185e+00	 1.003221e+01
0	 8.148148e+00	 3.259259e+00	 1.003413e+01
0	 8.148148e+00	 3.333333e+00	 1.003600e+01
0	 7.777778e+00	 3.333333e+00	 1.007606e+01
0	 7.777778e+00	 3.407407e+00	 1.007742e+01
0	 7.777778e+00	 3.481481e+00	 1.007868e+01
0	 7.777778e+00	 3.555556e+00	 1.007986e+01
0	 7.777778e+00	 3.629630e+00	 1.008094e+01
0	 7.777778e+00	 3.703704e+00	 1.008192e+01
0	 7.851852e+00	 3.333333e+00	 1.006791e+01
0	 7.851852e+00	 3.407407e+00	 1.006936e+01
0	 7.851852e+00	 3.481481e+00	 1.007071e+01
0	 7.851852e+00	 3.555556e+00	 1.007198e+01
0	 7.851852e+00	 3.629630e+00	 1.007315e+01
0	 7.851852e+00	 3.703704e+00	 1.007424e+01
0	 7.925926e+00	 3.333333e+00	 1.005984e+01
0	 7.925926e+00	 3.407407e+00	 1.006137e+01
0	 7.925926e+00	 3.481481e+00	 1.006281e+01
0	 7.925926e+00	 3.555556e+00	 1.006417e+01
0	 7.925926e+00	 3.629630e+00	 1.006544e+01
0	 7.925926e+00	 3.703704e+00	 1.006662e+01
0	 8.000000e+00	 3.333333e+00	 1.005183e+01
0	 8.000000e+00	 3.407407e+00	 1.005345e+01
0	 8.000000e+00	 3.481481e+00	 1.005498e+01
0	 8.000000e+00	 3.555556e+00	 1.005643e+01
0	 8.000000e+00	 3.629630e+00	 1.005779e+01
0	 8.000000e+00	 3.703704e+00	 1.005908e+01
0	 8.074074e+00	 3.333333e+00	 1.004388e+01
0	 8.074074e+00	 3.407407e+00	 1.004559e+01
0	 8.074074e+00	 3.481481e+00	 1.004721e+01
0	 8.074074e+00	 3.555556e+00	 1.004876e+01
0	 8.074074e+00	 3.629630e+00	 1.005022e+01
0	 8.074074e+00	 3.703704e+00	 1.005161e+01
0	 8.148148e+00	 3.333333e+00	 1.003600e+01
0	 8.148148e+00	 3.407407e+00	 1.003779e+01
0	 8.148148e+00	 3.481481e+00	 1.003951e+01
0	 8.148148e+00	 3.555556e+00	 1.004115e+01
0	 8.148148e+00	 3.629630e+00	 1.004272e+01
0	 8.148148e+00	 3.703704e+00	 1.004421e+01
0	 7.777778e+00	 3.703704e+00	 1.008192e+01
0	 7.777778e+00	 3.777778e+00	 1.008282e+01
0	 7.777778e+00	 3.851852e+00	 1.008362e+01
0	 7.777778e+00	 3.925926e+00	 1.008432e+01
0	 7.777778e+00	 4.000000e+00	 1.008492e+01
0	 7.777778e+00	 4.074074e+00	 1.008543e+01
0	 7.851852e+00	 3.703704e+00	 1.007424e+01
0	 7.851852e+00	 3.777778e+00	 1.007523e+01
0	 7.851852e+00	 3.851852e+00	 1.007614e+01
0	 7.851852e+00	 3.925926e+00	 1.007695e+01
0	 7.851852e+00	 4.000000e+00	 1.007766e+01
0	 7.851852e+00	 4.074074e+00	 1.007829e+01
0	 7.925926e+00	 3.703704e+00	 1.006662e+01
0	 7.925926e+00	 3.777778e+00	 1.006772e+01
0	 7.925926e+00	 3.851852e+00	 1.006873e+01
0	 7.925926e+00	 3.925926e+00	 1.006965e+01
0	 7.925926e+00	 4.000000e+00	 1.007048e+01
0	 7.925926e+00	 4.074074e+00	 1.007122e+01
0	 8.000000e+00	 3.703704e+00	 1.005908e+01
0	 8.000000e+00	 3.777778e+00	 1.006028e+01
0	 8.000000e+00	 3.851852e+00	 1.006140e+01
0	 8.000000e+00	 3.925926e+00	 1.006243e+01
0	 8.000000e+00	 4.000000e+00	 1.006337e+01
0	 8.000000e+00	 4.074074e+00	 1.006422e+01
0	 8.074074e+00	 3.703704e+00	 1.005161e+01
0	 8.074074e+00	 3.777778e+00	 1.005292e+01
0	 8.074074e+00	 3.851852e+00	 1.005414e+01
0	 8.074074e+00	 3.925926e+00	 1.005528e+01
0	 8.074074e+00	 4.000000e+00	 1.005633e+01
0	 8.074074e+00	 4.074074e+00	 1.005730e+01
0	 8.148148e+00	 3.703704e+00	 1.004421e+01
0	 8.148148e+00	 3.777778e+00	 1.004562e+01
0	 8.148148e+00	 3.851852e+00	 1.004695e+01
0	 8.148148e+00	 3.925926e+00	 1.004820e+01
0	 8.148148e+00	 4.000000e+00	 1.004937e+01
0	 8.148148e+00	 4.074074e+00	 1.005045e+01
0	 7.777778e+00	 4.074074e+00	 1.008543e+01
0	 7.777778e+00	 4.148148e+00	 1.008585e+01
0	 7.777778e+00	 4.222222e+00	 1.008617e+01
0	 7.777778e+00	 4.296296e+00	 1.008640e+01
0	 7.777778e+00	 4.370370e+00	 1.008654e+01
0	 7.777778e+00	 4.444444e+00	 1.008658e+01
0	 7.851852e+00	 4.074074e+00	 1.007829e+01
0	 7.851852e+00	 4.148148e+00	 1.007882e+01
0	 7.851852e+00	 4.222222e+00	 1.007926e+01
0	 7.851852e+00	 4.296296e+00	 1.007962e+01
0	 7.851852e+00	 4.370370e+00	 1.007988e+01
0	 7.851852e+00	 4.444444e+00	 1.008004e+01
0	 7.925926e+00	 4.074074e+00	 1.007122e+01
0	 7.925926e+00	 4.148148e+00	 1.007187e+01
0	 7.925926e+00	 4.222222e+00	 1.007243e+01
0	 7.925926e+00	 4.296296e+00	 1.007290e+01
0	 7.925926e+00	 4.370370e+00	 1.007328e+01
0	 7.925926e+00	 4.444444e+00	 1.007358e+01
0	 8.000000e+00	 4.074074e+00	 1.006422e+01
0	 8.000000e+00	 4.148148e+00	 1.006498e+01
0	 8.000000e+00	 4.222222e+00	 1.006566e+01
0	 8.000000e+00	 4.296296e+00	 1.006626e+01
0	 8.000000e+00	 4.370370e+00	 1.006676e+01
0	 8.000000e+00	 4.444444e+00	 1.006718e+01
0	 8.074074e+00	 4.074074e+00	 1.005730e+01
0	 8.074074e+00	 4.148148e+00	 1.005818e+01
0	 8.074074e+00	 4.222222e+00	 1.005898e+01
0	 8.074074e+00	 4.296296e+00	 1.005969e+01
0	 8.074074e+00	 4.370370e+00	 1.006032e+01
0	 8.074074e+00	 4.444444e+00	 1.006086e+01
0	 8.148148e+00	 4.074074e+00	 1.005045e+01
0	 8.148148e+00	 4.148148e+00	 1.005145e+01
0	 8.148148e+00	 4.222222e+00	 1.005237e+01
0	 8.148148e+00	 4.296296e+00	 1.005320e+01
0	 8.148148e+00	 4.370370e+00	 1.005395e+01
0	 8.148148e+00	 4.444444e+00	 1.005461e+01
0	 7.777778e+00	 4.444444e+00	 1.008658e+01
0	 7.777778e+00	 4.518519e+00	 1.008654e+01
0	 7.777778e+00	 4.592593e+00	 1.008641e+01
0	 7.777778e+00	 4.666667e+00	 1.008619e+01
0	 7.777778e+00	 4.740741e+00	 1.008589e+01
0	 7.777778e+00	 4.814815e+00	 1.008550e+01
0	 7.851852e+00	 4.444444e+00	 1.008004e+01
0	 7.851852e+00	 4.518519e+00	 1.008013e+01
0	 7.851852e+00	 4.592593e+00	 1.008012e+01
0	 7.851852e+00	 4.666667e+00	 1.008004e+01
0	 7.851852e+00	 4.740741e+00	 1.007987e+01
0	 7.851852e+00	 4.814815e+00	 1.007961e+01
0	 7.925926e+00	 4.444444e+00	 1.007358e+01
0	 7.925926e+00	 4.518519e+00	 1.007378e+01
0	 7.925926e+00	 4.592593e+00	 1.007391e+01
0	 7.925926e+00	 4.666667e+00	 1.007395e+01
0	 7.925926e+00	 4.740741e+00	 1.007391e+01
0	 7.925926e+00	 4.814815e+00	 1.007379e+01
0	 8.000000e+00	 4.444444e+00	 1.006718e+01
0	 8.000000e+00	 4.518519e+00	 1.006751e+01
0	 8.000000e+00	 4.592593e+00	 1.006776e+01
0	 8.000000e+00	 4.666667e+00	 1.006793e+01
0	 8.000000e+00	 4.740741e+00	 1.006802e+01
0	 8.000000e+00	 4.814815e+00	 1.006803e+01
0	 8.074074e+00	 4.444444e+00	 1.006086e+01
0	 8.074074e+00	 4.518519e+00	 1.006132e+01
0	 8.074074e+00	 4.592593e+00	 1.006169e+01
0	 8.074074e+00	 4.666667e+00	 1.006199e+01
0	 8.074074e+00	 4.740741e+00	 1.006220e+01
0	 8.074074e+00	 4.814815e+00	 1.006234e+01
0	 8.148148e+00	 4.444444e+00	 1.005461e+01
0	 8.148148e+00	 4.518519e+00	 1.005520e+01
0	 8.148148e+00	 4.592593e+00	 1.005570e+01
0	 8.148148e+00	 4.666667e+00	 1.005612e+01
0	 8.148148e+00	 4.740741e+00	 1.005646e+01
0	 8.148148e+00	 4.814815e+00	 1.005672e+01
0	 7.777778e+00	 4.814815e+00	 1.008550e+01
0	 7.777778e+00	 4.888889e+00	 1.008504e+01
0	 7.777778e+00	 4.962963e+00	 1.008450e+01
0	 7.777778e+00	 5.037037e+00	 1.008388e+01
0	 7.777778e+00	 5.111111e+00	 1.008320e+01
0	 7.777778e+00	 5.185185e+00	 1.008243e+01
0	 7.851852e+00	 4.814815e+00	 1.007961e+01
0	 7.851852e+00	 4.888889e+00	 1.007928e+01
0	 7.851852e+00	 4.962963e+00	 1.007887e+01
0	 7.851852e+00	 5.037037e+00	 1.007839e+01
0	 7.851852e+00	 5.111111e+00	 1.007784e+01
0	 7.851852e+00	 5.185185e+00	 1.007720e+01
0	 7.925926e+00	 4.814815e+00	 1.007379e+01
0	 7.925926e+00	 4.888889e+00	 1.007358e+01
0	 7.925926e+00	 4.962963e+00	 1.007331e+01
0	 7.925926e+00	 5.037037e+00	 1.007296e+01
0	 7.925926e+00	 5.111111e+00	 1.007253e+01
0	 7.925926e+00	 5.185185e+00	 1.007203e+01
0	 8.000000e+00	 4.814815e+00	 1.006803e+01
0	 8.000000e+00	 4.888889e+00	 1.006795e+01
0	 8.000000e+00	 4.962963e+00	 1.006780e+01
0	 8.000000e+00	 5.037037e+00	 1.006758e+01
0	 8.000000e+00	 5.111111e+00	 1.006729e+01
0	 8.000000e+00	 5.185185e+00	 1.006692e+01
0	 8.074074e+00	 4.814815e+00	 1.006234e+01
0	 8.074074e+00	 4.888889e+00	 1.006239e+01
0	 8.074074e+00	 4.962963e+00	 1.006237e+01
0	 8.074074e+00	 5.037037e+00	 1.006228e+01
0	 8.074074e+00	 5.111111e+00	 1.006211e+01
0	 8.074074e+00	 5.185185e+00	 1.006187e+01
0	 8.148148e+00	 4.814815e+00	 1.005672e+01
0	 8.148148e+00	 4.888889e+00	 1.005690e+01
0	 8.148148e+00	 4.962963e+00	 1.005701e+01
0	 8.148148e+00	 5.037037e+00	 1.005705e+01
0	 8.148148e+00	 5.111111e+00	 1.005701e+01
0	 8.148148e+00	 5.185185e+00	 1.005689e+01
0	 7.777778e+00	 5.185185e+00	 1.008243e+01
0	 7.777778e+00	 5.259259e+00	 1.008159e+01
0	 7.777778e+00	 5.333333e+00	 1.008070e+01
0	 7.777778e+00	 5.407407e+00	 1.007974e+01
0	 7.777778e+00	 5.481481e+00	 1.007873e+01
0	 7.777778e+00	 5.555556e+00	 1.007764e+01
0	 7.851852e+00	 5.185185e+00	 1.007720e+01
0	 7.851852e+00	 5.259259e+00	 1.007650e+01
0	 7.851852e+00	 5.333333e+00	 1.007574e+01
0	 7.851852e+00	 5.407407e+00	 1.007491e+01
0	 7.851852e+00	 5.481481e+00	 1.007403e+01
0	 7.851852e+00	 5.555556e+00	 1.007307e+01
0	 7.925926e+00	 5.185185e+00	 1.007203e+01
0	 7.925926e+00	 5.259259e+00	 1.007146e+01
0	 7.925926e+00	 5.333333e+00	 1.007083e+01
0	 7.925926e+00	 5.407407e+00	 1.007013e+01
0	 7.925926e+00	 5.481481e+00	 1.006938e+01
0	 7.925926e+00	 5.555556e+00	 1.006855e+01
0	 8.000000e+00	 5.185185e+00	 1.006692e+01
0	 8.000000e+00	 5.259259e+00	 1.006647e+01
0	 8.000000e+00	 5.333333e+00	 1.006597e+01
0	 8.000000e+00	 5.407407e+00	 1.006541e+01
0	 8.000000e+00	 5.481481e+00	 1.006478e+01
0	 8.000000e+00	 5.555556e+00	 1.006408e+01
0	 8.074074e+00	 5.185185e+00	 1.006187e+01
0	 8.074074e+00	 5.259259e+00	 1.006156e+01
0	 8.074074e+00	 5.333333e+00	 1.006118e+01
0	 8.074074e+00	 5.407407e+00	 1.006074e+01
0	 8.074074e+00	 5.481481e+00	 1.006024e+01
0	 8.074074e+00	 5.555556e+00	 1.005967e+01
0	 8.148148e+00	 5.185185e+00	 1.005689e+01
0	 8.148148e+00	 5.259259e+00	 1.005671e+01
0	 8.148148e+00	 5.333333e+00	 1.005646e+01
0	 8.148148e+00	 5.407407e+00	 1.005615e+01
0	 8.148148e+00	 5.481481e+00	 1.005577e+01
0	 8.148148e+00	 5.555556e+00	 1.005532e+01
0	 7.777778e+00	 5.555556e+00	 1.007764e+01
0	 7.777778e+00	 5.629630e+00	 1.007650e+01
0	 7.777778e+00	 5.703704e+00	 1.007532e+01
0	 7.777778e+00	 5.777778e+00	 1.007408e+01
0	 7.777778e+00	 5.851852e+00	 1.007280e+01
0	 7.777778e+00	 5.925926e+00	 1.007146e+01
0	 7.851852e+00	 5.555556e+00	 1.007307e+01
0	 7.851852e+00	 5.629630e+00	 1.007206e+01
0	 7.851852e+00	 5.703704e+00	 1.007101e+01
0	 7.851852e+00	 5.777778e+00	 1.006990e+01
0	 7.851852e+00	 5.851852e+00	 1.006874e+01
0	 7.851852e+00	 5.925926e+00	 1.006753e+01
0	 7.925926e+00	 5.555556e+00	 1.006855e+01
0	 7.925926e+00	 5.629630e+00	 1.006767e+01
0	 7.925926e+00	 5.703704e+00	 1.006674e+01
0	 7.925926e+00	 5.777778e+00	 1.006576e+01
0	 7.925926e+00	 5.851852e+00	 1.006472e+01
0	 7.925926e+00	 5.925926e+00	 1.006364e+01
0	 8.000000e+00	 5.555556e+00	 1.006408e+01
0	 8.000000e+00	 5.629630e+00	 1.006332e+01
0	 8.000000e+00	 5.703704e+00	 1.006252e+01
0	 8.000000e+00	 5.777778e+00	 1.006166e+01
0	 8.000000e+00	 5.851852e+00	 1.006075e+01
0	 8.000000e+00	 5.925926e+00	 1.005979e+01
0	 8.074074e+00	 5.555556e+00	 1.005967e+01
0	 8.074074e+00	 5.629630e+00	 1.005904e+01
0	 8.074074e+00	 5.703704e+00	 1.005835e+01
0	 8.074074e+00	 5.777778e+00	 1.005762e+01
0	 8.074074e+00	 5.851852e+00	 1.005683e+01
0	 8.074074e+00	 5.925926e+00	 1.005599e+01
0	 8.148148e+00	 5.555556e+00	 1.005532e+01
0	 8.148148e+00	 5.629630e+00	 1.005481e+01
0	 8.148148e+00	 5.703704e+00	 1.005425e+01
0	 8.148148e+00	 5.777778e+00	 1.005364e+01
0	 8.148148e+00	 5.851852e+00	 1.005297e+01
0	 8.148148e+00	 5.925926e+00	 1.005224e+01
0	 7.777778e+00	 5.925926e+00	 1.007146e+01
0	 7.777778e+00	 6.000000e+00	 1.007008e+01
0	 7.777778e+00	 6.074074e+00	 1.006867e+01
0	 7.777778e+00	 6.148148e+00	 1.006722e+01
0	 7.777778e+00	 6.222222e+00	 1.006574e+01
0	 7.777778e+00	 6.296296e+00	 1.006421e+01
0	 7.851852e+00	 5.925926e+00	 1.006753e+01
0	 7.851852e+00	 6.000000e+00	 1.006627e+01
0	 7.851852e+00	 6.074074e+00	 1.006498e+01
0	 7.851852e+00	 6.148148e+00	 1.006366e+01
0	 7.851852e+00	 6.222222e+00	 1.006229e+01
0	 7.851852e+00	 6.296296e+00	 1.006089e+01
0	 7.925926e+00	 5.925926e+00	 1.006364e+01
0	 7.925926e+00	 6.000000e+00	 1.006250e+01
0	 7.925926e+00	 6.074074e+00	 1.006133e+01
0	 7.925926e+00	 6.148148e+00	 1.006013e+01
0	 7.925926e+00	 6.222222e+00	 1.005888e+01
0	 7.925926e+00	 6.296296e+00	 1.005759e+01
0	 8.000000e+00	 5.925926e+00	 1.005979e+01
0	 8.000000e+00	 6.000000e+00	 1.005877e+01
0	 8.000000e+00	 6.074074e+00	 1.005772e+01
0	 8.000000e+00	 6.148148e+00	 1.005663e+01
0	 8.000000e+00	 6.222222e+00	 1.005550e+01
0	 8.000000e+00	 6.296296e+00	 1.005433e+01
0	 8.074074e+00	 5.925926e+00	 1.005599e+01
0	 8.074074e+00	 6.000000e+00	 1.005509e+01
0	 8.074074e+00	 6.074074e+00	 1.005416e+01
0	 8.074074e+00	 6.148148e+00	 1.005319e+01
0	 8.074074e+00	 6.222222e+00	 1.005217e+01
0	 8.074074e+00	 6.296296e+00	 1.005111e+01
0	 8.148148e+00	 5.925926e+00	 1.005224e+01
0	 8.148148e+00	 6.000000e+00	 1.005147e+01
0	 8.148148e+00	 6.074074e+00	 1.005065e+01
0	 8.148148e+00	 6.148148e+00	 1.004979e+01
0	 8.148148e+00	 6.222222e+00	 1.004888e+01
0	 8.148148e+00	 6.296296e+00	 1.004793e+01
0	 7.777778e+00	 6.296296e+00	 1.006421e+01
0	 7.777778e+00	 6.370370e+00	 1.006266e+01
0	 7.777778e+00	 6.444444e+00	 1.006108e+01
0	 7.777778e+00	 6.518519e+00	 1.005949e+01
0	 7.777778e+00	 6.592593e+00	 1.005787e+01
0	 7.777778e+00	 6.666667e+00	 1.005622e+01
0	 7.851852e+00	 6.296296e+00	 1.006089e+01
0	 7.851852e+00	 6.370370e+00	 1.005945e+01
0	 7.851852e+00	 6.444444e+00	 1.005799e+01
0	 7.851852e+00	 6.518519e+00	 1.005650e+01
0	 7.851852e+00	 6.592593e+00	 1.005499e+01
0	 7.851852e+00	 6.666667e+00	 1.005345e+01
0	 7.925926e+00	 6.296296e+00	 1.005759e+01
0	 7.925926e+00	 6.370370e+00	 1.005627e+01
0	 7.925926e+00	 6.444444e+00	 1.005492e+01
0	 7.925926e+00	 6.518519e+00	 1.005355e+01
0	 7.925926e+00	 6.592593e+00	 1.005215e+01
0	 7.925926e+00	 6.666667e+00	 1.005071e+01
0	 8.000000e+00	 6.296296e+00	 1.005433e+01
0	 8.000000e+00	 6.370370e+00	 1.005312e+01
0	 8.000000e+00	 6.444444e+00	 1.005188e+01
0	 8.000000e+00	 6.518519e+00	 1.005062e+01
0	 8.000000e+00	 6.592593e+00	 1.004933e+01
0	 8.000000e+00	 6.666667e+00	 1.004800e+01
0	 8.074074e+00	 6.296296e+00	 1.005111e+01
0	 8.074074e+00	 6.370370e+00	 1.005001e+01
0	 8.074074e+00	 6.444444e+00	 1.004888e+01
0	 8.074074e+00	 6.518519e+00	 1.004773e+01
0	 8.074074e+00	 6.592593e+00	 1.004654e+01
0	 8.074074e+00	 6.666667e+00	 1.004532e+01
0	 8.148148e+00	 6.296296e+00	 1.004793e+01
0	 8.148148e+00	 6.370370e+00	 1.004694e+01
0	 8.148148e+00	 6.444444e+00	 1.004593e+01
0	 8.148148e+00	 6.518519e+00	 1.004488e+01
0	 8.148148e+00	 6.592593e+00	 1.004380e+01
0	 8.148148e+00	 6.666667e+00	 1.004268e+01
0	 7.777778e+00	 6.666667e+00	 1.005622e+01
0	 7.777778e+00	 6.740741e+00	 1.005455e+01
0	 7.777778e+00	 6.814815e+00	 1.005288e+01
0	 7.777778e+00	 6.888889e+00	 1.005119e+01
0	 7.777778e+00	 6.962963e+00	 1.004950e+01
0	 7.777778e+00	 7.037037e+00	 1.004778e+01
0	 7.851852e+00	 6.666667e+00	 1.005345e+01
0	 7.851852e+00	 6.740741e+00	 1.005190e+01
0	 7.851852e+00	 6.814815e+00	 1.005033e+01
0	 7.851852e+00	 6.888889e+00	 1.004875e+01
0	 7.851852e+00	 6.962963e+00	 1.004715e+01
0	 7.851852e+00	 7.037037e+00	 1.004554e+01
0	 7.925926e+00	 6.666667e+00	 1.005071e+01
0	 7.925926e+00	 6.740741e+00	 1.004926e+01
0	 7.925926e+00	 6.814815e+00	 1.004780e+01
0	 7.925926e+00	 6.888889e+00	 1.004632e+01
0	 7.925926e+00	 6.962963e+00	 1.004482e+01
0	 7.925926e+00	 7.037037e+00	 1.004331e+01
0	 8.000000e+00	 6.666667e+00	 1.004800e+01
0	 8.000000e+00	 6.740741e+00	 1.004665e+01
0	 8.000000e+00	 6.814815e+00	 1.004529e+01
0	 8.000000e+00	 6.888889e+00	 1.004391e+01
0	 8.000000e+00	 6.962963e+00	 1.004252e+01
0	 8.000000e+00	 7.037037e+00	 1.004110e+01
0	 8.074074e+00	 6.666667e+00	 1.004532e+01
0	 8.074074e+00	 6.740741e+00	 1.004408e+01
0	 8.074074e+00	 6.814815e+00	 1.004281e+01
0	 8.074074e+00	 6.888889e+00	 1.004154e+01
0	 8.074074e+00	 6.962963e+00	 1.004024e+01
0	 8.074074e+00	 7.037037e+00	 1.003892e+01
0	 8.148148e+00	 6.666667e+00	 1.004268e+01
0	 8.148148e+00	 6.740741e+00	 1.004154e+01
0	 8.148148e+00	 6.814815e+00	 1.004037e+01
0	 8.148148e+00	 6.888889e+00	 1.003919e+01
0	 8.148148e+00	 6.962963e+00	 1.003799e+01
0	 8.148148e+00	 7.037037e+00	 1.003677e+01
0	 7.777778e+00	 7.037037e+00	 1.004778e+01
0	 7.777778e+00	 7.111111e+00	 1.004607e+01
0	 7.777778e+00	 7.185185e+00	 1.004435e+01
0	 7.777778e+00	 7.259259e+00	 1.004264e+01
0	 7.777778e+00	 7.333333e+00	 1.004093e+01
0	 7.777778e+00	 7.407407e+00	 1.003921e+01
0	 7.851852e+00	 7.037037e+00	 1.004554e+01
0	 7.851852e+00	 7.111111e+00	 1.004392e+01
0	 7.851852e+00	 7.185185e+00	 1.004230e+01
0	 7.851852e+00	 7.259259e+00	 1.004068e+01
0	 7.851852e+00	 7.333333e+00	 1.003906e+01
0	 7.851852e+00	 7.407407e+00	 1.003744e+01
0	 7.925926e+00	 7.037037e+00	 1.004331e+01
0	 7.925926e+00	 7.111111e+00	 1.004179e+01
0	 7.925926e+00	 7.185185e+00	 1.004027e+01
0	 7.925926e+00	 7.259259e+00	 1.003874e+01
0	 7.925926e+00	 7.333333e+00	 1.003721e+01
0	 7.925926e+00	 7.407407e+00	 1.003567e+01
0	 8.000000e+00	 7.037037e+00	 1.004110e+01
0	 8.000000e+00	 7.111111e+00	 1.003968e+01
0	 8.000000e+00	 7.185185e+00	 1.003825e+01
0	 8.000000e+00	 7.259259e+00	 1.003681e+01
0	 8.000000e+00	 7.333333e+00	 1.003537e+01
0	 8.000000e+00	 7.407407e+00	 1.003392e+01
0	 8.074074e+00	 7.037037e+00	 1.003892e+01
0	 8.074074e+00	 7.111111e+00	 1.003759e+01
0	 8.074074e+00	 7.185185e+00	 1.003625e+01
0	 8.074074e+00	 7.259259e+00	 1.003491e+01
0	 8.074074e+00	 7.333333e+00	 1.003356e+01
0	 8.074074e+00	 7.407407e+00	 1.003219e+01
0	 8.148148e+00	 7.037037e+00	 1.003677e+01
0	 8.148148e+00	 7.111111e+00	 1.003553e+01
0	 8.148148e+00	 7.185185e+00	 1.003428e+01
0	 8.148148e+00	 7.259259e+00	 1.003303e+01
0	 8.148148e+00	 7.333333e+00	 1.003176e+01
0	 8.148148e+00	 7.407407e+00	 1.003049e+01
0	 7.777778e+00	 7.407407e+00	 1.003921e+01
0	 7.777778e+00	 7.481481e+00	 1.003750e+01
0	 7.777778e+00	 7.555556e+00	 1.003580e+01
0	 7.777778e+00	 7.629630e+00	 1.003412e+01
0	 7.777778e+00	 7.703704e+00	 1.003245e+01
0	 7.777778e+00	 7.777778e+00	 1.003078e+01
0	 7.851852e+00	 7.407407e+00	 1.003744e+01
0	 7.851852e+00	 7.481481e+00	 1.003581e+01
0	 7.851852e+00	 7.555556e+00	 1.003420e+01
0	 7.851852e+00	 7.629630e+00	 1.003261e+01
0	 7.851852e+00	 7.703704e+00	 1.003102e+01
0	 7.851852e+00	 7.777778e+00	 1.002943e+01
0	 7.925926e+00	 7.407407e+00	 1.003567e+01
0	 7.925926e+00	 7.481481e+00	 1.003414e+01
0	 7.925926e+00	 7.555556e+00	 1.003261e+01
0	 7.925926e+00	 7.629630e+00	 1.003110e+01
0	 7.925926e+00	 7.703704e+00	 1.002959e+01
0	 7.925926e+00	 7.777778e+00	 1.002809e+01
0	 8.000000e+00	 7.407407e+00	 1.003392e+01
0	 8.000000e+00	 7.481481e+00	 1.003248e+01
0	 8.000000e+00	 7.555556e+00	 1.003104e+01
0	 8.000000e+00	 7.629630e+00	 1.002960e+01
0	 8.000000e+00	 7.703704e+00	 1.002818e+01
0	 8.000000e+00	 7.777778e+00	 1.002675e+01
0	 8.074074e+00	 7.407407e+00	 1.003219e+01
0	 8.074074e+00	 7.481481e+00	 1.003083e+01
0	 8.074074e+00	 7.555556e+00	 1.002947e+01
0	 8.074074e+00	 7.629630e+00	 1.002812e+01
0	 8.074074e+00	 7.703704e+00	 1.002678e+01
0	 8.074074e+00	 7.777778e+00	 1.002543e+01
0	 8.148148e+00	 7.407407e+00	 1.003049e+01
0	 8.148148e+00	 7.481481e+00	 1.002921e+01
0	 8.148148e+00	 7.555556e+00	 1.002793e+01
0	 8.148148e+00	 7.629630e+00	 1.002666e+01
0	 8.148148e+00	 7.703704e+00	 1.002539e+01
0	 8.148148e+00	 7.777778e+00	 1.002412e+01
0	 7.777778e+00	 7.777778e+00	 1.003078e+01
0	 7.777778e+00	 7.851852e+00	 1.002913e+01
0	 7.777778e+00	 7.925926e+00	 1.002751e+01
0	 7.777778e+00	 8.000000e+00	 1.002592e+01
0	 7.777778e+00	 8.074074e+00	 1.002434e+01
0	 7.777778e+00	 8.148148e+00	 1.002278e+01
0	 7.851852e+00	 7.777778e+00	 1.002943e+01
0	 7.851852e+00	 7.851852e+00	 1.002786e+01
0	 7.851852e+00	 7.925926e+00	 1.002632e+01
0	 7.851852e+00	 8.000000e+00	 1.002479e+01
0	 7.851852e+00	 8.074074e+00	 1.002329e+01
0	 7.851852e+00	 8.148148e+00	 1.002181e+01
0	 7.925926e+00	 7.777778e+00	 1.002809e+01
0	 7.925926e+00	 7.851852e+00	 1.002659e+01
0	 7.925926e+00	 7.925926e+00	 1.002513e+01
0	 7.925926e+00	 8.000000e+00	 1.002368e+01
0	 7.925926e+00	 8.074074e+00	 1.002225e+01
0	 7.925926e+00	 8.148148e+00	 1.002083e+01
0	 8.000000e+00	 7.777778e+00	 1.002675e+01
0	 8.000000e+00	 7.851852e+00	 1.002534e+01
0	 8.000000e+00	 7.925926e+00	 1.002394e+01
0	 8.000000e+00	 8.000000e+00	 1.002257e+01
0	 8.000000e+00	 8.074074e+00	 1.002121e+01
0	 8.000000e+00	 8.148148e+00	 1.001986e+01
0	 8.074074e+00	 7.777778e+00	 1.002543e+01
0	 8.074074e+00	 7.851852e+00	 1.002409e+01
0	 8.074074e+00	 7.925926e+00	 1.002277e+01
0	 8.074074e+00	 8.000000e+00	 1.002147e+01
0	 8.074074e+00	 8.074074e+00	 1.002018e+01
0	 8.074074e+00	 8.148148e+00	 1.001890e+01
0	 8.148148e+00	 7.777778e+00	 1.002412e+01
0	 8.148148e+00	 7.851852e+00	 1.002286e+01
0	 8.148148e+00	 7.925926e+00	 1.002161e+01
0	 8.148148e+00	 8.000000e+00	 1.002038e+01
0	 8.148148e+00	 8.074074e+00	 1.001916e+01
0	 8.148148e+00	 8.148148e+00	 1.001795e+01
0	 7.777778e+00	 8.148148e+00	 1.002278e+01
0	 7.777778e+00	 8.222222e+00	 1.002126e+01
0	 7.777778e+00	 8.296296e+00	 1.001977e+01
0	 7.777778e+00	 8.370370e+00	 1.001832e+01
0	 7.777778e+00	 8.444444e+00	 1.001690e+01
0	 7.777778e+00	 8.518519e+00	 1.001551e+01
0	 7.851852e+00	 8.148148e+00	 1.002181e+01
0	 7.851852e+00	 8.222222e+00	 1.002035e+01
0	 7.851852e+00	 8.296296e+00	 1.001893e+01
0	 7.851852e+00	 8.370370e+00	 1.001754e+01
0	 7.851852e+00	 8.444444e+00	 1.001618e+01
0	 7.851852e+00	 8.518519e+00	 1.001485e+01
0	 7.925926e+00	 8.148148e+00	 1.002083e+01
0	 7.925926e+00	 8.222222e+00	 1.001944e+01
0	 7.925926e+00	 8.296296e+00	 1.001808e+01
0	 7.925926e+00	 8.370370e+00	 1.001676e+01
0	 7.925926e+00	 8.444444e+00	 1.001547e+01
0	 7.925926e+00	 8.518519e+00	 1.001420e+01
0	 8.000000e+00	 8.148148e+00	 1.001986e+01
0	 8.000000e+00	 8.222222e+00	 1.001854e+01
0	 8.000000e+00	 8.296296e+00	 1.001725e+01
0	 8.000000e+00	 8.370370e+00	 1.001599e+01
0	 8.000000e+00	 8.444444e+00	 1.001475e+01
0	 8.000000e+00	 8.518519e+00	 1.001355e+01
0	 8.074074e+00	 8.148148e+00	 1.001890e+01
0	 8.074074e+00	 8.222222e+00	 1.001765e+01
0	 8.074074e+00	 8.296296e+00	 1.001642e+01
0	 8.074074e+00	 8.370370e+00	 1.001522e+01
0	 8.074074e+00	 8.444444e+00	 1.001405e+01
0	 8.074074e+00	 8.518519e+00	 1.001290e+01
0	 8.148148e+00	 8.148148e+00	 1.001795e+01
0	 8.148148e+00	 8.222222e+00	 1.001676e+01
0	 8.148148e+00	 8.296296e+00	 1.001560e+01
0	 8.148148e+00	 8.370370e+00	 1.001447e+01
0	 8.148148e+00	 8.444444e+00	 1.001335e+01
0	 8.148148e+00	 8.518519e+00	 1.001226e+01
0	 7.777778e+00	 8.518519e+00	 1.001551e+01
0	 7.777778e+00	 8.592593e+00	 1.001416e+01
0	 7.777778e+00	 8.666667e+00	 1.001286e+01
0	 7.777778e+00	 8.740741e+00	 1.001162e+01
0	 7.777778e+00	 8.814815e+00	 1.001042e+01
0	 7.777778e+00	 8.888889e+00	 1.000926e+01
0	 7.851852e+00	 8.518519e+00	 1.001485e+01
0	 7.851852e+00	 8.592593e+00	 1.001356e+01
0	 7.851852e+00	 8.666667e+00	 1.001232e+01
0	 7.851852e+00	 8.740741e+00	 1.001113e+01
0	 7.851852e+00	 8.814815e+00	 1.000998e+01
0	 7.851852e+00	 8.888889e+00	 1.000887e+01
0	 7.925926e+00	 8.518519e+00	 1.001420e+01
0	 7.925926e+00	 8.592593e+00	 1.001296e+01
0	 7.925926e+00	 8.666667e+00	 1.001178e+01
0	 7.925926e+00	 8.740741e+00	 1.001064e+01
0	 7.925926e+00	 8.814815e+00	 1.000954e+01
0	 7.925926e+00	 8.888889e+00	 1.000848e+01
0	 8.000000e+00	 8.518519e+00	 1.001355e+01
0	 8.000000e+00	 8.592593e+00	 1.001237e+01
0	 8.000000e+00	 8.666667e+00	 1.001124e+01
0	 8.000000e+00	 8.740741e+00	 1.001015e+01
0	 8.000000e+00	 8.814815e+00	 1.000911e+01
0	 8.000000e+00	 8.888889e+00	 1.000809e+01
0	 8.074074e+00	 8.518519e+00	 1.001290e+01
0	 8.074074e+00	 8.592593e+00	 1.001178e+01
0	 8.074074e+00	 8.666667e+00	 1.001071e+01
0	 8.074074e+00	 8.740741e+00	 1.000967e+01
0	 8.074074e+00	 8.814815e+00	 1.000867e+01
0	 8.074074e+00	 8.888889e+00	 1.000771e+01
0	 8.148148e+00	 8.518519e+00	 1.001226e+01
0	 8.148148e+00	 8.592593e+00	 1.001120e+01
0	 8.148148e+00	 8.666667e+00	 1.001018e+01
0	 8.148148e+00	 8.740741e+00	 1.000920e+01
0	 8.148148e+00	 8.814815e+00	 1.000825e+01
0	 8.148148e+00	 8.888889e+00	 1.000733e+01
0	 7.777778e+00	 8.888889e+00	 1.000926e+01
0	 7.777778e+00	 8.962963e+00	 1.000815e+01
0	 7.777778e+00	 9.037037e+00	 1.000711e+01
0	 7.777778e+00	 9.111111e+00	 1.000614e+01
0	 7.777778e+00	 9.185185e+00	 1.000522e+01
0	 7.777778e+00	 9.259259e+00	 1.000435e+01
0	 7.851852e+00	 8.888889e+00	 1.000887e+01
0	 7.851852e+00	 8.962963e+00	 1.000781e+01
0	 7.851852e+00	 9.037037e+00	 1.000681e+01
0	 7.851852e+00	 9.111111e+00	 1.000588e+01
0	 7.851852e+00	 9.185185e+00	 1.000500e+01
0	 7.851852e+00	 9.259259e+00	 1.000417e+01
0	 7.925926e+00	 8.888889e+00	 1.000848e+01
0	 7.925926e+00	 8.962963e+00	 1.000747e+01
0	 7.925926e+00	 9.037037e+00	 1.000652e+01
0	 7.925926e+00	 9.111111e+00	 1.000562e+01
0	 7.925926e+00	 9.185185e+00	 1.000478e+01
0	 7.925926e+00	 9.259259e+00	 1.000399e+01
0	 8.000000e+00	 8.888889e+00	 1.000809e+01
0	 8.000000e+00	 8.962963e+00	 1.000713e+01
0	 8.000000e+00	 9.037037e+00	 1.000622e+01
0	 8.000000e+00	 9.111111e+00	 1.000536e+01
0	 8.000000e+00	 9.185185e+00	 1.000456e+01
0	 8.000000e+00	 9.259259e+00	 1.000381e+01
0	 8.074074e+00	 8.888889e+00	 1.000771e+01
0	 8.074074e+00	 8.962963e+00	 1.000679e+01
0	 8.074074e+00	 9.037037e+00	 1.000592e+01
0	 8.074074e+00	 9.111111e+00	 1.000511e+01
0	 8.074074e+00	 9.185185e+00	 1.000435e+01
0	 8.074074e+00	 9.259259e+00	 1.000363e+01
0	 8.148148e+00	 8.888889e+00	 1.000733e+01
0	 8.148148e+00	 8.962963e+00	 1.000646e+01
0	 8.148148e+00	 9.037037e+00	 1.000563e+01
0	 8.148148e+00	 9.111111e+00	 1.000486e+01
0	 8.148148e+00	 9.185185e+00	 1.000413e+01
0	 8.148148e+00	 9.259259e+00	 1.000345e+01
0	 7.777778e+00	 9.259259e+00	 1.000435e+01
0	 7.777778e+00	 9.333333e+00	 1.000356e+01
0	 7.777778e+00	 9.407407e+00	 1.000285e+01
0	 7.777778e+00	 9.481481e+00	 1.000221e+01
0	 7.777778e+00	 9.555556e+00	 1.000164e+01
0	 7.777778e+00	 9.629630e+00	 1.000115e+01
0	 7.851852e+00	 9.259259e+00	 1.000417e+01
0	 7.851852e+00	 9.333333e+00	 1.000341e+01
0	 7.851852e+00	 9.407407e+00	 1.000273e+01
0	 7.851852e+00	 9.481481e+00	 1.000212e+01
0	 7.851852e+00	 9.555556e+00	 1.000158e+01
0	 7.851852e+00	 9.629630e+00	 1.000110e+01
0	 7.925926e+00	 9.259259e+00	 1.000399e+01
0	 7.925926e+00	 9.333333e+00	 1.000326e+01
0	 7.925926e+00	 9.407407e+00	 1.000261e+01
0	 7.925926e+00	 9.481481e+00	 1.000202e+01
0	 7.925926e+00	 9.555556e+00	 1.000151e+01
0	 7.925926e+00	 9.629630e+00	 1.000105e+01
0	 8.000000e+00	 9.259259e+00	 1.000381e+01
0	 8.000000e+00	 9.333333e+00	 1.000311e+01
0	 8.000000e+00	 9.407407e+00	 1.000249e+01
0	 8.000000e+00	 9.481481e+00	 1.000193e+01
0	 8.000000e+00	 9.555556e+00	 1.000144e+01
0	 8.000000e+00	 9.629630e+00	 1.000100e+01
0	 8.074074e+00	 9.259259e+00	 1.000363e+01
0	 8.074074e+00	 9.333333e+00	 1.000296e+01
0	 8.074074e+00	 9.407407e+00	 1.000237e+01
0	 8.074074e+00	 9.481481e+00	 1.000184e+01
0	 8.074074e+00	 9.555556e+00	 1.000137e+01
0	 8.074074e+00	 9.629630e+00	 1.000096e+01
0	 8.148148e+00	 9.259259e+00	 1.000345e+01
0	 8.148148e+00	 9.333333e+00	 1.000282e+01
0	 8.148148e+00	 9.407407e+00	 1.000225e+01
0	 8.148148e+00	 9.481481e+00	 1.000175e+01
0	 8.148148e+00	 9.555556e+00	 1.000130e+01
0	 8.148148e+00	 9.629630e+00	 1.000091e+01
0	 7.777778e+00	 9.629630e+00	 1.000115e+01
0	 7.777778e+00	 9.703704e+00	 1.000074e+01
0	 7.777778e+00	 9.777778e+00	 1.000042e+01
0	 7.777778e+00	 9.851852e+00	 1.000019e+01
0	 7.777778e+00	 9.925926e+00	 1.000005e+01
0	 7.777778e+00	 1.000000e+01	 9.999992e+00
0	 7.851852e+00	 9.629630e+00	 1.000110e+01
0	 7.851852e+00	 9.703704e+00	 1.000071e+01
0	 7.851852e+00	 9.777778e+00	 1.000040e+01
0	 7.851852e+00	 9.851852e+00	 1.000019e+01
0	 7.851852e+00	 9.925926e+00	 1.000005e+01
0	 7.851852e+00	 1.000000e+01	 9.999995e+00
0	 7.925926e+00	 9.629630e+00	 1.000105e+01
0	 7.925926e+00	 9.703704e+00	 1.000068e+01
0	 7.925926e+00	 9.777778e+00	 1.000039e+01
0	 7.925926e+00	 9.851852e+00	 1.000018e+01
0	 7.925926e+00	 9.925926e+00	 1.000005e+01
0	 7.925926e+00	 1.000000e+01	 9.999995e+00
0	 8.000000e+00	 9.629630e+00	 1.000100e+01
0	 8.000000e+00	 9.703704e+00	 1.000064e+01
0	 8.000000e+00	 9.777778e+00	 1.000037e+01
0	 8.000000e+00	 9.851852e+00	 1.000017e+01
0	 8.000000e+00	 9.925926e+00	 1.000004e+01
0	 8.000000e+00	 1.000000e+01	 9.999993e+00
0	 8.074074e+00	 9.629630e+00	 1.000096e+01
0	 8.074074e+00	 9.703704e+00	 1.000061e+01
0	 8.074074e+00	 9.777778e+00	 1.000035e+01
0	 8.074074e+00	 9.851852e+00	 1.000016e+01
0	 8.074074e+00	 9.925926e+00	 1.000004e+01
0	 8.074074e+00	 1.000000e+01	 9.999992e+00
0	 8.148148e+00	 9.629630e+00	 1.000091e+01
0	 8.148148e+00	 9.703704e+00	 1.000058e+01
0	 8.148148e+00	 9.777778e+00	 1.000033e+01
0	 8.148148e+00	 9.851852e+00	 1.000015e+01
0	 8.148148e+00	 9.925926e+00	 1.000004e+01
0	 8.148148e+00	 1.000000e+01	 9.999994e+00
0	 8.148148e+00	 0.000000e+00	 9.955262e+00
0	 8.148148e+00	 7.407407e-02	 9.955327e+00
0	 8.148148e+00	 1.481481e-01	 9.955526e+00
0	 8.148148e+00	 2.222222e-01	 9.955858e+00
0	 8.148148e+00	 2.962963e-01	 9.956325e+00
0	 8.148148e+00	 3.703704e-01	 9.956928e+00
0	 8.222222e+00	 0.000000e+00	 9.946192e+00
0	 8.222222e+00	 7.407407e-02	 9.946256e+00
0	 8.222222e+00	 1.481481e-01	 9.946453e+00
0	 8.222222e+00	 2.222222e-01	 9.946785e+00
0	 8.222222e+00	 2.962963e-01	 9.947250e+00
0	 8.222222e+00	 3.703704e-01	 9.947852e+00
0	 8.296296e+00	 0.000000e+00	 9.936984e+00
0	 8.296296e+00	 7.407407e-02	 9.937049e+00
0	 8.296296e+00	 1.481481e-01	 9.937247e+00
0	 8.296296e+00	 2.222222e-01	 9.937578e+00
0	 8.296296e+00	 2.962963e-01	 9.938044e+00
0	 8.296296e+00	 3.703704e-01	 9.938646e+00
0	 8.370370e+00	 0.000000e+00	 9.927627e+00
0	 8.370370e+00	 7.407407e-02	 9.927694e+00
0	 8.370370e+00	 1.481481e-01	 9.927893e+00
0	 8.370370e+00	 2.222222e-01	 9.928226e+00
0	 8.370370e+00	 2.962963e-01	 9.928694e+00
0	 8.370370e+00	 3.703704e-01	 9.929296e+00
0	 8.444444e+00	 0.000000e+00	 9.918109e+00
0	 8.444444e+00	 7.407407e-02	 9.918177e+00
0	 8.444444e+00	 1.481481e-01	 9.918379e+00
0	 8.444444e+00	 2.222222e-01	 9.918714e+00
0	 8.444444e+00	 2.962963e-01	 9.919185e+00
0	 8.444444e+00	 3.703704e-01	 9.919791e+00
0	 8.518519e+00	 0.000000e+00	 9.908417e+00
0	 8.518519e+00	 7.407407e-02	 9.908487e+00
0	 8.518519e+00	 1.481481e-01	 9.908691e+00
0	 8.518519e+00	 2.222222e-01	 9.909031e+00
0	 8.518519e+00	 2.962963e-01	 9.909506e+00
0	 8.518519e+00	 3.703704e-01	 9.910117e+00
0	 8.148148e+00	 3.703704e-01	 9.956928e+00
0	 8.148148e+00	 4.444444e-01	 9.957658e+00
0	 8.148148e+00	 5.185185e-01	 9.958507e+00
0	 8.148148e+00	 5.925926e-01	 9.959478e+00
0	 8.148148e+00	 6.666667e-01	 9.960573e+00
0	 8.148148e+00	 7.407407e-01	 9.961794e+00
0	 8.222222e+00	 3.703704e-01	 9.947852e+00
0	 8.222222e+00	 4.444444e-01	 9.948580e+00
0	 8.222222e+00	 5.185185e-01	 9.949428e+00
0	 8.222222e+00	 5.925926e-01	 9.950397e+00
0	 8.222222e+00	 6.666667e-01	 9.951490e+00
0	 8.222222e+00	 7.407407e-01	 9.952710e+00
0	 8.296296e+00	 3.703704e-01	 9.938646e+00
0	 8.296296e+00	 4.444444e-01	 9.939374e+00
0	 8.296296e+00	 5.185185e-01	 9.940222e+00
0	 8.296296e+00	 5.925926e-01	 9.941193e+00
0	 8.296296e+00	 6.666667e-01	 9.942288e+00
0	 8.296296e+00	 7.407407e-01	 9.943509e+00
0	 8.370370e+00	 3.703704e-01	 9.929296e+00
0	 8.370370e+00	 4.444444e-01	 9.930027e+00
0	 8.370370e+00	 5.185185e-01	 9.930878e+00
0	 8.370370e+00	 5.925926e-01	 9.931853e+00
0	 8.370370e+00	 6.666667e-01	 9.932953e+00
0	 8.370370e+00	 7.407407e-01	 9.934180e+00
0	 8.444444e+00	 3.703704e-01	 9.919791e+00
0	 8.444444e+00	 4.444444e-01	 9.920526e+00
0	 8.444444e+00	 5.185185e-01	 9.921383e+00
0	 8.444444e+00	 5.925926e-01	 9.922365e+00
0	 8.444444e+00	 6.666667e-01	 9.923473e+00
0	 8.444444e+00	 7.407407e-01	 9.924710e+00
0	 8.518519e+00	 3.703704e-01	 9.910117e+00
0	 8.518519e+00	 4.444444e-01	 9.910859e+00
0	 8.518519e+00	 5.185185e-01	 9.911724e+00
0	 8.518519e+00	 5.925926e-01	 9.912716e+00
0	 8.518519e+00	 6.666667e-01	 9.913837e+00
0	 8.518519e+00	 7.407407e-01	 9.915087e+00
0	 8.148148e+00	 7.407407e-01	 9.961794e+00
0	 8.148148e+00	 8.148148e-01	 9.963127e+00
0	 8.148148e+00	 8.888889e-01	 9.964557e+00
0	 8.148148e+00	 9.629630e-01	 9.966088e+00
0	 8.148148e+00	 1.037037e+00	 9.967724e+00
0	 8.148148e+00	 1.111111e+00	 9.969469e+00
0	 8.222222e+00	 7.407407e-01	 9.952710e+00
0	 8.222222e+00	 8.148148e-01	 9.954041e+00
0	 8.222222e+00	 8.888889e-01	 9.955471e+00
0	 8.222222e+00	 9.629630e-01	 9.957003e+00
0	 8.222222e+00	 1.037037e+00	 9.958640e+00
0	 8.222222e+00	 1.111111e+00	 9.960386e+00
0	 8.296296e+00	 7.407407e-01	 9.943509e+00
0	 8.296296e+00	 8.148148e-01	 9.944844e+00
0	 8.296296e+00	 8.888889e-01	 9.946277e+00
0	 8.296296e+00	 9.629630e-01	 9.947814e+00
0	 8.296296e+00	 1.037037e+00	 9.949457e+00
0	 8.296296e+00	 1.111111e+00	 9.951210e+00
0	 8.370370e+00	 7.407407e-01	 9.934180e+00
0	 8.370370e+00	 8.148148e-01	 9.935521e+00
0	 8.370370e+00	 8.888889e-01	 9.936963e+00
0	 8.370370e+00	 9.629630e-01	 9.938510e+00
0	 8.370370e+00	 1.037037e+00	 9.940164e+00
0	 8.370370e+00	 1.111111e+00	 9.941928e+00
0	 8.444444e+00	 7.407407e-01	 9.924710e+00
0	 8.444444e+00	 8.148148e-01	 9.926062e+00
0	 8.444444e+00	 8.888889e-01	 9.927517e+00
0	 8.444444e+00	 9.629630e-01	 9.929078e+00
0	 8.444444e+00	 1.037037e+00	 9.930747e+00
0	 8.444444e+00	 1.111111e+00	 9.932528e+00
0	 8.518519e+00	 7.407407e-01	 9.915087e+00
0	 8.518519e+00	 8.148148e-01	 9.916454e+00
0	 8.518519e+00	 8.888889e-01	 9.917926e+00
0	 8.518519e+00	 9.629630e-01	 9.919505e+00
0	 8.518519e+00	 1.037037e+00	 9.921195e+00
0	 8.518519e+00	 1.111111e+00	 9.922998e+00
0	 8.148148e+00	 1.111111e+00	 9.969469e+00
0	 8.148148e+00	 1.185185e+00	 9.971302e+00
0	 8.148148e+00	 1.259259e+00	 9.973203e+00
0	 8.148148e+00	 1.333333e+00	 9.975177e+00
0	 8.148148e+00	 1.407407e+00	 9.977228e+00
0	 8.148148e+00	 1.481481e+00	 9.979362e+00
0	 8.222222e+00	 1.111111e+00	 9.960386e+00
0	 8.222222e+00	 1.185185e+00	 9.962222e+00
0	 8.222222e+00	 1.259259e+00	 9.964128e+00
0	 8.222222e+00	 1.333333e+00	 9.966108e+00
0	 8.222222e+00	 1.407407e+00	 9.968167e+00
0	 8.222222e+00	 1.481481e+00	 9.970310e+00
0	 8.296296e+00	 1.111111e+00	 9.951210e+00
0	 8.296296e+00	 1.185185e+00	 9.953054e+00
0	 8.296296e+00	 1.259259e+00	 9.954969e+00
0	 8.296296e+00	 1.333333e+00	 9.956962e+00
0	 8.296296e+00	 1.407407e+00	 9.959034e+00
0	 8.296296e+00	 1.481481e+00	 9.961192e+00
0	 8.370370e+00	 1.111111e+00	 9.941928e+00
0	 8.370370e+00	 1.185185e+00	 9.943785e+00
0	 8.370370e+00	 1.259259e+00	 9.945716e+00
0	 8.370370e+00	 1.333333e+00	 9.947726e+00
0	 8.370370e+00	 1.407407e+00	 9.949818e+00
0	 8.370370e+00	 1.481481e+00	 9.951997e+00
0	 8.444444e+00	 1.111111e+00	 9.932528e+00
0	 8.444444e+00	 1.185185e+00	 9.934403e+00
0	 8.444444e+00	 1.259259e+00	 9.936356e+00
0	 8.444444e+00	 1.333333e+00	 9.938389e+00
0	 8.444444e+00	 1.407407e+00	 9.940507e+00
0	 8.444444e+00	 1.481481e+00	 9.942714e+00
0	 8.518519e+00	 1.111111e+00	 9.922998e+00
0	 8.518519e+00	 1.185185e+00	 9.924898e+00
0	 8.518519e+00	 1.259259e+00	 9.926878e+00
0	 8.518519e+00	 1.333333e+00	 9.928941e+00
0	 8.518519e+00	 1.407407e+00	 9.931090e+00
0	 8.518519e+00	 1.481481e+00	 9.933331e+00
0	 8.148148e+00	 1.481481e+00	 9.979362e+00
0	 8.148148e+00	 1.555556e+00	 9.981555e+00
0	 8.148148e+00	 1.629630e+00	 9.983784e+00
0	 8.148148e+00	 1.703704e+00	 9.986054e+00
0	 8.148148e+00	 1.777778e+00	 9.988371e+00
0	 8.148148e+00	 1.851852e+00	 9.990739e+00
0	 8.222222e+00	 1.481481e+00	 9.970310e+00
0	 8.222222e+00	 1.555556e+00	 9.972514e+00
0	 8.222222e+00	 1.629630e+00	 9.974757e+00
0	 8.222222e+00	 1.703704e+00	 9.977045e+00
0	 8.222222e+00	 1.777778e+00	 9.979381e+00
0	 8.222222e+00	 1.851852e+00	 9.981770e+00
0	 8.296296e+00	 1.481481e+00	 9.961192e+00
0	 8.296296e+00	 1.555556e+00	 9.963414e+00
0	 8.296296e+00	 1.629630e+00	 9.965677e+00
0	 8.296296e+00	 1.703704e+00	 9.967987e+00
0	 8.296296e+00	 1.777778e+00	 9.970349e+00
0	 8.296296e+00	 1.851852e+00	 9.972766e+00
0	 8.370370e+00	 1.481481e+00	 9.951997e+00
0	 8.370370e+00	 1.555556e+00	 9.954242e+00
0	 8.370370e+00	 1.629630e+00	 9.956532e+00
0	 8.370370e+00	 1.703704e+00	 9.958872e+00
0	 8.370370e+00	 1.777778e+00	 9.961265e+00
0	 8.370370e+00	 1.851852e+00	 9.963716e+00
0	 8.444444e+00	 1.481481e+00	 9.942714e+00
0	 8.444444e+00	 1.555556e+00	 9.944988e+00
0	 8.444444e+00	 1.629630e+00	 9.947311e+00
0	 8.444444e+00	 1.703704e+00	 9.949687e+00
0	 8.444444e+00	 1.777778e+00	 9.952118e+00
0	 8.444444e+00	 1.851852e+00	 9.954609e+00
0	 8.518519e+00	 1.481481e+00	 9.933331e+00
0	 8.518519e+00	 1.555556e+00	 9.935642e+00
0	 8.518519e+00	 1.629630e+00	 9.938004e+00
0	 8.518519e+00	 1.703704e+00	 9.940422e+00
0	 8.518519e+00	 1.777778e+00	 9.942898e+00
0	 8.518519e+00	 1.851852e+00	 9.945437e+00
0	 8.148148e+00	 1.851852e+00	 9.990739e+00
0	 8.148148e+00	 1.925926e+00	 9.993136e+00
0	 8.148148e+00	 2.000000e+00	 9.995536e+00
0	 8.148148e+00	 2.074074e+00	 9.997947e+00
0	 8.148148e+00	 2.148148e+00	 1.000037e+01
0	 8.148148e+00	 2.222222e+00	 1.000281e+01
0	 8.222222e+00	 1.851852e+00	 9.981770e+00
0	 8.222222e+00	 1.925926e+00	 9.984191e+00
0	 8.222222e+00	 2.000000e+00	 9.986620e+00
0	 8.222222e+00	 2.074074e+00	 9.989061e+00
0	 8.222222e+00	 2.148148e+00	 9.991519e+00
0	 8.222222e+00	 2.222222e+00	 9.994000e+00
0	 8.296296e+00	 1.851852e+00	 9.972766e+00
0	 8.296296e+00	 1.925926e+00	 9.975217e+00
0	 8.296296e+00	 2.000000e+00	 9.977679e+00
0	 8.296296e+00	 2.074074e+00	 9.980157e+00
0	 8.296296e+00	 2.148148e+00	 9.982656e+00
0	 8.296296e+00	 2.222222e+00	 9.985179e+00
0	 8.370370e+00	 1.851852e+00	 9.963716e+00
0	 8.370370e+00	 1.925926e+00	 9.966203e+00
0	 8.370370e+00	 2.000000e+00	 9.968706e+00
0	 8.370370e+00	 2.074074e+00	 9.971227e+00
0	 8.370370e+00	 2.148148e+00	 9.973772e+00
0	 8.370370e+00	 2.222222e+00	 9.976345e+00
0	 8.444444e+00	 1.851852e+00	 9.954609e+00
0	 8.444444e+00	 1.925926e+00	 9.957140e+00
0	 8.444444e+00	 2.000000e+00	 9.959690e+00
0	 8.444444e+00	 2.074074e+00	 9.962261e+00
0	 8.444444e+00	 2.148148e+00	 9.964859e+00
0	 8.444444e+00	 2.222222e+00	 9.967488e+00
0	 8.518519e+00	 1.851852e+00	 9.945437e+00
0	 8.518519e+00	 1.925926e+00	 9.948018e+00
0	 8.518519e+00	 2.000000e+00	 9.950622e+00
0	 8.518519e+00	 2.074074e+00	 9.953250e+00
0	 8.518519e+00	 2.148148e+00	 9.955909e+00
0	 8.518519e+00	 2.222222e+00	 9.958600e+00
0	 8.148148e+00	 2.222222e+00	 1.000281e+01
0	 8.148148e+00	 2.296296e+00	 1.000526e+01
0	 8.148148e+00	 2.370370e+00	 1.000767e+01
0	 8.148148e+00	 2.444444e+00	 1.001007e+01
0	 8.148148e+00	 2.518519e+00	 1.001245e+01
0	 8.148148e+00	 2.592593e+00	 1.001482e+01
0	 8.222222e+00	 2.222222e+00	 9.994000e+00
0	 8.222222e+00	 2.296296e+00	 9.996481e+00
0	 8.222222e+00	 2.370370e+00	 9.998942e+00
0	 8.222222e+00	 2.444444e+00	 1.000139e+01
0	 8.222222e+00	 2.518519e+00	 1.000382e+01
0	 8.222222e+00	 2.592593e+00	 1.000624e+01
0	 8.296296e+00	 2.222222e+00	 9.985179e+00
0	 8.296296e+00	 2.296296e+00	 9.987707e+00
0	 8.296296e+00	 2.370370e+00	 9.990218e+00
0	 8.296296e+00	 2.444444e+00	 9.992716e+00
0	 8.296296e+00	 2.518519e+00	 9.995205e+00
0	 8.296296e+00	 2.592593e+00	 9.997689e+00
0	 8.370370e+00	 2.222222e+00	 9.976345e+00
0	 8.370370e+00	 2.296296e+00	 9.978925e+00
0	 8.370370e+00	 2.370370e+00	 9.981492e+00
0	 8.370370e+00	 2.444444e+00	 9.984049e+00
0	 8.370370e+00	 2.518519e+00	 9.986601e+00
0	 8.370370e+00	 2.592593e+00	 9.989151e+00
0	 8.444444e+00	 2.222222e+00	 9.967488e+00
0	 8.444444e+00	 2.296296e+00	 9.970127e+00
0	 8.444444e+00	 2.370370e+00	 9.972756e+00
0	 8.444444e+00	 2.444444e+00	 9.975380e+00
0	 8.444444e+00	 2.518519e+00	 9.978001e+00
0	 8.444444e+00	 2.592593e+00	 9.980623e+00
0	 8.518519e+00	 2.222222e+00	 9.958600e+00
0	 8.518519e+00	 2.296296e+00	 9.961305e+00
0	 8.518519e+00	 2.370370e+00	 9.964003e+00
0	 8.518519e+00	 2.444444e+00	 9.966699e+00
0	 8.518519e+00	 2.518519e+00	 9.969396e+00
0	 8.518519e+00	 2.592593e+00	 9.972096e+00
0	 8.148148e+00	 2.592593e+00	 1.001482e+01
0	 8.148148e+00	 2.666667e+00	 1.001716e+01
0	 8.148148e+00	 2.740741e+00	 1.001945e+01
0	 8.148148e+00	 2.814815e+00	 1.002169e+01
0	 8.148148e+00	 2.888889e+00	 1.002390e+01
0	 8.148148e+00	 2.962963e+00	 1.002607e+01
0	 8.222222e+00	 2.592593e+00	 1.000624e+01
0	 8.222222e+00	 2.666667e+00	 1.000864e+01
0	 8.222222e+00	 2.740741e+00	 1.001099e+01
0	 8.222222e+00	 2.814815e+00	 1.001331e+01
0	 8.222222e+00	 2.888889e+00	 1.001558e+01
0	 8.222222e+00	 2.962963e+00	 1.001782e+01
0	 8.296296e+00	 2.592593e+00	 9.997689e+00
0	 8.296296e+00	 2.666667e+00	 1.000015e+01
0	 8.296296e+00	 2.740741e+00	 1.000257e+01
0	 8.296296e+00	 2.814815e+00	 1.000495e+01
0	 8.296296e+00	 2.888889e+00	 1.000730e+01
0	 8.296296e+00	 2.962963e+00	 1.000962e+01
0	 8.370370e+00	 2.592593e+00	 9.989151e+00
0	 8.370370e+00	 2.666667e+00	 9.991682e+00
0	 8.370370e+00	 2.740741e+00	 9.994175e+00
0	 8.370370e+00	 2.814815e+00	 9.996635e+00
0	 8.370370e+00	 2.888889e+00	 9.999063e+00
0	 8.370370e+00	 2.962963e+00	 1.000146e+01
0	 8.444444e+00	 2.592593e+00	 9.980623e+00
0	 8.444444e+00	 2.666667e+00	 9.983228e+00
0	 8.444444e+00	 2.740741e+00	 9.985800e+00
0	 8.444444e+00	 2.814815e+00	 9.988341e+00
0	 8.444444e+00	 2.888889e+00	 9.990854e+00
0	 8.444444e+00	 2.962963e+00	 9.993341e+00
0	 8.518519e+00	 2.592593e+00	 9.972096e+00
0	 8.518519e+00	 2.666667e+00	 9.974784e+00
0	 8.518519e+00	 2.740741e+00	 9.977440e+00
0	 8.518519e+00	 2.814815e+00	 9.980069e+00
0	 8.518519e+00	 2.888889e+00	 9.982672e+00
0	 8.518519e+00	 2.962963e+00	 9.985253e+00
0	 8.148148e+00	 2.962963e+00	 1.002607e+01
0	 8.148148e+00	 3.037037e+00	 1.002818e+01
0	 8.148148e+00	 3.111111e+00	 1.003023e+01
0	 8.148148e+00	 3.185185e+00	 1.003221e+01
0	 8.148148e+00	 3.259259e+00	 1.003413e+01
0	 8.148148e+00	 3.333333e+00	 1.003600e+01
0	 8.222222e+00	 2.962963e+00	 1.001782e+01
0	 8.222222e+00	 3.037037e+00	 1.002001e+01
0	 8.222222e+00	 3.111111e+00	 1.002214e+01
0	 8.222222e+00	 3.185185e+00	 1.002421e+01
0	 8.222222e+00	 3.259259e+00	 1.002622e+01
0	 8.222222e+00	 3.333333e+00	 1.002817e+01
0	 8.296296e+00	 2.962963e+00	 1.000962e+01
0	 8.296296e+00	 3.037037e+00	 1.001189e+01
0	 8.296296e+00	 3.111111e+00	 1.001411e+01
0	 8.296296e+00	 3.185185e+00	 1.001626e+01
0	 8.296296e+00	 3.259259e+00	 1.001836e+01
0	 8.296296e+00	 3.333333e+00	 1.002041e+01
0	 8.370370e+00	 2.962963e+00	 1.000146e+01
0	 8.370370e+00	 3.037037e+00	 1.000382e+01
0	 8.370370e+00	 3.111111e+00	 1.000612e+01
0	 8.370370e+00	 3.185185e+00	 1.000837e+01
0	 8.370370e+00	 3.259259e+00	 1.001056e+01
0	 8.370370e+00	 3.333333e+00	 1.001271e+01
0	 8.444444e+00	 2.962963e+00	 9.993341e+00
0	 8.444444e+00	 3.037037e+00	 9.995790e+00
0	 8.444444e+00	 3.111111e+00	 9.998185e+00
0	 8.444444e+00	 3.185185e+00	 1.000053e+01
0	 8.444444e+00	 3.259259e+00	 1.000282e+01
0	 8.444444e+00	 3.333333e+00	 1.000507e+01
0	 8.518519e+00	 2.962963e+00	 9.985253e+00
0	 8.518519e+00	 3.037037e+00	 9.987798e+00
0	 8.518519e+00	 3.111111e+00	 9.990291e+00
0	 8.518519e+00	 3.185185e+00	 9.992737e+00
0	 8.518519e+00	 3.259259e+00	 9.995135e+00
0	 8.518519e+00	 3.333333e+00	 9.997489e+00
0	 8.148148e+00	 3.333333e+00	 1.003600e+01
0	 8.148148e+00	 3.407407e+00	 1.003779e+01
0	 8.148148e+00	 3.481481e+00	 1.003951e+01
0	 8.148148e+00	 3.555556e+00	 1.004115e+01
0	 8.148148e+00	 3.629630e+00	 1.004272e+01
0	 8.148148e+00	 3.703704e+00	 1.004421e+01
0	 8.222222e+00	 3.333333e+00	 1.002817e+01
0	 8.222222e+00	 3.407407e+00	 1.003006e+01
0	 8.222222e+00	 3.481481e+00	 1.003188e+01
0	 8.222222e+00	 3.555556e+00	 1.003362e+01
0	 8.222222e+00	 3.629630e+00	 1.003529e+01
0	 8.222222e+00	 3.703704e+00	 1.003688e+01
0	 8.296296e+00	 3.333333e+00	 1.002041e+01
0	 8.296296e+00	 3.407407e+00	 1.002240e+01
0	 8.296296e+00	 3.481481e+00	 1.002431e+01
0	 8.296296e+00	 3.555556e+00	 1.002615e+01
0	 8.296296e+00	 3.629630e+00	 1.002793e+01
0	 8.296296e+00	 3.703704e+00	 1.002963e+01
0	 8.370370e+00	 3.333333e+00	 1.001271e+01
0	 8.370370e+00	 3.407407e+00	 1.001480e+01
0	 8.370370e+00	 3.481481e+00	 1.001681e+01
0	 8.370370e+00	 3.555556e+00	 1.001876e+01
0	 8.370370e+00	 3.629630e+00	 1.002064e+01
0	 8.370370e+00	 3.703704e+00	 1.002246e+01
0	 8.444444e+00	 3.333333e+00	 1.000507e+01
0	 8.444444e+00	 3.407407e+00	 1.000726e+01
0	 8.444444e+00	 3.481481e+00	 1.000938e+01
0	 8.444444e+00	 3.555556e+00	 1.001144e+01
0	 8.444444e+00	 3.629630e+00	 1.001343e+01
0	 8.444444e+00	 3.703704e+00	 1.001536e+01
0	 8.518519e+00	 3.333333e+00	 9.997489e+00
0	 8.518519e+00	 3.407407e+00	 9.999788e+00
0	 8.518519e+00	 3.481481e+00	 1.000202e+01
0	 8.518519e+00	 3.555556e+00	 1.000419e+01
0	 8.518519e+00	 3.629630e+00	 1.000630e+01
0	 8.518519e+00	 3.703704e+00	 1.000834e+01
0	 8.148148e+00	 3.703704e+00	 1.004421e+01
0	 8.148148e+00	 3.777778e+00	 1.004562e+01
0	 8.148148e+00	 3.851852e+00	 1.004695e+01
0	 8.148148e+00	 3.925926e+00	 1.004820e+01
0	 8.148148e+00	 4.000000e+00	 1.004937e+01
0	 8.148148e+00	 4.074074e+00	 1.005045e+01
0	 8.222222e+00	 3.703704e+00	 1.003688e+01
0	 8.222222e+00	 3.777778e+00	 1.003840e+01
0	 8.222222e+00	 3.851852e+00	 1.003985e+01
0	 8.222222e+00	 3.925926e+00	 1.004121e+01
0	 8.222222e+00	 4.000000e+00	 1.004248e+01
0	 8.222222e+00	 4.074074e+00	 1.004368e+01
0	 8.296296e+00	 3.703704e+00	 1.002963e+01
0	 8.296296e+00	 3.777778e+00	 1.003126e+01
0	 8.296296e+00	 3.851852e+00	 1.003282e+01
0	 8.296296e+00	 3.925926e+00	 1.003429e+01
0	 8.296296e+00	 4.000000e+00	 1.003568e+01
0	 8.296296e+00	 4.074074e+00	 1.003700e+01
0	 8.370370e+00	 3.703704e+00	 1.002246e+01
0	 8.370370e+00	 3.777778e+00	 1.002420e+01
0	 8.370370e+00	 3.851852e+00	 1.002587e+01
0	 8.370370e+00	 3.925926e+00	 1.002746e+01
0	 8.370370e+00	 4.000000e+00	 1.002897e+01
0	 8.370370e+00	 4.074074e+00	 1.003041e+01
0	 8.444444e+00	 3.703704e+00	 1.001536e+01
0	 8.444444e+00	 3.777778e+00	 1.001722e+01
0	 8.444444e+00	 3.851852e+00	 1.001900e+01
0	 8.444444e+00	 3.925926e+00	 1.002071e+01
0	 8.444444e+00	 4.000000e+00	 1.002234e+01
0	 8.444444e+00	 4.074074e+00	 1.002390e+01
0	 8.518519e+00	 3.703704e+00	 1.000834e+01
0	 8.518519e+00	 3.777778e+00	 1.001032e+01
0	 8.518519e+00	 3.851852e+00	 1.001222e+01
0	 8.518519e+00	 3.925926e+00	 1.001405e+01
0	 8.518519e+00	 4.000000e+00	 1.001580e+01
0	 8.518519e+00	 4.074074e+00	 1.001748e+01
0	 8.148148e+00	 4.074074e+00	 1.005045e+01
0	 8.148148e+00	 4.148148e+00	 1.005145e+01
0	 8.148148e+00	 4.222222e+00	 1.005237e+01
0	 8.148148e+00	 4.296296e+00	 1.005320e+01
0	 8.148148e+00	 4.370370e+00	 1.005395e+01
0	 8.148148e+00	 4.444444e+00	 1.005461e+01
0	 8.222222e+00	 4.074074e+00	 1.004368e+01
0	 8.222222e+00	 4.148148e+00	 1.004480e+01
0	 8.222222e+00	 4.222222e+00	 1.004584e+01
0	 8.222222e+00	 4.296296e+00	 1.004679e+01
0	 8.222222e+00	 4.370370e+00	 1.004767e+01
0	 8.222222e+00	 4.444444e+00	 1.004845e+01
0	 8.296296e+00	 4.074074e+00	 1.003700e+01
0	 8.296296e+00	 4.148148e+00	 1.003824e+01
0	 8.296296e+00	 4.222222e+00	 1.003940e+01
0	 8.296296e+00	 4.296296e+00	 1.004047e+01
0	 8.296296e+00	 4.370370e+00	 1.004147e+01
0	 8.296296e+00	 4.444444e+00	 1.004238e+01
0	 8.370370e+00	 4.074074e+00	 1.003041e+01
0	 8.370370e+00	 4.148148e+00	 1.003176e+01
0	 8.370370e+00	 4.222222e+00	 1.003304e+01
0	 8.370370e+00	 4.296296e+00	 1.003424e+01
0	 8.370370e+00	 4.370370e+00	 1.003536e+01
0	 8.370370e+00	 4.444444e+00	 1.003639e+01
0	 8.444444e+00	 4.074074e+00	 1.002390e+01
0	 8.444444e+00	 4.148148e+00	 1.002538e+01
0	 8.444444e+00	 4.222222e+00	 1.002678e+01
0	 8.444444e+00	 4.296296e+00	 1.002810e+01
0	 8.444444e+00	 4.370370e+00	 1.002934e+01
0	 8.444444e+00	 4.444444e+00	 1.003050e+01
0	 8.518519e+00	 4.074074e+00	 1.001748e+01
0	 8.518519e+00	 4.148148e+00	 1.001909e+01
0	 8.518519e+00	 4.222222e+00	 1.002061e+01
0	 8.518519e+00	 4.296296e+00	 1.002206e+01
0	 8.518519e+00	 4.370370e+00	 1.002342e+01
0	 8.518519e+00	 4.444444e+00	 1.002471e+01
0	 8.148148e+00	 4.444444e+00	 1.005461e+01
0	 8.148148e+00	 4.518519e+00	 1.005520e+01
0	 8.148148e+00	 4.592593e+00	 1.005570e+01
0	 8.148148e+00	 4.666667e+00	 1.005612e+01
0	 8.148148e+00	 4.740741e+00	 1.005646e+01
0	 8.148148e+00	 4.814815e+00	 1.005672e+01
0	 8.222222e+00	 4.444444e+00	 1.004845e+01
0	 8.222222e+00	 4.518519e+00	 1.004916e+01
0	 8.222222e+00	 4.592593e+00	 1.004979e+01
0	 8.222222e+00	 4.666667e+00	 1.005034e+01
0	 8.222222e+00	 4.740741e+00	 1.005080e+01
0	 8.222222e+00	 4.814815e+00	 1.005119e+01
0	 8.296296e+00	 4.444444e+00	 1.004238e+01
0	 8.296296e+00	 4.518519e+00	 1.004321e+01
0	 8.296296e+00	 4.592593e+00	 1.004396e+01
0	 8.296296e+00	 4.666667e+00	 1.004464e+01
0	 8.296296e+00	 4.740741e+00	 1.004523e+01
0	 8.296296e+00	 4.814815e+00	 1.004574e+01
0	 8.370370e+00	 4.444444e+00	 1.003639e+01
0	 8.370370e+00	 4.518519e+00	 1.003735e+01
0	 8.370370e+00	 4.592593e+00	 1.003823e+01
0	 8.370370e+00	 4.666667e+00	 1.003903e+01
0	 8.370370e+00	 4.740741e+00	 1.003974e+01
0	 8.370370e+00	 4.814815e+00	 1.004038e+01
0	 8.444444e+00	 4.444444e+00	 1.003050e+01
0	 8.444444e+00	 4.518519e+00	 1.003158e+01
0	 8.444444e+00	 4.592593e+00	 1.003259e+01
0	 8.444444e+00	 4.666667e+00	 1.003351e+01
0	 8.444444e+00	 4.740741e+00	 1.003436e+01
0	 8.444444e+00	 4.814815e+00	 1.003512e+01
0	 8.518519e+00	 4.444444e+00	 1.002471e+01
0	 8.518519e+00	 4.518519e+00	 1.002592e+01
0	 8.518519e+00	 4.592593e+00	 1.002705e+01
0	 8.518519e+00	 4.666667e+00	 1.002810e+01
0	 8.518519e+00	 4.740741e+00	 1.002907e+01
0	 8.518519e+00	 4.814815e+00	 1.002996e+01
0	 8.148148e+00	 4.814815e+00	 1.005672e+01
0	 8.148148e+00	 4.888889e+00	 1.005690e+01
0	 8.148148e+00	 4.962963e+00	 1.005701e+01
0	 8.148148e+00	 5.037037e+00	 1.005705e+01
0	 8.148148e+00	 5.111111e+00	 1.005701e+01
0	 8.148148e+00	 5.185185e+00	 1.005689e+01
0	 8.222222e+00	 4.814815e+00	 1.005119e+01
0	 8.222222e+00	 4.888889e+00	 1.005150e+01
0	 8.222222e+00	 4.962963e+00	 1.005173e+01
0	 8.222222e+00	 5.037037e+00	 1.005190e+01
0	 8.222222e+00	 5.111111e+00	 1.005198e+01
0	 8.222222e+00	 5.185185e+00	 1.005199e+01
0	 8.296296e+00	 4.814815e+00	 1.004574e+01
0	 8.296296e+00	 4.888889e+00	 1.004618e+01
0	 8.296296e+00	 4.962963e+00	 1.004654e+01
0	 8.296296e+00	 5.037037e+00	 1.004683e+01
0	 8.296296e+00	 5.111111e+00	 1.004704e+01
0	 8.296296e+00	 5.185185e+00	 1.004717e+01
0	 8.370370e+00	 4.814815e+00	 1.004038e+01
0	 8.370370e+00	 4.888889e+00	 1.004094e+01
0	 8.370370e+00	 4.962963e+00	 1.004143e+01
0	 8.370370e+00	 5.037037e+00	 1.004184e+01
0	 8.370370e+00	 5.111111e+00	 1.004218e+01
0	 8.370370e+00	 5.185185e+00	 1.004244e+01
0	 8.444444e+00	 4.814815e+00	 1.003512e+01
0	 8.444444e+00	 4.888889e+00	 1.003580e+01
0	 8.444444e+00	 4.962963e+00	 1.003642e+01
0	 8.444444e+00	 5.037037e+00	 1.003695e+01
0	 8.444444e+00	 5.111111e+00	 1.003741e+01
0	 8.444444e+00	 5.185185e+00	 1.003779e+01
0	 8.518519e+00	 4.814815e+00	 1.002996e+01
0	 8.518519e+00	 4.888889e+00	 1.003077e+01
0	 8.518519e+00	 4.962963e+00	 1.003150e+01
0	 8.518519e+00	 5.037037e+00	 1.003216e+01
0	 8.518519e+00	 5.111111e+00	 1.003275e+01
0	 8.518519e+00	 5.185185e+00	 1.003325e+01
0	 8.148148e+00	 5.185185e+00	 1.005689e+01
0	 8.148148e+00	 5.259259e+00	 1.005671e+01
0	 8.148148e+00	 5.333333e+00	 1.005646e+01
0	 8.148148e+00	 5.407407e+00	 1.005615e+01
0	 8.148148e+00	 5.481481e+00	 1.005577e+01
0	 8.148148e+00	 5.555556e+00	 1.005532e+01
0	 8.222222e+00	 5.185185e+00	 1.005199e+01
0	 8.222222e+00	 5.259259e+00	 1.005193e+01
0	 8.222222e+00	 5.333333e+00	 1.005181e+01
0	 8.222222e+00	 5.407407e+00	 1.005162e+01
0	 8.222222e+00	 5.481481e+00	 1.005137e+01
0	 8.222222e+00	 5.555556e+00	 1.005104e+01
0	 8.296296e+00	 5.185185e+00	 1.004717e+01
0	 8.296296e+00	 5.259259e+00	 1.004724e+01
0	 8.296296e+00	 5.333333e+00	 1.004724e+01
0	 8.296296e+00	 5.407407e+00	 1.004717e+01
0	 8.296296e+00	 5.481481e+00	 1.004704e+01
0	 8.296296e+00	 5.555556e+00	 1.004683e+01
0	 8.370370e+00	 5.185185e+00	 1.004244e+01
0	 8.370370e+00	 5.259259e+00	 1.004262e+01
0	 8.370370e+00	 5.333333e+00	 1.004275e+01
0	 8.370370e+00	 5.407407e+00	 1.004280e+01
0	 8.370370e+00	 5.481481e+00	 1.004279e+01
0	 8.370370e+00	 5.555556e+00	 1.004270e+01
0	 8.444444e+00	 5.185185e+00	 1.003779e+01
0	 8.444444e+00	 5.259259e+00	 1.003810e+01
0	 8.444444e+00	 5.333333e+00	 1.003835e+01
0	 8.444444e+00	 5.407407e+00	 1.003852e+01
0	 8.444444e+00	 5.481481e+00	 1.003862e+01
0	 8.444444e+00	 5.555556e+00	 1.003866e+01
0	 8.518519e+00	 5.185185e+00	 1.003325e+01
0	 8.518519e+00	 5.259259e+00	 1.003368e+01
0	 8.518519e+00	 5.333333e+00	 1.003404e+01
0	 8.518519e+00	 5.407407e+00	 1.003434e+01
0	 8.518519e+00	 5.481481e+00	 1.003456e+01
0	 8.518519e+00	 5.555556e+00	 1.003471e+01
0	 8.148148e+00	 5.555556e+00	 1.005532e+01
0	 8.148148e+00	 5.629630e+00	 1.005481e+01
0	 8.148148e+00	 5.703704e+00	 1.005425e+01
0	 8.148148e+00	 5.777778e+00	 1.005364e+01
0	 8.148148e+00	 5.851852e+00	 1.005297e+01
0	 8.148148e+00	 5.925926e+00	 1.005224e+01
0	 8.222222e+00	 5.555556e+00	 1.005104e+01
0	 8.222222e+00	 5.629630e+00	 1.005065e+01
0	 8.222222e+00	 5.703704e+00	 1.005022e+01
0	 8.222222e+00	 5.777778e+00	 1.004972e+01
0	 8.222222e+00	 5.851852e+00	 1.004917e+01
0	 8.222222e+00	 5.925926e+00	 1.004856e+01
0	 8.296296e+00	 5.555556e+00	 1.004683e+01
0	 8.296296e+00	 5.629630e+00	 1.004657e+01
0	 8.296296e+00	 5.703704e+00	 1.004625e+01
0	 8.296296e+00	 5.777778e+00	 1.004587e+01
0	 8.296296e+00	 5.851852e+00	 1.004543e+01
0	 8.296296e+00	 5.925926e+00	 1.004494e+01
0	 8.370370e+00	 5.555556e+00	 1.004270e+01
0	 8.370370e+00	 5.629630e+00	 1.004255e+01
0	 8.370370e+00	 5.703704e+00	 1.004235e+01
0	 8.370370e+00	 5.777778e+00	 1.004209e+01
0	 8.370370e+00	 5.851852e+00	 1.004177e+01
0	 8.370370e+00	 5.925926e+00	 1.004138e+01
0	 8.444444e+00	 5.555556e+00	 1.003866e+01
0	 8.444444e+00	 5.629630e+00	 1.003863e+01
0	 8.444444e+00	 5.703704e+00	 1.003854e+01
0	 8.444444e+00	 5.777778e+00	 1.003839e+01
0	 8.444444e+00	 5.851852e+00	 1.003818e+01
0	 8.444444e+00	 5.925926e+00	 1.003791e+01
0	 8.518519e+00	 5.555556e+00	 1.003471e+01
0	 8.518519e+00	 5.629630e+00	 1.003479e+01
0	 8.518519e+00	 5.703704e+00	 1.003481e+01
0	 8.518519e+00	 5.777778e+00	 1.003478e+01
0	 8.518519e+00	 5.851852e+00	 1.003468e+01
0	 8.518519e+00	 5.925926e+00	 1.003451e+01
0	 8.148148e+00	 5.925926e+00	 1.005224e+01
0	 8.148148e+00	 6.000000e+00	 1.005147e+01
0	 8.148148e+00	 6.074074e+00	 1.005065e+01
0	 8.148148e+00	 6.148148e+00	 1.004979e+01
0	 8.148148e+00	 6.222222e+00	 1.004888e+01
0	 8.148148e+00	 6.296296e+00	 1.004793e+01
0	 8.222222e+00	 5.925926e+00	 1.004856e+01
0	 8.222222e+00	 6.000000e+00	 1.004790e+01
0	 8.222222e+00	 6.074074e+00	 1.004719e+01
0	 8.222222e+00	 6.148148e+00	 1.004645e+01
0	 8.222222e+00	 6.222222e+00	 1.004565e+01
0	 8.222222e+00	 6.296296e+00	 1.004481e+01
0	 8.296296e+00	 5.925926e+00	 1.004494e+01
0	 8.296296e+00	 6.000000e+00	 1.004439e+01
0	 8.296296e+00	 6.074074e+00	 1.004380e+01
0	 8.296296e+00	 6.148148e+00	 1.004316e+01
0	 8.296296e+00	 6.222222e+00	 1.004247e+01
0	 8.296296e+00	 6.296296e+00	 1.004174e+01
0	 8.370370e+00	 5.925926e+00	 1.004138e+01
0	 8.370370e+00	 6.000000e+00	 1.004095e+01
0	 8.370370e+00	 6.074074e+00	 1.004047e+01
0	 8.370370e+00	 6.148148e+00	 1.003994e+01
0	 8.370370e+00	 6.222222e+00	 1.003936e+01
0	 8.370370e+00	 6.296296e+00	 1.003873e+01
0	 8.444444e+00	 5.925926e+00	 1.003791e+01
0	 8.444444e+00	 6.000000e+00	 1.003758e+01
0	 8.444444e+00	 6.074074e+00	 1.003721e+01
0	 8.444444e+00	 6.148148e+00	 1.003678e+01
0	 8.444444e+00	 6.222222e+00	 1.003631e+01
0	 8.444444e+00	 6.296296e+00	 1.003578e+01
0	 8.518519e+00	 5.925926e+00	 1.003451e+01
0	 8.518519e+00	 6.000000e+00	 1.003429e+01
0	 8.518519e+00	 6.074074e+00	 1.003403e+01
0	 8.518519e+00	 6.148148e+00	 1.003371e+01
0	 8.518519e+00	 6.222222e+00	 1.003333e+01
0	 8.518519e+00	 6.296296e+00	 1.003291e+01
0	 8.148148e+00	 6.296296e+00	 1.004793e+01
0	 8.148148e+00	 6.370370e+00	 1.004694e+01
0	 8.148148e+00	 6.444444e+00	 1.004593e+01
0	 8.148148e+00	 6.518519e+00	 1.004488e+01
0	 8.148148e+00	 6.592593e+00	 1.004380e+01
0	 8.148148e+00	 6.666667e+00	 1.004268e+01
0	 8.222222e+00	 6.296296e+00	 1.004481e+01
0	 8.222222e+00	 6.370370e+00	 1.004393e+01
0	 8.222222e+00	 6.444444e+00	 1.004302e+01
0	 8.222222e+00	 6.518519e+00	 1.004207e+01
0	 8.222222e+00	 6.592593e+00	 1.004109e+01
0	 8.222222e+00	 6.666667e+00	 1.004008e+01
0	 8.296296e+00	 6.296296e+00	 1.004174e+01
0	 8.296296e+00	 6.370370e+00	 1.004097e+01
0	 8.296296e+00	 6.444444e+00	 1.004016e+01
0	 8.296296e+00	 6.518519e+00	 1.003931e+01
0	 8.296296e+00	 6.592593e+00	 1.003844e+01
0	 8.296296e+00	 6.666667e+00	 1.003752e+01
0	 8.370370e+00	 6.296296e+00	 1.003873e+01
0	 8.370370e+00	 6.370370e+00	 1.003806e+01
0	 8.370370e+00	 6.444444e+00	 1.003735e+01
0	 8.370370e+00	 6.518519e+00	 1.003661e+01
0	 8.370370e+00	 6.592593e+00	 1.003583e+01
0	 8.370370e+00	 6.666667e+00	 1.003501e+01
0	 8.444444e+00	 6.296296e+00	 1.003578e+01
0	 8.444444e+00	 6.370370e+00	 1.003521e+01
0	 8.444444e+00	 6.444444e+00	 1.003460e+01
0	 8.444444e+00	 6.518519e+00	 1.003396e+01
0	 8.444444e+00	 6.592593e+00	 1.003328e+01
0	 8.444444e+00	 6.666667e+00	 1.003255e+01
0	 8.518519e+00	 6.296296e+00	 1.003291e+01
0	 8.518519e+00	 6.370370e+00	 1.003244e+01
0	 8.518519e+00	 6.444444e+00	 1.003193e+01
0	 8.518519e+00	 6.518519e+00	 1.003138e+01
0	 8.518519e+00	 6.592593e+00	 1.003079e+01
0	 8.518519e+00	 6.666667e+00	 1.003015e+01
0	 8.148148e+00	 6.666667e+00	 1.004268e+01
0	 8.148148e+00	 6.740741e+00	 1.004154e+01
0	 8.148148e+00	 6.814815e+00	 1.004037e+01
0	 8.148148e+00	 6.888889e+00	 1.003919e+01
0	 8.148148e+00	 6.962963e+00	 1.003799e+01
0	 8.148148e+00	 7.037037e+00	 1.003677e+01
0	 8.222222e+00	 6.666667e+00	 1.004008e+01
0	 8.222222e+00	 6.740741e+00	 1.003903e+01
0	 8.222222e+00	 6.814815e+00	 1.003797e+01
0	 8.222222e+00	 6.888889e+00	 1.003689e+01
0	 8.222222e+00	 6.962963e+00	 1.003578e+01
0	 8.222222e+00	 7.037037e+00	 1.003465e+01
0	 8.296296e+00	 6.666667e+00	 1.003752e+01
0	 8.296296e+00	 6.740741e+00	 1.003657e+01
0	 8.296296e+00	 6.814815e+00	 1.003561e+01
0	 8.296296e+00	 6.888889e+00	 1.003461e+01
0	 8.296296e+00	 6.962963e+00	 1.003360e+01
0	 8.296296e+00	 7.037037e+00	 1.003256e+01
0	 8.370370e+00	 6.666667e+00	 1.003501e+01
0	 8.370370e+00	 6.740741e+00	 1.003416e+01
0	 8.370370e+00	 6.814815e+00	 1.003328e+01
0	 8.370370e+00	 6.888889e+00	 1.003238e+01
0	 8.370370e+00	 6.962963e+00	 1.003146e+01
0	 8.370370e+00	 7.037037e+00	 1.003051e+01
0	 8.444444e+00	 6.666667e+00	 1.003255e+01
0	 8.444444e+00	 6.740741e+00	 1.003179e+01
0	 8.444444e+00	 6.814815e+00	 1.003101e+01
0	 8.444444e+00	 6.888889e+00	 1.003020e+01
0	 8.444444e+00	 6.962963e+00	 1.002936e+01
0	 8.444444e+00	 7.037037e+00	 1.002850e+01
0	 8.518519e+00	 6.666667e+00	 1.003015e+01
0	 8.518519e+00	 6.740741e+00	 1.002948e+01
0	 8.518519e+00	 6.814815e+00	 1.002879e+01
0	 8.518519e+00	 6.888889e+00	 1.002807e+01
0	 8.518519e+00	 6.962963e+00	 1.002732e+01
0	 8.518519e+00	 7.037037e+00	 1.002653e+01
0	 8.148148e+00	 7.037037e+00	 1.003677e+01
0	 8.148148e+00	 7.111111e+00	 1.003553e+01
0	 8.148148e+00	 7.185185e+00	 1.003428e+01
0	 8.148148e+00	 7.259259e+00	 1.003303e+01
0	 8.148148e+00	 7.333333e+00	 1.003176e+01
0	 8.148148e+00	 7.407407e+00	 1.003049e+01
0	 8.222222e+00	 7.037037e+00	 1.003465e+01
0	 8.222222e+00	 7.111111e+00	 1.003350e+01
0	 8.222222e+00	 7.185185e+00	 1.003234e+01
0	 8.222222e+00	 7.259259e+00	 1.003117e+01
0	 8.222222e+00	 7.333333e+00	 1.002999e+01
0	 8.222222e+00	 7.407407e+00	 1.002880e+01
0	 8.296296e+00	 7.037037e+00	 1.003256e+01
0	 8.296296e+00	 7.111111e+00	 1.003150e+01
0	 8.296296e+00	 7.185185e+00	 1.003043e+01
0	 8.296296e+00	 7.259259e+00	 1.002935e+01
0	 8.296296e+00	 7.333333e+00	 1.002825e+01
0	 8.296296e+00	 7.407407e+00	 1.002714e+01
0	 8.370370e+00	 7.037037e+00	 1.003051e+01
0	 8.370370e+00	 7.111111e+00	 1.002953e+01
0	 8.370370e+00	 7.185185e+00	 1.002855e+01
0	 8.370370e+00	 7.259259e+00	 1.002755e+01
0	 8.370370e+00	 7.333333e+00	 1.002654e+01
0	 8.370370e+00	 7.407407e+00	 1.002551e+01
0	 8.444444e+00	 7.037037e+00	 1.002850e+01
0	 8.444444e+00	 7.111111e+00	 1.002761e+01
0	 8.444444e+00	 7.185185e+00	 1.002671e+01
0	 8.444444e+00	 7.259259e+00	 1.002579e+01
0	 8.444444e+00	 7.333333e+00	 1.002486e+01
0	 8.444444e+00	 7.407407e+00	 1.002391e+01
0	 8.518519e+00	 7.037037e+00	 1.002653e+01
0	 8.518519e+00	 7.111111e+00	 1.002573e+01
0	 8.518519e+00	 7.185185e+00	 1.002491e+01
0	 8.518519e+00	 7.259259e+00	 1.002407e+01
0	 8.518519e+00	 7.333333e+00	 1.002321e+01
0	 8.518519e+00	 7.407407e+00	 1.002234e+01
0	 8.148148e+00	 7.407407e+00	 1.003049e+01
0	 8.148148e+00	 7.481481e+00	 1.002921e+01
0	 8.148148e+00	 7.555556e+00	 1.002793e+01
0	 8.148148e+00	 7.629630e+00	 1.002666e+01
0	 8.148148e+00	 7.703704e+00	 1.002539e+01
0	 8.148148e+00	 7.777778e+00	 1.002412e+01
0	 8.222222e+00	 7.407407e+00	 1.002880e+01
0	 8.222222e+00	 7.481481e+00	 1.002761e+01
0	 8.222222e+00	 7.555556e+00	 1.002641e+01
0	 8.222222e+00	 7.629630e+00	 1.002522e+01
0	 8.222222e+00	 7.703704e+00	 1.002403e+01
0	 8.222222e+00	 7.777778e+00	 1.002283e+01
0	 8.296296e+00	 7.407407e+00	 1.002714e+01
0	 8.296296e+00	 7.481481e+00	 1.002603e+01
0	 8.296296e+00	 7.555556e+00	 1.002491e+01
0	 8.296296e+00	 7.629630e+00	 1.002380e+01
0	 8.296296e+00	 7.703704e+00	 1.002268e+01
0	 8.296296e+00	 7.777778e+00	 1.002156e+01
0	 8.370370e+00	 7.407407e+00	 1.002551e+01
0	 8.370370e+00	 7.481481e+00	 1.002447e+01
0	 8.370370e+00	 7.555556e+00	 1.002343e+01
0	 8.370370e+00	 7.629630e+00	 1.002239e+01
0	 8.370370e+00	 7.703704e+00	 1.002135e+01
0	 8.370370e+00	 7.777778e+00	 1.002030e+01
0	 8.444444e+00	 7.407407e+00	 1.002391e+01
0	 8.444444e+00	 7.481481e+00	 1.002295e+01
0	 8.444444e+00	 7.555556e+00	 1.002198e+01
0	 8.444444e+00	 7.629630e+00	 1.002102e+01
0	 8.444444e+00	 7.703704e+00	 1.002005e+01
0	 8.444444e+00	 7.777778e+00	 1.001907e+01
0	 8.518519e+00	 7.407407e+00	 1.002234e+01
0	 8.518519e+00	 7.481481e+00	 1.002145e+01
0	 8.518519e+00	 7.555556e+00	 1.002056e+01
0	 8.518519e+00	 7.629630e+00	 1.001967e+01
0	 8.518519e+00	 7.703704e+00	 1.001877e+01
0	 8.518519e+00	 7.777778e+00	 1.001786e+01
0	 8.148148e+00	 7.777778e+00	 1.002412e+01
0	 8.148148e+00	 7.851852e+00	 1.002286e+01
0	 8.148148e+00	 7.925926e+00	 1.002161e+01
0	 8.148148e+00	 8.000000e+00	 1.002038e+01
0	 8.148148e+00	 8.074074e+00	 1.001916e+01
0	 8.148148e+00	 8.148148e+00	 1.001795e+01
0	 8.222222e+00	 7.777778e+00	 1.002283e+01
0	 8.222222e+00	 7.851852e+00	 1.002164e+01
0	 8.222222e+00	 7.925926e+00	 1.002047e+01
0	 8.222222e+00	 8.000000e+00	 1.001931e+01
0	 8.222222e+00	 8.074074e+00	 1.001816e+01
0	 8.222222e+00	 8.148148e+00	 1.001701e+01
0	 8.296296e+00	 7.777778e+00	 1.002156e+01
0	 8.296296e+00	 7.851852e+00	 1.002044e+01
0	 8.296296e+00	 7.925926e+00	 1.001934e+01
0	 8.296296e+00	 8.000000e+00	 1.001825e+01
0	 8.296296e+00	 8.074074e+00	 1.001716e+01
0	 8.296296e+00	 8.148148e+00	 1.001609e+01
0	 8.370370e+00	 7.777778e+00	 1.002030e+01
0	 8.370370e+00	 7.851852e+00	 1.001926e+01
0	 8.370370e+00	 7.925926e+00	 1.001822e+01
0	 8.370370e+00	 8.000000e+00	 1.001720e+01
0	 8.370370e+00	 8.074074e+00	 1.001618e+01
0	 8.370370e+00	 8.148148e+00	 1.001517e+01
0	 8.444444e+00	 7.777778e+00	 1.001907e+01
0	 8.444444e+00	 7.851852e+00	 1.001809e+01
0	 8.444444e+00	 7.925926e+00	 1.001713e+01
0	 8.444444e+00	 8.000000e+00	 1.001617e+01
0	 8.444444e+00	 8.074074e+00	 1.001521e+01
0	 8.444444e+00	 8.148148e+00	 1.001427e+01
0	 8.518519e+00	 7.777778e+00	 1.001786e+01
0	 8.518519e+00	 7.851852e+00	 1.001695e+01
0	 8.518519e+00	 7.925926e+00	 1.001605e+01
0	 8.518519e+00	 8.000000e+00	 1.001515e+01
0	 8.518519e+00	 8.074074e+00	 1.001426e+01
0	 8.518519e+00	 8.148148e+00	 1.001338e+01
0	 8.148148e+00	 8.148148e+00	 1.001795e+01
0	 8.148148e+00	 8.222222e+00	 1.001676e+01
0	 8.148148e+00	 8.296296e+00	 1.001560e+01
0	 8.148148e+00	 8.370370e+00	 1.001447e+01
0	 8.148148e+00	 8.444444e+00	 1.001335e+01
0	 8.148148e+00	 8.518519e+00	 1.001226e+01
0	 8.222222e+00	 8.148148e+00	 1.001701e+01
0	 8.222222e+00	 8.222222e+00	 1.001589e+01
0	 8.222222e+00	 8.296296e+00	 1.001479e+01
0	 8.222222e+00	 8.370370e+00	 1.001372e+01
0	 8.222222e+00	 8.444444e+00	 1.001266e+01
0	 8.222222e+00	 8.518519e+00	 1.001163e+01
0	 8.296296e+00	 8.148148e+00	 1.001609e+01
0	 8.296296e+00	 8.222222e+00	 1.001503e+01
0	 8.296296e+00	 8.296296e+00	 1.001399e+01
0	 8.296296e+00	 8.370370e+00	 1.001297e+01
0	 8.296296e+00	 8.444444e+00	 1.001198e+01
0	 8.296296e+00	 8.518519e+00	 1.001100e+01
0	 8.370370e+00	 8.148148e+00	 1.001517e+01
0	 8.370370e+00	 8.222222e+00	 1.001417e+01
0	 8.370370e+00	 8.296296e+00	 1.001320e+01
0	 8.370370e+00	 8.370370e+00	 1.001224e+01
0	 8.370370e+00	 8.444444e+00	 1.001130e+01
0	 8.370370e+00	 8.518519e+00	 1.001038e+01
0	 8.444444e+00	 8.148148e+00	 1.001427e+01
0	 8.444444e+00	 8.222222e+00	 1.001333e+01
0	 8.444444e+00	 8.296296e+00	 1.001241e+01
0	 8.444444e+00	 8.370370e+00	 1.001152e+01
0	 8.444444e+00	 8.444444e+00	 1.001064e+01
0	 8.444444e+00	 8.518519e+00	 1.000977e+01
0	 8.518519e+00	 8.148148e+00	 1.001338e+01
0	 8.518519e+00	 8.222222e+00	 1.001250e+01
0	 8.518519e+00	 8.296296e+00	 1.001164e+01
0	 8.518519e+00	 8.370370e+00	 1.001080e+01
0	 8.518519e+00	 8.444444e+00	 1.000998e+01
0	 8.518519e+00	 8.518519e+00	 1.000916e+01
0	 8.148148e+00	 8.518519e+00	 1.001226e+01
0	 8.148148e+00	 8.592593e+00	 1.001120e+01
0	 8.148148e+00	 8.666667e+00	 1.001018e+01
0	 8.148148e+00	 8.740741e+00	 1.000920e+01
0	 8.148148e+00	 8.814815e+00	 1.000825e+01
0	 8.148148e+00	 8.888889e+00	 1.000733e+01
0	 8.222222e+00	 8.518519e+00	 1.001163e+01
0	 8.222222e+00	 8.592593e+00	 1.001062e+01
0	 8.222222e+00	 8.666667e+00	 1.000966e+01
0	 8.222222e+00	 8.740741e+00	 1.000872e+01
0	 8.222222e+00	 8.814815e+00	 1.000783e+01
0	 8.222222e+00	 8.888889e+00	 1.000696e+01
0	 8.296296e+00	 8.518519e+00	 1.001100e+01
0	 8.296296e+00	 8.592593e+00	 1.001005e+01
0	 8.296296e+00	 8.666667e+00	 1.000914e+01
0	 8.296296e+00	 8.740741e+00	 1.000826e+01
0	 8.296296e+00	 8.814815e+00	 1.000741e+01
0	 8.296296e+00	 8.888889e+00	 1.000658e+01
0	 8.370370e+00	 8.518519e+00	 1.001038e+01
0	 8.370370e+00	 8.592593e+00	 1.000949e+01
0	 8.370370e+00	 8.666667e+00	 1.000862e+01
0	 8.370370e+00	 8.740741e+00	 1.000779e+01
0	 8.370370e+00	 8.814815e+00	 1.000699e+01
0	 8.370370e+00	 8.888889e+00	 1.000621e+01
0	 8.444444e+00	 8.518519e+00	 1.000977e+01
0	 8.444444e+00	 8.592593e+00	 1.000893e+01
0	 8.444444e+00	 8.666667e+00	 1.000811e+01
0	 8.444444e+00	 8.740741e+00	 1.000733e+01
0	 8.444444e+00	 8.814815e+00	 1.000658e+01
0	 8.444444e+00	 8.888889e+00	 1.000584e+01
0	 8.518519e+00	 8.518519e+00	 1.000916e+01
0	 8.518519e+00	 8.592593e+00	 1.000837e+01
0	 8.518519e+00	 8.666667e+00	 1.000761e+01
0	 8.518519e+00	 8.740741e+00	 1.000688e+01
0	 8.518519e+00	 8.814815e+00	 1.000617e+01
0	 8.518519e+00	 8.888889e+00	 1.000548e+01
0	 8.148148e+00	 8.888889e+00	 1.000733e+01
0	 8.148148e+00	 8.962963e+00	 1.000646e+01
0	 8.148148e+00	 9.037037e+00	 1.000563e+01
0	 8.148148e+00	 9.111111e+00	 1.000486e+01
0	 8.148148e+00	 9.185185e+00	 1.000413e+01
0	 8.148148e+00	 9.259259e+00	 1.000345e+01
0	 8.222222e+00	 8.888889e+00	 1.000696e+01
0	 8.222222e+00	 8.962963e+00	 1.000613e+01
0	 8.222222e+00	 9.037037e+00	 1.000535e+01
0	 8.222222e+00	 9.111111e+00	 1.000461e+01
0	 8.222222e+00	 9.185185e+00	 1.000392e+01
0	 8.222222e+00	 9.259259e+00	 1.000327e+01
0	 8.296296e+00	 8.888889e+00	 1.000658e+01
0	 8.296296e+00	 8.962963e+00	 1.000580e+01
0	 8.296296e+00	 9.037037e+00	 1.000506e+01
0	 8.296296e+00	 9.111111e+00	 1.000437e+01
0	 8.296296e+00	 9.185185e+00	 1.000371e+01
0	 8.296296e+00	 9.259259e+00	 1.000310e+01
0	 8.370370e+00	 8.888889e+00	 1.000621e+01
0	 8.370370e+00	 8.962963e+00	 1.000547e+01
0	 8.370370e+00	 9.037037e+00	 1.000477e+01
0	 8.370370e+00	 9.111111e+00	 1.000412e+01
0	 8.370370e+00	 9.185185e+00	 1.000350e+01
0	 8.370370e+00	 9.259259e+00	 1.000292e+01
0	 8.444444e+00	 8.888889e+00	 1.000584e+01
0	 8.444444e+00	 8.962963e+00	 1.000515e+01
0	 8.444444e+00	 9.037037e+00	 1.000449e+01
0	 8.444444e+00	 9.111111e+00	 1.000387e+01
0	 8.444444e+00	 9.185185e+00	 1.000329e+01
0	 8.444444e+00	 9.259259e+00	 1.000275e+01
0	 8.518519e+00	 8.888889e+00	 1.000548e+01
0	 8.518519e+00	 8.962963e+00	 1.000483e+01
0	 8.518519e+00	 9.037037e+00	 1.000421e+01
0	 8.518519e+00	 9.111111e+00	 1.000363e+01
0	 8.518519e+00	 9.185185e+00	 1.000309e+01
0	 8.518519e+00	 9.259259e+00	 1.000258e+01
0	 8.148148e+00	 9.259259e+00	 1.000345e+01
0	 8.148148e+00	 9.333333e+00	 1.000282e+01
0	 8.148148e+00	 9.407407e+00	 1.000225e+01
0	 8.148148e+00	 9.481481e+00	 1.000175e+01
0	 8.148148e+00	 9.555556e+00	 1.000130e+01
0	 8.148148e+00	 9.629630e+00	 1.000091e+01
0	 8.222222e+00	 9.259259e+00	 1.000327e+01
0	 8.222222e+00	 9.333333e+00	 1.000268e+01
0	 8.222222e+00	 9.407407e+00	 1.000214e+01
0	 8.222222e+00	 9.481481e+00	 1.000166e+01
0	 8.222222e+00	 9.555556e+00	 1.000124e+01
0	 8.222222e+00	 9.629630e+00	 1.000087e+01
0	 8.296296e+00	 9.259259e+00	 1.000310e+01
0	 8.296296e+00	 9.333333e+00	 1.000253e+01
0	 8.296296e+00	 9.407407e+00	 1.000202e+01
0	 8.296296e+00	 9.481481e+00	 1.000157e+01
0	 8.296296e+00	 9.555556e+00	 1.000117e+01
0	 8.296296e+00	 9.629630e+00	 1.000082e+01
0	 8.370370e+00	 9.259259e+00	 1.000292e+01
0	 8.370370e+00	 9.333333e+00	 1.000239e+01
0	 8.370370e+00	 9.407407e+00	 1.000191e+01
0	 8.370370e+00	 9.481481e+00	 1.000148e+01
0	 8.370370e+00	 9.555556e+00	 1.000110e+01
0	 8.370370e+00	 9.629630e+00	 1.000077e+01
0	 8.444444e+00	 9.259259e+00	 1.000275e+01
0	 8.444444e+00	 9.333333e+00	 1.000225e+01
0	 8.444444e+00	 9.407407e+00	 1.000180e+01
0	 8.444444e+00	 9.481481e+00	 1.000139e+01
0	 8.444444e+00	 9.555556e+00	 1.000104e+01
0	 8.444444e+00	 9.629630e+00	 1.000072e+01
0	 8.518519e+00	 9.259259e+00	 1.000258e+01
0	 8.518519e+00	 9.333333e+00	 1.000211e+01
0	 8.518519e+00	 9.407407e+00	 1.000168e+01
0	 8.518519e+00	 9.481481e+00	 1.000131e+01
0	 8.518519e+00	 9.555556e+00	 1.000097e+01
0	 8.518519e+00	 9.629630e+00	 1.000068e+01
0	 8.148148e+00	 9.629630e+00	 1.000091e+01
0	 8.148148e+00	 9.703704e+00	 1.000058e+01
0	 8.148148e+00	 9.777778e+00	 1.000033e+01
0	 8.148148e+00	 9.851852e+00	 1.000015e+01
0	 8.148148e+00	 9.925926e+00	 1.000004e+01
0	 8.148148e+00	 1.000000e+01	 9.999994e+00
0	 8.222222e+00	 9.629630e+00	 1.000087e+01
0	 8.222222e+00	 9.703704e+00	 1.000056e+01
0	 8.222222e+00	 9.777778e+00	 1.000032e+01
0	 8.222222e+00	 9.851852e+00	 1.000015e+01
0	 8.222222e+00	 9.925926e+00	 1.000004e+01
0	 8.222222e+00	 1.000000e+01	 9.999996e+00
0	 8.296296e+00	 9.629630e+00	 1.000082e+01
0	 8.296296e+00	 9.703704e+00	 1.000053e+01
0	 8.296296e+00	 9.777778e+00	 1.000030e+01
0	 8.296296e+00	 9.851852e+00	 1.000014e+01
0	 8.296296e+00	 9.925926e+00	 1.000004e+01
0	 8.296296e+00	 1.000000e+01	 9.999995e+00
0	 8.370370e+00	 9.629630e+00	 1.000077e+01
0	 8.370370e+00	 9.703704e+00	 1.000049e+01
0	 8.370370e+00	 9.777778e+00	 1.000028e+01
0	 8.370370e+00	 9.851852e+00	 1.000013e+01
0	 8.370370e+00	 9.925926e+00	 1.000003e+01
0	 8.370370e+00	 1.000000e+01	 9.999993e+00
0	 8.444444e+00	 9.629630e+00	 1.000072e+01
0	 8.444444e+00	 9.703704e+00	 1.000046e+01
0	 8.444444e+00	 9.777778e+00	 1.000026e+01
0	 8.444444e+00	 9.851852e+00	 1.000012e+01
0	 8.444444e+00	 9.925926e+00	 1.000003e+01
0	 8.444444e+00	 1.000000e+01	 9.999992e+00
0	 8.518519e+00	 9.629630e+00	 1.000068e+01
0	 8.518519e+00	 9.703704e+00	 1.000044e+01
0	 8.518519e+00	 9.777778e+00	 1.000025e+01
0	 8.518519e+00	 9.851852e+00	 1.000011e+01
0	 8.518519e+00	 9.925926e+00	 1.000003e+01
0	 8.518519e+00	 1.000000e+01	 9.999995e+00
0	 8.518519e+00	 0.000000e+00	 9.908417e+00
0	 8.518519e+00	 7.407407e-02	 9.908487e+00
0	 8.518519e+00	 1.481481e-01	 9.908691e+00
0	 8.518519e+00	 2.222222e-01	 9.909031e+00
0	 8.518519e+00	 2.962963e-01	 9.909506e+00
0	 8.518519e+00	 3.703704e-01	 9.910117e+00
0	 8.592593e+00	 0.000000e+00	 9.898548e+00
0	 8.592593e+00	 7.407407e-02	 9.898619e+00
0	 8.592593e+00	 1.481481e-01	 9.898826e+00
0	 8.592593e+00	 2.222222e-01	 9.899169e+00
0	 8.592593e+00	 2.962963e-01	 9.899650e+00
0	 8.592593e+00	 3.703704e-01	 9.900269e+00
0	 8.666667e+00	 0.000000e+00	 9.888492e+00
0	 8.666667e+00	 7.407407e-02	 9.888564e+00
0	 8.666667e+00	 1.481481e-01	 9.888774e+00
0	 8.666667e+00	 2.222222e-01	 9.889123e+00
0	 8.666667e+00	 2.962963e-01	 9.889611e+00
0	 8.666667e+00	 3.703704e-01	 9.890240e+00
0	 8.740741e+00	 0.000000e+00	 9.878233e+00
0	 8.740741e+00	 7.407407e-02	 9.878306e+00
0	 8.740741e+00	 1.481481e-01	 9.878519e+00
0	 8.740741e+00	 2.222222e-01	 9.878875e+00
0	 8.740741e+00	 2.962963e-01	 9.879372e+00
0	 8.740741e+00	 3.703704e-01	 9.880013e+00
0	 8.814815e+00	 0.000000e+00	 9.867754e+00
0	 8.814815e+00	 7.407407e-02	 9.867827e+00
0	 8.814815e+00	 1.481481e-01	 9.868045e+00
0	 8.814815e+00	 2.222222e-01	 9.868408e+00
0	 8.814815e+00	 2.962963e-01	 9.868916e+00
0	 8.814815e+00	 3.703704e-01	 9.869571e+00
0	 8.888889e+00	 0.000000e+00	 9.857036e+00
0	 8.888889e+00	 7.407407e-02	 9.857111e+00
0	 8.888889e+00	 1.481481e-01	 9.857334e+00
0	 8.888889e+00	 2.222222e-01	 9.857706e+00
0	 8.888889e+00	 2.962963e-01	 9.858227e+00
0	 8.888889e+00	 3.703704e-01	 9.858898e+00
0	 8.518519e+00	 3.703704e-01	 9.910117e+00
0	 8.518519e+00	 4.444444e-01	 9.910859e+00
0	 8.518519e+00	 5.185185e-01	 9.911724e+00
0	 8.518519e+00	 5.925926e-01	 9.912716e+00
0	 8.518519e+00	 6.666667e-01	 9.913837e+00
0	 8.518519e+00	 7.407407e-01	 9.915087e+00
0	 8.592593e+00	 3.703704e-01	 9.900269e+00
0	 8.592593e+00	 4.444444e-01	 9.901020e+00
0	 8.592593e+00	 5.185185e-01	 9.901897e+00
0	 8.592593e+00	 5.925926e-01	 9.902903e+00
0	 8.592593e+00	 6.666667e-01	 9.904038e+00
0	 8.592593e+00	 7.407407e-01	 9.905305e+00
0	 8.666667e+00	 3.703704e-01	 9.890240e+00
0	 8.666667e+00	 4.444444e-01	 9.891003e+00
0	 8.666667e+00	 5.185185e-01	 9.891895e+00
0	 8.666667e+00	 5.925926e-01	 9.892917e+00
0	 8.666667e+00	 6.666667e-01	 9.894071e+00
0	 8.666667e+00	 7.407407e-01	 9.895359e+00
0	 8.740741e+00	 3.703704e-01	 9.880013e+00
0	 8.740741e+00	 4.444444e-01	 9.880791e+00
0	 8.740741e+00	 5.185185e-01	 9.881700e+00
0	 8.740741e+00	 5.925926e-01	 9.882742e+00
0	 8.740741e+00	 6.666667e-01	 9.883919e+00
0	 8.740741e+00	 7.407407e-01	 9.885232e+00
0	 8.814815e+00	 3.703704e-01	 9.869571e+00
0	 8.814815e+00	 4.444444e-01	 9.870366e+00
0	 8.814815e+00	 5.185185e-01	 9.871296e+00
0	 8.814815e+00	 5.925926e-01	 9.872362e+00
0	 8.814815e+00	 6.666667e-01	 9.873566e+00
0	 8.814815e+00	 7.407407e-01	 9.874909e+00
0	 8.888889e+00	 3.703704e-01	 9.858898e+00
0	 8.888889e+00	 4.444444e-01	 9.859713e+00
0	 8.888889e+00	 5.185185e-01	 9.860667e+00
0	 8.888889e+00	 5.925926e-01	 9.861761e+00
0	 8.888889e+00	 6.666667e-01	 9.862995e+00
0	 8.888889e+00	 7.407407e-01	 9.864372e+00
0	 8.518519e+00	 7.407407e-01	 9.915087e+00
0	 8.518519e+00	 8.148148e-01	 9.916454e+00
0	 8.518519e+00	 8.888889e-01	 9.917926e+00
0	 8.518519e+00	 9.629630e-01	 9.919505e+00
0	 8.518519e+00	 1.037037e+00	 9.921195e+00
0	 8.518519e+00	 1.111111e+00	 9.922998e+00
0	 8.592593e+00	 7.407407e-01	 9.905305e+00
0	 8.592593e+00	 8.148148e-01	 9.906691e+00
0	 8.592593e+00	 8.888889e-01	 9.908185e+00
0	 8.592593e+00	 9.629630e-01	 9.909788e+00
0	 8.592593e+00	 1.037037e+00	 9.911504e+00
0	 8.592593e+00	 1.111111e+00	 9.913335e+00
0	 8.666667e+00	 7.407407e-01	 9.895359e+00
0	 8.666667e+00	 8.148148e-01	 9.896769e+00
0	 8.666667e+00	 8.888889e-01	 9.898288e+00
0	 8.666667e+00	 9.629630e-01	 9.899920e+00
0	 8.666667e+00	 1.037037e+00	 9.901667e+00
0	 8.666667e+00	 1.111111e+00	 9.903531e+00
0	 8.740741e+00	 7.407407e-01	 9.885232e+00
0	 8.740741e+00	 8.148148e-01	 9.886670e+00
0	 8.740741e+00	 8.888889e-01	 9.888220e+00
0	 8.740741e+00	 9.629630e-01	 9.889886e+00
0	 8.740741e+00	 1.037037e+00	 9.891670e+00
0	 8.740741e+00	 1.111111e+00	 9.893574e+00
0	 8.814815e+00	 7.407407e-01	 9.874909e+00
0	 8.814815e+00	 8.148148e-01	 9.876379e+00
0	 8.814815e+00	 8.888889e-01	 9.877966e+00
0	 8.814815e+00	 9.629630e-01	 9.879671e+00
0	 8.814815e+00	 1.037037e+00	 9.881498e+00
0	 8.814815e+00	 1.111111e+00	 9.883448e+00
0	 8.888889e+00	 7.407407e-01	 9.864372e+00
0	 8.888889e+00	 8.148148e-01	 9.865880e+00
0	 8.888889e+00	 8.888889e-01	 9.867509e+00
0	 8.888889e+00	 9.629630e-01	 9.869260e+00
0	 8.888889e+00	 1.037037e+00	 9.871136e+00
0	 8.888889e+00	 1.111111e+00	 9.873139e+00
0	 8.518519e+00	 1.111111e+00	 9.922998e+00
0	 8.518519e+00	 1.185185e+00	 9.924898e+00
0	 8.518519e+00	 1.259259e+00	 9.926878e+00
0	 8.518519e+00	 1.333333e+00	 9.928941e+00
0	 8.518519e+00	 1.407407e+00	 9.931090e+00
0	 8.518519e+00	 1.481481e+00	 9.933331e+00
0	 8.592593e+00	 1.111111e+00	 9.913335e+00
0	 8.592593e+00	 1.185185e+00	 9.915264e+00
0	 8.592593e+00	 1.259259e+00	 9.917277e+00
0	 8.592593e+00	 1.333333e+00	 9.919376e+00
0	 8.592593e+00	 1.407407e+00	 9.921564e+00
0	 8.592593e+00	 1.481481e+00	 9.923845e+00
0	 8.666667e+00	 1.111111e+00	 9.903531e+00
0	 8.666667e+00	 1.185185e+00	 9.905497e+00
0	 8.666667e+00	 1.259259e+00	 9.907549e+00
0	 8.666667e+00	 1.333333e+00	 9.909691e+00
0	 8.666667e+00	 1.407407e+00	 9.911924e+00
0	 8.666667e+00	 1.481481e+00	 9.914252e+00
0	 8.740741e+00	 1.111111e+00	 9.893574e+00
0	 8.740741e+00	 1.185185e+00	 9.895583e+00
0	 8.740741e+00	 1.259259e+00	 9.897681e+00
0	 8.740741e+00	 1.333333e+00	 9.899871e+00
0	 8.740741e+00	 1.407407e+00	 9.902156e+00
0	 8.740741e+00	 1.481481e+00	 9.904538e+00
0	 8.814815e+00	 1.111111e+00	 9.883448e+00
0	 8.814815e+00	 1.185185e+00	 9.885506e+00
0	 8.814815e+00	 1.259259e+00	 9.887657e+00
0	 8.814815e+00	 1.333333e+00	 9.889903e+00
0	 8.814815e+00	 1.407407e+00	 9.892247e+00
0	 8.814815e+00	 1.481481e+00	 9.894692e+00
0	 8.888889e+00	 1.111111e+00	 9.873139e+00
0	 8.888889e+00	 1.185185e+00	 9.875253e+00
0	 8.888889e+00	 1.259259e+00	 9.877463e+00
0	 8.888889e+00	 1.333333e+00	 9.879773e+00
0	 8.888889e+00	 1.407407e+00	 9.882184e+00
0	 8.888889e+00	 1.481481e+00	 9.884700e+00
0	 8.518519e+00	 1.481481e+00	 9.933331e+00
0	 8.518519e+00	 1.555556e+00	 9.935642e+00
0	 8.518519e+00	 1.629630e+00	 9.938004e+00
0	 8.518519e+00	 1.703704e+00	 9.940422e+00
0	 8.518519e+00	 1.777778e+00	 9.942898e+00
0	 8.518519e+00	 1.851852e+00	 9.945437e+00
0	 8.592593e+00	 1.481481e+00	 9.923845e+00
0	 8.592593e+00	 1.555556e+00	 9.926199e+00
0	 8.592593e+00	 1.629630e+00	 9.928608e+00
0	 8.592593e+00	 1.703704e+00	 9.931075e+00
0	 8.592593e+00	 1.777778e+00	 9.933603e+00
0	 8.592593e+00	 1.851852e+00	 9.936197e+00
0	 8.666667e+00	 1.481481e+00	 9.914252e+00
0	 8.666667e+00	 1.555556e+00	 9.916656e+00
0	 8.666667e+00	 1.629630e+00	 9.919118e+00
0	 8.666667e+00	 1.703704e+00	 9.921642e+00
0	 8.666667e+00	 1.777778e+00	 9.924230e+00
0	 8.666667e+00	 1.851852e+00	 9.926886e+00
0	 8.740741e+00	 1.481481e+00	 9.904538e+00
0	 8.740741e+00	 1.555556e+00	 9.907000e+00
0	 8.740741e+00	 1.629630e+00	 9.909524e+00
0	 8.740741e+00	 1.703704e+00	 9.912112e+00
0	 8.740741e+00	 1.777778e+00	 9.914767e+00
0	 8.740741e+00	 1.851852e+00	 9.917493e+00
0	 8.814815e+00	 1.481481e+00	 9.894692e+00
0	 8.814815e+00	 1.555556e+00	 9.897220e+00
0	 8.814815e+00	 1.629630e+00	 9.899812e+00
0	 8.814815e+00	 1.703704e+00	 9.902472e+00
0	 8.814815e+00	 1.777778e+00	 9.905203e+00
0	 8.814815e+00	 1.851852e+00	 9.908008e+00
0	 8.888889e+00	 1.481481e+00	 9.884700e+00
0	 8.888889e+00	 1.555556e+00	 9.887301e+00
0	 8.888889e+00	 1.629630e+00	 9.889971e+00
0	 8.888889e+00	 1.703704e+00	 9.892712e+00
0	 8.888889e+00	 1.777778e+00	 9.895527e+00
0	 8.888889e+00	 1.851852e+00	 9.898420e+00
0	 8.518519e+00	 1.851852e+00	 9.945437e+00
0	 8.518519e+00	 1.925926e+00	 9.948018e+00
0	 8.518519e+00	 2.000000e+00	 9.950622e+00
0	 8.518519e+00	 2.074074e+00	 9.953250e+00
0	 8.518519e+00	 2.148148e+00	 9.955909e+00
0	 8.518519e+00	 2.222222e+00	 9.958600e+00
0	 8.592593e+00	 1.851852e+00	 9.936197e+00
0	 8.592593e+00	 1.925926e+00	 9.938836e+00
0	 8.592593e+00	 2.000000e+00	 9.941500e+00
0	 8.592593e+00	 2.074074e+00	 9.944193e+00
0	 8.592593e+00	 2.148148e+00	 9.946918e+00
0	 8.592593e+00	 2.222222e+00	 9.949680e+00
0	 8.666667e+00	 1.851852e+00	 9.926886e+00
0	 8.666667e+00	 1.925926e+00	 9.929590e+00
0	 8.666667e+00	 2.000000e+00	 9.932323e+00
0	 8.666667e+00	 2.074074e+00	 9.935087e+00
0	 8.666667e+00	 2.148148e+00	 9.937887e+00
0	 8.666667e+00	 2.222222e+00	 9.940726e+00
0	 8.740741e+00	 1.851852e+00	 9.917493e+00
0	 8.740741e+00	 1.925926e+00	 9.920270e+00
0	 8.740741e+00	 2.000000e+00	 9.923080e+00
0	 8.740741e+00	 2.074074e+00	 9.925924e+00
0	 8.740741e+00	 2.148148e+00	 9.928807e+00
0	 8.740741e+00	 2.222222e+00	 9.931731e+00
0	 8.814815e+00	 1.851852e+00	 9.908008e+00
0	 8.814815e+00	 1.925926e+00	 9.910867e+00
0	 8.814815e+00	 2.000000e+00	 9.913761e+00
0	 8.814815e+00	 2.074074e+00	 9.916694e+00
0	 8.814815e+00	 2.148148e+00	 9.919668e+00
0	 8.814815e+00	 2.222222e+00	 9.922686e+00
0	 8.888889e+00	 1.851852e+00	 9.898420e+00
0	 8.888889e+00	 1.925926e+00	 9.901369e+00
0	 8.888889e+00	 2.000000e+00	 9.904358e+00
0	 8.888889e+00	 2.074074e+00	 9.907388e+00
0	 8.888889e+00	 2.148148e+00	 9.910462e+00
0	 8.888889e+00	 2.222222e+00	 9.913584e+00
0	 8.518519e+00	 2.222222e+00	 9.958600e+00
0	 8.518519e+00	 2.296296e+00	 9.961305e+00
0	 8.518519e+00	 2.370370e+00	 9.964003e+00
0	 8.518519e+00	 2.444444e+00	 9.966699e+00
0	 8.518519e+00	 2.518519e+00	 9.969396e+00
0	 8.518519e+00	 2.592593e+00	 9.972096e+00
0	 8.592593e+00	 2.222222e+00	 9.949680e+00
0	 8.592593e+00	 2.296296e+00	 9.952457e+00
0	 8.592593e+00	 2.370370e+00	 9.955232e+00
0	 8.592593e+00	 2.444444e+00	 9.958008e+00
0	 8.592593e+00	 2.518519e+00	 9.960787e+00
0	 8.592593e+00	 2.592593e+00	 9.963572e+00
0	 8.666667e+00	 2.222222e+00	 9.940726e+00
0	 8.666667e+00	 2.296296e+00	 9.943584e+00
0	 8.666667e+00	 2.370370e+00	 9.946443e+00
0	 8.666667e+00	 2.444444e+00	 9.949305e+00
0	 8.666667e+00	 2.518519e+00	 9.952173e+00
0	 8.666667e+00	 2.592593e+00	 9.955051e+00
0	 8.740741e+00	 2.222222e+00	 9.931731e+00
0	 8.740741e+00	 2.296296e+00	 9.934677e+00
0	 8.740741e+00	 2.370370e+00	 9.937627e+00
0	 8.740741e+00	 2.444444e+00	 9.940584e+00
0	 8.740741e+00	 2.518519e+00	 9.943550e+00
0	 8.740741e+00	 2.592593e+00	 9.946527e+00
0	 8.814815e+00	 2.222222e+00	 9.922686e+00
0	 8.814815e+00	 2.296296e+00	 9.925730e+00
0	 8.814815e+00	 2.370370e+00	 9.928780e+00
0	 8.814815e+00	 2.444444e+00	 9.931839e+00
0	 8.814815e+00	 2.518519e+00	 9.934910e+00
0	 8.814815e+00	 2.592593e+00	 9.937995e+00
0	 8.888889e+00	 2.222222e+00	 9.913584e+00
0	 8.888889e+00	 2.296296e+00	 9.916733e+00
0	 8.888889e+00	 2.370370e+00	 9.919892e+00
0	 8.888889e+00	 2.444444e+00	 9.923063e+00
0	 8.888889e+00	 2.518519e+00	 9.926248e+00
0	 8.888889e+00	 2.592593e+00	 9.929450e+00
0	 8.518519e+00	 2.592593e+00	 9.972096e+00
0	 8.518519e+00	 2.666667e+00	 9.974784e+00
0	 8.518519e+00	 2.740741e+00	 9.977440e+00
0	 8.518519e+00	 2.814815e+00	 9.980069e+00
0	 8.518519e+00	 2.888889e+00	 9.982672e+00
0	 8.518519e+00	 2.962963e+00	 9.985253e+00
0	 8.592593e+00	 2.592593e+00	 9.963572e+00
0	 8.592593e+00	 2.666667e+00	 9.966348e+00
0	 8.592593e+00	 2.740741e+00	 9.969095e+00
0	 8.592593e+00	 2.814815e+00	 9.971818e+00
0	 8.592593e+00	 2.888889e+00	 9.974518e+00
0	 8.592593e+00	 2.962963e+00	 9.977198e+00
0	 8.666667e+00	 2.592593e+00	 9.955051e+00
0	 8.666667e+00	 2.666667e+00	 9.957921e+00
0	 8.666667e+00	 2.740741e+00	 9.960767e+00
0	 8.666667e+00	 2.814815e+00	 9.963590e+00
0	 8.666667e+00	 2.888889e+00	 9.966393e+00
0	 8.666667e+00	 2.962963e+00	 9.969178e+00
0	 8.740741e+00	 2.592593e+00	 9.946527e+00
0	 8.740741e+00	 2.666667e+00	 9.949500e+00
0	 8.740741e+00	 2.740741e+00	 9.952450e+00
0	 8.740741e+00	 2.814815e+00	 9.955381e+00
0	 8.740741e+00	 2.888889e+00	 9.958294e+00
0	 8.740741e+00	 2.962963e+00	 9.961191e+00
0	 8.814815e+00	 2.592593e+00	 9.937995e+00
0	 8.814815e+00	 2.666667e+00	 9.941078e+00
0	 8.814815e+00	 2.740741e+00	 9.944142e+00
0	 8.814815e+00	 2.814815e+00	 9.947187e+00
0	 8.814815e+00	 2.888889e+00	 9.950218e+00
0	 8.814815e+00	 2.962963e+00	 9.953235e+00
0	 8.888889e+00	 2.592593e+00	 9.929450e+00
0	 8.888889e+00	 2.666667e+00	 9.932652e+00
0	 8.888889e+00	 2.740741e+00	 9.935837e+00
0	 8.888889e+00	 2.814815e+00	 9.939006e+00
0	 8.888889e+00	 2.888889e+00	 9.942162e+00
0	 8.888889e+00	 2.962963e+00	 9.945306e+00
0	 8.518519e+00	 2.962963e+00	 9.985253e+00
0	 8.518519e+00	 3.037037e+00	 9.987798e+00
0	 8.518519e+00	 3.111111e+00	 9.990291e+00
0	 8.518519e+00	 3.185185e+00	 9.992737e+00
0	 8.518519e+00	 3.259259e+00	 9.995135e+00
0	 8.518519e+00	 3.333333e+00	 9.997489e+00
0	 8.592593e+00	 2.962963e+00	 9.977198e+00
0	 8.592593e+00	 3.037037e+00	 9.979844e+00
0	 8.592593e+00	 3.111111e+00	 9.982443e+00
0	 8.592593e+00	 3.185185e+00	 9.984994e+00
0	 8.592593e+00	 3.259259e+00	 9.987502e+00
0	 8.592593e+00	 3.333333e+00	 9.989967e+00
0	 8.666667e+00	 2.962963e+00	 9.969178e+00
0	 8.666667e+00	 3.037037e+00	 9.971932e+00
0	 8.666667e+00	 3.111111e+00	 9.974641e+00
0	 8.666667e+00	 3.185185e+00	 9.977304e+00
0	 8.666667e+00	 3.259259e+00	 9.979926e+00
0	 8.666667e+00	 3.333333e+00	 9.982507e+00
0	 8.740741e+00	 2.962963e+00	 9.961191e+00
0	 8.740741e+00	 3.037037e+00	 9.964060e+00
0	 8.740741e+00	 3.111111e+00	 9.966884e+00
0	 8.740741e+00	 3.185185e+00	 9.969666e+00
0	 8.740741e+00	 3.259259e+00	 9.972408e+00
0	 8.740741e+00	 3.333333e+00	 9.975111e+00
0	 8.814815e+00	 2.962963e+00	 9.953235e+00
0	 8.814815e+00	 3.037037e+00	 9.956225e+00
0	 8.814815e+00	 3.111111e+00	 9.959172e+00
0	 8.814815e+00	 3.185185e+00	 9.962079e+00
0	 8.814815e+00	 3.259259e+00	 9.964947e+00
0	 8.814815e+00	 3.333333e+00	 9.967778e+00
0	 8.888889e+00	 2.962963e+00	 9.945306e+00
0	 8.888889e+00	 3.037037e+00	 9.948425e+00
0	 8.888889e+00	 3.111111e+00	 9.951503e+00
0	 8.888889e+00	 3.185185e+00	 9.954542e+00
0	 8.888889e+00	 3.259259e+00	 9.957543e+00
0	 8.888889e+00	 3.333333e+00	 9.960508e+00
0	 8.518519e+00	 3.333333e+00	 9.997489e+00
0	 8.518519e+00	 3.407407e+00	 9.999788e+00
0	 8.518519e+00	 3.481481e+00	 1.000202e+01
0	 8.518519e+00	 3.555556e+00	 1.000419e+01
0	 8.518519e+00	 3.629630e+00	 1.000630e+01
0	 8.518519e+00	 3.703704e+00	 1.000834e+01
0	 8.592593e+00	 3.333333e+00	 9.989967e+00
0	 8.592593e+00	 3.407407e+00	 9.992379e+00
0	 8.592593e+00	 3.481481e+00	 9.994728e+00
0	 8.592593e+00	 3.555556e+00	 9.997014e+00
0	 8.592593e+00	 3.629630e+00	 9.999238e+00
0	 8.592593e+00	 3.703704e+00	 1.000140e+01
0	 8.666667e+00	 3.333333e+00	 9.982507e+00
0	 8.666667e+00	 3.407407e+00	 9.985037e+00
0	 8.666667e+00	 3.481481e+00	 9.987505e+00
0	 8.666667e+00	 3.555556e+00	 9.989912e+00
0	 8.666667e+00	 3.629630e+00	 9.992259e+00
0	 8.666667e+00	 3.703704e+00	 9.994548e+00
0	 8.740741e+00	 3.333333e+00	 9.975111e+00
0	 8.740741e+00	 3.407407e+00	 9.977764e+00
0	 8.740741e+00	 3.481481e+00	 9.980356e+00
0	 8.740741e+00	 3.555556e+00	 9.982889e+00
0	 8.740741e+00	 3.629630e+00	 9.985363e+00
0	 8.740741e+00	 3.703704e+00	 9.987780e+00
0	 8.814815e+00	 3.333333e+00	 9.967778e+00
0	 8.814815e+00	 3.407407e+00	 9.970560e+00
0	 8.814815e+00	 3.481481e+00	 9.973282e+00
0	 8.814815e+00	 3.555556e+00	 9.975946e+00
0	 8.814815e+00	 3.629630e+00	 9.978552e+00
0	 8.814815e+00	 3.703704e+00	 9.981101e+00
0	 8.888889e+00	 3.333333e+00	 9.960508e+00
0	 8.888889e+00	 3.407407e+00	 9.963426e+00
0	 8.888889e+00	 3.481481e+00	 9.966285e+00
0	 8.888889e+00	 3.555556e+00	 9.969085e+00
0	 8.888889e+00	 3.629630e+00	 9.971828e+00
0	 8.888889e+00	 3.703704e+00	 9.974516e+00
0	 8.518519e+00	 3.703704e+00	 1.000834e+01
0	 8.518519e+00	 3.777778e+00	 1.001032e+01
0	 8.518519e+00	 3.851852e+00	 1.001222e+01
0	 8.518519e+00	 3.925926e+00	 1.001405e+01
0	 8.518519e+00	 4.000000e+00	 1.001580e+01
0	 8.518519e+00	 4.074074e+00	 1.001748e+01
0	 8.592593e+00	 3.703704e+00	 1.000140e+01
0	 8.592593e+00	 3.777778e+00	 1.000350e+01
0	 8.592593e+00	 3.851852e+00	 1.000553e+01
0	 8.592593e+00	 3.925926e+00	 1.000748e+01
0	 8.592593e+00	 4.000000e+00	 1.000935e+01
0	 8.592593e+00	 4.074074e+00	 1.001116e+01
0	 8.666667e+00	 3.703704e+00	 9.994548e+00
0	 8.666667e+00	 3.777778e+00	 9.996771e+00
0	 8.666667e+00	 3.851852e+00	 9.998921e+00
0	 8.666667e+00	 3.925926e+00	 1.000100e+01
0	 8.666667e+00	 4.000000e+00	 1.000300e+01
0	 8.666667e+00	 4.074074e+00	 1.000494e+01
0	 8.740741e+00	 3.703704e+00	 9.987780e+00
0	 8.740741e+00	 3.777778e+00	 9.990131e+00
0	 8.740741e+00	 3.851852e+00	 9.992411e+00
0	 8.740741e+00	 3.925926e+00	 9.994618e+00
0	 8.740741e+00	 4.000000e+00	 9.996753e+00
0	 8.740741e+00	 4.074074e+00	 9.998818e+00
0	 8.814815e+00	 3.703704e+00	 9.981101e+00
0	 8.814815e+00	 3.777778e+00	 9.983586e+00
0	 8.814815e+00	 3.851852e+00	 9.985999e+00
0	 8.814815e+00	 3.925926e+00	 9.988339e+00
0	 8.814815e+00	 4.000000e+00	 9.990609e+00
0	 8.814815e+00	 4.074074e+00	 9.992807e+00
0	 8.888889e+00	 3.703704e+00	 9.974516e+00
0	 8.888889e+00	 3.777778e+00	 9.977139e+00
0	 8.888889e+00	 3.851852e+00	 9.979690e+00
0	 8.888889e+00	 3.925926e+00	 9.982168e+00
0	 8.888889e+00	 4.000000e+00	 9.984575e+00
0	 8.888889e+00	 4.074074e+00	 9.986911e+00
0	 8.518519e+00	 4.074074e+00	 1.001748e+01
0	 8.518519e+00	 4.148148e+00	 1.001909e+01
0	 8.518519e+00	 4.222222e+00	 1.002061e+01
0	 8.518519e+00	 4.296296e+00	 1.002206e+01
0	 8.518519e+00	 4.370370e+00	 1.002342e+01
0	 8.518519e+00	 4.444444e+00	 1.002471e+01
0	 8.592593e+00	 4.074074e+00	 1.001116e+01
0	 8.592593e+00	 4.148148e+00	 1.001289e+01
0	 8.592593e+00	 4.222222e+00	 1.001454e+01
0	 8.592593e+00	 4.296296e+00	 1.001612e+01
0	 8.592593e+00	 4.370370e+00	 1.001761e+01
0	 8.592593e+00	 4.444444e+00	 1.001902e+01
0	 8.666667e+00	 4.074074e+00	 1.000494e+01
0	 8.666667e+00	 4.148148e+00	 1.000680e+01
0	 8.666667e+00	 4.222222e+00	 1.000858e+01
0	 8.666667e+00	 4.296296e+00	 1.001028e+01
0	 8.666667e+00	 4.370370e+00	 1.001190e+01
0	 8.666667e+00	 4.444444e+00	 1.001344e+01
0	 8.740741e+00	 4.074074e+00	 9.998818e+00
0	 8.740741e+00	 4.148148e+00	 1.000081e+01
0	 8.740741e+00	 4.222222e+00	 1.000272e+01
0	 8.740741e+00	 4.296296e+00	 1.000455e+01
0	 8.740741e+00	 4.370370e+00	 1.000630e+01
0	 8.740741e+00	 4.444444e+00	 1.000797e+01
0	 8.814815e+00	 4.074074e+00	 9.992807e+00
0	 8.814815e+00	 4.148148e+00	 9.994931e+00
0	 8.814815e+00	 4.222222e+00	 9.996974e+00
0	 8.814815e+00	 4.296296e+00	 9.998938e+00
0	 8.814815e+00	 4.370370e+00	 1.000082e+01
0	 8.814815e+00	 4.444444e+00	 1.000263e+01
0	 8.888889e+00	 4.074074e+00	 9.986911e+00
0	 8.888889e+00	 4.148148e+00	 9.989172e+00
0	 8.888889e+00	 4.222222e+00	 9.991351e+00
0	 8.888889e+00	 4.296296e+00	 9.993450e+00
0	 8.888889e+00	 4.370370e+00	 9.995469e+00
0	 8.888889e+00	 4.444444e+00	 9.997407e+00
0	 8.518519e+00	 4.444444e+00	 1.002471e+01
0	 8.518519e+00	 4.518519e+00	 1.002592e+01
0	 8.518519e+00	 4.592593e+00	 1.002705e+01
0	 8.518519e+00	 4.666667e+00	 1.002810e+01
0	 8.518519e+00	 4.740741e+00	 1.002907e+01
0	 8.518519e+00	 4.814815e+00	 1.002996e+01
0	 8.592593e+00	 4.444444e+00	 1.001902e+01
0	 8.592593e+00	 4.518519e+00	 1.002036e+01
0	 8.592593e+00	 4.592593e+00	 1.002162e+01
0	 8.592593e+00	 4.666667e+00	 1.002279e+01
0	 8.592593e+00	 4.740741e+00	 1.002389e+01
0	 8.592593e+00	 4.814815e+00	 1.002490e+01
0	 8.666667e+00	 4.444444e+00	 1.001344e+01
0	 8.666667e+00	 4.518519e+00	 1.001491e+01
0	 8.666667e+00	 4.592593e+00	 1.001629e+01
0	 8.666667e+00	 4.666667e+00	 1.001759e+01
0	 8.666667e+00	 4.740741e+00	 1.001881e+01
0	 8.666667e+00	 4.814815e+00	 1.001995e+01
0	 8.740741e+00	 4.444444e+00	 1.000797e+01
0	 8.740741e+00	 4.518519e+00	 1.000957e+01
0	 8.740741e+00	 4.592593e+00	 1.001108e+01
0	 8.740741e+00	 4.666667e+00	 1.001251e+01
0	 8.740741e+00	 4.740741e+00	 1.001386e+01
0	 8.740741e+00	 4.814815e+00	 1.001512e+01
0	 8.814815e+00	 4.444444e+00	 1.000263e+01
0	 8.814815e+00	 4.518519e+00	 1.000435e+01
0	 8.814815e+00	 4.592593e+00	 1.000599e+01
0	 8.814815e+00	 4.666667e+00	 1.000755e+01
0	 8.814815e+00	 4.740741e+00	 1.000903e+01
0	 8.814815e+00	 4.814815e+00	 1.001042e+01
0	 8.888889e+00	 4.444444e+00	 9.997407e+00
0	 8.888889e+00	 4.518519e+00	 9.999263e+00
0	 8.888889e+00	 4.592593e+00	 1.000104e+01
0	 8.888889e+00	 4.666667e+00	 1.000272e+01
0	 8.888889e+00	 4.740741e+00	 1.000433e+01
0	 8.888889e+00	 4.814815e+00	 1.000585e+01
0	 8.518519e+00	 4.814815e+00	 1.002996e+01
0	 8.518519e+00	 4.888889e+00	 1.003077e+01
0	 8.518519e+00	 4.962963e+00	 1.003150e+01
0	 8.518519e+00	 5.037037e+00	 1.003216e+01
0	 8.518519e+00	 5.111111e+00	 1.003275e+01
0	 8.518519e+00	 5.185185e+00	 1.003325e+01
0	 8.592593e+00	 4.814815e+00	 1.002490e+01
0	 8.592593e+00	 4.888889e+00	 1.002584e+01
0	 8.592593e+00	 4.962963e+00	 1.002670e+01
0	 8.592593e+00	 5.037037e+00	 1.002748e+01
0	 8.592593e+00	 5.111111e+00	 1.002818e+01
0	 8.592593e+00	 5.185185e+00	 1.002881e+01
0	 8.666667e+00	 4.814815e+00	 1.001995e+01
0	 8.666667e+00	 4.888889e+00	 1.002101e+01
0	 8.666667e+00	 4.962963e+00	 1.002200e+01
0	 8.666667e+00	 5.037037e+00	 1.002290e+01
0	 8.666667e+00	 5.111111e+00	 1.002373e+01
0	 8.666667e+00	 5.185185e+00	 1.002447e+01
0	 8.740741e+00	 4.814815e+00	 1.001512e+01
0	 8.740741e+00	 4.888889e+00	 1.001631e+01
0	 8.740741e+00	 4.962963e+00	 1.001741e+01
0	 8.740741e+00	 5.037037e+00	 1.001844e+01
0	 8.740741e+00	 5.111111e+00	 1.001939e+01
0	 8.740741e+00	 5.185185e+00	 1.002025e+01
0	 8.814815e+00	 4.814815e+00	 1.001042e+01
0	 8.814815e+00	 4.888889e+00	 1.001173e+01
0	 8.814815e+00	 4.962963e+00	 1.001296e+01
0	 8.814815e+00	 5.037037e+00	 1.001410e+01
0	 8.814815e+00	 5.111111e+00	 1.001517e+01
0	 8.814815e+00	 5.185185e+00	 1.001615e+01
0	 8.888889e+00	 4.814815e+00	 1.000585e+01
0	 8.888889e+00	 4.888889e+00	 1.000728e+01
0	 8.888889e+00	 4.962963e+00	 1.000863e+01
0	 8.888889e+00	 5.037037e+00	 1.000990e+01
0	 8.888889e+00	 5.111111e+00	 1.001109e+01
0	 8.888889e+00	 5.185185e+00	 1.001219e+01
0	 8.518519e+00	 5.185185e+00	 1.003325e+01
0	 8.518519e+00	 5.259259e+00	 1.003368e+01
0	 8.518519e+00	 5.333333e+00	 1.003404e+01
0	 8.518519e+00	 5.407407e+00	 1.003434e+01
0	 8.518519e+00	 5.481481e+00	 1.003456e+01
0	 8.518519e+00	 5.555556e+00	 1.003471e+01
0	 8.592593e+00	 5.185185e+00	 1.002881e+01
0	 8.592593e+00	 5.259259e+00	 1.002936e+01
0	 8.592593e+00	 5.333333e+00	 1.002984e+01
0	 8.592593e+00	 5.407407e+00	 1.003025e+01
0	 8.592593e+00	 5.481481e+00	 1.003059e+01
0	 8.592593e+00	 5.555556e+00	 1.003085e+01
0	 8.666667e+00	 5.185185e+00	 1.002447e+01
0	 8.666667e+00	 5.259259e+00	 1.002514e+01
0	 8.666667e+00	 5.333333e+00	 1.002574e+01
0	 8.666667e+00	 5.407407e+00	 1.002627e+01
0	 8.666667e+00	 5.481481e+00	 1.002672e+01
0	 8.666667e+00	 5.555556e+00	 1.002709e+01
0	 8.740741e+00	 5.185185e+00	 1.002025e+01
0	 8.740741e+00	 5.259259e+00	 1.002104e+01
0	 8.740741e+00	 5.333333e+00	 1.002175e+01
0	 8.740741e+00	 5.407407e+00	 1.002239e+01
0	 8.740741e+00	 5.481481e+00	 1.002296e+01
0	 8.740741e+00	 5.555556e+00	 1.002344e+01
0	 8.814815e+00	 5.185185e+00	 1.001615e+01
0	 8.814815e+00	 5.259259e+00	 1.001706e+01
0	 8.814815e+00	 5.333333e+00	 1.001789e+01
0	 8.814815e+00	 5.407407e+00	 1.001864e+01
0	 8.814815e+00	 5.481481e+00	 1.001931e+01
0	 8.814815e+00	 5.555556e+00	 1.001991e+01
0	 8.888889e+00	 5.185185e+00	 1.001219e+01
0	 8.888889e+00	 5.259259e+00	 1.001321e+01
0	 8.888889e+00	 5.333333e+00	 1.001415e+01
0	 8.888889e+00	 5.407407e+00	 1.001502e+01
0	 8.888889e+00	 5.481481e+00	 1.001580e+01
0	 8.888889e+00	 5.555556e+00	 1.001650e+01
0	 8.518519e+00	 5.555556e+00	 1.003471e+01
0	 8.518519e+00	 5.629630e+00	 1.003479e+01
0	 8.518519e+00	 5.703704e+00	 1.003481e+01
0	 8.518519e+00	 5.777778e+00	 1.003478e+01
0	 8.518519e+00	 5.851852e+00	 1.003468e+01
0	 8.518519e+00	 5.925926e+00	 1.003451e+01
0	 8.592593e+00	 5.555556e+00	 1.003085e+01
0	 8.592593e+00	 5.629630e+00	 1.003105e+01
0	 8.592593e+00	 5.703704e+00	 1.003118e+01
0	 8.592593e+00	 5.777778e+00	 1.003126e+01
0	 8.592593e+00	 5.851852e+00	 1.003126e+01
0	 8.592593e+00	 5.925926e+00	 1.003121e+01
0	 8.666667e+00	 5.555556e+00	 1.002709e+01
0	 8.666667e+00	 5.629630e+00	 1.002740e+01
0	 8.666667e+00	 5.703704e+00	 1.002765e+01
0	 8.666667e+00	 5.777778e+00	 1.002783e+01
0	 8.666667e+00	 5.851852e+00	 1.002794e+01
0	 8.666667e+00	 5.925926e+00	 1.002799e+01
0	 8.740741e+00	 5.555556e+00	 1.002344e+01
0	 8.740741e+00	 5.629630e+00	 1.002386e+01
0	 8.740741e+00	 5.703704e+00	 1.002421e+01
0	 8.740741e+00	 5.777778e+00	 1.002450e+01
0	 8.740741e+00	 5.851852e+00	 1.002472e+01
0	 8.740741e+00	 5.925926e+00	 1.002487e+01
0	 8.814815e+00	 5.555556e+00	 1.001991e+01
0	 8.814815e+00	 5.629630e+00	 1.002044e+01
0	 8.814815e+00	 5.703704e+00	 1.002089e+01
0	 8.814815e+00	 5.777778e+00	 1.002128e+01
0	 8.814815e+00	 5.851852e+00	 1.002160e+01
0	 8.814815e+00	 5.925926e+00	 1.002185e+01
0	 8.888889e+00	 5.555556e+00	 1.001650e+01
0	 8.888889e+00	 5.629630e+00	 1.001713e+01
0	 8.888889e+00	 5.703704e+00	 1.001769e+01
0	 8.888889e+00	 5.777778e+00	 1.001818e+01
0	 8.888889e+00	 5.851852e+00	 1.001860e+01
0	 8.888889e+00	 5.925926e+00	 1.001894e+01
0	 8.518519e+00	 5.925926e+00	 1.003451e+01
0	 8.518519e+00	 6.000000e+00	 1.003429e+01
0	 8.518519e+00	 6.074074e+00	 1.003403e+01
0	 8.518519e+00	 6.148148e+00	 1.003371e+01
0	 8.518519e+00	 6.222222e+00	 1.003333e+01
0	 8.518519e+00	 6.296296e+00	 1.003291e+01
0	 8.592593e+00	 5.925926e+00	 1.003121e+01
0	 8.592593e+00	 6.000000e+00	 1.003109e+01
0	 8.592593e+00	 6.074074e+00	 1.003093e+01
0	 8.592593e+00	 6.148148e+00	 1.003071e+01
0	 8.592593e+00	 6.222222e+00	 1.003043e+01
0	 8.592593e+00	 6.296296e+00	 1.003011e+01
0	 8.666667e+00	 5.925926e+00	 1.002799e+01
0	 8.666667e+00	 6.000000e+00	 1.002798e+01
0	 8.666667e+00	 6.074074e+00	 1.002791e+01
0	 8.666667e+00	 6.148148e+00	 1.002779e+01
0	 8.666667e+00	 6.222222e+00	 1.002761e+01
0	 8.666667e+00	 6.296296e+00	 1.002738e+01
0	 8.740741e+00	 5.925926e+00	 1.002487e+01
0	 8.740741e+00	 6.000000e+00	 1.002495e+01
0	 8.740741e+00	 6.074074e+00	 1.002499e+01
0	 8.740741e+00	 6.148148e+00	 1.002496e+01
0	 8.740741e+00	 6.222222e+00	 1.002488e+01
0	 8.740741e+00	 6.296296e+00	 1.002474e+01
0	 8.814815e+00	 5.925926e+00	 1.002185e+01
0	 8.814815e+00	 6.000000e+00	 1.002203e+01
0	 8.814815e+00	 6.074074e+00	 1.002216e+01
0	 8.814815e+00	 6.148148e+00	 1.002223e+01
0	 8.814815e+00	 6.222222e+00	 1.002224e+01
0	 8.814815e+00	 6.296296e+00	 1.002219e+01
0	 8.888889e+00	 5.925926e+00	 1.001894e+01
0	 8.888889e+00	 6.000000e+00	 1.001922e+01
0	 8.888889e+00	 6.074074e+00	 1.001944e+01
0	 8.888889e+00	 6.148148e+00	 1.001960e+01
0	 8.888889e+00	 6.222222e+00	 1.001970e+01
0	 8.888889e+00	 6.296296e+00	 1.001973e+01
0	 8.518519e+00	 6.296296e+00	 1.003291e+01
0	 8.518519e+00	 6.370370e+00	 1.003244e+01
0	 8.518519e+00	 6.444444e+00	 1.003193e+01
0	 8.518519e+00	 6.518519e+00	 1.003138e+01
0	 8.518519e+00	 6.592593e+00	 1.003079e+01
0	 8.518519e+00	 6.666667e+00	 1.003015e+01
0	 8.592593e+00	 6.296296e+00	 1.003011e+01
0	 8.592593e+00	 6.370370e+00	 1.002973e+01
0	 8.592593e+00	 6.444444e+00	 1.002932e+01
0	 8.592593e+00	 6.518519e+00	 1.002886e+01
0	 8.592593e+00	 6.592593e+00	 1.002836e+01
0	 8.592593e+00	 6.666667e+00	 1.002781e+01
0	 8.666667e+00	 6.296296e+00	 1.002738e+01
0	 8.666667e+00	 6.370370e+00	 1.002710e+01
0	 8.666667e+00	 6.444444e+00	 1.002678e+01
0	 8.666667e+00	 6.518519e+00	 1.002641e+01
0	 8.666667e+00	 6.592593e+00	 1.002600e+01
0	 8.666667e+00	 6.666667e+00	 1.002554e+01
0	 8.740741e+00	 6.296296e+00	 1.002474e+01
0	 8.740741e+00	 6.370370e+00	 1.002455e+01
0	 8.740741e+00	 6.444444e+00	 1.002431e+01
0	 8.740741e+00	 6.518519e+00	 1.002403e+01
0	 8.740741e+00	 6.592593e+00	 1.002371e+01
0	 8.740741e+00	 6.666667e+00	 1.002333e+01
0	 8.814815e+00	 6.296296e+00	 1.002219e+01
0	 8.814815e+00	 6.370370e+00	 1.002208e+01
0	 8.814815e+00	 6.444444e+00	 1.002193e+01
0	 8.814815e+00	 6.518519e+00	 1.002174e+01
0	 8.814815e+00	 6.592593e+00	 1.002149e+01
0	 8.814815e+00	 6.666667e+00	 1.002120e+01
0	 8.888889e+00	 6.296296e+00	 1.001973e+01
0	 8.888889e+00	 6.370370e+00	 1.001971e+01
0	 8.888889e+00	 6.444444e+00	 1.001965e+01
0	 8.888889e+00	 6.518519e+00	 1.001953e+01
0	 8.888889e+00	 6.592593e+00	 1.001936e+01
0	 8.888889e+00	 6.666667e+00	 1.001914e+01
0	 8.518519e+00	 6.666667e+00	 1.003015e+01
0	 8.518519e+00	 6.740741e+00	 1.002948e+01
0	 8.518519e+00	 6.814815e+00	 1.002879e+01
0	 8.518519e+00	 6.888889e+00	 1.002807e+01
0	 8.518519e+00	 6.962963e+00	 1.002732e+01
0	 8.518519e+00	 7.037037e+00	 1.002653e+01
0	 8.592593e+00	 6.666667e+00	 1.002781e+01
0	 8.592593e+00	 6.740741e+00	 1.002723e+01
0	 8.592593e+00	 6.814815e+00	 1.002663e+01
0	 8.592593e+00	 6.888889e+00	 1.002599e+01
0	 8.592593e+00	 6.962963e+00	 1.002532e+01
0	 8.592593e+00	 7.037037e+00	 1.002462e+01
0	 8.666667e+00	 6.666667e+00	 1.002554e+01
0	 8.666667e+00	 6.740741e+00	 1.002504e+01
0	 8.666667e+00	 6.814815e+00	 1.002452e+01
0	 8.666667e+00	 6.888889e+00	 1.002396e+01
0	 8.666667e+00	 6.962963e+00	 1.002337e+01
0	 8.666667e+00	 7.037037e+00	 1.002275e+01
0	 8.740741e+00	 6.666667e+00	 1.002333e+01
0	 8.740741e+00	 6.740741e+00	 1.002292e+01
0	 8.740741e+00	 6.814815e+00	 1.002247e+01
0	 8.740741e+00	 6.888889e+00	 1.002199e+01
0	 8.740741e+00	 6.962963e+00	 1.002148e+01
0	 8.740741e+00	 7.037037e+00	 1.002093e+01
0	 8.814815e+00	 6.666667e+00	 1.002120e+01
0	 8.814815e+00	 6.740741e+00	 1.002086e+01
0	 8.814815e+00	 6.814815e+00	 1.002049e+01
0	 8.814815e+00	 6.888889e+00	 1.002009e+01
0	 8.814815e+00	 6.962963e+00	 1.001965e+01
0	 8.814815e+00	 7.037037e+00	 1.001917e+01
0	 8.888889e+00	 6.666667e+00	 1.001914e+01
0	 8.888889e+00	 6.740741e+00	 1.001888e+01
0	 8.888889e+00	 6.814815e+00	 1.001859e+01
0	 8.888889e+00	 6.888889e+00	 1.001825e+01
0	 8.888889e+00	 6.962963e+00	 1.001788e+01
0	 8.888889e+00	 7.037037e+00	 1.001748e+01
0	 8.518519e+00	 7.037037e+00	 1.002653e+01
0	 8.518519e+00	 7.111111e+00	 1.002573e+01
0	 8.518519e+00	 7.185185e+00	 1.002491e+01
0	 8.518519e+00	 7.259259e+00	 1.002407e+01
0	 8.518519e+00	 7.333333e+00	 1.002321e+01
0	 8.518519e+00	 7.407407e+00	 1.002234e+01
0	 8.592593e+00	 7.037037e+00	 1.002462e+01
0	 8.592593e+00	 7.111111e+00	 1.002389e+01
0	 8.592593e+00	 7.185185e+00	 1.002315e+01
0	 8.592593e+00	 7.259259e+00	 1.002239e+01
0	 8.592593e+00	 7.333333e+00	 1.002161e+01
0	 8.592593e+00	 7.407407e+00	 1.002081e+01
0	 8.666667e+00	 7.037037e+00	 1.002275e+01
0	 8.666667e+00	 7.111111e+00	 1.002210e+01
0	 8.666667e+00	 7.185185e+00	 1.002143e+01
0	 8.666667e+00	 7.259259e+00	 1.002074e+01
0	 8.666667e+00	 7.333333e+00	 1.002004e+01
0	 8.666667e+00	 7.407407e+00	 1.001931e+01
0	 8.740741e+00	 7.037037e+00	 1.002093e+01
0	 8.740741e+00	 7.111111e+00	 1.002036e+01
0	 8.740741e+00	 7.185185e+00	 1.001976e+01
0	 8.740741e+00	 7.259259e+00	 1.001915e+01
0	 8.740741e+00	 7.333333e+00	 1.001851e+01
0	 8.740741e+00	 7.407407e+00	 1.001785e+01
0	 8.814815e+00	 7.037037e+00	 1.001917e+01
0	 8.814815e+00	 7.111111e+00	 1.001867e+01
0	 8.814815e+00	 7.185185e+00	 1.001814e+01
0	 8.814815e+00	 7.259259e+00	 1.001759e+01
0	 8.814815e+00	 7.333333e+00	 1.001702e+01
0	 8.814815e+00	 7.407407e+00	 1.001642e+01
0	 8.888889e+00	 7.037037e+00	 1.001748e+01
0	 8.888889e+00	 7.111111e+00	 1.001704e+01
0	 8.888889e+00	 7.185185e+00	 1.001658e+01
0	 8.888889e+00	 7.259259e+00	 1.001609e+01
0	 8.888889e+00	 7.333333e+00	 1.001558e+01
0	 8.888889e+00	 7.407407e+00	 1.001505e+01
0	 8.518519e+00	 7.407407e+00	 1.002234e+01
0	 8.518519e+00	 7.481481e+00	 1.002145e+01
0	 8.518519e+00	 7.555556e+00	 1.002056e+01
0	 8.518519e+00	 7.629630e+00	 1.001967e+01
0	 8.518519e+00	 7.703704e+00	 1.001877e+01
0	 8.518519e+00	 7.777778e+00	 1.001786e+01
0	 8.592593e+00	 7.407407e+00	 1.002081e+01
0	 8.592593e+00	 7.481481e+00	 1.001999e+01
0	 8.592593e+00	 7.555556e+00	 1.001917e+01
0	 8.592593e+00	 7.629630e+00	 1.001835e+01
0	 8.592593e+00	 7.703704e+00	 1.001752e+01
0	 8.592593e+00	 7.777778e+00	 1.001667e+01
0	 8.666667e+00	 7.407407e+00	 1.001931e+01
0	 8.666667e+00	 7.481481e+00	 1.001856e+01
0	 8.666667e+00	 7.555556e+00	 1.001781e+01
0	 8.666667e+00	 7.629630e+00	 1.001705e+01
0	 8.666667e+00	 7.703704e+00	 1.001629e+01
0	 8.666667e+00	 7.777778e+00	 1.001551e+01
0	 8.740741e+00	 7.407407e+00	 1.001785e+01
0	 8.740741e+00	 7.481481e+00	 1.001717e+01
0	 8.740741e+00	 7.555556e+00	 1.001648e+01
0	 8.740741e+00	 7.629630e+00	 1.001579e+01
0	 8.740741e+00	 7.703704e+00	 1.001509e+01
0	 8.740741e+00	 7.777778e+00	 1.001437e+01
0	 8.814815e+00	 7.407407e+00	 1.001642e+01
0	 8.814815e+00	 7.481481e+00	 1.001581e+01
0	 8.814815e+00	 7.555556e+00	 1.001519e+01
0	 8.814815e+00	 7.629630e+00	 1.001456e+01
0	 8.814815e+00	 7.703704e+00	 1.001391e+01
0	 8.814815e+00	 7.777778e+00	 1.001326e+01
0	 8.888889e+00	 7.407407e+00	 1.001505e+01
0	 8.888889e+00	 7.481481e+00	 1.001449e+01
0	 8.888889e+00	 7.555556e+00	 1.001393e+01
0	 8.888889e+00	 7.629630e+00	 1.001336e+01
0	 8.888889e+00	 7.703704e+00	 1.001277e+01
0	 8.888889e+00	 7.777778e+00	 1.001217e+01
0	 8.518519e+00	 7.777778e+00	 1.001786e+01
0	 8.518519e+00	 7.851852e+00	 1.001695e+01
0	 8.518519e+00	 7.925926e+00	 1.001605e+01
0	 8.518519e+00	 8.000000e+00	 1.001515e+01
0	 8.518519e+00	 8.074074e+00	 1.001426e+01
0	 8.518519e+00	 8.148148e+00	 1.001338e+01
0	 8.592593e+00	 7.777778e+00	 1.001667e+01
0	 8.592593e+00	 7.851852e+00	 1.001583e+01
0	 8.592593e+00	 7.925926e+00	 1.001499e+01
0	 8.592593e+00	 8.000000e+00	 1.001416e+01
0	 8.592593e+00	 8.074074e+00	 1.001333e+01
0	 8.592593e+00	 8.148148e+00	 1.001250e+01
0	 8.666667e+00	 7.777778e+00	 1.001551e+01
0	 8.666667e+00	 7.851852e+00	 1.001473e+01
0	 8.666667e+00	 7.925926e+00	 1.001395e+01
0	 8.666667e+00	 8.000000e+00	 1.001318e+01
0	 8.666667e+00	 8.074074e+00	 1.001241e+01
0	 8.666667e+00	 8.148148e+00	 1.001164e+01
0	 8.740741e+00	 7.777778e+00	 1.001437e+01
0	 8.740741e+00	 7.851852e+00	 1.001365e+01
0	 8.740741e+00	 7.925926e+00	 1.001293e+01
0	 8.740741e+00	 8.000000e+00	 1.001222e+01
0	 8.740741e+00	 8.074074e+00	 1.001151e+01
0	 8.740741e+00	 8.148148e+00	 1.001079e+01
0	 8.814815e+00	 7.777778e+00	 1.001326e+01
0	 8.814815e+00	 7.851852e+00	 1.001259e+01
0	 8.814815e+00	 7.925926e+00	 1.001193e+01
0	 8.814815e+00	 8.000000e+00	 1.001128e+01
0	 8.814815e+00	 8.074074e+00	 1.001062e+01
0	 8.814815e+00	 8.148148e+00	 1.000996e+01
0	 8.888889e+00	 7.777778e+00	 1.001217e+01
0	 8.888889e+00	 7.851852e+00	 1.001156e+01
0	 8.888889e+00	 7.925926e+00	 1.001096e+01
0	 8.888889e+00	 8.000000e+00	 1.001035e+01
0	 8.888889e+00	 8.074074e+00	 1.000975e+01
0	 8.888889e+00	 8.148148e+00	 1.000914e+01
0	 8.518519e+00	 8.148148e+00	 1.001338e+01
0	 8.518519e+00	 8.222222e+00	 1.001250e+01
0	 8.518519e+00	 8.296296e+00	 1.001164e+01
0	 8.518519e+00	 8.370370e+00	 1.001080e+01
0	 8.518519e+00	 8.444444e+00	 1.000998e+01
0	 8.518519e+00	 8.518519e+00	 1.000916e+01
0	 8.592593e+00	 8.148148e+00	 1.001250e+01
0	 8.592593e+00	 8.222222e+00	 1.001168e+01
0	 8.592593e+00	 8.296296e+00	 1.001088e+01
0	 8.592593e+00	 8.370370e+00	 1.001010e+01
0	 8.592593e+00	 8.444444e+00	 1.000933e+01
0	 8.592593e+00	 8.518519e+00	 1.000857e+01
0	 8.666667e+00	 8.148148e+00	 1.001164e+01
0	 8.666667e+00	 8.222222e+00	 1.001088e+01
0	 8.666667e+00	 8.296296e+00	 1.001014e+01
0	 8.666667e+00	 8.370370e+00	 1.000940e+01
0	 8.666667e+00	 8.444444e+00	 1.000868e+01
0	 8.666667e+00	 8.518519e+00	 1.000798e+01
0	 8.740741e+00	 8.148148e+00	 1.001079e+01
0	 8.740741e+00	 8.222222e+00	 1.001009e+01
0	 8.740741e+00	 8.296296e+00	 1.000940e+01
0	 8.740741e+00	 8.370370e+00	 1.000872e+01
0	 8.740741e+00	 8.444444e+00	 1.000805e+01
0	 8.740741e+00	 8.518519e+00	 1.000739e+01
0	 8.814815e+00	 8.148148e+00	 1.000996e+01
0	 8.814815e+00	 8.222222e+00	 1.000931e+01
0	 8.814815e+00	 8.296296e+00	 1.000867e+01
0	 8.814815e+00	 8.370370e+00	 1.000804e+01
0	 8.814815e+00	 8.444444e+00	 1.000742e+01
0	 8.814815e+00	 8.518519e+00	 1.000681e+01
0	 8.888889e+00	 8.148148e+00	 1.000914e+01
0	 8.888889e+00	 8.222222e+00	 1.000854e+01
0	 8.888889e+00	 8.296296e+00	 1.000795e+01
0	 8.888889e+00	 8.370370e+00	 1.000737e+01
0	 8.888889e+00	 8.444444e+00	 1.000680e+01
0	 8.888889e+00	 8.518519e+00	 1.000624e+01
0	 8.518519e+00	 8.518519e+00	 1.000916e+01
0	 8.518519e+00	 8.592593e+00	 1.000837e+01
0	 8.518519e+00	 8.666667e+00	 1.000761e+01
0	 8.518519e+00	 8.740741e+00	 1.000688e+01
0	 8.518519e+00	 8.814815e+00	 1.000617e+01
0	 8.518519e+00	 8.888889e+00	 1.000548e+01
0	 8.592593e+00	 8.518519e+00	 1.000857e+01
0	 8.592593e+00	 8.592593e+00	 1.000783e+01
0	 8.592593e+00	 8.666667e+00	 1.000711e+01
0	 8.592593e+00	 8.740741e+00	 1.000643e+01
0	 8.592593e+00	 8.814815e+00	 1.000576e+01
0	 8.592593e+00	 8.888889e+00	 1.000512e+01
0	 8.666667e+00	 8.518519e+00	 1.000798e+01
0	 8.666667e+00	 8.592593e+00	 1.000729e+01
0	 8.666667e+00	 8.666667e+00	 1.000662e+01
0	 8.666667e+00	 8.740741e+00	 1.000598e+01
0	 8.666667e+00	 8.814815e+00	 1.000536e+01
0	 8.666667e+00	 8.888889e+00	 1.000476e+01
0	 8.740741e+00	 8.518519e+00	 1.000739e+01
0	 8.740741e+00	 8.592593e+00	 1.000675e+01
0	 8.740741e+00	 8.666667e+00	 1.000613e+01
0	 8.740741e+00	 8.740741e+00	 1.000554e+01
0	 8.740741e+00	 8.814815e+00	 1.000496e+01
0	 8.740741e+00	 8.888889e+00	 1.000441e+01
0	 8.814815e+00	 8.518519e+00	 1.000681e+01
0	 8.814815e+00	 8.592593e+00	 1.000622e+01
0	 8.814815e+00	 8.666667e+00	 1.000564e+01
0	 8.814815e+00	 8.740741e+00	 1.000509e+01
0	 8.814815e+00	 8.814815e+00	 1.000456e+01
0	 8.814815e+00	 8.888889e+00	 1.000405e+01
0	 8.888889e+00	 8.518519e+00	 1.000624e+01
0	 8.888889e+00	 8.592593e+00	 1.000569e+01
0	 8.888889e+00	 8.666667e+00	 1.000516e+01
0	 8.888889e+00	 8.740741e+00	 1.000465e+01
0	 8.888889e+00	 8.814815e+00	 1.000416e+01
0	 8.888889e+00	 8.888889e+00	 1.000369e+01
0	 8.518519e+00	 8.888889e+00	 1.000548e+01
0	 8.518519e+00	 8.962963e+00	 1.000483e+01
0	 8.518519e+00	 9.037037e+00	 1.000421e+01
0	 8.518519e+00	 9.111111e+00	 1.000363e+01
0	 8.518519e+00	 9.185185e+00	 1.000309e+01
0	 8.518519e+00	 9.259259e+00	 1.000258e+01
0	 8.592593e+00	 8.888889e+00	 1.000512e+01
0	 8.592593e+00	 8.962963e+00	 1.000451e+01
0	 8.592593e+00	 9.037037e+00	 1.000393e+01
0	 8.592593e+00	 9.111111e+00	 1.000339e+01
0	 8.592593e+00	 9.185185e+00	 1.000289e+01
0	 8.592593e+00	 9.259259e+00	 1.000241e+01
0	 8.666667e+00	 8.888889e+00	 1.000476e+01
0	 8.666667e+00	 8.962963e+00	 1.000419e+01
0	 8.666667e+00	 9.037037e+00	 1.000366e+01
0	 8.666667e+00	 9.111111e+00	 1.000315e+01
0	 8.666667e+00	 9.185185e+00	 1.000268e+01
0	 8.666667e+00	 9.259259e+00	 1.000224e+01
0	 8.740741e+00	 8.888889e+00	 1.000441e+01
0	 8.740741e+00	 8.962963e+00	 1.000388e+01
0	 8.740741e+00	 9.037037e+00	 1.000338e+01
0	 8.740741e+00	 9.111111e+00	 1.000291e+01
0	 8.740741e+00	 9.185185e+00	 1.000247e+01
0	 8.740741e+00	 9.259259e+00	 1.000206e+01
0	 8.814815e+00	 8.888889e+00	 1.000405e+01
0	 8.814815e+00	 8.962963e+00	 1.000356e+01
0	 8.814815e+00	 9.037037e+00	 1.000310e+01
0	 8.814815e+00	 9.111111e+00	 1.000267e+01
0	 8.814815e+00	 9.185185e+00	 1.000226e+01
0	 8.814815e+00	 9.259259e+00	 1.000189e+01
0	 8.888889e+00	 8.888889e+00	 1.000369e+01
0	 8.888889e+00	 8.962963e+00	 1.000324e+01
0	 8.888889e+00	 9.037037e+00	 1.000282e+01
0	 8.888889e+00	 9.111111e+00	 1.000242e+01
0	 8.888889e+00	 9.185185e+00	 1.000206e+01
0	 8.888889e+00	 9.259259e+00	 1.000171e+01
0	 8.518519e+00	 9.259259e+00	 1.000258e+01
0	 8.518519e+00	 9.333333e+00	 1.000211e+01
0	 8.518519e+00	 9.407407e+00	 1.000168e+01
0	 8.518519e+00	 9.481481e+00	 1.000131e+01
0	 8.518519e+00	 9.555556e+00	 1.000097e+01
0	 8.518519e+00	 9.629630e+00	 1.000068e+01
0	 8.592593e+00	 9.259259e+00	 1.000241e+01
0	 8.592593e+00	 9.333333e+00	 1.000197e+01
0	 8.592593e+00	 9.407407e+00	 1.000157e+01
0	 8.592593e+00	 9.481481e+00	 1.000122e+01
0	 8.592593e+00	 9.555556e+00	 1.000091e+01
0	 8.592593e+00	 9.629630e+00	 1.000064e+01
0	 8.666667e+00	 9.259259e+00	 1.000224e+01
0	 8.666667e+00	 9.333333e+00	 1.000183e+01
0	 8.666667e+00	 9.407407e+00	 1.000146e+01
0	 8.666667e+00	 9.481481e+00	 1.000113e+01
0	 8.666667e+00	 9.555556e+00	 1.000084e+01
0	 8.666667e+00	 9.629630e+00	 1.000059e+01
0	 8.740741e+00	 9.259259e+00	 1.000206e+01
0	 8.740741e+00	 9.333333e+00	 1.000168e+01
0	 8.740741e+00	 9.407407e+00	 1.000134e+01
0	 8.740741e+00	 9.481481e+00	 1.000104e+01
0	 8.740741e+00	 9.555556e+00	 1.000077e+01
0	 8.740741e+00	 9.629630e+00	 1.000054e+01
0	 8.814815e+00	 9.259259e+00	 1.000189e+01
0	 8.814815e+00	 9.333333e+00	 1.000154e+01
0	 8.814815e+00	 9.407407e+00	 1.000123e+01
0	 8.814815e+00	 9.481481e+00	 1.000095e+01
0	 8.814815e+00	 9.555556e+00	 1.000071e+01
0	 8.814815e+00	 9.629630e+00	 1.000049e+01
0	 8.888889e+00	 9.259259e+00	 1.000171e+01
0	 8.888889e+00	 9.333333e+00	 1.000139e+01
0	 8.888889e+00	 9.407407e+00	 1.000111e+01
0	 8.888889e+00	 9.481481e+00	 1.000086e+01
0	 8.888889e+00	 9.555556e+00	 1.000064e+01
0	 8.888889e+00	 9.629630e+00	 1.000045e+01
0	 8.518519e+00	 9.629630e+00	 1.000068e+01
0	 8.518519e+00	 9.703704e+00	 1.000044e+01
0	 8.518519e+00	 9.777778e+00	 1.000025e+01
0	 8.518519e+00	 9.851852e+00	 1.000011e+01
0	 8.518519e+00	 9.925926e+00	 1.000003e+01
0	 8.518519e+00	 1.000000e+01	 9.999995e+00
0	 8.592593e+00	 9.629630e+00	 1.000064e+01
0	 8.592593e+00	 9.703704e+00	 1.000041e+01
0	 8.592593e+00	 9.777778e+00	 1.000023e+01
0	 8.592593e+00	 9.851852e+00	 1.000011e+01
0	 8.592593e+00	 9.925926e+00	 1.000003e+01
0	 8.592593e+00	 1.000000e+01	 9.999998e+00
0	 8.666667e+00	 9.629630e+00	 1.000059e+01
0	 8.666667e+00	 9.703704e+00	 1.000038e+01
0	 8.666667e+00	 9.777778e+00	 1.000022e+01
0	 8.666667e+00	 9.851852e+00	 1.000010e+01
0	 8.666667e+00	 9.925926e+00	 1.000003e+01
0	 8.666667e+00	 1.000000e+01	 9.999998e+00
0	 8.740741e+00	 9.629630e+00	 1.000054e+01
0	 8.740741e+00	 9.703704e+00	 1.000035e+01
0	 8.740741e+00	 9.777778e+00	 1.000020e+01
0	 8.740741e+00	 9.851852e+00	 1.000009e+01
0	 8.740741e+00	 9.925926e+00	 1.000002e+01
0	 8.740741e+00	 1.000000e+01	 9.999997e+00
0	 8.814815e+00	 9.629630e+00	 1.000049e+01
0	 8.814815e+00	 9.703704e+00	 1.000032e+01
0	 8.814815e+00	 9.777778e+00	 1.000018e+01
0	 8.814815e+00	 9.851852e+00	 1.000008e+01
0	 8.814815e+00	 9.925926e+00	 1.000002e+01
0	 8.814815e+00	 1.000000e+01	 9.999996e+00
0	 8.888889e+00	 9.629630e+00	 1.000045e+01
0	 8.888889e+00	 9.703704e+00	 1.000029e+01
0	 8.888889e+00	 9.777778e+00	 1.000016e+01
0	 8.888889e+00	 9.851852e+00	 1.000008e+01
0	 8.888889e+00	 9.925926e+00	 1.000002e+01
0	 8.888889e+00	 1.000000e+01	 9.999997e+00
0	 8.888889e+00	 0.000000e+00	 9.857036e+00
0	 8.888889e+00	 7.407407e-02	 9.857111e+00
0	 8.888889e+00	 1.481481e-01	 9.857334e+00
0	 8.888889e+00	 2.222222e-01	 9.857706e+00
0	 8.888889e+00	 2.962963e-01	 9.858227e+00
0	 8.888889e+00	 3.703704e-01	 9.858898e+00
0	 8.962963e+00	 0.000000e+00	 9.846076e+00
0	 8.962963e+00	 7.407407e-02	 9.846152e+00
0	 8.962963e+00	 1.481481e-01	 9.846381e+00
0	 8.962963e+00	 2.222222e-01	 9.846764e+00
0	 8.962963e+00	 2.962963e-01	 9.847300e+00
0	 8.962963e+00	 3.703704e-01	 9.847989e+00
0	 9.037037e+00	 0.000000e+00	 9.834864e+00
0	 9.037037e+00	 7.407407e-02	 9.834943e+00
0	 9.037037e+00	 1.481481e-01	 9.835179e+00
0	 9.037037e+00	 2.222222e-01	 9.835573e+00
0	 9.037037e+00	 2.962963e-01	 9.836125e+00
0	 9.037037e+00	 3.703704e-01	 9.836836e+00
0	 9.111111e+00	 0.000000e+00	 9.823378e+00
0	 9.111111e+00	 7.407407e-02	 9.823460e+00
0	 9.111111e+00	 1.481481e-01	 9.823704e+00
0	 9.111111e+00	 2.222222e-01	 9.824111e+00
0	 9.111111e+00	 2.962963e-01	 9.824682e+00
0	 9.111111e+00	 3.703704e-01	 9.825417e+00
0	 9.185185e+00	 0.000000e+00	 9.811595e+00
0	 9.185185e+00	 7.407407e-02	 9.811680e+00
0	 9.185185e+00	 1.481481e-01	 9.811934e+00
0	 9.185185e+00	 2.222222e-01	 9.812356e+00
0	 9.185185e+00	 2.962963e-01	 9.812948e+00
0	 9.185185e+00	 3.703704e-01	 9.813708e+00
0	 9.259259e+00	 0.000000e+00	 9.799494e+00
0	 9.259259e+00	 7.407407e-02	 9.799582e+00
0	 9.259259e+00	 1.481481e-01	 9.799846e+00
0	 9.259259e+00	 2.222222e-01	 9.800285e+00
0	 9.259259e+00	 2.962963e-01	 9.800899e+00
0	 9.259259e+00	 3.703704e-01	 9.801689e+00
0	 8.888889e+00	 3.703704e-01	 9.858898e+00
0	 8.888889e+00	 4.444444e-01	 9.859713e+00
0	 8.888889e+00	 5.185185e-01	 9.860667e+00
0	 8.888889e+00	 5.925926e-01	 9.861761e+00
0	 8.888889e+00	 6.666667e-01	 9.862995e+00
0	 8.888889e+00	 7.407407e-01	 9.864372e+00
0	 8.962963e+00	 3.703704e-01	 9.847989e+00
0	 8.962963e+00	 4.444444e-01	 9.848827e+00
0	 8.962963e+00	 5.185185e-01	 9.849808e+00
0	 8.962963e+00	 5.925926e-01	 9.850933e+00
0	 8.962963e+00	 6.666667e-01	 9.852202e+00
0	 8.962963e+00	 7.407407e-01	 9.853618e+00
0	 9.037037e+00	 3.703704e-01	 9.836836e+00
0	 9.037037e+00	 4.444444e-01	 9.837700e+00
0	 9.037037e+00	 5.185185e-01	 9.838711e+00
0	 9.037037e+00	 5.925926e-01	 9.839870e+00
0	 9.037037e+00	 6.666667e-01	 9.841180e+00
0	 9.037037e+00	 7.407407e-01	 9.842640e+00
0	 9.111111e+00	 3.703704e-01	 9.825417e+00
0	 9.111111e+00	 4.444444e-01	 9.826309e+00
0	 9.111111e+00	 5.185185e-01	 9.827354e+00
0	 9.111111e+00	 5.925926e-01	 9.828553e+00
0	 9.111111e+00	 6.666667e-01	 9.829907e+00
0	 9.111111e+00	 7.407407e-01	 9.831416e+00
0	 9.185185e+00	 3.703704e-01	 9.813708e+00
0	 9.185185e+00	 4.444444e-01	 9.814633e+00
0	 9.185185e+00	 5.185185e-01	 9.815716e+00
0	 9.185185e+00	 5.925926e-01	 9.816958e+00
0	 9.185185e+00	 6.666667e-01	 9.818362e+00
0	 9.185185e+00	 7.407407e-01	 9.819926e+00
0	 9.259259e+00	 3.703704e-01	 9.801689e+00
0	 9.259259e+00	 4.444444e-01	 9.802649e+00
0	 9.259259e+00	 5.185185e-01	 9.803775e+00
0	 9.259259e+00	 5.925926e-01	 9.805066e+00
0	 9.259259e+00	 6.666667e-01	 9.806524e+00
0	 9.259259e+00	 7.407407e-01	 9.808150e+00
0	 8.888889e+00	 7.407407e-01	 9.864372e+00
0	 8.888889e+00	 8.148148e-01	 9.865880e+00
0	 8.888889e+00	 8.888889e-01	 9.867509e+00
0	 8.888889e+00	 9.629630e-01	 9.869260e+00
0	 8.888889e+00	 1.037037e+00	 9.871136e+00
0	 8.888889e+00	 1.111111e+00	 9.873139e+00
0	 8.962963e+00	 7.407407e-01	 9.853618e+00
0	 8.962963e+00	 8.148148e-01	 9.855170e+00
0	 8.962963e+00	 8.888889e-01	 9.856846e+00
0	 8.962963e+00	 9.629630e-01	 9.858649e+00
0	 8.962963e+00	 1.037037e+00	 9.860580e+00
0	 8.962963e+00	 1.111111e+00	 9.862642e+00
0	 9.037037e+00	 7.407407e-01	 9.842640e+00
0	 9.037037e+00	 8.148148e-01	 9.844240e+00
0	 9.037037e+00	 8.888889e-01	 9.845969e+00
0	 9.037037e+00	 9.629630e-01	 9.847830e+00
0	 9.037037e+00	 1.037037e+00	 9.849823e+00
0	 9.037037e+00	 1.111111e+00	 9.851952e+00
0	 9.111111e+00	 7.407407e-01	 9.831416e+00
0	 9.111111e+00	 8.148148e-01	 9.833071e+00
0	 9.111111e+00	 8.888889e-01	 9.834860e+00
0	 9.111111e+00	 9.629630e-01	 9.836785e+00
0	 9.111111e+00	 1.037037e+00	 9.838847e+00
0	 9.111111e+00	 1.111111e+00	 9.841049e+00
0	 9.185185e+00	 7.407407e-01	 9.819926e+00
0	 9.185185e+00	 8.148148e-01	 9.821641e+00
0	 9.185185e+00	 8.888889e-01	 9.823496e+00
0	 9.185185e+00	 9.629630e-01	 9.825493e+00
0	 9.185185e+00	 1.037037e+00	 9.827632e+00
0	 9.185185e+00	 1.111111e+00	 9.829916e+00
0	 9.259259e+00	 7.407407e-01	 9.808150e+00
0	 9.259259e+00	 8.148148e-01	 9.809932e+00
0	 9.259259e+00	 8.888889e-01	 9.811860e+00
0	 9.259259e+00	 9.629630e-01	 9.813936e+00
0	 9.259259e+00	 1.037037e+00	 9.816160e+00
0	 9.259259e+00	 1.111111e+00	 9.818534e+00
0	 8.888889e+00	 1.111111e+00	 9.873139e+00
0	 8.888889e+00	 1.185185e+00	 9.875253e+00
0	 8.888889e+00	 1.259259e+00	 9.877463e+00
0	 8.888889e+00	 1.333333e+00	 9.879773e+00
0	 8.888889e+00	 1.407407e+00	 9.882184e+00
0	 8.888889e+00	 1.481481e+00	 9.884700e+00
0	 8.962963e+00	 1.111111e+00	 9.862642e+00
0	 8.962963e+00	 1.185185e+00	 9.864819e+00
0	 8.962963e+00	 1.259259e+00	 9.867097e+00
0	 8.962963e+00	 1.333333e+00	 9.869478e+00
0	 8.962963e+00	 1.407407e+00	 9.871964e+00
0	 8.962963e+00	 1.481481e+00	 9.874558e+00
0	 9.037037e+00	 1.111111e+00	 9.851952e+00
0	 9.037037e+00	 1.185185e+00	 9.854200e+00
0	 9.037037e+00	 1.259259e+00	 9.856552e+00
0	 9.037037e+00	 1.333333e+00	 9.859012e+00
0	 9.037037e+00	 1.407407e+00	 9.861582e+00
0	 9.037037e+00	 1.481481e+00	 9.864263e+00
0	 9.111111e+00	 1.111111e+00	 9.841049e+00
0	 9.111111e+00	 1.185185e+00	 9.843376e+00
0	 9.111111e+00	 1.259259e+00	 9.845812e+00
0	 9.111111e+00	 1.333333e+00	 9.848359e+00
0	 9.111111e+00	 1.407407e+00	 9.851021e+00
0	 9.111111e+00	 1.481481e+00	 9.853798e+00
0	 9.185185e+00	 1.111111e+00	 9.829916e+00
0	 9.185185e+00	 1.185185e+00	 9.832330e+00
0	 9.185185e+00	 1.259259e+00	 9.834858e+00
0	 9.185185e+00	 1.333333e+00	 9.837502e+00
0	 9.185185e+00	 1.407407e+00	 9.840265e+00
0	 9.185185e+00	 1.481481e+00	 9.843149e+00
0	 9.259259e+00	 1.111111e+00	 9.818534e+00
0	 9.259259e+00	 1.185185e+00	 9.821044e+00
0	 9.259259e+00	 1.259259e+00	 9.823673e+00
0	 9.259259e+00	 1.333333e+00	 9.826424e+00
0	 9.259259e+00	 1.407407e+00	 9.829299e+00
0	 9.259259e+00	 1.481481e+00	 9.832300e+00
0	 8.888889e+00	 1.481481e+00	 9.884700e+00
0	 8.888889e+00	 1.555556e+00	 9.887301e+00
0	 8.888889e+00	 1.629630e+00	 9.889971e+00
0	 8.888889e+00	 1.703704e+00	 9.892712e+00
0	 8.888889e+00	 1.777778e+00	 9.895527e+00
0	 8.888889e+00	 1.851852e+00	 9.898420e+00
0	 8.962963e+00	 1.481481e+00	 9.874558e+00
0	 8.962963e+00	 1.555556e+00	 9.877242e+00
0	 8.962963e+00	 1.629630e+00	 9.879998e+00
0	 8.962963e+00	 1.703704e+00	 9.882829e+00
0	 8.962963e+00	 1.777778e+00	 9.885737e+00
0	 8.962963e+00	 1.851852e+00	 9.888726e+00
0	 9.037037e+00	 1.481481e+00	 9.864263e+00
0	 9.037037e+00	 1.555556e+00	 9.867037e+00
0	 9.037037e+00	 1.629630e+00	 9.869889e+00
0	 9.037037e+00	 1.703704e+00	 9.872819e+00
0	 9.037037e+00	 1.777778e+00	 9.875830e+00
0	 9.037037e+00	 1.851852e+00	 9.878924e+00
0	 9.111111e+00	 1.481481e+00	 9.853798e+00
0	 9.111111e+00	 1.555556e+00	 9.856674e+00
0	 9.111111e+00	 1.629630e+00	 9.859629e+00
0	 9.111111e+00	 1.703704e+00	 9.862668e+00
0	 9.111111e+00	 1.777778e+00	 9.865792e+00
0	 9.111111e+00	 1.851852e+00	 9.869002e+00
0	 9.185185e+00	 1.481481e+00	 9.843149e+00
0	 9.185185e+00	 1.555556e+00	 9.846135e+00
0	 9.185185e+00	 1.629630e+00	 9.849206e+00
0	 9.185185e+00	 1.703704e+00	 9.852364e+00
0	 9.185185e+00	 1.777778e+00	 9.855610e+00
0	 9.185185e+00	 1.851852e+00	 9.858948e+00
0	 9.259259e+00	 1.481481e+00	 9.832300e+00
0	 9.259259e+00	 1.555556e+00	 9.835407e+00
0	 9.259259e+00	 1.629630e+00	 9.838604e+00
0	 9.259259e+00	 1.703704e+00	 9.841892e+00
0	 9.259259e+00	 1.777778e+00	 9.845274e+00
0	 9.259259e+00	 1.851852e+00	 9.848750e+00
0	 8.888889e+00	 1.851852e+00	 9.898420e+00
0	 8.888889e+00	 1.925926e+00	 9.901369e+00
0	 8.888889e+00	 2.000000e+00	 9.904358e+00
0	 8.888889e+00	 2.074074e+00	 9.907388e+00
0	 8.888889e+00	 2.148148e+00	 9.910462e+00
0	 8.888889e+00	 2.222222e+00	 9.913584e+00
0	 8.962963e+00	 1.851852e+00	 9.888726e+00
0	 8.962963e+00	 1.925926e+00	 9.891776e+00
0	 8.962963e+00	 2.000000e+00	 9.894868e+00
0	 8.962963e+00	 2.074074e+00	 9.898004e+00
0	 8.962963e+00	 2.148148e+00	 9.901188e+00
0	 8.962963e+00	 2.222222e+00	 9.904422e+00
0	 9.037037e+00	 1.851852e+00	 9.878924e+00
0	 9.037037e+00	 1.925926e+00	 9.882083e+00
0	 9.037037e+00	 2.000000e+00	 9.885288e+00
0	 9.037037e+00	 2.074074e+00	 9.888541e+00
0	 9.037037e+00	 2.148148e+00	 9.891844e+00
0	 9.037037e+00	 2.222222e+00	 9.895200e+00
0	 9.111111e+00	 1.851852e+00	 9.869002e+00
0	 9.111111e+00	 1.925926e+00	 9.872281e+00
0	 9.111111e+00	 2.000000e+00	 9.875609e+00
0	 9.111111e+00	 2.074074e+00	 9.878988e+00
0	 9.111111e+00	 2.148148e+00	 9.882421e+00
0	 9.111111e+00	 2.222222e+00	 9.885909e+00
0	 9.185185e+00	 1.851852e+00	 9.858948e+00
0	 9.185185e+00	 1.925926e+00	 9.862358e+00
0	 9.185185e+00	 2.000000e+00	 9.865820e+00
0	 9.185185e+00	 2.074074e+00	 9.869337e+00
0	 9.185185e+00	 2.148148e+00	 9.872910e+00
0	 9.185185e+00	 2.222222e+00	 9.876542e+00
0	 9.259259e+00	 1.851852e+00	 9.848750e+00
0	 9.259259e+00	 1.925926e+00	 9.852303e+00
0	 9.259259e+00	 2.000000e+00	 9.855911e+00
0	 9.259259e+00	 2.074074e+00	 9.859577e+00
0	 9.259259e+00	 2.148148e+00	 9.863303e+00
0	 9.259259e+00	 2.222222e+00	 9.867091e+00
0	 8.888889e+00	 2.222222e+00	 9.913584e+00
0	 8.888889e+00	 2.296296e+00	 9.916733e+00
0	 8.888889e+00	 2.370370e+00	 9.919892e+00
0	 8.888889e+00	 2.444444e+00	 9.923063e+00
0	 8.888889e+00	 2.518519e+00	 9.926248e+00
0	 8.888889e+00	 2.592593e+00	 9.929450e+00
0	 8.962963e+00	 2.222222e+00	 9.904422e+00
0	 8.962963e+00	 2.296296e+00	 9.907687e+00
0	 8.962963e+00	 2.370370e+00	 9.910963e+00
0	 8.962963e+00	 2.444444e+00	 9.914255e+00
0	 8.962963e+00	 2.518519e+00	 9.917564e+00
0	 8.962963e+00	 2.592593e+00	 9.920892e+00
0	 9.037037e+00	 2.222222e+00	 9.895200e+00
0	 9.037037e+00	 2.296296e+00	 9.898589e+00
0	 9.037037e+00	 2.370370e+00	 9.901994e+00
0	 9.037037e+00	 2.444444e+00	 9.905416e+00
0	 9.037037e+00	 2.518519e+00	 9.908857e+00
0	 9.037037e+00	 2.592593e+00	 9.912320e+00
0	 9.111111e+00	 2.222222e+00	 9.885909e+00
0	 9.111111e+00	 2.296296e+00	 9.889434e+00
0	 9.111111e+00	 2.370370e+00	 9.892977e+00
0	 9.111111e+00	 2.444444e+00	 9.896539e+00
0	 9.111111e+00	 2.518519e+00	 9.900123e+00
0	 9.111111e+00	 2.592593e+00	 9.903730e+00
0	 9.185185e+00	 2.222222e+00	 9.876542e+00
0	 9.185185e+00	 2.296296e+00	 9.880214e+00
0	 9.185185e+00	 2.370370e+00	 9.883906e+00
0	 9.185185e+00	 2.444444e+00	 9.887619e+00
0	 9.185185e+00	 2.518519e+00	 9.891357e+00
0	 9.185185e+00	 2.592593e+00	 9.895120e+00
0	 9.259259e+00	 2.222222e+00	 9.867091e+00
0	 9.259259e+00	 2.296296e+00	 9.870922e+00
0	 9.259259e+00	 2.370370e+00	 9.874774e+00
0	 9.259259e+00	 2.444444e+00	 9.878651e+00
0	 9.259259e+00	 2.518519e+00	 9.882554e+00
0	 9.259259e+00	 2.592593e+00	 9.886485e+00
0	 8.888889e+00	 2.592593e+00	 9.929450e+00
0	 8.888889e+00	 2.666667e+00	 9.932652e+00
0	 8.888889e+00	 2.740741e+00	 9.935837e+00
0	 8.888889e+00	 2.814815e+00	 9.939006e+00
0	 8.888889e+00	 2.888889e+00	 9.942162e+00
0	 8.888889e+00	 2.962963e+00	 9.945306e+00
0	 8.962963e+00	 2.592593e+00	 9.920892e+00
0	 8.962963e+00	 2.666667e+00	 9.924222e+00
0	 8.962963e+00	 2.740741e+00	 9.927536e+00
0	 8.962963e+00	 2.814815e+00	 9.930837e+00
0	 8.962963e+00	 2.888889e+00	 9.934126e+00
0	 8.962963e+00	 2.962963e+00	 9.937406e+00
0	 9.037037e+00	 2.592593e+00	 9.912320e+00
0	 9.037037e+00	 2.666667e+00	 9.915787e+00
0	 9.037037e+00	 2.740741e+00	 9.919240e+00
0	 9.037037e+00	 2.814815e+00	 9.922681e+00
0	 9.037037e+00	 2.888889e+00	 9.926113e+00
0	 9.037037e+00	 2.962963e+00	 9.929537e+00
0	 9.111111e+00	 2.592593e+00	 9.903730e+00
0	 9.111111e+00	 2.666667e+00	 9.907344e+00
0	 9.111111e+00	 2.740741e+00	 9.910946e+00
0	 9.111111e+00	 2.814815e+00	 9.914537e+00
0	 9.111111e+00	 2.888889e+00	 9.918120e+00
0	 9.111111e+00	 2.962963e+00	 9.921697e+00
0	 9.185185e+00	 2.592593e+00	 9.895120e+00
0	 9.185185e+00	 2.666667e+00	 9.898892e+00
0	 9.185185e+00	 2.740741e+00	 9.902652e+00
0	 9.185185e+00	 2.814815e+00	 9.906404e+00
0	 9.185185e+00	 2.888889e+00	 9.910149e+00
0	 9.185185e+00	 2.962963e+00	 9.913888e+00
0	 9.259259e+00	 2.592593e+00	 9.886485e+00
0	 9.259259e+00	 2.666667e+00	 9.890425e+00
0	 9.259259e+00	 2.740741e+00	 9.894356e+00
0	 9.259259e+00	 2.814815e+00	 9.898279e+00
0	 9.259259e+00	 2.888889e+00	 9.902196e+00
0	 9.259259e+00	 2.962963e+00	 9.906109e+00
0	 8.888889e+00	 2.962963e+00	 9.945306e+00
0	 8.888889e+00	 3.037037e+00	 9.948425e+00
0	 8.888889e+00	 3.111111e+00	 9.951503e+00
0	 8.888889e+00	 3.185185e+00	 9.954542e+00
0	 8.888889e+00	 3.259259e+00	 9.957543e+00
0	 8.888889e+00	 3.333333e+00	 9.960508e+00
0	 8.962963e+00	 2.962963e+00	 9.937406e+00
0	 8.962963e+00	 3.037037e+00	 9.940662e+00
0	 8.962963e+00	 3.111111e+00	 9.943878e+00
0	 8.962963e+00	 3.185185e+00	 9.947056e+00
0	 8.962963e+00	 3.259259e+00	 9.950197e+00
0	 8.962963e+00	 3.333333e+00	 9.953304e+00
0	 9.037037e+00	 2.962963e+00	 9.929537e+00
0	 9.037037e+00	 3.037037e+00	 9.932937e+00
0	 9.037037e+00	 3.111111e+00	 9.936299e+00
0	 9.037037e+00	 3.185185e+00	 9.939624e+00
0	 9.037037e+00	 3.259259e+00	 9.942913e+00
0	 9.037037e+00	 3.333333e+00	 9.946168e+00
0	 9.111111e+00	 2.962963e+00	 9.921697e+00
0	 9.111111e+00	 3.037037e+00	 9.925252e+00
0	 9.111111e+00	 3.111111e+00	 9.928768e+00
0	 9.111111e+00	 3.185185e+00	 9.932248e+00
0	 9.111111e+00	 3.259259e+00	 9.935693e+00
0	 9.111111e+00	 3.333333e+00	 9.939104e+00
0	 9.185185e+00	 2.962963e+00	 9.913888e+00
0	 9.185185e+00	 3.037037e+00	 9.917606e+00
0	 9.185185e+00	 3.111111e+00	 9.921286e+00
0	 9.185185e+00	 3.185185e+00	 9.924930e+00
0	 9.185185e+00	 3.259259e+00	 9.928539e+00
0	 9.185185e+00	 3.333333e+00	 9.932115e+00
0	 9.259259e+00	 2.962963e+00	 9.906109e+00
0	 9.259259e+00	 3.037037e+00	 9.910001e+00
0	 9.259259e+00	 3.111111e+00	 9.913855e+00
0	 9.259259e+00	 3.185185e+00	 9.917672e+00
0	 9.259259e+00	 3.259259e+00	 9.921455e+00
0	 9.259259e+00	 3.333333e+00	 9.925205e+00
0	 8.888889e+00	 3.333333e+00	 9.960508e+00
0	 8.888889e+00	 3.407407e+00	 9.963426e+00
0	 8.888889e+00	 3.481481e+00	 9.966285e+00
0	 8.888889e+00	 3.555556e+00	 9.969085e+00
0	 8.888889e+00	 3.629630e+00	 9.971828e+00
0	 8.888889e+00	 3.703704e+00	 9.974516e+00
0	 8.962963e+00	 3.333333e+00	 9.953304e+00
0	 8.962963e+00	 3.407407e+00	 9.956364e+00
0	 8.962963e+00	 3.481481e+00	 9.959365e+00
0	 8.962963e+00	 3.555556e+00	 9.962308e+00
0	 8.962963e+00	 3.629630e+00	 9.965194e+00
0	 8.962963e+00	 3.703704e+00	 9.968025e+00
0	 9.037037e+00	 3.333333e+00	 9.946168e+00
0	 9.037037e+00	 3.407407e+00	 9.949377e+00
0	 9.037037e+00	 3.481481e+00	 9.952527e+00
0	 9.037037e+00	 3.555556e+00	 9.955619e+00
0	 9.037037e+00	 3.629630e+00	 9.958654e+00
0	 9.037037e+00	 3.703704e+00	 9.961633e+00
0	 9.111111e+00	 3.333333e+00	 9.939104e+00
0	 9.111111e+00	 3.407407e+00	 9.942469e+00
0	 9.111111e+00	 3.481481e+00	 9.945774e+00
0	 9.111111e+00	 3.555556e+00	 9.949022e+00
0	 9.111111e+00	 3.629630e+00	 9.952212e+00
0	 9.111111e+00	 3.703704e+00	 9.955346e+00
0	 9.185185e+00	 3.333333e+00	 9.932115e+00
0	 9.185185e+00	 3.407407e+00	 9.935644e+00
0	 9.185185e+00	 3.481481e+00	 9.939113e+00
0	 9.185185e+00	 3.555556e+00	 9.942523e+00
0	 9.185185e+00	 3.629630e+00	 9.945876e+00
0	 9.185185e+00	 3.703704e+00	 9.949171e+00
0	 9.259259e+00	 3.333333e+00	 9.925205e+00
0	 9.259259e+00	 3.407407e+00	 9.928907e+00
0	 9.259259e+00	 3.481481e+00	 9.932548e+00
0	 9.259259e+00	 3.555556e+00	 9.936129e+00
0	 9.259259e+00	 3.629630e+00	 9.939651e+00
0	 9.259259e+00	 3.703704e+00	 9.943115e+00
0	 8.888889e+00	 3.703704e+00	 9.974516e+00
0	 8.888889e+00	 3.777778e+00	 9.977139e+00
0	 8.888889e+00	 3.851852e+00	 9.979690e+00
0	 8.888889e+00	 3.925926e+00	 9.982168e+00
0	 8.888889e+00	 4.000000e+00	 9.984575e+00
0	 8.888889e+00	 4.074074e+00	 9.986911e+00
0	 8.962963e+00	 3.703704e+00	 9.968025e+00
0	 8.962963e+00	 3.777778e+00	 9.970791e+00
0	 8.962963e+00	 3.851852e+00	 9.973485e+00
0	 8.962963e+00	 3.925926e+00	 9.976105e+00
0	 8.962963e+00	 4.000000e+00	 9.978654e+00
0	 8.962963e+00	 4.074074e+00	 9.981131e+00
0	 9.037037e+00	 3.703704e+00	 9.961633e+00
0	 9.037037e+00	 3.777778e+00	 9.964548e+00
0	 9.037037e+00	 3.851852e+00	 9.967388e+00
0	 9.037037e+00	 3.925926e+00	 9.970156e+00
0	 9.037037e+00	 4.000000e+00	 9.972850e+00
0	 9.037037e+00	 4.074074e+00	 9.975473e+00
0	 9.111111e+00	 3.703704e+00	 9.955346e+00
0	 9.111111e+00	 3.777778e+00	 9.958415e+00
0	 9.111111e+00	 3.851852e+00	 9.961408e+00
0	 9.111111e+00	 3.925926e+00	 9.964327e+00
0	 9.111111e+00	 4.000000e+00	 9.967172e+00
0	 9.111111e+00	 4.074074e+00	 9.969944e+00
0	 9.185185e+00	 3.703704e+00	 9.949171e+00
0	 9.185185e+00	 3.777778e+00	 9.952400e+00
0	 9.185185e+00	 3.851852e+00	 9.955552e+00
0	 9.185185e+00	 3.925926e+00	 9.958628e+00
0	 9.185185e+00	 4.000000e+00	 9.961629e+00
0	 9.185185e+00	 4.074074e+00	 9.964555e+00
0	 9.259259e+00	 3.703704e+00	 9.943115e+00
0	 9.259259e+00	 3.777778e+00	 9.946511e+00
0	 9.259259e+00	 3.851852e+00	 9.949828e+00
0	 9.259259e+00	 3.925926e+00	 9.953067e+00
0	 9.259259e+00	 4.000000e+00	 9.956228e+00
0	 9.259259e+00	 4.074074e+00	 9.959313e+00
0	 8.888889e+00	 4.074074e+00	 9.986911e+00
0	 8.888889e+00	 4.148148e+00	 9.989172e+00
0	 8.888889e+00	 4.222222e+00	 9.991351e+00
0	 8.888889e+00	 4.296296e+00	 9.993450e+00
0	 8.888889e+00	 4.370370e+00	 9.995469e+00
0	 8.888889e+00	 4.444444e+00	 9.997407e+00
0	 8.962963e+00	 4.074074e+00	 9.981131e+00
0	 8.962963e+00	 4.148148e+00	 9.983532e+00
0	 8.962963e+00	 4.222222e+00	 9.985851e+00
0	 8.962963e+00	 4.296296e+00	 9.988088e+00
0	 8.962963e+00	 4.370370e+00	 9.990244e+00
0	 8.962963e+00	 4.444444e+00	 9.992318e+00
0	 9.037037e+00	 4.074074e+00	 9.975473e+00
0	 9.037037e+00	 4.148148e+00	 9.978018e+00
0	 9.037037e+00	 4.222222e+00	 9.980479e+00
0	 9.037037e+00	 4.296296e+00	 9.982857e+00
0	 9.037037e+00	 4.370370e+00	 9.985151e+00
0	 9.037037e+00	 4.444444e+00	 9.987363e+00
0	 9.111111e+00	 4.074074e+00	 9.969944e+00
0	 9.111111e+00	 4.148148e+00	 9.972637e+00
0	 9.111111e+00	 4.222222e+00	 9.975244e+00
0	 9.111111e+00	 4.296296e+00	 9.977766e+00
0	 9.111111e+00	 4.370370e+00	 9.980202e+00
0	 9.111111e+00	 4.444444e+00	 9.982555e+00
0	 9.185185e+00	 4.074074e+00	 9.964555e+00
0	 9.185185e+00	 4.148148e+00	 9.967399e+00
0	 9.185185e+00	 4.222222e+00	 9.970156e+00
0	 9.185185e+00	 4.296296e+00	 9.972825e+00
0	 9.185185e+00	 4.370370e+00	 9.975407e+00
0	 9.185185e+00	 4.444444e+00	 9.977902e+00
0	 9.259259e+00	 4.074074e+00	 9.959313e+00
0	 9.259259e+00	 4.148148e+00	 9.962314e+00
0	 9.259259e+00	 4.222222e+00	 9.965225e+00
0	 9.259259e+00	 4.296296e+00	 9.968045e+00
0	 9.259259e+00	 4.370370e+00	 9.970776e+00
0	 9.259259e+00	 4.444444e+00	 9.973417e+00
0	 8.888889e+00	 4.444444e+00	 9.997407e+00
0	 8.888889e+00	 4.518519e+00	 9.999263e+00
0	 8.888889e+00	 4.592593e+00	 1.000104e+01
0	 8.888889e+00	 4.666667e+00	 1.000272e+01
0	 8.888889e+00	 4.740741e+00	 1.000433e+01
0	 8.888889e+00	 4.814815e+00	 1.000585e+01
0	 8.962963e+00	 4.444444e+00	 9.992318e+00
0	 8.962963e+00	 4.518519e+00	 9.994308e+00
0	 8.962963e+00	 4.592593e+00	 9.996213e+00
0	 8.962963e+00	 4.666667e+00	 9.998032e+00
0	 8.962963e+00	 4.740741e+00	 9.999764e+00
0	 8.962963e+00	 4.814815e+00	 1.000141e+01
0	 9.037037e+00	 4.444444e+00	 9.987363e+00
0	 9.037037e+00	 4.518519e+00	 9.989490e+00
0	 9.037037e+00	 4.592593e+00	 9.991529e+00
0	 9.037037e+00	 4.666667e+00	 9.993479e+00
0	 9.037037e+00	 4.740741e+00	 9.995342e+00
0	 9.037037e+00	 4.814815e+00	 9.997116e+00
0	 9.111111e+00	 4.444444e+00	 9.982555e+00
0	 9.111111e+00	 4.518519e+00	 9.984819e+00
0	 9.111111e+00	 4.592593e+00	 9.986994e+00
0	 9.111111e+00	 4.666667e+00	 9.989077e+00
0	 9.111111e+00	 4.740741e+00	 9.991071e+00
0	 9.111111e+00	 4.814815e+00	 9.992973e+00
0	 9.185185e+00	 4.444444e+00	 9.977902e+00
0	 9.185185e+00	 4.518519e+00	 9.980307e+00
0	 9.185185e+00	 4.592593e+00	 9.982619e+00
0	 9.185185e+00	 4.666667e+00	 9.984838e+00
0	 9.185185e+00	 4.740741e+00	 9.986963e+00
0	 9.185185e+00	 4.814815e+00	 9.988995e+00
0	 9.259259e+00	 4.444444e+00	 9.973417e+00
0	 9.259259e+00	 4.518519e+00	 9.975965e+00
0	 9.259259e+00	 4.592593e+00	 9.978416e+00
0	 9.259259e+00	 4.666667e+00	 9.980771e+00
0	 9.259259e+00	 4.740741e+00	 9.983030e+00
0	 9.259259e+00	 4.814815e+00	 9.985192e+00
0	 8.888889e+00	 4.814815e+00	 1.000585e+01
0	 8.888889e+00	 4.888889e+00	 1.000728e+01
0	 8.888889e+00	 4.962963e+00	 1.000863e+01
0	 8.888889e+00	 5.037037e+00	 1.000990e+01
0	 8.888889e+00	 5.111111e+00	 1.001109e+01
0	 8.888889e+00	 5.185185e+00	 1.001219e+01
0	 8.962963e+00	 4.814815e+00	 1.000141e+01
0	 8.962963e+00	 4.888889e+00	 1.000297e+01
0	 8.962963e+00	 4.962963e+00	 1.000445e+01
0	 8.962963e+00	 5.037037e+00	 1.000584e+01
0	 8.962963e+00	 5.111111e+00	 1.000714e+01
0	 8.962963e+00	 5.185185e+00	 1.000836e+01
0	 9.037037e+00	 4.814815e+00	 9.997116e+00
0	 9.037037e+00	 4.888889e+00	 9.998802e+00
0	 9.037037e+00	 4.962963e+00	 1.000040e+01
0	 9.037037e+00	 5.037037e+00	 1.000191e+01
0	 9.037037e+00	 5.111111e+00	 1.000333e+01
0	 9.037037e+00	 5.185185e+00	 1.000467e+01
0	 9.111111e+00	 4.814815e+00	 9.992973e+00
0	 9.111111e+00	 4.888889e+00	 9.994786e+00
0	 9.111111e+00	 4.962963e+00	 9.996508e+00
0	 9.111111e+00	 5.037037e+00	 9.998139e+00
0	 9.111111e+00	 5.111111e+00	 9.999680e+00
0	 9.111111e+00	 5.185185e+00	 1.000113e+01
0	 9.185185e+00	 4.814815e+00	 9.988995e+00
0	 9.185185e+00	 4.888889e+00	 9.990934e+00
0	 9.185185e+00	 4.962963e+00	 9.992779e+00
0	 9.185185e+00	 5.037037e+00	 9.994531e+00
0	 9.185185e+00	 5.111111e+00	 9.996189e+00
0	 9.185185e+00	 5.185185e+00	 9.997752e+00
0	 9.259259e+00	 4.814815e+00	 9.985192e+00
0	 9.259259e+00	 4.888889e+00	 9.987258e+00
0	 9.259259e+00	 4.962963e+00	 9.989227e+00
0	 9.259259e+00	 5.037037e+00	 9.991098e+00
0	 9.259259e+00	 5.111111e+00	 9.992873e+00
0	 9.259259e+00	 5.185185e+00	 9.994549e+00
0	 8.888889e+00	 5.185185e+00	 1.001219e+01
0	 8.888889e+00	 5.259259e+00	 1.001321e+01
0	 8.888889e+00	 5.333333e+00	 1.001415e+01
0	 8.888889e+00	 5.407407e+00	 1.001502e+01
0	 8.888889e+00	 5.481481e+00	 1.001580e+01
0	 8.888889e+00	 5.555556e+00	 1.001650e+01
0	 8.962963e+00	 5.185185e+00	 1.000836e+01
0	 8.962963e+00	 5.259259e+00	 1.000949e+01
0	 8.962963e+00	 5.333333e+00	 1.001055e+01
0	 8.962963e+00	 5.407407e+00	 1.001152e+01
0	 8.962963e+00	 5.481481e+00	 1.001241e+01
0	 8.962963e+00	 5.555556e+00	 1.001322e+01
0	 9.037037e+00	 5.185185e+00	 1.000467e+01
0	 9.037037e+00	 5.259259e+00	 1.000592e+01
0	 9.037037e+00	 5.333333e+00	 1.000708e+01
0	 9.037037e+00	 5.407407e+00	 1.000816e+01
0	 9.037037e+00	 5.481481e+00	 1.000916e+01
0	 9.037037e+00	 5.555556e+00	 1.001008e+01
0	 9.111111e+00	 5.185185e+00	 1.000113e+01
0	 9.111111e+00	 5.259259e+00	 1.000249e+01
0	 9.111111e+00	 5.333333e+00	 1.000376e+01
0	 9.111111e+00	 5.407407e+00	 1.000495e+01
0	 9.111111e+00	 5.481481e+00	 1.000605e+01
0	 9.111111e+00	 5.555556e+00	 1.000707e+01
0	 9.185185e+00	 5.185185e+00	 9.997752e+00
0	 9.185185e+00	 5.259259e+00	 9.999224e+00
0	 9.185185e+00	 5.333333e+00	 1.000061e+01
0	 9.185185e+00	 5.407407e+00	 1.000190e+01
0	 9.185185e+00	 5.481481e+00	 1.000310e+01
0	 9.185185e+00	 5.555556e+00	 1.000422e+01
0	 9.259259e+00	 5.185185e+00	 9.994549e+00
0	 9.259259e+00	 5.259259e+00	 9.996131e+00
0	 9.259259e+00	 5.333333e+00	 9.997620e+00
0	 9.259259e+00	 5.407407e+00	 9.999016e+00
0	 9.259259e+00	 5.481481e+00	 1.000032e+01
0	 9.259259e+00	 5.555556e+00	 1.000153e+01
0	 8.888889e+00	 5.555556e+00	 1.001650e+01
0	 8.888889e+00	 5.629630e+00	 1.001713e+01
0	 8.888889e+00	 5.703704e+00	 1.001769e+01
0	 8.888889e+00	 5.777778e+00	 1.001818e+01
0	 8.888889e+00	 5.851852e+00	 1.001860e+01
0	 8.888889e+00	 5.925926e+00	 1.001894e+01
0	 8.962963e+00	 5.555556e+00	 1.001322e+01
0	 8.962963e+00	 5.629630e+00	 1.001396e+01
0	 8.962963e+00	 5.703704e+00	 1.001462e+01
0	 8.962963e+00	 5.777778e+00	 1.001520e+01
0	 8.962963e+00	 5.851852e+00	 1.001572e+01
0	 8.962963e+00	 5.925926e+00	 1.001616e+01
0	 9.037037e+00	 5.555556e+00	 1.001008e+01
0	 9.037037e+00	 5.629630e+00	 1.001091e+01
0	 9.037037e+00	 5.703704e+00	 1.001167e+01
0	 9.037037e+00	 5.777778e+00	 1.001235e+01
0	 9.037037e+00	 5.851852e+00	 1.001296e+01
0	 9.037037e+00	 5.925926e+00	 1.001349e+01
0	 9.111111e+00	 5.555556e+00	 1.000707e+01
0	 9.111111e+00	 5.629630e+00	 1.000800e+01
0	 9.111111e+00	 5.703704e+00	 1.000885e+01
0	 9.111111e+00	 5.777778e+00	 1.000963e+01
0	 9.111111e+00	 5.851852e+00	 1.001033e+01
0	 9.111111e+00	 5.925926e+00	 1.001094e+01
0	 9.185185e+00	 5.555556e+00	 1.000422e+01
0	 9.185185e+00	 5.629630e+00	 1.000524e+01
0	 9.185185e+00	 5.703704e+00	 1.000619e+01
0	 9.185185e+00	 5.777778e+00	 1.000706e+01
0	 9.185185e+00	 5.851852e+00	 1.000784e+01
0	 9.185185e+00	 5.925926e+00	 1.000854e+01
0	 9.259259e+00	 5.555556e+00	 1.000153e+01
0	 9.259259e+00	 5.629630e+00	 1.000265e+01
0	 9.259259e+00	 5.703704e+00	 1.000368e+01
0	 9.259259e+00	 5.777778e+00	 1.000464e+01
0	 9.259259e+00	 5.851852e+00	 1.000550e+01
0	 9.259259e+00	 5.925926e+00	 1.000628e+01
0	 8.888889e+00	 5.925926e+00	 1.001894e+01
0	 8.888889e+00	 6.000000e+00	 1.001922e+01
0	 8.888889e+00	 6.074074e+00	 1.001944e+01
0	 8.888889e+00	 6.148148e+00	 1.001960e+01
0	 8.888889e+00	 6.222222e+00	 1.001970e+01
0	 8.888889e+00	 6.296296e+00	 1.001973e+01
0	 8.962963e+00	 5.925926e+00	 1.001616e+01
0	 8.962963e+00	 6.000000e+00	 1.001653e+01
0	 8.962963e+00	 6.074074e+00	 1.001683e+01
0	 8.962963e+00	 6.148148e+00	 1.001708e+01
0	 8.962963e+00	 6.222222e+00	 1.001726e+01
0	 8.962963e+00	 6.296296e+00	 1.001738e+01
0	 9.037037e+00	 5.925926e+00	 1.001349e+01
0	 9.037037e+00	 6.000000e+00	 1.001394e+01
0	 9.037037e+00	 6.074074e+00	 1.001434e+01
0	 9.037037e+00	 6.148148e+00	 1.001467e+01
0	 9.037037e+00	 6.222222e+00	 1.001493e+01
0	 9.037037e+00	 6.296296e+00	 1.001513e+01
0	 9.111111e+00	 5.925926e+00	 1.001094e+01
0	 9.111111e+00	 6.000000e+00	 1.001149e+01
0	 9.111111e+00	 6.074074e+00	 1.001196e+01
0	 9.111111e+00	 6.148148e+00	 1.001237e+01
0	 9.111111e+00	 6.222222e+00	 1.001271e+01
0	 9.111111e+00	 6.296296e+00	 1.001298e+01
0	 9.185185e+00	 5.925926e+00	 1.000854e+01
0	 9.185185e+00	 6.000000e+00	 1.000916e+01
0	 9.185185e+00	 6.074074e+00	 1.000972e+01
0	 9.185185e+00	 6.148148e+00	 1.001020e+01
0	 9.185185e+00	 6.222222e+00	 1.001061e+01
0	 9.185185e+00	 6.296296e+00	 1.001095e+01
0	 9.259259e+00	 5.925926e+00	 1.000628e+01
0	 9.259259e+00	 6.000000e+00	 1.000698e+01
0	 9.259259e+00	 6.074074e+00	 1.000761e+01
0	 9.259259e+00	 6.148148e+00	 1.000817e+01
0	 9.259259e+00	 6.222222e+00	 1.000865e+01
0	 9.259259e+00	 6.296296e+00	 1.000905e+01
0	 8.888889e+00	 6.296296e+00	 1.001973e+01
0	 8.888889e+00	 6.370370e+00	 1.001971e+01
0	 8.888889e+00	 6.444444e+00	 1.001965e+01
0	 8.888889e+00	 6.518519e+00	 1.001953e+01
0	 8.888889e+00	 6.592593e+00	 1.001936e+01
0	 8.888889e+00	 6.666667e+00	 1.001914e+01
0	 8.962963e+00	 6.296296e+00	 1.001738e+01
0	 8.962963e+00	 6.370370e+00	 1.001744e+01
0	 8.962963e+00	 6.444444e+00	 1.001745e+01
0	 8.962963e+00	 6.518519e+00	 1.001741e+01
0	 8.962963e+00	 6.592593e+00	 1.001732e+01
0	 8.962963e+00	 6.666667e+00	 1.001717e+01
0	 9.037037e+00	 6.296296e+00	 1.001513e+01
0	 9.037037e+00	 6.370370e+00	 1.001526e+01
0	 9.037037e+00	 6.444444e+00	 1.001535e+01
0	 9.037037e+00	 6.518519e+00	 1.001538e+01
0	 9.037037e+00	 6.592593e+00	 1.001536e+01
0	 9.037037e+00	 6.666667e+00	 1.001528e+01
0	 9.111111e+00	 6.296296e+00	 1.001298e+01
0	 9.111111e+00	 6.370370e+00	 1.001319e+01
0	 9.111111e+00	 6.444444e+00	 1.001334e+01
0	 9.111111e+00	 6.518519e+00	 1.001344e+01
0	 9.111111e+00	 6.592593e+00	 1.001349e+01
0	 9.111111e+00	 6.666667e+00	 1.001348e+01
0	 9.185185e+00	 6.296296e+00	 1.001095e+01
0	 9.185185e+00	 6.370370e+00	 1.001123e+01
0	 9.185185e+00	 6.444444e+00	 1.001145e+01
0	 9.185185e+00	 6.518519e+00	 1.001162e+01
0	 9.185185e+00	 6.592593e+00	 1.001172e+01
0	 9.185185e+00	 6.666667e+00	 1.001177e+01
0	 9.259259e+00	 6.296296e+00	 1.000905e+01
0	 9.259259e+00	 6.370370e+00	 1.000939e+01
0	 9.259259e+00	 6.444444e+00	 1.000968e+01
0	 9.259259e+00	 6.518519e+00	 1.000990e+01
0	 9.259259e+00	 6.592593e+00	 1.001006e+01
0	 9.259259e+00	 6.666667e+00	 1.001016e+01
0	 8.888889e+00	 6.666667e+00	 1.001914e+01
0	 8.888889e+00	 6.740741e+00	 1.001888e+01
0	 8.888889e+00	 6.814815e+00	 1.001859e+01
0	 8.888889e+00	 6.888889e+00	 1.001825e+01
0	 8.888889e+00	 6.962963e+00	 1.001788e+01
0	 8.888889e+00	 7.037037e+00	 1.001748e+01
0	 8.962963e+00	 6.666667e+00	 1.001717e+01
0	 8.962963e+00	 6.740741e+00	 1.001698e+01
0	 8.962963e+00	 6.814815e+00	 1.001675e+01
0	 8.962963e+00	 6.888889e+00	 1.001649e+01
0	 8.962963e+00	 6.962963e+00	 1.001618e+01
0	 8.962963e+00	 7.037037e+00	 1.001584e+01
0	 9.037037e+00	 6.666667e+00	 1.001528e+01
0	 9.037037e+00	 6.740741e+00	 1.001516e+01
0	 9.037037e+00	 6.814815e+00	 1.001499e+01
0	 9.037037e+00	 6.888889e+00	 1.001479e+01
0	 9.037037e+00	 6.962963e+00	 1.001455e+01
0	 9.037037e+00	 7.037037e+00	 1.001427e+01
0	 9.111111e+00	 6.666667e+00	 1.001348e+01
0	 9.111111e+00	 6.740741e+00	 1.001341e+01
0	 9.111111e+00	 6.814815e+00	 1.001331e+01
0	 9.111111e+00	 6.888889e+00	 1.001317e+01
0	 9.111111e+00	 6.962963e+00	 1.001299e+01
0	 9.111111e+00	 7.037037e+00	 1.001276e+01
0	 9.185185e+00	 6.666667e+00	 1.001177e+01
0	 9.185185e+00	 6.740741e+00	 1.001176e+01
0	 9.185185e+00	 6.814815e+00	 1.001172e+01
0	 9.185185e+00	 6.888889e+00	 1.001163e+01
0	 9.185185e+00	 6.962963e+00	 1.001150e+01
0	 9.185185e+00	 7.037037e+00	 1.001132e+01
0	 9.259259e+00	 6.666667e+00	 1.001016e+01
0	 9.259259e+00	 6.740741e+00	 1.001021e+01
0	 9.259259e+00	 6.814815e+00	 1.001021e+01
0	 9.259259e+00	 6.888889e+00	 1.001017e+01
0	 9.259259e+00	 6.962963e+00	 1.001009e+01
0	 9.259259e+00	 7.037037e+00	 1.000996e+01
0	 8.888889e+00	 7.037037e+00	 1.001748e+01
0	 8.888889e+00	 7.111111e+00	 1.001704e+01
0	 8.888889e+00	 7.185185e+00	 1.001658e+01
0	 8.888889e+00	 7.259259e+00	 1.001609e+01
0	 8.888889e+00	 7.333333e+00	 1.001558e+01
0	 8.888889e+00	 7.407407e+00	 1.001505e+01
0	 8.962963e+00	 7.037037e+00	 1.001584e+01
0	 8.962963e+00	 7.111111e+00	 1.001546e+01
0	 8.962963e+00	 7.185185e+00	 1.001506e+01
0	 8.962963e+00	 7.259259e+00	 1.001464e+01
0	 8.962963e+00	 7.333333e+00	 1.001419e+01
0	 8.962963e+00	 7.407407e+00	 1.001371e+01
0	 9.037037e+00	 7.037037e+00	 1.001427e+01
0	 9.037037e+00	 7.111111e+00	 1.001395e+01
0	 9.037037e+00	 7.185185e+00	 1.001361e+01
0	 9.037037e+00	 7.259259e+00	 1.001324e+01
0	 9.037037e+00	 7.333333e+00	 1.001284e+01
0	 9.037037e+00	 7.407407e+00	 1.001242e+01
0	 9.111111e+00	 7.037037e+00	 1.001276e+01
0	 9.111111e+00	 7.111111e+00	 1.001250e+01
0	 9.111111e+00	 7.185185e+00	 1.001221e+01
0	 9.111111e+00	 7.259259e+00	 1.001189e+01
0	 9.111111e+00	 7.333333e+00	 1.001155e+01
0	 9.111111e+00	 7.407407e+00	 1.001117e+01
0	 9.185185e+00	 7.037037e+00	 1.001132e+01
0	 9.185185e+00	 7.111111e+00	 1.001111e+01
0	 9.185185e+00	 7.185185e+00	 1.001087e+01
0	 9.185185e+00	 7.259259e+00	 1.001060e+01
0	 9.185185e+00	 7.333333e+00	 1.001030e+01
0	 9.185185e+00	 7.407407e+00	 1.000997e+01
0	 9.259259e+00	 7.037037e+00	 1.000996e+01
0	 9.259259e+00	 7.111111e+00	 1.000979e+01
0	 9.259259e+00	 7.185185e+00	 1.000959e+01
0	 9.259259e+00	 7.259259e+00	 1.000937e+01
0	 9.259259e+00	 7.333333e+00	 1.000911e+01
0	 9.259259e+00	 7.407407e+00	 1.000882e+01
0	 8.888889e+00	 7.407407e+00	 1.001505e+01
0	 8.888889e+00	 7.481481e+00	 1.001449e+01
0	 8.888889e+00	 7.555556e+00	 1.001393e+01
0	 8.888889e+00	 7.629630e+00	 1.001336e+01
0	 8.888889e+00	 7.703704e+00	 1.001277e+01
0	 8.888889e+00	 7.777778e+00	 1.001217e+01
0	 8.962963e+00	 7.407407e+00	 1.001371e+01
0	 8.962963e+00	 7.481481e+00	 1.001322e+01
0	 8.962963e+00	 7.555556e+00	 1.001271e+01
0	 8.962963e+00	 7.629630e+00	 1.001219e+01
0	 8.962963e+00	 7.703704e+00	 1.001166e+01
0	 8.962963e+00	 7.777778e+00	 1.001111e+01
0	 9.037037e+00	 7.407407e+00	 1.001242e+01
0	 9.037037e+00	 7.481481e+00	 1.001198e+01
0	 9.037037e+00	 7.555556e+00	 1.001152e+01
0	 9.037037e+00	 7.629630e+00	 1.001105e+01
0	 9.037037e+00	 7.703704e+00	 1.001057e+01
0	 9.037037e+00	 7.777778e+00	 1.001008e+01
0	 9.111111e+00	 7.407407e+00	 1.001117e+01
0	 9.111111e+00	 7.481481e+00	 1.001078e+01
0	 9.111111e+00	 7.555556e+00	 1.001037e+01
0	 9.111111e+00	 7.629630e+00	 1.000995e+01
0	 9.111111e+00	 7.703704e+00	 1.000952e+01
0	 9.111111e+00	 7.777778e+00	 1.000907e+01
0	 9.185185e+00	 7.407407e+00	 1.000997e+01
0	 9.185185e+00	 7.481481e+00	 1.000962e+01
0	 9.185185e+00	 7.555556e+00	 1.000926e+01
0	 9.185185e+00	 7.629630e+00	 1.000888e+01
0	 9.185185e+00	 7.703704e+00	 1.000849e+01
0	 9.185185e+00	 7.777778e+00	 1.000808e+01
0	 9.259259e+00	 7.407407e+00	 1.000882e+01
0	 9.259259e+00	 7.481481e+00	 1.000851e+01
0	 9.259259e+00	 7.555556e+00	 1.000819e+01
0	 9.259259e+00	 7.629630e+00	 1.000785e+01
0	 9.259259e+00	 7.703704e+00	 1.000750e+01
0	 9.259259e+00	 7.777778e+00	 1.000713e+01
0	 8.888889e+00	 7.777778e+00	 1.001217e+01
0	 8.888889e+00	 7.851852e+00	 1.001156e+01
0	 8.888889e+00	 7.925926e+00	 1.001096e+01
0	 8.888889e+00	 8.000000e+00	 1.001035e+01
0	 8.888889e+00	 8.074074e+00	 1.000975e+01
0	 8.888889e+00	 8.148148e+00	 1.000914e+01
0	 8.962963e+00	 7.777778e+00	 1.001111e+01
0	 8.962963e+00	 7.851852e+00	 1.001056e+01
0	 8.962963e+00	 7.925926e+00	 1.001000e+01
0	 8.962963e+00	 8.000000e+00	 1.000945e+01
0	 8.962963e+00	 8.074074e+00	 1.000889e+01
0	 8.962963e+00	 8.148148e+00	 1.000834e+01
0	 9.037037e+00	 7.777778e+00	 1.001008e+01
0	 9.037037e+00	 7.851852e+00	 1.000957e+01
0	 9.037037e+00	 7.925926e+00	 1.000907e+01
0	 9.037037e+00	 8.000000e+00	 1.000856e+01
0	 9.037037e+00	 8.074074e+00	 1.000805e+01
0	 9.037037e+00	 8.148148e+00	 1.000754e+01
0	 9.111111e+00	 7.777778e+00	 1.000907e+01
0	 9.111111e+00	 7.851852e+00	 1.000861e+01
0	 9.111111e+00	 7.925926e+00	 1.000815e+01
0	 9.111111e+00	 8.000000e+00	 1.000769e+01
0	 9.111111e+00	 8.074074e+00	 1.000722e+01
0	 9.111111e+00	 8.148148e+00	 1.000676e+01
0	 9.185185e+00	 7.777778e+00	 1.000808e+01
0	 9.185185e+00	 7.851852e+00	 1.000767e+01
0	 9.185185e+00	 7.925926e+00	 1.000725e+01
0	 9.185185e+00	 8.000000e+00	 1.000683e+01
0	 9.185185e+00	 8.074074e+00	 1.000641e+01
0	 9.185185e+00	 8.148148e+00	 1.000598e+01
0	 9.259259e+00	 7.777778e+00	 1.000713e+01
0	 9.259259e+00	 7.851852e+00	 1.000675e+01
0	 9.259259e+00	 7.925926e+00	 1.000637e+01
0	 9.259259e+00	 8.000000e+00	 1.000599e+01
0	 9.259259e+00	 8.074074e+00	 1.000560e+01
0	 9.259259e+00	 8.148148e+00	 1.000521e+01
0	 8.888889e+00	 8.148148e+00	 1.000914e+01
0	 8.888889e+00	 8.222222e+00	 1.000854e+01
0	 8.888889e+00	 8.296296e+00	 1.000795e+01
0	 8.888889e+00	 8.370370e+00	 1.000737e+01
0	 8.888889e+00	 8.444444e+00	 1.000680e+01
0	 8.888889e+00	 8.518519e+00	 1.000624e+01
0	 8.962963e+00	 8.148148e+00	 1.000834e+01
0	 8.962963e+00	 8.222222e+00	 1.000778e+01
0	 8.962963e+00	 8.296296e+00	 1.000724e+01
0	 8.962963e+00	 8.370370e+00	 1.000671e+01
0	 8.962963e+00	 8.444444e+00	 1.000618e+01
0	 8.962963e+00	 8.518519e+00	 1.000566e+01
0	 9.037037e+00	 8.148148e+00	 1.000754e+01
0	 9.037037e+00	 8.222222e+00	 1.000703e+01
0	 9.037037e+00	 8.296296e+00	 1.000654e+01
0	 9.037037e+00	 8.370370e+00	 1.000605e+01
0	 9.037037e+00	 8.444444e+00	 1.000557e+01
0	 9.037037e+00	 8.518519e+00	 1.000510e+01
0	 9.111111e+00	 8.148148e+00	 1.000676e+01
0	 9.111111e+00	 8.222222e+00	 1.000629e+01
0	 9.111111e+00	 8.296296e+00	 1.000584e+01
0	 9.111111e+00	 8.370370e+00	 1.000540e+01
0	 9.111111e+00	 8.444444e+00	 1.000496e+01
0	 9.111111e+00	 8.518519e+00	 1.000453e+01
0	 9.185185e+00	 8.148148e+00	 1.000598e+01
0	 9.185185e+00	 8.222222e+00	 1.000556e+01
0	 9.185185e+00	 8.296296e+00	 1.000515e+01
0	 9.185185e+00	 8.370370e+00	 1.000474e+01
0	 9.185185e+00	 8.444444e+00	 1.000435e+01
0	 9.185185e+00	 8.518519e+00	 1.000396e+01
0	 9.259259e+00	 8.148148e+00	 1.000521e+01
0	 9.259259e+00	 8.222222e+00	 1.000483e+01
0	 9.259259e+00	 8.296296e+00	 1.000445e+01
0	 9.259259e+00	 8.370370e+00	 1.000409e+01
0	 9.259259e+00	 8.444444e+00	 1.000373e+01
0	 9.259259e+00	 8.518519e+00	 1.000338e+01
0	 8.888889e+00	 8.518519e+00	 1.000624e+01
0	 8.888889e+00	 8.592593e+00	 1.000569e+01
0	 8.888889e+00	 8.666667e+00	 1.000516e+01
0	 8.888889e+00	 8.740741e+00	 1.000465e+01
0	 8.888889e+00	 8.814815e+00	 1.000416e+01
0	 8.888889e+00	 8.888889e+00	 1.000369e+01
0	 8.962963e+00	 8.518519e+00	 1.000566e+01
0	 8.962963e+00	 8.592593e+00	 1.000516e+01
0	 8.962963e+00	 8.666667e+00	 1.000468e+01
0	 8.962963e+00	 8.740741e+00	 1.000421e+01
0	 8.962963e+00	 8.814815e+00	 1.000376e+01
0	 8.962963e+00	 8.888889e+00	 1.000333e+01
0	 9.037037e+00	 8.518519e+00	 1.000510e+01
0	 9.037037e+00	 8.592593e+00	 1.000464e+01
0	 9.037037e+00	 8.666667e+00	 1.000419e+01
0	 9.037037e+00	 8.740741e+00	 1.000377e+01
0	 9.037037e+00	 8.814815e+00	 1.000336e+01
0	 9.037037e+00	 8.888889e+00	 1.000297e+01
0	 9.111111e+00	 8.518519e+00	 1.000453e+01
0	 9.111111e+00	 8.592593e+00	 1.000411e+01
0	 9.111111e+00	 8.666667e+00	 1.000371e+01
0	 9.111111e+00	 8.740741e+00	 1.000332e+01
0	 9.111111e+00	 8.814815e+00	 1.000296e+01
0	 9.111111e+00	 8.888889e+00	 1.000260e+01
0	 9.185185e+00	 8.518519e+00	 1.000396e+01
0	 9.185185e+00	 8.592593e+00	 1.000358e+01
0	 9.185185e+00	 8.666667e+00	 1.000322e+01
0	 9.185185e+00	 8.740741e+00	 1.000287e+01
0	 9.185185e+00	 8.814815e+00	 1.000254e+01
0	 9.185185e+00	 8.888889e+00	 1.000223e+01
0	 9.259259e+00	 8.518519e+00	 1.000338e+01
0	 9.259259e+00	 8.592593e+00	 1.000304e+01
0	 9.259259e+00	 8.666667e+00	 1.000272e+01
0	 9.259259e+00	 8.740741e+00	 1.000241e+01
0	 9.259259e+00	 8.814815e+00	 1.000212e+01
0	 9.259259e+00	 8.888889e+00	 1.000184e+01
0	 8.888889e+00	 8.888889e+00	 1.000369e+01
0	 8.888889e+00	 8.962963e+00	 1.000324e+01
0	 8.888889e+00	 9.037037e+00	 1.000282e+01
0	 8.888889e+00	 9.111111e+00	 1.000242e+01
0	 8.888889e+00	 9.185185e+00	 1.000206e+01
0	 8.888889e+00	 9.259259e+00	 1.000171e+01
0	 8.962963e+00	 8.888889e+00	 1.000333e+01
0	 8.962963e+00	 8.962963e+00	 1.000292e+01
0	 8.962963e+00	 9.037037e+00	 1.000254e+01
0	 8.962963e+00	 9.111111e+00	 1.000218e+01
0	 8.962963e+00	 9.185185e+00	 1.000184e+01
0	 8.962963e+00	 9.259259e+00	 1.000153e+01
0	 9.037037e+00	 8.888889e+00	 1.000297e+01
0	 9.037037e+00	 8.962963e+00	 1.000260e+01
0	 9.037037e+00	 9.037037e+00	 1.000225e+01
0	 9.037037e+00	 9.111111e+00	 1.000193e+01
0	 9.037037e+00	 9.185185e+00	 1.000163e+01
0	 9.037037e+00	 9.259259e+00	 1.000135e+01
0	 9.111111e+00	 8.888889e+00	 1.000260e+01
0	 9.111111e+00	 8.962963e+00	 1.000227e+01
0	 9.111111e+00	 9.037037e+00	 1.000196e+01
0	 9.111111e+00	 9.111111e+00	 1.000167e+01
0	 9.111111e+00	 9.185185e+00	 1.000140e+01
0	 9.111111e+00	 9.259259e+00	 1.000116e+01
0	 9.185185e+00	 8.888889e+00	 1.000223e+01
0	 9.185185e+00	 8.962963e+00	 1.000193e+01
0	 9.185185e+00	 9.037037e+00	 1.000165e+01
0	 9.185185e+00	 9.111111e+00	 1.000140e+01
0	 9.185185e+00	 9.185185e+00	 1.000117e+01
0	 9.185185e+00	 9.259259e+00	 1.000096e+01
0	 9.259259e+00	 8.888889e+00	 1.000184e+01
0	 9.259259e+00	 8.962963e+00	 1.000158e+01
0	 9.259259e+00	 9.037037e+00	 1.000134e+01
0	 9.259259e+00	 9.111111e+00	 1.000113e+01
0	 9.259259e+00	 9.185185e+00	 1.000093e+01
0	 9.259259e+00	 9.259259e+00	 1.000075e+01
0	 8.888889e+00	 9.259259e+00	 1.000171e+01
0	 8.888889e+00	 9.333333e+00	 1.000139e+01
0	 8.888889e+00	 9.407407e+00	 1.000111e+01
0	 8.888889e+00	 9.481481e+00	 1.000086e+01
0	 8.888889e+00	 9.555556e+00	 1.000064e+01
0	 8.888889e+00	 9.629630e+00	 1.000045e+01
0	 8.962963e+00	 9.259259e+00	 1.000153e+01
0	 8.962963e+00	 9.333333e+00	 1.000125e+01
0	 8.962963e+00	 9.407407e+00	 1.000099e+01
0	 8.962963e+00	 9.481481e+00	 1.000077e+01
0	 8.962963e+00	 9.555556e+00	 1.000057e+01
0	 8.962963e+00	 9.629630e+00	 1.000040e+01
0	 9.037037e+00	 9.259259e+00	 1.000135e+01
0	 9.037037e+00	 9.333333e+00	 1.000109e+01
0	 9.037037e+00	 9.407407e+00	 1.000087e+01
0	 9.037037e+00	 9.481481e+00	 1.000067e+01
0	 9.037037e+00	 9.555556e+00	 1.000049e+01
0	 9.037037e+00	 9.629630e+00	 1.000034e+01
0	 9.111111e+00	 9.259259e+00	 1.000116e+01
0	 9.111111e+00	 9.333333e+00	 1.000093e+01
0	 9.111111e+00	 9.407407e+00	 1.000074e+01
0	 9.111111e+00	 9.481481e+00	 1.000056e+01
0	 9.111111e+00	 9.555556e+00	 1.000041e+01
0	 9.111111e+00	 9.629630e+00	 1.000029e+01
0	 9.185185e+00	 9.259259e+00	 1.000096e+01
0	 9.185185e+00	 9.333333e+00	 1.000077e+01
0	 9.185185e+00	 9.407407e+00	 1.000060e+01
0	 9.185185e+00	 9.481481e+00	 1.000045e+01
0	 9.185185e+00	 9.555556e+00	 1.000033e+01
0	 9.185185e+00	 9.629630e+00	 1.000022e+01
0	 9.259259e+00	 9.259259e+00	 1.000075e+01
0	 9.259259e+00	 9.333333e+00	 1.000059e+01
0	 9.259259e+00	 9.407407e+00	 1.000045e+01
0	 9.259259e+00	 9.481481e+00	 1.000034e+01
0	 9.259259e+00	 9.555556e+00	 1.000024e+01
0	 9.259259e+00	 9.629630e+00	 1.000016e+01
0	 8.888889e+00	 9.629630e+00	 1.000045e+01
0	 8.888889e+00	 9.703704e+00	 1.000029e+01
0	 8.888889e+00	 9.777778e+00	 1.000016e+01
0	 8.888889e+00	 9.851852e+00	 1.000008e+01
0	 8.888889e+00	 9.925926e+00	 1.000002e+01
0	 8.888889e+00	 1.000000e+01	 9.999997e+00
0	 8.962963e+00	 9.629630e+00	 1.000040e+01
0	 8.962963e+00	 9.703704e+00	 1.000026e+01
0	 8.962963e+00	 9.777778e+00	 1.000015e+01
0	 8.962963e+00	 9.851852e+00	 1.000007e+01
0	 8.962963e+00	 9.925926e+00	 1.000002e+01
0	 8.962963e+00	 1.000000e+01	 9.999998e+00
0	 9.037037e+00	 9.629630e+00	 1.000034e+01
0	 9.037037e+00	 9.703704e+00	 1.000022e+01
0	 9.037037e+00	 9.777778e+00	 1.000013e+01
0	 9.037037e+00	 9.851852e+00	 1.000006e+01
0	 9.037037e+00	 9.925926e+00	 1.000001e+01
0	 9.037037e+00	 1.000000e+01	 9.999996e+00
0	 9.111111e+00	 9.629630e+00	 1.000029e+01
0	 9.111111e+00	 9.703704e+00	 1.000018e+01
0	 9.111111e+00	 9.777778e+00	 1.000010e+01
0	 9.111111e+00	 9.851852e+00	 1.000004e+01
0	 9.111111e+00	 9.925926e+00	 1.000001e+01
0	 9.111111e+00	 1.000000e+01	 9.999995e+00
0	 9.185185e+00	 9.629630e+00	 1.000022e+01
0	 9.185185e+00	 9.703704e+00	 1.000014e+01
0	 9.185185e+00	 9.777778e+00	 1.000008e+01
0	 9.185185e+00	 9.851852e+00	 1.000003e+01
0	 9.185185e+00	 9.925926e+00	 1.000000e+01
0	 9.185185e+00	 1.000000e+01	 9.999998e+00
0	 9.259259e+00	 9.629630e+00	 1.000016e+01
0	 9.259259e+00	 9.703704e+00	 1.000010e+01
0	 9.259259e+00	 9.777778e+00	 1.000005e+01
0	 9.259259e+00	 9.851852e+00	 1.000002e+01
0	 9.259259e+00	 9.925926e+00	 1.000000e+01
0	 9.259259e+00	 1.000000e+01	 1.000001e+01
0	 9.259259e+00	 0.000000e+00	 9.799494e+00
0	 9.259259e+00	 7.407407e-02	 9.799582e+00
0	 9.259259e+00	 1.481481e-01	 9.799846e+00
0	 9.259259e+00	 2.222222e-01	 9.800285e+00
0	 9.259259e+00	 2.962963e-01	 9.800899e+00
0	 9.259259e+00	 3.703704e-01	 9.801689e+00
0	 9.333333e+00	 0.000000e+00	 9.787069e+00
0	 9.333333e+00	 7.407407e-02	 9.787162e+00
0	 9.333333e+00	 1.481481e-01	 9.787436e+00
0	 9.333333e+00	 2.222222e-01	 9.787893e+00
0	 9.333333e+00	 2.962963e-01	 9.788532e+00
0	 9.333333e+00	 3.703704e-01	 9.789355e+00
0	 9.407407e+00	 0.000000e+00	 9.774313e+00
0	 9.407407e+00	 7.407407e-02	 9.774409e+00
0	 9.407407e+00	 1.481481e-01	 9.774695e+00
0	 9.407407e+00	 2.222222e-01	 9.775172e+00
0	 9.407407e+00	 2.962963e-01	 9.775839e+00
0	 9.407407e+00	 3.703704e-01	 9.776697e+00
0	 9.481481e+00	 0.000000e+00	 9.761193e+00
0	 9.481481e+00	 7.407407e-02	 9.761293e+00
0	 9.481481e+00	 1.481481e-01	 9.761592e+00
0	 9.481481e+00	 2.222222e-01	 9.762090e+00
0	 9.481481e+00	 2.962963e-01	 9.762788e+00
0	 9.481481e+00	 3.703704e-01	 9.763685e+00
0	 9.555556e+00	 0.000000e+00	 9.747679e+00
0	 9.555556e+00	 7.407407e-02	 9.747784e+00
0	 9.555556e+00	 1.481481e-01	 9.748098e+00
0	 9.555556e+00	 2.222222e-01	 9.748619e+00
0	 9.555556e+00	 2.962963e-01	 9.749350e+00
0	 9.555556e+00	 3.703704e-01	 9.750290e+00
0	 9.629630e+00	 0.000000e+00	 9.733742e+00
0	 9.629630e+00	 7.407407e-02	 9.733852e+00
0	 9.629630e+00	 1.481481e-01	 9.734181e+00
0	 9.629630e+00	 2.222222e-01	 9.734728e+00
0	 9.629630e+00	 2.962963e-01	 9.735495e+00
0	 9.629630e+00	 3.703704e-01	 9.736481e+00
0	 9.259259e+00	 3.703704e-01	 9.801689e+00
0	 9.259259e+00	 4.444444e-01	 9.802649e+00
0	 9.259259e+00	 5.185185e-01	 9.803775e+00
0	 9.259259e+00	 5.925926e-01	 9.805066e+00
0	 9.259259e+00	 6.666667e-01	 9.806524e+00
0	 9.259259e+00	 7.407407e-01	 9.808150e+00
0	 9.333333e+00	 3.703704e-01	 9.789355e+00
0	 9.333333e+00	 4.444444e-01	 9.790355e+00
0	 9.333333e+00	 5.185185e-01	 9.791527e+00
0	 9.333333e+00	 5.925926e-01	 9.792871e+00
0	 9.333333e+00	 6.666667e-01	 9.794389e+00
0	 9.333333e+00	 7.407407e-01	 9.796082e+00
0	 9.407407e+00	 3.703704e-01	 9.776697e+00
0	 9.407407e+00	 4.444444e-01	 9.777740e+00
0	 9.407407e+00	 5.185185e-01	 9.778963e+00
0	 9.407407e+00	 5.925926e-01	 9.780366e+00
0	 9.407407e+00	 6.666667e-01	 9.781950e+00
0	 9.407407e+00	 7.407407e-01	 9.783716e+00
0	 9.481481e+00	 3.703704e-01	 9.763685e+00
0	 9.481481e+00	 4.444444e-01	 9.764776e+00
0	 9.481481e+00	 5.185185e-01	 9.766054e+00
0	 9.481481e+00	 5.925926e-01	 9.767521e+00
0	 9.481481e+00	 6.666667e-01	 9.769177e+00
0	 9.481481e+00	 7.407407e-01	 9.771024e+00
0	 9.555556e+00	 3.703704e-01	 9.750290e+00
0	 9.555556e+00	 4.444444e-01	 9.751432e+00
0	 9.555556e+00	 5.185185e-01	 9.752771e+00
0	 9.555556e+00	 5.925926e-01	 9.754308e+00
0	 9.555556e+00	 6.666667e-01	 9.756044e+00
0	 9.555556e+00	 7.407407e-01	 9.757978e+00
0	 9.629630e+00	 3.703704e-01	 9.736481e+00
0	 9.629630e+00	 4.444444e-01	 9.737681e+00
0	 9.629630e+00	 5.185185e-01	 9.739086e+00
0	 9.629630e+00	 5.925926e-01	 9.740699e+00
0	 9.629630e+00	 6.666667e-01	 9.742521e+00
0	 9.629630e+00	 7.407407e-01	 9.744551e+00
0	 9.259259e+00	 7.407407e-01	 9.808150e+00
0	 9.259259e+00	 8.148148e-01	 9.809932e+00
0	 9.259259e+00	 8.888889e-01	 9.811860e+00
0	 9.259259e+00	 9.629630e-01	 9.813936e+00
0	 9.259259e+00	 1.037037e+00	 9.816160e+00
0	 9.259259e+00	 1.111111e+00	 9.818534e+00
0	 9.333333e+00	 7.407407e-01	 9.796082e+00
0	 9.333333e+00	 8.148148e-01	 9.797939e+00
0	 9.333333e+00	 8.888889e-01	 9.799947e+00
0	 9.333333e+00	 9.629630e-01	 9.802109e+00
0	 9.333333e+00	 1.037037e+00	 9.804426e+00
0	 9.333333e+00	 1.111111e+00	 9.806900e+00
0	 9.407407e+00	 7.407407e-01	 9.783716e+00
0	 9.407407e+00	 8.148148e-01	 9.785653e+00
0	 9.407407e+00	 8.888889e-01	 9.787749e+00
0	 9.407407e+00	 9.629630e-01	 9.790006e+00
0	 9.407407e+00	 1.037037e+00	 9.792425e+00
0	 9.407407e+00	 1.111111e+00	 9.795007e+00
0	 9.481481e+00	 7.407407e-01	 9.771024e+00
0	 9.481481e+00	 8.148148e-01	 9.773049e+00
0	 9.481481e+00	 8.888889e-01	 9.775241e+00
0	 9.481481e+00	 9.629630e-01	 9.777601e+00
0	 9.481481e+00	 1.037037e+00	 9.780130e+00
0	 9.481481e+00	 1.111111e+00	 9.782831e+00
0	 9.555556e+00	 7.407407e-01	 9.757978e+00
0	 9.555556e+00	 8.148148e-01	 9.760100e+00
0	 9.555556e+00	 8.888889e-01	 9.762396e+00
0	 9.555556e+00	 9.629630e-01	 9.764869e+00
0	 9.555556e+00	 1.037037e+00	 9.767519e+00
0	 9.555556e+00	 1.111111e+00	 9.770348e+00
0	 9.629630e+00	 7.407407e-01	 9.744551e+00
0	 9.629630e+00	 8.148148e-01	 9.746778e+00
0	 9.629630e+00	 8.888889e-01	 9.749189e+00
0	 9.629630e+00	 9.629630e-01	 9.751784e+00
0	 9.629630e+00	 1.037037e+00	 9.754566e+00
0	 9.629630e+00	 1.111111e+00	 9.757535e+00
0	 9.259259e+00	 1.111111e+00	 9.818534e+00
0	 9.259259e+00	 1.185185e+00	 9.821044e+00
0	 9.259259e+00	 1.259259e+00	 9.823673e+00
0	 9.259259e+00	 1.333333e+00	 9.826424e+00
0	 9.259259e+00	 1.407407e+00	 9.829299e+00
0	 9.259259e+00	 1.481481e+00	 9.832300e+00
0	 9.333333e+00	 1.111111e+00	 9.806900e+00
0	 9.333333e+00	 1.185185e+00	 9.809515e+00
0	 9.333333e+00	 1.259259e+00	 9.812255e+00
0	 9.333333e+00	 1.333333e+00	 9.815123e+00
0	 9.333333e+00	 1.407407e+00	 9.818120e+00
0	 9.333333e+00	 1.481481e+00	 9.821248e+00
0	 9.407407e+00	 1.111111e+00	 9.795007e+00
0	 9.407407e+00	 1.185185e+00	 9.797736e+00
0	 9.407407e+00	 1.259259e+00	 9.800597e+00
0	 9.407407e+00	 1.333333e+00	 9.803592e+00
0	 9.407407e+00	 1.407407e+00	 9.806721e+00
0	 9.407407e+00	 1.481481e+00	 9.809988e+00
0	 9.481481e+00	 1.111111e+00	 9.782831e+00
0	 9.481481e+00	 1.185185e+00	 9.785685e+00
0	 9.481481e+00	 1.259259e+00	 9.788678e+00
0	 9.481481e+00	 1.333333e+00	 9.791810e+00
0	 9.481481e+00	 1.407407e+00	 9.795084e+00
0	 9.481481e+00	 1.481481e+00	 9.798501e+00
0	 9.555556e+00	 1.111111e+00	 9.770348e+00
0	 9.555556e+00	 1.185185e+00	 9.773339e+00
0	 9.555556e+00	 1.259259e+00	 9.776474e+00
0	 9.555556e+00	 1.333333e+00	 9.779757e+00
0	 9.555556e+00	 1.407407e+00	 9.783187e+00
0	 9.555556e+00	 1.481481e+00	 9.786768e+00
0	 9.629630e+00	 1.111111e+00	 9.757535e+00
0	 9.629630e+00	 1.185185e+00	 9.760674e+00
0	 9.629630e+00	 1.259259e+00	 9.763966e+00
0	 9.629630e+00	 1.333333e+00	 9.767411e+00
0	 9.629630e+00	 1.407407e+00	 9.771012e+00
0	 9.629630e+00	 1.481481e+00	 9.774770e+00
0	 9.259259e+00	 1.481481e+00	 9.832300e+00
0	 9.259259e+00	 1.555556e+00	 9.835407e+00
0	 9.259259e+00	 1.629630e+00	 9.838604e+00
0	 9.259259e+00	 1.703704e+00	 9.841892e+00
0	 9.259259e+00	 1.777778e+00	 9.845274e+00
0	 9.259259e+00	 1.851852e+00	 9.848750e+00
0	 9.333333e+00	 1.481481e+00	 9.821248e+00
0	 9.333333e+00	 1.555556e+00	 9.824488e+00
0	 9.333333e+00	 1.629630e+00	 9.827822e+00
0	 9.333333e+00	 1.703704e+00	 9.831252e+00
0	 9.333333e+00	 1.777778e+00	 9.834779e+00
0	 9.333333e+00	 1.851852e+00	 9.838407e+00
0	 9.407407e+00	 1.481481e+00	 9.809988e+00
0	 9.407407e+00	 1.555556e+00	 9.813372e+00
0	 9.407407e+00	 1.629630e+00	 9.816854e+00
0	 9.407407e+00	 1.703704e+00	 9.820438e+00
0	 9.407407e+00	 1.777778e+00	 9.824123e+00
0	 9.407407e+00	 1.851852e+00	 9.827914e+00
0	 9.481481e+00	 1.481481e+00	 9.798501e+00
0	 9.481481e+00	 1.555556e+00	 9.802041e+00
0	 9.481481e+00	 1.629630e+00	 9.805685e+00
0	 9.481481e+00	 1.703704e+00	 9.809434e+00
0	 9.481481e+00	 1.777778e+00	 9.813291e+00
0	 9.481481e+00	 1.851852e+00	 9.817258e+00
0	 9.555556e+00	 1.481481e+00	 9.786768e+00
0	 9.555556e+00	 1.555556e+00	 9.790478e+00
0	 9.555556e+00	 1.629630e+00	 9.794296e+00
0	 9.555556e+00	 1.703704e+00	 9.798226e+00
0	 9.555556e+00	 1.777778e+00	 9.802269e+00
0	 9.555556e+00	 1.851852e+00	 9.806426e+00
0	 9.629630e+00	 1.481481e+00	 9.774770e+00
0	 9.629630e+00	 1.555556e+00	 9.778664e+00
0	 9.629630e+00	 1.629630e+00	 9.782673e+00
0	 9.629630e+00	 1.703704e+00	 9.786798e+00
0	 9.629630e+00	 1.777778e+00	 9.791041e+00
0	 9.629630e+00	 1.851852e+00	 9.795405e+00
0	 9.259259e+00	 1.851852e+00	 9.848750e+00
0	 9.259259e+00	 1.925926e+00	 9.852303e+00
0	 9.259259e+00	 2.000000e+00	 9.855911e+00
0	 9.259259e+00	 2.074074e+00	 9.859577e+00
0	 9.259259e+00	 2.148148e+00	 9.863303e+00
0	 9.259259e+00	 2.222222e+00	 9.867091e+00
0	 9.333333e+00	 1.851852e+00	 9.838407e+00
0	 9.333333e+00	 1.925926e+00	 9.842114e+00
0	 9.333333e+00	 2.000000e+00	 9.845880e+00
0	 9.333333e+00	 2.074074e+00	 9.849707e+00
0	 9.333333e+00	 2.148148e+00	 9.853598e+00
0	 9.333333e+00	 2.222222e+00	 9.857554e+00
0	 9.407407e+00	 1.851852e+00	 9.827914e+00
0	 9.407407e+00	 1.925926e+00	 9.831788e+00
0	 9.407407e+00	 2.000000e+00	 9.835724e+00
0	 9.407407e+00	 2.074074e+00	 9.839726e+00
0	 9.407407e+00	 2.148148e+00	 9.843794e+00
0	 9.407407e+00	 2.222222e+00	 9.847931e+00
0	 9.481481e+00	 1.851852e+00	 9.817258e+00
0	 9.481481e+00	 1.925926e+00	 9.821313e+00
0	 9.481481e+00	 2.000000e+00	 9.825433e+00
0	 9.481481e+00	 2.074074e+00	 9.829622e+00
0	 9.481481e+00	 2.148148e+00	 9.833882e+00
0	 9.481481e+00	 2.222222e+00	 9.838213e+00
0	 9.555556e+00	 1.851852e+00	 9.806426e+00
0	 9.555556e+00	 1.925926e+00	 9.810676e+00
0	 9.555556e+00	 2.000000e+00	 9.814996e+00
0	 9.555556e+00	 2.074074e+00	 9.819387e+00
0	 9.555556e+00	 2.148148e+00	 9.823852e+00
0	 9.555556e+00	 2.222222e+00	 9.828393e+00
0	 9.629630e+00	 1.851852e+00	 9.795405e+00
0	 9.629630e+00	 1.925926e+00	 9.799866e+00
0	 9.629630e+00	 2.000000e+00	 9.804400e+00
0	 9.629630e+00	 2.074074e+00	 9.809009e+00
0	 9.629630e+00	 2.148148e+00	 9.813696e+00
0	 9.629630e+00	 2.222222e+00	 9.818463e+00
0	 9.259259e+00	 2.222222e+00	 9.867091e+00
0	 9.259259e+00	 2.296296e+00	 9.870922e+00
0	 9.259259e+00	 2.370370e+00	 9.874774e+00
0	 9.259259e+00	 2.444444e+00	 9.878651e+00
0	 9.259259e+00	 2.518519e+00	 9.882554e+00
0	 9.259259e+00	 2.592593e+00	 9.886485e+00
0	 9.333333e+00	 2.222222e+00	 9.857554e+00
0	 9.333333e+00	 2.296296e+00	 9.861556e+00
0	 9.333333e+00	 2.370370e+00	 9.865581e+00
0	 9.333333e+00	 2.444444e+00	 9.869633e+00
0	 9.333333e+00	 2.518519e+00	 9.873713e+00
0	 9.333333e+00	 2.592593e+00	 9.877824e+00
0	 9.407407e+00	 2.222222e+00	 9.847931e+00
0	 9.407407e+00	 2.296296e+00	 9.852116e+00
0	 9.407407e+00	 2.370370e+00	 9.856327e+00
0	 9.407407e+00	 2.444444e+00	 9.860566e+00
0	 9.407407e+00	 2.518519e+00	 9.864836e+00
0	 9.407407e+00	 2.592593e+00	 9.869138e+00
0	 9.481481e+00	 2.222222e+00	 9.838213e+00
0	 9.481481e+00	 2.296296e+00	 9.842595e+00
0	 9.481481e+00	 2.370370e+00	 9.847005e+00
0	 9.481481e+00	 2.444444e+00	 9.851446e+00
0	 9.481481e+00	 2.518519e+00	 9.855918e+00
0	 9.481481e+00	 2.592593e+00	 9.860425e+00
0	 9.555556e+00	 2.222222e+00	 9.828393e+00
0	 9.555556e+00	 2.296296e+00	 9.832987e+00
0	 9.555556e+00	 2.370370e+00	 9.837611e+00
0	 9.555556e+00	 2.444444e+00	 9.842267e+00
0	 9.555556e+00	 2.518519e+00	 9.846957e+00
0	 9.555556e+00	 2.592593e+00	 9.851683e+00
0	 9.629630e+00	 2.222222e+00	 9.818463e+00
0	 9.629630e+00	 2.296296e+00	 9.823285e+00
0	 9.629630e+00	 2.370370e+00	 9.828139e+00
0	 9.629630e+00	 2.444444e+00	 9.833026e+00
0	 9.629630e+00	 2.518519e+00	 9.837949e+00
0	 9.629630e+00	 2.592593e+00	 9.842910e+00
0	 9.259259e+00	 2.592593e+00	 9.886485e+00
0	 9.259259e+00	 2.666667e+00	 9.890425e+00
0	 9.259259e+00	 2.740741e+00	 9.894356e+00
0	 9.259259e+00	 2.814815e+00	 9.898279e+00
0	 9.259259e+00	 2.888889e+00	 9.902196e+00
0	 9.259259e+00	 2.962963e+00	 9.906109e+00
0	 9.333333e+00	 2.592593e+00	 9.877824e+00
0	 9.333333e+00	 2.666667e+00	 9.881945e+00
0	 9.333333e+00	 2.740741e+00	 9.886058e+00
0	 9.333333e+00	 2.814815e+00	 9.890163e+00
0	 9.333333e+00	 2.888889e+00	 9.894264e+00
0	 9.333333e+00	 2.962963e+00	 9.898360e+00
0	 9.407407e+00	 2.592593e+00	 9.869138e+00
0	 9.407407e+00	 2.666667e+00	 9.873452e+00
0	 9.407407e+00	 2.740741e+00	 9.877758e+00
0	 9.407407e+00	 2.814815e+00	 9.882058e+00
0	 9.407407e+00	 2.888889e+00	 9.886353e+00
0	 9.407407e+00	 2.962963e+00	 9.890645e+00
0	 9.481481e+00	 2.592593e+00	 9.860425e+00
0	 9.481481e+00	 2.666667e+00	 9.864945e+00
0	 9.481481e+00	 2.740741e+00	 9.869457e+00
0	 9.481481e+00	 2.814815e+00	 9.873963e+00
0	 9.481481e+00	 2.888889e+00	 9.878465e+00
0	 9.481481e+00	 2.962963e+00	 9.882965e+00
0	 9.555556e+00	 2.592593e+00	 9.851683e+00
0	 9.555556e+00	 2.666667e+00	 9.856423e+00
0	 9.555556e+00	 2.740741e+00	 9.861156e+00
0	 9.555556e+00	 2.814815e+00	 9.865882e+00
0	 9.555556e+00	 2.888889e+00	 9.870604e+00
0	 9.555556e+00	 2.962963e+00	 9.875324e+00
0	 9.629630e+00	 2.592593e+00	 9.842910e+00
0	 9.629630e+00	 2.666667e+00	 9.847886e+00
0	 9.629630e+00	 2.740741e+00	 9.852853e+00
0	 9.629630e+00	 2.814815e+00	 9.857814e+00
0	 9.629630e+00	 2.888889e+00	 9.862771e+00
0	 9.629630e+00	 2.962963e+00	 9.867725e+00
0	 9.259259e+00	 2.962963e+00	 9.906109e+00
0	 9.259259e+00	 3.037037e+00	 9.910001e+00
0	 9.259259e+00	 3.111111e+00	 9.913855e+00
0	 9.259259e+00	 3.185185e+00	 9.917672e+00
0	 9.259259e+00	 3.259259e+00	 9.921455e+00
0	 9.259259e+00	 3.333333e+00	 9.925205e+00
0	 9.333333e+00	 2.962963e+00	 9.898360e+00
0	 9.333333e+00	 3.037037e+00	 9.902437e+00
0	 9.333333e+00	 3.111111e+00	 9.906475e+00
0	 9.333333e+00	 3.185185e+00	 9.910476e+00
0	 9.333333e+00	 3.259259e+00	 9.914442e+00
0	 9.333333e+00	 3.333333e+00	 9.918374e+00
0	 9.407407e+00	 2.962963e+00	 9.890645e+00
0	 9.407407e+00	 3.037037e+00	 9.894916e+00
0	 9.407407e+00	 3.111111e+00	 9.899148e+00
0	 9.407407e+00	 3.185185e+00	 9.903343e+00
0	 9.407407e+00	 3.259259e+00	 9.907502e+00
0	 9.407407e+00	 3.333333e+00	 9.911626e+00
0	 9.481481e+00	 2.962963e+00	 9.882965e+00
0	 9.481481e+00	 3.037037e+00	 9.887443e+00
0	 9.481481e+00	 3.111111e+00	 9.891881e+00
0	 9.481481e+00	 3.185185e+00	 9.896280e+00
0	 9.481481e+00	 3.259259e+00	 9.900643e+00
0	 9.481481e+00	 3.333333e+00	 9.904970e+00
0	 9.555556e+00	 2.962963e+00	 9.875324e+00
0	 9.555556e+00	 3.037037e+00	 9.880022e+00
0	 9.555556e+00	 3.111111e+00	 9.884678e+00
0	 9.555556e+00	 3.185185e+00	 9.889294e+00
0	 9.555556e+00	 3.259259e+00	 9.893871e+00
0	 9.555556e+00	 3.333333e+00	 9.898412e+00
0	 9.629630e+00	 2.962963e+00	 9.867725e+00
0	 9.629630e+00	 3.037037e+00	 9.872657e+00
0	 9.629630e+00	 3.111111e+00	 9.877544e+00
0	 9.629630e+00	 3.185185e+00	 9.882390e+00
0	 9.629630e+00	 3.259259e+00	 9.887195e+00
0	 9.629630e+00	 3.333333e+00	 9.891961e+00
0	 9.259259e+00	 3.333333e+00	 9.925205e+00
0	 9.259259e+00	 3.407407e+00	 9.928907e+00
0	 9.259259e+00	 3.481481e+00	 9.932548e+00
0	 9.259259e+00	 3.555556e+00	 9.936129e+00
0	 9.259259e+00	 3.629630e+00	 9.939651e+00
0	 9.259259e+00	 3.703704e+00	 9.943115e+00
0	 9.333333e+00	 3.333333e+00	 9.918374e+00
0	 9.333333e+00	 3.407407e+00	 9.922258e+00
0	 9.333333e+00	 3.481481e+00	 9.926079e+00
0	 9.333333e+00	 3.555556e+00	 9.929839e+00
0	 9.333333e+00	 3.629630e+00	 9.933538e+00
0	 9.333333e+00	 3.703704e+00	 9.937178e+00
0	 9.407407e+00	 3.333333e+00	 9.911626e+00
0	 9.407407e+00	 3.407407e+00	 9.915701e+00
0	 9.407407e+00	 3.481481e+00	 9.919711e+00
0	 9.407407e+00	 3.555556e+00	 9.923658e+00
0	 9.407407e+00	 3.629630e+00	 9.927543e+00
0	 9.407407e+00	 3.703704e+00	 9.931366e+00
0	 9.481481e+00	 3.333333e+00	 9.904970e+00
0	 9.481481e+00	 3.407407e+00	 9.909245e+00
0	 9.481481e+00	 3.481481e+00	 9.913454e+00
0	 9.481481e+00	 3.555556e+00	 9.917597e+00
0	 9.481481e+00	 3.629630e+00	 9.921675e+00
0	 9.481481e+00	 3.703704e+00	 9.925689e+00
0	 9.555556e+00	 3.333333e+00	 9.898412e+00
0	 9.555556e+00	 3.407407e+00	 9.902899e+00
0	 9.555556e+00	 3.481481e+00	 9.907316e+00
0	 9.555556e+00	 3.555556e+00	 9.911664e+00
0	 9.555556e+00	 3.629630e+00	 9.915945e+00
0	 9.555556e+00	 3.703704e+00	 9.920160e+00
0	 9.629630e+00	 3.333333e+00	 9.891961e+00
0	 9.629630e+00	 3.407407e+00	 9.896671e+00
0	 9.629630e+00	 3.481481e+00	 9.901307e+00
0	 9.629630e+00	 3.555556e+00	 9.905872e+00
0	 9.629630e+00	 3.629630e+00	 9.910365e+00
0	 9.629630e+00	 3.703704e+00	 9.914789e+00
0	 9.259259e+00	 3.703704e+00	 9.943115e+00
0	 9.259259e+00	 3.777778e+00	 9.946511e+00
0	 9.259259e+00	 3.851852e+00	 9.949828e+00
0	 9.259259e+00	 3.925926e+00	 9.953067e+00
0	 9.259259e+00	 4.000000e+00	 9.956228e+00
0	 9.259259e+00	 4.074074e+00	 9.959313e+00
0	 9.333333e+00	 3.703704e+00	 9.937178e+00
0	 9.333333e+00	 3.777778e+00	 9.940748e+00
0	 9.333333e+00	 3.851852e+00	 9.944236e+00
0	 9.333333e+00	 3.925926e+00	 9.947644e+00
0	 9.333333e+00	 4.000000e+00	 9.950972e+00
0	 9.333333e+00	 4.074074e+00	 9.954221e+00
0	 9.407407e+00	 3.703704e+00	 9.931366e+00
0	 9.407407e+00	 3.777778e+00	 9.935116e+00
0	 9.407407e+00	 3.851852e+00	 9.938783e+00
0	 9.407407e+00	 3.925926e+00	 9.942366e+00
0	 9.407407e+00	 4.000000e+00	 9.945866e+00
0	 9.407407e+00	 4.074074e+00	 9.949284e+00
0	 9.481481e+00	 3.703704e+00	 9.925689e+00
0	 9.481481e+00	 3.777778e+00	 9.929628e+00
0	 9.481481e+00	 3.851852e+00	 9.933480e+00
0	 9.481481e+00	 3.925926e+00	 9.937244e+00
0	 9.481481e+00	 4.000000e+00	 9.940923e+00
0	 9.481481e+00	 4.074074e+00	 9.944516e+00
0	 9.555556e+00	 3.703704e+00	 9.920160e+00
0	 9.555556e+00	 3.777778e+00	 9.924296e+00
0	 9.555556e+00	 3.851852e+00	 9.928340e+00
0	 9.555556e+00	 3.925926e+00	 9.932293e+00
0	 9.555556e+00	 4.000000e+00	 9.936157e+00
0	 9.555556e+00	 4.074074e+00	 9.939931e+00
0	 9.629630e+00	 3.703704e+00	 9.914789e+00
0	 9.629630e+00	 3.777778e+00	 9.919131e+00
0	 9.629630e+00	 3.851852e+00	 9.923376e+00
0	 9.629630e+00	 3.925926e+00	 9.927526e+00
0	 9.629630e+00	 4.000000e+00	 9.931581e+00
0	 9.629630e+00	 4.074074e+00	 9.935543e+00
0	 9.259259e+00	 4.074074e+00	 9.959313e+00
0	 9.259259e+00	 4.148148e+00	 9.962314e+00
0	 9.259259e+00	 4.222222e+00	 9.965225e+00
0	 9.259259e+00	 4.296296e+00	 9.968045e+00
0	 9.259259e+00	 4.370370e+00	 9.970776e+00
0	 9.259259e+00	 4.444444e+00	 9.973417e+00
0	 9.333333e+00	 4.074074e+00	 9.954221e+00
0	 9.333333e+00	 4.148148e+00	 9.957384e+00
0	 9.333333e+00	 4.222222e+00	 9.960452e+00
0	 9.333333e+00	 4.296296e+00	 9.963428e+00
0	 9.333333e+00	 4.370370e+00	 9.966310e+00
0	 9.333333e+00	 4.444444e+00	 9.969100e+00
0	 9.407407e+00	 4.074074e+00	 9.949284e+00
0	 9.407407e+00	 4.148148e+00	 9.952613e+00
0	 9.407407e+00	 4.222222e+00	 9.955844e+00
0	 9.407407e+00	 4.296296e+00	 9.958978e+00
0	 9.407407e+00	 4.370370e+00	 9.962016e+00
0	 9.407407e+00	 4.444444e+00	 9.964958e+00
0	 9.481481e+00	 4.074074e+00	 9.944516e+00
0	 9.481481e+00	 4.148148e+00	 9.948016e+00
0	 9.481481e+00	 4.222222e+00	 9.951415e+00
0	 9.481481e+00	 4.296296e+00	 9.954712e+00
0	 9.481481e+00	 4.370370e+00	 9.957909e+00
0	 9.481481e+00	 4.444444e+00	 9.961005e+00
0	 9.555556e+00	 4.074074e+00	 9.939931e+00
0	 9.555556e+00	 4.148148e+00	 9.943608e+00
0	 9.555556e+00	 4.222222e+00	 9.947179e+00
0	 9.555556e+00	 4.296296e+00	 9.950644e+00
0	 9.555556e+00	 4.370370e+00	 9.954003e+00
0	 9.555556e+00	 4.444444e+00	 9.957259e+00
0	 9.629630e+00	 4.074074e+00	 9.935543e+00
0	 9.629630e+00	 4.148148e+00	 9.939403e+00
0	 9.629630e+00	 4.222222e+00	 9.943152e+00
0	 9.629630e+00	 4.296296e+00	 9.946789e+00
0	 9.629630e+00	 4.370370e+00	 9.950316e+00
0	 9.629630e+00	 4.444444e+00	 9.953733e+00
0	 9.259259e+00	 4.444444e+00	 9.973417e+00
0	 9.259259e+00	 4.518519e+00	 9.975965e+00
0	 9.259259e+00	 4.592593e+00	 9.978416e+00
0	 9.259259e+00	 4.666667e+00	 9.980771e+00
0	 9.259259e+00	 4.740741e+00	 9.983030e+00
0	 9.259259e+00	 4.814815e+00	 9.985192e+00
0	 9.333333e+00	 4.444444e+00	 9.969100e+00
0	 9.333333e+00	 4.518519e+00	 9.971793e+00
0	 9.333333e+00	 4.592593e+00	 9.974387e+00
0	 9.333333e+00	 4.666667e+00	 9.976880e+00
0	 9.333333e+00	 4.740741e+00	 9.979273e+00
0	 9.333333e+00	 4.814815e+00	 9.981567e+00
0	 9.407407e+00	 4.444444e+00	 9.964958e+00
0	 9.407407e+00	 4.518519e+00	 9.967799e+00
0	 9.407407e+00	 4.592593e+00	 9.970536e+00
0	 9.407407e+00	 4.666667e+00	 9.973170e+00
0	 9.407407e+00	 4.740741e+00	 9.975699e+00
0	 9.407407e+00	 4.814815e+00	 9.978124e+00
0	 9.481481e+00	 4.444444e+00	 9.961005e+00
0	 9.481481e+00	 4.518519e+00	 9.963997e+00
0	 9.481481e+00	 4.592593e+00	 9.966881e+00
0	 9.481481e+00	 4.666667e+00	 9.969656e+00
0	 9.481481e+00	 4.740741e+00	 9.972322e+00
0	 9.481481e+00	 4.814815e+00	 9.974880e+00
0	 9.555556e+00	 4.444444e+00	 9.957259e+00
0	 9.555556e+00	 4.518519e+00	 9.960404e+00
0	 9.555556e+00	 4.592593e+00	 9.963437e+00
0	 9.555556e+00	 4.666667e+00	 9.966355e+00
0	 9.555556e+00	 4.740741e+00	 9.969160e+00
0	 9.555556e+00	 4.814815e+00	 9.971852e+00
0	 9.629630e+00	 4.444444e+00	 9.953733e+00
0	 9.629630e+00	 4.518519e+00	 9.957036e+00
0	 9.629630e+00	 4.592593e+00	 9.960219e+00
0	 9.629630e+00	 4.666667e+00	 9.963283e+00
0	 9.629630e+00	 4.740741e+00	 9.966229e+00
0	 9.629630e+00	 4.814815e+00	 9.969055e+00
0	 9.259259e+00	 4.814815e+00	 9.985192e+00
0	 9.259259e+00	 4.888889e+00	 9.987258e+00
0	 9.259259e+00	 4.962963e+00	 9.989227e+00
0	 9.259259e+00	 5.037037e+00	 9.991098e+00
0	 9.259259e+00	 5.111111e+00	 9.992873e+00
0	 9.259259e+00	 5.185185e+00	 9.994549e+00
0	 9.333333e+00	 4.814815e+00	 9.981567e+00
0	 9.333333e+00	 4.888889e+00	 9.983760e+00
0	 9.333333e+00	 4.962963e+00	 9.985852e+00
0	 9.333333e+00	 5.037037e+00	 9.987844e+00
0	 9.333333e+00	 5.111111e+00	 9.989734e+00
0	 9.333333e+00	 5.185185e+00	 9.991523e+00
0	 9.407407e+00	 4.814815e+00	 9.978124e+00
0	 9.407407e+00	 4.888889e+00	 9.980445e+00
0	 9.407407e+00	 4.962963e+00	 9.982661e+00
0	 9.407407e+00	 5.037037e+00	 9.984772e+00
0	 9.407407e+00	 5.111111e+00	 9.986777e+00
0	 9.407407e+00	 5.185185e+00	 9.988677e+00
0	 9.481481e+00	 4.814815e+00	 9.974880e+00
0	 9.481481e+00	 4.888889e+00	 9.977330e+00
0	 9.481481e+00	 4.962963e+00	 9.979669e+00
0	 9.481481e+00	 5.037037e+00	 9.981899e+00
0	 9.481481e+00	 5.111111e+00	 9.984019e+00
0	 9.481481e+00	 5.185185e+00	 9.986029e+00
0	 9.555556e+00	 4.814815e+00	 9.971852e+00
0	 9.555556e+00	 4.888889e+00	 9.974430e+00
0	 9.555556e+00	 4.962963e+00	 9.976893e+00
0	 9.555556e+00	 5.037037e+00	 9.979242e+00
0	 9.555556e+00	 5.111111e+00	 9.981475e+00
0	 9.555556e+00	 5.185185e+00	 9.983594e+00
0	 9.629630e+00	 4.814815e+00	 9.969055e+00
0	 9.629630e+00	 4.888889e+00	 9.971762e+00
0	 9.629630e+00	 4.962963e+00	 9.974349e+00
0	 9.629630e+00	 5.037037e+00	 9.976815e+00
0	 9.629630e+00	 5.111111e+00	 9.979161e+00
0	 9.629630e+00	 5.185185e+00	 9.981387e+00
0	 9.259259e+00	 5.185185e+00	 9.994549e+00
0	 9.259259e+00	 5.259259e+00	 9.996131e+00
0	 9.259259e+00	 5.333333e+00	 9.997620e+00
0	 9.259259e+00	 5.407407e+00	 9.999016e+00
0	 9.259259e+00	 5.481481e+00	 1.000032e+01
0	 9.259259e+00	 5.555556e+00	 1.000153e+01
0	 9.333333e+00	 5.185185e+00	 9.991523e+00
0	 9.333333e+00	 5.259259e+00	 9.993213e+00
0	 9.333333e+00	 5.333333e+00	 9.994807e+00
0	 9.333333e+00	 5.407407e+00	 9.996304e+00
0	 9.333333e+00	 5.481481e+00	 9.997704e+00
0	 9.333333e+00	 5.555556e+00	 9.999006e+00
0	 9.407407e+00	 5.185185e+00	 9.988677e+00
0	 9.407407e+00	 5.259259e+00	 9.990474e+00
0	 9.407407e+00	 5.333333e+00	 9.992171e+00
0	 9.407407e+00	 5.407407e+00	 9.993767e+00
0	 9.407407e+00	 5.481481e+00	 9.995262e+00
0	 9.407407e+00	 5.555556e+00	 9.996655e+00
0	 9.481481e+00	 5.185185e+00	 9.986029e+00
0	 9.481481e+00	 5.259259e+00	 9.987932e+00
0	 9.481481e+00	 5.333333e+00	 9.989729e+00
0	 9.481481e+00	 5.407407e+00	 9.991422e+00
0	 9.481481e+00	 5.481481e+00	 9.993009e+00
0	 9.481481e+00	 5.555556e+00	 9.994490e+00
0	 9.555556e+00	 5.185185e+00	 9.983594e+00
0	 9.555556e+00	 5.259259e+00	 9.985600e+00
0	 9.555556e+00	 5.333333e+00	 9.987496e+00
0	 9.555556e+00	 5.407407e+00	 9.989283e+00
0	 9.555556e+00	 5.481481e+00	 9.990959e+00
0	 9.555556e+00	 5.555556e+00	 9.992524e+00
0	 9.629630e+00	 5.185185e+00	 9.981387e+00
0	 9.629630e+00	 5.259259e+00	 9.983494e+00
0	 9.629630e+00	 5.333333e+00	 9.985487e+00
0	 9.629630e+00	 5.407407e+00	 9.987365e+00
0	 9.629630e+00	 5.481481e+00	 9.989127e+00
0	 9.629630e+00	 5.555556e+00	 9.990773e+00
0	 9.259259e+00	 5.555556e+00	 1.000153e+01
0	 9.259259e+00	 5.629630e+00	 1.000265e+01
0	 9.259259e+00	 5.703704e+00	 1.000368e+01
0	 9.259259e+00	 5.777778e+00	 1.000464e+01
0	 9.259259e+00	 5.851852e+00	 1.000550e+01
0	 9.259259e+00	 5.925926e+00	 1.000628e+01
0	 9.333333e+00	 5.555556e+00	 9.999006e+00
0	 9.333333e+00	 5.629630e+00	 1.000022e+01
0	 9.333333e+00	 5.703704e+00	 1.000134e+01
0	 9.333333e+00	 5.777778e+00	 1.000237e+01
0	 9.333333e+00	 5.851852e+00	 1.000332e+01
0	 9.333333e+00	 5.925926e+00	 1.000417e+01
0	 9.407407e+00	 5.555556e+00	 9.996655e+00
0	 9.407407e+00	 5.629630e+00	 9.997952e+00
0	 9.407407e+00	 5.703704e+00	 9.999158e+00
0	 9.407407e+00	 5.777778e+00	 1.000027e+01
0	 9.407407e+00	 5.851852e+00	 1.000129e+01
0	 9.407407e+00	 5.925926e+00	 1.000222e+01
0	 9.481481e+00	 5.555556e+00	 9.994490e+00
0	 9.481481e+00	 5.629630e+00	 9.995870e+00
0	 9.481481e+00	 5.703704e+00	 9.997155e+00
0	 9.481481e+00	 5.777778e+00	 9.998345e+00
0	 9.481481e+00	 5.851852e+00	 9.999438e+00
0	 9.481481e+00	 5.925926e+00	 1.000043e+01
0	 9.555556e+00	 5.555556e+00	 9.992524e+00
0	 9.555556e+00	 5.629630e+00	 9.993984e+00
0	 9.555556e+00	 5.703704e+00	 9.995345e+00
0	 9.555556e+00	 5.777778e+00	 9.996606e+00
0	 9.555556e+00	 5.851852e+00	 9.997765e+00
0	 9.555556e+00	 5.925926e+00	 9.998824e+00
0	 9.629630e+00	 5.555556e+00	 9.990773e+00
0	 9.629630e+00	 5.629630e+00	 9.992309e+00
0	 9.629630e+00	 5.703704e+00	 9.993740e+00
0	 9.629630e+00	 5.777778e+00	 9.995067e+00
0	 9.629630e+00	 5.851852e+00	 9.996289e+00
0	 9.629630e+00	 5.925926e+00	 9.997404e+00
0	 9.259259e+00	 5.925926e+00	 1.000628e+01
0	 9.259259e+00	 6.000000e+00	 1.000698e+01
0	 9.259259e+00	 6.074074e+00	 1.000761e+01
0	 9.259259e+00	 6.148148e+00	 1.000817e+01
0	 9.259259e+00	 6.222222e+00	 1.000865e+01
0	 9.259259e+00	 6.296296e+00	 1.000905e+01
0	 9.333333e+00	 5.925926e+00	 1.000417e+01
0	 9.333333e+00	 6.000000e+00	 1.000495e+01
0	 9.333333e+00	 6.074074e+00	 1.000565e+01
0	 9.333333e+00	 6.148148e+00	 1.000627e+01
0	 9.333333e+00	 6.222222e+00	 1.000681e+01
0	 9.333333e+00	 6.296296e+00	 1.000728e+01
0	 9.407407e+00	 5.925926e+00	 1.000222e+01
0	 9.407407e+00	 6.000000e+00	 1.000306e+01
0	 9.407407e+00	 6.074074e+00	 1.000383e+01
0	 9.407407e+00	 6.148148e+00	 1.000451e+01
0	 9.407407e+00	 6.222222e+00	 1.000512e+01
0	 9.407407e+00	 6.296296e+00	 1.000564e+01
0	 9.481481e+00	 5.925926e+00	 1.000043e+01
0	 9.481481e+00	 6.000000e+00	 1.000134e+01
0	 9.481481e+00	 6.074074e+00	 1.000216e+01
0	 9.481481e+00	 6.148148e+00	 1.000291e+01
0	 9.481481e+00	 6.222222e+00	 1.000356e+01
0	 9.481481e+00	 6.296296e+00	 1.000414e+01
0	 9.555556e+00	 5.925926e+00	 9.998824e+00
0	 9.555556e+00	 6.000000e+00	 9.999788e+00
0	 9.555556e+00	 6.074074e+00	 1.000067e+01
0	 9.555556e+00	 6.148148e+00	 1.000146e+01
0	 9.555556e+00	 6.222222e+00	 1.000217e+01
0	 9.555556e+00	 6.296296e+00	 1.000279e+01
0	 9.629630e+00	 5.925926e+00	 9.997404e+00
0	 9.629630e+00	 6.000000e+00	 9.998422e+00
0	 9.629630e+00	 6.074074e+00	 9.999351e+00
0	 9.629630e+00	 6.148148e+00	 1.000019e+01
0	 9.629630e+00	 6.222222e+00	 1.000094e+01
0	 9.629630e+00	 6.296296e+00	 1.000159e+01
0	 9.259259e+00	 6.296296e+00	 1.000905e+01
0	 9.259259e+00	 6.370370e+00	 1.000939e+01
0	 9.259259e+00	 6.444444e+00	 1.000968e+01
0	 9.259259e+00	 6.518519e+00	 1.000990e+01
0	 9.259259e+00	 6.592593e+00	 1.001006e+01
0	 9.259259e+00	 6.666667e+00	 1.001016e+01
0	 9.333333e+00	 6.296296e+00	 1.000728e+01
0	 9.333333e+00	 6.370370e+00	 1.000768e+01
0	 9.333333e+00	 6.444444e+00	 1.000802e+01
0	 9.333333e+00	 6.518519e+00	 1.000829e+01
0	 9.333333e+00	 6.592593e+00	 1.000851e+01
0	 9.333333e+00	 6.666667e+00	 1.000866e+01
0	 9.407407e+00	 6.296296e+00	 1.000564e+01
0	 9.407407e+00	 6.370370e+00	 1.000609e+01
0	 9.407407e+00	 6.444444e+00	 1.000648e+01
0	 9.407407e+00	 6.518519e+00	 1.000680e+01
0	 9.407407e+00	 6.592593e+00	 1.000706e+01
0	 9.407407e+00	 6.666667e+00	 1.000725e+01
0	 9.481481e+00	 6.296296e+00	 1.000414e+01
0	 9.481481e+00	 6.370370e+00	 1.000464e+01
0	 9.481481e+00	 6.444444e+00	 1.000507e+01
0	 9.481481e+00	 6.518519e+00	 1.000544e+01
0	 9.481481e+00	 6.592593e+00	 1.000573e+01
0	 9.481481e+00	 6.666667e+00	 1.000596e+01
0	 9.555556e+00	 6.296296e+00	 1.000279e+01
0	 9.555556e+00	 6.370370e+00	 1.000333e+01
0	 9.555556e+00	 6.444444e+00	 1.000380e+01
0	 9.555556e+00	 6.518519e+00	 1.000420e+01
0	 9.555556e+00	 6.592593e+00	 1.000453e+01
0	 9.555556e+00	 6.666667e+00	 1.000479e+01
0	 9.629630e+00	 6.296296e+00	 1.000159e+01
0	 9.629630e+00	 6.370370e+00	 1.000217e+01
0	 9.629630e+00	 6.444444e+00	 1.000267e+01
0	 9.629630e+00	 6.518519e+00	 1.000310e+01
0	 9.629630e+00	 6.592593e+00	 1.000346e+01
0	 9.629630e+00	 6.666667e+00	 1.000374e+01
0	 9.259259e+00	 6.666667e+00	 1.001016e+01
0	 9.259259e+00	 6.740741e+00	 1.001021e+01
0	 9.259259e+00	 6.814815e+00	 1.001021e+01
0	 9.259259e+00	 6.888889e+00	 1.001017e+01
0	 9.259259e+00	 6.962963e+00	 1.001009e+01
0	 9.259259e+00	 7.037037e+00	 1.000996e+01
0	 9.333333e+00	 6.666667e+00	 1.000866e+01
0	 9.333333e+00	 6.740741e+00	 1.000875e+01
0	 9.333333e+00	 6.814815e+00	 1.000880e+01
0	 9.333333e+00	 6.888889e+00	 1.000880e+01
0	 9.333333e+00	 6.962963e+00	 1.000876e+01
0	 9.333333e+00	 7.037037e+00	 1.000867e+01
0	 9.407407e+00	 6.666667e+00	 1.000725e+01
0	 9.407407e+00	 6.740741e+00	 1.000739e+01
0	 9.407407e+00	 6.814815e+00	 1.000748e+01
0	 9.407407e+00	 6.888889e+00	 1.000752e+01
0	 9.407407e+00	 6.962963e+00	 1.000751e+01
0	 9.407407e+00	 7.037037e+00	 1.000746e+01
0	 9.481481e+00	 6.666667e+00	 1.000596e+01
0	 9.481481e+00	 6.740741e+00	 1.000613e+01
0	 9.481481e+00	 6.814815e+00	 1.000626e+01
0	 9.481481e+00	 6.888889e+00	 1.000633e+01
0	 9.481481e+00	 6.962963e+00	 1.000635e+01
0	 9.481481e+00	 7.037037e+00	 1.000632e+01
0	 9.555556e+00	 6.666667e+00	 1.000479e+01
0	 9.555556e+00	 6.740741e+00	 1.000499e+01
0	 9.555556e+00	 6.814815e+00	 1.000514e+01
0	 9.555556e+00	 6.888889e+00	 1.000523e+01
0	 9.555556e+00	 6.962963e+00	 1.000528e+01
0	 9.555556e+00	 7.037037e+00	 1.000527e+01
0	 9.629630e+00	 6.666667e+00	 1.000374e+01
0	 9.629630e+00	 6.740741e+00	 1.000396e+01
0	 9.629630e+00	 6.814815e+00	 1.000413e+01
0	 9.629630e+00	 6.888889e+00	 1.000424e+01
0	 9.629630e+00	 6.962963e+00	 1.000430e+01
0	 9.629630e+00	 7.037037e+00	 1.000431e+01
0	 9.259259e+00	 7.037037e+00	 1.000996e+01
0	 9.259259e+00	 7.111111e+00	 1.000979e+01
0	 9.259259e+00	 7.185185e+00	 1.000959e+01
0	 9.259259e+00	 7.259259e+00	 1.000937e+01
0	 9.259259e+00	 7.333333e+00	 1.000911e+01
0	 9.259259e+00	 7.407407e+00	 1.000882e+01
0	 9.333333e+00	 7.037037e+00	 1.000867e+01
0	 9.333333e+00	 7.111111e+00	 1.000854e+01
0	 9.333333e+00	 7.185185e+00	 1.000838e+01
0	 9.333333e+00	 7.259259e+00	 1.000819e+01
0	 9.333333e+00	 7.333333e+00	 1.000797e+01
0	 9.333333e+00	 7.407407e+00	 1.000772e+01
0	 9.407407e+00	 7.037037e+00	 1.000746e+01
0	 9.407407e+00	 7.111111e+00	 1.000736e+01
0	 9.407407e+00	 7.185185e+00	 1.000723e+01
0	 9.407407e+00	 7.259259e+00	 1.000708e+01
0	 9.407407e+00	 7.333333e+00	 1.000689e+01
0	 9.407407e+00	 7.407407e+00	 1.000666e+01
0	 9.481481e+00	 7.037037e+00	 1.000632e+01
0	 9.481481e+00	 7.111111e+00	 1.000625e+01
0	 9.481481e+00	 7.185185e+00	 1.000615e+01
0	 9.481481e+00	 7.259259e+00	 1.000602e+01
0	 9.481481e+00	 7.333333e+00	 1.000586e+01
0	 9.481481e+00	 7.407407e+00	 1.000566e+01
0	 9.555556e+00	 7.037037e+00	 1.000527e+01
0	 9.555556e+00	 7.111111e+00	 1.000522e+01
0	 9.555556e+00	 7.185185e+00	 1.000514e+01
0	 9.555556e+00	 7.259259e+00	 1.000503e+01
0	 9.555556e+00	 7.333333e+00	 1.000488e+01
0	 9.555556e+00	 7.407407e+00	 1.000470e+01
0	 9.629630e+00	 7.037037e+00	 1.000431e+01
0	 9.629630e+00	 7.111111e+00	 1.000427e+01
0	 9.629630e+00	 7.185185e+00	 1.000420e+01
0	 9.629630e+00	 7.259259e+00	 1.000410e+01
0	 9.629630e+00	 7.333333e+00	 1.000396e+01
0	 9.629630e+00	 7.407407e+00	 1.000379e+01
0	 9.259259e+00	 7.407407e+00	 1.000882e+01
0	 9.259259e+00	 7.481481e+00	 1.000851e+01
0	 9.259259e+00	 7.555556e+00	 1.000819e+01
0	 9.259259e+00	 7.629630e+00	 1.000785e+01
0	 9.259259e+00	 7.703704e+00	 1.000750e+01
0	 9.259259e+00	 7.777778e+00	 1.000713e+01
0	 9.333333e+00	 7.407407e+00	 1.000772e+01
0	 9.333333e+00	 7.481481e+00	 1.000744e+01
0	 9.333333e+00	 7.555556e+00	 1.000715e+01
0	 9.333333e+00	 7.629630e+00	 1.000685e+01
0	 9.333333e+00	 7.703704e+00	 1.000653e+01
0	 9.333333e+00	 7.777778e+00	 1.000619e+01
0	 9.407407e+00	 7.407407e+00	 1.000666e+01
0	 9.407407e+00	 7.481481e+00	 1.000642e+01
0	 9.407407e+00	 7.555556e+00	 1.000616e+01
0	 9.407407e+00	 7.629630e+00	 1.000588e+01
0	 9.407407e+00	 7.703704e+00	 1.000559e+01
0	 9.407407e+00	 7.777778e+00	 1.000528e+01
0	 9.481481e+00	 7.407407e+00	 1.000566e+01
0	 9.481481e+00	 7.481481e+00	 1.000543e+01
0	 9.481481e+00	 7.555556e+00	 1.000520e+01
0	 9.481481e+00	 7.629630e+00	 1.000495e+01
0	 9.481481e+00	 7.703704e+00	 1.000468e+01
0	 9.481481e+00	 7.777778e+00	 1.000440e+01
0	 9.555556e+00	 7.407407e+00	 1.000470e+01
0	 9.555556e+00	 7.481481e+00	 1.000449e+01
0	 9.555556e+00	 7.555556e+00	 1.000427e+01
0	 9.555556e+00	 7.629630e+00	 1.000404e+01
0	 9.555556e+00	 7.703704e+00	 1.000379e+01
0	 9.555556e+00	 7.777778e+00	 1.000353e+01
0	 9.629630e+00	 7.407407e+00	 1.000379e+01
0	 9.629630e+00	 7.481481e+00	 1.000360e+01
0	 9.629630e+00	 7.555556e+00	 1.000339e+01
0	 9.629630e+00	 7.629630e+00	 1.000316e+01
0	 9.629630e+00	 7.703704e+00	 1.000293e+01
0	 9.629630e+00	 7.777778e+00	 1.000267e+01
0	 9.259259e+00	 7.777778e+00	 1.000713e+01
0	 9.259259e+00	 7.851852e+00	 1.000675e+01
0	 9.259259e+00	 7.925926e+00	 1.000637e+01
0	 9.259259e+00	 8.000000e+00	 1.000599e+01
0	 9.259259e+00	 8.074074e+00	 1.000560e+01
0	 9.259259e+00	 8.148148e+00	 1.000521e+01
0	 9.333333e+00	 7.777778e+00	 1.000619e+01
0	 9.333333e+00	 7.851852e+00	 1.000585e+01
0	 9.333333e+00	 7.925926e+00	 1.000550e+01
0	 9.333333e+00	 8.000000e+00	 1.000516e+01
0	 9.333333e+00	 8.074074e+00	 1.000481e+01
0	 9.333333e+00	 8.148148e+00	 1.000445e+01
0	 9.407407e+00	 7.777778e+00	 1.000528e+01
0	 9.407407e+00	 7.851852e+00	 1.000497e+01
0	 9.407407e+00	 7.925926e+00	 1.000465e+01
0	 9.407407e+00	 8.000000e+00	 1.000434e+01
0	 9.407407e+00	 8.074074e+00	 1.000402e+01
0	 9.407407e+00	 8.148148e+00	 1.000369e+01
0	 9.481481e+00	 7.777778e+00	 1.000440e+01
0	 9.481481e+00	 7.851852e+00	 1.000410e+01
0	 9.481481e+00	 7.925926e+00	 1.000381e+01
0	 9.481481e+00	 8.000000e+00	 1.000352e+01
0	 9.481481e+00	 8.074074e+00	 1.000323e+01
0	 9.481481e+00	 8.148148e+00	 1.000294e+01
0	 9.555556e+00	 7.777778e+00	 1.000353e+01
0	 9.555556e+00	 7.851852e+00	 1.000325e+01
0	 9.555556e+00	 7.925926e+00	 1.000298e+01
0	 9.555556e+00	 8.000000e+00	 1.000271e+01
0	 9.555556e+00	 8.074074e+00	 1.000244e+01
0	 9.555556e+00	 8.148148e+00	 1.000217e+01
0	 9.629630e+00	 7.777778e+00	 1.000267e+01
0	 9.629630e+00	 7.851852e+00	 1.000241e+01
0	 9.629630e+00	 7.925926e+00	 1.000215e+01
0	 9.629630e+00	 8.000000e+00	 1.000190e+01
0	 9.629630e+00	 8.074074e+00	 1.000165e+01
0	 9.629630e+00	 8.148148e+00	 1.000139e+01
0	 9.259259e+00	 8.148148e+00	 1.000521e+01
0	 9.259259e+00	 8.222222e+00	 1.000483e+01
0	 9.259259e+00	 8.296296e+00	 1.000445e+01
0	 9.259259e+00	 8.370370e+00	 1.000409e+01
0	 9.259259e+00	 8.444444e+00	 1.000373e+01
0	 9.259259e+00	 8.518519e+00	 1.000338e+01
0	 9.333333e+00	 8.148148e+00	 1.000445e+01
0	 9.333333e+00	 8.222222e+00	 1.000410e+01
0	 9.333333e+00	 8.296296e+00	 1.000376e+01
0	 9.333333e+00	 8.370370e+00	 1.000343e+01
0	 9.333333e+00	 8.444444e+00	 1.000311e+01
0	 9.333333e+00	 8.518519e+00	 1.000280e+01
0	 9.407407e+00	 8.148148e+00	 1.000369e+01
0	 9.407407e+00	 8.222222e+00	 1.000338e+01
0	 9.407407e+00	 8.296296e+00	 1.000307e+01
0	 9.407407e+00	 8.370370e+00	 1.000277e+01
0	 9.407407e+00	 8.444444e+00	 1.000248e+01
0	 9.407407e+00	 8.518519e+00	 1.000220e+01
0	 9.481481e+00	 8.148148e+00	 1.000294e+01
0	 9.481481e+00	 8.222222e+00	 1.000265e+01
0	 9.481481e+00	 8.296296e+00	 1.000237e+01
0	 9.481481e+00	 8.370370e+00	 1.000210e+01
0	 9.481481e+00	 8.444444e+00	 1.000185e+01
0	 9.481481e+00	 8.518519e+00	 1.000160e+01
0	 9.555556e+00	 8.148148e+00	 1.000217e+01
0	 9.555556e+00	 8.222222e+00	 1.000191e+01
0	 9.555556e+00	 8.296296e+00	 1.000165e+01
0	 9.555556e+00	 8.370370e+00	 1.000141e+01
0	 9.555556e+00	 8.444444e+00	 1.000119e+01
0	 9.555556e+00	 8.518519e+00	 1.000097e+01
0	 9.629630e+00	 8.148148e+00	 1.000139e+01
0	 9.629630e+00	 8.222222e+00	 1.000115e+01
0	 9.629630e+00	 8.296296e+00	 1.000092e+01
0	 9.629630e+00	 8.370370e+00	 1.000071e+01
0	 9.629630e+00	 8.444444e+00	 1.000050e+01
0	 9.629630e+00	 8.518519e+00	 1.000032e+01
0	 9.259259e+00	 8.518519e+00	 1.000338e+01
0	 9.259259e+00	 8.592593e+00	 1.000304e+01
0	 9.259259e+00	 8.666667e+00	 1.000272e+01
0	 9.259259e+00	 8.740741e+00	 1.000241e+01
0	 9.259259e+00	 8.814815e+00	 1.000212e+01
0	 9.259259e+00	 8.888889e+00	 1.000184e+01
0	 9.333333e+00	 8.518519e+00	 1.000280e+01
0	 9.333333e+00	 8.592593e+00	 1.000249e+01
0	 9.333333e+00	 8.666667e+00	 1.000221e+01
0	 9.333333e+00	 8.740741e+00	 1.000194e+01
0	 9.333333e+00	 8.814815e+00	 1.000168e+01
0	 9.333333e+00	 8.888889e+00	 1.000145e+01
0	 9.407407e+00	 8.518519e+00	 1.000220e+01
0	 9.407407e+00	 8.592593e+00	 1.000194e+01
0	 9.407407e+00	 8.666667e+00	 1.000169e+01
0	 9.407407e+00	 8.740741e+00	 1.000145e+01
0	 9.407407e+00	 8.814815e+00	 1.000124e+01
0	 9.407407e+00	 8.888889e+00	 1.000103e+01
0	 9.481481e+00	 8.518519e+00	 1.000160e+01
0	 9.481481e+00	 8.592593e+00	 1.000137e+01
0	 9.481481e+00	 8.666667e+00	 1.000115e+01
0	 9.481481e+00	 8.740741e+00	 1.000095e+01
0	 9.481481e+00	 8.814815e+00	 1.000077e+01
0	 9.481481e+00	 8.888889e+00	 1.000061e+01
0	 9.555556e+00	 8.518519e+00	 1.000097e+01
0	 9.555556e+00	 8.592593e+00	 1.000077e+01
0	 9.555556e+00	 8.666667e+00	 1.000059e+01
0	 9.555556e+00	 8.740741e+00	 1.000042e+01
0	 9.555556e+00	 8.814815e+00	 1.000028e+01
0	 9.555556e+00	 8.888889e+00	 1.000015e+01
0	 9.629630e+00	 8.518519e+00	 1.000032e+01
0	 9.629630e+00	 8.592593e+00	 1.000014e+01
0	 9.629630e+00	 8.666667e+00	 9.999995e+00
0	 9.629630e+00	 8.740741e+00	 9.999866e+00
0	 9.629630e+00	 8.814815e+00	 9.999757e+00
0	 9.629630e+00	 8.888889e+00	 9.999669e+00
0	 9.259259e+00	 8.888889e+00	 1.000184e+01
0	 9.259259e+00	 8.962963e+00	 1.000158e+01
0	 9.259259e+00	 9.037037e+00	 1.000134e+01
0	 9.259259e+00	 9.111111e+00	 1.000113e+01
0	 9.259259e+00	 9.185185e+00	 1.000093e+01
0	 9.259259e+00	 9.259259e+00	 1.000075e+01
0	 9.333333e+00	 8.888889e+00	 1.000145e+01
0	 9.333333e+00	 8.962963e+00	 1.000122e+01
0	 9.333333e+00	 9.037037e+00	 1.000102e+01
0	 9.333333e+00	 9.111111e+00	 1.000084e+01
0	 9.333333e+00	 9.185185e+00	 1.000068e+01
0	 9.333333e+00	 9.259259e+00	 1.000053e+01
0	 9.407407e+00	 8.888889e+00	 1.000103e+01
0	 9.407407e+00	 8.962963e+00	 1.000085e+01
0	 9.407407e+00	 9.037037e+00	 1.000068e+01
0	 9.407407e+00	 9.111111e+00	 1.000054e+01
0	 9.407407e+00	 9.185185e+00	 1.000041e+01
0	 9.407407e+00	 9.259259e+00	 1.000030e+01
0	 9.481481e+00	 8.888889e+00	 1.000061e+01
0	 9.481481e+00	 8.962963e+00	 1.000046e+01
0	 9.481481e+00	 9.037037e+00	 1.000033e+01
0	 9.481481e+00	 9.111111e+00	 1.000022e+01
0	 9.481481e+00	 9.185185e+00	 1.000013e+01
0	 9.481481e+00	 9.259259e+00	 1.000005e+01
0	 9.555556e+00	 8.888889e+00	 1.000015e+01
0	 9.555556e+00	 8.962963e+00	 1.000004e+01
0	 9.555556e+00	 9.037037e+00	 9.999953e+00
0	 9.555556e+00	 9.111111e+00	 9.999881e+00
0	 9.555556e+00	 9.185185e+00	 9.999828e+00
0	 9.555556e+00	 9.259259e+00	 9.999792e+00
0	 9.629630e+00	 8.888889e+00	 9.999669e+00
0	 9.629630e+00	 8.962963e+00	 9.999600e+00
0	 9.629630e+00	 9.037037e+00	 9.999550e+00
0	 9.629630e+00	 9.111111e+00	 9.999519e+00
0	 9.629630e+00	 9.185185e+00	 9.999506e+00
0	 9.629630e+00	 9.259259e+00	 9.999511e+00
0	 9.259259e+00	 9.259259e+00	 1.000075e+01
0	 9.259259e+00	 9.333333e+00	 1.000059e+01
0	 9.259259e+00	 9.407407e+00	 1.000045e+01
0	 9.259259e+00	 9.481481e+00	 1.000034e+01
0	 9.259259e+00	 9.555556e+00	 1.000024e+01
0	 9.259259e+00	 9.629630e+00	 1.000016e+01
0	 9.333333e+00	 9.259259e+00	 1.000053e+01
0	 9.333333e+00	 9.333333e+00	 1.000041e+01
0	 9.333333e+00	 9.407407e+00	 1.000030e+01
0	 9.333333e+00	 9.481481e+00	 1.000021e+01
0	 9.333333e+00	 9.555556e+00	 1.000014e+01
0	 9.333333e+00	 9.629630e+00	 1.000009e+01
0	 9.407407e+00	 9.259259e+00	 1.000030e+01
0	 9.407407e+00	 9.333333e+00	 1.000021e+01
0	 9.407407e+00	 9.407407e+00	 1.000013e+01
0	 9.407407e+00	 9.481481e+00	 1.000007e+01
0	 9.407407e+00	 9.555556e+00	 1.000004e+01
0	 9.407407e+00	 9.629630e+00	 1.000002e+01
0	 9.481481e+00	 9.259259e+00	 1.000005e+01
0	 9.481481e+00	 9.333333e+00	 9.999996e+00
0	 9.481481e+00	 9.407407e+00	 9.999954e+00
0	 9.481481e+00	 9.481481e+00	 9.999930e+00
0	 9.481481e+00	 9.555556e+00	 9.999923e+00
0	 9.481481e+00	 9.629630e+00	 9.999934e+00
0	 9.555556e+00	 9.259259e+00	 9.999792e+00
0	 9.555556e+00	 9.333333e+00	 9.999771e+00
0	 9.555556e+00	 9.407407e+00	 9.999766e+00
0	 9.555556e+00	 9.481481e+00	 9.999776e+00
0	 9.555556e+00	 9.555556e+00	 9.999802e+00
0	 9.555556e+00	 9.629630e+00	 9.999845e+00
0	 9.629630e+00	 9.259259e+00	 9.999511e+00
0	 9.629630e+00	 9.333333e+00	 9.999532e+00
0	 9.629630e+00	 9.407407e+00	 9.999566e+00
0	 9.629630e+00	 9.481481e+00	 9.999613e+00
0	 9.629630e+00	 9.555556e+00	 9.999674e+00
0	 9.629630e+00	 9.629630e+00	 9.999749e+00
0	 9.259259e+00	 9.629630e+00	 1.000016e+01
0	 9.259259e+00	 9.703704e+00	 1.000010e+01
0	 9.259259e+00	 9.777778e+00	 1.000005e+01
0	 9.259259e+00	 9.851852e+00	 1.000002e+01
0	 9.259259e+00	 9.925926e+00	 1.000000e+01
0	 9.259259e+00	 1.000000e+01	 1.000001e+01
0	 9.333333e+00	 9.629630e+00	 1.000009e+01
0	 9.333333e+00	 9.703704e+00	 1.000006e+01
0	 9.333333e+00	 9.777778e+00	 1.000003e+01
0	 9.333333e+00	 9.851852e+00	 1.000001e+01
0	 9.333333e+00	 9.925926e+00	 1.000000e+01
0	 9.333333e+00	 1.000000e+01	 1.000002e+01
0	 9.407407e+00	 9.629630e+00	 1.000002e+01
0	 9.407407e+00	 9.703704e+00	 1.000001e+01
0	 9.407407e+00	 9.777778e+00	 9.999997e+00
0	 9.407407e+00	 9.851852e+00	 9.999993e+00
0	 9.407407e+00	 9.925926e+00	 9.999999e+00
0	 9.407407e+00	 1.000000e+01	 1.000002e+01
0	 9.481481e+00	 9.629630e+00	 9.999934e+00
0	 9.481481e+00	 9.703704e+00	 9.999950e+00
0	 9.481481e+00	 9.777778e+00	 9.999961e+00
0	 9.481481e+00	 9.851852e+00	 9.999972e+00
0	 9.481481e+00	 9.925926e+00	 9.999990e+00
0	 9.481481e+00	 1.000000e+01	 1.000002e+01
0	 9.555556e+00	 9.629630e+00	 9.999845e+00
0	 9.555556e+00	 9.703704e+00	 9.999888e+00
0	 9.555556e+00	 9.777778e+00	 9.999920e+00
0	 9.555556e+00	 9.851852e+00	 9.999948e+00
0	 9.555556e+00	 9.925926e+00	 9.999980e+00
0	 9.555556e+00	 1.000000e+01	 1.000002e+01
0	 9.629630e+00	 9.629630e+00	 9.999749e+00
0	 9.629630e+00	 9.703704e+00	 9.999820e+00
0	 9.629630e+00	 9.777778e+00	 9.999874e+00
0	 9.629630e+00	 9.851852e+00	 9.999922e+00
0	 9.629630e+00	 9.925926e+00	 9.999973e+00
0	 9.629630e+00	 1.000000e+01	 1.000004e+01
0	 9.629630e+00	 0.000000e+00	 9.733742e+00
0	 9.629630e+00	 7.407407e-02	 9.733852e+00
0	 9.629630e+00	 1.481481e-01	 9.734181e+00
0	 9.629630e+00	 2.222222e-01	 9.734728e+00
0	 9.629630e+00	 2.962963e-01	 9.735495e+00
0	 9.629630e+00	 3.703704e-01	 9.736481e+00
0	 9.703704e+00	 0.000000e+00	 9.719374e+00
0	 9.703704e+00	 7.407407e-02	 9.719490e+00
0	 9.703704e+00	 1.481481e-01	 9.719836e+00
0	 9.703704e+00	 2.222222e-01	 9.720411e+00
0	 9.703704e+00	 2.962963e-01	 9.721218e+00
0	 9.703704e+00	 3.703704e-01	 9.722254e+00
0	 9.777778e+00	 0.000000e+00	 9.704564e+00
0	 9.777778e+00	 7.407407e-02	 9.704686e+00
0	 9.777778e+00	 1.481481e-01	 9.705050e+00
0	 9.777778e+00	 2.222222e-01	 9.705657e+00
0	 9.777778e+00	 2.962963e-01	 9.706505e+00
0	 9.777778e+00	 3.703704e-01	 9.707597e+00
0	 9.851852e+00	 0.000000e+00	 9.689272e+00
0	 9.851852e+00	 7.407407e-02	 9.689401e+00
0	 9.851852e+00	 1.481481e-01	 9.689784e+00
0	 9.851852e+00	 2.222222e-01	 9.690424e+00
0	 9.851852e+00	 2.962963e-01	 9.691319e+00
0	 9.851852e+00	 3.703704e-01	 9.692470e+00
0	 9.925926e+00	 0.000000e+00	 9.673456e+00
0	 9.925926e+00	 7.407407e-02	 9.673592e+00
0	 9.925926e+00	 1.481481e-01	 9.673997e+00
0	 9.925926e+00	 2.222222e-01	 9.674672e+00
0	 9.925926e+00	 2.962963e-01	 9.675617e+00
0	 9.925926e+00	 3.703704e-01	 9.676833e+00
0	 1.000000e+01	 0.000000e+00	 9.657076e+00
0	 1.000000e+01	 7.407407e-02	 9.657220e+00
0	 1.000000e+01	 1.481481e-01	 9.657648e+00
0	 1.000000e+01	 2.222222e-01	 9.658362e+00
0	 1.000000e+01	 2.962963e-01	 9.659361e+00
0	 1.000000e+01	 3.703704e-01	 9.660647e+00
0	 9.629630e+00	 3.703704e-01	 9.736481e+00
0	 9.629630e+00	 4.444444e-01	 9.737681e+00
0	 9.629630e+00	 5.185185e-01	 9.739086e+00
0	 9.629630e+00	 5.925926e-01	 9.740699e+00
0	 9.629630e+00	 6.666667e-01	 9.742521e+00
0	 9.629630e+00	 7.407407e-01	 9.744551e+00
0	 9.703704e+00	 3.703704e-01	 9.722254e+00
0	 9.703704e+00	 4.444444e-01	 9.723515e+00
0	 9.703704e+00	 5.185185e-01	 9.724993e+00
0	 9.703704e+00	 5.925926e-01	 9.726689e+00
0	 9.703704e+00	 6.666667e-01	 9.728604e+00
0	 9.703704e+00	 7.407407e-01	 9.730739e+00
0	 9.777778e+00	 3.703704e-01	 9.707597e+00
0	 9.777778e+00	 4.444444e-01	 9.708924e+00
0	 9.777778e+00	 5.185185e-01	 9.710480e+00
0	 9.777778e+00	 5.925926e-01	 9.712266e+00
0	 9.777778e+00	 6.666667e-01	 9.714282e+00
0	 9.777778e+00	 7.407407e-01	 9.716529e+00
0	 9.851852e+00	 3.703704e-01	 9.692470e+00
0	 9.851852e+00	 4.444444e-01	 9.693869e+00
0	 9.851852e+00	 5.185185e-01	 9.695510e+00
0	 9.851852e+00	 5.925926e-01	 9.697392e+00
0	 9.851852e+00	 6.666667e-01	 9.699517e+00
0	 9.851852e+00	 7.407407e-01	 9.701887e+00
0	 9.925926e+00	 3.703704e-01	 9.676833e+00
0	 9.925926e+00	 4.444444e-01	 9.678311e+00
0	 9.925926e+00	 5.185185e-01	 9.680043e+00
0	 9.925926e+00	 5.925926e-01	 9.682030e+00
0	 9.925926e+00	 6.666667e-01	 9.684274e+00
0	 9.925926e+00	 7.407407e-01	 9.686775e+00
0	 1.000000e+01	 3.703704e-01	 9.660647e+00
0	 1.000000e+01	 4.444444e-01	 9.662210e+00
0	 1.000000e+01	 5.185185e-01	 9.664041e+00
0	 1.000000e+01	 5.925926e-01	 9.666143e+00
0	 1.000000e+01	 6.666667e-01	 9.668515e+00
0	 1.000000e+01	 7.407407e-01	 9.671160e+00
0	 9.629630e+00	 7.407407e-01	 9.744551e+00
0	 9.629630e+00	 8.148148e-01	 9.746778e+00
0	 9.629630e+00	 8.888889e-01	 9.749189e+00
0	 9.629630e+00	 9.629630e-01	 9.751784e+00
0	 9.629630e+00	 1.037037e+00	 9.754566e+00
0	 9.629630e+00	 1.111111e+00	 9.757535e+00
0	 9.703704e+00	 7.407407e-01	 9.730739e+00
0	 9.703704e+00	 8.148148e-01	 9.733080e+00
0	 9.703704e+00	 8.888889e-01	 9.735614e+00
0	 9.703704e+00	 9.629630e-01	 9.738342e+00
0	 9.703704e+00	 1.037037e+00	 9.741266e+00
0	 9.703704e+00	 1.111111e+00	 9.744387e+00
0	 9.777778e+00	 7.407407e-01	 9.716529e+00
0	 9.777778e+00	 8.148148e-01	 9.718993e+00
0	 9.777778e+00	 8.888889e-01	 9.721661e+00
0	 9.777778e+00	 9.629630e-01	 9.724533e+00
0	 9.777778e+00	 1.037037e+00	 9.727611e+00
0	 9.777778e+00	 1.111111e+00	 9.730896e+00
0	 9.851852e+00	 7.407407e-01	 9.701887e+00
0	 9.851852e+00	 8.148148e-01	 9.704484e+00
0	 9.851852e+00	 8.888889e-01	 9.707296e+00
0	 9.851852e+00	 9.629630e-01	 9.710324e+00
0	 9.851852e+00	 1.037037e+00	 9.713568e+00
0	 9.851852e+00	 1.111111e+00	 9.717031e+00
0	 9.925926e+00	 7.407407e-01	 9.686775e+00
0	 9.925926e+00	 8.148148e-01	 9.689518e+00
0	 9.925926e+00	 8.888889e-01	 9.692486e+00
0	 9.925926e+00	 9.629630e-01	 9.695682e+00
0	 9.925926e+00	 1.037037e+00	 9.699106e+00
0	 9.925926e+00	 1.111111e+00	 9.702761e+00
0	 1.000000e+01	 7.407407e-01	 9.671160e+00
0	 1.000000e+01	 8.148148e-01	 9.674059e+00
0	 1.000000e+01	 8.888889e-01	 9.677196e+00
0	 1.000000e+01	 9.629630e-01	 9.680574e+00
0	 1.000000e+01	 1.037037e+00	 9.684193e+00
0	 1.000000e+01	 1.111111e+00	 9.688056e+00
0	 9.629630e+00	 1.111111e+00	 9.757535e+00
0	 9.629630e+00	 1.185185e+00	 9.760674e+00
0	 9.629630e+00	 1.259259e+00	 9.763966e+00
0	 9.629630e+00	 1.333333e+00	 9.767411e+00
0	 9.629630e+00	 1.407407e+00	 9.771012e+00
0	 9.629630e+00	 1.481481e+00	 9.774770e+00
0	 9.703704e+00	 1.111111e+00	 9.744387e+00
0	 9.703704e+00	 1.185185e+00	 9.747687e+00
0	 9.703704e+00	 1.259259e+00	 9.751147e+00
0	 9.703704e+00	 1.333333e+00	 9.754769e+00
0	 9.703704e+00	 1.407407e+00	 9.758553e+00
0	 9.703704e+00	 1.481481e+00	 9.762504e+00
0	 9.777778e+00	 1.111111e+00	 9.730896e+00
0	 9.777778e+00	 1.185185e+00	 9.734369e+00
0	 9.777778e+00	 1.259259e+00	 9.738011e+00
0	 9.777778e+00	 1.333333e+00	 9.741822e+00
0	 9.777778e+00	 1.407407e+00	 9.745805e+00
0	 9.777778e+00	 1.481481e+00	 9.749962e+00
0	 9.851852e+00	 1.111111e+00	 9.717031e+00
0	 9.851852e+00	 1.185185e+00	 9.720691e+00
0	 9.851852e+00	 1.259259e+00	 9.724529e+00
0	 9.851852e+00	 1.333333e+00	 9.728545e+00
0	 9.851852e+00	 1.407407e+00	 9.732742e+00
0	 9.851852e+00	 1.481481e+00	 9.737122e+00
0	 9.925926e+00	 1.111111e+00	 9.702761e+00
0	 9.925926e+00	 1.185185e+00	 9.706624e+00
0	 9.925926e+00	 1.259259e+00	 9.710674e+00
0	 9.925926e+00	 1.333333e+00	 9.714911e+00
0	 9.925926e+00	 1.407407e+00	 9.719340e+00
0	 9.925926e+00	 1.481481e+00	 9.723960e+00
0	 1.000000e+01	 1.111111e+00	 9.688056e+00
0	 1.000000e+01	 1.185185e+00	 9.692138e+00
0	 1.000000e+01	 1.259259e+00	 9.696417e+00
0	 1.000000e+01	 1.333333e+00	 9.700894e+00
0	 1.000000e+01	 1.407407e+00	 9.705572e+00
0	 1.000000e+01	 1.481481e+00	 9.710453e+00
0	 9.629630e+00	 1.481481e+00	 9.774770e+00
0	 9.629630e+00	 1.555556e+00	 9.778664e+00
0	 9.629630e+00	 1.629630e+00	 9.782673e+00
0	 9.629630e+00	 1.703704e+00	 9.786798e+00
0	 9.629630e+00	 1.777778e+00	 9.791041e+00
0	 9.629630e+00	 1.851852e+00	 9.795405e+00
0	 9.703704e+00	 1.481481e+00	 9.762504e+00
0	 9.703704e+00	 1.555556e+00	 9.766596e+00
0	 9.703704e+00	 1.629630e+00	 9.770810e+00
0	 9.703704e+00	 1.703704e+00	 9.775145e+00
0	 9.703704e+00	 1.777778e+00	 9.779605e+00
0	 9.703704e+00	 1.851852e+00	 9.784191e+00
0	 9.777778e+00	 1.481481e+00	 9.749962e+00
0	 9.777778e+00	 1.555556e+00	 9.754269e+00
0	 9.777778e+00	 1.629630e+00	 9.758702e+00
0	 9.777778e+00	 1.703704e+00	 9.763264e+00
0	 9.777778e+00	 1.777778e+00	 9.767956e+00
0	 9.777778e+00	 1.851852e+00	 9.772781e+00
0	 9.851852e+00	 1.481481e+00	 9.737122e+00
0	 9.851852e+00	 1.555556e+00	 9.741660e+00
0	 9.851852e+00	 1.629630e+00	 9.746330e+00
0	 9.851852e+00	 1.703704e+00	 9.751135e+00
0	 9.851852e+00	 1.777778e+00	 9.756077e+00
0	 9.851852e+00	 1.851852e+00	 9.761158e+00
0	 9.925926e+00	 1.481481e+00	 9.723960e+00
0	 9.925926e+00	 1.555556e+00	 9.728746e+00
0	 9.925926e+00	 1.629630e+00	 9.733672e+00
0	 9.925926e+00	 1.703704e+00	 9.738739e+00
0	 9.925926e+00	 1.777778e+00	 9.743951e+00
0	 9.925926e+00	 1.851852e+00	 9.749308e+00
0	 1.000000e+01	 1.481481e+00	 9.710453e+00
0	 1.000000e+01	 1.555556e+00	 9.715507e+00
0	 1.000000e+01	 1.629630e+00	 9.720709e+00
0	 1.000000e+01	 1.703704e+00	 9.726059e+00
0	 1.000000e+01	 1.777778e+00	 9.731560e+00
0	 1.000000e+01	 1.851852e+00	 9.737215e+00
0	 9.629630e+00	 1.851852e+00	 9.795405e+00
0	 9.629630e+00	 1.925926e+00	 9.799866e+00
0	 9.629630e+00	 2.000000e+00	-5.972108e+07
0	 9.629630e+00	 2.074074e+00	-8.358464e+06
0	 9.629630e+00	 2.148148e+00	-6.833210e+06
0	 9.629630e+00	 2.222222e+00	 9.818463e+00
0	 9.703704e+00	 1.851852e+00	-1.453360e+07
0	 9.703704e+00	 1.925926e+00	-9.960886e+14
0	 9.703704e+00	 2.000000e+00	 4.913650e+07
0	 9.703704e+00	 2.074074e+00	 1.327861e+07
0	 9.703704e+00	 2.148148e+00	 2.014689e+07
0	 9.703704e+00	 2.222222e+00	 9.808421e+00
0	 9.777778e+00	 1.851852e+00	-1.055176e+07
0	 9.777778e+00	 1.925926e+00	-8.080680e+15
0	 9.777778e+00	 2.000000e+00	 3.432574e+07
0	 9.777778e+00	 2.074074e+00	 5.820567e+06
0	 9.777778e+00	 2.148148e+00	 6.654464e+06
0	 9.777778e+00	 2.222222e+00	 9.798265e+00
0	 9.851852e+00	 1.851852e+00	-9.368301e+06
0	 9.851852e+00	 1.925926e+00	 2.065212e+15
0	 9.851852e+00	 2.000000e+00	 1.051979e+08
0	 9.851852e+00	 2.074074e+00	 5.898515e+06
0	 9.851852e+00	 2.148148e+00	 6.440046e+06
0	 9.851852e+00	 2.222222e+00	 9.787989e+00
0	 9.925926e+00	 1.851852e+00	-9.553505e+06
0	 9.925926e+00	 1.925926e+00	 7.100392e+15
0	 9.925926e+00	 2.000000e+00	-2.588918e+07
0	 9.925926e+00	 2.074074e+00	 1.466875e+07
0	 9.925926e+00	 2.148148e+00	 1.554285e+07
0	 9.925926e+00	 2.222222e+00	 9.777585e+00
0	 1.000000e+01	 1.851852e+00	 9.737215e+00
0	 1.000000e+01	 1.925926e+00	 9.742992e+00
0	 1.000000e+01	 2.000000e+00	 9.748861e+00
0	 1.000000e+01	 2.074074e+00	 9.754825e+00
0	 1.000000e+01	 2.148148e+00	 9.760886e+00
0	 1.000000e+01	 2.222222e+00	 9.767046e+00
0	 9.629630e+00	 2.222222e+00	-5.179611e+16
0	 9.629630e+00	 2.296296e+00	 4.999865e+15
0	 9.629630e+00	 2.370370e+00	-7.953501e+07
0	 9.629630e+00	 2.444444e+00	 3.765907e+07
0	 9.629630e+00	 2.518519e+00	 2.215275e+07
0	 9.629630e+00	 2.592593e+00	 9.842910e+00
0	 9.703704e+00	 2.222222e+00	 4.476622e+07
0	 9.703704e+00	 2.296296e+00	 8.442087e+14
0	 9.703704e+00	 2.370370e+00	-7.231113e+06
0	 9.703704e+00	 2.444444e+00	-8.014226e+06
0	 9.703704e+00	 2.518519e+00	-1.414054e+07
0	 9.703704e+00	 2.592593e+00	 9.834105e+00
0	 9.777778e+00	 2.222222e+00	 2.048789e+07
0	 9.777778e+00	 2.296296e+00	 3.777105e+16
0	 9.777778e+00	 2.370370e+00	-4.947511e+06
0	 9.777778e+00	 2.444444e+00	-4.941103e+06
0	 9.777778e+00	 2.518519e+00	-7.651905e+06
0	 9.777778e+00	 2.592593e+00	 9.825269e+00
0	 9.851852e+00	 2.222222e+00	 1.654952e+07
0	 9.851852e+00	 2.296296e+00	 6.074532e+15
0	 9.851852e+00	 2.370370e+00	-4.904713e+06
0	 9.851852e+00	 2.444444e+00	-4.853066e+06
0	 9.851852e+00	 2.518519e+00	-7.428960e+06
0	 9.851852e+00	 2.592593e+00	 9.816403e+00
0	 9.925926e+00	 2.222222e+00	 1.750134e+07
0	 9.925926e+00	 2.296296e+00	 4.589595e+15
0	 9.925926e+00	 2.370370e+00	-6.973571e+06
0	 9.925926e+00	 2.444444e+00	-7.375748e+06
0	 9.925926e+00	 2.518519e+00	-1.214653e+07
0	 9.925926e+00	 2.592593e+00	 9.807506e+00
0	 1.000000e+01	 2.222222e+00	 9.767046e+00
0	 1.000000e+01	 2.296296e+00	 9.773274e+00
0	 1.000000e+01	 2.370370e+00	 9.779539e+00
0	 1.000000e+01	 2.444444e+00	 9.785844e+00
0	 1.000000e+01	 2.518519e+00	 9.792190e+00
0	 1.000000e+01	 2.592593e+00	 9.798581e+00
0	 9.629630e+00	 2.592593e+00	-6.364624e+15
0	 9.629630e+00	 2.666667e+00	 7.059955e+15
0	 9.629630e+00	 2.740741e+00	-5.418229e+07
0	 9.629630e+00	 2.814815e+00	-1.301150e+07
0	 9.629630e+00	 2.888889e+00	-6.845096e+06
0	 9.629630e+00	 2.962963e+00	 9.867725e+00
0	 9.703704e+00	 2.592593e+00	-3.500748e+06
0	 9.703704e+00	 2.666667e+00	-1.082232e+15
0	 9.703704e+00	 2.740741e+00	 1.700701e+07
0	 9.703704e+00	 2.814815e+00	 1.239479e+08
0	 9.703704e+00	 2.888889e+00	-1.140583e+07
0	 9.703704e+00	 2.962963e+00	 9.860169e+00
0	 9.777778e+00	 2.592593e+00	-3.150774e+06
0	 9.777778e+00	 2.666667e+00	-1.031777e+18
0	 9.777778e+00	 2.740741e+00	 1.048948e+07
0	 9.777778e+00	 2.814815e+00	 2.129457e+07
0	 9.777778e+00	 2.888889e+00	-1.550073e+07
0	 9.777778e+00	 2.962963e+00	 9.852659e+00
0	 9.851852e+00	 2.592593e+00	-2.882182e+06
0	 9.851852e+00	 2.666667e+00	-2.947911e+17
0	 9.851852e+00	 2.740741e+00	 1.098379e+07
0	 9.851852e+00	 2.814815e+00	 2.518335e+07
0	 9.851852e+00	 2.888889e+00	-1.303952e+07
0	 9.851852e+00	 2.962963e+00	 9.845202e+00
0	 9.925926e+00	 2.592593e+00	-2.671091e+06
0	 9.925926e+00	 2.666667e+00	-1.228449e+17
0	 9.925926e+00	 2.740741e+00	 2.182220e+07
0	 9.925926e+00	 2.814815e+00	-7.246456e+07
0	 9.925926e+00	 2.888889e+00	-8.045796e+06
0	 9.925926e+00	 2.962963e+00	 9.837806e+00
0	 1.000000e+01	 2.592593e+00	 9.798581e+00
0	 1.000000e+01	 2.666667e+00	 9.804986e+00
0	 1.000000e+01	 2.740741e+00	 9.811376e+00
0	 1.000000e+01	 2.814815e+00	 9.817753e+00
0	 1.000000e+01	 2.888889e+00	 9.824120e+00
0	 1.000000e+01	 2.962963e+00	 9.830478e+00
0	 9.629630e+00	 2.962963e+00	-3.560496e+16
0	 9.629630e+00	 3.037037e+00	-5.859330e+16
0	 9.629630e+00	 3.111111e+00	-2.962879e+06
0	 9.629630e+00	 3.185185e+00	-2.693804e+06
0	 9.629630e+00	 3.259259e+00	-2.568421e+06
0	 9.629630e+00	 3.333333e+00	 9.891961e+00
0	 9.703704e+00	 2.962963e+00	-2.472934e+06
0	 9.703704e+00	 3.037037e+00	-1.596776e+15
0	 9.703704e+00	 3.111111e+00	-2.501012e+06
0	 9.703704e+00	 3.185185e+00	-2.286068e+06
0	 9.703704e+00	 3.259259e+00	-2.283682e+06
0	 9.703704e+00	 3.333333e+00	 9.885617e+00
0	 9.777778e+00	 2.962963e+00	-2.553991e+06
0	 9.777778e+00	 3.037037e+00	 1.482775e+15
0	 9.777778e+00	 3.111111e+00	-2.224498e+06
0	 9.777778e+00	 3.185185e+00	-2.022048e+06
0	 9.777778e+00	 3.259259e+00	-2.033586e+06
0	 9.777778e+00	 3.333333e+00	 9.879386e+00
0	 9.851852e+00	 2.962963e+00	-2.357587e+06
0	 9.851852e+00	 3.037037e+00	 1.255890e+15
0	 9.851852e+00	 3.111111e+00	-2.055139e+06
0	 9.851852e+00	 3.185185e+00	-1.843153e+06
0	 9.851852e+00	 3.259259e+00	-1.815177e+06
0	 9.851852e+00	 3.333333e+00	 9.873281e+00
0	 9.925926e+00	 2.962963e+00	-1.990699e+06
0	 9.925926e+00	 3.037037e+00	 5.260635e+15
0	 9.925926e+00	 3.111111e+00	-1.957153e+06
0	 9.925926e+00	 3.185185e+00	-1.719950e+06
0	 9.925926e+00	 3.259259e+00	-1.624955e+06
0	 9.925926e+00	 3.333333e+00	 9.867315e+00
0	 1.000000e+01	 2.962963e+00	 9.830478e+00
0	 1.000000e+01	 3.037037e+00	 9.836802e+00
0	 1.000000e+01	 3.111111e+00	 9.843064e+00
0	 1.000000e+01	 3.185185e+00	 9.849267e+00
0	 1.000000e+01	 3.259259e+00	 9.855412e+00
0	 1.000000e+01	 3.333333e+00	 9.861502e+00
0	 9.629630e+00	 3.333333e+00	 7.829840e+15
0	 9.629630e+00	 3.407407e+00	 1.077401e+15
0	 9.629630e+00	 3.481481e+00	-2.437344e+06
0	 9.629630e+00	 3.555556e+00	-2.353180e+06
0	 9.629630e+00	 3.629630e+00	-2.236375e+06
0	 9.629630e+00	 3.703704e+00	 9.914789e+00
0	 9.703704e+00	 3.333333e+00	-1.951959e+06
0	 9.703704e+00	 3.407407e+00	-2.142931e+14
0	 9.703704e+00	 3.481481e+00	-2.681203e+06
0	 9.703704e+00	 3.555556e+00	-2.646610e+06
0	 9.703704e+00	 3.629630e+00	-2.480169e+06
0	 9.703704e+00	 3.703704e+00	 9.909579e+00
0	 9.777778e+00	 3.333333e+00	-2.009293e+06
0	 9.777778e+00	 3.407407e+00	-1.003284e+19
0	 9.777778e+00	 3.481481e+00	-2.526638e+06
0	 9.777778e+00	 3.555556e+00	-2.522158e+06
0	 9.777778e+00	 3.629630e+00	-2.366564e+06
0	 9.777778e+00	 3.703704e+00	 9.904536e+00
0	 9.851852e+00	 3.333333e+00	-1.896802e+06
0	 9.851852e+00	 3.407407e+00	 1.394809e+20
0	 9.851852e+00	 3.481481e+00	-2.088399e+06
0	 9.851852e+00	 3.555556e+00	-2.079003e+06
0	 9.851852e+00	 3.629630e+00	-1.978946e+06
0	 9.851852e+00	 3.703704e+00	 9.899677e+00
0	 9.925926e+00	 3.333333e+00	-1.664077e+06
0	 9.925926e+00	 3.407407e+00	 8.020164e+19
0	 9.925926e+00	 3.481481e+00	-1.607139e+06
0	 9.925926e+00	 3.555556e+00	-1.583566e+06
0	 9.925926e+00	 3.629630e+00	-1.534707e+06
0	 9.925926e+00	 3.703704e+00	 9.895021e+00
0	 1.000000e+01	 3.333333e+00	 9.861502e+00
0	 1.000000e+01	 3.407407e+00	 9.867514e+00
0	 1.000000e+01	 3.481481e+00	 9.873427e+00
0	 1.000000e+01	 3.555556e+00	 9.879242e+00
0	 1.000000e+01	 3.629630e+00	 9.884961e+00
0	 1.000000e+01	 3.703704e+00	 9.890585e+00
0	 9.629630e+00	 3.703704e+00	 3.184275e+16
0	 9.629630e+00	 3.777778e+00	 1.139917e+20
0	 9.629630e+00	 3.851852e+00	-1.818180e+06
0	 9.629630e+00	 3.925926e+00	-1.685341e+06
0	 9.629630e+00	 4.000000e+00	-1.564068e+06
0	 9.629630e+00	 4.074074e+00	 9.935543e+00
0	 9.703704e+00	 3.703704e+00	-1.358194e+06
0	 9.703704e+00	 3.777778e+00	-4.078052e+13
0	 9.703704e+00	 3.851852e+00	-1.806287e+06
0	 9.703704e+00	 3.925926e+00	-1.631654e+06
0	 9.703704e+00	 4.000000e+00	-1.489971e+06
0	 9.703704e+00	 4.074074e+00	 9.931355e+00
0	 9.777778e+00	 3.703704e+00	-1.283822e+06
0	 9.777778e+00	 3.777778e+00	-5.214965e+16
0	 9.777778e+00	 3.851852e+00	-1.697164e+06
0	 9.777778e+00	 3.925926e+00	-1.529718e+06
0	 9.777778e+00	 4.000000e+00	-1.397449e+06
0	 9.777778e+00	 4.074074e+00	 9.927374e+00
0	 9.851852e+00	 3.703704e+00	-1.213663e+06
0	 9.851852e+00	 3.777778e+00	-2.713146e+16
0	 9.851852e+00	 3.851852e+00	-1.522459e+06
0	 9.851852e+00	 3.925926e+00	-1.396848e+06
0	 9.851852e+00	 4.000000e+00	-1.294203e+06
0	 9.851852e+00	 4.074074e+00	 9.923619e+00
0	 9.925926e+00	 3.703704e+00	-1.147638e+06
0	 9.925926e+00	 3.777778e+00	-2.829652e+16
0	 9.925926e+00	 3.851852e+00	-1.321875e+06
0	 9.925926e+00	 3.925926e+00	-1.250870e+06
0	 9.925926e+00	 4.000000e+00	-1.187051e+06
0	 9.925926e+00	 4.074074e+00	 9.920113e+00
0	 1.000000e+01	 3.703704e+00	 9.890585e+00
0	 1.000000e+01	 3.777778e+00	 9.896097e+00
0	 1.000000e+01	 3.851852e+00	 9.901481e+00
0	 1.000000e+01	 3.925926e+00	 9.906738e+00
0	 1.000000e+01	 4.000000e+00	 9.911869e+00
0	 1.000000e+01	 4.074074e+00	 9.916875e+00
0	 9.629630e+00	 4.074074e+00	 1.317945e+16
0	 9.629630e+00	 4.148148e+00	-8.682500e+15
0	 9.629630e+00	 4.222222e+00	-1.281940e+06
0	 9.629630e+00	 4.296296e+00	-1.214151e+06
0	 9.629630e+00	 4.370370e+00	-1.157190e+06
0	 9.629630e+00	 4.444444e+00	 9.953733e+00
0	 9.703704e+00	 4.074074e+00	-1.067076e+06
0	 9.703704e+00	 4.148148e+00	 5.923116e+12
0	 9.703704e+00	 4.222222e+00	-1.220412e+06
0	 9.703704e+00	 4.296296e+00	-1.171219e+06
0	 9.703704e+00	 4.370370e+00	-1.134428e+06
0	 9.703704e+00	 4.444444e+00	 9.950432e+00
0	 9.777778e+00	 4.074074e+00	-1.076048e+06
0	 9.777778e+00	 4.148148e+00	-4.854338e+17
0	 9.777778e+00	 4.222222e+00	-1.162741e+06
0	 9.777778e+00	 4.296296e+00	-1.127237e+06
0	 9.777778e+00	 4.370370e+00	-1.104212e+06
0	 9.777778e+00	 4.444444e+00	 9.947362e+00
0	 9.851852e+00	 4.074074e+00	-1.068177e+06
0	 9.851852e+00	 4.148148e+00	-1.194672e+17
0	 9.851852e+00	 4.222222e+00	-1.108660e+06
0	 9.851852e+00	 4.296296e+00	-1.082766e+06
0	 9.851852e+00	 4.370370e+00	-1.067772e+06
0	 9.851852e+00	 4.444444e+00	 9.944545e+00
0	 9.925926e+00	 4.074074e+00	-1.044169e+06
0	 9.925926e+00	 4.148148e+00	-4.197253e+16
0	 9.925926e+00	 4.222222e+00	-1.057923e+06
0	 9.925926e+00	 4.296296e+00	-1.038296e+06
0	 9.925926e+00	 4.370370e+00	-1.026458e+06
0	 9.925926e+00	 4.444444e+00	 9.942004e+00
0	 1.000000e+01	 4.074074e+00	 9.916875e+00
0	 1.000000e+01	 4.148148e+00	 9.921745e+00
0	 1.000000e+01	 4.222222e+00	 9.926468e+00
0	 1.000000e+01	 4.296296e+00	 9.931044e+00
0	 1.000000e+01	 4.370370e+00	 9.935475e+00
0	 1.000000e+01	 4.444444e+00	 9.939761e+00
0	 9.629630e+00	 4.444444e+00	-1.749670e+16
0	 9.629630e+00	 4.518519e+00	-1.564881e+16
0	 9.629630e+00	 4.592593e+00	-1.037422e+06
0	 9.629630e+00	 4.666667e+00	-1.011215e+06
0	 9.629630e+00	 4.740741e+00	-9.894906e+05
0	 9.629630e+00	 4.814815e+00	 9.969055e+00
0	 9.703704e+00	 4.444444e+00	-9.510000e+05
0	 9.703704e+00	 4.518519e+00	-2.352782e+13
0	 9.703704e+00	 4.592593e+00	-1.053166e+06
0	 9.703704e+00	 4.666667e+00	-1.025714e+06
0	 9.703704e+00	 4.740741e+00	-9.976990e+05
0	 9.703704e+00	 4.814815e+00	 9.966492e+00
0	 9.777778e+00	 4.444444e+00	-9.437076e+05
0	 9.777778e+00	 4.518519e+00	 2.528308e+16
0	 9.777778e+00	 4.592593e+00	-1.051084e+06
0	 9.777778e+00	 4.666667e+00	-1.024449e+06
0	 9.777778e+00	 4.740741e+00	-9.940416e+05
0	 9.777778e+00	 4.814815e+00	 9.964171e+00
0	 9.851852e+00	 4.444444e+00	-9.331870e+05
0	 9.851852e+00	 4.518519e+00	 1.729703e+16
0	 9.851852e+00	 4.592593e+00	-1.031370e+06
0	 9.851852e+00	 4.666667e+00	-1.007524e+06
0	 9.851852e+00	 4.740741e+00	-9.787688e+05
0	 9.851852e+00	 4.814815e+00	 9.962113e+00
0	 9.925926e+00	 4.444444e+00	-9.196555e+05
0	 9.925926e+00	 4.518519e+00	 5.896829e+15
0	 9.925926e+00	 4.592593e+00	-9.959352e+05
0	 9.925926e+00	 4.666667e+00	-9.764374e+05
0	 9.925926e+00	 4.740741e+00	-9.529216e+05
0	 9.925926e+00	 4.814815e+00	 9.960341e+00
0	 1.000000e+01	 4.444444e+00	 9.939761e+00
0	 1.000000e+01	 4.518519e+00	 9.943896e+00
0	 1.000000e+01	 4.592593e+00	 9.947875e+00
0	 1.000000e+01	 4.666667e+00	 9.951698e+00
0	 1.000000e+01	 4.740741e+00	 9.955365e+00
0	 1.000000e+01	 4.814815e+00	 9.958877e+00
0	 9.629630e+00	 4.814815e+00	 7.148817e+15
0	 9.629630e+00	 4.888889e+00	 7.810333e+15
0	 9.629630e+00	 4.962963e+00	-9.357521e+05
0	 9.629630e+00	 5.037037e+00	-9.178973e+05
0	 9.629630e+00	 5.111111e+00	-9.000463e+05
0	 9.629630e+00	 5.185185e+00	 9.981387e+00
0	 9.703704e+00	 4.814815e+00	-8.657457e+05
0	 9.703704e+00	 4.888889e+00	 4.232607e+12
0	 9.703704e+00	 4.962963e+00	-9.241472e+05
0	 9.703704e+00	 5.037037e+00	-9.061666e+05
0	 9.703704e+00	 5.111111e+00	-8.911542e+05
0	 9.703704e+00	 5.185185e+00	 9.979411e+00
0	 9.777778e+00	 4.814815e+00	-8.651023e+05
0	 9.777778e+00	 4.888889e+00	 2.635970e+15
0	 9.777778e+00	 4.962963e+00	-9.120012e+05
0	 9.777778e+00	 5.037037e+00	-8.945894e+05
0	 9.777778e+00	 5.111111e+00	-8.816936e+05
0	 9.777778e+00	 5.185185e+00	 9.977674e+00
0	 9.851852e+00	 4.814815e+00	-8.611824e+05
0	 9.851852e+00	 4.888889e+00	 2.690327e+15
0	 9.851852e+00	 4.962963e+00	-8.993697e+05
0	 9.851852e+00	 5.037037e+00	-8.831677e+05
0	 9.851852e+00	 5.111111e+00	-8.717082e+05
0	 9.851852e+00	 5.185185e+00	 9.976195e+00
0	 9.925926e+00	 4.814815e+00	-8.540741e+05
0	 9.925926e+00	 4.888889e+00	 1.997985e+15
0	 9.925926e+00	 4.962963e+00	-8.863081e+05
0	 9.925926e+00	 5.037037e+00	-8.719034e+05
0	 9.925926e+00	 5.111111e+00	-8.612420e+05
0	 9.925926e+00	 5.185185e+00	 9.974996e+00
0	 1.000000e+01	 4.814815e+00	 9.958877e+00
0	 1.000000e+01	 4.888889e+00	 9.962234e+00
0	 1.000000e+01	 4.962963e+00	 9.965434e+00
0	 1.000000e+01	 5.037037e+00	 9.968478e+00
0	 1.000000e+01	 5.111111e+00	 9.971366e+00
0	 1.000000e+01	 5.185185e+00	 9.974098e+00
0	 9.629630e+00	 5.185185e+00	 2.412516e+15
0	 9.629630e+00	 5.259259e+00	 2.426054e+15
0	 9.629630e+00	 5.333333e+00	-8.534823e+05
0	 9.629630e+00	 5.407407e+00	-8.419663e+05
0	 9.629630e+00	 5.481481e+00	-8.322611e+05
0	 9.629630e+00	 5.555556e+00	 9.990773e+00
0	 9.703704e+00	 5.185185e+00	-8.150413e+05
0	 9.703704e+00	 5.259259e+00	-4.795720e+12
0	 9.703704e+00	 5.333333e+00	-8.556876e+05
0	 9.703704e+00	 5.407407e+00	-8.449134e+05
0	 9.703704e+00	 5.481481e+00	-8.343916e+05
0	 9.703704e+00	 5.555556e+00	 9.989238e+00
0	 9.777778e+00	 5.185185e+00	-8.137854e+05
0	 9.777778e+00	 5.259259e+00	-1.425498e+16
0	 9.777778e+00	 5.333333e+00	-8.537815e+05
0	 9.777778e+00	 5.407407e+00	-8.437596e+05
0	 9.777778e+00	 5.481481e+00	-8.330444e+05
0	 9.777778e+00	 5.555556e+00	 9.987926e+00
0	 9.851852e+00	 5.185185e+00	-8.109428e+05
0	 9.851852e+00	 5.259259e+00	-2.586329e+15
0	 9.851852e+00	 5.333333e+00	-8.478180e+05
0	 9.851852e+00	 5.407407e+00	-8.385375e+05
0	 9.851852e+00	 5.481481e+00	-8.282527e+05
0	 9.851852e+00	 5.555556e+00	 9.986856e+00
0	 9.925926e+00	 5.185185e+00	-8.065475e+05
0	 9.925926e+00	 5.259259e+00	-3.224758e+15
0	 9.925926e+00	 5.333333e+00	-8.379659e+05
0	 9.925926e+00	 5.407407e+00	-8.293971e+05
0	 9.925926e+00	 5.481481e+00	-8.201349e+05
0	 9.925926e+00	 5.555556e+00	 9.986045e+00
0	 1.000000e+01	 5.185185e+00	 9.974098e+00
0	 1.000000e+01	 5.259259e+00	 9.976677e+00
0	 1.000000e+01	 5.333333e+00	 9.979109e+00
0	 1.000000e+01	 5.407407e+00	 9.981393e+00
0	 1.000000e+01	 5.481481e+00	 9.983528e+00
0	 1.000000e+01	 5.555556e+00	 9.985514e+00
0	 9.629630e+00	 5.555556e+00	 2.343342e+15
0	 9.629630e+00	 5.629630e+00	-2.589575e+15
0	 9.629630e+00	 5.703704e+00	-8.087009e+05
0	 9.629630e+00	 5.777778e+00	-8.012521e+05
0	 9.629630e+00	 5.851852e+00	-7.938576e+05
0	 9.629630e+00	 5.925926e+00	 9.997404e+00
0	 9.703704e+00	 5.555556e+00	-7.792267e+05
0	 9.703704e+00	 5.629630e+00	 8.758497e+13
0	 9.703704e+00	 5.703704e+00	-8.062162e+05
0	 9.703704e+00	 5.777778e+00	-7.984465e+05
0	 9.703704e+00	 5.851852e+00	-7.914552e+05
0	 9.703704e+00	 5.925926e+00	 9.996178e+00
0	 9.777778e+00	 5.555556e+00	-7.784916e+05
0	 9.777778e+00	 5.629630e+00	-1.211927e+15
0	 9.777778e+00	 5.703704e+00	-8.028617e+05
0	 9.777778e+00	 5.777778e+00	-7.950770e+05
0	 9.777778e+00	 5.851852e+00	-7.884662e+05
0	 9.777778e+00	 5.925926e+00	 9.995149e+00
0	 9.851852e+00	 5.555556e+00	-7.767163e+05
0	 9.851852e+00	 5.629630e+00	-1.255411e+15
0	 9.851852e+00	 5.703704e+00	-7.986603e+05
0	 9.851852e+00	 5.777778e+00	-7.911594e+05
0	 9.851852e+00	 5.851852e+00	-7.849052e+05
0	 9.851852e+00	 5.925926e+00	 9.994333e+00
0	 9.925926e+00	 5.555556e+00	-7.739162e+05
0	 9.925926e+00	 5.629630e+00	-9.452517e+14
0	 9.925926e+00	 5.703704e+00	-7.936400e+05
0	 9.925926e+00	 5.777778e+00	-7.867114e+05
0	 9.925926e+00	 5.851852e+00	-7.807890e+05
0	 9.925926e+00	 5.925926e+00	 9.993747e+00
0	 1.000000e+01	 5.555556e+00	 9.985514e+00
0	 1.000000e+01	 5.629630e+00	 9.987358e+00
0	 1.000000e+01	 5.703704e+00	 9.989071e+00
0	 1.000000e+01	 5.777778e+00	 9.990650e+00
0	 1.000000e+01	 5.851852e+00	 9.992095e+00
0	 1.000000e+01	 5.925926e+00	 9.993404e+00
0	 9.629630e+00	 5.925926e+00	-7.049687e+14
0	 9.629630e+00	 6.000000e+00	-1.042259e+15
0	 9.629630e+00	 6.074074e+00	-7.737769e+05
0	 9.629630e+00	 6.148148e+00	-7.682716e+05
0	 9.629630e+00	 6.222222e+00	-7.633500e+05
0	 9.629630e+00	 6.296296e+00	 1.000159e+01
0	 9.703704e+00	 5.925926e+00	-7.542935e+05
0	 9.703704e+00	 6.000000e+00	-1.421658e+12
0	 9.703704e+00	 6.074074e+00	-7.737278e+05
0	 9.703704e+00	 6.148148e+00	-7.684961e+05
0	 9.703704e+00	 6.222222e+00	-7.635202e+05
0	 9.703704e+00	 6.296296e+00	 1.000056e+01
0	 9.777778e+00	 5.925926e+00	-7.539123e+05
0	 9.777778e+00	 6.000000e+00	-8.754070e+15
0	 9.777778e+00	 6.074074e+00	-7.724552e+05
0	 9.777778e+00	 6.148148e+00	-7.674798e+05
0	 9.777778e+00	 6.222222e+00	-7.625610e+05
0	 9.777778e+00	 6.296296e+00	 9.999695e+00
0	 9.851852e+00	 5.925926e+00	-7.527903e+05
0	 9.851852e+00	 6.000000e+00	-1.413917e+16
0	 9.851852e+00	 6.074074e+00	-7.699717e+05
0	 9.851852e+00	 6.148148e+00	-7.652329e+05
0	 9.851852e+00	 6.222222e+00	-7.604813e+05
0	 9.851852e+00	 6.296296e+00	 9.999005e+00
0	 9.925926e+00	 5.925926e+00	-7.509350e+05
0	 9.925926e+00	 6.000000e+00	 5.635984e+15
0	 9.925926e+00	 6.074074e+00	-7.663014e+05
0	 9.925926e+00	 6.148148e+00	-7.617779e+05
0	 9.925926e+00	 6.222222e+00	-7.573000e+05
0	 9.925926e+00	 6.296296e+00	 9.998505e+00
0	 1.000000e+01	 5.925926e+00	 9.993404e+00
0	 1.000000e+01	 6.000000e+00	 9.994591e+00
0	 1.000000e+01	 6.074074e+00	 9.995665e+00
0	 1.000000e+01	 6.148148e+00	 9.996626e+00
0	 1.000000e+01	 6.222222e+00	 9.997474e+00
0	 1.000000e+01	 6.296296e+00	 9.998206e+00
0	 9.629630e+00	 6.296296e+00	-3.842768e+16
0	 9.629630e+00	 6.370370e+00	-6.894813e+15
0	 9.629630e+00	 6.444444e+00	-7.508409e+05
0	 9.629630e+00	 6.518519e+00	-7.470621e+05
0	 9.629630e+00	 6.592593e+00	-7.434192e+05
0	 9.629630e+00	 6.666667e+00	 1.000374e+01
0	 9.703704e+00	 6.296296e+00	-7.363892e+05
0	 9.703704e+00	 6.370370e+00	 1.634495e+11
0	 9.703704e+00	 6.444444e+00	-7.502189e+05
0	 9.703704e+00	 6.518519e+00	-7.463514e+05
0	 9.703704e+00	 6.592593e+00	-7.427485e+05
0	 9.703704e+00	 6.666667e+00	 1.000281e+01
0	 9.777778e+00	 6.296296e+00	-7.359846e+05
0	 9.777778e+00	 6.370370e+00	 3.323249e+15
0	 9.777778e+00	 6.444444e+00	-7.490178e+05
0	 9.777778e+00	 6.518519e+00	-7.451571e+05
0	 9.777778e+00	 6.592593e+00	-7.416298e+05
0	 9.777778e+00	 6.666667e+00	 1.000202e+01
0	 9.851852e+00	 6.296296e+00	-7.351174e+05
0	 9.851852e+00	 6.370370e+00	 1.028305e+15
0	 9.851852e+00	 6.444444e+00	-7.472436e+05
0	 9.851852e+00	 6.518519e+00	-7.434845e+05
0	 9.851852e+00	 6.592593e+00	-7.400677e+05
0	 9.851852e+00	 6.666667e+00	 1.000136e+01
0	 9.925926e+00	 6.296296e+00	-7.337914e+05
0	 9.925926e+00	 6.370370e+00	 1.245881e+15
0	 9.925926e+00	 6.444444e+00	-7.449053e+05
0	 9.925926e+00	 6.518519e+00	-7.413406e+05
0	 9.925926e+00	 6.592593e+00	-7.380682e+05
0	 9.925926e+00	 6.666667e+00	 1.000084e+01
0	 1.000000e+01	 6.296296e+00	 9.998206e+00
0	 1.000000e+01	 6.370370e+00	 9.998836e+00
0	 1.000000e+01	 6.444444e+00	 9.999379e+00
0	 1.000000e+01	 6.518519e+00	 9.999833e+00
0	 1.000000e+01	 6.592593e+00	 1.000020e+01
0	 1.000000e+01	 6.666667e+00	 1.000047e+01
0	 9.629630e+00	 6.666667e+00	 1.822208e+15
0	 9.629630e+00	 6.740741e+00	-8.167251e+15
0	 9.629630e+00	 6.814815e+00	-7.335568e+05
0	 9.629630e+00	 6.888889e+00	-7.306973e+05
0	 9.629630e+00	 6.962963e+00	-7.280467e+05
0	 9.629630e+00	 7.037037e+00	 1.000431e+01
0	 9.703704e+00	 6.666667e+00	-7.231749e+05
0	 9.703704e+00	 6.740741e+00	-2.065127e+11
0	 9.703704e+00	 6.814815e+00	-7.332768e+05
0	 9.703704e+00	 6.888889e+00	-7.304903e+05
0	 9.703704e+00	 6.962963e+00	-7.278648e+05
0	 9.703704e+00	 7.037037e+00	 1.000343e+01
0	 9.777778e+00	 6.666667e+00	-7.229674e+05
0	 9.777778e+00	 6.740741e+00	 6.688338e+15
0	 9.777778e+00	 6.814815e+00	-7.325160e+05
0	 9.777778e+00	 6.888889e+00	-7.298098e+05
0	 9.777778e+00	 6.962963e+00	-7.272342e+05
0	 9.777778e+00	 7.037037e+00	 1.000264e+01
0	 9.851852e+00	 6.666667e+00	-7.223913e+05
0	 9.851852e+00	 6.740741e+00	 1.190285e+16
0	 9.851852e+00	 6.814815e+00	-7.312777e+05
0	 9.851852e+00	 6.888889e+00	-7.286585e+05
0	 9.851852e+00	 6.962963e+00	-7.261575e+05
0	 9.851852e+00	 7.037037e+00	 1.000194e+01
0	 9.925926e+00	 6.666667e+00	-7.214489e+05
0	 9.925926e+00	 6.740741e+00	 8.124060e+14
0	 9.925926e+00	 6.814815e+00	-7.295669e+05
0	 9.925926e+00	 6.888889e+00	-7.270412e+05
0	 9.925926e+00	 6.962963e+00	-7.246387e+05
0	 9.925926e+00	 7.037037e+00	 1.000134e+01
0	 1.000000e+01	 6.666667e+00	 1.000047e+01
0	 1.000000e+01	 6.740741e+00	 1.000067e+01
0	 1.000000e+01	 6.814815e+00	 1.000080e+01
0	 1.000000e+01	 6.888889e+00	 1.000088e+01
0	 1.000000e+01	 6.962963e+00	 1.000089e+01
0	 1.000000e+01	 7.037037e+00	 1.000083e+01
0	 9.629630e+00	 7.037037e+00	 1.566407e+15
0	 9.629630e+00	 7.111111e+00	 2.321662e+15
0	 9.629630e+00	 7.185185e+00	-7.211177e+05
0	 9.629630e+00	 7.259259e+00	-7.190795e+05
0	 9.629630e+00	 7.333333e+00	-7.171573e+05
0	 9.629630e+00	 7.407407e+00	 1.000379e+01
0	 9.703704e+00	 7.037037e+00	-7.136394e+05
0	 9.703704e+00	 7.111111e+00	-3.743923e+10
0	 9.703704e+00	 7.185185e+00	-7.208831e+05
0	 9.703704e+00	 7.259259e+00	-7.188326e+05
0	 9.703704e+00	 7.333333e+00	-7.169094e+05
0	 9.703704e+00	 7.407407e+00	 1.000293e+01
0	 9.777778e+00	 7.037037e+00	-7.134149e+05
0	 9.777778e+00	 7.111111e+00	-5.974687e+14
0	 9.777778e+00	 7.185185e+00	-7.203121e+05
0	 9.777778e+00	 7.259259e+00	-7.182789e+05
0	 9.777778e+00	 7.333333e+00	-7.163772e+05
0	 9.777778e+00	 7.407407e+00	 1.000212e+01
0	 9.851852e+00	 7.037037e+00	-7.129402e+05
0	 9.851852e+00	 7.111111e+00	-1.490935e+15
0	 9.851852e+00	 7.185185e+00	-7.194063e+05
0	 9.851852e+00	 7.259259e+00	-7.174198e+05
0	 9.851852e+00	 7.333333e+00	-7.155616e+05
0	 9.851852e+00	 7.407407e+00	 1.000136e+01
0	 9.925926e+00	 7.037037e+00	-7.122165e+05
0	 9.925926e+00	 7.111111e+00	-1.216616e+16
0	 9.925926e+00	 7.185185e+00	-7.181684e+05
0	 9.925926e+00	 7.259259e+00	-7.162575e+05
0	 9.925926e+00	 7.333333e+00	-7.144647e+05
0	 9.925926e+00	 7.407407e+00	 1.000064e+01
0	 1.000000e+01	 7.037037e+00	 1.000083e+01
0	 1.000000e+01	 7.111111e+00	 1.000073e+01
0	 1.000000e+01	 7.185185e+00	 1.000059e+01
0	 1.000000e+01	 7.259259e+00	 1.000042e+01
0	 1.000000e+01	 7.333333e+00	 1.000021e+01
0	 1.000000e+01	 7.407407e+00	 9.999966e+00
0	 9.629630e+00	 7.407407e+00	-7.959217e+15
0	 9.629630e+00	 7.481481e+00	 2.192547e+15
0	 9.629630e+00	 7.555556e+00	-7.120525e+05
0	 9.629630e+00	 7.629630e+00	-7.105616e+05
0	 9.629630e+00	 7.703704e+00	-7.091707e+05
0	 9.629630e+00	 7.777778e+00	 1.000267e+01
0	 9.703704e+00	 7.407407e+00	-7.067201e+05
0	 9.703704e+00	 7.481481e+00	-7.681487e+09
0	 9.703704e+00	 7.555556e+00	-7.118424e+05
0	 9.703704e+00	 7.629630e+00	-7.103692e+05
0	 9.703704e+00	 7.703704e+00	-7.089954e+05
0	 9.703704e+00	 7.777778e+00	 1.000183e+01
0	 9.777778e+00	 7.407407e+00	-7.065712e+05
0	 9.777778e+00	 7.481481e+00	-5.995437e+14
0	 9.777778e+00	 7.555556e+00	-7.113883e+05
0	 9.777778e+00	 7.629630e+00	-7.099424e+05
0	 9.777778e+00	 7.703704e+00	-7.085949e+05
0	 9.777778e+00	 7.777778e+00	 1.000101e+01
0	 9.851852e+00	 7.407407e+00	-7.062194e+05
0	 9.851852e+00	 7.481481e+00	-6.191151e+14
0	 9.851852e+00	 7.555556e+00	-7.106909e+05
0	 9.851852e+00	 7.629630e+00	-7.092817e+05
0	 9.851852e+00	 7.703704e+00	-7.079696e+05
0	 9.851852e+00	 7.777778e+00	 1.000019e+01
0	 9.925926e+00	 7.407407e+00	-7.056650e+05
0	 9.925926e+00	 7.481481e+00	-7.605876e+14
0	 9.925926e+00	 7.555556e+00	-7.097513e+05
0	 9.925926e+00	 7.629630e+00	-7.083883e+05
0	 9.925926e+00	 7.703704e+00	-7.071205e+05
0	 9.925926e+00	 7.777778e+00	 9.999369e+00
0	 1.000000e+01	 7.407407e+00	 9.999966e+00
0	 1.000000e+01	 7.481481e+00	 9.999699e+00
0	 1.000000e+01	 7.555556e+00	 9.999424e+00
0	 1.000000e+01	 7.629630e+00	 9.999141e+00
0	 1.000000e+01	 7.703704e+00	 9.998849e+00
0	 1.000000e+01	 7.777778e+00	 9.998546e+00
0	 9.629630e+00	 7.777778e+00	 3.703761e+14
0	 9.629630e+00	 7.851852e+00	-6.823034e+14
0	 9.629630e+00	 7.925926e+00	-7.055687e+05
0	 9.629630e+00	 8.000000e+00	-7.045496e+05
0	 9.629630e+00	 8.074074e+00	-7.036149e+05
0	 9.629630e+00	 8.148148e+00	 1.000139e+01
0	 9.703704e+00	 7.777778e+00	-7.020374e+05
0	 9.703704e+00	 7.851852e+00	-4.753553e+10
0	 9.703704e+00	 7.925926e+00	-7.054294e+05
0	 9.703704e+00	 8.000000e+00	-7.044137e+05
0	 9.703704e+00	 8.074074e+00	-7.034791e+05
0	 9.703704e+00	 8.148148e+00	 1.000061e+01
0	 9.777778e+00	 7.777778e+00	-7.018931e+05
0	 9.777778e+00	 7.851852e+00	 6.920410e+14
0	 9.777778e+00	 7.925926e+00	-7.050932e+05
0	 9.777778e+00	 8.000000e+00	-7.040917e+05
0	 9.777778e+00	 8.074074e+00	-7.031683e+05
0	 9.777778e+00	 8.148148e+00	 9.999802e+00
0	 9.851852e+00	 7.777778e+00	-7.015971e+05
0	 9.851852e+00	 7.851852e+00	 4.460721e+15
0	 9.851852e+00	 7.925926e+00	-7.045605e+05
0	 9.851852e+00	 8.000000e+00	-7.035836e+05
0	 9.851852e+00	 8.074074e+00	-7.026822e+05
0	 9.851852e+00	 8.148148e+00	 9.998973e+00
0	 9.925926e+00	 7.777778e+00	-7.011492e+05
0	 9.925926e+00	 7.851852e+00	-8.091761e+14
0	 9.925926e+00	 7.925926e+00	-7.038314e+05
0	 9.925926e+00	 8.000000e+00	-7.028898e+05
0	 9.925926e+00	 8.074074e+00	-7.020212e+05
0	 9.925926e+00	 8.148148e+00	 9.998108e+00
0	 1.000000e+01	 7.777778e+00	 9.998546e+00
0	 1.000000e+01	 7.851852e+00	 9.998246e+00
0	 1.000000e+01	 7.925926e+00	 9.997962e+00
0	 1.000000e+01	 8.000000e+00	 9.997694e+00
0	 1.000000e+01	 8.074074e+00	 9.997439e+00
0	 1.000000e+01	 8.148148e+00	 9.997197e+00
0	 9.629630e+00	 8.148148e+00	-3.060736e+14
0	 9.629630e+00	 8.222222e+00	 4.316511e+14
0	 9.629630e+00	 8.296296e+00	-7.012750e+05
0	 9.629630e+00	 8.370370e+00	-7.006370e+05
0	 9.629630e+00	 8.444444e+00	-7.000668e+05
0	 9.629630e+00	 8.518519e+00	 1.000032e+01
0	 9.703704e+00	 8.148148e+00	-6.991692e+05
0	 9.703704e+00	 8.222222e+00	 1.779076e+09
0	 9.703704e+00	 8.296296e+00	-7.011395e+05
0	 9.703704e+00	 8.370370e+00	-7.005076e+05
0	 9.703704e+00	 8.444444e+00	-6.999463e+05
0	 9.703704e+00	 8.518519e+00	 9.999633e+00
0	 9.777778e+00	 8.148148e+00	-6.990565e+05
0	 9.777778e+00	 8.222222e+00	-5.791406e+14
0	 9.777778e+00	 8.296296e+00	-7.008580e+05
0	 9.777778e+00	 8.370370e+00	-7.002387e+05
0	 9.777778e+00	 8.444444e+00	-6.996916e+05
0	 9.777778e+00	 8.518519e+00	 9.998916e+00
0	 9.851852e+00	 8.148148e+00	-6.988192e+05
0	 9.851852e+00	 8.222222e+00	 2.343072e+14
0	 9.851852e+00	 8.296296e+00	-7.004300e+05
0	 9.851852e+00	 8.370370e+00	-6.998299e+05
0	 9.851852e+00	 8.444444e+00	-6.993022e+05
0	 9.851852e+00	 8.518519e+00	 9.998154e+00
0	 9.925926e+00	 8.148148e+00	-6.984569e+05
0	 9.925926e+00	 8.222222e+00	 1.133972e+14
0	 9.925926e+00	 8.296296e+00	-6.998555e+05
0	 9.925926e+00	 8.370370e+00	-6.992811e+05
0	 9.925926e+00	 8.444444e+00	-6.987779e+05
0	 9.925926e+00	 8.518519e+00	 9.997334e+00
0	 1.000000e+01	 8.148148e+00	 9.997197e+00
0	 1.000000e+01	 8.222222e+00	 9.996979e+00
0	 1.000000e+01	 8.296296e+00	 9.996795e+00
0	 1.000000e+01	 8.370370e+00	 9.996644e+00
0	 1.000000e+01	 8.444444e+00	 9.996527e+00
0	 1.000000e+01	 8.518519e+00	 9.996442e+00
0	 9.629630e+00	 8.518519e+00	 6.736931e+13
0	 9.629630e+00	 8.592593e+00	-1.334496e+16
0	 9.629630e+00	 8.666667e+00	-6.987637e+05
0	 9.629630e+00	 8.740741e+00	-6.984656e+05
0	 9.629630e+00	 8.814815e+00	-6.982340e+05
0	 9.629630e+00	 8.888889e+00	 9.999669e+00
0	 9.703704e+00	 8.518519e+00	-6.979693e+05
0	 9.703704e+00	 8.592593e+00	-3.944676e+10
0	 9.703704e+00	 8.666667e+00	-6.986720e+05
0	 9.703704e+00	 8.740741e+00	-6.983792e+05
0	 9.703704e+00	 8.814815e+00	-6.981508e+05
0	 9.703704e+00	 8.888889e+00	 9.999156e+00
0	 9.777778e+00	 8.518519e+00	-6.978717e+05
0	 9.777778e+00	 8.592593e+00	 1.209241e+13
0	 9.777778e+00	 8.666667e+00	-6.984589e+05
0	 9.777778e+00	 8.740741e+00	-6.981767e+05
0	 9.777778e+00	 8.814815e+00	-6.979569e+05
0	 9.777778e+00	 8.888889e+00	 9.998607e+00
0	 9.851852e+00	 8.518519e+00	-6.976743e+05
0	 9.851852e+00	 8.592593e+00	-1.877961e+14
0	 9.851852e+00	 8.666667e+00	-6.981239e+05
0	 9.851852e+00	 8.740741e+00	-6.978573e+05
0	 9.851852e+00	 8.814815e+00	-6.976519e+05
0	 9.851852e+00	 8.888889e+00	 9.998009e+00
0	 9.925926e+00	 8.518519e+00	-6.973765e+05
0	 9.925926e+00	 8.592593e+00	-4.980021e+12
0	 9.925926e+00	 8.666667e+00	-6.976666e+05
0	 9.925926e+00	 8.740741e+00	-6.974206e+05
0	 9.925926e+00	 8.814815e+00	-6.972352e+05
0	 9.925926e+00	 8.888889e+00	 9.997349e+00
0	 1.000000e+01	 8.518519e+00	 9.996442e+00
0	 1.000000e+01	 8.592593e+00	 9.996394e+00
0	 1.000000e+01	 8.666667e+00	 9.996388e+00
0	 1.000000e+01	 8.740741e+00	 9.996423e+00
0	 1.000000e+01	 8.814815e+00	 9.996498e+00
0	 1.000000e+01	 8.888889e+00	 9.996615e+00
0	 9.629630e+00	 8.888889e+00	 3.371124e+14
0	 9.629630e+00	 8.962963e+00	 7.766700e+12
0	 9.629630e+00	 9.037037e+00	-6.979204e+05
0	 9.629630e+00	 9.111111e+00	-6.979374e+05
0	 9.629630e+00	 9.185185e+00	-6.980144e+05
0	 9.629630e+00	 9.259259e+00	 9.999511e+00
0	 9.703704e+00	 8.888889e+00	-6.983221e+05
0	 9.703704e+00	 8.962963e+00	 2.454607e+09
0	 9.703704e+00	 9.037037e+00	-6.978433e+05
0	 9.703704e+00	 9.111111e+00	-6.978645e+05
0	 9.703704e+00	 9.185185e+00	-6.979471e+05
0	 9.703704e+00	 9.259259e+00	 9.999213e+00
0	 9.777778e+00	 8.888889e+00	-6.982477e+05
0	 9.777778e+00	 8.962963e+00	 3.169027e+14
0	 9.777778e+00	 9.037037e+00	-6.976721e+05
0	 9.777778e+00	 9.111111e+00	-6.977018e+05
0	 9.777778e+00	 9.185185e+00	-6.977934e+05
0	 9.777778e+00	 9.259259e+00	 9.998892e+00
0	 9.851852e+00	 8.888889e+00	-6.980905e+05
0	 9.851852e+00	 8.962963e+00	-6.016491e+15
0	 9.851852e+00	 9.037037e+00	-6.974063e+05
0	 9.851852e+00	 9.111111e+00	-6.974487e+05
0	 9.851852e+00	 9.185185e+00	-6.975532e+05
0	 9.851852e+00	 9.259259e+00	 9.998548e+00
0	 9.925926e+00	 8.888889e+00	-6.978499e+05
0	 9.925926e+00	 8.962963e+00	-2.198243e+14
0	 9.925926e+00	 9.037037e+00	-6.970453e+05
0	 9.925926e+00	 9.111111e+00	-6.971050e+05
0	 9.925926e+00	 9.185185e+00	-6.972262e+05
0	 9.925926e+00	 9.259259e+00	 9.998176e+00
0	 1.000000e+01	 8.888889e+00	 9.996615e+00
0	 1.000000e+01	 8.962963e+00	 9.996770e+00
0	 1.000000e+01	 9.037037e+00	 9.996962e+00
0	 1.000000e+01	 9.111111e+00	 9.997193e+00
0	 1.000000e+01	 9.185185e+00	 9.997462e+00
0	 1.000000e+01	 9.259259e+00	 9.997772e+00
0	 9.629630e+00	 9.259259e+00	-1.034578e+14
0	 9.629630e+00	 9.333333e+00	-6.348091e+14
0	 9.629630e+00	 9.407407e+00	-6.986131e+05
0	 9.629630e+00	 9.481481e+00	-6.989373e+05
0	 9.629630e+00	 9.555556e+00	-6.993248e+05
0	 9.629630e+00	 9.629630e+00	 9.999749e+00
0	 9.703704e+00	 9.259259e+00	-7.002333e+05
0	 9.703704e+00	 9.333333e+00	-4.881191e+09
0	 9.703704e+00	 9.407407e+00	-6.985628e+05
0	 9.703704e+00	 9.481481e+00	-6.988906e+05
0	 9.703704e+00	 9.555556e+00	-6.992805e+05
0	 9.703704e+00	 9.629630e+00	 9.999642e+00
0	 9.777778e+00	 9.259259e+00	-7.001792e+05
0	 9.777778e+00	 9.333333e+00	-6.350521e+14
0	 9.777778e+00	 9.407407e+00	-6.984353e+05
0	 9.777778e+00	 9.481481e+00	-6.987698e+05
0	 9.777778e+00	 9.555556e+00	-6.991653e+05
0	 9.777778e+00	 9.629630e+00	 9.999533e+00
0	 9.851852e+00	 9.259259e+00	-7.000576e+05
0	 9.851852e+00	 9.333333e+00	-1.288881e+16
0	 9.851852e+00	 9.407407e+00	-6.982310e+05
0	 9.851852e+00	 9.481481e+00	-6.985756e+05
0	 9.851852e+00	 9.555556e+00	-6.989801e+05
0	 9.851852e+00	 9.629630e+00	 9.999441e+00
0	 9.925926e+00	 9.259259e+00	-6.998683e+05
0	 9.925926e+00	 9.333333e+00	 5.625565e+14
0	 9.925926e+00	 9.407407e+00	-6.979503e+05
0	 9.925926e+00	 9.481481e+00	-6.983085e+05
0	 9.925926e+00	 9.555556e+00	-6.987258e+05
0	 9.925926e+00	 9.629630e+00	 9.999385e+00
0	 1.000000e+01	 9.259259e+00	 9.997772e+00
0	 1.000000e+01	 9.333333e+00	 9.998099e+00
0	 1.000000e+01	 9.407407e+00	 9.998422e+00
0	 1.000000e+01	 9.481481e+00	 9.998742e+00
0	 1.000000e+01	 9.555556e+00	 9.999062e+00
0	 1.000000e+01	 9.629630e+00	 9.999384e+00
0	 9.629630e+00	 9.629630e+00	-6.736561e+14
0	 9.629630e+00	 9.703704e+00	-7.524195e+14
0	 9.629630e+00	 9.777778e+00	-7.008665e+05
0	 9.629630e+00	 9.851852e+00	-7.015059e+05
0	 9.629630e+00	 9.925926e+00	-7.022099e+05
0	 9.629630e+00	 1.000000e+01	 1.000004e+01
0	 9.703704e+00	 9.629630e+00	-7.037745e+05
0	 9.703704e+00	 9.703704e+00	 4.747858e+09
0	 9.703704e+00	 9.777778e+00	-7.008257e+05
0	 9.703704e+00	 9.851852e+00	-7.014661e+05
0	 9.703704e+00	 9.925926e+00	-7.021712e+05
0	 9.703704e+00	 1.000000e+01	 1.000004e+01
0	 9.777778e+00	 9.629630e+00	-7.037368e+05
0	 9.777778e+00	 9.703704e+00	 9.699269e+14
0	 9.777778e+00	 9.777778e+00	-7.007229e+05
0	 9.777778e+00	 9.851852e+00	-7.013665e+05
0	 9.777778e+00	 9.925926e+00	-7.020743e+05
0	 9.777778e+00	 1.000000e+01	 1.000004e+01
0	 9.851852e+00	 9.629630e+00	-7.036436e+05
0	 9.851852e+00	 9.703704e+00	 6.148076e+15
0	 9.851852e+00	 9.777778e+00	-7.005593e+05
0	 9.851852e+00	 9.851852e+00	-7.012082e+05
0	 9.851852e+00	 9.925926e+00	-7.019205e+05
0	 9.851852e+00	 1.000000e+01	 1.000003e+01
0	 9.925926e+00	 9.629630e+00	-7.034961e+05
0	 9.925926e+00	 9.703704e+00	-1.168124e+15
0	 9.925926e+00	 9.777778e+00	-7.003364e+05
0	 9.925926e+00	 9.851852e+00	-7.009927e+05
0	 9.925926e+00	 9.925926e+00	-7.017106e+05
0	 9.925926e+00	 1.000000e+01	 1.000002e+01
0	 1.000000e+01	 9.629630e+00	 9.999384e+00
0	 1.000000e+01	 9.703704e+00	 9.999666e+00
0	 1.000000e+01	 9.777778e+00	 9.999867e+00
0	 1.000000e+01	 9.851852e+00	 9.999992e+00
0	 1.000000e+01	 9.925926e+00	 1.000004e+01
0	 1.000000e+01	 1.000000e+01	 1.000003e+01
1	 1.000000e+00	 0.000000e+00	 3.200099e+01
1	 9.894435e-01	 1.449195e-01	 2.935322e+01
1	 9.558632e-01	 2.938119e-01	 2.487634e+01
1	 8.973756e-01	 4.412674e-01	 1.774571e+01
1	 8.138260e-01	 5.811086e-01	 8.815643e+00
1	 7.071068e-01	 7.071068e-01	 8.516886e-01
1	 1.100000e+00	 0.000000e+00	 3.041678e+01
1	 1.088388e+00	 1.594114e-01	 2.715724e+01
1	 1.051450e+00	 3.231931e-01	 2.160101e+01
1	 9.871132e-01	 4.853942e-01	 1.375854e+01
1	 8.952086e-01	 6.392194e-01	 4.532963e+00
1	 7.778175e-01	 7.778175e-01	-4.261024e+00
1	 1.200000e+00	 0.000000e+00	 2.756035e+01
1	 1.187332e+00	 1.739034e-01	 2.471764e+01
1	 1.147036e+00	 3.525743e-01	 1.899138e+01
1	 1.076851e+00	 5.295209e-01	 1.086084e+01
1	 9.765912e-01	 6.973303e-01	 1.210361e+00
1	 8.485281e-01	 8.485281e-01	-8.778710e+00
1	 1.300000e+00	 0.000000e+00	 2.389042e+01
1	 1.286276e+00	 1.883953e-01	 2.189924e+01
1	 1.242622e+00	 3.819555e-01	 1.657600e+01
1	 1.166588e+00	 5.736477e-01	 8.573385e+00
1	 1.057974e+00	 7.554412e-01	-1.298707e+00
1	 9.192388e-01	 9.192388e-01	-1.223639e+01
1	 1.400000e+00	 0.000000e+00	 1.973468e+01
1	 1.385221e+00	 2.028873e-01	 1.860548e+01
1	 1.338209e+00	 4.113367e-01	 1.401810e+01
1	 1.256326e+00	 6.177744e-01	 6.553862e+00
1	 1.139356e+00	 8.135520e-01	-3.098913e+00
1	 9.899495e-01	 9.899495e-01	-1.430195e+01
1	 1.500000e+00	 0.000000e+00	 1.533340e+01
1	 1.484165e+00	 2.173792e-01	 1.476554e+01
1	 1.433795e+00	 4.407179e-01	 1.107072e+01
1	 1.346063e+00	 6.619011e-01	 4.551249e+00
1	 1.220739e+00	 8.716629e-01	-4.267019e+00
1	 1.060660e+00	 1.060660e+00	-1.473183e+01
1	 7.071068e-01	 7.071068e-01	 8.516886e-01
1	 5.811086e-01	 8.138260e-01	-2.829786e+00
1	 4.412674e-01	 8.973756e-01	-2.436020e+00
1	 2.938119e-01	 9.558632e-01	-9.480788e-01
1	 1.449195e-01	 9.894435e-01	-2.365220e+00
1	 0.000000e+00	 1.000000e+00	-1.018468e+01
1	 7.778175e-01	 7.778175e-01	-4.261024e+00
1	 6.392194e-01	 8.952086e-01	-1.172342e+01
1	 4.853942e-01	 9.871132e-01	-1.806333e+01
1	 3.231931e-01	 1.051450e+00	-2.339071e+01
1	 1.594114e-01	 1.088388e+00	-2.847056e+01
1	 0.000000e+00	 1.100000e+00	-3.416621e+01
1	 8.485281e-01	 8.485281e-01	-8.778710e+00
1	 6.973303e-01	 9.765912e-01	-1.932544e+01
1	 5.295209e-01	 1.076851e+00	-3.025817e+01
1	 3.525743e-01	 1.147036e+00	-3.990719e+01
1	 1.739034e-01	 1.187332e+00	-4.702954e+01
1	 0.000000e+00	 1.200000e+00	-5.088748e+01
1	 9.192388e-01	 9.192388e-01	-1.223639e+01
1	 7.554412e-01	 1.057974e+00	-2.474779e+01
1	 5.736477e-01	 1.166588e+00	-3.817013e+01
1	 3.819555e-01	 1.242622e+00	-4.991389e+01
1	 1.883953e-01	 1.286276e+00	-5.769548e+01
1	 0.000000e+00	 1.300000e+00	-5.997650e+01
1	 9.899495e-01	 9.899495e-01	-1.430195e+01
1	 8.135520e-01	 1.139356e+00	-2.735611e+01
1	 6.177744e-01	 1.256326e+00	-4.119180e+01
1	 4.113367e-01	 1.338209e+00	-5.299393e+01
1	 2.028873e-01	 1.385221e+00	-6.022072e+01
1	 0.000000e+00	 1.400000e+00	-6.116755e+01
1	 1.060660e+00	 1.060660e+00	-1.473183e+01
1	 8.716629e-01	 1.220739e+00	-2.668524e+01
1	 6.619011e-01	 1.346063e+00	-3.887772e+01
1	 4.407179e-01	 1.433795e+00	-4.884160e+01
1	 2.173792e-01	 1.484165e+00	-5.442365e+01
1	 0.000000e+00	 1.500000e+00	-5.426578e+01
1	 1.500000e+00	 0.000000e+00	 1.533340e+01
1	 1.484165e+00	 2.173792e-01	 1.476554e+01
1	 1.433795e+00	 4.407179e-01	 1.107072e+01
1	 1.346063e+00	 6.619011e-01	 4.551249e+00
1	 1.220739e+00	 8.716629e-01	-4.267019e+00
1	 1.060660e+00	 1.060660e+00	-1.473183e+01
1	 1.600000e+00	 0.000000e+00	 1.144461e+01
1	 1.583110e+00	 2.318712e-01	 1.100643e+01
1	 1.529381e+00	 4.700991e-01	 8.077742e+00
1	 1.435801e+00	 7.060279e-01	 2.679591e+00
1	 1.302122e+00	 9.297737e-01	-4.822998e+00
1	 1.131371e+00	 1.131371e+00	-1.375311e+01
1	 1.700000e+00	 0.000000e+00	 8.374819e+00
1	 1.682054e+00	 2.463631e-01	 7.856847e+00
1	 1.624968e+00	 4.994803e-01	 5.509728e+00
1	 1.525539e+00	 7.501546e-01	 1.242909e+00
1	 1.383504e+00	 9.878846e-01	-4.700329e+00
1	 1.202082e+00	 1.202082e+00	-1.174650e+01
1	 1.800000e+00	 0.000000e+00	 5.719835e+00
1	 1.780998e+00	 2.608551e-01	 5.146682e+00
1	 1.720554e+00	 5.288615e-01	 3.360388e+00
1	 1.615276e+00	 7.942814e-01	 3.113307e-01
1	 1.464887e+00	 1.045995e+00	-3.842071e+00
1	 1.272792e+00	 1.272792e+00	-8.741648e+00
1	 1.900000e+00	 0.000000e+00	 3.160560e+00
1	 1.879943e+00	 2.753470e-01	 2.741649e+00
1	 1.816140e+00	 5.582427e-01	 1.624758e+00
1	 1.705014e+00	 8.384081e-01	-5.978299e-02
1	 1.546269e+00	 1.104106e+00	-2.203270e+00
1	 1.343503e+00	 1.343503e+00	-4.761956e+00
1	 2.000000e+00	 0.000000e+00	 4.417157e-01
1	 1.978887e+00	 2.898390e-01	 5.343194e-01
1	 1.911726e+00	 5.876239e-01	 2.988659e-01
1	 1.794751e+00	 8.825349e-01	 1.738584e-01
1	 1.627652e+00	 1.162217e+00	 2.520386e-01
1	 1.414214e+00	 1.414214e+00	 1.738556e-01
1	 1.060660e+00	 1.060660e+00	-1.473183e+01
1	 8.716629e-01	 1.220739e+00	-2.668524e+01
1	 6.619011e-01	 1.346063e+00	-3.887772e+01
1	 4.407179e-01	 1.433795e+00	-4.884160e+01
1	 2.173792e-01	 1.484165e+00	-5.442365e+01
1	 0.000000e+00	 1.500000e+00	-5.426578e+01
1	 1.131371e+00	 1.131371e+00	-1.375311e+01
1	 9.297737e-01	 1.302122e+00	-2.362491e+01
1	 7.060279e-01	 1.435801e+00	-3.324995e+01
1	 4.700991e-01	 1.529381e+00	-4.069694e+01
1	 2.318712e-01	 1.583110e+00	-4.438289e+01
1	 0.000000e+00	 1.600000e+00	-4.340837e+01
1	 1.202082e+00	 1.202082e+00	-1.174650e+01
1	 9.878846e-01	 1.383504e+00	-1.939687e+01
1	 7.501546e-01	 1.525539e+00	-2.665787e+01
1	 4.994803e-01	 1.624968e+00	-3.202121e+01
1	 2.463631e-01	 1.682054e+00	-3.428527e+01
1	 0.000000e+00	 1.700000e+00	-3.280813e+01
1	 1.272792e+00	 1.272792e+00	-8.741648e+00
1	 1.045995e+00	 1.464887e+00	-1.410601e+01
1	 7.942814e-01	 1.615276e+00	-1.921369e+01
1	 5.288615e-01	 1.720554e+00	-2.288714e+01
1	 2.608551e-01	 1.780998e+00	-2.414500e+01
1	 0.000000e+00	 1.800000e+00	-2.242970e+01
1	 1.343503e+00	 1.343503e+00	-4.761956e+00
1	 1.104106e+00	 1.546269e+00	-7.835122e+00
1	 8.384081e-01	 1.705014e+00	-1.100599e+01
1	 5.582427e-01	 1.816140e+00	-1.335216e+01
1	 2.753470e-01	 1.879943e+00	-1.397330e+01
1	 0.000000e+00	 1.900000e+00	-1.224515e+01
1	 1.414214e+00	 1.414214e+00	 1.738556e-01
1	 1.162217e+00	 1.627652e+00	-6.504598e-01
1	 8.825349e-01	 1.794751e+00	-2.105635e+00
1	 5.876239e-01	 1.911726e+00	-3.462188e+00
1	 2.898390e-01	 1.978887e+00	-3.779168e+00
1	 0.000000e+00	 2.000000e+00	-2.232145e+00
