patch_n	x	y	stress_yy
0	 1.000000e+00	 0.000000e+00	 3.115623e+01
0	 1.066667e+00	 0.000000e+00	 2.666142e+01
0	 1.133333e+00	 0.000000e+00	 2.349983e+01
0	 1.200000e+00	 0.000000e+00	 2.121838e+01
0	 1.266667e+00	 0.000000e+00	 1.948606e+01
0	 1.333333e+00	 0.000000e+00	 1.805544e+01
0	 1.333333e+00	 0.000000e+00	 1.805544e+01
0	 1.400000e+00	 0.000000e+00	 1.686311e+01
0	 1.466667e+00	 0.000000e+00	 1.592696e+01
0	 1.533333e+00	 0.000000e+00	 1.518084e+01
0	 1.600000e+00	 0.000000e+00	 1.457193e+01
0	 1.666667e+00	 0.000000e+00	 1.405757e+01
0	 1.666667e+00	 0.000000e+00	 1.405757e+01
0	 1.733333e+00	 0.000000e+00	 1.362122e+01
0	 1.800000e+00	 0.000000e+00	 1.325813e+01
0	 1.866667e+00	 0.000000e+00	 1.295189e+01
0	 1.933333e+00	 0.000000e+00	 1.268871e+01
0	 2.000000e+00	 0.000000e+00	 1.245691e+01
0	 2.000000e+00	 0.000000e+00	 1.245691e+01
0	 2.066667e+00	 0.000000e+00	 1.225234e+01
0	 2.133333e+00	 0.000000e+00	 1.207446e+01
0	 2.200000e+00	 0.000000e+00	 1.191894e+01
0	 2.266667e+00	 0.000000e+00	 1.178204e+01
0	 2.333333e+00	 0.000000e+00	 1.166049e+01
0	 2.333333e+00	 0.000000e+00	 1.166049e+01
0	 2.400000e+00	 0.000000e+00	 1.155206e+01
0	 2.466667e+00	 0.000000e+00	 1.145522e+01
0	 2.533333e+00	 0.000000e+00	 1.136823e+01
0	 2.600000e+00	 0.000000e+00	 1.128959e+01
0	 2.666667e+00	 0.000000e+00	 1.121792e+01
0	 2.666667e+00	 0.000000e+00	 1.121792e+01
0	 2.733333e+00	 0.000000e+00	 1.115241e+01
0	 2.800000e+00	 0.000000e+00	 1.109262e+01
0	 2.866667e+00	 0.000000e+00	 1.103794e+01
0	 2.933333e+00	 0.000000e+00	 1.098785e+01
0	 3.000000e+00	 0.000000e+00	 1.094185e+01
0	 3.000000e+00	 0.000000e+00	 1.094185e+01
0	 3.066667e+00	 0.000000e+00	 1.089941e+01
0	 3.133333e+00	 0.000000e+00	 1.086007e+01
0	 3.200000e+00	 0.000000e+00	 1.082353e+01
0	 3.266667e+00	 0.000000e+00	 1.078952e+01
0	 3.333333e+00	 0.000000e+00	 1.075779e+01
0	 3.333333e+00	 0.000000e+00	 1.075779e+01
0	 3.400000e+00	 0.000000e+00	 1.072806e+01
0	 3.466667e+00	 0.000000e+00	 1.070014e+01
0	 3.533333e+00	 0.000000e+00	 1.067391e+01
0	 3.600000e+00	 0.000000e+00	 1.064924e+01
0	 3.666667e+00	 0.000000e+00	 1.062604e+01
0	 3.666667e+00	 0.000000e+00	 1.062604e+01
0	 3.733333e+00	 0.000000e+00	 1.060413e+01
0	 3.800000e+00	 0.000000e+00	 1.058333e+01
0	 3.866667e+00	 0.000000e+00	 1.056358e+01
0	 3.933333e+00	 0.000000e+00	 1.054481e+01
0	 4.000000e+00	 0.000000e+00	 1.052697e+01
0	 4.000000e+00	 0.000000e+00	 1.052697e+01
0	 4.066667e+00	 0.000000e+00	 1.050994e+01
0	 4.133333e+00	 0.000000e+00	 1.049364e+01
0	 4.200000e+00	 0.000000e+00	 1.047802e+01
0	 4.266667e+00	 0.000000e+00	 1.046306e+01
0	 4.333333e+00	 0.000000e+00	 1.044873e+01
0	 4.333333e+00	 0.000000e+00	 1.044873e+01
0	 4.400000e+00	 0.000000e+00	 1.043495e+01
0	 4.466667e+00	 0.000000e+00	 1.042165e+01
0	 4.533333e+00	 0.000000e+00	 1.040881e+01
0	 4.600000e+00	 0.000000e+00	 1.039642e+01
0	 4.666667e+00	 0.000000e+00	 1.038445e+01
0	 4.666667e+00	 0.000000e+00	 1.038445e+01
0	 4.733333e+00	 0.000000e+00	 1.037286e+01
0	 4.800000e+00	 0.000000e+00	 1.036160e+01
0	 4.866667e+00	 0.000000e+00	 1.035066e+01
0	 4.933333e+00	 0.000000e+00	 1.034003e+01
0	 5.000000e+00	 0.000000e+00	 1.032970e+01
1	 5.000000e+00	 0.000000e+00	 1.032966e+01
1	 5.083333e+00	 0.000000e+00	 1.031712e+01
1	 5.166667e+00	 0.000000e+00	 1.030492e+01
1	 5.250000e+00	 0.000000e+00	 1.029305e+01
1	 5.333333e+00	 0.000000e+00	 1.028150e+01
1	 5.416667e+00	 0.000000e+00	 1.027025e+01
1	 5.416667e+00	 0.000000e+00	 1.027025e+01
1	 5.500000e+00	 0.000000e+00	 1.025926e+01
1	 5.583333e+00	 0.000000e+00	 1.024849e+01
1	 5.666667e+00	 0.000000e+00	 1.023792e+01
1	 5.750000e+00	 0.000000e+00	 1.022756e+01
1	 5.833333e+00	 0.000000e+00	 1.021738e+01
1	 5.833333e+00	 0.000000e+00	 1.021738e+01
1	 5.916667e+00	 0.000000e+00	 1.020737e+01
1	 6.000000e+00	 0.000000e+00	 1.019748e+01
1	 6.083333e+00	 0.000000e+00	 1.018772e+01
1	 6.166667e+00	 0.000000e+00	 1.017807e+01
1	 6.250000e+00	 0.000000e+00	 1.016853e+01
1	 6.250000e+00	 0.000000e+00	 1.016853e+01
1	 6.333333e+00	 0.000000e+00	 1.015908e+01
1	 6.416667e+00	 0.000000e+00	 1.014969e+01
1	 6.500000e+00	 0.000000e+00	 1.014036e+01
1	 6.583333e+00	 0.000000e+00	 1.013108e+01
1	 6.666667e+00	 0.000000e+00	 1.012185e+01
1	 6.666667e+00	 0.000000e+00	 1.012185e+01
1	 6.750000e+00	 0.000000e+00	 1.011265e+01
1	 6.833333e+00	 0.000000e+00	 1.010345e+01
1	 6.916667e+00	 0.000000e+00	 1.009426e+01
1	 7.000000e+00	 0.000000e+00	 1.008506e+01
1	 7.083333e+00	 0.000000e+00	 1.007586e+01
1	 7.083333e+00	 0.000000e+00	 1.007586e+01
1	 7.166667e+00	 0.000000e+00	 1.006663e+01
1	 7.250000e+00	 0.000000e+00	 1.005736e+01
1	 7.333333e+00	 0.000000e+00	 1.004805e+01
1	 7.416667e+00	 0.000000e+00	 1.003868e+01
1	 7.500000e+00	 0.000000e+00	 1.002925e+01
1	 7.500000e+00	 0.000000e+00	 1.002925e+01
1	 7.583333e+00	 0.000000e+00	 1.001974e+01
1	 7.666667e+00	 0.000000e+00	 1.001014e+01
1	 7.750000e+00	 0.000000e+00	 1.000044e+01
1	 7.833333e+00	 0.000000e+00	 9.990637e+00
1	 7.916667e+00	 0.000000e+00	 9.980707e+00
1	 7.916667e+00	 0.000000e+00	 9.980707e+00
1	 8.000000e+00	 0.000000e+00	 9.970645e+00
1	 8.083333e+00	 0.000000e+00	 9.960440e+00
1	 8.166667e+00	 0.000000e+00	 9.950075e+00
1	 8.250000e+00	 0.000000e+00	 9.939536e+00
1	 8.333333e+00	 0.000000e+00	 9.928805e+00
1	 8.333333e+00	 0.000000e+00	 9.928805e+00
1	 8.416667e+00	 0.000000e+00	 9.917876e+00
1	 8.500000e+00	 0.000000e+00	 9.906736e+00
1	 8.583333e+00	 0.000000e+00	 9.895364e+00
1	 8.666667e+00	 0.000000e+00	 9.883738e+00
1	 8.750000e+00	 0.000000e+00	 9.871836e+00
1	 8.750000e+00	 0.000000e+00	 9.871836e+00
1	 8.833333e+00	 0.000000e+00	 9.859650e+00
1	 8.916667e+00	 0.000000e+00	 9.847170e+00
1	 9.000000e+00	 0.000000e+00	 9.834363e+00
1	 9.083333e+00	 0.000000e+00	 9.821200e+00
1	 9.166667e+00	 0.000000e+00	 9.807651e+00
1	 9.166667e+00	 0.000000e+00	 9.807651e+00
1	 9.250000e+00	 0.000000e+00	 9.793709e+00
1	 9.333333e+00	 0.000000e+00	 9.779361e+00
1	 9.416667e+00	 0.000000e+00	 9.764565e+00
1	 9.500000e+00	 0.000000e+00	 9.749279e+00
1	 9.583333e+00	 0.000000e+00	 9.733459e+00
1	 9.583333e+00	 0.000000e+00	 9.733459e+00
1	 9.666667e+00	 0.000000e+00	 9.717099e+00
1	 9.750000e+00	 0.000000e+00	 9.700180e+00
1	 9.833333e+00	 0.000000e+00	 9.682643e+00
1	 9.916667e+00	 0.000000e+00	 9.664431e+00
1	 1.000000e+01	 0.000000e+00	 9.645485e+00
