patch_n	x	y	stress_yy
0	 0.000000e+00	 0.000000e+00	 4.595053e-01
0	 0.000000e+00	 7.407407e-02	-1.220460e-01
0	 0.000000e+00	 1.481481e-01	-4.038584e-01
0	 0.000000e+00	 2.222222e-01	-4.075314e-01
0	 0.000000e+00	 2.962963e-01	-1.546644e-01
0	 0.000000e+00	 3.703704e-01	 3.331430e-01
0	 7.407407e-02	 0.000000e+00	 6.229560e-01
0	 7.407407e-02	 7.407407e-02	 2.971019e-02
0	 7.407407e-02	 1.481481e-01	-2.935298e-01
0	 7.407407e-02	 2.222222e-01	-3.450944e-01
0	 7.407407e-02	 2.962963e-01	-1.233142e-01
0	 7.407407e-02	 3.703704e-01	 3.734803e-01
0	 1.481481e-01	 0.000000e+00	 7.187141e-01
0	 1.481481e-01	 7.407407e-02	 1.130307e-01
0	 1.481481e-01	 1.481481e-01	-2.367826e-01
0	 1.481481e-01	 2.222222e-01	-3.124268e-01
0	 1.481481e-01	 2.962963e-01	-9.560309e-02
0	 1.481481e-01	 3.703704e-01	 4.319876e-01
0	 2.222222e-01	 0.000000e+00	 7.394273e-01
0	 2.222222e-01	 7.407407e-02	 1.318429e-01
0	 2.222222e-01	 1.481481e-01	-2.267927e-01
0	 2.222222e-01	 2.222222e-01	-3.081907e-01
0	 2.222222e-01	 2.962963e-01	-8.406213e-02
0	 2.222222e-01	 3.703704e-01	 4.738820e-01
0	 2.962963e-01	 0.000000e+00	 6.777432e-01
0	 2.962963e-01	 7.407407e-02	 9.007393e-02
0	 2.962963e-01	 1.481481e-01	-2.567364e-01
0	 2.962963e-01	 2.222222e-01	-3.310483e-01
0	 2.962963e-01	 2.962963e-01	-1.012225e-01
0	 2.962963e-01	 3.703704e-01	 4.643806e-01
0	 3.703704e-01	 0.000000e+00	 5.263096e-01
0	 3.703704e-01	 7.407407e-02	-8.348957e-03
0	 3.703704e-01	 1.481481e-01	-3.197896e-01
0	 3.703704e-01	 2.222222e-01	-3.796618e-01
0	 3.703704e-01	 2.962963e-01	-1.596153e-01
0	 3.703704e-01	 3.703704e-01	 3.687004e-01
0	 0.000000e+00	 3.703704e-01	 3.331430e-01
0	 0.000000e+00	 4.444444e-01	 7.373757e-01
0	 0.000000e+00	 5.185185e-01	 7.590336e-01
0	 0.000000e+00	 5.925926e-01	 4.057899e-01
0	 0.000000e+00	 6.666667e-01	-3.146820e-01
0	 0.000000e+00	 7.407407e-01	-1.394709e+00
0	 7.407407e-02	 3.703704e-01	 3.734803e-01
0	 7.407407e-02	 4.444444e-01	 8.083386e-01
0	 7.407407e-02	 5.185185e-01	 8.407312e-01
0	 7.407407e-02	 5.925926e-01	 4.669594e-01
0	 7.407407e-02	 6.666667e-01	-3.166757e-01
0	 7.407407e-02	 7.407407e-01	-1.513873e+00
0	 1.481481e-01	 3.703704e-01	 4.319876e-01
0	 1.481481e-01	 4.444444e-01	 9.072349e-01
0	 1.481481e-01	 5.185185e-01	 9.462972e-01
0	 1.481481e-01	 5.925926e-01	 5.363764e-01
0	 1.481481e-01	 6.666667e-01	-3.353254e-01
0	 1.481481e-01	 7.407407e-01	-1.681606e+00
0	 2.222222e-01	 3.703704e-01	 4.738820e-01
0	 2.222222e-01	 4.444444e-01	 9.818823e-01
0	 2.222222e-01	 5.185185e-01	 1.024237e+00
0	 2.222222e-01	 5.925926e-01	 5.813224e-01
0	 2.222222e-01	 6.666667e-01	-3.664863e-01
0	 2.222222e-01	 7.407407e-01	-1.838813e+00
0	 2.962963e-01	 3.703704e-01	 4.643806e-01
0	 2.962963e-01	 4.444444e-01	 9.800983e-01
0	 2.962963e-01	 5.185185e-01	 1.023057e+00
0	 2.962963e-01	 5.925926e-01	 5.690787e-01
0	 2.962963e-01	 6.666667e-01	-4.060136e-01
0	 2.962963e-01	 7.407407e-01	-1.926398e+00
0	 3.703704e-01	 3.703704e-01	 3.687004e-01
0	 3.703704e-01	 4.444444e-01	 8.497007e-01
0	 3.703704e-01	 5.185185e-01	 8.912621e-01
0	 3.703704e-01	 5.925926e-01	 4.669269e-01
0	 3.703704e-01	 6.666667e-01	-4.497625e-01
0	 3.703704e-01	 7.407407e-01	-1.885264e+00
0	 0.000000e+00	 7.407407e-01	-1.394709e+00
0	 0.000000e+00	 8.148148e-01	-1.689184e+00
0	 0.000000e+00	 8.888889e-01	-1.090151e-01
0	 0.000000e+00	 9.629630e-01	 3.269449e+00
0	 0.000000e+00	 1.037037e+00	 8.369861e+00
0	 0.000000e+00	 1.111111e+00	 1.511587e+01
0	 7.407407e-02	 7.407407e-01	-1.513873e+00
0	 7.407407e-02	 8.148148e-01	-1.927742e+00
0	 7.407407e-02	 8.888889e-01	-3.794590e-01
0	 7.407407e-02	 9.629630e-01	 3.100172e+00
0	 7.407407e-02	 1.037037e+00	 8.480350e+00
0	 7.407407e-02	 1.111111e+00	 1.573027e+01
0	 1.481481e-01	 7.407407e-01	-1.681606e+00
0	 1.481481e-01	 8.148148e-01	-2.081973e+00
0	 1.481481e-01	 8.888889e-01	-1.054447e-01
0	 1.481481e-01	 9.629630e-01	 4.250908e+00
0	 1.481481e-01	 1.037037e+00	 1.099002e+01
0	 1.481481e-01	 1.111111e+00	 2.011481e+01
0	 2.222222e-01	 7.407407e-01	-1.838813e+00
0	 2.222222e-01	 8.148148e-01	-2.107327e+00
0	 2.222222e-01	 8.888889e-01	 5.859527e-01
0	 2.222222e-01	 9.629630e-01	 6.265876e+00
0	 2.222222e-01	 1.037037e+00	 1.495729e+01
0	 2.222222e-01	 1.111111e+00	 2.668506e+01
0	 2.962963e-01	 7.407407e-01	-1.926398e+00
0	 2.962963e-01	 8.148148e-01	-1.959254e+00
0	 2.962963e-01	 8.888889e-01	 1.567658e+00
0	 2.962963e-01	 9.629630e-01	 8.689296e+00
0	 2.962963e-01	 1.037037e+00	 1.944061e+01
0	 2.962963e-01	 1.111111e+00	 3.385657e+01
0	 3.703704e-01	 7.407407e-01	-1.885264e+00
0	 3.703704e-01	 8.148148e-01	-1.593204e+00
0	 3.703704e-01	 8.888889e-01	 2.712596e+00
0	 3.703704e-01	 9.629630e-01	 1.106539e+01
0	 3.703704e-01	 1.037037e+00	 2.349841e+01
0	 3.703704e-01	 1.111111e+00	 4.004493e+01
0	 0.000000e+00	 1.111111e+00	 1.511587e+01
0	 0.000000e+00	 1.185185e+00	 2.255247e+01
0	 0.000000e+00	 1.259259e+00	 2.990692e+01
0	 0.000000e+00	 1.333333e+00	 3.737626e+01
0	 0.000000e+00	 1.407407e+00	 4.515754e+01
0	 0.000000e+00	 1.481481e+00	 5.344781e+01
0	 7.407407e-02	 1.111111e+00	 1.573027e+01
0	 7.407407e-02	 1.185185e+00	 2.381492e+01
0	 7.407407e-02	 1.259259e+00	 3.178179e+01
0	 7.407407e-02	 1.333333e+00	 3.972384e+01
0	 7.407407e-02	 1.407407e+00	 4.773405e+01
0	 7.407407e-02	 1.481481e+00	 5.590537e+01
0	 1.481481e-01	 1.111111e+00	 2.011481e+01
0	 1.481481e-01	 1.185185e+00	 2.984632e+01
0	 1.481481e-01	 1.259259e+00	 3.841494e+01
0	 1.481481e-01	 1.333333e+00	 4.583760e+01
0	 1.481481e-01	 1.407407e+00	 5.213125e+01
0	 1.481481e-01	 1.481481e+00	 5.731284e+01
0	 2.222222e-01	 1.111111e+00	 2.668506e+01
0	 2.222222e-01	 1.185185e+00	 3.855144e+01
0	 2.222222e-01	 1.259259e+00	 4.762150e+01
0	 2.222222e-01	 1.333333e+00	 5.386422e+01
0	 2.222222e-01	 1.407407e+00	 5.724861e+01
0	 2.222222e-01	 1.481481e+00	 5.774365e+01
0	 2.962963e-01	 1.111111e+00	 3.385657e+01
0	 2.962963e-01	 1.185185e+00	 4.783503e+01
0	 2.962963e-01	 1.259259e+00	 5.721661e+01
0	 2.962963e-01	 1.333333e+00	 6.195043e+01
0	 2.962963e-01	 1.407407e+00	 6.198559e+01
0	 2.962963e-01	 1.481481e+00	 5.727120e+01
0	 3.703704e-01	 1.111111e+00	 4.004493e+01
0	 3.703704e-01	 1.185185e+00	 5.560184e+01
0	 3.703704e-01	 1.259259e+00	 6.501541e+01
0	 3.703704e-01	 1.333333e+00	 6.824293e+01
0	 3.703704e-01	 1.407407e+00	 6.524167e+01
0	 3.703704e-01	 1.481481e+00	 5.596893e+01
0	 0.000000e+00	 1.481481e+00	 5.344781e+01
0	 0.000000e+00	 1.555556e+00	 5.982254e+01
0	 0.000000e+00	 1.629630e+00	 6.160400e+01
0	 0.000000e+00	 1.703704e+00	 5.860943e+01
0	 0.000000e+00	 1.777778e+00	 5.065604e+01
0	 0.000000e+00	 1.851852e+00	 3.756106e+01
0	 7.407407e-02	 1.481481e+00	 5.590537e+01
0	 7.407407e-02	 1.555556e+00	 6.185731e+01
0	 7.407407e-02	 1.629630e+00	 6.309003e+01
0	 7.407407e-02	 1.703704e+00	 5.951749e+01
0	 7.407407e-02	 1.777778e+00	 5.105362e+01
0	 7.407407e-02	 1.851852e+00	 3.761240e+01
0	 1.481481e-01	 1.481481e+00	 5.731284e+01
0	 1.481481e-01	 1.555556e+00	 6.008271e+01
0	 1.481481e-01	 1.629630e+00	 5.911956e+01
0	 1.481481e-01	 1.703704e+00	 5.440796e+01
0	 1.481481e-01	 1.777778e+00	 4.593244e+01
0	 1.481481e-01	 1.851852e+00	 3.367758e+01
0	 2.222222e-01	 1.481481e+00	 5.774365e+01
0	 2.222222e-01	 1.555556e+00	 5.574036e+01
0	 2.222222e-01	 1.629630e+00	 5.166979e+01
0	 2.222222e-01	 1.703704e+00	 4.556095e+01
0	 2.222222e-01	 1.777778e+00	 3.744287e+01
0	 2.222222e-01	 1.851852e+00	 2.734456e+01
0	 2.962963e-01	 1.481481e+00	 5.727120e+01
0	 2.962963e-01	 1.555556e+00	 5.007193e+01
0	 2.962963e-01	 1.629630e+00	 4.271793e+01
0	 2.962963e-01	 1.703704e+00	 3.525659e+01
0	 2.962963e-01	 1.777778e+00	 2.773526e+01
0	 2.962963e-01	 1.851852e+00	 2.020132e+01
0	 3.703704e-01	 1.481481e+00	 5.596893e+01
0	 3.703704e-01	 1.555556e+00	 4.431903e+01
0	 3.703704e-01	 1.629630e+00	 3.424118e+01
0	 3.703704e-01	 1.703704e+00	 2.577498e+01
0	 3.703704e-01	 1.777778e+00	 1.896000e+01
0	 3.703704e-01	 1.851852e+00	 1.383584e+01
0	 0.000000e+00	 1.851852e+00	 3.756106e+01
0	 0.000000e+00	 1.925926e+00	 2.357198e+01
0	 0.000000e+00	 2.000000e+00	 1.309340e+01
0	 0.000000e+00	 2.074074e+00	 6.178272e+00
0	 0.000000e+00	 2.148148e+00	 2.879551e+00
0	 0.000000e+00	 2.222222e+00	 3.250187e+00
0	 7.407407e-02	 1.851852e+00	 3.761240e+01
0	 7.407407e-02	 1.925926e+00	 2.345577e+01
0	 7.407407e-02	 2.000000e+00	 1.291668e+01
0	 7.407407e-02	 2.074074e+00	 6.015612e+00
0	 7.407407e-02	 2.148148e+00	 2.773013e+00
0	 7.407407e-02	 2.222222e+00	 3.209348e+00
0	 1.481481e-01	 1.851852e+00	 3.367758e+01
0	 1.481481e-01	 1.925926e+00	 2.115386e+01
0	 1.481481e-01	 2.000000e+00	 1.188029e+01
0	 1.481481e-01	 2.074074e+00	 5.854164e+00
0	 1.481481e-01	 2.148148e+00	 3.072761e+00
0	 1.481481e-01	 2.222222e+00	 3.533368e+00
0	 2.222222e-01	 1.851852e+00	 2.734456e+01
0	 2.222222e-01	 1.925926e+00	 1.756279e+01
0	 2.222222e-01	 2.000000e+00	 1.036393e+01
0	 2.222222e-01	 2.074074e+00	 5.731405e+00
0	 2.222222e-01	 2.148148e+00	 3.648635e+00
0	 2.222222e-01	 2.222222e+00	 4.099047e+00
0	 2.962963e-01	 1.851852e+00	 2.020132e+01
0	 2.962963e-01	 1.925926e+00	 1.357912e+01
0	 2.962963e-01	 2.000000e+00	 8.747322e+00
0	 2.962963e-01	 2.074074e+00	 5.684816e+00
0	 2.962963e-01	 2.148148e+00	 4.370477e+00
0	 2.962963e-01	 2.222222e+00	 4.783182e+00
0	 3.703704e-01	 1.851852e+00	 1.383584e+01
0	 3.703704e-01	 1.925926e+00	 1.009938e+01
0	 3.703704e-01	 2.000000e+00	 7.410172e+00
0	 3.703704e-01	 2.074074e+00	 5.751874e+00
0	 3.703704e-01	 2.148148e+00	 5.108126e+00
0	 3.703704e-01	 2.222222e+00	 5.462573e+00
0	 0.000000e+00	 2.222222e+00	 3.250187e+00
0	 0.000000e+00	 2.296296e+00	 5.187979e+00
0	 0.000000e+00	 2.370370e+00	 6.563312e+00
0	 0.000000e+00	 2.444444e+00	 7.388014e+00
0	 0.000000e+00	 2.518519e+00	 7.673910e+00
0	 0.000000e+00	 2.592593e+00	 7.432828e+00
0	 7.407407e-02	 2.222222e+00	 3.209348e+00
0	 7.407407e-02	 2.296296e+00	 5.198438e+00
0	 7.407407e-02	 2.370370e+00	 6.608188e+00
0	 7.407407e-02	 2.444444e+00	 7.450182e+00
0	 7.407407e-02	 2.518519e+00	 7.736006e+00
0	 7.407407e-02	 2.592593e+00	 7.477245e+00
0	 1.481481e-01	 2.222222e+00	 3.533368e+00
0	 1.481481e-01	 2.296296e+00	 5.348005e+00
0	 1.481481e-01	 2.370370e+00	 6.637458e+00
0	 1.481481e-01	 2.444444e+00	 7.412165e+00
0	 1.481481e-01	 2.518519e+00	 7.682563e+00
0	 1.481481e-01	 2.592593e+00	 7.459089e+00
0	 2.222222e-01	 2.222222e+00	 4.099047e+00
0	 2.222222e-01	 2.296296e+00	 5.595085e+00
0	 2.222222e-01	 2.370370e+00	 6.665832e+00
0	 2.222222e-01	 2.444444e+00	 7.319673e+00
0	 2.222222e-01	 2.518519e+00	 7.564991e+00
0	 2.222222e-01	 2.592593e+00	 7.410170e+00
0	 2.962963e-01	 2.222222e+00	 4.783182e+00
0	 2.962963e-01	 2.296296e+00	 5.898080e+00
0	 2.962963e-01	 2.370370e+00	 6.708017e+00
0	 2.962963e-01	 2.444444e+00	 7.218417e+00
0	 2.962963e-01	 2.518519e+00	 7.434701e+00
0	 2.962963e-01	 2.592593e+00	 7.362295e+00
0	 3.703704e-01	 2.222222e+00	 5.462573e+00
0	 3.703704e-01	 2.296296e+00	 6.215396e+00
0	 3.703704e-01	 2.370370e+00	 6.778722e+00
0	 3.703704e-01	 2.444444e+00	 7.154105e+00
0	 3.703704e-01	 2.518519e+00	 7.343103e+00
0	 3.703704e-01	 2.592593e+00	 7.347271e+00
0	 0.000000e+00	 2.592593e+00	 7.432828e+00
0	 0.000000e+00	 2.666667e+00	 7.034176e+00
0	 0.000000e+00	 2.740741e+00	 6.831665e+00
0	 0.000000e+00	 2.814815e+00	 6.813568e+00
0	 0.000000e+00	 2.888889e+00	 6.968160e+00
0	 0.000000e+00	 2.962963e+00	 7.283716e+00
0	 7.407407e-02	 2.592593e+00	 7.477245e+00
0	 7.407407e-02	 2.666667e+00	 7.054037e+00
0	 7.407407e-02	 2.740741e+00	 6.832108e+00
0	 7.407407e-02	 2.814815e+00	 6.801427e+00
0	 7.407407e-02	 2.888889e+00	 6.951960e+00
0	 7.407407e-02	 2.962963e+00	 7.273676e+00
0	 1.481481e-01	 2.592593e+00	 7.459089e+00
0	 1.481481e-01	 2.666667e+00	 7.085289e+00
0	 1.481481e-01	 2.740741e+00	 6.892405e+00
0	 1.481481e-01	 2.814815e+00	 6.872421e+00
0	 1.481481e-01	 2.888889e+00	 7.017323e+00
0	 1.481481e-01	 2.962963e+00	 7.319096e+00
0	 2.222222e-01	 2.592593e+00	 7.410170e+00
0	 2.222222e-01	 2.666667e+00	 7.132052e+00
0	 2.222222e-01	 2.740741e+00	 6.998108e+00
0	 2.222222e-01	 2.814815e+00	 7.002665e+00
0	 2.222222e-01	 2.888889e+00	 7.140048e+00
0	 2.222222e-01	 2.962963e+00	 7.404585e+00
0	 2.962963e-01	 2.592593e+00	 7.362295e+00
0	 2.962963e-01	 2.666667e+00	 7.198442e+00
0	 2.962963e-01	 2.740741e+00	 7.134770e+00
0	 2.962963e-01	 2.814815e+00	 7.168270e+00
0	 2.962963e-01	 2.888889e+00	 7.295933e+00
0	 2.962963e-01	 2.962963e+00	 7.514752e+00
0	 3.703704e-01	 2.592593e+00	 7.347271e+00
0	 3.703704e-01	 2.666667e+00	 7.288578e+00
0	 3.703704e-01	 2.740741e+00	 7.287943e+00
0	 3.703704e-01	 2.814815e+00	 7.345349e+00
0	 3.703704e-01	 2.888889e+00	 7.460776e+00
0	 3.703704e-01	 2.962963e+00	 7.634206e+00
0	 0.000000e+00	 2.962963e+00	 7.283716e+00
0	 0.000000e+00	 3.037037e+00	 7.626687e+00
0	 0.000000e+00	 3.111111e+00	 7.876788e+00
0	 0.000000e+00	 3.185185e+00	 8.042185e+00
0	 0.000000e+00	 3.259259e+00	 8.131047e+00
0	 0.000000e+00	 3.333333e+00	 8.151540e+00
0	 7.407407e-02	 2.962963e+00	 7.273676e+00
0	 7.407407e-02	 3.037037e+00	 7.628094e+00
0	 7.407407e-02	 3.111111e+00	 7.887936e+00
0	 7.407407e-02	 3.185185e+00	 8.059966e+00
0	 7.407407e-02	 3.259259e+00	 8.150952e+00
0	 7.407407e-02	 3.333333e+00	 8.167660e+00
0	 1.481481e-01	 2.962963e+00	 7.319096e+00
0	 1.481481e-01	 3.037037e+00	 7.652040e+00
0	 1.481481e-01	 3.111111e+00	 7.899285e+00
0	 1.481481e-01	 3.185185e+00	 8.066063e+00
0	 1.481481e-01	 3.259259e+00	 8.157602e+00
0	 1.481481e-01	 3.333333e+00	 8.179135e+00
0	 2.222222e-01	 2.962963e+00	 7.404585e+00
0	 2.222222e-01	 3.037037e+00	 7.694660e+00
0	 2.222222e-01	 3.111111e+00	 7.914810e+00
0	 2.222222e-01	 3.185185e+00	 8.068596e+00
0	 2.222222e-01	 3.259259e+00	 8.159575e+00
0	 2.222222e-01	 3.333333e+00	 8.191307e+00
0	 2.962963e-01	 2.962963e+00	 7.514752e+00
0	 2.962963e-01	 3.037037e+00	 7.752091e+00
0	 2.962963e-01	 3.111111e+00	 7.938485e+00
0	 2.962963e-01	 3.185185e+00	 8.075686e+00
0	 2.962963e-01	 3.259259e+00	 8.165447e+00
0	 2.962963e-01	 3.333333e+00	 8.209521e+00
0	 3.703704e-01	 2.962963e+00	 7.634206e+00
0	 3.703704e-01	 3.037037e+00	 7.820470e+00
0	 3.703704e-01	 3.111111e+00	 7.974282e+00
0	 3.703704e-01	 3.185185e+00	 8.095454e+00
0	 3.703704e-01	 3.259259e+00	 8.183796e+00
0	 3.703704e-01	 3.333333e+00	 8.239118e+00
0	 0.000000e+00	 3.333333e+00	 8.151540e+00
0	 0.000000e+00	 3.407407e+00	 8.157379e+00
0	 0.000000e+00	 3.481481e+00	 8.193488e+00
0	 0.000000e+00	 3.555556e+00	 8.254845e+00
0	 0.000000e+00	 3.629630e+00	 8.336432e+00
0	 0.000000e+00	 3.703704e+00	 8.433229e+00
0	 7.407407e-02	 3.333333e+00	 8.167660e+00
0	 7.407407e-02	 3.407407e+00	 8.166390e+00
0	 7.407407e-02	 3.481481e+00	 8.196189e+00
0	 7.407407e-02	 3.555556e+00	 8.252939e+00
0	 7.407407e-02	 3.629630e+00	 8.332524e+00
0	 7.407407e-02	 3.703704e+00	 8.430827e+00
0	 1.481481e-01	 3.333333e+00	 8.179135e+00
0	 1.481481e-01	 3.407407e+00	 8.182371e+00
0	 1.481481e-01	 3.481481e+00	 8.213440e+00
0	 1.481481e-01	 3.555556e+00	 8.269196e+00
0	 1.481481e-01	 3.629630e+00	 8.346492e+00
0	 1.481481e-01	 3.703704e+00	 8.442183e+00
0	 2.222222e-01	 3.333333e+00	 8.191307e+00
0	 2.222222e-01	 3.407407e+00	 8.206281e+00
0	 2.222222e-01	 3.481481e+00	 8.243207e+00
0	 2.222222e-01	 3.555556e+00	 8.299979e+00
0	 2.222222e-01	 3.629630e+00	 8.374488e+00
0	 2.222222e-01	 3.703704e+00	 8.464628e+00
0	 2.962963e-01	 3.333333e+00	 8.209521e+00
0	 2.962963e-01	 3.407407e+00	 8.239078e+00
0	 2.962963e-01	 3.481481e+00	 8.283456e+00
0	 2.962963e-01	 3.555556e+00	 8.341651e+00
0	 2.962963e-01	 3.629630e+00	 8.412664e+00
0	 2.962963e-01	 3.703704e+00	 8.495492e+00
0	 3.703704e-01	 3.333333e+00	 8.239118e+00
0	 3.703704e-01	 3.407407e+00	 8.281722e+00
0	 3.703704e-01	 3.481481e+00	 8.332150e+00
0	 3.703704e-01	 3.555556e+00	 8.390576e+00
0	 3.703704e-01	 3.629630e+00	 8.457171e+00
0	 3.703704e-01	 3.703704e+00	 8.532108e+00
0	 0.000000e+00	 3.703704e+00	 8.433229e+00
0	 0.000000e+00	 3.777778e+00	 8.527050e+00
0	 0.000000e+00	 3.851852e+00	 8.604790e+00
0	 0.000000e+00	 3.925926e+00	 8.669053e+00
0	 0.000000e+00	 4.000000e+00	 8.722442e+00
0	 0.000000e+00	 4.074074e+00	 8.767559e+00
0	 7.407407e-02	 3.703704e+00	 8.430827e+00
0	 7.407407e-02	 3.777778e+00	 8.528151e+00
0	 7.407407e-02	 3.851852e+00	 8.608946e+00
0	 7.407407e-02	 3.925926e+00	 8.675324e+00
0	 7.407407e-02	 4.000000e+00	 8.729395e+00
0	 7.407407e-02	 4.074074e+00	 8.773268e+00
0	 1.481481e-01	 3.703704e+00	 8.442183e+00
0	 1.481481e-01	 3.777778e+00	 8.537781e+00
0	 1.481481e-01	 3.851852e+00	 8.617955e+00
0	 1.481481e-01	 3.925926e+00	 8.684290e+00
0	 1.481481e-01	 4.000000e+00	 8.738377e+00
0	 1.481481e-01	 4.074074e+00	 8.781801e+00
0	 2.222222e-01	 3.703704e+00	 8.464628e+00
0	 2.222222e-01	 3.777778e+00	 8.554906e+00
0	 2.222222e-01	 3.851852e+00	 8.631926e+00
0	 2.222222e-01	 3.925926e+00	 8.696724e+00
0	 2.222222e-01	 4.000000e+00	 8.750335e+00
0	 2.222222e-01	 4.074074e+00	 8.793796e+00
0	 2.962963e-01	 3.703704e+00	 8.495492e+00
0	 2.962963e-01	 3.777778e+00	 8.578487e+00
0	 2.962963e-01	 3.851852e+00	 8.650971e+00
0	 2.962963e-01	 3.925926e+00	 8.713396e+00
0	 2.962963e-01	 4.000000e+00	 8.766219e+00
0	 2.962963e-01	 4.074074e+00	 8.809892e+00
0	 3.703704e-01	 3.703704e+00	 8.532108e+00
0	 3.703704e-01	 3.777778e+00	 8.607489e+00
0	 3.703704e-01	 3.851852e+00	 8.675198e+00
0	 3.703704e-01	 3.925926e+00	 8.735079e+00
0	 3.703704e-01	 4.000000e+00	 8.786975e+00
0	 3.703704e-01	 4.074074e+00	 8.830728e+00
0	 0.000000e+00	 4.074074e+00	 8.767559e+00
0	 0.000000e+00	 4.148148e+00	 8.810928e+00
0	 0.000000e+00	 4.222222e+00	 8.856448e+00
0	 0.000000e+00	 4.296296e+00	 8.902782e+00
0	 0.000000e+00	 4.370370e+00	 8.948595e+00
0	 0.000000e+00	 4.444444e+00	 8.992551e+00
0	 7.407407e-02	 4.074074e+00	 8.773268e+00
0	 7.407407e-02	 4.148148e+00	 8.814357e+00
0	 7.407407e-02	 4.222222e+00	 8.857940e+00
0	 7.407407e-02	 4.296296e+00	 8.902918e+00
0	 7.407407e-02	 4.370370e+00	 8.948196e+00
0	 7.407407e-02	 4.444444e+00	 8.992677e+00
0	 1.481481e-01	 4.074074e+00	 8.781801e+00
0	 1.481481e-01	 4.148148e+00	 8.821874e+00
0	 1.481481e-01	 4.222222e+00	 8.864291e+00
0	 1.481481e-01	 4.296296e+00	 8.908211e+00
0	 1.481481e-01	 4.370370e+00	 8.952797e+00
0	 1.481481e-01	 4.444444e+00	 8.997208e+00
0	 2.222222e-01	 4.074074e+00	 8.793796e+00
0	 2.222222e-01	 4.148148e+00	 8.833635e+00
0	 2.222222e-01	 4.222222e+00	 8.875314e+00
0	 2.222222e-01	 4.296296e+00	 8.918271e+00
0	 2.222222e-01	 4.370370e+00	 8.961941e+00
0	 2.222222e-01	 4.444444e+00	 9.005761e+00
0	 2.962963e-01	 4.074074e+00	 8.809892e+00
0	 2.962963e-01	 4.148148e+00	 8.849795e+00
0	 2.962963e-01	 4.222222e+00	 8.890822e+00
0	 2.962963e-01	 4.296296e+00	 8.932704e+00
0	 2.962963e-01	 4.370370e+00	 8.975172e+00
0	 2.962963e-01	 4.444444e+00	 9.017955e+00
0	 3.703704e-01	 4.074074e+00	 8.830728e+00
0	 3.703704e-01	 4.148148e+00	 8.870510e+00
0	 3.703704e-01	 4.222222e+00	 8.910627e+00
0	 3.703704e-01	 4.296296e+00	 8.951121e+00
0	 3.703704e-01	 4.370370e+00	 8.992033e+00
0	 3.703704e-01	 4.444444e+00	 9.033407e+00
0	 0.000000e+00	 4.444444e+00	 8.992551e+00
0	 0.000000e+00	 4.518519e+00	 9.033566e+00
0	 0.000000e+00	 4.592593e+00	 9.071821e+00
0	 0.000000e+00	 4.666667e+00	 9.107877e+00
0	 0.000000e+00	 4.740741e+00	 9.142297e+00
0	 0.000000e+00	 4.814815e+00	 9.175643e+00
0	 7.407407e-02	 4.444444e+00	 8.992677e+00
0	 7.407407e-02	 4.518519e+00	 9.034746e+00
0	 7.407407e-02	 4.592593e+00	 9.073824e+00
0	 7.407407e-02	 4.666667e+00	 9.110374e+00
0	 7.407407e-02	 4.740741e+00	 9.144857e+00
0	 7.407407e-02	 4.814815e+00	 9.177733e+00
0	 1.481481e-01	 4.444444e+00	 8.997208e+00
0	 1.481481e-01	 4.518519e+00	 9.039611e+00
0	 1.481481e-01	 4.592593e+00	 9.078966e+00
0	 1.481481e-01	 4.666667e+00	 9.115623e+00
0	 1.481481e-01	 4.740741e+00	 9.149932e+00
0	 1.481481e-01	 4.814815e+00	 9.182243e+00
0	 2.222222e-01	 4.444444e+00	 9.005761e+00
0	 2.222222e-01	 4.518519e+00	 9.047910e+00
0	 2.222222e-01	 4.592593e+00	 9.087095e+00
0	 2.222222e-01	 4.666667e+00	 9.123545e+00
0	 2.222222e-01	 4.740741e+00	 9.157491e+00
0	 2.222222e-01	 4.814815e+00	 9.189161e+00
0	 2.962963e-01	 4.444444e+00	 9.017955e+00
0	 2.962963e-01	 4.518519e+00	 9.059390e+00
0	 2.962963e-01	 4.592593e+00	 9.098061e+00
0	 2.962963e-01	 4.666667e+00	 9.134066e+00
0	 2.962963e-01	 4.740741e+00	 9.167503e+00
0	 2.962963e-01	 4.814815e+00	 9.198473e+00
0	 3.703704e-01	 4.444444e+00	 9.033407e+00
0	 3.703704e-01	 4.518519e+00	 9.073799e+00
0	 3.703704e-01	 4.592593e+00	 9.111714e+00
0	 3.703704e-01	 4.666667e+00	 9.147107e+00
0	 3.703704e-01	 4.740741e+00	 9.179938e+00
0	 3.703704e-01	 4.814815e+00	 9.210165e+00
0	 0.000000e+00	 4.814815e+00	 9.175643e+00
0	 0.000000e+00	 4.888889e+00	 9.208194e+00
0	 0.000000e+00	 4.962963e+00	 9.239683e+00
0	 0.000000e+00	 5.037037e+00	 9.269848e+00
0	 0.000000e+00	 5.111111e+00	 9.298430e+00
0	 0.000000e+00	 5.185185e+00	 9.325166e+00
0	 7.407407e-02	 4.814815e+00	 9.177733e+00
0	 7.407407e-02	 4.888889e+00	 9.209585e+00
0	 7.407407e-02	 4.962963e+00	 9.240537e+00
0	 7.407407e-02	 5.037037e+00	 9.270365e+00
0	 7.407407e-02	 5.111111e+00	 9.298842e+00
0	 7.407407e-02	 5.185185e+00	 9.325744e+00
0	 1.481481e-01	 4.814815e+00	 9.182243e+00
0	 1.481481e-01	 4.888889e+00	 9.213350e+00
0	 1.481481e-01	 4.962963e+00	 9.243691e+00
0	 1.481481e-01	 5.037037e+00	 9.273082e+00
0	 1.481481e-01	 5.111111e+00	 9.301343e+00
0	 1.481481e-01	 5.185185e+00	 9.328290e+00
0	 2.222222e-01	 4.814815e+00	 9.189161e+00
0	 2.222222e-01	 4.888889e+00	 9.219480e+00
0	 2.222222e-01	 4.962963e+00	 9.249130e+00
0	 2.222222e-01	 5.037037e+00	 9.277980e+00
0	 2.222222e-01	 5.111111e+00	 9.305897e+00
0	 2.222222e-01	 5.185185e+00	 9.332751e+00
0	 2.962963e-01	 4.814815e+00	 9.198473e+00
0	 2.962963e-01	 4.888889e+00	 9.227960e+00
0	 2.962963e-01	 4.962963e+00	 9.256839e+00
0	 2.962963e-01	 5.037037e+00	 9.285034e+00
0	 2.962963e-01	 5.111111e+00	 9.312471e+00
0	 2.962963e-01	 5.185185e+00	 9.339077e+00
0	 3.703704e-01	 4.814815e+00	 9.210165e+00
0	 3.703704e-01	 4.888889e+00	 9.238781e+00
0	 3.703704e-01	 4.962963e+00	 9.266803e+00
0	 3.703704e-01	 5.037037e+00	 9.294222e+00
0	 3.703704e-01	 5.111111e+00	 9.321030e+00
0	 3.703704e-01	 5.185185e+00	 9.347217e+00
0	 0.000000e+00	 5.185185e+00	 9.325166e+00
0	 0.000000e+00	 5.259259e+00	 9.350476e+00
0	 0.000000e+00	 5.333333e+00	 9.375001e+00
0	 0.000000e+00	 5.407407e+00	 9.398819e+00
0	 0.000000e+00	 5.481481e+00	 9.422005e+00
0	 0.000000e+00	 5.555556e+00	 9.444635e+00
0	 7.407407e-02	 5.185185e+00	 9.325744e+00
0	 7.407407e-02	 5.259259e+00	 9.351321e+00
0	 7.407407e-02	 5.333333e+00	 9.376018e+00
0	 7.407407e-02	 5.407407e+00	 9.399902e+00
0	 7.407407e-02	 5.481481e+00	 9.423042e+00
0	 7.407407e-02	 5.555556e+00	 9.445507e+00
0	 1.481481e-01	 5.185185e+00	 9.328290e+00
0	 1.481481e-01	 5.259259e+00	 9.354018e+00
0	 1.481481e-01	 5.333333e+00	 9.378781e+00
0	 1.481481e-01	 5.407407e+00	 9.402636e+00
0	 1.481481e-01	 5.481481e+00	 9.425637e+00
0	 1.481481e-01	 5.555556e+00	 9.447842e+00
0	 2.222222e-01	 5.185185e+00	 9.332751e+00
0	 2.222222e-01	 5.259259e+00	 9.358500e+00
0	 2.222222e-01	 5.333333e+00	 9.383220e+00
0	 2.222222e-01	 5.407407e+00	 9.406950e+00
0	 2.222222e-01	 5.481481e+00	 9.429729e+00
0	 2.222222e-01	 5.555556e+00	 9.451597e+00
0	 2.962963e-01	 5.185185e+00	 9.339077e+00
0	 2.962963e-01	 5.259259e+00	 9.364703e+00
0	 2.962963e-01	 5.333333e+00	 9.389263e+00
0	 2.962963e-01	 5.407407e+00	 9.412775e+00
0	 2.962963e-01	 5.481481e+00	 9.435258e+00
0	 2.962963e-01	 5.555556e+00	 9.456730e+00
0	 3.703704e-01	 5.185185e+00	 9.347217e+00
0	 3.703704e-01	 5.259259e+00	 9.372560e+00
0	 3.703704e-01	 5.333333e+00	 9.396836e+00
0	 3.703704e-01	 5.407407e+00	 9.420040e+00
0	 3.703704e-01	 5.481481e+00	 9.442163e+00
0	 3.703704e-01	 5.555556e+00	 9.463199e+00
0	 0.000000e+00	 5.555556e+00	 9.444635e+00
0	 0.000000e+00	 5.629630e+00	 9.466606e+00
0	 0.000000e+00	 5.703704e+00	 9.487742e+00
0	 0.000000e+00	 5.777778e+00	 9.508008e+00
0	 0.000000e+00	 5.851852e+00	 9.527367e+00
0	 0.000000e+00	 5.925926e+00	 9.545784e+00
0	 7.407407e-02	 5.555556e+00	 9.445507e+00
0	 7.407407e-02	 5.629630e+00	 9.467282e+00
0	 7.407407e-02	 5.703704e+00	 9.488281e+00
0	 7.407407e-02	 5.777778e+00	 9.508469e+00
0	 7.407407e-02	 5.851852e+00	 9.527807e+00
0	 7.407407e-02	 5.925926e+00	 9.546259e+00
0	 1.481481e-01	 5.555556e+00	 9.447842e+00
0	 1.481481e-01	 5.629630e+00	 9.469324e+00
0	 1.481481e-01	 5.703704e+00	 9.490097e+00
0	 1.481481e-01	 5.777778e+00	 9.510126e+00
0	 1.481481e-01	 5.851852e+00	 9.529373e+00
0	 1.481481e-01	 5.925926e+00	 9.547805e+00
0	 2.222222e-01	 5.555556e+00	 9.451597e+00
0	 2.222222e-01	 5.629630e+00	 9.472711e+00
0	 2.222222e-01	 5.703704e+00	 9.493179e+00
0	 2.222222e-01	 5.777778e+00	 9.512973e+00
0	 2.222222e-01	 5.851852e+00	 9.532060e+00
0	 2.222222e-01	 5.925926e+00	 9.550411e+00
0	 2.962963e-01	 5.555556e+00	 9.456730e+00
0	 2.962963e-01	 5.629630e+00	 9.477417e+00
0	 2.962963e-01	 5.703704e+00	 9.497516e+00
0	 2.962963e-01	 5.777778e+00	 9.517006e+00
0	 2.962963e-01	 5.851852e+00	 9.535862e+00
0	 2.962963e-01	 5.925926e+00	 9.554063e+00
0	 3.703704e-01	 5.555556e+00	 9.463199e+00
0	 3.703704e-01	 5.629630e+00	 9.483420e+00
0	 3.703704e-01	 5.703704e+00	 9.503097e+00
0	 3.703704e-01	 5.777778e+00	 9.522219e+00
0	 3.703704e-01	 5.851852e+00	 9.540773e+00
0	 3.703704e-01	 5.925926e+00	 9.558747e+00
0	 0.000000e+00	 5.925926e+00	 9.545784e+00
0	 0.000000e+00	 6.000000e+00	 9.563489e+00
0	 0.000000e+00	 6.074074e+00	 9.580732e+00
0	 0.000000e+00	 6.148148e+00	 9.597512e+00
0	 0.000000e+00	 6.222222e+00	 9.613825e+00
0	 0.000000e+00	 6.296296e+00	 9.629671e+00
0	 7.407407e-02	 5.925926e+00	 9.546259e+00
0	 7.407407e-02	 6.000000e+00	 9.564008e+00
0	 7.407407e-02	 6.074074e+00	 9.581265e+00
0	 7.407407e-02	 6.148148e+00	 9.598032e+00
0	 7.407407e-02	 6.222222e+00	 9.614310e+00
0	 7.407407e-02	 6.296296e+00	 9.630101e+00
0	 1.481481e-01	 5.925926e+00	 9.547805e+00
0	 1.481481e-01	 6.000000e+00	 9.565555e+00
0	 1.481481e-01	 6.074074e+00	 9.582783e+00
0	 1.481481e-01	 6.148148e+00	 9.599493e+00
0	 1.481481e-01	 6.222222e+00	 9.615689e+00
0	 1.481481e-01	 6.296296e+00	 9.631373e+00
0	 2.222222e-01	 5.925926e+00	 9.550411e+00
0	 2.222222e-01	 6.000000e+00	 9.568108e+00
0	 2.222222e-01	 6.074074e+00	 9.585259e+00
0	 2.222222e-01	 6.148148e+00	 9.601866e+00
0	 2.222222e-01	 6.222222e+00	 9.617934e+00
0	 2.222222e-01	 6.296296e+00	 9.633467e+00
0	 2.962963e-01	 5.925926e+00	 9.554063e+00
0	 2.962963e-01	 6.000000e+00	 9.571645e+00
0	 2.962963e-01	 6.074074e+00	 9.588664e+00
0	 2.962963e-01	 6.148148e+00	 9.605122e+00
0	 2.962963e-01	 6.222222e+00	 9.621020e+00
0	 2.962963e-01	 6.296296e+00	 9.636362e+00
0	 3.703704e-01	 5.925926e+00	 9.558747e+00
0	 3.703704e-01	 6.000000e+00	 9.576145e+00
0	 3.703704e-01	 6.074074e+00	 9.592973e+00
0	 3.703704e-01	 6.148148e+00	 9.609232e+00
0	 3.703704e-01	 6.222222e+00	 9.624921e+00
0	 3.703704e-01	 6.296296e+00	 9.640037e+00
0	 0.000000e+00	 6.296296e+00	 9.629671e+00
0	 0.000000e+00	 6.370370e+00	 9.645033e+00
0	 0.000000e+00	 6.444444e+00	 9.659899e+00
0	 0.000000e+00	 6.518519e+00	 9.674267e+00
0	 0.000000e+00	 6.592593e+00	 9.688134e+00
0	 0.000000e+00	 6.666667e+00	 9.701500e+00
0	 7.407407e-02	 6.296296e+00	 9.630101e+00
0	 7.407407e-02	 6.370370e+00	 9.645410e+00
0	 7.407407e-02	 6.444444e+00	 9.660240e+00
0	 7.407407e-02	 6.518519e+00	 9.674586e+00
0	 7.407407e-02	 6.592593e+00	 9.688443e+00
0	 7.407407e-02	 6.666667e+00	 9.701806e+00
0	 1.481481e-01	 6.296296e+00	 9.631373e+00
0	 1.481481e-01	 6.370370e+00	 9.646576e+00
0	 1.481481e-01	 6.444444e+00	 9.661320e+00
0	 1.481481e-01	 6.518519e+00	 9.675599e+00
0	 1.481481e-01	 6.592593e+00	 9.689406e+00
0	 1.481481e-01	 6.666667e+00	 9.702733e+00
0	 2.222222e-01	 6.296296e+00	 9.633467e+00
0	 2.222222e-01	 6.370370e+00	 9.648518e+00
0	 2.222222e-01	 6.444444e+00	 9.663131e+00
0	 2.222222e-01	 6.518519e+00	 9.677300e+00
0	 2.222222e-01	 6.592593e+00	 9.691017e+00
0	 2.222222e-01	 6.666667e+00	 9.704274e+00
0	 2.962963e-01	 6.296296e+00	 9.636362e+00
0	 2.962963e-01	 6.370370e+00	 9.651220e+00
0	 2.962963e-01	 6.444444e+00	 9.665662e+00
0	 2.962963e-01	 6.518519e+00	 9.679681e+00
0	 2.962963e-01	 6.592593e+00	 9.693269e+00
0	 2.962963e-01	 6.666667e+00	 9.706420e+00
0	 3.703704e-01	 6.296296e+00	 9.640037e+00
0	 3.703704e-01	 6.370370e+00	 9.654670e+00
0	 3.703704e-01	 6.444444e+00	 9.668905e+00
0	 3.703704e-01	 6.518519e+00	 9.682736e+00
0	 3.703704e-01	 6.592593e+00	 9.696157e+00
0	 3.703704e-01	 6.666667e+00	 9.709163e+00
0	 0.000000e+00	 6.666667e+00	 9.701500e+00
0	 0.000000e+00	 6.740741e+00	 9.714448e+00
0	 0.000000e+00	 6.814815e+00	 9.727056e+00
0	 0.000000e+00	 6.888889e+00	 9.739320e+00
0	 0.000000e+00	 6.962963e+00	 9.751235e+00
0	 0.000000e+00	 7.037037e+00	 9.762797e+00
0	 7.407407e-02	 6.666667e+00	 9.701806e+00
0	 7.407407e-02	 6.740741e+00	 9.714749e+00
0	 7.407407e-02	 6.814815e+00	 9.727346e+00
0	 7.407407e-02	 6.888889e+00	 9.739594e+00
0	 7.407407e-02	 6.962963e+00	 9.751490e+00
0	 7.407407e-02	 7.037037e+00	 9.763032e+00
0	 1.481481e-01	 6.666667e+00	 9.702733e+00
0	 1.481481e-01	 6.740741e+00	 9.715643e+00
0	 1.481481e-01	 6.814815e+00	 9.728200e+00
0	 1.481481e-01	 6.888889e+00	 9.740404e+00
0	 1.481481e-01	 6.962963e+00	 9.752253e+00
0	 1.481481e-01	 7.037037e+00	 9.763746e+00
0	 2.222222e-01	 6.666667e+00	 9.704274e+00
0	 2.222222e-01	 6.740741e+00	 9.717120e+00
0	 2.222222e-01	 6.814815e+00	 9.729609e+00
0	 2.222222e-01	 6.888889e+00	 9.741740e+00
0	 2.222222e-01	 6.962963e+00	 9.753515e+00
0	 2.222222e-01	 7.037037e+00	 9.764932e+00
0	 2.962963e-01	 6.666667e+00	 9.706420e+00
0	 2.962963e-01	 6.740741e+00	 9.719169e+00
0	 2.962963e-01	 6.814815e+00	 9.731559e+00
0	 2.962963e-01	 6.888889e+00	 9.743591e+00
0	 2.962963e-01	 6.962963e+00	 9.755264e+00
0	 2.962963e-01	 7.037037e+00	 9.766580e+00
0	 3.703704e-01	 6.666667e+00	 9.709163e+00
0	 3.703704e-01	 6.740741e+00	 9.721781e+00
0	 3.703704e-01	 6.814815e+00	 9.734042e+00
0	 3.703704e-01	 6.888889e+00	 9.745945e+00
0	 3.703704e-01	 6.962963e+00	 9.757492e+00
0	 3.703704e-01	 7.037037e+00	 9.768682e+00
0	 0.000000e+00	 7.037037e+00	 9.762797e+00
0	 0.000000e+00	 7.111111e+00	 9.774019e+00
0	 0.000000e+00	 7.185185e+00	 9.784918e+00
0	 0.000000e+00	 7.259259e+00	 9.795498e+00
0	 0.000000e+00	 7.333333e+00	 9.805759e+00
0	 0.000000e+00	 7.407407e+00	 9.815706e+00
0	 7.407407e-02	 7.037037e+00	 9.763032e+00
0	 7.407407e-02	 7.111111e+00	 9.774236e+00
0	 7.407407e-02	 7.185185e+00	 9.785123e+00
0	 7.407407e-02	 7.259259e+00	 9.795692e+00
0	 7.407407e-02	 7.333333e+00	 9.805945e+00
0	 7.407407e-02	 7.407407e+00	 9.815883e+00
0	 1.481481e-01	 7.037037e+00	 9.763746e+00
0	 1.481481e-01	 7.111111e+00	 9.774905e+00
0	 1.481481e-01	 7.185185e+00	 9.785751e+00
0	 1.481481e-01	 7.259259e+00	 9.796285e+00
0	 1.481481e-01	 7.333333e+00	 9.806506e+00
0	 1.481481e-01	 7.407407e+00	 9.816414e+00
0	 2.222222e-01	 7.037037e+00	 9.764932e+00
0	 2.222222e-01	 7.111111e+00	 9.776018e+00
0	 2.222222e-01	 7.185185e+00	 9.786798e+00
0	 2.222222e-01	 7.259259e+00	 9.797270e+00
0	 2.222222e-01	 7.333333e+00	 9.807435e+00
0	 2.222222e-01	 7.407407e+00	 9.817292e+00
0	 2.962963e-01	 7.037037e+00	 9.766580e+00
0	 2.962963e-01	 7.111111e+00	 9.777568e+00
0	 2.962963e-01	 7.185185e+00	 9.788256e+00
0	 2.962963e-01	 7.259259e+00	 9.798643e+00
0	 2.962963e-01	 7.333333e+00	 9.808730e+00
0	 2.962963e-01	 7.407407e+00	 9.818514e+00
0	 3.703704e-01	 7.037037e+00	 9.768682e+00
0	 3.703704e-01	 7.111111e+00	 9.779547e+00
0	 3.703704e-01	 7.185185e+00	 9.790120e+00
0	 3.703704e-01	 7.259259e+00	 9.800399e+00
0	 3.703704e-01	 7.333333e+00	 9.810384e+00
0	 3.703704e-01	 7.407407e+00	 9.820075e+00
0	 0.000000e+00	 7.407407e+00	 9.815706e+00
0	 0.000000e+00	 7.481481e+00	 9.825361e+00
0	 0.000000e+00	 7.555556e+00	 9.834750e+00
0	 0.000000e+00	 7.629630e+00	 9.843873e+00
0	 0.000000e+00	 7.703704e+00	 9.852729e+00
0	 0.000000e+00	 7.777778e+00	 9.861319e+00
0	 7.407407e-02	 7.407407e+00	 9.815883e+00
0	 7.407407e-02	 7.481481e+00	 9.825529e+00
0	 7.407407e-02	 7.555556e+00	 9.834907e+00
0	 7.407407e-02	 7.629630e+00	 9.844019e+00
0	 7.407407e-02	 7.703704e+00	 9.852864e+00
0	 7.407407e-02	 7.777778e+00	 9.861446e+00
0	 1.481481e-01	 7.407407e+00	 9.816414e+00
0	 1.481481e-01	 7.481481e+00	 9.826031e+00
0	 1.481481e-01	 7.555556e+00	 9.835379e+00
0	 1.481481e-01	 7.629630e+00	 9.844461e+00
0	 1.481481e-01	 7.703704e+00	 9.853278e+00
0	 1.481481e-01	 7.777778e+00	 9.861833e+00
0	 2.222222e-01	 7.407407e+00	 9.817292e+00
0	 2.222222e-01	 7.481481e+00	 9.826860e+00
0	 2.222222e-01	 7.555556e+00	 9.836161e+00
0	 2.222222e-01	 7.629630e+00	 9.845195e+00
0	 2.222222e-01	 7.703704e+00	 9.853966e+00
0	 2.222222e-01	 7.777778e+00	 9.862476e+00
0	 2.962963e-01	 7.407407e+00	 9.818514e+00
0	 2.962963e-01	 7.481481e+00	 9.828013e+00
0	 2.962963e-01	 7.555556e+00	 9.837246e+00
0	 2.962963e-01	 7.629630e+00	 9.846215e+00
0	 2.962963e-01	 7.703704e+00	 9.854923e+00
0	 2.962963e-01	 7.777778e+00	 9.863372e+00
0	 3.703704e-01	 7.407407e+00	 9.820075e+00
0	 3.703704e-01	 7.481481e+00	 9.829485e+00
0	 3.703704e-01	 7.555556e+00	 9.838632e+00
0	 3.703704e-01	 7.629630e+00	 9.847517e+00
0	 3.703704e-01	 7.703704e+00	 9.856144e+00
0	 3.703704e-01	 7.777778e+00	 9.864515e+00
0	 0.000000e+00	 7.777778e+00	 9.861319e+00
0	 0.000000e+00	 7.851852e+00	 9.869649e+00
0	 0.000000e+00	 7.925926e+00	 9.877726e+00
0	 0.000000e+00	 8.000000e+00	 9.885554e+00
0	 0.000000e+00	 8.074074e+00	 9.893139e+00
0	 0.000000e+00	 8.148148e+00	 9.900484e+00
0	 7.407407e-02	 7.777778e+00	 9.861446e+00
0	 7.407407e-02	 7.851852e+00	 9.869768e+00
0	 7.407407e-02	 7.925926e+00	 9.877838e+00
0	 7.407407e-02	 8.000000e+00	 9.885659e+00
0	 7.407407e-02	 8.074074e+00	 9.893237e+00
0	 7.407407e-02	 8.148148e+00	 9.900575e+00
0	 1.481481e-01	 7.777778e+00	 9.861833e+00
0	 1.481481e-01	 7.851852e+00	 9.870129e+00
0	 1.481481e-01	 7.925926e+00	 9.878175e+00
0	 1.481481e-01	 8.000000e+00	 9.885975e+00
0	 1.481481e-01	 8.074074e+00	 9.893531e+00
0	 1.481481e-01	 8.148148e+00	 9.900848e+00
0	 2.222222e-01	 7.777778e+00	 9.862476e+00
0	 2.222222e-01	 7.851852e+00	 9.870731e+00
0	 2.222222e-01	 7.925926e+00	 9.878737e+00
0	 2.222222e-01	 8.000000e+00	 9.886498e+00
0	 2.222222e-01	 8.074074e+00	 9.894018e+00
0	 2.222222e-01	 8.148148e+00	 9.901300e+00
0	 2.962963e-01	 7.777778e+00	 9.863372e+00
0	 2.962963e-01	 7.851852e+00	 9.871567e+00
0	 2.962963e-01	 7.925926e+00	 9.879517e+00
0	 2.962963e-01	 8.000000e+00	 9.887225e+00
0	 2.962963e-01	 8.074074e+00	 9.894694e+00
0	 2.962963e-01	 8.148148e+00	 9.901928e+00
0	 3.703704e-01	 7.777778e+00	 9.864515e+00
0	 3.703704e-01	 7.851852e+00	 9.872637e+00
0	 3.703704e-01	 7.925926e+00	 9.880515e+00
0	 3.703704e-01	 8.000000e+00	 9.888154e+00
0	 3.703704e-01	 8.074074e+00	 9.895558e+00
0	 3.703704e-01	 8.148148e+00	 9.902730e+00
0	 0.000000e+00	 8.148148e+00	 9.900484e+00
0	 0.000000e+00	 8.222222e+00	 9.907587e+00
0	 0.000000e+00	 8.296296e+00	 9.914446e+00
0	 0.000000e+00	 8.370370e+00	 9.921066e+00
0	 0.000000e+00	 8.444444e+00	 9.927453e+00
0	 0.000000e+00	 8.518519e+00	 9.933612e+00
0	 7.407407e-02	 8.148148e+00	 9.900575e+00
0	 7.407407e-02	 8.222222e+00	 9.907671e+00
0	 7.407407e-02	 8.296296e+00	 9.914523e+00
0	 7.407407e-02	 8.370370e+00	 9.921136e+00
0	 7.407407e-02	 8.444444e+00	 9.927517e+00
0	 7.407407e-02	 8.518519e+00	 9.933671e+00
0	 1.481481e-01	 8.148148e+00	 9.900848e+00
0	 1.481481e-01	 8.222222e+00	 9.907923e+00
0	 1.481481e-01	 8.296296e+00	 9.914755e+00
0	 1.481481e-01	 8.370370e+00	 9.921350e+00
0	 1.481481e-01	 8.444444e+00	 9.927712e+00
0	 1.481481e-01	 8.518519e+00	 9.933850e+00
0	 2.222222e-01	 8.148148e+00	 9.901300e+00
0	 2.222222e-01	 8.222222e+00	 9.908342e+00
0	 2.222222e-01	 8.296296e+00	 9.915141e+00
0	 2.222222e-01	 8.370370e+00	 9.921705e+00
0	 2.222222e-01	 8.444444e+00	 9.928038e+00
0	 2.222222e-01	 8.518519e+00	 9.934147e+00
0	 2.962963e-01	 8.148148e+00	 9.901928e+00
0	 2.962963e-01	 8.222222e+00	 9.908924e+00
0	 2.962963e-01	 8.296296e+00	 9.915679e+00
0	 2.962963e-01	 8.370370e+00	 9.922199e+00
0	 2.962963e-01	 8.444444e+00	 9.928491e+00
0	 2.962963e-01	 8.518519e+00	 9.934561e+00
0	 3.703704e-01	 8.148148e+00	 9.902730e+00
0	 3.703704e-01	 8.222222e+00	 9.909666e+00
0	 3.703704e-01	 8.296296e+00	 9.916364e+00
0	 3.703704e-01	 8.370370e+00	 9.922830e+00
0	 3.703704e-01	 8.444444e+00	 9.929070e+00
0	 3.703704e-01	 8.518519e+00	 9.935089e+00
0	 0.000000e+00	 8.518519e+00	 9.933612e+00
0	 0.000000e+00	 8.592593e+00	 9.939530e+00
0	 0.000000e+00	 8.666667e+00	 9.945192e+00
0	 0.000000e+00	 8.740741e+00	 9.950607e+00
0	 0.000000e+00	 8.814815e+00	 9.955785e+00
0	 0.000000e+00	 8.888889e+00	 9.960735e+00
0	 7.407407e-02	 8.518519e+00	 9.933671e+00
0	 7.407407e-02	 8.592593e+00	 9.939583e+00
0	 7.407407e-02	 8.666667e+00	 9.945240e+00
0	 7.407407e-02	 8.740741e+00	 9.950651e+00
0	 7.407407e-02	 8.814815e+00	 9.955825e+00
0	 7.407407e-02	 8.888889e+00	 9.960770e+00
0	 1.481481e-01	 8.518519e+00	 9.933850e+00
0	 1.481481e-01	 8.592593e+00	 9.939746e+00
0	 1.481481e-01	 8.666667e+00	 9.945388e+00
0	 1.481481e-01	 8.740741e+00	 9.950785e+00
0	 1.481481e-01	 8.814815e+00	 9.955944e+00
0	 1.481481e-01	 8.888889e+00	 9.960876e+00
0	 2.222222e-01	 8.518519e+00	 9.934147e+00
0	 2.222222e-01	 8.592593e+00	 9.940017e+00
0	 2.222222e-01	 8.666667e+00	 9.945633e+00
0	 2.222222e-01	 8.740741e+00	 9.951006e+00
0	 2.222222e-01	 8.814815e+00	 9.956142e+00
0	 2.222222e-01	 8.888889e+00	 9.961052e+00
0	 2.962963e-01	 8.518519e+00	 9.934561e+00
0	 2.962963e-01	 8.592593e+00	 9.940393e+00
0	 2.962963e-01	 8.666667e+00	 9.945974e+00
0	 2.962963e-01	 8.740741e+00	 9.951312e+00
0	 2.962963e-01	 8.814815e+00	 9.956416e+00
0	 2.962963e-01	 8.888889e+00	 9.961295e+00
0	 3.703704e-01	 8.518519e+00	 9.935089e+00
0	 3.703704e-01	 8.592593e+00	 9.940874e+00
0	 3.703704e-01	 8.666667e+00	 9.946409e+00
0	 3.703704e-01	 8.740741e+00	 9.951703e+00
0	 3.703704e-01	 8.814815e+00	 9.956766e+00
0	 3.703704e-01	 8.888889e+00	 9.961606e+00
0	 0.000000e+00	 8.888889e+00	 9.960735e+00
0	 0.000000e+00	 8.962963e+00	 9.965428e+00
0	 0.000000e+00	 9.037037e+00	 9.969839e+00
0	 0.000000e+00	 9.111111e+00	 9.973979e+00
0	 0.000000e+00	 9.185185e+00	 9.977862e+00
0	 0.000000e+00	 9.259259e+00	 9.981498e+00
0	 7.407407e-02	 8.888889e+00	 9.960770e+00
0	 7.407407e-02	 8.962963e+00	 9.965459e+00
0	 7.407407e-02	 9.037037e+00	 9.969865e+00
0	 7.407407e-02	 9.111111e+00	 9.974002e+00
0	 7.407407e-02	 9.185185e+00	 9.977881e+00
0	 7.407407e-02	 9.259259e+00	 9.981514e+00
0	 1.481481e-01	 8.888889e+00	 9.960876e+00
0	 1.481481e-01	 8.962963e+00	 9.965552e+00
0	 1.481481e-01	 9.037037e+00	 9.969947e+00
0	 1.481481e-01	 9.111111e+00	 9.974072e+00
0	 1.481481e-01	 9.185185e+00	 9.977941e+00
0	 1.481481e-01	 9.259259e+00	 9.981564e+00
0	 2.222222e-01	 8.888889e+00	 9.961052e+00
0	 2.222222e-01	 8.962963e+00	 9.965707e+00
0	 2.222222e-01	 9.037037e+00	 9.970082e+00
0	 2.222222e-01	 9.111111e+00	 9.974189e+00
0	 2.222222e-01	 9.185185e+00	 9.978040e+00
0	 2.222222e-01	 9.259259e+00	 9.981647e+00
0	 2.962963e-01	 8.888889e+00	 9.961295e+00
0	 2.962963e-01	 8.962963e+00	 9.965921e+00
0	 2.962963e-01	 9.037037e+00	 9.970269e+00
0	 2.962963e-01	 9.111111e+00	 9.974350e+00
0	 2.962963e-01	 9.185185e+00	 9.978177e+00
0	 2.962963e-01	 9.259259e+00	 9.981762e+00
0	 3.703704e-01	 8.888889e+00	 9.961606e+00
0	 3.703704e-01	 8.962963e+00	 9.966194e+00
0	 3.703704e-01	 9.037037e+00	 9.970507e+00
0	 3.703704e-01	 9.111111e+00	 9.974555e+00
0	 3.703704e-01	 9.185185e+00	 9.978352e+00
0	 3.703704e-01	 9.259259e+00	 9.981908e+00
0	 0.000000e+00	 9.259259e+00	 9.981498e+00
0	 0.000000e+00	 9.333333e+00	 9.984843e+00
0	 0.000000e+00	 9.407407e+00	 9.987854e+00
0	 0.000000e+00	 9.481481e+00	 9.990547e+00
0	 0.000000e+00	 9.555556e+00	 9.992941e+00
0	 0.000000e+00	 9.629630e+00	 9.995051e+00
0	 7.407407e-02	 9.259259e+00	 9.981514e+00
0	 7.407407e-02	 9.333333e+00	 9.984856e+00
0	 7.407407e-02	 9.407407e+00	 9.987864e+00
0	 7.407407e-02	 9.481481e+00	 9.990556e+00
0	 7.407407e-02	 9.555556e+00	 9.992947e+00
0	 7.407407e-02	 9.629630e+00	 9.995055e+00
0	 1.481481e-01	 9.259259e+00	 9.981564e+00
0	 1.481481e-01	 9.333333e+00	 9.984897e+00
0	 1.481481e-01	 9.407407e+00	 9.987898e+00
0	 1.481481e-01	 9.481481e+00	 9.990582e+00
0	 1.481481e-01	 9.555556e+00	 9.992967e+00
0	 1.481481e-01	 9.629630e+00	 9.995069e+00
0	 2.222222e-01	 9.259259e+00	 9.981647e+00
0	 2.222222e-01	 9.333333e+00	 9.984966e+00
0	 2.222222e-01	 9.407407e+00	 9.987953e+00
0	 2.222222e-01	 9.481481e+00	 9.990625e+00
0	 2.222222e-01	 9.555556e+00	 9.993000e+00
0	 2.222222e-01	 9.629630e+00	 9.995092e+00
0	 2.962963e-01	 9.259259e+00	 9.981762e+00
0	 2.962963e-01	 9.333333e+00	 9.985060e+00
0	 2.962963e-01	 9.407407e+00	 9.988029e+00
0	 2.962963e-01	 9.481481e+00	 9.990684e+00
0	 2.962963e-01	 9.555556e+00	 9.993044e+00
0	 2.962963e-01	 9.629630e+00	 9.995123e+00
0	 3.703704e-01	 9.259259e+00	 9.981908e+00
0	 3.703704e-01	 9.333333e+00	 9.985179e+00
0	 3.703704e-01	 9.407407e+00	 9.988124e+00
0	 3.703704e-01	 9.481481e+00	 9.990758e+00
0	 3.703704e-01	 9.555556e+00	 9.993099e+00
0	 3.703704e-01	 9.629630e+00	 9.995161e+00
0	 0.000000e+00	 9.629630e+00	 9.995051e+00
0	 0.000000e+00	 9.703704e+00	 9.996815e+00
0	 0.000000e+00	 9.777778e+00	 9.998175e+00
0	 0.000000e+00	 9.851852e+00	 9.999153e+00
0	 0.000000e+00	 9.925926e+00	 9.999772e+00
0	 0.000000e+00	 1.000000e+01	 1.000005e+01
0	 7.407407e-02	 9.629630e+00	 9.995055e+00
0	 7.407407e-02	 9.703704e+00	 9.996817e+00
0	 7.407407e-02	 9.777778e+00	 9.998176e+00
0	 7.407407e-02	 9.851852e+00	 9.999153e+00
0	 7.407407e-02	 9.925926e+00	 9.999772e+00
0	 7.407407e-02	 1.000000e+01	 1.000005e+01
0	 1.481481e-01	 9.629630e+00	 9.995069e+00
0	 1.481481e-01	 9.703704e+00	 9.996827e+00
0	 1.481481e-01	 9.777778e+00	 9.998182e+00
0	 1.481481e-01	 9.851852e+00	 9.999156e+00
0	 1.481481e-01	 9.925926e+00	 9.999773e+00
0	 1.481481e-01	 1.000000e+01	 1.000005e+01
0	 2.222222e-01	 9.629630e+00	 9.995092e+00
0	 2.222222e-01	 9.703704e+00	 9.996842e+00
0	 2.222222e-01	 9.777778e+00	 9.998191e+00
0	 2.222222e-01	 9.851852e+00	 9.999161e+00
0	 2.222222e-01	 9.925926e+00	 9.999775e+00
0	 2.222222e-01	 1.000000e+01	 1.000005e+01
0	 2.962963e-01	 9.629630e+00	 9.995123e+00
0	 2.962963e-01	 9.703704e+00	 9.996862e+00
0	 2.962963e-01	 9.777778e+00	 9.998202e+00
0	 2.962963e-01	 9.851852e+00	 9.999166e+00
0	 2.962963e-01	 9.925926e+00	 9.999776e+00
0	 2.962963e-01	 1.000000e+01	 1.000005e+01
0	 3.703704e-01	 9.629630e+00	 9.995161e+00
0	 3.703704e-01	 9.703704e+00	 9.996885e+00
0	 3.703704e-01	 9.777778e+00	 9.998215e+00
0	 3.703704e-01	 9.851852e+00	 9.999171e+00
0	 3.703704e-01	 9.925926e+00	 9.999776e+00
0	 3.703704e-01	 1.000000e+01	 1.000005e+01
0	 3.703704e-01	 0.000000e+00	 5.263096e-01
0	 3.703704e-01	 7.407407e-02	-8.348957e-03
0	 3.703704e-01	 1.481481e-01	-3.197896e-01
0	 3.703704e-01	 2.222222e-01	-3.796618e-01
0	 3.703704e-01	 2.962963e-01	-1.596153e-01
0	 3.703704e-01	 3.703704e-01	 3.687004e-01
0	 4.444444e-01	 0.000000e+00	 3.354385e-01
0	 4.444444e-01	 7.407407e-02	-8.967195e-02
0	 4.444444e-01	 1.481481e-01	-3.341214e-01
0	 4.444444e-01	 2.222222e-01	-3.776741e-01
0	 4.444444e-01	 2.962963e-01	-2.000945e-01
0	 4.444444e-01	 3.703704e-01	 2.188530e-01
0	 5.185185e-01	 0.000000e+00	 1.741080e-01
0	 5.185185e-01	 7.407407e-02	-8.892883e-02
0	 5.185185e-01	 1.481481e-01	-2.381904e-01
0	 5.185185e-01	 2.222222e-01	-2.645679e-01
0	 5.185185e-01	 2.962963e-01	-1.589525e-01
0	 5.185185e-01	 3.703704e-01	 8.776451e-02
0	 5.925926e-01	 0.000000e+00	 6.296466e-02
0	 5.925926e-01	 7.407407e-02	-1.537372e-02
0	 5.925926e-01	 1.481481e-01	-5.560681e-02
0	 5.925926e-01	 2.222222e-01	-6.276477e-02
0	 5.925926e-01	 2.962963e-01	-4.187780e-02
0	 5.925926e-01	 3.703704e-01	 2.023955e-03
0	 6.666667e-01	 0.000000e+00	 2.265488e-02
0	 6.666667e-01	 7.407407e-02	 1.217393e-01
0	 6.666667e-01	 1.481481e-01	 1.900192e-01
0	 6.666667e-01	 2.222222e-01	 2.053135e-01
0	 6.666667e-01	 2.962963e-01	 1.454409e-01
0	 6.666667e-01	 3.703704e-01	-1.177970e-02
0	 7.407407e-01	 0.000000e+00	 7.382516e-02
0	 7.407407e-01	 7.407407e-02	 3.131560e-01
0	 7.407407e-01	 1.481481e-01	 4.750774e-01
0	 7.407407e-01	 2.222222e-01	 5.172452e-01
0	 7.407407e-01	 2.962963e-01	 3.973150e-01
0	 7.407407e-01	 3.703704e-01	 7.294252e-02
0	 3.703704e-01	 3.703704e-01	 3.687004e-01
0	 3.703704e-01	 4.444444e-01	 8.497007e-01
0	 3.703704e-01	 5.185185e-01	 8.912621e-01
0	 3.703704e-01	 5.925926e-01	 4.669269e-01
0	 3.703704e-01	 6.666667e-01	-4.497625e-01
0	 3.703704e-01	 7.407407e-01	-1.885264e+00
0	 4.444444e-01	 3.703704e-01	 2.188530e-01
0	 4.444444e-01	 4.444444e-01	 5.967365e-01
0	 4.444444e-01	 5.185185e-01	 6.202341e-01
0	 4.444444e-01	 5.925926e-01	 2.632464e-01
0	 4.444444e-01	 6.666667e-01	-5.003262e-01
0	 4.444444e-01	 7.407407e-01	-1.696583e+00
0	 5.185185e-01	 3.703704e-01	 8.776451e-02
0	 5.185185e-01	 4.444444e-01	 3.056166e-01
0	 5.185185e-01	 5.185185e-01	 3.034069e-01
0	 5.185185e-01	 5.925926e-01	 5.839817e-02
0	 5.185185e-01	 6.666667e-01	-4.521466e-01
0	 5.185185e-01	 7.407407e-01	-1.250964e+00
0	 5.925926e-01	 3.703704e-01	 2.023955e-03
0	 5.925926e-01	 4.444444e-01	 4.170382e-02
0	 5.925926e-01	 5.185185e-01	 4.236483e-02
0	 5.925926e-01	 5.925926e-01	-1.236365e-02
0	 5.925926e-01	 6.666667e-01	-1.388523e-01
0	 5.925926e-01	 7.407407e-01	-3.534717e-01
0	 6.666667e-01	 3.703704e-01	-1.177970e-02
0	 6.666667e-01	 4.444444e-01	-1.296392e-01
0	 6.666667e-01	 5.185185e-01	-6.130754e-02
0	 6.666667e-01	 5.925926e-01	 1.862150e-01
0	 6.666667e-01	 6.666667e-01	 6.059284e-01
0	 6.666667e-01	 7.407407e-01	 1.190832e+00
0	 7.407407e-01	 3.703704e-01	 7.294252e-02
0	 7.407407e-01	 4.444444e-01	-1.430495e-01
0	 7.407407e-01	 5.185185e-01	 9.397427e-02
0	 7.407407e-01	 5.925926e-01	 7.893882e-01
0	 7.407407e-01	 6.666667e-01	 1.948567e+00
0	 7.407407e-01	 7.407407e-01	 3.576885e+00
0	 3.703704e-01	 7.407407e-01	-1.885264e+00
0	 3.703704e-01	 8.148148e-01	-1.593204e+00
0	 3.703704e-01	 8.888889e-01	 2.712596e+00
0	 3.703704e-01	 9.629630e-01	 1.106539e+01
0	 3.703704e-01	 1.037037e+00	 2.349841e+01
0	 3.703704e-01	 1.111111e+00	 4.004493e+01
0	 4.444444e-01	 7.407407e-01	-1.696583e+00
0	 4.444444e-01	 8.148148e-01	-1.026558e+00
0	 4.444444e-01	 8.888889e-01	 3.844547e+00
0	 4.444444e-01	 9.629630e-01	 1.294438e+01
0	 4.444444e-01	 1.037037e+00	 2.630060e+01
0	 4.444444e-01	 1.111111e+00	 4.394085e+01
0	 5.185185e-01	 7.407407e-01	-1.250964e+00
0	 5.185185e-01	 8.148148e-01	-1.537684e-01
0	 5.185185e-01	 8.888889e-01	 5.056274e+00
0	 5.185185e-01	 9.629630e-01	 1.440524e+01
0	 5.185185e-01	 1.037037e+00	 2.791922e+01
0	 5.185185e-01	 1.111111e+00	 4.562428e+01
0	 5.925926e-01	 7.407407e-01	-3.534717e-01
0	 5.925926e-01	 8.148148e-01	 1.254112e+00
0	 5.925926e-01	 8.888889e-01	 6.624173e+00
0	 5.925926e-01	 9.629630e-01	 1.578525e+01
0	 5.925926e-01	 1.037037e+00	 2.876588e+01
0	 5.925926e-01	 1.111111e+00	 4.559461e+01
0	 6.666667e-01	 7.407407e-01	 1.190832e+00
0	 6.666667e-01	 8.148148e-01	 3.426030e+00
0	 6.666667e-01	 8.888889e-01	 8.824641e+00
0	 6.666667e-01	 9.629630e-01	 1.742170e+01
0	 6.666667e-01	 1.037037e+00	 2.925222e+01
0	 6.666667e-01	 1.111111e+00	 4.435124e+01
0	 7.407407e-01	 7.407407e-01	 3.576885e+00
0	 7.407407e-01	 8.148148e-01	 6.590931e+00
0	 7.407407e-01	 8.888889e-01	 1.193408e+01
0	 7.407407e-01	 9.629630e-01	 1.965187e+01
0	 7.407407e-01	 1.037037e+00	 2.978984e+01
0	 7.407407e-01	 1.111111e+00	 4.239355e+01
0	 3.703704e-01	 1.111111e+00	 4.004493e+01
0	 3.703704e-01	 1.185185e+00	 5.560184e+01
0	 3.703704e-01	 1.259259e+00	 6.501541e+01
0	 3.703704e-01	 1.333333e+00	 6.824293e+01
0	 3.703704e-01	 1.407407e+00	 6.524167e+01
0	 3.703704e-01	 1.481481e+00	 5.596893e+01
0	 4.444444e-01	 1.111111e+00	 4.394085e+01
0	 4.444444e-01	 1.185185e+00	 6.020017e+01
0	 4.444444e-01	 1.259259e+00	 6.937867e+01
0	 4.444444e-01	 1.333333e+00	 7.145164e+01
0	 4.444444e-01	 1.407407e+00	 6.639435e+01
0	 4.444444e-01	 1.481481e+00	 5.418208e+01
0	 5.185185e-01	 1.111111e+00	 4.562428e+01
0	 5.185185e-01	 1.185185e+00	 6.173998e+01
0	 5.185185e-01	 1.259259e+00	 7.045836e+01
0	 5.185185e-01	 1.333333e+00	 7.176425e+01
0	 5.185185e-01	 1.407407e+00	 6.564249e+01
0	 5.185185e-01	 1.481481e+00	 5.207791e+01
0	 5.925926e-01	 1.111111e+00	 4.559461e+01
0	 5.925926e-01	 1.185185e+00	 6.076854e+01
0	 5.925926e-01	 1.259259e+00	 6.875637e+01
0	 5.925926e-01	 1.333333e+00	 6.954406e+01
0	 5.925926e-01	 1.407407e+00	 6.311755e+01
0	 5.925926e-01	 1.481481e+00	 4.946282e+01
0	 6.666667e-01	 1.111111e+00	 4.435124e+01
0	 6.666667e-01	 1.185185e+00	 5.783311e+01
0	 6.666667e-01	 1.259259e+00	 6.477461e+01
0	 6.666667e-01	 1.333333e+00	 6.515437e+01
0	 6.666667e-01	 1.407407e+00	 5.895102e+01
0	 6.666667e-01	 1.481481e+00	 4.614321e+01
0	 7.407407e-01	 1.111111e+00	 4.239355e+01
0	 7.407407e-01	 1.185185e+00	 5.348098e+01
0	 7.407407e-01	 1.259259e+00	 5.901500e+01
0	 7.407407e-01	 1.333333e+00	 5.895850e+01
0	 7.407407e-01	 1.407407e+00	 5.327437e+01
0	 7.407407e-01	 1.481481e+00	 4.192550e+01
0	 3.703704e-01	 1.481481e+00	 5.596893e+01
0	 3.703704e-01	 1.555556e+00	 4.431903e+01
0	 3.703704e-01	 1.629630e+00	 3.424118e+01
0	 3.703704e-01	 1.703704e+00	 2.577498e+01
0	 3.703704e-01	 1.777778e+00	 1.896000e+01
0	 3.703704e-01	 1.851852e+00	 1.383584e+01
0	 4.444444e-01	 1.481481e+00	 5.418208e+01
0	 4.444444e-01	 1.555556e+00	 3.974444e+01
0	 4.444444e-01	 1.629630e+00	 2.804178e+01
0	 4.444444e-01	 1.703704e+00	 1.909547e+01
0	 4.444444e-01	 1.777778e+00	 1.292688e+01
0	 4.444444e-01	 1.851852e+00	 9.557378e+00
0	 5.185185e-01	 1.481481e+00	 5.207791e+01
0	 5.185185e-01	 1.555556e+00	 3.644702e+01
0	 5.185185e-01	 1.629630e+00	 2.414203e+01
0	 5.185185e-01	 1.703704e+00	 1.517136e+01
0	 5.185185e-01	 1.777778e+00	 9.543380e+00
0	 5.185185e-01	 1.851852e+00	 7.266503e+00
0	 5.925926e-01	 1.481481e+00	 4.946282e+01
0	 5.925926e-01	 1.555556e+00	 3.392256e+01
0	 5.925926e-01	 1.629630e+00	 2.184930e+01
0	 5.925926e-01	 1.703704e+00	 1.324370e+01
0	 5.925926e-01	 1.777778e+00	 8.106431e+00
0	 5.925926e-01	 1.851852e+00	 6.438161e+00
0	 6.666667e-01	 1.481481e+00	 4.614321e+01
0	 6.666667e-01	 1.555556e+00	 3.166686e+01
0	 6.666667e-01	 1.629630e+00	 2.047091e+01
0	 6.666667e-01	 1.703704e+00	 1.255354e+01
0	 6.666667e-01	 1.777778e+00	 7.912946e+00
0	 6.666667e-01	 1.851852e+00	 6.547292e+00
0	 7.407407e-01	 1.481481e+00	 4.192550e+01
0	 7.407407e-01	 1.555556e+00	 2.917571e+01
0	 7.407407e-01	 1.629630e+00	 1.931421e+01
0	 7.407407e-01	 1.703704e+00	 1.234195e+01
0	 7.407407e-01	 1.777778e+00	 8.259842e+00
0	 7.407407e-01	 1.851852e+00	 7.068838e+00
0	 3.703704e-01	 1.851852e+00	 1.383584e+01
0	 3.703704e-01	 1.925926e+00	 1.009938e+01
0	 3.703704e-01	 2.000000e+00	 7.410172e+00
0	 3.703704e-01	 2.074074e+00	 5.751874e+00
0	 3.703704e-01	 2.148148e+00	 5.108126e+00
0	 3.703704e-01	 2.222222e+00	 5.462573e+00
0	 4.444444e-01	 1.851852e+00	 9.557378e+00
0	 4.444444e-01	 1.925926e+00	 7.851952e+00
0	 4.444444e-01	 2.000000e+00	 6.656051e+00
0	 4.444444e-01	 2.074074e+00	 5.961760e+00
0	 4.444444e-01	 2.148148e+00	 5.761163e+00
0	 4.444444e-01	 2.222222e+00	 6.046347e+00
0	 5.185185e-01	 1.851852e+00	 7.266503e+00
0	 5.185185e-01	 1.925926e+00	 6.759533e+00
0	 5.185185e-01	 2.000000e+00	 6.434719e+00
0	 5.185185e-01	 2.074074e+00	 6.290621e+00
0	 5.185185e-01	 2.148148e+00	 6.325798e+00
0	 5.185185e-01	 2.222222e+00	 6.538812e+00
0	 5.925926e-01	 1.851852e+00	 6.438161e+00
0	 5.925926e-01	 1.925926e+00	 6.510130e+00
0	 5.925926e-01	 2.000000e+00	 6.595183e+00
0	 5.925926e-01	 2.074074e+00	 6.696389e+00
0	 5.925926e-01	 2.148148e+00	 6.816817e+00
0	 5.925926e-01	 2.222222e+00	 6.959537e+00
0	 6.666667e-01	 1.851852e+00	 6.547292e+00
0	 6.666667e-01	 1.925926e+00	 6.791751e+00
0	 6.666667e-01	 2.000000e+00	 6.986447e+00
0	 6.666667e-01	 2.074074e+00	 7.136994e+00
0	 6.666667e-01	 2.148148e+00	 7.249004e+00
0	 6.666667e-01	 2.222222e+00	 7.328091e+00
0	 7.407407e-01	 1.851852e+00	 7.068838e+00
0	 7.407407e-01	 1.925926e+00	 7.292405e+00
0	 7.407407e-01	 2.000000e+00	 7.457519e+00
0	 7.407407e-01	 2.074074e+00	 7.570369e+00
0	 7.407407e-01	 2.148148e+00	 7.637147e+00
0	 7.407407e-01	 2.222222e+00	 7.664042e+00
0	 3.703704e-01	 2.222222e+00	 5.462573e+00
0	 3.703704e-01	 2.296296e+00	 6.215396e+00
0	 3.703704e-01	 2.370370e+00	 6.778722e+00
0	 3.703704e-01	 2.444444e+00	 7.154105e+00
0	 3.703704e-01	 2.518519e+00	 7.343103e+00
0	 3.703704e-01	 2.592593e+00	 7.347271e+00
0	 4.444444e-01	 2.222222e+00	 6.046347e+00
0	 4.444444e-01	 2.296296e+00	 6.521871e+00
0	 4.444444e-01	 2.370370e+00	 6.896120e+00
0	 4.444444e-01	 2.444444e+00	 7.166911e+00
0	 4.444444e-01	 2.518519e+00	 7.332062e+00
0	 4.444444e-01	 2.592593e+00	 7.389391e+00
0	 5.185185e-01	 2.222222e+00	 6.538812e+00
0	 5.185185e-01	 2.296296e+00	 6.820926e+00
0	 5.185185e-01	 2.370370e+00	 7.061195e+00
0	 5.185185e-01	 2.444444e+00	 7.254860e+00
0	 5.185185e-01	 2.518519e+00	 7.397164e+00
0	 5.185185e-01	 2.592593e+00	 7.483350e+00
0	 5.925926e-01	 2.222222e+00	 6.959537e+00
0	 5.925926e-01	 2.296296e+00	 7.113842e+00
0	 5.925926e-01	 2.370370e+00	 7.262867e+00
0	 5.925926e-01	 2.444444e+00	 7.400441e+00
0	 5.925926e-01	 2.518519e+00	 7.520394e+00
0	 5.925926e-01	 2.592593e+00	 7.616557e+00
0	 6.666667e-01	 2.222222e+00	 7.328091e+00
0	 6.666667e-01	 2.296296e+00	 7.401900e+00
0	 6.666667e-01	 2.370370e+00	 7.490057e+00
0	 6.666667e-01	 2.444444e+00	 7.586143e+00
0	 6.666667e-01	 2.518519e+00	 7.683738e+00
0	 6.666667e-01	 2.592593e+00	 7.776423e+00
0	 7.407407e-01	 2.222222e+00	 7.664042e+00
0	 7.407407e-01	 2.296296e+00	 7.686380e+00
0	 7.407407e-01	 2.370370e+00	 7.731685e+00
0	 7.407407e-01	 2.444444e+00	 7.794454e+00
0	 7.407407e-01	 2.518519e+00	 7.869180e+00
0	 7.407407e-01	 2.592593e+00	 7.950358e+00
0	 3.703704e-01	 2.592593e+00	 7.347271e+00
0	 3.703704e-01	 2.666667e+00	 7.288578e+00
0	 3.703704e-01	 2.740741e+00	 7.287943e+00
0	 3.703704e-01	 2.814815e+00	 7.345349e+00
0	 3.703704e-01	 2.888889e+00	 7.460776e+00
0	 3.703704e-01	 2.962963e+00	 7.634206e+00
0	 4.444444e-01	 2.592593e+00	 7.389391e+00
0	 4.444444e-01	 2.666667e+00	 7.404331e+00
0	 4.444444e-01	 2.740741e+00	 7.445569e+00
0	 4.444444e-01	 2.814815e+00	 7.515807e+00
0	 4.444444e-01	 2.888889e+00	 7.617741e+00
0	 4.444444e-01	 2.962963e+00	 7.754073e+00
0	 5.185185e-01	 2.592593e+00	 7.483350e+00
0	 5.185185e-01	 2.666667e+00	 7.541266e+00
0	 5.185185e-01	 2.740741e+00	 7.604967e+00
0	 5.185185e-01	 2.814815e+00	 7.679001e+00
0	 5.185185e-01	 2.888889e+00	 7.767919e+00
0	 5.185185e-01	 2.962963e+00	 7.876268e+00
0	 5.925926e-01	 2.592593e+00	 7.616557e+00
0	 5.925926e-01	 2.666667e+00	 7.694039e+00
0	 5.925926e-01	 2.740741e+00	 7.765752e+00
0	 5.925926e-01	 2.814815e+00	 7.837226e+00
0	 5.925926e-01	 2.888889e+00	 7.913990e+00
0	 5.925926e-01	 2.962963e+00	 8.001576e+00
0	 6.666667e-01	 2.592593e+00	 7.776423e+00
0	 6.666667e-01	 2.666667e+00	 7.857308e+00
0	 6.666667e-01	 2.740741e+00	 7.927542e+00
0	 6.666667e-01	 2.814815e+00	 7.992771e+00
0	 6.666667e-01	 2.888889e+00	 8.058637e+00
0	 6.666667e-01	 2.962963e+00	 8.130784e+00
0	 7.407407e-01	 2.592593e+00	 7.950358e+00
0	 7.407407e-01	 2.666667e+00	 8.025727e+00
0	 7.407407e-01	 2.740741e+00	 8.089955e+00
0	 7.407407e-01	 2.814815e+00	 8.147931e+00
0	 7.407407e-01	 2.888889e+00	 8.204543e+00
0	 7.407407e-01	 2.962963e+00	 8.264681e+00
0	 3.703704e-01	 2.962963e+00	 7.634206e+00
0	 3.703704e-01	 3.037037e+00	 7.820470e+00
0	 3.703704e-01	 3.111111e+00	 7.974282e+00
0	 3.703704e-01	 3.185185e+00	 8.095454e+00
0	 3.703704e-01	 3.259259e+00	 8.183796e+00
0	 3.703704e-01	 3.333333e+00	 8.239118e+00
0	 4.444444e-01	 2.962963e+00	 7.754073e+00
0	 4.444444e-01	 3.037037e+00	 7.900078e+00
0	 4.444444e-01	 3.111111e+00	 8.027960e+00
0	 4.444444e-01	 3.185185e+00	 8.135816e+00
0	 4.444444e-01	 3.259259e+00	 8.221742e+00
0	 4.444444e-01	 3.333333e+00	 8.283833e+00
0	 5.185185e-01	 2.962963e+00	 7.876268e+00
0	 5.185185e-01	 3.037037e+00	 7.992578e+00
0	 5.185185e-01	 3.111111e+00	 8.100326e+00
0	 5.185185e-01	 3.185185e+00	 8.196482e+00
0	 5.185185e-01	 3.259259e+00	 8.278015e+00
0	 5.185185e-01	 3.333333e+00	 8.341897e+00
0	 5.925926e-01	 2.962963e+00	 8.001576e+00
0	 5.925926e-01	 3.037037e+00	 8.096178e+00
0	 5.925926e-01	 3.111111e+00	 8.187928e+00
0	 5.925926e-01	 3.185185e+00	 8.273258e+00
0	 5.925926e-01	 3.259259e+00	 8.348601e+00
0	 5.925926e-01	 3.333333e+00	 8.410391e+00
0	 6.666667e-01	 2.962963e+00	 8.130784e+00
0	 6.666667e-01	 3.037037e+00	 8.209087e+00
0	 6.666667e-01	 3.111111e+00	 8.287315e+00
0	 6.666667e-01	 3.185185e+00	 8.361953e+00
0	 6.666667e-01	 3.259259e+00	 8.429486e+00
0	 6.666667e-01	 3.333333e+00	 8.486400e+00
0	 7.407407e-01	 2.962963e+00	 8.264681e+00
0	 7.407407e-01	 3.037037e+00	 8.329513e+00
0	 7.407407e-01	 3.111111e+00	 8.395035e+00
0	 7.407407e-01	 3.185185e+00	 8.458374e+00
0	 7.407407e-01	 3.259259e+00	 8.516656e+00
0	 7.407407e-01	 3.333333e+00	 8.567007e+00
0	 3.703704e-01	 3.333333e+00	 8.239118e+00
0	 3.703704e-01	 3.407407e+00	 8.281722e+00
0	 3.703704e-01	 3.481481e+00	 8.332150e+00
0	 3.703704e-01	 3.555556e+00	 8.390576e+00
0	 3.703704e-01	 3.629630e+00	 8.457171e+00
0	 3.703704e-01	 3.703704e+00	 8.532108e+00
0	 4.444444e-01	 3.333333e+00	 8.283833e+00
0	 4.444444e-01	 3.407407e+00	 8.334241e+00
0	 4.444444e-01	 3.481481e+00	 8.387190e+00
0	 4.444444e-01	 3.555556e+00	 8.443881e+00
0	 4.444444e-01	 3.629630e+00	 8.505518e+00
0	 4.444444e-01	 3.703704e+00	 8.573303e+00
0	 5.185185e-01	 3.333333e+00	 8.341897e+00
0	 5.185185e-01	 3.407407e+00	 8.394987e+00
0	 5.185185e-01	 3.481481e+00	 8.447423e+00
0	 5.185185e-01	 3.555556e+00	 8.501081e+00
0	 5.185185e-01	 3.629630e+00	 8.557841e+00
0	 5.185185e-01	 3.703704e+00	 8.619581e+00
0	 5.925926e-01	 3.333333e+00	 8.410391e+00
0	 5.925926e-01	 3.407407e+00	 8.462399e+00
0	 5.925926e-01	 3.481481e+00	 8.512243e+00
0	 5.925926e-01	 3.555556e+00	 8.562122e+00
0	 5.925926e-01	 3.629630e+00	 8.614236e+00
0	 5.925926e-01	 3.703704e+00	 8.670785e+00
0	 6.666667e-01	 3.333333e+00	 8.486400e+00
0	 6.666667e-01	 3.407407e+00	 8.534916e+00
0	 6.666667e-01	 3.481481e+00	 8.581043e+00
0	 6.666667e-01	 3.555556e+00	 8.626947e+00
0	 6.666667e-01	 3.629630e+00	 8.674796e+00
0	 6.666667e-01	 3.703704e+00	 8.726755e+00
0	 7.407407e-01	 3.333333e+00	 8.567007e+00
0	 7.407407e-01	 3.407407e+00	 8.610977e+00
0	 7.407407e-01	 3.481481e+00	 8.653216e+00
0	 7.407407e-01	 3.555556e+00	 8.695503e+00
0	 7.407407e-01	 3.629630e+00	 8.739616e+00
0	 7.407407e-01	 3.703704e+00	 8.787335e+00
0	 3.703704e-01	 3.703704e+00	 8.532108e+00
0	 3.703704e-01	 3.777778e+00	 8.607489e+00
0	 3.703704e-01	 3.851852e+00	 8.675198e+00
0	 3.703704e-01	 3.925926e+00	 8.735079e+00
0	 3.703704e-01	 4.000000e+00	 8.786975e+00
0	 3.703704e-01	 4.074074e+00	 8.830728e+00
0	 4.444444e-01	 3.703704e+00	 8.573303e+00
0	 4.444444e-01	 3.777778e+00	 8.642106e+00
0	 4.444444e-01	 3.851852e+00	 8.705537e+00
0	 4.444444e-01	 3.925926e+00	 8.762911e+00
0	 4.444444e-01	 4.000000e+00	 8.813541e+00
0	 4.444444e-01	 4.074074e+00	 8.856742e+00
0	 5.185185e-01	 3.703704e+00	 8.619581e+00
0	 5.185185e-01	 3.777778e+00	 8.682863e+00
0	 5.185185e-01	 3.851852e+00	 8.742312e+00
0	 5.185185e-01	 3.925926e+00	 8.796910e+00
0	 5.185185e-01	 4.000000e+00	 8.845634e+00
0	 5.185185e-01	 4.074074e+00	 8.887465e+00
0	 5.925926e-01	 3.703704e+00	 8.670785e+00
0	 5.925926e-01	 3.777778e+00	 8.729215e+00
0	 5.925926e-01	 3.851852e+00	 8.784731e+00
0	 5.925926e-01	 3.925926e+00	 8.836170e+00
0	 5.925926e-01	 4.000000e+00	 8.882371e+00
0	 5.925926e-01	 4.074074e+00	 8.922171e+00
0	 6.666667e-01	 3.703704e+00	 8.726755e+00
0	 6.666667e-01	 3.777778e+00	 8.780620e+00
0	 6.666667e-01	 3.851852e+00	 8.831999e+00
0	 6.666667e-01	 3.925926e+00	 8.879785e+00
0	 6.666667e-01	 4.000000e+00	 8.922866e+00
0	 6.666667e-01	 4.074074e+00	 8.960134e+00
0	 7.407407e-01	 3.703704e+00	 8.787335e+00
0	 7.407407e-01	 3.777778e+00	 8.836534e+00
0	 7.407407e-01	 3.851852e+00	 8.883326e+00
0	 7.407407e-01	 3.925926e+00	 8.926848e+00
0	 7.407407e-01	 4.000000e+00	 8.966237e+00
0	 7.407407e-01	 4.074074e+00	 9.000628e+00
0	 3.703704e-01	 4.074074e+00	 8.830728e+00
0	 3.703704e-01	 4.148148e+00	 8.870510e+00
0	 3.703704e-01	 4.222222e+00	 8.910627e+00
0	 3.703704e-01	 4.296296e+00	 8.951121e+00
0	 3.703704e-01	 4.370370e+00	 8.992033e+00
0	 3.703704e-01	 4.444444e+00	 9.033407e+00
0	 4.444444e-01	 4.074074e+00	 8.856742e+00
0	 4.444444e-01	 4.148148e+00	 8.895752e+00
0	 4.444444e-01	 4.222222e+00	 8.934477e+00
0	 4.444444e-01	 4.296296e+00	 8.973230e+00
0	 4.444444e-01	 4.370370e+00	 9.012327e+00
0	 4.444444e-01	 4.444444e+00	 9.052082e+00
0	 5.185185e-01	 4.074074e+00	 8.887465e+00
0	 5.185185e-01	 4.148148e+00	 8.925037e+00
0	 5.185185e-01	 4.222222e+00	 8.961993e+00
0	 5.185185e-01	 4.296296e+00	 8.998821e+00
0	 5.185185e-01	 4.370370e+00	 9.036014e+00
0	 5.185185e-01	 4.444444e+00	 9.074059e+00
0	 5.925926e-01	 4.074074e+00	 8.922171e+00
0	 5.925926e-01	 4.148148e+00	 8.957841e+00
0	 5.925926e-01	 4.222222e+00	 8.992803e+00
0	 5.925926e-01	 4.296296e+00	 9.027626e+00
0	 5.925926e-01	 4.370370e+00	 9.062878e+00
0	 5.925926e-01	 4.444444e+00	 9.099127e+00
0	 6.666667e-01	 4.074074e+00	 8.960134e+00
0	 6.666667e-01	 4.148148e+00	 8.993639e+00
0	 6.666667e-01	 4.222222e+00	 9.026537e+00
0	 6.666667e-01	 4.296296e+00	 9.059376e+00
0	 6.666667e-01	 4.370370e+00	 9.092705e+00
0	 6.666667e-01	 4.444444e+00	 9.127074e+00
0	 7.407407e-01	 4.074074e+00	 9.000628e+00
0	 7.407407e-01	 4.148148e+00	 9.031907e+00
0	 7.407407e-01	 4.222222e+00	 9.062820e+00
0	 7.407407e-01	 4.296296e+00	 9.093800e+00
0	 7.407407e-01	 4.370370e+00	 9.125278e+00
0	 7.407407e-01	 4.444444e+00	 9.157689e+00
0	 3.703704e-01	 4.444444e+00	 9.033407e+00
0	 3.703704e-01	 4.518519e+00	 9.073799e+00
0	 3.703704e-01	 4.592593e+00	 9.111714e+00
0	 3.703704e-01	 4.666667e+00	 9.147107e+00
0	 3.703704e-01	 4.740741e+00	 9.179938e+00
0	 3.703704e-01	 4.814815e+00	 9.210165e+00
0	 4.444444e-01	 4.444444e+00	 9.052082e+00
0	 4.444444e-01	 4.518519e+00	 9.091230e+00
0	 4.444444e-01	 4.592593e+00	 9.128185e+00
0	 4.444444e-01	 4.666667e+00	 9.162782e+00
0	 4.444444e-01	 4.740741e+00	 9.194858e+00
0	 4.444444e-01	 4.814815e+00	 9.224248e+00
0	 5.185185e-01	 4.444444e+00	 9.074059e+00
0	 5.185185e-01	 4.518519e+00	 9.111789e+00
0	 5.185185e-01	 4.592593e+00	 9.147549e+00
0	 5.185185e-01	 4.666667e+00	 9.181097e+00
0	 5.185185e-01	 4.740741e+00	 9.212193e+00
0	 5.185185e-01	 4.814815e+00	 9.240598e+00
0	 5.925926e-01	 4.444444e+00	 9.099127e+00
0	 5.925926e-01	 4.518519e+00	 9.135251e+00
0	 5.925926e-01	 4.592593e+00	 9.169571e+00
0	 5.925926e-01	 4.666667e+00	 9.201815e+00
0	 5.925926e-01	 4.740741e+00	 9.231716e+00
0	 5.925926e-01	 4.814815e+00	 9.259004e+00
0	 6.666667e-01	 4.444444e+00	 9.127074e+00
0	 6.666667e-01	 4.518519e+00	 9.161387e+00
0	 6.666667e-01	 4.592593e+00	 9.194013e+00
0	 6.666667e-01	 4.666667e+00	 9.224702e+00
0	 6.666667e-01	 4.740741e+00	 9.253199e+00
0	 6.666667e-01	 4.814815e+00	 9.279254e+00
0	 7.407407e-01	 4.444444e+00	 9.157689e+00
0	 7.407407e-01	 4.518519e+00	 9.189969e+00
0	 7.407407e-01	 4.592593e+00	 9.220642e+00
0	 7.407407e-01	 4.666667e+00	 9.249520e+00
0	 7.407407e-01	 4.740741e+00	 9.276414e+00
0	 7.407407e-01	 4.814815e+00	 9.301138e+00
0	 3.703704e-01	 4.814815e+00	 9.210165e+00
0	 3.703704e-01	 4.888889e+00	 9.238781e+00
0	 3.703704e-01	 4.962963e+00	 9.266803e+00
0	 3.703704e-01	 5.037037e+00	 9.294222e+00
0	 3.703704e-01	 5.111111e+00	 9.321030e+00
0	 3.703704e-01	 5.185185e+00	 9.347217e+00
0	 4.444444e-01	 4.814815e+00	 9.224248e+00
0	 4.444444e-01	 4.888889e+00	 9.251926e+00
0	 4.444444e-01	 4.962963e+00	 9.279013e+00
0	 4.444444e-01	 5.037037e+00	 9.305557e+00
0	 4.444444e-01	 5.111111e+00	 9.331608e+00
0	 4.444444e-01	 5.185185e+00	 9.357216e+00
0	 5.185185e-01	 4.814815e+00	 9.240598e+00
0	 5.185185e-01	 4.888889e+00	 9.267260e+00
0	 5.185185e-01	 4.962963e+00	 9.293352e+00
0	 5.185185e-01	 5.037037e+00	 9.318959e+00
0	 5.185185e-01	 5.111111e+00	 9.344171e+00
0	 5.185185e-01	 5.185185e+00	 9.369073e+00
0	 5.925926e-01	 4.814815e+00	 9.259004e+00
0	 5.925926e-01	 4.888889e+00	 9.284592e+00
0	 5.925926e-01	 4.962963e+00	 9.309648e+00
0	 5.925926e-01	 5.037037e+00	 9.334276e+00
0	 5.925926e-01	 5.111111e+00	 9.358580e+00
0	 5.925926e-01	 5.185185e+00	 9.382666e+00
0	 6.666667e-01	 4.814815e+00	 9.279254e+00
0	 6.666667e-01	 4.888889e+00	 9.303731e+00
0	 6.666667e-01	 4.962963e+00	 9.327729e+00
0	 6.666667e-01	 5.037037e+00	 9.351352e+00
0	 6.666667e-01	 5.111111e+00	 9.374699e+00
0	 6.666667e-01	 5.185185e+00	 9.397872e+00
0	 7.407407e-01	 4.814815e+00	 9.301138e+00
0	 7.407407e-01	 4.888889e+00	 9.324484e+00
0	 7.407407e-01	 4.962963e+00	 9.347423e+00
0	 7.407407e-01	 5.037037e+00	 9.370032e+00
0	 7.407407e-01	 5.111111e+00	 9.392389e+00
0	 7.407407e-01	 5.185185e+00	 9.414571e+00
0	 3.703704e-01	 5.185185e+00	 9.347217e+00
0	 3.703704e-01	 5.259259e+00	 9.372560e+00
0	 3.703704e-01	 5.333333e+00	 9.396836e+00
0	 3.703704e-01	 5.407407e+00	 9.420040e+00
0	 3.703704e-01	 5.481481e+00	 9.442163e+00
0	 3.703704e-01	 5.555556e+00	 9.463199e+00
0	 4.444444e-01	 5.185185e+00	 9.357216e+00
0	 4.444444e-01	 5.259259e+00	 9.382110e+00
0	 4.444444e-01	 5.333333e+00	 9.405965e+00
0	 4.444444e-01	 5.407407e+00	 9.428750e+00
0	 4.444444e-01	 5.481481e+00	 9.450436e+00
0	 4.444444e-01	 5.555556e+00	 9.470992e+00
0	 5.185185e-01	 5.185185e+00	 9.369073e+00
0	 5.185185e-01	 5.259259e+00	 9.393365e+00
0	 5.185185e-01	 5.333333e+00	 9.416655e+00
0	 5.185185e-01	 5.407407e+00	 9.438899e+00
0	 5.185185e-01	 5.481481e+00	 9.460052e+00
0	 5.185185e-01	 5.555556e+00	 9.480071e+00
0	 5.925926e-01	 5.185185e+00	 9.382666e+00
0	 5.925926e-01	 5.259259e+00	 9.406215e+00
0	 5.925926e-01	 5.333333e+00	 9.428809e+00
0	 5.925926e-01	 5.407407e+00	 9.450397e+00
0	 5.925926e-01	 5.481481e+00	 9.470929e+00
0	 5.925926e-01	 5.555556e+00	 9.490357e+00
0	 6.666667e-01	 5.185185e+00	 9.397872e+00
0	 6.666667e-01	 5.259259e+00	 9.420555e+00
0	 6.666667e-01	 5.333333e+00	 9.442331e+00
0	 6.666667e-01	 5.407407e+00	 9.463156e+00
0	 6.666667e-01	 5.481481e+00	 9.482984e+00
0	 6.666667e-01	 5.555556e+00	 9.501768e+00
0	 7.407407e-01	 5.185185e+00	 9.414571e+00
0	 7.407407e-01	 5.259259e+00	 9.436275e+00
0	 7.407407e-01	 5.333333e+00	 9.457125e+00
0	 7.407407e-01	 5.407407e+00	 9.477088e+00
0	 7.407407e-01	 5.481481e+00	 9.496132e+00
0	 7.407407e-01	 5.555556e+00	 9.514224e+00
0	 3.703704e-01	 5.555556e+00	 9.463199e+00
0	 3.703704e-01	 5.629630e+00	 9.483420e+00
0	 3.703704e-01	 5.703704e+00	 9.503097e+00
0	 3.703704e-01	 5.777778e+00	 9.522219e+00
0	 3.703704e-01	 5.851852e+00	 9.540773e+00
0	 3.703704e-01	 5.925926e+00	 9.558747e+00
0	 4.444444e-01	 5.555556e+00	 9.470992e+00
0	 4.444444e-01	 5.629630e+00	 9.490716e+00
0	 4.444444e-01	 5.703704e+00	 9.509929e+00
0	 4.444444e-01	 5.777778e+00	 9.528629e+00
0	 4.444444e-01	 5.851852e+00	 9.546815e+00
0	 4.444444e-01	 5.925926e+00	 9.564486e+00
0	 5.185185e-01	 5.555556e+00	 9.480071e+00
0	 5.185185e-01	 5.629630e+00	 9.499264e+00
0	 5.185185e-01	 5.703704e+00	 9.517974e+00
0	 5.185185e-01	 5.777778e+00	 9.536207e+00
0	 5.185185e-01	 5.851852e+00	 9.553971e+00
0	 5.185185e-01	 5.925926e+00	 9.571271e+00
0	 5.925926e-01	 5.555556e+00	 9.490357e+00
0	 5.925926e-01	 5.629630e+00	 9.508985e+00
0	 5.925926e-01	 5.703704e+00	 9.527156e+00
0	 5.925926e-01	 5.777778e+00	 9.544882e+00
0	 5.925926e-01	 5.851852e+00	 9.562174e+00
0	 5.925926e-01	 5.925926e+00	 9.579042e+00
0	 6.666667e-01	 5.555556e+00	 9.501768e+00
0	 6.666667e-01	 5.629630e+00	 9.519798e+00
0	 6.666667e-01	 5.703704e+00	 9.537399e+00
0	 6.666667e-01	 5.777778e+00	 9.554582e+00
0	 6.666667e-01	 5.851852e+00	 9.571358e+00
0	 6.666667e-01	 5.925926e+00	 9.587738e+00
0	 7.407407e-01	 5.555556e+00	 9.514224e+00
0	 7.407407e-01	 5.629630e+00	 9.531625e+00
0	 7.407407e-01	 5.703704e+00	 9.548625e+00
0	 7.407407e-01	 5.777778e+00	 9.565233e+00
0	 7.407407e-01	 5.851852e+00	 9.581455e+00
0	 7.407407e-01	 5.925926e+00	 9.597301e+00
0	 3.703704e-01	 5.925926e+00	 9.558747e+00
0	 3.703704e-01	 6.000000e+00	 9.576145e+00
0	 3.703704e-01	 6.074074e+00	 9.592973e+00
0	 3.703704e-01	 6.148148e+00	 9.609232e+00
0	 3.703704e-01	 6.222222e+00	 9.624921e+00
0	 3.703704e-01	 6.296296e+00	 9.640037e+00
0	 4.444444e-01	 5.925926e+00	 9.564486e+00
0	 4.444444e-01	 6.000000e+00	 9.581621e+00
0	 4.444444e-01	 6.074074e+00	 9.598193e+00
0	 4.444444e-01	 6.148148e+00	 9.614199e+00
0	 4.444444e-01	 6.222222e+00	 9.629633e+00
0	 4.444444e-01	 6.296296e+00	 9.644490e+00
0	 5.185185e-01	 5.925926e+00	 9.571271e+00
0	 5.185185e-01	 6.000000e+00	 9.588070e+00
0	 5.185185e-01	 6.074074e+00	 9.604320e+00
0	 5.185185e-01	 6.148148e+00	 9.620014e+00
0	 5.185185e-01	 6.222222e+00	 9.635145e+00
0	 5.185185e-01	 6.296296e+00	 9.649707e+00
0	 5.925926e-01	 5.925926e+00	 9.579042e+00
0	 5.925926e-01	 6.000000e+00	 9.595439e+00
0	 5.925926e-01	 6.074074e+00	 9.611305e+00
0	 5.925926e-01	 6.148148e+00	 9.626634e+00
0	 5.925926e-01	 6.222222e+00	 9.641418e+00
0	 5.925926e-01	 6.296296e+00	 9.655650e+00
0	 6.666667e-01	 5.925926e+00	 9.587738e+00
0	 6.666667e-01	 6.000000e+00	 9.603674e+00
0	 6.666667e-01	 6.074074e+00	 9.619102e+00
0	 6.666667e-01	 6.148148e+00	 9.634017e+00
0	 6.666667e-01	 6.222222e+00	 9.648412e+00
0	 6.666667e-01	 6.296296e+00	 9.662280e+00
0	 7.407407e-01	 5.925926e+00	 9.597301e+00
0	 7.407407e-01	 6.000000e+00	 9.612723e+00
0	 7.407407e-01	 6.074074e+00	 9.627664e+00
0	 7.407407e-01	 6.148148e+00	 9.642120e+00
0	 7.407407e-01	 6.222222e+00	 9.656086e+00
0	 7.407407e-01	 6.296296e+00	 9.669558e+00
0	 3.703704e-01	 6.296296e+00	 9.640037e+00
0	 3.703704e-01	 6.370370e+00	 9.654670e+00
0	 3.703704e-01	 6.444444e+00	 9.668905e+00
0	 3.703704e-01	 6.518519e+00	 9.682736e+00
0	 3.703704e-01	 6.592593e+00	 9.696157e+00
0	 3.703704e-01	 6.666667e+00	 9.709163e+00
0	 4.444444e-01	 6.296296e+00	 9.644490e+00
0	 4.444444e-01	 6.370370e+00	 9.658868e+00
0	 4.444444e-01	 6.444444e+00	 9.672863e+00
0	 4.444444e-01	 6.518519e+00	 9.686471e+00
0	 4.444444e-01	 6.592593e+00	 9.699689e+00
0	 4.444444e-01	 6.666667e+00	 9.712513e+00
0	 5.185185e-01	 6.296296e+00	 9.649707e+00
0	 5.185185e-01	 6.370370e+00	 9.663799e+00
0	 5.185185e-01	 6.444444e+00	 9.677523e+00
0	 5.185185e-01	 6.518519e+00	 9.690876e+00
0	 5.185185e-01	 6.592593e+00	 9.703857e+00
0	 5.185185e-01	 6.666667e+00	 9.716463e+00
0	 5.925926e-01	 6.296296e+00	 9.655650e+00
0	 5.925926e-01	 6.370370e+00	 9.669426e+00
0	 5.925926e-01	 6.444444e+00	 9.682849e+00
0	 5.925926e-01	 6.518519e+00	 9.695917e+00
0	 5.925926e-01	 6.592593e+00	 9.708628e+00
0	 5.925926e-01	 6.666667e+00	 9.720983e+00
0	 6.666667e-01	 6.296296e+00	 9.662280e+00
0	 6.666667e-01	 6.370370e+00	 9.675712e+00
0	 6.666667e-01	 6.444444e+00	 9.688805e+00
0	 6.666667e-01	 6.518519e+00	 9.701559e+00
0	 6.666667e-01	 6.592593e+00	 9.713973e+00
0	 6.666667e-01	 6.666667e+00	 9.726046e+00
0	 7.407407e-01	 6.296296e+00	 9.669558e+00
0	 7.407407e-01	 6.370370e+00	 9.682620e+00
0	 7.407407e-01	 6.444444e+00	 9.695357e+00
0	 7.407407e-01	 6.518519e+00	 9.707770e+00
0	 7.407407e-01	 6.592593e+00	 9.719858e+00
0	 7.407407e-01	 6.666667e+00	 9.731621e+00
0	 3.703704e-01	 6.666667e+00	 9.709163e+00
0	 3.703704e-01	 6.740741e+00	 9.721781e+00
0	 3.703704e-01	 6.814815e+00	 9.734042e+00
0	 3.703704e-01	 6.888889e+00	 9.745945e+00
0	 3.703704e-01	 6.962963e+00	 9.757492e+00
0	 3.703704e-01	 7.037037e+00	 9.768682e+00
0	 4.444444e-01	 6.666667e+00	 9.712513e+00
0	 4.444444e-01	 6.740741e+00	 9.724962e+00
0	 4.444444e-01	 6.814815e+00	 9.737060e+00
0	 4.444444e-01	 6.888889e+00	 9.748805e+00
0	 4.444444e-01	 6.962963e+00	 9.760197e+00
0	 4.444444e-01	 7.037037e+00	 9.771237e+00
0	 5.185185e-01	 6.666667e+00	 9.716463e+00
0	 5.185185e-01	 6.740741e+00	 9.728708e+00
0	 5.185185e-01	 6.814815e+00	 9.740609e+00
0	 5.185185e-01	 6.888889e+00	 9.752165e+00
0	 5.185185e-01	 6.962963e+00	 9.763376e+00
0	 5.185185e-01	 7.037037e+00	 9.774241e+00
0	 5.925926e-01	 6.666667e+00	 9.720983e+00
0	 5.925926e-01	 6.740741e+00	 9.732992e+00
0	 5.925926e-01	 6.814815e+00	 9.744665e+00
0	 5.925926e-01	 6.888889e+00	 9.756003e+00
0	 5.925926e-01	 6.962963e+00	 9.767006e+00
0	 5.925926e-01	 7.037037e+00	 9.777673e+00
0	 6.666667e-01	 6.666667e+00	 9.726046e+00
0	 6.666667e-01	 6.740741e+00	 9.737786e+00
0	 6.666667e-01	 6.814815e+00	 9.749204e+00
0	 6.666667e-01	 6.888889e+00	 9.760297e+00
0	 6.666667e-01	 6.962963e+00	 9.771068e+00
0	 6.666667e-01	 7.037037e+00	 9.781514e+00
0	 7.407407e-01	 6.666667e+00	 9.731621e+00
0	 7.407407e-01	 6.740741e+00	 9.743066e+00
0	 7.407407e-01	 6.814815e+00	 9.754200e+00
0	 7.407407e-01	 6.888889e+00	 9.765025e+00
0	 7.407407e-01	 6.962963e+00	 9.775539e+00
0	 7.407407e-01	 7.037037e+00	 9.785744e+00
0	 3.703704e-01	 7.037037e+00	 9.768682e+00
0	 3.703704e-01	 7.111111e+00	 9.779547e+00
0	 3.703704e-01	 7.185185e+00	 9.790120e+00
0	 3.703704e-01	 7.259259e+00	 9.800399e+00
0	 3.703704e-01	 7.333333e+00	 9.810384e+00
0	 3.703704e-01	 7.407407e+00	 9.820075e+00
0	 4.444444e-01	 7.037037e+00	 9.771237e+00
0	 4.444444e-01	 7.111111e+00	 9.781958e+00
0	 4.444444e-01	 7.185185e+00	 9.792393e+00
0	 4.444444e-01	 7.259259e+00	 9.802541e+00
0	 4.444444e-01	 7.333333e+00	 9.812403e+00
0	 4.444444e-01	 7.407407e+00	 9.821978e+00
0	 5.185185e-01	 7.037037e+00	 9.774241e+00
0	 5.185185e-01	 7.111111e+00	 9.784794e+00
0	 5.185185e-01	 7.185185e+00	 9.795068e+00
0	 5.185185e-01	 7.259259e+00	 9.805064e+00
0	 5.185185e-01	 7.333333e+00	 9.814781e+00
0	 5.185185e-01	 7.407407e+00	 9.824219e+00
0	 5.925926e-01	 7.037037e+00	 9.777673e+00
0	 5.925926e-01	 7.111111e+00	 9.788037e+00
0	 5.925926e-01	 7.185185e+00	 9.798129e+00
0	 5.925926e-01	 7.259259e+00	 9.807951e+00
0	 5.925926e-01	 7.333333e+00	 9.817503e+00
0	 5.925926e-01	 7.407407e+00	 9.826785e+00
0	 6.666667e-01	 7.037037e+00	 9.781514e+00
0	 6.666667e-01	 7.111111e+00	 9.791667e+00
0	 6.666667e-01	 7.185185e+00	 9.801558e+00
0	 6.666667e-01	 7.259259e+00	 9.811186e+00
0	 6.666667e-01	 7.333333e+00	 9.820554e+00
0	 6.666667e-01	 7.407407e+00	 9.829661e+00
0	 7.407407e-01	 7.037037e+00	 9.785744e+00
0	 7.407407e-01	 7.111111e+00	 9.795667e+00
0	 7.407407e-01	 7.185185e+00	 9.805336e+00
0	 7.407407e-01	 7.259259e+00	 9.814752e+00
0	 7.407407e-01	 7.333333e+00	 9.823917e+00
0	 7.407407e-01	 7.407407e+00	 9.832831e+00
0	 3.703704e-01	 7.407407e+00	 9.820075e+00
0	 3.703704e-01	 7.481481e+00	 9.829485e+00
0	 3.703704e-01	 7.555556e+00	 9.838632e+00
0	 3.703704e-01	 7.629630e+00	 9.847517e+00
0	 3.703704e-01	 7.703704e+00	 9.856144e+00
0	 3.703704e-01	 7.777778e+00	 9.864515e+00
0	 4.444444e-01	 7.407407e+00	 9.821978e+00
0	 4.444444e-01	 7.481481e+00	 9.831278e+00
0	 4.444444e-01	 7.555556e+00	 9.840319e+00
0	 4.444444e-01	 7.629630e+00	 9.849103e+00
0	 4.444444e-01	 7.703704e+00	 9.857632e+00
0	 4.444444e-01	 7.777778e+00	 9.865909e+00
0	 5.185185e-01	 7.407407e+00	 9.824219e+00
0	 5.185185e-01	 7.481481e+00	 9.833390e+00
0	 5.185185e-01	 7.555556e+00	 9.842306e+00
0	 5.185185e-01	 7.629630e+00	 9.850969e+00
0	 5.185185e-01	 7.703704e+00	 9.859383e+00
0	 5.185185e-01	 7.777778e+00	 9.867549e+00
0	 5.925926e-01	 7.407407e+00	 9.826785e+00
0	 5.925926e-01	 7.481481e+00	 9.835807e+00
0	 5.925926e-01	 7.555556e+00	 9.844579e+00
0	 5.925926e-01	 7.629630e+00	 9.853105e+00
0	 5.925926e-01	 7.703704e+00	 9.861386e+00
0	 5.925926e-01	 7.777778e+00	 9.869426e+00
0	 6.666667e-01	 7.407407e+00	 9.829661e+00
0	 6.666667e-01	 7.481481e+00	 9.838515e+00
0	 6.666667e-01	 7.555556e+00	 9.847127e+00
0	 6.666667e-01	 7.629630e+00	 9.855498e+00
0	 6.666667e-01	 7.703704e+00	 9.863631e+00
0	 6.666667e-01	 7.777778e+00	 9.871530e+00
0	 7.407407e-01	 7.407407e+00	 9.832831e+00
0	 7.407407e-01	 7.481481e+00	 9.841501e+00
0	 7.407407e-01	 7.555556e+00	 9.849936e+00
0	 7.407407e-01	 7.629630e+00	 9.858137e+00
0	 7.407407e-01	 7.703704e+00	 9.866107e+00
0	 7.407407e-01	 7.777778e+00	 9.873850e+00
0	 3.703704e-01	 7.777778e+00	 9.864515e+00
0	 3.703704e-01	 7.851852e+00	 9.872637e+00
0	 3.703704e-01	 7.925926e+00	 9.880515e+00
0	 3.703704e-01	 8.000000e+00	 9.888154e+00
0	 3.703704e-01	 8.074074e+00	 9.895558e+00
0	 3.703704e-01	 8.148148e+00	 9.902730e+00
0	 4.444444e-01	 7.777778e+00	 9.865909e+00
0	 4.444444e-01	 7.851852e+00	 9.873939e+00
0	 4.444444e-01	 7.925926e+00	 9.881731e+00
0	 4.444444e-01	 8.000000e+00	 9.889287e+00
0	 4.444444e-01	 8.074074e+00	 9.896612e+00
0	 4.444444e-01	 8.148148e+00	 9.903708e+00
0	 5.185185e-01	 7.777778e+00	 9.867549e+00
0	 5.185185e-01	 7.851852e+00	 9.875474e+00
0	 5.185185e-01	 7.925926e+00	 9.883163e+00
0	 5.185185e-01	 8.000000e+00	 9.890622e+00
0	 5.185185e-01	 8.074074e+00	 9.897853e+00
0	 5.185185e-01	 8.148148e+00	 9.904860e+00
0	 5.925926e-01	 7.777778e+00	 9.869426e+00
0	 5.925926e-01	 7.851852e+00	 9.877230e+00
0	 5.925926e-01	 7.925926e+00	 9.884803e+00
0	 5.925926e-01	 8.000000e+00	 9.892150e+00
0	 5.925926e-01	 8.074074e+00	 9.899274e+00
0	 5.925926e-01	 8.148148e+00	 9.906180e+00
0	 6.666667e-01	 7.777778e+00	 9.871530e+00
0	 6.666667e-01	 7.851852e+00	 9.879198e+00
0	 6.666667e-01	 7.925926e+00	 9.886641e+00
0	 6.666667e-01	 8.000000e+00	 9.893863e+00
0	 6.666667e-01	 8.074074e+00	 9.900868e+00
0	 6.666667e-01	 8.148148e+00	 9.907659e+00
0	 7.407407e-01	 7.777778e+00	 9.873850e+00
0	 7.407407e-01	 7.851852e+00	 9.881369e+00
0	 7.407407e-01	 7.925926e+00	 9.888668e+00
0	 7.407407e-01	 8.000000e+00	 9.895753e+00
0	 7.407407e-01	 8.074074e+00	 9.902625e+00
0	 7.407407e-01	 8.148148e+00	 9.909291e+00
0	 3.703704e-01	 8.148148e+00	 9.902730e+00
0	 3.703704e-01	 8.222222e+00	 9.909666e+00
0	 3.703704e-01	 8.296296e+00	 9.916364e+00
0	 3.703704e-01	 8.370370e+00	 9.922830e+00
0	 3.703704e-01	 8.444444e+00	 9.929070e+00
0	 3.703704e-01	 8.518519e+00	 9.935089e+00
0	 4.444444e-01	 8.148148e+00	 9.903708e+00
0	 4.444444e-01	 8.222222e+00	 9.910572e+00
0	 4.444444e-01	 8.296296e+00	 9.917200e+00
0	 4.444444e-01	 8.370370e+00	 9.923599e+00
0	 4.444444e-01	 8.444444e+00	 9.929775e+00
0	 4.444444e-01	 8.518519e+00	 9.935734e+00
0	 5.185185e-01	 8.148148e+00	 9.904860e+00
0	 5.185185e-01	 8.222222e+00	 9.911639e+00
0	 5.185185e-01	 8.296296e+00	 9.918186e+00
0	 5.185185e-01	 8.370370e+00	 9.924506e+00
0	 5.185185e-01	 8.444444e+00	 9.930607e+00
0	 5.185185e-01	 8.518519e+00	 9.936494e+00
0	 5.925926e-01	 8.148148e+00	 9.906180e+00
0	 5.925926e-01	 8.222222e+00	 9.912861e+00
0	 5.925926e-01	 8.296296e+00	 9.919314e+00
0	 5.925926e-01	 8.370370e+00	 9.925545e+00
0	 5.925926e-01	 8.444444e+00	 9.931559e+00
0	 5.925926e-01	 8.518519e+00	 9.937364e+00
0	 6.666667e-01	 8.148148e+00	 9.907659e+00
0	 6.666667e-01	 8.222222e+00	 9.914231e+00
0	 6.666667e-01	 8.296296e+00	 9.920579e+00
0	 6.666667e-01	 8.370370e+00	 9.926709e+00
0	 6.666667e-01	 8.444444e+00	 9.932627e+00
0	 6.666667e-01	 8.518519e+00	 9.938339e+00
0	 7.407407e-01	 8.148148e+00	 9.909291e+00
0	 7.407407e-01	 8.222222e+00	 9.915742e+00
0	 7.407407e-01	 8.296296e+00	 9.921974e+00
0	 7.407407e-01	 8.370370e+00	 9.927993e+00
0	 7.407407e-01	 8.444444e+00	 9.933804e+00
0	 7.407407e-01	 8.518519e+00	 9.939415e+00
0	 3.703704e-01	 8.518519e+00	 9.935089e+00
0	 3.703704e-01	 8.592593e+00	 9.940874e+00
0	 3.703704e-01	 8.666667e+00	 9.946409e+00
0	 3.703704e-01	 8.740741e+00	 9.951703e+00
0	 3.703704e-01	 8.814815e+00	 9.956766e+00
0	 3.703704e-01	 8.888889e+00	 9.961606e+00
0	 4.444444e-01	 8.518519e+00	 9.935734e+00
0	 4.444444e-01	 8.592593e+00	 9.941460e+00
0	 4.444444e-01	 8.666667e+00	 9.946939e+00
0	 4.444444e-01	 8.740741e+00	 9.952181e+00
0	 4.444444e-01	 8.814815e+00	 9.957193e+00
0	 4.444444e-01	 8.888889e+00	 9.961985e+00
0	 5.185185e-01	 8.518519e+00	 9.936494e+00
0	 5.185185e-01	 8.592593e+00	 9.942151e+00
0	 5.185185e-01	 8.666667e+00	 9.947565e+00
0	 5.185185e-01	 8.740741e+00	 9.952744e+00
0	 5.185185e-01	 8.814815e+00	 9.957697e+00
0	 5.185185e-01	 8.888889e+00	 9.962432e+00
0	 5.925926e-01	 8.518519e+00	 9.937364e+00
0	 5.925926e-01	 8.592593e+00	 9.942943e+00
0	 5.925926e-01	 8.666667e+00	 9.948282e+00
0	 5.925926e-01	 8.740741e+00	 9.953390e+00
0	 5.925926e-01	 8.814815e+00	 9.958275e+00
0	 5.925926e-01	 8.888889e+00	 9.962945e+00
0	 6.666667e-01	 8.518519e+00	 9.938339e+00
0	 6.666667e-01	 8.592593e+00	 9.943830e+00
0	 6.666667e-01	 8.666667e+00	 9.949085e+00
0	 6.666667e-01	 8.740741e+00	 9.954113e+00
0	 6.666667e-01	 8.814815e+00	 9.958922e+00
0	 6.666667e-01	 8.888889e+00	 9.963520e+00
0	 7.407407e-01	 8.518519e+00	 9.939415e+00
0	 7.407407e-01	 8.592593e+00	 9.944808e+00
0	 7.407407e-01	 8.666667e+00	 9.949970e+00
0	 7.407407e-01	 8.740741e+00	 9.954909e+00
0	 7.407407e-01	 8.814815e+00	 9.959634e+00
0	 7.407407e-01	 8.888889e+00	 9.964152e+00
0	 3.703704e-01	 8.888889e+00	 9.961606e+00
0	 3.703704e-01	 8.962963e+00	 9.966194e+00
0	 3.703704e-01	 9.037037e+00	 9.970507e+00
0	 3.703704e-01	 9.111111e+00	 9.974555e+00
0	 3.703704e-01	 9.185185e+00	 9.978352e+00
0	 3.703704e-01	 9.259259e+00	 9.981908e+00
0	 4.444444e-01	 8.888889e+00	 9.961985e+00
0	 4.444444e-01	 8.962963e+00	 9.966528e+00
0	 4.444444e-01	 9.037037e+00	 9.970798e+00
0	 4.444444e-01	 9.111111e+00	 9.974807e+00
0	 4.444444e-01	 9.185185e+00	 9.978566e+00
0	 4.444444e-01	 9.259259e+00	 9.982087e+00
0	 5.185185e-01	 8.888889e+00	 9.962432e+00
0	 5.185185e-01	 8.962963e+00	 9.966923e+00
0	 5.185185e-01	 9.037037e+00	 9.971143e+00
0	 5.185185e-01	 9.111111e+00	 9.975104e+00
0	 5.185185e-01	 9.185185e+00	 9.978819e+00
0	 5.185185e-01	 9.259259e+00	 9.982299e+00
0	 5.925926e-01	 8.888889e+00	 9.962945e+00
0	 5.925926e-01	 8.962963e+00	 9.967375e+00
0	 5.925926e-01	 9.037037e+00	 9.971537e+00
0	 5.925926e-01	 9.111111e+00	 9.975445e+00
0	 5.925926e-01	 9.185185e+00	 9.979110e+00
0	 5.925926e-01	 9.259259e+00	 9.982543e+00
0	 6.666667e-01	 8.888889e+00	 9.963520e+00
0	 6.666667e-01	 8.962963e+00	 9.967881e+00
0	 6.666667e-01	 9.037037e+00	 9.971979e+00
0	 6.666667e-01	 9.111111e+00	 9.975827e+00
0	 6.666667e-01	 9.185185e+00	 9.979435e+00
0	 6.666667e-01	 9.259259e+00	 9.982815e+00
0	 7.407407e-01	 8.888889e+00	 9.964152e+00
0	 7.407407e-01	 8.962963e+00	 9.968437e+00
0	 7.407407e-01	 9.037037e+00	 9.972465e+00
0	 7.407407e-01	 9.111111e+00	 9.976245e+00
0	 7.407407e-01	 9.185185e+00	 9.979791e+00
0	 7.407407e-01	 9.259259e+00	 9.983112e+00
0	 3.703704e-01	 9.259259e+00	 9.981908e+00
0	 3.703704e-01	 9.333333e+00	 9.985179e+00
0	 3.703704e-01	 9.407407e+00	 9.988124e+00
0	 3.703704e-01	 9.481481e+00	 9.990758e+00
0	 3.703704e-01	 9.555556e+00	 9.993099e+00
0	 3.703704e-01	 9.629630e+00	 9.995161e+00
0	 4.444444e-01	 9.259259e+00	 9.982087e+00
0	 4.444444e-01	 9.333333e+00	 9.985326e+00
0	 4.444444e-01	 9.407407e+00	 9.988242e+00
0	 4.444444e-01	 9.481481e+00	 9.990850e+00
0	 4.444444e-01	 9.555556e+00	 9.993167e+00
0	 4.444444e-01	 9.629630e+00	 9.995209e+00
0	 5.185185e-01	 9.259259e+00	 9.982299e+00
0	 5.185185e-01	 9.333333e+00	 9.985501e+00
0	 5.185185e-01	 9.407407e+00	 9.988382e+00
0	 5.185185e-01	 9.481481e+00	 9.990960e+00
0	 5.185185e-01	 9.555556e+00	 9.993250e+00
0	 5.185185e-01	 9.629630e+00	 9.995267e+00
0	 5.925926e-01	 9.259259e+00	 9.982543e+00
0	 5.925926e-01	 9.333333e+00	 9.985701e+00
0	 5.925926e-01	 9.407407e+00	 9.988544e+00
0	 5.925926e-01	 9.481481e+00	 9.991086e+00
0	 5.925926e-01	 9.555556e+00	 9.993345e+00
0	 5.925926e-01	 9.629630e+00	 9.995335e+00
0	 6.666667e-01	 9.259259e+00	 9.982815e+00
0	 6.666667e-01	 9.333333e+00	 9.985924e+00
0	 6.666667e-01	 9.407407e+00	 9.988723e+00
0	 6.666667e-01	 9.481481e+00	 9.991226e+00
0	 6.666667e-01	 9.555556e+00	 9.993450e+00
0	 6.666667e-01	 9.629630e+00	 9.995409e+00
0	 7.407407e-01	 9.259259e+00	 9.983112e+00
0	 7.407407e-01	 9.333333e+00	 9.986168e+00
0	 7.407407e-01	 9.407407e+00	 9.988918e+00
0	 7.407407e-01	 9.481481e+00	 9.991377e+00
0	 7.407407e-01	 9.555556e+00	 9.993562e+00
0	 7.407407e-01	 9.629630e+00	 9.995486e+00
0	 3.703704e-01	 9.629630e+00	 9.995161e+00
0	 3.703704e-01	 9.703704e+00	 9.996885e+00
0	 3.703704e-01	 9.777778e+00	 9.998215e+00
0	 3.703704e-01	 9.851852e+00	 9.999171e+00
0	 3.703704e-01	 9.925926e+00	 9.999776e+00
0	 3.703704e-01	 1.000000e+01	 1.000005e+01
0	 4.444444e-01	 9.629630e+00	 9.995209e+00
0	 4.444444e-01	 9.703704e+00	 9.996916e+00
0	 4.444444e-01	 9.777778e+00	 9.998232e+00
0	 4.444444e-01	 9.851852e+00	 9.999178e+00
0	 4.444444e-01	 9.925926e+00	 9.999777e+00
0	 4.444444e-01	 1.000000e+01	 1.000005e+01
0	 5.185185e-01	 9.629630e+00	 9.995267e+00
0	 5.185185e-01	 9.703704e+00	 9.996954e+00
0	 5.185185e-01	 9.777778e+00	 9.998255e+00
0	 5.185185e-01	 9.851852e+00	 9.999190e+00
0	 5.185185e-01	 9.925926e+00	 9.999782e+00
0	 5.185185e-01	 1.000000e+01	 1.000005e+01
0	 5.925926e-01	 9.629630e+00	 9.995335e+00
0	 5.925926e-01	 9.703704e+00	 9.996999e+00
0	 5.925926e-01	 9.777778e+00	 9.998282e+00
0	 5.925926e-01	 9.851852e+00	 9.999204e+00
0	 5.925926e-01	 9.925926e+00	 9.999788e+00
0	 5.925926e-01	 1.000000e+01	 1.000005e+01
0	 6.666667e-01	 9.629630e+00	 9.995409e+00
0	 6.666667e-01	 9.703704e+00	 9.997047e+00
0	 6.666667e-01	 9.777778e+00	 9.998310e+00
0	 6.666667e-01	 9.851852e+00	 9.999218e+00
0	 6.666667e-01	 9.925926e+00	 9.999792e+00
0	 6.666667e-01	 1.000000e+01	 1.000005e+01
0	 7.407407e-01	 9.629630e+00	 9.995486e+00
0	 7.407407e-01	 9.703704e+00	 9.997095e+00
0	 7.407407e-01	 9.777778e+00	 9.998336e+00
0	 7.407407e-01	 9.851852e+00	 9.999228e+00
0	 7.407407e-01	 9.925926e+00	 9.999791e+00
0	 7.407407e-01	 1.000000e+01	 1.000005e+01
0	 7.407407e-01	 0.000000e+00	 7.382516e-02
0	 7.407407e-01	 7.407407e-02	 3.131560e-01
0	 7.407407e-01	 1.481481e-01	 4.750774e-01
0	 7.407407e-01	 2.222222e-01	 5.172452e-01
0	 7.407407e-01	 2.962963e-01	 3.973150e-01
0	 7.407407e-01	 3.703704e-01	 7.294252e-02
0	 8.148148e-01	 0.000000e+00	 2.900306e-02
0	 8.148148e-01	 7.407407e-02	 3.447786e-01
0	 8.148148e-01	 1.481481e-01	 5.360029e-01
0	 8.148148e-01	 2.222222e-01	 5.557335e-01
0	 8.148148e-01	 2.962963e-01	 3.570281e-01
0	 8.148148e-01	 3.703704e-01	-1.070557e-01
0	 8.888889e-01	 0.000000e+00	-2.605513e-01
0	 8.888889e-01	 7.407407e-02	 8.638296e-02
0	 8.888889e-01	 1.481481e-01	 2.196653e-01
0	 8.888889e-01	 2.222222e-01	 1.218972e-01
0	 8.888889e-01	 2.962963e-01	-2.243197e-01
0	 8.888889e-01	 3.703704e-01	-8.363838e-01
0	 9.629630e-01	 0.000000e+00	-7.160926e-01
0	 9.629630e-01	 7.407407e-02	-3.454745e-01
0	 9.629630e-01	 1.481481e-01	-3.318937e-01
0	 9.629630e-01	 2.222222e-01	-6.290623e-01
0	 9.629630e-01	 2.962963e-01	-1.190693e+00
0	 9.629630e-01	 3.703704e-01	-1.970498e+00
0	 1.037037e+00	 0.000000e+00	-1.258875e+00
0	 1.037037e+00	 7.407407e-02	-8.342376e-01
0	 1.037037e+00	 1.481481e-01	-9.766322e-01
0	 1.037037e+00	 2.222222e-01	-1.541943e+00
0	 1.037037e+00	 2.962963e-01	-2.386055e+00
0	 1.037037e+00	 3.703704e-01	-3.364853e+00
0	 1.111111e+00	 0.000000e+00	-1.810154e+00
0	 1.111111e+00	 7.407407e-02	-1.263350e+00
0	 1.111111e+00	 1.481481e-01	-1.572509e+00
0	 1.111111e+00	 2.222222e-01	-2.461545e+00
0	 1.111111e+00	 2.962963e-01	-3.654372e+00
0	 1.111111e+00	 3.703704e-01	-4.874905e+00
0	 7.407407e-01	 3.703704e-01	 7.294252e-02
0	 7.407407e-01	 4.444444e-01	-1.430495e-01
0	 7.407407e-01	 5.185185e-01	 9.397427e-02
0	 7.407407e-01	 5.925926e-01	 7.893882e-01
0	 7.407407e-01	 6.666667e-01	 1.948567e+00
0	 7.407407e-01	 7.407407e-01	 3.576885e+00
0	 8.148148e-01	 3.703704e-01	-1.070557e-01
0	 8.148148e-01	 4.444444e-01	-3.319328e-01
0	 8.148148e-01	 5.185185e-01	 2.269093e-01
0	 8.148148e-01	 5.925926e-01	 1.582419e+00
0	 8.148148e-01	 6.666667e-01	 3.747545e+00
0	 8.148148e-01	 7.407407e-01	 6.735235e+00
0	 8.888889e-01	 3.703704e-01	-8.363838e-01
0	 8.888889e-01	 4.444444e-01	-1.005420e+00
0	 8.888889e-01	 5.185185e-01	-5.674385e-03
0	 8.888889e-01	 5.925926e-01	 2.170769e+00
0	 8.888889e-01	 6.666667e-01	 5.531827e+00
0	 8.888889e-01	 7.407407e-01	 1.008542e+01
0	 9.629630e-01	 3.703704e-01	-1.970498e+00
0	 9.629630e-01	 4.444444e-01	-2.061734e+00
0	 9.629630e-01	 5.185185e-01	-5.949987e-01
0	 9.629630e-01	 5.925926e-01	 2.419989e+00
0	 9.629630e-01	 6.666667e-01	 6.973509e+00
0	 9.629630e-01	 7.407407e-01	 1.305584e+01
0	 1.037037e+00	 3.703704e-01	-3.364853e+00
0	 1.037037e+00	 4.444444e-01	-3.399101e+00
0	 1.037037e+00	 5.185185e-01	-1.532286e+00
0	 1.037037e+00	 5.925926e-01	 2.195631e+00
0	 1.037037e+00	 6.666667e-01	 7.744688e+00
0	 1.037037e+00	 7.407407e-01	 1.507492e+01
0	 1.111111e+00	 3.703704e-01	-4.874905e+00
0	 1.111111e+00	 4.444444e-01	-4.915745e+00
0	 1.111111e+00	 5.185185e-01	-2.808757e+00
0	 1.111111e+00	 5.925926e-01	 1.363248e+00
0	 1.111111e+00	 6.666667e-01	 7.517461e+00
0	 1.111111e+00	 7.407407e-01	 1.557107e+01
0	 7.407407e-01	 7.407407e-01	 3.576885e+00
0	 7.407407e-01	 8.148148e-01	 6.590931e+00
0	 7.407407e-01	 8.888889e-01	 1.193408e+01
0	 7.407407e-01	 9.629630e-01	 1.965187e+01
0	 7.407407e-01	 1.037037e+00	 2.978984e+01
0	 7.407407e-01	 1.111111e+00	 4.239355e+01
0	 8.148148e-01	 7.407407e-01	 6.735235e+00
0	 8.148148e-01	 8.148148e-01	 1.076536e+01
0	 8.148148e-01	 8.888889e-01	 1.608470e+01
0	 8.148148e-01	 9.629630e-01	 2.274659e+01
0	 8.148148e-01	 1.037037e+00	 3.080433e+01
0	 8.148148e-01	 1.111111e+00	 4.031127e+01
0	 8.888889e-01	 7.407407e-01	 1.008542e+01
0	 8.888889e-01	 8.148148e-01	 1.530039e+01
0	 8.888889e-01	 8.888889e-01	 2.067472e+01
0	 8.888889e-01	 9.629630e-01	 2.626000e+01
0	 8.888889e-01	 1.037037e+00	 3.210782e+01
0	 8.888889e-01	 1.111111e+00	 3.826978e+01
0	 9.629630e-01	 7.407407e-01	 1.305584e+01
0	 9.629630e-01	 8.148148e-01	 1.942678e+01
0	 9.629630e-01	 8.888889e-01	 2.487951e+01
0	 9.629630e-01	 9.629630e-01	 2.945437e+01
0	 9.629630e-01	 1.037037e+00	 3.319174e+01
0	 9.629630e-01	 1.111111e+00	 3.613197e+01
0	 1.037037e+00	 7.407407e-01	 1.507492e+01
0	 1.037037e+00	 8.148148e-01	 2.237528e+01
0	 1.037037e+00	 8.888889e-01	 2.787443e+01
0	 1.037037e+00	 9.629630e-01	 3.159198e+01
0	 1.037037e+00	 1.037037e+00	 3.354754e+01
0	 1.037037e+00	 1.111111e+00	 3.376074e+01
0	 1.111111e+00	 7.407407e-01	 1.557107e+01
0	 1.111111e+00	 8.148148e-01	 2.337664e+01
0	 1.111111e+00	 8.888889e-01	 2.883486e+01
0	 1.111111e+00	 9.629630e-01	 3.193508e+01
0	 1.111111e+00	 1.037037e+00	 3.266666e+01
0	 1.111111e+00	 1.111111e+00	 3.101898e+01
0	 7.407407e-01	 1.111111e+00	 4.239355e+01
0	 7.407407e-01	 1.185185e+00	 5.348098e+01
0	 7.407407e-01	 1.259259e+00	 5.901500e+01
0	 7.407407e-01	 1.333333e+00	 5.895850e+01
0	 7.407407e-01	 1.407407e+00	 5.327437e+01
0	 7.407407e-01	 1.481481e+00	 4.192550e+01
0	 8.148148e-01	 1.111111e+00	 4.031127e+01
0	 8.148148e-01	 1.185185e+00	 4.840450e+01
0	 8.148148e-01	 1.259259e+00	 5.215096e+01
0	 8.148148e-01	 1.333333e+00	 5.149872e+01
0	 8.148148e-01	 1.407407e+00	 4.639584e+01
0	 8.148148e-01	 1.481481e+00	 3.679039e+01
0	 8.888889e-01	 1.111111e+00	 3.826978e+01
0	 8.888889e-01	 1.185185e+00	 4.309292e+01
0	 8.888889e-01	 1.259259e+00	 4.485225e+01
0	 8.888889e-01	 1.333333e+00	 4.349133e+01
0	 8.888889e-01	 1.407407e+00	 3.895372e+01
0	 8.888889e-01	 1.481481e+00	 3.118296e+01
0	 9.629630e-01	 1.111111e+00	 3.613197e+01
0	 9.629630e-01	 1.185185e+00	 3.778879e+01
0	 9.629630e-01	 1.259259e+00	 3.761528e+01
0	 9.629630e-01	 1.333333e+00	 3.556077e+01
0	 9.629630e-01	 1.407407e+00	 3.157461e+01
0	 9.629630e-01	 1.481481e+00	 2.560614e+01
0	 1.037037e+00	 1.111111e+00	 3.376074e+01
0	 1.037037e+00	 1.185185e+00	 3.273470e+01
0	 1.037037e+00	 1.259259e+00	 3.093647e+01
0	 1.037037e+00	 1.333333e+00	 2.833146e+01
0	 1.037037e+00	 1.407407e+00	 2.488512e+01
0	 1.037037e+00	 1.481481e+00	 2.056287e+01
0	 1.111111e+00	 1.111111e+00	 3.101898e+01
0	 1.111111e+00	 1.185185e+00	 2.817321e+01
0	 1.111111e+00	 1.259259e+00	 2.531221e+01
0	 1.111111e+00	 1.333333e+00	 2.242780e+01
0	 1.111111e+00	 1.407407e+00	 1.951182e+01
0	 1.111111e+00	 1.481481e+00	 1.655609e+01
0	 7.407407e-01	 1.481481e+00	 4.192550e+01
0	 7.407407e-01	 1.555556e+00	 2.917571e+01
0	 7.407407e-01	 1.629630e+00	 1.931421e+01
0	 7.407407e-01	 1.703704e+00	 1.234195e+01
0	 7.407407e-01	 1.777778e+00	 8.259842e+00
0	 7.407407e-01	 1.851852e+00	 7.068838e+00
0	 8.148148e-01	 1.481481e+00	 3.679039e+01
0	 8.148148e-01	 1.555556e+00	 2.611929e+01
0	 8.148148e-01	 1.629630e+00	 1.785775e+01
0	 8.148148e-01	 1.703704e+00	 1.201129e+01
0	 8.148148e-01	 1.777778e+00	 8.585430e+00
0	 8.148148e-01	 1.851852e+00	 7.585685e+00
0	 8.888889e-01	 1.481481e+00	 3.118296e+01
0	 8.888889e-01	 1.555556e+00	 2.272676e+01
0	 8.888889e-01	 1.629630e+00	 1.617613e+01
0	 8.888889e-01	 1.703704e+00	 1.153958e+01
0	 8.888889e-01	 1.777778e+00	 8.825627e+00
0	 8.888889e-01	 1.851852e+00	 8.042770e+00
0	 9.629630e-01	 1.481481e+00	 2.560614e+01
0	 9.629630e-01	 1.555556e+00	 1.933240e+01
0	 9.629630e-01	 1.629630e+00	 1.447082e+01
0	 9.629630e-01	 1.703704e+00	 1.103130e+01
0	 9.629630e-01	 1.777778e+00	 9.023763e+00
0	 9.629630e-01	 1.851852e+00	 8.458109e+00
0	 1.037037e+00	 1.481481e+00	 2.056287e+01
0	 1.037037e+00	 1.555556e+00	 1.627050e+01
0	 1.037037e+00	 1.629630e+00	 1.294327e+01
0	 1.037037e+00	 1.703704e+00	 1.059092e+01
0	 1.037037e+00	 1.777778e+00	 9.223165e+00
0	 1.037037e+00	 1.851852e+00	 8.849719e+00
0	 1.111111e+00	 1.481481e+00	 1.655609e+01
0	 1.111111e+00	 1.555556e+00	 1.387532e+01
0	 1.111111e+00	 1.629630e+00	 1.179496e+01
0	 1.111111e+00	 1.703704e+00	 1.032292e+01
0	 1.111111e+00	 1.777778e+00	 9.467163e+00
0	 1.111111e+00	 1.851852e+00	 9.235615e+00
0	 7.407407e-01	 1.851852e+00	 7.068838e+00
0	 7.407407e-01	 1.925926e+00	 7.292405e+00
0	 7.407407e-01	 2.000000e+00	 7.457519e+00
0	 7.407407e-01	 2.074074e+00	 7.570369e+00
0	 7.407407e-01	 2.148148e+00	 7.637147e+00
0	 7.407407e-01	 2.222222e+00	 7.664042e+00
0	 8.148148e-01	 1.851852e+00	 7.585685e+00
0	 8.148148e-01	 1.925926e+00	 7.770035e+00
0	 8.148148e-01	 2.000000e+00	 7.896593e+00
0	 8.148148e-01	 2.074074e+00	 7.971080e+00
0	 8.148148e-01	 2.148148e+00	 7.999216e+00
0	 8.148148e-01	 2.222222e+00	 7.986721e+00
0	 8.888889e-01	 1.851852e+00	 8.042770e+00
0	 8.888889e-01	 1.925926e+00	 8.198076e+00
0	 8.888889e-01	 2.000000e+00	 8.296347e+00
0	 8.888889e-01	 2.074074e+00	 8.342706e+00
0	 8.888889e-01	 2.148148e+00	 8.342274e+00
0	 8.888889e-01	 2.222222e+00	 8.300172e+00
0	 9.629630e-01	 1.851852e+00	 8.458109e+00
0	 9.629630e-01	 1.925926e+00	 8.587772e+00
0	 9.629630e-01	 2.000000e+00	 8.662504e+00
0	 9.629630e-01	 2.074074e+00	 8.686698e+00
0	 9.629630e-01	 2.148148e+00	 8.664745e+00
0	 9.629630e-01	 2.222222e+00	 8.601038e+00
0	 1.037037e+00	 1.851852e+00	 8.849719e+00
0	 1.037037e+00	 1.925926e+00	 8.950372e+00
0	 1.037037e+00	 2.000000e+00	 9.000788e+00
0	 1.037037e+00	 2.074074e+00	 9.004502e+00
0	 1.037037e+00	 2.148148e+00	 8.965048e+00
0	 1.037037e+00	 2.222222e+00	 8.885961e+00
0	 1.111111e+00	 1.851852e+00	 9.235615e+00
0	 1.111111e+00	 1.925926e+00	 9.297120e+00
0	 1.111111e+00	 2.000000e+00	 9.316922e+00
0	 1.111111e+00	 2.074074e+00	 9.297569e+00
0	 1.111111e+00	 2.148148e+00	 9.241607e+00
0	 1.111111e+00	 2.222222e+00	 9.151583e+00
0	 7.407407e-01	 2.222222e+00	 7.664042e+00
0	 7.407407e-01	 2.296296e+00	 7.686380e+00
0	 7.407407e-01	 2.370370e+00	 7.731685e+00
0	 7.407407e-01	 2.444444e+00	 7.794454e+00
0	 7.407407e-01	 2.518519e+00	 7.869180e+00
0	 7.407407e-01	 2.592593e+00	 7.950358e+00
0	 8.148148e-01	 2.222222e+00	 7.986721e+00
0	 8.148148e-01	 2.296296e+00	 7.970660e+00
0	 8.148148e-01	 2.370370e+00	 7.981528e+00
0	 8.148148e-01	 2.444444e+00	 8.015190e+00
0	 8.148148e-01	 2.518519e+00	 8.067511e+00
0	 8.148148e-01	 2.592593e+00	 8.134357e+00
0	 8.888889e-01	 2.222222e+00	 8.300172e+00
0	 8.888889e-01	 2.296296e+00	 8.254374e+00
0	 8.888889e-01	 2.370370e+00	 8.237431e+00
0	 8.888889e-01	 2.444444e+00	 8.246331e+00
0	 8.888889e-01	 2.518519e+00	 8.278064e+00
0	 8.888889e-01	 2.592593e+00	 8.329618e+00
0	 9.629630e-01	 2.222222e+00	 8.601038e+00
0	 9.629630e-01	 2.296296e+00	 8.533180e+00
0	 9.629630e-01	 2.370370e+00	 8.494420e+00
0	 9.629630e-01	 2.444444e+00	 8.482620e+00
0	 9.629630e-01	 2.518519e+00	 8.495644e+00
0	 9.629630e-01	 2.592593e+00	 8.531354e+00
0	 1.037037e+00	 2.222222e+00	 8.885961e+00
0	 1.037037e+00	 2.296296e+00	 8.802740e+00
0	 1.037037e+00	 2.370370e+00	 8.747523e+00
0	 1.037037e+00	 2.444444e+00	 8.718798e+00
0	 1.037037e+00	 2.518519e+00	 8.715053e+00
0	 1.037037e+00	 2.592593e+00	 8.734779e+00
0	 1.111111e+00	 2.222222e+00	 9.151583e+00
0	 1.111111e+00	 2.296296e+00	 9.058714e+00
0	 1.111111e+00	 2.370370e+00	 8.991765e+00
0	 1.111111e+00	 2.444444e+00	 8.949604e+00
0	 1.111111e+00	 2.518519e+00	 8.931096e+00
0	 1.111111e+00	 2.592593e+00	 8.935107e+00
0	 7.407407e-01	 2.592593e+00	 7.950358e+00
0	 7.407407e-01	 2.666667e+00	 8.025727e+00
0	 7.407407e-01	 2.740741e+00	 8.089955e+00
0	 7.407407e-01	 2.814815e+00	 8.147931e+00
0	 7.407407e-01	 2.888889e+00	 8.204543e+00
0	 7.407407e-01	 2.962963e+00	 8.264681e+00
0	 8.148148e-01	 2.592593e+00	 8.134357e+00
0	 8.148148e-01	 2.666667e+00	 8.200775e+00
0	 8.148148e-01	 2.740741e+00	 8.257099e+00
0	 8.148148e-01	 2.814815e+00	 8.307122e+00
0	 8.148148e-01	 2.888889e+00	 8.354636e+00
0	 8.148148e-01	 2.962963e+00	 8.403436e+00
0	 8.888889e-01	 2.592593e+00	 8.329618e+00
0	 8.888889e-01	 2.666667e+00	 8.384689e+00
0	 8.888889e-01	 2.740741e+00	 8.430908e+00
0	 8.888889e-01	 2.814815e+00	 8.471161e+00
0	 8.888889e-01	 2.888889e+00	 8.508335e+00
0	 8.888889e-01	 2.962963e+00	 8.545316e+00
0	 9.629630e-01	 2.592593e+00	 8.531354e+00
0	 9.629630e-01	 2.666667e+00	 8.573257e+00
0	 9.629630e-01	 2.740741e+00	 8.607731e+00
0	 9.629630e-01	 2.814815e+00	 8.636943e+00
0	 9.629630e-01	 2.888889e+00	 8.663061e+00
0	 9.629630e-01	 2.962963e+00	 8.688252e+00
0	 1.037037e+00	 2.592593e+00	 8.734779e+00
0	 1.037037e+00	 2.666667e+00	 8.762269e+00
0	 1.037037e+00	 2.740741e+00	 8.783917e+00
0	 1.037037e+00	 2.814815e+00	 8.801359e+00
0	 1.037037e+00	 2.888889e+00	 8.816233e+00
0	 1.037037e+00	 2.962963e+00	 8.830173e+00
0	 1.111111e+00	 2.592593e+00	 8.935107e+00
0	 1.111111e+00	 2.666667e+00	 8.947515e+00
0	 1.111111e+00	 2.740741e+00	 8.955816e+00
0	 1.111111e+00	 2.814815e+00	 8.961303e+00
0	 1.111111e+00	 2.888889e+00	 8.965270e+00
0	 1.111111e+00	 2.962963e+00	 8.969011e+00
0	 7.407407e-01	 2.962963e+00	 8.264681e+00
0	 7.407407e-01	 3.037037e+00	 8.329513e+00
0	 7.407407e-01	 3.111111e+00	 8.395035e+00
0	 7.407407e-01	 3.185185e+00	 8.458374e+00
0	 7.407407e-01	 3.259259e+00	 8.516656e+00
0	 7.407407e-01	 3.333333e+00	 8.567007e+00
0	 8.148148e-01	 2.962963e+00	 8.403436e+00
0	 8.148148e-01	 3.037037e+00	 8.455303e+00
0	 8.148148e-01	 3.111111e+00	 8.508141e+00
0	 8.148148e-01	 3.185185e+00	 8.559928e+00
0	 8.148148e-01	 3.259259e+00	 8.608641e+00
0	 8.148148e-01	 3.333333e+00	 8.652257e+00
0	 8.888889e-01	 2.962963e+00	 8.545316e+00
0	 8.888889e-01	 3.037037e+00	 8.584403e+00
0	 8.888889e-01	 3.111111e+00	 8.625076e+00
0	 8.888889e-01	 3.185185e+00	 8.665992e+00
0	 8.888889e-01	 3.259259e+00	 8.705811e+00
0	 8.888889e-01	 3.333333e+00	 8.743189e+00
0	 9.629630e-01	 2.962963e+00	 8.688252e+00
0	 9.629630e-01	 3.037037e+00	 8.715171e+00
0	 9.629630e-01	 3.111111e+00	 8.744476e+00
0	 9.629630e-01	 3.185185e+00	 8.775333e+00
0	 9.629630e-01	 3.259259e+00	 8.806913e+00
0	 9.629630e-01	 3.333333e+00	 8.838383e+00
0	 1.037037e+00	 2.962963e+00	 8.830173e+00
0	 1.037037e+00	 3.037037e+00	 8.845966e+00
0	 1.037037e+00	 3.111111e+00	 8.864977e+00
0	 1.037037e+00	 3.185185e+00	 8.886717e+00
0	 1.037037e+00	 3.259259e+00	 8.910693e+00
0	 1.037037e+00	 3.333333e+00	 8.936417e+00
0	 1.111111e+00	 2.962963e+00	 8.969011e+00
0	 1.111111e+00	 3.037037e+00	 8.975145e+00
0	 1.111111e+00	 3.111111e+00	 8.985218e+00
0	 1.111111e+00	 3.185185e+00	 8.998909e+00
0	 1.111111e+00	 3.259259e+00	 9.015899e+00
0	 1.111111e+00	 3.333333e+00	 9.035868e+00
0	 7.407407e-01	 3.333333e+00	 8.567007e+00
0	 7.407407e-01	 3.407407e+00	 8.610977e+00
0	 7.407407e-01	 3.481481e+00	 8.653216e+00
0	 7.407407e-01	 3.555556e+00	 8.695503e+00
0	 7.407407e-01	 3.629630e+00	 8.739616e+00
0	 7.407407e-01	 3.703704e+00	 8.787335e+00
0	 8.148148e-01	 3.333333e+00	 8.652257e+00
0	 8.148148e-01	 3.407407e+00	 8.691726e+00
0	 8.148148e-01	 3.481481e+00	 8.730196e+00
0	 8.148148e-01	 3.555556e+00	 8.768936e+00
0	 8.148148e-01	 3.629630e+00	 8.809217e+00
0	 8.148148e-01	 3.703704e+00	 8.852309e+00
0	 8.888889e-01	 3.333333e+00	 8.743189e+00
0	 8.888889e-01	 3.407407e+00	 8.778280e+00
0	 8.888889e-01	 3.481481e+00	 8.812717e+00
0	 8.888889e-01	 3.555556e+00	 8.847374e+00
0	 8.888889e-01	 3.629630e+00	 8.883128e+00
0	 8.888889e-01	 3.703704e+00	 8.920853e+00
0	 9.629630e-01	 3.333333e+00	 8.838383e+00
0	 9.629630e-01	 3.407407e+00	 8.869038e+00
0	 9.629630e-01	 3.481481e+00	 8.899123e+00
0	 9.629630e-01	 3.555556e+00	 8.929232e+00
0	 9.629630e-01	 3.629630e+00	 8.959960e+00
0	 9.629630e-01	 3.703704e+00	 8.991900e+00
0	 1.037037e+00	 3.333333e+00	 8.936417e+00
0	 1.037037e+00	 3.407407e+00	 8.962397e+00
0	 1.037037e+00	 3.481481e+00	 8.987757e+00
0	 1.037037e+00	 3.555556e+00	 9.012923e+00
0	 1.037037e+00	 3.629630e+00	 9.038321e+00
0	 1.037037e+00	 3.703704e+00	 9.064380e+00
0	 1.111111e+00	 3.333333e+00	 9.035868e+00
0	 1.111111e+00	 3.407407e+00	 9.056756e+00
0	 1.111111e+00	 3.481481e+00	 9.076962e+00
0	 1.111111e+00	 3.555556e+00	 9.096860e+00
0	 1.111111e+00	 3.629630e+00	 9.116823e+00
0	 1.111111e+00	 3.703704e+00	 9.137223e+00
0	 7.407407e-01	 3.703704e+00	 8.787335e+00
0	 7.407407e-01	 3.777778e+00	 8.836534e+00
0	 7.407407e-01	 3.851852e+00	 8.883326e+00
0	 7.407407e-01	 3.925926e+00	 8.926848e+00
0	 7.407407e-01	 4.000000e+00	 8.966237e+00
0	 7.407407e-01	 4.074074e+00	 9.000628e+00
0	 8.148148e-01	 3.703704e+00	 8.852309e+00
0	 8.148148e-01	 3.777778e+00	 8.896277e+00
0	 8.148148e-01	 3.851852e+00	 8.937967e+00
0	 8.148148e-01	 3.925926e+00	 8.976824e+00
0	 8.148148e-01	 4.000000e+00	 9.012291e+00
0	 8.148148e-01	 4.074074e+00	 9.043811e+00
0	 8.888889e-01	 3.703704e+00	 8.920853e+00
0	 8.888889e-01	 3.777778e+00	 8.959037e+00
0	 8.888889e-01	 3.851852e+00	 8.995366e+00
0	 8.888889e-01	 3.925926e+00	 9.029520e+00
0	 8.888889e-01	 4.000000e+00	 9.061176e+00
0	 8.888889e-01	 4.074074e+00	 9.090014e+00
0	 9.629630e-01	 3.703704e+00	 8.991900e+00
0	 9.629630e-01	 3.777778e+00	 9.024077e+00
0	 9.629630e-01	 3.851852e+00	 9.055012e+00
0	 9.629630e-01	 3.925926e+00	 9.084545e+00
0	 9.629630e-01	 4.000000e+00	 9.112517e+00
0	 9.629630e-01	 4.074074e+00	 9.138769e+00
0	 1.037037e+00	 3.703704e+00	 9.064380e+00
0	 1.037037e+00	 3.777778e+00	 9.090660e+00
0	 1.037037e+00	 3.851852e+00	 9.116392e+00
0	 1.037037e+00	 3.925926e+00	 9.141507e+00
0	 1.037037e+00	 4.000000e+00	 9.165936e+00
0	 1.037037e+00	 4.074074e+00	 9.189610e+00
0	 1.111111e+00	 3.703704e+00	 9.137223e+00
0	 1.111111e+00	 3.777778e+00	 9.158046e+00
0	 1.111111e+00	 3.851852e+00	 9.178994e+00
0	 1.111111e+00	 3.925926e+00	 9.200015e+00
0	 1.111111e+00	 4.000000e+00	 9.221058e+00
0	 1.111111e+00	 4.074074e+00	 9.242070e+00
0	 7.407407e-01	 4.074074e+00	 9.000628e+00
0	 7.407407e-01	 4.148148e+00	 9.031907e+00
0	 7.407407e-01	 4.222222e+00	 9.062820e+00
0	 7.407407e-01	 4.296296e+00	 9.093800e+00
0	 7.407407e-01	 4.370370e+00	 9.125278e+00
0	 7.407407e-01	 4.444444e+00	 9.157689e+00
0	 8.148148e-01	 4.074074e+00	 9.043811e+00
0	 8.148148e-01	 4.148148e+00	 9.072992e+00
0	 8.148148e-01	 4.222222e+00	 9.102002e+00
0	 8.148148e-01	 4.296296e+00	 9.131129e+00
0	 8.148148e-01	 4.370370e+00	 9.160659e+00
0	 8.148148e-01	 4.444444e+00	 9.190879e+00
0	 8.888889e-01	 4.074074e+00	 9.090014e+00
0	 8.888889e-01	 4.148148e+00	 9.117204e+00
0	 8.888889e-01	 4.222222e+00	 9.144255e+00
0	 8.888889e-01	 4.296296e+00	 9.171348e+00
0	 8.888889e-01	 4.370370e+00	 9.198664e+00
0	 8.888889e-01	 4.444444e+00	 9.226383e+00
0	 9.629630e-01	 4.074074e+00	 9.138769e+00
0	 9.629630e-01	 4.148148e+00	 9.163962e+00
0	 9.629630e-01	 4.222222e+00	 9.188940e+00
0	 9.629630e-01	 4.296296e+00	 9.213819e+00
0	 9.629630e-01	 4.370370e+00	 9.238713e+00
0	 9.629630e-01	 4.444444e+00	 9.263736e+00
0	 1.037037e+00	 4.074074e+00	 9.189610e+00
0	 1.037037e+00	 4.148148e+00	 9.212684e+00
0	 1.037037e+00	 4.222222e+00	 9.235420e+00
0	 1.037037e+00	 4.296296e+00	 9.257905e+00
0	 1.037037e+00	 4.370370e+00	 9.280227e+00
0	 1.037037e+00	 4.444444e+00	 9.302472e+00
0	 1.111111e+00	 4.074074e+00	 9.242070e+00
0	 1.111111e+00	 4.148148e+00	 9.262790e+00
0	 1.111111e+00	 4.222222e+00	 9.283056e+00
0	 1.111111e+00	 4.296296e+00	 9.302968e+00
0	 1.111111e+00	 4.370370e+00	 9.322625e+00
0	 1.111111e+00	 4.444444e+00	 9.342126e+00
0	 7.407407e-01	 4.444444e+00	 9.157689e+00
0	 7.407407e-01	 4.518519e+00	 9.189969e+00
0	 7.407407e-01	 4.592593e+00	 9.220642e+00
0	 7.407407e-01	 4.666667e+00	 9.249520e+00
0	 7.407407e-01	 4.740741e+00	 9.276414e+00
0	 7.407407e-01	 4.814815e+00	 9.301138e+00
0	 8.148148e-01	 4.444444e+00	 9.190879e+00
0	 8.148148e-01	 4.518519e+00	 9.220836e+00
0	 8.148148e-01	 4.592593e+00	 9.249310e+00
0	 8.148148e-01	 4.666667e+00	 9.276189e+00
0	 8.148148e-01	 4.740741e+00	 9.301362e+00
0	 8.148148e-01	 4.814815e+00	 9.324719e+00
0	 8.888889e-01	 4.444444e+00	 9.226383e+00
0	 8.888889e-01	 4.518519e+00	 9.253753e+00
0	 8.888889e-01	 4.592593e+00	 9.279860e+00
0	 8.888889e-01	 4.666667e+00	 9.304651e+00
0	 8.888889e-01	 4.740741e+00	 9.328070e+00
0	 8.888889e-01	 4.814815e+00	 9.350063e+00
0	 9.629630e-01	 4.444444e+00	 9.263736e+00
0	 9.629630e-01	 4.518519e+00	 9.288379e+00
0	 9.629630e-01	 4.592593e+00	 9.312042e+00
0	 9.629630e-01	 4.666667e+00	 9.334707e+00
0	 9.629630e-01	 4.740741e+00	 9.356355e+00
0	 9.629630e-01	 4.814815e+00	 9.376967e+00
0	 1.037037e+00	 4.444444e+00	 9.302472e+00
0	 1.037037e+00	 4.518519e+00	 9.324374e+00
0	 1.037037e+00	 4.592593e+00	 9.345604e+00
0	 1.037037e+00	 4.666667e+00	 9.366158e+00
0	 1.037037e+00	 4.740741e+00	 9.386033e+00
0	 1.037037e+00	 4.814815e+00	 9.405223e+00
0	 1.111111e+00	 4.444444e+00	 9.342126e+00
0	 1.111111e+00	 4.518519e+00	 9.361398e+00
0	 1.111111e+00	 4.592593e+00	 9.380294e+00
0	 1.111111e+00	 4.666667e+00	 9.398804e+00
0	 1.111111e+00	 4.740741e+00	 9.416918e+00
0	 1.111111e+00	 4.814815e+00	 9.434626e+00
0	 7.407407e-01	 4.814815e+00	 9.301138e+00
0	 7.407407e-01	 4.888889e+00	 9.324484e+00
0	 7.407407e-01	 4.962963e+00	 9.347423e+00
0	 7.407407e-01	 5.037037e+00	 9.370032e+00
0	 7.407407e-01	 5.111111e+00	 9.392389e+00
0	 7.407407e-01	 5.185185e+00	 9.414571e+00
0	 8.148148e-01	 4.814815e+00	 9.324719e+00
0	 8.148148e-01	 4.888889e+00	 9.346937e+00
0	 8.148148e-01	 4.962963e+00	 9.368800e+00
0	 8.148148e-01	 5.037037e+00	 9.390356e+00
0	 8.148148e-01	 5.111111e+00	 9.411653e+00
0	 8.148148e-01	 5.185185e+00	 9.432739e+00
0	 8.888889e-01	 4.814815e+00	 9.350063e+00
0	 8.888889e-01	 4.888889e+00	 9.371143e+00
0	 8.888889e-01	 4.962963e+00	 9.391879e+00
0	 8.888889e-01	 5.037037e+00	 9.412298e+00
0	 8.888889e-01	 5.111111e+00	 9.432430e+00
0	 8.888889e-01	 5.185185e+00	 9.452302e+00
0	 9.629630e-01	 4.814815e+00	 9.376967e+00
0	 9.629630e-01	 4.888889e+00	 9.396867e+00
0	 9.629630e-01	 4.962963e+00	 9.416408e+00
0	 9.629630e-01	 5.037037e+00	 9.435608e+00
0	 9.629630e-01	 5.111111e+00	 9.454487e+00
0	 9.629630e-01	 5.185185e+00	 9.473062e+00
0	 1.037037e+00	 4.814815e+00	 9.405223e+00
0	 1.037037e+00	 4.888889e+00	 9.423871e+00
0	 1.037037e+00	 4.962963e+00	 9.442136e+00
0	 1.037037e+00	 5.037037e+00	 9.460036e+00
0	 1.037037e+00	 5.111111e+00	 9.477592e+00
0	 1.037037e+00	 5.185185e+00	 9.494822e+00
0	 1.111111e+00	 4.814815e+00	 9.434626e+00
0	 1.111111e+00	 4.888889e+00	 9.451918e+00
0	 1.111111e+00	 4.962963e+00	 9.468809e+00
0	 1.111111e+00	 5.037037e+00	 9.485331e+00
0	 1.111111e+00	 5.111111e+00	 9.501512e+00
0	 1.111111e+00	 5.185185e+00	 9.517383e+00
0	 7.407407e-01	 5.185185e+00	 9.414571e+00
0	 7.407407e-01	 5.259259e+00	 9.436275e+00
0	 7.407407e-01	 5.333333e+00	 9.457125e+00
0	 7.407407e-01	 5.407407e+00	 9.477088e+00
0	 7.407407e-01	 5.481481e+00	 9.496132e+00
0	 7.407407e-01	 5.555556e+00	 9.514224e+00
0	 8.148148e-01	 5.185185e+00	 9.432739e+00
0	 8.148148e-01	 5.259259e+00	 9.453348e+00
0	 8.148148e-01	 5.333333e+00	 9.473170e+00
0	 8.148148e-01	 5.407407e+00	 9.492188e+00
0	 8.148148e-01	 5.481481e+00	 9.510385e+00
0	 8.148148e-01	 5.555556e+00	 9.527743e+00
0	 8.888889e-01	 5.185185e+00	 9.452302e+00
0	 8.888889e-01	 5.259259e+00	 9.471710e+00
0	 8.888889e-01	 5.333333e+00	 9.490423e+00
0	 8.888889e-01	 5.407407e+00	 9.508436e+00
0	 8.888889e-01	 5.481481e+00	 9.525740e+00
0	 8.888889e-01	 5.555556e+00	 9.542330e+00
0	 9.629630e-01	 5.185185e+00	 9.473062e+00
0	 9.629630e-01	 5.259259e+00	 9.491200e+00
0	 9.629630e-01	 5.333333e+00	 9.508752e+00
0	 9.629630e-01	 5.407407e+00	 9.525716e+00
0	 9.629630e-01	 5.481481e+00	 9.542092e+00
0	 9.629630e-01	 5.555556e+00	 9.557879e+00
0	 1.037037e+00	 5.185185e+00	 9.494822e+00
0	 1.037037e+00	 5.259259e+00	 9.511660e+00
0	 1.037037e+00	 5.333333e+00	 9.528025e+00
0	 1.037037e+00	 5.407407e+00	 9.543918e+00
0	 1.037037e+00	 5.481481e+00	 9.559338e+00
0	 1.037037e+00	 5.555556e+00	 9.574286e+00
0	 1.111111e+00	 5.185185e+00	 9.517383e+00
0	 1.111111e+00	 5.259259e+00	 9.532929e+00
0	 1.111111e+00	 5.333333e+00	 9.548111e+00
0	 1.111111e+00	 5.407407e+00	 9.562926e+00
0	 1.111111e+00	 5.481481e+00	 9.577372e+00
0	 1.111111e+00	 5.555556e+00	 9.591444e+00
0	 7.407407e-01	 5.555556e+00	 9.514224e+00
0	 7.407407e-01	 5.629630e+00	 9.531625e+00
0	 7.407407e-01	 5.703704e+00	 9.548625e+00
0	 7.407407e-01	 5.777778e+00	 9.565233e+00
0	 7.407407e-01	 5.851852e+00	 9.581455e+00
0	 7.407407e-01	 5.925926e+00	 9.597301e+00
0	 8.148148e-01	 5.555556e+00	 9.527743e+00
0	 8.148148e-01	 5.629630e+00	 9.544485e+00
0	 8.148148e-01	 5.703704e+00	 9.560850e+00
0	 8.148148e-01	 5.777778e+00	 9.576843e+00
0	 8.148148e-01	 5.851852e+00	 9.592467e+00
0	 8.148148e-01	 5.925926e+00	 9.607728e+00
0	 8.888889e-01	 5.555556e+00	 9.542330e+00
0	 8.888889e-01	 5.629630e+00	 9.558379e+00
0	 8.888889e-01	 5.703704e+00	 9.574067e+00
0	 8.888889e-01	 5.777778e+00	 9.589397e+00
0	 8.888889e-01	 5.851852e+00	 9.604373e+00
0	 8.888889e-01	 5.925926e+00	 9.618996e+00
0	 9.629630e-01	 5.555556e+00	 9.557879e+00
0	 9.629630e-01	 5.629630e+00	 9.573196e+00
0	 9.629630e-01	 5.703704e+00	 9.588165e+00
0	 9.629630e-01	 5.777778e+00	 9.602790e+00
0	 9.629630e-01	 5.851852e+00	 9.617073e+00
0	 9.629630e-01	 5.925926e+00	 9.631017e+00
0	 1.037037e+00	 5.555556e+00	 9.574286e+00
0	 1.037037e+00	 5.629630e+00	 9.588828e+00
0	 1.037037e+00	 5.703704e+00	 9.603036e+00
0	 1.037037e+00	 5.777778e+00	 9.616914e+00
0	 1.037037e+00	 5.851852e+00	 9.630467e+00
0	 1.037037e+00	 5.925926e+00	 9.643702e+00
0	 1.111111e+00	 5.555556e+00	 9.591444e+00
0	 1.111111e+00	 5.629630e+00	 9.605167e+00
0	 1.111111e+00	 5.703704e+00	 9.618570e+00
0	 1.111111e+00	 5.777778e+00	 9.631663e+00
0	 1.111111e+00	 5.851852e+00	 9.644457e+00
0	 1.111111e+00	 5.925926e+00	 9.656961e+00
0	 7.407407e-01	 5.925926e+00	 9.597301e+00
0	 7.407407e-01	 6.000000e+00	 9.612723e+00
0	 7.407407e-01	 6.074074e+00	 9.627664e+00
0	 7.407407e-01	 6.148148e+00	 9.642120e+00
0	 7.407407e-01	 6.222222e+00	 9.656086e+00
0	 7.407407e-01	 6.296296e+00	 9.669558e+00
0	 8.148148e-01	 5.925926e+00	 9.607728e+00
0	 8.148148e-01	 6.000000e+00	 9.622584e+00
0	 8.148148e-01	 6.074074e+00	 9.636991e+00
0	 8.148148e-01	 6.148148e+00	 9.650946e+00
0	 8.148148e-01	 6.222222e+00	 9.664447e+00
0	 8.148148e-01	 6.296296e+00	 9.677492e+00
0	 8.888889e-01	 5.925926e+00	 9.618996e+00
0	 8.888889e-01	 6.000000e+00	 9.633239e+00
0	 8.888889e-01	 6.074074e+00	 9.647068e+00
0	 8.888889e-01	 6.148148e+00	 9.660485e+00
0	 8.888889e-01	 6.222222e+00	 9.673487e+00
0	 8.888889e-01	 6.296296e+00	 9.686076e+00
0	 9.629630e-01	 5.925926e+00	 9.631017e+00
0	 9.629630e-01	 6.000000e+00	 9.644608e+00
0	 9.629630e-01	 6.074074e+00	 9.657826e+00
0	 9.629630e-01	 6.148148e+00	 9.670673e+00
0	 9.629630e-01	 6.222222e+00	 9.683149e+00
0	 9.629630e-01	 6.296296e+00	 9.695255e+00
0	 1.037037e+00	 5.925926e+00	 9.643702e+00
0	 1.037037e+00	 6.000000e+00	 9.656614e+00
0	 1.037037e+00	 6.074074e+00	 9.669197e+00
0	 1.037037e+00	 6.148148e+00	 9.681450e+00
0	 1.037037e+00	 6.222222e+00	 9.693375e+00
0	 1.037037e+00	 6.296296e+00	 9.704971e+00
0	 1.111111e+00	 5.925926e+00	 9.656961e+00
0	 1.111111e+00	 6.000000e+00	 9.669179e+00
0	 1.111111e+00	 6.074074e+00	 9.681109e+00
0	 1.111111e+00	 6.148148e+00	 9.692752e+00
0	 1.111111e+00	 6.222222e+00	 9.704105e+00
0	 1.111111e+00	 6.296296e+00	 9.715170e+00
0	 7.407407e-01	 6.296296e+00	 9.669558e+00
0	 7.407407e-01	 6.370370e+00	 9.682620e+00
0	 7.407407e-01	 6.444444e+00	 9.695357e+00
0	 7.407407e-01	 6.518519e+00	 9.707770e+00
0	 7.407407e-01	 6.592593e+00	 9.719858e+00
0	 7.407407e-01	 6.666667e+00	 9.731621e+00
0	 8.148148e-01	 6.296296e+00	 9.677492e+00
0	 8.148148e-01	 6.370370e+00	 9.690155e+00
0	 8.148148e-01	 6.444444e+00	 9.702508e+00
0	 8.148148e-01	 6.518519e+00	 9.714551e+00
0	 8.148148e-01	 6.592593e+00	 9.726286e+00
0	 8.148148e-01	 6.666667e+00	 9.737710e+00
0	 8.888889e-01	 6.296296e+00	 9.686076e+00
0	 8.888889e-01	 6.370370e+00	 9.698311e+00
0	 8.888889e-01	 6.444444e+00	 9.710251e+00
0	 8.888889e-01	 6.518519e+00	 9.721896e+00
0	 8.888889e-01	 6.592593e+00	 9.733248e+00
0	 8.888889e-01	 6.666667e+00	 9.744306e+00
0	 9.629630e-01	 6.296296e+00	 9.695255e+00
0	 9.629630e-01	 6.370370e+00	 9.707034e+00
0	 9.629630e-01	 6.444444e+00	 9.718534e+00
0	 9.629630e-01	 6.518519e+00	 9.729755e+00
0	 9.629630e-01	 6.592593e+00	 9.740698e+00
0	 9.629630e-01	 6.666667e+00	 9.751365e+00
0	 1.037037e+00	 6.296296e+00	 9.704971e+00
0	 1.037037e+00	 6.370370e+00	 9.716271e+00
0	 1.037037e+00	 6.444444e+00	 9.727305e+00
0	 1.037037e+00	 6.518519e+00	 9.738077e+00
0	 1.037037e+00	 6.592593e+00	 9.748590e+00
0	 1.037037e+00	 6.666667e+00	 9.758844e+00
0	 1.111111e+00	 6.296296e+00	 9.715170e+00
0	 1.111111e+00	 6.370370e+00	 9.725965e+00
0	 1.111111e+00	 6.444444e+00	 9.736511e+00
0	 1.111111e+00	 6.518519e+00	 9.746813e+00
0	 1.111111e+00	 6.592593e+00	 9.756875e+00
0	 1.111111e+00	 6.666667e+00	 9.766700e+00
0	 7.407407e-01	 6.666667e+00	 9.731621e+00
0	 7.407407e-01	 6.740741e+00	 9.743066e+00
0	 7.407407e-01	 6.814815e+00	 9.754200e+00
0	 7.407407e-01	 6.888889e+00	 9.765025e+00
0	 7.407407e-01	 6.962963e+00	 9.775539e+00
0	 7.407407e-01	 7.037037e+00	 9.785744e+00
0	 8.148148e-01	 6.666667e+00	 9.737710e+00
0	 8.148148e-01	 6.740741e+00	 9.748832e+00
0	 8.148148e-01	 6.814815e+00	 9.759657e+00
0	 8.148148e-01	 6.888889e+00	 9.770188e+00
0	 8.148148e-01	 6.962963e+00	 9.780423e+00
0	 8.148148e-01	 7.037037e+00	 9.790365e+00
0	 8.888889e-01	 6.666667e+00	 9.744306e+00
0	 8.888889e-01	 6.740741e+00	 9.755077e+00
0	 8.888889e-01	 6.814815e+00	 9.765569e+00
0	 8.888889e-01	 6.888889e+00	 9.775781e+00
0	 8.888889e-01	 6.962963e+00	 9.785716e+00
0	 8.888889e-01	 7.037037e+00	 9.795375e+00
0	 9.629630e-01	 6.666667e+00	 9.751365e+00
0	 9.629630e-01	 6.740741e+00	 9.761763e+00
0	 9.629630e-01	 6.814815e+00	 9.771898e+00
0	 9.629630e-01	 6.888889e+00	 9.781772e+00
0	 9.629630e-01	 6.962963e+00	 9.791387e+00
0	 9.629630e-01	 7.037037e+00	 9.800743e+00
0	 1.037037e+00	 6.666667e+00	 9.758844e+00
0	 1.037037e+00	 6.740741e+00	 9.768849e+00
0	 1.037037e+00	 6.814815e+00	 9.778609e+00
0	 1.037037e+00	 6.888889e+00	 9.788126e+00
0	 1.037037e+00	 6.962963e+00	 9.797403e+00
0	 1.037037e+00	 7.037037e+00	 9.806439e+00
0	 1.111111e+00	 6.666667e+00	 9.766700e+00
0	 1.111111e+00	 6.740741e+00	 9.776295e+00
0	 1.111111e+00	 6.814815e+00	 9.785664e+00
0	 1.111111e+00	 6.888889e+00	 9.794810e+00
0	 1.111111e+00	 6.962963e+00	 9.803732e+00
0	 1.111111e+00	 7.037037e+00	 9.812434e+00
0	 7.407407e-01	 7.037037e+00	 9.785744e+00
0	 7.407407e-01	 7.111111e+00	 9.795667e+00
0	 7.407407e-01	 7.185185e+00	 9.805336e+00
0	 7.407407e-01	 7.259259e+00	 9.814752e+00
0	 7.407407e-01	 7.333333e+00	 9.823917e+00
0	 7.407407e-01	 7.407407e+00	 9.832831e+00
0	 8.148148e-01	 7.037037e+00	 9.790365e+00
0	 8.148148e-01	 7.111111e+00	 9.800038e+00
0	 8.148148e-01	 7.185185e+00	 9.809467e+00
0	 8.148148e-01	 7.259259e+00	 9.818652e+00
0	 8.148148e-01	 7.333333e+00	 9.827596e+00
0	 8.148148e-01	 7.407407e+00	 9.836299e+00
0	 8.888889e-01	 7.037037e+00	 9.795375e+00
0	 8.888889e-01	 7.111111e+00	 9.804778e+00
0	 8.888889e-01	 7.185185e+00	 9.813946e+00
0	 8.888889e-01	 7.259259e+00	 9.822882e+00
0	 8.888889e-01	 7.333333e+00	 9.831586e+00
0	 8.888889e-01	 7.407407e+00	 9.840061e+00
0	 9.629630e-01	 7.037037e+00	 9.800743e+00
0	 9.629630e-01	 7.111111e+00	 9.809858e+00
0	 9.629630e-01	 7.185185e+00	 9.818748e+00
0	 9.629630e-01	 7.259259e+00	 9.827416e+00
0	 9.629630e-01	 7.333333e+00	 9.835865e+00
0	 9.629630e-01	 7.407407e+00	 9.844095e+00
0	 1.037037e+00	 7.037037e+00	 9.806439e+00
0	 1.037037e+00	 7.111111e+00	 9.815249e+00
0	 1.037037e+00	 7.185185e+00	 9.823845e+00
0	 1.037037e+00	 7.259259e+00	 9.832230e+00
0	 1.037037e+00	 7.333333e+00	 9.840408e+00
0	 1.037037e+00	 7.407407e+00	 9.848380e+00
0	 1.111111e+00	 7.037037e+00	 9.812434e+00
0	 1.111111e+00	 7.111111e+00	 9.820923e+00
0	 1.111111e+00	 7.185185e+00	 9.829210e+00
0	 1.111111e+00	 7.259259e+00	 9.837299e+00
0	 1.111111e+00	 7.333333e+00	 9.845192e+00
0	 1.111111e+00	 7.407407e+00	 9.852892e+00
0	 7.407407e-01	 7.407407e+00	 9.832831e+00
0	 7.407407e-01	 7.481481e+00	 9.841501e+00
0	 7.407407e-01	 7.555556e+00	 9.849936e+00
0	 7.407407e-01	 7.629630e+00	 9.858137e+00
0	 7.407407e-01	 7.703704e+00	 9.866107e+00
0	 7.407407e-01	 7.777778e+00	 9.873850e+00
0	 8.148148e-01	 7.407407e+00	 9.836299e+00
0	 8.148148e-01	 7.481481e+00	 9.844768e+00
0	 8.148148e-01	 7.555556e+00	 9.853008e+00
0	 8.148148e-01	 7.629630e+00	 9.861023e+00
0	 8.148148e-01	 7.703704e+00	 9.868815e+00
0	 8.148148e-01	 7.777778e+00	 9.876388e+00
0	 8.888889e-01	 7.407407e+00	 9.840061e+00
0	 8.888889e-01	 7.481481e+00	 9.848311e+00
0	 8.888889e-01	 7.555556e+00	 9.856342e+00
0	 8.888889e-01	 7.629630e+00	 9.864155e+00
0	 8.888889e-01	 7.703704e+00	 9.871755e+00
0	 8.888889e-01	 7.777778e+00	 9.879144e+00
0	 9.629630e-01	 7.407407e+00	 9.844095e+00
0	 9.629630e-01	 7.481481e+00	 9.852112e+00
0	 9.629630e-01	 7.555556e+00	 9.859917e+00
0	 9.629630e-01	 7.629630e+00	 9.867515e+00
0	 9.629630e-01	 7.703704e+00	 9.874908e+00
0	 9.629630e-01	 7.777778e+00	 9.882101e+00
0	 1.037037e+00	 7.407407e+00	 9.848380e+00
0	 1.037037e+00	 7.481481e+00	 9.856148e+00
0	 1.037037e+00	 7.555556e+00	 9.863715e+00
0	 1.037037e+00	 7.629630e+00	 9.871085e+00
0	 1.037037e+00	 7.703704e+00	 9.878259e+00
0	 1.037037e+00	 7.777778e+00	 9.885243e+00
0	 1.111111e+00	 7.407407e+00	 9.852892e+00
0	 1.111111e+00	 7.481481e+00	 9.860400e+00
0	 1.111111e+00	 7.555556e+00	 9.867717e+00
0	 1.111111e+00	 7.629630e+00	 9.874846e+00
0	 1.111111e+00	 7.703704e+00	 9.881791e+00
0	 1.111111e+00	 7.777778e+00	 9.888555e+00
0	 7.407407e-01	 7.777778e+00	 9.873850e+00
0	 7.407407e-01	 7.851852e+00	 9.881369e+00
0	 7.407407e-01	 7.925926e+00	 9.888668e+00
0	 7.407407e-01	 8.000000e+00	 9.895753e+00
0	 7.407407e-01	 8.074074e+00	 9.902625e+00
0	 7.407407e-01	 8.148148e+00	 9.909291e+00
0	 8.148148e-01	 7.777778e+00	 9.876388e+00
0	 8.148148e-01	 7.851852e+00	 9.883745e+00
0	 8.148148e-01	 7.925926e+00	 9.890887e+00
0	 8.148148e-01	 8.000000e+00	 9.897821e+00
0	 8.148148e-01	 8.074074e+00	 9.904550e+00
0	 8.148148e-01	 8.148148e+00	 9.911077e+00
0	 8.888889e-01	 7.777778e+00	 9.879144e+00
0	 8.888889e-01	 7.851852e+00	 9.886324e+00
0	 8.888889e-01	 7.925926e+00	 9.893297e+00
0	 8.888889e-01	 8.000000e+00	 9.900067e+00
0	 8.888889e-01	 8.074074e+00	 9.906640e+00
0	 8.888889e-01	 8.148148e+00	 9.913018e+00
0	 9.629630e-01	 7.777778e+00	 9.882101e+00
0	 9.629630e-01	 7.851852e+00	 9.889092e+00
0	 9.629630e-01	 7.925926e+00	 9.895883e+00
0	 9.629630e-01	 8.000000e+00	 9.902479e+00
0	 9.629630e-01	 8.074074e+00	 9.908883e+00
0	 9.629630e-01	 8.148148e+00	 9.915101e+00
0	 1.037037e+00	 7.777778e+00	 9.885243e+00
0	 1.037037e+00	 7.851852e+00	 9.892034e+00
0	 1.037037e+00	 7.925926e+00	 9.898632e+00
0	 1.037037e+00	 8.000000e+00	 9.905042e+00
0	 1.037037e+00	 8.074074e+00	 9.911269e+00
0	 1.037037e+00	 8.148148e+00	 9.917316e+00
0	 1.111111e+00	 7.777778e+00	 9.888555e+00
0	 1.111111e+00	 7.851852e+00	 9.895135e+00
0	 1.111111e+00	 7.925926e+00	 9.901530e+00
0	 1.111111e+00	 8.000000e+00	 9.907744e+00
0	 1.111111e+00	 8.074074e+00	 9.913783e+00
0	 1.111111e+00	 8.148148e+00	 9.919651e+00
0	 7.407407e-01	 8.148148e+00	 9.909291e+00
0	 7.407407e-01	 8.222222e+00	 9.915742e+00
0	 7.407407e-01	 8.296296e+00	 9.921974e+00
0	 7.407407e-01	 8.370370e+00	 9.927993e+00
0	 7.407407e-01	 8.444444e+00	 9.933804e+00
0	 7.407407e-01	 8.518519e+00	 9.939415e+00
0	 8.148148e-01	 8.148148e+00	 9.911077e+00
0	 8.148148e-01	 8.222222e+00	 9.917396e+00
0	 8.148148e-01	 8.296296e+00	 9.923502e+00
0	 8.148148e-01	 8.370370e+00	 9.929399e+00
0	 8.148148e-01	 8.444444e+00	 9.935093e+00
0	 8.148148e-01	 8.518519e+00	 9.940592e+00
0	 8.888889e-01	 8.148148e+00	 9.913018e+00
0	 8.888889e-01	 8.222222e+00	 9.919194e+00
0	 8.888889e-01	 8.296296e+00	 9.925161e+00
0	 8.888889e-01	 8.370370e+00	 9.930926e+00
0	 8.888889e-01	 8.444444e+00	 9.936495e+00
0	 8.888889e-01	 8.518519e+00	 9.941873e+00
0	 9.629630e-01	 8.148148e+00	 9.915101e+00
0	 9.629630e-01	 8.222222e+00	 9.921124e+00
0	 9.629630e-01	 8.296296e+00	 9.926944e+00
0	 9.629630e-01	 8.370370e+00	 9.932567e+00
0	 9.629630e-01	 8.444444e+00	 9.938000e+00
0	 9.629630e-01	 8.518519e+00	 9.943248e+00
0	 1.037037e+00	 8.148148e+00	 9.917316e+00
0	 1.037037e+00	 8.222222e+00	 9.923175e+00
0	 1.037037e+00	 8.296296e+00	 9.928839e+00
0	 1.037037e+00	 8.370370e+00	 9.934312e+00
0	 1.037037e+00	 8.444444e+00	 9.939600e+00
0	 1.037037e+00	 8.518519e+00	 9.944711e+00
0	 1.111111e+00	 8.148148e+00	 9.919651e+00
0	 1.111111e+00	 8.222222e+00	 9.925338e+00
0	 1.111111e+00	 8.296296e+00	 9.930836e+00
0	 1.111111e+00	 8.370370e+00	 9.936150e+00
0	 1.111111e+00	 8.444444e+00	 9.941287e+00
0	 1.111111e+00	 8.518519e+00	 9.946252e+00
0	 7.407407e-01	 8.518519e+00	 9.939415e+00
0	 7.407407e-01	 8.592593e+00	 9.944808e+00
0	 7.407407e-01	 8.666667e+00	 9.949970e+00
0	 7.407407e-01	 8.740741e+00	 9.954909e+00
0	 7.407407e-01	 8.814815e+00	 9.959634e+00
0	 7.407407e-01	 8.888889e+00	 9.964152e+00
0	 8.148148e-01	 8.518519e+00	 9.940592e+00
0	 8.148148e-01	 8.592593e+00	 9.945879e+00
0	 8.148148e-01	 8.666667e+00	 9.950940e+00
0	 8.148148e-01	 8.740741e+00	 9.955782e+00
0	 8.148148e-01	 8.814815e+00	 9.960414e+00
0	 8.148148e-01	 8.888889e+00	 9.964845e+00
0	 8.888889e-01	 8.518519e+00	 9.941873e+00
0	 8.888889e-01	 8.592593e+00	 9.947044e+00
0	 8.888889e-01	 8.666667e+00	 9.951995e+00
0	 8.888889e-01	 8.740741e+00	 9.956732e+00
0	 8.888889e-01	 8.814815e+00	 9.961264e+00
0	 8.888889e-01	 8.888889e+00	 9.965600e+00
0	 9.629630e-01	 8.518519e+00	 9.943248e+00
0	 9.629630e-01	 8.592593e+00	 9.948296e+00
0	 9.629630e-01	 8.666667e+00	 9.953128e+00
0	 9.629630e-01	 8.740741e+00	 9.957753e+00
0	 9.629630e-01	 8.814815e+00	 9.962178e+00
0	 9.629630e-01	 8.888889e+00	 9.966412e+00
0	 1.037037e+00	 8.518519e+00	 9.944711e+00
0	 1.037037e+00	 8.592593e+00	 9.949627e+00
0	 1.037037e+00	 8.666667e+00	 9.954333e+00
0	 1.037037e+00	 8.740741e+00	 9.958838e+00
0	 1.037037e+00	 8.814815e+00	 9.963149e+00
0	 1.037037e+00	 8.888889e+00	 9.967274e+00
0	 1.111111e+00	 8.518519e+00	 9.946252e+00
0	 1.111111e+00	 8.592593e+00	 9.951029e+00
0	 1.111111e+00	 8.666667e+00	 9.955602e+00
0	 1.111111e+00	 8.740741e+00	 9.959980e+00
0	 1.111111e+00	 8.814815e+00	 9.964170e+00
0	 1.111111e+00	 8.888889e+00	 9.968181e+00
0	 7.407407e-01	 8.888889e+00	 9.964152e+00
0	 7.407407e-01	 8.962963e+00	 9.968437e+00
0	 7.407407e-01	 9.037037e+00	 9.972465e+00
0	 7.407407e-01	 9.111111e+00	 9.976245e+00
0	 7.407407e-01	 9.185185e+00	 9.979791e+00
0	 7.407407e-01	 9.259259e+00	 9.983112e+00
0	 8.148148e-01	 8.888889e+00	 9.964845e+00
0	 8.148148e-01	 8.962963e+00	 9.969047e+00
0	 8.148148e-01	 9.037037e+00	 9.972997e+00
0	 8.148148e-01	 9.111111e+00	 9.976704e+00
0	 8.148148e-01	 9.185185e+00	 9.980181e+00
0	 8.148148e-01	 9.259259e+00	 9.983438e+00
0	 8.888889e-01	 8.888889e+00	 9.965600e+00
0	 8.888889e-01	 8.962963e+00	 9.969713e+00
0	 8.888889e-01	 9.037037e+00	 9.973578e+00
0	 8.888889e-01	 9.111111e+00	 9.977206e+00
0	 8.888889e-01	 9.185185e+00	 9.980609e+00
0	 8.888889e-01	 9.259259e+00	 9.983797e+00
0	 9.629630e-01	 8.888889e+00	 9.966412e+00
0	 9.629630e-01	 8.962963e+00	 9.970428e+00
0	 9.629630e-01	 9.037037e+00	 9.974202e+00
0	 9.629630e-01	 9.111111e+00	 9.977746e+00
0	 9.629630e-01	 9.185185e+00	 9.981069e+00
0	 9.629630e-01	 9.259259e+00	 9.984182e+00
0	 1.037037e+00	 8.888889e+00	 9.967274e+00
0	 1.037037e+00	 8.962963e+00	 9.971187e+00
0	 1.037037e+00	 9.037037e+00	 9.974865e+00
0	 1.037037e+00	 9.111111e+00	 9.978318e+00
0	 1.037037e+00	 9.185185e+00	 9.981557e+00
0	 1.037037e+00	 9.259259e+00	 9.984590e+00
0	 1.111111e+00	 8.888889e+00	 9.968181e+00
0	 1.111111e+00	 8.962963e+00	 9.971986e+00
0	 1.111111e+00	 9.037037e+00	 9.975562e+00
0	 1.111111e+00	 9.111111e+00	 9.978919e+00
0	 1.111111e+00	 9.185185e+00	 9.982067e+00
0	 1.111111e+00	 9.259259e+00	 9.985017e+00
0	 7.407407e-01	 9.259259e+00	 9.983112e+00
0	 7.407407e-01	 9.333333e+00	 9.986168e+00
0	 7.407407e-01	 9.407407e+00	 9.988918e+00
0	 7.407407e-01	 9.481481e+00	 9.991377e+00
0	 7.407407e-01	 9.555556e+00	 9.993562e+00
0	 7.407407e-01	 9.629630e+00	 9.995486e+00
0	 8.148148e-01	 9.259259e+00	 9.983438e+00
0	 8.148148e-01	 9.333333e+00	 9.986435e+00
0	 8.148148e-01	 9.407407e+00	 9.989132e+00
0	 8.148148e-01	 9.481481e+00	 9.991544e+00
0	 8.148148e-01	 9.555556e+00	 9.993686e+00
0	 8.148148e-01	 9.629630e+00	 9.995573e+00
0	 8.888889e-01	 9.259259e+00	 9.983797e+00
0	 8.888889e-01	 9.333333e+00	 9.986729e+00
0	 8.888889e-01	 9.407407e+00	 9.989368e+00
0	 8.888889e-01	 9.481481e+00	 9.991729e+00
0	 8.888889e-01	 9.555556e+00	 9.993825e+00
0	 8.888889e-01	 9.629630e+00	 9.995671e+00
0	 9.629630e-01	 9.259259e+00	 9.984182e+00
0	 9.629630e-01	 9.333333e+00	 9.987046e+00
0	 9.629630e-01	 9.407407e+00	 9.989623e+00
0	 9.629630e-01	 9.481481e+00	 9.991929e+00
0	 9.629630e-01	 9.555556e+00	 9.993975e+00
0	 9.629630e-01	 9.629630e+00	 9.995778e+00
0	 1.037037e+00	 9.259259e+00	 9.984590e+00
0	 1.037037e+00	 9.333333e+00	 9.987381e+00
0	 1.037037e+00	 9.407407e+00	 9.989893e+00
0	 1.037037e+00	 9.481481e+00	 9.992139e+00
0	 1.037037e+00	 9.555556e+00	 9.994133e+00
0	 1.037037e+00	 9.629630e+00	 9.995889e+00
0	 1.111111e+00	 9.259259e+00	 9.985017e+00
0	 1.111111e+00	 9.333333e+00	 9.987731e+00
0	 1.111111e+00	 9.407407e+00	 9.990172e+00
0	 1.111111e+00	 9.481481e+00	 9.992356e+00
0	 1.111111e+00	 9.555556e+00	 9.994294e+00
0	 1.111111e+00	 9.629630e+00	 9.996001e+00
0	 7.407407e-01	 9.629630e+00	 9.995486e+00
0	 7.407407e-01	 9.703704e+00	 9.997095e+00
0	 7.407407e-01	 9.777778e+00	 9.998336e+00
0	 7.407407e-01	 9.851852e+00	 9.999228e+00
0	 7.407407e-01	 9.925926e+00	 9.999791e+00
0	 7.407407e-01	 1.000000e+01	 1.000005e+01
0	 8.148148e-01	 9.629630e+00	 9.995573e+00
0	 8.148148e-01	 9.703704e+00	 9.997150e+00
0	 8.148148e-01	 9.777778e+00	 9.998366e+00
0	 8.148148e-01	 9.851852e+00	 9.999240e+00
0	 8.148148e-01	 9.925926e+00	 9.999792e+00
0	 8.148148e-01	 1.000000e+01	 1.000004e+01
0	 8.888889e-01	 9.629630e+00	 9.995671e+00
0	 8.888889e-01	 9.703704e+00	 9.997214e+00
0	 8.888889e-01	 9.777778e+00	 9.998404e+00
0	 8.888889e-01	 9.851852e+00	 9.999260e+00
0	 8.888889e-01	 9.925926e+00	 9.999800e+00
0	 8.888889e-01	 1.000000e+01	 1.000004e+01
0	 9.629630e-01	 9.629630e+00	 9.995778e+00
0	 9.629630e-01	 9.703704e+00	 9.997285e+00
0	 9.629630e-01	 9.777778e+00	 9.998447e+00
0	 9.629630e-01	 9.851852e+00	 9.999282e+00
0	 9.629630e-01	 9.925926e+00	 9.999809e+00
0	 9.629630e-01	 1.000000e+01	 1.000005e+01
0	 1.037037e+00	 9.629630e+00	 9.995889e+00
0	 1.037037e+00	 9.703704e+00	 9.997357e+00
0	 1.037037e+00	 9.777778e+00	 9.998489e+00
0	 1.037037e+00	 9.851852e+00	 9.999303e+00
0	 1.037037e+00	 9.925926e+00	 9.999816e+00
0	 1.037037e+00	 1.000000e+01	 1.000005e+01
0	 1.111111e+00	 9.629630e+00	 9.996001e+00
0	 1.111111e+00	 9.703704e+00	 9.997427e+00
0	 1.111111e+00	 9.777778e+00	 9.998527e+00
0	 1.111111e+00	 9.851852e+00	 9.999318e+00
0	 1.111111e+00	 9.925926e+00	 9.999816e+00
0	 1.111111e+00	 1.000000e+01	 1.000004e+01
0	 1.111111e+00	 0.000000e+00	-1.810154e+00
0	 1.111111e+00	 7.407407e-02	-1.263350e+00
0	 1.111111e+00	 1.481481e-01	-1.572509e+00
0	 1.111111e+00	 2.222222e-01	-2.461545e+00
0	 1.111111e+00	 2.962963e-01	-3.654372e+00
0	 1.111111e+00	 3.703704e-01	-4.874905e+00
0	 1.185185e+00	 0.000000e+00	-2.158923e+00
0	 1.185185e+00	 7.407407e-02	-1.386271e+00
0	 1.185185e+00	 1.481481e-01	-1.720351e+00
0	 1.185185e+00	 2.222222e-01	-2.776734e+00
0	 1.185185e+00	 2.962963e-01	-4.170992e+00
0	 1.185185e+00	 3.703704e-01	-5.518693e+00
0	 1.259259e+00	 0.000000e+00	-2.233677e+00
0	 1.259259e+00	 7.407407e-02	-1.164059e+00
0	 1.259259e+00	 1.481481e-01	-1.280564e+00
0	 1.259259e+00	 2.222222e-01	-2.171815e+00
0	 1.259259e+00	 2.962963e-01	-3.426432e+00
0	 1.259259e+00	 3.703704e-01	-4.633037e+00
0	 1.333333e+00	 0.000000e+00	-2.164919e+00
0	 1.333333e+00	 7.407407e-02	-7.915583e-01
0	 1.333333e+00	 1.481481e-01	-5.004734e-01
0	 1.333333e+00	 2.222222e-01	-9.347330e-01
0	 1.333333e+00	 2.962963e-01	-1.737406e+00
0	 1.333333e+00	 3.703704e-01	-2.551561e+00
0	 1.407407e+00	 0.000000e+00	-2.083156e+00
0	 1.407407e+00	 7.407407e-02	-4.636119e-01
0	 1.407407e+00	 1.481481e-01	 3.725978e-01
0	 1.407407e+00	 2.222222e-01	 6.465620e-01
0	 1.407407e+00	 2.962963e-01	 5.793702e-01
0	 1.407407e+00	 3.703704e-01	 3.921116e-01
0	 1.481481e+00	 0.000000e+00	-2.118894e+00
0	 1.481481e+00	 7.407407e-02	-3.750631e-01
0	 1.481481e+00	 1.481481e-01	 1.091325e+00
0	 1.481481e+00	 2.222222e-01	 2.284123e+00
0	 1.481481e+00	 2.962963e-01	 3.207182e+00
0	 1.481481e+00	 3.703704e-01	 3.864356e+00
0	 1.111111e+00	 3.703704e-01	-4.874905e+00
0	 1.111111e+00	 4.444444e-01	-4.915745e+00
0	 1.111111e+00	 5.185185e-01	-2.808757e+00
0	 1.111111e+00	 5.925926e-01	 1.363248e+00
0	 1.111111e+00	 6.666667e-01	 7.517461e+00
0	 1.111111e+00	 7.407407e-01	 1.557107e+01
0	 1.185185e+00	 3.703704e-01	-5.518693e+00
0	 1.185185e+00	 4.444444e-01	-5.584895e+00
0	 1.185185e+00	 5.185185e-01	-3.470062e+00
0	 1.185185e+00	 5.925926e-01	 7.071169e-01
0	 1.185185e+00	 6.666667e-01	 6.827956e+00
0	 1.185185e+00	 7.407407e-01	 1.477377e+01
0	 1.259259e+00	 3.703704e-01	-4.633037e+00
0	 1.259259e+00	 4.444444e-01	-4.655898e+00
0	 1.259259e+00	 5.185185e-01	-2.718878e+00
0	 1.259259e+00	 5.925926e-01	 1.050006e+00
0	 1.259259e+00	 6.666667e-01	 6.522735e+00
0	 1.259259e+00	 7.407407e-01	 1.357129e+01
0	 1.333333e+00	 3.703704e-01	-2.551561e+00
0	 1.333333e+00	 4.444444e-01	-2.441155e+00
0	 1.333333e+00	 5.185185e-01	-7.819677e-01
0	 1.333333e+00	 5.925926e-01	 2.315199e+00
0	 1.333333e+00	 6.666667e-01	 6.739542e+00
0	 1.333333e+00	 7.407407e-01	 1.238026e+01
0	 1.407407e+00	 3.703704e-01	 3.921116e-01
0	 1.407407e+00	 4.444444e-01	 7.469355e-01
0	 1.407407e+00	 5.185185e-01	 2.113905e+00
0	 1.407407e+00	 5.925926e-01	 4.425980e+00
0	 1.407407e+00	 6.666667e-01	 7.616121e+00
0	 1.407407e+00	 7.407407e-01	 1.161729e+01
0	 1.481481e+00	 3.703704e-01	 3.864356e+00
0	 1.481481e+00	 4.444444e-01	 4.595973e+00
0	 1.481481e+00	 5.185185e-01	 5.741977e+00
0	 1.481481e+00	 5.925926e-01	 7.305635e+00
0	 1.481481e+00	 6.666667e-01	 9.290215e+00
0	 1.481481e+00	 7.407407e-01	 1.169899e+01
0	 1.111111e+00	 7.407407e-01	 1.557107e+01
0	 1.111111e+00	 8.148148e-01	 2.337664e+01
0	 1.111111e+00	 8.888889e-01	 2.883486e+01
0	 1.111111e+00	 9.629630e-01	 3.193508e+01
0	 1.111111e+00	 1.037037e+00	 3.266666e+01
0	 1.111111e+00	 1.111111e+00	 3.101898e+01
0	 1.185185e+00	 7.407407e-01	 1.477377e+01
0	 1.185185e+00	 8.148148e-01	 2.237703e+01
0	 1.185185e+00	 8.888889e-01	 2.752247e+01
0	 1.185185e+00	 9.629630e-01	 3.016975e+01
0	 1.185185e+00	 1.037037e+00	 3.027856e+01
0	 1.185185e+00	 1.111111e+00	 2.780856e+01
0	 1.259259e+00	 7.407407e-01	 1.357129e+01
0	 1.259259e+00	 8.148148e-01	 2.027656e+01
0	 1.259259e+00	 8.888889e-01	 2.476517e+01
0	 1.259259e+00	 9.629630e-01	 2.697775e+01
0	 1.259259e+00	 1.037037e+00	 2.685491e+01
0	 1.259259e+00	 1.111111e+00	 2.433728e+01
0	 1.333333e+00	 7.407407e-01	 1.238026e+01
0	 1.333333e+00	 8.148148e-01	 1.773691e+01
0	 1.333333e+00	 8.888889e-01	 2.133770e+01
0	 1.333333e+00	 9.629630e-01	 2.311483e+01
0	 1.333333e+00	 1.037037e+00	 2.300050e+01
0	 1.333333e+00	 1.111111e+00	 2.092690e+01
0	 1.407407e+00	 7.407407e-01	 1.161729e+01
0	 1.407407e+00	 8.148148e-01	 1.541976e+01
0	 1.407407e+00	 8.888889e-01	 1.801479e+01
0	 1.407407e+00	 9.629630e-01	 1.933677e+01
0	 1.407407e+00	 1.037037e+00	 1.932011e+01
0	 1.407407e+00	 1.111111e+00	 1.789921e+01
0	 1.481481e+00	 7.407407e-01	 1.169899e+01
0	 1.481481e+00	 8.148148e-01	 1.398680e+01
0	 1.481481e+00	 8.888889e-01	 1.557116e+01
0	 1.481481e+00	 9.629630e-01	 1.639931e+01
0	 1.481481e+00	 1.037037e+00	 1.641850e+01
0	 1.481481e+00	 1.111111e+00	 1.557596e+01
0	 1.111111e+00	 1.111111e+00	 3.101898e+01
0	 1.111111e+00	 1.185185e+00	 2.817321e+01
0	 1.111111e+00	 1.259259e+00	 2.531221e+01
0	 1.111111e+00	 1.333333e+00	 2.242780e+01
0	 1.111111e+00	 1.407407e+00	 1.951182e+01
0	 1.111111e+00	 1.481481e+00	 1.655609e+01
0	 1.185185e+00	 1.111111e+00	 2.780856e+01
0	 1.185185e+00	 1.185185e+00	 2.422126e+01
0	 1.185185e+00	 1.259259e+00	 2.101761e+01
0	 1.185185e+00	 1.333333e+00	 1.821644e+01
0	 1.185185e+00	 1.407407e+00	 1.583660e+01
0	 1.185185e+00	 1.481481e+00	 1.389690e+01
0	 1.259259e+00	 1.111111e+00	 2.433728e+01
0	 1.259259e+00	 1.185185e+00	 2.084611e+01
0	 1.259259e+00	 1.259259e+00	 1.786677e+01
0	 1.259259e+00	 1.333333e+00	 1.543601e+01
0	 1.259259e+00	 1.407407e+00	 1.359057e+01
0	 1.259259e+00	 1.481481e+00	 1.236721e+01
0	 1.333333e+00	 1.111111e+00	 2.092690e+01
0	 1.333333e+00	 1.185185e+00	 1.806582e+01
0	 1.333333e+00	 1.259259e+00	 1.566463e+01
0	 1.333333e+00	 1.333333e+00	 1.376890e+01
0	 1.333333e+00	 1.407407e+00	 1.242422e+01
0	 1.333333e+00	 1.481481e+00	 1.167614e+01
0	 1.407407e+00	 1.111111e+00	 1.789921e+01
0	 1.407407e+00	 1.185185e+00	 1.589844e+01
0	 1.407407e+00	 1.259259e+00	 1.421611e+01
0	 1.407407e+00	 1.333333e+00	 1.289752e+01
0	 1.407407e+00	 1.407407e+00	 1.198798e+01
0	 1.407407e+00	 1.481481e+00	 1.153280e+01
0	 1.481481e+00	 1.111111e+00	 1.557596e+01
0	 1.481481e+00	 1.185185e+00	 1.436202e+01
0	 1.481481e+00	 1.259259e+00	 1.332613e+01
0	 1.481481e+00	 1.333333e+00	 1.250426e+01
0	 1.481481e+00	 1.407407e+00	 1.193235e+01
0	 1.481481e+00	 1.481481e+00	 1.164634e+01
0	 1.111111e+00	 1.481481e+00	 1.655609e+01
0	 1.111111e+00	 1.555556e+00	 1.387532e+01
0	 1.111111e+00	 1.629630e+00	 1.179496e+01
0	 1.111111e+00	 1.703704e+00	 1.032292e+01
0	 1.111111e+00	 1.777778e+00	 9.467163e+00
0	 1.111111e+00	 1.851852e+00	 9.235615e+00
0	 1.185185e+00	 1.481481e+00	 1.389690e+01
0	 1.185185e+00	 1.555556e+00	 1.235150e+01
0	 1.185185e+00	 1.629630e+00	 1.114568e+01
0	 1.185185e+00	 1.703704e+00	 1.028500e+01
0	 1.185185e+00	 1.777778e+00	 9.775008e+00
0	 1.185185e+00	 1.851852e+00	 9.621268e+00
0	 1.259259e+00	 1.481481e+00	 1.236721e+01
0	 1.259259e+00	 1.555556e+00	 1.154973e+01
0	 1.259259e+00	 1.629630e+00	 1.089983e+01
0	 1.259259e+00	 1.703704e+00	 1.042108e+01
0	 1.259259e+00	 1.777778e+00	 1.011704e+01
0	 1.259259e+00	 1.851852e+00	 9.991294e+00
0	 1.333333e+00	 1.481481e+00	 1.167614e+01
0	 1.333333e+00	 1.555556e+00	 1.127340e+01
0	 1.333333e+00	 1.629630e+00	 1.093569e+01
0	 1.333333e+00	 1.703704e+00	 1.066498e+01
0	 1.333333e+00	 1.777778e+00	 1.046324e+01
0	 1.333333e+00	 1.851852e+00	 1.033243e+01
0	 1.407407e+00	 1.481481e+00	 1.153280e+01
0	 1.407407e+00	 1.555556e+00	 1.132591e+01
0	 1.407407e+00	 1.629630e+00	 1.113156e+01
0	 1.407407e+00	 1.703704e+00	 1.095051e+01
0	 1.407407e+00	 1.777778e+00	 1.078354e+01
0	 1.407407e+00	 1.851852e+00	 1.063143e+01
0	 1.481481e+00	 1.481481e+00	 1.164634e+01
0	 1.481481e+00	 1.555556e+00	 1.151065e+01
0	 1.481481e+00	 1.629630e+00	 1.136572e+01
0	 1.481481e+00	 1.703704e+00	 1.121149e+01
0	 1.481481e+00	 1.777778e+00	 1.104793e+01
0	 1.481481e+00	 1.851852e+00	 1.087501e+01
0	 1.111111e+00	 1.851852e+00	 9.235615e+00
0	 1.111111e+00	 1.925926e+00	 9.297120e+00
0	 1.111111e+00	 2.000000e+00	 9.316922e+00
0	 1.111111e+00	 2.074074e+00	 9.297569e+00
0	 1.111111e+00	 2.148148e+00	 9.241607e+00
0	 1.111111e+00	 2.222222e+00	 9.151583e+00
0	 1.185185e+00	 1.851852e+00	 9.621268e+00
0	 1.185185e+00	 1.925926e+00	 9.632269e+00
0	 1.185185e+00	 2.000000e+00	 9.613826e+00
0	 1.185185e+00	 2.074074e+00	 9.567481e+00
0	 1.185185e+00	 2.148148e+00	 9.494773e+00
0	 1.185185e+00	 2.222222e+00	 9.397244e+00
0	 1.259259e+00	 1.851852e+00	 9.991294e+00
0	 1.259259e+00	 1.925926e+00	 9.947882e+00
0	 1.259259e+00	 2.000000e+00	 9.888902e+00
0	 1.259259e+00	 2.074074e+00	 9.814983e+00
0	 1.259259e+00	 2.148148e+00	 9.726755e+00
0	 1.259259e+00	 2.222222e+00	 9.624847e+00
0	 1.333333e+00	 1.851852e+00	 1.033243e+01
0	 1.333333e+00	 1.925926e+00	 1.023692e+01
0	 1.333333e+00	 2.000000e+00	 1.013960e+01
0	 1.333333e+00	 2.074074e+00	 1.004027e+01
0	 1.333333e+00	 2.148148e+00	 9.938764e+00
0	 1.333333e+00	 2.222222e+00	 9.834880e+00
0	 1.407407e+00	 1.851852e+00	 1.063143e+01
0	 1.407407e+00	 1.925926e+00	 1.049234e+01
0	 1.407407e+00	 2.000000e+00	 1.036336e+01
0	 1.407407e+00	 2.074074e+00	 1.024355e+01
0	 1.407407e+00	 2.148148e+00	 1.013201e+01
0	 1.407407e+00	 2.222222e+00	 1.002783e+01
0	 1.481481e+00	 1.851852e+00	 1.087501e+01
0	 1.481481e+00	 1.925926e+00	 1.070712e+01
0	 1.481481e+00	 2.000000e+00	 1.055763e+01
0	 1.481481e+00	 2.074074e+00	 1.042500e+01
0	 1.481481e+00	 2.148148e+00	 1.030770e+01
0	 1.481481e+00	 2.222222e+00	 1.020418e+01
0	 1.111111e+00	 2.222222e+00	 9.151583e+00
0	 1.111111e+00	 2.296296e+00	 9.058714e+00
0	 1.111111e+00	 2.370370e+00	 8.991765e+00
0	 1.111111e+00	 2.444444e+00	 8.949604e+00
0	 1.111111e+00	 2.518519e+00	 8.931096e+00
0	 1.111111e+00	 2.592593e+00	 8.935107e+00
0	 1.185185e+00	 2.222222e+00	 9.397244e+00
0	 1.185185e+00	 2.296296e+00	 9.299572e+00
0	 1.185185e+00	 2.370370e+00	 9.224828e+00
0	 1.185185e+00	 2.444444e+00	 9.172141e+00
0	 1.185185e+00	 2.518519e+00	 9.140639e+00
0	 1.185185e+00	 2.592593e+00	 9.129453e+00
0	 1.259259e+00	 2.222222e+00	 9.624847e+00
0	 1.259259e+00	 2.296296e+00	 9.526092e+00
0	 1.259259e+00	 2.370370e+00	 9.446509e+00
0	 1.259259e+00	 2.444444e+00	 9.385509e+00
0	 1.259259e+00	 2.518519e+00	 9.342503e+00
0	 1.259259e+00	 2.592593e+00	 9.316900e+00
0	 1.333333e+00	 2.222222e+00	 9.834880e+00
0	 1.333333e+00	 2.296296e+00	 9.737396e+00
0	 1.333333e+00	 2.370370e+00	 9.655016e+00
0	 1.333333e+00	 2.444444e+00	 9.587452e+00
0	 1.333333e+00	 2.518519e+00	 9.534414e+00
0	 1.333333e+00	 2.592593e+00	 9.495612e+00
0	 1.407407e+00	 2.222222e+00	 1.002783e+01
0	 1.407407e+00	 2.296296e+00	 9.932604e+00
0	 1.407407e+00	 2.370370e+00	 9.848554e+00
0	 1.407407e+00	 2.444444e+00	 9.775709e+00
0	 1.407407e+00	 2.518519e+00	 9.714099e+00
0	 1.407407e+00	 2.592593e+00	 9.663753e+00
0	 1.481481e+00	 2.222222e+00	 1.020418e+01
0	 1.481481e+00	 2.296296e+00	 1.011084e+01
0	 1.481481e+00	 2.370370e+00	 1.002533e+01
0	 1.481481e+00	 2.444444e+00	 9.948024e+00
0	 1.481481e+00	 2.518519e+00	 9.879287e+00
0	 1.481481e+00	 2.592593e+00	 9.819486e+00
0	 1.111111e+00	 2.592593e+00	 8.935107e+00
0	 1.111111e+00	 2.666667e+00	 8.947515e+00
0	 1.111111e+00	 2.740741e+00	 8.955816e+00
0	 1.111111e+00	 2.814815e+00	 8.961303e+00
0	 1.111111e+00	 2.888889e+00	 8.965270e+00
0	 1.111111e+00	 2.962963e+00	 8.969011e+00
0	 1.185185e+00	 2.592593e+00	 9.129453e+00
0	 1.185185e+00	 2.666667e+00	 9.126725e+00
0	 1.185185e+00	 2.740741e+00	 9.121873e+00
0	 1.185185e+00	 2.814815e+00	 9.115937e+00
0	 1.185185e+00	 2.888889e+00	 9.109957e+00
0	 1.185185e+00	 2.962963e+00	 9.104973e+00
0	 1.259259e+00	 2.592593e+00	 9.316900e+00
0	 1.259259e+00	 2.666667e+00	 9.299584e+00
0	 1.259259e+00	 2.740741e+00	 9.282349e+00
0	 1.259259e+00	 2.814815e+00	 9.265972e+00
0	 1.259259e+00	 2.888889e+00	 9.251230e+00
0	 1.259259e+00	 2.962963e+00	 9.238902e+00
0	 1.333333e+00	 2.592593e+00	 9.495612e+00
0	 1.333333e+00	 2.666667e+00	 9.464814e+00
0	 1.333333e+00	 2.740741e+00	 9.436316e+00
0	 1.333333e+00	 2.814815e+00	 9.410624e+00
0	 1.333333e+00	 2.888889e+00	 9.388242e+00
0	 1.333333e+00	 2.962963e+00	 9.369676e+00
0	 1.407407e+00	 2.592593e+00	 9.663753e+00
0	 1.407407e+00	 2.666667e+00	 9.621136e+00
0	 1.407407e+00	 2.740741e+00	 9.582847e+00
0	 1.407407e+00	 2.814815e+00	 9.549107e+00
0	 1.407407e+00	 2.888889e+00	 9.520141e+00
0	 1.407407e+00	 2.962963e+00	 9.496172e+00
0	 1.481481e+00	 2.592593e+00	 9.819486e+00
0	 1.481481e+00	 2.666667e+00	 9.767274e+00
0	 1.481481e+00	 2.740741e+00	 9.721014e+00
0	 1.481481e+00	 2.814815e+00	 9.680638e+00
0	 1.481481e+00	 2.888889e+00	 9.646079e+00
0	 1.481481e+00	 2.962963e+00	 9.617271e+00
0	 1.111111e+00	 2.962963e+00	 8.969011e+00
0	 1.111111e+00	 3.037037e+00	 8.975145e+00
0	 1.111111e+00	 3.111111e+00	 8.985218e+00
0	 1.111111e+00	 3.185185e+00	 8.998909e+00
0	 1.111111e+00	 3.259259e+00	 9.015899e+00
0	 1.111111e+00	 3.333333e+00	 9.035868e+00
0	 1.185185e+00	 2.962963e+00	 9.104973e+00
0	 1.185185e+00	 3.037037e+00	 9.103055e+00
0	 1.185185e+00	 3.111111e+00	 9.105427e+00
0	 1.185185e+00	 3.185185e+00	 9.111860e+00
0	 1.185185e+00	 3.259259e+00	 9.122126e+00
0	 1.185185e+00	 3.333333e+00	 9.135998e+00
0	 1.259259e+00	 2.962963e+00	 9.238902e+00
0	 1.259259e+00	 3.037037e+00	 9.230190e+00
0	 1.259259e+00	 3.111111e+00	 9.225696e+00
0	 1.259259e+00	 3.185185e+00	 9.225294e+00
0	 1.259259e+00	 3.259259e+00	 9.228859e+00
0	 1.259259e+00	 3.333333e+00	 9.236265e+00
0	 1.333333e+00	 2.962963e+00	 9.369676e+00
0	 1.333333e+00	 3.037037e+00	 9.355127e+00
0	 1.333333e+00	 3.111111e+00	 9.344452e+00
0	 1.333333e+00	 3.185185e+00	 9.337640e+00
0	 1.333333e+00	 3.259259e+00	 9.334678e+00
0	 1.333333e+00	 3.333333e+00	 9.335554e+00
0	 1.407407e+00	 2.962963e+00	 9.496172e+00
0	 1.407407e+00	 3.037037e+00	 9.476444e+00
0	 1.407407e+00	 3.111111e+00	 9.460124e+00
0	 1.407407e+00	 3.185185e+00	 9.447325e+00
0	 1.407407e+00	 3.259259e+00	 9.438162e+00
0	 1.407407e+00	 3.333333e+00	 9.432746e+00
0	 1.481481e+00	 2.962963e+00	 9.617271e+00
0	 1.481481e+00	 3.037037e+00	 9.592718e+00
0	 1.481481e+00	 3.111111e+00	 9.571138e+00
0	 1.481481e+00	 3.185185e+00	 9.552779e+00
0	 1.481481e+00	 3.259259e+00	 9.537891e+00
0	 1.481481e+00	 3.333333e+00	 9.526722e+00
0	 1.111111e+00	 3.333333e+00	 9.035868e+00
0	 1.111111e+00	 3.407407e+00	 9.056756e+00
0	 1.111111e+00	 3.481481e+00	 9.076962e+00
0	 1.111111e+00	 3.555556e+00	 9.096860e+00
0	 1.111111e+00	 3.629630e+00	 9.116823e+00
0	 1.111111e+00	 3.703704e+00	 9.137223e+00
0	 1.185185e+00	 3.333333e+00	 9.135998e+00
0	 1.185185e+00	 3.407407e+00	 9.151211e+00
0	 1.185185e+00	 3.481481e+00	 9.165896e+00
0	 1.185185e+00	 3.555556e+00	 9.180419e+00
0	 1.185185e+00	 3.629630e+00	 9.195144e+00
0	 1.185185e+00	 3.703704e+00	 9.210435e+00
0	 1.259259e+00	 3.333333e+00	 9.236265e+00
0	 1.259259e+00	 3.407407e+00	 9.245394e+00
0	 1.259259e+00	 3.481481e+00	 9.254432e+00
0	 1.259259e+00	 3.555556e+00	 9.263712e+00
0	 1.259259e+00	 3.629630e+00	 9.273566e+00
0	 1.259259e+00	 3.703704e+00	 9.284327e+00
0	 1.333333e+00	 3.333333e+00	 9.335554e+00
0	 1.333333e+00	 3.407407e+00	 9.338512e+00
0	 1.333333e+00	 3.481481e+00	 9.341986e+00
0	 1.333333e+00	 3.555556e+00	 9.346256e+00
0	 1.333333e+00	 3.629630e+00	 9.351597e+00
0	 1.333333e+00	 3.703704e+00	 9.358289e+00
0	 1.407407e+00	 3.333333e+00	 9.432746e+00
0	 1.407407e+00	 3.407407e+00	 9.429767e+00
0	 1.407407e+00	 3.481481e+00	 9.427976e+00
0	 1.407407e+00	 3.555556e+00	 9.427570e+00
0	 1.407407e+00	 3.629630e+00	 9.428749e+00
0	 1.407407e+00	 3.703704e+00	 9.431713e+00
0	 1.481481e+00	 3.333333e+00	 9.526722e+00
0	 1.481481e+00	 3.407407e+00	 9.518366e+00
0	 1.481481e+00	 3.481481e+00	 9.511816e+00
0	 1.481481e+00	 3.555556e+00	 9.507172e+00
0	 1.481481e+00	 3.629630e+00	 9.504530e+00
0	 1.481481e+00	 3.703704e+00	 9.503990e+00
0	 1.111111e+00	 3.703704e+00	 9.137223e+00
0	 1.111111e+00	 3.777778e+00	 9.158046e+00
0	 1.111111e+00	 3.851852e+00	 9.178994e+00
0	 1.111111e+00	 3.925926e+00	 9.200015e+00
0	 1.111111e+00	 4.000000e+00	 9.221058e+00
0	 1.111111e+00	 4.074074e+00	 9.242070e+00
0	 1.185185e+00	 3.703704e+00	 9.210435e+00
0	 1.185185e+00	 3.777778e+00	 9.226455e+00
0	 1.185185e+00	 3.851852e+00	 9.243083e+00
0	 1.185185e+00	 3.925926e+00	 9.260259e+00
0	 1.185185e+00	 4.000000e+00	 9.277920e+00
0	 1.185185e+00	 4.074074e+00	 9.296005e+00
0	 1.259259e+00	 3.703704e+00	 9.284327e+00
0	 1.259259e+00	 3.777778e+00	 9.296097e+00
0	 1.259259e+00	 3.851852e+00	 9.308722e+00
0	 1.259259e+00	 3.925926e+00	 9.322147e+00
0	 1.259259e+00	 4.000000e+00	 9.336318e+00
0	 1.259259e+00	 4.074074e+00	 9.351182e+00
0	 1.333333e+00	 3.703704e+00	 9.358289e+00
0	 1.333333e+00	 3.777778e+00	 9.366224e+00
0	 1.333333e+00	 3.851852e+00	 9.375093e+00
0	 1.333333e+00	 3.925926e+00	 9.384865e+00
0	 1.333333e+00	 4.000000e+00	 9.395511e+00
0	 1.333333e+00	 4.074074e+00	 9.407003e+00
0	 1.407407e+00	 3.703704e+00	 9.431713e+00
0	 1.407407e+00	 3.777778e+00	 9.436090e+00
0	 1.407407e+00	 3.851852e+00	 9.441381e+00
0	 1.407407e+00	 3.925926e+00	 9.447599e+00
0	 1.407407e+00	 4.000000e+00	 9.454759e+00
0	 1.407407e+00	 4.074074e+00	 9.462872e+00
0	 1.481481e+00	 3.703704e+00	 9.503990e+00
0	 1.481481e+00	 3.777778e+00	 9.504945e+00
0	 1.481481e+00	 3.851852e+00	 9.506769e+00
0	 1.481481e+00	 3.925926e+00	 9.509537e+00
0	 1.481481e+00	 4.000000e+00	 9.513319e+00
0	 1.481481e+00	 4.074074e+00	 9.518190e+00
0	 1.111111e+00	 4.074074e+00	 9.242070e+00
0	 1.111111e+00	 4.148148e+00	 9.262790e+00
0	 1.111111e+00	 4.222222e+00	 9.283056e+00
0	 1.111111e+00	 4.296296e+00	 9.302968e+00
0	 1.111111e+00	 4.370370e+00	 9.322625e+00
0	 1.111111e+00	 4.444444e+00	 9.342126e+00
0	 1.185185e+00	 4.074074e+00	 9.296005e+00
0	 1.185185e+00	 4.148148e+00	 9.314011e+00
0	 1.185185e+00	 4.222222e+00	 9.331557e+00
0	 1.185185e+00	 4.296296e+00	 9.348768e+00
0	 1.185185e+00	 4.370370e+00	 9.365766e+00
0	 1.185185e+00	 4.444444e+00	 9.382675e+00
0	 1.259259e+00	 4.074074e+00	 9.351182e+00
0	 1.259259e+00	 4.148148e+00	 9.366168e+00
0	 1.259259e+00	 4.222222e+00	 9.380831e+00
0	 1.259259e+00	 4.296296e+00	 9.395302e+00
0	 1.259259e+00	 4.370370e+00	 9.409716e+00
0	 1.259259e+00	 4.444444e+00	 9.424205e+00
0	 1.333333e+00	 4.074074e+00	 9.407003e+00
0	 1.333333e+00	 4.148148e+00	 9.418819e+00
0	 1.333333e+00	 4.222222e+00	 9.430541e+00
0	 1.333333e+00	 4.296296e+00	 9.442297e+00
0	 1.333333e+00	 4.370370e+00	 9.454212e+00
0	 1.333333e+00	 4.444444e+00	 9.466415e+00
0	 1.407407e+00	 4.074074e+00	 9.462872e+00
0	 1.407407e+00	 4.148148e+00	 9.471522e+00
0	 1.407407e+00	 4.222222e+00	 9.480354e+00
0	 1.407407e+00	 4.296296e+00	 9.489475e+00
0	 1.407407e+00	 4.370370e+00	 9.498989e+00
0	 1.407407e+00	 4.444444e+00	 9.509004e+00
0	 1.481481e+00	 4.074074e+00	 9.518190e+00
0	 1.481481e+00	 4.148148e+00	 9.523834e+00
0	 1.481481e+00	 4.222222e+00	 9.529933e+00
0	 1.481481e+00	 4.296296e+00	 9.536559e+00
0	 1.481481e+00	 4.370370e+00	 9.543782e+00
0	 1.481481e+00	 4.444444e+00	 9.551672e+00
0	 1.111111e+00	 4.444444e+00	 9.342126e+00
0	 1.111111e+00	 4.518519e+00	 9.361398e+00
0	 1.111111e+00	 4.592593e+00	 9.380294e+00
0	 1.111111e+00	 4.666667e+00	 9.398804e+00
0	 1.111111e+00	 4.740741e+00	 9.416918e+00
0	 1.111111e+00	 4.814815e+00	 9.434626e+00
0	 1.185185e+00	 4.444444e+00	 9.382675e+00
0	 1.185185e+00	 4.518519e+00	 9.399513e+00
0	 1.185185e+00	 4.592593e+00	 9.416202e+00
0	 1.185185e+00	 4.666667e+00	 9.432718e+00
0	 1.185185e+00	 4.740741e+00	 9.449041e+00
0	 1.185185e+00	 4.814815e+00	 9.465148e+00
0	 1.259259e+00	 4.444444e+00	 9.424205e+00
0	 1.259259e+00	 4.518519e+00	 9.438777e+00
0	 1.259259e+00	 4.592593e+00	 9.453338e+00
0	 1.259259e+00	 4.666667e+00	 9.467863e+00
0	 1.259259e+00	 4.740741e+00	 9.482327e+00
0	 1.259259e+00	 4.814815e+00	 9.496705e+00
0	 1.333333e+00	 4.444444e+00	 9.466415e+00
0	 1.333333e+00	 4.518519e+00	 9.478842e+00
0	 1.333333e+00	 4.592593e+00	 9.491333e+00
0	 1.333333e+00	 4.666667e+00	 9.503870e+00
0	 1.333333e+00	 4.740741e+00	 9.516435e+00
0	 1.333333e+00	 4.814815e+00	 9.529009e+00
0	 1.407407e+00	 4.444444e+00	 9.509004e+00
0	 1.407407e+00	 4.518519e+00	 9.519357e+00
0	 1.407407e+00	 4.592593e+00	 9.529814e+00
0	 1.407407e+00	 4.666667e+00	 9.540371e+00
0	 1.407407e+00	 4.740741e+00	 9.551023e+00
0	 1.407407e+00	 4.814815e+00	 9.561769e+00
0	 1.481481e+00	 4.444444e+00	 9.551672e+00
0	 1.481481e+00	 4.518519e+00	 9.559976e+00
0	 1.481481e+00	 4.592593e+00	 9.568411e+00
0	 1.481481e+00	 4.666667e+00	 9.576996e+00
0	 1.481481e+00	 4.740741e+00	 9.585751e+00
0	 1.481481e+00	 4.814815e+00	 9.594699e+00
0	 1.111111e+00	 4.814815e+00	 9.434626e+00
0	 1.111111e+00	 4.888889e+00	 9.451918e+00
0	 1.111111e+00	 4.962963e+00	 9.468809e+00
0	 1.111111e+00	 5.037037e+00	 9.485331e+00
0	 1.111111e+00	 5.111111e+00	 9.501512e+00
0	 1.111111e+00	 5.185185e+00	 9.517383e+00
0	 1.185185e+00	 4.814815e+00	 9.465148e+00
0	 1.185185e+00	 4.888889e+00	 9.480937e+00
0	 1.185185e+00	 4.962963e+00	 9.496347e+00
0	 1.185185e+00	 5.037037e+00	 9.511422e+00
0	 1.185185e+00	 5.111111e+00	 9.526203e+00
0	 1.185185e+00	 5.185185e+00	 9.540734e+00
0	 1.259259e+00	 4.814815e+00	 9.496705e+00
0	 1.259259e+00	 4.888889e+00	 9.510862e+00
0	 1.259259e+00	 4.962963e+00	 9.524709e+00
0	 1.259259e+00	 5.037037e+00	 9.538296e+00
0	 1.259259e+00	 5.111111e+00	 9.551673e+00
0	 1.259259e+00	 5.185185e+00	 9.564887e+00
0	 1.333333e+00	 4.814815e+00	 9.529009e+00
0	 1.333333e+00	 4.888889e+00	 9.541460e+00
0	 1.333333e+00	 4.962963e+00	 9.553704e+00
0	 1.333333e+00	 5.037037e+00	 9.565790e+00
0	 1.333333e+00	 5.111111e+00	 9.577767e+00
0	 1.333333e+00	 5.185185e+00	 9.589686e+00
0	 1.407407e+00	 4.814815e+00	 9.561769e+00
0	 1.407407e+00	 4.888889e+00	 9.572501e+00
0	 1.407407e+00	 4.962963e+00	 9.583143e+00
0	 1.407407e+00	 5.037037e+00	 9.593739e+00
0	 1.407407e+00	 5.111111e+00	 9.604333e+00
0	 1.407407e+00	 5.185185e+00	 9.614969e+00
0	 1.481481e+00	 4.814815e+00	 9.594699e+00
0	 1.481481e+00	 4.888889e+00	 9.603752e+00
0	 1.481481e+00	 4.962963e+00	 9.612835e+00
0	 1.481481e+00	 5.037037e+00	 9.621978e+00
0	 1.481481e+00	 5.111111e+00	 9.631215e+00
0	 1.481481e+00	 5.185185e+00	 9.640579e+00
0	 1.111111e+00	 5.185185e+00	 9.517383e+00
0	 1.111111e+00	 5.259259e+00	 9.532929e+00
0	 1.111111e+00	 5.333333e+00	 9.548111e+00
0	 1.111111e+00	 5.407407e+00	 9.562926e+00
0	 1.111111e+00	 5.481481e+00	 9.577372e+00
0	 1.111111e+00	 5.555556e+00	 9.591444e+00
0	 1.185185e+00	 5.185185e+00	 9.540734e+00
0	 1.185185e+00	 5.259259e+00	 9.555019e+00
0	 1.185185e+00	 5.333333e+00	 9.569030e+00
0	 1.185185e+00	 5.407407e+00	 9.582760e+00
0	 1.185185e+00	 5.481481e+00	 9.596202e+00
0	 1.185185e+00	 5.555556e+00	 9.609349e+00
0	 1.259259e+00	 5.185185e+00	 9.564887e+00
0	 1.259259e+00	 5.259259e+00	 9.577936e+00
0	 1.259259e+00	 5.333333e+00	 9.590777e+00
0	 1.259259e+00	 5.407407e+00	 9.603401e+00
0	 1.259259e+00	 5.481481e+00	 9.615801e+00
0	 1.259259e+00	 5.555556e+00	 9.627969e+00
0	 1.333333e+00	 5.185185e+00	 9.589686e+00
0	 1.333333e+00	 5.259259e+00	 9.601513e+00
0	 1.333333e+00	 5.333333e+00	 9.613181e+00
0	 1.333333e+00	 5.407407e+00	 9.624683e+00
0	 1.333333e+00	 5.481481e+00	 9.636014e+00
0	 1.333333e+00	 5.555556e+00	 9.647168e+00
0	 1.407407e+00	 5.185185e+00	 9.614969e+00
0	 1.407407e+00	 5.259259e+00	 9.625580e+00
0	 1.407407e+00	 5.333333e+00	 9.636070e+00
0	 1.407407e+00	 5.407407e+00	 9.646437e+00
0	 1.407407e+00	 5.481481e+00	 9.656682e+00
0	 1.407407e+00	 5.555556e+00	 9.666805e+00
0	 1.481481e+00	 5.185185e+00	 9.640579e+00
0	 1.481481e+00	 5.259259e+00	 9.649970e+00
0	 1.481481e+00	 5.333333e+00	 9.659273e+00
0	 1.481481e+00	 5.407407e+00	 9.668496e+00
0	 1.481481e+00	 5.481481e+00	 9.677649e+00
0	 1.481481e+00	 5.555556e+00	 9.686741e+00
0	 1.111111e+00	 5.555556e+00	 9.591444e+00
0	 1.111111e+00	 5.629630e+00	 9.605167e+00
0	 1.111111e+00	 5.703704e+00	 9.618570e+00
0	 1.111111e+00	 5.777778e+00	 9.631663e+00
0	 1.111111e+00	 5.851852e+00	 9.644457e+00
0	 1.111111e+00	 5.925926e+00	 9.656961e+00
0	 1.185185e+00	 5.555556e+00	 9.609349e+00
0	 1.185185e+00	 5.629630e+00	 9.622194e+00
0	 1.185185e+00	 5.703704e+00	 9.634747e+00
0	 1.185185e+00	 5.777778e+00	 9.647021e+00
0	 1.185185e+00	 5.851852e+00	 9.659030e+00
0	 1.185185e+00	 5.925926e+00	 9.670790e+00
0	 1.259259e+00	 5.555556e+00	 9.627969e+00
0	 1.259259e+00	 5.629630e+00	 9.639887e+00
0	 1.259259e+00	 5.703704e+00	 9.651550e+00
0	 1.259259e+00	 5.777778e+00	 9.662976e+00
0	 1.259259e+00	 5.851852e+00	 9.674183e+00
0	 1.259259e+00	 5.925926e+00	 9.685186e+00
0	 1.333333e+00	 5.555556e+00	 9.647168e+00
0	 1.333333e+00	 5.629630e+00	 9.658123e+00
0	 1.333333e+00	 5.703704e+00	 9.668873e+00
0	 1.333333e+00	 5.777778e+00	 9.679435e+00
0	 1.333333e+00	 5.851852e+00	 9.689826e+00
0	 1.333333e+00	 5.925926e+00	 9.700064e+00
0	 1.407407e+00	 5.555556e+00	 9.666805e+00
0	 1.407407e+00	 5.629630e+00	 9.676784e+00
0	 1.407407e+00	 5.703704e+00	 9.686611e+00
0	 1.407407e+00	 5.777778e+00	 9.696301e+00
0	 1.407407e+00	 5.851852e+00	 9.705870e+00
0	 1.407407e+00	 5.925926e+00	 9.715336e+00
0	 1.481481e+00	 5.555556e+00	 9.686741e+00
0	 1.481481e+00	 5.629630e+00	 9.695749e+00
0	 1.481481e+00	 5.703704e+00	 9.704657e+00
0	 1.481481e+00	 5.777778e+00	 9.713479e+00
0	 1.481481e+00	 5.851852e+00	 9.722227e+00
0	 1.481481e+00	 5.925926e+00	 9.730914e+00
0	 1.111111e+00	 5.925926e+00	 9.656961e+00
0	 1.111111e+00	 6.000000e+00	 9.669179e+00
0	 1.111111e+00	 6.074074e+00	 9.681109e+00
0	 1.111111e+00	 6.148148e+00	 9.692752e+00
0	 1.111111e+00	 6.222222e+00	 9.704105e+00
0	 1.111111e+00	 6.296296e+00	 9.715170e+00
0	 1.185185e+00	 5.925926e+00	 9.670790e+00
0	 1.185185e+00	 6.000000e+00	 9.682304e+00
0	 1.185185e+00	 6.074074e+00	 9.693569e+00
0	 1.185185e+00	 6.148148e+00	 9.704582e+00
0	 1.185185e+00	 6.222222e+00	 9.715342e+00
0	 1.185185e+00	 6.296296e+00	 9.725850e+00
0	 1.259259e+00	 5.925926e+00	 9.685186e+00
0	 1.259259e+00	 6.000000e+00	 9.695986e+00
0	 1.259259e+00	 6.074074e+00	 9.706568e+00
0	 1.259259e+00	 6.148148e+00	 9.716931e+00
0	 1.259259e+00	 6.222222e+00	 9.727076e+00
0	 1.259259e+00	 6.296296e+00	 9.737000e+00
0	 1.333333e+00	 5.925926e+00	 9.700064e+00
0	 1.333333e+00	 6.000000e+00	 9.710138e+00
0	 1.333333e+00	 6.074074e+00	 9.720023e+00
0	 1.333333e+00	 6.148148e+00	 9.729720e+00
0	 1.333333e+00	 6.222222e+00	 9.739229e+00
0	 1.333333e+00	 6.296296e+00	 9.748550e+00
0	 1.407407e+00	 5.925926e+00	 9.715336e+00
0	 1.407407e+00	 6.000000e+00	 9.724674e+00
0	 1.407407e+00	 6.074074e+00	 9.733850e+00
0	 1.407407e+00	 6.148148e+00	 9.742867e+00
0	 1.407407e+00	 6.222222e+00	 9.751726e+00
0	 1.407407e+00	 6.296296e+00	 9.760431e+00
0	 1.481481e+00	 5.925926e+00	 9.730914e+00
0	 1.481481e+00	 6.000000e+00	 9.739507e+00
0	 1.481481e+00	 6.074074e+00	 9.747964e+00
0	 1.481481e+00	 6.148148e+00	 9.756290e+00
0	 1.481481e+00	 6.222222e+00	 9.764492e+00
0	 1.481481e+00	 6.296296e+00	 9.772572e+00
0	 1.111111e+00	 6.296296e+00	 9.715170e+00
0	 1.111111e+00	 6.370370e+00	 9.725965e+00
0	 1.111111e+00	 6.444444e+00	 9.736511e+00
0	 1.111111e+00	 6.518519e+00	 9.746813e+00
0	 1.111111e+00	 6.592593e+00	 9.756875e+00
0	 1.111111e+00	 6.666667e+00	 9.766700e+00
0	 1.185185e+00	 6.296296e+00	 9.725850e+00
0	 1.185185e+00	 6.370370e+00	 9.736114e+00
0	 1.185185e+00	 6.444444e+00	 9.746149e+00
0	 1.185185e+00	 6.518519e+00	 9.755960e+00
0	 1.185185e+00	 6.592593e+00	 9.765552e+00
0	 1.185185e+00	 6.666667e+00	 9.774932e+00
0	 1.259259e+00	 6.296296e+00	 9.737000e+00
0	 1.259259e+00	 6.370370e+00	 9.746708e+00
0	 1.259259e+00	 6.444444e+00	 9.756209e+00
0	 1.259259e+00	 6.518519e+00	 9.765510e+00
0	 1.259259e+00	 6.592593e+00	 9.774617e+00
0	 1.259259e+00	 6.666667e+00	 9.783535e+00
0	 1.333333e+00	 6.296296e+00	 9.748550e+00
0	 1.333333e+00	 6.370370e+00	 9.757684e+00
0	 1.333333e+00	 6.444444e+00	 9.766635e+00
0	 1.333333e+00	 6.518519e+00	 9.775411e+00
0	 1.333333e+00	 6.592593e+00	 9.784019e+00
0	 1.333333e+00	 6.666667e+00	 9.792464e+00
0	 1.407407e+00	 6.296296e+00	 9.760431e+00
0	 1.407407e+00	 6.370370e+00	 9.768978e+00
0	 1.407407e+00	 6.444444e+00	 9.777369e+00
0	 1.407407e+00	 6.518519e+00	 9.785610e+00
0	 1.407407e+00	 6.592593e+00	 9.793707e+00
0	 1.407407e+00	 6.666667e+00	 9.801669e+00
0	 1.481481e+00	 6.296296e+00	 9.772572e+00
0	 1.481481e+00	 6.370370e+00	 9.780527e+00
0	 1.481481e+00	 6.444444e+00	 9.788351e+00
0	 1.481481e+00	 6.518519e+00	 9.796051e+00
0	 1.481481e+00	 6.592593e+00	 9.803633e+00
0	 1.481481e+00	 6.666667e+00	 9.811102e+00
0	 1.111111e+00	 6.666667e+00	 9.766700e+00
0	 1.111111e+00	 6.740741e+00	 9.776295e+00
0	 1.111111e+00	 6.814815e+00	 9.785664e+00
0	 1.111111e+00	 6.888889e+00	 9.794810e+00
0	 1.111111e+00	 6.962963e+00	 9.803732e+00
0	 1.111111e+00	 7.037037e+00	 9.812434e+00
0	 1.185185e+00	 6.666667e+00	 9.774932e+00
0	 1.185185e+00	 6.740741e+00	 9.784102e+00
0	 1.185185e+00	 6.814815e+00	 9.793066e+00
0	 1.185185e+00	 6.888889e+00	 9.801823e+00
0	 1.185185e+00	 6.962963e+00	 9.810377e+00
0	 1.185185e+00	 7.037037e+00	 9.818727e+00
0	 1.259259e+00	 6.666667e+00	 9.783535e+00
0	 1.259259e+00	 6.740741e+00	 9.792267e+00
0	 1.259259e+00	 6.814815e+00	 9.800809e+00
0	 1.259259e+00	 6.888889e+00	 9.809163e+00
0	 1.259259e+00	 6.962963e+00	 9.817332e+00
0	 1.259259e+00	 7.037037e+00	 9.825315e+00
0	 1.333333e+00	 6.666667e+00	 9.792464e+00
0	 1.333333e+00	 6.740741e+00	 9.800743e+00
0	 1.333333e+00	 6.814815e+00	 9.808851e+00
0	 1.333333e+00	 6.888889e+00	 9.816788e+00
0	 1.333333e+00	 6.962963e+00	 9.824558e+00
0	 1.333333e+00	 7.037037e+00	 9.832162e+00
0	 1.407407e+00	 6.666667e+00	 9.801669e+00
0	 1.407407e+00	 6.740741e+00	 9.809485e+00
0	 1.407407e+00	 6.814815e+00	 9.817147e+00
0	 1.407407e+00	 6.888889e+00	 9.824656e+00
0	 1.407407e+00	 6.962963e+00	 9.832016e+00
0	 1.407407e+00	 7.037037e+00	 9.839230e+00
0	 1.481481e+00	 6.666667e+00	 9.811102e+00
0	 1.481481e+00	 6.740741e+00	 9.818447e+00
0	 1.481481e+00	 6.814815e+00	 9.825654e+00
0	 1.481481e+00	 6.888889e+00	 9.832726e+00
0	 1.481481e+00	 6.962963e+00	 9.839668e+00
0	 1.481481e+00	 7.037037e+00	 9.846483e+00
0	 1.111111e+00	 7.037037e+00	 9.812434e+00
0	 1.111111e+00	 7.111111e+00	 9.820923e+00
0	 1.111111e+00	 7.185185e+00	 9.829210e+00
0	 1.111111e+00	 7.259259e+00	 9.837299e+00
0	 1.111111e+00	 7.333333e+00	 9.845192e+00
0	 1.111111e+00	 7.407407e+00	 9.852892e+00
0	 1.185185e+00	 7.037037e+00	 9.818727e+00
0	 1.185185e+00	 7.111111e+00	 9.826881e+00
0	 1.185185e+00	 7.185185e+00	 9.834844e+00
0	 1.185185e+00	 7.259259e+00	 9.842622e+00
0	 1.185185e+00	 7.333333e+00	 9.850217e+00
0	 1.185185e+00	 7.407407e+00	 9.857632e+00
0	 1.259259e+00	 7.037037e+00	 9.825315e+00
0	 1.259259e+00	 7.111111e+00	 9.833118e+00
0	 1.259259e+00	 7.185185e+00	 9.840744e+00
0	 1.259259e+00	 7.259259e+00	 9.848197e+00
0	 1.259259e+00	 7.333333e+00	 9.855481e+00
0	 1.259259e+00	 7.407407e+00	 9.862600e+00
0	 1.333333e+00	 7.037037e+00	 9.832162e+00
0	 1.333333e+00	 7.111111e+00	 9.839601e+00
0	 1.333333e+00	 7.185185e+00	 9.846877e+00
0	 1.333333e+00	 7.259259e+00	 9.853994e+00
0	 1.333333e+00	 7.333333e+00	 9.860957e+00
0	 1.333333e+00	 7.407407e+00	 9.867769e+00
0	 1.407407e+00	 7.037037e+00	 9.839230e+00
0	 1.407407e+00	 7.111111e+00	 9.846295e+00
0	 1.407407e+00	 7.185185e+00	 9.853212e+00
0	 1.407407e+00	 7.259259e+00	 9.859984e+00
0	 1.407407e+00	 7.333333e+00	 9.866616e+00
0	 1.407407e+00	 7.407407e+00	 9.873112e+00
0	 1.481481e+00	 7.037037e+00	 9.846483e+00
0	 1.481481e+00	 7.111111e+00	 9.853168e+00
0	 1.481481e+00	 7.185185e+00	 9.859718e+00
0	 1.481481e+00	 7.259259e+00	 9.866138e+00
0	 1.481481e+00	 7.333333e+00	 9.872432e+00
0	 1.481481e+00	 7.407407e+00	 9.878604e+00
0	 1.111111e+00	 7.407407e+00	 9.852892e+00
0	 1.111111e+00	 7.481481e+00	 9.860400e+00
0	 1.111111e+00	 7.555556e+00	 9.867717e+00
0	 1.111111e+00	 7.629630e+00	 9.874846e+00
0	 1.111111e+00	 7.703704e+00	 9.881791e+00
0	 1.111111e+00	 7.777778e+00	 9.888555e+00
0	 1.185185e+00	 7.407407e+00	 9.857632e+00
0	 1.185185e+00	 7.481481e+00	 9.864868e+00
0	 1.185185e+00	 7.555556e+00	 9.871924e+00
0	 1.185185e+00	 7.629630e+00	 9.878801e+00
0	 1.185185e+00	 7.703704e+00	 9.885505e+00
0	 1.185185e+00	 7.777778e+00	 9.892038e+00
0	 1.259259e+00	 7.407407e+00	 9.862600e+00
0	 1.259259e+00	 7.481481e+00	 9.869552e+00
0	 1.259259e+00	 7.555556e+00	 9.876334e+00
0	 1.259259e+00	 7.629630e+00	 9.882948e+00
0	 1.259259e+00	 7.703704e+00	 9.889400e+00
0	 1.259259e+00	 7.777778e+00	 9.895691e+00
0	 1.333333e+00	 7.407407e+00	 9.867769e+00
0	 1.333333e+00	 7.481481e+00	 9.874426e+00
0	 1.333333e+00	 7.555556e+00	 9.880924e+00
0	 1.333333e+00	 7.629630e+00	 9.887265e+00
0	 1.333333e+00	 7.703704e+00	 9.893455e+00
0	 1.333333e+00	 7.777778e+00	 9.899495e+00
0	 1.407407e+00	 7.407407e+00	 9.873112e+00
0	 1.407407e+00	 7.481481e+00	 9.879466e+00
0	 1.407407e+00	 7.555556e+00	 9.885671e+00
0	 1.407407e+00	 7.629630e+00	 9.891731e+00
0	 1.407407e+00	 7.703704e+00	 9.897649e+00
0	 1.407407e+00	 7.777778e+00	 9.903431e+00
0	 1.481481e+00	 7.407407e+00	 9.878604e+00
0	 1.481481e+00	 7.481481e+00	 9.884646e+00
0	 1.481481e+00	 7.555556e+00	 9.890551e+00
0	 1.481481e+00	 7.629630e+00	 9.896322e+00
0	 1.481481e+00	 7.703704e+00	 9.901963e+00
0	 1.481481e+00	 7.777778e+00	 9.907479e+00
0	 1.111111e+00	 7.777778e+00	 9.888555e+00
0	 1.111111e+00	 7.851852e+00	 9.895135e+00
0	 1.111111e+00	 7.925926e+00	 9.901530e+00
0	 1.111111e+00	 8.000000e+00	 9.907744e+00
0	 1.111111e+00	 8.074074e+00	 9.913783e+00
0	 1.111111e+00	 8.148148e+00	 9.919651e+00
0	 1.185185e+00	 7.777778e+00	 9.892038e+00
0	 1.185185e+00	 7.851852e+00	 9.898396e+00
0	 1.185185e+00	 7.925926e+00	 9.904578e+00
0	 1.185185e+00	 8.000000e+00	 9.910587e+00
0	 1.185185e+00	 8.074074e+00	 9.916429e+00
0	 1.185185e+00	 8.148148e+00	 9.922108e+00
0	 1.259259e+00	 7.777778e+00	 9.895691e+00
0	 1.259259e+00	 7.851852e+00	 9.901818e+00
0	 1.259259e+00	 7.925926e+00	 9.907776e+00
0	 1.259259e+00	 8.000000e+00	 9.913571e+00
0	 1.259259e+00	 8.074074e+00	 9.919207e+00
0	 1.259259e+00	 8.148148e+00	 9.924688e+00
0	 1.333333e+00	 7.777778e+00	 9.899495e+00
0	 1.333333e+00	 7.851852e+00	 9.905381e+00
0	 1.333333e+00	 7.925926e+00	 9.911108e+00
0	 1.333333e+00	 8.000000e+00	 9.916679e+00
0	 1.333333e+00	 8.074074e+00	 9.922101e+00
0	 1.333333e+00	 8.148148e+00	 9.927377e+00
0	 1.407407e+00	 7.777778e+00	 9.903431e+00
0	 1.407407e+00	 7.851852e+00	 9.909069e+00
0	 1.407407e+00	 7.925926e+00	 9.914555e+00
0	 1.407407e+00	 8.000000e+00	 9.919896e+00
0	 1.407407e+00	 8.074074e+00	 9.925096e+00
0	 1.407407e+00	 8.148148e+00	 9.930160e+00
0	 1.481481e+00	 7.777778e+00	 9.907479e+00
0	 1.481481e+00	 7.851852e+00	 9.912862e+00
0	 1.481481e+00	 7.925926e+00	 9.918102e+00
0	 1.481481e+00	 8.000000e+00	 9.923206e+00
0	 1.481481e+00	 8.074074e+00	 9.928179e+00
0	 1.481481e+00	 8.148148e+00	 9.933024e+00
0	 1.111111e+00	 8.148148e+00	 9.919651e+00
0	 1.111111e+00	 8.222222e+00	 9.925338e+00
0	 1.111111e+00	 8.296296e+00	 9.930836e+00
0	 1.111111e+00	 8.370370e+00	 9.936150e+00
0	 1.111111e+00	 8.444444e+00	 9.941287e+00
0	 1.111111e+00	 8.518519e+00	 9.946252e+00
0	 1.185185e+00	 8.148148e+00	 9.922108e+00
0	 1.185185e+00	 8.222222e+00	 9.927615e+00
0	 1.185185e+00	 8.296296e+00	 9.932938e+00
0	 1.185185e+00	 8.370370e+00	 9.938086e+00
0	 1.185185e+00	 8.444444e+00	 9.943063e+00
0	 1.185185e+00	 8.518519e+00	 9.947874e+00
0	 1.259259e+00	 8.148148e+00	 9.924688e+00
0	 1.259259e+00	 8.222222e+00	 9.930005e+00
0	 1.259259e+00	 8.296296e+00	 9.935147e+00
0	 1.259259e+00	 8.370370e+00	 9.940119e+00
0	 1.259259e+00	 8.444444e+00	 9.944928e+00
0	 1.259259e+00	 8.518519e+00	 9.949580e+00
0	 1.333333e+00	 8.148148e+00	 9.927377e+00
0	 1.333333e+00	 8.222222e+00	 9.932496e+00
0	 1.333333e+00	 8.296296e+00	 9.937448e+00
0	 1.333333e+00	 8.370370e+00	 9.942239e+00
0	 1.333333e+00	 8.444444e+00	 9.946874e+00
0	 1.333333e+00	 8.518519e+00	 9.951358e+00
0	 1.407407e+00	 8.148148e+00	 9.930160e+00
0	 1.407407e+00	 8.222222e+00	 9.935075e+00
0	 1.407407e+00	 8.296296e+00	 9.939831e+00
0	 1.407407e+00	 8.370370e+00	 9.944433e+00
0	 1.407407e+00	 8.444444e+00	 9.948888e+00
0	 1.407407e+00	 8.518519e+00	 9.953199e+00
0	 1.481481e+00	 8.148148e+00	 9.933024e+00
0	 1.481481e+00	 8.222222e+00	 9.937729e+00
0	 1.481481e+00	 8.296296e+00	 9.942283e+00
0	 1.481481e+00	 8.370370e+00	 9.946692e+00
0	 1.481481e+00	 8.444444e+00	 9.950960e+00
0	 1.481481e+00	 8.518519e+00	 9.955093e+00
0	 1.111111e+00	 8.518519e+00	 9.946252e+00
0	 1.111111e+00	 8.592593e+00	 9.951029e+00
0	 1.111111e+00	 8.666667e+00	 9.955602e+00
0	 1.111111e+00	 8.740741e+00	 9.959980e+00
0	 1.111111e+00	 8.814815e+00	 9.964170e+00
0	 1.111111e+00	 8.888889e+00	 9.968181e+00
0	 1.185185e+00	 8.518519e+00	 9.947874e+00
0	 1.185185e+00	 8.592593e+00	 9.952505e+00
0	 1.185185e+00	 8.666667e+00	 9.956939e+00
0	 1.185185e+00	 8.740741e+00	 9.961183e+00
0	 1.185185e+00	 8.814815e+00	 9.965247e+00
0	 1.185185e+00	 8.888889e+00	 9.969136e+00
0	 1.259259e+00	 8.518519e+00	 9.949580e+00
0	 1.259259e+00	 8.592593e+00	 9.954057e+00
0	 1.259259e+00	 8.666667e+00	 9.958344e+00
0	 1.259259e+00	 8.740741e+00	 9.962450e+00
0	 1.259259e+00	 8.814815e+00	 9.966380e+00
0	 1.259259e+00	 8.888889e+00	 9.970143e+00
0	 1.333333e+00	 8.518519e+00	 9.951358e+00
0	 1.333333e+00	 8.592593e+00	 9.955676e+00
0	 1.333333e+00	 8.666667e+00	 9.959811e+00
0	 1.333333e+00	 8.740741e+00	 9.963770e+00
0	 1.333333e+00	 8.814815e+00	 9.967562e+00
0	 1.333333e+00	 8.888889e+00	 9.971193e+00
0	 1.407407e+00	 8.518519e+00	 9.953199e+00
0	 1.407407e+00	 8.592593e+00	 9.957351e+00
0	 1.407407e+00	 8.666667e+00	 9.961329e+00
0	 1.407407e+00	 8.740741e+00	 9.965138e+00
0	 1.407407e+00	 8.814815e+00	 9.968786e+00
0	 1.407407e+00	 8.888889e+00	 9.972280e+00
0	 1.481481e+00	 8.518519e+00	 9.955093e+00
0	 1.481481e+00	 8.592593e+00	 9.959075e+00
0	 1.481481e+00	 8.666667e+00	 9.962889e+00
0	 1.481481e+00	 8.740741e+00	 9.966543e+00
0	 1.481481e+00	 8.814815e+00	 9.970043e+00
0	 1.481481e+00	 8.888889e+00	 9.973396e+00
0	 1.111111e+00	 8.888889e+00	 9.968181e+00
0	 1.111111e+00	 8.962963e+00	 9.971986e+00
0	 1.111111e+00	 9.037037e+00	 9.975562e+00
0	 1.111111e+00	 9.111111e+00	 9.978919e+00
0	 1.111111e+00	 9.185185e+00	 9.982067e+00
0	 1.111111e+00	 9.259259e+00	 9.985017e+00
0	 1.185185e+00	 8.888889e+00	 9.969136e+00
0	 1.185185e+00	 8.962963e+00	 9.972827e+00
0	 1.185185e+00	 9.037037e+00	 9.976296e+00
0	 1.185185e+00	 9.111111e+00	 9.979552e+00
0	 1.185185e+00	 9.185185e+00	 9.982606e+00
0	 1.185185e+00	 9.259259e+00	 9.985467e+00
0	 1.259259e+00	 8.888889e+00	 9.970143e+00
0	 1.259259e+00	 8.962963e+00	 9.973714e+00
0	 1.259259e+00	 9.037037e+00	 9.977070e+00
0	 1.259259e+00	 9.111111e+00	 9.980221e+00
0	 1.259259e+00	 9.185185e+00	 9.983176e+00
0	 1.259259e+00	 9.259259e+00	 9.985944e+00
0	 1.333333e+00	 8.888889e+00	 9.971193e+00
0	 1.333333e+00	 8.962963e+00	 9.974640e+00
0	 1.333333e+00	 9.037037e+00	 9.977878e+00
0	 1.333333e+00	 9.111111e+00	 9.980919e+00
0	 1.333333e+00	 9.185185e+00	 9.983771e+00
0	 1.333333e+00	 9.259259e+00	 9.986443e+00
0	 1.407407e+00	 8.888889e+00	 9.972280e+00
0	 1.407407e+00	 8.962963e+00	 9.975597e+00
0	 1.407407e+00	 9.037037e+00	 9.978714e+00
0	 1.407407e+00	 9.111111e+00	 9.981641e+00
0	 1.407407e+00	 9.185185e+00	 9.984386e+00
0	 1.407407e+00	 9.259259e+00	 9.986958e+00
0	 1.481481e+00	 8.888889e+00	 9.973396e+00
0	 1.481481e+00	 8.962963e+00	 9.976580e+00
0	 1.481481e+00	 9.037037e+00	 9.979571e+00
0	 1.481481e+00	 9.111111e+00	 9.982380e+00
0	 1.481481e+00	 9.185185e+00	 9.985015e+00
0	 1.481481e+00	 9.259259e+00	 9.987483e+00
0	 1.111111e+00	 9.259259e+00	 9.985017e+00
0	 1.111111e+00	 9.333333e+00	 9.987731e+00
0	 1.111111e+00	 9.407407e+00	 9.990172e+00
0	 1.111111e+00	 9.481481e+00	 9.992356e+00
0	 1.111111e+00	 9.555556e+00	 9.994294e+00
0	 1.111111e+00	 9.629630e+00	 9.996001e+00
0	 1.185185e+00	 9.259259e+00	 9.985467e+00
0	 1.185185e+00	 9.333333e+00	 9.988099e+00
0	 1.185185e+00	 9.407407e+00	 9.990468e+00
0	 1.185185e+00	 9.481481e+00	 9.992585e+00
0	 1.185185e+00	 9.555556e+00	 9.994465e+00
0	 1.185185e+00	 9.629630e+00	 9.996119e+00
0	 1.259259e+00	 9.259259e+00	 9.985944e+00
0	 1.259259e+00	 9.333333e+00	 9.988491e+00
0	 1.259259e+00	 9.407407e+00	 9.990783e+00
0	 1.259259e+00	 9.481481e+00	 9.992832e+00
0	 1.259259e+00	 9.555556e+00	 9.994650e+00
0	 1.259259e+00	 9.629630e+00	 9.996250e+00
0	 1.333333e+00	 9.259259e+00	 9.986443e+00
0	 1.333333e+00	 9.333333e+00	 9.988901e+00
0	 1.333333e+00	 9.407407e+00	 9.991113e+00
0	 1.333333e+00	 9.481481e+00	 9.993090e+00
0	 1.333333e+00	 9.555556e+00	 9.994845e+00
0	 1.333333e+00	 9.629630e+00	 9.996389e+00
0	 1.407407e+00	 9.259259e+00	 9.986958e+00
0	 1.407407e+00	 9.333333e+00	 9.989324e+00
0	 1.407407e+00	 9.407407e+00	 9.991453e+00
0	 1.407407e+00	 9.481481e+00	 9.993356e+00
0	 1.407407e+00	 9.555556e+00	 9.995044e+00
0	 1.407407e+00	 9.629630e+00	 9.996529e+00
0	 1.481481e+00	 9.259259e+00	 9.987483e+00
0	 1.481481e+00	 9.333333e+00	 9.989754e+00
0	 1.481481e+00	 9.407407e+00	 9.991797e+00
0	 1.481481e+00	 9.481481e+00	 9.993623e+00
0	 1.481481e+00	 9.555556e+00	 9.995243e+00
0	 1.481481e+00	 9.629630e+00	 9.996667e+00
0	 1.111111e+00	 9.629630e+00	 9.996001e+00
0	 1.111111e+00	 9.703704e+00	 9.997427e+00
0	 1.111111e+00	 9.777778e+00	 9.998527e+00
0	 1.111111e+00	 9.851852e+00	 9.999318e+00
0	 1.111111e+00	 9.925926e+00	 9.999816e+00
0	 1.111111e+00	 1.000000e+01	 1.000004e+01
0	 1.185185e+00	 9.629630e+00	 9.996119e+00
0	 1.185185e+00	 9.703704e+00	 9.997502e+00
0	 1.185185e+00	 9.777778e+00	 9.998568e+00
0	 1.185185e+00	 9.851852e+00	 9.999334e+00
0	 1.185185e+00	 9.925926e+00	 9.999817e+00
0	 1.185185e+00	 1.000000e+01	 1.000003e+01
0	 1.259259e+00	 9.629630e+00	 9.996250e+00
0	 1.259259e+00	 9.703704e+00	 9.997588e+00
0	 1.259259e+00	 9.777778e+00	 9.998619e+00
0	 1.259259e+00	 9.851852e+00	 9.999360e+00
0	 1.259259e+00	 9.925926e+00	 9.999827e+00
0	 1.259259e+00	 1.000000e+01	 1.000003e+01
0	 1.333333e+00	 9.629630e+00	 9.996389e+00
0	 1.333333e+00	 9.703704e+00	 9.997679e+00
0	 1.333333e+00	 9.777778e+00	 9.998674e+00
0	 1.333333e+00	 9.851852e+00	 9.999389e+00
0	 1.333333e+00	 9.925926e+00	 9.999839e+00
0	 1.333333e+00	 1.000000e+01	 1.000004e+01
0	 1.407407e+00	 9.629630e+00	 9.996529e+00
0	 1.407407e+00	 9.703704e+00	 9.997770e+00
0	 1.407407e+00	 9.777778e+00	 9.998727e+00
0	 1.407407e+00	 9.851852e+00	 9.999415e+00
0	 1.407407e+00	 9.925926e+00	 9.999848e+00
0	 1.407407e+00	 1.000000e+01	 1.000004e+01
0	 1.481481e+00	 9.629630e+00	 9.996667e+00
0	 1.481481e+00	 9.703704e+00	 9.997857e+00
0	 1.481481e+00	 9.777778e+00	 9.998774e+00
0	 1.481481e+00	 9.851852e+00	 9.999433e+00
0	 1.481481e+00	 9.925926e+00	 9.999848e+00
0	 1.481481e+00	 1.000000e+01	 1.000003e+01
0	 1.481481e+00	 0.000000e+00	-2.118894e+00
0	 1.481481e+00	 7.407407e-02	-3.750631e-01
0	 1.481481e+00	 1.481481e-01	 1.091325e+00
0	 1.481481e+00	 2.222222e-01	 2.284123e+00
0	 1.481481e+00	 2.962963e-01	 3.207182e+00
0	 1.481481e+00	 3.703704e-01	 3.864356e+00
0	 1.555556e+00	 0.000000e+00	-1.890624e+00
0	 1.555556e+00	 7.407407e-02	-2.106223e-01
0	 1.555556e+00	 1.481481e-01	 1.726646e+00
0	 1.555556e+00	 2.222222e-01	 3.707051e+00
0	 1.555556e+00	 2.962963e-01	 5.516465e+00
0	 1.555556e+00	 3.703704e-01	 6.940758e+00
0	 1.629630e+00	 0.000000e+00	-9.401688e-01
0	 1.629630e+00	 7.407407e-02	 5.092892e-01
0	 1.629630e+00	 1.481481e-01	 2.585737e+00
0	 1.629630e+00	 2.222222e-01	 4.936971e+00
0	 1.629630e+00	 2.962963e-01	 7.210787e+00
0	 1.629630e+00	 3.703704e-01	 9.054982e+00
0	 1.703704e+00	 0.000000e+00	 7.169743e-01
0	 1.703704e+00	 7.407407e-02	 1.836262e+00
0	 1.703704e+00	 1.481481e-01	 3.775631e+00
0	 1.703704e+00	 2.222222e-01	 6.124710e+00
0	 1.703704e+00	 2.962963e-01	 8.473128e+00
0	 1.703704e+00	 3.703704e-01	 1.041052e+01
0	 1.777778e+00	 0.000000e+00	 3.065308e+00
0	 1.777778e+00	 7.407407e-02	 3.821886e+00
0	 1.777778e+00	 1.481481e-01	 5.403361e+00
0	 1.777778e+00	 2.222222e-01	 7.421100e+00
0	 1.777778e+00	 2.962963e-01	 9.486472e+00
0	 1.777778e+00	 3.703704e-01	 1.121085e+01
0	 1.851852e+00	 0.000000e+00	 6.089334e+00
0	 1.851852e+00	 7.407407e-02	 6.517752e+00
0	 1.851852e+00	 1.481481e-01	 7.575960e+00
0	 1.851852e+00	 2.222222e-01	 8.976970e+00
0	 1.851852e+00	 2.962963e-01	 1.043380e+01
0	 1.851852e+00	 3.703704e-01	 1.165946e+01
0	 1.481481e+00	 3.703704e-01	 3.864356e+00
0	 1.481481e+00	 4.444444e-01	 4.595973e+00
0	 1.481481e+00	 5.185185e-01	 5.741977e+00
0	 1.481481e+00	 5.925926e-01	 7.305635e+00
0	 1.481481e+00	 6.666667e-01	 9.290215e+00
0	 1.481481e+00	 7.407407e-01	 1.169899e+01
0	 1.555556e+00	 3.703704e-01	 6.940758e+00
0	 1.555556e+00	 4.444444e-01	 8.034050e+00
0	 1.555556e+00	 5.185185e-01	 9.042545e+00
0	 1.555556e+00	 5.925926e-01	 1.004024e+01
0	 1.555556e+00	 6.666667e-01	 1.110113e+01
0	 1.555556e+00	 7.407407e-01	 1.229922e+01
0	 1.629630e+00	 3.703704e-01	 9.054982e+00
0	 1.629630e+00	 4.444444e-01	 1.033422e+01
0	 1.629630e+00	 5.185185e-01	 1.122730e+01
0	 1.629630e+00	 5.925926e-01	 1.185324e+01
0	 1.629630e+00	 6.666667e-01	 1.233107e+01
0	 1.629630e+00	 7.407407e-01	 1.277980e+01
0	 1.703704e+00	 3.703704e-01	 1.041052e+01
0	 1.703704e+00	 4.444444e-01	 1.170151e+01
0	 1.703704e+00	 5.185185e-01	 1.247655e+01
0	 1.703704e+00	 5.925926e-01	 1.287397e+01
0	 1.703704e+00	 6.666667e-01	 1.303210e+01
0	 1.703704e+00	 7.407407e-01	 1.308928e+01
0	 1.777778e+00	 3.703704e-01	 1.121085e+01
0	 1.777778e+00	 4.444444e-01	 1.234096e+01
0	 1.777778e+00	 5.185185e-01	 1.297062e+01
0	 1.777778e+00	 5.925926e-01	 1.323175e+01
0	 1.777778e+00	 6.666667e-01	 1.325630e+01
0	 1.777778e+00	 7.407407e-01	 1.317621e+01
0	 1.851852e+00	 3.703704e-01	 1.165946e+01
0	 1.851852e+00	 4.444444e-01	 1.245762e+01
0	 1.851852e+00	 5.185185e-01	 1.288983e+01
0	 1.851852e+00	 5.925926e-01	 1.305592e+01
0	 1.851852e+00	 6.666667e-01	 1.305575e+01
0	 1.851852e+00	 7.407407e-01	 1.298914e+01
0	 1.481481e+00	 7.407407e-01	 1.169899e+01
0	 1.481481e+00	 8.148148e-01	 1.398680e+01
0	 1.481481e+00	 8.888889e-01	 1.557116e+01
0	 1.481481e+00	 9.629630e-01	 1.639931e+01
0	 1.481481e+00	 1.037037e+00	 1.641850e+01
0	 1.481481e+00	 1.111111e+00	 1.557596e+01
0	 1.555556e+00	 7.407407e-01	 1.229922e+01
0	 1.555556e+00	 8.148148e-01	 1.342816e+01
0	 1.555556e+00	 8.888889e-01	 1.420811e+01
0	 1.555556e+00	 9.629630e-01	 1.460282e+01
0	 1.555556e+00	 1.037037e+00	 1.457604e+01
0	 1.555556e+00	 1.111111e+00	 1.409152e+01
0	 1.629630e+00	 7.407407e-01	 1.277980e+01
0	 1.629630e+00	 8.148148e-01	 1.319270e+01
0	 1.629630e+00	 8.888889e-01	 1.346834e+01
0	 1.629630e+00	 9.629630e-01	 1.358366e+01
0	 1.629630e+00	 1.037037e+00	 1.351562e+01
0	 1.629630e+00	 1.111111e+00	 1.324117e+01
0	 1.703704e+00	 7.407407e-01	 1.308928e+01
0	 1.703704e+00	 8.148148e-01	 1.313024e+01
0	 1.703704e+00	 8.888889e-01	 1.313875e+01
0	 1.703704e+00	 9.629630e-01	 1.310165e+01
0	 1.703704e+00	 1.037037e+00	 1.300578e+01
0	 1.703704e+00	 1.111111e+00	 1.283801e+01
0	 1.777778e+00	 7.407407e-01	 1.317621e+01
0	 1.777778e+00	 8.148148e-01	 1.309059e+01
0	 1.777778e+00	 8.888889e-01	 1.300623e+01
0	 1.777778e+00	 9.629630e-01	 1.291658e+01
0	 1.777778e+00	 1.037037e+00	 1.281508e+01
0	 1.777778e+00	 1.111111e+00	 1.269516e+01
0	 1.851852e+00	 7.407407e-01	 1.298914e+01
0	 1.851852e+00	 8.148148e-01	 1.292356e+01
0	 1.851852e+00	 8.888889e-01	 1.285769e+01
0	 1.851852e+00	 9.629630e-01	 1.278828e+01
0	 1.851852e+00	 1.037037e+00	 1.271205e+01
0	 1.851852e+00	 1.111111e+00	 1.262575e+01
0	 1.481481e+00	 1.111111e+00	 1.557596e+01
0	 1.481481e+00	 1.185185e+00	 1.436202e+01
0	 1.481481e+00	 1.259259e+00	 1.332613e+01
0	 1.481481e+00	 1.333333e+00	 1.250426e+01
0	 1.481481e+00	 1.407407e+00	 1.193235e+01
0	 1.481481e+00	 1.481481e+00	 1.164634e+01
0	 1.555556e+00	 1.111111e+00	 1.409152e+01
0	 1.555556e+00	 1.185185e+00	 1.340301e+01
0	 1.555556e+00	 1.259259e+00	 1.280404e+01
0	 1.555556e+00	 1.333333e+00	 1.231802e+01
0	 1.555556e+00	 1.407407e+00	 1.196839e+01
0	 1.555556e+00	 1.481481e+00	 1.177855e+01
0	 1.629630e+00	 1.111111e+00	 1.324117e+01
0	 1.629630e+00	 1.185185e+00	 1.286954e+01
0	 1.629630e+00	 1.259259e+00	 1.253442e+01
0	 1.629630e+00	 1.333333e+00	 1.224946e+01
0	 1.629630e+00	 1.407407e+00	 1.202828e+01
0	 1.629630e+00	 1.481481e+00	 1.188451e+01
0	 1.703704e+00	 1.111111e+00	 1.283801e+01
0	 1.703704e+00	 1.185185e+00	 1.263213e+01
0	 1.703704e+00	 1.259259e+00	 1.243513e+01
0	 1.703704e+00	 1.333333e+00	 1.225360e+01
0	 1.703704e+00	 1.407407e+00	 1.209412e+01
0	 1.703704e+00	 1.481481e+00	 1.196329e+01
0	 1.777778e+00	 1.111111e+00	 1.269516e+01
0	 1.777778e+00	 1.185185e+00	 1.256134e+01
0	 1.777778e+00	 1.259259e+00	 1.242401e+01
0	 1.777778e+00	 1.333333e+00	 1.228547e+01
0	 1.777778e+00	 1.407407e+00	 1.214802e+01
0	 1.777778e+00	 1.481481e+00	 1.201394e+01
0	 1.851852e+00	 1.111111e+00	 1.262575e+01
0	 1.851852e+00	 1.185185e+00	 1.252770e+01
0	 1.851852e+00	 1.259259e+00	 1.241892e+01
0	 1.851852e+00	 1.333333e+00	 1.230013e+01
0	 1.851852e+00	 1.407407e+00	 1.217208e+01
0	 1.851852e+00	 1.481481e+00	 1.203551e+01
0	 1.481481e+00	 1.481481e+00	 1.164634e+01
0	 1.481481e+00	 1.555556e+00	 1.151065e+01
0	 1.481481e+00	 1.629630e+00	 1.136572e+01
0	 1.481481e+00	 1.703704e+00	 1.121149e+01
0	 1.481481e+00	 1.777778e+00	 1.104793e+01
0	 1.481481e+00	 1.851852e+00	 1.087501e+01
0	 1.555556e+00	 1.481481e+00	 1.177855e+01
0	 1.555556e+00	 1.555556e+00	 1.166832e+01
0	 1.555556e+00	 1.629630e+00	 1.154148e+01
0	 1.555556e+00	 1.703704e+00	 1.139745e+01
0	 1.555556e+00	 1.777778e+00	 1.123559e+01
0	 1.555556e+00	 1.851852e+00	 1.105530e+01
0	 1.629630e+00	 1.481481e+00	 1.188451e+01
0	 1.629630e+00	 1.555556e+00	 1.177676e+01
0	 1.629630e+00	 1.629630e+00	 1.165379e+01
0	 1.629630e+00	 1.703704e+00	 1.151450e+01
0	 1.629630e+00	 1.777778e+00	 1.135778e+01
0	 1.629630e+00	 1.851852e+00	 1.118252e+01
0	 1.703704e+00	 1.481481e+00	 1.196329e+01
0	 1.703704e+00	 1.555556e+00	 1.184516e+01
0	 1.703704e+00	 1.629630e+00	 1.171834e+01
0	 1.703704e+00	 1.703704e+00	 1.158133e+01
0	 1.703704e+00	 1.777778e+00	 1.143259e+01
0	 1.703704e+00	 1.851852e+00	 1.127060e+01
0	 1.777778e+00	 1.481481e+00	 1.201394e+01
0	 1.777778e+00	 1.555556e+00	 1.188266e+01
0	 1.777778e+00	 1.629630e+00	 1.175084e+01
0	 1.777778e+00	 1.703704e+00	 1.161661e+01
0	 1.777778e+00	 1.777778e+00	 1.147811e+01
0	 1.777778e+00	 1.851852e+00	 1.133347e+01
0	 1.851852e+00	 1.481481e+00	 1.203551e+01
0	 1.851852e+00	 1.555556e+00	 1.189845e+01
0	 1.851852e+00	 1.629630e+00	 1.176699e+01
0	 1.851852e+00	 1.703704e+00	 1.163902e+01
0	 1.851852e+00	 1.777778e+00	 1.151241e+01
0	 1.851852e+00	 1.851852e+00	 1.138505e+01
0	 1.481481e+00	 1.851852e+00	 1.087501e+01
0	 1.481481e+00	 1.925926e+00	 1.070712e+01
0	 1.481481e+00	 2.000000e+00	 1.055763e+01
0	 1.481481e+00	 2.074074e+00	 1.042500e+01
0	 1.481481e+00	 2.148148e+00	 1.030770e+01
0	 1.481481e+00	 2.222222e+00	 1.020418e+01
0	 1.555556e+00	 1.851852e+00	 1.105530e+01
0	 1.555556e+00	 1.925926e+00	 1.087718e+01
0	 1.555556e+00	 2.000000e+00	 1.072091e+01
0	 1.555556e+00	 2.074074e+00	 1.058450e+01
0	 1.555556e+00	 2.148148e+00	 1.046595e+01
0	 1.555556e+00	 2.222222e+00	 1.036328e+01
0	 1.629630e+00	 1.851852e+00	 1.118252e+01
0	 1.629630e+00	 1.925926e+00	 1.100894e+01
0	 1.629630e+00	 2.000000e+00	 1.085653e+01
0	 1.629630e+00	 2.074074e+00	 1.072313e+01
0	 1.629630e+00	 2.148148e+00	 1.060658e+01
0	 1.629630e+00	 2.222222e+00	 1.050471e+01
0	 1.703704e+00	 1.851852e+00	 1.127060e+01
0	 1.703704e+00	 1.925926e+00	 1.111104e+01
0	 1.703704e+00	 2.000000e+00	 1.096919e+01
0	 1.703704e+00	 2.074074e+00	 1.084300e+01
0	 1.703704e+00	 2.148148e+00	 1.073039e+01
0	 1.703704e+00	 2.222222e+00	 1.062929e+01
0	 1.777778e+00	 1.851852e+00	 1.133347e+01
0	 1.777778e+00	 1.925926e+00	 1.119213e+01
0	 1.777778e+00	 2.000000e+00	 1.106360e+01
0	 1.777778e+00	 2.074074e+00	 1.094618e+01
0	 1.777778e+00	 2.148148e+00	 1.083817e+01
0	 1.777778e+00	 2.222222e+00	 1.073786e+01
0	 1.851852e+00	 1.851852e+00	 1.138505e+01
0	 1.851852e+00	 1.925926e+00	 1.126085e+01
0	 1.851852e+00	 2.000000e+00	 1.114445e+01
0	 1.851852e+00	 2.074074e+00	 1.103476e+01
0	 1.851852e+00	 2.148148e+00	 1.093072e+01
0	 1.851852e+00	 2.222222e+00	 1.083126e+01
0	 1.481481e+00	 2.222222e+00	 1.020418e+01
0	 1.481481e+00	 2.296296e+00	 1.011084e+01
0	 1.481481e+00	 2.370370e+00	 1.002533e+01
0	 1.481481e+00	 2.444444e+00	 9.948024e+00
0	 1.481481e+00	 2.518519e+00	 9.879287e+00
0	 1.481481e+00	 2.592593e+00	 9.819486e+00
0	 1.555556e+00	 2.222222e+00	 1.036328e+01
0	 1.555556e+00	 2.296296e+00	 1.027050e+01
0	 1.555556e+00	 2.370370e+00	 1.018332e+01
0	 1.555556e+00	 2.444444e+00	 1.010239e+01
0	 1.555556e+00	 2.518519e+00	 1.002831e+01
0	 1.555556e+00	 2.592593e+00	 9.961731e+00
0	 1.629630e+00	 2.222222e+00	 1.050471e+01
0	 1.629630e+00	 2.296296e+00	 1.041149e+01
0	 1.629630e+00	 2.370370e+00	 1.032283e+01
0	 1.629630e+00	 2.444444e+00	 1.023943e+01
0	 1.629630e+00	 2.518519e+00	 1.016200e+01
0	 1.629630e+00	 2.592593e+00	 1.009125e+01
0	 1.703704e+00	 2.222222e+00	 1.062929e+01
0	 1.703704e+00	 2.296296e+00	 1.053524e+01
0	 1.703704e+00	 2.370370e+00	 1.044556e+01
0	 1.703704e+00	 2.444444e+00	 1.036089e+01
0	 1.703704e+00	 2.518519e+00	 1.028181e+01
0	 1.703704e+00	 2.592593e+00	 1.020897e+01
0	 1.777778e+00	 2.222222e+00	 1.073786e+01
0	 1.777778e+00	 2.296296e+00	 1.064313e+01
0	 1.777778e+00	 2.370370e+00	 1.055321e+01
0	 1.777778e+00	 2.444444e+00	 1.046846e+01
0	 1.777778e+00	 2.518519e+00	 1.038921e+01
0	 1.777778e+00	 2.592593e+00	 1.031581e+01
0	 1.851852e+00	 2.222222e+00	 1.083126e+01
0	 1.851852e+00	 2.296296e+00	 1.073657e+01
0	 1.851852e+00	 2.370370e+00	 1.064747e+01
0	 1.851852e+00	 2.444444e+00	 1.056386e+01
0	 1.851852e+00	 2.518519e+00	 1.048564e+01
0	 1.851852e+00	 2.592593e+00	 1.041271e+01
0	 1.481481e+00	 2.592593e+00	 9.819486e+00
0	 1.481481e+00	 2.666667e+00	 9.767274e+00
0	 1.481481e+00	 2.740741e+00	 9.721014e+00
0	 1.481481e+00	 2.814815e+00	 9.680638e+00
0	 1.481481e+00	 2.888889e+00	 9.646079e+00
0	 1.481481e+00	 2.962963e+00	 9.617271e+00
0	 1.555556e+00	 2.592593e+00	 9.961731e+00
0	 1.555556e+00	 2.666667e+00	 9.902655e+00
0	 1.555556e+00	 2.740741e+00	 9.850478e+00
0	 1.555556e+00	 2.814815e+00	 9.804889e+00
0	 1.555556e+00	 2.888889e+00	 9.765580e+00
0	 1.555556e+00	 2.962963e+00	 9.732240e+00
0	 1.629630e+00	 2.592593e+00	 1.009125e+01
0	 1.629630e+00	 2.666667e+00	 1.002779e+01
0	 1.629630e+00	 2.740741e+00	 9.971467e+00
0	 1.629630e+00	 2.814815e+00	 9.921840e+00
0	 1.629630e+00	 2.888889e+00	 9.878461e+00
0	 1.629630e+00	 2.962963e+00	 9.840884e+00
0	 1.703704e+00	 2.592593e+00	 1.020897e+01
0	 1.703704e+00	 2.666667e+00	 1.014301e+01
0	 1.703704e+00	 2.740741e+00	 1.008390e+01
0	 1.703704e+00	 2.814815e+00	 1.003116e+01
0	 1.703704e+00	 2.888889e+00	 9.984312e+00
0	 1.703704e+00	 2.962963e+00	 9.942879e+00
0	 1.777778e+00	 2.592593e+00	 1.031581e+01
0	 1.777778e+00	 2.666667e+00	 1.024867e+01
0	 1.777778e+00	 2.740741e+00	 1.018771e+01
0	 1.777778e+00	 2.814815e+00	 1.013253e+01
0	 1.777778e+00	 2.888889e+00	 1.008273e+01
0	 1.777778e+00	 2.962963e+00	 1.003790e+01
0	 1.851852e+00	 2.592593e+00	 1.041271e+01
0	 1.851852e+00	 2.666667e+00	 1.034511e+01
0	 1.851852e+00	 2.740741e+00	 1.028282e+01
0	 1.851852e+00	 2.814815e+00	 1.022562e+01
0	 1.851852e+00	 2.888889e+00	 1.017329e+01
0	 1.851852e+00	 2.962963e+00	 1.012563e+01
0	 1.481481e+00	 2.962963e+00	 9.617271e+00
0	 1.481481e+00	 3.037037e+00	 9.592718e+00
0	 1.481481e+00	 3.111111e+00	 9.571138e+00
0	 1.481481e+00	 3.185185e+00	 9.552779e+00
0	 1.481481e+00	 3.259259e+00	 9.537891e+00
0	 1.481481e+00	 3.333333e+00	 9.526722e+00
0	 1.555556e+00	 2.962963e+00	 9.732240e+00
0	 1.555556e+00	 3.037037e+00	 9.703034e+00
0	 1.555556e+00	 3.111111e+00	 9.676569e+00
0	 1.555556e+00	 3.185185e+00	 9.653204e+00
0	 1.555556e+00	 3.259259e+00	 9.633296e+00
0	 1.555556e+00	 3.333333e+00	 9.617204e+00
0	 1.629630e+00	 2.962963e+00	 9.840884e+00
0	 1.629630e+00	 3.037037e+00	 9.807300e+00
0	 1.629630e+00	 3.111111e+00	 9.776462e+00
0	 1.629630e+00	 3.185185e+00	 9.748774e+00
0	 1.629630e+00	 3.259259e+00	 9.724638e+00
0	 1.629630e+00	 3.333333e+00	 9.704456e+00
0	 1.703704e+00	 2.962963e+00	 9.942879e+00
0	 1.703704e+00	 3.037037e+00	 9.905329e+00
0	 1.703704e+00	 3.111111e+00	 9.870701e+00
0	 1.703704e+00	 3.185185e+00	 9.839378e+00
0	 1.703704e+00	 3.259259e+00	 9.811742e+00
0	 1.703704e+00	 3.333333e+00	 9.788177e+00
0	 1.777778e+00	 2.962963e+00	 1.003790e+01
0	 1.777778e+00	 3.037037e+00	 9.996937e+00
0	 1.777778e+00	 3.111111e+00	 9.959171e+00
0	 1.777778e+00	 3.185185e+00	 9.924905e+00
0	 1.777778e+00	 3.259259e+00	 9.894436e+00
0	 1.777778e+00	 3.333333e+00	 9.868065e+00
0	 1.851852e+00	 2.962963e+00	 1.012563e+01
0	 1.851852e+00	 3.037037e+00	 1.008194e+01
0	 1.851852e+00	 3.111111e+00	 1.004176e+01
0	 1.851852e+00	 3.185185e+00	 1.000524e+01
0	 1.851852e+00	 3.259259e+00	 9.972546e+00
0	 1.851852e+00	 3.333333e+00	 9.943817e+00
0	 1.481481e+00	 3.333333e+00	 9.526722e+00
0	 1.481481e+00	 3.407407e+00	 9.518366e+00
0	 1.481481e+00	 3.481481e+00	 9.511816e+00
0	 1.481481e+00	 3.555556e+00	 9.507172e+00
0	 1.481481e+00	 3.629630e+00	 9.504530e+00
0	 1.481481e+00	 3.703704e+00	 9.503990e+00
0	 1.555556e+00	 3.333333e+00	 9.617204e+00
0	 1.555556e+00	 3.407407e+00	 9.604255e+00
0	 1.555556e+00	 3.481481e+00	 9.593543e+00
0	 1.555556e+00	 3.555556e+00	 9.585071e+00
0	 1.555556e+00	 3.629630e+00	 9.578844e+00
0	 1.555556e+00	 3.703704e+00	 9.574866e+00
0	 1.629630e+00	 3.333333e+00	 9.704456e+00
0	 1.629630e+00	 3.407407e+00	 9.687625e+00
0	 1.629630e+00	 3.481481e+00	 9.673236e+00
0	 1.629630e+00	 3.555556e+00	 9.661237e+00
0	 1.629630e+00	 3.629630e+00	 9.651578e+00
0	 1.629630e+00	 3.703704e+00	 9.644207e+00
0	 1.703704e+00	 3.333333e+00	 9.788177e+00
0	 1.703704e+00	 3.407407e+00	 9.768038e+00
0	 1.703704e+00	 3.481481e+00	 9.750378e+00
0	 1.703704e+00	 3.555556e+00	 9.735129e+00
0	 1.703704e+00	 3.629630e+00	 9.722221e+00
0	 1.703704e+00	 3.703704e+00	 9.711583e+00
0	 1.777778e+00	 3.333333e+00	 9.868065e+00
0	 1.777778e+00	 3.407407e+00	 9.845059e+00
0	 1.777778e+00	 3.481481e+00	 9.824455e+00
0	 1.777778e+00	 3.555556e+00	 9.806205e+00
0	 1.777778e+00	 3.629630e+00	 9.790259e+00
0	 1.777778e+00	 3.703704e+00	 9.776566e+00
0	 1.851852e+00	 3.333333e+00	 9.943817e+00
0	 1.851852e+00	 3.407407e+00	 9.918251e+00
0	 1.851852e+00	 3.481481e+00	 9.894950e+00
0	 1.851852e+00	 3.555556e+00	 9.873924e+00
0	 1.851852e+00	 3.629630e+00	 9.855180e+00
0	 1.851852e+00	 3.703704e+00	 9.838727e+00
0	 1.481481e+00	 3.703704e+00	 9.503990e+00
0	 1.481481e+00	 3.777778e+00	 9.504945e+00
0	 1.481481e+00	 3.851852e+00	 9.506769e+00
0	 1.481481e+00	 3.925926e+00	 9.509537e+00
0	 1.481481e+00	 4.000000e+00	 9.513319e+00
0	 1.481481e+00	 4.074074e+00	 9.518190e+00
0	 1.555556e+00	 3.703704e+00	 9.574866e+00
0	 1.555556e+00	 3.777778e+00	 9.572419e+00
0	 1.555556e+00	 3.851852e+00	 9.570866e+00
0	 1.555556e+00	 3.925926e+00	 9.570335e+00
0	 1.555556e+00	 4.000000e+00	 9.570955e+00
0	 1.555556e+00	 4.074074e+00	 9.572855e+00
0	 1.629630e+00	 3.703704e+00	 9.644207e+00
0	 1.629630e+00	 3.777778e+00	 9.638415e+00
0	 1.629630e+00	 3.851852e+00	 9.633637e+00
0	 1.629630e+00	 3.925926e+00	 9.630030e+00
0	 1.629630e+00	 4.000000e+00	 9.627754e+00
0	 1.629630e+00	 4.074074e+00	 9.626966e+00
0	 1.703704e+00	 3.703704e+00	 9.711583e+00
0	 1.703704e+00	 3.777778e+00	 9.702600e+00
0	 1.703704e+00	 3.851852e+00	 9.694809e+00
0	 1.703704e+00	 3.925926e+00	 9.688375e+00
0	 1.703704e+00	 4.000000e+00	 9.683461e+00
0	 1.703704e+00	 4.074074e+00	 9.680230e+00
0	 1.777778e+00	 3.703704e+00	 9.776566e+00
0	 1.777778e+00	 3.777778e+00	 9.764637e+00
0	 1.777778e+00	 3.851852e+00	 9.754107e+00
0	 1.777778e+00	 3.925926e+00	 9.745122e+00
0	 1.777778e+00	 4.000000e+00	 9.737824e+00
0	 1.777778e+00	 4.074074e+00	 9.732357e+00
0	 1.851852e+00	 3.703704e+00	 9.838727e+00
0	 1.851852e+00	 3.777778e+00	 9.824190e+00
0	 1.851852e+00	 3.851852e+00	 9.811257e+00
0	 1.851852e+00	 3.925926e+00	 9.800024e+00
0	 1.851852e+00	 4.000000e+00	 9.790590e+00
0	 1.851852e+00	 4.074074e+00	 9.783052e+00
0	 1.481481e+00	 4.074074e+00	 9.518190e+00
0	 1.481481e+00	 4.148148e+00	 9.523834e+00
0	 1.481481e+00	 4.222222e+00	 9.529933e+00
0	 1.481481e+00	 4.296296e+00	 9.536559e+00
0	 1.481481e+00	 4.370370e+00	 9.543782e+00
0	 1.481481e+00	 4.444444e+00	 9.551672e+00
0	 1.555556e+00	 4.074074e+00	 9.572855e+00
0	 1.555556e+00	 4.148148e+00	 9.575757e+00
0	 1.555556e+00	 4.222222e+00	 9.579322e+00
0	 1.555556e+00	 4.296296e+00	 9.583584e+00
0	 1.555556e+00	 4.370370e+00	 9.588578e+00
0	 1.555556e+00	 4.444444e+00	 9.594338e+00
0	 1.629630e+00	 4.074074e+00	 9.626966e+00
0	 1.629630e+00	 4.148148e+00	 9.627364e+00
0	 1.629630e+00	 4.222222e+00	 9.628547e+00
0	 1.629630e+00	 4.296296e+00	 9.630528e+00
0	 1.629630e+00	 4.370370e+00	 9.633320e+00
0	 1.629630e+00	 4.444444e+00	 9.636933e+00
0	 1.703704e+00	 4.074074e+00	 9.680230e+00
0	 1.703704e+00	 4.148148e+00	 9.678318e+00
0	 1.703704e+00	 4.222222e+00	 9.677251e+00
0	 1.703704e+00	 4.296296e+00	 9.677034e+00
0	 1.703704e+00	 4.370370e+00	 9.677672e+00
0	 1.703704e+00	 4.444444e+00	 9.679168e+00
0	 1.777778e+00	 4.074074e+00	 9.732357e+00
0	 1.777778e+00	 4.148148e+00	 9.728282e+00
0	 1.777778e+00	 4.222222e+00	 9.725074e+00
0	 1.777778e+00	 4.296296e+00	 9.722743e+00
0	 1.777778e+00	 4.370370e+00	 9.721299e+00
0	 1.777778e+00	 4.444444e+00	 9.720754e+00
0	 1.851852e+00	 4.074074e+00	 9.783052e+00
0	 1.851852e+00	 4.148148e+00	 9.776920e+00
0	 1.851852e+00	 4.222222e+00	 9.771658e+00
0	 1.851852e+00	 4.296296e+00	 9.767297e+00
0	 1.851852e+00	 4.370370e+00	 9.763868e+00
0	 1.851852e+00	 4.444444e+00	 9.761401e+00
0	 1.481481e+00	 4.444444e+00	 9.551672e+00
0	 1.481481e+00	 4.518519e+00	 9.559976e+00
0	 1.481481e+00	 4.592593e+00	 9.568411e+00
0	 1.481481e+00	 4.666667e+00	 9.576996e+00
0	 1.481481e+00	 4.740741e+00	 9.585751e+00
0	 1.481481e+00	 4.814815e+00	 9.594699e+00
0	 1.555556e+00	 4.444444e+00	 9.594338e+00
0	 1.555556e+00	 4.518519e+00	 9.600569e+00
0	 1.555556e+00	 4.592593e+00	 9.606982e+00
0	 1.555556e+00	 4.666667e+00	 9.613621e+00
0	 1.555556e+00	 4.740741e+00	 9.620531e+00
0	 1.555556e+00	 4.814815e+00	 9.627758e+00
0	 1.629630e+00	 4.444444e+00	 9.636933e+00
0	 1.629630e+00	 4.518519e+00	 9.641079e+00
0	 1.629630e+00	 4.592593e+00	 9.645496e+00
0	 1.629630e+00	 4.666667e+00	 9.650246e+00
0	 1.629630e+00	 4.740741e+00	 9.655385e+00
0	 1.629630e+00	 4.814815e+00	 9.660975e+00
0	 1.703704e+00	 4.444444e+00	 9.679168e+00
0	 1.703704e+00	 4.518519e+00	 9.681267e+00
0	 1.703704e+00	 4.592593e+00	 9.683752e+00
0	 1.703704e+00	 4.666667e+00	 9.686687e+00
0	 1.703704e+00	 4.740741e+00	 9.690137e+00
0	 1.703704e+00	 4.814815e+00	 9.694165e+00
0	 1.777778e+00	 4.444444e+00	 9.720754e+00
0	 1.777778e+00	 4.518519e+00	 9.720895e+00
0	 1.777778e+00	 4.592593e+00	 9.721544e+00
0	 1.777778e+00	 4.666667e+00	 9.722762e+00
0	 1.777778e+00	 4.740741e+00	 9.724608e+00
0	 1.777778e+00	 4.814815e+00	 9.727144e+00
0	 1.851852e+00	 4.444444e+00	 9.761401e+00
0	 1.851852e+00	 4.518519e+00	 9.759723e+00
0	 1.851852e+00	 4.592593e+00	 9.758670e+00
0	 1.851852e+00	 4.666667e+00	 9.758288e+00
0	 1.851852e+00	 4.740741e+00	 9.758624e+00
0	 1.851852e+00	 4.814815e+00	 9.759725e+00
0	 1.481481e+00	 4.814815e+00	 9.594699e+00
0	 1.481481e+00	 4.888889e+00	 9.603752e+00
0	 1.481481e+00	 4.962963e+00	 9.612835e+00
0	 1.481481e+00	 5.037037e+00	 9.621978e+00
0	 1.481481e+00	 5.111111e+00	 9.631215e+00
0	 1.481481e+00	 5.185185e+00	 9.640579e+00
0	 1.555556e+00	 4.814815e+00	 9.627758e+00
0	 1.555556e+00	 4.888889e+00	 9.635212e+00
0	 1.555556e+00	 4.962963e+00	 9.642792e+00
0	 1.555556e+00	 5.037037e+00	 9.650518e+00
0	 1.555556e+00	 5.111111e+00	 9.658410e+00
0	 1.555556e+00	 5.185185e+00	 9.666488e+00
0	 1.629630e+00	 4.814815e+00	 9.660975e+00
0	 1.629630e+00	 4.888889e+00	 9.666901e+00
0	 1.629630e+00	 4.962963e+00	 9.673020e+00
0	 1.629630e+00	 5.037037e+00	 9.679344e+00
0	 1.629630e+00	 5.111111e+00	 9.685888e+00
0	 1.629630e+00	 5.185185e+00	 9.692665e+00
0	 1.703704e+00	 4.814815e+00	 9.694165e+00
0	 1.703704e+00	 4.888889e+00	 9.698621e+00
0	 1.703704e+00	 4.962963e+00	 9.703316e+00
0	 1.703704e+00	 5.037037e+00	 9.708261e+00
0	 1.703704e+00	 5.111111e+00	 9.713467e+00
0	 1.703704e+00	 5.185185e+00	 9.718946e+00
0	 1.777778e+00	 4.814815e+00	 9.727144e+00
0	 1.777778e+00	 4.888889e+00	 9.730175e+00
0	 1.777778e+00	 4.962963e+00	 9.733479e+00
0	 1.777778e+00	 5.037037e+00	 9.737070e+00
0	 1.777778e+00	 5.111111e+00	 9.740960e+00
0	 1.777778e+00	 5.185185e+00	 9.745163e+00
0	 1.851852e+00	 4.814815e+00	 9.759725e+00
0	 1.851852e+00	 4.888889e+00	 9.761366e+00
0	 1.851852e+00	 4.962963e+00	 9.763309e+00
0	 1.851852e+00	 5.037037e+00	 9.765574e+00
0	 1.851852e+00	 5.111111e+00	 9.768181e+00
0	 1.851852e+00	 5.185185e+00	 9.771154e+00
0	 1.481481e+00	 5.185185e+00	 9.640579e+00
0	 1.481481e+00	 5.259259e+00	 9.649970e+00
0	 1.481481e+00	 5.333333e+00	 9.659273e+00
0	 1.481481e+00	 5.407407e+00	 9.668496e+00
0	 1.481481e+00	 5.481481e+00	 9.677649e+00
0	 1.481481e+00	 5.555556e+00	 9.686741e+00
0	 1.555556e+00	 5.185185e+00	 9.666488e+00
0	 1.555556e+00	 5.259259e+00	 9.674639e+00
0	 1.555556e+00	 5.333333e+00	 9.682744e+00
0	 1.555556e+00	 5.407407e+00	 9.690821e+00
0	 1.555556e+00	 5.481481e+00	 9.698887e+00
0	 1.555556e+00	 5.555556e+00	 9.706961e+00
0	 1.629630e+00	 5.185185e+00	 9.692665e+00
0	 1.629630e+00	 5.259259e+00	 9.699561e+00
0	 1.629630e+00	 5.333333e+00	 9.706466e+00
0	 1.629630e+00	 5.407407e+00	 9.713403e+00
0	 1.629630e+00	 5.481481e+00	 9.720397e+00
0	 1.629630e+00	 5.555556e+00	 9.727470e+00
0	 1.703704e+00	 5.185185e+00	 9.718946e+00
0	 1.703704e+00	 5.259259e+00	 9.724592e+00
0	 1.703704e+00	 5.333333e+00	 9.730311e+00
0	 1.703704e+00	 5.407407e+00	 9.736128e+00
0	 1.703704e+00	 5.481481e+00	 9.742069e+00
0	 1.703704e+00	 5.555556e+00	 9.748159e+00
0	 1.777778e+00	 5.185185e+00	 9.745163e+00
0	 1.777778e+00	 5.259259e+00	 9.749589e+00
0	 1.777778e+00	 5.333333e+00	 9.754152e+00
0	 1.777778e+00	 5.407407e+00	 9.758878e+00
0	 1.777778e+00	 5.481481e+00	 9.763791e+00
0	 1.777778e+00	 5.555556e+00	 9.768917e+00
0	 1.851852e+00	 5.185185e+00	 9.771154e+00
0	 1.851852e+00	 5.259259e+00	 9.774408e+00
0	 1.851852e+00	 5.333333e+00	 9.777862e+00
0	 1.851852e+00	 5.407407e+00	 9.781537e+00
0	 1.851852e+00	 5.481481e+00	 9.785454e+00
0	 1.851852e+00	 5.555556e+00	 9.789634e+00
0	 1.481481e+00	 5.555556e+00	 9.686741e+00
0	 1.481481e+00	 5.629630e+00	 9.695749e+00
0	 1.481481e+00	 5.703704e+00	 9.704657e+00
0	 1.481481e+00	 5.777778e+00	 9.713479e+00
0	 1.481481e+00	 5.851852e+00	 9.722227e+00
0	 1.481481e+00	 5.925926e+00	 9.730914e+00
0	 1.555556e+00	 5.555556e+00	 9.706961e+00
0	 1.555556e+00	 5.629630e+00	 9.715014e+00
0	 1.555556e+00	 5.703704e+00	 9.723013e+00
0	 1.555556e+00	 5.777778e+00	 9.730968e+00
0	 1.555556e+00	 5.851852e+00	 9.738890e+00
0	 1.555556e+00	 5.925926e+00	 9.746790e+00
0	 1.629630e+00	 5.555556e+00	 9.727470e+00
0	 1.629630e+00	 5.629630e+00	 9.734580e+00
0	 1.629630e+00	 5.703704e+00	 9.741674e+00
0	 1.629630e+00	 5.777778e+00	 9.748761e+00
0	 1.629630e+00	 5.851852e+00	 9.755850e+00
0	 1.629630e+00	 5.925926e+00	 9.762949e+00
0	 1.703704e+00	 5.555556e+00	 9.748159e+00
0	 1.703704e+00	 5.629630e+00	 9.754338e+00
0	 1.703704e+00	 5.703704e+00	 9.760533e+00
0	 1.703704e+00	 5.777778e+00	 9.766753e+00
0	 1.703704e+00	 5.851852e+00	 9.773006e+00
0	 1.703704e+00	 5.925926e+00	 9.779300e+00
0	 1.777778e+00	 5.555556e+00	 9.768917e+00
0	 1.777778e+00	 5.629630e+00	 9.774176e+00
0	 1.777778e+00	 5.703704e+00	 9.779480e+00
0	 1.777778e+00	 5.777778e+00	 9.784838e+00
0	 1.777778e+00	 5.851852e+00	 9.790259e+00
0	 1.777778e+00	 5.925926e+00	 9.795754e+00
0	 1.851852e+00	 5.555556e+00	 9.789634e+00
0	 1.851852e+00	 5.629630e+00	 9.793985e+00
0	 1.851852e+00	 5.703704e+00	 9.798406e+00
0	 1.851852e+00	 5.777778e+00	 9.802910e+00
0	 1.851852e+00	 5.851852e+00	 9.807510e+00
0	 1.851852e+00	 5.925926e+00	 9.812217e+00
0	 1.481481e+00	 5.925926e+00	 9.730914e+00
0	 1.481481e+00	 6.000000e+00	 9.739507e+00
0	 1.481481e+00	 6.074074e+00	 9.747964e+00
0	 1.481481e+00	 6.148148e+00	 9.756290e+00
0	 1.481481e+00	 6.222222e+00	 9.764492e+00
0	 1.481481e+00	 6.296296e+00	 9.772572e+00
0	 1.555556e+00	 5.925926e+00	 9.746790e+00
0	 1.555556e+00	 6.000000e+00	 9.754624e+00
0	 1.555556e+00	 6.074074e+00	 9.762351e+00
0	 1.555556e+00	 6.148148e+00	 9.769979e+00
0	 1.555556e+00	 6.222222e+00	 9.777516e+00
0	 1.555556e+00	 6.296296e+00	 9.784969e+00
0	 1.629630e+00	 5.925926e+00	 9.762949e+00
0	 1.629630e+00	 6.000000e+00	 9.770014e+00
0	 1.629630e+00	 6.074074e+00	 9.777003e+00
0	 1.629630e+00	 6.148148e+00	 9.783928e+00
0	 1.629630e+00	 6.222222e+00	 9.790796e+00
0	 1.629630e+00	 6.296296e+00	 9.797620e+00
0	 1.703704e+00	 5.925926e+00	 9.779300e+00
0	 1.703704e+00	 6.000000e+00	 9.785593e+00
0	 1.703704e+00	 6.074074e+00	 9.791845e+00
0	 1.703704e+00	 6.148148e+00	 9.798066e+00
0	 1.703704e+00	 6.222222e+00	 9.804267e+00
0	 1.703704e+00	 6.296296e+00	 9.810461e+00
0	 1.777778e+00	 5.925926e+00	 9.795754e+00
0	 1.777778e+00	 6.000000e+00	 9.801280e+00
0	 1.777778e+00	 6.074074e+00	 9.806800e+00
0	 1.777778e+00	 6.148148e+00	 9.812324e+00
0	 1.777778e+00	 6.222222e+00	 9.817863e+00
0	 1.777778e+00	 6.296296e+00	 9.823428e+00
0	 1.851852e+00	 5.925926e+00	 9.812217e+00
0	 1.851852e+00	 6.000000e+00	 9.816992e+00
0	 1.851852e+00	 6.074074e+00	 9.821794e+00
0	 1.851852e+00	 6.148148e+00	 9.826632e+00
0	 1.851852e+00	 6.222222e+00	 9.831516e+00
0	 1.851852e+00	 6.296296e+00	 9.836457e+00
0	 1.481481e+00	 6.296296e+00	 9.772572e+00
0	 1.481481e+00	 6.370370e+00	 9.780527e+00
0	 1.481481e+00	 6.444444e+00	 9.788351e+00
0	 1.481481e+00	 6.518519e+00	 9.796051e+00
0	 1.481481e+00	 6.592593e+00	 9.803633e+00
0	 1.481481e+00	 6.666667e+00	 9.811102e+00
0	 1.555556e+00	 6.296296e+00	 9.784969e+00
0	 1.555556e+00	 6.370370e+00	 9.792328e+00
0	 1.555556e+00	 6.444444e+00	 9.799582e+00
0	 1.555556e+00	 6.518519e+00	 9.806734e+00
0	 1.555556e+00	 6.592593e+00	 9.813792e+00
0	 1.555556e+00	 6.666667e+00	 9.820760e+00
0	 1.629630e+00	 6.296296e+00	 9.797620e+00
0	 1.629630e+00	 6.370370e+00	 9.804380e+00
0	 1.629630e+00	 6.444444e+00	 9.811057e+00
0	 1.629630e+00	 6.518519e+00	 9.817655e+00
0	 1.629630e+00	 6.592593e+00	 9.824181e+00
0	 1.629630e+00	 6.666667e+00	 9.830639e+00
0	 1.703704e+00	 6.296296e+00	 9.810461e+00
0	 1.703704e+00	 6.370370e+00	 9.816620e+00
0	 1.703704e+00	 6.444444e+00	 9.822717e+00
0	 1.703704e+00	 6.518519e+00	 9.828756e+00
0	 1.703704e+00	 6.592593e+00	 9.834744e+00
0	 1.703704e+00	 6.666667e+00	 9.840687e+00
0	 1.777778e+00	 6.296296e+00	 9.823428e+00
0	 1.777778e+00	 6.370370e+00	 9.828986e+00
0	 1.777778e+00	 6.444444e+00	 9.834502e+00
0	 1.777778e+00	 6.518519e+00	 9.839981e+00
0	 1.777778e+00	 6.592593e+00	 9.845429e+00
0	 1.777778e+00	 6.666667e+00	 9.850854e+00
0	 1.851852e+00	 6.296296e+00	 9.836457e+00
0	 1.851852e+00	 6.370370e+00	 9.841416e+00
0	 1.851852e+00	 6.444444e+00	 9.846352e+00
0	 1.851852e+00	 6.518519e+00	 9.851271e+00
0	 1.851852e+00	 6.592593e+00	 9.856181e+00
0	 1.851852e+00	 6.666667e+00	 9.861089e+00
0	 1.481481e+00	 6.666667e+00	 9.811102e+00
0	 1.481481e+00	 6.740741e+00	 9.818447e+00
0	 1.481481e+00	 6.814815e+00	 9.825654e+00
0	 1.481481e+00	 6.888889e+00	 9.832726e+00
0	 1.481481e+00	 6.962963e+00	 9.839668e+00
0	 1.481481e+00	 7.037037e+00	 9.846483e+00
0	 1.555556e+00	 6.666667e+00	 9.820760e+00
0	 1.555556e+00	 6.740741e+00	 9.827624e+00
0	 1.555556e+00	 6.814815e+00	 9.834367e+00
0	 1.555556e+00	 6.888889e+00	 9.840994e+00
0	 1.555556e+00	 6.962963e+00	 9.847510e+00
0	 1.555556e+00	 7.037037e+00	 9.853920e+00
0	 1.629630e+00	 6.666667e+00	 9.830639e+00
0	 1.629630e+00	 6.740741e+00	 9.837012e+00
0	 1.629630e+00	 6.814815e+00	 9.843283e+00
0	 1.629630e+00	 6.888889e+00	 9.849458e+00
0	 1.629630e+00	 6.962963e+00	 9.855541e+00
0	 1.629630e+00	 7.037037e+00	 9.861539e+00
0	 1.703704e+00	 6.666667e+00	 9.840687e+00
0	 1.703704e+00	 6.740741e+00	 9.846564e+00
0	 1.703704e+00	 6.814815e+00	 9.852359e+00
0	 1.703704e+00	 6.888889e+00	 9.858077e+00
0	 1.703704e+00	 6.962963e+00	 9.863723e+00
0	 1.703704e+00	 7.037037e+00	 9.869305e+00
0	 1.777778e+00	 6.666667e+00	 9.850854e+00
0	 1.777778e+00	 6.740741e+00	 9.856234e+00
0	 1.777778e+00	 6.814815e+00	 9.861551e+00
0	 1.777778e+00	 6.888889e+00	 9.866810e+00
0	 1.777778e+00	 6.962963e+00	 9.872018e+00
0	 1.777778e+00	 7.037037e+00	 9.877180e+00
0	 1.851852e+00	 6.666667e+00	 9.861089e+00
0	 1.851852e+00	 6.740741e+00	 9.865975e+00
0	 1.851852e+00	 6.814815e+00	 9.870815e+00
0	 1.851852e+00	 6.888889e+00	 9.875617e+00
0	 1.851852e+00	 6.962963e+00	 9.880385e+00
0	 1.851852e+00	 7.037037e+00	 9.885127e+00
0	 1.481481e+00	 7.037037e+00	 9.846483e+00
0	 1.481481e+00	 7.111111e+00	 9.853168e+00
0	 1.481481e+00	 7.185185e+00	 9.859718e+00
0	 1.481481e+00	 7.259259e+00	 9.866138e+00
0	 1.481481e+00	 7.333333e+00	 9.872432e+00
0	 1.481481e+00	 7.407407e+00	 9.878604e+00
0	 1.555556e+00	 7.037037e+00	 9.853920e+00
0	 1.555556e+00	 7.111111e+00	 9.860217e+00
0	 1.555556e+00	 7.185185e+00	 9.866393e+00
0	 1.555556e+00	 7.259259e+00	 9.872454e+00
0	 1.555556e+00	 7.333333e+00	 9.878403e+00
0	 1.555556e+00	 7.407407e+00	 9.884244e+00
0	 1.629630e+00	 7.037037e+00	 9.861539e+00
0	 1.629630e+00	 7.111111e+00	 9.867442e+00
0	 1.629630e+00	 7.185185e+00	 9.873238e+00
0	 1.629630e+00	 7.259259e+00	 9.878932e+00
0	 1.629630e+00	 7.333333e+00	 9.884528e+00
0	 1.629630e+00	 7.407407e+00	 9.890030e+00
0	 1.703704e+00	 7.037037e+00	 9.869305e+00
0	 1.703704e+00	 7.111111e+00	 9.874808e+00
0	 1.703704e+00	 7.185185e+00	 9.880218e+00
0	 1.703704e+00	 7.259259e+00	 9.885539e+00
0	 1.703704e+00	 7.333333e+00	 9.890777e+00
0	 1.703704e+00	 7.407407e+00	 9.895936e+00
0	 1.777778e+00	 7.037037e+00	 9.877180e+00
0	 1.777778e+00	 7.111111e+00	 9.882279e+00
0	 1.777778e+00	 7.185185e+00	 9.887300e+00
0	 1.777778e+00	 7.259259e+00	 9.892245e+00
0	 1.777778e+00	 7.333333e+00	 9.897121e+00
0	 1.777778e+00	 7.407407e+00	 9.901932e+00
0	 1.851852e+00	 7.037037e+00	 9.885127e+00
0	 1.851852e+00	 7.111111e+00	 9.889822e+00
0	 1.851852e+00	 7.185185e+00	 9.894451e+00
0	 1.851852e+00	 7.259259e+00	 9.899019e+00
0	 1.851852e+00	 7.333333e+00	 9.903530e+00
0	 1.851852e+00	 7.407407e+00	 9.907991e+00
0	 1.481481e+00	 7.407407e+00	 9.878604e+00
0	 1.481481e+00	 7.481481e+00	 9.884646e+00
0	 1.481481e+00	 7.555556e+00	 9.890551e+00
0	 1.481481e+00	 7.629630e+00	 9.896322e+00
0	 1.481481e+00	 7.703704e+00	 9.901963e+00
0	 1.481481e+00	 7.777778e+00	 9.907479e+00
0	 1.555556e+00	 7.407407e+00	 9.884244e+00
0	 1.555556e+00	 7.481481e+00	 9.889968e+00
0	 1.555556e+00	 7.555556e+00	 9.895565e+00
0	 1.555556e+00	 7.629630e+00	 9.901040e+00
0	 1.555556e+00	 7.703704e+00	 9.906397e+00
0	 1.555556e+00	 7.777778e+00	 9.911641e+00
0	 1.629630e+00	 7.407407e+00	 9.890030e+00
0	 1.629630e+00	 7.481481e+00	 9.895428e+00
0	 1.629630e+00	 7.555556e+00	 9.900711e+00
0	 1.629630e+00	 7.629630e+00	 9.905884e+00
0	 1.629630e+00	 7.703704e+00	 9.910950e+00
0	 1.629630e+00	 7.777778e+00	 9.915916e+00
0	 1.703704e+00	 7.407407e+00	 9.895936e+00
0	 1.703704e+00	 7.481481e+00	 9.901002e+00
0	 1.703704e+00	 7.555556e+00	 9.905966e+00
0	 1.703704e+00	 7.629630e+00	 9.910831e+00
0	 1.703704e+00	 7.703704e+00	 9.915602e+00
0	 1.703704e+00	 7.777778e+00	 9.920283e+00
0	 1.777778e+00	 7.407407e+00	 9.901932e+00
0	 1.777778e+00	 7.481481e+00	 9.906664e+00
0	 1.777778e+00	 7.555556e+00	 9.911304e+00
0	 1.777778e+00	 7.629630e+00	 9.915858e+00
0	 1.777778e+00	 7.703704e+00	 9.920330e+00
0	 1.777778e+00	 7.777778e+00	 9.924724e+00
0	 1.851852e+00	 7.407407e+00	 9.907991e+00
0	 1.851852e+00	 7.481481e+00	 9.912386e+00
0	 1.851852e+00	 7.555556e+00	 9.916702e+00
0	 1.851852e+00	 7.629630e+00	 9.920942e+00
0	 1.851852e+00	 7.703704e+00	 9.925112e+00
0	 1.851852e+00	 7.777778e+00	 9.929217e+00
0	 1.481481e+00	 7.777778e+00	 9.907479e+00
0	 1.481481e+00	 7.851852e+00	 9.912862e+00
0	 1.481481e+00	 7.925926e+00	 9.918102e+00
0	 1.481481e+00	 8.000000e+00	 9.923206e+00
0	 1.481481e+00	 8.074074e+00	 9.928179e+00
0	 1.481481e+00	 8.148148e+00	 9.933024e+00
0	 1.555556e+00	 7.777778e+00	 9.911641e+00
0	 1.555556e+00	 7.851852e+00	 9.916761e+00
0	 1.555556e+00	 7.925926e+00	 9.921750e+00
0	 1.555556e+00	 8.000000e+00	 9.926611e+00
0	 1.555556e+00	 8.074074e+00	 9.931350e+00
0	 1.555556e+00	 8.148148e+00	 9.935970e+00
0	 1.629630e+00	 7.777778e+00	 9.915916e+00
0	 1.629630e+00	 7.851852e+00	 9.920769e+00
0	 1.629630e+00	 7.925926e+00	 9.925499e+00
0	 1.629630e+00	 8.000000e+00	 9.930111e+00
0	 1.629630e+00	 8.074074e+00	 9.934610e+00
0	 1.629630e+00	 8.148148e+00	 9.939001e+00
0	 1.703704e+00	 7.777778e+00	 9.920283e+00
0	 1.703704e+00	 7.851852e+00	 9.924864e+00
0	 1.703704e+00	 7.925926e+00	 9.929331e+00
0	 1.703704e+00	 8.000000e+00	 9.933689e+00
0	 1.703704e+00	 8.074074e+00	 9.937944e+00
0	 1.703704e+00	 8.148148e+00	 9.942100e+00
0	 1.777778e+00	 7.777778e+00	 9.924724e+00
0	 1.777778e+00	 7.851852e+00	 9.929028e+00
0	 1.777778e+00	 7.925926e+00	 9.933227e+00
0	 1.777778e+00	 8.000000e+00	 9.937328e+00
0	 1.777778e+00	 8.074074e+00	 9.941335e+00
0	 1.777778e+00	 8.148148e+00	 9.945252e+00
0	 1.851852e+00	 7.777778e+00	 9.929217e+00
0	 1.851852e+00	 7.851852e+00	 9.933241e+00
0	 1.851852e+00	 7.925926e+00	 9.937171e+00
0	 1.851852e+00	 8.000000e+00	 9.941011e+00
0	 1.851852e+00	 8.074074e+00	 9.944767e+00
0	 1.851852e+00	 8.148148e+00	 9.948442e+00
0	 1.481481e+00	 8.148148e+00	 9.933024e+00
0	 1.481481e+00	 8.222222e+00	 9.937729e+00
0	 1.481481e+00	 8.296296e+00	 9.942283e+00
0	 1.481481e+00	 8.370370e+00	 9.946692e+00
0	 1.481481e+00	 8.444444e+00	 9.950960e+00
0	 1.481481e+00	 8.518519e+00	 9.955093e+00
0	 1.555556e+00	 8.148148e+00	 9.935970e+00
0	 1.555556e+00	 8.222222e+00	 9.940460e+00
0	 1.555556e+00	 8.296296e+00	 9.944807e+00
0	 1.555556e+00	 8.370370e+00	 9.949016e+00
0	 1.555556e+00	 8.444444e+00	 9.953092e+00
0	 1.555556e+00	 8.518519e+00	 9.957042e+00
0	 1.629630e+00	 8.148148e+00	 9.939001e+00
0	 1.629630e+00	 8.222222e+00	 9.943269e+00
0	 1.629630e+00	 8.296296e+00	 9.947403e+00
0	 1.629630e+00	 8.370370e+00	 9.951407e+00
0	 1.629630e+00	 8.444444e+00	 9.955288e+00
0	 1.629630e+00	 8.518519e+00	 9.959050e+00
0	 1.703704e+00	 8.148148e+00	 9.942100e+00
0	 1.703704e+00	 8.222222e+00	 9.946142e+00
0	 1.703704e+00	 8.296296e+00	 9.950059e+00
0	 1.703704e+00	 8.370370e+00	 9.953854e+00
0	 1.703704e+00	 8.444444e+00	 9.957535e+00
0	 1.703704e+00	 8.518519e+00	 9.961105e+00
0	 1.777778e+00	 8.148148e+00	 9.945252e+00
0	 1.777778e+00	 8.222222e+00	 9.949065e+00
0	 1.777778e+00	 8.296296e+00	 9.952761e+00
0	 1.777778e+00	 8.370370e+00	 9.956344e+00
0	 1.777778e+00	 8.444444e+00	 9.959821e+00
0	 1.777778e+00	 8.518519e+00	 9.963195e+00
0	 1.851852e+00	 8.148148e+00	 9.948442e+00
0	 1.851852e+00	 8.222222e+00	 9.952024e+00
0	 1.851852e+00	 8.296296e+00	 9.955496e+00
0	 1.851852e+00	 8.370370e+00	 9.958865e+00
0	 1.851852e+00	 8.444444e+00	 9.962135e+00
0	 1.851852e+00	 8.518519e+00	 9.965311e+00
0	 1.481481e+00	 8.518519e+00	 9.955093e+00
0	 1.481481e+00	 8.592593e+00	 9.959075e+00
0	 1.481481e+00	 8.666667e+00	 9.962889e+00
0	 1.481481e+00	 8.740741e+00	 9.966543e+00
0	 1.481481e+00	 8.814815e+00	 9.970043e+00
0	 1.481481e+00	 8.888889e+00	 9.973396e+00
0	 1.555556e+00	 8.518519e+00	 9.957042e+00
0	 1.555556e+00	 8.592593e+00	 9.960849e+00
0	 1.555556e+00	 8.666667e+00	 9.964496e+00
0	 1.555556e+00	 8.740741e+00	 9.967990e+00
0	 1.555556e+00	 8.814815e+00	 9.971338e+00
0	 1.555556e+00	 8.888889e+00	 9.974546e+00
0	 1.629630e+00	 8.518519e+00	 9.959050e+00
0	 1.629630e+00	 8.592593e+00	 9.962677e+00
0	 1.629630e+00	 8.666667e+00	 9.966152e+00
0	 1.629630e+00	 8.740741e+00	 9.969482e+00
0	 1.629630e+00	 8.814815e+00	 9.972673e+00
0	 1.629630e+00	 8.888889e+00	 9.975732e+00
0	 1.703704e+00	 8.518519e+00	 9.961105e+00
0	 1.703704e+00	 8.592593e+00	 9.964548e+00
0	 1.703704e+00	 8.666667e+00	 9.967847e+00
0	 1.703704e+00	 8.740741e+00	 9.971009e+00
0	 1.703704e+00	 8.814815e+00	 9.974041e+00
0	 1.703704e+00	 8.888889e+00	 9.976947e+00
0	 1.777778e+00	 8.518519e+00	 9.963195e+00
0	 1.777778e+00	 8.592593e+00	 9.966451e+00
0	 1.777778e+00	 8.666667e+00	 9.969572e+00
0	 1.777778e+00	 8.740741e+00	 9.972563e+00
0	 1.777778e+00	 8.814815e+00	 9.975432e+00
0	 1.777778e+00	 8.888889e+00	 9.978183e+00
0	 1.851852e+00	 8.518519e+00	 9.965311e+00
0	 1.851852e+00	 8.592593e+00	 9.968377e+00
0	 1.851852e+00	 8.666667e+00	 9.971317e+00
0	 1.851852e+00	 8.740741e+00	 9.974135e+00
0	 1.851852e+00	 8.814815e+00	 9.976838e+00
0	 1.851852e+00	 8.888889e+00	 9.979432e+00
0	 1.481481e+00	 8.888889e+00	 9.973396e+00
0	 1.481481e+00	 8.962963e+00	 9.976580e+00
0	 1.481481e+00	 9.037037e+00	 9.979571e+00
0	 1.481481e+00	 9.111111e+00	 9.982380e+00
0	 1.481481e+00	 9.185185e+00	 9.985015e+00
0	 1.481481e+00	 9.259259e+00	 9.987483e+00
0	 1.555556e+00	 8.888889e+00	 9.974546e+00
0	 1.555556e+00	 8.962963e+00	 9.977592e+00
0	 1.555556e+00	 9.037037e+00	 9.980454e+00
0	 1.555556e+00	 9.111111e+00	 9.983142e+00
0	 1.555556e+00	 9.185185e+00	 9.985662e+00
0	 1.555556e+00	 9.259259e+00	 9.988024e+00
0	 1.629630e+00	 8.888889e+00	 9.975732e+00
0	 1.629630e+00	 8.962963e+00	 9.978637e+00
0	 1.629630e+00	 9.037037e+00	 9.981367e+00
0	 1.629630e+00	 9.111111e+00	 9.983930e+00
0	 1.629630e+00	 9.185185e+00	 9.986334e+00
0	 1.629630e+00	 9.259259e+00	 9.988587e+00
0	 1.703704e+00	 8.888889e+00	 9.976947e+00
0	 1.703704e+00	 8.962963e+00	 9.979708e+00
0	 1.703704e+00	 9.037037e+00	 9.982303e+00
0	 1.703704e+00	 9.111111e+00	 9.984738e+00
0	 1.703704e+00	 9.185185e+00	 9.987023e+00
0	 1.703704e+00	 9.259259e+00	 9.989164e+00
0	 1.777778e+00	 8.888889e+00	 9.978183e+00
0	 1.777778e+00	 8.962963e+00	 9.980797e+00
0	 1.777778e+00	 9.037037e+00	 9.983254e+00
0	 1.777778e+00	 9.111111e+00	 9.985560e+00
0	 1.777778e+00	 9.185185e+00	 9.987723e+00
0	 1.777778e+00	 9.259259e+00	 9.989750e+00
0	 1.851852e+00	 8.888889e+00	 9.979432e+00
0	 1.851852e+00	 8.962963e+00	 9.981896e+00
0	 1.851852e+00	 9.037037e+00	 9.984213e+00
0	 1.851852e+00	 9.111111e+00	 9.986387e+00
0	 1.851852e+00	 9.185185e+00	 9.988426e+00
0	 1.851852e+00	 9.259259e+00	 9.990338e+00
0	 1.481481e+00	 9.259259e+00	 9.987483e+00
0	 1.481481e+00	 9.333333e+00	 9.989754e+00
0	 1.481481e+00	 9.407407e+00	 9.991797e+00
0	 1.481481e+00	 9.481481e+00	 9.993623e+00
0	 1.481481e+00	 9.555556e+00	 9.995243e+00
0	 1.481481e+00	 9.629630e+00	 9.996667e+00
0	 1.555556e+00	 9.259259e+00	 9.988024e+00
0	 1.555556e+00	 9.333333e+00	 9.990197e+00
0	 1.555556e+00	 9.407407e+00	 9.992152e+00
0	 1.555556e+00	 9.481481e+00	 9.993898e+00
0	 1.555556e+00	 9.555556e+00	 9.995447e+00
0	 1.555556e+00	 9.629630e+00	 9.996809e+00
0	 1.629630e+00	 9.259259e+00	 9.988587e+00
0	 1.629630e+00	 9.333333e+00	 9.990659e+00
0	 1.629630e+00	 9.407407e+00	 9.992523e+00
0	 1.629630e+00	 9.481481e+00	 9.994189e+00
0	 1.629630e+00	 9.555556e+00	 9.995665e+00
0	 1.629630e+00	 9.629630e+00	 9.996963e+00
0	 1.703704e+00	 9.259259e+00	 9.989164e+00
0	 1.703704e+00	 9.333333e+00	 9.991134e+00
0	 1.703704e+00	 9.407407e+00	 9.992905e+00
0	 1.703704e+00	 9.481481e+00	 9.994488e+00
0	 1.703704e+00	 9.555556e+00	 9.995891e+00
0	 1.703704e+00	 9.629630e+00	 9.997123e+00
0	 1.777778e+00	 9.259259e+00	 9.989750e+00
0	 1.777778e+00	 9.333333e+00	 9.991615e+00
0	 1.777778e+00	 9.407407e+00	 9.993292e+00
0	 1.777778e+00	 9.481481e+00	 9.994790e+00
0	 1.777778e+00	 9.555556e+00	 9.996117e+00
0	 1.777778e+00	 9.629630e+00	 9.997283e+00
0	 1.851852e+00	 9.259259e+00	 9.990338e+00
0	 1.851852e+00	 9.333333e+00	 9.992096e+00
0	 1.851852e+00	 9.407407e+00	 9.993677e+00
0	 1.851852e+00	 9.481481e+00	 9.995089e+00
0	 1.851852e+00	 9.555556e+00	 9.996339e+00
0	 1.851852e+00	 9.629630e+00	 9.997437e+00
0	 1.481481e+00	 9.629630e+00	 9.996667e+00
0	 1.481481e+00	 9.703704e+00	 9.997857e+00
0	 1.481481e+00	 9.777778e+00	 9.998774e+00
0	 1.481481e+00	 9.851852e+00	 9.999433e+00
0	 1.481481e+00	 9.925926e+00	 9.999848e+00
0	 1.481481e+00	 1.000000e+01	 1.000003e+01
0	 1.555556e+00	 9.629630e+00	 9.996809e+00
0	 1.555556e+00	 9.703704e+00	 9.997946e+00
0	 1.555556e+00	 9.777778e+00	 9.998823e+00
0	 1.555556e+00	 9.851852e+00	 9.999453e+00
0	 1.555556e+00	 9.925926e+00	 9.999849e+00
0	 1.555556e+00	 1.000000e+01	 1.000002e+01
0	 1.629630e+00	 9.629630e+00	 9.996963e+00
0	 1.629630e+00	 9.703704e+00	 9.998047e+00
0	 1.629630e+00	 9.777778e+00	 9.998883e+00
0	 1.629630e+00	 9.851852e+00	 9.999483e+00
0	 1.629630e+00	 9.925926e+00	 9.999860e+00
0	 1.629630e+00	 1.000000e+01	 1.000002e+01
0	 1.703704e+00	 9.629630e+00	 9.997123e+00
0	 1.703704e+00	 9.703704e+00	 9.998152e+00
0	 1.703704e+00	 9.777778e+00	 9.998946e+00
0	 1.703704e+00	 9.851852e+00	 9.999516e+00
0	 1.703704e+00	 9.925926e+00	 9.999874e+00
0	 1.703704e+00	 1.000000e+01	 1.000003e+01
0	 1.777778e+00	 9.629630e+00	 9.997283e+00
0	 1.777778e+00	 9.703704e+00	 9.998256e+00
0	 1.777778e+00	 9.777778e+00	 9.999007e+00
0	 1.777778e+00	 9.851852e+00	 9.999546e+00
0	 1.777778e+00	 9.925926e+00	 9.999884e+00
0	 1.777778e+00	 1.000000e+01	 1.000003e+01
0	 1.851852e+00	 9.629630e+00	 9.997437e+00
0	 1.851852e+00	 9.703704e+00	 9.998353e+00
0	 1.851852e+00	 9.777778e+00	 9.999060e+00
0	 1.851852e+00	 9.851852e+00	 9.999567e+00
0	 1.851852e+00	 9.925926e+00	 9.999885e+00
0	 1.851852e+00	 1.000000e+01	 1.000002e+01
0	 1.851852e+00	 0.000000e+00	 6.089334e+00
0	 1.851852e+00	 7.407407e-02	 6.517752e+00
0	 1.851852e+00	 1.481481e-01	 7.575960e+00
0	 1.851852e+00	 2.222222e-01	 8.976970e+00
0	 1.851852e+00	 2.962963e-01	 1.043380e+01
0	 1.851852e+00	 3.703704e-01	 1.165946e+01
0	 1.925926e+00	 0.000000e+00	 8.965171e+00
0	 1.925926e+00	 7.407407e-02	 9.166790e+00
0	 1.925926e+00	 1.481481e-01	 9.728682e+00
0	 1.925926e+00	 2.222222e-01	 1.048956e+01
0	 1.925926e+00	 2.962963e-01	 1.128814e+01
0	 1.925926e+00	 3.703704e-01	 1.196314e+01
0	 2.000000e+00	 0.000000e+00	 1.093351e+01
0	 2.000000e+00	 7.407407e-02	 1.101200e+01
0	 2.000000e+00	 1.481481e-01	 1.124317e+01
0	 2.000000e+00	 2.222222e-01	 1.155963e+01
0	 2.000000e+00	 2.962963e-01	 1.189399e+01
0	 2.000000e+00	 3.703704e-01	 1.217887e+01
0	 2.074074e+00	 0.000000e+00	 1.207571e+01
0	 2.074074e+00	 7.407407e-02	 1.210509e+01
0	 2.074074e+00	 1.481481e-01	 1.214604e+01
0	 2.074074e+00	 2.222222e-01	 1.219327e+01
0	 2.074074e+00	 2.962963e-01	 1.224150e+01
0	 2.074074e+00	 3.703704e-01	 1.228544e+01
0	 2.148148e+00	 0.000000e+00	 1.247314e+01
0	 2.148148e+00	 7.407407e-02	 1.249775e+01
0	 2.148148e+00	 1.481481e-01	 1.246390e+01
0	 2.148148e+00	 2.222222e-01	 1.239659e+01
0	 2.148148e+00	 2.962963e-01	 1.232083e+01
0	 2.148148e+00	 3.703704e-01	 1.226164e+01
0	 2.222222e+00	 0.000000e+00	 1.220714e+01
0	 2.222222e+00	 7.407407e-02	 1.224170e+01
0	 2.222222e+00	 1.481481e-01	 1.222337e+01
0	 2.222222e+00	 2.222222e-01	 1.217569e+01
0	 2.222222e+00	 2.962963e-01	 1.212214e+01
0	 2.222222e+00	 3.703704e-01	 1.208625e+01
0	 1.851852e+00	 3.703704e-01	 1.165946e+01
0	 1.851852e+00	 4.444444e-01	 1.245762e+01
0	 1.851852e+00	 5.185185e-01	 1.288983e+01
0	 1.851852e+00	 5.925926e-01	 1.305592e+01
0	 1.851852e+00	 6.666667e-01	 1.305575e+01
0	 1.851852e+00	 7.407407e-01	 1.298914e+01
0	 1.925926e+00	 3.703704e-01	 1.196314e+01
0	 1.925926e+00	 4.444444e-01	 1.240018e+01
0	 1.925926e+00	 5.185185e-01	 1.263226e+01
0	 1.925926e+00	 5.925926e-01	 1.271917e+01
0	 1.925926e+00	 6.666667e-01	 1.272069e+01
0	 1.925926e+00	 7.407407e-01	 1.269661e+01
0	 2.000000e+00	 3.703704e-01	 1.217887e+01
0	 2.000000e+00	 4.444444e-01	 1.236160e+01
0	 2.000000e+00	 5.185185e-01	 1.245409e+01
0	 2.000000e+00	 5.925926e-01	 1.248588e+01
0	 2.000000e+00	 6.666667e-01	 1.248645e+01
0	 2.000000e+00	 7.407407e-01	 1.248533e+01
0	 2.074074e+00	 3.703704e-01	 1.228544e+01
0	 2.074074e+00	 4.444444e-01	 1.231327e+01
0	 2.074074e+00	 5.185185e-01	 1.232274e+01
0	 2.074074e+00	 5.925926e-01	 1.232287e+01
0	 2.074074e+00	 6.666667e-01	 1.232267e+01
0	 2.074074e+00	 7.407407e-01	 1.233119e+01
0	 2.148148e+00	 3.703704e-01	 1.226164e+01
0	 2.148148e+00	 4.444444e-01	 1.222663e+01
0	 2.148148e+00	 5.185185e-01	 1.220563e+01
0	 2.148148e+00	 5.925926e-01	 1.219699e+01
0	 2.148148e+00	 6.666667e-01	 1.219902e+01
0	 2.148148e+00	 7.407407e-01	 1.221005e+01
0	 2.222222e+00	 3.703704e-01	 1.208625e+01
0	 2.222222e+00	 4.444444e-01	 1.207306e+01
0	 2.222222e+00	 5.185185e-01	 1.207019e+01
0	 2.222222e+00	 5.925926e-01	 1.207508e+01
0	 2.222222e+00	 6.666667e-01	 1.208514e+01
0	 2.222222e+00	 7.407407e-01	 1.209779e+01
0	 1.851852e+00	 7.407407e-01	 1.298914e+01
0	 1.851852e+00	 8.148148e-01	 1.292356e+01
0	 1.851852e+00	 8.888889e-01	 1.285769e+01
0	 1.851852e+00	 9.629630e-01	 1.278828e+01
0	 1.851852e+00	 1.037037e+00	 1.271205e+01
0	 1.851852e+00	 1.111111e+00	 1.262575e+01
0	 1.925926e+00	 7.407407e-01	 1.269661e+01
0	 1.925926e+00	 8.148148e-01	 1.267721e+01
0	 1.925926e+00	 8.888889e-01	 1.265177e+01
0	 1.925926e+00	 9.629630e-01	 1.261849e+01
0	 1.925926e+00	 1.037037e+00	 1.257561e+01
0	 1.925926e+00	 1.111111e+00	 1.252133e+01
0	 2.000000e+00	 7.407407e-01	 1.248533e+01
0	 2.000000e+00	 8.148148e-01	 1.248874e+01
0	 2.000000e+00	 8.888889e-01	 1.248284e+01
0	 2.000000e+00	 9.629630e-01	 1.246702e+01
0	 2.000000e+00	 1.037037e+00	 1.244067e+01
0	 2.000000e+00	 1.111111e+00	 1.240320e+01
0	 2.074074e+00	 7.407407e-01	 1.233119e+01
0	 2.074074e+00	 8.148148e-01	 1.234163e+01
0	 2.074074e+00	 8.888889e-01	 1.234138e+01
0	 2.074074e+00	 9.629630e-01	 1.233070e+01
0	 2.074074e+00	 1.037037e+00	 1.230986e+01
0	 2.074074e+00	 1.111111e+00	 1.227913e+01
0	 2.148148e+00	 7.407407e-01	 1.221005e+01
0	 2.148148e+00	 8.148148e-01	 1.221935e+01
0	 2.148148e+00	 8.888889e-01	 1.221785e+01
0	 2.148148e+00	 9.629630e-01	 1.220638e+01
0	 2.148148e+00	 1.037037e+00	 1.218577e+01
0	 2.148148e+00	 1.111111e+00	 1.215686e+01
0	 2.222222e+00	 7.407407e-01	 1.209779e+01
0	 2.222222e+00	 8.148148e-01	 1.210538e+01
0	 2.222222e+00	 8.888889e-01	 1.210272e+01
0	 2.222222e+00	 9.629630e-01	 1.209091e+01
0	 2.222222e+00	 1.037037e+00	 1.207102e+01
0	 2.222222e+00	 1.111111e+00	 1.204414e+01
0	 1.851852e+00	 1.111111e+00	 1.262575e+01
0	 1.851852e+00	 1.185185e+00	 1.252770e+01
0	 1.851852e+00	 1.259259e+00	 1.241892e+01
0	 1.851852e+00	 1.333333e+00	 1.230013e+01
0	 1.851852e+00	 1.407407e+00	 1.217208e+01
0	 1.851852e+00	 1.481481e+00	 1.203551e+01
0	 1.925926e+00	 1.111111e+00	 1.252133e+01
0	 1.925926e+00	 1.185185e+00	 1.245273e+01
0	 1.925926e+00	 1.259259e+00	 1.236846e+01
0	 1.925926e+00	 1.333333e+00	 1.226910e+01
0	 1.925926e+00	 1.407407e+00	 1.215521e+01
0	 1.925926e+00	 1.481481e+00	 1.202737e+01
0	 2.000000e+00	 1.111111e+00	 1.240320e+01
0	 2.000000e+00	 1.185185e+00	 1.235199e+01
0	 2.000000e+00	 1.259259e+00	 1.228510e+01
0	 2.000000e+00	 1.333333e+00	 1.220297e+01
0	 2.000000e+00	 1.407407e+00	 1.210605e+01
0	 2.000000e+00	 1.481481e+00	 1.199478e+01
0	 2.074074e+00	 1.111111e+00	 1.227913e+01
0	 2.074074e+00	 1.185185e+00	 1.223710e+01
0	 2.074074e+00	 1.259259e+00	 1.218240e+01
0	 2.074074e+00	 1.333333e+00	 1.211536e+01
0	 2.074074e+00	 1.407407e+00	 1.203633e+01
0	 2.074074e+00	 1.481481e+00	 1.194565e+01
0	 2.148148e+00	 1.111111e+00	 1.215686e+01
0	 2.148148e+00	 1.185185e+00	 1.211969e+01
0	 2.148148e+00	 1.259259e+00	 1.207394e+01
0	 2.148148e+00	 1.333333e+00	 1.201987e+01
0	 2.148148e+00	 1.407407e+00	 1.195776e+01
0	 2.148148e+00	 1.481481e+00	 1.188787e+01
0	 2.222222e+00	 1.111111e+00	 1.204414e+01
0	 2.222222e+00	 1.185185e+00	 1.201139e+01
0	 2.222222e+00	 1.259259e+00	 1.197331e+01
0	 2.222222e+00	 1.333333e+00	 1.193011e+01
0	 2.222222e+00	 1.407407e+00	 1.188205e+01
0	 2.222222e+00	 1.481481e+00	 1.182935e+01
0	 1.851852e+00	 1.481481e+00	 1.203551e+01
0	 1.851852e+00	 1.555556e+00	 1.189845e+01
0	 1.851852e+00	 1.629630e+00	 1.176699e+01
0	 1.851852e+00	 1.703704e+00	 1.163902e+01
0	 1.851852e+00	 1.777778e+00	 1.151241e+01
0	 1.851852e+00	 1.851852e+00	 1.138505e+01
0	 1.925926e+00	 1.481481e+00	 1.202737e+01
0	 1.925926e+00	 1.555556e+00	 1.189729e+01
0	 1.925926e+00	 1.629630e+00	 1.177477e+01
0	 1.925926e+00	 1.703704e+00	 1.165755e+01
0	 1.925926e+00	 1.777778e+00	 1.154337e+01
0	 1.925926e+00	 1.851852e+00	 1.142997e+01
0	 2.000000e+00	 1.481481e+00	 1.199478e+01
0	 2.000000e+00	 1.555556e+00	 1.188038e+01
0	 2.000000e+00	 1.629630e+00	 1.177229e+01
0	 2.000000e+00	 1.703704e+00	 1.166825e+01
0	 2.000000e+00	 1.777778e+00	 1.156605e+01
0	 2.000000e+00	 1.851852e+00	 1.146343e+01
0	 2.074074e+00	 1.481481e+00	 1.194565e+01
0	 2.074074e+00	 1.555556e+00	 1.185148e+01
0	 2.074074e+00	 1.629630e+00	 1.176041e+01
0	 2.074074e+00	 1.703704e+00	 1.167038e+01
0	 2.074074e+00	 1.777778e+00	 1.157934e+01
0	 2.074074e+00	 1.851852e+00	 1.148524e+01
0	 2.148148e+00	 1.481481e+00	 1.188787e+01
0	 2.148148e+00	 1.555556e+00	 1.181435e+01
0	 2.148148e+00	 1.629630e+00	 1.174002e+01
0	 2.148148e+00	 1.703704e+00	 1.166319e+01
0	 2.148148e+00	 1.777778e+00	 1.158215e+01
0	 2.148148e+00	 1.851852e+00	 1.149521e+01
0	 2.222222e+00	 1.481481e+00	 1.182935e+01
0	 2.222222e+00	 1.555556e+00	 1.177274e+01
0	 2.222222e+00	 1.629630e+00	 1.171200e+01
0	 2.222222e+00	 1.703704e+00	 1.164594e+01
0	 2.222222e+00	 1.777778e+00	 1.157338e+01
0	 2.222222e+00	 1.851852e+00	 1.149314e+01
0	 1.851852e+00	 1.851852e+00	 1.138505e+01
0	 1.851852e+00	 1.925926e+00	 1.126085e+01
0	 1.851852e+00	 2.000000e+00	 1.114445e+01
0	 1.851852e+00	 2.074074e+00	 1.103476e+01
0	 1.851852e+00	 2.148148e+00	 1.093072e+01
0	 1.851852e+00	 2.222222e+00	 1.083126e+01
0	 1.925926e+00	 1.851852e+00	 1.142997e+01
0	 1.925926e+00	 1.925926e+00	 1.131840e+01
0	 1.925926e+00	 2.000000e+00	 1.121096e+01
0	 1.925926e+00	 2.074074e+00	 1.110722e+01
0	 1.925926e+00	 2.148148e+00	 1.100677e+01
0	 1.925926e+00	 2.222222e+00	 1.090918e+01
0	 2.000000e+00	 1.851852e+00	 1.146343e+01
0	 2.000000e+00	 1.925926e+00	 1.136093e+01
0	 2.000000e+00	 2.000000e+00	 1.126058e+01
0	 2.000000e+00	 2.074074e+00	 1.116234e+01
0	 2.000000e+00	 2.148148e+00	 1.106622e+01
0	 2.000000e+00	 2.222222e+00	 1.097218e+01
0	 2.074074e+00	 1.851852e+00	 1.148524e+01
0	 2.074074e+00	 1.925926e+00	 1.138958e+01
0	 2.074074e+00	 2.000000e+00	 1.129533e+01
0	 2.074074e+00	 2.074074e+00	 1.120263e+01
0	 2.074074e+00	 2.148148e+00	 1.111162e+01
0	 2.074074e+00	 2.222222e+00	 1.102245e+01
0	 2.148148e+00	 1.851852e+00	 1.149521e+01
0	 2.148148e+00	 1.925926e+00	 1.140548e+01
0	 2.148148e+00	 2.000000e+00	 1.131725e+01
0	 2.148148e+00	 2.074074e+00	 1.123058e+01
0	 2.148148e+00	 2.148148e+00	 1.114553e+01
0	 2.148148e+00	 2.222222e+00	 1.106216e+01
0	 2.222222e+00	 1.851852e+00	 1.149314e+01
0	 2.222222e+00	 1.925926e+00	 1.140975e+01
0	 2.222222e+00	 2.000000e+00	 1.132837e+01
0	 2.222222e+00	 2.074074e+00	 1.124871e+01
0	 2.222222e+00	 2.148148e+00	 1.117051e+01
0	 2.222222e+00	 2.222222e+00	 1.109349e+01
0	 1.851852e+00	 2.222222e+00	 1.083126e+01
0	 1.851852e+00	 2.296296e+00	 1.073657e+01
0	 1.851852e+00	 2.370370e+00	 1.064747e+01
0	 1.851852e+00	 2.444444e+00	 1.056386e+01
0	 1.851852e+00	 2.518519e+00	 1.048564e+01
0	 1.851852e+00	 2.592593e+00	 1.041271e+01
0	 1.925926e+00	 2.222222e+00	 1.090918e+01
0	 1.925926e+00	 2.296296e+00	 1.081611e+01
0	 1.925926e+00	 2.370370e+00	 1.072912e+01
0	 1.925926e+00	 2.444444e+00	 1.064767e+01
0	 1.925926e+00	 2.518519e+00	 1.057120e+01
0	 1.925926e+00	 2.592593e+00	 1.049916e+01
0	 2.000000e+00	 2.222222e+00	 1.097218e+01
0	 2.000000e+00	 2.296296e+00	 1.088244e+01
0	 2.000000e+00	 2.370370e+00	 1.079864e+01
0	 2.000000e+00	 2.444444e+00	 1.071997e+01
0	 2.000000e+00	 2.518519e+00	 1.064559e+01
0	 2.000000e+00	 2.592593e+00	 1.057467e+01
0	 2.074074e+00	 2.222222e+00	 1.102245e+01
0	 2.074074e+00	 2.296296e+00	 1.093722e+01
0	 2.074074e+00	 2.370370e+00	 1.085731e+01
0	 2.074074e+00	 2.444444e+00	 1.078178e+01
0	 2.074074e+00	 2.518519e+00	 1.070970e+01
0	 2.074074e+00	 2.592593e+00	 1.064011e+01
0	 2.148148e+00	 2.222222e+00	 1.106216e+01
0	 2.148148e+00	 2.296296e+00	 1.098210e+01
0	 2.148148e+00	 2.370370e+00	 1.090638e+01
0	 2.148148e+00	 2.444444e+00	 1.083411e+01
0	 2.148148e+00	 2.518519e+00	 1.076440e+01
0	 2.148148e+00	 2.592593e+00	 1.069639e+01
0	 2.222222e+00	 2.222222e+00	 1.109349e+01
0	 2.222222e+00	 2.296296e+00	 1.101875e+01
0	 2.222222e+00	 2.370370e+00	 1.094712e+01
0	 2.222222e+00	 2.444444e+00	 1.087795e+01
0	 2.222222e+00	 2.518519e+00	 1.081059e+01
0	 2.222222e+00	 2.592593e+00	 1.074438e+01
0	 1.851852e+00	 2.592593e+00	 1.041271e+01
0	 1.851852e+00	 2.666667e+00	 1.034511e+01
0	 1.851852e+00	 2.740741e+00	 1.028282e+01
0	 1.851852e+00	 2.814815e+00	 1.022562e+01
0	 1.851852e+00	 2.888889e+00	 1.017329e+01
0	 1.851852e+00	 2.962963e+00	 1.012563e+01
0	 1.925926e+00	 2.592593e+00	 1.049916e+01
0	 1.925926e+00	 2.666667e+00	 1.043144e+01
0	 1.925926e+00	 2.740741e+00	 1.036827e+01
0	 1.925926e+00	 2.814815e+00	 1.030964e+01
0	 1.925926e+00	 2.888889e+00	 1.025551e+01
0	 1.925926e+00	 2.962963e+00	 1.020588e+01
0	 2.000000e+00	 2.592593e+00	 1.057467e+01
0	 2.000000e+00	 2.666667e+00	 1.050720e+01
0	 2.000000e+00	 2.740741e+00	 1.044381e+01
0	 2.000000e+00	 2.814815e+00	 1.038459e+01
0	 2.000000e+00	 2.888889e+00	 1.032963e+01
0	 2.000000e+00	 2.962963e+00	 1.027902e+01
0	 2.074074e+00	 2.592593e+00	 1.064011e+01
0	 2.074074e+00	 2.666667e+00	 1.057332e+01
0	 2.074074e+00	 2.740741e+00	 1.051034e+01
0	 2.074074e+00	 2.814815e+00	 1.045130e+01
0	 2.074074e+00	 2.888889e+00	 1.039631e+01
0	 2.074074e+00	 2.962963e+00	 1.034551e+01
0	 2.148148e+00	 2.592593e+00	 1.069639e+01
0	 2.148148e+00	 2.666667e+00	 1.063074e+01
0	 2.148148e+00	 2.740741e+00	 1.056878e+01
0	 2.148148e+00	 2.814815e+00	 1.051059e+01
0	 2.148148e+00	 2.888889e+00	 1.045625e+01
0	 2.148148e+00	 2.962963e+00	 1.040582e+01
0	 2.222222e+00	 2.592593e+00	 1.074438e+01
0	 2.222222e+00	 2.666667e+00	 1.068038e+01
0	 2.222222e+00	 2.740741e+00	 1.062004e+01
0	 2.222222e+00	 2.814815e+00	 1.056331e+01
0	 2.222222e+00	 2.888889e+00	 1.051012e+01
0	 2.222222e+00	 2.962963e+00	 1.046043e+01
0	 1.851852e+00	 2.962963e+00	 1.012563e+01
0	 1.851852e+00	 3.037037e+00	 1.008194e+01
0	 1.851852e+00	 3.111111e+00	 1.004176e+01
0	 1.851852e+00	 3.185185e+00	 1.000524e+01
0	 1.851852e+00	 3.259259e+00	 9.972546e+00
0	 1.851852e+00	 3.333333e+00	 9.943817e+00
0	 1.925926e+00	 2.962963e+00	 1.020588e+01
0	 1.925926e+00	 3.037037e+00	 1.016034e+01
0	 1.925926e+00	 3.111111e+00	 1.011849e+01
0	 1.925926e+00	 3.185185e+00	 1.008033e+01
0	 1.925926e+00	 3.259259e+00	 1.004584e+01
0	 1.925926e+00	 3.333333e+00	 1.001504e+01
0	 2.000000e+00	 2.962963e+00	 1.027902e+01
0	 2.000000e+00	 3.037037e+00	 1.023248e+01
0	 2.000000e+00	 3.111111e+00	 1.018957e+01
0	 2.000000e+00	 3.185185e+00	 1.015018e+01
0	 2.000000e+00	 3.259259e+00	 1.011422e+01
0	 2.000000e+00	 3.333333e+00	 1.008156e+01
0	 2.074074e+00	 2.962963e+00	 1.034551e+01
0	 2.074074e+00	 3.037037e+00	 1.029860e+01
0	 2.074074e+00	 3.111111e+00	 1.025509e+01
0	 2.074074e+00	 3.185185e+00	 1.021484e+01
0	 2.074074e+00	 3.259259e+00	 1.017767e+01
0	 2.074074e+00	 3.333333e+00	 1.014342e+01
0	 2.148148e+00	 2.962963e+00	 1.040582e+01
0	 2.148148e+00	 3.037037e+00	 1.035897e+01
0	 2.148148e+00	 3.111111e+00	 1.031519e+01
0	 2.148148e+00	 3.185185e+00	 1.027432e+01
0	 2.148148e+00	 3.259259e+00	 1.023619e+01
0	 2.148148e+00	 3.333333e+00	 1.020065e+01
0	 2.222222e+00	 2.962963e+00	 1.046043e+01
0	 2.222222e+00	 3.037037e+00	 1.041385e+01
0	 2.222222e+00	 3.111111e+00	 1.036996e+01
0	 2.222222e+00	 3.185185e+00	 1.032865e+01
0	 2.222222e+00	 3.259259e+00	 1.028979e+01
0	 2.222222e+00	 3.333333e+00	 1.025328e+01
0	 1.851852e+00	 3.333333e+00	 9.943817e+00
0	 1.851852e+00	 3.407407e+00	 9.918251e+00
0	 1.851852e+00	 3.481481e+00	 9.894950e+00
0	 1.851852e+00	 3.555556e+00	 9.873924e+00
0	 1.851852e+00	 3.629630e+00	 9.855180e+00
0	 1.851852e+00	 3.703704e+00	 9.838727e+00
0	 1.925926e+00	 3.333333e+00	 1.001504e+01
0	 1.925926e+00	 3.407407e+00	 9.987132e+00
0	 1.925926e+00	 3.481481e+00	 9.961399e+00
0	 1.925926e+00	 3.555556e+00	 9.937911e+00
0	 1.925926e+00	 3.629630e+00	 9.916739e+00
0	 1.925926e+00	 3.703704e+00	 9.897955e+00
0	 2.000000e+00	 3.333333e+00	 1.008156e+01
0	 2.000000e+00	 3.407407e+00	 1.005157e+01
0	 2.000000e+00	 3.481481e+00	 1.002375e+01
0	 2.000000e+00	 3.555556e+00	 9.998213e+00
0	 2.000000e+00	 3.629630e+00	 9.975060e+00
0	 2.000000e+00	 3.703704e+00	 9.954399e+00
0	 2.074074e+00	 3.333333e+00	 1.014342e+01
0	 2.074074e+00	 3.407407e+00	 1.011165e+01
0	 2.074074e+00	 3.481481e+00	 1.008211e+01
0	 2.074074e+00	 3.555556e+00	 1.005492e+01
0	 2.074074e+00	 3.629630e+00	 1.003018e+01
0	 2.074074e+00	 3.703704e+00	 1.000802e+01
0	 2.148148e+00	 3.333333e+00	 1.020065e+01
0	 2.148148e+00	 3.407407e+00	 1.016746e+01
0	 2.148148e+00	 3.481481e+00	 1.013658e+01
0	 2.148148e+00	 3.555556e+00	 1.010812e+01
0	 2.148148e+00	 3.629630e+00	 1.008215e+01
0	 2.148148e+00	 3.703704e+00	 1.005877e+01
0	 2.222222e+00	 3.333333e+00	 1.025328e+01
0	 2.222222e+00	 3.407407e+00	 1.021908e+01
0	 2.222222e+00	 3.481481e+00	 1.018727e+01
0	 2.222222e+00	 3.555556e+00	 1.015790e+01
0	 2.222222e+00	 3.629630e+00	 1.013099e+01
0	 2.222222e+00	 3.703704e+00	 1.010661e+01
0	 1.851852e+00	 3.703704e+00	 9.838727e+00
0	 1.851852e+00	 3.777778e+00	 9.824190e+00
0	 1.851852e+00	 3.851852e+00	 9.811257e+00
0	 1.851852e+00	 3.925926e+00	 9.800024e+00
0	 1.851852e+00	 4.000000e+00	 9.790590e+00
0	 1.851852e+00	 4.074074e+00	 9.783052e+00
0	 1.925926e+00	 3.703704e+00	 9.897955e+00
0	 1.925926e+00	 3.777778e+00	 9.881237e+00
0	 1.925926e+00	 3.851852e+00	 9.866251e+00
0	 1.925926e+00	 3.925926e+00	 9.853043e+00
0	 1.925926e+00	 4.000000e+00	 9.841661e+00
0	 1.925926e+00	 4.074074e+00	 9.832155e+00
0	 2.000000e+00	 3.703704e+00	 9.954399e+00
0	 2.000000e+00	 3.777778e+00	 9.935893e+00
0	 2.000000e+00	 3.851852e+00	 9.919145e+00
0	 2.000000e+00	 3.925926e+00	 9.904169e+00
0	 2.000000e+00	 4.000000e+00	 9.890979e+00
0	 2.000000e+00	 4.074074e+00	 9.879590e+00
0	 2.074074e+00	 3.703704e+00	 1.000802e+01
0	 2.074074e+00	 3.777778e+00	 9.988033e+00
0	 2.074074e+00	 3.851852e+00	 9.969762e+00
0	 2.074074e+00	 3.925926e+00	 9.953201e+00
0	 2.074074e+00	 4.000000e+00	 9.938346e+00
0	 2.074074e+00	 4.074074e+00	 9.925195e+00
0	 2.148148e+00	 3.703704e+00	 1.005877e+01
0	 2.148148e+00	 3.777778e+00	 1.003753e+01
0	 2.148148e+00	 3.851852e+00	 1.001792e+01
0	 2.148148e+00	 3.925926e+00	 9.999934e+00
0	 2.148148e+00	 4.000000e+00	 9.983565e+00
0	 2.148148e+00	 4.074074e+00	 9.968808e+00
0	 2.222222e+00	 3.703704e+00	 1.010661e+01
0	 2.222222e+00	 3.777778e+00	 1.008426e+01
0	 2.222222e+00	 3.851852e+00	 1.006344e+01
0	 2.222222e+00	 3.925926e+00	 1.004417e+01
0	 2.222222e+00	 4.000000e+00	 1.002644e+01
0	 2.222222e+00	 4.074074e+00	 1.001027e+01
0	 1.851852e+00	 4.074074e+00	 9.783052e+00
0	 1.851852e+00	 4.148148e+00	 9.776920e+00
0	 1.851852e+00	 4.222222e+00	 9.771658e+00
0	 1.851852e+00	 4.296296e+00	 9.767297e+00
0	 1.851852e+00	 4.370370e+00	 9.763868e+00
0	 1.851852e+00	 4.444444e+00	 9.761401e+00
0	 1.925926e+00	 4.074074e+00	 9.832155e+00
0	 1.925926e+00	 4.148148e+00	 9.824032e+00
0	 1.925926e+00	 4.222222e+00	 9.816808e+00
0	 1.925926e+00	 4.296296e+00	 9.810534e+00
0	 1.925926e+00	 4.370370e+00	 9.805265e+00
0	 1.925926e+00	 4.444444e+00	 9.801053e+00
0	 2.000000e+00	 4.074074e+00	 9.879590e+00
0	 2.000000e+00	 4.148148e+00	 9.869565e+00
0	 2.000000e+00	 4.222222e+00	 9.860504e+00
0	 2.000000e+00	 4.296296e+00	 9.852473e+00
0	 2.000000e+00	 4.370370e+00	 9.845537e+00
0	 2.000000e+00	 4.444444e+00	 9.839762e+00
0	 2.074074e+00	 4.074074e+00	 9.925195e+00
0	 2.074074e+00	 4.148148e+00	 9.913397e+00
0	 2.074074e+00	 4.222222e+00	 9.902652e+00
0	 2.074074e+00	 4.296296e+00	 9.893026e+00
0	 2.074074e+00	 4.370370e+00	 9.884588e+00
0	 2.074074e+00	 4.444444e+00	 9.877406e+00
0	 2.148148e+00	 4.074074e+00	 9.968808e+00
0	 2.148148e+00	 4.148148e+00	 9.955409e+00
0	 2.148148e+00	 4.222222e+00	 9.943155e+00
0	 2.148148e+00	 4.296296e+00	 9.932106e+00
0	 2.148148e+00	 4.370370e+00	 9.922323e+00
0	 2.148148e+00	 4.444444e+00	 9.913864e+00
0	 2.222222e+00	 4.074074e+00	 1.001027e+01
0	 2.222222e+00	 4.148148e+00	 9.995480e+00
0	 2.222222e+00	 4.222222e+00	 9.981919e+00
0	 2.222222e+00	 4.296296e+00	 9.969626e+00
0	 2.222222e+00	 4.370370e+00	 9.958643e+00
0	 2.222222e+00	 4.444444e+00	 9.949014e+00
0	 1.851852e+00	 4.444444e+00	 9.761401e+00
0	 1.851852e+00	 4.518519e+00	 9.759723e+00
0	 1.851852e+00	 4.592593e+00	 9.758670e+00
0	 1.851852e+00	 4.666667e+00	 9.758288e+00
0	 1.851852e+00	 4.740741e+00	 9.758624e+00
0	 1.851852e+00	 4.814815e+00	 9.759725e+00
0	 1.925926e+00	 4.444444e+00	 9.801053e+00
0	 1.925926e+00	 4.518519e+00	 9.797731e+00
0	 1.925926e+00	 4.592593e+00	 9.795119e+00
0	 1.925926e+00	 4.666667e+00	 9.793246e+00
0	 1.925926e+00	 4.740741e+00	 9.792145e+00
0	 1.925926e+00	 4.814815e+00	 9.791846e+00
0	 2.000000e+00	 4.444444e+00	 9.839762e+00
0	 2.000000e+00	 4.518519e+00	 9.834958e+00
0	 2.000000e+00	 4.592593e+00	 9.830906e+00
0	 2.000000e+00	 4.666667e+00	 9.827628e+00
0	 2.000000e+00	 4.740741e+00	 9.825144e+00
0	 2.000000e+00	 4.814815e+00	 9.823476e+00
0	 2.074074e+00	 4.444444e+00	 9.877406e+00
0	 2.074074e+00	 4.518519e+00	 9.871252e+00
0	 2.074074e+00	 4.592593e+00	 9.865866e+00
0	 2.074074e+00	 4.666667e+00	 9.861262e+00
0	 2.074074e+00	 4.740741e+00	 9.857458e+00
0	 2.074074e+00	 4.814815e+00	 9.854471e+00
0	 2.148148e+00	 4.444444e+00	 9.913864e+00
0	 2.148148e+00	 4.518519e+00	 9.906465e+00
0	 2.148148e+00	 4.592593e+00	 9.899831e+00
0	 2.148148e+00	 4.666667e+00	 9.893979e+00
0	 2.148148e+00	 4.740741e+00	 9.888925e+00
0	 2.148148e+00	 4.814815e+00	 9.884688e+00
0	 2.222222e+00	 4.444444e+00	 9.949014e+00
0	 2.222222e+00	 4.518519e+00	 9.940447e+00
0	 2.222222e+00	 4.592593e+00	 9.932637e+00
0	 2.222222e+00	 4.666667e+00	 9.925608e+00
0	 2.222222e+00	 4.740741e+00	 9.919383e+00
0	 2.222222e+00	 4.814815e+00	 9.913984e+00
0	 1.851852e+00	 4.814815e+00	 9.759725e+00
0	 1.851852e+00	 4.888889e+00	 9.761366e+00
0	 1.851852e+00	 4.962963e+00	 9.763309e+00
0	 1.851852e+00	 5.037037e+00	 9.765574e+00
0	 1.851852e+00	 5.111111e+00	 9.768181e+00
0	 1.851852e+00	 5.185185e+00	 9.771154e+00
0	 1.925926e+00	 4.814815e+00	 9.791846e+00
0	 1.925926e+00	 4.888889e+00	 9.792118e+00
0	 1.925926e+00	 4.962963e+00	 9.792729e+00
0	 1.925926e+00	 5.037037e+00	 9.793708e+00
0	 1.925926e+00	 5.111111e+00	 9.795085e+00
0	 1.925926e+00	 5.185185e+00	 9.796889e+00
0	 2.000000e+00	 4.814815e+00	 9.823476e+00
0	 2.000000e+00	 4.888889e+00	 9.822407e+00
0	 2.000000e+00	 4.962963e+00	 9.821729e+00
0	 2.000000e+00	 5.037037e+00	 9.821476e+00
0	 2.000000e+00	 5.111111e+00	 9.821683e+00
0	 2.000000e+00	 5.185185e+00	 9.822383e+00
0	 2.074074e+00	 4.814815e+00	 9.854471e+00
0	 2.074074e+00	 4.888889e+00	 9.852110e+00
0	 2.074074e+00	 4.962963e+00	 9.850202e+00
0	 2.074074e+00	 5.037037e+00	 9.848780e+00
0	 2.074074e+00	 5.111111e+00	 9.847880e+00
0	 2.074074e+00	 5.185185e+00	 9.847536e+00
0	 2.148148e+00	 4.814815e+00	 9.884688e+00
0	 2.148148e+00	 4.888889e+00	 9.881109e+00
0	 2.148148e+00	 4.962963e+00	 9.878043e+00
0	 2.148148e+00	 5.037037e+00	 9.875523e+00
0	 2.148148e+00	 5.111111e+00	 9.873580e+00
0	 2.148148e+00	 5.185185e+00	 9.872248e+00
0	 2.222222e+00	 4.814815e+00	 9.913984e+00
0	 2.222222e+00	 4.888889e+00	 9.909282e+00
0	 2.222222e+00	 4.962963e+00	 9.905147e+00
0	 2.222222e+00	 5.037037e+00	 9.901607e+00
0	 2.222222e+00	 5.111111e+00	 9.898688e+00
0	 2.222222e+00	 5.185185e+00	 9.896416e+00
0	 1.851852e+00	 5.185185e+00	 9.771154e+00
0	 1.851852e+00	 5.259259e+00	 9.774408e+00
0	 1.851852e+00	 5.333333e+00	 9.777862e+00
0	 1.851852e+00	 5.407407e+00	 9.781537e+00
0	 1.851852e+00	 5.481481e+00	 9.785454e+00
0	 1.851852e+00	 5.555556e+00	 9.789634e+00
0	 1.925926e+00	 5.185185e+00	 9.796889e+00
0	 1.925926e+00	 5.259259e+00	 9.799035e+00
0	 1.925926e+00	 5.333333e+00	 9.801431e+00
0	 1.925926e+00	 5.407407e+00	 9.804094e+00
0	 1.925926e+00	 5.481481e+00	 9.807041e+00
0	 1.925926e+00	 5.555556e+00	 9.810287e+00
0	 2.000000e+00	 5.185185e+00	 9.822383e+00
0	 2.000000e+00	 5.259259e+00	 9.823480e+00
0	 2.000000e+00	 5.333333e+00	 9.824862e+00
0	 2.000000e+00	 5.407407e+00	 9.826543e+00
0	 2.000000e+00	 5.481481e+00	 9.828539e+00
0	 2.000000e+00	 5.555556e+00	 9.830862e+00
0	 2.074074e+00	 5.185185e+00	 9.847536e+00
0	 2.074074e+00	 5.259259e+00	 9.847634e+00
0	 2.074074e+00	 5.333333e+00	 9.848042e+00
0	 2.074074e+00	 5.407407e+00	 9.848775e+00
0	 2.074074e+00	 5.481481e+00	 9.849844e+00
0	 2.074074e+00	 5.555556e+00	 9.851263e+00
0	 2.148148e+00	 5.185185e+00	 9.872248e+00
0	 2.148148e+00	 5.259259e+00	 9.871391e+00
0	 2.148148e+00	 5.333333e+00	 9.870864e+00
0	 2.148148e+00	 5.407407e+00	 9.870679e+00
0	 2.148148e+00	 5.481481e+00	 9.870852e+00
0	 2.148148e+00	 5.555556e+00	 9.871396e+00
0	 2.222222e+00	 5.185185e+00	 9.896416e+00
0	 2.222222e+00	 5.259259e+00	 9.894643e+00
0	 2.222222e+00	 5.333333e+00	 9.893214e+00
0	 2.222222e+00	 5.407407e+00	 9.892148e+00
0	 2.222222e+00	 5.481481e+00	 9.891459e+00
0	 2.222222e+00	 5.555556e+00	 9.891166e+00
0	 1.851852e+00	 5.555556e+00	 9.789634e+00
0	 1.851852e+00	 5.629630e+00	 9.793985e+00
0	 1.851852e+00	 5.703704e+00	 9.798406e+00
0	 1.851852e+00	 5.777778e+00	 9.802910e+00
0	 1.851852e+00	 5.851852e+00	 9.807510e+00
0	 1.851852e+00	 5.925926e+00	 9.812217e+00
0	 1.925926e+00	 5.555556e+00	 9.810287e+00
0	 1.925926e+00	 5.629630e+00	 9.813735e+00
0	 1.925926e+00	 5.703704e+00	 9.817282e+00
0	 1.925926e+00	 5.777778e+00	 9.820945e+00
0	 1.925926e+00	 5.851852e+00	 9.824739e+00
0	 1.925926e+00	 5.925926e+00	 9.828679e+00
0	 2.000000e+00	 5.555556e+00	 9.830862e+00
0	 2.000000e+00	 5.629630e+00	 9.833415e+00
0	 2.000000e+00	 5.703704e+00	 9.836102e+00
0	 2.000000e+00	 5.777778e+00	 9.838941e+00
0	 2.000000e+00	 5.851852e+00	 9.841948e+00
0	 2.000000e+00	 5.925926e+00	 9.845140e+00
0	 2.074074e+00	 5.555556e+00	 9.851263e+00
0	 2.074074e+00	 5.629630e+00	 9.852941e+00
0	 2.074074e+00	 5.703704e+00	 9.854789e+00
0	 2.074074e+00	 5.777778e+00	 9.856826e+00
0	 2.074074e+00	 5.851852e+00	 9.859068e+00
0	 2.074074e+00	 5.925926e+00	 9.861533e+00
0	 2.148148e+00	 5.555556e+00	 9.871396e+00
0	 2.148148e+00	 5.629630e+00	 9.872227e+00
0	 2.148148e+00	 5.703704e+00	 9.873266e+00
0	 2.148148e+00	 5.777778e+00	 9.874528e+00
0	 2.148148e+00	 5.851852e+00	 9.876030e+00
0	 2.148148e+00	 5.925926e+00	 9.877790e+00
0	 2.222222e+00	 5.555556e+00	 9.891166e+00
0	 2.222222e+00	 5.629630e+00	 9.891190e+00
0	 2.222222e+00	 5.703704e+00	 9.891455e+00
0	 2.222222e+00	 5.777778e+00	 9.891975e+00
0	 2.222222e+00	 5.851852e+00	 9.892766e+00
0	 2.222222e+00	 5.925926e+00	 9.893841e+00
0	 1.851852e+00	 5.925926e+00	 9.812217e+00
0	 1.851852e+00	 6.000000e+00	 9.816992e+00
0	 1.851852e+00	 6.074074e+00	 9.821794e+00
0	 1.851852e+00	 6.148148e+00	 9.826632e+00
0	 1.851852e+00	 6.222222e+00	 9.831516e+00
0	 1.851852e+00	 6.296296e+00	 9.836457e+00
0	 1.925926e+00	 5.925926e+00	 9.828679e+00
0	 1.925926e+00	 6.000000e+00	 9.832721e+00
0	 1.925926e+00	 6.074074e+00	 9.836820e+00
0	 1.925926e+00	 6.148148e+00	 9.840983e+00
0	 1.925926e+00	 6.222222e+00	 9.845220e+00
0	 1.925926e+00	 6.296296e+00	 9.849539e+00
0	 2.000000e+00	 5.925926e+00	 9.845140e+00
0	 2.000000e+00	 6.000000e+00	 9.848468e+00
0	 2.000000e+00	 6.074074e+00	 9.851876e+00
0	 2.000000e+00	 6.148148e+00	 9.855373e+00
0	 2.000000e+00	 6.222222e+00	 9.858968e+00
0	 2.000000e+00	 6.296296e+00	 9.862669e+00
0	 2.074074e+00	 5.925926e+00	 9.861533e+00
0	 2.074074e+00	 6.000000e+00	 9.864164e+00
0	 2.074074e+00	 6.074074e+00	 9.866896e+00
0	 2.074074e+00	 6.148148e+00	 9.869738e+00
0	 2.074074e+00	 6.222222e+00	 9.872699e+00
0	 2.074074e+00	 6.296296e+00	 9.875787e+00
0	 2.148148e+00	 5.925926e+00	 9.877790e+00
0	 2.148148e+00	 6.000000e+00	 9.879741e+00
0	 2.148148e+00	 6.074074e+00	 9.881811e+00
0	 2.148148e+00	 6.148148e+00	 9.884011e+00
0	 2.148148e+00	 6.222222e+00	 9.886350e+00
0	 2.148148e+00	 6.296296e+00	 9.888836e+00
0	 2.222222e+00	 5.925926e+00	 9.893841e+00
0	 2.222222e+00	 6.000000e+00	 9.895129e+00
0	 2.222222e+00	 6.074074e+00	 9.896554e+00
0	 2.222222e+00	 6.148148e+00	 9.898127e+00
0	 2.222222e+00	 6.222222e+00	 9.899858e+00
0	 2.222222e+00	 6.296296e+00	 9.901758e+00
0	 1.851852e+00	 6.296296e+00	 9.836457e+00
0	 1.851852e+00	 6.370370e+00	 9.841416e+00
0	 1.851852e+00	 6.444444e+00	 9.846352e+00
0	 1.851852e+00	 6.518519e+00	 9.851271e+00
0	 1.851852e+00	 6.592593e+00	 9.856181e+00
0	 1.851852e+00	 6.666667e+00	 9.861089e+00
0	 1.925926e+00	 6.296296e+00	 9.849539e+00
0	 1.925926e+00	 6.370370e+00	 9.853900e+00
0	 1.925926e+00	 6.444444e+00	 9.858256e+00
0	 1.925926e+00	 6.518519e+00	 9.862618e+00
0	 1.925926e+00	 6.592593e+00	 9.866992e+00
0	 1.925926e+00	 6.666667e+00	 9.871388e+00
0	 2.000000e+00	 6.296296e+00	 9.862669e+00
0	 2.000000e+00	 6.370370e+00	 9.866431e+00
0	 2.000000e+00	 6.444444e+00	 9.870212e+00
0	 2.000000e+00	 6.518519e+00	 9.874019e+00
0	 2.000000e+00	 6.592593e+00	 9.877863e+00
0	 2.000000e+00	 6.666667e+00	 9.881751e+00
0	 2.074074e+00	 6.296296e+00	 9.875787e+00
0	 2.074074e+00	 6.370370e+00	 9.878958e+00
0	 2.074074e+00	 6.444444e+00	 9.882169e+00
0	 2.074074e+00	 6.518519e+00	 9.885429e+00
0	 2.074074e+00	 6.592593e+00	 9.888747e+00
0	 2.074074e+00	 6.666667e+00	 9.892133e+00
0	 2.148148e+00	 6.296296e+00	 9.888836e+00
0	 2.148148e+00	 6.370370e+00	 9.891427e+00
0	 2.148148e+00	 6.444444e+00	 9.894079e+00
0	 2.148148e+00	 6.518519e+00	 9.896801e+00
0	 2.148148e+00	 6.592593e+00	 9.899602e+00
0	 2.148148e+00	 6.666667e+00	 9.902492e+00
0	 2.222222e+00	 6.296296e+00	 9.901758e+00
0	 2.222222e+00	 6.370370e+00	 9.903783e+00
0	 2.222222e+00	 6.444444e+00	 9.905890e+00
0	 2.222222e+00	 6.518519e+00	 9.908087e+00
0	 2.222222e+00	 6.592593e+00	 9.910382e+00
0	 2.222222e+00	 6.666667e+00	 9.912785e+00
0	 1.851852e+00	 6.666667e+00	 9.861089e+00
0	 1.851852e+00	 6.740741e+00	 9.865975e+00
0	 1.851852e+00	 6.814815e+00	 9.870815e+00
0	 1.851852e+00	 6.888889e+00	 9.875617e+00
0	 1.851852e+00	 6.962963e+00	 9.880385e+00
0	 1.851852e+00	 7.037037e+00	 9.885127e+00
0	 1.925926e+00	 6.666667e+00	 9.871388e+00
0	 1.925926e+00	 6.740741e+00	 9.875782e+00
0	 1.925926e+00	 6.814815e+00	 9.880149e+00
0	 1.925926e+00	 6.888889e+00	 9.884495e+00
0	 1.925926e+00	 6.962963e+00	 9.888824e+00
0	 1.925926e+00	 7.037037e+00	 9.893144e+00
0	 2.000000e+00	 6.666667e+00	 9.881751e+00
0	 2.000000e+00	 6.740741e+00	 9.885656e+00
0	 2.000000e+00	 6.814815e+00	 9.889551e+00
0	 2.000000e+00	 6.888889e+00	 9.893441e+00
0	 2.000000e+00	 6.962963e+00	 9.897332e+00
0	 2.000000e+00	 7.037037e+00	 9.901228e+00
0	 2.074074e+00	 6.666667e+00	 9.892133e+00
0	 2.074074e+00	 6.740741e+00	 9.895555e+00
0	 2.074074e+00	 6.814815e+00	 9.898982e+00
0	 2.074074e+00	 6.888889e+00	 9.902418e+00
0	 2.074074e+00	 6.962963e+00	 9.905871e+00
0	 2.074074e+00	 7.037037e+00	 9.909346e+00
0	 2.148148e+00	 6.666667e+00	 9.902492e+00
0	 2.148148e+00	 6.740741e+00	 9.905437e+00
0	 2.148148e+00	 6.814815e+00	 9.908400e+00
0	 2.148148e+00	 6.888889e+00	 9.911388e+00
0	 2.148148e+00	 6.962963e+00	 9.914406e+00
0	 2.148148e+00	 7.037037e+00	 9.917463e+00
0	 2.222222e+00	 6.666667e+00	 9.912785e+00
0	 2.222222e+00	 6.740741e+00	 9.915259e+00
0	 2.222222e+00	 6.814815e+00	 9.917765e+00
0	 2.222222e+00	 6.888889e+00	 9.920310e+00
0	 2.222222e+00	 6.962963e+00	 9.922900e+00
0	 2.222222e+00	 7.037037e+00	 9.925543e+00
0	 1.851852e+00	 7.037037e+00	 9.885127e+00
0	 1.851852e+00	 7.111111e+00	 9.889822e+00
0	 1.851852e+00	 7.185185e+00	 9.894451e+00
0	 1.851852e+00	 7.259259e+00	 9.899019e+00
0	 1.851852e+00	 7.333333e+00	 9.903530e+00
0	 1.851852e+00	 7.407407e+00	 9.907991e+00
0	 1.925926e+00	 7.037037e+00	 9.893144e+00
0	 1.925926e+00	 7.111111e+00	 9.897433e+00
0	 1.925926e+00	 7.185185e+00	 9.901668e+00
0	 1.925926e+00	 7.259259e+00	 9.905856e+00
0	 1.925926e+00	 7.333333e+00	 9.910002e+00
0	 1.925926e+00	 7.407407e+00	 9.914112e+00
0	 2.000000e+00	 7.037037e+00	 9.901228e+00
0	 2.000000e+00	 7.111111e+00	 9.905109e+00
0	 2.000000e+00	 7.185185e+00	 9.908950e+00
0	 2.000000e+00	 7.259259e+00	 9.912758e+00
0	 2.000000e+00	 7.333333e+00	 9.916538e+00
0	 2.000000e+00	 7.407407e+00	 9.920295e+00
0	 2.074074e+00	 7.037037e+00	 9.909346e+00
0	 2.074074e+00	 7.111111e+00	 9.912819e+00
0	 2.074074e+00	 7.185185e+00	 9.916267e+00
0	 2.074074e+00	 7.259259e+00	 9.919695e+00
0	 2.074074e+00	 7.333333e+00	 9.923109e+00
0	 2.074074e+00	 7.407407e+00	 9.926515e+00
0	 2.148148e+00	 7.037037e+00	 9.917463e+00
0	 2.148148e+00	 7.111111e+00	 9.920531e+00
0	 2.148148e+00	 7.185185e+00	 9.923588e+00
0	 2.148148e+00	 7.259259e+00	 9.926639e+00
0	 2.148148e+00	 7.333333e+00	 9.929689e+00
0	 2.148148e+00	 7.407407e+00	 9.932745e+00
0	 2.222222e+00	 7.037037e+00	 9.925543e+00
0	 2.222222e+00	 7.111111e+00	 9.928213e+00
0	 2.222222e+00	 7.185185e+00	 9.930884e+00
0	 2.222222e+00	 7.259259e+00	 9.933561e+00
0	 2.222222e+00	 7.333333e+00	 9.936251e+00
0	 2.222222e+00	 7.407407e+00	 9.938959e+00
0	 1.851852e+00	 7.407407e+00	 9.907991e+00
0	 1.851852e+00	 7.481481e+00	 9.912386e+00
0	 1.851852e+00	 7.555556e+00	 9.916702e+00
0	 1.851852e+00	 7.629630e+00	 9.920942e+00
0	 1.851852e+00	 7.703704e+00	 9.925112e+00
0	 1.851852e+00	 7.777778e+00	 9.929217e+00
0	 1.925926e+00	 7.407407e+00	 9.914112e+00
0	 1.925926e+00	 7.481481e+00	 9.918170e+00
0	 1.925926e+00	 7.555556e+00	 9.922158e+00
0	 1.925926e+00	 7.629630e+00	 9.926084e+00
0	 1.925926e+00	 7.703704e+00	 9.929950e+00
0	 1.925926e+00	 7.777778e+00	 9.933762e+00
0	 2.000000e+00	 7.407407e+00	 9.920295e+00
0	 2.000000e+00	 7.481481e+00	 9.924013e+00
0	 2.000000e+00	 7.555556e+00	 9.927674e+00
0	 2.000000e+00	 7.629630e+00	 9.931282e+00
0	 2.000000e+00	 7.703704e+00	 9.934843e+00
0	 2.000000e+00	 7.777778e+00	 9.938360e+00
0	 2.074074e+00	 7.407407e+00	 9.926515e+00
0	 2.074074e+00	 7.481481e+00	 9.929894e+00
0	 2.074074e+00	 7.555556e+00	 9.933226e+00
0	 2.074074e+00	 7.629630e+00	 9.936516e+00
0	 2.074074e+00	 7.703704e+00	 9.939770e+00
0	 2.074074e+00	 7.777778e+00	 9.942991e+00
0	 2.148148e+00	 7.407407e+00	 9.932745e+00
0	 2.148148e+00	 7.481481e+00	 9.935785e+00
0	 2.148148e+00	 7.555556e+00	 9.938790e+00
0	 2.148148e+00	 7.629630e+00	 9.941763e+00
0	 2.148148e+00	 7.703704e+00	 9.944710e+00
0	 2.148148e+00	 7.777778e+00	 9.947636e+00
0	 2.222222e+00	 7.407407e+00	 9.938959e+00
0	 2.222222e+00	 7.481481e+00	 9.941664e+00
0	 2.222222e+00	 7.555556e+00	 9.944343e+00
0	 2.222222e+00	 7.629630e+00	 9.947001e+00
0	 2.222222e+00	 7.703704e+00	 9.949643e+00
0	 2.222222e+00	 7.777778e+00	 9.952274e+00
0	 1.851852e+00	 7.777778e+00	 9.929217e+00
0	 1.851852e+00	 7.851852e+00	 9.933241e+00
0	 1.851852e+00	 7.925926e+00	 9.937171e+00
0	 1.851852e+00	 8.000000e+00	 9.941011e+00
0	 1.851852e+00	 8.074074e+00	 9.944767e+00
0	 1.851852e+00	 8.148148e+00	 9.948442e+00
0	 1.925926e+00	 7.777778e+00	 9.933762e+00
0	 1.925926e+00	 7.851852e+00	 9.937504e+00
0	 1.925926e+00	 7.925926e+00	 9.941161e+00
0	 1.925926e+00	 8.000000e+00	 9.944739e+00
0	 1.925926e+00	 8.074074e+00	 9.948241e+00
0	 1.925926e+00	 8.148148e+00	 9.951673e+00
0	 2.000000e+00	 7.777778e+00	 9.938360e+00
0	 2.000000e+00	 7.851852e+00	 9.941818e+00
0	 2.000000e+00	 7.925926e+00	 9.945200e+00
0	 2.000000e+00	 8.000000e+00	 9.948512e+00
0	 2.000000e+00	 8.074074e+00	 9.951759e+00
0	 2.000000e+00	 8.148148e+00	 9.954945e+00
0	 2.074074e+00	 7.777778e+00	 9.942991e+00
0	 2.074074e+00	 7.851852e+00	 9.946163e+00
0	 2.074074e+00	 7.925926e+00	 9.949270e+00
0	 2.074074e+00	 8.000000e+00	 9.952316e+00
0	 2.074074e+00	 8.074074e+00	 9.955306e+00
0	 2.074074e+00	 8.148148e+00	 9.958245e+00
0	 2.148148e+00	 7.777778e+00	 9.947636e+00
0	 2.148148e+00	 7.851852e+00	 9.950522e+00
0	 2.148148e+00	 7.925926e+00	 9.953353e+00
0	 2.148148e+00	 8.000000e+00	 9.956133e+00
0	 2.148148e+00	 8.074074e+00	 9.958866e+00
0	 2.148148e+00	 8.148148e+00	 9.961557e+00
0	 2.222222e+00	 7.777778e+00	 9.952274e+00
0	 2.222222e+00	 7.851852e+00	 9.954876e+00
0	 2.222222e+00	 7.925926e+00	 9.957432e+00
0	 2.222222e+00	 8.000000e+00	 9.959946e+00
0	 2.222222e+00	 8.074074e+00	 9.962423e+00
0	 2.222222e+00	 8.148148e+00	 9.964867e+00
0	 1.851852e+00	 8.148148e+00	 9.948442e+00
0	 1.851852e+00	 8.222222e+00	 9.952024e+00
0	 1.851852e+00	 8.296296e+00	 9.955496e+00
0	 1.851852e+00	 8.370370e+00	 9.958865e+00
0	 1.851852e+00	 8.444444e+00	 9.962135e+00
0	 1.851852e+00	 8.518519e+00	 9.965311e+00
0	 1.925926e+00	 8.148148e+00	 9.951673e+00
0	 1.925926e+00	 8.222222e+00	 9.955020e+00
0	 1.925926e+00	 8.296296e+00	 9.958266e+00
0	 1.925926e+00	 8.370370e+00	 9.961418e+00
0	 1.925926e+00	 8.444444e+00	 9.964479e+00
0	 1.925926e+00	 8.518519e+00	 9.967455e+00
0	 2.000000e+00	 8.148148e+00	 9.954945e+00
0	 2.000000e+00	 8.222222e+00	 9.958056e+00
0	 2.000000e+00	 8.296296e+00	 9.961074e+00
0	 2.000000e+00	 8.370370e+00	 9.964006e+00
0	 2.000000e+00	 8.444444e+00	 9.966856e+00
0	 2.000000e+00	 8.518519e+00	 9.969630e+00
0	 2.074074e+00	 8.148148e+00	 9.958245e+00
0	 2.074074e+00	 8.222222e+00	 9.961117e+00
0	 2.074074e+00	 8.296296e+00	 9.963906e+00
0	 2.074074e+00	 8.370370e+00	 9.966617e+00
0	 2.074074e+00	 8.444444e+00	 9.969255e+00
0	 2.074074e+00	 8.518519e+00	 9.971824e+00
0	 2.148148e+00	 8.148148e+00	 9.961557e+00
0	 2.148148e+00	 8.222222e+00	 9.964191e+00
0	 2.148148e+00	 8.296296e+00	 9.966750e+00
0	 2.148148e+00	 8.370370e+00	 9.969239e+00
0	 2.148148e+00	 8.444444e+00	 9.971664e+00
0	 2.148148e+00	 8.518519e+00	 9.974028e+00
0	 2.222222e+00	 8.148148e+00	 9.964867e+00
0	 2.222222e+00	 8.222222e+00	 9.967262e+00
0	 2.222222e+00	 8.296296e+00	 9.969591e+00
0	 2.222222e+00	 8.370370e+00	 9.971859e+00
0	 2.222222e+00	 8.444444e+00	 9.974071e+00
0	 2.222222e+00	 8.518519e+00	 9.976230e+00
0	 1.851852e+00	 8.518519e+00	 9.965311e+00
0	 1.851852e+00	 8.592593e+00	 9.968377e+00
0	 1.851852e+00	 8.666667e+00	 9.971317e+00
0	 1.851852e+00	 8.740741e+00	 9.974135e+00
0	 1.851852e+00	 8.814815e+00	 9.976838e+00
0	 1.851852e+00	 8.888889e+00	 9.979432e+00
0	 1.925926e+00	 8.518519e+00	 9.967455e+00
0	 1.925926e+00	 8.592593e+00	 9.970329e+00
0	 1.925926e+00	 8.666667e+00	 9.973085e+00
0	 1.925926e+00	 8.740741e+00	 9.975727e+00
0	 1.925926e+00	 8.814815e+00	 9.978263e+00
0	 1.925926e+00	 8.888889e+00	 9.980697e+00
0	 2.000000e+00	 8.518519e+00	 9.969630e+00
0	 2.000000e+00	 8.592593e+00	 9.972310e+00
0	 2.000000e+00	 8.666667e+00	 9.974880e+00
0	 2.000000e+00	 8.740741e+00	 9.977345e+00
0	 2.000000e+00	 8.814815e+00	 9.979711e+00
0	 2.000000e+00	 8.888889e+00	 9.981984e+00
0	 2.074074e+00	 8.518519e+00	 9.971824e+00
0	 2.074074e+00	 8.592593e+00	 9.974309e+00
0	 2.074074e+00	 8.666667e+00	 9.976691e+00
0	 2.074074e+00	 8.740741e+00	 9.978978e+00
0	 2.074074e+00	 8.814815e+00	 9.981174e+00
0	 2.074074e+00	 8.888889e+00	 9.983284e+00
0	 2.148148e+00	 8.518519e+00	 9.974028e+00
0	 2.148148e+00	 8.592593e+00	 9.976316e+00
0	 2.148148e+00	 8.666667e+00	 9.978511e+00
0	 2.148148e+00	 8.740741e+00	 9.980618e+00
0	 2.148148e+00	 8.814815e+00	 9.982642e+00
0	 2.148148e+00	 8.888889e+00	 9.984589e+00
0	 2.222222e+00	 8.518519e+00	 9.976230e+00
0	 2.222222e+00	 8.592593e+00	 9.978321e+00
0	 2.222222e+00	 8.666667e+00	 9.980327e+00
0	 2.222222e+00	 8.740741e+00	 9.982255e+00
0	 2.222222e+00	 8.814815e+00	 9.984108e+00
0	 2.222222e+00	 8.888889e+00	 9.985890e+00
0	 1.851852e+00	 8.888889e+00	 9.979432e+00
0	 1.851852e+00	 8.962963e+00	 9.981896e+00
0	 1.851852e+00	 9.037037e+00	 9.984213e+00
0	 1.851852e+00	 9.111111e+00	 9.986387e+00
0	 1.851852e+00	 9.185185e+00	 9.988426e+00
0	 1.851852e+00	 9.259259e+00	 9.990338e+00
0	 1.925926e+00	 8.888889e+00	 9.980697e+00
0	 1.925926e+00	 8.962963e+00	 9.983011e+00
0	 1.925926e+00	 9.037037e+00	 9.985185e+00
0	 1.925926e+00	 9.111111e+00	 9.987225e+00
0	 1.925926e+00	 9.185185e+00	 9.989140e+00
0	 1.925926e+00	 9.259259e+00	 9.990934e+00
0	 2.000000e+00	 8.888889e+00	 9.981984e+00
0	 2.000000e+00	 8.962963e+00	 9.984145e+00
0	 2.000000e+00	 9.037037e+00	 9.986175e+00
0	 2.000000e+00	 9.111111e+00	 9.988081e+00
0	 2.000000e+00	 9.185185e+00	 9.989868e+00
0	 2.000000e+00	 9.259259e+00	 9.991544e+00
0	 2.074074e+00	 8.888889e+00	 9.983284e+00
0	 2.074074e+00	 8.962963e+00	 9.985291e+00
0	 2.074074e+00	 9.037037e+00	 9.987176e+00
0	 2.074074e+00	 9.111111e+00	 9.988946e+00
0	 2.074074e+00	 9.185185e+00	 9.990606e+00
0	 2.074074e+00	 9.259259e+00	 9.992162e+00
0	 2.148148e+00	 8.888889e+00	 9.984589e+00
0	 2.148148e+00	 8.962963e+00	 9.986440e+00
0	 2.148148e+00	 9.037037e+00	 9.988180e+00
0	 2.148148e+00	 9.111111e+00	 9.989813e+00
0	 2.148148e+00	 9.185185e+00	 9.991345e+00
0	 2.148148e+00	 9.259259e+00	 9.992780e+00
0	 2.222222e+00	 8.888889e+00	 9.985890e+00
0	 2.222222e+00	 8.962963e+00	 9.987586e+00
0	 2.222222e+00	 9.037037e+00	 9.989180e+00
0	 2.222222e+00	 9.111111e+00	 9.990675e+00
0	 2.222222e+00	 9.185185e+00	 9.992078e+00
0	 2.222222e+00	 9.259259e+00	 9.993393e+00
0	 1.851852e+00	 9.259259e+00	 9.990338e+00
0	 1.851852e+00	 9.333333e+00	 9.992096e+00
0	 1.851852e+00	 9.407407e+00	 9.993677e+00
0	 1.851852e+00	 9.481481e+00	 9.995089e+00
0	 1.851852e+00	 9.555556e+00	 9.996339e+00
0	 1.851852e+00	 9.629630e+00	 9.997437e+00
0	 1.925926e+00	 9.259259e+00	 9.990934e+00
0	 1.925926e+00	 9.333333e+00	 9.992584e+00
0	 1.925926e+00	 9.407407e+00	 9.994067e+00
0	 1.925926e+00	 9.481481e+00	 9.995392e+00
0	 1.925926e+00	 9.555556e+00	 9.996565e+00
0	 1.925926e+00	 9.629630e+00	 9.997593e+00
0	 2.000000e+00	 9.259259e+00	 9.991544e+00
0	 2.000000e+00	 9.333333e+00	 9.993085e+00
0	 2.000000e+00	 9.407407e+00	 9.994470e+00
0	 2.000000e+00	 9.481481e+00	 9.995706e+00
0	 2.000000e+00	 9.555556e+00	 9.996801e+00
0	 2.000000e+00	 9.629630e+00	 9.997760e+00
0	 2.074074e+00	 9.259259e+00	 9.992162e+00
0	 2.074074e+00	 9.333333e+00	 9.993593e+00
0	 2.074074e+00	 9.407407e+00	 9.994879e+00
0	 2.074074e+00	 9.481481e+00	 9.996026e+00
0	 2.074074e+00	 9.555556e+00	 9.997042e+00
0	 2.074074e+00	 9.629630e+00	 9.997931e+00
0	 2.148148e+00	 9.259259e+00	 9.992780e+00
0	 2.148148e+00	 9.333333e+00	 9.994101e+00
0	 2.148148e+00	 9.407407e+00	 9.995287e+00
0	 2.148148e+00	 9.481481e+00	 9.996345e+00
0	 2.148148e+00	 9.555556e+00	 9.997281e+00
0	 2.148148e+00	 9.629630e+00	 9.998100e+00
0	 2.222222e+00	 9.259259e+00	 9.993393e+00
0	 2.222222e+00	 9.333333e+00	 9.994602e+00
0	 2.222222e+00	 9.407407e+00	 9.995688e+00
0	 2.222222e+00	 9.481481e+00	 9.996656e+00
0	 2.222222e+00	 9.555556e+00	 9.997512e+00
0	 2.222222e+00	 9.629630e+00	 9.998260e+00
0	 1.851852e+00	 9.629630e+00	 9.997437e+00
0	 1.851852e+00	 9.703704e+00	 9.998353e+00
0	 1.851852e+00	 9.777778e+00	 9.999060e+00
0	 1.851852e+00	 9.851852e+00	 9.999567e+00
0	 1.851852e+00	 9.925926e+00	 9.999885e+00
0	 1.851852e+00	 1.000000e+01	 1.000002e+01
0	 1.925926e+00	 9.629630e+00	 9.997593e+00
0	 1.925926e+00	 9.703704e+00	 9.998451e+00
0	 1.925926e+00	 9.777778e+00	 9.999114e+00
0	 1.925926e+00	 9.851852e+00	 9.999589e+00
0	 1.925926e+00	 9.925926e+00	 9.999885e+00
0	 1.925926e+00	 1.000000e+01	 1.000001e+01
0	 2.000000e+00	 9.629630e+00	 9.997760e+00
0	 2.000000e+00	 9.703704e+00	 9.998560e+00
0	 2.000000e+00	 9.777778e+00	 9.999178e+00
0	 2.000000e+00	 9.851852e+00	 9.999621e+00
0	 2.000000e+00	 9.925926e+00	 9.999897e+00
0	 2.000000e+00	 1.000000e+01	 1.000001e+01
0	 2.074074e+00	 9.629630e+00	 9.997931e+00
0	 2.074074e+00	 9.703704e+00	 9.998673e+00
0	 2.074074e+00	 9.777778e+00	 9.999245e+00
0	 2.074074e+00	 9.851852e+00	 9.999656e+00
0	 2.074074e+00	 9.925926e+00	 9.999912e+00
0	 2.074074e+00	 1.000000e+01	 1.000002e+01
0	 2.148148e+00	 9.629630e+00	 9.998100e+00
0	 2.148148e+00	 9.703704e+00	 9.998783e+00
0	 2.148148e+00	 9.777778e+00	 9.999310e+00
0	 2.148148e+00	 9.851852e+00	 9.999688e+00
0	 2.148148e+00	 9.925926e+00	 9.999923e+00
0	 2.148148e+00	 1.000000e+01	 1.000002e+01
0	 2.222222e+00	 9.629630e+00	 9.998260e+00
0	 2.222222e+00	 9.703704e+00	 9.998884e+00
0	 2.222222e+00	 9.777778e+00	 9.999365e+00
0	 2.222222e+00	 9.851852e+00	 9.999710e+00
0	 2.222222e+00	 9.925926e+00	 9.999923e+00
0	 2.222222e+00	 1.000000e+01	 1.000001e+01
0	 2.222222e+00	 0.000000e+00	 1.220714e+01
0	 2.222222e+00	 7.407407e-02	 1.224170e+01
0	 2.222222e+00	 1.481481e-01	 1.222337e+01
0	 2.222222e+00	 2.222222e-01	 1.217569e+01
0	 2.222222e+00	 2.962963e-01	 1.212214e+01
0	 2.222222e+00	 3.703704e-01	 1.208625e+01
0	 2.296296e+00	 0.000000e+00	 1.173399e+01
0	 2.296296e+00	 7.407407e-02	 1.176766e+01
0	 2.296296e+00	 1.481481e-01	 1.178748e+01
0	 2.296296e+00	 2.222222e-01	 1.180187e+01
0	 2.296296e+00	 2.962963e-01	 1.181926e+01
0	 2.296296e+00	 3.703704e-01	 1.184808e+01
0	 2.370370e+00	 0.000000e+00	 1.143461e+01
0	 2.370370e+00	 7.407407e-02	 1.145538e+01
0	 2.370370e+00	 1.481481e-01	 1.148937e+01
0	 2.370370e+00	 2.222222e-01	 1.153458e+01
0	 2.370370e+00	 2.962963e-01	 1.158898e+01
0	 2.370370e+00	 3.703704e-01	 1.165056e+01
0	 2.444444e+00	 0.000000e+00	 1.127738e+01
0	 2.444444e+00	 7.407407e-02	 1.128004e+01
0	 2.444444e+00	 1.481481e-01	 1.131089e+01
0	 2.444444e+00	 2.222222e-01	 1.136212e+01
0	 2.444444e+00	 2.962963e-01	 1.142590e+01
0	 2.444444e+00	 3.703704e-01	 1.149442e+01
0	 2.518519e+00	 0.000000e+00	 1.123066e+01
0	 2.518519e+00	 7.407407e-02	 1.121682e+01
0	 2.518519e+00	 1.481481e-01	 1.123386e+01
0	 2.518519e+00	 2.222222e-01	 1.127279e+01
0	 2.518519e+00	 2.962963e-01	 1.132465e+01
0	 2.518519e+00	 3.703704e-01	 1.138044e+01
0	 2.592593e+00	 0.000000e+00	 1.126282e+01
0	 2.592593e+00	 7.407407e-02	 1.124089e+01
0	 2.592593e+00	 1.481481e-01	 1.124009e+01
0	 2.592593e+00	 2.222222e-01	 1.125491e+01
0	 2.592593e+00	 2.962963e-01	 1.127983e+01
0	 2.592593e+00	 3.703704e-01	 1.130936e+01
0	 2.222222e+00	 3.703704e-01	 1.208625e+01
0	 2.222222e+00	 4.444444e-01	 1.207306e+01
0	 2.222222e+00	 5.185185e-01	 1.207019e+01
0	 2.222222e+00	 5.925926e-01	 1.207508e+01
0	 2.222222e+00	 6.666667e-01	 1.208514e+01
0	 2.222222e+00	 7.407407e-01	 1.209779e+01
0	 2.296296e+00	 3.703704e-01	 1.184808e+01
0	 2.296296e+00	 4.444444e-01	 1.188243e+01
0	 2.296296e+00	 5.185185e-01	 1.191131e+01
0	 2.296296e+00	 5.925926e-01	 1.193557e+01
0	 2.296296e+00	 6.666667e-01	 1.195604e+01
0	 2.296296e+00	 7.407407e-01	 1.197355e+01
0	 2.370370e+00	 3.703704e-01	 1.165056e+01
0	 2.370370e+00	 4.444444e-01	 1.170761e+01
0	 2.370370e+00	 5.185185e-01	 1.175183e+01
0	 2.370370e+00	 5.925926e-01	 1.178634e+01
0	 2.370370e+00	 6.666667e-01	 1.181423e+01
0	 2.370370e+00	 7.407407e-01	 1.183862e+01
0	 2.444444e+00	 3.703704e-01	 1.149442e+01
0	 2.444444e+00	 4.444444e-01	 1.155453e+01
0	 2.444444e+00	 5.185185e-01	 1.160111e+01
0	 2.444444e+00	 5.925926e-01	 1.163840e+01
0	 2.444444e+00	 6.666667e-01	 1.167066e+01
0	 2.444444e+00	 7.407407e-01	 1.170211e+01
0	 2.518519e+00	 3.703704e-01	 1.138044e+01
0	 2.518519e+00	 4.444444e-01	 1.142913e+01
0	 2.518519e+00	 5.185185e-01	 1.146851e+01
0	 2.518519e+00	 5.925926e-01	 1.150280e+01
0	 2.518519e+00	 6.666667e-01	 1.153625e+01
0	 2.518519e+00	 7.407407e-01	 1.157310e+01
0	 2.592593e+00	 3.703704e-01	 1.130936e+01
0	 2.592593e+00	 4.444444e-01	 1.133735e+01
0	 2.592593e+00	 5.185185e-01	 1.136338e+01
0	 2.592593e+00	 5.925926e-01	 1.139055e+01
0	 2.592593e+00	 6.666667e-01	 1.142196e+01
0	 2.592593e+00	 7.407407e-01	 1.146070e+01
0	 2.222222e+00	 7.407407e-01	 1.209779e+01
0	 2.222222e+00	 8.148148e-01	 1.210538e+01
0	 2.222222e+00	 8.888889e-01	 1.210272e+01
0	 2.222222e+00	 9.629630e-01	 1.209091e+01
0	 2.222222e+00	 1.037037e+00	 1.207102e+01
0	 2.222222e+00	 1.111111e+00	 1.204414e+01
0	 2.296296e+00	 7.407407e-01	 1.197355e+01
0	 2.296296e+00	 8.148148e-01	 1.198456e+01
0	 2.296296e+00	 8.888889e-01	 1.198577e+01
0	 2.296296e+00	 9.629630e-01	 1.197837e+01
0	 2.296296e+00	 1.037037e+00	 1.196353e+01
0	 2.296296e+00	 1.111111e+00	 1.194243e+01
0	 2.370370e+00	 7.407407e-01	 1.183862e+01
0	 2.370370e+00	 8.148148e-01	 1.185706e+01
0	 2.370370e+00	 8.888889e-01	 1.186586e+01
0	 2.370370e+00	 9.629630e-01	 1.186628e+01
0	 2.370370e+00	 1.037037e+00	 1.185957e+01
0	 2.370370e+00	 1.111111e+00	 1.184698e+01
0	 2.444444e+00	 7.407407e-01	 1.170211e+01
0	 2.444444e+00	 8.148148e-01	 1.172938e+01
0	 2.444444e+00	 8.888889e-01	 1.174713e+01
0	 2.444444e+00	 9.629630e-01	 1.175666e+01
0	 2.444444e+00	 1.037037e+00	 1.175927e+01
0	 2.444444e+00	 1.111111e+00	 1.175624e+01
0	 2.518519e+00	 7.407407e-01	 1.157310e+01
0	 2.518519e+00	 8.148148e-01	 1.160802e+01
0	 2.518519e+00	 8.888889e-01	 1.163371e+01
0	 2.518519e+00	 9.629630e-01	 1.165150e+01
0	 2.518519e+00	 1.037037e+00	 1.166272e+01
0	 2.518519e+00	 1.111111e+00	 1.166869e+01
0	 2.592593e+00	 7.407407e-01	 1.146070e+01
0	 2.592593e+00	 8.148148e-01	 1.149946e+01
0	 2.592593e+00	 8.888889e-01	 1.152971e+01
0	 2.592593e+00	 9.629630e-01	 1.155280e+01
0	 2.592593e+00	 1.037037e+00	 1.157004e+01
0	 2.592593e+00	 1.111111e+00	 1.158277e+01
0	 2.222222e+00	 1.111111e+00	 1.204414e+01
0	 2.222222e+00	 1.185185e+00	 1.201139e+01
0	 2.222222e+00	 1.259259e+00	 1.197331e+01
0	 2.222222e+00	 1.333333e+00	 1.193011e+01
0	 2.222222e+00	 1.407407e+00	 1.188205e+01
0	 2.222222e+00	 1.481481e+00	 1.182935e+01
0	 2.296296e+00	 1.111111e+00	 1.194243e+01
0	 2.296296e+00	 1.185185e+00	 1.191645e+01
0	 2.296296e+00	 1.259259e+00	 1.188633e+01
0	 2.296296e+00	 1.333333e+00	 1.185228e+01
0	 2.296296e+00	 1.407407e+00	 1.181453e+01
0	 2.296296e+00	 1.481481e+00	 1.177329e+01
0	 2.370370e+00	 1.111111e+00	 1.184698e+01
0	 2.370370e+00	 1.185185e+00	 1.182955e+01
0	 2.370370e+00	 1.259259e+00	 1.180765e+01
0	 2.370370e+00	 1.333333e+00	 1.178148e+01
0	 2.370370e+00	 1.407407e+00	 1.175125e+01
0	 2.370370e+00	 1.481481e+00	 1.171717e+01
0	 2.444444e+00	 1.111111e+00	 1.175624e+01
0	 2.444444e+00	 1.185185e+00	 1.174795e+01
0	 2.444444e+00	 1.259259e+00	 1.173401e+01
0	 2.444444e+00	 1.333333e+00	 1.171463e+01
0	 2.444444e+00	 1.407407e+00	 1.169002e+01
0	 2.444444e+00	 1.481481e+00	 1.166037e+01
0	 2.518519e+00	 1.111111e+00	 1.166869e+01
0	 2.518519e+00	 1.185185e+00	 1.166893e+01
0	 2.518519e+00	 1.259259e+00	 1.166220e+01
0	 2.518519e+00	 1.333333e+00	 1.164870e+01
0	 2.518519e+00	 1.407407e+00	 1.162865e+01
0	 2.518519e+00	 1.481481e+00	 1.160226e+01
0	 2.592593e+00	 1.111111e+00	 1.158277e+01
0	 2.592593e+00	 1.185185e+00	 1.158974e+01
0	 2.592593e+00	 1.259259e+00	 1.158896e+01
0	 2.592593e+00	 1.333333e+00	 1.158062e+01
0	 2.592593e+00	 1.407407e+00	 1.156497e+01
0	 2.592593e+00	 1.481481e+00	 1.154221e+01
0	 2.222222e+00	 1.481481e+00	 1.182935e+01
0	 2.222222e+00	 1.555556e+00	 1.177274e+01
0	 2.222222e+00	 1.629630e+00	 1.171200e+01
0	 2.222222e+00	 1.703704e+00	 1.164594e+01
0	 2.222222e+00	 1.777778e+00	 1.157338e+01
0	 2.222222e+00	 1.851852e+00	 1.149314e+01
0	 2.296296e+00	 1.481481e+00	 1.177329e+01
0	 2.296296e+00	 1.555556e+00	 1.172766e+01
0	 2.296296e+00	 1.629630e+00	 1.167618e+01
0	 2.296296e+00	 1.703704e+00	 1.161818e+01
0	 2.296296e+00	 1.777778e+00	 1.155301e+01
0	 2.296296e+00	 1.851852e+00	 1.148001e+01
0	 2.370370e+00	 1.481481e+00	 1.171717e+01
0	 2.370370e+00	 1.555556e+00	 1.167827e+01
0	 2.370370e+00	 1.629630e+00	 1.163324e+01
0	 2.370370e+00	 1.703704e+00	 1.158182e+01
0	 2.370370e+00	 1.777778e+00	 1.152370e+01
0	 2.370370e+00	 1.851852e+00	 1.145861e+01
0	 2.444444e+00	 1.481481e+00	 1.166037e+01
0	 2.444444e+00	 1.555556e+00	 1.162557e+01
0	 2.444444e+00	 1.629630e+00	 1.158534e+01
0	 2.444444e+00	 1.703704e+00	 1.153961e+01
0	 2.444444e+00	 1.777778e+00	 1.148832e+01
0	 2.444444e+00	 1.851852e+00	 1.143141e+01
0	 2.518519e+00	 1.481481e+00	 1.160226e+01
0	 2.518519e+00	 1.555556e+00	 1.157060e+01
0	 2.518519e+00	 1.629630e+00	 1.153462e+01
0	 2.518519e+00	 1.703704e+00	 1.149433e+01
0	 2.518519e+00	 1.777778e+00	 1.144975e+01
0	 2.518519e+00	 1.851852e+00	 1.140088e+01
0	 2.592593e+00	 1.481481e+00	 1.154221e+01
0	 2.592593e+00	 1.555556e+00	 1.151435e+01
0	 2.592593e+00	 1.629630e+00	 1.148321e+01
0	 2.592593e+00	 1.703704e+00	 1.144874e+01
0	 2.592593e+00	 1.777778e+00	 1.141087e+01
0	 2.592593e+00	 1.851852e+00	 1.136953e+01
0	 2.222222e+00	 1.851852e+00	 1.149314e+01
0	 2.222222e+00	 1.925926e+00	 1.140975e+01
0	 2.222222e+00	 2.000000e+00	 1.132837e+01
0	 2.222222e+00	 2.074074e+00	 1.124871e+01
0	 2.222222e+00	 2.148148e+00	 1.117051e+01
0	 2.222222e+00	 2.222222e+00	 1.109349e+01
0	 2.296296e+00	 1.851852e+00	 1.148001e+01
0	 2.296296e+00	 1.925926e+00	 1.140420e+01
0	 2.296296e+00	 2.000000e+00	 1.133060e+01
0	 2.296296e+00	 2.074074e+00	 1.125855e+01
0	 2.296296e+00	 2.148148e+00	 1.118743e+01
0	 2.296296e+00	 2.222222e+00	 1.111657e+01
0	 2.370370e+00	 1.851852e+00	 1.145861e+01
0	 2.370370e+00	 1.925926e+00	 1.139114e+01
0	 2.370370e+00	 2.000000e+00	 1.132552e+01
0	 2.370370e+00	 2.074074e+00	 1.126085e+01
0	 2.370370e+00	 2.148148e+00	 1.119628e+01
0	 2.370370e+00	 2.222222e+00	 1.113094e+01
0	 2.444444e+00	 1.851852e+00	 1.143141e+01
0	 2.444444e+00	 1.925926e+00	 1.137250e+01
0	 2.444444e+00	 2.000000e+00	 1.131463e+01
0	 2.444444e+00	 2.074074e+00	 1.125687e+01
0	 2.444444e+00	 2.148148e+00	 1.119828e+01
0	 2.444444e+00	 2.222222e+00	 1.113791e+01
0	 2.518519e+00	 1.851852e+00	 1.140088e+01
0	 2.518519e+00	 1.925926e+00	 1.135017e+01
0	 2.518519e+00	 2.000000e+00	 1.129946e+01
0	 2.518519e+00	 2.074074e+00	 1.124790e+01
0	 2.518519e+00	 2.148148e+00	 1.119462e+01
0	 2.518519e+00	 2.222222e+00	 1.113878e+01
0	 2.592593e+00	 1.851852e+00	 1.136953e+01
0	 2.592593e+00	 1.925926e+00	 1.132607e+01
0	 2.592593e+00	 2.000000e+00	 1.128150e+01
0	 2.592593e+00	 2.074074e+00	 1.123519e+01
0	 2.592593e+00	 2.148148e+00	 1.118652e+01
0	 2.592593e+00	 2.222222e+00	 1.113486e+01
0	 2.222222e+00	 2.222222e+00	 1.109349e+01
0	 2.222222e+00	 2.296296e+00	 1.101875e+01
0	 2.222222e+00	 2.370370e+00	 1.094712e+01
0	 2.222222e+00	 2.444444e+00	 1.087795e+01
0	 2.222222e+00	 2.518519e+00	 1.081059e+01
0	 2.222222e+00	 2.592593e+00	 1.074438e+01
0	 2.296296e+00	 2.222222e+00	 1.111657e+01
0	 2.296296e+00	 2.296296e+00	 1.104678e+01
0	 2.296296e+00	 2.370370e+00	 1.097906e+01
0	 2.296296e+00	 2.444444e+00	 1.091301e+01
0	 2.296296e+00	 2.518519e+00	 1.084825e+01
0	 2.296296e+00	 2.592593e+00	 1.078439e+01
0	 2.370370e+00	 2.222222e+00	 1.113094e+01
0	 2.370370e+00	 2.296296e+00	 1.106569e+01
0	 2.370370e+00	 2.370370e+00	 1.100187e+01
0	 2.370370e+00	 2.444444e+00	 1.093925e+01
0	 2.370370e+00	 2.518519e+00	 1.087763e+01
0	 2.370370e+00	 2.592593e+00	 1.081681e+01
0	 2.444444e+00	 2.222222e+00	 1.113791e+01
0	 2.444444e+00	 2.296296e+00	 1.107692e+01
0	 2.444444e+00	 2.370370e+00	 1.101702e+01
0	 2.444444e+00	 2.444444e+00	 1.095810e+01
0	 2.444444e+00	 2.518519e+00	 1.090003e+01
0	 2.444444e+00	 2.592593e+00	 1.084270e+01
0	 2.518519e+00	 2.222222e+00	 1.113878e+01
0	 2.518519e+00	 2.296296e+00	 1.108190e+01
0	 2.518519e+00	 2.370370e+00	 1.102602e+01
0	 2.518519e+00	 2.444444e+00	 1.097101e+01
0	 2.518519e+00	 2.518519e+00	 1.091675e+01
0	 2.518519e+00	 2.592593e+00	 1.086312e+01
0	 2.592593e+00	 2.222222e+00	 1.113486e+01
0	 2.592593e+00	 2.296296e+00	 1.108208e+01
0	 2.592593e+00	 2.370370e+00	 1.103034e+01
0	 2.592593e+00	 2.444444e+00	 1.097941e+01
0	 2.592593e+00	 2.518519e+00	 1.092908e+01
0	 2.592593e+00	 2.592593e+00	 1.087914e+01
0	 2.222222e+00	 2.592593e+00	 1.074438e+01
0	 2.222222e+00	 2.666667e+00	 1.068038e+01
0	 2.222222e+00	 2.740741e+00	 1.062004e+01
0	 2.222222e+00	 2.814815e+00	 1.056331e+01
0	 2.222222e+00	 2.888889e+00	 1.051012e+01
0	 2.222222e+00	 2.962963e+00	 1.046043e+01
0	 2.296296e+00	 2.592593e+00	 1.078439e+01
0	 2.296296e+00	 2.666667e+00	 1.072269e+01
0	 2.296296e+00	 2.740741e+00	 1.066451e+01
0	 2.296296e+00	 2.814815e+00	 1.060965e+01
0	 2.296296e+00	 2.888889e+00	 1.055790e+01
0	 2.296296e+00	 2.962963e+00	 1.050908e+01
0	 2.370370e+00	 2.592593e+00	 1.081681e+01
0	 2.370370e+00	 2.666667e+00	 1.075800e+01
0	 2.370370e+00	 2.740741e+00	 1.070237e+01
0	 2.370370e+00	 2.814815e+00	 1.064961e+01
0	 2.370370e+00	 2.888889e+00	 1.059944e+01
0	 2.370370e+00	 2.962963e+00	 1.055154e+01
0	 2.444444e+00	 2.592593e+00	 1.084270e+01
0	 2.444444e+00	 2.666667e+00	 1.078715e+01
0	 2.444444e+00	 2.740741e+00	 1.073427e+01
0	 2.444444e+00	 2.814815e+00	 1.068374e+01
0	 2.444444e+00	 2.888889e+00	 1.063522e+01
0	 2.444444e+00	 2.962963e+00	 1.058836e+01
0	 2.518519e+00	 2.592593e+00	 1.086312e+01
0	 2.518519e+00	 2.666667e+00	 1.081093e+01
0	 2.518519e+00	 2.740741e+00	 1.076086e+01
0	 2.518519e+00	 2.814815e+00	 1.071257e+01
0	 2.518519e+00	 2.888889e+00	 1.066575e+01
0	 2.518519e+00	 2.962963e+00	 1.062005e+01
0	 2.592593e+00	 2.592593e+00	 1.087914e+01
0	 2.592593e+00	 2.666667e+00	 1.083018e+01
0	 2.592593e+00	 2.740741e+00	 1.078277e+01
0	 2.592593e+00	 2.814815e+00	 1.073664e+01
0	 2.592593e+00	 2.888889e+00	 1.069152e+01
0	 2.592593e+00	 2.962963e+00	 1.064715e+01
0	 2.222222e+00	 2.962963e+00	 1.046043e+01
0	 2.222222e+00	 3.037037e+00	 1.041385e+01
0	 2.222222e+00	 3.111111e+00	 1.036996e+01
0	 2.222222e+00	 3.185185e+00	 1.032865e+01
0	 2.222222e+00	 3.259259e+00	 1.028979e+01
0	 2.222222e+00	 3.333333e+00	 1.025328e+01
0	 2.296296e+00	 2.962963e+00	 1.050908e+01
0	 2.296296e+00	 3.037037e+00	 1.046285e+01
0	 2.296296e+00	 3.111111e+00	 1.041902e+01
0	 2.296296e+00	 3.185185e+00	 1.037751e+01
0	 2.296296e+00	 3.259259e+00	 1.033829e+01
0	 2.296296e+00	 3.333333e+00	 1.030128e+01
0	 2.370370e+00	 2.962963e+00	 1.055154e+01
0	 2.370370e+00	 3.037037e+00	 1.050581e+01
0	 2.370370e+00	 3.111111e+00	 1.046229e+01
0	 2.370370e+00	 3.185185e+00	 1.042096e+01
0	 2.370370e+00	 3.259259e+00	 1.038180e+01
0	 2.370370e+00	 3.333333e+00	 1.034479e+01
0	 2.444444e+00	 2.962963e+00	 1.058836e+01
0	 2.444444e+00	 3.037037e+00	 1.054329e+01
0	 2.444444e+00	 3.111111e+00	 1.050034e+01
0	 2.444444e+00	 3.185185e+00	 1.045952e+01
0	 2.444444e+00	 3.259259e+00	 1.042079e+01
0	 2.444444e+00	 3.333333e+00	 1.038414e+01
0	 2.518519e+00	 2.962963e+00	 1.062005e+01
0	 2.518519e+00	 3.037037e+00	 1.057587e+01
0	 2.518519e+00	 3.111111e+00	 1.053377e+01
0	 2.518519e+00	 3.185185e+00	 1.049373e+01
0	 2.518519e+00	 3.259259e+00	 1.045571e+01
0	 2.518519e+00	 3.333333e+00	 1.041969e+01
0	 2.592593e+00	 2.962963e+00	 1.064715e+01
0	 2.592593e+00	 3.037037e+00	 1.060413e+01
0	 2.592593e+00	 3.111111e+00	 1.056315e+01
0	 2.592593e+00	 3.185185e+00	 1.052415e+01
0	 2.592593e+00	 3.259259e+00	 1.048704e+01
0	 2.592593e+00	 3.333333e+00	 1.045177e+01
0	 2.222222e+00	 3.333333e+00	 1.025328e+01
0	 2.222222e+00	 3.407407e+00	 1.021908e+01
0	 2.222222e+00	 3.481481e+00	 1.018727e+01
0	 2.222222e+00	 3.555556e+00	 1.015790e+01
0	 2.222222e+00	 3.629630e+00	 1.013099e+01
0	 2.222222e+00	 3.703704e+00	 1.010661e+01
0	 2.296296e+00	 3.333333e+00	 1.030128e+01
0	 2.296296e+00	 3.407407e+00	 1.026656e+01
0	 2.296296e+00	 3.481481e+00	 1.023421e+01
0	 2.296296e+00	 3.555556e+00	 1.020425e+01
0	 2.296296e+00	 3.629630e+00	 1.017664e+01
0	 2.296296e+00	 3.703704e+00	 1.015138e+01
0	 2.370370e+00	 3.333333e+00	 1.034479e+01
0	 2.370370e+00	 3.407407e+00	 1.030999e+01
0	 2.370370e+00	 3.481481e+00	 1.027746e+01
0	 2.370370e+00	 3.555556e+00	 1.024715e+01
0	 2.370370e+00	 3.629630e+00	 1.021901e+01
0	 2.370370e+00	 3.703704e+00	 1.019300e+01
0	 2.444444e+00	 3.333333e+00	 1.038414e+01
0	 2.444444e+00	 3.407407e+00	 1.034960e+01
0	 2.444444e+00	 3.481481e+00	 1.031714e+01
0	 2.444444e+00	 3.555556e+00	 1.028669e+01
0	 2.444444e+00	 3.629630e+00	 1.025818e+01
0	 2.444444e+00	 3.703704e+00	 1.023154e+01
0	 2.518519e+00	 3.333333e+00	 1.041969e+01
0	 2.518519e+00	 3.407407e+00	 1.038561e+01
0	 2.518519e+00	 3.481481e+00	 1.035338e+01
0	 2.518519e+00	 3.555556e+00	 1.032293e+01
0	 2.518519e+00	 3.629630e+00	 1.029419e+01
0	 2.518519e+00	 3.703704e+00	 1.026709e+01
0	 2.592593e+00	 3.333333e+00	 1.045177e+01
0	 2.592593e+00	 3.407407e+00	 1.041822e+01
0	 2.592593e+00	 3.481481e+00	 1.038629e+01
0	 2.592593e+00	 3.555556e+00	 1.035594e+01
0	 2.592593e+00	 3.629630e+00	 1.032711e+01
0	 2.592593e+00	 3.703704e+00	 1.029973e+01
0	 2.222222e+00	 3.703704e+00	 1.010661e+01
0	 2.222222e+00	 3.777778e+00	 1.008426e+01
0	 2.222222e+00	 3.851852e+00	 1.006344e+01
0	 2.222222e+00	 3.925926e+00	 1.004417e+01
0	 2.222222e+00	 4.000000e+00	 1.002644e+01
0	 2.222222e+00	 4.074074e+00	 1.001027e+01
0	 2.296296e+00	 3.703704e+00	 1.015138e+01
0	 2.296296e+00	 3.777778e+00	 1.012802e+01
0	 2.296296e+00	 3.851852e+00	 1.010612e+01
0	 2.296296e+00	 3.925926e+00	 1.008572e+01
0	 2.296296e+00	 4.000000e+00	 1.006684e+01
0	 2.296296e+00	 4.074074e+00	 1.004950e+01
0	 2.370370e+00	 3.703704e+00	 1.019300e+01
0	 2.370370e+00	 3.777778e+00	 1.016874e+01
0	 2.370370e+00	 3.851852e+00	 1.014593e+01
0	 2.370370e+00	 3.925926e+00	 1.012461e+01
0	 2.370370e+00	 4.000000e+00	 1.010482e+01
0	 2.370370e+00	 4.074074e+00	 1.008658e+01
0	 2.444444e+00	 3.703704e+00	 1.023154e+01
0	 2.444444e+00	 3.777778e+00	 1.020654e+01
0	 2.444444e+00	 3.851852e+00	 1.018300e+01
0	 2.444444e+00	 3.925926e+00	 1.016097e+01
0	 2.444444e+00	 4.000000e+00	 1.014046e+01
0	 2.444444e+00	 4.074074e+00	 1.012153e+01
0	 2.518519e+00	 3.703704e+00	 1.026709e+01
0	 2.518519e+00	 3.777778e+00	 1.024153e+01
0	 2.518519e+00	 3.851852e+00	 1.021745e+01
0	 2.518519e+00	 3.925926e+00	 1.019489e+01
0	 2.518519e+00	 4.000000e+00	 1.017387e+01
0	 2.518519e+00	 4.074074e+00	 1.015440e+01
0	 2.592593e+00	 3.703704e+00	 1.029973e+01
0	 2.592593e+00	 3.777778e+00	 1.027382e+01
0	 2.592593e+00	 3.851852e+00	 1.024941e+01
0	 2.592593e+00	 3.925926e+00	 1.022650e+01
0	 2.592593e+00	 4.000000e+00	 1.020511e+01
0	 2.592593e+00	 4.074074e+00	 1.018522e+01
0	 2.222222e+00	 4.074074e+00	 1.001027e+01
0	 2.222222e+00	 4.148148e+00	 9.995480e+00
0	 2.222222e+00	 4.222222e+00	 9.981919e+00
0	 2.222222e+00	 4.296296e+00	 9.969626e+00
0	 2.222222e+00	 4.370370e+00	 9.958643e+00
0	 2.222222e+00	 4.444444e+00	 9.949014e+00
0	 2.296296e+00	 4.074074e+00	 1.004950e+01
0	 2.296296e+00	 4.148148e+00	 1.003358e+01
0	 2.296296e+00	 4.222222e+00	 1.001893e+01
0	 2.296296e+00	 4.296296e+00	 1.000556e+01
0	 2.296296e+00	 4.370370e+00	 9.993502e+00
0	 2.296296e+00	 4.444444e+00	 9.982778e+00
0	 2.370370e+00	 4.074074e+00	 1.008658e+01
0	 2.370370e+00	 4.148148e+00	 1.006976e+01
0	 2.370370e+00	 4.222222e+00	 1.005420e+01
0	 2.370370e+00	 4.296296e+00	 1.003990e+01
0	 2.370370e+00	 4.370370e+00	 1.002687e+01
0	 2.370370e+00	 4.444444e+00	 1.001512e+01
0	 2.444444e+00	 4.074074e+00	 1.012153e+01
0	 2.444444e+00	 4.148148e+00	 1.010400e+01
0	 2.444444e+00	 4.222222e+00	 1.008768e+01
0	 2.444444e+00	 4.296296e+00	 1.007258e+01
0	 2.444444e+00	 4.370370e+00	 1.005868e+01
0	 2.444444e+00	 4.444444e+00	 1.004600e+01
0	 2.518519e+00	 4.074074e+00	 1.015440e+01
0	 2.518519e+00	 4.148148e+00	 1.013630e+01
0	 2.518519e+00	 4.222222e+00	 1.011934e+01
0	 2.518519e+00	 4.296296e+00	 1.010353e+01
0	 2.518519e+00	 4.370370e+00	 1.008887e+01
0	 2.518519e+00	 4.444444e+00	 1.007535e+01
0	 2.592593e+00	 4.074074e+00	 1.018522e+01
0	 2.592593e+00	 4.148148e+00	 1.016663e+01
0	 2.592593e+00	 4.222222e+00	 1.014912e+01
0	 2.592593e+00	 4.296296e+00	 1.013270e+01
0	 2.592593e+00	 4.370370e+00	 1.011736e+01
0	 2.592593e+00	 4.444444e+00	 1.010312e+01
0	 2.222222e+00	 4.444444e+00	 9.949014e+00
0	 2.222222e+00	 4.518519e+00	 9.940447e+00
0	 2.222222e+00	 4.592593e+00	 9.932637e+00
0	 2.222222e+00	 4.666667e+00	 9.925608e+00
0	 2.222222e+00	 4.740741e+00	 9.919383e+00
0	 2.222222e+00	 4.814815e+00	 9.913984e+00
0	 2.296296e+00	 4.444444e+00	 9.982778e+00
0	 2.296296e+00	 4.518519e+00	 9.973100e+00
0	 2.296296e+00	 4.592593e+00	 9.964185e+00
0	 2.296296e+00	 4.666667e+00	 9.956063e+00
0	 2.296296e+00	 4.740741e+00	 9.948764e+00
0	 2.296296e+00	 4.814815e+00	 9.942318e+00
0	 2.370370e+00	 4.444444e+00	 1.001512e+01
0	 2.370370e+00	 4.518519e+00	 1.000440e+01
0	 2.370370e+00	 4.592593e+00	 9.994470e+00
0	 2.370370e+00	 4.666667e+00	 9.985354e+00
0	 2.370370e+00	 4.740741e+00	 9.977090e+00
0	 2.370370e+00	 4.814815e+00	 9.969711e+00
0	 2.444444e+00	 4.444444e+00	 1.004600e+01
0	 2.444444e+00	 4.518519e+00	 1.003432e+01
0	 2.444444e+00	 4.592593e+00	 1.002346e+01
0	 2.444444e+00	 4.666667e+00	 1.001346e+01
0	 2.444444e+00	 4.740741e+00	 1.000433e+01
0	 2.444444e+00	 4.814815e+00	 9.996119e+00
0	 2.518519e+00	 4.444444e+00	 1.007535e+01
0	 2.518519e+00	 4.518519e+00	 1.006282e+01
0	 2.518519e+00	 4.592593e+00	 1.005114e+01
0	 2.518519e+00	 4.666667e+00	 1.004035e+01
0	 2.518519e+00	 4.740741e+00	 1.003045e+01
0	 2.518519e+00	 4.814815e+00	 1.002149e+01
0	 2.592593e+00	 4.444444e+00	 1.010312e+01
0	 2.592593e+00	 4.518519e+00	 1.008986e+01
0	 2.592593e+00	 4.592593e+00	 1.007748e+01
0	 2.592593e+00	 4.666667e+00	 1.006600e+01
0	 2.592593e+00	 4.740741e+00	 1.005543e+01
0	 2.592593e+00	 4.814815e+00	 1.004579e+01
0	 2.222222e+00	 4.814815e+00	 9.913984e+00
0	 2.222222e+00	 4.888889e+00	 9.909282e+00
0	 2.222222e+00	 4.962963e+00	 9.905147e+00
0	 2.222222e+00	 5.037037e+00	 9.901607e+00
0	 2.222222e+00	 5.111111e+00	 9.898688e+00
0	 2.222222e+00	 5.185185e+00	 9.896416e+00
0	 2.296296e+00	 4.814815e+00	 9.942318e+00
0	 2.296296e+00	 4.888889e+00	 9.936604e+00
0	 2.296296e+00	 4.962963e+00	 9.931497e+00
0	 2.296296e+00	 5.037037e+00	 9.927015e+00
0	 2.296296e+00	 5.111111e+00	 9.923178e+00
0	 2.296296e+00	 5.185185e+00	 9.920005e+00
0	 2.370370e+00	 4.814815e+00	 9.969711e+00
0	 2.370370e+00	 4.888889e+00	 9.963092e+00
0	 2.370370e+00	 4.962963e+00	 9.957097e+00
0	 2.370370e+00	 5.037037e+00	 9.951740e+00
0	 2.370370e+00	 5.111111e+00	 9.947037e+00
0	 2.370370e+00	 5.185185e+00	 9.943002e+00
0	 2.444444e+00	 4.814815e+00	 9.996119e+00
0	 2.444444e+00	 4.888889e+00	 9.988684e+00
0	 2.444444e+00	 4.962963e+00	 9.981877e+00
0	 2.444444e+00	 5.037037e+00	 9.975708e+00
0	 2.444444e+00	 5.111111e+00	 9.970191e+00
0	 2.444444e+00	 5.185185e+00	 9.965339e+00
0	 2.518519e+00	 4.814815e+00	 1.002149e+01
0	 2.518519e+00	 4.888889e+00	 1.001332e+01
0	 2.518519e+00	 4.962963e+00	 1.000576e+01
0	 2.518519e+00	 5.037037e+00	 9.998842e+00
0	 2.518519e+00	 5.111111e+00	 9.992567e+00
0	 2.518519e+00	 5.185185e+00	 9.986950e+00
0	 2.592593e+00	 4.814815e+00	 1.004579e+01
0	 2.592593e+00	 4.888889e+00	 1.003693e+01
0	 2.592593e+00	 4.962963e+00	 1.002869e+01
0	 2.592593e+00	 5.037037e+00	 1.002107e+01
0	 2.592593e+00	 5.111111e+00	 1.001409e+01
0	 2.592593e+00	 5.185185e+00	 1.000777e+01
0	 2.222222e+00	 5.185185e+00	 9.896416e+00
0	 2.222222e+00	 5.259259e+00	 9.894643e+00
0	 2.222222e+00	 5.333333e+00	 9.893214e+00
0	 2.222222e+00	 5.407407e+00	 9.892148e+00
0	 2.222222e+00	 5.481481e+00	 9.891459e+00
0	 2.222222e+00	 5.555556e+00	 9.891166e+00
0	 2.296296e+00	 5.185185e+00	 9.920005e+00
0	 2.296296e+00	 5.259259e+00	 9.917346e+00
0	 2.296296e+00	 5.333333e+00	 9.915052e+00
0	 2.296296e+00	 5.407407e+00	 9.913142e+00
0	 2.296296e+00	 5.481481e+00	 9.911635e+00
0	 2.296296e+00	 5.555556e+00	 9.910551e+00
0	 2.370370e+00	 5.185185e+00	 9.943002e+00
0	 2.370370e+00	 5.259259e+00	 9.939493e+00
0	 2.370370e+00	 5.333333e+00	 9.936374e+00
0	 2.370370e+00	 5.407407e+00	 9.933664e+00
0	 2.370370e+00	 5.481481e+00	 9.931386e+00
0	 2.370370e+00	 5.555556e+00	 9.929559e+00
0	 2.444444e+00	 5.185185e+00	 9.965339e+00
0	 2.444444e+00	 5.259259e+00	 9.961024e+00
0	 2.444444e+00	 5.333333e+00	 9.957126e+00
0	 2.444444e+00	 5.407407e+00	 9.953664e+00
0	 2.444444e+00	 5.481481e+00	 9.950661e+00
0	 2.444444e+00	 5.555556e+00	 9.948135e+00
0	 2.518519e+00	 5.185185e+00	 9.986950e+00
0	 2.518519e+00	 5.259259e+00	 9.981881e+00
0	 2.518519e+00	 5.333333e+00	 9.977256e+00
0	 2.518519e+00	 5.407407e+00	 9.973092e+00
0	 2.518519e+00	 5.481481e+00	 9.969410e+00
0	 2.518519e+00	 5.555556e+00	 9.966228e+00
0	 2.592593e+00	 5.185185e+00	 1.000777e+01
0	 2.592593e+00	 5.259259e+00	 1.000201e+01
0	 2.592593e+00	 5.333333e+00	 9.996711e+00
0	 2.592593e+00	 5.407407e+00	 9.991899e+00
0	 2.592593e+00	 5.481481e+00	 9.987584e+00
0	 2.592593e+00	 5.555556e+00	 9.983784e+00
0	 2.222222e+00	 5.555556e+00	 9.891166e+00
0	 2.222222e+00	 5.629630e+00	 9.891190e+00
0	 2.222222e+00	 5.703704e+00	 9.891455e+00
0	 2.222222e+00	 5.777778e+00	 9.891975e+00
0	 2.222222e+00	 5.851852e+00	 9.892766e+00
0	 2.222222e+00	 5.925926e+00	 9.893841e+00
0	 2.296296e+00	 5.555556e+00	 9.910551e+00
0	 2.296296e+00	 5.629630e+00	 9.909814e+00
0	 2.296296e+00	 5.703704e+00	 9.909345e+00
0	 2.296296e+00	 5.777778e+00	 9.909156e+00
0	 2.296296e+00	 5.851852e+00	 9.909260e+00
0	 2.296296e+00	 5.925926e+00	 9.909670e+00
0	 2.370370e+00	 5.555556e+00	 9.929559e+00
0	 2.370370e+00	 5.629630e+00	 9.928104e+00
0	 2.370370e+00	 5.703704e+00	 9.926937e+00
0	 2.370370e+00	 5.777778e+00	 9.926068e+00
0	 2.370370e+00	 5.851852e+00	 9.925510e+00
0	 2.370370e+00	 5.925926e+00	 9.925272e+00
0	 2.444444e+00	 5.555556e+00	 9.948135e+00
0	 2.444444e+00	 5.629630e+00	 9.946003e+00
0	 2.444444e+00	 5.703704e+00	 9.944172e+00
0	 2.444444e+00	 5.777778e+00	 9.942653e+00
0	 2.444444e+00	 5.851852e+00	 9.941457e+00
0	 2.444444e+00	 5.925926e+00	 9.940595e+00
0	 2.518519e+00	 5.555556e+00	 9.966228e+00
0	 2.518519e+00	 5.629630e+00	 9.963454e+00
0	 2.518519e+00	 5.703704e+00	 9.960993e+00
0	 2.518519e+00	 5.777778e+00	 9.958853e+00
0	 2.518519e+00	 5.851852e+00	 9.957047e+00
0	 2.518519e+00	 5.925926e+00	 9.955585e+00
0	 2.592593e+00	 5.555556e+00	 9.983784e+00
0	 2.592593e+00	 5.629630e+00	 9.980402e+00
0	 2.592593e+00	 5.703704e+00	 9.977340e+00
0	 2.592593e+00	 5.777778e+00	 9.974610e+00
0	 2.592593e+00	 5.851852e+00	 9.972223e+00
0	 2.592593e+00	 5.925926e+00	 9.970192e+00
0	 2.222222e+00	 5.925926e+00	 9.893841e+00
0	 2.222222e+00	 6.000000e+00	 9.895129e+00
0	 2.222222e+00	 6.074074e+00	 9.896554e+00
0	 2.222222e+00	 6.148148e+00	 9.898127e+00
0	 2.222222e+00	 6.222222e+00	 9.899858e+00
0	 2.222222e+00	 6.296296e+00	 9.901758e+00
0	 2.296296e+00	 5.925926e+00	 9.909670e+00
0	 2.296296e+00	 6.000000e+00	 9.910311e+00
0	 2.296296e+00	 6.074074e+00	 9.911107e+00
0	 2.296296e+00	 6.148148e+00	 9.912070e+00
0	 2.296296e+00	 6.222222e+00	 9.913211e+00
0	 2.296296e+00	 6.296296e+00	 9.914542e+00
0	 2.370370e+00	 5.925926e+00	 9.925272e+00
0	 2.370370e+00	 6.000000e+00	 9.925282e+00
0	 2.370370e+00	 6.074074e+00	 9.925467e+00
0	 2.370370e+00	 6.148148e+00	 9.925839e+00
0	 2.370370e+00	 6.222222e+00	 9.926410e+00
0	 2.370370e+00	 6.296296e+00	 9.927191e+00
0	 2.444444e+00	 5.925926e+00	 9.940595e+00
0	 2.444444e+00	 6.000000e+00	 9.939995e+00
0	 2.444444e+00	 6.074074e+00	 9.939590e+00
0	 2.444444e+00	 6.148148e+00	 9.939392e+00
0	 2.444444e+00	 6.222222e+00	 9.939412e+00
0	 2.444444e+00	 6.296296e+00	 9.939662e+00
0	 2.518519e+00	 5.925926e+00	 9.955585e+00
0	 2.518519e+00	 6.000000e+00	 9.954401e+00
0	 2.518519e+00	 6.074074e+00	 9.953431e+00
0	 2.518519e+00	 6.148148e+00	 9.952686e+00
0	 2.518519e+00	 6.222222e+00	 9.952177e+00
0	 2.518519e+00	 6.296296e+00	 9.951916e+00
0	 2.592593e+00	 5.925926e+00	 9.970192e+00
0	 2.592593e+00	 6.000000e+00	 9.968453e+00
0	 2.592593e+00	 6.074074e+00	 9.966945e+00
0	 2.592593e+00	 6.148148e+00	 9.965679e+00
0	 2.592593e+00	 6.222222e+00	 9.964664e+00
0	 2.592593e+00	 6.296296e+00	 9.963911e+00
0	 2.222222e+00	 6.296296e+00	 9.901758e+00
0	 2.222222e+00	 6.370370e+00	 9.903783e+00
0	 2.222222e+00	 6.444444e+00	 9.905890e+00
0	 2.222222e+00	 6.518519e+00	 9.908087e+00
0	 2.222222e+00	 6.592593e+00	 9.910382e+00
0	 2.222222e+00	 6.666667e+00	 9.912785e+00
0	 2.296296e+00	 6.296296e+00	 9.914542e+00
0	 2.296296e+00	 6.370370e+00	 9.916020e+00
0	 2.296296e+00	 6.444444e+00	 9.917596e+00
0	 2.296296e+00	 6.518519e+00	 9.919281e+00
0	 2.296296e+00	 6.592593e+00	 9.921081e+00
0	 2.296296e+00	 6.666667e+00	 9.923006e+00
0	 2.370370e+00	 6.296296e+00	 9.927191e+00
0	 2.370370e+00	 6.370370e+00	 9.928137e+00
0	 2.370370e+00	 6.444444e+00	 9.929198e+00
0	 2.370370e+00	 6.518519e+00	 9.930382e+00
0	 2.370370e+00	 6.592593e+00	 9.931698e+00
0	 2.370370e+00	 6.666667e+00	 9.933151e+00
0	 2.444444e+00	 6.296296e+00	 9.939662e+00
0	 2.444444e+00	 6.370370e+00	 9.940094e+00
0	 2.444444e+00	 6.444444e+00	 9.940655e+00
0	 2.444444e+00	 6.518519e+00	 9.941352e+00
0	 2.444444e+00	 6.592593e+00	 9.942193e+00
0	 2.444444e+00	 6.666667e+00	 9.943186e+00
0	 2.518519e+00	 6.296296e+00	 9.951916e+00
0	 2.518519e+00	 6.370370e+00	 9.951851e+00
0	 2.518519e+00	 6.444444e+00	 9.951927e+00
0	 2.518519e+00	 6.518519e+00	 9.952151e+00
0	 2.518519e+00	 6.592593e+00	 9.952531e+00
0	 2.518519e+00	 6.666667e+00	 9.953075e+00
0	 2.592593e+00	 6.296296e+00	 9.963911e+00
0	 2.592593e+00	 6.370370e+00	 9.963366e+00
0	 2.592593e+00	 6.444444e+00	 9.962973e+00
0	 2.592593e+00	 6.518519e+00	 9.962739e+00
0	 2.592593e+00	 6.592593e+00	 9.962673e+00
0	 2.592593e+00	 6.666667e+00	 9.962783e+00
0	 2.222222e+00	 6.666667e+00	 9.912785e+00
0	 2.222222e+00	 6.740741e+00	 9.915259e+00
0	 2.222222e+00	 6.814815e+00	 9.917765e+00
0	 2.222222e+00	 6.888889e+00	 9.920310e+00
0	 2.222222e+00	 6.962963e+00	 9.922900e+00
0	 2.222222e+00	 7.037037e+00	 9.925543e+00
0	 2.296296e+00	 6.666667e+00	 9.923006e+00
0	 2.296296e+00	 6.740741e+00	 9.925015e+00
0	 2.296296e+00	 6.814815e+00	 9.927071e+00
0	 2.296296e+00	 6.888889e+00	 9.929180e+00
0	 2.296296e+00	 6.962963e+00	 9.931348e+00
0	 2.296296e+00	 7.037037e+00	 9.933584e+00
0	 2.370370e+00	 6.666667e+00	 9.933151e+00
0	 2.370370e+00	 6.740741e+00	 9.934704e+00
0	 2.370370e+00	 6.814815e+00	 9.936317e+00
0	 2.370370e+00	 6.888889e+00	 9.937996e+00
0	 2.370370e+00	 6.962963e+00	 9.939750e+00
0	 2.370370e+00	 7.037037e+00	 9.941586e+00
0	 2.444444e+00	 6.666667e+00	 9.943186e+00
0	 2.444444e+00	 6.740741e+00	 9.944291e+00
0	 2.444444e+00	 6.814815e+00	 9.945470e+00
0	 2.444444e+00	 6.888889e+00	 9.946730e+00
0	 2.444444e+00	 6.962963e+00	 9.948078e+00
0	 2.444444e+00	 7.037037e+00	 9.949521e+00
0	 2.518519e+00	 6.666667e+00	 9.953075e+00
0	 2.518519e+00	 6.740741e+00	 9.953745e+00
0	 2.518519e+00	 6.814815e+00	 9.954501e+00
0	 2.518519e+00	 6.888889e+00	 9.955351e+00
0	 2.518519e+00	 6.962963e+00	 9.956303e+00
0	 2.518519e+00	 7.037037e+00	 9.957362e+00
0	 2.592593e+00	 6.666667e+00	 9.962783e+00
0	 2.592593e+00	 6.740741e+00	 9.963031e+00
0	 2.592593e+00	 6.814815e+00	 9.963378e+00
0	 2.592593e+00	 6.888889e+00	 9.963830e+00
0	 2.592593e+00	 6.962963e+00	 9.964396e+00
0	 2.592593e+00	 7.037037e+00	 9.965081e+00
0	 2.222222e+00	 7.037037e+00	 9.925543e+00
0	 2.222222e+00	 7.111111e+00	 9.928213e+00
0	 2.222222e+00	 7.185185e+00	 9.930884e+00
0	 2.222222e+00	 7.259259e+00	 9.933561e+00
0	 2.222222e+00	 7.333333e+00	 9.936251e+00
0	 2.222222e+00	 7.407407e+00	 9.938959e+00
0	 2.296296e+00	 7.037037e+00	 9.933584e+00
0	 2.296296e+00	 7.111111e+00	 9.935861e+00
0	 2.296296e+00	 7.185185e+00	 9.938151e+00
0	 2.296296e+00	 7.259259e+00	 9.940460e+00
0	 2.296296e+00	 7.333333e+00	 9.942793e+00
0	 2.296296e+00	 7.407407e+00	 9.945157e+00
0	 2.370370e+00	 7.037037e+00	 9.941586e+00
0	 2.370370e+00	 7.111111e+00	 9.943476e+00
0	 2.370370e+00	 7.185185e+00	 9.945390e+00
0	 2.370370e+00	 7.259259e+00	 9.947335e+00
0	 2.370370e+00	 7.333333e+00	 9.949316e+00
0	 2.370370e+00	 7.407407e+00	 9.951338e+00
0	 2.444444e+00	 7.037037e+00	 9.949521e+00
0	 2.444444e+00	 7.111111e+00	 9.951031e+00
0	 2.444444e+00	 7.185185e+00	 9.952576e+00
0	 2.444444e+00	 7.259259e+00	 9.954162e+00
0	 2.444444e+00	 7.333333e+00	 9.955794e+00
0	 2.444444e+00	 7.407407e+00	 9.957479e+00
0	 2.518519e+00	 7.037037e+00	 9.957362e+00
0	 2.518519e+00	 7.111111e+00	 9.958499e+00
0	 2.518519e+00	 7.185185e+00	 9.959682e+00
0	 2.518519e+00	 7.259259e+00	 9.960916e+00
0	 2.518519e+00	 7.333333e+00	 9.962206e+00
0	 2.518519e+00	 7.407407e+00	 9.963559e+00
0	 2.592593e+00	 7.037037e+00	 9.965081e+00
0	 2.592593e+00	 7.111111e+00	 9.965855e+00
0	 2.592593e+00	 7.185185e+00	 9.966683e+00
0	 2.592593e+00	 7.259259e+00	 9.967572e+00
0	 2.592593e+00	 7.333333e+00	 9.968527e+00
0	 2.592593e+00	 7.407407e+00	 9.969555e+00
0	 2.222222e+00	 7.407407e+00	 9.938959e+00
0	 2.222222e+00	 7.481481e+00	 9.941664e+00
0	 2.222222e+00	 7.555556e+00	 9.944343e+00
0	 2.222222e+00	 7.629630e+00	 9.947001e+00
0	 2.222222e+00	 7.703704e+00	 9.949643e+00
0	 2.222222e+00	 7.777778e+00	 9.952274e+00
0	 2.296296e+00	 7.407407e+00	 9.945157e+00
0	 2.296296e+00	 7.481481e+00	 9.947528e+00
0	 2.296296e+00	 7.555556e+00	 9.949883e+00
0	 2.296296e+00	 7.629630e+00	 9.952228e+00
0	 2.296296e+00	 7.703704e+00	 9.954567e+00
0	 2.296296e+00	 7.777778e+00	 9.956906e+00
0	 2.370370e+00	 7.407407e+00	 9.951338e+00
0	 2.370370e+00	 7.481481e+00	 9.953378e+00
0	 2.370370e+00	 7.555556e+00	 9.955412e+00
0	 2.370370e+00	 7.629630e+00	 9.957446e+00
0	 2.370370e+00	 7.703704e+00	 9.959484e+00
0	 2.370370e+00	 7.777778e+00	 9.961532e+00
0	 2.444444e+00	 7.407407e+00	 9.957479e+00
0	 2.444444e+00	 7.481481e+00	 9.959192e+00
0	 2.444444e+00	 7.555556e+00	 9.960909e+00
0	 2.444444e+00	 7.629630e+00	 9.962635e+00
0	 2.444444e+00	 7.703704e+00	 9.964376e+00
0	 2.444444e+00	 7.777778e+00	 9.966137e+00
0	 2.518519e+00	 7.407407e+00	 9.963559e+00
0	 2.518519e+00	 7.481481e+00	 9.964950e+00
0	 2.518519e+00	 7.555556e+00	 9.966354e+00
0	 2.518519e+00	 7.629630e+00	 9.967778e+00
0	 2.518519e+00	 7.703704e+00	 9.969226e+00
0	 2.518519e+00	 7.777778e+00	 9.970702e+00
0	 2.592593e+00	 7.407407e+00	 9.969555e+00
0	 2.592593e+00	 7.481481e+00	 9.970630e+00
0	 2.592593e+00	 7.555556e+00	 9.971728e+00
0	 2.592593e+00	 7.629630e+00	 9.972855e+00
0	 2.592593e+00	 7.703704e+00	 9.974014e+00
0	 2.592593e+00	 7.777778e+00	 9.975212e+00
0	 2.222222e+00	 7.777778e+00	 9.952274e+00
0	 2.222222e+00	 7.851852e+00	 9.954876e+00
0	 2.222222e+00	 7.925926e+00	 9.957432e+00
0	 2.222222e+00	 8.000000e+00	 9.959946e+00
0	 2.222222e+00	 8.074074e+00	 9.962423e+00
0	 2.222222e+00	 8.148148e+00	 9.964867e+00
0	 2.296296e+00	 7.777778e+00	 9.956906e+00
0	 2.296296e+00	 7.851852e+00	 9.959225e+00
0	 2.296296e+00	 7.925926e+00	 9.961508e+00
0	 2.296296e+00	 8.000000e+00	 9.963757e+00
0	 2.296296e+00	 8.074074e+00	 9.965979e+00
0	 2.296296e+00	 8.148148e+00	 9.968176e+00
0	 2.370370e+00	 7.777778e+00	 9.961532e+00
0	 2.370370e+00	 7.851852e+00	 9.963571e+00
0	 2.370370e+00	 7.925926e+00	 9.965582e+00
0	 2.370370e+00	 8.000000e+00	 9.967568e+00
0	 2.370370e+00	 8.074074e+00	 9.969535e+00
0	 2.370370e+00	 8.148148e+00	 9.971487e+00
0	 2.444444e+00	 7.777778e+00	 9.966137e+00
0	 2.444444e+00	 7.851852e+00	 9.967898e+00
0	 2.444444e+00	 7.925926e+00	 9.969638e+00
0	 2.444444e+00	 8.000000e+00	 9.971364e+00
0	 2.444444e+00	 8.074074e+00	 9.973078e+00
0	 2.444444e+00	 8.148148e+00	 9.974785e+00
0	 2.518519e+00	 7.777778e+00	 9.970702e+00
0	 2.518519e+00	 7.851852e+00	 9.972188e+00
0	 2.518519e+00	 7.925926e+00	 9.973662e+00
0	 2.518519e+00	 8.000000e+00	 9.975129e+00
0	 2.518519e+00	 8.074074e+00	 9.976593e+00
0	 2.518519e+00	 8.148148e+00	 9.978059e+00
0	 2.592593e+00	 7.777778e+00	 9.975212e+00
0	 2.592593e+00	 7.851852e+00	 9.976426e+00
0	 2.592593e+00	 7.925926e+00	 9.977638e+00
0	 2.592593e+00	 8.000000e+00	 9.978850e+00
0	 2.592593e+00	 8.074074e+00	 9.980067e+00
0	 2.592593e+00	 8.148148e+00	 9.981294e+00
0	 2.222222e+00	 8.148148e+00	 9.964867e+00
0	 2.222222e+00	 8.222222e+00	 9.967262e+00
0	 2.222222e+00	 8.296296e+00	 9.969591e+00
0	 2.222222e+00	 8.370370e+00	 9.971859e+00
0	 2.222222e+00	 8.444444e+00	 9.974071e+00
0	 2.222222e+00	 8.518519e+00	 9.976230e+00
0	 2.296296e+00	 8.148148e+00	 9.968176e+00
0	 2.296296e+00	 8.222222e+00	 9.970333e+00
0	 2.296296e+00	 8.296296e+00	 9.972433e+00
0	 2.296296e+00	 8.370370e+00	 9.974480e+00
0	 2.296296e+00	 8.444444e+00	 9.976478e+00
0	 2.296296e+00	 8.518519e+00	 9.978432e+00
0	 2.370370e+00	 8.148148e+00	 9.971487e+00
0	 2.370370e+00	 8.222222e+00	 9.973406e+00
0	 2.370370e+00	 8.296296e+00	 9.975277e+00
0	 2.370370e+00	 8.370370e+00	 9.977103e+00
0	 2.370370e+00	 8.444444e+00	 9.978889e+00
0	 2.370370e+00	 8.518519e+00	 9.980639e+00
0	 2.444444e+00	 8.148148e+00	 9.974785e+00
0	 2.444444e+00	 8.222222e+00	 9.976469e+00
0	 2.444444e+00	 8.296296e+00	 9.978112e+00
0	 2.444444e+00	 8.370370e+00	 9.979719e+00
0	 2.444444e+00	 8.444444e+00	 9.981294e+00
0	 2.444444e+00	 8.518519e+00	 9.982840e+00
0	 2.518519e+00	 8.148148e+00	 9.978059e+00
0	 2.518519e+00	 8.222222e+00	 9.979509e+00
0	 2.518519e+00	 8.296296e+00	 9.980927e+00
0	 2.518519e+00	 8.370370e+00	 9.982316e+00
0	 2.518519e+00	 8.444444e+00	 9.983681e+00
0	 2.518519e+00	 8.518519e+00	 9.985025e+00
0	 2.592593e+00	 8.148148e+00	 9.981294e+00
0	 2.592593e+00	 8.222222e+00	 9.982513e+00
0	 2.592593e+00	 8.296296e+00	 9.983708e+00
0	 2.592593e+00	 8.370370e+00	 9.984883e+00
0	 2.592593e+00	 8.444444e+00	 9.986040e+00
0	 2.592593e+00	 8.518519e+00	 9.987185e+00
0	 2.222222e+00	 8.518519e+00	 9.976230e+00
0	 2.222222e+00	 8.592593e+00	 9.978321e+00
0	 2.222222e+00	 8.666667e+00	 9.980327e+00
0	 2.222222e+00	 8.740741e+00	 9.982255e+00
0	 2.222222e+00	 8.814815e+00	 9.984108e+00
0	 2.222222e+00	 8.888889e+00	 9.985890e+00
0	 2.296296e+00	 8.518519e+00	 9.978432e+00
0	 2.296296e+00	 8.592593e+00	 9.980326e+00
0	 2.296296e+00	 8.666667e+00	 9.982145e+00
0	 2.296296e+00	 8.740741e+00	 9.983893e+00
0	 2.296296e+00	 8.814815e+00	 9.985574e+00
0	 2.296296e+00	 8.888889e+00	 9.987192e+00
0	 2.370370e+00	 8.518519e+00	 9.980639e+00
0	 2.370370e+00	 8.592593e+00	 9.982337e+00
0	 2.370370e+00	 8.666667e+00	 9.983968e+00
0	 2.370370e+00	 8.740741e+00	 9.985536e+00
0	 2.370370e+00	 8.814815e+00	 9.987046e+00
0	 2.370370e+00	 8.888889e+00	 9.988501e+00
0	 2.444444e+00	 8.518519e+00	 9.982840e+00
0	 2.444444e+00	 8.592593e+00	 9.984343e+00
0	 2.444444e+00	 8.666667e+00	 9.985787e+00
0	 2.444444e+00	 8.740741e+00	 9.987177e+00
0	 2.444444e+00	 8.814815e+00	 9.988515e+00
0	 2.444444e+00	 8.888889e+00	 9.989807e+00
0	 2.518519e+00	 8.518519e+00	 9.985025e+00
0	 2.518519e+00	 8.592593e+00	 9.986334e+00
0	 2.518519e+00	 8.666667e+00	 9.987593e+00
0	 2.518519e+00	 8.740741e+00	 9.988805e+00
0	 2.518519e+00	 8.814815e+00	 9.989974e+00
0	 2.518519e+00	 8.888889e+00	 9.991103e+00
0	 2.592593e+00	 8.518519e+00	 9.987185e+00
0	 2.592593e+00	 8.592593e+00	 9.988302e+00
0	 2.592593e+00	 8.666667e+00	 9.989377e+00
0	 2.592593e+00	 8.740741e+00	 9.990413e+00
0	 2.592593e+00	 8.814815e+00	 9.991413e+00
0	 2.592593e+00	 8.888889e+00	 9.992381e+00
0	 2.222222e+00	 8.888889e+00	 9.985890e+00
0	 2.222222e+00	 8.962963e+00	 9.987586e+00
0	 2.222222e+00	 9.037037e+00	 9.989180e+00
0	 2.222222e+00	 9.111111e+00	 9.990675e+00
0	 2.222222e+00	 9.185185e+00	 9.992078e+00
0	 2.222222e+00	 9.259259e+00	 9.993393e+00
0	 2.296296e+00	 8.888889e+00	 9.987192e+00
0	 2.296296e+00	 8.962963e+00	 9.988733e+00
0	 2.296296e+00	 9.037037e+00	 9.990180e+00
0	 2.296296e+00	 9.111111e+00	 9.991538e+00
0	 2.296296e+00	 9.185185e+00	 9.992812e+00
0	 2.296296e+00	 9.259259e+00	 9.994006e+00
0	 2.370370e+00	 8.888889e+00	 9.988501e+00
0	 2.370370e+00	 8.962963e+00	 9.989886e+00
0	 2.370370e+00	 9.037037e+00	 9.991187e+00
0	 2.370370e+00	 9.111111e+00	 9.992408e+00
0	 2.370370e+00	 9.185185e+00	 9.993553e+00
0	 2.370370e+00	 9.259259e+00	 9.994626e+00
0	 2.444444e+00	 8.888889e+00	 9.989807e+00
0	 2.444444e+00	 8.962963e+00	 9.991037e+00
0	 2.444444e+00	 9.037037e+00	 9.992193e+00
0	 2.444444e+00	 9.111111e+00	 9.993277e+00
0	 2.444444e+00	 9.185185e+00	 9.994294e+00
0	 2.444444e+00	 9.259259e+00	 9.995247e+00
0	 2.518519e+00	 8.888889e+00	 9.991103e+00
0	 2.518519e+00	 8.962963e+00	 9.992179e+00
0	 2.518519e+00	 9.037037e+00	 9.993190e+00
0	 2.518519e+00	 9.111111e+00	 9.994139e+00
0	 2.518519e+00	 9.185185e+00	 9.995028e+00
0	 2.518519e+00	 9.259259e+00	 9.995862e+00
0	 2.592593e+00	 8.888889e+00	 9.992381e+00
0	 2.592593e+00	 8.962963e+00	 9.993305e+00
0	 2.592593e+00	 9.037037e+00	 9.994173e+00
0	 2.592593e+00	 9.111111e+00	 9.994986e+00
0	 2.592593e+00	 9.185185e+00	 9.995749e+00
0	 2.592593e+00	 9.259259e+00	 9.996464e+00
0	 2.222222e+00	 9.259259e+00	 9.993393e+00
0	 2.222222e+00	 9.333333e+00	 9.994602e+00
0	 2.222222e+00	 9.407407e+00	 9.995688e+00
0	 2.222222e+00	 9.481481e+00	 9.996656e+00
0	 2.222222e+00	 9.555556e+00	 9.997512e+00
0	 2.222222e+00	 9.629630e+00	 9.998260e+00
0	 2.296296e+00	 9.259259e+00	 9.994006e+00
0	 2.296296e+00	 9.333333e+00	 9.995104e+00
0	 2.296296e+00	 9.407407e+00	 9.996090e+00
0	 2.296296e+00	 9.481481e+00	 9.996968e+00
0	 2.296296e+00	 9.555556e+00	 9.997743e+00
0	 2.296296e+00	 9.629630e+00	 9.998421e+00
0	 2.370370e+00	 9.259259e+00	 9.994626e+00
0	 2.370370e+00	 9.333333e+00	 9.995613e+00
0	 2.370370e+00	 9.407407e+00	 9.996499e+00
0	 2.370370e+00	 9.481481e+00	 9.997288e+00
0	 2.370370e+00	 9.555556e+00	 9.997983e+00
0	 2.370370e+00	 9.629630e+00	 9.998590e+00
0	 2.444444e+00	 9.259259e+00	 9.995247e+00
0	 2.444444e+00	 9.333333e+00	 9.996123e+00
0	 2.444444e+00	 9.407407e+00	 9.996909e+00
0	 2.444444e+00	 9.481481e+00	 9.997609e+00
0	 2.444444e+00	 9.555556e+00	 9.998225e+00
0	 2.444444e+00	 9.629630e+00	 9.998762e+00
0	 2.518519e+00	 9.259259e+00	 9.995862e+00
0	 2.518519e+00	 9.333333e+00	 9.996628e+00
0	 2.518519e+00	 9.407407e+00	 9.997315e+00
0	 2.518519e+00	 9.481481e+00	 9.997925e+00
0	 2.518519e+00	 9.555556e+00	 9.998463e+00
0	 2.518519e+00	 9.629630e+00	 9.998929e+00
0	 2.592593e+00	 9.259259e+00	 9.996464e+00
0	 2.592593e+00	 9.333333e+00	 9.997120e+00
0	 2.592593e+00	 9.407407e+00	 9.997709e+00
0	 2.592593e+00	 9.481481e+00	 9.998231e+00
0	 2.592593e+00	 9.555556e+00	 9.998690e+00
0	 2.592593e+00	 9.629630e+00	 9.999087e+00
0	 2.222222e+00	 9.629630e+00	 9.998260e+00
0	 2.222222e+00	 9.703704e+00	 9.998884e+00
0	 2.222222e+00	 9.777778e+00	 9.999365e+00
0	 2.222222e+00	 9.851852e+00	 9.999710e+00
0	 2.222222e+00	 9.925926e+00	 9.999923e+00
0	 2.222222e+00	 1.000000e+01	 1.000001e+01
0	 2.296296e+00	 9.629630e+00	 9.998421e+00
0	 2.296296e+00	 9.703704e+00	 9.998984e+00
0	 2.296296e+00	 9.777778e+00	 9.999420e+00
0	 2.296296e+00	 9.851852e+00	 9.999732e+00
0	 2.296296e+00	 9.925926e+00	 9.999924e+00
0	 2.296296e+00	 1.000000e+01	 1.000000e+01
0	 2.370370e+00	 9.629630e+00	 9.998590e+00
0	 2.370370e+00	 9.703704e+00	 9.999095e+00
0	 2.370370e+00	 9.777778e+00	 9.999485e+00
0	 2.370370e+00	 9.851852e+00	 9.999764e+00
0	 2.370370e+00	 9.925926e+00	 9.999935e+00
0	 2.370370e+00	 1.000000e+01	 1.000000e+01
0	 2.444444e+00	 9.629630e+00	 9.998762e+00
0	 2.444444e+00	 9.703704e+00	 9.999208e+00
0	 2.444444e+00	 9.777778e+00	 9.999553e+00
0	 2.444444e+00	 9.851852e+00	 9.999799e+00
0	 2.444444e+00	 9.925926e+00	 9.999950e+00
0	 2.444444e+00	 1.000000e+01	 1.000001e+01
0	 2.518519e+00	 9.629630e+00	 9.998929e+00
0	 2.518519e+00	 9.703704e+00	 9.999317e+00
0	 2.518519e+00	 9.777778e+00	 9.999617e+00
0	 2.518519e+00	 9.851852e+00	 9.999831e+00
0	 2.518519e+00	 9.925926e+00	 9.999962e+00
0	 2.518519e+00	 1.000000e+01	 1.000001e+01
0	 2.592593e+00	 9.629630e+00	 9.999087e+00
0	 2.592593e+00	 9.703704e+00	 9.999416e+00
0	 2.592593e+00	 9.777778e+00	 9.999671e+00
0	 2.592593e+00	 9.851852e+00	 9.999853e+00
0	 2.592593e+00	 9.925926e+00	 9.999962e+00
0	 2.592593e+00	 1.000000e+01	 1.000000e+01
0	 2.592593e+00	 0.000000e+00	 1.126282e+01
0	 2.592593e+00	 7.407407e-02	 1.124089e+01
0	 2.592593e+00	 1.481481e-01	 1.124009e+01
0	 2.592593e+00	 2.222222e-01	 1.125491e+01
0	 2.592593e+00	 2.962963e-01	 1.127983e+01
0	 2.592593e+00	 3.703704e-01	 1.130936e+01
0	 2.666667e+00	 0.000000e+00	 1.128782e+01
0	 2.666667e+00	 7.407407e-02	 1.126889e+01
0	 2.666667e+00	 1.481481e-01	 1.125721e+01
0	 2.666667e+00	 2.222222e-01	 1.125227e+01
0	 2.666667e+00	 2.962963e-01	 1.125354e+01
0	 2.666667e+00	 3.703704e-01	 1.126049e+01
0	 2.740741e+00	 0.000000e+00	 1.125208e+01
0	 2.740741e+00	 7.407407e-02	 1.124266e+01
0	 2.740741e+00	 1.481481e-01	 1.123102e+01
0	 2.740741e+00	 2.222222e-01	 1.121999e+01
0	 2.740741e+00	 2.962963e-01	 1.121238e+01
0	 2.740741e+00	 3.703704e-01	 1.121098e+01
0	 2.814815e+00	 0.000000e+00	 1.117263e+01
0	 2.814815e+00	 7.407407e-02	 1.117524e+01
0	 2.814815e+00	 1.481481e-01	 1.117062e+01
0	 2.814815e+00	 2.222222e-01	 1.116327e+01
0	 2.814815e+00	 2.962963e-01	 1.115770e+01
0	 2.814815e+00	 3.703704e-01	 1.115842e+01
0	 2.888889e+00	 0.000000e+00	 1.106648e+01
0	 2.888889e+00	 7.407407e-02	 1.107968e+01
0	 2.888889e+00	 1.481481e-01	 1.108510e+01
0	 2.888889e+00	 2.222222e-01	 1.108731e+01
0	 2.888889e+00	 2.962963e-01	 1.109087e+01
0	 2.888889e+00	 3.703704e-01	 1.110035e+01
0	 2.962963e+00	 0.000000e+00	 1.095068e+01
0	 2.962963e+00	 7.407407e-02	 1.096902e+01
0	 2.962963e+00	 1.481481e-01	 1.098358e+01
0	 2.962963e+00	 2.222222e-01	 1.099732e+01
0	 2.962963e+00	 2.962963e-01	 1.101326e+01
0	 2.962963e+00	 3.703704e-01	 1.103436e+01
0	 2.592593e+00	 3.703704e-01	 1.130936e+01
0	 2.592593e+00	 4.444444e-01	 1.133735e+01
0	 2.592593e+00	 5.185185e-01	 1.136338e+01
0	 2.592593e+00	 5.925926e-01	 1.139055e+01
0	 2.592593e+00	 6.666667e-01	 1.142196e+01
0	 2.592593e+00	 7.407407e-01	 1.146070e+01
0	 2.666667e+00	 3.703704e-01	 1.126049e+01
0	 2.666667e+00	 4.444444e-01	 1.127156e+01
0	 2.666667e+00	 5.185185e-01	 1.128662e+01
0	 2.666667e+00	 5.925926e-01	 1.130730e+01
0	 2.666667e+00	 6.666667e-01	 1.133520e+01
0	 2.666667e+00	 7.407407e-01	 1.137194e+01
0	 2.740741e+00	 3.703704e-01	 1.121098e+01
0	 2.740741e+00	 4.444444e-01	 1.121640e+01
0	 2.740741e+00	 5.185185e-01	 1.122773e+01
0	 2.740741e+00	 5.925926e-01	 1.124555e+01
0	 2.740741e+00	 6.666667e-01	 1.127044e+01
0	 2.740741e+00	 7.407407e-01	 1.130299e+01
0	 2.814815e+00	 3.703704e-01	 1.115842e+01
0	 2.814815e+00	 4.444444e-01	 1.116624e+01
0	 2.814815e+00	 5.185185e-01	 1.117897e+01
0	 2.814815e+00	 5.925926e-01	 1.119661e+01
0	 2.814815e+00	 6.666667e-01	 1.121917e+01
0	 2.814815e+00	 7.407407e-01	 1.124664e+01
0	 2.888889e+00	 3.703704e-01	 1.110035e+01
0	 2.888889e+00	 4.444444e-01	 1.111543e+01
0	 2.888889e+00	 5.185185e-01	 1.113262e+01
0	 2.888889e+00	 5.925926e-01	 1.115182e+01
0	 2.888889e+00	 6.666667e-01	 1.117289e+01
0	 2.888889e+00	 7.407407e-01	 1.119569e+01
0	 2.962963e+00	 3.703704e-01	 1.103436e+01
0	 2.962963e+00	 4.444444e-01	 1.105832e+01
0	 2.962963e+00	 5.185185e-01	 1.108096e+01
0	 2.962963e+00	 5.925926e-01	 1.110249e+01
0	 2.962963e+00	 6.666667e-01	 1.112309e+01
0	 2.962963e+00	 7.407407e-01	 1.114296e+01
0	 2.592593e+00	 7.407407e-01	 1.146070e+01
0	 2.592593e+00	 8.148148e-01	 1.149946e+01
0	 2.592593e+00	 8.888889e-01	 1.152971e+01
0	 2.592593e+00	 9.629630e-01	 1.155280e+01
0	 2.592593e+00	 1.037037e+00	 1.157004e+01
0	 2.592593e+00	 1.111111e+00	 1.158277e+01
0	 2.666667e+00	 7.407407e-01	 1.137194e+01
0	 2.666667e+00	 8.148148e-01	 1.140956e+01
0	 2.666667e+00	 8.888889e-01	 1.143987e+01
0	 2.666667e+00	 9.629630e-01	 1.146418e+01
0	 2.666667e+00	 1.037037e+00	 1.148380e+01
0	 2.666667e+00	 1.111111e+00	 1.150002e+01
0	 2.740741e+00	 7.407407e-01	 1.130299e+01
0	 2.740741e+00	 8.148148e-01	 1.133621e+01
0	 2.740741e+00	 8.888889e-01	 1.136358e+01
0	 2.740741e+00	 9.629630e-01	 1.138631e+01
0	 2.740741e+00	 1.037037e+00	 1.140565e+01
0	 2.740741e+00	 1.111111e+00	 1.142282e+01
0	 2.814815e+00	 7.407407e-01	 1.124664e+01
0	 2.814815e+00	 8.148148e-01	 1.127400e+01
0	 2.814815e+00	 8.888889e-01	 1.129699e+01
0	 2.814815e+00	 9.629630e-01	 1.131673e+01
0	 2.814815e+00	 1.037037e+00	 1.133433e+01
0	 2.814815e+00	 1.111111e+00	 1.135092e+01
0	 2.888889e+00	 7.407407e-01	 1.119569e+01
0	 2.888889e+00	 8.148148e-01	 1.121749e+01
0	 2.888889e+00	 8.888889e-01	 1.123627e+01
0	 2.888889e+00	 9.629630e-01	 1.125298e+01
0	 2.888889e+00	 1.037037e+00	 1.126859e+01
0	 2.888889e+00	 1.111111e+00	 1.128408e+01
0	 2.962963e+00	 7.407407e-01	 1.114296e+01
0	 2.962963e+00	 8.148148e-01	 1.116126e+01
0	 2.962963e+00	 8.888889e-01	 1.117755e+01
0	 2.962963e+00	 9.629630e-01	 1.119260e+01
0	 2.962963e+00	 1.037037e+00	 1.120718e+01
0	 2.962963e+00	 1.111111e+00	 1.122204e+01
0	 2.592593e+00	 1.111111e+00	 1.158277e+01
0	 2.592593e+00	 1.185185e+00	 1.158974e+01
0	 2.592593e+00	 1.259259e+00	 1.158896e+01
0	 2.592593e+00	 1.333333e+00	 1.158062e+01
0	 2.592593e+00	 1.407407e+00	 1.156497e+01
0	 2.592593e+00	 1.481481e+00	 1.154221e+01
0	 2.666667e+00	 1.111111e+00	 1.150002e+01
0	 2.666667e+00	 1.185185e+00	 1.151108e+01
0	 2.666667e+00	 1.259259e+00	 1.151448e+01
0	 2.666667e+00	 1.333333e+00	 1.151048e+01
0	 2.666667e+00	 1.407407e+00	 1.149929e+01
0	 2.666667e+00	 1.481481e+00	 1.148116e+01
0	 2.740741e+00	 1.111111e+00	 1.142282e+01
0	 2.740741e+00	 1.185185e+00	 1.143577e+01
0	 2.740741e+00	 1.259259e+00	 1.144179e+01
0	 2.740741e+00	 1.333333e+00	 1.144115e+01
0	 2.740741e+00	 1.407407e+00	 1.143410e+01
0	 2.740741e+00	 1.481481e+00	 1.142091e+01
0	 2.814815e+00	 1.111111e+00	 1.135092e+01
0	 2.814815e+00	 1.185185e+00	 1.136433e+01
0	 2.814815e+00	 1.259259e+00	 1.137186e+01
0	 2.814815e+00	 1.333333e+00	 1.137381e+01
0	 2.814815e+00	 1.407407e+00	 1.137046e+01
0	 2.814815e+00	 1.481481e+00	 1.136211e+01
0	 2.888889e+00	 1.111111e+00	 1.128408e+01
0	 2.888889e+00	 1.185185e+00	 1.129729e+01
0	 2.888889e+00	 1.259259e+00	 1.130570e+01
0	 2.888889e+00	 1.333333e+00	 1.130962e+01
0	 2.888889e+00	 1.407407e+00	 1.130941e+01
0	 2.888889e+00	 1.481481e+00	 1.130540e+01
0	 2.962963e+00	 1.111111e+00	 1.122204e+01
0	 2.962963e+00	 1.185185e+00	 1.123516e+01
0	 2.962963e+00	 1.259259e+00	 1.124428e+01
0	 2.962963e+00	 1.333333e+00	 1.124976e+01
0	 2.962963e+00	 1.407407e+00	 1.125201e+01
0	 2.962963e+00	 1.481481e+00	 1.125142e+01
0	 2.592593e+00	 1.481481e+00	 1.154221e+01
0	 2.592593e+00	 1.555556e+00	 1.151435e+01
0	 2.592593e+00	 1.629630e+00	 1.148321e+01
0	 2.592593e+00	 1.703704e+00	 1.144874e+01
0	 2.592593e+00	 1.777778e+00	 1.141087e+01
0	 2.592593e+00	 1.851852e+00	 1.136953e+01
0	 2.666667e+00	 1.481481e+00	 1.148116e+01
0	 2.666667e+00	 1.555556e+00	 1.145832e+01
0	 2.666667e+00	 1.629630e+00	 1.143274e+01
0	 2.666667e+00	 1.703704e+00	 1.140422e+01
0	 2.666667e+00	 1.777778e+00	 1.137258e+01
0	 2.666667e+00	 1.851852e+00	 1.133762e+01
0	 2.740741e+00	 1.481481e+00	 1.142091e+01
0	 2.740741e+00	 1.555556e+00	 1.140346e+01
0	 2.740741e+00	 1.629630e+00	 1.138330e+01
0	 2.740741e+00	 1.703704e+00	 1.136017e+01
0	 2.740741e+00	 1.777778e+00	 1.133381e+01
0	 2.740741e+00	 1.851852e+00	 1.130396e+01
0	 2.814815e+00	 1.481481e+00	 1.136211e+01
0	 2.814815e+00	 1.555556e+00	 1.134996e+01
0	 2.814815e+00	 1.629630e+00	 1.133482e+01
0	 2.814815e+00	 1.703704e+00	 1.131642e+01
0	 2.814815e+00	 1.777778e+00	 1.129450e+01
0	 2.814815e+00	 1.851852e+00	 1.126878e+01
0	 2.888889e+00	 1.481481e+00	 1.130540e+01
0	 2.888889e+00	 1.555556e+00	 1.129798e+01
0	 2.888889e+00	 1.629630e+00	 1.128719e+01
0	 2.888889e+00	 1.703704e+00	 1.127280e+01
0	 2.888889e+00	 1.777778e+00	 1.125457e+01
0	 2.888889e+00	 1.851852e+00	 1.123229e+01
0	 2.962963e+00	 1.481481e+00	 1.125142e+01
0	 2.962963e+00	 1.555556e+00	 1.124772e+01
0	 2.962963e+00	 1.629630e+00	 1.124033e+01
0	 2.962963e+00	 1.703704e+00	 1.122913e+01
0	 2.962963e+00	 1.777778e+00	 1.121397e+01
0	 2.962963e+00	 1.851852e+00	 1.119474e+01
0	 2.592593e+00	 1.851852e+00	 1.136953e+01
0	 2.592593e+00	 1.925926e+00	 1.132607e+01
0	 2.592593e+00	 2.000000e+00	 1.128150e+01
0	 2.592593e+00	 2.074074e+00	 1.123519e+01
0	 2.592593e+00	 2.148148e+00	 1.118652e+01
0	 2.592593e+00	 2.222222e+00	 1.113486e+01
0	 2.666667e+00	 1.851852e+00	 1.133762e+01
0	 2.666667e+00	 1.925926e+00	 1.130009e+01
0	 2.666667e+00	 2.000000e+00	 1.126059e+01
0	 2.666667e+00	 2.074074e+00	 1.121878e+01
0	 2.666667e+00	 2.148148e+00	 1.117431e+01
0	 2.666667e+00	 2.222222e+00	 1.112683e+01
0	 2.740741e+00	 1.851852e+00	 1.130396e+01
0	 2.740741e+00	 1.925926e+00	 1.127117e+01
0	 2.740741e+00	 2.000000e+00	 1.123604e+01
0	 2.740741e+00	 2.074074e+00	 1.119840e+01
0	 2.740741e+00	 2.148148e+00	 1.115810e+01
0	 2.740741e+00	 2.222222e+00	 1.111498e+01
0	 2.814815e+00	 1.851852e+00	 1.126878e+01
0	 2.814815e+00	 1.925926e+00	 1.123990e+01
0	 2.814815e+00	 2.000000e+00	 1.120863e+01
0	 2.814815e+00	 2.074074e+00	 1.117494e+01
0	 2.814815e+00	 2.148148e+00	 1.113876e+01
0	 2.814815e+00	 2.222222e+00	 1.110005e+01
0	 2.888889e+00	 1.851852e+00	 1.123229e+01
0	 2.888889e+00	 1.925926e+00	 1.120682e+01
0	 2.888889e+00	 2.000000e+00	 1.117915e+01
0	 2.888889e+00	 2.074074e+00	 1.114927e+01
0	 2.888889e+00	 2.148148e+00	 1.111715e+01
0	 2.888889e+00	 2.222222e+00	 1.108277e+01
0	 2.962963e+00	 1.851852e+00	 1.119474e+01
0	 2.962963e+00	 1.925926e+00	 1.117250e+01
0	 2.962963e+00	 2.000000e+00	 1.114836e+01
0	 2.962963e+00	 2.074074e+00	 1.112226e+01
0	 2.962963e+00	 2.148148e+00	 1.109412e+01
0	 2.962963e+00	 2.222222e+00	 1.106386e+01
0	 2.592593e+00	 2.222222e+00	 1.113486e+01
0	 2.592593e+00	 2.296296e+00	 1.108208e+01
0	 2.592593e+00	 2.370370e+00	 1.103034e+01
0	 2.592593e+00	 2.444444e+00	 1.097941e+01
0	 2.592593e+00	 2.518519e+00	 1.092908e+01
0	 2.592593e+00	 2.592593e+00	 1.087914e+01
0	 2.666667e+00	 2.222222e+00	 1.112683e+01
0	 2.666667e+00	 2.296296e+00	 1.107832e+01
0	 2.666667e+00	 2.370370e+00	 1.103080e+01
0	 2.666667e+00	 2.444444e+00	 1.098392e+01
0	 2.666667e+00	 2.518519e+00	 1.093738e+01
0	 2.666667e+00	 2.592593e+00	 1.089083e+01
0	 2.740741e+00	 2.222222e+00	 1.111498e+01
0	 2.740741e+00	 2.296296e+00	 1.107089e+01
0	 2.740741e+00	 2.370370e+00	 1.102754e+01
0	 2.740741e+00	 2.444444e+00	 1.098452e+01
0	 2.740741e+00	 2.518519e+00	 1.094145e+01
0	 2.740741e+00	 2.592593e+00	 1.089793e+01
0	 2.814815e+00	 2.222222e+00	 1.110005e+01
0	 2.814815e+00	 2.296296e+00	 1.106037e+01
0	 2.814815e+00	 2.370370e+00	 1.102104e+01
0	 2.814815e+00	 2.444444e+00	 1.098164e+01
0	 2.814815e+00	 2.518519e+00	 1.094178e+01
0	 2.814815e+00	 2.592593e+00	 1.090104e+01
0	 2.888889e+00	 2.222222e+00	 1.108277e+01
0	 2.888889e+00	 2.296296e+00	 1.104732e+01
0	 2.888889e+00	 2.370370e+00	 1.101177e+01
0	 2.888889e+00	 2.444444e+00	 1.097574e+01
0	 2.888889e+00	 2.518519e+00	 1.093885e+01
0	 2.888889e+00	 2.592593e+00	 1.090072e+01
0	 2.962963e+00	 2.222222e+00	 1.106386e+01
0	 2.962963e+00	 2.296296e+00	 1.103233e+01
0	 2.962963e+00	 2.370370e+00	 1.100023e+01
0	 2.962963e+00	 2.444444e+00	 1.096727e+01
0	 2.962963e+00	 2.518519e+00	 1.093315e+01
0	 2.962963e+00	 2.592593e+00	 1.089757e+01
0	 2.592593e+00	 2.592593e+00	 1.087914e+01
0	 2.592593e+00	 2.666667e+00	 1.083018e+01
0	 2.592593e+00	 2.740741e+00	 1.078277e+01
0	 2.592593e+00	 2.814815e+00	 1.073664e+01
0	 2.592593e+00	 2.888889e+00	 1.069152e+01
0	 2.592593e+00	 2.962963e+00	 1.064715e+01
0	 2.666667e+00	 2.592593e+00	 1.089083e+01
0	 2.666667e+00	 2.666667e+00	 1.084478e+01
0	 2.666667e+00	 2.740741e+00	 1.079984e+01
0	 2.666667e+00	 2.814815e+00	 1.075582e+01
0	 2.666667e+00	 2.888889e+00	 1.071253e+01
0	 2.666667e+00	 2.962963e+00	 1.066978e+01
0	 2.740741e+00	 2.592593e+00	 1.089793e+01
0	 2.740741e+00	 2.666667e+00	 1.085454e+01
0	 2.740741e+00	 2.740741e+00	 1.081199e+01
0	 2.740741e+00	 2.814815e+00	 1.077015e+01
0	 2.740741e+00	 2.888889e+00	 1.072889e+01
0	 2.740741e+00	 2.962963e+00	 1.068807e+01
0	 2.814815e+00	 2.592593e+00	 1.090104e+01
0	 2.814815e+00	 2.666667e+00	 1.086012e+01
0	 2.814815e+00	 2.740741e+00	 1.081993e+01
0	 2.814815e+00	 2.814815e+00	 1.078035e+01
0	 2.814815e+00	 2.888889e+00	 1.074126e+01
0	 2.814815e+00	 2.962963e+00	 1.070257e+01
0	 2.888889e+00	 2.592593e+00	 1.090072e+01
0	 2.888889e+00	 2.666667e+00	 1.086223e+01
0	 2.888889e+00	 2.740741e+00	 1.082440e+01
0	 2.888889e+00	 2.814815e+00	 1.078713e+01
0	 2.888889e+00	 2.888889e+00	 1.075031e+01
0	 2.888889e+00	 2.962963e+00	 1.071382e+01
0	 2.962963e+00	 2.592593e+00	 1.089757e+01
0	 2.962963e+00	 2.666667e+00	 1.086153e+01
0	 2.962963e+00	 2.740741e+00	 1.082612e+01
0	 2.962963e+00	 2.814815e+00	 1.079122e+01
0	 2.962963e+00	 2.888889e+00	 1.075669e+01
0	 2.962963e+00	 2.962963e+00	 1.072238e+01
0	 2.592593e+00	 2.962963e+00	 1.064715e+01
0	 2.592593e+00	 3.037037e+00	 1.060413e+01
0	 2.592593e+00	 3.111111e+00	 1.056315e+01
0	 2.592593e+00	 3.185185e+00	 1.052415e+01
0	 2.592593e+00	 3.259259e+00	 1.048704e+01
0	 2.592593e+00	 3.333333e+00	 1.045177e+01
0	 2.666667e+00	 2.962963e+00	 1.066978e+01
0	 2.666667e+00	 3.037037e+00	 1.062826e+01
0	 2.666667e+00	 3.111111e+00	 1.058866e+01
0	 2.666667e+00	 3.185185e+00	 1.055089e+01
0	 2.666667e+00	 3.259259e+00	 1.051481e+01
0	 2.666667e+00	 3.333333e+00	 1.048031e+01
0	 2.740741e+00	 2.962963e+00	 1.068807e+01
0	 2.740741e+00	 3.037037e+00	 1.064835e+01
0	 2.740741e+00	 3.111111e+00	 1.061035e+01
0	 2.740741e+00	 3.185185e+00	 1.057393e+01
0	 2.740741e+00	 3.259259e+00	 1.053893e+01
0	 2.740741e+00	 3.333333e+00	 1.050522e+01
0	 2.814815e+00	 2.962963e+00	 1.070257e+01
0	 2.814815e+00	 3.037037e+00	 1.066482e+01
0	 2.814815e+00	 3.111111e+00	 1.062853e+01
0	 2.814815e+00	 3.185185e+00	 1.059354e+01
0	 2.814815e+00	 3.259259e+00	 1.055968e+01
0	 2.814815e+00	 3.333333e+00	 1.052679e+01
0	 2.888889e+00	 2.962963e+00	 1.071382e+01
0	 2.888889e+00	 3.037037e+00	 1.067811e+01
0	 2.888889e+00	 3.111111e+00	 1.064355e+01
0	 2.888889e+00	 3.185185e+00	 1.061001e+01
0	 2.888889e+00	 3.259259e+00	 1.057732e+01
0	 2.888889e+00	 3.333333e+00	 1.054533e+01
0	 2.962963e+00	 2.962963e+00	 1.072238e+01
0	 2.962963e+00	 3.037037e+00	 1.068862e+01
0	 2.962963e+00	 3.111111e+00	 1.065575e+01
0	 2.962963e+00	 3.185185e+00	 1.062363e+01
0	 2.962963e+00	 3.259259e+00	 1.059213e+01
0	 2.962963e+00	 3.333333e+00	 1.056111e+01
0	 2.592593e+00	 3.333333e+00	 1.045177e+01
0	 2.592593e+00	 3.407407e+00	 1.041822e+01
0	 2.592593e+00	 3.481481e+00	 1.038629e+01
0	 2.592593e+00	 3.555556e+00	 1.035594e+01
0	 2.592593e+00	 3.629630e+00	 1.032711e+01
0	 2.592593e+00	 3.703704e+00	 1.029973e+01
0	 2.666667e+00	 3.333333e+00	 1.048031e+01
0	 2.666667e+00	 3.407407e+00	 1.044730e+01
0	 2.666667e+00	 3.481481e+00	 1.041574e+01
0	 2.666667e+00	 3.555556e+00	 1.038560e+01
0	 2.666667e+00	 3.629630e+00	 1.035684e+01
0	 2.666667e+00	 3.703704e+00	 1.032943e+01
0	 2.740741e+00	 3.333333e+00	 1.050522e+01
0	 2.740741e+00	 3.407407e+00	 1.047278e+01
0	 2.740741e+00	 3.481481e+00	 1.044169e+01
0	 2.740741e+00	 3.555556e+00	 1.041192e+01
0	 2.740741e+00	 3.629630e+00	 1.038344e+01
0	 2.740741e+00	 3.703704e+00	 1.035624e+01
0	 2.814815e+00	 3.333333e+00	 1.052679e+01
0	 2.814815e+00	 3.407407e+00	 1.049499e+01
0	 2.814815e+00	 3.481481e+00	 1.046448e+01
0	 2.814815e+00	 3.555556e+00	 1.043522e+01
0	 2.814815e+00	 3.629630e+00	 1.040720e+01
0	 2.814815e+00	 3.703704e+00	 1.038038e+01
0	 2.888889e+00	 3.333333e+00	 1.054533e+01
0	 2.888889e+00	 3.407407e+00	 1.051426e+01
0	 2.888889e+00	 3.481481e+00	 1.048443e+01
0	 2.888889e+00	 3.555556e+00	 1.045582e+01
0	 2.888889e+00	 3.629630e+00	 1.042838e+01
0	 2.888889e+00	 3.703704e+00	 1.040208e+01
0	 2.962963e+00	 3.333333e+00	 1.056111e+01
0	 2.962963e+00	 3.407407e+00	 1.053090e+01
0	 2.962963e+00	 3.481481e+00	 1.050189e+01
0	 2.962963e+00	 3.555556e+00	 1.047403e+01
0	 2.962963e+00	 3.629630e+00	 1.044727e+01
0	 2.962963e+00	 3.703704e+00	 1.042155e+01
0	 2.592593e+00	 3.703704e+00	 1.029973e+01
0	 2.592593e+00	 3.777778e+00	 1.027382e+01
0	 2.592593e+00	 3.851852e+00	 1.024941e+01
0	 2.592593e+00	 3.925926e+00	 1.022650e+01
0	 2.592593e+00	 4.000000e+00	 1.020511e+01
0	 2.592593e+00	 4.074074e+00	 1.018522e+01
0	 2.666667e+00	 3.703704e+00	 1.032943e+01
0	 2.666667e+00	 3.777778e+00	 1.030342e+01
0	 2.666667e+00	 3.851852e+00	 1.027888e+01
0	 2.666667e+00	 3.925926e+00	 1.025580e+01
0	 2.666667e+00	 4.000000e+00	 1.023416e+01
0	 2.666667e+00	 4.074074e+00	 1.021393e+01
0	 2.740741e+00	 3.703704e+00	 1.035624e+01
0	 2.740741e+00	 3.777778e+00	 1.033037e+01
0	 2.740741e+00	 3.851852e+00	 1.030589e+01
0	 2.740741e+00	 3.925926e+00	 1.028277e+01
0	 2.740741e+00	 4.000000e+00	 1.026098e+01
0	 2.740741e+00	 4.074074e+00	 1.024049e+01
0	 2.814815e+00	 3.703704e+00	 1.038038e+01
0	 2.814815e+00	 3.777778e+00	 1.035482e+01
0	 2.814815e+00	 3.851852e+00	 1.033054e+01
0	 2.814815e+00	 3.925926e+00	 1.030750e+01
0	 2.814815e+00	 4.000000e+00	 1.028566e+01
0	 2.814815e+00	 4.074074e+00	 1.026497e+01
0	 2.888889e+00	 3.703704e+00	 1.040208e+01
0	 2.888889e+00	 3.777778e+00	 1.037694e+01
0	 2.888889e+00	 3.851852e+00	 1.035294e+01
0	 2.888889e+00	 3.925926e+00	 1.033006e+01
0	 2.888889e+00	 4.000000e+00	 1.030825e+01
0	 2.888889e+00	 4.074074e+00	 1.028747e+01
0	 2.962963e+00	 3.703704e+00	 1.042155e+01
0	 2.962963e+00	 3.777778e+00	 1.039687e+01
0	 2.962963e+00	 3.851852e+00	 1.037321e+01
0	 2.962963e+00	 3.925926e+00	 1.035054e+01
0	 2.962963e+00	 4.000000e+00	 1.032884e+01
0	 2.962963e+00	 4.074074e+00	 1.030806e+01
0	 2.592593e+00	 4.074074e+00	 1.018522e+01
0	 2.592593e+00	 4.148148e+00	 1.016663e+01
0	 2.592593e+00	 4.222222e+00	 1.014912e+01
0	 2.592593e+00	 4.296296e+00	 1.013270e+01
0	 2.592593e+00	 4.370370e+00	 1.011736e+01
0	 2.592593e+00	 4.444444e+00	 1.010312e+01
0	 2.666667e+00	 4.074074e+00	 1.021393e+01
0	 2.666667e+00	 4.148148e+00	 1.019492e+01
0	 2.666667e+00	 4.222222e+00	 1.017693e+01
0	 2.666667e+00	 4.296296e+00	 1.015999e+01
0	 2.666667e+00	 4.370370e+00	 1.014411e+01
0	 2.666667e+00	 4.444444e+00	 1.012928e+01
0	 2.740741e+00	 4.074074e+00	 1.024049e+01
0	 2.740741e+00	 4.148148e+00	 1.022112e+01
0	 2.740741e+00	 4.222222e+00	 1.020277e+01
0	 2.740741e+00	 4.296296e+00	 1.018543e+01
0	 2.740741e+00	 4.370370e+00	 1.016911e+01
0	 2.740741e+00	 4.444444e+00	 1.015385e+01
0	 2.814815e+00	 4.074074e+00	 1.026497e+01
0	 2.814815e+00	 4.148148e+00	 1.024535e+01
0	 2.814815e+00	 4.222222e+00	 1.022671e+01
0	 2.814815e+00	 4.296296e+00	 1.020908e+01
0	 2.814815e+00	 4.370370e+00	 1.019246e+01
0	 2.814815e+00	 4.444444e+00	 1.017687e+01
0	 2.888889e+00	 4.074074e+00	 1.028747e+01
0	 2.888889e+00	 4.148148e+00	 1.026768e+01
0	 2.888889e+00	 4.222222e+00	 1.024887e+01
0	 2.888889e+00	 4.296296e+00	 1.023105e+01
0	 2.888889e+00	 4.370370e+00	 1.021422e+01
0	 2.888889e+00	 4.444444e+00	 1.019839e+01
0	 2.962963e+00	 4.074074e+00	 1.030806e+01
0	 2.962963e+00	 4.148148e+00	 1.028821e+01
0	 2.962963e+00	 4.222222e+00	 1.026933e+01
0	 2.962963e+00	 4.296296e+00	 1.025141e+01
0	 2.962963e+00	 4.370370e+00	 1.023446e+01
0	 2.962963e+00	 4.444444e+00	 1.021846e+01
0	 2.592593e+00	 4.444444e+00	 1.010312e+01
0	 2.592593e+00	 4.518519e+00	 1.008986e+01
0	 2.592593e+00	 4.592593e+00	 1.007748e+01
0	 2.592593e+00	 4.666667e+00	 1.006600e+01
0	 2.592593e+00	 4.740741e+00	 1.005543e+01
0	 2.592593e+00	 4.814815e+00	 1.004579e+01
0	 2.666667e+00	 4.444444e+00	 1.012928e+01
0	 2.666667e+00	 4.518519e+00	 1.011543e+01
0	 2.666667e+00	 4.592593e+00	 1.010246e+01
0	 2.666667e+00	 4.666667e+00	 1.009039e+01
0	 2.666667e+00	 4.740741e+00	 1.007922e+01
0	 2.666667e+00	 4.814815e+00	 1.006897e+01
0	 2.740741e+00	 4.444444e+00	 1.015385e+01
0	 2.740741e+00	 4.518519e+00	 1.013953e+01
0	 2.740741e+00	 4.592593e+00	 1.012609e+01
0	 2.740741e+00	 4.666667e+00	 1.011353e+01
0	 2.740741e+00	 4.740741e+00	 1.010183e+01
0	 2.740741e+00	 4.814815e+00	 1.009102e+01
0	 2.814815e+00	 4.444444e+00	 1.017687e+01
0	 2.814815e+00	 4.518519e+00	 1.016220e+01
0	 2.814815e+00	 4.592593e+00	 1.014838e+01
0	 2.814815e+00	 4.666667e+00	 1.013539e+01
0	 2.814815e+00	 4.740741e+00	 1.012324e+01
0	 2.814815e+00	 4.814815e+00	 1.011193e+01
0	 2.888889e+00	 4.444444e+00	 1.019839e+01
0	 2.888889e+00	 4.518519e+00	 1.018346e+01
0	 2.888889e+00	 4.592593e+00	 1.016932e+01
0	 2.888889e+00	 4.666667e+00	 1.015598e+01
0	 2.888889e+00	 4.740741e+00	 1.014344e+01
0	 2.888889e+00	 4.814815e+00	 1.013169e+01
0	 2.962963e+00	 4.444444e+00	 1.021846e+01
0	 2.962963e+00	 4.518519e+00	 1.020332e+01
0	 2.962963e+00	 4.592593e+00	 1.018893e+01
0	 2.962963e+00	 4.666667e+00	 1.017530e+01
0	 2.962963e+00	 4.740741e+00	 1.016242e+01
0	 2.962963e+00	 4.814815e+00	 1.015030e+01
0	 2.592593e+00	 4.814815e+00	 1.004579e+01
0	 2.592593e+00	 4.888889e+00	 1.003693e+01
0	 2.592593e+00	 4.962963e+00	 1.002869e+01
0	 2.592593e+00	 5.037037e+00	 1.002107e+01
0	 2.592593e+00	 5.111111e+00	 1.001409e+01
0	 2.592593e+00	 5.185185e+00	 1.000777e+01
0	 2.666667e+00	 4.814815e+00	 1.006897e+01
0	 2.666667e+00	 4.888889e+00	 1.005948e+01
0	 2.666667e+00	 4.962963e+00	 1.005059e+01
0	 2.666667e+00	 5.037037e+00	 1.004234e+01
0	 2.666667e+00	 5.111111e+00	 1.003472e+01
0	 2.666667e+00	 5.185185e+00	 1.002776e+01
0	 2.740741e+00	 4.814815e+00	 1.009102e+01
0	 2.740741e+00	 4.888889e+00	 1.008095e+01
0	 2.740741e+00	 4.962963e+00	 1.007149e+01
0	 2.740741e+00	 5.037037e+00	 1.006266e+01
0	 2.740741e+00	 5.111111e+00	 1.005447e+01
0	 2.740741e+00	 5.185185e+00	 1.004695e+01
0	 2.814815e+00	 4.814815e+00	 1.011193e+01
0	 2.814815e+00	 4.888889e+00	 1.010133e+01
0	 2.814815e+00	 4.962963e+00	 1.009136e+01
0	 2.814815e+00	 5.037037e+00	 1.008202e+01
0	 2.814815e+00	 5.111111e+00	 1.007334e+01
0	 2.814815e+00	 5.185185e+00	 1.006532e+01
0	 2.888889e+00	 4.814815e+00	 1.013169e+01
0	 2.888889e+00	 4.888889e+00	 1.012064e+01
0	 2.888889e+00	 4.962963e+00	 1.011022e+01
0	 2.888889e+00	 5.037037e+00	 1.010044e+01
0	 2.888889e+00	 5.111111e+00	 1.009131e+01
0	 2.888889e+00	 5.185185e+00	 1.008284e+01
0	 2.962963e+00	 4.814815e+00	 1.015030e+01
0	 2.962963e+00	 4.888889e+00	 1.013887e+01
0	 2.962963e+00	 4.962963e+00	 1.012806e+01
0	 2.962963e+00	 5.037037e+00	 1.011790e+01
0	 2.962963e+00	 5.111111e+00	 1.010838e+01
0	 2.962963e+00	 5.185185e+00	 1.009952e+01
0	 2.592593e+00	 5.185185e+00	 1.000777e+01
0	 2.592593e+00	 5.259259e+00	 1.000201e+01
0	 2.592593e+00	 5.333333e+00	 9.996711e+00
0	 2.592593e+00	 5.407407e+00	 9.991899e+00
0	 2.592593e+00	 5.481481e+00	 9.987584e+00
0	 2.592593e+00	 5.555556e+00	 9.983784e+00
0	 2.666667e+00	 5.185185e+00	 1.002776e+01
0	 2.666667e+00	 5.259259e+00	 1.002138e+01
0	 2.666667e+00	 5.333333e+00	 1.001548e+01
0	 2.666667e+00	 5.407407e+00	 1.001007e+01
0	 2.666667e+00	 5.481481e+00	 1.000517e+01
0	 2.666667e+00	 5.555556e+00	 1.000078e+01
0	 2.740741e+00	 5.185185e+00	 1.004695e+01
0	 2.740741e+00	 5.259259e+00	 1.004001e+01
0	 2.740741e+00	 5.333333e+00	 1.003355e+01
0	 2.740741e+00	 5.407407e+00	 1.002760e+01
0	 2.740741e+00	 5.481481e+00	 1.002215e+01
0	 2.740741e+00	 5.555556e+00	 1.001721e+01
0	 2.814815e+00	 5.185185e+00	 1.006532e+01
0	 2.814815e+00	 5.259259e+00	 1.005787e+01
0	 2.814815e+00	 5.333333e+00	 1.005092e+01
0	 2.814815e+00	 5.407407e+00	 1.004446e+01
0	 2.814815e+00	 5.481481e+00	 1.003850e+01
0	 2.814815e+00	 5.555556e+00	 1.003305e+01
0	 2.888889e+00	 5.185185e+00	 1.008284e+01
0	 2.888889e+00	 5.259259e+00	 1.007495e+01
0	 2.888889e+00	 5.333333e+00	 1.006754e+01
0	 2.888889e+00	 5.407407e+00	 1.006062e+01
0	 2.888889e+00	 5.481481e+00	 1.005419e+01
0	 2.888889e+00	 5.555556e+00	 1.004827e+01
0	 2.962963e+00	 5.185185e+00	 1.009952e+01
0	 2.962963e+00	 5.259259e+00	 1.009122e+01
0	 2.962963e+00	 5.333333e+00	 1.008340e+01
0	 2.962963e+00	 5.407407e+00	 1.007605e+01
0	 2.962963e+00	 5.481481e+00	 1.006920e+01
0	 2.962963e+00	 5.555556e+00	 1.006284e+01
0	 2.592593e+00	 5.555556e+00	 9.983784e+00
0	 2.592593e+00	 5.629630e+00	 9.980402e+00
0	 2.592593e+00	 5.703704e+00	 9.977340e+00
0	 2.592593e+00	 5.777778e+00	 9.974610e+00
0	 2.592593e+00	 5.851852e+00	 9.972223e+00
0	 2.592593e+00	 5.925926e+00	 9.970192e+00
0	 2.666667e+00	 5.555556e+00	 1.000078e+01
0	 2.666667e+00	 5.629630e+00	 9.996821e+00
0	 2.666667e+00	 5.703704e+00	 9.993190e+00
0	 2.666667e+00	 5.777778e+00	 9.989902e+00
0	 2.666667e+00	 5.851852e+00	 9.986967e+00
0	 2.666667e+00	 5.925926e+00	 9.984400e+00
0	 2.740741e+00	 5.555556e+00	 1.001721e+01
0	 2.740741e+00	 5.629630e+00	 1.001271e+01
0	 2.740741e+00	 5.703704e+00	 1.000854e+01
0	 2.740741e+00	 5.777778e+00	 1.000473e+01
0	 2.740741e+00	 5.851852e+00	 1.000128e+01
0	 2.740741e+00	 5.925926e+00	 9.998212e+00
0	 2.814815e+00	 5.555556e+00	 1.003305e+01
0	 2.814815e+00	 5.629630e+00	 1.002804e+01
0	 2.814815e+00	 5.703704e+00	 1.002337e+01
0	 2.814815e+00	 5.777778e+00	 1.001907e+01
0	 2.814815e+00	 5.851852e+00	 1.001514e+01
0	 2.814815e+00	 5.925926e+00	 1.001160e+01
0	 2.888889e+00	 5.555556e+00	 1.004827e+01
0	 2.888889e+00	 5.629630e+00	 1.004278e+01
0	 2.888889e+00	 5.703704e+00	 1.003765e+01
0	 2.888889e+00	 5.777778e+00	 1.003290e+01
0	 2.888889e+00	 5.851852e+00	 1.002852e+01
0	 2.888889e+00	 5.925926e+00	 1.002455e+01
0	 2.962963e+00	 5.555556e+00	 1.006284e+01
0	 2.962963e+00	 5.629630e+00	 1.005692e+01
0	 2.962963e+00	 5.703704e+00	 1.005136e+01
0	 2.962963e+00	 5.777778e+00	 1.004619e+01
0	 2.962963e+00	 5.851852e+00	 1.004140e+01
0	 2.962963e+00	 5.925926e+00	 1.003702e+01
0	 2.592593e+00	 5.925926e+00	 9.970192e+00
0	 2.592593e+00	 6.000000e+00	 9.968453e+00
0	 2.592593e+00	 6.074074e+00	 9.966945e+00
0	 2.592593e+00	 6.148148e+00	 9.965679e+00
0	 2.592593e+00	 6.222222e+00	 9.964664e+00
0	 2.592593e+00	 6.296296e+00	 9.963911e+00
0	 2.666667e+00	 5.925926e+00	 9.984400e+00
0	 2.666667e+00	 6.000000e+00	 9.982139e+00
0	 2.666667e+00	 6.074074e+00	 9.980123e+00
0	 2.666667e+00	 6.148148e+00	 9.978361e+00
0	 2.666667e+00	 6.222222e+00	 9.976863e+00
0	 2.666667e+00	 6.296296e+00	 9.975637e+00
0	 2.740741e+00	 5.925926e+00	 9.998212e+00
0	 2.740741e+00	 6.000000e+00	 9.995461e+00
0	 2.740741e+00	 6.074074e+00	 9.992965e+00
0	 2.740741e+00	 6.148148e+00	 9.990732e+00
0	 2.740741e+00	 6.222222e+00	 9.988771e+00
0	 2.740741e+00	 6.296296e+00	 9.987090e+00
0	 2.814815e+00	 5.925926e+00	 1.001160e+01
0	 2.814815e+00	 6.000000e+00	 1.000839e+01
0	 2.814815e+00	 6.074074e+00	 1.000544e+01
0	 2.814815e+00	 6.148148e+00	 1.000276e+01
0	 2.814815e+00	 6.222222e+00	 1.000036e+01
0	 2.814815e+00	 6.296296e+00	 9.998245e+00
0	 2.888889e+00	 5.925926e+00	 1.002455e+01
0	 2.888889e+00	 6.000000e+00	 1.002090e+01
0	 2.888889e+00	 6.074074e+00	 1.001752e+01
0	 2.888889e+00	 6.148148e+00	 1.001442e+01
0	 2.888889e+00	 6.222222e+00	 1.001160e+01
0	 2.888889e+00	 6.296296e+00	 1.000907e+01
0	 2.962963e+00	 5.925926e+00	 1.003702e+01
0	 2.962963e+00	 6.000000e+00	 1.003296e+01
0	 2.962963e+00	 6.074074e+00	 1.002918e+01
0	 2.962963e+00	 6.148148e+00	 1.002568e+01
0	 2.962963e+00	 6.222222e+00	 1.002247e+01
0	 2.962963e+00	 6.296296e+00	 1.001955e+01
0	 2.592593e+00	 6.296296e+00	 9.963911e+00
0	 2.592593e+00	 6.370370e+00	 9.963366e+00
0	 2.592593e+00	 6.444444e+00	 9.962973e+00
0	 2.592593e+00	 6.518519e+00	 9.962739e+00
0	 2.592593e+00	 6.592593e+00	 9.962673e+00
0	 2.592593e+00	 6.666667e+00	 9.962783e+00
0	 2.666667e+00	 6.296296e+00	 9.975637e+00
0	 2.666667e+00	 6.370370e+00	 9.974628e+00
0	 2.666667e+00	 6.444444e+00	 9.973782e+00
0	 2.666667e+00	 6.518519e+00	 9.973107e+00
0	 2.666667e+00	 6.592593e+00	 9.972611e+00
0	 2.666667e+00	 6.666667e+00	 9.972303e+00
0	 2.740741e+00	 6.296296e+00	 9.987090e+00
0	 2.740741e+00	 6.370370e+00	 9.985636e+00
0	 2.740741e+00	 6.444444e+00	 9.984355e+00
0	 2.740741e+00	 6.518519e+00	 9.983256e+00
0	 2.740741e+00	 6.592593e+00	 9.982347e+00
0	 2.740741e+00	 6.666667e+00	 9.981636e+00
0	 2.814815e+00	 6.296296e+00	 9.998245e+00
0	 2.814815e+00	 6.370370e+00	 9.996364e+00
0	 2.814815e+00	 6.444444e+00	 9.994666e+00
0	 2.814815e+00	 6.518519e+00	 9.993161e+00
0	 2.814815e+00	 6.592593e+00	 9.991855e+00
0	 2.814815e+00	 6.666667e+00	 9.990758e+00
0	 2.888889e+00	 6.296296e+00	 1.000907e+01
0	 2.888889e+00	 6.370370e+00	 1.000679e+01
0	 2.888889e+00	 6.444444e+00	 1.000469e+01
0	 2.888889e+00	 6.518519e+00	 1.000280e+01
0	 2.888889e+00	 6.592593e+00	 1.000111e+01
0	 2.888889e+00	 6.666667e+00	 9.999648e+00
0	 2.962963e+00	 6.296296e+00	 1.001955e+01
0	 2.962963e+00	 6.370370e+00	 1.001688e+01
0	 2.962963e+00	 6.444444e+00	 1.001441e+01
0	 2.962963e+00	 6.518519e+00	 1.001215e+01
0	 2.962963e+00	 6.592593e+00	 1.001010e+01
0	 2.962963e+00	 6.666667e+00	 1.000828e+01
0	 2.592593e+00	 6.666667e+00	 9.962783e+00
0	 2.592593e+00	 6.740741e+00	 9.963031e+00
0	 2.592593e+00	 6.814815e+00	 9.963378e+00
0	 2.592593e+00	 6.888889e+00	 9.963830e+00
0	 2.592593e+00	 6.962963e+00	 9.964396e+00
0	 2.592593e+00	 7.037037e+00	 9.965081e+00
0	 2.666667e+00	 6.666667e+00	 9.972303e+00
0	 2.666667e+00	 6.740741e+00	 9.972144e+00
0	 2.666667e+00	 6.814815e+00	 9.972095e+00
0	 2.666667e+00	 6.888889e+00	 9.972163e+00
0	 2.666667e+00	 6.962963e+00	 9.972354e+00
0	 2.666667e+00	 7.037037e+00	 9.972674e+00
0	 2.740741e+00	 6.666667e+00	 9.981636e+00
0	 2.740741e+00	 6.740741e+00	 9.981085e+00
0	 2.740741e+00	 6.814815e+00	 9.980654e+00
0	 2.740741e+00	 6.888889e+00	 9.980348e+00
0	 2.740741e+00	 6.962963e+00	 9.980175e+00
0	 2.740741e+00	 7.037037e+00	 9.980141e+00
0	 2.814815e+00	 6.666667e+00	 9.990758e+00
0	 2.814815e+00	 6.740741e+00	 9.989831e+00
0	 2.814815e+00	 6.814815e+00	 9.989031e+00
0	 2.814815e+00	 6.888889e+00	 9.988365e+00
0	 2.814815e+00	 6.962963e+00	 9.987840e+00
0	 2.814815e+00	 7.037037e+00	 9.987461e+00
0	 2.888889e+00	 6.666667e+00	 9.999648e+00
0	 2.888889e+00	 6.740741e+00	 9.998358e+00
0	 2.888889e+00	 6.814815e+00	 9.997204e+00
0	 2.888889e+00	 6.888889e+00	 9.996191e+00
0	 2.888889e+00	 6.962963e+00	 9.995325e+00
0	 2.888889e+00	 7.037037e+00	 9.994613e+00
0	 2.962963e+00	 6.666667e+00	 1.000828e+01
0	 2.962963e+00	 6.740741e+00	 1.000664e+01
0	 2.962963e+00	 6.814815e+00	 1.000515e+01
0	 2.962963e+00	 6.888889e+00	 1.000380e+01
0	 2.962963e+00	 6.962963e+00	 1.000261e+01
0	 2.962963e+00	 7.037037e+00	 1.000158e+01
0	 2.592593e+00	 7.037037e+00	 9.965081e+00
0	 2.592593e+00	 7.111111e+00	 9.965855e+00
0	 2.592593e+00	 7.185185e+00	 9.966683e+00
0	 2.592593e+00	 7.259259e+00	 9.967572e+00
0	 2.592593e+00	 7.333333e+00	 9.968527e+00
0	 2.592593e+00	 7.407407e+00	 9.969555e+00
0	 2.666667e+00	 7.037037e+00	 9.972674e+00
0	 2.666667e+00	 7.111111e+00	 9.973092e+00
0	 2.666667e+00	 7.185185e+00	 9.973574e+00
0	 2.666667e+00	 7.259259e+00	 9.974127e+00
0	 2.666667e+00	 7.333333e+00	 9.974755e+00
0	 2.666667e+00	 7.407407e+00	 9.975464e+00
0	 2.740741e+00	 7.037037e+00	 9.980141e+00
0	 2.740741e+00	 7.111111e+00	 9.980212e+00
0	 2.740741e+00	 7.185185e+00	 9.980357e+00
0	 2.740741e+00	 7.259259e+00	 9.980581e+00
0	 2.740741e+00	 7.333333e+00	 9.980890e+00
0	 2.740741e+00	 7.407407e+00	 9.981289e+00
0	 2.814815e+00	 7.037037e+00	 9.987461e+00
0	 2.814815e+00	 7.111111e+00	 9.987196e+00
0	 2.814815e+00	 7.185185e+00	 9.987013e+00
0	 2.814815e+00	 7.259259e+00	 9.986918e+00
0	 2.814815e+00	 7.333333e+00	 9.986916e+00
0	 2.814815e+00	 7.407407e+00	 9.987013e+00
0	 2.888889e+00	 7.037037e+00	 9.994613e+00
0	 2.888889e+00	 7.111111e+00	 9.994022e+00
0	 2.888889e+00	 7.185185e+00	 9.993522e+00
0	 2.888889e+00	 7.259259e+00	 9.993118e+00
0	 2.888889e+00	 7.333333e+00	 9.992815e+00
0	 2.888889e+00	 7.407407e+00	 9.992619e+00
0	 2.962963e+00	 7.037037e+00	 1.000158e+01
0	 2.962963e+00	 7.111111e+00	 1.000067e+01
0	 2.962963e+00	 7.185185e+00	 9.999867e+00
0	 2.962963e+00	 7.259259e+00	 9.999165e+00
0	 2.962963e+00	 7.333333e+00	 9.998571e+00
0	 2.962963e+00	 7.407407e+00	 9.998090e+00
0	 2.592593e+00	 7.407407e+00	 9.969555e+00
0	 2.592593e+00	 7.481481e+00	 9.970630e+00
0	 2.592593e+00	 7.555556e+00	 9.971728e+00
0	 2.592593e+00	 7.629630e+00	 9.972855e+00
0	 2.592593e+00	 7.703704e+00	 9.974014e+00
0	 2.592593e+00	 7.777778e+00	 9.975212e+00
0	 2.666667e+00	 7.407407e+00	 9.975464e+00
0	 2.666667e+00	 7.481481e+00	 9.976231e+00
0	 2.666667e+00	 7.555556e+00	 9.977029e+00
0	 2.666667e+00	 7.629630e+00	 9.977865e+00
0	 2.666667e+00	 7.703704e+00	 9.978741e+00
0	 2.666667e+00	 7.777778e+00	 9.979664e+00
0	 2.740741e+00	 7.407407e+00	 9.981289e+00
0	 2.740741e+00	 7.481481e+00	 9.981754e+00
0	 2.740741e+00	 7.555556e+00	 9.982259e+00
0	 2.740741e+00	 7.629630e+00	 9.982809e+00
0	 2.740741e+00	 7.703704e+00	 9.983408e+00
0	 2.740741e+00	 7.777778e+00	 9.984061e+00
0	 2.814815e+00	 7.407407e+00	 9.987013e+00
0	 2.814815e+00	 7.481481e+00	 9.987184e+00
0	 2.814815e+00	 7.555556e+00	 9.987403e+00
0	 2.814815e+00	 7.629630e+00	 9.987673e+00
0	 2.814815e+00	 7.703704e+00	 9.988001e+00
0	 2.814815e+00	 7.777778e+00	 9.988389e+00
0	 2.888889e+00	 7.407407e+00	 9.992619e+00
0	 2.888889e+00	 7.481481e+00	 9.992503e+00
0	 2.888889e+00	 7.555556e+00	 9.992443e+00
0	 2.888889e+00	 7.629630e+00	 9.992442e+00
0	 2.888889e+00	 7.703704e+00	 9.992505e+00
0	 2.888889e+00	 7.777778e+00	 9.992635e+00
0	 2.962963e+00	 7.407407e+00	 9.998090e+00
0	 2.962963e+00	 7.481481e+00	 9.997697e+00
0	 2.962963e+00	 7.555556e+00	 9.997366e+00
0	 2.962963e+00	 7.629630e+00	 9.997100e+00
0	 2.962963e+00	 7.703704e+00	 9.996905e+00
0	 2.962963e+00	 7.777778e+00	 9.996785e+00
0	 2.592593e+00	 7.777778e+00	 9.975212e+00
0	 2.592593e+00	 7.851852e+00	 9.976426e+00
0	 2.592593e+00	 7.925926e+00	 9.977638e+00
0	 2.592593e+00	 8.000000e+00	 9.978850e+00
0	 2.592593e+00	 8.074074e+00	 9.980067e+00
0	 2.592593e+00	 8.148148e+00	 9.981294e+00
0	 2.666667e+00	 7.777778e+00	 9.979664e+00
0	 2.666667e+00	 7.851852e+00	 9.980612e+00
0	 2.666667e+00	 7.925926e+00	 9.981565e+00
0	 2.666667e+00	 8.000000e+00	 9.982526e+00
0	 2.666667e+00	 8.074074e+00	 9.983501e+00
0	 2.666667e+00	 8.148148e+00	 9.984492e+00
0	 2.740741e+00	 7.777778e+00	 9.984061e+00
0	 2.740741e+00	 7.851852e+00	 9.984747e+00
0	 2.740741e+00	 7.925926e+00	 9.985445e+00
0	 2.740741e+00	 8.000000e+00	 9.986160e+00
0	 2.740741e+00	 8.074074e+00	 9.986896e+00
0	 2.740741e+00	 8.148148e+00	 9.987655e+00
0	 2.814815e+00	 7.777778e+00	 9.988389e+00
0	 2.814815e+00	 7.851852e+00	 9.988818e+00
0	 2.814815e+00	 7.925926e+00	 9.989268e+00
0	 2.814815e+00	 8.000000e+00	 9.989741e+00
0	 2.814815e+00	 8.074074e+00	 9.990241e+00
0	 2.814815e+00	 8.148148e+00	 9.990773e+00
0	 2.888889e+00	 7.777778e+00	 9.992635e+00
0	 2.888889e+00	 7.851852e+00	 9.992813e+00
0	 2.888889e+00	 7.925926e+00	 9.993019e+00
0	 2.888889e+00	 8.000000e+00	 9.993255e+00
0	 2.888889e+00	 8.074074e+00	 9.993526e+00
0	 2.888889e+00	 8.148148e+00	 9.993835e+00
0	 2.962963e+00	 7.777778e+00	 9.996785e+00
0	 2.962963e+00	 7.851852e+00	 9.996718e+00
0	 2.962963e+00	 7.925926e+00	 9.996686e+00
0	 2.962963e+00	 8.000000e+00	 9.996692e+00
0	 2.962963e+00	 8.074074e+00	 9.996739e+00
0	 2.962963e+00	 8.148148e+00	 9.996831e+00
0	 2.592593e+00	 8.148148e+00	 9.981294e+00
0	 2.592593e+00	 8.222222e+00	 9.982513e+00
0	 2.592593e+00	 8.296296e+00	 9.983708e+00
0	 2.592593e+00	 8.370370e+00	 9.984883e+00
0	 2.592593e+00	 8.444444e+00	 9.986040e+00
0	 2.592593e+00	 8.518519e+00	 9.987185e+00
0	 2.666667e+00	 8.148148e+00	 9.984492e+00
0	 2.666667e+00	 8.222222e+00	 9.985484e+00
0	 2.666667e+00	 8.296296e+00	 9.986459e+00
0	 2.666667e+00	 8.370370e+00	 9.987421e+00
0	 2.666667e+00	 8.444444e+00	 9.988374e+00
0	 2.666667e+00	 8.518519e+00	 9.989321e+00
0	 2.740741e+00	 8.148148e+00	 9.987655e+00
0	 2.740741e+00	 8.222222e+00	 9.988423e+00
0	 2.740741e+00	 8.296296e+00	 9.989182e+00
0	 2.740741e+00	 8.370370e+00	 9.989935e+00
0	 2.740741e+00	 8.444444e+00	 9.990686e+00
0	 2.740741e+00	 8.518519e+00	 9.991438e+00
0	 2.814815e+00	 8.148148e+00	 9.990773e+00
0	 2.814815e+00	 8.222222e+00	 9.991321e+00
0	 2.814815e+00	 8.296296e+00	 9.991867e+00
0	 2.814815e+00	 8.370370e+00	 9.992414e+00
0	 2.814815e+00	 8.444444e+00	 9.992967e+00
0	 2.814815e+00	 8.518519e+00	 9.993527e+00
0	 2.888889e+00	 8.148148e+00	 9.993835e+00
0	 2.888889e+00	 8.222222e+00	 9.994167e+00
0	 2.888889e+00	 8.296296e+00	 9.994504e+00
0	 2.888889e+00	 8.370370e+00	 9.994850e+00
0	 2.888889e+00	 8.444444e+00	 9.995207e+00
0	 2.888889e+00	 8.518519e+00	 9.995579e+00
0	 2.962963e+00	 8.148148e+00	 9.996831e+00
0	 2.962963e+00	 8.222222e+00	 9.996951e+00
0	 2.962963e+00	 8.296296e+00	 9.997084e+00
0	 2.962963e+00	 8.370370e+00	 9.997233e+00
0	 2.962963e+00	 8.444444e+00	 9.997399e+00
0	 2.962963e+00	 8.518519e+00	 9.997586e+00
0	 2.592593e+00	 8.518519e+00	 9.987185e+00
0	 2.592593e+00	 8.592593e+00	 9.988302e+00
0	 2.592593e+00	 8.666667e+00	 9.989377e+00
0	 2.592593e+00	 8.740741e+00	 9.990413e+00
0	 2.592593e+00	 8.814815e+00	 9.991413e+00
0	 2.592593e+00	 8.888889e+00	 9.992381e+00
0	 2.666667e+00	 8.518519e+00	 9.989321e+00
0	 2.666667e+00	 8.592593e+00	 9.990248e+00
0	 2.666667e+00	 8.666667e+00	 9.991141e+00
0	 2.666667e+00	 8.740741e+00	 9.992003e+00
0	 2.666667e+00	 8.814815e+00	 9.992837e+00
0	 2.666667e+00	 8.888889e+00	 9.993646e+00
0	 2.740741e+00	 8.518519e+00	 9.991438e+00
0	 2.740741e+00	 8.592593e+00	 9.992178e+00
0	 2.740741e+00	 8.666667e+00	 9.992891e+00
0	 2.740741e+00	 8.740741e+00	 9.993582e+00
0	 2.740741e+00	 8.814815e+00	 9.994251e+00
0	 2.740741e+00	 8.888889e+00	 9.994903e+00
0	 2.814815e+00	 8.518519e+00	 9.993527e+00
0	 2.814815e+00	 8.592593e+00	 9.994082e+00
0	 2.814815e+00	 8.666667e+00	 9.994619e+00
0	 2.814815e+00	 8.740741e+00	 9.995140e+00
0	 2.814815e+00	 8.814815e+00	 9.995648e+00
0	 2.814815e+00	 8.888889e+00	 9.996145e+00
0	 2.888889e+00	 8.518519e+00	 9.995579e+00
0	 2.888889e+00	 8.592593e+00	 9.995953e+00
0	 2.888889e+00	 8.666667e+00	 9.996316e+00
0	 2.888889e+00	 8.740741e+00	 9.996671e+00
0	 2.888889e+00	 8.814815e+00	 9.997020e+00
0	 2.888889e+00	 8.888889e+00	 9.997364e+00
0	 2.962963e+00	 8.518519e+00	 9.997586e+00
0	 2.962963e+00	 8.592593e+00	 9.997782e+00
0	 2.962963e+00	 8.666667e+00	 9.997975e+00
0	 2.962963e+00	 8.740741e+00	 9.998167e+00
0	 2.962963e+00	 8.814815e+00	 9.998360e+00
0	 2.962963e+00	 8.888889e+00	 9.998555e+00
0	 2.592593e+00	 8.888889e+00	 9.992381e+00
0	 2.592593e+00	 8.962963e+00	 9.993305e+00
0	 2.592593e+00	 9.037037e+00	 9.994173e+00
0	 2.592593e+00	 9.111111e+00	 9.994986e+00
0	 2.592593e+00	 9.185185e+00	 9.995749e+00
0	 2.592593e+00	 9.259259e+00	 9.996464e+00
0	 2.666667e+00	 8.888889e+00	 9.993646e+00
0	 2.666667e+00	 8.962963e+00	 9.994419e+00
0	 2.666667e+00	 9.037037e+00	 9.995145e+00
0	 2.666667e+00	 9.111111e+00	 9.995825e+00
0	 2.666667e+00	 9.185185e+00	 9.996462e+00
0	 2.666667e+00	 9.259259e+00	 9.997059e+00
0	 2.740741e+00	 8.888889e+00	 9.994903e+00
0	 2.740741e+00	 8.962963e+00	 9.995527e+00
0	 2.740741e+00	 9.037037e+00	 9.996112e+00
0	 2.740741e+00	 9.111111e+00	 9.996661e+00
0	 2.740741e+00	 9.185185e+00	 9.997174e+00
0	 2.740741e+00	 9.259259e+00	 9.997655e+00
0	 2.814815e+00	 8.888889e+00	 9.996145e+00
0	 2.814815e+00	 8.962963e+00	 9.996622e+00
0	 2.814815e+00	 9.037037e+00	 9.997068e+00
0	 2.814815e+00	 9.111111e+00	 9.997487e+00
0	 2.814815e+00	 9.185185e+00	 9.997879e+00
0	 2.814815e+00	 9.259259e+00	 9.998245e+00
0	 2.888889e+00	 8.888889e+00	 9.997364e+00
0	 2.888889e+00	 8.962963e+00	 9.997696e+00
0	 2.888889e+00	 9.037037e+00	 9.998007e+00
0	 2.888889e+00	 9.111111e+00	 9.998298e+00
0	 2.888889e+00	 9.185185e+00	 9.998569e+00
0	 2.888889e+00	 9.259259e+00	 9.998823e+00
0	 2.962963e+00	 8.888889e+00	 9.998555e+00
0	 2.962963e+00	 8.962963e+00	 9.998745e+00
0	 2.962963e+00	 9.037037e+00	 9.998922e+00
0	 2.962963e+00	 9.111111e+00	 9.999087e+00
0	 2.962963e+00	 9.185185e+00	 9.999241e+00
0	 2.962963e+00	 9.259259e+00	 9.999384e+00
0	 2.592593e+00	 9.259259e+00	 9.996464e+00
0	 2.592593e+00	 9.333333e+00	 9.997120e+00
0	 2.592593e+00	 9.407407e+00	 9.997709e+00
0	 2.592593e+00	 9.481481e+00	 9.998231e+00
0	 2.592593e+00	 9.555556e+00	 9.998690e+00
0	 2.592593e+00	 9.629630e+00	 9.999087e+00
0	 2.666667e+00	 9.259259e+00	 9.997059e+00
0	 2.666667e+00	 9.333333e+00	 9.997607e+00
0	 2.666667e+00	 9.407407e+00	 9.998098e+00
0	 2.666667e+00	 9.481481e+00	 9.998533e+00
0	 2.666667e+00	 9.555556e+00	 9.998914e+00
0	 2.666667e+00	 9.629630e+00	 9.999242e+00
0	 2.740741e+00	 9.259259e+00	 9.997655e+00
0	 2.740741e+00	 9.333333e+00	 9.998096e+00
0	 2.740741e+00	 9.407407e+00	 9.998491e+00
0	 2.740741e+00	 9.481481e+00	 9.998840e+00
0	 2.740741e+00	 9.555556e+00	 9.999144e+00
0	 2.740741e+00	 9.629630e+00	 9.999404e+00
0	 2.814815e+00	 9.259259e+00	 9.998245e+00
0	 2.814815e+00	 9.333333e+00	 9.998581e+00
0	 2.814815e+00	 9.407407e+00	 9.998881e+00
0	 2.814815e+00	 9.481481e+00	 9.999145e+00
0	 2.814815e+00	 9.555556e+00	 9.999373e+00
0	 2.814815e+00	 9.629630e+00	 9.999567e+00
0	 2.888889e+00	 9.259259e+00	 9.998823e+00
0	 2.888889e+00	 9.333333e+00	 9.999056e+00
0	 2.888889e+00	 9.407407e+00	 9.999262e+00
0	 2.888889e+00	 9.481481e+00	 9.999442e+00
0	 2.888889e+00	 9.555556e+00	 9.999597e+00
0	 2.888889e+00	 9.629630e+00	 9.999725e+00
0	 2.962963e+00	 9.259259e+00	 9.999384e+00
0	 2.962963e+00	 9.333333e+00	 9.999514e+00
0	 2.962963e+00	 9.407407e+00	 9.999629e+00
0	 2.962963e+00	 9.481481e+00	 9.999727e+00
0	 2.962963e+00	 9.555556e+00	 9.999808e+00
0	 2.962963e+00	 9.629630e+00	 9.999871e+00
0	 2.592593e+00	 9.629630e+00	 9.999087e+00
0	 2.592593e+00	 9.703704e+00	 9.999416e+00
0	 2.592593e+00	 9.777778e+00	 9.999671e+00
0	 2.592593e+00	 9.851852e+00	 9.999853e+00
0	 2.592593e+00	 9.925926e+00	 9.999962e+00
0	 2.592593e+00	 1.000000e+01	 1.000000e+01
0	 2.666667e+00	 9.629630e+00	 9.999242e+00
0	 2.666667e+00	 9.703704e+00	 9.999514e+00
0	 2.666667e+00	 9.777778e+00	 9.999724e+00
0	 2.666667e+00	 9.851852e+00	 9.999873e+00
0	 2.666667e+00	 9.925926e+00	 9.999963e+00
0	 2.666667e+00	 1.000000e+01	 9.999992e+00
0	 2.740741e+00	 9.629630e+00	 9.999404e+00
0	 2.740741e+00	 9.703704e+00	 9.999619e+00
0	 2.740741e+00	 9.777778e+00	 9.999786e+00
0	 2.740741e+00	 9.851852e+00	 9.999904e+00
0	 2.740741e+00	 9.925926e+00	 9.999973e+00
0	 2.740741e+00	 1.000000e+01	 9.999994e+00
0	 2.814815e+00	 9.629630e+00	 9.999567e+00
0	 2.814815e+00	 9.703704e+00	 9.999726e+00
0	 2.814815e+00	 9.777778e+00	 9.999850e+00
0	 2.814815e+00	 9.851852e+00	 9.999937e+00
0	 2.814815e+00	 9.925926e+00	 9.999987e+00
0	 2.814815e+00	 1.000000e+01	 9.999999e+00
0	 2.888889e+00	 9.629630e+00	 9.999725e+00
0	 2.888889e+00	 9.703704e+00	 9.999829e+00
0	 2.888889e+00	 9.777778e+00	 9.999910e+00
0	 2.888889e+00	 9.851852e+00	 9.999968e+00
0	 2.888889e+00	 9.925926e+00	 9.999998e+00
0	 2.888889e+00	 1.000000e+01	 1.000000e+01
0	 2.962963e+00	 9.629630e+00	 9.999871e+00
0	 2.962963e+00	 9.703704e+00	 9.999921e+00
0	 2.962963e+00	 9.777778e+00	 9.999961e+00
0	 2.962963e+00	 9.851852e+00	 9.999987e+00
0	 2.962963e+00	 9.925926e+00	 9.999999e+00
0	 2.962963e+00	 1.000000e+01	 9.999993e+00
0	 2.962963e+00	 0.000000e+00	 1.095068e+01
0	 2.962963e+00	 7.407407e-02	 1.096902e+01
0	 2.962963e+00	 1.481481e-01	 1.098358e+01
0	 2.962963e+00	 2.222222e-01	 1.099732e+01
0	 2.962963e+00	 2.962963e-01	 1.101326e+01
0	 2.962963e+00	 3.703704e-01	 1.103436e+01
0	 3.037037e+00	 0.000000e+00	 1.085883e+01
0	 3.037037e+00	 7.407407e-02	 1.087543e+01
0	 3.037037e+00	 1.481481e-01	 1.089366e+01
0	 3.037037e+00	 2.222222e-01	 1.091442e+01
0	 3.037037e+00	 2.962963e-01	 1.093863e+01
0	 3.037037e+00	 3.703704e-01	 1.096721e+01
0	 3.111111e+00	 0.000000e+00	 1.080573e+01
0	 3.111111e+00	 7.407407e-02	 1.081652e+01
0	 3.111111e+00	 1.481481e-01	 1.083261e+01
0	 3.111111e+00	 2.222222e-01	 1.085350e+01
0	 3.111111e+00	 2.962963e-01	 1.087866e+01
0	 3.111111e+00	 3.703704e-01	 1.090761e+01
0	 3.185185e+00	 0.000000e+00	 1.078018e+01
0	 3.185185e+00	 7.407407e-02	 1.078350e+01
0	 3.185185e+00	 1.481481e-01	 1.079402e+01
0	 3.185185e+00	 2.222222e-01	 1.081046e+01
0	 3.185185e+00	 2.962963e-01	 1.083156e+01
0	 3.185185e+00	 3.703704e-01	 1.085603e+01
0	 3.259259e+00	 0.000000e+00	 1.077099e+01
0	 3.259259e+00	 7.407407e-02	 1.076758e+01
0	 3.259259e+00	 1.481481e-01	 1.077145e+01
0	 3.259259e+00	 2.222222e-01	 1.078122e+01
0	 3.259259e+00	 2.962963e-01	 1.079550e+01
0	 3.259259e+00	 3.703704e-01	 1.081293e+01
0	 3.333333e+00	 0.000000e+00	 1.076696e+01
0	 3.333333e+00	 7.407407e-02	 1.075995e+01
0	 3.333333e+00	 1.481481e-01	 1.075846e+01
0	 3.333333e+00	 2.222222e-01	 1.076166e+01
0	 3.333333e+00	 2.962963e-01	 1.076870e+01
0	 3.333333e+00	 3.703704e-01	 1.077875e+01
0	 2.962963e+00	 3.703704e-01	 1.103436e+01
0	 2.962963e+00	 4.444444e-01	 1.105832e+01
0	 2.962963e+00	 5.185185e-01	 1.108096e+01
0	 2.962963e+00	 5.925926e-01	 1.110249e+01
0	 2.962963e+00	 6.666667e-01	 1.112309e+01
0	 2.962963e+00	 7.407407e-01	 1.114296e+01
0	 3.037037e+00	 3.703704e-01	 1.096721e+01
0	 3.037037e+00	 4.444444e-01	 1.099632e+01
0	 3.037037e+00	 5.185185e-01	 1.102199e+01
0	 3.037037e+00	 5.925926e-01	 1.104486e+01
0	 3.037037e+00	 6.666667e-01	 1.106559e+01
0	 3.037037e+00	 7.407407e-01	 1.108482e+01
0	 3.111111e+00	 3.703704e-01	 1.090761e+01
0	 3.111111e+00	 4.444444e-01	 1.093620e+01
0	 3.111111e+00	 5.185185e-01	 1.096125e+01
0	 3.111111e+00	 5.925926e-01	 1.098370e+01
0	 3.111111e+00	 6.666667e-01	 1.100449e+01
0	 3.111111e+00	 7.407407e-01	 1.102458e+01
0	 3.185185e+00	 3.703704e-01	 1.085603e+01
0	 3.185185e+00	 4.444444e-01	 1.088029e+01
0	 3.185185e+00	 5.185185e-01	 1.090230e+01
0	 3.185185e+00	 5.925926e-01	 1.092310e+01
0	 3.185185e+00	 6.666667e-01	 1.094376e+01
0	 3.185185e+00	 7.407407e-01	 1.096533e+01
0	 3.259259e+00	 3.703704e-01	 1.081293e+01
0	 3.259259e+00	 4.444444e-01	 1.083097e+01
0	 3.259259e+00	 5.185185e-01	 1.084872e+01
0	 3.259259e+00	 5.925926e-01	 1.086717e+01
0	 3.259259e+00	 6.666667e-01	 1.088733e+01
0	 3.259259e+00	 7.407407e-01	 1.091019e+01
0	 3.333333e+00	 3.703704e-01	 1.077875e+01
0	 3.333333e+00	 4.444444e-01	 1.079059e+01
0	 3.333333e+00	 5.185185e-01	 1.080409e+01
0	 3.333333e+00	 5.925926e-01	 1.082003e+01
0	 3.333333e+00	 6.666667e-01	 1.083917e+01
0	 3.333333e+00	 7.407407e-01	 1.086228e+01
0	 2.962963e+00	 7.407407e-01	 1.114296e+01
0	 2.962963e+00	 8.148148e-01	 1.116126e+01
0	 2.962963e+00	 8.888889e-01	 1.117755e+01
0	 2.962963e+00	 9.629630e-01	 1.119260e+01
0	 2.962963e+00	 1.037037e+00	 1.120718e+01
0	 2.962963e+00	 1.111111e+00	 1.122204e+01
0	 3.037037e+00	 7.407407e-01	 1.108482e+01
0	 3.037037e+00	 8.148148e-01	 1.110258e+01
0	 3.037037e+00	 8.888889e-01	 1.111883e+01
0	 3.037037e+00	 9.629630e-01	 1.113414e+01
0	 3.037037e+00	 1.037037e+00	 1.114909e+01
0	 3.037037e+00	 1.111111e+00	 1.116424e+01
0	 3.111111e+00	 7.407407e-01	 1.102458e+01
0	 3.111111e+00	 8.148148e-01	 1.104373e+01
0	 3.111111e+00	 8.888889e-01	 1.106140e+01
0	 3.111111e+00	 9.629630e-01	 1.107803e+01
0	 3.111111e+00	 1.037037e+00	 1.109408e+01
0	 3.111111e+00	 1.111111e+00	 1.110999e+01
0	 3.185185e+00	 7.407407e-01	 1.096533e+01
0	 3.185185e+00	 8.148148e-01	 1.098672e+01
0	 3.185185e+00	 8.888889e-01	 1.100638e+01
0	 3.185185e+00	 9.629630e-01	 1.102470e+01
0	 3.185185e+00	 1.037037e+00	 1.104206e+01
0	 3.185185e+00	 1.111111e+00	 1.105883e+01
0	 3.259259e+00	 7.407407e-01	 1.091019e+01
0	 3.259259e+00	 8.148148e-01	 1.093358e+01
0	 3.259259e+00	 8.888889e-01	 1.095492e+01
0	 3.259259e+00	 9.629630e-01	 1.097457e+01
0	 3.259259e+00	 1.037037e+00	 1.099292e+01
0	 3.259259e+00	 1.111111e+00	 1.101033e+01
0	 3.333333e+00	 7.407407e-01	 1.086228e+01
0	 3.333333e+00	 8.148148e-01	 1.088635e+01
0	 3.333333e+00	 8.888889e-01	 1.090813e+01
0	 3.333333e+00	 9.629630e-01	 1.092805e+01
0	 3.333333e+00	 1.037037e+00	 1.094654e+01
0	 3.333333e+00	 1.111111e+00	 1.096404e+01
0	 2.962963e+00	 1.111111e+00	 1.122204e+01
0	 2.962963e+00	 1.185185e+00	 1.123516e+01
0	 2.962963e+00	 1.259259e+00	 1.124428e+01
0	 2.962963e+00	 1.333333e+00	 1.124976e+01
0	 2.962963e+00	 1.407407e+00	 1.125201e+01
0	 2.962963e+00	 1.481481e+00	 1.125142e+01
0	 3.037037e+00	 1.111111e+00	 1.116424e+01
0	 3.037037e+00	 1.185185e+00	 1.117777e+01
0	 3.037037e+00	 1.259259e+00	 1.118771e+01
0	 3.037037e+00	 1.333333e+00	 1.119450e+01
0	 3.037037e+00	 1.407407e+00	 1.119858e+01
0	 3.037037e+00	 1.481481e+00	 1.120036e+01
0	 3.111111e+00	 1.111111e+00	 1.110999e+01
0	 3.111111e+00	 1.185185e+00	 1.112415e+01
0	 3.111111e+00	 1.259259e+00	 1.113497e+01
0	 3.111111e+00	 1.333333e+00	 1.114288e+01
0	 3.111111e+00	 1.407407e+00	 1.114832e+01
0	 3.111111e+00	 1.481481e+00	 1.115175e+01
0	 3.185185e+00	 1.111111e+00	 1.105883e+01
0	 3.185185e+00	 1.185185e+00	 1.107369e+01
0	 3.185185e+00	 1.259259e+00	 1.108533e+01
0	 3.185185e+00	 1.333333e+00	 1.109419e+01
0	 3.185185e+00	 1.407407e+00	 1.110069e+01
0	 3.185185e+00	 1.481481e+00	 1.110527e+01
0	 3.259259e+00	 1.111111e+00	 1.101033e+01
0	 3.259259e+00	 1.185185e+00	 1.102574e+01
0	 3.259259e+00	 1.259259e+00	 1.103808e+01
0	 3.259259e+00	 1.333333e+00	 1.104774e+01
0	 3.259259e+00	 1.407407e+00	 1.105510e+01
0	 3.259259e+00	 1.481481e+00	 1.106056e+01
0	 3.333333e+00	 1.111111e+00	 1.096404e+01
0	 3.333333e+00	 1.185185e+00	 1.097968e+01
0	 3.333333e+00	 1.259259e+00	 1.099251e+01
0	 3.333333e+00	 1.333333e+00	 1.100284e+01
0	 3.333333e+00	 1.407407e+00	 1.101100e+01
0	 3.333333e+00	 1.481481e+00	 1.101731e+01
0	 2.962963e+00	 1.481481e+00	 1.125142e+01
0	 2.962963e+00	 1.555556e+00	 1.124772e+01
0	 2.962963e+00	 1.629630e+00	 1.124033e+01
0	 2.962963e+00	 1.703704e+00	 1.122913e+01
0	 2.962963e+00	 1.777778e+00	 1.121397e+01
0	 2.962963e+00	 1.851852e+00	 1.119474e+01
0	 3.037037e+00	 1.481481e+00	 1.120036e+01
0	 3.037037e+00	 1.555556e+00	 1.119925e+01
0	 3.037037e+00	 1.629630e+00	 1.119437e+01
0	 3.037037e+00	 1.703704e+00	 1.118569e+01
0	 3.037037e+00	 1.777778e+00	 1.117321e+01
0	 3.037037e+00	 1.851852e+00	 1.115690e+01
0	 3.111111e+00	 1.481481e+00	 1.115175e+01
0	 3.111111e+00	 1.555556e+00	 1.115247e+01
0	 3.111111e+00	 1.629630e+00	 1.114954e+01
0	 3.111111e+00	 1.703704e+00	 1.114303e+01
0	 3.111111e+00	 1.777778e+00	 1.113300e+01
0	 3.111111e+00	 1.851852e+00	 1.111952e+01
0	 3.185185e+00	 1.481481e+00	 1.110527e+01
0	 3.185185e+00	 1.555556e+00	 1.110729e+01
0	 3.185185e+00	 1.629630e+00	 1.110594e+01
0	 3.185185e+00	 1.703704e+00	 1.110132e+01
0	 3.185185e+00	 1.777778e+00	 1.109356e+01
0	 3.185185e+00	 1.851852e+00	 1.108277e+01
0	 3.259259e+00	 1.481481e+00	 1.106056e+01
0	 3.259259e+00	 1.555556e+00	 1.106363e+01
0	 3.259259e+00	 1.629630e+00	 1.106364e+01
0	 3.259259e+00	 1.703704e+00	 1.106075e+01
0	 3.259259e+00	 1.777778e+00	 1.105509e+01
0	 3.259259e+00	 1.851852e+00	 1.104680e+01
0	 3.333333e+00	 1.481481e+00	 1.101731e+01
0	 3.333333e+00	 1.555556e+00	 1.102139e+01
0	 3.333333e+00	 1.629630e+00	 1.102274e+01
0	 3.333333e+00	 1.703704e+00	 1.102150e+01
0	 3.333333e+00	 1.777778e+00	 1.101781e+01
0	 3.333333e+00	 1.851852e+00	 1.101179e+01
0	 2.962963e+00	 1.851852e+00	 1.119474e+01
0	 2.962963e+00	 1.925926e+00	 1.117250e+01
0	 2.962963e+00	 2.000000e+00	 1.114836e+01
0	 2.962963e+00	 2.074074e+00	 1.112226e+01
0	 2.962963e+00	 2.148148e+00	 1.109412e+01
0	 2.962963e+00	 2.222222e+00	 1.106386e+01
0	 3.037037e+00	 1.851852e+00	 1.115690e+01
0	 3.037037e+00	 1.925926e+00	 1.113788e+01
0	 3.037037e+00	 2.000000e+00	 1.111718e+01
0	 3.037037e+00	 2.074074e+00	 1.109466e+01
0	 3.037037e+00	 2.148148e+00	 1.107015e+01
0	 3.037037e+00	 2.222222e+00	 1.104353e+01
0	 3.111111e+00	 1.851852e+00	 1.111952e+01
0	 3.111111e+00	 1.925926e+00	 1.110359e+01
0	 3.111111e+00	 2.000000e+00	 1.108604e+01
0	 3.111111e+00	 2.074074e+00	 1.106667e+01
0	 3.111111e+00	 2.148148e+00	 1.104530e+01
0	 3.111111e+00	 2.222222e+00	 1.102173e+01
0	 3.185185e+00	 1.851852e+00	 1.108277e+01
0	 3.185185e+00	 1.925926e+00	 1.106973e+01
0	 3.185185e+00	 2.000000e+00	 1.105502e+01
0	 3.185185e+00	 2.074074e+00	 1.103842e+01
0	 3.185185e+00	 2.148148e+00	 1.101974e+01
0	 3.185185e+00	 2.222222e+00	 1.099878e+01
0	 3.259259e+00	 1.851852e+00	 1.104680e+01
0	 3.259259e+00	 1.925926e+00	 1.103641e+01
0	 3.259259e+00	 2.000000e+00	 1.102422e+01
0	 3.259259e+00	 2.074074e+00	 1.101004e+01
0	 3.259259e+00	 2.148148e+00	 1.099369e+01
0	 3.259259e+00	 2.222222e+00	 1.097500e+01
0	 3.333333e+00	 1.851852e+00	 1.101179e+01
0	 3.333333e+00	 1.925926e+00	 1.100373e+01
0	 3.333333e+00	 2.000000e+00	 1.099371e+01
0	 3.333333e+00	 2.074074e+00	 1.098163e+01
0	 3.333333e+00	 2.148148e+00	 1.096734e+01
0	 3.333333e+00	 2.222222e+00	 1.095073e+01
0	 2.962963e+00	 2.222222e+00	 1.106386e+01
0	 2.962963e+00	 2.296296e+00	 1.103233e+01
0	 2.962963e+00	 2.370370e+00	 1.100023e+01
0	 2.962963e+00	 2.444444e+00	 1.096727e+01
0	 2.962963e+00	 2.518519e+00	 1.093315e+01
0	 2.962963e+00	 2.592593e+00	 1.089757e+01
0	 3.037037e+00	 2.222222e+00	 1.104353e+01
0	 3.037037e+00	 2.296296e+00	 1.101541e+01
0	 3.037037e+00	 2.370370e+00	 1.098638e+01
0	 3.037037e+00	 2.444444e+00	 1.095624e+01
0	 3.037037e+00	 2.518519e+00	 1.092479e+01
0	 3.037037e+00	 2.592593e+00	 1.089183e+01
0	 3.111111e+00	 2.222222e+00	 1.102173e+01
0	 3.111111e+00	 2.296296e+00	 1.099651e+01
0	 3.111111e+00	 2.370370e+00	 1.097024e+01
0	 3.111111e+00	 2.444444e+00	 1.094276e+01
0	 3.111111e+00	 2.518519e+00	 1.091395e+01
0	 3.111111e+00	 2.592593e+00	 1.088367e+01
0	 3.185185e+00	 2.222222e+00	 1.099878e+01
0	 3.185185e+00	 2.296296e+00	 1.097609e+01
0	 3.185185e+00	 2.370370e+00	 1.095232e+01
0	 3.185185e+00	 2.444444e+00	 1.092737e+01
0	 3.185185e+00	 2.518519e+00	 1.090114e+01
0	 3.185185e+00	 2.592593e+00	 1.087353e+01
0	 3.259259e+00	 2.222222e+00	 1.097500e+01
0	 3.259259e+00	 2.296296e+00	 1.095460e+01
0	 3.259259e+00	 2.370370e+00	 1.093316e+01
0	 3.259259e+00	 2.444444e+00	 1.091061e+01
0	 3.259259e+00	 2.518519e+00	 1.088687e+01
0	 3.259259e+00	 2.592593e+00	 1.086186e+01
0	 3.333333e+00	 2.222222e+00	 1.095073e+01
0	 3.333333e+00	 2.296296e+00	 1.093247e+01
0	 3.333333e+00	 2.370370e+00	 1.091327e+01
0	 3.333333e+00	 2.444444e+00	 1.089303e+01
0	 3.333333e+00	 2.518519e+00	 1.087166e+01
0	 3.333333e+00	 2.592593e+00	 1.084908e+01
0	 2.962963e+00	 2.592593e+00	 1.089757e+01
0	 2.962963e+00	 2.666667e+00	 1.086153e+01
0	 2.962963e+00	 2.740741e+00	 1.082612e+01
0	 2.962963e+00	 2.814815e+00	 1.079122e+01
0	 2.962963e+00	 2.888889e+00	 1.075669e+01
0	 2.962963e+00	 2.962963e+00	 1.072238e+01
0	 3.037037e+00	 2.592593e+00	 1.089183e+01
0	 3.037037e+00	 2.666667e+00	 1.085836e+01
0	 3.037037e+00	 2.740741e+00	 1.082545e+01
0	 3.037037e+00	 2.814815e+00	 1.079291e+01
0	 3.037037e+00	 2.888889e+00	 1.076058e+01
0	 3.037037e+00	 2.962963e+00	 1.072830e+01
0	 3.111111e+00	 2.592593e+00	 1.088367e+01
0	 3.111111e+00	 2.666667e+00	 1.085285e+01
0	 3.111111e+00	 2.740741e+00	 1.082242e+01
0	 3.111111e+00	 2.814815e+00	 1.079217e+01
0	 3.111111e+00	 2.888889e+00	 1.076193e+01
0	 3.111111e+00	 2.962963e+00	 1.073151e+01
0	 3.185185e+00	 2.592593e+00	 1.087353e+01
0	 3.185185e+00	 2.666667e+00	 1.084535e+01
0	 3.185185e+00	 2.740741e+00	 1.081733e+01
0	 3.185185e+00	 2.814815e+00	 1.078927e+01
0	 3.185185e+00	 2.888889e+00	 1.076100e+01
0	 3.185185e+00	 2.962963e+00	 1.073233e+01
0	 3.259259e+00	 2.592593e+00	 1.086186e+01
0	 3.259259e+00	 2.666667e+00	 1.083621e+01
0	 3.259259e+00	 2.740741e+00	 1.081048e+01
0	 3.259259e+00	 2.814815e+00	 1.078450e+01
0	 3.259259e+00	 2.888889e+00	 1.075810e+01
0	 3.259259e+00	 2.962963e+00	 1.073109e+01
0	 3.333333e+00	 2.592593e+00	 1.084908e+01
0	 3.333333e+00	 2.666667e+00	 1.082577e+01
0	 3.333333e+00	 2.740741e+00	 1.080217e+01
0	 3.333333e+00	 2.814815e+00	 1.077812e+01
0	 3.333333e+00	 2.888889e+00	 1.075349e+01
0	 3.333333e+00	 2.962963e+00	 1.072812e+01
0	 2.962963e+00	 2.962963e+00	 1.072238e+01
0	 2.962963e+00	 3.037037e+00	 1.068862e+01
0	 2.962963e+00	 3.111111e+00	 1.065575e+01
0	 2.962963e+00	 3.185185e+00	 1.062363e+01
0	 2.962963e+00	 3.259259e+00	 1.059213e+01
0	 2.962963e+00	 3.333333e+00	 1.056111e+01
0	 3.037037e+00	 2.962963e+00	 1.072830e+01
0	 3.037037e+00	 3.037037e+00	 1.069635e+01
0	 3.037037e+00	 3.111111e+00	 1.066507e+01
0	 3.037037e+00	 3.185185e+00	 1.063435e+01
0	 3.037037e+00	 3.259259e+00	 1.060410e+01
0	 3.037037e+00	 3.333333e+00	 1.057419e+01
0	 3.111111e+00	 2.962963e+00	 1.073151e+01
0	 3.111111e+00	 3.037037e+00	 1.070123e+01
0	 3.111111e+00	 3.111111e+00	 1.067149e+01
0	 3.111111e+00	 3.185185e+00	 1.064221e+01
0	 3.111111e+00	 3.259259e+00	 1.061328e+01
0	 3.111111e+00	 3.333333e+00	 1.058463e+01
0	 3.185185e+00	 2.962963e+00	 1.073233e+01
0	 3.185185e+00	 3.037037e+00	 1.070365e+01
0	 3.185185e+00	 3.111111e+00	 1.067542e+01
0	 3.185185e+00	 3.185185e+00	 1.064758e+01
0	 3.185185e+00	 3.259259e+00	 1.062005e+01
0	 3.185185e+00	 3.333333e+00	 1.059274e+01
0	 3.259259e+00	 2.962963e+00	 1.073109e+01
0	 3.259259e+00	 3.037037e+00	 1.070396e+01
0	 3.259259e+00	 3.111111e+00	 1.067725e+01
0	 3.259259e+00	 3.185185e+00	 1.065087e+01
0	 3.259259e+00	 3.259259e+00	 1.062475e+01
0	 3.259259e+00	 3.333333e+00	 1.059881e+01
0	 3.333333e+00	 2.962963e+00	 1.072812e+01
0	 3.333333e+00	 3.037037e+00	 1.070256e+01
0	 3.333333e+00	 3.111111e+00	 1.067736e+01
0	 3.333333e+00	 3.185185e+00	 1.065246e+01
0	 3.333333e+00	 3.259259e+00	 1.062775e+01
0	 3.333333e+00	 3.333333e+00	 1.060316e+01
0	 2.962963e+00	 3.333333e+00	 1.056111e+01
0	 2.962963e+00	 3.407407e+00	 1.053090e+01
0	 2.962963e+00	 3.481481e+00	 1.050189e+01
0	 2.962963e+00	 3.555556e+00	 1.047403e+01
0	 2.962963e+00	 3.629630e+00	 1.044727e+01
0	 2.962963e+00	 3.703704e+00	 1.042155e+01
0	 3.037037e+00	 3.333333e+00	 1.057419e+01
0	 3.037037e+00	 3.407407e+00	 1.054501e+01
0	 3.037037e+00	 3.481481e+00	 1.051695e+01
0	 3.037037e+00	 3.555556e+00	 1.048993e+01
0	 3.037037e+00	 3.629630e+00	 1.046390e+01
0	 3.037037e+00	 3.703704e+00	 1.043878e+01
0	 3.111111e+00	 3.333333e+00	 1.058463e+01
0	 3.111111e+00	 3.407407e+00	 1.055661e+01
0	 3.111111e+00	 3.481481e+00	 1.052959e+01
0	 3.111111e+00	 3.555556e+00	 1.050349e+01
0	 3.111111e+00	 3.629630e+00	 1.047823e+01
0	 3.111111e+00	 3.703704e+00	 1.045372e+01
0	 3.185185e+00	 3.333333e+00	 1.059274e+01
0	 3.185185e+00	 3.407407e+00	 1.056597e+01
0	 3.185185e+00	 3.481481e+00	 1.054005e+01
0	 3.185185e+00	 3.555556e+00	 1.051490e+01
0	 3.185185e+00	 3.629630e+00	 1.049043e+01
0	 3.185185e+00	 3.703704e+00	 1.046656e+01
0	 3.259259e+00	 3.333333e+00	 1.059881e+01
0	 3.259259e+00	 3.407407e+00	 1.057331e+01
0	 3.259259e+00	 3.481481e+00	 1.054851e+01
0	 3.259259e+00	 3.555556e+00	 1.052433e+01
0	 3.259259e+00	 3.629630e+00	 1.050067e+01
0	 3.259259e+00	 3.703704e+00	 1.047747e+01
0	 3.333333e+00	 3.333333e+00	 1.060316e+01
0	 3.333333e+00	 3.407407e+00	 1.057890e+01
0	 3.333333e+00	 3.481481e+00	 1.055519e+01
0	 3.333333e+00	 3.555556e+00	 1.053196e+01
0	 3.333333e+00	 3.629630e+00	 1.050914e+01
0	 3.333333e+00	 3.703704e+00	 1.048665e+01
0	 2.962963e+00	 3.703704e+00	 1.042155e+01
0	 2.962963e+00	 3.777778e+00	 1.039687e+01
0	 2.962963e+00	 3.851852e+00	 1.037321e+01
0	 2.962963e+00	 3.925926e+00	 1.035054e+01
0	 2.962963e+00	 4.000000e+00	 1.032884e+01
0	 2.962963e+00	 4.074074e+00	 1.030806e+01
0	 3.037037e+00	 3.703704e+00	 1.043878e+01
0	 3.037037e+00	 3.777778e+00	 1.041456e+01
0	 3.037037e+00	 3.851852e+00	 1.039127e+01
0	 3.037037e+00	 3.925926e+00	 1.036889e+01
0	 3.037037e+00	 4.000000e+00	 1.034738e+01
0	 3.037037e+00	 4.074074e+00	 1.032671e+01
0	 3.111111e+00	 3.703704e+00	 1.045372e+01
0	 3.111111e+00	 3.777778e+00	 1.043000e+01
0	 3.111111e+00	 3.851852e+00	 1.040714e+01
0	 3.111111e+00	 3.925926e+00	 1.038511e+01
0	 3.111111e+00	 4.000000e+00	 1.036390e+01
0	 3.111111e+00	 4.074074e+00	 1.034347e+01
0	 3.185185e+00	 3.703704e+00	 1.046656e+01
0	 3.185185e+00	 3.777778e+00	 1.044337e+01
0	 3.185185e+00	 3.851852e+00	 1.042099e+01
0	 3.185185e+00	 3.925926e+00	 1.039939e+01
0	 3.185185e+00	 4.000000e+00	 1.037856e+01
0	 3.185185e+00	 4.074074e+00	 1.035846e+01
0	 3.259259e+00	 3.703704e+00	 1.047747e+01
0	 3.259259e+00	 3.777778e+00	 1.045486e+01
0	 3.259259e+00	 3.851852e+00	 1.043302e+01
0	 3.259259e+00	 3.925926e+00	 1.041192e+01
0	 3.259259e+00	 4.000000e+00	 1.039153e+01
0	 3.259259e+00	 4.074074e+00	 1.037183e+01
0	 3.333333e+00	 3.703704e+00	 1.048665e+01
0	 3.333333e+00	 3.777778e+00	 1.046467e+01
0	 3.333333e+00	 3.851852e+00	 1.044343e+01
0	 3.333333e+00	 3.925926e+00	 1.042288e+01
0	 3.333333e+00	 4.000000e+00	 1.040298e+01
0	 3.333333e+00	 4.074074e+00	 1.038372e+01
0	 2.962963e+00	 4.074074e+00	 1.030806e+01
0	 2.962963e+00	 4.148148e+00	 1.028821e+01
0	 2.962963e+00	 4.222222e+00	 1.026933e+01
0	 2.962963e+00	 4.296296e+00	 1.025141e+01
0	 2.962963e+00	 4.370370e+00	 1.023446e+01
0	 2.962963e+00	 4.444444e+00	 1.021846e+01
0	 3.037037e+00	 4.074074e+00	 1.032671e+01
0	 3.037037e+00	 4.148148e+00	 1.030694e+01
0	 3.037037e+00	 4.222222e+00	 1.028810e+01
0	 3.037037e+00	 4.296296e+00	 1.027018e+01
0	 3.037037e+00	 4.370370e+00	 1.025317e+01
0	 3.037037e+00	 4.444444e+00	 1.023705e+01
0	 3.111111e+00	 4.074074e+00	 1.034347e+01
0	 3.111111e+00	 4.148148e+00	 1.032388e+01
0	 3.111111e+00	 4.222222e+00	 1.030517e+01
0	 3.111111e+00	 4.296296e+00	 1.028733e+01
0	 3.111111e+00	 4.370370e+00	 1.027033e+01
0	 3.111111e+00	 4.444444e+00	 1.025415e+01
0	 3.185185e+00	 4.074074e+00	 1.035846e+01
0	 3.185185e+00	 4.148148e+00	 1.033915e+01
0	 3.185185e+00	 4.222222e+00	 1.032065e+01
0	 3.185185e+00	 4.296296e+00	 1.030294e+01
0	 3.185185e+00	 4.370370e+00	 1.028601e+01
0	 3.185185e+00	 4.444444e+00	 1.026982e+01
0	 3.259259e+00	 4.074074e+00	 1.037183e+01
0	 3.259259e+00	 4.148148e+00	 1.035285e+01
0	 3.259259e+00	 4.222222e+00	 1.033461e+01
0	 3.259259e+00	 4.296296e+00	 1.031710e+01
0	 3.259259e+00	 4.370370e+00	 1.030027e+01
0	 3.259259e+00	 4.444444e+00	 1.028412e+01
0	 3.333333e+00	 4.074074e+00	 1.038372e+01
0	 3.333333e+00	 4.148148e+00	 1.036510e+01
0	 3.333333e+00	 4.222222e+00	 1.034715e+01
0	 3.333333e+00	 4.296296e+00	 1.032985e+01
0	 3.333333e+00	 4.370370e+00	 1.031319e+01
0	 3.333333e+00	 4.444444e+00	 1.029712e+01
0	 2.962963e+00	 4.444444e+00	 1.021846e+01
0	 2.962963e+00	 4.518519e+00	 1.020332e+01
0	 2.962963e+00	 4.592593e+00	 1.018893e+01
0	 2.962963e+00	 4.666667e+00	 1.017530e+01
0	 2.962963e+00	 4.740741e+00	 1.016242e+01
0	 2.962963e+00	 4.814815e+00	 1.015030e+01
0	 3.037037e+00	 4.444444e+00	 1.023705e+01
0	 3.037037e+00	 4.518519e+00	 1.022174e+01
0	 3.037037e+00	 4.592593e+00	 1.020715e+01
0	 3.037037e+00	 4.666667e+00	 1.019329e+01
0	 3.037037e+00	 4.740741e+00	 1.018015e+01
0	 3.037037e+00	 4.814815e+00	 1.016773e+01
0	 3.111111e+00	 4.444444e+00	 1.025415e+01
0	 3.111111e+00	 4.518519e+00	 1.023872e+01
0	 3.111111e+00	 4.592593e+00	 1.022399e+01
0	 3.111111e+00	 4.666667e+00	 1.020996e+01
0	 3.111111e+00	 4.740741e+00	 1.019663e+01
0	 3.111111e+00	 4.814815e+00	 1.018400e+01
0	 3.185185e+00	 4.444444e+00	 1.026982e+01
0	 3.185185e+00	 4.518519e+00	 1.025433e+01
0	 3.185185e+00	 4.592593e+00	 1.023952e+01
0	 3.185185e+00	 4.666667e+00	 1.022538e+01
0	 3.185185e+00	 4.740741e+00	 1.021193e+01
0	 3.185185e+00	 4.814815e+00	 1.019915e+01
0	 3.259259e+00	 4.444444e+00	 1.028412e+01
0	 3.259259e+00	 4.518519e+00	 1.026862e+01
0	 3.259259e+00	 4.592593e+00	 1.025379e+01
0	 3.259259e+00	 4.666667e+00	 1.023961e+01
0	 3.259259e+00	 4.740741e+00	 1.022609e+01
0	 3.259259e+00	 4.814815e+00	 1.021322e+01
0	 3.333333e+00	 4.444444e+00	 1.029712e+01
0	 3.333333e+00	 4.518519e+00	 1.028168e+01
0	 3.333333e+00	 4.592593e+00	 1.026688e+01
0	 3.333333e+00	 4.666667e+00	 1.025271e+01
0	 3.333333e+00	 4.740741e+00	 1.023917e+01
0	 3.333333e+00	 4.814815e+00	 1.022625e+01
0	 2.962963e+00	 4.814815e+00	 1.015030e+01
0	 2.962963e+00	 4.888889e+00	 1.013887e+01
0	 2.962963e+00	 4.962963e+00	 1.012806e+01
0	 2.962963e+00	 5.037037e+00	 1.011790e+01
0	 2.962963e+00	 5.111111e+00	 1.010838e+01
0	 2.962963e+00	 5.185185e+00	 1.009952e+01
0	 3.037037e+00	 4.814815e+00	 1.016773e+01
0	 3.037037e+00	 4.888889e+00	 1.015599e+01
0	 3.037037e+00	 4.962963e+00	 1.014488e+01
0	 3.037037e+00	 5.037037e+00	 1.013439e+01
0	 3.037037e+00	 5.111111e+00	 1.012454e+01
0	 3.037037e+00	 5.185185e+00	 1.011532e+01
0	 3.111111e+00	 4.814815e+00	 1.018400e+01
0	 3.111111e+00	 4.888889e+00	 1.017203e+01
0	 3.111111e+00	 4.962963e+00	 1.016067e+01
0	 3.111111e+00	 5.037037e+00	 1.014992e+01
0	 3.111111e+00	 5.111111e+00	 1.013978e+01
0	 3.111111e+00	 5.185185e+00	 1.013025e+01
0	 3.185185e+00	 4.814815e+00	 1.019915e+01
0	 3.185185e+00	 4.888889e+00	 1.018701e+01
0	 3.185185e+00	 4.962963e+00	 1.017546e+01
0	 3.185185e+00	 5.037037e+00	 1.016449e+01
0	 3.185185e+00	 5.111111e+00	 1.015411e+01
0	 3.185185e+00	 5.185185e+00	 1.014431e+01
0	 3.259259e+00	 4.814815e+00	 1.021322e+01
0	 3.259259e+00	 4.888889e+00	 1.020096e+01
0	 3.259259e+00	 4.962963e+00	 1.018926e+01
0	 3.259259e+00	 5.037037e+00	 1.017812e+01
0	 3.259259e+00	 5.111111e+00	 1.016754e+01
0	 3.259259e+00	 5.185185e+00	 1.015750e+01
0	 3.333333e+00	 4.814815e+00	 1.022625e+01
0	 3.333333e+00	 4.888889e+00	 1.021391e+01
0	 3.333333e+00	 4.962963e+00	 1.020210e+01
0	 3.333333e+00	 5.037037e+00	 1.019082e+01
0	 3.333333e+00	 5.111111e+00	 1.018008e+01
0	 3.333333e+00	 5.185185e+00	 1.016986e+01
0	 2.962963e+00	 5.185185e+00	 1.009952e+01
0	 2.962963e+00	 5.259259e+00	 1.009122e+01
0	 2.962963e+00	 5.333333e+00	 1.008340e+01
0	 2.962963e+00	 5.407407e+00	 1.007605e+01
0	 2.962963e+00	 5.481481e+00	 1.006920e+01
0	 2.962963e+00	 5.555556e+00	 1.006284e+01
0	 3.037037e+00	 5.185185e+00	 1.011532e+01
0	 3.037037e+00	 5.259259e+00	 1.010666e+01
0	 3.037037e+00	 5.333333e+00	 1.009846e+01
0	 3.037037e+00	 5.407407e+00	 1.009073e+01
0	 3.037037e+00	 5.481481e+00	 1.008349e+01
0	 3.037037e+00	 5.555556e+00	 1.007674e+01
0	 3.111111e+00	 5.185185e+00	 1.013025e+01
0	 3.111111e+00	 5.259259e+00	 1.012125e+01
0	 3.111111e+00	 5.333333e+00	 1.011272e+01
0	 3.111111e+00	 5.407407e+00	 1.010466e+01
0	 3.111111e+00	 5.481481e+00	 1.009708e+01
0	 3.111111e+00	 5.555556e+00	 1.008999e+01
0	 3.185185e+00	 5.185185e+00	 1.014431e+01
0	 3.185185e+00	 5.259259e+00	 1.013502e+01
0	 3.185185e+00	 5.333333e+00	 1.012620e+01
0	 3.185185e+00	 5.407407e+00	 1.011784e+01
0	 3.185185e+00	 5.481481e+00	 1.010996e+01
0	 3.185185e+00	 5.555556e+00	 1.010257e+01
0	 3.259259e+00	 5.185185e+00	 1.015750e+01
0	 3.259259e+00	 5.259259e+00	 1.014798e+01
0	 3.259259e+00	 5.333333e+00	 1.013890e+01
0	 3.259259e+00	 5.407407e+00	 1.013029e+01
0	 3.259259e+00	 5.481481e+00	 1.012215e+01
0	 3.259259e+00	 5.555556e+00	 1.011449e+01
0	 3.333333e+00	 5.185185e+00	 1.016986e+01
0	 3.333333e+00	 5.259259e+00	 1.016012e+01
0	 3.333333e+00	 5.333333e+00	 1.015084e+01
0	 3.333333e+00	 5.407407e+00	 1.014202e+01
0	 3.333333e+00	 5.481481e+00	 1.013365e+01
0	 3.333333e+00	 5.555556e+00	 1.012575e+01
0	 2.962963e+00	 5.555556e+00	 1.006284e+01
0	 2.962963e+00	 5.629630e+00	 1.005692e+01
0	 2.962963e+00	 5.703704e+00	 1.005136e+01
0	 2.962963e+00	 5.777778e+00	 1.004619e+01
0	 2.962963e+00	 5.851852e+00	 1.004140e+01
0	 2.962963e+00	 5.925926e+00	 1.003702e+01
0	 3.037037e+00	 5.555556e+00	 1.007674e+01
0	 3.037037e+00	 5.629630e+00	 1.007043e+01
0	 3.037037e+00	 5.703704e+00	 1.006449e+01
0	 3.037037e+00	 5.777778e+00	 1.005894e+01
0	 3.037037e+00	 5.851852e+00	 1.005377e+01
0	 3.037037e+00	 5.925926e+00	 1.004900e+01
0	 3.111111e+00	 5.555556e+00	 1.008999e+01
0	 3.111111e+00	 5.629630e+00	 1.008333e+01
0	 3.111111e+00	 5.703704e+00	 1.007704e+01
0	 3.111111e+00	 5.777778e+00	 1.007114e+01
0	 3.111111e+00	 5.851852e+00	 1.006562e+01
0	 3.111111e+00	 5.925926e+00	 1.006049e+01
0	 3.185185e+00	 5.555556e+00	 1.010257e+01
0	 3.185185e+00	 5.629630e+00	 1.009560e+01
0	 3.185185e+00	 5.703704e+00	 1.008900e+01
0	 3.185185e+00	 5.777778e+00	 1.008278e+01
0	 3.185185e+00	 5.851852e+00	 1.007694e+01
0	 3.185185e+00	 5.925926e+00	 1.007149e+01
0	 3.259259e+00	 5.555556e+00	 1.011449e+01
0	 3.259259e+00	 5.629630e+00	 1.010725e+01
0	 3.259259e+00	 5.703704e+00	 1.010037e+01
0	 3.259259e+00	 5.777778e+00	 1.009386e+01
0	 3.259259e+00	 5.851852e+00	 1.008773e+01
0	 3.259259e+00	 5.925926e+00	 1.008197e+01
0	 3.333333e+00	 5.555556e+00	 1.012575e+01
0	 3.333333e+00	 5.629630e+00	 1.011827e+01
0	 3.333333e+00	 5.703704e+00	 1.011114e+01
0	 3.333333e+00	 5.777778e+00	 1.010437e+01
0	 3.333333e+00	 5.851852e+00	 1.009797e+01
0	 3.333333e+00	 5.925926e+00	 1.009194e+01
0	 2.962963e+00	 5.925926e+00	 1.003702e+01
0	 2.962963e+00	 6.000000e+00	 1.003296e+01
0	 2.962963e+00	 6.074074e+00	 1.002918e+01
0	 2.962963e+00	 6.148148e+00	 1.002568e+01
0	 2.962963e+00	 6.222222e+00	 1.002247e+01
0	 2.962963e+00	 6.296296e+00	 1.001955e+01
0	 3.037037e+00	 5.925926e+00	 1.004900e+01
0	 3.037037e+00	 6.000000e+00	 1.004456e+01
0	 3.037037e+00	 6.074074e+00	 1.004041e+01
0	 3.037037e+00	 6.148148e+00	 1.003653e+01
0	 3.037037e+00	 6.222222e+00	 1.003294e+01
0	 3.037037e+00	 6.296296e+00	 1.002966e+01
0	 3.111111e+00	 5.925926e+00	 1.006049e+01
0	 3.111111e+00	 6.000000e+00	 1.005570e+01
0	 3.111111e+00	 6.074074e+00	 1.005119e+01
0	 3.111111e+00	 6.148148e+00	 1.004697e+01
0	 3.111111e+00	 6.222222e+00	 1.004304e+01
0	 3.111111e+00	 6.296296e+00	 1.003941e+01
0	 3.185185e+00	 5.925926e+00	 1.007149e+01
0	 3.185185e+00	 6.000000e+00	 1.006637e+01
0	 3.185185e+00	 6.074074e+00	 1.006153e+01
0	 3.185185e+00	 6.148148e+00	 1.005698e+01
0	 3.185185e+00	 6.222222e+00	 1.005273e+01
0	 3.185185e+00	 6.296296e+00	 1.004879e+01
0	 3.259259e+00	 5.925926e+00	 1.008197e+01
0	 3.259259e+00	 6.000000e+00	 1.007655e+01
0	 3.259259e+00	 6.074074e+00	 1.007141e+01
0	 3.259259e+00	 6.148148e+00	 1.006657e+01
0	 3.259259e+00	 6.222222e+00	 1.006202e+01
0	 3.259259e+00	 6.296296e+00	 1.005778e+01
0	 3.333333e+00	 5.925926e+00	 1.009194e+01
0	 3.333333e+00	 6.000000e+00	 1.008624e+01
0	 3.333333e+00	 6.074074e+00	 1.008083e+01
0	 3.333333e+00	 6.148148e+00	 1.007571e+01
0	 3.333333e+00	 6.222222e+00	 1.007089e+01
0	 3.333333e+00	 6.296296e+00	 1.006638e+01
0	 2.962963e+00	 6.296296e+00	 1.001955e+01
0	 2.962963e+00	 6.370370e+00	 1.001688e+01
0	 2.962963e+00	 6.444444e+00	 1.001441e+01
0	 2.962963e+00	 6.518519e+00	 1.001215e+01
0	 2.962963e+00	 6.592593e+00	 1.001010e+01
0	 2.962963e+00	 6.666667e+00	 1.000828e+01
0	 3.037037e+00	 6.296296e+00	 1.002966e+01
0	 3.037037e+00	 6.370370e+00	 1.002663e+01
0	 3.037037e+00	 6.444444e+00	 1.002380e+01
0	 3.037037e+00	 6.518519e+00	 1.002119e+01
0	 3.037037e+00	 6.592593e+00	 1.001881e+01
0	 3.037037e+00	 6.666667e+00	 1.001665e+01
0	 3.111111e+00	 6.296296e+00	 1.003941e+01
0	 3.111111e+00	 6.370370e+00	 1.003604e+01
0	 3.111111e+00	 6.444444e+00	 1.003288e+01
0	 3.111111e+00	 6.518519e+00	 1.002995e+01
0	 3.111111e+00	 6.592593e+00	 1.002724e+01
0	 3.111111e+00	 6.666667e+00	 1.002476e+01
0	 3.185185e+00	 6.296296e+00	 1.004879e+01
0	 3.185185e+00	 6.370370e+00	 1.004510e+01
0	 3.185185e+00	 6.444444e+00	 1.004163e+01
0	 3.185185e+00	 6.518519e+00	 1.003839e+01
0	 3.185185e+00	 6.592593e+00	 1.003537e+01
0	 3.185185e+00	 6.666667e+00	 1.003259e+01
0	 3.259259e+00	 6.296296e+00	 1.005778e+01
0	 3.259259e+00	 6.370370e+00	 1.005380e+01
0	 3.259259e+00	 6.444444e+00	 1.005004e+01
0	 3.259259e+00	 6.518519e+00	 1.004651e+01
0	 3.259259e+00	 6.592593e+00	 1.004320e+01
0	 3.259259e+00	 6.666667e+00	 1.004013e+01
0	 3.333333e+00	 6.296296e+00	 1.006638e+01
0	 3.333333e+00	 6.370370e+00	 1.006212e+01
0	 3.333333e+00	 6.444444e+00	 1.005809e+01
0	 3.333333e+00	 6.518519e+00	 1.005428e+01
0	 3.333333e+00	 6.592593e+00	 1.005071e+01
0	 3.333333e+00	 6.666667e+00	 1.004737e+01
0	 2.962963e+00	 6.666667e+00	 1.000828e+01
0	 2.962963e+00	 6.740741e+00	 1.000664e+01
0	 2.962963e+00	 6.814815e+00	 1.000515e+01
0	 2.962963e+00	 6.888889e+00	 1.000380e+01
0	 2.962963e+00	 6.962963e+00	 1.000261e+01
0	 2.962963e+00	 7.037037e+00	 1.000158e+01
0	 3.037037e+00	 6.666667e+00	 1.001665e+01
0	 3.037037e+00	 6.740741e+00	 1.001468e+01
0	 3.037037e+00	 6.814815e+00	 1.001286e+01
0	 3.037037e+00	 6.888889e+00	 1.001120e+01
0	 3.037037e+00	 6.962963e+00	 1.000969e+01
0	 3.037037e+00	 7.037037e+00	 1.000835e+01
0	 3.111111e+00	 6.666667e+00	 1.002476e+01
0	 3.111111e+00	 6.740741e+00	 1.002247e+01
0	 3.111111e+00	 6.814815e+00	 1.002034e+01
0	 3.111111e+00	 6.888889e+00	 1.001837e+01
0	 3.111111e+00	 6.962963e+00	 1.001656e+01
0	 3.111111e+00	 7.037037e+00	 1.001493e+01
0	 3.185185e+00	 6.666667e+00	 1.003259e+01
0	 3.185185e+00	 6.740741e+00	 1.003000e+01
0	 3.185185e+00	 6.814815e+00	 1.002757e+01
0	 3.185185e+00	 6.888889e+00	 1.002531e+01
0	 3.185185e+00	 6.962963e+00	 1.002322e+01
0	 3.185185e+00	 7.037037e+00	 1.002131e+01
0	 3.259259e+00	 6.666667e+00	 1.004013e+01
0	 3.259259e+00	 6.740741e+00	 1.003726e+01
0	 3.259259e+00	 6.814815e+00	 1.003455e+01
0	 3.259259e+00	 6.888889e+00	 1.003201e+01
0	 3.259259e+00	 6.962963e+00	 1.002965e+01
0	 3.259259e+00	 7.037037e+00	 1.002747e+01
0	 3.333333e+00	 6.666667e+00	 1.004737e+01
0	 3.333333e+00	 6.740741e+00	 1.004423e+01
0	 3.333333e+00	 6.814815e+00	 1.004126e+01
0	 3.333333e+00	 6.888889e+00	 1.003846e+01
0	 3.333333e+00	 6.962963e+00	 1.003584e+01
0	 3.333333e+00	 7.037037e+00	 1.003341e+01
0	 2.962963e+00	 7.037037e+00	 1.000158e+01
0	 2.962963e+00	 7.111111e+00	 1.000067e+01
0	 2.962963e+00	 7.185185e+00	 9.999867e+00
0	 2.962963e+00	 7.259259e+00	 9.999165e+00
0	 2.962963e+00	 7.333333e+00	 9.998571e+00
0	 2.962963e+00	 7.407407e+00	 9.998090e+00
0	 3.037037e+00	 7.037037e+00	 1.000835e+01
0	 3.037037e+00	 7.111111e+00	 1.000714e+01
0	 3.037037e+00	 7.185185e+00	 1.000604e+01
0	 3.037037e+00	 7.259259e+00	 1.000506e+01
0	 3.037037e+00	 7.333333e+00	 1.000418e+01
0	 3.037037e+00	 7.407407e+00	 1.000342e+01
0	 3.111111e+00	 7.037037e+00	 1.001493e+01
0	 3.111111e+00	 7.111111e+00	 1.001344e+01
0	 3.111111e+00	 7.185185e+00	 1.001206e+01
0	 3.111111e+00	 7.259259e+00	 1.001079e+01
0	 3.111111e+00	 7.333333e+00	 1.000964e+01
0	 3.111111e+00	 7.407407e+00	 1.000862e+01
0	 3.185185e+00	 7.037037e+00	 1.002131e+01
0	 3.185185e+00	 7.111111e+00	 1.001954e+01
0	 3.185185e+00	 7.185185e+00	 1.001789e+01
0	 3.185185e+00	 7.259259e+00	 1.001636e+01
0	 3.185185e+00	 7.333333e+00	 1.001495e+01
0	 3.185185e+00	 7.407407e+00	 1.001367e+01
0	 3.259259e+00	 7.037037e+00	 1.002747e+01
0	 3.259259e+00	 7.111111e+00	 1.002544e+01
0	 3.259259e+00	 7.185185e+00	 1.002353e+01
0	 3.259259e+00	 7.259259e+00	 1.002175e+01
0	 3.259259e+00	 7.333333e+00	 1.002009e+01
0	 3.259259e+00	 7.407407e+00	 1.001857e+01
0	 3.333333e+00	 7.037037e+00	 1.003341e+01
0	 3.333333e+00	 7.111111e+00	 1.003113e+01
0	 3.333333e+00	 7.185185e+00	 1.002897e+01
0	 3.333333e+00	 7.259259e+00	 1.002694e+01
0	 3.333333e+00	 7.333333e+00	 1.002505e+01
0	 3.333333e+00	 7.407407e+00	 1.002329e+01
0	 2.962963e+00	 7.407407e+00	 9.998090e+00
0	 2.962963e+00	 7.481481e+00	 9.997697e+00
0	 2.962963e+00	 7.555556e+00	 9.997366e+00
0	 2.962963e+00	 7.629630e+00	 9.997100e+00
0	 2.962963e+00	 7.703704e+00	 9.996905e+00
0	 2.962963e+00	 7.777778e+00	 9.996785e+00
0	 3.037037e+00	 7.407407e+00	 1.000342e+01
0	 3.037037e+00	 7.481481e+00	 1.000276e+01
0	 3.037037e+00	 7.555556e+00	 1.000217e+01
0	 3.037037e+00	 7.629630e+00	 1.000165e+01
0	 3.037037e+00	 7.703704e+00	 1.000120e+01
0	 3.037037e+00	 7.777778e+00	 1.000084e+01
0	 3.111111e+00	 7.407407e+00	 1.000862e+01
0	 3.111111e+00	 7.481481e+00	 1.000770e+01
0	 3.111111e+00	 7.555556e+00	 1.000685e+01
0	 3.111111e+00	 7.629630e+00	 1.000608e+01
0	 3.111111e+00	 7.703704e+00	 1.000540e+01
0	 3.111111e+00	 7.777778e+00	 1.000480e+01
0	 3.185185e+00	 7.407407e+00	 1.001367e+01
0	 3.185185e+00	 7.481481e+00	 1.001250e+01
0	 3.185185e+00	 7.555556e+00	 1.001141e+01
0	 3.185185e+00	 7.629630e+00	 1.001040e+01
0	 3.185185e+00	 7.703704e+00	 1.000948e+01
0	 3.185185e+00	 7.777778e+00	 1.000865e+01
0	 3.259259e+00	 7.407407e+00	 1.001857e+01
0	 3.259259e+00	 7.481481e+00	 1.001715e+01
0	 3.259259e+00	 7.555556e+00	 1.001582e+01
0	 3.259259e+00	 7.629630e+00	 1.001459e+01
0	 3.259259e+00	 7.703704e+00	 1.001344e+01
0	 3.259259e+00	 7.777778e+00	 1.001239e+01
0	 3.333333e+00	 7.407407e+00	 1.002329e+01
0	 3.333333e+00	 7.481481e+00	 1.002165e+01
0	 3.333333e+00	 7.555556e+00	 1.002009e+01
0	 3.333333e+00	 7.629630e+00	 1.001863e+01
0	 3.333333e+00	 7.703704e+00	 1.001727e+01
0	 3.333333e+00	 7.777778e+00	 1.001601e+01
0	 2.962963e+00	 7.777778e+00	 9.996785e+00
0	 2.962963e+00	 7.851852e+00	 9.996718e+00
0	 2.962963e+00	 7.925926e+00	 9.996686e+00
0	 2.962963e+00	 8.000000e+00	 9.996692e+00
0	 2.962963e+00	 8.074074e+00	 9.996739e+00
0	 2.962963e+00	 8.148148e+00	 9.996831e+00
0	 3.037037e+00	 7.777778e+00	 1.000084e+01
0	 3.037037e+00	 7.851852e+00	 1.000053e+01
0	 3.037037e+00	 7.925926e+00	 1.000027e+01
0	 3.037037e+00	 8.000000e+00	 1.000005e+01
0	 3.037037e+00	 8.074074e+00	 9.999881e+00
0	 3.037037e+00	 8.148148e+00	 9.999760e+00
0	 3.111111e+00	 7.777778e+00	 1.000480e+01
0	 3.111111e+00	 7.851852e+00	 1.000426e+01
0	 3.111111e+00	 7.925926e+00	 1.000377e+01
0	 3.111111e+00	 8.000000e+00	 1.000334e+01
0	 3.111111e+00	 8.074074e+00	 1.000295e+01
0	 3.111111e+00	 8.148148e+00	 1.000263e+01
0	 3.185185e+00	 7.777778e+00	 1.000865e+01
0	 3.185185e+00	 7.851852e+00	 1.000789e+01
0	 3.185185e+00	 7.925926e+00	 1.000719e+01
0	 3.185185e+00	 8.000000e+00	 1.000654e+01
0	 3.185185e+00	 8.074074e+00	 1.000595e+01
0	 3.185185e+00	 8.148148e+00	 1.000542e+01
0	 3.259259e+00	 7.777778e+00	 1.001239e+01
0	 3.259259e+00	 7.851852e+00	 1.001142e+01
0	 3.259259e+00	 7.925926e+00	 1.001050e+01
0	 3.259259e+00	 8.000000e+00	 1.000965e+01
0	 3.259259e+00	 8.074074e+00	 1.000886e+01
0	 3.259259e+00	 8.148148e+00	 1.000814e+01
0	 3.333333e+00	 7.777778e+00	 1.001601e+01
0	 3.333333e+00	 7.851852e+00	 1.001483e+01
0	 3.333333e+00	 7.925926e+00	 1.001371e+01
0	 3.333333e+00	 8.000000e+00	 1.001266e+01
0	 3.333333e+00	 8.074074e+00	 1.001168e+01
0	 3.333333e+00	 8.148148e+00	 1.001077e+01
0	 2.962963e+00	 8.148148e+00	 9.996831e+00
0	 2.962963e+00	 8.222222e+00	 9.996951e+00
0	 2.962963e+00	 8.296296e+00	 9.997084e+00
0	 2.962963e+00	 8.370370e+00	 9.997233e+00
0	 2.962963e+00	 8.444444e+00	 9.997399e+00
0	 2.962963e+00	 8.518519e+00	 9.997586e+00
0	 3.037037e+00	 8.148148e+00	 9.999760e+00
0	 3.037037e+00	 8.222222e+00	 9.999675e+00
0	 3.037037e+00	 8.296296e+00	 9.999608e+00
0	 3.037037e+00	 8.370370e+00	 9.999564e+00
0	 3.037037e+00	 8.444444e+00	 9.999544e+00
0	 3.037037e+00	 8.518519e+00	 9.999550e+00
0	 3.111111e+00	 8.148148e+00	 1.000263e+01
0	 3.111111e+00	 8.222222e+00	 1.000234e+01
0	 3.111111e+00	 8.296296e+00	 1.000208e+01
0	 3.111111e+00	 8.370370e+00	 1.000185e+01
0	 3.111111e+00	 8.444444e+00	 1.000165e+01
0	 3.111111e+00	 8.518519e+00	 1.000148e+01
0	 3.185185e+00	 8.148148e+00	 1.000542e+01
0	 3.185185e+00	 8.222222e+00	 1.000494e+01
0	 3.185185e+00	 8.296296e+00	 1.000449e+01
0	 3.185185e+00	 8.370370e+00	 1.000408e+01
0	 3.185185e+00	 8.444444e+00	 1.000370e+01
0	 3.185185e+00	 8.518519e+00	 1.000336e+01
0	 3.259259e+00	 8.148148e+00	 1.000814e+01
0	 3.259259e+00	 8.222222e+00	 1.000747e+01
0	 3.259259e+00	 8.296296e+00	 1.000683e+01
0	 3.259259e+00	 8.370370e+00	 1.000624e+01
0	 3.259259e+00	 8.444444e+00	 1.000569e+01
0	 3.259259e+00	 8.518519e+00	 1.000518e+01
0	 3.333333e+00	 8.148148e+00	 1.001077e+01
0	 3.333333e+00	 8.222222e+00	 1.000991e+01
0	 3.333333e+00	 8.296296e+00	 1.000910e+01
0	 3.333333e+00	 8.370370e+00	 1.000834e+01
0	 3.333333e+00	 8.444444e+00	 1.000762e+01
0	 3.333333e+00	 8.518519e+00	 1.000695e+01
0	 2.962963e+00	 8.518519e+00	 9.997586e+00
0	 2.962963e+00	 8.592593e+00	 9.997782e+00
0	 2.962963e+00	 8.666667e+00	 9.997975e+00
0	 2.962963e+00	 8.740741e+00	 9.998167e+00
0	 2.962963e+00	 8.814815e+00	 9.998360e+00
0	 2.962963e+00	 8.888889e+00	 9.998555e+00
0	 3.037037e+00	 8.518519e+00	 9.999550e+00
0	 3.037037e+00	 8.592593e+00	 9.999573e+00
0	 3.037037e+00	 8.666667e+00	 9.999599e+00
0	 3.037037e+00	 8.740741e+00	 9.999632e+00
0	 3.037037e+00	 8.814815e+00	 9.999671e+00
0	 3.037037e+00	 8.888889e+00	 9.999720e+00
0	 3.111111e+00	 8.518519e+00	 1.000148e+01
0	 3.111111e+00	 8.592593e+00	 1.000133e+01
0	 3.111111e+00	 8.666667e+00	 1.000119e+01
0	 3.111111e+00	 8.740741e+00	 1.000107e+01
0	 3.111111e+00	 8.814815e+00	 1.000096e+01
0	 3.111111e+00	 8.888889e+00	 1.000087e+01
0	 3.185185e+00	 8.518519e+00	 1.000336e+01
0	 3.185185e+00	 8.592593e+00	 1.000304e+01
0	 3.185185e+00	 8.666667e+00	 1.000275e+01
0	 3.185185e+00	 8.740741e+00	 1.000247e+01
0	 3.185185e+00	 8.814815e+00	 1.000222e+01
0	 3.185185e+00	 8.888889e+00	 1.000198e+01
0	 3.259259e+00	 8.518519e+00	 1.000518e+01
0	 3.259259e+00	 8.592593e+00	 1.000471e+01
0	 3.259259e+00	 8.666667e+00	 1.000426e+01
0	 3.259259e+00	 8.740741e+00	 1.000384e+01
0	 3.259259e+00	 8.814815e+00	 1.000344e+01
0	 3.259259e+00	 8.888889e+00	 1.000307e+01
0	 3.333333e+00	 8.518519e+00	 1.000695e+01
0	 3.333333e+00	 8.592593e+00	 1.000632e+01
0	 3.333333e+00	 8.666667e+00	 1.000573e+01
0	 3.333333e+00	 8.740741e+00	 1.000516e+01
0	 3.333333e+00	 8.814815e+00	 1.000463e+01
0	 3.333333e+00	 8.888889e+00	 1.000412e+01
0	 2.962963e+00	 8.888889e+00	 9.998555e+00
0	 2.962963e+00	 8.962963e+00	 9.998745e+00
0	 2.962963e+00	 9.037037e+00	 9.998922e+00
0	 2.962963e+00	 9.111111e+00	 9.999087e+00
0	 2.962963e+00	 9.185185e+00	 9.999241e+00
0	 2.962963e+00	 9.259259e+00	 9.999384e+00
0	 3.037037e+00	 8.888889e+00	 9.999720e+00
0	 3.037037e+00	 8.962963e+00	 9.999771e+00
0	 3.037037e+00	 9.037037e+00	 9.999817e+00
0	 3.037037e+00	 9.111111e+00	 9.999859e+00
0	 3.037037e+00	 9.185185e+00	 9.999898e+00
0	 3.037037e+00	 9.259259e+00	 9.999932e+00
0	 3.111111e+00	 8.888889e+00	 1.000087e+01
0	 3.111111e+00	 8.962963e+00	 1.000078e+01
0	 3.111111e+00	 9.037037e+00	 1.000070e+01
0	 3.111111e+00	 9.111111e+00	 1.000062e+01
0	 3.111111e+00	 9.185185e+00	 1.000055e+01
0	 3.111111e+00	 9.259259e+00	 1.000047e+01
0	 3.185185e+00	 8.888889e+00	 1.000198e+01
0	 3.185185e+00	 8.962963e+00	 1.000177e+01
0	 3.185185e+00	 9.037037e+00	 1.000156e+01
0	 3.185185e+00	 9.111111e+00	 1.000137e+01
0	 3.185185e+00	 9.185185e+00	 1.000118e+01
0	 3.185185e+00	 9.259259e+00	 1.000101e+01
0	 3.259259e+00	 8.888889e+00	 1.000307e+01
0	 3.259259e+00	 8.962963e+00	 1.000273e+01
0	 3.259259e+00	 9.037037e+00	 1.000240e+01
0	 3.259259e+00	 9.111111e+00	 1.000209e+01
0	 3.259259e+00	 9.185185e+00	 1.000180e+01
0	 3.259259e+00	 9.259259e+00	 1.000152e+01
0	 3.333333e+00	 8.888889e+00	 1.000412e+01
0	 3.333333e+00	 8.962963e+00	 1.000365e+01
0	 3.333333e+00	 9.037037e+00	 1.000321e+01
0	 3.333333e+00	 9.111111e+00	 1.000279e+01
0	 3.333333e+00	 9.185185e+00	 1.000239e+01
0	 3.333333e+00	 9.259259e+00	 1.000202e+01
0	 2.962963e+00	 9.259259e+00	 9.999384e+00
0	 2.962963e+00	 9.333333e+00	 9.999514e+00
0	 2.962963e+00	 9.407407e+00	 9.999629e+00
0	 2.962963e+00	 9.481481e+00	 9.999727e+00
0	 2.962963e+00	 9.555556e+00	 9.999808e+00
0	 2.962963e+00	 9.629630e+00	 9.999871e+00
0	 3.037037e+00	 9.259259e+00	 9.999932e+00
0	 3.037037e+00	 9.333333e+00	 9.999962e+00
0	 3.037037e+00	 9.407407e+00	 9.999987e+00
0	 3.037037e+00	 9.481481e+00	 1.000000e+01
0	 3.037037e+00	 9.555556e+00	 1.000001e+01
0	 3.037037e+00	 9.629630e+00	 1.000001e+01
0	 3.111111e+00	 9.259259e+00	 1.000047e+01
0	 3.111111e+00	 9.333333e+00	 1.000041e+01
0	 3.111111e+00	 9.407407e+00	 1.000034e+01
0	 3.111111e+00	 9.481481e+00	 1.000028e+01
0	 3.111111e+00	 9.555556e+00	 1.000022e+01
0	 3.111111e+00	 9.629630e+00	 1.000016e+01
0	 3.185185e+00	 9.259259e+00	 1.000101e+01
0	 3.185185e+00	 9.333333e+00	 1.000084e+01
0	 3.185185e+00	 9.407407e+00	 1.000070e+01
0	 3.185185e+00	 9.481481e+00	 1.000056e+01
0	 3.185185e+00	 9.555556e+00	 1.000043e+01
0	 3.185185e+00	 9.629630e+00	 1.000031e+01
0	 3.259259e+00	 9.259259e+00	 1.000152e+01
0	 3.259259e+00	 9.333333e+00	 1.000127e+01
0	 3.259259e+00	 9.407407e+00	 1.000104e+01
0	 3.259259e+00	 9.481481e+00	 1.000082e+01
0	 3.259259e+00	 9.555556e+00	 1.000063e+01
0	 3.259259e+00	 9.629630e+00	 1.000045e+01
0	 3.333333e+00	 9.259259e+00	 1.000202e+01
0	 3.333333e+00	 9.333333e+00	 1.000167e+01
0	 3.333333e+00	 9.407407e+00	 1.000136e+01
0	 3.333333e+00	 9.481481e+00	 1.000107e+01
0	 3.333333e+00	 9.555556e+00	 1.000081e+01
0	 3.333333e+00	 9.629630e+00	 1.000058e+01
0	 2.962963e+00	 9.629630e+00	 9.999871e+00
0	 2.962963e+00	 9.703704e+00	 9.999921e+00
0	 2.962963e+00	 9.777778e+00	 9.999961e+00
0	 2.962963e+00	 9.851852e+00	 9.999987e+00
0	 2.962963e+00	 9.925926e+00	 9.999999e+00
0	 2.962963e+00	 1.000000e+01	 9.999993e+00
0	 3.037037e+00	 9.629630e+00	 1.000001e+01
0	 3.037037e+00	 9.703704e+00	 1.000001e+01
0	 3.037037e+00	 9.777778e+00	 1.000001e+01
0	 3.037037e+00	 9.851852e+00	 1.000001e+01
0	 3.037037e+00	 9.925926e+00	 9.999999e+00
0	 3.037037e+00	 1.000000e+01	 9.999984e+00
0	 3.111111e+00	 9.629630e+00	 1.000016e+01
0	 3.111111e+00	 9.703704e+00	 1.000011e+01
0	 3.111111e+00	 9.777778e+00	 1.000007e+01
0	 3.111111e+00	 9.851852e+00	 1.000003e+01
0	 3.111111e+00	 9.925926e+00	 1.000001e+01
0	 3.111111e+00	 1.000000e+01	 9.999985e+00
0	 3.185185e+00	 9.629630e+00	 1.000031e+01
0	 3.185185e+00	 9.703704e+00	 1.000020e+01
0	 3.185185e+00	 9.777778e+00	 1.000012e+01
0	 3.185185e+00	 9.851852e+00	 1.000006e+01
0	 3.185185e+00	 9.925926e+00	 1.000002e+01
0	 3.185185e+00	 1.000000e+01	 9.999990e+00
0	 3.259259e+00	 9.629630e+00	 1.000045e+01
0	 3.259259e+00	 9.703704e+00	 1.000029e+01
0	 3.259259e+00	 9.777778e+00	 1.000018e+01
0	 3.259259e+00	 9.851852e+00	 1.000009e+01
0	 3.259259e+00	 9.925926e+00	 1.000003e+01
0	 3.259259e+00	 1.000000e+01	 9.999992e+00
0	 3.333333e+00	 9.629630e+00	 1.000058e+01
0	 3.333333e+00	 9.703704e+00	 1.000038e+01
0	 3.333333e+00	 9.777778e+00	 1.000022e+01
0	 3.333333e+00	 9.851852e+00	 1.000011e+01
0	 3.333333e+00	 9.925926e+00	 1.000003e+01
0	 3.333333e+00	 1.000000e+01	 9.999985e+00
0	 3.333333e+00	 0.000000e+00	 1.076696e+01
0	 3.333333e+00	 7.407407e-02	 1.075995e+01
0	 3.333333e+00	 1.481481e-01	 1.075846e+01
0	 3.333333e+00	 2.222222e-01	 1.076166e+01
0	 3.333333e+00	 2.962963e-01	 1.076870e+01
0	 3.333333e+00	 3.703704e-01	 1.077875e+01
0	 3.407407e+00	 0.000000e+00	 1.075233e+01
0	 3.407407e+00	 7.407407e-02	 1.074572e+01
0	 3.407407e+00	 1.481481e-01	 1.074228e+01
0	 3.407407e+00	 2.222222e-01	 1.074191e+01
0	 3.407407e+00	 2.962963e-01	 1.074453e+01
0	 3.407407e+00	 3.703704e-01	 1.075003e+01
0	 3.481481e+00	 0.000000e+00	 1.072270e+01
0	 3.481481e+00	 7.407407e-02	 1.071886e+01
0	 3.481481e+00	 1.481481e-01	 1.071650e+01
0	 3.481481e+00	 2.222222e-01	 1.071605e+01
0	 3.481481e+00	 2.962963e-01	 1.071792e+01
0	 3.481481e+00	 3.703704e-01	 1.072254e+01
0	 3.555556e+00	 0.000000e+00	 1.068390e+01
0	 3.555556e+00	 7.407407e-02	 1.068386e+01
0	 3.555556e+00	 1.481481e-01	 1.068432e+01
0	 3.555556e+00	 2.222222e-01	 1.068596e+01
0	 3.555556e+00	 2.962963e-01	 1.068947e+01
0	 3.555556e+00	 3.703704e-01	 1.069556e+01
0	 3.629630e+00	 0.000000e+00	 1.064179e+01
0	 3.629630e+00	 7.407407e-02	 1.064524e+01
0	 3.629630e+00	 1.481481e-01	 1.064890e+01
0	 3.629630e+00	 2.222222e-01	 1.065350e+01
0	 3.629630e+00	 2.962963e-01	 1.065975e+01
0	 3.629630e+00	 3.703704e-01	 1.066839e+01
0	 3.703704e+00	 0.000000e+00	 1.060219e+01
0	 3.703704e+00	 7.407407e-02	 1.060748e+01
0	 3.703704e+00	 1.481481e-01	 1.061343e+01
0	 3.703704e+00	 2.222222e-01	 1.062054e+01
0	 3.703704e+00	 2.962963e-01	 1.062934e+01
0	 3.703704e+00	 3.703704e-01	 1.064035e+01
0	 3.333333e+00	 3.703704e-01	 1.077875e+01
0	 3.333333e+00	 4.444444e-01	 1.079059e+01
0	 3.333333e+00	 5.185185e-01	 1.080409e+01
0	 3.333333e+00	 5.925926e-01	 1.082003e+01
0	 3.333333e+00	 6.666667e-01	 1.083917e+01
0	 3.333333e+00	 7.407407e-01	 1.086228e+01
0	 3.407407e+00	 3.703704e-01	 1.075003e+01
0	 3.407407e+00	 4.444444e-01	 1.075815e+01
0	 3.407407e+00	 5.185185e-01	 1.076900e+01
0	 3.407407e+00	 5.925926e-01	 1.078306e+01
0	 3.407407e+00	 6.666667e-01	 1.080084e+01
0	 3.407407e+00	 7.407407e-01	 1.082282e+01
0	 3.481481e+00	 3.703704e-01	 1.072254e+01
0	 3.481481e+00	 4.444444e-01	 1.072992e+01
0	 3.481481e+00	 5.185185e-01	 1.074001e+01
0	 3.481481e+00	 5.925926e-01	 1.075311e+01
0	 3.481481e+00	 6.666667e-01	 1.076950e+01
0	 3.481481e+00	 7.407407e-01	 1.078949e+01
0	 3.555556e+00	 3.703704e-01	 1.069556e+01
0	 3.555556e+00	 4.444444e-01	 1.070410e+01
0	 3.555556e+00	 5.185185e-01	 1.071466e+01
0	 3.555556e+00	 5.925926e-01	 1.072739e+01
0	 3.555556e+00	 6.666667e-01	 1.074248e+01
0	 3.555556e+00	 7.407407e-01	 1.076008e+01
0	 3.629630e+00	 3.703704e-01	 1.066839e+01
0	 3.629630e+00	 4.444444e-01	 1.067893e+01
0	 3.629630e+00	 5.185185e-01	 1.069048e+01
0	 3.629630e+00	 5.925926e-01	 1.070316e+01
0	 3.629630e+00	 6.666667e-01	 1.071709e+01
0	 3.629630e+00	 7.407407e-01	 1.073241e+01
0	 3.703704e+00	 3.703704e-01	 1.064035e+01
0	 3.703704e+00	 4.444444e-01	 1.065263e+01
0	 3.703704e+00	 5.185185e-01	 1.066501e+01
0	 3.703704e+00	 5.925926e-01	 1.067764e+01
0	 3.703704e+00	 6.666667e-01	 1.069067e+01
0	 3.703704e+00	 7.407407e-01	 1.070427e+01
0	 3.333333e+00	 7.407407e-01	 1.086228e+01
0	 3.333333e+00	 8.148148e-01	 1.088635e+01
0	 3.333333e+00	 8.888889e-01	 1.090813e+01
0	 3.333333e+00	 9.629630e-01	 1.092805e+01
0	 3.333333e+00	 1.037037e+00	 1.094654e+01
0	 3.333333e+00	 1.111111e+00	 1.096404e+01
0	 3.407407e+00	 7.407407e-01	 1.082282e+01
0	 3.407407e+00	 8.148148e-01	 1.084579e+01
0	 3.407407e+00	 8.888889e-01	 1.086653e+01
0	 3.407407e+00	 9.629630e-01	 1.088554e+01
0	 3.407407e+00	 1.037037e+00	 1.090331e+01
0	 3.407407e+00	 1.111111e+00	 1.092036e+01
0	 3.481481e+00	 7.407407e-01	 1.078949e+01
0	 3.481481e+00	 8.148148e-01	 1.081025e+01
0	 3.481481e+00	 8.888889e-01	 1.082913e+01
0	 3.481481e+00	 9.629630e-01	 1.084665e+01
0	 3.481481e+00	 1.037037e+00	 1.086335e+01
0	 3.481481e+00	 1.111111e+00	 1.087974e+01
0	 3.555556e+00	 7.407407e-01	 1.076008e+01
0	 3.555556e+00	 8.148148e-01	 1.077814e+01
0	 3.555556e+00	 8.888889e-01	 1.079484e+01
0	 3.555556e+00	 9.629630e-01	 1.081068e+01
0	 3.555556e+00	 1.037037e+00	 1.082617e+01
0	 3.555556e+00	 1.111111e+00	 1.084184e+01
0	 3.629630e+00	 7.407407e-01	 1.073241e+01
0	 3.629630e+00	 8.148148e-01	 1.074789e+01
0	 3.629630e+00	 8.888889e-01	 1.076257e+01
0	 3.629630e+00	 9.629630e-01	 1.077689e+01
0	 3.629630e+00	 1.037037e+00	 1.079133e+01
0	 3.629630e+00	 1.111111e+00	 1.080633e+01
0	 3.703704e+00	 7.407407e-01	 1.070427e+01
0	 3.703704e+00	 8.148148e-01	 1.071791e+01
0	 3.703704e+00	 8.888889e-01	 1.073122e+01
0	 3.703704e+00	 9.629630e-01	 1.074457e+01
0	 3.703704e+00	 1.037037e+00	 1.075833e+01
0	 3.703704e+00	 1.111111e+00	 1.077286e+01
0	 3.333333e+00	 1.111111e+00	 1.096404e+01
0	 3.333333e+00	 1.185185e+00	 1.097968e+01
0	 3.333333e+00	 1.259259e+00	 1.099251e+01
0	 3.333333e+00	 1.333333e+00	 1.100284e+01
0	 3.333333e+00	 1.407407e+00	 1.101100e+01
0	 3.333333e+00	 1.481481e+00	 1.101731e+01
0	 3.407407e+00	 1.111111e+00	 1.092036e+01
0	 3.407407e+00	 1.185185e+00	 1.093590e+01
0	 3.407407e+00	 1.259259e+00	 1.094896e+01
0	 3.407407e+00	 1.333333e+00	 1.095980e+01
0	 3.407407e+00	 1.407407e+00	 1.096867e+01
0	 3.407407e+00	 1.481481e+00	 1.097581e+01
0	 3.481481e+00	 1.111111e+00	 1.087974e+01
0	 3.481481e+00	 1.185185e+00	 1.089501e+01
0	 3.481481e+00	 1.259259e+00	 1.090812e+01
0	 3.481481e+00	 1.333333e+00	 1.091926e+01
0	 3.481481e+00	 1.407407e+00	 1.092864e+01
0	 3.481481e+00	 1.481481e+00	 1.093646e+01
0	 3.555556e+00	 1.111111e+00	 1.084184e+01
0	 3.555556e+00	 1.185185e+00	 1.085675e+01
0	 3.555556e+00	 1.259259e+00	 1.086975e+01
0	 3.555556e+00	 1.333333e+00	 1.088102e+01
0	 3.555556e+00	 1.407407e+00	 1.089074e+01
0	 3.555556e+00	 1.481481e+00	 1.089909e+01
0	 3.629630e+00	 1.111111e+00	 1.080633e+01
0	 3.629630e+00	 1.185185e+00	 1.082084e+01
0	 3.629630e+00	 1.259259e+00	 1.083364e+01
0	 3.629630e+00	 1.333333e+00	 1.084489e+01
0	 3.629630e+00	 1.407407e+00	 1.085479e+01
0	 3.629630e+00	 1.481481e+00	 1.086350e+01
0	 3.703704e+00	 1.111111e+00	 1.077286e+01
0	 3.703704e+00	 1.185185e+00	 1.078701e+01
0	 3.703704e+00	 1.259259e+00	 1.079955e+01
0	 3.703704e+00	 1.333333e+00	 1.081068e+01
0	 3.703704e+00	 1.407407e+00	 1.082060e+01
0	 3.703704e+00	 1.481481e+00	 1.082952e+01
0	 3.333333e+00	 1.481481e+00	 1.101731e+01
0	 3.333333e+00	 1.555556e+00	 1.102139e+01
0	 3.333333e+00	 1.629630e+00	 1.102274e+01
0	 3.333333e+00	 1.703704e+00	 1.102150e+01
0	 3.333333e+00	 1.777778e+00	 1.101781e+01
0	 3.333333e+00	 1.851852e+00	 1.101179e+01
0	 3.407407e+00	 1.481481e+00	 1.097581e+01
0	 3.407407e+00	 1.555556e+00	 1.098089e+01
0	 3.407407e+00	 1.629630e+00	 1.098351e+01
0	 3.407407e+00	 1.703704e+00	 1.098378e+01
0	 3.407407e+00	 1.777778e+00	 1.098181e+01
0	 3.407407e+00	 1.851852e+00	 1.097771e+01
0	 3.481481e+00	 1.481481e+00	 1.093646e+01
0	 3.481481e+00	 1.555556e+00	 1.094240e+01
0	 3.481481e+00	 1.629630e+00	 1.094606e+01
0	 3.481481e+00	 1.703704e+00	 1.094756e+01
0	 3.481481e+00	 1.777778e+00	 1.094698e+01
0	 3.481481e+00	 1.851852e+00	 1.094444e+01
0	 3.555556e+00	 1.481481e+00	 1.089909e+01
0	 3.555556e+00	 1.555556e+00	 1.090571e+01
0	 3.555556e+00	 1.629630e+00	 1.091022e+01
0	 3.555556e+00	 1.703704e+00	 1.091271e+01
0	 3.555556e+00	 1.777778e+00	 1.091326e+01
0	 3.555556e+00	 1.851852e+00	 1.091197e+01
0	 3.629630e+00	 1.481481e+00	 1.086350e+01
0	 3.629630e+00	 1.555556e+00	 1.087066e+01
0	 3.629630e+00	 1.629630e+00	 1.087583e+01
0	 3.629630e+00	 1.703704e+00	 1.087911e+01
0	 3.629630e+00	 1.777778e+00	 1.088058e+01
0	 3.629630e+00	 1.851852e+00	 1.088032e+01
0	 3.703704e+00	 1.481481e+00	 1.082952e+01
0	 3.703704e+00	 1.555556e+00	 1.083705e+01
0	 3.703704e+00	 1.629630e+00	 1.084272e+01
0	 3.703704e+00	 1.703704e+00	 1.084663e+01
0	 3.703704e+00	 1.777778e+00	 1.084885e+01
0	 3.703704e+00	 1.851852e+00	 1.084948e+01
0	 3.333333e+00	 1.851852e+00	 1.101179e+01
0	 3.333333e+00	 1.925926e+00	 1.100373e+01
0	 3.333333e+00	 2.000000e+00	 1.099371e+01
0	 3.333333e+00	 2.074074e+00	 1.098163e+01
0	 3.333333e+00	 2.148148e+00	 1.096734e+01
0	 3.333333e+00	 2.222222e+00	 1.095073e+01
0	 3.407407e+00	 1.851852e+00	 1.097771e+01
0	 3.407407e+00	 1.925926e+00	 1.097160e+01
0	 3.407407e+00	 2.000000e+00	 1.096346e+01
0	 3.407407e+00	 2.074074e+00	 1.095322e+01
0	 3.407407e+00	 2.148148e+00	 1.094084e+01
0	 3.407407e+00	 2.222222e+00	 1.092623e+01
0	 3.481481e+00	 1.851852e+00	 1.094444e+01
0	 3.481481e+00	 1.925926e+00	 1.093994e+01
0	 3.481481e+00	 2.000000e+00	 1.093343e+01
0	 3.481481e+00	 2.074074e+00	 1.092488e+01
0	 3.481481e+00	 2.148148e+00	 1.091429e+01
0	 3.481481e+00	 2.222222e+00	 1.090163e+01
0	 3.555556e+00	 1.851852e+00	 1.091197e+01
0	 3.555556e+00	 1.925926e+00	 1.090882e+01
0	 3.555556e+00	 2.000000e+00	 1.090374e+01
0	 3.555556e+00	 2.074074e+00	 1.089673e+01
0	 3.555556e+00	 2.148148e+00	 1.088783e+01
0	 3.555556e+00	 2.222222e+00	 1.087704e+01
0	 3.629630e+00	 1.851852e+00	 1.088032e+01
0	 3.629630e+00	 1.925926e+00	 1.087832e+01
0	 3.629630e+00	 2.000000e+00	 1.087451e+01
0	 3.629630e+00	 2.074074e+00	 1.086892e+01
0	 3.629630e+00	 2.148148e+00	 1.086159e+01
0	 3.629630e+00	 2.222222e+00	 1.085254e+01
0	 3.703704e+00	 1.851852e+00	 1.084948e+01
0	 3.703704e+00	 1.925926e+00	 1.084850e+01
0	 3.703704e+00	 2.000000e+00	 1.084586e+01
0	 3.703704e+00	 2.074074e+00	 1.084159e+01
0	 3.703704e+00	 2.148148e+00	 1.083571e+01
0	 3.703704e+00	 2.222222e+00	 1.082826e+01
0	 3.333333e+00	 2.222222e+00	 1.095073e+01
0	 3.333333e+00	 2.296296e+00	 1.093247e+01
0	 3.333333e+00	 2.370370e+00	 1.091327e+01
0	 3.333333e+00	 2.444444e+00	 1.089303e+01
0	 3.333333e+00	 2.518519e+00	 1.087166e+01
0	 3.333333e+00	 2.592593e+00	 1.084908e+01
0	 3.407407e+00	 2.222222e+00	 1.092623e+01
0	 3.407407e+00	 2.296296e+00	 1.091008e+01
0	 3.407407e+00	 2.370370e+00	 1.089302e+01
0	 3.407407e+00	 2.444444e+00	 1.087495e+01
0	 3.407407e+00	 2.518519e+00	 1.085576e+01
0	 3.407407e+00	 2.592593e+00	 1.083535e+01
0	 3.481481e+00	 2.222222e+00	 1.090163e+01
0	 3.481481e+00	 2.296296e+00	 1.088751e+01
0	 3.481481e+00	 2.370370e+00	 1.087246e+01
0	 3.481481e+00	 2.444444e+00	 1.085637e+01
0	 3.481481e+00	 2.518519e+00	 1.083912e+01
0	 3.481481e+00	 2.592593e+00	 1.082060e+01
0	 3.555556e+00	 2.222222e+00	 1.087704e+01
0	 3.555556e+00	 2.296296e+00	 1.086484e+01
0	 3.555556e+00	 2.370370e+00	 1.085166e+01
0	 3.555556e+00	 2.444444e+00	 1.083736e+01
0	 3.555556e+00	 2.518519e+00	 1.082186e+01
0	 3.555556e+00	 2.592593e+00	 1.080502e+01
0	 3.629630e+00	 2.222222e+00	 1.085254e+01
0	 3.629630e+00	 2.296296e+00	 1.084214e+01
0	 3.629630e+00	 2.370370e+00	 1.083066e+01
0	 3.629630e+00	 2.444444e+00	 1.081800e+01
0	 3.629630e+00	 2.518519e+00	 1.080408e+01
0	 3.629630e+00	 2.592593e+00	 1.078877e+01
0	 3.703704e+00	 2.222222e+00	 1.082826e+01
0	 3.703704e+00	 2.296296e+00	 1.081947e+01
0	 3.703704e+00	 2.370370e+00	 1.080953e+01
0	 3.703704e+00	 2.444444e+00	 1.079836e+01
0	 3.703704e+00	 2.518519e+00	 1.078589e+01
0	 3.703704e+00	 2.592593e+00	 1.077203e+01
0	 3.333333e+00	 2.592593e+00	 1.084908e+01
0	 3.333333e+00	 2.666667e+00	 1.082577e+01
0	 3.333333e+00	 2.740741e+00	 1.080217e+01
0	 3.333333e+00	 2.814815e+00	 1.077812e+01
0	 3.333333e+00	 2.888889e+00	 1.075349e+01
0	 3.333333e+00	 2.962963e+00	 1.072812e+01
0	 3.407407e+00	 2.592593e+00	 1.083535e+01
0	 3.407407e+00	 2.666667e+00	 1.081411e+01
0	 3.407407e+00	 2.740741e+00	 1.079242e+01
0	 3.407407e+00	 2.814815e+00	 1.077017e+01
0	 3.407407e+00	 2.888889e+00	 1.074725e+01
0	 3.407407e+00	 2.962963e+00	 1.072354e+01
0	 3.481481e+00	 2.592593e+00	 1.082060e+01
0	 3.481481e+00	 2.666667e+00	 1.080118e+01
0	 3.481481e+00	 2.740741e+00	 1.078125e+01
0	 3.481481e+00	 2.814815e+00	 1.076070e+01
0	 3.481481e+00	 2.888889e+00	 1.073945e+01
0	 3.481481e+00	 2.962963e+00	 1.071741e+01
0	 3.555556e+00	 2.592593e+00	 1.080502e+01
0	 3.555556e+00	 2.666667e+00	 1.078724e+01
0	 3.555556e+00	 2.740741e+00	 1.076892e+01
0	 3.555556e+00	 2.814815e+00	 1.074998e+01
0	 3.555556e+00	 2.888889e+00	 1.073036e+01
0	 3.555556e+00	 2.962963e+00	 1.070996e+01
0	 3.629630e+00	 2.592593e+00	 1.078877e+01
0	 3.629630e+00	 2.666667e+00	 1.077251e+01
0	 3.629630e+00	 2.740741e+00	 1.075571e+01
0	 3.629630e+00	 2.814815e+00	 1.073832e+01
0	 3.629630e+00	 2.888889e+00	 1.072025e+01
0	 3.629630e+00	 2.962963e+00	 1.070145e+01
0	 3.703704e+00	 2.592593e+00	 1.077203e+01
0	 3.703704e+00	 2.666667e+00	 1.075722e+01
0	 3.703704e+00	 2.740741e+00	 1.074189e+01
0	 3.703704e+00	 2.814815e+00	 1.072598e+01
0	 3.703704e+00	 2.888889e+00	 1.070941e+01
0	 3.703704e+00	 2.962963e+00	 1.069212e+01
0	 3.333333e+00	 2.962963e+00	 1.072812e+01
0	 3.333333e+00	 3.037037e+00	 1.070256e+01
0	 3.333333e+00	 3.111111e+00	 1.067736e+01
0	 3.333333e+00	 3.185185e+00	 1.065246e+01
0	 3.333333e+00	 3.259259e+00	 1.062775e+01
0	 3.333333e+00	 3.333333e+00	 1.060316e+01
0	 3.407407e+00	 2.962963e+00	 1.072354e+01
0	 3.407407e+00	 3.037037e+00	 1.069958e+01
0	 3.407407e+00	 3.111111e+00	 1.067593e+01
0	 3.407407e+00	 3.185185e+00	 1.065248e+01
0	 3.407407e+00	 3.259259e+00	 1.062915e+01
0	 3.407407e+00	 3.333333e+00	 1.060584e+01
0	 3.481481e+00	 2.962963e+00	 1.071741e+01
0	 3.481481e+00	 3.037037e+00	 1.069507e+01
0	 3.481481e+00	 3.111111e+00	 1.067294e+01
0	 3.481481e+00	 3.185185e+00	 1.065092e+01
0	 3.481481e+00	 3.259259e+00	 1.062891e+01
0	 3.481481e+00	 3.333333e+00	 1.060680e+01
0	 3.555556e+00	 2.962963e+00	 1.070996e+01
0	 3.555556e+00	 3.037037e+00	 1.068923e+01
0	 3.555556e+00	 3.111111e+00	 1.066860e+01
0	 3.555556e+00	 3.185185e+00	 1.064796e+01
0	 3.555556e+00	 3.259259e+00	 1.062720e+01
0	 3.555556e+00	 3.333333e+00	 1.060624e+01
0	 3.629630e+00	 2.962963e+00	 1.070145e+01
0	 3.629630e+00	 3.037037e+00	 1.068228e+01
0	 3.629630e+00	 3.111111e+00	 1.066307e+01
0	 3.629630e+00	 3.185185e+00	 1.064375e+01
0	 3.629630e+00	 3.259259e+00	 1.062421e+01
0	 3.629630e+00	 3.333333e+00	 1.060436e+01
0	 3.703704e+00	 2.962963e+00	 1.069212e+01
0	 3.703704e+00	 3.037037e+00	 1.067440e+01
0	 3.703704e+00	 3.111111e+00	 1.065654e+01
0	 3.703704e+00	 3.185185e+00	 1.063847e+01
0	 3.703704e+00	 3.259259e+00	 1.062009e+01
0	 3.703704e+00	 3.333333e+00	 1.060133e+01
0	 3.333333e+00	 3.333333e+00	 1.060316e+01
0	 3.333333e+00	 3.407407e+00	 1.057890e+01
0	 3.333333e+00	 3.481481e+00	 1.055519e+01
0	 3.333333e+00	 3.555556e+00	 1.053196e+01
0	 3.333333e+00	 3.629630e+00	 1.050914e+01
0	 3.333333e+00	 3.703704e+00	 1.048665e+01
0	 3.407407e+00	 3.333333e+00	 1.060584e+01
0	 3.407407e+00	 3.407407e+00	 1.058274e+01
0	 3.407407e+00	 3.481481e+00	 1.056008e+01
0	 3.407407e+00	 3.555556e+00	 1.053780e+01
0	 3.407407e+00	 3.629630e+00	 1.051583e+01
0	 3.407407e+00	 3.703704e+00	 1.049411e+01
0	 3.481481e+00	 3.333333e+00	 1.060680e+01
0	 3.481481e+00	 3.407407e+00	 1.058481e+01
0	 3.481481e+00	 3.481481e+00	 1.056318e+01
0	 3.481481e+00	 3.555556e+00	 1.054185e+01
0	 3.481481e+00	 3.629630e+00	 1.052077e+01
0	 3.481481e+00	 3.703704e+00	 1.049988e+01
0	 3.555556e+00	 3.333333e+00	 1.060624e+01
0	 3.555556e+00	 3.407407e+00	 1.058532e+01
0	 3.555556e+00	 3.481481e+00	 1.056469e+01
0	 3.555556e+00	 3.555556e+00	 1.054432e+01
0	 3.555556e+00	 3.629630e+00	 1.052416e+01
0	 3.555556e+00	 3.703704e+00	 1.050414e+01
0	 3.629630e+00	 3.333333e+00	 1.060436e+01
0	 3.629630e+00	 3.407407e+00	 1.058447e+01
0	 3.629630e+00	 3.481481e+00	 1.056485e+01
0	 3.629630e+00	 3.555556e+00	 1.054544e+01
0	 3.629630e+00	 3.629630e+00	 1.052620e+01
0	 3.629630e+00	 3.703704e+00	 1.050707e+01
0	 3.703704e+00	 3.333333e+00	 1.060133e+01
0	 3.703704e+00	 3.407407e+00	 1.058249e+01
0	 3.703704e+00	 3.481481e+00	 1.056387e+01
0	 3.703704e+00	 3.555556e+00	 1.054543e+01
0	 3.703704e+00	 3.629630e+00	 1.052710e+01
0	 3.703704e+00	 3.703704e+00	 1.050885e+01
0	 3.333333e+00	 3.703704e+00	 1.048665e+01
0	 3.333333e+00	 3.777778e+00	 1.046467e+01
0	 3.333333e+00	 3.851852e+00	 1.044343e+01
0	 3.333333e+00	 3.925926e+00	 1.042288e+01
0	 3.333333e+00	 4.000000e+00	 1.040298e+01
0	 3.333333e+00	 4.074074e+00	 1.038372e+01
0	 3.407407e+00	 3.703704e+00	 1.049411e+01
0	 3.407407e+00	 3.777778e+00	 1.047285e+01
0	 3.407407e+00	 3.851852e+00	 1.045226e+01
0	 3.407407e+00	 3.925926e+00	 1.043230e+01
0	 3.407407e+00	 4.000000e+00	 1.041293e+01
0	 3.407407e+00	 4.074074e+00	 1.039411e+01
0	 3.481481e+00	 3.703704e+00	 1.049988e+01
0	 3.481481e+00	 3.777778e+00	 1.047939e+01
0	 3.481481e+00	 3.851852e+00	 1.045951e+01
0	 3.481481e+00	 3.925926e+00	 1.044018e+01
0	 3.481481e+00	 4.000000e+00	 1.042136e+01
0	 3.481481e+00	 4.074074e+00	 1.040300e+01
0	 3.555556e+00	 3.703704e+00	 1.050414e+01
0	 3.555556e+00	 3.777778e+00	 1.048447e+01
0	 3.555556e+00	 3.851852e+00	 1.046531e+01
0	 3.555556e+00	 3.925926e+00	 1.044663e+01
0	 3.555556e+00	 4.000000e+00	 1.042838e+01
0	 3.555556e+00	 4.074074e+00	 1.041050e+01
0	 3.629630e+00	 3.703704e+00	 1.050707e+01
0	 3.629630e+00	 3.777778e+00	 1.048822e+01
0	 3.629630e+00	 3.851852e+00	 1.046981e+01
0	 3.629630e+00	 3.925926e+00	 1.045179e+01
0	 3.629630e+00	 4.000000e+00	 1.043411e+01
0	 3.629630e+00	 4.074074e+00	 1.041673e+01
0	 3.703704e+00	 3.703704e+00	 1.050885e+01
0	 3.703704e+00	 3.777778e+00	 1.049080e+01
0	 3.703704e+00	 3.851852e+00	 1.047312e+01
0	 3.703704e+00	 3.925926e+00	 1.045576e+01
0	 3.703704e+00	 4.000000e+00	 1.043866e+01
0	 3.703704e+00	 4.074074e+00	 1.042180e+01
0	 3.333333e+00	 4.074074e+00	 1.038372e+01
0	 3.333333e+00	 4.148148e+00	 1.036510e+01
0	 3.333333e+00	 4.222222e+00	 1.034715e+01
0	 3.333333e+00	 4.296296e+00	 1.032985e+01
0	 3.333333e+00	 4.370370e+00	 1.031319e+01
0	 3.333333e+00	 4.444444e+00	 1.029712e+01
0	 3.407407e+00	 4.074074e+00	 1.039411e+01
0	 3.407407e+00	 4.148148e+00	 1.037587e+01
0	 3.407407e+00	 4.222222e+00	 1.035824e+01
0	 3.407407e+00	 4.296296e+00	 1.034120e+01
0	 3.407407e+00	 4.370370e+00	 1.032473e+01
0	 3.407407e+00	 4.444444e+00	 1.030883e+01
0	 3.481481e+00	 4.074074e+00	 1.040300e+01
0	 3.481481e+00	 4.148148e+00	 1.038515e+01
0	 3.481481e+00	 4.222222e+00	 1.036787e+01
0	 3.481481e+00	 4.296296e+00	 1.035113e+01
0	 3.481481e+00	 4.370370e+00	 1.033493e+01
0	 3.481481e+00	 4.444444e+00	 1.031923e+01
0	 3.555556e+00	 4.074074e+00	 1.041050e+01
0	 3.555556e+00	 4.148148e+00	 1.039307e+01
0	 3.555556e+00	 4.222222e+00	 1.037616e+01
0	 3.555556e+00	 4.296296e+00	 1.035977e+01
0	 3.555556e+00	 4.370370e+00	 1.034387e+01
0	 3.555556e+00	 4.444444e+00	 1.032844e+01
0	 3.629630e+00	 4.074074e+00	 1.041673e+01
0	 3.629630e+00	 4.148148e+00	 1.039974e+01
0	 3.629630e+00	 4.222222e+00	 1.038324e+01
0	 3.629630e+00	 4.296296e+00	 1.036722e+01
0	 3.629630e+00	 4.370370e+00	 1.035166e+01
0	 3.629630e+00	 4.444444e+00	 1.033653e+01
0	 3.703704e+00	 4.074074e+00	 1.042180e+01
0	 3.703704e+00	 4.148148e+00	 1.040528e+01
0	 3.703704e+00	 4.222222e+00	 1.038922e+01
0	 3.703704e+00	 4.296296e+00	 1.037360e+01
0	 3.703704e+00	 4.370370e+00	 1.035840e+01
0	 3.703704e+00	 4.444444e+00	 1.034360e+01
0	 3.333333e+00	 4.444444e+00	 1.029712e+01
0	 3.333333e+00	 4.518519e+00	 1.028168e+01
0	 3.333333e+00	 4.592593e+00	 1.026688e+01
0	 3.333333e+00	 4.666667e+00	 1.025271e+01
0	 3.333333e+00	 4.740741e+00	 1.023917e+01
0	 3.333333e+00	 4.814815e+00	 1.022625e+01
0	 3.407407e+00	 4.444444e+00	 1.030883e+01
0	 3.407407e+00	 4.518519e+00	 1.029350e+01
0	 3.407407e+00	 4.592593e+00	 1.027879e+01
0	 3.407407e+00	 4.666667e+00	 1.026468e+01
0	 3.407407e+00	 4.740741e+00	 1.025116e+01
0	 3.407407e+00	 4.814815e+00	 1.023823e+01
0	 3.481481e+00	 4.444444e+00	 1.031923e+01
0	 3.481481e+00	 4.518519e+00	 1.030408e+01
0	 3.481481e+00	 4.592593e+00	 1.028951e+01
0	 3.481481e+00	 4.666667e+00	 1.027551e+01
0	 3.481481e+00	 4.740741e+00	 1.026206e+01
0	 3.481481e+00	 4.814815e+00	 1.024914e+01
0	 3.555556e+00	 4.444444e+00	 1.032844e+01
0	 3.555556e+00	 4.518519e+00	 1.031351e+01
0	 3.555556e+00	 4.592593e+00	 1.029913e+01
0	 3.555556e+00	 4.666667e+00	 1.028527e+01
0	 3.555556e+00	 4.740741e+00	 1.027191e+01
0	 3.555556e+00	 4.814815e+00	 1.025905e+01
0	 3.629630e+00	 4.444444e+00	 1.033653e+01
0	 3.629630e+00	 4.518519e+00	 1.032186e+01
0	 3.629630e+00	 4.592593e+00	 1.030770e+01
0	 3.629630e+00	 4.666667e+00	 1.029401e+01
0	 3.629630e+00	 4.740741e+00	 1.028078e+01
0	 3.629630e+00	 4.814815e+00	 1.026800e+01
0	 3.703704e+00	 4.444444e+00	 1.034360e+01
0	 3.703704e+00	 4.518519e+00	 1.032921e+01
0	 3.703704e+00	 4.592593e+00	 1.031528e+01
0	 3.703704e+00	 4.666667e+00	 1.030178e+01
0	 3.703704e+00	 4.740741e+00	 1.028871e+01
0	 3.703704e+00	 4.814815e+00	 1.027604e+01
0	 3.333333e+00	 4.814815e+00	 1.022625e+01
0	 3.333333e+00	 4.888889e+00	 1.021391e+01
0	 3.333333e+00	 4.962963e+00	 1.020210e+01
0	 3.333333e+00	 5.037037e+00	 1.019082e+01
0	 3.333333e+00	 5.111111e+00	 1.018008e+01
0	 3.333333e+00	 5.185185e+00	 1.016986e+01
0	 3.407407e+00	 4.814815e+00	 1.023823e+01
0	 3.407407e+00	 4.888889e+00	 1.022584e+01
0	 3.407407e+00	 4.962963e+00	 1.021396e+01
0	 3.407407e+00	 5.037037e+00	 1.020258e+01
0	 3.407407e+00	 5.111111e+00	 1.019171e+01
0	 3.407407e+00	 5.185185e+00	 1.018135e+01
0	 3.481481e+00	 4.814815e+00	 1.024914e+01
0	 3.481481e+00	 4.888889e+00	 1.023674e+01
0	 3.481481e+00	 4.962963e+00	 1.022482e+01
0	 3.481481e+00	 5.037037e+00	 1.021339e+01
0	 3.481481e+00	 5.111111e+00	 1.020244e+01
0	 3.481481e+00	 5.185185e+00	 1.019198e+01
0	 3.555556e+00	 4.814815e+00	 1.025905e+01
0	 3.555556e+00	 4.888889e+00	 1.024666e+01
0	 3.555556e+00	 4.962963e+00	 1.023475e+01
0	 3.555556e+00	 5.037037e+00	 1.022330e+01
0	 3.555556e+00	 5.111111e+00	 1.021232e+01
0	 3.555556e+00	 5.185185e+00	 1.020180e+01
0	 3.629630e+00	 4.814815e+00	 1.026800e+01
0	 3.629630e+00	 4.888889e+00	 1.025567e+01
0	 3.629630e+00	 4.962963e+00	 1.024379e+01
0	 3.629630e+00	 5.037037e+00	 1.023235e+01
0	 3.629630e+00	 5.111111e+00	 1.022137e+01
0	 3.629630e+00	 5.185185e+00	 1.021083e+01
0	 3.703704e+00	 4.814815e+00	 1.027604e+01
0	 3.703704e+00	 4.888889e+00	 1.026380e+01
0	 3.703704e+00	 4.962963e+00	 1.025198e+01
0	 3.703704e+00	 5.037037e+00	 1.024060e+01
0	 3.703704e+00	 5.111111e+00	 1.022964e+01
0	 3.703704e+00	 5.185185e+00	 1.021910e+01
0	 3.333333e+00	 5.185185e+00	 1.016986e+01
0	 3.333333e+00	 5.259259e+00	 1.016012e+01
0	 3.333333e+00	 5.333333e+00	 1.015084e+01
0	 3.333333e+00	 5.407407e+00	 1.014202e+01
0	 3.333333e+00	 5.481481e+00	 1.013365e+01
0	 3.333333e+00	 5.555556e+00	 1.012575e+01
0	 3.407407e+00	 5.185185e+00	 1.018135e+01
0	 3.407407e+00	 5.259259e+00	 1.017146e+01
0	 3.407407e+00	 5.333333e+00	 1.016201e+01
0	 3.407407e+00	 5.407407e+00	 1.015301e+01
0	 3.407407e+00	 5.481481e+00	 1.014445e+01
0	 3.407407e+00	 5.555556e+00	 1.013635e+01
0	 3.481481e+00	 5.185185e+00	 1.019198e+01
0	 3.481481e+00	 5.259259e+00	 1.018198e+01
0	 3.481481e+00	 5.333333e+00	 1.017241e+01
0	 3.481481e+00	 5.407407e+00	 1.016326e+01
0	 3.481481e+00	 5.481481e+00	 1.015455e+01
0	 3.481481e+00	 5.555556e+00	 1.014627e+01
0	 3.555556e+00	 5.185185e+00	 1.020180e+01
0	 3.555556e+00	 5.259259e+00	 1.019172e+01
0	 3.555556e+00	 5.333333e+00	 1.018205e+01
0	 3.555556e+00	 5.407407e+00	 1.017280e+01
0	 3.555556e+00	 5.481481e+00	 1.016396e+01
0	 3.555556e+00	 5.555556e+00	 1.015553e+01
0	 3.629630e+00	 5.185185e+00	 1.021083e+01
0	 3.629630e+00	 5.259259e+00	 1.020070e+01
0	 3.629630e+00	 5.333333e+00	 1.019097e+01
0	 3.629630e+00	 5.407407e+00	 1.018164e+01
0	 3.629630e+00	 5.481481e+00	 1.017270e+01
0	 3.629630e+00	 5.555556e+00	 1.016415e+01
0	 3.703704e+00	 5.185185e+00	 1.021910e+01
0	 3.703704e+00	 5.259259e+00	 1.020896e+01
0	 3.703704e+00	 5.333333e+00	 1.019919e+01
0	 3.703704e+00	 5.407407e+00	 1.018980e+01
0	 3.703704e+00	 5.481481e+00	 1.018079e+01
0	 3.703704e+00	 5.555556e+00	 1.017215e+01
0	 3.333333e+00	 5.555556e+00	 1.012575e+01
0	 3.333333e+00	 5.629630e+00	 1.011827e+01
0	 3.333333e+00	 5.703704e+00	 1.011114e+01
0	 3.333333e+00	 5.777778e+00	 1.010437e+01
0	 3.333333e+00	 5.851852e+00	 1.009797e+01
0	 3.333333e+00	 5.925926e+00	 1.009194e+01
0	 3.407407e+00	 5.555556e+00	 1.013635e+01
0	 3.407407e+00	 5.629630e+00	 1.012864e+01
0	 3.407407e+00	 5.703704e+00	 1.012129e+01
0	 3.407407e+00	 5.777778e+00	 1.011429e+01
0	 3.407407e+00	 5.851852e+00	 1.010765e+01
0	 3.407407e+00	 5.925926e+00	 1.010138e+01
0	 3.481481e+00	 5.555556e+00	 1.014627e+01
0	 3.481481e+00	 5.629630e+00	 1.013837e+01
0	 3.481481e+00	 5.703704e+00	 1.013083e+01
0	 3.481481e+00	 5.777778e+00	 1.012363e+01
0	 3.481481e+00	 5.851852e+00	 1.011678e+01
0	 3.481481e+00	 5.925926e+00	 1.011030e+01
0	 3.555556e+00	 5.555556e+00	 1.015553e+01
0	 3.555556e+00	 5.629630e+00	 1.014748e+01
0	 3.555556e+00	 5.703704e+00	 1.013976e+01
0	 3.555556e+00	 5.777778e+00	 1.013239e+01
0	 3.555556e+00	 5.851852e+00	 1.012537e+01
0	 3.555556e+00	 5.925926e+00	 1.011870e+01
0	 3.629630e+00	 5.555556e+00	 1.016415e+01
0	 3.629630e+00	 5.629630e+00	 1.015597e+01
0	 3.629630e+00	 5.703704e+00	 1.014811e+01
0	 3.629630e+00	 5.777778e+00	 1.014060e+01
0	 3.629630e+00	 5.851852e+00	 1.013342e+01
0	 3.629630e+00	 5.925926e+00	 1.012659e+01
0	 3.703704e+00	 5.555556e+00	 1.017215e+01
0	 3.703704e+00	 5.629630e+00	 1.016385e+01
0	 3.703704e+00	 5.703704e+00	 1.015589e+01
0	 3.703704e+00	 5.777778e+00	 1.014825e+01
0	 3.703704e+00	 5.851852e+00	 1.014094e+01
0	 3.703704e+00	 5.925926e+00	 1.013397e+01
0	 3.333333e+00	 5.925926e+00	 1.009194e+01
0	 3.333333e+00	 6.000000e+00	 1.008624e+01
0	 3.333333e+00	 6.074074e+00	 1.008083e+01
0	 3.333333e+00	 6.148148e+00	 1.007571e+01
0	 3.333333e+00	 6.222222e+00	 1.007089e+01
0	 3.333333e+00	 6.296296e+00	 1.006638e+01
0	 3.407407e+00	 5.925926e+00	 1.010138e+01
0	 3.407407e+00	 6.000000e+00	 1.009544e+01
0	 3.407407e+00	 6.074074e+00	 1.008978e+01
0	 3.407407e+00	 6.148148e+00	 1.008441e+01
0	 3.407407e+00	 6.222222e+00	 1.007934e+01
0	 3.407407e+00	 6.296296e+00	 1.007457e+01
0	 3.481481e+00	 5.925926e+00	 1.011030e+01
0	 3.481481e+00	 6.000000e+00	 1.010413e+01
0	 3.481481e+00	 6.074074e+00	 1.009826e+01
0	 3.481481e+00	 6.148148e+00	 1.009267e+01
0	 3.481481e+00	 6.222222e+00	 1.008737e+01
0	 3.481481e+00	 6.296296e+00	 1.008237e+01
0	 3.555556e+00	 5.925926e+00	 1.011870e+01
0	 3.555556e+00	 6.000000e+00	 1.011234e+01
0	 3.555556e+00	 6.074074e+00	 1.010627e+01
0	 3.555556e+00	 6.148148e+00	 1.010048e+01
0	 3.555556e+00	 6.222222e+00	 1.009497e+01
0	 3.555556e+00	 6.296296e+00	 1.008976e+01
0	 3.629630e+00	 5.925926e+00	 1.012659e+01
0	 3.629630e+00	 6.000000e+00	 1.012006e+01
0	 3.629630e+00	 6.074074e+00	 1.011381e+01
0	 3.629630e+00	 6.148148e+00	 1.010784e+01
0	 3.629630e+00	 6.222222e+00	 1.010215e+01
0	 3.629630e+00	 6.296296e+00	 1.009674e+01
0	 3.703704e+00	 5.925926e+00	 1.013397e+01
0	 3.703704e+00	 6.000000e+00	 1.012730e+01
0	 3.703704e+00	 6.074074e+00	 1.012089e+01
0	 3.703704e+00	 6.148148e+00	 1.011476e+01
0	 3.703704e+00	 6.222222e+00	 1.010890e+01
0	 3.703704e+00	 6.296296e+00	 1.010332e+01
0	 3.333333e+00	 6.296296e+00	 1.006638e+01
0	 3.333333e+00	 6.370370e+00	 1.006212e+01
0	 3.333333e+00	 6.444444e+00	 1.005809e+01
0	 3.333333e+00	 6.518519e+00	 1.005428e+01
0	 3.333333e+00	 6.592593e+00	 1.005071e+01
0	 3.333333e+00	 6.666667e+00	 1.004737e+01
0	 3.407407e+00	 6.296296e+00	 1.007457e+01
0	 3.407407e+00	 6.370370e+00	 1.007007e+01
0	 3.407407e+00	 6.444444e+00	 1.006578e+01
0	 3.407407e+00	 6.518519e+00	 1.006172e+01
0	 3.407407e+00	 6.592593e+00	 1.005789e+01
0	 3.407407e+00	 6.666667e+00	 1.005430e+01
0	 3.481481e+00	 6.296296e+00	 1.008237e+01
0	 3.481481e+00	 6.370370e+00	 1.007762e+01
0	 3.481481e+00	 6.444444e+00	 1.007310e+01
0	 3.481481e+00	 6.518519e+00	 1.006881e+01
0	 3.481481e+00	 6.592593e+00	 1.006475e+01
0	 3.481481e+00	 6.666667e+00	 1.006092e+01
0	 3.555556e+00	 6.296296e+00	 1.008976e+01
0	 3.555556e+00	 6.370370e+00	 1.008480e+01
0	 3.555556e+00	 6.444444e+00	 1.008006e+01
0	 3.555556e+00	 6.518519e+00	 1.007555e+01
0	 3.555556e+00	 6.592593e+00	 1.007127e+01
0	 3.555556e+00	 6.666667e+00	 1.006723e+01
0	 3.629630e+00	 6.296296e+00	 1.009674e+01
0	 3.629630e+00	 6.370370e+00	 1.009159e+01
0	 3.629630e+00	 6.444444e+00	 1.008666e+01
0	 3.629630e+00	 6.518519e+00	 1.008195e+01
0	 3.629630e+00	 6.592593e+00	 1.007747e+01
0	 3.629630e+00	 6.666667e+00	 1.007323e+01
0	 3.703704e+00	 6.296296e+00	 1.010332e+01
0	 3.703704e+00	 6.370370e+00	 1.009799e+01
0	 3.703704e+00	 6.444444e+00	 1.009288e+01
0	 3.703704e+00	 6.518519e+00	 1.008800e+01
0	 3.703704e+00	 6.592593e+00	 1.008334e+01
0	 3.703704e+00	 6.666667e+00	 1.007891e+01
0	 3.333333e+00	 6.666667e+00	 1.004737e+01
0	 3.333333e+00	 6.740741e+00	 1.004423e+01
0	 3.333333e+00	 6.814815e+00	 1.004126e+01
0	 3.333333e+00	 6.888889e+00	 1.003846e+01
0	 3.333333e+00	 6.962963e+00	 1.003584e+01
0	 3.333333e+00	 7.037037e+00	 1.003341e+01
0	 3.407407e+00	 6.666667e+00	 1.005430e+01
0	 3.407407e+00	 6.740741e+00	 1.005091e+01
0	 3.407407e+00	 6.814815e+00	 1.004769e+01
0	 3.407407e+00	 6.888889e+00	 1.004465e+01
0	 3.407407e+00	 6.962963e+00	 1.004179e+01
0	 3.407407e+00	 7.037037e+00	 1.003911e+01
0	 3.481481e+00	 6.666667e+00	 1.006092e+01
0	 3.481481e+00	 6.740741e+00	 1.005730e+01
0	 3.481481e+00	 6.814815e+00	 1.005385e+01
0	 3.481481e+00	 6.888889e+00	 1.005058e+01
0	 3.481481e+00	 6.962963e+00	 1.004749e+01
0	 3.481481e+00	 7.037037e+00	 1.004459e+01
0	 3.555556e+00	 6.666667e+00	 1.006723e+01
0	 3.555556e+00	 6.740741e+00	 1.006339e+01
0	 3.555556e+00	 6.814815e+00	 1.005973e+01
0	 3.555556e+00	 6.888889e+00	 1.005625e+01
0	 3.555556e+00	 6.962963e+00	 1.005294e+01
0	 3.555556e+00	 7.037037e+00	 1.004983e+01
0	 3.629630e+00	 6.666667e+00	 1.007323e+01
0	 3.629630e+00	 6.740741e+00	 1.006919e+01
0	 3.629630e+00	 6.814815e+00	 1.006533e+01
0	 3.629630e+00	 6.888889e+00	 1.006164e+01
0	 3.629630e+00	 6.962963e+00	 1.005814e+01
0	 3.629630e+00	 7.037037e+00	 1.005483e+01
0	 3.703704e+00	 6.666667e+00	 1.007891e+01
0	 3.703704e+00	 6.740741e+00	 1.007469e+01
0	 3.703704e+00	 6.814815e+00	 1.007064e+01
0	 3.703704e+00	 6.888889e+00	 1.006677e+01
0	 3.703704e+00	 6.962963e+00	 1.006308e+01
0	 3.703704e+00	 7.037037e+00	 1.005958e+01
0	 3.333333e+00	 7.037037e+00	 1.003341e+01
0	 3.333333e+00	 7.111111e+00	 1.003113e+01
0	 3.333333e+00	 7.185185e+00	 1.002897e+01
0	 3.333333e+00	 7.259259e+00	 1.002694e+01
0	 3.333333e+00	 7.333333e+00	 1.002505e+01
0	 3.333333e+00	 7.407407e+00	 1.002329e+01
0	 3.407407e+00	 7.037037e+00	 1.003911e+01
0	 3.407407e+00	 7.111111e+00	 1.003659e+01
0	 3.407407e+00	 7.185185e+00	 1.003420e+01
0	 3.407407e+00	 7.259259e+00	 1.003195e+01
0	 3.407407e+00	 7.333333e+00	 1.002982e+01
0	 3.407407e+00	 7.407407e+00	 1.002784e+01
0	 3.481481e+00	 7.037037e+00	 1.004459e+01
0	 3.481481e+00	 7.111111e+00	 1.004184e+01
0	 3.481481e+00	 7.185185e+00	 1.003923e+01
0	 3.481481e+00	 7.259259e+00	 1.003676e+01
0	 3.481481e+00	 7.333333e+00	 1.003442e+01
0	 3.481481e+00	 7.407407e+00	 1.003222e+01
0	 3.555556e+00	 7.037037e+00	 1.004983e+01
0	 3.555556e+00	 7.111111e+00	 1.004687e+01
0	 3.555556e+00	 7.185185e+00	 1.004405e+01
0	 3.555556e+00	 7.259259e+00	 1.004137e+01
0	 3.555556e+00	 7.333333e+00	 1.003883e+01
0	 3.555556e+00	 7.407407e+00	 1.003643e+01
0	 3.629630e+00	 7.037037e+00	 1.005483e+01
0	 3.629630e+00	 7.111111e+00	 1.005167e+01
0	 3.629630e+00	 7.185185e+00	 1.004866e+01
0	 3.629630e+00	 7.259259e+00	 1.004578e+01
0	 3.629630e+00	 7.333333e+00	 1.004305e+01
0	 3.629630e+00	 7.407407e+00	 1.004046e+01
0	 3.703704e+00	 7.037037e+00	 1.005958e+01
0	 3.703704e+00	 7.111111e+00	 1.005624e+01
0	 3.703704e+00	 7.185185e+00	 1.005304e+01
0	 3.703704e+00	 7.259259e+00	 1.004998e+01
0	 3.703704e+00	 7.333333e+00	 1.004707e+01
0	 3.703704e+00	 7.407407e+00	 1.004430e+01
0	 3.333333e+00	 7.407407e+00	 1.002329e+01
0	 3.333333e+00	 7.481481e+00	 1.002165e+01
0	 3.333333e+00	 7.555556e+00	 1.002009e+01
0	 3.333333e+00	 7.629630e+00	 1.001863e+01
0	 3.333333e+00	 7.703704e+00	 1.001727e+01
0	 3.333333e+00	 7.777778e+00	 1.001601e+01
0	 3.407407e+00	 7.407407e+00	 1.002784e+01
0	 3.407407e+00	 7.481481e+00	 1.002598e+01
0	 3.407407e+00	 7.555556e+00	 1.002421e+01
0	 3.407407e+00	 7.629630e+00	 1.002254e+01
0	 3.407407e+00	 7.703704e+00	 1.002097e+01
0	 3.407407e+00	 7.777778e+00	 1.001950e+01
0	 3.481481e+00	 7.407407e+00	 1.003222e+01
0	 3.481481e+00	 7.481481e+00	 1.003015e+01
0	 3.481481e+00	 7.555556e+00	 1.002817e+01
0	 3.481481e+00	 7.629630e+00	 1.002630e+01
0	 3.481481e+00	 7.703704e+00	 1.002453e+01
0	 3.481481e+00	 7.777778e+00	 1.002287e+01
0	 3.555556e+00	 7.407407e+00	 1.003643e+01
0	 3.555556e+00	 7.481481e+00	 1.003416e+01
0	 3.555556e+00	 7.555556e+00	 1.003199e+01
0	 3.555556e+00	 7.629630e+00	 1.002992e+01
0	 3.555556e+00	 7.703704e+00	 1.002796e+01
0	 3.555556e+00	 7.777778e+00	 1.002612e+01
0	 3.629630e+00	 7.407407e+00	 1.004046e+01
0	 3.629630e+00	 7.481481e+00	 1.003800e+01
0	 3.629630e+00	 7.555556e+00	 1.003564e+01
0	 3.629630e+00	 7.629630e+00	 1.003339e+01
0	 3.629630e+00	 7.703704e+00	 1.003125e+01
0	 3.629630e+00	 7.777778e+00	 1.002923e+01
0	 3.703704e+00	 7.407407e+00	 1.004430e+01
0	 3.703704e+00	 7.481481e+00	 1.004166e+01
0	 3.703704e+00	 7.555556e+00	 1.003913e+01
0	 3.703704e+00	 7.629630e+00	 1.003671e+01
0	 3.703704e+00	 7.703704e+00	 1.003440e+01
0	 3.703704e+00	 7.777778e+00	 1.003220e+01
0	 3.333333e+00	 7.777778e+00	 1.001601e+01
0	 3.333333e+00	 7.851852e+00	 1.001483e+01
0	 3.333333e+00	 7.925926e+00	 1.001371e+01
0	 3.333333e+00	 8.000000e+00	 1.001266e+01
0	 3.333333e+00	 8.074074e+00	 1.001168e+01
0	 3.333333e+00	 8.148148e+00	 1.001077e+01
0	 3.407407e+00	 7.777778e+00	 1.001950e+01
0	 3.407407e+00	 7.851852e+00	 1.001812e+01
0	 3.407407e+00	 7.925926e+00	 1.001681e+01
0	 3.407407e+00	 8.000000e+00	 1.001557e+01
0	 3.407407e+00	 8.074074e+00	 1.001440e+01
0	 3.407407e+00	 8.148148e+00	 1.001331e+01
0	 3.481481e+00	 7.777778e+00	 1.002287e+01
0	 3.481481e+00	 7.851852e+00	 1.002130e+01
0	 3.481481e+00	 7.925926e+00	 1.001980e+01
0	 3.481481e+00	 8.000000e+00	 1.001838e+01
0	 3.481481e+00	 8.074074e+00	 1.001703e+01
0	 3.481481e+00	 8.148148e+00	 1.001577e+01
0	 3.555556e+00	 7.777778e+00	 1.002612e+01
0	 3.555556e+00	 7.851852e+00	 1.002436e+01
0	 3.555556e+00	 7.925926e+00	 1.002269e+01
0	 3.555556e+00	 8.000000e+00	 1.002109e+01
0	 3.555556e+00	 8.074074e+00	 1.001957e+01
0	 3.555556e+00	 8.148148e+00	 1.001814e+01
0	 3.629630e+00	 7.777778e+00	 1.002923e+01
0	 3.629630e+00	 7.851852e+00	 1.002730e+01
0	 3.629630e+00	 7.925926e+00	 1.002545e+01
0	 3.629630e+00	 8.000000e+00	 1.002369e+01
0	 3.629630e+00	 8.074074e+00	 1.002201e+01
0	 3.629630e+00	 8.148148e+00	 1.002041e+01
0	 3.703704e+00	 7.777778e+00	 1.003220e+01
0	 3.703704e+00	 7.851852e+00	 1.003011e+01
0	 3.703704e+00	 7.925926e+00	 1.002810e+01
0	 3.703704e+00	 8.000000e+00	 1.002618e+01
0	 3.703704e+00	 8.074074e+00	 1.002434e+01
0	 3.703704e+00	 8.148148e+00	 1.002259e+01
0	 3.333333e+00	 8.148148e+00	 1.001077e+01
0	 3.333333e+00	 8.222222e+00	 1.000991e+01
0	 3.333333e+00	 8.296296e+00	 1.000910e+01
0	 3.333333e+00	 8.370370e+00	 1.000834e+01
0	 3.333333e+00	 8.444444e+00	 1.000762e+01
0	 3.333333e+00	 8.518519e+00	 1.000695e+01
0	 3.407407e+00	 8.148148e+00	 1.001331e+01
0	 3.407407e+00	 8.222222e+00	 1.001228e+01
0	 3.407407e+00	 8.296296e+00	 1.001130e+01
0	 3.407407e+00	 8.370370e+00	 1.001037e+01
0	 3.407407e+00	 8.444444e+00	 1.000949e+01
0	 3.407407e+00	 8.518519e+00	 1.000866e+01
0	 3.481481e+00	 8.148148e+00	 1.001577e+01
0	 3.481481e+00	 8.222222e+00	 1.001457e+01
0	 3.481481e+00	 8.296296e+00	 1.001342e+01
0	 3.481481e+00	 8.370370e+00	 1.001233e+01
0	 3.481481e+00	 8.444444e+00	 1.001130e+01
0	 3.481481e+00	 8.518519e+00	 1.001032e+01
0	 3.555556e+00	 8.148148e+00	 1.001814e+01
0	 3.555556e+00	 8.222222e+00	 1.001678e+01
0	 3.555556e+00	 8.296296e+00	 1.001547e+01
0	 3.555556e+00	 8.370370e+00	 1.001423e+01
0	 3.555556e+00	 8.444444e+00	 1.001305e+01
0	 3.555556e+00	 8.518519e+00	 1.001193e+01
0	 3.629630e+00	 8.148148e+00	 1.002041e+01
0	 3.629630e+00	 8.222222e+00	 1.001890e+01
0	 3.629630e+00	 8.296296e+00	 1.001744e+01
0	 3.629630e+00	 8.370370e+00	 1.001605e+01
0	 3.629630e+00	 8.444444e+00	 1.001472e+01
0	 3.629630e+00	 8.518519e+00	 1.001346e+01
0	 3.703704e+00	 8.148148e+00	 1.002259e+01
0	 3.703704e+00	 8.222222e+00	 1.002092e+01
0	 3.703704e+00	 8.296296e+00	 1.001932e+01
0	 3.703704e+00	 8.370370e+00	 1.001779e+01
0	 3.703704e+00	 8.444444e+00	 1.001633e+01
0	 3.703704e+00	 8.518519e+00	 1.001494e+01
0	 3.333333e+00	 8.518519e+00	 1.000695e+01
0	 3.333333e+00	 8.592593e+00	 1.000632e+01
0	 3.333333e+00	 8.666667e+00	 1.000573e+01
0	 3.333333e+00	 8.740741e+00	 1.000516e+01
0	 3.333333e+00	 8.814815e+00	 1.000463e+01
0	 3.333333e+00	 8.888889e+00	 1.000412e+01
0	 3.407407e+00	 8.518519e+00	 1.000866e+01
0	 3.407407e+00	 8.592593e+00	 1.000788e+01
0	 3.407407e+00	 8.666667e+00	 1.000714e+01
0	 3.407407e+00	 8.740741e+00	 1.000644e+01
0	 3.407407e+00	 8.814815e+00	 1.000577e+01
0	 3.407407e+00	 8.888889e+00	 1.000514e+01
0	 3.481481e+00	 8.518519e+00	 1.001032e+01
0	 3.481481e+00	 8.592593e+00	 1.000940e+01
0	 3.481481e+00	 8.666667e+00	 1.000852e+01
0	 3.481481e+00	 8.740741e+00	 1.000768e+01
0	 3.481481e+00	 8.814815e+00	 1.000688e+01
0	 3.481481e+00	 8.888889e+00	 1.000613e+01
0	 3.555556e+00	 8.518519e+00	 1.001193e+01
0	 3.555556e+00	 8.592593e+00	 1.001086e+01
0	 3.555556e+00	 8.666667e+00	 1.000984e+01
0	 3.555556e+00	 8.740741e+00	 1.000888e+01
0	 3.555556e+00	 8.814815e+00	 1.000796e+01
0	 3.555556e+00	 8.888889e+00	 1.000709e+01
0	 3.629630e+00	 8.518519e+00	 1.001346e+01
0	 3.629630e+00	 8.592593e+00	 1.001226e+01
0	 3.629630e+00	 8.666667e+00	 1.001112e+01
0	 3.629630e+00	 8.740741e+00	 1.001003e+01
0	 3.629630e+00	 8.814815e+00	 1.000899e+01
0	 3.629630e+00	 8.888889e+00	 1.000800e+01
0	 3.703704e+00	 8.518519e+00	 1.001494e+01
0	 3.703704e+00	 8.592593e+00	 1.001361e+01
0	 3.703704e+00	 8.666667e+00	 1.001234e+01
0	 3.703704e+00	 8.740741e+00	 1.001113e+01
0	 3.703704e+00	 8.814815e+00	 1.000998e+01
0	 3.703704e+00	 8.888889e+00	 1.000888e+01
0	 3.333333e+00	 8.888889e+00	 1.000412e+01
0	 3.333333e+00	 8.962963e+00	 1.000365e+01
0	 3.333333e+00	 9.037037e+00	 1.000321e+01
0	 3.333333e+00	 9.111111e+00	 1.000279e+01
0	 3.333333e+00	 9.185185e+00	 1.000239e+01
0	 3.333333e+00	 9.259259e+00	 1.000202e+01
0	 3.407407e+00	 8.888889e+00	 1.000514e+01
0	 3.407407e+00	 8.962963e+00	 1.000455e+01
0	 3.407407e+00	 9.037037e+00	 1.000399e+01
0	 3.407407e+00	 9.111111e+00	 1.000346e+01
0	 3.407407e+00	 9.185185e+00	 1.000296e+01
0	 3.407407e+00	 9.259259e+00	 1.000250e+01
0	 3.481481e+00	 8.888889e+00	 1.000613e+01
0	 3.481481e+00	 8.962963e+00	 1.000542e+01
0	 3.481481e+00	 9.037037e+00	 1.000475e+01
0	 3.481481e+00	 9.111111e+00	 1.000412e+01
0	 3.481481e+00	 9.185185e+00	 1.000352e+01
0	 3.481481e+00	 9.259259e+00	 1.000296e+01
0	 3.555556e+00	 8.888889e+00	 1.000709e+01
0	 3.555556e+00	 8.962963e+00	 1.000626e+01
0	 3.555556e+00	 9.037037e+00	 1.000548e+01
0	 3.555556e+00	 9.111111e+00	 1.000475e+01
0	 3.555556e+00	 9.185185e+00	 1.000406e+01
0	 3.555556e+00	 9.259259e+00	 1.000342e+01
0	 3.629630e+00	 8.888889e+00	 1.000800e+01
0	 3.629630e+00	 8.962963e+00	 1.000707e+01
0	 3.629630e+00	 9.037037e+00	 1.000619e+01
0	 3.629630e+00	 9.111111e+00	 1.000536e+01
0	 3.629630e+00	 9.185185e+00	 1.000458e+01
0	 3.629630e+00	 9.259259e+00	 1.000385e+01
0	 3.703704e+00	 8.888889e+00	 1.000888e+01
0	 3.703704e+00	 8.962963e+00	 1.000784e+01
0	 3.703704e+00	 9.037037e+00	 1.000686e+01
0	 3.703704e+00	 9.111111e+00	 1.000594e+01
0	 3.703704e+00	 9.185185e+00	 1.000508e+01
0	 3.703704e+00	 9.259259e+00	 1.000426e+01
0	 3.333333e+00	 9.259259e+00	 1.000202e+01
0	 3.333333e+00	 9.333333e+00	 1.000167e+01
0	 3.333333e+00	 9.407407e+00	 1.000136e+01
0	 3.333333e+00	 9.481481e+00	 1.000107e+01
0	 3.333333e+00	 9.555556e+00	 1.000081e+01
0	 3.333333e+00	 9.629630e+00	 1.000058e+01
0	 3.407407e+00	 9.259259e+00	 1.000250e+01
0	 3.407407e+00	 9.333333e+00	 1.000206e+01
0	 3.407407e+00	 9.407407e+00	 1.000167e+01
0	 3.407407e+00	 9.481481e+00	 1.000132e+01
0	 3.407407e+00	 9.555556e+00	 1.000099e+01
0	 3.407407e+00	 9.629630e+00	 1.000070e+01
0	 3.481481e+00	 9.259259e+00	 1.000296e+01
0	 3.481481e+00	 9.333333e+00	 1.000245e+01
0	 3.481481e+00	 9.407407e+00	 1.000198e+01
0	 3.481481e+00	 9.481481e+00	 1.000156e+01
0	 3.481481e+00	 9.555556e+00	 1.000117e+01
0	 3.481481e+00	 9.629630e+00	 1.000083e+01
0	 3.555556e+00	 9.259259e+00	 1.000342e+01
0	 3.555556e+00	 9.333333e+00	 1.000282e+01
0	 3.555556e+00	 9.407407e+00	 1.000228e+01
0	 3.555556e+00	 9.481481e+00	 1.000179e+01
0	 3.555556e+00	 9.555556e+00	 1.000135e+01
0	 3.555556e+00	 9.629630e+00	 1.000095e+01
0	 3.629630e+00	 9.259259e+00	 1.000385e+01
0	 3.629630e+00	 9.333333e+00	 1.000318e+01
0	 3.629630e+00	 9.407407e+00	 1.000256e+01
0	 3.629630e+00	 9.481481e+00	 1.000201e+01
0	 3.629630e+00	 9.555556e+00	 1.000152e+01
0	 3.629630e+00	 9.629630e+00	 1.000107e+01
0	 3.703704e+00	 9.259259e+00	 1.000426e+01
0	 3.703704e+00	 9.333333e+00	 1.000351e+01
0	 3.703704e+00	 9.407407e+00	 1.000283e+01
0	 3.703704e+00	 9.481481e+00	 1.000222e+01
0	 3.703704e+00	 9.555556e+00	 1.000167e+01
0	 3.703704e+00	 9.629630e+00	 1.000118e+01
0	 3.333333e+00	 9.629630e+00	 1.000058e+01
0	 3.333333e+00	 9.703704e+00	 1.000038e+01
0	 3.333333e+00	 9.777778e+00	 1.000022e+01
0	 3.333333e+00	 9.851852e+00	 1.000011e+01
0	 3.333333e+00	 9.925926e+00	 1.000003e+01
0	 3.333333e+00	 1.000000e+01	 9.999985e+00
0	 3.407407e+00	 9.629630e+00	 1.000070e+01
0	 3.407407e+00	 9.703704e+00	 1.000045e+01
0	 3.407407e+00	 9.777778e+00	 1.000026e+01
0	 3.407407e+00	 9.851852e+00	 1.000012e+01
0	 3.407407e+00	 9.925926e+00	 1.000003e+01
0	 3.407407e+00	 1.000000e+01	 9.999978e+00
0	 3.481481e+00	 9.629630e+00	 1.000083e+01
0	 3.481481e+00	 9.703704e+00	 1.000053e+01
0	 3.481481e+00	 9.777778e+00	 1.000031e+01
0	 3.481481e+00	 9.851852e+00	 1.000015e+01
0	 3.481481e+00	 9.925926e+00	 1.000004e+01
0	 3.481481e+00	 1.000000e+01	 9.999979e+00
0	 3.555556e+00	 9.629630e+00	 1.000095e+01
0	 3.555556e+00	 9.703704e+00	 1.000062e+01
0	 3.555556e+00	 9.777778e+00	 1.000036e+01
0	 3.555556e+00	 9.851852e+00	 1.000017e+01
0	 3.555556e+00	 9.925926e+00	 1.000005e+01
0	 3.555556e+00	 1.000000e+01	 9.999983e+00
0	 3.629630e+00	 9.629630e+00	 1.000107e+01
0	 3.629630e+00	 9.703704e+00	 1.000069e+01
0	 3.629630e+00	 9.777778e+00	 1.000040e+01
0	 3.629630e+00	 9.851852e+00	 1.000020e+01
0	 3.629630e+00	 9.925926e+00	 1.000006e+01
0	 3.629630e+00	 1.000000e+01	 9.999985e+00
0	 3.703704e+00	 9.629630e+00	 1.000118e+01
0	 3.703704e+00	 9.703704e+00	 1.000076e+01
0	 3.703704e+00	 9.777778e+00	 1.000044e+01
0	 3.703704e+00	 9.851852e+00	 1.000021e+01
0	 3.703704e+00	 9.925926e+00	 1.000006e+01
0	 3.703704e+00	 1.000000e+01	 9.999980e+00
0	 3.703704e+00	 0.000000e+00	 1.060219e+01
0	 3.703704e+00	 7.407407e-02	 1.060748e+01
0	 3.703704e+00	 1.481481e-01	 1.061343e+01
0	 3.703704e+00	 2.222222e-01	 1.062054e+01
0	 3.703704e+00	 2.962963e-01	 1.062934e+01
0	 3.703704e+00	 3.703704e-01	 1.064035e+01
0	 3.777778e+00	 0.000000e+00	 1.057148e+01
0	 3.777778e+00	 7.407407e-02	 1.057652e+01
0	 3.777778e+00	 1.481481e-01	 1.058291e+01
0	 3.777778e+00	 2.222222e-01	 1.059089e+01
0	 3.777778e+00	 2.962963e-01	 1.060068e+01
0	 3.777778e+00	 3.703704e-01	 1.061253e+01
0	 3.851852e+00	 0.000000e+00	 1.055003e+01
0	 3.851852e+00	 7.407407e-02	 1.055365e+01
0	 3.851852e+00	 1.481481e-01	 1.055908e+01
0	 3.851852e+00	 2.222222e-01	 1.056636e+01
0	 3.851852e+00	 2.962963e-01	 1.057552e+01
0	 3.851852e+00	 3.703704e-01	 1.058662e+01
0	 3.925926e+00	 0.000000e+00	 1.053475e+01
0	 3.925926e+00	 7.407407e-02	 1.053642e+01
0	 3.925926e+00	 1.481481e-01	 1.054014e+01
0	 3.925926e+00	 2.222222e-01	 1.054582e+01
0	 3.925926e+00	 2.962963e-01	 1.055338e+01
0	 3.925926e+00	 3.703704e-01	 1.056274e+01
0	 4.000000e+00	 0.000000e+00	 1.052253e+01
0	 4.000000e+00	 7.407407e-02	 1.052241e+01
0	 4.000000e+00	 1.481481e-01	 1.052432e+01
0	 4.000000e+00	 2.222222e-01	 1.052814e+01
0	 4.000000e+00	 2.962963e-01	 1.053376e+01
0	 4.000000e+00	 3.703704e-01	 1.054106e+01
0	 4.074074e+00	 0.000000e+00	 1.051027e+01
0	 4.074074e+00	 7.407407e-02	 1.050917e+01
0	 4.074074e+00	 1.481481e-01	 1.050984e+01
0	 4.074074e+00	 2.222222e-01	 1.051220e+01
0	 4.074074e+00	 2.962963e-01	 1.051618e+01
0	 4.074074e+00	 3.703704e-01	 1.052171e+01
0	 3.703704e+00	 3.703704e-01	 1.064035e+01
0	 3.703704e+00	 4.444444e-01	 1.065263e+01
0	 3.703704e+00	 5.185185e-01	 1.066501e+01
0	 3.703704e+00	 5.925926e-01	 1.067764e+01
0	 3.703704e+00	 6.666667e-01	 1.069067e+01
0	 3.703704e+00	 7.407407e-01	 1.070427e+01
0	 3.777778e+00	 3.703704e-01	 1.061253e+01
0	 3.777778e+00	 4.444444e-01	 1.062525e+01
0	 3.777778e+00	 5.185185e-01	 1.063765e+01
0	 3.777778e+00	 5.925926e-01	 1.064994e+01
0	 3.777778e+00	 6.666667e-01	 1.066232e+01
0	 3.777778e+00	 7.407407e-01	 1.067502e+01
0	 3.851852e+00	 3.703704e-01	 1.058662e+01
0	 3.851852e+00	 4.444444e-01	 1.059848e+01
0	 3.851852e+00	 5.185185e-01	 1.061010e+01
0	 3.851852e+00	 5.925926e-01	 1.062172e+01
0	 3.851852e+00	 6.666667e-01	 1.063360e+01
0	 3.851852e+00	 7.407407e-01	 1.064598e+01
0	 3.925926e+00	 3.703704e-01	 1.056274e+01
0	 3.925926e+00	 4.444444e-01	 1.057297e+01
0	 3.925926e+00	 5.185185e-01	 1.058334e+01
0	 3.925926e+00	 5.925926e-01	 1.059412e+01
0	 3.925926e+00	 6.666667e-01	 1.060556e+01
0	 3.925926e+00	 7.407407e-01	 1.061793e+01
0	 4.000000e+00	 3.703704e-01	 1.054106e+01
0	 4.000000e+00	 4.444444e-01	 1.054940e+01
0	 4.000000e+00	 5.185185e-01	 1.055838e+01
0	 4.000000e+00	 5.925926e-01	 1.056825e+01
0	 4.000000e+00	 6.666667e-01	 1.057925e+01
0	 4.000000e+00	 7.407407e-01	 1.059163e+01
0	 4.074074e+00	 3.703704e-01	 1.052171e+01
0	 4.074074e+00	 4.444444e-01	 1.052843e+01
0	 4.074074e+00	 5.185185e-01	 1.053620e+01
0	 4.074074e+00	 5.925926e-01	 1.054522e+01
0	 4.074074e+00	 6.666667e-01	 1.055570e+01
0	 4.074074e+00	 7.407407e-01	 1.056785e+01
0	 3.703704e+00	 7.407407e-01	 1.070427e+01
0	 3.703704e+00	 8.148148e-01	 1.071791e+01
0	 3.703704e+00	 8.888889e-01	 1.073122e+01
0	 3.703704e+00	 9.629630e-01	 1.074457e+01
0	 3.703704e+00	 1.037037e+00	 1.075833e+01
0	 3.703704e+00	 1.111111e+00	 1.077286e+01
0	 3.777778e+00	 7.407407e-01	 1.067502e+01
0	 3.777778e+00	 8.148148e-01	 1.068783e+01
0	 3.777778e+00	 8.888889e-01	 1.070058e+01
0	 3.777778e+00	 9.629630e-01	 1.071355e+01
0	 3.777778e+00	 1.037037e+00	 1.072699e+01
0	 3.777778e+00	 1.111111e+00	 1.074118e+01
0	 3.851852e+00	 7.407407e-01	 1.064598e+01
0	 3.851852e+00	 8.148148e-01	 1.065863e+01
0	 3.851852e+00	 8.888889e-01	 1.067127e+01
0	 3.851852e+00	 9.629630e-01	 1.068411e+01
0	 3.851852e+00	 1.037037e+00	 1.069734e+01
0	 3.851852e+00	 1.111111e+00	 1.071116e+01
0	 3.925926e+00	 7.407407e-01	 1.061793e+01
0	 3.925926e+00	 8.148148e-01	 1.063074e+01
0	 3.925926e+00	 8.888889e-01	 1.064347e+01
0	 3.925926e+00	 9.629630e-01	 1.065627e+01
0	 3.925926e+00	 1.037037e+00	 1.066928e+01
0	 3.925926e+00	 1.111111e+00	 1.068267e+01
0	 4.000000e+00	 7.407407e-01	 1.059163e+01
0	 4.000000e+00	 8.148148e-01	 1.060461e+01
0	 4.000000e+00	 8.888889e-01	 1.061735e+01
0	 4.000000e+00	 9.629630e-01	 1.063000e+01
0	 4.000000e+00	 1.037037e+00	 1.064269e+01
0	 4.000000e+00	 1.111111e+00	 1.065557e+01
0	 4.074074e+00	 7.407407e-01	 1.056785e+01
0	 4.074074e+00	 8.148148e-01	 1.058067e+01
0	 4.074074e+00	 8.888889e-01	 1.059309e+01
0	 4.074074e+00	 9.629630e-01	 1.060530e+01
0	 4.074074e+00	 1.037037e+00	 1.061745e+01
0	 4.074074e+00	 1.111111e+00	 1.062971e+01
0	 3.703704e+00	 1.111111e+00	 1.077286e+01
0	 3.703704e+00	 1.185185e+00	 1.078701e+01
0	 3.703704e+00	 1.259259e+00	 1.079955e+01
0	 3.703704e+00	 1.333333e+00	 1.081068e+01
0	 3.703704e+00	 1.407407e+00	 1.082060e+01
0	 3.703704e+00	 1.481481e+00	 1.082952e+01
0	 3.777778e+00	 1.111111e+00	 1.074118e+01
0	 3.777778e+00	 1.185185e+00	 1.075497e+01
0	 3.777778e+00	 1.259259e+00	 1.076722e+01
0	 3.777778e+00	 1.333333e+00	 1.077817e+01
0	 3.777778e+00	 1.407407e+00	 1.078805e+01
0	 3.777778e+00	 1.481481e+00	 1.079709e+01
0	 3.851852e+00	 1.111111e+00	 1.071116e+01
0	 3.851852e+00	 1.185185e+00	 1.072453e+01
0	 3.851852e+00	 1.259259e+00	 1.073648e+01
0	 3.851852e+00	 1.333333e+00	 1.074724e+01
0	 3.851852e+00	 1.407407e+00	 1.075706e+01
0	 3.851852e+00	 1.481481e+00	 1.076621e+01
0	 3.925926e+00	 1.111111e+00	 1.068267e+01
0	 3.925926e+00	 1.185185e+00	 1.069557e+01
0	 3.925926e+00	 1.259259e+00	 1.070718e+01
0	 3.925926e+00	 1.333333e+00	 1.071775e+01
0	 3.925926e+00	 1.407407e+00	 1.072752e+01
0	 3.925926e+00	 1.481481e+00	 1.073674e+01
0	 4.000000e+00	 1.111111e+00	 1.065557e+01
0	 4.000000e+00	 1.185185e+00	 1.066795e+01
0	 4.000000e+00	 1.259259e+00	 1.067922e+01
0	 4.000000e+00	 1.333333e+00	 1.068960e+01
0	 4.000000e+00	 1.407407e+00	 1.069931e+01
0	 4.000000e+00	 1.481481e+00	 1.070857e+01
0	 4.074074e+00	 1.111111e+00	 1.062971e+01
0	 4.074074e+00	 1.185185e+00	 1.064155e+01
0	 4.074074e+00	 1.259259e+00	 1.065247e+01
0	 4.074074e+00	 1.333333e+00	 1.066265e+01
0	 4.074074e+00	 1.407407e+00	 1.067229e+01
0	 4.074074e+00	 1.481481e+00	 1.068157e+01
0	 3.703704e+00	 1.481481e+00	 1.082952e+01
0	 3.703704e+00	 1.555556e+00	 1.083705e+01
0	 3.703704e+00	 1.629630e+00	 1.084272e+01
0	 3.703704e+00	 1.703704e+00	 1.084663e+01
0	 3.703704e+00	 1.777778e+00	 1.084885e+01
0	 3.703704e+00	 1.851852e+00	 1.084948e+01
0	 3.777778e+00	 1.481481e+00	 1.079709e+01
0	 3.777778e+00	 1.555556e+00	 1.080490e+01
0	 3.777778e+00	 1.629630e+00	 1.081097e+01
0	 3.777778e+00	 1.703704e+00	 1.081540e+01
0	 3.777778e+00	 1.777778e+00	 1.081828e+01
0	 3.777778e+00	 1.851852e+00	 1.081970e+01
0	 3.851852e+00	 1.481481e+00	 1.076621e+01
0	 3.851852e+00	 1.555556e+00	 1.077425e+01
0	 3.851852e+00	 1.629630e+00	 1.078066e+01
0	 3.851852e+00	 1.703704e+00	 1.078555e+01
0	 3.851852e+00	 1.777778e+00	 1.078901e+01
0	 3.851852e+00	 1.851852e+00	 1.079112e+01
0	 3.925926e+00	 1.481481e+00	 1.073674e+01
0	 3.925926e+00	 1.555556e+00	 1.074497e+01
0	 3.925926e+00	 1.629630e+00	 1.075168e+01
0	 3.925926e+00	 1.703704e+00	 1.075696e+01
0	 3.925926e+00	 1.777778e+00	 1.076092e+01
0	 3.925926e+00	 1.851852e+00	 1.076364e+01
0	 4.000000e+00	 1.481481e+00	 1.070857e+01
0	 4.000000e+00	 1.555556e+00	 1.071694e+01
0	 4.000000e+00	 1.629630e+00	 1.072388e+01
0	 4.000000e+00	 1.703704e+00	 1.072949e+01
0	 4.000000e+00	 1.777778e+00	 1.073388e+01
0	 4.000000e+00	 1.851852e+00	 1.073713e+01
0	 4.074074e+00	 1.481481e+00	 1.068157e+01
0	 4.074074e+00	 1.555556e+00	 1.069002e+01
0	 4.074074e+00	 1.629630e+00	 1.069713e+01
0	 4.074074e+00	 1.703704e+00	 1.070301e+01
0	 4.074074e+00	 1.777778e+00	 1.070775e+01
0	 4.074074e+00	 1.851852e+00	 1.071146e+01
0	 3.703704e+00	 1.851852e+00	 1.084948e+01
0	 3.703704e+00	 1.925926e+00	 1.084850e+01
0	 3.703704e+00	 2.000000e+00	 1.084586e+01
0	 3.703704e+00	 2.074074e+00	 1.084159e+01
0	 3.703704e+00	 2.148148e+00	 1.083571e+01
0	 3.703704e+00	 2.222222e+00	 1.082826e+01
0	 3.777778e+00	 1.851852e+00	 1.081970e+01
0	 3.777778e+00	 1.925926e+00	 1.081964e+01
0	 3.777778e+00	 2.000000e+00	 1.081805e+01
0	 3.777778e+00	 2.074074e+00	 1.081495e+01
0	 3.777778e+00	 2.148148e+00	 1.081035e+01
0	 3.777778e+00	 2.222222e+00	 1.080426e+01
0	 3.851852e+00	 1.851852e+00	 1.079112e+01
0	 3.851852e+00	 1.925926e+00	 1.079188e+01
0	 3.851852e+00	 2.000000e+00	 1.079119e+01
0	 3.851852e+00	 2.074074e+00	 1.078907e+01
0	 3.851852e+00	 2.148148e+00	 1.078554e+01
0	 3.851852e+00	 2.222222e+00	 1.078062e+01
0	 3.925926e+00	 1.851852e+00	 1.076364e+01
0	 3.925926e+00	 1.925926e+00	 1.076510e+01
0	 3.925926e+00	 2.000000e+00	 1.076518e+01
0	 3.925926e+00	 2.074074e+00	 1.076391e+01
0	 3.925926e+00	 2.148148e+00	 1.076129e+01
0	 3.925926e+00	 2.222222e+00	 1.075733e+01
0	 4.000000e+00	 1.851852e+00	 1.073713e+01
0	 4.000000e+00	 1.925926e+00	 1.073920e+01
0	 4.000000e+00	 2.000000e+00	 1.073994e+01
0	 4.000000e+00	 2.074074e+00	 1.073939e+01
0	 4.000000e+00	 2.148148e+00	 1.073755e+01
0	 4.000000e+00	 2.222222e+00	 1.073444e+01
0	 4.074074e+00	 1.851852e+00	 1.071146e+01
0	 4.074074e+00	 1.925926e+00	 1.071406e+01
0	 4.074074e+00	 2.000000e+00	 1.071538e+01
0	 4.074074e+00	 2.074074e+00	 1.071547e+01
0	 4.074074e+00	 2.148148e+00	 1.071432e+01
0	 4.074074e+00	 2.222222e+00	 1.071198e+01
0	 3.703704e+00	 2.222222e+00	 1.082826e+01
0	 3.703704e+00	 2.296296e+00	 1.081947e+01
0	 3.703704e+00	 2.370370e+00	 1.080953e+01
0	 3.703704e+00	 2.444444e+00	 1.079836e+01
0	 3.703704e+00	 2.518519e+00	 1.078589e+01
0	 3.703704e+00	 2.592593e+00	 1.077203e+01
0	 3.777778e+00	 2.222222e+00	 1.080426e+01
0	 3.777778e+00	 2.296296e+00	 1.079688e+01
0	 3.777778e+00	 2.370370e+00	 1.078830e+01
0	 3.777778e+00	 2.444444e+00	 1.077849e+01
0	 3.777778e+00	 2.518519e+00	 1.076738e+01
0	 3.777778e+00	 2.592593e+00	 1.075492e+01
0	 3.851852e+00	 2.222222e+00	 1.078062e+01
0	 3.851852e+00	 2.296296e+00	 1.077442e+01
0	 3.851852e+00	 2.370370e+00	 1.076704e+01
0	 3.851852e+00	 2.444444e+00	 1.075846e+01
0	 3.851852e+00	 2.518519e+00	 1.074863e+01
0	 3.851852e+00	 2.592593e+00	 1.073752e+01
0	 3.925926e+00	 2.222222e+00	 1.075733e+01
0	 3.925926e+00	 2.296296e+00	 1.075216e+01
0	 3.925926e+00	 2.370370e+00	 1.074585e+01
0	 3.925926e+00	 2.444444e+00	 1.073840e+01
0	 3.925926e+00	 2.518519e+00	 1.072977e+01
0	 3.925926e+00	 2.592593e+00	 1.071994e+01
0	 4.000000e+00	 2.222222e+00	 1.073444e+01
0	 4.000000e+00	 2.296296e+00	 1.073017e+01
0	 4.000000e+00	 2.370370e+00	 1.072484e+01
0	 4.000000e+00	 2.444444e+00	 1.071842e+01
0	 4.000000e+00	 2.518519e+00	 1.071090e+01
0	 4.000000e+00	 2.592593e+00	 1.070227e+01
0	 4.074074e+00	 2.222222e+00	 1.071198e+01
0	 4.074074e+00	 2.296296e+00	 1.070854e+01
0	 4.074074e+00	 2.370370e+00	 1.070409e+01
0	 4.074074e+00	 2.444444e+00	 1.069863e+01
0	 4.074074e+00	 2.518519e+00	 1.069214e+01
0	 4.074074e+00	 2.592593e+00	 1.068461e+01
0	 3.703704e+00	 2.592593e+00	 1.077203e+01
0	 3.703704e+00	 2.666667e+00	 1.075722e+01
0	 3.703704e+00	 2.740741e+00	 1.074189e+01
0	 3.703704e+00	 2.814815e+00	 1.072598e+01
0	 3.703704e+00	 2.888889e+00	 1.070941e+01
0	 3.703704e+00	 2.962963e+00	 1.069212e+01
0	 3.777778e+00	 2.592593e+00	 1.075492e+01
0	 3.777778e+00	 2.666667e+00	 1.074153e+01
0	 3.777778e+00	 2.740741e+00	 1.072762e+01
0	 3.777778e+00	 2.814815e+00	 1.071312e+01
0	 3.777778e+00	 2.888889e+00	 1.069794e+01
0	 3.777778e+00	 2.962963e+00	 1.068203e+01
0	 3.851852e+00	 2.592593e+00	 1.073752e+01
0	 3.851852e+00	 2.666667e+00	 1.072551e+01
0	 3.851852e+00	 2.740741e+00	 1.071294e+01
0	 3.851852e+00	 2.814815e+00	 1.069974e+01
0	 3.851852e+00	 2.888889e+00	 1.068585e+01
0	 3.851852e+00	 2.962963e+00	 1.067120e+01
0	 3.925926e+00	 2.592593e+00	 1.071994e+01
0	 3.925926e+00	 2.666667e+00	 1.070923e+01
0	 3.925926e+00	 2.740741e+00	 1.069792e+01
0	 3.925926e+00	 2.814815e+00	 1.068594e+01
0	 3.925926e+00	 2.888889e+00	 1.067323e+01
0	 3.925926e+00	 2.962963e+00	 1.065972e+01
0	 4.000000e+00	 2.592593e+00	 1.070227e+01
0	 4.000000e+00	 2.666667e+00	 1.069277e+01
0	 4.000000e+00	 2.740741e+00	 1.068263e+01
0	 4.000000e+00	 2.814815e+00	 1.067179e+01
0	 4.000000e+00	 2.888889e+00	 1.066017e+01
0	 4.000000e+00	 2.962963e+00	 1.064773e+01
0	 4.074074e+00	 2.592593e+00	 1.068461e+01
0	 4.074074e+00	 2.666667e+00	 1.067623e+01
0	 4.074074e+00	 2.740741e+00	 1.066716e+01
0	 4.074074e+00	 2.814815e+00	 1.065736e+01
0	 4.074074e+00	 2.888889e+00	 1.064677e+01
0	 4.074074e+00	 2.962963e+00	 1.063534e+01
0	 3.703704e+00	 2.962963e+00	 1.069212e+01
0	 3.703704e+00	 3.037037e+00	 1.067440e+01
0	 3.703704e+00	 3.111111e+00	 1.065654e+01
0	 3.703704e+00	 3.185185e+00	 1.063847e+01
0	 3.703704e+00	 3.259259e+00	 1.062009e+01
0	 3.703704e+00	 3.333333e+00	 1.060133e+01
0	 3.777778e+00	 2.962963e+00	 1.068203e+01
0	 3.777778e+00	 3.037037e+00	 1.066565e+01
0	 3.777778e+00	 3.111111e+00	 1.064904e+01
0	 3.777778e+00	 3.185185e+00	 1.063215e+01
0	 3.777778e+00	 3.259259e+00	 1.061490e+01
0	 3.777778e+00	 3.333333e+00	 1.059723e+01
0	 3.851852e+00	 2.962963e+00	 1.067120e+01
0	 3.851852e+00	 3.037037e+00	 1.065602e+01
0	 3.851852e+00	 3.111111e+00	 1.064058e+01
0	 3.851852e+00	 3.185185e+00	 1.062482e+01
0	 3.851852e+00	 3.259259e+00	 1.060867e+01
0	 3.851852e+00	 3.333333e+00	 1.059208e+01
0	 3.925926e+00	 2.962963e+00	 1.065972e+01
0	 3.925926e+00	 3.037037e+00	 1.064567e+01
0	 3.925926e+00	 3.111111e+00	 1.063132e+01
0	 3.925926e+00	 3.185185e+00	 1.061664e+01
0	 3.925926e+00	 3.259259e+00	 1.060156e+01
0	 3.925926e+00	 3.333333e+00	 1.058604e+01
0	 4.000000e+00	 2.962963e+00	 1.064773e+01
0	 4.000000e+00	 3.037037e+00	 1.063473e+01
0	 4.000000e+00	 3.111111e+00	 1.062142e+01
0	 4.000000e+00	 3.185185e+00	 1.060777e+01
0	 4.000000e+00	 3.259259e+00	 1.059372e+01
0	 4.000000e+00	 3.333333e+00	 1.057923e+01
0	 4.074074e+00	 2.962963e+00	 1.063534e+01
0	 4.074074e+00	 3.037037e+00	 1.062334e+01
0	 4.074074e+00	 3.111111e+00	 1.061104e+01
0	 4.074074e+00	 3.185185e+00	 1.059838e+01
0	 4.074074e+00	 3.259259e+00	 1.058532e+01
0	 4.074074e+00	 3.333333e+00	 1.057182e+01
0	 3.703704e+00	 3.333333e+00	 1.060133e+01
0	 3.703704e+00	 3.407407e+00	 1.058249e+01
0	 3.703704e+00	 3.481481e+00	 1.056387e+01
0	 3.703704e+00	 3.555556e+00	 1.054543e+01
0	 3.703704e+00	 3.629630e+00	 1.052710e+01
0	 3.703704e+00	 3.703704e+00	 1.050885e+01
0	 3.777778e+00	 3.333333e+00	 1.059723e+01
0	 3.777778e+00	 3.407407e+00	 1.057944e+01
0	 3.777778e+00	 3.481481e+00	 1.056182e+01
0	 3.777778e+00	 3.555556e+00	 1.054433e+01
0	 3.777778e+00	 3.629630e+00	 1.052691e+01
0	 3.777778e+00	 3.703704e+00	 1.050950e+01
0	 3.851852e+00	 3.333333e+00	 1.059208e+01
0	 3.851852e+00	 3.407407e+00	 1.057534e+01
0	 3.851852e+00	 3.481481e+00	 1.055872e+01
0	 3.851852e+00	 3.555556e+00	 1.054216e+01
0	 3.851852e+00	 3.629630e+00	 1.052561e+01
0	 3.851852e+00	 3.703704e+00	 1.050900e+01
0	 3.925926e+00	 3.333333e+00	 1.058604e+01
0	 3.925926e+00	 3.407407e+00	 1.057032e+01
0	 3.925926e+00	 3.481481e+00	 1.055467e+01
0	 3.925926e+00	 3.555556e+00	 1.053902e+01
0	 3.925926e+00	 3.629630e+00	 1.052331e+01
0	 3.925926e+00	 3.703704e+00	 1.050749e+01
0	 4.000000e+00	 3.333333e+00	 1.057923e+01
0	 4.000000e+00	 3.407407e+00	 1.056452e+01
0	 4.000000e+00	 3.481481e+00	 1.054980e+01
0	 4.000000e+00	 3.555556e+00	 1.053503e+01
0	 4.000000e+00	 3.629630e+00	 1.052014e+01
0	 4.000000e+00	 3.703704e+00	 1.050508e+01
0	 4.074074e+00	 3.333333e+00	 1.057182e+01
0	 4.074074e+00	 3.407407e+00	 1.055806e+01
0	 4.074074e+00	 3.481481e+00	 1.054423e+01
0	 4.074074e+00	 3.555556e+00	 1.053030e+01
0	 4.074074e+00	 3.629630e+00	 1.051620e+01
0	 4.074074e+00	 3.703704e+00	 1.050189e+01
0	 3.703704e+00	 3.703704e+00	 1.050885e+01
0	 3.703704e+00	 3.777778e+00	 1.049080e+01
0	 3.703704e+00	 3.851852e+00	 1.047312e+01
0	 3.703704e+00	 3.925926e+00	 1.045576e+01
0	 3.703704e+00	 4.000000e+00	 1.043866e+01
0	 3.703704e+00	 4.074074e+00	 1.042180e+01
0	 3.777778e+00	 3.703704e+00	 1.050950e+01
0	 3.777778e+00	 3.777778e+00	 1.049223e+01
0	 3.777778e+00	 3.851852e+00	 1.047526e+01
0	 3.777778e+00	 3.925926e+00	 1.045855e+01
0	 3.777778e+00	 4.000000e+00	 1.044205e+01
0	 3.777778e+00	 4.074074e+00	 1.042573e+01
0	 3.851852e+00	 3.703704e+00	 1.050900e+01
0	 3.851852e+00	 3.777778e+00	 1.049249e+01
0	 3.851852e+00	 3.851852e+00	 1.047622e+01
0	 3.851852e+00	 3.925926e+00	 1.046016e+01
0	 3.851852e+00	 4.000000e+00	 1.044428e+01
0	 3.851852e+00	 4.074074e+00	 1.042854e+01
0	 3.925926e+00	 3.703704e+00	 1.050749e+01
0	 3.925926e+00	 3.777778e+00	 1.049171e+01
0	 3.925926e+00	 3.851852e+00	 1.047614e+01
0	 3.925926e+00	 3.925926e+00	 1.046074e+01
0	 3.925926e+00	 4.000000e+00	 1.044548e+01
0	 3.925926e+00	 4.074074e+00	 1.043033e+01
0	 4.000000e+00	 3.703704e+00	 1.050508e+01
0	 4.000000e+00	 3.777778e+00	 1.049002e+01
0	 4.000000e+00	 3.851852e+00	 1.047513e+01
0	 4.000000e+00	 3.925926e+00	 1.046039e+01
0	 4.000000e+00	 4.000000e+00	 1.044576e+01
0	 4.000000e+00	 4.074074e+00	 1.043120e+01
0	 4.074074e+00	 3.703704e+00	 1.050189e+01
0	 4.074074e+00	 3.777778e+00	 1.048754e+01
0	 4.074074e+00	 3.851852e+00	 1.047334e+01
0	 4.074074e+00	 3.925926e+00	 1.045925e+01
0	 4.074074e+00	 4.000000e+00	 1.044524e+01
0	 4.074074e+00	 4.074074e+00	 1.043128e+01
0	 3.703704e+00	 4.074074e+00	 1.042180e+01
0	 3.703704e+00	 4.148148e+00	 1.040528e+01
0	 3.703704e+00	 4.222222e+00	 1.038922e+01
0	 3.703704e+00	 4.296296e+00	 1.037360e+01
0	 3.703704e+00	 4.370370e+00	 1.035840e+01
0	 3.703704e+00	 4.444444e+00	 1.034360e+01
0	 3.777778e+00	 4.074074e+00	 1.042573e+01
0	 3.777778e+00	 4.148148e+00	 1.040972e+01
0	 3.777778e+00	 4.222222e+00	 1.039413e+01
0	 3.777778e+00	 4.296296e+00	 1.037893e+01
0	 3.777778e+00	 4.370370e+00	 1.036412e+01
0	 3.777778e+00	 4.444444e+00	 1.034964e+01
0	 3.851852e+00	 4.074074e+00	 1.042854e+01
0	 3.851852e+00	 4.148148e+00	 1.041306e+01
0	 3.851852e+00	 4.222222e+00	 1.039795e+01
0	 3.851852e+00	 4.296296e+00	 1.038321e+01
0	 3.851852e+00	 4.370370e+00	 1.036879e+01
0	 3.851852e+00	 4.444444e+00	 1.035466e+01
0	 3.925926e+00	 4.074074e+00	 1.043033e+01
0	 3.925926e+00	 4.148148e+00	 1.041539e+01
0	 3.925926e+00	 4.222222e+00	 1.040080e+01
0	 3.925926e+00	 4.296296e+00	 1.038651e+01
0	 3.925926e+00	 4.370370e+00	 1.037249e+01
0	 3.925926e+00	 4.444444e+00	 1.035873e+01
0	 4.000000e+00	 4.074074e+00	 1.043120e+01
0	 4.000000e+00	 4.148148e+00	 1.041683e+01
0	 4.000000e+00	 4.222222e+00	 1.040274e+01
0	 4.000000e+00	 4.296296e+00	 1.038891e+01
0	 4.000000e+00	 4.370370e+00	 1.037532e+01
0	 4.000000e+00	 4.444444e+00	 1.036192e+01
0	 4.074074e+00	 4.074074e+00	 1.043128e+01
0	 4.074074e+00	 4.148148e+00	 1.041745e+01
0	 4.074074e+00	 4.222222e+00	 1.040387e+01
0	 4.074074e+00	 4.296296e+00	 1.039051e+01
0	 4.074074e+00	 4.370370e+00	 1.037733e+01
0	 4.074074e+00	 4.444444e+00	 1.036431e+01
0	 3.703704e+00	 4.444444e+00	 1.034360e+01
0	 3.703704e+00	 4.518519e+00	 1.032921e+01
0	 3.703704e+00	 4.592593e+00	 1.031528e+01
0	 3.703704e+00	 4.666667e+00	 1.030178e+01
0	 3.703704e+00	 4.740741e+00	 1.028871e+01
0	 3.703704e+00	 4.814815e+00	 1.027604e+01
0	 3.777778e+00	 4.444444e+00	 1.034964e+01
0	 3.777778e+00	 4.518519e+00	 1.033555e+01
0	 3.777778e+00	 4.592593e+00	 1.032187e+01
0	 3.777778e+00	 4.666667e+00	 1.030859e+01
0	 3.777778e+00	 4.740741e+00	 1.029570e+01
0	 3.777778e+00	 4.814815e+00	 1.028318e+01
0	 3.851852e+00	 4.444444e+00	 1.035466e+01
0	 3.851852e+00	 4.518519e+00	 1.034087e+01
0	 3.851852e+00	 4.592593e+00	 1.032746e+01
0	 3.851852e+00	 4.666667e+00	 1.031443e+01
0	 3.851852e+00	 4.740741e+00	 1.030175e+01
0	 3.851852e+00	 4.814815e+00	 1.028941e+01
0	 3.925926e+00	 4.444444e+00	 1.035873e+01
0	 3.925926e+00	 4.518519e+00	 1.034526e+01
0	 3.925926e+00	 4.592593e+00	 1.033214e+01
0	 3.925926e+00	 4.666667e+00	 1.031937e+01
0	 3.925926e+00	 4.740741e+00	 1.030693e+01
0	 3.925926e+00	 4.814815e+00	 1.029480e+01
0	 4.000000e+00	 4.444444e+00	 1.036192e+01
0	 4.000000e+00	 4.518519e+00	 1.034878e+01
0	 4.000000e+00	 4.592593e+00	 1.033598e+01
0	 4.000000e+00	 4.666667e+00	 1.032349e+01
0	 4.000000e+00	 4.740741e+00	 1.031131e+01
0	 4.000000e+00	 4.814815e+00	 1.029941e+01
0	 4.074074e+00	 4.444444e+00	 1.036431e+01
0	 4.074074e+00	 4.518519e+00	 1.035153e+01
0	 4.074074e+00	 4.592593e+00	 1.033905e+01
0	 4.074074e+00	 4.666667e+00	 1.032686e+01
0	 4.074074e+00	 4.740741e+00	 1.031495e+01
0	 4.074074e+00	 4.814815e+00	 1.030329e+01
0	 3.703704e+00	 4.814815e+00	 1.027604e+01
0	 3.703704e+00	 4.888889e+00	 1.026380e+01
0	 3.703704e+00	 4.962963e+00	 1.025198e+01
0	 3.703704e+00	 5.037037e+00	 1.024060e+01
0	 3.703704e+00	 5.111111e+00	 1.022964e+01
0	 3.703704e+00	 5.185185e+00	 1.021910e+01
0	 3.777778e+00	 4.814815e+00	 1.028318e+01
0	 3.777778e+00	 4.888889e+00	 1.027105e+01
0	 3.777778e+00	 4.962963e+00	 1.025934e+01
0	 3.777778e+00	 5.037037e+00	 1.024804e+01
0	 3.777778e+00	 5.111111e+00	 1.023713e+01
0	 3.777778e+00	 5.185185e+00	 1.022662e+01
0	 3.851852e+00	 4.814815e+00	 1.028941e+01
0	 3.851852e+00	 4.888889e+00	 1.027744e+01
0	 3.851852e+00	 4.962963e+00	 1.026586e+01
0	 3.851852e+00	 5.037037e+00	 1.025466e+01
0	 3.851852e+00	 5.111111e+00	 1.024383e+01
0	 3.851852e+00	 5.185185e+00	 1.023337e+01
0	 3.925926e+00	 4.814815e+00	 1.029480e+01
0	 3.925926e+00	 4.888889e+00	 1.028301e+01
0	 3.925926e+00	 4.962963e+00	 1.027159e+01
0	 3.925926e+00	 5.037037e+00	 1.026052e+01
0	 3.925926e+00	 5.111111e+00	 1.024979e+01
0	 3.925926e+00	 5.185185e+00	 1.023939e+01
0	 4.000000e+00	 4.814815e+00	 1.029941e+01
0	 4.000000e+00	 4.888889e+00	 1.028782e+01
0	 4.000000e+00	 4.962963e+00	 1.027657e+01
0	 4.000000e+00	 5.037037e+00	 1.026565e+01
0	 4.000000e+00	 5.111111e+00	 1.025504e+01
0	 4.000000e+00	 5.185185e+00	 1.024474e+01
0	 4.074074e+00	 4.814815e+00	 1.030329e+01
0	 4.074074e+00	 4.888889e+00	 1.029192e+01
0	 4.074074e+00	 4.962963e+00	 1.028086e+01
0	 4.074074e+00	 5.037037e+00	 1.027010e+01
0	 4.074074e+00	 5.111111e+00	 1.025963e+01
0	 4.074074e+00	 5.185185e+00	 1.024943e+01
0	 3.703704e+00	 5.185185e+00	 1.021910e+01
0	 3.703704e+00	 5.259259e+00	 1.020896e+01
0	 3.703704e+00	 5.333333e+00	 1.019919e+01
0	 3.703704e+00	 5.407407e+00	 1.018980e+01
0	 3.703704e+00	 5.481481e+00	 1.018079e+01
0	 3.703704e+00	 5.555556e+00	 1.017215e+01
0	 3.777778e+00	 5.185185e+00	 1.022662e+01
0	 3.777778e+00	 5.259259e+00	 1.021648e+01
0	 3.777778e+00	 5.333333e+00	 1.020670e+01
0	 3.777778e+00	 5.407407e+00	 1.019728e+01
0	 3.777778e+00	 5.481481e+00	 1.018821e+01
0	 3.777778e+00	 5.555556e+00	 1.017951e+01
0	 3.851852e+00	 5.185185e+00	 1.023337e+01
0	 3.851852e+00	 5.259259e+00	 1.022325e+01
0	 3.851852e+00	 5.333333e+00	 1.021349e+01
0	 3.851852e+00	 5.407407e+00	 1.020406e+01
0	 3.851852e+00	 5.481481e+00	 1.019498e+01
0	 3.851852e+00	 5.555556e+00	 1.018623e+01
0	 3.925926e+00	 5.185185e+00	 1.023939e+01
0	 3.925926e+00	 5.259259e+00	 1.022933e+01
0	 3.925926e+00	 5.333333e+00	 1.021960e+01
0	 3.925926e+00	 5.407407e+00	 1.021019e+01
0	 3.925926e+00	 5.481481e+00	 1.020112e+01
0	 3.925926e+00	 5.555556e+00	 1.019236e+01
0	 4.000000e+00	 5.185185e+00	 1.024474e+01
0	 4.000000e+00	 5.259259e+00	 1.023474e+01
0	 4.000000e+00	 5.333333e+00	 1.022507e+01
0	 4.000000e+00	 5.407407e+00	 1.021571e+01
0	 4.000000e+00	 5.481481e+00	 1.020665e+01
0	 4.000000e+00	 5.555556e+00	 1.019790e+01
0	 4.074074e+00	 5.185185e+00	 1.024943e+01
0	 4.074074e+00	 5.259259e+00	 1.023953e+01
0	 4.074074e+00	 5.333333e+00	 1.022993e+01
0	 4.074074e+00	 5.407407e+00	 1.022063e+01
0	 4.074074e+00	 5.481481e+00	 1.021162e+01
0	 4.074074e+00	 5.555556e+00	 1.020290e+01
0	 3.703704e+00	 5.555556e+00	 1.017215e+01
0	 3.703704e+00	 5.629630e+00	 1.016385e+01
0	 3.703704e+00	 5.703704e+00	 1.015589e+01
0	 3.703704e+00	 5.777778e+00	 1.014825e+01
0	 3.703704e+00	 5.851852e+00	 1.014094e+01
0	 3.703704e+00	 5.925926e+00	 1.013397e+01
0	 3.777778e+00	 5.555556e+00	 1.017951e+01
0	 3.777778e+00	 5.629630e+00	 1.017113e+01
0	 3.777778e+00	 5.703704e+00	 1.016308e+01
0	 3.777778e+00	 5.777778e+00	 1.015535e+01
0	 3.777778e+00	 5.851852e+00	 1.014794e+01
0	 3.777778e+00	 5.925926e+00	 1.014084e+01
0	 3.851852e+00	 5.555556e+00	 1.018623e+01
0	 3.851852e+00	 5.629630e+00	 1.017781e+01
0	 3.851852e+00	 5.703704e+00	 1.016970e+01
0	 3.851852e+00	 5.777778e+00	 1.016189e+01
0	 3.851852e+00	 5.851852e+00	 1.015440e+01
0	 3.851852e+00	 5.925926e+00	 1.014721e+01
0	 3.925926e+00	 5.555556e+00	 1.019236e+01
0	 3.925926e+00	 5.629630e+00	 1.018391e+01
0	 3.925926e+00	 5.703704e+00	 1.017576e+01
0	 3.925926e+00	 5.777778e+00	 1.016790e+01
0	 3.925926e+00	 5.851852e+00	 1.016034e+01
0	 3.925926e+00	 5.925926e+00	 1.015307e+01
0	 4.000000e+00	 5.555556e+00	 1.019790e+01
0	 4.000000e+00	 5.629630e+00	 1.018945e+01
0	 4.000000e+00	 5.703704e+00	 1.018128e+01
0	 4.000000e+00	 5.777778e+00	 1.017339e+01
0	 4.000000e+00	 5.851852e+00	 1.016579e+01
0	 4.000000e+00	 5.925926e+00	 1.015846e+01
0	 4.074074e+00	 5.555556e+00	 1.020290e+01
0	 4.074074e+00	 5.629630e+00	 1.019446e+01
0	 4.074074e+00	 5.703704e+00	 1.018629e+01
0	 4.074074e+00	 5.777778e+00	 1.017838e+01
0	 4.074074e+00	 5.851852e+00	 1.017075e+01
0	 4.074074e+00	 5.925926e+00	 1.016338e+01
0	 3.703704e+00	 5.925926e+00	 1.013397e+01
0	 3.703704e+00	 6.000000e+00	 1.012730e+01
0	 3.703704e+00	 6.074074e+00	 1.012089e+01
0	 3.703704e+00	 6.148148e+00	 1.011476e+01
0	 3.703704e+00	 6.222222e+00	 1.010890e+01
0	 3.703704e+00	 6.296296e+00	 1.010332e+01
0	 3.777778e+00	 5.925926e+00	 1.014084e+01
0	 3.777778e+00	 6.000000e+00	 1.013404e+01
0	 3.777778e+00	 6.074074e+00	 1.012750e+01
0	 3.777778e+00	 6.148148e+00	 1.012123e+01
0	 3.777778e+00	 6.222222e+00	 1.011523e+01
0	 3.777778e+00	 6.296296e+00	 1.010950e+01
0	 3.851852e+00	 5.925926e+00	 1.014721e+01
0	 3.851852e+00	 6.000000e+00	 1.014030e+01
0	 3.851852e+00	 6.074074e+00	 1.013365e+01
0	 3.851852e+00	 6.148148e+00	 1.012726e+01
0	 3.851852e+00	 6.222222e+00	 1.012113e+01
0	 3.851852e+00	 6.296296e+00	 1.011526e+01
0	 3.925926e+00	 5.925926e+00	 1.015307e+01
0	 3.925926e+00	 6.000000e+00	 1.014608e+01
0	 3.925926e+00	 6.074074e+00	 1.013933e+01
0	 3.925926e+00	 6.148148e+00	 1.013284e+01
0	 3.925926e+00	 6.222222e+00	 1.012661e+01
0	 3.925926e+00	 6.296296e+00	 1.012063e+01
0	 4.000000e+00	 5.925926e+00	 1.015846e+01
0	 4.000000e+00	 6.000000e+00	 1.015139e+01
0	 4.000000e+00	 6.074074e+00	 1.014457e+01
0	 4.000000e+00	 6.148148e+00	 1.013800e+01
0	 4.000000e+00	 6.222222e+00	 1.013168e+01
0	 4.000000e+00	 6.296296e+00	 1.012560e+01
0	 4.074074e+00	 5.925926e+00	 1.016338e+01
0	 4.074074e+00	 6.000000e+00	 1.015626e+01
0	 4.074074e+00	 6.074074e+00	 1.014939e+01
0	 4.074074e+00	 6.148148e+00	 1.014275e+01
0	 4.074074e+00	 6.222222e+00	 1.013635e+01
0	 4.074074e+00	 6.296296e+00	 1.013020e+01
0	 3.703704e+00	 6.296296e+00	 1.010332e+01
0	 3.703704e+00	 6.370370e+00	 1.009799e+01
0	 3.703704e+00	 6.444444e+00	 1.009288e+01
0	 3.703704e+00	 6.518519e+00	 1.008800e+01
0	 3.703704e+00	 6.592593e+00	 1.008334e+01
0	 3.703704e+00	 6.666667e+00	 1.007891e+01
0	 3.777778e+00	 6.296296e+00	 1.010950e+01
0	 3.777778e+00	 6.370370e+00	 1.010401e+01
0	 3.777778e+00	 6.444444e+00	 1.009874e+01
0	 3.777778e+00	 6.518519e+00	 1.009369e+01
0	 3.777778e+00	 6.592593e+00	 1.008887e+01
0	 3.777778e+00	 6.666667e+00	 1.008427e+01
0	 3.851852e+00	 6.296296e+00	 1.011526e+01
0	 3.851852e+00	 6.370370e+00	 1.010963e+01
0	 3.851852e+00	 6.444444e+00	 1.010423e+01
0	 3.851852e+00	 6.518519e+00	 1.009904e+01
0	 3.851852e+00	 6.592593e+00	 1.009407e+01
0	 3.851852e+00	 6.666667e+00	 1.008932e+01
0	 3.925926e+00	 6.296296e+00	 1.012063e+01
0	 3.925926e+00	 6.370370e+00	 1.011488e+01
0	 3.925926e+00	 6.444444e+00	 1.010935e+01
0	 3.925926e+00	 6.518519e+00	 1.010403e+01
0	 3.925926e+00	 6.592593e+00	 1.009893e+01
0	 3.925926e+00	 6.666667e+00	 1.009404e+01
0	 4.000000e+00	 6.296296e+00	 1.012560e+01
0	 4.000000e+00	 6.370370e+00	 1.011975e+01
0	 4.000000e+00	 6.444444e+00	 1.011411e+01
0	 4.000000e+00	 6.518519e+00	 1.010868e+01
0	 4.000000e+00	 6.592593e+00	 1.010347e+01
0	 4.000000e+00	 6.666667e+00	 1.009846e+01
0	 4.074074e+00	 6.296296e+00	 1.013020e+01
0	 4.074074e+00	 6.370370e+00	 1.012426e+01
0	 4.074074e+00	 6.444444e+00	 1.011853e+01
0	 4.074074e+00	 6.518519e+00	 1.011300e+01
0	 4.074074e+00	 6.592593e+00	 1.010768e+01
0	 4.074074e+00	 6.666667e+00	 1.010256e+01
0	 3.703704e+00	 6.666667e+00	 1.007891e+01
0	 3.703704e+00	 6.740741e+00	 1.007469e+01
0	 3.703704e+00	 6.814815e+00	 1.007064e+01
0	 3.703704e+00	 6.888889e+00	 1.006677e+01
0	 3.703704e+00	 6.962963e+00	 1.006308e+01
0	 3.703704e+00	 7.037037e+00	 1.005958e+01
0	 3.777778e+00	 6.666667e+00	 1.008427e+01
0	 3.777778e+00	 6.740741e+00	 1.007988e+01
0	 3.777778e+00	 6.814815e+00	 1.007566e+01
0	 3.777778e+00	 6.888889e+00	 1.007162e+01
0	 3.777778e+00	 6.962963e+00	 1.006776e+01
0	 3.777778e+00	 7.037037e+00	 1.006409e+01
0	 3.851852e+00	 6.666667e+00	 1.008932e+01
0	 3.851852e+00	 6.740741e+00	 1.008477e+01
0	 3.851852e+00	 6.814815e+00	 1.008039e+01
0	 3.851852e+00	 6.888889e+00	 1.007620e+01
0	 3.851852e+00	 6.962963e+00	 1.007218e+01
0	 3.851852e+00	 7.037037e+00	 1.006834e+01
0	 3.925926e+00	 6.666667e+00	 1.009404e+01
0	 3.925926e+00	 6.740741e+00	 1.008935e+01
0	 3.925926e+00	 6.814815e+00	 1.008484e+01
0	 3.925926e+00	 6.888889e+00	 1.008050e+01
0	 3.925926e+00	 6.962963e+00	 1.007634e+01
0	 3.925926e+00	 7.037037e+00	 1.007236e+01
0	 4.000000e+00	 6.666667e+00	 1.009846e+01
0	 4.000000e+00	 6.740741e+00	 1.009364e+01
0	 4.000000e+00	 6.814815e+00	 1.008900e+01
0	 4.000000e+00	 6.888889e+00	 1.008453e+01
0	 4.000000e+00	 6.962963e+00	 1.008024e+01
0	 4.000000e+00	 7.037037e+00	 1.007612e+01
0	 4.074074e+00	 6.666667e+00	 1.010256e+01
0	 4.074074e+00	 6.740741e+00	 1.009763e+01
0	 4.074074e+00	 6.814815e+00	 1.009288e+01
0	 4.074074e+00	 6.888889e+00	 1.008829e+01
0	 4.074074e+00	 6.962963e+00	 1.008388e+01
0	 4.074074e+00	 7.037037e+00	 1.007965e+01
0	 3.703704e+00	 7.037037e+00	 1.005958e+01
0	 3.703704e+00	 7.111111e+00	 1.005624e+01
0	 3.703704e+00	 7.185185e+00	 1.005304e+01
0	 3.703704e+00	 7.259259e+00	 1.004998e+01
0	 3.703704e+00	 7.333333e+00	 1.004707e+01
0	 3.703704e+00	 7.407407e+00	 1.004430e+01
0	 3.777778e+00	 7.037037e+00	 1.006409e+01
0	 3.777778e+00	 7.111111e+00	 1.006057e+01
0	 3.777778e+00	 7.185185e+00	 1.005720e+01
0	 3.777778e+00	 7.259259e+00	 1.005397e+01
0	 3.777778e+00	 7.333333e+00	 1.005089e+01
0	 3.777778e+00	 7.407407e+00	 1.004795e+01
0	 3.851852e+00	 7.037037e+00	 1.006834e+01
0	 3.851852e+00	 7.111111e+00	 1.006467e+01
0	 3.851852e+00	 7.185185e+00	 1.006114e+01
0	 3.851852e+00	 7.259259e+00	 1.005775e+01
0	 3.851852e+00	 7.333333e+00	 1.005451e+01
0	 3.851852e+00	 7.407407e+00	 1.005142e+01
0	 3.925926e+00	 7.037037e+00	 1.007236e+01
0	 3.925926e+00	 7.111111e+00	 1.006854e+01
0	 3.925926e+00	 7.185185e+00	 1.006486e+01
0	 3.925926e+00	 7.259259e+00	 1.006133e+01
0	 3.925926e+00	 7.333333e+00	 1.005794e+01
0	 3.925926e+00	 7.407407e+00	 1.005470e+01
0	 4.000000e+00	 7.037037e+00	 1.007612e+01
0	 4.000000e+00	 7.111111e+00	 1.007217e+01
0	 4.000000e+00	 7.185185e+00	 1.006836e+01
0	 4.000000e+00	 7.259259e+00	 1.006469e+01
0	 4.000000e+00	 7.333333e+00	 1.006116e+01
0	 4.000000e+00	 7.407407e+00	 1.005779e+01
0	 4.074074e+00	 7.037037e+00	 1.007965e+01
0	 4.074074e+00	 7.111111e+00	 1.007557e+01
0	 4.074074e+00	 7.185185e+00	 1.007163e+01
0	 4.074074e+00	 7.259259e+00	 1.006784e+01
0	 4.074074e+00	 7.333333e+00	 1.006419e+01
0	 4.074074e+00	 7.407407e+00	 1.006069e+01
0	 3.703704e+00	 7.407407e+00	 1.004430e+01
0	 3.703704e+00	 7.481481e+00	 1.004166e+01
0	 3.703704e+00	 7.555556e+00	 1.003913e+01
0	 3.703704e+00	 7.629630e+00	 1.003671e+01
0	 3.703704e+00	 7.703704e+00	 1.003440e+01
0	 3.703704e+00	 7.777778e+00	 1.003220e+01
0	 3.777778e+00	 7.407407e+00	 1.004795e+01
0	 3.777778e+00	 7.481481e+00	 1.004514e+01
0	 3.777778e+00	 7.555556e+00	 1.004245e+01
0	 3.777778e+00	 7.629630e+00	 1.003986e+01
0	 3.777778e+00	 7.703704e+00	 1.003739e+01
0	 3.777778e+00	 7.777778e+00	 1.003504e+01
0	 3.851852e+00	 7.407407e+00	 1.005142e+01
0	 3.851852e+00	 7.481481e+00	 1.004845e+01
0	 3.851852e+00	 7.555556e+00	 1.004560e+01
0	 3.851852e+00	 7.629630e+00	 1.004286e+01
0	 3.851852e+00	 7.703704e+00	 1.004024e+01
0	 3.851852e+00	 7.777778e+00	 1.003774e+01
0	 3.925926e+00	 7.407407e+00	 1.005470e+01
0	 3.925926e+00	 7.481481e+00	 1.005158e+01
0	 3.925926e+00	 7.555556e+00	 1.004859e+01
0	 3.925926e+00	 7.629630e+00	 1.004571e+01
0	 3.925926e+00	 7.703704e+00	 1.004294e+01
0	 3.925926e+00	 7.777778e+00	 1.004030e+01
0	 4.000000e+00	 7.407407e+00	 1.005779e+01
0	 4.000000e+00	 7.481481e+00	 1.005454e+01
0	 4.000000e+00	 7.555556e+00	 1.005141e+01
0	 4.000000e+00	 7.629630e+00	 1.004839e+01
0	 4.000000e+00	 7.703704e+00	 1.004549e+01
0	 4.000000e+00	 7.777778e+00	 1.004272e+01
0	 4.074074e+00	 7.407407e+00	 1.006069e+01
0	 4.074074e+00	 7.481481e+00	 1.005731e+01
0	 4.074074e+00	 7.555556e+00	 1.005406e+01
0	 4.074074e+00	 7.629630e+00	 1.005092e+01
0	 4.074074e+00	 7.703704e+00	 1.004790e+01
0	 4.074074e+00	 7.777778e+00	 1.004499e+01
0	 3.703704e+00	 7.777778e+00	 1.003220e+01
0	 3.703704e+00	 7.851852e+00	 1.003011e+01
0	 3.703704e+00	 7.925926e+00	 1.002810e+01
0	 3.703704e+00	 8.000000e+00	 1.002618e+01
0	 3.703704e+00	 8.074074e+00	 1.002434e+01
0	 3.703704e+00	 8.148148e+00	 1.002259e+01
0	 3.777778e+00	 7.777778e+00	 1.003504e+01
0	 3.777778e+00	 7.851852e+00	 1.003279e+01
0	 3.777778e+00	 7.925926e+00	 1.003062e+01
0	 3.777778e+00	 8.000000e+00	 1.002855e+01
0	 3.777778e+00	 8.074074e+00	 1.002657e+01
0	 3.777778e+00	 8.148148e+00	 1.002467e+01
0	 3.851852e+00	 7.777778e+00	 1.003774e+01
0	 3.851852e+00	 7.851852e+00	 1.003534e+01
0	 3.851852e+00	 7.925926e+00	 1.003303e+01
0	 3.851852e+00	 8.000000e+00	 1.003081e+01
0	 3.851852e+00	 8.074074e+00	 1.002869e+01
0	 3.851852e+00	 8.148148e+00	 1.002666e+01
0	 3.925926e+00	 7.777778e+00	 1.004030e+01
0	 3.925926e+00	 7.851852e+00	 1.003776e+01
0	 3.925926e+00	 7.925926e+00	 1.003531e+01
0	 3.925926e+00	 8.000000e+00	 1.003296e+01
0	 3.925926e+00	 8.074074e+00	 1.003071e+01
0	 3.925926e+00	 8.148148e+00	 1.002854e+01
0	 4.000000e+00	 7.777778e+00	 1.004272e+01
0	 4.000000e+00	 7.851852e+00	 1.004005e+01
0	 4.000000e+00	 7.925926e+00	 1.003747e+01
0	 4.000000e+00	 8.000000e+00	 1.003500e+01
0	 4.000000e+00	 8.074074e+00	 1.003261e+01
0	 4.000000e+00	 8.148148e+00	 1.003033e+01
0	 4.074074e+00	 7.777778e+00	 1.004499e+01
0	 4.074074e+00	 7.851852e+00	 1.004220e+01
0	 4.074074e+00	 7.925926e+00	 1.003951e+01
0	 4.074074e+00	 8.000000e+00	 1.003691e+01
0	 4.074074e+00	 8.074074e+00	 1.003441e+01
0	 4.074074e+00	 8.148148e+00	 1.003201e+01
0	 3.703704e+00	 8.148148e+00	 1.002259e+01
0	 3.703704e+00	 8.222222e+00	 1.002092e+01
0	 3.703704e+00	 8.296296e+00	 1.001932e+01
0	 3.703704e+00	 8.370370e+00	 1.001779e+01
0	 3.703704e+00	 8.444444e+00	 1.001633e+01
0	 3.703704e+00	 8.518519e+00	 1.001494e+01
0	 3.777778e+00	 8.148148e+00	 1.002467e+01
0	 3.777778e+00	 8.222222e+00	 1.002286e+01
0	 3.777778e+00	 8.296296e+00	 1.002112e+01
0	 3.777778e+00	 8.370370e+00	 1.001946e+01
0	 3.777778e+00	 8.444444e+00	 1.001786e+01
0	 3.777778e+00	 8.518519e+00	 1.001634e+01
0	 3.851852e+00	 8.148148e+00	 1.002666e+01
0	 3.851852e+00	 8.222222e+00	 1.002471e+01
0	 3.851852e+00	 8.296296e+00	 1.002284e+01
0	 3.851852e+00	 8.370370e+00	 1.002105e+01
0	 3.851852e+00	 8.444444e+00	 1.001933e+01
0	 3.851852e+00	 8.518519e+00	 1.001769e+01
0	 3.925926e+00	 8.148148e+00	 1.002854e+01
0	 3.925926e+00	 8.222222e+00	 1.002647e+01
0	 3.925926e+00	 8.296296e+00	 1.002448e+01
0	 3.925926e+00	 8.370370e+00	 1.002256e+01
0	 3.925926e+00	 8.444444e+00	 1.002073e+01
0	 3.925926e+00	 8.518519e+00	 1.001897e+01
0	 4.000000e+00	 8.148148e+00	 1.003033e+01
0	 4.000000e+00	 8.222222e+00	 1.002814e+01
0	 4.000000e+00	 8.296296e+00	 1.002603e+01
0	 4.000000e+00	 8.370370e+00	 1.002400e+01
0	 4.000000e+00	 8.444444e+00	 1.002205e+01
0	 4.000000e+00	 8.518519e+00	 1.002018e+01
0	 4.074074e+00	 8.148148e+00	 1.003201e+01
0	 4.074074e+00	 8.222222e+00	 1.002971e+01
0	 4.074074e+00	 8.296296e+00	 1.002749e+01
0	 4.074074e+00	 8.370370e+00	 1.002535e+01
0	 4.074074e+00	 8.444444e+00	 1.002330e+01
0	 4.074074e+00	 8.518519e+00	 1.002133e+01
0	 3.703704e+00	 8.518519e+00	 1.001494e+01
0	 3.703704e+00	 8.592593e+00	 1.001361e+01
0	 3.703704e+00	 8.666667e+00	 1.001234e+01
0	 3.703704e+00	 8.740741e+00	 1.001113e+01
0	 3.703704e+00	 8.814815e+00	 1.000998e+01
0	 3.703704e+00	 8.888889e+00	 1.000888e+01
0	 3.777778e+00	 8.518519e+00	 1.001634e+01
0	 3.777778e+00	 8.592593e+00	 1.001489e+01
0	 3.777778e+00	 8.666667e+00	 1.001350e+01
0	 3.777778e+00	 8.740741e+00	 1.001218e+01
0	 3.777778e+00	 8.814815e+00	 1.001092e+01
0	 3.777778e+00	 8.888889e+00	 1.000972e+01
0	 3.851852e+00	 8.518519e+00	 1.001769e+01
0	 3.851852e+00	 8.592593e+00	 1.001612e+01
0	 3.851852e+00	 8.666667e+00	 1.001462e+01
0	 3.851852e+00	 8.740741e+00	 1.001319e+01
0	 3.851852e+00	 8.814815e+00	 1.001182e+01
0	 3.851852e+00	 8.888889e+00	 1.001052e+01
0	 3.925926e+00	 8.518519e+00	 1.001897e+01
0	 3.925926e+00	 8.592593e+00	 1.001729e+01
0	 3.925926e+00	 8.666667e+00	 1.001568e+01
0	 3.925926e+00	 8.740741e+00	 1.001415e+01
0	 3.925926e+00	 8.814815e+00	 1.001268e+01
0	 3.925926e+00	 8.888889e+00	 1.001129e+01
0	 4.000000e+00	 8.518519e+00	 1.002018e+01
0	 4.000000e+00	 8.592593e+00	 1.001840e+01
0	 4.000000e+00	 8.666667e+00	 1.001669e+01
0	 4.000000e+00	 8.740741e+00	 1.001506e+01
0	 4.000000e+00	 8.814815e+00	 1.001350e+01
0	 4.000000e+00	 8.888889e+00	 1.001201e+01
0	 4.074074e+00	 8.518519e+00	 1.002133e+01
0	 4.074074e+00	 8.592593e+00	 1.001944e+01
0	 4.074074e+00	 8.666667e+00	 1.001764e+01
0	 4.074074e+00	 8.740741e+00	 1.001591e+01
0	 4.074074e+00	 8.814815e+00	 1.001427e+01
0	 4.074074e+00	 8.888889e+00	 1.001269e+01
0	 3.703704e+00	 8.888889e+00	 1.000888e+01
0	 3.703704e+00	 8.962963e+00	 1.000784e+01
0	 3.703704e+00	 9.037037e+00	 1.000686e+01
0	 3.703704e+00	 9.111111e+00	 1.000594e+01
0	 3.703704e+00	 9.185185e+00	 1.000508e+01
0	 3.703704e+00	 9.259259e+00	 1.000426e+01
0	 3.777778e+00	 8.888889e+00	 1.000972e+01
0	 3.777778e+00	 8.962963e+00	 1.000858e+01
0	 3.777778e+00	 9.037037e+00	 1.000751e+01
0	 3.777778e+00	 9.111111e+00	 1.000650e+01
0	 3.777778e+00	 9.185185e+00	 1.000555e+01
0	 3.777778e+00	 9.259259e+00	 1.000466e+01
0	 3.851852e+00	 8.888889e+00	 1.001052e+01
0	 3.851852e+00	 8.962963e+00	 1.000929e+01
0	 3.851852e+00	 9.037037e+00	 1.000813e+01
0	 3.851852e+00	 9.111111e+00	 1.000703e+01
0	 3.851852e+00	 9.185185e+00	 1.000600e+01
0	 3.851852e+00	 9.259259e+00	 1.000504e+01
0	 3.925926e+00	 8.888889e+00	 1.001129e+01
0	 3.925926e+00	 8.962963e+00	 1.000996e+01
0	 3.925926e+00	 9.037037e+00	 1.000872e+01
0	 3.925926e+00	 9.111111e+00	 1.000754e+01
0	 3.925926e+00	 9.185185e+00	 1.000644e+01
0	 3.925926e+00	 9.259259e+00	 1.000540e+01
0	 4.000000e+00	 8.888889e+00	 1.001201e+01
0	 4.000000e+00	 8.962963e+00	 1.001060e+01
0	 4.000000e+00	 9.037037e+00	 1.000927e+01
0	 4.000000e+00	 9.111111e+00	 1.000802e+01
0	 4.000000e+00	 9.185185e+00	 1.000685e+01
0	 4.000000e+00	 9.259259e+00	 1.000574e+01
0	 4.074074e+00	 8.888889e+00	 1.001269e+01
0	 4.074074e+00	 8.962963e+00	 1.001120e+01
0	 4.074074e+00	 9.037037e+00	 1.000980e+01
0	 4.074074e+00	 9.111111e+00	 1.000848e+01
0	 4.074074e+00	 9.185185e+00	 1.000723e+01
0	 4.074074e+00	 9.259259e+00	 1.000606e+01
0	 3.703704e+00	 9.259259e+00	 1.000426e+01
0	 3.703704e+00	 9.333333e+00	 1.000351e+01
0	 3.703704e+00	 9.407407e+00	 1.000283e+01
0	 3.703704e+00	 9.481481e+00	 1.000222e+01
0	 3.703704e+00	 9.555556e+00	 1.000167e+01
0	 3.703704e+00	 9.629630e+00	 1.000118e+01
0	 3.777778e+00	 9.259259e+00	 1.000466e+01
0	 3.777778e+00	 9.333333e+00	 1.000383e+01
0	 3.777778e+00	 9.407407e+00	 1.000309e+01
0	 3.777778e+00	 9.481481e+00	 1.000242e+01
0	 3.777778e+00	 9.555556e+00	 1.000182e+01
0	 3.777778e+00	 9.629630e+00	 1.000128e+01
0	 3.851852e+00	 9.259259e+00	 1.000504e+01
0	 3.851852e+00	 9.333333e+00	 1.000414e+01
0	 3.851852e+00	 9.407407e+00	 1.000334e+01
0	 3.851852e+00	 9.481481e+00	 1.000261e+01
0	 3.851852e+00	 9.555556e+00	 1.000196e+01
0	 3.851852e+00	 9.629630e+00	 1.000138e+01
0	 3.925926e+00	 9.259259e+00	 1.000540e+01
0	 3.925926e+00	 9.333333e+00	 1.000444e+01
0	 3.925926e+00	 9.407407e+00	 1.000358e+01
0	 3.925926e+00	 9.481481e+00	 1.000280e+01
0	 3.925926e+00	 9.555556e+00	 1.000210e+01
0	 3.925926e+00	 9.629630e+00	 1.000148e+01
0	 4.000000e+00	 9.259259e+00	 1.000574e+01
0	 4.000000e+00	 9.333333e+00	 1.000472e+01
0	 4.000000e+00	 9.407407e+00	 1.000380e+01
0	 4.000000e+00	 9.481481e+00	 1.000298e+01
0	 4.000000e+00	 9.555556e+00	 1.000223e+01
0	 4.000000e+00	 9.629630e+00	 1.000157e+01
0	 4.074074e+00	 9.259259e+00	 1.000606e+01
0	 4.074074e+00	 9.333333e+00	 1.000498e+01
0	 4.074074e+00	 9.407407e+00	 1.000401e+01
0	 4.074074e+00	 9.481481e+00	 1.000314e+01
0	 4.074074e+00	 9.555556e+00	 1.000235e+01
0	 4.074074e+00	 9.629630e+00	 1.000166e+01
0	 3.703704e+00	 9.629630e+00	 1.000118e+01
0	 3.703704e+00	 9.703704e+00	 1.000076e+01
0	 3.703704e+00	 9.777778e+00	 1.000044e+01
0	 3.703704e+00	 9.851852e+00	 1.000021e+01
0	 3.703704e+00	 9.925926e+00	 1.000006e+01
0	 3.703704e+00	 1.000000e+01	 9.999980e+00
0	 3.777778e+00	 9.629630e+00	 1.000128e+01
0	 3.777778e+00	 9.703704e+00	 1.000082e+01
0	 3.777778e+00	 9.777778e+00	 1.000048e+01
0	 3.777778e+00	 9.851852e+00	 1.000022e+01
0	 3.777778e+00	 9.925926e+00	 1.000006e+01
0	 3.777778e+00	 1.000000e+01	 9.999973e+00
0	 3.851852e+00	 9.629630e+00	 1.000138e+01
0	 3.851852e+00	 9.703704e+00	 1.000089e+01
0	 3.851852e+00	 9.777778e+00	 1.000051e+01
0	 3.851852e+00	 9.851852e+00	 1.000024e+01
0	 3.851852e+00	 9.925926e+00	 1.000007e+01
0	 3.851852e+00	 1.000000e+01	 9.999974e+00
0	 3.925926e+00	 9.629630e+00	 1.000148e+01
0	 3.925926e+00	 9.703704e+00	 1.000096e+01
0	 3.925926e+00	 9.777778e+00	 1.000055e+01
0	 3.925926e+00	 9.851852e+00	 1.000026e+01
0	 3.925926e+00	 9.925926e+00	 1.000007e+01
0	 3.925926e+00	 1.000000e+01	 9.999978e+00
0	 4.000000e+00	 9.629630e+00	 1.000157e+01
0	 4.000000e+00	 9.703704e+00	 1.000102e+01
0	 4.000000e+00	 9.777778e+00	 1.000059e+01
0	 4.000000e+00	 9.851852e+00	 1.000028e+01
0	 4.000000e+00	 9.925926e+00	 1.000008e+01
0	 4.000000e+00	 1.000000e+01	 9.999980e+00
0	 4.074074e+00	 9.629630e+00	 1.000166e+01
0	 4.074074e+00	 9.703704e+00	 1.000107e+01
0	 4.074074e+00	 9.777778e+00	 1.000062e+01
0	 4.074074e+00	 9.851852e+00	 1.000029e+01
0	 4.074074e+00	 9.925926e+00	 1.000008e+01
0	 4.074074e+00	 1.000000e+01	 9.999976e+00
0	 4.074074e+00	 0.000000e+00	 1.051027e+01
0	 4.074074e+00	 7.407407e-02	 1.050917e+01
0	 4.074074e+00	 1.481481e-01	 1.050984e+01
0	 4.074074e+00	 2.222222e-01	 1.051220e+01
0	 4.074074e+00	 2.962963e-01	 1.051618e+01
0	 4.074074e+00	 3.703704e-01	 1.052171e+01
0	 4.148148e+00	 0.000000e+00	 1.049515e+01
0	 4.148148e+00	 7.407407e-02	 1.049409e+01
0	 4.148148e+00	 1.481481e-01	 1.049443e+01
0	 4.148148e+00	 2.222222e-01	 1.049618e+01
0	 4.148148e+00	 2.962963e-01	 1.049935e+01
0	 4.148148e+00	 3.703704e-01	 1.050395e+01
0	 4.222222e+00	 0.000000e+00	 1.047737e+01
0	 4.222222e+00	 7.407407e-02	 1.047686e+01
0	 4.222222e+00	 1.481481e-01	 1.047750e+01
0	 4.222222e+00	 2.222222e-01	 1.047934e+01
0	 4.222222e+00	 2.962963e-01	 1.048244e+01
0	 4.222222e+00	 3.703704e-01	 1.048687e+01
0	 4.296296e+00	 0.000000e+00	 1.045829e+01
0	 4.296296e+00	 7.407407e-02	 1.045857e+01
0	 4.296296e+00	 1.481481e-01	 1.045982e+01
0	 4.296296e+00	 2.222222e-01	 1.046213e+01
0	 4.296296e+00	 2.962963e-01	 1.046559e+01
0	 4.296296e+00	 3.703704e-01	 1.047030e+01
0	 4.370370e+00	 0.000000e+00	 1.043929e+01
0	 4.370370e+00	 7.407407e-02	 1.044028e+01
0	 4.370370e+00	 1.481481e-01	 1.044216e+01
0	 4.370370e+00	 2.222222e-01	 1.044502e+01
0	 4.370370e+00	 2.962963e-01	 1.044896e+01
0	 4.370370e+00	 3.703704e-01	 1.045408e+01
0	 4.444444e+00	 0.000000e+00	 1.042175e+01
0	 4.444444e+00	 7.407407e-02	 1.042307e+01
0	 4.444444e+00	 1.481481e-01	 1.042528e+01
0	 4.444444e+00	 2.222222e-01	 1.042846e+01
0	 4.444444e+00	 2.962963e-01	 1.043269e+01
0	 4.444444e+00	 3.703704e-01	 1.043807e+01
0	 4.074074e+00	 3.703704e-01	 1.052171e+01
0	 4.074074e+00	 4.444444e-01	 1.052843e+01
0	 4.074074e+00	 5.185185e-01	 1.053620e+01
0	 4.074074e+00	 5.925926e-01	 1.054522e+01
0	 4.074074e+00	 6.666667e-01	 1.055570e+01
0	 4.074074e+00	 7.407407e-01	 1.056785e+01
0	 4.148148e+00	 3.703704e-01	 1.050395e+01
0	 4.148148e+00	 4.444444e-01	 1.050979e+01
0	 4.148148e+00	 5.185185e-01	 1.051681e+01
0	 4.148148e+00	 5.925926e-01	 1.052518e+01
0	 4.148148e+00	 6.666667e-01	 1.053506e+01
0	 4.148148e+00	 7.407407e-01	 1.054663e+01
0	 4.222222e+00	 3.703704e-01	 1.048687e+01
0	 4.222222e+00	 4.444444e-01	 1.049247e+01
0	 4.222222e+00	 5.185185e-01	 1.049917e+01
0	 4.222222e+00	 5.925926e-01	 1.050708e+01
0	 4.222222e+00	 6.666667e-01	 1.051636e+01
0	 4.222222e+00	 7.407407e-01	 1.052712e+01
0	 4.296296e+00	 3.703704e-01	 1.047030e+01
0	 4.296296e+00	 4.444444e-01	 1.047605e+01
0	 4.296296e+00	 5.185185e-01	 1.048267e+01
0	 4.296296e+00	 5.925926e-01	 1.049026e+01
0	 4.296296e+00	 6.666667e-01	 1.049895e+01
0	 4.296296e+00	 7.407407e-01	 1.050883e+01
0	 4.370370e+00	 3.703704e-01	 1.045408e+01
0	 4.370370e+00	 4.444444e-01	 1.046010e+01
0	 4.370370e+00	 5.185185e-01	 1.046673e+01
0	 4.370370e+00	 5.925926e-01	 1.047407e+01
0	 4.370370e+00	 6.666667e-01	 1.048220e+01
0	 4.370370e+00	 7.407407e-01	 1.049123e+01
0	 4.444444e+00	 3.703704e-01	 1.043807e+01
0	 4.444444e+00	 4.444444e-01	 1.044422e+01
0	 4.444444e+00	 5.185185e-01	 1.045078e+01
0	 4.444444e+00	 5.925926e-01	 1.045784e+01
0	 4.444444e+00	 6.666667e-01	 1.046548e+01
0	 4.444444e+00	 7.407407e-01	 1.047381e+01
0	 4.074074e+00	 7.407407e-01	 1.056785e+01
0	 4.074074e+00	 8.148148e-01	 1.058067e+01
0	 4.074074e+00	 8.888889e-01	 1.059309e+01
0	 4.074074e+00	 9.629630e-01	 1.060530e+01
0	 4.074074e+00	 1.037037e+00	 1.061745e+01
0	 4.074074e+00	 1.111111e+00	 1.062971e+01
0	 4.148148e+00	 7.407407e-01	 1.054663e+01
0	 4.148148e+00	 8.148148e-01	 1.055881e+01
0	 4.148148e+00	 8.888889e-01	 1.057057e+01
0	 4.148148e+00	 9.629630e-01	 1.058209e+01
0	 4.148148e+00	 1.037037e+00	 1.059357e+01
0	 4.148148e+00	 1.111111e+00	 1.060519e+01
0	 4.222222e+00	 7.407407e-01	 1.052712e+01
0	 4.222222e+00	 8.148148e-01	 1.053843e+01
0	 4.222222e+00	 8.888889e-01	 1.054937e+01
0	 4.222222e+00	 9.629630e-01	 1.056016e+01
0	 4.222222e+00	 1.037037e+00	 1.057098e+01
0	 4.222222e+00	 1.111111e+00	 1.058205e+01
0	 4.296296e+00	 7.407407e-01	 1.050883e+01
0	 4.296296e+00	 8.148148e-01	 1.051916e+01
0	 4.296296e+00	 8.888889e-01	 1.052925e+01
0	 4.296296e+00	 9.629630e-01	 1.053931e+01
0	 4.296296e+00	 1.037037e+00	 1.054954e+01
0	 4.296296e+00	 1.111111e+00	 1.056013e+01
0	 4.370370e+00	 7.407407e-01	 1.049123e+01
0	 4.370370e+00	 8.148148e-01	 1.050063e+01
0	 4.370370e+00	 8.888889e-01	 1.050995e+01
0	 4.370370e+00	 9.629630e-01	 1.051938e+01
0	 4.370370e+00	 1.037037e+00	 1.052909e+01
0	 4.370370e+00	 1.111111e+00	 1.053928e+01
0	 4.444444e+00	 7.407407e-01	 1.047381e+01
0	 4.444444e+00	 8.148148e-01	 1.048248e+01
0	 4.444444e+00	 8.888889e-01	 1.049121e+01
0	 4.444444e+00	 9.629630e-01	 1.050016e+01
0	 4.444444e+00	 1.037037e+00	 1.050948e+01
0	 4.444444e+00	 1.111111e+00	 1.051932e+01
0	 4.074074e+00	 1.111111e+00	 1.062971e+01
0	 4.074074e+00	 1.185185e+00	 1.064155e+01
0	 4.074074e+00	 1.259259e+00	 1.065247e+01
0	 4.074074e+00	 1.333333e+00	 1.066265e+01
0	 4.074074e+00	 1.407407e+00	 1.067229e+01
0	 4.074074e+00	 1.481481e+00	 1.068157e+01
0	 4.148148e+00	 1.111111e+00	 1.060519e+01
0	 4.148148e+00	 1.185185e+00	 1.061652e+01
0	 4.148148e+00	 1.259259e+00	 1.062709e+01
0	 4.148148e+00	 1.333333e+00	 1.063707e+01
0	 4.148148e+00	 1.407407e+00	 1.064659e+01
0	 4.148148e+00	 1.481481e+00	 1.065580e+01
0	 4.222222e+00	 1.111111e+00	 1.058205e+01
0	 4.222222e+00	 1.185185e+00	 1.059295e+01
0	 4.222222e+00	 1.259259e+00	 1.060320e+01
0	 4.222222e+00	 1.333333e+00	 1.061294e+01
0	 4.222222e+00	 1.407407e+00	 1.062227e+01
0	 4.222222e+00	 1.481481e+00	 1.063132e+01
0	 4.296296e+00	 1.111111e+00	 1.056013e+01
0	 4.296296e+00	 1.185185e+00	 1.057066e+01
0	 4.296296e+00	 1.259259e+00	 1.058060e+01
0	 4.296296e+00	 1.333333e+00	 1.059006e+01
0	 4.296296e+00	 1.407407e+00	 1.059916e+01
0	 4.296296e+00	 1.481481e+00	 1.060798e+01
0	 4.370370e+00	 1.111111e+00	 1.053928e+01
0	 4.370370e+00	 1.185185e+00	 1.054946e+01
0	 4.370370e+00	 1.259259e+00	 1.055908e+01
0	 4.370370e+00	 1.333333e+00	 1.056825e+01
0	 4.370370e+00	 1.407407e+00	 1.057707e+01
0	 4.370370e+00	 1.481481e+00	 1.058563e+01
0	 4.444444e+00	 1.111111e+00	 1.051932e+01
0	 4.444444e+00	 1.185185e+00	 1.052917e+01
0	 4.444444e+00	 1.259259e+00	 1.053846e+01
0	 4.444444e+00	 1.333333e+00	 1.054732e+01
0	 4.444444e+00	 1.407407e+00	 1.055584e+01
0	 4.444444e+00	 1.481481e+00	 1.056412e+01
0	 4.074074e+00	 1.481481e+00	 1.068157e+01
0	 4.074074e+00	 1.555556e+00	 1.069002e+01
0	 4.074074e+00	 1.629630e+00	 1.069713e+01
0	 4.074074e+00	 1.703704e+00	 1.070301e+01
0	 4.074074e+00	 1.777778e+00	 1.070775e+01
0	 4.074074e+00	 1.851852e+00	 1.071146e+01
0	 4.148148e+00	 1.481481e+00	 1.065580e+01
0	 4.148148e+00	 1.555556e+00	 1.066425e+01
0	 4.148148e+00	 1.629630e+00	 1.067145e+01
0	 4.148148e+00	 1.703704e+00	 1.067751e+01
0	 4.148148e+00	 1.777778e+00	 1.068254e+01
0	 4.148148e+00	 1.851852e+00	 1.068663e+01
0	 4.222222e+00	 1.481481e+00	 1.063132e+01
0	 4.222222e+00	 1.555556e+00	 1.063967e+01
0	 4.222222e+00	 1.629630e+00	 1.064687e+01
0	 4.222222e+00	 1.703704e+00	 1.065304e+01
0	 4.222222e+00	 1.777778e+00	 1.065827e+01
0	 4.222222e+00	 1.851852e+00	 1.066266e+01
0	 4.296296e+00	 1.481481e+00	 1.060798e+01
0	 4.296296e+00	 1.555556e+00	 1.061616e+01
0	 4.296296e+00	 1.629630e+00	 1.062330e+01
0	 4.296296e+00	 1.703704e+00	 1.062951e+01
0	 4.296296e+00	 1.777778e+00	 1.063489e+01
0	 4.296296e+00	 1.851852e+00	 1.063952e+01
0	 4.370370e+00	 1.481481e+00	 1.058563e+01
0	 4.370370e+00	 1.555556e+00	 1.059361e+01
0	 4.370370e+00	 1.629630e+00	 1.060065e+01
0	 4.370370e+00	 1.703704e+00	 1.060687e+01
0	 4.370370e+00	 1.777778e+00	 1.061234e+01
0	 4.370370e+00	 1.851852e+00	 1.061716e+01
0	 4.444444e+00	 1.481481e+00	 1.056412e+01
0	 4.444444e+00	 1.555556e+00	 1.057189e+01
0	 4.444444e+00	 1.629630e+00	 1.057883e+01
0	 4.444444e+00	 1.703704e+00	 1.058503e+01
0	 4.444444e+00	 1.777778e+00	 1.059057e+01
0	 4.444444e+00	 1.851852e+00	 1.059553e+01
0	 4.074074e+00	 1.851852e+00	 1.071146e+01
0	 4.074074e+00	 1.925926e+00	 1.071406e+01
0	 4.074074e+00	 2.000000e+00	 1.071538e+01
0	 4.074074e+00	 2.074074e+00	 1.071547e+01
0	 4.074074e+00	 2.148148e+00	 1.071432e+01
0	 4.074074e+00	 2.222222e+00	 1.071198e+01
0	 4.148148e+00	 1.851852e+00	 1.068663e+01
0	 4.148148e+00	 1.925926e+00	 1.068967e+01
0	 4.148148e+00	 2.000000e+00	 1.069151e+01
0	 4.148148e+00	 2.074074e+00	 1.069216e+01
0	 4.148148e+00	 2.148148e+00	 1.069165e+01
0	 4.148148e+00	 2.222222e+00	 1.069002e+01
0	 4.222222e+00	 1.851852e+00	 1.066266e+01
0	 4.222222e+00	 1.925926e+00	 1.066609e+01
0	 4.222222e+00	 2.000000e+00	 1.066837e+01
0	 4.222222e+00	 2.074074e+00	 1.066953e+01
0	 4.222222e+00	 2.148148e+00	 1.066960e+01
0	 4.222222e+00	 2.222222e+00	 1.066862e+01
0	 4.296296e+00	 1.851852e+00	 1.063952e+01
0	 4.296296e+00	 1.925926e+00	 1.064327e+01
0	 4.296296e+00	 2.000000e+00	 1.064593e+01
0	 4.296296e+00	 2.074074e+00	 1.064753e+01
0	 4.296296e+00	 2.148148e+00	 1.064813e+01
0	 4.296296e+00	 2.222222e+00	 1.064775e+01
0	 4.370370e+00	 1.851852e+00	 1.061716e+01
0	 4.370370e+00	 1.925926e+00	 1.062117e+01
0	 4.370370e+00	 2.000000e+00	 1.062415e+01
0	 4.370370e+00	 2.074074e+00	 1.062615e+01
0	 4.370370e+00	 2.148148e+00	 1.062721e+01
0	 4.370370e+00	 2.222222e+00	 1.062736e+01
0	 4.444444e+00	 1.851852e+00	 1.059553e+01
0	 4.444444e+00	 1.925926e+00	 1.059974e+01
0	 4.444444e+00	 2.000000e+00	 1.060300e+01
0	 4.444444e+00	 2.074074e+00	 1.060534e+01
0	 4.444444e+00	 2.148148e+00	 1.060680e+01
0	 4.444444e+00	 2.222222e+00	 1.060743e+01
0	 4.074074e+00	 2.222222e+00	 1.071198e+01
0	 4.074074e+00	 2.296296e+00	 1.070854e+01
0	 4.074074e+00	 2.370370e+00	 1.070409e+01
0	 4.074074e+00	 2.444444e+00	 1.069863e+01
0	 4.074074e+00	 2.518519e+00	 1.069214e+01
0	 4.074074e+00	 2.592593e+00	 1.068461e+01
0	 4.148148e+00	 2.222222e+00	 1.069002e+01
0	 4.148148e+00	 2.296296e+00	 1.068736e+01
0	 4.148148e+00	 2.370370e+00	 1.068373e+01
0	 4.148148e+00	 2.444444e+00	 1.067915e+01
0	 4.148148e+00	 2.518519e+00	 1.067358e+01
0	 4.148148e+00	 2.592593e+00	 1.066703e+01
0	 4.222222e+00	 2.222222e+00	 1.066862e+01
0	 4.222222e+00	 2.296296e+00	 1.066667e+01
0	 4.222222e+00	 2.370370e+00	 1.066379e+01
0	 4.222222e+00	 2.444444e+00	 1.065999e+01
0	 4.222222e+00	 2.518519e+00	 1.065524e+01
0	 4.222222e+00	 2.592593e+00	 1.064954e+01
0	 4.296296e+00	 2.222222e+00	 1.064775e+01
0	 4.296296e+00	 2.296296e+00	 1.064644e+01
0	 4.296296e+00	 2.370370e+00	 1.064424e+01
0	 4.296296e+00	 2.444444e+00	 1.064113e+01
0	 4.296296e+00	 2.518519e+00	 1.063711e+01
0	 4.296296e+00	 2.592593e+00	 1.063217e+01
0	 4.370370e+00	 2.222222e+00	 1.062736e+01
0	 4.370370e+00	 2.296296e+00	 1.062664e+01
0	 4.370370e+00	 2.370370e+00	 1.062505e+01
0	 4.370370e+00	 2.444444e+00	 1.062257e+01
0	 4.370370e+00	 2.518519e+00	 1.061920e+01
0	 4.370370e+00	 2.592593e+00	 1.061494e+01
0	 4.444444e+00	 2.222222e+00	 1.060743e+01
0	 4.444444e+00	 2.296296e+00	 1.060723e+01
0	 4.444444e+00	 2.370370e+00	 1.060618e+01
0	 4.444444e+00	 2.444444e+00	 1.060427e+01
0	 4.444444e+00	 2.518519e+00	 1.060150e+01
0	 4.444444e+00	 2.592593e+00	 1.059788e+01
0	 4.074074e+00	 2.592593e+00	 1.068461e+01
0	 4.074074e+00	 2.666667e+00	 1.067623e+01
0	 4.074074e+00	 2.740741e+00	 1.066716e+01
0	 4.074074e+00	 2.814815e+00	 1.065736e+01
0	 4.074074e+00	 2.888889e+00	 1.064677e+01
0	 4.074074e+00	 2.962963e+00	 1.063534e+01
0	 4.148148e+00	 2.592593e+00	 1.066703e+01
0	 4.148148e+00	 2.666667e+00	 1.065964e+01
0	 4.148148e+00	 2.740741e+00	 1.065154e+01
0	 4.148148e+00	 2.814815e+00	 1.064270e+01
0	 4.148148e+00	 2.888889e+00	 1.063307e+01
0	 4.148148e+00	 2.962963e+00	 1.062262e+01
0	 4.222222e+00	 2.592593e+00	 1.064954e+01
0	 4.222222e+00	 2.666667e+00	 1.064302e+01
0	 4.222222e+00	 2.740741e+00	 1.063580e+01
0	 4.222222e+00	 2.814815e+00	 1.062785e+01
0	 4.222222e+00	 2.888889e+00	 1.061913e+01
0	 4.222222e+00	 2.962963e+00	 1.060961e+01
0	 4.296296e+00	 2.592593e+00	 1.063217e+01
0	 4.296296e+00	 2.666667e+00	 1.062643e+01
0	 4.296296e+00	 2.740741e+00	 1.062001e+01
0	 4.296296e+00	 2.814815e+00	 1.061287e+01
0	 4.296296e+00	 2.888889e+00	 1.060500e+01
0	 4.296296e+00	 2.962963e+00	 1.059637e+01
0	 4.370370e+00	 2.592593e+00	 1.061494e+01
0	 4.370370e+00	 2.666667e+00	 1.060991e+01
0	 4.370370e+00	 2.740741e+00	 1.060422e+01
0	 4.370370e+00	 2.814815e+00	 1.059785e+01
0	 4.370370e+00	 2.888889e+00	 1.059077e+01
0	 4.370370e+00	 2.962963e+00	 1.058297e+01
0	 4.444444e+00	 2.592593e+00	 1.059788e+01
0	 4.444444e+00	 2.666667e+00	 1.059351e+01
0	 4.444444e+00	 2.740741e+00	 1.058850e+01
0	 4.444444e+00	 2.814815e+00	 1.058285e+01
0	 4.444444e+00	 2.888889e+00	 1.057651e+01
0	 4.444444e+00	 2.962963e+00	 1.056949e+01
0	 4.074074e+00	 2.962963e+00	 1.063534e+01
0	 4.074074e+00	 3.037037e+00	 1.062334e+01
0	 4.074074e+00	 3.111111e+00	 1.061104e+01
0	 4.074074e+00	 3.185185e+00	 1.059838e+01
0	 4.074074e+00	 3.259259e+00	 1.058532e+01
0	 4.074074e+00	 3.333333e+00	 1.057182e+01
0	 4.148148e+00	 2.962963e+00	 1.062262e+01
0	 4.148148e+00	 3.037037e+00	 1.061160e+01
0	 4.148148e+00	 3.111111e+00	 1.060026e+01
0	 4.148148e+00	 3.185185e+00	 1.058855e+01
0	 4.148148e+00	 3.259259e+00	 1.057643e+01
0	 4.148148e+00	 3.333333e+00	 1.056384e+01
0	 4.222222e+00	 2.962963e+00	 1.060961e+01
0	 4.222222e+00	 3.037037e+00	 1.059952e+01
0	 4.222222e+00	 3.111111e+00	 1.058910e+01
0	 4.222222e+00	 3.185185e+00	 1.057828e+01
0	 4.222222e+00	 3.259259e+00	 1.056703e+01
0	 4.222222e+00	 3.333333e+00	 1.055530e+01
0	 4.296296e+00	 2.962963e+00	 1.059637e+01
0	 4.296296e+00	 3.037037e+00	 1.058717e+01
0	 4.296296e+00	 3.111111e+00	 1.057761e+01
0	 4.296296e+00	 3.185185e+00	 1.056763e+01
0	 4.296296e+00	 3.259259e+00	 1.055720e+01
0	 4.296296e+00	 3.333333e+00	 1.054627e+01
0	 4.370370e+00	 2.962963e+00	 1.058297e+01
0	 4.370370e+00	 3.037037e+00	 1.057461e+01
0	 4.370370e+00	 3.111111e+00	 1.056586e+01
0	 4.370370e+00	 3.185185e+00	 1.055667e+01
0	 4.370370e+00	 3.259259e+00	 1.054701e+01
0	 4.370370e+00	 3.333333e+00	 1.053683e+01
0	 4.444444e+00	 2.962963e+00	 1.056949e+01
0	 4.444444e+00	 3.037037e+00	 1.056191e+01
0	 4.444444e+00	 3.111111e+00	 1.055391e+01
0	 4.444444e+00	 3.185185e+00	 1.054546e+01
0	 4.444444e+00	 3.259259e+00	 1.053653e+01
0	 4.444444e+00	 3.333333e+00	 1.052707e+01
0	 4.074074e+00	 3.333333e+00	 1.057182e+01
0	 4.074074e+00	 3.407407e+00	 1.055806e+01
0	 4.074074e+00	 3.481481e+00	 1.054423e+01
0	 4.074074e+00	 3.555556e+00	 1.053030e+01
0	 4.074074e+00	 3.629630e+00	 1.051620e+01
0	 4.074074e+00	 3.703704e+00	 1.050189e+01
0	 4.148148e+00	 3.333333e+00	 1.056384e+01
0	 4.148148e+00	 3.407407e+00	 1.055097e+01
0	 4.148148e+00	 3.481481e+00	 1.053799e+01
0	 4.148148e+00	 3.555556e+00	 1.052485e+01
0	 4.148148e+00	 3.629630e+00	 1.051152e+01
0	 4.148148e+00	 3.703704e+00	 1.049795e+01
0	 4.222222e+00	 3.333333e+00	 1.055530e+01
0	 4.222222e+00	 3.407407e+00	 1.054325e+01
0	 4.222222e+00	 3.481481e+00	 1.053107e+01
0	 4.222222e+00	 3.555556e+00	 1.051870e+01
0	 4.222222e+00	 3.629630e+00	 1.050612e+01
0	 4.222222e+00	 3.703704e+00	 1.049328e+01
0	 4.296296e+00	 3.333333e+00	 1.054627e+01
0	 4.296296e+00	 3.407407e+00	 1.053500e+01
0	 4.296296e+00	 3.481481e+00	 1.052357e+01
0	 4.296296e+00	 3.555556e+00	 1.051195e+01
0	 4.296296e+00	 3.629630e+00	 1.050010e+01
0	 4.296296e+00	 3.703704e+00	 1.048798e+01
0	 4.370370e+00	 3.333333e+00	 1.053683e+01
0	 4.370370e+00	 3.407407e+00	 1.052631e+01
0	 4.370370e+00	 3.481481e+00	 1.051561e+01
0	 4.370370e+00	 3.555556e+00	 1.050470e+01
0	 4.370370e+00	 3.629630e+00	 1.049355e+01
0	 4.370370e+00	 3.703704e+00	 1.048212e+01
0	 4.444444e+00	 3.333333e+00	 1.052707e+01
0	 4.444444e+00	 3.407407e+00	 1.051726e+01
0	 4.444444e+00	 3.481481e+00	 1.050726e+01
0	 4.444444e+00	 3.555556e+00	 1.049704e+01
0	 4.444444e+00	 3.629630e+00	 1.048656e+01
0	 4.444444e+00	 3.703704e+00	 1.047581e+01
0	 4.074074e+00	 3.703704e+00	 1.050189e+01
0	 4.074074e+00	 3.777778e+00	 1.048754e+01
0	 4.074074e+00	 3.851852e+00	 1.047334e+01
0	 4.074074e+00	 3.925926e+00	 1.045925e+01
0	 4.074074e+00	 4.000000e+00	 1.044524e+01
0	 4.074074e+00	 4.074074e+00	 1.043128e+01
0	 4.148148e+00	 3.703704e+00	 1.049795e+01
0	 4.148148e+00	 3.777778e+00	 1.048431e+01
0	 4.148148e+00	 3.851852e+00	 1.047079e+01
0	 4.148148e+00	 3.925926e+00	 1.045735e+01
0	 4.148148e+00	 4.000000e+00	 1.044396e+01
0	 4.148148e+00	 4.074074e+00	 1.043057e+01
0	 4.222222e+00	 3.703704e+00	 1.049328e+01
0	 4.222222e+00	 3.777778e+00	 1.048035e+01
0	 4.222222e+00	 3.851852e+00	 1.046750e+01
0	 4.222222e+00	 3.925926e+00	 1.045470e+01
0	 4.222222e+00	 4.000000e+00	 1.044190e+01
0	 4.222222e+00	 4.074074e+00	 1.042907e+01
0	 4.296296e+00	 3.703704e+00	 1.048798e+01
0	 4.296296e+00	 3.777778e+00	 1.047574e+01
0	 4.296296e+00	 3.851852e+00	 1.046355e+01
0	 4.296296e+00	 3.925926e+00	 1.045136e+01
0	 4.296296e+00	 4.000000e+00	 1.043915e+01
0	 4.296296e+00	 4.074074e+00	 1.042687e+01
0	 4.370370e+00	 3.703704e+00	 1.048212e+01
0	 4.370370e+00	 3.777778e+00	 1.047056e+01
0	 4.370370e+00	 3.851852e+00	 1.045901e+01
0	 4.370370e+00	 3.925926e+00	 1.044742e+01
0	 4.370370e+00	 4.000000e+00	 1.043578e+01
0	 4.370370e+00	 4.074074e+00	 1.042403e+01
0	 4.444444e+00	 3.703704e+00	 1.047581e+01
0	 4.444444e+00	 3.777778e+00	 1.046490e+01
0	 4.444444e+00	 3.851852e+00	 1.045396e+01
0	 4.444444e+00	 3.925926e+00	 1.044295e+01
0	 4.444444e+00	 4.000000e+00	 1.043186e+01
0	 4.444444e+00	 4.074074e+00	 1.042065e+01
0	 4.074074e+00	 4.074074e+00	 1.043128e+01
0	 4.074074e+00	 4.148148e+00	 1.041745e+01
0	 4.074074e+00	 4.222222e+00	 1.040387e+01
0	 4.074074e+00	 4.296296e+00	 1.039051e+01
0	 4.074074e+00	 4.370370e+00	 1.037733e+01
0	 4.074074e+00	 4.444444e+00	 1.036431e+01
0	 4.148148e+00	 4.074074e+00	 1.043057e+01
0	 4.148148e+00	 4.148148e+00	 1.041728e+01
0	 4.148148e+00	 4.222222e+00	 1.040420e+01
0	 4.148148e+00	 4.296296e+00	 1.039130e+01
0	 4.148148e+00	 4.370370e+00	 1.037855e+01
0	 4.148148e+00	 4.444444e+00	 1.036593e+01
0	 4.222222e+00	 4.074074e+00	 1.042907e+01
0	 4.222222e+00	 4.148148e+00	 1.041632e+01
0	 4.222222e+00	 4.222222e+00	 1.040373e+01
0	 4.222222e+00	 4.296296e+00	 1.039129e+01
0	 4.222222e+00	 4.370370e+00	 1.037897e+01
0	 4.222222e+00	 4.444444e+00	 1.036676e+01
0	 4.296296e+00	 4.074074e+00	 1.042687e+01
0	 4.296296e+00	 4.148148e+00	 1.041463e+01
0	 4.296296e+00	 4.222222e+00	 1.040253e+01
0	 4.296296e+00	 4.296296e+00	 1.039056e+01
0	 4.296296e+00	 4.370370e+00	 1.037868e+01
0	 4.296296e+00	 4.444444e+00	 1.036688e+01
0	 4.370370e+00	 4.074074e+00	 1.042403e+01
0	 4.370370e+00	 4.148148e+00	 1.041230e+01
0	 4.370370e+00	 4.222222e+00	 1.040069e+01
0	 4.370370e+00	 4.296296e+00	 1.038918e+01
0	 4.370370e+00	 4.370370e+00	 1.037774e+01
0	 4.370370e+00	 4.444444e+00	 1.036636e+01
0	 4.444444e+00	 4.074074e+00	 1.042065e+01
0	 4.444444e+00	 4.148148e+00	 1.040942e+01
0	 4.444444e+00	 4.222222e+00	 1.039829e+01
0	 4.444444e+00	 4.296296e+00	 1.038724e+01
0	 4.444444e+00	 4.370370e+00	 1.037624e+01
0	 4.444444e+00	 4.444444e+00	 1.036528e+01
0	 4.074074e+00	 4.444444e+00	 1.036431e+01
0	 4.074074e+00	 4.518519e+00	 1.035153e+01
0	 4.074074e+00	 4.592593e+00	 1.033905e+01
0	 4.074074e+00	 4.666667e+00	 1.032686e+01
0	 4.074074e+00	 4.740741e+00	 1.031495e+01
0	 4.074074e+00	 4.814815e+00	 1.030329e+01
0	 4.148148e+00	 4.444444e+00	 1.036593e+01
0	 4.148148e+00	 4.518519e+00	 1.035350e+01
0	 4.148148e+00	 4.592593e+00	 1.034136e+01
0	 4.148148e+00	 4.666667e+00	 1.032949e+01
0	 4.148148e+00	 4.740741e+00	 1.031786e+01
0	 4.148148e+00	 4.814815e+00	 1.030646e+01
0	 4.222222e+00	 4.444444e+00	 1.036676e+01
0	 4.222222e+00	 4.518519e+00	 1.035472e+01
0	 4.222222e+00	 4.592593e+00	 1.034293e+01
0	 4.222222e+00	 4.666667e+00	 1.033138e+01
0	 4.222222e+00	 4.740741e+00	 1.032004e+01
0	 4.222222e+00	 4.814815e+00	 1.030890e+01
0	 4.296296e+00	 4.444444e+00	 1.036688e+01
0	 4.296296e+00	 4.518519e+00	 1.035523e+01
0	 4.296296e+00	 4.592593e+00	 1.034380e+01
0	 4.296296e+00	 4.666667e+00	 1.033258e+01
0	 4.296296e+00	 4.740741e+00	 1.032154e+01
0	 4.296296e+00	 4.814815e+00	 1.031067e+01
0	 4.370370e+00	 4.444444e+00	 1.036636e+01
0	 4.370370e+00	 4.518519e+00	 1.035510e+01
0	 4.370370e+00	 4.592593e+00	 1.034404e+01
0	 4.370370e+00	 4.666667e+00	 1.033315e+01
0	 4.370370e+00	 4.740741e+00	 1.032242e+01
0	 4.370370e+00	 4.814815e+00	 1.031183e+01
0	 4.444444e+00	 4.444444e+00	 1.036528e+01
0	 4.444444e+00	 4.518519e+00	 1.035441e+01
0	 4.444444e+00	 4.592593e+00	 1.034371e+01
0	 4.444444e+00	 4.666667e+00	 1.033315e+01
0	 4.444444e+00	 4.740741e+00	 1.032273e+01
0	 4.444444e+00	 4.814815e+00	 1.031243e+01
0	 4.074074e+00	 4.814815e+00	 1.030329e+01
0	 4.074074e+00	 4.888889e+00	 1.029192e+01
0	 4.074074e+00	 4.962963e+00	 1.028086e+01
0	 4.074074e+00	 5.037037e+00	 1.027010e+01
0	 4.074074e+00	 5.111111e+00	 1.025963e+01
0	 4.074074e+00	 5.185185e+00	 1.024943e+01
0	 4.148148e+00	 4.814815e+00	 1.030646e+01
0	 4.148148e+00	 4.888889e+00	 1.029531e+01
0	 4.148148e+00	 4.962963e+00	 1.028445e+01
0	 4.148148e+00	 5.037037e+00	 1.027386e+01
0	 4.148148e+00	 5.111111e+00	 1.026355e+01
0	 4.148148e+00	 5.185185e+00	 1.025348e+01
0	 4.222222e+00	 4.814815e+00	 1.030890e+01
0	 4.222222e+00	 4.888889e+00	 1.029799e+01
0	 4.222222e+00	 4.962963e+00	 1.028734e+01
0	 4.222222e+00	 5.037037e+00	 1.027695e+01
0	 4.222222e+00	 5.111111e+00	 1.026680e+01
0	 4.222222e+00	 5.185185e+00	 1.025689e+01
0	 4.296296e+00	 4.814815e+00	 1.031067e+01
0	 4.296296e+00	 4.888889e+00	 1.030001e+01
0	 4.296296e+00	 4.962963e+00	 1.028959e+01
0	 4.296296e+00	 5.037037e+00	 1.027940e+01
0	 4.296296e+00	 5.111111e+00	 1.026944e+01
0	 4.296296e+00	 5.185185e+00	 1.025970e+01
0	 4.370370e+00	 4.814815e+00	 1.031183e+01
0	 4.370370e+00	 4.888889e+00	 1.030142e+01
0	 4.370370e+00	 4.962963e+00	 1.029124e+01
0	 4.370370e+00	 5.037037e+00	 1.028127e+01
0	 4.370370e+00	 5.111111e+00	 1.027151e+01
0	 4.370370e+00	 5.185185e+00	 1.026194e+01
0	 4.444444e+00	 4.814815e+00	 1.031243e+01
0	 4.444444e+00	 4.888889e+00	 1.030228e+01
0	 4.444444e+00	 4.962963e+00	 1.029234e+01
0	 4.444444e+00	 5.037037e+00	 1.028260e+01
0	 4.444444e+00	 5.111111e+00	 1.027305e+01
0	 4.444444e+00	 5.185185e+00	 1.026367e+01
0	 4.074074e+00	 5.185185e+00	 1.024943e+01
0	 4.074074e+00	 5.259259e+00	 1.023953e+01
0	 4.074074e+00	 5.333333e+00	 1.022993e+01
0	 4.074074e+00	 5.407407e+00	 1.022063e+01
0	 4.074074e+00	 5.481481e+00	 1.021162e+01
0	 4.074074e+00	 5.555556e+00	 1.020290e+01
0	 4.148148e+00	 5.185185e+00	 1.025348e+01
0	 4.148148e+00	 5.259259e+00	 1.024369e+01
0	 4.148148e+00	 5.333333e+00	 1.023419e+01
0	 4.148148e+00	 5.407407e+00	 1.022497e+01
0	 4.148148e+00	 5.481481e+00	 1.021602e+01
0	 4.148148e+00	 5.555556e+00	 1.020734e+01
0	 4.222222e+00	 5.185185e+00	 1.025689e+01
0	 4.222222e+00	 5.259259e+00	 1.024723e+01
0	 4.222222e+00	 5.333333e+00	 1.023784e+01
0	 4.222222e+00	 5.407407e+00	 1.022871e+01
0	 4.222222e+00	 5.481481e+00	 1.021985e+01
0	 4.222222e+00	 5.555556e+00	 1.021123e+01
0	 4.296296e+00	 5.185185e+00	 1.025970e+01
0	 4.296296e+00	 5.259259e+00	 1.025018e+01
0	 4.296296e+00	 5.333333e+00	 1.024092e+01
0	 4.296296e+00	 5.407407e+00	 1.023191e+01
0	 4.296296e+00	 5.481481e+00	 1.022313e+01
0	 4.296296e+00	 5.555556e+00	 1.021459e+01
0	 4.370370e+00	 5.185185e+00	 1.026194e+01
0	 4.370370e+00	 5.259259e+00	 1.025259e+01
0	 4.370370e+00	 5.333333e+00	 1.024347e+01
0	 4.370370e+00	 5.407407e+00	 1.023458e+01
0	 4.370370e+00	 5.481481e+00	 1.022591e+01
0	 4.370370e+00	 5.555556e+00	 1.021746e+01
0	 4.444444e+00	 5.185185e+00	 1.026367e+01
0	 4.444444e+00	 5.259259e+00	 1.025449e+01
0	 4.444444e+00	 5.333333e+00	 1.024552e+01
0	 4.444444e+00	 5.407407e+00	 1.023677e+01
0	 4.444444e+00	 5.481481e+00	 1.022821e+01
0	 4.444444e+00	 5.555556e+00	 1.021986e+01
0	 4.074074e+00	 5.555556e+00	 1.020290e+01
0	 4.074074e+00	 5.629630e+00	 1.019446e+01
0	 4.074074e+00	 5.703704e+00	 1.018629e+01
0	 4.074074e+00	 5.777778e+00	 1.017838e+01
0	 4.074074e+00	 5.851852e+00	 1.017075e+01
0	 4.074074e+00	 5.925926e+00	 1.016338e+01
0	 4.148148e+00	 5.555556e+00	 1.020734e+01
0	 4.148148e+00	 5.629630e+00	 1.019892e+01
0	 4.148148e+00	 5.703704e+00	 1.019077e+01
0	 4.148148e+00	 5.777778e+00	 1.018287e+01
0	 4.148148e+00	 5.851852e+00	 1.017523e+01
0	 4.148148e+00	 5.925926e+00	 1.016784e+01
0	 4.222222e+00	 5.555556e+00	 1.021123e+01
0	 4.222222e+00	 5.629630e+00	 1.020286e+01
0	 4.222222e+00	 5.703704e+00	 1.019473e+01
0	 4.222222e+00	 5.777778e+00	 1.018685e+01
0	 4.222222e+00	 5.851852e+00	 1.017922e+01
0	 4.222222e+00	 5.925926e+00	 1.017182e+01
0	 4.296296e+00	 5.555556e+00	 1.021459e+01
0	 4.296296e+00	 5.629630e+00	 1.020628e+01
0	 4.296296e+00	 5.703704e+00	 1.019820e+01
0	 4.296296e+00	 5.777778e+00	 1.019036e+01
0	 4.296296e+00	 5.851852e+00	 1.018275e+01
0	 4.296296e+00	 5.925926e+00	 1.017536e+01
0	 4.370370e+00	 5.555556e+00	 1.021746e+01
0	 4.370370e+00	 5.629630e+00	 1.020922e+01
0	 4.370370e+00	 5.703704e+00	 1.020120e+01
0	 4.370370e+00	 5.777778e+00	 1.019341e+01
0	 4.370370e+00	 5.851852e+00	 1.018584e+01
0	 4.370370e+00	 5.925926e+00	 1.017848e+01
0	 4.444444e+00	 5.555556e+00	 1.021986e+01
0	 4.444444e+00	 5.629630e+00	 1.021170e+01
0	 4.444444e+00	 5.703704e+00	 1.020376e+01
0	 4.444444e+00	 5.777778e+00	 1.019603e+01
0	 4.444444e+00	 5.851852e+00	 1.018851e+01
0	 4.444444e+00	 5.925926e+00	 1.018119e+01
0	 4.074074e+00	 5.925926e+00	 1.016338e+01
0	 4.074074e+00	 6.000000e+00	 1.015626e+01
0	 4.074074e+00	 6.074074e+00	 1.014939e+01
0	 4.074074e+00	 6.148148e+00	 1.014275e+01
0	 4.074074e+00	 6.222222e+00	 1.013635e+01
0	 4.074074e+00	 6.296296e+00	 1.013020e+01
0	 4.148148e+00	 5.925926e+00	 1.016784e+01
0	 4.148148e+00	 6.000000e+00	 1.016068e+01
0	 4.148148e+00	 6.074074e+00	 1.015377e+01
0	 4.148148e+00	 6.148148e+00	 1.014708e+01
0	 4.148148e+00	 6.222222e+00	 1.014063e+01
0	 4.148148e+00	 6.296296e+00	 1.013441e+01
0	 4.222222e+00	 5.925926e+00	 1.017182e+01
0	 4.222222e+00	 6.000000e+00	 1.016466e+01
0	 4.222222e+00	 6.074074e+00	 1.015772e+01
0	 4.222222e+00	 6.148148e+00	 1.015100e+01
0	 4.222222e+00	 6.222222e+00	 1.014451e+01
0	 4.222222e+00	 6.296296e+00	 1.013823e+01
0	 4.296296e+00	 5.925926e+00	 1.017536e+01
0	 4.296296e+00	 6.000000e+00	 1.016820e+01
0	 4.296296e+00	 6.074074e+00	 1.016125e+01
0	 4.296296e+00	 6.148148e+00	 1.015452e+01
0	 4.296296e+00	 6.222222e+00	 1.014800e+01
0	 4.296296e+00	 6.296296e+00	 1.014169e+01
0	 4.370370e+00	 5.925926e+00	 1.017848e+01
0	 4.370370e+00	 6.000000e+00	 1.017133e+01
0	 4.370370e+00	 6.074074e+00	 1.016439e+01
0	 4.370370e+00	 6.148148e+00	 1.015765e+01
0	 4.370370e+00	 6.222222e+00	 1.015112e+01
0	 4.370370e+00	 6.296296e+00	 1.014479e+01
0	 4.444444e+00	 5.925926e+00	 1.018119e+01
0	 4.444444e+00	 6.000000e+00	 1.017407e+01
0	 4.444444e+00	 6.074074e+00	 1.016715e+01
0	 4.444444e+00	 6.148148e+00	 1.016042e+01
0	 4.444444e+00	 6.222222e+00	 1.015389e+01
0	 4.444444e+00	 6.296296e+00	 1.014754e+01
0	 4.074074e+00	 6.296296e+00	 1.013020e+01
0	 4.074074e+00	 6.370370e+00	 1.012426e+01
0	 4.074074e+00	 6.444444e+00	 1.011853e+01
0	 4.074074e+00	 6.518519e+00	 1.011300e+01
0	 4.074074e+00	 6.592593e+00	 1.010768e+01
0	 4.074074e+00	 6.666667e+00	 1.010256e+01
0	 4.148148e+00	 6.296296e+00	 1.013441e+01
0	 4.148148e+00	 6.370370e+00	 1.012840e+01
0	 4.148148e+00	 6.444444e+00	 1.012259e+01
0	 4.148148e+00	 6.518519e+00	 1.011698e+01
0	 4.148148e+00	 6.592593e+00	 1.011157e+01
0	 4.148148e+00	 6.666667e+00	 1.010636e+01
0	 4.222222e+00	 6.296296e+00	 1.013823e+01
0	 4.222222e+00	 6.370370e+00	 1.013217e+01
0	 4.222222e+00	 6.444444e+00	 1.012629e+01
0	 4.222222e+00	 6.518519e+00	 1.012061e+01
0	 4.222222e+00	 6.592593e+00	 1.011513e+01
0	 4.222222e+00	 6.666667e+00	 1.010984e+01
0	 4.296296e+00	 6.296296e+00	 1.014169e+01
0	 4.296296e+00	 6.370370e+00	 1.013558e+01
0	 4.296296e+00	 6.444444e+00	 1.012966e+01
0	 4.296296e+00	 6.518519e+00	 1.012392e+01
0	 4.296296e+00	 6.592593e+00	 1.011838e+01
0	 4.296296e+00	 6.666667e+00	 1.011302e+01
0	 4.370370e+00	 6.296296e+00	 1.014479e+01
0	 4.370370e+00	 6.370370e+00	 1.013865e+01
0	 4.370370e+00	 6.444444e+00	 1.013269e+01
0	 4.370370e+00	 6.518519e+00	 1.012691e+01
0	 4.370370e+00	 6.592593e+00	 1.012132e+01
0	 4.370370e+00	 6.666667e+00	 1.011591e+01
0	 4.444444e+00	 6.296296e+00	 1.014754e+01
0	 4.444444e+00	 6.370370e+00	 1.014138e+01
0	 4.444444e+00	 6.444444e+00	 1.013540e+01
0	 4.444444e+00	 6.518519e+00	 1.012960e+01
0	 4.444444e+00	 6.592593e+00	 1.012397e+01
0	 4.444444e+00	 6.666667e+00	 1.011852e+01
0	 4.074074e+00	 6.666667e+00	 1.010256e+01
0	 4.074074e+00	 6.740741e+00	 1.009763e+01
0	 4.074074e+00	 6.814815e+00	 1.009288e+01
0	 4.074074e+00	 6.888889e+00	 1.008829e+01
0	 4.074074e+00	 6.962963e+00	 1.008388e+01
0	 4.074074e+00	 7.037037e+00	 1.007965e+01
0	 4.148148e+00	 6.666667e+00	 1.010636e+01
0	 4.148148e+00	 6.740741e+00	 1.010133e+01
0	 4.148148e+00	 6.814815e+00	 1.009647e+01
0	 4.148148e+00	 6.888889e+00	 1.009179e+01
0	 4.148148e+00	 6.962963e+00	 1.008727e+01
0	 4.148148e+00	 7.037037e+00	 1.008292e+01
0	 4.222222e+00	 6.666667e+00	 1.010984e+01
0	 4.222222e+00	 6.740741e+00	 1.010473e+01
0	 4.222222e+00	 6.814815e+00	 1.009978e+01
0	 4.222222e+00	 6.888889e+00	 1.009501e+01
0	 4.222222e+00	 6.962963e+00	 1.009040e+01
0	 4.222222e+00	 7.037037e+00	 1.008596e+01
0	 4.296296e+00	 6.666667e+00	 1.011302e+01
0	 4.296296e+00	 6.740741e+00	 1.010784e+01
0	 4.296296e+00	 6.814815e+00	 1.010282e+01
0	 4.296296e+00	 6.888889e+00	 1.009797e+01
0	 4.296296e+00	 6.962963e+00	 1.009328e+01
0	 4.296296e+00	 7.037037e+00	 1.008875e+01
0	 4.370370e+00	 6.666667e+00	 1.011591e+01
0	 4.370370e+00	 6.740741e+00	 1.011067e+01
0	 4.370370e+00	 6.814815e+00	 1.010559e+01
0	 4.370370e+00	 6.888889e+00	 1.010067e+01
0	 4.370370e+00	 6.962963e+00	 1.009591e+01
0	 4.370370e+00	 7.037037e+00	 1.009131e+01
0	 4.444444e+00	 6.666667e+00	 1.011852e+01
0	 4.444444e+00	 6.740741e+00	 1.011323e+01
0	 4.444444e+00	 6.814815e+00	 1.010810e+01
0	 4.444444e+00	 6.888889e+00	 1.010312e+01
0	 4.444444e+00	 6.962963e+00	 1.009830e+01
0	 4.444444e+00	 7.037037e+00	 1.009364e+01
0	 4.074074e+00	 7.037037e+00	 1.007965e+01
0	 4.074074e+00	 7.111111e+00	 1.007557e+01
0	 4.074074e+00	 7.185185e+00	 1.007163e+01
0	 4.074074e+00	 7.259259e+00	 1.006784e+01
0	 4.074074e+00	 7.333333e+00	 1.006419e+01
0	 4.074074e+00	 7.407407e+00	 1.006069e+01
0	 4.148148e+00	 7.037037e+00	 1.008292e+01
0	 4.148148e+00	 7.111111e+00	 1.007874e+01
0	 4.148148e+00	 7.185185e+00	 1.007469e+01
0	 4.148148e+00	 7.259259e+00	 1.007078e+01
0	 4.148148e+00	 7.333333e+00	 1.006702e+01
0	 4.148148e+00	 7.407407e+00	 1.006340e+01
0	 4.222222e+00	 7.037037e+00	 1.008596e+01
0	 4.222222e+00	 7.111111e+00	 1.008167e+01
0	 4.222222e+00	 7.185185e+00	 1.007752e+01
0	 4.222222e+00	 7.259259e+00	 1.007351e+01
0	 4.222222e+00	 7.333333e+00	 1.006964e+01
0	 4.222222e+00	 7.407407e+00	 1.006592e+01
0	 4.296296e+00	 7.037037e+00	 1.008875e+01
0	 4.296296e+00	 7.111111e+00	 1.008437e+01
0	 4.296296e+00	 7.185185e+00	 1.008013e+01
0	 4.296296e+00	 7.259259e+00	 1.007604e+01
0	 4.296296e+00	 7.333333e+00	 1.007208e+01
0	 4.296296e+00	 7.407407e+00	 1.006826e+01
0	 4.370370e+00	 7.037037e+00	 1.009131e+01
0	 4.370370e+00	 7.111111e+00	 1.008685e+01
0	 4.370370e+00	 7.185185e+00	 1.008254e+01
0	 4.370370e+00	 7.259259e+00	 1.007836e+01
0	 4.370370e+00	 7.333333e+00	 1.007431e+01
0	 4.370370e+00	 7.407407e+00	 1.007041e+01
0	 4.444444e+00	 7.037037e+00	 1.009364e+01
0	 4.444444e+00	 7.111111e+00	 1.008911e+01
0	 4.444444e+00	 7.185185e+00	 1.008473e+01
0	 4.444444e+00	 7.259259e+00	 1.008048e+01
0	 4.444444e+00	 7.333333e+00	 1.007636e+01
0	 4.444444e+00	 7.407407e+00	 1.007238e+01
0	 4.074074e+00	 7.407407e+00	 1.006069e+01
0	 4.074074e+00	 7.481481e+00	 1.005731e+01
0	 4.074074e+00	 7.555556e+00	 1.005406e+01
0	 4.074074e+00	 7.629630e+00	 1.005092e+01
0	 4.074074e+00	 7.703704e+00	 1.004790e+01
0	 4.074074e+00	 7.777778e+00	 1.004499e+01
0	 4.148148e+00	 7.407407e+00	 1.006340e+01
0	 4.148148e+00	 7.481481e+00	 1.005991e+01
0	 4.148148e+00	 7.555556e+00	 1.005653e+01
0	 4.148148e+00	 7.629630e+00	 1.005328e+01
0	 4.148148e+00	 7.703704e+00	 1.005015e+01
0	 4.148148e+00	 7.777778e+00	 1.004713e+01
0	 4.222222e+00	 7.407407e+00	 1.006592e+01
0	 4.222222e+00	 7.481481e+00	 1.006232e+01
0	 4.222222e+00	 7.555556e+00	 1.005885e+01
0	 4.222222e+00	 7.629630e+00	 1.005549e+01
0	 4.222222e+00	 7.703704e+00	 1.005225e+01
0	 4.222222e+00	 7.777778e+00	 1.004913e+01
0	 4.296296e+00	 7.407407e+00	 1.006826e+01
0	 4.296296e+00	 7.481481e+00	 1.006456e+01
0	 4.296296e+00	 7.555556e+00	 1.006099e+01
0	 4.296296e+00	 7.629630e+00	 1.005754e+01
0	 4.296296e+00	 7.703704e+00	 1.005420e+01
0	 4.296296e+00	 7.777778e+00	 1.005098e+01
0	 4.370370e+00	 7.407407e+00	 1.007041e+01
0	 4.370370e+00	 7.481481e+00	 1.006663e+01
0	 4.370370e+00	 7.555556e+00	 1.006297e+01
0	 4.370370e+00	 7.629630e+00	 1.005943e+01
0	 4.370370e+00	 7.703704e+00	 1.005601e+01
0	 4.370370e+00	 7.777778e+00	 1.005270e+01
0	 4.444444e+00	 7.407407e+00	 1.007238e+01
0	 4.444444e+00	 7.481481e+00	 1.006853e+01
0	 4.444444e+00	 7.555556e+00	 1.006479e+01
0	 4.444444e+00	 7.629630e+00	 1.006117e+01
0	 4.444444e+00	 7.703704e+00	 1.005767e+01
0	 4.444444e+00	 7.777778e+00	 1.005428e+01
0	 4.074074e+00	 7.777778e+00	 1.004499e+01
0	 4.074074e+00	 7.851852e+00	 1.004220e+01
0	 4.074074e+00	 7.925926e+00	 1.003951e+01
0	 4.074074e+00	 8.000000e+00	 1.003691e+01
0	 4.074074e+00	 8.074074e+00	 1.003441e+01
0	 4.074074e+00	 8.148148e+00	 1.003201e+01
0	 4.148148e+00	 7.777778e+00	 1.004713e+01
0	 4.148148e+00	 7.851852e+00	 1.004422e+01
0	 4.148148e+00	 7.925926e+00	 1.004142e+01
0	 4.148148e+00	 8.000000e+00	 1.003871e+01
0	 4.148148e+00	 8.074074e+00	 1.003610e+01
0	 4.148148e+00	 8.148148e+00	 1.003360e+01
0	 4.222222e+00	 7.777778e+00	 1.004913e+01
0	 4.222222e+00	 7.851852e+00	 1.004611e+01
0	 4.222222e+00	 7.925926e+00	 1.004320e+01
0	 4.222222e+00	 8.000000e+00	 1.004040e+01
0	 4.222222e+00	 8.074074e+00	 1.003769e+01
0	 4.222222e+00	 8.148148e+00	 1.003508e+01
0	 4.296296e+00	 7.777778e+00	 1.005098e+01
0	 4.296296e+00	 7.851852e+00	 1.004787e+01
0	 4.296296e+00	 7.925926e+00	 1.004487e+01
0	 4.296296e+00	 8.000000e+00	 1.004196e+01
0	 4.296296e+00	 8.074074e+00	 1.003916e+01
0	 4.296296e+00	 8.148148e+00	 1.003646e+01
0	 4.370370e+00	 7.777778e+00	 1.005270e+01
0	 4.370370e+00	 7.851852e+00	 1.004950e+01
0	 4.370370e+00	 7.925926e+00	 1.004641e+01
0	 4.370370e+00	 8.000000e+00	 1.004342e+01
0	 4.370370e+00	 8.074074e+00	 1.004053e+01
0	 4.370370e+00	 8.148148e+00	 1.003774e+01
0	 4.444444e+00	 7.777778e+00	 1.005428e+01
0	 4.444444e+00	 7.851852e+00	 1.005100e+01
0	 4.444444e+00	 7.925926e+00	 1.004783e+01
0	 4.444444e+00	 8.000000e+00	 1.004476e+01
0	 4.444444e+00	 8.074074e+00	 1.004179e+01
0	 4.444444e+00	 8.148148e+00	 1.003893e+01
0	 4.074074e+00	 8.148148e+00	 1.003201e+01
0	 4.074074e+00	 8.222222e+00	 1.002971e+01
0	 4.074074e+00	 8.296296e+00	 1.002749e+01
0	 4.074074e+00	 8.370370e+00	 1.002535e+01
0	 4.074074e+00	 8.444444e+00	 1.002330e+01
0	 4.074074e+00	 8.518519e+00	 1.002133e+01
0	 4.148148e+00	 8.148148e+00	 1.003360e+01
0	 4.148148e+00	 8.222222e+00	 1.003118e+01
0	 4.148148e+00	 8.296296e+00	 1.002886e+01
0	 4.148148e+00	 8.370370e+00	 1.002662e+01
0	 4.148148e+00	 8.444444e+00	 1.002447e+01
0	 4.148148e+00	 8.518519e+00	 1.002241e+01
0	 4.222222e+00	 8.148148e+00	 1.003508e+01
0	 4.222222e+00	 8.222222e+00	 1.003257e+01
0	 4.222222e+00	 8.296296e+00	 1.003015e+01
0	 4.222222e+00	 8.370370e+00	 1.002782e+01
0	 4.222222e+00	 8.444444e+00	 1.002557e+01
0	 4.222222e+00	 8.518519e+00	 1.002342e+01
0	 4.296296e+00	 8.148148e+00	 1.003646e+01
0	 4.296296e+00	 8.222222e+00	 1.003386e+01
0	 4.296296e+00	 8.296296e+00	 1.003135e+01
0	 4.296296e+00	 8.370370e+00	 1.002893e+01
0	 4.296296e+00	 8.444444e+00	 1.002660e+01
0	 4.296296e+00	 8.518519e+00	 1.002436e+01
0	 4.370370e+00	 8.148148e+00	 1.003774e+01
0	 4.370370e+00	 8.222222e+00	 1.003506e+01
0	 4.370370e+00	 8.296296e+00	 1.003246e+01
0	 4.370370e+00	 8.370370e+00	 1.002996e+01
0	 4.370370e+00	 8.444444e+00	 1.002756e+01
0	 4.370370e+00	 8.518519e+00	 1.002524e+01
0	 4.444444e+00	 8.148148e+00	 1.003893e+01
0	 4.444444e+00	 8.222222e+00	 1.003616e+01
0	 4.444444e+00	 8.296296e+00	 1.003349e+01
0	 4.444444e+00	 8.370370e+00	 1.003092e+01
0	 4.444444e+00	 8.444444e+00	 1.002844e+01
0	 4.444444e+00	 8.518519e+00	 1.002605e+01
0	 4.074074e+00	 8.518519e+00	 1.002133e+01
0	 4.074074e+00	 8.592593e+00	 1.001944e+01
0	 4.074074e+00	 8.666667e+00	 1.001764e+01
0	 4.074074e+00	 8.740741e+00	 1.001591e+01
0	 4.074074e+00	 8.814815e+00	 1.001427e+01
0	 4.074074e+00	 8.888889e+00	 1.001269e+01
0	 4.148148e+00	 8.518519e+00	 1.002241e+01
0	 4.148148e+00	 8.592593e+00	 1.002043e+01
0	 4.148148e+00	 8.666667e+00	 1.001853e+01
0	 4.148148e+00	 8.740741e+00	 1.001672e+01
0	 4.148148e+00	 8.814815e+00	 1.001499e+01
0	 4.148148e+00	 8.888889e+00	 1.001334e+01
0	 4.222222e+00	 8.518519e+00	 1.002342e+01
0	 4.222222e+00	 8.592593e+00	 1.002135e+01
0	 4.222222e+00	 8.666667e+00	 1.001937e+01
0	 4.222222e+00	 8.740741e+00	 1.001748e+01
0	 4.222222e+00	 8.814815e+00	 1.001567e+01
0	 4.222222e+00	 8.888889e+00	 1.001394e+01
0	 4.296296e+00	 8.518519e+00	 1.002436e+01
0	 4.296296e+00	 8.592593e+00	 1.002221e+01
0	 4.296296e+00	 8.666667e+00	 1.002016e+01
0	 4.296296e+00	 8.740741e+00	 1.001819e+01
0	 4.296296e+00	 8.814815e+00	 1.001630e+01
0	 4.296296e+00	 8.888889e+00	 1.001451e+01
0	 4.370370e+00	 8.518519e+00	 1.002524e+01
0	 4.370370e+00	 8.592593e+00	 1.002301e+01
0	 4.370370e+00	 8.666667e+00	 1.002088e+01
0	 4.370370e+00	 8.740741e+00	 1.001885e+01
0	 4.370370e+00	 8.814815e+00	 1.001690e+01
0	 4.370370e+00	 8.888889e+00	 1.001503e+01
0	 4.444444e+00	 8.518519e+00	 1.002605e+01
0	 4.444444e+00	 8.592593e+00	 1.002375e+01
0	 4.444444e+00	 8.666667e+00	 1.002156e+01
0	 4.444444e+00	 8.740741e+00	 1.001945e+01
0	 4.444444e+00	 8.814815e+00	 1.001744e+01
0	 4.444444e+00	 8.888889e+00	 1.001551e+01
0	 4.074074e+00	 8.888889e+00	 1.001269e+01
0	 4.074074e+00	 8.962963e+00	 1.001120e+01
0	 4.074074e+00	 9.037037e+00	 1.000980e+01
0	 4.074074e+00	 9.111111e+00	 1.000848e+01
0	 4.074074e+00	 9.185185e+00	 1.000723e+01
0	 4.074074e+00	 9.259259e+00	 1.000606e+01
0	 4.148148e+00	 8.888889e+00	 1.001334e+01
0	 4.148148e+00	 8.962963e+00	 1.001177e+01
0	 4.148148e+00	 9.037037e+00	 1.001029e+01
0	 4.148148e+00	 9.111111e+00	 1.000890e+01
0	 4.148148e+00	 9.185185e+00	 1.000759e+01
0	 4.148148e+00	 9.259259e+00	 1.000636e+01
0	 4.222222e+00	 8.888889e+00	 1.001394e+01
0	 4.222222e+00	 8.962963e+00	 1.001230e+01
0	 4.222222e+00	 9.037037e+00	 1.001076e+01
0	 4.222222e+00	 9.111111e+00	 1.000930e+01
0	 4.222222e+00	 9.185185e+00	 1.000793e+01
0	 4.222222e+00	 9.259259e+00	 1.000665e+01
0	 4.296296e+00	 8.888889e+00	 1.001451e+01
0	 4.296296e+00	 8.962963e+00	 1.001280e+01
0	 4.296296e+00	 9.037037e+00	 1.001119e+01
0	 4.296296e+00	 9.111111e+00	 1.000968e+01
0	 4.296296e+00	 9.185185e+00	 1.000825e+01
0	 4.296296e+00	 9.259259e+00	 1.000692e+01
0	 4.370370e+00	 8.888889e+00	 1.001503e+01
0	 4.370370e+00	 8.962963e+00	 1.001326e+01
0	 4.370370e+00	 9.037037e+00	 1.001159e+01
0	 4.370370e+00	 9.111111e+00	 1.001003e+01
0	 4.370370e+00	 9.185185e+00	 1.000855e+01
0	 4.370370e+00	 9.259259e+00	 1.000716e+01
0	 4.444444e+00	 8.888889e+00	 1.001551e+01
0	 4.444444e+00	 8.962963e+00	 1.001369e+01
0	 4.444444e+00	 9.037037e+00	 1.001197e+01
0	 4.444444e+00	 9.111111e+00	 1.001035e+01
0	 4.444444e+00	 9.185185e+00	 1.000882e+01
0	 4.444444e+00	 9.259259e+00	 1.000739e+01
0	 4.074074e+00	 9.259259e+00	 1.000606e+01
0	 4.074074e+00	 9.333333e+00	 1.000498e+01
0	 4.074074e+00	 9.407407e+00	 1.000401e+01
0	 4.074074e+00	 9.481481e+00	 1.000314e+01
0	 4.074074e+00	 9.555556e+00	 1.000235e+01
0	 4.074074e+00	 9.629630e+00	 1.000166e+01
0	 4.148148e+00	 9.259259e+00	 1.000636e+01
0	 4.148148e+00	 9.333333e+00	 1.000523e+01
0	 4.148148e+00	 9.407407e+00	 1.000421e+01
0	 4.148148e+00	 9.481481e+00	 1.000329e+01
0	 4.148148e+00	 9.555556e+00	 1.000247e+01
0	 4.148148e+00	 9.629630e+00	 1.000173e+01
0	 4.222222e+00	 9.259259e+00	 1.000665e+01
0	 4.222222e+00	 9.333333e+00	 1.000546e+01
0	 4.222222e+00	 9.407407e+00	 1.000439e+01
0	 4.222222e+00	 9.481481e+00	 1.000343e+01
0	 4.222222e+00	 9.555556e+00	 1.000257e+01
0	 4.222222e+00	 9.629630e+00	 1.000181e+01
0	 4.296296e+00	 9.259259e+00	 1.000692e+01
0	 4.296296e+00	 9.333333e+00	 1.000568e+01
0	 4.296296e+00	 9.407407e+00	 1.000457e+01
0	 4.296296e+00	 9.481481e+00	 1.000357e+01
0	 4.296296e+00	 9.555556e+00	 1.000268e+01
0	 4.296296e+00	 9.629630e+00	 1.000188e+01
0	 4.370370e+00	 9.259259e+00	 1.000716e+01
0	 4.370370e+00	 9.333333e+00	 1.000589e+01
0	 4.370370e+00	 9.407407e+00	 1.000473e+01
0	 4.370370e+00	 9.481481e+00	 1.000370e+01
0	 4.370370e+00	 9.555556e+00	 1.000277e+01
0	 4.370370e+00	 9.629630e+00	 1.000195e+01
0	 4.444444e+00	 9.259259e+00	 1.000739e+01
0	 4.444444e+00	 9.333333e+00	 1.000607e+01
0	 4.444444e+00	 9.407407e+00	 1.000488e+01
0	 4.444444e+00	 9.481481e+00	 1.000381e+01
0	 4.444444e+00	 9.555556e+00	 1.000285e+01
0	 4.444444e+00	 9.629630e+00	 1.000201e+01
0	 4.074074e+00	 9.629630e+00	 1.000166e+01
0	 4.074074e+00	 9.703704e+00	 1.000107e+01
0	 4.074074e+00	 9.777778e+00	 1.000062e+01
0	 4.074074e+00	 9.851852e+00	 1.000029e+01
0	 4.074074e+00	 9.925926e+00	 1.000008e+01
0	 4.074074e+00	 1.000000e+01	 9.999976e+00
0	 4.148148e+00	 9.629630e+00	 1.000173e+01
0	 4.148148e+00	 9.703704e+00	 1.000112e+01
0	 4.148148e+00	 9.777778e+00	 1.000064e+01
0	 4.148148e+00	 9.851852e+00	 1.000030e+01
0	 4.148148e+00	 9.925926e+00	 1.000008e+01
0	 4.148148e+00	 1.000000e+01	 9.999971e+00
0	 4.222222e+00	 9.629630e+00	 1.000181e+01
0	 4.222222e+00	 9.703704e+00	 1.000117e+01
0	 4.222222e+00	 9.777778e+00	 1.000067e+01
0	 4.222222e+00	 9.851852e+00	 1.000031e+01
0	 4.222222e+00	 9.925926e+00	 1.000008e+01
0	 4.222222e+00	 1.000000e+01	 9.999972e+00
0	 4.296296e+00	 9.629630e+00	 1.000188e+01
0	 4.296296e+00	 9.703704e+00	 1.000121e+01
0	 4.296296e+00	 9.777778e+00	 1.000070e+01
0	 4.296296e+00	 9.851852e+00	 1.000033e+01
0	 4.296296e+00	 9.925926e+00	 1.000009e+01
0	 4.296296e+00	 1.000000e+01	 9.999974e+00
0	 4.370370e+00	 9.629630e+00	 1.000195e+01
0	 4.370370e+00	 9.703704e+00	 1.000126e+01
0	 4.370370e+00	 9.777778e+00	 1.000073e+01
0	 4.370370e+00	 9.851852e+00	 1.000034e+01
0	 4.370370e+00	 9.925926e+00	 1.000010e+01
0	 4.370370e+00	 1.000000e+01	 9.999976e+00
0	 4.444444e+00	 9.629630e+00	 1.000201e+01
0	 4.444444e+00	 9.703704e+00	 1.000129e+01
0	 4.444444e+00	 9.777778e+00	 1.000074e+01
0	 4.444444e+00	 9.851852e+00	 1.000035e+01
0	 4.444444e+00	 9.925926e+00	 1.000010e+01
0	 4.444444e+00	 1.000000e+01	 9.999973e+00
0	 4.444444e+00	 0.000000e+00	 1.042175e+01
0	 4.444444e+00	 7.407407e-02	 1.042307e+01
0	 4.444444e+00	 1.481481e-01	 1.042528e+01
0	 4.444444e+00	 2.222222e-01	 1.042846e+01
0	 4.444444e+00	 2.962963e-01	 1.043269e+01
0	 4.444444e+00	 3.703704e-01	 1.043807e+01
0	 4.518519e+00	 0.000000e+00	 1.040655e+01
0	 4.518519e+00	 7.407407e-02	 1.040778e+01
0	 4.518519e+00	 1.481481e-01	 1.040993e+01
0	 4.518519e+00	 2.222222e-01	 1.041305e+01
0	 4.518519e+00	 2.962963e-01	 1.041720e+01
0	 4.518519e+00	 3.703704e-01	 1.042246e+01
0	 4.592593e+00	 0.000000e+00	 1.039324e+01
0	 4.592593e+00	 7.407407e-02	 1.039419e+01
0	 4.592593e+00	 1.481481e-01	 1.039606e+01
0	 4.592593e+00	 2.222222e-01	 1.039887e+01
0	 4.592593e+00	 2.962963e-01	 1.040269e+01
0	 4.592593e+00	 3.703704e-01	 1.040755e+01
0	 4.666667e+00	 0.000000e+00	 1.038120e+01
0	 4.666667e+00	 7.407407e-02	 1.038180e+01
0	 4.666667e+00	 1.481481e-01	 1.038329e+01
0	 4.666667e+00	 2.222222e-01	 1.038569e+01
0	 4.666667e+00	 2.962963e-01	 1.038903e+01
0	 4.666667e+00	 3.703704e-01	 1.039335e+01
0	 4.740741e+00	 0.000000e+00	 1.036981e+01
0	 4.740741e+00	 7.407407e-02	 1.037010e+01
0	 4.740741e+00	 1.481481e-01	 1.037123e+01
0	 4.740741e+00	 2.222222e-01	 1.037322e+01
0	 4.740741e+00	 2.962963e-01	 1.037609e+01
0	 4.740741e+00	 3.703704e-01	 1.037985e+01
0	 4.814815e+00	 0.000000e+00	 1.035843e+01
0	 4.814815e+00	 7.407407e-02	 1.035859e+01
0	 4.814815e+00	 1.481481e-01	 1.035951e+01
0	 4.814815e+00	 2.222222e-01	 1.036123e+01
0	 4.814815e+00	 2.962963e-01	 1.036374e+01
0	 4.814815e+00	 3.703704e-01	 1.036707e+01
0	 4.444444e+00	 3.703704e-01	 1.043807e+01
0	 4.444444e+00	 4.444444e-01	 1.044422e+01
0	 4.444444e+00	 5.185185e-01	 1.045078e+01
0	 4.444444e+00	 5.925926e-01	 1.045784e+01
0	 4.444444e+00	 6.666667e-01	 1.046548e+01
0	 4.444444e+00	 7.407407e-01	 1.047381e+01
0	 4.518519e+00	 3.703704e-01	 1.042246e+01
0	 4.518519e+00	 4.444444e-01	 1.042842e+01
0	 4.518519e+00	 5.185185e-01	 1.043472e+01
0	 4.518519e+00	 5.925926e-01	 1.044145e+01
0	 4.518519e+00	 6.666667e-01	 1.044868e+01
0	 4.518519e+00	 7.407407e-01	 1.045652e+01
0	 4.592593e+00	 3.703704e-01	 1.040755e+01
0	 4.592593e+00	 4.444444e-01	 1.041309e+01
0	 4.592593e+00	 5.185185e-01	 1.041900e+01
0	 4.592593e+00	 5.925926e-01	 1.042535e+01
0	 4.592593e+00	 6.666667e-01	 1.043223e+01
0	 4.592593e+00	 7.407407e-01	 1.043973e+01
0	 4.666667e+00	 3.703704e-01	 1.039335e+01
0	 4.666667e+00	 4.444444e-01	 1.039835e+01
0	 4.666667e+00	 5.185185e-01	 1.040379e+01
0	 4.666667e+00	 5.925926e-01	 1.040976e+01
0	 4.666667e+00	 6.666667e-01	 1.041632e+01
0	 4.666667e+00	 7.407407e-01	 1.042357e+01
0	 4.740741e+00	 3.703704e-01	 1.037985e+01
0	 4.740741e+00	 4.444444e-01	 1.038431e+01
0	 4.740741e+00	 5.185185e-01	 1.038929e+01
0	 4.740741e+00	 5.925926e-01	 1.039488e+01
0	 4.740741e+00	 6.666667e-01	 1.040114e+01
0	 4.740741e+00	 7.407407e-01	 1.040815e+01
0	 4.814815e+00	 3.703704e-01	 1.036707e+01
0	 4.814815e+00	 4.444444e-01	 1.037108e+01
0	 4.814815e+00	 5.185185e-01	 1.037567e+01
0	 4.814815e+00	 5.925926e-01	 1.038091e+01
0	 4.814815e+00	 6.666667e-01	 1.038687e+01
0	 4.814815e+00	 7.407407e-01	 1.039361e+01
0	 4.444444e+00	 7.407407e-01	 1.047381e+01
0	 4.444444e+00	 8.148148e-01	 1.048248e+01
0	 4.444444e+00	 8.888889e-01	 1.049121e+01
0	 4.444444e+00	 9.629630e-01	 1.050016e+01
0	 4.444444e+00	 1.037037e+00	 1.050948e+01
0	 4.444444e+00	 1.111111e+00	 1.051932e+01
0	 4.518519e+00	 7.407407e-01	 1.045652e+01
0	 4.518519e+00	 8.148148e-01	 1.046472e+01
0	 4.518519e+00	 8.888889e-01	 1.047306e+01
0	 4.518519e+00	 9.629630e-01	 1.048167e+01
0	 4.518519e+00	 1.037037e+00	 1.049066e+01
0	 4.518519e+00	 1.111111e+00	 1.050016e+01
0	 4.592593e+00	 7.407407e-01	 1.043973e+01
0	 4.592593e+00	 8.148148e-01	 1.044761e+01
0	 4.592593e+00	 8.888889e-01	 1.045567e+01
0	 4.592593e+00	 9.629630e-01	 1.046398e+01
0	 4.592593e+00	 1.037037e+00	 1.047265e+01
0	 4.592593e+00	 1.111111e+00	 1.048178e+01
0	 4.666667e+00	 7.407407e-01	 1.042357e+01
0	 4.666667e+00	 8.148148e-01	 1.043122e+01
0	 4.666667e+00	 8.888889e-01	 1.043903e+01
0	 4.666667e+00	 9.629630e-01	 1.044706e+01
0	 4.666667e+00	 1.037037e+00	 1.045540e+01
0	 4.666667e+00	 1.111111e+00	 1.046412e+01
0	 4.740741e+00	 7.407407e-01	 1.040815e+01
0	 4.740741e+00	 8.148148e-01	 1.041559e+01
0	 4.740741e+00	 8.888889e-01	 1.042314e+01
0	 4.740741e+00	 9.629630e-01	 1.043087e+01
0	 4.740741e+00	 1.037037e+00	 1.043885e+01
0	 4.740741e+00	 1.111111e+00	 1.044716e+01
0	 4.814815e+00	 7.407407e-01	 1.039361e+01
0	 4.814815e+00	 8.148148e-01	 1.040077e+01
0	 4.814815e+00	 8.888889e-01	 1.040800e+01
0	 4.814815e+00	 9.629630e-01	 1.041537e+01
0	 4.814815e+00	 1.037037e+00	 1.042295e+01
0	 4.814815e+00	 1.111111e+00	 1.043083e+01
0	 4.444444e+00	 1.111111e+00	 1.051932e+01
0	 4.444444e+00	 1.185185e+00	 1.052917e+01
0	 4.444444e+00	 1.259259e+00	 1.053846e+01
0	 4.444444e+00	 1.333333e+00	 1.054732e+01
0	 4.444444e+00	 1.407407e+00	 1.055584e+01
0	 4.444444e+00	 1.481481e+00	 1.056412e+01
0	 4.518519e+00	 1.111111e+00	 1.050016e+01
0	 4.518519e+00	 1.185185e+00	 1.050965e+01
0	 4.518519e+00	 1.259259e+00	 1.051861e+01
0	 4.518519e+00	 1.333333e+00	 1.052714e+01
0	 4.518519e+00	 1.407407e+00	 1.053538e+01
0	 4.518519e+00	 1.481481e+00	 1.054342e+01
0	 4.592593e+00	 1.111111e+00	 1.048178e+01
0	 4.592593e+00	 1.185185e+00	 1.049088e+01
0	 4.592593e+00	 1.259259e+00	 1.049949e+01
0	 4.592593e+00	 1.333333e+00	 1.050772e+01
0	 4.592593e+00	 1.407407e+00	 1.051571e+01
0	 4.592593e+00	 1.481481e+00	 1.052356e+01
0	 4.666667e+00	 1.111111e+00	 1.046412e+01
0	 4.666667e+00	 1.185185e+00	 1.047282e+01
0	 4.666667e+00	 1.259259e+00	 1.048108e+01
0	 4.666667e+00	 1.333333e+00	 1.048903e+01
0	 4.666667e+00	 1.407407e+00	 1.049679e+01
0	 4.666667e+00	 1.481481e+00	 1.050447e+01
0	 4.740741e+00	 1.111111e+00	 1.044716e+01
0	 4.740741e+00	 1.185185e+00	 1.045544e+01
0	 4.740741e+00	 1.259259e+00	 1.046336e+01
0	 4.740741e+00	 1.333333e+00	 1.047105e+01
0	 4.740741e+00	 1.407407e+00	 1.047859e+01
0	 4.740741e+00	 1.481481e+00	 1.048611e+01
0	 4.814815e+00	 1.111111e+00	 1.043083e+01
0	 4.814815e+00	 1.185185e+00	 1.043871e+01
0	 4.814815e+00	 1.259259e+00	 1.044631e+01
0	 4.814815e+00	 1.333333e+00	 1.045373e+01
0	 4.814815e+00	 1.407407e+00	 1.046107e+01
0	 4.814815e+00	 1.481481e+00	 1.046842e+01
0	 4.444444e+00	 1.481481e+00	 1.056412e+01
0	 4.444444e+00	 1.555556e+00	 1.057189e+01
0	 4.444444e+00	 1.629630e+00	 1.057883e+01
0	 4.444444e+00	 1.703704e+00	 1.058503e+01
0	 4.444444e+00	 1.777778e+00	 1.059057e+01
0	 4.444444e+00	 1.851852e+00	 1.059553e+01
0	 4.518519e+00	 1.481481e+00	 1.054342e+01
0	 4.518519e+00	 1.555556e+00	 1.055101e+01
0	 4.518519e+00	 1.629630e+00	 1.055786e+01
0	 4.518519e+00	 1.703704e+00	 1.056404e+01
0	 4.518519e+00	 1.777778e+00	 1.056962e+01
0	 4.518519e+00	 1.851852e+00	 1.057469e+01
0	 4.592593e+00	 1.481481e+00	 1.052356e+01
0	 4.592593e+00	 1.555556e+00	 1.053101e+01
0	 4.592593e+00	 1.629630e+00	 1.053778e+01
0	 4.592593e+00	 1.703704e+00	 1.054393e+01
0	 4.592593e+00	 1.777778e+00	 1.054954e+01
0	 4.592593e+00	 1.851852e+00	 1.055466e+01
0	 4.666667e+00	 1.481481e+00	 1.050447e+01
0	 4.666667e+00	 1.555556e+00	 1.051181e+01
0	 4.666667e+00	 1.629630e+00	 1.051850e+01
0	 4.666667e+00	 1.703704e+00	 1.052461e+01
0	 4.666667e+00	 1.777778e+00	 1.053021e+01
0	 4.666667e+00	 1.851852e+00	 1.053536e+01
0	 4.740741e+00	 1.481481e+00	 1.048611e+01
0	 4.740741e+00	 1.555556e+00	 1.049332e+01
0	 4.740741e+00	 1.629630e+00	 1.049993e+01
0	 4.740741e+00	 1.703704e+00	 1.050598e+01
0	 4.740741e+00	 1.777778e+00	 1.051155e+01
0	 4.740741e+00	 1.851852e+00	 1.051670e+01
0	 4.814815e+00	 1.481481e+00	 1.046842e+01
0	 4.814815e+00	 1.555556e+00	 1.047548e+01
0	 4.814815e+00	 1.629630e+00	 1.048197e+01
0	 4.814815e+00	 1.703704e+00	 1.048794e+01
0	 4.814815e+00	 1.777778e+00	 1.049346e+01
0	 4.814815e+00	 1.851852e+00	 1.049859e+01
0	 4.444444e+00	 1.851852e+00	 1.059553e+01
0	 4.444444e+00	 1.925926e+00	 1.059974e+01
0	 4.444444e+00	 2.000000e+00	 1.060300e+01
0	 4.444444e+00	 2.074074e+00	 1.060534e+01
0	 4.444444e+00	 2.148148e+00	 1.060680e+01
0	 4.444444e+00	 2.222222e+00	 1.060743e+01
0	 4.518519e+00	 1.851852e+00	 1.057469e+01
0	 4.518519e+00	 1.925926e+00	 1.057906e+01
0	 4.518519e+00	 2.000000e+00	 1.058253e+01
0	 4.518519e+00	 2.074074e+00	 1.058515e+01
0	 4.518519e+00	 2.148148e+00	 1.058695e+01
0	 4.518519e+00	 2.222222e+00	 1.058799e+01
0	 4.592593e+00	 1.851852e+00	 1.055466e+01
0	 4.592593e+00	 1.925926e+00	 1.055914e+01
0	 4.592593e+00	 2.000000e+00	 1.056277e+01
0	 4.592593e+00	 2.074074e+00	 1.056561e+01
0	 4.592593e+00	 2.148148e+00	 1.056770e+01
0	 4.592593e+00	 2.222222e+00	 1.056907e+01
0	 4.666667e+00	 1.851852e+00	 1.053536e+01
0	 4.666667e+00	 1.925926e+00	 1.053990e+01
0	 4.666667e+00	 2.000000e+00	 1.054366e+01
0	 4.666667e+00	 2.074074e+00	 1.054668e+01
0	 4.666667e+00	 2.148148e+00	 1.054899e+01
0	 4.666667e+00	 2.222222e+00	 1.055066e+01
0	 4.740741e+00	 1.851852e+00	 1.051670e+01
0	 4.740741e+00	 1.925926e+00	 1.052128e+01
0	 4.740741e+00	 2.000000e+00	 1.052513e+01
0	 4.740741e+00	 2.074074e+00	 1.052829e+01
0	 4.740741e+00	 2.148148e+00	 1.053080e+01
0	 4.740741e+00	 2.222222e+00	 1.053270e+01
0	 4.814815e+00	 1.851852e+00	 1.049859e+01
0	 4.814815e+00	 1.925926e+00	 1.050319e+01
0	 4.814815e+00	 2.000000e+00	 1.050711e+01
0	 4.814815e+00	 2.074074e+00	 1.051039e+01
0	 4.814815e+00	 2.148148e+00	 1.051307e+01
0	 4.814815e+00	 2.222222e+00	 1.051519e+01
0	 4.444444e+00	 2.222222e+00	 1.060743e+01
0	 4.444444e+00	 2.296296e+00	 1.060723e+01
0	 4.444444e+00	 2.370370e+00	 1.060618e+01
0	 4.444444e+00	 2.444444e+00	 1.060427e+01
0	 4.444444e+00	 2.518519e+00	 1.060150e+01
0	 4.444444e+00	 2.592593e+00	 1.059788e+01
0	 4.518519e+00	 2.222222e+00	 1.058799e+01
0	 4.518519e+00	 2.296296e+00	 1.058824e+01
0	 4.518519e+00	 2.370370e+00	 1.058767e+01
0	 4.518519e+00	 2.444444e+00	 1.058627e+01
0	 4.518519e+00	 2.518519e+00	 1.058406e+01
0	 4.518519e+00	 2.592593e+00	 1.058102e+01
0	 4.592593e+00	 2.222222e+00	 1.056907e+01
0	 4.592593e+00	 2.296296e+00	 1.056971e+01
0	 4.592593e+00	 2.370370e+00	 1.056956e+01
0	 4.592593e+00	 2.444444e+00	 1.056862e+01
0	 4.592593e+00	 2.518519e+00	 1.056691e+01
0	 4.592593e+00	 2.592593e+00	 1.056442e+01
0	 4.666667e+00	 2.222222e+00	 1.055066e+01
0	 4.666667e+00	 2.296296e+00	 1.055162e+01
0	 4.666667e+00	 2.370370e+00	 1.055184e+01
0	 4.666667e+00	 2.444444e+00	 1.055132e+01
0	 4.666667e+00	 2.518519e+00	 1.055006e+01
0	 4.666667e+00	 2.592593e+00	 1.054807e+01
0	 4.740741e+00	 2.222222e+00	 1.053270e+01
0	 4.740741e+00	 2.296296e+00	 1.053396e+01
0	 4.740741e+00	 2.370370e+00	 1.053450e+01
0	 4.740741e+00	 2.444444e+00	 1.053434e+01
0	 4.740741e+00	 2.518519e+00	 1.053350e+01
0	 4.740741e+00	 2.592593e+00	 1.053197e+01
0	 4.814815e+00	 2.222222e+00	 1.051519e+01
0	 4.814815e+00	 2.296296e+00	 1.051670e+01
0	 4.814815e+00	 2.370370e+00	 1.051753e+01
0	 4.814815e+00	 2.444444e+00	 1.051770e+01
0	 4.814815e+00	 2.518519e+00	 1.051723e+01
0	 4.814815e+00	 2.592593e+00	 1.051612e+01
0	 4.444444e+00	 2.592593e+00	 1.059788e+01
0	 4.444444e+00	 2.666667e+00	 1.059351e+01
0	 4.444444e+00	 2.740741e+00	 1.058850e+01
0	 4.444444e+00	 2.814815e+00	 1.058285e+01
0	 4.444444e+00	 2.888889e+00	 1.057651e+01
0	 4.444444e+00	 2.962963e+00	 1.056949e+01
0	 4.518519e+00	 2.592593e+00	 1.058102e+01
0	 4.518519e+00	 2.666667e+00	 1.057728e+01
0	 4.518519e+00	 2.740741e+00	 1.057292e+01
0	 4.518519e+00	 2.814815e+00	 1.056792e+01
0	 4.518519e+00	 2.888889e+00	 1.056227e+01
0	 4.518519e+00	 2.962963e+00	 1.055595e+01
0	 4.592593e+00	 2.592593e+00	 1.056442e+01
0	 4.592593e+00	 2.666667e+00	 1.056126e+01
0	 4.592593e+00	 2.740741e+00	 1.055748e+01
0	 4.592593e+00	 2.814815e+00	 1.055309e+01
0	 4.592593e+00	 2.888889e+00	 1.054807e+01
0	 4.592593e+00	 2.962963e+00	 1.054239e+01
0	 4.666667e+00	 2.592593e+00	 1.054807e+01
0	 4.666667e+00	 2.666667e+00	 1.054544e+01
0	 4.666667e+00	 2.740741e+00	 1.054221e+01
0	 4.666667e+00	 2.814815e+00	 1.053837e+01
0	 4.666667e+00	 2.888889e+00	 1.053391e+01
0	 4.666667e+00	 2.962963e+00	 1.052882e+01
0	 4.740741e+00	 2.592593e+00	 1.053197e+01
0	 4.740741e+00	 2.666667e+00	 1.052982e+01
0	 4.740741e+00	 2.740741e+00	 1.052709e+01
0	 4.740741e+00	 2.814815e+00	 1.052376e+01
0	 4.740741e+00	 2.888889e+00	 1.051982e+01
0	 4.740741e+00	 2.962963e+00	 1.051527e+01
0	 4.814815e+00	 2.592593e+00	 1.051612e+01
0	 4.814815e+00	 2.666667e+00	 1.051441e+01
0	 4.814815e+00	 2.740741e+00	 1.051213e+01
0	 4.814815e+00	 2.814815e+00	 1.050927e+01
0	 4.814815e+00	 2.888889e+00	 1.050582e+01
0	 4.814815e+00	 2.962963e+00	 1.050177e+01
0	 4.444444e+00	 2.962963e+00	 1.056949e+01
0	 4.444444e+00	 3.037037e+00	 1.056191e+01
0	 4.444444e+00	 3.111111e+00	 1.055391e+01
0	 4.444444e+00	 3.185185e+00	 1.054546e+01
0	 4.444444e+00	 3.259259e+00	 1.053653e+01
0	 4.444444e+00	 3.333333e+00	 1.052707e+01
0	 4.518519e+00	 2.962963e+00	 1.055595e+01
0	 4.518519e+00	 3.037037e+00	 1.054909e+01
0	 4.518519e+00	 3.111111e+00	 1.054179e+01
0	 4.518519e+00	 3.185185e+00	 1.053404e+01
0	 4.518519e+00	 3.259259e+00	 1.052579e+01
0	 4.518519e+00	 3.333333e+00	 1.051702e+01
0	 4.592593e+00	 2.962963e+00	 1.054239e+01
0	 4.592593e+00	 3.037037e+00	 1.053617e+01
0	 4.592593e+00	 3.111111e+00	 1.052952e+01
0	 4.592593e+00	 3.185185e+00	 1.052241e+01
0	 4.592593e+00	 3.259259e+00	 1.051482e+01
0	 4.592593e+00	 3.333333e+00	 1.050671e+01
0	 4.666667e+00	 2.962963e+00	 1.052882e+01
0	 4.666667e+00	 3.037037e+00	 1.052320e+01
0	 4.666667e+00	 3.111111e+00	 1.051715e+01
0	 4.666667e+00	 3.185185e+00	 1.051064e+01
0	 4.666667e+00	 3.259259e+00	 1.050366e+01
0	 4.666667e+00	 3.333333e+00	 1.049618e+01
0	 4.740741e+00	 2.962963e+00	 1.051527e+01
0	 4.740741e+00	 3.037037e+00	 1.051020e+01
0	 4.740741e+00	 3.111111e+00	 1.050470e+01
0	 4.740741e+00	 3.185185e+00	 1.049877e+01
0	 4.740741e+00	 3.259259e+00	 1.049237e+01
0	 4.740741e+00	 3.333333e+00	 1.048549e+01
0	 4.814815e+00	 2.962963e+00	 1.050177e+01
0	 4.814815e+00	 3.037037e+00	 1.049721e+01
0	 4.814815e+00	 3.111111e+00	 1.049225e+01
0	 4.814815e+00	 3.185185e+00	 1.048684e+01
0	 4.814815e+00	 3.259259e+00	 1.048099e+01
0	 4.814815e+00	 3.333333e+00	 1.047467e+01
0	 4.444444e+00	 3.333333e+00	 1.052707e+01
0	 4.444444e+00	 3.407407e+00	 1.051726e+01
0	 4.444444e+00	 3.481481e+00	 1.050726e+01
0	 4.444444e+00	 3.555556e+00	 1.049704e+01
0	 4.444444e+00	 3.629630e+00	 1.048656e+01
0	 4.444444e+00	 3.703704e+00	 1.047581e+01
0	 4.518519e+00	 3.333333e+00	 1.051702e+01
0	 4.518519e+00	 3.407407e+00	 1.050790e+01
0	 4.518519e+00	 3.481481e+00	 1.049857e+01
0	 4.518519e+00	 3.555556e+00	 1.048901e+01
0	 4.518519e+00	 3.629630e+00	 1.047919e+01
0	 4.518519e+00	 3.703704e+00	 1.046907e+01
0	 4.592593e+00	 3.333333e+00	 1.050671e+01
0	 4.592593e+00	 3.407407e+00	 1.049824e+01
0	 4.592593e+00	 3.481481e+00	 1.048956e+01
0	 4.592593e+00	 3.555556e+00	 1.048063e+01
0	 4.592593e+00	 3.629630e+00	 1.047141e+01
0	 4.592593e+00	 3.703704e+00	 1.046190e+01
0	 4.666667e+00	 3.333333e+00	 1.049618e+01
0	 4.666667e+00	 3.407407e+00	 1.048834e+01
0	 4.666667e+00	 3.481481e+00	 1.048027e+01
0	 4.666667e+00	 3.555556e+00	 1.047193e+01
0	 4.666667e+00	 3.629630e+00	 1.046330e+01
0	 4.666667e+00	 3.703704e+00	 1.045435e+01
0	 4.740741e+00	 3.333333e+00	 1.048549e+01
0	 4.740741e+00	 3.407407e+00	 1.047824e+01
0	 4.740741e+00	 3.481481e+00	 1.047075e+01
0	 4.740741e+00	 3.555556e+00	 1.046297e+01
0	 4.740741e+00	 3.629630e+00	 1.045490e+01
0	 4.740741e+00	 3.703704e+00	 1.044649e+01
0	 4.814815e+00	 3.333333e+00	 1.047467e+01
0	 4.814815e+00	 3.407407e+00	 1.046799e+01
0	 4.814815e+00	 3.481481e+00	 1.046104e+01
0	 4.814815e+00	 3.555556e+00	 1.045380e+01
0	 4.814815e+00	 3.629630e+00	 1.044626e+01
0	 4.814815e+00	 3.703704e+00	 1.043837e+01
0	 4.444444e+00	 3.703704e+00	 1.047581e+01
0	 4.444444e+00	 3.777778e+00	 1.046490e+01
0	 4.444444e+00	 3.851852e+00	 1.045396e+01
0	 4.444444e+00	 3.925926e+00	 1.044295e+01
0	 4.444444e+00	 4.000000e+00	 1.043186e+01
0	 4.444444e+00	 4.074074e+00	 1.042065e+01
0	 4.518519e+00	 3.703704e+00	 1.046907e+01
0	 4.518519e+00	 3.777778e+00	 1.045877e+01
0	 4.518519e+00	 3.851852e+00	 1.044841e+01
0	 4.518519e+00	 3.925926e+00	 1.043798e+01
0	 4.518519e+00	 4.000000e+00	 1.042742e+01
0	 4.518519e+00	 4.074074e+00	 1.041673e+01
0	 4.592593e+00	 3.703704e+00	 1.046190e+01
0	 4.592593e+00	 3.777778e+00	 1.045218e+01
0	 4.592593e+00	 3.851852e+00	 1.044239e+01
0	 4.592593e+00	 3.925926e+00	 1.043249e+01
0	 4.592593e+00	 4.000000e+00	 1.042247e+01
0	 4.592593e+00	 4.074074e+00	 1.041228e+01
0	 4.666667e+00	 3.703704e+00	 1.045435e+01
0	 4.666667e+00	 3.777778e+00	 1.044519e+01
0	 4.666667e+00	 3.851852e+00	 1.043594e+01
0	 4.666667e+00	 3.925926e+00	 1.042657e+01
0	 4.666667e+00	 4.000000e+00	 1.041706e+01
0	 4.666667e+00	 4.074074e+00	 1.040738e+01
0	 4.740741e+00	 3.703704e+00	 1.044649e+01
0	 4.740741e+00	 3.777778e+00	 1.043787e+01
0	 4.740741e+00	 3.851852e+00	 1.042913e+01
0	 4.740741e+00	 3.925926e+00	 1.042027e+01
0	 4.740741e+00	 4.000000e+00	 1.041126e+01
0	 4.740741e+00	 4.074074e+00	 1.040206e+01
0	 4.814815e+00	 3.703704e+00	 1.043837e+01
0	 4.814815e+00	 3.777778e+00	 1.043026e+01
0	 4.814815e+00	 3.851852e+00	 1.042203e+01
0	 4.814815e+00	 3.925926e+00	 1.041366e+01
0	 4.814815e+00	 4.000000e+00	 1.040513e+01
0	 4.814815e+00	 4.074074e+00	 1.039641e+01
0	 4.444444e+00	 4.074074e+00	 1.042065e+01
0	 4.444444e+00	 4.148148e+00	 1.040942e+01
0	 4.444444e+00	 4.222222e+00	 1.039829e+01
0	 4.444444e+00	 4.296296e+00	 1.038724e+01
0	 4.444444e+00	 4.370370e+00	 1.037624e+01
0	 4.444444e+00	 4.444444e+00	 1.036528e+01
0	 4.518519e+00	 4.074074e+00	 1.041673e+01
0	 4.518519e+00	 4.148148e+00	 1.040600e+01
0	 4.518519e+00	 4.222222e+00	 1.039535e+01
0	 4.518519e+00	 4.296296e+00	 1.038475e+01
0	 4.518519e+00	 4.370370e+00	 1.037419e+01
0	 4.518519e+00	 4.444444e+00	 1.036363e+01
0	 4.592593e+00	 4.074074e+00	 1.041228e+01
0	 4.592593e+00	 4.148148e+00	 1.040205e+01
0	 4.592593e+00	 4.222222e+00	 1.039187e+01
0	 4.592593e+00	 4.296296e+00	 1.038172e+01
0	 4.592593e+00	 4.370370e+00	 1.037158e+01
0	 4.592593e+00	 4.444444e+00	 1.036143e+01
0	 4.666667e+00	 4.074074e+00	 1.040738e+01
0	 4.666667e+00	 4.148148e+00	 1.039763e+01
0	 4.666667e+00	 4.222222e+00	 1.038791e+01
0	 4.666667e+00	 4.296296e+00	 1.037820e+01
0	 4.666667e+00	 4.370370e+00	 1.036848e+01
0	 4.666667e+00	 4.444444e+00	 1.035872e+01
0	 4.740741e+00	 4.074074e+00	 1.040206e+01
0	 4.740741e+00	 4.148148e+00	 1.039279e+01
0	 4.740741e+00	 4.222222e+00	 1.038352e+01
0	 4.740741e+00	 4.296296e+00	 1.037424e+01
0	 4.740741e+00	 4.370370e+00	 1.036493e+01
0	 4.740741e+00	 4.444444e+00	 1.035556e+01
0	 4.814815e+00	 4.074074e+00	 1.039641e+01
0	 4.814815e+00	 4.148148e+00	 1.038759e+01
0	 4.814815e+00	 4.222222e+00	 1.037876e+01
0	 4.814815e+00	 4.296296e+00	 1.036990e+01
0	 4.814815e+00	 4.370370e+00	 1.036099e+01
0	 4.814815e+00	 4.444444e+00	 1.035200e+01
0	 4.444444e+00	 4.444444e+00	 1.036528e+01
0	 4.444444e+00	 4.518519e+00	 1.035441e+01
0	 4.444444e+00	 4.592593e+00	 1.034371e+01
0	 4.444444e+00	 4.666667e+00	 1.033315e+01
0	 4.444444e+00	 4.740741e+00	 1.032273e+01
0	 4.444444e+00	 4.814815e+00	 1.031243e+01
0	 4.518519e+00	 4.444444e+00	 1.036363e+01
0	 4.518519e+00	 4.518519e+00	 1.035315e+01
0	 4.518519e+00	 4.592593e+00	 1.034281e+01
0	 4.518519e+00	 4.666667e+00	 1.033259e+01
0	 4.518519e+00	 4.740741e+00	 1.032248e+01
0	 4.518519e+00	 4.814815e+00	 1.031247e+01
0	 4.592593e+00	 4.444444e+00	 1.036143e+01
0	 4.592593e+00	 4.518519e+00	 1.035132e+01
0	 4.592593e+00	 4.592593e+00	 1.034134e+01
0	 4.592593e+00	 4.666667e+00	 1.033146e+01
0	 4.592593e+00	 4.740741e+00	 1.032167e+01
0	 4.592593e+00	 4.814815e+00	 1.031196e+01
0	 4.666667e+00	 4.444444e+00	 1.035872e+01
0	 4.666667e+00	 4.518519e+00	 1.034899e+01
0	 4.666667e+00	 4.592593e+00	 1.033936e+01
0	 4.666667e+00	 4.666667e+00	 1.032982e+01
0	 4.666667e+00	 4.740741e+00	 1.032035e+01
0	 4.666667e+00	 4.814815e+00	 1.031094e+01
0	 4.740741e+00	 4.444444e+00	 1.035556e+01
0	 4.740741e+00	 4.518519e+00	 1.034620e+01
0	 4.740741e+00	 4.592593e+00	 1.033693e+01
0	 4.740741e+00	 4.666667e+00	 1.032772e+01
0	 4.740741e+00	 4.740741e+00	 1.031858e+01
0	 4.740741e+00	 4.814815e+00	 1.030947e+01
0	 4.814815e+00	 4.444444e+00	 1.035200e+01
0	 4.814815e+00	 4.518519e+00	 1.034301e+01
0	 4.814815e+00	 4.592593e+00	 1.033408e+01
0	 4.814815e+00	 4.666667e+00	 1.032522e+01
0	 4.814815e+00	 4.740741e+00	 1.031639e+01
0	 4.814815e+00	 4.814815e+00	 1.030758e+01
0	 4.444444e+00	 4.814815e+00	 1.031243e+01
0	 4.444444e+00	 4.888889e+00	 1.030228e+01
0	 4.444444e+00	 4.962963e+00	 1.029234e+01
0	 4.444444e+00	 5.037037e+00	 1.028260e+01
0	 4.444444e+00	 5.111111e+00	 1.027305e+01
0	 4.444444e+00	 5.185185e+00	 1.026367e+01
0	 4.518519e+00	 4.814815e+00	 1.031247e+01
0	 4.518519e+00	 4.888889e+00	 1.030259e+01
0	 4.518519e+00	 4.962963e+00	 1.029291e+01
0	 4.518519e+00	 5.037037e+00	 1.028340e+01
0	 4.518519e+00	 5.111111e+00	 1.027406e+01
0	 4.518519e+00	 5.185185e+00	 1.026488e+01
0	 4.592593e+00	 4.814815e+00	 1.031196e+01
0	 4.592593e+00	 4.888889e+00	 1.030236e+01
0	 4.592593e+00	 4.962963e+00	 1.029294e+01
0	 4.592593e+00	 5.037037e+00	 1.028367e+01
0	 4.592593e+00	 5.111111e+00	 1.027456e+01
0	 4.592593e+00	 5.185185e+00	 1.026558e+01
0	 4.666667e+00	 4.814815e+00	 1.031094e+01
0	 4.666667e+00	 4.888889e+00	 1.030163e+01
0	 4.666667e+00	 4.962963e+00	 1.029247e+01
0	 4.666667e+00	 5.037037e+00	 1.028346e+01
0	 4.666667e+00	 5.111111e+00	 1.027457e+01
0	 4.666667e+00	 5.185185e+00	 1.026580e+01
0	 4.740741e+00	 4.814815e+00	 1.030947e+01
0	 4.740741e+00	 4.888889e+00	 1.030044e+01
0	 4.740741e+00	 4.962963e+00	 1.029155e+01
0	 4.740741e+00	 5.037037e+00	 1.028279e+01
0	 4.740741e+00	 5.111111e+00	 1.027413e+01
0	 4.740741e+00	 5.185185e+00	 1.026558e+01
0	 4.814815e+00	 4.814815e+00	 1.030758e+01
0	 4.814815e+00	 4.888889e+00	 1.029884e+01
0	 4.814815e+00	 4.962963e+00	 1.029023e+01
0	 4.814815e+00	 5.037037e+00	 1.028171e+01
0	 4.814815e+00	 5.111111e+00	 1.027329e+01
0	 4.814815e+00	 5.185185e+00	 1.026495e+01
0	 4.444444e+00	 5.185185e+00	 1.026367e+01
0	 4.444444e+00	 5.259259e+00	 1.025449e+01
0	 4.444444e+00	 5.333333e+00	 1.024552e+01
0	 4.444444e+00	 5.407407e+00	 1.023677e+01
0	 4.444444e+00	 5.481481e+00	 1.022821e+01
0	 4.444444e+00	 5.555556e+00	 1.021986e+01
0	 4.518519e+00	 5.185185e+00	 1.026488e+01
0	 4.518519e+00	 5.259259e+00	 1.025588e+01
0	 4.518519e+00	 5.333333e+00	 1.024707e+01
0	 4.518519e+00	 5.407407e+00	 1.023846e+01
0	 4.518519e+00	 5.481481e+00	 1.023004e+01
0	 4.518519e+00	 5.555556e+00	 1.022179e+01
0	 4.592593e+00	 5.185185e+00	 1.026558e+01
0	 4.592593e+00	 5.259259e+00	 1.025676e+01
0	 4.592593e+00	 5.333333e+00	 1.024812e+01
0	 4.592593e+00	 5.407407e+00	 1.023967e+01
0	 4.592593e+00	 5.481481e+00	 1.023138e+01
0	 4.592593e+00	 5.555556e+00	 1.022326e+01
0	 4.666667e+00	 5.185185e+00	 1.026580e+01
0	 4.666667e+00	 5.259259e+00	 1.025717e+01
0	 4.666667e+00	 5.333333e+00	 1.024871e+01
0	 4.666667e+00	 5.407407e+00	 1.024042e+01
0	 4.666667e+00	 5.481481e+00	 1.023229e+01
0	 4.666667e+00	 5.555556e+00	 1.022430e+01
0	 4.740741e+00	 5.185185e+00	 1.026558e+01
0	 4.740741e+00	 5.259259e+00	 1.025714e+01
0	 4.740741e+00	 5.333333e+00	 1.024887e+01
0	 4.740741e+00	 5.407407e+00	 1.024075e+01
0	 4.740741e+00	 5.481481e+00	 1.023278e+01
0	 4.740741e+00	 5.555556e+00	 1.022494e+01
0	 4.814815e+00	 5.185185e+00	 1.026495e+01
0	 4.814815e+00	 5.259259e+00	 1.025672e+01
0	 4.814815e+00	 5.333333e+00	 1.024864e+01
0	 4.814815e+00	 5.407407e+00	 1.024070e+01
0	 4.814815e+00	 5.481481e+00	 1.023289e+01
0	 4.814815e+00	 5.555556e+00	 1.022520e+01
0	 4.444444e+00	 5.555556e+00	 1.021986e+01
0	 4.444444e+00	 5.629630e+00	 1.021170e+01
0	 4.444444e+00	 5.703704e+00	 1.020376e+01
0	 4.444444e+00	 5.777778e+00	 1.019603e+01
0	 4.444444e+00	 5.851852e+00	 1.018851e+01
0	 4.444444e+00	 5.925926e+00	 1.018119e+01
0	 4.518519e+00	 5.555556e+00	 1.022179e+01
0	 4.518519e+00	 5.629630e+00	 1.021374e+01
0	 4.518519e+00	 5.703704e+00	 1.020588e+01
0	 4.518519e+00	 5.777778e+00	 1.019823e+01
0	 4.518519e+00	 5.851852e+00	 1.019077e+01
0	 4.518519e+00	 5.925926e+00	 1.018350e+01
0	 4.592593e+00	 5.555556e+00	 1.022326e+01
0	 4.592593e+00	 5.629630e+00	 1.021532e+01
0	 4.592593e+00	 5.703704e+00	 1.020757e+01
0	 4.592593e+00	 5.777778e+00	 1.020000e+01
0	 4.592593e+00	 5.851852e+00	 1.019262e+01
0	 4.592593e+00	 5.925926e+00	 1.018541e+01
0	 4.666667e+00	 5.555556e+00	 1.022430e+01
0	 4.666667e+00	 5.629630e+00	 1.021648e+01
0	 4.666667e+00	 5.703704e+00	 1.020884e+01
0	 4.666667e+00	 5.777778e+00	 1.020137e+01
0	 4.666667e+00	 5.851852e+00	 1.019407e+01
0	 4.666667e+00	 5.925926e+00	 1.018693e+01
0	 4.740741e+00	 5.555556e+00	 1.022494e+01
0	 4.740741e+00	 5.629630e+00	 1.021724e+01
0	 4.740741e+00	 5.703704e+00	 1.020972e+01
0	 4.740741e+00	 5.777778e+00	 1.020236e+01
0	 4.740741e+00	 5.851852e+00	 1.019515e+01
0	 4.740741e+00	 5.925926e+00	 1.018810e+01
0	 4.814815e+00	 5.555556e+00	 1.022520e+01
0	 4.814815e+00	 5.629630e+00	 1.021764e+01
0	 4.814815e+00	 5.703704e+00	 1.021025e+01
0	 4.814815e+00	 5.777778e+00	 1.020300e+01
0	 4.814815e+00	 5.851852e+00	 1.019589e+01
0	 4.814815e+00	 5.925926e+00	 1.018893e+01
0	 4.444444e+00	 5.925926e+00	 1.018119e+01
0	 4.444444e+00	 6.000000e+00	 1.017407e+01
0	 4.444444e+00	 6.074074e+00	 1.016715e+01
0	 4.444444e+00	 6.148148e+00	 1.016042e+01
0	 4.444444e+00	 6.222222e+00	 1.015389e+01
0	 4.444444e+00	 6.296296e+00	 1.014754e+01
0	 4.518519e+00	 5.925926e+00	 1.018350e+01
0	 4.518519e+00	 6.000000e+00	 1.017642e+01
0	 4.518519e+00	 6.074074e+00	 1.016953e+01
0	 4.518519e+00	 6.148148e+00	 1.016282e+01
0	 4.518519e+00	 6.222222e+00	 1.015630e+01
0	 4.518519e+00	 6.296296e+00	 1.014996e+01
0	 4.592593e+00	 5.925926e+00	 1.018541e+01
0	 4.592593e+00	 6.000000e+00	 1.017838e+01
0	 4.592593e+00	 6.074074e+00	 1.017153e+01
0	 4.592593e+00	 6.148148e+00	 1.016485e+01
0	 4.592593e+00	 6.222222e+00	 1.015835e+01
0	 4.592593e+00	 6.296296e+00	 1.015203e+01
0	 4.666667e+00	 5.925926e+00	 1.018693e+01
0	 4.666667e+00	 6.000000e+00	 1.017996e+01
0	 4.666667e+00	 6.074074e+00	 1.017316e+01
0	 4.666667e+00	 6.148148e+00	 1.016653e+01
0	 4.666667e+00	 6.222222e+00	 1.016007e+01
0	 4.666667e+00	 6.296296e+00	 1.015377e+01
0	 4.740741e+00	 5.925926e+00	 1.018810e+01
0	 4.740741e+00	 6.000000e+00	 1.018120e+01
0	 4.740741e+00	 6.074074e+00	 1.017446e+01
0	 4.740741e+00	 6.148148e+00	 1.016789e+01
0	 4.740741e+00	 6.222222e+00	 1.016147e+01
0	 4.740741e+00	 6.296296e+00	 1.015520e+01
0	 4.814815e+00	 5.925926e+00	 1.018893e+01
0	 4.814815e+00	 6.000000e+00	 1.018211e+01
0	 4.814815e+00	 6.074074e+00	 1.017544e+01
0	 4.814815e+00	 6.148148e+00	 1.016893e+01
0	 4.814815e+00	 6.222222e+00	 1.016257e+01
0	 4.814815e+00	 6.296296e+00	 1.015635e+01
0	 4.444444e+00	 6.296296e+00	 1.014754e+01
0	 4.444444e+00	 6.370370e+00	 1.014138e+01
0	 4.444444e+00	 6.444444e+00	 1.013540e+01
0	 4.444444e+00	 6.518519e+00	 1.012960e+01
0	 4.444444e+00	 6.592593e+00	 1.012397e+01
0	 4.444444e+00	 6.666667e+00	 1.011852e+01
0	 4.518519e+00	 6.296296e+00	 1.014996e+01
0	 4.518519e+00	 6.370370e+00	 1.014379e+01
0	 4.518519e+00	 6.444444e+00	 1.013780e+01
0	 4.518519e+00	 6.518519e+00	 1.013198e+01
0	 4.518519e+00	 6.592593e+00	 1.012632e+01
0	 4.518519e+00	 6.666667e+00	 1.012084e+01
0	 4.592593e+00	 6.296296e+00	 1.015203e+01
0	 4.592593e+00	 6.370370e+00	 1.014587e+01
0	 4.592593e+00	 6.444444e+00	 1.013987e+01
0	 4.592593e+00	 6.518519e+00	 1.013405e+01
0	 4.592593e+00	 6.592593e+00	 1.012838e+01
0	 4.592593e+00	 6.666667e+00	 1.012288e+01
0	 4.666667e+00	 6.296296e+00	 1.015377e+01
0	 4.666667e+00	 6.370370e+00	 1.014763e+01
0	 4.666667e+00	 6.444444e+00	 1.014165e+01
0	 4.666667e+00	 6.518519e+00	 1.013583e+01
0	 4.666667e+00	 6.592593e+00	 1.013016e+01
0	 4.666667e+00	 6.666667e+00	 1.012465e+01
0	 4.740741e+00	 6.296296e+00	 1.015520e+01
0	 4.740741e+00	 6.370370e+00	 1.014909e+01
0	 4.740741e+00	 6.444444e+00	 1.014313e+01
0	 4.740741e+00	 6.518519e+00	 1.013733e+01
0	 4.740741e+00	 6.592593e+00	 1.013167e+01
0	 4.740741e+00	 6.666667e+00	 1.012615e+01
0	 4.814815e+00	 6.296296e+00	 1.015635e+01
0	 4.814815e+00	 6.370370e+00	 1.015027e+01
0	 4.814815e+00	 6.444444e+00	 1.014434e+01
0	 4.814815e+00	 6.518519e+00	 1.013856e+01
0	 4.814815e+00	 6.592593e+00	 1.013292e+01
0	 4.814815e+00	 6.666667e+00	 1.012741e+01
0	 4.444444e+00	 6.666667e+00	 1.011852e+01
0	 4.444444e+00	 6.740741e+00	 1.011323e+01
0	 4.444444e+00	 6.814815e+00	 1.010810e+01
0	 4.444444e+00	 6.888889e+00	 1.010312e+01
0	 4.444444e+00	 6.962963e+00	 1.009830e+01
0	 4.444444e+00	 7.037037e+00	 1.009364e+01
0	 4.518519e+00	 6.666667e+00	 1.012084e+01
0	 4.518519e+00	 6.740741e+00	 1.011552e+01
0	 4.518519e+00	 6.814815e+00	 1.011034e+01
0	 4.518519e+00	 6.888889e+00	 1.010532e+01
0	 4.518519e+00	 6.962963e+00	 1.010045e+01
0	 4.518519e+00	 7.037037e+00	 1.009573e+01
0	 4.592593e+00	 6.666667e+00	 1.012288e+01
0	 4.592593e+00	 6.740741e+00	 1.011753e+01
0	 4.592593e+00	 6.814815e+00	 1.011233e+01
0	 4.592593e+00	 6.888889e+00	 1.010727e+01
0	 4.592593e+00	 6.962963e+00	 1.010237e+01
0	 4.592593e+00	 7.037037e+00	 1.009760e+01
0	 4.666667e+00	 6.666667e+00	 1.012465e+01
0	 4.666667e+00	 6.740741e+00	 1.011928e+01
0	 4.666667e+00	 6.814815e+00	 1.011406e+01
0	 4.666667e+00	 6.888889e+00	 1.010898e+01
0	 4.666667e+00	 6.962963e+00	 1.010405e+01
0	 4.666667e+00	 7.037037e+00	 1.009925e+01
0	 4.740741e+00	 6.666667e+00	 1.012615e+01
0	 4.740741e+00	 6.740741e+00	 1.012078e+01
0	 4.740741e+00	 6.814815e+00	 1.011555e+01
0	 4.740741e+00	 6.888889e+00	 1.011046e+01
0	 4.740741e+00	 6.962963e+00	 1.010551e+01
0	 4.740741e+00	 7.037037e+00	 1.010069e+01
0	 4.814815e+00	 6.666667e+00	 1.012741e+01
0	 4.814815e+00	 6.740741e+00	 1.012205e+01
0	 4.814815e+00	 6.814815e+00	 1.011681e+01
0	 4.814815e+00	 6.888889e+00	 1.011172e+01
0	 4.814815e+00	 6.962963e+00	 1.010675e+01
0	 4.814815e+00	 7.037037e+00	 1.010192e+01
0	 4.444444e+00	 7.037037e+00	 1.009364e+01
0	 4.444444e+00	 7.111111e+00	 1.008911e+01
0	 4.444444e+00	 7.185185e+00	 1.008473e+01
0	 4.444444e+00	 7.259259e+00	 1.008048e+01
0	 4.444444e+00	 7.333333e+00	 1.007636e+01
0	 4.444444e+00	 7.407407e+00	 1.007238e+01
0	 4.518519e+00	 7.037037e+00	 1.009573e+01
0	 4.518519e+00	 7.111111e+00	 1.009116e+01
0	 4.518519e+00	 7.185185e+00	 1.008671e+01
0	 4.518519e+00	 7.259259e+00	 1.008240e+01
0	 4.518519e+00	 7.333333e+00	 1.007822e+01
0	 4.518519e+00	 7.407407e+00	 1.007417e+01
0	 4.592593e+00	 7.037037e+00	 1.009760e+01
0	 4.592593e+00	 7.111111e+00	 1.009298e+01
0	 4.592593e+00	 7.185185e+00	 1.008849e+01
0	 4.592593e+00	 7.259259e+00	 1.008412e+01
0	 4.592593e+00	 7.333333e+00	 1.007989e+01
0	 4.592593e+00	 7.407407e+00	 1.007579e+01
0	 4.666667e+00	 7.037037e+00	 1.009925e+01
0	 4.666667e+00	 7.111111e+00	 1.009459e+01
0	 4.666667e+00	 7.185185e+00	 1.009006e+01
0	 4.666667e+00	 7.259259e+00	 1.008565e+01
0	 4.666667e+00	 7.333333e+00	 1.008138e+01
0	 4.666667e+00	 7.407407e+00	 1.007722e+01
0	 4.740741e+00	 7.037037e+00	 1.010069e+01
0	 4.740741e+00	 7.111111e+00	 1.009600e+01
0	 4.740741e+00	 7.185185e+00	 1.009144e+01
0	 4.740741e+00	 7.259259e+00	 1.008700e+01
0	 4.740741e+00	 7.333333e+00	 1.008268e+01
0	 4.740741e+00	 7.407407e+00	 1.007849e+01
0	 4.814815e+00	 7.037037e+00	 1.010192e+01
0	 4.814815e+00	 7.111111e+00	 1.009721e+01
0	 4.814815e+00	 7.185185e+00	 1.009263e+01
0	 4.814815e+00	 7.259259e+00	 1.008816e+01
0	 4.814815e+00	 7.333333e+00	 1.008382e+01
0	 4.814815e+00	 7.407407e+00	 1.007960e+01
0	 4.444444e+00	 7.407407e+00	 1.007238e+01
0	 4.444444e+00	 7.481481e+00	 1.006853e+01
0	 4.444444e+00	 7.555556e+00	 1.006479e+01
0	 4.444444e+00	 7.629630e+00	 1.006117e+01
0	 4.444444e+00	 7.703704e+00	 1.005767e+01
0	 4.444444e+00	 7.777778e+00	 1.005428e+01
0	 4.518519e+00	 7.407407e+00	 1.007417e+01
0	 4.518519e+00	 7.481481e+00	 1.007025e+01
0	 4.518519e+00	 7.555556e+00	 1.006644e+01
0	 4.518519e+00	 7.629630e+00	 1.006275e+01
0	 4.518519e+00	 7.703704e+00	 1.005918e+01
0	 4.518519e+00	 7.777778e+00	 1.005572e+01
0	 4.592593e+00	 7.407407e+00	 1.007579e+01
0	 4.592593e+00	 7.481481e+00	 1.007180e+01
0	 4.592593e+00	 7.555556e+00	 1.006794e+01
0	 4.592593e+00	 7.629630e+00	 1.006419e+01
0	 4.592593e+00	 7.703704e+00	 1.006055e+01
0	 4.592593e+00	 7.777778e+00	 1.005703e+01
0	 4.666667e+00	 7.407407e+00	 1.007722e+01
0	 4.666667e+00	 7.481481e+00	 1.007319e+01
0	 4.666667e+00	 7.555556e+00	 1.006927e+01
0	 4.666667e+00	 7.629630e+00	 1.006547e+01
0	 4.666667e+00	 7.703704e+00	 1.006178e+01
0	 4.666667e+00	 7.777778e+00	 1.005820e+01
0	 4.740741e+00	 7.407407e+00	 1.007849e+01
0	 4.740741e+00	 7.481481e+00	 1.007442e+01
0	 4.740741e+00	 7.555556e+00	 1.007046e+01
0	 4.740741e+00	 7.629630e+00	 1.006661e+01
0	 4.740741e+00	 7.703704e+00	 1.006287e+01
0	 4.740741e+00	 7.777778e+00	 1.005925e+01
0	 4.814815e+00	 7.407407e+00	 1.007960e+01
0	 4.814815e+00	 7.481481e+00	 1.007549e+01
0	 4.814815e+00	 7.555556e+00	 1.007149e+01
0	 4.814815e+00	 7.629630e+00	 1.006761e+01
0	 4.814815e+00	 7.703704e+00	 1.006383e+01
0	 4.814815e+00	 7.777778e+00	 1.006017e+01
0	 4.444444e+00	 7.777778e+00	 1.005428e+01
0	 4.444444e+00	 7.851852e+00	 1.005100e+01
0	 4.444444e+00	 7.925926e+00	 1.004783e+01
0	 4.444444e+00	 8.000000e+00	 1.004476e+01
0	 4.444444e+00	 8.074074e+00	 1.004179e+01
0	 4.444444e+00	 8.148148e+00	 1.003893e+01
0	 4.518519e+00	 7.777778e+00	 1.005572e+01
0	 4.518519e+00	 7.851852e+00	 1.005237e+01
0	 4.518519e+00	 7.925926e+00	 1.004913e+01
0	 4.518519e+00	 8.000000e+00	 1.004599e+01
0	 4.518519e+00	 8.074074e+00	 1.004295e+01
0	 4.518519e+00	 8.148148e+00	 1.004001e+01
0	 4.592593e+00	 7.777778e+00	 1.005703e+01
0	 4.592593e+00	 7.851852e+00	 1.005361e+01
0	 4.592593e+00	 7.925926e+00	 1.005031e+01
0	 4.592593e+00	 8.000000e+00	 1.004710e+01
0	 4.592593e+00	 8.074074e+00	 1.004400e+01
0	 4.592593e+00	 8.148148e+00	 1.004100e+01
0	 4.666667e+00	 7.777778e+00	 1.005820e+01
0	 4.666667e+00	 7.851852e+00	 1.005473e+01
0	 4.666667e+00	 7.925926e+00	 1.005137e+01
0	 4.666667e+00	 8.000000e+00	 1.004811e+01
0	 4.666667e+00	 8.074074e+00	 1.004495e+01
0	 4.666667e+00	 8.148148e+00	 1.004189e+01
0	 4.740741e+00	 7.777778e+00	 1.005925e+01
0	 4.740741e+00	 7.851852e+00	 1.005573e+01
0	 4.740741e+00	 7.925926e+00	 1.005232e+01
0	 4.740741e+00	 8.000000e+00	 1.004900e+01
0	 4.740741e+00	 8.074074e+00	 1.004580e+01
0	 4.740741e+00	 8.148148e+00	 1.004269e+01
0	 4.814815e+00	 7.777778e+00	 1.006017e+01
0	 4.814815e+00	 7.851852e+00	 1.005661e+01
0	 4.814815e+00	 7.925926e+00	 1.005315e+01
0	 4.814815e+00	 8.000000e+00	 1.004980e+01
0	 4.814815e+00	 8.074074e+00	 1.004654e+01
0	 4.814815e+00	 8.148148e+00	 1.004339e+01
0	 4.444444e+00	 8.148148e+00	 1.003893e+01
0	 4.444444e+00	 8.222222e+00	 1.003616e+01
0	 4.444444e+00	 8.296296e+00	 1.003349e+01
0	 4.444444e+00	 8.370370e+00	 1.003092e+01
0	 4.444444e+00	 8.444444e+00	 1.002844e+01
0	 4.444444e+00	 8.518519e+00	 1.002605e+01
0	 4.518519e+00	 8.148148e+00	 1.004001e+01
0	 4.518519e+00	 8.222222e+00	 1.003718e+01
0	 4.518519e+00	 8.296296e+00	 1.003444e+01
0	 4.518519e+00	 8.370370e+00	 1.003180e+01
0	 4.518519e+00	 8.444444e+00	 1.002925e+01
0	 4.518519e+00	 8.518519e+00	 1.002679e+01
0	 4.592593e+00	 8.148148e+00	 1.004100e+01
0	 4.592593e+00	 8.222222e+00	 1.003810e+01
0	 4.592593e+00	 8.296296e+00	 1.003530e+01
0	 4.592593e+00	 8.370370e+00	 1.003259e+01
0	 4.592593e+00	 8.444444e+00	 1.002999e+01
0	 4.592593e+00	 8.518519e+00	 1.002747e+01
0	 4.666667e+00	 8.148148e+00	 1.004189e+01
0	 4.666667e+00	 8.222222e+00	 1.003893e+01
0	 4.666667e+00	 8.296296e+00	 1.003608e+01
0	 4.666667e+00	 8.370370e+00	 1.003332e+01
0	 4.666667e+00	 8.444444e+00	 1.003065e+01
0	 4.666667e+00	 8.518519e+00	 1.002808e+01
0	 4.740741e+00	 8.148148e+00	 1.004269e+01
0	 4.740741e+00	 8.222222e+00	 1.003968e+01
0	 4.740741e+00	 8.296296e+00	 1.003677e+01
0	 4.740741e+00	 8.370370e+00	 1.003396e+01
0	 4.740741e+00	 8.444444e+00	 1.003125e+01
0	 4.740741e+00	 8.518519e+00	 1.002864e+01
0	 4.814815e+00	 8.148148e+00	 1.004339e+01
0	 4.814815e+00	 8.222222e+00	 1.004034e+01
0	 4.814815e+00	 8.296296e+00	 1.003739e+01
0	 4.814815e+00	 8.370370e+00	 1.003454e+01
0	 4.814815e+00	 8.444444e+00	 1.003178e+01
0	 4.814815e+00	 8.518519e+00	 1.002912e+01
0	 4.444444e+00	 8.518519e+00	 1.002605e+01
0	 4.444444e+00	 8.592593e+00	 1.002375e+01
0	 4.444444e+00	 8.666667e+00	 1.002156e+01
0	 4.444444e+00	 8.740741e+00	 1.001945e+01
0	 4.444444e+00	 8.814815e+00	 1.001744e+01
0	 4.444444e+00	 8.888889e+00	 1.001551e+01
0	 4.518519e+00	 8.518519e+00	 1.002679e+01
0	 4.518519e+00	 8.592593e+00	 1.002443e+01
0	 4.518519e+00	 8.666667e+00	 1.002217e+01
0	 4.518519e+00	 8.740741e+00	 1.002001e+01
0	 4.518519e+00	 8.814815e+00	 1.001794e+01
0	 4.518519e+00	 8.888889e+00	 1.001596e+01
0	 4.592593e+00	 8.518519e+00	 1.002747e+01
0	 4.592593e+00	 8.592593e+00	 1.002505e+01
0	 4.592593e+00	 8.666667e+00	 1.002274e+01
0	 4.592593e+00	 8.740741e+00	 1.002052e+01
0	 4.592593e+00	 8.814815e+00	 1.001840e+01
0	 4.592593e+00	 8.888889e+00	 1.001636e+01
0	 4.666667e+00	 8.518519e+00	 1.002808e+01
0	 4.666667e+00	 8.592593e+00	 1.002561e+01
0	 4.666667e+00	 8.666667e+00	 1.002325e+01
0	 4.666667e+00	 8.740741e+00	 1.002098e+01
0	 4.666667e+00	 8.814815e+00	 1.001881e+01
0	 4.666667e+00	 8.888889e+00	 1.001673e+01
0	 4.740741e+00	 8.518519e+00	 1.002864e+01
0	 4.740741e+00	 8.592593e+00	 1.002612e+01
0	 4.740741e+00	 8.666667e+00	 1.002371e+01
0	 4.740741e+00	 8.740741e+00	 1.002140e+01
0	 4.740741e+00	 8.814815e+00	 1.001918e+01
0	 4.740741e+00	 8.888889e+00	 1.001706e+01
0	 4.814815e+00	 8.518519e+00	 1.002912e+01
0	 4.814815e+00	 8.592593e+00	 1.002656e+01
0	 4.814815e+00	 8.666667e+00	 1.002411e+01
0	 4.814815e+00	 8.740741e+00	 1.002176e+01
0	 4.814815e+00	 8.814815e+00	 1.001951e+01
0	 4.814815e+00	 8.888889e+00	 1.001736e+01
0	 4.444444e+00	 8.888889e+00	 1.001551e+01
0	 4.444444e+00	 8.962963e+00	 1.001369e+01
0	 4.444444e+00	 9.037037e+00	 1.001197e+01
0	 4.444444e+00	 9.111111e+00	 1.001035e+01
0	 4.444444e+00	 9.185185e+00	 1.000882e+01
0	 4.444444e+00	 9.259259e+00	 1.000739e+01
0	 4.518519e+00	 8.888889e+00	 1.001596e+01
0	 4.518519e+00	 8.962963e+00	 1.001408e+01
0	 4.518519e+00	 9.037037e+00	 1.001231e+01
0	 4.518519e+00	 9.111111e+00	 1.001064e+01
0	 4.518519e+00	 9.185185e+00	 1.000907e+01
0	 4.518519e+00	 9.259259e+00	 1.000760e+01
0	 4.592593e+00	 8.888889e+00	 1.001636e+01
0	 4.592593e+00	 8.962963e+00	 1.001443e+01
0	 4.592593e+00	 9.037037e+00	 1.001262e+01
0	 4.592593e+00	 9.111111e+00	 1.001091e+01
0	 4.592593e+00	 9.185185e+00	 1.000930e+01
0	 4.592593e+00	 9.259259e+00	 1.000779e+01
0	 4.666667e+00	 8.888889e+00	 1.001673e+01
0	 4.666667e+00	 8.962963e+00	 1.001476e+01
0	 4.666667e+00	 9.037037e+00	 1.001290e+01
0	 4.666667e+00	 9.111111e+00	 1.001115e+01
0	 4.666667e+00	 9.185185e+00	 1.000951e+01
0	 4.666667e+00	 9.259259e+00	 1.000796e+01
0	 4.740741e+00	 8.888889e+00	 1.001706e+01
0	 4.740741e+00	 8.962963e+00	 1.001505e+01
0	 4.740741e+00	 9.037037e+00	 1.001315e+01
0	 4.740741e+00	 9.111111e+00	 1.001137e+01
0	 4.740741e+00	 9.185185e+00	 1.000969e+01
0	 4.740741e+00	 9.259259e+00	 1.000812e+01
0	 4.814815e+00	 8.888889e+00	 1.001736e+01
0	 4.814815e+00	 8.962963e+00	 1.001531e+01
0	 4.814815e+00	 9.037037e+00	 1.001338e+01
0	 4.814815e+00	 9.111111e+00	 1.001156e+01
0	 4.814815e+00	 9.185185e+00	 1.000986e+01
0	 4.814815e+00	 9.259259e+00	 1.000825e+01
0	 4.444444e+00	 9.259259e+00	 1.000739e+01
0	 4.444444e+00	 9.333333e+00	 1.000607e+01
0	 4.444444e+00	 9.407407e+00	 1.000488e+01
0	 4.444444e+00	 9.481481e+00	 1.000381e+01
0	 4.444444e+00	 9.555556e+00	 1.000285e+01
0	 4.444444e+00	 9.629630e+00	 1.000201e+01
0	 4.518519e+00	 9.259259e+00	 1.000760e+01
0	 4.518519e+00	 9.333333e+00	 1.000624e+01
0	 4.518519e+00	 9.407407e+00	 1.000501e+01
0	 4.518519e+00	 9.481481e+00	 1.000391e+01
0	 4.518519e+00	 9.555556e+00	 1.000293e+01
0	 4.518519e+00	 9.629630e+00	 1.000206e+01
0	 4.592593e+00	 9.259259e+00	 1.000779e+01
0	 4.592593e+00	 9.333333e+00	 1.000639e+01
0	 4.592593e+00	 9.407407e+00	 1.000514e+01
0	 4.592593e+00	 9.481481e+00	 1.000401e+01
0	 4.592593e+00	 9.555556e+00	 1.000300e+01
0	 4.592593e+00	 9.629630e+00	 1.000211e+01
0	 4.666667e+00	 9.259259e+00	 1.000796e+01
0	 4.666667e+00	 9.333333e+00	 1.000654e+01
0	 4.666667e+00	 9.407407e+00	 1.000525e+01
0	 4.666667e+00	 9.481481e+00	 1.000410e+01
0	 4.666667e+00	 9.555556e+00	 1.000307e+01
0	 4.666667e+00	 9.629630e+00	 1.000215e+01
0	 4.740741e+00	 9.259259e+00	 1.000812e+01
0	 4.740741e+00	 9.333333e+00	 1.000666e+01
0	 4.740741e+00	 9.407407e+00	 1.000535e+01
0	 4.740741e+00	 9.481481e+00	 1.000418e+01
0	 4.740741e+00	 9.555556e+00	 1.000313e+01
0	 4.740741e+00	 9.629630e+00	 1.000220e+01
0	 4.814815e+00	 9.259259e+00	 1.000825e+01
0	 4.814815e+00	 9.333333e+00	 1.000677e+01
0	 4.814815e+00	 9.407407e+00	 1.000544e+01
0	 4.814815e+00	 9.481481e+00	 1.000424e+01
0	 4.814815e+00	 9.555556e+00	 1.000318e+01
0	 4.814815e+00	 9.629630e+00	 1.000223e+01
0	 4.444444e+00	 9.629630e+00	 1.000201e+01
0	 4.444444e+00	 9.703704e+00	 1.000129e+01
0	 4.444444e+00	 9.777778e+00	 1.000074e+01
0	 4.444444e+00	 9.851852e+00	 1.000035e+01
0	 4.444444e+00	 9.925926e+00	 1.000010e+01
0	 4.444444e+00	 1.000000e+01	 9.999973e+00
0	 4.518519e+00	 9.629630e+00	 1.000206e+01
0	 4.518519e+00	 9.703704e+00	 1.000133e+01
0	 4.518519e+00	 9.777778e+00	 1.000076e+01
0	 4.518519e+00	 9.851852e+00	 1.000036e+01
0	 4.518519e+00	 9.925926e+00	 1.000010e+01
0	 4.518519e+00	 1.000000e+01	 9.999970e+00
0	 4.592593e+00	 9.629630e+00	 1.000211e+01
0	 4.592593e+00	 9.703704e+00	 1.000136e+01
0	 4.592593e+00	 9.777778e+00	 1.000078e+01
0	 4.592593e+00	 9.851852e+00	 1.000036e+01
0	 4.592593e+00	 9.925926e+00	 1.000010e+01
0	 4.592593e+00	 1.000000e+01	 9.999971e+00
0	 4.666667e+00	 9.629630e+00	 1.000215e+01
0	 4.666667e+00	 9.703704e+00	 1.000139e+01
0	 4.666667e+00	 9.777778e+00	 1.000080e+01
0	 4.666667e+00	 9.851852e+00	 1.000037e+01
0	 4.666667e+00	 9.925926e+00	 1.000010e+01
0	 4.666667e+00	 1.000000e+01	 9.999972e+00
0	 4.740741e+00	 9.629630e+00	 1.000220e+01
0	 4.740741e+00	 9.703704e+00	 1.000142e+01
0	 4.740741e+00	 9.777778e+00	 1.000081e+01
0	 4.740741e+00	 9.851852e+00	 1.000038e+01
0	 4.740741e+00	 9.925926e+00	 1.000011e+01
0	 4.740741e+00	 1.000000e+01	 9.999974e+00
0	 4.814815e+00	 9.629630e+00	 1.000223e+01
0	 4.814815e+00	 9.703704e+00	 1.000144e+01
0	 4.814815e+00	 9.777778e+00	 1.000083e+01
0	 4.814815e+00	 9.851852e+00	 1.000039e+01
0	 4.814815e+00	 9.925926e+00	 1.000011e+01
0	 4.814815e+00	 1.000000e+01	 9.999973e+00
0	 4.814815e+00	 0.000000e+00	 1.035843e+01
0	 4.814815e+00	 7.407407e-02	 1.035859e+01
0	 4.814815e+00	 1.481481e-01	 1.035951e+01
0	 4.814815e+00	 2.222222e-01	 1.036123e+01
0	 4.814815e+00	 2.962963e-01	 1.036374e+01
0	 4.814815e+00	 3.703704e-01	 1.036707e+01
0	 4.888889e+00	 0.000000e+00	 1.034671e+01
0	 4.888889e+00	 7.407407e-02	 1.034689e+01
0	 4.888889e+00	 1.481481e-01	 1.034777e+01
0	 4.888889e+00	 2.222222e-01	 1.034937e+01
0	 4.888889e+00	 2.962963e-01	 1.035171e+01
0	 4.888889e+00	 3.703704e-01	 1.035480e+01
0	 4.962963e+00	 0.000000e+00	 1.033484e+01
0	 4.962963e+00	 7.407407e-02	 1.033509e+01
0	 4.962963e+00	 1.481481e-01	 1.033599e+01
0	 4.962963e+00	 2.222222e-01	 1.033758e+01
0	 4.962963e+00	 2.962963e-01	 1.033985e+01
0	 4.962963e+00	 3.703704e-01	 1.034283e+01
0	 5.037037e+00	 0.000000e+00	 1.032304e+01
0	 5.037037e+00	 7.407407e-02	 1.032337e+01
0	 5.037037e+00	 1.481481e-01	 1.032433e+01
0	 5.037037e+00	 2.222222e-01	 1.032593e+01
0	 5.037037e+00	 2.962963e-01	 1.032820e+01
0	 5.037037e+00	 3.703704e-01	 1.033114e+01
0	 5.111111e+00	 0.000000e+00	 1.031154e+01
0	 5.111111e+00	 7.407407e-02	 1.031192e+01
0	 5.111111e+00	 1.481481e-01	 1.031291e+01
0	 5.111111e+00	 2.222222e-01	 1.031453e+01
0	 5.111111e+00	 2.962963e-01	 1.031679e+01
0	 5.111111e+00	 3.703704e-01	 1.031971e+01
0	 5.185185e+00	 0.000000e+00	 1.030055e+01
0	 5.185185e+00	 7.407407e-02	 1.030093e+01
0	 5.185185e+00	 1.481481e-01	 1.030189e+01
0	 5.185185e+00	 2.222222e-01	 1.030347e+01
0	 5.185185e+00	 2.962963e-01	 1.030567e+01
0	 5.185185e+00	 3.703704e-01	 1.030851e+01
0	 4.814815e+00	 3.703704e-01	 1.036707e+01
0	 4.814815e+00	 4.444444e-01	 1.037108e+01
0	 4.814815e+00	 5.185185e-01	 1.037567e+01
0	 4.814815e+00	 5.925926e-01	 1.038091e+01
0	 4.814815e+00	 6.666667e-01	 1.038687e+01
0	 4.814815e+00	 7.407407e-01	 1.039361e+01
0	 4.888889e+00	 3.703704e-01	 1.035480e+01
0	 4.888889e+00	 4.444444e-01	 1.035854e+01
0	 4.888889e+00	 5.185185e-01	 1.036285e+01
0	 4.888889e+00	 5.925926e-01	 1.036779e+01
0	 4.888889e+00	 6.666667e-01	 1.037344e+01
0	 4.888889e+00	 7.407407e-01	 1.037985e+01
0	 4.962963e+00	 3.703704e-01	 1.034283e+01
0	 4.962963e+00	 4.444444e-01	 1.034642e+01
0	 4.962963e+00	 5.185185e-01	 1.035053e+01
0	 4.962963e+00	 5.925926e-01	 1.035524e+01
0	 4.962963e+00	 6.666667e-01	 1.036058e+01
0	 4.962963e+00	 7.407407e-01	 1.036663e+01
0	 5.037037e+00	 3.703704e-01	 1.033114e+01
0	 5.037037e+00	 4.444444e-01	 1.033465e+01
0	 5.037037e+00	 5.185185e-01	 1.033862e+01
0	 5.037037e+00	 5.925926e-01	 1.034311e+01
0	 5.037037e+00	 6.666667e-01	 1.034817e+01
0	 5.037037e+00	 7.407407e-01	 1.035387e+01
0	 5.111111e+00	 3.703704e-01	 1.031971e+01
0	 5.111111e+00	 4.444444e-01	 1.032315e+01
0	 5.111111e+00	 5.185185e-01	 1.032699e+01
0	 5.111111e+00	 5.925926e-01	 1.033129e+01
0	 5.111111e+00	 6.666667e-01	 1.033609e+01
0	 5.111111e+00	 7.407407e-01	 1.034144e+01
0	 5.185185e+00	 3.703704e-01	 1.030851e+01
0	 5.185185e+00	 4.444444e-01	 1.031184e+01
0	 5.185185e+00	 5.185185e-01	 1.031554e+01
0	 5.185185e+00	 5.925926e-01	 1.031965e+01
0	 5.185185e+00	 6.666667e-01	 1.032420e+01
0	 5.185185e+00	 7.407407e-01	 1.032925e+01
0	 4.814815e+00	 7.407407e-01	 1.039361e+01
0	 4.814815e+00	 8.148148e-01	 1.040077e+01
0	 4.814815e+00	 8.888889e-01	 1.040800e+01
0	 4.814815e+00	 9.629630e-01	 1.041537e+01
0	 4.814815e+00	 1.037037e+00	 1.042295e+01
0	 4.814815e+00	 1.111111e+00	 1.043083e+01
0	 4.888889e+00	 7.407407e-01	 1.037985e+01
0	 4.888889e+00	 8.148148e-01	 1.038665e+01
0	 4.888889e+00	 8.888889e-01	 1.039351e+01
0	 4.888889e+00	 9.629630e-01	 1.040048e+01
0	 4.888889e+00	 1.037037e+00	 1.040767e+01
0	 4.888889e+00	 1.111111e+00	 1.041515e+01
0	 4.962963e+00	 7.407407e-01	 1.036663e+01
0	 4.962963e+00	 8.148148e-01	 1.037306e+01
0	 4.962963e+00	 8.888889e-01	 1.037953e+01
0	 4.962963e+00	 9.629630e-01	 1.038614e+01
0	 4.962963e+00	 1.037037e+00	 1.039297e+01
0	 4.962963e+00	 1.111111e+00	 1.040011e+01
0	 5.037037e+00	 7.407407e-01	 1.035387e+01
0	 5.037037e+00	 8.148148e-01	 1.035990e+01
0	 5.037037e+00	 8.888889e-01	 1.036601e+01
0	 5.037037e+00	 9.629630e-01	 1.037229e+01
0	 5.037037e+00	 1.037037e+00	 1.037880e+01
0	 5.037037e+00	 1.111111e+00	 1.038563e+01
0	 5.111111e+00	 7.407407e-01	 1.034144e+01
0	 5.111111e+00	 8.148148e-01	 1.034711e+01
0	 5.111111e+00	 8.888889e-01	 1.035289e+01
0	 5.111111e+00	 9.629630e-01	 1.035886e+01
0	 5.111111e+00	 1.037037e+00	 1.036509e+01
0	 5.111111e+00	 1.111111e+00	 1.037165e+01
0	 5.185185e+00	 7.407407e-01	 1.032925e+01
0	 5.185185e+00	 8.148148e-01	 1.033460e+01
0	 5.185185e+00	 8.888889e-01	 1.034010e+01
0	 5.185185e+00	 9.629630e-01	 1.034580e+01
0	 5.185185e+00	 1.037037e+00	 1.035178e+01
0	 5.185185e+00	 1.111111e+00	 1.035809e+01
0	 4.814815e+00	 1.111111e+00	 1.043083e+01
0	 4.814815e+00	 1.185185e+00	 1.043871e+01
0	 4.814815e+00	 1.259259e+00	 1.044631e+01
0	 4.814815e+00	 1.333333e+00	 1.045373e+01
0	 4.814815e+00	 1.407407e+00	 1.046107e+01
0	 4.814815e+00	 1.481481e+00	 1.046842e+01
0	 4.888889e+00	 1.111111e+00	 1.041515e+01
0	 4.888889e+00	 1.185185e+00	 1.042266e+01
0	 4.888889e+00	 1.259259e+00	 1.042997e+01
0	 4.888889e+00	 1.333333e+00	 1.043714e+01
0	 4.888889e+00	 1.407407e+00	 1.044425e+01
0	 4.888889e+00	 1.481481e+00	 1.045139e+01
0	 4.962963e+00	 1.111111e+00	 1.040011e+01
0	 4.962963e+00	 1.185185e+00	 1.040731e+01
0	 4.962963e+00	 1.259259e+00	 1.041433e+01
0	 4.962963e+00	 1.333333e+00	 1.042125e+01
0	 4.962963e+00	 1.407407e+00	 1.042812e+01
0	 4.962963e+00	 1.481481e+00	 1.043503e+01
0	 5.037037e+00	 1.111111e+00	 1.038563e+01
0	 5.037037e+00	 1.185185e+00	 1.039255e+01
0	 5.037037e+00	 1.259259e+00	 1.039931e+01
0	 5.037037e+00	 1.333333e+00	 1.040598e+01
0	 5.037037e+00	 1.407407e+00	 1.041261e+01
0	 5.037037e+00	 1.481481e+00	 1.041926e+01
0	 5.111111e+00	 1.111111e+00	 1.037165e+01
0	 5.111111e+00	 1.185185e+00	 1.037831e+01
0	 5.111111e+00	 1.259259e+00	 1.038482e+01
0	 5.111111e+00	 1.333333e+00	 1.039124e+01
0	 5.111111e+00	 1.407407e+00	 1.039761e+01
0	 5.111111e+00	 1.481481e+00	 1.040401e+01
0	 5.185185e+00	 1.111111e+00	 1.035809e+01
0	 5.185185e+00	 1.185185e+00	 1.036450e+01
0	 5.185185e+00	 1.259259e+00	 1.037076e+01
0	 5.185185e+00	 1.333333e+00	 1.037693e+01
0	 5.185185e+00	 1.407407e+00	 1.038306e+01
0	 5.185185e+00	 1.481481e+00	 1.038920e+01
0	 4.814815e+00	 1.481481e+00	 1.046842e+01
0	 4.814815e+00	 1.555556e+00	 1.047548e+01
0	 4.814815e+00	 1.629630e+00	 1.048197e+01
0	 4.814815e+00	 1.703704e+00	 1.048794e+01
0	 4.814815e+00	 1.777778e+00	 1.049346e+01
0	 4.814815e+00	 1.851852e+00	 1.049859e+01
0	 4.888889e+00	 1.481481e+00	 1.045139e+01
0	 4.888889e+00	 1.555556e+00	 1.045827e+01
0	 4.888889e+00	 1.629630e+00	 1.046462e+01
0	 4.888889e+00	 1.703704e+00	 1.047048e+01
0	 4.888889e+00	 1.777778e+00	 1.047593e+01
0	 4.888889e+00	 1.851852e+00	 1.048102e+01
0	 4.962963e+00	 1.481481e+00	 1.043503e+01
0	 4.962963e+00	 1.555556e+00	 1.044170e+01
0	 4.962963e+00	 1.629630e+00	 1.044787e+01
0	 4.962963e+00	 1.703704e+00	 1.045361e+01
0	 4.962963e+00	 1.777778e+00	 1.045898e+01
0	 4.962963e+00	 1.851852e+00	 1.046404e+01
0	 5.037037e+00	 1.481481e+00	 1.041926e+01
0	 5.037037e+00	 1.555556e+00	 1.042570e+01
0	 5.037037e+00	 1.629630e+00	 1.043169e+01
0	 5.037037e+00	 1.703704e+00	 1.043729e+01
0	 5.037037e+00	 1.777778e+00	 1.044257e+01
0	 5.037037e+00	 1.851852e+00	 1.044759e+01
0	 5.111111e+00	 1.481481e+00	 1.040401e+01
0	 5.111111e+00	 1.555556e+00	 1.041021e+01
0	 5.111111e+00	 1.629630e+00	 1.041602e+01
0	 5.111111e+00	 1.703704e+00	 1.042149e+01
0	 5.111111e+00	 1.777778e+00	 1.042668e+01
0	 5.111111e+00	 1.851852e+00	 1.043164e+01
0	 5.185185e+00	 1.481481e+00	 1.038920e+01
0	 5.185185e+00	 1.555556e+00	 1.039519e+01
0	 5.185185e+00	 1.629630e+00	 1.040082e+01
0	 5.185185e+00	 1.703704e+00	 1.040615e+01
0	 5.185185e+00	 1.777778e+00	 1.041124e+01
0	 5.185185e+00	 1.851852e+00	 1.041614e+01
0	 4.814815e+00	 1.851852e+00	 1.049859e+01
0	 4.814815e+00	 1.925926e+00	 1.050319e+01
0	 4.814815e+00	 2.000000e+00	 1.050711e+01
0	 4.814815e+00	 2.074074e+00	 1.051039e+01
0	 4.814815e+00	 2.148148e+00	 1.051307e+01
0	 4.814815e+00	 2.222222e+00	 1.051519e+01
0	 4.888889e+00	 1.851852e+00	 1.048102e+01
0	 4.888889e+00	 1.925926e+00	 1.048564e+01
0	 4.888889e+00	 2.000000e+00	 1.048962e+01
0	 4.888889e+00	 2.074074e+00	 1.049301e+01
0	 4.888889e+00	 2.148148e+00	 1.049584e+01
0	 4.888889e+00	 2.222222e+00	 1.049814e+01
0	 4.962963e+00	 1.851852e+00	 1.046404e+01
0	 4.962963e+00	 1.925926e+00	 1.046866e+01
0	 4.962963e+00	 2.000000e+00	 1.047269e+01
0	 4.962963e+00	 2.074074e+00	 1.047616e+01
0	 4.962963e+00	 2.148148e+00	 1.047911e+01
0	 4.962963e+00	 2.222222e+00	 1.048158e+01
0	 5.037037e+00	 1.851852e+00	 1.044759e+01
0	 5.037037e+00	 1.925926e+00	 1.045221e+01
0	 5.037037e+00	 2.000000e+00	 1.045627e+01
0	 5.037037e+00	 2.074074e+00	 1.045981e+01
0	 5.037037e+00	 2.148148e+00	 1.046286e+01
0	 5.037037e+00	 2.222222e+00	 1.046545e+01
0	 5.111111e+00	 1.851852e+00	 1.043164e+01
0	 5.111111e+00	 1.925926e+00	 1.043624e+01
0	 5.111111e+00	 2.000000e+00	 1.044031e+01
0	 5.111111e+00	 2.074074e+00	 1.044390e+01
0	 5.111111e+00	 2.148148e+00	 1.044702e+01
0	 5.111111e+00	 2.222222e+00	 1.044973e+01
0	 5.185185e+00	 1.851852e+00	 1.041614e+01
0	 5.185185e+00	 1.925926e+00	 1.042071e+01
0	 5.185185e+00	 2.000000e+00	 1.042478e+01
0	 5.185185e+00	 2.074074e+00	 1.042839e+01
0	 5.185185e+00	 2.148148e+00	 1.043157e+01
0	 5.185185e+00	 2.222222e+00	 1.043436e+01
0	 4.814815e+00	 2.222222e+00	 1.051519e+01
0	 4.814815e+00	 2.296296e+00	 1.051670e+01
0	 4.814815e+00	 2.370370e+00	 1.051753e+01
0	 4.814815e+00	 2.444444e+00	 1.051770e+01
0	 4.814815e+00	 2.518519e+00	 1.051723e+01
0	 4.814815e+00	 2.592593e+00	 1.051612e+01
0	 4.888889e+00	 2.222222e+00	 1.049814e+01
0	 4.888889e+00	 2.296296e+00	 1.049987e+01
0	 4.888889e+00	 2.370370e+00	 1.050096e+01
0	 4.888889e+00	 2.444444e+00	 1.050143e+01
0	 4.888889e+00	 2.518519e+00	 1.050128e+01
0	 4.888889e+00	 2.592593e+00	 1.050054e+01
0	 4.962963e+00	 2.222222e+00	 1.048158e+01
0	 4.962963e+00	 2.296296e+00	 1.048350e+01
0	 4.962963e+00	 2.370370e+00	 1.048481e+01
0	 4.962963e+00	 2.444444e+00	 1.048553e+01
0	 4.962963e+00	 2.518519e+00	 1.048567e+01
0	 4.962963e+00	 2.592593e+00	 1.048526e+01
0	 5.037037e+00	 2.222222e+00	 1.046545e+01
0	 5.037037e+00	 2.296296e+00	 1.046754e+01
0	 5.037037e+00	 2.370370e+00	 1.046904e+01
0	 5.037037e+00	 2.444444e+00	 1.046999e+01
0	 5.037037e+00	 2.518519e+00	 1.047038e+01
0	 5.037037e+00	 2.592593e+00	 1.047025e+01
0	 5.111111e+00	 2.222222e+00	 1.044973e+01
0	 5.111111e+00	 2.296296e+00	 1.045195e+01
0	 5.111111e+00	 2.370370e+00	 1.045363e+01
0	 5.111111e+00	 2.444444e+00	 1.045477e+01
0	 5.111111e+00	 2.518519e+00	 1.045539e+01
0	 5.111111e+00	 2.592593e+00	 1.045552e+01
0	 5.185185e+00	 2.222222e+00	 1.043436e+01
0	 5.185185e+00	 2.296296e+00	 1.043671e+01
0	 5.185185e+00	 2.370370e+00	 1.043853e+01
0	 5.185185e+00	 2.444444e+00	 1.043985e+01
0	 5.185185e+00	 2.518519e+00	 1.044068e+01
0	 5.185185e+00	 2.592593e+00	 1.044103e+01
0	 4.814815e+00	 2.592593e+00	 1.051612e+01
0	 4.814815e+00	 2.666667e+00	 1.051441e+01
0	 4.814815e+00	 2.740741e+00	 1.051213e+01
0	 4.814815e+00	 2.814815e+00	 1.050927e+01
0	 4.814815e+00	 2.888889e+00	 1.050582e+01
0	 4.814815e+00	 2.962963e+00	 1.050177e+01
0	 4.888889e+00	 2.592593e+00	 1.050054e+01
0	 4.888889e+00	 2.666667e+00	 1.049923e+01
0	 4.888889e+00	 2.740741e+00	 1.049736e+01
0	 4.888889e+00	 2.814815e+00	 1.049493e+01
0	 4.888889e+00	 2.888889e+00	 1.049192e+01
0	 4.888889e+00	 2.962963e+00	 1.048835e+01
0	 4.962963e+00	 2.592593e+00	 1.048526e+01
0	 4.962963e+00	 2.666667e+00	 1.048430e+01
0	 4.962963e+00	 2.740741e+00	 1.048280e+01
0	 4.962963e+00	 2.814815e+00	 1.048075e+01
0	 4.962963e+00	 2.888889e+00	 1.047816e+01
0	 4.962963e+00	 2.962963e+00	 1.047502e+01
0	 5.037037e+00	 2.592593e+00	 1.047025e+01
0	 5.037037e+00	 2.666667e+00	 1.046961e+01
0	 5.037037e+00	 2.740741e+00	 1.046844e+01
0	 5.037037e+00	 2.814815e+00	 1.046675e+01
0	 5.037037e+00	 2.888889e+00	 1.046454e+01
0	 5.037037e+00	 2.962963e+00	 1.046181e+01
0	 5.111111e+00	 2.592593e+00	 1.045552e+01
0	 5.111111e+00	 2.666667e+00	 1.045515e+01
0	 5.111111e+00	 2.740741e+00	 1.045429e+01
0	 5.111111e+00	 2.814815e+00	 1.045292e+01
0	 5.111111e+00	 2.888889e+00	 1.045106e+01
0	 5.111111e+00	 2.962963e+00	 1.044871e+01
0	 5.185185e+00	 2.592593e+00	 1.044103e+01
0	 5.185185e+00	 2.666667e+00	 1.044092e+01
0	 5.185185e+00	 2.740741e+00	 1.044034e+01
0	 5.185185e+00	 2.814815e+00	 1.043927e+01
0	 5.185185e+00	 2.888889e+00	 1.043774e+01
0	 5.185185e+00	 2.962963e+00	 1.043573e+01
0	 4.814815e+00	 2.962963e+00	 1.050177e+01
0	 4.814815e+00	 3.037037e+00	 1.049721e+01
0	 4.814815e+00	 3.111111e+00	 1.049225e+01
0	 4.814815e+00	 3.185185e+00	 1.048684e+01
0	 4.814815e+00	 3.259259e+00	 1.048099e+01
0	 4.814815e+00	 3.333333e+00	 1.047467e+01
0	 4.888889e+00	 2.962963e+00	 1.048835e+01
0	 4.888889e+00	 3.037037e+00	 1.048428e+01
0	 4.888889e+00	 3.111111e+00	 1.047980e+01
0	 4.888889e+00	 3.185185e+00	 1.047490e+01
0	 4.888889e+00	 3.259259e+00	 1.046956e+01
0	 4.888889e+00	 3.333333e+00	 1.046377e+01
0	 4.962963e+00	 2.962963e+00	 1.047502e+01
0	 4.962963e+00	 3.037037e+00	 1.047141e+01
0	 4.962963e+00	 3.111111e+00	 1.046740e+01
0	 4.962963e+00	 3.185185e+00	 1.046296e+01
0	 4.962963e+00	 3.259259e+00	 1.045810e+01
0	 4.962963e+00	 3.333333e+00	 1.045278e+01
0	 5.037037e+00	 2.962963e+00	 1.046181e+01
0	 5.037037e+00	 3.037037e+00	 1.045862e+01
0	 5.037037e+00	 3.111111e+00	 1.045503e+01
0	 5.037037e+00	 3.185185e+00	 1.045103e+01
0	 5.037037e+00	 3.259259e+00	 1.044660e+01
0	 5.037037e+00	 3.333333e+00	 1.044174e+01
0	 5.111111e+00	 2.962963e+00	 1.044871e+01
0	 5.111111e+00	 3.037037e+00	 1.044591e+01
0	 5.111111e+00	 3.111111e+00	 1.044272e+01
0	 5.111111e+00	 3.185185e+00	 1.043912e+01
0	 5.111111e+00	 3.259259e+00	 1.043510e+01
0	 5.111111e+00	 3.333333e+00	 1.043066e+01
0	 5.185185e+00	 2.962963e+00	 1.043573e+01
0	 5.185185e+00	 3.037037e+00	 1.043329e+01
0	 5.185185e+00	 3.111111e+00	 1.043047e+01
0	 5.185185e+00	 3.185185e+00	 1.042725e+01
0	 5.185185e+00	 3.259259e+00	 1.042362e+01
0	 5.185185e+00	 3.333333e+00	 1.041957e+01
0	 4.814815e+00	 3.333333e+00	 1.047467e+01
0	 4.814815e+00	 3.407407e+00	 1.046799e+01
0	 4.814815e+00	 3.481481e+00	 1.046104e+01
0	 4.814815e+00	 3.555556e+00	 1.045380e+01
0	 4.814815e+00	 3.629630e+00	 1.044626e+01
0	 4.814815e+00	 3.703704e+00	 1.043837e+01
0	 4.888889e+00	 3.333333e+00	 1.046377e+01
0	 4.888889e+00	 3.407407e+00	 1.045761e+01
0	 4.888889e+00	 3.481481e+00	 1.045117e+01
0	 4.888889e+00	 3.555556e+00	 1.044444e+01
0	 4.888889e+00	 3.629630e+00	 1.043740e+01
0	 4.888889e+00	 3.703704e+00	 1.043001e+01
0	 4.962963e+00	 3.333333e+00	 1.045278e+01
0	 4.962963e+00	 3.407407e+00	 1.044711e+01
0	 4.962963e+00	 3.481481e+00	 1.044115e+01
0	 4.962963e+00	 3.555556e+00	 1.043490e+01
0	 4.962963e+00	 3.629630e+00	 1.042833e+01
0	 4.962963e+00	 3.703704e+00	 1.042143e+01
0	 5.037037e+00	 3.333333e+00	 1.044174e+01
0	 5.037037e+00	 3.407407e+00	 1.043652e+01
0	 5.037037e+00	 3.481481e+00	 1.043101e+01
0	 5.037037e+00	 3.555556e+00	 1.042521e+01
0	 5.037037e+00	 3.629630e+00	 1.041910e+01
0	 5.037037e+00	 3.703704e+00	 1.041266e+01
0	 5.111111e+00	 3.333333e+00	 1.043066e+01
0	 5.111111e+00	 3.407407e+00	 1.042586e+01
0	 5.111111e+00	 3.481481e+00	 1.042079e+01
0	 5.111111e+00	 3.555556e+00	 1.041541e+01
0	 5.111111e+00	 3.629630e+00	 1.040973e+01
0	 5.111111e+00	 3.703704e+00	 1.040373e+01
0	 5.185185e+00	 3.333333e+00	 1.041957e+01
0	 5.185185e+00	 3.407407e+00	 1.041517e+01
0	 5.185185e+00	 3.481481e+00	 1.041050e+01
0	 5.185185e+00	 3.555556e+00	 1.040554e+01
0	 5.185185e+00	 3.629630e+00	 1.040027e+01
0	 5.185185e+00	 3.703704e+00	 1.039468e+01
0	 4.814815e+00	 3.703704e+00	 1.043837e+01
0	 4.814815e+00	 3.777778e+00	 1.043026e+01
0	 4.814815e+00	 3.851852e+00	 1.042203e+01
0	 4.814815e+00	 3.925926e+00	 1.041366e+01
0	 4.814815e+00	 4.000000e+00	 1.040513e+01
0	 4.814815e+00	 4.074074e+00	 1.039641e+01
0	 4.888889e+00	 3.703704e+00	 1.043001e+01
0	 4.888889e+00	 3.777778e+00	 1.042240e+01
0	 4.888889e+00	 3.851852e+00	 1.041465e+01
0	 4.888889e+00	 3.925926e+00	 1.040675e+01
0	 4.888889e+00	 4.000000e+00	 1.039869e+01
0	 4.888889e+00	 4.074074e+00	 1.039042e+01
0	 4.962963e+00	 3.703704e+00	 1.042143e+01
0	 4.962963e+00	 3.777778e+00	 1.041429e+01
0	 4.962963e+00	 3.851852e+00	 1.040701e+01
0	 4.962963e+00	 3.925926e+00	 1.039957e+01
0	 4.962963e+00	 4.000000e+00	 1.039194e+01
0	 4.962963e+00	 4.074074e+00	 1.038411e+01
0	 5.037037e+00	 3.703704e+00	 1.041266e+01
0	 5.037037e+00	 3.777778e+00	 1.040597e+01
0	 5.037037e+00	 3.851852e+00	 1.039914e+01
0	 5.037037e+00	 3.925926e+00	 1.039213e+01
0	 5.037037e+00	 4.000000e+00	 1.038493e+01
0	 5.037037e+00	 4.074074e+00	 1.037752e+01
0	 5.111111e+00	 3.703704e+00	 1.040373e+01
0	 5.111111e+00	 3.777778e+00	 1.039748e+01
0	 5.111111e+00	 3.851852e+00	 1.039107e+01
0	 5.111111e+00	 3.925926e+00	 1.038448e+01
0	 5.111111e+00	 4.000000e+00	 1.037769e+01
0	 5.111111e+00	 4.074074e+00	 1.037068e+01
0	 5.185185e+00	 3.703704e+00	 1.039468e+01
0	 5.185185e+00	 3.777778e+00	 1.038885e+01
0	 5.185185e+00	 3.851852e+00	 1.038285e+01
0	 5.185185e+00	 3.925926e+00	 1.037665e+01
0	 5.185185e+00	 4.000000e+00	 1.037025e+01
0	 5.185185e+00	 4.074074e+00	 1.036363e+01
0	 4.814815e+00	 4.074074e+00	 1.039641e+01
0	 4.814815e+00	 4.148148e+00	 1.038759e+01
0	 4.814815e+00	 4.222222e+00	 1.037876e+01
0	 4.814815e+00	 4.296296e+00	 1.036990e+01
0	 4.814815e+00	 4.370370e+00	 1.036099e+01
0	 4.814815e+00	 4.444444e+00	 1.035200e+01
0	 4.888889e+00	 4.074074e+00	 1.039042e+01
0	 4.888889e+00	 4.148148e+00	 1.038205e+01
0	 4.888889e+00	 4.222222e+00	 1.037364e+01
0	 4.888889e+00	 4.296296e+00	 1.036519e+01
0	 4.888889e+00	 4.370370e+00	 1.035666e+01
0	 4.888889e+00	 4.444444e+00	 1.034805e+01
0	 4.962963e+00	 4.074074e+00	 1.038411e+01
0	 4.962963e+00	 4.148148e+00	 1.037616e+01
0	 4.962963e+00	 4.222222e+00	 1.036816e+01
0	 4.962963e+00	 4.296296e+00	 1.036010e+01
0	 4.962963e+00	 4.370370e+00	 1.035196e+01
0	 4.962963e+00	 4.444444e+00	 1.034372e+01
0	 5.037037e+00	 4.074074e+00	 1.037752e+01
0	 5.037037e+00	 4.148148e+00	 1.036997e+01
0	 5.037037e+00	 4.222222e+00	 1.036237e+01
0	 5.037037e+00	 4.296296e+00	 1.035469e+01
0	 5.037037e+00	 4.370370e+00	 1.034692e+01
0	 5.037037e+00	 4.444444e+00	 1.033905e+01
0	 5.111111e+00	 4.074074e+00	 1.037068e+01
0	 5.111111e+00	 4.148148e+00	 1.036352e+01
0	 5.111111e+00	 4.222222e+00	 1.035630e+01
0	 5.111111e+00	 4.296296e+00	 1.034900e+01
0	 5.111111e+00	 4.370370e+00	 1.034160e+01
0	 5.111111e+00	 4.444444e+00	 1.033408e+01
0	 5.185185e+00	 4.074074e+00	 1.036363e+01
0	 5.185185e+00	 4.148148e+00	 1.035685e+01
0	 5.185185e+00	 4.222222e+00	 1.035000e+01
0	 5.185185e+00	 4.296296e+00	 1.034306e+01
0	 5.185185e+00	 4.370370e+00	 1.033602e+01
0	 5.185185e+00	 4.444444e+00	 1.032884e+01
0	 4.814815e+00	 4.444444e+00	 1.035200e+01
0	 4.814815e+00	 4.518519e+00	 1.034301e+01
0	 4.814815e+00	 4.592593e+00	 1.033408e+01
0	 4.814815e+00	 4.666667e+00	 1.032522e+01
0	 4.814815e+00	 4.740741e+00	 1.031639e+01
0	 4.814815e+00	 4.814815e+00	 1.030758e+01
0	 4.888889e+00	 4.444444e+00	 1.034805e+01
0	 4.888889e+00	 4.518519e+00	 1.033942e+01
0	 4.888889e+00	 4.592593e+00	 1.033085e+01
0	 4.888889e+00	 4.666667e+00	 1.032231e+01
0	 4.888889e+00	 4.740741e+00	 1.031380e+01
0	 4.888889e+00	 4.814815e+00	 1.030529e+01
0	 4.962963e+00	 4.444444e+00	 1.034372e+01
0	 4.962963e+00	 4.518519e+00	 1.033545e+01
0	 4.962963e+00	 4.592593e+00	 1.032722e+01
0	 4.962963e+00	 4.666667e+00	 1.031901e+01
0	 4.962963e+00	 4.740741e+00	 1.031081e+01
0	 4.962963e+00	 4.814815e+00	 1.030260e+01
0	 5.037037e+00	 4.444444e+00	 1.033905e+01
0	 5.037037e+00	 4.518519e+00	 1.033113e+01
0	 5.037037e+00	 4.592593e+00	 1.032324e+01
0	 5.037037e+00	 4.666667e+00	 1.031535e+01
0	 5.037037e+00	 4.740741e+00	 1.030746e+01
0	 5.037037e+00	 4.814815e+00	 1.029955e+01
0	 5.111111e+00	 4.444444e+00	 1.033408e+01
0	 5.111111e+00	 4.518519e+00	 1.032651e+01
0	 5.111111e+00	 4.592593e+00	 1.031894e+01
0	 5.111111e+00	 4.666667e+00	 1.031137e+01
0	 5.111111e+00	 4.740741e+00	 1.030379e+01
0	 5.111111e+00	 4.814815e+00	 1.029616e+01
0	 5.185185e+00	 4.444444e+00	 1.032884e+01
0	 5.185185e+00	 4.518519e+00	 1.032161e+01
0	 5.185185e+00	 4.592593e+00	 1.031437e+01
0	 5.185185e+00	 4.666667e+00	 1.030711e+01
0	 5.185185e+00	 4.740741e+00	 1.029982e+01
0	 5.185185e+00	 4.814815e+00	 1.029249e+01
0	 4.814815e+00	 4.814815e+00	 1.030758e+01
0	 4.814815e+00	 4.888889e+00	 1.029884e+01
0	 4.814815e+00	 4.962963e+00	 1.029023e+01
0	 4.814815e+00	 5.037037e+00	 1.028171e+01
0	 4.814815e+00	 5.111111e+00	 1.027329e+01
0	 4.814815e+00	 5.185185e+00	 1.026495e+01
0	 4.888889e+00	 4.814815e+00	 1.030529e+01
0	 4.888889e+00	 4.888889e+00	 1.029684e+01
0	 4.888889e+00	 4.962963e+00	 1.028849e+01
0	 4.888889e+00	 5.037037e+00	 1.028023e+01
0	 4.888889e+00	 5.111111e+00	 1.027205e+01
0	 4.888889e+00	 5.185185e+00	 1.026393e+01
0	 4.962963e+00	 4.814815e+00	 1.030260e+01
0	 4.962963e+00	 4.888889e+00	 1.029443e+01
0	 4.962963e+00	 4.962963e+00	 1.028635e+01
0	 4.962963e+00	 5.037037e+00	 1.027834e+01
0	 4.962963e+00	 5.111111e+00	 1.027040e+01
0	 4.962963e+00	 5.185185e+00	 1.026251e+01
0	 5.037037e+00	 4.814815e+00	 1.029955e+01
0	 5.037037e+00	 4.888889e+00	 1.029166e+01
0	 5.037037e+00	 4.962963e+00	 1.028384e+01
0	 5.037037e+00	 5.037037e+00	 1.027609e+01
0	 5.037037e+00	 5.111111e+00	 1.026839e+01
0	 5.037037e+00	 5.185185e+00	 1.026073e+01
0	 5.111111e+00	 4.814815e+00	 1.029616e+01
0	 5.111111e+00	 4.888889e+00	 1.028855e+01
0	 5.111111e+00	 4.962963e+00	 1.028100e+01
0	 5.111111e+00	 5.037037e+00	 1.027350e+01
0	 5.111111e+00	 5.111111e+00	 1.026604e+01
0	 5.111111e+00	 5.185185e+00	 1.025861e+01
0	 5.185185e+00	 4.814815e+00	 1.029249e+01
0	 5.185185e+00	 4.888889e+00	 1.028515e+01
0	 5.185185e+00	 4.962963e+00	 1.027787e+01
0	 5.185185e+00	 5.037037e+00	 1.027062e+01
0	 5.185185e+00	 5.111111e+00	 1.026340e+01
0	 5.185185e+00	 5.185185e+00	 1.025620e+01
0	 4.814815e+00	 5.185185e+00	 1.026495e+01
0	 4.814815e+00	 5.259259e+00	 1.025672e+01
0	 4.814815e+00	 5.333333e+00	 1.024864e+01
0	 4.814815e+00	 5.407407e+00	 1.024070e+01
0	 4.814815e+00	 5.481481e+00	 1.023289e+01
0	 4.814815e+00	 5.555556e+00	 1.022520e+01
0	 4.888889e+00	 5.185185e+00	 1.026393e+01
0	 4.888889e+00	 5.259259e+00	 1.025591e+01
0	 4.888889e+00	 5.333333e+00	 1.024802e+01
0	 4.888889e+00	 5.407407e+00	 1.024026e+01
0	 4.888889e+00	 5.481481e+00	 1.023262e+01
0	 4.888889e+00	 5.555556e+00	 1.022509e+01
0	 4.962963e+00	 5.185185e+00	 1.026251e+01
0	 4.962963e+00	 5.259259e+00	 1.025470e+01
0	 4.962963e+00	 5.333333e+00	 1.024702e+01
0	 4.962963e+00	 5.407407e+00	 1.023945e+01
0	 4.962963e+00	 5.481481e+00	 1.023198e+01
0	 4.962963e+00	 5.555556e+00	 1.022461e+01
0	 5.037037e+00	 5.185185e+00	 1.026073e+01
0	 5.037037e+00	 5.259259e+00	 1.025314e+01
0	 5.037037e+00	 5.333333e+00	 1.024566e+01
0	 5.037037e+00	 5.407407e+00	 1.023828e+01
0	 5.037037e+00	 5.481481e+00	 1.023099e+01
0	 5.037037e+00	 5.555556e+00	 1.022378e+01
0	 5.111111e+00	 5.185185e+00	 1.025861e+01
0	 5.111111e+00	 5.259259e+00	 1.025124e+01
0	 5.111111e+00	 5.333333e+00	 1.024397e+01
0	 5.111111e+00	 5.407407e+00	 1.023679e+01
0	 5.111111e+00	 5.481481e+00	 1.022968e+01
0	 5.111111e+00	 5.555556e+00	 1.022264e+01
0	 5.185185e+00	 5.185185e+00	 1.025620e+01
0	 5.185185e+00	 5.259259e+00	 1.024905e+01
0	 5.185185e+00	 5.333333e+00	 1.024199e+01
0	 5.185185e+00	 5.407407e+00	 1.023500e+01
0	 5.185185e+00	 5.481481e+00	 1.022807e+01
0	 5.185185e+00	 5.555556e+00	 1.022121e+01
0	 4.814815e+00	 5.555556e+00	 1.022520e+01
0	 4.814815e+00	 5.629630e+00	 1.021764e+01
0	 4.814815e+00	 5.703704e+00	 1.021025e+01
0	 4.814815e+00	 5.777778e+00	 1.020300e+01
0	 4.814815e+00	 5.851852e+00	 1.019589e+01
0	 4.814815e+00	 5.925926e+00	 1.018893e+01
0	 4.888889e+00	 5.555556e+00	 1.022509e+01
0	 4.888889e+00	 5.629630e+00	 1.021768e+01
0	 4.888889e+00	 5.703704e+00	 1.021041e+01
0	 4.888889e+00	 5.777778e+00	 1.020328e+01
0	 4.888889e+00	 5.851852e+00	 1.019629e+01
0	 4.888889e+00	 5.925926e+00	 1.018942e+01
0	 4.962963e+00	 5.555556e+00	 1.022461e+01
0	 4.962963e+00	 5.629630e+00	 1.021734e+01
0	 4.962963e+00	 5.703704e+00	 1.021022e+01
0	 4.962963e+00	 5.777778e+00	 1.020322e+01
0	 4.962963e+00	 5.851852e+00	 1.019634e+01
0	 4.962963e+00	 5.925926e+00	 1.018958e+01
0	 5.037037e+00	 5.555556e+00	 1.022378e+01
0	 5.037037e+00	 5.629630e+00	 1.021667e+01
0	 5.037037e+00	 5.703704e+00	 1.020969e+01
0	 5.037037e+00	 5.777778e+00	 1.020283e+01
0	 5.037037e+00	 5.851852e+00	 1.019608e+01
0	 5.037037e+00	 5.925926e+00	 1.018943e+01
0	 5.111111e+00	 5.555556e+00	 1.022264e+01
0	 5.111111e+00	 5.629630e+00	 1.021569e+01
0	 5.111111e+00	 5.703704e+00	 1.020886e+01
0	 5.111111e+00	 5.777778e+00	 1.020214e+01
0	 5.111111e+00	 5.851852e+00	 1.019551e+01
0	 5.111111e+00	 5.925926e+00	 1.018899e+01
0	 5.185185e+00	 5.555556e+00	 1.022121e+01
0	 5.185185e+00	 5.629630e+00	 1.021442e+01
0	 5.185185e+00	 5.703704e+00	 1.020775e+01
0	 5.185185e+00	 5.777778e+00	 1.020117e+01
0	 5.185185e+00	 5.851852e+00	 1.019468e+01
0	 5.185185e+00	 5.925926e+00	 1.018827e+01
0	 4.814815e+00	 5.925926e+00	 1.018893e+01
0	 4.814815e+00	 6.000000e+00	 1.018211e+01
0	 4.814815e+00	 6.074074e+00	 1.017544e+01
0	 4.814815e+00	 6.148148e+00	 1.016893e+01
0	 4.814815e+00	 6.222222e+00	 1.016257e+01
0	 4.814815e+00	 6.296296e+00	 1.015635e+01
0	 4.888889e+00	 5.925926e+00	 1.018942e+01
0	 4.888889e+00	 6.000000e+00	 1.018269e+01
0	 4.888889e+00	 6.074074e+00	 1.017611e+01
0	 4.888889e+00	 6.148148e+00	 1.016966e+01
0	 4.888889e+00	 6.222222e+00	 1.016336e+01
0	 4.888889e+00	 6.296296e+00	 1.015720e+01
0	 4.962963e+00	 5.925926e+00	 1.018958e+01
0	 4.962963e+00	 6.000000e+00	 1.018295e+01
0	 4.962963e+00	 6.074074e+00	 1.017645e+01
0	 4.962963e+00	 6.148148e+00	 1.017009e+01
0	 4.962963e+00	 6.222222e+00	 1.016386e+01
0	 4.962963e+00	 6.296296e+00	 1.015775e+01
0	 5.037037e+00	 5.925926e+00	 1.018943e+01
0	 5.037037e+00	 6.000000e+00	 1.018290e+01
0	 5.037037e+00	 6.074074e+00	 1.017650e+01
0	 5.037037e+00	 6.148148e+00	 1.017023e+01
0	 5.037037e+00	 6.222222e+00	 1.016407e+01
0	 5.037037e+00	 6.296296e+00	 1.015804e+01
0	 5.111111e+00	 5.925926e+00	 1.018899e+01
0	 5.111111e+00	 6.000000e+00	 1.018257e+01
0	 5.111111e+00	 6.074074e+00	 1.017627e+01
0	 5.111111e+00	 6.148148e+00	 1.017009e+01
0	 5.111111e+00	 6.222222e+00	 1.016402e+01
0	 5.111111e+00	 6.296296e+00	 1.015806e+01
0	 5.185185e+00	 5.925926e+00	 1.018827e+01
0	 5.185185e+00	 6.000000e+00	 1.018197e+01
0	 5.185185e+00	 6.074074e+00	 1.017578e+01
0	 5.185185e+00	 6.148148e+00	 1.016970e+01
0	 5.185185e+00	 6.222222e+00	 1.016373e+01
0	 5.185185e+00	 6.296296e+00	 1.015785e+01
0	 4.814815e+00	 6.296296e+00	 1.015635e+01
0	 4.814815e+00	 6.370370e+00	 1.015027e+01
0	 4.814815e+00	 6.444444e+00	 1.014434e+01
0	 4.814815e+00	 6.518519e+00	 1.013856e+01
0	 4.814815e+00	 6.592593e+00	 1.013292e+01
0	 4.814815e+00	 6.666667e+00	 1.012741e+01
0	 4.888889e+00	 6.296296e+00	 1.015720e+01
0	 4.888889e+00	 6.370370e+00	 1.015117e+01
0	 4.888889e+00	 6.444444e+00	 1.014528e+01
0	 4.888889e+00	 6.518519e+00	 1.013952e+01
0	 4.888889e+00	 6.592593e+00	 1.013391e+01
0	 4.888889e+00	 6.666667e+00	 1.012842e+01
0	 4.962963e+00	 6.296296e+00	 1.015775e+01
0	 4.962963e+00	 6.370370e+00	 1.015178e+01
0	 4.962963e+00	 6.444444e+00	 1.014594e+01
0	 4.962963e+00	 6.518519e+00	 1.014022e+01
0	 4.962963e+00	 6.592593e+00	 1.013464e+01
0	 4.962963e+00	 6.666667e+00	 1.012918e+01
0	 5.037037e+00	 6.296296e+00	 1.015804e+01
0	 5.037037e+00	 6.370370e+00	 1.015212e+01
0	 5.037037e+00	 6.444444e+00	 1.014634e+01
0	 5.037037e+00	 6.518519e+00	 1.014067e+01
0	 5.037037e+00	 6.592593e+00	 1.013513e+01
0	 5.037037e+00	 6.666667e+00	 1.012971e+01
0	 5.111111e+00	 6.296296e+00	 1.015806e+01
0	 5.111111e+00	 6.370370e+00	 1.015222e+01
0	 5.111111e+00	 6.444444e+00	 1.014649e+01
0	 5.111111e+00	 6.518519e+00	 1.014089e+01
0	 5.111111e+00	 6.592593e+00	 1.013540e+01
0	 5.111111e+00	 6.666667e+00	 1.013002e+01
0	 5.185185e+00	 6.296296e+00	 1.015785e+01
0	 5.185185e+00	 6.370370e+00	 1.015208e+01
0	 5.185185e+00	 6.444444e+00	 1.014642e+01
0	 5.185185e+00	 6.518519e+00	 1.014088e+01
0	 5.185185e+00	 6.592593e+00	 1.013545e+01
0	 5.185185e+00	 6.666667e+00	 1.013012e+01
0	 4.814815e+00	 6.666667e+00	 1.012741e+01
0	 4.814815e+00	 6.740741e+00	 1.012205e+01
0	 4.814815e+00	 6.814815e+00	 1.011681e+01
0	 4.814815e+00	 6.888889e+00	 1.011172e+01
0	 4.814815e+00	 6.962963e+00	 1.010675e+01
0	 4.814815e+00	 7.037037e+00	 1.010192e+01
0	 4.888889e+00	 6.666667e+00	 1.012842e+01
0	 4.888889e+00	 6.740741e+00	 1.012307e+01
0	 4.888889e+00	 6.814815e+00	 1.011785e+01
0	 4.888889e+00	 6.888889e+00	 1.011275e+01
0	 4.888889e+00	 6.962963e+00	 1.010779e+01
0	 4.888889e+00	 7.037037e+00	 1.010295e+01
0	 4.962963e+00	 6.666667e+00	 1.012918e+01
0	 4.962963e+00	 6.740741e+00	 1.012385e+01
0	 4.962963e+00	 6.814815e+00	 1.011865e+01
0	 4.962963e+00	 6.888889e+00	 1.011357e+01
0	 4.962963e+00	 6.962963e+00	 1.010861e+01
0	 4.962963e+00	 7.037037e+00	 1.010377e+01
0	 5.037037e+00	 6.666667e+00	 1.012971e+01
0	 5.037037e+00	 6.740741e+00	 1.012441e+01
0	 5.037037e+00	 6.814815e+00	 1.011923e+01
0	 5.037037e+00	 6.888889e+00	 1.011417e+01
0	 5.037037e+00	 6.962963e+00	 1.010923e+01
0	 5.037037e+00	 7.037037e+00	 1.010440e+01
0	 5.111111e+00	 6.666667e+00	 1.013002e+01
0	 5.111111e+00	 6.740741e+00	 1.012476e+01
0	 5.111111e+00	 6.814815e+00	 1.011961e+01
0	 5.111111e+00	 6.888889e+00	 1.011458e+01
0	 5.111111e+00	 6.962963e+00	 1.010965e+01
0	 5.111111e+00	 7.037037e+00	 1.010484e+01
0	 5.185185e+00	 6.666667e+00	 1.013012e+01
0	 5.185185e+00	 6.740741e+00	 1.012490e+01
0	 5.185185e+00	 6.814815e+00	 1.011979e+01
0	 5.185185e+00	 6.888889e+00	 1.011479e+01
0	 5.185185e+00	 6.962963e+00	 1.010990e+01
0	 5.185185e+00	 7.037037e+00	 1.010511e+01
0	 4.814815e+00	 7.037037e+00	 1.010192e+01
0	 4.814815e+00	 7.111111e+00	 1.009721e+01
0	 4.814815e+00	 7.185185e+00	 1.009263e+01
0	 4.814815e+00	 7.259259e+00	 1.008816e+01
0	 4.814815e+00	 7.333333e+00	 1.008382e+01
0	 4.814815e+00	 7.407407e+00	 1.007960e+01
0	 4.888889e+00	 7.037037e+00	 1.010295e+01
0	 4.888889e+00	 7.111111e+00	 1.009823e+01
0	 4.888889e+00	 7.185185e+00	 1.009363e+01
0	 4.888889e+00	 7.259259e+00	 1.008915e+01
0	 4.888889e+00	 7.333333e+00	 1.008479e+01
0	 4.888889e+00	 7.407407e+00	 1.008054e+01
0	 4.962963e+00	 7.037037e+00	 1.010377e+01
0	 4.962963e+00	 7.111111e+00	 1.009905e+01
0	 4.962963e+00	 7.185185e+00	 1.009445e+01
0	 4.962963e+00	 7.259259e+00	 1.008996e+01
0	 4.962963e+00	 7.333333e+00	 1.008558e+01
0	 4.962963e+00	 7.407407e+00	 1.008132e+01
0	 5.037037e+00	 7.037037e+00	 1.010440e+01
0	 5.037037e+00	 7.111111e+00	 1.009968e+01
0	 5.037037e+00	 7.185185e+00	 1.009508e+01
0	 5.037037e+00	 7.259259e+00	 1.009059e+01
0	 5.037037e+00	 7.333333e+00	 1.008622e+01
0	 5.037037e+00	 7.407407e+00	 1.008194e+01
0	 5.111111e+00	 7.037037e+00	 1.010484e+01
0	 5.111111e+00	 7.111111e+00	 1.010014e+01
0	 5.111111e+00	 7.185185e+00	 1.009555e+01
0	 5.111111e+00	 7.259259e+00	 1.009107e+01
0	 5.111111e+00	 7.333333e+00	 1.008669e+01
0	 5.111111e+00	 7.407407e+00	 1.008242e+01
0	 5.185185e+00	 7.037037e+00	 1.010511e+01
0	 5.185185e+00	 7.111111e+00	 1.010043e+01
0	 5.185185e+00	 7.185185e+00	 1.009586e+01
0	 5.185185e+00	 7.259259e+00	 1.009139e+01
0	 5.185185e+00	 7.333333e+00	 1.008702e+01
0	 5.185185e+00	 7.407407e+00	 1.008275e+01
0	 4.814815e+00	 7.407407e+00	 1.007960e+01
0	 4.814815e+00	 7.481481e+00	 1.007549e+01
0	 4.814815e+00	 7.555556e+00	 1.007149e+01
0	 4.814815e+00	 7.629630e+00	 1.006761e+01
0	 4.814815e+00	 7.703704e+00	 1.006383e+01
0	 4.814815e+00	 7.777778e+00	 1.006017e+01
0	 4.888889e+00	 7.407407e+00	 1.008054e+01
0	 4.888889e+00	 7.481481e+00	 1.007641e+01
0	 4.888889e+00	 7.555556e+00	 1.007238e+01
0	 4.888889e+00	 7.629630e+00	 1.006847e+01
0	 4.888889e+00	 7.703704e+00	 1.006466e+01
0	 4.888889e+00	 7.777778e+00	 1.006096e+01
0	 4.962963e+00	 7.407407e+00	 1.008132e+01
0	 4.962963e+00	 7.481481e+00	 1.007717e+01
0	 4.962963e+00	 7.555556e+00	 1.007312e+01
0	 4.962963e+00	 7.629630e+00	 1.006919e+01
0	 4.962963e+00	 7.703704e+00	 1.006536e+01
0	 4.962963e+00	 7.777778e+00	 1.006163e+01
0	 5.037037e+00	 7.407407e+00	 1.008194e+01
0	 5.037037e+00	 7.481481e+00	 1.007778e+01
0	 5.037037e+00	 7.555556e+00	 1.007373e+01
0	 5.037037e+00	 7.629630e+00	 1.006978e+01
0	 5.037037e+00	 7.703704e+00	 1.006593e+01
0	 5.037037e+00	 7.777778e+00	 1.006218e+01
0	 5.111111e+00	 7.407407e+00	 1.008242e+01
0	 5.111111e+00	 7.481481e+00	 1.007825e+01
0	 5.111111e+00	 7.555556e+00	 1.007419e+01
0	 5.111111e+00	 7.629630e+00	 1.007023e+01
0	 5.111111e+00	 7.703704e+00	 1.006638e+01
0	 5.111111e+00	 7.777778e+00	 1.006262e+01
0	 5.185185e+00	 7.407407e+00	 1.008275e+01
0	 5.185185e+00	 7.481481e+00	 1.007859e+01
0	 5.185185e+00	 7.555556e+00	 1.007453e+01
0	 5.185185e+00	 7.629630e+00	 1.007057e+01
0	 5.185185e+00	 7.703704e+00	 1.006671e+01
0	 5.185185e+00	 7.777778e+00	 1.006294e+01
0	 4.814815e+00	 7.777778e+00	 1.006017e+01
0	 4.814815e+00	 7.851852e+00	 1.005661e+01
0	 4.814815e+00	 7.925926e+00	 1.005315e+01
0	 4.814815e+00	 8.000000e+00	 1.004980e+01
0	 4.814815e+00	 8.074074e+00	 1.004654e+01
0	 4.814815e+00	 8.148148e+00	 1.004339e+01
0	 4.888889e+00	 7.777778e+00	 1.006096e+01
0	 4.888889e+00	 7.851852e+00	 1.005737e+01
0	 4.888889e+00	 7.925926e+00	 1.005387e+01
0	 4.888889e+00	 8.000000e+00	 1.005049e+01
0	 4.888889e+00	 8.074074e+00	 1.004720e+01
0	 4.888889e+00	 8.148148e+00	 1.004400e+01
0	 4.962963e+00	 7.777778e+00	 1.006163e+01
0	 4.962963e+00	 7.851852e+00	 1.005801e+01
0	 4.962963e+00	 7.925926e+00	 1.005449e+01
0	 4.962963e+00	 8.000000e+00	 1.005107e+01
0	 4.962963e+00	 8.074074e+00	 1.004775e+01
0	 4.962963e+00	 8.148148e+00	 1.004453e+01
0	 5.037037e+00	 7.777778e+00	 1.006218e+01
0	 5.037037e+00	 7.851852e+00	 1.005854e+01
0	 5.037037e+00	 7.925926e+00	 1.005500e+01
0	 5.037037e+00	 8.000000e+00	 1.005155e+01
0	 5.037037e+00	 8.074074e+00	 1.004821e+01
0	 5.037037e+00	 8.148148e+00	 1.004496e+01
0	 5.111111e+00	 7.777778e+00	 1.006262e+01
0	 5.111111e+00	 7.851852e+00	 1.005896e+01
0	 5.111111e+00	 7.925926e+00	 1.005540e+01
0	 5.111111e+00	 8.000000e+00	 1.005194e+01
0	 5.111111e+00	 8.074074e+00	 1.004858e+01
0	 5.111111e+00	 8.148148e+00	 1.004532e+01
0	 5.185185e+00	 7.777778e+00	 1.006294e+01
0	 5.185185e+00	 7.851852e+00	 1.005927e+01
0	 5.185185e+00	 7.925926e+00	 1.005571e+01
0	 5.185185e+00	 8.000000e+00	 1.005224e+01
0	 5.185185e+00	 8.074074e+00	 1.004887e+01
0	 5.185185e+00	 8.148148e+00	 1.004559e+01
0	 4.814815e+00	 8.148148e+00	 1.004339e+01
0	 4.814815e+00	 8.222222e+00	 1.004034e+01
0	 4.814815e+00	 8.296296e+00	 1.003739e+01
0	 4.814815e+00	 8.370370e+00	 1.003454e+01
0	 4.814815e+00	 8.444444e+00	 1.003178e+01
0	 4.814815e+00	 8.518519e+00	 1.002912e+01
0	 4.888889e+00	 8.148148e+00	 1.004400e+01
0	 4.888889e+00	 8.222222e+00	 1.004091e+01
0	 4.888889e+00	 8.296296e+00	 1.003793e+01
0	 4.888889e+00	 8.370370e+00	 1.003504e+01
0	 4.888889e+00	 8.444444e+00	 1.003225e+01
0	 4.888889e+00	 8.518519e+00	 1.002955e+01
0	 4.962963e+00	 8.148148e+00	 1.004453e+01
0	 4.962963e+00	 8.222222e+00	 1.004141e+01
0	 4.962963e+00	 8.296296e+00	 1.003839e+01
0	 4.962963e+00	 8.370370e+00	 1.003547e+01
0	 4.962963e+00	 8.444444e+00	 1.003264e+01
0	 4.962963e+00	 8.518519e+00	 1.002992e+01
0	 5.037037e+00	 8.148148e+00	 1.004496e+01
0	 5.037037e+00	 8.222222e+00	 1.004182e+01
0	 5.037037e+00	 8.296296e+00	 1.003877e+01
0	 5.037037e+00	 8.370370e+00	 1.003583e+01
0	 5.037037e+00	 8.444444e+00	 1.003298e+01
0	 5.037037e+00	 8.518519e+00	 1.003022e+01
0	 5.111111e+00	 8.148148e+00	 1.004532e+01
0	 5.111111e+00	 8.222222e+00	 1.004215e+01
0	 5.111111e+00	 8.296296e+00	 1.003908e+01
0	 5.111111e+00	 8.370370e+00	 1.003612e+01
0	 5.111111e+00	 8.444444e+00	 1.003325e+01
0	 5.111111e+00	 8.518519e+00	 1.003047e+01
0	 5.185185e+00	 8.148148e+00	 1.004559e+01
0	 5.185185e+00	 8.222222e+00	 1.004240e+01
0	 5.185185e+00	 8.296296e+00	 1.003932e+01
0	 5.185185e+00	 8.370370e+00	 1.003634e+01
0	 5.185185e+00	 8.444444e+00	 1.003346e+01
0	 5.185185e+00	 8.518519e+00	 1.003067e+01
0	 4.814815e+00	 8.518519e+00	 1.002912e+01
0	 4.814815e+00	 8.592593e+00	 1.002656e+01
0	 4.814815e+00	 8.666667e+00	 1.002411e+01
0	 4.814815e+00	 8.740741e+00	 1.002176e+01
0	 4.814815e+00	 8.814815e+00	 1.001951e+01
0	 4.814815e+00	 8.888889e+00	 1.001736e+01
0	 4.888889e+00	 8.518519e+00	 1.002955e+01
0	 4.888889e+00	 8.592593e+00	 1.002695e+01
0	 4.888889e+00	 8.666667e+00	 1.002447e+01
0	 4.888889e+00	 8.740741e+00	 1.002208e+01
0	 4.888889e+00	 8.814815e+00	 1.001980e+01
0	 4.888889e+00	 8.888889e+00	 1.001761e+01
0	 4.962963e+00	 8.518519e+00	 1.002992e+01
0	 4.962963e+00	 8.592593e+00	 1.002729e+01
0	 4.962963e+00	 8.666667e+00	 1.002477e+01
0	 4.962963e+00	 8.740741e+00	 1.002236e+01
0	 4.962963e+00	 8.814815e+00	 1.002005e+01
0	 4.962963e+00	 8.888889e+00	 1.001783e+01
0	 5.037037e+00	 8.518519e+00	 1.003022e+01
0	 5.037037e+00	 8.592593e+00	 1.002757e+01
0	 5.037037e+00	 8.666667e+00	 1.002503e+01
0	 5.037037e+00	 8.740741e+00	 1.002259e+01
0	 5.037037e+00	 8.814815e+00	 1.002025e+01
0	 5.037037e+00	 8.888889e+00	 1.001801e+01
0	 5.111111e+00	 8.518519e+00	 1.003047e+01
0	 5.111111e+00	 8.592593e+00	 1.002780e+01
0	 5.111111e+00	 8.666667e+00	 1.002524e+01
0	 5.111111e+00	 8.740741e+00	 1.002278e+01
0	 5.111111e+00	 8.814815e+00	 1.002042e+01
0	 5.111111e+00	 8.888889e+00	 1.001816e+01
0	 5.185185e+00	 8.518519e+00	 1.003067e+01
0	 5.185185e+00	 8.592593e+00	 1.002798e+01
0	 5.185185e+00	 8.666667e+00	 1.002540e+01
0	 5.185185e+00	 8.740741e+00	 1.002293e+01
0	 5.185185e+00	 8.814815e+00	 1.002056e+01
0	 5.185185e+00	 8.888889e+00	 1.001828e+01
0	 4.814815e+00	 8.888889e+00	 1.001736e+01
0	 4.814815e+00	 8.962963e+00	 1.001531e+01
0	 4.814815e+00	 9.037037e+00	 1.001338e+01
0	 4.814815e+00	 9.111111e+00	 1.001156e+01
0	 4.814815e+00	 9.185185e+00	 1.000986e+01
0	 4.814815e+00	 9.259259e+00	 1.000825e+01
0	 4.888889e+00	 8.888889e+00	 1.001761e+01
0	 4.888889e+00	 8.962963e+00	 1.001553e+01
0	 4.888889e+00	 9.037037e+00	 1.001357e+01
0	 4.888889e+00	 9.111111e+00	 1.001173e+01
0	 4.888889e+00	 9.185185e+00	 1.001000e+01
0	 4.888889e+00	 9.259259e+00	 1.000837e+01
0	 4.962963e+00	 8.888889e+00	 1.001783e+01
0	 4.962963e+00	 8.962963e+00	 1.001572e+01
0	 4.962963e+00	 9.037037e+00	 1.001374e+01
0	 4.962963e+00	 9.111111e+00	 1.001187e+01
0	 4.962963e+00	 9.185185e+00	 1.001012e+01
0	 4.962963e+00	 9.259259e+00	 1.000847e+01
0	 5.037037e+00	 8.888889e+00	 1.001801e+01
0	 5.037037e+00	 8.962963e+00	 1.001589e+01
0	 5.037037e+00	 9.037037e+00	 1.001388e+01
0	 5.037037e+00	 9.111111e+00	 1.001200e+01
0	 5.037037e+00	 9.185185e+00	 1.001022e+01
0	 5.037037e+00	 9.259259e+00	 1.000856e+01
0	 5.111111e+00	 8.888889e+00	 1.001816e+01
0	 5.111111e+00	 8.962963e+00	 1.001602e+01
0	 5.111111e+00	 9.037037e+00	 1.001400e+01
0	 5.111111e+00	 9.111111e+00	 1.001210e+01
0	 5.111111e+00	 9.185185e+00	 1.001031e+01
0	 5.111111e+00	 9.259259e+00	 1.000863e+01
0	 5.185185e+00	 8.888889e+00	 1.001828e+01
0	 5.185185e+00	 8.962963e+00	 1.001612e+01
0	 5.185185e+00	 9.037037e+00	 1.001409e+01
0	 5.185185e+00	 9.111111e+00	 1.001217e+01
0	 5.185185e+00	 9.185185e+00	 1.001037e+01
0	 5.185185e+00	 9.259259e+00	 1.000868e+01
0	 4.814815e+00	 9.259259e+00	 1.000825e+01
0	 4.814815e+00	 9.333333e+00	 1.000677e+01
0	 4.814815e+00	 9.407407e+00	 1.000544e+01
0	 4.814815e+00	 9.481481e+00	 1.000424e+01
0	 4.814815e+00	 9.555556e+00	 1.000318e+01
0	 4.814815e+00	 9.629630e+00	 1.000223e+01
0	 4.888889e+00	 9.259259e+00	 1.000837e+01
0	 4.888889e+00	 9.333333e+00	 1.000687e+01
0	 4.888889e+00	 9.407407e+00	 1.000551e+01
0	 4.888889e+00	 9.481481e+00	 1.000430e+01
0	 4.888889e+00	 9.555556e+00	 1.000322e+01
0	 4.888889e+00	 9.629630e+00	 1.000226e+01
0	 4.962963e+00	 9.259259e+00	 1.000847e+01
0	 4.962963e+00	 9.333333e+00	 1.000695e+01
0	 4.962963e+00	 9.407407e+00	 1.000558e+01
0	 4.962963e+00	 9.481481e+00	 1.000435e+01
0	 4.962963e+00	 9.555556e+00	 1.000326e+01
0	 4.962963e+00	 9.629630e+00	 1.000229e+01
0	 5.037037e+00	 9.259259e+00	 1.000856e+01
0	 5.037037e+00	 9.333333e+00	 1.000702e+01
0	 5.037037e+00	 9.407407e+00	 1.000564e+01
0	 5.037037e+00	 9.481481e+00	 1.000439e+01
0	 5.037037e+00	 9.555556e+00	 1.000329e+01
0	 5.037037e+00	 9.629630e+00	 1.000231e+01
0	 5.111111e+00	 9.259259e+00	 1.000863e+01
0	 5.111111e+00	 9.333333e+00	 1.000708e+01
0	 5.111111e+00	 9.407407e+00	 1.000568e+01
0	 5.111111e+00	 9.481481e+00	 1.000443e+01
0	 5.111111e+00	 9.555556e+00	 1.000331e+01
0	 5.111111e+00	 9.629630e+00	 1.000233e+01
0	 5.185185e+00	 9.259259e+00	 1.000868e+01
0	 5.185185e+00	 9.333333e+00	 1.000712e+01
0	 5.185185e+00	 9.407407e+00	 1.000571e+01
0	 5.185185e+00	 9.481481e+00	 1.000445e+01
0	 5.185185e+00	 9.555556e+00	 1.000333e+01
0	 5.185185e+00	 9.629630e+00	 1.000234e+01
0	 4.814815e+00	 9.629630e+00	 1.000223e+01
0	 4.814815e+00	 9.703704e+00	 1.000144e+01
0	 4.814815e+00	 9.777778e+00	 1.000083e+01
0	 4.814815e+00	 9.851852e+00	 1.000039e+01
0	 4.814815e+00	 9.925926e+00	 1.000011e+01
0	 4.814815e+00	 1.000000e+01	 9.999973e+00
0	 4.888889e+00	 9.629630e+00	 1.000226e+01
0	 4.888889e+00	 9.703704e+00	 1.000145e+01
0	 4.888889e+00	 9.777778e+00	 1.000084e+01
0	 4.888889e+00	 9.851852e+00	 1.000039e+01
0	 4.888889e+00	 9.925926e+00	 1.000011e+01
0	 4.888889e+00	 1.000000e+01	 9.999971e+00
0	 4.962963e+00	 9.629630e+00	 1.000229e+01
0	 4.962963e+00	 9.703704e+00	 1.000147e+01
0	 4.962963e+00	 9.777778e+00	 1.000084e+01
0	 4.962963e+00	 9.851852e+00	 1.000039e+01
0	 4.962963e+00	 9.925926e+00	 1.000011e+01
0	 4.962963e+00	 1.000000e+01	 9.999971e+00
0	 5.037037e+00	 9.629630e+00	 1.000231e+01
0	 5.037037e+00	 9.703704e+00	 1.000149e+01
0	 5.037037e+00	 9.777778e+00	 1.000085e+01
0	 5.037037e+00	 9.851852e+00	 1.000040e+01
0	 5.037037e+00	 9.925926e+00	 1.000011e+01
0	 5.037037e+00	 1.000000e+01	 9.999972e+00
0	 5.111111e+00	 9.629630e+00	 1.000233e+01
0	 5.111111e+00	 9.703704e+00	 1.000150e+01
0	 5.111111e+00	 9.777778e+00	 1.000086e+01
0	 5.111111e+00	 9.851852e+00	 1.000040e+01
0	 5.111111e+00	 9.925926e+00	 1.000011e+01
0	 5.111111e+00	 1.000000e+01	 9.999973e+00
0	 5.185185e+00	 9.629630e+00	 1.000234e+01
0	 5.185185e+00	 9.703704e+00	 1.000151e+01
0	 5.185185e+00	 9.777778e+00	 1.000086e+01
0	 5.185185e+00	 9.851852e+00	 1.000040e+01
0	 5.185185e+00	 9.925926e+00	 1.000011e+01
0	 5.185185e+00	 1.000000e+01	 9.999973e+00
0	 5.185185e+00	 0.000000e+00	 1.030055e+01
0	 5.185185e+00	 7.407407e-02	 1.030093e+01
0	 5.185185e+00	 1.481481e-01	 1.030189e+01
0	 5.185185e+00	 2.222222e-01	 1.030347e+01
0	 5.185185e+00	 2.962963e-01	 1.030567e+01
0	 5.185185e+00	 3.703704e-01	 1.030851e+01
0	 5.259259e+00	 0.000000e+00	 1.029011e+01
0	 5.259259e+00	 7.407407e-02	 1.029043e+01
0	 5.259259e+00	 1.481481e-01	 1.029133e+01
0	 5.259259e+00	 2.222222e-01	 1.029280e+01
0	 5.259259e+00	 2.962963e-01	 1.029488e+01
0	 5.259259e+00	 3.703704e-01	 1.029758e+01
0	 5.333333e+00	 0.000000e+00	 1.028003e+01
0	 5.333333e+00	 7.407407e-02	 1.028031e+01
0	 5.333333e+00	 1.481481e-01	 1.028112e+01
0	 5.333333e+00	 2.222222e-01	 1.028249e+01
0	 5.333333e+00	 2.962963e-01	 1.028443e+01
0	 5.333333e+00	 3.703704e-01	 1.028696e+01
0	 5.407407e+00	 0.000000e+00	 1.027022e+01
0	 5.407407e+00	 7.407407e-02	 1.027047e+01
0	 5.407407e+00	 1.481481e-01	 1.027122e+01
0	 5.407407e+00	 2.222222e-01	 1.027248e+01
0	 5.407407e+00	 2.962963e-01	 1.027428e+01
0	 5.407407e+00	 3.703704e-01	 1.027662e+01
0	 5.481481e+00	 0.000000e+00	 1.026061e+01
0	 5.481481e+00	 7.407407e-02	 1.026084e+01
0	 5.481481e+00	 1.481481e-01	 1.026154e+01
0	 5.481481e+00	 2.222222e-01	 1.026271e+01
0	 5.481481e+00	 2.962963e-01	 1.026438e+01
0	 5.481481e+00	 3.703704e-01	 1.026656e+01
0	 5.555556e+00	 0.000000e+00	 1.025110e+01
0	 5.555556e+00	 7.407407e-02	 1.025135e+01
0	 5.555556e+00	 1.481481e-01	 1.025202e+01
0	 5.555556e+00	 2.222222e-01	 1.025314e+01
0	 5.555556e+00	 2.962963e-01	 1.025471e+01
0	 5.555556e+00	 3.703704e-01	 1.025675e+01
0	 5.185185e+00	 3.703704e-01	 1.030851e+01
0	 5.185185e+00	 4.444444e-01	 1.031184e+01
0	 5.185185e+00	 5.185185e-01	 1.031554e+01
0	 5.185185e+00	 5.925926e-01	 1.031965e+01
0	 5.185185e+00	 6.666667e-01	 1.032420e+01
0	 5.185185e+00	 7.407407e-01	 1.032925e+01
0	 5.259259e+00	 3.703704e-01	 1.029758e+01
0	 5.259259e+00	 4.444444e-01	 1.030076e+01
0	 5.259259e+00	 5.185185e-01	 1.030428e+01
0	 5.259259e+00	 5.925926e-01	 1.030818e+01
0	 5.259259e+00	 6.666667e-01	 1.031251e+01
0	 5.259259e+00	 7.407407e-01	 1.031730e+01
0	 5.333333e+00	 3.703704e-01	 1.028696e+01
0	 5.333333e+00	 4.444444e-01	 1.028994e+01
0	 5.333333e+00	 5.185185e-01	 1.029327e+01
0	 5.333333e+00	 5.925926e-01	 1.029698e+01
0	 5.333333e+00	 6.666667e-01	 1.030109e+01
0	 5.333333e+00	 7.407407e-01	 1.030566e+01
0	 5.407407e+00	 3.703704e-01	 1.027662e+01
0	 5.407407e+00	 4.444444e-01	 1.027941e+01
0	 5.407407e+00	 5.185185e-01	 1.028254e+01
0	 5.407407e+00	 5.925926e-01	 1.028605e+01
0	 5.407407e+00	 6.666667e-01	 1.028998e+01
0	 5.407407e+00	 7.407407e-01	 1.029435e+01
0	 5.481481e+00	 3.703704e-01	 1.026656e+01
0	 5.481481e+00	 4.444444e-01	 1.026915e+01
0	 5.481481e+00	 5.185185e-01	 1.027210e+01
0	 5.481481e+00	 5.925926e-01	 1.027543e+01
0	 5.481481e+00	 6.666667e-01	 1.027917e+01
0	 5.481481e+00	 7.407407e-01	 1.028335e+01
0	 5.555556e+00	 3.703704e-01	 1.025675e+01
0	 5.555556e+00	 4.444444e-01	 1.025919e+01
0	 5.555556e+00	 5.185185e-01	 1.026197e+01
0	 5.555556e+00	 5.925926e-01	 1.026513e+01
0	 5.555556e+00	 6.666667e-01	 1.026869e+01
0	 5.555556e+00	 7.407407e-01	 1.027268e+01
0	 5.185185e+00	 7.407407e-01	 1.032925e+01
0	 5.185185e+00	 8.148148e-01	 1.033460e+01
0	 5.185185e+00	 8.888889e-01	 1.034010e+01
0	 5.185185e+00	 9.629630e-01	 1.034580e+01
0	 5.185185e+00	 1.037037e+00	 1.035178e+01
0	 5.185185e+00	 1.111111e+00	 1.035809e+01
0	 5.259259e+00	 7.407407e-01	 1.031730e+01
0	 5.259259e+00	 8.148148e-01	 1.032239e+01
0	 5.259259e+00	 8.888889e-01	 1.032765e+01
0	 5.259259e+00	 9.629630e-01	 1.033311e+01
0	 5.259259e+00	 1.037037e+00	 1.033885e+01
0	 5.259259e+00	 1.111111e+00	 1.034492e+01
0	 5.333333e+00	 7.407407e-01	 1.030566e+01
0	 5.333333e+00	 8.148148e-01	 1.031053e+01
0	 5.333333e+00	 8.888889e-01	 1.031556e+01
0	 5.333333e+00	 9.629630e-01	 1.032081e+01
0	 5.333333e+00	 1.037037e+00	 1.032631e+01
0	 5.333333e+00	 1.111111e+00	 1.033212e+01
0	 5.407407e+00	 7.407407e-01	 1.029435e+01
0	 5.407407e+00	 8.148148e-01	 1.029901e+01
0	 5.407407e+00	 8.888889e-01	 1.030384e+01
0	 5.407407e+00	 9.629630e-01	 1.030886e+01
0	 5.407407e+00	 1.037037e+00	 1.031413e+01
0	 5.407407e+00	 1.111111e+00	 1.031968e+01
0	 5.481481e+00	 7.407407e-01	 1.028335e+01
0	 5.481481e+00	 8.148148e-01	 1.028782e+01
0	 5.481481e+00	 8.888889e-01	 1.029244e+01
0	 5.481481e+00	 9.629630e-01	 1.029725e+01
0	 5.481481e+00	 1.037037e+00	 1.030229e+01
0	 5.481481e+00	 1.111111e+00	 1.030759e+01
0	 5.555556e+00	 7.407407e-01	 1.027268e+01
0	 5.555556e+00	 8.148148e-01	 1.027696e+01
0	 5.555556e+00	 8.888889e-01	 1.028137e+01
0	 5.555556e+00	 9.629630e-01	 1.028595e+01
0	 5.555556e+00	 1.037037e+00	 1.029075e+01
0	 5.555556e+00	 1.111111e+00	 1.029581e+01
0	 5.185185e+00	 1.111111e+00	 1.035809e+01
0	 5.185185e+00	 1.185185e+00	 1.036450e+01
0	 5.185185e+00	 1.259259e+00	 1.037076e+01
0	 5.185185e+00	 1.333333e+00	 1.037693e+01
0	 5.185185e+00	 1.407407e+00	 1.038306e+01
0	 5.185185e+00	 1.481481e+00	 1.038920e+01
0	 5.259259e+00	 1.111111e+00	 1.034492e+01
0	 5.259259e+00	 1.185185e+00	 1.035107e+01
0	 5.259259e+00	 1.259259e+00	 1.035708e+01
0	 5.259259e+00	 1.333333e+00	 1.036301e+01
0	 5.259259e+00	 1.407407e+00	 1.036891e+01
0	 5.259259e+00	 1.481481e+00	 1.037483e+01
0	 5.333333e+00	 1.111111e+00	 1.033212e+01
0	 5.333333e+00	 1.185185e+00	 1.033802e+01
0	 5.333333e+00	 1.259259e+00	 1.034379e+01
0	 5.333333e+00	 1.333333e+00	 1.034949e+01
0	 5.333333e+00	 1.407407e+00	 1.035517e+01
0	 5.333333e+00	 1.481481e+00	 1.036090e+01
0	 5.407407e+00	 1.111111e+00	 1.031968e+01
0	 5.407407e+00	 1.185185e+00	 1.032532e+01
0	 5.407407e+00	 1.259259e+00	 1.033086e+01
0	 5.407407e+00	 1.333333e+00	 1.033635e+01
0	 5.407407e+00	 1.407407e+00	 1.034184e+01
0	 5.407407e+00	 1.481481e+00	 1.034739e+01
0	 5.481481e+00	 1.111111e+00	 1.030759e+01
0	 5.481481e+00	 1.185185e+00	 1.031298e+01
0	 5.481481e+00	 1.259259e+00	 1.031829e+01
0	 5.481481e+00	 1.333333e+00	 1.032357e+01
0	 5.481481e+00	 1.407407e+00	 1.032887e+01
0	 5.481481e+00	 1.481481e+00	 1.033425e+01
0	 5.555556e+00	 1.111111e+00	 1.029581e+01
0	 5.555556e+00	 1.185185e+00	 1.030095e+01
0	 5.555556e+00	 1.259259e+00	 1.030605e+01
0	 5.555556e+00	 1.333333e+00	 1.031113e+01
0	 5.555556e+00	 1.407407e+00	 1.031626e+01
0	 5.555556e+00	 1.481481e+00	 1.032147e+01
0	 5.185185e+00	 1.481481e+00	 1.038920e+01
0	 5.185185e+00	 1.555556e+00	 1.039519e+01
0	 5.185185e+00	 1.629630e+00	 1.040082e+01
0	 5.185185e+00	 1.703704e+00	 1.040615e+01
0	 5.185185e+00	 1.777778e+00	 1.041124e+01
0	 5.185185e+00	 1.851852e+00	 1.041614e+01
0	 5.259259e+00	 1.481481e+00	 1.037483e+01
0	 5.259259e+00	 1.555556e+00	 1.038062e+01
0	 5.259259e+00	 1.629630e+00	 1.038609e+01
0	 5.259259e+00	 1.703704e+00	 1.039130e+01
0	 5.259259e+00	 1.777778e+00	 1.039629e+01
0	 5.259259e+00	 1.851852e+00	 1.040111e+01
0	 5.333333e+00	 1.481481e+00	 1.036090e+01
0	 5.333333e+00	 1.555556e+00	 1.036651e+01
0	 5.333333e+00	 1.629630e+00	 1.037184e+01
0	 5.333333e+00	 1.703704e+00	 1.037693e+01
0	 5.333333e+00	 1.777778e+00	 1.038181e+01
0	 5.333333e+00	 1.851852e+00	 1.038654e+01
0	 5.407407e+00	 1.481481e+00	 1.034739e+01
0	 5.407407e+00	 1.555556e+00	 1.035284e+01
0	 5.407407e+00	 1.629630e+00	 1.035803e+01
0	 5.407407e+00	 1.703704e+00	 1.036299e+01
0	 5.407407e+00	 1.777778e+00	 1.036777e+01
0	 5.407407e+00	 1.851852e+00	 1.037240e+01
0	 5.481481e+00	 1.481481e+00	 1.033425e+01
0	 5.481481e+00	 1.555556e+00	 1.033955e+01
0	 5.481481e+00	 1.629630e+00	 1.034460e+01
0	 5.481481e+00	 1.703704e+00	 1.034944e+01
0	 5.481481e+00	 1.777778e+00	 1.035410e+01
0	 5.481481e+00	 1.851852e+00	 1.035863e+01
0	 5.555556e+00	 1.481481e+00	 1.032147e+01
0	 5.555556e+00	 1.555556e+00	 1.032661e+01
0	 5.555556e+00	 1.629630e+00	 1.033151e+01
0	 5.555556e+00	 1.703704e+00	 1.033622e+01
0	 5.555556e+00	 1.777778e+00	 1.034076e+01
0	 5.555556e+00	 1.851852e+00	 1.034519e+01
0	 5.185185e+00	 1.851852e+00	 1.041614e+01
0	 5.185185e+00	 1.925926e+00	 1.042071e+01
0	 5.185185e+00	 2.000000e+00	 1.042478e+01
0	 5.185185e+00	 2.074074e+00	 1.042839e+01
0	 5.185185e+00	 2.148148e+00	 1.043157e+01
0	 5.185185e+00	 2.222222e+00	 1.043436e+01
0	 5.259259e+00	 1.851852e+00	 1.040111e+01
0	 5.259259e+00	 1.925926e+00	 1.040562e+01
0	 5.259259e+00	 2.000000e+00	 1.040967e+01
0	 5.259259e+00	 2.074074e+00	 1.041329e+01
0	 5.259259e+00	 2.148148e+00	 1.041651e+01
0	 5.259259e+00	 2.222222e+00	 1.041937e+01
0	 5.333333e+00	 1.851852e+00	 1.038654e+01
0	 5.333333e+00	 1.925926e+00	 1.039099e+01
0	 5.333333e+00	 2.000000e+00	 1.039500e+01
0	 5.333333e+00	 2.074074e+00	 1.039861e+01
0	 5.333333e+00	 2.148148e+00	 1.040186e+01
0	 5.333333e+00	 2.222222e+00	 1.040477e+01
0	 5.407407e+00	 1.851852e+00	 1.037240e+01
0	 5.407407e+00	 1.925926e+00	 1.037676e+01
0	 5.407407e+00	 2.000000e+00	 1.038072e+01
0	 5.407407e+00	 2.074074e+00	 1.038432e+01
0	 5.407407e+00	 2.148148e+00	 1.038758e+01
0	 5.407407e+00	 2.222222e+00	 1.039054e+01
0	 5.481481e+00	 1.851852e+00	 1.035863e+01
0	 5.481481e+00	 1.925926e+00	 1.036291e+01
0	 5.481481e+00	 2.000000e+00	 1.036682e+01
0	 5.481481e+00	 2.074074e+00	 1.037038e+01
0	 5.481481e+00	 2.148148e+00	 1.037365e+01
0	 5.481481e+00	 2.222222e+00	 1.037663e+01
0	 5.555556e+00	 1.851852e+00	 1.034519e+01
0	 5.555556e+00	 1.925926e+00	 1.034938e+01
0	 5.555556e+00	 2.000000e+00	 1.035323e+01
0	 5.555556e+00	 2.074074e+00	 1.035677e+01
0	 5.555556e+00	 2.148148e+00	 1.036003e+01
0	 5.555556e+00	 2.222222e+00	 1.036303e+01
0	 5.185185e+00	 2.222222e+00	 1.043436e+01
0	 5.185185e+00	 2.296296e+00	 1.043671e+01
0	 5.185185e+00	 2.370370e+00	 1.043853e+01
0	 5.185185e+00	 2.444444e+00	 1.043985e+01
0	 5.185185e+00	 2.518519e+00	 1.044068e+01
0	 5.185185e+00	 2.592593e+00	 1.044103e+01
0	 5.259259e+00	 2.222222e+00	 1.041937e+01
0	 5.259259e+00	 2.296296e+00	 1.042182e+01
0	 5.259259e+00	 2.370370e+00	 1.042377e+01
0	 5.259259e+00	 2.444444e+00	 1.042524e+01
0	 5.259259e+00	 2.518519e+00	 1.042625e+01
0	 5.259259e+00	 2.592593e+00	 1.042682e+01
0	 5.333333e+00	 2.222222e+00	 1.040477e+01
0	 5.333333e+00	 2.296296e+00	 1.040730e+01
0	 5.333333e+00	 2.370370e+00	 1.040936e+01
0	 5.333333e+00	 2.444444e+00	 1.041097e+01
0	 5.333333e+00	 2.518519e+00	 1.041214e+01
0	 5.333333e+00	 2.592593e+00	 1.041290e+01
0	 5.407407e+00	 2.222222e+00	 1.039054e+01
0	 5.407407e+00	 2.296296e+00	 1.039313e+01
0	 5.407407e+00	 2.370370e+00	 1.039528e+01
0	 5.407407e+00	 2.444444e+00	 1.039700e+01
0	 5.407407e+00	 2.518519e+00	 1.039832e+01
0	 5.407407e+00	 2.592593e+00	 1.039925e+01
0	 5.481481e+00	 2.222222e+00	 1.037663e+01
0	 5.481481e+00	 2.296296e+00	 1.037928e+01
0	 5.481481e+00	 2.370370e+00	 1.038150e+01
0	 5.481481e+00	 2.444444e+00	 1.038333e+01
0	 5.481481e+00	 2.518519e+00	 1.038477e+01
0	 5.481481e+00	 2.592593e+00	 1.038584e+01
0	 5.555556e+00	 2.222222e+00	 1.036303e+01
0	 5.555556e+00	 2.296296e+00	 1.036572e+01
0	 5.555556e+00	 2.370370e+00	 1.036801e+01
0	 5.555556e+00	 2.444444e+00	 1.036992e+01
0	 5.555556e+00	 2.518519e+00	 1.037147e+01
0	 5.555556e+00	 2.592593e+00	 1.037267e+01
0	 5.185185e+00	 2.592593e+00	 1.044103e+01
0	 5.185185e+00	 2.666667e+00	 1.044092e+01
0	 5.185185e+00	 2.740741e+00	 1.044034e+01
0	 5.185185e+00	 2.814815e+00	 1.043927e+01
0	 5.185185e+00	 2.888889e+00	 1.043774e+01
0	 5.185185e+00	 2.962963e+00	 1.043573e+01
0	 5.259259e+00	 2.592593e+00	 1.042682e+01
0	 5.259259e+00	 2.666667e+00	 1.042695e+01
0	 5.259259e+00	 2.740741e+00	 1.042661e+01
0	 5.259259e+00	 2.814815e+00	 1.042582e+01
0	 5.259259e+00	 2.888889e+00	 1.042458e+01
0	 5.259259e+00	 2.962963e+00	 1.042289e+01
0	 5.333333e+00	 2.592593e+00	 1.041290e+01
0	 5.333333e+00	 2.666667e+00	 1.041323e+01
0	 5.333333e+00	 2.740741e+00	 1.041312e+01
0	 5.333333e+00	 2.814815e+00	 1.041258e+01
0	 5.333333e+00	 2.888889e+00	 1.041161e+01
0	 5.333333e+00	 2.962963e+00	 1.041021e+01
0	 5.407407e+00	 2.592593e+00	 1.039925e+01
0	 5.407407e+00	 2.666667e+00	 1.039976e+01
0	 5.407407e+00	 2.740741e+00	 1.039986e+01
0	 5.407407e+00	 2.814815e+00	 1.039954e+01
0	 5.407407e+00	 2.888889e+00	 1.039881e+01
0	 5.407407e+00	 2.962963e+00	 1.039767e+01
0	 5.481481e+00	 2.592593e+00	 1.038584e+01
0	 5.481481e+00	 2.666667e+00	 1.038653e+01
0	 5.481481e+00	 2.740741e+00	 1.038681e+01
0	 5.481481e+00	 2.814815e+00	 1.038670e+01
0	 5.481481e+00	 2.888889e+00	 1.038619e+01
0	 5.481481e+00	 2.962963e+00	 1.038529e+01
0	 5.555556e+00	 2.592593e+00	 1.037267e+01
0	 5.555556e+00	 2.666667e+00	 1.037351e+01
0	 5.555556e+00	 2.740741e+00	 1.037396e+01
0	 5.555556e+00	 2.814815e+00	 1.037403e+01
0	 5.555556e+00	 2.888889e+00	 1.037373e+01
0	 5.555556e+00	 2.962963e+00	 1.037305e+01
0	 5.185185e+00	 2.962963e+00	 1.043573e+01
0	 5.185185e+00	 3.037037e+00	 1.043329e+01
0	 5.185185e+00	 3.111111e+00	 1.043047e+01
0	 5.185185e+00	 3.185185e+00	 1.042725e+01
0	 5.185185e+00	 3.259259e+00	 1.042362e+01
0	 5.185185e+00	 3.333333e+00	 1.041957e+01
0	 5.259259e+00	 2.962963e+00	 1.042289e+01
0	 5.259259e+00	 3.037037e+00	 1.042079e+01
0	 5.259259e+00	 3.111111e+00	 1.041831e+01
0	 5.259259e+00	 3.185185e+00	 1.041543e+01
0	 5.259259e+00	 3.259259e+00	 1.041216e+01
0	 5.259259e+00	 3.333333e+00	 1.040849e+01
0	 5.333333e+00	 2.962963e+00	 1.041021e+01
0	 5.333333e+00	 3.037037e+00	 1.040841e+01
0	 5.333333e+00	 3.111111e+00	 1.040624e+01
0	 5.333333e+00	 3.185185e+00	 1.040369e+01
0	 5.333333e+00	 3.259259e+00	 1.040076e+01
0	 5.333333e+00	 3.333333e+00	 1.039743e+01
0	 5.407407e+00	 2.962963e+00	 1.039767e+01
0	 5.407407e+00	 3.037037e+00	 1.039615e+01
0	 5.407407e+00	 3.111111e+00	 1.039427e+01
0	 5.407407e+00	 3.185185e+00	 1.039202e+01
0	 5.407407e+00	 3.259259e+00	 1.038940e+01
0	 5.407407e+00	 3.333333e+00	 1.038641e+01
0	 5.481481e+00	 2.962963e+00	 1.038529e+01
0	 5.481481e+00	 3.037037e+00	 1.038402e+01
0	 5.481481e+00	 3.111111e+00	 1.038241e+01
0	 5.481481e+00	 3.185185e+00	 1.038044e+01
0	 5.481481e+00	 3.259259e+00	 1.037811e+01
0	 5.481481e+00	 3.333333e+00	 1.037542e+01
0	 5.555556e+00	 2.962963e+00	 1.037305e+01
0	 5.555556e+00	 3.037037e+00	 1.037202e+01
0	 5.555556e+00	 3.111111e+00	 1.037065e+01
0	 5.555556e+00	 3.185185e+00	 1.036895e+01
0	 5.555556e+00	 3.259259e+00	 1.036689e+01
0	 5.555556e+00	 3.333333e+00	 1.036449e+01
0	 5.185185e+00	 3.333333e+00	 1.041957e+01
0	 5.185185e+00	 3.407407e+00	 1.041517e+01
0	 5.185185e+00	 3.481481e+00	 1.041050e+01
0	 5.185185e+00	 3.555556e+00	 1.040554e+01
0	 5.185185e+00	 3.629630e+00	 1.040027e+01
0	 5.185185e+00	 3.703704e+00	 1.039468e+01
0	 5.259259e+00	 3.333333e+00	 1.040849e+01
0	 5.259259e+00	 3.407407e+00	 1.040447e+01
0	 5.259259e+00	 3.481481e+00	 1.040019e+01
0	 5.259259e+00	 3.555556e+00	 1.039561e+01
0	 5.259259e+00	 3.629630e+00	 1.039073e+01
0	 5.259259e+00	 3.703704e+00	 1.038554e+01
0	 5.333333e+00	 3.333333e+00	 1.039743e+01
0	 5.333333e+00	 3.407407e+00	 1.039378e+01
0	 5.333333e+00	 3.481481e+00	 1.038985e+01
0	 5.333333e+00	 3.555556e+00	 1.038563e+01
0	 5.333333e+00	 3.629630e+00	 1.038112e+01
0	 5.333333e+00	 3.703704e+00	 1.037629e+01
0	 5.407407e+00	 3.333333e+00	 1.038641e+01
0	 5.407407e+00	 3.407407e+00	 1.038309e+01
0	 5.407407e+00	 3.481481e+00	 1.037950e+01
0	 5.407407e+00	 3.555556e+00	 1.037562e+01
0	 5.407407e+00	 3.629630e+00	 1.037145e+01
0	 5.407407e+00	 3.703704e+00	 1.036698e+01
0	 5.481481e+00	 3.333333e+00	 1.037542e+01
0	 5.481481e+00	 3.407407e+00	 1.037242e+01
0	 5.481481e+00	 3.481481e+00	 1.036915e+01
0	 5.481481e+00	 3.555556e+00	 1.036559e+01
0	 5.481481e+00	 3.629630e+00	 1.036175e+01
0	 5.481481e+00	 3.703704e+00	 1.035760e+01
0	 5.555556e+00	 3.333333e+00	 1.036449e+01
0	 5.555556e+00	 3.407407e+00	 1.036179e+01
0	 5.555556e+00	 3.481481e+00	 1.035881e+01
0	 5.555556e+00	 3.555556e+00	 1.035556e+01
0	 5.555556e+00	 3.629630e+00	 1.035203e+01
0	 5.555556e+00	 3.703704e+00	 1.034820e+01
0	 5.185185e+00	 3.703704e+00	 1.039468e+01
0	 5.185185e+00	 3.777778e+00	 1.038885e+01
0	 5.185185e+00	 3.851852e+00	 1.038285e+01
0	 5.185185e+00	 3.925926e+00	 1.037665e+01
0	 5.185185e+00	 4.000000e+00	 1.037025e+01
0	 5.185185e+00	 4.074074e+00	 1.036363e+01
0	 5.259259e+00	 3.703704e+00	 1.038554e+01
0	 5.259259e+00	 3.777778e+00	 1.038009e+01
0	 5.259259e+00	 3.851852e+00	 1.037448e+01
0	 5.259259e+00	 3.925926e+00	 1.036866e+01
0	 5.259259e+00	 4.000000e+00	 1.036264e+01
0	 5.259259e+00	 4.074074e+00	 1.035639e+01
0	 5.333333e+00	 3.703704e+00	 1.037629e+01
0	 5.333333e+00	 3.777778e+00	 1.037122e+01
0	 5.333333e+00	 3.851852e+00	 1.036597e+01
0	 5.333333e+00	 3.925926e+00	 1.036052e+01
0	 5.333333e+00	 4.000000e+00	 1.035485e+01
0	 5.333333e+00	 4.074074e+00	 1.034896e+01
0	 5.407407e+00	 3.703704e+00	 1.036698e+01
0	 5.407407e+00	 3.777778e+00	 1.036226e+01
0	 5.407407e+00	 3.851852e+00	 1.035735e+01
0	 5.407407e+00	 3.925926e+00	 1.035224e+01
0	 5.407407e+00	 4.000000e+00	 1.034692e+01
0	 5.407407e+00	 4.074074e+00	 1.034138e+01
0	 5.481481e+00	 3.703704e+00	 1.035760e+01
0	 5.481481e+00	 3.777778e+00	 1.035322e+01
0	 5.481481e+00	 3.851852e+00	 1.034864e+01
0	 5.481481e+00	 3.925926e+00	 1.034386e+01
0	 5.481481e+00	 4.000000e+00	 1.033887e+01
0	 5.481481e+00	 4.074074e+00	 1.033366e+01
0	 5.555556e+00	 3.703704e+00	 1.034820e+01
0	 5.555556e+00	 3.777778e+00	 1.034412e+01
0	 5.555556e+00	 3.851852e+00	 1.033986e+01
0	 5.555556e+00	 3.925926e+00	 1.033540e+01
0	 5.555556e+00	 4.000000e+00	 1.033073e+01
0	 5.555556e+00	 4.074074e+00	 1.032584e+01
0	 5.185185e+00	 4.074074e+00	 1.036363e+01
0	 5.185185e+00	 4.148148e+00	 1.035685e+01
0	 5.185185e+00	 4.222222e+00	 1.035000e+01
0	 5.185185e+00	 4.296296e+00	 1.034306e+01
0	 5.185185e+00	 4.370370e+00	 1.033602e+01
0	 5.185185e+00	 4.444444e+00	 1.032884e+01
0	 5.259259e+00	 4.074074e+00	 1.035639e+01
0	 5.259259e+00	 4.148148e+00	 1.034998e+01
0	 5.259259e+00	 4.222222e+00	 1.034349e+01
0	 5.259259e+00	 4.296296e+00	 1.033690e+01
0	 5.259259e+00	 4.370370e+00	 1.033020e+01
0	 5.259259e+00	 4.444444e+00	 1.032336e+01
0	 5.333333e+00	 4.074074e+00	 1.034896e+01
0	 5.333333e+00	 4.148148e+00	 1.034291e+01
0	 5.333333e+00	 4.222222e+00	 1.033677e+01
0	 5.333333e+00	 4.296296e+00	 1.033052e+01
0	 5.333333e+00	 4.370370e+00	 1.032415e+01
0	 5.333333e+00	 4.444444e+00	 1.031764e+01
0	 5.407407e+00	 4.074074e+00	 1.034138e+01
0	 5.407407e+00	 4.148148e+00	 1.033567e+01
0	 5.407407e+00	 4.222222e+00	 1.032986e+01
0	 5.407407e+00	 4.296296e+00	 1.032394e+01
0	 5.407407e+00	 4.370370e+00	 1.031789e+01
0	 5.407407e+00	 4.444444e+00	 1.031169e+01
0	 5.481481e+00	 4.074074e+00	 1.033366e+01
0	 5.481481e+00	 4.148148e+00	 1.032828e+01
0	 5.481481e+00	 4.222222e+00	 1.032280e+01
0	 5.481481e+00	 4.296296e+00	 1.031719e+01
0	 5.481481e+00	 4.370370e+00	 1.031145e+01
0	 5.481481e+00	 4.444444e+00	 1.030556e+01
0	 5.555556e+00	 4.074074e+00	 1.032584e+01
0	 5.555556e+00	 4.148148e+00	 1.032078e+01
0	 5.555556e+00	 4.222222e+00	 1.031560e+01
0	 5.555556e+00	 4.296296e+00	 1.031030e+01
0	 5.555556e+00	 4.370370e+00	 1.030486e+01
0	 5.555556e+00	 4.444444e+00	 1.029926e+01
0	 5.185185e+00	 4.444444e+00	 1.032884e+01
0	 5.185185e+00	 4.518519e+00	 1.032161e+01
0	 5.185185e+00	 4.592593e+00	 1.031437e+01
0	 5.185185e+00	 4.666667e+00	 1.030711e+01
0	 5.185185e+00	 4.740741e+00	 1.029982e+01
0	 5.185185e+00	 4.814815e+00	 1.029249e+01
0	 5.259259e+00	 4.444444e+00	 1.032336e+01
0	 5.259259e+00	 4.518519e+00	 1.031646e+01
0	 5.259259e+00	 4.592593e+00	 1.030953e+01
0	 5.259259e+00	 4.666667e+00	 1.030258e+01
0	 5.259259e+00	 4.740741e+00	 1.029558e+01
0	 5.259259e+00	 4.814815e+00	 1.028853e+01
0	 5.333333e+00	 4.444444e+00	 1.031764e+01
0	 5.333333e+00	 4.518519e+00	 1.031105e+01
0	 5.333333e+00	 4.592593e+00	 1.030443e+01
0	 5.333333e+00	 4.666667e+00	 1.029777e+01
0	 5.333333e+00	 4.740741e+00	 1.029106e+01
0	 5.333333e+00	 4.814815e+00	 1.028429e+01
0	 5.407407e+00	 4.444444e+00	 1.031169e+01
0	 5.407407e+00	 4.518519e+00	 1.030541e+01
0	 5.407407e+00	 4.592593e+00	 1.029909e+01
0	 5.407407e+00	 4.666667e+00	 1.029272e+01
0	 5.407407e+00	 4.740741e+00	 1.028629e+01
0	 5.407407e+00	 4.814815e+00	 1.027980e+01
0	 5.481481e+00	 4.444444e+00	 1.030556e+01
0	 5.481481e+00	 4.518519e+00	 1.029957e+01
0	 5.481481e+00	 4.592593e+00	 1.029354e+01
0	 5.481481e+00	 4.666667e+00	 1.028746e+01
0	 5.481481e+00	 4.740741e+00	 1.028131e+01
0	 5.481481e+00	 4.814815e+00	 1.027508e+01
0	 5.555556e+00	 4.444444e+00	 1.029926e+01
0	 5.555556e+00	 4.518519e+00	 1.029357e+01
0	 5.555556e+00	 4.592593e+00	 1.028782e+01
0	 5.555556e+00	 4.666667e+00	 1.028202e+01
0	 5.555556e+00	 4.740741e+00	 1.027614e+01
0	 5.555556e+00	 4.814815e+00	 1.027018e+01
0	 5.185185e+00	 4.814815e+00	 1.029249e+01
0	 5.185185e+00	 4.888889e+00	 1.028515e+01
0	 5.185185e+00	 4.962963e+00	 1.027787e+01
0	 5.185185e+00	 5.037037e+00	 1.027062e+01
0	 5.185185e+00	 5.111111e+00	 1.026340e+01
0	 5.185185e+00	 5.185185e+00	 1.025620e+01
0	 5.259259e+00	 4.814815e+00	 1.028853e+01
0	 5.259259e+00	 4.888889e+00	 1.028146e+01
0	 5.259259e+00	 4.962963e+00	 1.027444e+01
0	 5.259259e+00	 5.037037e+00	 1.026745e+01
0	 5.259259e+00	 5.111111e+00	 1.026047e+01
0	 5.259259e+00	 5.185185e+00	 1.025350e+01
0	 5.333333e+00	 4.814815e+00	 1.028429e+01
0	 5.333333e+00	 4.888889e+00	 1.027750e+01
0	 5.333333e+00	 4.962963e+00	 1.027073e+01
0	 5.333333e+00	 5.037037e+00	 1.026399e+01
0	 5.333333e+00	 5.111111e+00	 1.025725e+01
0	 5.333333e+00	 5.185185e+00	 1.025051e+01
0	 5.407407e+00	 4.814815e+00	 1.027980e+01
0	 5.407407e+00	 4.888889e+00	 1.027327e+01
0	 5.407407e+00	 4.962963e+00	 1.026677e+01
0	 5.407407e+00	 5.037037e+00	 1.026027e+01
0	 5.407407e+00	 5.111111e+00	 1.025377e+01
0	 5.407407e+00	 5.185185e+00	 1.024725e+01
0	 5.481481e+00	 4.814815e+00	 1.027508e+01
0	 5.481481e+00	 4.888889e+00	 1.026882e+01
0	 5.481481e+00	 4.962963e+00	 1.026257e+01
0	 5.481481e+00	 5.037037e+00	 1.025631e+01
0	 5.481481e+00	 5.111111e+00	 1.025004e+01
0	 5.481481e+00	 5.185185e+00	 1.024376e+01
0	 5.555556e+00	 4.814815e+00	 1.027018e+01
0	 5.555556e+00	 4.888889e+00	 1.026417e+01
0	 5.555556e+00	 4.962963e+00	 1.025817e+01
0	 5.555556e+00	 5.037037e+00	 1.025215e+01
0	 5.555556e+00	 5.111111e+00	 1.024611e+01
0	 5.555556e+00	 5.185185e+00	 1.024005e+01
0	 5.185185e+00	 5.185185e+00	 1.025620e+01
0	 5.185185e+00	 5.259259e+00	 1.024905e+01
0	 5.185185e+00	 5.333333e+00	 1.024199e+01
0	 5.185185e+00	 5.407407e+00	 1.023500e+01
0	 5.185185e+00	 5.481481e+00	 1.022807e+01
0	 5.185185e+00	 5.555556e+00	 1.022121e+01
0	 5.259259e+00	 5.185185e+00	 1.025350e+01
0	 5.259259e+00	 5.259259e+00	 1.024657e+01
0	 5.259259e+00	 5.333333e+00	 1.023971e+01
0	 5.259259e+00	 5.407407e+00	 1.023292e+01
0	 5.259259e+00	 5.481481e+00	 1.022618e+01
0	 5.259259e+00	 5.555556e+00	 1.021949e+01
0	 5.333333e+00	 5.185185e+00	 1.025051e+01
0	 5.333333e+00	 5.259259e+00	 1.024380e+01
0	 5.333333e+00	 5.333333e+00	 1.023715e+01
0	 5.333333e+00	 5.407407e+00	 1.023055e+01
0	 5.333333e+00	 5.481481e+00	 1.022400e+01
0	 5.333333e+00	 5.555556e+00	 1.021749e+01
0	 5.407407e+00	 5.185185e+00	 1.024725e+01
0	 5.407407e+00	 5.259259e+00	 1.024076e+01
0	 5.407407e+00	 5.333333e+00	 1.023431e+01
0	 5.407407e+00	 5.407407e+00	 1.022792e+01
0	 5.407407e+00	 5.481481e+00	 1.022156e+01
0	 5.407407e+00	 5.555556e+00	 1.021523e+01
0	 5.481481e+00	 5.185185e+00	 1.024376e+01
0	 5.481481e+00	 5.259259e+00	 1.023748e+01
0	 5.481481e+00	 5.333333e+00	 1.023124e+01
0	 5.481481e+00	 5.407407e+00	 1.022505e+01
0	 5.481481e+00	 5.481481e+00	 1.021888e+01
0	 5.481481e+00	 5.555556e+00	 1.021273e+01
0	 5.555556e+00	 5.185185e+00	 1.024005e+01
0	 5.555556e+00	 5.259259e+00	 1.023398e+01
0	 5.555556e+00	 5.333333e+00	 1.022796e+01
0	 5.555556e+00	 5.407407e+00	 1.022196e+01
0	 5.555556e+00	 5.481481e+00	 1.021598e+01
0	 5.555556e+00	 5.555556e+00	 1.021002e+01
0	 5.185185e+00	 5.555556e+00	 1.022121e+01
0	 5.185185e+00	 5.629630e+00	 1.021442e+01
0	 5.185185e+00	 5.703704e+00	 1.020775e+01
0	 5.185185e+00	 5.777778e+00	 1.020117e+01
0	 5.185185e+00	 5.851852e+00	 1.019468e+01
0	 5.185185e+00	 5.925926e+00	 1.018827e+01
0	 5.259259e+00	 5.555556e+00	 1.021949e+01
0	 5.259259e+00	 5.629630e+00	 1.021287e+01
0	 5.259259e+00	 5.703704e+00	 1.020635e+01
0	 5.259259e+00	 5.777778e+00	 1.019992e+01
0	 5.259259e+00	 5.851852e+00	 1.019357e+01
0	 5.259259e+00	 5.925926e+00	 1.018730e+01
0	 5.333333e+00	 5.555556e+00	 1.021749e+01
0	 5.333333e+00	 5.629630e+00	 1.021104e+01
0	 5.333333e+00	 5.703704e+00	 1.020468e+01
0	 5.333333e+00	 5.777778e+00	 1.019840e+01
0	 5.333333e+00	 5.851852e+00	 1.019220e+01
0	 5.333333e+00	 5.925926e+00	 1.018606e+01
0	 5.407407e+00	 5.555556e+00	 1.021523e+01
0	 5.407407e+00	 5.629630e+00	 1.020896e+01
0	 5.407407e+00	 5.703704e+00	 1.020276e+01
0	 5.407407e+00	 5.777778e+00	 1.019663e+01
0	 5.407407e+00	 5.851852e+00	 1.019057e+01
0	 5.407407e+00	 5.925926e+00	 1.018457e+01
0	 5.481481e+00	 5.555556e+00	 1.021273e+01
0	 5.481481e+00	 5.629630e+00	 1.020663e+01
0	 5.481481e+00	 5.703704e+00	 1.020060e+01
0	 5.481481e+00	 5.777778e+00	 1.019463e+01
0	 5.481481e+00	 5.851852e+00	 1.018872e+01
0	 5.481481e+00	 5.925926e+00	 1.018286e+01
0	 5.555556e+00	 5.555556e+00	 1.021002e+01
0	 5.555556e+00	 5.629630e+00	 1.020409e+01
0	 5.555556e+00	 5.703704e+00	 1.019823e+01
0	 5.555556e+00	 5.777778e+00	 1.019242e+01
0	 5.555556e+00	 5.851852e+00	 1.018666e+01
0	 5.555556e+00	 5.925926e+00	 1.018094e+01
0	 5.185185e+00	 5.925926e+00	 1.018827e+01
0	 5.185185e+00	 6.000000e+00	 1.018197e+01
0	 5.185185e+00	 6.074074e+00	 1.017578e+01
0	 5.185185e+00	 6.148148e+00	 1.016970e+01
0	 5.185185e+00	 6.222222e+00	 1.016373e+01
0	 5.185185e+00	 6.296296e+00	 1.015785e+01
0	 5.259259e+00	 5.925926e+00	 1.018730e+01
0	 5.259259e+00	 6.000000e+00	 1.018112e+01
0	 5.259259e+00	 6.074074e+00	 1.017504e+01
0	 5.259259e+00	 6.148148e+00	 1.016906e+01
0	 5.259259e+00	 6.222222e+00	 1.016318e+01
0	 5.259259e+00	 6.296296e+00	 1.015740e+01
0	 5.333333e+00	 5.925926e+00	 1.018606e+01
0	 5.333333e+00	 6.000000e+00	 1.018000e+01
0	 5.333333e+00	 6.074074e+00	 1.017404e+01
0	 5.333333e+00	 6.148148e+00	 1.016817e+01
0	 5.333333e+00	 6.222222e+00	 1.016240e+01
0	 5.333333e+00	 6.296296e+00	 1.015670e+01
0	 5.407407e+00	 5.925926e+00	 1.018457e+01
0	 5.407407e+00	 6.000000e+00	 1.017864e+01
0	 5.407407e+00	 6.074074e+00	 1.017280e+01
0	 5.407407e+00	 6.148148e+00	 1.016705e+01
0	 5.407407e+00	 6.222222e+00	 1.016138e+01
0	 5.407407e+00	 6.296296e+00	 1.015579e+01
0	 5.481481e+00	 5.925926e+00	 1.018286e+01
0	 5.481481e+00	 6.000000e+00	 1.017706e+01
0	 5.481481e+00	 6.074074e+00	 1.017135e+01
0	 5.481481e+00	 6.148148e+00	 1.016572e+01
0	 5.481481e+00	 6.222222e+00	 1.016016e+01
0	 5.481481e+00	 6.296296e+00	 1.015467e+01
0	 5.555556e+00	 5.925926e+00	 1.018094e+01
0	 5.555556e+00	 6.000000e+00	 1.017528e+01
0	 5.555556e+00	 6.074074e+00	 1.016970e+01
0	 5.555556e+00	 6.148148e+00	 1.016419e+01
0	 5.555556e+00	 6.222222e+00	 1.015875e+01
0	 5.555556e+00	 6.296296e+00	 1.015337e+01
0	 5.185185e+00	 6.296296e+00	 1.015785e+01
0	 5.185185e+00	 6.370370e+00	 1.015208e+01
0	 5.185185e+00	 6.444444e+00	 1.014642e+01
0	 5.185185e+00	 6.518519e+00	 1.014088e+01
0	 5.185185e+00	 6.592593e+00	 1.013545e+01
0	 5.185185e+00	 6.666667e+00	 1.013012e+01
0	 5.259259e+00	 6.296296e+00	 1.015740e+01
0	 5.259259e+00	 6.370370e+00	 1.015171e+01
0	 5.259259e+00	 6.444444e+00	 1.014613e+01
0	 5.259259e+00	 6.518519e+00	 1.014065e+01
0	 5.259259e+00	 6.592593e+00	 1.013528e+01
0	 5.259259e+00	 6.666667e+00	 1.013001e+01
0	 5.333333e+00	 6.296296e+00	 1.015670e+01
0	 5.333333e+00	 6.370370e+00	 1.015110e+01
0	 5.333333e+00	 6.444444e+00	 1.014561e+01
0	 5.333333e+00	 6.518519e+00	 1.014021e+01
0	 5.333333e+00	 6.592593e+00	 1.013491e+01
0	 5.333333e+00	 6.666667e+00	 1.012970e+01
0	 5.407407e+00	 6.296296e+00	 1.015579e+01
0	 5.407407e+00	 6.370370e+00	 1.015028e+01
0	 5.407407e+00	 6.444444e+00	 1.014487e+01
0	 5.407407e+00	 6.518519e+00	 1.013956e+01
0	 5.407407e+00	 6.592593e+00	 1.013433e+01
0	 5.407407e+00	 6.666667e+00	 1.012919e+01
0	 5.481481e+00	 6.296296e+00	 1.015467e+01
0	 5.481481e+00	 6.370370e+00	 1.014926e+01
0	 5.481481e+00	 6.444444e+00	 1.014395e+01
0	 5.481481e+00	 6.518519e+00	 1.013872e+01
0	 5.481481e+00	 6.592593e+00	 1.013357e+01
0	 5.481481e+00	 6.666667e+00	 1.012850e+01
0	 5.555556e+00	 6.296296e+00	 1.015337e+01
0	 5.555556e+00	 6.370370e+00	 1.014806e+01
0	 5.555556e+00	 6.444444e+00	 1.014284e+01
0	 5.555556e+00	 6.518519e+00	 1.013770e+01
0	 5.555556e+00	 6.592593e+00	 1.013263e+01
0	 5.555556e+00	 6.666667e+00	 1.012764e+01
0	 5.185185e+00	 6.666667e+00	 1.013012e+01
0	 5.185185e+00	 6.740741e+00	 1.012490e+01
0	 5.185185e+00	 6.814815e+00	 1.011979e+01
0	 5.185185e+00	 6.888889e+00	 1.011479e+01
0	 5.185185e+00	 6.962963e+00	 1.010990e+01
0	 5.185185e+00	 7.037037e+00	 1.010511e+01
0	 5.259259e+00	 6.666667e+00	 1.013001e+01
0	 5.259259e+00	 6.740741e+00	 1.012484e+01
0	 5.259259e+00	 6.814815e+00	 1.011978e+01
0	 5.259259e+00	 6.888889e+00	 1.011482e+01
0	 5.259259e+00	 6.962963e+00	 1.010996e+01
0	 5.259259e+00	 7.037037e+00	 1.010521e+01
0	 5.333333e+00	 6.666667e+00	 1.012970e+01
0	 5.333333e+00	 6.740741e+00	 1.012458e+01
0	 5.333333e+00	 6.814815e+00	 1.011957e+01
0	 5.333333e+00	 6.888889e+00	 1.011466e+01
0	 5.333333e+00	 6.962963e+00	 1.010985e+01
0	 5.333333e+00	 7.037037e+00	 1.010513e+01
0	 5.407407e+00	 6.666667e+00	 1.012919e+01
0	 5.407407e+00	 6.740741e+00	 1.012414e+01
0	 5.407407e+00	 6.814815e+00	 1.011919e+01
0	 5.407407e+00	 6.888889e+00	 1.011433e+01
0	 5.407407e+00	 6.962963e+00	 1.010957e+01
0	 5.407407e+00	 7.037037e+00	 1.010489e+01
0	 5.481481e+00	 6.666667e+00	 1.012850e+01
0	 5.481481e+00	 6.740741e+00	 1.012352e+01
0	 5.481481e+00	 6.814815e+00	 1.011863e+01
0	 5.481481e+00	 6.888889e+00	 1.011383e+01
0	 5.481481e+00	 6.962963e+00	 1.010912e+01
0	 5.481481e+00	 7.037037e+00	 1.010450e+01
0	 5.555556e+00	 6.666667e+00	 1.012764e+01
0	 5.555556e+00	 6.740741e+00	 1.012274e+01
0	 5.555556e+00	 6.814815e+00	 1.011792e+01
0	 5.555556e+00	 6.888889e+00	 1.011318e+01
0	 5.555556e+00	 6.962963e+00	 1.010853e+01
0	 5.555556e+00	 7.037037e+00	 1.010396e+01
0	 5.185185e+00	 7.037037e+00	 1.010511e+01
0	 5.185185e+00	 7.111111e+00	 1.010043e+01
0	 5.185185e+00	 7.185185e+00	 1.009586e+01
0	 5.185185e+00	 7.259259e+00	 1.009139e+01
0	 5.185185e+00	 7.333333e+00	 1.008702e+01
0	 5.185185e+00	 7.407407e+00	 1.008275e+01
0	 5.259259e+00	 7.037037e+00	 1.010521e+01
0	 5.259259e+00	 7.111111e+00	 1.010055e+01
0	 5.259259e+00	 7.185185e+00	 1.009600e+01
0	 5.259259e+00	 7.259259e+00	 1.009155e+01
0	 5.259259e+00	 7.333333e+00	 1.008720e+01
0	 5.259259e+00	 7.407407e+00	 1.008295e+01
0	 5.333333e+00	 7.037037e+00	 1.010513e+01
0	 5.333333e+00	 7.111111e+00	 1.010051e+01
0	 5.333333e+00	 7.185185e+00	 1.009599e+01
0	 5.333333e+00	 7.259259e+00	 1.009156e+01
0	 5.333333e+00	 7.333333e+00	 1.008724e+01
0	 5.333333e+00	 7.407407e+00	 1.008300e+01
0	 5.407407e+00	 7.037037e+00	 1.010489e+01
0	 5.407407e+00	 7.111111e+00	 1.010031e+01
0	 5.407407e+00	 7.185185e+00	 1.009582e+01
0	 5.407407e+00	 7.259259e+00	 1.009143e+01
0	 5.407407e+00	 7.333333e+00	 1.008713e+01
0	 5.407407e+00	 7.407407e+00	 1.008292e+01
0	 5.481481e+00	 7.037037e+00	 1.010450e+01
0	 5.481481e+00	 7.111111e+00	 1.009996e+01
0	 5.481481e+00	 7.185185e+00	 1.009551e+01
0	 5.481481e+00	 7.259259e+00	 1.009116e+01
0	 5.481481e+00	 7.333333e+00	 1.008690e+01
0	 5.481481e+00	 7.407407e+00	 1.008272e+01
0	 5.555556e+00	 7.037037e+00	 1.010396e+01
0	 5.555556e+00	 7.111111e+00	 1.009947e+01
0	 5.555556e+00	 7.185185e+00	 1.009508e+01
0	 5.555556e+00	 7.259259e+00	 1.009077e+01
0	 5.555556e+00	 7.333333e+00	 1.008654e+01
0	 5.555556e+00	 7.407407e+00	 1.008240e+01
0	 5.185185e+00	 7.407407e+00	 1.008275e+01
0	 5.185185e+00	 7.481481e+00	 1.007859e+01
0	 5.185185e+00	 7.555556e+00	 1.007453e+01
0	 5.185185e+00	 7.629630e+00	 1.007057e+01
0	 5.185185e+00	 7.703704e+00	 1.006671e+01
0	 5.185185e+00	 7.777778e+00	 1.006294e+01
0	 5.259259e+00	 7.407407e+00	 1.008295e+01
0	 5.259259e+00	 7.481481e+00	 1.007879e+01
0	 5.259259e+00	 7.555556e+00	 1.007474e+01
0	 5.259259e+00	 7.629630e+00	 1.007078e+01
0	 5.259259e+00	 7.703704e+00	 1.006692e+01
0	 5.259259e+00	 7.777778e+00	 1.006316e+01
0	 5.333333e+00	 7.407407e+00	 1.008300e+01
0	 5.333333e+00	 7.481481e+00	 1.007886e+01
0	 5.333333e+00	 7.555556e+00	 1.007482e+01
0	 5.333333e+00	 7.629630e+00	 1.007088e+01
0	 5.333333e+00	 7.703704e+00	 1.006703e+01
0	 5.333333e+00	 7.777778e+00	 1.006326e+01
0	 5.407407e+00	 7.407407e+00	 1.008292e+01
0	 5.407407e+00	 7.481481e+00	 1.007880e+01
0	 5.407407e+00	 7.555556e+00	 1.007478e+01
0	 5.407407e+00	 7.629630e+00	 1.007086e+01
0	 5.407407e+00	 7.703704e+00	 1.006702e+01
0	 5.407407e+00	 7.777778e+00	 1.006327e+01
0	 5.481481e+00	 7.407407e+00	 1.008272e+01
0	 5.481481e+00	 7.481481e+00	 1.007863e+01
0	 5.481481e+00	 7.555556e+00	 1.007463e+01
0	 5.481481e+00	 7.629630e+00	 1.007073e+01
0	 5.481481e+00	 7.703704e+00	 1.006691e+01
0	 5.481481e+00	 7.777778e+00	 1.006318e+01
0	 5.555556e+00	 7.407407e+00	 1.008240e+01
0	 5.555556e+00	 7.481481e+00	 1.007834e+01
0	 5.555556e+00	 7.555556e+00	 1.007437e+01
0	 5.555556e+00	 7.629630e+00	 1.007049e+01
0	 5.555556e+00	 7.703704e+00	 1.006670e+01
0	 5.555556e+00	 7.777778e+00	 1.006299e+01
0	 5.185185e+00	 7.777778e+00	 1.006294e+01
0	 5.185185e+00	 7.851852e+00	 1.005927e+01
0	 5.185185e+00	 7.925926e+00	 1.005571e+01
0	 5.185185e+00	 8.000000e+00	 1.005224e+01
0	 5.185185e+00	 8.074074e+00	 1.004887e+01
0	 5.185185e+00	 8.148148e+00	 1.004559e+01
0	 5.259259e+00	 7.777778e+00	 1.006316e+01
0	 5.259259e+00	 7.851852e+00	 1.005949e+01
0	 5.259259e+00	 7.925926e+00	 1.005592e+01
0	 5.259259e+00	 8.000000e+00	 1.005244e+01
0	 5.259259e+00	 8.074074e+00	 1.004906e+01
0	 5.259259e+00	 8.148148e+00	 1.004578e+01
0	 5.333333e+00	 7.777778e+00	 1.006326e+01
0	 5.333333e+00	 7.851852e+00	 1.005960e+01
0	 5.333333e+00	 7.925926e+00	 1.005603e+01
0	 5.333333e+00	 8.000000e+00	 1.005256e+01
0	 5.333333e+00	 8.074074e+00	 1.004918e+01
0	 5.333333e+00	 8.148148e+00	 1.004589e+01
0	 5.407407e+00	 7.777778e+00	 1.006327e+01
0	 5.407407e+00	 7.851852e+00	 1.005961e+01
0	 5.407407e+00	 7.925926e+00	 1.005605e+01
0	 5.407407e+00	 8.000000e+00	 1.005259e+01
0	 5.407407e+00	 8.074074e+00	 1.004921e+01
0	 5.407407e+00	 8.148148e+00	 1.004592e+01
0	 5.481481e+00	 7.777778e+00	 1.006318e+01
0	 5.481481e+00	 7.851852e+00	 1.005953e+01
0	 5.481481e+00	 7.925926e+00	 1.005599e+01
0	 5.481481e+00	 8.000000e+00	 1.005253e+01
0	 5.481481e+00	 8.074074e+00	 1.004917e+01
0	 5.481481e+00	 8.148148e+00	 1.004589e+01
0	 5.555556e+00	 7.777778e+00	 1.006299e+01
0	 5.555556e+00	 7.851852e+00	 1.005937e+01
0	 5.555556e+00	 7.925926e+00	 1.005584e+01
0	 5.555556e+00	 8.000000e+00	 1.005240e+01
0	 5.555556e+00	 8.074074e+00	 1.004905e+01
0	 5.555556e+00	 8.148148e+00	 1.004578e+01
0	 5.185185e+00	 8.148148e+00	 1.004559e+01
0	 5.185185e+00	 8.222222e+00	 1.004240e+01
0	 5.185185e+00	 8.296296e+00	 1.003932e+01
0	 5.185185e+00	 8.370370e+00	 1.003634e+01
0	 5.185185e+00	 8.444444e+00	 1.003346e+01
0	 5.185185e+00	 8.518519e+00	 1.003067e+01
0	 5.259259e+00	 8.148148e+00	 1.004578e+01
0	 5.259259e+00	 8.222222e+00	 1.004259e+01
0	 5.259259e+00	 8.296296e+00	 1.003950e+01
0	 5.259259e+00	 8.370370e+00	 1.003651e+01
0	 5.259259e+00	 8.444444e+00	 1.003361e+01
0	 5.259259e+00	 8.518519e+00	 1.003081e+01
0	 5.333333e+00	 8.148148e+00	 1.004589e+01
0	 5.333333e+00	 8.222222e+00	 1.004269e+01
0	 5.333333e+00	 8.296296e+00	 1.003960e+01
0	 5.333333e+00	 8.370370e+00	 1.003660e+01
0	 5.333333e+00	 8.444444e+00	 1.003370e+01
0	 5.333333e+00	 8.518519e+00	 1.003089e+01
0	 5.407407e+00	 8.148148e+00	 1.004592e+01
0	 5.407407e+00	 8.222222e+00	 1.004273e+01
0	 5.407407e+00	 8.296296e+00	 1.003964e+01
0	 5.407407e+00	 8.370370e+00	 1.003664e+01
0	 5.407407e+00	 8.444444e+00	 1.003374e+01
0	 5.407407e+00	 8.518519e+00	 1.003093e+01
0	 5.481481e+00	 8.148148e+00	 1.004589e+01
0	 5.481481e+00	 8.222222e+00	 1.004270e+01
0	 5.481481e+00	 8.296296e+00	 1.003961e+01
0	 5.481481e+00	 8.370370e+00	 1.003662e+01
0	 5.481481e+00	 8.444444e+00	 1.003372e+01
0	 5.481481e+00	 8.518519e+00	 1.003091e+01
0	 5.555556e+00	 8.148148e+00	 1.004578e+01
0	 5.555556e+00	 8.222222e+00	 1.004260e+01
0	 5.555556e+00	 8.296296e+00	 1.003953e+01
0	 5.555556e+00	 8.370370e+00	 1.003655e+01
0	 5.555556e+00	 8.444444e+00	 1.003366e+01
0	 5.555556e+00	 8.518519e+00	 1.003085e+01
0	 5.185185e+00	 8.518519e+00	 1.003067e+01
0	 5.185185e+00	 8.592593e+00	 1.002798e+01
0	 5.185185e+00	 8.666667e+00	 1.002540e+01
0	 5.185185e+00	 8.740741e+00	 1.002293e+01
0	 5.185185e+00	 8.814815e+00	 1.002056e+01
0	 5.185185e+00	 8.888889e+00	 1.001828e+01
0	 5.259259e+00	 8.518519e+00	 1.003081e+01
0	 5.259259e+00	 8.592593e+00	 1.002811e+01
0	 5.259259e+00	 8.666667e+00	 1.002552e+01
0	 5.259259e+00	 8.740741e+00	 1.002303e+01
0	 5.259259e+00	 8.814815e+00	 1.002065e+01
0	 5.259259e+00	 8.888889e+00	 1.001837e+01
0	 5.333333e+00	 8.518519e+00	 1.003089e+01
0	 5.333333e+00	 8.592593e+00	 1.002819e+01
0	 5.333333e+00	 8.666667e+00	 1.002559e+01
0	 5.333333e+00	 8.740741e+00	 1.002310e+01
0	 5.333333e+00	 8.814815e+00	 1.002071e+01
0	 5.333333e+00	 8.888889e+00	 1.001842e+01
0	 5.407407e+00	 8.518519e+00	 1.003093e+01
0	 5.407407e+00	 8.592593e+00	 1.002822e+01
0	 5.407407e+00	 8.666667e+00	 1.002562e+01
0	 5.407407e+00	 8.740741e+00	 1.002313e+01
0	 5.407407e+00	 8.814815e+00	 1.002073e+01
0	 5.407407e+00	 8.888889e+00	 1.001844e+01
0	 5.481481e+00	 8.518519e+00	 1.003091e+01
0	 5.481481e+00	 8.592593e+00	 1.002821e+01
0	 5.481481e+00	 8.666667e+00	 1.002561e+01
0	 5.481481e+00	 8.740741e+00	 1.002312e+01
0	 5.481481e+00	 8.814815e+00	 1.002073e+01
0	 5.481481e+00	 8.888889e+00	 1.001843e+01
0	 5.555556e+00	 8.518519e+00	 1.003085e+01
0	 5.555556e+00	 8.592593e+00	 1.002815e+01
0	 5.555556e+00	 8.666667e+00	 1.002556e+01
0	 5.555556e+00	 8.740741e+00	 1.002307e+01
0	 5.555556e+00	 8.814815e+00	 1.002069e+01
0	 5.555556e+00	 8.888889e+00	 1.001840e+01
0	 5.185185e+00	 8.888889e+00	 1.001828e+01
0	 5.185185e+00	 8.962963e+00	 1.001612e+01
0	 5.185185e+00	 9.037037e+00	 1.001409e+01
0	 5.185185e+00	 9.111111e+00	 1.001217e+01
0	 5.185185e+00	 9.185185e+00	 1.001037e+01
0	 5.185185e+00	 9.259259e+00	 1.000868e+01
0	 5.259259e+00	 8.888889e+00	 1.001837e+01
0	 5.259259e+00	 8.962963e+00	 1.001619e+01
0	 5.259259e+00	 9.037037e+00	 1.001415e+01
0	 5.259259e+00	 9.111111e+00	 1.001222e+01
0	 5.259259e+00	 9.185185e+00	 1.001042e+01
0	 5.259259e+00	 9.259259e+00	 1.000872e+01
0	 5.333333e+00	 8.888889e+00	 1.001842e+01
0	 5.333333e+00	 8.962963e+00	 1.001624e+01
0	 5.333333e+00	 9.037037e+00	 1.001419e+01
0	 5.333333e+00	 9.111111e+00	 1.001226e+01
0	 5.333333e+00	 9.185185e+00	 1.001044e+01
0	 5.333333e+00	 9.259259e+00	 1.000874e+01
0	 5.407407e+00	 8.888889e+00	 1.001844e+01
0	 5.407407e+00	 8.962963e+00	 1.001626e+01
0	 5.407407e+00	 9.037037e+00	 1.001420e+01
0	 5.407407e+00	 9.111111e+00	 1.001227e+01
0	 5.407407e+00	 9.185185e+00	 1.001045e+01
0	 5.407407e+00	 9.259259e+00	 1.000875e+01
0	 5.481481e+00	 8.888889e+00	 1.001843e+01
0	 5.481481e+00	 8.962963e+00	 1.001625e+01
0	 5.481481e+00	 9.037037e+00	 1.001420e+01
0	 5.481481e+00	 9.111111e+00	 1.001226e+01
0	 5.481481e+00	 9.185185e+00	 1.001045e+01
0	 5.481481e+00	 9.259259e+00	 1.000874e+01
0	 5.555556e+00	 8.888889e+00	 1.001840e+01
0	 5.555556e+00	 8.962963e+00	 1.001622e+01
0	 5.555556e+00	 9.037037e+00	 1.001417e+01
0	 5.555556e+00	 9.111111e+00	 1.001224e+01
0	 5.555556e+00	 9.185185e+00	 1.001043e+01
0	 5.555556e+00	 9.259259e+00	 1.000872e+01
0	 5.185185e+00	 9.259259e+00	 1.000868e+01
0	 5.185185e+00	 9.333333e+00	 1.000712e+01
0	 5.185185e+00	 9.407407e+00	 1.000571e+01
0	 5.185185e+00	 9.481481e+00	 1.000445e+01
0	 5.185185e+00	 9.555556e+00	 1.000333e+01
0	 5.185185e+00	 9.629630e+00	 1.000234e+01
0	 5.259259e+00	 9.259259e+00	 1.000872e+01
0	 5.259259e+00	 9.333333e+00	 1.000715e+01
0	 5.259259e+00	 9.407407e+00	 1.000574e+01
0	 5.259259e+00	 9.481481e+00	 1.000447e+01
0	 5.259259e+00	 9.555556e+00	 1.000334e+01
0	 5.259259e+00	 9.629630e+00	 1.000235e+01
0	 5.333333e+00	 9.259259e+00	 1.000874e+01
0	 5.333333e+00	 9.333333e+00	 1.000716e+01
0	 5.333333e+00	 9.407407e+00	 1.000575e+01
0	 5.333333e+00	 9.481481e+00	 1.000448e+01
0	 5.333333e+00	 9.555556e+00	 1.000335e+01
0	 5.333333e+00	 9.629630e+00	 1.000235e+01
0	 5.407407e+00	 9.259259e+00	 1.000875e+01
0	 5.407407e+00	 9.333333e+00	 1.000717e+01
0	 5.407407e+00	 9.407407e+00	 1.000575e+01
0	 5.407407e+00	 9.481481e+00	 1.000448e+01
0	 5.407407e+00	 9.555556e+00	 1.000335e+01
0	 5.407407e+00	 9.629630e+00	 1.000235e+01
0	 5.481481e+00	 9.259259e+00	 1.000874e+01
0	 5.481481e+00	 9.333333e+00	 1.000717e+01
0	 5.481481e+00	 9.407407e+00	 1.000575e+01
0	 5.481481e+00	 9.481481e+00	 1.000448e+01
0	 5.481481e+00	 9.555556e+00	 1.000335e+01
0	 5.481481e+00	 9.629630e+00	 1.000235e+01
0	 5.555556e+00	 9.259259e+00	 1.000872e+01
0	 5.555556e+00	 9.333333e+00	 1.000715e+01
0	 5.555556e+00	 9.407407e+00	 1.000573e+01
0	 5.555556e+00	 9.481481e+00	 1.000447e+01
0	 5.555556e+00	 9.555556e+00	 1.000334e+01
0	 5.555556e+00	 9.629630e+00	 1.000234e+01
0	 5.185185e+00	 9.629630e+00	 1.000234e+01
0	 5.185185e+00	 9.703704e+00	 1.000151e+01
0	 5.185185e+00	 9.777778e+00	 1.000086e+01
0	 5.185185e+00	 9.851852e+00	 1.000040e+01
0	 5.185185e+00	 9.925926e+00	 1.000011e+01
0	 5.185185e+00	 1.000000e+01	 9.999973e+00
0	 5.259259e+00	 9.629630e+00	 1.000235e+01
0	 5.259259e+00	 9.703704e+00	 1.000151e+01
0	 5.259259e+00	 9.777778e+00	 1.000087e+01
0	 5.259259e+00	 9.851852e+00	 1.000040e+01
0	 5.259259e+00	 9.925926e+00	 1.000011e+01
0	 5.259259e+00	 1.000000e+01	 9.999973e+00
0	 5.333333e+00	 9.629630e+00	 1.000235e+01
0	 5.333333e+00	 9.703704e+00	 1.000151e+01
0	 5.333333e+00	 9.777778e+00	 1.000087e+01
0	 5.333333e+00	 9.851852e+00	 1.000040e+01
0	 5.333333e+00	 9.925926e+00	 1.000011e+01
0	 5.333333e+00	 1.000000e+01	 9.999973e+00
0	 5.407407e+00	 9.629630e+00	 1.000235e+01
0	 5.407407e+00	 9.703704e+00	 1.000151e+01
0	 5.407407e+00	 9.777778e+00	 1.000087e+01
0	 5.407407e+00	 9.851852e+00	 1.000040e+01
0	 5.407407e+00	 9.925926e+00	 1.000011e+01
0	 5.407407e+00	 1.000000e+01	 9.999973e+00
0	 5.481481e+00	 9.629630e+00	 1.000235e+01
0	 5.481481e+00	 9.703704e+00	 1.000151e+01
0	 5.481481e+00	 9.777778e+00	 1.000087e+01
0	 5.481481e+00	 9.851852e+00	 1.000040e+01
0	 5.481481e+00	 9.925926e+00	 1.000011e+01
0	 5.481481e+00	 1.000000e+01	 9.999974e+00
0	 5.555556e+00	 9.629630e+00	 1.000234e+01
0	 5.555556e+00	 9.703704e+00	 1.000151e+01
0	 5.555556e+00	 9.777778e+00	 1.000086e+01
0	 5.555556e+00	 9.851852e+00	 1.000040e+01
0	 5.555556e+00	 9.925926e+00	 1.000011e+01
0	 5.555556e+00	 1.000000e+01	 9.999975e+00
0	 5.555556e+00	 0.000000e+00	 1.025110e+01
0	 5.555556e+00	 7.407407e-02	 1.025135e+01
0	 5.555556e+00	 1.481481e-01	 1.025202e+01
0	 5.555556e+00	 2.222222e-01	 1.025314e+01
0	 5.555556e+00	 2.962963e-01	 1.025471e+01
0	 5.555556e+00	 3.703704e-01	 1.025675e+01
0	 5.629630e+00	 0.000000e+00	 1.024169e+01
0	 5.629630e+00	 7.407407e-02	 1.024195e+01
0	 5.629630e+00	 1.481481e-01	 1.024261e+01
0	 5.629630e+00	 2.222222e-01	 1.024368e+01
0	 5.629630e+00	 2.962963e-01	 1.024519e+01
0	 5.629630e+00	 3.703704e-01	 1.024713e+01
0	 5.703704e+00	 0.000000e+00	 1.023241e+01
0	 5.703704e+00	 7.407407e-02	 1.023266e+01
0	 5.703704e+00	 1.481481e-01	 1.023330e+01
0	 5.703704e+00	 2.222222e-01	 1.023434e+01
0	 5.703704e+00	 2.962963e-01	 1.023578e+01
0	 5.703704e+00	 3.703704e-01	 1.023764e+01
0	 5.777778e+00	 0.000000e+00	 1.022328e+01
0	 5.777778e+00	 7.407407e-02	 1.022350e+01
0	 5.777778e+00	 1.481481e-01	 1.022411e+01
0	 5.777778e+00	 2.222222e-01	 1.022511e+01
0	 5.777778e+00	 2.962963e-01	 1.022650e+01
0	 5.777778e+00	 3.703704e-01	 1.022829e+01
0	 5.851852e+00	 0.000000e+00	 1.021430e+01
0	 5.851852e+00	 7.407407e-02	 1.021449e+01
0	 5.851852e+00	 1.481481e-01	 1.021507e+01
0	 5.851852e+00	 2.222222e-01	 1.021602e+01
0	 5.851852e+00	 2.962963e-01	 1.021735e+01
0	 5.851852e+00	 3.703704e-01	 1.021907e+01
0	 5.925926e+00	 0.000000e+00	 1.020549e+01
0	 5.925926e+00	 7.407407e-02	 1.020565e+01
0	 5.925926e+00	 1.481481e-01	 1.020618e+01
0	 5.925926e+00	 2.222222e-01	 1.020707e+01
0	 5.925926e+00	 2.962963e-01	 1.020834e+01
0	 5.925926e+00	 3.703704e-01	 1.020999e+01
0	 5.555556e+00	 3.703704e-01	 1.025675e+01
0	 5.555556e+00	 4.444444e-01	 1.025919e+01
0	 5.555556e+00	 5.185185e-01	 1.026197e+01
0	 5.555556e+00	 5.925926e-01	 1.026513e+01
0	 5.555556e+00	 6.666667e-01	 1.026869e+01
0	 5.555556e+00	 7.407407e-01	 1.027268e+01
0	 5.629630e+00	 3.703704e-01	 1.024713e+01
0	 5.629630e+00	 4.444444e-01	 1.024944e+01
0	 5.629630e+00	 5.185185e-01	 1.025209e+01
0	 5.629630e+00	 5.925926e-01	 1.025510e+01
0	 5.629630e+00	 6.666667e-01	 1.025849e+01
0	 5.629630e+00	 7.407407e-01	 1.026229e+01
0	 5.703704e+00	 3.703704e-01	 1.023764e+01
0	 5.703704e+00	 4.444444e-01	 1.023986e+01
0	 5.703704e+00	 5.185185e-01	 1.024239e+01
0	 5.703704e+00	 5.925926e-01	 1.024526e+01
0	 5.703704e+00	 6.666667e-01	 1.024849e+01
0	 5.703704e+00	 7.407407e-01	 1.025211e+01
0	 5.777778e+00	 3.703704e-01	 1.022829e+01
0	 5.777778e+00	 4.444444e-01	 1.023042e+01
0	 5.777778e+00	 5.185185e-01	 1.023285e+01
0	 5.777778e+00	 5.925926e-01	 1.023559e+01
0	 5.777778e+00	 6.666667e-01	 1.023868e+01
0	 5.777778e+00	 7.407407e-01	 1.024213e+01
0	 5.851852e+00	 3.703704e-01	 1.021907e+01
0	 5.851852e+00	 4.444444e-01	 1.022113e+01
0	 5.851852e+00	 5.185185e-01	 1.022345e+01
0	 5.851852e+00	 5.925926e-01	 1.022608e+01
0	 5.851852e+00	 6.666667e-01	 1.022902e+01
0	 5.851852e+00	 7.407407e-01	 1.023231e+01
0	 5.925926e+00	 3.703704e-01	 1.020999e+01
0	 5.925926e+00	 4.444444e-01	 1.021196e+01
0	 5.925926e+00	 5.185185e-01	 1.021419e+01
0	 5.925926e+00	 5.925926e-01	 1.021669e+01
0	 5.925926e+00	 6.666667e-01	 1.021951e+01
0	 5.925926e+00	 7.407407e-01	 1.022264e+01
0	 5.555556e+00	 7.407407e-01	 1.027268e+01
0	 5.555556e+00	 8.148148e-01	 1.027696e+01
0	 5.555556e+00	 8.888889e-01	 1.028137e+01
0	 5.555556e+00	 9.629630e-01	 1.028595e+01
0	 5.555556e+00	 1.037037e+00	 1.029075e+01
0	 5.555556e+00	 1.111111e+00	 1.029581e+01
0	 5.629630e+00	 7.407407e-01	 1.026229e+01
0	 5.629630e+00	 8.148148e-01	 1.026636e+01
0	 5.629630e+00	 8.888889e-01	 1.027057e+01
0	 5.629630e+00	 9.629630e-01	 1.027494e+01
0	 5.629630e+00	 1.037037e+00	 1.027951e+01
0	 5.629630e+00	 1.111111e+00	 1.028434e+01
0	 5.703704e+00	 7.407407e-01	 1.025211e+01
0	 5.703704e+00	 8.148148e-01	 1.025599e+01
0	 5.703704e+00	 8.888889e-01	 1.026000e+01
0	 5.703704e+00	 9.629630e-01	 1.026417e+01
0	 5.703704e+00	 1.037037e+00	 1.026855e+01
0	 5.703704e+00	 1.111111e+00	 1.027316e+01
0	 5.777778e+00	 7.407407e-01	 1.024213e+01
0	 5.777778e+00	 8.148148e-01	 1.024582e+01
0	 5.777778e+00	 8.888889e-01	 1.024964e+01
0	 5.777778e+00	 9.629630e-01	 1.025363e+01
0	 5.777778e+00	 1.037037e+00	 1.025782e+01
0	 5.777778e+00	 1.111111e+00	 1.026225e+01
0	 5.851852e+00	 7.407407e-01	 1.023231e+01
0	 5.851852e+00	 8.148148e-01	 1.023583e+01
0	 5.851852e+00	 8.888889e-01	 1.023948e+01
0	 5.851852e+00	 9.629630e-01	 1.024330e+01
0	 5.851852e+00	 1.037037e+00	 1.024732e+01
0	 5.851852e+00	 1.111111e+00	 1.025158e+01
0	 5.925926e+00	 7.407407e-01	 1.022264e+01
0	 5.925926e+00	 8.148148e-01	 1.022600e+01
0	 5.925926e+00	 8.888889e-01	 1.022950e+01
0	 5.925926e+00	 9.629630e-01	 1.023316e+01
0	 5.925926e+00	 1.037037e+00	 1.023702e+01
0	 5.925926e+00	 1.111111e+00	 1.024111e+01
0	 5.555556e+00	 1.111111e+00	 1.029581e+01
0	 5.555556e+00	 1.185185e+00	 1.030095e+01
0	 5.555556e+00	 1.259259e+00	 1.030605e+01
0	 5.555556e+00	 1.333333e+00	 1.031113e+01
0	 5.555556e+00	 1.407407e+00	 1.031626e+01
0	 5.555556e+00	 1.481481e+00	 1.032147e+01
0	 5.629630e+00	 1.111111e+00	 1.028434e+01
0	 5.629630e+00	 1.185185e+00	 1.028926e+01
0	 5.629630e+00	 1.259259e+00	 1.029415e+01
0	 5.629630e+00	 1.333333e+00	 1.029905e+01
0	 5.629630e+00	 1.407407e+00	 1.030399e+01
0	 5.629630e+00	 1.481481e+00	 1.030903e+01
0	 5.703704e+00	 1.111111e+00	 1.027316e+01
0	 5.703704e+00	 1.185185e+00	 1.027789e+01
0	 5.703704e+00	 1.259259e+00	 1.028259e+01
0	 5.703704e+00	 1.333333e+00	 1.028730e+01
0	 5.703704e+00	 1.407407e+00	 1.029207e+01
0	 5.703704e+00	 1.481481e+00	 1.029692e+01
0	 5.777778e+00	 1.111111e+00	 1.026225e+01
0	 5.777778e+00	 1.185185e+00	 1.026679e+01
0	 5.777778e+00	 1.259259e+00	 1.027131e+01
0	 5.777778e+00	 1.333333e+00	 1.027585e+01
0	 5.777778e+00	 1.407407e+00	 1.028044e+01
0	 5.777778e+00	 1.481481e+00	 1.028512e+01
0	 5.851852e+00	 1.111111e+00	 1.025158e+01
0	 5.851852e+00	 1.185185e+00	 1.025594e+01
0	 5.851852e+00	 1.259259e+00	 1.026029e+01
0	 5.851852e+00	 1.333333e+00	 1.026466e+01
0	 5.851852e+00	 1.407407e+00	 1.026908e+01
0	 5.851852e+00	 1.481481e+00	 1.027358e+01
0	 5.925926e+00	 1.111111e+00	 1.024111e+01
0	 5.925926e+00	 1.185185e+00	 1.024530e+01
0	 5.925926e+00	 1.259259e+00	 1.024949e+01
0	 5.925926e+00	 1.333333e+00	 1.025369e+01
0	 5.925926e+00	 1.407407e+00	 1.025794e+01
0	 5.925926e+00	 1.481481e+00	 1.026228e+01
0	 5.555556e+00	 1.481481e+00	 1.032147e+01
0	 5.555556e+00	 1.555556e+00	 1.032661e+01
0	 5.555556e+00	 1.629630e+00	 1.033151e+01
0	 5.555556e+00	 1.703704e+00	 1.033622e+01
0	 5.555556e+00	 1.777778e+00	 1.034076e+01
0	 5.555556e+00	 1.851852e+00	 1.034519e+01
0	 5.629630e+00	 1.481481e+00	 1.030903e+01
0	 5.629630e+00	 1.555556e+00	 1.031400e+01
0	 5.629630e+00	 1.629630e+00	 1.031875e+01
0	 5.629630e+00	 1.703704e+00	 1.032333e+01
0	 5.629630e+00	 1.777778e+00	 1.032775e+01
0	 5.629630e+00	 1.851852e+00	 1.033207e+01
0	 5.703704e+00	 1.481481e+00	 1.029692e+01
0	 5.703704e+00	 1.555556e+00	 1.030172e+01
0	 5.703704e+00	 1.629630e+00	 1.030632e+01
0	 5.703704e+00	 1.703704e+00	 1.031076e+01
0	 5.703704e+00	 1.777778e+00	 1.031507e+01
0	 5.703704e+00	 1.851852e+00	 1.031929e+01
0	 5.777778e+00	 1.481481e+00	 1.028512e+01
0	 5.777778e+00	 1.555556e+00	 1.028975e+01
0	 5.777778e+00	 1.629630e+00	 1.029420e+01
0	 5.777778e+00	 1.703704e+00	 1.029850e+01
0	 5.777778e+00	 1.777778e+00	 1.030270e+01
0	 5.777778e+00	 1.851852e+00	 1.030683e+01
0	 5.851852e+00	 1.481481e+00	 1.027358e+01
0	 5.851852e+00	 1.555556e+00	 1.027804e+01
0	 5.851852e+00	 1.629630e+00	 1.028235e+01
0	 5.851852e+00	 1.703704e+00	 1.028653e+01
0	 5.851852e+00	 1.777778e+00	 1.029061e+01
0	 5.851852e+00	 1.851852e+00	 1.029464e+01
0	 5.925926e+00	 1.481481e+00	 1.026228e+01
0	 5.925926e+00	 1.555556e+00	 1.026658e+01
0	 5.925926e+00	 1.629630e+00	 1.027074e+01
0	 5.925926e+00	 1.703704e+00	 1.027480e+01
0	 5.925926e+00	 1.777778e+00	 1.027878e+01
0	 5.925926e+00	 1.851852e+00	 1.028272e+01
0	 5.555556e+00	 1.851852e+00	 1.034519e+01
0	 5.555556e+00	 1.925926e+00	 1.034938e+01
0	 5.555556e+00	 2.000000e+00	 1.035323e+01
0	 5.555556e+00	 2.074074e+00	 1.035677e+01
0	 5.555556e+00	 2.148148e+00	 1.036003e+01
0	 5.555556e+00	 2.222222e+00	 1.036303e+01
0	 5.629630e+00	 1.851852e+00	 1.033207e+01
0	 5.629630e+00	 1.925926e+00	 1.033618e+01
0	 5.629630e+00	 2.000000e+00	 1.033998e+01
0	 5.629630e+00	 2.074074e+00	 1.034348e+01
0	 5.629630e+00	 2.148148e+00	 1.034673e+01
0	 5.629630e+00	 2.222222e+00	 1.034974e+01
0	 5.703704e+00	 1.851852e+00	 1.031929e+01
0	 5.703704e+00	 1.925926e+00	 1.032332e+01
0	 5.703704e+00	 2.000000e+00	 1.032706e+01
0	 5.703704e+00	 2.074074e+00	 1.033053e+01
0	 5.703704e+00	 2.148148e+00	 1.033376e+01
0	 5.703704e+00	 2.222222e+00	 1.033677e+01
0	 5.777778e+00	 1.851852e+00	 1.030683e+01
0	 5.777778e+00	 1.925926e+00	 1.031078e+01
0	 5.777778e+00	 2.000000e+00	 1.031446e+01
0	 5.777778e+00	 2.074074e+00	 1.031789e+01
0	 5.777778e+00	 2.148148e+00	 1.032109e+01
0	 5.777778e+00	 2.222222e+00	 1.032409e+01
0	 5.851852e+00	 1.851852e+00	 1.029464e+01
0	 5.851852e+00	 1.925926e+00	 1.029852e+01
0	 5.851852e+00	 2.000000e+00	 1.030213e+01
0	 5.851852e+00	 2.074074e+00	 1.030551e+01
0	 5.851852e+00	 2.148148e+00	 1.030869e+01
0	 5.851852e+00	 2.222222e+00	 1.031167e+01
0	 5.925926e+00	 1.851852e+00	 1.028272e+01
0	 5.925926e+00	 1.925926e+00	 1.028651e+01
0	 5.925926e+00	 2.000000e+00	 1.029006e+01
0	 5.925926e+00	 2.074074e+00	 1.029339e+01
0	 5.925926e+00	 2.148148e+00	 1.029652e+01
0	 5.925926e+00	 2.222222e+00	 1.029949e+01
0	 5.555556e+00	 2.222222e+00	 1.036303e+01
0	 5.555556e+00	 2.296296e+00	 1.036572e+01
0	 5.555556e+00	 2.370370e+00	 1.036801e+01
0	 5.555556e+00	 2.444444e+00	 1.036992e+01
0	 5.555556e+00	 2.518519e+00	 1.037147e+01
0	 5.555556e+00	 2.592593e+00	 1.037267e+01
0	 5.629630e+00	 2.222222e+00	 1.034974e+01
0	 5.629630e+00	 2.296296e+00	 1.035246e+01
0	 5.629630e+00	 2.370370e+00	 1.035479e+01
0	 5.629630e+00	 2.444444e+00	 1.035678e+01
0	 5.629630e+00	 2.518519e+00	 1.035842e+01
0	 5.629630e+00	 2.592593e+00	 1.035974e+01
0	 5.703704e+00	 2.222222e+00	 1.033677e+01
0	 5.703704e+00	 2.296296e+00	 1.033950e+01
0	 5.703704e+00	 2.370370e+00	 1.034188e+01
0	 5.703704e+00	 2.444444e+00	 1.034392e+01
0	 5.703704e+00	 2.518519e+00	 1.034564e+01
0	 5.703704e+00	 2.592593e+00	 1.034706e+01
0	 5.777778e+00	 2.222222e+00	 1.032409e+01
0	 5.777778e+00	 2.296296e+00	 1.032683e+01
0	 5.777778e+00	 2.370370e+00	 1.032923e+01
0	 5.777778e+00	 2.444444e+00	 1.033132e+01
0	 5.777778e+00	 2.518519e+00	 1.033311e+01
0	 5.777778e+00	 2.592593e+00	 1.033462e+01
0	 5.851852e+00	 2.222222e+00	 1.031167e+01
0	 5.851852e+00	 2.296296e+00	 1.031441e+01
0	 5.851852e+00	 2.370370e+00	 1.031683e+01
0	 5.851852e+00	 2.444444e+00	 1.031896e+01
0	 5.851852e+00	 2.518519e+00	 1.032081e+01
0	 5.851852e+00	 2.592593e+00	 1.032239e+01
0	 5.925926e+00	 2.222222e+00	 1.029949e+01
0	 5.925926e+00	 2.296296e+00	 1.030222e+01
0	 5.925926e+00	 2.370370e+00	 1.030466e+01
0	 5.925926e+00	 2.444444e+00	 1.030682e+01
0	 5.925926e+00	 2.518519e+00	 1.030872e+01
0	 5.925926e+00	 2.592593e+00	 1.031037e+01
0	 5.555556e+00	 2.592593e+00	 1.037267e+01
0	 5.555556e+00	 2.666667e+00	 1.037351e+01
0	 5.555556e+00	 2.740741e+00	 1.037396e+01
0	 5.555556e+00	 2.814815e+00	 1.037403e+01
0	 5.555556e+00	 2.888889e+00	 1.037373e+01
0	 5.555556e+00	 2.962963e+00	 1.037305e+01
0	 5.629630e+00	 2.592593e+00	 1.035974e+01
0	 5.629630e+00	 2.666667e+00	 1.036071e+01
0	 5.629630e+00	 2.740741e+00	 1.036132e+01
0	 5.629630e+00	 2.814815e+00	 1.036156e+01
0	 5.629630e+00	 2.888889e+00	 1.036144e+01
0	 5.629630e+00	 2.962963e+00	 1.036097e+01
0	 5.703704e+00	 2.592593e+00	 1.034706e+01
0	 5.703704e+00	 2.666667e+00	 1.034815e+01
0	 5.703704e+00	 2.740741e+00	 1.034889e+01
0	 5.703704e+00	 2.814815e+00	 1.034929e+01
0	 5.703704e+00	 2.888889e+00	 1.034934e+01
0	 5.703704e+00	 2.962963e+00	 1.034906e+01
0	 5.777778e+00	 2.592593e+00	 1.033462e+01
0	 5.777778e+00	 2.666667e+00	 1.033582e+01
0	 5.777778e+00	 2.740741e+00	 1.033668e+01
0	 5.777778e+00	 2.814815e+00	 1.033721e+01
0	 5.777778e+00	 2.888889e+00	 1.033742e+01
0	 5.777778e+00	 2.962963e+00	 1.033731e+01
0	 5.851852e+00	 2.592593e+00	 1.032239e+01
0	 5.851852e+00	 2.666667e+00	 1.032369e+01
0	 5.851852e+00	 2.740741e+00	 1.032466e+01
0	 5.851852e+00	 2.814815e+00	 1.032532e+01
0	 5.851852e+00	 2.888889e+00	 1.032566e+01
0	 5.851852e+00	 2.962963e+00	 1.032571e+01
0	 5.925926e+00	 2.592593e+00	 1.031037e+01
0	 5.925926e+00	 2.666667e+00	 1.031175e+01
0	 5.925926e+00	 2.740741e+00	 1.031282e+01
0	 5.925926e+00	 2.814815e+00	 1.031359e+01
0	 5.925926e+00	 2.888889e+00	 1.031407e+01
0	 5.925926e+00	 2.962963e+00	 1.031426e+01
0	 5.555556e+00	 2.962963e+00	 1.037305e+01
0	 5.555556e+00	 3.037037e+00	 1.037202e+01
0	 5.555556e+00	 3.111111e+00	 1.037065e+01
0	 5.555556e+00	 3.185185e+00	 1.036895e+01
0	 5.555556e+00	 3.259259e+00	 1.036689e+01
0	 5.555556e+00	 3.333333e+00	 1.036449e+01
0	 5.629630e+00	 2.962963e+00	 1.036097e+01
0	 5.629630e+00	 3.037037e+00	 1.036016e+01
0	 5.629630e+00	 3.111111e+00	 1.035902e+01
0	 5.629630e+00	 3.185185e+00	 1.035756e+01
0	 5.629630e+00	 3.259259e+00	 1.035576e+01
0	 5.629630e+00	 3.333333e+00	 1.035363e+01
0	 5.703704e+00	 2.962963e+00	 1.034906e+01
0	 5.703704e+00	 3.037037e+00	 1.034845e+01
0	 5.703704e+00	 3.111111e+00	 1.034753e+01
0	 5.703704e+00	 3.185185e+00	 1.034629e+01
0	 5.703704e+00	 3.259259e+00	 1.034472e+01
0	 5.703704e+00	 3.333333e+00	 1.034284e+01
0	 5.777778e+00	 2.962963e+00	 1.033731e+01
0	 5.777778e+00	 3.037037e+00	 1.033689e+01
0	 5.777778e+00	 3.111111e+00	 1.033616e+01
0	 5.777778e+00	 3.185185e+00	 1.033512e+01
0	 5.777778e+00	 3.259259e+00	 1.033378e+01
0	 5.777778e+00	 3.333333e+00	 1.033213e+01
0	 5.851852e+00	 2.962963e+00	 1.032571e+01
0	 5.851852e+00	 3.037037e+00	 1.032546e+01
0	 5.851852e+00	 3.111111e+00	 1.032491e+01
0	 5.851852e+00	 3.185185e+00	 1.032407e+01
0	 5.851852e+00	 3.259259e+00	 1.032293e+01
0	 5.851852e+00	 3.333333e+00	 1.032150e+01
0	 5.925926e+00	 2.962963e+00	 1.031426e+01
0	 5.925926e+00	 3.037037e+00	 1.031417e+01
0	 5.925926e+00	 3.111111e+00	 1.031379e+01
0	 5.925926e+00	 3.185185e+00	 1.031312e+01
0	 5.925926e+00	 3.259259e+00	 1.031218e+01
0	 5.925926e+00	 3.333333e+00	 1.031095e+01
0	 5.555556e+00	 3.333333e+00	 1.036449e+01
0	 5.555556e+00	 3.407407e+00	 1.036179e+01
0	 5.555556e+00	 3.481481e+00	 1.035881e+01
0	 5.555556e+00	 3.555556e+00	 1.035556e+01
0	 5.555556e+00	 3.629630e+00	 1.035203e+01
0	 5.555556e+00	 3.703704e+00	 1.034820e+01
0	 5.629630e+00	 3.333333e+00	 1.035363e+01
0	 5.629630e+00	 3.407407e+00	 1.035120e+01
0	 5.629630e+00	 3.481481e+00	 1.034851e+01
0	 5.629630e+00	 3.555556e+00	 1.034554e+01
0	 5.629630e+00	 3.629630e+00	 1.034230e+01
0	 5.629630e+00	 3.703704e+00	 1.033877e+01
0	 5.703704e+00	 3.333333e+00	 1.034284e+01
0	 5.703704e+00	 3.407407e+00	 1.034067e+01
0	 5.703704e+00	 3.481481e+00	 1.033824e+01
0	 5.703704e+00	 3.555556e+00	 1.033554e+01
0	 5.703704e+00	 3.629630e+00	 1.033257e+01
0	 5.703704e+00	 3.703704e+00	 1.032932e+01
0	 5.777778e+00	 3.333333e+00	 1.033213e+01
0	 5.777778e+00	 3.407407e+00	 1.033020e+01
0	 5.777778e+00	 3.481481e+00	 1.032802e+01
0	 5.777778e+00	 3.555556e+00	 1.032557e+01
0	 5.777778e+00	 3.629630e+00	 1.032286e+01
0	 5.777778e+00	 3.703704e+00	 1.031988e+01
0	 5.851852e+00	 3.333333e+00	 1.032150e+01
0	 5.851852e+00	 3.407407e+00	 1.031979e+01
0	 5.851852e+00	 3.481481e+00	 1.031784e+01
0	 5.851852e+00	 3.555556e+00	 1.031563e+01
0	 5.851852e+00	 3.629630e+00	 1.031317e+01
0	 5.851852e+00	 3.703704e+00	 1.031044e+01
0	 5.925926e+00	 3.333333e+00	 1.031095e+01
0	 5.925926e+00	 3.407407e+00	 1.030945e+01
0	 5.925926e+00	 3.481481e+00	 1.030772e+01
0	 5.925926e+00	 3.555556e+00	 1.030573e+01
0	 5.925926e+00	 3.629630e+00	 1.030350e+01
0	 5.925926e+00	 3.703704e+00	 1.030102e+01
0	 5.555556e+00	 3.703704e+00	 1.034820e+01
0	 5.555556e+00	 3.777778e+00	 1.034412e+01
0	 5.555556e+00	 3.851852e+00	 1.033986e+01
0	 5.555556e+00	 3.925926e+00	 1.033540e+01
0	 5.555556e+00	 4.000000e+00	 1.033073e+01
0	 5.555556e+00	 4.074074e+00	 1.032584e+01
0	 5.629630e+00	 3.703704e+00	 1.033877e+01
0	 5.629630e+00	 3.777778e+00	 1.033500e+01
0	 5.629630e+00	 3.851852e+00	 1.033104e+01
0	 5.629630e+00	 3.925926e+00	 1.032688e+01
0	 5.629630e+00	 4.000000e+00	 1.032251e+01
0	 5.629630e+00	 4.074074e+00	 1.031792e+01
0	 5.703704e+00	 3.703704e+00	 1.032932e+01
0	 5.703704e+00	 3.777778e+00	 1.032584e+01
0	 5.703704e+00	 3.851852e+00	 1.032217e+01
0	 5.703704e+00	 3.925926e+00	 1.031830e+01
0	 5.703704e+00	 4.000000e+00	 1.031422e+01
0	 5.703704e+00	 4.074074e+00	 1.030992e+01
0	 5.777778e+00	 3.703704e+00	 1.031988e+01
0	 5.777778e+00	 3.777778e+00	 1.031667e+01
0	 5.777778e+00	 3.851852e+00	 1.031327e+01
0	 5.777778e+00	 3.925926e+00	 1.030967e+01
0	 5.777778e+00	 4.000000e+00	 1.030586e+01
0	 5.777778e+00	 4.074074e+00	 1.030184e+01
0	 5.851852e+00	 3.703704e+00	 1.031044e+01
0	 5.851852e+00	 3.777778e+00	 1.030749e+01
0	 5.851852e+00	 3.851852e+00	 1.030434e+01
0	 5.851852e+00	 3.925926e+00	 1.030101e+01
0	 5.851852e+00	 4.000000e+00	 1.029746e+01
0	 5.851852e+00	 4.074074e+00	 1.029371e+01
0	 5.925926e+00	 3.703704e+00	 1.030102e+01
0	 5.925926e+00	 3.777778e+00	 1.029831e+01
0	 5.925926e+00	 3.851852e+00	 1.029541e+01
0	 5.925926e+00	 3.925926e+00	 1.029232e+01
0	 5.925926e+00	 4.000000e+00	 1.028903e+01
0	 5.925926e+00	 4.074074e+00	 1.028553e+01
0	 5.555556e+00	 4.074074e+00	 1.032584e+01
0	 5.555556e+00	 4.148148e+00	 1.032078e+01
0	 5.555556e+00	 4.222222e+00	 1.031560e+01
0	 5.555556e+00	 4.296296e+00	 1.031030e+01
0	 5.555556e+00	 4.370370e+00	 1.030486e+01
0	 5.555556e+00	 4.444444e+00	 1.029926e+01
0	 5.629630e+00	 4.074074e+00	 1.031792e+01
0	 5.629630e+00	 4.148148e+00	 1.031317e+01
0	 5.629630e+00	 4.222222e+00	 1.030829e+01
0	 5.629630e+00	 4.296296e+00	 1.030328e+01
0	 5.629630e+00	 4.370370e+00	 1.029813e+01
0	 5.629630e+00	 4.444444e+00	 1.029282e+01
0	 5.703704e+00	 4.074074e+00	 1.030992e+01
0	 5.703704e+00	 4.148148e+00	 1.030545e+01
0	 5.703704e+00	 4.222222e+00	 1.030086e+01
0	 5.703704e+00	 4.296296e+00	 1.029613e+01
0	 5.703704e+00	 4.370370e+00	 1.029126e+01
0	 5.703704e+00	 4.444444e+00	 1.028623e+01
0	 5.777778e+00	 4.074074e+00	 1.030184e+01
0	 5.777778e+00	 4.148148e+00	 1.029765e+01
0	 5.777778e+00	 4.222222e+00	 1.029333e+01
0	 5.777778e+00	 4.296296e+00	 1.028887e+01
0	 5.777778e+00	 4.370370e+00	 1.028427e+01
0	 5.777778e+00	 4.444444e+00	 1.027951e+01
0	 5.851852e+00	 4.074074e+00	 1.029371e+01
0	 5.851852e+00	 4.148148e+00	 1.028978e+01
0	 5.851852e+00	 4.222222e+00	 1.028572e+01
0	 5.851852e+00	 4.296296e+00	 1.028153e+01
0	 5.851852e+00	 4.370370e+00	 1.027718e+01
0	 5.851852e+00	 4.444444e+00	 1.027269e+01
0	 5.925926e+00	 4.074074e+00	 1.028553e+01
0	 5.925926e+00	 4.148148e+00	 1.028186e+01
0	 5.925926e+00	 4.222222e+00	 1.027805e+01
0	 5.925926e+00	 4.296296e+00	 1.027411e+01
0	 5.925926e+00	 4.370370e+00	 1.027002e+01
0	 5.925926e+00	 4.444444e+00	 1.026577e+01
0	 5.555556e+00	 4.444444e+00	 1.029926e+01
0	 5.555556e+00	 4.518519e+00	 1.029357e+01
0	 5.555556e+00	 4.592593e+00	 1.028782e+01
0	 5.555556e+00	 4.666667e+00	 1.028202e+01
0	 5.555556e+00	 4.740741e+00	 1.027614e+01
0	 5.555556e+00	 4.814815e+00	 1.027018e+01
0	 5.629630e+00	 4.444444e+00	 1.029282e+01
0	 5.629630e+00	 4.518519e+00	 1.028741e+01
0	 5.629630e+00	 4.592593e+00	 1.028194e+01
0	 5.629630e+00	 4.666667e+00	 1.027640e+01
0	 5.629630e+00	 4.740741e+00	 1.027079e+01
0	 5.629630e+00	 4.814815e+00	 1.026508e+01
0	 5.703704e+00	 4.444444e+00	 1.028623e+01
0	 5.703704e+00	 4.518519e+00	 1.028109e+01
0	 5.703704e+00	 4.592593e+00	 1.027589e+01
0	 5.703704e+00	 4.666667e+00	 1.027061e+01
0	 5.703704e+00	 4.740741e+00	 1.026526e+01
0	 5.703704e+00	 4.814815e+00	 1.025980e+01
0	 5.777778e+00	 4.444444e+00	 1.027951e+01
0	 5.777778e+00	 4.518519e+00	 1.027464e+01
0	 5.777778e+00	 4.592593e+00	 1.026970e+01
0	 5.777778e+00	 4.666667e+00	 1.026468e+01
0	 5.777778e+00	 4.740741e+00	 1.025957e+01
0	 5.777778e+00	 4.814815e+00	 1.025436e+01
0	 5.851852e+00	 4.444444e+00	 1.027269e+01
0	 5.851852e+00	 4.518519e+00	 1.026807e+01
0	 5.851852e+00	 4.592593e+00	 1.026338e+01
0	 5.851852e+00	 4.666667e+00	 1.025861e+01
0	 5.851852e+00	 4.740741e+00	 1.025375e+01
0	 5.851852e+00	 4.814815e+00	 1.024878e+01
0	 5.925926e+00	 4.444444e+00	 1.026577e+01
0	 5.925926e+00	 4.518519e+00	 1.026141e+01
0	 5.925926e+00	 4.592593e+00	 1.025697e+01
0	 5.925926e+00	 4.666667e+00	 1.025244e+01
0	 5.925926e+00	 4.740741e+00	 1.024781e+01
0	 5.925926e+00	 4.814815e+00	 1.024308e+01
0	 5.555556e+00	 4.814815e+00	 1.027018e+01
0	 5.555556e+00	 4.888889e+00	 1.026417e+01
0	 5.555556e+00	 4.962963e+00	 1.025817e+01
0	 5.555556e+00	 5.037037e+00	 1.025215e+01
0	 5.555556e+00	 5.111111e+00	 1.024611e+01
0	 5.555556e+00	 5.185185e+00	 1.024005e+01
0	 5.629630e+00	 4.814815e+00	 1.026508e+01
0	 5.629630e+00	 4.888889e+00	 1.025933e+01
0	 5.629630e+00	 4.962963e+00	 1.025357e+01
0	 5.629630e+00	 5.037037e+00	 1.024779e+01
0	 5.629630e+00	 5.111111e+00	 1.024198e+01
0	 5.629630e+00	 5.185185e+00	 1.023613e+01
0	 5.703704e+00	 4.814815e+00	 1.025980e+01
0	 5.703704e+00	 4.888889e+00	 1.025430e+01
0	 5.703704e+00	 4.962963e+00	 1.024877e+01
0	 5.703704e+00	 5.037037e+00	 1.024323e+01
0	 5.703704e+00	 5.111111e+00	 1.023764e+01
0	 5.703704e+00	 5.185185e+00	 1.023202e+01
0	 5.777778e+00	 4.814815e+00	 1.025436e+01
0	 5.777778e+00	 4.888889e+00	 1.024910e+01
0	 5.777778e+00	 4.962963e+00	 1.024381e+01
0	 5.777778e+00	 5.037037e+00	 1.023849e+01
0	 5.777778e+00	 5.111111e+00	 1.023313e+01
0	 5.777778e+00	 5.185185e+00	 1.022772e+01
0	 5.851852e+00	 4.814815e+00	 1.024878e+01
0	 5.851852e+00	 4.888889e+00	 1.024375e+01
0	 5.851852e+00	 4.962963e+00	 1.023869e+01
0	 5.851852e+00	 5.037037e+00	 1.023359e+01
0	 5.851852e+00	 5.111111e+00	 1.022845e+01
0	 5.851852e+00	 5.185185e+00	 1.022326e+01
0	 5.925926e+00	 4.814815e+00	 1.024308e+01
0	 5.925926e+00	 4.888889e+00	 1.023828e+01
0	 5.925926e+00	 4.962963e+00	 1.023344e+01
0	 5.925926e+00	 5.037037e+00	 1.022857e+01
0	 5.925926e+00	 5.111111e+00	 1.022364e+01
0	 5.925926e+00	 5.185185e+00	 1.021866e+01
0	 5.555556e+00	 5.185185e+00	 1.024005e+01
0	 5.555556e+00	 5.259259e+00	 1.023398e+01
0	 5.555556e+00	 5.333333e+00	 1.022796e+01
0	 5.555556e+00	 5.407407e+00	 1.022196e+01
0	 5.555556e+00	 5.481481e+00	 1.021598e+01
0	 5.555556e+00	 5.555556e+00	 1.021002e+01
0	 5.629630e+00	 5.185185e+00	 1.023613e+01
0	 5.629630e+00	 5.259259e+00	 1.023028e+01
0	 5.629630e+00	 5.333333e+00	 1.022446e+01
0	 5.629630e+00	 5.407407e+00	 1.021867e+01
0	 5.629630e+00	 5.481481e+00	 1.021288e+01
0	 5.629630e+00	 5.555556e+00	 1.020710e+01
0	 5.703704e+00	 5.185185e+00	 1.023202e+01
0	 5.703704e+00	 5.259259e+00	 1.022638e+01
0	 5.703704e+00	 5.333333e+00	 1.022076e+01
0	 5.703704e+00	 5.407407e+00	 1.021516e+01
0	 5.703704e+00	 5.481481e+00	 1.020957e+01
0	 5.703704e+00	 5.555556e+00	 1.020397e+01
0	 5.777778e+00	 5.185185e+00	 1.022772e+01
0	 5.777778e+00	 5.259259e+00	 1.022229e+01
0	 5.777778e+00	 5.333333e+00	 1.021688e+01
0	 5.777778e+00	 5.407407e+00	 1.021147e+01
0	 5.777778e+00	 5.481481e+00	 1.020607e+01
0	 5.777778e+00	 5.555556e+00	 1.020065e+01
0	 5.851852e+00	 5.185185e+00	 1.022326e+01
0	 5.851852e+00	 5.259259e+00	 1.021804e+01
0	 5.851852e+00	 5.333333e+00	 1.021283e+01
0	 5.851852e+00	 5.407407e+00	 1.020762e+01
0	 5.851852e+00	 5.481481e+00	 1.020240e+01
0	 5.851852e+00	 5.555556e+00	 1.019717e+01
0	 5.925926e+00	 5.185185e+00	 1.021866e+01
0	 5.925926e+00	 5.259259e+00	 1.021364e+01
0	 5.925926e+00	 5.333333e+00	 1.020863e+01
0	 5.925926e+00	 5.407407e+00	 1.020361e+01
0	 5.925926e+00	 5.481481e+00	 1.019858e+01
0	 5.925926e+00	 5.555556e+00	 1.019353e+01
0	 5.555556e+00	 5.555556e+00	 1.021002e+01
0	 5.555556e+00	 5.629630e+00	 1.020409e+01
0	 5.555556e+00	 5.703704e+00	 1.019823e+01
0	 5.555556e+00	 5.777778e+00	 1.019242e+01
0	 5.555556e+00	 5.851852e+00	 1.018666e+01
0	 5.555556e+00	 5.925926e+00	 1.018094e+01
0	 5.629630e+00	 5.555556e+00	 1.020710e+01
0	 5.629630e+00	 5.629630e+00	 1.020135e+01
0	 5.629630e+00	 5.703704e+00	 1.019565e+01
0	 5.629630e+00	 5.777778e+00	 1.019000e+01
0	 5.629630e+00	 5.851852e+00	 1.018439e+01
0	 5.629630e+00	 5.925926e+00	 1.017882e+01
0	 5.703704e+00	 5.555556e+00	 1.020397e+01
0	 5.703704e+00	 5.629630e+00	 1.019840e+01
0	 5.703704e+00	 5.703704e+00	 1.019287e+01
0	 5.703704e+00	 5.777778e+00	 1.018738e+01
0	 5.703704e+00	 5.851852e+00	 1.018193e+01
0	 5.703704e+00	 5.925926e+00	 1.017650e+01
0	 5.777778e+00	 5.555556e+00	 1.020065e+01
0	 5.777778e+00	 5.629630e+00	 1.019525e+01
0	 5.777778e+00	 5.703704e+00	 1.018989e+01
0	 5.777778e+00	 5.777778e+00	 1.018457e+01
0	 5.777778e+00	 5.851852e+00	 1.017927e+01
0	 5.777778e+00	 5.925926e+00	 1.017400e+01
0	 5.851852e+00	 5.555556e+00	 1.019717e+01
0	 5.851852e+00	 5.629630e+00	 1.019194e+01
0	 5.851852e+00	 5.703704e+00	 1.018675e+01
0	 5.851852e+00	 5.777778e+00	 1.018159e+01
0	 5.851852e+00	 5.851852e+00	 1.017645e+01
0	 5.851852e+00	 5.925926e+00	 1.017132e+01
0	 5.925926e+00	 5.555556e+00	 1.019353e+01
0	 5.925926e+00	 5.629630e+00	 1.018848e+01
0	 5.925926e+00	 5.703704e+00	 1.018346e+01
0	 5.925926e+00	 5.777778e+00	 1.017846e+01
0	 5.925926e+00	 5.851852e+00	 1.017348e+01
0	 5.925926e+00	 5.925926e+00	 1.016850e+01
0	 5.555556e+00	 5.925926e+00	 1.018094e+01
0	 5.555556e+00	 6.000000e+00	 1.017528e+01
0	 5.555556e+00	 6.074074e+00	 1.016970e+01
0	 5.555556e+00	 6.148148e+00	 1.016419e+01
0	 5.555556e+00	 6.222222e+00	 1.015875e+01
0	 5.555556e+00	 6.296296e+00	 1.015337e+01
0	 5.629630e+00	 5.925926e+00	 1.017882e+01
0	 5.629630e+00	 6.000000e+00	 1.017330e+01
0	 5.629630e+00	 6.074074e+00	 1.016785e+01
0	 5.629630e+00	 6.148148e+00	 1.016247e+01
0	 5.629630e+00	 6.222222e+00	 1.015714e+01
0	 5.629630e+00	 6.296296e+00	 1.015187e+01
0	 5.703704e+00	 5.925926e+00	 1.017650e+01
0	 5.703704e+00	 6.000000e+00	 1.017112e+01
0	 5.703704e+00	 6.074074e+00	 1.016580e+01
0	 5.703704e+00	 6.148148e+00	 1.016055e+01
0	 5.703704e+00	 6.222222e+00	 1.015535e+01
0	 5.703704e+00	 6.296296e+00	 1.015019e+01
0	 5.777778e+00	 5.925926e+00	 1.017400e+01
0	 5.777778e+00	 6.000000e+00	 1.016876e+01
0	 5.777778e+00	 6.074074e+00	 1.016358e+01
0	 5.777778e+00	 6.148148e+00	 1.015846e+01
0	 5.777778e+00	 6.222222e+00	 1.015338e+01
0	 5.777778e+00	 6.296296e+00	 1.014834e+01
0	 5.851852e+00	 5.925926e+00	 1.017132e+01
0	 5.851852e+00	 6.000000e+00	 1.016623e+01
0	 5.851852e+00	 6.074074e+00	 1.016119e+01
0	 5.851852e+00	 6.148148e+00	 1.015620e+01
0	 5.851852e+00	 6.222222e+00	 1.015125e+01
0	 5.851852e+00	 6.296296e+00	 1.014634e+01
0	 5.925926e+00	 5.925926e+00	 1.016850e+01
0	 5.925926e+00	 6.000000e+00	 1.016356e+01
0	 5.925926e+00	 6.074074e+00	 1.015866e+01
0	 5.925926e+00	 6.148148e+00	 1.015380e+01
0	 5.925926e+00	 6.222222e+00	 1.014898e+01
0	 5.925926e+00	 6.296296e+00	 1.014419e+01
0	 5.555556e+00	 6.296296e+00	 1.015337e+01
0	 5.555556e+00	 6.370370e+00	 1.014806e+01
0	 5.555556e+00	 6.444444e+00	 1.014284e+01
0	 5.555556e+00	 6.518519e+00	 1.013770e+01
0	 5.555556e+00	 6.592593e+00	 1.013263e+01
0	 5.555556e+00	 6.666667e+00	 1.012764e+01
0	 5.629630e+00	 6.296296e+00	 1.015187e+01
0	 5.629630e+00	 6.370370e+00	 1.014667e+01
0	 5.629630e+00	 6.444444e+00	 1.014155e+01
0	 5.629630e+00	 6.518519e+00	 1.013650e+01
0	 5.629630e+00	 6.592593e+00	 1.013153e+01
0	 5.629630e+00	 6.666667e+00	 1.012662e+01
0	 5.703704e+00	 6.296296e+00	 1.015019e+01
0	 5.703704e+00	 6.370370e+00	 1.014510e+01
0	 5.703704e+00	 6.444444e+00	 1.014009e+01
0	 5.703704e+00	 6.518519e+00	 1.013514e+01
0	 5.703704e+00	 6.592593e+00	 1.013026e+01
0	 5.703704e+00	 6.666667e+00	 1.012544e+01
0	 5.777778e+00	 6.296296e+00	 1.014834e+01
0	 5.777778e+00	 6.370370e+00	 1.014337e+01
0	 5.777778e+00	 6.444444e+00	 1.013846e+01
0	 5.777778e+00	 6.518519e+00	 1.013361e+01
0	 5.777778e+00	 6.592593e+00	 1.012883e+01
0	 5.777778e+00	 6.666667e+00	 1.012410e+01
0	 5.851852e+00	 6.296296e+00	 1.014634e+01
0	 5.851852e+00	 6.370370e+00	 1.014148e+01
0	 5.851852e+00	 6.444444e+00	 1.013668e+01
0	 5.851852e+00	 6.518519e+00	 1.013194e+01
0	 5.851852e+00	 6.592593e+00	 1.012725e+01
0	 5.851852e+00	 6.666667e+00	 1.012262e+01
0	 5.925926e+00	 6.296296e+00	 1.014419e+01
0	 5.925926e+00	 6.370370e+00	 1.013945e+01
0	 5.925926e+00	 6.444444e+00	 1.013476e+01
0	 5.925926e+00	 6.518519e+00	 1.013013e+01
0	 5.925926e+00	 6.592593e+00	 1.012555e+01
0	 5.925926e+00	 6.666667e+00	 1.012102e+01
0	 5.555556e+00	 6.666667e+00	 1.012764e+01
0	 5.555556e+00	 6.740741e+00	 1.012274e+01
0	 5.555556e+00	 6.814815e+00	 1.011792e+01
0	 5.555556e+00	 6.888889e+00	 1.011318e+01
0	 5.555556e+00	 6.962963e+00	 1.010853e+01
0	 5.555556e+00	 7.037037e+00	 1.010396e+01
0	 5.629630e+00	 6.666667e+00	 1.012662e+01
0	 5.629630e+00	 6.740741e+00	 1.012179e+01
0	 5.629630e+00	 6.814815e+00	 1.011705e+01
0	 5.629630e+00	 6.888889e+00	 1.011238e+01
0	 5.629630e+00	 6.962963e+00	 1.010779e+01
0	 5.629630e+00	 7.037037e+00	 1.010328e+01
0	 5.703704e+00	 6.666667e+00	 1.012544e+01
0	 5.703704e+00	 6.740741e+00	 1.012069e+01
0	 5.703704e+00	 6.814815e+00	 1.011602e+01
0	 5.703704e+00	 6.888889e+00	 1.011143e+01
0	 5.703704e+00	 6.962963e+00	 1.010691e+01
0	 5.703704e+00	 7.037037e+00	 1.010246e+01
0	 5.777778e+00	 6.666667e+00	 1.012410e+01
0	 5.777778e+00	 6.740741e+00	 1.011944e+01
0	 5.777778e+00	 6.814815e+00	 1.011485e+01
0	 5.777778e+00	 6.888889e+00	 1.011034e+01
0	 5.777778e+00	 6.962963e+00	 1.010589e+01
0	 5.777778e+00	 7.037037e+00	 1.010151e+01
0	 5.851852e+00	 6.666667e+00	 1.012262e+01
0	 5.851852e+00	 6.740741e+00	 1.011805e+01
0	 5.851852e+00	 6.814815e+00	 1.011355e+01
0	 5.851852e+00	 6.888889e+00	 1.010912e+01
0	 5.851852e+00	 6.962963e+00	 1.010475e+01
0	 5.851852e+00	 7.037037e+00	 1.010044e+01
0	 5.925926e+00	 6.666667e+00	 1.012102e+01
0	 5.925926e+00	 6.740741e+00	 1.011654e+01
0	 5.925926e+00	 6.814815e+00	 1.011213e+01
0	 5.925926e+00	 6.888889e+00	 1.010778e+01
0	 5.925926e+00	 6.962963e+00	 1.010349e+01
0	 5.925926e+00	 7.037037e+00	 1.009926e+01
0	 5.555556e+00	 7.037037e+00	 1.010396e+01
0	 5.555556e+00	 7.111111e+00	 1.009947e+01
0	 5.555556e+00	 7.185185e+00	 1.009508e+01
0	 5.555556e+00	 7.259259e+00	 1.009077e+01
0	 5.555556e+00	 7.333333e+00	 1.008654e+01
0	 5.555556e+00	 7.407407e+00	 1.008240e+01
0	 5.629630e+00	 7.037037e+00	 1.010328e+01
0	 5.629630e+00	 7.111111e+00	 1.009885e+01
0	 5.629630e+00	 7.185185e+00	 1.009450e+01
0	 5.629630e+00	 7.259259e+00	 1.009024e+01
0	 5.629630e+00	 7.333333e+00	 1.008606e+01
0	 5.629630e+00	 7.407407e+00	 1.008196e+01
0	 5.703704e+00	 7.037037e+00	 1.010246e+01
0	 5.703704e+00	 7.111111e+00	 1.009809e+01
0	 5.703704e+00	 7.185185e+00	 1.009380e+01
0	 5.703704e+00	 7.259259e+00	 1.008959e+01
0	 5.703704e+00	 7.333333e+00	 1.008546e+01
0	 5.703704e+00	 7.407407e+00	 1.008141e+01
0	 5.777778e+00	 7.037037e+00	 1.010151e+01
0	 5.777778e+00	 7.111111e+00	 1.009721e+01
0	 5.777778e+00	 7.185185e+00	 1.009298e+01
0	 5.777778e+00	 7.259259e+00	 1.008883e+01
0	 5.777778e+00	 7.333333e+00	 1.008475e+01
0	 5.777778e+00	 7.407407e+00	 1.008074e+01
0	 5.851852e+00	 7.037037e+00	 1.010044e+01
0	 5.851852e+00	 7.111111e+00	 1.009621e+01
0	 5.851852e+00	 7.185185e+00	 1.009204e+01
0	 5.851852e+00	 7.259259e+00	 1.008795e+01
0	 5.851852e+00	 7.333333e+00	 1.008394e+01
0	 5.851852e+00	 7.407407e+00	 1.007998e+01
0	 5.925926e+00	 7.037037e+00	 1.009926e+01
0	 5.925926e+00	 7.111111e+00	 1.009510e+01
0	 5.925926e+00	 7.185185e+00	 1.009100e+01
0	 5.925926e+00	 7.259259e+00	 1.008698e+01
0	 5.925926e+00	 7.333333e+00	 1.008302e+01
0	 5.925926e+00	 7.407407e+00	 1.007913e+01
0	 5.555556e+00	 7.407407e+00	 1.008240e+01
0	 5.555556e+00	 7.481481e+00	 1.007834e+01
0	 5.555556e+00	 7.555556e+00	 1.007437e+01
0	 5.555556e+00	 7.629630e+00	 1.007049e+01
0	 5.555556e+00	 7.703704e+00	 1.006670e+01
0	 5.555556e+00	 7.777778e+00	 1.006299e+01
0	 5.629630e+00	 7.407407e+00	 1.008196e+01
0	 5.629630e+00	 7.481481e+00	 1.007794e+01
0	 5.629630e+00	 7.555556e+00	 1.007401e+01
0	 5.629630e+00	 7.629630e+00	 1.007016e+01
0	 5.629630e+00	 7.703704e+00	 1.006640e+01
0	 5.629630e+00	 7.777778e+00	 1.006271e+01
0	 5.703704e+00	 7.407407e+00	 1.008141e+01
0	 5.703704e+00	 7.481481e+00	 1.007743e+01
0	 5.703704e+00	 7.555556e+00	 1.007354e+01
0	 5.703704e+00	 7.629630e+00	 1.006973e+01
0	 5.703704e+00	 7.703704e+00	 1.006600e+01
0	 5.703704e+00	 7.777778e+00	 1.006235e+01
0	 5.777778e+00	 7.407407e+00	 1.008074e+01
0	 5.777778e+00	 7.481481e+00	 1.007681e+01
0	 5.777778e+00	 7.555556e+00	 1.007297e+01
0	 5.777778e+00	 7.629630e+00	 1.006920e+01
0	 5.777778e+00	 7.703704e+00	 1.006551e+01
0	 5.777778e+00	 7.777778e+00	 1.006189e+01
0	 5.851852e+00	 7.407407e+00	 1.007998e+01
0	 5.851852e+00	 7.481481e+00	 1.007610e+01
0	 5.851852e+00	 7.555556e+00	 1.007231e+01
0	 5.851852e+00	 7.629630e+00	 1.006858e+01
0	 5.851852e+00	 7.703704e+00	 1.006494e+01
0	 5.851852e+00	 7.777778e+00	 1.006136e+01
0	 5.925926e+00	 7.407407e+00	 1.007913e+01
0	 5.925926e+00	 7.481481e+00	 1.007531e+01
0	 5.925926e+00	 7.555556e+00	 1.007156e+01
0	 5.925926e+00	 7.629630e+00	 1.006789e+01
0	 5.925926e+00	 7.703704e+00	 1.006429e+01
0	 5.925926e+00	 7.777778e+00	 1.006076e+01
0	 5.555556e+00	 7.777778e+00	 1.006299e+01
0	 5.555556e+00	 7.851852e+00	 1.005937e+01
0	 5.555556e+00	 7.925926e+00	 1.005584e+01
0	 5.555556e+00	 8.000000e+00	 1.005240e+01
0	 5.555556e+00	 8.074074e+00	 1.004905e+01
0	 5.555556e+00	 8.148148e+00	 1.004578e+01
0	 5.629630e+00	 7.777778e+00	 1.006271e+01
0	 5.629630e+00	 7.851852e+00	 1.005911e+01
0	 5.629630e+00	 7.925926e+00	 1.005561e+01
0	 5.629630e+00	 8.000000e+00	 1.005219e+01
0	 5.629630e+00	 8.074074e+00	 1.004886e+01
0	 5.629630e+00	 8.148148e+00	 1.004561e+01
0	 5.703704e+00	 7.777778e+00	 1.006235e+01
0	 5.703704e+00	 7.851852e+00	 1.005878e+01
0	 5.703704e+00	 7.925926e+00	 1.005530e+01
0	 5.703704e+00	 8.000000e+00	 1.005191e+01
0	 5.703704e+00	 8.074074e+00	 1.004860e+01
0	 5.703704e+00	 8.148148e+00	 1.004537e+01
0	 5.777778e+00	 7.777778e+00	 1.006189e+01
0	 5.777778e+00	 7.851852e+00	 1.005836e+01
0	 5.777778e+00	 7.925926e+00	 1.005491e+01
0	 5.777778e+00	 8.000000e+00	 1.005155e+01
0	 5.777778e+00	 8.074074e+00	 1.004827e+01
0	 5.777778e+00	 8.148148e+00	 1.004507e+01
0	 5.851852e+00	 7.777778e+00	 1.006136e+01
0	 5.851852e+00	 7.851852e+00	 1.005787e+01
0	 5.851852e+00	 7.925926e+00	 1.005445e+01
0	 5.851852e+00	 8.000000e+00	 1.005113e+01
0	 5.851852e+00	 8.074074e+00	 1.004788e+01
0	 5.851852e+00	 8.148148e+00	 1.004470e+01
0	 5.925926e+00	 7.777778e+00	 1.006076e+01
0	 5.925926e+00	 7.851852e+00	 1.005730e+01
0	 5.925926e+00	 7.925926e+00	 1.005393e+01
0	 5.925926e+00	 8.000000e+00	 1.005064e+01
0	 5.925926e+00	 8.074074e+00	 1.004743e+01
0	 5.925926e+00	 8.148148e+00	 1.004429e+01
0	 5.555556e+00	 8.148148e+00	 1.004578e+01
0	 5.555556e+00	 8.222222e+00	 1.004260e+01
0	 5.555556e+00	 8.296296e+00	 1.003953e+01
0	 5.555556e+00	 8.370370e+00	 1.003655e+01
0	 5.555556e+00	 8.444444e+00	 1.003366e+01
0	 5.555556e+00	 8.518519e+00	 1.003085e+01
0	 5.629630e+00	 8.148148e+00	 1.004561e+01
0	 5.629630e+00	 8.222222e+00	 1.004245e+01
0	 5.629630e+00	 8.296296e+00	 1.003938e+01
0	 5.629630e+00	 8.370370e+00	 1.003642e+01
0	 5.629630e+00	 8.444444e+00	 1.003354e+01
0	 5.629630e+00	 8.518519e+00	 1.003075e+01
0	 5.703704e+00	 8.148148e+00	 1.004537e+01
0	 5.703704e+00	 8.222222e+00	 1.004223e+01
0	 5.703704e+00	 8.296296e+00	 1.003918e+01
0	 5.703704e+00	 8.370370e+00	 1.003623e+01
0	 5.703704e+00	 8.444444e+00	 1.003337e+01
0	 5.703704e+00	 8.518519e+00	 1.003060e+01
0	 5.777778e+00	 8.148148e+00	 1.004507e+01
0	 5.777778e+00	 8.222222e+00	 1.004195e+01
0	 5.777778e+00	 8.296296e+00	 1.003893e+01
0	 5.777778e+00	 8.370370e+00	 1.003600e+01
0	 5.777778e+00	 8.444444e+00	 1.003316e+01
0	 5.777778e+00	 8.518519e+00	 1.003040e+01
0	 5.851852e+00	 8.148148e+00	 1.004470e+01
0	 5.851852e+00	 8.222222e+00	 1.004162e+01
0	 5.851852e+00	 8.296296e+00	 1.003862e+01
0	 5.851852e+00	 8.370370e+00	 1.003572e+01
0	 5.851852e+00	 8.444444e+00	 1.003290e+01
0	 5.851852e+00	 8.518519e+00	 1.003017e+01
0	 5.925926e+00	 8.148148e+00	 1.004429e+01
0	 5.925926e+00	 8.222222e+00	 1.004123e+01
0	 5.925926e+00	 8.296296e+00	 1.003827e+01
0	 5.925926e+00	 8.370370e+00	 1.003540e+01
0	 5.925926e+00	 8.444444e+00	 1.003260e+01
0	 5.925926e+00	 8.518519e+00	 1.002989e+01
0	 5.555556e+00	 8.518519e+00	 1.003085e+01
0	 5.555556e+00	 8.592593e+00	 1.002815e+01
0	 5.555556e+00	 8.666667e+00	 1.002556e+01
0	 5.555556e+00	 8.740741e+00	 1.002307e+01
0	 5.555556e+00	 8.814815e+00	 1.002069e+01
0	 5.555556e+00	 8.888889e+00	 1.001840e+01
0	 5.629630e+00	 8.518519e+00	 1.003075e+01
0	 5.629630e+00	 8.592593e+00	 1.002805e+01
0	 5.629630e+00	 8.666667e+00	 1.002547e+01
0	 5.629630e+00	 8.740741e+00	 1.002299e+01
0	 5.629630e+00	 8.814815e+00	 1.002062e+01
0	 5.629630e+00	 8.888889e+00	 1.001833e+01
0	 5.703704e+00	 8.518519e+00	 1.003060e+01
0	 5.703704e+00	 8.592593e+00	 1.002792e+01
0	 5.703704e+00	 8.666667e+00	 1.002535e+01
0	 5.703704e+00	 8.740741e+00	 1.002288e+01
0	 5.703704e+00	 8.814815e+00	 1.002051e+01
0	 5.703704e+00	 8.888889e+00	 1.001824e+01
0	 5.777778e+00	 8.518519e+00	 1.003040e+01
0	 5.777778e+00	 8.592593e+00	 1.002774e+01
0	 5.777778e+00	 8.666667e+00	 1.002519e+01
0	 5.777778e+00	 8.740741e+00	 1.002274e+01
0	 5.777778e+00	 8.814815e+00	 1.002038e+01
0	 5.777778e+00	 8.888889e+00	 1.001813e+01
0	 5.851852e+00	 8.518519e+00	 1.003017e+01
0	 5.851852e+00	 8.592593e+00	 1.002753e+01
0	 5.851852e+00	 8.666667e+00	 1.002499e+01
0	 5.851852e+00	 8.740741e+00	 1.002256e+01
0	 5.851852e+00	 8.814815e+00	 1.002023e+01
0	 5.851852e+00	 8.888889e+00	 1.001799e+01
0	 5.925926e+00	 8.518519e+00	 1.002989e+01
0	 5.925926e+00	 8.592593e+00	 1.002728e+01
0	 5.925926e+00	 8.666667e+00	 1.002477e+01
0	 5.925926e+00	 8.740741e+00	 1.002236e+01
0	 5.925926e+00	 8.814815e+00	 1.002005e+01
0	 5.925926e+00	 8.888889e+00	 1.001782e+01
0	 5.555556e+00	 8.888889e+00	 1.001840e+01
0	 5.555556e+00	 8.962963e+00	 1.001622e+01
0	 5.555556e+00	 9.037037e+00	 1.001417e+01
0	 5.555556e+00	 9.111111e+00	 1.001224e+01
0	 5.555556e+00	 9.185185e+00	 1.001043e+01
0	 5.555556e+00	 9.259259e+00	 1.000872e+01
0	 5.629630e+00	 8.888889e+00	 1.001833e+01
0	 5.629630e+00	 8.962963e+00	 1.001616e+01
0	 5.629630e+00	 9.037037e+00	 1.001412e+01
0	 5.629630e+00	 9.111111e+00	 1.001219e+01
0	 5.629630e+00	 9.185185e+00	 1.001039e+01
0	 5.629630e+00	 9.259259e+00	 1.000869e+01
0	 5.703704e+00	 8.888889e+00	 1.001824e+01
0	 5.703704e+00	 8.962963e+00	 1.001608e+01
0	 5.703704e+00	 9.037037e+00	 1.001405e+01
0	 5.703704e+00	 9.111111e+00	 1.001213e+01
0	 5.703704e+00	 9.185185e+00	 1.001033e+01
0	 5.703704e+00	 9.259259e+00	 1.000864e+01
0	 5.777778e+00	 8.888889e+00	 1.001813e+01
0	 5.777778e+00	 8.962963e+00	 1.001598e+01
0	 5.777778e+00	 9.037037e+00	 1.001395e+01
0	 5.777778e+00	 9.111111e+00	 1.001205e+01
0	 5.777778e+00	 9.185185e+00	 1.001027e+01
0	 5.777778e+00	 9.259259e+00	 1.000858e+01
0	 5.851852e+00	 8.888889e+00	 1.001799e+01
0	 5.851852e+00	 8.962963e+00	 1.001585e+01
0	 5.851852e+00	 9.037037e+00	 1.001385e+01
0	 5.851852e+00	 9.111111e+00	 1.001196e+01
0	 5.851852e+00	 9.185185e+00	 1.001018e+01
0	 5.851852e+00	 9.259259e+00	 1.000852e+01
0	 5.925926e+00	 8.888889e+00	 1.001782e+01
0	 5.925926e+00	 8.962963e+00	 1.001571e+01
0	 5.925926e+00	 9.037037e+00	 1.001372e+01
0	 5.925926e+00	 9.111111e+00	 1.001185e+01
0	 5.925926e+00	 9.185185e+00	 1.001009e+01
0	 5.925926e+00	 9.259259e+00	 1.000844e+01
0	 5.555556e+00	 9.259259e+00	 1.000872e+01
0	 5.555556e+00	 9.333333e+00	 1.000715e+01
0	 5.555556e+00	 9.407407e+00	 1.000573e+01
0	 5.555556e+00	 9.481481e+00	 1.000447e+01
0	 5.555556e+00	 9.555556e+00	 1.000334e+01
0	 5.555556e+00	 9.629630e+00	 1.000234e+01
0	 5.629630e+00	 9.259259e+00	 1.000869e+01
0	 5.629630e+00	 9.333333e+00	 1.000712e+01
0	 5.629630e+00	 9.407407e+00	 1.000571e+01
0	 5.629630e+00	 9.481481e+00	 1.000445e+01
0	 5.629630e+00	 9.555556e+00	 1.000332e+01
0	 5.629630e+00	 9.629630e+00	 1.000233e+01
0	 5.703704e+00	 9.259259e+00	 1.000864e+01
0	 5.703704e+00	 9.333333e+00	 1.000708e+01
0	 5.703704e+00	 9.407407e+00	 1.000568e+01
0	 5.703704e+00	 9.481481e+00	 1.000442e+01
0	 5.703704e+00	 9.555556e+00	 1.000331e+01
0	 5.703704e+00	 9.629630e+00	 1.000232e+01
0	 5.777778e+00	 9.259259e+00	 1.000858e+01
0	 5.777778e+00	 9.333333e+00	 1.000703e+01
0	 5.777778e+00	 9.407407e+00	 1.000564e+01
0	 5.777778e+00	 9.481481e+00	 1.000439e+01
0	 5.777778e+00	 9.555556e+00	 1.000328e+01
0	 5.777778e+00	 9.629630e+00	 1.000230e+01
0	 5.851852e+00	 9.259259e+00	 1.000852e+01
0	 5.851852e+00	 9.333333e+00	 1.000698e+01
0	 5.851852e+00	 9.407407e+00	 1.000559e+01
0	 5.851852e+00	 9.481481e+00	 1.000435e+01
0	 5.851852e+00	 9.555556e+00	 1.000325e+01
0	 5.851852e+00	 9.629630e+00	 1.000228e+01
0	 5.925926e+00	 9.259259e+00	 1.000844e+01
0	 5.925926e+00	 9.333333e+00	 1.000691e+01
0	 5.925926e+00	 9.407407e+00	 1.000554e+01
0	 5.925926e+00	 9.481481e+00	 1.000431e+01
0	 5.925926e+00	 9.555556e+00	 1.000322e+01
0	 5.925926e+00	 9.629630e+00	 1.000226e+01
0	 5.555556e+00	 9.629630e+00	 1.000234e+01
0	 5.555556e+00	 9.703704e+00	 1.000151e+01
0	 5.555556e+00	 9.777778e+00	 1.000086e+01
0	 5.555556e+00	 9.851852e+00	 1.000040e+01
0	 5.555556e+00	 9.925926e+00	 1.000011e+01
0	 5.555556e+00	 1.000000e+01	 9.999975e+00
0	 5.629630e+00	 9.629630e+00	 1.000233e+01
0	 5.629630e+00	 9.703704e+00	 1.000150e+01
0	 5.629630e+00	 9.777778e+00	 1.000086e+01
0	 5.629630e+00	 9.851852e+00	 1.000040e+01
0	 5.629630e+00	 9.925926e+00	 1.000011e+01
0	 5.629630e+00	 1.000000e+01	 9.999976e+00
0	 5.703704e+00	 9.629630e+00	 1.000232e+01
0	 5.703704e+00	 9.703704e+00	 1.000149e+01
0	 5.703704e+00	 9.777778e+00	 1.000085e+01
0	 5.703704e+00	 9.851852e+00	 1.000040e+01
0	 5.703704e+00	 9.925926e+00	 1.000011e+01
0	 5.703704e+00	 1.000000e+01	 9.999975e+00
0	 5.777778e+00	 9.629630e+00	 1.000230e+01
0	 5.777778e+00	 9.703704e+00	 1.000148e+01
0	 5.777778e+00	 9.777778e+00	 1.000085e+01
0	 5.777778e+00	 9.851852e+00	 1.000039e+01
0	 5.777778e+00	 9.925926e+00	 1.000011e+01
0	 5.777778e+00	 1.000000e+01	 9.999975e+00
0	 5.851852e+00	 9.629630e+00	 1.000228e+01
0	 5.851852e+00	 9.703704e+00	 1.000147e+01
0	 5.851852e+00	 9.777778e+00	 1.000084e+01
0	 5.851852e+00	 9.851852e+00	 1.000039e+01
0	 5.851852e+00	 9.925926e+00	 1.000010e+01
0	 5.851852e+00	 1.000000e+01	 9.999975e+00
0	 5.925926e+00	 9.629630e+00	 1.000226e+01
0	 5.925926e+00	 9.703704e+00	 1.000145e+01
0	 5.925926e+00	 9.777778e+00	 1.000083e+01
0	 5.925926e+00	 9.851852e+00	 1.000039e+01
0	 5.925926e+00	 9.925926e+00	 1.000010e+01
0	 5.925926e+00	 1.000000e+01	 9.999977e+00
0	 5.925926e+00	 0.000000e+00	 1.020549e+01
0	 5.925926e+00	 7.407407e-02	 1.020565e+01
0	 5.925926e+00	 1.481481e-01	 1.020618e+01
0	 5.925926e+00	 2.222222e-01	 1.020707e+01
0	 5.925926e+00	 2.962963e-01	 1.020834e+01
0	 5.925926e+00	 3.703704e-01	 1.020999e+01
0	 6.000000e+00	 0.000000e+00	 1.019680e+01
0	 6.000000e+00	 7.407407e-02	 1.019694e+01
0	 6.000000e+00	 1.481481e-01	 1.019743e+01
0	 6.000000e+00	 2.222222e-01	 1.019827e+01
0	 6.000000e+00	 2.962963e-01	 1.019947e+01
0	 6.000000e+00	 3.703704e-01	 1.020104e+01
0	 6.074074e+00	 0.000000e+00	 1.018819e+01
0	 6.074074e+00	 7.407407e-02	 1.018833e+01
0	 6.074074e+00	 1.481481e-01	 1.018879e+01
0	 6.074074e+00	 2.222222e-01	 1.018959e+01
0	 6.074074e+00	 2.962963e-01	 1.019073e+01
0	 6.074074e+00	 3.703704e-01	 1.019221e+01
0	 6.148148e+00	 0.000000e+00	 1.017965e+01
0	 6.148148e+00	 7.407407e-02	 1.017979e+01
0	 6.148148e+00	 1.481481e-01	 1.018024e+01
0	 6.148148e+00	 2.222222e-01	 1.018100e+01
0	 6.148148e+00	 2.962963e-01	 1.018209e+01
0	 6.148148e+00	 3.703704e-01	 1.018350e+01
0	 6.222222e+00	 0.000000e+00	 1.017118e+01
0	 6.222222e+00	 7.407407e-02	 1.017134e+01
0	 6.222222e+00	 1.481481e-01	 1.017178e+01
0	 6.222222e+00	 2.222222e-01	 1.017251e+01
0	 6.222222e+00	 2.962963e-01	 1.017354e+01
0	 6.222222e+00	 3.703704e-01	 1.017489e+01
0	 6.296296e+00	 0.000000e+00	 1.016278e+01
0	 6.296296e+00	 7.407407e-02	 1.016294e+01
0	 6.296296e+00	 1.481481e-01	 1.016338e+01
0	 6.296296e+00	 2.222222e-01	 1.016409e+01
0	 6.296296e+00	 2.962963e-01	 1.016508e+01
0	 6.296296e+00	 3.703704e-01	 1.016636e+01
0	 5.925926e+00	 3.703704e-01	 1.020999e+01
0	 5.925926e+00	 4.444444e-01	 1.021196e+01
0	 5.925926e+00	 5.185185e-01	 1.021419e+01
0	 5.925926e+00	 5.925926e-01	 1.021669e+01
0	 5.925926e+00	 6.666667e-01	 1.021951e+01
0	 5.925926e+00	 7.407407e-01	 1.022264e+01
0	 6.000000e+00	 3.703704e-01	 1.020104e+01
0	 6.000000e+00	 4.444444e-01	 1.020292e+01
0	 6.000000e+00	 5.185185e-01	 1.020504e+01
0	 6.000000e+00	 5.925926e-01	 1.020744e+01
0	 6.000000e+00	 6.666667e-01	 1.021012e+01
0	 6.000000e+00	 7.407407e-01	 1.021311e+01
0	 6.074074e+00	 3.703704e-01	 1.019221e+01
0	 6.074074e+00	 4.444444e-01	 1.019400e+01
0	 6.074074e+00	 5.185185e-01	 1.019602e+01
0	 6.074074e+00	 5.925926e-01	 1.019831e+01
0	 6.074074e+00	 6.666667e-01	 1.020087e+01
0	 6.074074e+00	 7.407407e-01	 1.020374e+01
0	 6.148148e+00	 3.703704e-01	 1.018350e+01
0	 6.148148e+00	 4.444444e-01	 1.018519e+01
0	 6.148148e+00	 5.185185e-01	 1.018712e+01
0	 6.148148e+00	 5.925926e-01	 1.018931e+01
0	 6.148148e+00	 6.666667e-01	 1.019176e+01
0	 6.148148e+00	 7.407407e-01	 1.019450e+01
0	 6.222222e+00	 3.703704e-01	 1.017489e+01
0	 6.222222e+00	 4.444444e-01	 1.017650e+01
0	 6.222222e+00	 5.185185e-01	 1.017834e+01
0	 6.222222e+00	 5.925926e-01	 1.018042e+01
0	 6.222222e+00	 6.666667e-01	 1.018277e+01
0	 6.222222e+00	 7.407407e-01	 1.018539e+01
0	 6.296296e+00	 3.703704e-01	 1.016636e+01
0	 6.296296e+00	 4.444444e-01	 1.016790e+01
0	 6.296296e+00	 5.185185e-01	 1.016966e+01
0	 6.296296e+00	 5.925926e-01	 1.017165e+01
0	 6.296296e+00	 6.666667e-01	 1.017390e+01
0	 6.296296e+00	 7.407407e-01	 1.017641e+01
0	 5.925926e+00	 7.407407e-01	 1.022264e+01
0	 5.925926e+00	 8.148148e-01	 1.022600e+01
0	 5.925926e+00	 8.888889e-01	 1.022950e+01
0	 5.925926e+00	 9.629630e-01	 1.023316e+01
0	 5.925926e+00	 1.037037e+00	 1.023702e+01
0	 5.925926e+00	 1.111111e+00	 1.024111e+01
0	 6.000000e+00	 7.407407e-01	 1.021311e+01
0	 6.000000e+00	 8.148148e-01	 1.021632e+01
0	 6.000000e+00	 8.888889e-01	 1.021967e+01
0	 6.000000e+00	 9.629630e-01	 1.022319e+01
0	 6.000000e+00	 1.037037e+00	 1.022690e+01
0	 6.000000e+00	 1.111111e+00	 1.023082e+01
0	 6.074074e+00	 7.407407e-01	 1.020374e+01
0	 6.074074e+00	 8.148148e-01	 1.020681e+01
0	 6.074074e+00	 8.888889e-01	 1.021002e+01
0	 6.074074e+00	 9.629630e-01	 1.021339e+01
0	 6.074074e+00	 1.037037e+00	 1.021695e+01
0	 6.074074e+00	 1.111111e+00	 1.022072e+01
0	 6.148148e+00	 7.407407e-01	 1.019450e+01
0	 6.148148e+00	 8.148148e-01	 1.019744e+01
0	 6.148148e+00	 8.888889e-01	 1.020052e+01
0	 6.148148e+00	 9.629630e-01	 1.020376e+01
0	 6.148148e+00	 1.037037e+00	 1.020717e+01
0	 6.148148e+00	 1.111111e+00	 1.021079e+01
0	 6.222222e+00	 7.407407e-01	 1.018539e+01
0	 6.222222e+00	 8.148148e-01	 1.018821e+01
0	 6.222222e+00	 8.888889e-01	 1.019117e+01
0	 6.222222e+00	 9.629630e-01	 1.019427e+01
0	 6.222222e+00	 1.037037e+00	 1.019755e+01
0	 6.222222e+00	 1.111111e+00	 1.020102e+01
0	 6.296296e+00	 7.407407e-01	 1.017641e+01
0	 6.296296e+00	 8.148148e-01	 1.017911e+01
0	 6.296296e+00	 8.888889e-01	 1.018194e+01
0	 6.296296e+00	 9.629630e-01	 1.018492e+01
0	 6.296296e+00	 1.037037e+00	 1.018806e+01
0	 6.296296e+00	 1.111111e+00	 1.019139e+01
0	 5.925926e+00	 1.111111e+00	 1.024111e+01
0	 5.925926e+00	 1.185185e+00	 1.024530e+01
0	 5.925926e+00	 1.259259e+00	 1.024949e+01
0	 5.925926e+00	 1.333333e+00	 1.025369e+01
0	 5.925926e+00	 1.407407e+00	 1.025794e+01
0	 5.925926e+00	 1.481481e+00	 1.026228e+01
0	 6.000000e+00	 1.111111e+00	 1.023082e+01
0	 6.000000e+00	 1.185185e+00	 1.023486e+01
0	 6.000000e+00	 1.259259e+00	 1.023888e+01
0	 6.000000e+00	 1.333333e+00	 1.024292e+01
0	 6.000000e+00	 1.407407e+00	 1.024702e+01
0	 6.000000e+00	 1.481481e+00	 1.025120e+01
0	 6.074074e+00	 1.111111e+00	 1.022072e+01
0	 6.074074e+00	 1.185185e+00	 1.022459e+01
0	 6.074074e+00	 1.259259e+00	 1.022846e+01
0	 6.074074e+00	 1.333333e+00	 1.023236e+01
0	 6.074074e+00	 1.407407e+00	 1.023631e+01
0	 6.074074e+00	 1.481481e+00	 1.024035e+01
0	 6.148148e+00	 1.111111e+00	 1.021079e+01
0	 6.148148e+00	 1.185185e+00	 1.021451e+01
0	 6.148148e+00	 1.259259e+00	 1.021823e+01
0	 6.148148e+00	 1.333333e+00	 1.022199e+01
0	 6.148148e+00	 1.407407e+00	 1.022580e+01
0	 6.148148e+00	 1.481481e+00	 1.022971e+01
0	 6.222222e+00	 1.111111e+00	 1.020102e+01
0	 6.222222e+00	 1.185185e+00	 1.020459e+01
0	 6.222222e+00	 1.259259e+00	 1.020817e+01
0	 6.222222e+00	 1.333333e+00	 1.021179e+01
0	 6.222222e+00	 1.407407e+00	 1.021548e+01
0	 6.222222e+00	 1.481481e+00	 1.021926e+01
0	 6.296296e+00	 1.111111e+00	 1.019139e+01
0	 6.296296e+00	 1.185185e+00	 1.019482e+01
0	 6.296296e+00	 1.259259e+00	 1.019827e+01
0	 6.296296e+00	 1.333333e+00	 1.020176e+01
0	 6.296296e+00	 1.407407e+00	 1.020532e+01
0	 6.296296e+00	 1.481481e+00	 1.020898e+01
0	 5.925926e+00	 1.481481e+00	 1.026228e+01
0	 5.925926e+00	 1.555556e+00	 1.026658e+01
0	 5.925926e+00	 1.629630e+00	 1.027074e+01
0	 5.925926e+00	 1.703704e+00	 1.027480e+01
0	 5.925926e+00	 1.777778e+00	 1.027878e+01
0	 5.925926e+00	 1.851852e+00	 1.028272e+01
0	 6.000000e+00	 1.481481e+00	 1.025120e+01
0	 6.000000e+00	 1.555556e+00	 1.025536e+01
0	 6.000000e+00	 1.629630e+00	 1.025939e+01
0	 6.000000e+00	 1.703704e+00	 1.026333e+01
0	 6.000000e+00	 1.777778e+00	 1.026721e+01
0	 6.000000e+00	 1.851852e+00	 1.027104e+01
0	 6.074074e+00	 1.481481e+00	 1.024035e+01
0	 6.074074e+00	 1.555556e+00	 1.024437e+01
0	 6.074074e+00	 1.629630e+00	 1.024828e+01
0	 6.074074e+00	 1.703704e+00	 1.025211e+01
0	 6.074074e+00	 1.777778e+00	 1.025588e+01
0	 6.074074e+00	 1.851852e+00	 1.025962e+01
0	 6.148148e+00	 1.481481e+00	 1.022971e+01
0	 6.148148e+00	 1.555556e+00	 1.023360e+01
0	 6.148148e+00	 1.629630e+00	 1.023740e+01
0	 6.148148e+00	 1.703704e+00	 1.024112e+01
0	 6.148148e+00	 1.777778e+00	 1.024479e+01
0	 6.148148e+00	 1.851852e+00	 1.024843e+01
0	 6.222222e+00	 1.481481e+00	 1.021926e+01
0	 6.222222e+00	 1.555556e+00	 1.022303e+01
0	 6.222222e+00	 1.629630e+00	 1.022672e+01
0	 6.222222e+00	 1.703704e+00	 1.023033e+01
0	 6.222222e+00	 1.777778e+00	 1.023390e+01
0	 6.222222e+00	 1.851852e+00	 1.023745e+01
0	 6.296296e+00	 1.481481e+00	 1.020898e+01
0	 6.296296e+00	 1.555556e+00	 1.021264e+01
0	 6.296296e+00	 1.629630e+00	 1.021621e+01
0	 6.296296e+00	 1.703704e+00	 1.021972e+01
0	 6.296296e+00	 1.777778e+00	 1.022319e+01
0	 6.296296e+00	 1.851852e+00	 1.022664e+01
0	 5.925926e+00	 1.851852e+00	 1.028272e+01
0	 5.925926e+00	 1.925926e+00	 1.028651e+01
0	 5.925926e+00	 2.000000e+00	 1.029006e+01
0	 5.925926e+00	 2.074074e+00	 1.029339e+01
0	 5.925926e+00	 2.148148e+00	 1.029652e+01
0	 5.925926e+00	 2.222222e+00	 1.029949e+01
0	 6.000000e+00	 1.851852e+00	 1.027104e+01
0	 6.000000e+00	 1.925926e+00	 1.027475e+01
0	 6.000000e+00	 2.000000e+00	 1.027823e+01
0	 6.000000e+00	 2.074074e+00	 1.028151e+01
0	 6.000000e+00	 2.148148e+00	 1.028460e+01
0	 6.000000e+00	 2.222222e+00	 1.028754e+01
0	 6.074074e+00	 1.851852e+00	 1.025962e+01
0	 6.074074e+00	 1.925926e+00	 1.026324e+01
0	 6.074074e+00	 2.000000e+00	 1.026665e+01
0	 6.074074e+00	 2.074074e+00	 1.026987e+01
0	 6.074074e+00	 2.148148e+00	 1.027293e+01
0	 6.074074e+00	 2.222222e+00	 1.027584e+01
0	 6.148148e+00	 1.851852e+00	 1.024843e+01
0	 6.148148e+00	 1.925926e+00	 1.025196e+01
0	 6.148148e+00	 2.000000e+00	 1.025530e+01
0	 6.148148e+00	 2.074074e+00	 1.025847e+01
0	 6.148148e+00	 2.148148e+00	 1.026148e+01
0	 6.148148e+00	 2.222222e+00	 1.026436e+01
0	 6.222222e+00	 1.851852e+00	 1.023745e+01
0	 6.222222e+00	 1.925926e+00	 1.024089e+01
0	 6.222222e+00	 2.000000e+00	 1.024416e+01
0	 6.222222e+00	 2.074074e+00	 1.024727e+01
0	 6.222222e+00	 2.148148e+00	 1.025024e+01
0	 6.222222e+00	 2.222222e+00	 1.025309e+01
0	 6.296296e+00	 1.851852e+00	 1.022664e+01
0	 6.296296e+00	 1.925926e+00	 1.023000e+01
0	 6.296296e+00	 2.000000e+00	 1.023320e+01
0	 6.296296e+00	 2.074074e+00	 1.023625e+01
0	 6.296296e+00	 2.148148e+00	 1.023918e+01
0	 6.296296e+00	 2.222222e+00	 1.024200e+01
0	 5.925926e+00	 2.222222e+00	 1.029949e+01
0	 5.925926e+00	 2.296296e+00	 1.030222e+01
0	 5.925926e+00	 2.370370e+00	 1.030466e+01
0	 5.925926e+00	 2.444444e+00	 1.030682e+01
0	 5.925926e+00	 2.518519e+00	 1.030872e+01
0	 5.925926e+00	 2.592593e+00	 1.031037e+01
0	 6.000000e+00	 2.222222e+00	 1.028754e+01
0	 6.000000e+00	 2.296296e+00	 1.029027e+01
0	 6.000000e+00	 2.370370e+00	 1.029271e+01
0	 6.000000e+00	 2.444444e+00	 1.029490e+01
0	 6.000000e+00	 2.518519e+00	 1.029684e+01
0	 6.000000e+00	 2.592593e+00	 1.029855e+01
0	 6.074074e+00	 2.222222e+00	 1.027584e+01
0	 6.074074e+00	 2.296296e+00	 1.027855e+01
0	 6.074074e+00	 2.370370e+00	 1.028101e+01
0	 6.074074e+00	 2.444444e+00	 1.028321e+01
0	 6.074074e+00	 2.518519e+00	 1.028519e+01
0	 6.074074e+00	 2.592593e+00	 1.028695e+01
0	 6.148148e+00	 2.222222e+00	 1.026436e+01
0	 6.148148e+00	 2.296296e+00	 1.026706e+01
0	 6.148148e+00	 2.370370e+00	 1.026952e+01
0	 6.148148e+00	 2.444444e+00	 1.027174e+01
0	 6.148148e+00	 2.518519e+00	 1.027375e+01
0	 6.148148e+00	 2.592593e+00	 1.027555e+01
0	 6.222222e+00	 2.222222e+00	 1.025309e+01
0	 6.222222e+00	 2.296296e+00	 1.025577e+01
0	 6.222222e+00	 2.370370e+00	 1.025822e+01
0	 6.222222e+00	 2.444444e+00	 1.026046e+01
0	 6.222222e+00	 2.518519e+00	 1.026249e+01
0	 6.222222e+00	 2.592593e+00	 1.026432e+01
0	 6.296296e+00	 2.222222e+00	 1.024200e+01
0	 6.296296e+00	 2.296296e+00	 1.024466e+01
0	 6.296296e+00	 2.370370e+00	 1.024711e+01
0	 6.296296e+00	 2.444444e+00	 1.024935e+01
0	 6.296296e+00	 2.518519e+00	 1.025139e+01
0	 6.296296e+00	 2.592593e+00	 1.025326e+01
0	 5.925926e+00	 2.592593e+00	 1.031037e+01
0	 5.925926e+00	 2.666667e+00	 1.031175e+01
0	 5.925926e+00	 2.740741e+00	 1.031282e+01
0	 5.925926e+00	 2.814815e+00	 1.031359e+01
0	 5.925926e+00	 2.888889e+00	 1.031407e+01
0	 5.925926e+00	 2.962963e+00	 1.031426e+01
0	 6.000000e+00	 2.592593e+00	 1.029855e+01
0	 6.000000e+00	 2.666667e+00	 1.030000e+01
0	 6.000000e+00	 2.740741e+00	 1.030116e+01
0	 6.000000e+00	 2.814815e+00	 1.030204e+01
0	 6.000000e+00	 2.888889e+00	 1.030263e+01
0	 6.000000e+00	 2.962963e+00	 1.030296e+01
0	 6.074074e+00	 2.592593e+00	 1.028695e+01
0	 6.074074e+00	 2.666667e+00	 1.028847e+01
0	 6.074074e+00	 2.740741e+00	 1.028970e+01
0	 6.074074e+00	 2.814815e+00	 1.029067e+01
0	 6.074074e+00	 2.888889e+00	 1.029137e+01
0	 6.074074e+00	 2.962963e+00	 1.029182e+01
0	 6.148148e+00	 2.592593e+00	 1.027555e+01
0	 6.148148e+00	 2.666667e+00	 1.027712e+01
0	 6.148148e+00	 2.740741e+00	 1.027842e+01
0	 6.148148e+00	 2.814815e+00	 1.027947e+01
0	 6.148148e+00	 2.888889e+00	 1.028027e+01
0	 6.148148e+00	 2.962963e+00	 1.028083e+01
0	 6.222222e+00	 2.592593e+00	 1.026432e+01
0	 6.222222e+00	 2.666667e+00	 1.026594e+01
0	 6.222222e+00	 2.740741e+00	 1.026731e+01
0	 6.222222e+00	 2.814815e+00	 1.026844e+01
0	 6.222222e+00	 2.888889e+00	 1.026932e+01
0	 6.222222e+00	 2.962963e+00	 1.026998e+01
0	 6.296296e+00	 2.592593e+00	 1.025326e+01
0	 6.296296e+00	 2.666667e+00	 1.025493e+01
0	 6.296296e+00	 2.740741e+00	 1.025635e+01
0	 6.296296e+00	 2.814815e+00	 1.025754e+01
0	 6.296296e+00	 2.888889e+00	 1.025851e+01
0	 6.296296e+00	 2.962963e+00	 1.025927e+01
0	 5.925926e+00	 2.962963e+00	 1.031426e+01
0	 5.925926e+00	 3.037037e+00	 1.031417e+01
0	 5.925926e+00	 3.111111e+00	 1.031379e+01
0	 5.925926e+00	 3.185185e+00	 1.031312e+01
0	 5.925926e+00	 3.259259e+00	 1.031218e+01
0	 5.925926e+00	 3.333333e+00	 1.031095e+01
0	 6.000000e+00	 2.962963e+00	 1.030296e+01
0	 6.000000e+00	 3.037037e+00	 1.030301e+01
0	 6.000000e+00	 3.111111e+00	 1.030279e+01
0	 6.000000e+00	 3.185185e+00	 1.030229e+01
0	 6.000000e+00	 3.259259e+00	 1.030152e+01
0	 6.000000e+00	 3.333333e+00	 1.030048e+01
0	 6.074074e+00	 2.962963e+00	 1.029182e+01
0	 6.074074e+00	 3.037037e+00	 1.029200e+01
0	 6.074074e+00	 3.111111e+00	 1.029193e+01
0	 6.074074e+00	 3.185185e+00	 1.029159e+01
0	 6.074074e+00	 3.259259e+00	 1.029098e+01
0	 6.074074e+00	 3.333333e+00	 1.029012e+01
0	 6.148148e+00	 2.962963e+00	 1.028083e+01
0	 6.148148e+00	 3.037037e+00	 1.028114e+01
0	 6.148148e+00	 3.111111e+00	 1.028120e+01
0	 6.148148e+00	 3.185185e+00	 1.028100e+01
0	 6.148148e+00	 3.259259e+00	 1.028055e+01
0	 6.148148e+00	 3.333333e+00	 1.027985e+01
0	 6.222222e+00	 2.962963e+00	 1.026998e+01
0	 6.222222e+00	 3.037037e+00	 1.027041e+01
0	 6.222222e+00	 3.111111e+00	 1.027059e+01
0	 6.222222e+00	 3.185185e+00	 1.027052e+01
0	 6.222222e+00	 3.259259e+00	 1.027022e+01
0	 6.222222e+00	 3.333333e+00	 1.026968e+01
0	 6.296296e+00	 2.962963e+00	 1.025927e+01
0	 6.296296e+00	 3.037037e+00	 1.025980e+01
0	 6.296296e+00	 3.111111e+00	 1.026009e+01
0	 6.296296e+00	 3.185185e+00	 1.026015e+01
0	 6.296296e+00	 3.259259e+00	 1.025999e+01
0	 6.296296e+00	 3.333333e+00	 1.025959e+01
0	 5.925926e+00	 3.333333e+00	 1.031095e+01
0	 5.925926e+00	 3.407407e+00	 1.030945e+01
0	 5.925926e+00	 3.481481e+00	 1.030772e+01
0	 5.925926e+00	 3.555556e+00	 1.030573e+01
0	 5.925926e+00	 3.629630e+00	 1.030350e+01
0	 5.925926e+00	 3.703704e+00	 1.030102e+01
0	 6.000000e+00	 3.333333e+00	 1.030048e+01
0	 6.000000e+00	 3.407407e+00	 1.029919e+01
0	 6.000000e+00	 3.481481e+00	 1.029766e+01
0	 6.000000e+00	 3.555556e+00	 1.029589e+01
0	 6.000000e+00	 3.629630e+00	 1.029388e+01
0	 6.000000e+00	 3.703704e+00	 1.029162e+01
0	 6.074074e+00	 3.333333e+00	 1.029012e+01
0	 6.074074e+00	 3.407407e+00	 1.028901e+01
0	 6.074074e+00	 3.481481e+00	 1.028768e+01
0	 6.074074e+00	 3.555556e+00	 1.028611e+01
0	 6.074074e+00	 3.629630e+00	 1.028430e+01
0	 6.074074e+00	 3.703704e+00	 1.028226e+01
0	 6.148148e+00	 3.333333e+00	 1.027985e+01
0	 6.148148e+00	 3.407407e+00	 1.027892e+01
0	 6.148148e+00	 3.481481e+00	 1.027776e+01
0	 6.148148e+00	 3.555556e+00	 1.027638e+01
0	 6.148148e+00	 3.629630e+00	 1.027477e+01
0	 6.148148e+00	 3.703704e+00	 1.027293e+01
0	 6.222222e+00	 3.333333e+00	 1.026968e+01
0	 6.222222e+00	 3.407407e+00	 1.026891e+01
0	 6.222222e+00	 3.481481e+00	 1.026792e+01
0	 6.222222e+00	 3.555556e+00	 1.026672e+01
0	 6.222222e+00	 3.629630e+00	 1.026530e+01
0	 6.222222e+00	 3.703704e+00	 1.026365e+01
0	 6.296296e+00	 3.333333e+00	 1.025959e+01
0	 6.296296e+00	 3.407407e+00	 1.025898e+01
0	 6.296296e+00	 3.481481e+00	 1.025816e+01
0	 6.296296e+00	 3.555556e+00	 1.025712e+01
0	 6.296296e+00	 3.629630e+00	 1.025587e+01
0	 6.296296e+00	 3.703704e+00	 1.025441e+01
0	 5.925926e+00	 3.703704e+00	 1.030102e+01
0	 5.925926e+00	 3.777778e+00	 1.029831e+01
0	 5.925926e+00	 3.851852e+00	 1.029541e+01
0	 5.925926e+00	 3.925926e+00	 1.029232e+01
0	 5.925926e+00	 4.000000e+00	 1.028903e+01
0	 5.925926e+00	 4.074074e+00	 1.028553e+01
0	 6.000000e+00	 3.703704e+00	 1.029162e+01
0	 6.000000e+00	 3.777778e+00	 1.028915e+01
0	 6.000000e+00	 3.851852e+00	 1.028648e+01
0	 6.000000e+00	 3.925926e+00	 1.028363e+01
0	 6.000000e+00	 4.000000e+00	 1.028058e+01
0	 6.000000e+00	 4.074074e+00	 1.027732e+01
0	 6.074074e+00	 3.703704e+00	 1.028226e+01
0	 6.074074e+00	 3.777778e+00	 1.028000e+01
0	 6.074074e+00	 3.851852e+00	 1.027756e+01
0	 6.074074e+00	 3.925926e+00	 1.027494e+01
0	 6.074074e+00	 4.000000e+00	 1.027211e+01
0	 6.074074e+00	 4.074074e+00	 1.026909e+01
0	 6.148148e+00	 3.703704e+00	 1.027293e+01
0	 6.148148e+00	 3.777778e+00	 1.027088e+01
0	 6.148148e+00	 3.851852e+00	 1.026866e+01
0	 6.148148e+00	 3.925926e+00	 1.026624e+01
0	 6.148148e+00	 4.000000e+00	 1.026364e+01
0	 6.148148e+00	 4.074074e+00	 1.026083e+01
0	 6.222222e+00	 3.703704e+00	 1.026365e+01
0	 6.222222e+00	 3.777778e+00	 1.026180e+01
0	 6.222222e+00	 3.851852e+00	 1.025977e+01
0	 6.222222e+00	 3.925926e+00	 1.025756e+01
0	 6.222222e+00	 4.000000e+00	 1.025517e+01
0	 6.222222e+00	 4.074074e+00	 1.025258e+01
0	 6.296296e+00	 3.703704e+00	 1.025441e+01
0	 6.296296e+00	 3.777778e+00	 1.025275e+01
0	 6.296296e+00	 3.851852e+00	 1.025091e+01
0	 6.296296e+00	 3.925926e+00	 1.024890e+01
0	 6.296296e+00	 4.000000e+00	 1.024670e+01
0	 6.296296e+00	 4.074074e+00	 1.024432e+01
0	 5.925926e+00	 4.074074e+00	 1.028553e+01
0	 5.925926e+00	 4.148148e+00	 1.028186e+01
0	 5.925926e+00	 4.222222e+00	 1.027805e+01
0	 5.925926e+00	 4.296296e+00	 1.027411e+01
0	 5.925926e+00	 4.370370e+00	 1.027002e+01
0	 5.925926e+00	 4.444444e+00	 1.026577e+01
0	 6.000000e+00	 4.074074e+00	 1.027732e+01
0	 6.000000e+00	 4.148148e+00	 1.027389e+01
0	 6.000000e+00	 4.222222e+00	 1.027033e+01
0	 6.000000e+00	 4.296296e+00	 1.026663e+01
0	 6.000000e+00	 4.370370e+00	 1.026279e+01
0	 6.000000e+00	 4.444444e+00	 1.025878e+01
0	 6.074074e+00	 4.074074e+00	 1.026909e+01
0	 6.074074e+00	 4.148148e+00	 1.026589e+01
0	 6.074074e+00	 4.222222e+00	 1.026257e+01
0	 6.074074e+00	 4.296296e+00	 1.025910e+01
0	 6.074074e+00	 4.370370e+00	 1.025549e+01
0	 6.074074e+00	 4.444444e+00	 1.025172e+01
0	 6.148148e+00	 4.074074e+00	 1.026083e+01
0	 6.148148e+00	 4.148148e+00	 1.025787e+01
0	 6.148148e+00	 4.222222e+00	 1.025477e+01
0	 6.148148e+00	 4.296296e+00	 1.025153e+01
0	 6.148148e+00	 4.370370e+00	 1.024814e+01
0	 6.148148e+00	 4.444444e+00	 1.024459e+01
0	 6.222222e+00	 4.074074e+00	 1.025258e+01
0	 6.222222e+00	 4.148148e+00	 1.024983e+01
0	 6.222222e+00	 4.222222e+00	 1.024694e+01
0	 6.222222e+00	 4.296296e+00	 1.024392e+01
0	 6.222222e+00	 4.370370e+00	 1.024074e+01
0	 6.222222e+00	 4.444444e+00	 1.023742e+01
0	 6.296296e+00	 4.074074e+00	 1.024432e+01
0	 6.296296e+00	 4.148148e+00	 1.024178e+01
0	 6.296296e+00	 4.222222e+00	 1.023910e+01
0	 6.296296e+00	 4.296296e+00	 1.023628e+01
0	 6.296296e+00	 4.370370e+00	 1.023332e+01
0	 6.296296e+00	 4.444444e+00	 1.023021e+01
0	 5.925926e+00	 4.444444e+00	 1.026577e+01
0	 5.925926e+00	 4.518519e+00	 1.026141e+01
0	 5.925926e+00	 4.592593e+00	 1.025697e+01
0	 5.925926e+00	 4.666667e+00	 1.025244e+01
0	 5.925926e+00	 4.740741e+00	 1.024781e+01
0	 5.925926e+00	 4.814815e+00	 1.024308e+01
0	 6.000000e+00	 4.444444e+00	 1.025878e+01
0	 6.000000e+00	 4.518519e+00	 1.025466e+01
0	 6.000000e+00	 4.592593e+00	 1.025046e+01
0	 6.000000e+00	 4.666667e+00	 1.024616e+01
0	 6.000000e+00	 4.740741e+00	 1.024177e+01
0	 6.000000e+00	 4.814815e+00	 1.023726e+01
0	 6.074074e+00	 4.444444e+00	 1.025172e+01
0	 6.074074e+00	 4.518519e+00	 1.024783e+01
0	 6.074074e+00	 4.592593e+00	 1.024386e+01
0	 6.074074e+00	 4.666667e+00	 1.023979e+01
0	 6.074074e+00	 4.740741e+00	 1.023562e+01
0	 6.074074e+00	 4.814815e+00	 1.023134e+01
0	 6.148148e+00	 4.444444e+00	 1.024459e+01
0	 6.148148e+00	 4.518519e+00	 1.024093e+01
0	 6.148148e+00	 4.592593e+00	 1.023718e+01
0	 6.148148e+00	 4.666667e+00	 1.023333e+01
0	 6.148148e+00	 4.740741e+00	 1.022938e+01
0	 6.148148e+00	 4.814815e+00	 1.022532e+01
0	 6.222222e+00	 4.444444e+00	 1.023742e+01
0	 6.222222e+00	 4.518519e+00	 1.023397e+01
0	 6.222222e+00	 4.592593e+00	 1.023044e+01
0	 6.222222e+00	 4.666667e+00	 1.022680e+01
0	 6.222222e+00	 4.740741e+00	 1.022306e+01
0	 6.222222e+00	 4.814815e+00	 1.021921e+01
0	 6.296296e+00	 4.444444e+00	 1.023021e+01
0	 6.296296e+00	 4.518519e+00	 1.022697e+01
0	 6.296296e+00	 4.592593e+00	 1.022365e+01
0	 6.296296e+00	 4.666667e+00	 1.022022e+01
0	 6.296296e+00	 4.740741e+00	 1.021669e+01
0	 6.296296e+00	 4.814815e+00	 1.021305e+01
0	 5.925926e+00	 4.814815e+00	 1.024308e+01
0	 5.925926e+00	 4.888889e+00	 1.023828e+01
0	 5.925926e+00	 4.962963e+00	 1.023344e+01
0	 5.925926e+00	 5.037037e+00	 1.022857e+01
0	 5.925926e+00	 5.111111e+00	 1.022364e+01
0	 5.925926e+00	 5.185185e+00	 1.021866e+01
0	 6.000000e+00	 4.814815e+00	 1.023726e+01
0	 6.000000e+00	 4.888889e+00	 1.023269e+01
0	 6.000000e+00	 4.962963e+00	 1.022807e+01
0	 6.000000e+00	 5.037037e+00	 1.022341e+01
0	 6.000000e+00	 5.111111e+00	 1.021870e+01
0	 6.000000e+00	 5.185185e+00	 1.021392e+01
0	 6.074074e+00	 4.814815e+00	 1.023134e+01
0	 6.074074e+00	 4.888889e+00	 1.022698e+01
0	 6.074074e+00	 4.962963e+00	 1.022258e+01
0	 6.074074e+00	 5.037037e+00	 1.021813e+01
0	 6.074074e+00	 5.111111e+00	 1.021362e+01
0	 6.074074e+00	 5.185185e+00	 1.020905e+01
0	 6.148148e+00	 4.814815e+00	 1.022532e+01
0	 6.148148e+00	 4.888889e+00	 1.022118e+01
0	 6.148148e+00	 4.962963e+00	 1.021699e+01
0	 6.148148e+00	 5.037037e+00	 1.021274e+01
0	 6.148148e+00	 5.111111e+00	 1.020844e+01
0	 6.148148e+00	 5.185185e+00	 1.020406e+01
0	 6.222222e+00	 4.814815e+00	 1.021921e+01
0	 6.222222e+00	 4.888889e+00	 1.021528e+01
0	 6.222222e+00	 4.962963e+00	 1.021130e+01
0	 6.222222e+00	 5.037037e+00	 1.020726e+01
0	 6.222222e+00	 5.111111e+00	 1.020315e+01
0	 6.222222e+00	 5.185185e+00	 1.019897e+01
0	 6.296296e+00	 4.814815e+00	 1.021305e+01
0	 6.296296e+00	 4.888889e+00	 1.020932e+01
0	 6.296296e+00	 4.962963e+00	 1.020554e+01
0	 6.296296e+00	 5.037037e+00	 1.020170e+01
0	 6.296296e+00	 5.111111e+00	 1.019779e+01
0	 6.296296e+00	 5.185185e+00	 1.019380e+01
0	 5.925926e+00	 5.185185e+00	 1.021866e+01
0	 5.925926e+00	 5.259259e+00	 1.021364e+01
0	 5.925926e+00	 5.333333e+00	 1.020863e+01
0	 5.925926e+00	 5.407407e+00	 1.020361e+01
0	 5.925926e+00	 5.481481e+00	 1.019858e+01
0	 5.925926e+00	 5.555556e+00	 1.019353e+01
0	 6.000000e+00	 5.185185e+00	 1.021392e+01
0	 6.000000e+00	 5.259259e+00	 1.020911e+01
0	 6.000000e+00	 5.333333e+00	 1.020429e+01
0	 6.000000e+00	 5.407407e+00	 1.019946e+01
0	 6.000000e+00	 5.481481e+00	 1.019462e+01
0	 6.000000e+00	 5.555556e+00	 1.018974e+01
0	 6.074074e+00	 5.185185e+00	 1.020905e+01
0	 6.074074e+00	 5.259259e+00	 1.020444e+01
0	 6.074074e+00	 5.333333e+00	 1.019981e+01
0	 6.074074e+00	 5.407407e+00	 1.019517e+01
0	 6.074074e+00	 5.481481e+00	 1.019051e+01
0	 6.074074e+00	 5.555556e+00	 1.018582e+01
0	 6.148148e+00	 5.185185e+00	 1.020406e+01
0	 6.148148e+00	 5.259259e+00	 1.019964e+01
0	 6.148148e+00	 5.333333e+00	 1.019521e+01
0	 6.148148e+00	 5.407407e+00	 1.019076e+01
0	 6.148148e+00	 5.481481e+00	 1.018628e+01
0	 6.148148e+00	 5.555556e+00	 1.018176e+01
0	 6.222222e+00	 5.185185e+00	 1.019897e+01
0	 6.222222e+00	 5.259259e+00	 1.019475e+01
0	 6.222222e+00	 5.333333e+00	 1.019051e+01
0	 6.222222e+00	 5.407407e+00	 1.018624e+01
0	 6.222222e+00	 5.481481e+00	 1.018194e+01
0	 6.222222e+00	 5.555556e+00	 1.017760e+01
0	 6.296296e+00	 5.185185e+00	 1.019380e+01
0	 6.296296e+00	 5.259259e+00	 1.018977e+01
0	 6.296296e+00	 5.333333e+00	 1.018571e+01
0	 6.296296e+00	 5.407407e+00	 1.018162e+01
0	 6.296296e+00	 5.481481e+00	 1.017750e+01
0	 6.296296e+00	 5.555556e+00	 1.017333e+01
0	 5.925926e+00	 5.555556e+00	 1.019353e+01
0	 5.925926e+00	 5.629630e+00	 1.018848e+01
0	 5.925926e+00	 5.703704e+00	 1.018346e+01
0	 5.925926e+00	 5.777778e+00	 1.017846e+01
0	 5.925926e+00	 5.851852e+00	 1.017348e+01
0	 5.925926e+00	 5.925926e+00	 1.016850e+01
0	 6.000000e+00	 5.555556e+00	 1.018974e+01
0	 6.000000e+00	 5.629630e+00	 1.018487e+01
0	 6.000000e+00	 5.703704e+00	 1.018002e+01
0	 6.000000e+00	 5.777778e+00	 1.017518e+01
0	 6.000000e+00	 5.851852e+00	 1.017036e+01
0	 6.000000e+00	 5.925926e+00	 1.016554e+01
0	 6.074074e+00	 5.555556e+00	 1.018582e+01
0	 6.074074e+00	 5.629630e+00	 1.018112e+01
0	 6.074074e+00	 5.703704e+00	 1.017643e+01
0	 6.074074e+00	 5.777778e+00	 1.017176e+01
0	 6.074074e+00	 5.851852e+00	 1.016710e+01
0	 6.074074e+00	 5.925926e+00	 1.016243e+01
0	 6.148148e+00	 5.555556e+00	 1.018176e+01
0	 6.148148e+00	 5.629630e+00	 1.017724e+01
0	 6.148148e+00	 5.703704e+00	 1.017272e+01
0	 6.148148e+00	 5.777778e+00	 1.016821e+01
0	 6.148148e+00	 5.851852e+00	 1.016370e+01
0	 6.148148e+00	 5.925926e+00	 1.015919e+01
0	 6.222222e+00	 5.555556e+00	 1.017760e+01
0	 6.222222e+00	 5.629630e+00	 1.017324e+01
0	 6.222222e+00	 5.703704e+00	 1.016889e+01
0	 6.222222e+00	 5.777778e+00	 1.016455e+01
0	 6.222222e+00	 5.851852e+00	 1.016019e+01
0	 6.222222e+00	 5.925926e+00	 1.015583e+01
0	 6.296296e+00	 5.555556e+00	 1.017333e+01
0	 6.296296e+00	 5.629630e+00	 1.016915e+01
0	 6.296296e+00	 5.703704e+00	 1.016497e+01
0	 6.296296e+00	 5.777778e+00	 1.016078e+01
0	 6.296296e+00	 5.851852e+00	 1.015658e+01
0	 6.296296e+00	 5.925926e+00	 1.015238e+01
0	 5.925926e+00	 5.925926e+00	 1.016850e+01
0	 5.925926e+00	 6.000000e+00	 1.016356e+01
0	 5.925926e+00	 6.074074e+00	 1.015866e+01
0	 5.925926e+00	 6.148148e+00	 1.015380e+01
0	 5.925926e+00	 6.222222e+00	 1.014898e+01
0	 5.925926e+00	 6.296296e+00	 1.014419e+01
0	 6.000000e+00	 5.925926e+00	 1.016554e+01
0	 6.000000e+00	 6.000000e+00	 1.016074e+01
0	 6.000000e+00	 6.074074e+00	 1.015598e+01
0	 6.000000e+00	 6.148148e+00	 1.015126e+01
0	 6.000000e+00	 6.222222e+00	 1.014657e+01
0	 6.000000e+00	 6.296296e+00	 1.014191e+01
0	 6.074074e+00	 5.925926e+00	 1.016243e+01
0	 6.074074e+00	 6.000000e+00	 1.015778e+01
0	 6.074074e+00	 6.074074e+00	 1.015316e+01
0	 6.074074e+00	 6.148148e+00	 1.014858e+01
0	 6.074074e+00	 6.222222e+00	 1.014402e+01
0	 6.074074e+00	 6.296296e+00	 1.013948e+01
0	 6.148148e+00	 5.925926e+00	 1.015919e+01
0	 6.148148e+00	 6.000000e+00	 1.015469e+01
0	 6.148148e+00	 6.074074e+00	 1.015021e+01
0	 6.148148e+00	 6.148148e+00	 1.014577e+01
0	 6.148148e+00	 6.222222e+00	 1.014134e+01
0	 6.148148e+00	 6.296296e+00	 1.013694e+01
0	 6.222222e+00	 5.925926e+00	 1.015583e+01
0	 6.222222e+00	 6.000000e+00	 1.015148e+01
0	 6.222222e+00	 6.074074e+00	 1.014715e+01
0	 6.222222e+00	 6.148148e+00	 1.014284e+01
0	 6.222222e+00	 6.222222e+00	 1.013855e+01
0	 6.222222e+00	 6.296296e+00	 1.013428e+01
0	 6.296296e+00	 5.925926e+00	 1.015238e+01
0	 6.296296e+00	 6.000000e+00	 1.014817e+01
0	 6.296296e+00	 6.074074e+00	 1.014399e+01
0	 6.296296e+00	 6.148148e+00	 1.013982e+01
0	 6.296296e+00	 6.222222e+00	 1.013567e+01
0	 6.296296e+00	 6.296296e+00	 1.013152e+01
0	 5.925926e+00	 6.296296e+00	 1.014419e+01
0	 5.925926e+00	 6.370370e+00	 1.013945e+01
0	 5.925926e+00	 6.444444e+00	 1.013476e+01
0	 5.925926e+00	 6.518519e+00	 1.013013e+01
0	 5.925926e+00	 6.592593e+00	 1.012555e+01
0	 5.925926e+00	 6.666667e+00	 1.012102e+01
0	 6.000000e+00	 6.296296e+00	 1.014191e+01
0	 6.000000e+00	 6.370370e+00	 1.013728e+01
0	 6.000000e+00	 6.444444e+00	 1.013271e+01
0	 6.000000e+00	 6.518519e+00	 1.012819e+01
0	 6.000000e+00	 6.592593e+00	 1.012372e+01
0	 6.000000e+00	 6.666667e+00	 1.011928e+01
0	 6.074074e+00	 6.296296e+00	 1.013948e+01
0	 6.074074e+00	 6.370370e+00	 1.013498e+01
0	 6.074074e+00	 6.444444e+00	 1.013053e+01
0	 6.074074e+00	 6.518519e+00	 1.012612e+01
0	 6.074074e+00	 6.592593e+00	 1.012176e+01
0	 6.074074e+00	 6.666667e+00	 1.011743e+01
0	 6.148148e+00	 6.296296e+00	 1.013694e+01
0	 6.148148e+00	 6.370370e+00	 1.013256e+01
0	 6.148148e+00	 6.444444e+00	 1.012823e+01
0	 6.148148e+00	 6.518519e+00	 1.012393e+01
0	 6.148148e+00	 6.592593e+00	 1.011968e+01
0	 6.148148e+00	 6.666667e+00	 1.011546e+01
0	 6.222222e+00	 6.296296e+00	 1.013428e+01
0	 6.222222e+00	 6.370370e+00	 1.013003e+01
0	 6.222222e+00	 6.444444e+00	 1.012581e+01
0	 6.222222e+00	 6.518519e+00	 1.012164e+01
0	 6.222222e+00	 6.592593e+00	 1.011750e+01
0	 6.222222e+00	 6.666667e+00	 1.011338e+01
0	 6.296296e+00	 6.296296e+00	 1.013152e+01
0	 6.296296e+00	 6.370370e+00	 1.012739e+01
0	 6.296296e+00	 6.444444e+00	 1.012331e+01
0	 6.296296e+00	 6.518519e+00	 1.011925e+01
0	 6.296296e+00	 6.592593e+00	 1.011522e+01
0	 6.296296e+00	 6.666667e+00	 1.011122e+01
0	 5.925926e+00	 6.666667e+00	 1.012102e+01
0	 5.925926e+00	 6.740741e+00	 1.011654e+01
0	 5.925926e+00	 6.814815e+00	 1.011213e+01
0	 5.925926e+00	 6.888889e+00	 1.010778e+01
0	 5.925926e+00	 6.962963e+00	 1.010349e+01
0	 5.925926e+00	 7.037037e+00	 1.009926e+01
0	 6.000000e+00	 6.666667e+00	 1.011928e+01
0	 6.000000e+00	 6.740741e+00	 1.011490e+01
0	 6.000000e+00	 6.814815e+00	 1.011058e+01
0	 6.000000e+00	 6.888889e+00	 1.010633e+01
0	 6.000000e+00	 6.962963e+00	 1.010212e+01
0	 6.000000e+00	 7.037037e+00	 1.009797e+01
0	 6.074074e+00	 6.666667e+00	 1.011743e+01
0	 6.074074e+00	 6.740741e+00	 1.011315e+01
0	 6.074074e+00	 6.814815e+00	 1.010892e+01
0	 6.074074e+00	 6.888889e+00	 1.010476e+01
0	 6.074074e+00	 6.962963e+00	 1.010064e+01
0	 6.074074e+00	 7.037037e+00	 1.009657e+01
0	 6.148148e+00	 6.666667e+00	 1.011546e+01
0	 6.148148e+00	 6.740741e+00	 1.011128e+01
0	 6.148148e+00	 6.814815e+00	 1.010715e+01
0	 6.148148e+00	 6.888889e+00	 1.010308e+01
0	 6.148148e+00	 6.962963e+00	 1.009905e+01
0	 6.148148e+00	 7.037037e+00	 1.009507e+01
0	 6.222222e+00	 6.666667e+00	 1.011338e+01
0	 6.222222e+00	 6.740741e+00	 1.010931e+01
0	 6.222222e+00	 6.814815e+00	 1.010528e+01
0	 6.222222e+00	 6.888889e+00	 1.010131e+01
0	 6.222222e+00	 6.962963e+00	 1.009738e+01
0	 6.222222e+00	 7.037037e+00	 1.009348e+01
0	 6.296296e+00	 6.666667e+00	 1.011122e+01
0	 6.296296e+00	 6.740741e+00	 1.010725e+01
0	 6.296296e+00	 6.814815e+00	 1.010333e+01
0	 6.296296e+00	 6.888889e+00	 1.009945e+01
0	 6.296296e+00	 6.962963e+00	 1.009562e+01
0	 6.296296e+00	 7.037037e+00	 1.009182e+01
0	 5.925926e+00	 7.037037e+00	 1.009926e+01
0	 5.925926e+00	 7.111111e+00	 1.009510e+01
0	 5.925926e+00	 7.185185e+00	 1.009100e+01
0	 5.925926e+00	 7.259259e+00	 1.008698e+01
0	 5.925926e+00	 7.333333e+00	 1.008302e+01
0	 5.925926e+00	 7.407407e+00	 1.007913e+01
0	 6.000000e+00	 7.037037e+00	 1.009797e+01
0	 6.000000e+00	 7.111111e+00	 1.009388e+01
0	 6.000000e+00	 7.185185e+00	 1.008986e+01
0	 6.000000e+00	 7.259259e+00	 1.008591e+01
0	 6.000000e+00	 7.333333e+00	 1.008202e+01
0	 6.000000e+00	 7.407407e+00	 1.007818e+01
0	 6.074074e+00	 7.037037e+00	 1.009657e+01
0	 6.074074e+00	 7.111111e+00	 1.009256e+01
0	 6.074074e+00	 7.185185e+00	 1.008862e+01
0	 6.074074e+00	 7.259259e+00	 1.008474e+01
0	 6.074074e+00	 7.333333e+00	 1.008092e+01
0	 6.074074e+00	 7.407407e+00	 1.007715e+01
0	 6.148148e+00	 7.037037e+00	 1.009507e+01
0	 6.148148e+00	 7.111111e+00	 1.009115e+01
0	 6.148148e+00	 7.185185e+00	 1.008728e+01
0	 6.148148e+00	 7.259259e+00	 1.008348e+01
0	 6.148148e+00	 7.333333e+00	 1.007973e+01
0	 6.148148e+00	 7.407407e+00	 1.007603e+01
0	 6.222222e+00	 7.037037e+00	 1.009348e+01
0	 6.222222e+00	 7.111111e+00	 1.008964e+01
0	 6.222222e+00	 7.185185e+00	 1.008586e+01
0	 6.222222e+00	 7.259259e+00	 1.008213e+01
0	 6.222222e+00	 7.333333e+00	 1.007846e+01
0	 6.222222e+00	 7.407407e+00	 1.007484e+01
0	 6.296296e+00	 7.037037e+00	 1.009182e+01
0	 6.296296e+00	 7.111111e+00	 1.008806e+01
0	 6.296296e+00	 7.185185e+00	 1.008436e+01
0	 6.296296e+00	 7.259259e+00	 1.008072e+01
0	 6.296296e+00	 7.333333e+00	 1.007712e+01
0	 6.296296e+00	 7.407407e+00	 1.007358e+01
0	 5.925926e+00	 7.407407e+00	 1.007913e+01
0	 5.925926e+00	 7.481481e+00	 1.007531e+01
0	 5.925926e+00	 7.555556e+00	 1.007156e+01
0	 5.925926e+00	 7.629630e+00	 1.006789e+01
0	 5.925926e+00	 7.703704e+00	 1.006429e+01
0	 5.925926e+00	 7.777778e+00	 1.006076e+01
0	 6.000000e+00	 7.407407e+00	 1.007818e+01
0	 6.000000e+00	 7.481481e+00	 1.007442e+01
0	 6.000000e+00	 7.555556e+00	 1.007073e+01
0	 6.000000e+00	 7.629630e+00	 1.006711e+01
0	 6.000000e+00	 7.703704e+00	 1.006357e+01
0	 6.000000e+00	 7.777778e+00	 1.006008e+01
0	 6.074074e+00	 7.407407e+00	 1.007715e+01
0	 6.074074e+00	 7.481481e+00	 1.007345e+01
0	 6.074074e+00	 7.555556e+00	 1.006982e+01
0	 6.074074e+00	 7.629630e+00	 1.006626e+01
0	 6.074074e+00	 7.703704e+00	 1.006277e+01
0	 6.074074e+00	 7.777778e+00	 1.005933e+01
0	 6.148148e+00	 7.407407e+00	 1.007603e+01
0	 6.148148e+00	 7.481481e+00	 1.007240e+01
0	 6.148148e+00	 7.555556e+00	 1.006883e+01
0	 6.148148e+00	 7.629630e+00	 1.006533e+01
0	 6.148148e+00	 7.703704e+00	 1.006190e+01
0	 6.148148e+00	 7.777778e+00	 1.005852e+01
0	 6.222222e+00	 7.407407e+00	 1.007484e+01
0	 6.222222e+00	 7.481481e+00	 1.007127e+01
0	 6.222222e+00	 7.555556e+00	 1.006777e+01
0	 6.222222e+00	 7.629630e+00	 1.006434e+01
0	 6.222222e+00	 7.703704e+00	 1.006096e+01
0	 6.222222e+00	 7.777778e+00	 1.005765e+01
0	 6.296296e+00	 7.407407e+00	 1.007358e+01
0	 6.296296e+00	 7.481481e+00	 1.007008e+01
0	 6.296296e+00	 7.555556e+00	 1.006665e+01
0	 6.296296e+00	 7.629630e+00	 1.006329e+01
0	 6.296296e+00	 7.703704e+00	 1.005997e+01
0	 6.296296e+00	 7.777778e+00	 1.005672e+01
0	 5.925926e+00	 7.777778e+00	 1.006076e+01
0	 5.925926e+00	 7.851852e+00	 1.005730e+01
0	 5.925926e+00	 7.925926e+00	 1.005393e+01
0	 5.925926e+00	 8.000000e+00	 1.005064e+01
0	 5.925926e+00	 8.074074e+00	 1.004743e+01
0	 5.925926e+00	 8.148148e+00	 1.004429e+01
0	 6.000000e+00	 7.777778e+00	 1.006008e+01
0	 6.000000e+00	 7.851852e+00	 1.005667e+01
0	 6.000000e+00	 7.925926e+00	 1.005335e+01
0	 6.000000e+00	 8.000000e+00	 1.005010e+01
0	 6.000000e+00	 8.074074e+00	 1.004692e+01
0	 6.000000e+00	 8.148148e+00	 1.004382e+01
0	 6.074074e+00	 7.777778e+00	 1.005933e+01
0	 6.074074e+00	 7.851852e+00	 1.005597e+01
0	 6.074074e+00	 7.925926e+00	 1.005269e+01
0	 6.074074e+00	 8.000000e+00	 1.004949e+01
0	 6.074074e+00	 8.074074e+00	 1.004636e+01
0	 6.074074e+00	 8.148148e+00	 1.004330e+01
0	 6.148148e+00	 7.777778e+00	 1.005852e+01
0	 6.148148e+00	 7.851852e+00	 1.005521e+01
0	 6.148148e+00	 7.925926e+00	 1.005198e+01
0	 6.148148e+00	 8.000000e+00	 1.004883e+01
0	 6.148148e+00	 8.074074e+00	 1.004575e+01
0	 6.148148e+00	 8.148148e+00	 1.004273e+01
0	 6.222222e+00	 7.777778e+00	 1.005765e+01
0	 6.222222e+00	 7.851852e+00	 1.005440e+01
0	 6.222222e+00	 7.925926e+00	 1.005122e+01
0	 6.222222e+00	 8.000000e+00	 1.004812e+01
0	 6.222222e+00	 8.074074e+00	 1.004508e+01
0	 6.222222e+00	 8.148148e+00	 1.004211e+01
0	 6.296296e+00	 7.777778e+00	 1.005672e+01
0	 6.296296e+00	 7.851852e+00	 1.005353e+01
0	 6.296296e+00	 7.925926e+00	 1.005041e+01
0	 6.296296e+00	 8.000000e+00	 1.004736e+01
0	 6.296296e+00	 8.074074e+00	 1.004438e+01
0	 6.296296e+00	 8.148148e+00	 1.004145e+01
0	 5.925926e+00	 8.148148e+00	 1.004429e+01
0	 5.925926e+00	 8.222222e+00	 1.004123e+01
0	 5.925926e+00	 8.296296e+00	 1.003827e+01
0	 5.925926e+00	 8.370370e+00	 1.003540e+01
0	 5.925926e+00	 8.444444e+00	 1.003260e+01
0	 5.925926e+00	 8.518519e+00	 1.002989e+01
0	 6.000000e+00	 8.148148e+00	 1.004382e+01
0	 6.000000e+00	 8.222222e+00	 1.004080e+01
0	 6.000000e+00	 8.296296e+00	 1.003787e+01
0	 6.000000e+00	 8.370370e+00	 1.003503e+01
0	 6.000000e+00	 8.444444e+00	 1.003227e+01
0	 6.000000e+00	 8.518519e+00	 1.002959e+01
0	 6.074074e+00	 8.148148e+00	 1.004330e+01
0	 6.074074e+00	 8.222222e+00	 1.004032e+01
0	 6.074074e+00	 8.296296e+00	 1.003742e+01
0	 6.074074e+00	 8.370370e+00	 1.003462e+01
0	 6.074074e+00	 8.444444e+00	 1.003189e+01
0	 6.074074e+00	 8.518519e+00	 1.002924e+01
0	 6.148148e+00	 8.148148e+00	 1.004273e+01
0	 6.148148e+00	 8.222222e+00	 1.003979e+01
0	 6.148148e+00	 8.296296e+00	 1.003693e+01
0	 6.148148e+00	 8.370370e+00	 1.003417e+01
0	 6.148148e+00	 8.444444e+00	 1.003148e+01
0	 6.148148e+00	 8.518519e+00	 1.002886e+01
0	 6.222222e+00	 8.148148e+00	 1.004211e+01
0	 6.222222e+00	 8.222222e+00	 1.003922e+01
0	 6.222222e+00	 8.296296e+00	 1.003641e+01
0	 6.222222e+00	 8.370370e+00	 1.003368e+01
0	 6.222222e+00	 8.444444e+00	 1.003103e+01
0	 6.222222e+00	 8.518519e+00	 1.002845e+01
0	 6.296296e+00	 8.148148e+00	 1.004145e+01
0	 6.296296e+00	 8.222222e+00	 1.003861e+01
0	 6.296296e+00	 8.296296e+00	 1.003584e+01
0	 6.296296e+00	 8.370370e+00	 1.003316e+01
0	 6.296296e+00	 8.444444e+00	 1.003055e+01
0	 6.296296e+00	 8.518519e+00	 1.002802e+01
0	 5.925926e+00	 8.518519e+00	 1.002989e+01
0	 5.925926e+00	 8.592593e+00	 1.002728e+01
0	 5.925926e+00	 8.666667e+00	 1.002477e+01
0	 5.925926e+00	 8.740741e+00	 1.002236e+01
0	 5.925926e+00	 8.814815e+00	 1.002005e+01
0	 5.925926e+00	 8.888889e+00	 1.001782e+01
0	 6.000000e+00	 8.518519e+00	 1.002959e+01
0	 6.000000e+00	 8.592593e+00	 1.002700e+01
0	 6.000000e+00	 8.666667e+00	 1.002451e+01
0	 6.000000e+00	 8.740741e+00	 1.002213e+01
0	 6.000000e+00	 8.814815e+00	 1.001984e+01
0	 6.000000e+00	 8.888889e+00	 1.001764e+01
0	 6.074074e+00	 8.518519e+00	 1.002924e+01
0	 6.074074e+00	 8.592593e+00	 1.002668e+01
0	 6.074074e+00	 8.666667e+00	 1.002423e+01
0	 6.074074e+00	 8.740741e+00	 1.002187e+01
0	 6.074074e+00	 8.814815e+00	 1.001961e+01
0	 6.074074e+00	 8.888889e+00	 1.001743e+01
0	 6.148148e+00	 8.518519e+00	 1.002886e+01
0	 6.148148e+00	 8.592593e+00	 1.002634e+01
0	 6.148148e+00	 8.666667e+00	 1.002392e+01
0	 6.148148e+00	 8.740741e+00	 1.002159e+01
0	 6.148148e+00	 8.814815e+00	 1.001935e+01
0	 6.148148e+00	 8.888889e+00	 1.001721e+01
0	 6.222222e+00	 8.518519e+00	 1.002845e+01
0	 6.222222e+00	 8.592593e+00	 1.002597e+01
0	 6.222222e+00	 8.666667e+00	 1.002358e+01
0	 6.222222e+00	 8.740741e+00	 1.002128e+01
0	 6.222222e+00	 8.814815e+00	 1.001908e+01
0	 6.222222e+00	 8.888889e+00	 1.001696e+01
0	 6.296296e+00	 8.518519e+00	 1.002802e+01
0	 6.296296e+00	 8.592593e+00	 1.002557e+01
0	 6.296296e+00	 8.666667e+00	 1.002322e+01
0	 6.296296e+00	 8.740741e+00	 1.002096e+01
0	 6.296296e+00	 8.814815e+00	 1.001879e+01
0	 6.296296e+00	 8.888889e+00	 1.001670e+01
0	 5.925926e+00	 8.888889e+00	 1.001782e+01
0	 5.925926e+00	 8.962963e+00	 1.001571e+01
0	 5.925926e+00	 9.037037e+00	 1.001372e+01
0	 5.925926e+00	 9.111111e+00	 1.001185e+01
0	 5.925926e+00	 9.185185e+00	 1.001009e+01
0	 5.925926e+00	 9.259259e+00	 1.000844e+01
0	 6.000000e+00	 8.888889e+00	 1.001764e+01
0	 6.000000e+00	 8.962963e+00	 1.001555e+01
0	 6.000000e+00	 9.037037e+00	 1.001358e+01
0	 6.000000e+00	 9.111111e+00	 1.001173e+01
0	 6.000000e+00	 9.185185e+00	 1.000998e+01
0	 6.000000e+00	 9.259259e+00	 1.000835e+01
0	 6.074074e+00	 8.888889e+00	 1.001743e+01
0	 6.074074e+00	 8.962963e+00	 1.001536e+01
0	 6.074074e+00	 9.037037e+00	 1.001342e+01
0	 6.074074e+00	 9.111111e+00	 1.001159e+01
0	 6.074074e+00	 9.185185e+00	 1.000987e+01
0	 6.074074e+00	 9.259259e+00	 1.000825e+01
0	 6.148148e+00	 8.888889e+00	 1.001721e+01
0	 6.148148e+00	 8.962963e+00	 1.001516e+01
0	 6.148148e+00	 9.037037e+00	 1.001324e+01
0	 6.148148e+00	 9.111111e+00	 1.001143e+01
0	 6.148148e+00	 9.185185e+00	 1.000973e+01
0	 6.148148e+00	 9.259259e+00	 1.000814e+01
0	 6.222222e+00	 8.888889e+00	 1.001696e+01
0	 6.222222e+00	 8.962963e+00	 1.001495e+01
0	 6.222222e+00	 9.037037e+00	 1.001305e+01
0	 6.222222e+00	 9.111111e+00	 1.001127e+01
0	 6.222222e+00	 9.185185e+00	 1.000959e+01
0	 6.222222e+00	 9.259259e+00	 1.000802e+01
0	 6.296296e+00	 8.888889e+00	 1.001670e+01
0	 6.296296e+00	 8.962963e+00	 1.001472e+01
0	 6.296296e+00	 9.037037e+00	 1.001285e+01
0	 6.296296e+00	 9.111111e+00	 1.001110e+01
0	 6.296296e+00	 9.185185e+00	 1.000945e+01
0	 6.296296e+00	 9.259259e+00	 1.000789e+01
0	 5.925926e+00	 9.259259e+00	 1.000844e+01
0	 5.925926e+00	 9.333333e+00	 1.000691e+01
0	 5.925926e+00	 9.407407e+00	 1.000554e+01
0	 5.925926e+00	 9.481481e+00	 1.000431e+01
0	 5.925926e+00	 9.555556e+00	 1.000322e+01
0	 5.925926e+00	 9.629630e+00	 1.000226e+01
0	 6.000000e+00	 9.259259e+00	 1.000835e+01
0	 6.000000e+00	 9.333333e+00	 1.000684e+01
0	 6.000000e+00	 9.407407e+00	 1.000548e+01
0	 6.000000e+00	 9.481481e+00	 1.000427e+01
0	 6.000000e+00	 9.555556e+00	 1.000319e+01
0	 6.000000e+00	 9.629630e+00	 1.000223e+01
0	 6.074074e+00	 9.259259e+00	 1.000825e+01
0	 6.074074e+00	 9.333333e+00	 1.000676e+01
0	 6.074074e+00	 9.407407e+00	 1.000541e+01
0	 6.074074e+00	 9.481481e+00	 1.000421e+01
0	 6.074074e+00	 9.555556e+00	 1.000315e+01
0	 6.074074e+00	 9.629630e+00	 1.000221e+01
0	 6.148148e+00	 9.259259e+00	 1.000814e+01
0	 6.148148e+00	 9.333333e+00	 1.000667e+01
0	 6.148148e+00	 9.407407e+00	 1.000534e+01
0	 6.148148e+00	 9.481481e+00	 1.000416e+01
0	 6.148148e+00	 9.555556e+00	 1.000310e+01
0	 6.148148e+00	 9.629630e+00	 1.000217e+01
0	 6.222222e+00	 9.259259e+00	 1.000802e+01
0	 6.222222e+00	 9.333333e+00	 1.000657e+01
0	 6.222222e+00	 9.407407e+00	 1.000526e+01
0	 6.222222e+00	 9.481481e+00	 1.000409e+01
0	 6.222222e+00	 9.555556e+00	 1.000306e+01
0	 6.222222e+00	 9.629630e+00	 1.000214e+01
0	 6.296296e+00	 9.259259e+00	 1.000789e+01
0	 6.296296e+00	 9.333333e+00	 1.000647e+01
0	 6.296296e+00	 9.407407e+00	 1.000518e+01
0	 6.296296e+00	 9.481481e+00	 1.000403e+01
0	 6.296296e+00	 9.555556e+00	 1.000301e+01
0	 6.296296e+00	 9.629630e+00	 1.000211e+01
0	 5.925926e+00	 9.629630e+00	 1.000226e+01
0	 5.925926e+00	 9.703704e+00	 1.000145e+01
0	 5.925926e+00	 9.777778e+00	 1.000083e+01
0	 5.925926e+00	 9.851852e+00	 1.000039e+01
0	 5.925926e+00	 9.925926e+00	 1.000010e+01
0	 5.925926e+00	 1.000000e+01	 9.999977e+00
0	 6.000000e+00	 9.629630e+00	 1.000223e+01
0	 6.000000e+00	 9.703704e+00	 1.000144e+01
0	 6.000000e+00	 9.777778e+00	 1.000082e+01
0	 6.000000e+00	 9.851852e+00	 1.000038e+01
0	 6.000000e+00	 9.925926e+00	 1.000010e+01
0	 6.000000e+00	 1.000000e+01	 9.999979e+00
0	 6.074074e+00	 9.629630e+00	 1.000221e+01
0	 6.074074e+00	 9.703704e+00	 1.000142e+01
0	 6.074074e+00	 9.777778e+00	 1.000081e+01
0	 6.074074e+00	 9.851852e+00	 1.000038e+01
0	 6.074074e+00	 9.925926e+00	 1.000010e+01
0	 6.074074e+00	 1.000000e+01	 9.999979e+00
0	 6.148148e+00	 9.629630e+00	 1.000217e+01
0	 6.148148e+00	 9.703704e+00	 1.000140e+01
0	 6.148148e+00	 9.777778e+00	 1.000080e+01
0	 6.148148e+00	 9.851852e+00	 1.000037e+01
0	 6.148148e+00	 9.925926e+00	 1.000010e+01
0	 6.148148e+00	 1.000000e+01	 9.999978e+00
0	 6.222222e+00	 9.629630e+00	 1.000214e+01
0	 6.222222e+00	 9.703704e+00	 1.000138e+01
0	 6.222222e+00	 9.777778e+00	 1.000079e+01
0	 6.222222e+00	 9.851852e+00	 1.000036e+01
0	 6.222222e+00	 9.925926e+00	 1.000010e+01
0	 6.222222e+00	 1.000000e+01	 9.999978e+00
0	 6.296296e+00	 9.629630e+00	 1.000211e+01
0	 6.296296e+00	 9.703704e+00	 1.000136e+01
0	 6.296296e+00	 9.777778e+00	 1.000077e+01
0	 6.296296e+00	 9.851852e+00	 1.000036e+01
0	 6.296296e+00	 9.925926e+00	 1.000010e+01
0	 6.296296e+00	 1.000000e+01	 9.999980e+00
0	 6.296296e+00	 0.000000e+00	 1.016278e+01
0	 6.296296e+00	 7.407407e-02	 1.016294e+01
0	 6.296296e+00	 1.481481e-01	 1.016338e+01
0	 6.296296e+00	 2.222222e-01	 1.016409e+01
0	 6.296296e+00	 2.962963e-01	 1.016508e+01
0	 6.296296e+00	 3.703704e-01	 1.016636e+01
0	 6.370370e+00	 0.000000e+00	 1.015445e+01
0	 6.370370e+00	 7.407407e-02	 1.015461e+01
0	 6.370370e+00	 1.481481e-01	 1.015504e+01
0	 6.370370e+00	 2.222222e-01	 1.015572e+01
0	 6.370370e+00	 2.962963e-01	 1.015668e+01
0	 6.370370e+00	 3.703704e-01	 1.015791e+01
0	 6.444444e+00	 0.000000e+00	 1.014618e+01
0	 6.444444e+00	 7.407407e-02	 1.014634e+01
0	 6.444444e+00	 1.481481e-01	 1.014674e+01
0	 6.444444e+00	 2.222222e-01	 1.014740e+01
0	 6.444444e+00	 2.962963e-01	 1.014832e+01
0	 6.444444e+00	 3.703704e-01	 1.014949e+01
0	 6.518519e+00	 0.000000e+00	 1.013797e+01
0	 6.518519e+00	 7.407407e-02	 1.013811e+01
0	 6.518519e+00	 1.481481e-01	 1.013849e+01
0	 6.518519e+00	 2.222222e-01	 1.013912e+01
0	 6.518519e+00	 2.962963e-01	 1.014000e+01
0	 6.518519e+00	 3.703704e-01	 1.014113e+01
0	 6.592593e+00	 0.000000e+00	 1.012980e+01
0	 6.592593e+00	 7.407407e-02	 1.012993e+01
0	 6.592593e+00	 1.481481e-01	 1.013028e+01
0	 6.592593e+00	 2.222222e-01	 1.013088e+01
0	 6.592593e+00	 2.962963e-01	 1.013172e+01
0	 6.592593e+00	 3.703704e-01	 1.013281e+01
0	 6.666667e+00	 0.000000e+00	 1.012168e+01
0	 6.666667e+00	 7.407407e-02	 1.012178e+01
0	 6.666667e+00	 1.481481e-01	 1.012211e+01
0	 6.666667e+00	 2.222222e-01	 1.012268e+01
0	 6.666667e+00	 2.962963e-01	 1.012348e+01
0	 6.666667e+00	 3.703704e-01	 1.012453e+01
0	 6.296296e+00	 3.703704e-01	 1.016636e+01
0	 6.296296e+00	 4.444444e-01	 1.016790e+01
0	 6.296296e+00	 5.185185e-01	 1.016966e+01
0	 6.296296e+00	 5.925926e-01	 1.017165e+01
0	 6.296296e+00	 6.666667e-01	 1.017390e+01
0	 6.296296e+00	 7.407407e-01	 1.017641e+01
0	 6.370370e+00	 3.703704e-01	 1.015791e+01
0	 6.370370e+00	 4.444444e-01	 1.015937e+01
0	 6.370370e+00	 5.185185e-01	 1.016106e+01
0	 6.370370e+00	 5.925926e-01	 1.016297e+01
0	 6.370370e+00	 6.666667e-01	 1.016512e+01
0	 6.370370e+00	 7.407407e-01	 1.016752e+01
0	 6.444444e+00	 3.703704e-01	 1.014949e+01
0	 6.444444e+00	 4.444444e-01	 1.015090e+01
0	 6.444444e+00	 5.185185e-01	 1.015252e+01
0	 6.444444e+00	 5.925926e-01	 1.015435e+01
0	 6.444444e+00	 6.666667e-01	 1.015641e+01
0	 6.444444e+00	 7.407407e-01	 1.015872e+01
0	 6.518519e+00	 3.703704e-01	 1.014113e+01
0	 6.518519e+00	 4.444444e-01	 1.014248e+01
0	 6.518519e+00	 5.185185e-01	 1.014403e+01
0	 6.518519e+00	 5.925926e-01	 1.014579e+01
0	 6.518519e+00	 6.666667e-01	 1.014777e+01
0	 6.518519e+00	 7.407407e-01	 1.014999e+01
0	 6.592593e+00	 3.703704e-01	 1.013281e+01
0	 6.592593e+00	 4.444444e-01	 1.013411e+01
0	 6.592593e+00	 5.185185e-01	 1.013560e+01
0	 6.592593e+00	 5.925926e-01	 1.013729e+01
0	 6.592593e+00	 6.666667e-01	 1.013920e+01
0	 6.592593e+00	 7.407407e-01	 1.014132e+01
0	 6.666667e+00	 3.703704e-01	 1.012453e+01
0	 6.666667e+00	 4.444444e-01	 1.012578e+01
0	 6.666667e+00	 5.185185e-01	 1.012721e+01
0	 6.666667e+00	 5.925926e-01	 1.012884e+01
0	 6.666667e+00	 6.666667e-01	 1.013067e+01
0	 6.666667e+00	 7.407407e-01	 1.013271e+01
0	 6.296296e+00	 7.407407e-01	 1.017641e+01
0	 6.296296e+00	 8.148148e-01	 1.017911e+01
0	 6.296296e+00	 8.888889e-01	 1.018194e+01
0	 6.296296e+00	 9.629630e-01	 1.018492e+01
0	 6.296296e+00	 1.037037e+00	 1.018806e+01
0	 6.296296e+00	 1.111111e+00	 1.019139e+01
0	 6.370370e+00	 7.407407e-01	 1.016752e+01
0	 6.370370e+00	 8.148148e-01	 1.017011e+01
0	 6.370370e+00	 8.888889e-01	 1.017283e+01
0	 6.370370e+00	 9.629630e-01	 1.017568e+01
0	 6.370370e+00	 1.037037e+00	 1.017870e+01
0	 6.370370e+00	 1.111111e+00	 1.018189e+01
0	 6.444444e+00	 7.407407e-01	 1.015872e+01
0	 6.444444e+00	 8.148148e-01	 1.016120e+01
0	 6.444444e+00	 8.888889e-01	 1.016381e+01
0	 6.444444e+00	 9.629630e-01	 1.016655e+01
0	 6.444444e+00	 1.037037e+00	 1.016945e+01
0	 6.444444e+00	 1.111111e+00	 1.017253e+01
0	 6.518519e+00	 7.407407e-01	 1.014999e+01
0	 6.518519e+00	 8.148148e-01	 1.015237e+01
0	 6.518519e+00	 8.888889e-01	 1.015488e+01
0	 6.518519e+00	 9.629630e-01	 1.015752e+01
0	 6.518519e+00	 1.037037e+00	 1.016031e+01
0	 6.518519e+00	 1.111111e+00	 1.016327e+01
0	 6.592593e+00	 7.407407e-01	 1.014132e+01
0	 6.592593e+00	 8.148148e-01	 1.014361e+01
0	 6.592593e+00	 8.888889e-01	 1.014602e+01
0	 6.592593e+00	 9.629630e-01	 1.014857e+01
0	 6.592593e+00	 1.037037e+00	 1.015126e+01
0	 6.592593e+00	 1.111111e+00	 1.015411e+01
0	 6.666667e+00	 7.407407e-01	 1.013271e+01
0	 6.666667e+00	 8.148148e-01	 1.013491e+01
0	 6.666667e+00	 8.888889e-01	 1.013723e+01
0	 6.666667e+00	 9.629630e-01	 1.013968e+01
0	 6.666667e+00	 1.037037e+00	 1.014228e+01
0	 6.666667e+00	 1.111111e+00	 1.014504e+01
0	 6.296296e+00	 1.111111e+00	 1.019139e+01
0	 6.296296e+00	 1.185185e+00	 1.019482e+01
0	 6.296296e+00	 1.259259e+00	 1.019827e+01
0	 6.296296e+00	 1.333333e+00	 1.020176e+01
0	 6.296296e+00	 1.407407e+00	 1.020532e+01
0	 6.296296e+00	 1.481481e+00	 1.020898e+01
0	 6.370370e+00	 1.111111e+00	 1.018189e+01
0	 6.370370e+00	 1.185185e+00	 1.018519e+01
0	 6.370370e+00	 1.259259e+00	 1.018851e+01
0	 6.370370e+00	 1.333333e+00	 1.019189e+01
0	 6.370370e+00	 1.407407e+00	 1.019533e+01
0	 6.370370e+00	 1.481481e+00	 1.019886e+01
0	 6.444444e+00	 1.111111e+00	 1.017253e+01
0	 6.444444e+00	 1.185185e+00	 1.017570e+01
0	 6.444444e+00	 1.259259e+00	 1.017891e+01
0	 6.444444e+00	 1.333333e+00	 1.018216e+01
0	 6.444444e+00	 1.407407e+00	 1.018549e+01
0	 6.444444e+00	 1.481481e+00	 1.018891e+01
0	 6.518519e+00	 1.111111e+00	 1.016327e+01
0	 6.518519e+00	 1.185185e+00	 1.016633e+01
0	 6.518519e+00	 1.259259e+00	 1.016943e+01
0	 6.518519e+00	 1.333333e+00	 1.017257e+01
0	 6.518519e+00	 1.407407e+00	 1.017579e+01
0	 6.518519e+00	 1.481481e+00	 1.017909e+01
0	 6.592593e+00	 1.111111e+00	 1.015411e+01
0	 6.592593e+00	 1.185185e+00	 1.015707e+01
0	 6.592593e+00	 1.259259e+00	 1.016006e+01
0	 6.592593e+00	 1.333333e+00	 1.016310e+01
0	 6.592593e+00	 1.407407e+00	 1.016621e+01
0	 6.592593e+00	 1.481481e+00	 1.016940e+01
0	 6.666667e+00	 1.111111e+00	 1.014504e+01
0	 6.666667e+00	 1.185185e+00	 1.014789e+01
0	 6.666667e+00	 1.259259e+00	 1.015078e+01
0	 6.666667e+00	 1.333333e+00	 1.015372e+01
0	 6.666667e+00	 1.407407e+00	 1.015673e+01
0	 6.666667e+00	 1.481481e+00	 1.015982e+01
0	 6.296296e+00	 1.481481e+00	 1.020898e+01
0	 6.296296e+00	 1.555556e+00	 1.021264e+01
0	 6.296296e+00	 1.629630e+00	 1.021621e+01
0	 6.296296e+00	 1.703704e+00	 1.021972e+01
0	 6.296296e+00	 1.777778e+00	 1.022319e+01
0	 6.296296e+00	 1.851852e+00	 1.022664e+01
0	 6.370370e+00	 1.481481e+00	 1.019886e+01
0	 6.370370e+00	 1.555556e+00	 1.020240e+01
0	 6.370370e+00	 1.629630e+00	 1.020587e+01
0	 6.370370e+00	 1.703704e+00	 1.020928e+01
0	 6.370370e+00	 1.777778e+00	 1.021265e+01
0	 6.370370e+00	 1.851852e+00	 1.021602e+01
0	 6.444444e+00	 1.481481e+00	 1.018891e+01
0	 6.444444e+00	 1.555556e+00	 1.019233e+01
0	 6.444444e+00	 1.629630e+00	 1.019569e+01
0	 6.444444e+00	 1.703704e+00	 1.019901e+01
0	 6.444444e+00	 1.777778e+00	 1.020229e+01
0	 6.444444e+00	 1.851852e+00	 1.020557e+01
0	 6.518519e+00	 1.481481e+00	 1.017909e+01
0	 6.518519e+00	 1.555556e+00	 1.018241e+01
0	 6.518519e+00	 1.629630e+00	 1.018567e+01
0	 6.518519e+00	 1.703704e+00	 1.018889e+01
0	 6.518519e+00	 1.777778e+00	 1.019209e+01
0	 6.518519e+00	 1.851852e+00	 1.019529e+01
0	 6.592593e+00	 1.481481e+00	 1.016940e+01
0	 6.592593e+00	 1.555556e+00	 1.017262e+01
0	 6.592593e+00	 1.629630e+00	 1.017578e+01
0	 6.592593e+00	 1.703704e+00	 1.017891e+01
0	 6.592593e+00	 1.777778e+00	 1.018203e+01
0	 6.592593e+00	 1.851852e+00	 1.018515e+01
0	 6.666667e+00	 1.481481e+00	 1.015982e+01
0	 6.666667e+00	 1.555556e+00	 1.016294e+01
0	 6.666667e+00	 1.629630e+00	 1.016601e+01
0	 6.666667e+00	 1.703704e+00	 1.016906e+01
0	 6.666667e+00	 1.777778e+00	 1.017210e+01
0	 6.666667e+00	 1.851852e+00	 1.017514e+01
0	 6.296296e+00	 1.851852e+00	 1.022664e+01
0	 6.296296e+00	 1.925926e+00	 1.023000e+01
0	 6.296296e+00	 2.000000e+00	 1.023320e+01
0	 6.296296e+00	 2.074074e+00	 1.023625e+01
0	 6.296296e+00	 2.148148e+00	 1.023918e+01
0	 6.296296e+00	 2.222222e+00	 1.024200e+01
0	 6.370370e+00	 1.851852e+00	 1.021602e+01
0	 6.370370e+00	 1.925926e+00	 1.021930e+01
0	 6.370370e+00	 2.000000e+00	 1.022243e+01
0	 6.370370e+00	 2.074074e+00	 1.022543e+01
0	 6.370370e+00	 2.148148e+00	 1.022831e+01
0	 6.370370e+00	 2.222222e+00	 1.023110e+01
0	 6.444444e+00	 1.851852e+00	 1.020557e+01
0	 6.444444e+00	 1.925926e+00	 1.020878e+01
0	 6.444444e+00	 2.000000e+00	 1.021184e+01
0	 6.444444e+00	 2.074074e+00	 1.021479e+01
0	 6.444444e+00	 2.148148e+00	 1.021763e+01
0	 6.444444e+00	 2.222222e+00	 1.022038e+01
0	 6.518519e+00	 1.851852e+00	 1.019529e+01
0	 6.518519e+00	 1.925926e+00	 1.019842e+01
0	 6.518519e+00	 2.000000e+00	 1.020143e+01
0	 6.518519e+00	 2.074074e+00	 1.020432e+01
0	 6.518519e+00	 2.148148e+00	 1.020712e+01
0	 6.518519e+00	 2.222222e+00	 1.020984e+01
0	 6.592593e+00	 1.851852e+00	 1.018515e+01
0	 6.592593e+00	 1.925926e+00	 1.018822e+01
0	 6.592593e+00	 2.000000e+00	 1.019116e+01
0	 6.592593e+00	 2.074074e+00	 1.019401e+01
0	 6.592593e+00	 2.148148e+00	 1.019676e+01
0	 6.592593e+00	 2.222222e+00	 1.019944e+01
0	 6.666667e+00	 1.851852e+00	 1.017514e+01
0	 6.666667e+00	 1.925926e+00	 1.017814e+01
0	 6.666667e+00	 2.000000e+00	 1.018103e+01
0	 6.666667e+00	 2.074074e+00	 1.018382e+01
0	 6.666667e+00	 2.148148e+00	 1.018653e+01
0	 6.666667e+00	 2.222222e+00	 1.018918e+01
0	 6.296296e+00	 2.222222e+00	 1.024200e+01
0	 6.296296e+00	 2.296296e+00	 1.024466e+01
0	 6.296296e+00	 2.370370e+00	 1.024711e+01
0	 6.296296e+00	 2.444444e+00	 1.024935e+01
0	 6.296296e+00	 2.518519e+00	 1.025139e+01
0	 6.296296e+00	 2.592593e+00	 1.025326e+01
0	 6.370370e+00	 2.222222e+00	 1.023110e+01
0	 6.370370e+00	 2.296296e+00	 1.023374e+01
0	 6.370370e+00	 2.370370e+00	 1.023617e+01
0	 6.370370e+00	 2.444444e+00	 1.023841e+01
0	 6.370370e+00	 2.518519e+00	 1.024047e+01
0	 6.370370e+00	 2.592593e+00	 1.024237e+01
0	 6.444444e+00	 2.222222e+00	 1.022038e+01
0	 6.444444e+00	 2.296296e+00	 1.022300e+01
0	 6.444444e+00	 2.370370e+00	 1.022542e+01
0	 6.444444e+00	 2.444444e+00	 1.022766e+01
0	 6.444444e+00	 2.518519e+00	 1.022973e+01
0	 6.444444e+00	 2.592593e+00	 1.023165e+01
0	 6.518519e+00	 2.222222e+00	 1.020984e+01
0	 6.518519e+00	 2.296296e+00	 1.021242e+01
0	 6.518519e+00	 2.370370e+00	 1.021483e+01
0	 6.518519e+00	 2.444444e+00	 1.021707e+01
0	 6.518519e+00	 2.518519e+00	 1.021915e+01
0	 6.518519e+00	 2.592593e+00	 1.022109e+01
0	 6.592593e+00	 2.222222e+00	 1.019944e+01
0	 6.592593e+00	 2.296296e+00	 1.020200e+01
0	 6.592593e+00	 2.370370e+00	 1.020439e+01
0	 6.592593e+00	 2.444444e+00	 1.020663e+01
0	 6.592593e+00	 2.518519e+00	 1.020872e+01
0	 6.592593e+00	 2.592593e+00	 1.021067e+01
0	 6.666667e+00	 2.222222e+00	 1.018918e+01
0	 6.666667e+00	 2.296296e+00	 1.019171e+01
0	 6.666667e+00	 2.370370e+00	 1.019409e+01
0	 6.666667e+00	 2.444444e+00	 1.019632e+01
0	 6.666667e+00	 2.518519e+00	 1.019841e+01
0	 6.666667e+00	 2.592593e+00	 1.020038e+01
0	 6.296296e+00	 2.592593e+00	 1.025326e+01
0	 6.296296e+00	 2.666667e+00	 1.025493e+01
0	 6.296296e+00	 2.740741e+00	 1.025635e+01
0	 6.296296e+00	 2.814815e+00	 1.025754e+01
0	 6.296296e+00	 2.888889e+00	 1.025851e+01
0	 6.296296e+00	 2.962963e+00	 1.025927e+01
0	 6.370370e+00	 2.592593e+00	 1.024237e+01
0	 6.370370e+00	 2.666667e+00	 1.024407e+01
0	 6.370370e+00	 2.740741e+00	 1.024555e+01
0	 6.370370e+00	 2.814815e+00	 1.024680e+01
0	 6.370370e+00	 2.888889e+00	 1.024785e+01
0	 6.370370e+00	 2.962963e+00	 1.024869e+01
0	 6.444444e+00	 2.592593e+00	 1.023165e+01
0	 6.444444e+00	 2.666667e+00	 1.023339e+01
0	 6.444444e+00	 2.740741e+00	 1.023491e+01
0	 6.444444e+00	 2.814815e+00	 1.023622e+01
0	 6.444444e+00	 2.888889e+00	 1.023734e+01
0	 6.444444e+00	 2.962963e+00	 1.023826e+01
0	 6.518519e+00	 2.592593e+00	 1.022109e+01
0	 6.518519e+00	 2.666667e+00	 1.022286e+01
0	 6.518519e+00	 2.740741e+00	 1.022442e+01
0	 6.518519e+00	 2.814815e+00	 1.022579e+01
0	 6.518519e+00	 2.888889e+00	 1.022696e+01
0	 6.518519e+00	 2.962963e+00	 1.022796e+01
0	 6.592593e+00	 2.592593e+00	 1.021067e+01
0	 6.592593e+00	 2.666667e+00	 1.021247e+01
0	 6.592593e+00	 2.740741e+00	 1.021407e+01
0	 6.592593e+00	 2.814815e+00	 1.021548e+01
0	 6.592593e+00	 2.888889e+00	 1.021672e+01
0	 6.592593e+00	 2.962963e+00	 1.021778e+01
0	 6.666667e+00	 2.592593e+00	 1.020038e+01
0	 6.666667e+00	 2.666667e+00	 1.020221e+01
0	 6.666667e+00	 2.740741e+00	 1.020384e+01
0	 6.666667e+00	 2.814815e+00	 1.020530e+01
0	 6.666667e+00	 2.888889e+00	 1.020659e+01
0	 6.666667e+00	 2.962963e+00	 1.020772e+01
0	 6.296296e+00	 2.962963e+00	 1.025927e+01
0	 6.296296e+00	 3.037037e+00	 1.025980e+01
0	 6.296296e+00	 3.111111e+00	 1.026009e+01
0	 6.296296e+00	 3.185185e+00	 1.026015e+01
0	 6.296296e+00	 3.259259e+00	 1.025999e+01
0	 6.296296e+00	 3.333333e+00	 1.025959e+01
0	 6.370370e+00	 2.962963e+00	 1.024869e+01
0	 6.370370e+00	 3.037037e+00	 1.024932e+01
0	 6.370370e+00	 3.111111e+00	 1.024972e+01
0	 6.370370e+00	 3.185185e+00	 1.024990e+01
0	 6.370370e+00	 3.259259e+00	 1.024986e+01
0	 6.370370e+00	 3.333333e+00	 1.024960e+01
0	 6.444444e+00	 2.962963e+00	 1.023826e+01
0	 6.444444e+00	 3.037037e+00	 1.023898e+01
0	 6.444444e+00	 3.111111e+00	 1.023948e+01
0	 6.444444e+00	 3.185185e+00	 1.023977e+01
0	 6.444444e+00	 3.259259e+00	 1.023985e+01
0	 6.444444e+00	 3.333333e+00	 1.023972e+01
0	 6.518519e+00	 2.962963e+00	 1.022796e+01
0	 6.518519e+00	 3.037037e+00	 1.022876e+01
0	 6.518519e+00	 3.111111e+00	 1.022936e+01
0	 6.518519e+00	 3.185185e+00	 1.022975e+01
0	 6.518519e+00	 3.259259e+00	 1.022994e+01
0	 6.518519e+00	 3.333333e+00	 1.022993e+01
0	 6.592593e+00	 2.962963e+00	 1.021778e+01
0	 6.592593e+00	 3.037037e+00	 1.021866e+01
0	 6.592593e+00	 3.111111e+00	 1.021935e+01
0	 6.592593e+00	 3.185185e+00	 1.021983e+01
0	 6.592593e+00	 3.259259e+00	 1.022013e+01
0	 6.592593e+00	 3.333333e+00	 1.022024e+01
0	 6.666667e+00	 2.962963e+00	 1.020772e+01
0	 6.666667e+00	 3.037037e+00	 1.020867e+01
0	 6.666667e+00	 3.111111e+00	 1.020944e+01
0	 6.666667e+00	 3.185185e+00	 1.021002e+01
0	 6.666667e+00	 3.259259e+00	 1.021041e+01
0	 6.666667e+00	 3.333333e+00	 1.021063e+01
0	 6.296296e+00	 3.333333e+00	 1.025959e+01
0	 6.296296e+00	 3.407407e+00	 1.025898e+01
0	 6.296296e+00	 3.481481e+00	 1.025816e+01
0	 6.296296e+00	 3.555556e+00	 1.025712e+01
0	 6.296296e+00	 3.629630e+00	 1.025587e+01
0	 6.296296e+00	 3.703704e+00	 1.025441e+01
0	 6.370370e+00	 3.333333e+00	 1.024960e+01
0	 6.370370e+00	 3.407407e+00	 1.024914e+01
0	 6.370370e+00	 3.481481e+00	 1.024847e+01
0	 6.370370e+00	 3.555556e+00	 1.024759e+01
0	 6.370370e+00	 3.629630e+00	 1.024651e+01
0	 6.370370e+00	 3.703704e+00	 1.024522e+01
0	 6.444444e+00	 3.333333e+00	 1.023972e+01
0	 6.444444e+00	 3.407407e+00	 1.023939e+01
0	 6.444444e+00	 3.481481e+00	 1.023886e+01
0	 6.444444e+00	 3.555556e+00	 1.023814e+01
0	 6.444444e+00	 3.629630e+00	 1.023721e+01
0	 6.444444e+00	 3.703704e+00	 1.023609e+01
0	 6.518519e+00	 3.333333e+00	 1.022993e+01
0	 6.518519e+00	 3.407407e+00	 1.022973e+01
0	 6.518519e+00	 3.481481e+00	 1.022934e+01
0	 6.518519e+00	 3.555556e+00	 1.022876e+01
0	 6.518519e+00	 3.629630e+00	 1.022798e+01
0	 6.518519e+00	 3.703704e+00	 1.022702e+01
0	 6.592593e+00	 3.333333e+00	 1.022024e+01
0	 6.592593e+00	 3.407407e+00	 1.022016e+01
0	 6.592593e+00	 3.481481e+00	 1.021990e+01
0	 6.592593e+00	 3.555556e+00	 1.021945e+01
0	 6.592593e+00	 3.629630e+00	 1.021882e+01
0	 6.592593e+00	 3.703704e+00	 1.021801e+01
0	 6.666667e+00	 3.333333e+00	 1.021063e+01
0	 6.666667e+00	 3.407407e+00	 1.021067e+01
0	 6.666667e+00	 3.481481e+00	 1.021053e+01
0	 6.666667e+00	 3.555556e+00	 1.021022e+01
0	 6.666667e+00	 3.629630e+00	 1.020972e+01
0	 6.666667e+00	 3.703704e+00	 1.020905e+01
0	 6.296296e+00	 3.703704e+00	 1.025441e+01
0	 6.296296e+00	 3.777778e+00	 1.025275e+01
0	 6.296296e+00	 3.851852e+00	 1.025091e+01
0	 6.296296e+00	 3.925926e+00	 1.024890e+01
0	 6.296296e+00	 4.000000e+00	 1.024670e+01
0	 6.296296e+00	 4.074074e+00	 1.024432e+01
0	 6.370370e+00	 3.703704e+00	 1.024522e+01
0	 6.370370e+00	 3.777778e+00	 1.024374e+01
0	 6.370370e+00	 3.851852e+00	 1.024209e+01
0	 6.370370e+00	 3.925926e+00	 1.024026e+01
0	 6.370370e+00	 4.000000e+00	 1.023826e+01
0	 6.370370e+00	 4.074074e+00	 1.023607e+01
0	 6.444444e+00	 3.703704e+00	 1.023609e+01
0	 6.444444e+00	 3.777778e+00	 1.023478e+01
0	 6.444444e+00	 3.851852e+00	 1.023330e+01
0	 6.444444e+00	 3.925926e+00	 1.023166e+01
0	 6.444444e+00	 4.000000e+00	 1.022984e+01
0	 6.444444e+00	 4.074074e+00	 1.022784e+01
0	 6.518519e+00	 3.703704e+00	 1.022702e+01
0	 6.518519e+00	 3.777778e+00	 1.022587e+01
0	 6.518519e+00	 3.851852e+00	 1.022456e+01
0	 6.518519e+00	 3.925926e+00	 1.022309e+01
0	 6.518519e+00	 4.000000e+00	 1.022144e+01
0	 6.518519e+00	 4.074074e+00	 1.021963e+01
0	 6.592593e+00	 3.703704e+00	 1.021801e+01
0	 6.592593e+00	 3.777778e+00	 1.021702e+01
0	 6.592593e+00	 3.851852e+00	 1.021587e+01
0	 6.592593e+00	 3.925926e+00	 1.021456e+01
0	 6.592593e+00	 4.000000e+00	 1.021308e+01
0	 6.592593e+00	 4.074074e+00	 1.021144e+01
0	 6.666667e+00	 3.703704e+00	 1.020905e+01
0	 6.666667e+00	 3.777778e+00	 1.020821e+01
0	 6.666667e+00	 3.851852e+00	 1.020722e+01
0	 6.666667e+00	 3.925926e+00	 1.020607e+01
0	 6.666667e+00	 4.000000e+00	 1.020475e+01
0	 6.666667e+00	 4.074074e+00	 1.020327e+01
0	 6.296296e+00	 4.074074e+00	 1.024432e+01
0	 6.296296e+00	 4.148148e+00	 1.024178e+01
0	 6.296296e+00	 4.222222e+00	 1.023910e+01
0	 6.296296e+00	 4.296296e+00	 1.023628e+01
0	 6.296296e+00	 4.370370e+00	 1.023332e+01
0	 6.296296e+00	 4.444444e+00	 1.023021e+01
0	 6.370370e+00	 4.074074e+00	 1.023607e+01
0	 6.370370e+00	 4.148148e+00	 1.023373e+01
0	 6.370370e+00	 4.222222e+00	 1.023125e+01
0	 6.370370e+00	 4.296296e+00	 1.022864e+01
0	 6.370370e+00	 4.370370e+00	 1.022588e+01
0	 6.370370e+00	 4.444444e+00	 1.022297e+01
0	 6.444444e+00	 4.074074e+00	 1.022784e+01
0	 6.444444e+00	 4.148148e+00	 1.022569e+01
0	 6.444444e+00	 4.222222e+00	 1.022340e+01
0	 6.444444e+00	 4.296296e+00	 1.022098e+01
0	 6.444444e+00	 4.370370e+00	 1.021842e+01
0	 6.444444e+00	 4.444444e+00	 1.021571e+01
0	 6.518519e+00	 4.074074e+00	 1.021963e+01
0	 6.518519e+00	 4.148148e+00	 1.021766e+01
0	 6.518519e+00	 4.222222e+00	 1.021556e+01
0	 6.518519e+00	 4.296296e+00	 1.021332e+01
0	 6.518519e+00	 4.370370e+00	 1.021095e+01
0	 6.518519e+00	 4.444444e+00	 1.020843e+01
0	 6.592593e+00	 4.074074e+00	 1.021144e+01
0	 6.592593e+00	 4.148148e+00	 1.020964e+01
0	 6.592593e+00	 4.222222e+00	 1.020772e+01
0	 6.592593e+00	 4.296296e+00	 1.020567e+01
0	 6.592593e+00	 4.370370e+00	 1.020347e+01
0	 6.592593e+00	 4.444444e+00	 1.020114e+01
0	 6.666667e+00	 4.074074e+00	 1.020327e+01
0	 6.666667e+00	 4.148148e+00	 1.020165e+01
0	 6.666667e+00	 4.222222e+00	 1.019990e+01
0	 6.666667e+00	 4.296296e+00	 1.019802e+01
0	 6.666667e+00	 4.370370e+00	 1.019601e+01
0	 6.666667e+00	 4.444444e+00	 1.019385e+01
0	 6.296296e+00	 4.444444e+00	 1.023021e+01
0	 6.296296e+00	 4.518519e+00	 1.022697e+01
0	 6.296296e+00	 4.592593e+00	 1.022365e+01
0	 6.296296e+00	 4.666667e+00	 1.022022e+01
0	 6.296296e+00	 4.740741e+00	 1.021669e+01
0	 6.296296e+00	 4.814815e+00	 1.021305e+01
0	 6.370370e+00	 4.444444e+00	 1.022297e+01
0	 6.370370e+00	 4.518519e+00	 1.021994e+01
0	 6.370370e+00	 4.592593e+00	 1.021682e+01
0	 6.370370e+00	 4.666667e+00	 1.021359e+01
0	 6.370370e+00	 4.740741e+00	 1.021026e+01
0	 6.370370e+00	 4.814815e+00	 1.020682e+01
0	 6.444444e+00	 4.444444e+00	 1.021571e+01
0	 6.444444e+00	 4.518519e+00	 1.021287e+01
0	 6.444444e+00	 4.592593e+00	 1.020995e+01
0	 6.444444e+00	 4.666667e+00	 1.020692e+01
0	 6.444444e+00	 4.740741e+00	 1.020379e+01
0	 6.444444e+00	 4.814815e+00	 1.020054e+01
0	 6.518519e+00	 4.444444e+00	 1.020843e+01
0	 6.518519e+00	 4.518519e+00	 1.020579e+01
0	 6.518519e+00	 4.592593e+00	 1.020305e+01
0	 6.518519e+00	 4.666667e+00	 1.020022e+01
0	 6.518519e+00	 4.740741e+00	 1.019727e+01
0	 6.518519e+00	 4.814815e+00	 1.019422e+01
0	 6.592593e+00	 4.444444e+00	 1.020114e+01
0	 6.592593e+00	 4.518519e+00	 1.019869e+01
0	 6.592593e+00	 4.592593e+00	 1.019614e+01
0	 6.592593e+00	 4.666667e+00	 1.019349e+01
0	 6.592593e+00	 4.740741e+00	 1.019073e+01
0	 6.592593e+00	 4.814815e+00	 1.018786e+01
0	 6.666667e+00	 4.444444e+00	 1.019385e+01
0	 6.666667e+00	 4.518519e+00	 1.019158e+01
0	 6.666667e+00	 4.592593e+00	 1.018921e+01
0	 6.666667e+00	 4.666667e+00	 1.018674e+01
0	 6.666667e+00	 4.740741e+00	 1.018417e+01
0	 6.666667e+00	 4.814815e+00	 1.018148e+01
0	 6.296296e+00	 4.814815e+00	 1.021305e+01
0	 6.296296e+00	 4.888889e+00	 1.020932e+01
0	 6.296296e+00	 4.962963e+00	 1.020554e+01
0	 6.296296e+00	 5.037037e+00	 1.020170e+01
0	 6.296296e+00	 5.111111e+00	 1.019779e+01
0	 6.296296e+00	 5.185185e+00	 1.019380e+01
0	 6.370370e+00	 4.814815e+00	 1.020682e+01
0	 6.370370e+00	 4.888889e+00	 1.020330e+01
0	 6.370370e+00	 4.962963e+00	 1.019971e+01
0	 6.370370e+00	 5.037037e+00	 1.019606e+01
0	 6.370370e+00	 5.111111e+00	 1.019234e+01
0	 6.370370e+00	 5.185185e+00	 1.018855e+01
0	 6.444444e+00	 4.814815e+00	 1.020054e+01
0	 6.444444e+00	 4.888889e+00	 1.019721e+01
0	 6.444444e+00	 4.962963e+00	 1.019382e+01
0	 6.444444e+00	 5.037037e+00	 1.019036e+01
0	 6.444444e+00	 5.111111e+00	 1.018683e+01
0	 6.444444e+00	 5.185185e+00	 1.018322e+01
0	 6.518519e+00	 4.814815e+00	 1.019422e+01
0	 6.518519e+00	 4.888889e+00	 1.019108e+01
0	 6.518519e+00	 4.962963e+00	 1.018787e+01
0	 6.518519e+00	 5.037037e+00	 1.018460e+01
0	 6.518519e+00	 5.111111e+00	 1.018125e+01
0	 6.518519e+00	 5.185185e+00	 1.017782e+01
0	 6.592593e+00	 4.814815e+00	 1.018786e+01
0	 6.592593e+00	 4.888889e+00	 1.018490e+01
0	 6.592593e+00	 4.962963e+00	 1.018188e+01
0	 6.592593e+00	 5.037037e+00	 1.017879e+01
0	 6.592593e+00	 5.111111e+00	 1.017562e+01
0	 6.592593e+00	 5.185185e+00	 1.017237e+01
0	 6.666667e+00	 4.814815e+00	 1.018148e+01
0	 6.666667e+00	 4.888889e+00	 1.017870e+01
0	 6.666667e+00	 4.962963e+00	 1.017586e+01
0	 6.666667e+00	 5.037037e+00	 1.017295e+01
0	 6.666667e+00	 5.111111e+00	 1.016995e+01
0	 6.666667e+00	 5.185185e+00	 1.016688e+01
0	 6.296296e+00	 5.185185e+00	 1.019380e+01
0	 6.296296e+00	 5.259259e+00	 1.018977e+01
0	 6.296296e+00	 5.333333e+00	 1.018571e+01
0	 6.296296e+00	 5.407407e+00	 1.018162e+01
0	 6.296296e+00	 5.481481e+00	 1.017750e+01
0	 6.296296e+00	 5.555556e+00	 1.017333e+01
0	 6.370370e+00	 5.185185e+00	 1.018855e+01
0	 6.370370e+00	 5.259259e+00	 1.018470e+01
0	 6.370370e+00	 5.333333e+00	 1.018082e+01
0	 6.370370e+00	 5.407407e+00	 1.017691e+01
0	 6.370370e+00	 5.481481e+00	 1.017297e+01
0	 6.370370e+00	 5.555556e+00	 1.016898e+01
0	 6.444444e+00	 5.185185e+00	 1.018322e+01
0	 6.444444e+00	 5.259259e+00	 1.017955e+01
0	 6.444444e+00	 5.333333e+00	 1.017586e+01
0	 6.444444e+00	 5.407407e+00	 1.017212e+01
0	 6.444444e+00	 5.481481e+00	 1.016835e+01
0	 6.444444e+00	 5.555556e+00	 1.016453e+01
0	 6.518519e+00	 5.185185e+00	 1.017782e+01
0	 6.518519e+00	 5.259259e+00	 1.017434e+01
0	 6.518519e+00	 5.333333e+00	 1.017082e+01
0	 6.518519e+00	 5.407407e+00	 1.016726e+01
0	 6.518519e+00	 5.481481e+00	 1.016366e+01
0	 6.518519e+00	 5.555556e+00	 1.016000e+01
0	 6.592593e+00	 5.185185e+00	 1.017237e+01
0	 6.592593e+00	 5.259259e+00	 1.016906e+01
0	 6.592593e+00	 5.333333e+00	 1.016572e+01
0	 6.592593e+00	 5.407407e+00	 1.016233e+01
0	 6.592593e+00	 5.481481e+00	 1.015890e+01
0	 6.592593e+00	 5.555556e+00	 1.015541e+01
0	 6.666667e+00	 5.185185e+00	 1.016688e+01
0	 6.666667e+00	 5.259259e+00	 1.016375e+01
0	 6.666667e+00	 5.333333e+00	 1.016058e+01
0	 6.666667e+00	 5.407407e+00	 1.015736e+01
0	 6.666667e+00	 5.481481e+00	 1.015409e+01
0	 6.666667e+00	 5.555556e+00	 1.015077e+01
0	 6.296296e+00	 5.555556e+00	 1.017333e+01
0	 6.296296e+00	 5.629630e+00	 1.016915e+01
0	 6.296296e+00	 5.703704e+00	 1.016497e+01
0	 6.296296e+00	 5.777778e+00	 1.016078e+01
0	 6.296296e+00	 5.851852e+00	 1.015658e+01
0	 6.296296e+00	 5.925926e+00	 1.015238e+01
0	 6.370370e+00	 5.555556e+00	 1.016898e+01
0	 6.370370e+00	 5.629630e+00	 1.016496e+01
0	 6.370370e+00	 5.703704e+00	 1.016094e+01
0	 6.370370e+00	 5.777778e+00	 1.015692e+01
0	 6.370370e+00	 5.851852e+00	 1.015288e+01
0	 6.370370e+00	 5.925926e+00	 1.014882e+01
0	 6.444444e+00	 5.555556e+00	 1.016453e+01
0	 6.444444e+00	 5.629630e+00	 1.016068e+01
0	 6.444444e+00	 5.703704e+00	 1.015682e+01
0	 6.444444e+00	 5.777778e+00	 1.015296e+01
0	 6.444444e+00	 5.851852e+00	 1.014908e+01
0	 6.444444e+00	 5.925926e+00	 1.014517e+01
0	 6.518519e+00	 5.555556e+00	 1.016000e+01
0	 6.518519e+00	 5.629630e+00	 1.015632e+01
0	 6.518519e+00	 5.703704e+00	 1.015263e+01
0	 6.518519e+00	 5.777778e+00	 1.014892e+01
0	 6.518519e+00	 5.851852e+00	 1.014519e+01
0	 6.518519e+00	 5.925926e+00	 1.014144e+01
0	 6.592593e+00	 5.555556e+00	 1.015541e+01
0	 6.592593e+00	 5.629630e+00	 1.015189e+01
0	 6.592593e+00	 5.703704e+00	 1.014836e+01
0	 6.592593e+00	 5.777778e+00	 1.014481e+01
0	 6.592593e+00	 5.851852e+00	 1.014123e+01
0	 6.592593e+00	 5.925926e+00	 1.013763e+01
0	 6.666667e+00	 5.555556e+00	 1.015077e+01
0	 6.666667e+00	 5.629630e+00	 1.014741e+01
0	 6.666667e+00	 5.703704e+00	 1.014404e+01
0	 6.666667e+00	 5.777778e+00	 1.014064e+01
0	 6.666667e+00	 5.851852e+00	 1.013722e+01
0	 6.666667e+00	 5.925926e+00	 1.013377e+01
0	 6.296296e+00	 5.925926e+00	 1.015238e+01
0	 6.296296e+00	 6.000000e+00	 1.014817e+01
0	 6.296296e+00	 6.074074e+00	 1.014399e+01
0	 6.296296e+00	 6.148148e+00	 1.013982e+01
0	 6.296296e+00	 6.222222e+00	 1.013567e+01
0	 6.296296e+00	 6.296296e+00	 1.013152e+01
0	 6.370370e+00	 5.925926e+00	 1.014882e+01
0	 6.370370e+00	 6.000000e+00	 1.014476e+01
0	 6.370370e+00	 6.074074e+00	 1.014072e+01
0	 6.370370e+00	 6.148148e+00	 1.013670e+01
0	 6.370370e+00	 6.222222e+00	 1.013268e+01
0	 6.370370e+00	 6.296296e+00	 1.012867e+01
0	 6.444444e+00	 5.925926e+00	 1.014517e+01
0	 6.444444e+00	 6.000000e+00	 1.014126e+01
0	 6.444444e+00	 6.074074e+00	 1.013737e+01
0	 6.444444e+00	 6.148148e+00	 1.013348e+01
0	 6.444444e+00	 6.222222e+00	 1.012960e+01
0	 6.444444e+00	 6.296296e+00	 1.012572e+01
0	 6.518519e+00	 5.925926e+00	 1.014144e+01
0	 6.518519e+00	 6.000000e+00	 1.013768e+01
0	 6.518519e+00	 6.074074e+00	 1.013393e+01
0	 6.518519e+00	 6.148148e+00	 1.013018e+01
0	 6.518519e+00	 6.222222e+00	 1.012643e+01
0	 6.518519e+00	 6.296296e+00	 1.012269e+01
0	 6.592593e+00	 5.925926e+00	 1.013763e+01
0	 6.592593e+00	 6.000000e+00	 1.013402e+01
0	 6.592593e+00	 6.074074e+00	 1.013041e+01
0	 6.592593e+00	 6.148148e+00	 1.012681e+01
0	 6.592593e+00	 6.222222e+00	 1.012320e+01
0	 6.592593e+00	 6.296296e+00	 1.011958e+01
0	 6.666667e+00	 5.925926e+00	 1.013377e+01
0	 6.666667e+00	 6.000000e+00	 1.013030e+01
0	 6.666667e+00	 6.074074e+00	 1.012684e+01
0	 6.666667e+00	 6.148148e+00	 1.012337e+01
0	 6.666667e+00	 6.222222e+00	 1.011990e+01
0	 6.666667e+00	 6.296296e+00	 1.011641e+01
0	 6.296296e+00	 6.296296e+00	 1.013152e+01
0	 6.296296e+00	 6.370370e+00	 1.012739e+01
0	 6.296296e+00	 6.444444e+00	 1.012331e+01
0	 6.296296e+00	 6.518519e+00	 1.011925e+01
0	 6.296296e+00	 6.592593e+00	 1.011522e+01
0	 6.296296e+00	 6.666667e+00	 1.011122e+01
0	 6.370370e+00	 6.296296e+00	 1.012867e+01
0	 6.370370e+00	 6.370370e+00	 1.012467e+01
0	 6.370370e+00	 6.444444e+00	 1.012070e+01
0	 6.370370e+00	 6.518519e+00	 1.011677e+01
0	 6.370370e+00	 6.592593e+00	 1.011286e+01
0	 6.370370e+00	 6.666667e+00	 1.010896e+01
0	 6.444444e+00	 6.296296e+00	 1.012572e+01
0	 6.444444e+00	 6.370370e+00	 1.012185e+01
0	 6.444444e+00	 6.444444e+00	 1.011801e+01
0	 6.444444e+00	 6.518519e+00	 1.011419e+01
0	 6.444444e+00	 6.592593e+00	 1.011040e+01
0	 6.444444e+00	 6.666667e+00	 1.010662e+01
0	 6.518519e+00	 6.296296e+00	 1.012269e+01
0	 6.518519e+00	 6.370370e+00	 1.011895e+01
0	 6.518519e+00	 6.444444e+00	 1.011523e+01
0	 6.518519e+00	 6.518519e+00	 1.011154e+01
0	 6.518519e+00	 6.592593e+00	 1.010786e+01
0	 6.518519e+00	 6.666667e+00	 1.010420e+01
0	 6.592593e+00	 6.296296e+00	 1.011958e+01
0	 6.592593e+00	 6.370370e+00	 1.011597e+01
0	 6.592593e+00	 6.444444e+00	 1.011238e+01
0	 6.592593e+00	 6.518519e+00	 1.010881e+01
0	 6.592593e+00	 6.592593e+00	 1.010526e+01
0	 6.592593e+00	 6.666667e+00	 1.010171e+01
0	 6.666667e+00	 6.296296e+00	 1.011641e+01
0	 6.666667e+00	 6.370370e+00	 1.011294e+01
0	 6.666667e+00	 6.444444e+00	 1.010948e+01
0	 6.666667e+00	 6.518519e+00	 1.010603e+01
0	 6.666667e+00	 6.592593e+00	 1.010259e+01
0	 6.666667e+00	 6.666667e+00	 1.009916e+01
0	 6.296296e+00	 6.666667e+00	 1.011122e+01
0	 6.296296e+00	 6.740741e+00	 1.010725e+01
0	 6.296296e+00	 6.814815e+00	 1.010333e+01
0	 6.296296e+00	 6.888889e+00	 1.009945e+01
0	 6.296296e+00	 6.962963e+00	 1.009562e+01
0	 6.296296e+00	 7.037037e+00	 1.009182e+01
0	 6.370370e+00	 6.666667e+00	 1.010896e+01
0	 6.370370e+00	 6.740741e+00	 1.010510e+01
0	 6.370370e+00	 6.814815e+00	 1.010129e+01
0	 6.370370e+00	 6.888889e+00	 1.009751e+01
0	 6.370370e+00	 6.962963e+00	 1.009377e+01
0	 6.370370e+00	 7.037037e+00	 1.009007e+01
0	 6.444444e+00	 6.666667e+00	 1.010662e+01
0	 6.444444e+00	 6.740741e+00	 1.010287e+01
0	 6.444444e+00	 6.814815e+00	 1.009916e+01
0	 6.444444e+00	 6.888889e+00	 1.009549e+01
0	 6.444444e+00	 6.962963e+00	 1.009185e+01
0	 6.444444e+00	 7.037037e+00	 1.008824e+01
0	 6.518519e+00	 6.666667e+00	 1.010420e+01
0	 6.518519e+00	 6.740741e+00	 1.010056e+01
0	 6.518519e+00	 6.814815e+00	 1.009696e+01
0	 6.518519e+00	 6.888889e+00	 1.009339e+01
0	 6.518519e+00	 6.962963e+00	 1.008985e+01
0	 6.518519e+00	 7.037037e+00	 1.008634e+01
0	 6.592593e+00	 6.666667e+00	 1.010171e+01
0	 6.592593e+00	 6.740741e+00	 1.009818e+01
0	 6.592593e+00	 6.814815e+00	 1.009469e+01
0	 6.592593e+00	 6.888889e+00	 1.009123e+01
0	 6.592593e+00	 6.962963e+00	 1.008779e+01
0	 6.592593e+00	 7.037037e+00	 1.008438e+01
0	 6.666667e+00	 6.666667e+00	 1.009916e+01
0	 6.666667e+00	 6.740741e+00	 1.009575e+01
0	 6.666667e+00	 6.814815e+00	 1.009237e+01
0	 6.666667e+00	 6.888889e+00	 1.008901e+01
0	 6.666667e+00	 6.962963e+00	 1.008568e+01
0	 6.666667e+00	 7.037037e+00	 1.008237e+01
0	 6.296296e+00	 7.037037e+00	 1.009182e+01
0	 6.296296e+00	 7.111111e+00	 1.008806e+01
0	 6.296296e+00	 7.185185e+00	 1.008436e+01
0	 6.296296e+00	 7.259259e+00	 1.008072e+01
0	 6.296296e+00	 7.333333e+00	 1.007712e+01
0	 6.296296e+00	 7.407407e+00	 1.007358e+01
0	 6.370370e+00	 7.037037e+00	 1.009007e+01
0	 6.370370e+00	 7.111111e+00	 1.008640e+01
0	 6.370370e+00	 7.185185e+00	 1.008279e+01
0	 6.370370e+00	 7.259259e+00	 1.007923e+01
0	 6.370370e+00	 7.333333e+00	 1.007572e+01
0	 6.370370e+00	 7.407407e+00	 1.007225e+01
0	 6.444444e+00	 7.037037e+00	 1.008824e+01
0	 6.444444e+00	 7.111111e+00	 1.008467e+01
0	 6.444444e+00	 7.185185e+00	 1.008115e+01
0	 6.444444e+00	 7.259259e+00	 1.007767e+01
0	 6.444444e+00	 7.333333e+00	 1.007424e+01
0	 6.444444e+00	 7.407407e+00	 1.007085e+01
0	 6.518519e+00	 7.037037e+00	 1.008634e+01
0	 6.518519e+00	 7.111111e+00	 1.008286e+01
0	 6.518519e+00	 7.185185e+00	 1.007943e+01
0	 6.518519e+00	 7.259259e+00	 1.007605e+01
0	 6.518519e+00	 7.333333e+00	 1.007270e+01
0	 6.518519e+00	 7.407407e+00	 1.006940e+01
0	 6.592593e+00	 7.037037e+00	 1.008438e+01
0	 6.592593e+00	 7.111111e+00	 1.008100e+01
0	 6.592593e+00	 7.185185e+00	 1.007767e+01
0	 6.592593e+00	 7.259259e+00	 1.007437e+01
0	 6.592593e+00	 7.333333e+00	 1.007111e+01
0	 6.592593e+00	 7.407407e+00	 1.006789e+01
0	 6.666667e+00	 7.037037e+00	 1.008237e+01
0	 6.666667e+00	 7.111111e+00	 1.007909e+01
0	 6.666667e+00	 7.185185e+00	 1.007584e+01
0	 6.666667e+00	 7.259259e+00	 1.007264e+01
0	 6.666667e+00	 7.333333e+00	 1.006947e+01
0	 6.666667e+00	 7.407407e+00	 1.006634e+01
0	 6.296296e+00	 7.407407e+00	 1.007358e+01
0	 6.296296e+00	 7.481481e+00	 1.007008e+01
0	 6.296296e+00	 7.555556e+00	 1.006665e+01
0	 6.296296e+00	 7.629630e+00	 1.006329e+01
0	 6.296296e+00	 7.703704e+00	 1.005997e+01
0	 6.296296e+00	 7.777778e+00	 1.005672e+01
0	 6.370370e+00	 7.407407e+00	 1.007225e+01
0	 6.370370e+00	 7.481481e+00	 1.006883e+01
0	 6.370370e+00	 7.555556e+00	 1.006547e+01
0	 6.370370e+00	 7.629630e+00	 1.006217e+01
0	 6.370370e+00	 7.703704e+00	 1.005893e+01
0	 6.370370e+00	 7.777778e+00	 1.005574e+01
0	 6.444444e+00	 7.407407e+00	 1.007085e+01
0	 6.444444e+00	 7.481481e+00	 1.006751e+01
0	 6.444444e+00	 7.555556e+00	 1.006423e+01
0	 6.444444e+00	 7.629630e+00	 1.006100e+01
0	 6.444444e+00	 7.703704e+00	 1.005783e+01
0	 6.444444e+00	 7.777778e+00	 1.005470e+01
0	 6.518519e+00	 7.407407e+00	 1.006940e+01
0	 6.518519e+00	 7.481481e+00	 1.006613e+01
0	 6.518519e+00	 7.555556e+00	 1.006293e+01
0	 6.518519e+00	 7.629630e+00	 1.005978e+01
0	 6.518519e+00	 7.703704e+00	 1.005668e+01
0	 6.518519e+00	 7.777778e+00	 1.005362e+01
0	 6.592593e+00	 7.407407e+00	 1.006789e+01
0	 6.592593e+00	 7.481481e+00	 1.006471e+01
0	 6.592593e+00	 7.555556e+00	 1.006158e+01
0	 6.592593e+00	 7.629630e+00	 1.005851e+01
0	 6.592593e+00	 7.703704e+00	 1.005548e+01
0	 6.592593e+00	 7.777778e+00	 1.005249e+01
0	 6.666667e+00	 7.407407e+00	 1.006634e+01
0	 6.666667e+00	 7.481481e+00	 1.006324e+01
0	 6.666667e+00	 7.555556e+00	 1.006019e+01
0	 6.666667e+00	 7.629630e+00	 1.005720e+01
0	 6.666667e+00	 7.703704e+00	 1.005425e+01
0	 6.666667e+00	 7.777778e+00	 1.005133e+01
0	 6.296296e+00	 7.777778e+00	 1.005672e+01
0	 6.296296e+00	 7.851852e+00	 1.005353e+01
0	 6.296296e+00	 7.925926e+00	 1.005041e+01
0	 6.296296e+00	 8.000000e+00	 1.004736e+01
0	 6.296296e+00	 8.074074e+00	 1.004438e+01
0	 6.296296e+00	 8.148148e+00	 1.004145e+01
0	 6.370370e+00	 7.777778e+00	 1.005574e+01
0	 6.370370e+00	 7.851852e+00	 1.005261e+01
0	 6.370370e+00	 7.925926e+00	 1.004955e+01
0	 6.370370e+00	 8.000000e+00	 1.004655e+01
0	 6.370370e+00	 8.074074e+00	 1.004363e+01
0	 6.370370e+00	 8.148148e+00	 1.004076e+01
0	 6.444444e+00	 7.777778e+00	 1.005470e+01
0	 6.444444e+00	 7.851852e+00	 1.005164e+01
0	 6.444444e+00	 7.925926e+00	 1.004864e+01
0	 6.444444e+00	 8.000000e+00	 1.004571e+01
0	 6.444444e+00	 8.074074e+00	 1.004283e+01
0	 6.444444e+00	 8.148148e+00	 1.004002e+01
0	 6.518519e+00	 7.777778e+00	 1.005362e+01
0	 6.518519e+00	 7.851852e+00	 1.005062e+01
0	 6.518519e+00	 7.925926e+00	 1.004769e+01
0	 6.518519e+00	 8.000000e+00	 1.004482e+01
0	 6.518519e+00	 8.074074e+00	 1.004200e+01
0	 6.518519e+00	 8.148148e+00	 1.003925e+01
0	 6.592593e+00	 7.777778e+00	 1.005249e+01
0	 6.592593e+00	 7.851852e+00	 1.004956e+01
0	 6.592593e+00	 7.925926e+00	 1.004670e+01
0	 6.592593e+00	 8.000000e+00	 1.004389e+01
0	 6.592593e+00	 8.074074e+00	 1.004114e+01
0	 6.592593e+00	 8.148148e+00	 1.003845e+01
0	 6.666667e+00	 7.777778e+00	 1.005133e+01
0	 6.666667e+00	 7.851852e+00	 1.004847e+01
0	 6.666667e+00	 7.925926e+00	 1.004567e+01
0	 6.666667e+00	 8.000000e+00	 1.004293e+01
0	 6.666667e+00	 8.074074e+00	 1.004025e+01
0	 6.666667e+00	 8.148148e+00	 1.003761e+01
0	 6.296296e+00	 8.148148e+00	 1.004145e+01
0	 6.296296e+00	 8.222222e+00	 1.003861e+01
0	 6.296296e+00	 8.296296e+00	 1.003584e+01
0	 6.296296e+00	 8.370370e+00	 1.003316e+01
0	 6.296296e+00	 8.444444e+00	 1.003055e+01
0	 6.296296e+00	 8.518519e+00	 1.002802e+01
0	 6.370370e+00	 8.148148e+00	 1.004076e+01
0	 6.370370e+00	 8.222222e+00	 1.003796e+01
0	 6.370370e+00	 8.296296e+00	 1.003525e+01
0	 6.370370e+00	 8.370370e+00	 1.003261e+01
0	 6.370370e+00	 8.444444e+00	 1.003005e+01
0	 6.370370e+00	 8.518519e+00	 1.002755e+01
0	 6.444444e+00	 8.148148e+00	 1.004002e+01
0	 6.444444e+00	 8.222222e+00	 1.003728e+01
0	 6.444444e+00	 8.296296e+00	 1.003461e+01
0	 6.444444e+00	 8.370370e+00	 1.003203e+01
0	 6.444444e+00	 8.444444e+00	 1.002951e+01
0	 6.444444e+00	 8.518519e+00	 1.002706e+01
0	 6.518519e+00	 8.148148e+00	 1.003925e+01
0	 6.518519e+00	 8.222222e+00	 1.003656e+01
0	 6.518519e+00	 8.296296e+00	 1.003395e+01
0	 6.518519e+00	 8.370370e+00	 1.003141e+01
0	 6.518519e+00	 8.444444e+00	 1.002895e+01
0	 6.518519e+00	 8.518519e+00	 1.002655e+01
0	 6.592593e+00	 8.148148e+00	 1.003845e+01
0	 6.592593e+00	 8.222222e+00	 1.003581e+01
0	 6.592593e+00	 8.296296e+00	 1.003326e+01
0	 6.592593e+00	 8.370370e+00	 1.003078e+01
0	 6.592593e+00	 8.444444e+00	 1.002836e+01
0	 6.592593e+00	 8.518519e+00	 1.002601e+01
0	 6.666667e+00	 8.148148e+00	 1.003761e+01
0	 6.666667e+00	 8.222222e+00	 1.003504e+01
0	 6.666667e+00	 8.296296e+00	 1.003254e+01
0	 6.666667e+00	 8.370370e+00	 1.003012e+01
0	 6.666667e+00	 8.444444e+00	 1.002775e+01
0	 6.666667e+00	 8.518519e+00	 1.002545e+01
0	 6.296296e+00	 8.518519e+00	 1.002802e+01
0	 6.296296e+00	 8.592593e+00	 1.002557e+01
0	 6.296296e+00	 8.666667e+00	 1.002322e+01
0	 6.296296e+00	 8.740741e+00	 1.002096e+01
0	 6.296296e+00	 8.814815e+00	 1.001879e+01
0	 6.296296e+00	 8.888889e+00	 1.001670e+01
0	 6.370370e+00	 8.518519e+00	 1.002755e+01
0	 6.370370e+00	 8.592593e+00	 1.002514e+01
0	 6.370370e+00	 8.666667e+00	 1.002283e+01
0	 6.370370e+00	 8.740741e+00	 1.002061e+01
0	 6.370370e+00	 8.814815e+00	 1.001848e+01
0	 6.370370e+00	 8.888889e+00	 1.001643e+01
0	 6.444444e+00	 8.518519e+00	 1.002706e+01
0	 6.444444e+00	 8.592593e+00	 1.002470e+01
0	 6.444444e+00	 8.666667e+00	 1.002243e+01
0	 6.444444e+00	 8.740741e+00	 1.002024e+01
0	 6.444444e+00	 8.814815e+00	 1.001815e+01
0	 6.444444e+00	 8.888889e+00	 1.001613e+01
0	 6.518519e+00	 8.518519e+00	 1.002655e+01
0	 6.518519e+00	 8.592593e+00	 1.002423e+01
0	 6.518519e+00	 8.666667e+00	 1.002200e+01
0	 6.518519e+00	 8.740741e+00	 1.001986e+01
0	 6.518519e+00	 8.814815e+00	 1.001780e+01
0	 6.518519e+00	 8.888889e+00	 1.001582e+01
0	 6.592593e+00	 8.518519e+00	 1.002601e+01
0	 6.592593e+00	 8.592593e+00	 1.002374e+01
0	 6.592593e+00	 8.666667e+00	 1.002155e+01
0	 6.592593e+00	 8.740741e+00	 1.001946e+01
0	 6.592593e+00	 8.814815e+00	 1.001744e+01
0	 6.592593e+00	 8.888889e+00	 1.001550e+01
0	 6.666667e+00	 8.518519e+00	 1.002545e+01
0	 6.666667e+00	 8.592593e+00	 1.002323e+01
0	 6.666667e+00	 8.666667e+00	 1.002109e+01
0	 6.666667e+00	 8.740741e+00	 1.001904e+01
0	 6.666667e+00	 8.814815e+00	 1.001707e+01
0	 6.666667e+00	 8.888889e+00	 1.001517e+01
0	 6.296296e+00	 8.888889e+00	 1.001670e+01
0	 6.296296e+00	 8.962963e+00	 1.001472e+01
0	 6.296296e+00	 9.037037e+00	 1.001285e+01
0	 6.296296e+00	 9.111111e+00	 1.001110e+01
0	 6.296296e+00	 9.185185e+00	 1.000945e+01
0	 6.296296e+00	 9.259259e+00	 1.000789e+01
0	 6.370370e+00	 8.888889e+00	 1.001643e+01
0	 6.370370e+00	 8.962963e+00	 1.001447e+01
0	 6.370370e+00	 9.037037e+00	 1.001264e+01
0	 6.370370e+00	 9.111111e+00	 1.001091e+01
0	 6.370370e+00	 9.185185e+00	 1.000929e+01
0	 6.370370e+00	 9.259259e+00	 1.000776e+01
0	 6.444444e+00	 8.888889e+00	 1.001613e+01
0	 6.444444e+00	 8.962963e+00	 1.001421e+01
0	 6.444444e+00	 9.037037e+00	 1.001241e+01
0	 6.444444e+00	 9.111111e+00	 1.001071e+01
0	 6.444444e+00	 9.185185e+00	 1.000912e+01
0	 6.444444e+00	 9.259259e+00	 1.000762e+01
0	 6.518519e+00	 8.888889e+00	 1.001582e+01
0	 6.518519e+00	 8.962963e+00	 1.001394e+01
0	 6.518519e+00	 9.037037e+00	 1.001217e+01
0	 6.518519e+00	 9.111111e+00	 1.001051e+01
0	 6.518519e+00	 9.185185e+00	 1.000894e+01
0	 6.518519e+00	 9.259259e+00	 1.000747e+01
0	 6.592593e+00	 8.888889e+00	 1.001550e+01
0	 6.592593e+00	 8.962963e+00	 1.001366e+01
0	 6.592593e+00	 9.037037e+00	 1.001192e+01
0	 6.592593e+00	 9.111111e+00	 1.001029e+01
0	 6.592593e+00	 9.185185e+00	 1.000876e+01
0	 6.592593e+00	 9.259259e+00	 1.000732e+01
0	 6.666667e+00	 8.888889e+00	 1.001517e+01
0	 6.666667e+00	 8.962963e+00	 1.001337e+01
0	 6.666667e+00	 9.037037e+00	 1.001167e+01
0	 6.666667e+00	 9.111111e+00	 1.001007e+01
0	 6.666667e+00	 9.185185e+00	 1.000857e+01
0	 6.666667e+00	 9.259259e+00	 1.000716e+01
0	 6.296296e+00	 9.259259e+00	 1.000789e+01
0	 6.296296e+00	 9.333333e+00	 1.000647e+01
0	 6.296296e+00	 9.407407e+00	 1.000518e+01
0	 6.296296e+00	 9.481481e+00	 1.000403e+01
0	 6.296296e+00	 9.555556e+00	 1.000301e+01
0	 6.296296e+00	 9.629630e+00	 1.000211e+01
0	 6.370370e+00	 9.259259e+00	 1.000776e+01
0	 6.370370e+00	 9.333333e+00	 1.000636e+01
0	 6.370370e+00	 9.407407e+00	 1.000509e+01
0	 6.370370e+00	 9.481481e+00	 1.000396e+01
0	 6.370370e+00	 9.555556e+00	 1.000296e+01
0	 6.370370e+00	 9.629630e+00	 1.000207e+01
0	 6.444444e+00	 9.259259e+00	 1.000762e+01
0	 6.444444e+00	 9.333333e+00	 1.000624e+01
0	 6.444444e+00	 9.407407e+00	 1.000500e+01
0	 6.444444e+00	 9.481481e+00	 1.000389e+01
0	 6.444444e+00	 9.555556e+00	 1.000290e+01
0	 6.444444e+00	 9.629630e+00	 1.000203e+01
0	 6.518519e+00	 9.259259e+00	 1.000747e+01
0	 6.518519e+00	 9.333333e+00	 1.000612e+01
0	 6.518519e+00	 9.407407e+00	 1.000490e+01
0	 6.518519e+00	 9.481481e+00	 1.000381e+01
0	 6.518519e+00	 9.555556e+00	 1.000284e+01
0	 6.518519e+00	 9.629630e+00	 1.000199e+01
0	 6.592593e+00	 9.259259e+00	 1.000732e+01
0	 6.592593e+00	 9.333333e+00	 1.000599e+01
0	 6.592593e+00	 9.407407e+00	 1.000480e+01
0	 6.592593e+00	 9.481481e+00	 1.000373e+01
0	 6.592593e+00	 9.555556e+00	 1.000278e+01
0	 6.592593e+00	 9.629630e+00	 1.000195e+01
0	 6.666667e+00	 9.259259e+00	 1.000716e+01
0	 6.666667e+00	 9.333333e+00	 1.000586e+01
0	 6.666667e+00	 9.407407e+00	 1.000469e+01
0	 6.666667e+00	 9.481481e+00	 1.000365e+01
0	 6.666667e+00	 9.555556e+00	 1.000272e+01
0	 6.666667e+00	 9.629630e+00	 1.000191e+01
0	 6.296296e+00	 9.629630e+00	 1.000211e+01
0	 6.296296e+00	 9.703704e+00	 1.000136e+01
0	 6.296296e+00	 9.777778e+00	 1.000077e+01
0	 6.296296e+00	 9.851852e+00	 1.000036e+01
0	 6.296296e+00	 9.925926e+00	 1.000010e+01
0	 6.296296e+00	 1.000000e+01	 9.999980e+00
0	 6.370370e+00	 9.629630e+00	 1.000207e+01
0	 6.370370e+00	 9.703704e+00	 1.000133e+01
0	 6.370370e+00	 9.777778e+00	 1.000076e+01
0	 6.370370e+00	 9.851852e+00	 1.000035e+01
0	 6.370370e+00	 9.925926e+00	 1.000010e+01
0	 6.370370e+00	 1.000000e+01	 9.999983e+00
0	 6.444444e+00	 9.629630e+00	 1.000203e+01
0	 6.444444e+00	 9.703704e+00	 1.000131e+01
0	 6.444444e+00	 9.777778e+00	 1.000075e+01
0	 6.444444e+00	 9.851852e+00	 1.000035e+01
0	 6.444444e+00	 9.925926e+00	 1.000009e+01
0	 6.444444e+00	 1.000000e+01	 9.999982e+00
0	 6.518519e+00	 9.629630e+00	 1.000199e+01
0	 6.518519e+00	 9.703704e+00	 1.000128e+01
0	 6.518519e+00	 9.777778e+00	 1.000073e+01
0	 6.518519e+00	 9.851852e+00	 1.000034e+01
0	 6.518519e+00	 9.925926e+00	 1.000009e+01
0	 6.518519e+00	 1.000000e+01	 9.999981e+00
0	 6.592593e+00	 9.629630e+00	 1.000195e+01
0	 6.592593e+00	 9.703704e+00	 1.000125e+01
0	 6.592593e+00	 9.777778e+00	 1.000071e+01
0	 6.592593e+00	 9.851852e+00	 1.000033e+01
0	 6.592593e+00	 9.925926e+00	 1.000009e+01
0	 6.592593e+00	 1.000000e+01	 9.999981e+00
0	 6.666667e+00	 9.629630e+00	 1.000191e+01
0	 6.666667e+00	 9.703704e+00	 1.000122e+01
0	 6.666667e+00	 9.777778e+00	 1.000070e+01
0	 6.666667e+00	 9.851852e+00	 1.000032e+01
0	 6.666667e+00	 9.925926e+00	 1.000009e+01
0	 6.666667e+00	 1.000000e+01	 9.999984e+00
0	 6.666667e+00	 0.000000e+00	 1.012168e+01
0	 6.666667e+00	 7.407407e-02	 1.012178e+01
0	 6.666667e+00	 1.481481e-01	 1.012211e+01
0	 6.666667e+00	 2.222222e-01	 1.012268e+01
0	 6.666667e+00	 2.962963e-01	 1.012348e+01
0	 6.666667e+00	 3.703704e-01	 1.012453e+01
0	 6.740741e+00	 0.000000e+00	 1.011356e+01
0	 6.740741e+00	 7.407407e-02	 1.011366e+01
0	 6.740741e+00	 1.481481e-01	 1.011397e+01
0	 6.740741e+00	 2.222222e-01	 1.011451e+01
0	 6.740741e+00	 2.962963e-01	 1.011528e+01
0	 6.740741e+00	 3.703704e-01	 1.011628e+01
0	 6.814815e+00	 0.000000e+00	 1.010544e+01
0	 6.814815e+00	 7.407407e-02	 1.010554e+01
0	 6.814815e+00	 1.481481e-01	 1.010584e+01
0	 6.814815e+00	 2.222222e-01	 1.010636e+01
0	 6.814815e+00	 2.962963e-01	 1.010710e+01
0	 6.814815e+00	 3.703704e-01	 1.010806e+01
0	 6.888889e+00	 0.000000e+00	 1.009732e+01
0	 6.888889e+00	 7.407407e-02	 1.009742e+01
0	 6.888889e+00	 1.481481e-01	 1.009771e+01
0	 6.888889e+00	 2.222222e-01	 1.009822e+01
0	 6.888889e+00	 2.962963e-01	 1.009893e+01
0	 6.888889e+00	 3.703704e-01	 1.009985e+01
0	 6.962963e+00	 0.000000e+00	 1.008919e+01
0	 6.962963e+00	 7.407407e-02	 1.008930e+01
0	 6.962963e+00	 1.481481e-01	 1.008959e+01
0	 6.962963e+00	 2.222222e-01	 1.009008e+01
0	 6.962963e+00	 2.962963e-01	 1.009076e+01
0	 6.962963e+00	 3.703704e-01	 1.009165e+01
0	 7.037037e+00	 0.000000e+00	 1.008107e+01
0	 7.037037e+00	 7.407407e-02	 1.008117e+01
0	 7.037037e+00	 1.481481e-01	 1.008146e+01
0	 7.037037e+00	 2.222222e-01	 1.008193e+01
0	 7.037037e+00	 2.962963e-01	 1.008260e+01
0	 7.037037e+00	 3.703704e-01	 1.008345e+01
0	 6.666667e+00	 3.703704e-01	 1.012453e+01
0	 6.666667e+00	 4.444444e-01	 1.012578e+01
0	 6.666667e+00	 5.185185e-01	 1.012721e+01
0	 6.666667e+00	 5.925926e-01	 1.012884e+01
0	 6.666667e+00	 6.666667e-01	 1.013067e+01
0	 6.666667e+00	 7.407407e-01	 1.013271e+01
0	 6.740741e+00	 3.703704e-01	 1.011628e+01
0	 6.740741e+00	 4.444444e-01	 1.011748e+01
0	 6.740741e+00	 5.185185e-01	 1.011886e+01
0	 6.740741e+00	 5.925926e-01	 1.012042e+01
0	 6.740741e+00	 6.666667e-01	 1.012218e+01
0	 6.740741e+00	 7.407407e-01	 1.012415e+01
0	 6.814815e+00	 3.703704e-01	 1.010806e+01
0	 6.814815e+00	 4.444444e-01	 1.010921e+01
0	 6.814815e+00	 5.185185e-01	 1.011054e+01
0	 6.814815e+00	 5.925926e-01	 1.011204e+01
0	 6.814815e+00	 6.666667e-01	 1.011373e+01
0	 6.814815e+00	 7.407407e-01	 1.011563e+01
0	 6.888889e+00	 3.703704e-01	 1.009985e+01
0	 6.888889e+00	 4.444444e-01	 1.010096e+01
0	 6.888889e+00	 5.185185e-01	 1.010223e+01
0	 6.888889e+00	 5.925926e-01	 1.010368e+01
0	 6.888889e+00	 6.666667e-01	 1.010532e+01
0	 6.888889e+00	 7.407407e-01	 1.010714e+01
0	 6.962963e+00	 3.703704e-01	 1.009165e+01
0	 6.962963e+00	 4.444444e-01	 1.009272e+01
0	 6.962963e+00	 5.185185e-01	 1.009395e+01
0	 6.962963e+00	 5.925926e-01	 1.009535e+01
0	 6.962963e+00	 6.666667e-01	 1.009692e+01
0	 6.962963e+00	 7.407407e-01	 1.009868e+01
0	 7.037037e+00	 3.703704e-01	 1.008345e+01
0	 7.037037e+00	 4.444444e-01	 1.008448e+01
0	 7.037037e+00	 5.185185e-01	 1.008567e+01
0	 7.037037e+00	 5.925926e-01	 1.008702e+01
0	 7.037037e+00	 6.666667e-01	 1.008854e+01
0	 7.037037e+00	 7.407407e-01	 1.009024e+01
0	 6.666667e+00	 7.407407e-01	 1.013271e+01
0	 6.666667e+00	 8.148148e-01	 1.013491e+01
0	 6.666667e+00	 8.888889e-01	 1.013723e+01
0	 6.666667e+00	 9.629630e-01	 1.013968e+01
0	 6.666667e+00	 1.037037e+00	 1.014228e+01
0	 6.666667e+00	 1.111111e+00	 1.014504e+01
0	 6.740741e+00	 7.407407e-01	 1.012415e+01
0	 6.740741e+00	 8.148148e-01	 1.012627e+01
0	 6.740741e+00	 8.888889e-01	 1.012850e+01
0	 6.740741e+00	 9.629630e-01	 1.013087e+01
0	 6.740741e+00	 1.037037e+00	 1.013337e+01
0	 6.740741e+00	 1.111111e+00	 1.013603e+01
0	 6.814815e+00	 7.407407e-01	 1.011563e+01
0	 6.814815e+00	 8.148148e-01	 1.011767e+01
0	 6.814815e+00	 8.888889e-01	 1.011983e+01
0	 6.814815e+00	 9.629630e-01	 1.012211e+01
0	 6.814815e+00	 1.037037e+00	 1.012453e+01
0	 6.814815e+00	 1.111111e+00	 1.012710e+01
0	 6.888889e+00	 7.407407e-01	 1.010714e+01
0	 6.888889e+00	 8.148148e-01	 1.010911e+01
0	 6.888889e+00	 8.888889e-01	 1.011119e+01
0	 6.888889e+00	 9.629630e-01	 1.011340e+01
0	 6.888889e+00	 1.037037e+00	 1.011574e+01
0	 6.888889e+00	 1.111111e+00	 1.011822e+01
0	 6.962963e+00	 7.407407e-01	 1.009868e+01
0	 6.962963e+00	 8.148148e-01	 1.010058e+01
0	 6.962963e+00	 8.888889e-01	 1.010260e+01
0	 6.962963e+00	 9.629630e-01	 1.010473e+01
0	 6.962963e+00	 1.037037e+00	 1.010699e+01
0	 6.962963e+00	 1.111111e+00	 1.010939e+01
0	 7.037037e+00	 7.407407e-01	 1.009024e+01
0	 7.037037e+00	 8.148148e-01	 1.009208e+01
0	 7.037037e+00	 8.888889e-01	 1.009402e+01
0	 7.037037e+00	 9.629630e-01	 1.009609e+01
0	 7.037037e+00	 1.037037e+00	 1.009828e+01
0	 7.037037e+00	 1.111111e+00	 1.010060e+01
0	 6.666667e+00	 1.111111e+00	 1.014504e+01
0	 6.666667e+00	 1.185185e+00	 1.014789e+01
0	 6.666667e+00	 1.259259e+00	 1.015078e+01
0	 6.666667e+00	 1.333333e+00	 1.015372e+01
0	 6.666667e+00	 1.407407e+00	 1.015673e+01
0	 6.666667e+00	 1.481481e+00	 1.015982e+01
0	 6.740741e+00	 1.111111e+00	 1.013603e+01
0	 6.740741e+00	 1.185185e+00	 1.013879e+01
0	 6.740741e+00	 1.259259e+00	 1.014158e+01
0	 6.740741e+00	 1.333333e+00	 1.014443e+01
0	 6.740741e+00	 1.407407e+00	 1.014734e+01
0	 6.740741e+00	 1.481481e+00	 1.015034e+01
0	 6.814815e+00	 1.111111e+00	 1.012710e+01
0	 6.814815e+00	 1.185185e+00	 1.012976e+01
0	 6.814815e+00	 1.259259e+00	 1.013246e+01
0	 6.814815e+00	 1.333333e+00	 1.013522e+01
0	 6.814815e+00	 1.407407e+00	 1.013805e+01
0	 6.814815e+00	 1.481481e+00	 1.014096e+01
0	 6.888889e+00	 1.111111e+00	 1.011822e+01
0	 6.888889e+00	 1.185185e+00	 1.012080e+01
0	 6.888889e+00	 1.259259e+00	 1.012342e+01
0	 6.888889e+00	 1.333333e+00	 1.012609e+01
0	 6.888889e+00	 1.407407e+00	 1.012883e+01
0	 6.888889e+00	 1.481481e+00	 1.013166e+01
0	 6.962963e+00	 1.111111e+00	 1.010939e+01
0	 6.962963e+00	 1.185185e+00	 1.011189e+01
0	 6.962963e+00	 1.259259e+00	 1.011443e+01
0	 6.962963e+00	 1.333333e+00	 1.011702e+01
0	 6.962963e+00	 1.407407e+00	 1.011969e+01
0	 6.962963e+00	 1.481481e+00	 1.012244e+01
0	 7.037037e+00	 1.111111e+00	 1.010060e+01
0	 7.037037e+00	 1.185185e+00	 1.010302e+01
0	 7.037037e+00	 1.259259e+00	 1.010549e+01
0	 7.037037e+00	 1.333333e+00	 1.010801e+01
0	 7.037037e+00	 1.407407e+00	 1.011061e+01
0	 7.037037e+00	 1.481481e+00	 1.011329e+01
0	 6.666667e+00	 1.481481e+00	 1.015982e+01
0	 6.666667e+00	 1.555556e+00	 1.016294e+01
0	 6.666667e+00	 1.629630e+00	 1.016601e+01
0	 6.666667e+00	 1.703704e+00	 1.016906e+01
0	 6.666667e+00	 1.777778e+00	 1.017210e+01
0	 6.666667e+00	 1.851852e+00	 1.017514e+01
0	 6.740741e+00	 1.481481e+00	 1.015034e+01
0	 6.740741e+00	 1.555556e+00	 1.015336e+01
0	 6.740741e+00	 1.629630e+00	 1.015635e+01
0	 6.740741e+00	 1.703704e+00	 1.015932e+01
0	 6.740741e+00	 1.777778e+00	 1.016228e+01
0	 6.740741e+00	 1.851852e+00	 1.016526e+01
0	 6.814815e+00	 1.481481e+00	 1.014096e+01
0	 6.814815e+00	 1.555556e+00	 1.014390e+01
0	 6.814815e+00	 1.629630e+00	 1.014680e+01
0	 6.814815e+00	 1.703704e+00	 1.014970e+01
0	 6.814815e+00	 1.777778e+00	 1.015259e+01
0	 6.814815e+00	 1.851852e+00	 1.015550e+01
0	 6.888889e+00	 1.481481e+00	 1.013166e+01
0	 6.888889e+00	 1.555556e+00	 1.013452e+01
0	 6.888889e+00	 1.629630e+00	 1.013736e+01
0	 6.888889e+00	 1.703704e+00	 1.014018e+01
0	 6.888889e+00	 1.777778e+00	 1.014301e+01
0	 6.888889e+00	 1.851852e+00	 1.014585e+01
0	 6.962963e+00	 1.481481e+00	 1.012244e+01
0	 6.962963e+00	 1.555556e+00	 1.012523e+01
0	 6.962963e+00	 1.629630e+00	 1.012799e+01
0	 6.962963e+00	 1.703704e+00	 1.013075e+01
0	 6.962963e+00	 1.777778e+00	 1.013351e+01
0	 6.962963e+00	 1.851852e+00	 1.013630e+01
0	 7.037037e+00	 1.481481e+00	 1.011329e+01
0	 7.037037e+00	 1.555556e+00	 1.011600e+01
0	 7.037037e+00	 1.629630e+00	 1.011870e+01
0	 7.037037e+00	 1.703704e+00	 1.012139e+01
0	 7.037037e+00	 1.777778e+00	 1.012410e+01
0	 7.037037e+00	 1.851852e+00	 1.012682e+01
0	 6.666667e+00	 1.851852e+00	 1.017514e+01
0	 6.666667e+00	 1.925926e+00	 1.017814e+01
0	 6.666667e+00	 2.000000e+00	 1.018103e+01
0	 6.666667e+00	 2.074074e+00	 1.018382e+01
0	 6.666667e+00	 2.148148e+00	 1.018653e+01
0	 6.666667e+00	 2.222222e+00	 1.018918e+01
0	 6.740741e+00	 1.851852e+00	 1.016526e+01
0	 6.740741e+00	 1.925926e+00	 1.016819e+01
0	 6.740741e+00	 2.000000e+00	 1.017103e+01
0	 6.740741e+00	 2.074074e+00	 1.017377e+01
0	 6.740741e+00	 2.148148e+00	 1.017644e+01
0	 6.740741e+00	 2.222222e+00	 1.017905e+01
0	 6.814815e+00	 1.851852e+00	 1.015550e+01
0	 6.814815e+00	 1.925926e+00	 1.015837e+01
0	 6.814815e+00	 2.000000e+00	 1.016115e+01
0	 6.814815e+00	 2.074074e+00	 1.016385e+01
0	 6.814815e+00	 2.148148e+00	 1.016648e+01
0	 6.814815e+00	 2.222222e+00	 1.016906e+01
0	 6.888889e+00	 1.851852e+00	 1.014585e+01
0	 6.888889e+00	 1.925926e+00	 1.014866e+01
0	 6.888889e+00	 2.000000e+00	 1.015139e+01
0	 6.888889e+00	 2.074074e+00	 1.015405e+01
0	 6.888889e+00	 2.148148e+00	 1.015664e+01
0	 6.888889e+00	 2.222222e+00	 1.015919e+01
0	 6.962963e+00	 1.851852e+00	 1.013630e+01
0	 6.962963e+00	 1.925926e+00	 1.013905e+01
0	 6.962963e+00	 2.000000e+00	 1.014173e+01
0	 6.962963e+00	 2.074074e+00	 1.014435e+01
0	 6.962963e+00	 2.148148e+00	 1.014691e+01
0	 6.962963e+00	 2.222222e+00	 1.014943e+01
0	 7.037037e+00	 1.851852e+00	 1.012682e+01
0	 7.037037e+00	 1.925926e+00	 1.012953e+01
0	 7.037037e+00	 2.000000e+00	 1.013216e+01
0	 7.037037e+00	 2.074074e+00	 1.013474e+01
0	 7.037037e+00	 2.148148e+00	 1.013727e+01
0	 7.037037e+00	 2.222222e+00	 1.013976e+01
0	 6.666667e+00	 2.222222e+00	 1.018918e+01
0	 6.666667e+00	 2.296296e+00	 1.019171e+01
0	 6.666667e+00	 2.370370e+00	 1.019409e+01
0	 6.666667e+00	 2.444444e+00	 1.019632e+01
0	 6.666667e+00	 2.518519e+00	 1.019841e+01
0	 6.666667e+00	 2.592593e+00	 1.020038e+01
0	 6.740741e+00	 2.222222e+00	 1.017905e+01
0	 6.740741e+00	 2.296296e+00	 1.018156e+01
0	 6.740741e+00	 2.370370e+00	 1.018392e+01
0	 6.740741e+00	 2.444444e+00	 1.018614e+01
0	 6.740741e+00	 2.518519e+00	 1.018824e+01
0	 6.740741e+00	 2.592593e+00	 1.019023e+01
0	 6.814815e+00	 2.222222e+00	 1.016906e+01
0	 6.814815e+00	 2.296296e+00	 1.017154e+01
0	 6.814815e+00	 2.370370e+00	 1.017389e+01
0	 6.814815e+00	 2.444444e+00	 1.017611e+01
0	 6.814815e+00	 2.518519e+00	 1.017821e+01
0	 6.814815e+00	 2.592593e+00	 1.018021e+01
0	 6.888889e+00	 2.222222e+00	 1.015919e+01
0	 6.888889e+00	 2.296296e+00	 1.016165e+01
0	 6.888889e+00	 2.370370e+00	 1.016398e+01
0	 6.888889e+00	 2.444444e+00	 1.016620e+01
0	 6.888889e+00	 2.518519e+00	 1.016831e+01
0	 6.888889e+00	 2.592593e+00	 1.017032e+01
0	 6.962963e+00	 2.222222e+00	 1.014943e+01
0	 6.962963e+00	 2.296296e+00	 1.015187e+01
0	 6.962963e+00	 2.370370e+00	 1.015419e+01
0	 6.962963e+00	 2.444444e+00	 1.015640e+01
0	 6.962963e+00	 2.518519e+00	 1.015851e+01
0	 6.962963e+00	 2.592593e+00	 1.016053e+01
0	 7.037037e+00	 2.222222e+00	 1.013976e+01
0	 7.037037e+00	 2.296296e+00	 1.014218e+01
0	 7.037037e+00	 2.370370e+00	 1.014449e+01
0	 7.037037e+00	 2.444444e+00	 1.014670e+01
0	 7.037037e+00	 2.518519e+00	 1.014881e+01
0	 7.037037e+00	 2.592593e+00	 1.015084e+01
0	 6.666667e+00	 2.592593e+00	 1.020038e+01
0	 6.666667e+00	 2.666667e+00	 1.020221e+01
0	 6.666667e+00	 2.740741e+00	 1.020384e+01
0	 6.666667e+00	 2.814815e+00	 1.020530e+01
0	 6.666667e+00	 2.888889e+00	 1.020659e+01
0	 6.666667e+00	 2.962963e+00	 1.020772e+01
0	 6.740741e+00	 2.592593e+00	 1.019023e+01
0	 6.740741e+00	 2.666667e+00	 1.019207e+01
0	 6.740741e+00	 2.740741e+00	 1.019374e+01
0	 6.740741e+00	 2.814815e+00	 1.019524e+01
0	 6.740741e+00	 2.888889e+00	 1.019659e+01
0	 6.740741e+00	 2.962963e+00	 1.019777e+01
0	 6.814815e+00	 2.592593e+00	 1.018021e+01
0	 6.814815e+00	 2.666667e+00	 1.018207e+01
0	 6.814815e+00	 2.740741e+00	 1.018377e+01
0	 6.814815e+00	 2.814815e+00	 1.018531e+01
0	 6.814815e+00	 2.888889e+00	 1.018670e+01
0	 6.814815e+00	 2.962963e+00	 1.018795e+01
0	 6.888889e+00	 2.592593e+00	 1.017032e+01
0	 6.888889e+00	 2.666667e+00	 1.017220e+01
0	 6.888889e+00	 2.740741e+00	 1.017392e+01
0	 6.888889e+00	 2.814815e+00	 1.017550e+01
0	 6.888889e+00	 2.888889e+00	 1.017694e+01
0	 6.888889e+00	 2.962963e+00	 1.017824e+01
0	 6.962963e+00	 2.592593e+00	 1.016053e+01
0	 6.962963e+00	 2.666667e+00	 1.016243e+01
0	 6.962963e+00	 2.740741e+00	 1.016418e+01
0	 6.962963e+00	 2.814815e+00	 1.016580e+01
0	 6.962963e+00	 2.888889e+00	 1.016728e+01
0	 6.962963e+00	 2.962963e+00	 1.016863e+01
0	 7.037037e+00	 2.592593e+00	 1.015084e+01
0	 7.037037e+00	 2.666667e+00	 1.015276e+01
0	 7.037037e+00	 2.740741e+00	 1.015454e+01
0	 7.037037e+00	 2.814815e+00	 1.015619e+01
0	 7.037037e+00	 2.888889e+00	 1.015771e+01
0	 7.037037e+00	 2.962963e+00	 1.015912e+01
0	 6.666667e+00	 2.962963e+00	 1.020772e+01
0	 6.666667e+00	 3.037037e+00	 1.020867e+01
0	 6.666667e+00	 3.111111e+00	 1.020944e+01
0	 6.666667e+00	 3.185185e+00	 1.021002e+01
0	 6.666667e+00	 3.259259e+00	 1.021041e+01
0	 6.666667e+00	 3.333333e+00	 1.021063e+01
0	 6.740741e+00	 2.962963e+00	 1.019777e+01
0	 6.740741e+00	 3.037037e+00	 1.019880e+01
0	 6.740741e+00	 3.111111e+00	 1.019964e+01
0	 6.740741e+00	 3.185185e+00	 1.020031e+01
0	 6.740741e+00	 3.259259e+00	 1.020080e+01
0	 6.740741e+00	 3.333333e+00	 1.020112e+01
0	 6.814815e+00	 2.962963e+00	 1.018795e+01
0	 6.814815e+00	 3.037037e+00	 1.018904e+01
0	 6.814815e+00	 3.111111e+00	 1.018996e+01
0	 6.814815e+00	 3.185185e+00	 1.019071e+01
0	 6.814815e+00	 3.259259e+00	 1.019129e+01
0	 6.814815e+00	 3.333333e+00	 1.019171e+01
0	 6.888889e+00	 2.962963e+00	 1.017824e+01
0	 6.888889e+00	 3.037037e+00	 1.017939e+01
0	 6.888889e+00	 3.111111e+00	 1.018038e+01
0	 6.888889e+00	 3.185185e+00	 1.018121e+01
0	 6.888889e+00	 3.259259e+00	 1.018187e+01
0	 6.888889e+00	 3.333333e+00	 1.018239e+01
0	 6.962963e+00	 2.962963e+00	 1.016863e+01
0	 6.962963e+00	 3.037037e+00	 1.016984e+01
0	 6.962963e+00	 3.111111e+00	 1.017090e+01
0	 6.962963e+00	 3.185185e+00	 1.017180e+01
0	 6.962963e+00	 3.259259e+00	 1.017255e+01
0	 6.962963e+00	 3.333333e+00	 1.017316e+01
0	 7.037037e+00	 2.962963e+00	 1.015912e+01
0	 7.037037e+00	 3.037037e+00	 1.016039e+01
0	 7.037037e+00	 3.111111e+00	 1.016151e+01
0	 7.037037e+00	 3.185185e+00	 1.016248e+01
0	 7.037037e+00	 3.259259e+00	 1.016331e+01
0	 7.037037e+00	 3.333333e+00	 1.016401e+01
0	 6.666667e+00	 3.333333e+00	 1.021063e+01
0	 6.666667e+00	 3.407407e+00	 1.021067e+01
0	 6.666667e+00	 3.481481e+00	 1.021053e+01
0	 6.666667e+00	 3.555556e+00	 1.021022e+01
0	 6.666667e+00	 3.629630e+00	 1.020972e+01
0	 6.666667e+00	 3.703704e+00	 1.020905e+01
0	 6.740741e+00	 3.333333e+00	 1.020112e+01
0	 6.740741e+00	 3.407407e+00	 1.020127e+01
0	 6.740741e+00	 3.481481e+00	 1.020125e+01
0	 6.740741e+00	 3.555556e+00	 1.020106e+01
0	 6.740741e+00	 3.629630e+00	 1.020070e+01
0	 6.740741e+00	 3.703704e+00	 1.020016e+01
0	 6.814815e+00	 3.333333e+00	 1.019171e+01
0	 6.814815e+00	 3.407407e+00	 1.019197e+01
0	 6.814815e+00	 3.481481e+00	 1.019206e+01
0	 6.814815e+00	 3.555556e+00	 1.019198e+01
0	 6.814815e+00	 3.629630e+00	 1.019175e+01
0	 6.814815e+00	 3.703704e+00	 1.019134e+01
0	 6.888889e+00	 3.333333e+00	 1.018239e+01
0	 6.888889e+00	 3.407407e+00	 1.018275e+01
0	 6.888889e+00	 3.481481e+00	 1.018295e+01
0	 6.888889e+00	 3.555556e+00	 1.018299e+01
0	 6.888889e+00	 3.629630e+00	 1.018287e+01
0	 6.888889e+00	 3.703704e+00	 1.018259e+01
0	 6.962963e+00	 3.333333e+00	 1.017316e+01
0	 6.962963e+00	 3.407407e+00	 1.017361e+01
0	 6.962963e+00	 3.481481e+00	 1.017392e+01
0	 6.962963e+00	 3.555556e+00	 1.017407e+01
0	 6.962963e+00	 3.629630e+00	 1.017406e+01
0	 6.962963e+00	 3.703704e+00	 1.017391e+01
0	 7.037037e+00	 3.333333e+00	 1.016401e+01
0	 7.037037e+00	 3.407407e+00	 1.016456e+01
0	 7.037037e+00	 3.481481e+00	 1.016496e+01
0	 7.037037e+00	 3.555556e+00	 1.016522e+01
0	 7.037037e+00	 3.629630e+00	 1.016533e+01
0	 7.037037e+00	 3.703704e+00	 1.016529e+01
0	 6.666667e+00	 3.703704e+00	 1.020905e+01
0	 6.666667e+00	 3.777778e+00	 1.020821e+01
0	 6.666667e+00	 3.851852e+00	 1.020722e+01
0	 6.666667e+00	 3.925926e+00	 1.020607e+01
0	 6.666667e+00	 4.000000e+00	 1.020475e+01
0	 6.666667e+00	 4.074074e+00	 1.020327e+01
0	 6.740741e+00	 3.703704e+00	 1.020016e+01
0	 6.740741e+00	 3.777778e+00	 1.019947e+01
0	 6.740741e+00	 3.851852e+00	 1.019862e+01
0	 6.740741e+00	 3.925926e+00	 1.019762e+01
0	 6.740741e+00	 4.000000e+00	 1.019646e+01
0	 6.740741e+00	 4.074074e+00	 1.019515e+01
0	 6.814815e+00	 3.703704e+00	 1.019134e+01
0	 6.814815e+00	 3.777778e+00	 1.019079e+01
0	 6.814815e+00	 3.851852e+00	 1.019008e+01
0	 6.814815e+00	 3.925926e+00	 1.018923e+01
0	 6.814815e+00	 4.000000e+00	 1.018822e+01
0	 6.814815e+00	 4.074074e+00	 1.018706e+01
0	 6.888889e+00	 3.703704e+00	 1.018259e+01
0	 6.888889e+00	 3.777778e+00	 1.018217e+01
0	 6.888889e+00	 3.851852e+00	 1.018160e+01
0	 6.888889e+00	 3.925926e+00	 1.018088e+01
0	 6.888889e+00	 4.000000e+00	 1.018002e+01
0	 6.888889e+00	 4.074074e+00	 1.017901e+01
0	 6.962963e+00	 3.703704e+00	 1.017391e+01
0	 6.962963e+00	 3.777778e+00	 1.017361e+01
0	 6.962963e+00	 3.851852e+00	 1.017317e+01
0	 6.962963e+00	 3.925926e+00	 1.017260e+01
0	 6.962963e+00	 4.000000e+00	 1.017188e+01
0	 6.962963e+00	 4.074074e+00	 1.017101e+01
0	 7.037037e+00	 3.703704e+00	 1.016529e+01
0	 7.037037e+00	 3.777778e+00	 1.016512e+01
0	 7.037037e+00	 3.851852e+00	 1.016481e+01
0	 7.037037e+00	 3.925926e+00	 1.016436e+01
0	 7.037037e+00	 4.000000e+00	 1.016378e+01
0	 7.037037e+00	 4.074074e+00	 1.016305e+01
0	 6.666667e+00	 4.074074e+00	 1.020327e+01
0	 6.666667e+00	 4.148148e+00	 1.020165e+01
0	 6.666667e+00	 4.222222e+00	 1.019990e+01
0	 6.666667e+00	 4.296296e+00	 1.019802e+01
0	 6.666667e+00	 4.370370e+00	 1.019601e+01
0	 6.666667e+00	 4.444444e+00	 1.019385e+01
0	 6.740741e+00	 4.074074e+00	 1.019515e+01
0	 6.740741e+00	 4.148148e+00	 1.019369e+01
0	 6.740741e+00	 4.222222e+00	 1.019211e+01
0	 6.740741e+00	 4.296296e+00	 1.019040e+01
0	 6.740741e+00	 4.370370e+00	 1.018855e+01
0	 6.740741e+00	 4.444444e+00	 1.018657e+01
0	 6.814815e+00	 4.074074e+00	 1.018706e+01
0	 6.814815e+00	 4.148148e+00	 1.018576e+01
0	 6.814815e+00	 4.222222e+00	 1.018434e+01
0	 6.814815e+00	 4.296296e+00	 1.018279e+01
0	 6.814815e+00	 4.370370e+00	 1.018111e+01
0	 6.814815e+00	 4.444444e+00	 1.017930e+01
0	 6.888889e+00	 4.074074e+00	 1.017901e+01
0	 6.888889e+00	 4.148148e+00	 1.017787e+01
0	 6.888889e+00	 4.222222e+00	 1.017660e+01
0	 6.888889e+00	 4.296296e+00	 1.017521e+01
0	 6.888889e+00	 4.370370e+00	 1.017370e+01
0	 6.888889e+00	 4.444444e+00	 1.017205e+01
0	 6.962963e+00	 4.074074e+00	 1.017101e+01
0	 6.962963e+00	 4.148148e+00	 1.017001e+01
0	 6.962963e+00	 4.222222e+00	 1.016890e+01
0	 6.962963e+00	 4.296296e+00	 1.016766e+01
0	 6.962963e+00	 4.370370e+00	 1.016630e+01
0	 6.962963e+00	 4.444444e+00	 1.016481e+01
0	 7.037037e+00	 4.074074e+00	 1.016305e+01
0	 7.037037e+00	 4.148148e+00	 1.016220e+01
0	 7.037037e+00	 4.222222e+00	 1.016124e+01
0	 7.037037e+00	 4.296296e+00	 1.016015e+01
0	 7.037037e+00	 4.370370e+00	 1.015894e+01
0	 7.037037e+00	 4.444444e+00	 1.015761e+01
0	 6.666667e+00	 4.444444e+00	 1.019385e+01
0	 6.666667e+00	 4.518519e+00	 1.019158e+01
0	 6.666667e+00	 4.592593e+00	 1.018921e+01
0	 6.666667e+00	 4.666667e+00	 1.018674e+01
0	 6.666667e+00	 4.740741e+00	 1.018417e+01
0	 6.666667e+00	 4.814815e+00	 1.018148e+01
0	 6.740741e+00	 4.444444e+00	 1.018657e+01
0	 6.740741e+00	 4.518519e+00	 1.018448e+01
0	 6.740741e+00	 4.592593e+00	 1.018228e+01
0	 6.740741e+00	 4.666667e+00	 1.017999e+01
0	 6.740741e+00	 4.740741e+00	 1.017759e+01
0	 6.740741e+00	 4.814815e+00	 1.017508e+01
0	 6.814815e+00	 4.444444e+00	 1.017930e+01
0	 6.814815e+00	 4.518519e+00	 1.017738e+01
0	 6.814815e+00	 4.592593e+00	 1.017535e+01
0	 6.814815e+00	 4.666667e+00	 1.017323e+01
0	 6.814815e+00	 4.740741e+00	 1.017100e+01
0	 6.814815e+00	 4.814815e+00	 1.016866e+01
0	 6.888889e+00	 4.444444e+00	 1.017205e+01
0	 6.888889e+00	 4.518519e+00	 1.017029e+01
0	 6.888889e+00	 4.592593e+00	 1.016843e+01
0	 6.888889e+00	 4.666667e+00	 1.016647e+01
0	 6.888889e+00	 4.740741e+00	 1.016441e+01
0	 6.888889e+00	 4.814815e+00	 1.016224e+01
0	 6.962963e+00	 4.444444e+00	 1.016481e+01
0	 6.962963e+00	 4.518519e+00	 1.016321e+01
0	 6.962963e+00	 4.592593e+00	 1.016152e+01
0	 6.962963e+00	 4.666667e+00	 1.015972e+01
0	 6.962963e+00	 4.740741e+00	 1.015783e+01
0	 6.962963e+00	 4.814815e+00	 1.015582e+01
0	 7.037037e+00	 4.444444e+00	 1.015761e+01
0	 7.037037e+00	 4.518519e+00	 1.015616e+01
0	 7.037037e+00	 4.592593e+00	 1.015463e+01
0	 7.037037e+00	 4.666667e+00	 1.015299e+01
0	 7.037037e+00	 4.740741e+00	 1.015125e+01
0	 7.037037e+00	 4.814815e+00	 1.014941e+01
0	 6.666667e+00	 4.814815e+00	 1.018148e+01
0	 6.666667e+00	 4.888889e+00	 1.017870e+01
0	 6.666667e+00	 4.962963e+00	 1.017586e+01
0	 6.666667e+00	 5.037037e+00	 1.017295e+01
0	 6.666667e+00	 5.111111e+00	 1.016995e+01
0	 6.666667e+00	 5.185185e+00	 1.016688e+01
0	 6.740741e+00	 4.814815e+00	 1.017508e+01
0	 6.740741e+00	 4.888889e+00	 1.017248e+01
0	 6.740741e+00	 4.962963e+00	 1.016981e+01
0	 6.740741e+00	 5.037037e+00	 1.016707e+01
0	 6.740741e+00	 5.111111e+00	 1.016426e+01
0	 6.740741e+00	 5.185185e+00	 1.016136e+01
0	 6.814815e+00	 4.814815e+00	 1.016866e+01
0	 6.814815e+00	 4.888889e+00	 1.016624e+01
0	 6.814815e+00	 4.962963e+00	 1.016374e+01
0	 6.814815e+00	 5.037037e+00	 1.016117e+01
0	 6.814815e+00	 5.111111e+00	 1.015853e+01
0	 6.814815e+00	 5.185185e+00	 1.015579e+01
0	 6.888889e+00	 4.814815e+00	 1.016224e+01
0	 6.888889e+00	 4.888889e+00	 1.015999e+01
0	 6.888889e+00	 4.962963e+00	 1.015766e+01
0	 6.888889e+00	 5.037037e+00	 1.015526e+01
0	 6.888889e+00	 5.111111e+00	 1.015277e+01
0	 6.888889e+00	 5.185185e+00	 1.015021e+01
0	 6.962963e+00	 4.814815e+00	 1.015582e+01
0	 6.962963e+00	 4.888889e+00	 1.015373e+01
0	 6.962963e+00	 4.962963e+00	 1.015157e+01
0	 6.962963e+00	 5.037037e+00	 1.014933e+01
0	 6.962963e+00	 5.111111e+00	 1.014701e+01
0	 6.962963e+00	 5.185185e+00	 1.014461e+01
0	 7.037037e+00	 4.814815e+00	 1.014941e+01
0	 7.037037e+00	 4.888889e+00	 1.014748e+01
0	 7.037037e+00	 4.962963e+00	 1.014548e+01
0	 7.037037e+00	 5.037037e+00	 1.014340e+01
0	 7.037037e+00	 5.111111e+00	 1.014124e+01
0	 7.037037e+00	 5.185185e+00	 1.013900e+01
0	 6.666667e+00	 5.185185e+00	 1.016688e+01
0	 6.666667e+00	 5.259259e+00	 1.016375e+01
0	 6.666667e+00	 5.333333e+00	 1.016058e+01
0	 6.666667e+00	 5.407407e+00	 1.015736e+01
0	 6.666667e+00	 5.481481e+00	 1.015409e+01
0	 6.666667e+00	 5.555556e+00	 1.015077e+01
0	 6.740741e+00	 5.185185e+00	 1.016136e+01
0	 6.740741e+00	 5.259259e+00	 1.015839e+01
0	 6.740741e+00	 5.333333e+00	 1.015539e+01
0	 6.740741e+00	 5.407407e+00	 1.015234e+01
0	 6.740741e+00	 5.481481e+00	 1.014923e+01
0	 6.740741e+00	 5.555556e+00	 1.014607e+01
0	 6.814815e+00	 5.185185e+00	 1.015579e+01
0	 6.814815e+00	 5.259259e+00	 1.015300e+01
0	 6.814815e+00	 5.333333e+00	 1.015016e+01
0	 6.814815e+00	 5.407407e+00	 1.014727e+01
0	 6.814815e+00	 5.481481e+00	 1.014433e+01
0	 6.814815e+00	 5.555556e+00	 1.014133e+01
0	 6.888889e+00	 5.185185e+00	 1.015021e+01
0	 6.888889e+00	 5.259259e+00	 1.014758e+01
0	 6.888889e+00	 5.333333e+00	 1.014490e+01
0	 6.888889e+00	 5.407407e+00	 1.014218e+01
0	 6.888889e+00	 5.481481e+00	 1.013940e+01
0	 6.888889e+00	 5.555556e+00	 1.013655e+01
0	 6.962963e+00	 5.185185e+00	 1.014461e+01
0	 6.962963e+00	 5.259259e+00	 1.014214e+01
0	 6.962963e+00	 5.333333e+00	 1.013963e+01
0	 6.962963e+00	 5.407407e+00	 1.013706e+01
0	 6.962963e+00	 5.481481e+00	 1.013443e+01
0	 6.962963e+00	 5.555556e+00	 1.013175e+01
0	 7.037037e+00	 5.185185e+00	 1.013900e+01
0	 7.037037e+00	 5.259259e+00	 1.013669e+01
0	 7.037037e+00	 5.333333e+00	 1.013434e+01
0	 7.037037e+00	 5.407407e+00	 1.013192e+01
0	 7.037037e+00	 5.481481e+00	 1.012946e+01
0	 7.037037e+00	 5.555556e+00	 1.012692e+01
0	 6.666667e+00	 5.555556e+00	 1.015077e+01
0	 6.666667e+00	 5.629630e+00	 1.014741e+01
0	 6.666667e+00	 5.703704e+00	 1.014404e+01
0	 6.666667e+00	 5.777778e+00	 1.014064e+01
0	 6.666667e+00	 5.851852e+00	 1.013722e+01
0	 6.666667e+00	 5.925926e+00	 1.013377e+01
0	 6.740741e+00	 5.555556e+00	 1.014607e+01
0	 6.740741e+00	 5.629630e+00	 1.014288e+01
0	 6.740741e+00	 5.703704e+00	 1.013966e+01
0	 6.740741e+00	 5.777778e+00	 1.013642e+01
0	 6.740741e+00	 5.851852e+00	 1.013315e+01
0	 6.740741e+00	 5.925926e+00	 1.012984e+01
0	 6.814815e+00	 5.555556e+00	 1.014133e+01
0	 6.814815e+00	 5.629630e+00	 1.013829e+01
0	 6.814815e+00	 5.703704e+00	 1.013523e+01
0	 6.814815e+00	 5.777778e+00	 1.013214e+01
0	 6.814815e+00	 5.851852e+00	 1.012902e+01
0	 6.814815e+00	 5.925926e+00	 1.012587e+01
0	 6.888889e+00	 5.555556e+00	 1.013655e+01
0	 6.888889e+00	 5.629630e+00	 1.013367e+01
0	 6.888889e+00	 5.703704e+00	 1.013076e+01
0	 6.888889e+00	 5.777778e+00	 1.012782e+01
0	 6.888889e+00	 5.851852e+00	 1.012485e+01
0	 6.888889e+00	 5.925926e+00	 1.012184e+01
0	 6.962963e+00	 5.555556e+00	 1.013175e+01
0	 6.962963e+00	 5.629630e+00	 1.012902e+01
0	 6.962963e+00	 5.703704e+00	 1.012626e+01
0	 6.962963e+00	 5.777778e+00	 1.012347e+01
0	 6.962963e+00	 5.851852e+00	 1.012065e+01
0	 6.962963e+00	 5.925926e+00	 1.011779e+01
0	 7.037037e+00	 5.555556e+00	 1.012692e+01
0	 7.037037e+00	 5.629630e+00	 1.012435e+01
0	 7.037037e+00	 5.703704e+00	 1.012174e+01
0	 7.037037e+00	 5.777778e+00	 1.011910e+01
0	 7.037037e+00	 5.851852e+00	 1.011642e+01
0	 7.037037e+00	 5.925926e+00	 1.011370e+01
0	 6.666667e+00	 5.925926e+00	 1.013377e+01
0	 6.666667e+00	 6.000000e+00	 1.013030e+01
0	 6.666667e+00	 6.074074e+00	 1.012684e+01
0	 6.666667e+00	 6.148148e+00	 1.012337e+01
0	 6.666667e+00	 6.222222e+00	 1.011990e+01
0	 6.666667e+00	 6.296296e+00	 1.011641e+01
0	 6.740741e+00	 5.925926e+00	 1.012984e+01
0	 6.740741e+00	 6.000000e+00	 1.012652e+01
0	 6.740741e+00	 6.074074e+00	 1.012320e+01
0	 6.740741e+00	 6.148148e+00	 1.011987e+01
0	 6.740741e+00	 6.222222e+00	 1.011654e+01
0	 6.740741e+00	 6.296296e+00	 1.011319e+01
0	 6.814815e+00	 5.925926e+00	 1.012587e+01
0	 6.814815e+00	 6.000000e+00	 1.012269e+01
0	 6.814815e+00	 6.074074e+00	 1.011951e+01
0	 6.814815e+00	 6.148148e+00	 1.011632e+01
0	 6.814815e+00	 6.222222e+00	 1.011312e+01
0	 6.814815e+00	 6.296296e+00	 1.010991e+01
0	 6.888889e+00	 5.925926e+00	 1.012184e+01
0	 6.888889e+00	 6.000000e+00	 1.011881e+01
0	 6.888889e+00	 6.074074e+00	 1.011577e+01
0	 6.888889e+00	 6.148148e+00	 1.011272e+01
0	 6.888889e+00	 6.222222e+00	 1.010966e+01
0	 6.888889e+00	 6.296296e+00	 1.010658e+01
0	 6.962963e+00	 5.925926e+00	 1.011779e+01
0	 6.962963e+00	 6.000000e+00	 1.011490e+01
0	 6.962963e+00	 6.074074e+00	 1.011200e+01
0	 6.962963e+00	 6.148148e+00	 1.010909e+01
0	 6.962963e+00	 6.222222e+00	 1.010616e+01
0	 6.962963e+00	 6.296296e+00	 1.010321e+01
0	 7.037037e+00	 5.925926e+00	 1.011370e+01
0	 7.037037e+00	 6.000000e+00	 1.011096e+01
0	 7.037037e+00	 6.074074e+00	 1.010820e+01
0	 7.037037e+00	 6.148148e+00	 1.010542e+01
0	 7.037037e+00	 6.222222e+00	 1.010263e+01
0	 7.037037e+00	 6.296296e+00	 1.009981e+01
0	 6.666667e+00	 6.296296e+00	 1.011641e+01
0	 6.666667e+00	 6.370370e+00	 1.011294e+01
0	 6.666667e+00	 6.444444e+00	 1.010948e+01
0	 6.666667e+00	 6.518519e+00	 1.010603e+01
0	 6.666667e+00	 6.592593e+00	 1.010259e+01
0	 6.666667e+00	 6.666667e+00	 1.009916e+01
0	 6.740741e+00	 6.296296e+00	 1.011319e+01
0	 6.740741e+00	 6.370370e+00	 1.010984e+01
0	 6.740741e+00	 6.444444e+00	 1.010651e+01
0	 6.740741e+00	 6.518519e+00	 1.010318e+01
0	 6.740741e+00	 6.592593e+00	 1.009987e+01
0	 6.740741e+00	 6.666667e+00	 1.009656e+01
0	 6.814815e+00	 6.296296e+00	 1.010991e+01
0	 6.814815e+00	 6.370370e+00	 1.010669e+01
0	 6.814815e+00	 6.444444e+00	 1.010348e+01
0	 6.814815e+00	 6.518519e+00	 1.010028e+01
0	 6.814815e+00	 6.592593e+00	 1.009709e+01
0	 6.814815e+00	 6.666667e+00	 1.009389e+01
0	 6.888889e+00	 6.296296e+00	 1.010658e+01
0	 6.888889e+00	 6.370370e+00	 1.010349e+01
0	 6.888889e+00	 6.444444e+00	 1.010041e+01
0	 6.888889e+00	 6.518519e+00	 1.009734e+01
0	 6.888889e+00	 6.592593e+00	 1.009426e+01
0	 6.888889e+00	 6.666667e+00	 1.009118e+01
0	 6.962963e+00	 6.296296e+00	 1.010321e+01
0	 6.962963e+00	 6.370370e+00	 1.010025e+01
0	 6.962963e+00	 6.444444e+00	 1.009730e+01
0	 6.962963e+00	 6.518519e+00	 1.009435e+01
0	 6.962963e+00	 6.592593e+00	 1.009140e+01
0	 6.962963e+00	 6.666667e+00	 1.008844e+01
0	 7.037037e+00	 6.296296e+00	 1.009981e+01
0	 7.037037e+00	 6.370370e+00	 1.009698e+01
0	 7.037037e+00	 6.444444e+00	 1.009416e+01
0	 7.037037e+00	 6.518519e+00	 1.009133e+01
0	 7.037037e+00	 6.592593e+00	 1.008850e+01
0	 7.037037e+00	 6.666667e+00	 1.008566e+01
0	 6.666667e+00	 6.666667e+00	 1.009916e+01
0	 6.666667e+00	 6.740741e+00	 1.009575e+01
0	 6.666667e+00	 6.814815e+00	 1.009237e+01
0	 6.666667e+00	 6.888889e+00	 1.008901e+01
0	 6.666667e+00	 6.962963e+00	 1.008568e+01
0	 6.666667e+00	 7.037037e+00	 1.008237e+01
0	 6.740741e+00	 6.666667e+00	 1.009656e+01
0	 6.740741e+00	 6.740741e+00	 1.009326e+01
0	 6.740741e+00	 6.814815e+00	 1.008999e+01
0	 6.740741e+00	 6.888889e+00	 1.008674e+01
0	 6.740741e+00	 6.962963e+00	 1.008351e+01
0	 6.740741e+00	 7.037037e+00	 1.008030e+01
0	 6.814815e+00	 6.666667e+00	 1.009389e+01
0	 6.814815e+00	 6.740741e+00	 1.009071e+01
0	 6.814815e+00	 6.814815e+00	 1.008755e+01
0	 6.814815e+00	 6.888889e+00	 1.008441e+01
0	 6.814815e+00	 6.962963e+00	 1.008129e+01
0	 6.814815e+00	 7.037037e+00	 1.007819e+01
0	 6.888889e+00	 6.666667e+00	 1.009118e+01
0	 6.888889e+00	 6.740741e+00	 1.008812e+01
0	 6.888889e+00	 6.814815e+00	 1.008507e+01
0	 6.888889e+00	 6.888889e+00	 1.008204e+01
0	 6.888889e+00	 6.962963e+00	 1.007903e+01
0	 6.888889e+00	 7.037037e+00	 1.007603e+01
0	 6.962963e+00	 6.666667e+00	 1.008844e+01
0	 6.962963e+00	 6.740741e+00	 1.008549e+01
0	 6.962963e+00	 6.814815e+00	 1.008255e+01
0	 6.962963e+00	 6.888889e+00	 1.007964e+01
0	 6.962963e+00	 6.962963e+00	 1.007673e+01
0	 6.962963e+00	 7.037037e+00	 1.007383e+01
0	 7.037037e+00	 6.666667e+00	 1.008566e+01
0	 7.037037e+00	 6.740741e+00	 1.008282e+01
0	 7.037037e+00	 6.814815e+00	 1.008001e+01
0	 7.037037e+00	 6.888889e+00	 1.007720e+01
0	 7.037037e+00	 6.962963e+00	 1.007440e+01
0	 7.037037e+00	 7.037037e+00	 1.007161e+01
0	 6.666667e+00	 7.037037e+00	 1.008237e+01
0	 6.666667e+00	 7.111111e+00	 1.007909e+01
0	 6.666667e+00	 7.185185e+00	 1.007584e+01
0	 6.666667e+00	 7.259259e+00	 1.007264e+01
0	 6.666667e+00	 7.333333e+00	 1.006947e+01
0	 6.666667e+00	 7.407407e+00	 1.006634e+01
0	 6.740741e+00	 7.037037e+00	 1.008030e+01
0	 6.740741e+00	 7.111111e+00	 1.007712e+01
0	 6.740741e+00	 7.185185e+00	 1.007398e+01
0	 6.740741e+00	 7.259259e+00	 1.007087e+01
0	 6.740741e+00	 7.333333e+00	 1.006779e+01
0	 6.740741e+00	 7.407407e+00	 1.006474e+01
0	 6.814815e+00	 7.037037e+00	 1.007819e+01
0	 6.814815e+00	 7.111111e+00	 1.007510e+01
0	 6.814815e+00	 7.185185e+00	 1.007206e+01
0	 6.814815e+00	 7.259259e+00	 1.006904e+01
0	 6.814815e+00	 7.333333e+00	 1.006606e+01
0	 6.814815e+00	 7.407407e+00	 1.006310e+01
0	 6.888889e+00	 7.037037e+00	 1.007603e+01
0	 6.888889e+00	 7.111111e+00	 1.007305e+01
0	 6.888889e+00	 7.185185e+00	 1.007010e+01
0	 6.888889e+00	 7.259259e+00	 1.006718e+01
0	 6.888889e+00	 7.333333e+00	 1.006429e+01
0	 6.888889e+00	 7.407407e+00	 1.006142e+01
0	 6.962963e+00	 7.037037e+00	 1.007383e+01
0	 6.962963e+00	 7.111111e+00	 1.007095e+01
0	 6.962963e+00	 7.185185e+00	 1.006811e+01
0	 6.962963e+00	 7.259259e+00	 1.006528e+01
0	 6.962963e+00	 7.333333e+00	 1.006249e+01
0	 6.962963e+00	 7.407407e+00	 1.005971e+01
0	 7.037037e+00	 7.037037e+00	 1.007161e+01
0	 7.037037e+00	 7.111111e+00	 1.006883e+01
0	 7.037037e+00	 7.185185e+00	 1.006608e+01
0	 7.037037e+00	 7.259259e+00	 1.006336e+01
0	 7.037037e+00	 7.333333e+00	 1.006066e+01
0	 7.037037e+00	 7.407407e+00	 1.005797e+01
0	 6.666667e+00	 7.407407e+00	 1.006634e+01
0	 6.666667e+00	 7.481481e+00	 1.006324e+01
0	 6.666667e+00	 7.555556e+00	 1.006019e+01
0	 6.666667e+00	 7.629630e+00	 1.005720e+01
0	 6.666667e+00	 7.703704e+00	 1.005425e+01
0	 6.666667e+00	 7.777778e+00	 1.005133e+01
0	 6.740741e+00	 7.407407e+00	 1.006474e+01
0	 6.740741e+00	 7.481481e+00	 1.006173e+01
0	 6.740741e+00	 7.555556e+00	 1.005877e+01
0	 6.740741e+00	 7.629630e+00	 1.005585e+01
0	 6.740741e+00	 7.703704e+00	 1.005297e+01
0	 6.740741e+00	 7.777778e+00	 1.005014e+01
0	 6.814815e+00	 7.407407e+00	 1.006310e+01
0	 6.814815e+00	 7.481481e+00	 1.006017e+01
0	 6.814815e+00	 7.555556e+00	 1.005729e+01
0	 6.814815e+00	 7.629630e+00	 1.005446e+01
0	 6.814815e+00	 7.703704e+00	 1.005166e+01
0	 6.814815e+00	 7.777778e+00	 1.004890e+01
0	 6.888889e+00	 7.407407e+00	 1.006142e+01
0	 6.888889e+00	 7.481481e+00	 1.005858e+01
0	 6.888889e+00	 7.555556e+00	 1.005579e+01
0	 6.888889e+00	 7.629630e+00	 1.005304e+01
0	 6.888889e+00	 7.703704e+00	 1.005032e+01
0	 6.888889e+00	 7.777778e+00	 1.004764e+01
0	 6.962963e+00	 7.407407e+00	 1.005971e+01
0	 6.962963e+00	 7.481481e+00	 1.005696e+01
0	 6.962963e+00	 7.555556e+00	 1.005425e+01
0	 6.962963e+00	 7.629630e+00	 1.005159e+01
0	 6.962963e+00	 7.703704e+00	 1.004895e+01
0	 6.962963e+00	 7.777778e+00	 1.004635e+01
0	 7.037037e+00	 7.407407e+00	 1.005797e+01
0	 7.037037e+00	 7.481481e+00	 1.005532e+01
0	 7.037037e+00	 7.555556e+00	 1.005270e+01
0	 7.037037e+00	 7.629630e+00	 1.005011e+01
0	 7.037037e+00	 7.703704e+00	 1.004756e+01
0	 7.037037e+00	 7.777778e+00	 1.004504e+01
0	 6.666667e+00	 7.777778e+00	 1.005133e+01
0	 6.666667e+00	 7.851852e+00	 1.004847e+01
0	 6.666667e+00	 7.925926e+00	 1.004567e+01
0	 6.666667e+00	 8.000000e+00	 1.004293e+01
0	 6.666667e+00	 8.074074e+00	 1.004025e+01
0	 6.666667e+00	 8.148148e+00	 1.003761e+01
0	 6.740741e+00	 7.777778e+00	 1.005014e+01
0	 6.740741e+00	 7.851852e+00	 1.004735e+01
0	 6.740741e+00	 7.925926e+00	 1.004462e+01
0	 6.740741e+00	 8.000000e+00	 1.004195e+01
0	 6.740741e+00	 8.074074e+00	 1.003933e+01
0	 6.740741e+00	 8.148148e+00	 1.003676e+01
0	 6.814815e+00	 7.777778e+00	 1.004890e+01
0	 6.814815e+00	 7.851852e+00	 1.004619e+01
0	 6.814815e+00	 7.925926e+00	 1.004353e+01
0	 6.814815e+00	 8.000000e+00	 1.004093e+01
0	 6.814815e+00	 8.074074e+00	 1.003838e+01
0	 6.814815e+00	 8.148148e+00	 1.003587e+01
0	 6.888889e+00	 7.777778e+00	 1.004764e+01
0	 6.888889e+00	 7.851852e+00	 1.004500e+01
0	 6.888889e+00	 7.925926e+00	 1.004242e+01
0	 6.888889e+00	 8.000000e+00	 1.003989e+01
0	 6.888889e+00	 8.074074e+00	 1.003740e+01
0	 6.888889e+00	 8.148148e+00	 1.003496e+01
0	 6.962963e+00	 7.777778e+00	 1.004635e+01
0	 6.962963e+00	 7.851852e+00	 1.004379e+01
0	 6.962963e+00	 7.925926e+00	 1.004128e+01
0	 6.962963e+00	 8.000000e+00	 1.003882e+01
0	 6.962963e+00	 8.074074e+00	 1.003641e+01
0	 6.962963e+00	 8.148148e+00	 1.003404e+01
0	 7.037037e+00	 7.777778e+00	 1.004504e+01
0	 7.037037e+00	 7.851852e+00	 1.004256e+01
0	 7.037037e+00	 7.925926e+00	 1.004012e+01
0	 7.037037e+00	 8.000000e+00	 1.003774e+01
0	 7.037037e+00	 8.074074e+00	 1.003540e+01
0	 7.037037e+00	 8.148148e+00	 1.003309e+01
0	 6.666667e+00	 8.148148e+00	 1.003761e+01
0	 6.666667e+00	 8.222222e+00	 1.003504e+01
0	 6.666667e+00	 8.296296e+00	 1.003254e+01
0	 6.666667e+00	 8.370370e+00	 1.003012e+01
0	 6.666667e+00	 8.444444e+00	 1.002775e+01
0	 6.666667e+00	 8.518519e+00	 1.002545e+01
0	 6.740741e+00	 8.148148e+00	 1.003676e+01
0	 6.740741e+00	 8.222222e+00	 1.003425e+01
0	 6.740741e+00	 8.296296e+00	 1.003181e+01
0	 6.740741e+00	 8.370370e+00	 1.002944e+01
0	 6.740741e+00	 8.444444e+00	 1.002713e+01
0	 6.740741e+00	 8.518519e+00	 1.002488e+01
0	 6.814815e+00	 8.148148e+00	 1.003587e+01
0	 6.814815e+00	 8.222222e+00	 1.003342e+01
0	 6.814815e+00	 8.296296e+00	 1.003104e+01
0	 6.814815e+00	 8.370370e+00	 1.002873e+01
0	 6.814815e+00	 8.444444e+00	 1.002648e+01
0	 6.814815e+00	 8.518519e+00	 1.002429e+01
0	 6.888889e+00	 8.148148e+00	 1.003496e+01
0	 6.888889e+00	 8.222222e+00	 1.003258e+01
0	 6.888889e+00	 8.296296e+00	 1.003026e+01
0	 6.888889e+00	 8.370370e+00	 1.002801e+01
0	 6.888889e+00	 8.444444e+00	 1.002582e+01
0	 6.888889e+00	 8.518519e+00	 1.002368e+01
0	 6.962963e+00	 8.148148e+00	 1.003404e+01
0	 6.962963e+00	 8.222222e+00	 1.003172e+01
0	 6.962963e+00	 8.296296e+00	 1.002946e+01
0	 6.962963e+00	 8.370370e+00	 1.002727e+01
0	 6.962963e+00	 8.444444e+00	 1.002514e+01
0	 6.962963e+00	 8.518519e+00	 1.002306e+01
0	 7.037037e+00	 8.148148e+00	 1.003309e+01
0	 7.037037e+00	 8.222222e+00	 1.003084e+01
0	 7.037037e+00	 8.296296e+00	 1.002865e+01
0	 7.037037e+00	 8.370370e+00	 1.002652e+01
0	 7.037037e+00	 8.444444e+00	 1.002445e+01
0	 7.037037e+00	 8.518519e+00	 1.002243e+01
0	 6.666667e+00	 8.518519e+00	 1.002545e+01
0	 6.666667e+00	 8.592593e+00	 1.002323e+01
0	 6.666667e+00	 8.666667e+00	 1.002109e+01
0	 6.666667e+00	 8.740741e+00	 1.001904e+01
0	 6.666667e+00	 8.814815e+00	 1.001707e+01
0	 6.666667e+00	 8.888889e+00	 1.001517e+01
0	 6.740741e+00	 8.518519e+00	 1.002488e+01
0	 6.740741e+00	 8.592593e+00	 1.002271e+01
0	 6.740741e+00	 8.666667e+00	 1.002062e+01
0	 6.740741e+00	 8.740741e+00	 1.001861e+01
0	 6.740741e+00	 8.814815e+00	 1.001669e+01
0	 6.740741e+00	 8.888889e+00	 1.001483e+01
0	 6.814815e+00	 8.518519e+00	 1.002429e+01
0	 6.814815e+00	 8.592593e+00	 1.002217e+01
0	 6.814815e+00	 8.666667e+00	 1.002013e+01
0	 6.814815e+00	 8.740741e+00	 1.001817e+01
0	 6.814815e+00	 8.814815e+00	 1.001629e+01
0	 6.814815e+00	 8.888889e+00	 1.001448e+01
0	 6.888889e+00	 8.518519e+00	 1.002368e+01
0	 6.888889e+00	 8.592593e+00	 1.002161e+01
0	 6.888889e+00	 8.666667e+00	 1.001962e+01
0	 6.888889e+00	 8.740741e+00	 1.001771e+01
0	 6.888889e+00	 8.814815e+00	 1.001588e+01
0	 6.888889e+00	 8.888889e+00	 1.001411e+01
0	 6.962963e+00	 8.518519e+00	 1.002306e+01
0	 6.962963e+00	 8.592593e+00	 1.002104e+01
0	 6.962963e+00	 8.666667e+00	 1.001911e+01
0	 6.962963e+00	 8.740741e+00	 1.001725e+01
0	 6.962963e+00	 8.814815e+00	 1.001546e+01
0	 6.962963e+00	 8.888889e+00	 1.001374e+01
0	 7.037037e+00	 8.518519e+00	 1.002243e+01
0	 7.037037e+00	 8.592593e+00	 1.002047e+01
0	 7.037037e+00	 8.666667e+00	 1.001859e+01
0	 7.037037e+00	 8.740741e+00	 1.001678e+01
0	 7.037037e+00	 8.814815e+00	 1.001504e+01
0	 7.037037e+00	 8.888889e+00	 1.001337e+01
0	 6.666667e+00	 8.888889e+00	 1.001517e+01
0	 6.666667e+00	 8.962963e+00	 1.001337e+01
0	 6.666667e+00	 9.037037e+00	 1.001167e+01
0	 6.666667e+00	 9.111111e+00	 1.001007e+01
0	 6.666667e+00	 9.185185e+00	 1.000857e+01
0	 6.666667e+00	 9.259259e+00	 1.000716e+01
0	 6.740741e+00	 8.888889e+00	 1.001483e+01
0	 6.740741e+00	 8.962963e+00	 1.001307e+01
0	 6.740741e+00	 9.037037e+00	 1.001140e+01
0	 6.740741e+00	 9.111111e+00	 1.000984e+01
0	 6.740741e+00	 9.185185e+00	 1.000838e+01
0	 6.740741e+00	 9.259259e+00	 1.000700e+01
0	 6.814815e+00	 8.888889e+00	 1.001448e+01
0	 6.814815e+00	 8.962963e+00	 1.001275e+01
0	 6.814815e+00	 9.037037e+00	 1.001113e+01
0	 6.814815e+00	 9.111111e+00	 1.000961e+01
0	 6.814815e+00	 9.185185e+00	 1.000817e+01
0	 6.814815e+00	 9.259259e+00	 1.000683e+01
0	 6.888889e+00	 8.888889e+00	 1.001411e+01
0	 6.888889e+00	 8.962963e+00	 1.001243e+01
0	 6.888889e+00	 9.037037e+00	 1.001085e+01
0	 6.888889e+00	 9.111111e+00	 1.000936e+01
0	 6.888889e+00	 9.185185e+00	 1.000797e+01
0	 6.888889e+00	 9.259259e+00	 1.000665e+01
0	 6.962963e+00	 8.888889e+00	 1.001374e+01
0	 6.962963e+00	 8.962963e+00	 1.001211e+01
0	 6.962963e+00	 9.037037e+00	 1.001056e+01
0	 6.962963e+00	 9.111111e+00	 1.000912e+01
0	 6.962963e+00	 9.185185e+00	 1.000776e+01
0	 6.962963e+00	 9.259259e+00	 1.000648e+01
0	 7.037037e+00	 8.888889e+00	 1.001337e+01
0	 7.037037e+00	 8.962963e+00	 1.001177e+01
0	 7.037037e+00	 9.037037e+00	 1.001028e+01
0	 7.037037e+00	 9.111111e+00	 1.000887e+01
0	 7.037037e+00	 9.185185e+00	 1.000754e+01
0	 7.037037e+00	 9.259259e+00	 1.000630e+01
0	 6.666667e+00	 9.259259e+00	 1.000716e+01
0	 6.666667e+00	 9.333333e+00	 1.000586e+01
0	 6.666667e+00	 9.407407e+00	 1.000469e+01
0	 6.666667e+00	 9.481481e+00	 1.000365e+01
0	 6.666667e+00	 9.555556e+00	 1.000272e+01
0	 6.666667e+00	 9.629630e+00	 1.000191e+01
0	 6.740741e+00	 9.259259e+00	 1.000700e+01
0	 6.740741e+00	 9.333333e+00	 1.000573e+01
0	 6.740741e+00	 9.407407e+00	 1.000459e+01
0	 6.740741e+00	 9.481481e+00	 1.000356e+01
0	 6.740741e+00	 9.555556e+00	 1.000266e+01
0	 6.740741e+00	 9.629630e+00	 1.000186e+01
0	 6.814815e+00	 9.259259e+00	 1.000683e+01
0	 6.814815e+00	 9.333333e+00	 1.000559e+01
0	 6.814815e+00	 9.407407e+00	 1.000447e+01
0	 6.814815e+00	 9.481481e+00	 1.000348e+01
0	 6.814815e+00	 9.555556e+00	 1.000259e+01
0	 6.814815e+00	 9.629630e+00	 1.000182e+01
0	 6.888889e+00	 9.259259e+00	 1.000665e+01
0	 6.888889e+00	 9.333333e+00	 1.000544e+01
0	 6.888889e+00	 9.407407e+00	 1.000436e+01
0	 6.888889e+00	 9.481481e+00	 1.000339e+01
0	 6.888889e+00	 9.555556e+00	 1.000252e+01
0	 6.888889e+00	 9.629630e+00	 1.000177e+01
0	 6.962963e+00	 9.259259e+00	 1.000648e+01
0	 6.962963e+00	 9.333333e+00	 1.000530e+01
0	 6.962963e+00	 9.407407e+00	 1.000424e+01
0	 6.962963e+00	 9.481481e+00	 1.000329e+01
0	 6.962963e+00	 9.555556e+00	 1.000246e+01
0	 6.962963e+00	 9.629630e+00	 1.000172e+01
0	 7.037037e+00	 9.259259e+00	 1.000630e+01
0	 7.037037e+00	 9.333333e+00	 1.000515e+01
0	 7.037037e+00	 9.407407e+00	 1.000412e+01
0	 7.037037e+00	 9.481481e+00	 1.000320e+01
0	 7.037037e+00	 9.555556e+00	 1.000239e+01
0	 7.037037e+00	 9.629630e+00	 1.000167e+01
0	 6.666667e+00	 9.629630e+00	 1.000191e+01
0	 6.666667e+00	 9.703704e+00	 1.000122e+01
0	 6.666667e+00	 9.777778e+00	 1.000070e+01
0	 6.666667e+00	 9.851852e+00	 1.000032e+01
0	 6.666667e+00	 9.925926e+00	 1.000009e+01
0	 6.666667e+00	 1.000000e+01	 9.999984e+00
0	 6.740741e+00	 9.629630e+00	 1.000186e+01
0	 6.740741e+00	 9.703704e+00	 1.000120e+01
0	 6.740741e+00	 9.777778e+00	 1.000068e+01
0	 6.740741e+00	 9.851852e+00	 1.000032e+01
0	 6.740741e+00	 9.925926e+00	 1.000009e+01
0	 6.740741e+00	 1.000000e+01	 9.999986e+00
0	 6.814815e+00	 9.629630e+00	 1.000182e+01
0	 6.814815e+00	 9.703704e+00	 1.000117e+01
0	 6.814815e+00	 9.777778e+00	 1.000067e+01
0	 6.814815e+00	 9.851852e+00	 1.000031e+01
0	 6.814815e+00	 9.925926e+00	 1.000008e+01
0	 6.814815e+00	 1.000000e+01	 9.999986e+00
0	 6.888889e+00	 9.629630e+00	 1.000177e+01
0	 6.888889e+00	 9.703704e+00	 1.000114e+01
0	 6.888889e+00	 9.777778e+00	 1.000065e+01
0	 6.888889e+00	 9.851852e+00	 1.000030e+01
0	 6.888889e+00	 9.925926e+00	 1.000008e+01
0	 6.888889e+00	 1.000000e+01	 9.999984e+00
0	 6.962963e+00	 9.629630e+00	 1.000172e+01
0	 6.962963e+00	 9.703704e+00	 1.000110e+01
0	 6.962963e+00	 9.777778e+00	 1.000063e+01
0	 6.962963e+00	 9.851852e+00	 1.000029e+01
0	 6.962963e+00	 9.925926e+00	 1.000008e+01
0	 6.962963e+00	 1.000000e+01	 9.999984e+00
0	 7.037037e+00	 9.629630e+00	 1.000167e+01
0	 7.037037e+00	 9.703704e+00	 1.000107e+01
0	 7.037037e+00	 9.777778e+00	 1.000061e+01
0	 7.037037e+00	 9.851852e+00	 1.000028e+01
0	 7.037037e+00	 9.925926e+00	 1.000007e+01
0	 7.037037e+00	 1.000000e+01	 9.999987e+00
0	 7.037037e+00	 0.000000e+00	 1.008107e+01
0	 7.037037e+00	 7.407407e-02	 1.008117e+01
0	 7.037037e+00	 1.481481e-01	 1.008146e+01
0	 7.037037e+00	 2.222222e-01	 1.008193e+01
0	 7.037037e+00	 2.962963e-01	 1.008260e+01
0	 7.037037e+00	 3.703704e-01	 1.008345e+01
0	 7.111111e+00	 0.000000e+00	 1.007293e+01
0	 7.111111e+00	 7.407407e-02	 1.007303e+01
0	 7.111111e+00	 1.481481e-01	 1.007332e+01
0	 7.111111e+00	 2.222222e-01	 1.007378e+01
0	 7.111111e+00	 2.962963e-01	 1.007442e+01
0	 7.111111e+00	 3.703704e-01	 1.007525e+01
0	 7.185185e+00	 0.000000e+00	 1.006478e+01
0	 7.185185e+00	 7.407407e-02	 1.006488e+01
0	 7.185185e+00	 1.481481e-01	 1.006515e+01
0	 7.185185e+00	 2.222222e-01	 1.006559e+01
0	 7.185185e+00	 2.962963e-01	 1.006622e+01
0	 7.185185e+00	 3.703704e-01	 1.006702e+01
0	 7.259259e+00	 0.000000e+00	 1.005660e+01
0	 7.259259e+00	 7.407407e-02	 1.005670e+01
0	 7.259259e+00	 1.481481e-01	 1.005695e+01
0	 7.259259e+00	 2.222222e-01	 1.005738e+01
0	 7.259259e+00	 2.962963e-01	 1.005799e+01
0	 7.259259e+00	 3.703704e-01	 1.005876e+01
0	 7.333333e+00	 0.000000e+00	 1.004839e+01
0	 7.333333e+00	 7.407407e-02	 1.004848e+01
0	 7.333333e+00	 1.481481e-01	 1.004873e+01
0	 7.333333e+00	 2.222222e-01	 1.004914e+01
0	 7.333333e+00	 2.962963e-01	 1.004972e+01
0	 7.333333e+00	 3.703704e-01	 1.005048e+01
0	 7.407407e+00	 0.000000e+00	 1.004014e+01
0	 7.407407e+00	 7.407407e-02	 1.004022e+01
0	 7.407407e+00	 1.481481e-01	 1.004046e+01
0	 7.407407e+00	 2.222222e-01	 1.004086e+01
0	 7.407407e+00	 2.962963e-01	 1.004142e+01
0	 7.407407e+00	 3.703704e-01	 1.004215e+01
0	 7.037037e+00	 3.703704e-01	 1.008345e+01
0	 7.037037e+00	 4.444444e-01	 1.008448e+01
0	 7.037037e+00	 5.185185e-01	 1.008567e+01
0	 7.037037e+00	 5.925926e-01	 1.008702e+01
0	 7.037037e+00	 6.666667e-01	 1.008854e+01
0	 7.037037e+00	 7.407407e-01	 1.009024e+01
0	 7.111111e+00	 3.703704e-01	 1.007525e+01
0	 7.111111e+00	 4.444444e-01	 1.007624e+01
0	 7.111111e+00	 5.185185e-01	 1.007739e+01
0	 7.111111e+00	 5.925926e-01	 1.007869e+01
0	 7.111111e+00	 6.666667e-01	 1.008016e+01
0	 7.111111e+00	 7.407407e-01	 1.008181e+01
0	 7.185185e+00	 3.703704e-01	 1.006702e+01
0	 7.185185e+00	 4.444444e-01	 1.006798e+01
0	 7.185185e+00	 5.185185e-01	 1.006909e+01
0	 7.185185e+00	 5.925926e-01	 1.007035e+01
0	 7.185185e+00	 6.666667e-01	 1.007178e+01
0	 7.185185e+00	 7.407407e-01	 1.007337e+01
0	 7.259259e+00	 3.703704e-01	 1.005876e+01
0	 7.259259e+00	 4.444444e-01	 1.005969e+01
0	 7.259259e+00	 5.185185e-01	 1.006077e+01
0	 7.259259e+00	 5.925926e-01	 1.006200e+01
0	 7.259259e+00	 6.666667e-01	 1.006338e+01
0	 7.259259e+00	 7.407407e-01	 1.006493e+01
0	 7.333333e+00	 3.703704e-01	 1.005048e+01
0	 7.333333e+00	 4.444444e-01	 1.005138e+01
0	 7.333333e+00	 5.185185e-01	 1.005243e+01
0	 7.333333e+00	 5.925926e-01	 1.005362e+01
0	 7.333333e+00	 6.666667e-01	 1.005497e+01
0	 7.333333e+00	 7.407407e-01	 1.005647e+01
0	 7.407407e+00	 3.703704e-01	 1.004215e+01
0	 7.407407e+00	 4.444444e-01	 1.004303e+01
0	 7.407407e+00	 5.185185e-01	 1.004405e+01
0	 7.407407e+00	 5.925926e-01	 1.004521e+01
0	 7.407407e+00	 6.666667e-01	 1.004652e+01
0	 7.407407e+00	 7.407407e-01	 1.004798e+01
0	 7.037037e+00	 7.407407e-01	 1.009024e+01
0	 7.037037e+00	 8.148148e-01	 1.009208e+01
0	 7.037037e+00	 8.888889e-01	 1.009402e+01
0	 7.037037e+00	 9.629630e-01	 1.009609e+01
0	 7.037037e+00	 1.037037e+00	 1.009828e+01
0	 7.037037e+00	 1.111111e+00	 1.010060e+01
0	 7.111111e+00	 7.407407e-01	 1.008181e+01
0	 7.111111e+00	 8.148148e-01	 1.008359e+01
0	 7.111111e+00	 8.888889e-01	 1.008547e+01
0	 7.111111e+00	 9.629630e-01	 1.008747e+01
0	 7.111111e+00	 1.037037e+00	 1.008959e+01
0	 7.111111e+00	 1.111111e+00	 1.009185e+01
0	 7.185185e+00	 7.407407e-01	 1.007337e+01
0	 7.185185e+00	 8.148148e-01	 1.007510e+01
0	 7.185185e+00	 8.888889e-01	 1.007692e+01
0	 7.185185e+00	 9.629630e-01	 1.007886e+01
0	 7.185185e+00	 1.037037e+00	 1.008093e+01
0	 7.185185e+00	 1.111111e+00	 1.008312e+01
0	 7.259259e+00	 7.407407e-01	 1.006493e+01
0	 7.259259e+00	 8.148148e-01	 1.006660e+01
0	 7.259259e+00	 8.888889e-01	 1.006838e+01
0	 7.259259e+00	 9.629630e-01	 1.007026e+01
0	 7.259259e+00	 1.037037e+00	 1.007227e+01
0	 7.259259e+00	 1.111111e+00	 1.007440e+01
0	 7.333333e+00	 7.407407e-01	 1.005647e+01
0	 7.333333e+00	 8.148148e-01	 1.005810e+01
0	 7.333333e+00	 8.888889e-01	 1.005982e+01
0	 7.333333e+00	 9.629630e-01	 1.006166e+01
0	 7.333333e+00	 1.037037e+00	 1.006362e+01
0	 7.333333e+00	 1.111111e+00	 1.006569e+01
0	 7.407407e+00	 7.407407e-01	 1.004798e+01
0	 7.407407e+00	 8.148148e-01	 1.004957e+01
0	 7.407407e+00	 8.888889e-01	 1.005125e+01
0	 7.407407e+00	 9.629630e-01	 1.005305e+01
0	 7.407407e+00	 1.037037e+00	 1.005495e+01
0	 7.407407e+00	 1.111111e+00	 1.005698e+01
0	 7.037037e+00	 1.111111e+00	 1.010060e+01
0	 7.037037e+00	 1.185185e+00	 1.010302e+01
0	 7.037037e+00	 1.259259e+00	 1.010549e+01
0	 7.037037e+00	 1.333333e+00	 1.010801e+01
0	 7.037037e+00	 1.407407e+00	 1.011061e+01
0	 7.037037e+00	 1.481481e+00	 1.011329e+01
0	 7.111111e+00	 1.111111e+00	 1.009185e+01
0	 7.111111e+00	 1.185185e+00	 1.009420e+01
0	 7.111111e+00	 1.259259e+00	 1.009659e+01
0	 7.111111e+00	 1.333333e+00	 1.009905e+01
0	 7.111111e+00	 1.407407e+00	 1.010157e+01
0	 7.111111e+00	 1.481481e+00	 1.010419e+01
0	 7.185185e+00	 1.111111e+00	 1.008312e+01
0	 7.185185e+00	 1.185185e+00	 1.008540e+01
0	 7.185185e+00	 1.259259e+00	 1.008773e+01
0	 7.185185e+00	 1.333333e+00	 1.009012e+01
0	 7.185185e+00	 1.407407e+00	 1.009259e+01
0	 7.185185e+00	 1.481481e+00	 1.009514e+01
0	 7.259259e+00	 1.111111e+00	 1.007440e+01
0	 7.259259e+00	 1.185185e+00	 1.007663e+01
0	 7.259259e+00	 1.259259e+00	 1.007890e+01
0	 7.259259e+00	 1.333333e+00	 1.008123e+01
0	 7.259259e+00	 1.407407e+00	 1.008364e+01
0	 7.259259e+00	 1.481481e+00	 1.008613e+01
0	 7.333333e+00	 1.111111e+00	 1.006569e+01
0	 7.333333e+00	 1.185185e+00	 1.006786e+01
0	 7.333333e+00	 1.259259e+00	 1.007008e+01
0	 7.333333e+00	 1.333333e+00	 1.007236e+01
0	 7.333333e+00	 1.407407e+00	 1.007472e+01
0	 7.333333e+00	 1.481481e+00	 1.007715e+01
0	 7.407407e+00	 1.111111e+00	 1.005698e+01
0	 7.407407e+00	 1.185185e+00	 1.005910e+01
0	 7.407407e+00	 1.259259e+00	 1.006127e+01
0	 7.407407e+00	 1.333333e+00	 1.006350e+01
0	 7.407407e+00	 1.407407e+00	 1.006581e+01
0	 7.407407e+00	 1.481481e+00	 1.006819e+01
0	 7.037037e+00	 1.481481e+00	 1.011329e+01
0	 7.037037e+00	 1.555556e+00	 1.011600e+01
0	 7.037037e+00	 1.629630e+00	 1.011870e+01
0	 7.037037e+00	 1.703704e+00	 1.012139e+01
0	 7.037037e+00	 1.777778e+00	 1.012410e+01
0	 7.037037e+00	 1.851852e+00	 1.012682e+01
0	 7.111111e+00	 1.481481e+00	 1.010419e+01
0	 7.111111e+00	 1.555556e+00	 1.010683e+01
0	 7.111111e+00	 1.629630e+00	 1.010947e+01
0	 7.111111e+00	 1.703704e+00	 1.011211e+01
0	 7.111111e+00	 1.777778e+00	 1.011475e+01
0	 7.111111e+00	 1.851852e+00	 1.011743e+01
0	 7.185185e+00	 1.481481e+00	 1.009514e+01
0	 7.185185e+00	 1.555556e+00	 1.009772e+01
0	 7.185185e+00	 1.629630e+00	 1.010030e+01
0	 7.185185e+00	 1.703704e+00	 1.010288e+01
0	 7.185185e+00	 1.777778e+00	 1.010548e+01
0	 7.185185e+00	 1.851852e+00	 1.010811e+01
0	 7.259259e+00	 1.481481e+00	 1.008613e+01
0	 7.259259e+00	 1.555556e+00	 1.008866e+01
0	 7.259259e+00	 1.629630e+00	 1.009118e+01
0	 7.259259e+00	 1.703704e+00	 1.009372e+01
0	 7.259259e+00	 1.777778e+00	 1.009627e+01
0	 7.259259e+00	 1.851852e+00	 1.009885e+01
0	 7.333333e+00	 1.481481e+00	 1.007715e+01
0	 7.333333e+00	 1.555556e+00	 1.007963e+01
0	 7.333333e+00	 1.629630e+00	 1.008211e+01
0	 7.333333e+00	 1.703704e+00	 1.008460e+01
0	 7.333333e+00	 1.777778e+00	 1.008711e+01
0	 7.333333e+00	 1.851852e+00	 1.008965e+01
0	 7.407407e+00	 1.481481e+00	 1.006819e+01
0	 7.407407e+00	 1.555556e+00	 1.007062e+01
0	 7.407407e+00	 1.629630e+00	 1.007306e+01
0	 7.407407e+00	 1.703704e+00	 1.007551e+01
0	 7.407407e+00	 1.777778e+00	 1.007798e+01
0	 7.407407e+00	 1.851852e+00	 1.008049e+01
0	 7.037037e+00	 1.851852e+00	 1.012682e+01
0	 7.037037e+00	 1.925926e+00	 1.012953e+01
0	 7.037037e+00	 2.000000e+00	 1.013216e+01
0	 7.037037e+00	 2.074074e+00	 1.013474e+01
0	 7.037037e+00	 2.148148e+00	 1.013727e+01
0	 7.037037e+00	 2.222222e+00	 1.013976e+01
0	 7.111111e+00	 1.851852e+00	 1.011743e+01
0	 7.111111e+00	 1.925926e+00	 1.012008e+01
0	 7.111111e+00	 2.000000e+00	 1.012268e+01
0	 7.111111e+00	 2.074074e+00	 1.012522e+01
0	 7.111111e+00	 2.148148e+00	 1.012772e+01
0	 7.111111e+00	 2.222222e+00	 1.013019e+01
0	 7.185185e+00	 1.851852e+00	 1.010811e+01
0	 7.185185e+00	 1.925926e+00	 1.011072e+01
0	 7.185185e+00	 2.000000e+00	 1.011327e+01
0	 7.185185e+00	 2.074074e+00	 1.011578e+01
0	 7.185185e+00	 2.148148e+00	 1.011826e+01
0	 7.185185e+00	 2.222222e+00	 1.012071e+01
0	 7.259259e+00	 1.851852e+00	 1.009885e+01
0	 7.259259e+00	 1.925926e+00	 1.010143e+01
0	 7.259259e+00	 2.000000e+00	 1.010395e+01
0	 7.259259e+00	 2.074074e+00	 1.010643e+01
0	 7.259259e+00	 2.148148e+00	 1.010888e+01
0	 7.259259e+00	 2.222222e+00	 1.011131e+01
0	 7.333333e+00	 1.851852e+00	 1.008965e+01
0	 7.333333e+00	 1.925926e+00	 1.009219e+01
0	 7.333333e+00	 2.000000e+00	 1.009468e+01
0	 7.333333e+00	 2.074074e+00	 1.009714e+01
0	 7.333333e+00	 2.148148e+00	 1.009957e+01
0	 7.333333e+00	 2.222222e+00	 1.010198e+01
0	 7.407407e+00	 1.851852e+00	 1.008049e+01
0	 7.407407e+00	 1.925926e+00	 1.008299e+01
0	 7.407407e+00	 2.000000e+00	 1.008546e+01
0	 7.407407e+00	 2.074074e+00	 1.008790e+01
0	 7.407407e+00	 2.148148e+00	 1.009031e+01
0	 7.407407e+00	 2.222222e+00	 1.009271e+01
0	 7.037037e+00	 2.222222e+00	 1.013976e+01
0	 7.037037e+00	 2.296296e+00	 1.014218e+01
0	 7.037037e+00	 2.370370e+00	 1.014449e+01
0	 7.037037e+00	 2.444444e+00	 1.014670e+01
0	 7.037037e+00	 2.518519e+00	 1.014881e+01
0	 7.037037e+00	 2.592593e+00	 1.015084e+01
0	 7.111111e+00	 2.222222e+00	 1.013019e+01
0	 7.111111e+00	 2.296296e+00	 1.013259e+01
0	 7.111111e+00	 2.370370e+00	 1.013489e+01
0	 7.111111e+00	 2.444444e+00	 1.013710e+01
0	 7.111111e+00	 2.518519e+00	 1.013921e+01
0	 7.111111e+00	 2.592593e+00	 1.014125e+01
0	 7.185185e+00	 2.222222e+00	 1.012071e+01
0	 7.185185e+00	 2.296296e+00	 1.012310e+01
0	 7.185185e+00	 2.370370e+00	 1.012539e+01
0	 7.185185e+00	 2.444444e+00	 1.012759e+01
0	 7.185185e+00	 2.518519e+00	 1.012971e+01
0	 7.185185e+00	 2.592593e+00	 1.013177e+01
0	 7.259259e+00	 2.222222e+00	 1.011131e+01
0	 7.259259e+00	 2.296296e+00	 1.011368e+01
0	 7.259259e+00	 2.370370e+00	 1.011597e+01
0	 7.259259e+00	 2.444444e+00	 1.011817e+01
0	 7.259259e+00	 2.518519e+00	 1.012030e+01
0	 7.259259e+00	 2.592593e+00	 1.012237e+01
0	 7.333333e+00	 2.222222e+00	 1.010198e+01
0	 7.333333e+00	 2.296296e+00	 1.010434e+01
0	 7.333333e+00	 2.370370e+00	 1.010663e+01
0	 7.333333e+00	 2.444444e+00	 1.010883e+01
0	 7.333333e+00	 2.518519e+00	 1.011097e+01
0	 7.333333e+00	 2.592593e+00	 1.011305e+01
0	 7.407407e+00	 2.222222e+00	 1.009271e+01
0	 7.407407e+00	 2.296296e+00	 1.009507e+01
0	 7.407407e+00	 2.370370e+00	 1.009735e+01
0	 7.407407e+00	 2.444444e+00	 1.009956e+01
0	 7.407407e+00	 2.518519e+00	 1.010171e+01
0	 7.407407e+00	 2.592593e+00	 1.010381e+01
0	 7.037037e+00	 2.592593e+00	 1.015084e+01
0	 7.037037e+00	 2.666667e+00	 1.015276e+01
0	 7.037037e+00	 2.740741e+00	 1.015454e+01
0	 7.037037e+00	 2.814815e+00	 1.015619e+01
0	 7.037037e+00	 2.888889e+00	 1.015771e+01
0	 7.037037e+00	 2.962963e+00	 1.015912e+01
0	 7.111111e+00	 2.592593e+00	 1.014125e+01
0	 7.111111e+00	 2.666667e+00	 1.014319e+01
0	 7.111111e+00	 2.740741e+00	 1.014500e+01
0	 7.111111e+00	 2.814815e+00	 1.014668e+01
0	 7.111111e+00	 2.888889e+00	 1.014824e+01
0	 7.111111e+00	 2.962963e+00	 1.014970e+01
0	 7.185185e+00	 2.592593e+00	 1.013177e+01
0	 7.185185e+00	 2.666667e+00	 1.013372e+01
0	 7.185185e+00	 2.740741e+00	 1.013555e+01
0	 7.185185e+00	 2.814815e+00	 1.013727e+01
0	 7.185185e+00	 2.888889e+00	 1.013888e+01
0	 7.185185e+00	 2.962963e+00	 1.014038e+01
0	 7.259259e+00	 2.592593e+00	 1.012237e+01
0	 7.259259e+00	 2.666667e+00	 1.012434e+01
0	 7.259259e+00	 2.740741e+00	 1.012621e+01
0	 7.259259e+00	 2.814815e+00	 1.012796e+01
0	 7.259259e+00	 2.888889e+00	 1.012960e+01
0	 7.259259e+00	 2.962963e+00	 1.013115e+01
0	 7.333333e+00	 2.592593e+00	 1.011305e+01
0	 7.333333e+00	 2.666667e+00	 1.011505e+01
0	 7.333333e+00	 2.740741e+00	 1.011694e+01
0	 7.333333e+00	 2.814815e+00	 1.011872e+01
0	 7.333333e+00	 2.888889e+00	 1.012041e+01
0	 7.333333e+00	 2.962963e+00	 1.012201e+01
0	 7.407407e+00	 2.592593e+00	 1.010381e+01
0	 7.407407e+00	 2.666667e+00	 1.010583e+01
0	 7.407407e+00	 2.740741e+00	 1.010774e+01
0	 7.407407e+00	 2.814815e+00	 1.010956e+01
0	 7.407407e+00	 2.888889e+00	 1.011129e+01
0	 7.407407e+00	 2.962963e+00	 1.011294e+01
0	 7.037037e+00	 2.962963e+00	 1.015912e+01
0	 7.037037e+00	 3.037037e+00	 1.016039e+01
0	 7.037037e+00	 3.111111e+00	 1.016151e+01
0	 7.037037e+00	 3.185185e+00	 1.016248e+01
0	 7.037037e+00	 3.259259e+00	 1.016331e+01
0	 7.037037e+00	 3.333333e+00	 1.016401e+01
0	 7.111111e+00	 2.962963e+00	 1.014970e+01
0	 7.111111e+00	 3.037037e+00	 1.015102e+01
0	 7.111111e+00	 3.111111e+00	 1.015221e+01
0	 7.111111e+00	 3.185185e+00	 1.015326e+01
0	 7.111111e+00	 3.259259e+00	 1.015416e+01
0	 7.111111e+00	 3.333333e+00	 1.015494e+01
0	 7.185185e+00	 2.962963e+00	 1.014038e+01
0	 7.185185e+00	 3.037037e+00	 1.014176e+01
0	 7.185185e+00	 3.111111e+00	 1.014301e+01
0	 7.185185e+00	 3.185185e+00	 1.014412e+01
0	 7.185185e+00	 3.259259e+00	 1.014511e+01
0	 7.185185e+00	 3.333333e+00	 1.014597e+01
0	 7.259259e+00	 2.962963e+00	 1.013115e+01
0	 7.259259e+00	 3.037037e+00	 1.013259e+01
0	 7.259259e+00	 3.111111e+00	 1.013390e+01
0	 7.259259e+00	 3.185185e+00	 1.013508e+01
0	 7.259259e+00	 3.259259e+00	 1.013614e+01
0	 7.259259e+00	 3.333333e+00	 1.013708e+01
0	 7.333333e+00	 2.962963e+00	 1.012201e+01
0	 7.333333e+00	 3.037037e+00	 1.012350e+01
0	 7.333333e+00	 3.111111e+00	 1.012487e+01
0	 7.333333e+00	 3.185185e+00	 1.012611e+01
0	 7.333333e+00	 3.259259e+00	 1.012725e+01
0	 7.333333e+00	 3.333333e+00	 1.012826e+01
0	 7.407407e+00	 2.962963e+00	 1.011294e+01
0	 7.407407e+00	 3.037037e+00	 1.011448e+01
0	 7.407407e+00	 3.111111e+00	 1.011591e+01
0	 7.407407e+00	 3.185185e+00	 1.011722e+01
0	 7.407407e+00	 3.259259e+00	 1.011843e+01
0	 7.407407e+00	 3.333333e+00	 1.011953e+01
0	 7.037037e+00	 3.333333e+00	 1.016401e+01
0	 7.037037e+00	 3.407407e+00	 1.016456e+01
0	 7.037037e+00	 3.481481e+00	 1.016496e+01
0	 7.037037e+00	 3.555556e+00	 1.016522e+01
0	 7.037037e+00	 3.629630e+00	 1.016533e+01
0	 7.037037e+00	 3.703704e+00	 1.016529e+01
0	 7.111111e+00	 3.333333e+00	 1.015494e+01
0	 7.111111e+00	 3.407407e+00	 1.015558e+01
0	 7.111111e+00	 3.481481e+00	 1.015608e+01
0	 7.111111e+00	 3.555556e+00	 1.015644e+01
0	 7.111111e+00	 3.629630e+00	 1.015666e+01
0	 7.111111e+00	 3.703704e+00	 1.015674e+01
0	 7.185185e+00	 3.333333e+00	 1.014597e+01
0	 7.185185e+00	 3.407407e+00	 1.014670e+01
0	 7.185185e+00	 3.481481e+00	 1.014729e+01
0	 7.185185e+00	 3.555556e+00	 1.014775e+01
0	 7.185185e+00	 3.629630e+00	 1.014807e+01
0	 7.185185e+00	 3.703704e+00	 1.014827e+01
0	 7.259259e+00	 3.333333e+00	 1.013708e+01
0	 7.259259e+00	 3.407407e+00	 1.013789e+01
0	 7.259259e+00	 3.481481e+00	 1.013858e+01
0	 7.259259e+00	 3.555556e+00	 1.013913e+01
0	 7.259259e+00	 3.629630e+00	 1.013956e+01
0	 7.259259e+00	 3.703704e+00	 1.013986e+01
0	 7.333333e+00	 3.333333e+00	 1.012826e+01
0	 7.333333e+00	 3.407407e+00	 1.012917e+01
0	 7.333333e+00	 3.481481e+00	 1.012994e+01
0	 7.333333e+00	 3.555556e+00	 1.013059e+01
0	 7.333333e+00	 3.629630e+00	 1.013112e+01
0	 7.333333e+00	 3.703704e+00	 1.013153e+01
0	 7.407407e+00	 3.333333e+00	 1.011953e+01
0	 7.407407e+00	 3.407407e+00	 1.012051e+01
0	 7.407407e+00	 3.481481e+00	 1.012138e+01
0	 7.407407e+00	 3.555556e+00	 1.012212e+01
0	 7.407407e+00	 3.629630e+00	 1.012275e+01
0	 7.407407e+00	 3.703704e+00	 1.012326e+01
0	 7.037037e+00	 3.703704e+00	 1.016529e+01
0	 7.037037e+00	 3.777778e+00	 1.016512e+01
0	 7.037037e+00	 3.851852e+00	 1.016481e+01
0	 7.037037e+00	 3.925926e+00	 1.016436e+01
0	 7.037037e+00	 4.000000e+00	 1.016378e+01
0	 7.037037e+00	 4.074074e+00	 1.016305e+01
0	 7.111111e+00	 3.703704e+00	 1.015674e+01
0	 7.111111e+00	 3.777778e+00	 1.015669e+01
0	 7.111111e+00	 3.851852e+00	 1.015650e+01
0	 7.111111e+00	 3.925926e+00	 1.015618e+01
0	 7.111111e+00	 4.000000e+00	 1.015573e+01
0	 7.111111e+00	 4.074074e+00	 1.015515e+01
0	 7.185185e+00	 3.703704e+00	 1.014827e+01
0	 7.185185e+00	 3.777778e+00	 1.014833e+01
0	 7.185185e+00	 3.851852e+00	 1.014826e+01
0	 7.185185e+00	 3.925926e+00	 1.014807e+01
0	 7.185185e+00	 4.000000e+00	 1.014775e+01
0	 7.185185e+00	 4.074074e+00	 1.014729e+01
0	 7.259259e+00	 3.703704e+00	 1.013986e+01
0	 7.259259e+00	 3.777778e+00	 1.014004e+01
0	 7.259259e+00	 3.851852e+00	 1.014009e+01
0	 7.259259e+00	 3.925926e+00	 1.014002e+01
0	 7.259259e+00	 4.000000e+00	 1.013982e+01
0	 7.259259e+00	 4.074074e+00	 1.013950e+01
0	 7.333333e+00	 3.703704e+00	 1.013153e+01
0	 7.333333e+00	 3.777778e+00	 1.013181e+01
0	 7.333333e+00	 3.851852e+00	 1.013198e+01
0	 7.333333e+00	 3.925926e+00	 1.013203e+01
0	 7.333333e+00	 4.000000e+00	 1.013195e+01
0	 7.333333e+00	 4.074074e+00	 1.013176e+01
0	 7.407407e+00	 3.703704e+00	 1.012326e+01
0	 7.407407e+00	 3.777778e+00	 1.012366e+01
0	 7.407407e+00	 3.851852e+00	 1.012394e+01
0	 7.407407e+00	 3.925926e+00	 1.012410e+01
0	 7.407407e+00	 4.000000e+00	 1.012415e+01
0	 7.407407e+00	 4.074074e+00	 1.012408e+01
0	 7.037037e+00	 4.074074e+00	 1.016305e+01
0	 7.037037e+00	 4.148148e+00	 1.016220e+01
0	 7.037037e+00	 4.222222e+00	 1.016124e+01
0	 7.037037e+00	 4.296296e+00	 1.016015e+01
0	 7.037037e+00	 4.370370e+00	 1.015894e+01
0	 7.037037e+00	 4.444444e+00	 1.015761e+01
0	 7.111111e+00	 4.074074e+00	 1.015515e+01
0	 7.111111e+00	 4.148148e+00	 1.015444e+01
0	 7.111111e+00	 4.222222e+00	 1.015361e+01
0	 7.111111e+00	 4.296296e+00	 1.015267e+01
0	 7.111111e+00	 4.370370e+00	 1.015161e+01
0	 7.111111e+00	 4.444444e+00	 1.015043e+01
0	 7.185185e+00	 4.074074e+00	 1.014729e+01
0	 7.185185e+00	 4.148148e+00	 1.014672e+01
0	 7.185185e+00	 4.222222e+00	 1.014604e+01
0	 7.185185e+00	 4.296296e+00	 1.014524e+01
0	 7.185185e+00	 4.370370e+00	 1.014432e+01
0	 7.185185e+00	 4.444444e+00	 1.014329e+01
0	 7.259259e+00	 4.074074e+00	 1.013950e+01
0	 7.259259e+00	 4.148148e+00	 1.013906e+01
0	 7.259259e+00	 4.222222e+00	 1.013851e+01
0	 7.259259e+00	 4.296296e+00	 1.013785e+01
0	 7.259259e+00	 4.370370e+00	 1.013708e+01
0	 7.259259e+00	 4.444444e+00	 1.013619e+01
0	 7.333333e+00	 4.074074e+00	 1.013176e+01
0	 7.333333e+00	 4.148148e+00	 1.013145e+01
0	 7.333333e+00	 4.222222e+00	 1.013103e+01
0	 7.333333e+00	 4.296296e+00	 1.013051e+01
0	 7.333333e+00	 4.370370e+00	 1.012987e+01
0	 7.333333e+00	 4.444444e+00	 1.012912e+01
0	 7.407407e+00	 4.074074e+00	 1.012408e+01
0	 7.407407e+00	 4.148148e+00	 1.012390e+01
0	 7.407407e+00	 4.222222e+00	 1.012361e+01
0	 7.407407e+00	 4.296296e+00	 1.012322e+01
0	 7.407407e+00	 4.370370e+00	 1.012272e+01
0	 7.407407e+00	 4.444444e+00	 1.012211e+01
0	 7.037037e+00	 4.444444e+00	 1.015761e+01
0	 7.037037e+00	 4.518519e+00	 1.015616e+01
0	 7.037037e+00	 4.592593e+00	 1.015463e+01
0	 7.037037e+00	 4.666667e+00	 1.015299e+01
0	 7.037037e+00	 4.740741e+00	 1.015125e+01
0	 7.037037e+00	 4.814815e+00	 1.014941e+01
0	 7.111111e+00	 4.444444e+00	 1.015043e+01
0	 7.111111e+00	 4.518519e+00	 1.014914e+01
0	 7.111111e+00	 4.592593e+00	 1.014776e+01
0	 7.111111e+00	 4.666667e+00	 1.014628e+01
0	 7.111111e+00	 4.740741e+00	 1.014470e+01
0	 7.111111e+00	 4.814815e+00	 1.014301e+01
0	 7.185185e+00	 4.444444e+00	 1.014329e+01
0	 7.185185e+00	 4.518519e+00	 1.014215e+01
0	 7.185185e+00	 4.592593e+00	 1.014092e+01
0	 7.185185e+00	 4.666667e+00	 1.013959e+01
0	 7.185185e+00	 4.740741e+00	 1.013816e+01
0	 7.185185e+00	 4.814815e+00	 1.013663e+01
0	 7.259259e+00	 4.444444e+00	 1.013619e+01
0	 7.259259e+00	 4.518519e+00	 1.013519e+01
0	 7.259259e+00	 4.592593e+00	 1.013411e+01
0	 7.259259e+00	 4.666667e+00	 1.013293e+01
0	 7.259259e+00	 4.740741e+00	 1.013165e+01
0	 7.259259e+00	 4.814815e+00	 1.013027e+01
0	 7.333333e+00	 4.444444e+00	 1.012912e+01
0	 7.333333e+00	 4.518519e+00	 1.012827e+01
0	 7.333333e+00	 4.592593e+00	 1.012733e+01
0	 7.333333e+00	 4.666667e+00	 1.012630e+01
0	 7.333333e+00	 4.740741e+00	 1.012517e+01
0	 7.333333e+00	 4.814815e+00	 1.012394e+01
0	 7.407407e+00	 4.444444e+00	 1.012211e+01
0	 7.407407e+00	 4.518519e+00	 1.012140e+01
0	 7.407407e+00	 4.592593e+00	 1.012060e+01
0	 7.407407e+00	 4.666667e+00	 1.011971e+01
0	 7.407407e+00	 4.740741e+00	 1.011872e+01
0	 7.407407e+00	 4.814815e+00	 1.011764e+01
0	 7.037037e+00	 4.814815e+00	 1.014941e+01
0	 7.037037e+00	 4.888889e+00	 1.014748e+01
0	 7.037037e+00	 4.962963e+00	 1.014548e+01
0	 7.037037e+00	 5.037037e+00	 1.014340e+01
0	 7.037037e+00	 5.111111e+00	 1.014124e+01
0	 7.037037e+00	 5.185185e+00	 1.013900e+01
0	 7.111111e+00	 4.814815e+00	 1.014301e+01
0	 7.111111e+00	 4.888889e+00	 1.014124e+01
0	 7.111111e+00	 4.962963e+00	 1.013940e+01
0	 7.111111e+00	 5.037037e+00	 1.013748e+01
0	 7.111111e+00	 5.111111e+00	 1.013548e+01
0	 7.111111e+00	 5.185185e+00	 1.013339e+01
0	 7.185185e+00	 4.814815e+00	 1.013663e+01
0	 7.185185e+00	 4.888889e+00	 1.013501e+01
0	 7.185185e+00	 4.962963e+00	 1.013332e+01
0	 7.185185e+00	 5.037037e+00	 1.013156e+01
0	 7.185185e+00	 5.111111e+00	 1.012971e+01
0	 7.185185e+00	 5.185185e+00	 1.012778e+01
0	 7.259259e+00	 4.814815e+00	 1.013027e+01
0	 7.259259e+00	 4.888889e+00	 1.012880e+01
0	 7.259259e+00	 4.962963e+00	 1.012727e+01
0	 7.259259e+00	 5.037037e+00	 1.012565e+01
0	 7.259259e+00	 5.111111e+00	 1.012396e+01
0	 7.259259e+00	 5.185185e+00	 1.012218e+01
0	 7.333333e+00	 4.814815e+00	 1.012394e+01
0	 7.333333e+00	 4.888889e+00	 1.012262e+01
0	 7.333333e+00	 4.962963e+00	 1.012123e+01
0	 7.333333e+00	 5.037037e+00	 1.011977e+01
0	 7.333333e+00	 5.111111e+00	 1.011822e+01
0	 7.333333e+00	 5.185185e+00	 1.011660e+01
0	 7.407407e+00	 4.814815e+00	 1.011764e+01
0	 7.407407e+00	 4.888889e+00	 1.011647e+01
0	 7.407407e+00	 4.962963e+00	 1.011523e+01
0	 7.407407e+00	 5.037037e+00	 1.011391e+01
0	 7.407407e+00	 5.111111e+00	 1.011251e+01
0	 7.407407e+00	 5.185185e+00	 1.011103e+01
0	 7.037037e+00	 5.185185e+00	 1.013900e+01
0	 7.037037e+00	 5.259259e+00	 1.013669e+01
0	 7.037037e+00	 5.333333e+00	 1.013434e+01
0	 7.037037e+00	 5.407407e+00	 1.013192e+01
0	 7.037037e+00	 5.481481e+00	 1.012946e+01
0	 7.037037e+00	 5.555556e+00	 1.012692e+01
0	 7.111111e+00	 5.185185e+00	 1.013339e+01
0	 7.111111e+00	 5.259259e+00	 1.013124e+01
0	 7.111111e+00	 5.333333e+00	 1.012904e+01
0	 7.111111e+00	 5.407407e+00	 1.012678e+01
0	 7.111111e+00	 5.481481e+00	 1.012447e+01
0	 7.111111e+00	 5.555556e+00	 1.012209e+01
0	 7.185185e+00	 5.185185e+00	 1.012778e+01
0	 7.185185e+00	 5.259259e+00	 1.012579e+01
0	 7.185185e+00	 5.333333e+00	 1.012374e+01
0	 7.185185e+00	 5.407407e+00	 1.012163e+01
0	 7.185185e+00	 5.481481e+00	 1.011947e+01
0	 7.185185e+00	 5.555556e+00	 1.011724e+01
0	 7.259259e+00	 5.185185e+00	 1.012218e+01
0	 7.259259e+00	 5.259259e+00	 1.012034e+01
0	 7.259259e+00	 5.333333e+00	 1.011844e+01
0	 7.259259e+00	 5.407407e+00	 1.011648e+01
0	 7.259259e+00	 5.481481e+00	 1.011447e+01
0	 7.259259e+00	 5.555556e+00	 1.011239e+01
0	 7.333333e+00	 5.185185e+00	 1.011660e+01
0	 7.333333e+00	 5.259259e+00	 1.011490e+01
0	 7.333333e+00	 5.333333e+00	 1.011315e+01
0	 7.333333e+00	 5.407407e+00	 1.011134e+01
0	 7.333333e+00	 5.481481e+00	 1.010947e+01
0	 7.333333e+00	 5.555556e+00	 1.010754e+01
0	 7.407407e+00	 5.185185e+00	 1.011103e+01
0	 7.407407e+00	 5.259259e+00	 1.010949e+01
0	 7.407407e+00	 5.333333e+00	 1.010788e+01
0	 7.407407e+00	 5.407407e+00	 1.010622e+01
0	 7.407407e+00	 5.481481e+00	 1.010449e+01
0	 7.407407e+00	 5.555556e+00	 1.010270e+01
0	 7.037037e+00	 5.555556e+00	 1.012692e+01
0	 7.037037e+00	 5.629630e+00	 1.012435e+01
0	 7.037037e+00	 5.703704e+00	 1.012174e+01
0	 7.037037e+00	 5.777778e+00	 1.011910e+01
0	 7.037037e+00	 5.851852e+00	 1.011642e+01
0	 7.037037e+00	 5.925926e+00	 1.011370e+01
0	 7.111111e+00	 5.555556e+00	 1.012209e+01
0	 7.111111e+00	 5.629630e+00	 1.011966e+01
0	 7.111111e+00	 5.703704e+00	 1.011720e+01
0	 7.111111e+00	 5.777778e+00	 1.011471e+01
0	 7.111111e+00	 5.851852e+00	 1.011218e+01
0	 7.111111e+00	 5.925926e+00	 1.010960e+01
0	 7.185185e+00	 5.555556e+00	 1.011724e+01
0	 7.185185e+00	 5.629630e+00	 1.011496e+01
0	 7.185185e+00	 5.703704e+00	 1.011265e+01
0	 7.185185e+00	 5.777778e+00	 1.011030e+01
0	 7.185185e+00	 5.851852e+00	 1.010791e+01
0	 7.185185e+00	 5.925926e+00	 1.010548e+01
0	 7.259259e+00	 5.555556e+00	 1.011239e+01
0	 7.259259e+00	 5.629630e+00	 1.011026e+01
0	 7.259259e+00	 5.703704e+00	 1.010809e+01
0	 7.259259e+00	 5.777778e+00	 1.010588e+01
0	 7.259259e+00	 5.851852e+00	 1.010363e+01
0	 7.259259e+00	 5.925926e+00	 1.010134e+01
0	 7.333333e+00	 5.555556e+00	 1.010754e+01
0	 7.333333e+00	 5.629630e+00	 1.010555e+01
0	 7.333333e+00	 5.703704e+00	 1.010353e+01
0	 7.333333e+00	 5.777778e+00	 1.010146e+01
0	 7.333333e+00	 5.851852e+00	 1.009936e+01
0	 7.333333e+00	 5.925926e+00	 1.009720e+01
0	 7.407407e+00	 5.555556e+00	 1.010270e+01
0	 7.407407e+00	 5.629630e+00	 1.010086e+01
0	 7.407407e+00	 5.703704e+00	 1.009898e+01
0	 7.407407e+00	 5.777778e+00	 1.009705e+01
0	 7.407407e+00	 5.851852e+00	 1.009508e+01
0	 7.407407e+00	 5.925926e+00	 1.009307e+01
0	 7.037037e+00	 5.925926e+00	 1.011370e+01
0	 7.037037e+00	 6.000000e+00	 1.011096e+01
0	 7.037037e+00	 6.074074e+00	 1.010820e+01
0	 7.037037e+00	 6.148148e+00	 1.010542e+01
0	 7.037037e+00	 6.222222e+00	 1.010263e+01
0	 7.037037e+00	 6.296296e+00	 1.009981e+01
0	 7.111111e+00	 5.925926e+00	 1.010960e+01
0	 7.111111e+00	 6.000000e+00	 1.010699e+01
0	 7.111111e+00	 6.074074e+00	 1.010437e+01
0	 7.111111e+00	 6.148148e+00	 1.010173e+01
0	 7.111111e+00	 6.222222e+00	 1.009907e+01
0	 7.111111e+00	 6.296296e+00	 1.009639e+01
0	 7.185185e+00	 5.925926e+00	 1.010548e+01
0	 7.185185e+00	 6.000000e+00	 1.010301e+01
0	 7.185185e+00	 6.074074e+00	 1.010053e+01
0	 7.185185e+00	 6.148148e+00	 1.009802e+01
0	 7.185185e+00	 6.222222e+00	 1.009549e+01
0	 7.185185e+00	 6.296296e+00	 1.009294e+01
0	 7.259259e+00	 5.925926e+00	 1.010134e+01
0	 7.259259e+00	 6.000000e+00	 1.009901e+01
0	 7.259259e+00	 6.074074e+00	 1.009666e+01
0	 7.259259e+00	 6.148148e+00	 1.009429e+01
0	 7.259259e+00	 6.222222e+00	 1.009190e+01
0	 7.259259e+00	 6.296296e+00	 1.008947e+01
0	 7.333333e+00	 5.925926e+00	 1.009720e+01
0	 7.333333e+00	 6.000000e+00	 1.009501e+01
0	 7.333333e+00	 6.074074e+00	 1.009280e+01
0	 7.333333e+00	 6.148148e+00	 1.009056e+01
0	 7.333333e+00	 6.222222e+00	 1.008829e+01
0	 7.333333e+00	 6.296296e+00	 1.008600e+01
0	 7.407407e+00	 5.925926e+00	 1.009307e+01
0	 7.407407e+00	 6.000000e+00	 1.009101e+01
0	 7.407407e+00	 6.074074e+00	 1.008893e+01
0	 7.407407e+00	 6.148148e+00	 1.008683e+01
0	 7.407407e+00	 6.222222e+00	 1.008469e+01
0	 7.407407e+00	 6.296296e+00	 1.008252e+01
0	 7.037037e+00	 6.296296e+00	 1.009981e+01
0	 7.037037e+00	 6.370370e+00	 1.009698e+01
0	 7.037037e+00	 6.444444e+00	 1.009416e+01
0	 7.037037e+00	 6.518519e+00	 1.009133e+01
0	 7.037037e+00	 6.592593e+00	 1.008850e+01
0	 7.037037e+00	 6.666667e+00	 1.008566e+01
0	 7.111111e+00	 6.296296e+00	 1.009639e+01
0	 7.111111e+00	 6.370370e+00	 1.009369e+01
0	 7.111111e+00	 6.444444e+00	 1.009099e+01
0	 7.111111e+00	 6.518519e+00	 1.008828e+01
0	 7.111111e+00	 6.592593e+00	 1.008557e+01
0	 7.111111e+00	 6.666667e+00	 1.008285e+01
0	 7.185185e+00	 6.296296e+00	 1.009294e+01
0	 7.185185e+00	 6.370370e+00	 1.009037e+01
0	 7.185185e+00	 6.444444e+00	 1.008779e+01
0	 7.185185e+00	 6.518519e+00	 1.008521e+01
0	 7.185185e+00	 6.592593e+00	 1.008262e+01
0	 7.185185e+00	 6.666667e+00	 1.008002e+01
0	 7.259259e+00	 6.296296e+00	 1.008947e+01
0	 7.259259e+00	 6.370370e+00	 1.008703e+01
0	 7.259259e+00	 6.444444e+00	 1.008458e+01
0	 7.259259e+00	 6.518519e+00	 1.008212e+01
0	 7.259259e+00	 6.592593e+00	 1.007965e+01
0	 7.259259e+00	 6.666667e+00	 1.007717e+01
0	 7.333333e+00	 6.296296e+00	 1.008600e+01
0	 7.333333e+00	 6.370370e+00	 1.008368e+01
0	 7.333333e+00	 6.444444e+00	 1.008135e+01
0	 7.333333e+00	 6.518519e+00	 1.007902e+01
0	 7.333333e+00	 6.592593e+00	 1.007667e+01
0	 7.333333e+00	 6.666667e+00	 1.007431e+01
0	 7.407407e+00	 6.296296e+00	 1.008252e+01
0	 7.407407e+00	 6.370370e+00	 1.008033e+01
0	 7.407407e+00	 6.444444e+00	 1.007813e+01
0	 7.407407e+00	 6.518519e+00	 1.007592e+01
0	 7.407407e+00	 6.592593e+00	 1.007369e+01
0	 7.407407e+00	 6.666667e+00	 1.007144e+01
0	 7.037037e+00	 6.666667e+00	 1.008566e+01
0	 7.037037e+00	 6.740741e+00	 1.008282e+01
0	 7.037037e+00	 6.814815e+00	 1.008001e+01
0	 7.037037e+00	 6.888889e+00	 1.007720e+01
0	 7.037037e+00	 6.962963e+00	 1.007440e+01
0	 7.037037e+00	 7.037037e+00	 1.007161e+01
0	 7.111111e+00	 6.666667e+00	 1.008285e+01
0	 7.111111e+00	 6.740741e+00	 1.008014e+01
0	 7.111111e+00	 6.814815e+00	 1.007743e+01
0	 7.111111e+00	 6.888889e+00	 1.007473e+01
0	 7.111111e+00	 6.962963e+00	 1.007204e+01
0	 7.111111e+00	 7.037037e+00	 1.006936e+01
0	 7.185185e+00	 6.666667e+00	 1.008002e+01
0	 7.185185e+00	 6.740741e+00	 1.007742e+01
0	 7.185185e+00	 6.814815e+00	 1.007483e+01
0	 7.185185e+00	 6.888889e+00	 1.007224e+01
0	 7.185185e+00	 6.962963e+00	 1.006966e+01
0	 7.185185e+00	 7.037037e+00	 1.006708e+01
0	 7.259259e+00	 6.666667e+00	 1.007717e+01
0	 7.259259e+00	 6.740741e+00	 1.007468e+01
0	 7.259259e+00	 6.814815e+00	 1.007220e+01
0	 7.259259e+00	 6.888889e+00	 1.006973e+01
0	 7.259259e+00	 6.962963e+00	 1.006726e+01
0	 7.259259e+00	 7.037037e+00	 1.006478e+01
0	 7.333333e+00	 6.666667e+00	 1.007431e+01
0	 7.333333e+00	 6.740741e+00	 1.007194e+01
0	 7.333333e+00	 6.814815e+00	 1.006957e+01
0	 7.333333e+00	 6.888889e+00	 1.006721e+01
0	 7.333333e+00	 6.962963e+00	 1.006484e+01
0	 7.333333e+00	 7.037037e+00	 1.006247e+01
0	 7.407407e+00	 6.666667e+00	 1.007144e+01
0	 7.407407e+00	 6.740741e+00	 1.006918e+01
0	 7.407407e+00	 6.814815e+00	 1.006693e+01
0	 7.407407e+00	 6.888889e+00	 1.006468e+01
0	 7.407407e+00	 6.962963e+00	 1.006242e+01
0	 7.407407e+00	 7.037037e+00	 1.006016e+01
0	 7.037037e+00	 7.037037e+00	 1.007161e+01
0	 7.037037e+00	 7.111111e+00	 1.006883e+01
0	 7.037037e+00	 7.185185e+00	 1.006608e+01
0	 7.037037e+00	 7.259259e+00	 1.006336e+01
0	 7.037037e+00	 7.333333e+00	 1.006066e+01
0	 7.037037e+00	 7.407407e+00	 1.005797e+01
0	 7.111111e+00	 7.037037e+00	 1.006936e+01
0	 7.111111e+00	 7.111111e+00	 1.006669e+01
0	 7.111111e+00	 7.185185e+00	 1.006404e+01
0	 7.111111e+00	 7.259259e+00	 1.006141e+01
0	 7.111111e+00	 7.333333e+00	 1.005881e+01
0	 7.111111e+00	 7.407407e+00	 1.005621e+01
0	 7.185185e+00	 7.037037e+00	 1.006708e+01
0	 7.185185e+00	 7.111111e+00	 1.006451e+01
0	 7.185185e+00	 7.185185e+00	 1.006197e+01
0	 7.185185e+00	 7.259259e+00	 1.005944e+01
0	 7.185185e+00	 7.333333e+00	 1.005693e+01
0	 7.185185e+00	 7.407407e+00	 1.005443e+01
0	 7.259259e+00	 7.037037e+00	 1.006478e+01
0	 7.259259e+00	 7.111111e+00	 1.006232e+01
0	 7.259259e+00	 7.185185e+00	 1.005987e+01
0	 7.259259e+00	 7.259259e+00	 1.005745e+01
0	 7.259259e+00	 7.333333e+00	 1.005503e+01
0	 7.259259e+00	 7.407407e+00	 1.005263e+01
0	 7.333333e+00	 7.037037e+00	 1.006247e+01
0	 7.333333e+00	 7.111111e+00	 1.006011e+01
0	 7.333333e+00	 7.185185e+00	 1.005777e+01
0	 7.333333e+00	 7.259259e+00	 1.005544e+01
0	 7.333333e+00	 7.333333e+00	 1.005312e+01
0	 7.333333e+00	 7.407407e+00	 1.005082e+01
0	 7.407407e+00	 7.037037e+00	 1.006016e+01
0	 7.407407e+00	 7.111111e+00	 1.005790e+01
0	 7.407407e+00	 7.185185e+00	 1.005566e+01
0	 7.407407e+00	 7.259259e+00	 1.005343e+01
0	 7.407407e+00	 7.333333e+00	 1.005121e+01
0	 7.407407e+00	 7.407407e+00	 1.004900e+01
0	 7.037037e+00	 7.407407e+00	 1.005797e+01
0	 7.037037e+00	 7.481481e+00	 1.005532e+01
0	 7.037037e+00	 7.555556e+00	 1.005270e+01
0	 7.037037e+00	 7.629630e+00	 1.005011e+01
0	 7.037037e+00	 7.703704e+00	 1.004756e+01
0	 7.037037e+00	 7.777778e+00	 1.004504e+01
0	 7.111111e+00	 7.407407e+00	 1.005621e+01
0	 7.111111e+00	 7.481481e+00	 1.005365e+01
0	 7.111111e+00	 7.555556e+00	 1.005112e+01
0	 7.111111e+00	 7.629630e+00	 1.004862e+01
0	 7.111111e+00	 7.703704e+00	 1.004615e+01
0	 7.111111e+00	 7.777778e+00	 1.004371e+01
0	 7.185185e+00	 7.407407e+00	 1.005443e+01
0	 7.185185e+00	 7.481481e+00	 1.005196e+01
0	 7.185185e+00	 7.555556e+00	 1.004951e+01
0	 7.185185e+00	 7.629630e+00	 1.004710e+01
0	 7.185185e+00	 7.703704e+00	 1.004472e+01
0	 7.185185e+00	 7.777778e+00	 1.004236e+01
0	 7.259259e+00	 7.407407e+00	 1.005263e+01
0	 7.259259e+00	 7.481481e+00	 1.005025e+01
0	 7.259259e+00	 7.555556e+00	 1.004789e+01
0	 7.259259e+00	 7.629630e+00	 1.004557e+01
0	 7.259259e+00	 7.703704e+00	 1.004327e+01
0	 7.259259e+00	 7.777778e+00	 1.004100e+01
0	 7.333333e+00	 7.407407e+00	 1.005082e+01
0	 7.333333e+00	 7.481481e+00	 1.004852e+01
0	 7.333333e+00	 7.555556e+00	 1.004626e+01
0	 7.333333e+00	 7.629630e+00	 1.004403e+01
0	 7.333333e+00	 7.703704e+00	 1.004182e+01
0	 7.333333e+00	 7.777778e+00	 1.003962e+01
0	 7.407407e+00	 7.407407e+00	 1.004900e+01
0	 7.407407e+00	 7.481481e+00	 1.004680e+01
0	 7.407407e+00	 7.555556e+00	 1.004463e+01
0	 7.407407e+00	 7.629630e+00	 1.004248e+01
0	 7.407407e+00	 7.703704e+00	 1.004035e+01
0	 7.407407e+00	 7.777778e+00	 1.003824e+01
0	 7.037037e+00	 7.777778e+00	 1.004504e+01
0	 7.037037e+00	 7.851852e+00	 1.004256e+01
0	 7.037037e+00	 7.925926e+00	 1.004012e+01
0	 7.037037e+00	 8.000000e+00	 1.003774e+01
0	 7.037037e+00	 8.074074e+00	 1.003540e+01
0	 7.037037e+00	 8.148148e+00	 1.003309e+01
0	 7.111111e+00	 7.777778e+00	 1.004371e+01
0	 7.111111e+00	 7.851852e+00	 1.004131e+01
0	 7.111111e+00	 7.925926e+00	 1.003895e+01
0	 7.111111e+00	 8.000000e+00	 1.003664e+01
0	 7.111111e+00	 8.074074e+00	 1.003437e+01
0	 7.111111e+00	 8.148148e+00	 1.003214e+01
0	 7.185185e+00	 7.777778e+00	 1.004236e+01
0	 7.185185e+00	 7.851852e+00	 1.004004e+01
0	 7.185185e+00	 7.925926e+00	 1.003776e+01
0	 7.185185e+00	 8.000000e+00	 1.003552e+01
0	 7.185185e+00	 8.074074e+00	 1.003332e+01
0	 7.185185e+00	 8.148148e+00	 1.003116e+01
0	 7.259259e+00	 7.777778e+00	 1.004100e+01
0	 7.259259e+00	 7.851852e+00	 1.003875e+01
0	 7.259259e+00	 7.925926e+00	 1.003655e+01
0	 7.259259e+00	 8.000000e+00	 1.003439e+01
0	 7.259259e+00	 8.074074e+00	 1.003227e+01
0	 7.259259e+00	 8.148148e+00	 1.003018e+01
0	 7.333333e+00	 7.777778e+00	 1.003962e+01
0	 7.333333e+00	 7.851852e+00	 1.003746e+01
0	 7.333333e+00	 7.925926e+00	 1.003534e+01
0	 7.333333e+00	 8.000000e+00	 1.003325e+01
0	 7.333333e+00	 8.074074e+00	 1.003120e+01
0	 7.333333e+00	 8.148148e+00	 1.002919e+01
0	 7.407407e+00	 7.777778e+00	 1.003824e+01
0	 7.407407e+00	 7.851852e+00	 1.003616e+01
0	 7.407407e+00	 7.925926e+00	 1.003412e+01
0	 7.407407e+00	 8.000000e+00	 1.003211e+01
0	 7.407407e+00	 8.074074e+00	 1.003013e+01
0	 7.407407e+00	 8.148148e+00	 1.002819e+01
0	 7.037037e+00	 8.148148e+00	 1.003309e+01
0	 7.037037e+00	 8.222222e+00	 1.003084e+01
0	 7.037037e+00	 8.296296e+00	 1.002865e+01
0	 7.037037e+00	 8.370370e+00	 1.002652e+01
0	 7.037037e+00	 8.444444e+00	 1.002445e+01
0	 7.037037e+00	 8.518519e+00	 1.002243e+01
0	 7.111111e+00	 8.148148e+00	 1.003214e+01
0	 7.111111e+00	 8.222222e+00	 1.002995e+01
0	 7.111111e+00	 8.296296e+00	 1.002783e+01
0	 7.111111e+00	 8.370370e+00	 1.002576e+01
0	 7.111111e+00	 8.444444e+00	 1.002375e+01
0	 7.111111e+00	 8.518519e+00	 1.002178e+01
0	 7.185185e+00	 8.148148e+00	 1.003116e+01
0	 7.185185e+00	 8.222222e+00	 1.002905e+01
0	 7.185185e+00	 8.296296e+00	 1.002699e+01
0	 7.185185e+00	 8.370370e+00	 1.002499e+01
0	 7.185185e+00	 8.444444e+00	 1.002304e+01
0	 7.185185e+00	 8.518519e+00	 1.002113e+01
0	 7.259259e+00	 8.148148e+00	 1.003018e+01
0	 7.259259e+00	 8.222222e+00	 1.002813e+01
0	 7.259259e+00	 8.296296e+00	 1.002614e+01
0	 7.259259e+00	 8.370370e+00	 1.002420e+01
0	 7.259259e+00	 8.444444e+00	 1.002231e+01
0	 7.259259e+00	 8.518519e+00	 1.002047e+01
0	 7.333333e+00	 8.148148e+00	 1.002919e+01
0	 7.333333e+00	 8.222222e+00	 1.002721e+01
0	 7.333333e+00	 8.296296e+00	 1.002529e+01
0	 7.333333e+00	 8.370370e+00	 1.002341e+01
0	 7.333333e+00	 8.444444e+00	 1.002159e+01
0	 7.333333e+00	 8.518519e+00	 1.001980e+01
0	 7.407407e+00	 8.148148e+00	 1.002819e+01
0	 7.407407e+00	 8.222222e+00	 1.002628e+01
0	 7.407407e+00	 8.296296e+00	 1.002443e+01
0	 7.407407e+00	 8.370370e+00	 1.002262e+01
0	 7.407407e+00	 8.444444e+00	 1.002086e+01
0	 7.407407e+00	 8.518519e+00	 1.001914e+01
0	 7.037037e+00	 8.518519e+00	 1.002243e+01
0	 7.037037e+00	 8.592593e+00	 1.002047e+01
0	 7.037037e+00	 8.666667e+00	 1.001859e+01
0	 7.037037e+00	 8.740741e+00	 1.001678e+01
0	 7.037037e+00	 8.814815e+00	 1.001504e+01
0	 7.037037e+00	 8.888889e+00	 1.001337e+01
0	 7.111111e+00	 8.518519e+00	 1.002178e+01
0	 7.111111e+00	 8.592593e+00	 1.001988e+01
0	 7.111111e+00	 8.666667e+00	 1.001806e+01
0	 7.111111e+00	 8.740741e+00	 1.001630e+01
0	 7.111111e+00	 8.814815e+00	 1.001461e+01
0	 7.111111e+00	 8.888889e+00	 1.001299e+01
0	 7.185185e+00	 8.518519e+00	 1.002113e+01
0	 7.185185e+00	 8.592593e+00	 1.001929e+01
0	 7.185185e+00	 8.666667e+00	 1.001752e+01
0	 7.185185e+00	 8.740741e+00	 1.001581e+01
0	 7.185185e+00	 8.814815e+00	 1.001418e+01
0	 7.185185e+00	 8.888889e+00	 1.001260e+01
0	 7.259259e+00	 8.518519e+00	 1.002047e+01
0	 7.259259e+00	 8.592593e+00	 1.001868e+01
0	 7.259259e+00	 8.666667e+00	 1.001697e+01
0	 7.259259e+00	 8.740741e+00	 1.001532e+01
0	 7.259259e+00	 8.814815e+00	 1.001373e+01
0	 7.259259e+00	 8.888889e+00	 1.001220e+01
0	 7.333333e+00	 8.518519e+00	 1.001980e+01
0	 7.333333e+00	 8.592593e+00	 1.001808e+01
0	 7.333333e+00	 8.666667e+00	 1.001642e+01
0	 7.333333e+00	 8.740741e+00	 1.001482e+01
0	 7.333333e+00	 8.814815e+00	 1.001329e+01
0	 7.333333e+00	 8.888889e+00	 1.001181e+01
0	 7.407407e+00	 8.518519e+00	 1.001914e+01
0	 7.407407e+00	 8.592593e+00	 1.001747e+01
0	 7.407407e+00	 8.666667e+00	 1.001587e+01
0	 7.407407e+00	 8.740741e+00	 1.001432e+01
0	 7.407407e+00	 8.814815e+00	 1.001284e+01
0	 7.407407e+00	 8.888889e+00	 1.001141e+01
0	 7.037037e+00	 8.888889e+00	 1.001337e+01
0	 7.037037e+00	 8.962963e+00	 1.001177e+01
0	 7.037037e+00	 9.037037e+00	 1.001028e+01
0	 7.037037e+00	 9.111111e+00	 1.000887e+01
0	 7.037037e+00	 9.185185e+00	 1.000754e+01
0	 7.037037e+00	 9.259259e+00	 1.000630e+01
0	 7.111111e+00	 8.888889e+00	 1.001299e+01
0	 7.111111e+00	 8.962963e+00	 1.001144e+01
0	 7.111111e+00	 9.037037e+00	 1.000998e+01
0	 7.111111e+00	 9.111111e+00	 1.000861e+01
0	 7.111111e+00	 9.185185e+00	 1.000733e+01
0	 7.111111e+00	 9.259259e+00	 1.000612e+01
0	 7.185185e+00	 8.888889e+00	 1.001260e+01
0	 7.185185e+00	 8.962963e+00	 1.001110e+01
0	 7.185185e+00	 9.037037e+00	 1.000968e+01
0	 7.185185e+00	 9.111111e+00	 1.000835e+01
0	 7.185185e+00	 9.185185e+00	 1.000711e+01
0	 7.185185e+00	 9.259259e+00	 1.000593e+01
0	 7.259259e+00	 8.888889e+00	 1.001220e+01
0	 7.259259e+00	 8.962963e+00	 1.001075e+01
0	 7.259259e+00	 9.037037e+00	 1.000938e+01
0	 7.259259e+00	 9.111111e+00	 1.000809e+01
0	 7.259259e+00	 9.185185e+00	 1.000688e+01
0	 7.259259e+00	 9.259259e+00	 1.000575e+01
0	 7.333333e+00	 8.888889e+00	 1.001181e+01
0	 7.333333e+00	 8.962963e+00	 1.001040e+01
0	 7.333333e+00	 9.037037e+00	 1.000907e+01
0	 7.333333e+00	 9.111111e+00	 1.000783e+01
0	 7.333333e+00	 9.185185e+00	 1.000666e+01
0	 7.333333e+00	 9.259259e+00	 1.000556e+01
0	 7.407407e+00	 8.888889e+00	 1.001141e+01
0	 7.407407e+00	 8.962963e+00	 1.001005e+01
0	 7.407407e+00	 9.037037e+00	 1.000877e+01
0	 7.407407e+00	 9.111111e+00	 1.000757e+01
0	 7.407407e+00	 9.185185e+00	 1.000643e+01
0	 7.407407e+00	 9.259259e+00	 1.000537e+01
0	 7.037037e+00	 9.259259e+00	 1.000630e+01
0	 7.037037e+00	 9.333333e+00	 1.000515e+01
0	 7.037037e+00	 9.407407e+00	 1.000412e+01
0	 7.037037e+00	 9.481481e+00	 1.000320e+01
0	 7.037037e+00	 9.555556e+00	 1.000239e+01
0	 7.037037e+00	 9.629630e+00	 1.000167e+01
0	 7.111111e+00	 9.259259e+00	 1.000612e+01
0	 7.111111e+00	 9.333333e+00	 1.000501e+01
0	 7.111111e+00	 9.407407e+00	 1.000401e+01
0	 7.111111e+00	 9.481481e+00	 1.000311e+01
0	 7.111111e+00	 9.555556e+00	 1.000232e+01
0	 7.111111e+00	 9.629630e+00	 1.000162e+01
0	 7.185185e+00	 9.259259e+00	 1.000593e+01
0	 7.185185e+00	 9.333333e+00	 1.000485e+01
0	 7.185185e+00	 9.407407e+00	 1.000388e+01
0	 7.185185e+00	 9.481481e+00	 1.000302e+01
0	 7.185185e+00	 9.555556e+00	 1.000225e+01
0	 7.185185e+00	 9.629630e+00	 1.000157e+01
0	 7.259259e+00	 9.259259e+00	 1.000575e+01
0	 7.259259e+00	 9.333333e+00	 1.000470e+01
0	 7.259259e+00	 9.407407e+00	 1.000376e+01
0	 7.259259e+00	 9.481481e+00	 1.000292e+01
0	 7.259259e+00	 9.555556e+00	 1.000217e+01
0	 7.259259e+00	 9.629630e+00	 1.000152e+01
0	 7.333333e+00	 9.259259e+00	 1.000556e+01
0	 7.333333e+00	 9.333333e+00	 1.000455e+01
0	 7.333333e+00	 9.407407e+00	 1.000363e+01
0	 7.333333e+00	 9.481481e+00	 1.000282e+01
0	 7.333333e+00	 9.555556e+00	 1.000210e+01
0	 7.333333e+00	 9.629630e+00	 1.000147e+01
0	 7.407407e+00	 9.259259e+00	 1.000537e+01
0	 7.407407e+00	 9.333333e+00	 1.000439e+01
0	 7.407407e+00	 9.407407e+00	 1.000351e+01
0	 7.407407e+00	 9.481481e+00	 1.000273e+01
0	 7.407407e+00	 9.555556e+00	 1.000203e+01
0	 7.407407e+00	 9.629630e+00	 1.000142e+01
0	 7.037037e+00	 9.629630e+00	 1.000167e+01
0	 7.037037e+00	 9.703704e+00	 1.000107e+01
0	 7.037037e+00	 9.777778e+00	 1.000061e+01
0	 7.037037e+00	 9.851852e+00	 1.000028e+01
0	 7.037037e+00	 9.925926e+00	 1.000007e+01
0	 7.037037e+00	 1.000000e+01	 9.999987e+00
0	 7.111111e+00	 9.629630e+00	 1.000162e+01
0	 7.111111e+00	 9.703704e+00	 1.000104e+01
0	 7.111111e+00	 9.777778e+00	 1.000060e+01
0	 7.111111e+00	 9.851852e+00	 1.000027e+01
0	 7.111111e+00	 9.925926e+00	 1.000007e+01
0	 7.111111e+00	 1.000000e+01	 9.999990e+00
0	 7.185185e+00	 9.629630e+00	 1.000157e+01
0	 7.185185e+00	 9.703704e+00	 1.000101e+01
0	 7.185185e+00	 9.777778e+00	 1.000058e+01
0	 7.185185e+00	 9.851852e+00	 1.000027e+01
0	 7.185185e+00	 9.925926e+00	 1.000007e+01
0	 7.185185e+00	 1.000000e+01	 9.999989e+00
0	 7.259259e+00	 9.629630e+00	 1.000152e+01
0	 7.259259e+00	 9.703704e+00	 1.000098e+01
0	 7.259259e+00	 9.777778e+00	 1.000056e+01
0	 7.259259e+00	 9.851852e+00	 1.000025e+01
0	 7.259259e+00	 9.925926e+00	 1.000007e+01
0	 7.259259e+00	 1.000000e+01	 9.999988e+00
0	 7.333333e+00	 9.629630e+00	 1.000147e+01
0	 7.333333e+00	 9.703704e+00	 1.000094e+01
0	 7.333333e+00	 9.777778e+00	 1.000054e+01
0	 7.333333e+00	 9.851852e+00	 1.000024e+01
0	 7.333333e+00	 9.925926e+00	 1.000006e+01
0	 7.333333e+00	 1.000000e+01	 9.999987e+00
0	 7.407407e+00	 9.629630e+00	 1.000142e+01
0	 7.407407e+00	 9.703704e+00	 1.000091e+01
0	 7.407407e+00	 9.777778e+00	 1.000052e+01
0	 7.407407e+00	 9.851852e+00	 1.000024e+01
0	 7.407407e+00	 9.925926e+00	 1.000006e+01
0	 7.407407e+00	 1.000000e+01	 9.999990e+00
0	 7.407407e+00	 0.000000e+00	 1.004014e+01
0	 7.407407e+00	 7.407407e-02	 1.004022e+01
0	 7.407407e+00	 1.481481e-01	 1.004046e+01
0	 7.407407e+00	 2.222222e-01	 1.004086e+01
0	 7.407407e+00	 2.962963e-01	 1.004142e+01
0	 7.407407e+00	 3.703704e-01	 1.004215e+01
0	 7.481481e+00	 0.000000e+00	 1.003183e+01
0	 7.481481e+00	 7.407407e-02	 1.003191e+01
0	 7.481481e+00	 1.481481e-01	 1.003214e+01
0	 7.481481e+00	 2.222222e-01	 1.003253e+01
0	 7.481481e+00	 2.962963e-01	 1.003308e+01
0	 7.481481e+00	 3.703704e-01	 1.003379e+01
0	 7.555556e+00	 0.000000e+00	 1.002346e+01
0	 7.555556e+00	 7.407407e-02	 1.002354e+01
0	 7.555556e+00	 1.481481e-01	 1.002376e+01
0	 7.555556e+00	 2.222222e-01	 1.002414e+01
0	 7.555556e+00	 2.962963e-01	 1.002468e+01
0	 7.555556e+00	 3.703704e-01	 1.002537e+01
0	 7.629630e+00	 0.000000e+00	 1.001503e+01
0	 7.629630e+00	 7.407407e-02	 1.001510e+01
0	 7.629630e+00	 1.481481e-01	 1.001532e+01
0	 7.629630e+00	 2.222222e-01	 1.001569e+01
0	 7.629630e+00	 2.962963e-01	 1.001622e+01
0	 7.629630e+00	 3.703704e-01	 1.001690e+01
0	 7.703704e+00	 0.000000e+00	 1.000651e+01
0	 7.703704e+00	 7.407407e-02	 1.000659e+01
0	 7.703704e+00	 1.481481e-01	 1.000681e+01
0	 7.703704e+00	 2.222222e-01	 1.000717e+01
0	 7.703704e+00	 2.962963e-01	 1.000769e+01
0	 7.703704e+00	 3.703704e-01	 1.000835e+01
0	 7.777778e+00	 0.000000e+00	 9.997920e+00
0	 7.777778e+00	 7.407407e-02	 9.997996e+00
0	 7.777778e+00	 1.481481e-01	 9.998213e+00
0	 7.777778e+00	 2.222222e-01	 9.998574e+00
0	 7.777778e+00	 2.962963e-01	 9.999079e+00
0	 7.777778e+00	 3.703704e-01	 9.999730e+00
0	 7.407407e+00	 3.703704e-01	 1.004215e+01
0	 7.407407e+00	 4.444444e-01	 1.004303e+01
0	 7.407407e+00	 5.185185e-01	 1.004405e+01
0	 7.407407e+00	 5.925926e-01	 1.004521e+01
0	 7.407407e+00	 6.666667e-01	 1.004652e+01
0	 7.407407e+00	 7.407407e-01	 1.004798e+01
0	 7.481481e+00	 3.703704e-01	 1.003379e+01
0	 7.481481e+00	 4.444444e-01	 1.003465e+01
0	 7.481481e+00	 5.185185e-01	 1.003564e+01
0	 7.481481e+00	 5.925926e-01	 1.003677e+01
0	 7.481481e+00	 6.666667e-01	 1.003804e+01
0	 7.481481e+00	 7.407407e-01	 1.003947e+01
0	 7.555556e+00	 3.703704e-01	 1.002537e+01
0	 7.555556e+00	 4.444444e-01	 1.002621e+01
0	 7.555556e+00	 5.185185e-01	 1.002718e+01
0	 7.555556e+00	 5.925926e-01	 1.002828e+01
0	 7.555556e+00	 6.666667e-01	 1.002953e+01
0	 7.555556e+00	 7.407407e-01	 1.003092e+01
0	 7.629630e+00	 3.703704e-01	 1.001690e+01
0	 7.629630e+00	 4.444444e-01	 1.001771e+01
0	 7.629630e+00	 5.185185e-01	 1.001866e+01
0	 7.629630e+00	 5.925926e-01	 1.001974e+01
0	 7.629630e+00	 6.666667e-01	 1.002096e+01
0	 7.629630e+00	 7.407407e-01	 1.002232e+01
0	 7.703704e+00	 3.703704e-01	 1.000835e+01
0	 7.703704e+00	 4.444444e-01	 1.000915e+01
0	 7.703704e+00	 5.185185e-01	 1.001008e+01
0	 7.703704e+00	 5.925926e-01	 1.001114e+01
0	 7.703704e+00	 6.666667e-01	 1.001234e+01
0	 7.703704e+00	 7.407407e-01	 1.001367e+01
0	 7.777778e+00	 3.703704e-01	 9.999730e+00
0	 7.777778e+00	 4.444444e-01	 1.000052e+01
0	 7.777778e+00	 5.185185e-01	 1.000143e+01
0	 7.777778e+00	 5.925926e-01	 1.000247e+01
0	 7.777778e+00	 6.666667e-01	 1.000364e+01
0	 7.777778e+00	 7.407407e-01	 1.000496e+01
0	 7.407407e+00	 7.407407e-01	 1.004798e+01
0	 7.407407e+00	 8.148148e-01	 1.004957e+01
0	 7.407407e+00	 8.888889e-01	 1.005125e+01
0	 7.407407e+00	 9.629630e-01	 1.005305e+01
0	 7.407407e+00	 1.037037e+00	 1.005495e+01
0	 7.407407e+00	 1.111111e+00	 1.005698e+01
0	 7.481481e+00	 7.407407e-01	 1.003947e+01
0	 7.481481e+00	 8.148148e-01	 1.004101e+01
0	 7.481481e+00	 8.888889e-01	 1.004266e+01
0	 7.481481e+00	 9.629630e-01	 1.004441e+01
0	 7.481481e+00	 1.037037e+00	 1.004627e+01
0	 7.481481e+00	 1.111111e+00	 1.004826e+01
0	 7.555556e+00	 7.407407e-01	 1.003092e+01
0	 7.555556e+00	 8.148148e-01	 1.003243e+01
0	 7.555556e+00	 8.888889e-01	 1.003404e+01
0	 7.555556e+00	 9.629630e-01	 1.003575e+01
0	 7.555556e+00	 1.037037e+00	 1.003758e+01
0	 7.555556e+00	 1.111111e+00	 1.003952e+01
0	 7.629630e+00	 7.407407e-01	 1.002232e+01
0	 7.629630e+00	 8.148148e-01	 1.002380e+01
0	 7.629630e+00	 8.888889e-01	 1.002538e+01
0	 7.629630e+00	 9.629630e-01	 1.002706e+01
0	 7.629630e+00	 1.037037e+00	 1.002885e+01
0	 7.629630e+00	 1.111111e+00	 1.003076e+01
0	 7.703704e+00	 7.407407e-01	 1.001367e+01
0	 7.703704e+00	 8.148148e-01	 1.001512e+01
0	 7.703704e+00	 8.888889e-01	 1.001667e+01
0	 7.703704e+00	 9.629630e-01	 1.001832e+01
0	 7.703704e+00	 1.037037e+00	 1.002008e+01
0	 7.703704e+00	 1.111111e+00	 1.002196e+01
0	 7.777778e+00	 7.407407e-01	 1.000496e+01
0	 7.777778e+00	 8.148148e-01	 1.000638e+01
0	 7.777778e+00	 8.888889e-01	 1.000791e+01
0	 7.777778e+00	 9.629630e-01	 1.000954e+01
0	 7.777778e+00	 1.037037e+00	 1.001127e+01
0	 7.777778e+00	 1.111111e+00	 1.001312e+01
0	 7.407407e+00	 1.111111e+00	 1.005698e+01
0	 7.407407e+00	 1.185185e+00	 1.005910e+01
0	 7.407407e+00	 1.259259e+00	 1.006127e+01
0	 7.407407e+00	 1.333333e+00	 1.006350e+01
0	 7.407407e+00	 1.407407e+00	 1.006581e+01
0	 7.407407e+00	 1.481481e+00	 1.006819e+01
0	 7.481481e+00	 1.111111e+00	 1.004826e+01
0	 7.481481e+00	 1.185185e+00	 1.005033e+01
0	 7.481481e+00	 1.259259e+00	 1.005246e+01
0	 7.481481e+00	 1.333333e+00	 1.005465e+01
0	 7.481481e+00	 1.407407e+00	 1.005691e+01
0	 7.481481e+00	 1.481481e+00	 1.005925e+01
0	 7.555556e+00	 1.111111e+00	 1.003952e+01
0	 7.555556e+00	 1.185185e+00	 1.004155e+01
0	 7.555556e+00	 1.259259e+00	 1.004364e+01
0	 7.555556e+00	 1.333333e+00	 1.004579e+01
0	 7.555556e+00	 1.407407e+00	 1.004801e+01
0	 7.555556e+00	 1.481481e+00	 1.005031e+01
0	 7.629630e+00	 1.111111e+00	 1.003076e+01
0	 7.629630e+00	 1.185185e+00	 1.003275e+01
0	 7.629630e+00	 1.259259e+00	 1.003480e+01
0	 7.629630e+00	 1.333333e+00	 1.003692e+01
0	 7.629630e+00	 1.407407e+00	 1.003911e+01
0	 7.629630e+00	 1.481481e+00	 1.004138e+01
0	 7.703704e+00	 1.111111e+00	 1.002196e+01
0	 7.703704e+00	 1.185185e+00	 1.002392e+01
0	 7.703704e+00	 1.259259e+00	 1.002594e+01
0	 7.703704e+00	 1.333333e+00	 1.002803e+01
0	 7.703704e+00	 1.407407e+00	 1.003019e+01
0	 7.703704e+00	 1.481481e+00	 1.003244e+01
0	 7.777778e+00	 1.111111e+00	 1.001312e+01
0	 7.777778e+00	 1.185185e+00	 1.001505e+01
0	 7.777778e+00	 1.259259e+00	 1.001705e+01
0	 7.777778e+00	 1.333333e+00	 1.001911e+01
0	 7.777778e+00	 1.407407e+00	 1.002125e+01
0	 7.777778e+00	 1.481481e+00	 1.002347e+01
0	 7.407407e+00	 1.481481e+00	 1.006819e+01
0	 7.407407e+00	 1.555556e+00	 1.007062e+01
0	 7.407407e+00	 1.629630e+00	 1.007306e+01
0	 7.407407e+00	 1.703704e+00	 1.007551e+01
0	 7.407407e+00	 1.777778e+00	 1.007798e+01
0	 7.407407e+00	 1.851852e+00	 1.008049e+01
0	 7.481481e+00	 1.481481e+00	 1.005925e+01
0	 7.481481e+00	 1.555556e+00	 1.006164e+01
0	 7.481481e+00	 1.629630e+00	 1.006403e+01
0	 7.481481e+00	 1.703704e+00	 1.006645e+01
0	 7.481481e+00	 1.777778e+00	 1.006889e+01
0	 7.481481e+00	 1.851852e+00	 1.007136e+01
0	 7.555556e+00	 1.481481e+00	 1.005031e+01
0	 7.555556e+00	 1.555556e+00	 1.005267e+01
0	 7.555556e+00	 1.629630e+00	 1.005503e+01
0	 7.555556e+00	 1.703704e+00	 1.005741e+01
0	 7.555556e+00	 1.777778e+00	 1.005982e+01
0	 7.555556e+00	 1.851852e+00	 1.006228e+01
0	 7.629630e+00	 1.481481e+00	 1.004138e+01
0	 7.629630e+00	 1.555556e+00	 1.004370e+01
0	 7.629630e+00	 1.629630e+00	 1.004603e+01
0	 7.629630e+00	 1.703704e+00	 1.004839e+01
0	 7.629630e+00	 1.777778e+00	 1.005078e+01
0	 7.629630e+00	 1.851852e+00	 1.005321e+01
0	 7.703704e+00	 1.481481e+00	 1.003244e+01
0	 7.703704e+00	 1.555556e+00	 1.003473e+01
0	 7.703704e+00	 1.629630e+00	 1.003704e+01
0	 7.703704e+00	 1.703704e+00	 1.003938e+01
0	 7.703704e+00	 1.777778e+00	 1.004175e+01
0	 7.703704e+00	 1.851852e+00	 1.004416e+01
0	 7.777778e+00	 1.481481e+00	 1.002347e+01
0	 7.777778e+00	 1.555556e+00	 1.002574e+01
0	 7.777778e+00	 1.629630e+00	 1.002804e+01
0	 7.777778e+00	 1.703704e+00	 1.003036e+01
0	 7.777778e+00	 1.777778e+00	 1.003272e+01
0	 7.777778e+00	 1.851852e+00	 1.003512e+01
0	 7.407407e+00	 1.851852e+00	 1.008049e+01
0	 7.407407e+00	 1.925926e+00	 1.008299e+01
0	 7.407407e+00	 2.000000e+00	 1.008546e+01
0	 7.407407e+00	 2.074074e+00	 1.008790e+01
0	 7.407407e+00	 2.148148e+00	 1.009031e+01
0	 7.407407e+00	 2.222222e+00	 1.009271e+01
0	 7.481481e+00	 1.851852e+00	 1.007136e+01
0	 7.481481e+00	 1.925926e+00	 1.007384e+01
0	 7.481481e+00	 2.000000e+00	 1.007629e+01
0	 7.481481e+00	 2.074074e+00	 1.007870e+01
0	 7.481481e+00	 2.148148e+00	 1.008110e+01
0	 7.481481e+00	 2.222222e+00	 1.008350e+01
0	 7.555556e+00	 1.851852e+00	 1.006228e+01
0	 7.555556e+00	 1.925926e+00	 1.006473e+01
0	 7.555556e+00	 2.000000e+00	 1.006716e+01
0	 7.555556e+00	 2.074074e+00	 1.006956e+01
0	 7.555556e+00	 2.148148e+00	 1.007195e+01
0	 7.555556e+00	 2.222222e+00	 1.007434e+01
0	 7.629630e+00	 1.851852e+00	 1.005321e+01
0	 7.629630e+00	 1.925926e+00	 1.005565e+01
0	 7.629630e+00	 2.000000e+00	 1.005806e+01
0	 7.629630e+00	 2.074074e+00	 1.006046e+01
0	 7.629630e+00	 2.148148e+00	 1.006284e+01
0	 7.629630e+00	 2.222222e+00	 1.006523e+01
0	 7.703704e+00	 1.851852e+00	 1.004416e+01
0	 7.703704e+00	 1.925926e+00	 1.004659e+01
0	 7.703704e+00	 2.000000e+00	 1.004899e+01
0	 7.703704e+00	 2.074074e+00	 1.005138e+01
0	 7.703704e+00	 2.148148e+00	 1.005377e+01
0	 7.703704e+00	 2.222222e+00	 1.005615e+01
0	 7.777778e+00	 1.851852e+00	 1.003512e+01
0	 7.777778e+00	 1.925926e+00	 1.003753e+01
0	 7.777778e+00	 2.000000e+00	 1.003993e+01
0	 7.777778e+00	 2.074074e+00	 1.004232e+01
0	 7.777778e+00	 2.148148e+00	 1.004471e+01
0	 7.777778e+00	 2.222222e+00	 1.004710e+01
0	 7.407407e+00	 2.222222e+00	 1.009271e+01
0	 7.407407e+00	 2.296296e+00	 1.009507e+01
0	 7.407407e+00	 2.370370e+00	 1.009735e+01
0	 7.407407e+00	 2.444444e+00	 1.009956e+01
0	 7.407407e+00	 2.518519e+00	 1.010171e+01
0	 7.407407e+00	 2.592593e+00	 1.010381e+01
0	 7.481481e+00	 2.222222e+00	 1.008350e+01
0	 7.481481e+00	 2.296296e+00	 1.008585e+01
0	 7.481481e+00	 2.370370e+00	 1.008813e+01
0	 7.481481e+00	 2.444444e+00	 1.009035e+01
0	 7.481481e+00	 2.518519e+00	 1.009251e+01
0	 7.481481e+00	 2.592593e+00	 1.009463e+01
0	 7.555556e+00	 2.222222e+00	 1.007434e+01
0	 7.555556e+00	 2.296296e+00	 1.007669e+01
0	 7.555556e+00	 2.370370e+00	 1.007898e+01
0	 7.555556e+00	 2.444444e+00	 1.008121e+01
0	 7.555556e+00	 2.518519e+00	 1.008339e+01
0	 7.555556e+00	 2.592593e+00	 1.008552e+01
0	 7.629630e+00	 2.222222e+00	 1.006523e+01
0	 7.629630e+00	 2.296296e+00	 1.006758e+01
0	 7.629630e+00	 2.370370e+00	 1.006988e+01
0	 7.629630e+00	 2.444444e+00	 1.007212e+01
0	 7.629630e+00	 2.518519e+00	 1.007432e+01
0	 7.629630e+00	 2.592593e+00	 1.007648e+01
0	 7.703704e+00	 2.222222e+00	 1.005615e+01
0	 7.703704e+00	 2.296296e+00	 1.005851e+01
0	 7.703704e+00	 2.370370e+00	 1.006082e+01
0	 7.703704e+00	 2.444444e+00	 1.006309e+01
0	 7.703704e+00	 2.518519e+00	 1.006531e+01
0	 7.703704e+00	 2.592593e+00	 1.006749e+01
0	 7.777778e+00	 2.222222e+00	 1.004710e+01
0	 7.777778e+00	 2.296296e+00	 1.004948e+01
0	 7.777778e+00	 2.370370e+00	 1.005180e+01
0	 7.777778e+00	 2.444444e+00	 1.005409e+01
0	 7.777778e+00	 2.518519e+00	 1.005633e+01
0	 7.777778e+00	 2.592593e+00	 1.005855e+01
0	 7.407407e+00	 2.592593e+00	 1.010381e+01
0	 7.407407e+00	 2.666667e+00	 1.010583e+01
0	 7.407407e+00	 2.740741e+00	 1.010774e+01
0	 7.407407e+00	 2.814815e+00	 1.010956e+01
0	 7.407407e+00	 2.888889e+00	 1.011129e+01
0	 7.407407e+00	 2.962963e+00	 1.011294e+01
0	 7.481481e+00	 2.592593e+00	 1.009463e+01
0	 7.481481e+00	 2.666667e+00	 1.009667e+01
0	 7.481481e+00	 2.740741e+00	 1.009862e+01
0	 7.481481e+00	 2.814815e+00	 1.010048e+01
0	 7.481481e+00	 2.888889e+00	 1.010225e+01
0	 7.481481e+00	 2.962963e+00	 1.010395e+01
0	 7.555556e+00	 2.592593e+00	 1.008552e+01
0	 7.555556e+00	 2.666667e+00	 1.008759e+01
0	 7.555556e+00	 2.740741e+00	 1.008958e+01
0	 7.555556e+00	 2.814815e+00	 1.009147e+01
0	 7.555556e+00	 2.888889e+00	 1.009329e+01
0	 7.555556e+00	 2.962963e+00	 1.009503e+01
0	 7.629630e+00	 2.592593e+00	 1.007648e+01
0	 7.629630e+00	 2.666667e+00	 1.007858e+01
0	 7.629630e+00	 2.740741e+00	 1.008060e+01
0	 7.629630e+00	 2.814815e+00	 1.008253e+01
0	 7.629630e+00	 2.888889e+00	 1.008440e+01
0	 7.629630e+00	 2.962963e+00	 1.008619e+01
0	 7.703704e+00	 2.592593e+00	 1.006749e+01
0	 7.703704e+00	 2.666667e+00	 1.006962e+01
0	 7.703704e+00	 2.740741e+00	 1.007168e+01
0	 7.703704e+00	 2.814815e+00	 1.007366e+01
0	 7.703704e+00	 2.888889e+00	 1.007557e+01
0	 7.703704e+00	 2.962963e+00	 1.007741e+01
0	 7.777778e+00	 2.592593e+00	 1.005855e+01
0	 7.777778e+00	 2.666667e+00	 1.006071e+01
0	 7.777778e+00	 2.740741e+00	 1.006281e+01
0	 7.777778e+00	 2.814815e+00	 1.006483e+01
0	 7.777778e+00	 2.888889e+00	 1.006679e+01
0	 7.777778e+00	 2.962963e+00	 1.006869e+01
0	 7.407407e+00	 2.962963e+00	 1.011294e+01
0	 7.407407e+00	 3.037037e+00	 1.011448e+01
0	 7.407407e+00	 3.111111e+00	 1.011591e+01
0	 7.407407e+00	 3.185185e+00	 1.011722e+01
0	 7.407407e+00	 3.259259e+00	 1.011843e+01
0	 7.407407e+00	 3.333333e+00	 1.011953e+01
0	 7.481481e+00	 2.962963e+00	 1.010395e+01
0	 7.481481e+00	 3.037037e+00	 1.010554e+01
0	 7.481481e+00	 3.111111e+00	 1.010703e+01
0	 7.481481e+00	 3.185185e+00	 1.010841e+01
0	 7.481481e+00	 3.259259e+00	 1.010969e+01
0	 7.481481e+00	 3.333333e+00	 1.011086e+01
0	 7.555556e+00	 2.962963e+00	 1.009503e+01
0	 7.555556e+00	 3.037037e+00	 1.009668e+01
0	 7.555556e+00	 3.111111e+00	 1.009823e+01
0	 7.555556e+00	 3.185185e+00	 1.009968e+01
0	 7.555556e+00	 3.259259e+00	 1.010103e+01
0	 7.555556e+00	 3.333333e+00	 1.010228e+01
0	 7.629630e+00	 2.962963e+00	 1.008619e+01
0	 7.629630e+00	 3.037037e+00	 1.008790e+01
0	 7.629630e+00	 3.111111e+00	 1.008951e+01
0	 7.629630e+00	 3.185185e+00	 1.009102e+01
0	 7.629630e+00	 3.259259e+00	 1.009244e+01
0	 7.629630e+00	 3.333333e+00	 1.009377e+01
0	 7.703704e+00	 2.962963e+00	 1.007741e+01
0	 7.703704e+00	 3.037037e+00	 1.007918e+01
0	 7.703704e+00	 3.111111e+00	 1.008085e+01
0	 7.703704e+00	 3.185185e+00	 1.008243e+01
0	 7.703704e+00	 3.259259e+00	 1.008393e+01
0	 7.703704e+00	 3.333333e+00	 1.008534e+01
0	 7.777778e+00	 2.962963e+00	 1.006869e+01
0	 7.777778e+00	 3.037037e+00	 1.007052e+01
0	 7.777778e+00	 3.111111e+00	 1.007226e+01
0	 7.777778e+00	 3.185185e+00	 1.007391e+01
0	 7.777778e+00	 3.259259e+00	 1.007548e+01
0	 7.777778e+00	 3.333333e+00	 1.007696e+01
0	 7.407407e+00	 3.333333e+00	 1.011953e+01
0	 7.407407e+00	 3.407407e+00	 1.012051e+01
0	 7.407407e+00	 3.481481e+00	 1.012138e+01
0	 7.407407e+00	 3.555556e+00	 1.012212e+01
0	 7.407407e+00	 3.629630e+00	 1.012275e+01
0	 7.407407e+00	 3.703704e+00	 1.012326e+01
0	 7.481481e+00	 3.333333e+00	 1.011086e+01
0	 7.481481e+00	 3.407407e+00	 1.011193e+01
0	 7.481481e+00	 3.481481e+00	 1.011288e+01
0	 7.481481e+00	 3.555556e+00	 1.011372e+01
0	 7.481481e+00	 3.629630e+00	 1.011445e+01
0	 7.481481e+00	 3.703704e+00	 1.011506e+01
0	 7.555556e+00	 3.333333e+00	 1.010228e+01
0	 7.555556e+00	 3.407407e+00	 1.010343e+01
0	 7.555556e+00	 3.481481e+00	 1.010447e+01
0	 7.555556e+00	 3.555556e+00	 1.010540e+01
0	 7.555556e+00	 3.629630e+00	 1.010623e+01
0	 7.555556e+00	 3.703704e+00	 1.010694e+01
0	 7.629630e+00	 3.333333e+00	 1.009377e+01
0	 7.629630e+00	 3.407407e+00	 1.009501e+01
0	 7.629630e+00	 3.481481e+00	 1.009613e+01
0	 7.629630e+00	 3.555556e+00	 1.009716e+01
0	 7.629630e+00	 3.629630e+00	 1.009807e+01
0	 7.629630e+00	 3.703704e+00	 1.009889e+01
0	 7.703704e+00	 3.333333e+00	 1.008534e+01
0	 7.703704e+00	 3.407407e+00	 1.008665e+01
0	 7.703704e+00	 3.481481e+00	 1.008787e+01
0	 7.703704e+00	 3.555556e+00	 1.008898e+01
0	 7.703704e+00	 3.629630e+00	 1.008999e+01
0	 7.703704e+00	 3.703704e+00	 1.009091e+01
0	 7.777778e+00	 3.333333e+00	 1.007696e+01
0	 7.777778e+00	 3.407407e+00	 1.007836e+01
0	 7.777778e+00	 3.481481e+00	 1.007967e+01
0	 7.777778e+00	 3.555556e+00	 1.008087e+01
0	 7.777778e+00	 3.629630e+00	 1.008198e+01
0	 7.777778e+00	 3.703704e+00	 1.008300e+01
0	 7.407407e+00	 3.703704e+00	 1.012326e+01
0	 7.407407e+00	 3.777778e+00	 1.012366e+01
0	 7.407407e+00	 3.851852e+00	 1.012394e+01
0	 7.407407e+00	 3.925926e+00	 1.012410e+01
0	 7.407407e+00	 4.000000e+00	 1.012415e+01
0	 7.407407e+00	 4.074074e+00	 1.012408e+01
0	 7.481481e+00	 3.703704e+00	 1.011506e+01
0	 7.481481e+00	 3.777778e+00	 1.011557e+01
0	 7.481481e+00	 3.851852e+00	 1.011596e+01
0	 7.481481e+00	 3.925926e+00	 1.011624e+01
0	 7.481481e+00	 4.000000e+00	 1.011640e+01
0	 7.481481e+00	 4.074074e+00	 1.011645e+01
0	 7.555556e+00	 3.703704e+00	 1.010694e+01
0	 7.555556e+00	 3.777778e+00	 1.010755e+01
0	 7.555556e+00	 3.851852e+00	 1.010805e+01
0	 7.555556e+00	 3.925926e+00	 1.010844e+01
0	 7.555556e+00	 4.000000e+00	 1.010872e+01
0	 7.555556e+00	 4.074074e+00	 1.010890e+01
0	 7.629630e+00	 3.703704e+00	 1.009889e+01
0	 7.629630e+00	 3.777778e+00	 1.009960e+01
0	 7.629630e+00	 3.851852e+00	 1.010021e+01
0	 7.629630e+00	 3.925926e+00	 1.010072e+01
0	 7.629630e+00	 4.000000e+00	 1.010112e+01
0	 7.629630e+00	 4.074074e+00	 1.010141e+01
0	 7.703704e+00	 3.703704e+00	 1.009091e+01
0	 7.703704e+00	 3.777778e+00	 1.009173e+01
0	 7.703704e+00	 3.851852e+00	 1.009245e+01
0	 7.703704e+00	 3.925926e+00	 1.009306e+01
0	 7.703704e+00	 4.000000e+00	 1.009357e+01
0	 7.703704e+00	 4.074074e+00	 1.009399e+01
0	 7.777778e+00	 3.703704e+00	 1.008300e+01
0	 7.777778e+00	 3.777778e+00	 1.008392e+01
0	 7.777778e+00	 3.851852e+00	 1.008475e+01
0	 7.777778e+00	 3.925926e+00	 1.008547e+01
0	 7.777778e+00	 4.000000e+00	 1.008610e+01
0	 7.777778e+00	 4.074074e+00	 1.008663e+01
0	 7.407407e+00	 4.074074e+00	 1.012408e+01
0	 7.407407e+00	 4.148148e+00	 1.012390e+01
0	 7.407407e+00	 4.222222e+00	 1.012361e+01
0	 7.407407e+00	 4.296296e+00	 1.012322e+01
0	 7.407407e+00	 4.370370e+00	 1.012272e+01
0	 7.407407e+00	 4.444444e+00	 1.012211e+01
0	 7.481481e+00	 4.074074e+00	 1.011645e+01
0	 7.481481e+00	 4.148148e+00	 1.011640e+01
0	 7.481481e+00	 4.222222e+00	 1.011624e+01
0	 7.481481e+00	 4.296296e+00	 1.011598e+01
0	 7.481481e+00	 4.370370e+00	 1.011562e+01
0	 7.481481e+00	 4.444444e+00	 1.011514e+01
0	 7.555556e+00	 4.074074e+00	 1.010890e+01
0	 7.555556e+00	 4.148148e+00	 1.010897e+01
0	 7.555556e+00	 4.222222e+00	 1.010894e+01
0	 7.555556e+00	 4.296296e+00	 1.010881e+01
0	 7.555556e+00	 4.370370e+00	 1.010857e+01
0	 7.555556e+00	 4.444444e+00	 1.010823e+01
0	 7.629630e+00	 4.074074e+00	 1.010141e+01
0	 7.629630e+00	 4.148148e+00	 1.010160e+01
0	 7.629630e+00	 4.222222e+00	 1.010169e+01
0	 7.629630e+00	 4.296296e+00	 1.010169e+01
0	 7.629630e+00	 4.370370e+00	 1.010158e+01
0	 7.629630e+00	 4.444444e+00	 1.010138e+01
0	 7.703704e+00	 4.074074e+00	 1.009399e+01
0	 7.703704e+00	 4.148148e+00	 1.009430e+01
0	 7.703704e+00	 4.222222e+00	 1.009452e+01
0	 7.703704e+00	 4.296296e+00	 1.009464e+01
0	 7.703704e+00	 4.370370e+00	 1.009466e+01
0	 7.703704e+00	 4.444444e+00	 1.009458e+01
0	 7.777778e+00	 4.074074e+00	 1.008663e+01
0	 7.777778e+00	 4.148148e+00	 1.008706e+01
0	 7.777778e+00	 4.222222e+00	 1.008740e+01
0	 7.777778e+00	 4.296296e+00	 1.008765e+01
0	 7.777778e+00	 4.370370e+00	 1.008780e+01
0	 7.777778e+00	 4.444444e+00	 1.008785e+01
0	 7.407407e+00	 4.444444e+00	 1.012211e+01
0	 7.407407e+00	 4.518519e+00	 1.012140e+01
0	 7.407407e+00	 4.592593e+00	 1.012060e+01
0	 7.407407e+00	 4.666667e+00	 1.011971e+01
0	 7.407407e+00	 4.740741e+00	 1.011872e+01
0	 7.407407e+00	 4.814815e+00	 1.011764e+01
0	 7.481481e+00	 4.444444e+00	 1.011514e+01
0	 7.481481e+00	 4.518519e+00	 1.011457e+01
0	 7.481481e+00	 4.592593e+00	 1.011391e+01
0	 7.481481e+00	 4.666667e+00	 1.011316e+01
0	 7.481481e+00	 4.740741e+00	 1.011232e+01
0	 7.481481e+00	 4.814815e+00	 1.011138e+01
0	 7.555556e+00	 4.444444e+00	 1.010823e+01
0	 7.555556e+00	 4.518519e+00	 1.010780e+01
0	 7.555556e+00	 4.592593e+00	 1.010728e+01
0	 7.555556e+00	 4.666667e+00	 1.010666e+01
0	 7.555556e+00	 4.740741e+00	 1.010596e+01
0	 7.555556e+00	 4.814815e+00	 1.010516e+01
0	 7.629630e+00	 4.444444e+00	 1.010138e+01
0	 7.629630e+00	 4.518519e+00	 1.010108e+01
0	 7.629630e+00	 4.592593e+00	 1.010069e+01
0	 7.629630e+00	 4.666667e+00	 1.010021e+01
0	 7.629630e+00	 4.740741e+00	 1.009965e+01
0	 7.629630e+00	 4.814815e+00	 1.009899e+01
0	 7.703704e+00	 4.444444e+00	 1.009458e+01
0	 7.703704e+00	 4.518519e+00	 1.009441e+01
0	 7.703704e+00	 4.592593e+00	 1.009416e+01
0	 7.703704e+00	 4.666667e+00	 1.009382e+01
0	 7.703704e+00	 4.740741e+00	 1.009339e+01
0	 7.703704e+00	 4.814815e+00	 1.009286e+01
0	 7.777778e+00	 4.444444e+00	 1.008785e+01
0	 7.777778e+00	 4.518519e+00	 1.008781e+01
0	 7.777778e+00	 4.592593e+00	 1.008769e+01
0	 7.777778e+00	 4.666667e+00	 1.008748e+01
0	 7.777778e+00	 4.740741e+00	 1.008718e+01
0	 7.777778e+00	 4.814815e+00	 1.008680e+01
0	 7.407407e+00	 4.814815e+00	 1.011764e+01
0	 7.407407e+00	 4.888889e+00	 1.011647e+01
0	 7.407407e+00	 4.962963e+00	 1.011523e+01
0	 7.407407e+00	 5.037037e+00	 1.011391e+01
0	 7.407407e+00	 5.111111e+00	 1.011251e+01
0	 7.407407e+00	 5.185185e+00	 1.011103e+01
0	 7.481481e+00	 4.814815e+00	 1.011138e+01
0	 7.481481e+00	 4.888889e+00	 1.011035e+01
0	 7.481481e+00	 4.962963e+00	 1.010926e+01
0	 7.481481e+00	 5.037037e+00	 1.010808e+01
0	 7.481481e+00	 5.111111e+00	 1.010683e+01
0	 7.481481e+00	 5.185185e+00	 1.010550e+01
0	 7.555556e+00	 4.814815e+00	 1.010516e+01
0	 7.555556e+00	 4.888889e+00	 1.010428e+01
0	 7.555556e+00	 4.962963e+00	 1.010332e+01
0	 7.555556e+00	 5.037037e+00	 1.010229e+01
0	 7.555556e+00	 5.111111e+00	 1.010118e+01
0	 7.555556e+00	 5.185185e+00	 1.009999e+01
0	 7.629630e+00	 4.814815e+00	 1.009899e+01
0	 7.629630e+00	 4.888889e+00	 1.009824e+01
0	 7.629630e+00	 4.962963e+00	 1.009743e+01
0	 7.629630e+00	 5.037037e+00	 1.009654e+01
0	 7.629630e+00	 5.111111e+00	 1.009557e+01
0	 7.629630e+00	 5.185185e+00	 1.009452e+01
0	 7.703704e+00	 4.814815e+00	 1.009286e+01
0	 7.703704e+00	 4.888889e+00	 1.009226e+01
0	 7.703704e+00	 4.962963e+00	 1.009158e+01
0	 7.703704e+00	 5.037037e+00	 1.009083e+01
0	 7.703704e+00	 5.111111e+00	 1.009000e+01
0	 7.703704e+00	 5.185185e+00	 1.008909e+01
0	 7.777778e+00	 4.814815e+00	 1.008680e+01
0	 7.777778e+00	 4.888889e+00	 1.008633e+01
0	 7.777778e+00	 4.962963e+00	 1.008579e+01
0	 7.777778e+00	 5.037037e+00	 1.008517e+01
0	 7.777778e+00	 5.111111e+00	 1.008448e+01
0	 7.777778e+00	 5.185185e+00	 1.008371e+01
0	 7.407407e+00	 5.185185e+00	 1.011103e+01
0	 7.407407e+00	 5.259259e+00	 1.010949e+01
0	 7.407407e+00	 5.333333e+00	 1.010788e+01
0	 7.407407e+00	 5.407407e+00	 1.010622e+01
0	 7.407407e+00	 5.481481e+00	 1.010449e+01
0	 7.407407e+00	 5.555556e+00	 1.010270e+01
0	 7.481481e+00	 5.185185e+00	 1.010550e+01
0	 7.481481e+00	 5.259259e+00	 1.010409e+01
0	 7.481481e+00	 5.333333e+00	 1.010263e+01
0	 7.481481e+00	 5.407407e+00	 1.010112e+01
0	 7.481481e+00	 5.481481e+00	 1.009953e+01
0	 7.481481e+00	 5.555556e+00	 1.009789e+01
0	 7.555556e+00	 5.185185e+00	 1.009999e+01
0	 7.555556e+00	 5.259259e+00	 1.009873e+01
0	 7.555556e+00	 5.333333e+00	 1.009741e+01
0	 7.555556e+00	 5.407407e+00	 1.009603e+01
0	 7.555556e+00	 5.481481e+00	 1.009459e+01
0	 7.555556e+00	 5.555556e+00	 1.009309e+01
0	 7.629630e+00	 5.185185e+00	 1.009452e+01
0	 7.629630e+00	 5.259259e+00	 1.009340e+01
0	 7.629630e+00	 5.333333e+00	 1.009222e+01
0	 7.629630e+00	 5.407407e+00	 1.009098e+01
0	 7.629630e+00	 5.481481e+00	 1.008968e+01
0	 7.629630e+00	 5.555556e+00	 1.008831e+01
0	 7.703704e+00	 5.185185e+00	 1.008909e+01
0	 7.703704e+00	 5.259259e+00	 1.008811e+01
0	 7.703704e+00	 5.333333e+00	 1.008707e+01
0	 7.703704e+00	 5.407407e+00	 1.008597e+01
0	 7.703704e+00	 5.481481e+00	 1.008480e+01
0	 7.703704e+00	 5.555556e+00	 1.008357e+01
0	 7.777778e+00	 5.185185e+00	 1.008371e+01
0	 7.777778e+00	 5.259259e+00	 1.008286e+01
0	 7.777778e+00	 5.333333e+00	 1.008196e+01
0	 7.777778e+00	 5.407407e+00	 1.008100e+01
0	 7.777778e+00	 5.481481e+00	 1.007997e+01
0	 7.777778e+00	 5.555556e+00	 1.007887e+01
0	 7.407407e+00	 5.555556e+00	 1.010270e+01
0	 7.407407e+00	 5.629630e+00	 1.010086e+01
0	 7.407407e+00	 5.703704e+00	 1.009898e+01
0	 7.407407e+00	 5.777778e+00	 1.009705e+01
0	 7.407407e+00	 5.851852e+00	 1.009508e+01
0	 7.407407e+00	 5.925926e+00	 1.009307e+01
0	 7.481481e+00	 5.555556e+00	 1.009789e+01
0	 7.481481e+00	 5.629630e+00	 1.009618e+01
0	 7.481481e+00	 5.703704e+00	 1.009444e+01
0	 7.481481e+00	 5.777778e+00	 1.009266e+01
0	 7.481481e+00	 5.851852e+00	 1.009082e+01
0	 7.481481e+00	 5.925926e+00	 1.008894e+01
0	 7.555556e+00	 5.555556e+00	 1.009309e+01
0	 7.555556e+00	 5.629630e+00	 1.009152e+01
0	 7.555556e+00	 5.703704e+00	 1.008992e+01
0	 7.555556e+00	 5.777778e+00	 1.008827e+01
0	 7.555556e+00	 5.851852e+00	 1.008657e+01
0	 7.555556e+00	 5.925926e+00	 1.008482e+01
0	 7.629630e+00	 5.555556e+00	 1.008831e+01
0	 7.629630e+00	 5.629630e+00	 1.008689e+01
0	 7.629630e+00	 5.703704e+00	 1.008542e+01
0	 7.629630e+00	 5.777778e+00	 1.008390e+01
0	 7.629630e+00	 5.851852e+00	 1.008234e+01
0	 7.629630e+00	 5.925926e+00	 1.008072e+01
0	 7.703704e+00	 5.555556e+00	 1.008357e+01
0	 7.703704e+00	 5.629630e+00	 1.008228e+01
0	 7.703704e+00	 5.703704e+00	 1.008095e+01
0	 7.703704e+00	 5.777778e+00	 1.007957e+01
0	 7.703704e+00	 5.851852e+00	 1.007813e+01
0	 7.703704e+00	 5.925926e+00	 1.007665e+01
0	 7.777778e+00	 5.555556e+00	 1.007887e+01
0	 7.777778e+00	 5.629630e+00	 1.007771e+01
0	 7.777778e+00	 5.703704e+00	 1.007651e+01
0	 7.777778e+00	 5.777778e+00	 1.007526e+01
0	 7.777778e+00	 5.851852e+00	 1.007396e+01
0	 7.777778e+00	 5.925926e+00	 1.007261e+01
0	 7.407407e+00	 5.925926e+00	 1.009307e+01
0	 7.407407e+00	 6.000000e+00	 1.009101e+01
0	 7.407407e+00	 6.074074e+00	 1.008893e+01
0	 7.407407e+00	 6.148148e+00	 1.008683e+01
0	 7.407407e+00	 6.222222e+00	 1.008469e+01
0	 7.407407e+00	 6.296296e+00	 1.008252e+01
0	 7.481481e+00	 5.925926e+00	 1.008894e+01
0	 7.481481e+00	 6.000000e+00	 1.008702e+01
0	 7.481481e+00	 6.074074e+00	 1.008507e+01
0	 7.481481e+00	 6.148148e+00	 1.008310e+01
0	 7.481481e+00	 6.222222e+00	 1.008109e+01
0	 7.481481e+00	 6.296296e+00	 1.007905e+01
0	 7.555556e+00	 5.925926e+00	 1.008482e+01
0	 7.555556e+00	 6.000000e+00	 1.008303e+01
0	 7.555556e+00	 6.074074e+00	 1.008122e+01
0	 7.555556e+00	 6.148148e+00	 1.007937e+01
0	 7.555556e+00	 6.222222e+00	 1.007749e+01
0	 7.555556e+00	 6.296296e+00	 1.007557e+01
0	 7.629630e+00	 5.925926e+00	 1.008072e+01
0	 7.629630e+00	 6.000000e+00	 1.007907e+01
0	 7.629630e+00	 6.074074e+00	 1.007738e+01
0	 7.629630e+00	 6.148148e+00	 1.007566e+01
0	 7.629630e+00	 6.222222e+00	 1.007391e+01
0	 7.629630e+00	 6.296296e+00	 1.007211e+01
0	 7.703704e+00	 5.925926e+00	 1.007665e+01
0	 7.703704e+00	 6.000000e+00	 1.007512e+01
0	 7.703704e+00	 6.074074e+00	 1.007356e+01
0	 7.703704e+00	 6.148148e+00	 1.007197e+01
0	 7.703704e+00	 6.222222e+00	 1.007034e+01
0	 7.703704e+00	 6.296296e+00	 1.006867e+01
0	 7.777778e+00	 5.925926e+00	 1.007261e+01
0	 7.777778e+00	 6.000000e+00	 1.007121e+01
0	 7.777778e+00	 6.074074e+00	 1.006978e+01
0	 7.777778e+00	 6.148148e+00	 1.006831e+01
0	 7.777778e+00	 6.222222e+00	 1.006680e+01
0	 7.777778e+00	 6.296296e+00	 1.006525e+01
0	 7.407407e+00	 6.296296e+00	 1.008252e+01
0	 7.407407e+00	 6.370370e+00	 1.008033e+01
0	 7.407407e+00	 6.444444e+00	 1.007813e+01
0	 7.407407e+00	 6.518519e+00	 1.007592e+01
0	 7.407407e+00	 6.592593e+00	 1.007369e+01
0	 7.407407e+00	 6.666667e+00	 1.007144e+01
0	 7.481481e+00	 6.296296e+00	 1.007905e+01
0	 7.481481e+00	 6.370370e+00	 1.007698e+01
0	 7.481481e+00	 6.444444e+00	 1.007490e+01
0	 7.481481e+00	 6.518519e+00	 1.007281e+01
0	 7.481481e+00	 6.592593e+00	 1.007070e+01
0	 7.481481e+00	 6.666667e+00	 1.006857e+01
0	 7.555556e+00	 6.296296e+00	 1.007557e+01
0	 7.555556e+00	 6.370370e+00	 1.007363e+01
0	 7.555556e+00	 6.444444e+00	 1.007168e+01
0	 7.555556e+00	 6.518519e+00	 1.006970e+01
0	 7.555556e+00	 6.592593e+00	 1.006771e+01
0	 7.555556e+00	 6.666667e+00	 1.006570e+01
0	 7.629630e+00	 6.296296e+00	 1.007211e+01
0	 7.629630e+00	 6.370370e+00	 1.007030e+01
0	 7.629630e+00	 6.444444e+00	 1.006846e+01
0	 7.629630e+00	 6.518519e+00	 1.006661e+01
0	 7.629630e+00	 6.592593e+00	 1.006473e+01
0	 7.629630e+00	 6.666667e+00	 1.006283e+01
0	 7.703704e+00	 6.296296e+00	 1.006867e+01
0	 7.703704e+00	 6.370370e+00	 1.006697e+01
0	 7.703704e+00	 6.444444e+00	 1.006526e+01
0	 7.703704e+00	 6.518519e+00	 1.006352e+01
0	 7.703704e+00	 6.592593e+00	 1.006176e+01
0	 7.703704e+00	 6.666667e+00	 1.005997e+01
0	 7.777778e+00	 6.296296e+00	 1.006525e+01
0	 7.777778e+00	 6.370370e+00	 1.006368e+01
0	 7.777778e+00	 6.444444e+00	 1.006208e+01
0	 7.777778e+00	 6.518519e+00	 1.006046e+01
0	 7.777778e+00	 6.592593e+00	 1.005881e+01
0	 7.777778e+00	 6.666667e+00	 1.005714e+01
0	 7.407407e+00	 6.666667e+00	 1.007144e+01
0	 7.407407e+00	 6.740741e+00	 1.006918e+01
0	 7.407407e+00	 6.814815e+00	 1.006693e+01
0	 7.407407e+00	 6.888889e+00	 1.006468e+01
0	 7.407407e+00	 6.962963e+00	 1.006242e+01
0	 7.407407e+00	 7.037037e+00	 1.006016e+01
0	 7.481481e+00	 6.666667e+00	 1.006857e+01
0	 7.481481e+00	 6.740741e+00	 1.006643e+01
0	 7.481481e+00	 6.814815e+00	 1.006428e+01
0	 7.481481e+00	 6.888889e+00	 1.006214e+01
0	 7.481481e+00	 6.962963e+00	 1.005999e+01
0	 7.481481e+00	 7.037037e+00	 1.005784e+01
0	 7.555556e+00	 6.666667e+00	 1.006570e+01
0	 7.555556e+00	 6.740741e+00	 1.006367e+01
0	 7.555556e+00	 6.814815e+00	 1.006164e+01
0	 7.555556e+00	 6.888889e+00	 1.005960e+01
0	 7.555556e+00	 6.962963e+00	 1.005756e+01
0	 7.555556e+00	 7.037037e+00	 1.005551e+01
0	 7.629630e+00	 6.666667e+00	 1.006283e+01
0	 7.629630e+00	 6.740741e+00	 1.006091e+01
0	 7.629630e+00	 6.814815e+00	 1.005899e+01
0	 7.629630e+00	 6.888889e+00	 1.005707e+01
0	 7.629630e+00	 6.962963e+00	 1.005514e+01
0	 7.629630e+00	 7.037037e+00	 1.005319e+01
0	 7.703704e+00	 6.666667e+00	 1.005997e+01
0	 7.703704e+00	 6.740741e+00	 1.005817e+01
0	 7.703704e+00	 6.814815e+00	 1.005636e+01
0	 7.703704e+00	 6.888889e+00	 1.005454e+01
0	 7.703704e+00	 6.962963e+00	 1.005272e+01
0	 7.703704e+00	 7.037037e+00	 1.005087e+01
0	 7.777778e+00	 6.666667e+00	 1.005714e+01
0	 7.777778e+00	 6.740741e+00	 1.005545e+01
0	 7.777778e+00	 6.814815e+00	 1.005374e+01
0	 7.777778e+00	 6.888889e+00	 1.005203e+01
0	 7.777778e+00	 6.962963e+00	 1.005031e+01
0	 7.777778e+00	 7.037037e+00	 1.004857e+01
0	 7.407407e+00	 7.037037e+00	 1.006016e+01
0	 7.407407e+00	 7.111111e+00	 1.005790e+01
0	 7.407407e+00	 7.185185e+00	 1.005566e+01
0	 7.407407e+00	 7.259259e+00	 1.005343e+01
0	 7.407407e+00	 7.333333e+00	 1.005121e+01
0	 7.407407e+00	 7.407407e+00	 1.004900e+01
0	 7.481481e+00	 7.037037e+00	 1.005784e+01
0	 7.481481e+00	 7.111111e+00	 1.005568e+01
0	 7.481481e+00	 7.185185e+00	 1.005354e+01
0	 7.481481e+00	 7.259259e+00	 1.005141e+01
0	 7.481481e+00	 7.333333e+00	 1.004929e+01
0	 7.481481e+00	 7.407407e+00	 1.004717e+01
0	 7.555556e+00	 7.037037e+00	 1.005551e+01
0	 7.555556e+00	 7.111111e+00	 1.005346e+01
0	 7.555556e+00	 7.185185e+00	 1.005142e+01
0	 7.555556e+00	 7.259259e+00	 1.004939e+01
0	 7.555556e+00	 7.333333e+00	 1.004736e+01
0	 7.555556e+00	 7.407407e+00	 1.004534e+01
0	 7.629630e+00	 7.037037e+00	 1.005319e+01
0	 7.629630e+00	 7.111111e+00	 1.005124e+01
0	 7.629630e+00	 7.185185e+00	 1.004930e+01
0	 7.629630e+00	 7.259259e+00	 1.004737e+01
0	 7.629630e+00	 7.333333e+00	 1.004544e+01
0	 7.629630e+00	 7.407407e+00	 1.004351e+01
0	 7.703704e+00	 7.037037e+00	 1.005087e+01
0	 7.703704e+00	 7.111111e+00	 1.004903e+01
0	 7.703704e+00	 7.185185e+00	 1.004719e+01
0	 7.703704e+00	 7.259259e+00	 1.004535e+01
0	 7.703704e+00	 7.333333e+00	 1.004352e+01
0	 7.703704e+00	 7.407407e+00	 1.004168e+01
0	 7.777778e+00	 7.037037e+00	 1.004857e+01
0	 7.777778e+00	 7.111111e+00	 1.004683e+01
0	 7.777778e+00	 7.185185e+00	 1.004509e+01
0	 7.777778e+00	 7.259259e+00	 1.004335e+01
0	 7.777778e+00	 7.333333e+00	 1.004160e+01
0	 7.777778e+00	 7.407407e+00	 1.003986e+01
0	 7.407407e+00	 7.407407e+00	 1.004900e+01
0	 7.407407e+00	 7.481481e+00	 1.004680e+01
0	 7.407407e+00	 7.555556e+00	 1.004463e+01
0	 7.407407e+00	 7.629630e+00	 1.004248e+01
0	 7.407407e+00	 7.703704e+00	 1.004035e+01
0	 7.407407e+00	 7.777778e+00	 1.003824e+01
0	 7.481481e+00	 7.407407e+00	 1.004717e+01
0	 7.481481e+00	 7.481481e+00	 1.004506e+01
0	 7.481481e+00	 7.555556e+00	 1.004298e+01
0	 7.481481e+00	 7.629630e+00	 1.004092e+01
0	 7.481481e+00	 7.703704e+00	 1.003888e+01
0	 7.481481e+00	 7.777778e+00	 1.003685e+01
0	 7.555556e+00	 7.407407e+00	 1.004534e+01
0	 7.555556e+00	 7.481481e+00	 1.004332e+01
0	 7.555556e+00	 7.555556e+00	 1.004133e+01
0	 7.555556e+00	 7.629630e+00	 1.003936e+01
0	 7.555556e+00	 7.703704e+00	 1.003740e+01
0	 7.555556e+00	 7.777778e+00	 1.003546e+01
0	 7.629630e+00	 7.407407e+00	 1.004351e+01
0	 7.629630e+00	 7.481481e+00	 1.004158e+01
0	 7.629630e+00	 7.555556e+00	 1.003968e+01
0	 7.629630e+00	 7.629630e+00	 1.003780e+01
0	 7.629630e+00	 7.703704e+00	 1.003593e+01
0	 7.629630e+00	 7.777778e+00	 1.003407e+01
0	 7.703704e+00	 7.407407e+00	 1.004168e+01
0	 7.703704e+00	 7.481481e+00	 1.003985e+01
0	 7.703704e+00	 7.555556e+00	 1.003804e+01
0	 7.703704e+00	 7.629630e+00	 1.003624e+01
0	 7.703704e+00	 7.703704e+00	 1.003445e+01
0	 7.703704e+00	 7.777778e+00	 1.003268e+01
0	 7.777778e+00	 7.407407e+00	 1.003986e+01
0	 7.777778e+00	 7.481481e+00	 1.003812e+01
0	 7.777778e+00	 7.555556e+00	 1.003640e+01
0	 7.777778e+00	 7.629630e+00	 1.003469e+01
0	 7.777778e+00	 7.703704e+00	 1.003299e+01
0	 7.777778e+00	 7.777778e+00	 1.003129e+01
0	 7.407407e+00	 7.777778e+00	 1.003824e+01
0	 7.407407e+00	 7.851852e+00	 1.003616e+01
0	 7.407407e+00	 7.925926e+00	 1.003412e+01
0	 7.407407e+00	 8.000000e+00	 1.003211e+01
0	 7.407407e+00	 8.074074e+00	 1.003013e+01
0	 7.407407e+00	 8.148148e+00	 1.002819e+01
0	 7.481481e+00	 7.777778e+00	 1.003685e+01
0	 7.481481e+00	 7.851852e+00	 1.003485e+01
0	 7.481481e+00	 7.925926e+00	 1.003289e+01
0	 7.481481e+00	 8.000000e+00	 1.003096e+01
0	 7.481481e+00	 8.074074e+00	 1.002906e+01
0	 7.481481e+00	 8.148148e+00	 1.002719e+01
0	 7.555556e+00	 7.777778e+00	 1.003546e+01
0	 7.555556e+00	 7.851852e+00	 1.003354e+01
0	 7.555556e+00	 7.925926e+00	 1.003166e+01
0	 7.555556e+00	 8.000000e+00	 1.002981e+01
0	 7.555556e+00	 8.074074e+00	 1.002798e+01
0	 7.555556e+00	 8.148148e+00	 1.002618e+01
0	 7.629630e+00	 7.777778e+00	 1.003407e+01
0	 7.629630e+00	 7.851852e+00	 1.003223e+01
0	 7.629630e+00	 7.925926e+00	 1.003043e+01
0	 7.629630e+00	 8.000000e+00	 1.002865e+01
0	 7.629630e+00	 8.074074e+00	 1.002690e+01
0	 7.629630e+00	 8.148148e+00	 1.002517e+01
0	 7.703704e+00	 7.777778e+00	 1.003268e+01
0	 7.703704e+00	 7.851852e+00	 1.003092e+01
0	 7.703704e+00	 7.925926e+00	 1.002920e+01
0	 7.703704e+00	 8.000000e+00	 1.002750e+01
0	 7.703704e+00	 8.074074e+00	 1.002582e+01
0	 7.703704e+00	 8.148148e+00	 1.002417e+01
0	 7.777778e+00	 7.777778e+00	 1.003129e+01
0	 7.777778e+00	 7.851852e+00	 1.002962e+01
0	 7.777778e+00	 7.925926e+00	 1.002797e+01
0	 7.777778e+00	 8.000000e+00	 1.002635e+01
0	 7.777778e+00	 8.074074e+00	 1.002475e+01
0	 7.777778e+00	 8.148148e+00	 1.002316e+01
0	 7.407407e+00	 8.148148e+00	 1.002819e+01
0	 7.407407e+00	 8.222222e+00	 1.002628e+01
0	 7.407407e+00	 8.296296e+00	 1.002443e+01
0	 7.407407e+00	 8.370370e+00	 1.002262e+01
0	 7.407407e+00	 8.444444e+00	 1.002086e+01
0	 7.407407e+00	 8.518519e+00	 1.001914e+01
0	 7.481481e+00	 8.148148e+00	 1.002719e+01
0	 7.481481e+00	 8.222222e+00	 1.002535e+01
0	 7.481481e+00	 8.296296e+00	 1.002356e+01
0	 7.481481e+00	 8.370370e+00	 1.002182e+01
0	 7.481481e+00	 8.444444e+00	 1.002013e+01
0	 7.481481e+00	 8.518519e+00	 1.001847e+01
0	 7.555556e+00	 8.148148e+00	 1.002618e+01
0	 7.555556e+00	 8.222222e+00	 1.002442e+01
0	 7.555556e+00	 8.296296e+00	 1.002270e+01
0	 7.555556e+00	 8.370370e+00	 1.002102e+01
0	 7.555556e+00	 8.444444e+00	 1.001939e+01
0	 7.555556e+00	 8.518519e+00	 1.001779e+01
0	 7.629630e+00	 8.148148e+00	 1.002517e+01
0	 7.629630e+00	 8.222222e+00	 1.002348e+01
0	 7.629630e+00	 8.296296e+00	 1.002183e+01
0	 7.629630e+00	 8.370370e+00	 1.002022e+01
0	 7.629630e+00	 8.444444e+00	 1.001865e+01
0	 7.629630e+00	 8.518519e+00	 1.001711e+01
0	 7.703704e+00	 8.148148e+00	 1.002417e+01
0	 7.703704e+00	 8.222222e+00	 1.002254e+01
0	 7.703704e+00	 8.296296e+00	 1.002096e+01
0	 7.703704e+00	 8.370370e+00	 1.001942e+01
0	 7.703704e+00	 8.444444e+00	 1.001791e+01
0	 7.703704e+00	 8.518519e+00	 1.001644e+01
0	 7.777778e+00	 8.148148e+00	 1.002316e+01
0	 7.777778e+00	 8.222222e+00	 1.002161e+01
0	 7.777778e+00	 8.296296e+00	 1.002010e+01
0	 7.777778e+00	 8.370370e+00	 1.001862e+01
0	 7.777778e+00	 8.444444e+00	 1.001718e+01
0	 7.777778e+00	 8.518519e+00	 1.001577e+01
0	 7.407407e+00	 8.518519e+00	 1.001914e+01
0	 7.407407e+00	 8.592593e+00	 1.001747e+01
0	 7.407407e+00	 8.666667e+00	 1.001587e+01
0	 7.407407e+00	 8.740741e+00	 1.001432e+01
0	 7.407407e+00	 8.814815e+00	 1.001284e+01
0	 7.407407e+00	 8.888889e+00	 1.001141e+01
0	 7.481481e+00	 8.518519e+00	 1.001847e+01
0	 7.481481e+00	 8.592593e+00	 1.001686e+01
0	 7.481481e+00	 8.666667e+00	 1.001531e+01
0	 7.481481e+00	 8.740741e+00	 1.001382e+01
0	 7.481481e+00	 8.814815e+00	 1.001239e+01
0	 7.481481e+00	 8.888889e+00	 1.001101e+01
0	 7.555556e+00	 8.518519e+00	 1.001779e+01
0	 7.555556e+00	 8.592593e+00	 1.001624e+01
0	 7.555556e+00	 8.666667e+00	 1.001475e+01
0	 7.555556e+00	 8.740741e+00	 1.001332e+01
0	 7.555556e+00	 8.814815e+00	 1.001194e+01
0	 7.555556e+00	 8.888889e+00	 1.001061e+01
0	 7.629630e+00	 8.518519e+00	 1.001711e+01
0	 7.629630e+00	 8.592593e+00	 1.001562e+01
0	 7.629630e+00	 8.666667e+00	 1.001419e+01
0	 7.629630e+00	 8.740741e+00	 1.001281e+01
0	 7.629630e+00	 8.814815e+00	 1.001149e+01
0	 7.629630e+00	 8.888889e+00	 1.001021e+01
0	 7.703704e+00	 8.518519e+00	 1.001644e+01
0	 7.703704e+00	 8.592593e+00	 1.001501e+01
0	 7.703704e+00	 8.666667e+00	 1.001363e+01
0	 7.703704e+00	 8.740741e+00	 1.001231e+01
0	 7.703704e+00	 8.814815e+00	 1.001104e+01
0	 7.703704e+00	 8.888889e+00	 1.000981e+01
0	 7.777778e+00	 8.518519e+00	 1.001577e+01
0	 7.777778e+00	 8.592593e+00	 1.001440e+01
0	 7.777778e+00	 8.666667e+00	 1.001308e+01
0	 7.777778e+00	 8.740741e+00	 1.001181e+01
0	 7.777778e+00	 8.814815e+00	 1.001059e+01
0	 7.777778e+00	 8.888889e+00	 1.000941e+01
0	 7.407407e+00	 8.888889e+00	 1.001141e+01
0	 7.407407e+00	 8.962963e+00	 1.001005e+01
0	 7.407407e+00	 9.037037e+00	 1.000877e+01
0	 7.407407e+00	 9.111111e+00	 1.000757e+01
0	 7.407407e+00	 9.185185e+00	 1.000643e+01
0	 7.407407e+00	 9.259259e+00	 1.000537e+01
0	 7.481481e+00	 8.888889e+00	 1.001101e+01
0	 7.481481e+00	 8.962963e+00	 1.000970e+01
0	 7.481481e+00	 9.037037e+00	 1.000846e+01
0	 7.481481e+00	 9.111111e+00	 1.000730e+01
0	 7.481481e+00	 9.185185e+00	 1.000621e+01
0	 7.481481e+00	 9.259259e+00	 1.000518e+01
0	 7.555556e+00	 8.888889e+00	 1.001061e+01
0	 7.555556e+00	 8.962963e+00	 1.000935e+01
0	 7.555556e+00	 9.037037e+00	 1.000815e+01
0	 7.555556e+00	 9.111111e+00	 1.000703e+01
0	 7.555556e+00	 9.185185e+00	 1.000598e+01
0	 7.555556e+00	 9.259259e+00	 1.000499e+01
0	 7.629630e+00	 8.888889e+00	 1.001021e+01
0	 7.629630e+00	 8.962963e+00	 1.000899e+01
0	 7.629630e+00	 9.037037e+00	 1.000784e+01
0	 7.629630e+00	 9.111111e+00	 1.000677e+01
0	 7.629630e+00	 9.185185e+00	 1.000575e+01
0	 7.629630e+00	 9.259259e+00	 1.000480e+01
0	 7.703704e+00	 8.888889e+00	 1.000981e+01
0	 7.703704e+00	 8.962963e+00	 1.000864e+01
0	 7.703704e+00	 9.037037e+00	 1.000754e+01
0	 7.703704e+00	 9.111111e+00	 1.000650e+01
0	 7.703704e+00	 9.185185e+00	 1.000553e+01
0	 7.703704e+00	 9.259259e+00	 1.000461e+01
0	 7.777778e+00	 8.888889e+00	 1.000941e+01
0	 7.777778e+00	 8.962963e+00	 1.000829e+01
0	 7.777778e+00	 9.037037e+00	 1.000723e+01
0	 7.777778e+00	 9.111111e+00	 1.000624e+01
0	 7.777778e+00	 9.185185e+00	 1.000530e+01
0	 7.777778e+00	 9.259259e+00	 1.000443e+01
0	 7.407407e+00	 9.259259e+00	 1.000537e+01
0	 7.407407e+00	 9.333333e+00	 1.000439e+01
0	 7.407407e+00	 9.407407e+00	 1.000351e+01
0	 7.407407e+00	 9.481481e+00	 1.000273e+01
0	 7.407407e+00	 9.555556e+00	 1.000203e+01
0	 7.407407e+00	 9.629630e+00	 1.000142e+01
0	 7.481481e+00	 9.259259e+00	 1.000518e+01
0	 7.481481e+00	 9.333333e+00	 1.000424e+01
0	 7.481481e+00	 9.407407e+00	 1.000339e+01
0	 7.481481e+00	 9.481481e+00	 1.000263e+01
0	 7.481481e+00	 9.555556e+00	 1.000196e+01
0	 7.481481e+00	 9.629630e+00	 1.000137e+01
0	 7.555556e+00	 9.259259e+00	 1.000499e+01
0	 7.555556e+00	 9.333333e+00	 1.000408e+01
0	 7.555556e+00	 9.407407e+00	 1.000326e+01
0	 7.555556e+00	 9.481481e+00	 1.000253e+01
0	 7.555556e+00	 9.555556e+00	 1.000189e+01
0	 7.555556e+00	 9.629630e+00	 1.000132e+01
0	 7.629630e+00	 9.259259e+00	 1.000480e+01
0	 7.629630e+00	 9.333333e+00	 1.000393e+01
0	 7.629630e+00	 9.407407e+00	 1.000314e+01
0	 7.629630e+00	 9.481481e+00	 1.000244e+01
0	 7.629630e+00	 9.555556e+00	 1.000181e+01
0	 7.629630e+00	 9.629630e+00	 1.000127e+01
0	 7.703704e+00	 9.259259e+00	 1.000461e+01
0	 7.703704e+00	 9.333333e+00	 1.000377e+01
0	 7.703704e+00	 9.407407e+00	 1.000301e+01
0	 7.703704e+00	 9.481481e+00	 1.000234e+01
0	 7.703704e+00	 9.555556e+00	 1.000174e+01
0	 7.703704e+00	 9.629630e+00	 1.000122e+01
0	 7.777778e+00	 9.259259e+00	 1.000443e+01
0	 7.777778e+00	 9.333333e+00	 1.000362e+01
0	 7.777778e+00	 9.407407e+00	 1.000289e+01
0	 7.777778e+00	 9.481481e+00	 1.000225e+01
0	 7.777778e+00	 9.555556e+00	 1.000167e+01
0	 7.777778e+00	 9.629630e+00	 1.000117e+01
0	 7.407407e+00	 9.629630e+00	 1.000142e+01
0	 7.407407e+00	 9.703704e+00	 1.000091e+01
0	 7.407407e+00	 9.777778e+00	 1.000052e+01
0	 7.407407e+00	 9.851852e+00	 1.000024e+01
0	 7.407407e+00	 9.925926e+00	 1.000006e+01
0	 7.407407e+00	 1.000000e+01	 9.999990e+00
0	 7.481481e+00	 9.629630e+00	 1.000137e+01
0	 7.481481e+00	 9.703704e+00	 1.000088e+01
0	 7.481481e+00	 9.777778e+00	 1.000050e+01
0	 7.481481e+00	 9.851852e+00	 1.000023e+01
0	 7.481481e+00	 9.925926e+00	 1.000006e+01
0	 7.481481e+00	 1.000000e+01	 9.999993e+00
0	 7.555556e+00	 9.629630e+00	 1.000132e+01
0	 7.555556e+00	 9.703704e+00	 1.000085e+01
0	 7.555556e+00	 9.777778e+00	 1.000048e+01
0	 7.555556e+00	 9.851852e+00	 1.000022e+01
0	 7.555556e+00	 9.925926e+00	 1.000006e+01
0	 7.555556e+00	 1.000000e+01	 9.999992e+00
0	 7.629630e+00	 9.629630e+00	 1.000127e+01
0	 7.629630e+00	 9.703704e+00	 1.000081e+01
0	 7.629630e+00	 9.777778e+00	 1.000046e+01
0	 7.629630e+00	 9.851852e+00	 1.000021e+01
0	 7.629630e+00	 9.925926e+00	 1.000005e+01
0	 7.629630e+00	 1.000000e+01	 9.999990e+00
0	 7.703704e+00	 9.629630e+00	 1.000122e+01
0	 7.703704e+00	 9.703704e+00	 1.000078e+01
0	 7.703704e+00	 9.777778e+00	 1.000044e+01
0	 7.703704e+00	 9.851852e+00	 1.000020e+01
0	 7.703704e+00	 9.925926e+00	 1.000005e+01
0	 7.703704e+00	 1.000000e+01	 9.999989e+00
0	 7.777778e+00	 9.629630e+00	 1.000117e+01
0	 7.777778e+00	 9.703704e+00	 1.000075e+01
0	 7.777778e+00	 9.777778e+00	 1.000043e+01
0	 7.777778e+00	 9.851852e+00	 1.000020e+01
0	 7.777778e+00	 9.925926e+00	 1.000005e+01
0	 7.777778e+00	 1.000000e+01	 9.999992e+00
0	 7.777778e+00	 0.000000e+00	 9.997920e+00
0	 7.777778e+00	 7.407407e-02	 9.997996e+00
0	 7.777778e+00	 1.481481e-01	 9.998213e+00
0	 7.777778e+00	 2.222222e-01	 9.998574e+00
0	 7.777778e+00	 2.962963e-01	 9.999079e+00
0	 7.777778e+00	 3.703704e-01	 9.999730e+00
0	 7.851852e+00	 0.000000e+00	 9.989243e+00
0	 7.851852e+00	 7.407407e-02	 9.989318e+00
0	 7.851852e+00	 1.481481e-01	 9.989532e+00
0	 7.851852e+00	 2.222222e-01	 9.989887e+00
0	 7.851852e+00	 2.962963e-01	 9.990384e+00
0	 7.851852e+00	 3.703704e-01	 9.991025e+00
0	 7.925926e+00	 0.000000e+00	 9.980472e+00
0	 7.925926e+00	 7.407407e-02	 9.980545e+00
0	 7.925926e+00	 1.481481e-01	 9.980756e+00
0	 7.925926e+00	 2.222222e-01	 9.981106e+00
0	 7.925926e+00	 2.962963e-01	 9.981597e+00
0	 7.925926e+00	 3.703704e-01	 9.982228e+00
0	 8.000000e+00	 0.000000e+00	 9.971597e+00
0	 8.000000e+00	 7.407407e-02	 9.971668e+00
0	 8.000000e+00	 1.481481e-01	 9.971876e+00
0	 8.000000e+00	 2.222222e-01	 9.972222e+00
0	 8.000000e+00	 2.962963e-01	 9.972706e+00
0	 8.000000e+00	 3.703704e-01	 9.973331e+00
0	 8.074074e+00	 0.000000e+00	 9.962606e+00
0	 8.074074e+00	 7.407407e-02	 9.962676e+00
0	 8.074074e+00	 1.481481e-01	 9.962881e+00
0	 8.074074e+00	 2.222222e-01	 9.963223e+00
0	 8.074074e+00	 2.962963e-01	 9.963704e+00
0	 8.074074e+00	 3.703704e-01	 9.964323e+00
0	 8.148148e+00	 0.000000e+00	 9.953490e+00
0	 8.148148e+00	 7.407407e-02	 9.953558e+00
0	 8.148148e+00	 1.481481e-01	 9.953762e+00
0	 8.148148e+00	 2.222222e-01	 9.954102e+00
0	 8.148148e+00	 2.962963e-01	 9.954579e+00
0	 8.148148e+00	 3.703704e-01	 9.955195e+00
0	 7.777778e+00	 3.703704e-01	 9.999730e+00
0	 7.777778e+00	 4.444444e-01	 1.000052e+01
0	 7.777778e+00	 5.185185e-01	 1.000143e+01
0	 7.777778e+00	 5.925926e-01	 1.000247e+01
0	 7.777778e+00	 6.666667e-01	 1.000364e+01
0	 7.777778e+00	 7.407407e-01	 1.000496e+01
0	 7.851852e+00	 3.703704e-01	 9.991025e+00
0	 7.851852e+00	 4.444444e-01	 9.991798e+00
0	 7.851852e+00	 5.185185e-01	 9.992696e+00
0	 7.851852e+00	 5.925926e-01	 9.993722e+00
0	 7.851852e+00	 6.666667e-01	 9.994880e+00
0	 7.851852e+00	 7.407407e-01	 9.996172e+00
0	 7.925926e+00	 3.703704e-01	 9.982228e+00
0	 7.925926e+00	 4.444444e-01	 9.982992e+00
0	 7.925926e+00	 5.185185e-01	 9.983878e+00
0	 7.925926e+00	 5.925926e-01	 9.984892e+00
0	 7.925926e+00	 6.666667e-01	 9.986035e+00
0	 7.925926e+00	 7.407407e-01	 9.987312e+00
0	 8.000000e+00	 3.703704e-01	 9.973331e+00
0	 8.000000e+00	 4.444444e-01	 9.974086e+00
0	 8.000000e+00	 5.185185e-01	 9.974964e+00
0	 8.000000e+00	 5.925926e-01	 9.975968e+00
0	 8.000000e+00	 6.666667e-01	 9.977101e+00
0	 8.000000e+00	 7.407407e-01	 9.978365e+00
0	 8.074074e+00	 3.703704e-01	 9.964323e+00
0	 8.074074e+00	 4.444444e-01	 9.965072e+00
0	 8.074074e+00	 5.185185e-01	 9.965944e+00
0	 8.074074e+00	 5.925926e-01	 9.966941e+00
0	 8.074074e+00	 6.666667e-01	 9.968066e+00
0	 8.074074e+00	 7.407407e-01	 9.969321e+00
0	 8.148148e+00	 3.703704e-01	 9.955195e+00
0	 8.148148e+00	 4.444444e-01	 9.955940e+00
0	 8.148148e+00	 5.185185e-01	 9.956808e+00
0	 8.148148e+00	 5.925926e-01	 9.957800e+00
0	 8.148148e+00	 6.666667e-01	 9.958920e+00
0	 8.148148e+00	 7.407407e-01	 9.960170e+00
0	 7.777778e+00	 7.407407e-01	 1.000496e+01
0	 7.777778e+00	 8.148148e-01	 1.000638e+01
0	 7.777778e+00	 8.888889e-01	 1.000791e+01
0	 7.777778e+00	 9.629630e-01	 1.000954e+01
0	 7.777778e+00	 1.037037e+00	 1.001127e+01
0	 7.777778e+00	 1.111111e+00	 1.001312e+01
0	 7.851852e+00	 7.407407e-01	 9.996172e+00
0	 7.851852e+00	 8.148148e-01	 9.997580e+00
0	 7.851852e+00	 8.888889e-01	 9.999084e+00
0	 7.851852e+00	 9.629630e-01	 1.000069e+01
0	 7.851852e+00	 1.037037e+00	 1.000240e+01
0	 7.851852e+00	 1.111111e+00	 1.000423e+01
0	 7.925926e+00	 7.407407e-01	 9.987312e+00
0	 7.925926e+00	 8.148148e-01	 9.988703e+00
0	 7.925926e+00	 8.888889e-01	 9.990191e+00
0	 7.925926e+00	 9.629630e-01	 9.991780e+00
0	 7.925926e+00	 1.037037e+00	 9.993477e+00
0	 7.925926e+00	 1.111111e+00	 9.995285e+00
0	 8.000000e+00	 7.407407e-01	 9.978365e+00
0	 8.000000e+00	 8.148148e-01	 9.979743e+00
0	 8.000000e+00	 8.888889e-01	 9.981219e+00
0	 8.000000e+00	 9.629630e-01	 9.982796e+00
0	 8.000000e+00	 1.037037e+00	 9.984481e+00
0	 8.000000e+00	 1.111111e+00	 9.986276e+00
0	 8.074074e+00	 7.407407e-01	 9.969321e+00
0	 8.074074e+00	 8.148148e-01	 9.970690e+00
0	 8.074074e+00	 8.888889e-01	 9.972158e+00
0	 8.074074e+00	 9.629630e-01	 9.973727e+00
0	 8.074074e+00	 1.037037e+00	 9.975404e+00
0	 8.074074e+00	 1.111111e+00	 9.977192e+00
0	 8.148148e+00	 7.407407e-01	 9.960170e+00
0	 8.148148e+00	 8.148148e-01	 9.961534e+00
0	 8.148148e+00	 8.888889e-01	 9.962997e+00
0	 8.148148e+00	 9.629630e-01	 9.964563e+00
0	 8.148148e+00	 1.037037e+00	 9.966236e+00
0	 8.148148e+00	 1.111111e+00	 9.968021e+00
0	 7.777778e+00	 1.111111e+00	 1.001312e+01
0	 7.777778e+00	 1.185185e+00	 1.001505e+01
0	 7.777778e+00	 1.259259e+00	 1.001705e+01
0	 7.777778e+00	 1.333333e+00	 1.001911e+01
0	 7.777778e+00	 1.407407e+00	 1.002125e+01
0	 7.777778e+00	 1.481481e+00	 1.002347e+01
0	 7.851852e+00	 1.111111e+00	 1.000423e+01
0	 7.851852e+00	 1.185185e+00	 1.000614e+01
0	 7.851852e+00	 1.259259e+00	 1.000812e+01
0	 7.851852e+00	 1.333333e+00	 1.001016e+01
0	 7.851852e+00	 1.407407e+00	 1.001228e+01
0	 7.851852e+00	 1.481481e+00	 1.001448e+01
0	 7.925926e+00	 1.111111e+00	 9.995285e+00
0	 7.925926e+00	 1.185185e+00	 9.997181e+00
0	 7.925926e+00	 1.259259e+00	 9.999141e+00
0	 7.925926e+00	 1.333333e+00	 1.000117e+01
0	 7.925926e+00	 1.407407e+00	 1.000328e+01
0	 7.925926e+00	 1.481481e+00	 1.000547e+01
0	 8.000000e+00	 1.111111e+00	 9.986276e+00
0	 8.000000e+00	 1.185185e+00	 9.988160e+00
0	 8.000000e+00	 1.259259e+00	 9.990110e+00
0	 8.000000e+00	 1.333333e+00	 9.992131e+00
0	 8.000000e+00	 1.407407e+00	 9.994229e+00
0	 8.000000e+00	 1.481481e+00	 9.996410e+00
0	 8.074074e+00	 1.111111e+00	 9.977192e+00
0	 8.074074e+00	 1.185185e+00	 9.979068e+00
0	 8.074074e+00	 1.259259e+00	 9.981013e+00
0	 8.074074e+00	 1.333333e+00	 9.983030e+00
0	 8.074074e+00	 1.407407e+00	 9.985125e+00
0	 8.074074e+00	 1.481481e+00	 9.987304e+00
0	 8.148148e+00	 1.111111e+00	 9.968021e+00
0	 8.148148e+00	 1.185185e+00	 9.969895e+00
0	 8.148148e+00	 1.259259e+00	 9.971839e+00
0	 8.148148e+00	 1.333333e+00	 9.973858e+00
0	 8.148148e+00	 1.407407e+00	 9.975956e+00
0	 8.148148e+00	 1.481481e+00	 9.978138e+00
0	 7.777778e+00	 1.481481e+00	 1.002347e+01
0	 7.777778e+00	 1.555556e+00	 1.002574e+01
0	 7.777778e+00	 1.629630e+00	 1.002804e+01
0	 7.777778e+00	 1.703704e+00	 1.003036e+01
0	 7.777778e+00	 1.777778e+00	 1.003272e+01
0	 7.777778e+00	 1.851852e+00	 1.003512e+01
0	 7.851852e+00	 1.481481e+00	 1.001448e+01
0	 7.851852e+00	 1.555556e+00	 1.001674e+01
0	 7.851852e+00	 1.629630e+00	 1.001902e+01
0	 7.851852e+00	 1.703704e+00	 1.002133e+01
0	 7.851852e+00	 1.777778e+00	 1.002368e+01
0	 7.851852e+00	 1.851852e+00	 1.002607e+01
0	 7.925926e+00	 1.481481e+00	 1.000547e+01
0	 7.925926e+00	 1.555556e+00	 1.000771e+01
0	 7.925926e+00	 1.629630e+00	 1.000998e+01
0	 7.925926e+00	 1.703704e+00	 1.001229e+01
0	 7.925926e+00	 1.777778e+00	 1.001463e+01
0	 7.925926e+00	 1.851852e+00	 1.001702e+01
0	 8.000000e+00	 1.481481e+00	 9.996410e+00
0	 8.000000e+00	 1.555556e+00	 9.998648e+00
0	 8.000000e+00	 1.629630e+00	 1.000092e+01
0	 8.000000e+00	 1.703704e+00	 1.000322e+01
0	 8.000000e+00	 1.777778e+00	 1.000557e+01
0	 8.000000e+00	 1.851852e+00	 1.000797e+01
0	 8.074074e+00	 1.481481e+00	 9.987304e+00
0	 8.074074e+00	 1.555556e+00	 9.989542e+00
0	 8.074074e+00	 1.629630e+00	 9.991813e+00
0	 8.074074e+00	 1.703704e+00	 9.994124e+00
0	 8.074074e+00	 1.777778e+00	 9.996481e+00
0	 8.074074e+00	 1.851852e+00	 9.998888e+00
0	 8.148148e+00	 1.481481e+00	 9.978138e+00
0	 8.148148e+00	 1.555556e+00	 9.980381e+00
0	 8.148148e+00	 1.629630e+00	 9.982661e+00
0	 8.148148e+00	 1.703704e+00	 9.984984e+00
0	 8.148148e+00	 1.777778e+00	 9.987354e+00
0	 8.148148e+00	 1.851852e+00	 9.989777e+00
0	 7.777778e+00	 1.851852e+00	 1.003512e+01
0	 7.777778e+00	 1.925926e+00	 1.003753e+01
0	 7.777778e+00	 2.000000e+00	 1.003993e+01
0	 7.777778e+00	 2.074074e+00	 1.004232e+01
0	 7.777778e+00	 2.148148e+00	 1.004471e+01
0	 7.777778e+00	 2.222222e+00	 1.004710e+01
0	 7.851852e+00	 1.851852e+00	 1.002607e+01
0	 7.851852e+00	 1.925926e+00	 1.002848e+01
0	 7.851852e+00	 2.000000e+00	 1.003088e+01
0	 7.851852e+00	 2.074074e+00	 1.003328e+01
0	 7.851852e+00	 2.148148e+00	 1.003568e+01
0	 7.851852e+00	 2.222222e+00	 1.003808e+01
0	 7.925926e+00	 1.851852e+00	 1.001702e+01
0	 7.925926e+00	 1.925926e+00	 1.001944e+01
0	 7.925926e+00	 2.000000e+00	 1.002184e+01
0	 7.925926e+00	 2.074074e+00	 1.002425e+01
0	 7.925926e+00	 2.148148e+00	 1.002666e+01
0	 7.925926e+00	 2.222222e+00	 1.002908e+01
0	 8.000000e+00	 1.851852e+00	 1.000797e+01
0	 8.000000e+00	 1.925926e+00	 1.001039e+01
0	 8.000000e+00	 2.000000e+00	 1.001280e+01
0	 8.000000e+00	 2.074074e+00	 1.001522e+01
0	 8.000000e+00	 2.148148e+00	 1.001765e+01
0	 8.000000e+00	 2.222222e+00	 1.002010e+01
0	 8.074074e+00	 1.851852e+00	 9.998888e+00
0	 8.074074e+00	 1.925926e+00	 1.000132e+01
0	 8.074074e+00	 2.000000e+00	 1.000376e+01
0	 8.074074e+00	 2.074074e+00	 1.000620e+01
0	 8.074074e+00	 2.148148e+00	 1.000865e+01
0	 8.074074e+00	 2.222222e+00	 1.001112e+01
0	 8.148148e+00	 1.851852e+00	 9.989777e+00
0	 8.148148e+00	 1.925926e+00	 9.992228e+00
0	 8.148148e+00	 2.000000e+00	 9.994685e+00
0	 8.148148e+00	 2.074074e+00	 9.997151e+00
0	 8.148148e+00	 2.148148e+00	 9.999632e+00
0	 8.148148e+00	 2.222222e+00	 1.000213e+01
0	 7.777778e+00	 2.222222e+00	 1.004710e+01
0	 7.777778e+00	 2.296296e+00	 1.004948e+01
0	 7.777778e+00	 2.370370e+00	 1.005180e+01
0	 7.777778e+00	 2.444444e+00	 1.005409e+01
0	 7.777778e+00	 2.518519e+00	 1.005633e+01
0	 7.777778e+00	 2.592593e+00	 1.005855e+01
0	 7.851852e+00	 2.222222e+00	 1.003808e+01
0	 7.851852e+00	 2.296296e+00	 1.004047e+01
0	 7.851852e+00	 2.370370e+00	 1.004281e+01
0	 7.851852e+00	 2.444444e+00	 1.004512e+01
0	 7.851852e+00	 2.518519e+00	 1.004740e+01
0	 7.851852e+00	 2.592593e+00	 1.004965e+01
0	 7.925926e+00	 2.222222e+00	 1.002908e+01
0	 7.925926e+00	 2.296296e+00	 1.003149e+01
0	 7.925926e+00	 2.370370e+00	 1.003386e+01
0	 7.925926e+00	 2.444444e+00	 1.003620e+01
0	 7.925926e+00	 2.518519e+00	 1.003851e+01
0	 7.925926e+00	 2.592593e+00	 1.004079e+01
0	 8.000000e+00	 2.222222e+00	 1.002010e+01
0	 8.000000e+00	 2.296296e+00	 1.002253e+01
0	 8.000000e+00	 2.370370e+00	 1.002493e+01
0	 8.000000e+00	 2.444444e+00	 1.002730e+01
0	 8.000000e+00	 2.518519e+00	 1.002965e+01
0	 8.000000e+00	 2.592593e+00	 1.003197e+01
0	 8.074074e+00	 2.222222e+00	 1.001112e+01
0	 8.074074e+00	 2.296296e+00	 1.001358e+01
0	 8.074074e+00	 2.370370e+00	 1.001601e+01
0	 8.074074e+00	 2.444444e+00	 1.001842e+01
0	 8.074074e+00	 2.518519e+00	 1.002081e+01
0	 8.074074e+00	 2.592593e+00	 1.002319e+01
0	 8.148148e+00	 2.222222e+00	 1.000213e+01
0	 8.148148e+00	 2.296296e+00	 1.000463e+01
0	 8.148148e+00	 2.370370e+00	 1.000710e+01
0	 8.148148e+00	 2.444444e+00	 1.000956e+01
0	 8.148148e+00	 2.518519e+00	 1.001199e+01
0	 8.148148e+00	 2.592593e+00	 1.001442e+01
0	 7.777778e+00	 2.592593e+00	 1.005855e+01
0	 7.777778e+00	 2.666667e+00	 1.006071e+01
0	 7.777778e+00	 2.740741e+00	 1.006281e+01
0	 7.777778e+00	 2.814815e+00	 1.006483e+01
0	 7.777778e+00	 2.888889e+00	 1.006679e+01
0	 7.777778e+00	 2.962963e+00	 1.006869e+01
0	 7.851852e+00	 2.592593e+00	 1.004965e+01
0	 7.851852e+00	 2.666667e+00	 1.005185e+01
0	 7.851852e+00	 2.740741e+00	 1.005399e+01
0	 7.851852e+00	 2.814815e+00	 1.005606e+01
0	 7.851852e+00	 2.888889e+00	 1.005807e+01
0	 7.851852e+00	 2.962963e+00	 1.006003e+01
0	 7.925926e+00	 2.592593e+00	 1.004079e+01
0	 7.925926e+00	 2.666667e+00	 1.004304e+01
0	 7.925926e+00	 2.740741e+00	 1.004522e+01
0	 7.925926e+00	 2.814815e+00	 1.004734e+01
0	 7.925926e+00	 2.888889e+00	 1.004941e+01
0	 7.925926e+00	 2.962963e+00	 1.005143e+01
0	 8.000000e+00	 2.592593e+00	 1.003197e+01
0	 8.000000e+00	 2.666667e+00	 1.003426e+01
0	 8.000000e+00	 2.740741e+00	 1.003650e+01
0	 8.000000e+00	 2.814815e+00	 1.003868e+01
0	 8.000000e+00	 2.888889e+00	 1.004080e+01
0	 8.000000e+00	 2.962963e+00	 1.004288e+01
0	 8.074074e+00	 2.592593e+00	 1.002319e+01
0	 8.074074e+00	 2.666667e+00	 1.002553e+01
0	 8.074074e+00	 2.740741e+00	 1.002781e+01
0	 8.074074e+00	 2.814815e+00	 1.003005e+01
0	 8.074074e+00	 2.888889e+00	 1.003224e+01
0	 8.074074e+00	 2.962963e+00	 1.003439e+01
0	 8.148148e+00	 2.592593e+00	 1.001442e+01
0	 8.148148e+00	 2.666667e+00	 1.001681e+01
0	 8.148148e+00	 2.740741e+00	 1.001916e+01
0	 8.148148e+00	 2.814815e+00	 1.002146e+01
0	 8.148148e+00	 2.888889e+00	 1.002372e+01
0	 8.148148e+00	 2.962963e+00	 1.002594e+01
0	 7.777778e+00	 2.962963e+00	 1.006869e+01
0	 7.777778e+00	 3.037037e+00	 1.007052e+01
0	 7.777778e+00	 3.111111e+00	 1.007226e+01
0	 7.777778e+00	 3.185185e+00	 1.007391e+01
0	 7.777778e+00	 3.259259e+00	 1.007548e+01
0	 7.777778e+00	 3.333333e+00	 1.007696e+01
0	 7.851852e+00	 2.962963e+00	 1.006003e+01
0	 7.851852e+00	 3.037037e+00	 1.006192e+01
0	 7.851852e+00	 3.111111e+00	 1.006372e+01
0	 7.851852e+00	 3.185185e+00	 1.006545e+01
0	 7.851852e+00	 3.259259e+00	 1.006709e+01
0	 7.851852e+00	 3.333333e+00	 1.006866e+01
0	 7.925926e+00	 2.962963e+00	 1.005143e+01
0	 7.925926e+00	 3.037037e+00	 1.005338e+01
0	 7.925926e+00	 3.111111e+00	 1.005526e+01
0	 7.925926e+00	 3.185185e+00	 1.005705e+01
0	 7.925926e+00	 3.259259e+00	 1.005878e+01
0	 7.925926e+00	 3.333333e+00	 1.006043e+01
0	 8.000000e+00	 2.962963e+00	 1.004288e+01
0	 8.000000e+00	 3.037037e+00	 1.004491e+01
0	 8.000000e+00	 3.111111e+00	 1.004685e+01
0	 8.000000e+00	 3.185185e+00	 1.004872e+01
0	 8.000000e+00	 3.259259e+00	 1.005053e+01
0	 8.000000e+00	 3.333333e+00	 1.005226e+01
0	 8.074074e+00	 2.962963e+00	 1.003439e+01
0	 8.074074e+00	 3.037037e+00	 1.003648e+01
0	 8.074074e+00	 3.111111e+00	 1.003850e+01
0	 8.074074e+00	 3.185185e+00	 1.004045e+01
0	 8.074074e+00	 3.259259e+00	 1.004234e+01
0	 8.074074e+00	 3.333333e+00	 1.004416e+01
0	 8.148148e+00	 2.962963e+00	 1.002594e+01
0	 8.148148e+00	 3.037037e+00	 1.002810e+01
0	 8.148148e+00	 3.111111e+00	 1.003020e+01
0	 8.148148e+00	 3.185185e+00	 1.003223e+01
0	 8.148148e+00	 3.259259e+00	 1.003421e+01
0	 8.148148e+00	 3.333333e+00	 1.003612e+01
0	 7.777778e+00	 3.333333e+00	 1.007696e+01
0	 7.777778e+00	 3.407407e+00	 1.007836e+01
0	 7.777778e+00	 3.481481e+00	 1.007967e+01
0	 7.777778e+00	 3.555556e+00	 1.008087e+01
0	 7.777778e+00	 3.629630e+00	 1.008198e+01
0	 7.777778e+00	 3.703704e+00	 1.008300e+01
0	 7.851852e+00	 3.333333e+00	 1.006866e+01
0	 7.851852e+00	 3.407407e+00	 1.007014e+01
0	 7.851852e+00	 3.481481e+00	 1.007154e+01
0	 7.851852e+00	 3.555556e+00	 1.007283e+01
0	 7.851852e+00	 3.629630e+00	 1.007404e+01
0	 7.851852e+00	 3.703704e+00	 1.007516e+01
0	 7.925926e+00	 3.333333e+00	 1.006043e+01
0	 7.925926e+00	 3.407407e+00	 1.006200e+01
0	 7.925926e+00	 3.481481e+00	 1.006348e+01
0	 7.925926e+00	 3.555556e+00	 1.006487e+01
0	 7.925926e+00	 3.629630e+00	 1.006618e+01
0	 7.925926e+00	 3.703704e+00	 1.006740e+01
0	 8.000000e+00	 3.333333e+00	 1.005226e+01
0	 8.000000e+00	 3.407407e+00	 1.005392e+01
0	 8.000000e+00	 3.481481e+00	 1.005549e+01
0	 8.000000e+00	 3.555556e+00	 1.005698e+01
0	 8.000000e+00	 3.629630e+00	 1.005838e+01
0	 8.000000e+00	 3.703704e+00	 1.005970e+01
0	 8.074074e+00	 3.333333e+00	 1.004416e+01
0	 8.074074e+00	 3.407407e+00	 1.004591e+01
0	 8.074074e+00	 3.481481e+00	 1.004757e+01
0	 8.074074e+00	 3.555556e+00	 1.004916e+01
0	 8.074074e+00	 3.629630e+00	 1.005066e+01
0	 8.074074e+00	 3.703704e+00	 1.005209e+01
0	 8.148148e+00	 3.333333e+00	 1.003612e+01
0	 8.148148e+00	 3.407407e+00	 1.003796e+01
0	 8.148148e+00	 3.481481e+00	 1.003972e+01
0	 8.148148e+00	 3.555556e+00	 1.004140e+01
0	 8.148148e+00	 3.629630e+00	 1.004301e+01
0	 8.148148e+00	 3.703704e+00	 1.004454e+01
0	 7.777778e+00	 3.703704e+00	 1.008300e+01
0	 7.777778e+00	 3.777778e+00	 1.008392e+01
0	 7.777778e+00	 3.851852e+00	 1.008475e+01
0	 7.777778e+00	 3.925926e+00	 1.008547e+01
0	 7.777778e+00	 4.000000e+00	 1.008610e+01
0	 7.777778e+00	 4.074074e+00	 1.008663e+01
0	 7.851852e+00	 3.703704e+00	 1.007516e+01
0	 7.851852e+00	 3.777778e+00	 1.007619e+01
0	 7.851852e+00	 3.851852e+00	 1.007712e+01
0	 7.851852e+00	 3.925926e+00	 1.007796e+01
0	 7.851852e+00	 4.000000e+00	 1.007870e+01
0	 7.851852e+00	 4.074074e+00	 1.007934e+01
0	 7.925926e+00	 3.703704e+00	 1.006740e+01
0	 7.925926e+00	 3.777778e+00	 1.006853e+01
0	 7.925926e+00	 3.851852e+00	 1.006957e+01
0	 7.925926e+00	 3.925926e+00	 1.007051e+01
0	 7.925926e+00	 4.000000e+00	 1.007137e+01
0	 7.925926e+00	 4.074074e+00	 1.007213e+01
0	 8.000000e+00	 3.703704e+00	 1.005970e+01
0	 8.000000e+00	 3.777778e+00	 1.006094e+01
0	 8.000000e+00	 3.851852e+00	 1.006209e+01
0	 8.000000e+00	 3.925926e+00	 1.006315e+01
0	 8.000000e+00	 4.000000e+00	 1.006412e+01
0	 8.000000e+00	 4.074074e+00	 1.006499e+01
0	 8.074074e+00	 3.703704e+00	 1.005209e+01
0	 8.074074e+00	 3.777778e+00	 1.005343e+01
0	 8.074074e+00	 3.851852e+00	 1.005469e+01
0	 8.074074e+00	 3.925926e+00	 1.005586e+01
0	 8.074074e+00	 4.000000e+00	 1.005694e+01
0	 8.074074e+00	 4.074074e+00	 1.005794e+01
0	 8.148148e+00	 3.703704e+00	 1.004454e+01
0	 8.148148e+00	 3.777778e+00	 1.004599e+01
0	 8.148148e+00	 3.851852e+00	 1.004736e+01
0	 8.148148e+00	 3.925926e+00	 1.004864e+01
0	 8.148148e+00	 4.000000e+00	 1.004984e+01
0	 8.148148e+00	 4.074074e+00	 1.005095e+01
0	 7.777778e+00	 4.074074e+00	 1.008663e+01
0	 7.777778e+00	 4.148148e+00	 1.008706e+01
0	 7.777778e+00	 4.222222e+00	 1.008740e+01
0	 7.777778e+00	 4.296296e+00	 1.008765e+01
0	 7.777778e+00	 4.370370e+00	 1.008780e+01
0	 7.777778e+00	 4.444444e+00	 1.008785e+01
0	 7.851852e+00	 4.074074e+00	 1.007934e+01
0	 7.851852e+00	 4.148148e+00	 1.007990e+01
0	 7.851852e+00	 4.222222e+00	 1.008036e+01
0	 7.851852e+00	 4.296296e+00	 1.008073e+01
0	 7.851852e+00	 4.370370e+00	 1.008100e+01
0	 7.851852e+00	 4.444444e+00	 1.008118e+01
0	 7.925926e+00	 4.074074e+00	 1.007213e+01
0	 7.925926e+00	 4.148148e+00	 1.007280e+01
0	 7.925926e+00	 4.222222e+00	 1.007339e+01
0	 7.925926e+00	 4.296296e+00	 1.007388e+01
0	 7.925926e+00	 4.370370e+00	 1.007428e+01
0	 7.925926e+00	 4.444444e+00	 1.007459e+01
0	 8.000000e+00	 4.074074e+00	 1.006499e+01
0	 8.000000e+00	 4.148148e+00	 1.006579e+01
0	 8.000000e+00	 4.222222e+00	 1.006649e+01
0	 8.000000e+00	 4.296296e+00	 1.006710e+01
0	 8.000000e+00	 4.370370e+00	 1.006763e+01
0	 8.000000e+00	 4.444444e+00	 1.006806e+01
0	 8.074074e+00	 4.074074e+00	 1.005794e+01
0	 8.074074e+00	 4.148148e+00	 1.005885e+01
0	 8.074074e+00	 4.222222e+00	 1.005967e+01
0	 8.074074e+00	 4.296296e+00	 1.006041e+01
0	 8.074074e+00	 4.370370e+00	 1.006106e+01
0	 8.074074e+00	 4.444444e+00	 1.006162e+01
0	 8.148148e+00	 4.074074e+00	 1.005095e+01
0	 8.148148e+00	 4.148148e+00	 1.005199e+01
0	 8.148148e+00	 4.222222e+00	 1.005293e+01
0	 8.148148e+00	 4.296296e+00	 1.005379e+01
0	 8.148148e+00	 4.370370e+00	 1.005456e+01
0	 8.148148e+00	 4.444444e+00	 1.005525e+01
0	 7.777778e+00	 4.444444e+00	 1.008785e+01
0	 7.777778e+00	 4.518519e+00	 1.008781e+01
0	 7.777778e+00	 4.592593e+00	 1.008769e+01
0	 7.777778e+00	 4.666667e+00	 1.008748e+01
0	 7.777778e+00	 4.740741e+00	 1.008718e+01
0	 7.777778e+00	 4.814815e+00	 1.008680e+01
0	 7.851852e+00	 4.444444e+00	 1.008118e+01
0	 7.851852e+00	 4.518519e+00	 1.008128e+01
0	 7.851852e+00	 4.592593e+00	 1.008128e+01
0	 7.851852e+00	 4.666667e+00	 1.008121e+01
0	 7.851852e+00	 4.740741e+00	 1.008104e+01
0	 7.851852e+00	 4.814815e+00	 1.008079e+01
0	 7.925926e+00	 4.444444e+00	 1.007459e+01
0	 7.925926e+00	 4.518519e+00	 1.007481e+01
0	 7.925926e+00	 4.592593e+00	 1.007495e+01
0	 7.925926e+00	 4.666667e+00	 1.007500e+01
0	 7.925926e+00	 4.740741e+00	 1.007497e+01
0	 7.925926e+00	 4.814815e+00	 1.007485e+01
0	 8.000000e+00	 4.444444e+00	 1.006806e+01
0	 8.000000e+00	 4.518519e+00	 1.006841e+01
0	 8.000000e+00	 4.592593e+00	 1.006868e+01
0	 8.000000e+00	 4.666667e+00	 1.006886e+01
0	 8.000000e+00	 4.740741e+00	 1.006896e+01
0	 8.000000e+00	 4.814815e+00	 1.006897e+01
0	 8.074074e+00	 4.444444e+00	 1.006162e+01
0	 8.074074e+00	 4.518519e+00	 1.006209e+01
0	 8.074074e+00	 4.592593e+00	 1.006249e+01
0	 8.074074e+00	 4.666667e+00	 1.006280e+01
0	 8.074074e+00	 4.740741e+00	 1.006303e+01
0	 8.074074e+00	 4.814815e+00	 1.006317e+01
0	 8.148148e+00	 4.444444e+00	 1.005525e+01
0	 8.148148e+00	 4.518519e+00	 1.005585e+01
0	 8.148148e+00	 4.592593e+00	 1.005638e+01
0	 8.148148e+00	 4.666667e+00	 1.005682e+01
0	 8.148148e+00	 4.740741e+00	 1.005718e+01
0	 8.148148e+00	 4.814815e+00	 1.005745e+01
0	 7.777778e+00	 4.814815e+00	 1.008680e+01
0	 7.777778e+00	 4.888889e+00	 1.008633e+01
0	 7.777778e+00	 4.962963e+00	 1.008579e+01
0	 7.777778e+00	 5.037037e+00	 1.008517e+01
0	 7.777778e+00	 5.111111e+00	 1.008448e+01
0	 7.777778e+00	 5.185185e+00	 1.008371e+01
0	 7.851852e+00	 4.814815e+00	 1.008079e+01
0	 7.851852e+00	 4.888889e+00	 1.008046e+01
0	 7.851852e+00	 4.962963e+00	 1.008005e+01
0	 7.851852e+00	 5.037037e+00	 1.007957e+01
0	 7.851852e+00	 5.111111e+00	 1.007901e+01
0	 7.851852e+00	 5.185185e+00	 1.007838e+01
0	 7.925926e+00	 4.814815e+00	 1.007485e+01
0	 7.925926e+00	 4.888889e+00	 1.007465e+01
0	 7.925926e+00	 4.962963e+00	 1.007438e+01
0	 7.925926e+00	 5.037037e+00	 1.007403e+01
0	 7.925926e+00	 5.111111e+00	 1.007361e+01
0	 7.925926e+00	 5.185185e+00	 1.007310e+01
0	 8.000000e+00	 4.814815e+00	 1.006897e+01
0	 8.000000e+00	 4.888889e+00	 1.006891e+01
0	 8.000000e+00	 4.962963e+00	 1.006877e+01
0	 8.000000e+00	 5.037037e+00	 1.006855e+01
0	 8.000000e+00	 5.111111e+00	 1.006826e+01
0	 8.000000e+00	 5.185185e+00	 1.006789e+01
0	 8.074074e+00	 4.814815e+00	 1.006317e+01
0	 8.074074e+00	 4.888889e+00	 1.006324e+01
0	 8.074074e+00	 4.962963e+00	 1.006323e+01
0	 8.074074e+00	 5.037037e+00	 1.006314e+01
0	 8.074074e+00	 5.111111e+00	 1.006298e+01
0	 8.074074e+00	 5.185185e+00	 1.006274e+01
0	 8.148148e+00	 4.814815e+00	 1.005745e+01
0	 8.148148e+00	 4.888889e+00	 1.005764e+01
0	 8.148148e+00	 4.962963e+00	 1.005776e+01
0	 8.148148e+00	 5.037037e+00	 1.005781e+01
0	 8.148148e+00	 5.111111e+00	 1.005778e+01
0	 8.148148e+00	 5.185185e+00	 1.005767e+01
0	 7.777778e+00	 5.185185e+00	 1.008371e+01
0	 7.777778e+00	 5.259259e+00	 1.008286e+01
0	 7.777778e+00	 5.333333e+00	 1.008196e+01
0	 7.777778e+00	 5.407407e+00	 1.008100e+01
0	 7.777778e+00	 5.481481e+00	 1.007997e+01
0	 7.777778e+00	 5.555556e+00	 1.007887e+01
0	 7.851852e+00	 5.185185e+00	 1.007838e+01
0	 7.851852e+00	 5.259259e+00	 1.007767e+01
0	 7.851852e+00	 5.333333e+00	 1.007690e+01
0	 7.851852e+00	 5.407407e+00	 1.007607e+01
0	 7.851852e+00	 5.481481e+00	 1.007518e+01
0	 7.851852e+00	 5.555556e+00	 1.007421e+01
0	 7.925926e+00	 5.185185e+00	 1.007310e+01
0	 7.925926e+00	 5.259259e+00	 1.007253e+01
0	 7.925926e+00	 5.333333e+00	 1.007189e+01
0	 7.925926e+00	 5.407407e+00	 1.007120e+01
0	 7.925926e+00	 5.481481e+00	 1.007043e+01
0	 7.925926e+00	 5.555556e+00	 1.006960e+01
0	 8.000000e+00	 5.185185e+00	 1.006789e+01
0	 8.000000e+00	 5.259259e+00	 1.006745e+01
0	 8.000000e+00	 5.333333e+00	 1.006694e+01
0	 8.000000e+00	 5.407407e+00	 1.006638e+01
0	 8.000000e+00	 5.481481e+00	 1.006574e+01
0	 8.000000e+00	 5.555556e+00	 1.006504e+01
0	 8.074074e+00	 5.185185e+00	 1.006274e+01
0	 8.074074e+00	 5.259259e+00	 1.006243e+01
0	 8.074074e+00	 5.333333e+00	 1.006206e+01
0	 8.074074e+00	 5.407407e+00	 1.006162e+01
0	 8.074074e+00	 5.481481e+00	 1.006112e+01
0	 8.074074e+00	 5.555556e+00	 1.006054e+01
0	 8.148148e+00	 5.185185e+00	 1.005767e+01
0	 8.148148e+00	 5.259259e+00	 1.005749e+01
0	 8.148148e+00	 5.333333e+00	 1.005724e+01
0	 8.148148e+00	 5.407407e+00	 1.005693e+01
0	 8.148148e+00	 5.481481e+00	 1.005656e+01
0	 8.148148e+00	 5.555556e+00	 1.005611e+01
0	 7.777778e+00	 5.555556e+00	 1.007887e+01
0	 7.777778e+00	 5.629630e+00	 1.007771e+01
0	 7.777778e+00	 5.703704e+00	 1.007651e+01
0	 7.777778e+00	 5.777778e+00	 1.007526e+01
0	 7.777778e+00	 5.851852e+00	 1.007396e+01
0	 7.777778e+00	 5.925926e+00	 1.007261e+01
0	 7.851852e+00	 5.555556e+00	 1.007421e+01
0	 7.851852e+00	 5.629630e+00	 1.007319e+01
0	 7.851852e+00	 5.703704e+00	 1.007212e+01
0	 7.851852e+00	 5.777778e+00	 1.007100e+01
0	 7.851852e+00	 5.851852e+00	 1.006983e+01
0	 7.851852e+00	 5.925926e+00	 1.006860e+01
0	 7.925926e+00	 5.555556e+00	 1.006960e+01
0	 7.925926e+00	 5.629630e+00	 1.006871e+01
0	 7.925926e+00	 5.703704e+00	 1.006777e+01
0	 7.925926e+00	 5.777778e+00	 1.006678e+01
0	 7.925926e+00	 5.851852e+00	 1.006573e+01
0	 7.925926e+00	 5.925926e+00	 1.006463e+01
0	 8.000000e+00	 5.555556e+00	 1.006504e+01
0	 8.000000e+00	 5.629630e+00	 1.006428e+01
0	 8.000000e+00	 5.703704e+00	 1.006347e+01
0	 8.000000e+00	 5.777778e+00	 1.006260e+01
0	 8.000000e+00	 5.851852e+00	 1.006168e+01
0	 8.000000e+00	 5.925926e+00	 1.006070e+01
0	 8.074074e+00	 5.555556e+00	 1.006054e+01
0	 8.074074e+00	 5.629630e+00	 1.005991e+01
0	 8.074074e+00	 5.703704e+00	 1.005922e+01
0	 8.074074e+00	 5.777778e+00	 1.005848e+01
0	 8.074074e+00	 5.851852e+00	 1.005768e+01
0	 8.074074e+00	 5.925926e+00	 1.005683e+01
0	 8.148148e+00	 5.555556e+00	 1.005611e+01
0	 8.148148e+00	 5.629630e+00	 1.005560e+01
0	 8.148148e+00	 5.703704e+00	 1.005504e+01
0	 8.148148e+00	 5.777778e+00	 1.005442e+01
0	 8.148148e+00	 5.851852e+00	 1.005375e+01
0	 8.148148e+00	 5.925926e+00	 1.005301e+01
0	 7.777778e+00	 5.925926e+00	 1.007261e+01
0	 7.777778e+00	 6.000000e+00	 1.007121e+01
0	 7.777778e+00	 6.074074e+00	 1.006978e+01
0	 7.777778e+00	 6.148148e+00	 1.006831e+01
0	 7.777778e+00	 6.222222e+00	 1.006680e+01
0	 7.777778e+00	 6.296296e+00	 1.006525e+01
0	 7.851852e+00	 5.925926e+00	 1.006860e+01
0	 7.851852e+00	 6.000000e+00	 1.006733e+01
0	 7.851852e+00	 6.074074e+00	 1.006602e+01
0	 7.851852e+00	 6.148148e+00	 1.006467e+01
0	 7.851852e+00	 6.222222e+00	 1.006329e+01
0	 7.851852e+00	 6.296296e+00	 1.006186e+01
0	 7.925926e+00	 5.925926e+00	 1.006463e+01
0	 7.925926e+00	 6.000000e+00	 1.006348e+01
0	 7.925926e+00	 6.074074e+00	 1.006230e+01
0	 7.925926e+00	 6.148148e+00	 1.006107e+01
0	 7.925926e+00	 6.222222e+00	 1.005981e+01
0	 7.925926e+00	 6.296296e+00	 1.005850e+01
0	 8.000000e+00	 5.925926e+00	 1.006070e+01
0	 8.000000e+00	 6.000000e+00	 1.005968e+01
0	 8.000000e+00	 6.074074e+00	 1.005862e+01
0	 8.000000e+00	 6.148148e+00	 1.005751e+01
0	 8.000000e+00	 6.222222e+00	 1.005637e+01
0	 8.000000e+00	 6.296296e+00	 1.005518e+01
0	 8.074074e+00	 5.925926e+00	 1.005683e+01
0	 8.074074e+00	 6.000000e+00	 1.005593e+01
0	 8.074074e+00	 6.074074e+00	 1.005498e+01
0	 8.074074e+00	 6.148148e+00	 1.005400e+01
0	 8.074074e+00	 6.222222e+00	 1.005297e+01
0	 8.074074e+00	 6.296296e+00	 1.005189e+01
0	 8.148148e+00	 5.925926e+00	 1.005301e+01
0	 8.148148e+00	 6.000000e+00	 1.005223e+01
0	 8.148148e+00	 6.074074e+00	 1.005140e+01
0	 8.148148e+00	 6.148148e+00	 1.005053e+01
0	 8.148148e+00	 6.222222e+00	 1.004962e+01
0	 8.148148e+00	 6.296296e+00	 1.004866e+01
0	 7.777778e+00	 6.296296e+00	 1.006525e+01
0	 7.777778e+00	 6.370370e+00	 1.006368e+01
0	 7.777778e+00	 6.444444e+00	 1.006208e+01
0	 7.777778e+00	 6.518519e+00	 1.006046e+01
0	 7.777778e+00	 6.592593e+00	 1.005881e+01
0	 7.777778e+00	 6.666667e+00	 1.005714e+01
0	 7.851852e+00	 6.296296e+00	 1.006186e+01
0	 7.851852e+00	 6.370370e+00	 1.006040e+01
0	 7.851852e+00	 6.444444e+00	 1.005892e+01
0	 7.851852e+00	 6.518519e+00	 1.005742e+01
0	 7.851852e+00	 6.592593e+00	 1.005588e+01
0	 7.851852e+00	 6.666667e+00	 1.005432e+01
0	 7.925926e+00	 6.296296e+00	 1.005850e+01
0	 7.925926e+00	 6.370370e+00	 1.005716e+01
0	 7.925926e+00	 6.444444e+00	 1.005579e+01
0	 7.925926e+00	 6.518519e+00	 1.005440e+01
0	 7.925926e+00	 6.592593e+00	 1.005298e+01
0	 7.925926e+00	 6.666667e+00	 1.005153e+01
0	 8.000000e+00	 6.296296e+00	 1.005518e+01
0	 8.000000e+00	 6.370370e+00	 1.005395e+01
0	 8.000000e+00	 6.444444e+00	 1.005270e+01
0	 8.000000e+00	 6.518519e+00	 1.005142e+01
0	 8.000000e+00	 6.592593e+00	 1.005010e+01
0	 8.000000e+00	 6.666667e+00	 1.004876e+01
0	 8.074074e+00	 6.296296e+00	 1.005189e+01
0	 8.074074e+00	 6.370370e+00	 1.005078e+01
0	 8.074074e+00	 6.444444e+00	 1.004964e+01
0	 8.074074e+00	 6.518519e+00	 1.004847e+01
0	 8.074074e+00	 6.592593e+00	 1.004727e+01
0	 8.074074e+00	 6.666667e+00	 1.004603e+01
0	 8.148148e+00	 6.296296e+00	 1.004866e+01
0	 8.148148e+00	 6.370370e+00	 1.004766e+01
0	 8.148148e+00	 6.444444e+00	 1.004663e+01
0	 8.148148e+00	 6.518519e+00	 1.004556e+01
0	 8.148148e+00	 6.592593e+00	 1.004447e+01
0	 8.148148e+00	 6.666667e+00	 1.004334e+01
0	 7.777778e+00	 6.666667e+00	 1.005714e+01
0	 7.777778e+00	 6.740741e+00	 1.005545e+01
0	 7.777778e+00	 6.814815e+00	 1.005374e+01
0	 7.777778e+00	 6.888889e+00	 1.005203e+01
0	 7.777778e+00	 6.962963e+00	 1.005031e+01
0	 7.777778e+00	 7.037037e+00	 1.004857e+01
0	 7.851852e+00	 6.666667e+00	 1.005432e+01
0	 7.851852e+00	 6.740741e+00	 1.005274e+01
0	 7.851852e+00	 6.814815e+00	 1.005115e+01
0	 7.851852e+00	 6.888889e+00	 1.004954e+01
0	 7.851852e+00	 6.962963e+00	 1.004792e+01
0	 7.851852e+00	 7.037037e+00	 1.004628e+01
0	 7.925926e+00	 6.666667e+00	 1.005153e+01
0	 7.925926e+00	 6.740741e+00	 1.005005e+01
0	 7.925926e+00	 6.814815e+00	 1.004857e+01
0	 7.925926e+00	 6.888889e+00	 1.004707e+01
0	 7.925926e+00	 6.962963e+00	 1.004555e+01
0	 7.925926e+00	 7.037037e+00	 1.004401e+01
0	 8.000000e+00	 6.666667e+00	 1.004876e+01
0	 8.000000e+00	 6.740741e+00	 1.004739e+01
0	 8.000000e+00	 6.814815e+00	 1.004601e+01
0	 8.000000e+00	 6.888889e+00	 1.004461e+01
0	 8.000000e+00	 6.962963e+00	 1.004320e+01
0	 8.000000e+00	 7.037037e+00	 1.004176e+01
0	 8.074074e+00	 6.666667e+00	 1.004603e+01
0	 8.074074e+00	 6.740741e+00	 1.004477e+01
0	 8.074074e+00	 6.814815e+00	 1.004349e+01
0	 8.074074e+00	 6.888889e+00	 1.004219e+01
0	 8.074074e+00	 6.962963e+00	 1.004087e+01
0	 8.074074e+00	 7.037037e+00	 1.003954e+01
0	 8.148148e+00	 6.666667e+00	 1.004334e+01
0	 8.148148e+00	 6.740741e+00	 1.004218e+01
0	 8.148148e+00	 6.814815e+00	 1.004100e+01
0	 8.148148e+00	 6.888889e+00	 1.003980e+01
0	 8.148148e+00	 6.962963e+00	 1.003858e+01
0	 8.148148e+00	 7.037037e+00	 1.003734e+01
0	 7.777778e+00	 7.037037e+00	 1.004857e+01
0	 7.777778e+00	 7.111111e+00	 1.004683e+01
0	 7.777778e+00	 7.185185e+00	 1.004509e+01
0	 7.777778e+00	 7.259259e+00	 1.004335e+01
0	 7.777778e+00	 7.333333e+00	 1.004160e+01
0	 7.777778e+00	 7.407407e+00	 1.003986e+01
0	 7.851852e+00	 7.037037e+00	 1.004628e+01
0	 7.851852e+00	 7.111111e+00	 1.004464e+01
0	 7.851852e+00	 7.185185e+00	 1.004300e+01
0	 7.851852e+00	 7.259259e+00	 1.004135e+01
0	 7.851852e+00	 7.333333e+00	 1.003970e+01
0	 7.851852e+00	 7.407407e+00	 1.003805e+01
0	 7.925926e+00	 7.037037e+00	 1.004401e+01
0	 7.925926e+00	 7.111111e+00	 1.004247e+01
0	 7.925926e+00	 7.185185e+00	 1.004092e+01
0	 7.925926e+00	 7.259259e+00	 1.003937e+01
0	 7.925926e+00	 7.333333e+00	 1.003782e+01
0	 7.925926e+00	 7.407407e+00	 1.003625e+01
0	 8.000000e+00	 7.037037e+00	 1.004176e+01
0	 8.000000e+00	 7.111111e+00	 1.004031e+01
0	 8.000000e+00	 7.185185e+00	 1.003886e+01
0	 8.000000e+00	 7.259259e+00	 1.003741e+01
0	 8.000000e+00	 7.333333e+00	 1.003594e+01
0	 8.000000e+00	 7.407407e+00	 1.003447e+01
0	 8.074074e+00	 7.037037e+00	 1.003954e+01
0	 8.074074e+00	 7.111111e+00	 1.003818e+01
0	 8.074074e+00	 7.185185e+00	 1.003683e+01
0	 8.074074e+00	 7.259259e+00	 1.003546e+01
0	 8.074074e+00	 7.333333e+00	 1.003409e+01
0	 8.074074e+00	 7.407407e+00	 1.003271e+01
0	 8.148148e+00	 7.037037e+00	 1.003734e+01
0	 8.148148e+00	 7.111111e+00	 1.003608e+01
0	 8.148148e+00	 7.185185e+00	 1.003482e+01
0	 8.148148e+00	 7.259259e+00	 1.003355e+01
0	 8.148148e+00	 7.333333e+00	 1.003226e+01
0	 8.148148e+00	 7.407407e+00	 1.003097e+01
0	 7.777778e+00	 7.407407e+00	 1.003986e+01
0	 7.777778e+00	 7.481481e+00	 1.003812e+01
0	 7.777778e+00	 7.555556e+00	 1.003640e+01
0	 7.777778e+00	 7.629630e+00	 1.003469e+01
0	 7.777778e+00	 7.703704e+00	 1.003299e+01
0	 7.777778e+00	 7.777778e+00	 1.003129e+01
0	 7.851852e+00	 7.407407e+00	 1.003805e+01
0	 7.851852e+00	 7.481481e+00	 1.003640e+01
0	 7.851852e+00	 7.555556e+00	 1.003477e+01
0	 7.851852e+00	 7.629630e+00	 1.003314e+01
0	 7.851852e+00	 7.703704e+00	 1.003153e+01
0	 7.851852e+00	 7.777778e+00	 1.002992e+01
0	 7.925926e+00	 7.407407e+00	 1.003625e+01
0	 7.925926e+00	 7.481481e+00	 1.003469e+01
0	 7.925926e+00	 7.555556e+00	 1.003315e+01
0	 7.925926e+00	 7.629630e+00	 1.003161e+01
0	 7.925926e+00	 7.703704e+00	 1.003007e+01
0	 7.925926e+00	 7.777778e+00	 1.002854e+01
0	 8.000000e+00	 7.407407e+00	 1.003447e+01
0	 8.000000e+00	 7.481481e+00	 1.003300e+01
0	 8.000000e+00	 7.555556e+00	 1.003154e+01
0	 8.000000e+00	 7.629630e+00	 1.003008e+01
0	 8.000000e+00	 7.703704e+00	 1.002863e+01
0	 8.000000e+00	 7.777778e+00	 1.002718e+01
0	 8.074074e+00	 7.407407e+00	 1.003271e+01
0	 8.074074e+00	 7.481481e+00	 1.003132e+01
0	 8.074074e+00	 7.555556e+00	 1.002995e+01
0	 8.074074e+00	 7.629630e+00	 1.002857e+01
0	 8.074074e+00	 7.703704e+00	 1.002720e+01
0	 8.074074e+00	 7.777778e+00	 1.002584e+01
0	 8.148148e+00	 7.407407e+00	 1.003097e+01
0	 8.148148e+00	 7.481481e+00	 1.002967e+01
0	 8.148148e+00	 7.555556e+00	 1.002838e+01
0	 8.148148e+00	 7.629630e+00	 1.002708e+01
0	 8.148148e+00	 7.703704e+00	 1.002580e+01
0	 8.148148e+00	 7.777778e+00	 1.002451e+01
0	 7.777778e+00	 7.777778e+00	 1.003129e+01
0	 7.777778e+00	 7.851852e+00	 1.002962e+01
0	 7.777778e+00	 7.925926e+00	 1.002797e+01
0	 7.777778e+00	 8.000000e+00	 1.002635e+01
0	 7.777778e+00	 8.074074e+00	 1.002475e+01
0	 7.777778e+00	 8.148148e+00	 1.002316e+01
0	 7.851852e+00	 7.777778e+00	 1.002992e+01
0	 7.851852e+00	 7.851852e+00	 1.002832e+01
0	 7.851852e+00	 7.925926e+00	 1.002675e+01
0	 7.851852e+00	 8.000000e+00	 1.002520e+01
0	 7.851852e+00	 8.074074e+00	 1.002368e+01
0	 7.851852e+00	 8.148148e+00	 1.002217e+01
0	 7.925926e+00	 7.777778e+00	 1.002854e+01
0	 7.925926e+00	 7.851852e+00	 1.002703e+01
0	 7.925926e+00	 7.925926e+00	 1.002554e+01
0	 7.925926e+00	 8.000000e+00	 1.002407e+01
0	 7.925926e+00	 8.074074e+00	 1.002261e+01
0	 7.925926e+00	 8.148148e+00	 1.002117e+01
0	 8.000000e+00	 7.777778e+00	 1.002718e+01
0	 8.000000e+00	 7.851852e+00	 1.002575e+01
0	 8.000000e+00	 7.925926e+00	 1.002433e+01
0	 8.000000e+00	 8.000000e+00	 1.002293e+01
0	 8.000000e+00	 8.074074e+00	 1.002155e+01
0	 8.000000e+00	 8.148148e+00	 1.002018e+01
0	 8.074074e+00	 7.777778e+00	 1.002584e+01
0	 8.074074e+00	 7.851852e+00	 1.002448e+01
0	 8.074074e+00	 7.925926e+00	 1.002314e+01
0	 8.074074e+00	 8.000000e+00	 1.002181e+01
0	 8.074074e+00	 8.074074e+00	 1.002050e+01
0	 8.074074e+00	 8.148148e+00	 1.001921e+01
0	 8.148148e+00	 7.777778e+00	 1.002451e+01
0	 8.148148e+00	 7.851852e+00	 1.002322e+01
0	 8.148148e+00	 7.925926e+00	 1.002196e+01
0	 8.148148e+00	 8.000000e+00	 1.002071e+01
0	 8.148148e+00	 8.074074e+00	 1.001947e+01
0	 8.148148e+00	 8.148148e+00	 1.001824e+01
0	 7.777778e+00	 8.148148e+00	 1.002316e+01
0	 7.777778e+00	 8.222222e+00	 1.002161e+01
0	 7.777778e+00	 8.296296e+00	 1.002010e+01
0	 7.777778e+00	 8.370370e+00	 1.001862e+01
0	 7.777778e+00	 8.444444e+00	 1.001718e+01
0	 7.777778e+00	 8.518519e+00	 1.001577e+01
0	 7.851852e+00	 8.148148e+00	 1.002217e+01
0	 7.851852e+00	 8.222222e+00	 1.002068e+01
0	 7.851852e+00	 8.296296e+00	 1.001924e+01
0	 7.851852e+00	 8.370370e+00	 1.001783e+01
0	 7.851852e+00	 8.444444e+00	 1.001645e+01
0	 7.851852e+00	 8.518519e+00	 1.001510e+01
0	 7.925926e+00	 8.148148e+00	 1.002117e+01
0	 7.925926e+00	 8.222222e+00	 1.001976e+01
0	 7.925926e+00	 8.296296e+00	 1.001838e+01
0	 7.925926e+00	 8.370370e+00	 1.001704e+01
0	 7.925926e+00	 8.444444e+00	 1.001572e+01
0	 7.925926e+00	 8.518519e+00	 1.001443e+01
0	 8.000000e+00	 8.148148e+00	 1.002018e+01
0	 8.000000e+00	 8.222222e+00	 1.001884e+01
0	 8.000000e+00	 8.296296e+00	 1.001753e+01
0	 8.000000e+00	 8.370370e+00	 1.001625e+01
0	 8.000000e+00	 8.444444e+00	 1.001499e+01
0	 8.000000e+00	 8.518519e+00	 1.001377e+01
0	 8.074074e+00	 8.148148e+00	 1.001921e+01
0	 8.074074e+00	 8.222222e+00	 1.001793e+01
0	 8.074074e+00	 8.296296e+00	 1.001668e+01
0	 8.074074e+00	 8.370370e+00	 1.001547e+01
0	 8.074074e+00	 8.444444e+00	 1.001428e+01
0	 8.074074e+00	 8.518519e+00	 1.001311e+01
0	 8.148148e+00	 8.148148e+00	 1.001824e+01
0	 8.148148e+00	 8.222222e+00	 1.001703e+01
0	 8.148148e+00	 8.296296e+00	 1.001585e+01
0	 8.148148e+00	 8.370370e+00	 1.001470e+01
0	 8.148148e+00	 8.444444e+00	 1.001357e+01
0	 8.148148e+00	 8.518519e+00	 1.001246e+01
0	 7.777778e+00	 8.518519e+00	 1.001577e+01
0	 7.777778e+00	 8.592593e+00	 1.001440e+01
0	 7.777778e+00	 8.666667e+00	 1.001308e+01
0	 7.777778e+00	 8.740741e+00	 1.001181e+01
0	 7.777778e+00	 8.814815e+00	 1.001059e+01
0	 7.777778e+00	 8.888889e+00	 1.000941e+01
0	 7.851852e+00	 8.518519e+00	 1.001510e+01
0	 7.851852e+00	 8.592593e+00	 1.001379e+01
0	 7.851852e+00	 8.666667e+00	 1.001253e+01
0	 7.851852e+00	 8.740741e+00	 1.001131e+01
0	 7.851852e+00	 8.814815e+00	 1.001014e+01
0	 7.851852e+00	 8.888889e+00	 1.000901e+01
0	 7.925926e+00	 8.518519e+00	 1.001443e+01
0	 7.925926e+00	 8.592593e+00	 1.001318e+01
0	 7.925926e+00	 8.666667e+00	 1.001197e+01
0	 7.925926e+00	 8.740741e+00	 1.001081e+01
0	 7.925926e+00	 8.814815e+00	 1.000970e+01
0	 7.925926e+00	 8.888889e+00	 1.000862e+01
0	 8.000000e+00	 8.518519e+00	 1.001377e+01
0	 8.000000e+00	 8.592593e+00	 1.001257e+01
0	 8.000000e+00	 8.666667e+00	 1.001142e+01
0	 8.000000e+00	 8.740741e+00	 1.001032e+01
0	 8.000000e+00	 8.814815e+00	 1.000925e+01
0	 8.000000e+00	 8.888889e+00	 1.000822e+01
0	 8.074074e+00	 8.518519e+00	 1.001311e+01
0	 8.074074e+00	 8.592593e+00	 1.001197e+01
0	 8.074074e+00	 8.666667e+00	 1.001088e+01
0	 8.074074e+00	 8.740741e+00	 1.000983e+01
0	 8.074074e+00	 8.814815e+00	 1.000881e+01
0	 8.074074e+00	 8.888889e+00	 1.000783e+01
0	 8.148148e+00	 8.518519e+00	 1.001246e+01
0	 8.148148e+00	 8.592593e+00	 1.001138e+01
0	 8.148148e+00	 8.666667e+00	 1.001034e+01
0	 8.148148e+00	 8.740741e+00	 1.000934e+01
0	 8.148148e+00	 8.814815e+00	 1.000838e+01
0	 8.148148e+00	 8.888889e+00	 1.000745e+01
0	 7.777778e+00	 8.888889e+00	 1.000941e+01
0	 7.777778e+00	 8.962963e+00	 1.000829e+01
0	 7.777778e+00	 9.037037e+00	 1.000723e+01
0	 7.777778e+00	 9.111111e+00	 1.000624e+01
0	 7.777778e+00	 9.185185e+00	 1.000530e+01
0	 7.777778e+00	 9.259259e+00	 1.000443e+01
0	 7.851852e+00	 8.888889e+00	 1.000901e+01
0	 7.851852e+00	 8.962963e+00	 1.000794e+01
0	 7.851852e+00	 9.037037e+00	 1.000693e+01
0	 7.851852e+00	 9.111111e+00	 1.000598e+01
0	 7.851852e+00	 9.185185e+00	 1.000508e+01
0	 7.851852e+00	 9.259259e+00	 1.000424e+01
0	 7.925926e+00	 8.888889e+00	 1.000862e+01
0	 7.925926e+00	 8.962963e+00	 1.000759e+01
0	 7.925926e+00	 9.037037e+00	 1.000662e+01
0	 7.925926e+00	 9.111111e+00	 1.000571e+01
0	 7.925926e+00	 9.185185e+00	 1.000486e+01
0	 7.925926e+00	 9.259259e+00	 1.000405e+01
0	 8.000000e+00	 8.888889e+00	 1.000822e+01
0	 8.000000e+00	 8.962963e+00	 1.000724e+01
0	 8.000000e+00	 9.037037e+00	 1.000632e+01
0	 8.000000e+00	 9.111111e+00	 1.000545e+01
0	 8.000000e+00	 9.185185e+00	 1.000464e+01
0	 8.000000e+00	 9.259259e+00	 1.000387e+01
0	 8.074074e+00	 8.888889e+00	 1.000783e+01
0	 8.074074e+00	 8.962963e+00	 1.000690e+01
0	 8.074074e+00	 9.037037e+00	 1.000602e+01
0	 8.074074e+00	 9.111111e+00	 1.000519e+01
0	 8.074074e+00	 9.185185e+00	 1.000442e+01
0	 8.074074e+00	 9.259259e+00	 1.000368e+01
0	 8.148148e+00	 8.888889e+00	 1.000745e+01
0	 8.148148e+00	 8.962963e+00	 1.000656e+01
0	 8.148148e+00	 9.037037e+00	 1.000572e+01
0	 8.148148e+00	 9.111111e+00	 1.000494e+01
0	 8.148148e+00	 9.185185e+00	 1.000420e+01
0	 8.148148e+00	 9.259259e+00	 1.000350e+01
0	 7.777778e+00	 9.259259e+00	 1.000443e+01
0	 7.777778e+00	 9.333333e+00	 1.000362e+01
0	 7.777778e+00	 9.407407e+00	 1.000289e+01
0	 7.777778e+00	 9.481481e+00	 1.000225e+01
0	 7.777778e+00	 9.555556e+00	 1.000167e+01
0	 7.777778e+00	 9.629630e+00	 1.000117e+01
0	 7.851852e+00	 9.259259e+00	 1.000424e+01
0	 7.851852e+00	 9.333333e+00	 1.000347e+01
0	 7.851852e+00	 9.407407e+00	 1.000277e+01
0	 7.851852e+00	 9.481481e+00	 1.000215e+01
0	 7.851852e+00	 9.555556e+00	 1.000160e+01
0	 7.851852e+00	 9.629630e+00	 1.000112e+01
0	 7.925926e+00	 9.259259e+00	 1.000405e+01
0	 7.925926e+00	 9.333333e+00	 1.000331e+01
0	 7.925926e+00	 9.407407e+00	 1.000265e+01
0	 7.925926e+00	 9.481481e+00	 1.000206e+01
0	 7.925926e+00	 9.555556e+00	 1.000153e+01
0	 7.925926e+00	 9.629630e+00	 1.000107e+01
0	 8.000000e+00	 9.259259e+00	 1.000387e+01
0	 8.000000e+00	 9.333333e+00	 1.000316e+01
0	 8.000000e+00	 9.407407e+00	 1.000253e+01
0	 8.000000e+00	 9.481481e+00	 1.000196e+01
0	 8.000000e+00	 9.555556e+00	 1.000146e+01
0	 8.000000e+00	 9.629630e+00	 1.000102e+01
0	 8.074074e+00	 9.259259e+00	 1.000368e+01
0	 8.074074e+00	 9.333333e+00	 1.000301e+01
0	 8.074074e+00	 9.407407e+00	 1.000241e+01
0	 8.074074e+00	 9.481481e+00	 1.000187e+01
0	 8.074074e+00	 9.555556e+00	 1.000139e+01
0	 8.074074e+00	 9.629630e+00	 1.000097e+01
0	 8.148148e+00	 9.259259e+00	 1.000350e+01
0	 8.148148e+00	 9.333333e+00	 1.000286e+01
0	 8.148148e+00	 9.407407e+00	 1.000229e+01
0	 8.148148e+00	 9.481481e+00	 1.000178e+01
0	 8.148148e+00	 9.555556e+00	 1.000132e+01
0	 8.148148e+00	 9.629630e+00	 1.000092e+01
0	 7.777778e+00	 9.629630e+00	 1.000117e+01
0	 7.777778e+00	 9.703704e+00	 1.000075e+01
0	 7.777778e+00	 9.777778e+00	 1.000043e+01
0	 7.777778e+00	 9.851852e+00	 1.000020e+01
0	 7.777778e+00	 9.925926e+00	 1.000005e+01
0	 7.777778e+00	 1.000000e+01	 9.999992e+00
0	 7.851852e+00	 9.629630e+00	 1.000112e+01
0	 7.851852e+00	 9.703704e+00	 1.000072e+01
0	 7.851852e+00	 9.777778e+00	 1.000041e+01
0	 7.851852e+00	 9.851852e+00	 1.000019e+01
0	 7.851852e+00	 9.925926e+00	 1.000005e+01
0	 7.851852e+00	 1.000000e+01	 9.999995e+00
0	 7.925926e+00	 9.629630e+00	 1.000107e+01
0	 7.925926e+00	 9.703704e+00	 1.000069e+01
0	 7.925926e+00	 9.777778e+00	 1.000039e+01
0	 7.925926e+00	 9.851852e+00	 1.000018e+01
0	 7.925926e+00	 9.925926e+00	 1.000005e+01
0	 7.925926e+00	 1.000000e+01	 9.999995e+00
0	 8.000000e+00	 9.629630e+00	 1.000102e+01
0	 8.000000e+00	 9.703704e+00	 1.000065e+01
0	 8.000000e+00	 9.777778e+00	 1.000037e+01
0	 8.000000e+00	 9.851852e+00	 1.000017e+01
0	 8.000000e+00	 9.925926e+00	 1.000004e+01
0	 8.000000e+00	 1.000000e+01	 9.999993e+00
0	 8.074074e+00	 9.629630e+00	 1.000097e+01
0	 8.074074e+00	 9.703704e+00	 1.000062e+01
0	 8.074074e+00	 9.777778e+00	 1.000035e+01
0	 8.074074e+00	 9.851852e+00	 1.000016e+01
0	 8.074074e+00	 9.925926e+00	 1.000004e+01
0	 8.074074e+00	 1.000000e+01	 9.999992e+00
0	 8.148148e+00	 9.629630e+00	 1.000092e+01
0	 8.148148e+00	 9.703704e+00	 1.000059e+01
0	 8.148148e+00	 9.777778e+00	 1.000034e+01
0	 8.148148e+00	 9.851852e+00	 1.000015e+01
0	 8.148148e+00	 9.925926e+00	 1.000004e+01
0	 8.148148e+00	 1.000000e+01	 9.999994e+00
0	 8.148148e+00	 0.000000e+00	 9.953490e+00
0	 8.148148e+00	 7.407407e-02	 9.953558e+00
0	 8.148148e+00	 1.481481e-01	 9.953762e+00
0	 8.148148e+00	 2.222222e-01	 9.954102e+00
0	 8.148148e+00	 2.962963e-01	 9.954579e+00
0	 8.148148e+00	 3.703704e-01	 9.955195e+00
0	 8.222222e+00	 0.000000e+00	 9.944241e+00
0	 8.222222e+00	 7.407407e-02	 9.944309e+00
0	 8.222222e+00	 1.481481e-01	 9.944512e+00
0	 8.222222e+00	 2.222222e-01	 9.944851e+00
0	 8.222222e+00	 2.962963e-01	 9.945327e+00
0	 8.222222e+00	 3.703704e-01	 9.945941e+00
0	 8.296296e+00	 0.000000e+00	 9.934853e+00
0	 8.296296e+00	 7.407407e-02	 9.934921e+00
0	 8.296296e+00	 1.481481e-01	 9.935124e+00
0	 8.296296e+00	 2.222222e-01	 9.935463e+00
0	 8.296296e+00	 2.962963e-01	 9.935939e+00
0	 8.296296e+00	 3.703704e-01	 9.936553e+00
0	 8.370370e+00	 0.000000e+00	 9.925312e+00
0	 8.370370e+00	 7.407407e-02	 9.925381e+00
0	 8.370370e+00	 1.481481e-01	 9.925585e+00
0	 8.370370e+00	 2.222222e-01	 9.925926e+00
0	 8.370370e+00	 2.962963e-01	 9.926404e+00
0	 8.370370e+00	 3.703704e-01	 9.927019e+00
0	 8.444444e+00	 0.000000e+00	 9.915606e+00
0	 8.444444e+00	 7.407407e-02	 9.915676e+00
0	 8.444444e+00	 1.481481e-01	 9.915882e+00
0	 8.444444e+00	 2.222222e-01	 9.916225e+00
0	 8.444444e+00	 2.962963e-01	 9.916706e+00
0	 8.444444e+00	 3.703704e-01	 9.917326e+00
0	 8.518519e+00	 0.000000e+00	 9.905722e+00
0	 8.518519e+00	 7.407407e-02	 9.905793e+00
0	 8.518519e+00	 1.481481e-01	 9.906001e+00
0	 8.518519e+00	 2.222222e-01	 9.906348e+00
0	 8.518519e+00	 2.962963e-01	 9.906834e+00
0	 8.518519e+00	 3.703704e-01	 9.907459e+00
0	 8.148148e+00	 3.703704e-01	 9.955195e+00
0	 8.148148e+00	 4.444444e-01	 9.955940e+00
0	 8.148148e+00	 5.185185e-01	 9.956808e+00
0	 8.148148e+00	 5.925926e-01	 9.957800e+00
0	 8.148148e+00	 6.666667e-01	 9.958920e+00
0	 8.148148e+00	 7.407407e-01	 9.960170e+00
0	 8.222222e+00	 3.703704e-01	 9.945941e+00
0	 8.222222e+00	 4.444444e-01	 9.946684e+00
0	 8.222222e+00	 5.185185e-01	 9.947550e+00
0	 8.222222e+00	 5.925926e-01	 9.948541e+00
0	 8.222222e+00	 6.666667e-01	 9.949659e+00
0	 8.222222e+00	 7.407407e-01	 9.950907e+00
0	 8.296296e+00	 3.703704e-01	 9.936553e+00
0	 8.296296e+00	 4.444444e-01	 9.937297e+00
0	 8.296296e+00	 5.185185e-01	 9.938164e+00
0	 8.296296e+00	 5.925926e-01	 9.939156e+00
0	 8.296296e+00	 6.666667e-01	 9.940276e+00
0	 8.296296e+00	 7.407407e-01	 9.941526e+00
0	 8.370370e+00	 3.703704e-01	 9.927019e+00
0	 8.370370e+00	 4.444444e-01	 9.927766e+00
0	 8.370370e+00	 5.185185e-01	 9.928636e+00
0	 8.370370e+00	 5.925926e-01	 9.929633e+00
0	 8.370370e+00	 6.666667e-01	 9.930758e+00
0	 8.370370e+00	 7.407407e-01	 9.932013e+00
0	 8.444444e+00	 3.703704e-01	 9.917326e+00
0	 8.444444e+00	 4.444444e-01	 9.918077e+00
0	 8.444444e+00	 5.185185e-01	 9.918954e+00
0	 8.444444e+00	 5.925926e-01	 9.919958e+00
0	 8.444444e+00	 6.666667e-01	 9.921091e+00
0	 8.444444e+00	 7.407407e-01	 9.922355e+00
0	 8.518519e+00	 3.703704e-01	 9.907459e+00
0	 8.518519e+00	 4.444444e-01	 9.908218e+00
0	 8.518519e+00	 5.185185e-01	 9.909104e+00
0	 8.518519e+00	 5.925926e-01	 9.910118e+00
0	 8.518519e+00	 6.666667e-01	 9.911263e+00
0	 8.518519e+00	 7.407407e-01	 9.912541e+00
0	 8.148148e+00	 7.407407e-01	 9.960170e+00
0	 8.148148e+00	 8.148148e-01	 9.961534e+00
0	 8.148148e+00	 8.888889e-01	 9.962997e+00
0	 8.148148e+00	 9.629630e-01	 9.964563e+00
0	 8.148148e+00	 1.037037e+00	 9.966236e+00
0	 8.148148e+00	 1.111111e+00	 9.968021e+00
0	 8.222222e+00	 7.407407e-01	 9.950907e+00
0	 8.222222e+00	 8.148148e-01	 9.952270e+00
0	 8.222222e+00	 8.888889e-01	 9.953733e+00
0	 8.222222e+00	 9.629630e-01	 9.955299e+00
0	 8.222222e+00	 1.037037e+00	 9.956974e+00
0	 8.222222e+00	 1.111111e+00	 9.958759e+00
0	 8.296296e+00	 7.407407e-01	 9.941526e+00
0	 8.296296e+00	 8.148148e-01	 9.942891e+00
0	 8.296296e+00	 8.888889e-01	 9.944357e+00
0	 8.296296e+00	 9.629630e-01	 9.945929e+00
0	 8.296296e+00	 1.037037e+00	 9.947609e+00
0	 8.296296e+00	 1.111111e+00	 9.949402e+00
0	 8.370370e+00	 7.407407e-01	 9.932013e+00
0	 8.370370e+00	 8.148148e-01	 9.933384e+00
0	 8.370370e+00	 8.888889e-01	 9.934859e+00
0	 8.370370e+00	 9.629630e-01	 9.936441e+00
0	 8.370370e+00	 1.037037e+00	 9.938132e+00
0	 8.370370e+00	 1.111111e+00	 9.939936e+00
0	 8.444444e+00	 7.407407e-01	 9.922355e+00
0	 8.444444e+00	 8.148148e-01	 9.923738e+00
0	 8.444444e+00	 8.888889e-01	 9.925225e+00
0	 8.444444e+00	 9.629630e-01	 9.926821e+00
0	 8.444444e+00	 1.037037e+00	 9.928528e+00
0	 8.444444e+00	 1.111111e+00	 9.930349e+00
0	 8.518519e+00	 7.407407e-01	 9.912541e+00
0	 8.518519e+00	 8.148148e-01	 9.913938e+00
0	 8.518519e+00	 8.888889e-01	 9.915443e+00
0	 8.518519e+00	 9.629630e-01	 9.917058e+00
0	 8.518519e+00	 1.037037e+00	 9.918786e+00
0	 8.518519e+00	 1.111111e+00	 9.920630e+00
0	 8.148148e+00	 1.111111e+00	 9.968021e+00
0	 8.148148e+00	 1.185185e+00	 9.969895e+00
0	 8.148148e+00	 1.259259e+00	 9.971839e+00
0	 8.148148e+00	 1.333333e+00	 9.973858e+00
0	 8.148148e+00	 1.407407e+00	 9.975956e+00
0	 8.148148e+00	 1.481481e+00	 9.978138e+00
0	 8.222222e+00	 1.111111e+00	 9.958759e+00
0	 8.222222e+00	 1.185185e+00	 9.960636e+00
0	 8.222222e+00	 1.259259e+00	 9.962585e+00
0	 8.222222e+00	 1.333333e+00	 9.964610e+00
0	 8.222222e+00	 1.407407e+00	 9.966717e+00
0	 8.222222e+00	 1.481481e+00	 9.968908e+00
0	 8.296296e+00	 1.111111e+00	 9.949402e+00
0	 8.296296e+00	 1.185185e+00	 9.951287e+00
0	 8.296296e+00	 1.259259e+00	 9.953246e+00
0	 8.296296e+00	 1.333333e+00	 9.955283e+00
0	 8.296296e+00	 1.407407e+00	 9.957404e+00
0	 8.296296e+00	 1.481481e+00	 9.959610e+00
0	 8.370370e+00	 1.111111e+00	 9.939936e+00
0	 8.370370e+00	 1.185185e+00	 9.941834e+00
0	 8.370370e+00	 1.259259e+00	 9.943809e+00
0	 8.370370e+00	 1.333333e+00	 9.945865e+00
0	 8.370370e+00	 1.407407e+00	 9.948005e+00
0	 8.370370e+00	 1.481481e+00	 9.950234e+00
0	 8.444444e+00	 1.111111e+00	 9.930349e+00
0	 8.444444e+00	 1.185185e+00	 9.932267e+00
0	 8.444444e+00	 1.259259e+00	 9.934264e+00
0	 8.444444e+00	 1.333333e+00	 9.936343e+00
0	 8.444444e+00	 1.407407e+00	 9.938510e+00
0	 8.444444e+00	 1.481481e+00	 9.940766e+00
0	 8.518519e+00	 1.111111e+00	 9.920630e+00
0	 8.518519e+00	 1.185185e+00	 9.922573e+00
0	 8.518519e+00	 1.259259e+00	 9.924597e+00
0	 8.518519e+00	 1.333333e+00	 9.926707e+00
0	 8.518519e+00	 1.407407e+00	 9.928905e+00
0	 8.518519e+00	 1.481481e+00	 9.931196e+00
0	 8.148148e+00	 1.481481e+00	 9.978138e+00
0	 8.148148e+00	 1.555556e+00	 9.980381e+00
0	 8.148148e+00	 1.629630e+00	 9.982661e+00
0	 8.148148e+00	 1.703704e+00	 9.984984e+00
0	 8.148148e+00	 1.777778e+00	 9.987354e+00
0	 8.148148e+00	 1.851852e+00	 9.989777e+00
0	 8.222222e+00	 1.481481e+00	 9.968908e+00
0	 8.222222e+00	 1.555556e+00	 9.971162e+00
0	 8.222222e+00	 1.629630e+00	 9.973457e+00
0	 8.222222e+00	 1.703704e+00	 9.975797e+00
0	 8.222222e+00	 1.777778e+00	 9.978186e+00
0	 8.222222e+00	 1.851852e+00	 9.980631e+00
0	 8.296296e+00	 1.481481e+00	 9.959610e+00
0	 8.296296e+00	 1.555556e+00	 9.961882e+00
0	 8.296296e+00	 1.629630e+00	 9.964198e+00
0	 8.296296e+00	 1.703704e+00	 9.966561e+00
0	 8.296296e+00	 1.777778e+00	 9.968976e+00
0	 8.296296e+00	 1.851852e+00	 9.971449e+00
0	 8.370370e+00	 1.481481e+00	 9.950234e+00
0	 8.370370e+00	 1.555556e+00	 9.952529e+00
0	 8.370370e+00	 1.629630e+00	 9.954872e+00
0	 8.370370e+00	 1.703704e+00	 9.957264e+00
0	 8.370370e+00	 1.777778e+00	 9.959712e+00
0	 8.370370e+00	 1.851852e+00	 9.962219e+00
0	 8.444444e+00	 1.481481e+00	 9.940766e+00
0	 8.444444e+00	 1.555556e+00	 9.943092e+00
0	 8.444444e+00	 1.629630e+00	 9.945468e+00
0	 8.444444e+00	 1.703704e+00	 9.947897e+00
0	 8.444444e+00	 1.777778e+00	 9.950384e+00
0	 8.444444e+00	 1.851852e+00	 9.952932e+00
0	 8.518519e+00	 1.481481e+00	 9.931196e+00
0	 8.518519e+00	 1.555556e+00	 9.933560e+00
0	 8.518519e+00	 1.629630e+00	 9.935976e+00
0	 8.518519e+00	 1.703704e+00	 9.938448e+00
0	 8.518519e+00	 1.777778e+00	 9.940981e+00
0	 8.518519e+00	 1.851852e+00	 9.943578e+00
0	 8.148148e+00	 1.851852e+00	 9.989777e+00
0	 8.148148e+00	 1.925926e+00	 9.992228e+00
0	 8.148148e+00	 2.000000e+00	 9.994685e+00
0	 8.148148e+00	 2.074074e+00	 9.997151e+00
0	 8.148148e+00	 2.148148e+00	 9.999632e+00
0	 8.148148e+00	 2.222222e+00	 1.000213e+01
0	 8.222222e+00	 1.851852e+00	 9.980631e+00
0	 8.222222e+00	 1.925926e+00	 9.983107e+00
0	 8.222222e+00	 2.000000e+00	 9.985592e+00
0	 8.222222e+00	 2.074074e+00	 9.988090e+00
0	 8.222222e+00	 2.148148e+00	 9.990605e+00
0	 8.222222e+00	 2.222222e+00	 9.993143e+00
0	 8.296296e+00	 1.851852e+00	 9.971449e+00
0	 8.296296e+00	 1.925926e+00	 9.973956e+00
0	 8.296296e+00	 2.000000e+00	 9.976475e+00
0	 8.296296e+00	 2.074074e+00	 9.979010e+00
0	 8.296296e+00	 2.148148e+00	 9.981567e+00
0	 8.296296e+00	 2.222222e+00	 9.984148e+00
0	 8.370370e+00	 1.851852e+00	 9.962219e+00
0	 8.370370e+00	 1.925926e+00	 9.964764e+00
0	 8.370370e+00	 2.000000e+00	 9.967324e+00
0	 8.370370e+00	 2.074074e+00	 9.969903e+00
0	 8.370370e+00	 2.148148e+00	 9.972507e+00
0	 8.370370e+00	 2.222222e+00	 9.975139e+00
0	 8.444444e+00	 1.851852e+00	 9.952932e+00
0	 8.444444e+00	 1.925926e+00	 9.955521e+00
0	 8.444444e+00	 2.000000e+00	 9.958129e+00
0	 8.444444e+00	 2.074074e+00	 9.960760e+00
0	 8.444444e+00	 2.148148e+00	 9.963417e+00
0	 8.444444e+00	 2.222222e+00	 9.966106e+00
0	 8.518519e+00	 1.851852e+00	 9.943578e+00
0	 8.518519e+00	 1.925926e+00	 9.946218e+00
0	 8.518519e+00	 2.000000e+00	 9.948880e+00
0	 8.518519e+00	 2.074074e+00	 9.951570e+00
0	 8.518519e+00	 2.148148e+00	 9.954289e+00
0	 8.518519e+00	 2.222222e+00	 9.957042e+00
0	 8.148148e+00	 2.222222e+00	 1.000213e+01
0	 8.148148e+00	 2.296296e+00	 1.000463e+01
0	 8.148148e+00	 2.370370e+00	 1.000710e+01
0	 8.148148e+00	 2.444444e+00	 1.000956e+01
0	 8.148148e+00	 2.518519e+00	 1.001199e+01
0	 8.148148e+00	 2.592593e+00	 1.001442e+01
0	 8.222222e+00	 2.222222e+00	 9.993143e+00
0	 8.222222e+00	 2.296296e+00	 9.995682e+00
0	 8.222222e+00	 2.370370e+00	 9.998201e+00
0	 8.222222e+00	 2.444444e+00	 1.000070e+01
0	 8.222222e+00	 2.518519e+00	 1.000319e+01
0	 8.222222e+00	 2.592593e+00	 1.000567e+01
0	 8.296296e+00	 2.222222e+00	 9.984148e+00
0	 8.296296e+00	 2.296296e+00	 9.986735e+00
0	 8.296296e+00	 2.370370e+00	 9.989304e+00
0	 8.296296e+00	 2.444444e+00	 9.991861e+00
0	 8.296296e+00	 2.518519e+00	 9.994408e+00
0	 8.296296e+00	 2.592593e+00	 9.996951e+00
0	 8.370370e+00	 2.222222e+00	 9.975139e+00
0	 8.370370e+00	 2.296296e+00	 9.977779e+00
0	 8.370370e+00	 2.370370e+00	 9.980405e+00
0	 8.370370e+00	 2.444444e+00	 9.983023e+00
0	 8.370370e+00	 2.518519e+00	 9.985634e+00
0	 8.370370e+00	 2.592593e+00	 9.988244e+00
0	 8.444444e+00	 2.222222e+00	 9.966106e+00
0	 8.444444e+00	 2.296296e+00	 9.968806e+00
0	 8.444444e+00	 2.370370e+00	 9.971496e+00
0	 8.444444e+00	 2.444444e+00	 9.974181e+00
0	 8.444444e+00	 2.518519e+00	 9.976863e+00
0	 8.444444e+00	 2.592593e+00	 9.979546e+00
0	 8.518519e+00	 2.222222e+00	 9.957042e+00
0	 8.518519e+00	 2.296296e+00	 9.959809e+00
0	 8.518519e+00	 2.370370e+00	 9.962570e+00
0	 8.518519e+00	 2.444444e+00	 9.965328e+00
0	 8.518519e+00	 2.518519e+00	 9.968087e+00
0	 8.518519e+00	 2.592593e+00	 9.970850e+00
0	 8.148148e+00	 2.592593e+00	 1.001442e+01
0	 8.148148e+00	 2.666667e+00	 1.001681e+01
0	 8.148148e+00	 2.740741e+00	 1.001916e+01
0	 8.148148e+00	 2.814815e+00	 1.002146e+01
0	 8.148148e+00	 2.888889e+00	 1.002372e+01
0	 8.148148e+00	 2.962963e+00	 1.002594e+01
0	 8.222222e+00	 2.592593e+00	 1.000567e+01
0	 8.222222e+00	 2.666667e+00	 1.000813e+01
0	 8.222222e+00	 2.740741e+00	 1.001054e+01
0	 8.222222e+00	 2.814815e+00	 1.001291e+01
0	 8.222222e+00	 2.888889e+00	 1.001524e+01
0	 8.222222e+00	 2.962963e+00	 1.001753e+01
0	 8.296296e+00	 2.592593e+00	 9.996951e+00
0	 8.296296e+00	 2.666667e+00	 9.999471e+00
0	 8.296296e+00	 2.740741e+00	 1.000195e+01
0	 8.296296e+00	 2.814815e+00	 1.000439e+01
0	 8.296296e+00	 2.888889e+00	 1.000679e+01
0	 8.296296e+00	 2.962963e+00	 1.000917e+01
0	 8.370370e+00	 2.592593e+00	 9.988244e+00
0	 8.370370e+00	 2.666667e+00	 9.990834e+00
0	 8.370370e+00	 2.740741e+00	 9.993387e+00
0	 8.370370e+00	 2.814815e+00	 9.995904e+00
0	 8.370370e+00	 2.888889e+00	 9.998390e+00
0	 8.370370e+00	 2.962963e+00	 1.000085e+01
0	 8.444444e+00	 2.592593e+00	 9.979546e+00
0	 8.444444e+00	 2.666667e+00	 9.982213e+00
0	 8.444444e+00	 2.740741e+00	 9.984845e+00
0	 8.444444e+00	 2.814815e+00	 9.987446e+00
0	 8.444444e+00	 2.888889e+00	 9.990018e+00
0	 8.444444e+00	 2.962963e+00	 9.992565e+00
0	 8.518519e+00	 2.592593e+00	 9.970850e+00
0	 8.518519e+00	 2.666667e+00	 9.973600e+00
0	 8.518519e+00	 2.740741e+00	 9.976319e+00
0	 8.518519e+00	 2.814815e+00	 9.979009e+00
0	 8.518519e+00	 2.888889e+00	 9.981674e+00
0	 8.518519e+00	 2.962963e+00	 9.984316e+00
0	 8.148148e+00	 2.962963e+00	 1.002594e+01
0	 8.148148e+00	 3.037037e+00	 1.002810e+01
0	 8.148148e+00	 3.111111e+00	 1.003020e+01
0	 8.148148e+00	 3.185185e+00	 1.003223e+01
0	 8.148148e+00	 3.259259e+00	 1.003421e+01
0	 8.148148e+00	 3.333333e+00	 1.003612e+01
0	 8.222222e+00	 2.962963e+00	 1.001753e+01
0	 8.222222e+00	 3.037037e+00	 1.001977e+01
0	 8.222222e+00	 3.111111e+00	 1.002195e+01
0	 8.222222e+00	 3.185185e+00	 1.002407e+01
0	 8.222222e+00	 3.259259e+00	 1.002613e+01
0	 8.222222e+00	 3.333333e+00	 1.002814e+01
0	 8.296296e+00	 2.962963e+00	 1.000917e+01
0	 8.296296e+00	 3.037037e+00	 1.001149e+01
0	 8.296296e+00	 3.111111e+00	 1.001376e+01
0	 8.296296e+00	 3.185185e+00	 1.001597e+01
0	 8.296296e+00	 3.259259e+00	 1.001812e+01
0	 8.296296e+00	 3.333333e+00	 1.002022e+01
0	 8.370370e+00	 2.962963e+00	 1.000085e+01
0	 8.370370e+00	 3.037037e+00	 1.000326e+01
0	 8.370370e+00	 3.111111e+00	 1.000562e+01
0	 8.370370e+00	 3.185185e+00	 1.000792e+01
0	 8.370370e+00	 3.259259e+00	 1.001017e+01
0	 8.370370e+00	 3.333333e+00	 1.001237e+01
0	 8.444444e+00	 2.962963e+00	 9.992565e+00
0	 8.444444e+00	 3.037037e+00	 9.995071e+00
0	 8.444444e+00	 3.111111e+00	 9.997524e+00
0	 8.444444e+00	 3.185185e+00	 9.999924e+00
0	 8.444444e+00	 3.259259e+00	 1.000227e+01
0	 8.444444e+00	 3.333333e+00	 1.000458e+01
0	 8.518519e+00	 2.962963e+00	 9.984316e+00
0	 8.518519e+00	 3.037037e+00	 9.986920e+00
0	 8.518519e+00	 3.111111e+00	 9.989474e+00
0	 8.518519e+00	 3.185185e+00	 9.991977e+00
0	 8.518519e+00	 3.259259e+00	 9.994433e+00
0	 8.518519e+00	 3.333333e+00	 9.996844e+00
0	 8.148148e+00	 3.333333e+00	 1.003612e+01
0	 8.148148e+00	 3.407407e+00	 1.003796e+01
0	 8.148148e+00	 3.481481e+00	 1.003972e+01
0	 8.148148e+00	 3.555556e+00	 1.004140e+01
0	 8.148148e+00	 3.629630e+00	 1.004301e+01
0	 8.148148e+00	 3.703704e+00	 1.004454e+01
0	 8.222222e+00	 3.333333e+00	 1.002814e+01
0	 8.222222e+00	 3.407407e+00	 1.003007e+01
0	 8.222222e+00	 3.481481e+00	 1.003193e+01
0	 8.222222e+00	 3.555556e+00	 1.003372e+01
0	 8.222222e+00	 3.629630e+00	 1.003543e+01
0	 8.222222e+00	 3.703704e+00	 1.003707e+01
0	 8.296296e+00	 3.333333e+00	 1.002022e+01
0	 8.296296e+00	 3.407407e+00	 1.002226e+01
0	 8.296296e+00	 3.481481e+00	 1.002422e+01
0	 8.296296e+00	 3.555556e+00	 1.002611e+01
0	 8.296296e+00	 3.629630e+00	 1.002792e+01
0	 8.296296e+00	 3.703704e+00	 1.002967e+01
0	 8.370370e+00	 3.333333e+00	 1.001237e+01
0	 8.370370e+00	 3.407407e+00	 1.001450e+01
0	 8.370370e+00	 3.481481e+00	 1.001657e+01
0	 8.370370e+00	 3.555556e+00	 1.001857e+01
0	 8.370370e+00	 3.629630e+00	 1.002050e+01
0	 8.370370e+00	 3.703704e+00	 1.002236e+01
0	 8.444444e+00	 3.333333e+00	 1.000458e+01
0	 8.444444e+00	 3.407407e+00	 1.000682e+01
0	 8.444444e+00	 3.481481e+00	 1.000899e+01
0	 8.444444e+00	 3.555556e+00	 1.001110e+01
0	 8.444444e+00	 3.629630e+00	 1.001314e+01
0	 8.444444e+00	 3.703704e+00	 1.001512e+01
0	 8.518519e+00	 3.333333e+00	 9.996844e+00
0	 8.518519e+00	 3.407407e+00	 9.999198e+00
0	 8.518519e+00	 3.481481e+00	 1.000149e+01
0	 8.518519e+00	 3.555556e+00	 1.000371e+01
0	 8.518519e+00	 3.629630e+00	 1.000587e+01
0	 8.518519e+00	 3.703704e+00	 1.000796e+01
0	 8.148148e+00	 3.703704e+00	 1.004454e+01
0	 8.148148e+00	 3.777778e+00	 1.004599e+01
0	 8.148148e+00	 3.851852e+00	 1.004736e+01
0	 8.148148e+00	 3.925926e+00	 1.004864e+01
0	 8.148148e+00	 4.000000e+00	 1.004984e+01
0	 8.148148e+00	 4.074074e+00	 1.005095e+01
0	 8.222222e+00	 3.703704e+00	 1.003707e+01
0	 8.222222e+00	 3.777778e+00	 1.003863e+01
0	 8.222222e+00	 3.851852e+00	 1.004011e+01
0	 8.222222e+00	 3.925926e+00	 1.004151e+01
0	 8.222222e+00	 4.000000e+00	 1.004282e+01
0	 8.222222e+00	 4.074074e+00	 1.004406e+01
0	 8.296296e+00	 3.703704e+00	 1.002967e+01
0	 8.296296e+00	 3.777778e+00	 1.003135e+01
0	 8.296296e+00	 3.851852e+00	 1.003294e+01
0	 8.296296e+00	 3.925926e+00	 1.003445e+01
0	 8.296296e+00	 4.000000e+00	 1.003589e+01
0	 8.296296e+00	 4.074074e+00	 1.003724e+01
0	 8.370370e+00	 3.703704e+00	 1.002236e+01
0	 8.370370e+00	 3.777778e+00	 1.002415e+01
0	 8.370370e+00	 3.851852e+00	 1.002586e+01
0	 8.370370e+00	 3.925926e+00	 1.002749e+01
0	 8.370370e+00	 4.000000e+00	 1.002904e+01
0	 8.370370e+00	 4.074074e+00	 1.003051e+01
0	 8.444444e+00	 3.703704e+00	 1.001512e+01
0	 8.444444e+00	 3.777778e+00	 1.001703e+01
0	 8.444444e+00	 3.851852e+00	 1.001885e+01
0	 8.444444e+00	 3.925926e+00	 1.002060e+01
0	 8.444444e+00	 4.000000e+00	 1.002228e+01
0	 8.444444e+00	 4.074074e+00	 1.002388e+01
0	 8.518519e+00	 3.703704e+00	 1.000796e+01
0	 8.518519e+00	 3.777778e+00	 1.000999e+01
0	 8.518519e+00	 3.851852e+00	 1.001194e+01
0	 8.518519e+00	 3.925926e+00	 1.001381e+01
0	 8.518519e+00	 4.000000e+00	 1.001561e+01
0	 8.518519e+00	 4.074074e+00	 1.001734e+01
0	 8.148148e+00	 4.074074e+00	 1.005095e+01
0	 8.148148e+00	 4.148148e+00	 1.005199e+01
0	 8.148148e+00	 4.222222e+00	 1.005293e+01
0	 8.148148e+00	 4.296296e+00	 1.005379e+01
0	 8.148148e+00	 4.370370e+00	 1.005456e+01
0	 8.148148e+00	 4.444444e+00	 1.005525e+01
0	 8.222222e+00	 4.074074e+00	 1.004406e+01
0	 8.222222e+00	 4.148148e+00	 1.004521e+01
0	 8.222222e+00	 4.222222e+00	 1.004627e+01
0	 8.222222e+00	 4.296296e+00	 1.004726e+01
0	 8.222222e+00	 4.370370e+00	 1.004816e+01
0	 8.222222e+00	 4.444444e+00	 1.004897e+01
0	 8.296296e+00	 4.074074e+00	 1.003724e+01
0	 8.296296e+00	 4.148148e+00	 1.003851e+01
0	 8.296296e+00	 4.222222e+00	 1.003970e+01
0	 8.296296e+00	 4.296296e+00	 1.004081e+01
0	 8.296296e+00	 4.370370e+00	 1.004183e+01
0	 8.296296e+00	 4.444444e+00	 1.004277e+01
0	 8.370370e+00	 4.074074e+00	 1.003051e+01
0	 8.370370e+00	 4.148148e+00	 1.003191e+01
0	 8.370370e+00	 4.222222e+00	 1.003322e+01
0	 8.370370e+00	 4.296296e+00	 1.003445e+01
0	 8.370370e+00	 4.370370e+00	 1.003560e+01
0	 8.370370e+00	 4.444444e+00	 1.003667e+01
0	 8.444444e+00	 4.074074e+00	 1.002388e+01
0	 8.444444e+00	 4.148148e+00	 1.002540e+01
0	 8.444444e+00	 4.222222e+00	 1.002684e+01
0	 8.444444e+00	 4.296296e+00	 1.002819e+01
0	 8.444444e+00	 4.370370e+00	 1.002947e+01
0	 8.444444e+00	 4.444444e+00	 1.003066e+01
0	 8.518519e+00	 4.074074e+00	 1.001734e+01
0	 8.518519e+00	 4.148148e+00	 1.001898e+01
0	 8.518519e+00	 4.222222e+00	 1.002055e+01
0	 8.518519e+00	 4.296296e+00	 1.002203e+01
0	 8.518519e+00	 4.370370e+00	 1.002344e+01
0	 8.518519e+00	 4.444444e+00	 1.002476e+01
0	 8.148148e+00	 4.444444e+00	 1.005525e+01
0	 8.148148e+00	 4.518519e+00	 1.005585e+01
0	 8.148148e+00	 4.592593e+00	 1.005638e+01
0	 8.148148e+00	 4.666667e+00	 1.005682e+01
0	 8.148148e+00	 4.740741e+00	 1.005718e+01
0	 8.148148e+00	 4.814815e+00	 1.005745e+01
0	 8.222222e+00	 4.444444e+00	 1.004897e+01
0	 8.222222e+00	 4.518519e+00	 1.004970e+01
0	 8.222222e+00	 4.592593e+00	 1.005035e+01
0	 8.222222e+00	 4.666667e+00	 1.005092e+01
0	 8.222222e+00	 4.740741e+00	 1.005140e+01
0	 8.222222e+00	 4.814815e+00	 1.005181e+01
0	 8.296296e+00	 4.444444e+00	 1.004277e+01
0	 8.296296e+00	 4.518519e+00	 1.004363e+01
0	 8.296296e+00	 4.592593e+00	 1.004441e+01
0	 8.296296e+00	 4.666667e+00	 1.004511e+01
0	 8.296296e+00	 4.740741e+00	 1.004572e+01
0	 8.296296e+00	 4.814815e+00	 1.004625e+01
0	 8.370370e+00	 4.444444e+00	 1.003667e+01
0	 8.370370e+00	 4.518519e+00	 1.003766e+01
0	 8.370370e+00	 4.592593e+00	 1.003856e+01
0	 8.370370e+00	 4.666667e+00	 1.003938e+01
0	 8.370370e+00	 4.740741e+00	 1.004013e+01
0	 8.370370e+00	 4.814815e+00	 1.004079e+01
0	 8.444444e+00	 4.444444e+00	 1.003066e+01
0	 8.444444e+00	 4.518519e+00	 1.003178e+01
0	 8.444444e+00	 4.592593e+00	 1.003281e+01
0	 8.444444e+00	 4.666667e+00	 1.003376e+01
0	 8.444444e+00	 4.740741e+00	 1.003463e+01
0	 8.444444e+00	 4.814815e+00	 1.003542e+01
0	 8.518519e+00	 4.444444e+00	 1.002476e+01
0	 8.518519e+00	 4.518519e+00	 1.002600e+01
0	 8.518519e+00	 4.592593e+00	 1.002716e+01
0	 8.518519e+00	 4.666667e+00	 1.002824e+01
0	 8.518519e+00	 4.740741e+00	 1.002924e+01
0	 8.518519e+00	 4.814815e+00	 1.003016e+01
0	 8.148148e+00	 4.814815e+00	 1.005745e+01
0	 8.148148e+00	 4.888889e+00	 1.005764e+01
0	 8.148148e+00	 4.962963e+00	 1.005776e+01
0	 8.148148e+00	 5.037037e+00	 1.005781e+01
0	 8.148148e+00	 5.111111e+00	 1.005778e+01
0	 8.148148e+00	 5.185185e+00	 1.005767e+01
0	 8.222222e+00	 4.814815e+00	 1.005181e+01
0	 8.222222e+00	 4.888889e+00	 1.005213e+01
0	 8.222222e+00	 4.962963e+00	 1.005238e+01
0	 8.222222e+00	 5.037037e+00	 1.005256e+01
0	 8.222222e+00	 5.111111e+00	 1.005265e+01
0	 8.222222e+00	 5.185185e+00	 1.005267e+01
0	 8.296296e+00	 4.814815e+00	 1.004625e+01
0	 8.296296e+00	 4.888889e+00	 1.004670e+01
0	 8.296296e+00	 4.962963e+00	 1.004708e+01
0	 8.296296e+00	 5.037037e+00	 1.004739e+01
0	 8.296296e+00	 5.111111e+00	 1.004761e+01
0	 8.296296e+00	 5.185185e+00	 1.004776e+01
0	 8.370370e+00	 4.814815e+00	 1.004079e+01
0	 8.370370e+00	 4.888889e+00	 1.004137e+01
0	 8.370370e+00	 4.962963e+00	 1.004187e+01
0	 8.370370e+00	 5.037037e+00	 1.004230e+01
0	 8.370370e+00	 5.111111e+00	 1.004266e+01
0	 8.370370e+00	 5.185185e+00	 1.004293e+01
0	 8.444444e+00	 4.814815e+00	 1.003542e+01
0	 8.444444e+00	 4.888889e+00	 1.003613e+01
0	 8.444444e+00	 4.962963e+00	 1.003676e+01
0	 8.444444e+00	 5.037037e+00	 1.003732e+01
0	 8.444444e+00	 5.111111e+00	 1.003780e+01
0	 8.444444e+00	 5.185185e+00	 1.003820e+01
0	 8.518519e+00	 4.814815e+00	 1.003016e+01
0	 8.518519e+00	 4.888889e+00	 1.003099e+01
0	 8.518519e+00	 4.962963e+00	 1.003175e+01
0	 8.518519e+00	 5.037037e+00	 1.003244e+01
0	 8.518519e+00	 5.111111e+00	 1.003304e+01
0	 8.518519e+00	 5.185185e+00	 1.003356e+01
0	 8.148148e+00	 5.185185e+00	 1.005767e+01
0	 8.148148e+00	 5.259259e+00	 1.005749e+01
0	 8.148148e+00	 5.333333e+00	 1.005724e+01
0	 8.148148e+00	 5.407407e+00	 1.005693e+01
0	 8.148148e+00	 5.481481e+00	 1.005656e+01
0	 8.148148e+00	 5.555556e+00	 1.005611e+01
0	 8.222222e+00	 5.185185e+00	 1.005267e+01
0	 8.222222e+00	 5.259259e+00	 1.005262e+01
0	 8.222222e+00	 5.333333e+00	 1.005250e+01
0	 8.222222e+00	 5.407407e+00	 1.005232e+01
0	 8.222222e+00	 5.481481e+00	 1.005207e+01
0	 8.222222e+00	 5.555556e+00	 1.005175e+01
0	 8.296296e+00	 5.185185e+00	 1.004776e+01
0	 8.296296e+00	 5.259259e+00	 1.004783e+01
0	 8.296296e+00	 5.333333e+00	 1.004784e+01
0	 8.296296e+00	 5.407407e+00	 1.004778e+01
0	 8.296296e+00	 5.481481e+00	 1.004765e+01
0	 8.296296e+00	 5.555556e+00	 1.004746e+01
0	 8.370370e+00	 5.185185e+00	 1.004293e+01
0	 8.370370e+00	 5.259259e+00	 1.004313e+01
0	 8.370370e+00	 5.333333e+00	 1.004326e+01
0	 8.370370e+00	 5.407407e+00	 1.004333e+01
0	 8.370370e+00	 5.481481e+00	 1.004332e+01
0	 8.370370e+00	 5.555556e+00	 1.004324e+01
0	 8.444444e+00	 5.185185e+00	 1.003820e+01
0	 8.444444e+00	 5.259259e+00	 1.003852e+01
0	 8.444444e+00	 5.333333e+00	 1.003878e+01
0	 8.444444e+00	 5.407407e+00	 1.003896e+01
0	 8.444444e+00	 5.481481e+00	 1.003908e+01
0	 8.444444e+00	 5.555556e+00	 1.003912e+01
0	 8.518519e+00	 5.185185e+00	 1.003356e+01
0	 8.518519e+00	 5.259259e+00	 1.003401e+01
0	 8.518519e+00	 5.333333e+00	 1.003439e+01
0	 8.518519e+00	 5.407407e+00	 1.003470e+01
0	 8.518519e+00	 5.481481e+00	 1.003493e+01
0	 8.518519e+00	 5.555556e+00	 1.003509e+01
0	 8.148148e+00	 5.555556e+00	 1.005611e+01
0	 8.148148e+00	 5.629630e+00	 1.005560e+01
0	 8.148148e+00	 5.703704e+00	 1.005504e+01
0	 8.148148e+00	 5.777778e+00	 1.005442e+01
0	 8.148148e+00	 5.851852e+00	 1.005375e+01
0	 8.148148e+00	 5.925926e+00	 1.005301e+01
0	 8.222222e+00	 5.555556e+00	 1.005175e+01
0	 8.222222e+00	 5.629630e+00	 1.005136e+01
0	 8.222222e+00	 5.703704e+00	 1.005092e+01
0	 8.222222e+00	 5.777778e+00	 1.005043e+01
0	 8.222222e+00	 5.851852e+00	 1.004987e+01
0	 8.222222e+00	 5.925926e+00	 1.004926e+01
0	 8.296296e+00	 5.555556e+00	 1.004746e+01
0	 8.296296e+00	 5.629630e+00	 1.004719e+01
0	 8.296296e+00	 5.703704e+00	 1.004687e+01
0	 8.296296e+00	 5.777778e+00	 1.004650e+01
0	 8.296296e+00	 5.851852e+00	 1.004606e+01
0	 8.296296e+00	 5.925926e+00	 1.004556e+01
0	 8.370370e+00	 5.555556e+00	 1.004324e+01
0	 8.370370e+00	 5.629630e+00	 1.004310e+01
0	 8.370370e+00	 5.703704e+00	 1.004290e+01
0	 8.370370e+00	 5.777778e+00	 1.004264e+01
0	 8.370370e+00	 5.851852e+00	 1.004233e+01
0	 8.370370e+00	 5.925926e+00	 1.004194e+01
0	 8.444444e+00	 5.555556e+00	 1.003912e+01
0	 8.444444e+00	 5.629630e+00	 1.003910e+01
0	 8.444444e+00	 5.703704e+00	 1.003902e+01
0	 8.444444e+00	 5.777778e+00	 1.003887e+01
0	 8.444444e+00	 5.851852e+00	 1.003867e+01
0	 8.444444e+00	 5.925926e+00	 1.003840e+01
0	 8.518519e+00	 5.555556e+00	 1.003509e+01
0	 8.518519e+00	 5.629630e+00	 1.003519e+01
0	 8.518519e+00	 5.703704e+00	 1.003522e+01
0	 8.518519e+00	 5.777778e+00	 1.003519e+01
0	 8.518519e+00	 5.851852e+00	 1.003510e+01
0	 8.518519e+00	 5.925926e+00	 1.003494e+01
0	 8.148148e+00	 5.925926e+00	 1.005301e+01
0	 8.148148e+00	 6.000000e+00	 1.005223e+01
0	 8.148148e+00	 6.074074e+00	 1.005140e+01
0	 8.148148e+00	 6.148148e+00	 1.005053e+01
0	 8.148148e+00	 6.222222e+00	 1.004962e+01
0	 8.148148e+00	 6.296296e+00	 1.004866e+01
0	 8.222222e+00	 5.925926e+00	 1.004926e+01
0	 8.222222e+00	 6.000000e+00	 1.004859e+01
0	 8.222222e+00	 6.074074e+00	 1.004788e+01
0	 8.222222e+00	 6.148148e+00	 1.004713e+01
0	 8.222222e+00	 6.222222e+00	 1.004633e+01
0	 8.222222e+00	 6.296296e+00	 1.004548e+01
0	 8.296296e+00	 5.925926e+00	 1.004556e+01
0	 8.296296e+00	 6.000000e+00	 1.004501e+01
0	 8.296296e+00	 6.074074e+00	 1.004442e+01
0	 8.296296e+00	 6.148148e+00	 1.004378e+01
0	 8.296296e+00	 6.222222e+00	 1.004309e+01
0	 8.296296e+00	 6.296296e+00	 1.004235e+01
0	 8.370370e+00	 5.925926e+00	 1.004194e+01
0	 8.370370e+00	 6.000000e+00	 1.004151e+01
0	 8.370370e+00	 6.074074e+00	 1.004102e+01
0	 8.370370e+00	 6.148148e+00	 1.004049e+01
0	 8.370370e+00	 6.222222e+00	 1.003991e+01
0	 8.370370e+00	 6.296296e+00	 1.003928e+01
0	 8.444444e+00	 5.925926e+00	 1.003840e+01
0	 8.444444e+00	 6.000000e+00	 1.003807e+01
0	 8.444444e+00	 6.074074e+00	 1.003770e+01
0	 8.444444e+00	 6.148148e+00	 1.003728e+01
0	 8.444444e+00	 6.222222e+00	 1.003680e+01
0	 8.444444e+00	 6.296296e+00	 1.003627e+01
0	 8.518519e+00	 5.925926e+00	 1.003494e+01
0	 8.518519e+00	 6.000000e+00	 1.003473e+01
0	 8.518519e+00	 6.074074e+00	 1.003446e+01
0	 8.518519e+00	 6.148148e+00	 1.003414e+01
0	 8.518519e+00	 6.222222e+00	 1.003377e+01
0	 8.518519e+00	 6.296296e+00	 1.003334e+01
0	 8.148148e+00	 6.296296e+00	 1.004866e+01
0	 8.148148e+00	 6.370370e+00	 1.004766e+01
0	 8.148148e+00	 6.444444e+00	 1.004663e+01
0	 8.148148e+00	 6.518519e+00	 1.004556e+01
0	 8.148148e+00	 6.592593e+00	 1.004447e+01
0	 8.148148e+00	 6.666667e+00	 1.004334e+01
0	 8.222222e+00	 6.296296e+00	 1.004548e+01
0	 8.222222e+00	 6.370370e+00	 1.004458e+01
0	 8.222222e+00	 6.444444e+00	 1.004366e+01
0	 8.222222e+00	 6.518519e+00	 1.004271e+01
0	 8.222222e+00	 6.592593e+00	 1.004171e+01
0	 8.222222e+00	 6.666667e+00	 1.004068e+01
0	 8.296296e+00	 6.296296e+00	 1.004235e+01
0	 8.296296e+00	 6.370370e+00	 1.004156e+01
0	 8.296296e+00	 6.444444e+00	 1.004075e+01
0	 8.296296e+00	 6.518519e+00	 1.003989e+01
0	 8.296296e+00	 6.592593e+00	 1.003900e+01
0	 8.296296e+00	 6.666667e+00	 1.003808e+01
0	 8.370370e+00	 6.296296e+00	 1.003928e+01
0	 8.370370e+00	 6.370370e+00	 1.003860e+01
0	 8.370370e+00	 6.444444e+00	 1.003789e+01
0	 8.370370e+00	 6.518519e+00	 1.003714e+01
0	 8.370370e+00	 6.592593e+00	 1.003635e+01
0	 8.370370e+00	 6.666667e+00	 1.003552e+01
0	 8.444444e+00	 6.296296e+00	 1.003627e+01
0	 8.444444e+00	 6.370370e+00	 1.003570e+01
0	 8.444444e+00	 6.444444e+00	 1.003509e+01
0	 8.444444e+00	 6.518519e+00	 1.003444e+01
0	 8.444444e+00	 6.592593e+00	 1.003375e+01
0	 8.444444e+00	 6.666667e+00	 1.003301e+01
0	 8.518519e+00	 6.296296e+00	 1.003334e+01
0	 8.518519e+00	 6.370370e+00	 1.003287e+01
0	 8.518519e+00	 6.444444e+00	 1.003236e+01
0	 8.518519e+00	 6.518519e+00	 1.003180e+01
0	 8.518519e+00	 6.592593e+00	 1.003121e+01
0	 8.518519e+00	 6.666667e+00	 1.003057e+01
0	 8.148148e+00	 6.666667e+00	 1.004334e+01
0	 8.148148e+00	 6.740741e+00	 1.004218e+01
0	 8.148148e+00	 6.814815e+00	 1.004100e+01
0	 8.148148e+00	 6.888889e+00	 1.003980e+01
0	 8.148148e+00	 6.962963e+00	 1.003858e+01
0	 8.148148e+00	 7.037037e+00	 1.003734e+01
0	 8.222222e+00	 6.666667e+00	 1.004068e+01
0	 8.222222e+00	 6.740741e+00	 1.003963e+01
0	 8.222222e+00	 6.814815e+00	 1.003855e+01
0	 8.222222e+00	 6.888889e+00	 1.003745e+01
0	 8.222222e+00	 6.962963e+00	 1.003633e+01
0	 8.222222e+00	 7.037037e+00	 1.003518e+01
0	 8.296296e+00	 6.666667e+00	 1.003808e+01
0	 8.296296e+00	 6.740741e+00	 1.003712e+01
0	 8.296296e+00	 6.814815e+00	 1.003614e+01
0	 8.296296e+00	 6.888889e+00	 1.003514e+01
0	 8.296296e+00	 6.962963e+00	 1.003411e+01
0	 8.296296e+00	 7.037037e+00	 1.003305e+01
0	 8.370370e+00	 6.666667e+00	 1.003552e+01
0	 8.370370e+00	 6.740741e+00	 1.003466e+01
0	 8.370370e+00	 6.814815e+00	 1.003377e+01
0	 8.370370e+00	 6.888889e+00	 1.003286e+01
0	 8.370370e+00	 6.962963e+00	 1.003193e+01
0	 8.370370e+00	 7.037037e+00	 1.003096e+01
0	 8.444444e+00	 6.666667e+00	 1.003301e+01
0	 8.444444e+00	 6.740741e+00	 1.003225e+01
0	 8.444444e+00	 6.814815e+00	 1.003146e+01
0	 8.444444e+00	 6.888889e+00	 1.003064e+01
0	 8.444444e+00	 6.962963e+00	 1.002979e+01
0	 8.444444e+00	 7.037037e+00	 1.002891e+01
0	 8.518519e+00	 6.666667e+00	 1.003057e+01
0	 8.518519e+00	 6.740741e+00	 1.002990e+01
0	 8.518519e+00	 6.814815e+00	 1.002920e+01
0	 8.518519e+00	 6.888889e+00	 1.002847e+01
0	 8.518519e+00	 6.962963e+00	 1.002771e+01
0	 8.518519e+00	 7.037037e+00	 1.002691e+01
0	 8.148148e+00	 7.037037e+00	 1.003734e+01
0	 8.148148e+00	 7.111111e+00	 1.003608e+01
0	 8.148148e+00	 7.185185e+00	 1.003482e+01
0	 8.148148e+00	 7.259259e+00	 1.003355e+01
0	 8.148148e+00	 7.333333e+00	 1.003226e+01
0	 8.148148e+00	 7.407407e+00	 1.003097e+01
0	 8.222222e+00	 7.037037e+00	 1.003518e+01
0	 8.222222e+00	 7.111111e+00	 1.003401e+01
0	 8.222222e+00	 7.185185e+00	 1.003284e+01
0	 8.222222e+00	 7.259259e+00	 1.003166e+01
0	 8.222222e+00	 7.333333e+00	 1.003046e+01
0	 8.222222e+00	 7.407407e+00	 1.002925e+01
0	 8.296296e+00	 7.037037e+00	 1.003305e+01
0	 8.296296e+00	 7.111111e+00	 1.003198e+01
0	 8.296296e+00	 7.185185e+00	 1.003089e+01
0	 8.296296e+00	 7.259259e+00	 1.002980e+01
0	 8.296296e+00	 7.333333e+00	 1.002869e+01
0	 8.296296e+00	 7.407407e+00	 1.002756e+01
0	 8.370370e+00	 7.037037e+00	 1.003096e+01
0	 8.370370e+00	 7.111111e+00	 1.002998e+01
0	 8.370370e+00	 7.185185e+00	 1.002898e+01
0	 8.370370e+00	 7.259259e+00	 1.002797e+01
0	 8.370370e+00	 7.333333e+00	 1.002694e+01
0	 8.370370e+00	 7.407407e+00	 1.002590e+01
0	 8.444444e+00	 7.037037e+00	 1.002891e+01
0	 8.444444e+00	 7.111111e+00	 1.002801e+01
0	 8.444444e+00	 7.185185e+00	 1.002710e+01
0	 8.444444e+00	 7.259259e+00	 1.002617e+01
0	 8.444444e+00	 7.333333e+00	 1.002523e+01
0	 8.444444e+00	 7.407407e+00	 1.002426e+01
0	 8.518519e+00	 7.037037e+00	 1.002691e+01
0	 8.518519e+00	 7.111111e+00	 1.002610e+01
0	 8.518519e+00	 7.185185e+00	 1.002527e+01
0	 8.518519e+00	 7.259259e+00	 1.002442e+01
0	 8.518519e+00	 7.333333e+00	 1.002355e+01
0	 8.518519e+00	 7.407407e+00	 1.002267e+01
0	 8.148148e+00	 7.407407e+00	 1.003097e+01
0	 8.148148e+00	 7.481481e+00	 1.002967e+01
0	 8.148148e+00	 7.555556e+00	 1.002838e+01
0	 8.148148e+00	 7.629630e+00	 1.002708e+01
0	 8.148148e+00	 7.703704e+00	 1.002580e+01
0	 8.148148e+00	 7.777778e+00	 1.002451e+01
0	 8.222222e+00	 7.407407e+00	 1.002925e+01
0	 8.222222e+00	 7.481481e+00	 1.002804e+01
0	 8.222222e+00	 7.555556e+00	 1.002683e+01
0	 8.222222e+00	 7.629630e+00	 1.002562e+01
0	 8.222222e+00	 7.703704e+00	 1.002440e+01
0	 8.222222e+00	 7.777778e+00	 1.002319e+01
0	 8.296296e+00	 7.407407e+00	 1.002756e+01
0	 8.296296e+00	 7.481481e+00	 1.002643e+01
0	 8.296296e+00	 7.555556e+00	 1.002530e+01
0	 8.296296e+00	 7.629630e+00	 1.002417e+01
0	 8.296296e+00	 7.703704e+00	 1.002303e+01
0	 8.296296e+00	 7.777778e+00	 1.002189e+01
0	 8.370370e+00	 7.407407e+00	 1.002590e+01
0	 8.370370e+00	 7.481481e+00	 1.002484e+01
0	 8.370370e+00	 7.555556e+00	 1.002379e+01
0	 8.370370e+00	 7.629630e+00	 1.002274e+01
0	 8.370370e+00	 7.703704e+00	 1.002168e+01
0	 8.370370e+00	 7.777778e+00	 1.002062e+01
0	 8.444444e+00	 7.407407e+00	 1.002426e+01
0	 8.444444e+00	 7.481481e+00	 1.002329e+01
0	 8.444444e+00	 7.555556e+00	 1.002231e+01
0	 8.444444e+00	 7.629630e+00	 1.002134e+01
0	 8.444444e+00	 7.703704e+00	 1.002035e+01
0	 8.444444e+00	 7.777778e+00	 1.001936e+01
0	 8.518519e+00	 7.407407e+00	 1.002267e+01
0	 8.518519e+00	 7.481481e+00	 1.002177e+01
0	 8.518519e+00	 7.555556e+00	 1.002087e+01
0	 8.518519e+00	 7.629630e+00	 1.001996e+01
0	 8.518519e+00	 7.703704e+00	 1.001905e+01
0	 8.518519e+00	 7.777778e+00	 1.001813e+01
0	 8.148148e+00	 7.777778e+00	 1.002451e+01
0	 8.148148e+00	 7.851852e+00	 1.002322e+01
0	 8.148148e+00	 7.925926e+00	 1.002196e+01
0	 8.148148e+00	 8.000000e+00	 1.002071e+01
0	 8.148148e+00	 8.074074e+00	 1.001947e+01
0	 8.148148e+00	 8.148148e+00	 1.001824e+01
0	 8.222222e+00	 7.777778e+00	 1.002319e+01
0	 8.222222e+00	 7.851852e+00	 1.002198e+01
0	 8.222222e+00	 7.925926e+00	 1.002079e+01
0	 8.222222e+00	 8.000000e+00	 1.001961e+01
0	 8.222222e+00	 8.074074e+00	 1.001844e+01
0	 8.222222e+00	 8.148148e+00	 1.001728e+01
0	 8.296296e+00	 7.777778e+00	 1.002189e+01
0	 8.296296e+00	 7.851852e+00	 1.002076e+01
0	 8.296296e+00	 7.925926e+00	 1.001964e+01
0	 8.296296e+00	 8.000000e+00	 1.001853e+01
0	 8.296296e+00	 8.074074e+00	 1.001743e+01
0	 8.296296e+00	 8.148148e+00	 1.001634e+01
0	 8.370370e+00	 7.777778e+00	 1.002062e+01
0	 8.370370e+00	 7.851852e+00	 1.001955e+01
0	 8.370370e+00	 7.925926e+00	 1.001850e+01
0	 8.370370e+00	 8.000000e+00	 1.001746e+01
0	 8.370370e+00	 8.074074e+00	 1.001643e+01
0	 8.370370e+00	 8.148148e+00	 1.001540e+01
0	 8.444444e+00	 7.777778e+00	 1.001936e+01
0	 8.444444e+00	 7.851852e+00	 1.001837e+01
0	 8.444444e+00	 7.925926e+00	 1.001739e+01
0	 8.444444e+00	 8.000000e+00	 1.001641e+01
0	 8.444444e+00	 8.074074e+00	 1.001545e+01
0	 8.444444e+00	 8.148148e+00	 1.001448e+01
0	 8.518519e+00	 7.777778e+00	 1.001813e+01
0	 8.518519e+00	 7.851852e+00	 1.001720e+01
0	 8.518519e+00	 7.925926e+00	 1.001629e+01
0	 8.518519e+00	 8.000000e+00	 1.001538e+01
0	 8.518519e+00	 8.074074e+00	 1.001448e+01
0	 8.518519e+00	 8.148148e+00	 1.001358e+01
0	 8.148148e+00	 8.148148e+00	 1.001824e+01
0	 8.148148e+00	 8.222222e+00	 1.001703e+01
0	 8.148148e+00	 8.296296e+00	 1.001585e+01
0	 8.148148e+00	 8.370370e+00	 1.001470e+01
0	 8.148148e+00	 8.444444e+00	 1.001357e+01
0	 8.148148e+00	 8.518519e+00	 1.001246e+01
0	 8.222222e+00	 8.148148e+00	 1.001728e+01
0	 8.222222e+00	 8.222222e+00	 1.001614e+01
0	 8.222222e+00	 8.296296e+00	 1.001503e+01
0	 8.222222e+00	 8.370370e+00	 1.001393e+01
0	 8.222222e+00	 8.444444e+00	 1.001286e+01
0	 8.222222e+00	 8.518519e+00	 1.001181e+01
0	 8.296296e+00	 8.148148e+00	 1.001634e+01
0	 8.296296e+00	 8.222222e+00	 1.001526e+01
0	 8.296296e+00	 8.296296e+00	 1.001421e+01
0	 8.296296e+00	 8.370370e+00	 1.001318e+01
0	 8.296296e+00	 8.444444e+00	 1.001217e+01
0	 8.296296e+00	 8.518519e+00	 1.001118e+01
0	 8.370370e+00	 8.148148e+00	 1.001540e+01
0	 8.370370e+00	 8.222222e+00	 1.001439e+01
0	 8.370370e+00	 8.296296e+00	 1.001340e+01
0	 8.370370e+00	 8.370370e+00	 1.001243e+01
0	 8.370370e+00	 8.444444e+00	 1.001148e+01
0	 8.370370e+00	 8.518519e+00	 1.001054e+01
0	 8.444444e+00	 8.148148e+00	 1.001448e+01
0	 8.444444e+00	 8.222222e+00	 1.001353e+01
0	 8.444444e+00	 8.296296e+00	 1.001260e+01
0	 8.444444e+00	 8.370370e+00	 1.001169e+01
0	 8.444444e+00	 8.444444e+00	 1.001080e+01
0	 8.444444e+00	 8.518519e+00	 1.000992e+01
0	 8.518519e+00	 8.148148e+00	 1.001358e+01
0	 8.518519e+00	 8.222222e+00	 1.001269e+01
0	 8.518519e+00	 8.296296e+00	 1.001182e+01
0	 8.518519e+00	 8.370370e+00	 1.001097e+01
0	 8.518519e+00	 8.444444e+00	 1.001013e+01
0	 8.518519e+00	 8.518519e+00	 1.000930e+01
0	 8.148148e+00	 8.518519e+00	 1.001246e+01
0	 8.148148e+00	 8.592593e+00	 1.001138e+01
0	 8.148148e+00	 8.666667e+00	 1.001034e+01
0	 8.148148e+00	 8.740741e+00	 1.000934e+01
0	 8.148148e+00	 8.814815e+00	 1.000838e+01
0	 8.148148e+00	 8.888889e+00	 1.000745e+01
0	 8.222222e+00	 8.518519e+00	 1.001181e+01
0	 8.222222e+00	 8.592593e+00	 1.001079e+01
0	 8.222222e+00	 8.666667e+00	 1.000981e+01
0	 8.222222e+00	 8.740741e+00	 1.000886e+01
0	 8.222222e+00	 8.814815e+00	 1.000795e+01
0	 8.222222e+00	 8.888889e+00	 1.000707e+01
0	 8.296296e+00	 8.518519e+00	 1.001118e+01
0	 8.296296e+00	 8.592593e+00	 1.001021e+01
0	 8.296296e+00	 8.666667e+00	 1.000928e+01
0	 8.296296e+00	 8.740741e+00	 1.000839e+01
0	 8.296296e+00	 8.814815e+00	 1.000752e+01
0	 8.296296e+00	 8.888889e+00	 1.000669e+01
0	 8.370370e+00	 8.518519e+00	 1.001054e+01
0	 8.370370e+00	 8.592593e+00	 1.000963e+01
0	 8.370370e+00	 8.666667e+00	 1.000876e+01
0	 8.370370e+00	 8.740741e+00	 1.000791e+01
0	 8.370370e+00	 8.814815e+00	 1.000710e+01
0	 8.370370e+00	 8.888889e+00	 1.000631e+01
0	 8.444444e+00	 8.518519e+00	 1.000992e+01
0	 8.444444e+00	 8.592593e+00	 1.000906e+01
0	 8.444444e+00	 8.666667e+00	 1.000824e+01
0	 8.444444e+00	 8.740741e+00	 1.000744e+01
0	 8.444444e+00	 8.814815e+00	 1.000668e+01
0	 8.444444e+00	 8.888889e+00	 1.000593e+01
0	 8.518519e+00	 8.518519e+00	 1.000930e+01
0	 8.518519e+00	 8.592593e+00	 1.000850e+01
0	 8.518519e+00	 8.666667e+00	 1.000773e+01
0	 8.518519e+00	 8.740741e+00	 1.000698e+01
0	 8.518519e+00	 8.814815e+00	 1.000626e+01
0	 8.518519e+00	 8.888889e+00	 1.000557e+01
0	 8.148148e+00	 8.888889e+00	 1.000745e+01
0	 8.148148e+00	 8.962963e+00	 1.000656e+01
0	 8.148148e+00	 9.037037e+00	 1.000572e+01
0	 8.148148e+00	 9.111111e+00	 1.000494e+01
0	 8.148148e+00	 9.185185e+00	 1.000420e+01
0	 8.148148e+00	 9.259259e+00	 1.000350e+01
0	 8.222222e+00	 8.888889e+00	 1.000707e+01
0	 8.222222e+00	 8.962963e+00	 1.000622e+01
0	 8.222222e+00	 9.037037e+00	 1.000543e+01
0	 8.222222e+00	 9.111111e+00	 1.000469e+01
0	 8.222222e+00	 9.185185e+00	 1.000398e+01
0	 8.222222e+00	 9.259259e+00	 1.000333e+01
0	 8.296296e+00	 8.888889e+00	 1.000669e+01
0	 8.296296e+00	 8.962963e+00	 1.000589e+01
0	 8.296296e+00	 9.037037e+00	 1.000514e+01
0	 8.296296e+00	 9.111111e+00	 1.000443e+01
0	 8.296296e+00	 9.185185e+00	 1.000377e+01
0	 8.296296e+00	 9.259259e+00	 1.000315e+01
0	 8.370370e+00	 8.888889e+00	 1.000631e+01
0	 8.370370e+00	 8.962963e+00	 1.000556e+01
0	 8.370370e+00	 9.037037e+00	 1.000485e+01
0	 8.370370e+00	 9.111111e+00	 1.000418e+01
0	 8.370370e+00	 9.185185e+00	 1.000356e+01
0	 8.370370e+00	 9.259259e+00	 1.000297e+01
0	 8.444444e+00	 8.888889e+00	 1.000593e+01
0	 8.444444e+00	 8.962963e+00	 1.000523e+01
0	 8.444444e+00	 9.037037e+00	 1.000456e+01
0	 8.444444e+00	 9.111111e+00	 1.000393e+01
0	 8.444444e+00	 9.185185e+00	 1.000334e+01
0	 8.444444e+00	 9.259259e+00	 1.000279e+01
0	 8.518519e+00	 8.888889e+00	 1.000557e+01
0	 8.518519e+00	 8.962963e+00	 1.000490e+01
0	 8.518519e+00	 9.037037e+00	 1.000428e+01
0	 8.518519e+00	 9.111111e+00	 1.000369e+01
0	 8.518519e+00	 9.185185e+00	 1.000314e+01
0	 8.518519e+00	 9.259259e+00	 1.000262e+01
0	 8.148148e+00	 9.259259e+00	 1.000350e+01
0	 8.148148e+00	 9.333333e+00	 1.000286e+01
0	 8.148148e+00	 9.407407e+00	 1.000229e+01
0	 8.148148e+00	 9.481481e+00	 1.000178e+01
0	 8.148148e+00	 9.555556e+00	 1.000132e+01
0	 8.148148e+00	 9.629630e+00	 1.000092e+01
0	 8.222222e+00	 9.259259e+00	 1.000333e+01
0	 8.222222e+00	 9.333333e+00	 1.000272e+01
0	 8.222222e+00	 9.407407e+00	 1.000217e+01
0	 8.222222e+00	 9.481481e+00	 1.000169e+01
0	 8.222222e+00	 9.555556e+00	 1.000126e+01
0	 8.222222e+00	 9.629630e+00	 1.000088e+01
0	 8.296296e+00	 9.259259e+00	 1.000315e+01
0	 8.296296e+00	 9.333333e+00	 1.000257e+01
0	 8.296296e+00	 9.407407e+00	 1.000206e+01
0	 8.296296e+00	 9.481481e+00	 1.000160e+01
0	 8.296296e+00	 9.555556e+00	 1.000119e+01
0	 8.296296e+00	 9.629630e+00	 1.000083e+01
0	 8.370370e+00	 9.259259e+00	 1.000297e+01
0	 8.370370e+00	 9.333333e+00	 1.000243e+01
0	 8.370370e+00	 9.407407e+00	 1.000194e+01
0	 8.370370e+00	 9.481481e+00	 1.000150e+01
0	 8.370370e+00	 9.555556e+00	 1.000112e+01
0	 8.370370e+00	 9.629630e+00	 1.000078e+01
0	 8.444444e+00	 9.259259e+00	 1.000279e+01
0	 8.444444e+00	 9.333333e+00	 1.000228e+01
0	 8.444444e+00	 9.407407e+00	 1.000182e+01
0	 8.444444e+00	 9.481481e+00	 1.000141e+01
0	 8.444444e+00	 9.555556e+00	 1.000105e+01
0	 8.444444e+00	 9.629630e+00	 1.000074e+01
0	 8.518519e+00	 9.259259e+00	 1.000262e+01
0	 8.518519e+00	 9.333333e+00	 1.000214e+01
0	 8.518519e+00	 9.407407e+00	 1.000171e+01
0	 8.518519e+00	 9.481481e+00	 1.000133e+01
0	 8.518519e+00	 9.555556e+00	 1.000099e+01
0	 8.518519e+00	 9.629630e+00	 1.000069e+01
0	 8.148148e+00	 9.629630e+00	 1.000092e+01
0	 8.148148e+00	 9.703704e+00	 1.000059e+01
0	 8.148148e+00	 9.777778e+00	 1.000034e+01
0	 8.148148e+00	 9.851852e+00	 1.000015e+01
0	 8.148148e+00	 9.925926e+00	 1.000004e+01
0	 8.148148e+00	 1.000000e+01	 9.999994e+00
0	 8.222222e+00	 9.629630e+00	 1.000088e+01
0	 8.222222e+00	 9.703704e+00	 1.000056e+01
0	 8.222222e+00	 9.777778e+00	 1.000032e+01
0	 8.222222e+00	 9.851852e+00	 1.000015e+01
0	 8.222222e+00	 9.925926e+00	 1.000004e+01
0	 8.222222e+00	 1.000000e+01	 9.999996e+00
0	 8.296296e+00	 9.629630e+00	 1.000083e+01
0	 8.296296e+00	 9.703704e+00	 1.000053e+01
0	 8.296296e+00	 9.777778e+00	 1.000030e+01
0	 8.296296e+00	 9.851852e+00	 1.000014e+01
0	 8.296296e+00	 9.925926e+00	 1.000004e+01
0	 8.296296e+00	 1.000000e+01	 9.999995e+00
0	 8.370370e+00	 9.629630e+00	 1.000078e+01
0	 8.370370e+00	 9.703704e+00	 1.000050e+01
0	 8.370370e+00	 9.777778e+00	 1.000029e+01
0	 8.370370e+00	 9.851852e+00	 1.000013e+01
0	 8.370370e+00	 9.925926e+00	 1.000003e+01
0	 8.370370e+00	 1.000000e+01	 9.999993e+00
0	 8.444444e+00	 9.629630e+00	 1.000074e+01
0	 8.444444e+00	 9.703704e+00	 1.000047e+01
0	 8.444444e+00	 9.777778e+00	 1.000027e+01
0	 8.444444e+00	 9.851852e+00	 1.000012e+01
0	 8.444444e+00	 9.925926e+00	 1.000003e+01
0	 8.444444e+00	 1.000000e+01	 9.999992e+00
0	 8.518519e+00	 9.629630e+00	 1.000069e+01
0	 8.518519e+00	 9.703704e+00	 1.000044e+01
0	 8.518519e+00	 9.777778e+00	 1.000025e+01
0	 8.518519e+00	 9.851852e+00	 1.000012e+01
0	 8.518519e+00	 9.925926e+00	 1.000003e+01
0	 8.518519e+00	 1.000000e+01	 9.999995e+00
0	 8.518519e+00	 0.000000e+00	 9.905722e+00
0	 8.518519e+00	 7.407407e-02	 9.905793e+00
0	 8.518519e+00	 1.481481e-01	 9.906001e+00
0	 8.518519e+00	 2.222222e-01	 9.906348e+00
0	 8.518519e+00	 2.962963e-01	 9.906834e+00
0	 8.518519e+00	 3.703704e-01	 9.907459e+00
0	 8.592593e+00	 0.000000e+00	 9.895656e+00
0	 8.592593e+00	 7.407407e-02	 9.895728e+00
0	 8.592593e+00	 1.481481e-01	 9.895939e+00
0	 8.592593e+00	 2.222222e-01	 9.896290e+00
0	 8.592593e+00	 2.962963e-01	 9.896782e+00
0	 8.592593e+00	 3.703704e-01	 9.897415e+00
0	 8.666667e+00	 0.000000e+00	 9.885400e+00
0	 8.666667e+00	 7.407407e-02	 9.885472e+00
0	 8.666667e+00	 1.481481e-01	 9.885687e+00
0	 8.666667e+00	 2.222222e-01	 9.886043e+00
0	 8.666667e+00	 2.962963e-01	 9.886543e+00
0	 8.666667e+00	 3.703704e-01	 9.887186e+00
0	 8.740741e+00	 0.000000e+00	 9.874935e+00
0	 8.740741e+00	 7.407407e-02	 9.875009e+00
0	 8.740741e+00	 1.481481e-01	 9.875227e+00
0	 8.740741e+00	 2.222222e-01	 9.875590e+00
0	 8.740741e+00	 2.962963e-01	 9.876099e+00
0	 8.740741e+00	 3.703704e-01	 9.876754e+00
0	 8.814815e+00	 0.000000e+00	 9.864244e+00
0	 8.814815e+00	 7.407407e-02	 9.864319e+00
0	 8.814815e+00	 1.481481e-01	 9.864542e+00
0	 8.814815e+00	 2.222222e-01	 9.864913e+00
0	 8.814815e+00	 2.962963e-01	 9.865433e+00
0	 8.814815e+00	 3.703704e-01	 9.866102e+00
0	 8.888889e+00	 0.000000e+00	 9.853311e+00
0	 8.888889e+00	 7.407407e-02	 9.853387e+00
0	 8.888889e+00	 1.481481e-01	 9.853615e+00
0	 8.888889e+00	 2.222222e-01	 9.853996e+00
0	 8.888889e+00	 2.962963e-01	 9.854529e+00
0	 8.888889e+00	 3.703704e-01	 9.855215e+00
0	 8.518519e+00	 3.703704e-01	 9.907459e+00
0	 8.518519e+00	 4.444444e-01	 9.908218e+00
0	 8.518519e+00	 5.185185e-01	 9.909104e+00
0	 8.518519e+00	 5.925926e-01	 9.910118e+00
0	 8.518519e+00	 6.666667e-01	 9.911263e+00
0	 8.518519e+00	 7.407407e-01	 9.912541e+00
0	 8.592593e+00	 3.703704e-01	 9.897415e+00
0	 8.592593e+00	 4.444444e-01	 9.898184e+00
0	 8.592593e+00	 5.185185e-01	 9.899081e+00
0	 8.592593e+00	 5.925926e-01	 9.900109e+00
0	 8.592593e+00	 6.666667e-01	 9.901270e+00
0	 8.592593e+00	 7.407407e-01	 9.902565e+00
0	 8.666667e+00	 3.703704e-01	 9.887186e+00
0	 8.666667e+00	 4.444444e-01	 9.887966e+00
0	 8.666667e+00	 5.185185e-01	 9.888878e+00
0	 8.666667e+00	 5.925926e-01	 9.889923e+00
0	 8.666667e+00	 6.666667e-01	 9.891103e+00
0	 8.666667e+00	 7.407407e-01	 9.892420e+00
0	 8.740741e+00	 3.703704e-01	 9.876754e+00
0	 8.740741e+00	 4.444444e-01	 9.877549e+00
0	 8.740741e+00	 5.185185e-01	 9.878479e+00
0	 8.740741e+00	 5.925926e-01	 9.879544e+00
0	 8.740741e+00	 6.666667e-01	 9.880748e+00
0	 8.740741e+00	 7.407407e-01	 9.882090e+00
0	 8.814815e+00	 3.703704e-01	 9.866102e+00
0	 8.814815e+00	 4.444444e-01	 9.866915e+00
0	 8.814815e+00	 5.185185e-01	 9.867866e+00
0	 8.814815e+00	 5.925926e-01	 9.868955e+00
0	 8.814815e+00	 6.666667e-01	 9.870186e+00
0	 8.814815e+00	 7.407407e-01	 9.871558e+00
0	 8.888889e+00	 3.703704e-01	 9.855215e+00
0	 8.888889e+00	 4.444444e-01	 9.856048e+00
0	 8.888889e+00	 5.185185e-01	 9.857022e+00
0	 8.888889e+00	 5.925926e-01	 9.858140e+00
0	 8.888889e+00	 6.666667e-01	 9.859402e+00
0	 8.888889e+00	 7.407407e-01	 9.860810e+00
0	 8.518519e+00	 7.407407e-01	 9.912541e+00
0	 8.518519e+00	 8.148148e-01	 9.913938e+00
0	 8.518519e+00	 8.888889e-01	 9.915443e+00
0	 8.518519e+00	 9.629630e-01	 9.917058e+00
0	 8.518519e+00	 1.037037e+00	 9.918786e+00
0	 8.518519e+00	 1.111111e+00	 9.920630e+00
0	 8.592593e+00	 7.407407e-01	 9.902565e+00
0	 8.592593e+00	 8.148148e-01	 9.903982e+00
0	 8.592593e+00	 8.888889e-01	 9.905508e+00
0	 8.592593e+00	 9.629630e-01	 9.907147e+00
0	 8.592593e+00	 1.037037e+00	 9.908902e+00
0	 8.592593e+00	 1.111111e+00	 9.910774e+00
0	 8.666667e+00	 7.407407e-01	 9.892420e+00
0	 8.666667e+00	 8.148148e-01	 9.893860e+00
0	 8.666667e+00	 8.888889e-01	 9.895414e+00
0	 8.666667e+00	 9.629630e-01	 9.897082e+00
0	 8.666667e+00	 1.037037e+00	 9.898869e+00
0	 8.666667e+00	 1.111111e+00	 9.900775e+00
0	 8.740741e+00	 7.407407e-01	 9.882090e+00
0	 8.740741e+00	 8.148148e-01	 9.883559e+00
0	 8.740741e+00	 8.888889e-01	 9.885144e+00
0	 8.740741e+00	 9.629630e-01	 9.886848e+00
0	 8.740741e+00	 1.037037e+00	 9.888672e+00
0	 8.740741e+00	 1.111111e+00	 9.890618e+00
0	 8.814815e+00	 7.407407e-01	 9.871558e+00
0	 8.814815e+00	 8.148148e-01	 9.873061e+00
0	 8.814815e+00	 8.888889e-01	 9.874684e+00
0	 8.814815e+00	 9.629630e-01	 9.876428e+00
0	 8.814815e+00	 1.037037e+00	 9.878296e+00
0	 8.814815e+00	 1.111111e+00	 9.880289e+00
0	 8.888889e+00	 7.407407e-01	 9.860810e+00
0	 8.888889e+00	 8.148148e-01	 9.862351e+00
0	 8.888889e+00	 8.888889e-01	 9.864017e+00
0	 8.888889e+00	 9.629630e-01	 9.865807e+00
0	 8.888889e+00	 1.037037e+00	 9.867725e+00
0	 8.888889e+00	 1.111111e+00	 9.869772e+00
0	 8.518519e+00	 1.111111e+00	 9.920630e+00
0	 8.518519e+00	 1.185185e+00	 9.922573e+00
0	 8.518519e+00	 1.259259e+00	 9.924597e+00
0	 8.518519e+00	 1.333333e+00	 9.926707e+00
0	 8.518519e+00	 1.407407e+00	 9.928905e+00
0	 8.518519e+00	 1.481481e+00	 9.931196e+00
0	 8.592593e+00	 1.111111e+00	 9.910774e+00
0	 8.592593e+00	 1.185185e+00	 9.912747e+00
0	 8.592593e+00	 1.259259e+00	 9.914805e+00
0	 8.592593e+00	 1.333333e+00	 9.916951e+00
0	 8.592593e+00	 1.407407e+00	 9.919189e+00
0	 8.592593e+00	 1.481481e+00	 9.921521e+00
0	 8.666667e+00	 1.111111e+00	 9.900775e+00
0	 8.666667e+00	 1.185185e+00	 9.902785e+00
0	 8.666667e+00	 1.259259e+00	 9.904883e+00
0	 8.666667e+00	 1.333333e+00	 9.907073e+00
0	 8.666667e+00	 1.407407e+00	 9.909356e+00
0	 8.666667e+00	 1.481481e+00	 9.911736e+00
0	 8.740741e+00	 1.111111e+00	 9.890618e+00
0	 8.740741e+00	 1.185185e+00	 9.892672e+00
0	 8.740741e+00	 1.259259e+00	 9.894817e+00
0	 8.740741e+00	 1.333333e+00	 9.897056e+00
0	 8.740741e+00	 1.407407e+00	 9.899392e+00
0	 8.740741e+00	 1.481481e+00	 9.901828e+00
0	 8.814815e+00	 1.111111e+00	 9.880289e+00
0	 8.814815e+00	 1.185185e+00	 9.882393e+00
0	 8.814815e+00	 1.259259e+00	 9.884592e+00
0	 8.814815e+00	 1.333333e+00	 9.886888e+00
0	 8.814815e+00	 1.407407e+00	 9.889285e+00
0	 8.814815e+00	 1.481481e+00	 9.891784e+00
0	 8.888889e+00	 1.111111e+00	 9.869772e+00
0	 8.888889e+00	 1.185185e+00	 9.871933e+00
0	 8.888889e+00	 1.259259e+00	 9.874193e+00
0	 8.888889e+00	 1.333333e+00	 9.876554e+00
0	 8.888889e+00	 1.407407e+00	 9.879019e+00
0	 8.888889e+00	 1.481481e+00	 9.881591e+00
0	 8.518519e+00	 1.481481e+00	 9.931196e+00
0	 8.518519e+00	 1.555556e+00	 9.933560e+00
0	 8.518519e+00	 1.629630e+00	 9.935976e+00
0	 8.518519e+00	 1.703704e+00	 9.938448e+00
0	 8.518519e+00	 1.777778e+00	 9.940981e+00
0	 8.518519e+00	 1.851852e+00	 9.943578e+00
0	 8.592593e+00	 1.481481e+00	 9.921521e+00
0	 8.592593e+00	 1.555556e+00	 9.923929e+00
0	 8.592593e+00	 1.629630e+00	 9.926392e+00
0	 8.592593e+00	 1.703704e+00	 9.928915e+00
0	 8.592593e+00	 1.777778e+00	 9.931501e+00
0	 8.592593e+00	 1.851852e+00	 9.934153e+00
0	 8.666667e+00	 1.481481e+00	 9.911736e+00
0	 8.666667e+00	 1.555556e+00	 9.914195e+00
0	 8.666667e+00	 1.629630e+00	 9.916713e+00
0	 8.666667e+00	 1.703704e+00	 9.919293e+00
0	 8.666667e+00	 1.777778e+00	 9.921940e+00
0	 8.666667e+00	 1.851852e+00	 9.924656e+00
0	 8.740741e+00	 1.481481e+00	 9.901828e+00
0	 8.740741e+00	 1.555556e+00	 9.904346e+00
0	 8.740741e+00	 1.629630e+00	 9.906926e+00
0	 8.740741e+00	 1.703704e+00	 9.909572e+00
0	 8.740741e+00	 1.777778e+00	 9.912288e+00
0	 8.740741e+00	 1.851852e+00	 9.915075e+00
0	 8.814815e+00	 1.481481e+00	 9.891784e+00
0	 8.814815e+00	 1.555556e+00	 9.894369e+00
0	 8.814815e+00	 1.629630e+00	 9.897019e+00
0	 8.814815e+00	 1.703704e+00	 9.899740e+00
0	 8.814815e+00	 1.777778e+00	 9.902532e+00
0	 8.814815e+00	 1.851852e+00	 9.905400e+00
0	 8.888889e+00	 1.481481e+00	 9.881591e+00
0	 8.888889e+00	 1.555556e+00	 9.884251e+00
0	 8.888889e+00	 1.629630e+00	 9.886980e+00
0	 8.888889e+00	 1.703704e+00	 9.889783e+00
0	 8.888889e+00	 1.777778e+00	 9.892662e+00
0	 8.888889e+00	 1.851852e+00	 9.895619e+00
0	 8.518519e+00	 1.851852e+00	 9.943578e+00
0	 8.518519e+00	 1.925926e+00	 9.946218e+00
0	 8.518519e+00	 2.000000e+00	 9.948880e+00
0	 8.518519e+00	 2.074074e+00	 9.951570e+00
0	 8.518519e+00	 2.148148e+00	 9.954289e+00
0	 8.518519e+00	 2.222222e+00	 9.957042e+00
0	 8.592593e+00	 1.851852e+00	 9.934153e+00
0	 8.592593e+00	 1.925926e+00	 9.936852e+00
0	 8.592593e+00	 2.000000e+00	 9.939577e+00
0	 8.592593e+00	 2.074074e+00	 9.942332e+00
0	 8.592593e+00	 2.148148e+00	 9.945119e+00
0	 8.592593e+00	 2.222222e+00	 9.947944e+00
0	 8.666667e+00	 1.851852e+00	 9.924656e+00
0	 8.666667e+00	 1.925926e+00	 9.927421e+00
0	 8.666667e+00	 2.000000e+00	 9.930216e+00
0	 8.666667e+00	 2.074074e+00	 9.933044e+00
0	 8.666667e+00	 2.148148e+00	 9.935908e+00
0	 8.666667e+00	 2.222222e+00	 9.938811e+00
0	 8.740741e+00	 1.851852e+00	 9.915075e+00
0	 8.740741e+00	 1.925926e+00	 9.917915e+00
0	 8.740741e+00	 2.000000e+00	 9.920788e+00
0	 8.740741e+00	 2.074074e+00	 9.923697e+00
0	 8.740741e+00	 2.148148e+00	 9.926646e+00
0	 8.740741e+00	 2.222222e+00	 9.929636e+00
0	 8.814815e+00	 1.851852e+00	 9.905400e+00
0	 8.814815e+00	 1.925926e+00	 9.908323e+00
0	 8.814815e+00	 2.000000e+00	 9.911283e+00
0	 8.814815e+00	 2.074074e+00	 9.914282e+00
0	 8.814815e+00	 2.148148e+00	 9.917324e+00
0	 8.814815e+00	 2.222222e+00	 9.920410e+00
0	 8.888889e+00	 1.851852e+00	 9.895619e+00
0	 8.888889e+00	 1.925926e+00	 9.898635e+00
0	 8.888889e+00	 2.000000e+00	 9.901691e+00
0	 8.888889e+00	 2.074074e+00	 9.904789e+00
0	 8.888889e+00	 2.148148e+00	 9.907933e+00
0	 8.888889e+00	 2.222222e+00	 9.911125e+00
0	 8.518519e+00	 2.222222e+00	 9.957042e+00
0	 8.518519e+00	 2.296296e+00	 9.959809e+00
0	 8.518519e+00	 2.370370e+00	 9.962570e+00
0	 8.518519e+00	 2.444444e+00	 9.965328e+00
0	 8.518519e+00	 2.518519e+00	 9.968087e+00
0	 8.518519e+00	 2.592593e+00	 9.970850e+00
0	 8.592593e+00	 2.222222e+00	 9.947944e+00
0	 8.592593e+00	 2.296296e+00	 9.950785e+00
0	 8.592593e+00	 2.370370e+00	 9.953624e+00
0	 8.592593e+00	 2.444444e+00	 9.956463e+00
0	 8.592593e+00	 2.518519e+00	 9.959307e+00
0	 8.592593e+00	 2.592593e+00	 9.962157e+00
0	 8.666667e+00	 2.222222e+00	 9.938811e+00
0	 8.666667e+00	 2.296296e+00	 9.941735e+00
0	 8.666667e+00	 2.370370e+00	 9.944659e+00
0	 8.666667e+00	 2.444444e+00	 9.947587e+00
0	 8.666667e+00	 2.518519e+00	 9.950521e+00
0	 8.666667e+00	 2.592593e+00	 9.953465e+00
0	 8.740741e+00	 2.222222e+00	 9.929636e+00
0	 8.740741e+00	 2.296296e+00	 9.932650e+00
0	 8.740741e+00	 2.370370e+00	 9.935667e+00
0	 8.740741e+00	 2.444444e+00	 9.938692e+00
0	 8.740741e+00	 2.518519e+00	 9.941725e+00
0	 8.740741e+00	 2.592593e+00	 9.944771e+00
0	 8.814815e+00	 2.222222e+00	 9.920410e+00
0	 8.814815e+00	 2.296296e+00	 9.923523e+00
0	 8.814815e+00	 2.370370e+00	 9.926642e+00
0	 8.814815e+00	 2.444444e+00	 9.929771e+00
0	 8.814815e+00	 2.518519e+00	 9.932913e+00
0	 8.814815e+00	 2.592593e+00	 9.936069e+00
0	 8.888889e+00	 2.222222e+00	 9.911125e+00
0	 8.888889e+00	 2.296296e+00	 9.914346e+00
0	 8.888889e+00	 2.370370e+00	 9.917576e+00
0	 8.888889e+00	 2.444444e+00	 9.920819e+00
0	 8.888889e+00	 2.518519e+00	 9.924077e+00
0	 8.888889e+00	 2.592593e+00	 9.927352e+00
0	 8.518519e+00	 2.592593e+00	 9.970850e+00
0	 8.518519e+00	 2.666667e+00	 9.973600e+00
0	 8.518519e+00	 2.740741e+00	 9.976319e+00
0	 8.518519e+00	 2.814815e+00	 9.979009e+00
0	 8.518519e+00	 2.888889e+00	 9.981674e+00
0	 8.518519e+00	 2.962963e+00	 9.984316e+00
0	 8.592593e+00	 2.592593e+00	 9.962157e+00
0	 8.592593e+00	 2.666667e+00	 9.964996e+00
0	 8.592593e+00	 2.740741e+00	 9.967808e+00
0	 8.592593e+00	 2.814815e+00	 9.970594e+00
0	 8.592593e+00	 2.888889e+00	 9.973357e+00
0	 8.592593e+00	 2.962963e+00	 9.976100e+00
0	 8.666667e+00	 2.592593e+00	 9.953465e+00
0	 8.666667e+00	 2.666667e+00	 9.956402e+00
0	 8.666667e+00	 2.740741e+00	 9.959313e+00
0	 8.666667e+00	 2.814815e+00	 9.962202e+00
0	 8.666667e+00	 2.888889e+00	 9.965070e+00
0	 8.666667e+00	 2.962963e+00	 9.967921e+00
0	 8.740741e+00	 2.592593e+00	 9.944771e+00
0	 8.740741e+00	 2.666667e+00	 9.947812e+00
0	 8.740741e+00	 2.740741e+00	 9.950831e+00
0	 8.740741e+00	 2.814815e+00	 9.953829e+00
0	 8.740741e+00	 2.888889e+00	 9.956810e+00
0	 8.740741e+00	 2.962963e+00	 9.959775e+00
0	 8.814815e+00	 2.592593e+00	 9.936069e+00
0	 8.814815e+00	 2.666667e+00	 9.939222e+00
0	 8.814815e+00	 2.740741e+00	 9.942356e+00
0	 8.814815e+00	 2.814815e+00	 9.945472e+00
0	 8.814815e+00	 2.888889e+00	 9.948572e+00
0	 8.814815e+00	 2.962963e+00	 9.951659e+00
0	 8.888889e+00	 2.592593e+00	 9.927352e+00
0	 8.888889e+00	 2.666667e+00	 9.930628e+00
0	 8.888889e+00	 2.740741e+00	 9.933885e+00
0	 8.888889e+00	 2.814815e+00	 9.937127e+00
0	 8.888889e+00	 2.888889e+00	 9.940355e+00
0	 8.888889e+00	 2.962963e+00	 9.943572e+00
0	 8.518519e+00	 2.962963e+00	 9.984316e+00
0	 8.518519e+00	 3.037037e+00	 9.986920e+00
0	 8.518519e+00	 3.111111e+00	 9.989474e+00
0	 8.518519e+00	 3.185185e+00	 9.991977e+00
0	 8.518519e+00	 3.259259e+00	 9.994433e+00
0	 8.518519e+00	 3.333333e+00	 9.996844e+00
0	 8.592593e+00	 2.962963e+00	 9.976100e+00
0	 8.592593e+00	 3.037037e+00	 9.978809e+00
0	 8.592593e+00	 3.111111e+00	 9.981469e+00
0	 8.592593e+00	 3.185185e+00	 9.984081e+00
0	 8.592593e+00	 3.259259e+00	 9.986648e+00
0	 8.592593e+00	 3.333333e+00	 9.989172e+00
0	 8.666667e+00	 2.962963e+00	 9.967921e+00
0	 8.666667e+00	 3.037037e+00	 9.970740e+00
0	 8.666667e+00	 3.111111e+00	 9.973511e+00
0	 8.666667e+00	 3.185185e+00	 9.976238e+00
0	 8.666667e+00	 3.259259e+00	 9.978922e+00
0	 8.666667e+00	 3.333333e+00	 9.981565e+00
0	 8.740741e+00	 2.962963e+00	 9.959775e+00
0	 8.740741e+00	 3.037037e+00	 9.962710e+00
0	 8.740741e+00	 3.111111e+00	 9.965600e+00
0	 8.740741e+00	 3.185185e+00	 9.968448e+00
0	 8.740741e+00	 3.259259e+00	 9.971254e+00
0	 8.740741e+00	 3.333333e+00	 9.974021e+00
0	 8.814815e+00	 2.962963e+00	 9.951659e+00
0	 8.814815e+00	 3.037037e+00	 9.954719e+00
0	 8.814815e+00	 3.111111e+00	 9.957735e+00
0	 8.814815e+00	 3.185185e+00	 9.960709e+00
0	 8.814815e+00	 3.259259e+00	 9.963644e+00
0	 8.814815e+00	 3.333333e+00	 9.966542e+00
0	 8.888889e+00	 2.962963e+00	 9.943572e+00
0	 8.888889e+00	 3.037037e+00	 9.946763e+00
0	 8.888889e+00	 3.111111e+00	 9.949912e+00
0	 8.888889e+00	 3.185185e+00	 9.953022e+00
0	 8.888889e+00	 3.259259e+00	 9.956093e+00
0	 8.888889e+00	 3.333333e+00	 9.959128e+00
0	 8.518519e+00	 3.333333e+00	 9.996844e+00
0	 8.518519e+00	 3.407407e+00	 9.999198e+00
0	 8.518519e+00	 3.481481e+00	 1.000149e+01
0	 8.518519e+00	 3.555556e+00	 1.000371e+01
0	 8.518519e+00	 3.629630e+00	 1.000587e+01
0	 8.518519e+00	 3.703704e+00	 1.000796e+01
0	 8.592593e+00	 3.333333e+00	 9.989172e+00
0	 8.592593e+00	 3.407407e+00	 9.991642e+00
0	 8.592593e+00	 3.481481e+00	 9.994048e+00
0	 8.592593e+00	 3.555556e+00	 9.996389e+00
0	 8.592593e+00	 3.629630e+00	 9.998669e+00
0	 8.592593e+00	 3.703704e+00	 1.000089e+01
0	 8.666667e+00	 3.333333e+00	 9.981565e+00
0	 8.666667e+00	 3.407407e+00	 9.984155e+00
0	 8.666667e+00	 3.481481e+00	 9.986682e+00
0	 8.666667e+00	 3.555556e+00	 9.989147e+00
0	 8.666667e+00	 3.629630e+00	 9.991551e+00
0	 8.666667e+00	 3.703704e+00	 9.993896e+00
0	 8.740741e+00	 3.333333e+00	 9.974021e+00
0	 8.740741e+00	 3.407407e+00	 9.976737e+00
0	 8.740741e+00	 3.481481e+00	 9.979391e+00
0	 8.740741e+00	 3.555556e+00	 9.981985e+00
0	 8.740741e+00	 3.629630e+00	 9.984518e+00
0	 8.740741e+00	 3.703704e+00	 9.986993e+00
0	 8.814815e+00	 3.333333e+00	 9.966542e+00
0	 8.814815e+00	 3.407407e+00	 9.969390e+00
0	 8.814815e+00	 3.481481e+00	 9.972177e+00
0	 8.814815e+00	 3.555556e+00	 9.974904e+00
0	 8.814815e+00	 3.629630e+00	 9.977572e+00
0	 8.814815e+00	 3.703704e+00	 9.980182e+00
0	 8.888889e+00	 3.333333e+00	 9.959128e+00
0	 8.888889e+00	 3.407407e+00	 9.962114e+00
0	 8.888889e+00	 3.481481e+00	 9.965040e+00
0	 8.888889e+00	 3.555556e+00	 9.967907e+00
0	 8.888889e+00	 3.629630e+00	 9.970715e+00
0	 8.888889e+00	 3.703704e+00	 9.973466e+00
0	 8.518519e+00	 3.703704e+00	 1.000796e+01
0	 8.518519e+00	 3.777778e+00	 1.000999e+01
0	 8.518519e+00	 3.851852e+00	 1.001194e+01
0	 8.518519e+00	 3.925926e+00	 1.001381e+01
0	 8.518519e+00	 4.000000e+00	 1.001561e+01
0	 8.518519e+00	 4.074074e+00	 1.001734e+01
0	 8.592593e+00	 3.703704e+00	 1.000089e+01
0	 8.592593e+00	 3.777778e+00	 1.000304e+01
0	 8.592593e+00	 3.851852e+00	 1.000511e+01
0	 8.592593e+00	 3.925926e+00	 1.000711e+01
0	 8.592593e+00	 4.000000e+00	 1.000904e+01
0	 8.592593e+00	 4.074074e+00	 1.001089e+01
0	 8.666667e+00	 3.703704e+00	 9.993896e+00
0	 8.666667e+00	 3.777778e+00	 9.996173e+00
0	 8.666667e+00	 3.851852e+00	 9.998376e+00
0	 8.666667e+00	 3.925926e+00	 1.000050e+01
0	 8.666667e+00	 4.000000e+00	 1.000256e+01
0	 8.666667e+00	 4.074074e+00	 1.000454e+01
0	 8.740741e+00	 3.703704e+00	 9.986993e+00
0	 8.740741e+00	 3.777778e+00	 9.989402e+00
0	 8.740741e+00	 3.851852e+00	 9.991737e+00
0	 8.740741e+00	 3.925926e+00	 9.993998e+00
0	 8.740741e+00	 4.000000e+00	 9.996186e+00
0	 8.740741e+00	 4.074074e+00	 9.998303e+00
0	 8.814815e+00	 3.703704e+00	 9.980182e+00
0	 8.814815e+00	 3.777778e+00	 9.982727e+00
0	 8.814815e+00	 3.851852e+00	 9.985198e+00
0	 8.814815e+00	 3.925926e+00	 9.987596e+00
0	 8.814815e+00	 4.000000e+00	 9.989921e+00
0	 8.814815e+00	 4.074074e+00	 9.992173e+00
0	 8.888889e+00	 3.703704e+00	 9.973466e+00
0	 8.888889e+00	 3.777778e+00	 9.976152e+00
0	 8.888889e+00	 3.851852e+00	 9.978764e+00
0	 8.888889e+00	 3.925926e+00	 9.981302e+00
0	 8.888889e+00	 4.000000e+00	 9.983768e+00
0	 8.888889e+00	 4.074074e+00	 9.986161e+00
0	 8.518519e+00	 4.074074e+00	 1.001734e+01
0	 8.518519e+00	 4.148148e+00	 1.001898e+01
0	 8.518519e+00	 4.222222e+00	 1.002055e+01
0	 8.518519e+00	 4.296296e+00	 1.002203e+01
0	 8.518519e+00	 4.370370e+00	 1.002344e+01
0	 8.518519e+00	 4.444444e+00	 1.002476e+01
0	 8.592593e+00	 4.074074e+00	 1.001089e+01
0	 8.592593e+00	 4.148148e+00	 1.001266e+01
0	 8.592593e+00	 4.222222e+00	 1.001436e+01
0	 8.592593e+00	 4.296296e+00	 1.001597e+01
0	 8.592593e+00	 4.370370e+00	 1.001751e+01
0	 8.592593e+00	 4.444444e+00	 1.001896e+01
0	 8.666667e+00	 4.074074e+00	 1.000454e+01
0	 8.666667e+00	 4.148148e+00	 1.000645e+01
0	 8.666667e+00	 4.222222e+00	 1.000827e+01
0	 8.666667e+00	 4.296296e+00	 1.001002e+01
0	 8.666667e+00	 4.370370e+00	 1.001168e+01
0	 8.666667e+00	 4.444444e+00	 1.001327e+01
0	 8.740741e+00	 4.074074e+00	 9.998303e+00
0	 8.740741e+00	 4.148148e+00	 1.000034e+01
0	 8.740741e+00	 4.222222e+00	 1.000230e+01
0	 8.740741e+00	 4.296296e+00	 1.000418e+01
0	 8.740741e+00	 4.370370e+00	 1.000598e+01
0	 8.740741e+00	 4.444444e+00	 1.000769e+01
0	 8.814815e+00	 4.074074e+00	 9.992173e+00
0	 8.814815e+00	 4.148148e+00	 9.994349e+00
0	 8.814815e+00	 4.222222e+00	 9.996444e+00
0	 8.814815e+00	 4.296296e+00	 9.998457e+00
0	 8.814815e+00	 4.370370e+00	 1.000039e+01
0	 8.814815e+00	 4.444444e+00	 1.000224e+01
0	 8.888889e+00	 4.074074e+00	 9.986161e+00
0	 8.888889e+00	 4.148148e+00	 9.988477e+00
0	 8.888889e+00	 4.222222e+00	 9.990710e+00
0	 8.888889e+00	 4.296296e+00	 9.992862e+00
0	 8.888889e+00	 4.370370e+00	 9.994931e+00
0	 8.888889e+00	 4.444444e+00	 9.996918e+00
0	 8.518519e+00	 4.444444e+00	 1.002476e+01
0	 8.518519e+00	 4.518519e+00	 1.002600e+01
0	 8.518519e+00	 4.592593e+00	 1.002716e+01
0	 8.518519e+00	 4.666667e+00	 1.002824e+01
0	 8.518519e+00	 4.740741e+00	 1.002924e+01
0	 8.518519e+00	 4.814815e+00	 1.003016e+01
0	 8.592593e+00	 4.444444e+00	 1.001896e+01
0	 8.592593e+00	 4.518519e+00	 1.002033e+01
0	 8.592593e+00	 4.592593e+00	 1.002162e+01
0	 8.592593e+00	 4.666667e+00	 1.002283e+01
0	 8.592593e+00	 4.740741e+00	 1.002396e+01
0	 8.592593e+00	 4.814815e+00	 1.002500e+01
0	 8.666667e+00	 4.444444e+00	 1.001327e+01
0	 8.666667e+00	 4.518519e+00	 1.001477e+01
0	 8.666667e+00	 4.592593e+00	 1.001619e+01
0	 8.666667e+00	 4.666667e+00	 1.001753e+01
0	 8.666667e+00	 4.740741e+00	 1.001879e+01
0	 8.666667e+00	 4.814815e+00	 1.001996e+01
0	 8.740741e+00	 4.444444e+00	 1.000769e+01
0	 8.740741e+00	 4.518519e+00	 1.000933e+01
0	 8.740741e+00	 4.592593e+00	 1.001088e+01
0	 8.740741e+00	 4.666667e+00	 1.001235e+01
0	 8.740741e+00	 4.740741e+00	 1.001373e+01
0	 8.740741e+00	 4.814815e+00	 1.001503e+01
0	 8.814815e+00	 4.444444e+00	 1.000224e+01
0	 8.814815e+00	 4.518519e+00	 1.000401e+01
0	 8.814815e+00	 4.592593e+00	 1.000569e+01
0	 8.814815e+00	 4.666667e+00	 1.000729e+01
0	 8.814815e+00	 4.740741e+00	 1.000881e+01
0	 8.814815e+00	 4.814815e+00	 1.001024e+01
0	 8.888889e+00	 4.444444e+00	 9.996918e+00
0	 8.888889e+00	 4.518519e+00	 9.998822e+00
0	 8.888889e+00	 4.592593e+00	 1.000064e+01
0	 8.888889e+00	 4.666667e+00	 1.000237e+01
0	 8.888889e+00	 4.740741e+00	 1.000402e+01
0	 8.888889e+00	 4.814815e+00	 1.000558e+01
0	 8.518519e+00	 4.814815e+00	 1.003016e+01
0	 8.518519e+00	 4.888889e+00	 1.003099e+01
0	 8.518519e+00	 4.962963e+00	 1.003175e+01
0	 8.518519e+00	 5.037037e+00	 1.003244e+01
0	 8.518519e+00	 5.111111e+00	 1.003304e+01
0	 8.518519e+00	 5.185185e+00	 1.003356e+01
0	 8.592593e+00	 4.814815e+00	 1.002500e+01
0	 8.592593e+00	 4.888889e+00	 1.002597e+01
0	 8.592593e+00	 4.962963e+00	 1.002685e+01
0	 8.592593e+00	 5.037037e+00	 1.002766e+01
0	 8.592593e+00	 5.111111e+00	 1.002839e+01
0	 8.592593e+00	 5.185185e+00	 1.002904e+01
0	 8.666667e+00	 4.814815e+00	 1.001996e+01
0	 8.666667e+00	 4.888889e+00	 1.002105e+01
0	 8.666667e+00	 4.962963e+00	 1.002206e+01
0	 8.666667e+00	 5.037037e+00	 1.002299e+01
0	 8.666667e+00	 5.111111e+00	 1.002385e+01
0	 8.666667e+00	 5.185185e+00	 1.002462e+01
0	 8.740741e+00	 4.814815e+00	 1.001503e+01
0	 8.740741e+00	 4.888889e+00	 1.001625e+01
0	 8.740741e+00	 4.962963e+00	 1.001739e+01
0	 8.740741e+00	 5.037037e+00	 1.001845e+01
0	 8.740741e+00	 5.111111e+00	 1.001942e+01
0	 8.740741e+00	 5.185185e+00	 1.002031e+01
0	 8.814815e+00	 4.814815e+00	 1.001024e+01
0	 8.814815e+00	 4.888889e+00	 1.001158e+01
0	 8.814815e+00	 4.962963e+00	 1.001285e+01
0	 8.814815e+00	 5.037037e+00	 1.001403e+01
0	 8.814815e+00	 5.111111e+00	 1.001512e+01
0	 8.814815e+00	 5.185185e+00	 1.001614e+01
0	 8.888889e+00	 4.814815e+00	 1.000558e+01
0	 8.888889e+00	 4.888889e+00	 1.000705e+01
0	 8.888889e+00	 4.962963e+00	 1.000844e+01
0	 8.888889e+00	 5.037037e+00	 1.000974e+01
0	 8.888889e+00	 5.111111e+00	 1.001096e+01
0	 8.888889e+00	 5.185185e+00	 1.001210e+01
0	 8.518519e+00	 5.185185e+00	 1.003356e+01
0	 8.518519e+00	 5.259259e+00	 1.003401e+01
0	 8.518519e+00	 5.333333e+00	 1.003439e+01
0	 8.518519e+00	 5.407407e+00	 1.003470e+01
0	 8.518519e+00	 5.481481e+00	 1.003493e+01
0	 8.518519e+00	 5.555556e+00	 1.003509e+01
0	 8.592593e+00	 5.185185e+00	 1.002904e+01
0	 8.592593e+00	 5.259259e+00	 1.002961e+01
0	 8.592593e+00	 5.333333e+00	 1.003011e+01
0	 8.592593e+00	 5.407407e+00	 1.003053e+01
0	 8.592593e+00	 5.481481e+00	 1.003089e+01
0	 8.592593e+00	 5.555556e+00	 1.003116e+01
0	 8.666667e+00	 5.185185e+00	 1.002462e+01
0	 8.666667e+00	 5.259259e+00	 1.002531e+01
0	 8.666667e+00	 5.333333e+00	 1.002593e+01
0	 8.666667e+00	 5.407407e+00	 1.002647e+01
0	 8.666667e+00	 5.481481e+00	 1.002694e+01
0	 8.666667e+00	 5.555556e+00	 1.002734e+01
0	 8.740741e+00	 5.185185e+00	 1.002031e+01
0	 8.740741e+00	 5.259259e+00	 1.002113e+01
0	 8.740741e+00	 5.333333e+00	 1.002186e+01
0	 8.740741e+00	 5.407407e+00	 1.002252e+01
0	 8.740741e+00	 5.481481e+00	 1.002311e+01
0	 8.740741e+00	 5.555556e+00	 1.002362e+01
0	 8.814815e+00	 5.185185e+00	 1.001614e+01
0	 8.814815e+00	 5.259259e+00	 1.001707e+01
0	 8.814815e+00	 5.333333e+00	 1.001792e+01
0	 8.814815e+00	 5.407407e+00	 1.001870e+01
0	 8.814815e+00	 5.481481e+00	 1.001940e+01
0	 8.814815e+00	 5.555556e+00	 1.002002e+01
0	 8.888889e+00	 5.185185e+00	 1.001210e+01
0	 8.888889e+00	 5.259259e+00	 1.001315e+01
0	 8.888889e+00	 5.333333e+00	 1.001412e+01
0	 8.888889e+00	 5.407407e+00	 1.001501e+01
0	 8.888889e+00	 5.481481e+00	 1.001582e+01
0	 8.888889e+00	 5.555556e+00	 1.001654e+01
0	 8.518519e+00	 5.555556e+00	 1.003509e+01
0	 8.518519e+00	 5.629630e+00	 1.003519e+01
0	 8.518519e+00	 5.703704e+00	 1.003522e+01
0	 8.518519e+00	 5.777778e+00	 1.003519e+01
0	 8.518519e+00	 5.851852e+00	 1.003510e+01
0	 8.518519e+00	 5.925926e+00	 1.003494e+01
0	 8.592593e+00	 5.555556e+00	 1.003116e+01
0	 8.592593e+00	 5.629630e+00	 1.003137e+01
0	 8.592593e+00	 5.703704e+00	 1.003152e+01
0	 8.592593e+00	 5.777778e+00	 1.003160e+01
0	 8.592593e+00	 5.851852e+00	 1.003162e+01
0	 8.592593e+00	 5.925926e+00	 1.003157e+01
0	 8.666667e+00	 5.555556e+00	 1.002734e+01
0	 8.666667e+00	 5.629630e+00	 1.002766e+01
0	 8.666667e+00	 5.703704e+00	 1.002792e+01
0	 8.666667e+00	 5.777778e+00	 1.002811e+01
0	 8.666667e+00	 5.851852e+00	 1.002823e+01
0	 8.666667e+00	 5.925926e+00	 1.002829e+01
0	 8.740741e+00	 5.555556e+00	 1.002362e+01
0	 8.740741e+00	 5.629630e+00	 1.002405e+01
0	 8.740741e+00	 5.703704e+00	 1.002442e+01
0	 8.740741e+00	 5.777778e+00	 1.002472e+01
0	 8.740741e+00	 5.851852e+00	 1.002495e+01
0	 8.740741e+00	 5.925926e+00	 1.002511e+01
0	 8.814815e+00	 5.555556e+00	 1.002002e+01
0	 8.814815e+00	 5.629630e+00	 1.002056e+01
0	 8.814815e+00	 5.703704e+00	 1.002103e+01
0	 8.814815e+00	 5.777778e+00	 1.002144e+01
0	 8.814815e+00	 5.851852e+00	 1.002177e+01
0	 8.814815e+00	 5.925926e+00	 1.002204e+01
0	 8.888889e+00	 5.555556e+00	 1.001654e+01
0	 8.888889e+00	 5.629630e+00	 1.001719e+01
0	 8.888889e+00	 5.703704e+00	 1.001777e+01
0	 8.888889e+00	 5.777778e+00	 1.001828e+01
0	 8.888889e+00	 5.851852e+00	 1.001872e+01
0	 8.888889e+00	 5.925926e+00	 1.001908e+01
0	 8.518519e+00	 5.925926e+00	 1.003494e+01
0	 8.518519e+00	 6.000000e+00	 1.003473e+01
0	 8.518519e+00	 6.074074e+00	 1.003446e+01
0	 8.518519e+00	 6.148148e+00	 1.003414e+01
0	 8.518519e+00	 6.222222e+00	 1.003377e+01
0	 8.518519e+00	 6.296296e+00	 1.003334e+01
0	 8.592593e+00	 5.925926e+00	 1.003157e+01
0	 8.592593e+00	 6.000000e+00	 1.003146e+01
0	 8.592593e+00	 6.074074e+00	 1.003130e+01
0	 8.592593e+00	 6.148148e+00	 1.003109e+01
0	 8.592593e+00	 6.222222e+00	 1.003082e+01
0	 8.592593e+00	 6.296296e+00	 1.003049e+01
0	 8.666667e+00	 5.925926e+00	 1.002829e+01
0	 8.666667e+00	 6.000000e+00	 1.002829e+01
0	 8.666667e+00	 6.074074e+00	 1.002823e+01
0	 8.666667e+00	 6.148148e+00	 1.002811e+01
0	 8.666667e+00	 6.222222e+00	 1.002794e+01
0	 8.666667e+00	 6.296296e+00	 1.002771e+01
0	 8.740741e+00	 5.925926e+00	 1.002511e+01
0	 8.740741e+00	 6.000000e+00	 1.002521e+01
0	 8.740741e+00	 6.074074e+00	 1.002525e+01
0	 8.740741e+00	 6.148148e+00	 1.002523e+01
0	 8.740741e+00	 6.222222e+00	 1.002516e+01
0	 8.740741e+00	 6.296296e+00	 1.002502e+01
0	 8.814815e+00	 5.925926e+00	 1.002204e+01
0	 8.814815e+00	 6.000000e+00	 1.002223e+01
0	 8.814815e+00	 6.074074e+00	 1.002237e+01
0	 8.814815e+00	 6.148148e+00	 1.002245e+01
0	 8.814815e+00	 6.222222e+00	 1.002247e+01
0	 8.814815e+00	 6.296296e+00	 1.002242e+01
0	 8.888889e+00	 5.925926e+00	 1.001908e+01
0	 8.888889e+00	 6.000000e+00	 1.001937e+01
0	 8.888889e+00	 6.074074e+00	 1.001960e+01
0	 8.888889e+00	 6.148148e+00	 1.001977e+01
0	 8.888889e+00	 6.222222e+00	 1.001988e+01
0	 8.888889e+00	 6.296296e+00	 1.001992e+01
0	 8.518519e+00	 6.296296e+00	 1.003334e+01
0	 8.518519e+00	 6.370370e+00	 1.003287e+01
0	 8.518519e+00	 6.444444e+00	 1.003236e+01
0	 8.518519e+00	 6.518519e+00	 1.003180e+01
0	 8.518519e+00	 6.592593e+00	 1.003121e+01
0	 8.518519e+00	 6.666667e+00	 1.003057e+01
0	 8.592593e+00	 6.296296e+00	 1.003049e+01
0	 8.592593e+00	 6.370370e+00	 1.003011e+01
0	 8.592593e+00	 6.444444e+00	 1.002970e+01
0	 8.592593e+00	 6.518519e+00	 1.002924e+01
0	 8.592593e+00	 6.592593e+00	 1.002874e+01
0	 8.592593e+00	 6.666667e+00	 1.002819e+01
0	 8.666667e+00	 6.296296e+00	 1.002771e+01
0	 8.666667e+00	 6.370370e+00	 1.002743e+01
0	 8.666667e+00	 6.444444e+00	 1.002711e+01
0	 8.666667e+00	 6.518519e+00	 1.002674e+01
0	 8.666667e+00	 6.592593e+00	 1.002633e+01
0	 8.666667e+00	 6.666667e+00	 1.002587e+01
0	 8.740741e+00	 6.296296e+00	 1.002502e+01
0	 8.740741e+00	 6.370370e+00	 1.002483e+01
0	 8.740741e+00	 6.444444e+00	 1.002460e+01
0	 8.740741e+00	 6.518519e+00	 1.002432e+01
0	 8.740741e+00	 6.592593e+00	 1.002400e+01
0	 8.740741e+00	 6.666667e+00	 1.002362e+01
0	 8.814815e+00	 6.296296e+00	 1.002242e+01
0	 8.814815e+00	 6.370370e+00	 1.002232e+01
0	 8.814815e+00	 6.444444e+00	 1.002218e+01
0	 8.814815e+00	 6.518519e+00	 1.002199e+01
0	 8.814815e+00	 6.592593e+00	 1.002174e+01
0	 8.814815e+00	 6.666667e+00	 1.002145e+01
0	 8.888889e+00	 6.296296e+00	 1.001992e+01
0	 8.888889e+00	 6.370370e+00	 1.001991e+01
0	 8.888889e+00	 6.444444e+00	 1.001985e+01
0	 8.888889e+00	 6.518519e+00	 1.001974e+01
0	 8.888889e+00	 6.592593e+00	 1.001957e+01
0	 8.888889e+00	 6.666667e+00	 1.001936e+01
0	 8.518519e+00	 6.666667e+00	 1.003057e+01
0	 8.518519e+00	 6.740741e+00	 1.002990e+01
0	 8.518519e+00	 6.814815e+00	 1.002920e+01
0	 8.518519e+00	 6.888889e+00	 1.002847e+01
0	 8.518519e+00	 6.962963e+00	 1.002771e+01
0	 8.518519e+00	 7.037037e+00	 1.002691e+01
0	 8.592593e+00	 6.666667e+00	 1.002819e+01
0	 8.592593e+00	 6.740741e+00	 1.002760e+01
0	 8.592593e+00	 6.814815e+00	 1.002699e+01
0	 8.592593e+00	 6.888889e+00	 1.002635e+01
0	 8.592593e+00	 6.962963e+00	 1.002567e+01
0	 8.592593e+00	 7.037037e+00	 1.002496e+01
0	 8.666667e+00	 6.666667e+00	 1.002587e+01
0	 8.666667e+00	 6.740741e+00	 1.002537e+01
0	 8.666667e+00	 6.814815e+00	 1.002484e+01
0	 8.666667e+00	 6.888889e+00	 1.002428e+01
0	 8.666667e+00	 6.962963e+00	 1.002369e+01
0	 8.666667e+00	 7.037037e+00	 1.002306e+01
0	 8.740741e+00	 6.666667e+00	 1.002362e+01
0	 8.740741e+00	 6.740741e+00	 1.002321e+01
0	 8.740741e+00	 6.814815e+00	 1.002276e+01
0	 8.740741e+00	 6.888889e+00	 1.002228e+01
0	 8.740741e+00	 6.962963e+00	 1.002176e+01
0	 8.740741e+00	 7.037037e+00	 1.002121e+01
0	 8.814815e+00	 6.666667e+00	 1.002145e+01
0	 8.814815e+00	 6.740741e+00	 1.002112e+01
0	 8.814815e+00	 6.814815e+00	 1.002075e+01
0	 8.814815e+00	 6.888889e+00	 1.002034e+01
0	 8.814815e+00	 6.962963e+00	 1.001990e+01
0	 8.814815e+00	 7.037037e+00	 1.001942e+01
0	 8.888889e+00	 6.666667e+00	 1.001936e+01
0	 8.888889e+00	 6.740741e+00	 1.001910e+01
0	 8.888889e+00	 6.814815e+00	 1.001880e+01
0	 8.888889e+00	 6.888889e+00	 1.001847e+01
0	 8.888889e+00	 6.962963e+00	 1.001810e+01
0	 8.888889e+00	 7.037037e+00	 1.001769e+01
0	 8.518519e+00	 7.037037e+00	 1.002691e+01
0	 8.518519e+00	 7.111111e+00	 1.002610e+01
0	 8.518519e+00	 7.185185e+00	 1.002527e+01
0	 8.518519e+00	 7.259259e+00	 1.002442e+01
0	 8.518519e+00	 7.333333e+00	 1.002355e+01
0	 8.518519e+00	 7.407407e+00	 1.002267e+01
0	 8.592593e+00	 7.037037e+00	 1.002496e+01
0	 8.592593e+00	 7.111111e+00	 1.002423e+01
0	 8.592593e+00	 7.185185e+00	 1.002348e+01
0	 8.592593e+00	 7.259259e+00	 1.002271e+01
0	 8.592593e+00	 7.333333e+00	 1.002192e+01
0	 8.592593e+00	 7.407407e+00	 1.002111e+01
0	 8.666667e+00	 7.037037e+00	 1.002306e+01
0	 8.666667e+00	 7.111111e+00	 1.002240e+01
0	 8.666667e+00	 7.185185e+00	 1.002173e+01
0	 8.666667e+00	 7.259259e+00	 1.002103e+01
0	 8.666667e+00	 7.333333e+00	 1.002032e+01
0	 8.666667e+00	 7.407407e+00	 1.001958e+01
0	 8.740741e+00	 7.037037e+00	 1.002121e+01
0	 8.740741e+00	 7.111111e+00	 1.002063e+01
0	 8.740741e+00	 7.185185e+00	 1.002003e+01
0	 8.740741e+00	 7.259259e+00	 1.001941e+01
0	 8.740741e+00	 7.333333e+00	 1.001876e+01
0	 8.740741e+00	 7.407407e+00	 1.001809e+01
0	 8.814815e+00	 7.037037e+00	 1.001942e+01
0	 8.814815e+00	 7.111111e+00	 1.001891e+01
0	 8.814815e+00	 7.185185e+00	 1.001838e+01
0	 8.814815e+00	 7.259259e+00	 1.001783e+01
0	 8.814815e+00	 7.333333e+00	 1.001725e+01
0	 8.814815e+00	 7.407407e+00	 1.001665e+01
0	 8.888889e+00	 7.037037e+00	 1.001769e+01
0	 8.888889e+00	 7.111111e+00	 1.001725e+01
0	 8.888889e+00	 7.185185e+00	 1.001679e+01
0	 8.888889e+00	 7.259259e+00	 1.001630e+01
0	 8.888889e+00	 7.333333e+00	 1.001578e+01
0	 8.888889e+00	 7.407407e+00	 1.001524e+01
0	 8.518519e+00	 7.407407e+00	 1.002267e+01
0	 8.518519e+00	 7.481481e+00	 1.002177e+01
0	 8.518519e+00	 7.555556e+00	 1.002087e+01
0	 8.518519e+00	 7.629630e+00	 1.001996e+01
0	 8.518519e+00	 7.703704e+00	 1.001905e+01
0	 8.518519e+00	 7.777778e+00	 1.001813e+01
0	 8.592593e+00	 7.407407e+00	 1.002111e+01
0	 8.592593e+00	 7.481481e+00	 1.002028e+01
0	 8.592593e+00	 7.555556e+00	 1.001945e+01
0	 8.592593e+00	 7.629630e+00	 1.001862e+01
0	 8.592593e+00	 7.703704e+00	 1.001777e+01
0	 8.592593e+00	 7.777778e+00	 1.001692e+01
0	 8.666667e+00	 7.407407e+00	 1.001958e+01
0	 8.666667e+00	 7.481481e+00	 1.001883e+01
0	 8.666667e+00	 7.555556e+00	 1.001807e+01
0	 8.666667e+00	 7.629630e+00	 1.001730e+01
0	 8.666667e+00	 7.703704e+00	 1.001652e+01
0	 8.666667e+00	 7.777778e+00	 1.001573e+01
0	 8.740741e+00	 7.407407e+00	 1.001809e+01
0	 8.740741e+00	 7.481481e+00	 1.001741e+01
0	 8.740741e+00	 7.555556e+00	 1.001671e+01
0	 8.740741e+00	 7.629630e+00	 1.001601e+01
0	 8.740741e+00	 7.703704e+00	 1.001530e+01
0	 8.740741e+00	 7.777778e+00	 1.001457e+01
0	 8.814815e+00	 7.407407e+00	 1.001665e+01
0	 8.814815e+00	 7.481481e+00	 1.001603e+01
0	 8.814815e+00	 7.555556e+00	 1.001540e+01
0	 8.814815e+00	 7.629630e+00	 1.001476e+01
0	 8.814815e+00	 7.703704e+00	 1.001411e+01
0	 8.814815e+00	 7.777778e+00	 1.001344e+01
0	 8.888889e+00	 7.407407e+00	 1.001524e+01
0	 8.888889e+00	 7.481481e+00	 1.001469e+01
0	 8.888889e+00	 7.555556e+00	 1.001412e+01
0	 8.888889e+00	 7.629630e+00	 1.001354e+01
0	 8.888889e+00	 7.703704e+00	 1.001294e+01
0	 8.888889e+00	 7.777778e+00	 1.001234e+01
0	 8.518519e+00	 7.777778e+00	 1.001813e+01
0	 8.518519e+00	 7.851852e+00	 1.001720e+01
0	 8.518519e+00	 7.925926e+00	 1.001629e+01
0	 8.518519e+00	 8.000000e+00	 1.001538e+01
0	 8.518519e+00	 8.074074e+00	 1.001448e+01
0	 8.518519e+00	 8.148148e+00	 1.001358e+01
0	 8.592593e+00	 7.777778e+00	 1.001692e+01
0	 8.592593e+00	 7.851852e+00	 1.001606e+01
0	 8.592593e+00	 7.925926e+00	 1.001521e+01
0	 8.592593e+00	 8.000000e+00	 1.001437e+01
0	 8.592593e+00	 8.074074e+00	 1.001353e+01
0	 8.592593e+00	 8.148148e+00	 1.001269e+01
0	 8.666667e+00	 7.777778e+00	 1.001573e+01
0	 8.666667e+00	 7.851852e+00	 1.001494e+01
0	 8.666667e+00	 7.925926e+00	 1.001416e+01
0	 8.666667e+00	 8.000000e+00	 1.001337e+01
0	 8.666667e+00	 8.074074e+00	 1.001259e+01
0	 8.666667e+00	 8.148148e+00	 1.001181e+01
0	 8.740741e+00	 7.777778e+00	 1.001457e+01
0	 8.740741e+00	 7.851852e+00	 1.001384e+01
0	 8.740741e+00	 7.925926e+00	 1.001312e+01
0	 8.740741e+00	 8.000000e+00	 1.001240e+01
0	 8.740741e+00	 8.074074e+00	 1.001167e+01
0	 8.740741e+00	 8.148148e+00	 1.001095e+01
0	 8.814815e+00	 7.777778e+00	 1.001344e+01
0	 8.814815e+00	 7.851852e+00	 1.001277e+01
0	 8.814815e+00	 7.925926e+00	 1.001210e+01
0	 8.814815e+00	 8.000000e+00	 1.001144e+01
0	 8.814815e+00	 8.074074e+00	 1.001077e+01
0	 8.814815e+00	 8.148148e+00	 1.001010e+01
0	 8.888889e+00	 7.777778e+00	 1.001234e+01
0	 8.888889e+00	 7.851852e+00	 1.001172e+01
0	 8.888889e+00	 7.925926e+00	 1.001111e+01
0	 8.888889e+00	 8.000000e+00	 1.001050e+01
0	 8.888889e+00	 8.074074e+00	 1.000989e+01
0	 8.888889e+00	 8.148148e+00	 1.000927e+01
0	 8.518519e+00	 8.148148e+00	 1.001358e+01
0	 8.518519e+00	 8.222222e+00	 1.001269e+01
0	 8.518519e+00	 8.296296e+00	 1.001182e+01
0	 8.518519e+00	 8.370370e+00	 1.001097e+01
0	 8.518519e+00	 8.444444e+00	 1.001013e+01
0	 8.518519e+00	 8.518519e+00	 1.000930e+01
0	 8.592593e+00	 8.148148e+00	 1.001269e+01
0	 8.592593e+00	 8.222222e+00	 1.001186e+01
0	 8.592593e+00	 8.296296e+00	 1.001105e+01
0	 8.592593e+00	 8.370370e+00	 1.001025e+01
0	 8.592593e+00	 8.444444e+00	 1.000947e+01
0	 8.592593e+00	 8.518519e+00	 1.000870e+01
0	 8.666667e+00	 8.148148e+00	 1.001181e+01
0	 8.666667e+00	 8.222222e+00	 1.001104e+01
0	 8.666667e+00	 8.296296e+00	 1.001028e+01
0	 8.666667e+00	 8.370370e+00	 1.000954e+01
0	 8.666667e+00	 8.444444e+00	 1.000881e+01
0	 8.666667e+00	 8.518519e+00	 1.000809e+01
0	 8.740741e+00	 8.148148e+00	 1.001095e+01
0	 8.740741e+00	 8.222222e+00	 1.001023e+01
0	 8.740741e+00	 8.296296e+00	 1.000953e+01
0	 8.740741e+00	 8.370370e+00	 1.000884e+01
0	 8.740741e+00	 8.444444e+00	 1.000817e+01
0	 8.740741e+00	 8.518519e+00	 1.000750e+01
0	 8.814815e+00	 8.148148e+00	 1.001010e+01
0	 8.814815e+00	 8.222222e+00	 1.000944e+01
0	 8.814815e+00	 8.296296e+00	 1.000879e+01
0	 8.814815e+00	 8.370370e+00	 1.000815e+01
0	 8.814815e+00	 8.444444e+00	 1.000753e+01
0	 8.814815e+00	 8.518519e+00	 1.000691e+01
0	 8.888889e+00	 8.148148e+00	 1.000927e+01
0	 8.888889e+00	 8.222222e+00	 1.000866e+01
0	 8.888889e+00	 8.296296e+00	 1.000806e+01
0	 8.888889e+00	 8.370370e+00	 1.000747e+01
0	 8.888889e+00	 8.444444e+00	 1.000690e+01
0	 8.888889e+00	 8.518519e+00	 1.000632e+01
0	 8.518519e+00	 8.518519e+00	 1.000930e+01
0	 8.518519e+00	 8.592593e+00	 1.000850e+01
0	 8.518519e+00	 8.666667e+00	 1.000773e+01
0	 8.518519e+00	 8.740741e+00	 1.000698e+01
0	 8.518519e+00	 8.814815e+00	 1.000626e+01
0	 8.518519e+00	 8.888889e+00	 1.000557e+01
0	 8.592593e+00	 8.518519e+00	 1.000870e+01
0	 8.592593e+00	 8.592593e+00	 1.000795e+01
0	 8.592593e+00	 8.666667e+00	 1.000722e+01
0	 8.592593e+00	 8.740741e+00	 1.000652e+01
0	 8.592593e+00	 8.814815e+00	 1.000585e+01
0	 8.592593e+00	 8.888889e+00	 1.000520e+01
0	 8.666667e+00	 8.518519e+00	 1.000809e+01
0	 8.666667e+00	 8.592593e+00	 1.000739e+01
0	 8.666667e+00	 8.666667e+00	 1.000672e+01
0	 8.666667e+00	 8.740741e+00	 1.000607e+01
0	 8.666667e+00	 8.814815e+00	 1.000544e+01
0	 8.666667e+00	 8.888889e+00	 1.000484e+01
0	 8.740741e+00	 8.518519e+00	 1.000750e+01
0	 8.740741e+00	 8.592593e+00	 1.000685e+01
0	 8.740741e+00	 8.666667e+00	 1.000622e+01
0	 8.740741e+00	 8.740741e+00	 1.000562e+01
0	 8.740741e+00	 8.814815e+00	 1.000503e+01
0	 8.740741e+00	 8.888889e+00	 1.000447e+01
0	 8.814815e+00	 8.518519e+00	 1.000691e+01
0	 8.814815e+00	 8.592593e+00	 1.000631e+01
0	 8.814815e+00	 8.666667e+00	 1.000573e+01
0	 8.814815e+00	 8.740741e+00	 1.000517e+01
0	 8.814815e+00	 8.814815e+00	 1.000463e+01
0	 8.814815e+00	 8.888889e+00	 1.000411e+01
0	 8.888889e+00	 8.518519e+00	 1.000632e+01
0	 8.888889e+00	 8.592593e+00	 1.000577e+01
0	 8.888889e+00	 8.666667e+00	 1.000523e+01
0	 8.888889e+00	 8.740741e+00	 1.000472e+01
0	 8.888889e+00	 8.814815e+00	 1.000422e+01
0	 8.888889e+00	 8.888889e+00	 1.000374e+01
0	 8.518519e+00	 8.888889e+00	 1.000557e+01
0	 8.518519e+00	 8.962963e+00	 1.000490e+01
0	 8.518519e+00	 9.037037e+00	 1.000428e+01
0	 8.518519e+00	 9.111111e+00	 1.000369e+01
0	 8.518519e+00	 9.185185e+00	 1.000314e+01
0	 8.518519e+00	 9.259259e+00	 1.000262e+01
0	 8.592593e+00	 8.888889e+00	 1.000520e+01
0	 8.592593e+00	 8.962963e+00	 1.000458e+01
0	 8.592593e+00	 9.037037e+00	 1.000399e+01
0	 8.592593e+00	 9.111111e+00	 1.000344e+01
0	 8.592593e+00	 9.185185e+00	 1.000293e+01
0	 8.592593e+00	 9.259259e+00	 1.000244e+01
0	 8.666667e+00	 8.888889e+00	 1.000484e+01
0	 8.666667e+00	 8.962963e+00	 1.000426e+01
0	 8.666667e+00	 9.037037e+00	 1.000371e+01
0	 8.666667e+00	 9.111111e+00	 1.000320e+01
0	 8.666667e+00	 9.185185e+00	 1.000272e+01
0	 8.666667e+00	 9.259259e+00	 1.000227e+01
0	 8.740741e+00	 8.888889e+00	 1.000447e+01
0	 8.740741e+00	 8.962963e+00	 1.000393e+01
0	 8.740741e+00	 9.037037e+00	 1.000343e+01
0	 8.740741e+00	 9.111111e+00	 1.000295e+01
0	 8.740741e+00	 9.185185e+00	 1.000251e+01
0	 8.740741e+00	 9.259259e+00	 1.000209e+01
0	 8.814815e+00	 8.888889e+00	 1.000411e+01
0	 8.814815e+00	 8.962963e+00	 1.000361e+01
0	 8.814815e+00	 9.037037e+00	 1.000314e+01
0	 8.814815e+00	 9.111111e+00	 1.000271e+01
0	 8.814815e+00	 9.185185e+00	 1.000230e+01
0	 8.814815e+00	 9.259259e+00	 1.000191e+01
0	 8.888889e+00	 8.888889e+00	 1.000374e+01
0	 8.888889e+00	 8.962963e+00	 1.000329e+01
0	 8.888889e+00	 9.037037e+00	 1.000286e+01
0	 8.888889e+00	 9.111111e+00	 1.000246e+01
0	 8.888889e+00	 9.185185e+00	 1.000209e+01
0	 8.888889e+00	 9.259259e+00	 1.000174e+01
0	 8.518519e+00	 9.259259e+00	 1.000262e+01
0	 8.518519e+00	 9.333333e+00	 1.000214e+01
0	 8.518519e+00	 9.407407e+00	 1.000171e+01
0	 8.518519e+00	 9.481481e+00	 1.000133e+01
0	 8.518519e+00	 9.555556e+00	 1.000099e+01
0	 8.518519e+00	 9.629630e+00	 1.000069e+01
0	 8.592593e+00	 9.259259e+00	 1.000244e+01
0	 8.592593e+00	 9.333333e+00	 1.000200e+01
0	 8.592593e+00	 9.407407e+00	 1.000160e+01
0	 8.592593e+00	 9.481481e+00	 1.000124e+01
0	 8.592593e+00	 9.555556e+00	 1.000092e+01
0	 8.592593e+00	 9.629630e+00	 1.000065e+01
0	 8.666667e+00	 9.259259e+00	 1.000227e+01
0	 8.666667e+00	 9.333333e+00	 1.000185e+01
0	 8.666667e+00	 9.407407e+00	 1.000148e+01
0	 8.666667e+00	 9.481481e+00	 1.000115e+01
0	 8.666667e+00	 9.555556e+00	 1.000085e+01
0	 8.666667e+00	 9.629630e+00	 1.000060e+01
0	 8.740741e+00	 9.259259e+00	 1.000209e+01
0	 8.740741e+00	 9.333333e+00	 1.000171e+01
0	 8.740741e+00	 9.407407e+00	 1.000136e+01
0	 8.740741e+00	 9.481481e+00	 1.000106e+01
0	 8.740741e+00	 9.555556e+00	 1.000079e+01
0	 8.740741e+00	 9.629630e+00	 1.000055e+01
0	 8.814815e+00	 9.259259e+00	 1.000191e+01
0	 8.814815e+00	 9.333333e+00	 1.000156e+01
0	 8.814815e+00	 9.407407e+00	 1.000124e+01
0	 8.814815e+00	 9.481481e+00	 1.000096e+01
0	 8.814815e+00	 9.555556e+00	 1.000072e+01
0	 8.814815e+00	 9.629630e+00	 1.000050e+01
0	 8.888889e+00	 9.259259e+00	 1.000174e+01
0	 8.888889e+00	 9.333333e+00	 1.000141e+01
0	 8.888889e+00	 9.407407e+00	 1.000113e+01
0	 8.888889e+00	 9.481481e+00	 1.000087e+01
0	 8.888889e+00	 9.555556e+00	 1.000065e+01
0	 8.888889e+00	 9.629630e+00	 1.000045e+01
0	 8.518519e+00	 9.629630e+00	 1.000069e+01
0	 8.518519e+00	 9.703704e+00	 1.000044e+01
0	 8.518519e+00	 9.777778e+00	 1.000025e+01
0	 8.518519e+00	 9.851852e+00	 1.000012e+01
0	 8.518519e+00	 9.925926e+00	 1.000003e+01
0	 8.518519e+00	 1.000000e+01	 9.999995e+00
0	 8.592593e+00	 9.629630e+00	 1.000065e+01
0	 8.592593e+00	 9.703704e+00	 1.000042e+01
0	 8.592593e+00	 9.777778e+00	 1.000024e+01
0	 8.592593e+00	 9.851852e+00	 1.000011e+01
0	 8.592593e+00	 9.925926e+00	 1.000003e+01
0	 8.592593e+00	 1.000000e+01	 9.999998e+00
0	 8.666667e+00	 9.629630e+00	 1.000060e+01
0	 8.666667e+00	 9.703704e+00	 1.000038e+01
0	 8.666667e+00	 9.777778e+00	 1.000022e+01
0	 8.666667e+00	 9.851852e+00	 1.000010e+01
0	 8.666667e+00	 9.925926e+00	 1.000003e+01
0	 8.666667e+00	 1.000000e+01	 9.999998e+00
0	 8.740741e+00	 9.629630e+00	 1.000055e+01
0	 8.740741e+00	 9.703704e+00	 1.000035e+01
0	 8.740741e+00	 9.777778e+00	 1.000020e+01
0	 8.740741e+00	 9.851852e+00	 1.000009e+01
0	 8.740741e+00	 9.925926e+00	 1.000002e+01
0	 8.740741e+00	 1.000000e+01	 9.999997e+00
0	 8.814815e+00	 9.629630e+00	 1.000050e+01
0	 8.814815e+00	 9.703704e+00	 1.000032e+01
0	 8.814815e+00	 9.777778e+00	 1.000018e+01
0	 8.814815e+00	 9.851852e+00	 1.000008e+01
0	 8.814815e+00	 9.925926e+00	 1.000002e+01
0	 8.814815e+00	 1.000000e+01	 9.999996e+00
0	 8.888889e+00	 9.629630e+00	 1.000045e+01
0	 8.888889e+00	 9.703704e+00	 1.000029e+01
0	 8.888889e+00	 9.777778e+00	 1.000017e+01
0	 8.888889e+00	 9.851852e+00	 1.000008e+01
0	 8.888889e+00	 9.925926e+00	 1.000002e+01
0	 8.888889e+00	 1.000000e+01	 9.999997e+00
0	 8.888889e+00	 0.000000e+00	 9.853311e+00
0	 8.888889e+00	 7.407407e-02	 9.853387e+00
0	 8.888889e+00	 1.481481e-01	 9.853615e+00
0	 8.888889e+00	 2.222222e-01	 9.853996e+00
0	 8.888889e+00	 2.962963e-01	 9.854529e+00
0	 8.888889e+00	 3.703704e-01	 9.855215e+00
0	 8.962963e+00	 0.000000e+00	 9.842129e+00
0	 8.962963e+00	 7.407407e-02	 9.842207e+00
0	 8.962963e+00	 1.481481e-01	 9.842442e+00
0	 8.962963e+00	 2.222222e-01	 9.842833e+00
0	 8.962963e+00	 2.962963e-01	 9.843380e+00
0	 8.962963e+00	 3.703704e-01	 9.844085e+00
0	 9.037037e+00	 0.000000e+00	 9.830690e+00
0	 9.037037e+00	 7.407407e-02	 9.830771e+00
0	 9.037037e+00	 1.481481e-01	 9.831013e+00
0	 9.037037e+00	 2.222222e-01	 9.831416e+00
0	 9.037037e+00	 2.962963e-01	 9.831980e+00
0	 9.037037e+00	 3.703704e-01	 9.832706e+00
0	 9.111111e+00	 0.000000e+00	 9.818971e+00
0	 9.111111e+00	 7.407407e-02	 9.819055e+00
0	 9.111111e+00	 1.481481e-01	 9.819305e+00
0	 9.111111e+00	 2.222222e-01	 9.819721e+00
0	 9.111111e+00	 2.962963e-01	 9.820304e+00
0	 9.111111e+00	 3.703704e-01	 9.821055e+00
0	 9.185185e+00	 0.000000e+00	 9.806949e+00
0	 9.185185e+00	 7.407407e-02	 9.807036e+00
0	 9.185185e+00	 1.481481e-01	 9.807295e+00
0	 9.185185e+00	 2.222222e-01	 9.807726e+00
0	 9.185185e+00	 2.962963e-01	 9.808331e+00
0	 9.185185e+00	 3.703704e-01	 9.809108e+00
0	 9.259259e+00	 0.000000e+00	 9.794601e+00
0	 9.259259e+00	 7.407407e-02	 9.794691e+00
0	 9.259259e+00	 1.481481e-01	 9.794960e+00
0	 9.259259e+00	 2.222222e-01	 9.795409e+00
0	 9.259259e+00	 2.962963e-01	 9.796037e+00
0	 9.259259e+00	 3.703704e-01	 9.796844e+00
0	 8.888889e+00	 3.703704e-01	 9.855215e+00
0	 8.888889e+00	 4.444444e-01	 9.856048e+00
0	 8.888889e+00	 5.185185e-01	 9.857022e+00
0	 8.888889e+00	 5.925926e-01	 9.858140e+00
0	 8.888889e+00	 6.666667e-01	 9.859402e+00
0	 8.888889e+00	 7.407407e-01	 9.860810e+00
0	 8.962963e+00	 3.703704e-01	 9.844085e+00
0	 8.962963e+00	 4.444444e-01	 9.844942e+00
0	 8.962963e+00	 5.185185e-01	 9.845944e+00
0	 8.962963e+00	 5.925926e-01	 9.847093e+00
0	 8.962963e+00	 6.666667e-01	 9.848391e+00
0	 8.962963e+00	 7.407407e-01	 9.849839e+00
0	 9.037037e+00	 3.703704e-01	 9.832706e+00
0	 9.037037e+00	 4.444444e-01	 9.833589e+00
0	 9.037037e+00	 5.185185e-01	 9.834622e+00
0	 9.037037e+00	 5.925926e-01	 9.835807e+00
0	 9.037037e+00	 6.666667e-01	 9.837146e+00
0	 9.037037e+00	 7.407407e-01	 9.838638e+00
0	 9.111111e+00	 3.703704e-01	 9.821055e+00
0	 9.111111e+00	 4.444444e-01	 9.821967e+00
0	 9.111111e+00	 5.185185e-01	 9.823035e+00
0	 9.111111e+00	 5.925926e-01	 9.824260e+00
0	 9.111111e+00	 6.666667e-01	 9.825644e+00
0	 9.111111e+00	 7.407407e-01	 9.827187e+00
0	 9.185185e+00	 3.703704e-01	 9.809108e+00
0	 9.185185e+00	 4.444444e-01	 9.810053e+00
0	 9.185185e+00	 5.185185e-01	 9.811160e+00
0	 9.185185e+00	 5.925926e-01	 9.812430e+00
0	 9.185185e+00	 6.666667e-01	 9.813864e+00
0	 9.185185e+00	 7.407407e-01	 9.815464e+00
0	 9.259259e+00	 3.703704e-01	 9.796844e+00
0	 9.259259e+00	 4.444444e-01	 9.797826e+00
0	 9.259259e+00	 5.185185e-01	 9.798976e+00
0	 9.259259e+00	 5.925926e-01	 9.800295e+00
0	 9.259259e+00	 6.666667e-01	 9.801785e+00
0	 9.259259e+00	 7.407407e-01	 9.803447e+00
0	 8.888889e+00	 7.407407e-01	 9.860810e+00
0	 8.888889e+00	 8.148148e-01	 9.862351e+00
0	 8.888889e+00	 8.888889e-01	 9.864017e+00
0	 8.888889e+00	 9.629630e-01	 9.865807e+00
0	 8.888889e+00	 1.037037e+00	 9.867725e+00
0	 8.888889e+00	 1.111111e+00	 9.869772e+00
0	 8.962963e+00	 7.407407e-01	 9.849839e+00
0	 8.962963e+00	 8.148148e-01	 9.851425e+00
0	 8.962963e+00	 8.888889e-01	 9.853138e+00
0	 8.962963e+00	 9.629630e-01	 9.854981e+00
0	 8.962963e+00	 1.037037e+00	 9.856956e+00
0	 8.962963e+00	 1.111111e+00	 9.859063e+00
0	 9.037037e+00	 7.407407e-01	 9.838638e+00
0	 9.037037e+00	 8.148148e-01	 9.840274e+00
0	 9.037037e+00	 8.888889e-01	 9.842042e+00
0	 9.037037e+00	 9.629630e-01	 9.843944e+00
0	 9.037037e+00	 1.037037e+00	 9.845981e+00
0	 9.037037e+00	 1.111111e+00	 9.848157e+00
0	 9.111111e+00	 7.407407e-01	 9.827187e+00
0	 9.111111e+00	 8.148148e-01	 9.828878e+00
0	 9.111111e+00	 8.888889e-01	 9.830707e+00
0	 9.111111e+00	 9.629630e-01	 9.832674e+00
0	 9.111111e+00	 1.037037e+00	 9.834783e+00
0	 9.111111e+00	 1.111111e+00	 9.837033e+00
0	 9.185185e+00	 7.407407e-01	 9.815464e+00
0	 9.185185e+00	 8.148148e-01	 9.817217e+00
0	 9.185185e+00	 8.888889e-01	 9.819113e+00
0	 9.185185e+00	 9.629630e-01	 9.821153e+00
0	 9.185185e+00	 1.037037e+00	 9.823340e+00
0	 9.185185e+00	 1.111111e+00	 9.825674e+00
0	 9.259259e+00	 7.407407e-01	 9.803447e+00
0	 9.259259e+00	 8.148148e-01	 9.805269e+00
0	 9.259259e+00	 8.888889e-01	 9.807239e+00
0	 9.259259e+00	 9.629630e-01	 9.809360e+00
0	 9.259259e+00	 1.037037e+00	 9.811634e+00
0	 9.259259e+00	 1.111111e+00	 9.814060e+00
0	 8.888889e+00	 1.111111e+00	 9.869772e+00
0	 8.888889e+00	 1.185185e+00	 9.871933e+00
0	 8.888889e+00	 1.259259e+00	 9.874193e+00
0	 8.888889e+00	 1.333333e+00	 9.876554e+00
0	 8.888889e+00	 1.407407e+00	 9.879019e+00
0	 8.888889e+00	 1.481481e+00	 9.881591e+00
0	 8.962963e+00	 1.111111e+00	 9.859063e+00
0	 8.962963e+00	 1.185185e+00	 9.861289e+00
0	 8.962963e+00	 1.259259e+00	 9.863618e+00
0	 8.962963e+00	 1.333333e+00	 9.866052e+00
0	 8.962963e+00	 1.407407e+00	 9.868593e+00
0	 8.962963e+00	 1.481481e+00	 9.871245e+00
0	 9.037037e+00	 1.111111e+00	 9.848157e+00
0	 9.037037e+00	 1.185185e+00	 9.850454e+00
0	 9.037037e+00	 1.259259e+00	 9.852860e+00
0	 9.037037e+00	 1.333333e+00	 9.855374e+00
0	 9.037037e+00	 1.407407e+00	 9.858001e+00
0	 9.037037e+00	 1.481481e+00	 9.860742e+00
0	 9.111111e+00	 1.111111e+00	 9.837033e+00
0	 9.111111e+00	 1.185185e+00	 9.839411e+00
0	 9.111111e+00	 1.259259e+00	 9.841901e+00
0	 9.111111e+00	 1.333333e+00	 9.844505e+00
0	 9.111111e+00	 1.407407e+00	 9.847226e+00
0	 9.111111e+00	 1.481481e+00	 9.850065e+00
0	 9.185185e+00	 1.111111e+00	 9.825674e+00
0	 9.185185e+00	 1.185185e+00	 9.828141e+00
0	 9.185185e+00	 1.259259e+00	 9.830725e+00
0	 9.185185e+00	 1.333333e+00	 9.833428e+00
0	 9.185185e+00	 1.407407e+00	 9.836252e+00
0	 9.185185e+00	 1.481481e+00	 9.839200e+00
0	 9.259259e+00	 1.111111e+00	 9.814060e+00
0	 9.259259e+00	 1.185185e+00	 9.816625e+00
0	 9.259259e+00	 1.259259e+00	 9.819313e+00
0	 9.259259e+00	 1.333333e+00	 9.822125e+00
0	 9.259259e+00	 1.407407e+00	 9.825063e+00
0	 9.259259e+00	 1.481481e+00	 9.828130e+00
0	 8.888889e+00	 1.481481e+00	 9.881591e+00
0	 8.888889e+00	 1.555556e+00	 9.884251e+00
0	 8.888889e+00	 1.629630e+00	 9.886980e+00
0	 8.888889e+00	 1.703704e+00	 9.889783e+00
0	 8.888889e+00	 1.777778e+00	 9.892662e+00
0	 8.888889e+00	 1.851852e+00	 9.895619e+00
0	 8.962963e+00	 1.481481e+00	 9.871245e+00
0	 8.962963e+00	 1.555556e+00	 9.873989e+00
0	 8.962963e+00	 1.629630e+00	 9.876806e+00
0	 8.962963e+00	 1.703704e+00	 9.879701e+00
0	 8.962963e+00	 1.777778e+00	 9.882675e+00
0	 8.962963e+00	 1.851852e+00	 9.885730e+00
0	 9.037037e+00	 1.481481e+00	 9.860742e+00
0	 9.037037e+00	 1.555556e+00	 9.863578e+00
0	 9.037037e+00	 1.629630e+00	 9.866493e+00
0	 9.037037e+00	 1.703704e+00	 9.869488e+00
0	 9.037037e+00	 1.777778e+00	 9.872567e+00
0	 9.037037e+00	 1.851852e+00	 9.875731e+00
0	 9.111111e+00	 1.481481e+00	 9.850065e+00
0	 9.111111e+00	 1.555556e+00	 9.853005e+00
0	 9.111111e+00	 1.629630e+00	 9.856026e+00
0	 9.111111e+00	 1.703704e+00	 9.859132e+00
0	 9.111111e+00	 1.777778e+00	 9.862325e+00
0	 9.111111e+00	 1.851852e+00	 9.865608e+00
0	 9.185185e+00	 1.481481e+00	 9.839200e+00
0	 9.185185e+00	 1.555556e+00	 9.842252e+00
0	 9.185185e+00	 1.629630e+00	 9.845391e+00
0	 9.185185e+00	 1.703704e+00	 9.848619e+00
0	 9.185185e+00	 1.777778e+00	 9.851938e+00
0	 9.185185e+00	 1.851852e+00	 9.855350e+00
0	 9.259259e+00	 1.481481e+00	 9.828130e+00
0	 9.259259e+00	 1.555556e+00	 9.831306e+00
0	 9.259259e+00	 1.629630e+00	 9.834574e+00
0	 9.259259e+00	 1.703704e+00	 9.837935e+00
0	 9.259259e+00	 1.777778e+00	 9.841391e+00
0	 9.259259e+00	 1.851852e+00	 9.844945e+00
0	 8.888889e+00	 1.851852e+00	 9.895619e+00
0	 8.888889e+00	 1.925926e+00	 9.898635e+00
0	 8.888889e+00	 2.000000e+00	 9.901691e+00
0	 8.888889e+00	 2.074074e+00	 9.904789e+00
0	 8.888889e+00	 2.148148e+00	 9.907933e+00
0	 8.888889e+00	 2.222222e+00	 9.911125e+00
0	 8.962963e+00	 1.851852e+00	 9.885730e+00
0	 8.962963e+00	 1.925926e+00	 9.888848e+00
0	 8.962963e+00	 2.000000e+00	 9.892010e+00
0	 8.962963e+00	 2.074074e+00	 9.895217e+00
0	 8.962963e+00	 2.148148e+00	 9.898472e+00
0	 8.962963e+00	 2.222222e+00	 9.901779e+00
0	 9.037037e+00	 1.851852e+00	 9.875731e+00
0	 9.037037e+00	 1.925926e+00	 9.878960e+00
0	 9.037037e+00	 2.000000e+00	 9.882237e+00
0	 9.037037e+00	 2.074074e+00	 9.885562e+00
0	 9.037037e+00	 2.148148e+00	 9.888940e+00
0	 9.037037e+00	 2.222222e+00	 9.892371e+00
0	 9.111111e+00	 1.851852e+00	 9.865608e+00
0	 9.111111e+00	 1.925926e+00	 9.868960e+00
0	 9.111111e+00	 2.000000e+00	 9.872362e+00
0	 9.111111e+00	 2.074074e+00	 9.875817e+00
0	 9.111111e+00	 2.148148e+00	 9.879326e+00
0	 9.111111e+00	 2.222222e+00	 9.882893e+00
0	 9.185185e+00	 1.851852e+00	 9.855350e+00
0	 9.185185e+00	 1.925926e+00	 9.858836e+00
0	 9.185185e+00	 2.000000e+00	 9.862375e+00
0	 9.185185e+00	 2.074074e+00	 9.865970e+00
0	 9.185185e+00	 2.148148e+00	 9.869623e+00
0	 9.185185e+00	 2.222222e+00	 9.873337e+00
0	 9.259259e+00	 1.851852e+00	 9.844945e+00
0	 9.259259e+00	 1.925926e+00	 9.848576e+00
0	 9.259259e+00	 2.000000e+00	 9.852265e+00
0	 9.259259e+00	 2.074074e+00	 9.856012e+00
0	 9.259259e+00	 2.148148e+00	 9.859821e+00
0	 9.259259e+00	 2.222222e+00	 9.863694e+00
0	 8.888889e+00	 2.222222e+00	 9.911125e+00
0	 8.888889e+00	 2.296296e+00	 9.914346e+00
0	 8.888889e+00	 2.370370e+00	 9.917576e+00
0	 8.888889e+00	 2.444444e+00	 9.920819e+00
0	 8.888889e+00	 2.518519e+00	 9.924077e+00
0	 8.888889e+00	 2.592593e+00	 9.927352e+00
0	 8.962963e+00	 2.222222e+00	 9.901779e+00
0	 8.962963e+00	 2.296296e+00	 9.905117e+00
0	 8.962963e+00	 2.370370e+00	 9.908469e+00
0	 8.962963e+00	 2.444444e+00	 9.911835e+00
0	 8.962963e+00	 2.518519e+00	 9.915218e+00
0	 8.962963e+00	 2.592593e+00	 9.918622e+00
0	 9.037037e+00	 2.222222e+00	 9.892371e+00
0	 9.037037e+00	 2.296296e+00	 9.895837e+00
0	 9.037037e+00	 2.370370e+00	 9.899318e+00
0	 9.037037e+00	 2.444444e+00	 9.902817e+00
0	 9.037037e+00	 2.518519e+00	 9.906336e+00
0	 9.037037e+00	 2.592593e+00	 9.909878e+00
0	 9.111111e+00	 2.222222e+00	 9.882893e+00
0	 9.111111e+00	 2.296296e+00	 9.886497e+00
0	 9.111111e+00	 2.370370e+00	 9.890119e+00
0	 9.111111e+00	 2.444444e+00	 9.893762e+00
0	 9.111111e+00	 2.518519e+00	 9.897426e+00
0	 9.111111e+00	 2.592593e+00	 9.901116e+00
0	 9.185185e+00	 2.222222e+00	 9.873337e+00
0	 9.185185e+00	 2.296296e+00	 9.877091e+00
0	 9.185185e+00	 2.370370e+00	 9.880865e+00
0	 9.185185e+00	 2.444444e+00	 9.884662e+00
0	 9.185185e+00	 2.518519e+00	 9.888483e+00
0	 9.185185e+00	 2.592593e+00	 9.892332e+00
0	 9.259259e+00	 2.222222e+00	 9.863694e+00
0	 9.259259e+00	 2.296296e+00	 9.867610e+00
0	 9.259259e+00	 2.370370e+00	 9.871549e+00
0	 9.259259e+00	 2.444444e+00	 9.875512e+00
0	 9.259259e+00	 2.518519e+00	 9.879503e+00
0	 9.259259e+00	 2.592593e+00	 9.883522e+00
0	 8.888889e+00	 2.592593e+00	 9.927352e+00
0	 8.888889e+00	 2.666667e+00	 9.930628e+00
0	 8.888889e+00	 2.740741e+00	 9.933885e+00
0	 8.888889e+00	 2.814815e+00	 9.937127e+00
0	 8.888889e+00	 2.888889e+00	 9.940355e+00
0	 8.888889e+00	 2.962963e+00	 9.943572e+00
0	 8.962963e+00	 2.592593e+00	 9.918622e+00
0	 8.962963e+00	 2.666667e+00	 9.922028e+00
0	 8.962963e+00	 2.740741e+00	 9.925418e+00
0	 8.962963e+00	 2.814815e+00	 9.928794e+00
0	 8.962963e+00	 2.888889e+00	 9.932159e+00
0	 8.962963e+00	 2.962963e+00	 9.935514e+00
0	 9.037037e+00	 2.592593e+00	 9.909878e+00
0	 9.037037e+00	 2.666667e+00	 9.913423e+00
0	 9.037037e+00	 2.740741e+00	 9.916955e+00
0	 9.037037e+00	 2.814815e+00	 9.920475e+00
0	 9.037037e+00	 2.888889e+00	 9.923985e+00
0	 9.037037e+00	 2.962963e+00	 9.927487e+00
0	 9.111111e+00	 2.592593e+00	 9.901116e+00
0	 9.111111e+00	 2.666667e+00	 9.904811e+00
0	 9.111111e+00	 2.740741e+00	 9.908494e+00
0	 9.111111e+00	 2.814815e+00	 9.912167e+00
0	 9.111111e+00	 2.888889e+00	 9.915832e+00
0	 9.111111e+00	 2.962963e+00	 9.919490e+00
0	 9.185185e+00	 2.592593e+00	 9.892332e+00
0	 9.185185e+00	 2.666667e+00	 9.896188e+00
0	 9.185185e+00	 2.740741e+00	 9.900034e+00
0	 9.185185e+00	 2.814815e+00	 9.903870e+00
0	 9.185185e+00	 2.888889e+00	 9.907700e+00
0	 9.185185e+00	 2.962963e+00	 9.911524e+00
0	 9.259259e+00	 2.592593e+00	 9.883522e+00
0	 9.259259e+00	 2.666667e+00	 9.887551e+00
0	 9.259259e+00	 2.740741e+00	 9.891570e+00
0	 9.259259e+00	 2.814815e+00	 9.895582e+00
0	 9.259259e+00	 2.888889e+00	 9.899587e+00
0	 9.259259e+00	 2.962963e+00	 9.903589e+00
0	 8.888889e+00	 2.962963e+00	 9.943572e+00
0	 8.888889e+00	 3.037037e+00	 9.946763e+00
0	 8.888889e+00	 3.111111e+00	 9.949912e+00
0	 8.888889e+00	 3.185185e+00	 9.953022e+00
0	 8.888889e+00	 3.259259e+00	 9.956093e+00
0	 8.888889e+00	 3.333333e+00	 9.959128e+00
0	 8.962963e+00	 2.962963e+00	 9.935514e+00
0	 8.962963e+00	 3.037037e+00	 9.938845e+00
0	 8.962963e+00	 3.111111e+00	 9.942135e+00
0	 8.962963e+00	 3.185185e+00	 9.945386e+00
0	 8.962963e+00	 3.259259e+00	 9.948601e+00
0	 8.962963e+00	 3.333333e+00	 9.951780e+00
0	 9.037037e+00	 2.962963e+00	 9.927487e+00
0	 9.037037e+00	 3.037037e+00	 9.930965e+00
0	 9.037037e+00	 3.111111e+00	 9.934405e+00
0	 9.037037e+00	 3.185185e+00	 9.937806e+00
0	 9.037037e+00	 3.259259e+00	 9.941171e+00
0	 9.037037e+00	 3.333333e+00	 9.944502e+00
0	 9.111111e+00	 2.962963e+00	 9.919490e+00
0	 9.111111e+00	 3.037037e+00	 9.923126e+00
0	 9.111111e+00	 3.111111e+00	 9.926723e+00
0	 9.111111e+00	 3.185185e+00	 9.930282e+00
0	 9.111111e+00	 3.259259e+00	 9.933806e+00
0	 9.111111e+00	 3.333333e+00	 9.937296e+00
0	 9.185185e+00	 2.962963e+00	 9.911524e+00
0	 9.185185e+00	 3.037037e+00	 9.915327e+00
0	 9.185185e+00	 3.111111e+00	 9.919091e+00
0	 9.185185e+00	 3.185185e+00	 9.922818e+00
0	 9.185185e+00	 3.259259e+00	 9.926509e+00
0	 9.185185e+00	 3.333333e+00	 9.930167e+00
0	 9.259259e+00	 2.962963e+00	 9.903589e+00
0	 9.259259e+00	 3.037037e+00	 9.907569e+00
0	 9.259259e+00	 3.111111e+00	 9.911510e+00
0	 9.259259e+00	 3.185185e+00	 9.915415e+00
0	 9.259259e+00	 3.259259e+00	 9.919284e+00
0	 9.259259e+00	 3.333333e+00	 9.923119e+00
0	 8.888889e+00	 3.333333e+00	 9.959128e+00
0	 8.888889e+00	 3.407407e+00	 9.962114e+00
0	 8.888889e+00	 3.481481e+00	 9.965040e+00
0	 8.888889e+00	 3.555556e+00	 9.967907e+00
0	 8.888889e+00	 3.629630e+00	 9.970715e+00
0	 8.888889e+00	 3.703704e+00	 9.973466e+00
0	 8.962963e+00	 3.333333e+00	 9.951780e+00
0	 8.962963e+00	 3.407407e+00	 9.954911e+00
0	 8.962963e+00	 3.481481e+00	 9.957983e+00
0	 8.962963e+00	 3.555556e+00	 9.960995e+00
0	 8.962963e+00	 3.629630e+00	 9.963949e+00
0	 8.962963e+00	 3.703704e+00	 9.966847e+00
0	 9.037037e+00	 3.333333e+00	 9.944502e+00
0	 9.037037e+00	 3.407407e+00	 9.947785e+00
0	 9.037037e+00	 3.481481e+00	 9.951008e+00
0	 9.037037e+00	 3.555556e+00	 9.954172e+00
0	 9.037037e+00	 3.629630e+00	 9.957278e+00
0	 9.037037e+00	 3.703704e+00	 9.960328e+00
0	 9.111111e+00	 3.333333e+00	 9.937296e+00
0	 9.111111e+00	 3.407407e+00	 9.940739e+00
0	 9.111111e+00	 3.481481e+00	 9.944121e+00
0	 9.111111e+00	 3.555556e+00	 9.947444e+00
0	 9.111111e+00	 3.629630e+00	 9.950709e+00
0	 9.111111e+00	 3.703704e+00	 9.953916e+00
0	 9.185185e+00	 3.333333e+00	 9.930167e+00
0	 9.185185e+00	 3.407407e+00	 9.933778e+00
0	 9.185185e+00	 3.481481e+00	 9.937327e+00
0	 9.185185e+00	 3.555556e+00	 9.940816e+00
0	 9.185185e+00	 3.629630e+00	 9.944246e+00
0	 9.185185e+00	 3.703704e+00	 9.947618e+00
0	 9.259259e+00	 3.333333e+00	 9.923119e+00
0	 9.259259e+00	 3.407407e+00	 9.926906e+00
0	 9.259259e+00	 3.481481e+00	 9.930630e+00
0	 9.259259e+00	 3.555556e+00	 9.934294e+00
0	 9.259259e+00	 3.629630e+00	 9.937897e+00
0	 9.259259e+00	 3.703704e+00	 9.941442e+00
0	 8.888889e+00	 3.703704e+00	 9.973466e+00
0	 8.888889e+00	 3.777778e+00	 9.976152e+00
0	 8.888889e+00	 3.851852e+00	 9.978764e+00
0	 8.888889e+00	 3.925926e+00	 9.981302e+00
0	 8.888889e+00	 4.000000e+00	 9.983768e+00
0	 8.888889e+00	 4.074074e+00	 9.986161e+00
0	 8.962963e+00	 3.703704e+00	 9.966847e+00
0	 8.962963e+00	 3.777778e+00	 9.969679e+00
0	 8.962963e+00	 3.851852e+00	 9.972436e+00
0	 8.962963e+00	 3.925926e+00	 9.975120e+00
0	 8.962963e+00	 4.000000e+00	 9.977730e+00
0	 8.962963e+00	 4.074074e+00	 9.980267e+00
0	 9.037037e+00	 3.703704e+00	 9.960328e+00
0	 9.037037e+00	 3.777778e+00	 9.963311e+00
0	 9.037037e+00	 3.851852e+00	 9.966219e+00
0	 9.037037e+00	 3.925926e+00	 9.969052e+00
0	 9.037037e+00	 4.000000e+00	 9.971811e+00
0	 9.037037e+00	 4.074074e+00	 9.974497e+00
0	 9.111111e+00	 3.703704e+00	 9.953916e+00
0	 9.111111e+00	 3.777778e+00	 9.957057e+00
0	 9.111111e+00	 3.851852e+00	 9.960121e+00
0	 9.111111e+00	 3.925926e+00	 9.963109e+00
0	 9.111111e+00	 4.000000e+00	 9.966021e+00
0	 9.111111e+00	 4.074074e+00	 9.968859e+00
0	 9.185185e+00	 3.703704e+00	 9.947618e+00
0	 9.185185e+00	 3.777778e+00	 9.950923e+00
0	 9.185185e+00	 3.851852e+00	 9.954149e+00
0	 9.185185e+00	 3.925926e+00	 9.957297e+00
0	 9.185185e+00	 4.000000e+00	 9.960368e+00
0	 9.185185e+00	 4.074074e+00	 9.963363e+00
0	 9.259259e+00	 3.703704e+00	 9.941442e+00
0	 9.259259e+00	 3.777778e+00	 9.944916e+00
0	 9.259259e+00	 3.851852e+00	 9.948311e+00
0	 9.259259e+00	 3.925926e+00	 9.951625e+00
0	 9.259259e+00	 4.000000e+00	 9.954861e+00
0	 9.259259e+00	 4.074074e+00	 9.958019e+00
0	 8.888889e+00	 4.074074e+00	 9.986161e+00
0	 8.888889e+00	 4.148148e+00	 9.988477e+00
0	 8.888889e+00	 4.222222e+00	 9.990710e+00
0	 8.888889e+00	 4.296296e+00	 9.992862e+00
0	 8.888889e+00	 4.370370e+00	 9.994931e+00
0	 8.888889e+00	 4.444444e+00	 9.996918e+00
0	 8.962963e+00	 4.074074e+00	 9.980267e+00
0	 8.962963e+00	 4.148148e+00	 9.982727e+00
0	 8.962963e+00	 4.222222e+00	 9.985102e+00
0	 8.962963e+00	 4.296296e+00	 9.987394e+00
0	 8.962963e+00	 4.370370e+00	 9.989603e+00
0	 8.962963e+00	 4.444444e+00	 9.991729e+00
0	 9.037037e+00	 4.074074e+00	 9.974497e+00
0	 9.037037e+00	 4.148148e+00	 9.977103e+00
0	 9.037037e+00	 4.222222e+00	 9.979624e+00
0	 9.037037e+00	 4.296296e+00	 9.982060e+00
0	 9.037037e+00	 4.370370e+00	 9.984411e+00
0	 9.037037e+00	 4.444444e+00	 9.986678e+00
0	 9.111111e+00	 4.074074e+00	 9.968859e+00
0	 9.111111e+00	 4.148148e+00	 9.971616e+00
0	 9.111111e+00	 4.222222e+00	 9.974286e+00
0	 9.111111e+00	 4.296296e+00	 9.976869e+00
0	 9.111111e+00	 4.370370e+00	 9.979365e+00
0	 9.111111e+00	 4.444444e+00	 9.981775e+00
0	 9.185185e+00	 4.074074e+00	 9.963363e+00
0	 9.185185e+00	 4.148148e+00	 9.966276e+00
0	 9.185185e+00	 4.222222e+00	 9.969099e+00
0	 9.185185e+00	 4.296296e+00	 9.971832e+00
0	 9.185185e+00	 4.370370e+00	 9.974476e+00
0	 9.185185e+00	 4.444444e+00	 9.977032e+00
0	 9.259259e+00	 4.074074e+00	 9.958019e+00
0	 9.259259e+00	 4.148148e+00	 9.961091e+00
0	 9.259259e+00	 4.222222e+00	 9.964071e+00
0	 9.259259e+00	 4.296296e+00	 9.966958e+00
0	 9.259259e+00	 4.370370e+00	 9.969754e+00
0	 9.259259e+00	 4.444444e+00	 9.972459e+00
0	 8.888889e+00	 4.444444e+00	 9.996918e+00
0	 8.888889e+00	 4.518519e+00	 9.998822e+00
0	 8.888889e+00	 4.592593e+00	 1.000064e+01
0	 8.888889e+00	 4.666667e+00	 1.000237e+01
0	 8.888889e+00	 4.740741e+00	 1.000402e+01
0	 8.888889e+00	 4.814815e+00	 1.000558e+01
0	 8.962963e+00	 4.444444e+00	 9.991729e+00
0	 8.962963e+00	 4.518519e+00	 9.993770e+00
0	 8.962963e+00	 4.592593e+00	 9.995723e+00
0	 8.962963e+00	 4.666667e+00	 9.997588e+00
0	 8.962963e+00	 4.740741e+00	 9.999365e+00
0	 8.962963e+00	 4.814815e+00	 1.000105e+01
0	 9.037037e+00	 4.444444e+00	 9.986678e+00
0	 9.037037e+00	 4.518519e+00	 9.988857e+00
0	 9.037037e+00	 4.592593e+00	 9.990947e+00
0	 9.037037e+00	 4.666667e+00	 9.992947e+00
0	 9.037037e+00	 4.740741e+00	 9.994857e+00
0	 9.037037e+00	 4.814815e+00	 9.996677e+00
0	 9.111111e+00	 4.444444e+00	 9.981775e+00
0	 9.111111e+00	 4.518519e+00	 9.984096e+00
0	 9.111111e+00	 4.592593e+00	 9.986324e+00
0	 9.111111e+00	 4.666667e+00	 9.988460e+00
0	 9.111111e+00	 4.740741e+00	 9.990504e+00
0	 9.111111e+00	 4.814815e+00	 9.992455e+00
0	 9.185185e+00	 4.444444e+00	 9.977032e+00
0	 9.185185e+00	 4.518519e+00	 9.979496e+00
0	 9.185185e+00	 4.592593e+00	 9.981865e+00
0	 9.185185e+00	 4.666667e+00	 9.984138e+00
0	 9.185185e+00	 4.740741e+00	 9.986317e+00
0	 9.185185e+00	 4.814815e+00	 9.988400e+00
0	 9.259259e+00	 4.444444e+00	 9.972459e+00
0	 9.259259e+00	 4.518519e+00	 9.975069e+00
0	 9.259259e+00	 4.592593e+00	 9.977580e+00
0	 9.259259e+00	 4.666667e+00	 9.979993e+00
0	 9.259259e+00	 4.740741e+00	 9.982308e+00
0	 9.259259e+00	 4.814815e+00	 9.984524e+00
0	 8.888889e+00	 4.814815e+00	 1.000558e+01
0	 8.888889e+00	 4.888889e+00	 1.000705e+01
0	 8.888889e+00	 4.962963e+00	 1.000844e+01
0	 8.888889e+00	 5.037037e+00	 1.000974e+01
0	 8.888889e+00	 5.111111e+00	 1.001096e+01
0	 8.888889e+00	 5.185185e+00	 1.001210e+01
0	 8.962963e+00	 4.814815e+00	 1.000105e+01
0	 8.962963e+00	 4.888889e+00	 1.000266e+01
0	 8.962963e+00	 4.962963e+00	 1.000417e+01
0	 8.962963e+00	 5.037037e+00	 1.000560e+01
0	 8.962963e+00	 5.111111e+00	 1.000694e+01
0	 8.962963e+00	 5.185185e+00	 1.000819e+01
0	 9.037037e+00	 4.814815e+00	 9.996677e+00
0	 9.037037e+00	 4.888889e+00	 9.998407e+00
0	 9.037037e+00	 4.962963e+00	 1.000005e+01
0	 9.037037e+00	 5.037037e+00	 1.000160e+01
0	 9.037037e+00	 5.111111e+00	 1.000306e+01
0	 9.037037e+00	 5.185185e+00	 1.000443e+01
0	 9.111111e+00	 4.814815e+00	 9.992455e+00
0	 9.111111e+00	 4.888889e+00	 9.994314e+00
0	 9.111111e+00	 4.962963e+00	 9.996080e+00
0	 9.111111e+00	 5.037037e+00	 9.997754e+00
0	 9.111111e+00	 5.111111e+00	 9.999336e+00
0	 9.111111e+00	 5.185185e+00	 1.000082e+01
0	 9.185185e+00	 4.814815e+00	 9.988400e+00
0	 9.185185e+00	 4.888889e+00	 9.990388e+00
0	 9.185185e+00	 4.962963e+00	 9.992280e+00
0	 9.185185e+00	 5.037037e+00	 9.994077e+00
0	 9.185185e+00	 5.111111e+00	 9.995778e+00
0	 9.185185e+00	 5.185185e+00	 9.997383e+00
0	 9.259259e+00	 4.814815e+00	 9.984524e+00
0	 9.259259e+00	 4.888889e+00	 9.986641e+00
0	 9.259259e+00	 4.962963e+00	 9.988660e+00
0	 9.259259e+00	 5.037037e+00	 9.990580e+00
0	 9.259259e+00	 5.111111e+00	 9.992400e+00
0	 9.259259e+00	 5.185185e+00	 9.994120e+00
0	 8.888889e+00	 5.185185e+00	 1.001210e+01
0	 8.888889e+00	 5.259259e+00	 1.001315e+01
0	 8.888889e+00	 5.333333e+00	 1.001412e+01
0	 8.888889e+00	 5.407407e+00	 1.001501e+01
0	 8.888889e+00	 5.481481e+00	 1.001582e+01
0	 8.888889e+00	 5.555556e+00	 1.001654e+01
0	 8.962963e+00	 5.185185e+00	 1.000819e+01
0	 8.962963e+00	 5.259259e+00	 1.000936e+01
0	 8.962963e+00	 5.333333e+00	 1.001044e+01
0	 8.962963e+00	 5.407407e+00	 1.001145e+01
0	 8.962963e+00	 5.481481e+00	 1.001237e+01
0	 8.962963e+00	 5.555556e+00	 1.001320e+01
0	 9.037037e+00	 5.185185e+00	 1.000443e+01
0	 9.037037e+00	 5.259259e+00	 1.000571e+01
0	 9.037037e+00	 5.333333e+00	 1.000691e+01
0	 9.037037e+00	 5.407407e+00	 1.000803e+01
0	 9.037037e+00	 5.481481e+00	 1.000905e+01
0	 9.037037e+00	 5.555556e+00	 1.000999e+01
0	 9.111111e+00	 5.185185e+00	 1.000082e+01
0	 9.111111e+00	 5.259259e+00	 1.000222e+01
0	 9.111111e+00	 5.333333e+00	 1.000353e+01
0	 9.111111e+00	 5.407407e+00	 1.000475e+01
0	 9.111111e+00	 5.481481e+00	 1.000589e+01
0	 9.111111e+00	 5.555556e+00	 1.000693e+01
0	 9.185185e+00	 5.185185e+00	 9.997383e+00
0	 9.185185e+00	 5.259259e+00	 9.998894e+00
0	 9.185185e+00	 5.333333e+00	 1.000031e+01
0	 9.185185e+00	 5.407407e+00	 1.000164e+01
0	 9.185185e+00	 5.481481e+00	 1.000288e+01
0	 9.185185e+00	 5.555556e+00	 1.000403e+01
0	 9.259259e+00	 5.185185e+00	 9.994120e+00
0	 9.259259e+00	 5.259259e+00	 9.995743e+00
0	 9.259259e+00	 5.333333e+00	 9.997272e+00
0	 9.259259e+00	 5.407407e+00	 9.998706e+00
0	 9.259259e+00	 5.481481e+00	 1.000004e+01
0	 9.259259e+00	 5.555556e+00	 1.000129e+01
0	 8.888889e+00	 5.555556e+00	 1.001654e+01
0	 8.888889e+00	 5.629630e+00	 1.001719e+01
0	 8.888889e+00	 5.703704e+00	 1.001777e+01
0	 8.888889e+00	 5.777778e+00	 1.001828e+01
0	 8.888889e+00	 5.851852e+00	 1.001872e+01
0	 8.888889e+00	 5.925926e+00	 1.001908e+01
0	 8.962963e+00	 5.555556e+00	 1.001320e+01
0	 8.962963e+00	 5.629630e+00	 1.001396e+01
0	 8.962963e+00	 5.703704e+00	 1.001464e+01
0	 8.962963e+00	 5.777778e+00	 1.001525e+01
0	 8.962963e+00	 5.851852e+00	 1.001578e+01
0	 8.962963e+00	 5.925926e+00	 1.001624e+01
0	 9.037037e+00	 5.555556e+00	 1.000999e+01
0	 9.037037e+00	 5.629630e+00	 1.001085e+01
0	 9.037037e+00	 5.703704e+00	 1.001164e+01
0	 9.037037e+00	 5.777778e+00	 1.001234e+01
0	 9.037037e+00	 5.851852e+00	 1.001297e+01
0	 9.037037e+00	 5.925926e+00	 1.001352e+01
0	 9.111111e+00	 5.555556e+00	 1.000693e+01
0	 9.111111e+00	 5.629630e+00	 1.000789e+01
0	 9.111111e+00	 5.703704e+00	 1.000877e+01
0	 9.111111e+00	 5.777778e+00	 1.000957e+01
0	 9.111111e+00	 5.851852e+00	 1.001029e+01
0	 9.111111e+00	 5.925926e+00	 1.001093e+01
0	 9.185185e+00	 5.555556e+00	 1.000403e+01
0	 9.185185e+00	 5.629630e+00	 1.000508e+01
0	 9.185185e+00	 5.703704e+00	 1.000606e+01
0	 9.185185e+00	 5.777778e+00	 1.000695e+01
0	 9.185185e+00	 5.851852e+00	 1.000776e+01
0	 9.185185e+00	 5.925926e+00	 1.000848e+01
0	 9.259259e+00	 5.555556e+00	 1.000129e+01
0	 9.259259e+00	 5.629630e+00	 1.000244e+01
0	 9.259259e+00	 5.703704e+00	 1.000351e+01
0	 9.259259e+00	 5.777778e+00	 1.000449e+01
0	 9.259259e+00	 5.851852e+00	 1.000538e+01
0	 9.259259e+00	 5.925926e+00	 1.000618e+01
0	 8.888889e+00	 5.925926e+00	 1.001908e+01
0	 8.888889e+00	 6.000000e+00	 1.001937e+01
0	 8.888889e+00	 6.074074e+00	 1.001960e+01
0	 8.888889e+00	 6.148148e+00	 1.001977e+01
0	 8.888889e+00	 6.222222e+00	 1.001988e+01
0	 8.888889e+00	 6.296296e+00	 1.001992e+01
0	 8.962963e+00	 5.925926e+00	 1.001624e+01
0	 8.962963e+00	 6.000000e+00	 1.001662e+01
0	 8.962963e+00	 6.074074e+00	 1.001695e+01
0	 8.962963e+00	 6.148148e+00	 1.001720e+01
0	 8.962963e+00	 6.222222e+00	 1.001740e+01
0	 8.962963e+00	 6.296296e+00	 1.001753e+01
0	 9.037037e+00	 5.925926e+00	 1.001352e+01
0	 9.037037e+00	 6.000000e+00	 1.001399e+01
0	 9.037037e+00	 6.074074e+00	 1.001440e+01
0	 9.037037e+00	 6.148148e+00	 1.001475e+01
0	 9.037037e+00	 6.222222e+00	 1.001502e+01
0	 9.037037e+00	 6.296296e+00	 1.001523e+01
0	 9.111111e+00	 5.925926e+00	 1.001093e+01
0	 9.111111e+00	 6.000000e+00	 1.001149e+01
0	 9.111111e+00	 6.074074e+00	 1.001198e+01
0	 9.111111e+00	 6.148148e+00	 1.001241e+01
0	 9.111111e+00	 6.222222e+00	 1.001276e+01
0	 9.111111e+00	 6.296296e+00	 1.001305e+01
0	 9.185185e+00	 5.925926e+00	 1.000848e+01
0	 9.185185e+00	 6.000000e+00	 1.000912e+01
0	 9.185185e+00	 6.074074e+00	 1.000970e+01
0	 9.185185e+00	 6.148148e+00	 1.001020e+01
0	 9.185185e+00	 6.222222e+00	 1.001063e+01
0	 9.185185e+00	 6.296296e+00	 1.001099e+01
0	 9.259259e+00	 5.925926e+00	 1.000618e+01
0	 9.259259e+00	 6.000000e+00	 1.000691e+01
0	 9.259259e+00	 6.074074e+00	 1.000756e+01
0	 9.259259e+00	 6.148148e+00	 1.000813e+01
0	 9.259259e+00	 6.222222e+00	 1.000863e+01
0	 9.259259e+00	 6.296296e+00	 1.000905e+01
0	 8.888889e+00	 6.296296e+00	 1.001992e+01
0	 8.888889e+00	 6.370370e+00	 1.001991e+01
0	 8.888889e+00	 6.444444e+00	 1.001985e+01
0	 8.888889e+00	 6.518519e+00	 1.001974e+01
0	 8.888889e+00	 6.592593e+00	 1.001957e+01
0	 8.888889e+00	 6.666667e+00	 1.001936e+01
0	 8.962963e+00	 6.296296e+00	 1.001753e+01
0	 8.962963e+00	 6.370370e+00	 1.001759e+01
0	 8.962963e+00	 6.444444e+00	 1.001761e+01
0	 8.962963e+00	 6.518519e+00	 1.001758e+01
0	 8.962963e+00	 6.592593e+00	 1.001749e+01
0	 8.962963e+00	 6.666667e+00	 1.001735e+01
0	 9.037037e+00	 6.296296e+00	 1.001523e+01
0	 9.037037e+00	 6.370370e+00	 1.001538e+01
0	 9.037037e+00	 6.444444e+00	 1.001547e+01
0	 9.037037e+00	 6.518519e+00	 1.001551e+01
0	 9.037037e+00	 6.592593e+00	 1.001550e+01
0	 9.037037e+00	 6.666667e+00	 1.001543e+01
0	 9.111111e+00	 6.296296e+00	 1.001305e+01
0	 9.111111e+00	 6.370370e+00	 1.001327e+01
0	 9.111111e+00	 6.444444e+00	 1.001344e+01
0	 9.111111e+00	 6.518519e+00	 1.001354e+01
0	 9.111111e+00	 6.592593e+00	 1.001360e+01
0	 9.111111e+00	 6.666667e+00	 1.001359e+01
0	 9.185185e+00	 6.296296e+00	 1.001099e+01
0	 9.185185e+00	 6.370370e+00	 1.001128e+01
0	 9.185185e+00	 6.444444e+00	 1.001151e+01
0	 9.185185e+00	 6.518519e+00	 1.001168e+01
0	 9.185185e+00	 6.592593e+00	 1.001180e+01
0	 9.185185e+00	 6.666667e+00	 1.001185e+01
0	 9.259259e+00	 6.296296e+00	 1.000905e+01
0	 9.259259e+00	 6.370370e+00	 1.000941e+01
0	 9.259259e+00	 6.444444e+00	 1.000970e+01
0	 9.259259e+00	 6.518519e+00	 1.000994e+01
0	 9.259259e+00	 6.592593e+00	 1.001011e+01
0	 9.259259e+00	 6.666667e+00	 1.001022e+01
0	 8.888889e+00	 6.666667e+00	 1.001936e+01
0	 8.888889e+00	 6.740741e+00	 1.001910e+01
0	 8.888889e+00	 6.814815e+00	 1.001880e+01
0	 8.888889e+00	 6.888889e+00	 1.001847e+01
0	 8.888889e+00	 6.962963e+00	 1.001810e+01
0	 8.888889e+00	 7.037037e+00	 1.001769e+01
0	 8.962963e+00	 6.666667e+00	 1.001735e+01
0	 8.962963e+00	 6.740741e+00	 1.001716e+01
0	 8.962963e+00	 6.814815e+00	 1.001694e+01
0	 8.962963e+00	 6.888889e+00	 1.001667e+01
0	 8.962963e+00	 6.962963e+00	 1.001637e+01
0	 8.962963e+00	 7.037037e+00	 1.001603e+01
0	 9.037037e+00	 6.666667e+00	 1.001543e+01
0	 9.037037e+00	 6.740741e+00	 1.001531e+01
0	 9.037037e+00	 6.814815e+00	 1.001515e+01
0	 9.037037e+00	 6.888889e+00	 1.001495e+01
0	 9.037037e+00	 6.962963e+00	 1.001471e+01
0	 9.037037e+00	 7.037037e+00	 1.001443e+01
0	 9.111111e+00	 6.666667e+00	 1.001359e+01
0	 9.111111e+00	 6.740741e+00	 1.001354e+01
0	 9.111111e+00	 6.814815e+00	 1.001344e+01
0	 9.111111e+00	 6.888889e+00	 1.001330e+01
0	 9.111111e+00	 6.962963e+00	 1.001312e+01
0	 9.111111e+00	 7.037037e+00	 1.001289e+01
0	 9.185185e+00	 6.666667e+00	 1.001185e+01
0	 9.185185e+00	 6.740741e+00	 1.001186e+01
0	 9.185185e+00	 6.814815e+00	 1.001182e+01
0	 9.185185e+00	 6.888889e+00	 1.001173e+01
0	 9.185185e+00	 6.962963e+00	 1.001161e+01
0	 9.185185e+00	 7.037037e+00	 1.001143e+01
0	 9.259259e+00	 6.666667e+00	 1.001022e+01
0	 9.259259e+00	 6.740741e+00	 1.001028e+01
0	 9.259259e+00	 6.814815e+00	 1.001029e+01
0	 9.259259e+00	 6.888889e+00	 1.001026e+01
0	 9.259259e+00	 6.962963e+00	 1.001017e+01
0	 9.259259e+00	 7.037037e+00	 1.001005e+01
0	 8.888889e+00	 7.037037e+00	 1.001769e+01
0	 8.888889e+00	 7.111111e+00	 1.001725e+01
0	 8.888889e+00	 7.185185e+00	 1.001679e+01
0	 8.888889e+00	 7.259259e+00	 1.001630e+01
0	 8.888889e+00	 7.333333e+00	 1.001578e+01
0	 8.888889e+00	 7.407407e+00	 1.001524e+01
0	 8.962963e+00	 7.037037e+00	 1.001603e+01
0	 8.962963e+00	 7.111111e+00	 1.001565e+01
0	 8.962963e+00	 7.185185e+00	 1.001525e+01
0	 8.962963e+00	 7.259259e+00	 1.001482e+01
0	 8.962963e+00	 7.333333e+00	 1.001437e+01
0	 8.962963e+00	 7.407407e+00	 1.001389e+01
0	 9.037037e+00	 7.037037e+00	 1.001443e+01
0	 9.037037e+00	 7.111111e+00	 1.001411e+01
0	 9.037037e+00	 7.185185e+00	 1.001377e+01
0	 9.037037e+00	 7.259259e+00	 1.001340e+01
0	 9.037037e+00	 7.333333e+00	 1.001300e+01
0	 9.037037e+00	 7.407407e+00	 1.001257e+01
0	 9.111111e+00	 7.037037e+00	 1.001289e+01
0	 9.111111e+00	 7.111111e+00	 1.001263e+01
0	 9.111111e+00	 7.185185e+00	 1.001234e+01
0	 9.111111e+00	 7.259259e+00	 1.001203e+01
0	 9.111111e+00	 7.333333e+00	 1.001168e+01
0	 9.111111e+00	 7.407407e+00	 1.001131e+01
0	 9.185185e+00	 7.037037e+00	 1.001143e+01
0	 9.185185e+00	 7.111111e+00	 1.001122e+01
0	 9.185185e+00	 7.185185e+00	 1.001098e+01
0	 9.185185e+00	 7.259259e+00	 1.001071e+01
0	 9.185185e+00	 7.333333e+00	 1.001042e+01
0	 9.185185e+00	 7.407407e+00	 1.001009e+01
0	 9.259259e+00	 7.037037e+00	 1.001005e+01
0	 9.259259e+00	 7.111111e+00	 1.000988e+01
0	 9.259259e+00	 7.185185e+00	 1.000969e+01
0	 9.259259e+00	 7.259259e+00	 1.000946e+01
0	 9.259259e+00	 7.333333e+00	 1.000921e+01
0	 9.259259e+00	 7.407407e+00	 1.000892e+01
0	 8.888889e+00	 7.407407e+00	 1.001524e+01
0	 8.888889e+00	 7.481481e+00	 1.001469e+01
0	 8.888889e+00	 7.555556e+00	 1.001412e+01
0	 8.888889e+00	 7.629630e+00	 1.001354e+01
0	 8.888889e+00	 7.703704e+00	 1.001294e+01
0	 8.888889e+00	 7.777778e+00	 1.001234e+01
0	 8.962963e+00	 7.407407e+00	 1.001389e+01
0	 8.962963e+00	 7.481481e+00	 1.001339e+01
0	 8.962963e+00	 7.555556e+00	 1.001287e+01
0	 8.962963e+00	 7.629630e+00	 1.001235e+01
0	 8.962963e+00	 7.703704e+00	 1.001181e+01
0	 8.962963e+00	 7.777778e+00	 1.001126e+01
0	 9.037037e+00	 7.407407e+00	 1.001257e+01
0	 9.037037e+00	 7.481481e+00	 1.001213e+01
0	 9.037037e+00	 7.555556e+00	 1.001167e+01
0	 9.037037e+00	 7.629630e+00	 1.001120e+01
0	 9.037037e+00	 7.703704e+00	 1.001071e+01
0	 9.037037e+00	 7.777778e+00	 1.001021e+01
0	 9.111111e+00	 7.407407e+00	 1.001131e+01
0	 9.111111e+00	 7.481481e+00	 1.001091e+01
0	 9.111111e+00	 7.555556e+00	 1.001050e+01
0	 9.111111e+00	 7.629630e+00	 1.001008e+01
0	 9.111111e+00	 7.703704e+00	 1.000964e+01
0	 9.111111e+00	 7.777778e+00	 1.000918e+01
0	 9.185185e+00	 7.407407e+00	 1.001009e+01
0	 9.185185e+00	 7.481481e+00	 1.000974e+01
0	 9.185185e+00	 7.555556e+00	 1.000937e+01
0	 9.185185e+00	 7.629630e+00	 1.000899e+01
0	 9.185185e+00	 7.703704e+00	 1.000860e+01
0	 9.185185e+00	 7.777778e+00	 1.000818e+01
0	 9.259259e+00	 7.407407e+00	 1.000892e+01
0	 9.259259e+00	 7.481481e+00	 1.000861e+01
0	 9.259259e+00	 7.555556e+00	 1.000828e+01
0	 9.259259e+00	 7.629630e+00	 1.000794e+01
0	 9.259259e+00	 7.703704e+00	 1.000759e+01
0	 9.259259e+00	 7.777778e+00	 1.000721e+01
0	 8.888889e+00	 7.777778e+00	 1.001234e+01
0	 8.888889e+00	 7.851852e+00	 1.001172e+01
0	 8.888889e+00	 7.925926e+00	 1.001111e+01
0	 8.888889e+00	 8.000000e+00	 1.001050e+01
0	 8.888889e+00	 8.074074e+00	 1.000989e+01
0	 8.888889e+00	 8.148148e+00	 1.000927e+01
0	 8.962963e+00	 7.777778e+00	 1.001126e+01
0	 8.962963e+00	 7.851852e+00	 1.001070e+01
0	 8.962963e+00	 7.925926e+00	 1.001014e+01
0	 8.962963e+00	 8.000000e+00	 1.000958e+01
0	 8.962963e+00	 8.074074e+00	 1.000902e+01
0	 8.962963e+00	 8.148148e+00	 1.000845e+01
0	 9.037037e+00	 7.777778e+00	 1.001021e+01
0	 9.037037e+00	 7.851852e+00	 1.000970e+01
0	 9.037037e+00	 7.925926e+00	 1.000919e+01
0	 9.037037e+00	 8.000000e+00	 1.000868e+01
0	 9.037037e+00	 8.074074e+00	 1.000816e+01
0	 9.037037e+00	 8.148148e+00	 1.000764e+01
0	 9.111111e+00	 7.777778e+00	 1.000918e+01
0	 9.111111e+00	 7.851852e+00	 1.000872e+01
0	 9.111111e+00	 7.925926e+00	 1.000826e+01
0	 9.111111e+00	 8.000000e+00	 1.000779e+01
0	 9.111111e+00	 8.074074e+00	 1.000732e+01
0	 9.111111e+00	 8.148148e+00	 1.000685e+01
0	 9.185185e+00	 7.777778e+00	 1.000818e+01
0	 9.185185e+00	 7.851852e+00	 1.000776e+01
0	 9.185185e+00	 7.925926e+00	 1.000734e+01
0	 9.185185e+00	 8.000000e+00	 1.000692e+01
0	 9.185185e+00	 8.074074e+00	 1.000649e+01
0	 9.185185e+00	 8.148148e+00	 1.000606e+01
0	 9.259259e+00	 7.777778e+00	 1.000721e+01
0	 9.259259e+00	 7.851852e+00	 1.000683e+01
0	 9.259259e+00	 7.925926e+00	 1.000645e+01
0	 9.259259e+00	 8.000000e+00	 1.000606e+01
0	 9.259259e+00	 8.074074e+00	 1.000567e+01
0	 9.259259e+00	 8.148148e+00	 1.000528e+01
0	 8.888889e+00	 8.148148e+00	 1.000927e+01
0	 8.888889e+00	 8.222222e+00	 1.000866e+01
0	 8.888889e+00	 8.296296e+00	 1.000806e+01
0	 8.888889e+00	 8.370370e+00	 1.000747e+01
0	 8.888889e+00	 8.444444e+00	 1.000690e+01
0	 8.888889e+00	 8.518519e+00	 1.000632e+01
0	 8.962963e+00	 8.148148e+00	 1.000845e+01
0	 8.962963e+00	 8.222222e+00	 1.000789e+01
0	 8.962963e+00	 8.296296e+00	 1.000734e+01
0	 8.962963e+00	 8.370370e+00	 1.000680e+01
0	 8.962963e+00	 8.444444e+00	 1.000627e+01
0	 8.962963e+00	 8.518519e+00	 1.000575e+01
0	 9.037037e+00	 8.148148e+00	 1.000764e+01
0	 9.037037e+00	 8.222222e+00	 1.000713e+01
0	 9.037037e+00	 8.296296e+00	 1.000663e+01
0	 9.037037e+00	 8.370370e+00	 1.000613e+01
0	 9.037037e+00	 8.444444e+00	 1.000565e+01
0	 9.037037e+00	 8.518519e+00	 1.000517e+01
0	 9.111111e+00	 8.148148e+00	 1.000685e+01
0	 9.111111e+00	 8.222222e+00	 1.000638e+01
0	 9.111111e+00	 8.296296e+00	 1.000592e+01
0	 9.111111e+00	 8.370370e+00	 1.000547e+01
0	 9.111111e+00	 8.444444e+00	 1.000503e+01
0	 9.111111e+00	 8.518519e+00	 1.000459e+01
0	 9.185185e+00	 8.148148e+00	 1.000606e+01
0	 9.185185e+00	 8.222222e+00	 1.000563e+01
0	 9.185185e+00	 8.296296e+00	 1.000522e+01
0	 9.185185e+00	 8.370370e+00	 1.000481e+01
0	 9.185185e+00	 8.444444e+00	 1.000440e+01
0	 9.185185e+00	 8.518519e+00	 1.000401e+01
0	 9.259259e+00	 8.148148e+00	 1.000528e+01
0	 9.259259e+00	 8.222222e+00	 1.000489e+01
0	 9.259259e+00	 8.296296e+00	 1.000451e+01
0	 9.259259e+00	 8.370370e+00	 1.000414e+01
0	 9.259259e+00	 8.444444e+00	 1.000378e+01
0	 9.259259e+00	 8.518519e+00	 1.000342e+01
0	 8.888889e+00	 8.518519e+00	 1.000632e+01
0	 8.888889e+00	 8.592593e+00	 1.000577e+01
0	 8.888889e+00	 8.666667e+00	 1.000523e+01
0	 8.888889e+00	 8.740741e+00	 1.000472e+01
0	 8.888889e+00	 8.814815e+00	 1.000422e+01
0	 8.888889e+00	 8.888889e+00	 1.000374e+01
0	 8.962963e+00	 8.518519e+00	 1.000575e+01
0	 8.962963e+00	 8.592593e+00	 1.000523e+01
0	 8.962963e+00	 8.666667e+00	 1.000474e+01
0	 8.962963e+00	 8.740741e+00	 1.000427e+01
0	 8.962963e+00	 8.814815e+00	 1.000382e+01
0	 8.962963e+00	 8.888889e+00	 1.000338e+01
0	 9.037037e+00	 8.518519e+00	 1.000517e+01
0	 9.037037e+00	 8.592593e+00	 1.000470e+01
0	 9.037037e+00	 8.666667e+00	 1.000425e+01
0	 9.037037e+00	 8.740741e+00	 1.000382e+01
0	 9.037037e+00	 8.814815e+00	 1.000341e+01
0	 9.037037e+00	 8.888889e+00	 1.000301e+01
0	 9.111111e+00	 8.518519e+00	 1.000459e+01
0	 9.111111e+00	 8.592593e+00	 1.000417e+01
0	 9.111111e+00	 8.666667e+00	 1.000376e+01
0	 9.111111e+00	 8.740741e+00	 1.000337e+01
0	 9.111111e+00	 8.814815e+00	 1.000300e+01
0	 9.111111e+00	 8.888889e+00	 1.000264e+01
0	 9.185185e+00	 8.518519e+00	 1.000401e+01
0	 9.185185e+00	 8.592593e+00	 1.000363e+01
0	 9.185185e+00	 8.666667e+00	 1.000326e+01
0	 9.185185e+00	 8.740741e+00	 1.000291e+01
0	 9.185185e+00	 8.814815e+00	 1.000258e+01
0	 9.185185e+00	 8.888889e+00	 1.000226e+01
0	 9.259259e+00	 8.518519e+00	 1.000342e+01
0	 9.259259e+00	 8.592593e+00	 1.000308e+01
0	 9.259259e+00	 8.666667e+00	 1.000275e+01
0	 9.259259e+00	 8.740741e+00	 1.000244e+01
0	 9.259259e+00	 8.814815e+00	 1.000215e+01
0	 9.259259e+00	 8.888889e+00	 1.000187e+01
0	 8.888889e+00	 8.888889e+00	 1.000374e+01
0	 8.888889e+00	 8.962963e+00	 1.000329e+01
0	 8.888889e+00	 9.037037e+00	 1.000286e+01
0	 8.888889e+00	 9.111111e+00	 1.000246e+01
0	 8.888889e+00	 9.185185e+00	 1.000209e+01
0	 8.888889e+00	 9.259259e+00	 1.000174e+01
0	 8.962963e+00	 8.888889e+00	 1.000338e+01
0	 8.962963e+00	 8.962963e+00	 1.000296e+01
0	 8.962963e+00	 9.037037e+00	 1.000257e+01
0	 8.962963e+00	 9.111111e+00	 1.000221e+01
0	 8.962963e+00	 9.185185e+00	 1.000187e+01
0	 8.962963e+00	 9.259259e+00	 1.000155e+01
0	 9.037037e+00	 8.888889e+00	 1.000301e+01
0	 9.037037e+00	 8.962963e+00	 1.000263e+01
0	 9.037037e+00	 9.037037e+00	 1.000228e+01
0	 9.037037e+00	 9.111111e+00	 1.000195e+01
0	 9.037037e+00	 9.185185e+00	 1.000165e+01
0	 9.037037e+00	 9.259259e+00	 1.000137e+01
0	 9.111111e+00	 8.888889e+00	 1.000264e+01
0	 9.111111e+00	 8.962963e+00	 1.000230e+01
0	 9.111111e+00	 9.037037e+00	 1.000198e+01
0	 9.111111e+00	 9.111111e+00	 1.000169e+01
0	 9.111111e+00	 9.185185e+00	 1.000142e+01
0	 9.111111e+00	 9.259259e+00	 1.000117e+01
0	 9.185185e+00	 8.888889e+00	 1.000226e+01
0	 9.185185e+00	 8.962963e+00	 1.000196e+01
0	 9.185185e+00	 9.037037e+00	 1.000168e+01
0	 9.185185e+00	 9.111111e+00	 1.000142e+01
0	 9.185185e+00	 9.185185e+00	 1.000119e+01
0	 9.185185e+00	 9.259259e+00	 1.000097e+01
0	 9.259259e+00	 8.888889e+00	 1.000187e+01
0	 9.259259e+00	 8.962963e+00	 1.000160e+01
0	 9.259259e+00	 9.037037e+00	 1.000136e+01
0	 9.259259e+00	 9.111111e+00	 1.000114e+01
0	 9.259259e+00	 9.185185e+00	 1.000094e+01
0	 9.259259e+00	 9.259259e+00	 1.000076e+01
0	 8.888889e+00	 9.259259e+00	 1.000174e+01
0	 8.888889e+00	 9.333333e+00	 1.000141e+01
0	 8.888889e+00	 9.407407e+00	 1.000113e+01
0	 8.888889e+00	 9.481481e+00	 1.000087e+01
0	 8.888889e+00	 9.555556e+00	 1.000065e+01
0	 8.888889e+00	 9.629630e+00	 1.000045e+01
0	 8.962963e+00	 9.259259e+00	 1.000155e+01
0	 8.962963e+00	 9.333333e+00	 1.000126e+01
0	 8.962963e+00	 9.407407e+00	 1.000101e+01
0	 8.962963e+00	 9.481481e+00	 1.000078e+01
0	 8.962963e+00	 9.555556e+00	 1.000058e+01
0	 8.962963e+00	 9.629630e+00	 1.000040e+01
0	 9.037037e+00	 9.259259e+00	 1.000137e+01
0	 9.037037e+00	 9.333333e+00	 1.000111e+01
0	 9.037037e+00	 9.407407e+00	 1.000088e+01
0	 9.037037e+00	 9.481481e+00	 1.000068e+01
0	 9.037037e+00	 9.555556e+00	 1.000050e+01
0	 9.037037e+00	 9.629630e+00	 1.000035e+01
0	 9.111111e+00	 9.259259e+00	 1.000117e+01
0	 9.111111e+00	 9.333333e+00	 1.000095e+01
0	 9.111111e+00	 9.407407e+00	 1.000075e+01
0	 9.111111e+00	 9.481481e+00	 1.000057e+01
0	 9.111111e+00	 9.555556e+00	 1.000042e+01
0	 9.111111e+00	 9.629630e+00	 1.000029e+01
0	 9.185185e+00	 9.259259e+00	 1.000097e+01
0	 9.185185e+00	 9.333333e+00	 1.000078e+01
0	 9.185185e+00	 9.407407e+00	 1.000061e+01
0	 9.185185e+00	 9.481481e+00	 1.000046e+01
0	 9.185185e+00	 9.555556e+00	 1.000033e+01
0	 9.185185e+00	 9.629630e+00	 1.000023e+01
0	 9.259259e+00	 9.259259e+00	 1.000076e+01
0	 9.259259e+00	 9.333333e+00	 1.000060e+01
0	 9.259259e+00	 9.407407e+00	 1.000046e+01
0	 9.259259e+00	 9.481481e+00	 1.000034e+01
0	 9.259259e+00	 9.555556e+00	 1.000024e+01
0	 9.259259e+00	 9.629630e+00	 1.000016e+01
0	 8.888889e+00	 9.629630e+00	 1.000045e+01
0	 8.888889e+00	 9.703704e+00	 1.000029e+01
0	 8.888889e+00	 9.777778e+00	 1.000017e+01
0	 8.888889e+00	 9.851852e+00	 1.000008e+01
0	 8.888889e+00	 9.925926e+00	 1.000002e+01
0	 8.888889e+00	 1.000000e+01	 9.999997e+00
0	 8.962963e+00	 9.629630e+00	 1.000040e+01
0	 8.962963e+00	 9.703704e+00	 1.000026e+01
0	 8.962963e+00	 9.777778e+00	 1.000015e+01
0	 8.962963e+00	 9.851852e+00	 1.000007e+01
0	 8.962963e+00	 9.925926e+00	 1.000002e+01
0	 8.962963e+00	 1.000000e+01	 9.999998e+00
0	 9.037037e+00	 9.629630e+00	 1.000035e+01
0	 9.037037e+00	 9.703704e+00	 1.000022e+01
0	 9.037037e+00	 9.777778e+00	 1.000013e+01
0	 9.037037e+00	 9.851852e+00	 1.000006e+01
0	 9.037037e+00	 9.925926e+00	 1.000001e+01
0	 9.037037e+00	 1.000000e+01	 9.999996e+00
0	 9.111111e+00	 9.629630e+00	 1.000029e+01
0	 9.111111e+00	 9.703704e+00	 1.000019e+01
0	 9.111111e+00	 9.777778e+00	 1.000010e+01
0	 9.111111e+00	 9.851852e+00	 1.000004e+01
0	 9.111111e+00	 9.925926e+00	 1.000001e+01
0	 9.111111e+00	 1.000000e+01	 9.999995e+00
0	 9.185185e+00	 9.629630e+00	 1.000023e+01
0	 9.185185e+00	 9.703704e+00	 1.000014e+01
0	 9.185185e+00	 9.777778e+00	 1.000008e+01
0	 9.185185e+00	 9.851852e+00	 1.000003e+01
0	 9.185185e+00	 9.925926e+00	 1.000000e+01
0	 9.185185e+00	 1.000000e+01	 9.999998e+00
0	 9.259259e+00	 9.629630e+00	 1.000016e+01
0	 9.259259e+00	 9.703704e+00	 1.000010e+01
0	 9.259259e+00	 9.777778e+00	 1.000005e+01
0	 9.259259e+00	 9.851852e+00	 1.000002e+01
0	 9.259259e+00	 9.925926e+00	 1.000001e+01
0	 9.259259e+00	 1.000000e+01	 1.000001e+01
0	 9.259259e+00	 0.000000e+00	 9.794601e+00
0	 9.259259e+00	 7.407407e-02	 9.794691e+00
0	 9.259259e+00	 1.481481e-01	 9.794960e+00
0	 9.259259e+00	 2.222222e-01	 9.795409e+00
0	 9.259259e+00	 2.962963e-01	 9.796037e+00
0	 9.259259e+00	 3.703704e-01	 9.796844e+00
0	 9.333333e+00	 0.000000e+00	 9.781923e+00
0	 9.333333e+00	 7.407407e-02	 9.782017e+00
0	 9.333333e+00	 1.481481e-01	 9.782297e+00
0	 9.333333e+00	 2.222222e-01	 9.782764e+00
0	 9.333333e+00	 2.962963e-01	 9.783417e+00
0	 9.333333e+00	 3.703704e-01	 9.784258e+00
0	 9.407407e+00	 0.000000e+00	 9.768905e+00
0	 9.407407e+00	 7.407407e-02	 9.769003e+00
0	 9.407407e+00	 1.481481e-01	 9.769295e+00
0	 9.407407e+00	 2.222222e-01	 9.769782e+00
0	 9.407407e+00	 2.962963e-01	 9.770464e+00
0	 9.407407e+00	 3.703704e-01	 9.771341e+00
0	 9.481481e+00	 0.000000e+00	 9.755515e+00
0	 9.481481e+00	 7.407407e-02	 9.755618e+00
0	 9.481481e+00	 1.481481e-01	 9.755924e+00
0	 9.481481e+00	 2.222222e-01	 9.756433e+00
0	 9.481481e+00	 2.962963e-01	 9.757145e+00
0	 9.481481e+00	 3.703704e-01	 9.758062e+00
0	 9.555556e+00	 0.000000e+00	 9.741724e+00
0	 9.555556e+00	 7.407407e-02	 9.741831e+00
0	 9.555556e+00	 1.481481e-01	 9.742152e+00
0	 9.555556e+00	 2.222222e-01	 9.742685e+00
0	 9.555556e+00	 2.962963e-01	 9.743431e+00
0	 9.555556e+00	 3.703704e-01	 9.744391e+00
0	 9.629630e+00	 0.000000e+00	 9.727499e+00
0	 9.629630e+00	 7.407407e-02	 9.727612e+00
0	 9.629630e+00	 1.481481e-01	 9.727948e+00
0	 9.629630e+00	 2.222222e-01	 9.728507e+00
0	 9.629630e+00	 2.962963e-01	 9.729291e+00
0	 9.629630e+00	 3.703704e-01	 9.730299e+00
0	 9.259259e+00	 3.703704e-01	 9.796844e+00
0	 9.259259e+00	 4.444444e-01	 9.797826e+00
0	 9.259259e+00	 5.185185e-01	 9.798976e+00
0	 9.259259e+00	 5.925926e-01	 9.800295e+00
0	 9.259259e+00	 6.666667e-01	 9.801785e+00
0	 9.259259e+00	 7.407407e-01	 9.803447e+00
0	 9.333333e+00	 3.703704e-01	 9.784258e+00
0	 9.333333e+00	 4.444444e-01	 9.785280e+00
0	 9.333333e+00	 5.185185e-01	 9.786477e+00
0	 9.333333e+00	 5.925926e-01	 9.787852e+00
0	 9.333333e+00	 6.666667e-01	 9.789403e+00
0	 9.333333e+00	 7.407407e-01	 9.791133e+00
0	 9.407407e+00	 3.703704e-01	 9.771341e+00
0	 9.407407e+00	 4.444444e-01	 9.772407e+00
0	 9.407407e+00	 5.185185e-01	 9.773656e+00
0	 9.407407e+00	 5.925926e-01	 9.775090e+00
0	 9.407407e+00	 6.666667e-01	 9.776709e+00
0	 9.407407e+00	 7.407407e-01	 9.778514e+00
0	 9.481481e+00	 3.703704e-01	 9.758062e+00
0	 9.481481e+00	 4.444444e-01	 9.759176e+00
0	 9.481481e+00	 5.185185e-01	 9.760483e+00
0	 9.481481e+00	 5.925926e-01	 9.761982e+00
0	 9.481481e+00	 6.666667e-01	 9.763674e+00
0	 9.481481e+00	 7.407407e-01	 9.765562e+00
0	 9.555556e+00	 3.703704e-01	 9.744391e+00
0	 9.555556e+00	 4.444444e-01	 9.745559e+00
0	 9.555556e+00	 5.185185e-01	 9.746927e+00
0	 9.555556e+00	 5.925926e-01	 9.748498e+00
0	 9.555556e+00	 6.666667e-01	 9.750271e+00
0	 9.555556e+00	 7.407407e-01	 9.752248e+00
0	 9.629630e+00	 3.703704e-01	 9.730299e+00
0	 9.629630e+00	 4.444444e-01	 9.731524e+00
0	 9.629630e+00	 5.185185e-01	 9.732960e+00
0	 9.629630e+00	 5.925926e-01	 9.734609e+00
0	 9.629630e+00	 6.666667e-01	 9.736470e+00
0	 9.629630e+00	 7.407407e-01	 9.738545e+00
0	 9.259259e+00	 7.407407e-01	 9.803447e+00
0	 9.259259e+00	 8.148148e-01	 9.805269e+00
0	 9.259259e+00	 8.888889e-01	 9.807239e+00
0	 9.259259e+00	 9.629630e-01	 9.809360e+00
0	 9.259259e+00	 1.037037e+00	 9.811634e+00
0	 9.259259e+00	 1.111111e+00	 9.814060e+00
0	 9.333333e+00	 7.407407e-01	 9.791133e+00
0	 9.333333e+00	 8.148148e-01	 9.793030e+00
0	 9.333333e+00	 8.888889e-01	 9.795083e+00
0	 9.333333e+00	 9.629630e-01	 9.797292e+00
0	 9.333333e+00	 1.037037e+00	 9.799661e+00
0	 9.333333e+00	 1.111111e+00	 9.802189e+00
0	 9.407407e+00	 7.407407e-01	 9.778514e+00
0	 9.407407e+00	 8.148148e-01	 9.780494e+00
0	 9.407407e+00	 8.888889e-01	 9.782636e+00
0	 9.407407e+00	 9.629630e-01	 9.784942e+00
0	 9.407407e+00	 1.037037e+00	 9.787414e+00
0	 9.407407e+00	 1.111111e+00	 9.790052e+00
0	 9.481481e+00	 7.407407e-01	 9.765562e+00
0	 9.481481e+00	 8.148148e-01	 9.767631e+00
0	 9.481481e+00	 8.888889e-01	 9.769871e+00
0	 9.481481e+00	 9.629630e-01	 9.772283e+00
0	 9.481481e+00	 1.037037e+00	 9.774867e+00
0	 9.481481e+00	 1.111111e+00	 9.777627e+00
0	 9.555556e+00	 7.407407e-01	 9.752248e+00
0	 9.555556e+00	 8.148148e-01	 9.754416e+00
0	 9.555556e+00	 8.888889e-01	 9.756762e+00
0	 9.555556e+00	 9.629630e-01	 9.759289e+00
0	 9.555556e+00	 1.037037e+00	 9.761997e+00
0	 9.555556e+00	 1.111111e+00	 9.764888e+00
0	 9.629630e+00	 7.407407e-01	 9.738545e+00
0	 9.629630e+00	 8.148148e-01	 9.740820e+00
0	 9.629630e+00	 8.888889e-01	 9.743283e+00
0	 9.629630e+00	 9.629630e-01	 9.745935e+00
0	 9.629630e+00	 1.037037e+00	 9.748777e+00
0	 9.629630e+00	 1.111111e+00	 9.751811e+00
0	 9.259259e+00	 1.111111e+00	 9.814060e+00
0	 9.259259e+00	 1.185185e+00	 9.816625e+00
0	 9.259259e+00	 1.259259e+00	 9.819313e+00
0	 9.259259e+00	 1.333333e+00	 9.822125e+00
0	 9.259259e+00	 1.407407e+00	 9.825063e+00
0	 9.259259e+00	 1.481481e+00	 9.828130e+00
0	 9.333333e+00	 1.111111e+00	 9.802189e+00
0	 9.333333e+00	 1.185185e+00	 9.804861e+00
0	 9.333333e+00	 1.259259e+00	 9.807662e+00
0	 9.333333e+00	 1.333333e+00	 9.810593e+00
0	 9.333333e+00	 1.407407e+00	 9.813655e+00
0	 9.333333e+00	 1.481481e+00	 9.816852e+00
0	 9.407407e+00	 1.111111e+00	 9.790052e+00
0	 9.407407e+00	 1.185185e+00	 9.792842e+00
0	 9.407407e+00	 1.259259e+00	 9.795766e+00
0	 9.407407e+00	 1.333333e+00	 9.798826e+00
0	 9.407407e+00	 1.407407e+00	 9.802024e+00
0	 9.407407e+00	 1.481481e+00	 9.805362e+00
0	 9.481481e+00	 1.111111e+00	 9.777627e+00
0	 9.481481e+00	 1.185185e+00	 9.780544e+00
0	 9.481481e+00	 1.259259e+00	 9.783602e+00
0	 9.481481e+00	 1.333333e+00	 9.786803e+00
0	 9.481481e+00	 1.407407e+00	 9.790148e+00
0	 9.481481e+00	 1.481481e+00	 9.793640e+00
0	 9.555556e+00	 1.111111e+00	 9.764888e+00
0	 9.555556e+00	 1.185185e+00	 9.767944e+00
0	 9.555556e+00	 1.259259e+00	 9.771148e+00
0	 9.555556e+00	 1.333333e+00	 9.774502e+00
0	 9.555556e+00	 1.407407e+00	 9.778008e+00
0	 9.555556e+00	 1.481481e+00	 9.781667e+00
0	 9.629630e+00	 1.111111e+00	 9.751811e+00
0	 9.629630e+00	 1.185185e+00	 9.755019e+00
0	 9.629630e+00	 1.259259e+00	 9.758382e+00
0	 9.629630e+00	 1.333333e+00	 9.761903e+00
0	 9.629630e+00	 1.407407e+00	 9.765582e+00
0	 9.629630e+00	 1.481481e+00	 9.769423e+00
0	 9.259259e+00	 1.481481e+00	 9.828130e+00
0	 9.259259e+00	 1.555556e+00	 9.831306e+00
0	 9.259259e+00	 1.629630e+00	 9.834574e+00
0	 9.259259e+00	 1.703704e+00	 9.837935e+00
0	 9.259259e+00	 1.777778e+00	 9.841391e+00
0	 9.259259e+00	 1.851852e+00	 9.844945e+00
0	 9.333333e+00	 1.481481e+00	 9.816852e+00
0	 9.333333e+00	 1.555556e+00	 9.820164e+00
0	 9.333333e+00	 1.629630e+00	 9.823572e+00
0	 9.333333e+00	 1.703704e+00	 9.827077e+00
0	 9.333333e+00	 1.777778e+00	 9.830683e+00
0	 9.333333e+00	 1.851852e+00	 9.834391e+00
0	 9.407407e+00	 1.481481e+00	 9.805362e+00
0	 9.407407e+00	 1.555556e+00	 9.808821e+00
0	 9.407407e+00	 1.629630e+00	 9.812380e+00
0	 9.407407e+00	 1.703704e+00	 9.816043e+00
0	 9.407407e+00	 1.777778e+00	 9.819810e+00
0	 9.407407e+00	 1.851852e+00	 9.823684e+00
0	 9.481481e+00	 1.481481e+00	 9.793640e+00
0	 9.481481e+00	 1.555556e+00	 9.797259e+00
0	 9.481481e+00	 1.629630e+00	 9.800983e+00
0	 9.481481e+00	 1.703704e+00	 9.804815e+00
0	 9.481481e+00	 1.777778e+00	 9.808757e+00
0	 9.481481e+00	 1.851852e+00	 9.812811e+00
0	 9.555556e+00	 1.481481e+00	 9.781667e+00
0	 9.555556e+00	 1.555556e+00	 9.785458e+00
0	 9.555556e+00	 1.629630e+00	 9.789361e+00
0	 9.555556e+00	 1.703704e+00	 9.793377e+00
0	 9.555556e+00	 1.777778e+00	 9.797509e+00
0	 9.555556e+00	 1.851852e+00	 9.801757e+00
0	 9.629630e+00	 1.481481e+00	 9.769423e+00
0	 9.629630e+00	 1.555556e+00	 9.773402e+00
0	 9.629630e+00	 1.629630e+00	 9.777498e+00
0	 9.629630e+00	 1.703704e+00	 9.781714e+00
0	 9.629630e+00	 1.777778e+00	 9.786050e+00
0	 9.629630e+00	 1.851852e+00	 9.790510e+00
0	 9.259259e+00	 1.851852e+00	 9.844945e+00
0	 9.259259e+00	 1.925926e+00	 9.848576e+00
0	 9.259259e+00	 2.000000e+00	 9.852265e+00
0	 9.259259e+00	 2.074074e+00	 9.856012e+00
0	 9.259259e+00	 2.148148e+00	 9.859821e+00
0	 9.259259e+00	 2.222222e+00	 9.863694e+00
0	 9.333333e+00	 1.851852e+00	 9.834391e+00
0	 9.333333e+00	 1.925926e+00	 9.838180e+00
0	 9.333333e+00	 2.000000e+00	 9.842030e+00
0	 9.333333e+00	 2.074074e+00	 9.845942e+00
0	 9.333333e+00	 2.148148e+00	 9.849919e+00
0	 9.333333e+00	 2.222222e+00	 9.853964e+00
0	 9.407407e+00	 1.851852e+00	 9.823684e+00
0	 9.407407e+00	 1.925926e+00	 9.827644e+00
0	 9.407407e+00	 2.000000e+00	 9.831667e+00
0	 9.407407e+00	 2.074074e+00	 9.835757e+00
0	 9.407407e+00	 2.148148e+00	 9.839916e+00
0	 9.407407e+00	 2.222222e+00	 9.844145e+00
0	 9.481481e+00	 1.851852e+00	 9.812811e+00
0	 9.481481e+00	 1.925926e+00	 9.816955e+00
0	 9.481481e+00	 2.000000e+00	 9.821166e+00
0	 9.481481e+00	 2.074074e+00	 9.825448e+00
0	 9.481481e+00	 2.148148e+00	 9.829801e+00
0	 9.481481e+00	 2.222222e+00	 9.834229e+00
0	 9.555556e+00	 1.851852e+00	 9.801757e+00
0	 9.555556e+00	 1.925926e+00	 9.806101e+00
0	 9.555556e+00	 2.000000e+00	 9.810515e+00
0	 9.555556e+00	 2.074074e+00	 9.815003e+00
0	 9.555556e+00	 2.148148e+00	 9.819567e+00
0	 9.555556e+00	 2.222222e+00	 9.824208e+00
0	 9.629630e+00	 1.851852e+00	 9.790510e+00
0	 9.629630e+00	 1.925926e+00	 9.795069e+00
0	 9.629630e+00	 2.000000e+00	 9.799702e+00
0	 9.629630e+00	 2.074074e+00	 9.804413e+00
0	 9.629630e+00	 2.148148e+00	 9.809203e+00
0	 9.629630e+00	 2.222222e+00	 9.814075e+00
0	 9.259259e+00	 2.222222e+00	 9.863694e+00
0	 9.259259e+00	 2.296296e+00	 9.867610e+00
0	 9.259259e+00	 2.370370e+00	 9.871549e+00
0	 9.259259e+00	 2.444444e+00	 9.875512e+00
0	 9.259259e+00	 2.518519e+00	 9.879503e+00
0	 9.259259e+00	 2.592593e+00	 9.883522e+00
0	 9.333333e+00	 2.222222e+00	 9.853964e+00
0	 9.333333e+00	 2.296296e+00	 9.858054e+00
0	 9.333333e+00	 2.370370e+00	 9.862170e+00
0	 9.333333e+00	 2.444444e+00	 9.866312e+00
0	 9.333333e+00	 2.518519e+00	 9.870483e+00
0	 9.333333e+00	 2.592593e+00	 9.874686e+00
0	 9.407407e+00	 2.222222e+00	 9.844145e+00
0	 9.407407e+00	 2.296296e+00	 9.848422e+00
0	 9.407407e+00	 2.370370e+00	 9.852727e+00
0	 9.407407e+00	 2.444444e+00	 9.857061e+00
0	 9.407407e+00	 2.518519e+00	 9.861426e+00
0	 9.407407e+00	 2.592593e+00	 9.865824e+00
0	 9.481481e+00	 2.222222e+00	 9.834229e+00
0	 9.481481e+00	 2.296296e+00	 9.838708e+00
0	 9.481481e+00	 2.370370e+00	 9.843216e+00
0	 9.481481e+00	 2.444444e+00	 9.847755e+00
0	 9.481481e+00	 2.518519e+00	 9.852327e+00
0	 9.481481e+00	 2.592593e+00	 9.856934e+00
0	 9.555556e+00	 2.222222e+00	 9.824208e+00
0	 9.555556e+00	 2.296296e+00	 9.828904e+00
0	 9.555556e+00	 2.370370e+00	 9.833630e+00
0	 9.555556e+00	 2.444444e+00	 9.838389e+00
0	 9.555556e+00	 2.518519e+00	 9.843183e+00
0	 9.555556e+00	 2.592593e+00	 9.848014e+00
0	 9.629630e+00	 2.222222e+00	 9.814075e+00
0	 9.629630e+00	 2.296296e+00	 9.819003e+00
0	 9.629630e+00	 2.370370e+00	 9.823964e+00
0	 9.629630e+00	 2.444444e+00	 9.828960e+00
0	 9.629630e+00	 2.518519e+00	 9.833992e+00
0	 9.629630e+00	 2.592593e+00	 9.839062e+00
0	 9.259259e+00	 2.592593e+00	 9.883522e+00
0	 9.259259e+00	 2.666667e+00	 9.887551e+00
0	 9.259259e+00	 2.740741e+00	 9.891570e+00
0	 9.259259e+00	 2.814815e+00	 9.895582e+00
0	 9.259259e+00	 2.888889e+00	 9.899587e+00
0	 9.259259e+00	 2.962963e+00	 9.903589e+00
0	 9.333333e+00	 2.592593e+00	 9.874686e+00
0	 9.333333e+00	 2.666667e+00	 9.878899e+00
0	 9.333333e+00	 2.740741e+00	 9.883104e+00
0	 9.333333e+00	 2.814815e+00	 9.887302e+00
0	 9.333333e+00	 2.888889e+00	 9.891495e+00
0	 9.333333e+00	 2.962963e+00	 9.895684e+00
0	 9.407407e+00	 2.592593e+00	 9.865824e+00
0	 9.407407e+00	 2.666667e+00	 9.870234e+00
0	 9.407407e+00	 2.740741e+00	 9.874637e+00
0	 9.407407e+00	 2.814815e+00	 9.879032e+00
0	 9.407407e+00	 2.888889e+00	 9.883424e+00
0	 9.407407e+00	 2.962963e+00	 9.887812e+00
0	 9.481481e+00	 2.592593e+00	 9.856934e+00
0	 9.481481e+00	 2.666667e+00	 9.861555e+00
0	 9.481481e+00	 2.740741e+00	 9.866168e+00
0	 9.481481e+00	 2.814815e+00	 9.870774e+00
0	 9.481481e+00	 2.888889e+00	 9.875377e+00
0	 9.481481e+00	 2.962963e+00	 9.879977e+00
0	 9.555556e+00	 2.592593e+00	 9.848014e+00
0	 9.555556e+00	 2.666667e+00	 9.852860e+00
0	 9.555556e+00	 2.740741e+00	 9.857697e+00
0	 9.555556e+00	 2.814815e+00	 9.862529e+00
0	 9.555556e+00	 2.888889e+00	 9.867357e+00
0	 9.555556e+00	 2.962963e+00	 9.872182e+00
0	 9.629630e+00	 2.592593e+00	 9.839062e+00
0	 9.629630e+00	 2.666667e+00	 9.844148e+00
0	 9.629630e+00	 2.740741e+00	 9.849226e+00
0	 9.629630e+00	 2.814815e+00	 9.854297e+00
0	 9.629630e+00	 2.888889e+00	 9.859365e+00
0	 9.629630e+00	 2.962963e+00	 9.864429e+00
0	 9.259259e+00	 2.962963e+00	 9.903589e+00
0	 9.259259e+00	 3.037037e+00	 9.907569e+00
0	 9.259259e+00	 3.111111e+00	 9.911510e+00
0	 9.259259e+00	 3.185185e+00	 9.915415e+00
0	 9.259259e+00	 3.259259e+00	 9.919284e+00
0	 9.259259e+00	 3.333333e+00	 9.923119e+00
0	 9.333333e+00	 2.962963e+00	 9.895684e+00
0	 9.333333e+00	 3.037037e+00	 9.899852e+00
0	 9.333333e+00	 3.111111e+00	 9.903981e+00
0	 9.333333e+00	 3.185185e+00	 9.908073e+00
0	 9.333333e+00	 3.259259e+00	 9.912129e+00
0	 9.333333e+00	 3.333333e+00	 9.916151e+00
0	 9.407407e+00	 2.962963e+00	 9.887812e+00
0	 9.407407e+00	 3.037037e+00	 9.892180e+00
0	 9.407407e+00	 3.111111e+00	 9.896508e+00
0	 9.407407e+00	 3.185185e+00	 9.900797e+00
0	 9.407407e+00	 3.259259e+00	 9.905050e+00
0	 9.407407e+00	 3.333333e+00	 9.909268e+00
0	 9.481481e+00	 2.962963e+00	 9.879977e+00
0	 9.481481e+00	 3.037037e+00	 9.884556e+00
0	 9.481481e+00	 3.111111e+00	 9.889094e+00
0	 9.481481e+00	 3.185185e+00	 9.893592e+00
0	 9.481481e+00	 3.259259e+00	 9.898053e+00
0	 9.481481e+00	 3.333333e+00	 9.902478e+00
0	 9.555556e+00	 2.962963e+00	 9.872182e+00
0	 9.555556e+00	 3.037037e+00	 9.876985e+00
0	 9.555556e+00	 3.111111e+00	 9.881745e+00
0	 9.555556e+00	 3.185185e+00	 9.886465e+00
0	 9.555556e+00	 3.259259e+00	 9.891146e+00
0	 9.555556e+00	 3.333333e+00	 9.895788e+00
0	 9.629630e+00	 2.962963e+00	 9.864429e+00
0	 9.629630e+00	 3.037037e+00	 9.869471e+00
0	 9.629630e+00	 3.111111e+00	 9.874467e+00
0	 9.629630e+00	 3.185185e+00	 9.879421e+00
0	 9.629630e+00	 3.259259e+00	 9.884334e+00
0	 9.629630e+00	 3.333333e+00	 9.889207e+00
0	 9.259259e+00	 3.333333e+00	 9.923119e+00
0	 9.259259e+00	 3.407407e+00	 9.926906e+00
0	 9.259259e+00	 3.481481e+00	 9.930630e+00
0	 9.259259e+00	 3.555556e+00	 9.934294e+00
0	 9.259259e+00	 3.629630e+00	 9.937897e+00
0	 9.259259e+00	 3.703704e+00	 9.941442e+00
0	 9.333333e+00	 3.333333e+00	 9.916151e+00
0	 9.333333e+00	 3.407407e+00	 9.920124e+00
0	 9.333333e+00	 3.481481e+00	 9.924033e+00
0	 9.333333e+00	 3.555556e+00	 9.927878e+00
0	 9.333333e+00	 3.629630e+00	 9.931663e+00
0	 9.333333e+00	 3.703704e+00	 9.935387e+00
0	 9.407407e+00	 3.333333e+00	 9.909268e+00
0	 9.407407e+00	 3.407407e+00	 9.913436e+00
0	 9.407407e+00	 3.481481e+00	 9.917537e+00
0	 9.407407e+00	 3.555556e+00	 9.921574e+00
0	 9.407407e+00	 3.629630e+00	 9.925548e+00
0	 9.407407e+00	 3.703704e+00	 9.929459e+00
0	 9.481481e+00	 3.333333e+00	 9.902478e+00
0	 9.481481e+00	 3.407407e+00	 9.906851e+00
0	 9.481481e+00	 3.481481e+00	 9.911155e+00
0	 9.481481e+00	 3.555556e+00	 9.915392e+00
0	 9.481481e+00	 3.629630e+00	 9.919563e+00
0	 9.481481e+00	 3.703704e+00	 9.923669e+00
0	 9.555556e+00	 3.333333e+00	 9.895788e+00
0	 9.555556e+00	 3.407407e+00	 9.900377e+00
0	 9.555556e+00	 3.481481e+00	 9.904894e+00
0	 9.555556e+00	 3.555556e+00	 9.909341e+00
0	 9.555556e+00	 3.629630e+00	 9.913719e+00
0	 9.555556e+00	 3.703704e+00	 9.918030e+00
0	 9.629630e+00	 3.333333e+00	 9.889207e+00
0	 9.629630e+00	 3.407407e+00	 9.894023e+00
0	 9.629630e+00	 3.481481e+00	 9.898765e+00
0	 9.629630e+00	 3.555556e+00	 9.903432e+00
0	 9.629630e+00	 3.629630e+00	 9.908028e+00
0	 9.629630e+00	 3.703704e+00	 9.912552e+00
0	 9.259259e+00	 3.703704e+00	 9.941442e+00
0	 9.259259e+00	 3.777778e+00	 9.944916e+00
0	 9.259259e+00	 3.851852e+00	 9.948311e+00
0	 9.259259e+00	 3.925926e+00	 9.951625e+00
0	 9.259259e+00	 4.000000e+00	 9.954861e+00
0	 9.259259e+00	 4.074074e+00	 9.958019e+00
0	 9.333333e+00	 3.703704e+00	 9.935387e+00
0	 9.333333e+00	 3.777778e+00	 9.939039e+00
0	 9.333333e+00	 3.851852e+00	 9.942609e+00
0	 9.333333e+00	 3.925926e+00	 9.946096e+00
0	 9.333333e+00	 4.000000e+00	 9.949501e+00
0	 9.333333e+00	 4.074074e+00	 9.952827e+00
0	 9.407407e+00	 3.703704e+00	 9.929459e+00
0	 9.407407e+00	 3.777778e+00	 9.933296e+00
0	 9.407407e+00	 3.851852e+00	 9.937047e+00
0	 9.407407e+00	 3.925926e+00	 9.940713e+00
0	 9.407407e+00	 4.000000e+00	 9.944294e+00
0	 9.407407e+00	 4.074074e+00	 9.947792e+00
0	 9.481481e+00	 3.703704e+00	 9.923669e+00
0	 9.481481e+00	 3.777778e+00	 9.927699e+00
0	 9.481481e+00	 3.851852e+00	 9.931639e+00
0	 9.481481e+00	 3.925926e+00	 9.935490e+00
0	 9.481481e+00	 4.000000e+00	 9.939254e+00
0	 9.481481e+00	 4.074074e+00	 9.942931e+00
0	 9.555556e+00	 3.703704e+00	 9.918030e+00
0	 9.555556e+00	 3.777778e+00	 9.922260e+00
0	 9.555556e+00	 3.851852e+00	 9.926397e+00
0	 9.555556e+00	 3.925926e+00	 9.930441e+00
0	 9.555556e+00	 4.000000e+00	 9.934394e+00
0	 9.555556e+00	 4.074074e+00	 9.938256e+00
0	 9.629630e+00	 3.703704e+00	 9.912552e+00
0	 9.629630e+00	 3.777778e+00	 9.916993e+00
0	 9.629630e+00	 3.851852e+00	 9.921335e+00
0	 9.629630e+00	 3.925926e+00	 9.925580e+00
0	 9.629630e+00	 4.000000e+00	 9.929729e+00
0	 9.629630e+00	 4.074074e+00	 9.933782e+00
0	 9.259259e+00	 4.074074e+00	 9.958019e+00
0	 9.259259e+00	 4.148148e+00	 9.961091e+00
0	 9.259259e+00	 4.222222e+00	 9.964071e+00
0	 9.259259e+00	 4.296296e+00	 9.966958e+00
0	 9.259259e+00	 4.370370e+00	 9.969754e+00
0	 9.259259e+00	 4.444444e+00	 9.972459e+00
0	 9.333333e+00	 4.074074e+00	 9.952827e+00
0	 9.333333e+00	 4.148148e+00	 9.956064e+00
0	 9.333333e+00	 4.222222e+00	 9.959205e+00
0	 9.333333e+00	 4.296296e+00	 9.962251e+00
0	 9.333333e+00	 4.370370e+00	 9.965202e+00
0	 9.333333e+00	 4.444444e+00	 9.968059e+00
0	 9.407407e+00	 4.074074e+00	 9.947792e+00
0	 9.407407e+00	 4.148148e+00	 9.951199e+00
0	 9.407407e+00	 4.222222e+00	 9.954506e+00
0	 9.407407e+00	 4.296296e+00	 9.957715e+00
0	 9.407407e+00	 4.370370e+00	 9.960824e+00
0	 9.407407e+00	 4.444444e+00	 9.963836e+00
0	 9.481481e+00	 4.074074e+00	 9.942931e+00
0	 9.481481e+00	 4.148148e+00	 9.946512e+00
0	 9.481481e+00	 4.222222e+00	 9.949990e+00
0	 9.481481e+00	 4.296296e+00	 9.953365e+00
0	 9.481481e+00	 4.370370e+00	 9.956637e+00
0	 9.481481e+00	 4.444444e+00	 9.959807e+00
0	 9.555556e+00	 4.074074e+00	 9.938256e+00
0	 9.555556e+00	 4.148148e+00	 9.942018e+00
0	 9.555556e+00	 4.222222e+00	 9.945672e+00
0	 9.555556e+00	 4.296296e+00	 9.949218e+00
0	 9.555556e+00	 4.370370e+00	 9.952657e+00
0	 9.555556e+00	 4.444444e+00	 9.955988e+00
0	 9.629630e+00	 4.074074e+00	 9.933782e+00
0	 9.629630e+00	 4.148148e+00	 9.937731e+00
0	 9.629630e+00	 4.222222e+00	 9.941566e+00
0	 9.629630e+00	 4.296296e+00	 9.945289e+00
0	 9.629630e+00	 4.370370e+00	 9.948898e+00
0	 9.629630e+00	 4.444444e+00	 9.952395e+00
0	 9.259259e+00	 4.444444e+00	 9.972459e+00
0	 9.259259e+00	 4.518519e+00	 9.975069e+00
0	 9.259259e+00	 4.592593e+00	 9.977580e+00
0	 9.259259e+00	 4.666667e+00	 9.979993e+00
0	 9.259259e+00	 4.740741e+00	 9.982308e+00
0	 9.259259e+00	 4.814815e+00	 9.984524e+00
0	 9.333333e+00	 4.444444e+00	 9.968059e+00
0	 9.333333e+00	 4.518519e+00	 9.970817e+00
0	 9.333333e+00	 4.592593e+00	 9.973473e+00
0	 9.333333e+00	 4.666667e+00	 9.976027e+00
0	 9.333333e+00	 4.740741e+00	 9.978479e+00
0	 9.333333e+00	 4.814815e+00	 9.980829e+00
0	 9.407407e+00	 4.444444e+00	 9.963836e+00
0	 9.407407e+00	 4.518519e+00	 9.966746e+00
0	 9.407407e+00	 4.592593e+00	 9.969549e+00
0	 9.407407e+00	 4.666667e+00	 9.972246e+00
0	 9.407407e+00	 4.740741e+00	 9.974836e+00
0	 9.407407e+00	 4.814815e+00	 9.977321e+00
0	 9.481481e+00	 4.444444e+00	 9.959807e+00
0	 9.481481e+00	 4.518519e+00	 9.962871e+00
0	 9.481481e+00	 4.592593e+00	 9.965823e+00
0	 9.481481e+00	 4.666667e+00	 9.968665e+00
0	 9.481481e+00	 4.740741e+00	 9.971396e+00
0	 9.481481e+00	 4.814815e+00	 9.974016e+00
0	 9.555556e+00	 4.444444e+00	 9.955988e+00
0	 9.555556e+00	 4.518519e+00	 9.959209e+00
0	 9.555556e+00	 4.592593e+00	 9.962313e+00
0	 9.555556e+00	 4.666667e+00	 9.965302e+00
0	 9.555556e+00	 4.740741e+00	 9.968174e+00
0	 9.555556e+00	 4.814815e+00	 9.970931e+00
0	 9.629630e+00	 4.444444e+00	 9.952395e+00
0	 9.629630e+00	 4.518519e+00	 9.955776e+00
0	 9.629630e+00	 4.592593e+00	 9.959035e+00
0	 9.629630e+00	 4.666667e+00	 9.962172e+00
0	 9.629630e+00	 4.740741e+00	 9.965188e+00
0	 9.629630e+00	 4.814815e+00	 9.968082e+00
0	 9.259259e+00	 4.814815e+00	 9.984524e+00
0	 9.259259e+00	 4.888889e+00	 9.986641e+00
0	 9.259259e+00	 4.962963e+00	 9.988660e+00
0	 9.259259e+00	 5.037037e+00	 9.990580e+00
0	 9.259259e+00	 5.111111e+00	 9.992400e+00
0	 9.259259e+00	 5.185185e+00	 9.994120e+00
0	 9.333333e+00	 4.814815e+00	 9.980829e+00
0	 9.333333e+00	 4.888889e+00	 9.983077e+00
0	 9.333333e+00	 4.962963e+00	 9.985222e+00
0	 9.333333e+00	 5.037037e+00	 9.987264e+00
0	 9.333333e+00	 5.111111e+00	 9.989202e+00
0	 9.333333e+00	 5.185185e+00	 9.991037e+00
0	 9.407407e+00	 4.814815e+00	 9.977321e+00
0	 9.407407e+00	 4.888889e+00	 9.979699e+00
0	 9.407407e+00	 4.962963e+00	 9.981971e+00
0	 9.407407e+00	 5.037037e+00	 9.984134e+00
0	 9.407407e+00	 5.111111e+00	 9.986191e+00
0	 9.407407e+00	 5.185185e+00	 9.988139e+00
0	 9.481481e+00	 4.814815e+00	 9.974016e+00
0	 9.481481e+00	 4.888889e+00	 9.976526e+00
0	 9.481481e+00	 4.962963e+00	 9.978923e+00
0	 9.481481e+00	 5.037037e+00	 9.981208e+00
0	 9.481481e+00	 5.111111e+00	 9.983381e+00
0	 9.481481e+00	 5.185185e+00	 9.985442e+00
0	 9.555556e+00	 4.814815e+00	 9.970931e+00
0	 9.555556e+00	 4.888889e+00	 9.973572e+00
0	 9.555556e+00	 4.962963e+00	 9.976096e+00
0	 9.555556e+00	 5.037037e+00	 9.978502e+00
0	 9.555556e+00	 5.111111e+00	 9.980791e+00
0	 9.555556e+00	 5.185185e+00	 9.982963e+00
0	 9.629630e+00	 4.814815e+00	 9.968082e+00
0	 9.629630e+00	 4.888889e+00	 9.970855e+00
0	 9.629630e+00	 4.962963e+00	 9.973505e+00
0	 9.629630e+00	 5.037037e+00	 9.976032e+00
0	 9.629630e+00	 5.111111e+00	 9.978436e+00
0	 9.629630e+00	 5.185185e+00	 9.980717e+00
0	 9.259259e+00	 5.185185e+00	 9.994120e+00
0	 9.259259e+00	 5.259259e+00	 9.995743e+00
0	 9.259259e+00	 5.333333e+00	 9.997272e+00
0	 9.259259e+00	 5.407407e+00	 9.998706e+00
0	 9.259259e+00	 5.481481e+00	 1.000004e+01
0	 9.259259e+00	 5.555556e+00	 1.000129e+01
0	 9.333333e+00	 5.185185e+00	 9.991037e+00
0	 9.333333e+00	 5.259259e+00	 9.992771e+00
0	 9.333333e+00	 5.333333e+00	 9.994407e+00
0	 9.333333e+00	 5.407407e+00	 9.995944e+00
0	 9.333333e+00	 5.481481e+00	 9.997382e+00
0	 9.333333e+00	 5.555556e+00	 9.998720e+00
0	 9.407407e+00	 5.185185e+00	 9.988139e+00
0	 9.407407e+00	 5.259259e+00	 9.989982e+00
0	 9.407407e+00	 5.333333e+00	 9.991724e+00
0	 9.407407e+00	 5.407407e+00	 9.993362e+00
0	 9.407407e+00	 5.481481e+00	 9.994896e+00
0	 9.407407e+00	 5.555556e+00	 9.996327e+00
0	 9.481481e+00	 5.185185e+00	 9.985442e+00
0	 9.481481e+00	 5.259259e+00	 9.987393e+00
0	 9.481481e+00	 5.333333e+00	 9.989238e+00
0	 9.481481e+00	 5.407407e+00	 9.990974e+00
0	 9.481481e+00	 5.481481e+00	 9.992603e+00
0	 9.481481e+00	 5.555556e+00	 9.994124e+00
0	 9.555556e+00	 5.185185e+00	 9.982963e+00
0	 9.555556e+00	 5.259259e+00	 9.985020e+00
0	 9.555556e+00	 5.333333e+00	 9.986965e+00
0	 9.555556e+00	 5.407407e+00	 9.988798e+00
0	 9.555556e+00	 5.481481e+00	 9.990517e+00
0	 9.555556e+00	 5.555556e+00	 9.992124e+00
0	 9.629630e+00	 5.185185e+00	 9.980717e+00
0	 9.629630e+00	 5.259259e+00	 9.982877e+00
0	 9.629630e+00	 5.333333e+00	 9.984921e+00
0	 9.629630e+00	 5.407407e+00	 9.986847e+00
0	 9.629630e+00	 5.481481e+00	 9.988654e+00
0	 9.629630e+00	 5.555556e+00	 9.990344e+00
0	 9.259259e+00	 5.555556e+00	 1.000129e+01
0	 9.259259e+00	 5.629630e+00	 1.000244e+01
0	 9.259259e+00	 5.703704e+00	 1.000351e+01
0	 9.259259e+00	 5.777778e+00	 1.000449e+01
0	 9.259259e+00	 5.851852e+00	 1.000538e+01
0	 9.259259e+00	 5.925926e+00	 1.000618e+01
0	 9.333333e+00	 5.555556e+00	 9.998720e+00
0	 9.333333e+00	 5.629630e+00	 9.999964e+00
0	 9.333333e+00	 5.703704e+00	 1.000112e+01
0	 9.333333e+00	 5.777778e+00	 1.000218e+01
0	 9.333333e+00	 5.851852e+00	 1.000316e+01
0	 9.333333e+00	 5.925926e+00	 1.000404e+01
0	 9.407407e+00	 5.555556e+00	 9.996327e+00
0	 9.407407e+00	 5.629630e+00	 9.997660e+00
0	 9.407407e+00	 5.703704e+00	 9.998899e+00
0	 9.407407e+00	 5.777778e+00	 1.000004e+01
0	 9.407407e+00	 5.851852e+00	 1.000110e+01
0	 9.407407e+00	 5.925926e+00	 1.000205e+01
0	 9.481481e+00	 5.555556e+00	 9.994124e+00
0	 9.481481e+00	 5.629630e+00	 9.995542e+00
0	 9.481481e+00	 5.703704e+00	 9.996862e+00
0	 9.481481e+00	 5.777778e+00	 9.998085e+00
0	 9.481481e+00	 5.851852e+00	 9.999209e+00
0	 9.481481e+00	 5.925926e+00	 1.000023e+01
0	 9.555556e+00	 5.555556e+00	 9.992124e+00
0	 9.555556e+00	 5.629630e+00	 9.993624e+00
0	 9.555556e+00	 5.703704e+00	 9.995021e+00
0	 9.555556e+00	 5.777778e+00	 9.996317e+00
0	 9.555556e+00	 5.851852e+00	 9.997509e+00
0	 9.555556e+00	 5.925926e+00	 9.998598e+00
0	 9.629630e+00	 5.555556e+00	 9.990344e+00
0	 9.629630e+00	 5.629630e+00	 9.991920e+00
0	 9.629630e+00	 5.703704e+00	 9.993391e+00
0	 9.629630e+00	 5.777778e+00	 9.994754e+00
0	 9.629630e+00	 5.851852e+00	 9.996010e+00
0	 9.629630e+00	 5.925926e+00	 9.997157e+00
0	 9.259259e+00	 5.925926e+00	 1.000618e+01
0	 9.259259e+00	 6.000000e+00	 1.000691e+01
0	 9.259259e+00	 6.074074e+00	 1.000756e+01
0	 9.259259e+00	 6.148148e+00	 1.000813e+01
0	 9.259259e+00	 6.222222e+00	 1.000863e+01
0	 9.259259e+00	 6.296296e+00	 1.000905e+01
0	 9.333333e+00	 5.925926e+00	 1.000404e+01
0	 9.333333e+00	 6.000000e+00	 1.000484e+01
0	 9.333333e+00	 6.074074e+00	 1.000556e+01
0	 9.333333e+00	 6.148148e+00	 1.000620e+01
0	 9.333333e+00	 6.222222e+00	 1.000677e+01
0	 9.333333e+00	 6.296296e+00	 1.000725e+01
0	 9.407407e+00	 5.925926e+00	 1.000205e+01
0	 9.407407e+00	 6.000000e+00	 1.000292e+01
0	 9.407407e+00	 6.074074e+00	 1.000371e+01
0	 9.407407e+00	 6.148148e+00	 1.000442e+01
0	 9.407407e+00	 6.222222e+00	 1.000504e+01
0	 9.407407e+00	 6.296296e+00	 1.000558e+01
0	 9.481481e+00	 5.925926e+00	 1.000023e+01
0	 9.481481e+00	 6.000000e+00	 1.000117e+01
0	 9.481481e+00	 6.074074e+00	 1.000202e+01
0	 9.481481e+00	 6.148148e+00	 1.000278e+01
0	 9.481481e+00	 6.222222e+00	 1.000346e+01
0	 9.481481e+00	 6.296296e+00	 1.000406e+01
0	 9.555556e+00	 5.925926e+00	 9.998598e+00
0	 9.555556e+00	 6.000000e+00	 9.999592e+00
0	 9.555556e+00	 6.074074e+00	 1.000050e+01
0	 9.555556e+00	 6.148148e+00	 1.000132e+01
0	 9.555556e+00	 6.222222e+00	 1.000204e+01
0	 9.555556e+00	 6.296296e+00	 1.000268e+01
0	 9.629630e+00	 5.925926e+00	 9.997157e+00
0	 9.629630e+00	 6.000000e+00	 9.998205e+00
0	 9.629630e+00	 6.074074e+00	 9.999161e+00
0	 9.629630e+00	 6.148148e+00	 1.000002e+01
0	 9.629630e+00	 6.222222e+00	 1.000080e+01
0	 9.629630e+00	 6.296296e+00	 1.000147e+01
0	 9.259259e+00	 6.296296e+00	 1.000905e+01
0	 9.259259e+00	 6.370370e+00	 1.000941e+01
0	 9.259259e+00	 6.444444e+00	 1.000970e+01
0	 9.259259e+00	 6.518519e+00	 1.000994e+01
0	 9.259259e+00	 6.592593e+00	 1.001011e+01
0	 9.259259e+00	 6.666667e+00	 1.001022e+01
0	 9.333333e+00	 6.296296e+00	 1.000725e+01
0	 9.333333e+00	 6.370370e+00	 1.000767e+01
0	 9.333333e+00	 6.444444e+00	 1.000802e+01
0	 9.333333e+00	 6.518519e+00	 1.000831e+01
0	 9.333333e+00	 6.592593e+00	 1.000853e+01
0	 9.333333e+00	 6.666667e+00	 1.000869e+01
0	 9.407407e+00	 6.296296e+00	 1.000558e+01
0	 9.407407e+00	 6.370370e+00	 1.000605e+01
0	 9.407407e+00	 6.444444e+00	 1.000645e+01
0	 9.407407e+00	 6.518519e+00	 1.000679e+01
0	 9.407407e+00	 6.592593e+00	 1.000706e+01
0	 9.407407e+00	 6.666667e+00	 1.000727e+01
0	 9.481481e+00	 6.296296e+00	 1.000406e+01
0	 9.481481e+00	 6.370370e+00	 1.000457e+01
0	 9.481481e+00	 6.444444e+00	 1.000502e+01
0	 9.481481e+00	 6.518519e+00	 1.000540e+01
0	 9.481481e+00	 6.592593e+00	 1.000572e+01
0	 9.481481e+00	 6.666667e+00	 1.000596e+01
0	 9.555556e+00	 6.296296e+00	 1.000268e+01
0	 9.555556e+00	 6.370370e+00	 1.000324e+01
0	 9.555556e+00	 6.444444e+00	 1.000373e+01
0	 9.555556e+00	 6.518519e+00	 1.000415e+01
0	 9.555556e+00	 6.592593e+00	 1.000449e+01
0	 9.555556e+00	 6.666667e+00	 1.000477e+01
0	 9.629630e+00	 6.296296e+00	 1.000147e+01
0	 9.629630e+00	 6.370370e+00	 1.000207e+01
0	 9.629630e+00	 6.444444e+00	 1.000259e+01
0	 9.629630e+00	 6.518519e+00	 1.000304e+01
0	 9.629630e+00	 6.592593e+00	 1.000341e+01
0	 9.629630e+00	 6.666667e+00	 1.000370e+01
0	 9.259259e+00	 6.666667e+00	 1.001022e+01
0	 9.259259e+00	 6.740741e+00	 1.001028e+01
0	 9.259259e+00	 6.814815e+00	 1.001029e+01
0	 9.259259e+00	 6.888889e+00	 1.001026e+01
0	 9.259259e+00	 6.962963e+00	 1.001017e+01
0	 9.259259e+00	 7.037037e+00	 1.001005e+01
0	 9.333333e+00	 6.666667e+00	 1.000869e+01
0	 9.333333e+00	 6.740741e+00	 1.000880e+01
0	 9.333333e+00	 6.814815e+00	 1.000885e+01
0	 9.333333e+00	 6.888889e+00	 1.000886e+01
0	 9.333333e+00	 6.962963e+00	 1.000883e+01
0	 9.333333e+00	 7.037037e+00	 1.000874e+01
0	 9.407407e+00	 6.666667e+00	 1.000727e+01
0	 9.407407e+00	 6.740741e+00	 1.000741e+01
0	 9.407407e+00	 6.814815e+00	 1.000751e+01
0	 9.407407e+00	 6.888889e+00	 1.000756e+01
0	 9.407407e+00	 6.962963e+00	 1.000756e+01
0	 9.407407e+00	 7.037037e+00	 1.000751e+01
0	 9.481481e+00	 6.666667e+00	 1.000596e+01
0	 9.481481e+00	 6.740741e+00	 1.000614e+01
0	 9.481481e+00	 6.814815e+00	 1.000627e+01
0	 9.481481e+00	 6.888889e+00	 1.000635e+01
0	 9.481481e+00	 6.962963e+00	 1.000638e+01
0	 9.481481e+00	 7.037037e+00	 1.000636e+01
0	 9.555556e+00	 6.666667e+00	 1.000477e+01
0	 9.555556e+00	 6.740741e+00	 1.000498e+01
0	 9.555556e+00	 6.814815e+00	 1.000514e+01
0	 9.555556e+00	 6.888889e+00	 1.000524e+01
0	 9.555556e+00	 6.962963e+00	 1.000530e+01
0	 9.555556e+00	 7.037037e+00	 1.000529e+01
0	 9.629630e+00	 6.666667e+00	 1.000370e+01
0	 9.629630e+00	 6.740741e+00	 1.000393e+01
0	 9.629630e+00	 6.814815e+00	 1.000411e+01
0	 9.629630e+00	 6.888889e+00	 1.000424e+01
0	 9.629630e+00	 6.962963e+00	 1.000431e+01
0	 9.629630e+00	 7.037037e+00	 1.000432e+01
0	 9.259259e+00	 7.037037e+00	 1.001005e+01
0	 9.259259e+00	 7.111111e+00	 1.000988e+01
0	 9.259259e+00	 7.185185e+00	 1.000969e+01
0	 9.259259e+00	 7.259259e+00	 1.000946e+01
0	 9.259259e+00	 7.333333e+00	 1.000921e+01
0	 9.259259e+00	 7.407407e+00	 1.000892e+01
0	 9.333333e+00	 7.037037e+00	 1.000874e+01
0	 9.333333e+00	 7.111111e+00	 1.000861e+01
0	 9.333333e+00	 7.185185e+00	 1.000846e+01
0	 9.333333e+00	 7.259259e+00	 1.000827e+01
0	 9.333333e+00	 7.333333e+00	 1.000805e+01
0	 9.333333e+00	 7.407407e+00	 1.000780e+01
0	 9.407407e+00	 7.037037e+00	 1.000751e+01
0	 9.407407e+00	 7.111111e+00	 1.000742e+01
0	 9.407407e+00	 7.185185e+00	 1.000729e+01
0	 9.407407e+00	 7.259259e+00	 1.000714e+01
0	 9.407407e+00	 7.333333e+00	 1.000695e+01
0	 9.407407e+00	 7.407407e+00	 1.000673e+01
0	 9.481481e+00	 7.037037e+00	 1.000636e+01
0	 9.481481e+00	 7.111111e+00	 1.000629e+01
0	 9.481481e+00	 7.185185e+00	 1.000620e+01
0	 9.481481e+00	 7.259259e+00	 1.000607e+01
0	 9.481481e+00	 7.333333e+00	 1.000591e+01
0	 9.481481e+00	 7.407407e+00	 1.000571e+01
0	 9.555556e+00	 7.037037e+00	 1.000529e+01
0	 9.555556e+00	 7.111111e+00	 1.000525e+01
0	 9.555556e+00	 7.185185e+00	 1.000517e+01
0	 9.555556e+00	 7.259259e+00	 1.000506e+01
0	 9.555556e+00	 7.333333e+00	 1.000492e+01
0	 9.555556e+00	 7.407407e+00	 1.000474e+01
0	 9.629630e+00	 7.037037e+00	 1.000432e+01
0	 9.629630e+00	 7.111111e+00	 1.000429e+01
0	 9.629630e+00	 7.185185e+00	 1.000422e+01
0	 9.629630e+00	 7.259259e+00	 1.000412e+01
0	 9.629630e+00	 7.333333e+00	 1.000399e+01
0	 9.629630e+00	 7.407407e+00	 1.000382e+01
0	 9.259259e+00	 7.407407e+00	 1.000892e+01
0	 9.259259e+00	 7.481481e+00	 1.000861e+01
0	 9.259259e+00	 7.555556e+00	 1.000828e+01
0	 9.259259e+00	 7.629630e+00	 1.000794e+01
0	 9.259259e+00	 7.703704e+00	 1.000759e+01
0	 9.259259e+00	 7.777778e+00	 1.000721e+01
0	 9.333333e+00	 7.407407e+00	 1.000780e+01
0	 9.333333e+00	 7.481481e+00	 1.000752e+01
0	 9.333333e+00	 7.555556e+00	 1.000723e+01
0	 9.333333e+00	 7.629630e+00	 1.000693e+01
0	 9.333333e+00	 7.703704e+00	 1.000661e+01
0	 9.333333e+00	 7.777778e+00	 1.000627e+01
0	 9.407407e+00	 7.407407e+00	 1.000673e+01
0	 9.407407e+00	 7.481481e+00	 1.000648e+01
0	 9.407407e+00	 7.555556e+00	 1.000622e+01
0	 9.407407e+00	 7.629630e+00	 1.000595e+01
0	 9.407407e+00	 7.703704e+00	 1.000565e+01
0	 9.407407e+00	 7.777778e+00	 1.000535e+01
0	 9.481481e+00	 7.407407e+00	 1.000571e+01
0	 9.481481e+00	 7.481481e+00	 1.000549e+01
0	 9.481481e+00	 7.555556e+00	 1.000525e+01
0	 9.481481e+00	 7.629630e+00	 1.000500e+01
0	 9.481481e+00	 7.703704e+00	 1.000473e+01
0	 9.481481e+00	 7.777778e+00	 1.000445e+01
0	 9.555556e+00	 7.407407e+00	 1.000474e+01
0	 9.555556e+00	 7.481481e+00	 1.000453e+01
0	 9.555556e+00	 7.555556e+00	 1.000431e+01
0	 9.555556e+00	 7.629630e+00	 1.000408e+01
0	 9.555556e+00	 7.703704e+00	 1.000383e+01
0	 9.555556e+00	 7.777778e+00	 1.000356e+01
0	 9.629630e+00	 7.407407e+00	 1.000382e+01
0	 9.629630e+00	 7.481481e+00	 1.000362e+01
0	 9.629630e+00	 7.555556e+00	 1.000342e+01
0	 9.629630e+00	 7.629630e+00	 1.000319e+01
0	 9.629630e+00	 7.703704e+00	 1.000295e+01
0	 9.629630e+00	 7.777778e+00	 1.000270e+01
0	 9.259259e+00	 7.777778e+00	 1.000721e+01
0	 9.259259e+00	 7.851852e+00	 1.000683e+01
0	 9.259259e+00	 7.925926e+00	 1.000645e+01
0	 9.259259e+00	 8.000000e+00	 1.000606e+01
0	 9.259259e+00	 8.074074e+00	 1.000567e+01
0	 9.259259e+00	 8.148148e+00	 1.000528e+01
0	 9.333333e+00	 7.777778e+00	 1.000627e+01
0	 9.333333e+00	 7.851852e+00	 1.000592e+01
0	 9.333333e+00	 7.925926e+00	 1.000557e+01
0	 9.333333e+00	 8.000000e+00	 1.000522e+01
0	 9.333333e+00	 8.074074e+00	 1.000487e+01
0	 9.333333e+00	 8.148148e+00	 1.000451e+01
0	 9.407407e+00	 7.777778e+00	 1.000535e+01
0	 9.407407e+00	 7.851852e+00	 1.000503e+01
0	 9.407407e+00	 7.925926e+00	 1.000471e+01
0	 9.407407e+00	 8.000000e+00	 1.000439e+01
0	 9.407407e+00	 8.074074e+00	 1.000407e+01
0	 9.407407e+00	 8.148148e+00	 1.000374e+01
0	 9.481481e+00	 7.777778e+00	 1.000445e+01
0	 9.481481e+00	 7.851852e+00	 1.000415e+01
0	 9.481481e+00	 7.925926e+00	 1.000386e+01
0	 9.481481e+00	 8.000000e+00	 1.000356e+01
0	 9.481481e+00	 8.074074e+00	 1.000327e+01
0	 9.481481e+00	 8.148148e+00	 1.000297e+01
0	 9.555556e+00	 7.777778e+00	 1.000356e+01
0	 9.555556e+00	 7.851852e+00	 1.000329e+01
0	 9.555556e+00	 7.925926e+00	 1.000302e+01
0	 9.555556e+00	 8.000000e+00	 1.000274e+01
0	 9.555556e+00	 8.074074e+00	 1.000247e+01
0	 9.555556e+00	 8.148148e+00	 1.000220e+01
0	 9.629630e+00	 7.777778e+00	 1.000270e+01
0	 9.629630e+00	 7.851852e+00	 1.000244e+01
0	 9.629630e+00	 7.925926e+00	 1.000218e+01
0	 9.629630e+00	 8.000000e+00	 1.000192e+01
0	 9.629630e+00	 8.074074e+00	 1.000167e+01
0	 9.629630e+00	 8.148148e+00	 1.000141e+01
0	 9.259259e+00	 8.148148e+00	 1.000528e+01
0	 9.259259e+00	 8.222222e+00	 1.000489e+01
0	 9.259259e+00	 8.296296e+00	 1.000451e+01
0	 9.259259e+00	 8.370370e+00	 1.000414e+01
0	 9.259259e+00	 8.444444e+00	 1.000378e+01
0	 9.259259e+00	 8.518519e+00	 1.000342e+01
0	 9.333333e+00	 8.148148e+00	 1.000451e+01
0	 9.333333e+00	 8.222222e+00	 1.000416e+01
0	 9.333333e+00	 8.296296e+00	 1.000381e+01
0	 9.333333e+00	 8.370370e+00	 1.000348e+01
0	 9.333333e+00	 8.444444e+00	 1.000315e+01
0	 9.333333e+00	 8.518519e+00	 1.000283e+01
0	 9.407407e+00	 8.148148e+00	 1.000374e+01
0	 9.407407e+00	 8.222222e+00	 1.000342e+01
0	 9.407407e+00	 8.296296e+00	 1.000311e+01
0	 9.407407e+00	 8.370370e+00	 1.000281e+01
0	 9.407407e+00	 8.444444e+00	 1.000252e+01
0	 9.407407e+00	 8.518519e+00	 1.000223e+01
0	 9.481481e+00	 8.148148e+00	 1.000297e+01
0	 9.481481e+00	 8.222222e+00	 1.000268e+01
0	 9.481481e+00	 8.296296e+00	 1.000240e+01
0	 9.481481e+00	 8.370370e+00	 1.000213e+01
0	 9.481481e+00	 8.444444e+00	 1.000187e+01
0	 9.481481e+00	 8.518519e+00	 1.000162e+01
0	 9.555556e+00	 8.148148e+00	 1.000220e+01
0	 9.555556e+00	 8.222222e+00	 1.000193e+01
0	 9.555556e+00	 8.296296e+00	 1.000168e+01
0	 9.555556e+00	 8.370370e+00	 1.000143e+01
0	 9.555556e+00	 8.444444e+00	 1.000120e+01
0	 9.555556e+00	 8.518519e+00	 1.000098e+01
0	 9.629630e+00	 8.148148e+00	 1.000141e+01
0	 9.629630e+00	 8.222222e+00	 1.000116e+01
0	 9.629630e+00	 8.296296e+00	 1.000093e+01
0	 9.629630e+00	 8.370370e+00	 1.000072e+01
0	 9.629630e+00	 8.444444e+00	 1.000051e+01
0	 9.629630e+00	 8.518519e+00	 1.000032e+01
0	 9.259259e+00	 8.518519e+00	 1.000342e+01
0	 9.259259e+00	 8.592593e+00	 1.000308e+01
0	 9.259259e+00	 8.666667e+00	 1.000275e+01
0	 9.259259e+00	 8.740741e+00	 1.000244e+01
0	 9.259259e+00	 8.814815e+00	 1.000215e+01
0	 9.259259e+00	 8.888889e+00	 1.000187e+01
0	 9.333333e+00	 8.518519e+00	 1.000283e+01
0	 9.333333e+00	 8.592593e+00	 1.000253e+01
0	 9.333333e+00	 8.666667e+00	 1.000224e+01
0	 9.333333e+00	 8.740741e+00	 1.000197e+01
0	 9.333333e+00	 8.814815e+00	 1.000171e+01
0	 9.333333e+00	 8.888889e+00	 1.000147e+01
0	 9.407407e+00	 8.518519e+00	 1.000223e+01
0	 9.407407e+00	 8.592593e+00	 1.000196e+01
0	 9.407407e+00	 8.666667e+00	 1.000171e+01
0	 9.407407e+00	 8.740741e+00	 1.000148e+01
0	 9.407407e+00	 8.814815e+00	 1.000125e+01
0	 9.407407e+00	 8.888889e+00	 1.000105e+01
0	 9.481481e+00	 8.518519e+00	 1.000162e+01
0	 9.481481e+00	 8.592593e+00	 1.000138e+01
0	 9.481481e+00	 8.666667e+00	 1.000117e+01
0	 9.481481e+00	 8.740741e+00	 1.000097e+01
0	 9.481481e+00	 8.814815e+00	 1.000078e+01
0	 9.481481e+00	 8.888889e+00	 1.000061e+01
0	 9.555556e+00	 8.518519e+00	 1.000098e+01
0	 9.555556e+00	 8.592593e+00	 1.000078e+01
0	 9.555556e+00	 8.666667e+00	 1.000060e+01
0	 9.555556e+00	 8.740741e+00	 1.000043e+01
0	 9.555556e+00	 8.814815e+00	 1.000028e+01
0	 9.555556e+00	 8.888889e+00	 1.000016e+01
0	 9.629630e+00	 8.518519e+00	 1.000032e+01
0	 9.629630e+00	 8.592593e+00	 1.000015e+01
0	 9.629630e+00	 8.666667e+00	 9.999996e+00
0	 9.629630e+00	 8.740741e+00	 9.999866e+00
0	 9.629630e+00	 8.814815e+00	 9.999756e+00
0	 9.629630e+00	 8.888889e+00	 9.999666e+00
0	 9.259259e+00	 8.888889e+00	 1.000187e+01
0	 9.259259e+00	 8.962963e+00	 1.000160e+01
0	 9.259259e+00	 9.037037e+00	 1.000136e+01
0	 9.259259e+00	 9.111111e+00	 1.000114e+01
0	 9.259259e+00	 9.185185e+00	 1.000094e+01
0	 9.259259e+00	 9.259259e+00	 1.000076e+01
0	 9.333333e+00	 8.888889e+00	 1.000147e+01
0	 9.333333e+00	 8.962963e+00	 1.000124e+01
0	 9.333333e+00	 9.037037e+00	 1.000104e+01
0	 9.333333e+00	 9.111111e+00	 1.000085e+01
0	 9.333333e+00	 9.185185e+00	 1.000069e+01
0	 9.333333e+00	 9.259259e+00	 1.000054e+01
0	 9.407407e+00	 8.888889e+00	 1.000105e+01
0	 9.407407e+00	 8.962963e+00	 1.000086e+01
0	 9.407407e+00	 9.037037e+00	 1.000069e+01
0	 9.407407e+00	 9.111111e+00	 1.000055e+01
0	 9.407407e+00	 9.185185e+00	 1.000042e+01
0	 9.407407e+00	 9.259259e+00	 1.000031e+01
0	 9.481481e+00	 8.888889e+00	 1.000061e+01
0	 9.481481e+00	 8.962963e+00	 1.000047e+01
0	 9.481481e+00	 9.037037e+00	 1.000034e+01
0	 9.481481e+00	 9.111111e+00	 1.000022e+01
0	 9.481481e+00	 9.185185e+00	 1.000013e+01
0	 9.481481e+00	 9.259259e+00	 1.000006e+01
0	 9.555556e+00	 8.888889e+00	 1.000016e+01
0	 9.555556e+00	 8.962963e+00	 1.000005e+01
0	 9.555556e+00	 9.037037e+00	 9.999954e+00
0	 9.555556e+00	 9.111111e+00	 9.999881e+00
0	 9.555556e+00	 9.185185e+00	 9.999826e+00
0	 9.555556e+00	 9.259259e+00	 9.999790e+00
0	 9.629630e+00	 8.888889e+00	 9.999666e+00
0	 9.629630e+00	 8.962963e+00	 9.999596e+00
0	 9.629630e+00	 9.037037e+00	 9.999546e+00
0	 9.629630e+00	 9.111111e+00	 9.999514e+00
0	 9.629630e+00	 9.185185e+00	 9.999500e+00
0	 9.629630e+00	 9.259259e+00	 9.999506e+00
0	 9.259259e+00	 9.259259e+00	 1.000076e+01
0	 9.259259e+00	 9.333333e+00	 1.000060e+01
0	 9.259259e+00	 9.407407e+00	 1.000046e+01
0	 9.259259e+00	 9.481481e+00	 1.000034e+01
0	 9.259259e+00	 9.555556e+00	 1.000024e+01
0	 9.259259e+00	 9.629630e+00	 1.000016e+01
0	 9.333333e+00	 9.259259e+00	 1.000054e+01
0	 9.333333e+00	 9.333333e+00	 1.000041e+01
0	 9.333333e+00	 9.407407e+00	 1.000030e+01
0	 9.333333e+00	 9.481481e+00	 1.000021e+01
0	 9.333333e+00	 9.555556e+00	 1.000014e+01
0	 9.333333e+00	 9.629630e+00	 1.000009e+01
0	 9.407407e+00	 9.259259e+00	 1.000031e+01
0	 9.407407e+00	 9.333333e+00	 1.000021e+01
0	 9.407407e+00	 9.407407e+00	 1.000013e+01
0	 9.407407e+00	 9.481481e+00	 1.000008e+01
0	 9.407407e+00	 9.555556e+00	 1.000004e+01
0	 9.407407e+00	 9.629630e+00	 1.000002e+01
0	 9.481481e+00	 9.259259e+00	 1.000006e+01
0	 9.481481e+00	 9.333333e+00	 9.999997e+00
0	 9.481481e+00	 9.407407e+00	 9.999954e+00
0	 9.481481e+00	 9.481481e+00	 9.999929e+00
0	 9.481481e+00	 9.555556e+00	 9.999922e+00
0	 9.481481e+00	 9.629630e+00	 9.999933e+00
0	 9.555556e+00	 9.259259e+00	 9.999790e+00
0	 9.555556e+00	 9.333333e+00	 9.999769e+00
0	 9.555556e+00	 9.407407e+00	 9.999763e+00
0	 9.555556e+00	 9.481481e+00	 9.999773e+00
0	 9.555556e+00	 9.555556e+00	 9.999800e+00
0	 9.555556e+00	 9.629630e+00	 9.999843e+00
0	 9.629630e+00	 9.259259e+00	 9.999506e+00
0	 9.629630e+00	 9.333333e+00	 9.999527e+00
0	 9.629630e+00	 9.407407e+00	 9.999561e+00
0	 9.629630e+00	 9.481481e+00	 9.999608e+00
0	 9.629630e+00	 9.555556e+00	 9.999670e+00
0	 9.629630e+00	 9.629630e+00	 9.999746e+00
0	 9.259259e+00	 9.629630e+00	 1.000016e+01
0	 9.259259e+00	 9.703704e+00	 1.000010e+01
0	 9.259259e+00	 9.777778e+00	 1.000005e+01
0	 9.259259e+00	 9.851852e+00	 1.000002e+01
0	 9.259259e+00	 9.925926e+00	 1.000001e+01
0	 9.259259e+00	 1.000000e+01	 1.000001e+01
0	 9.333333e+00	 9.629630e+00	 1.000009e+01
0	 9.333333e+00	 9.703704e+00	 1.000006e+01
0	 9.333333e+00	 9.777778e+00	 1.000003e+01
0	 9.333333e+00	 9.851852e+00	 1.000001e+01
0	 9.333333e+00	 9.925926e+00	 1.000000e+01
0	 9.333333e+00	 1.000000e+01	 1.000002e+01
0	 9.407407e+00	 9.629630e+00	 1.000002e+01
0	 9.407407e+00	 9.703704e+00	 1.000001e+01
0	 9.407407e+00	 9.777778e+00	 9.999997e+00
0	 9.407407e+00	 9.851852e+00	 9.999993e+00
0	 9.407407e+00	 9.925926e+00	 9.999999e+00
0	 9.407407e+00	 1.000000e+01	 1.000002e+01
0	 9.481481e+00	 9.629630e+00	 9.999933e+00
0	 9.481481e+00	 9.703704e+00	 9.999949e+00
0	 9.481481e+00	 9.777778e+00	 9.999960e+00
0	 9.481481e+00	 9.851852e+00	 9.999972e+00
0	 9.481481e+00	 9.925926e+00	 9.999990e+00
0	 9.481481e+00	 1.000000e+01	 1.000002e+01
0	 9.555556e+00	 9.629630e+00	 9.999843e+00
0	 9.555556e+00	 9.703704e+00	 9.999886e+00
0	 9.555556e+00	 9.777778e+00	 9.999919e+00
0	 9.555556e+00	 9.851852e+00	 9.999947e+00
0	 9.555556e+00	 9.925926e+00	 9.999980e+00
0	 9.555556e+00	 1.000000e+01	 1.000002e+01
0	 9.629630e+00	 9.629630e+00	 9.999746e+00
0	 9.629630e+00	 9.703704e+00	 9.999817e+00
0	 9.629630e+00	 9.777778e+00	 9.999873e+00
0	 9.629630e+00	 9.851852e+00	 9.999921e+00
0	 9.629630e+00	 9.925926e+00	 9.999973e+00
0	 9.629630e+00	 1.000000e+01	 1.000004e+01
0	 9.629630e+00	 0.000000e+00	 9.727499e+00
0	 9.629630e+00	 7.407407e-02	 9.727612e+00
0	 9.629630e+00	 1.481481e-01	 9.727948e+00
0	 9.629630e+00	 2.222222e-01	 9.728507e+00
0	 9.629630e+00	 2.962963e-01	 9.729291e+00
0	 9.629630e+00	 3.703704e-01	 9.730299e+00
0	 9.703704e+00	 0.000000e+00	 9.712835e+00
0	 9.703704e+00	 7.407407e-02	 9.712954e+00
0	 9.703704e+00	 1.481481e-01	 9.713307e+00
0	 9.703704e+00	 2.222222e-01	 9.713895e+00
0	 9.703704e+00	 2.962963e-01	 9.714719e+00
0	 9.703704e+00	 3.703704e-01	 9.715778e+00
0	 9.777778e+00	 0.000000e+00	 9.697719e+00
0	 9.777778e+00	 7.407407e-02	 9.697844e+00
0	 9.777778e+00	 1.481481e-01	 9.698216e+00
0	 9.777778e+00	 2.222222e-01	 9.698836e+00
0	 9.777778e+00	 2.962963e-01	 9.699703e+00
0	 9.777778e+00	 3.703704e-01	 9.700818e+00
0	 9.851852e+00	 0.000000e+00	 9.682110e+00
0	 9.851852e+00	 7.407407e-02	 9.682242e+00
0	 9.851852e+00	 1.481481e-01	 9.682634e+00
0	 9.851852e+00	 2.222222e-01	 9.683287e+00
0	 9.851852e+00	 2.962963e-01	 9.684202e+00
0	 9.851852e+00	 3.703704e-01	 9.685378e+00
0	 9.925926e+00	 0.000000e+00	 9.665967e+00
0	 9.925926e+00	 7.407407e-02	 9.666106e+00
0	 9.925926e+00	 1.481481e-01	 9.666520e+00
0	 9.925926e+00	 2.222222e-01	 9.667209e+00
0	 9.925926e+00	 2.962963e-01	 9.668175e+00
0	 9.925926e+00	 3.703704e-01	 9.669417e+00
0	 1.000000e+01	 0.000000e+00	 9.649247e+00
0	 1.000000e+01	 7.407407e-02	 9.649394e+00
0	 1.000000e+01	 1.481481e-01	 9.649831e+00
0	 1.000000e+01	 2.222222e-01	 9.650560e+00
0	 1.000000e+01	 2.962963e-01	 9.651581e+00
0	 1.000000e+01	 3.703704e-01	 9.652895e+00
0	 9.629630e+00	 3.703704e-01	 9.730299e+00
0	 9.629630e+00	 4.444444e-01	 9.731524e+00
0	 9.629630e+00	 5.185185e-01	 9.732960e+00
0	 9.629630e+00	 5.925926e-01	 9.734609e+00
0	 9.629630e+00	 6.666667e-01	 9.736470e+00
0	 9.629630e+00	 7.407407e-01	 9.738545e+00
0	 9.703704e+00	 3.703704e-01	 9.715778e+00
0	 9.703704e+00	 4.444444e-01	 9.717066e+00
0	 9.703704e+00	 5.185185e-01	 9.718576e+00
0	 9.703704e+00	 5.925926e-01	 9.720309e+00
0	 9.703704e+00	 6.666667e-01	 9.722266e+00
0	 9.703704e+00	 7.407407e-01	 9.724447e+00
0	 9.777778e+00	 3.703704e-01	 9.700818e+00
0	 9.777778e+00	 4.444444e-01	 9.702174e+00
0	 9.777778e+00	 5.185185e-01	 9.703764e+00
0	 9.777778e+00	 5.925926e-01	 9.705588e+00
0	 9.777778e+00	 6.666667e-01	 9.707648e+00
0	 9.777778e+00	 7.407407e-01	 9.709944e+00
0	 9.851852e+00	 3.703704e-01	 9.685378e+00
0	 9.851852e+00	 4.444444e-01	 9.686807e+00
0	 9.851852e+00	 5.185185e-01	 9.688483e+00
0	 9.851852e+00	 5.925926e-01	 9.690407e+00
0	 9.851852e+00	 6.666667e-01	 9.692578e+00
0	 9.851852e+00	 7.407407e-01	 9.694999e+00
0	 9.925926e+00	 3.703704e-01	 9.669417e+00
0	 9.925926e+00	 4.444444e-01	 9.670926e+00
0	 9.925926e+00	 5.185185e-01	 9.672696e+00
0	 9.925926e+00	 5.925926e-01	 9.674727e+00
0	 9.925926e+00	 6.666667e-01	 9.677019e+00
0	 9.925926e+00	 7.407407e-01	 9.679574e+00
0	 1.000000e+01	 3.703704e-01	 9.652895e+00
0	 1.000000e+01	 4.444444e-01	 9.654491e+00
0	 1.000000e+01	 5.185185e-01	 9.656363e+00
0	 1.000000e+01	 5.925926e-01	 9.658510e+00
0	 1.000000e+01	 6.666667e-01	 9.660933e+00
0	 1.000000e+01	 7.407407e-01	 9.663635e+00
0	 9.629630e+00	 7.407407e-01	 9.738545e+00
0	 9.629630e+00	 8.148148e-01	 9.740820e+00
0	 9.629630e+00	 8.888889e-01	 9.743283e+00
0	 9.629630e+00	 9.629630e-01	 9.745935e+00
0	 9.629630e+00	 1.037037e+00	 9.748777e+00
0	 9.629630e+00	 1.111111e+00	 9.751811e+00
0	 9.703704e+00	 7.407407e-01	 9.724447e+00
0	 9.703704e+00	 8.148148e-01	 9.726839e+00
0	 9.703704e+00	 8.888889e-01	 9.729428e+00
0	 9.703704e+00	 9.629630e-01	 9.732216e+00
0	 9.703704e+00	 1.037037e+00	 9.735204e+00
0	 9.703704e+00	 1.111111e+00	 9.738393e+00
0	 9.777778e+00	 7.407407e-01	 9.709944e+00
0	 9.777778e+00	 8.148148e-01	 9.712462e+00
0	 9.777778e+00	 8.888889e-01	 9.715187e+00
0	 9.777778e+00	 9.629630e-01	 9.718122e+00
0	 9.777778e+00	 1.037037e+00	 9.721267e+00
0	 9.777778e+00	 1.111111e+00	 9.724623e+00
0	 9.851852e+00	 7.407407e-01	 9.694999e+00
0	 9.851852e+00	 8.148148e-01	 9.697653e+00
0	 9.851852e+00	 8.888889e-01	 9.700526e+00
0	 9.851852e+00	 9.629630e-01	 9.703619e+00
0	 9.851852e+00	 1.037037e+00	 9.706933e+00
0	 9.851852e+00	 1.111111e+00	 9.710471e+00
0	 9.925926e+00	 7.407407e-01	 9.679574e+00
0	 9.925926e+00	 8.148148e-01	 9.682376e+00
0	 9.925926e+00	 8.888889e-01	 9.685409e+00
0	 9.925926e+00	 9.629630e-01	 9.688673e+00
0	 9.925926e+00	 1.037037e+00	 9.692172e+00
0	 9.925926e+00	 1.111111e+00	 9.695906e+00
0	 1.000000e+01	 7.407407e-01	 9.663635e+00
0	 1.000000e+01	 8.148148e-01	 9.666596e+00
0	 1.000000e+01	 8.888889e-01	 9.669802e+00
0	 1.000000e+01	 9.629630e-01	 9.673252e+00
0	 1.000000e+01	 1.037037e+00	 9.676950e+00
0	 1.000000e+01	 1.111111e+00	 9.680896e+00
0	 9.629630e+00	 1.111111e+00	 9.751811e+00
0	 9.629630e+00	 1.185185e+00	 9.755019e+00
0	 9.629630e+00	 1.259259e+00	 9.758382e+00
0	 9.629630e+00	 1.333333e+00	 9.761903e+00
0	 9.629630e+00	 1.407407e+00	 9.765582e+00
0	 9.629630e+00	 1.481481e+00	 9.769423e+00
0	 9.703704e+00	 1.111111e+00	 9.738393e+00
0	 9.703704e+00	 1.185185e+00	 9.741765e+00
0	 9.703704e+00	 1.259259e+00	 9.745300e+00
0	 9.703704e+00	 1.333333e+00	 9.749000e+00
0	 9.703704e+00	 1.407407e+00	 9.752868e+00
0	 9.703704e+00	 1.481481e+00	 9.756904e+00
0	 9.777778e+00	 1.111111e+00	 9.724623e+00
0	 9.777778e+00	 1.185185e+00	 9.728172e+00
0	 9.777778e+00	 1.259259e+00	 9.731892e+00
0	 9.777778e+00	 1.333333e+00	 9.735787e+00
0	 9.777778e+00	 1.407407e+00	 9.739857e+00
0	 9.777778e+00	 1.481481e+00	 9.744104e+00
0	 9.851852e+00	 1.111111e+00	 9.710471e+00
0	 9.851852e+00	 1.185185e+00	 9.714211e+00
0	 9.851852e+00	 1.259259e+00	 9.718132e+00
0	 9.851852e+00	 1.333333e+00	 9.722236e+00
0	 9.851852e+00	 1.407407e+00	 9.726524e+00
0	 9.851852e+00	 1.481481e+00	 9.730999e+00
0	 9.925926e+00	 1.111111e+00	 9.695906e+00
0	 9.925926e+00	 1.185185e+00	 9.699853e+00
0	 9.925926e+00	 1.259259e+00	 9.703990e+00
0	 9.925926e+00	 1.333333e+00	 9.708320e+00
0	 9.925926e+00	 1.407407e+00	 9.712844e+00
0	 9.925926e+00	 1.481481e+00	 9.717565e+00
0	 1.000000e+01	 1.111111e+00	 9.680896e+00
0	 1.000000e+01	 1.185185e+00	 9.685067e+00
0	 1.000000e+01	 1.259259e+00	 9.689438e+00
0	 1.000000e+01	 1.333333e+00	 9.694012e+00
0	 1.000000e+01	 1.407407e+00	 9.698791e+00
0	 1.000000e+01	 1.481481e+00	 9.703777e+00
0	 9.629630e+00	 1.481481e+00	 9.769423e+00
0	 9.629630e+00	 1.555556e+00	 9.773402e+00
0	 9.629630e+00	 1.629630e+00	 9.777498e+00
0	 9.629630e+00	 1.703704e+00	 9.781714e+00
0	 9.629630e+00	 1.777778e+00	 9.786050e+00
0	 9.629630e+00	 1.851852e+00	 9.790510e+00
0	 9.703704e+00	 1.481481e+00	 9.756904e+00
0	 9.703704e+00	 1.555556e+00	 9.761086e+00
0	 9.703704e+00	 1.629630e+00	 9.765392e+00
0	 9.703704e+00	 1.703704e+00	 9.769822e+00
0	 9.703704e+00	 1.777778e+00	 9.774379e+00
0	 9.703704e+00	 1.851852e+00	 9.779066e+00
0	 9.777778e+00	 1.481481e+00	 9.744104e+00
0	 9.777778e+00	 1.555556e+00	 9.748505e+00
0	 9.777778e+00	 1.629630e+00	 9.753035e+00
0	 9.777778e+00	 1.703704e+00	 9.757696e+00
0	 9.777778e+00	 1.777778e+00	 9.762490e+00
0	 9.777778e+00	 1.851852e+00	 9.767420e+00
0	 9.851852e+00	 1.481481e+00	 9.730999e+00
0	 9.851852e+00	 1.555556e+00	 9.735635e+00
0	 9.851852e+00	 1.629630e+00	 9.740407e+00
0	 9.851852e+00	 1.703704e+00	 9.745317e+00
0	 9.851852e+00	 1.777778e+00	 9.750367e+00
0	 9.851852e+00	 1.851852e+00	 9.755558e+00
0	 9.925926e+00	 1.481481e+00	 9.717565e+00
0	 9.925926e+00	 1.555556e+00	 9.722455e+00
0	 9.925926e+00	 1.629630e+00	 9.727488e+00
0	 9.925926e+00	 1.703704e+00	 9.732665e+00
0	 9.925926e+00	 1.777778e+00	 9.737990e+00
0	 9.925926e+00	 1.851852e+00	 9.743464e+00
0	 1.000000e+01	 1.481481e+00	 9.703777e+00
0	 1.000000e+01	 1.555556e+00	 9.708942e+00
0	 1.000000e+01	 1.629630e+00	 9.714256e+00
0	 1.000000e+01	 1.703704e+00	 9.719722e+00
0	 1.000000e+01	 1.777778e+00	 9.725343e+00
0	 1.000000e+01	 1.851852e+00	 9.731120e+00
0	 9.629630e+00	 1.851852e+00	 9.790510e+00
0	 9.629630e+00	 1.925926e+00	 9.795069e+00
0	 9.629630e+00	 2.000000e+00	 9.799702e+00
0	 9.629630e+00	 2.074074e+00	 9.804413e+00
0	 9.629630e+00	 2.148148e+00	 9.809203e+00
0	 9.629630e+00	 2.222222e+00	 9.814075e+00
0	 9.703704e+00	 1.851852e+00	 9.779066e+00
0	 9.703704e+00	 1.925926e+00	 9.783856e+00
0	 9.703704e+00	 2.000000e+00	 9.788725e+00
0	 9.703704e+00	 2.074074e+00	 9.793675e+00
0	 9.703704e+00	 2.148148e+00	 9.798708e+00
0	 9.703704e+00	 2.222222e+00	 9.803827e+00
0	 9.777778e+00	 1.851852e+00	 9.767420e+00
0	 9.777778e+00	 1.925926e+00	 9.772459e+00
0	 9.777778e+00	 2.000000e+00	 9.777581e+00
0	 9.777778e+00	 2.074074e+00	 9.782787e+00
0	 9.777778e+00	 2.148148e+00	 9.788081e+00
0	 9.777778e+00	 2.222222e+00	 9.793463e+00
0	 9.851852e+00	 1.851852e+00	 9.755558e+00
0	 9.851852e+00	 1.925926e+00	 9.760865e+00
0	 9.851852e+00	 2.000000e+00	 9.766257e+00
0	 9.851852e+00	 2.074074e+00	 9.771738e+00
0	 9.851852e+00	 2.148148e+00	 9.777311e+00
0	 9.851852e+00	 2.222222e+00	 9.782976e+00
0	 9.925926e+00	 1.851852e+00	 9.743464e+00
0	 9.925926e+00	 1.925926e+00	 9.749057e+00
0	 9.925926e+00	 2.000000e+00	 9.754741e+00
0	 9.925926e+00	 2.074074e+00	 9.760517e+00
0	 9.925926e+00	 2.148148e+00	 9.766389e+00
0	 9.925926e+00	 2.222222e+00	 9.772358e+00
0	 1.000000e+01	 1.851852e+00	 9.731120e+00
0	 1.000000e+01	 1.925926e+00	 9.737023e+00
0	 1.000000e+01	 2.000000e+00	 9.743020e+00
0	 1.000000e+01	 2.074074e+00	 9.749114e+00
0	 1.000000e+01	 2.148148e+00	 9.755306e+00
0	 1.000000e+01	 2.222222e+00	 9.761601e+00
0	 9.629630e+00	 2.222222e+00	 9.814075e+00
0	 9.629630e+00	 2.296296e+00	 9.819003e+00
0	 9.629630e+00	 2.370370e+00	 9.823964e+00
0	 9.629630e+00	 2.444444e+00	 9.828960e+00
0	 9.629630e+00	 2.518519e+00	 9.833992e+00
0	 9.629630e+00	 2.592593e+00	 9.839062e+00
0	 9.703704e+00	 2.222222e+00	 9.803827e+00
0	 9.703704e+00	 2.296296e+00	 9.809005e+00
0	 9.703704e+00	 2.370370e+00	 9.814217e+00
0	 9.703704e+00	 2.444444e+00	 9.819465e+00
0	 9.703704e+00	 2.518519e+00	 9.824751e+00
0	 9.703704e+00	 2.592593e+00	 9.830077e+00
0	 9.777778e+00	 2.222222e+00	 9.793463e+00
0	 9.777778e+00	 2.296296e+00	 9.798908e+00
0	 9.777778e+00	 2.370370e+00	 9.804388e+00
0	 9.777778e+00	 2.444444e+00	 9.809905e+00
0	 9.777778e+00	 2.518519e+00	 9.815462e+00
0	 9.777778e+00	 2.592593e+00	 9.821061e+00
0	 9.851852e+00	 2.222222e+00	 9.782976e+00
0	 9.851852e+00	 2.296296e+00	 9.788706e+00
0	 9.851852e+00	 2.370370e+00	 9.794473e+00
0	 9.851852e+00	 2.444444e+00	 9.800278e+00
0	 9.851852e+00	 2.518519e+00	 9.806124e+00
0	 9.851852e+00	 2.592593e+00	 9.812013e+00
0	 9.925926e+00	 2.222222e+00	 9.772358e+00
0	 9.925926e+00	 2.296296e+00	 9.778394e+00
0	 9.925926e+00	 2.370370e+00	 9.784467e+00
0	 9.925926e+00	 2.444444e+00	 9.790580e+00
0	 9.925926e+00	 2.518519e+00	 9.796735e+00
0	 9.925926e+00	 2.592593e+00	 9.802934e+00
0	 1.000000e+01	 2.222222e+00	 9.761601e+00
0	 1.000000e+01	 2.296296e+00	 9.767965e+00
0	 1.000000e+01	 2.370370e+00	 9.774367e+00
0	 1.000000e+01	 2.444444e+00	 9.780809e+00
0	 1.000000e+01	 2.518519e+00	 9.787294e+00
0	 1.000000e+01	 2.592593e+00	 9.793825e+00
0	 9.629630e+00	 2.592593e+00	 9.839062e+00
0	 9.629630e+00	 2.666667e+00	 9.844148e+00
0	 9.629630e+00	 2.740741e+00	 9.849226e+00
0	 9.629630e+00	 2.814815e+00	 9.854297e+00
0	 9.629630e+00	 2.888889e+00	 9.859365e+00
0	 9.629630e+00	 2.962963e+00	 9.864429e+00
0	 9.703704e+00	 2.592593e+00	 9.830077e+00
0	 9.703704e+00	 2.666667e+00	 9.835420e+00
0	 9.703704e+00	 2.740741e+00	 9.840753e+00
0	 9.703704e+00	 2.814815e+00	 9.846080e+00
0	 9.703704e+00	 2.888889e+00	 9.851401e+00
0	 9.703704e+00	 2.962963e+00	 9.856720e+00
0	 9.777778e+00	 2.592593e+00	 9.821061e+00
0	 9.777778e+00	 2.666667e+00	 9.826676e+00
0	 9.777778e+00	 2.740741e+00	 9.832281e+00
0	 9.777778e+00	 2.814815e+00	 9.837878e+00
0	 9.777778e+00	 2.888889e+00	 9.843469e+00
0	 9.777778e+00	 2.962963e+00	 9.849057e+00
0	 9.851852e+00	 2.592593e+00	 9.812013e+00
0	 9.851852e+00	 2.666667e+00	 9.817918e+00
0	 9.851852e+00	 2.740741e+00	 9.823812e+00
0	 9.851852e+00	 2.814815e+00	 9.829697e+00
0	 9.851852e+00	 2.888889e+00	 9.835575e+00
0	 9.851852e+00	 2.962963e+00	 9.841448e+00
0	 9.925926e+00	 2.592593e+00	 9.802934e+00
0	 9.925926e+00	 2.666667e+00	 9.809149e+00
0	 9.925926e+00	 2.740741e+00	 9.815351e+00
0	 9.925926e+00	 2.814815e+00	 9.821542e+00
0	 9.925926e+00	 2.888889e+00	 9.827725e+00
0	 9.925926e+00	 2.962963e+00	 9.833901e+00
0	 1.000000e+01	 2.592593e+00	 9.793825e+00
0	 1.000000e+01	 2.666667e+00	 9.800370e+00
0	 1.000000e+01	 2.740741e+00	 9.806901e+00
0	 1.000000e+01	 2.814815e+00	 9.813418e+00
0	 1.000000e+01	 2.888889e+00	 9.819925e+00
0	 1.000000e+01	 2.962963e+00	 9.826423e+00
0	 9.629630e+00	 2.962963e+00	 9.864429e+00
0	 9.629630e+00	 3.037037e+00	 9.869471e+00
0	 9.629630e+00	 3.111111e+00	 9.874467e+00
0	 9.629630e+00	 3.185185e+00	 9.879421e+00
0	 9.629630e+00	 3.259259e+00	 9.884334e+00
0	 9.629630e+00	 3.333333e+00	 9.889207e+00
0	 9.703704e+00	 2.962963e+00	 9.856720e+00
0	 9.703704e+00	 3.037037e+00	 9.862014e+00
0	 9.703704e+00	 3.111111e+00	 9.867260e+00
0	 9.703704e+00	 3.185185e+00	 9.872462e+00
0	 9.703704e+00	 3.259259e+00	 9.877620e+00
0	 9.703704e+00	 3.333333e+00	 9.882736e+00
0	 9.777778e+00	 2.962963e+00	 9.849057e+00
0	 9.777778e+00	 3.037037e+00	 9.854618e+00
0	 9.777778e+00	 3.111111e+00	 9.860129e+00
0	 9.777778e+00	 3.185185e+00	 9.865592e+00
0	 9.777778e+00	 3.259259e+00	 9.871008e+00
0	 9.777778e+00	 3.333333e+00	 9.876379e+00
0	 9.851852e+00	 2.962963e+00	 9.841448e+00
0	 9.851852e+00	 3.037037e+00	 9.847292e+00
0	 9.851852e+00	 3.111111e+00	 9.853082e+00
0	 9.851852e+00	 3.185185e+00	 9.858821e+00
0	 9.851852e+00	 3.259259e+00	 9.864510e+00
0	 9.851852e+00	 3.333333e+00	 9.870151e+00
0	 9.925926e+00	 2.962963e+00	 9.833901e+00
0	 9.925926e+00	 3.037037e+00	 9.840045e+00
0	 9.925926e+00	 3.111111e+00	 9.846132e+00
0	 9.925926e+00	 3.185185e+00	 9.852162e+00
0	 9.925926e+00	 3.259259e+00	 9.858139e+00
0	 9.925926e+00	 3.333333e+00	 9.864064e+00
0	 1.000000e+01	 2.962963e+00	 9.826423e+00
0	 1.000000e+01	 3.037037e+00	 9.832886e+00
0	 1.000000e+01	 3.111111e+00	 9.839287e+00
0	 1.000000e+01	 3.185185e+00	 9.845627e+00
0	 1.000000e+01	 3.259259e+00	 9.851908e+00
0	 1.000000e+01	 3.333333e+00	 9.858133e+00
0	 9.629630e+00	 3.333333e+00	 9.889207e+00
0	 9.629630e+00	 3.407407e+00	 9.894023e+00
0	 9.629630e+00	 3.481481e+00	 9.898765e+00
0	 9.629630e+00	 3.555556e+00	 9.903432e+00
0	 9.629630e+00	 3.629630e+00	 9.908028e+00
0	 9.629630e+00	 3.703704e+00	 9.912552e+00
0	 9.703704e+00	 3.333333e+00	 9.882736e+00
0	 9.703704e+00	 3.407407e+00	 9.887791e+00
0	 9.703704e+00	 3.481481e+00	 9.892768e+00
0	 9.703704e+00	 3.555556e+00	 9.897667e+00
0	 9.703704e+00	 3.629630e+00	 9.902491e+00
0	 9.703704e+00	 3.703704e+00	 9.907239e+00
0	 9.777778e+00	 3.333333e+00	 9.876379e+00
0	 9.777778e+00	 3.407407e+00	 9.881686e+00
0	 9.777778e+00	 3.481481e+00	 9.886910e+00
0	 9.777778e+00	 3.555556e+00	 9.892052e+00
0	 9.777778e+00	 3.629630e+00	 9.897113e+00
0	 9.777778e+00	 3.703704e+00	 9.902095e+00
0	 9.851852e+00	 3.333333e+00	 9.870151e+00
0	 9.851852e+00	 3.407407e+00	 9.875723e+00
0	 9.851852e+00	 3.481481e+00	 9.881207e+00
0	 9.851852e+00	 3.555556e+00	 9.886603e+00
0	 9.851852e+00	 3.629630e+00	 9.891913e+00
0	 9.851852e+00	 3.703704e+00	 9.897139e+00
0	 9.925926e+00	 3.333333e+00	 9.864064e+00
0	 9.925926e+00	 3.407407e+00	 9.869916e+00
0	 9.925926e+00	 3.481481e+00	 9.875673e+00
0	 9.925926e+00	 3.555556e+00	 9.881336e+00
0	 9.925926e+00	 3.629630e+00	 9.886908e+00
0	 9.925926e+00	 3.703704e+00	 9.892390e+00
0	 1.000000e+01	 3.333333e+00	 9.858133e+00
0	 1.000000e+01	 3.407407e+00	 9.864279e+00
0	 1.000000e+01	 3.481481e+00	 9.870324e+00
0	 1.000000e+01	 3.555556e+00	 9.876269e+00
0	 1.000000e+01	 3.629630e+00	 9.882115e+00
0	 1.000000e+01	 3.703704e+00	 9.887865e+00
0	 9.629630e+00	 3.703704e+00	 9.912552e+00
0	 9.629630e+00	 3.777778e+00	 9.916993e+00
0	 9.629630e+00	 3.851852e+00	 9.921335e+00
0	 9.629630e+00	 3.925926e+00	 9.925580e+00
0	 9.629630e+00	 4.000000e+00	 9.929729e+00
0	 9.629630e+00	 4.074074e+00	 9.933782e+00
0	 9.703704e+00	 3.703704e+00	 9.907239e+00
0	 9.703704e+00	 3.777778e+00	 9.911898e+00
0	 9.703704e+00	 3.851852e+00	 9.916454e+00
0	 9.703704e+00	 3.925926e+00	 9.920908e+00
0	 9.703704e+00	 4.000000e+00	 9.925260e+00
0	 9.703704e+00	 4.074074e+00	 9.929512e+00
0	 9.777778e+00	 3.703704e+00	 9.902095e+00
0	 9.777778e+00	 3.777778e+00	 9.906983e+00
0	 9.777778e+00	 3.851852e+00	 9.911761e+00
0	 9.777778e+00	 3.925926e+00	 9.916432e+00
0	 9.777778e+00	 4.000000e+00	 9.920995e+00
0	 9.777778e+00	 4.074074e+00	 9.925452e+00
0	 9.851852e+00	 3.703704e+00	 9.897139e+00
0	 9.851852e+00	 3.777778e+00	 9.902265e+00
0	 9.851852e+00	 3.851852e+00	 9.907276e+00
0	 9.851852e+00	 3.925926e+00	 9.912172e+00
0	 9.851852e+00	 4.000000e+00	 9.916955e+00
0	 9.851852e+00	 4.074074e+00	 9.921625e+00
0	 9.925926e+00	 3.703704e+00	 9.892390e+00
0	 9.925926e+00	 3.777778e+00	 9.897765e+00
0	 9.925926e+00	 3.851852e+00	 9.903018e+00
0	 9.925926e+00	 3.925926e+00	 9.908149e+00
0	 9.925926e+00	 4.000000e+00	 9.913159e+00
0	 9.925926e+00	 4.074074e+00	 9.918050e+00
0	 1.000000e+01	 3.703704e+00	 9.887865e+00
0	 1.000000e+01	 3.777778e+00	 9.893501e+00
0	 1.000000e+01	 3.851852e+00	 9.899007e+00
0	 1.000000e+01	 3.925926e+00	 9.904383e+00
0	 1.000000e+01	 4.000000e+00	 9.909630e+00
0	 1.000000e+01	 4.074074e+00	 9.914749e+00
0	 9.629630e+00	 4.074074e+00	 9.933782e+00
0	 9.629630e+00	 4.148148e+00	 9.937731e+00
0	 9.629630e+00	 4.222222e+00	 9.941566e+00
0	 9.629630e+00	 4.296296e+00	 9.945289e+00
0	 9.629630e+00	 4.370370e+00	 9.948898e+00
0	 9.629630e+00	 4.444444e+00	 9.952395e+00
0	 9.703704e+00	 4.074074e+00	 9.929512e+00
0	 9.703704e+00	 4.148148e+00	 9.933654e+00
0	 9.703704e+00	 4.222222e+00	 9.937676e+00
0	 9.703704e+00	 4.296296e+00	 9.941580e+00
0	 9.703704e+00	 4.370370e+00	 9.945364e+00
0	 9.703704e+00	 4.444444e+00	 9.949031e+00
0	 9.777778e+00	 4.074074e+00	 9.925452e+00
0	 9.777778e+00	 4.148148e+00	 9.929794e+00
0	 9.777778e+00	 4.222222e+00	 9.934009e+00
0	 9.777778e+00	 4.296296e+00	 9.938098e+00
0	 9.777778e+00	 4.370370e+00	 9.942063e+00
0	 9.777778e+00	 4.444444e+00	 9.945903e+00
0	 9.851852e+00	 4.074074e+00	 9.921625e+00
0	 9.851852e+00	 4.148148e+00	 9.926172e+00
0	 9.851852e+00	 4.222222e+00	 9.930586e+00
0	 9.851852e+00	 4.296296e+00	 9.934867e+00
0	 9.851852e+00	 4.370370e+00	 9.939016e+00
0	 9.851852e+00	 4.444444e+00	 9.943033e+00
0	 9.925926e+00	 4.074074e+00	 9.918050e+00
0	 9.925926e+00	 4.148148e+00	 9.922810e+00
0	 9.925926e+00	 4.222222e+00	 9.927429e+00
0	 9.925926e+00	 4.296296e+00	 9.931907e+00
0	 9.925926e+00	 4.370370e+00	 9.936246e+00
0	 9.925926e+00	 4.444444e+00	 9.940444e+00
0	 1.000000e+01	 4.074074e+00	 9.914749e+00
0	 1.000000e+01	 4.148148e+00	 9.919730e+00
0	 1.000000e+01	 4.222222e+00	 9.924561e+00
0	 1.000000e+01	 4.296296e+00	 9.929242e+00
0	 1.000000e+01	 4.370370e+00	 9.933775e+00
0	 1.000000e+01	 4.444444e+00	 9.938160e+00
0	 9.629630e+00	 4.444444e+00	 9.952395e+00
0	 9.629630e+00	 4.518519e+00	 9.955776e+00
0	 9.629630e+00	 4.592593e+00	 9.959035e+00
0	 9.629630e+00	 4.666667e+00	 9.962172e+00
0	 9.629630e+00	 4.740741e+00	 9.965188e+00
0	 9.629630e+00	 4.814815e+00	 9.968082e+00
0	 9.703704e+00	 4.444444e+00	 9.949031e+00
0	 9.703704e+00	 4.518519e+00	 9.952575e+00
0	 9.703704e+00	 4.592593e+00	 9.955991e+00
0	 9.703704e+00	 4.666667e+00	 9.959279e+00
0	 9.703704e+00	 4.740741e+00	 9.962440e+00
0	 9.703704e+00	 4.814815e+00	 9.965473e+00
0	 9.777778e+00	 4.444444e+00	 9.945903e+00
0	 9.777778e+00	 4.518519e+00	 9.949613e+00
0	 9.777778e+00	 4.592593e+00	 9.953189e+00
0	 9.777778e+00	 4.666667e+00	 9.956630e+00
0	 9.777778e+00	 4.740741e+00	 9.959937e+00
0	 9.777778e+00	 4.814815e+00	 9.963109e+00
0	 9.851852e+00	 4.444444e+00	 9.943033e+00
0	 9.851852e+00	 4.518519e+00	 9.946914e+00
0	 9.851852e+00	 4.592593e+00	 9.950652e+00
0	 9.851852e+00	 4.666667e+00	 9.954248e+00
0	 9.851852e+00	 4.740741e+00	 9.957702e+00
0	 9.851852e+00	 4.814815e+00	 9.961015e+00
0	 9.925926e+00	 4.444444e+00	 9.940444e+00
0	 9.925926e+00	 4.518519e+00	 9.944498e+00
0	 9.925926e+00	 4.592593e+00	 9.948402e+00
0	 9.925926e+00	 4.666667e+00	 9.952155e+00
0	 9.925926e+00	 4.740741e+00	 9.955759e+00
0	 9.925926e+00	 4.814815e+00	 9.959212e+00
0	 1.000000e+01	 4.444444e+00	 9.938160e+00
0	 1.000000e+01	 4.518519e+00	 9.942391e+00
0	 1.000000e+01	 4.592593e+00	 9.946462e+00
0	 1.000000e+01	 4.666667e+00	 9.950375e+00
0	 1.000000e+01	 4.740741e+00	 9.954129e+00
0	 1.000000e+01	 4.814815e+00	 9.957724e+00
0	 9.629630e+00	 4.814815e+00	 9.968082e+00
0	 9.629630e+00	 4.888889e+00	 9.970855e+00
0	 9.629630e+00	 4.962963e+00	 9.973505e+00
0	 9.629630e+00	 5.037037e+00	 9.976032e+00
0	 9.629630e+00	 5.111111e+00	 9.978436e+00
0	 9.629630e+00	 5.185185e+00	 9.980717e+00
0	 9.703704e+00	 4.814815e+00	 9.965473e+00
0	 9.703704e+00	 4.888889e+00	 9.968378e+00
0	 9.703704e+00	 4.962963e+00	 9.971154e+00
0	 9.703704e+00	 5.037037e+00	 9.973801e+00
0	 9.703704e+00	 5.111111e+00	 9.976318e+00
0	 9.703704e+00	 5.185185e+00	 9.978707e+00
0	 9.777778e+00	 4.814815e+00	 9.963109e+00
0	 9.777778e+00	 4.888889e+00	 9.966147e+00
0	 9.777778e+00	 4.962963e+00	 9.969049e+00
0	 9.777778e+00	 5.037037e+00	 9.971815e+00
0	 9.777778e+00	 5.111111e+00	 9.974446e+00
0	 9.777778e+00	 5.185185e+00	 9.976940e+00
0	 9.851852e+00	 4.814815e+00	 9.961015e+00
0	 9.851852e+00	 4.888889e+00	 9.964185e+00
0	 9.851852e+00	 4.962963e+00	 9.967213e+00
0	 9.851852e+00	 5.037037e+00	 9.970098e+00
0	 9.851852e+00	 5.111111e+00	 9.972839e+00
0	 9.851852e+00	 5.185185e+00	 9.975437e+00
0	 9.925926e+00	 4.814815e+00	 9.959212e+00
0	 9.925926e+00	 4.888889e+00	 9.962515e+00
0	 9.925926e+00	 4.962963e+00	 9.965668e+00
0	 9.925926e+00	 5.037037e+00	 9.968670e+00
0	 9.925926e+00	 5.111111e+00	 9.971521e+00
0	 9.925926e+00	 5.185185e+00	 9.974220e+00
0	 1.000000e+01	 4.814815e+00	 9.957724e+00
0	 1.000000e+01	 4.888889e+00	 9.961160e+00
0	 1.000000e+01	 4.962963e+00	 9.964437e+00
0	 1.000000e+01	 5.037037e+00	 9.967554e+00
0	 1.000000e+01	 5.111111e+00	 9.970512e+00
0	 1.000000e+01	 5.185185e+00	 9.973311e+00
0	 9.629630e+00	 5.185185e+00	 9.980717e+00
0	 9.629630e+00	 5.259259e+00	 9.982877e+00
0	 9.629630e+00	 5.333333e+00	 9.984921e+00
0	 9.629630e+00	 5.407407e+00	 9.986847e+00
0	 9.629630e+00	 5.481481e+00	 9.988654e+00
0	 9.629630e+00	 5.555556e+00	 9.990344e+00
0	 9.703704e+00	 5.185185e+00	 9.978707e+00
0	 9.703704e+00	 5.259259e+00	 9.980969e+00
0	 9.703704e+00	 5.333333e+00	 9.983109e+00
0	 9.703704e+00	 5.407407e+00	 9.985125e+00
0	 9.703704e+00	 5.481481e+00	 9.987017e+00
0	 9.703704e+00	 5.555556e+00	 9.988785e+00
0	 9.777778e+00	 5.185185e+00	 9.976940e+00
0	 9.777778e+00	 5.259259e+00	 9.979302e+00
0	 9.777778e+00	 5.333333e+00	 9.981534e+00
0	 9.777778e+00	 5.407407e+00	 9.983637e+00
0	 9.777778e+00	 5.481481e+00	 9.985610e+00
0	 9.777778e+00	 5.555556e+00	 9.987453e+00
0	 9.851852e+00	 5.185185e+00	 9.975437e+00
0	 9.851852e+00	 5.259259e+00	 9.977896e+00
0	 9.851852e+00	 5.333333e+00	 9.980219e+00
0	 9.851852e+00	 5.407407e+00	 9.982405e+00
0	 9.851852e+00	 5.481481e+00	 9.984455e+00
0	 9.851852e+00	 5.555556e+00	 9.986367e+00
0	 9.925926e+00	 5.185185e+00	 9.974220e+00
0	 9.925926e+00	 5.259259e+00	 9.976773e+00
0	 9.925926e+00	 5.333333e+00	 9.979183e+00
0	 9.925926e+00	 5.407407e+00	 9.981448e+00
0	 9.925926e+00	 5.481481e+00	 9.983570e+00
0	 9.925926e+00	 5.555556e+00	 9.985548e+00
0	 1.000000e+01	 5.185185e+00	 9.973311e+00
0	 1.000000e+01	 5.259259e+00	 9.975954e+00
0	 1.000000e+01	 5.333333e+00	 9.978446e+00
0	 1.000000e+01	 5.407407e+00	 9.980787e+00
0	 1.000000e+01	 5.481481e+00	 9.982976e+00
0	 1.000000e+01	 5.555556e+00	 9.985013e+00
0	 9.629630e+00	 5.555556e+00	 9.990344e+00
0	 9.629630e+00	 5.629630e+00	 9.991920e+00
0	 9.629630e+00	 5.703704e+00	 9.993391e+00
0	 9.629630e+00	 5.777778e+00	 9.994754e+00
0	 9.629630e+00	 5.851852e+00	 9.996010e+00
0	 9.629630e+00	 5.925926e+00	 9.997157e+00
0	 9.703704e+00	 5.555556e+00	 9.988785e+00
0	 9.703704e+00	 5.629630e+00	 9.990434e+00
0	 9.703704e+00	 5.703704e+00	 9.991973e+00
0	 9.703704e+00	 5.777778e+00	 9.993399e+00
0	 9.703704e+00	 5.851852e+00	 9.994713e+00
0	 9.703704e+00	 5.925926e+00	 9.995913e+00
0	 9.777778e+00	 5.555556e+00	 9.987453e+00
0	 9.777778e+00	 5.629630e+00	 9.989171e+00
0	 9.777778e+00	 5.703704e+00	 9.990773e+00
0	 9.777778e+00	 5.777778e+00	 9.992258e+00
0	 9.777778e+00	 5.851852e+00	 9.993624e+00
0	 9.777778e+00	 5.925926e+00	 9.994871e+00
0	 9.851852e+00	 5.555556e+00	 9.986367e+00
0	 9.851852e+00	 5.629630e+00	 9.988150e+00
0	 9.851852e+00	 5.703704e+00	 9.989810e+00
0	 9.851852e+00	 5.777778e+00	 9.991346e+00
0	 9.851852e+00	 5.851852e+00	 9.992759e+00
0	 9.851852e+00	 5.925926e+00	 9.994046e+00
0	 9.925926e+00	 5.555556e+00	 9.985548e+00
0	 9.925926e+00	 5.629630e+00	 9.987389e+00
0	 9.925926e+00	 5.703704e+00	 9.989101e+00
0	 9.925926e+00	 5.777778e+00	 9.990683e+00
0	 9.925926e+00	 5.851852e+00	 9.992135e+00
0	 9.925926e+00	 5.925926e+00	 9.993456e+00
0	 1.000000e+01	 5.555556e+00	 9.985013e+00
0	 1.000000e+01	 5.629630e+00	 9.986906e+00
0	 1.000000e+01	 5.703704e+00	 9.988664e+00
0	 1.000000e+01	 5.777778e+00	 9.990285e+00
0	 1.000000e+01	 5.851852e+00	 9.991769e+00
0	 1.000000e+01	 5.925926e+00	 9.993115e+00
0	 9.629630e+00	 5.925926e+00	 9.997157e+00
0	 9.629630e+00	 6.000000e+00	 9.998205e+00
0	 9.629630e+00	 6.074074e+00	 9.999161e+00
0	 9.629630e+00	 6.148148e+00	 1.000002e+01
0	 9.629630e+00	 6.222222e+00	 1.000080e+01
0	 9.629630e+00	 6.296296e+00	 1.000147e+01
0	 9.703704e+00	 5.925926e+00	 9.995913e+00
0	 9.703704e+00	 6.000000e+00	 9.997009e+00
0	 9.703704e+00	 6.074074e+00	 9.998009e+00
0	 9.703704e+00	 6.148148e+00	 9.998913e+00
0	 9.703704e+00	 6.222222e+00	 9.999720e+00
0	 9.703704e+00	 6.296296e+00	 1.000043e+01
0	 9.777778e+00	 5.925926e+00	 9.994871e+00
0	 9.777778e+00	 6.000000e+00	 9.996009e+00
0	 9.777778e+00	 6.074074e+00	 9.997047e+00
0	 9.777778e+00	 6.148148e+00	 9.997984e+00
0	 9.777778e+00	 6.222222e+00	 9.998820e+00
0	 9.777778e+00	 6.296296e+00	 9.999553e+00
0	 9.851852e+00	 5.925926e+00	 9.994046e+00
0	 9.851852e+00	 6.000000e+00	 9.995219e+00
0	 9.851852e+00	 6.074074e+00	 9.996288e+00
0	 9.851852e+00	 6.148148e+00	 9.997251e+00
0	 9.851852e+00	 6.222222e+00	 9.998109e+00
0	 9.851852e+00	 6.296296e+00	 9.998858e+00
0	 9.925926e+00	 5.925926e+00	 9.993456e+00
0	 9.925926e+00	 6.000000e+00	 9.994657e+00
0	 9.925926e+00	 6.074074e+00	 9.995748e+00
0	 9.925926e+00	 6.148148e+00	 9.996729e+00
0	 9.925926e+00	 6.222222e+00	 9.997599e+00
0	 9.925926e+00	 6.296296e+00	 9.998357e+00
0	 1.000000e+01	 5.925926e+00	 9.993115e+00
0	 1.000000e+01	 6.000000e+00	 9.994336e+00
0	 1.000000e+01	 6.074074e+00	 9.995441e+00
0	 1.000000e+01	 6.148148e+00	 9.996431e+00
0	 1.000000e+01	 6.222222e+00	 9.997305e+00
0	 1.000000e+01	 6.296296e+00	 9.998061e+00
0	 9.629630e+00	 6.296296e+00	 1.000147e+01
0	 9.629630e+00	 6.370370e+00	 1.000207e+01
0	 9.629630e+00	 6.444444e+00	 1.000259e+01
0	 9.629630e+00	 6.518519e+00	 1.000304e+01
0	 9.629630e+00	 6.592593e+00	 1.000341e+01
0	 9.629630e+00	 6.666667e+00	 1.000370e+01
0	 9.703704e+00	 6.296296e+00	 1.000043e+01
0	 9.703704e+00	 6.370370e+00	 1.000105e+01
0	 9.703704e+00	 6.444444e+00	 1.000160e+01
0	 9.703704e+00	 6.518519e+00	 1.000207e+01
0	 9.703704e+00	 6.592593e+00	 1.000246e+01
0	 9.703704e+00	 6.666667e+00	 1.000277e+01
0	 9.777778e+00	 6.296296e+00	 9.999553e+00
0	 9.777778e+00	 6.370370e+00	 1.000020e+01
0	 9.777778e+00	 6.444444e+00	 1.000076e+01
0	 9.777778e+00	 6.518519e+00	 1.000124e+01
0	 9.777778e+00	 6.592593e+00	 1.000164e+01
0	 9.777778e+00	 6.666667e+00	 1.000196e+01
0	 9.851852e+00	 6.296296e+00	 9.998858e+00
0	 9.851852e+00	 6.370370e+00	 9.999514e+00
0	 9.851852e+00	 6.444444e+00	 1.000009e+01
0	 9.851852e+00	 6.518519e+00	 1.000057e+01
0	 9.851852e+00	 6.592593e+00	 1.000098e+01
0	 9.851852e+00	 6.666667e+00	 1.000130e+01
0	 9.925926e+00	 6.296296e+00	 9.998357e+00
0	 9.925926e+00	 6.370370e+00	 9.999015e+00
0	 9.925926e+00	 6.444444e+00	 9.999588e+00
0	 9.925926e+00	 6.518519e+00	 1.000007e+01
0	 9.925926e+00	 6.592593e+00	 1.000047e+01
0	 9.925926e+00	 6.666667e+00	 1.000078e+01
0	 1.000000e+01	 6.296296e+00	 9.998061e+00
0	 1.000000e+01	 6.370370e+00	 9.998713e+00
0	 1.000000e+01	 6.444444e+00	 9.999275e+00
0	 1.000000e+01	 6.518519e+00	 9.999747e+00
0	 1.000000e+01	 6.592593e+00	 1.000013e+01
0	 1.000000e+01	 6.666667e+00	 1.000041e+01
0	 9.629630e+00	 6.666667e+00	 1.000370e+01
0	 9.629630e+00	 6.740741e+00	 1.000393e+01
0	 9.629630e+00	 6.814815e+00	 1.000411e+01
0	 9.629630e+00	 6.888889e+00	 1.000424e+01
0	 9.629630e+00	 6.962963e+00	 1.000431e+01
0	 9.629630e+00	 7.037037e+00	 1.000432e+01
0	 9.703704e+00	 6.666667e+00	 1.000277e+01
0	 9.703704e+00	 6.740741e+00	 1.000301e+01
0	 9.703704e+00	 6.814815e+00	 1.000320e+01
0	 9.703704e+00	 6.888889e+00	 1.000334e+01
0	 9.703704e+00	 6.962963e+00	 1.000341e+01
0	 9.703704e+00	 7.037037e+00	 1.000343e+01
0	 9.777778e+00	 6.666667e+00	 1.000196e+01
0	 9.777778e+00	 6.740741e+00	 1.000221e+01
0	 9.777778e+00	 6.814815e+00	 1.000241e+01
0	 9.777778e+00	 6.888889e+00	 1.000254e+01
0	 9.777778e+00	 6.962963e+00	 1.000262e+01
0	 9.777778e+00	 7.037037e+00	 1.000263e+01
0	 9.851852e+00	 6.666667e+00	 1.000130e+01
0	 9.851852e+00	 6.740741e+00	 1.000154e+01
0	 9.851852e+00	 6.814815e+00	 1.000173e+01
0	 9.851852e+00	 6.888889e+00	 1.000186e+01
0	 9.851852e+00	 6.962963e+00	 1.000193e+01
0	 9.851852e+00	 7.037037e+00	 1.000193e+01
0	 9.925926e+00	 6.666667e+00	 1.000078e+01
0	 9.925926e+00	 6.740741e+00	 1.000101e+01
0	 9.925926e+00	 6.814815e+00	 1.000118e+01
0	 9.925926e+00	 6.888889e+00	 1.000129e+01
0	 9.925926e+00	 6.962963e+00	 1.000134e+01
0	 9.925926e+00	 7.037037e+00	 1.000132e+01
0	 1.000000e+01	 6.666667e+00	 1.000041e+01
0	 1.000000e+01	 6.740741e+00	 1.000062e+01
0	 1.000000e+01	 6.814815e+00	 1.000077e+01
0	 1.000000e+01	 6.888889e+00	 1.000085e+01
0	 1.000000e+01	 6.962963e+00	 1.000087e+01
0	 1.000000e+01	 7.037037e+00	 1.000082e+01
0	 9.629630e+00	 7.037037e+00	 1.000432e+01
0	 9.629630e+00	 7.111111e+00	 1.000429e+01
0	 9.629630e+00	 7.185185e+00	 1.000422e+01
0	 9.629630e+00	 7.259259e+00	 1.000412e+01
0	 9.629630e+00	 7.333333e+00	 1.000399e+01
0	 9.629630e+00	 7.407407e+00	 1.000382e+01
0	 9.703704e+00	 7.037037e+00	 1.000343e+01
0	 9.703704e+00	 7.111111e+00	 1.000340e+01
0	 9.703704e+00	 7.185185e+00	 1.000334e+01
0	 9.703704e+00	 7.259259e+00	 1.000325e+01
0	 9.703704e+00	 7.333333e+00	 1.000312e+01
0	 9.703704e+00	 7.407407e+00	 1.000295e+01
0	 9.777778e+00	 7.037037e+00	 1.000263e+01
0	 9.777778e+00	 7.111111e+00	 1.000260e+01
0	 9.777778e+00	 7.185185e+00	 1.000254e+01
0	 9.777778e+00	 7.259259e+00	 1.000244e+01
0	 9.777778e+00	 7.333333e+00	 1.000230e+01
0	 9.777778e+00	 7.407407e+00	 1.000213e+01
0	 9.851852e+00	 7.037037e+00	 1.000193e+01
0	 9.851852e+00	 7.111111e+00	 1.000189e+01
0	 9.851852e+00	 7.185185e+00	 1.000181e+01
0	 9.851852e+00	 7.259259e+00	 1.000170e+01
0	 9.851852e+00	 7.333333e+00	 1.000155e+01
0	 9.851852e+00	 7.407407e+00	 1.000136e+01
0	 9.925926e+00	 7.037037e+00	 1.000132e+01
0	 9.925926e+00	 7.111111e+00	 1.000126e+01
0	 9.925926e+00	 7.185185e+00	 1.000116e+01
0	 9.925926e+00	 7.259259e+00	 1.000102e+01
0	 9.925926e+00	 7.333333e+00	 1.000085e+01
0	 9.925926e+00	 7.407407e+00	 1.000064e+01
0	 1.000000e+01	 7.037037e+00	 1.000082e+01
0	 1.000000e+01	 7.111111e+00	 1.000072e+01
0	 1.000000e+01	 7.185185e+00	 1.000058e+01
0	 1.000000e+01	 7.259259e+00	 1.000041e+01
0	 1.000000e+01	 7.333333e+00	 1.000021e+01
0	 1.000000e+01	 7.407407e+00	 9.999962e+00
0	 9.629630e+00	 7.407407e+00	 1.000382e+01
0	 9.629630e+00	 7.481481e+00	 1.000362e+01
0	 9.629630e+00	 7.555556e+00	 1.000342e+01
0	 9.629630e+00	 7.629630e+00	 1.000319e+01
0	 9.629630e+00	 7.703704e+00	 1.000295e+01
0	 9.629630e+00	 7.777778e+00	 1.000270e+01
0	 9.703704e+00	 7.407407e+00	 1.000295e+01
0	 9.703704e+00	 7.481481e+00	 1.000276e+01
0	 9.703704e+00	 7.555556e+00	 1.000255e+01
0	 9.703704e+00	 7.629630e+00	 1.000233e+01
0	 9.703704e+00	 7.703704e+00	 1.000210e+01
0	 9.703704e+00	 7.777778e+00	 1.000185e+01
0	 9.777778e+00	 7.407407e+00	 1.000213e+01
0	 9.777778e+00	 7.481481e+00	 1.000193e+01
0	 9.777778e+00	 7.555556e+00	 1.000172e+01
0	 9.777778e+00	 7.629630e+00	 1.000150e+01
0	 9.777778e+00	 7.703704e+00	 1.000127e+01
0	 9.777778e+00	 7.777778e+00	 1.000102e+01
0	 9.851852e+00	 7.407407e+00	 1.000136e+01
0	 9.851852e+00	 7.481481e+00	 1.000115e+01
0	 9.851852e+00	 7.555556e+00	 1.000093e+01
0	 9.851852e+00	 7.629630e+00	 1.000069e+01
0	 9.851852e+00	 7.703704e+00	 1.000045e+01
0	 9.851852e+00	 7.777778e+00	 1.000019e+01
0	 9.925926e+00	 7.407407e+00	 1.000064e+01
0	 9.925926e+00	 7.481481e+00	 1.000040e+01
0	 9.925926e+00	 7.555556e+00	 1.000016e+01
0	 9.925926e+00	 7.629630e+00	 9.999906e+00
0	 9.925926e+00	 7.703704e+00	 9.999641e+00
0	 9.925926e+00	 7.777778e+00	 9.999362e+00
0	 1.000000e+01	 7.407407e+00	 9.999962e+00
0	 1.000000e+01	 7.481481e+00	 9.999694e+00
0	 1.000000e+01	 7.555556e+00	 9.999418e+00
0	 1.000000e+01	 7.629630e+00	 9.999133e+00
0	 1.000000e+01	 7.703704e+00	 9.998839e+00
0	 1.000000e+01	 7.777778e+00	 9.998533e+00
0	 9.629630e+00	 7.777778e+00	 1.000270e+01
0	 9.629630e+00	 7.851852e+00	 1.000244e+01
0	 9.629630e+00	 7.925926e+00	 1.000218e+01
0	 9.629630e+00	 8.000000e+00	 1.000192e+01
0	 9.629630e+00	 8.074074e+00	 1.000167e+01
0	 9.629630e+00	 8.148148e+00	 1.000141e+01
0	 9.703704e+00	 7.777778e+00	 1.000185e+01
0	 9.703704e+00	 7.851852e+00	 1.000160e+01
0	 9.703704e+00	 7.925926e+00	 1.000134e+01
0	 9.703704e+00	 8.000000e+00	 1.000110e+01
0	 9.703704e+00	 8.074074e+00	 1.000086e+01
0	 9.703704e+00	 8.148148e+00	 1.000061e+01
0	 9.777778e+00	 7.777778e+00	 1.000102e+01
0	 9.777778e+00	 7.851852e+00	 1.000076e+01
0	 9.777778e+00	 7.925926e+00	 1.000051e+01
0	 9.777778e+00	 8.000000e+00	 1.000027e+01
0	 9.777778e+00	 8.074074e+00	 1.000003e+01
0	 9.777778e+00	 8.148148e+00	 9.999802e+00
0	 9.851852e+00	 7.777778e+00	 1.000019e+01
0	 9.851852e+00	 7.851852e+00	 9.999925e+00
0	 9.851852e+00	 7.925926e+00	 9.999672e+00
0	 9.851852e+00	 8.000000e+00	 9.999428e+00
0	 9.851852e+00	 8.074074e+00	 9.999192e+00
0	 9.851852e+00	 8.148148e+00	 9.998963e+00
0	 9.925926e+00	 7.777778e+00	 9.999362e+00
0	 9.925926e+00	 7.851852e+00	 9.999084e+00
0	 9.925926e+00	 7.925926e+00	 9.998819e+00
0	 9.925926e+00	 8.000000e+00	 9.998565e+00
0	 9.925926e+00	 8.074074e+00	 9.998322e+00
0	 9.925926e+00	 8.148148e+00	 9.998089e+00
0	 1.000000e+01	 7.777778e+00	 9.998533e+00
0	 1.000000e+01	 7.851852e+00	 9.998230e+00
0	 1.000000e+01	 7.925926e+00	 9.997943e+00
0	 1.000000e+01	 8.000000e+00	 9.997671e+00
0	 1.000000e+01	 8.074074e+00	 9.997413e+00
0	 1.000000e+01	 8.148148e+00	 9.997169e+00
0	 9.629630e+00	 8.148148e+00	 1.000141e+01
0	 9.629630e+00	 8.222222e+00	 1.000116e+01
0	 9.629630e+00	 8.296296e+00	 1.000093e+01
0	 9.629630e+00	 8.370370e+00	 1.000072e+01
0	 9.629630e+00	 8.444444e+00	 1.000051e+01
0	 9.629630e+00	 8.518519e+00	 1.000032e+01
0	 9.703704e+00	 8.148148e+00	 1.000061e+01
0	 9.703704e+00	 8.222222e+00	 1.000038e+01
0	 9.703704e+00	 8.296296e+00	 1.000017e+01
0	 9.703704e+00	 8.370370e+00	 9.999974e+00
0	 9.703704e+00	 8.444444e+00	 9.999794e+00
0	 9.703704e+00	 8.518519e+00	 9.999630e+00
0	 9.777778e+00	 8.148148e+00	 9.999802e+00
0	 9.777778e+00	 8.222222e+00	 9.999582e+00
0	 9.777778e+00	 8.296296e+00	 9.999384e+00
0	 9.777778e+00	 8.370370e+00	 9.999205e+00
0	 9.777778e+00	 8.444444e+00	 9.999046e+00
0	 9.777778e+00	 8.518519e+00	 9.998905e+00
0	 9.851852e+00	 8.148148e+00	 9.998963e+00
0	 9.851852e+00	 8.222222e+00	 9.998750e+00
0	 9.851852e+00	 8.296296e+00	 9.998561e+00
0	 9.851852e+00	 8.370370e+00	 9.998395e+00
0	 9.851852e+00	 8.444444e+00	 9.998253e+00
0	 9.851852e+00	 8.518519e+00	 9.998134e+00
0	 9.925926e+00	 8.148148e+00	 9.998089e+00
0	 9.925926e+00	 8.222222e+00	 9.997875e+00
0	 9.925926e+00	 8.296296e+00	 9.997690e+00
0	 9.925926e+00	 8.370370e+00	 9.997534e+00
0	 9.925926e+00	 8.444444e+00	 9.997405e+00
0	 9.925926e+00	 8.518519e+00	 9.997304e+00
0	 1.000000e+01	 8.148148e+00	 9.997169e+00
0	 1.000000e+01	 8.222222e+00	 9.996947e+00
0	 1.000000e+01	 8.296296e+00	 9.996761e+00
0	 1.000000e+01	 8.370370e+00	 9.996608e+00
0	 1.000000e+01	 8.444444e+00	 9.996489e+00
0	 1.000000e+01	 8.518519e+00	 9.996402e+00
0	 9.629630e+00	 8.518519e+00	 1.000032e+01
0	 9.629630e+00	 8.592593e+00	 1.000015e+01
0	 9.629630e+00	 8.666667e+00	 9.999996e+00
0	 9.629630e+00	 8.740741e+00	 9.999866e+00
0	 9.629630e+00	 8.814815e+00	 9.999756e+00
0	 9.629630e+00	 8.888889e+00	 9.999666e+00
0	 9.703704e+00	 8.518519e+00	 9.999630e+00
0	 9.703704e+00	 8.592593e+00	 9.999486e+00
0	 9.703704e+00	 8.666667e+00	 9.999365e+00
0	 9.703704e+00	 8.740741e+00	 9.999269e+00
0	 9.703704e+00	 8.814815e+00	 9.999196e+00
0	 9.703704e+00	 8.888889e+00	 9.999147e+00
0	 9.777778e+00	 8.518519e+00	 9.998905e+00
0	 9.777778e+00	 8.592593e+00	 9.998788e+00
0	 9.777778e+00	 8.666667e+00	 9.998698e+00
0	 9.777778e+00	 8.740741e+00	 9.998635e+00
0	 9.777778e+00	 8.814815e+00	 9.998600e+00
0	 9.777778e+00	 8.888889e+00	 9.998591e+00
0	 9.851852e+00	 8.518519e+00	 9.998134e+00
0	 9.851852e+00	 8.592593e+00	 9.998042e+00
0	 9.851852e+00	 8.666667e+00	 9.997981e+00
0	 9.851852e+00	 8.740741e+00	 9.997951e+00
0	 9.851852e+00	 8.814815e+00	 9.997953e+00
0	 9.851852e+00	 8.888889e+00	 9.997985e+00
0	 9.925926e+00	 8.518519e+00	 9.997304e+00
0	 9.925926e+00	 8.592593e+00	 9.997234e+00
0	 9.925926e+00	 8.666667e+00	 9.997201e+00
0	 9.925926e+00	 8.740741e+00	 9.997204e+00
0	 9.925926e+00	 8.814815e+00	 9.997243e+00
0	 9.925926e+00	 8.888889e+00	 9.997317e+00
0	 1.000000e+01	 8.518519e+00	 9.996402e+00
0	 1.000000e+01	 8.592593e+00	 9.996353e+00
0	 1.000000e+01	 8.666667e+00	 9.996346e+00
0	 1.000000e+01	 8.740741e+00	 9.996380e+00
0	 1.000000e+01	 8.814815e+00	 9.996456e+00
0	 1.000000e+01	 8.888889e+00	 9.996574e+00
0	 9.629630e+00	 8.888889e+00	 9.999666e+00
0	 9.629630e+00	 8.962963e+00	 9.999596e+00
0	 9.629630e+00	 9.037037e+00	 9.999546e+00
0	 9.629630e+00	 9.111111e+00	 9.999514e+00
0	 9.629630e+00	 9.185185e+00	 9.999500e+00
0	 9.629630e+00	 9.259259e+00	 9.999506e+00
0	 9.703704e+00	 8.888889e+00	 9.999147e+00
0	 9.703704e+00	 8.962963e+00	 9.999119e+00
0	 9.703704e+00	 9.037037e+00	 9.999110e+00
0	 9.703704e+00	 9.111111e+00	 9.999121e+00
0	 9.703704e+00	 9.185185e+00	 9.999152e+00
0	 9.703704e+00	 9.259259e+00	 9.999203e+00
0	 9.777778e+00	 8.888889e+00	 9.998591e+00
0	 9.777778e+00	 8.962963e+00	 9.998606e+00
0	 9.777778e+00	 9.037037e+00	 9.998642e+00
0	 9.777778e+00	 9.111111e+00	 9.998699e+00
0	 9.777778e+00	 9.185185e+00	 9.998778e+00
0	 9.777778e+00	 9.259259e+00	 9.998879e+00
0	 9.851852e+00	 8.888889e+00	 9.997985e+00
0	 9.851852e+00	 8.962963e+00	 9.998045e+00
0	 9.851852e+00	 9.037037e+00	 9.998129e+00
0	 9.851852e+00	 9.111111e+00	 9.998237e+00
0	 9.851852e+00	 9.185185e+00	 9.998371e+00
0	 9.851852e+00	 9.259259e+00	 9.998530e+00
0	 9.925926e+00	 8.888889e+00	 9.997317e+00
0	 9.925926e+00	 8.962963e+00	 9.997424e+00
0	 9.925926e+00	 9.037037e+00	 9.997560e+00
0	 9.925926e+00	 9.111111e+00	 9.997727e+00
0	 9.925926e+00	 9.185185e+00	 9.997924e+00
0	 9.925926e+00	 9.259259e+00	 9.998152e+00
0	 1.000000e+01	 8.888889e+00	 9.996574e+00
0	 1.000000e+01	 8.962963e+00	 9.996730e+00
0	 1.000000e+01	 9.037037e+00	 9.996924e+00
0	 1.000000e+01	 9.111111e+00	 9.997157e+00
0	 1.000000e+01	 9.185185e+00	 9.997430e+00
0	 1.000000e+01	 9.259259e+00	 9.997743e+00
0	 9.629630e+00	 9.259259e+00	 9.999506e+00
0	 9.629630e+00	 9.333333e+00	 9.999527e+00
0	 9.629630e+00	 9.407407e+00	 9.999561e+00
0	 9.629630e+00	 9.481481e+00	 9.999608e+00
0	 9.629630e+00	 9.555556e+00	 9.999670e+00
0	 9.629630e+00	 9.629630e+00	 9.999746e+00
0	 9.703704e+00	 9.259259e+00	 9.999203e+00
0	 9.703704e+00	 9.333333e+00	 9.999269e+00
0	 9.703704e+00	 9.407407e+00	 9.999345e+00
0	 9.703704e+00	 9.481481e+00	 9.999432e+00
0	 9.703704e+00	 9.555556e+00	 9.999529e+00
0	 9.703704e+00	 9.629630e+00	 9.999638e+00
0	 9.777778e+00	 9.259259e+00	 9.998879e+00
0	 9.777778e+00	 9.333333e+00	 9.998994e+00
0	 9.777778e+00	 9.407407e+00	 9.999116e+00
0	 9.777778e+00	 9.481481e+00	 9.999246e+00
0	 9.777778e+00	 9.555556e+00	 9.999383e+00
0	 9.777778e+00	 9.629630e+00	 9.999527e+00
0	 9.851852e+00	 9.259259e+00	 9.998530e+00
0	 9.851852e+00	 9.333333e+00	 9.998703e+00
0	 9.851852e+00	 9.407407e+00	 9.998880e+00
0	 9.851852e+00	 9.481481e+00	 9.999060e+00
0	 9.851852e+00	 9.555556e+00	 9.999244e+00
0	 9.851852e+00	 9.629630e+00	 9.999434e+00
0	 9.925926e+00	 9.259259e+00	 9.998152e+00
0	 9.925926e+00	 9.333333e+00	 9.998397e+00
0	 9.925926e+00	 9.407407e+00	 9.998640e+00
0	 9.925926e+00	 9.481481e+00	 9.998883e+00
0	 9.925926e+00	 9.555556e+00	 9.999129e+00
0	 9.925926e+00	 9.629630e+00	 9.999377e+00
0	 1.000000e+01	 9.259259e+00	 9.997743e+00
0	 1.000000e+01	 9.333333e+00	 9.998075e+00
0	 1.000000e+01	 9.407407e+00	 9.998401e+00
0	 1.000000e+01	 9.481481e+00	 9.998726e+00
0	 1.000000e+01	 9.555556e+00	 9.999050e+00
0	 1.000000e+01	 9.629630e+00	 9.999376e+00
0	 9.629630e+00	 9.629630e+00	 9.999746e+00
0	 9.629630e+00	 9.703704e+00	 9.999817e+00
0	 9.629630e+00	 9.777778e+00	 9.999873e+00
0	 9.629630e+00	 9.851852e+00	 9.999921e+00
0	 9.629630e+00	 9.925926e+00	 9.999973e+00
0	 9.629630e+00	 1.000000e+01	 1.000004e+01
0	 9.703704e+00	 9.629630e+00	 9.999638e+00
0	 9.703704e+00	 9.703704e+00	 9.999738e+00
0	 9.703704e+00	 9.777778e+00	 9.999818e+00
0	 9.703704e+00	 9.851852e+00	 9.999888e+00
0	 9.703704e+00	 9.925926e+00	 9.999960e+00
0	 9.703704e+00	 1.000000e+01	 1.000004e+01
0	 9.777778e+00	 9.629630e+00	 9.999527e+00
0	 9.777778e+00	 9.703704e+00	 9.999660e+00
0	 9.777778e+00	 9.777778e+00	 9.999766e+00
0	 9.777778e+00	 9.851852e+00	 9.999857e+00
0	 9.777778e+00	 9.925926e+00	 9.999943e+00
0	 9.777778e+00	 1.000000e+01	 1.000004e+01
0	 9.851852e+00	 9.629630e+00	 9.999434e+00
0	 9.851852e+00	 9.703704e+00	 9.999605e+00
0	 9.851852e+00	 9.777778e+00	 9.999740e+00
0	 9.851852e+00	 9.851852e+00	 9.999848e+00
0	 9.851852e+00	 9.925926e+00	 9.999941e+00
0	 9.851852e+00	 1.000000e+01	 1.000003e+01
0	 9.925926e+00	 9.629630e+00	 9.999377e+00
0	 9.925926e+00	 9.703704e+00	 9.999598e+00
0	 9.925926e+00	 9.777778e+00	 9.999765e+00
0	 9.925926e+00	 9.851852e+00	 9.999886e+00
0	 9.925926e+00	 9.925926e+00	 9.999969e+00
0	 9.925926e+00	 1.000000e+01	 1.000002e+01
0	 1.000000e+01	 9.629630e+00	 9.999376e+00
0	 1.000000e+01	 9.703704e+00	 9.999661e+00
0	 1.000000e+01	 9.777778e+00	 9.999865e+00
0	 1.000000e+01	 9.851852e+00	 9.999992e+00
0	 1.000000e+01	 9.925926e+00	 1.000005e+01
0	 1.000000e+01	 1.000000e+01	 1.000003e+01
1	 1.000000e+00	 0.000000e+00	 3.174570e+01
1	 9.999449e-01	 1.049814e-02	 3.165105e+01
1	 9.997786e-01	 2.104029e-02	 3.155040e+01
1	 9.994998e-01	 3.162495e-02	 3.144309e+01
1	 9.991070e-01	 4.225058e-02	 3.132856e+01
1	 9.985990e-01	 5.291561e-02	 3.120625e+01
1	 1.007407e+00	 0.000000e+00	 3.127565e+01
1	 1.007352e+00	 1.057591e-02	 3.117780e+01
1	 1.007184e+00	 2.119614e-02	 3.107541e+01
1	 1.006904e+00	 3.185921e-02	 3.096789e+01
1	 1.006508e+00	 4.256355e-02	 3.085466e+01
1	 1.005996e+00	 5.330758e-02	 3.073520e+01
1	 1.014815e+00	 0.000000e+00	 3.082432e+01
1	 1.014759e+00	 1.065367e-02	 3.072334e+01
1	 1.014590e+00	 2.135200e-02	 3.061925e+01
1	 1.014307e+00	 3.209346e-02	 3.051147e+01
1	 1.013909e+00	 4.287651e-02	 3.039942e+01
1	 1.013393e+00	 5.369955e-02	 3.028258e+01
1	 1.022222e+00	 0.000000e+00	 3.039054e+01
1	 1.022166e+00	 1.073144e-02	 3.028641e+01
1	 1.021996e+00	 2.150785e-02	 3.018059e+01
1	 1.021711e+00	 3.232772e-02	 3.007247e+01
1	 1.021309e+00	 4.318948e-02	 2.996148e+01
1	 1.020790e+00	 5.409151e-02	 2.984707e+01
1	 1.029630e+00	 0.000000e+00	 2.997322e+01
1	 1.029573e+00	 1.080920e-02	 2.986581e+01
1	 1.029402e+00	 2.166371e-02	 2.975814e+01
1	 1.029115e+00	 3.256198e-02	 2.964958e+01
1	 1.028710e+00	 4.350245e-02	 2.953952e+01
1	 1.028187e+00	 5.448348e-02	 2.942737e+01
1	 1.037037e+00	 0.000000e+00	 2.957126e+01
1	 1.036980e+00	 1.088696e-02	 2.946035e+01
1	 1.036807e+00	 2.181956e-02	 2.935066e+01
1	 1.036518e+00	 3.279624e-02	 2.924152e+01
1	 1.036111e+00	 4.381542e-02	 2.913226e+01
1	 1.035584e+00	 5.487545e-02	 2.902224e+01
1	 9.985990e-01	 5.291561e-02	 3.120625e+01
1	 9.979743e-01	 6.361843e-02	 3.107622e+01
1	 9.972317e-01	 7.435736e-02	 3.093850e+01
1	 9.963698e-01	 8.513072e-02	 3.079266e+01
1	 9.953874e-01	 9.593675e-02	 3.063825e+01
1	 9.942834e-01	 1.067737e-01	 3.047489e+01
1	 1.005996e+00	 5.330758e-02	 3.073520e+01
1	 1.005367e+00	 6.408967e-02	 3.060937e+01
1	 1.004619e+00	 7.490816e-02	 3.047698e+01
1	 1.003750e+00	 8.576131e-02	 3.033750e+01
1	 1.002761e+00	 9.664739e-02	 3.019045e+01
1	 1.001648e+00	 1.075646e-01	 3.003537e+01
1	 1.013393e+00	 5.369955e-02	 3.028258e+01
1	 1.012759e+00	 6.456092e-02	 3.016071e+01
1	 1.012005e+00	 7.545895e-02	 3.003347e+01
1	 1.011131e+00	 8.639191e-02	 2.990030e+01
1	 1.010134e+00	 9.735803e-02	 2.976062e+01
1	 1.009013e+00	 1.083555e-01	 2.961393e+01
1	 1.020790e+00	 5.409151e-02	 2.984707e+01
1	 1.020152e+00	 6.503217e-02	 2.972894e+01
1	 1.019392e+00	 7.600975e-02	 2.960673e+01
1	 1.018511e+00	 8.702251e-02	 2.947978e+01
1	 1.017507e+00	 9.806867e-02	 2.934746e+01
1	 1.016379e+00	 1.091464e-01	 2.920921e+01
1	 1.028187e+00	 5.448348e-02	 2.942737e+01
1	 1.027544e+00	 6.550342e-02	 2.931284e+01
1	 1.026779e+00	 7.656054e-02	 2.919552e+01
1	 1.025892e+00	 8.765311e-02	 2.907471e+01
1	 1.024880e+00	 9.877932e-02	 2.894972e+01
1	 1.023744e+00	 1.099373e-01	 2.881992e+01
1	 1.035584e+00	 5.487545e-02	 2.902224e+01
1	 1.034936e+00	 6.597466e-02	 2.891117e+01
1	 1.034166e+00	 7.711134e-02	 2.879864e+01
1	 1.033272e+00	 8.828371e-02	 2.868389e+01
1	 1.032254e+00	 9.948996e-02	 2.856617e+01
1	 1.031109e+00	 1.107283e-01	 2.844478e+01
1	 9.942834e-01	 1.067737e-01	 3.047489e+01
1	 9.930563e-01	 1.176397e-01	 3.030183e+01
1	 9.917053e-01	 1.285329e-01	 3.011830e+01
1	 9.902289e-01	 1.394514e-01	 2.992382e+01
1	 9.886263e-01	 1.503932e-01	 2.971801e+01
1	 9.868962e-01	 1.613564e-01	 2.950054e+01
1	 1.001648e+00	 1.075646e-01	 3.003537e+01
1	 1.000412e+00	 1.185111e-01	 2.987166e+01
1	 9.990512e-01	 1.294850e-01	 2.969866e+01
1	 9.975640e-01	 1.404843e-01	 2.951588e+01
1	 9.959494e-01	 1.515072e-01	 2.932288e+01
1	 9.942065e-01	 1.625517e-01	 2.911928e+01
1	 1.009013e+00	 1.083555e-01	 2.961393e+01
1	 1.007768e+00	 1.193825e-01	 2.945965e+01
1	 1.006397e+00	 1.304371e-01	 2.929718e+01
1	 1.004899e+00	 1.415173e-01	 2.912598e+01
1	 1.003273e+00	 1.526213e-01	 2.894553e+01
1	 1.001517e+00	 1.637469e-01	 2.875541e+01
1	 1.016379e+00	 1.091464e-01	 2.920921e+01
1	 1.015124e+00	 1.202539e-01	 2.906443e+01
1	 1.013743e+00	 1.313891e-01	 2.891247e+01
1	 1.012234e+00	 1.425503e-01	 2.875274e+01
1	 1.010596e+00	 1.537353e-01	 2.858466e+01
1	 1.008827e+00	 1.649421e-01	 2.840773e+01
1	 1.023744e+00	 1.099373e-01	 2.881992e+01
1	 1.022480e+00	 1.211253e-01	 2.868464e+01
1	 1.021089e+00	 1.323412e-01	 2.854317e+01
1	 1.019569e+00	 1.435833e-01	 2.839483e+01
1	 1.017919e+00	 1.548493e-01	 2.823899e+01
1	 1.016138e+00	 1.661374e-01	 2.807508e+01
1	 1.031109e+00	 1.107283e-01	 2.844478e+01
1	 1.029836e+00	 1.219967e-01	 2.831898e+01
1	 1.028435e+00	 1.332933e-01	 2.818795e+01
1	 1.026904e+00	 1.446162e-01	 2.805096e+01
1	 1.025242e+00	 1.559633e-01	 2.790729e+01
1	 1.023448e+00	 1.673326e-01	 2.775631e+01
1	 9.868962e-01	 1.613564e-01	 2.950054e+01
1	 9.850377e-01	 1.723390e-01	 2.927109e+01
1	 9.830498e-01	 1.833389e-01	 2.902953e+01
1	 9.809315e-01	 1.943540e-01	 2.877589e+01
1	 9.786818e-01	 2.053822e-01	 2.851027e+01
1	 9.763001e-01	 2.164213e-01	 2.823280e+01
1	 9.942065e-01	 1.625517e-01	 2.911928e+01
1	 9.923343e-01	 1.736156e-01	 2.890449e+01
1	 9.903316e-01	 1.846970e-01	 2.867816e+01
1	 9.881976e-01	 1.957937e-01	 2.844029e+01
1	 9.859313e-01	 2.069035e-01	 2.819096e+01
1	 9.835319e-01	 2.180244e-01	 2.793029e+01
1	 1.001517e+00	 1.637469e-01	 2.875541e+01
1	 9.996308e-01	 1.748922e-01	 2.855488e+01
1	 9.976135e-01	 1.860550e-01	 2.834345e+01
1	 9.954638e-01	 1.972333e-01	 2.812110e+01
1	 9.931808e-01	 2.084249e-01	 2.788788e+01
1	 9.907638e-01	 2.196275e-01	 2.764387e+01
1	 1.008827e+00	 1.649421e-01	 2.840773e+01
1	 1.006927e+00	 1.761688e-01	 2.822115e+01
1	 1.004895e+00	 1.874131e-01	 2.802437e+01
1	 1.002730e+00	 1.986730e-01	 2.781733e+01
1	 1.000430e+00	 2.099462e-01	 2.760002e+01
1	 9.979956e-01	 2.212306e-01	 2.737251e+01
1	 1.016138e+00	 1.661374e-01	 2.807508e+01
1	 1.014224e+00	 1.774454e-01	 2.790225e+01
1	 1.012177e+00	 1.887712e-01	 2.771992e+01
1	 1.009996e+00	 2.001126e-01	 2.752800e+01
1	 1.007680e+00	 2.114676e-01	 2.732643e+01
1	 1.005227e+00	 2.228337e-01	 2.711523e+01
1	 1.023448e+00	 1.673326e-01	 2.775631e+01
1	 1.021521e+00	 1.787220e-01	 2.759712e+01
1	 1.019459e+00	 1.901292e-01	 2.742913e+01
1	 1.017262e+00	 2.015523e-01	 2.725217e+01
1	 1.014929e+00	 2.129889e-01	 2.706616e+01
1	 1.012459e+00	 2.244369e-01	 2.687106e+01
1	 9.763001e-01	 2.164213e-01	 2.823280e+01
1	 9.737853e-01	 2.274691e-01	 2.794232e+01
1	 9.711368e-01	 2.385234e-01	 2.763773e+01
1	 9.683537e-01	 2.495819e-01	 2.731933e+01
1	 9.654354e-01	 2.606423e-01	 2.698744e+01
1	 9.623813e-01	 2.717024e-01	 2.664247e+01
1	 9.835319e-01	 2.180244e-01	 2.793029e+01
1	 9.809985e-01	 2.291540e-01	 2.765707e+01
1	 9.783304e-01	 2.402902e-01	 2.737012e+01
1	 9.755267e-01	 2.514306e-01	 2.706964e+01
1	 9.725868e-01	 2.625730e-01	 2.675589e+01
1	 9.695101e-01	 2.737150e-01	 2.642920e+01
1	 9.907638e-01	 2.196275e-01	 2.764387e+01
1	 9.882118e-01	 2.308390e-01	 2.738775e+01
1	 9.855240e-01	 2.420570e-01	 2.711816e+01
1	 9.826997e-01	 2.532794e-01	 2.683526e+01
1	 9.797382e-01	 2.645037e-01	 2.653925e+01
1	 9.766388e-01	 2.757276e-01	 2.623038e+01
1	 9.979956e-01	 2.212306e-01	 2.737251e+01
1	 9.954250e-01	 2.325239e-01	 2.713328e+01
1	 9.927176e-01	 2.438239e-01	 2.688077e+01
1	 9.898727e-01	 2.551281e-01	 2.661509e+01
1	 9.868896e-01	 2.664344e-01	 2.633641e+01
1	 9.837676e-01	 2.777402e-01	 2.604492e+01
1	 1.005227e+00	 2.228337e-01	 2.711523e+01
1	 1.002638e+00	 2.342089e-01	 2.689265e+01
1	 9.999112e-01	 2.455907e-01	 2.665689e+01
1	 9.970457e-01	 2.569769e-01	 2.640806e+01
1	 9.940409e-01	 2.683651e-01	 2.614629e+01
1	 9.908963e-01	 2.797528e-01	 2.587174e+01
1	 1.012459e+00	 2.244369e-01	 2.687106e+01
1	 1.009851e+00	 2.358938e-01	 2.666485e+01
1	 1.007105e+00	 2.473576e-01	 2.644551e+01
1	 1.004219e+00	 2.588256e-01	 2.621314e+01
1	 1.001192e+00	 2.702957e-01	 2.596784e+01
1	 9.980251e-01	 2.817654e-01	 2.570980e+01
1	 9.623813e-01	 2.717024e-01	 2.664247e+01
1	 9.591908e-01	 2.827597e-01	 2.628483e+01
1	 9.558632e-01	 2.938119e-01	 2.591542e+01
1	 9.523983e-01	 3.048566e-01	 2.553554e+01
1	 9.487954e-01	 3.158914e-01	 2.514653e+01
1	 9.450542e-01	 3.269137e-01	 2.474987e+01
1	 9.695101e-01	 2.737150e-01	 2.642920e+01
1	 9.662959e-01	 2.848542e-01	 2.609010e+01
1	 9.629437e-01	 2.959883e-01	 2.573977e+01
1	 9.594531e-01	 3.071148e-01	 2.537952e+01
1	 9.558235e-01	 3.182313e-01	 2.501078e+01
1	 9.520546e-01	 3.293353e-01	 2.463506e+01
1	 9.766388e-01	 2.757276e-01	 2.623038e+01
1	 9.734010e-01	 2.869488e-01	 2.590937e+01
1	 9.700242e-01	 2.981647e-01	 2.557762e+01
1	 9.665079e-01	 3.093730e-01	 2.523648e+01
1	 9.628516e-01	 3.205713e-01	 2.488742e+01
1	 9.590550e-01	 3.317569e-01	 2.453198e+01
1	 9.837676e-01	 2.777402e-01	 2.604492e+01
1	 9.805061e-01	 2.890433e-01	 2.574154e+01
1	 9.771047e-01	 3.003411e-01	 2.542789e+01
1	 9.735627e-01	 3.116312e-01	 2.510535e+01
1	 9.698797e-01	 3.229112e-01	 2.477540e+01
1	 9.660554e-01	 3.341785e-01	 2.443960e+01
1	 9.908963e-01	 2.797528e-01	 2.587174e+01
1	 9.876112e-01	 2.911378e-01	 2.558554e+01
1	 9.841851e-01	 3.025175e-01	 2.528953e+01
1	 9.806175e-01	 3.138894e-01	 2.498510e+01
1	 9.769078e-01	 3.252511e-01	 2.467371e+01
1	 9.730558e-01	 3.366001e-01	 2.435693e+01
1	 9.980251e-01	 2.817654e-01	 2.570980e+01
1	 9.947164e-01	 2.932323e-01	 2.544034e+01
1	 9.912656e-01	 3.046939e-01	 2.516152e+01
1	 9.876723e-01	 3.161476e-01	 2.487472e+01
1	 9.839359e-01	 3.275911e-01	 2.458137e+01
1	 9.800562e-01	 3.390217e-01	 2.428301e+01
1	 9.450542e-01	 3.269137e-01	 2.474987e+01
1	 9.411744e-01	 3.379212e-01	 2.434252e+01
1	 9.371557e-01	 3.489113e-01	 2.392069e+01
1	 9.329980e-01	 3.598816e-01	 2.348466e+01
1	 9.287010e-01	 3.708294e-01	 2.303462e+01
1	 9.242647e-01	 3.817523e-01	 2.257060e+01
1	 9.520546e-01	 3.293353e-01	 2.463506e+01
1	 9.481461e-01	 3.404243e-01	 2.424802e+01
1	 9.440976e-01	 3.514959e-01	 2.384446e+01
1	 9.399091e-01	 3.625474e-01	 2.342457e+01
1	 9.355803e-01	 3.735763e-01	 2.298843e+01
1	 9.311111e-01	 3.845801e-01	 2.253599e+01
1	 9.590550e-01	 3.317569e-01	 2.453198e+01
1	 9.551177e-01	 3.429275e-01	 2.416443e+01
1	 9.510395e-01	 3.540804e-01	 2.377813e+01
1	 9.468202e-01	 3.652132e-01	 2.337320e+01
1	 9.424595e-01	 3.763232e-01	 2.294965e+01
1	 9.379575e-01	 3.874079e-01	 2.250731e+01
1	 9.660554e-01	 3.341785e-01	 2.443960e+01
1	 9.620894e-01	 3.454306e-01	 2.409076e+01
1	 9.579814e-01	 3.566649e-01	 2.372076e+01
1	 9.537313e-01	 3.678790e-01	 2.332966e+01
1	 9.493388e-01	 3.790701e-01	 2.291740e+01
1	 9.448039e-01	 3.902357e-01	 2.248376e+01
1	 9.730558e-01	 3.366001e-01	 2.435693e+01
1	 9.690610e-01	 3.479337e-01	 2.402605e+01
1	 9.649233e-01	 3.592495e-01	 2.367141e+01
1	 9.606424e-01	 3.705447e-01	 2.329305e+01
1	 9.562181e-01	 3.818170e-01	 2.289086e+01
1	 9.516503e-01	 3.930635e-01	 2.246454e+01
1	 9.800562e-01	 3.390217e-01	 2.428301e+01
1	 9.760327e-01	 3.504368e-01	 2.396936e+01
1	 9.718652e-01	 3.618340e-01	 2.362920e+01
1	 9.675535e-01	 3.732105e-01	 2.326252e+01
1	 9.630973e-01	 3.845639e-01	 2.286919e+01
1	 9.584967e-01	 3.958913e-01	 2.244888e+01
1	 9.242647e-01	 3.817523e-01	 2.257060e+01
1	 9.196890e-01	 3.926477e-01	 2.208039e+01
1	 9.149739e-01	 4.035130e-01	 2.155232e+01
1	 9.101196e-01	 4.143457e-01	 2.098727e+01
1	 9.051262e-01	 4.251431e-01	 2.038606e+01
1	 8.999938e-01	 4.359027e-01	 1.974951e+01
1	 9.311111e-01	 3.845801e-01	 2.253599e+01
1	 9.265015e-01	 3.955562e-01	 2.205551e+01
1	 9.217515e-01	 4.065020e-01	 2.153597e+01
1	 9.168612e-01	 4.174149e-01	 2.097827e+01
1	 9.118308e-01	 4.282923e-01	 2.038326e+01
1	 9.066604e-01	 4.391316e-01	 1.975183e+01
1	 9.379575e-01	 3.874079e-01	 2.250731e+01
1	 9.333140e-01	 3.984647e-01	 2.203508e+01
1	 9.285291e-01	 4.094910e-01	 2.152263e+01
1	 9.236028e-01	 4.204841e-01	 2.097089e+01
1	 9.185354e-01	 4.314415e-01	 2.038078e+01
1	 9.133271e-01	 4.423605e-01	 1.975320e+01
1	 9.448039e-01	 3.902357e-01	 2.248376e+01
1	 9.401265e-01	 4.013732e-01	 2.201833e+01
1	 9.353067e-01	 4.124800e-01	 2.151157e+01
1	 9.303445e-01	 4.235534e-01	 2.096446e+01
1	 9.252401e-01	 4.345907e-01	 2.037796e+01
1	 9.199937e-01	 4.455894e-01	 1.975301e+01
1	 9.516503e-01	 3.930635e-01	 2.246454e+01
1	 9.469390e-01	 4.042817e-01	 2.200451e+01
1	 9.420842e-01	 4.154690e-01	 2.150210e+01
1	 9.370861e-01	 4.266226e-01	 2.095832e+01
1	 9.319447e-01	 4.377399e-01	 2.037418e+01
1	 9.266603e-01	 4.488183e-01	 1.975067e+01
1	 9.584967e-01	 3.958913e-01	 2.244888e+01
1	 9.537515e-01	 4.071902e-01	 2.199290e+01
1	 9.488618e-01	 4.184580e-01	 2.149353e+01
1	 9.438277e-01	 4.296918e-01	 2.095182e+01
1	 9.386493e-01	 4.408891e-01	 2.036882e+01
1	 9.333269e-01	 4.520472e-01	 1.974559e+01
1	 8.999938e-01	 4.359027e-01	 1.974951e+01
1	 8.947229e-01	 4.466218e-01	 1.908791e+01
1	 8.893136e-01	 4.572978e-01	 1.841120e+01
1	 8.837665e-01	 4.679282e-01	 1.771963e+01
1	 8.780819e-01	 4.785104e-01	 1.701345e+01
1	 8.722604e-01	 4.890417e-01	 1.629289e+01
1	 9.066604e-01	 4.391316e-01	 1.975183e+01
1	 9.013504e-01	 4.499301e-01	 1.909441e+01
1	 8.959011e-01	 4.606852e-01	 1.842107e+01
1	 8.903129e-01	 4.713944e-01	 1.773211e+01
1	 8.845862e-01	 4.820549e-01	 1.702776e+01
1	 8.787216e-01	 4.926642e-01	 1.630829e+01
1	 9.133271e-01	 4.423605e-01	 1.975320e+01
1	 9.079780e-01	 4.532384e-01	 1.909875e+01
1	 9.024886e-01	 4.640726e-01	 1.842763e+01
1	 8.968593e-01	 4.748605e-01	 1.774012e+01
1	 8.910905e-01	 4.855994e-01	 1.703648e+01
1	 8.851828e-01	 4.962867e-01	 1.631697e+01
1	 9.199937e-01	 4.455894e-01	 1.975301e+01
1	 9.146056e-01	 4.565467e-01	 1.910037e+01
1	 9.090761e-01	 4.674600e-01	 1.843030e+01
1	 9.034057e-01	 4.783267e-01	 1.774311e+01
1	 8.975948e-01	 4.891440e-01	 1.703904e+01
1	 8.916440e-01	 4.999093e-01	 1.631837e+01
1	 9.266603e-01	 4.488183e-01	 1.975067e+01
1	 9.212332e-01	 4.598550e-01	 1.909866e+01
1	 9.156636e-01	 4.708474e-01	 1.842853e+01
1	 9.099521e-01	 4.817928e-01	 1.774053e+01
1	 9.040991e-01	 4.926885e-01	 1.703492e+01
1	 8.981052e-01	 5.035318e-01	 1.631196e+01
1	 9.333269e-01	 4.520472e-01	 1.974559e+01
1	 9.278607e-01	 4.631633e-01	 1.909309e+01
1	 9.222511e-01	 4.742348e-01	 1.842176e+01
1	 9.164986e-01	 4.852589e-01	 1.773185e+01
1	 9.106034e-01	 4.962330e-01	 1.702360e+01
1	 9.045664e-01	 5.071543e-01	 1.629723e+01
1	 8.722604e-01	 4.890417e-01	 1.629289e+01
1	 8.663026e-01	 4.995195e-01	 1.556337e+01
1	 8.602092e-01	 5.099413e-01	 1.483088e+01
1	 8.539809e-01	 5.203044e-01	 1.409650e+01
1	 8.476184e-01	 5.306063e-01	 1.336137e+01
1	 8.411226e-01	 5.408444e-01	 1.262667e+01
1	 8.787216e-01	 4.926642e-01	 1.630829e+01
1	 8.727197e-01	 5.032196e-01	 1.557960e+01
1	 8.665811e-01	 5.137186e-01	 1.484804e+01
1	 8.603067e-01	 5.241585e-01	 1.411457e+01
1	 8.538971e-01	 5.345367e-01	 1.338017e+01
1	 8.473532e-01	 5.448507e-01	 1.264591e+01
1	 8.851828e-01	 4.962867e-01	 1.631697e+01
1	 8.791368e-01	 5.069198e-01	 1.558791e+01
1	 8.729531e-01	 5.174959e-01	 1.485597e+01
1	 8.666325e-01	 5.280126e-01	 1.412200e+01
1	 8.601757e-01	 5.384671e-01	 1.338689e+01
1	 8.535837e-01	 5.488569e-01	 1.265156e+01
1	 8.916440e-01	 4.999093e-01	 1.631837e+01
1	 8.855538e-01	 5.106199e-01	 1.558775e+01
1	 8.793250e-01	 5.212733e-01	 1.485415e+01
1	 8.729582e-01	 5.318667e-01	 1.411834e+01
1	 8.664544e-01	 5.423975e-01	 1.338110e+01
1	 8.598143e-01	 5.528632e-01	 1.264327e+01
1	 8.981052e-01	 5.035318e-01	 1.631196e+01
1	 8.919709e-01	 5.143201e-01	 1.557860e+01
1	 8.856969e-01	 5.250506e-01	 1.484208e+01
1	 8.792840e-01	 5.357208e-01	 1.410310e+01
1	 8.727330e-01	 5.463280e-01	 1.336238e+01
1	 8.660448e-01	 5.568695e-01	 1.262069e+01
1	 9.045664e-01	 5.071543e-01	 1.629723e+01
1	 8.983879e-01	 5.180202e-01	 1.555995e+01
1	 8.920688e-01	 5.288280e-01	 1.481927e+01
1	 8.856098e-01	 5.395749e-01	 1.407583e+01
1	 8.790117e-01	 5.502584e-01	 1.333033e+01
1	 8.722753e-01	 5.608757e-01	 1.258345e+01
1	 8.411226e-01	 5.408444e-01	 1.262667e+01
1	 8.344945e-01	 5.510163e-01	 1.190005e+01
1	 8.277350e-01	 5.611192e-01	 1.118862e+01
1	 8.208451e-01	 5.711508e-01	 1.049284e+01
1	 8.138260e-01	 5.811086e-01	 9.813194e+00
1	 8.066789e-01	 5.909900e-01	 9.150184e+00
1	 8.473532e-01	 5.448507e-01	 1.264591e+01
1	 8.406760e-01	 5.550979e-01	 1.191922e+01
1	 8.338664e-01	 5.652757e-01	 1.120727e+01
1	 8.269255e-01	 5.753816e-01	 1.051073e+01
1	 8.198544e-01	 5.854131e-01	 9.830322e+00
1	 8.126543e-01	 5.953677e-01	 9.166776e+00
1	 8.535837e-01	 5.488569e-01	 1.265156e+01
1	 8.468574e-01	 5.591795e-01	 1.192343e+01
1	 8.399977e-01	 5.694321e-01	 1.120980e+01
1	 8.330058e-01	 5.796123e-01	 1.051153e+01
1	 8.258827e-01	 5.897176e-01	 9.829489e+00
1	 8.186297e-01	 5.997454e-01	 9.164614e+00
1	 8.598143e-01	 5.528632e-01	 1.264327e+01
1	 8.530388e-01	 5.632611e-01	 1.191237e+01
1	 8.461291e-01	 5.735885e-01	 1.119593e+01
1	 8.390861e-01	 5.838431e-01	 1.049491e+01
1	 8.319111e-01	 5.940221e-01	 9.810330e+00
1	 8.246051e-01	 6.041231e-01	 9.143254e+00
1	 8.660448e-01	 5.568695e-01	 1.262069e+01
1	 8.592203e-01	 5.673427e-01	 1.188573e+01
1	 8.522605e-01	 5.777450e-01	 1.116535e+01
1	 8.451665e-01	 5.880738e-01	 1.046057e+01
1	 8.379394e-01	 5.983266e-01	 9.772491e+00
1	 8.305805e-01	 6.085008e-01	 9.102263e+00
1	 8.722753e-01	 5.608757e-01	 1.258345e+01
1	 8.654017e-01	 5.714243e-01	 1.184321e+01
1	 8.583918e-01	 5.819014e-01	 1.111778e+01
1	 8.512468e-01	 5.923046e-01	 1.040821e+01
1	 8.439677e-01	 6.026311e-01	 9.715628e+00
1	 8.365559e-01	 6.128785e-01	 9.041221e+00
1	 8.066789e-01	 5.909900e-01	 9.150184e+00
1	 7.994049e-01	 6.007927e-01	 8.507543e+00
1	 7.920053e-01	 6.105142e-01	 7.890023e+00
1	 7.844816e-01	 6.201521e-01	 7.299743e+00
1	 7.768351e-01	 6.297040e-01	 6.738919e+00
1	 7.690674e-01	 6.391677e-01	 6.209866e+00
1	 8.126543e-01	 5.953677e-01	 9.166776e+00
1	 8.053264e-01	 6.052430e-01	 8.524448e+00
1	 7.978720e-01	 6.150365e-01	 7.908326e+00
1	 7.902926e-01	 6.247458e-01	 7.320185e+00
1	 7.825895e-01	 6.343685e-01	 6.761881e+00
1	 7.747642e-01	 6.439023e-01	 6.235351e+00
1	 8.186297e-01	 5.997454e-01	 9.164614e+00
1	 8.112479e-01	 6.096933e-01	 8.521671e+00
1	 8.037388e-01	 6.195588e-01	 7.905763e+00
1	 7.961036e-01	 6.293395e-01	 7.318409e+00
1	 7.883438e-01	 6.390330e-01	 6.761199e+00
1	 7.804609e-01	 6.486369e-01	 6.235792e+00
1	 8.246051e-01	 6.041231e-01	 9.143254e+00
1	 8.171694e-01	 6.141436e-01	 8.498702e+00
1	 8.096055e-01	 6.240811e-01	 7.881822e+00
1	 8.019145e-01	 6.339332e-01	 7.293966e+00
1	 7.940981e-01	 6.436975e-01	 6.736548e+00
1	 7.861577e-01	 6.533715e-01	 6.211044e+00
1	 8.305805e-01	 6.085008e-01	 9.102263e+00
1	 8.230909e-01	 6.185939e-01	 8.455046e+00
1	 8.154722e-01	 6.286035e-01	 7.836011e+00
1	 8.077255e-01	 6.385269e-01	 7.246424e+00
1	 7.998525e-01	 6.483619e-01	 6.687614e+00
1	 7.918545e-01	 6.581060e-01	 6.160968e+00
1	 8.365559e-01	 6.128785e-01	 9.041221e+00
1	 8.290125e-01	 6.230443e-01	 8.390223e+00
1	 8.213389e-01	 6.331258e-01	 7.767847e+00
1	 8.135365e-01	 6.431207e-01	 7.175359e+00
1	 8.056068e-01	 6.530264e-01	 6.614089e+00
1	 7.975513e-01	 6.628406e-01	 6.085427e+00
1	 7.690674e-01	 6.391677e-01	 6.209866e+00
1	 7.611798e-01	 6.485409e-01	 5.711541e+00
1	 7.531741e-01	 6.578212e-01	 5.241891e+00
1	 7.450519e-01	 6.670065e-01	 4.801817e+00
1	 7.368148e-01	 6.760946e-01	 4.392273e+00
1	 7.284647e-01	 6.850833e-01	 4.014262e+00
1	 7.747642e-01	 6.439023e-01	 6.235351e+00
1	 7.668182e-01	 6.533449e-01	 5.739317e+00
1	 7.587532e-01	 6.626940e-01	 5.272302e+00
1	 7.505708e-01	 6.719473e-01	 4.836065e+00
1	 7.422727e-01	 6.811027e-01	 4.432452e+00
1	 7.338607e-01	 6.901580e-01	 4.063390e+00
1	 7.804609e-01	 6.486369e-01	 6.235792e+00
1	 7.724566e-01	 6.581489e-01	 5.741004e+00
1	 7.643322e-01	 6.675667e-01	 5.276084e+00
1	 7.560897e-01	 6.768881e-01	 4.843471e+00
1	 7.477306e-01	 6.861108e-01	 4.445714e+00
1	 7.392568e-01	 6.952327e-01	 4.085472e+00
1	 7.861577e-01	 6.533715e-01	 6.211044e+00
1	 7.780949e-01	 6.629529e-01	 5.716618e+00
1	 7.699113e-01	 6.724395e-01	 5.253316e+00
1	 7.616086e-01	 6.818289e-01	 4.824082e+00
1	 7.531885e-01	 6.911189e-01	 4.431989e+00
1	 7.446528e-01	 7.003074e-01	 4.080238e+00
1	 7.918545e-01	 6.581060e-01	 6.160968e+00
1	 7.837333e-01	 6.677569e-01	 5.666173e+00
1	 7.754904e-01	 6.773122e-01	 5.204074e+00
1	 7.671275e-01	 6.867697e-01	 4.777947e+00
1	 7.586464e-01	 6.961270e-01	 4.391212e+00
1	 7.500488e-01	 7.053821e-01	 4.047424e+00
1	 7.975513e-01	 6.628406e-01	 6.085427e+00
1	 7.893717e-01	 6.725609e-01	 5.589684e+00
1	 7.810694e-01	 6.821850e-01	 5.128432e+00
1	 7.726464e-01	 6.917105e-01	 4.705113e+00
1	 7.641043e-01	 7.011351e-01	 4.323316e+00
1	 7.554449e-01	 7.104568e-01	 3.986774e+00
1	 7.284647e-01	 6.850833e-01	 4.014262e+00
1	 7.200033e-01	 6.939706e-01	 3.666769e+00
1	 7.114326e-01	 7.027543e-01	 3.349015e+00
1	 7.027543e-01	 7.114326e-01	 3.062394e+00
1	 6.939706e-01	 7.200033e-01	 2.808295e+00
1	 6.850833e-01	 7.284647e-01	 2.588101e+00
1	 7.338607e-01	 6.901580e-01	 4.063390e+00
1	 7.253367e-01	 6.991111e-01	 3.727843e+00
1	 7.167025e-01	 7.079599e-01	 3.423420e+00
1	 7.079599e-01	 7.167025e-01	 3.150030e+00
1	 6.991111e-01	 7.253367e-01	 2.907524e+00
1	 6.901580e-01	 7.338607e-01	 2.695698e+00
1	 7.392568e-01	 6.952327e-01	 4.085472e+00
1	 7.306701e-01	 7.042516e-01	 3.761093e+00
1	 7.219723e-01	 7.131655e-01	 3.468268e+00
1	 7.131655e-01	 7.219723e-01	 3.205668e+00
1	 7.042516e-01	 7.306701e-01	 2.971864e+00
1	 6.952327e-01	 7.392568e-01	 2.765334e+00
1	 7.446528e-01	 7.003074e-01	 4.080238e+00
1	 7.360034e-01	 7.093922e-01	 3.766067e+00
1	 7.272422e-01	 7.183711e-01	 3.483044e+00
1	 7.183711e-01	 7.272422e-01	 3.228846e+00
1	 7.093922e-01	 7.360034e-01	 3.001018e+00
1	 7.003074e-01	 7.446528e-01	 2.796976e+00
1	 7.500488e-01	 7.053821e-01	 4.047424e+00
1	 7.413368e-01	 7.145327e-01	 3.742324e+00
1	 7.325121e-01	 7.235767e-01	 3.467249e+00
1	 7.235767e-01	 7.325121e-01	 3.219119e+00
1	 7.145327e-01	 7.413368e-01	 2.994697e+00
1	 7.053821e-01	 7.500488e-01	 2.790595e+00
1	 7.554449e-01	 7.104568e-01	 3.986774e+00
1	 7.466701e-01	 7.196732e-01	 3.689439e+00
1	 7.377819e-01	 7.287823e-01	 3.420399e+00
1	 7.287823e-01	 7.377819e-01	 3.176052e+00
1	 7.196732e-01	 7.466701e-01	 2.952620e+00
1	 7.104568e-01	 7.554449e-01	 2.746161e+00
1	 6.850833e-01	 7.284647e-01	 2.588101e+00
1	 6.760946e-01	 7.368148e-01	 2.393141e+00
1	 6.670065e-01	 7.450519e-01	 2.210147e+00
1	 6.578212e-01	 7.531741e-01	 2.033373e+00
1	 6.485409e-01	 7.611798e-01	 1.856786e+00
1	 6.391677e-01	 7.690674e-01	 1.674083e+00
1	 6.901580e-01	 7.338607e-01	 2.695698e+00
1	 6.811027e-01	 7.422727e-01	 2.503033e+00
1	 6.719473e-01	 7.505708e-01	 2.315221e+00
1	 6.626940e-01	 7.587532e-01	 2.127648e+00
1	 6.533449e-01	 7.668182e-01	 1.935452e+00
1	 6.439023e-01	 7.747642e-01	 1.733544e+00
1	 6.952327e-01	 7.392568e-01	 2.765334e+00
1	 6.861108e-01	 7.477306e-01	 2.572419e+00
1	 6.768881e-01	 7.560897e-01	 2.378217e+00
1	 6.675667e-01	 7.643322e-01	 2.179102e+00
1	 6.581489e-01	 7.724566e-01	 1.971240e+00
1	 6.486369e-01	 7.804609e-01	 1.750601e+00
1	 7.003074e-01	 7.446528e-01	 2.796976e+00
1	 6.911189e-01	 7.531885e-01	 2.601542e+00
1	 6.818289e-01	 7.616086e-01	 2.399567e+00
1	 6.724395e-01	 7.699113e-01	 2.188277e+00
1	 6.629529e-01	 7.780949e-01	 1.964723e+00
1	 6.533715e-01	 7.861577e-01	 1.725784e+00
1	 7.053821e-01	 7.500488e-01	 2.790595e+00
1	 6.961270e-01	 7.586464e-01	 2.590637e+00
1	 6.867697e-01	 7.671275e-01	 2.379689e+00
1	 6.773122e-01	 7.754904e-01	 2.155698e+00
1	 6.677569e-01	 7.837333e-01	 1.916456e+00
1	 6.581060e-01	 7.918545e-01	 1.659607e+00
1	 7.104568e-01	 7.554449e-01	 2.746161e+00
1	 7.011351e-01	 7.641043e-01	 2.539932e+00
1	 6.917105e-01	 7.726464e-01	 2.318991e+00
1	 6.821850e-01	 7.810694e-01	 2.081874e+00
1	 6.725609e-01	 7.893717e-01	 1.826978e+00
1	 6.628406e-01	 7.975513e-01	 1.552572e+00
1	 6.391677e-01	 7.690674e-01	 1.674083e+00
1	 6.297040e-01	 7.768351e-01	 1.475201e+00
1	 6.201521e-01	 7.844816e-01	 1.254841e+00
1	 6.105142e-01	 7.920053e-01	 1.013652e+00
1	 6.007927e-01	 7.994049e-01	 7.522728e-01
1	 5.909900e-01	 8.066789e-01	 4.713365e-01
1	 6.439023e-01	 7.747642e-01	 1.733544e+00
1	 6.343685e-01	 7.825895e-01	 1.514143e+00
1	 6.247458e-01	 7.902926e-01	 1.273142e+00
1	 6.150365e-01	 7.978720e-01	 1.010773e+00
1	 6.052430e-01	 8.053264e-01	 7.272428e-01
1	 5.953677e-01	 8.126543e-01	 4.227337e-01
1	 6.486369e-01	 7.804609e-01	 1.750601e+00
1	 6.390330e-01	 7.883438e-01	 1.511231e+00
1	 6.293395e-01	 7.961036e-01	 1.249883e+00
1	 6.195588e-01	 8.037388e-01	 9.664032e-01
1	 6.096933e-01	 8.112479e-01	 6.605996e-01
1	 5.997454e-01	 8.186297e-01	 3.322402e-01
1	 6.533715e-01	 7.861577e-01	 1.725784e+00
1	 6.436975e-01	 7.940981e-01	 1.466937e+00
1	 6.339332e-01	 8.019145e-01	 1.185514e+00
1	 6.240811e-01	 8.096055e-01	 8.810079e-01
1	 6.141436e-01	 8.171694e-01	 5.528604e-01
1	 6.041231e-01	 8.246051e-01	 2.004607e-01
1	 6.581060e-01	 7.918545e-01	 1.659607e+00
1	 6.483619e-01	 7.998525e-01	 1.381717e+00
1	 6.385269e-01	 8.077255e-01	 1.080471e+00
1	 6.286035e-01	 8.154722e-01	 7.550390e-01
1	 6.185939e-01	 8.230909e-01	 4.045273e-01
1	 6.085008e-01	 8.305805e-01	 2.798258e-02
1	 6.628406e-01	 7.975513e-01	 1.552572e+00
1	 6.530264e-01	 8.056068e-01	 1.256016e+00
1	 6.431207e-01	 8.135365e-01	 9.351791e-01
1	 6.331258e-01	 8.213389e-01	 5.889352e-01
1	 6.230443e-01	 8.290125e-01	 2.160885e-01
1	 6.128785e-01	 8.365559e-01	-1.846237e-01
1	 5.909900e-01	 8.066789e-01	 4.713365e-01
1	 5.811086e-01	 8.138260e-01	 1.739318e-01
1	 5.711508e-01	 8.208451e-01	-1.383940e-01
1	 5.611192e-01	 8.277350e-01	-4.673731e-01
1	 5.510163e-01	 8.344945e-01	-8.147976e-01
1	 5.408444e-01	 8.411226e-01	-1.182514e+00
1	 5.953677e-01	 8.126543e-01	 4.227337e-01
1	 5.854131e-01	 8.198544e-01	 9.968150e-02
1	 5.753816e-01	 8.269255e-01	-2.405220e-01
1	 5.652757e-01	 8.338664e-01	-5.993154e-01
1	 5.550979e-01	 8.406760e-01	-9.781822e-01
1	 5.448507e-01	 8.473532e-01	-1.378647e+00
1	 5.997454e-01	 8.186297e-01	 3.322402e-01
1	 5.897176e-01	 8.258827e-01	-1.668098e-02
1	 5.796123e-01	 8.330058e-01	-3.847801e-01
1	 5.694321e-01	 8.399977e-01	-7.732609e-01
1	 5.591795e-01	 8.468574e-01	-1.183362e+00
1	 5.488569e-01	 8.535837e-01	-1.616351e+00
1	 6.041231e-01	 8.246051e-01	 2.004607e-01
1	 5.940221e-01	 8.319111e-01	-1.744738e-01
1	 5.838431e-01	 8.390861e-01	-5.704639e-01
1	 5.735885e-01	 8.461291e-01	-9.885365e-01
1	 5.632611e-01	 8.530388e-01	-1.429746e+00
1	 5.528632e-01	 8.598143e-01	-1.895170e+00
1	 6.085008e-01	 8.305805e-01	 2.798258e-02
1	 5.983266e-01	 8.379394e-01	-3.730346e-01
1	 5.880738e-01	 8.451665e-01	-7.968895e-01
1	 5.777450e-01	 8.522605e-01	-1.244488e+00
1	 5.673427e-01	 8.592203e-01	-1.716761e+00
1	 5.568695e-01	 8.660448e-01	-2.214659e+00
1	 6.128785e-01	 8.365559e-01	-1.846237e-01
1	 6.026311e-01	 8.439677e-01	-6.117203e-01
1	 5.923046e-01	 8.512468e-01	-1.063392e+00
1	 5.819014e-01	 8.583918e-01	-1.540480e+00
1	 5.714243e-01	 8.654017e-01	-2.043849e+00
1	 5.608757e-01	 8.722753e-01	-2.574388e+00
1	 5.408444e-01	 8.411226e-01	-1.182514e+00
1	 5.306063e-01	 8.476184e-01	-1.567369e+00
1	 5.203044e-01	 8.539809e-01	-1.964320e+00
1	 5.099413e-01	 8.602092e-01	-2.372388e+00
1	 4.995195e-01	 8.663026e-01	-2.790556e+00
1	 4.890417e-01	 8.722604e-01	-3.217773e+00
1	 5.448507e-01	 8.473532e-01	-1.378647e+00
1	 5.345367e-01	 8.538971e-01	-1.796743e+00
1	 5.241585e-01	 8.603067e-01	-2.226957e+00
1	 5.137186e-01	 8.665811e-01	-2.668499e+00
1	 5.032196e-01	 8.727197e-01	-3.120554e+00
1	 4.926642e-01	 8.787216e-01	-3.582284e+00
1	 5.488569e-01	 8.535837e-01	-1.616351e+00
1	 5.384671e-01	 8.601757e-01	-2.067641e+00
1	 5.280126e-01	 8.666325e-01	-2.531349e+00
1	 5.174959e-01	 8.729531e-01	-3.006812e+00
1	 5.069198e-01	 8.791368e-01	-3.493345e+00
1	 4.962867e-01	 8.851828e-01	-3.990248e+00
1	 5.528632e-01	 8.598143e-01	-1.895170e+00
1	 5.423975e-01	 8.664544e-01	-2.379732e+00
1	 5.318667e-01	 8.729582e-01	-2.877229e+00
1	 5.212733e-01	 8.793250e-01	-3.387059e+00
1	 5.106199e-01	 8.855538e-01	-3.908600e+00
1	 4.999093e-01	 8.916440e-01	-4.441220e+00
1	 5.568695e-01	 8.660448e-01	-2.214659e+00
1	 5.463280e-01	 8.727330e-01	-2.732694e+00
1	 5.357208e-01	 8.792840e-01	-3.264336e+00
1	 5.250506e-01	 8.856969e-01	-3.808980e+00
1	 5.143201e-01	 8.919709e-01	-4.366002e+00
1	 5.035318e-01	 8.981052e-01	-4.934764e+00
1	 5.608757e-01	 8.722753e-01	-2.574388e+00
1	 5.502584e-01	 8.790117e-01	-3.126215e+00
1	 5.395749e-01	 8.856098e-01	-3.692416e+00
1	 5.288280e-01	 8.920688e-01	-4.272321e+00
1	 5.180202e-01	 8.983879e-01	-4.865241e+00
1	 5.071543e-01	 9.045664e-01	-5.470461e+00
1	 4.890417e-01	 8.722604e-01	-3.217773e+00
1	 4.785104e-01	 8.780819e-01	-3.647444e+00
1	 4.679282e-01	 8.837665e-01	-4.073445e+00
1	 4.572978e-01	 8.893136e-01	-4.495408e+00
1	 4.466218e-01	 8.947229e-01	-4.912969e+00
1	 4.359027e-01	 8.999938e-01	-5.325763e+00
1	 4.926642e-01	 8.787216e-01	-3.582284e+00
1	 4.820549e-01	 8.845862e-01	-4.047280e+00
1	 4.713944e-01	 8.903129e-01	-4.509240e+00
1	 4.606852e-01	 8.959011e-01	-4.967454e+00
1	 4.499301e-01	 9.013504e-01	-5.421198e+00
1	 4.391316e-01	 9.066604e-01	-5.869737e+00
1	 4.962867e-01	 8.851828e-01	-3.990248e+00
1	 4.855994e-01	 8.910905e-01	-4.491082e+00
1	 4.748605e-01	 8.968593e-01	-4.989235e+00
1	 4.640726e-01	 9.024886e-01	-5.483723e+00
1	 4.532384e-01	 9.079780e-01	-5.973534e+00
1	 4.423605e-01	 9.133271e-01	-6.457632e+00
1	 4.999093e-01	 8.916440e-01	-4.441220e+00
1	 4.891440e-01	 8.975948e-01	-4.978285e+00
1	 4.783267e-01	 9.034057e-01	-5.512813e+00
1	 4.674600e-01	 9.090761e-01	-6.043605e+00
1	 4.565467e-01	 9.146056e-01	-6.569430e+00
1	 4.455894e-01	 9.199937e-01	-7.089023e+00
1	 5.035318e-01	 8.981052e-01	-4.934764e+00
1	 4.926885e-01	 9.040991e-01	-5.508344e+00
1	 4.817928e-01	 9.099521e-01	-6.079375e+00
1	 4.708474e-01	 9.156636e-01	-6.646507e+00
1	 4.598550e-01	 9.212332e-01	-7.208354e+00
1	 4.488183e-01	 9.266603e-01	-7.763498e+00
1	 5.071543e-01	 9.045664e-01	-5.470461e+00
1	 4.962330e-01	 9.106034e-01	-6.080728e+00
1	 4.852589e-01	 9.164986e-01	-6.688338e+00
1	 4.742348e-01	 9.222511e-01	-7.291850e+00
1	 4.631633e-01	 9.278607e-01	-7.889792e+00
1	 4.520472e-01	 9.333269e-01	-8.480656e+00
1	 4.359027e-01	 8.999938e-01	-5.325763e+00
1	 4.251431e-01	 9.051262e-01	-5.727627e+00
1	 4.143457e-01	 9.101196e-01	-6.110351e+00
1	 4.035130e-01	 9.149739e-01	-6.470454e+00
1	 3.926477e-01	 9.196890e-01	-6.804399e+00
1	 3.817523e-01	 9.242647e-01	-7.108604e+00
1	 4.391316e-01	 9.066604e-01	-5.869737e+00
1	 4.282923e-01	 9.118308e-01	-6.305980e+00
1	 4.174149e-01	 9.168612e-01	-6.721108e+00
1	 4.065020e-01	 9.217515e-01	-7.111738e+00
1	 3.955562e-01	 9.265015e-01	-7.474443e+00
1	 3.845801e-01	 9.311111e-01	-7.805759e+00
1	 4.423605e-01	 9.133271e-01	-6.457632e+00
1	 4.314415e-01	 9.185354e-01	-6.928206e+00
1	 4.204841e-01	 9.236028e-01	-7.375942e+00
1	 4.094910e-01	 9.285291e-01	-7.797493e+00
1	 3.984647e-01	 9.333140e-01	-8.189475e+00
1	 3.874079e-01	 9.379575e-01	-8.548478e+00
1	 4.455894e-01	 9.199937e-01	-7.089023e+00
1	 4.345907e-01	 9.252401e-01	-7.594006e+00
1	 4.235534e-01	 9.303445e-01	-8.074627e+00
1	 4.124800e-01	 9.353067e-01	-8.527519e+00
1	 4.013732e-01	 9.401265e-01	-8.949279e+00
1	 3.902357e-01	 9.448039e-01	-9.336482e+00
1	 4.488183e-01	 9.266603e-01	-7.763498e+00
1	 4.377399e-01	 9.319447e-01	-8.303086e+00
1	 4.266226e-01	 9.370861e-01	-8.816945e+00
1	 4.154690e-01	 9.420842e-01	-9.301626e+00
1	 4.042817e-01	 9.469390e-01	-9.753646e+00
1	 3.930635e-01	 9.516503e-01	-1.016950e+01
1	 4.520472e-01	 9.333269e-01	-8.480656e+00
1	 4.408891e-01	 9.386493e-01	-9.055164e+00
1	 4.296918e-01	 9.438277e-01	-9.602684e+00
1	 4.184580e-01	 9.488618e-01	-1.011963e+01
1	 4.071902e-01	 9.537515e-01	-1.060237e+01
1	 3.958913e-01	 9.584967e-01	-1.104727e+01
1	 3.817523e-01	 9.242647e-01	-7.108604e+00
1	 3.708294e-01	 9.287010e-01	-7.383496e+00
1	 3.598816e-01	 9.329980e-01	-7.629716e+00
1	 3.489113e-01	 9.371557e-01	-7.843972e+00
1	 3.379212e-01	 9.411744e-01	-8.022976e+00
1	 3.269137e-01	 9.450542e-01	-8.163454e+00
1	 3.845801e-01	 9.311111e-01	-7.805759e+00
1	 3.735763e-01	 9.355803e-01	-8.106225e+00
1	 3.625474e-01	 9.399091e-01	-8.376196e+00
1	 3.514959e-01	 9.440976e-01	-8.611907e+00
1	 3.404243e-01	 9.481461e-01	-8.809589e+00
1	 3.293353e-01	 9.520546e-01	-8.965480e+00
1	 3.874079e-01	 9.379575e-01	-8.548478e+00
1	 3.763232e-01	 9.424595e-01	-8.874948e+00
1	 3.652132e-01	 9.468202e-01	-9.168807e+00
1	 3.540804e-01	 9.510395e-01	-9.425829e+00
1	 3.429275e-01	 9.551177e-01	-9.641781e+00
1	 3.317569e-01	 9.590550e-01	-9.812430e+00
1	 3.902357e-01	 9.448039e-01	-9.336482e+00
1	 3.790701e-01	 9.493388e-01	-9.689306e+00
1	 3.678790e-01	 9.537313e-01	-1.000712e+01
1	 3.566649e-01	 9.579814e-01	-1.028526e+01
1	 3.454306e-01	 9.620894e-01	-1.051903e+01
1	 3.341785e-01	 9.660554e-01	-1.070374e+01
1	 3.930635e-01	 9.516503e-01	-1.016950e+01
1	 3.818170e-01	 9.562181e-01	-1.054895e+01
1	 3.705447e-01	 9.606424e-01	-1.089073e+01
1	 3.592495e-01	 9.649233e-01	-1.118972e+01
1	 3.479337e-01	 9.690610e-01	-1.144081e+01
1	 3.366001e-01	 9.730558e-01	-1.163887e+01
1	 3.958913e-01	 9.584967e-01	-1.104727e+01
1	 3.845639e-01	 9.630973e-01	-1.145355e+01
1	 3.732105e-01	 9.675535e-01	-1.181923e+01
1	 3.618340e-01	 9.718652e-01	-1.213877e+01
1	 3.504368e-01	 9.760327e-01	-1.240665e+01
1	 3.390217e-01	 9.800562e-01	-1.261729e+01
1	 3.269137e-01	 9.450542e-01	-8.163454e+00
1	 3.158914e-01	 9.487954e-01	-8.267211e+00
1	 3.048566e-01	 9.523983e-01	-8.338355e+00
1	 2.938119e-01	 9.558632e-01	-8.377122e+00
1	 2.827597e-01	 9.591908e-01	-8.383789e+00
1	 2.717024e-01	 9.623813e-01	-8.358682e+00
1	 3.293353e-01	 9.520546e-01	-8.965480e+00
1	 3.182313e-01	 9.558235e-01	-9.081450e+00
1	 3.071148e-01	 9.594531e-01	-9.161954e+00
1	 2.959883e-01	 9.629437e-01	-9.207161e+00
1	 2.848542e-01	 9.662959e-01	-9.217291e+00
1	 2.737150e-01	 9.695101e-01	-9.192612e+00
1	 3.317569e-01	 9.590550e-01	-9.812430e+00
1	 3.205713e-01	 9.628516e-01	-9.939805e+00
1	 3.093730e-01	 9.665079e-01	-1.002881e+01
1	 2.981647e-01	 9.700242e-01	-1.007957e+01
1	 2.869488e-01	 9.734010e-01	-1.009227e+01
1	 2.757276e-01	 9.766388e-01	-1.006714e+01
1	 3.341785e-01	 9.660554e-01	-1.070374e+01
1	 3.229112e-01	 9.698797e-01	-1.084169e+01
1	 3.116312e-01	 9.735627e-01	-1.093833e+01
1	 3.003411e-01	 9.771047e-01	-1.099376e+01
1	 2.890433e-01	 9.805061e-01	-1.100814e+01
1	 2.777402e-01	 9.837676e-01	-1.098171e+01
1	 3.366001e-01	 9.730558e-01	-1.163887e+01
1	 3.252511e-01	 9.769078e-01	-1.178655e+01
1	 3.138894e-01	 9.806175e-01	-1.188994e+01
1	 3.025175e-01	 9.841851e-01	-1.194915e+01
1	 2.911378e-01	 9.876112e-01	-1.196436e+01
1	 2.797528e-01	 9.908963e-01	-1.193579e+01
1	 3.390217e-01	 9.800562e-01	-1.261729e+01
1	 3.275911e-01	 9.839359e-01	-1.277381e+01
1	 3.161476e-01	 9.876723e-01	-1.288307e+01
1	 3.046939e-01	 9.912656e-01	-1.294519e+01
1	 2.932323e-01	 9.947164e-01	-1.296036e+01
1	 2.817654e-01	 9.980251e-01	-1.292886e+01
1	 2.717024e-01	 9.623813e-01	-8.358682e+00
1	 2.606423e-01	 9.654354e-01	-8.302919e+00
1	 2.495819e-01	 9.683537e-01	-8.218607e+00
1	 2.385234e-01	 9.711368e-01	-8.107629e+00
1	 2.274691e-01	 9.737853e-01	-7.971911e+00
1	 2.164213e-01	 9.763001e-01	-7.813421e+00
1	 2.737150e-01	 9.695101e-01	-9.192612e+00
1	 2.625730e-01	 9.725868e-01	-9.134450e+00
1	 2.514306e-01	 9.755267e-01	-9.045291e+00
1	 2.402902e-01	 9.783304e-01	-8.927218e+00
1	 2.291540e-01	 9.809985e-01	-8.782357e+00
1	 2.180244e-01	 9.835319e-01	-8.612872e+00
1	 2.757276e-01	 9.766388e-01	-1.006714e+01
1	 2.645037e-01	 9.797382e-01	-1.000571e+01
1	 2.532794e-01	 9.826997e-01	-9.910815e+00
1	 2.420570e-01	 9.855240e-01	-9.784686e+00
1	 2.308390e-01	 9.882118e-01	-9.629615e+00
1	 2.196275e-01	 9.907638e-01	-9.447925e+00
1	 2.777402e-01	 9.837676e-01	-1.098171e+01
1	 2.664344e-01	 9.868896e-01	-1.091619e+01
1	 2.551281e-01	 9.898727e-01	-1.081469e+01
1	 2.438239e-01	 9.927176e-01	-1.067959e+01
1	 2.325239e-01	 9.954250e-01	-1.051329e+01
1	 2.212306e-01	 9.979956e-01	-1.031823e+01
1	 2.797528e-01	 9.908963e-01	-1.193579e+01
1	 2.683651e-01	 9.940409e-01	-1.186537e+01
1	 2.569769e-01	 9.970457e-01	-1.175646e+01
1	 2.455907e-01	 9.999112e-01	-1.161150e+01
1	 2.342089e-01	 1.002638e+00	-1.143298e+01
1	 2.228337e-01	 1.005227e+00	-1.122345e+01
1	 2.817654e-01	 9.980251e-01	-1.292886e+01
1	 2.702957e-01	 1.001192e+00	-1.285278e+01
1	 2.588256e-01	 1.004219e+00	-1.273565e+01
1	 2.473576e-01	 1.007105e+00	-1.257999e+01
1	 2.358938e-01	 1.009851e+00	-1.238833e+01
1	 2.244369e-01	 1.012459e+00	-1.216326e+01
1	 2.164213e-01	 9.763001e-01	-7.813421e+00
1	 2.053822e-01	 9.786818e-01	-7.636310e+00
1	 1.943540e-01	 9.809315e-01	-7.445491e+00
1	 1.833389e-01	 9.830498e-01	-7.244088e+00
1	 1.723390e-01	 9.850377e-01	-7.035214e+00
1	 1.613564e-01	 9.868962e-01	-6.821965e+00
1	 2.180244e-01	 9.835319e-01	-8.612872e+00
1	 2.069035e-01	 9.859313e-01	-8.423093e+00
1	 1.957937e-01	 9.881976e-01	-8.218170e+00
1	 1.846970e-01	 9.903316e-01	-8.001524e+00
1	 1.736156e-01	 9.923343e-01	-7.776570e+00
1	 1.625517e-01	 9.942065e-01	-7.546709e+00
1	 2.196275e-01	 9.907638e-01	-9.447925e+00
1	 2.084249e-01	 9.931808e-01	-9.244164e+00
1	 1.972333e-01	 9.954638e-01	-9.023785e+00
1	 1.860550e-01	 9.976135e-01	-8.790504e+00
1	 1.748922e-01	 9.996308e-01	-8.548029e+00
1	 1.637469e-01	 1.001517e+00	-8.300062e+00
1	 2.212306e-01	 9.979956e-01	-1.031823e+01
1	 2.099462e-01	 1.000430e+00	-1.009921e+01
1	 1.986730e-01	 1.002730e+00	-9.862038e+00
1	 1.874131e-01	 1.004895e+00	-9.610707e+00
1	 1.761688e-01	 1.006927e+00	-9.349224e+00
1	 1.649421e-01	 1.008827e+00	-9.081579e+00
1	 2.228337e-01	 1.005227e+00	-1.122345e+01
1	 2.114676e-01	 1.007680e+00	-1.098794e+01
1	 2.001126e-01	 1.009996e+00	-1.073264e+01
1	 1.887712e-01	 1.012177e+00	-1.046182e+01
1	 1.774454e-01	 1.014224e+00	-1.017980e+01
1	 1.661374e-01	 1.016138e+00	-9.890826e+00
1	 2.244369e-01	 1.012459e+00	-1.216326e+01
1	 2.129889e-01	 1.014929e+00	-1.191005e+01
1	 2.015523e-01	 1.017262e+00	-1.163529e+01
1	 1.901292e-01	 1.019459e+00	-1.134355e+01
1	 1.787220e-01	 1.021521e+00	-1.103940e+01
1	 1.673326e-01	 1.023448e+00	-1.072738e+01
1	 1.613564e-01	 9.868962e-01	-6.821965e+00
1	 1.503932e-01	 9.886263e-01	-6.607727e+00
1	 1.394514e-01	 9.902289e-01	-6.396554e+00
1	 1.285329e-01	 9.917053e-01	-6.192500e+00
1	 1.176397e-01	 9.930563e-01	-5.999591e+00
1	 1.067737e-01	 9.942834e-01	-5.821810e+00
1	 1.625517e-01	 9.942065e-01	-7.546709e+00
1	 1.515072e-01	 9.959494e-01	-7.315790e+00
1	 1.404843e-01	 9.975640e-01	-7.088233e+00
1	 1.294850e-01	 9.990512e-01	-6.868250e+00
1	 1.185111e-01	 1.000412e+00	-6.660015e+00
1	 1.075646e-01	 1.001648e+00	-6.467654e+00
1	 1.637469e-01	 1.001517e+00	-8.300062e+00
1	 1.526213e-01	 1.003273e+00	-8.050841e+00
1	 1.415173e-01	 1.004899e+00	-7.805123e+00
1	 1.304371e-01	 1.006397e+00	-7.567338e+00
1	 1.193825e-01	 1.007768e+00	-7.341871e+00
1	 1.083555e-01	 1.009013e+00	-7.133053e+00
1	 1.649421e-01	 1.008827e+00	-9.081579e+00
1	 1.537353e-01	 1.010596e+00	-8.812357e+00
1	 1.425503e-01	 1.012234e+00	-8.546653e+00
1	 1.313891e-01	 1.013743e+00	-8.289175e+00
1	 1.202539e-01	 1.015124e+00	-8.044578e+00
1	 1.091464e-01	 1.016379e+00	-7.817456e+00
1	 1.661374e-01	 1.016138e+00	-9.890826e+00
1	 1.548493e-01	 1.017919e+00	-9.599832e+00
1	 1.435833e-01	 1.019569e+00	-9.312272e+00
1	 1.323412e-01	 1.021089e+00	-9.033190e+00
1	 1.211253e-01	 1.022480e+00	-8.767570e+00
1	 1.099373e-01	 1.023744e+00	-8.520330e+00
1	 1.673326e-01	 1.023448e+00	-1.072738e+01
1	 1.559633e-01	 1.025242e+00	-1.041277e+01
1	 1.446162e-01	 1.026904e+00	-1.010144e+01
1	 1.332933e-01	 1.028435e+00	-9.798827e+00
1	 1.219967e-01	 1.029836e+00	-9.510299e+00
1	 1.107283e-01	 1.031109e+00	-9.241159e+00
1	 1.067737e-01	 9.942834e-01	-5.821810e+00
1	 9.593675e-02	 9.953874e-01	-5.663273e+00
1	 8.513072e-02	 9.963698e-01	-5.527582e+00
1	 7.435736e-02	 9.972317e-01	-5.417856e+00
1	 6.361843e-02	 9.979743e-01	-5.337147e+00
1	 5.291561e-02	 9.985990e-01	-5.288432e+00
1	 1.075646e-01	 1.001648e+00	-6.467654e+00
1	 9.664739e-02	 1.002761e+00	-6.295368e+00
1	 8.576131e-02	 1.003750e+00	-6.146970e+00
1	 7.490816e-02	 1.004619e+00	-6.025914e+00
1	 6.408967e-02	 1.005367e+00	-5.935575e+00
1	 5.330758e-02	 1.005996e+00	-5.879253e+00
1	 1.083555e-01	 1.009013e+00	-7.133053e+00
1	 9.735803e-02	 1.010134e+00	-6.945272e+00
1	 8.639191e-02	 1.011131e+00	-6.782621e+00
1	 7.545895e-02	 1.012005e+00	-6.648876e+00
1	 6.456092e-02	 1.012759e+00	-6.547737e+00
1	 5.369955e-02	 1.013393e+00	-6.482813e+00
1	 1.091464e-01	 1.016379e+00	-7.817456e+00
1	 9.806867e-02	 1.017507e+00	-7.612475e+00
1	 8.702251e-02	 1.018511e+00	-7.434046e+00
1	 7.600975e-02	 1.019392e+00	-7.286265e+00
1	 6.503217e-02	 1.020152e+00	-7.173147e+00
1	 5.409151e-02	 1.020790e+00	-7.098611e+00
1	 1.099373e-01	 1.023744e+00	-8.520330e+00
1	 9.877932e-02	 1.024880e+00	-8.296480e+00
1	 8.765311e-02	 1.025892e+00	-8.100770e+00
1	 7.656054e-02	 1.026779e+00	-7.937615e+00
1	 6.550342e-02	 1.027544e+00	-7.811336e+00
1	 5.448348e-02	 1.028187e+00	-7.726157e+00
1	 1.107283e-01	 1.031109e+00	-9.241159e+00
1	 9.948996e-02	 1.032254e+00	-8.996804e+00
1	 8.828371e-02	 1.033272e+00	-8.782333e+00
1	 7.711134e-02	 1.034166e+00	-8.602472e+00
1	 6.597466e-02	 1.034936e+00	-8.461847e+00
1	 5.487545e-02	 1.035584e+00	-8.364977e+00
1	 5.291561e-02	 9.985990e-01	-5.288432e+00
1	 4.225058e-02	 9.991070e-01	-5.274436e+00
1	 3.162495e-02	 9.994998e-01	-5.297458e+00
1	 2.104029e-02	 9.997786e-01	-5.359730e+00
1	 1.049814e-02	 9.999449e-01	-5.463419e+00
1	 0.000000e+00	 1.000000e+00	-5.610620e+00
1	 5.330758e-02	 1.005996e+00	-5.879253e+00
1	 4.256355e-02	 1.006508e+00	-5.860045e+00
1	 3.185921e-02	 1.006904e+00	-5.880453e+00
1	 2.119614e-02	 1.007184e+00	-5.942766e+00
1	 1.057591e-02	 1.007352e+00	-6.049196e+00
1	 0.000000e+00	 1.007407e+00	-6.201882e+00
1	 5.369955e-02	 1.013393e+00	-6.482813e+00
1	 4.287651e-02	 1.013909e+00	-6.457539e+00
1	 3.209346e-02	 1.014307e+00	-6.474616e+00
1	 2.135200e-02	 1.014590e+00	-6.536431e+00
1	 1.065367e-02	 1.014759e+00	-6.645293e+00
1	 0.000000e+00	 1.014815e+00	-6.803426e+00
1	 5.409151e-02	 1.020790e+00	-7.098611e+00
1	 4.318948e-02	 1.021309e+00	-7.066398e+00
1	 3.232772e-02	 1.021711e+00	-7.079418e+00
1	 2.150785e-02	 1.021996e+00	-7.140206e+00
1	 1.073144e-02	 1.022166e+00	-7.251208e+00
1	 0.000000e+00	 1.022222e+00	-7.414777e+00
1	 5.448348e-02	 1.028187e+00	-7.726157e+00
1	 4.350245e-02	 1.028710e+00	-7.686115e+00
1	 3.256198e-02	 1.029115e+00	-7.694350e+00
1	 2.166371e-02	 1.029402e+00	-7.753587e+00
1	 1.080920e-02	 1.029573e+00	-7.866453e+00
1	 0.000000e+00	 1.029630e+00	-8.035477e+00
1	 5.487545e-02	 1.035584e+00	-8.364977e+00
1	 4.381542e-02	 1.036111e+00	-8.316198e+00
1	 3.279624e-02	 1.036518e+00	-8.318914e+00
1	 2.181956e-02	 1.036807e+00	-8.376082e+00
1	 1.088696e-02	 1.036980e+00	-8.490555e+00
1	 0.000000e+00	 1.037037e+00	-8.665077e+00
1	 1.037037e+00	 0.000000e+00	 2.957126e+01
1	 1.036980e+00	 1.088696e-02	 2.946035e+01
1	 1.036807e+00	 2.181956e-02	 2.935066e+01
1	 1.036518e+00	 3.279624e-02	 2.924152e+01
1	 1.036111e+00	 4.381542e-02	 2.913226e+01
1	 1.035584e+00	 5.487545e-02	 2.902224e+01
1	 1.044444e+00	 0.000000e+00	 2.918449e+01
1	 1.044387e+00	 1.096473e-02	 2.906980e+01
1	 1.044213e+00	 2.197541e-02	 2.895788e+01
1	 1.043922e+00	 3.303050e-02	 2.884799e+01
1	 1.043512e+00	 4.412838e-02	 2.873939e+01
1	 1.042981e+00	 5.526742e-02	 2.863139e+01
1	 1.051852e+00	 0.000000e+00	 2.881275e+01
1	 1.051794e+00	 1.104249e-02	 2.869404e+01
1	 1.051619e+00	 2.213127e-02	 2.857967e+01
1	 1.051326e+00	 3.326476e-02	 2.846883e+01
1	 1.050913e+00	 4.444135e-02	 2.836074e+01
1	 1.050378e+00	 5.565938e-02	 2.825464e+01
1	 1.059259e+00	 0.000000e+00	 2.845505e+01
1	 1.059201e+00	 1.112026e-02	 2.833207e+01
1	 1.059025e+00	 2.228712e-02	 2.821503e+01
1	 1.058729e+00	 3.349902e-02	 2.810307e+01
1	 1.058313e+00	 4.475432e-02	 2.799533e+01
1	 1.057775e+00	 5.605135e-02	 2.789099e+01
1	 1.066667e+00	 0.000000e+00	 2.811040e+01
1	 1.066608e+00	 1.119802e-02	 2.798292e+01
1	 1.066431e+00	 2.244298e-02	 2.786300e+01
1	 1.066133e+00	 3.373328e-02	 2.774973e+01
1	 1.065714e+00	 4.506728e-02	 2.764219e+01
1	 1.065172e+00	 5.644332e-02	 2.753948e+01
1	 1.074074e+00	 0.000000e+00	 2.777787e+01
1	 1.074015e+00	 1.127578e-02	 2.764565e+01
1	 1.073836e+00	 2.259883e-02	 2.752265e+01
1	 1.073537e+00	 3.396754e-02	 2.740788e+01
1	 1.073115e+00	 4.538025e-02	 2.730037e+01
1	 1.072569e+00	 5.683529e-02	 2.719915e+01
1	 1.035584e+00	 5.487545e-02	 2.902224e+01
1	 1.034936e+00	 6.597466e-02	 2.891117e+01
1	 1.034166e+00	 7.711134e-02	 2.879864e+01
1	 1.033272e+00	 8.828371e-02	 2.868389e+01
1	 1.032254e+00	 9.948996e-02	 2.856617e+01
1	 1.031109e+00	 1.107283e-01	 2.844478e+01
1	 1.042981e+00	 5.526742e-02	 2.863139e+01
1	 1.042329e+00	 6.644591e-02	 2.852368e+01
1	 1.041553e+00	 7.766213e-02	 2.841584e+01
1	 1.040653e+00	 8.891430e-02	 2.830706e+01
1	 1.039627e+00	 1.002006e-01	 2.819651e+01
1	 1.038474e+00	 1.115192e-01	 2.808345e+01
1	 1.050378e+00	 5.565938e-02	 2.825464e+01
1	 1.049721e+00	 6.691716e-02	 2.815018e+01
1	 1.048940e+00	 7.821293e-02	 2.804694e+01
1	 1.048033e+00	 8.954490e-02	 2.794403e+01
1	 1.047000e+00	 1.009112e-01	 2.784056e+01
1	 1.045839e+00	 1.123101e-01	 2.773572e+01
1	 1.057775e+00	 5.605135e-02	 2.789099e+01
1	 1.057114e+00	 6.738841e-02	 2.778968e+01
1	 1.056327e+00	 7.876372e-02	 2.769094e+01
1	 1.055414e+00	 9.017550e-02	 2.759380e+01
1	 1.054373e+00	 1.016219e-01	 2.749732e+01
1	 1.053204e+00	 1.131010e-01	 2.740061e+01
1	 1.065172e+00	 5.644332e-02	 2.753948e+01
1	 1.064506e+00	 6.785965e-02	 2.744120e+01
1	 1.063714e+00	 7.931452e-02	 2.734685e+01
1	 1.062794e+00	 9.080610e-02	 2.725539e+01
1	 1.061747e+00	 1.023325e-01	 2.716582e+01
1	 1.060569e+00	 1.138919e-01	 2.707715e+01
1	 1.072569e+00	 5.683529e-02	 2.719915e+01
1	 1.071898e+00	 6.833090e-02	 2.710378e+01
1	 1.071101e+00	 7.986531e-02	 2.701372e+01
1	 1.070175e+00	 9.143669e-02	 2.692786e+01
1	 1.069120e+00	 1.030432e-01	 2.684510e+01
1	 1.067934e+00	 1.146828e-01	 2.676440e+01
1	 1.031109e+00	 1.107283e-01	 2.844478e+01
1	 1.029836e+00	 1.219967e-01	 2.831898e+01
1	 1.028435e+00	 1.332933e-01	 2.818795e+01
1	 1.026904e+00	 1.446162e-01	 2.805096e+01
1	 1.025242e+00	 1.559633e-01	 2.790729e+01
1	 1.023448e+00	 1.673326e-01	 2.775631e+01
1	 1.038474e+00	 1.115192e-01	 2.808345e+01
1	 1.037192e+00	 1.228681e-01	 2.796704e+01
1	 1.035781e+00	 1.342454e-01	 2.784640e+01
1	 1.034239e+00	 1.456492e-01	 2.772070e+01
1	 1.032565e+00	 1.570774e-01	 2.758918e+01
1	 1.030758e+00	 1.685278e-01	 2.745110e+01
1	 1.045839e+00	 1.123101e-01	 2.773572e+01
1	 1.044548e+00	 1.237395e-01	 2.762861e+01
1	 1.043127e+00	 1.351975e-01	 2.751827e+01
1	 1.041574e+00	 1.466822e-01	 2.740381e+01
1	 1.039888e+00	 1.581914e-01	 2.728438e+01
1	 1.038069e+00	 1.697231e-01	 2.715917e+01
1	 1.053204e+00	 1.131010e-01	 2.740061e+01
1	 1.051904e+00	 1.246109e-01	 2.730270e+01
1	 1.050473e+00	 1.361496e-01	 2.720258e+01
1	 1.048909e+00	 1.477151e-01	 2.709928e+01
1	 1.047212e+00	 1.593054e-01	 2.699188e+01
1	 1.045379e+00	 1.709183e-01	 2.687948e+01
1	 1.060569e+00	 1.138919e-01	 2.707715e+01
1	 1.059260e+00	 1.254823e-01	 2.698836e+01
1	 1.057819e+00	 1.371017e-01	 2.689838e+01
1	 1.056244e+00	 1.487481e-01	 2.680616e+01
1	 1.054535e+00	 1.604194e-01	 2.671069e+01
1	 1.052689e+00	 1.721135e-01	 2.661102e+01
1	 1.067934e+00	 1.146828e-01	 2.676440e+01
1	 1.066616e+00	 1.263537e-01	 2.668466e+01
1	 1.065165e+00	 1.380538e-01	 2.660473e+01
1	 1.063579e+00	 1.497811e-01	 2.652349e+01
1	 1.061858e+00	 1.615335e-01	 2.643986e+01
1	 1.060000e+00	 1.733088e-01	 2.635282e+01
1	 1.023448e+00	 1.673326e-01	 2.775631e+01
1	 1.021521e+00	 1.787220e-01	 2.759712e+01
1	 1.019459e+00	 1.901292e-01	 2.742913e+01
1	 1.017262e+00	 2.015523e-01	 2.725217e+01
1	 1.014929e+00	 2.129889e-01	 2.706616e+01
1	 1.012459e+00	 2.244369e-01	 2.687106e+01
1	 1.030758e+00	 1.685278e-01	 2.745110e+01
1	 1.028817e+00	 1.799985e-01	 2.730552e+01
1	 1.026741e+00	 1.914873e-01	 2.715179e+01
1	 1.024528e+00	 2.029920e-01	 2.698971e+01
1	 1.022179e+00	 2.145103e-01	 2.681912e+01
1	 1.019691e+00	 2.260400e-01	 2.663993e+01
1	 1.038069e+00	 1.697231e-01	 2.715917e+01
1	 1.036114e+00	 1.812751e-01	 2.702716e+01
1	 1.034023e+00	 1.928454e-01	 2.688763e+01
1	 1.031795e+00	 2.044316e-01	 2.674033e+01
1	 1.029428e+00	 2.160316e-01	 2.658504e+01
1	 1.026923e+00	 2.276431e-01	 2.642163e+01
1	 1.045379e+00	 1.709183e-01	 2.687948e+01
1	 1.043410e+00	 1.825517e-01	 2.676097e+01
1	 1.041305e+00	 1.942034e-01	 2.663556e+01
1	 1.039061e+00	 2.058713e-01	 2.650293e+01
1	 1.036678e+00	 2.175530e-01	 2.636283e+01
1	 1.034155e+00	 2.292462e-01	 2.621506e+01
1	 1.052689e+00	 1.721135e-01	 2.661102e+01
1	 1.050707e+00	 1.838283e-01	 2.650593e+01
1	 1.048586e+00	 1.955615e-01	 2.639453e+01
1	 1.046327e+00	 2.073109e-01	 2.627645e+01
1	 1.043927e+00	 2.190743e-01	 2.615140e+01
1	 1.041387e+00	 2.308493e-01	 2.601912e+01
1	 1.060000e+00	 1.733088e-01	 2.635282e+01
1	 1.058003e+00	 1.851049e-01	 2.626102e+01
1	 1.055868e+00	 1.969196e-01	 2.616350e+01
1	 1.053593e+00	 2.087506e-01	 2.605985e+01
1	 1.051177e+00	 2.205957e-01	 2.594970e+01
1	 1.048619e+00	 2.324525e-01	 2.583277e+01
1	 1.012459e+00	 2.244369e-01	 2.687106e+01
1	 1.009851e+00	 2.358938e-01	 2.666485e+01
1	 1.007105e+00	 2.473576e-01	 2.644551e+01
1	 1.004219e+00	 2.588256e-01	 2.621314e+01
1	 1.001192e+00	 2.702957e-01	 2.596784e+01
1	 9.980251e-01	 2.817654e-01	 2.570980e+01
1	 1.019691e+00	 2.260400e-01	 2.663993e+01
1	 1.017065e+00	 2.375788e-01	 2.644986e+01
1	 1.014298e+00	 2.491244e-01	 2.624668e+01
1	 1.011392e+00	 2.606744e-01	 2.603044e+01
1	 1.008344e+00	 2.722264e-01	 2.580129e+01
1	 1.005154e+00	 2.837781e-01	 2.555936e+01
1	 1.026923e+00	 2.276431e-01	 2.642163e+01
1	 1.024278e+00	 2.392638e-01	 2.624757e+01
1	 1.021492e+00	 2.508912e-01	 2.606038e+01
1	 1.018565e+00	 2.625232e-01	 2.586012e+01
1	 1.015495e+00	 2.741571e-01	 2.564690e+01
1	 1.012283e+00	 2.857907e-01	 2.542086e+01
1	 1.034155e+00	 2.292462e-01	 2.621506e+01
1	 1.031491e+00	 2.409487e-01	 2.605686e+01
1	 1.028686e+00	 2.526581e-01	 2.588555e+01
1	 1.025738e+00	 2.643719e-01	 2.570116e+01
1	 1.022646e+00	 2.760878e-01	 2.550376e+01
1	 1.019411e+00	 2.878033e-01	 2.529347e+01
1	 1.041387e+00	 2.308493e-01	 2.601912e+01
1	 1.038704e+00	 2.426337e-01	 2.587666e+01
1	 1.035879e+00	 2.544249e-01	 2.572116e+01
1	 1.032911e+00	 2.662207e-01	 2.555260e+01
1	 1.029798e+00	 2.780185e-01	 2.537099e+01
1	 1.026540e+00	 2.898159e-01	 2.517644e+01
1	 1.048619e+00	 2.324525e-01	 2.583277e+01
1	 1.045918e+00	 2.443186e-01	 2.570594e+01
1	 1.043073e+00	 2.561918e-01	 2.556621e+01
1	 1.040084e+00	 2.680694e-01	 2.541348e+01
1	 1.036949e+00	 2.799492e-01	 2.524773e+01
1	 1.033669e+00	 2.918285e-01	 2.506900e+01
1	 9.980251e-01	 2.817654e-01	 2.570980e+01
1	 9.947164e-01	 2.932323e-01	 2.544034e+01
1	 9.912656e-01	 3.046939e-01	 2.516152e+01
1	 9.876723e-01	 3.161476e-01	 2.487472e+01
1	 9.839359e-01	 3.275911e-01	 2.458137e+01
1	 9.800562e-01	 3.390217e-01	 2.428301e+01
1	 1.005154e+00	 2.837781e-01	 2.555936e+01
1	 1.001821e+00	 2.953268e-01	 2.530623e+01
1	 9.983461e-01	 3.068702e-01	 2.504415e+01
1	 9.947271e-01	 3.184058e-01	 2.477445e+01
1	 9.909640e-01	 3.299310e-01	 2.449855e+01
1	 9.870566e-01	 3.414432e-01	 2.421797e+01
1	 1.012283e+00	 2.857907e-01	 2.542086e+01
1	 1.008927e+00	 2.974213e-01	 2.518372e+01
1	 1.005427e+00	 3.090466e-01	 2.493793e+01
1	 1.001782e+00	 3.206640e-01	 2.468479e+01
1	 9.979922e-01	 3.322709e-01	 2.442570e+01
1	 9.940570e-01	 3.438648e-01	 2.416213e+01
1	 1.019411e+00	 2.878033e-01	 2.529347e+01
1	 1.016032e+00	 2.995159e-01	 2.507212e+01
1	 1.012507e+00	 3.112230e-01	 2.484225e+01
1	 1.008837e+00	 3.229222e-01	 2.460515e+01
1	 1.005020e+00	 3.346109e-01	 2.436221e+01
1	 1.001057e+00	 3.462864e-01	 2.411485e+01
1	 1.026540e+00	 2.898159e-01	 2.517644e+01
1	 1.023137e+00	 3.016104e-01	 2.497075e+01
1	 1.019587e+00	 3.133994e-01	 2.475650e+01
1	 1.015891e+00	 3.251804e-01	 2.453496e+01
1	 1.012048e+00	 3.369508e-01	 2.430749e+01
1	 1.008058e+00	 3.487080e-01	 2.407549e+01
1	 1.033669e+00	 2.918285e-01	 2.506900e+01
1	 1.030242e+00	 3.037049e-01	 2.487897e+01
1	 1.026668e+00	 3.155758e-01	 2.468010e+01
1	 1.022946e+00	 3.274386e-01	 2.447366e+01
1	 1.019076e+00	 3.392907e-01	 2.426098e+01
1	 1.015058e+00	 3.511296e-01	 2.404344e+01
1	 9.800562e-01	 3.390217e-01	 2.428301e+01
1	 9.760327e-01	 3.504368e-01	 2.396936e+01
1	 9.718652e-01	 3.618340e-01	 2.362920e+01
1	 9.675535e-01	 3.732105e-01	 2.326252e+01
1	 9.630973e-01	 3.845639e-01	 2.286919e+01
1	 9.584967e-01	 3.958913e-01	 2.244888e+01
1	 9.870566e-01	 3.414432e-01	 2.421797e+01
1	 9.830044e-01	 3.529399e-01	 2.392079e+01
1	 9.788071e-01	 3.644185e-01	 2.359415e+01
1	 9.744646e-01	 3.758763e-01	 2.323809e+01
1	 9.699766e-01	 3.873107e-01	 2.285242e+01
1	 9.653431e-01	 3.987191e-01	 2.243683e+01
1	 9.940570e-01	 3.438648e-01	 2.416213e+01
1	 9.899760e-01	 3.554431e-01	 2.388052e+01
1	 9.857490e-01	 3.670030e-01	 2.356641e+01
1	 9.813757e-01	 3.785421e-01	 2.321981e+01
1	 9.768559e-01	 3.900576e-01	 2.284059e+01
1	 9.721895e-01	 4.015469e-01	 2.242842e+01
1	 1.001057e+00	 3.462864e-01	 2.411485e+01
1	 9.969477e-01	 3.579462e-01	 2.384787e+01
1	 9.926909e-01	 3.695876e-01	 2.354522e+01
1	 9.882868e-01	 3.812079e-01	 2.320695e+01
1	 9.837351e-01	 3.928045e-01	 2.283294e+01
1	 9.790359e-01	 4.043747e-01	 2.242290e+01
1	 1.008058e+00	 3.487080e-01	 2.407549e+01
1	 1.003919e+00	 3.604493e-01	 2.382215e+01
1	 9.996328e-01	 3.721721e-01	 2.352986e+01
1	 9.951979e-01	 3.838737e-01	 2.319874e+01
1	 9.906144e-01	 3.955514e-01	 2.282873e+01
1	 9.858823e-01	 4.072025e-01	 2.241957e+01
1	 1.015058e+00	 3.511296e-01	 2.404344e+01
1	 1.010891e+00	 3.629524e-01	 2.380267e+01
1	 1.006575e+00	 3.747566e-01	 2.351962e+01
1	 1.002109e+00	 3.865395e-01	 2.319447e+01
1	 9.974937e-01	 3.982983e-01	 2.282723e+01
1	 9.927287e-01	 4.100303e-01	 2.241773e+01
1	 9.584967e-01	 3.958913e-01	 2.244888e+01
1	 9.537515e-01	 4.071902e-01	 2.199290e+01
1	 9.488618e-01	 4.184580e-01	 2.149353e+01
1	 9.438277e-01	 4.296918e-01	 2.095182e+01
1	 9.386493e-01	 4.408891e-01	 2.036882e+01
1	 9.333269e-01	 4.520472e-01	 1.974559e+01
1	 9.653431e-01	 3.987191e-01	 2.243683e+01
1	 9.605640e-01	 4.100987e-01	 2.198358e+01
1	 9.556394e-01	 4.214469e-01	 2.148599e+01
1	 9.505693e-01	 4.327610e-01	 2.094514e+01
1	 9.453540e-01	 4.440383e-01	 2.036211e+01
1	 9.399935e-01	 4.552761e-01	 1.973800e+01
1	 9.721895e-01	 4.015469e-01	 2.242842e+01
1	 9.673765e-01	 4.130072e-01	 2.197662e+01
1	 9.624170e-01	 4.244359e-01	 2.147959e+01
1	 9.573110e-01	 4.358303e-01	 2.093843e+01
1	 9.520586e-01	 4.471875e-01	 2.035427e+01
1	 9.466602e-01	 4.585050e-01	 1.972823e+01
1	 9.790359e-01	 4.043747e-01	 2.242290e+01
1	 9.741890e-01	 4.159157e-01	 2.197131e+01
1	 9.691946e-01	 4.274249e-01	 2.147367e+01
1	 9.640526e-01	 4.388995e-01	 2.093112e+01
1	 9.587633e-01	 4.503368e-01	 2.034478e+01
1	 9.533268e-01	 4.617339e-01	 1.971582e+01
1	 9.858823e-01	 4.072025e-01	 2.241957e+01
1	 9.810016e-01	 4.188242e-01	 2.196697e+01
1	 9.759722e-01	 4.304139e-01	 2.146760e+01
1	 9.707942e-01	 4.419687e-01	 2.092261e+01
1	 9.654679e-01	 4.534860e-01	 2.033313e+01
1	 9.599934e-01	 4.649628e-01	 1.970033e+01
1	 9.927287e-01	 4.100303e-01	 2.241773e+01
1	 9.878141e-01	 4.217327e-01	 2.196293e+01
1	 9.827497e-01	 4.334029e-01	 2.146076e+01
1	 9.775358e-01	 4.450380e-01	 2.091234e+01
1	 9.721725e-01	 4.566352e-01	 2.031880e+01
1	 9.666600e-01	 4.681917e-01	 1.968132e+01
1	 9.333269e-01	 4.520472e-01	 1.974559e+01
1	 9.278607e-01	 4.631633e-01	 1.909309e+01
1	 9.222511e-01	 4.742348e-01	 1.842176e+01
1	 9.164986e-01	 4.852589e-01	 1.773185e+01
1	 9.106034e-01	 4.962330e-01	 1.702360e+01
1	 9.045664e-01	 5.071543e-01	 1.629723e+01
1	 9.399935e-01	 4.552761e-01	 1.973800e+01
1	 9.344883e-01	 4.664716e-01	 1.908389e+01
1	 9.288387e-01	 4.776222e-01	 1.841027e+01
1	 9.230450e-01	 4.887251e-01	 1.771734e+01
1	 9.171078e-01	 4.997775e-01	 1.700534e+01
1	 9.110275e-01	 5.107769e-01	 1.627444e+01
1	 9.466602e-01	 4.585050e-01	 1.972823e+01
1	 9.411159e-01	 4.697799e-01	 1.907145e+01
1	 9.354262e-01	 4.810096e-01	 1.839443e+01
1	 9.295914e-01	 4.921912e-01	 1.769739e+01
1	 9.236121e-01	 5.033220e-01	 1.698051e+01
1	 9.174887e-01	 5.143994e-01	 1.624395e+01
1	 9.533268e-01	 4.617339e-01	 1.971582e+01
1	 9.477435e-01	 4.730882e-01	 1.905537e+01
1	 9.420137e-01	 4.843970e-01	 1.837393e+01
1	 9.361378e-01	 4.956573e-01	 1.767168e+01
1	 9.301164e-01	 5.068666e-01	 1.694879e+01
1	 9.239499e-01	 5.180219e-01	 1.620541e+01
1	 9.599934e-01	 4.649628e-01	 1.970033e+01
1	 9.543711e-01	 4.763966e-01	 1.903528e+01
1	 9.486012e-01	 4.877844e-01	 1.834841e+01
1	 9.426842e-01	 4.991235e-01	 1.763989e+01
1	 9.366207e-01	 5.104111e-01	 1.690987e+01
1	 9.304111e-01	 5.216445e-01	 1.615845e+01
1	 9.666600e-01	 4.681917e-01	 1.968132e+01
1	 9.609986e-01	 4.797049e-01	 1.901082e+01
1	 9.551887e-01	 4.911717e-01	 1.831757e+01
1	 9.492306e-01	 5.025896e-01	 1.760172e+01
1	 9.431250e-01	 5.139556e-01	 1.686342e+01
1	 9.368723e-01	 5.252670e-01	 1.610274e+01
1	 9.045664e-01	 5.071543e-01	 1.629723e+01
1	 8.983879e-01	 5.180202e-01	 1.555995e+01
1	 8.920688e-01	 5.288280e-01	 1.481927e+01
1	 8.856098e-01	 5.395749e-01	 1.407583e+01
1	 8.790117e-01	 5.502584e-01	 1.333033e+01
1	 8.722753e-01	 5.608757e-01	 1.258345e+01
1	 9.110275e-01	 5.107769e-01	 1.627444e+01
1	 9.048050e-01	 5.217204e-01	 1.553210e+01
1	 8.984407e-01	 5.326053e-01	 1.478607e+01
1	 8.919356e-01	 5.434290e-01	 1.403695e+01
1	 8.852903e-01	 5.541888e-01	 1.328541e+01
1	 8.785059e-01	 5.648820e-01	 1.253210e+01
1	 9.174887e-01	 5.143994e-01	 1.624395e+01
1	 9.112220e-01	 5.254205e-01	 1.549541e+01
1	 9.048127e-01	 5.363827e-01	 1.474286e+01
1	 8.982614e-01	 5.472831e-01	 1.398688e+01
1	 8.915690e-01	 5.581192e-01	 1.322810e+01
1	 8.847364e-01	 5.688882e-01	 1.246714e+01
1	 9.239499e-01	 5.180219e-01	 1.620541e+01
1	 9.176391e-01	 5.291207e-01	 1.544948e+01
1	 9.111846e-01	 5.401600e-01	 1.468922e+01
1	 9.045872e-01	 5.511372e-01	 1.392520e+01
1	 8.978476e-01	 5.620496e-01	 1.315800e+01
1	 8.909669e-01	 5.728945e-01	 1.238824e+01
1	 9.304111e-01	 5.216445e-01	 1.615845e+01
1	 9.240562e-01	 5.328208e-01	 1.539390e+01
1	 9.175565e-01	 5.439373e-01	 1.462474e+01
1	 9.109129e-01	 5.549913e-01	 1.385151e+01
1	 9.041263e-01	 5.659800e-01	 1.307475e+01
1	 8.971975e-01	 5.769007e-01	 1.229506e+01
1	 9.368723e-01	 5.252670e-01	 1.610274e+01
1	 9.304732e-01	 5.365209e-01	 1.532831e+01
1	 9.239284e-01	 5.477147e-01	 1.454904e+01
1	 9.172387e-01	 5.588454e-01	 1.376542e+01
1	 9.104050e-01	 5.699105e-01	 1.297798e+01
1	 9.034280e-01	 5.809070e-01	 1.218729e+01
1	 8.722753e-01	 5.608757e-01	 1.258345e+01
1	 8.654017e-01	 5.714243e-01	 1.184321e+01
1	 8.583918e-01	 5.819014e-01	 1.111778e+01
1	 8.512468e-01	 5.923046e-01	 1.040821e+01
1	 8.439677e-01	 6.026311e-01	 9.715628e+00
1	 8.365559e-01	 6.128785e-01	 9.041221e+00
1	 8.785059e-01	 5.648820e-01	 1.253210e+01
1	 8.715832e-01	 5.755059e-01	 1.178536e+01
1	 8.645232e-01	 5.860579e-01	 1.105375e+01
1	 8.573271e-01	 5.965353e-01	 1.033829e+01
1	 8.499961e-01	 6.069356e-01	 9.640118e+00
1	 8.425313e-01	 6.172562e-01	 8.960433e+00
1	 8.847364e-01	 5.688882e-01	 1.246714e+01
1	 8.777646e-01	 5.795875e-01	 1.171272e+01
1	 8.706546e-01	 5.902143e-01	 1.097375e+01
1	 8.634075e-01	 6.007661e-01	 1.025127e+01
1	 8.560244e-01	 6.112401e-01	 9.546384e+00
1	 8.485067e-01	 6.216339e-01	 8.860281e+00
1	 8.909669e-01	 5.728945e-01	 1.238824e+01
1	 8.839460e-01	 5.836691e-01	 1.162498e+01
1	 8.767860e-01	 5.943707e-01	 1.087754e+01
1	 8.694878e-01	 6.049968e-01	 1.014690e+01
1	 8.620528e-01	 6.155446e-01	 9.434158e+00
1	 8.544821e-01	 6.260116e-01	 8.740467e+00
1	 8.971975e-01	 5.769007e-01	 1.229506e+01
1	 8.901275e-01	 5.877507e-01	 1.152187e+01
1	 8.829173e-01	 5.985272e-01	 1.076484e+01
1	 8.755681e-01	 6.092275e-01	 1.002493e+01
1	 8.680811e-01	 6.198492e-01	 9.303183e+00
1	 8.604575e-01	 6.303893e-01	 8.600705e+00
1	 9.034280e-01	 5.809070e-01	 1.218729e+01
1	 8.963089e-01	 5.918323e-01	 1.140312e+01
1	 8.890487e-01	 6.026836e-01	 1.063543e+01
1	 8.816485e-01	 6.134583e-01	 9.885132e+00
1	 8.741094e-01	 6.241537e-01	 9.153208e+00
1	 8.664329e-01	 6.347671e-01	 8.440715e+00
1	 8.365559e-01	 6.128785e-01	 9.041221e+00
1	 8.290125e-01	 6.230443e-01	 8.390223e+00
1	 8.213389e-01	 6.331258e-01	 7.767847e+00
1	 8.135365e-01	 6.431207e-01	 7.175359e+00
1	 8.056068e-01	 6.530264e-01	 6.614089e+00
1	 7.975513e-01	 6.628406e-01	 6.085427e+00
1	 8.425313e-01	 6.172562e-01	 8.960433e+00
1	 8.349340e-01	 6.274946e-01	 8.304520e+00
1	 8.272056e-01	 6.376481e-01	 7.677674e+00
1	 8.193475e-01	 6.477144e-01	 7.081213e+00
1	 8.113611e-01	 6.576909e-01	 6.516523e+00
1	 8.032481e-01	 6.675752e-01	 5.985059e+00
1	 8.485067e-01	 6.216339e-01	 8.860281e+00
1	 8.408555e-01	 6.319449e-01	 8.198318e+00
1	 8.330723e-01	 6.421704e-01	 7.565913e+00
1	 8.251584e-01	 6.523081e-01	 6.964461e+00
1	 8.171155e-01	 6.623554e-01	 6.395431e+00
1	 8.089449e-01	 6.723098e-01	 5.860370e+00
1	 8.544821e-01	 6.260116e-01	 8.740467e+00
1	 8.467770e-01	 6.363952e-01	 8.071286e+00
1	 8.389390e-01	 6.466928e-01	 7.432216e+00
1	 8.309694e-01	 6.569018e-01	 6.824750e+00
1	 8.228698e-01	 6.670198e-01	 6.250469e+00
1	 8.146417e-01	 6.770443e-01	 5.711035e+00
1	 8.604575e-01	 6.303893e-01	 8.600705e+00
1	 8.526985e-01	 6.408455e-01	 7.923107e+00
1	 8.448057e-01	 6.512151e-01	 7.276246e+00
1	 8.367804e-01	 6.614955e-01	 6.661739e+00
1	 8.286241e-01	 6.716843e-01	 6.081300e+00
1	 8.203385e-01	 6.817789e-01	 5.536737e+00
1	 8.664329e-01	 6.347671e-01	 8.440715e+00
1	 8.586201e-01	 6.452958e-01	 7.753469e+00
1	 8.506724e-01	 6.557374e-01	 7.097673e+00
1	 8.425914e-01	 6.660893e-01	 6.475093e+00
1	 8.343785e-01	 6.763488e-01	 5.887599e+00
1	 8.260353e-01	 6.865135e-01	 5.337169e+00
1	 7.975513e-01	 6.628406e-01	 6.085427e+00
1	 7.893717e-01	 6.725609e-01	 5.589684e+00
1	 7.810694e-01	 6.821850e-01	 5.128432e+00
1	 7.726464e-01	 6.917105e-01	 4.705113e+00
1	 7.641043e-01	 7.011351e-01	 4.323316e+00
1	 7.554449e-01	 7.104568e-01	 3.986774e+00
1	 8.032481e-01	 6.675752e-01	 5.985059e+00
1	 7.950100e-01	 6.773649e-01	 5.487769e+00
1	 7.866485e-01	 6.870577e-01	 5.026839e+00
1	 7.781653e-01	 6.966513e-01	 4.605745e+00
1	 7.695621e-01	 7.061433e-01	 4.228113e+00
1	 7.608409e-01	 7.155315e-01	 3.897705e+00
1	 8.089449e-01	 6.723098e-01	 5.860370e+00
1	 8.006484e-01	 6.821689e-01	 5.360826e+00
1	 7.922276e-01	 6.919305e-01	 4.899480e+00
1	 7.836842e-01	 7.015921e-01	 4.479748e+00
1	 7.750200e-01	 7.111514e-01	 4.105187e+00
1	 7.662370e-01	 7.206062e-01	 3.779496e+00
1	 8.146417e-01	 6.770443e-01	 5.711035e+00
1	 8.062868e-01	 6.869729e-01	 5.208543e+00
1	 7.978066e-01	 6.968032e-01	 4.746038e+00
1	 7.892031e-01	 7.065328e-01	 4.326774e+00
1	 7.804779e-01	 7.161595e-01	 3.954150e+00
1	 7.716330e-01	 7.256809e-01	 3.631695e+00
1	 8.203385e-01	 6.817789e-01	 5.536737e+00
1	 8.119251e-01	 6.917770e-01	 5.030620e+00
1	 8.033857e-01	 7.016760e-01	 4.566203e+00
1	 7.947220e-01	 7.114736e-01	 4.146490e+00
1	 7.859358e-01	 7.211676e-01	 3.774620e+00
1	 7.770290e-01	 7.307556e-01	 3.453863e+00
1	 8.260353e-01	 6.865135e-01	 5.337169e+00
1	 8.175635e-01	 6.965810e-01	 4.826761e+00
1	 8.089648e-01	 7.065487e-01	 4.359673e+00
1	 8.002409e-01	 7.164144e-01	 3.938566e+00
1	 7.913937e-01	 7.261757e-01	 3.566230e+00
1	 7.824251e-01	 7.358302e-01	 3.245573e+00
1	 7.554449e-01	 7.104568e-01	 3.986774e+00
1	 7.466701e-01	 7.196732e-01	 3.689439e+00
1	 7.377819e-01	 7.287823e-01	 3.420399e+00
1	 7.287823e-01	 7.377819e-01	 3.176052e+00
1	 7.196732e-01	 7.466701e-01	 2.952620e+00
1	 7.104568e-01	 7.554449e-01	 2.746161e+00
1	 7.608409e-01	 7.155315e-01	 3.897705e+00
1	 7.520035e-01	 7.248137e-01	 3.606524e+00
1	 7.430518e-01	 7.339879e-01	 3.341494e+00
1	 7.339879e-01	 7.430518e-01	 3.098722e+00
1	 7.248137e-01	 7.520035e-01	 2.874133e+00
1	 7.155315e-01	 7.608409e-01	 2.663482e+00
1	 7.662370e-01	 7.206062e-01	 3.779496e+00
1	 7.573368e-01	 7.299543e-01	 3.492652e+00
1	 7.483217e-01	 7.391935e-01	 3.229567e+00
1	 7.391935e-01	 7.483217e-01	 2.986298e+00
1	 7.299543e-01	 7.573368e-01	 2.758718e+00
1	 7.206062e-01	 7.662370e-01	 2.542529e+00
1	 7.716330e-01	 7.256809e-01	 3.631695e+00
1	 7.626702e-01	 7.350948e-01	 3.347345e+00
1	 7.535916e-01	 7.443991e-01	 3.084201e+00
1	 7.443991e-01	 7.535916e-01	 2.838502e+00
1	 7.350948e-01	 7.626702e-01	 2.606309e+00
1	 7.256809e-01	 7.716330e-01	 2.383516e+00
1	 7.770290e-01	 7.307556e-01	 3.453863e+00
1	 7.680036e-01	 7.402353e-01	 3.170142e+00
1	 7.588614e-01	 7.496046e-01	 2.904993e+00
1	 7.496046e-01	 7.588614e-01	 2.655065e+00
1	 7.402353e-01	 7.680036e-01	 2.416842e+00
1	 7.307556e-01	 7.770290e-01	 2.186651e+00
1	 7.824251e-01	 7.358302e-01	 3.245573e+00
1	 7.733369e-01	 7.453758e-01	 2.960593e+00
1	 7.641313e-01	 7.548102e-01	 2.691548e+00
1	 7.548102e-01	 7.641313e-01	 2.435723e+00
1	 7.453758e-01	 7.733369e-01	 2.190254e+00
1	 7.358302e-01	 7.824251e-01	 1.952138e+00
1	 7.104568e-01	 7.554449e-01	 2.746161e+00
1	 7.011351e-01	 7.641043e-01	 2.539932e+00
1	 6.917105e-01	 7.726464e-01	 2.318991e+00
1	 6.821850e-01	 7.810694e-01	 2.081874e+00
1	 6.725609e-01	 7.893717e-01	 1.826978e+00
1	 6.628406e-01	 7.975513e-01	 1.552572e+00
1	 7.155315e-01	 7.608409e-01	 2.663482e+00
1	 7.061433e-01	 7.695621e-01	 2.449799e+00
1	 6.966513e-01	 7.781653e-01	 2.218392e+00
1	 6.870577e-01	 7.866485e-01	 1.968213e+00
1	 6.773649e-01	 7.950100e-01	 1.698088e+00
1	 6.675752e-01	 8.032481e-01	 1.406722e+00
1	 7.206062e-01	 7.662370e-01	 2.542529e+00
1	 7.111514e-01	 7.750200e-01	 2.320785e+00
1	 7.015921e-01	 7.836842e-01	 2.078991e+00
1	 6.919305e-01	 7.922276e-01	 1.816302e+00
1	 6.821689e-01	 8.006484e-01	 1.531751e+00
1	 6.723098e-01	 8.089449e-01	 1.224253e+00
1	 7.256809e-01	 7.716330e-01	 2.383516e+00
1	 7.161595e-01	 7.804779e-01	 2.153373e+00
1	 7.065328e-01	 7.892031e-01	 1.901449e+00
1	 6.968032e-01	 7.978066e-01	 1.626892e+00
1	 6.869729e-01	 8.062868e-01	 1.328729e+00
1	 6.770443e-01	 8.146417e-01	 1.005866e+00
1	 7.307556e-01	 7.770290e-01	 2.186651e+00
1	 7.211676e-01	 7.859358e-01	 1.948030e+00
1	 7.114736e-01	 7.947220e-01	 1.686404e+00
1	 7.016760e-01	 8.033857e-01	 1.400713e+00
1	 6.917770e-01	 8.119251e-01	 1.089767e+00
1	 6.817789e-01	 8.203385e-01	 7.522427e-01
1	 7.358302e-01	 7.824251e-01	 1.952138e+00
1	 7.261757e-01	 7.913937e-01	 1.705211e+00
1	 7.164144e-01	 8.002409e-01	 1.434479e+00
1	 7.065487e-01	 8.089648e-01	 1.138476e+00
1	 6.965810e-01	 8.175635e-01	 8.155859e-01
1	 6.865135e-01	 8.260353e-01	 4.640470e-01
1	 6.628406e-01	 7.975513e-01	 1.552572e+00
1	 6.530264e-01	 8.056068e-01	 1.256016e+00
1	 6.431207e-01	 8.135365e-01	 9.351791e-01
1	 6.331258e-01	 8.213389e-01	 5.889352e-01
1	 6.230443e-01	 8.290125e-01	 2.160885e-01
1	 6.128785e-01	 8.365559e-01	-1.846237e-01
1	 6.675752e-01	 8.032481e-01	 1.406722e+00
1	 6.576909e-01	 8.113611e-01	 1.092000e+00
1	 6.477144e-01	 8.193475e-01	 7.518545e-01
1	 6.376481e-01	 8.272056e-01	 3.849103e-01
1	 6.274946e-01	 8.349340e-01	-1.028481e-02
1	 6.172562e-01	 8.425313e-01	-4.352545e-01
1	 6.723098e-01	 8.089449e-01	 1.224253e+00
1	 6.623554e-01	 8.171155e-01	 8.919585e-01
1	 6.523081e-01	 8.251584e-01	 5.327988e-01
1	 6.421704e-01	 8.330723e-01	 1.452077e-01
1	 6.319449e-01	 8.408555e-01	-2.724618e-01
1	 6.216339e-01	 8.485067e-01	-7.219323e-01
1	 6.770443e-01	 8.146417e-01	 1.005866e+00
1	 6.670198e-01	 8.228698e-01	 6.565024e-01
1	 6.569018e-01	 8.309694e-01	 2.785434e-01
1	 6.466928e-01	 8.389390e-01	-1.297081e-01
1	 6.363952e-01	 8.467770e-01	-5.700342e-01
1	 6.260116e-01	 8.544821e-01	-1.044296e+00
1	 6.817789e-01	 8.203385e-01	 7.522427e-01
1	 6.716843e-01	 8.286241e-01	 3.862240e-01
1	 6.614955e-01	 8.367804e-01	-1.039533e-02
1	 6.512151e-01	 8.448057e-01	-4.393855e-01
1	 6.408455e-01	 8.526985e-01	-9.026052e-01
1	 6.303893e-01	 8.604575e-01	-1.401995e+00
1	 6.865135e-01	 8.260353e-01	 4.640470e-01
1	 6.763488e-01	 8.343785e-01	 8.169984e-02
1	 6.660893e-01	 8.425914e-01	-3.335152e-01
1	 6.557374e-01	 8.506724e-01	-7.833855e-01
1	 6.452958e-01	 8.586201e-01	-1.269789e+00
1	 6.347671e-01	 8.664329e-01	-1.794688e+00
1	 6.128785e-01	 8.365559e-01	-1.846237e-01
1	 6.026311e-01	 8.439677e-01	-6.117203e-01
1	 5.923046e-01	 8.512468e-01	-1.063392e+00
1	 5.819014e-01	 8.583918e-01	-1.540480e+00
1	 5.714243e-01	 8.654017e-01	-2.043849e+00
1	 5.608757e-01	 8.722753e-01	-2.574388e+00
1	 6.172562e-01	 8.425313e-01	-4.352545e-01
1	 6.069356e-01	 8.499961e-01	-8.885381e-01
1	 5.965353e-01	 8.573271e-01	-1.368144e+00
1	 5.860579e-01	 8.645232e-01	-1.874873e+00
1	 5.755059e-01	 8.715832e-01	-2.409554e+00
1	 5.648820e-01	 8.785059e-01	-2.973038e+00
1	 6.216339e-01	 8.485067e-01	-7.219323e-01
1	 6.112401e-01	 8.560244e-01	-1.201691e+00
1	 6.007661e-01	 8.634075e-01	-1.709533e+00
1	 5.902143e-01	 8.706546e-01	-2.246216e+00
1	 5.795875e-01	 8.777646e-01	-2.812528e+00
1	 5.688882e-01	 8.847364e-01	-3.409281e+00
1	 6.260116e-01	 8.544821e-01	-1.044296e+00
1	 6.155446e-01	 8.620528e-01	-1.550850e+00
1	 6.049968e-01	 8.694878e-01	-2.087238e+00
1	 5.943707e-01	 8.767860e-01	-2.654176e+00
1	 5.836691e-01	 8.839460e-01	-3.252406e+00
1	 5.728945e-01	 8.909669e-01	-3.882694e+00
1	 6.303893e-01	 8.604575e-01	-1.401995e+00
1	 6.198492e-01	 8.680811e-01	-1.935695e+00
1	 6.092275e-01	 8.755681e-01	-2.500950e+00
1	 5.985272e-01	 8.829173e-01	-3.098429e+00
1	 5.877507e-01	 8.901275e-01	-3.728829e+00
1	 5.769007e-01	 8.971975e-01	-4.392863e+00
1	 6.347671e-01	 8.664329e-01	-1.794688e+00
1	 6.241537e-01	 8.741094e-01	-2.355916e+00
1	 6.134583e-01	 8.816485e-01	-2.950365e+00
1	 6.026836e-01	 8.890487e-01	-3.578663e+00
1	 5.918323e-01	 8.963089e-01	-4.241451e+00
1	 5.809070e-01	 9.034280e-01	-4.939388e+00
1	 5.608757e-01	 8.722753e-01	-2.574388e+00
1	 5.502584e-01	 8.790117e-01	-3.126215e+00
1	 5.395749e-01	 8.856098e-01	-3.692416e+00
1	 5.288280e-01	 8.920688e-01	-4.272321e+00
1	 5.180202e-01	 8.983879e-01	-4.865241e+00
1	 5.071543e-01	 9.045664e-01	-5.470461e+00
1	 5.648820e-01	 8.785059e-01	-2.973038e+00
1	 5.541888e-01	 8.852903e-01	-3.559015e+00
1	 5.434290e-01	 8.919356e-01	-4.160122e+00
1	 5.326053e-01	 8.984407e-01	-4.775626e+00
1	 5.217204e-01	 9.048050e-01	-5.404760e+00
1	 5.107769e-01	 9.110275e-01	-6.046731e+00
1	 5.688882e-01	 8.847364e-01	-3.409281e+00
1	 5.581192e-01	 8.915690e-01	-4.029693e+00
1	 5.472831e-01	 8.982614e-01	-4.665950e+00
1	 5.363827e-01	 9.048127e-01	-5.317299e+00
1	 5.254205e-01	 9.112220e-01	-5.982955e+00
1	 5.143994e-01	 9.174887e-01	-6.662097e+00
1	 5.728945e-01	 8.909669e-01	-3.882694e+00
1	 5.620496e-01	 8.978476e-01	-4.537780e+00
1	 5.511372e-01	 9.045872e-01	-5.209422e+00
1	 5.401600e-01	 9.111846e-01	-5.896901e+00
1	 5.291207e-01	 9.176391e-01	-6.599459e+00
1	 5.180219e-01	 9.239499e-01	-7.316305e+00
1	 5.769007e-01	 8.971975e-01	-4.392863e+00
1	 5.659800e-01	 9.041263e-01	-5.082815e+00
1	 5.549913e-01	 9.109129e-01	-5.790075e+00
1	 5.439373e-01	 9.175565e-01	-6.514001e+00
1	 5.328208e-01	 9.240562e-01	-7.253915e+00
1	 5.216445e-01	 9.304111e-01	-8.009110e+00
1	 5.809070e-01	 9.034280e-01	-4.939388e+00
1	 5.699105e-01	 9.104050e-01	-5.664355e+00
1	 5.588454e-01	 9.172387e-01	-6.407458e+00
1	 5.477147e-01	 9.239284e-01	-7.168182e+00
1	 5.365209e-01	 9.304732e-01	-7.945978e+00
1	 5.252670e-01	 9.368723e-01	-8.740271e+00
1	 5.071543e-01	 9.045664e-01	-5.470461e+00
1	 4.962330e-01	 9.106034e-01	-6.080728e+00
1	 4.852589e-01	 9.164986e-01	-6.688338e+00
1	 4.742348e-01	 9.222511e-01	-7.291850e+00
1	 4.631633e-01	 9.278607e-01	-7.889792e+00
1	 4.520472e-01	 9.333269e-01	-8.480656e+00
1	 5.107769e-01	 9.110275e-01	-6.046731e+00
1	 4.997775e-01	 9.171078e-01	-6.693995e+00
1	 4.887251e-01	 9.230450e-01	-7.338547e+00
1	 4.776222e-01	 9.288387e-01	-7.978849e+00
1	 4.664716e-01	 9.344883e-01	-8.613325e+00
1	 4.552761e-01	 9.399935e-01	-9.240372e+00
1	 5.143994e-01	 9.174887e-01	-6.662097e+00
1	 5.033220e-01	 9.236121e-01	-7.346947e+00
1	 4.921912e-01	 9.295914e-01	-8.029164e+00
1	 4.810096e-01	 9.354262e-01	-8.707027e+00
1	 4.697799e-01	 9.411159e-01	-9.378779e+00
1	 4.585050e-01	 9.466602e-01	-1.004263e+01
1	 5.180219e-01	 9.239499e-01	-7.316305e+00
1	 5.068666e-01	 9.301164e-01	-8.039435e+00
1	 4.956573e-01	 9.361378e-01	-8.760092e+00
1	 4.843970e-01	 9.420137e-01	-9.476294e+00
1	 4.730882e-01	 9.477435e-01	-1.018602e+01
1	 4.617339e-01	 9.533268e-01	-1.088720e+01
1	 5.216445e-01	 9.304111e-01	-8.009110e+00
1	 5.104111e-01	 9.366207e-01	-8.771317e+00
1	 4.991235e-01	 9.426842e-01	-9.531241e+00
1	 4.877844e-01	 9.486012e-01	-1.028656e+01
1	 4.763966e-01	 9.543711e-01	-1.103491e+01
1	 4.649628e-01	 9.599934e-01	-1.177387e+01
1	 5.252670e-01	 9.368723e-01	-8.740271e+00
1	 5.139556e-01	 9.431250e-01	-9.542451e+00
1	 5.025896e-01	 9.492306e-01	-1.034252e+01
1	 4.911717e-01	 9.551887e-01	-1.113774e+01
1	 4.797049e-01	 9.609986e-01	-1.192533e+01
1	 4.681917e-01	 9.666600e-01	-1.270242e+01
1	 4.520472e-01	 9.333269e-01	-8.480656e+00
1	 4.408891e-01	 9.386493e-01	-9.055164e+00
1	 4.296918e-01	 9.438277e-01	-9.602684e+00
1	 4.184580e-01	 9.488618e-01	-1.011963e+01
1	 4.071902e-01	 9.537515e-01	-1.060237e+01
1	 3.958913e-01	 9.584967e-01	-1.104727e+01
1	 4.552761e-01	 9.399935e-01	-9.240372e+00
1	 4.440383e-01	 9.453540e-01	-9.850241e+00
1	 4.327610e-01	 9.505693e-01	-1.043181e+01
1	 4.214469e-01	 9.556394e-01	-1.098137e+01
1	 4.100987e-01	 9.605640e-01	-1.149517e+01
1	 3.987191e-01	 9.653431e-01	-1.196944e+01
1	 4.585050e-01	 9.466602e-01	-1.004263e+01
1	 4.471875e-01	 9.520586e-01	-1.068828e+01
1	 4.358303e-01	 9.573110e-01	-1.130418e+01
1	 4.244359e-01	 9.624170e-01	-1.188656e+01
1	 4.130072e-01	 9.673765e-01	-1.243163e+01
1	 4.015469e-01	 9.721895e-01	-1.293557e+01
1	 4.617339e-01	 9.533268e-01	-1.088720e+01
1	 4.503368e-01	 9.587633e-01	-1.156897e+01
1	 4.388995e-01	 9.640526e-01	-1.221940e+01
1	 4.274249e-01	 9.691946e-01	-1.283476e+01
1	 4.159157e-01	 9.741890e-01	-1.341131e+01
1	 4.043747e-01	 9.790359e-01	-1.394527e+01
1	 4.649628e-01	 9.599934e-01	-1.177387e+01
1	 4.534860e-01	 9.654679e-01	-1.249199e+01
1	 4.419687e-01	 9.707942e-01	-1.317710e+01
1	 4.304139e-01	 9.759722e-01	-1.382559e+01
1	 4.188242e-01	 9.810016e-01	-1.443382e+01
1	 4.072025e-01	 9.858823e-01	-1.499815e+01
1	 4.681917e-01	 9.666600e-01	-1.270242e+01
1	 4.566352e-01	 9.721725e-01	-1.345705e+01
1	 4.450380e-01	 9.775358e-01	-1.417692e+01
1	 4.334029e-01	 9.827497e-01	-1.485864e+01
1	 4.217327e-01	 9.878141e-01	-1.549876e+01
1	 4.100303e-01	 9.927287e-01	-1.609384e+01
1	 3.958913e-01	 9.584967e-01	-1.104727e+01
1	 3.845639e-01	 9.630973e-01	-1.145355e+01
1	 3.732105e-01	 9.675535e-01	-1.181923e+01
1	 3.618340e-01	 9.718652e-01	-1.213877e+01
1	 3.504368e-01	 9.760327e-01	-1.240665e+01
1	 3.390217e-01	 9.800562e-01	-1.261729e+01
1	 3.987191e-01	 9.653431e-01	-1.196944e+01
1	 3.873107e-01	 9.699766e-01	-1.240282e+01
1	 3.758763e-01	 9.744646e-01	-1.279257e+01
1	 3.644185e-01	 9.788071e-01	-1.313271e+01
1	 3.529399e-01	 9.830044e-01	-1.341728e+01
1	 3.414432e-01	 9.870566e-01	-1.364027e+01
1	 4.015469e-01	 9.721895e-01	-1.293557e+01
1	 3.900576e-01	 9.768559e-01	-1.339648e+01
1	 3.785421e-01	 9.813757e-01	-1.381076e+01
1	 3.670030e-01	 9.857490e-01	-1.417197e+01
1	 3.554431e-01	 9.899760e-01	-1.447366e+01
1	 3.438648e-01	 9.940570e-01	-1.470936e+01
1	 4.043747e-01	 9.790359e-01	-1.394527e+01
1	 3.928045e-01	 9.837351e-01	-1.443417e+01
1	 3.812079e-01	 9.882868e-01	-1.487350e+01
1	 3.695876e-01	 9.926909e-01	-1.525631e+01
1	 3.579462e-01	 9.969477e-01	-1.557563e+01
1	 3.462864e-01	 1.001057e+00	-1.582448e+01
1	 4.072025e-01	 9.858823e-01	-1.499815e+01
1	 3.955514e-01	 9.906144e-01	-1.551555e+01
1	 3.838737e-01	 9.951979e-01	-1.598049e+01
1	 3.721721e-01	 9.996328e-01	-1.638548e+01
1	 3.604493e-01	 1.003919e+00	-1.672300e+01
1	 3.487080e-01	 1.008058e+00	-1.698552e+01
1	 4.100303e-01	 9.927287e-01	-1.609384e+01
1	 3.982983e-01	 9.974937e-01	-1.664029e+01
1	 3.865395e-01	 1.002109e+00	-1.713146e+01
1	 3.747566e-01	 1.006575e+00	-1.755928e+01
1	 3.629524e-01	 1.010891e+00	-1.791563e+01
1	 3.511296e-01	 1.015058e+00	-1.819241e+01
1	 3.390217e-01	 9.800562e-01	-1.261729e+01
1	 3.275911e-01	 9.839359e-01	-1.277381e+01
1	 3.161476e-01	 9.876723e-01	-1.288307e+01
1	 3.046939e-01	 9.912656e-01	-1.294519e+01
1	 2.932323e-01	 9.947164e-01	-1.296036e+01
1	 2.817654e-01	 9.980251e-01	-1.292886e+01
1	 3.414432e-01	 9.870566e-01	-1.364027e+01
1	 3.299310e-01	 9.909640e-01	-1.380532e+01
1	 3.184058e-01	 9.947271e-01	-1.392009e+01
1	 3.068702e-01	 9.983461e-01	-1.398467e+01
1	 2.953268e-01	 1.001821e+00	-1.399924e+01
1	 2.837781e-01	 1.005154e+00	-1.396405e+01
1	 3.438648e-01	 9.940570e-01	-1.470936e+01
1	 3.322709e-01	 9.979922e-01	-1.488324e+01
1	 3.206640e-01	 1.001782e+00	-1.500369e+01
1	 3.090466e-01	 1.005427e+00	-1.507070e+01
1	 2.974213e-01	 1.008927e+00	-1.508431e+01
1	 2.857907e-01	 1.012283e+00	-1.504464e+01
1	 3.462864e-01	 1.001057e+00	-1.582448e+01
1	 3.346109e-01	 1.005020e+00	-1.600752e+01
1	 3.229222e-01	 1.008837e+00	-1.613386e+01
1	 3.112230e-01	 1.012507e+00	-1.620323e+01
1	 2.995159e-01	 1.016032e+00	-1.621543e+01
1	 2.878033e-01	 1.019411e+00	-1.617037e+01
1	 3.487080e-01	 1.008058e+00	-1.698552e+01
1	 3.369508e-01	 1.012048e+00	-1.717815e+01
1	 3.251804e-01	 1.015891e+00	-1.731057e+01
1	 3.133994e-01	 1.019587e+00	-1.738218e+01
1	 3.016104e-01	 1.023137e+00	-1.739245e+01
1	 2.898159e-01	 1.026540e+00	-1.734094e+01
1	 3.511296e-01	 1.015058e+00	-1.819241e+01
1	 3.392907e-01	 1.019076e+00	-1.839508e+01
1	 3.274386e-01	 1.022946e+00	-1.853380e+01
1	 3.155758e-01	 1.026668e+00	-1.860750e+01
1	 3.037049e-01	 1.030242e+00	-1.861524e+01
1	 2.918285e-01	 1.033669e+00	-1.855611e+01
1	 2.817654e-01	 9.980251e-01	-1.292886e+01
1	 2.702957e-01	 1.001192e+00	-1.285278e+01
1	 2.588256e-01	 1.004219e+00	-1.273565e+01
1	 2.473576e-01	 1.007105e+00	-1.257999e+01
1	 2.358938e-01	 1.009851e+00	-1.238833e+01
1	 2.244369e-01	 1.012459e+00	-1.216326e+01
1	 2.837781e-01	 1.005154e+00	-1.396405e+01
1	 2.722264e-01	 1.008344e+00	-1.388133e+01
1	 2.606744e-01	 1.011392e+00	-1.375480e+01
1	 2.491244e-01	 1.014298e+00	-1.358706e+01
1	 2.375788e-01	 1.017065e+00	-1.338076e+01
1	 2.260400e-01	 1.019691e+00	-1.313858e+01
1	 2.857907e-01	 1.012283e+00	-1.504464e+01
1	 2.741571e-01	 1.015495e+00	-1.495400e+01
1	 2.625232e-01	 1.018565e+00	-1.481638e+01
1	 2.508912e-01	 1.021492e+00	-1.463461e+01
1	 2.392638e-01	 1.024278e+00	-1.441157e+01
1	 2.276431e-01	 1.026923e+00	-1.415016e+01
1	 2.878033e-01	 1.019411e+00	-1.617037e+01
1	 2.760878e-01	 1.022646e+00	-1.607037e+01
1	 2.643719e-01	 1.025738e+00	-1.591988e+01
1	 2.526581e-01	 1.028686e+00	-1.572206e+01
1	 2.409487e-01	 1.031491e+00	-1.548014e+01
1	 2.292462e-01	 1.034155e+00	-1.519739e+01
1	 2.898159e-01	 1.026540e+00	-1.734094e+01
1	 2.780185e-01	 1.029798e+00	-1.723005e+01
1	 2.662207e-01	 1.032911e+00	-1.706481e+01
1	 2.544249e-01	 1.035879e+00	-1.684886e+01
1	 2.426337e-01	 1.038704e+00	-1.658590e+01
1	 2.308493e-01	 1.041387e+00	-1.627968e+01
1	 2.918285e-01	 1.033669e+00	-1.855611e+01
1	 2.799492e-01	 1.036949e+00	-1.843264e+01
1	 2.680694e-01	 1.040084e+00	-1.825068e+01
1	 2.561918e-01	 1.043073e+00	-1.801446e+01
1	 2.443186e-01	 1.045918e+00	-1.772827e+01
1	 2.324525e-01	 1.048619e+00	-1.739647e+01
1	 2.244369e-01	 1.012459e+00	-1.216326e+01
1	 2.129889e-01	 1.014929e+00	-1.191005e+01
1	 2.015523e-01	 1.017262e+00	-1.163529e+01
1	 1.901292e-01	 1.019459e+00	-1.134355e+01
1	 1.787220e-01	 1.021521e+00	-1.103940e+01
1	 1.673326e-01	 1.023448e+00	-1.072738e+01
1	 2.260400e-01	 1.019691e+00	-1.313858e+01
1	 2.145103e-01	 1.022179e+00	-1.286608e+01
1	 2.029920e-01	 1.024528e+00	-1.257023e+01
1	 1.914873e-01	 1.026741e+00	-1.225588e+01
1	 1.799985e-01	 1.028817e+00	-1.192788e+01
1	 1.685278e-01	 1.030758e+00	-1.159105e+01
1	 2.276431e-01	 1.026923e+00	-1.415016e+01
1	 2.160316e-01	 1.029428e+00	-1.385633e+01
1	 2.044316e-01	 1.031795e+00	-1.353745e+01
1	 1.928454e-01	 1.034023e+00	-1.319864e+01
1	 1.812751e-01	 1.036114e+00	-1.284500e+01
1	 1.697231e-01	 1.038069e+00	-1.248161e+01
1	 2.292462e-01	 1.034155e+00	-1.519739e+01
1	 2.175530e-01	 1.036678e+00	-1.488021e+01
1	 2.058713e-01	 1.039061e+00	-1.453639e+01
1	 1.942034e-01	 1.041305e+00	-1.417128e+01
1	 1.825517e-01	 1.043410e+00	-1.379024e+01
1	 1.709183e-01	 1.045379e+00	-1.339860e+01
1	 2.308493e-01	 1.041387e+00	-1.627968e+01
1	 2.190743e-01	 1.043927e+00	-1.593716e+01
1	 2.073109e-01	 1.046327e+00	-1.556650e+01
1	 1.955615e-01	 1.048586e+00	-1.517329e+01
1	 1.838283e-01	 1.050707e+00	-1.476312e+01
1	 1.721135e-01	 1.052689e+00	-1.434158e+01
1	 2.324525e-01	 1.048619e+00	-1.739647e+01
1	 2.205957e-01	 1.051177e+00	-1.702661e+01
1	 2.087506e-01	 1.053593e+00	-1.662723e+01
1	 1.969196e-01	 1.055868e+00	-1.620415e+01
1	 1.851049e-01	 1.058003e+00	-1.576318e+01
1	 1.733088e-01	 1.060000e+00	-1.531013e+01
1	 1.673326e-01	 1.023448e+00	-1.072738e+01
1	 1.559633e-01	 1.025242e+00	-1.041277e+01
1	 1.446162e-01	 1.026904e+00	-1.010144e+01
1	 1.332933e-01	 1.028435e+00	-9.798827e+00
1	 1.219967e-01	 1.029836e+00	-9.510299e+00
1	 1.107283e-01	 1.031109e+00	-9.241159e+00
1	 1.685278e-01	 1.030758e+00	-1.159105e+01
1	 1.570774e-01	 1.032565e+00	-1.125103e+01
1	 1.456492e-01	 1.034239e+00	-1.091415e+01
1	 1.342454e-01	 1.035781e+00	-1.058628e+01
1	 1.228681e-01	 1.037192e+00	-1.027319e+01
1	 1.115192e-01	 1.038474e+00	-9.980588e+00
1	 1.697231e-01	 1.038069e+00	-1.248161e+01
1	 1.581914e-01	 1.039888e+00	-1.211449e+01
1	 1.466822e-01	 1.041574e+00	-1.175049e+01
1	 1.351975e-01	 1.043127e+00	-1.139585e+01
1	 1.237395e-01	 1.044548e+00	-1.105678e+01
1	 1.123101e-01	 1.045839e+00	-1.073937e+01
1	 1.709183e-01	 1.045379e+00	-1.339860e+01
1	 1.593054e-01	 1.047212e+00	-1.300276e+01
1	 1.477151e-01	 1.048909e+00	-1.261008e+01
1	 1.361496e-01	 1.050473e+00	-1.222721e+01
1	 1.246109e-01	 1.051904e+00	-1.186074e+01
1	 1.131010e-01	 1.053204e+00	-1.151717e+01
1	 1.721135e-01	 1.052689e+00	-1.434158e+01
1	 1.604194e-01	 1.054535e+00	-1.391545e+01
1	 1.487481e-01	 1.056244e+00	-1.349257e+01
1	 1.371017e-01	 1.057819e+00	-1.308001e+01
1	 1.254823e-01	 1.059260e+00	-1.268475e+01
1	 1.138919e-01	 1.060569e+00	-1.231367e+01
1	 1.733088e-01	 1.060000e+00	-1.531013e+01
1	 1.615335e-01	 1.061858e+00	-1.485216e+01
1	 1.497811e-01	 1.063579e+00	-1.439761e+01
1	 1.380538e-01	 1.065165e+00	-1.395394e+01
1	 1.263537e-01	 1.066616e+00	-1.352849e+01
1	 1.146828e-01	 1.067934e+00	-1.312855e+01
1	 1.107283e-01	 1.031109e+00	-9.241159e+00
1	 9.948996e-02	 1.032254e+00	-8.996804e+00
1	 8.828371e-02	 1.033272e+00	-8.782333e+00
1	 7.711134e-02	 1.034166e+00	-8.602472e+00
1	 6.597466e-02	 1.034936e+00	-8.461847e+00
1	 5.487545e-02	 1.035584e+00	-8.364977e+00
1	 1.115192e-01	 1.038474e+00	-9.980588e+00
1	 1.002006e-01	 1.039627e+00	-9.714275e+00
1	 8.891430e-02	 1.040653e+00	-9.479692e+00
1	 7.766213e-02	 1.041553e+00	-9.281883e+00
1	 6.644591e-02	 1.042329e+00	-9.125784e+00
1	 5.526742e-02	 1.042981e+00	-9.016216e+00
1	 1.123101e-01	 1.045839e+00	-1.073937e+01
1	 1.009112e-01	 1.047000e+00	-1.044981e+01
1	 8.954490e-02	 1.048033e+00	-1.019387e+01
1	 7.821293e-02	 1.048940e+00	-9.976954e+00
1	 6.691716e-02	 1.049721e+00	-9.804315e+00
1	 5.565938e-02	 1.050378e+00	-9.681097e+00
1	 1.131010e-01	 1.053204e+00	-1.151717e+01
1	 1.016219e-01	 1.054373e+00	-1.120306e+01
1	 9.017550e-02	 1.055414e+00	-1.092453e+01
1	 7.876372e-02	 1.056327e+00	-1.068734e+01
1	 6.738841e-02	 1.057114e+00	-1.049710e+01
1	 5.605135e-02	 1.057775e+00	-1.035928e+01
1	 1.138919e-01	 1.060569e+00	-1.231367e+01
1	 1.023325e-01	 1.061747e+00	-1.197370e+01
1	 9.080610e-02	 1.062794e+00	-1.167134e+01
1	 7.931452e-02	 1.063714e+00	-1.141272e+01
1	 6.785965e-02	 1.064506e+00	-1.120380e+01
1	 5.644332e-02	 1.065172e+00	-1.105043e+01
1	 1.146828e-01	 1.067934e+00	-1.312855e+01
1	 1.030432e-01	 1.069120e+00	-1.276141e+01
1	 9.143669e-02	 1.070175e+00	-1.243397e+01
1	 7.986531e-02	 1.071101e+00	-1.215275e+01
1	 6.833090e-02	 1.071898e+00	-1.192410e+01
1	 5.683529e-02	 1.072569e+00	-1.175422e+01
1	 5.487545e-02	 1.035584e+00	-8.364977e+00
1	 4.381542e-02	 1.036111e+00	-8.316198e+00
1	 3.279624e-02	 1.036518e+00	-8.318914e+00
1	 2.181956e-02	 1.036807e+00	-8.376082e+00
1	 1.088696e-02	 1.036980e+00	-8.490555e+00
1	 0.000000e+00	 1.037037e+00	-8.665077e+00
1	 5.526742e-02	 1.042981e+00	-9.016216e+00
1	 4.412838e-02	 1.043512e+00	-8.957835e+00
1	 3.303050e-02	 1.043922e+00	-8.954344e+00
1	 2.197541e-02	 1.044213e+00	-9.008962e+00
1	 1.096473e-02	 1.044387e+00	-9.124797e+00
1	 0.000000e+00	 1.044444e+00	-9.304837e+00
1	 5.565938e-02	 1.050378e+00	-9.681097e+00
1	 4.444135e-02	 1.050913e+00	-9.612301e+00
1	 3.326476e-02	 1.051326e+00	-9.601958e+00
1	 2.213127e-02	 1.051619e+00	-9.653567e+00
1	 1.104249e-02	 1.051794e+00	-9.770507e+00
1	 0.000000e+00	 1.051852e+00	-9.956026e+00
1	 5.605135e-02	 1.057775e+00	-1.035928e+01
1	 4.475432e-02	 1.058313e+00	-1.027925e+01
1	 3.349902e-02	 1.058729e+00	-1.026141e+01
1	 2.228712e-02	 1.059025e+00	-1.030953e+01
1	 1.112026e-02	 1.059201e+00	-1.042730e+01
1	 0.000000e+00	 1.059259e+00	-1.061823e+01
1	 5.644332e-02	 1.065172e+00	-1.105043e+01
1	 4.506728e-02	 1.065714e+00	-1.095836e+01
1	 3.373328e-02	 1.066133e+00	-1.093235e+01
1	 2.244298e-02	 1.066431e+00	-1.097651e+01
1	 1.119802e-02	 1.066608e+00	-1.109481e+01
1	 0.000000e+00	 1.066667e+00	-1.129106e+01
1	 5.683529e-02	 1.072569e+00	-1.175422e+01
1	 4.538025e-02	 1.073115e+00	-1.164930e+01
1	 3.396754e-02	 1.073537e+00	-1.161446e+01
1	 2.259883e-02	 1.073836e+00	-1.165415e+01
1	 1.127578e-02	 1.074015e+00	-1.177266e+01
1	 0.000000e+00	 1.074074e+00	-1.197411e+01
1	 1.074074e+00	 0.000000e+00	 2.777787e+01
1	 1.074015e+00	 1.127578e-02	 2.764565e+01
1	 1.073836e+00	 2.259883e-02	 2.752265e+01
1	 1.073537e+00	 3.396754e-02	 2.740788e+01
1	 1.073115e+00	 4.538025e-02	 2.730037e+01
1	 1.072569e+00	 5.683529e-02	 2.719915e+01
1	 1.081481e+00	 0.000000e+00	 2.745731e+01
1	 1.081422e+00	 1.135355e-02	 2.732010e+01
1	 1.081242e+00	 2.275468e-02	 2.719381e+01
1	 1.080941e+00	 3.420179e-02	 2.707738e+01
1	 1.080516e+00	 4.569322e-02	 2.696977e+01
1	 1.079966e+00	 5.722725e-02	 2.686993e+01
1	 1.088889e+00	 0.000000e+00	 2.714863e+01
1	 1.088829e+00	 1.143131e-02	 2.700618e+01
1	 1.088648e+00	 2.291054e-02	 2.687639e+01
1	 1.088344e+00	 3.443605e-02	 2.675814e+01
1	 1.087917e+00	 4.600619e-02	 2.665031e+01
1	 1.087363e+00	 5.761922e-02	 2.655177e+01
1	 1.096296e+00	 0.000000e+00	 2.685104e+01
1	 1.096236e+00	 1.150908e-02	 2.670306e+01
1	 1.096054e+00	 2.306639e-02	 2.656954e+01
1	 1.095748e+00	 3.467031e-02	 2.644929e+01
1	 1.095317e+00	 4.631915e-02	 2.634110e+01
1	 1.094760e+00	 5.801119e-02	 2.624378e+01
1	 1.103704e+00	 0.000000e+00	 2.656375e+01
1	 1.103643e+00	 1.158684e-02	 2.640994e+01
1	 1.103459e+00	 2.322225e-02	 2.627245e+01
1	 1.103152e+00	 3.490457e-02	 2.615000e+01
1	 1.102718e+00	 4.663212e-02	 2.604130e+01
1	 1.102157e+00	 5.840316e-02	 2.594510e+01
1	 1.111111e+00	 0.000000e+00	 2.628600e+01
1	 1.111050e+00	 1.166460e-02	 2.612605e+01
1	 1.110865e+00	 2.337810e-02	 2.598432e+01
1	 1.110555e+00	 3.513883e-02	 2.585945e+01
1	 1.110119e+00	 4.694509e-02	 2.575009e+01
1	 1.109554e+00	 5.879512e-02	 2.565488e+01
1	 1.072569e+00	 5.683529e-02	 2.719915e+01
1	 1.071898e+00	 6.833090e-02	 2.710378e+01
1	 1.071101e+00	 7.986531e-02	 2.701372e+01
1	 1.070175e+00	 9.143669e-02	 2.692786e+01
1	 1.069120e+00	 1.030432e-01	 2.684510e+01
1	 1.067934e+00	 1.146828e-01	 2.676440e+01
1	 1.079966e+00	 5.722725e-02	 2.686993e+01
1	 1.079291e+00	 6.880215e-02	 2.677740e+01
1	 1.078488e+00	 8.041611e-02	 2.669158e+01
1	 1.077555e+00	 9.206729e-02	 2.661129e+01
1	 1.076493e+00	 1.037538e-01	 2.653536e+01
1	 1.075299e+00	 1.154737e-01	 2.646263e+01
1	 1.087363e+00	 5.761922e-02	 2.655177e+01
1	 1.086683e+00	 6.927340e-02	 2.646204e+01
1	 1.085874e+00	 8.096690e-02	 2.638047e+01
1	 1.084936e+00	 9.269789e-02	 2.630579e+01
1	 1.083866e+00	 1.044645e-01	 2.623674e+01
1	 1.082664e+00	 1.162647e-01	 2.617208e+01
1	 1.094760e+00	 5.801119e-02	 2.624378e+01
1	 1.094076e+00	 6.974464e-02	 2.615680e+01
1	 1.093261e+00	 8.151770e-02	 2.607947e+01
1	 1.092317e+00	 9.332849e-02	 2.601042e+01
1	 1.091240e+00	 1.051751e-01	 2.594829e+01
1	 1.090029e+00	 1.170556e-01	 2.589177e+01
1	 1.102157e+00	 5.840316e-02	 2.594510e+01
1	 1.101468e+00	 7.021589e-02	 2.586080e+01
1	 1.100648e+00	 8.206849e-02	 2.578768e+01
1	 1.099697e+00	 9.395909e-02	 2.572427e+01
1	 1.098613e+00	 1.058857e-01	 2.566911e+01
1	 1.097394e+00	 1.178465e-01	 2.562077e+01
1	 1.109554e+00	 5.879512e-02	 2.565488e+01
1	 1.108860e+00	 7.068714e-02	 2.557320e+01
1	 1.108035e+00	 8.261929e-02	 2.550425e+01
1	 1.107078e+00	 9.458968e-02	 2.544646e+01
1	 1.105986e+00	 1.065964e-01	 2.539828e+01
1	 1.104759e+00	 1.186374e-01	 2.535816e+01
1	 1.067934e+00	 1.146828e-01	 2.676440e+01
1	 1.066616e+00	 1.263537e-01	 2.668466e+01
1	 1.065165e+00	 1.380538e-01	 2.660473e+01
1	 1.063579e+00	 1.497811e-01	 2.652349e+01
1	 1.061858e+00	 1.615335e-01	 2.643986e+01
1	 1.060000e+00	 1.733088e-01	 2.635282e+01
1	 1.075299e+00	 1.154737e-01	 2.646263e+01
1	 1.073972e+00	 1.272251e-01	 2.639195e+01
1	 1.072511e+00	 1.390059e-01	 2.632207e+01
1	 1.070914e+00	 1.508141e-01	 2.625181e+01
1	 1.069181e+00	 1.626475e-01	 2.617999e+01
1	 1.067310e+00	 1.745040e-01	 2.610551e+01
1	 1.082664e+00	 1.162647e-01	 2.617208e+01
1	 1.081328e+00	 1.280965e-01	 2.611055e+01
1	 1.079857e+00	 1.399580e-01	 2.605083e+01
1	 1.078249e+00	 1.518470e-01	 2.599163e+01
1	 1.076504e+00	 1.637615e-01	 2.593169e+01
1	 1.074620e+00	 1.756992e-01	 2.586982e+01
1	 1.090029e+00	 1.170556e-01	 2.589177e+01
1	 1.088684e+00	 1.289679e-01	 2.583949e+01
1	 1.087203e+00	 1.409101e-01	 2.579003e+01
1	 1.085584e+00	 1.528800e-01	 2.574201e+01
1	 1.083827e+00	 1.648755e-01	 2.569407e+01
1	 1.081931e+00	 1.768945e-01	 2.564491e+01
1	 1.097394e+00	 1.178465e-01	 2.562077e+01
1	 1.096040e+00	 1.298393e-01	 2.557781e+01
1	 1.094549e+00	 1.418622e-01	 2.553874e+01
1	 1.092919e+00	 1.539130e-01	 2.550204e+01
1	 1.091150e+00	 1.659895e-01	 2.546626e+01
1	 1.089241e+00	 1.780897e-01	 2.542998e+01
1	 1.104759e+00	 1.186374e-01	 2.535816e+01
1	 1.103396e+00	 1.307107e-01	 2.532461e+01
1	 1.101895e+00	 1.428143e-01	 2.529604e+01
1	 1.100254e+00	 1.549460e-01	 2.527083e+01
1	 1.098474e+00	 1.671036e-01	 2.524740e+01
1	 1.096551e+00	 1.792849e-01	 2.522422e+01
1	 1.060000e+00	 1.733088e-01	 2.635282e+01
1	 1.058003e+00	 1.851049e-01	 2.626102e+01
1	 1.055868e+00	 1.969196e-01	 2.616350e+01
1	 1.053593e+00	 2.087506e-01	 2.605985e+01
1	 1.051177e+00	 2.205957e-01	 2.594970e+01
1	 1.048619e+00	 2.324525e-01	 2.583277e+01
1	 1.067310e+00	 1.745040e-01	 2.610551e+01
1	 1.065300e+00	 1.863815e-01	 2.602692e+01
1	 1.063150e+00	 1.982776e-01	 2.594317e+01
1	 1.060859e+00	 2.101903e-01	 2.585378e+01
1	 1.058426e+00	 2.221170e-01	 2.575834e+01
1	 1.055850e+00	 2.340556e-01	 2.565650e+01
1	 1.074620e+00	 1.756992e-01	 2.586982e+01
1	 1.072597e+00	 1.876581e-01	 2.580445e+01
1	 1.070432e+00	 1.996357e-01	 2.573440e+01
1	 1.068125e+00	 2.116299e-01	 2.565915e+01
1	 1.065676e+00	 2.236384e-01	 2.557821e+01
1	 1.063082e+00	 2.356587e-01	 2.549116e+01
1	 1.081931e+00	 1.768945e-01	 2.564491e+01
1	 1.079893e+00	 1.889346e-01	 2.559282e+01
1	 1.077714e+00	 2.009938e-01	 2.553650e+01
1	 1.075392e+00	 2.130696e-01	 2.547532e+01
1	 1.072925e+00	 2.251597e-01	 2.540873e+01
1	 1.070314e+00	 2.372618e-01	 2.533622e+01
1	 1.089241e+00	 1.780897e-01	 2.542998e+01
1	 1.087190e+00	 1.902112e-01	 2.539131e+01
1	 1.084996e+00	 2.023518e-01	 2.534878e+01
1	 1.082658e+00	 2.145092e-01	 2.530166e+01
1	 1.080175e+00	 2.266811e-01	 2.524932e+01
1	 1.077546e+00	 2.388649e-01	 2.519114e+01
1	 1.096551e+00	 1.792849e-01	 2.522422e+01
1	 1.094486e+00	 1.914878e-01	 2.519918e+01
1	 1.092278e+00	 2.037099e-01	 2.517057e+01
1	 1.089924e+00	 2.159489e-01	 2.513757e+01
1	 1.087424e+00	 2.282024e-01	 2.509943e+01
1	 1.084778e+00	 2.404681e-01	 2.505544e+01
1	 1.048619e+00	 2.324525e-01	 2.583277e+01
1	 1.045918e+00	 2.443186e-01	 2.570594e+01
1	 1.043073e+00	 2.561918e-01	 2.556621e+01
1	 1.040084e+00	 2.680694e-01	 2.541348e+01
1	 1.036949e+00	 2.799492e-01	 2.524773e+01
1	 1.033669e+00	 2.918285e-01	 2.506900e+01
1	 1.055850e+00	 2.340556e-01	 2.565650e+01
1	 1.053131e+00	 2.460036e-01	 2.554506e+01
1	 1.050266e+00	 2.579586e-01	 2.542090e+01
1	 1.047257e+00	 2.699182e-01	 2.528387e+01
1	 1.044101e+00	 2.818799e-01	 2.513391e+01
1	 1.040798e+00	 2.938411e-01	 2.497105e+01
1	 1.063082e+00	 2.356587e-01	 2.549116e+01
1	 1.060344e+00	 2.476885e-01	 2.539473e+01
1	 1.057460e+00	 2.597254e-01	 2.528577e+01
1	 1.054430e+00	 2.717669e-01	 2.516411e+01
1	 1.051252e+00	 2.838105e-01	 2.502970e+01
1	 1.047926e+00	 2.958537e-01	 2.488254e+01
1	 1.070314e+00	 2.372618e-01	 2.533622e+01
1	 1.067557e+00	 2.493735e-01	 2.525447e+01
1	 1.064654e+00	 2.614923e-01	 2.516034e+01
1	 1.061603e+00	 2.736157e-01	 2.505372e+01
1	 1.058403e+00	 2.857412e-01	 2.493454e+01
1	 1.055055e+00	 2.978663e-01	 2.480286e+01
1	 1.077546e+00	 2.388649e-01	 2.519114e+01
1	 1.074770e+00	 2.510584e-01	 2.512378e+01
1	 1.071847e+00	 2.632591e-01	 2.504415e+01
1	 1.068776e+00	 2.754644e-01	 2.495219e+01
1	 1.065555e+00	 2.876719e-01	 2.484790e+01
1	 1.062184e+00	 2.998789e-01	 2.473137e+01
1	 1.084778e+00	 2.404681e-01	 2.505544e+01
1	 1.081984e+00	 2.527434e-01	 2.500221e+01
1	 1.079041e+00	 2.650260e-01	 2.493674e+01
1	 1.075949e+00	 2.773132e-01	 2.485906e+01
1	 1.072706e+00	 2.896026e-01	 2.476924e+01
1	 1.069313e+00	 3.018915e-01	 2.466748e+01
1	 1.033669e+00	 2.918285e-01	 2.506900e+01
1	 1.030242e+00	 3.037049e-01	 2.487897e+01
1	 1.026668e+00	 3.155758e-01	 2.468010e+01
1	 1.022946e+00	 3.274386e-01	 2.447366e+01
1	 1.019076e+00	 3.392907e-01	 2.426098e+01
1	 1.015058e+00	 3.511296e-01	 2.404344e+01
1	 1.040798e+00	 2.938411e-01	 2.497105e+01
1	 1.037347e+00	 3.057994e-01	 2.479666e+01
1	 1.033748e+00	 3.177522e-01	 2.461294e+01
1	 1.030001e+00	 3.296968e-01	 2.442114e+01
1	 1.026105e+00	 3.416307e-01	 2.422257e+01
1	 1.022059e+00	 3.535512e-01	 2.401856e+01
1	 1.047926e+00	 2.958537e-01	 2.488254e+01
1	 1.044452e+00	 3.078939e-01	 2.472363e+01
1	 1.040829e+00	 3.199286e-01	 2.455473e+01
1	 1.037056e+00	 3.319550e-01	 2.437708e+01
1	 1.033133e+00	 3.439706e-01	 2.419193e+01
1	 1.029059e+00	 3.559727e-01	 2.400055e+01
1	 1.055055e+00	 2.978663e-01	 2.480286e+01
1	 1.051557e+00	 3.099884e-01	 2.465917e+01
1	 1.047909e+00	 3.221049e-01	 2.450471e+01
1	 1.044111e+00	 3.342132e-01	 2.434066e+01
1	 1.040161e+00	 3.463106e-01	 2.416821e+01
1	 1.036059e+00	 3.583943e-01	 2.398857e+01
1	 1.062184e+00	 2.998789e-01	 2.473137e+01
1	 1.058662e+00	 3.120830e-01	 2.460257e+01
1	 1.054990e+00	 3.242813e-01	 2.446210e+01
1	 1.051165e+00	 3.364714e-01	 2.431107e+01
1	 1.047189e+00	 3.486505e-01	 2.415060e+01
1	 1.043060e+00	 3.608159e-01	 2.398179e+01
1	 1.069313e+00	 3.018915e-01	 2.466748e+01
1	 1.065768e+00	 3.141775e-01	 2.455316e+01
1	 1.062070e+00	 3.264577e-01	 2.442617e+01
1	 1.058220e+00	 3.387296e-01	 2.428754e+01
1	 1.054217e+00	 3.509904e-01	 2.413829e+01
1	 1.050060e+00	 3.632375e-01	 2.397943e+01
1	 1.015058e+00	 3.511296e-01	 2.404344e+01
1	 1.010891e+00	 3.629524e-01	 2.380267e+01
1	 1.006575e+00	 3.747566e-01	 2.351962e+01
1	 1.002109e+00	 3.865395e-01	 2.319447e+01
1	 9.974937e-01	 3.982983e-01	 2.282723e+01
1	 9.927287e-01	 4.100303e-01	 2.241773e+01
1	 1.022059e+00	 3.535512e-01	 2.401856e+01
1	 1.017863e+00	 3.654555e-01	 2.378930e+01
1	 1.013517e+00	 3.773412e-01	 2.351437e+01
1	 1.009020e+00	 3.892053e-01	 2.319403e+01
1	 1.004373e+00	 4.010452e-01	 2.282838e+01
1	 9.995751e-01	 4.128581e-01	 2.241735e+01
1	 1.029059e+00	 3.559727e-01	 2.400055e+01
1	 1.024834e+00	 3.679587e-01	 2.378178e+01
1	 1.020458e+00	 3.799257e-01	 2.351391e+01
1	 1.015931e+00	 3.918711e-01	 2.319732e+01
1	 1.011252e+00	 4.037920e-01	 2.283221e+01
1	 1.006422e+00	 4.156859e-01	 2.241859e+01
1	 1.036059e+00	 3.583943e-01	 2.398857e+01
1	 1.031806e+00	 3.704618e-01	 2.377928e+01
1	 1.027400e+00	 3.825102e-01	 2.351750e+01
1	 1.022842e+00	 3.945369e-01	 2.320369e+01
1	 1.018131e+00	 4.065389e-01	 2.283817e+01
1	 1.013268e+00	 4.185137e-01	 2.242107e+01
1	 1.043060e+00	 3.608159e-01	 2.398179e+01
1	 1.038778e+00	 3.729649e-01	 2.378103e+01
1	 1.034342e+00	 3.850947e-01	 2.352440e+01
1	 1.029753e+00	 3.972026e-01	 2.321250e+01
1	 1.025011e+00	 4.092858e-01	 2.284575e+01
1	 1.020114e+00	 4.213415e-01	 2.242441e+01
1	 1.050060e+00	 3.632375e-01	 2.397943e+01
1	 1.045749e+00	 3.754680e-01	 2.378625e+01
1	 1.041284e+00	 3.876793e-01	 2.353391e+01
1	 1.036664e+00	 3.998684e-01	 2.322313e+01
1	 1.031890e+00	 4.120327e-01	 2.285444e+01
1	 1.026961e+00	 4.241693e-01	 2.242825e+01
1	 9.927287e-01	 4.100303e-01	 2.241773e+01
1	 9.878141e-01	 4.217327e-01	 2.196293e+01
1	 9.827497e-01	 4.334029e-01	 2.146076e+01
1	 9.775358e-01	 4.450380e-01	 2.091234e+01
1	 9.721725e-01	 4.566352e-01	 2.031880e+01
1	 9.666600e-01	 4.681917e-01	 1.968132e+01
1	 9.995751e-01	 4.128581e-01	 2.241735e+01
1	 9.946266e-01	 4.246412e-01	 2.195922e+01
1	 9.895273e-01	 4.363919e-01	 2.145320e+01
1	 9.842775e-01	 4.481072e-01	 2.090039e+01
1	 9.788772e-01	 4.597844e-01	 2.030193e+01
1	 9.733267e-01	 4.714206e-01	 1.965898e+01
1	 1.006422e+00	 4.156859e-01	 2.241859e+01
1	 1.001439e+00	 4.275497e-01	 2.195611e+01
1	 9.963049e-01	 4.393809e-01	 2.144526e+01
1	 9.910191e-01	 4.511764e-01	 2.088712e+01
1	 9.855818e-01	 4.629336e-01	 2.028284e+01
1	 9.799933e-01	 4.746496e-01	 1.963356e+01
1	 1.013268e+00	 4.185137e-01	 2.242107e+01
1	 1.008252e+00	 4.304582e-01	 2.195336e+01
1	 1.003082e+00	 4.423698e-01	 2.143676e+01
1	 9.977607e-01	 4.542456e-01	 2.087238e+01
1	 9.922865e-01	 4.660828e-01	 2.026135e+01
1	 9.866599e-01	 4.778785e-01	 1.960479e+01
1	 1.020114e+00	 4.213415e-01	 2.242441e+01
1	 1.015064e+00	 4.333667e-01	 2.195071e+01
1	 1.009860e+00	 4.453588e-01	 2.142755e+01
1	 1.004502e+00	 4.573149e-01	 2.085604e+01
1	 9.989911e-01	 4.692320e-01	 2.023728e+01
1	 9.933265e-01	 4.811074e-01	 1.957240e+01
1	 1.026961e+00	 4.241693e-01	 2.242825e+01
1	 1.021877e+00	 4.362752e-01	 2.194794e+01
1	 1.016638e+00	 4.483478e-01	 2.141747e+01
1	 1.011244e+00	 4.603841e-01	 2.083794e+01
1	 1.005696e+00	 4.723812e-01	 2.021045e+01
1	 9.999931e-01	 4.843363e-01	 1.953612e+01
1	 9.666600e-01	 4.681917e-01	 1.968132e+01
1	 9.609986e-01	 4.797049e-01	 1.901082e+01
1	 9.551887e-01	 4.911717e-01	 1.831757e+01
1	 9.492306e-01	 5.025896e-01	 1.760172e+01
1	 9.431250e-01	 5.139556e-01	 1.686342e+01
1	 9.368723e-01	 5.252670e-01	 1.610274e+01
1	 9.733267e-01	 4.714206e-01	 1.965898e+01
1	 9.676262e-01	 4.830132e-01	 1.898221e+01
1	 9.617762e-01	 4.945591e-01	 1.828166e+01
1	 9.557771e-01	 5.060557e-01	 1.755747e+01
1	 9.496293e-01	 5.175001e-01	 1.680975e+01
1	 9.433335e-01	 5.288895e-01	 1.603858e+01
1	 9.799933e-01	 4.746496e-01	 1.963356e+01
1	 9.742538e-01	 4.863215e-01	 1.894966e+01
1	 9.683637e-01	 4.979465e-01	 1.824087e+01
1	 9.623235e-01	 5.095219e-01	 1.750732e+01
1	 9.561336e-01	 5.210447e-01	 1.674912e+01
1	 9.497947e-01	 5.325120e-01	 1.596632e+01
1	 9.866599e-01	 4.778785e-01	 1.960479e+01
1	 9.808814e-01	 4.896298e-01	 1.891279e+01
1	 9.749512e-01	 5.013339e-01	 1.819477e+01
1	 9.688699e-01	 5.129880e-01	 1.745086e+01
1	 9.626379e-01	 5.245892e-01	 1.668115e+01
1	 9.562559e-01	 5.361346e-01	 1.588567e+01
1	 9.933265e-01	 4.811074e-01	 1.957240e+01
1	 9.875089e-01	 4.929381e-01	 1.887123e+01
1	 9.815387e-01	 5.047213e-01	 1.814294e+01
1	 9.754163e-01	 5.164541e-01	 1.738765e+01
1	 9.691422e-01	 5.281337e-01	 1.660544e+01
1	 9.627171e-01	 5.397571e-01	 1.579634e+01
1	 9.999931e-01	 4.843363e-01	 1.953612e+01
1	 9.941365e-01	 4.962464e-01	 1.882462e+01
1	 9.881262e-01	 5.081087e-01	 1.808497e+01
1	 9.819627e-01	 5.199203e-01	 1.731729e+01
1	 9.756465e-01	 5.316782e-01	 1.652164e+01
1	 9.691782e-01	 5.433796e-01	 1.569806e+01
1	 9.368723e-01	 5.252670e-01	 1.610274e+01
1	 9.304732e-01	 5.365209e-01	 1.532831e+01
1	 9.239284e-01	 5.477147e-01	 1.454904e+01
1	 9.172387e-01	 5.588454e-01	 1.376542e+01
1	 9.104050e-01	 5.699105e-01	 1.297798e+01
1	 9.034280e-01	 5.809070e-01	 1.218729e+01
1	 9.433335e-01	 5.288895e-01	 1.603858e+01
1	 9.368903e-01	 5.402211e-01	 1.525303e+01
1	 9.303003e-01	 5.514920e-01	 1.446245e+01
1	 9.235645e-01	 5.626996e-01	 1.366732e+01
1	 9.166836e-01	 5.738409e-01	 1.286812e+01
1	 9.096586e-01	 5.849132e-01	 1.206540e+01
1	 9.497947e-01	 5.325120e-01	 1.596632e+01
1	 9.433073e-01	 5.439212e-01	 1.516851e+01
1	 9.366723e-01	 5.552694e-01	 1.436552e+01
1	 9.298903e-01	 5.665537e-01	 1.355778e+01
1	 9.229623e-01	 5.777713e-01	 1.274577e+01
1	 9.158891e-01	 5.889195e-01	 1.192996e+01
1	 9.562559e-01	 5.361346e-01	 1.588567e+01
1	 9.497244e-01	 5.476214e-01	 1.507454e+01
1	 9.430442e-01	 5.590467e-01	 1.425809e+01
1	 9.362161e-01	 5.704078e-01	 1.343670e+01
1	 9.292409e-01	 5.817017e-01	 1.261077e+01
1	 9.221196e-01	 5.929257e-01	 1.178075e+01
1	 9.627171e-01	 5.397571e-01	 1.579634e+01
1	 9.561414e-01	 5.513215e-01	 1.497094e+01
1	 9.494161e-01	 5.628241e-01	 1.414004e+01
1	 9.425419e-01	 5.742619e-01	 1.330394e+01
1	 9.355196e-01	 5.856321e-01	 1.246300e+01
1	 9.283502e-01	 5.969320e-01	 1.161758e+01
1	 9.691782e-01	 5.433796e-01	 1.569806e+01
1	 9.625585e-01	 5.550217e-01	 1.485753e+01
1	 9.557880e-01	 5.666014e-01	 1.401123e+01
1	 9.488676e-01	 5.781160e-01	 1.315940e+01
1	 9.417982e-01	 5.895626e-01	 1.230231e+01
1	 9.345807e-01	 6.009383e-01	 1.144026e+01
1	 9.034280e-01	 5.809070e-01	 1.218729e+01
1	 8.963089e-01	 5.918323e-01	 1.140312e+01
1	 8.890487e-01	 6.026836e-01	 1.063543e+01
1	 8.816485e-01	 6.134583e-01	 9.885132e+00
1	 8.741094e-01	 6.241537e-01	 9.153208e+00
1	 8.664329e-01	 6.347671e-01	 8.440715e+00
1	 9.096586e-01	 5.849132e-01	 1.206540e+01
1	 9.024904e-01	 5.959139e-01	 1.126922e+01
1	 8.951801e-01	 6.068400e-01	 1.048978e+01
1	 8.877288e-01	 6.176890e-01	 9.727966e+00
1	 8.801378e-01	 6.284582e-01	 8.984688e+00
1	 8.724083e-01	 6.391448e-01	 8.260946e+00
1	 9.158891e-01	 5.889195e-01	 1.192996e+01
1	 9.086718e-01	 5.999955e-01	 1.112066e+01
1	 9.013114e-01	 6.109965e-01	 1.032835e+01
1	 8.938091e-01	 6.219198e-01	 9.553844e+00
1	 8.861661e-01	 6.327627e-01	 8.798019e+00
1	 8.783837e-01	 6.435225e-01	 8.061835e+00
1	 9.221196e-01	 5.929257e-01	 1.178075e+01
1	 9.148532e-01	 6.040771e-01	 1.095719e+01
1	 9.074428e-01	 6.151529e-01	 1.015082e+01
1	 8.998895e-01	 6.261505e-01	 9.362431e+00
1	 8.921945e-01	 6.370672e-01	 8.592878e+00
1	 8.843591e-01	 6.479002e-01	 7.843088e+00
1	 9.283502e-01	 5.969320e-01	 1.161758e+01
1	 9.210347e-01	 6.081587e-01	 1.077853e+01
1	 9.135742e-01	 6.193094e-01	 9.956877e+00
1	 9.059698e-01	 6.303813e-01	 9.153404e+00
1	 8.982228e-01	 6.413717e-01	 8.368947e+00
1	 8.903345e-01	 6.522779e-01	 7.604421e+00
1	 9.345807e-01	 6.009383e-01	 1.144026e+01
1	 9.272161e-01	 6.122403e-01	 1.058442e+01
1	 9.197055e-01	 6.234658e-01	 9.746226e+00
1	 9.120501e-01	 6.346120e-01	 8.926447e+00
1	 9.042512e-01	 6.456762e-01	 8.125918e+00
1	 8.963099e-01	 6.566556e-01	 7.345559e+00
1	 8.664329e-01	 6.347671e-01	 8.440715e+00
1	 8.586201e-01	 6.452958e-01	 7.753469e+00
1	 8.506724e-01	 6.557374e-01	 7.097673e+00
1	 8.425914e-01	 6.660893e-01	 6.475093e+00
1	 8.343785e-01	 6.763488e-01	 5.887599e+00
1	 8.260353e-01	 6.865135e-01	 5.337169e+00
1	 8.724083e-01	 6.391448e-01	 8.260946e+00
1	 8.645416e-01	 6.497462e-01	 7.562853e+00
1	 8.565391e-01	 6.602598e-01	 6.897032e+00
1	 8.484023e-01	 6.706830e-01	 6.265386e+00
1	 8.401328e-01	 6.810133e-01	 5.669936e+00
1	 8.317321e-01	 6.912481e-01	 5.112821e+00
1	 8.783837e-01	 6.435225e-01	 8.061835e+00
1	 8.704631e-01	 6.541965e-01	 7.351769e+00
1	 8.624058e-01	 6.647821e-01	 6.674902e+00
1	 8.542133e-01	 6.752767e-01	 6.033237e+00
1	 8.458871e-01	 6.856777e-01	 5.428905e+00
1	 8.374289e-01	 6.959827e-01	 4.864159e+00
1	 8.843591e-01	 6.479002e-01	 7.843088e+00
1	 8.763846e-01	 6.586468e-01	 7.119957e+00
1	 8.682725e-01	 6.693044e-01	 6.431039e+00
1	 8.600243e-01	 6.798704e-01	 5.778395e+00
1	 8.516415e-01	 6.903422e-01	 5.164226e+00
1	 8.431257e-01	 7.007172e-01	 4.590860e+00
1	 8.903345e-01	 6.522779e-01	 7.604421e+00
1	 8.823061e-01	 6.630971e-01	 6.867169e+00
1	 8.741392e-01	 6.738267e-01	 6.165205e+00
1	 8.658353e-01	 6.844641e-01	 5.500616e+00
1	 8.573958e-01	 6.950067e-01	 4.875628e+00
1	 8.488225e-01	 7.054518e-01	 4.292605e+00
1	 8.963099e-01	 6.566556e-01	 7.345559e+00
1	 8.882276e-01	 6.675474e-01	 6.593161e+00
1	 8.800059e-01	 6.783491e-01	 5.877170e+00
1	 8.716462e-01	 6.890578e-01	 5.199660e+00
1	 8.631502e-01	 6.996711e-01	 4.562848e+00
1	 8.545193e-01	 7.101864e-01	 3.969088e+00
1	 8.260353e-01	 6.865135e-01	 5.337169e+00
1	 8.175635e-01	 6.965810e-01	 4.826761e+00
1	 8.089648e-01	 7.065487e-01	 4.359673e+00
1	 8.002409e-01	 7.164144e-01	 3.938566e+00
1	 7.913937e-01	 7.261757e-01	 3.566230e+00
1	 7.824251e-01	 7.358302e-01	 3.245573e+00
1	 8.317321e-01	 6.912481e-01	 5.112821e+00
1	 8.232019e-01	 7.013850e-01	 4.597271e+00
1	 8.145438e-01	 7.114215e-01	 4.126518e+00
1	 8.057598e-01	 7.213552e-01	 3.702873e+00
1	 7.968516e-01	 7.311838e-01	 3.328768e+00
1	 7.878211e-01	 7.409049e-01	 3.006752e+00
1	 8.374289e-01	 6.959827e-01	 4.864159e+00
1	 8.288402e-01	 7.061890e-01	 4.342399e+00
1	 8.201229e-01	 7.162942e-01	 3.866759e+00
1	 8.112787e-01	 7.262960e-01	 3.439277e+00
1	 8.023095e-01	 7.361919e-01	 3.062107e+00
1	 7.932171e-01	 7.459796e-01	 2.737516e+00
1	 8.431257e-01	 7.007172e-01	 4.590860e+00
1	 8.344786e-01	 7.109930e-01	 4.061785e+00
1	 8.257020e-01	 7.211670e-01	 3.580040e+00
1	 8.167976e-01	 7.312368e-01	 3.147462e+00
1	 8.077674e-01	 7.412000e-01	 2.766005e+00
1	 7.986132e-01	 7.510543e-01	 2.437739e+00
1	 8.488225e-01	 7.054518e-01	 4.292605e+00
1	 8.401170e-01	 7.157970e-01	 3.755077e+00
1	 8.312810e-01	 7.260397e-01	 3.266013e+00
1	 8.223165e-01	 7.361776e-01	 2.827121e+00
1	 8.132252e-01	 7.462081e-01	 2.440233e+00
1	 8.040092e-01	 7.561290e-01	 2.107298e+00
1	 8.545193e-01	 7.101864e-01	 3.969088e+00
1	 8.457553e-01	 7.206010e-01	 3.421935e+00
1	 8.368601e-01	 7.309125e-01	 2.924339e+00
1	 8.278354e-01	 7.411184e-01	 2.477955e+00
1	 8.186831e-01	 7.512162e-01	 2.084564e+00
1	 8.094052e-01	 7.612037e-01	 1.746072e+00
1	 7.824251e-01	 7.358302e-01	 3.245573e+00
1	 7.733369e-01	 7.453758e-01	 2.960593e+00
1	 7.641313e-01	 7.548102e-01	 2.691548e+00
1	 7.548102e-01	 7.641313e-01	 2.435723e+00
1	 7.453758e-01	 7.733369e-01	 2.190254e+00
1	 7.358302e-01	 7.824251e-01	 1.952138e+00
1	 7.878211e-01	 7.409049e-01	 3.006752e+00
1	 7.786703e-01	 7.505163e-01	 2.719059e+00
1	 7.694012e-01	 7.600158e-01	 2.444905e+00
1	 7.600158e-01	 7.694012e-01	 2.182296e+00
1	 7.505163e-01	 7.786703e-01	 1.929110e+00
1	 7.409049e-01	 7.878211e-01	 1.683106e+00
1	 7.932171e-01	 7.459796e-01	 2.737516e+00
1	 7.840036e-01	 7.556569e-01	 2.446188e+00
1	 7.746710e-01	 7.652214e-01	 2.166414e+00
1	 7.652214e-01	 7.746710e-01	 1.896876e+00
1	 7.556569e-01	 7.840036e-01	 1.636149e+00
1	 7.459796e-01	 7.932171e-01	 1.382706e+00
1	 7.986132e-01	 7.510543e-01	 2.437739e+00
1	 7.893370e-01	 7.607974e-01	 2.141969e+00
1	 7.799409e-01	 7.704270e-01	 1.856155e+00
1	 7.704270e-01	 7.799409e-01	 1.579613e+00
1	 7.607974e-01	 7.893370e-01	 1.311568e+00
1	 7.510543e-01	 7.986132e-01	 1.051159e+00
1	 8.040092e-01	 7.561290e-01	 2.107298e+00
1	 7.946704e-01	 7.659379e-01	 1.806391e+00
1	 7.852108e-01	 7.756326e-01	 1.514207e+00
1	 7.756326e-01	 7.852108e-01	 1.230653e+00
1	 7.659379e-01	 7.946704e-01	 9.555582e-01
1	 7.561290e-01	 8.040092e-01	 6.886820e-01
1	 8.094052e-01	 7.612037e-01	 1.746072e+00
1	 8.000037e-01	 7.710784e-01	 1.439445e+00
1	 7.904807e-01	 7.808382e-01	 1.140649e+00
1	 7.808382e-01	 7.904807e-01	 8.501379e-01
1	 7.710784e-01	 8.000037e-01	 5.683060e-01
1	 7.612037e-01	 8.094052e-01	 2.954848e-01
1	 7.358302e-01	 7.824251e-01	 1.952138e+00
1	 7.261757e-01	 7.913937e-01	 1.705211e+00
1	 7.164144e-01	 8.002409e-01	 1.434479e+00
1	 7.065487e-01	 8.089648e-01	 1.138476e+00
1	 6.965810e-01	 8.175635e-01	 8.155859e-01
1	 6.865135e-01	 8.260353e-01	 4.640470e-01
1	 7.409049e-01	 7.878211e-01	 1.683106e+00
1	 7.311838e-01	 7.968516e-01	 1.428270e+00
1	 7.213552e-01	 8.057598e-01	 1.148920e+00
1	 7.114215e-01	 8.145438e-01	 8.430996e-01
1	 7.013850e-01	 8.232019e-01	 5.086799e-01
1	 6.912481e-01	 8.317321e-01	 1.433703e-01
1	 7.459796e-01	 7.932171e-01	 1.382706e+00
1	 7.361919e-01	 8.023095e-01	 1.120428e+00
1	 7.262960e-01	 8.112787e-01	 8.327451e-01
1	 7.162942e-01	 8.201229e-01	 5.172367e-01
1	 7.061890e-01	 8.288402e-01	 1.712907e-01
1	 6.959827e-01	 8.374289e-01	-2.078858e-01
1	 7.510543e-01	 7.986132e-01	 1.051159e+00
1	 7.412000e-01	 8.077674e-01	 7.819236e-01
1	 7.312368e-01	 8.167976e-01	 4.862163e-01
1	 7.211670e-01	 8.257020e-01	 1.611779e-01
1	 7.109930e-01	 8.344786e-01	-1.962597e-01
1	 7.007172e-01	 8.431257e-01	-5.893641e-01
1	 7.561290e-01	 8.040092e-01	 6.886820e-01
1	 7.462081e-01	 8.132252e-01	 4.129919e-01
1	 7.361776e-01	 8.223165e-01	 1.095900e-01
1	 7.260397e-01	 8.312810e-01	-2.247938e-01
1	 7.157970e-01	 8.401170e-01	-5.936579e-01
1	 7.054518e-01	 8.488225e-01	-1.000717e+00
1	 7.612037e-01	 8.094052e-01	 2.954848e-01
1	 7.512162e-01	 8.186831e-01	 1.385972e-02
1	 7.411184e-01	 8.278354e-01	-2.968845e-01
1	 7.309125e-01	 8.368601e-01	-6.404033e-01
1	 7.206010e-01	 8.457553e-01	-1.020599e+00
1	 7.101864e-01	 8.545193e-01	-1.441607e+00
1	 6.865135e-01	 8.260353e-01	 4.640470e-01
1	 6.763488e-01	 8.343785e-01	 8.169984e-02
1	 6.660893e-01	 8.425914e-01	-3.335152e-01
1	 6.557374e-01	 8.506724e-01	-7.833855e-01
1	 6.452958e-01	 8.586201e-01	-1.269789e+00
1	 6.347671e-01	 8.664329e-01	-1.794688e+00
1	 6.912481e-01	 8.317321e-01	 1.433703e-01
1	 6.810133e-01	 8.401328e-01	-2.552292e-01
1	 6.706830e-01	 8.484023e-01	-6.890583e-01
1	 6.602598e-01	 8.565391e-01	-1.159909e+00
1	 6.497462e-01	 8.645416e-01	-1.669664e+00
1	 6.391448e-01	 8.724083e-01	-2.220297e+00
1	 6.959827e-01	 8.374289e-01	-2.078858e-01
1	 6.856777e-01	 8.458871e-01	-6.228326e-01
1	 6.752767e-01	 8.542133e-01	-1.075308e+00
1	 6.647821e-01	 8.624058e-01	-1.567137e+00
1	 6.541965e-01	 8.704631e-01	-2.100243e+00
1	 6.435225e-01	 8.783837e-01	-2.676633e+00
1	 7.007172e-01	 8.431257e-01	-5.893641e-01
1	 6.903422e-01	 8.516415e-01	-1.020719e+00
1	 6.798704e-01	 8.600243e-01	-1.491843e+00
1	 6.693044e-01	 8.682725e-01	-2.004625e+00
1	 6.586468e-01	 8.763846e-01	-2.561053e+00
1	 6.479002e-01	 8.843591e-01	-3.163204e+00
1	 7.054518e-01	 8.488225e-01	-1.000717e+00
1	 6.950067e-01	 8.573958e-01	-1.448508e+00
1	 6.844641e-01	 8.658353e-01	-1.938254e+00
1	 6.738267e-01	 8.741392e-01	-2.471937e+00
1	 6.630971e-01	 8.823061e-01	-3.051637e+00
1	 6.522779e-01	 8.903345e-01	-3.679532e+00
1	 7.101864e-01	 8.545193e-01	-1.441607e+00
1	 6.996711e-01	 8.631502e-01	-1.905830e+00
1	 6.890578e-01	 8.716462e-01	-2.414143e+00
1	 6.783491e-01	 8.800059e-01	-2.968648e+00
1	 6.675474e-01	 8.882276e-01	-3.571551e+00
1	 6.566556e-01	 8.963099e-01	-4.225153e+00
1	 6.347671e-01	 8.664329e-01	-1.794688e+00
1	 6.241537e-01	 8.741094e-01	-2.355916e+00
1	 6.134583e-01	 8.816485e-01	-2.950365e+00
1	 6.026836e-01	 8.890487e-01	-3.578663e+00
1	 5.918323e-01	 8.963089e-01	-4.241451e+00
1	 5.809070e-01	 9.034280e-01	-4.939388e+00
1	 6.391448e-01	 8.724083e-01	-2.220297e+00
1	 6.284582e-01	 8.801378e-01	-2.809279e+00
1	 6.176890e-01	 8.877288e-01	-3.433125e+00
1	 6.068400e-01	 8.951801e-01	-4.092436e+00
1	 5.959139e-01	 9.024904e-01	-4.787827e+00
1	 5.849132e-01	 9.096586e-01	-5.519923e+00
1	 6.435225e-01	 8.783837e-01	-2.676633e+00
1	 6.327627e-01	 8.861661e-01	-3.293422e+00
1	 6.219198e-01	 8.938091e-01	-3.946752e+00
1	 6.109965e-01	 9.013114e-01	-4.637246e+00
1	 5.999955e-01	 9.086718e-01	-5.365539e+00
1	 5.889195e-01	 9.158891e-01	-6.132271e+00
1	 6.479002e-01	 8.843591e-01	-3.163204e+00
1	 6.370672e-01	 8.921945e-01	-3.807849e+00
1	 6.261505e-01	 8.998895e-01	-4.490784e+00
1	 6.151529e-01	 9.074428e-01	-5.212698e+00
1	 6.040771e-01	 9.148532e-01	-5.974290e+00
1	 5.929257e-01	 9.221196e-01	-6.776267e+00
1	 6.522779e-01	 8.903345e-01	-3.679532e+00
1	 6.413717e-01	 8.982228e-01	-4.352082e+00
1	 6.303813e-01	 9.059698e-01	-5.064775e+00
1	 6.193094e-01	 9.135742e-01	-5.818408e+00
1	 6.081587e-01	 9.210347e-01	-6.613793e+00
1	 5.969320e-01	 9.283502e-01	-7.451750e+00
1	 6.566556e-01	 8.963099e-01	-4.225153e+00
1	 6.456762e-01	 9.042512e-01	-4.925652e+00
1	 6.346120e-01	 9.120501e-01	-5.668285e+00
1	 6.234658e-01	 9.197055e-01	-6.454001e+00
1	 6.122403e-01	 9.272161e-01	-7.283766e+00
1	 6.009383e-01	 9.345807e-01	-8.158563e+00
1	 5.809070e-01	 9.034280e-01	-4.939388e+00
1	 5.699105e-01	 9.104050e-01	-5.664355e+00
1	 5.588454e-01	 9.172387e-01	-6.407458e+00
1	 5.477147e-01	 9.239284e-01	-7.168182e+00
1	 5.365209e-01	 9.304732e-01	-7.945978e+00
1	 5.252670e-01	 9.368723e-01	-8.740271e+00
1	 5.849132e-01	 9.096586e-01	-5.519923e+00
1	 5.738409e-01	 9.166836e-01	-6.280283e+00
1	 5.626996e-01	 9.235645e-01	-7.059783e+00
1	 5.514920e-01	 9.303003e-01	-7.858000e+00
1	 5.402211e-01	 9.368903e-01	-8.674488e+00
1	 5.288895e-01	 9.433335e-01	-9.508774e+00
1	 5.889195e-01	 9.158891e-01	-6.132271e+00
1	 5.777713e-01	 9.229623e-01	-6.928741e+00
1	 5.665537e-01	 9.298903e-01	-7.745547e+00
1	 5.552694e-01	 9.366723e-01	-8.582264e+00
1	 5.439212e-01	 9.433073e-01	-9.438437e+00
1	 5.325120e-01	 9.497947e-01	-1.031359e+01
1	 5.929257e-01	 9.221196e-01	-6.776267e+00
1	 5.817017e-01	 9.292409e-01	-7.609673e+00
1	 5.704078e-01	 9.362161e-01	-8.464742e+00
1	 5.590467e-01	 9.430442e-01	-9.340943e+00
1	 5.476214e-01	 9.497244e-01	-1.023771e+01
1	 5.361346e-01	 9.562559e-01	-1.115445e+01
1	 5.969320e-01	 9.283502e-01	-7.451750e+00
1	 5.856321e-01	 9.355196e-01	-8.323028e+00
1	 5.742619e-01	 9.425419e-01	-9.217358e+00
1	 5.628241e-01	 9.494161e-01	-1.013401e+01
1	 5.513215e-01	 9.561414e-01	-1.107221e+01
1	 5.397571e-01	 9.627171e-01	-1.203113e+01
1	 6.009383e-01	 9.345807e-01	-8.158563e+00
1	 5.895626e-01	 9.417982e-01	-9.068754e+00
1	 5.781160e-01	 9.488676e-01	-1.000339e+01
1	 5.666014e-01	 9.557880e-01	-1.096143e+01
1	 5.550217e-01	 9.625585e-01	-1.194181e+01
1	 5.433796e-01	 9.691782e-01	-1.294336e+01
1	 5.252670e-01	 9.368723e-01	-8.740271e+00
1	 5.139556e-01	 9.431250e-01	-9.542451e+00
1	 5.025896e-01	 9.492306e-01	-1.034252e+01
1	 4.911717e-01	 9.551887e-01	-1.113774e+01
1	 4.797049e-01	 9.609986e-01	-1.192533e+01
1	 4.681917e-01	 9.666600e-01	-1.270242e+01
1	 5.288895e-01	 9.433335e-01	-9.508774e+00
1	 5.175001e-01	 9.496293e-01	-1.035175e+01
1	 5.060557e-01	 9.557771e-01	-1.119261e+01
1	 4.945591e-01	 9.617762e-01	-1.202826e+01
1	 4.830132e-01	 9.676262e-01	-1.285551e+01
1	 4.714206e-01	 9.733267e-01	-1.367112e+01
1	 5.325120e-01	 9.497947e-01	-1.031359e+01
1	 5.210447e-01	 9.561336e-01	-1.119796e+01
1	 5.095219e-01	 9.623235e-01	-1.207997e+01
1	 4.979465e-01	 9.683637e-01	-1.295630e+01
1	 4.863215e-01	 9.742538e-01	-1.382358e+01
1	 4.746496e-01	 9.799933e-01	-1.467832e+01
1	 5.361346e-01	 9.562559e-01	-1.115445e+01
1	 5.245892e-01	 9.626379e-01	-1.208069e+01
1	 5.129880e-01	 9.688699e-01	-1.300415e+01
1	 5.013339e-01	 9.749512e-01	-1.392148e+01
1	 4.896298e-01	 9.808814e-01	-1.482923e+01
1	 4.778785e-01	 9.866599e-01	-1.572390e+01
1	 5.397571e-01	 9.627171e-01	-1.203113e+01
1	 5.281337e-01	 9.691422e-01	-1.299956e+01
1	 5.164541e-01	 9.754163e-01	-1.396473e+01
1	 5.047213e-01	 9.815387e-01	-1.492339e+01
1	 4.929381e-01	 9.875089e-01	-1.587220e+01
1	 4.811074e-01	 9.933265e-01	-1.680775e+01
1	 5.433796e-01	 9.691782e-01	-1.294336e+01
1	 5.316782e-01	 9.756465e-01	-1.395421e+01
1	 5.199203e-01	 9.819627e-01	-1.496132e+01
1	 5.081087e-01	 9.881262e-01	-1.596167e+01
1	 4.962464e-01	 9.941365e-01	-1.695220e+01
1	 4.843363e-01	 9.999931e-01	-1.792977e+01
1	 4.681917e-01	 9.666600e-01	-1.270242e+01
1	 4.566352e-01	 9.721725e-01	-1.345705e+01
1	 4.450380e-01	 9.775358e-01	-1.417692e+01
1	 4.334029e-01	 9.827497e-01	-1.485864e+01
1	 4.217327e-01	 9.878141e-01	-1.549876e+01
1	 4.100303e-01	 9.927287e-01	-1.609384e+01
1	 4.714206e-01	 9.733267e-01	-1.367112e+01
1	 4.597844e-01	 9.788772e-01	-1.446275e+01
1	 4.481072e-01	 9.842775e-01	-1.521808e+01
1	 4.363919e-01	 9.895273e-01	-1.593382e+01
1	 4.246412e-01	 9.946266e-01	-1.660667e+01
1	 4.128581e-01	 9.995751e-01	-1.723331e+01
1	 4.746496e-01	 9.799933e-01	-1.467832e+01
1	 4.629336e-01	 9.855818e-01	-1.550799e+01
1	 4.511764e-01	 9.910191e-01	-1.630014e+01
1	 4.393809e-01	 9.963049e-01	-1.705143e+01
1	 4.275497e-01	 1.001439e+00	-1.775844e+01
1	 4.156859e-01	 1.006422e+00	-1.841779e+01
1	 4.778785e-01	 9.866599e-01	-1.572390e+01
1	 4.660828e-01	 9.922865e-01	-1.659281e+01
1	 4.542456e-01	 9.977607e-01	-1.742328e+01
1	 4.423698e-01	 1.003082e+00	-1.821165e+01
1	 4.304582e-01	 1.008252e+00	-1.895423e+01
1	 4.185137e-01	 1.013268e+00	-1.964732e+01
1	 4.811074e-01	 9.933265e-01	-1.680775e+01
1	 4.692320e-01	 9.989911e-01	-1.771730e+01
1	 4.573149e-01	 1.004502e+00	-1.858766e+01
1	 4.453588e-01	 1.009860e+00	-1.941468e+01
1	 4.333667e-01	 1.015064e+00	-2.019418e+01
1	 4.213415e-01	 1.020114e+00	-2.092194e+01
1	 4.843363e-01	 9.999931e-01	-1.792977e+01
1	 4.723812e-01	 1.005696e+00	-1.888150e+01
1	 4.603841e-01	 1.011244e+00	-1.979342e+01
1	 4.483478e-01	 1.016638e+00	-2.066069e+01
1	 4.362752e-01	 1.021877e+00	-2.147842e+01
1	 4.241693e-01	 1.026961e+00	-2.224169e+01
1	 4.100303e-01	 9.927287e-01	-1.609384e+01
1	 3.982983e-01	 9.974937e-01	-1.664029e+01
1	 3.865395e-01	 1.002109e+00	-1.713146e+01
1	 3.747566e-01	 1.006575e+00	-1.755928e+01
1	 3.629524e-01	 1.010891e+00	-1.791563e+01
1	 3.511296e-01	 1.015058e+00	-1.819241e+01
1	 4.128581e-01	 9.995751e-01	-1.723331e+01
1	 4.010452e-01	 1.004373e+00	-1.780945e+01
1	 3.892053e-01	 1.009020e+00	-1.832729e+01
1	 3.773412e-01	 1.013517e+00	-1.877821e+01
1	 3.654555e-01	 1.017863e+00	-1.915356e+01
1	 3.535512e-01	 1.022059e+00	-1.944470e+01
1	 4.156859e-01	 1.006422e+00	-1.841779e+01
1	 4.037920e-01	 1.011252e+00	-1.902426e+01
1	 3.918711e-01	 1.015931e+00	-1.956893e+01
1	 3.799257e-01	 1.020458e+00	-2.004276e+01
1	 3.679587e-01	 1.024834e+00	-2.043670e+01
1	 3.559727e-01	 1.029059e+00	-2.074168e+01
1	 4.185137e-01	 1.013268e+00	-1.964732e+01
1	 4.065389e-01	 1.018131e+00	-2.028463e+01
1	 3.945369e-01	 1.022842e+00	-2.085617e+01
1	 3.825102e-01	 1.027400e+00	-2.135263e+01
1	 3.704618e-01	 1.031806e+00	-2.176465e+01
1	 3.583943e-01	 1.036059e+00	-2.208290e+01
1	 4.213415e-01	 1.020114e+00	-2.092194e+01
1	 4.092858e-01	 1.025011e+00	-2.159048e+01
1	 3.972026e-01	 1.029753e+00	-2.218883e+01
1	 3.850947e-01	 1.034342e+00	-2.270753e+01
1	 3.729649e-01	 1.038778e+00	-2.313706e+01
1	 3.608159e-01	 1.043060e+00	-2.346793e+01
1	 4.241693e-01	 1.026961e+00	-2.224169e+01
1	 4.120327e-01	 1.031890e+00	-2.294171e+01
1	 3.998684e-01	 1.036664e+00	-2.356672e+01
1	 3.876793e-01	 1.041284e+00	-2.410719e+01
1	 3.754680e-01	 1.045749e+00	-2.455357e+01
1	 3.632375e-01	 1.050060e+00	-2.489633e+01
1	 3.511296e-01	 1.015058e+00	-1.819241e+01
1	 3.392907e-01	 1.019076e+00	-1.839508e+01
1	 3.274386e-01	 1.022946e+00	-1.853380e+01
1	 3.155758e-01	 1.026668e+00	-1.860750e+01
1	 3.037049e-01	 1.030242e+00	-1.861524e+01
1	 2.918285e-01	 1.033669e+00	-1.855611e+01
1	 3.535512e-01	 1.022059e+00	-1.944470e+01
1	 3.416307e-01	 1.026105e+00	-1.965742e+01
1	 3.296968e-01	 1.030001e+00	-1.980226e+01
1	 3.177522e-01	 1.033748e+00	-1.987772e+01
1	 3.057994e-01	 1.037347e+00	-1.988238e+01
1	 2.938411e-01	 1.040798e+00	-1.981488e+01
1	 3.559727e-01	 1.029059e+00	-2.074168e+01
1	 3.439706e-01	 1.033133e+00	-2.096392e+01
1	 3.319550e-01	 1.037056e+00	-2.111435e+01
1	 3.199286e-01	 1.040829e+00	-2.119110e+01
1	 3.078939e-01	 1.044452e+00	-2.119233e+01
1	 2.958537e-01	 1.047926e+00	-2.111632e+01
1	 3.583943e-01	 1.036059e+00	-2.208290e+01
1	 3.463106e-01	 1.040161e+00	-2.231408e+01
1	 3.342132e-01	 1.044111e+00	-2.246958e+01
1	 3.221049e-01	 1.047909e+00	-2.254719e+01
1	 3.099884e-01	 1.051557e+00	-2.254476e+01
1	 2.978663e-01	 1.055055e+00	-2.246022e+01
1	 3.608159e-01	 1.043060e+00	-2.346793e+01
1	 3.486505e-01	 1.047189e+00	-2.370743e+01
1	 3.364714e-01	 1.051165e+00	-2.386747e+01
1	 3.242813e-01	 1.054990e+00	-2.394557e+01
1	 3.120830e-01	 1.058662e+00	-2.393932e+01
1	 2.998789e-01	 1.062184e+00	-2.384639e+01
1	 3.632375e-01	 1.050060e+00	-2.489633e+01
1	 3.509904e-01	 1.054217e+00	-2.514348e+01
1	 3.387296e-01	 1.058220e+00	-2.530754e+01
1	 3.264577e-01	 1.062070e+00	-2.538581e+01
1	 3.141775e-01	 1.065768e+00	-2.537569e+01
1	 3.018915e-01	 1.069313e+00	-2.527465e+01
1	 2.918285e-01	 1.033669e+00	-1.855611e+01
1	 2.799492e-01	 1.036949e+00	-1.843264e+01
1	 2.680694e-01	 1.040084e+00	-1.825068e+01
1	 2.561918e-01	 1.043073e+00	-1.801446e+01
1	 2.443186e-01	 1.045918e+00	-1.772827e+01
1	 2.324525e-01	 1.048619e+00	-1.739647e+01
1	 2.938411e-01	 1.040798e+00	-1.981488e+01
1	 2.818799e-01	 1.044101e+00	-1.967801e+01
1	 2.699182e-01	 1.047257e+00	-1.947853e+01
1	 2.579586e-01	 1.050266e+00	-1.922122e+01
1	 2.460036e-01	 1.053131e+00	-1.891091e+01
1	 2.340556e-01	 1.055850e+00	-1.855252e+01
1	 2.958537e-01	 1.047926e+00	-2.111632e+01
1	 2.838105e-01	 1.051252e+00	-2.096623e+01
1	 2.717669e-01	 1.054430e+00	-2.074971e+01
1	 2.597254e-01	 1.057460e+00	-2.047186e+01
1	 2.476885e-01	 1.060344e+00	-2.013788e+01
1	 2.356587e-01	 1.063082e+00	-1.975299e+01
1	 2.978663e-01	 1.055055e+00	-2.246022e+01
1	 2.857412e-01	 1.058403e+00	-2.229724e+01
1	 2.736157e-01	 1.061603e+00	-2.206424e+01
1	 2.614923e-01	 1.064654e+00	-2.176646e+01
1	 2.493735e-01	 1.067557e+00	-2.140922e+01
1	 2.372618e-01	 1.070314e+00	-2.099790e+01
1	 2.998789e-01	 1.062184e+00	-2.384639e+01
1	 2.876719e-01	 1.065555e+00	-2.367098e+01
1	 2.754644e-01	 1.068776e+00	-2.342216e+01
1	 2.632591e-01	 1.071847e+00	-2.310508e+01
1	 2.510584e-01	 1.074770e+00	-2.272502e+01
1	 2.388649e-01	 1.077546e+00	-2.228727e+01
1	 3.018915e-01	 1.069313e+00	-2.527465e+01
1	 2.896026e-01	 1.072706e+00	-2.508740e+01
1	 2.773132e-01	 1.075949e+00	-2.482348e+01
1	 2.650260e-01	 1.079041e+00	-2.448779e+01
1	 2.527434e-01	 1.081984e+00	-2.408531e+01
1	 2.404681e-01	 1.084778e+00	-2.362111e+01
1	 2.324525e-01	 1.048619e+00	-1.739647e+01
1	 2.205957e-01	 1.051177e+00	-1.702661e+01
1	 2.087506e-01	 1.053593e+00	-1.662723e+01
1	 1.969196e-01	 1.055868e+00	-1.620415e+01
1	 1.851049e-01	 1.058003e+00	-1.576318e+01
1	 1.733088e-01	 1.060000e+00	-1.531013e+01
1	 2.340556e-01	 1.055850e+00	-1.855252e+01
1	 2.221170e-01	 1.058426e+00	-1.815414e+01
1	 2.101903e-01	 1.060859e+00	-1.772467e+01
1	 1.982776e-01	 1.063150e+00	-1.727018e+01
1	 1.863815e-01	 1.065300e+00	-1.679673e+01
1	 1.745040e-01	 1.067310e+00	-1.631039e+01
1	 2.356587e-01	 1.063082e+00	-1.975299e+01
1	 2.236384e-01	 1.065676e+00	-1.932569e+01
1	 2.116299e-01	 1.068125e+00	-1.886519e+01
1	 1.996357e-01	 1.070432e+00	-1.837791e+01
1	 1.876581e-01	 1.072597e+00	-1.787025e+01
1	 1.756992e-01	 1.074620e+00	-1.734859e+01
1	 2.372618e-01	 1.070314e+00	-2.099790e+01
1	 2.251597e-01	 1.072925e+00	-2.054119e+01
1	 2.130696e-01	 1.075392e+00	-2.004868e+01
1	 2.009938e-01	 1.077714e+00	-1.952719e+01
1	 1.889346e-01	 1.079893e+00	-1.898351e+01
1	 1.768945e-01	 1.081931e+00	-1.842443e+01
1	 2.388649e-01	 1.077546e+00	-2.228727e+01
1	 2.266811e-01	 1.080175e+00	-2.180061e+01
1	 2.145092e-01	 1.082658e+00	-2.127503e+01
1	 2.023518e-01	 1.084996e+00	-2.071784e+01
1	 1.902112e-01	 1.087190e+00	-2.013628e+01
1	 1.780897e-01	 1.089241e+00	-1.953760e+01
1	 2.404681e-01	 1.084778e+00	-2.362111e+01
1	 2.282024e-01	 1.087424e+00	-2.310389e+01
1	 2.159489e-01	 1.089924e+00	-2.254415e+01
1	 2.037099e-01	 1.092278e+00	-2.194970e+01
1	 1.914878e-01	 1.094486e+00	-2.132833e+01
1	 1.792849e-01	 1.096551e+00	-2.068784e+01
1	 1.733088e-01	 1.060000e+00	-1.531013e+01
1	 1.615335e-01	 1.061858e+00	-1.485216e+01
1	 1.497811e-01	 1.063579e+00	-1.439761e+01
1	 1.380538e-01	 1.065165e+00	-1.395394e+01
1	 1.263537e-01	 1.066616e+00	-1.352849e+01
1	 1.146828e-01	 1.067934e+00	-1.312855e+01
1	 1.745040e-01	 1.067310e+00	-1.631039e+01
1	 1.626475e-01	 1.069181e+00	-1.581873e+01
1	 1.508141e-01	 1.070914e+00	-1.533058e+01
1	 1.390059e-01	 1.072511e+00	-1.485382e+01
1	 1.272251e-01	 1.073972e+00	-1.439624e+01
1	 1.154737e-01	 1.075299e+00	-1.396552e+01
1	 1.756992e-01	 1.074620e+00	-1.734859e+01
1	 1.637615e-01	 1.076504e+00	-1.682096e+01
1	 1.518470e-01	 1.078249e+00	-1.629678e+01
1	 1.399580e-01	 1.079857e+00	-1.578444e+01
1	 1.280965e-01	 1.081328e+00	-1.529220e+01
1	 1.162647e-01	 1.082664e+00	-1.482823e+01
1	 1.768945e-01	 1.081931e+00	-1.842443e+01
1	 1.648755e-01	 1.083827e+00	-1.785851e+01
1	 1.528800e-01	 1.085584e+00	-1.729584e+01
1	 1.409101e-01	 1.087203e+00	-1.674537e+01
1	 1.289679e-01	 1.088684e+00	-1.621595e+01
1	 1.170556e-01	 1.090029e+00	-1.571628e+01
1	 1.780897e-01	 1.089241e+00	-1.953760e+01
1	 1.659895e-01	 1.091150e+00	-1.893101e+01
1	 1.539130e-01	 1.092919e+00	-1.832736e+01
1	 1.418622e-01	 1.094549e+00	-1.773622e+01
1	 1.298393e-01	 1.096040e+00	-1.716708e+01
1	 1.178465e-01	 1.097394e+00	-1.662928e+01
1	 1.792849e-01	 1.096551e+00	-2.068784e+01
1	 1.671036e-01	 1.098474e+00	-2.003814e+01
1	 1.549460e-01	 1.100254e+00	-1.939096e+01
1	 1.428143e-01	 1.101895e+00	-1.875659e+01
1	 1.307107e-01	 1.103396e+00	-1.814520e+01
1	 1.186374e-01	 1.104759e+00	-1.756684e+01
1	 1.146828e-01	 1.067934e+00	-1.312855e+01
1	 1.030432e-01	 1.069120e+00	-1.276141e+01
1	 9.143669e-02	 1.070175e+00	-1.243397e+01
1	 7.986531e-02	 1.071101e+00	-1.215275e+01
1	 6.833090e-02	 1.071898e+00	-1.192410e+01
1	 5.683529e-02	 1.072569e+00	-1.175422e+01
1	 1.154737e-01	 1.075299e+00	-1.396552e+01
1	 1.037538e-01	 1.076493e+00	-1.356938e+01
1	 9.206729e-02	 1.077555e+00	-1.321515e+01
1	 8.041611e-02	 1.078488e+00	-1.290976e+01
1	 6.880215e-02	 1.079291e+00	-1.265996e+01
1	 5.722725e-02	 1.079966e+00	-1.247235e+01
1	 1.162647e-01	 1.082664e+00	-1.482823e+01
1	 1.044645e-01	 1.083866e+00	-1.440075e+01
1	 9.269789e-02	 1.084936e+00	-1.401757e+01
1	 8.096690e-02	 1.085874e+00	-1.368603e+01
1	 6.927340e-02	 1.086683e+00	-1.341332e+01
1	 5.761922e-02	 1.087363e+00	-1.320646e+01
1	 1.170556e-01	 1.090029e+00	-1.571628e+01
1	 1.051751e-01	 1.091240e+00	-1.525515e+01
1	 9.332849e-02	 1.092317e+00	-1.484085e+01
1	 8.151770e-02	 1.093261e+00	-1.448121e+01
1	 6.974464e-02	 1.094076e+00	-1.418385e+01
1	 5.801119e-02	 1.094760e+00	-1.395623e+01
1	 1.178465e-01	 1.097394e+00	-1.662928e+01
1	 1.058857e-01	 1.098613e+00	-1.613219e+01
1	 9.395909e-02	 1.099697e+00	-1.568465e+01
1	 8.206849e-02	 1.100648e+00	-1.529495e+01
1	 7.021589e-02	 1.101468e+00	-1.497121e+01
1	 5.840316e-02	 1.102157e+00	-1.472132e+01
1	 1.186374e-01	 1.104759e+00	-1.756684e+01
1	 1.065964e-01	 1.105986e+00	-1.703152e+01
1	 9.458968e-02	 1.107078e+00	-1.654862e+01
1	 8.261929e-02	 1.108035e+00	-1.612693e+01
1	 7.068714e-02	 1.108860e+00	-1.577507e+01
1	 5.879512e-02	 1.109554e+00	-1.550141e+01
1	 5.683529e-02	 1.072569e+00	-1.175422e+01
1	 4.538025e-02	 1.073115e+00	-1.164930e+01
1	 3.396754e-02	 1.073537e+00	-1.161446e+01
1	 2.259883e-02	 1.073836e+00	-1.165415e+01
1	 1.127578e-02	 1.074015e+00	-1.177266e+01
1	 0.000000e+00	 1.074074e+00	-1.197411e+01
1	 5.722725e-02	 1.079966e+00	-1.247235e+01
1	 4.569322e-02	 1.080516e+00	-1.235352e+01
1	 3.420179e-02	 1.080941e+00	-1.230903e+01
1	 2.275468e-02	 1.081242e+00	-1.234364e+01
1	 1.135355e-02	 1.081422e+00	-1.246196e+01
1	 0.000000e+00	 1.081481e+00	-1.266845e+01
1	 5.761922e-02	 1.087363e+00	-1.320646e+01
1	 4.600619e-02	 1.087917e+00	-1.307249e+01
1	 3.443605e-02	 1.088344e+00	-1.301734e+01
1	 2.291054e-02	 1.088648e+00	-1.304614e+01
1	 1.143131e-02	 1.088829e+00	-1.316384e+01
1	 0.000000e+00	 1.088889e+00	-1.337517e+01
1	 5.801119e-02	 1.094760e+00	-1.395623e+01
1	 4.631915e-02	 1.095317e+00	-1.380585e+01
1	 3.467031e-02	 1.095748e+00	-1.373906e+01
1	 2.306639e-02	 1.096054e+00	-1.376134e+01
1	 1.150908e-02	 1.096236e+00	-1.387794e+01
1	 0.000000e+00	 1.096296e+00	-1.409394e+01
1	 5.840316e-02	 1.102157e+00	-1.472132e+01
1	 4.663212e-02	 1.102718e+00	-1.455328e+01
1	 3.490457e-02	 1.103152e+00	-1.447387e+01
1	 2.322225e-02	 1.103459e+00	-1.448889e+01
1	 1.158684e-02	 1.103643e+00	-1.460395e+01
1	 0.000000e+00	 1.103704e+00	-1.482443e+01
1	 5.879512e-02	 1.109554e+00	-1.550141e+01
1	 4.694509e-02	 1.110119e+00	-1.531446e+01
1	 3.513883e-02	 1.110555e+00	-1.522144e+01
1	 2.337810e-02	 1.110865e+00	-1.522849e+01
1	 1.166460e-02	 1.111050e+00	-1.534155e+01
1	 0.000000e+00	 1.111111e+00	-1.556633e+01
1	 1.111111e+00	 0.000000e+00	 2.628600e+01
1	 1.111050e+00	 1.166460e-02	 2.612605e+01
1	 1.110865e+00	 2.337810e-02	 2.598432e+01
1	 1.110555e+00	 3.513883e-02	 2.585945e+01
1	 1.110119e+00	 4.694509e-02	 2.575009e+01
1	 1.109554e+00	 5.879512e-02	 2.565488e+01
1	 1.118519e+00	 0.000000e+00	 2.601601e+01
1	 1.118457e+00	 1.174237e-02	 2.584967e+01
1	 1.118271e+00	 2.353395e-02	 2.570347e+01
1	 1.117959e+00	 3.537309e-02	 2.557597e+01
1	 1.117520e+00	 4.725806e-02	 2.546575e+01
1	 1.116951e+00	 5.918709e-02	 2.537135e+01
1	 1.125926e+00	 0.000000e+00	 2.575216e+01
1	 1.125864e+00	 1.182013e-02	 2.557930e+01
1	 1.125677e+00	 2.368981e-02	 2.542846e+01
1	 1.125363e+00	 3.560735e-02	 2.529814e+01
1	 1.124921e+00	 4.757102e-02	 2.518683e+01
1	 1.124348e+00	 5.957906e-02	 2.509301e+01
1	 1.133333e+00	 0.000000e+00	 2.549405e+01
1	 1.133271e+00	 1.189790e-02	 2.531453e+01
1	 1.133082e+00	 2.384566e-02	 2.515889e+01
1	 1.132766e+00	 3.584161e-02	 2.502555e+01
1	 1.132321e+00	 4.788399e-02	 2.491294e+01
1	 1.131746e+00	 5.997103e-02	 2.481946e+01
1	 1.140741e+00	 0.000000e+00	 2.524123e+01
1	 1.140678e+00	 1.197566e-02	 2.505494e+01
1	 1.140488e+00	 2.400152e-02	 2.489435e+01
1	 1.140170e+00	 3.607587e-02	 2.475782e+01
1	 1.139722e+00	 4.819696e-02	 2.464369e+01
1	 1.139143e+00	 6.036299e-02	 2.455031e+01
1	 1.148148e+00	 0.000000e+00	 2.499330e+01
1	 1.148085e+00	 1.205342e-02	 2.480015e+01
1	 1.147894e+00	 2.415737e-02	 2.463447e+01
1	 1.147574e+00	 3.631012e-02	 2.449457e+01
1	 1.147123e+00	 4.850992e-02	 2.437871e+01
1	 1.146540e+00	 6.075496e-02	 2.428518e+01
1	 1.109554e+00	 5.879512e-02	 2.565488e+01
1	 1.108860e+00	 7.068714e-02	 2.557320e+01
1	 1.108035e+00	 8.261929e-02	 2.550425e+01
1	 1.107078e+00	 9.458968e-02	 2.544646e+01
1	 1.105986e+00	 1.065964e-01	 2.539828e+01
1	 1.104759e+00	 1.186374e-01	 2.535816e+01
1	 1.116951e+00	 5.918709e-02	 2.537135e+01
1	 1.116253e+00	 7.115839e-02	 2.529212e+01
1	 1.115422e+00	 8.317009e-02	 2.522719e+01
1	 1.114458e+00	 9.522028e-02	 2.517489e+01
1	 1.113359e+00	 1.073070e-01	 2.513356e+01
1	 1.112124e+00	 1.194283e-01	 2.510156e+01
1	 1.124348e+00	 5.957906e-02	 2.509301e+01
1	 1.123645e+00	 7.162963e-02	 2.501596e+01
1	 1.122809e+00	 8.372088e-02	 2.495479e+01
1	 1.121839e+00	 9.585088e-02	 2.490771e+01
1	 1.120733e+00	 1.080177e-01	 2.487298e+01
1	 1.119489e+00	 1.202192e-01	 2.484886e+01
1	 1.131746e+00	 5.997103e-02	 2.481946e+01
1	 1.131038e+00	 7.210088e-02	 2.474434e+01
1	 1.130196e+00	 8.427168e-02	 2.468663e+01
1	 1.129219e+00	 9.648148e-02	 2.464449e+01
1	 1.128106e+00	 1.087283e-01	 2.461608e+01
1	 1.126854e+00	 1.210102e-01	 2.459957e+01
1	 1.139143e+00	 6.036299e-02	 2.455031e+01
1	 1.138430e+00	 7.257213e-02	 2.447685e+01
1	 1.137583e+00	 8.482247e-02	 2.442233e+01
1	 1.136600e+00	 9.711208e-02	 2.438483e+01
1	 1.135479e+00	 1.094390e-01	 2.436244e+01
1	 1.134220e+00	 1.218011e-01	 2.435325e+01
1	 1.146540e+00	 6.075496e-02	 2.428518e+01
1	 1.145822e+00	 7.304338e-02	 2.421310e+01
1	 1.144970e+00	 8.537327e-02	 2.416147e+01
1	 1.143980e+00	 9.774267e-02	 2.412830e+01
1	 1.142852e+00	 1.101496e-01	 2.411162e+01
1	 1.141585e+00	 1.225920e-01	 2.410945e+01
1	 1.104759e+00	 1.186374e-01	 2.535816e+01
1	 1.103396e+00	 1.307107e-01	 2.532461e+01
1	 1.101895e+00	 1.428143e-01	 2.529604e+01
1	 1.100254e+00	 1.549460e-01	 2.527083e+01
1	 1.098474e+00	 1.671036e-01	 2.524740e+01
1	 1.096551e+00	 1.792849e-01	 2.522422e+01
1	 1.112124e+00	 1.194283e-01	 2.510156e+01
1	 1.110752e+00	 1.315821e-01	 2.507736e+01
1	 1.109241e+00	 1.437664e-01	 2.505933e+01
1	 1.107589e+00	 1.559789e-01	 2.504573e+01
1	 1.105797e+00	 1.682176e-01	 2.503486e+01
1	 1.103862e+00	 1.804802e-01	 2.502507e+01
1	 1.119489e+00	 1.202192e-01	 2.484886e+01
1	 1.118108e+00	 1.324535e-01	 2.483382e+01
1	 1.116587e+00	 1.447185e-01	 2.482623e+01
1	 1.114924e+00	 1.570119e-01	 2.482424e+01
1	 1.113120e+00	 1.693316e-01	 2.482604e+01
1	 1.111172e+00	 1.816754e-01	 2.482990e+01
1	 1.126854e+00	 1.210102e-01	 2.459957e+01
1	 1.125464e+00	 1.333250e-01	 2.459347e+01
1	 1.123933e+00	 1.456706e-01	 2.459617e+01
1	 1.122259e+00	 1.580449e-01	 2.460572e+01
1	 1.120443e+00	 1.704456e-01	 2.462023e+01
1	 1.118482e+00	 1.828706e-01	 2.463786e+01
1	 1.134220e+00	 1.218011e-01	 2.435325e+01
1	 1.132820e+00	 1.341964e-01	 2.435583e+01
1	 1.131279e+00	 1.466227e-01	 2.436861e+01
1	 1.129594e+00	 1.590778e-01	 2.438956e+01
1	 1.127766e+00	 1.715597e-01	 2.441672e+01
1	 1.125793e+00	 1.840659e-01	 2.444815e+01
1	 1.141585e+00	 1.225920e-01	 2.410945e+01
1	 1.140176e+00	 1.350678e-01	 2.412041e+01
1	 1.138625e+00	 1.475748e-01	 2.414302e+01
1	 1.136930e+00	 1.601108e-01	 2.417517e+01
1	 1.135089e+00	 1.726737e-01	 2.421482e+01
1	 1.133103e+00	 1.852611e-01	 2.425996e+01
1	 1.096551e+00	 1.792849e-01	 2.522422e+01
1	 1.094486e+00	 1.914878e-01	 2.519918e+01
1	 1.092278e+00	 2.037099e-01	 2.517057e+01
1	 1.089924e+00	 2.159489e-01	 2.513757e+01
1	 1.087424e+00	 2.282024e-01	 2.509943e+01
1	 1.084778e+00	 2.404681e-01	 2.505544e+01
1	 1.103862e+00	 1.804802e-01	 2.502507e+01
1	 1.101783e+00	 1.927644e-01	 2.501399e+01
1	 1.099559e+00	 2.050680e-01	 2.499963e+01
1	 1.097190e+00	 2.173886e-01	 2.498106e+01
1	 1.094674e+00	 2.297238e-01	 2.495742e+01
1	 1.092010e+00	 2.420712e-01	 2.492787e+01
1	 1.111172e+00	 1.816754e-01	 2.482990e+01
1	 1.109079e+00	 1.940410e-01	 2.483312e+01
1	 1.106841e+00	 2.064260e-01	 2.483342e+01
1	 1.104456e+00	 2.188282e-01	 2.482976e+01
1	 1.101923e+00	 2.312451e-01	 2.482113e+01
1	 1.099242e+00	 2.436743e-01	 2.480660e+01
1	 1.118482e+00	 1.828706e-01	 2.463786e+01
1	 1.116376e+00	 1.953176e-01	 2.465562e+01
1	 1.114123e+00	 2.077841e-01	 2.467089e+01
1	 1.111722e+00	 2.202679e-01	 2.468250e+01
1	 1.109173e+00	 2.327665e-01	 2.468934e+01
1	 1.106473e+00	 2.452774e-01	 2.469034e+01
1	 1.125793e+00	 1.840659e-01	 2.444815e+01
1	 1.123673e+00	 1.965942e-01	 2.448055e+01
1	 1.121405e+00	 2.091422e-01	 2.451099e+01
1	 1.118988e+00	 2.217075e-01	 2.453817e+01
1	 1.116422e+00	 2.342878e-01	 2.456083e+01
1	 1.113705e+00	 2.468805e-01	 2.457780e+01
1	 1.133103e+00	 1.852611e-01	 2.425996e+01
1	 1.130969e+00	 1.978707e-01	 2.430701e+01
1	 1.128687e+00	 2.105002e-01	 2.435272e+01
1	 1.126255e+00	 2.231472e-01	 2.439565e+01
1	 1.123672e+00	 2.358092e-01	 2.443443e+01
1	 1.120937e+00	 2.484837e-01	 2.446774e+01
1	 1.084778e+00	 2.404681e-01	 2.505544e+01
1	 1.081984e+00	 2.527434e-01	 2.500221e+01
1	 1.079041e+00	 2.650260e-01	 2.493674e+01
1	 1.075949e+00	 2.773132e-01	 2.485906e+01
1	 1.072706e+00	 2.896026e-01	 2.476924e+01
1	 1.069313e+00	 3.018915e-01	 2.466748e+01
1	 1.092010e+00	 2.420712e-01	 2.492787e+01
1	 1.089197e+00	 2.544284e-01	 2.488897e+01
1	 1.086234e+00	 2.667928e-01	 2.483781e+01
1	 1.083122e+00	 2.791619e-01	 2.477445e+01
1	 1.079857e+00	 2.915333e-01	 2.469907e+01
1	 1.076441e+00	 3.039042e-01	 2.461189e+01
1	 1.099242e+00	 2.436743e-01	 2.480660e+01
1	 1.096410e+00	 2.561133e-01	 2.478268e+01
1	 1.093428e+00	 2.685596e-01	 2.474646e+01
1	 1.090295e+00	 2.810107e-01	 2.469802e+01
1	 1.087009e+00	 2.934640e-01	 2.463749e+01
1	 1.083570e+00	 3.059168e-01	 2.456515e+01
1	 1.106473e+00	 2.452774e-01	 2.469034e+01
1	 1.103623e+00	 2.577983e-01	 2.468199e+01
1	 1.100622e+00	 2.703265e-01	 2.466140e+01
1	 1.097468e+00	 2.828595e-01	 2.462854e+01
1	 1.094160e+00	 2.953946e-01	 2.458350e+01
1	 1.090699e+00	 3.079294e-01	 2.452648e+01
1	 1.113705e+00	 2.468805e-01	 2.457780e+01
1	 1.110837e+00	 2.594832e-01	 2.458560e+01
1	 1.107815e+00	 2.720933e-01	 2.458134e+01
1	 1.104641e+00	 2.847082e-01	 2.456485e+01
1	 1.101312e+00	 2.973253e-01	 2.453609e+01
1	 1.097828e+00	 3.099420e-01	 2.449513e+01
1	 1.120937e+00	 2.484837e-01	 2.446774e+01
1	 1.118050e+00	 2.611682e-01	 2.449222e+01
1	 1.115009e+00	 2.738601e-01	 2.450504e+01
1	 1.111814e+00	 2.865570e-01	 2.450582e+01
1	 1.108463e+00	 2.992560e-01	 2.449429e+01
1	 1.104956e+00	 3.119546e-01	 2.447037e+01
1	 1.069313e+00	 3.018915e-01	 2.466748e+01
1	 1.065768e+00	 3.141775e-01	 2.455316e+01
1	 1.062070e+00	 3.264577e-01	 2.442617e+01
1	 1.058220e+00	 3.387296e-01	 2.428754e+01
1	 1.054217e+00	 3.509904e-01	 2.413829e+01
1	 1.050060e+00	 3.632375e-01	 2.397943e+01
1	 1.076441e+00	 3.039042e-01	 2.461189e+01
1	 1.072873e+00	 3.162720e-01	 2.451167e+01
1	 1.069151e+00	 3.286341e-01	 2.439758e+01
1	 1.065275e+00	 3.409878e-01	 2.427057e+01
1	 1.061245e+00	 3.533304e-01	 2.413161e+01
1	 1.057061e+00	 3.656591e-01	 2.398160e+01
1	 1.083570e+00	 3.059168e-01	 2.456515e+01
1	 1.079978e+00	 3.183665e-01	 2.447895e+01
1	 1.076231e+00	 3.308105e-01	 2.437727e+01
1	 1.072330e+00	 3.432460e-01	 2.426110e+01
1	 1.068273e+00	 3.556703e-01	 2.413134e+01
1	 1.064061e+00	 3.680807e-01	 2.398891e+01
1	 1.090699e+00	 3.079294e-01	 2.452648e+01
1	 1.087083e+00	 3.204610e-01	 2.445447e+01
1	 1.083312e+00	 3.329869e-01	 2.436495e+01
1	 1.079385e+00	 3.455042e-01	 2.425895e+01
1	 1.075301e+00	 3.580102e-01	 2.413743e+01
1	 1.071061e+00	 3.705022e-01	 2.400131e+01
1	 1.097828e+00	 3.099420e-01	 2.449513e+01
1	 1.094188e+00	 3.225555e-01	 2.443773e+01
1	 1.090392e+00	 3.351632e-01	 2.436029e+01
1	 1.086439e+00	 3.477624e-01	 2.426396e+01
1	 1.082330e+00	 3.603502e-01	 2.414980e+01
1	 1.078062e+00	 3.729238e-01	 2.401878e+01
1	 1.104956e+00	 3.119546e-01	 2.447037e+01
1	 1.101293e+00	 3.246501e-01	 2.442824e+01
1	 1.097473e+00	 3.373396e-01	 2.436301e+01
1	 1.093494e+00	 3.500206e-01	 2.427598e+01
1	 1.089358e+00	 3.626901e-01	 2.416837e+01
1	 1.085062e+00	 3.753454e-01	 2.404127e+01
1	 1.050060e+00	 3.632375e-01	 2.397943e+01
1	 1.045749e+00	 3.754680e-01	 2.378625e+01
1	 1.041284e+00	 3.876793e-01	 2.353391e+01
1	 1.036664e+00	 3.998684e-01	 2.322313e+01
1	 1.031890e+00	 4.120327e-01	 2.285444e+01
1	 1.026961e+00	 4.241693e-01	 2.242825e+01
1	 1.057061e+00	 3.656591e-01	 2.398160e+01
1	 1.052721e+00	 3.779711e-01	 2.379489e+01
1	 1.048226e+00	 3.902638e-01	 2.354584e+01
1	 1.043576e+00	 4.025342e-01	 2.323529e+01
1	 1.038769e+00	 4.147796e-01	 2.286395e+01
1	 1.033807e+00	 4.269970e-01	 2.243237e+01
1	 1.064061e+00	 3.680807e-01	 2.398891e+01
1	 1.059693e+00	 3.804743e-01	 2.380734e+01
1	 1.055168e+00	 3.928483e-01	 2.356038e+01
1	 1.050487e+00	 4.052000e-01	 2.324902e+01
1	 1.045649e+00	 4.175265e-01	 2.287416e+01
1	 1.040654e+00	 4.298248e-01	 2.243652e+01
1	 1.071061e+00	 3.705022e-01	 2.400131e+01
1	 1.066664e+00	 3.829774e-01	 2.382356e+01
1	 1.062110e+00	 3.954329e-01	 2.357744e+01
1	 1.057398e+00	 4.078658e-01	 2.326414e+01
1	 1.052528e+00	 4.202734e-01	 2.288476e+01
1	 1.047500e+00	 4.326526e-01	 2.244026e+01
1	 1.078062e+00	 3.729238e-01	 2.401878e+01
1	 1.073636e+00	 3.854805e-01	 2.384349e+01
1	 1.069052e+00	 3.980174e-01	 2.359691e+01
1	 1.064309e+00	 4.105316e-01	 2.328047e+01
1	 1.059407e+00	 4.230202e-01	 2.289550e+01
1	 1.054346e+00	 4.354804e-01	 2.244318e+01
1	 1.085062e+00	 3.753454e-01	 2.404127e+01
1	 1.080608e+00	 3.879836e-01	 2.386708e+01
1	 1.075994e+00	 4.006019e-01	 2.361871e+01
1	 1.071220e+00	 4.131974e-01	 2.329785e+01
1	 1.066286e+00	 4.257671e-01	 2.290608e+01
1	 1.061193e+00	 4.383082e-01	 2.244485e+01
1	 1.026961e+00	 4.241693e-01	 2.242825e+01
1	 1.021877e+00	 4.362752e-01	 2.194794e+01
1	 1.016638e+00	 4.483478e-01	 2.141747e+01
1	 1.011244e+00	 4.603841e-01	 2.083794e+01
1	 1.005696e+00	 4.723812e-01	 2.021045e+01
1	 9.999931e-01	 4.843363e-01	 1.953612e+01
1	 1.033807e+00	 4.269970e-01	 2.243237e+01
1	 1.028689e+00	 4.391837e-01	 2.194495e+01
1	 1.023415e+00	 4.513368e-01	 2.140653e+01
1	 1.017986e+00	 4.634533e-01	 2.081820e+01
1	 1.012400e+00	 4.755304e-01	 2.018105e+01
1	 1.006660e+00	 4.875652e-01	 1.949614e+01
1	 1.040654e+00	 4.298248e-01	 2.243652e+01
1	 1.035502e+00	 4.420922e-01	 2.194143e+01
1	 1.030193e+00	 4.543258e-01	 2.139446e+01
1	 1.024727e+00	 4.665225e-01	 2.079667e+01
1	 1.019105e+00	 4.786796e-01	 2.014908e+01
1	 1.013326e+00	 4.907941e-01	 1.945267e+01
1	 1.047500e+00	 4.326526e-01	 2.244026e+01
1	 1.042314e+00	 4.450007e-01	 2.193682e+01
1	 1.036970e+00	 4.573148e-01	 2.138068e+01
1	 1.031469e+00	 4.695918e-01	 2.077279e+01
1	 1.025810e+00	 4.818288e-01	 2.011410e+01
1	 1.019993e+00	 4.940230e-01	 1.940548e+01
1	 1.054346e+00	 4.354804e-01	 2.244318e+01
1	 1.049127e+00	 4.479092e-01	 2.193058e+01
1	 1.043748e+00	 4.603037e-01	 2.136458e+01
1	 1.038210e+00	 4.726610e-01	 2.074602e+01
1	 1.032514e+00	 4.849780e-01	 2.007568e+01
1	 1.026660e+00	 4.972519e-01	 1.935435e+01
1	 1.061193e+00	 4.383082e-01	 2.244485e+01
1	 1.055939e+00	 4.508177e-01	 2.192219e+01
1	 1.050526e+00	 4.632927e-01	 2.134563e+01
1	 1.044952e+00	 4.757302e-01	 2.071583e+01
1	 1.039219e+00	 4.881272e-01	 2.003344e+01
1	 1.033326e+00	 5.004808e-01	 1.929907e+01
1	 9.999931e-01	 4.843363e-01	 1.953612e+01
1	 9.941365e-01	 4.962464e-01	 1.882462e+01
1	 9.881262e-01	 5.081087e-01	 1.808497e+01
1	 9.819627e-01	 5.199203e-01	 1.731729e+01
1	 9.756465e-01	 5.316782e-01	 1.652164e+01
1	 9.691782e-01	 5.433796e-01	 1.569806e+01
1	 1.006660e+00	 4.875652e-01	 1.949614e+01
1	 1.000764e+00	 4.995547e-01	 1.877313e+01
1	 9.947137e-01	 5.114961e-01	 1.802103e+01
1	 9.885092e-01	 5.233864e-01	 1.723996e+01
1	 9.821509e-01	 5.352227e-01	 1.642998e+01
1	 9.756394e-01	 5.470022e-01	 1.559113e+01
1	 1.013326e+00	 4.907941e-01	 1.945267e+01
1	 1.007392e+00	 5.028630e-01	 1.871715e+01
1	 1.001301e+00	 5.148835e-01	 1.795162e+01
1	 9.950556e-01	 5.268525e-01	 1.715621e+01
1	 9.886552e-01	 5.387673e-01	 1.633098e+01
1	 9.821006e-01	 5.506247e-01	 1.547599e+01
1	 1.019993e+00	 4.940230e-01	 1.940548e+01
1	 1.014019e+00	 5.061713e-01	 1.865665e+01
1	 1.007889e+00	 5.182709e-01	 1.787683e+01
1	 1.001602e+00	 5.303187e-01	 1.706616e+01
1	 9.951595e-01	 5.423118e-01	 1.622473e+01
1	 9.885618e-01	 5.542472e-01	 1.535261e+01
1	 1.026660e+00	 4.972519e-01	 1.935435e+01
1	 1.020647e+00	 5.094796e-01	 1.859163e+01
1	 1.014476e+00	 5.216583e-01	 1.779676e+01
1	 1.008148e+00	 5.337848e-01	 1.696994e+01
1	 1.001664e+00	 5.458563e-01	 1.611130e+01
1	 9.950230e-01	 5.578698e-01	 1.522091e+01
1	 1.033326e+00	 5.004808e-01	 1.929907e+01
1	 1.027274e+00	 5.127880e-01	 1.852206e+01
1	 1.021064e+00	 5.250457e-01	 1.771151e+01
1	 1.014695e+00	 5.372509e-01	 1.686769e+01
1	 1.008168e+00	 5.494008e-01	 1.599077e+01
1	 1.001484e+00	 5.614923e-01	 1.508085e+01
1	 9.691782e-01	 5.433796e-01	 1.569806e+01
1	 9.625585e-01	 5.550217e-01	 1.485753e+01
1	 9.557880e-01	 5.666014e-01	 1.401123e+01
1	 9.488676e-01	 5.781160e-01	 1.315940e+01
1	 9.417982e-01	 5.895626e-01	 1.230231e+01
1	 9.345807e-01	 6.009383e-01	 1.144026e+01
1	 9.756394e-01	 5.470022e-01	 1.559113e+01
1	 9.689756e-01	 5.587218e-01	 1.473469e+01
1	 9.621599e-01	 5.703787e-01	 1.387210e+01
1	 9.551934e-01	 5.819701e-01	 1.300354e+01
1	 9.480769e-01	 5.934930e-01	 1.212921e+01
1	 9.408113e-01	 6.049445e-01	 1.124930e+01
1	 9.821006e-01	 5.506247e-01	 1.547599e+01
1	 9.753926e-01	 5.624220e-01	 1.460279e+01
1	 9.685319e-01	 5.741561e-01	 1.372299e+01
1	 9.615192e-01	 5.858242e-01	 1.283672e+01
1	 9.543555e-01	 5.974234e-01	 1.194409e+01
1	 9.470418e-01	 6.089508e-01	 1.104522e+01
1	 9.885618e-01	 5.542472e-01	 1.535261e+01
1	 9.818097e-01	 5.661221e-01	 1.446162e+01
1	 9.749038e-01	 5.779334e-01	 1.356361e+01
1	 9.678450e-01	 5.896783e-01	 1.265861e+01
1	 9.606342e-01	 6.013538e-01	 1.174668e+01
1	 9.532723e-01	 6.129570e-01	 1.082786e+01
1	 9.950230e-01	 5.578698e-01	 1.522091e+01
1	 9.882267e-01	 5.698222e-01	 1.431098e+01
1	 9.812757e-01	 5.817108e-01	 1.339366e+01
1	 9.741708e-01	 5.935324e-01	 1.246891e+01
1	 9.669128e-01	 6.052842e-01	 1.153671e+01
1	 9.595029e-01	 6.169633e-01	 1.059704e+01
1	 1.001484e+00	 5.614923e-01	 1.508085e+01
1	 9.946438e-01	 5.735224e-01	 1.415068e+01
1	 9.876476e-01	 5.854881e-01	 1.321287e+01
1	 9.804966e-01	 5.973865e-01	 1.226732e+01
1	 9.731915e-01	 6.092146e-01	 1.131392e+01
1	 9.657334e-01	 6.209695e-01	 1.035260e+01
1	 9.345807e-01	 6.009383e-01	 1.144026e+01
1	 9.272161e-01	 6.122403e-01	 1.058442e+01
1	 9.197055e-01	 6.234658e-01	 9.746226e+00
1	 9.120501e-01	 6.346120e-01	 8.926447e+00
1	 9.042512e-01	 6.456762e-01	 8.125918e+00
1	 8.963099e-01	 6.566556e-01	 7.345559e+00
1	 9.408113e-01	 6.049445e-01	 1.124930e+01
1	 9.333976e-01	 6.163219e-01	 1.037541e+01
1	 9.258369e-01	 6.276222e-01	 9.519484e+00
1	 9.181305e-01	 6.388428e-01	 8.682247e+00
1	 9.102795e-01	 6.499807e-01	 7.864529e+00
1	 9.022853e-01	 6.610333e-01	 7.067240e+00
1	 9.470418e-01	 6.089508e-01	 1.104522e+01
1	 9.395790e-01	 6.204035e-01	 1.015220e+01
1	 9.319683e-01	 6.317787e-01	 9.277449e+00
1	 9.242108e-01	 6.430735e-01	 8.421667e+00
1	 9.163078e-01	 6.542852e-01	 7.585632e+00
1	 9.082607e-01	 6.654110e-01	 6.770204e+00
1	 9.532723e-01	 6.129570e-01	 1.082786e+01
1	 9.457604e-01	 6.244851e-01	 9.914698e+00
1	 9.380997e-01	 6.359351e-01	 9.020092e+00
1	 9.302912e-01	 6.473043e-01	 8.144661e+00
1	 9.223362e-01	 6.585897e-01	 7.289102e+00
1	 9.142361e-01	 6.697887e-01	 6.454191e+00
1	 9.595029e-01	 6.169633e-01	 1.059704e+01
1	 9.519419e-01	 6.285667e-01	 9.662843e+00
1	 9.442310e-01	 6.400916e-01	 8.747384e+00
1	 9.363715e-01	 6.515350e-01	 7.851182e+00
1	 9.283645e-01	 6.628942e-01	 6.974820e+00
1	 9.202115e-01	 6.741664e-01	 6.118947e+00
1	 9.657334e-01	 6.209695e-01	 1.035260e+01
1	 9.581233e-01	 6.326483e-01	 9.396566e+00
1	 9.503624e-01	 6.442480e-01	 8.459298e+00
1	 9.424518e-01	 6.557658e-01	 7.541185e+00
1	 9.343929e-01	 6.671987e-01	 6.642665e+00
1	 9.261869e-01	 6.785441e-01	 5.764222e+00
1	 8.963099e-01	 6.566556e-01	 7.345559e+00
1	 8.882276e-01	 6.675474e-01	 6.593161e+00
1	 8.800059e-01	 6.783491e-01	 5.877170e+00
1	 8.716462e-01	 6.890578e-01	 5.199660e+00
1	 8.631502e-01	 6.996711e-01	 4.562848e+00
1	 8.545193e-01	 7.101864e-01	 3.969088e+00
1	 9.022853e-01	 6.610333e-01	 7.067240e+00
1	 8.941492e-01	 6.719977e-01	 6.298600e+00
1	 8.858726e-01	 6.828714e-01	 5.567482e+00
1	 8.774572e-01	 6.936516e-01	 4.875957e+00
1	 8.689045e-01	 7.043356e-01	 4.226242e+00
1	 8.602161e-01	 7.149210e-01	 3.620702e+00
1	 9.082607e-01	 6.654110e-01	 6.770204e+00
1	 9.000707e-01	 6.764481e-01	 5.984050e+00
1	 8.917393e-01	 6.873937e-01	 5.236548e+00
1	 8.832682e-01	 6.982453e-01	 4.529818e+00
1	 8.746588e-01	 7.090001e-01	 3.866143e+00
1	 8.659129e-01	 7.196555e-01	 3.247967e+00
1	 9.142361e-01	 6.697887e-01	 6.454191e+00
1	 9.059922e-01	 6.808984e-01	 5.649124e+00
1	 8.976061e-01	 6.919160e-01	 4.883932e+00
1	 8.890792e-01	 7.028390e-01	 4.160840e+00
1	 8.804132e-01	 7.136646e-01	 3.482258e+00
1	 8.716097e-01	 7.243901e-01	 2.850775e+00
1	 9.202115e-01	 6.741664e-01	 6.118947e+00
1	 9.119137e-01	 6.853487e-01	 5.293445e+00
1	 9.034728e-01	 6.964384e-01	 4.509213e+00
1	 8.948901e-01	 7.074327e-01	 3.768632e+00
1	 8.861675e-01	 7.183290e-01	 3.074301e+00
1	 8.773065e-01	 7.291247e-01	 2.429021e+00
1	 9.261869e-01	 6.785441e-01	 5.764222e+00
1	 9.178352e-01	 6.897990e-01	 4.916645e+00
1	 9.093395e-01	 7.009607e-01	 4.111977e+00
1	 9.007011e-01	 7.120264e-01	 3.352813e+00
1	 8.919218e-01	 7.229935e-01	 2.641994e+00
1	 8.830033e-01	 7.338593e-01	 1.982605e+00
1	 8.545193e-01	 7.101864e-01	 3.969088e+00
1	 8.457553e-01	 7.206010e-01	 3.421935e+00
1	 8.368601e-01	 7.309125e-01	 2.924339e+00
1	 8.278354e-01	 7.411184e-01	 2.477955e+00
1	 8.186831e-01	 7.512162e-01	 2.084564e+00
1	 8.094052e-01	 7.612037e-01	 1.746072e+00
1	 8.602161e-01	 7.149210e-01	 3.620702e+00
1	 8.513937e-01	 7.254050e-01	 3.062947e+00
1	 8.424392e-01	 7.357852e-01	 2.555960e+00
1	 8.333543e-01	 7.460592e-01	 2.101371e+00
1	 8.241410e-01	 7.562243e-01	 1.700947e+00
1	 8.148013e-01	 7.662784e-01	 1.356580e+00
1	 8.659129e-01	 7.196555e-01	 3.247967e+00
1	 8.570321e-01	 7.302090e-01	 2.678987e+00
1	 8.480183e-01	 7.406580e-01	 2.162198e+00
1	 8.388732e-01	 7.509999e-01	 1.699202e+00
1	 8.295989e-01	 7.612324e-01	 1.291737e+00
1	 8.201973e-01	 7.713531e-01	 9.416756e-01
1	 8.716097e-01	 7.243901e-01	 2.850775e+00
1	 8.626705e-01	 7.350130e-01	 2.270145e+00
1	 8.535973e-01	 7.455307e-01	 1.743290e+00
1	 8.443921e-01	 7.559407e-01	 1.271779e+00
1	 8.350568e-01	 7.662406e-01	 8.573169e-01
1	 8.255933e-01	 7.764278e-01	 5.017357e-01
1	 8.773065e-01	 7.291247e-01	 2.429021e+00
1	 8.683088e-01	 7.398170e-01	 1.836509e+00
1	 8.591764e-01	 7.504035e-01	 1.299467e+00
1	 8.499110e-01	 7.608815e-01	 8.194290e-01
1	 8.405147e-01	 7.712487e-01	 3.980563e-01
1	 8.309894e-01	 7.815025e-01	 3.712919e-02
1	 8.830033e-01	 7.338593e-01	 1.982605e+00
1	 8.739472e-01	 7.446210e-01	 1.378164e+00
1	 8.647555e-01	 7.552762e-01	 8.309536e-01
1	 8.554299e-01	 7.658223e-01	 3.424687e-01
1	 8.459726e-01	 7.762568e-01	-8.568318e-02
1	 8.363854e-01	 7.865772e-01	-4.517854e-01
1	 8.094052e-01	 7.612037e-01	 1.746072e+00
1	 8.000037e-01	 7.710784e-01	 1.439445e+00
1	 7.904807e-01	 7.808382e-01	 1.140649e+00
1	 7.808382e-01	 7.904807e-01	 8.501379e-01
1	 7.710784e-01	 8.000037e-01	 5.683060e-01
1	 7.612037e-01	 8.094052e-01	 2.954848e-01
1	 8.148013e-01	 7.662784e-01	 1.356580e+00
1	 8.053371e-01	 7.762190e-01	 1.044177e+00
1	 7.957505e-01	 7.860438e-01	 7.389579e-01
1	 7.860438e-01	 7.957505e-01	 4.418529e-01
1	 7.762190e-01	 8.053371e-01	 1.537405e-01
1	 7.662784e-01	 8.148013e-01	-1.245517e-01
1	 8.201973e-01	 7.713531e-01	 9.416756e-01
1	 8.106704e-01	 7.813595e-01	 6.238676e-01
1	 8.010204e-01	 7.912493e-01	 3.127406e-01
1	 7.912493e-01	 8.010204e-01	 9.593608e-03
1	 7.813595e-01	 8.106704e-01	-2.843168e-01
1	 7.713531e-01	 8.201973e-01	-5.677776e-01
1	 8.255933e-01	 7.764278e-01	 5.017357e-01
1	 8.160038e-01	 7.865000e-01	 1.788508e-01
1	 8.062903e-01	 7.964549e-01	-1.377451e-01
1	 7.964549e-01	 8.062903e-01	-4.464866e-01
1	 7.865000e-01	 8.160038e-01	-7.458449e-01
1	 7.764278e-01	 8.255933e-01	-1.034330e+00
1	 8.309894e-01	 7.815025e-01	 3.712919e-02
1	 8.213371e-01	 7.916405e-01	-2.905480e-01
1	 8.115601e-01	 8.016605e-01	-6.122475e-01
1	 8.016605e-01	 8.115601e-01	-9.262383e-01
1	 7.916405e-01	 8.213371e-01	-1.230824e+00
1	 7.815025e-01	 8.309894e-01	-1.524342e+00
1	 8.363854e-01	 7.865772e-01	-4.517854e-01
1	 8.266705e-01	 7.967811e-01	-7.840121e-01
1	 8.168300e-01	 8.068661e-01	-1.110521e+00
1	 8.068661e-01	 8.168300e-01	-1.429516e+00
1	 7.967811e-01	 8.266705e-01	-1.739233e+00
1	 7.865772e-01	 8.363854e-01	-2.037945e+00
1	 7.612037e-01	 8.094052e-01	 2.954848e-01
1	 7.512162e-01	 8.186831e-01	 1.385972e-02
1	 7.411184e-01	 8.278354e-01	-2.968845e-01
1	 7.309125e-01	 8.368601e-01	-6.404033e-01
1	 7.206010e-01	 8.457553e-01	-1.020599e+00
1	 7.101864e-01	 8.545193e-01	-1.441607e+00
1	 7.662784e-01	 8.148013e-01	-1.245517e-01
1	 7.562243e-01	 8.241410e-01	-4.118283e-01
1	 7.460592e-01	 8.333543e-01	-7.299082e-01
1	 7.357852e-01	 8.424392e-01	-1.082726e+00
1	 7.254050e-01	 8.513937e-01	-1.474478e+00
1	 7.149210e-01	 8.602161e-01	-1.909608e+00
1	 7.713531e-01	 8.201973e-01	-5.677776e-01
1	 7.612324e-01	 8.295989e-01	-8.607514e-01
1	 7.509999e-01	 8.388732e-01	-1.186536e+00
1	 7.406580e-01	 8.480183e-01	-1.549162e+00
1	 7.302090e-01	 8.570321e-01	-1.952928e+00
1	 7.196555e-01	 8.659129e-01	-2.402386e+00
1	 7.764278e-01	 8.255933e-01	-1.034330e+00
1	 7.662406e-01	 8.350568e-01	-1.333167e+00
1	 7.559407e-01	 8.443921e-01	-1.667049e+00
1	 7.455307e-01	 8.535973e-01	-2.039922e+00
1	 7.350130e-01	 8.626705e-01	-2.456000e+00
1	 7.243901e-01	 8.716097e-01	-2.919747e+00
1	 7.815025e-01	 8.309894e-01	-1.524342e+00
1	 7.712487e-01	 8.405147e-01	-1.829326e+00
1	 7.608815e-01	 8.499110e-01	-2.171720e+00
1	 7.504035e-01	 8.591764e-01	-2.555212e+00
1	 7.398170e-01	 8.683088e-01	-2.983746e+00
1	 7.291247e-01	 8.773065e-01	-3.461506e+00
1	 7.865772e-01	 8.363854e-01	-2.037945e+00
1	 7.762568e-01	 8.459726e-01	-2.349472e+00
1	 7.658223e-01	 8.554299e-01	-2.700817e+00
1	 7.552762e-01	 8.647555e-01	-3.095234e+00
1	 7.446210e-01	 8.739472e-01	-3.536216e+00
1	 7.338593e-01	 8.830033e-01	-4.027480e+00
1	 7.101864e-01	 8.545193e-01	-1.441607e+00
1	 6.996711e-01	 8.631502e-01	-1.905830e+00
1	 6.890578e-01	 8.716462e-01	-2.414143e+00
1	 6.783491e-01	 8.800059e-01	-2.968648e+00
1	 6.675474e-01	 8.882276e-01	-3.571551e+00
1	 6.566556e-01	 8.963099e-01	-4.225153e+00
1	 7.149210e-01	 8.602161e-01	-1.909608e+00
1	 7.043356e-01	 8.689045e-01	-2.390250e+00
1	 6.936516e-01	 8.774572e-01	-2.916950e+00
1	 6.828714e-01	 8.858726e-01	-3.492038e+00
1	 6.719977e-01	 8.941492e-01	-4.117955e+00
1	 6.610333e-01	 9.022853e-01	-4.797247e+00
1	 7.196555e-01	 8.659129e-01	-2.402386e+00
1	 7.090001e-01	 8.746588e-01	-2.899293e+00
1	 6.982453e-01	 8.832682e-01	-3.444012e+00
1	 6.873937e-01	 8.917393e-01	-4.039286e+00
1	 6.764481e-01	 9.000707e-01	-4.687989e+00
1	 6.654110e-01	 9.082607e-01	-5.393112e+00
1	 7.243901e-01	 8.716097e-01	-2.919747e+00
1	 7.136646e-01	 8.804132e-01	-3.432536e+00
1	 7.028390e-01	 8.890792e-01	-3.994788e+00
1	 6.919160e-01	 8.976061e-01	-4.609841e+00
1	 6.808984e-01	 9.059922e-01	-5.281191e+00
1	 6.697887e-01	 9.142361e-01	-6.012476e+00
1	 7.291247e-01	 8.773065e-01	-3.461506e+00
1	 7.183290e-01	 8.861675e-01	-3.989570e+00
1	 7.074327e-01	 8.948901e-01	-4.568752e+00
1	 6.964384e-01	 9.034728e-01	-5.203163e+00
1	 6.853487e-01	 9.119137e-01	-5.897110e+00
1	 6.741664e-01	 9.202115e-01	-6.655073e+00
1	 7.338593e-01	 8.830033e-01	-4.027480e+00
1	 7.229935e-01	 8.919218e-01	-4.569995e+00
1	 7.120264e-01	 9.007011e-01	-5.165391e+00
1	 7.009607e-01	 9.093395e-01	-5.818730e+00
1	 6.897990e-01	 9.178352e-01	-6.535308e+00
1	 6.785441e-01	 9.261869e-01	-7.320644e+00
1	 6.566556e-01	 8.963099e-01	-4.225153e+00
1	 6.456762e-01	 9.042512e-01	-4.925652e+00
1	 6.346120e-01	 9.120501e-01	-5.668285e+00
1	 6.234658e-01	 9.197055e-01	-6.454001e+00
1	 6.122403e-01	 9.272161e-01	-7.283766e+00
1	 6.009383e-01	 9.345807e-01	-8.158563e+00
1	 6.610333e-01	 9.022853e-01	-4.797247e+00
1	 6.499807e-01	 9.102795e-01	-5.525952e+00
1	 6.388428e-01	 9.181305e-01	-6.299042e+00
1	 6.276222e-01	 9.258369e-01	-7.117557e+00
1	 6.163219e-01	 9.333976e-01	-7.982556e+00
1	 6.049445e-01	 9.408113e-01	-8.895119e+00
1	 6.654110e-01	 9.082607e-01	-5.393112e+00
1	 6.542852e-01	 9.163078e-01	-6.150618e+00
1	 6.430735e-01	 9.242108e-01	-6.955054e+00
1	 6.317787e-01	 9.319683e-01	-7.807391e+00
1	 6.204035e-01	 9.395790e-01	-8.708614e+00
1	 6.089508e-01	 9.470418e-01	-9.659725e+00
1	 6.697887e-01	 9.142361e-01	-6.012476e+00
1	 6.585897e-01	 9.223362e-01	-6.799564e+00
1	 6.473043e-01	 9.302912e-01	-7.636320e+00
1	 6.359351e-01	 9.380997e-01	-8.523490e+00
1	 6.244851e-01	 9.457604e-01	-9.461823e+00
1	 6.129570e-01	 9.532723e-01	-1.045207e+01
1	 6.741664e-01	 9.202115e-01	-6.655073e+00
1	 6.628942e-01	 9.283645e-01	-7.472705e+00
1	 6.515350e-01	 9.363715e-01	-8.342839e+00
1	 6.400916e-01	 9.442310e-01	-9.265844e+00
1	 6.285667e-01	 9.519419e-01	-1.024207e+01
1	 6.169633e-01	 9.595029e-01	-1.127184e+01
1	 6.785441e-01	 9.261869e-01	-7.320644e+00
1	 6.671987e-01	 9.343929e-01	-8.169959e+00
1	 6.557658e-01	 9.424518e-01	-9.074611e+00
1	 6.442480e-01	 9.503624e-01	-1.003444e+01
1	 6.326483e-01	 9.581233e-01	-1.104924e+01
1	 6.209695e-01	 9.657334e-01	-1.211875e+01
1	 6.009383e-01	 9.345807e-01	-8.158563e+00
1	 5.895626e-01	 9.417982e-01	-9.068754e+00
1	 5.781160e-01	 9.488676e-01	-1.000339e+01
1	 5.666014e-01	 9.557880e-01	-1.096143e+01
1	 5.550217e-01	 9.625585e-01	-1.194181e+01
1	 5.433796e-01	 9.691782e-01	-1.294336e+01
1	 6.049445e-01	 9.408113e-01	-8.895119e+00
1	 5.934930e-01	 9.480769e-01	-9.845043e+00
1	 5.819701e-01	 9.551934e-01	-1.082060e+01
1	 5.703787e-01	 9.621599e-01	-1.182055e+01
1	 5.587218e-01	 9.689756e-01	-1.284356e+01
1	 5.470022e-01	 9.756394e-01	-1.388823e+01
1	 6.089508e-01	 9.470418e-01	-9.659725e+00
1	 5.974234e-01	 9.543555e-01	-1.064979e+01
1	 5.858242e-01	 9.615192e-01	-1.166643e+01
1	 5.741561e-01	 9.685319e-01	-1.270840e+01
1	 5.624220e-01	 9.753926e-01	-1.377439e+01
1	 5.506247e-01	 9.821006e-01	-1.486302e+01
1	 6.129570e-01	 9.532723e-01	-1.045207e+01
1	 6.013538e-01	 9.606342e-01	-1.148252e+01
1	 5.896783e-01	 9.678450e-01	-1.254034e+01
1	 5.779334e-01	 9.749038e-01	-1.362454e+01
1	 5.661221e-01	 9.818097e-01	-1.473406e+01
1	 5.542472e-01	 9.885618e-01	-1.586778e+01
1	 6.169633e-01	 9.595029e-01	-1.127184e+01
1	 6.052842e-01	 9.669128e-01	-1.234274e+01
1	 5.935324e-01	 9.741708e-01	-1.344181e+01
1	 5.817108e-01	 9.812757e-01	-1.456853e+01
1	 5.698222e-01	 9.882267e-01	-1.572233e+01
1	 5.578698e-01	 9.950230e-01	-1.690258e+01
1	 6.209695e-01	 9.657334e-01	-1.211875e+01
1	 6.092146e-01	 9.731915e-01	-1.323001e+01
1	 5.973865e-01	 9.804966e-01	-1.437034e+01
1	 5.854881e-01	 9.876476e-01	-1.553994e+01
1	 5.735224e-01	 9.946438e-01	-1.673895e+01
1	 5.614923e-01	 1.001484e+00	-1.796749e+01
1	 5.433796e-01	 9.691782e-01	-1.294336e+01
1	 5.316782e-01	 9.756465e-01	-1.395421e+01
1	 5.199203e-01	 9.819627e-01	-1.496132e+01
1	 5.081087e-01	 9.881262e-01	-1.596167e+01
1	 4.962464e-01	 9.941365e-01	-1.695220e+01
1	 4.843363e-01	 9.999931e-01	-1.792977e+01
1	 5.470022e-01	 9.756394e-01	-1.388823e+01
1	 5.352227e-01	 9.821509e-01	-1.494224e+01
1	 5.233864e-01	 9.885092e-01	-1.599233e+01
1	 5.114961e-01	 9.947137e-01	-1.703566e+01
1	 4.995547e-01	 1.000764e+00	-1.806930e+01
1	 4.875652e-01	 1.006660e+00	-1.909028e+01
1	 5.506247e-01	 9.821006e-01	-1.486302e+01
1	 5.387673e-01	 9.886552e-01	-1.596170e+01
1	 5.268525e-01	 9.950556e-01	-1.705680e+01
1	 5.148835e-01	 1.001301e+00	-1.814527e+01
1	 5.028630e-01	 1.007392e+00	-1.922394e+01
1	 4.907941e-01	 1.013326e+00	-2.028962e+01
1	 5.542472e-01	 9.885618e-01	-1.586778e+01
1	 5.423118e-01	 9.951595e-01	-1.701294e+01
1	 5.303187e-01	 1.001602e+00	-1.815520e+01
1	 5.182709e-01	 1.007889e+00	-1.929091e+01
1	 5.061713e-01	 1.014019e+00	-2.041634e+01
1	 4.940230e-01	 1.019993e+00	-2.152769e+01
1	 5.578698e-01	 9.950230e-01	-1.690258e+01
1	 5.458563e-01	 1.001664e+00	-1.809631e+01
1	 5.337848e-01	 1.008148e+00	-1.928797e+01
1	 5.216583e-01	 1.014476e+00	-2.047301e+01
1	 5.094796e-01	 1.020647e+00	-2.164675e+01
1	 4.972519e-01	 1.026660e+00	-2.280441e+01
1	 5.614923e-01	 1.001484e+00	-1.796749e+01
1	 5.494008e-01	 1.008168e+00	-1.921213e+01
1	 5.372509e-01	 1.014695e+00	-2.045557e+01
1	 5.250457e-01	 1.021064e+00	-2.169199e+01
1	 5.127880e-01	 1.027274e+00	-2.291539e+01
1	 5.004808e-01	 1.033326e+00	-2.411969e+01
1	 4.843363e-01	 9.999931e-01	-1.792977e+01
1	 4.723812e-01	 1.005696e+00	-1.888150e+01
1	 4.603841e-01	 1.011244e+00	-1.979342e+01
1	 4.483478e-01	 1.016638e+00	-2.066069e+01
1	 4.362752e-01	 1.021877e+00	-2.147842e+01
1	 4.241693e-01	 1.026961e+00	-2.224169e+01
1	 4.875652e-01	 1.006660e+00	-1.909028e+01
1	 4.755304e-01	 1.012400e+00	-2.008530e+01
1	 4.634533e-01	 1.017986e+00	-2.103952e+01
1	 4.513368e-01	 1.023415e+00	-2.194752e+01
1	 4.391837e-01	 1.028689e+00	-2.280387e+01
1	 4.269970e-01	 1.033807e+00	-2.360303e+01
1	 4.907941e-01	 1.013326e+00	-2.028962e+01
1	 4.786796e-01	 1.019105e+00	-2.132827e+01
1	 4.665225e-01	 1.024727e+00	-2.232440e+01
1	 4.543258e-01	 1.030193e+00	-2.327249e+01
1	 4.420922e-01	 1.035502e+00	-2.416699e+01
1	 4.298248e-01	 1.040654e+00	-2.500226e+01
1	 4.940230e-01	 1.019993e+00	-2.152769e+01
1	 4.818288e-01	 1.025810e+00	-2.261001e+01
1	 4.695918e-01	 1.031469e+00	-2.364750e+01
1	 4.573148e-01	 1.036970e+00	-2.463500e+01
1	 4.450007e-01	 1.042314e+00	-2.556729e+01
1	 4.326526e-01	 1.047500e+00	-2.643910e+01
1	 4.972519e-01	 1.026660e+00	-2.280441e+01
1	 4.849780e-01	 1.032514e+00	-2.393010e+01
1	 4.726610e-01	 1.038210e+00	-2.500824e+01
1	 4.603037e-01	 1.043748e+00	-2.603445e+01
1	 4.479092e-01	 1.049127e+00	-2.700430e+01
1	 4.354804e-01	 1.054346e+00	-2.791330e+01
1	 5.004808e-01	 1.033326e+00	-2.411969e+01
1	 4.881272e-01	 1.039219e+00	-2.528816e+01
1	 4.757302e-01	 1.044952e+00	-2.640609e+01
1	 4.632927e-01	 1.050526e+00	-2.747029e+01
1	 4.508177e-01	 1.055939e+00	-2.847754e+01
1	 4.383082e-01	 1.061193e+00	-2.942462e+01
1	 4.241693e-01	 1.026961e+00	-2.224169e+01
1	 4.120327e-01	 1.031890e+00	-2.294171e+01
1	 3.998684e-01	 1.036664e+00	-2.356672e+01
1	 3.876793e-01	 1.041284e+00	-2.410719e+01
1	 3.754680e-01	 1.045749e+00	-2.455357e+01
1	 3.632375e-01	 1.050060e+00	-2.489633e+01
1	 4.269970e-01	 1.033807e+00	-2.360303e+01
1	 4.147796e-01	 1.038769e+00	-2.433517e+01
1	 4.025342e-01	 1.043576e+00	-2.498770e+01
1	 3.902638e-01	 1.048226e+00	-2.555100e+01
1	 3.779711e-01	 1.052721e+00	-2.601539e+01
1	 3.656591e-01	 1.057061e+00	-2.637122e+01
1	 4.298248e-01	 1.040654e+00	-2.500226e+01
1	 4.175265e-01	 1.045649e+00	-2.576773e+01
1	 4.052000e-01	 1.050487e+00	-2.644992e+01
1	 3.928483e-01	 1.055168e+00	-2.703879e+01
1	 3.804743e-01	 1.059693e+00	-2.752431e+01
1	 3.680807e-01	 1.064061e+00	-2.789640e+01
1	 4.326526e-01	 1.047500e+00	-2.643910e+01
1	 4.202734e-01	 1.052528e+00	-2.723939e+01
1	 4.078658e-01	 1.057398e+00	-2.795358e+01
1	 3.954329e-01	 1.062110e+00	-2.857096e+01
1	 3.829774e-01	 1.066664e+00	-2.908082e+01
1	 3.705022e-01	 1.071061e+00	-2.947246e+01
1	 4.354804e-01	 1.054346e+00	-2.791330e+01
1	 4.230202e-01	 1.059407e+00	-2.875017e+01
1	 4.105316e-01	 1.064309e+00	-2.949889e+01
1	 3.980174e-01	 1.069052e+00	-3.014786e+01
1	 3.854805e-01	 1.073636e+00	-3.068543e+01
1	 3.729238e-01	 1.078062e+00	-3.109996e+01
1	 4.383082e-01	 1.061193e+00	-2.942462e+01
1	 4.257671e-01	 1.066286e+00	-3.030006e+01
1	 4.131974e-01	 1.071220e+00	-3.108607e+01
1	 4.006019e-01	 1.075994e+00	-3.176986e+01
1	 3.879836e-01	 1.080608e+00	-3.233859e+01
1	 3.753454e-01	 1.085062e+00	-3.277945e+01
1	 3.632375e-01	 1.050060e+00	-2.489633e+01
1	 3.509904e-01	 1.054217e+00	-2.514348e+01
1	 3.387296e-01	 1.058220e+00	-2.530754e+01
1	 3.264577e-01	 1.062070e+00	-2.538581e+01
1	 3.141775e-01	 1.065768e+00	-2.537569e+01
1	 3.018915e-01	 1.069313e+00	-2.527465e+01
1	 3.656591e-01	 1.057061e+00	-2.637122e+01
1	 3.533304e-01	 1.061245e+00	-2.662716e+01
1	 3.409878e-01	 1.065275e+00	-2.679622e+01
1	 3.286341e-01	 1.069151e+00	-2.687532e+01
1	 3.162720e-01	 1.072873e+00	-2.686150e+01
1	 3.039042e-01	 1.076441e+00	-2.675190e+01
1	 3.680807e-01	 1.064061e+00	-2.789640e+01
1	 3.556703e-01	 1.068273e+00	-2.816410e+01
1	 3.432460e-01	 1.072330e+00	-2.834056e+01
1	 3.308105e-01	 1.076231e+00	-2.842195e+01
1	 3.183665e-01	 1.079978e+00	-2.840460e+01
1	 3.059168e-01	 1.083570e+00	-2.828492e+01
1	 3.705022e-01	 1.071061e+00	-2.947246e+01
1	 3.580102e-01	 1.075301e+00	-2.975491e+01
1	 3.455042e-01	 1.079385e+00	-2.994106e+01
1	 3.329869e-01	 1.083312e+00	-3.002603e+01
1	 3.204610e-01	 1.087083e+00	-3.000502e+01
1	 3.079294e-01	 1.090699e+00	-2.987336e+01
1	 3.729238e-01	 1.078062e+00	-3.109996e+01
1	 3.603502e-01	 1.082330e+00	-3.140016e+01
1	 3.477624e-01	 1.086439e+00	-3.159822e+01
1	 3.351632e-01	 1.090392e+00	-3.168783e+01
1	 3.225555e-01	 1.094188e+00	-3.166275e+01
1	 3.099420e-01	 1.097828e+00	-3.151686e+01
1	 3.753454e-01	 1.085062e+00	-3.277945e+01
1	 3.626901e-01	 1.089358e+00	-3.310041e+01
1	 3.500206e-01	 1.093494e+00	-3.331251e+01
1	 3.373396e-01	 1.097473e+00	-3.340766e+01
1	 3.246501e-01	 1.101293e+00	-3.337781e+01
1	 3.119546e-01	 1.104956e+00	-3.321508e+01
1	 3.018915e-01	 1.069313e+00	-2.527465e+01
1	 2.896026e-01	 1.072706e+00	-2.508740e+01
1	 2.773132e-01	 1.075949e+00	-2.482348e+01
1	 2.650260e-01	 1.079041e+00	-2.448779e+01
1	 2.527434e-01	 1.081984e+00	-2.408531e+01
1	 2.404681e-01	 1.084778e+00	-2.362111e+01
1	 3.039042e-01	 1.076441e+00	-2.675190e+01
1	 2.915333e-01	 1.079857e+00	-2.655158e+01
1	 2.791619e-01	 1.083122e+00	-2.627059e+01
1	 2.667928e-01	 1.086234e+00	-2.591374e+01
1	 2.544284e-01	 1.089197e+00	-2.548592e+01
1	 2.420712e-01	 1.092010e+00	-2.499211e+01
1	 3.059168e-01	 1.083570e+00	-2.828492e+01
1	 2.934640e-01	 1.087009e+00	-2.806812e+01
1	 2.810107e-01	 1.090295e+00	-2.776518e+01
1	 2.685596e-01	 1.093428e+00	-2.738132e+01
1	 2.561133e-01	 1.096410e+00	-2.692187e+01
1	 2.436743e-01	 1.099242e+00	-2.639223e+01
1	 3.079294e-01	 1.090699e+00	-2.987336e+01
1	 2.953946e-01	 1.094160e+00	-2.963633e+01
1	 2.828595e-01	 1.097468e+00	-2.930632e+01
1	 2.703265e-01	 1.100622e+00	-2.888947e+01
1	 2.577983e-01	 1.103623e+00	-2.839205e+01
1	 2.452774e-01	 1.106473e+00	-2.782040e+01
1	 3.099420e-01	 1.097828e+00	-3.151686e+01
1	 2.973253e-01	 1.101312e+00	-3.125551e+01
1	 2.847082e-01	 1.104641e+00	-3.089307e+01
1	 2.720933e-01	 1.107815e+00	-3.043712e+01
1	 2.594832e-01	 1.110837e+00	-2.989536e+01
1	 2.468805e-01	 1.113705e+00	-2.927558e+01
1	 3.119546e-01	 1.104956e+00	-3.321508e+01
1	 2.992560e-01	 1.108463e+00	-3.292498e+01
1	 2.865570e-01	 1.111814e+00	-3.252454e+01
1	 2.738601e-01	 1.115009e+00	-3.202326e+01
1	 2.611682e-01	 1.118050e+00	-3.143075e+01
1	 2.484837e-01	 1.120937e+00	-3.075677e+01
1	 2.404681e-01	 1.084778e+00	-2.362111e+01
1	 2.282024e-01	 1.087424e+00	-2.310389e+01
1	 2.159489e-01	 1.089924e+00	-2.254415e+01
1	 2.037099e-01	 1.092278e+00	-2.194970e+01
1	 1.914878e-01	 1.094486e+00	-2.132833e+01
1	 1.792849e-01	 1.096551e+00	-2.068784e+01
1	 2.420712e-01	 1.092010e+00	-2.499211e+01
1	 2.297238e-01	 1.094674e+00	-2.444114e+01
1	 2.173886e-01	 1.097190e+00	-2.384409e+01
1	 2.050680e-01	 1.099559e+00	-2.320934e+01
1	 1.927644e-01	 1.101783e+00	-2.254525e+01
1	 1.804802e-01	 1.103862e+00	-2.186017e+01
1	 2.436743e-01	 1.099242e+00	-2.639223e+01
1	 2.312451e-01	 1.101923e+00	-2.580182e+01
1	 2.188282e-01	 1.104456e+00	-2.516240e+01
1	 2.064260e-01	 1.106841e+00	-2.448293e+01
1	 1.940410e-01	 1.109079e+00	-2.377232e+01
1	 1.816754e-01	 1.111172e+00	-2.303948e+01
1	 2.452774e-01	 1.106473e+00	-2.782040e+01
1	 2.327665e-01	 1.109173e+00	-2.718495e+01
1	 2.202679e-01	 1.111722e+00	-2.649821e+01
1	 2.077841e-01	 1.114123e+00	-2.576970e+01
1	 1.953176e-01	 1.116376e+00	-2.500890e+01
1	 1.828706e-01	 1.118482e+00	-2.422527e+01
1	 2.468805e-01	 1.113705e+00	-2.927558e+01
1	 2.342878e-01	 1.116422e+00	-2.858959e+01
1	 2.217075e-01	 1.118988e+00	-2.785067e+01
1	 2.091422e-01	 1.121405e+00	-2.706891e+01
1	 1.965942e-01	 1.123673e+00	-2.625436e+01
1	 1.840659e-01	 1.125793e+00	-2.541704e+01
1	 2.484837e-01	 1.120937e+00	-3.075677e+01
1	 2.358092e-01	 1.123672e+00	-3.001480e+01
1	 2.231472e-01	 1.126255e+00	-2.921895e+01
1	 2.105002e-01	 1.128687e+00	-2.837984e+01
1	 1.978707e-01	 1.130969e+00	-2.750811e+01
1	 1.852611e-01	 1.133103e+00	-2.661431e+01
1	 1.792849e-01	 1.096551e+00	-2.068784e+01
1	 1.671036e-01	 1.098474e+00	-2.003814e+01
1	 1.549460e-01	 1.100254e+00	-1.939096e+01
1	 1.428143e-01	 1.101895e+00	-1.875659e+01
1	 1.307107e-01	 1.103396e+00	-1.814520e+01
1	 1.186374e-01	 1.104759e+00	-1.756684e+01
1	 1.804802e-01	 1.103862e+00	-2.186017e+01
1	 1.682176e-01	 1.105797e+00	-2.116484e+01
1	 1.559789e-01	 1.107589e+00	-2.047186e+01
1	 1.437664e-01	 1.109241e+00	-1.979223e+01
1	 1.315821e-01	 1.110752e+00	-1.913682e+01
1	 1.194283e-01	 1.112124e+00	-1.851635e+01
1	 1.816754e-01	 1.111172e+00	-2.303948e+01
1	 1.693316e-01	 1.113120e+00	-2.229598e+01
1	 1.570119e-01	 1.114924e+00	-2.155529e+01
1	 1.447185e-01	 1.116587e+00	-2.082900e+01
1	 1.324535e-01	 1.118108e+00	-2.012859e+01
1	 1.202192e-01	 1.119489e+00	-1.946537e+01
1	 1.828706e-01	 1.118482e+00	-2.422527e+01
1	 1.704456e-01	 1.120443e+00	-2.343121e+01
1	 1.580449e-01	 1.122259e+00	-2.264097e+01
1	 1.456706e-01	 1.123933e+00	-2.186669e+01
1	 1.333250e-01	 1.125464e+00	-2.112034e+01
1	 1.210102e-01	 1.126854e+00	-2.041376e+01
1	 1.840659e-01	 1.125793e+00	-2.541704e+01
1	 1.715597e-01	 1.127766e+00	-2.457013e+01
1	 1.590778e-01	 1.129594e+00	-2.372862e+01
1	 1.466227e-01	 1.131279e+00	-2.290508e+01
1	 1.341964e-01	 1.132820e+00	-2.211191e+01
1	 1.218011e-01	 1.134220e+00	-2.136137e+01
1	 1.852611e-01	 1.133103e+00	-2.661431e+01
1	 1.726737e-01	 1.135089e+00	-2.571239e+01
1	 1.601108e-01	 1.136930e+00	-2.481797e+01
1	 1.475748e-01	 1.138625e+00	-2.394396e+01
1	 1.350678e-01	 1.140176e+00	-2.310313e+01
1	 1.225920e-01	 1.141585e+00	-2.230807e+01
1	 1.186374e-01	 1.104759e+00	-1.756684e+01
1	 1.065964e-01	 1.105986e+00	-1.703152e+01
1	 9.458968e-02	 1.107078e+00	-1.654862e+01
1	 8.261929e-02	 1.108035e+00	-1.612693e+01
1	 7.068714e-02	 1.108860e+00	-1.577507e+01
1	 5.879512e-02	 1.109554e+00	-1.550141e+01
1	 1.194283e-01	 1.112124e+00	-1.851635e+01
1	 1.073070e-01	 1.113359e+00	-1.794146e+01
1	 9.522028e-02	 1.114458e+00	-1.742200e+01
1	 8.317009e-02	 1.115422e+00	-1.696726e+01
1	 7.115839e-02	 1.116253e+00	-1.658630e+01
1	 5.918709e-02	 1.116951e+00	-1.628799e+01
1	 1.202192e-01	 1.119489e+00	-1.946537e+01
1	 1.080177e-01	 1.120733e+00	-1.885049e+01
1	 9.585088e-02	 1.121839e+00	-1.829421e+01
1	 8.372088e-02	 1.122809e+00	-1.780620e+01
1	 7.162963e-02	 1.123645e+00	-1.739595e+01
1	 5.957906e-02	 1.124348e+00	-1.707270e+01
1	 1.210102e-01	 1.126854e+00	-2.041376e+01
1	 1.087283e-01	 1.128106e+00	-1.975849e+01
1	 9.648148e-02	 1.129219e+00	-1.916512e+01
1	 8.427168e-02	 1.130196e+00	-1.864366e+01
1	 7.210088e-02	 1.131038e+00	-1.820393e+01
1	 5.997103e-02	 1.131746e+00	-1.785548e+01
1	 1.218011e-01	 1.134220e+00	-2.136137e+01
1	 1.094390e-01	 1.135479e+00	-2.066534e+01
1	 9.711208e-02	 1.136600e+00	-2.003464e+01
1	 8.482247e-02	 1.137583e+00	-1.947956e+01
1	 7.257213e-02	 1.138430e+00	-1.901018e+01
1	 6.036299e-02	 1.139143e+00	-1.863630e+01
1	 1.225920e-01	 1.141585e+00	-2.230807e+01
1	 1.101496e-01	 1.142852e+00	-2.157092e+01
1	 9.774267e-02	 1.143980e+00	-2.090265e+01
1	 8.537327e-02	 1.144970e+00	-2.031380e+01
1	 7.304338e-02	 1.145822e+00	-1.981460e+01
1	 6.075496e-02	 1.146540e+00	-1.941508e+01
1	 5.879512e-02	 1.109554e+00	-1.550141e+01
1	 4.694509e-02	 1.110119e+00	-1.531446e+01
1	 3.513883e-02	 1.110555e+00	-1.522144e+01
1	 2.337810e-02	 1.110865e+00	-1.522849e+01
1	 1.166460e-02	 1.111050e+00	-1.534155e+01
1	 0.000000e+00	 1.111111e+00	-1.556633e+01
1	 5.918709e-02	 1.116951e+00	-1.628799e+01
1	 4.725806e-02	 1.117520e+00	-1.608130e+01
1	 3.537309e-02	 1.117959e+00	-1.597389e+01
1	 2.353395e-02	 1.118271e+00	-1.597227e+01
1	 1.174237e-02	 1.118457e+00	-1.608270e+01
1	 0.000000e+00	 1.118519e+00	-1.631121e+01
1	 5.957906e-02	 1.124348e+00	-1.707270e+01
1	 4.757102e-02	 1.124921e+00	-1.684587e+01
1	 3.560735e-02	 1.125363e+00	-1.672356e+01
1	 2.368981e-02	 1.125677e+00	-1.671260e+01
1	 1.182013e-02	 1.125864e+00	-1.681958e+01
1	 0.000000e+00	 1.125926e+00	-1.705087e+01
1	 5.997103e-02	 1.131746e+00	-1.785548e+01
1	 4.788399e-02	 1.132321e+00	-1.760814e+01
1	 3.584161e-02	 1.132766e+00	-1.747040e+01
1	 2.384566e-02	 1.133082e+00	-1.744945e+01
1	 1.189790e-02	 1.133271e+00	-1.755219e+01
1	 0.000000e+00	 1.133333e+00	-1.778529e+01
1	 6.036299e-02	 1.139143e+00	-1.863630e+01
1	 4.819696e-02	 1.139722e+00	-1.836808e+01
1	 3.607587e-02	 1.140170e+00	-1.821441e+01
1	 2.400152e-02	 1.140488e+00	-1.818281e+01
1	 1.197566e-02	 1.140678e+00	-1.828051e+01
1	 0.000000e+00	 1.140741e+00	-1.851449e+01
1	 6.075496e-02	 1.146540e+00	-1.941508e+01
1	 4.850992e-02	 1.147123e+00	-1.912564e+01
1	 3.631012e-02	 1.147574e+00	-1.895555e+01
1	 2.415737e-02	 1.147894e+00	-1.891267e+01
1	 1.205342e-02	 1.148085e+00	-1.900455e+01
1	 0.000000e+00	 1.148148e+00	-1.923845e+01
1	 1.148148e+00	 0.000000e+00	 2.499330e+01
1	 1.148085e+00	 1.205342e-02	 2.480015e+01
1	 1.147894e+00	 2.415737e-02	 2.463447e+01
1	 1.147574e+00	 3.631012e-02	 2.449457e+01
1	 1.147123e+00	 4.850992e-02	 2.437871e+01
1	 1.146540e+00	 6.075496e-02	 2.428518e+01
1	 1.155556e+00	 0.000000e+00	 2.475033e+01
1	 1.155492e+00	 1.213119e-02	 2.455023e+01
1	 1.155300e+00	 2.431322e-02	 2.437934e+01
1	 1.154978e+00	 3.654438e-02	 2.423587e+01
1	 1.154524e+00	 4.882289e-02	 2.411805e+01
1	 1.153937e+00	 6.114693e-02	 2.402407e+01
1	 1.162963e+00	 0.000000e+00	 2.451242e+01
1	 1.162899e+00	 1.220895e-02	 2.430532e+01
1	 1.162706e+00	 2.446908e-02	 2.412907e+01
1	 1.162381e+00	 3.677864e-02	 2.398184e+01
1	 1.161924e+00	 4.913586e-02	 2.386178e+01
1	 1.161334e+00	 6.153890e-02	 2.376704e+01
1	 1.170370e+00	 0.000000e+00	 2.427926e+01
1	 1.170306e+00	 1.228672e-02	 2.406510e+01
1	 1.170111e+00	 2.462493e-02	 2.388336e+01
1	 1.169785e+00	 3.701290e-02	 2.373217e+01
1	 1.169325e+00	 4.944883e-02	 2.360963e+01
1	 1.168731e+00	 6.193086e-02	 2.351382e+01
1	 1.177778e+00	 0.000000e+00	 2.405054e+01
1	 1.177713e+00	 1.236448e-02	 2.382926e+01
1	 1.177517e+00	 2.478079e-02	 2.364191e+01
1	 1.177189e+00	 3.724716e-02	 2.348658e+01
1	 1.176726e+00	 4.976179e-02	 2.336131e+01
1	 1.176128e+00	 6.232283e-02	 2.326413e+01
1	 1.185185e+00	 0.000000e+00	 2.382596e+01
1	 1.185120e+00	 1.244224e-02	 2.359750e+01
1	 1.184923e+00	 2.493664e-02	 2.340442e+01
1	 1.184592e+00	 3.748142e-02	 2.324477e+01
1	 1.184127e+00	 5.007476e-02	 2.311654e+01
1	 1.183525e+00	 6.271480e-02	 2.301772e+01
1	 1.146540e+00	 6.075496e-02	 2.428518e+01
1	 1.145822e+00	 7.304338e-02	 2.421310e+01
1	 1.144970e+00	 8.537327e-02	 2.416147e+01
1	 1.143980e+00	 9.774267e-02	 2.412830e+01
1	 1.142852e+00	 1.101496e-01	 2.411162e+01
1	 1.141585e+00	 1.225920e-01	 2.410945e+01
1	 1.153937e+00	 6.114693e-02	 2.402407e+01
1	 1.153215e+00	 7.351463e-02	 2.395305e+01
1	 1.152357e+00	 8.592406e-02	 2.390393e+01
1	 1.151361e+00	 9.837327e-02	 2.387468e+01
1	 1.150225e+00	 1.108602e-01	 2.386326e+01
1	 1.148950e+00	 1.233829e-01	 2.386763e+01
1	 1.161334e+00	 6.153890e-02	 2.376704e+01
1	 1.160607e+00	 7.398587e-02	 2.369669e+01
1	 1.159743e+00	 8.647486e-02	 2.364966e+01
1	 1.158741e+00	 9.900387e-02	 2.362384e+01
1	 1.157599e+00	 1.115709e-01	 2.361713e+01
1	 1.156315e+00	 1.241738e-01	 2.362744e+01
1	 1.168731e+00	 6.193086e-02	 2.351382e+01
1	 1.168000e+00	 7.445712e-02	 2.344378e+01
1	 1.167130e+00	 8.702565e-02	 2.339842e+01
1	 1.166122e+00	 9.963447e-02	 2.337556e+01
1	 1.164972e+00	 1.122815e-01	 2.337305e+01
1	 1.163680e+00	 1.249647e-01	 2.338871e+01
1	 1.176128e+00	 6.232283e-02	 2.326413e+01
1	 1.175392e+00	 7.492837e-02	 2.319406e+01
1	 1.174517e+00	 8.757645e-02	 2.314997e+01
1	 1.173502e+00	 1.002651e-01	 2.312963e+01
1	 1.172345e+00	 1.129922e-01	 2.313080e+01
1	 1.171045e+00	 1.257557e-01	 2.315125e+01
1	 1.183525e+00	 6.271480e-02	 2.301772e+01
1	 1.182784e+00	 7.539962e-02	 2.294729e+01
1	 1.181904e+00	 8.812724e-02	 2.290410e+01
1	 1.180883e+00	 1.008957e-01	 2.288584e+01
1	 1.179718e+00	 1.137028e-01	 2.289021e+01
1	 1.178410e+00	 1.265466e-01	 2.291491e+01
1	 1.141585e+00	 1.225920e-01	 2.410945e+01
1	 1.140176e+00	 1.350678e-01	 2.412041e+01
1	 1.138625e+00	 1.475748e-01	 2.414302e+01
1	 1.136930e+00	 1.601108e-01	 2.417517e+01
1	 1.135089e+00	 1.726737e-01	 2.421482e+01
1	 1.133103e+00	 1.852611e-01	 2.425996e+01
1	 1.148950e+00	 1.233829e-01	 2.386763e+01
1	 1.147532e+00	 1.359392e-01	 2.388649e+01
1	 1.145971e+00	 1.485269e-01	 2.391841e+01
1	 1.144265e+00	 1.611438e-01	 2.396123e+01
1	 1.142413e+00	 1.737877e-01	 2.401284e+01
1	 1.140413e+00	 1.864563e-01	 2.407118e+01
1	 1.156315e+00	 1.241738e-01	 2.362744e+01
1	 1.154888e+00	 1.368106e-01	 2.365352e+01
1	 1.153316e+00	 1.494790e-01	 2.369402e+01
1	 1.151600e+00	 1.621768e-01	 2.374674e+01
1	 1.149736e+00	 1.749017e-01	 2.380951e+01
1	 1.147724e+00	 1.876516e-01	 2.388020e+01
1	 1.163680e+00	 1.249647e-01	 2.338871e+01
1	 1.162244e+00	 1.376820e-01	 2.342136e+01
1	 1.160662e+00	 1.504311e-01	 2.346975e+01
1	 1.158935e+00	 1.632097e-01	 2.353162e+01
1	 1.157059e+00	 1.760158e-01	 2.360475e+01
1	 1.155034e+00	 1.888468e-01	 2.368699e+01
1	 1.171045e+00	 1.257557e-01	 2.315125e+01
1	 1.169600e+00	 1.385534e-01	 2.318986e+01
1	 1.168008e+00	 1.513831e-01	 2.324546e+01
1	 1.166270e+00	 1.642427e-01	 2.331577e+01
1	 1.164382e+00	 1.771298e-01	 2.339852e+01
1	 1.162344e+00	 1.900420e-01	 2.349152e+01
1	 1.178410e+00	 1.265466e-01	 2.291491e+01
1	 1.176956e+00	 1.394248e-01	 2.295888e+01
1	 1.175354e+00	 1.523352e-01	 2.302105e+01
1	 1.173605e+00	 1.652757e-01	 2.309910e+01
1	 1.171705e+00	 1.782438e-01	 2.319075e+01
1	 1.169655e+00	 1.912373e-01	 2.329378e+01
1	 1.133103e+00	 1.852611e-01	 2.425996e+01
1	 1.130969e+00	 1.978707e-01	 2.430701e+01
1	 1.128687e+00	 2.105002e-01	 2.435272e+01
1	 1.126255e+00	 2.231472e-01	 2.439565e+01
1	 1.123672e+00	 2.358092e-01	 2.443443e+01
1	 1.120937e+00	 2.484837e-01	 2.446774e+01
1	 1.140413e+00	 1.864563e-01	 2.407118e+01
1	 1.138266e+00	 1.991473e-01	 2.413242e+01
1	 1.135969e+00	 2.118583e-01	 2.419301e+01
1	 1.133521e+00	 2.245868e-01	 2.425139e+01
1	 1.130921e+00	 2.373305e-01	 2.430606e+01
1	 1.128169e+00	 2.500868e-01	 2.435557e+01
1	 1.147724e+00	 1.876516e-01	 2.388020e+01
1	 1.145562e+00	 2.004239e-01	 2.395477e+01
1	 1.143250e+00	 2.132164e-01	 2.402944e+01
1	 1.140787e+00	 2.260265e-01	 2.410252e+01
1	 1.138171e+00	 2.388519e-01	 2.417240e+01
1	 1.135401e+00	 2.516899e-01	 2.423751e+01
1	 1.155034e+00	 1.888468e-01	 2.368699e+01
1	 1.152859e+00	 2.017005e-01	 2.377409e+01
1	 1.150532e+00	 2.145744e-01	 2.386205e+01
1	 1.148053e+00	 2.274662e-01	 2.394909e+01
1	 1.145420e+00	 2.403732e-01	 2.403348e+01
1	 1.142633e+00	 2.532930e-01	 2.411356e+01
1	 1.162344e+00	 1.900420e-01	 2.349152e+01
1	 1.160156e+00	 2.029771e-01	 2.359037e+01
1	 1.157814e+00	 2.159325e-01	 2.369086e+01
1	 1.155319e+00	 2.289058e-01	 2.379111e+01
1	 1.152670e+00	 2.418946e-01	 2.388931e+01
1	 1.149865e+00	 2.548962e-01	 2.398372e+01
1	 1.169655e+00	 1.912373e-01	 2.329378e+01
1	 1.167452e+00	 2.042537e-01	 2.340362e+01
1	 1.165096e+00	 2.172906e-01	 2.351588e+01
1	 1.162585e+00	 2.303455e-01	 2.362860e+01
1	 1.159919e+00	 2.434159e-01	 2.373991e+01
1	 1.157096e+00	 2.564993e-01	 2.384797e+01
1	 1.120937e+00	 2.484837e-01	 2.446774e+01
1	 1.118050e+00	 2.611682e-01	 2.449222e+01
1	 1.115009e+00	 2.738601e-01	 2.450504e+01
1	 1.111814e+00	 2.865570e-01	 2.450582e+01
1	 1.108463e+00	 2.992560e-01	 2.449429e+01
1	 1.104956e+00	 3.119546e-01	 2.447037e+01
1	 1.128169e+00	 2.500868e-01	 2.435557e+01
1	 1.125263e+00	 2.628531e-01	 2.439681e+01
1	 1.122202e+00	 2.756270e-01	 2.442710e+01
1	 1.118986e+00	 2.884057e-01	 2.444582e+01
1	 1.115614e+00	 3.011867e-01	 2.445252e+01
1	 1.112085e+00	 3.139672e-01	 2.444690e+01
1	 1.135401e+00	 2.516899e-01	 2.423751e+01
1	 1.132476e+00	 2.645381e-01	 2.429508e+01
1	 1.129396e+00	 2.773938e-01	 2.434272e+01
1	 1.126159e+00	 2.902545e-01	 2.437964e+01
1	 1.122766e+00	 3.031174e-01	 2.440522e+01
1	 1.119214e+00	 3.159798e-01	 2.441903e+01
1	 1.142633e+00	 2.532930e-01	 2.411356e+01
1	 1.139689e+00	 2.662231e-01	 2.418696e+01
1	 1.136590e+00	 2.791607e-01	 2.425168e+01
1	 1.133332e+00	 2.921032e-01	 2.430679e+01
1	 1.129917e+00	 3.050481e-01	 2.435156e+01
1	 1.126343e+00	 3.179924e-01	 2.438545e+01
1	 1.149865e+00	 2.548962e-01	 2.398372e+01
1	 1.146903e+00	 2.679080e-01	 2.407237e+01
1	 1.143783e+00	 2.809275e-01	 2.415371e+01
1	 1.140505e+00	 2.939520e-01	 2.422676e+01
1	 1.137068e+00	 3.069787e-01	 2.429070e+01
1	 1.133471e+00	 3.200050e-01	 2.434491e+01
1	 1.157096e+00	 2.564993e-01	 2.384797e+01
1	 1.154116e+00	 2.695930e-01	 2.395123e+01
1	 1.150977e+00	 2.826943e-01	 2.404861e+01
1	 1.147678e+00	 2.958007e-01	 2.413908e+01
1	 1.144220e+00	 3.089094e-01	 2.422181e+01
1	 1.140600e+00	 3.220177e-01	 2.429615e+01
1	 1.104956e+00	 3.119546e-01	 2.447037e+01
1	 1.101293e+00	 3.246501e-01	 2.442824e+01
1	 1.097473e+00	 3.373396e-01	 2.436301e+01
1	 1.093494e+00	 3.500206e-01	 2.427598e+01
1	 1.089358e+00	 3.626901e-01	 2.416837e+01
1	 1.085062e+00	 3.753454e-01	 2.404127e+01
1	 1.112085e+00	 3.139672e-01	 2.444690e+01
1	 1.108398e+00	 3.267446e-01	 2.442128e+01
1	 1.104553e+00	 3.395160e-01	 2.436912e+01
1	 1.100549e+00	 3.522788e-01	 2.429186e+01
1	 1.096386e+00	 3.650300e-01	 2.419084e+01
1	 1.092063e+00	 3.777670e-01	 2.406728e+01
1	 1.119214e+00	 3.159798e-01	 2.441903e+01
1	 1.115503e+00	 3.288391e-01	 2.441128e+01
1	 1.111634e+00	 3.416924e-01	 2.437348e+01
1	 1.107604e+00	 3.545370e-01	 2.430712e+01
1	 1.103414e+00	 3.673700e-01	 2.421358e+01
1	 1.099063e+00	 3.801886e-01	 2.409409e+01
1	 1.126343e+00	 3.179924e-01	 2.438545e+01
1	 1.122608e+00	 3.309336e-01	 2.439652e+01
1	 1.118714e+00	 3.438688e-01	 2.437411e+01
1	 1.114659e+00	 3.567952e-01	 2.431967e+01
1	 1.110442e+00	 3.697099e-01	 2.423451e+01
1	 1.106063e+00	 3.826102e-01	 2.411983e+01
1	 1.133471e+00	 3.200050e-01	 2.434491e+01
1	 1.129714e+00	 3.330281e-01	 2.437531e+01
1	 1.125794e+00	 3.460452e-01	 2.436905e+01
1	 1.121713e+00	 3.590534e-01	 2.432743e+01
1	 1.117470e+00	 3.720499e-01	 2.425163e+01
1	 1.113064e+00	 3.850317e-01	 2.414270e+01
1	 1.140600e+00	 3.220177e-01	 2.429615e+01
1	 1.136819e+00	 3.351226e-01	 2.434601e+01
1	 1.132875e+00	 3.482216e-01	 2.435643e+01
1	 1.128768e+00	 3.613116e-01	 2.432843e+01
1	 1.124498e+00	 3.743898e-01	 2.426297e+01
1	 1.120064e+00	 3.874533e-01	 2.416091e+01
1	 1.085062e+00	 3.753454e-01	 2.404127e+01
1	 1.080608e+00	 3.879836e-01	 2.386708e+01
1	 1.075994e+00	 4.006019e-01	 2.361871e+01
1	 1.071220e+00	 4.131974e-01	 2.329785e+01
1	 1.066286e+00	 4.257671e-01	 2.290608e+01
1	 1.061193e+00	 4.383082e-01	 2.244485e+01
1	 1.092063e+00	 3.777670e-01	 2.406728e+01
1	 1.087579e+00	 3.904867e-01	 2.389354e+01
1	 1.082936e+00	 4.031864e-01	 2.364263e+01
1	 1.078131e+00	 4.158632e-01	 2.331649e+01
1	 1.073166e+00	 4.285140e-01	 2.291697e+01
1	 1.068039e+00	 4.411360e-01	 2.244579e+01
1	 1.099063e+00	 3.801886e-01	 2.409409e+01
1	 1.094551e+00	 3.929899e-01	 2.392106e+01
1	 1.089877e+00	 4.057710e-01	 2.366767e+01
1	 1.085042e+00	 4.185290e-01	 2.333612e+01
1	 1.080045e+00	 4.312609e-01	 2.292849e+01
1	 1.074886e+00	 4.439638e-01	 2.244678e+01
1	 1.106063e+00	 3.826102e-01	 2.411983e+01
1	 1.101523e+00	 3.954930e-01	 2.394807e+01
1	 1.096819e+00	 4.083555e-01	 2.369261e+01
1	 1.091953e+00	 4.211947e-01	 2.335588e+01
1	 1.086924e+00	 4.340078e-01	 2.294021e+01
1	 1.081732e+00	 4.467916e-01	 2.244783e+01
1	 1.113064e+00	 3.850317e-01	 2.414270e+01
1	 1.108494e+00	 3.979961e-01	 2.397305e+01
1	 1.103761e+00	 4.109400e-01	 2.371626e+01
1	 1.098864e+00	 4.238605e-01	 2.337496e+01
1	 1.093803e+00	 4.367547e-01	 2.295171e+01
1	 1.088578e+00	 4.496194e-01	 2.244895e+01
1	 1.120064e+00	 3.874533e-01	 2.416091e+01
1	 1.115466e+00	 4.004992e-01	 2.399452e+01
1	 1.110703e+00	 4.135246e-01	 2.373746e+01
1	 1.105775e+00	 4.265263e-01	 2.339255e+01
1	 1.100683e+00	 4.395015e-01	 2.296256e+01
1	 1.095425e+00	 4.524472e-01	 2.245017e+01
1	 1.061193e+00	 4.383082e-01	 2.244485e+01
1	 1.055939e+00	 4.508177e-01	 2.192219e+01
1	 1.050526e+00	 4.632927e-01	 2.134563e+01
1	 1.044952e+00	 4.757302e-01	 2.071583e+01
1	 1.039219e+00	 4.881272e-01	 2.003344e+01
1	 1.033326e+00	 5.004808e-01	 1.929907e+01
1	 1.068039e+00	 4.411360e-01	 2.244579e+01
1	 1.062752e+00	 4.537262e-01	 2.191203e+01
1	 1.057303e+00	 4.662817e-01	 2.132402e+01
1	 1.051694e+00	 4.787995e-01	 2.068226e+01
1	 1.045924e+00	 4.912765e-01	 1.998728e+01
1	 1.039993e+00	 5.037097e-01	 1.923959e+01
1	 1.074886e+00	 4.439638e-01	 2.244678e+01
1	 1.069564e+00	 4.566347e-01	 2.190112e+01
1	 1.064081e+00	 4.692707e-01	 2.130073e+01
1	 1.058435e+00	 4.818687e-01	 2.064612e+01
1	 1.052628e+00	 4.944257e-01	 1.993776e+01
1	 1.046659e+00	 5.069386e-01	 1.917615e+01
1	 1.081732e+00	 4.467916e-01	 2.244783e+01
1	 1.076377e+00	 4.595433e-01	 2.188986e+01
1	 1.070858e+00	 4.722597e-01	 2.127640e+01
1	 1.065177e+00	 4.849379e-01	 2.060805e+01
1	 1.059333e+00	 4.975749e-01	 1.988538e+01
1	 1.053326e+00	 5.101675e-01	 1.910891e+01
1	 1.088578e+00	 4.496194e-01	 2.244895e+01
1	 1.083189e+00	 4.624518e-01	 2.187862e+01
1	 1.077636e+00	 4.752487e-01	 2.125160e+01
1	 1.071919e+00	 4.880071e-01	 2.056869e+01
1	 1.066037e+00	 5.007241e-01	 1.983062e+01
1	 1.059993e+00	 5.133965e-01	 1.903805e+01
1	 1.095425e+00	 4.524472e-01	 2.245017e+01
1	 1.090002e+00	 4.653603e-01	 2.186781e+01
1	 1.084414e+00	 4.782377e-01	 2.122693e+01
1	 1.078660e+00	 4.910764e-01	 2.052865e+01
1	 1.072742e+00	 5.038733e-01	 1.977396e+01
1	 1.066659e+00	 5.166254e-01	 1.896373e+01
1	 1.033326e+00	 5.004808e-01	 1.929907e+01
1	 1.027274e+00	 5.127880e-01	 1.852206e+01
1	 1.021064e+00	 5.250457e-01	 1.771151e+01
1	 1.014695e+00	 5.372509e-01	 1.686769e+01
1	 1.008168e+00	 5.494008e-01	 1.599077e+01
1	 1.001484e+00	 5.614923e-01	 1.508085e+01
1	 1.039993e+00	 5.037097e-01	 1.923959e+01
1	 1.033902e+00	 5.160963e-01	 1.844804e+01
1	 1.027651e+00	 5.284331e-01	 1.762138e+01
1	 1.021241e+00	 5.407171e-01	 1.675988e+01
1	 1.014672e+00	 5.529453e-01	 1.586375e+01
1	 1.007945e+00	 5.651148e-01	 1.493307e+01
1	 1.046659e+00	 5.069386e-01	 1.917615e+01
1	 1.040530e+00	 5.194046e-01	 1.836960e+01
1	 1.034239e+00	 5.318204e-01	 1.752635e+01
1	 1.027788e+00	 5.441832e-01	 1.664661e+01
1	 1.021177e+00	 5.564899e-01	 1.573053e+01
1	 1.014407e+00	 5.687374e-01	 1.477811e+01
1	 1.053326e+00	 5.101675e-01	 1.910891e+01
1	 1.047157e+00	 5.227129e-01	 1.828656e+01
1	 1.040826e+00	 5.352078e-01	 1.742604e+01
1	 1.034334e+00	 5.476494e-01	 1.652742e+01
1	 1.027681e+00	 5.600344e-01	 1.559071e+01
1	 1.020868e+00	 5.723599e-01	 1.461579e+01
1	 1.059993e+00	 5.133965e-01	 1.903805e+01
1	 1.053785e+00	 5.260212e-01	 1.819876e+01
1	 1.047414e+00	 5.385952e-01	 1.732007e+01
1	 1.040880e+00	 5.511155e-01	 1.640186e+01
1	 1.034185e+00	 5.635789e-01	 1.544392e+01
1	 1.027329e+00	 5.759824e-01	 1.444593e+01
1	 1.066659e+00	 5.166254e-01	 1.896373e+01
1	 1.060412e+00	 5.293295e-01	 1.810601e+01
1	 1.054001e+00	 5.419826e-01	 1.720807e+01
1	 1.047427e+00	 5.545816e-01	 1.626949e+01
1	 1.040690e+00	 5.671234e-01	 1.528976e+01
1	 1.033790e+00	 5.796049e-01	 1.426834e+01
1	 1.001484e+00	 5.614923e-01	 1.508085e+01
1	 9.946438e-01	 5.735224e-01	 1.415068e+01
1	 9.876476e-01	 5.854881e-01	 1.321287e+01
1	 9.804966e-01	 5.973865e-01	 1.226732e+01
1	 9.731915e-01	 6.092146e-01	 1.131392e+01
1	 9.657334e-01	 6.209695e-01	 1.035260e+01
1	 1.007945e+00	 5.651148e-01	 1.493307e+01
1	 1.001061e+00	 5.772225e-01	 1.398131e+01
1	 9.940195e-01	 5.892655e-01	 1.302180e+01
1	 9.868224e-01	 6.012406e-01	 1.205437e+01
1	 9.794702e-01	 6.131451e-01	 1.107886e+01
1	 9.719639e-01	 6.249758e-01	 1.009516e+01
1	 1.014407e+00	 5.687374e-01	 1.477811e+01
1	 1.007478e+00	 5.809227e-01	 1.380365e+01
1	 1.000391e+00	 5.930428e-01	 1.282132e+01
1	 9.931481e-01	 6.050947e-01	 1.183093e+01
1	 9.857488e-01	 6.170755e-01	 1.083235e+01
1	 9.781945e-01	 6.289820e-01	 9.825452e+00
1	 1.020868e+00	 5.723599e-01	 1.461579e+01
1	 1.013895e+00	 5.846228e-01	 1.361773e+01
1	 1.006763e+00	 5.968201e-01	 1.261159e+01
1	 9.994739e-01	 6.089488e-01	 1.159725e+01
1	 9.920275e-01	 6.210059e-01	 1.057458e+01
1	 9.844250e-01	 6.329883e-01	 9.543507e+00
1	 1.027329e+00	 5.759824e-01	 1.444593e+01
1	 1.020312e+00	 5.883230e-01	 1.342359e+01
1	 1.013135e+00	 6.005975e-01	 1.239281e+01
1	 1.005800e+00	 6.128029e-01	 1.135353e+01
1	 9.983061e-01	 6.249363e-01	 1.030572e+01
1	 9.906556e-01	 6.369946e-01	 9.249345e+00
1	 1.033790e+00	 5.796049e-01	 1.426834e+01
1	 1.026729e+00	 5.920231e-01	 1.322130e+01
1	 1.019507e+00	 6.043748e-01	 1.216515e+01
1	 1.012125e+00	 6.166570e-01	 1.110001e+01
1	 1.004585e+00	 6.288667e-01	 1.002593e+01
1	 9.968861e-01	 6.410008e-01	 8.942991e+00
1	 9.657334e-01	 6.209695e-01	 1.035260e+01
1	 9.581233e-01	 6.326483e-01	 9.396566e+00
1	 9.503624e-01	 6.442480e-01	 8.459298e+00
1	 9.424518e-01	 6.557658e-01	 7.541185e+00
1	 9.343929e-01	 6.671987e-01	 6.642665e+00
1	 9.261869e-01	 6.785441e-01	 5.764222e+00
1	 9.719639e-01	 6.249758e-01	 1.009516e+01
1	 9.643048e-01	 6.367299e-01	 9.116579e+00
1	 9.564938e-01	 6.484044e-01	 8.156619e+00
1	 9.485322e-01	 6.599965e-01	 7.215500e+00
1	 9.404212e-01	 6.715032e-01	 6.293478e+00
1	 9.321623e-01	 6.829218e-01	 5.390840e+00
1	 9.781945e-01	 6.289820e-01	 9.825452e+00
1	 9.704862e-01	 6.408115e-01	 8.823538e+00
1	 9.626251e-01	 6.525609e-01	 7.839977e+00
1	 9.546125e-01	 6.642273e-01	 6.874782e+00
1	 9.464495e-01	 6.758078e-01	 5.927991e+00
1	 9.381377e-01	 6.872995e-01	 4.999657e+00
1	 9.844250e-01	 6.329883e-01	 9.543507e+00
1	 9.766677e-01	 6.448931e-01	 8.517299e+00
1	 9.687565e-01	 6.567173e-01	 7.509121e+00
1	 9.606928e-01	 6.684580e-01	 6.518738e+00
1	 9.524779e-01	 6.801123e-01	 5.545928e+00
1	 9.441131e-01	 6.916772e-01	 4.590484e+00
1	 9.906556e-01	 6.369946e-01	 9.249345e+00
1	 9.828491e-01	 6.489747e-01	 8.197720e+00
1	 9.748879e-01	 6.608737e-01	 7.163808e+00
1	 9.667732e-01	 6.726888e-01	 6.147080e+00
1	 9.585062e-01	 6.844168e-01	 5.147022e+00
1	 9.500885e-01	 6.960549e-01	 4.163134e+00
1	 9.968861e-01	 6.410008e-01	 8.942991e+00
1	 9.890305e-01	 6.530563e-01	 7.864665e+00
1	 9.810193e-01	 6.650302e-01	 6.803798e+00
1	 9.728535e-01	 6.769195e-01	 5.759528e+00
1	 9.645346e-01	 6.887213e-01	 4.731012e+00
1	 9.560638e-01	 7.004326e-01	 3.717428e+00
1	 9.261869e-01	 6.785441e-01	 5.764222e+00
1	 9.178352e-01	 6.897990e-01	 4.916645e+00
1	 9.093395e-01	 7.009607e-01	 4.111977e+00
1	 9.007011e-01	 7.120264e-01	 3.352813e+00
1	 8.919218e-01	 7.229935e-01	 2.641994e+00
1	 8.830033e-01	 7.338593e-01	 1.982605e+00
1	 9.321623e-01	 6.829218e-01	 5.390840e+00
1	 9.237567e-01	 6.942493e-01	 4.519558e+00
1	 9.152062e-01	 7.054830e-01	 3.693165e+00
1	 9.065121e-01	 7.166202e-01	 2.914533e+00
1	 8.976762e-01	 7.276580e-01	 2.186817e+00
1	 8.887001e-01	 7.385938e-01	 1.513458e+00
1	 9.381377e-01	 6.872995e-01	 4.999657e+00
1	 9.296783e-01	 6.986996e-01	 4.103210e+00
1	 9.210729e-01	 7.100054e-01	 3.254014e+00
1	 9.123231e-01	 7.212139e-01	 2.455296e+00
1	 9.034305e-01	 7.323225e-01	 1.710610e+00
1	 8.943969e-01	 7.433284e-01	 1.023832e+00
1	 9.441131e-01	 6.916772e-01	 4.590484e+00
1	 9.355998e-01	 7.031499e-01	 3.667527e+00
1	 9.269396e-01	 7.145277e-01	 2.794564e+00
1	 9.181340e-01	 7.258076e-01	 1.975257e+00
1	 9.091848e-01	 7.369869e-01	 1.213637e+00
1	 9.000936e-01	 7.480630e-01	 5.140937e-01
1	 9.500885e-01	 6.960549e-01	 4.163134e+00
1	 9.415213e-01	 7.076003e-01	 3.212438e+00
1	 9.328063e-01	 7.190500e-01	 2.314857e+00
1	 9.239450e-01	 7.304013e-01	 1.474567e+00
1	 9.149392e-01	 7.416514e-01	 6.961543e-01
1	 9.057904e-01	 7.527976e-01	-1.539961e-02
1	 9.560638e-01	 7.004326e-01	 3.717428e+00
1	 9.474428e-01	 7.120506e-01	 2.737873e+00
1	 9.386730e-01	 7.235723e-01	 1.814932e+00
1	 9.297560e-01	 7.349950e-01	 9.533742e-01
1	 9.206935e-01	 7.463159e-01	 1.584132e-01
1	 9.114872e-01	 7.575321e-01	-5.642987e-01
1	 8.830033e-01	 7.338593e-01	 1.982605e+00
1	 8.739472e-01	 7.446210e-01	 1.378164e+00
1	 8.647555e-01	 7.552762e-01	 8.309536e-01
1	 8.554299e-01	 7.658223e-01	 3.424687e-01
1	 8.459726e-01	 7.762568e-01	-8.568318e-02
1	 8.363854e-01	 7.865772e-01	-4.517854e-01
1	 8.887001e-01	 7.385938e-01	 1.513458e+00
1	 8.795856e-01	 7.494250e-01	 8.975673e-01
1	 8.703345e-01	 7.601490e-01	 3.407099e-01
1	 8.609488e-01	 7.707631e-01	-1.557097e-01
1	 8.514305e-01	 7.812649e-01	-5.901917e-01
1	 8.417814e-01	 7.916518e-01	-9.611440e-01
1	 8.943969e-01	 7.433284e-01	 1.023832e+00
1	 8.852239e-01	 7.542290e-01	 3.974211e-01
1	 8.759136e-01	 7.650217e-01	-1.681329e-01
1	 8.664677e-01	 7.757039e-01	-6.716139e-01
1	 8.568883e-01	 7.862730e-01	-1.111732e+00
1	 8.471775e-01	 7.967265e-01	-1.487125e+00
1	 9.000936e-01	 7.480630e-01	 5.140937e-01
1	 8.908623e-01	 7.590330e-01	-1.218317e-01
1	 8.814927e-01	 7.698945e-01	-6.951046e-01
1	 8.719866e-01	 7.806447e-01	-1.204792e+00
1	 8.623462e-01	 7.912811e-01	-1.649914e+00
1	 8.525735e-01	 8.018012e-01	-2.029444e+00
1	 9.057904e-01	 7.527976e-01	-1.539961e-02
1	 8.965007e-01	 7.638371e-01	-6.597596e-01
1	 8.870717e-01	 7.747672e-01	-1.239747e+00
1	 8.775055e-01	 7.855855e-01	-1.754805e+00
1	 8.678041e-01	 7.962892e-01	-2.204361e+00
1	 8.579695e-01	 8.068759e-01	-2.587824e+00
1	 9.114872e-01	 7.575321e-01	-5.642987e-01
1	 9.021390e-01	 7.686411e-01	-1.215942e+00
1	 8.926508e-01	 7.796400e-01	-1.801612e+00
1	 8.830244e-01	 7.905263e-01	-2.321222e+00
1	 8.732620e-01	 8.012973e-01	-2.774701e+00
1	 8.633656e-01	 8.119506e-01	-3.161997e+00
1	 8.363854e-01	 7.865772e-01	-4.517854e-01
1	 8.266705e-01	 7.967811e-01	-7.840121e-01
1	 8.168300e-01	 8.068661e-01	-1.110521e+00
1	 8.068661e-01	 8.168300e-01	-1.429516e+00
1	 7.967811e-01	 8.266705e-01	-1.739233e+00
1	 7.865772e-01	 8.363854e-01	-2.037945e+00
1	 8.417814e-01	 7.916518e-01	-9.611440e-01
1	 8.320039e-01	 8.019216e-01	-1.297702e+00
1	 8.220999e-01	 8.120717e-01	-1.628868e+00
1	 8.120717e-01	 8.220999e-01	-1.952806e+00
1	 8.019216e-01	 8.320039e-01	-2.267714e+00
1	 7.916518e-01	 8.417814e-01	-2.571825e+00
1	 8.471775e-01	 7.967265e-01	-1.487125e+00
1	 8.373372e-01	 8.070621e-01	-1.827867e+00
1	 8.273697e-01	 8.172773e-01	-2.163683e+00
1	 8.172773e-01	 8.273697e-01	-2.492656e+00
1	 8.070621e-01	 8.373372e-01	-2.812900e+00
1	 7.967265e-01	 8.471775e-01	-3.122557e+00
1	 8.525735e-01	 8.018012e-01	-2.029444e+00
1	 8.426706e-01	 8.122026e-01	-2.374332e+00
1	 8.326396e-01	 8.224829e-01	-2.714870e+00
1	 8.224829e-01	 8.326396e-01	-3.049018e+00
1	 8.122026e-01	 8.426706e-01	-3.374758e+00
1	 8.018012e-01	 8.525735e-01	-3.690098e+00
1	 8.579695e-01	 8.068759e-01	-2.587824e+00
1	 8.480039e-01	 8.173431e-01	-2.936930e+00
1	 8.379095e-01	 8.276885e-01	-3.282337e+00
1	 8.276885e-01	 8.379095e-01	-3.621843e+00
1	 8.173431e-01	 8.480039e-01	-3.953258e+00
1	 8.068759e-01	 8.579695e-01	-4.274407e+00
1	 8.633656e-01	 8.119506e-01	-3.161997e+00
1	 8.533373e-01	 8.224837e-01	-3.515493e+00
1	 8.431794e-01	 8.328940e-01	-3.865992e+00
1	 8.328940e-01	 8.431794e-01	-4.211087e+00
1	 8.224837e-01	 8.533373e-01	-4.548372e+00
1	 8.119506e-01	 8.633656e-01	-4.875444e+00
1	 7.865772e-01	 8.363854e-01	-2.037945e+00
1	 7.762568e-01	 8.459726e-01	-2.349472e+00
1	 7.658223e-01	 8.554299e-01	-2.700817e+00
1	 7.552762e-01	 8.647555e-01	-3.095234e+00
1	 7.446210e-01	 8.739472e-01	-3.536216e+00
1	 7.338593e-01	 8.830033e-01	-4.027480e+00
1	 7.916518e-01	 8.417814e-01	-2.571825e+00
1	 7.812649e-01	 8.514305e-01	-2.890145e+00
1	 7.707631e-01	 8.609488e-01	-3.250575e+00
1	 7.601490e-01	 8.703345e-01	-3.655887e+00
1	 7.494250e-01	 8.795856e-01	-4.109072e+00
1	 7.385938e-01	 8.887001e-01	-4.613326e+00
1	 7.967265e-01	 8.471775e-01	-3.122557e+00
1	 7.862730e-01	 8.568883e-01	-3.447689e+00
1	 7.757039e-01	 8.664677e-01	-3.817045e+00
1	 7.650217e-01	 8.759136e-01	-4.232983e+00
1	 7.542290e-01	 8.852239e-01	-4.698063e+00
1	 7.433284e-01	 8.943969e-01	-5.215037e+00
1	 8.018012e-01	 8.525735e-01	-3.690098e+00
1	 7.912811e-01	 8.623462e-01	-4.022058e+00
1	 7.806447e-01	 8.719866e-01	-4.400215e+00
1	 7.698945e-01	 8.814927e-01	-4.826582e+00
1	 7.590330e-01	 8.908623e-01	-5.303359e+00
1	 7.480630e-01	 9.000936e-01	-5.832928e+00
1	 8.068759e-01	 8.579695e-01	-4.274407e+00
1	 7.962892e-01	 8.678041e-01	-4.613205e+00
1	 7.855855e-01	 8.775055e-01	-5.000072e+00
1	 7.747672e-01	 8.870717e-01	-5.436742e+00
1	 7.638371e-01	 8.965007e-01	-5.925127e+00
1	 7.527976e-01	 9.057904e-01	-6.467308e+00
1	 8.119506e-01	 8.633656e-01	-4.875444e+00
1	 8.012973e-01	 8.732620e-01	-5.221086e+00
1	 7.905263e-01	 8.830244e-01	-5.616605e+00
1	 7.796400e-01	 8.926508e-01	-6.063522e+00
1	 7.686411e-01	 9.021390e-01	-6.563529e+00
1	 7.575321e-01	 9.114872e-01	-7.118481e+00
1	 7.338593e-01	 8.830033e-01	-4.027480e+00
1	 7.229935e-01	 8.919218e-01	-4.569995e+00
1	 7.120264e-01	 9.007011e-01	-5.165391e+00
1	 7.009607e-01	 9.093395e-01	-5.818730e+00
1	 6.897990e-01	 9.178352e-01	-6.535308e+00
1	 6.785441e-01	 9.261869e-01	-7.320644e+00
1	 7.385938e-01	 8.887001e-01	-4.613326e+00
1	 7.276580e-01	 8.976762e-01	-5.169836e+00
1	 7.166202e-01	 9.065121e-01	-5.781398e+00
1	 7.054830e-01	 9.152062e-01	-6.453993e+00
1	 6.942493e-01	 9.237567e-01	-7.193879e+00
1	 6.829218e-01	 9.321623e-01	-8.007579e+00
1	 7.433284e-01	 8.943969e-01	-5.215037e+00
1	 7.323225e-01	 9.034305e-01	-5.785666e+00
1	 7.212139e-01	 9.123231e-01	-6.414070e+00
1	 7.100054e-01	 9.210729e-01	-7.106921e+00
1	 6.986996e-01	 9.296783e-01	-7.871200e+00
1	 6.872995e-01	 9.381377e-01	-8.714185e+00
1	 7.480630e-01	 9.000936e-01	-5.832928e+00
1	 7.369869e-01	 9.091848e-01	-6.417901e+00
1	 7.258076e-01	 9.181340e-01	-7.063802e+00
1	 7.145277e-01	 9.269396e-01	-7.777766e+00
1	 7.031499e-01	 9.355998e-01	-8.567266e+00
1	 6.916772e-01	 9.441131e-01	-9.440090e+00
1	 7.527976e-01	 9.057904e-01	-6.467308e+00
1	 7.416514e-01	 9.149392e-01	-7.066948e+00
1	 7.304013e-01	 9.239450e-01	-7.730976e+00
1	 7.190500e-01	 9.328063e-01	-8.466774e+00
1	 7.076003e-01	 9.415213e-01	-9.282073e+00
1	 6.960549e-01	 9.500885e-01	-1.018493e+01
1	 7.575321e-01	 9.114872e-01	-7.118481e+00
1	 7.463159e-01	 9.206935e-01	-7.733205e+00
1	 7.349950e-01	 9.297560e-01	-8.415969e+00
1	 7.235723e-01	 9.386730e-01	-9.174184e+00
1	 7.120506e-01	 9.474428e-01	-1.001562e+01
1	 7.004326e-01	 9.560638e-01	-1.094836e+01
1	 6.785441e-01	 9.261869e-01	-7.320644e+00
1	 6.671987e-01	 9.343929e-01	-8.169959e+00
1	 6.557658e-01	 9.424518e-01	-9.074611e+00
1	 6.442480e-01	 9.503624e-01	-1.003444e+01
1	 6.326483e-01	 9.581233e-01	-1.104924e+01
1	 6.209695e-01	 9.657334e-01	-1.211875e+01
1	 6.829218e-01	 9.321623e-01	-8.007579e+00
1	 6.715032e-01	 9.404212e-01	-8.889471e+00
1	 6.599965e-01	 9.485322e-01	-9.829129e+00
1	 6.484044e-01	 9.564938e-01	-1.082600e+01
1	 6.367299e-01	 9.643048e-01	-1.187944e+01
1	 6.249758e-01	 9.719639e-01	-1.298878e+01
1	 6.872995e-01	 9.381377e-01	-8.714185e+00
1	 6.758078e-01	 9.464495e-01	-9.628975e+00
1	 6.642273e-01	 9.546125e-01	-1.060335e+01
1	 6.525609e-01	 9.626251e-01	-1.163677e+01
1	 6.408115e-01	 9.704862e-01	-1.272859e+01
1	 6.289820e-01	 9.781945e-01	-1.387812e+01
1	 6.916772e-01	 9.441131e-01	-9.440090e+00
1	 6.801123e-01	 9.524779e-01	-1.038779e+01
1	 6.684580e-01	 9.606928e-01	-1.139650e+01
1	 6.567173e-01	 9.687565e-01	-1.246607e+01
1	 6.448931e-01	 9.766677e-01	-1.359629e+01
1	 6.329883e-01	 9.844250e-01	-1.478685e+01
1	 6.960549e-01	 9.500885e-01	-1.018493e+01
1	 6.844168e-01	 9.585062e-01	-1.116523e+01
1	 6.726888e-01	 9.667732e-01	-1.220778e+01
1	 6.608737e-01	 9.748879e-01	-1.331322e+01
1	 6.489747e-01	 9.828491e-01	-1.448212e+01
1	 6.369946e-01	 9.906556e-01	-1.571505e+01
1	 7.004326e-01	 9.560638e-01	-1.094836e+01
1	 6.887213e-01	 9.645346e-01	-1.196067e+01
1	 6.769195e-01	 9.728535e-01	-1.303647e+01
1	 6.650302e-01	 9.810193e-01	-1.417755e+01
1	 6.530563e-01	 9.890305e-01	-1.538572e+01
1	 6.410008e-01	 9.968861e-01	-1.666276e+01
1	 6.209695e-01	 9.657334e-01	-1.211875e+01
1	 6.092146e-01	 9.731915e-01	-1.323001e+01
1	 5.973865e-01	 9.804966e-01	-1.437034e+01
1	 5.854881e-01	 9.876476e-01	-1.553994e+01
1	 5.735224e-01	 9.946438e-01	-1.673895e+01
1	 5.614923e-01	 1.001484e+00	-1.796749e+01
1	 6.249758e-01	 9.719639e-01	-1.298878e+01
1	 6.131451e-01	 9.794702e-01	-1.414087e+01
1	 6.012406e-01	 9.868224e-01	-1.532357e+01
1	 5.892655e-01	 9.940195e-01	-1.653760e+01
1	 5.772225e-01	 1.001061e+00	-1.778365e+01
1	 5.651148e-01	 1.007945e+00	-1.906240e+01
1	 6.289820e-01	 9.781945e-01	-1.387812e+01
1	 6.170755e-01	 9.857488e-01	-1.507251e+01
1	 6.050947e-01	 9.931481e-01	-1.629991e+01
1	 5.930428e-01	 1.000391e+00	-1.756100e+01
1	 5.809227e-01	 1.007478e+00	-1.885646e+01
1	 5.687374e-01	 1.014407e+00	-2.018696e+01
1	 6.329883e-01	 9.844250e-01	-1.478685e+01
1	 6.210059e-01	 9.920275e-01	-1.602543e+01
1	 6.089488e-01	 9.994739e-01	-1.730001e+01
1	 5.968201e-01	 1.006763e+00	-1.861073e+01
1	 5.846228e-01	 1.013895e+00	-1.995767e+01
1	 5.723599e-01	 1.020868e+00	-2.134089e+01
1	 6.369946e-01	 9.906556e-01	-1.571505e+01
1	 6.249363e-01	 9.983061e-01	-1.700012e+01
1	 6.128029e-01	 1.005800e+00	-1.832454e+01
1	 6.005975e-01	 1.013135e+00	-1.968735e+01
1	 5.883230e-01	 1.020312e+00	-2.108751e+01
1	 5.759824e-01	 1.027329e+00	-2.252392e+01
1	 6.410008e-01	 9.968861e-01	-1.666276e+01
1	 6.288667e-01	 1.004585e+00	-1.799705e+01
1	 6.166570e-01	 1.012125e+00	-1.937412e+01
1	 6.043748e-01	 1.019507e+00	-2.079141e+01
1	 5.920231e-01	 1.026729e+00	-2.224623e+01
1	 5.796049e-01	 1.033790e+00	-2.373576e+01
1	 5.614923e-01	 1.001484e+00	-1.796749e+01
1	 5.494008e-01	 1.008168e+00	-1.921213e+01
1	 5.372509e-01	 1.014695e+00	-2.045557e+01
1	 5.250457e-01	 1.021064e+00	-2.169199e+01
1	 5.127880e-01	 1.027274e+00	-2.291539e+01
1	 5.004808e-01	 1.033326e+00	-2.411969e+01
1	 5.651148e-01	 1.007945e+00	-1.906240e+01
1	 5.529453e-01	 1.014672e+00	-2.035944e+01
1	 5.407171e-01	 1.021241e+00	-2.165548e+01
1	 5.284331e-01	 1.027651e+00	-2.294367e+01
1	 5.160963e-01	 1.033902e+00	-2.421699e+01
1	 5.037097e-01	 1.039993e+00	-2.546829e+01
1	 5.687374e-01	 1.014407e+00	-2.018696e+01
1	 5.564899e-01	 1.021177e+00	-2.153654e+01
1	 5.441832e-01	 1.027788e+00	-2.288425e+01
1	 5.318204e-01	 1.034239e+00	-2.422308e+01
1	 5.194046e-01	 1.040530e+00	-2.554586e+01
1	 5.069386e-01	 1.046659e+00	-2.684522e+01
1	 5.723599e-01	 1.020868e+00	-2.134089e+01
1	 5.600344e-01	 1.027681e+00	-2.274263e+01
1	 5.476494e-01	 1.034334e+00	-2.414092e+01
1	 5.352078e-01	 1.040826e+00	-2.552943e+01
1	 5.227129e-01	 1.047157e+00	-2.690161e+01
1	 5.101675e-01	 1.053326e+00	-2.825078e+01
1	 5.759824e-01	 1.027329e+00	-2.252392e+01
1	 5.635789e-01	 1.034185e+00	-2.397696e+01
1	 5.511155e-01	 1.040880e+00	-2.542459e+01
1	 5.385952e-01	 1.047414e+00	-2.686190e+01
1	 5.260212e-01	 1.053785e+00	-2.828385e+01
1	 5.133965e-01	 1.059993e+00	-2.968528e+01
1	 5.796049e-01	 1.033790e+00	-2.373576e+01
1	 5.671234e-01	 1.040690e+00	-2.523879e+01
1	 5.545816e-01	 1.047427e+00	-2.673433e+01
1	 5.419826e-01	 1.054001e+00	-2.821973e+01
1	 5.293295e-01	 1.060412e+00	-2.969223e+01
1	 5.166254e-01	 1.066659e+00	-3.114903e+01
1	 5.004808e-01	 1.033326e+00	-2.411969e+01
1	 4.881272e-01	 1.039219e+00	-2.528816e+01
1	 4.757302e-01	 1.044952e+00	-2.640609e+01
1	 4.632927e-01	 1.050526e+00	-2.747029e+01
1	 4.508177e-01	 1.055939e+00	-2.847754e+01
1	 4.383082e-01	 1.061193e+00	-2.942462e+01
1	 5.037097e-01	 1.039993e+00	-2.546829e+01
1	 4.912765e-01	 1.045924e+00	-2.668059e+01
1	 4.787995e-01	 1.051694e+00	-2.784021e+01
1	 4.662817e-01	 1.057303e+00	-2.894482e+01
1	 4.537262e-01	 1.062752e+00	-2.999206e+01
1	 4.411360e-01	 1.068039e+00	-3.097957e+01
1	 5.069386e-01	 1.046659e+00	-2.684522e+01
1	 4.944257e-01	 1.052628e+00	-2.810468e+01
1	 4.818687e-01	 1.058435e+00	-2.931101e+01
1	 4.692707e-01	 1.064081e+00	-3.046161e+01
1	 4.566347e-01	 1.069564e+00	-3.155385e+01
1	 4.439638e-01	 1.074886e+00	-3.258509e+01
1	 5.101675e-01	 1.053326e+00	-2.825078e+01
1	 4.975749e-01	 1.059333e+00	-2.956139e+01
1	 4.849379e-01	 1.065177e+00	-3.081976e+01
1	 4.722597e-01	 1.070858e+00	-3.202193e+01
1	 4.595433e-01	 1.076377e+00	-3.316388e+01
1	 4.467916e-01	 1.081732e+00	-3.424158e+01
1	 5.133965e-01	 1.059993e+00	-2.968528e+01
1	 5.007241e-01	 1.066037e+00	-3.105166e+01
1	 4.880071e-01	 1.071919e+00	-3.236771e+01
1	 4.752487e-01	 1.077636e+00	-3.362702e+01
1	 4.624518e-01	 1.083189e+00	-3.482311e+01
1	 4.496194e-01	 1.088578e+00	-3.594943e+01
1	 5.166254e-01	 1.066659e+00	-3.114903e+01
1	 5.038733e-01	 1.072742e+00	-3.257640e+01
1	 4.910764e-01	 1.078660e+00	-3.395605e+01
1	 4.782377e-01	 1.084414e+00	-3.527808e+01
1	 4.653603e-01	 1.090002e+00	-3.653244e+01
1	 4.524472e-01	 1.095425e+00	-3.770902e+01
1	 4.383082e-01	 1.061193e+00	-2.942462e+01
1	 4.257671e-01	 1.066286e+00	-3.030006e+01
1	 4.131974e-01	 1.071220e+00	-3.108607e+01
1	 4.006019e-01	 1.075994e+00	-3.176986e+01
1	 3.879836e-01	 1.080608e+00	-3.233859e+01
1	 3.753454e-01	 1.085062e+00	-3.277945e+01
1	 4.411360e-01	 1.068039e+00	-3.097957e+01
1	 4.285140e-01	 1.073166e+00	-3.189515e+01
1	 4.158632e-01	 1.078131e+00	-3.271892e+01
1	 4.031864e-01	 1.082936e+00	-3.343697e+01
1	 3.904867e-01	 1.087579e+00	-3.403531e+01
1	 3.777670e-01	 1.092063e+00	-3.449998e+01
1	 4.439638e-01	 1.074886e+00	-3.258509e+01
1	 4.312609e-01	 1.080045e+00	-3.354134e+01
1	 4.185290e-01	 1.085042e+00	-3.440058e+01
1	 4.057710e-01	 1.089877e+00	-3.514808e+01
1	 3.929899e-01	 1.094551e+00	-3.576906e+01
1	 3.801886e-01	 1.099063e+00	-3.624876e+01
1	 4.467916e-01	 1.081732e+00	-3.424158e+01
1	 4.340078e-01	 1.086924e+00	-3.523837e+01
1	 4.211947e-01	 1.091953e+00	-3.613020e+01
1	 4.083555e-01	 1.096819e+00	-3.690185e+01
1	 3.954930e-01	 1.101523e+00	-3.753810e+01
1	 3.826102e-01	 1.106063e+00	-3.802368e+01
1	 4.496194e-01	 1.088578e+00	-3.594943e+01
1	 4.367547e-01	 1.093803e+00	-3.698599e+01
1	 4.238605e-01	 1.098864e+00	-3.790697e+01
1	 4.109400e-01	 1.103761e+00	-3.869701e+01
1	 3.979961e-01	 1.108494e+00	-3.934070e+01
1	 3.850317e-01	 1.113064e+00	-3.982267e+01
1	 4.524472e-01	 1.095425e+00	-3.770902e+01
1	 4.395015e-01	 1.100683e+00	-3.878396e+01
1	 4.265263e-01	 1.105775e+00	-3.973012e+01
1	 4.135246e-01	 1.110703e+00	-4.053228e+01
1	 4.004992e-01	 1.115466e+00	-4.117521e+01
1	 3.874533e-01	 1.120064e+00	-4.164371e+01
1	 3.753454e-01	 1.085062e+00	-3.277945e+01
1	 3.626901e-01	 1.089358e+00	-3.310041e+01
1	 3.500206e-01	 1.093494e+00	-3.331251e+01
1	 3.373396e-01	 1.097473e+00	-3.340766e+01
1	 3.246501e-01	 1.101293e+00	-3.337781e+01
1	 3.119546e-01	 1.104956e+00	-3.321508e+01
1	 3.777670e-01	 1.092063e+00	-3.449998e+01
1	 3.650300e-01	 1.096386e+00	-3.483814e+01
1	 3.522788e-01	 1.100549e+00	-3.505978e+01
1	 3.395160e-01	 1.104553e+00	-3.515527e+01
1	 3.267446e-01	 1.108398e+00	-3.511504e+01
1	 3.139672e-01	 1.112085e+00	-3.492965e+01
1	 3.801886e-01	 1.099063e+00	-3.624876e+01
1	 3.673700e-01	 1.103414e+00	-3.659387e+01
1	 3.545370e-01	 1.107604e+00	-3.681399e+01
1	 3.416924e-01	 1.111634e+00	-3.689879e+01
1	 3.288391e-01	 1.115503e+00	-3.683804e+01
1	 3.159798e-01	 1.119214e+00	-3.662160e+01
1	 3.826102e-01	 1.106063e+00	-3.802368e+01
1	 3.697099e-01	 1.110442e+00	-3.836525e+01
1	 3.567952e-01	 1.114659e+00	-3.857279e+01
1	 3.438688e-01	 1.118714e+00	-3.863608e+01
1	 3.309336e-01	 1.122608e+00	-3.854504e+01
1	 3.179924e-01	 1.126343e+00	-3.828969e+01
1	 3.850317e-01	 1.113064e+00	-3.982267e+01
1	 3.720499e-01	 1.117470e+00	-4.015001e+01
1	 3.590534e-01	 1.121713e+00	-4.033388e+01
1	 3.460452e-01	 1.125794e+00	-4.036502e+01
1	 3.330281e-01	 1.129714e+00	-4.023430e+01
1	 3.200050e-01	 1.133471e+00	-3.993272e+01
1	 3.874533e-01	 1.120064e+00	-4.164371e+01
1	 3.743898e-01	 1.124498e+00	-4.194592e+01
1	 3.613116e-01	 1.128768e+00	-4.209505e+01
1	 3.482216e-01	 1.132875e+00	-4.208359e+01
1	 3.351226e-01	 1.136819e+00	-4.190415e+01
1	 3.220177e-01	 1.140600e+00	-4.154954e+01
1	 3.119546e-01	 1.104956e+00	-3.321508e+01
1	 2.992560e-01	 1.108463e+00	-3.292498e+01
1	 2.865570e-01	 1.111814e+00	-3.252454e+01
1	 2.738601e-01	 1.115009e+00	-3.202326e+01
1	 2.611682e-01	 1.118050e+00	-3.143075e+01
1	 2.484837e-01	 1.120937e+00	-3.075677e+01
1	 3.139672e-01	 1.112085e+00	-3.492965e+01
1	 3.011867e-01	 1.115614e+00	-3.460541e+01
1	 2.884057e-01	 1.118986e+00	-3.416239e+01
1	 2.756270e-01	 1.122202e+00	-3.361198e+01
1	 2.628531e-01	 1.125263e+00	-3.296571e+01
1	 2.500868e-01	 1.128169e+00	-3.223521e+01
1	 3.159798e-01	 1.119214e+00	-3.662160e+01
1	 3.031174e-01	 1.122766e+00	-3.625745e+01
1	 2.902545e-01	 1.126159e+00	-3.576869e+01
1	 2.773938e-01	 1.129396e+00	-3.516809e+01
1	 2.645381e-01	 1.132476e+00	-3.446854e+01
1	 2.516899e-01	 1.135401e+00	-3.368306e+01
1	 3.179924e-01	 1.126343e+00	-3.828969e+01
1	 3.050481e-01	 1.129917e+00	-3.788042e+01
1	 2.921032e-01	 1.133332e+00	-3.734319e+01
1	 2.791607e-01	 1.136590e+00	-3.669163e+01
1	 2.662231e-01	 1.139689e+00	-3.593947e+01
1	 2.532930e-01	 1.142633e+00	-3.510060e+01
1	 3.200050e-01	 1.133471e+00	-3.993272e+01
1	 3.069787e-01	 1.137068e+00	-3.947366e+01
1	 2.939520e-01	 1.140505e+00	-3.888564e+01
1	 2.809275e-01	 1.143783e+00	-3.818262e+01
1	 2.679080e-01	 1.146903e+00	-3.737872e+01
1	 2.548962e-01	 1.149865e+00	-3.648812e+01
1	 3.220177e-01	 1.140600e+00	-4.154954e+01
1	 3.089094e-01	 1.144220e+00	-4.103654e+01
1	 2.958007e-01	 1.147678e+00	-4.039579e+01
1	 2.826943e-01	 1.150977e+00	-3.964112e+01
1	 2.695930e-01	 1.154116e+00	-3.878648e+01
1	 2.564993e-01	 1.157096e+00	-3.784591e+01
1	 2.484837e-01	 1.120937e+00	-3.075677e+01
1	 2.358092e-01	 1.123672e+00	-3.001480e+01
1	 2.231472e-01	 1.126255e+00	-2.921895e+01
1	 2.105002e-01	 1.128687e+00	-2.837984e+01
1	 1.978707e-01	 1.130969e+00	-2.750811e+01
1	 1.852611e-01	 1.133103e+00	-2.661431e+01
1	 2.500868e-01	 1.128169e+00	-3.223521e+01
1	 2.373305e-01	 1.130921e+00	-3.143560e+01
1	 2.245868e-01	 1.133521e+00	-3.058162e+01
1	 2.118583e-01	 1.135969e+00	-2.968442e+01
1	 1.991473e-01	 1.138266e+00	-2.875516e+01
1	 1.864563e-01	 1.140413e+00	-2.780491e+01
1	 2.516899e-01	 1.135401e+00	-3.368306e+01
1	 2.388519e-01	 1.138171e+00	-3.282782e+01
1	 2.260265e-01	 1.140787e+00	-3.191801e+01
1	 2.132164e-01	 1.143250e+00	-3.096524e+01
1	 2.004239e-01	 1.145562e+00	-2.998111e+01
1	 1.876516e-01	 1.147724e+00	-2.897716e+01
1	 2.532930e-01	 1.142633e+00	-3.510060e+01
1	 2.403732e-01	 1.145420e+00	-3.419177e+01
1	 2.274662e-01	 1.148053e+00	-3.322843e+01
1	 2.145744e-01	 1.150532e+00	-3.222260e+01
1	 2.017005e-01	 1.152859e+00	-3.118623e+01
1	 1.888468e-01	 1.155034e+00	-3.013126e+01
1	 2.548962e-01	 1.149865e+00	-3.648812e+01
1	 2.418946e-01	 1.152670e+00	-3.552776e+01
1	 2.289058e-01	 1.155319e+00	-3.451321e+01
1	 2.159325e-01	 1.157814e+00	-3.345679e+01
1	 2.029771e-01	 1.160156e+00	-3.237079e+01
1	 1.900420e-01	 1.162344e+00	-3.126743e+01
1	 2.564993e-01	 1.157096e+00	-3.784591e+01
1	 2.434159e-01	 1.159919e+00	-3.683609e+01
1	 2.303455e-01	 1.162585e+00	-3.577263e+01
1	 2.172906e-01	 1.165096e+00	-3.466810e+01
1	 2.042537e-01	 1.167452e+00	-3.353503e+01
1	 1.912373e-01	 1.169655e+00	-3.238588e+01
1	 1.852611e-01	 1.133103e+00	-2.661431e+01
1	 1.726737e-01	 1.135089e+00	-2.571239e+01
1	 1.601108e-01	 1.136930e+00	-2.481797e+01
1	 1.475748e-01	 1.138625e+00	-2.394396e+01
1	 1.350678e-01	 1.140176e+00	-2.310313e+01
1	 1.225920e-01	 1.141585e+00	-2.230807e+01
1	 1.864563e-01	 1.140413e+00	-2.780491e+01
1	 1.737877e-01	 1.142413e+00	-2.684831e+01
1	 1.611438e-01	 1.144265e+00	-2.590149e+01
1	 1.485269e-01	 1.145971e+00	-2.497766e+01
1	 1.359392e-01	 1.147532e+00	-2.408985e+01
1	 1.233829e-01	 1.148950e+00	-2.325093e+01
1	 1.876516e-01	 1.147724e+00	-2.897716e+01
1	 1.749017e-01	 1.149736e+00	-2.796858e+01
1	 1.621768e-01	 1.151600e+00	-2.697194e+01
1	 1.494790e-01	 1.153316e+00	-2.600067e+01
1	 1.368106e-01	 1.154888e+00	-2.506805e+01
1	 1.241738e-01	 1.156315e+00	-2.418715e+01
1	 1.888468e-01	 1.155034e+00	-3.013126e+01
1	 1.760158e-01	 1.157059e+00	-2.907335e+01
1	 1.632097e-01	 1.158935e+00	-2.802942e+01
1	 1.504311e-01	 1.160662e+00	-2.701309e+01
1	 1.376820e-01	 1.162244e+00	-2.603778e+01
1	 1.249647e-01	 1.163680e+00	-2.511674e+01
1	 1.900420e-01	 1.162344e+00	-3.126743e+01
1	 1.771298e-01	 1.164382e+00	-3.016280e+01
1	 1.642427e-01	 1.166270e+00	-2.907407e+01
1	 1.513831e-01	 1.168008e+00	-2.801498e+01
1	 1.385534e-01	 1.169600e+00	-2.699909e+01
1	 1.257557e-01	 1.171045e+00	-2.603975e+01
1	 1.912373e-01	 1.169655e+00	-3.238588e+01
1	 1.782438e-01	 1.171705e+00	-3.123707e+01
1	 1.652757e-01	 1.173605e+00	-3.010599e+01
1	 1.523352e-01	 1.175354e+00	-2.900644e+01
1	 1.394248e-01	 1.176956e+00	-2.795203e+01
1	 1.265466e-01	 1.178410e+00	-2.695619e+01
1	 1.225920e-01	 1.141585e+00	-2.230807e+01
1	 1.101496e-01	 1.142852e+00	-2.157092e+01
1	 9.774267e-02	 1.143980e+00	-2.090265e+01
1	 8.537327e-02	 1.144970e+00	-2.031380e+01
1	 7.304338e-02	 1.145822e+00	-1.981460e+01
1	 6.075496e-02	 1.146540e+00	-1.941508e+01
1	 1.233829e-01	 1.148950e+00	-2.325093e+01
1	 1.108602e-01	 1.150225e+00	-2.247326e+01
1	 9.837327e-02	 1.151361e+00	-2.176796e+01
1	 8.592406e-02	 1.152357e+00	-2.114573e+01
1	 7.351463e-02	 1.153215e+00	-2.061701e+01
1	 6.114693e-02	 1.153937e+00	-2.019197e+01
1	 1.241738e-01	 1.156315e+00	-2.418715e+01
1	 1.115709e-01	 1.157599e+00	-2.337049e+01
1	 9.900387e-02	 1.158741e+00	-2.262941e+01
1	 8.647486e-02	 1.159743e+00	-2.197478e+01
1	 7.398587e-02	 1.160607e+00	-2.141725e+01
1	 6.153890e-02	 1.161334e+00	-2.096716e+01
1	 1.249647e-01	 1.163680e+00	-2.511674e+01
1	 1.122815e-01	 1.164972e+00	-2.426265e+01
1	 9.963447e-02	 1.166122e+00	-2.348701e+01
1	 8.702565e-02	 1.167130e+00	-2.280094e+01
1	 7.445712e-02	 1.168000e+00	-2.221529e+01
1	 6.193086e-02	 1.168731e+00	-2.174063e+01
1	 1.257557e-01	 1.171045e+00	-2.603975e+01
1	 1.129922e-01	 1.172345e+00	-2.514973e+01
1	 1.002651e-01	 1.173502e+00	-2.434077e+01
1	 8.757645e-02	 1.174517e+00	-2.362421e+01
1	 7.492837e-02	 1.175392e+00	-2.301114e+01
1	 6.232283e-02	 1.176128e+00	-2.251234e+01
1	 1.265466e-01	 1.178410e+00	-2.695619e+01
1	 1.137028e-01	 1.179718e+00	-2.603177e+01
1	 1.008957e-01	 1.180883e+00	-2.519069e+01
1	 8.812724e-02	 1.181904e+00	-2.444457e+01
1	 7.539962e-02	 1.182784e+00	-2.380477e+01
1	 6.271480e-02	 1.183525e+00	-2.328230e+01
1	 6.075496e-02	 1.146540e+00	-1.941508e+01
1	 4.850992e-02	 1.147123e+00	-1.912564e+01
1	 3.631012e-02	 1.147574e+00	-1.895555e+01
1	 2.415737e-02	 1.147894e+00	-1.891267e+01
1	 1.205342e-02	 1.148085e+00	-1.900455e+01
1	 0.000000e+00	 1.148148e+00	-1.923845e+01
1	 6.114693e-02	 1.153937e+00	-2.019197e+01
1	 4.882289e-02	 1.154524e+00	-1.988127e+01
1	 3.654438e-02	 1.154978e+00	-1.969451e+01
1	 2.431322e-02	 1.155300e+00	-1.963985e+01
1	 1.213119e-02	 1.155492e+00	-1.972516e+01
1	 0.000000e+00	 1.155556e+00	-1.995798e+01
1	 6.153890e-02	 1.161334e+00	-2.096716e+01
1	 4.913586e-02	 1.161924e+00	-2.063542e+01
1	 3.677864e-02	 1.162381e+00	-2.043195e+01
1	 2.446908e-02	 1.162706e+00	-2.036518e+01
1	 1.220895e-02	 1.162899e+00	-2.044324e+01
1	 0.000000e+00	 1.162963e+00	-2.067394e+01
1	 6.193086e-02	 1.168731e+00	-2.174063e+01
1	 4.944883e-02	 1.169325e+00	-2.138808e+01
1	 3.701290e-02	 1.169785e+00	-2.116786e+01
1	 2.462493e-02	 1.170111e+00	-2.108865e+01
1	 1.228672e-02	 1.170306e+00	-2.115881e+01
1	 0.000000e+00	 1.170370e+00	-2.138637e+01
1	 6.232283e-02	 1.176128e+00	-2.251234e+01
1	 4.976179e-02	 1.176726e+00	-2.213922e+01
1	 3.724716e-02	 1.177189e+00	-2.190222e+01
1	 2.478079e-02	 1.177517e+00	-2.181025e+01
1	 1.236448e-02	 1.177713e+00	-2.187187e+01
1	 0.000000e+00	 1.177778e+00	-2.209532e+01
1	 6.271480e-02	 1.183525e+00	-2.328230e+01
1	 5.007476e-02	 1.184127e+00	-2.288882e+01
1	 3.748142e-02	 1.184592e+00	-2.263502e+01
1	 2.493664e-02	 1.184923e+00	-2.252998e+01
1	 1.244224e-02	 1.185120e+00	-2.258246e+01
1	 0.000000e+00	 1.185185e+00	-2.280084e+01
1	 1.185185e+00	 0.000000e+00	 2.382596e+01
1	 1.185120e+00	 1.244224e-02	 2.359750e+01
1	 1.184923e+00	 2.493664e-02	 2.340442e+01
1	 1.184592e+00	 3.748142e-02	 2.324477e+01
1	 1.184127e+00	 5.007476e-02	 2.311654e+01
1	 1.183525e+00	 6.271480e-02	 2.301772e+01
1	 1.192593e+00	 0.000000e+00	 2.360559e+01
1	 1.192527e+00	 1.252001e-02	 2.336990e+01
1	 1.192329e+00	 2.509249e-02	 2.317099e+01
1	 1.191996e+00	 3.771568e-02	 2.300685e+01
1	 1.191528e+00	 5.038773e-02	 2.287543e+01
1	 1.190922e+00	 6.310677e-02	 2.277469e+01
1	 1.200000e+00	 0.000000e+00	 2.338955e+01
1	 1.199934e+00	 1.259777e-02	 2.314660e+01
1	 1.199734e+00	 2.524835e-02	 2.294175e+01
1	 1.199400e+00	 3.794994e-02	 2.277297e+01
1	 1.198928e+00	 5.070070e-02	 2.263816e+01
1	 1.198319e+00	 6.349873e-02	 2.253522e+01
1	 1.207407e+00	 0.000000e+00	 2.317761e+01
1	 1.207341e+00	 1.267554e-02	 2.292737e+01
1	 1.207140e+00	 2.540420e-02	 2.271652e+01
1	 1.206803e+00	 3.818419e-02	 2.254295e+01
1	 1.206329e+00	 5.101366e-02	 2.240455e+01
1	 1.205716e+00	 6.389070e-02	 2.229915e+01
1	 1.214815e+00	 0.000000e+00	 2.296954e+01
1	 1.214748e+00	 1.275330e-02	 2.271202e+01
1	 1.214546e+00	 2.556006e-02	 2.249509e+01
1	 1.214207e+00	 3.841845e-02	 2.231662e+01
1	 1.213730e+00	 5.132663e-02	 2.217443e+01
1	 1.213113e+00	 6.428267e-02	 2.206632e+01
1	 1.222222e+00	 0.000000e+00	 2.276513e+01
1	 1.222155e+00	 1.283106e-02	 2.250033e+01
1	 1.221952e+00	 2.571591e-02	 2.227728e+01
1	 1.221611e+00	 3.865271e-02	 2.209379e+01
1	 1.221131e+00	 5.163960e-02	 2.194764e+01
1	 1.220510e+00	 6.467464e-02	 2.183656e+01
1	 1.183525e+00	 6.271480e-02	 2.301772e+01
1	 1.182784e+00	 7.539962e-02	 2.294729e+01
1	 1.181904e+00	 8.812724e-02	 2.290410e+01
1	 1.180883e+00	 1.008957e-01	 2.288584e+01
1	 1.179718e+00	 1.137028e-01	 2.289021e+01
1	 1.178410e+00	 1.265466e-01	 2.291491e+01
1	 1.190922e+00	 6.310677e-02	 2.277469e+01
1	 1.190177e+00	 7.587086e-02	 2.270358e+01
1	 1.189291e+00	 8.867804e-02	 2.266090e+01
1	 1.188263e+00	 1.015263e-01	 2.264429e+01
1	 1.187092e+00	 1.144135e-01	 2.265139e+01
1	 1.185775e+00	 1.273375e-01	 2.267981e+01
1	 1.198319e+00	 6.349873e-02	 2.253522e+01
1	 1.197569e+00	 7.634211e-02	 2.246309e+01
1	 1.196678e+00	 8.922883e-02	 2.242053e+01
1	 1.195644e+00	 1.021569e-01	 2.240514e+01
1	 1.194465e+00	 1.151241e-01	 2.241448e+01
1	 1.193140e+00	 1.281284e-01	 2.244613e+01
1	 1.205716e+00	 6.389070e-02	 2.229915e+01
1	 1.204962e+00	 7.681336e-02	 2.222567e+01
1	 1.204065e+00	 8.977963e-02	 2.218285e+01
1	 1.203024e+00	 1.027875e-01	 2.216824e+01
1	 1.201838e+00	 1.158347e-01	 2.217936e+01
1	 1.200505e+00	 1.289193e-01	 2.221374e+01
1	 1.213113e+00	 6.428267e-02	 2.206632e+01
1	 1.212354e+00	 7.728461e-02	 2.199117e+01
1	 1.211452e+00	 9.033042e-02	 2.194772e+01
1	 1.210405e+00	 1.034181e-01	 2.193347e+01
1	 1.209211e+00	 1.165454e-01	 2.194592e+01
1	 1.207870e+00	 1.297102e-01	 2.198255e+01
1	 1.220510e+00	 6.467464e-02	 2.183656e+01
1	 1.219746e+00	 7.775585e-02	 2.175943e+01
1	 1.218839e+00	 9.088122e-02	 2.171498e+01
1	 1.217785e+00	 1.040487e-01	 2.170069e+01
1	 1.216585e+00	 1.172560e-01	 2.171402e+01
1	 1.215235e+00	 1.305012e-01	 2.175243e+01
1	 1.178410e+00	 1.265466e-01	 2.291491e+01
1	 1.176956e+00	 1.394248e-01	 2.295888e+01
1	 1.175354e+00	 1.523352e-01	 2.302105e+01
1	 1.173605e+00	 1.652757e-01	 2.309910e+01
1	 1.171705e+00	 1.782438e-01	 2.319075e+01
1	 1.169655e+00	 1.912373e-01	 2.329378e+01
1	 1.185775e+00	 1.273375e-01	 2.267981e+01
1	 1.184312e+00	 1.402962e-01	 2.272859e+01
1	 1.182700e+00	 1.532873e-01	 2.279673e+01
1	 1.180940e+00	 1.663087e-01	 2.288190e+01
1	 1.179028e+00	 1.793578e-01	 2.298180e+01
1	 1.176965e+00	 1.924325e-01	 2.309415e+01
1	 1.193140e+00	 1.281284e-01	 2.244613e+01
1	 1.191668e+00	 1.411676e-01	 2.249918e+01
1	 1.190046e+00	 1.542394e-01	 2.257274e+01
1	 1.188275e+00	 1.673416e-01	 2.266444e+01
1	 1.186352e+00	 1.804719e-01	 2.277196e+01
1	 1.184275e+00	 1.936277e-01	 2.289299e+01
1	 1.200505e+00	 1.289193e-01	 2.221374e+01
1	 1.199024e+00	 1.420390e-01	 2.227055e+01
1	 1.197392e+00	 1.551915e-01	 2.234898e+01
1	 1.195610e+00	 1.683746e-01	 2.244663e+01
1	 1.193675e+00	 1.815859e-01	 2.256115e+01
1	 1.191586e+00	 1.948230e-01	 2.269019e+01
1	 1.207870e+00	 1.297102e-01	 2.198255e+01
1	 1.206380e+00	 1.429104e-01	 2.204260e+01
1	 1.204738e+00	 1.561436e-01	 2.212535e+01
1	 1.202945e+00	 1.694076e-01	 2.222837e+01
1	 1.200998e+00	 1.826999e-01	 2.234926e+01
1	 1.198896e+00	 1.960182e-01	 2.248565e+01
1	 1.215235e+00	 1.305012e-01	 2.175243e+01
1	 1.213736e+00	 1.437818e-01	 2.181523e+01
1	 1.212084e+00	 1.570957e-01	 2.190177e+01
1	 1.210280e+00	 1.704405e-01	 2.200958e+01
1	 1.208321e+00	 1.838139e-01	 2.213621e+01
1	 1.206206e+00	 1.972134e-01	 2.227926e+01
1	 1.169655e+00	 1.912373e-01	 2.329378e+01
1	 1.167452e+00	 2.042537e-01	 2.340362e+01
1	 1.165096e+00	 2.172906e-01	 2.351588e+01
1	 1.162585e+00	 2.303455e-01	 2.362860e+01
1	 1.159919e+00	 2.434159e-01	 2.373991e+01
1	 1.157096e+00	 2.564993e-01	 2.384797e+01
1	 1.176965e+00	 1.924325e-01	 2.309415e+01
1	 1.174749e+00	 2.055302e-01	 2.321427e+01
1	 1.172378e+00	 2.186486e-01	 2.333756e+01
1	 1.169852e+00	 2.317851e-01	 2.346202e+01
1	 1.167169e+00	 2.449373e-01	 2.358568e+01
1	 1.164328e+00	 2.581024e-01	 2.370665e+01
1	 1.184275e+00	 1.936277e-01	 2.289299e+01
1	 1.182045e+00	 2.068068e-01	 2.302269e+01
1	 1.179660e+00	 2.200067e-01	 2.315628e+01
1	 1.177118e+00	 2.332248e-01	 2.329170e+01
1	 1.174418e+00	 2.464586e-01	 2.342694e+01
1	 1.171560e+00	 2.597055e-01	 2.356003e+01
1	 1.191586e+00	 1.948230e-01	 2.269019e+01
1	 1.189342e+00	 2.080834e-01	 2.282876e+01
1	 1.186942e+00	 2.213648e-01	 2.297192e+01
1	 1.184384e+00	 2.346645e-01	 2.311755e+01
1	 1.181668e+00	 2.479800e-01	 2.326358e+01
1	 1.178792e+00	 2.613086e-01	 2.340802e+01
1	 1.198896e+00	 1.960182e-01	 2.248565e+01
1	 1.196638e+00	 2.093600e-01	 2.263237e+01
1	 1.194223e+00	 2.227228e-01	 2.278435e+01
1	 1.191650e+00	 2.361041e-01	 2.293943e+01
1	 1.188917e+00	 2.495013e-01	 2.309551e+01
1	 1.186024e+00	 2.629118e-01	 2.325052e+01
1	 1.206206e+00	 1.972134e-01	 2.227926e+01
1	 1.203935e+00	 2.106366e-01	 2.243342e+01
1	 1.201505e+00	 2.240809e-01	 2.259348e+01
1	 1.198916e+00	 2.375438e-01	 2.275726e+01
1	 1.196167e+00	 2.510227e-01	 2.292261e+01
1	 1.193256e+00	 2.645149e-01	 2.308744e+01
1	 1.157096e+00	 2.564993e-01	 2.384797e+01
1	 1.154116e+00	 2.695930e-01	 2.395123e+01
1	 1.150977e+00	 2.826943e-01	 2.404861e+01
1	 1.147678e+00	 2.958007e-01	 2.413908e+01
1	 1.144220e+00	 3.089094e-01	 2.422181e+01
1	 1.140600e+00	 3.220177e-01	 2.429615e+01
1	 1.164328e+00	 2.581024e-01	 2.370665e+01
1	 1.161329e+00	 2.712779e-01	 2.382375e+01
1	 1.158171e+00	 2.844612e-01	 2.393630e+01
1	 1.154851e+00	 2.976495e-01	 2.404327e+01
1	 1.151371e+00	 3.108401e-01	 2.414381e+01
1	 1.147729e+00	 3.240303e-01	 2.423721e+01
1	 1.171560e+00	 2.597055e-01	 2.356003e+01
1	 1.168542e+00	 2.729629e-01	 2.369013e+01
1	 1.165364e+00	 2.862280e-01	 2.381689e+01
1	 1.162024e+00	 2.994982e-01	 2.393924e+01
1	 1.158523e+00	 3.127708e-01	 2.405628e+01
1	 1.154858e+00	 3.260429e-01	 2.416725e+01
1	 1.178792e+00	 2.613086e-01	 2.340802e+01
1	 1.175756e+00	 2.746478e-01	 2.355031e+01
1	 1.172558e+00	 2.879949e-01	 2.369038e+01
1	 1.169197e+00	 3.013470e-01	 2.382711e+01
1	 1.165674e+00	 3.147015e-01	 2.395949e+01
1	 1.161986e+00	 3.280555e-01	 2.408670e+01
1	 1.186024e+00	 2.629118e-01	 2.325052e+01
1	 1.182969e+00	 2.763328e-01	 2.340422e+01
1	 1.179751e+00	 2.897617e-01	 2.355678e+01
1	 1.176370e+00	 3.031958e-01	 2.370697e+01
1	 1.172825e+00	 3.166322e-01	 2.385369e+01
1	 1.169115e+00	 3.300681e-01	 2.399601e+01
1	 1.193256e+00	 2.645149e-01	 2.308744e+01
1	 1.190182e+00	 2.780177e-01	 2.325180e+01
1	 1.186945e+00	 2.915285e-01	 2.341609e+01
1	 1.183543e+00	 3.050445e-01	 2.357893e+01
1	 1.179977e+00	 3.185628e-01	 2.373912e+01
1	 1.176244e+00	 3.320807e-01	 2.389559e+01
1	 1.140600e+00	 3.220177e-01	 2.429615e+01
1	 1.136819e+00	 3.351226e-01	 2.434601e+01
1	 1.132875e+00	 3.482216e-01	 2.435643e+01
1	 1.128768e+00	 3.613116e-01	 2.432843e+01
1	 1.124498e+00	 3.743898e-01	 2.426297e+01
1	 1.120064e+00	 3.874533e-01	 2.416091e+01
1	 1.147729e+00	 3.240303e-01	 2.423721e+01
1	 1.143924e+00	 3.372172e-01	 2.430566e+01
1	 1.139955e+00	 3.503979e-01	 2.433226e+01
1	 1.135823e+00	 3.635698e-01	 2.431783e+01
1	 1.131526e+00	 3.767297e-01	 2.426311e+01
1	 1.127065e+00	 3.898749e-01	 2.416879e+01
1	 1.154858e+00	 3.260429e-01	 2.416725e+01
1	 1.151029e+00	 3.393117e-01	 2.425273e+01
1	 1.147036e+00	 3.525743e-01	 2.429422e+01
1	 1.142878e+00	 3.658280e-01	 2.429242e+01
1	 1.138554e+00	 3.790697e-01	 2.424798e+01
1	 1.134065e+00	 3.922965e-01	 2.416151e+01
1	 1.161986e+00	 3.280555e-01	 2.408670e+01
1	 1.158134e+00	 3.414062e-01	 2.418781e+01
1	 1.154116e+00	 3.547507e-01	 2.424286e+01
1	 1.149933e+00	 3.680862e-01	 2.425258e+01
1	 1.145583e+00	 3.814096e-01	 2.421764e+01
1	 1.141065e+00	 3.947181e-01	 2.413867e+01
1	 1.169115e+00	 3.300681e-01	 2.399601e+01
1	 1.165239e+00	 3.435007e-01	 2.411147e+01
1	 1.161197e+00	 3.569271e-01	 2.417875e+01
1	 1.156988e+00	 3.703444e-01	 2.419872e+01
1	 1.152611e+00	 3.837495e-01	 2.417219e+01
1	 1.148066e+00	 3.971397e-01	 2.409990e+01
1	 1.176244e+00	 3.320807e-01	 2.389559e+01
1	 1.172344e+00	 3.455952e-01	 2.402425e+01
1	 1.168277e+00	 3.591035e-01	 2.410241e+01
1	 1.164042e+00	 3.726026e-01	 2.413120e+01
1	 1.159639e+00	 3.860895e-01	 2.411168e+01
1	 1.155066e+00	 3.995612e-01	 2.404481e+01
1	 1.120064e+00	 3.874533e-01	 2.416091e+01
1	 1.115466e+00	 4.004992e-01	 2.399452e+01
1	 1.110703e+00	 4.135246e-01	 2.373746e+01
1	 1.105775e+00	 4.265263e-01	 2.339255e+01
1	 1.100683e+00	 4.395015e-01	 2.296256e+01
1	 1.095425e+00	 4.524472e-01	 2.245017e+01
1	 1.127065e+00	 3.898749e-01	 2.416879e+01
1	 1.122438e+00	 4.030023e-01	 2.400687e+01
1	 1.117645e+00	 4.161091e-01	 2.375098e+01
1	 1.112686e+00	 4.291921e-01	 2.340408e+01
1	 1.107562e+00	 4.422484e-01	 2.296909e+01
1	 1.102271e+00	 4.552750e-01	 2.244886e+01
1	 1.134065e+00	 3.922965e-01	 2.416151e+01
1	 1.129409e+00	 4.055055e-01	 2.400484e+01
1	 1.124587e+00	 4.186936e-01	 2.375147e+01
1	 1.119598e+00	 4.318579e-01	 2.340437e+01
1	 1.114441e+00	 4.449953e-01	 2.296653e+01
1	 1.109118e+00	 4.581028e-01	 2.244088e+01
1	 1.141065e+00	 3.947181e-01	 2.413867e+01
1	 1.136381e+00	 4.080086e-01	 2.398751e+01
1	 1.131529e+00	 4.212781e-01	 2.373755e+01
1	 1.126509e+00	 4.345237e-01	 2.339170e+01
1	 1.121320e+00	 4.477422e-01	 2.295288e+01
1	 1.115964e+00	 4.609306e-01	 2.242403e+01
1	 1.148066e+00	 3.971397e-01	 2.409990e+01
1	 1.143353e+00	 4.105117e-01	 2.395399e+01
1	 1.138471e+00	 4.238627e-01	 2.370790e+01
1	 1.133420e+00	 4.371895e-01	 2.336437e+01
1	 1.128200e+00	 4.504891e-01	 2.292618e+01
1	 1.122810e+00	 4.637584e-01	 2.239615e+01
1	 1.155066e+00	 3.995612e-01	 2.404481e+01
1	 1.150324e+00	 4.130148e-01	 2.390340e+01
1	 1.145413e+00	 4.264472e-01	 2.366123e+01
1	 1.140331e+00	 4.398553e-01	 2.332075e+01
1	 1.135079e+00	 4.532360e-01	 2.288452e+01
1	 1.129657e+00	 4.665862e-01	 2.235516e+01
1	 1.095425e+00	 4.524472e-01	 2.245017e+01
1	 1.090002e+00	 4.653603e-01	 2.186781e+01
1	 1.084414e+00	 4.782377e-01	 2.122693e+01
1	 1.078660e+00	 4.910764e-01	 2.052865e+01
1	 1.072742e+00	 5.038733e-01	 1.977396e+01
1	 1.066659e+00	 5.166254e-01	 1.896373e+01
1	 1.102271e+00	 4.552750e-01	 2.244886e+01
1	 1.096814e+00	 4.682688e-01	 2.185589e+01
1	 1.091191e+00	 4.812266e-01	 2.120186e+01
1	 1.085402e+00	 4.941456e-01	 2.048818e+01
1	 1.079447e+00	 5.070225e-01	 1.971613e+01
1	 1.073326e+00	 5.198543e-01	 1.888682e+01
1	 1.109118e+00	 4.581028e-01	 2.244088e+01
1	 1.103627e+00	 4.711773e-01	 2.183956e+01
1	 1.097969e+00	 4.842156e-01	 2.117402e+01
1	 1.092144e+00	 4.972148e-01	 2.044591e+01
1	 1.086151e+00	 5.101717e-01	 1.965673e+01
1	 1.079993e+00	 5.230832e-01	 1.880775e+01
1	 1.115964e+00	 4.609306e-01	 2.242403e+01
1	 1.110439e+00	 4.740858e-01	 2.181656e+01
1	 1.104746e+00	 4.872046e-01	 2.114130e+01
1	 1.098885e+00	 5.002840e-01	 2.040009e+01
1	 1.092856e+00	 5.133209e-01	 1.959455e+01
1	 1.086659e+00	 5.263121e-01	 1.872613e+01
1	 1.122810e+00	 4.637584e-01	 2.239615e+01
1	 1.117252e+00	 4.769943e-01	 2.178469e+01
1	 1.111524e+00	 4.901936e-01	 2.110166e+01
1	 1.105627e+00	 5.033533e-01	 2.034900e+01
1	 1.099561e+00	 5.164701e-01	 1.952846e+01
1	 1.093326e+00	 5.295410e-01	 1.864155e+01
1	 1.129657e+00	 4.665862e-01	 2.235516e+01
1	 1.124064e+00	 4.799028e-01	 2.174178e+01
1	 1.118301e+00	 4.931826e-01	 2.105307e+01
1	 1.112368e+00	 5.064225e-01	 2.029098e+01
1	 1.106265e+00	 5.196193e-01	 1.945730e+01
1	 1.099992e+00	 5.327699e-01	 1.855361e+01
1	 1.066659e+00	 5.166254e-01	 1.896373e+01
1	 1.060412e+00	 5.293295e-01	 1.810601e+01
1	 1.054001e+00	 5.419826e-01	 1.720807e+01
1	 1.047427e+00	 5.545816e-01	 1.626949e+01
1	 1.040690e+00	 5.671234e-01	 1.528976e+01
1	 1.033790e+00	 5.796049e-01	 1.426834e+01
1	 1.073326e+00	 5.198543e-01	 1.888682e+01
1	 1.067040e+00	 5.326378e-01	 1.800903e+01
1	 1.060589e+00	 5.453700e-01	 1.709050e+01
1	 1.053973e+00	 5.580478e-01	 1.613052e+01
1	 1.047194e+00	 5.706680e-01	 1.512838e+01
1	 1.040251e+00	 5.832275e-01	 1.408327e+01
1	 1.079993e+00	 5.230832e-01	 1.880775e+01
1	 1.073667e+00	 5.359461e-01	 1.790884e+01
1	 1.067176e+00	 5.487574e-01	 1.696857e+01
1	 1.060520e+00	 5.615139e-01	 1.598616e+01
1	 1.053698e+00	 5.742125e-01	 1.496076e+01
1	 1.046713e+00	 5.868500e-01	 1.389148e+01
1	 1.086659e+00	 5.263121e-01	 1.872613e+01
1	 1.080295e+00	 5.392544e-01	 1.780577e+01
1	 1.073764e+00	 5.521448e-01	 1.684311e+01
1	 1.067066e+00	 5.649800e-01	 1.583742e+01
1	 1.060203e+00	 5.777570e-01	 1.478788e+01
1	 1.053174e+00	 5.904725e-01	 1.369357e+01
1	 1.093326e+00	 5.295410e-01	 1.864155e+01
1	 1.086923e+00	 5.425627e-01	 1.770015e+01
1	 1.080351e+00	 5.555322e-01	 1.671492e+01
1	 1.073613e+00	 5.684462e-01	 1.568531e+01
1	 1.066707e+00	 5.813015e-01	 1.461065e+01
1	 1.059635e+00	 5.940951e-01	 1.349014e+01
1	 1.099992e+00	 5.327699e-01	 1.855361e+01
1	 1.093550e+00	 5.458710e-01	 1.759230e+01
1	 1.086939e+00	 5.589196e-01	 1.658476e+01
1	 1.080159e+00	 5.719123e-01	 1.553079e+01
1	 1.073211e+00	 5.848460e-01	 1.443000e+01
1	 1.066096e+00	 5.977176e-01	 1.328179e+01
1	 1.033790e+00	 5.796049e-01	 1.426834e+01
1	 1.026729e+00	 5.920231e-01	 1.322130e+01
1	 1.019507e+00	 6.043748e-01	 1.216515e+01
1	 1.012125e+00	 6.166570e-01	 1.110001e+01
1	 1.004585e+00	 6.288667e-01	 1.002593e+01
1	 9.968861e-01	 6.410008e-01	 8.942991e+00
1	 1.040251e+00	 5.832275e-01	 1.408327e+01
1	 1.033146e+00	 5.957233e-01	 1.301138e+01
1	 1.025879e+00	 6.081522e-01	 1.192953e+01
1	 1.018451e+00	 6.205112e-01	 1.083790e+01
1	 1.010863e+00	 6.327971e-01	 9.736639e+00
1	 1.003117e+00	 6.450071e-01	 8.625854e+00
1	 1.046713e+00	 5.868500e-01	 1.389148e+01
1	 1.039563e+00	 5.994234e-01	 1.279447e+01
1	 1.032251e+00	 6.119295e-01	 1.168664e+01
1	 1.024777e+00	 6.243653e-01	 1.056809e+01
1	 1.017142e+00	 6.367276e-01	 9.438892e+00
1	 1.009347e+00	 6.490133e-01	 8.299069e+00
1	 1.053174e+00	 5.904725e-01	 1.369357e+01
1	 1.045980e+00	 6.031235e-01	 1.257077e+01
1	 1.038623e+00	 6.157069e-01	 1.143636e+01
1	 1.031103e+00	 6.282194e-01	 1.029024e+01
1	 1.023421e+00	 6.406580e-01	 9.132269e+00
1	 1.015578e+00	 6.530196e-01	 7.962256e+00
1	 1.059635e+00	 5.940951e-01	 1.349014e+01
1	 1.052397e+00	 6.068237e-01	 1.234045e+01
1	 1.044995e+00	 6.194842e-01	 1.117856e+01
1	 1.037429e+00	 6.320735e-01	 1.000403e+01
1	 1.029699e+00	 6.445884e-01	 8.816364e+00
1	 1.021808e+00	 6.570258e-01	 7.615043e+00
1	 1.066096e+00	 5.977176e-01	 1.328179e+01
1	 1.058814e+00	 6.105238e-01	 1.210368e+01
1	 1.051367e+00	 6.232615e-01	 1.091311e+01
1	 1.043754e+00	 6.359276e-01	 9.709132e+00
1	 1.035978e+00	 6.485188e-01	 8.490778e+00
1	 1.028039e+00	 6.610321e-01	 7.257067e+00
1	 9.968861e-01	 6.410008e-01	 8.942991e+00
1	 9.890305e-01	 6.530563e-01	 7.864665e+00
1	 9.810193e-01	 6.650302e-01	 6.803798e+00
1	 9.728535e-01	 6.769195e-01	 5.759528e+00
1	 9.645346e-01	 6.887213e-01	 4.731012e+00
1	 9.560638e-01	 7.004326e-01	 3.717428e+00
1	 1.003117e+00	 6.450071e-01	 8.625854e+00
1	 9.952120e-01	 6.571379e-01	 7.519319e+00
1	 9.871506e-01	 6.691866e-01	 6.429992e+00
1	 9.789338e-01	 6.811502e-01	 5.356754e+00
1	 9.705629e-01	 6.930258e-01	 4.298513e+00
1	 9.620392e-01	 7.048103e-01	 3.254207e+00
1	 1.009347e+00	 6.490133e-01	 8.299069e+00
1	 1.001393e+00	 6.612195e-01	 7.162777e+00
1	 9.932820e-01	 6.733431e-01	 6.043365e+00
1	 9.850142e-01	 6.853810e-01	 4.939644e+00
1	 9.765912e-01	 6.973303e-01	 3.850469e+00
1	 9.680146e-01	 7.091880e-01	 2.774736e+00
1	 1.015578e+00	 6.530196e-01	 7.962256e+00
1	 1.007575e+00	 6.653011e-01	 6.794772e+00
1	 9.994134e-01	 6.774995e-01	 5.643790e+00
1	 9.910945e-01	 6.896117e-01	 4.508243e+00
1	 9.826196e-01	 7.016348e-01	 3.387120e+00
1	 9.739900e-01	 7.135657e-01	 2.279468e+00
1	 1.021808e+00	 6.570258e-01	 7.615043e+00
1	 1.013756e+00	 6.693827e-01	 6.415041e+00
1	 1.005545e+00	 6.816559e-01	 5.231147e+00
1	 9.971748e-01	 6.938425e-01	 4.062596e+00
1	 9.886479e-01	 7.059393e-01	 2.908698e+00
1	 9.799654e-01	 7.179434e-01	 1.768842e+00
1	 1.028039e+00	 6.610321e-01	 7.257067e+00
1	 1.019938e+00	 6.734643e-01	 6.023330e+00
1	 1.011676e+00	 6.858124e-01	 4.805317e+00
1	 1.003255e+00	 6.980732e-01	 3.602746e+00
1	 9.946763e-01	 7.102438e-01	 2.415431e+00
1	 9.859408e-01	 7.223211e-01	 1.243288e+00
1	 9.560638e-01	 7.004326e-01	 3.717428e+00
1	 9.474428e-01	 7.120506e-01	 2.737873e+00
1	 9.386730e-01	 7.235723e-01	 1.814932e+00
1	 9.297560e-01	 7.349950e-01	 9.533742e-01
1	 9.206935e-01	 7.463159e-01	 1.584132e-01
1	 9.114872e-01	 7.575321e-01	-5.642987e-01
1	 9.620392e-01	 7.048103e-01	 3.254207e+00
1	 9.533643e-01	 7.165009e-01	 2.245224e+00
1	 9.445397e-01	 7.280947e-01	 1.296930e+00
1	 9.355670e-01	 7.395888e-01	 4.146167e-01
1	 9.264478e-01	 7.509804e-01	-3.959381e-01
1	 9.171840e-01	 7.622667e-01	-1.128486e+00
1	 9.680146e-01	 7.091880e-01	 2.774736e+00
1	 9.592859e-01	 7.209512e-01	 1.736355e+00
1	 9.504064e-01	 7.326170e-01	 7.634390e-01
1	 9.413779e-01	 7.441825e-01	-1.383939e-01
1	 9.322022e-01	 7.556448e-01	-9.630142e-01
1	 9.228808e-01	 7.670013e-01	-1.703796e+00
1	 9.739900e-01	 7.135657e-01	 2.279468e+00
1	 9.652074e-01	 7.254015e-01	 1.211890e+00
1	 9.562731e-01	 7.371393e-01	 2.151626e-01
1	 9.471889e-01	 7.487762e-01	-7.049675e-01
1	 9.379565e-01	 7.603093e-01	-1.542225e+00
1	 9.285776e-01	 7.717359e-01	-2.289821e+00
1	 9.799654e-01	 7.179434e-01	 1.768842e+00
1	 9.711289e-01	 7.298518e-01	 6.724383e-01
1	 9.621398e-01	 7.416616e-01	-3.472141e-01
1	 9.529999e-01	 7.533699e-01	-1.284431e+00
1	 9.437108e-01	 7.649738e-01	-2.132995e+00
1	 9.342744e-01	 7.764704e-01	-2.886166e+00
1	 9.859408e-01	 7.223211e-01	 1.243288e+00
1	 9.770504e-01	 7.343022e-01	 1.185930e-01
1	 9.680065e-01	 7.461840e-01	-9.230223e-01
1	 9.588109e-01	 7.579636e-01	-1.876129e+00
1	 9.494652e-01	 7.696383e-01	-2.734763e+00
1	 9.399712e-01	 7.812050e-01	-3.492441e+00
1	 9.114872e-01	 7.575321e-01	-5.642987e-01
1	 9.021390e-01	 7.686411e-01	-1.215942e+00
1	 8.926508e-01	 7.796400e-01	-1.801612e+00
1	 8.830244e-01	 7.905263e-01	-2.321222e+00
1	 8.732620e-01	 8.012973e-01	-2.774701e+00
1	 8.633656e-01	 8.119506e-01	-3.161997e+00
1	 9.171840e-01	 7.622667e-01	-1.128486e+00
1	 9.077774e-01	 7.734451e-01	-1.786143e+00
1	 8.982299e-01	 7.845127e-01	-2.376625e+00
1	 8.885433e-01	 7.954670e-01	-2.900277e+00
1	 8.787199e-01	 8.063054e-01	-3.357496e+00
1	 8.687616e-01	 8.170253e-01	-3.748727e+00
1	 9.228808e-01	 7.670013e-01	-1.703796e+00
1	 9.134158e-01	 7.782491e-01	-2.366250e+00
1	 9.038089e-01	 7.893855e-01	-2.960921e+00
1	 8.940622e-01	 8.004078e-01	-3.488425e+00
1	 8.841778e-01	 8.113135e-01	-3.949459e+00
1	 8.741576e-01	 8.221000e-01	-4.344790e+00
1	 9.285776e-01	 7.717359e-01	-2.289821e+00
1	 9.190541e-01	 7.830531e-01	-2.956040e+00
1	 9.093880e-01	 7.942582e-01	-3.554381e+00
1	 8.995811e-01	 8.053486e-01	-4.085578e+00
1	 8.896357e-01	 8.163216e-01	-4.550458e+00
1	 8.795537e-01	 8.271747e-01	-4.949944e+00
1	 9.342744e-01	 7.764704e-01	-2.886166e+00
1	 9.246925e-01	 7.878571e-01	-3.555294e+00
1	 9.149671e-01	 7.991310e-01	-4.156890e+00
1	 9.051001e-01	 8.102894e-01	-4.691647e+00
1	 8.950936e-01	 8.213297e-01	-5.160366e+00
1	 8.849497e-01	 8.322494e-01	-5.563953e+00
1	 9.399712e-01	 7.812050e-01	-3.492441e+00
1	 9.303309e-01	 7.926611e-01	-4.163800e+00
1	 9.205461e-01	 8.040037e-01	-4.768336e+00
1	 9.106190e-01	 8.152302e-01	-5.306550e+00
1	 9.005514e-01	 8.263379e-01	-5.779058e+00
1	 8.903458e-01	 8.373241e-01	-6.186585e+00
1	 8.633656e-01	 8.119506e-01	-3.161997e+00
1	 8.533373e-01	 8.224837e-01	-3.515493e+00
1	 8.431794e-01	 8.328940e-01	-3.865992e+00
1	 8.328940e-01	 8.431794e-01	-4.211087e+00
1	 8.224837e-01	 8.533373e-01	-4.548372e+00
1	 8.119506e-01	 8.633656e-01	-4.875444e+00
1	 8.687616e-01	 8.170253e-01	-3.748727e+00
1	 8.586707e-01	 8.276242e-01	-4.106749e+00
1	 8.484492e-01	 8.380996e-01	-4.462329e+00
1	 8.380996e-01	 8.484492e-01	-4.812919e+00
1	 8.276242e-01	 8.586707e-01	-5.155967e+00
1	 8.170253e-01	 8.687616e-01	-5.488911e+00
1	 8.741576e-01	 8.221000e-01	-4.344790e+00
1	 8.640040e-01	 8.327647e-01	-4.707301e+00
1	 8.537191e-01	 8.433052e-01	-5.067651e+00
1	 8.433052e-01	 8.537191e-01	-5.423328e+00
1	 8.327647e-01	 8.640040e-01	-5.771804e+00
1	 8.221000e-01	 8.741576e-01	-6.110548e+00
1	 8.795537e-01	 8.271747e-01	-4.949944e+00
1	 8.693374e-01	 8.379052e-01	-5.316801e+00
1	 8.589890e-01	 8.485108e-01	-5.681591e+00
1	 8.485108e-01	 8.589890e-01	-6.041997e+00
1	 8.379052e-01	 8.693374e-01	-6.395697e+00
1	 8.271747e-01	 8.795537e-01	-6.740366e+00
1	 8.849497e-01	 8.322494e-01	-5.563953e+00
1	 8.746707e-01	 8.430458e-01	-5.934913e+00
1	 8.642588e-01	 8.537164e-01	-6.303787e+00
1	 8.537164e-01	 8.642588e-01	-6.668621e+00
1	 8.430458e-01	 8.746707e-01	-7.027464e+00
1	 8.322494e-01	 8.849497e-01	-7.378377e+00
1	 8.903458e-01	 8.373241e-01	-6.186585e+00
1	 8.800041e-01	 8.481863e-01	-6.561306e+00
1	 8.695287e-01	 8.589220e-01	-6.933888e+00
1	 8.589220e-01	 8.695287e-01	-7.302898e+00
1	 8.481863e-01	 8.800041e-01	-7.666926e+00
1	 8.373241e-01	 8.903458e-01	-8.024593e+00
1	 8.119506e-01	 8.633656e-01	-4.875444e+00
1	 8.012973e-01	 8.732620e-01	-5.221086e+00
1	 7.905263e-01	 8.830244e-01	-5.616605e+00
1	 7.796400e-01	 8.926508e-01	-6.063522e+00
1	 7.686411e-01	 9.021390e-01	-6.563529e+00
1	 7.575321e-01	 9.114872e-01	-7.118481e+00
1	 8.170253e-01	 8.687616e-01	-5.488911e+00
1	 8.063054e-01	 8.787199e-01	-5.841471e+00
1	 7.954670e-01	 8.885433e-01	-6.245828e+00
1	 7.845127e-01	 8.982299e-01	-6.703241e+00
1	 7.734451e-01	 9.077774e-01	-7.215131e+00
1	 7.622667e-01	 9.171840e-01	-7.783073e+00
1	 8.221000e-01	 8.741576e-01	-6.110548e+00
1	 8.113135e-01	 8.841778e-01	-6.470298e+00
1	 8.004078e-01	 8.940622e-01	-6.883969e+00
1	 7.893855e-01	 9.038089e-01	-7.352396e+00
1	 7.782491e-01	 9.134158e-01	-7.876562e+00
1	 7.670013e-01	 9.228808e-01	-8.457585e+00
1	 8.271747e-01	 8.795537e-01	-6.740366e+00
1	 8.163216e-01	 8.896357e-01	-7.107767e+00
1	 8.053486e-01	 8.995811e-01	-7.531327e+00
1	 7.942582e-01	 9.093880e-01	-8.011303e+00
1	 7.830531e-01	 9.190541e-01	-8.548071e+00
1	 7.717359e-01	 9.285776e-01	-9.142121e+00
1	 8.322494e-01	 8.849497e-01	-7.378377e+00
1	 8.213297e-01	 8.950936e-01	-7.754074e+00
1	 8.102894e-01	 9.051001e-01	-8.188196e+00
1	 7.991310e-01	 9.149671e-01	-8.680269e+00
1	 7.878571e-01	 9.246925e-01	-9.229899e+00
1	 7.764704e-01	 9.342744e-01	-9.836780e+00
1	 8.373241e-01	 8.903458e-01	-8.024593e+00
1	 8.263379e-01	 9.005514e-01	-8.409409e+00
1	 8.152302e-01	 9.106190e-01	-8.854863e+00
1	 8.040037e-01	 9.205461e-01	-9.359593e+00
1	 7.926611e-01	 9.303309e-01	-9.922284e+00
1	 7.812050e-01	 9.399712e-01	-1.054166e+01
1	 7.575321e-01	 9.114872e-01	-7.118481e+00
1	 7.463159e-01	 9.206935e-01	-7.733205e+00
1	 7.349950e-01	 9.297560e-01	-8.415969e+00
1	 7.235723e-01	 9.386730e-01	-9.174184e+00
1	 7.120506e-01	 9.474428e-01	-1.001562e+01
1	 7.004326e-01	 9.560638e-01	-1.094836e+01
1	 7.622667e-01	 9.171840e-01	-7.783073e+00
1	 7.509804e-01	 9.264478e-01	-8.413053e+00
1	 7.395888e-01	 9.355670e-01	-9.114701e+00
1	 7.280947e-01	 9.445397e-01	-9.895442e+00
1	 7.165009e-01	 9.533643e-01	-1.076306e+01
1	 7.048103e-01	 9.620392e-01	-1.172568e+01
1	 7.670013e-01	 9.228808e-01	-8.457585e+00
1	 7.556448e-01	 9.322022e-01	-9.102596e+00
1	 7.441825e-01	 9.413779e-01	-9.822805e+00
1	 7.326170e-01	 9.504064e-01	-1.062584e+01
1	 7.209512e-01	 9.592859e-01	-1.151970e+01
1	 7.091880e-01	 9.680146e-01	-1.251273e+01
1	 7.717359e-01	 9.285776e-01	-9.142121e+00
1	 7.603093e-01	 9.379565e-01	-9.801803e+00
1	 7.487762e-01	 9.471889e-01	-1.054022e+01
1	 7.371393e-01	 9.562731e-01	-1.136539e+01
1	 7.254015e-01	 9.652074e-01	-1.228571e+01
1	 7.135657e-01	 9.739900e-01	-1.330994e+01
1	 7.764704e-01	 9.342744e-01	-9.836780e+00
1	 7.649738e-01	 9.437108e-01	-1.051065e+01
1	 7.533699e-01	 9.529999e-01	-1.126689e+01
1	 7.416616e-01	 9.621398e-01	-1.211410e+01
1	 7.298518e-01	 9.711289e-01	-1.306124e+01
1	 7.179434e-01	 9.799654e-01	-1.411771e+01
1	 7.812050e-01	 9.399712e-01	-1.054166e+01
1	 7.696383e-01	 9.494652e-01	-1.122910e+01
1	 7.579636e-01	 9.588109e-01	-1.200276e+01
1	 7.461840e-01	 9.680065e-01	-1.287196e+01
1	 7.343022e-01	 9.770504e-01	-1.384646e+01
1	 7.223211e-01	 9.859408e-01	-1.493645e+01
1	 7.004326e-01	 9.560638e-01	-1.094836e+01
1	 6.887213e-01	 9.645346e-01	-1.196067e+01
1	 6.769195e-01	 9.728535e-01	-1.303647e+01
1	 6.650302e-01	 9.810193e-01	-1.417755e+01
1	 6.530563e-01	 9.890305e-01	-1.538572e+01
1	 6.410008e-01	 9.968861e-01	-1.666276e+01
1	 7.048103e-01	 9.620392e-01	-1.172568e+01
1	 6.930258e-01	 9.705629e-01	-1.277020e+01
1	 6.811502e-01	 9.789338e-01	-1.387990e+01
1	 6.691866e-01	 9.871506e-01	-1.505771e+01
1	 6.571379e-01	 9.952120e-01	-1.630662e+01
1	 6.450071e-01	 1.003117e+00	-1.762964e+01
1	 7.091880e-01	 9.680146e-01	-1.251273e+01
1	 6.973303e-01	 9.765912e-01	-1.359077e+01
1	 6.853810e-01	 9.850142e-01	-1.473631e+01
1	 6.733431e-01	 9.932820e-01	-1.595303e+01
1	 6.612195e-01	 1.001393e+00	-1.724461e+01
1	 6.490133e-01	 1.009347e+00	-1.861484e+01
1	 7.135657e-01	 9.739900e-01	-1.330994e+01
1	 7.016348e-01	 9.826196e-01	-1.442298e+01
1	 6.896117e-01	 9.910945e-01	-1.560632e+01
1	 6.774995e-01	 9.994134e-01	-1.686388e+01
1	 6.653011e-01	 1.007575e+00	-1.819967e+01
1	 6.530196e-01	 1.015578e+00	-1.961776e+01
1	 7.179434e-01	 9.799654e-01	-1.411771e+01
1	 7.059393e-01	 9.886479e-01	-1.526745e+01
1	 6.938425e-01	 9.971748e-01	-1.649049e+01
1	 6.816559e-01	 1.005545e+00	-1.779064e+01
1	 6.693827e-01	 1.013756e+00	-1.917177e+01
1	 6.570258e-01	 1.021808e+00	-2.063781e+01
1	 7.223211e-01	 9.859408e-01	-1.493645e+01
1	 7.102438e-01	 9.946763e-01	-1.612476e+01
1	 6.980732e-01	 1.003255e+00	-1.738941e+01
1	 6.858124e-01	 1.011676e+00	-1.873368e+01
1	 6.734643e-01	 1.019938e+00	-2.016089e+01
1	 6.610321e-01	 1.028039e+00	-2.167440e+01
1	 6.410008e-01	 9.968861e-01	-1.666276e+01
1	 6.288667e-01	 1.004585e+00	-1.799705e+01
1	 6.166570e-01	 1.012125e+00	-1.937412e+01
1	 6.043748e-01	 1.019507e+00	-2.079141e+01
1	 5.920231e-01	 1.026729e+00	-2.224623e+01
1	 5.796049e-01	 1.033790e+00	-2.373576e+01
1	 6.450071e-01	 1.003117e+00	-1.762964e+01
1	 6.327971e-01	 1.010863e+00	-1.901473e+01
1	 6.205112e-01	 1.018451e+00	-2.044534e+01
1	 6.081522e-01	 1.025879e+00	-2.191752e+01
1	 5.957233e-01	 1.033146e+00	-2.342715e+01
1	 5.832275e-01	 1.040251e+00	-2.496992e+01
1	 6.490133e-01	 1.009347e+00	-1.861484e+01
1	 6.367276e-01	 1.017142e+00	-2.005063e+01
1	 6.243653e-01	 1.024777e+00	-2.153359e+01
1	 6.119295e-01	 1.032251e+00	-2.305932e+01
1	 5.994234e-01	 1.039563e+00	-2.462325e+01
1	 5.868500e-01	 1.046713e+00	-2.622059e+01
1	 6.530196e-01	 1.015578e+00	-1.961776e+01
1	 6.406580e-01	 1.023421e+00	-2.110367e+01
1	 6.282194e-01	 1.031103e+00	-2.263768e+01
1	 6.157069e-01	 1.038623e+00	-2.421592e+01
1	 6.031235e-01	 1.045980e+00	-2.583428e+01
1	 5.904725e-01	 1.053174e+00	-2.748848e+01
1	 6.570258e-01	 1.021808e+00	-2.063781e+01
1	 6.445884e-01	 1.029699e+00	-2.217278e+01
1	 6.320735e-01	 1.037429e+00	-2.375648e+01
1	 6.194842e-01	 1.044995e+00	-2.538644e+01
1	 6.068237e-01	 1.052397e+00	-2.705998e+01
1	 5.940951e-01	 1.059635e+00	-2.877429e+01
1	 6.610321e-01	 1.028039e+00	-2.167440e+01
1	 6.485188e-01	 1.035978e+00	-2.325693e+01
1	 6.359276e-01	 1.043754e+00	-2.488887e+01
1	 6.232615e-01	 1.051367e+00	-2.657004e+01
1	 6.105238e-01	 1.058814e+00	-2.830012e+01
1	 5.977176e-01	 1.066096e+00	-3.007872e+01
1	 5.796049e-01	 1.033790e+00	-2.373576e+01
1	 5.671234e-01	 1.040690e+00	-2.523879e+01
1	 5.545816e-01	 1.047427e+00	-2.673433e+01
1	 5.419826e-01	 1.054001e+00	-2.821973e+01
1	 5.293295e-01	 1.060412e+00	-2.969223e+01
1	 5.166254e-01	 1.066659e+00	-3.114903e+01
1	 5.832275e-01	 1.040251e+00	-2.496992e+01
1	 5.706680e-01	 1.047194e+00	-2.652391e+01
1	 5.580478e-01	 1.053973e+00	-2.806960e+01
1	 5.453700e-01	 1.060589e+00	-2.960610e+01
1	 5.326378e-01	 1.067040e+00	-3.113251e+01
1	 5.198543e-01	 1.073326e+00	-3.264788e+01
1	 5.868500e-01	 1.046713e+00	-2.622059e+01
1	 5.742125e-01	 1.053698e+00	-2.782967e+01
1	 5.615139e-01	 1.060520e+00	-2.943165e+01
1	 5.487574e-01	 1.067176e+00	-3.102576e+01
1	 5.359461e-01	 1.073667e+00	-3.261122e+01
1	 5.230832e-01	 1.079993e+00	-3.418719e+01
1	 5.904725e-01	 1.053174e+00	-2.748848e+01
1	 5.777570e-01	 1.060203e+00	-2.915763e+01
1	 5.649800e-01	 1.067066e+00	-3.082231e+01
1	 5.521448e-01	 1.073764e+00	-3.248025e+01
1	 5.392544e-01	 1.080295e+00	-3.412910e+01
1	 5.263121e-01	 1.086659e+00	-3.576646e+01
1	 5.940951e-01	 1.059635e+00	-2.877429e+01
1	 5.813015e-01	 1.066707e+00	-3.050930e+01
1	 5.684462e-01	 1.073613e+00	-3.224336e+01
1	 5.555322e-01	 1.080351e+00	-3.397108e+01
1	 5.425627e-01	 1.086923e+00	-3.568692e+01
1	 5.295410e-01	 1.093326e+00	-3.738521e+01
1	 5.977176e-01	 1.066096e+00	-3.007872e+01
1	 5.848460e-01	 1.073211e+00	-3.188617e+01
1	 5.719123e-01	 1.080159e+00	-3.369654e+01
1	 5.589196e-01	 1.086939e+00	-3.549973e+01
1	 5.458710e-01	 1.093550e+00	-3.728539e+01
1	 5.327699e-01	 1.099992e+00	-3.904296e+01
1	 5.166254e-01	 1.066659e+00	-3.114903e+01
1	 5.038733e-01	 1.072742e+00	-3.257640e+01
1	 4.910764e-01	 1.078660e+00	-3.395605e+01
1	 4.782377e-01	 1.084414e+00	-3.527808e+01
1	 4.653603e-01	 1.090002e+00	-3.653244e+01
1	 4.524472e-01	 1.095425e+00	-3.770902e+01
1	 5.198543e-01	 1.073326e+00	-3.264788e+01
1	 5.070225e-01	 1.079447e+00	-3.413806e+01
1	 4.941456e-01	 1.085402e+00	-3.558078e+01
1	 4.812266e-01	 1.091191e+00	-3.696274e+01
1	 4.682688e-01	 1.096814e+00	-3.827045e+01
1	 4.552750e-01	 1.102271e+00	-3.949025e+01
1	 5.230832e-01	 1.079993e+00	-3.418719e+01
1	 5.101717e-01	 1.086151e+00	-3.573725e+01
1	 4.972148e-01	 1.092144e+00	-3.723526e+01
1	 4.842156e-01	 1.097969e+00	-3.866569e+01
1	 4.711773e-01	 1.103627e+00	-4.001277e+01
1	 4.581028e-01	 1.109118e+00	-4.126057e+01
1	 5.263121e-01	 1.086659e+00	-3.576646e+01
1	 5.133209e-01	 1.092856e+00	-3.737219e+01
1	 5.002840e-01	 1.098885e+00	-3.891682e+01
1	 4.872046e-01	 1.104746e+00	-4.038372e+01
1	 4.740858e-01	 1.110439e+00	-4.175604e+01
1	 4.609306e-01	 1.115964e+00	-4.301676e+01
1	 5.295410e-01	 1.093326e+00	-3.738521e+01
1	 5.164701e-01	 1.099561e+00	-3.904115e+01
1	 5.033533e-01	 1.105627e+00	-4.062285e+01
1	 4.901936e-01	 1.111524e+00	-4.211371e+01
1	 4.769943e-01	 1.117252e+00	-4.349697e+01
1	 4.637584e-01	 1.122810e+00	-4.475567e+01
1	 5.327699e-01	 1.099992e+00	-3.904296e+01
1	 5.196193e-01	 1.106265e+00	-4.074243e+01
1	 5.064225e-01	 1.112368e+00	-4.235080e+01
1	 4.931826e-01	 1.118301e+00	-4.385263e+01
1	 4.799028e-01	 1.124064e+00	-4.523235e+01
1	 4.665862e-01	 1.129657e+00	-4.647424e+01
1	 4.524472e-01	 1.095425e+00	-3.770902e+01
1	 4.395015e-01	 1.100683e+00	-3.878396e+01
1	 4.265263e-01	 1.105775e+00	-3.973012e+01
1	 4.135246e-01	 1.110703e+00	-4.053228e+01
1	 4.004992e-01	 1.115466e+00	-4.117521e+01
1	 3.874533e-01	 1.120064e+00	-4.164371e+01
1	 4.552750e-01	 1.102271e+00	-3.949025e+01
1	 4.422484e-01	 1.107562e+00	-4.059509e+01
1	 4.291921e-01	 1.112686e+00	-4.155737e+01
1	 4.161091e-01	 1.117645e+00	-4.236253e+01
1	 4.030023e-01	 1.122438e+00	-4.299600e+01
1	 3.898749e-01	 1.127065e+00	-4.344324e+01
1	 4.581028e-01	 1.109118e+00	-4.126057e+01
1	 4.449953e-01	 1.114441e+00	-4.238038e+01
1	 4.318579e-01	 1.119598e+00	-4.334536e+01
1	 4.186936e-01	 1.124587e+00	-4.414224e+01
1	 4.055055e-01	 1.129409e+00	-4.475779e+01
1	 3.922965e-01	 1.134065e+00	-4.517881e+01
1	 4.609306e-01	 1.115964e+00	-4.301676e+01
1	 4.477422e-01	 1.121320e+00	-4.413699e+01
1	 4.345237e-01	 1.126509e+00	-4.509172e+01
1	 4.212781e-01	 1.131529e+00	-4.586966e+01
1	 4.080086e-01	 1.136381e+00	-4.645954e+01
1	 3.947181e-01	 1.141065e+00	-4.685017e+01
1	 4.637584e-01	 1.122810e+00	-4.475567e+01
1	 4.504891e-01	 1.128200e+00	-4.586212e+01
1	 4.371895e-01	 1.133420e+00	-4.679415e+01
1	 4.238627e-01	 1.138471e+00	-4.754306e+01
1	 4.105117e-01	 1.143353e+00	-4.810022e+01
1	 3.971397e-01	 1.148066e+00	-4.845707e+01
1	 4.665862e-01	 1.129657e+00	-4.647424e+01
1	 4.532360e-01	 1.135079e+00	-4.755306e+01
1	 4.398553e-01	 1.140331e+00	-4.845039e+01
1	 4.264472e-01	 1.145413e+00	-4.916077e+01
1	 4.130148e-01	 1.150324e+00	-4.967881e+01
1	 3.995612e-01	 1.155066e+00	-4.999924e+01
1	 3.874533e-01	 1.120064e+00	-4.164371e+01
1	 3.743898e-01	 1.124498e+00	-4.194592e+01
1	 3.613116e-01	 1.128768e+00	-4.209505e+01
1	 3.482216e-01	 1.132875e+00	-4.208359e+01
1	 3.351226e-01	 1.136819e+00	-4.190415e+01
1	 3.220177e-01	 1.140600e+00	-4.154954e+01
1	 3.898749e-01	 1.127065e+00	-4.344324e+01
1	 3.767297e-01	 1.131526e+00	-4.371406e+01
1	 3.635698e-01	 1.135823e+00	-4.382391e+01
1	 3.503979e-01	 1.139955e+00	-4.376688e+01
1	 3.372172e-01	 1.143924e+00	-4.353725e+01
1	 3.240303e-01	 1.147729e+00	-4.312943e+01
1	 3.922965e-01	 1.134065e+00	-4.517881e+01
1	 3.790697e-01	 1.138554e+00	-4.541723e+01
1	 3.658280e-01	 1.142878e+00	-4.549010e+01
1	 3.525743e-01	 1.147036e+00	-4.539210e+01
1	 3.393117e-01	 1.151029e+00	-4.511807e+01
1	 3.260429e-01	 1.154858e+00	-4.466304e+01
1	 3.947181e-01	 1.141065e+00	-4.685017e+01
1	 3.814096e-01	 1.145583e+00	-4.705589e+01
1	 3.680862e-01	 1.149933e+00	-4.709453e+01
1	 3.547507e-01	 1.154116e+00	-4.696031e+01
1	 3.414062e-01	 1.158134e+00	-4.664767e+01
1	 3.280555e-01	 1.161986e+00	-4.615122e+01
1	 3.971397e-01	 1.148066e+00	-4.845707e+01
1	 3.837495e-01	 1.152611e+00	-4.863046e+01
1	 3.703444e-01	 1.156988e+00	-4.863803e+01
1	 3.569271e-01	 1.161197e+00	-4.847258e+01
1	 3.435007e-01	 1.165239e+00	-4.812711e+01
1	 3.300681e-01	 1.169115e+00	-4.759479e+01
1	 3.995612e-01	 1.155066e+00	-4.999924e+01
1	 3.860895e-01	 1.159639e+00	-5.014135e+01
1	 3.726026e-01	 1.164042e+00	-5.012144e+01
1	 3.591035e-01	 1.168277e+00	-4.992992e+01
1	 3.455952e-01	 1.172344e+00	-4.955738e+01
1	 3.320807e-01	 1.176244e+00	-4.899456e+01
1	 3.220177e-01	 1.140600e+00	-4.154954e+01
1	 3.089094e-01	 1.144220e+00	-4.103654e+01
1	 2.958007e-01	 1.147678e+00	-4.039579e+01
1	 2.826943e-01	 1.150977e+00	-3.964112e+01
1	 2.695930e-01	 1.154116e+00	-3.878648e+01
1	 2.564993e-01	 1.157096e+00	-3.784591e+01
1	 3.240303e-01	 1.147729e+00	-4.312943e+01
1	 3.108401e-01	 1.151371e+00	-4.256326e+01
1	 2.976495e-01	 1.154851e+00	-4.187112e+01
1	 2.844612e-01	 1.158171e+00	-4.106655e+01
1	 2.712779e-01	 1.161329e+00	-4.016322e+01
1	 2.581024e-01	 1.164328e+00	-3.917490e+01
1	 3.260429e-01	 1.154858e+00	-4.466304e+01
1	 3.127708e-01	 1.158523e+00	-4.404886e+01
1	 2.994982e-01	 1.162024e+00	-4.330951e+01
1	 2.862280e-01	 1.165364e+00	-4.245846e+01
1	 2.729629e-01	 1.168542e+00	-4.150936e+01
1	 2.597055e-01	 1.171560e+00	-4.047590e+01
1	 3.280555e-01	 1.161986e+00	-4.615122e+01
1	 3.147015e-01	 1.165674e+00	-4.549393e+01
1	 3.013470e-01	 1.169197e+00	-4.471133e+01
1	 2.879949e-01	 1.172558e+00	-4.381710e+01
1	 2.746478e-01	 1.175756e+00	-4.282503e+01
1	 2.613086e-01	 1.178792e+00	-4.174903e+01
1	 3.300681e-01	 1.169115e+00	-4.759479e+01
1	 3.166322e-01	 1.172825e+00	-4.689902e+01
1	 3.031958e-01	 1.176370e+00	-4.607696e+01
1	 2.897617e-01	 1.179751e+00	-4.514268e+01
1	 2.763328e-01	 1.182969e+00	-4.411039e+01
1	 2.629118e-01	 1.186024e+00	-4.299439e+01
1	 3.320807e-01	 1.176244e+00	-4.899456e+01
1	 3.185628e-01	 1.179977e+00	-4.826469e+01
1	 3.050445e-01	 1.183543e+00	-4.740674e+01
1	 2.915285e-01	 1.186945e+00	-4.643542e+01
1	 2.780177e-01	 1.190182e+00	-4.536555e+01
1	 2.645149e-01	 1.193256e+00	-4.421208e+01
1	 2.564993e-01	 1.157096e+00	-3.784591e+01
1	 2.434159e-01	 1.159919e+00	-3.683609e+01
1	 2.303455e-01	 1.162585e+00	-3.577263e+01
1	 2.172906e-01	 1.165096e+00	-3.466810e+01
1	 2.042537e-01	 1.167452e+00	-3.353503e+01
1	 1.912373e-01	 1.169655e+00	-3.238588e+01
1	 2.581024e-01	 1.164328e+00	-3.917490e+01
1	 2.449373e-01	 1.167169e+00	-3.811795e+01
1	 2.317851e-01	 1.169852e+00	-3.700803e+01
1	 2.186486e-01	 1.172378e+00	-3.585788e+01
1	 2.055302e-01	 1.174749e+00	-3.468022e+01
1	 1.924325e-01	 1.176965e+00	-3.348772e+01
1	 2.597055e-01	 1.171560e+00	-4.047590e+01
1	 2.464586e-01	 1.174418e+00	-3.937440e+01
1	 2.332248e-01	 1.177118e+00	-3.822058e+01
1	 2.200067e-01	 1.179660e+00	-3.702734e+01
1	 2.068068e-01	 1.182045e+00	-3.580753e+01
1	 1.936277e-01	 1.184275e+00	-3.457397e+01
1	 2.613086e-01	 1.178792e+00	-4.174903e+01
1	 2.479800e-01	 1.181668e+00	-4.060554e+01
1	 2.346645e-01	 1.184384e+00	-3.941039e+01
1	 2.213648e-01	 1.186942e+00	-3.817657e+01
1	 2.080834e-01	 1.189342e+00	-3.691704e+01
1	 1.948230e-01	 1.191586e+00	-3.564471e+01
1	 2.629118e-01	 1.186024e+00	-4.299439e+01
1	 2.495013e-01	 1.188917e+00	-4.181147e+01
1	 2.361041e-01	 1.191650e+00	-4.057753e+01
1	 2.227228e-01	 1.194223e+00	-3.930564e+01
1	 2.093600e-01	 1.196638e+00	-3.800882e+01
1	 1.960182e-01	 1.198896e+00	-3.670003e+01
1	 2.645149e-01	 1.193256e+00	-4.421208e+01
1	 2.510227e-01	 1.196167e+00	-4.299227e+01
1	 2.375438e-01	 1.198916e+00	-4.172210e+01
1	 2.240809e-01	 1.201505e+00	-4.041465e+01
1	 2.106366e-01	 1.203935e+00	-3.908295e+01
1	 1.972134e-01	 1.206206e+00	-3.773999e+01
1	 1.912373e-01	 1.169655e+00	-3.238588e+01
1	 1.782438e-01	 1.171705e+00	-3.123707e+01
1	 1.652757e-01	 1.173605e+00	-3.010599e+01
1	 1.523352e-01	 1.175354e+00	-2.900644e+01
1	 1.394248e-01	 1.176956e+00	-2.795203e+01
1	 1.265466e-01	 1.178410e+00	-2.695619e+01
1	 1.924325e-01	 1.176965e+00	-3.348772e+01
1	 1.793578e-01	 1.179028e+00	-3.229705e+01
1	 1.663087e-01	 1.180940e+00	-3.112581e+01
1	 1.532873e-01	 1.182700e+00	-2.998784e+01
1	 1.402962e-01	 1.184312e+00	-2.889681e+01
1	 1.273375e-01	 1.185775e+00	-2.786618e+01
1	 1.936277e-01	 1.184275e+00	-3.457397e+01
1	 1.804719e-01	 1.186352e+00	-3.334357e+01
1	 1.673416e-01	 1.188275e+00	-3.213413e+01
1	 1.542394e-01	 1.190046e+00	-3.095957e+01
1	 1.411676e-01	 1.191668e+00	-2.983363e+01
1	 1.281284e-01	 1.193140e+00	-2.876983e+01
1	 1.948230e-01	 1.191586e+00	-3.564471e+01
1	 1.815859e-01	 1.193675e+00	-3.437672e+01
1	 1.683746e-01	 1.195610e+00	-3.313104e+01
1	 1.551915e-01	 1.197392e+00	-3.192171e+01
1	 1.420390e-01	 1.199024e+00	-3.076256e+01
1	 1.289193e-01	 1.200505e+00	-2.966719e+01
1	 1.960182e-01	 1.198896e+00	-3.670003e+01
1	 1.826999e-01	 1.200998e+00	-3.539656e+01
1	 1.694076e-01	 1.202945e+00	-3.411662e+01
1	 1.561436e-01	 1.204738e+00	-3.287434e+01
1	 1.429104e-01	 1.206380e+00	-3.168367e+01
1	 1.297102e-01	 1.207870e+00	-3.055831e+01
1	 1.972134e-01	 1.206206e+00	-3.773999e+01
1	 1.838139e-01	 1.208321e+00	-3.640318e+01
1	 1.704405e-01	 1.210280e+00	-3.509094e+01
1	 1.570957e-01	 1.212084e+00	-3.381752e+01
1	 1.437818e-01	 1.213736e+00	-3.259701e+01
1	 1.305012e-01	 1.215235e+00	-3.144325e+01
1	 1.265466e-01	 1.178410e+00	-2.695619e+01
1	 1.137028e-01	 1.179718e+00	-2.603177e+01
1	 1.008957e-01	 1.180883e+00	-2.519069e+01
1	 8.812724e-02	 1.181904e+00	-2.444457e+01
1	 7.539962e-02	 1.182784e+00	-2.380477e+01
1	 6.271480e-02	 1.183525e+00	-2.328230e+01
1	 1.273375e-01	 1.185775e+00	-2.786618e+01
1	 1.144135e-01	 1.187092e+00	-2.690886e+01
1	 1.015263e-01	 1.188263e+00	-2.603697e+01
1	 8.867804e-02	 1.189291e+00	-2.526238e+01
1	 7.587086e-02	 1.190177e+00	-2.459665e+01
1	 6.310677e-02	 1.190922e+00	-2.405106e+01
1	 1.281284e-01	 1.193140e+00	-2.876983e+01
1	 1.151241e-01	 1.194465e+00	-2.778114e+01
1	 1.021569e-01	 1.195644e+00	-2.687983e+01
1	 8.922883e-02	 1.196678e+00	-2.607795e+01
1	 7.634211e-02	 1.197569e+00	-2.538728e+01
1	 6.349873e-02	 1.198319e+00	-2.481924e+01
1	 1.289193e-01	 1.200505e+00	-2.966719e+01
1	 1.158347e-01	 1.201838e+00	-2.864864e+01
1	 1.027875e-01	 1.203024e+00	-2.771928e+01
1	 8.977963e-02	 1.204065e+00	-2.689132e+01
1	 7.681336e-02	 1.204962e+00	-2.617666e+01
1	 6.389070e-02	 1.205716e+00	-2.558686e+01
1	 1.297102e-01	 1.207870e+00	-3.055831e+01
1	 1.165454e-01	 1.209211e+00	-2.951139e+01
1	 1.034181e-01	 1.210405e+00	-2.855536e+01
1	 9.033042e-02	 1.211452e+00	-2.770250e+01
1	 7.728461e-02	 1.212354e+00	-2.696481e+01
1	 6.428267e-02	 1.213113e+00	-2.635394e+01
1	 1.305012e-01	 1.215235e+00	-3.144325e+01
1	 1.172560e-01	 1.216585e+00	-3.036944e+01
1	 1.040487e-01	 1.217785e+00	-2.938809e+01
1	 9.088122e-02	 1.218839e+00	-2.851152e+01
1	 7.775585e-02	 1.219746e+00	-2.775176e+01
1	 6.467464e-02	 1.220510e+00	-2.712051e+01
1	 6.271480e-02	 1.183525e+00	-2.328230e+01
1	 5.007476e-02	 1.184127e+00	-2.288882e+01
1	 3.748142e-02	 1.184592e+00	-2.263502e+01
1	 2.493664e-02	 1.184923e+00	-2.252998e+01
1	 1.244224e-02	 1.185120e+00	-2.258246e+01
1	 0.000000e+00	 1.185185e+00	-2.280084e+01
1	 6.310677e-02	 1.190922e+00	-2.405106e+01
1	 5.038773e-02	 1.191528e+00	-2.363751e+01
1	 3.771568e-02	 1.191996e+00	-2.336691e+01
1	 2.509249e-02	 1.192329e+00	-2.324852e+01
1	 1.252001e-02	 1.192527e+00	-2.329126e+01
1	 0.000000e+00	 1.192593e+00	-2.350368e+01
1	 6.349873e-02	 1.198319e+00	-2.481924e+01
1	 5.070070e-02	 1.198928e+00	-2.438597e+01
1	 3.794994e-02	 1.199400e+00	-2.409859e+01
1	 2.524835e-02	 1.199734e+00	-2.396656e+01
1	 1.259777e-02	 1.199934e+00	-2.399898e+01
1	 0.000000e+00	 1.200000e+00	-2.420457e+01
1	 6.389070e-02	 1.205716e+00	-2.558686e+01
1	 5.101366e-02	 1.206329e+00	-2.513422e+01
1	 3.818419e-02	 1.206803e+00	-2.483010e+01
1	 2.540420e-02	 1.207140e+00	-2.468416e+01
1	 1.267554e-02	 1.207341e+00	-2.470569e+01
1	 0.000000e+00	 1.207407e+00	-2.490361e+01
1	 6.428267e-02	 1.213113e+00	-2.635394e+01
1	 5.132663e-02	 1.213730e+00	-2.588230e+01
1	 3.841845e-02	 1.214207e+00	-2.556148e+01
1	 2.556006e-02	 1.214546e+00	-2.540136e+01
1	 1.275330e-02	 1.214748e+00	-2.541145e+01
1	 0.000000e+00	 1.214815e+00	-2.560085e+01
1	 6.467464e-02	 1.220510e+00	-2.712051e+01
1	 5.163960e-02	 1.221131e+00	-2.663024e+01
1	 3.865271e-02	 1.221611e+00	-2.629277e+01
1	 2.571591e-02	 1.221952e+00	-2.611823e+01
1	 1.283106e-02	 1.222155e+00	-2.611631e+01
1	 0.000000e+00	 1.222222e+00	-2.629635e+01
1	 1.222222e+00	 0.000000e+00	 2.276513e+01
1	 1.222155e+00	 1.283106e-02	 2.250033e+01
1	 1.221952e+00	 2.571591e-02	 2.227728e+01
1	 1.221611e+00	 3.865271e-02	 2.209379e+01
1	 1.221131e+00	 5.163960e-02	 2.194764e+01
1	 1.220510e+00	 6.467464e-02	 2.183656e+01
1	 1.229630e+00	 0.000000e+00	 2.256443e+01
1	 1.229562e+00	 1.290883e-02	 2.229242e+01
1	 1.229357e+00	 2.587176e-02	 2.206321e+01
1	 1.229015e+00	 3.888697e-02	 2.187458e+01
1	 1.228532e+00	 5.195256e-02	 2.172426e+01
1	 1.227907e+00	 6.506660e-02	 2.160995e+01
1	 1.237037e+00	 0.000000e+00	 2.236757e+01
1	 1.236969e+00	 1.298659e-02	 2.208842e+01
1	 1.236763e+00	 2.602762e-02	 2.185301e+01
1	 1.236418e+00	 3.912123e-02	 2.165911e+01
1	 1.235932e+00	 5.226553e-02	 2.150442e+01
1	 1.235304e+00	 6.545857e-02	 2.138660e+01
1	 1.244444e+00	 0.000000e+00	 2.217437e+01
1	 1.244376e+00	 1.306436e-02	 2.188817e+01
1	 1.244169e+00	 2.618347e-02	 2.164656e+01
1	 1.243822e+00	 3.935549e-02	 2.144728e+01
1	 1.243333e+00	 5.257850e-02	 2.128801e+01
1	 1.242701e+00	 6.585054e-02	 2.116639e+01
1	 1.251852e+00	 0.000000e+00	 2.198467e+01
1	 1.251783e+00	 1.314212e-02	 2.169153e+01
1	 1.251575e+00	 2.633933e-02	 2.144372e+01
1	 1.251226e+00	 3.958975e-02	 2.123895e+01
1	 1.250734e+00	 5.289147e-02	 2.107492e+01
1	 1.250098e+00	 6.624251e-02	 2.094924e+01
1	 1.259259e+00	 0.000000e+00	 2.179833e+01
1	 1.259190e+00	 1.321988e-02	 2.149836e+01
1	 1.258980e+00	 2.649518e-02	 2.124435e+01
1	 1.258629e+00	 3.982401e-02	 2.103401e+01
1	 1.258135e+00	 5.320443e-02	 2.086503e+01
1	 1.257495e+00	 6.663447e-02	 2.073505e+01
1	 1.220510e+00	 6.467464e-02	 2.183656e+01
1	 1.219746e+00	 7.775585e-02	 2.175943e+01
1	 1.218839e+00	 9.088122e-02	 2.171498e+01
1	 1.217785e+00	 1.040487e-01	 2.170069e+01
1	 1.216585e+00	 1.172560e-01	 2.171402e+01
1	 1.215235e+00	 1.305012e-01	 2.175243e+01
1	 1.227907e+00	 6.506660e-02	 2.160995e+01
1	 1.227139e+00	 7.822710e-02	 2.153052e+01
1	 1.226226e+00	 9.143201e-02	 2.148469e+01
1	 1.225166e+00	 1.046793e-01	 2.146993e+01
1	 1.223958e+00	 1.179667e-01	 2.148367e+01
1	 1.222600e+00	 1.312921e-01	 2.152334e+01
1	 1.235304e+00	 6.545857e-02	 2.138660e+01
1	 1.234531e+00	 7.869835e-02	 2.130451e+01
1	 1.233612e+00	 9.198281e-02	 2.125691e+01
1	 1.232546e+00	 1.053098e-01	 2.124123e+01
1	 1.231331e+00	 1.186773e-01	 2.125488e+01
1	 1.229965e+00	 1.320830e-01	 2.129526e+01
1	 1.242701e+00	 6.585054e-02	 2.116639e+01
1	 1.241924e+00	 7.916960e-02	 2.108132e+01
1	 1.240999e+00	 9.253360e-02	 2.103157e+01
1	 1.239927e+00	 1.059404e-01	 2.101454e+01
1	 1.238704e+00	 1.193880e-01	 2.102762e+01
1	 1.237330e+00	 1.328739e-01	 2.106818e+01
1	 1.250098e+00	 6.624251e-02	 2.094924e+01
1	 1.249316e+00	 7.964084e-02	 2.086087e+01
1	 1.248386e+00	 9.308440e-02	 2.080859e+01
1	 1.247307e+00	 1.065710e-01	 2.078980e+01
1	 1.246078e+00	 1.200986e-01	 2.080185e+01
1	 1.244695e+00	 1.336648e-01	 2.084209e+01
1	 1.257495e+00	 6.663447e-02	 2.073505e+01
1	 1.256708e+00	 8.011209e-02	 2.064306e+01
1	 1.255773e+00	 9.363520e-02	 2.058791e+01
1	 1.254688e+00	 1.072016e-01	 2.056696e+01
1	 1.253451e+00	 1.208092e-01	 2.057754e+01
1	 1.252061e+00	 1.344557e-01	 2.061695e+01
1	 1.215235e+00	 1.305012e-01	 2.175243e+01
1	 1.213736e+00	 1.437818e-01	 2.181523e+01
1	 1.212084e+00	 1.570957e-01	 2.190177e+01
1	 1.210280e+00	 1.704405e-01	 2.200958e+01
1	 1.208321e+00	 1.838139e-01	 2.213621e+01
1	 1.206206e+00	 1.972134e-01	 2.227926e+01
1	 1.222600e+00	 1.312921e-01	 2.152334e+01
1	 1.221092e+00	 1.446532e-01	 2.158832e+01
1	 1.219430e+00	 1.580478e-01	 2.167803e+01
1	 1.217615e+00	 1.714735e-01	 2.178996e+01
1	 1.215644e+00	 1.849280e-01	 2.192163e+01
1	 1.213517e+00	 1.984087e-01	 2.207061e+01
1	 1.229965e+00	 1.320830e-01	 2.129526e+01
1	 1.228447e+00	 1.455246e-01	 2.136181e+01
1	 1.226776e+00	 1.589999e-01	 2.145400e+01
1	 1.224950e+00	 1.725065e-01	 2.156931e+01
1	 1.222967e+00	 1.860420e-01	 2.170526e+01
1	 1.220827e+00	 1.996039e-01	 2.185937e+01
1	 1.237330e+00	 1.328739e-01	 2.106818e+01
1	 1.235803e+00	 1.463960e-01	 2.113569e+01
1	 1.234122e+00	 1.599520e-01	 2.122969e+01
1	 1.232285e+00	 1.735395e-01	 2.134767e+01
1	 1.230290e+00	 1.871560e-01	 2.148711e+01
1	 1.228137e+00	 2.007991e-01	 2.164556e+01
1	 1.244695e+00	 1.336648e-01	 2.084209e+01
1	 1.243159e+00	 1.472674e-01	 2.090999e+01
1	 1.241468e+00	 1.609041e-01	 2.100514e+01
1	 1.239620e+00	 1.745724e-01	 2.112505e+01
1	 1.237614e+00	 1.882700e-01	 2.126723e+01
1	 1.235448e+00	 2.019944e-01	 2.142922e+01
1	 1.252061e+00	 1.344557e-01	 2.061695e+01
1	 1.250515e+00	 1.481388e-01	 2.068468e+01
1	 1.248814e+00	 1.618562e-01	 2.078034e+01
1	 1.246955e+00	 1.756054e-01	 2.090148e+01
1	 1.244937e+00	 1.893840e-01	 2.104563e+01
1	 1.242758e+00	 2.031896e-01	 2.121036e+01
1	 1.206206e+00	 1.972134e-01	 2.227926e+01
1	 1.203935e+00	 2.106366e-01	 2.243342e+01
1	 1.201505e+00	 2.240809e-01	 2.259348e+01
1	 1.198916e+00	 2.375438e-01	 2.275726e+01
1	 1.196167e+00	 2.510227e-01	 2.292261e+01
1	 1.193256e+00	 2.645149e-01	 2.308744e+01
1	 1.213517e+00	 1.984087e-01	 2.207061e+01
1	 1.211232e+00	 2.119132e-01	 2.223146e+01
1	 1.208787e+00	 2.254390e-01	 2.239886e+01
1	 1.206182e+00	 2.389834e-01	 2.257059e+01
1	 1.203416e+00	 2.525440e-01	 2.274446e+01
1	 1.200488e+00	 2.661180e-01	 2.291836e+01
1	 1.220827e+00	 1.996039e-01	 2.185937e+01
1	 1.218528e+00	 2.131898e-01	 2.202613e+01
1	 1.216069e+00	 2.267970e-01	 2.220013e+01
1	 1.213449e+00	 2.404231e-01	 2.237909e+01
1	 1.210666e+00	 2.540654e-01	 2.256077e+01
1	 1.207719e+00	 2.677211e-01	 2.274300e+01
1	 1.228137e+00	 2.007991e-01	 2.164556e+01
1	 1.225825e+00	 2.144663e-01	 2.181747e+01
1	 1.223351e+00	 2.281551e-01	 2.199734e+01
1	 1.220715e+00	 2.418628e-01	 2.218283e+01
1	 1.217915e+00	 2.555867e-01	 2.237164e+01
1	 1.214951e+00	 2.693242e-01	 2.256155e+01
1	 1.235448e+00	 2.019944e-01	 2.142922e+01
1	 1.233121e+00	 2.157429e-01	 2.160550e+01
1	 1.230633e+00	 2.295132e-01	 2.179053e+01
1	 1.227981e+00	 2.433024e-01	 2.198188e+01
1	 1.225165e+00	 2.571081e-01	 2.217719e+01
1	 1.222183e+00	 2.709274e-01	 2.237415e+01
1	 1.242758e+00	 2.031896e-01	 2.121036e+01
1	 1.240418e+00	 2.170195e-01	 2.139024e+01
1	 1.237915e+00	 2.308712e-01	 2.157973e+01
1	 1.235247e+00	 2.447421e-01	 2.177631e+01
1	 1.232414e+00	 2.586294e-01	 2.197752e+01
1	 1.229415e+00	 2.725305e-01	 2.218096e+01
1	 1.193256e+00	 2.645149e-01	 2.308744e+01
1	 1.190182e+00	 2.780177e-01	 2.325180e+01
1	 1.186945e+00	 2.915285e-01	 2.341609e+01
1	 1.183543e+00	 3.050445e-01	 2.357893e+01
1	 1.179977e+00	 3.185628e-01	 2.373912e+01
1	 1.176244e+00	 3.320807e-01	 2.389559e+01
1	 1.200488e+00	 2.661180e-01	 2.291836e+01
1	 1.197395e+00	 2.797027e-01	 2.309262e+01
1	 1.194139e+00	 2.932954e-01	 2.326789e+01
1	 1.190716e+00	 3.068933e-01	 2.344269e+01
1	 1.187128e+00	 3.204935e-01	 2.361568e+01
1	 1.183373e+00	 3.340933e-01	 2.378567e+01
1	 1.207719e+00	 2.677211e-01	 2.274300e+01
1	 1.204608e+00	 2.813877e-01	 2.292642e+01
1	 1.201332e+00	 2.950622e-01	 2.311192e+01
1	 1.197889e+00	 3.087420e-01	 2.329794e+01
1	 1.194279e+00	 3.224242e-01	 2.348306e+01
1	 1.190501e+00	 3.361059e-01	 2.366601e+01
1	 1.214951e+00	 2.693242e-01	 2.256155e+01
1	 1.211822e+00	 2.830726e-01	 2.275339e+01
1	 1.208526e+00	 2.968291e-01	 2.294834e+01
1	 1.205062e+00	 3.105908e-01	 2.314477e+01
1	 1.201431e+00	 3.243549e-01	 2.334124e+01
1	 1.197630e+00	 3.381185e-01	 2.353640e+01
1	 1.222183e+00	 2.709274e-01	 2.237415e+01
1	 1.219035e+00	 2.847576e-01	 2.257374e+01
1	 1.215719e+00	 2.985959e-01	 2.277732e+01
1	 1.212235e+00	 3.124395e-01	 2.298329e+01
1	 1.208582e+00	 3.262856e-01	 2.319018e+01
1	 1.204759e+00	 3.401311e-01	 2.339662e+01
1	 1.229415e+00	 2.725305e-01	 2.218096e+01
1	 1.226248e+00	 2.864425e-01	 2.238765e+01
1	 1.222913e+00	 3.003627e-01	 2.259905e+01
1	 1.219408e+00	 3.142883e-01	 2.281360e+01
1	 1.215734e+00	 3.282163e-01	 2.302985e+01
1	 1.211888e+00	 3.421438e-01	 2.324646e+01
1	 1.176244e+00	 3.320807e-01	 2.389559e+01
1	 1.172344e+00	 3.455952e-01	 2.402425e+01
1	 1.168277e+00	 3.591035e-01	 2.410241e+01
1	 1.164042e+00	 3.726026e-01	 2.413120e+01
1	 1.159639e+00	 3.860895e-01	 2.411168e+01
1	 1.155066e+00	 3.995612e-01	 2.404481e+01
1	 1.183373e+00	 3.340933e-01	 2.378567e+01
1	 1.179449e+00	 3.476897e-01	 2.392677e+01
1	 1.175358e+00	 3.612799e-01	 2.401479e+01
1	 1.171097e+00	 3.748607e-01	 2.405115e+01
1	 1.166667e+00	 3.884294e-01	 2.403717e+01
1	 1.162067e+00	 4.019828e-01	 2.397405e+01
1	 1.190501e+00	 3.361059e-01	 2.366601e+01
1	 1.186555e+00	 3.497843e-01	 2.381902e+01
1	 1.182438e+00	 3.634562e-01	 2.391621e+01
1	 1.178152e+00	 3.771189e-01	 2.395922e+01
1	 1.173695e+00	 3.907693e-01	 2.394959e+01
1	 1.169067e+00	 4.044044e-01	 2.388872e+01
1	 1.197630e+00	 3.381185e-01	 2.353640e+01
1	 1.193660e+00	 3.518788e-01	 2.370061e+01
1	 1.189519e+00	 3.656326e-01	 2.380626e+01
1	 1.185207e+00	 3.793771e-01	 2.385513e+01
1	 1.180723e+00	 3.931093e-01	 2.384890e+01
1	 1.176067e+00	 4.068260e-01	 2.378913e+01
1	 1.204759e+00	 3.401311e-01	 2.339662e+01
1	 1.200765e+00	 3.539733e-01	 2.357119e+01
1	 1.196599e+00	 3.678090e-01	 2.368454e+01
1	 1.192262e+00	 3.816353e-01	 2.373856e+01
1	 1.187751e+00	 3.954492e-01	 2.373503e+01
1	 1.183068e+00	 4.092476e-01	 2.367561e+01
1	 1.211888e+00	 3.421438e-01	 2.324646e+01
1	 1.207870e+00	 3.560678e-01	 2.343039e+01
1	 1.203680e+00	 3.699854e-01	 2.355069e+01
1	 1.199316e+00	 3.838935e-01	 2.360926e+01
1	 1.194779e+00	 3.977892e-01	 2.360793e+01
1	 1.190068e+00	 4.116692e-01	 2.354844e+01
1	 1.155066e+00	 3.995612e-01	 2.404481e+01
1	 1.150324e+00	 4.130148e-01	 2.390340e+01
1	 1.145413e+00	 4.264472e-01	 2.366123e+01
1	 1.140331e+00	 4.398553e-01	 2.332075e+01
1	 1.135079e+00	 4.532360e-01	 2.288452e+01
1	 1.129657e+00	 4.665862e-01	 2.235516e+01
1	 1.162067e+00	 4.019828e-01	 2.397405e+01
1	 1.157296e+00	 4.155179e-01	 2.383570e+01
1	 1.152354e+00	 4.290317e-01	 2.359667e+01
1	 1.147242e+00	 4.425211e-01	 2.325912e+01
1	 1.141958e+00	 4.559829e-01	 2.282537e+01
1	 1.136503e+00	 4.694140e-01	 2.229784e+01
1	 1.169067e+00	 4.044044e-01	 2.388872e+01
1	 1.164268e+00	 4.180211e-01	 2.375189e+01
1	 1.159296e+00	 4.316163e-01	 2.351480e+01
1	 1.154153e+00	 4.451869e-01	 2.317941e+01
1	 1.148838e+00	 4.587297e-01	 2.274790e+01
1	 1.143350e+00	 4.722418e-01	 2.222255e+01
1	 1.176067e+00	 4.068260e-01	 2.378913e+01
1	 1.171239e+00	 4.205242e-01	 2.365264e+01
1	 1.166238e+00	 4.342008e-01	 2.341644e+01
1	 1.161064e+00	 4.478526e-01	 2.308245e+01
1	 1.155717e+00	 4.614766e-01	 2.265275e+01
1	 1.150196e+00	 4.750696e-01	 2.212956e+01
1	 1.183068e+00	 4.092476e-01	 2.367561e+01
1	 1.178211e+00	 4.230273e-01	 2.353860e+01
1	 1.173180e+00	 4.367853e-01	 2.330244e+01
1	 1.167975e+00	 4.505184e-01	 2.296905e+01
1	 1.162596e+00	 4.642235e-01	 2.254053e+01
1	 1.157042e+00	 4.778974e-01	 2.201910e+01
1	 1.190068e+00	 4.116692e-01	 2.354844e+01
1	 1.185183e+00	 4.255304e-01	 2.341040e+01
1	 1.180122e+00	 4.393698e-01	 2.317358e+01
1	 1.174886e+00	 4.531842e-01	 2.284001e+01
1	 1.169475e+00	 4.669704e-01	 2.241187e+01
1	 1.163889e+00	 4.807252e-01	 2.189144e+01
1	 1.129657e+00	 4.665862e-01	 2.235516e+01
1	 1.124064e+00	 4.799028e-01	 2.174178e+01
1	 1.118301e+00	 4.931826e-01	 2.105307e+01
1	 1.112368e+00	 5.064225e-01	 2.029098e+01
1	 1.106265e+00	 5.196193e-01	 1.945730e+01
1	 1.099992e+00	 5.327699e-01	 1.855361e+01
1	 1.136503e+00	 4.694140e-01	 2.229784e+01
1	 1.130877e+00	 4.828113e-01	 2.168422e+01
1	 1.125079e+00	 4.961716e-01	 2.099183e+01
1	 1.119110e+00	 5.094917e-01	 2.022259e+01
1	 1.112970e+00	 5.227685e-01	 1.937826e+01
1	 1.106659e+00	 5.359988e-01	 1.846045e+01
1	 1.143350e+00	 4.722418e-01	 2.222255e+01
1	 1.137689e+00	 4.857198e-01	 2.160965e+01
1	 1.131857e+00	 4.991606e-01	 2.091511e+01
1	 1.125852e+00	 5.125610e-01	 2.014074e+01
1	 1.119675e+00	 5.259177e-01	 1.928822e+01
1	 1.113326e+00	 5.392277e-01	 1.835913e+01
1	 1.150196e+00	 4.750696e-01	 2.212956e+01
1	 1.144502e+00	 4.886283e-01	 2.151787e+01
1	 1.138634e+00	 5.021495e-01	 2.082225e+01
1	 1.132593e+00	 5.156302e-01	 2.004431e+01
1	 1.126379e+00	 5.290670e-01	 1.918562e+01
1	 1.119992e+00	 5.424566e-01	 1.824766e+01
1	 1.157042e+00	 4.778974e-01	 2.201910e+01
1	 1.151314e+00	 4.915368e-01	 2.140868e+01
1	 1.145412e+00	 5.051385e-01	 2.071258e+01
1	 1.139335e+00	 5.186994e-01	 1.993221e+01
1	 1.133084e+00	 5.322162e-01	 1.906895e+01
1	 1.126659e+00	 5.456855e-01	 1.812412e+01
1	 1.163889e+00	 4.807252e-01	 2.189144e+01
1	 1.158127e+00	 4.944453e-01	 2.128188e+01
1	 1.152189e+00	 5.081275e-01	 2.058548e+01
1	 1.146077e+00	 5.217686e-01	 1.980339e+01
1	 1.139788e+00	 5.353654e-01	 1.893673e+01
1	 1.133326e+00	 5.489144e-01	 1.798662e+01
1	 1.099992e+00	 5.327699e-01	 1.855361e+01
1	 1.093550e+00	 5.458710e-01	 1.759230e+01
1	 1.086939e+00	 5.589196e-01	 1.658476e+01
1	 1.080159e+00	 5.719123e-01	 1.553079e+01
1	 1.073211e+00	 5.848460e-01	 1.443000e+01
1	 1.066096e+00	 5.977176e-01	 1.328179e+01
1	 1.106659e+00	 5.359988e-01	 1.846045e+01
1	 1.100178e+00	 5.491794e-01	 1.748145e+01
1	 1.093526e+00	 5.623070e-01	 1.645283e+01
1	 1.086705e+00	 5.753784e-01	 1.537480e+01
1	 1.079716e+00	 5.883906e-01	 1.424729e+01
1	 1.072557e+00	 6.013401e-01	 1.306993e+01
1	 1.113326e+00	 5.392277e-01	 1.835913e+01
1	 1.106805e+00	 5.524877e-01	 1.736510e+01
1	 1.100114e+00	 5.656944e-01	 1.631731e+01
1	 1.093252e+00	 5.788446e-01	 1.521631e+01
1	 1.086220e+00	 5.919351e-01	 1.406235e+01
1	 1.079018e+00	 6.049627e-01	 1.285531e+01
1	 1.119992e+00	 5.424566e-01	 1.824766e+01
1	 1.113433e+00	 5.557960e-01	 1.724098e+01
1	 1.106701e+00	 5.690817e-01	 1.617593e+01
1	 1.099798e+00	 5.823107e-01	 1.505337e+01
1	 1.092724e+00	 5.954796e-01	 1.387381e+01
1	 1.085480e+00	 6.085852e-01	 1.263742e+01
1	 1.126659e+00	 5.456855e-01	 1.812412e+01
1	 1.120060e+00	 5.591043e-01	 1.710690e+01
1	 1.113289e+00	 5.724691e-01	 1.602651e+01
1	 1.106345e+00	 5.857768e-01	 1.488406e+01
1	 1.099228e+00	 5.990241e-01	 1.368035e+01
1	 1.091941e+00	 6.122077e-01	 1.241578e+01
1	 1.133326e+00	 5.489144e-01	 1.798662e+01
1	 1.126688e+00	 5.624126e-01	 1.696070e+01
1	 1.119876e+00	 5.758565e-01	 1.586690e+01
1	 1.112891e+00	 5.892430e-01	 1.470654e+01
1	 1.105733e+00	 6.025686e-01	 1.348065e+01
1	 1.098402e+00	 6.158303e-01	 1.218992e+01
1	 1.066096e+00	 5.977176e-01	 1.328179e+01
1	 1.058814e+00	 6.105238e-01	 1.210368e+01
1	 1.051367e+00	 6.232615e-01	 1.091311e+01
1	 1.043754e+00	 6.359276e-01	 9.709132e+00
1	 1.035978e+00	 6.485188e-01	 8.490778e+00
1	 1.028039e+00	 6.610321e-01	 7.257067e+00
1	 1.072557e+00	 6.013401e-01	 1.306993e+01
1	 1.065231e+00	 6.142240e-01	 1.186172e+01
1	 1.057739e+00	 6.270389e-01	 1.064102e+01
1	 1.050080e+00	 6.397817e-01	 9.406353e+00
1	 1.042257e+00	 6.524492e-01	 8.156217e+00
1	 1.034269e+00	 6.650383e-01	 6.889109e+00
1	 1.079018e+00	 6.049627e-01	 1.285531e+01
1	 1.071648e+00	 6.179241e-01	 1.161596e+01
1	 1.064111e+00	 6.308162e-01	 1.036400e+01
1	 1.056406e+00	 6.436358e-01	 9.097455e+00
1	 1.048535e+00	 6.563796e-01	 7.814323e+00
1	 1.040500e+00	 6.690446e-01	 6.512571e+00
1	 1.085480e+00	 6.085852e-01	 1.263742e+01
1	 1.078066e+00	 6.216243e-01	 1.136677e+01
1	 1.070483e+00	 6.345936e-01	 1.008294e+01
1	 1.062732e+00	 6.474899e-01	 8.783546e+00
1	 1.054814e+00	 6.603101e-01	 7.466095e+00
1	 1.046730e+00	 6.730509e-01	 6.128018e+00
1	 1.091941e+00	 6.122077e-01	 1.241578e+01
1	 1.084483e+00	 6.253244e-01	 1.111449e+01
1	 1.076855e+00	 6.383709e-01	 9.798722e+00
1	 1.069058e+00	 6.513440e-01	 8.465711e+00
1	 1.061093e+00	 6.642405e-01	 7.112510e+00
1	 1.052961e+00	 6.770571e-01	 5.736001e+00
1	 1.098402e+00	 6.158303e-01	 1.218992e+01
1	 1.090900e+00	 6.290246e-01	 1.085947e+01
1	 1.083226e+00	 6.421483e-01	 9.512195e+00
1	 1.075383e+00	 6.551981e-01	 8.145007e+00
1	 1.067371e+00	 6.681709e-01	 6.754520e+00
1	 1.059191e+00	 6.810634e-01	 5.337060e+00
1	 1.028039e+00	 6.610321e-01	 7.257067e+00
1	 1.019938e+00	 6.734643e-01	 6.023330e+00
1	 1.011676e+00	 6.858124e-01	 4.805317e+00
1	 1.003255e+00	 6.980732e-01	 3.602746e+00
1	 9.946763e-01	 7.102438e-01	 2.415431e+00
1	 9.859408e-01	 7.223211e-01	 1.243288e+00
1	 1.034269e+00	 6.650383e-01	 6.889109e+00
1	 1.026119e+00	 6.775459e-01	 5.620699e+00
1	 1.017807e+00	 6.899688e-01	 4.367795e+00
1	 1.009335e+00	 7.023040e-01	 3.130702e+00
1	 1.000705e+00	 7.145483e-01	 1.909862e+00
1	 9.919162e-01	 7.266988e-01	 7.058514e-01
1	 1.040500e+00	 6.690446e-01	 6.512571e+00
1	 1.032301e+00	 6.816275e-01	 5.208430e+00
1	 1.023939e+00	 6.941253e-01	 3.920024e+00
1	 1.015416e+00	 7.065347e-01	 2.648286e+00
1	 1.006733e+00	 7.188528e-01	 1.394341e+00
1	 9.978916e-01	 7.310765e-01	 1.595082e-01
1	 1.046730e+00	 6.730509e-01	 6.128018e+00
1	 1.038482e+00	 6.857091e-01	 4.786601e+00
1	 1.030070e+00	 6.982817e-01	 3.461815e+00
1	 1.021496e+00	 7.107655e-01	 2.155257e+00
1	 1.012761e+00	 7.231573e-01	 8.687942e-01
1	 1.003867e+00	 7.354542e-01	-3.954319e-01
1	 1.052961e+00	 6.770571e-01	 5.736001e+00
1	 1.044663e+00	 6.897907e-01	 4.355288e+00
1	 1.036202e+00	 7.024381e-01	 2.992983e+00
1	 1.027576e+00	 7.149962e-01	 1.651380e+00
1	 1.018790e+00	 7.274619e-01	 3.331502e-01
1	 1.009842e+00	 7.398319e-01	-9.586661e-01
1	 1.059191e+00	 6.810634e-01	 5.337060e+00
1	 1.050845e+00	 6.938723e-01	 3.914567e+00
1	 1.042333e+00	 7.065946e-01	 2.513347e+00
1	 1.033657e+00	 7.192270e-01	 1.136429e+00
1	 1.024818e+00	 7.317664e-01	-2.126602e-01
1	 1.015818e+00	 7.442096e-01	-1.529899e+00
1	 9.859408e-01	 7.223211e-01	 1.243288e+00
1	 9.770504e-01	 7.343022e-01	 1.185930e-01
1	 9.680065e-01	 7.461840e-01	-9.230223e-01
1	 9.588109e-01	 7.579636e-01	-1.876129e+00
1	 9.494652e-01	 7.696383e-01	-2.734763e+00
1	 9.399712e-01	 7.812050e-01	-3.492441e+00
1	 9.919162e-01	 7.266988e-01	 7.058514e-01
1	 9.829719e-01	 7.387525e-01	-4.462384e-01
1	 9.738732e-01	 7.507063e-01	-1.508670e+00
1	 9.646218e-01	 7.625574e-01	-2.476404e+00
1	 9.552195e-01	 7.743027e-01	-3.343881e+00
1	 9.456680e-01	 7.859396e-01	-4.105035e+00
1	 9.978916e-01	 7.310765e-01	 1.595082e-01
1	 9.888934e-01	 7.432028e-01	-1.018552e+00
1	 9.797399e-01	 7.552286e-01	-2.100354e+00
1	 9.704328e-01	 7.671511e-01	-3.081332e+00
1	 9.609738e-01	 7.789672e-01	-3.956432e+00
1	 9.513648e-01	 7.906742e-01	-4.720121e+00
1	 1.003867e+00	 7.354542e-01	-3.954319e-01
1	 9.948150e-01	 7.476531e-01	-1.597630e+00
1	 9.856066e-01	 7.597510e-01	-2.697118e+00
1	 9.762438e-01	 7.717448e-01	-3.689883e+00
1	 9.667282e-01	 7.836317e-01	-4.571475e+00
1	 9.570616e-01	 7.954087e-01	-5.337011e+00
1	 1.009842e+00	 7.398319e-01	-9.586661e-01
1	 1.000736e+00	 7.521034e-01	-2.182774e+00
1	 9.914734e-01	 7.642733e-01	-3.298028e+00
1	 9.820548e-01	 7.763385e-01	-4.301053e+00
1	 9.724825e-01	 7.882962e-01	-5.188094e+00
1	 9.627584e-01	 8.001433e-01	-5.955032e+00
1	 1.015818e+00	 7.442096e-01	-1.529899e+00
1	 1.006658e+00	 7.565537e-01	-2.773300e+00
1	 9.973401e-01	 7.687956e-01	-3.902174e+00
1	 9.878657e-01	 7.809322e-01	-4.913857e+00
1	 9.782368e-01	 7.929606e-01	-5.805391e+00
1	 9.684552e-01	 8.048779e-01	-6.573530e+00
1	 9.399712e-01	 7.812050e-01	-3.492441e+00
1	 9.303309e-01	 7.926611e-01	-4.163800e+00
1	 9.205461e-01	 8.040037e-01	-4.768336e+00
1	 9.106190e-01	 8.152302e-01	-5.306550e+00
1	 9.005514e-01	 8.263379e-01	-5.779058e+00
1	 8.903458e-01	 8.373241e-01	-6.186585e+00
1	 9.456680e-01	 7.859396e-01	-4.105035e+00
1	 9.359693e-01	 7.974651e-01	-4.777901e+00
1	 9.261252e-01	 8.088765e-01	-5.384909e+00
1	 9.161379e-01	 8.201710e-01	-5.926294e+00
1	 9.060093e-01	 8.313460e-01	-6.402400e+00
1	 8.957418e-01	 8.423988e-01	-6.813679e+00
1	 9.513648e-01	 7.906742e-01	-4.720121e+00
1	 9.416076e-01	 8.022691e-01	-5.393814e+00
1	 9.317043e-01	 8.137492e-01	-6.002772e+00
1	 9.216568e-01	 8.251118e-01	-6.546954e+00
1	 9.114672e-01	 8.363541e-01	-7.026421e+00
1	 9.011378e-01	 8.474735e-01	-7.441332e+00
1	 9.570616e-01	 7.954087e-01	-5.337011e+00
1	 9.472460e-01	 8.070731e-01	-6.011151e+00
1	 9.372833e-01	 8.186220e-01	-6.621769e+00
1	 9.271757e-01	 8.300526e-01	-7.168545e+00
1	 9.169251e-01	 8.413622e-01	-7.651241e+00
1	 9.065339e-01	 8.525481e-01	-8.069705e+00
1	 9.627584e-01	 8.001433e-01	-5.955032e+00
1	 9.528844e-01	 8.118771e-01	-6.629533e+00
1	 9.428624e-01	 8.234947e-01	-7.241752e+00
1	 9.326946e-01	 8.349934e-01	-7.791082e+00
1	 9.223830e-01	 8.463703e-01	-8.276977e+00
1	 9.119299e-01	 8.576228e-01	-8.698956e+00
1	 9.684552e-01	 8.048779e-01	-6.573530e+00
1	 9.585227e-01	 8.166811e-01	-7.248589e+00
1	 9.484415e-01	 8.283675e-01	-7.862571e+00
1	 9.382135e-01	 8.399341e-01	-8.414579e+00
1	 9.278409e-01	 8.513784e-01	-8.903744e+00
1	 9.173259e-01	 8.626975e-01	-9.329237e+00
1	 8.903458e-01	 8.373241e-01	-6.186585e+00
1	 8.800041e-01	 8.481863e-01	-6.561306e+00
1	 8.695287e-01	 8.589220e-01	-6.933888e+00
1	 8.589220e-01	 8.695287e-01	-7.302898e+00
1	 8.481863e-01	 8.800041e-01	-7.666926e+00
1	 8.373241e-01	 8.903458e-01	-8.024593e+00
1	 8.957418e-01	 8.423988e-01	-6.813679e+00
1	 8.853374e-01	 8.533268e-01	-7.192003e+00
1	 8.747986e-01	 8.641276e-01	-7.568270e+00
1	 8.641276e-01	 8.747986e-01	-7.941581e+00
1	 8.533268e-01	 8.853374e-01	-8.311086e+00
1	 8.423988e-01	 8.957418e-01	-8.675984e+00
1	 9.011378e-01	 8.474735e-01	-7.441332e+00
1	 8.906708e-01	 8.584673e-01	-7.823339e+00
1	 8.800685e-01	 8.693332e-01	-8.203585e+00
1	 8.693332e-01	 8.800685e-01	-8.581585e+00
1	 8.584673e-01	 8.906708e-01	-8.956919e+00
1	 8.474735e-01	 9.011378e-01	-9.329228e+00
1	 9.065339e-01	 8.525481e-01	-8.069705e+00
1	 8.960042e-01	 8.636079e-01	-8.455457e+00
1	 8.853383e-01	 8.745387e-01	-8.839909e+00
1	 8.745387e-01	 8.853383e-01	-9.222868e+00
1	 8.636079e-01	 8.960042e-01	-9.604215e+00
1	 8.525481e-01	 9.065339e-01	-9.983906e+00
1	 9.119299e-01	 8.576228e-01	-8.698956e+00
1	 9.013375e-01	 8.687484e-01	-9.088496e+00
1	 8.906082e-01	 8.797443e-01	-9.477313e+00
1	 8.797443e-01	 8.906082e-01	-9.865385e+00
1	 8.687484e-01	 9.013375e-01	-1.025277e+01
1	 8.576228e-01	 9.119299e-01	-1.063961e+01
1	 9.173259e-01	 8.626975e-01	-9.329237e+00
1	 9.066709e-01	 8.738889e-01	-9.722594e+00
1	 8.958781e-01	 8.849499e-01	-1.011587e+01
1	 8.849499e-01	 8.958781e-01	-1.050909e+01
1	 8.738889e-01	 9.066709e-01	-1.090238e+01
1	 8.626975e-01	 9.173259e-01	-1.129593e+01
1	 8.373241e-01	 8.903458e-01	-8.024593e+00
1	 8.263379e-01	 9.005514e-01	-8.409409e+00
1	 8.152302e-01	 9.106190e-01	-8.854863e+00
1	 8.040037e-01	 9.205461e-01	-9.359593e+00
1	 7.926611e-01	 9.303309e-01	-9.922284e+00
1	 7.812050e-01	 9.399712e-01	-1.054166e+01
1	 8.423988e-01	 8.957418e-01	-8.675984e+00
1	 8.313460e-01	 9.060093e-01	-9.070292e+00
1	 8.201710e-01	 9.161379e-01	-9.527108e+00
1	 8.088765e-01	 9.261252e-01	-1.004429e+01
1	 7.974651e-01	 9.359693e-01	-1.061968e+01
1	 7.859396e-01	 9.456680e-01	-1.125117e+01
1	 8.474735e-01	 9.011378e-01	-9.329228e+00
1	 8.363541e-01	 9.114672e-01	-9.732739e+00
1	 8.251118e-01	 9.216568e-01	-1.020017e+01
1	 8.137492e-01	 9.317043e-01	-1.072894e+01
1	 8.022691e-01	 9.416076e-01	-1.131644e+01
1	 7.906742e-01	 9.513648e-01	-1.196006e+01
1	 8.525481e-01	 9.065339e-01	-9.983906e+00
1	 8.413622e-01	 9.169251e-01	-1.039619e+01
1	 8.300526e-01	 9.271757e-01	-1.087352e+01
1	 8.186220e-01	 9.372833e-01	-1.141322e+01
1	 8.070731e-01	 9.472460e-01	-1.201258e+01
1	 7.954087e-01	 9.570616e-01	-1.266888e+01
1	 8.576228e-01	 9.119299e-01	-1.063961e+01
1	 8.463703e-01	 9.223830e-01	-1.106009e+01
1	 8.349934e-01	 9.326946e-01	-1.154665e+01
1	 8.234947e-01	 9.428624e-01	-1.209682e+01
1	 8.118771e-01	 9.528844e-01	-1.270816e+01
1	 8.001433e-01	 9.627584e-01	-1.337819e+01
1	 8.626975e-01	 9.173259e-01	-1.129593e+01
1	 8.513784e-01	 9.278409e-01	-1.172391e+01
1	 8.399341e-01	 9.382135e-01	-1.221904e+01
1	 8.283675e-01	 9.484415e-01	-1.277943e+01
1	 8.166811e-01	 9.585227e-01	-1.340321e+01
1	 8.048779e-01	 9.684552e-01	-1.408852e+01
1	 7.812050e-01	 9.399712e-01	-1.054166e+01
1	 7.696383e-01	 9.494652e-01	-1.122910e+01
1	 7.579636e-01	 9.588109e-01	-1.200276e+01
1	 7.461840e-01	 9.680065e-01	-1.287196e+01
1	 7.343022e-01	 9.770504e-01	-1.384646e+01
1	 7.223211e-01	 9.859408e-01	-1.493645e+01
1	 7.859396e-01	 9.456680e-01	-1.125117e+01
1	 7.743027e-01	 9.552195e-01	-1.195223e+01
1	 7.625574e-01	 9.646218e-01	-1.274403e+01
1	 7.507063e-01	 9.738732e-01	-1.363639e+01
1	 7.387525e-01	 9.829719e-01	-1.463960e+01
1	 7.266988e-01	 9.919162e-01	-1.576443e+01
1	 7.906742e-01	 9.513648e-01	-1.196006e+01
1	 7.789672e-01	 9.609738e-01	-1.267583e+01
1	 7.671511e-01	 9.704328e-01	-1.348772e+01
1	 7.552286e-01	 9.797399e-01	-1.440543e+01
1	 7.432028e-01	 9.888934e-01	-1.543916e+01
1	 7.310765e-01	 9.978916e-01	-1.659954e+01
1	 7.954087e-01	 9.570616e-01	-1.266888e+01
1	 7.836317e-01	 9.667282e-01	-1.340089e+01
1	 7.717448e-01	 9.762438e-01	-1.423497e+01
1	 7.597510e-01	 9.856066e-01	-1.518008e+01
1	 7.476531e-01	 9.948150e-01	-1.624568e+01
1	 7.354542e-01	 1.003867e+00	-1.744164e+01
1	 8.001433e-01	 9.627584e-01	-1.337819e+01
1	 7.882962e-01	 9.724825e-01	-1.412842e+01
1	 7.763385e-01	 9.820548e-01	-1.498690e+01
1	 7.642733e-01	 9.914734e-01	-1.596131e+01
1	 7.521034e-01	 1.000736e+00	-1.705971e+01
1	 7.398319e-01	 1.009842e+00	-1.829058e+01
1	 8.048779e-01	 9.684552e-01	-1.408852e+01
1	 7.929606e-01	 9.782368e-01	-1.485936e+01
1	 7.809322e-01	 9.878657e-01	-1.574462e+01
1	 7.687956e-01	 9.973401e-01	-1.675006e+01
1	 7.565537e-01	 1.006658e+00	-1.788179e+01
1	 7.442096e-01	 1.015818e+00	-1.914621e+01
1	 7.223211e-01	 9.859408e-01	-1.493645e+01
1	 7.102438e-01	 9.946763e-01	-1.612476e+01
1	 6.980732e-01	 1.003255e+00	-1.738941e+01
1	 6.858124e-01	 1.011676e+00	-1.873368e+01
1	 6.734643e-01	 1.019938e+00	-2.016089e+01
1	 6.610321e-01	 1.028039e+00	-2.167440e+01
1	 7.266988e-01	 9.919162e-01	-1.576443e+01
1	 7.145483e-01	 1.000705e+00	-1.699210e+01
1	 7.023040e-01	 1.009335e+00	-1.829849e+01
1	 6.899688e-01	 1.017807e+00	-1.968665e+01
1	 6.775459e-01	 1.026119e+00	-2.115965e+01
1	 6.650383e-01	 1.034269e+00	-2.272057e+01
1	 7.310765e-01	 9.978916e-01	-1.659954e+01
1	 7.188528e-01	 1.006733e+00	-1.786575e+01
1	 7.065347e-01	 1.015416e+00	-1.921213e+01
1	 6.941253e-01	 1.023939e+00	-2.064245e+01
1	 6.816275e-01	 1.032301e+00	-2.216055e+01
1	 6.690446e-01	 1.040500e+00	-2.377026e+01
1	 7.354542e-01	 1.003867e+00	-1.744164e+01
1	 7.231573e-01	 1.012761e+00	-1.874494e+01
1	 7.107655e-01	 1.021496e+00	-2.012934e+01
1	 6.982817e-01	 1.030070e+00	-2.160031e+01
1	 6.857091e-01	 1.038482e+00	-2.316340e+01
1	 6.730509e-01	 1.046730e+00	-2.482423e+01
1	 7.398319e-01	 1.009842e+00	-1.829058e+01
1	 7.274619e-01	 1.018790e+00	-1.962892e+01
1	 7.149962e-01	 1.027576e+00	-2.104920e+01
1	 7.024381e-01	 1.036202e+00	-2.255948e+01
1	 6.897907e-01	 1.044663e+00	-2.416802e+01
1	 6.770571e-01	 1.052961e+00	-2.588323e+01
1	 7.442096e-01	 1.015818e+00	-1.914621e+01
1	 7.317664e-01	 1.024818e+00	-2.051695e+01
1	 7.192270e-01	 1.033657e+00	-2.197076e+01
1	 7.065946e-01	 1.042333e+00	-2.351922e+01
1	 6.938723e-01	 1.050845e+00	-2.517423e+01
1	 6.810634e-01	 1.059191e+00	-2.694798e+01
1	 6.610321e-01	 1.028039e+00	-2.167440e+01
1	 6.485188e-01	 1.035978e+00	-2.325693e+01
1	 6.359276e-01	 1.043754e+00	-2.488887e+01
1	 6.232615e-01	 1.051367e+00	-2.657004e+01
1	 6.105238e-01	 1.058814e+00	-2.830012e+01
1	 5.977176e-01	 1.066096e+00	-3.007872e+01
1	 6.650383e-01	 1.034269e+00	-2.272057e+01
1	 6.524492e-01	 1.042257e+00	-2.435161e+01
1	 6.397817e-01	 1.050080e+00	-2.603404e+01
1	 6.270389e-01	 1.057739e+00	-2.776955e+01
1	 6.142240e-01	 1.065231e+00	-2.955976e+01
1	 6.013401e-01	 1.072557e+00	-3.140623e+01
1	 6.690446e-01	 1.040500e+00	-2.377026e+01
1	 6.563796e-01	 1.048535e+00	-2.545407e+01
1	 6.436358e-01	 1.056406e+00	-2.719312e+01
1	 6.308162e-01	 1.064111e+00	-2.898928e+01
1	 6.179241e-01	 1.071648e+00	-3.084436e+01
1	 6.049627e-01	 1.079018e+00	-3.276014e+01
1	 6.730509e-01	 1.046730e+00	-2.482423e+01
1	 6.603101e-01	 1.054814e+00	-2.656587e+01
1	 6.474899e-01	 1.062732e+00	-2.836785e+01
1	 6.345936e-01	 1.070483e+00	-3.023059e+01
1	 6.216243e-01	 1.078066e+00	-3.215436e+01
1	 6.085852e-01	 1.085480e+00	-3.413938e+01
1	 6.770571e-01	 1.052961e+00	-2.588323e+01
1	 6.642405e-01	 1.061093e+00	-2.768854e+01
1	 6.513440e-01	 1.069058e+00	-2.955998e+01
1	 6.383709e-01	 1.076855e+00	-3.149482e+01
1	 6.253244e-01	 1.084483e+00	-3.349016e+01
1	 6.122077e-01	 1.091941e+00	-3.554293e+01
1	 6.810634e-01	 1.059191e+00	-2.694798e+01
1	 6.681709e-01	 1.067371e+00	-2.882359e+01
1	 6.551981e-01	 1.075383e+00	-3.077117e+01
1	 6.421483e-01	 1.083226e+00	-3.278327e+01
1	 6.290246e-01	 1.090900e+00	-3.485216e+01
1	 6.158303e-01	 1.098402e+00	-3.696980e+01
1	 5.977176e-01	 1.066096e+00	-3.007872e+01
1	 5.848460e-01	 1.073211e+00	-3.188617e+01
1	 5.719123e-01	 1.080159e+00	-3.369654e+01
1	 5.589196e-01	 1.086939e+00	-3.549973e+01
1	 5.458710e-01	 1.093550e+00	-3.728539e+01
1	 5.327699e-01	 1.099992e+00	-3.904296e+01
1	 6.013401e-01	 1.072557e+00	-3.140623e+01
1	 5.883906e-01	 1.079716e+00	-3.328815e+01
1	 5.753784e-01	 1.086705e+00	-3.517397e+01
1	 5.623070e-01	 1.093526e+00	-3.704888e+01
1	 5.491794e-01	 1.100178e+00	-3.889769e+01
1	 5.359988e-01	 1.106659e+00	-4.070492e+01
1	 6.049627e-01	 1.079018e+00	-3.276014e+01
1	 5.919351e-01	 1.086220e+00	-3.471248e+01
1	 5.788446e-01	 1.093252e+00	-3.666434e+01
1	 5.656944e-01	 1.100114e+00	-3.859767e+01
1	 5.524877e-01	 1.106805e+00	-4.049399e+01
1	 5.392277e-01	 1.113326e+00	-4.233448e+01
1	 6.085852e-01	 1.085480e+00	-3.413938e+01
1	 5.954796e-01	 1.092724e+00	-3.615668e+01
1	 5.823107e-01	 1.099798e+00	-3.816425e+01
1	 5.690817e-01	 1.106701e+00	-4.014230e+01
1	 5.557960e-01	 1.113433e+00	-4.207059e+01
1	 5.424566e-01	 1.119992e+00	-4.392845e+01
1	 6.122077e-01	 1.091941e+00	-3.554293e+01
1	 5.990241e-01	 1.099228e+00	-3.761830e+01
1	 5.857768e-01	 1.106345e+00	-3.967038e+01
1	 5.724691e-01	 1.113289e+00	-4.167908e+01
1	 5.591043e-01	 1.120060e+00	-4.362385e+01
1	 5.456855e-01	 1.126659e+00	-4.548375e+01
1	 6.158303e-01	 1.098402e+00	-3.696980e+01
1	 6.025686e-01	 1.105733e+00	-3.909496e+01
1	 5.892430e-01	 1.112891e+00	-4.117949e+01
1	 5.758565e-01	 1.119876e+00	-4.320438e+01
1	 5.624126e-01	 1.126688e+00	-4.515025e+01
1	 5.489144e-01	 1.133326e+00	-4.699734e+01
1	 5.327699e-01	 1.099992e+00	-3.904296e+01
1	 5.196193e-01	 1.106265e+00	-4.074243e+01
1	 5.064225e-01	 1.112368e+00	-4.235080e+01
1	 4.931826e-01	 1.118301e+00	-4.385263e+01
1	 4.799028e-01	 1.124064e+00	-4.523235e+01
1	 4.665862e-01	 1.129657e+00	-4.647424e+01
1	 5.359988e-01	 1.106659e+00	-4.070492e+01
1	 5.227685e-01	 1.112970e+00	-4.243647e+01
1	 5.094917e-01	 1.119110e+00	-4.405971e+01
1	 4.961716e-01	 1.125079e+00	-4.556106e+01
1	 4.828113e-01	 1.130877e+00	-4.692681e+01
1	 4.694140e-01	 1.136503e+00	-4.814318e+01
1	 5.392277e-01	 1.113326e+00	-4.233448e+01
1	 5.259177e-01	 1.119675e+00	-4.408314e+01
1	 5.125610e-01	 1.125852e+00	-4.570911e+01
1	 4.991606e-01	 1.131857e+00	-4.720087e+01
1	 4.857198e-01	 1.137689e+00	-4.854686e+01
1	 4.722418e-01	 1.143350e+00	-4.973546e+01
1	 5.424566e-01	 1.119992e+00	-4.392845e+01
1	 5.290670e-01	 1.126379e+00	-4.568003e+01
1	 5.156302e-01	 1.132593e+00	-4.729731e+01
1	 5.021495e-01	 1.138634e+00	-4.877110e+01
1	 4.886283e-01	 1.144502e+00	-5.009220e+01
1	 4.750696e-01	 1.150196e+00	-5.125142e+01
1	 5.456855e-01	 1.126659e+00	-4.548375e+01
1	 5.322162e-01	 1.133084e+00	-4.722477e+01
1	 5.186994e-01	 1.139335e+00	-4.882265e+01
1	 5.051385e-01	 1.145412e+00	-5.027077e+01
1	 4.915368e-01	 1.151314e+00	-5.156253e+01
1	 4.778974e-01	 1.157042e+00	-5.269139e+01
1	 5.489144e-01	 1.133326e+00	-4.699734e+01
1	 5.353654e-01	 1.139788e+00	-4.871505e+01
1	 5.217686e-01	 1.146077e+00	-5.028351e+01
1	 5.081275e-01	 1.152189e+00	-5.169893e+01
1	 4.944453e-01	 1.158127e+00	-5.295756e+01
1	 4.807252e-01	 1.163889e+00	-5.405569e+01
1	 4.665862e-01	 1.129657e+00	-4.647424e+01
1	 4.532360e-01	 1.135079e+00	-4.755306e+01
1	 4.398553e-01	 1.140331e+00	-4.845039e+01
1	 4.264472e-01	 1.145413e+00	-4.916077e+01
1	 4.130148e-01	 1.150324e+00	-4.967881e+01
1	 3.995612e-01	 1.155066e+00	-4.999924e+01
1	 4.694140e-01	 1.136503e+00	-4.814318e+01
1	 4.559829e-01	 1.141958e+00	-4.918804e+01
1	 4.425211e-01	 1.147242e+00	-5.004673e+01
1	 4.290317e-01	 1.152354e+00	-5.071677e+01
1	 4.155179e-01	 1.157296e+00	-5.119576e+01
1	 4.019828e-01	 1.162067e+00	-5.148145e+01
1	 4.722418e-01	 1.143350e+00	-4.973546e+01
1	 4.587297e-01	 1.148838e+00	-5.074764e+01
1	 4.451869e-01	 1.154153e+00	-5.157164e+01
1	 4.316163e-01	 1.159296e+00	-5.220683e+01
1	 4.180211e-01	 1.164268e+00	-5.265270e+01
1	 4.044044e-01	 1.169067e+00	-5.290888e+01
1	 4.750696e-01	 1.150196e+00	-5.125142e+01
1	 4.614766e-01	 1.155717e+00	-5.223270e+01
1	 4.478526e-01	 1.161064e+00	-5.302619e+01
1	 4.342008e-01	 1.166238e+00	-5.363202e+01
1	 4.205242e-01	 1.171239e+00	-5.405047e+01
1	 4.068260e-01	 1.176067e+00	-5.428195e+01
1	 4.778974e-01	 1.157042e+00	-5.269139e+01
1	 4.642235e-01	 1.162596e+00	-5.364404e+01
1	 4.505184e-01	 1.167975e+00	-5.441142e+01
1	 4.367853e-01	 1.173180e+00	-5.499338e+01
1	 4.230273e-01	 1.178211e+00	-5.538988e+01
1	 4.092476e-01	 1.183068e+00	-5.560102e+01
1	 4.807252e-01	 1.163889e+00	-5.405569e+01
1	 4.669704e-01	 1.169475e+00	-5.498245e+01
1	 4.531842e-01	 1.174886e+00	-5.572836e+01
1	 4.393698e-01	 1.180122e+00	-5.629191e+01
1	 4.255304e-01	 1.185183e+00	-5.667172e+01
1	 4.116692e-01	 1.190068e+00	-5.686649e+01
1	 3.995612e-01	 1.155066e+00	-4.999924e+01
1	 3.860895e-01	 1.159639e+00	-5.014135e+01
1	 3.726026e-01	 1.164042e+00	-5.012144e+01
1	 3.591035e-01	 1.168277e+00	-4.992992e+01
1	 3.455952e-01	 1.172344e+00	-4.955738e+01
1	 3.320807e-01	 1.176244e+00	-4.899456e+01
1	 4.019828e-01	 1.162067e+00	-5.148145e+01
1	 3.884294e-01	 1.166667e+00	-5.159480e+01
1	 3.748607e-01	 1.171097e+00	-5.155013e+01
1	 3.612799e-01	 1.175358e+00	-5.133532e+01
1	 3.476897e-01	 1.179449e+00	-5.093846e+01
1	 3.340933e-01	 1.183373e+00	-5.034775e+01
1	 4.044044e-01	 1.169067e+00	-5.290888e+01
1	 3.907693e-01	 1.173695e+00	-5.299679e+01
1	 3.771189e-01	 1.178152e+00	-5.292873e+01
1	 3.634562e-01	 1.182438e+00	-5.269085e+01
1	 3.497843e-01	 1.186555e+00	-5.226945e+01
1	 3.361059e-01	 1.190501e+00	-5.165096e+01
1	 4.068260e-01	 1.176067e+00	-5.428195e+01
1	 3.931093e-01	 1.180723e+00	-5.434727e+01
1	 3.793771e-01	 1.185207e+00	-5.425696e+01
1	 3.656326e-01	 1.189519e+00	-5.399615e+01
1	 3.518788e-01	 1.193660e+00	-5.355007e+01
1	 3.381185e-01	 1.197630e+00	-5.290416e+01
1	 4.092476e-01	 1.183068e+00	-5.560102e+01
1	 3.954492e-01	 1.187751e+00	-5.564621e+01
1	 3.816353e-01	 1.192262e+00	-5.553456e+01
1	 3.678090e-01	 1.196599e+00	-5.525087e+01
1	 3.539733e-01	 1.200765e+00	-5.478007e+01
1	 3.401311e-01	 1.204759e+00	-5.410728e+01
1	 4.116692e-01	 1.190068e+00	-5.686649e+01
1	 3.977892e-01	 1.194779e+00	-5.689359e+01
1	 3.838935e-01	 1.199316e+00	-5.676126e+01
1	 3.699854e-01	 1.203680e+00	-5.645468e+01
1	 3.560678e-01	 1.207870e+00	-5.595918e+01
1	 3.421438e-01	 1.211888e+00	-5.526028e+01
1	 3.320807e-01	 1.176244e+00	-4.899456e+01
1	 3.185628e-01	 1.179977e+00	-4.826469e+01
1	 3.050445e-01	 1.183543e+00	-4.740674e+01
1	 2.915285e-01	 1.186945e+00	-4.643542e+01
1	 2.780177e-01	 1.190182e+00	-4.536555e+01
1	 2.645149e-01	 1.193256e+00	-4.421208e+01
1	 3.340933e-01	 1.183373e+00	-5.034775e+01
1	 3.204935e-01	 1.187128e+00	-4.958638e+01
1	 3.068933e-01	 1.190716e+00	-4.869538e+01
1	 2.932954e-01	 1.194139e+00	-4.768999e+01
1	 2.797027e-01	 1.197395e+00	-4.658556e+01
1	 2.661180e-01	 1.200488e+00	-4.539760e+01
1	 3.361059e-01	 1.190501e+00	-5.165096e+01
1	 3.224242e-01	 1.194279e+00	-5.085933e+01
1	 3.087420e-01	 1.197889e+00	-4.993761e+01
1	 2.950622e-01	 1.201332e+00	-4.890120e+01
1	 2.813877e-01	 1.204608e+00	-4.776565e+01
1	 2.677211e-01	 1.207719e+00	-4.654660e+01
1	 3.381185e-01	 1.197630e+00	-5.290416e+01
1	 3.243549e-01	 1.201431e+00	-5.208372e+01
1	 3.105908e-01	 1.205062e+00	-5.113375e+01
1	 2.968291e-01	 1.208526e+00	-5.006948e+01
1	 2.830726e-01	 1.211822e+00	-4.890623e+01
1	 2.693242e-01	 1.214951e+00	-4.765947e+01
1	 3.401311e-01	 1.204759e+00	-5.410728e+01
1	 3.262856e-01	 1.208582e+00	-5.325972e+01
1	 3.124395e-01	 1.212235e+00	-5.228415e+01
1	 2.985959e-01	 1.215719e+00	-5.119522e+01
1	 2.847576e-01	 1.219035e+00	-5.000772e+01
1	 2.709274e-01	 1.222183e+00	-4.873654e+01
1	 3.421438e-01	 1.211888e+00	-5.526028e+01
1	 3.282163e-01	 1.215734e+00	-5.438753e+01
1	 3.142883e-01	 1.219408e+00	-5.338913e+01
1	 3.003627e-01	 1.222913e+00	-5.227884e+01
1	 2.864425e-01	 1.226248e+00	-5.107054e+01
1	 2.725305e-01	 1.229415e+00	-4.977819e+01
1	 2.645149e-01	 1.193256e+00	-4.421208e+01
1	 2.510227e-01	 1.196167e+00	-4.299227e+01
1	 2.375438e-01	 1.198916e+00	-4.172210e+01
1	 2.240809e-01	 1.201505e+00	-4.041465e+01
1	 2.106366e-01	 1.203935e+00	-3.908295e+01
1	 1.972134e-01	 1.206206e+00	-3.773999e+01
1	 2.661180e-01	 1.200488e+00	-4.539760e+01
1	 2.525440e-01	 1.203416e+00	-4.414374e+01
1	 2.389834e-01	 1.206182e+00	-4.284005e+01
1	 2.254390e-01	 1.208787e+00	-4.149965e+01
1	 2.119132e-01	 1.211232e+00	-4.013563e+01
1	 1.984087e-01	 1.213517e+00	-3.876104e+01
1	 2.677211e-01	 1.207719e+00	-4.654660e+01
1	 2.540654e-01	 1.210666e+00	-4.526182e+01
1	 2.404231e-01	 1.213449e+00	-4.392745e+01
1	 2.267970e-01	 1.216069e+00	-4.255680e+01
1	 2.131898e-01	 1.218528e+00	-4.116314e+01
1	 1.996039e-01	 1.220827e+00	-3.975969e+01
1	 2.693242e-01	 1.214951e+00	-4.765947e+01
1	 2.555867e-01	 1.217915e+00	-4.634679e+01
1	 2.418628e-01	 1.220715e+00	-4.498453e+01
1	 2.281551e-01	 1.223351e+00	-4.358628e+01
1	 2.144663e-01	 1.225825e+00	-4.216563e+01
1	 2.007991e-01	 1.228137e+00	-4.073608e+01
1	 2.709274e-01	 1.222183e+00	-4.873654e+01
1	 2.571081e-01	 1.225165e+00	-4.739893e+01
1	 2.433024e-01	 1.227981e+00	-4.601151e+01
1	 2.295132e-01	 1.230633e+00	-4.458829e+01
1	 2.157429e-01	 1.233121e+00	-4.314327e+01
1	 2.019944e-01	 1.235448e+00	-4.169038e+01
1	 2.725305e-01	 1.229415e+00	-4.977819e+01
1	 2.586294e-01	 1.232414e+00	-4.841852e+01
1	 2.447421e-01	 1.235247e+00	-4.700862e+01
1	 2.308712e-01	 1.237915e+00	-4.556301e+01
1	 2.170195e-01	 1.240418e+00	-4.409623e+01
1	 2.031896e-01	 1.242758e+00	-4.262274e+01
1	 1.972134e-01	 1.206206e+00	-3.773999e+01
1	 1.838139e-01	 1.208321e+00	-3.640318e+01
1	 1.704405e-01	 1.210280e+00	-3.509094e+01
1	 1.570957e-01	 1.212084e+00	-3.381752e+01
1	 1.437818e-01	 1.213736e+00	-3.259701e+01
1	 1.305012e-01	 1.215235e+00	-3.144325e+01
1	 1.984087e-01	 1.213517e+00	-3.876104e+01
1	 1.849280e-01	 1.215644e+00	-3.739343e+01
1	 1.714735e-01	 1.217615e+00	-3.605136e+01
1	 1.580478e-01	 1.219430e+00	-3.474919e+01
1	 1.446532e-01	 1.221092e+00	-3.350108e+01
1	 1.312921e-01	 1.222600e+00	-3.232095e+01
1	 1.996039e-01	 1.220827e+00	-3.975969e+01
1	 1.860420e-01	 1.222967e+00	-3.836419e+01
1	 1.725065e-01	 1.224950e+00	-3.699528e+01
1	 1.589999e-01	 1.226776e+00	-3.566729e+01
1	 1.455246e-01	 1.228447e+00	-3.439437e+01
1	 1.320830e-01	 1.229965e+00	-3.319040e+01
1	 2.007991e-01	 1.228137e+00	-4.073608e+01
1	 1.871560e-01	 1.230290e+00	-3.931563e+01
1	 1.735395e-01	 1.232285e+00	-3.792285e+01
1	 1.599520e-01	 1.234122e+00	-3.657196e+01
1	 1.463960e-01	 1.235803e+00	-3.527698e+01
1	 1.328739e-01	 1.237330e+00	-3.405166e+01
1	 2.019944e-01	 1.235448e+00	-4.169038e+01
1	 1.882700e-01	 1.237614e+00	-4.024789e+01
1	 1.745724e-01	 1.239620e+00	-3.883420e+01
1	 1.609041e-01	 1.241468e+00	-3.746331e+01
1	 1.472674e-01	 1.243159e+00	-3.614900e+01
1	 1.336648e-01	 1.244695e+00	-3.490482e+01
1	 2.031896e-01	 1.242758e+00	-4.262274e+01
1	 1.893840e-01	 1.244937e+00	-4.116111e+01
1	 1.756054e-01	 1.246955e+00	-3.972946e+01
1	 1.618562e-01	 1.248814e+00	-3.834146e+01
1	 1.481388e-01	 1.250515e+00	-3.701055e+01
1	 1.344557e-01	 1.252061e+00	-3.574995e+01
1	 1.305012e-01	 1.215235e+00	-3.144325e+01
1	 1.172560e-01	 1.216585e+00	-3.036944e+01
1	 1.040487e-01	 1.217785e+00	-2.938809e+01
1	 9.088122e-02	 1.218839e+00	-2.851152e+01
1	 7.775585e-02	 1.219746e+00	-2.775176e+01
1	 6.467464e-02	 1.220510e+00	-2.712051e+01
1	 1.312921e-01	 1.222600e+00	-3.232095e+01
1	 1.179667e-01	 1.223958e+00	-3.122209e+01
1	 1.046793e-01	 1.225166e+00	-3.021703e+01
1	 9.143201e-02	 1.226226e+00	-2.931813e+01
1	 7.822710e-02	 1.227139e+00	-2.853743e+01
1	 6.506660e-02	 1.227907e+00	-2.788665e+01
1	 1.320830e-01	 1.229965e+00	-3.319040e+01
1	 1.186773e-01	 1.231331e+00	-3.206867e+01
1	 1.053098e-01	 1.232546e+00	-3.104177e+01
1	 9.198281e-02	 1.233612e+00	-3.012210e+01
1	 7.869835e-02	 1.234531e+00	-2.932175e+01
1	 6.545857e-02	 1.235304e+00	-2.865246e+01
1	 1.328739e-01	 1.237330e+00	-3.405166e+01
1	 1.193880e-01	 1.238704e+00	-3.290924e+01
1	 1.059404e-01	 1.239927e+00	-3.186236e+01
1	 9.253360e-02	 1.240999e+00	-3.092348e+01
1	 7.916960e-02	 1.241924e+00	-3.010476e+01
1	 6.585054e-02	 1.242701e+00	-2.941798e+01
1	 1.336648e-01	 1.244695e+00	-3.490482e+01
1	 1.200986e-01	 1.246078e+00	-3.374385e+01
1	 1.065710e-01	 1.247307e+00	-3.267883e+01
1	 9.308440e-02	 1.248386e+00	-3.172231e+01
1	 7.964084e-02	 1.249316e+00	-3.088649e+01
1	 6.624251e-02	 1.250098e+00	-3.018324e+01
1	 1.344557e-01	 1.252061e+00	-3.574995e+01
1	 1.208092e-01	 1.253451e+00	-3.457257e+01
1	 1.072016e-01	 1.254688e+00	-3.349125e+01
1	 9.363520e-02	 1.255773e+00	-3.251861e+01
1	 8.011209e-02	 1.256708e+00	-3.166697e+01
1	 6.663447e-02	 1.257495e+00	-3.094827e+01
1	 6.467464e-02	 1.220510e+00	-2.712051e+01
1	 5.163960e-02	 1.221131e+00	-2.663024e+01
1	 3.865271e-02	 1.221611e+00	-2.629277e+01
1	 2.571591e-02	 1.221952e+00	-2.611823e+01
1	 1.283106e-02	 1.222155e+00	-2.611631e+01
1	 0.000000e+00	 1.222222e+00	-2.629635e+01
1	 6.506660e-02	 1.227907e+00	-2.788665e+01
1	 5.195256e-02	 1.228532e+00	-2.737832e+01
1	 3.888697e-02	 1.229015e+00	-2.702443e+01
1	 2.587176e-02	 1.229357e+00	-2.683532e+01
1	 1.290883e-02	 1.229562e+00	-2.682090e+01
1	 0.000000e+00	 1.229630e+00	-2.699066e+01
1	 6.545857e-02	 1.235304e+00	-2.865246e+01
1	 5.226553e-02	 1.235932e+00	-2.812681e+01
1	 3.912123e-02	 1.236418e+00	-2.775692e+01
1	 2.602762e-02	 1.236763e+00	-2.755325e+01
1	 1.298659e-02	 1.236969e+00	-2.752584e+01
1	 0.000000e+00	 1.237037e+00	-2.768434e+01
1	 6.585054e-02	 1.242701e+00	-2.941798e+01
1	 5.257850e-02	 1.243333e+00	-2.887576e+01
1	 3.935549e-02	 1.243822e+00	-2.849027e+01
1	 2.618347e-02	 1.244169e+00	-2.827205e+01
1	 1.306436e-02	 1.244376e+00	-2.823122e+01
1	 0.000000e+00	 1.244444e+00	-2.837747e+01
1	 6.624251e-02	 1.250098e+00	-3.018324e+01
1	 5.289147e-02	 1.250734e+00	-2.962521e+01
1	 3.958975e-02	 1.251226e+00	-2.922454e+01
1	 2.633933e-02	 1.251575e+00	-2.899179e+01
1	 1.314212e-02	 1.251783e+00	-2.893710e+01
1	 0.000000e+00	 1.251852e+00	-2.907017e+01
1	 6.663447e-02	 1.257495e+00	-3.094827e+01
1	 5.320443e-02	 1.258135e+00	-3.037518e+01
1	 3.982401e-02	 1.258629e+00	-2.995976e+01
1	 2.649518e-02	 1.258980e+00	-2.971253e+01
1	 1.321988e-02	 1.259190e+00	-2.964357e+01
1	 0.000000e+00	 1.259259e+00	-2.976253e+01
1	 1.259259e+00	 0.000000e+00	 2.179833e+01
1	 1.259190e+00	 1.321988e-02	 2.149836e+01
1	 1.258980e+00	 2.649518e-02	 2.124435e+01
1	 1.258629e+00	 3.982401e-02	 2.103401e+01
1	 1.258135e+00	 5.320443e-02	 2.086503e+01
1	 1.257495e+00	 6.663447e-02	 2.073505e+01
1	 1.266667e+00	 0.000000e+00	 2.161543e+01
1	 1.266597e+00	 1.329765e-02	 2.130876e+01
1	 1.266386e+00	 2.665103e-02	 2.104856e+01
1	 1.266033e+00	 4.005827e-02	 2.083257e+01
1	 1.265536e+00	 5.351740e-02	 2.065848e+01
1	 1.264892e+00	 6.702644e-02	 2.052393e+01
1	 1.274074e+00	 0.000000e+00	 2.143610e+01
1	 1.274004e+00	 1.337541e-02	 2.112285e+01
1	 1.273792e+00	 2.680689e-02	 2.085649e+01
1	 1.273437e+00	 4.029252e-02	 2.063479e+01
1	 1.272936e+00	 5.383037e-02	 2.045542e+01
1	 1.272289e+00	 6.741841e-02	 2.031603e+01
1	 1.281481e+00	 0.000000e+00	 2.126026e+01
1	 1.281411e+00	 1.345318e-02	 2.094054e+01
1	 1.281198e+00	 2.696274e-02	 2.066807e+01
1	 1.280840e+00	 4.052678e-02	 2.044059e+01
1	 1.280337e+00	 5.414334e-02	 2.025580e+01
1	 1.279686e+00	 6.781038e-02	 2.011134e+01
1	 1.288889e+00	 0.000000e+00	 2.108781e+01
1	 1.288818e+00	 1.353094e-02	 2.076175e+01
1	 1.288604e+00	 2.711860e-02	 2.048321e+01
1	 1.288244e+00	 4.076104e-02	 2.024992e+01
1	 1.287738e+00	 5.445630e-02	 2.005958e+01
1	 1.287083e+00	 6.820234e-02	 1.990982e+01
1	 1.296296e+00	 0.000000e+00	 2.091866e+01
1	 1.296225e+00	 1.360871e-02	 2.058640e+01
1	 1.296009e+00	 2.727445e-02	 2.030184e+01
1	 1.295648e+00	 4.099530e-02	 2.006271e+01
1	 1.295139e+00	 5.476927e-02	 1.986671e+01
1	 1.294480e+00	 6.859431e-02	 1.971144e+01
1	 1.257495e+00	 6.663447e-02	 2.073505e+01
1	 1.256708e+00	 8.011209e-02	 2.064306e+01
1	 1.255773e+00	 9.363520e-02	 2.058791e+01
1	 1.254688e+00	 1.072016e-01	 2.056696e+01
1	 1.253451e+00	 1.208092e-01	 2.057754e+01
1	 1.252061e+00	 1.344557e-01	 2.061695e+01
1	 1.264892e+00	 6.702644e-02	 2.052393e+01
1	 1.264101e+00	 8.058334e-02	 2.042799e+01
1	 1.263160e+00	 9.418599e-02	 2.036958e+01
1	 1.262068e+00	 1.078322e-01	 2.034604e+01
1	 1.260824e+00	 1.215199e-01	 2.035468e+01
1	 1.259426e+00	 1.352467e-01	 2.039277e+01
1	 1.272289e+00	 6.741841e-02	 2.031603e+01
1	 1.271493e+00	 8.105459e-02	 2.021580e+01
1	 1.270547e+00	 9.473679e-02	 2.015372e+01
1	 1.269449e+00	 1.084628e-01	 2.012712e+01
1	 1.268197e+00	 1.222305e-01	 2.013330e+01
1	 1.266791e+00	 1.360376e-01	 2.016954e+01
1	 1.279686e+00	 6.781038e-02	 2.011134e+01
1	 1.278886e+00	 8.152583e-02	 2.000648e+01
1	 1.277934e+00	 9.528758e-02	 1.994033e+01
1	 1.276829e+00	 1.090934e-01	 1.991022e+01
1	 1.275571e+00	 1.229412e-01	 1.991345e+01
1	 1.274156e+00	 1.368285e-01	 1.994730e+01
1	 1.287083e+00	 6.820234e-02	 1.990982e+01
1	 1.286278e+00	 8.199708e-02	 1.980001e+01
1	 1.285321e+00	 9.583838e-02	 1.972940e+01
1	 1.284210e+00	 1.097240e-01	 1.969533e+01
1	 1.282944e+00	 1.236518e-01	 1.969512e+01
1	 1.281521e+00	 1.376194e-01	 1.972607e+01
1	 1.294480e+00	 6.859431e-02	 1.971144e+01
1	 1.293670e+00	 8.246833e-02	 1.959640e+01
1	 1.292708e+00	 9.638917e-02	 1.952096e+01
1	 1.291590e+00	 1.103546e-01	 1.948249e+01
1	 1.290317e+00	 1.243625e-01	 1.947835e+01
1	 1.288886e+00	 1.384103e-01	 1.950588e+01
1	 1.252061e+00	 1.344557e-01	 2.061695e+01
1	 1.250515e+00	 1.481388e-01	 2.068468e+01
1	 1.248814e+00	 1.618562e-01	 2.078034e+01
1	 1.246955e+00	 1.756054e-01	 2.090148e+01
1	 1.244937e+00	 1.893840e-01	 2.104563e+01
1	 1.242758e+00	 2.031896e-01	 2.121036e+01
1	 1.259426e+00	 1.352467e-01	 2.039277e+01
1	 1.257871e+00	 1.490102e-01	 2.045976e+01
1	 1.256160e+00	 1.628083e-01	 2.055530e+01
1	 1.254290e+00	 1.766384e-01	 2.067696e+01
1	 1.252260e+00	 1.904981e-01	 2.082231e+01
1	 1.250069e+00	 2.043848e-01	 2.098895e+01
1	 1.266791e+00	 1.360376e-01	 2.016954e+01
1	 1.265227e+00	 1.498816e-01	 2.023524e+01
1	 1.263506e+00	 1.637604e-01	 2.033002e+01
1	 1.261625e+00	 1.776714e-01	 2.045149e+01
1	 1.259583e+00	 1.916121e-01	 2.059728e+01
1	 1.257379e+00	 2.055801e-01	 2.076499e+01
1	 1.274156e+00	 1.368285e-01	 1.994730e+01
1	 1.272583e+00	 1.507531e-01	 2.001113e+01
1	 1.270852e+00	 1.647125e-01	 2.010454e+01
1	 1.268960e+00	 1.787043e-01	 2.022515e+01
1	 1.266906e+00	 1.927261e-01	 2.037062e+01
1	 1.264689e+00	 2.067753e-01	 2.053859e+01
1	 1.281521e+00	 1.376194e-01	 1.972607e+01
1	 1.279939e+00	 1.516245e-01	 1.978748e+01
1	 1.278198e+00	 1.656646e-01	 1.987890e+01
1	 1.276295e+00	 1.797373e-01	 1.999799e+01
1	 1.274229e+00	 1.938401e-01	 2.014242e+01
1	 1.272000e+00	 2.079705e-01	 2.030985e+01
1	 1.288886e+00	 1.384103e-01	 1.950588e+01
1	 1.287295e+00	 1.524959e-01	 1.956431e+01
1	 1.285544e+00	 1.666167e-01	 1.965314e+01
1	 1.283630e+00	 1.807703e-01	 1.977005e+01
1	 1.281553e+00	 1.949542e-01	 1.991273e+01
1	 1.279310e+00	 2.091658e-01	 2.007888e+01
1	 1.242758e+00	 2.031896e-01	 2.121036e+01
1	 1.240418e+00	 2.170195e-01	 2.139024e+01
1	 1.237915e+00	 2.308712e-01	 2.157973e+01
1	 1.235247e+00	 2.447421e-01	 2.177631e+01
1	 1.232414e+00	 2.586294e-01	 2.197752e+01
1	 1.229415e+00	 2.725305e-01	 2.218096e+01
1	 1.250069e+00	 2.043848e-01	 2.098895e+01
1	 1.247714e+00	 2.182961e-01	 2.117160e+01
1	 1.245196e+00	 2.322293e-01	 2.136480e+01
1	 1.242513e+00	 2.461817e-01	 2.156593e+01
1	 1.239664e+00	 2.601508e-01	 2.177242e+01
1	 1.236647e+00	 2.741336e-01	 2.198181e+01
1	 1.257379e+00	 2.055801e-01	 2.076499e+01
1	 1.255011e+00	 2.195727e-01	 2.094956e+01
1	 1.252478e+00	 2.335874e-01	 2.114565e+01
1	 1.249779e+00	 2.476214e-01	 2.135057e+01
1	 1.246913e+00	 2.616721e-01	 2.156168e+01
1	 1.243879e+00	 2.757367e-01	 2.177645e+01
1	 1.264689e+00	 2.067753e-01	 2.053859e+01
1	 1.262308e+00	 2.208493e-01	 2.072423e+01
1	 1.259760e+00	 2.349454e-01	 2.092241e+01
1	 1.257045e+00	 2.490611e-01	 2.113035e+01
1	 1.254163e+00	 2.631935e-01	 2.134539e+01
1	 1.251110e+00	 2.773398e-01	 2.156491e+01
1	 1.272000e+00	 2.079705e-01	 2.030985e+01
1	 1.269604e+00	 2.221259e-01	 2.049575e+01
1	 1.267042e+00	 2.363035e-01	 2.069520e+01
1	 1.264312e+00	 2.505007e-01	 2.090540e+01
1	 1.261412e+00	 2.647148e-01	 2.112363e+01
1	 1.258342e+00	 2.789430e-01	 2.134724e+01
1	 1.279310e+00	 2.091658e-01	 2.007888e+01
1	 1.276901e+00	 2.234024e-01	 2.026423e+01
1	 1.274324e+00	 2.376616e-01	 2.046416e+01
1	 1.271578e+00	 2.519404e-01	 2.067583e+01
1	 1.268662e+00	 2.662362e-01	 2.089650e+01
1	 1.265574e+00	 2.805461e-01	 2.112348e+01
1	 1.229415e+00	 2.725305e-01	 2.218096e+01
1	 1.226248e+00	 2.864425e-01	 2.238765e+01
1	 1.222913e+00	 3.003627e-01	 2.259905e+01
1	 1.219408e+00	 3.142883e-01	 2.281360e+01
1	 1.215734e+00	 3.282163e-01	 2.302985e+01
1	 1.211888e+00	 3.421438e-01	 2.324646e+01
1	 1.236647e+00	 2.741336e-01	 2.198181e+01
1	 1.233461e+00	 2.881275e-01	 2.219500e+01
1	 1.230107e+00	 3.021296e-01	 2.241342e+01
1	 1.226581e+00	 3.161370e-01	 2.263559e+01
1	 1.222885e+00	 3.301469e-01	 2.286008e+01
1	 1.219016e+00	 3.441564e-01	 2.308558e+01
1	 1.243879e+00	 2.757367e-01	 2.177645e+01
1	 1.240675e+00	 2.898124e-01	 2.199554e+01
1	 1.237300e+00	 3.038964e-01	 2.222025e+01
1	 1.233754e+00	 3.179858e-01	 2.244913e+01
1	 1.230036e+00	 3.320776e-01	 2.268079e+01
1	 1.226145e+00	 3.461690e-01	 2.291392e+01
1	 1.251110e+00	 2.773398e-01	 2.156491e+01
1	 1.247888e+00	 2.914974e-01	 2.178928e+01
1	 1.244494e+00	 3.056633e-01	 2.201955e+01
1	 1.240927e+00	 3.198345e-01	 2.225428e+01
1	 1.237188e+00	 3.340083e-01	 2.249211e+01
1	 1.233274e+00	 3.481816e-01	 2.273173e+01
1	 1.258342e+00	 2.789430e-01	 2.134724e+01
1	 1.255101e+00	 2.931823e-01	 2.157622e+01
1	 1.251687e+00	 3.074301e-01	 2.181131e+01
1	 1.248100e+00	 3.216833e-01	 2.205107e+01
1	 1.244339e+00	 3.359390e-01	 2.229416e+01
1	 1.240403e+00	 3.501942e-01	 2.253926e+01
1	 1.265574e+00	 2.805461e-01	 2.112348e+01
1	 1.262314e+00	 2.948673e-01	 2.135637e+01
1	 1.258881e+00	 3.091969e-01	 2.159554e+01
1	 1.255273e+00	 3.235321e-01	 2.183955e+01
1	 1.251490e+00	 3.378697e-01	 2.208705e+01
1	 1.247531e+00	 3.522068e-01	 2.233672e+01
1	 1.211888e+00	 3.421438e-01	 2.324646e+01
1	 1.207870e+00	 3.560678e-01	 2.343039e+01
1	 1.203680e+00	 3.699854e-01	 2.355069e+01
1	 1.199316e+00	 3.838935e-01	 2.360926e+01
1	 1.194779e+00	 3.977892e-01	 2.360793e+01
1	 1.190068e+00	 4.116692e-01	 2.354844e+01
1	 1.219016e+00	 3.441564e-01	 2.308558e+01
1	 1.214975e+00	 3.581623e-01	 2.327766e+01
1	 1.210760e+00	 3.721618e-01	 2.340402e+01
1	 1.206371e+00	 3.861517e-01	 2.346658e+01
1	 1.201807e+00	 4.001291e-01	 2.346719e+01
1	 1.197069e+00	 4.140907e-01	 2.340766e+01
1	 1.226145e+00	 3.461690e-01	 2.291392e+01
1	 1.222080e+00	 3.602568e-01	 2.311293e+01
1	 1.217841e+00	 3.743382e-01	 2.324440e+01
1	 1.213426e+00	 3.884099e-01	 2.331028e+01
1	 1.208836e+00	 4.024690e-01	 2.331254e+01
1	 1.204069e+00	 4.165123e-01	 2.325306e+01
1	 1.233274e+00	 3.481816e-01	 2.273173e+01
1	 1.229185e+00	 3.623513e-01	 2.293655e+01
1	 1.224921e+00	 3.765146e-01	 2.307217e+01
1	 1.220481e+00	 3.906681e-01	 2.314068e+01
1	 1.215864e+00	 4.048090e-01	 2.314414e+01
1	 1.211069e+00	 4.189339e-01	 2.308459e+01
1	 1.240403e+00	 3.501942e-01	 2.253926e+01
1	 1.236290e+00	 3.644459e-01	 2.274884e+01
1	 1.232002e+00	 3.786909e-01	 2.288770e+01
1	 1.227536e+00	 3.929263e-01	 2.295807e+01
1	 1.222892e+00	 4.071489e-01	 2.296217e+01
1	 1.218070e+00	 4.213555e-01	 2.290219e+01
1	 1.247531e+00	 3.522068e-01	 2.233672e+01
1	 1.243395e+00	 3.665404e-01	 2.255014e+01
1	 1.239082e+00	 3.808673e-01	 2.269133e+01
1	 1.234590e+00	 3.951845e-01	 2.276274e+01
1	 1.229920e+00	 4.094888e-01	 2.276677e+01
1	 1.225070e+00	 4.237771e-01	 2.270582e+01
1	 1.190068e+00	 4.116692e-01	 2.354844e+01
1	 1.185183e+00	 4.255304e-01	 2.341040e+01
1	 1.180122e+00	 4.393698e-01	 2.317358e+01
1	 1.174886e+00	 4.531842e-01	 2.284001e+01
1	 1.169475e+00	 4.669704e-01	 2.241187e+01
1	 1.163889e+00	 4.807252e-01	 2.189144e+01
1	 1.197069e+00	 4.140907e-01	 2.340766e+01
1	 1.192154e+00	 4.280335e-01	 2.326864e+01
1	 1.187064e+00	 4.419544e-01	 2.303098e+01
1	 1.181797e+00	 4.558500e-01	 2.269681e+01
1	 1.176355e+00	 4.697173e-01	 2.226839e+01
1	 1.170735e+00	 4.835529e-01	 2.174808e+01
1	 1.204069e+00	 4.165123e-01	 2.325306e+01
1	 1.199126e+00	 4.305367e-01	 2.311334e+01
1	 1.194006e+00	 4.445389e-01	 2.287502e+01
1	 1.188709e+00	 4.585158e-01	 2.254026e+01
1	 1.183234e+00	 4.724642e-01	 2.211133e+01
1	 1.177582e+00	 4.863807e-01	 2.159058e+01
1	 1.211069e+00	 4.189339e-01	 2.308459e+01
1	 1.206098e+00	 4.330398e-01	 2.294426e+01
1	 1.200948e+00	 4.471234e-01	 2.270540e+01
1	 1.195620e+00	 4.611816e-01	 2.237015e+01
1	 1.190113e+00	 4.752110e-01	 2.194068e+01
1	 1.184428e+00	 4.892085e-01	 2.141930e+01
1	 1.218070e+00	 4.213555e-01	 2.290219e+01
1	 1.213069e+00	 4.355429e-01	 2.276114e+01
1	 1.207890e+00	 4.497080e-01	 2.252184e+01
1	 1.202531e+00	 4.638474e-01	 2.218624e+01
1	 1.196992e+00	 4.779579e-01	 2.175643e+01
1	 1.191274e+00	 4.920363e-01	 2.123458e+01
1	 1.225070e+00	 4.237771e-01	 2.270582e+01
1	 1.220041e+00	 4.380460e-01	 2.256377e+01
1	 1.214832e+00	 4.522925e-01	 2.232402e+01
1	 1.209442e+00	 4.665132e-01	 2.198833e+01
1	 1.203872e+00	 4.807048e-01	 2.155857e+01
1	 1.198121e+00	 4.948641e-01	 2.103674e+01
1	 1.163889e+00	 4.807252e-01	 2.189144e+01
1	 1.158127e+00	 4.944453e-01	 2.128188e+01
1	 1.152189e+00	 5.081275e-01	 2.058548e+01
1	 1.146077e+00	 5.217686e-01	 1.980339e+01
1	 1.139788e+00	 5.353654e-01	 1.893673e+01
1	 1.133326e+00	 5.489144e-01	 1.798662e+01
1	 1.170735e+00	 4.835529e-01	 2.174808e+01
1	 1.164939e+00	 4.973538e-01	 2.113856e+01
1	 1.158967e+00	 5.111165e-01	 2.044150e+01
1	 1.152818e+00	 5.248379e-01	 1.965777e+01
1	 1.146493e+00	 5.385146e-01	 1.878825e+01
1	 1.139992e+00	 5.521434e-01	 1.783388e+01
1	 1.177582e+00	 4.863807e-01	 2.159058e+01
1	 1.171752e+00	 5.002623e-01	 2.098044e+01
1	 1.165745e+00	 5.141055e-01	 2.028219e+01
1	 1.159560e+00	 5.279071e-01	 1.949653e+01
1	 1.153198e+00	 5.416638e-01	 1.862421e+01
1	 1.146659e+00	 5.553723e-01	 1.766600e+01
1	 1.184428e+00	 4.892085e-01	 2.141930e+01
1	 1.178564e+00	 5.031708e-01	 2.080820e+01
1	 1.172522e+00	 5.170945e-01	 2.010839e+01
1	 1.166301e+00	 5.309763e-01	 1.932052e+01
1	 1.159902e+00	 5.448130e-01	 1.844524e+01
1	 1.153325e+00	 5.586012e-01	 1.748324e+01
1	 1.191274e+00	 4.920363e-01	 2.123458e+01
1	 1.185377e+00	 5.060793e-01	 2.062250e+01
1	 1.179300e+00	 5.200835e-01	 1.992093e+01
1	 1.173043e+00	 5.340455e-01	 1.913054e+01
1	 1.166607e+00	 5.479622e-01	 1.825196e+01
1	 1.159992e+00	 5.618301e-01	 1.728586e+01
1	 1.198121e+00	 4.948641e-01	 2.103674e+01
1	 1.192189e+00	 5.089878e-01	 2.042400e+01
1	 1.186077e+00	 5.230724e-01	 1.972062e+01
1	 1.179785e+00	 5.371148e-01	 1.892737e+01
1	 1.173312e+00	 5.511114e-01	 1.804497e+01
1	 1.166659e+00	 5.650590e-01	 1.707410e+01
1	 1.133326e+00	 5.489144e-01	 1.798662e+01
1	 1.126688e+00	 5.624126e-01	 1.696070e+01
1	 1.119876e+00	 5.758565e-01	 1.586690e+01
1	 1.112891e+00	 5.892430e-01	 1.470654e+01
1	 1.105733e+00	 6.025686e-01	 1.348065e+01
1	 1.098402e+00	 6.158303e-01	 1.218992e+01
1	 1.139992e+00	 5.521434e-01	 1.783388e+01
1	 1.133316e+00	 5.657209e-01	 1.680073e+01
1	 1.126464e+00	 5.792439e-01	 1.569542e+01
1	 1.119438e+00	 5.927091e-01	 1.451941e+01
1	 1.112237e+00	 6.061132e-01	 1.327391e+01
1	 1.104863e+00	 6.194528e-01	 1.195986e+01
1	 1.146659e+00	 5.553723e-01	 1.766600e+01
1	 1.139943e+00	 5.690292e-01	 1.662661e+01
1	 1.133051e+00	 5.826313e-01	 1.551137e+01
1	 1.125984e+00	 5.961752e-01	 1.432182e+01
1	 1.118741e+00	 6.096577e-01	 1.305927e+01
1	 1.111324e+00	 6.230753e-01	 1.172483e+01
1	 1.153325e+00	 5.586012e-01	 1.748324e+01
1	 1.146571e+00	 5.723375e-01	 1.643813e+01
1	 1.139639e+00	 5.860187e-01	 1.531413e+01
1	 1.132530e+00	 5.996414e-01	 1.411277e+01
1	 1.125246e+00	 6.132022e-01	 1.283540e+01
1	 1.117786e+00	 6.266979e-01	 1.148320e+01
1	 1.159992e+00	 5.618301e-01	 1.728586e+01
1	 1.153198e+00	 5.756458e-01	 1.623510e+01
1	 1.146226e+00	 5.894061e-01	 1.510311e+01
1	 1.139077e+00	 6.031075e-01	 1.389130e+01
1	 1.131750e+00	 6.167467e-01	 1.260098e+01
1	 1.124247e+00	 6.303204e-01	 1.123336e+01
1	 1.166659e+00	 5.650590e-01	 1.707410e+01
1	 1.159826e+00	 5.789541e-01	 1.601734e+01
1	 1.152814e+00	 5.927935e-01	 1.487772e+01
1	 1.145623e+00	 6.065737e-01	 1.365646e+01
1	 1.138254e+00	 6.202913e-01	 1.235475e+01
1	 1.130708e+00	 6.339429e-01	 1.097375e+01
1	 1.098402e+00	 6.158303e-01	 1.218992e+01
1	 1.090900e+00	 6.290246e-01	 1.085947e+01
1	 1.083226e+00	 6.421483e-01	 9.512195e+00
1	 1.075383e+00	 6.551981e-01	 8.145007e+00
1	 1.067371e+00	 6.681709e-01	 6.754520e+00
1	 1.059191e+00	 6.810634e-01	 5.337060e+00
1	 1.104863e+00	 6.194528e-01	 1.195986e+01
1	 1.097317e+00	 6.327247e-01	 1.060255e+01
1	 1.089598e+00	 6.459256e-01	 9.224773e+00
1	 1.081709e+00	 6.590522e-01	 7.823164e+00
1	 1.073650e+00	 6.721013e-01	 6.393965e+00
1	 1.065422e+00	 6.850696e-01	 4.933002e+00
1	 1.111324e+00	 6.230753e-01	 1.172483e+01
1	 1.103734e+00	 6.364248e-01	 1.034315e+01
1	 1.095970e+00	 6.497029e-01	 8.936146e+00
1	 1.088035e+00	 6.629063e-01	 7.500284e+00
1	 1.079929e+00	 6.760317e-01	 6.031516e+00
1	 1.071653e+00	 6.890759e-01	 4.525291e+00
1	 1.117786e+00	 6.266979e-01	 1.148320e+01
1	 1.110151e+00	 6.401250e-01	 1.007946e+01
1	 1.102342e+00	 6.534803e-01	 8.644605e+00
1	 1.094361e+00	 6.667604e-01	 7.174987e+00
1	 1.086207e+00	 6.799621e-01	 5.666369e+00
1	 1.077883e+00	 6.930821e-01	 4.113941e+00
1	 1.124247e+00	 6.303204e-01	 1.123336e+01
1	 1.116568e+00	 6.438251e-01	 9.809723e+00
1	 1.108714e+00	 6.572576e-01	 8.348480e+00
1	 1.100686e+00	 6.706145e-01	 6.845928e+00
1	 1.092486e+00	 6.838926e-01	 5.297739e+00
1	 1.084114e+00	 6.970884e-01	 3.698965e+00
1	 1.130708e+00	 6.339429e-01	 1.097375e+01
1	 1.122985e+00	 6.475253e-01	 9.532234e+00
1	 1.115086e+00	 6.610350e-01	 8.046141e+00
1	 1.107012e+00	 6.744686e-01	 6.511790e+00
1	 1.098765e+00	 6.878230e-01	 4.924859e+00
1	 1.090344e+00	 7.010946e-01	 3.280376e+00
1	 1.059191e+00	 6.810634e-01	 5.337060e+00
1	 1.050845e+00	 6.938723e-01	 3.914567e+00
1	 1.042333e+00	 7.065946e-01	 2.513347e+00
1	 1.033657e+00	 7.192270e-01	 1.136429e+00
1	 1.024818e+00	 7.317664e-01	-2.126602e-01
1	 1.015818e+00	 7.442096e-01	-1.529899e+00
1	 1.065422e+00	 6.850696e-01	 4.933002e+00
1	 1.057026e+00	 6.979539e-01	 3.466306e+00
1	 1.048464e+00	 7.107510e-01	 2.025086e+00
1	 1.039737e+00	 7.234577e-01	 6.130856e-01
1	 1.030846e+00	 7.360709e-01	-7.653343e-01
1	 1.021793e+00	 7.485873e-01	-2.105202e+00
1	 1.071653e+00	 6.890759e-01	 4.525291e+00
1	 1.063208e+00	 7.020355e-01	 3.012872e+00
1	 1.054596e+00	 7.149075e-01	 1.531381e+00
1	 1.045818e+00	 7.276885e-01	 8.520367e-02
1	 1.036875e+00	 7.403754e-01	-1.320567e+00
1	 1.027769e+00	 7.529651e-01	-2.680140e+00
1	 1.077883e+00	 6.930821e-01	 4.113941e+00
1	 1.069389e+00	 7.061171e-01	 2.555068e+00
1	 1.060727e+00	 7.190639e-01	 1.033529e+00
1	 1.051898e+00	 7.319192e-01	-4.457171e-01
1	 1.042903e+00	 7.446799e-01	-1.876948e+00
1	 1.033744e+00	 7.573428e-01	-3.253683e+00
1	 1.084114e+00	 6.970884e-01	 3.698965e+00
1	 1.075571e+00	 7.101987e-01	 2.093679e+00
1	 1.066858e+00	 7.232203e-01	 5.328001e-01
1	 1.057978e+00	 7.361500e-01	-9.782109e-01
1	 1.048931e+00	 7.489844e-01	-2.433099e+00
1	 1.039719e+00	 7.617205e-01	-3.824824e+00
1	 1.090344e+00	 7.010946e-01	 3.280376e+00
1	 1.081752e+00	 7.142803e-01	 1.629471e+00
1	 1.072990e+00	 7.273768e-01	 3.043259e-02
1	 1.064059e+00	 7.403807e-01	-1.510846e+00
1	 1.054960e+00	 7.532889e-01	-2.987675e+00
1	 1.045695e+00	 7.660982e-01	-4.392580e+00
1	 1.015818e+00	 7.442096e-01	-1.529899e+00
1	 1.006658e+00	 7.565537e-01	-2.773300e+00
1	 9.973401e-01	 7.687956e-01	-3.902174e+00
1	 9.878657e-01	 7.809322e-01	-4.913857e+00
1	 9.782368e-01	 7.929606e-01	-5.805391e+00
1	 9.684552e-01	 8.048779e-01	-6.573530e+00
1	 1.021793e+00	 7.485873e-01	-2.105202e+00
1	 1.012580e+00	 7.610041e-01	-3.364860e+00
1	 1.003207e+00	 7.733179e-01	-4.505092e+00
1	 9.936767e-01	 7.855259e-01	-5.523969e+00
1	 9.839912e-01	 7.976251e-01	-6.419351e+00
1	 9.741520e-01	 8.096125e-01	-7.188892e+00
1	 1.027769e+00	 7.529651e-01	-2.680140e+00
1	 1.018501e+00	 7.654544e-01	-3.953163e+00
1	 1.009073e+00	 7.778403e-01	-5.102747e+00
1	 9.994877e-01	 7.901197e-01	-6.127665e+00
1	 9.897455e-01	 8.022896e-01	-7.026549e+00
1	 9.798488e-01	 8.143470e-01	-7.797892e+00
1	 1.033744e+00	 7.573428e-01	-3.253683e+00
1	 1.024423e+00	 7.699047e-01	-4.537636e+00
1	 1.014940e+00	 7.823626e-01	-5.694890e+00
1	 1.005299e+00	 7.947134e-01	-6.724889e+00
1	 9.954998e-01	 8.069541e-01	-7.626991e+00
1	 9.855456e-01	 8.190816e-01	-8.400469e+00
1	 1.039719e+00	 7.617205e-01	-3.824824e+00
1	 1.030344e+00	 7.743550e-01	-5.117720e+00
1	 1.020807e+00	 7.868849e-01	-6.281280e+00
1	 1.011110e+00	 7.993071e-01	-7.315589e+00
1	 1.001254e+00	 8.116185e-01	-8.220684e+00
1	 9.912424e-01	 8.238162e-01	-8.996565e+00
1	 1.045695e+00	 7.660982e-01	-4.392580e+00
1	 1.036266e+00	 7.788053e-01	-5.692867e+00
1	 1.026674e+00	 7.914072e-01	-6.861681e+00
1	 1.016921e+00	 8.039008e-01	-7.899711e+00
1	 1.007009e+00	 8.162830e-01	-8.807636e+00
1	 9.969392e-01	 8.285508e-01	-9.586120e+00
1	 9.684552e-01	 8.048779e-01	-6.573530e+00
1	 9.585227e-01	 8.166811e-01	-7.248589e+00
1	 9.484415e-01	 8.283675e-01	-7.862571e+00
1	 9.382135e-01	 8.399341e-01	-8.414579e+00
1	 9.278409e-01	 8.513784e-01	-8.903744e+00
1	 9.173259e-01	 8.626975e-01	-9.329237e+00
1	 9.741520e-01	 8.096125e-01	-7.188892e+00
1	 9.641611e-01	 8.214851e-01	-7.865046e+00
1	 9.540205e-01	 8.332402e-01	-8.481138e+00
1	 9.437324e-01	 8.448749e-01	-9.035977e+00
1	 9.332988e-01	 8.563865e-01	-9.528373e+00
1	 9.227220e-01	 8.677722e-01	-9.957141e+00
1	 9.798488e-01	 8.143470e-01	-7.797892e+00
1	 9.697995e-01	 8.262891e-01	-8.475753e+00
1	 9.595996e-01	 8.381130e-01	-9.094287e+00
1	 9.492513e-01	 8.498157e-01	-9.652012e+00
1	 9.387567e-01	 8.613946e-01	-1.014742e+01
1	 9.281180e-01	 8.728469e-01	-1.057899e+01
1	 9.855456e-01	 8.190816e-01	-8.400469e+00
1	 9.754378e-01	 8.310931e-01	-9.080535e+00
1	 9.651787e-01	 8.429857e-01	-9.701766e+00
1	 9.547702e-01	 8.547565e-01	-1.026239e+01
1	 9.442145e-01	 8.664027e-01	-1.076060e+01
1	 9.335140e-01	 8.779216e-01	-1.119452e+01
1	 9.912424e-01	 8.238162e-01	-8.996565e+00
1	 9.810762e-01	 8.358972e-01	-9.679221e+00
1	 9.707577e-01	 8.478585e-01	-1.030333e+01
1	 9.602891e-01	 8.596973e-01	-1.086683e+01
1	 9.496724e-01	 8.714108e-01	-1.136761e+01
1	 9.389101e-01	 8.829963e-01	-1.180348e+01
1	 9.969392e-01	 8.285508e-01	-9.586120e+00
1	 9.867146e-01	 8.407012e-01	-1.027164e+01
1	 9.763368e-01	 8.527312e-01	-1.089874e+01
1	 9.658080e-01	 8.646381e-01	-1.146506e+01
1	 9.551303e-01	 8.764189e-01	-1.196819e+01
1	 9.443061e-01	 8.880710e-01	-1.240564e+01
1	 9.173259e-01	 8.626975e-01	-9.329237e+00
1	 9.066709e-01	 8.738889e-01	-9.722594e+00
1	 8.958781e-01	 8.849499e-01	-1.011587e+01
1	 8.849499e-01	 8.958781e-01	-1.050909e+01
1	 8.738889e-01	 9.066709e-01	-1.090238e+01
1	 8.626975e-01	 9.173259e-01	-1.129593e+01
1	 9.227220e-01	 8.677722e-01	-9.957141e+00
1	 9.120042e-01	 8.790294e-01	-1.035401e+01
1	 9.011479e-01	 8.901555e-01	-1.075148e+01
1	 8.901555e-01	 9.011479e-01	-1.114960e+01
1	 8.790294e-01	 9.120042e-01	-1.154850e+01
1	 8.677722e-01	 9.227220e-01	-1.194841e+01
1	 9.281180e-01	 8.728469e-01	-1.057899e+01
1	 9.173376e-01	 8.841699e-01	-1.097877e+01
1	 9.064178e-01	 8.953611e-01	-1.137990e+01
1	 8.953611e-01	 9.064178e-01	-1.178249e+01
1	 8.841699e-01	 9.173376e-01	-1.218673e+01
1	 8.728469e-01	 9.281180e-01	-1.259292e+01
1	 9.335140e-01	 8.779216e-01	-1.119452e+01
1	 9.226709e-01	 8.893105e-01	-1.159669e+01
1	 9.116877e-01	 9.005667e-01	-1.200101e+01
1	 9.005667e-01	 9.116877e-01	-1.240771e+01
1	 8.893105e-01	 9.226709e-01	-1.281710e+01
1	 8.779216e-01	 9.335140e-01	-1.322959e+01
1	 9.389101e-01	 8.829963e-01	-1.180348e+01
1	 9.280043e-01	 8.944510e-01	-1.220757e+01
1	 9.169576e-01	 9.057723e-01	-1.261468e+01
1	 9.057723e-01	 9.169576e-01	-1.302521e+01
1	 8.944510e-01	 9.280043e-01	-1.343964e+01
1	 8.829963e-01	 9.389101e-01	-1.385853e+01
1	 9.443061e-01	 8.880710e-01	-1.240564e+01
1	 9.333377e-01	 8.995915e-01	-1.281121e+01
1	 9.222274e-01	 9.109779e-01	-1.322078e+01
1	 9.109779e-01	 9.222274e-01	-1.363494e+01
1	 8.995915e-01	 9.333377e-01	-1.405438e+01
1	 8.880710e-01	 9.443061e-01	-1.447987e+01
1	 8.626975e-01	 9.173259e-01	-1.129593e+01
1	 8.513784e-01	 9.278409e-01	-1.172391e+01
1	 8.399341e-01	 9.382135e-01	-1.221904e+01
1	 8.283675e-01	 9.484415e-01	-1.277943e+01
1	 8.166811e-01	 9.585227e-01	-1.340321e+01
1	 8.048779e-01	 9.684552e-01	-1.408852e+01
1	 8.677722e-01	 9.227220e-01	-1.194841e+01
1	 8.563865e-01	 9.332988e-01	-1.238361e+01
1	 8.448749e-01	 9.437324e-01	-1.288735e+01
1	 8.332402e-01	 9.540205e-01	-1.345836e+01
1	 8.214851e-01	 9.641611e-01	-1.409542e+01
1	 8.096125e-01	 9.741520e-01	-1.479739e+01
1	 8.728469e-01	 9.281180e-01	-1.259292e+01
1	 8.613946e-01	 9.387567e-01	-1.303563e+01
1	 8.498157e-01	 9.492513e-01	-1.354864e+01
1	 8.381130e-01	 9.595996e-01	-1.413114e+01
1	 8.262891e-01	 9.697995e-01	-1.478237e+01
1	 8.143470e-01	 9.798488e-01	-1.550169e+01
1	 8.779216e-01	 9.335140e-01	-1.322959e+01
1	 8.664027e-01	 9.442145e-01	-1.368016e+01
1	 8.547565e-01	 9.547702e-01	-1.420309e+01
1	 8.429857e-01	 9.651787e-01	-1.479783e+01
1	 8.310931e-01	 9.754378e-01	-1.546395e+01
1	 8.190816e-01	 9.855456e-01	-1.620109e+01
1	 8.829963e-01	 9.389101e-01	-1.385853e+01
1	 8.714108e-01	 9.496724e-01	-1.431736e+01
1	 8.596973e-01	 9.602891e-01	-1.485082e+01
1	 8.478585e-01	 9.707577e-01	-1.545850e+01
1	 8.358972e-01	 9.810762e-01	-1.614004e+01
1	 8.238162e-01	 9.912424e-01	-1.689523e+01
1	 8.880710e-01	 9.443061e-01	-1.447987e+01
1	 8.764189e-01	 9.551303e-01	-1.494740e+01
1	 8.646381e-01	 9.658080e-01	-1.549200e+01
1	 8.527312e-01	 9.763368e-01	-1.611319e+01
1	 8.407012e-01	 9.867146e-01	-1.681055e+01
1	 8.285508e-01	 9.969392e-01	-1.758379e+01
1	 8.048779e-01	 9.684552e-01	-1.408852e+01
1	 7.929606e-01	 9.782368e-01	-1.485936e+01
1	 7.809322e-01	 9.878657e-01	-1.574462e+01
1	 7.687956e-01	 9.973401e-01	-1.675006e+01
1	 7.565537e-01	 1.006658e+00	-1.788179e+01
1	 7.442096e-01	 1.015818e+00	-1.914621e+01
1	 8.096125e-01	 9.741520e-01	-1.479739e+01
1	 7.976251e-01	 9.839912e-01	-1.559018e+01
1	 7.855259e-01	 9.936767e-01	-1.650293e+01
1	 7.733179e-01	 1.003207e+00	-1.753949e+01
1	 7.610041e-01	 1.012580e+00	-1.870399e+01
1	 7.485873e-01	 1.021793e+00	-2.000078e+01
1	 8.143470e-01	 9.798488e-01	-1.550169e+01
1	 8.022896e-01	 9.897455e-01	-1.631636e+01
1	 7.901197e-01	 9.994877e-01	-1.725563e+01
1	 7.778403e-01	 1.009073e+00	-1.832203e+01
1	 7.654544e-01	 1.018501e+00	-1.951831e+01
1	 7.529651e-01	 1.027769e+00	-2.084735e+01
1	 8.190816e-01	 9.855456e-01	-1.620109e+01
1	 8.069541e-01	 9.954998e-01	-1.703739e+01
1	 7.947134e-01	 1.005299e+00	-1.800229e+01
1	 7.823626e-01	 1.014940e+00	-1.909757e+01
1	 7.699047e-01	 1.024423e+00	-2.032512e+01
1	 7.573428e-01	 1.033744e+00	-2.168701e+01
1	 8.238162e-01	 9.912424e-01	-1.689523e+01
1	 8.116185e-01	 1.001254e+00	-1.775279e+01
1	 7.993071e-01	 1.011110e+00	-1.874252e+01
1	 7.868849e-01	 1.020807e+00	-1.986597e+01
1	 7.743550e-01	 1.030344e+00	-2.112481e+01
1	 7.617205e-01	 1.039719e+00	-2.252082e+01
1	 8.285508e-01	 9.969392e-01	-1.758379e+01
1	 8.162830e-01	 1.007009e+00	-1.846208e+01
1	 8.039008e-01	 1.016921e+00	-1.947590e+01
1	 7.914072e-01	 1.026674e+00	-2.062712e+01
1	 7.788053e-01	 1.036266e+00	-2.191773e+01
1	 7.660982e-01	 1.045695e+00	-2.334982e+01
1	 7.442096e-01	 1.015818e+00	-1.914621e+01
1	 7.317664e-01	 1.024818e+00	-2.051695e+01
1	 7.192270e-01	 1.033657e+00	-2.197076e+01
1	 7.065946e-01	 1.042333e+00	-2.351922e+01
1	 6.938723e-01	 1.050845e+00	-2.517423e+01
1	 6.810634e-01	 1.059191e+00	-2.694798e+01
1	 7.485873e-01	 1.021793e+00	-2.000078e+01
1	 7.360709e-01	 1.030846e+00	-2.140322e+01
1	 7.234577e-01	 1.039737e+00	-2.289138e+01
1	 7.107510e-01	 1.048464e+00	-2.448017e+01
1	 6.979539e-01	 1.057026e+00	-2.618492e+01
1	 6.850696e-01	 1.065422e+00	-2.802139e+01
1	 7.529651e-01	 1.027769e+00	-2.084735e+01
1	 7.403754e-01	 1.036875e+00	-2.228353e+01
1	 7.276885e-01	 1.045818e+00	-2.381022e+01
1	 7.149075e-01	 1.054596e+00	-2.544437e+01
1	 7.020355e-01	 1.063208e+00	-2.720346e+01
1	 6.890759e-01	 1.071653e+00	-2.910542e+01
1	 7.573428e-01	 1.033744e+00	-2.168701e+01
1	 7.446799e-01	 1.042903e+00	-2.315950e+01
1	 7.319192e-01	 1.051898e+00	-2.472899e+01
1	 7.190639e-01	 1.060727e+00	-2.641319e+01
1	 7.061171e-01	 1.069389e+00	-2.823040e+01
1	 6.930821e-01	 1.077883e+00	-3.019942e+01
1	 7.617205e-01	 1.039719e+00	-2.252082e+01
1	 7.489844e-01	 1.048931e+00	-2.403276e+01
1	 7.361500e-01	 1.057978e+00	-2.564937e+01
1	 7.232203e-01	 1.066858e+00	-2.738793e+01
1	 7.101987e-01	 1.075571e+00	-2.926627e+01
1	 6.970884e-01	 1.084114e+00	-3.130275e+01
1	 7.660982e-01	 1.045695e+00	-2.334982e+01
1	 7.532889e-01	 1.054960e+00	-2.490487e+01
1	 7.403807e-01	 1.064059e+00	-2.657303e+01
1	 7.273768e-01	 1.072990e+00	-2.836990e+01
1	 7.142803e-01	 1.081752e+00	-3.031160e+01
1	 7.010946e-01	 1.090344e+00	-3.241475e+01
1	 6.810634e-01	 1.059191e+00	-2.694798e+01
1	 6.681709e-01	 1.067371e+00	-2.882359e+01
1	 6.551981e-01	 1.075383e+00	-3.077117e+01
1	 6.421483e-01	 1.083226e+00	-3.278327e+01
1	 6.290246e-01	 1.090900e+00	-3.485216e+01
1	 6.158303e-01	 1.098402e+00	-3.696980e+01
1	 6.850696e-01	 1.065422e+00	-2.802139e+01
1	 6.721013e-01	 1.073650e+00	-2.997060e+01
1	 6.590522e-01	 1.081709e+00	-3.199490e+01
1	 6.459256e-01	 1.089598e+00	-3.408187e+01
1	 6.327247e-01	 1.097317e+00	-3.621866e+01
1	 6.194528e-01	 1.104863e+00	-3.839197e+01
1	 6.890759e-01	 1.071653e+00	-2.910542e+01
1	 6.760317e-01	 1.079929e+00	-3.112689e+01
1	 6.629063e-01	 1.088035e+00	-3.322174e+01
1	 6.497029e-01	 1.095970e+00	-3.537360e+01
1	 6.364248e-01	 1.103734e+00	-3.756555e+01
1	 6.230753e-01	 1.111324e+00	-3.978017e+01
1	 6.930821e-01	 1.077883e+00	-3.019942e+01
1	 6.799621e-01	 1.086207e+00	-3.229061e+01
1	 6.667604e-01	 1.094361e+00	-3.444902e+01
1	 6.534803e-01	 1.102342e+00	-3.665537e+01
1	 6.401250e-01	 1.110151e+00	-3.888972e+01
1	 6.266979e-01	 1.117786e+00	-4.113156e+01
1	 6.970884e-01	 1.084114e+00	-3.130275e+01
1	 6.838926e-01	 1.092486e+00	-3.345993e+01
1	 6.706145e-01	 1.100686e+00	-3.567415e+01
1	 6.572576e-01	 1.108714e+00	-3.792418e+01
1	 6.438251e-01	 1.116568e+00	-4.018809e+01
1	 6.303204e-01	 1.124247e+00	-4.244337e+01
1	 7.010946e-01	 1.090344e+00	-3.241475e+01
1	 6.878230e-01	 1.098765e+00	-3.463307e+01
1	 6.744686e-01	 1.107012e+00	-3.689458e+01
1	 6.610350e-01	 1.115086e+00	-3.917708e+01
1	 6.475253e-01	 1.122985e+00	-4.145769e+01
1	 6.339429e-01	 1.130708e+00	-4.371289e+01
1	 6.158303e-01	 1.098402e+00	-3.696980e+01
1	 6.025686e-01	 1.105733e+00	-3.909496e+01
1	 5.892430e-01	 1.112891e+00	-4.117949e+01
1	 5.758565e-01	 1.119876e+00	-4.320438e+01
1	 5.624126e-01	 1.126688e+00	-4.515025e+01
1	 5.489144e-01	 1.133326e+00	-4.699734e+01
1	 6.194528e-01	 1.104863e+00	-3.839197e+01
1	 6.061132e-01	 1.112237e+00	-4.055521e+01
1	 5.927091e-01	 1.119438e+00	-4.265974e+01
1	 5.792439e-01	 1.126464e+00	-4.468861e+01
1	 5.657209e-01	 1.133316e+00	-4.662452e+01
1	 5.521434e-01	 1.139992e+00	-4.844992e+01
1	 6.230753e-01	 1.111324e+00	-3.978017e+01
1	 6.096577e-01	 1.118741e+00	-4.196755e+01
1	 5.961752e-01	 1.125984e+00	-4.408021e+01
1	 5.826313e-01	 1.133051e+00	-4.610371e+01
1	 5.690292e-01	 1.139943e+00	-4.802335e+01
1	 5.553723e-01	 1.146659e+00	-4.982419e+01
1	 6.266979e-01	 1.117786e+00	-4.113156e+01
1	 6.132022e-01	 1.125246e+00	-4.332963e+01
1	 5.996414e-01	 1.132530e+00	-4.543909e+01
1	 5.860187e-01	 1.139639e+00	-4.744848e+01
1	 5.723375e-01	 1.146571e+00	-4.934616e+01
1	 5.586012e-01	 1.153325e+00	-5.112028e+01
1	 6.303204e-01	 1.124247e+00	-4.244337e+01
1	 6.167467e-01	 1.131750e+00	-4.463915e+01
1	 6.031075e-01	 1.139077e+00	-4.673462e+01
1	 5.894061e-01	 1.146226e+00	-4.872176e+01
1	 5.756458e-01	 1.153198e+00	-5.059241e+01
1	 5.618301e-01	 1.159992e+00	-5.233830e+01
1	 6.339429e-01	 1.130708e+00	-4.371289e+01
1	 6.202913e-01	 1.138254e+00	-4.589387e+01
1	 6.065737e-01	 1.145623e+00	-4.796508e+01
1	 5.927935e-01	 1.152814e+00	-4.992238e+01
1	 5.789541e-01	 1.159826e+00	-5.176156e+01
1	 5.650590e-01	 1.166659e+00	-5.347835e+01
1	 5.489144e-01	 1.133326e+00	-4.699734e+01
1	 5.353654e-01	 1.139788e+00	-4.871505e+01
1	 5.217686e-01	 1.146077e+00	-5.028351e+01
1	 5.081275e-01	 1.152189e+00	-5.169893e+01
1	 4.944453e-01	 1.158127e+00	-5.295756e+01
1	 4.807252e-01	 1.163889e+00	-5.405569e+01
1	 5.521434e-01	 1.139992e+00	-4.844992e+01
1	 5.385146e-01	 1.146493e+00	-5.013831e+01
1	 5.248379e-01	 1.152818e+00	-5.167407e+01
1	 5.111165e-01	 1.158967e+00	-5.305573e+01
1	 4.973538e-01	 1.164939e+00	-5.428187e+01
1	 4.835529e-01	 1.170735e+00	-5.535118e+01
1	 5.553723e-01	 1.146659e+00	-4.982419e+01
1	 5.416638e-01	 1.153198e+00	-5.148396e+01
1	 5.279071e-01	 1.159560e+00	-5.299018e+01
1	 5.141055e-01	 1.165745e+00	-5.434251e+01
1	 5.002623e-01	 1.171752e+00	-5.554072e+01
1	 4.863807e-01	 1.177582e+00	-5.658462e+01
1	 5.586012e-01	 1.153325e+00	-5.112028e+01
1	 5.448130e-01	 1.159902e+00	-5.275265e+01
1	 5.309763e-01	 1.166301e+00	-5.423273e+01
1	 5.170945e-01	 1.172522e+00	-5.556019e+01
1	 5.031708e-01	 1.178564e+00	-5.673474e+01
1	 4.892085e-01	 1.184428e+00	-5.775618e+01
1	 5.618301e-01	 1.159992e+00	-5.233830e+01
1	 5.479622e-01	 1.166607e+00	-5.394501e+01
1	 5.340455e-01	 1.173043e+00	-5.540262e+01
1	 5.200835e-01	 1.179300e+00	-5.670963e+01
1	 5.060793e-01	 1.185377e+00	-5.786458e+01
1	 4.920363e-01	 1.191274e+00	-5.886605e+01
1	 5.650590e-01	 1.166659e+00	-5.347835e+01
1	 5.511114e-01	 1.173312e+00	-5.506166e+01
1	 5.371148e-01	 1.179785e+00	-5.650071e+01
1	 5.230724e-01	 1.186077e+00	-5.779170e+01
1	 5.089878e-01	 1.192189e+00	-5.893085e+01
1	 4.948641e-01	 1.198121e+00	-5.991439e+01
1	 4.807252e-01	 1.163889e+00	-5.405569e+01
1	 4.669704e-01	 1.169475e+00	-5.498245e+01
1	 4.531842e-01	 1.174886e+00	-5.572836e+01
1	 4.393698e-01	 1.180122e+00	-5.629191e+01
1	 4.255304e-01	 1.185183e+00	-5.667172e+01
1	 4.116692e-01	 1.190068e+00	-5.686649e+01
1	 4.835529e-01	 1.170735e+00	-5.535118e+01
1	 4.697173e-01	 1.176355e+00	-5.625431e+01
1	 4.558500e-01	 1.181797e+00	-5.698078e+01
1	 4.419544e-01	 1.187064e+00	-5.752769e+01
1	 4.280335e-01	 1.192154e+00	-5.789222e+01
1	 4.140907e-01	 1.197069e+00	-5.807160e+01
1	 4.863807e-01	 1.177582e+00	-5.658462e+01
1	 4.724642e-01	 1.183234e+00	-5.746526e+01
1	 4.585158e-01	 1.188709e+00	-5.817145e+01
1	 4.445389e-01	 1.194006e+00	-5.869976e+01
1	 4.305367e-01	 1.199126e+00	-5.904680e+01
1	 4.165123e-01	 1.204069e+00	-5.920928e+01
1	 4.892085e-01	 1.184428e+00	-5.775618e+01
1	 4.752110e-01	 1.190113e+00	-5.861504e+01
1	 4.611816e-01	 1.195620e+00	-5.929986e+01
1	 4.471234e-01	 1.200948e+00	-5.980754e+01
1	 4.330398e-01	 1.206098e+00	-6.013505e+01
1	 4.189339e-01	 1.211069e+00	-6.027943e+01
1	 4.920363e-01	 1.191274e+00	-5.886605e+01
1	 4.779579e-01	 1.196992e+00	-5.970337e+01
1	 4.638474e-01	 1.202531e+00	-6.036549e+01
1	 4.497080e-01	 1.207890e+00	-6.085050e+01
1	 4.355429e-01	 1.213069e+00	-6.115657e+01
1	 4.213555e-01	 1.218070e+00	-6.128196e+01
1	 4.948641e-01	 1.198121e+00	-5.991439e+01
1	 4.807048e-01	 1.203872e+00	-6.072998e+01
1	 4.665132e-01	 1.209442e+00	-6.136784e+01
1	 4.522925e-01	 1.214832e+00	-6.182809e+01
1	 4.380460e-01	 1.220041e+00	-6.211097e+01
1	 4.237771e-01	 1.225070e+00	-6.221677e+01
1	 4.116692e-01	 1.190068e+00	-5.686649e+01
1	 3.977892e-01	 1.194779e+00	-5.689359e+01
1	 3.838935e-01	 1.199316e+00	-5.676126e+01
1	 3.699854e-01	 1.203680e+00	-5.645468e+01
1	 3.560678e-01	 1.207870e+00	-5.595918e+01
1	 3.421438e-01	 1.211888e+00	-5.526028e+01
1	 4.140907e-01	 1.197069e+00	-5.807160e+01
1	 4.001291e-01	 1.201807e+00	-5.808140e+01
1	 3.861517e-01	 1.206371e+00	-5.792935e+01
1	 3.721618e-01	 1.210760e+00	-5.760114e+01
1	 3.581623e-01	 1.214975e+00	-5.708265e+01
1	 3.441564e-01	 1.219016e+00	-5.635991e+01
1	 4.165123e-01	 1.204069e+00	-5.920928e+01
1	 4.024690e-01	 1.208836e+00	-5.920181e+01
1	 3.884099e-01	 1.213426e+00	-5.903158e+01
1	 3.743382e-01	 1.217841e+00	-5.868441e+01
1	 3.602568e-01	 1.222080e+00	-5.814624e+01
1	 3.461690e-01	 1.226145e+00	-5.740326e+01
1	 4.189339e-01	 1.211069e+00	-6.027943e+01
1	 4.048090e-01	 1.215864e+00	-6.025504e+01
1	 3.906681e-01	 1.220481e+00	-6.006839e+01
1	 3.765146e-01	 1.224921e+00	-5.970499e+01
1	 3.623513e-01	 1.229185e+00	-5.915048e+01
1	 3.481816e-01	 1.233274e+00	-5.839069e+01
1	 4.213555e-01	 1.218070e+00	-6.128196e+01
1	 4.071489e-01	 1.222892e+00	-6.124132e+01
1	 3.929263e-01	 1.227536e+00	-6.104022e+01
1	 3.786909e-01	 1.232002e+00	-6.066342e+01
1	 3.644459e-01	 1.236290e+00	-6.009584e+01
1	 3.501942e-01	 1.240403e+00	-5.932259e+01
1	 4.237771e-01	 1.225070e+00	-6.221677e+01
1	 4.094888e-01	 1.229920e+00	-6.216088e+01
1	 3.951845e-01	 1.234590e+00	-6.194747e+01
1	 3.808673e-01	 1.239082e+00	-6.156019e+01
1	 3.665404e-01	 1.243395e+00	-6.098281e+01
1	 3.522068e-01	 1.247531e+00	-6.019932e+01
1	 3.421438e-01	 1.211888e+00	-5.526028e+01
1	 3.282163e-01	 1.215734e+00	-5.438753e+01
1	 3.142883e-01	 1.219408e+00	-5.338913e+01
1	 3.003627e-01	 1.222913e+00	-5.227884e+01
1	 2.864425e-01	 1.226248e+00	-5.107054e+01
1	 2.725305e-01	 1.229415e+00	-4.977819e+01
1	 3.441564e-01	 1.219016e+00	-5.635991e+01
1	 3.301469e-01	 1.222885e+00	-5.546472e+01
1	 3.161370e-01	 1.226581e+00	-5.444646e+01
1	 3.021296e-01	 1.230107e+00	-5.331786e+01
1	 2.881275e-01	 1.233461e+00	-5.209179e+01
1	 2.741336e-01	 1.236647e+00	-5.078120e+01
1	 3.461690e-01	 1.226145e+00	-5.740326e+01
1	 3.320776e-01	 1.230036e+00	-5.648895e+01
1	 3.179858e-01	 1.233754e+00	-5.545378e+01
1	 3.038964e-01	 1.237300e+00	-5.430960e+01
1	 2.898124e-01	 1.240675e+00	-5.306840e+01
1	 2.757367e-01	 1.243879e+00	-5.174227e+01
1	 3.481816e-01	 1.233274e+00	-5.839069e+01
1	 3.340083e-01	 1.237188e+00	-5.746045e+01
1	 3.198345e-01	 1.240927e+00	-5.641124e+01
1	 3.056633e-01	 1.244494e+00	-5.525418e+01
1	 2.914974e-01	 1.247888e+00	-5.400050e+01
1	 2.773398e-01	 1.251110e+00	-5.266156e+01
1	 3.501942e-01	 1.240403e+00	-5.932259e+01
1	 3.359390e-01	 1.244339e+00	-5.837946e+01
1	 3.216833e-01	 1.248100e+00	-5.731900e+01
1	 3.074301e-01	 1.251687e+00	-5.615170e+01
1	 2.931823e-01	 1.255101e+00	-5.488819e+01
1	 2.789430e-01	 1.258342e+00	-5.353923e+01
1	 3.522068e-01	 1.247531e+00	-6.019932e+01
1	 3.378697e-01	 1.251490e+00	-5.924621e+01
1	 3.235321e-01	 1.255273e+00	-5.817719e+01
1	 3.091969e-01	 1.258881e+00	-5.700226e+01
1	 2.948673e-01	 1.262314e+00	-5.573158e+01
1	 2.805461e-01	 1.265574e+00	-5.437542e+01
1	 2.725305e-01	 1.229415e+00	-4.977819e+01
1	 2.586294e-01	 1.232414e+00	-4.841852e+01
1	 2.447421e-01	 1.235247e+00	-4.700862e+01
1	 2.308712e-01	 1.237915e+00	-4.556301e+01
1	 2.170195e-01	 1.240418e+00	-4.409623e+01
1	 2.031896e-01	 1.242758e+00	-4.262274e+01
1	 2.741336e-01	 1.236647e+00	-5.078120e+01
1	 2.601508e-01	 1.239664e+00	-4.940237e+01
1	 2.461817e-01	 1.242513e+00	-4.797292e+01
1	 2.322293e-01	 1.245196e+00	-4.650793e+01
1	 2.182961e-01	 1.247714e+00	-4.502248e+01
1	 2.043848e-01	 1.250069e+00	-4.353156e+01
1	 2.757367e-01	 1.243879e+00	-5.174227e+01
1	 2.616721e-01	 1.246913e+00	-5.034722e+01
1	 2.476214e-01	 1.249779e+00	-4.890150e+01
1	 2.335874e-01	 1.252478e+00	-4.742062e+01
1	 2.195727e-01	 1.255011e+00	-4.592007e+01
1	 2.055801e-01	 1.257379e+00	-4.441526e+01
1	 2.773398e-01	 1.251110e+00	-5.266156e+01
1	 2.631935e-01	 1.254163e+00	-5.125331e+01
1	 2.490611e-01	 1.257045e+00	-4.979462e+01
1	 2.349454e-01	 1.259760e+00	-4.830133e+01
1	 2.208493e-01	 1.262308e+00	-4.678922e+01
1	 2.067753e-01	 1.264689e+00	-4.527405e+01
1	 2.789430e-01	 1.258342e+00	-5.353923e+01
1	 2.647148e-01	 1.261412e+00	-5.212083e+01
1	 2.505007e-01	 1.264312e+00	-5.065251e+01
1	 2.363035e-01	 1.267042e+00	-4.915029e+01
1	 2.221259e-01	 1.269604e+00	-4.763017e+01
1	 2.079705e-01	 1.272000e+00	-4.610811e+01
1	 2.805461e-01	 1.265574e+00	-5.437542e+01
1	 2.662362e-01	 1.268662e+00	-5.295000e+01
1	 2.519404e-01	 1.271578e+00	-5.147540e+01
1	 2.376616e-01	 1.274324e+00	-4.996774e+01
1	 2.234024e-01	 1.276901e+00	-4.844314e+01
1	 2.091658e-01	 1.279310e+00	-4.691763e+01
1	 2.031896e-01	 1.242758e+00	-4.262274e+01
1	 1.893840e-01	 1.244937e+00	-4.116111e+01
1	 1.756054e-01	 1.246955e+00	-3.972946e+01
1	 1.618562e-01	 1.248814e+00	-3.834146e+01
1	 1.481388e-01	 1.250515e+00	-3.701055e+01
1	 1.344557e-01	 1.252061e+00	-3.574995e+01
1	 2.043848e-01	 1.250069e+00	-4.353156e+01
1	 1.904981e-01	 1.252260e+00	-4.205395e+01
1	 1.766384e-01	 1.254290e+00	-4.060741e+01
1	 1.628083e-01	 1.256160e+00	-3.920523e+01
1	 1.490102e-01	 1.257871e+00	-3.786049e+01
1	 1.352467e-01	 1.259426e+00	-3.658602e+01
1	 2.055801e-01	 1.257379e+00	-4.441526e+01
1	 1.916121e-01	 1.259583e+00	-4.292507e+01
1	 1.776714e-01	 1.261625e+00	-4.146682e+01
1	 1.637604e-01	 1.263506e+00	-4.005345e+01
1	 1.498816e-01	 1.265227e+00	-3.869768e+01
1	 1.360376e-01	 1.266791e+00	-3.741202e+01
1	 2.067753e-01	 1.264689e+00	-4.527405e+01
1	 1.927261e-01	 1.266906e+00	-4.377463e+01
1	 1.787043e-01	 1.268960e+00	-4.230781e+01
1	 1.647125e-01	 1.270852e+00	-4.088621e+01
1	 1.507531e-01	 1.272583e+00	-3.952223e+01
1	 1.368285e-01	 1.274156e+00	-3.822802e+01
1	 2.079705e-01	 1.272000e+00	-4.610811e+01
1	 1.938401e-01	 1.274229e+00	-4.460277e+01
1	 1.797373e-01	 1.276295e+00	-4.313051e+01
1	 1.656646e-01	 1.278198e+00	-4.170363e+01
1	 1.516245e-01	 1.279939e+00	-4.033421e+01
1	 1.376194e-01	 1.281521e+00	-3.903412e+01
1	 2.091658e-01	 1.279310e+00	-4.691763e+01
1	 1.949542e-01	 1.281553e+00	-4.540964e+01
1	 1.807703e-01	 1.283630e+00	-4.393503e+01
1	 1.666167e-01	 1.285544e+00	-4.250579e+01
1	 1.524959e-01	 1.287295e+00	-4.113371e+01
1	 1.384103e-01	 1.288886e+00	-3.983039e+01
1	 1.344557e-01	 1.252061e+00	-3.574995e+01
1	 1.208092e-01	 1.253451e+00	-3.457257e+01
1	 1.072016e-01	 1.254688e+00	-3.349125e+01
1	 9.363520e-02	 1.255773e+00	-3.251861e+01
1	 8.011209e-02	 1.256708e+00	-3.166697e+01
1	 6.663447e-02	 1.257495e+00	-3.094827e+01
1	 1.352467e-01	 1.259426e+00	-3.658602e+01
1	 1.215199e-01	 1.260824e+00	-3.539456e+01
1	 1.078322e-01	 1.262068e+00	-3.429903e+01
1	 9.418599e-02	 1.263160e+00	-3.331212e+01
1	 8.058334e-02	 1.264101e+00	-3.244620e+01
1	 6.702644e-02	 1.264892e+00	-3.171329e+01
1	 1.360376e-01	 1.266791e+00	-3.741202e+01
1	 1.222305e-01	 1.268197e+00	-3.620901e+01
1	 1.084628e-01	 1.269449e+00	-3.510164e+01
1	 9.473679e-02	 1.270547e+00	-3.410258e+01
1	 8.105459e-02	 1.271493e+00	-3.322421e+01
1	 6.741841e-02	 1.272289e+00	-3.247853e+01
1	 1.368285e-01	 1.274156e+00	-3.822802e+01
1	 1.229412e-01	 1.275571e+00	-3.701600e+01
1	 1.090934e-01	 1.276829e+00	-3.589915e+01
1	 9.528758e-02	 1.277934e+00	-3.489007e+01
1	 8.152583e-02	 1.278886e+00	-3.400106e+01
1	 6.781038e-02	 1.279686e+00	-3.324404e+01
1	 1.376194e-01	 1.281521e+00	-3.903412e+01
1	 1.236518e-01	 1.282944e+00	-3.781562e+01
1	 1.097240e-01	 1.284210e+00	-3.669164e+01
1	 9.583838e-02	 1.285321e+00	-3.567466e+01
1	 8.199708e-02	 1.286278e+00	-3.477682e+01
1	 6.820234e-02	 1.287083e+00	-3.400988e+01
1	 1.384103e-01	 1.288886e+00	-3.983039e+01
1	 1.243625e-01	 1.290317e+00	-3.860793e+01
1	 1.103546e-01	 1.291590e+00	-3.747919e+01
1	 9.638917e-02	 1.292708e+00	-3.645642e+01
1	 8.246833e-02	 1.293670e+00	-3.555154e+01
1	 6.859431e-02	 1.294480e+00	-3.477611e+01
1	 6.663447e-02	 1.257495e+00	-3.094827e+01
1	 5.320443e-02	 1.258135e+00	-3.037518e+01
1	 3.982401e-02	 1.258629e+00	-2.995976e+01
1	 2.649518e-02	 1.258980e+00	-2.971253e+01
1	 1.321988e-02	 1.259190e+00	-2.964357e+01
1	 0.000000e+00	 1.259259e+00	-2.976253e+01
1	 6.702644e-02	 1.264892e+00	-3.171329e+01
1	 5.351740e-02	 1.265536e+00	-3.112601e+01
1	 4.005827e-02	 1.266033e+00	-3.069632e+01
1	 2.665103e-02	 1.266386e+00	-3.043467e+01
1	 1.329765e-02	 1.266597e+00	-3.035107e+01
1	 0.000000e+00	 1.266667e+00	-3.045509e+01
1	 6.741841e-02	 1.272289e+00	-3.247853e+01
1	 5.383037e-02	 1.272936e+00	-3.187806e+01
1	 4.029252e-02	 1.273437e+00	-3.143464e+01
1	 2.680689e-02	 1.273792e+00	-3.115866e+01
1	 1.337541e-02	 1.274004e+00	-3.106009e+01
1	 0.000000e+00	 1.274074e+00	-3.114843e+01
1	 6.781038e-02	 1.279686e+00	-3.324404e+01
1	 5.414334e-02	 1.280337e+00	-3.263137e+01
1	 4.052678e-02	 1.280840e+00	-3.217477e+01
1	 2.696274e-02	 1.281198e+00	-3.188458e+01
1	 1.345318e-02	 1.281411e+00	-3.177072e+01
1	 0.000000e+00	 1.281481e+00	-3.184267e+01
1	 6.820234e-02	 1.287083e+00	-3.400988e+01
1	 5.445630e-02	 1.287738e+00	-3.338601e+01
1	 4.076104e-02	 1.288244e+00	-3.291678e+01
1	 2.711860e-02	 1.288604e+00	-3.261250e+01
1	 1.353094e-02	 1.288818e+00	-3.248308e+01
1	 0.000000e+00	 1.288889e+00	-3.253795e+01
1	 6.859431e-02	 1.294480e+00	-3.477611e+01
1	 5.476927e-02	 1.295139e+00	-3.414203e+01
1	 4.099530e-02	 1.295648e+00	-3.366072e+01
1	 2.727445e-02	 1.296009e+00	-3.334250e+01
1	 1.360871e-02	 1.296225e+00	-3.319725e+01
1	 0.000000e+00	 1.296296e+00	-3.323439e+01
1	 1.296296e+00	 0.000000e+00	 2.091866e+01
1	 1.296225e+00	 1.360871e-02	 2.058640e+01
1	 1.296009e+00	 2.727445e-02	 2.030184e+01
1	 1.295648e+00	 4.099530e-02	 2.006271e+01
1	 1.295139e+00	 5.476927e-02	 1.986671e+01
1	 1.294480e+00	 6.859431e-02	 1.971144e+01
1	 1.303704e+00	 0.000000e+00	 2.075288e+01
1	 1.303632e+00	 1.368647e-02	 2.041461e+01
1	 1.303415e+00	 2.743030e-02	 2.012410e+01
1	 1.303052e+00	 4.122956e-02	 1.987910e+01
1	 1.302540e+00	 5.508224e-02	 1.967729e+01
1	 1.301877e+00	 6.898628e-02	 1.951629e+01
1	 1.311111e+00	 0.000000e+00	 2.059059e+01
1	 1.311039e+00	 1.376423e-02	 2.024652e+01
1	 1.310821e+00	 2.758616e-02	 1.995014e+01
1	 1.310455e+00	 4.146382e-02	 1.969922e+01
1	 1.309940e+00	 5.539520e-02	 1.949146e+01
1	 1.309274e+00	 6.937825e-02	 1.932450e+01
1	 1.318519e+00	 0.000000e+00	 2.043170e+01
1	 1.318446e+00	 1.384200e-02	 2.008208e+01
1	 1.318227e+00	 2.774201e-02	 1.977993e+01
1	 1.317859e+00	 4.169808e-02	 1.952307e+01
1	 1.317341e+00	 5.570817e-02	 1.930923e+01
1	 1.316671e+00	 6.977021e-02	 1.913607e+01
1	 1.325926e+00	 0.000000e+00	 2.027616e+01
1	 1.325853e+00	 1.391976e-02	 1.992123e+01
1	 1.325632e+00	 2.789787e-02	 1.961344e+01
1	 1.325263e+00	 4.193234e-02	 1.935063e+01
1	 1.324742e+00	 5.602114e-02	 1.913059e+01
1	 1.324068e+00	 7.016218e-02	 1.895102e+01
1	 1.333333e+00	 0.000000e+00	 2.012388e+01
1	 1.333260e+00	 1.399753e-02	 1.976394e+01
1	 1.333038e+00	 2.805372e-02	 1.945064e+01
1	 1.332666e+00	 4.216660e-02	 1.918190e+01
1	 1.332143e+00	 5.633411e-02	 1.895555e+01
1	 1.331465e+00	 7.055415e-02	 1.876938e+01
1	 1.294480e+00	 6.859431e-02	 1.971144e+01
1	 1.293670e+00	 8.246833e-02	 1.959640e+01
1	 1.292708e+00	 9.638917e-02	 1.952096e+01
1	 1.291590e+00	 1.103546e-01	 1.948249e+01
1	 1.290317e+00	 1.243625e-01	 1.947835e+01
1	 1.288886e+00	 1.384103e-01	 1.950588e+01
1	 1.301877e+00	 6.898628e-02	 1.951629e+01
1	 1.301063e+00	 8.293958e-02	 1.939571e+01
1	 1.300095e+00	 9.693997e-02	 1.931506e+01
1	 1.298971e+00	 1.109852e-01	 1.927174e+01
1	 1.297690e+00	 1.250731e-01	 1.926317e+01
1	 1.296251e+00	 1.392012e-01	 1.928672e+01
1	 1.309274e+00	 6.937825e-02	 1.932450e+01
1	 1.308455e+00	 8.341082e-02	 1.919806e+01
1	 1.307482e+00	 9.749076e-02	 1.911180e+01
1	 1.306352e+00	 1.116158e-01	 1.906319e+01
1	 1.305064e+00	 1.257837e-01	 1.904967e+01
1	 1.303616e+00	 1.399921e-01	 1.906864e+01
1	 1.316671e+00	 6.977021e-02	 1.913607e+01
1	 1.315848e+00	 8.388207e-02	 1.900347e+01
1	 1.314868e+00	 9.804156e-02	 1.891124e+01
1	 1.313732e+00	 1.122464e-01	 1.885690e+01
1	 1.312437e+00	 1.264944e-01	 1.883791e+01
1	 1.310981e+00	 1.407831e-01	 1.885174e+01
1	 1.324068e+00	 7.016218e-02	 1.895102e+01
1	 1.323240e+00	 8.435332e-02	 1.881198e+01
1	 1.322255e+00	 9.859235e-02	 1.871343e+01
1	 1.321113e+00	 1.128770e-01	 1.865293e+01
1	 1.319810e+00	 1.272050e-01	 1.862800e+01
1	 1.318346e+00	 1.415740e-01	 1.863613e+01
1	 1.331465e+00	 7.055415e-02	 1.876938e+01
1	 1.330632e+00	 8.482457e-02	 1.862362e+01
1	 1.329642e+00	 9.914315e-02	 1.851840e+01
1	 1.328493e+00	 1.135076e-01	 1.845134e+01
1	 1.327183e+00	 1.279157e-01	 1.842000e+01
1	 1.325711e+00	 1.423649e-01	 1.842191e+01
1	 1.288886e+00	 1.384103e-01	 1.950588e+01
1	 1.287295e+00	 1.524959e-01	 1.956431e+01
1	 1.285544e+00	 1.666167e-01	 1.965314e+01
1	 1.283630e+00	 1.807703e-01	 1.977005e+01
1	 1.281553e+00	 1.949542e-01	 1.991273e+01
1	 1.279310e+00	 2.091658e-01	 2.007888e+01
1	 1.296251e+00	 1.392012e-01	 1.928672e+01
1	 1.294651e+00	 1.533673e-01	 1.934156e+01
1	 1.292890e+00	 1.675688e-01	 1.942713e+01
1	 1.290965e+00	 1.818033e-01	 1.954116e+01
1	 1.288876e+00	 1.960682e-01	 1.968135e+01
1	 1.286620e+00	 2.103610e-01	 1.984544e+01
1	 1.303616e+00	 1.399921e-01	 1.906864e+01
1	 1.302007e+00	 1.542387e-01	 1.911923e+01
1	 1.300236e+00	 1.685209e-01	 1.920082e+01
1	 1.298300e+00	 1.828362e-01	 1.931119e+01
1	 1.296199e+00	 1.971822e-01	 1.944810e+01
1	 1.293931e+00	 2.115562e-01	 1.960932e+01
1	 1.310981e+00	 1.407831e-01	 1.885174e+01
1	 1.309363e+00	 1.551101e-01	 1.889744e+01
1	 1.307582e+00	 1.694730e-01	 1.897434e+01
1	 1.305635e+00	 1.838692e-01	 1.908028e+01
1	 1.303522e+00	 1.982962e-01	 1.921311e+01
1	 1.301241e+00	 2.127515e-01	 1.937065e+01
1	 1.318346e+00	 1.415740e-01	 1.863613e+01
1	 1.316719e+00	 1.559815e-01	 1.867631e+01
1	 1.314928e+00	 1.704251e-01	 1.874781e+01
1	 1.312970e+00	 1.849022e-01	 1.884857e+01
1	 1.310845e+00	 1.994103e-01	 1.897652e+01
1	 1.308551e+00	 2.139467e-01	 1.912956e+01
1	 1.325711e+00	 1.423649e-01	 1.842191e+01
1	 1.324075e+00	 1.568529e-01	 1.845596e+01
1	 1.322274e+00	 1.713771e-01	 1.852137e+01
1	 1.320305e+00	 1.859351e-01	 1.861619e+01
1	 1.318168e+00	 2.005243e-01	 1.873845e+01
1	 1.315862e+00	 2.151419e-01	 1.888617e+01
1	 1.279310e+00	 2.091658e-01	 2.007888e+01
1	 1.276901e+00	 2.234024e-01	 2.026423e+01
1	 1.274324e+00	 2.376616e-01	 2.046416e+01
1	 1.271578e+00	 2.519404e-01	 2.067583e+01
1	 1.268662e+00	 2.662362e-01	 2.089650e+01
1	 1.265574e+00	 2.805461e-01	 2.112348e+01
1	 1.286620e+00	 2.103610e-01	 1.984544e+01
1	 1.284197e+00	 2.246790e-01	 2.002947e+01
1	 1.281606e+00	 2.390196e-01	 2.022911e+01
1	 1.278844e+00	 2.533800e-01	 2.044148e+01
1	 1.275911e+00	 2.677575e-01	 2.066382e+01
1	 1.272806e+00	 2.821492e-01	 2.089342e+01
1	 1.293931e+00	 2.115562e-01	 1.960932e+01
1	 1.291494e+00	 2.259556e-01	 1.979126e+01
1	 1.288887e+00	 2.403777e-01	 1.998986e+01
1	 1.286110e+00	 2.548197e-01	 2.020221e+01
1	 1.283161e+00	 2.692789e-01	 2.042550e+01
1	 1.280038e+00	 2.837523e-01	 2.065698e+01
1	 1.301241e+00	 2.127515e-01	 1.937065e+01
1	 1.298790e+00	 2.272322e-01	 1.954971e+01
1	 1.296169e+00	 2.417358e-01	 1.974653e+01
1	 1.293376e+00	 2.562594e-01	 1.995815e+01
1	 1.290410e+00	 2.708002e-01	 2.018169e+01
1	 1.287270e+00	 2.853554e-01	 2.041434e+01
1	 1.308551e+00	 2.139467e-01	 1.912956e+01
1	 1.306087e+00	 2.285088e-01	 1.930495e+01
1	 1.303451e+00	 2.430938e-01	 1.949925e+01
1	 1.300642e+00	 2.576990e-01	 1.970943e+01
1	 1.297660e+00	 2.723216e-01	 1.993254e+01
1	 1.294502e+00	 2.869586e-01	 2.016571e+01
1	 1.315862e+00	 2.151419e-01	 1.888617e+01
1	 1.313384e+00	 2.297854e-01	 1.905707e+01
1	 1.310733e+00	 2.444519e-01	 1.924812e+01
1	 1.307909e+00	 2.591387e-01	 1.945618e+01
1	 1.304909e+00	 2.738429e-01	 1.967821e+01
1	 1.301733e+00	 2.885617e-01	 1.991126e+01
1	 1.265574e+00	 2.805461e-01	 2.112348e+01
1	 1.262314e+00	 2.948673e-01	 2.135637e+01
1	 1.258881e+00	 3.091969e-01	 2.159554e+01
1	 1.255273e+00	 3.235321e-01	 2.183955e+01
1	 1.251490e+00	 3.378697e-01	 2.208705e+01
1	 1.247531e+00	 3.522068e-01	 2.233672e+01
1	 1.272806e+00	 2.821492e-01	 2.089342e+01
1	 1.269528e+00	 2.965523e-01	 2.112946e+01
1	 1.266075e+00	 3.109638e-01	 2.137193e+01
1	 1.262446e+00	 3.253808e-01	 2.161941e+01
1	 1.258642e+00	 3.398004e-01	 2.187055e+01
1	 1.254660e+00	 3.542194e-01	 2.212407e+01
1	 1.280038e+00	 2.837523e-01	 2.065698e+01
1	 1.276741e+00	 2.982372e-01	 2.089538e+01
1	 1.273268e+00	 3.127306e-01	 2.114031e+01
1	 1.269619e+00	 3.272296e-01	 2.139043e+01
1	 1.265793e+00	 3.417311e-01	 2.164444e+01
1	 1.261789e+00	 3.562320e-01	 2.190110e+01
1	 1.287270e+00	 2.853554e-01	 2.041434e+01
1	 1.283954e+00	 2.999222e-01	 2.065434e+01
1	 1.280462e+00	 3.144975e-01	 2.090091e+01
1	 1.276792e+00	 3.290783e-01	 2.115280e+01
1	 1.272944e+00	 3.436617e-01	 2.140883e+01
1	 1.268918e+00	 3.582446e-01	 2.166784e+01
1	 1.294502e+00	 2.869586e-01	 2.016571e+01
1	 1.291167e+00	 3.016071e-01	 2.040657e+01
1	 1.287655e+00	 3.162643e-01	 2.065393e+01
1	 1.283965e+00	 3.309271e-01	 2.090671e+01
1	 1.280096e+00	 3.455924e-01	 2.116384e+01
1	 1.276046e+00	 3.602572e-01	 2.142433e+01
1	 1.301733e+00	 2.885617e-01	 1.991126e+01
1	 1.298380e+00	 3.032921e-01	 2.015229e+01
1	 1.294849e+00	 3.180311e-01	 2.039961e+01
1	 1.291138e+00	 3.327758e-01	 2.065233e+01
1	 1.287247e+00	 3.475231e-01	 2.090961e+01
1	 1.283175e+00	 3.622699e-01	 2.117058e+01
1	 1.247531e+00	 3.522068e-01	 2.233672e+01
1	 1.243395e+00	 3.665404e-01	 2.255014e+01
1	 1.239082e+00	 3.808673e-01	 2.269133e+01
1	 1.234590e+00	 3.951845e-01	 2.276274e+01
1	 1.229920e+00	 4.094888e-01	 2.276677e+01
1	 1.225070e+00	 4.237771e-01	 2.270582e+01
1	 1.254660e+00	 3.542194e-01	 2.212407e+01
1	 1.250501e+00	 3.686349e-01	 2.234062e+01
1	 1.246162e+00	 3.830437e-01	 2.248349e+01
1	 1.241645e+00	 3.974427e-01	 2.255529e+01
1	 1.236948e+00	 4.118288e-01	 2.255862e+01
1	 1.232071e+00	 4.261987e-01	 2.249605e+01
1	 1.261789e+00	 3.562320e-01	 2.190110e+01
1	 1.257606e+00	 3.707294e-01	 2.212023e+01
1	 1.253243e+00	 3.852201e-01	 2.226431e+01
1	 1.248700e+00	 3.997009e-01	 2.233609e+01
1	 1.243976e+00	 4.141687e-01	 2.233830e+01
1	 1.239071e+00	 4.286202e-01	 2.227364e+01
1	 1.268918e+00	 3.582446e-01	 2.166784e+01
1	 1.264711e+00	 3.728239e-01	 2.188891e+01
1	 1.260323e+00	 3.873965e-01	 2.203373e+01
1	 1.255755e+00	 4.019591e-01	 2.210513e+01
1	 1.251004e+00	 4.165086e-01	 2.210592e+01
1	 1.246071e+00	 4.310418e-01	 2.203888e+01
1	 1.276046e+00	 3.602572e-01	 2.142433e+01
1	 1.271816e+00	 3.749184e-01	 2.164661e+01
1	 1.267404e+00	 3.895729e-01	 2.179168e+01
1	 1.262810e+00	 4.042173e-01	 2.186239e+01
1	 1.258032e+00	 4.188486e-01	 2.186156e+01
1	 1.253072e+00	 4.334634e-01	 2.179204e+01
1	 1.283175e+00	 3.622699e-01	 2.117058e+01
1	 1.278921e+00	 3.770130e-01	 2.139326e+01
1	 1.274484e+00	 3.917493e-01	 2.153808e+01
1	 1.269864e+00	 4.064755e-01	 2.160783e+01
1	 1.265060e+00	 4.211885e-01	 2.160533e+01
1	 1.260072e+00	 4.358850e-01	 2.153338e+01
1	 1.225070e+00	 4.237771e-01	 2.270582e+01
1	 1.220041e+00	 4.380460e-01	 2.256377e+01
1	 1.214832e+00	 4.522925e-01	 2.232402e+01
1	 1.209442e+00	 4.665132e-01	 2.198833e+01
1	 1.203872e+00	 4.807048e-01	 2.155857e+01
1	 1.198121e+00	 4.948641e-01	 2.103674e+01
1	 1.232071e+00	 4.261987e-01	 2.249605e+01
1	 1.227013e+00	 4.405491e-01	 2.235251e+01
1	 1.221773e+00	 4.548770e-01	 2.211218e+01
1	 1.216353e+00	 4.691790e-01	 2.177658e+01
1	 1.210751e+00	 4.834517e-01	 2.134736e+01
1	 1.204967e+00	 4.976919e-01	 2.082635e+01
1	 1.239071e+00	 4.286202e-01	 2.227364e+01
1	 1.233984e+00	 4.430523e-01	 2.212819e+01
1	 1.228715e+00	 4.574615e-01	 2.188706e+01
1	 1.223264e+00	 4.718447e-01	 2.155158e+01
1	 1.217630e+00	 4.861986e-01	 2.112325e+01
1	 1.211814e+00	 5.005197e-01	 2.060375e+01
1	 1.246071e+00	 4.310418e-01	 2.203888e+01
1	 1.240956e+00	 4.455554e-01	 2.189125e+01
1	 1.235657e+00	 4.600461e-01	 2.164915e+01
1	 1.230175e+00	 4.745105e-01	 2.131378e+01
1	 1.224509e+00	 4.889455e-01	 2.088655e+01
1	 1.218660e+00	 5.033475e-01	 2.036898e+01
1	 1.253072e+00	 4.334634e-01	 2.179204e+01
1	 1.247928e+00	 4.480585e-01	 2.164213e+01
1	 1.242599e+00	 4.626306e-01	 2.139895e+01
1	 1.237086e+00	 4.771763e-01	 2.106364e+01
1	 1.231389e+00	 4.916924e-01	 2.063753e+01
1	 1.225506e+00	 5.061753e-01	 2.012206e+01
1	 1.260072e+00	 4.358850e-01	 2.153338e+01
1	 1.254899e+00	 4.505616e-01	 2.138125e+01
1	 1.249541e+00	 4.652151e-01	 2.113694e+01
1	 1.243997e+00	 4.798421e-01	 2.080159e+01
1	 1.238268e+00	 4.944392e-01	 2.037647e+01
1	 1.232353e+00	 5.090031e-01	 1.986302e+01
1	 1.198121e+00	 4.948641e-01	 2.103674e+01
1	 1.192189e+00	 5.089878e-01	 2.042400e+01
1	 1.186077e+00	 5.230724e-01	 1.972062e+01
1	 1.179785e+00	 5.371148e-01	 1.892737e+01
1	 1.173312e+00	 5.511114e-01	 1.804497e+01
1	 1.166659e+00	 5.650590e-01	 1.707410e+01
1	 1.204967e+00	 4.976919e-01	 2.082635e+01
1	 1.199002e+00	 5.118963e-01	 2.021368e+01
1	 1.192855e+00	 5.260614e-01	 1.950882e+01
1	 1.186526e+00	 5.401840e-01	 1.871267e+01
1	 1.180016e+00	 5.542606e-01	 1.782600e+01
1	 1.173325e+00	 5.682879e-01	 1.684956e+01
1	 1.211814e+00	 5.005197e-01	 2.060375e+01
1	 1.205814e+00	 5.148048e-01	 1.999195e+01
1	 1.199632e+00	 5.290504e-01	 1.928618e+01
1	 1.193268e+00	 5.432532e-01	 1.848741e+01
1	 1.186721e+00	 5.574098e-01	 1.759646e+01
1	 1.179992e+00	 5.715168e-01	 1.661409e+01
1	 1.218660e+00	 5.033475e-01	 2.036898e+01
1	 1.212627e+00	 5.177133e-01	 1.975859e+01
1	 1.206410e+00	 5.320394e-01	 1.905242e+01
1	 1.200010e+00	 5.463225e-01	 1.825143e+01
1	 1.193426e+00	 5.605590e-01	 1.735646e+01
1	 1.186659e+00	 5.747457e-01	 1.636827e+01
1	 1.225506e+00	 5.061753e-01	 2.012206e+01
1	 1.219439e+00	 5.206218e-01	 1.951340e+01
1	 1.213188e+00	 5.350284e-01	 1.880727e+01
1	 1.206751e+00	 5.493917e-01	 1.800457e+01
1	 1.200130e+00	 5.637082e-01	 1.710612e+01
1	 1.193325e+00	 5.779746e-01	 1.611265e+01
1	 1.232353e+00	 5.090031e-01	 1.986302e+01
1	 1.226252e+00	 5.235303e-01	 1.925617e+01
1	 1.219965e+00	 5.380174e-01	 1.855045e+01
1	 1.213493e+00	 5.524609e-01	 1.774665e+01
1	 1.206835e+00	 5.668575e-01	 1.684554e+01
1	 1.199992e+00	 5.812035e-01	 1.584780e+01
1	 1.166659e+00	 5.650590e-01	 1.707410e+01
1	 1.159826e+00	 5.789541e-01	 1.601734e+01
1	 1.152814e+00	 5.927935e-01	 1.487772e+01
1	 1.145623e+00	 6.065737e-01	 1.365646e+01
1	 1.138254e+00	 6.202913e-01	 1.235475e+01
1	 1.130708e+00	 6.339429e-01	 1.097375e+01
1	 1.173325e+00	 5.682879e-01	 1.684956e+01
1	 1.166454e+00	 5.822625e-01	 1.578617e+01
1	 1.159401e+00	 5.961809e-01	 1.463891e+01
1	 1.152170e+00	 6.100398e-01	 1.340882e+01
1	 1.144759e+00	 6.238358e-01	 1.209692e+01
1	 1.137169e+00	 6.375654e-01	 1.070427e+01
1	 1.179992e+00	 5.715168e-01	 1.661409e+01
1	 1.173081e+00	 5.855708e-01	 1.554369e+01
1	 1.165989e+00	 5.995683e-01	 1.438879e+01
1	 1.158716e+00	 6.135059e-01	 1.315023e+01
1	 1.151263e+00	 6.273803e-01	 1.182890e+01
1	 1.143630e+00	 6.411880e-01	 1.042572e+01
1	 1.186659e+00	 5.747457e-01	 1.636827e+01
1	 1.179709e+00	 5.888791e-01	 1.529090e+01
1	 1.172576e+00	 6.029557e-01	 1.412846e+01
1	 1.165262e+00	 6.169721e-01	 1.288166e+01
1	 1.157767e+00	 6.309248e-01	 1.155123e+01
1	 1.150092e+00	 6.448105e-01	 1.013794e+01
1	 1.193325e+00	 5.779746e-01	 1.611265e+01
1	 1.186336e+00	 5.921874e-01	 1.502877e+01
1	 1.179164e+00	 6.063431e-01	 1.385903e+01
1	 1.171809e+00	 6.204382e-01	 1.260407e+01
1	 1.164272e+00	 6.344693e-01	 1.126446e+01
1	 1.156553e+00	 6.484330e-01	 9.840768e+00
1	 1.199992e+00	 5.812035e-01	 1.584780e+01
1	 1.192964e+00	 5.954957e-01	 1.475823e+01
1	 1.185751e+00	 6.097304e-01	 1.358158e+01
1	 1.178355e+00	 6.239043e-01	 1.231838e+01
1	 1.170776e+00	 6.380139e-01	 1.096909e+01
1	 1.163014e+00	 6.520556e-01	 9.534049e+00
1	 1.130708e+00	 6.339429e-01	 1.097375e+01
1	 1.122985e+00	 6.475253e-01	 9.532234e+00
1	 1.115086e+00	 6.610350e-01	 8.046141e+00
1	 1.107012e+00	 6.744686e-01	 6.511790e+00
1	 1.098765e+00	 6.878230e-01	 4.924859e+00
1	 1.090344e+00	 7.010946e-01	 3.280376e+00
1	 1.137169e+00	 6.375654e-01	 1.070427e+01
1	 1.129402e+00	 6.512254e-01	 9.246752e+00
1	 1.121458e+00	 6.648123e-01	 7.737515e+00
1	 1.113338e+00	 6.783228e-01	 6.172958e+00
1	 1.105043e+00	 6.917534e-01	 4.548840e+00
1	 1.096575e+00	 7.051009e-01	 2.860285e+00
1	 1.143630e+00	 6.411880e-01	 1.042572e+01
1	 1.135819e+00	 6.549256e-01	 8.953580e+00
1	 1.127830e+00	 6.685897e-01	 7.422760e+00
1	 1.119664e+00	 6.821769e-01	 5.829782e+00
1	 1.111322e+00	 6.956838e-01	 4.170566e+00
1	 1.102805e+00	 7.091071e-01	 2.440435e+00
1	 1.150092e+00	 6.448105e-01	 1.013794e+01
1	 1.142236e+00	 6.586257e-01	 8.651859e+00
1	 1.134202e+00	 6.723670e-01	 7.100633e+00
1	 1.125990e+00	 6.860310e-01	 5.480948e+00
1	 1.117601e+00	 6.996142e-01	 3.788959e+00
1	 1.109036e+00	 7.131134e-01	 2.020294e+00
1	 1.156553e+00	 6.484330e-01	 9.840768e+00
1	 1.148653e+00	 6.623259e-01	 8.340748e+00
1	 1.140574e+00	 6.761443e-01	 6.769918e+00
1	 1.132315e+00	 6.898851e-01	 5.125170e+00
1	 1.123879e+00	 7.035446e-01	 3.402966e+00
1	 1.115266e+00	 7.171197e-01	 1.599344e+00
1	 1.163014e+00	 6.520556e-01	 9.534049e+00
1	 1.155070e+00	 6.660260e-01	 8.019427e+00
1	 1.146946e+00	 6.799217e-01	 6.429429e+00
1	 1.138641e+00	 6.937392e-01	 4.761190e+00
1	 1.130158e+00	 7.074751e-01	 3.011555e+00
1	 1.121497e+00	 7.211259e-01	 1.177075e+00
1	 1.090344e+00	 7.010946e-01	 3.280376e+00
1	 1.081752e+00	 7.142803e-01	 1.629471e+00
1	 1.072990e+00	 7.273768e-01	 3.043259e-02
1	 1.064059e+00	 7.403807e-01	-1.510846e+00
1	 1.054960e+00	 7.532889e-01	-2.987675e+00
1	 1.045695e+00	 7.660982e-01	-4.392580e+00
1	 1.096575e+00	 7.051009e-01	 2.860285e+00
1	 1.087934e+00	 7.183619e-01	 1.165569e+00
1	 1.079121e+00	 7.315332e-01	-4.697008e-01
1	 1.070139e+00	 7.446114e-01	-2.039293e+00
1	 1.060988e+00	 7.575934e-01	-3.536206e+00
1	 1.051670e+00	 7.704759e-01	-4.952677e+00
1	 1.102805e+00	 7.091071e-01	 2.440435e+00
1	 1.094115e+00	 7.224435e-01	 7.046435e-01
1	 1.085253e+00	 7.356896e-01	-9.642076e-01
1	 1.076219e+00	 7.488422e-01	-2.559676e+00
1	 1.067016e+00	 7.618979e-01	-4.074590e+00
1	 1.057646e+00	 7.748536e-01	-5.501062e+00
1	 1.109036e+00	 7.131134e-01	 2.020294e+00
1	 1.100296e+00	 7.265251e-01	 2.467699e-01
1	 1.091384e+00	 7.398461e-01	-1.452598e+00
1	 1.082300e+00	 7.530729e-01	-3.071274e+00
1	 1.073045e+00	 7.662024e-01	-4.602061e+00
1	 1.063621e+00	 7.792313e-01	-6.037108e+00
1	 1.115266e+00	 7.171197e-01	 1.599344e+00
1	 1.106478e+00	 7.306067e-01	-2.079799e-01
1	 1.097515e+00	 7.440025e-01	-1.934392e+00
1	 1.088380e+00	 7.573037e-01	-3.573385e+00
1	 1.079073e+00	 7.705069e-01	-5.117873e+00
1	 1.069596e+00	 7.836090e-01	-6.560201e+00
1	 1.121497e+00	 7.211259e-01	 1.177075e+00
1	 1.112659e+00	 7.346883e-01	-6.595353e-01
1	 1.103647e+00	 7.481590e-01	-2.409122e+00
1	 1.094460e+00	 7.615344e-01	-4.065322e+00
1	 1.085101e+00	 7.748114e-01	-5.621296e+00
1	 1.075572e+00	 7.879867e-01	-7.069743e+00
1	 1.045695e+00	 7.660982e-01	-4.392580e+00
1	 1.036266e+00	 7.788053e-01	-5.692867e+00
1	 1.026674e+00	 7.914072e-01	-6.861681e+00
1	 1.016921e+00	 8.039008e-01	-7.899711e+00
1	 1.007009e+00	 8.162830e-01	-8.807636e+00
1	 9.969392e-01	 8.285508e-01	-9.586120e+00
1	 1.051670e+00	 7.704759e-01	-4.952677e+00
1	 1.042187e+00	 7.832556e-01	-6.259159e+00
1	 1.032540e+00	 7.959296e-01	-7.432476e+00
1	 1.022732e+00	 8.084945e-01	-8.473869e+00
1	 1.012763e+00	 8.209475e-01	-9.384586e+00
1	 1.002636e+00	 8.332854e-01	-1.016588e+01
1	 1.057646e+00	 7.748536e-01	-5.501062e+00
1	 1.048109e+00	 7.877060e-01	-6.812745e+00
1	 1.038407e+00	 8.004519e-01	-7.990023e+00
1	 1.028543e+00	 8.130883e-01	-9.034601e+00
1	 1.018517e+00	 8.256120e-01	-9.948206e+00
1	 1.008333e+00	 8.380199e-01	-1.073259e+01
1	 1.063621e+00	 7.792313e-01	-6.037108e+00
1	 1.054030e+00	 7.921563e-01	-7.353202e+00
1	 1.044274e+00	 8.049742e-01	-8.534054e+00
1	 1.034354e+00	 8.176820e-01	-9.581748e+00
1	 1.024272e+00	 8.302764e-01	-1.049840e+01
1	 1.014030e+00	 8.427545e-01	-1.128616e+01
1	 1.069596e+00	 7.836090e-01	-6.560201e+00
1	 1.059952e+00	 7.966066e-01	-7.880115e+00
1	 1.050140e+00	 8.094966e-01	-9.064306e+00
1	 1.040165e+00	 8.222757e-01	-1.011515e+01
1	 1.030026e+00	 8.349409e-01	-1.103507e+01
1	 1.019726e+00	 8.474891e-01	-1.182652e+01
1	 1.075572e+00	 7.879867e-01	-7.069743e+00
1	 1.065873e+00	 8.010569e-01	-8.393080e+00
1	 1.056007e+00	 8.140189e-01	-9.580521e+00
1	 1.045975e+00	 8.268694e-01	-1.063466e+01
1	 1.035780e+00	 8.396054e-01	-1.155813e+01
1	 1.025423e+00	 8.522237e-01	-1.235361e+01
1	 9.969392e-01	 8.285508e-01	-9.586120e+00
1	 9.867146e-01	 8.407012e-01	-1.027164e+01
1	 9.763368e-01	 8.527312e-01	-1.089874e+01
1	 9.658080e-01	 8.646381e-01	-1.146506e+01
1	 9.551303e-01	 8.764189e-01	-1.196819e+01
1	 9.443061e-01	 8.880710e-01	-1.240564e+01
1	 1.002636e+00	 8.332854e-01	-1.016588e+01
1	 9.923529e-01	 8.455052e-01	-1.085450e+01
1	 9.819159e-01	 8.576040e-01	-1.148463e+01
1	 9.713269e-01	 8.695789e-01	-1.205368e+01
1	 9.605882e-01	 8.814270e-01	-1.255894e+01
1	 9.497021e-01	 8.931457e-01	-1.299761e+01
1	 1.008333e+00	 8.380199e-01	-1.073259e+01
1	 9.979913e-01	 8.503092e-01	-1.142452e+01
1	 9.874949e-01	 8.624767e-01	-1.205776e+01
1	 9.768458e-01	 8.745197e-01	-1.262943e+01
1	 9.660461e-01	 8.864352e-01	-1.313657e+01
1	 9.550982e-01	 8.982204e-01	-1.357611e+01
1	 1.014030e+00	 8.427545e-01	-1.128616e+01
1	 1.003630e+00	 8.551132e-01	-1.198165e+01
1	 9.930740e-01	 8.673495e-01	-1.261803e+01
1	 9.823647e-01	 8.794605e-01	-1.319221e+01
1	 9.715040e-01	 8.914433e-01	-1.370097e+01
1	 9.604942e-01	 9.032951e-01	-1.414098e+01
1	 1.019726e+00	 8.474891e-01	-1.182652e+01
1	 1.009268e+00	 8.599172e-01	-1.252579e+01
1	 9.986531e-01	 8.722222e-01	-1.316536e+01
1	 9.878836e-01	 8.844012e-01	-1.374191e+01
1	 9.769619e-01	 8.964514e-01	-1.425202e+01
1	 9.658902e-01	 9.083697e-01	-1.469208e+01
1	 1.025423e+00	 8.522237e-01	-1.235361e+01
1	 1.014906e+00	 8.647212e-01	-1.305688e+01
1	 1.004232e+00	 8.770950e-01	-1.369966e+01
1	 9.934025e-01	 8.893420e-01	-1.427845e+01
1	 9.824198e-01	 9.014595e-01	-1.478959e+01
1	 9.712863e-01	 9.134444e-01	-1.522928e+01
1	 9.443061e-01	 8.880710e-01	-1.240564e+01
1	 9.333377e-01	 8.995915e-01	-1.281121e+01
1	 9.222274e-01	 9.109779e-01	-1.322078e+01
1	 9.109779e-01	 9.222274e-01	-1.363494e+01
1	 8.995915e-01	 9.333377e-01	-1.405438e+01
1	 8.880710e-01	 9.443061e-01	-1.447987e+01
1	 9.497021e-01	 8.931457e-01	-1.299761e+01
1	 9.386710e-01	 9.047320e-01	-1.340431e+01
1	 9.274973e-01	 9.161834e-01	-1.381603e+01
1	 9.161834e-01	 9.274973e-01	-1.423361e+01
1	 9.047320e-01	 9.386710e-01	-1.465795e+01
1	 8.931457e-01	 9.497021e-01	-1.509007e+01
1	 9.550982e-01	 8.982204e-01	-1.357611e+01
1	 9.440044e-01	 9.098726e-01	-1.398354e+01
1	 9.327672e-01	 9.213890e-01	-1.439710e+01
1	 9.213890e-01	 9.327672e-01	-1.481783e+01
1	 9.098726e-01	 9.440044e-01	-1.524688e+01
1	 8.982204e-01	 9.550982e-01	-1.568549e+01
1	 9.604942e-01	 9.032951e-01	-1.414098e+01
1	 9.493377e-01	 9.150131e-01	-1.454874e+01
1	 9.380370e-01	 9.265946e-01	-1.496381e+01
1	 9.265946e-01	 9.380370e-01	-1.538745e+01
1	 9.150131e-01	 9.493377e-01	-1.582104e+01
1	 9.032951e-01	 9.604942e-01	-1.626605e+01
1	 9.658902e-01	 9.083697e-01	-1.469208e+01
1	 9.546711e-01	 9.201536e-01	-1.509974e+01
1	 9.433069e-01	 9.318002e-01	-1.551600e+01
1	 9.318002e-01	 9.433069e-01	-1.594233e+01
1	 9.201536e-01	 9.546711e-01	-1.638032e+01
1	 9.083697e-01	 9.658902e-01	-1.683169e+01
1	 9.712863e-01	 9.134444e-01	-1.522928e+01
1	 9.600045e-01	 9.252941e-01	-1.563639e+01
1	 9.485768e-01	 9.370058e-01	-1.605351e+01
1	 9.370058e-01	 9.485768e-01	-1.648231e+01
1	 9.252941e-01	 9.600045e-01	-1.692459e+01
1	 9.134444e-01	 9.712863e-01	-1.738232e+01
1	 8.880710e-01	 9.443061e-01	-1.447987e+01
1	 8.764189e-01	 9.551303e-01	-1.494740e+01
1	 8.646381e-01	 9.658080e-01	-1.549200e+01
1	 8.527312e-01	 9.763368e-01	-1.611319e+01
1	 8.407012e-01	 9.867146e-01	-1.681055e+01
1	 8.285508e-01	 9.969392e-01	-1.758379e+01
1	 8.931457e-01	 9.497021e-01	-1.509007e+01
1	 8.814270e-01	 9.605882e-01	-1.556647e+01
1	 8.695789e-01	 9.713269e-01	-1.612246e+01
1	 8.576040e-01	 9.819159e-01	-1.675741e+01
1	 8.455052e-01	 9.923529e-01	-1.747077e+01
1	 8.332854e-01	 1.002636e+00	-1.826213e+01
1	 8.982204e-01	 9.550982e-01	-1.568549e+01
1	 8.864352e-01	 9.660461e-01	-1.617066e+01
1	 8.745197e-01	 9.768458e-01	-1.673795e+01
1	 8.624767e-01	 9.874949e-01	-1.738665e+01
1	 8.503092e-01	 9.979913e-01	-1.811612e+01
1	 8.380199e-01	 1.008333e+00	-1.892586e+01
1	 9.032951e-01	 9.604942e-01	-1.626605e+01
1	 8.914433e-01	 9.715040e-01	-1.675992e+01
1	 8.794605e-01	 9.823647e-01	-1.733847e+01
1	 8.673495e-01	 9.930740e-01	-1.800093e+01
1	 8.551132e-01	 1.003630e+00	-1.874663e+01
1	 8.427545e-01	 1.014030e+00	-1.957498e+01
1	 9.083697e-01	 9.658902e-01	-1.683169e+01
1	 8.964514e-01	 9.769619e-01	-1.733424e+01
1	 8.844012e-01	 9.878836e-01	-1.792404e+01
1	 8.722222e-01	 9.986531e-01	-1.860029e+01
1	 8.599172e-01	 1.009268e+00	-1.936233e+01
1	 8.474891e-01	 1.019726e+00	-2.020953e+01
1	 9.134444e-01	 9.712863e-01	-1.738232e+01
1	 9.014595e-01	 9.824198e-01	-1.789360e+01
1	 8.893420e-01	 9.934025e-01	-1.849466e+01
1	 8.770950e-01	 1.004232e+00	-1.918476e+01
1	 8.647212e-01	 1.014906e+00	-1.996324e+01
1	 8.522237e-01	 1.025423e+00	-2.082950e+01
1	 8.285508e-01	 9.969392e-01	-1.758379e+01
1	 8.162830e-01	 1.007009e+00	-1.846208e+01
1	 8.039008e-01	 1.016921e+00	-1.947590e+01
1	 7.914072e-01	 1.026674e+00	-2.062712e+01
1	 7.788053e-01	 1.036266e+00	-2.191773e+01
1	 7.660982e-01	 1.045695e+00	-2.334982e+01
1	 8.332854e-01	 1.002636e+00	-1.826213e+01
1	 8.209475e-01	 1.012763e+00	-1.916110e+01
1	 8.084945e-01	 1.022732e+00	-2.019909e+01
1	 7.959296e-01	 1.032540e+00	-2.137851e+01
1	 7.832556e-01	 1.042187e+00	-2.270194e+01
1	 7.704759e-01	 1.051670e+00	-2.417206e+01
1	 8.380199e-01	 1.008333e+00	-1.892586e+01
1	 8.256120e-01	 1.018517e+00	-1.984603e+01
1	 8.130883e-01	 1.028543e+00	-2.090901e+01
1	 8.004519e-01	 1.038407e+00	-2.211776e+01
1	 7.877060e-01	 1.048109e+00	-2.347537e+01
1	 7.748536e-01	 1.057646e+00	-2.498507e+01
1	 8.427545e-01	 1.014030e+00	-1.957498e+01
1	 8.302764e-01	 1.024272e+00	-2.051687e+01
1	 8.176820e-01	 1.034354e+00	-2.160571e+01
1	 8.049742e-01	 1.044274e+00	-2.284494e+01
1	 7.921563e-01	 1.054030e+00	-2.423817e+01
1	 7.792313e-01	 1.063621e+00	-2.578914e+01
1	 8.474891e-01	 1.019726e+00	-2.020953e+01
1	 8.349409e-01	 1.030026e+00	-2.117362e+01
1	 8.222757e-01	 1.040165e+00	-2.228920e+01
1	 8.094966e-01	 1.050140e+00	-2.356013e+01
1	 7.966066e-01	 1.059952e+00	-2.499050e+01
1	 7.836090e-01	 1.069596e+00	-2.658454e+01
1	 8.522237e-01	 1.025423e+00	-2.082950e+01
1	 8.396054e-01	 1.035780e+00	-2.181630e+01
1	 8.268694e-01	 1.045975e+00	-2.295950e+01
1	 8.140189e-01	 1.056007e+00	-2.426340e+01
1	 8.010569e-01	 1.065873e+00	-2.573251e+01
1	 7.879867e-01	 1.075572e+00	-2.737151e+01
1	 7.660982e-01	 1.045695e+00	-2.334982e+01
1	 7.532889e-01	 1.054960e+00	-2.490487e+01
1	 7.403807e-01	 1.064059e+00	-2.657303e+01
1	 7.273768e-01	 1.072990e+00	-2.836990e+01
1	 7.142803e-01	 1.081752e+00	-3.031160e+01
1	 7.010946e-01	 1.090344e+00	-3.241475e+01
1	 7.704759e-01	 1.051670e+00	-2.417206e+01
1	 7.575934e-01	 1.060988e+00	-2.577278e+01
1	 7.446114e-01	 1.070139e+00	-2.749463e+01
1	 7.315332e-01	 1.079121e+00	-2.935065e+01
1	 7.183619e-01	 1.087934e+00	-3.135431e+01
1	 7.051009e-01	 1.096575e+00	-3.351952e+01
1	 7.748536e-01	 1.057646e+00	-2.498507e+01
1	 7.618979e-01	 1.067016e+00	-2.663260e+01
1	 7.488422e-01	 1.076219e+00	-2.840784e+01
1	 7.356896e-01	 1.085253e+00	-3.032065e+01
1	 7.224435e-01	 1.094115e+00	-3.238128e+01
1	 7.091071e-01	 1.102805e+00	-3.460028e+01
1	 7.792313e-01	 1.063621e+00	-2.578914e+01
1	 7.662024e-01	 1.073045e+00	-2.748462e+01
1	 7.530729e-01	 1.082300e+00	-2.931272e+01
1	 7.398461e-01	 1.091384e+00	-3.127955e+01
1	 7.265251e-01	 1.100296e+00	-3.339150e+01
1	 7.131134e-01	 1.109036e+00	-3.565519e+01
1	 7.836090e-01	 1.069596e+00	-2.658454e+01
1	 7.705069e-01	 1.079073e+00	-2.832912e+01
1	 7.573037e-01	 1.088380e+00	-3.020933e+01
1	 7.440025e-01	 1.097515e+00	-3.222697e+01
1	 7.306067e-01	 1.106478e+00	-3.438399e+01
1	 7.171197e-01	 1.115266e+00	-3.668243e+01
1	 7.879867e-01	 1.075572e+00	-2.737151e+01
1	 7.748114e-01	 1.085101e+00	-2.916636e+01
1	 7.615344e-01	 1.094460e+00	-3.109774e+01
1	 7.481590e-01	 1.103647e+00	-3.316257e+01
1	 7.346883e-01	 1.112659e+00	-3.535776e+01
1	 7.211259e-01	 1.121497e+00	-3.768021e+01
1	 7.010946e-01	 1.090344e+00	-3.241475e+01
1	 6.878230e-01	 1.098765e+00	-3.463307e+01
1	 6.744686e-01	 1.107012e+00	-3.689458e+01
1	 6.610350e-01	 1.115086e+00	-3.917708e+01
1	 6.475253e-01	 1.122985e+00	-4.145769e+01
1	 6.339429e-01	 1.130708e+00	-4.371289e+01
1	 7.051009e-01	 1.096575e+00	-3.351952e+01
1	 6.917534e-01	 1.105043e+00	-3.579078e+01
1	 6.783228e-01	 1.113338e+00	-3.808890e+01
1	 6.648123e-01	 1.121458e+00	-4.039199e+01
1	 6.512254e-01	 1.129402e+00	-4.267748e+01
1	 6.375654e-01	 1.137169e+00	-4.492221e+01
1	 7.091071e-01	 1.102805e+00	-3.460028e+01
1	 6.956838e-01	 1.111322e+00	-3.691325e+01
1	 6.821769e-01	 1.119664e+00	-3.923553e+01
1	 6.685897e-01	 1.127830e+00	-4.154706e+01
1	 6.549256e-01	 1.135819e+00	-4.382721e+01
1	 6.411880e-01	 1.143630e+00	-4.605476e+01
1	 7.131134e-01	 1.109036e+00	-3.565519e+01
1	 6.996142e-01	 1.117601e+00	-3.799795e+01
1	 6.860310e-01	 1.125990e+00	-4.033173e+01
1	 6.723670e-01	 1.134202e+00	-4.263985e+01
1	 6.586257e-01	 1.142236e+00	-4.490514e+01
1	 6.448105e-01	 1.150092e+00	-4.710994e+01
1	 7.171197e-01	 1.115266e+00	-3.668243e+01
1	 7.035446e-01	 1.123879e+00	-3.904238e+01
1	 6.898851e-01	 1.132315e+00	-4.137483e+01
1	 6.761443e-01	 1.140574e+00	-4.366795e+01
1	 6.623259e-01	 1.148653e+00	-4.590957e+01
1	 6.484330e-01	 1.156553e+00	-4.808716e+01
1	 7.211259e-01	 1.121497e+00	-3.768021e+01
1	 7.074751e-01	 1.130158e+00	-4.004413e+01
1	 6.937392e-01	 1.138641e+00	-4.236223e+01
1	 6.799217e-01	 1.146946e+00	-4.462903e+01
1	 6.660260e-01	 1.155070e+00	-4.683884e+01
1	 6.520556e-01	 1.163014e+00	-4.898583e+01
1	 6.339429e-01	 1.130708e+00	-4.371289e+01
1	 6.202913e-01	 1.138254e+00	-4.589387e+01
1	 6.065737e-01	 1.145623e+00	-4.796508e+01
1	 5.927935e-01	 1.152814e+00	-4.992238e+01
1	 5.789541e-01	 1.159826e+00	-5.176156e+01
1	 5.650590e-01	 1.166659e+00	-5.347835e+01
1	 6.375654e-01	 1.137169e+00	-4.492221e+01
1	 6.238358e-01	 1.144759e+00	-4.708096e+01
1	 6.100398e-01	 1.152170e+00	-4.912370e+01
1	 5.961809e-01	 1.159401e+00	-5.104958e+01
1	 5.822625e-01	 1.166454e+00	-5.285775e+01
1	 5.682879e-01	 1.173325e+00	-5.454734e+01
1	 6.411880e-01	 1.143630e+00	-4.605476e+01
1	 6.273803e-01	 1.151263e+00	-4.818934e+01
1	 6.135059e-01	 1.158716e+00	-5.020553e+01
1	 5.995683e-01	 1.165989e+00	-5.210419e+01
1	 5.855708e-01	 1.173081e+00	-5.388617e+01
1	 5.715168e-01	 1.179992e+00	-5.555236e+01
1	 6.448105e-01	 1.150092e+00	-4.710994e+01
1	 6.309248e-01	 1.157767e+00	-4.921950e+01
1	 6.169721e-01	 1.165262e+00	-5.121167e+01
1	 6.029557e-01	 1.172576e+00	-5.308745e+01
1	 5.888791e-01	 1.179709e+00	-5.484782e+01
1	 5.747457e-01	 1.186659e+00	-5.649380e+01
1	 6.484330e-01	 1.156553e+00	-4.808716e+01
1	 6.344693e-01	 1.164272e+00	-5.017189e+01
1	 6.204382e-01	 1.171809e+00	-5.214317e+01
1	 6.063431e-01	 1.179164e+00	-5.400059e+01
1	 5.921874e-01	 1.186336e+00	-5.574371e+01
1	 5.779746e-01	 1.193325e+00	-5.737203e+01
1	 6.520556e-01	 1.163014e+00	-4.898583e+01
1	 6.380139e-01	 1.170776e+00	-5.104697e+01
1	 6.239043e-01	 1.178355e+00	-5.300106e+01
1	 6.097304e-01	 1.185751e+00	-5.484481e+01
1	 5.954957e-01	 1.192964e+00	-5.657478e+01
1	 5.812035e-01	 1.199992e+00	-5.818742e+01
1	 5.650590e-01	 1.166659e+00	-5.347835e+01
1	 5.511114e-01	 1.173312e+00	-5.506166e+01
1	 5.371148e-01	 1.179785e+00	-5.650071e+01
1	 5.230724e-01	 1.186077e+00	-5.779170e+01
1	 5.089878e-01	 1.192189e+00	-5.893085e+01
1	 4.948641e-01	 1.198121e+00	-5.991439e+01
1	 5.682879e-01	 1.173325e+00	-5.454734e+01
1	 5.542606e-01	 1.180016e+00	-5.610933e+01
1	 5.401840e-01	 1.186526e+00	-5.753124e+01
1	 5.260614e-01	 1.192855e+00	-5.880698e+01
1	 5.118963e-01	 1.199002e+00	-5.993041e+01
1	 4.976919e-01	 1.204967e+00	-6.089541e+01
1	 5.715168e-01	 1.179992e+00	-5.555236e+01
1	 5.574098e-01	 1.186721e+00	-5.709415e+01
1	 5.432532e-01	 1.193268e+00	-5.849747e+01
1	 5.290504e-01	 1.199632e+00	-5.975500e+01
1	 5.148048e-01	 1.205814e+00	-6.085934e+01
1	 5.005197e-01	 1.211814e+00	-6.180309e+01
1	 5.747457e-01	 1.186659e+00	-5.649380e+01
1	 5.605590e-01	 1.193426e+00	-5.801583e+01
1	 5.463225e-01	 1.200010e+00	-5.939875e+01
1	 5.320394e-01	 1.206410e+00	-6.063502e+01
1	 5.177133e-01	 1.212627e+00	-6.171705e+01
1	 5.033475e-01	 1.218660e+00	-6.263726e+01
1	 5.779746e-01	 1.193325e+00	-5.737203e+01
1	 5.637082e-01	 1.200130e+00	-5.887412e+01
1	 5.493917e-01	 1.206751e+00	-6.023445e+01
1	 5.350284e-01	 1.213188e+00	-6.144632e+01
1	 5.206218e-01	 1.219439e+00	-6.250300e+01
1	 5.061753e-01	 1.225506e+00	-6.339773e+01
1	 5.812035e-01	 1.199992e+00	-5.818742e+01
1	 5.668575e-01	 1.206835e+00	-5.966875e+01
1	 5.524609e-01	 1.213493e+00	-6.100397e+01
1	 5.380174e-01	 1.219965e+00	-6.218821e+01
1	 5.235303e-01	 1.226252e+00	-6.321662e+01
1	 5.090031e-01	 1.232353e+00	-6.408434e+01
1	 4.948641e-01	 1.198121e+00	-5.991439e+01
1	 4.807048e-01	 1.203872e+00	-6.072998e+01
1	 4.665132e-01	 1.209442e+00	-6.136784e+01
1	 4.522925e-01	 1.214832e+00	-6.182809e+01
1	 4.380460e-01	 1.220041e+00	-6.211097e+01
1	 4.237771e-01	 1.225070e+00	-6.221677e+01
1	 4.976919e-01	 1.204967e+00	-6.089541e+01
1	 4.834517e-01	 1.210751e+00	-6.168847e+01
1	 4.691790e-01	 1.216353e+00	-6.230163e+01
1	 4.548770e-01	 1.221773e+00	-6.273713e+01
1	 4.405491e-01	 1.227013e+00	-6.299730e+01
1	 4.261987e-01	 1.232071e+00	-6.308460e+01
1	 5.005197e-01	 1.211814e+00	-6.180309e+01
1	 4.861986e-01	 1.217630e+00	-6.257277e+01
1	 4.718447e-01	 1.223264e+00	-6.316222e+01
1	 4.574615e-01	 1.228715e+00	-6.357510e+01
1	 4.430523e-01	 1.233984e+00	-6.381519e+01
1	 4.286202e-01	 1.239071e+00	-6.388639e+01
1	 5.033475e-01	 1.218660e+00	-6.263726e+01
1	 4.889455e-01	 1.224509e+00	-6.338311e+01
1	 4.745105e-01	 1.230175e+00	-6.395005e+01
1	 4.600461e-01	 1.235657e+00	-6.434252e+01
1	 4.455554e-01	 1.240956e+00	-6.456505e+01
1	 4.310418e-01	 1.246071e+00	-6.462229e+01
1	 5.061753e-01	 1.225506e+00	-6.339773e+01
1	 4.916924e-01	 1.231389e+00	-6.411971e+01
1	 4.771763e-01	 1.237086e+00	-6.466558e+01
1	 4.626306e-01	 1.242599e+00	-6.503988e+01
1	 4.480585e-01	 1.247928e+00	-6.524725e+01
1	 4.334634e-01	 1.253072e+00	-6.529245e+01
1	 5.090031e-01	 1.232353e+00	-6.408434e+01
1	 4.944392e-01	 1.238268e+00	-6.478279e+01
1	 4.798421e-01	 1.243997e+00	-6.530923e+01
1	 4.652151e-01	 1.249541e+00	-6.566767e+01
1	 4.505616e-01	 1.254899e+00	-6.586221e+01
1	 4.358850e-01	 1.260072e+00	-6.589700e+01
1	 4.237771e-01	 1.225070e+00	-6.221677e+01
1	 4.094888e-01	 1.229920e+00	-6.216088e+01
1	 3.951845e-01	 1.234590e+00	-6.194747e+01
1	 3.808673e-01	 1.239082e+00	-6.156019e+01
1	 3.665404e-01	 1.243395e+00	-6.098281e+01
1	 3.522068e-01	 1.247531e+00	-6.019932e+01
1	 4.261987e-01	 1.232071e+00	-6.308460e+01
1	 4.118288e-01	 1.236948e+00	-6.301487e+01
1	 3.974427e-01	 1.241645e+00	-6.279061e+01
1	 3.830437e-01	 1.246162e+00	-6.239439e+01
1	 3.686349e-01	 1.250501e+00	-6.180893e+01
1	 3.542194e-01	 1.254660e+00	-6.101711e+01
1	 4.286202e-01	 1.239071e+00	-6.388639e+01
1	 4.141687e-01	 1.243976e+00	-6.380426e+01
1	 3.997009e-01	 1.248700e+00	-6.356967e+01
1	 3.852201e-01	 1.253243e+00	-6.316463e+01
1	 3.707294e-01	 1.257606e+00	-6.257130e+01
1	 3.562320e-01	 1.261789e+00	-6.177197e+01
1	 4.310418e-01	 1.246071e+00	-6.462229e+01
1	 4.165086e-01	 1.251004e+00	-6.452893e+01
1	 4.019591e-01	 1.255755e+00	-6.428440e+01
1	 3.873965e-01	 1.260323e+00	-6.387065e+01
1	 3.728239e-01	 1.264711e+00	-6.326974e+01
1	 3.582446e-01	 1.268918e+00	-6.246390e+01
1	 4.334634e-01	 1.253072e+00	-6.529245e+01
1	 4.188486e-01	 1.258032e+00	-6.518878e+01
1	 4.042173e-01	 1.262810e+00	-6.493458e+01
1	 3.895729e-01	 1.267404e+00	-6.451219e+01
1	 3.749184e-01	 1.271816e+00	-6.390409e+01
1	 3.602572e-01	 1.276046e+00	-6.309293e+01
1	 4.358850e-01	 1.260072e+00	-6.589700e+01
1	 4.211885e-01	 1.265060e+00	-6.578373e+01
1	 4.064755e-01	 1.269864e+00	-6.551998e+01
1	 3.917493e-01	 1.274484e+00	-6.508901e+01
1	 3.770130e-01	 1.278921e+00	-6.447419e+01
1	 3.622699e-01	 1.283175e+00	-6.365906e+01
1	 3.522068e-01	 1.247531e+00	-6.019932e+01
1	 3.378697e-01	 1.251490e+00	-5.924621e+01
1	 3.235321e-01	 1.255273e+00	-5.817719e+01
1	 3.091969e-01	 1.258881e+00	-5.700226e+01
1	 2.948673e-01	 1.262314e+00	-5.573158e+01
1	 2.805461e-01	 1.265574e+00	-5.437542e+01
1	 3.542194e-01	 1.254660e+00	-6.101711e+01
1	 3.398004e-01	 1.258642e+00	-6.005629e+01
1	 3.253808e-01	 1.262446e+00	-5.898137e+01
1	 3.109638e-01	 1.266075e+00	-5.780177e+01
1	 2.965523e-01	 1.269528e+00	-5.652711e+01
1	 2.821492e-01	 1.272806e+00	-5.516707e+01
1	 3.562320e-01	 1.261789e+00	-6.177197e+01
1	 3.417311e-01	 1.265793e+00	-6.080529e+01
1	 3.272296e-01	 1.269619e+00	-5.972722e+01
1	 3.127306e-01	 1.273268e+00	-5.854635e+01
1	 2.982372e-01	 1.276741e+00	-5.727140e+01
1	 2.837523e-01	 1.280038e+00	-5.591120e+01
1	 3.582446e-01	 1.268918e+00	-6.246390e+01
1	 3.436617e-01	 1.272944e+00	-6.149339e+01
1	 3.290783e-01	 1.276792e+00	-6.041508e+01
1	 3.144975e-01	 1.280462e+00	-5.923637e+01
1	 2.999222e-01	 1.283954e+00	-5.796482e+01
1	 2.853554e-01	 1.287270e+00	-5.660812e+01
1	 3.602572e-01	 1.276046e+00	-6.309293e+01
1	 3.455924e-01	 1.280096e+00	-6.212082e+01
1	 3.309271e-01	 1.283965e+00	-6.104526e+01
1	 3.162643e-01	 1.287655e+00	-5.987220e+01
1	 3.016071e-01	 1.291167e+00	-5.860775e+01
1	 2.869586e-01	 1.294502e+00	-5.725815e+01
1	 3.622699e-01	 1.283175e+00	-6.365906e+01
1	 3.475231e-01	 1.287247e+00	-6.268776e+01
1	 3.327758e-01	 1.291138e+00	-6.161807e+01
1	 3.180311e-01	 1.294849e+00	-6.045420e+01
1	 3.032921e-01	 1.298380e+00	-5.920054e+01
1	 2.885617e-01	 1.301733e+00	-5.786157e+01
1	 2.805461e-01	 1.265574e+00	-5.437542e+01
1	 2.662362e-01	 1.268662e+00	-5.295000e+01
1	 2.519404e-01	 1.271578e+00	-5.147540e+01
1	 2.376616e-01	 1.274324e+00	-4.996774e+01
1	 2.234024e-01	 1.276901e+00	-4.844314e+01
1	 2.091658e-01	 1.279310e+00	-4.691763e+01
1	 2.821492e-01	 1.272806e+00	-5.516707e+01
1	 2.677575e-01	 1.275911e+00	-5.373799e+01
1	 2.533800e-01	 1.278844e+00	-5.226050e+01
1	 2.390196e-01	 1.281606e+00	-5.075084e+01
1	 2.246790e-01	 1.284197e+00	-4.922519e+01
1	 2.103610e-01	 1.286620e+00	-4.769970e+01
1	 2.837523e-01	 1.280038e+00	-5.591120e+01
1	 2.692789e-01	 1.283161e+00	-5.448199e+01
1	 2.548197e-01	 1.286110e+00	-5.300500e+01
1	 2.403777e-01	 1.288887e+00	-5.149665e+01
1	 2.259556e-01	 1.291494e+00	-4.997334e+01
1	 2.115562e-01	 1.293931e+00	-4.845140e+01
1	 2.853554e-01	 1.287270e+00	-5.660812e+01
1	 2.708002e-01	 1.290410e+00	-5.518223e+01
1	 2.562594e-01	 1.293376e+00	-5.370908e+01
1	 2.417358e-01	 1.296169e+00	-5.220535e+01
1	 2.272322e-01	 1.298790e+00	-5.068774e+01
1	 2.127515e-01	 1.301241e+00	-4.917287e+01
1	 2.869586e-01	 1.294502e+00	-5.725815e+01
1	 2.723216e-01	 1.297660e+00	-5.583895e+01
1	 2.576990e-01	 1.300642e+00	-5.437290e+01
1	 2.430938e-01	 1.303451e+00	-5.287708e+01
1	 2.285088e-01	 1.306087e+00	-5.136854e+01
1	 2.139467e-01	 1.308551e+00	-4.986429e+01
1	 2.885617e-01	 1.301733e+00	-5.786157e+01
1	 2.738429e-01	 1.304909e+00	-5.645237e+01
1	 2.591387e-01	 1.307909e+00	-5.499666e+01
1	 2.444519e-01	 1.310733e+00	-5.351198e+01
1	 2.297854e-01	 1.313384e+00	-5.201587e+01
1	 2.151419e-01	 1.315862e+00	-5.052580e+01
1	 2.091658e-01	 1.279310e+00	-4.691763e+01
1	 1.949542e-01	 1.281553e+00	-4.540964e+01
1	 1.807703e-01	 1.283630e+00	-4.393503e+01
1	 1.666167e-01	 1.285544e+00	-4.250579e+01
1	 1.524959e-01	 1.287295e+00	-4.113371e+01
1	 1.384103e-01	 1.288886e+00	-3.983039e+01
1	 2.103610e-01	 1.286620e+00	-4.769970e+01
1	 1.960682e-01	 1.288876e+00	-4.619254e+01
1	 1.818033e-01	 1.290965e+00	-4.471901e+01
1	 1.675688e-01	 1.292890e+00	-4.329076e+01
1	 1.533673e-01	 1.294651e+00	-4.191926e+01
1	 1.392012e-01	 1.296251e+00	-4.061576e+01
1	 2.115562e-01	 1.293931e+00	-4.845140e+01
1	 1.971822e-01	 1.296199e+00	-4.694877e+01
1	 1.828362e-01	 1.298300e+00	-4.548013e+01
1	 1.685209e-01	 1.300236e+00	-4.405667e+01
1	 1.542387e-01	 1.302007e+00	-4.268943e+01
1	 1.399921e-01	 1.303616e+00	-4.138920e+01
1	 2.127515e-01	 1.301241e+00	-4.917287e+01
1	 1.982962e-01	 1.303522e+00	-4.767851e+01
1	 1.838692e-01	 1.305635e+00	-4.621857e+01
1	 1.694730e-01	 1.307582e+00	-4.480370e+01
1	 1.551101e-01	 1.309363e+00	-4.344436e+01
1	 1.407831e-01	 1.310981e+00	-4.215082e+01
1	 2.139467e-01	 1.308551e+00	-4.986429e+01
1	 1.994103e-01	 1.310845e+00	-4.838193e+01
1	 1.849022e-01	 1.312970e+00	-4.693450e+01
1	 1.704251e-01	 1.314928e+00	-4.553200e+01
1	 1.559815e-01	 1.316719e+00	-4.418421e+01
1	 1.415740e-01	 1.318346e+00	-4.290075e+01
1	 2.151419e-01	 1.315862e+00	-5.052580e+01
1	 2.005243e-01	 1.318168e+00	-4.905920e+01
1	 1.859351e-01	 1.320305e+00	-4.762811e+01
1	 1.713771e-01	 1.322274e+00	-4.624174e+01
1	 1.568529e-01	 1.324075e+00	-4.490913e+01
1	 1.423649e-01	 1.325711e+00	-4.363912e+01
1	 1.384103e-01	 1.288886e+00	-3.983039e+01
1	 1.243625e-01	 1.290317e+00	-3.860793e+01
1	 1.103546e-01	 1.291590e+00	-3.747919e+01
1	 9.638917e-02	 1.292708e+00	-3.645642e+01
1	 8.246833e-02	 1.293670e+00	-3.555154e+01
1	 6.859431e-02	 1.294480e+00	-3.477611e+01
1	 1.392012e-01	 1.296251e+00	-4.061576e+01
1	 1.250731e-01	 1.297690e+00	-3.939219e+01
1	 1.109852e-01	 1.298971e+00	-3.826126e+01
1	 9.693997e-02	 1.300095e+00	-3.723497e+01
1	 8.293958e-02	 1.301063e+00	-3.632499e+01
1	 6.898628e-02	 1.301877e+00	-3.554265e+01
1	 1.399921e-01	 1.303616e+00	-4.138920e+01
1	 1.257837e-01	 1.305064e+00	-4.016763e+01
1	 1.116158e-01	 1.306352e+00	-3.903729e+01
1	 9.749076e-02	 1.307482e+00	-3.800992e+01
1	 8.341082e-02	 1.308455e+00	-3.709694e+01
1	 6.937825e-02	 1.309274e+00	-3.630943e+01
1	 1.407831e-01	 1.310981e+00	-4.215082e+01
1	 1.264944e-01	 1.312437e+00	-4.093436e+01
1	 1.122464e-01	 1.313732e+00	-3.980738e+01
1	 9.804156e-02	 1.314868e+00	-3.878136e+01
1	 8.388207e-02	 1.315848e+00	-3.786746e+01
1	 6.977021e-02	 1.316671e+00	-3.707651e+01
1	 1.415740e-01	 1.318346e+00	-4.290075e+01
1	 1.272050e-01	 1.319810e+00	-4.169248e+01
1	 1.128770e-01	 1.321113e+00	-4.057160e+01
1	 9.859235e-02	 1.322255e+00	-3.954934e+01
1	 8.435332e-02	 1.323240e+00	-3.863660e+01
1	 7.016218e-02	 1.324068e+00	-3.784396e+01
1	 1.423649e-01	 1.325711e+00	-4.363912e+01
1	 1.279157e-01	 1.327183e+00	-4.244208e+01
1	 1.135076e-01	 1.328493e+00	-4.133003e+01
1	 9.914315e-02	 1.329642e+00	-4.031393e+01
1	 8.482457e-02	 1.330632e+00	-3.940442e+01
1	 7.055415e-02	 1.331465e+00	-3.861184e+01
1	 6.859431e-02	 1.294480e+00	-3.477611e+01
1	 5.476927e-02	 1.295139e+00	-3.414203e+01
1	 4.099530e-02	 1.295648e+00	-3.366072e+01
1	 2.727445e-02	 1.296009e+00	-3.334250e+01
1	 1.360871e-02	 1.296225e+00	-3.319725e+01
1	 0.000000e+00	 1.296296e+00	-3.323439e+01
1	 6.898628e-02	 1.301877e+00	-3.554265e+01
1	 5.508224e-02	 1.302540e+00	-3.489954e+01
1	 4.122956e-02	 1.303052e+00	-3.440690e+01
1	 2.743030e-02	 1.303415e+00	-3.407501e+01
1	 1.368647e-02	 1.303632e+00	-3.391370e+01
1	 0.000000e+00	 1.303704e+00	-3.393237e+01
1	 6.937825e-02	 1.309274e+00	-3.630943e+01
1	 5.539520e-02	 1.309940e+00	-3.565865e+01
1	 4.146382e-02	 1.310455e+00	-3.515561e+01
1	 2.758616e-02	 1.310821e+00	-3.481047e+01
1	 1.376423e-02	 1.311039e+00	-3.463293e+01
1	 0.000000e+00	 1.311111e+00	-3.463227e+01
1	 6.977021e-02	 1.316671e+00	-3.707651e+01
1	 5.570817e-02	 1.317341e+00	-3.641944e+01
1	 4.169808e-02	 1.317859e+00	-3.590695e+01
1	 2.774201e-02	 1.318227e+00	-3.554897e+01
1	 1.384200e-02	 1.318446e+00	-3.535504e+01
1	 0.000000e+00	 1.318519e+00	-3.533423e+01
1	 7.016218e-02	 1.324068e+00	-3.784396e+01
1	 5.602114e-02	 1.324742e+00	-3.718198e+01
1	 4.193234e-02	 1.325263e+00	-3.666097e+01
1	 2.789787e-02	 1.325632e+00	-3.629061e+01
1	 1.391976e-02	 1.325853e+00	-3.608013e+01
1	 0.000000e+00	 1.325926e+00	-3.603836e+01
1	 7.055415e-02	 1.331465e+00	-3.861184e+01
1	 5.633411e-02	 1.332143e+00	-3.794634e+01
1	 4.216660e-02	 1.332666e+00	-3.741777e+01
1	 2.805372e-02	 1.333038e+00	-3.703546e+01
1	 1.399753e-02	 1.333260e+00	-3.680831e+01
1	 0.000000e+00	 1.333333e+00	-3.674479e+01
1	 1.333333e+00	 0.000000e+00	 2.012388e+01
1	 1.333260e+00	 1.399753e-02	 1.976394e+01
1	 1.333038e+00	 2.805372e-02	 1.945064e+01
1	 1.332666e+00	 4.216660e-02	 1.918190e+01
1	 1.332143e+00	 5.633411e-02	 1.895555e+01
1	 1.331465e+00	 7.055415e-02	 1.876938e+01
1	 1.340741e+00	 0.000000e+00	 1.997498e+01
1	 1.340667e+00	 1.407529e-02	 1.961030e+01
1	 1.340444e+00	 2.820957e-02	 1.929164e+01
1	 1.340070e+00	 4.240085e-02	 1.901698e+01
1	 1.339544e+00	 5.664707e-02	 1.878423e+01
1	 1.338862e+00	 7.094612e-02	 1.859125e+01
1	 1.348148e+00	 0.000000e+00	 1.982960e+01
1	 1.348074e+00	 1.415305e-02	 1.946045e+01
1	 1.347850e+00	 2.836543e-02	 1.913657e+01
1	 1.347474e+00	 4.263511e-02	 1.885602e+01
1	 1.346944e+00	 5.696004e-02	 1.861679e+01
1	 1.346259e+00	 7.133808e-02	 1.841679e+01
1	 1.355556e+00	 0.000000e+00	 1.968774e+01
1	 1.355481e+00	 1.423082e-02	 1.931438e+01
1	 1.355255e+00	 2.852128e-02	 1.898544e+01
1	 1.354878e+00	 4.286937e-02	 1.869905e+01
1	 1.354345e+00	 5.727301e-02	 1.845325e+01
1	 1.353656e+00	 7.173005e-02	 1.824604e+01
1	 1.362963e+00	 0.000000e+00	 1.954938e+01
1	 1.362888e+00	 1.430858e-02	 1.917209e+01
1	 1.362661e+00	 2.867714e-02	 1.883826e+01
1	 1.362281e+00	 4.310363e-02	 1.854608e+01
1	 1.361746e+00	 5.758597e-02	 1.829366e+01
1	 1.361053e+00	 7.212202e-02	 1.807907e+01
1	 1.370370e+00	 0.000000e+00	 1.941453e+01
1	 1.370295e+00	 1.438635e-02	 1.903359e+01
1	 1.370067e+00	 2.883299e-02	 1.869503e+01
1	 1.369685e+00	 4.333789e-02	 1.839712e+01
1	 1.369147e+00	 5.789894e-02	 1.813805e+01
1	 1.368450e+00	 7.251399e-02	 1.791593e+01
1	 1.331465e+00	 7.055415e-02	 1.876938e+01
1	 1.330632e+00	 8.482457e-02	 1.862362e+01
1	 1.329642e+00	 9.914315e-02	 1.851840e+01
1	 1.328493e+00	 1.135076e-01	 1.845134e+01
1	 1.327183e+00	 1.279157e-01	 1.842000e+01
1	 1.325711e+00	 1.423649e-01	 1.842191e+01
1	 1.338862e+00	 7.094612e-02	 1.859125e+01
1	 1.338025e+00	 8.529582e-02	 1.843847e+01
1	 1.337029e+00	 9.969394e-02	 1.832621e+01
1	 1.335874e+00	 1.141382e-01	 1.825214e+01
1	 1.334556e+00	 1.286263e-01	 1.821388e+01
1	 1.333076e+00	 1.431558e-01	 1.820902e+01
1	 1.346259e+00	 7.133808e-02	 1.841679e+01
1	 1.345417e+00	 8.576706e-02	 1.825666e+01
1	 1.344416e+00	 1.002447e-01	 1.813694e+01
1	 1.343254e+00	 1.147688e-01	 1.805537e+01
1	 1.341930e+00	 1.293369e-01	 1.800964e+01
1	 1.340441e+00	 1.439467e-01	 1.799742e+01
1	 1.353656e+00	 7.173005e-02	 1.824604e+01
1	 1.352810e+00	 8.623831e-02	 1.807826e+01
1	 1.351803e+00	 1.007955e-01	 1.795068e+01
1	 1.350635e+00	 1.153994e-01	 1.786113e+01
1	 1.349303e+00	 1.300476e-01	 1.780738e+01
1	 1.347806e+00	 1.447376e-01	 1.778721e+01
1	 1.361053e+00	 7.212202e-02	 1.807907e+01
1	 1.360202e+00	 8.670956e-02	 1.790336e+01
1	 1.359190e+00	 1.013463e-01	 1.776754e+01
1	 1.358015e+00	 1.160300e-01	 1.766952e+01
1	 1.356676e+00	 1.307582e-01	 1.760722e+01
1	 1.355171e+00	 1.455286e-01	 1.757850e+01
1	 1.368450e+00	 7.251399e-02	 1.791593e+01
1	 1.367594e+00	 8.718081e-02	 1.773203e+01
1	 1.366577e+00	 1.018971e-01	 1.758759e+01
1	 1.365396e+00	 1.166606e-01	 1.748065e+01
1	 1.364049e+00	 1.314689e-01	 1.740926e+01
1	 1.362536e+00	 1.463195e-01	 1.737139e+01
1	 1.325711e+00	 1.423649e-01	 1.842191e+01
1	 1.324075e+00	 1.568529e-01	 1.845596e+01
1	 1.322274e+00	 1.713771e-01	 1.852137e+01
1	 1.320305e+00	 1.859351e-01	 1.861619e+01
1	 1.318168e+00	 2.005243e-01	 1.873845e+01
1	 1.315862e+00	 2.151419e-01	 1.888617e+01
1	 1.333076e+00	 1.431558e-01	 1.820902e+01
1	 1.331431e+00	 1.577243e-01	 1.823633e+01
1	 1.329620e+00	 1.723292e-01	 1.829496e+01
1	 1.327640e+00	 1.869681e-01	 1.838309e+01
1	 1.325492e+00	 2.016383e-01	 1.849885e+01
1	 1.323172e+00	 2.163372e-01	 1.864036e+01
1	 1.340441e+00	 1.439467e-01	 1.799742e+01
1	 1.338787e+00	 1.585957e-01	 1.801736e+01
1	 1.336966e+00	 1.732813e-01	 1.806853e+01
1	 1.334975e+00	 1.880011e-01	 1.814921e+01
1	 1.332815e+00	 2.027523e-01	 1.825766e+01
1	 1.330482e+00	 2.175324e-01	 1.839212e+01
1	 1.347806e+00	 1.447376e-01	 1.778721e+01
1	 1.346143e+00	 1.594671e-01	 1.779915e+01
1	 1.344312e+00	 1.742334e-01	 1.784218e+01
1	 1.342310e+00	 1.890341e-01	 1.791470e+01
1	 1.340138e+00	 2.038664e-01	 1.801508e+01
1	 1.337793e+00	 2.187276e-01	 1.814165e+01
1	 1.355171e+00	 1.455286e-01	 1.757850e+01
1	 1.353499e+00	 1.603385e-01	 1.758181e+01
1	 1.351658e+00	 1.751855e-01	 1.761604e+01
1	 1.349645e+00	 1.900670e-01	 1.767970e+01
1	 1.347461e+00	 2.049804e-01	 1.777126e+01
1	 1.345103e+00	 2.199229e-01	 1.788917e+01
1	 1.362536e+00	 1.463195e-01	 1.737139e+01
1	 1.360855e+00	 1.612099e-01	 1.736544e+01
1	 1.359003e+00	 1.761376e-01	 1.739022e+01
1	 1.356980e+00	 1.911000e-01	 1.744434e+01
1	 1.354784e+00	 2.060944e-01	 1.752638e+01
1	 1.352413e+00	 2.211181e-01	 1.763490e+01
1	 1.315862e+00	 2.151419e-01	 1.888617e+01
1	 1.313384e+00	 2.297854e-01	 1.905707e+01
1	 1.310733e+00	 2.444519e-01	 1.924812e+01
1	 1.307909e+00	 2.591387e-01	 1.945618e+01
1	 1.304909e+00	 2.738429e-01	 1.967821e+01
1	 1.301733e+00	 2.885617e-01	 1.991126e+01
1	 1.323172e+00	 2.163372e-01	 1.864036e+01
1	 1.320680e+00	 2.310620e-01	 1.880593e+01
1	 1.318015e+00	 2.458099e-01	 1.899293e+01
1	 1.315175e+00	 2.605783e-01	 1.919813e+01
1	 1.312159e+00	 2.753642e-01	 1.941842e+01
1	 1.308965e+00	 2.901648e-01	 1.965075e+01
1	 1.330482e+00	 2.175324e-01	 1.839212e+01
1	 1.327977e+00	 2.323385e-01	 1.855147e+01
1	 1.325297e+00	 2.471680e-01	 1.873356e+01
1	 1.322441e+00	 2.620180e-01	 1.893512e+01
1	 1.319408e+00	 2.768856e-01	 1.915295e+01
1	 1.316197e+00	 2.917679e-01	 1.938395e+01
1	 1.337793e+00	 2.187276e-01	 1.814165e+01
1	 1.335273e+00	 2.336151e-01	 1.829393e+01
1	 1.332579e+00	 2.485261e-01	 1.847028e+01
1	 1.329707e+00	 2.634577e-01	 1.866738e+01
1	 1.326658e+00	 2.784069e-01	 1.888201e+01
1	 1.323429e+00	 2.933710e-01	 1.911101e+01
1	 1.345103e+00	 2.199229e-01	 1.788917e+01
1	 1.342570e+00	 2.348917e-01	 1.803357e+01
1	 1.339860e+00	 2.498841e-01	 1.820335e+01
1	 1.336973e+00	 2.648973e-01	 1.839519e+01
1	 1.333907e+00	 2.799283e-01	 1.860583e+01
1	 1.330661e+00	 2.949742e-01	 1.883208e+01
1	 1.352413e+00	 2.211181e-01	 1.763490e+01
1	 1.349866e+00	 2.361683e-01	 1.777063e+01
1	 1.347142e+00	 2.512422e-01	 1.793304e+01
1	 1.344239e+00	 2.663370e-01	 1.811879e+01
1	 1.341157e+00	 2.814496e-01	 1.832461e+01
1	 1.337893e+00	 2.965773e-01	 1.854731e+01
1	 1.301733e+00	 2.885617e-01	 1.991126e+01
1	 1.298380e+00	 3.032921e-01	 2.015229e+01
1	 1.294849e+00	 3.180311e-01	 2.039961e+01
1	 1.291138e+00	 3.327758e-01	 2.065233e+01
1	 1.287247e+00	 3.475231e-01	 2.090961e+01
1	 1.283175e+00	 3.622699e-01	 2.117058e+01
1	 1.308965e+00	 2.901648e-01	 1.965075e+01
1	 1.305594e+00	 3.049770e-01	 1.989133e+01
1	 1.302043e+00	 3.197980e-01	 2.013787e+01
1	 1.298311e+00	 3.346246e-01	 2.038971e+01
1	 1.294399e+00	 3.494538e-01	 2.064620e+01
1	 1.290304e+00	 3.642825e-01	 2.090666e+01
1	 1.316197e+00	 2.917679e-01	 1.938395e+01
1	 1.312807e+00	 3.066620e-01	 1.962348e+01
1	 1.309236e+00	 3.215648e-01	 1.986858e+01
1	 1.305484e+00	 3.364733e-01	 2.011881e+01
1	 1.301550e+00	 3.513845e-01	 2.037369e+01
1	 1.297433e+00	 3.662951e-01	 2.063275e+01
1	 1.323429e+00	 2.933710e-01	 1.911101e+01
1	 1.320020e+00	 3.083470e-01	 1.934883e+01
1	 1.316430e+00	 3.233317e-01	 1.959182e+01
1	 1.312657e+00	 3.383221e-01	 1.983970e+01
1	 1.308701e+00	 3.533152e-01	 2.009219e+01
1	 1.304561e+00	 3.683077e-01	 2.034901e+01
1	 1.330661e+00	 2.949742e-01	 1.883208e+01
1	 1.327233e+00	 3.100319e-01	 1.906749e+01
1	 1.323623e+00	 3.250985e-01	 1.930764e+01
1	 1.319830e+00	 3.401709e-01	 1.955245e+01
1	 1.315853e+00	 3.552458e-01	 1.980181e+01
1	 1.311690e+00	 3.703203e-01	 2.005561e+01
1	 1.337893e+00	 2.965773e-01	 1.854731e+01
1	 1.334447e+00	 3.117169e-01	 1.877955e+01
1	 1.330817e+00	 3.268653e-01	 1.901612e+01
1	 1.327003e+00	 3.420196e-01	 1.925713e+01
1	 1.323004e+00	 3.571765e-01	 1.950265e+01
1	 1.318819e+00	 3.723329e-01	 1.975273e+01
1	 1.283175e+00	 3.622699e-01	 2.117058e+01
1	 1.278921e+00	 3.770130e-01	 2.139326e+01
1	 1.274484e+00	 3.917493e-01	 2.153808e+01
1	 1.269864e+00	 4.064755e-01	 2.160783e+01
1	 1.265060e+00	 4.211885e-01	 2.160533e+01
1	 1.260072e+00	 4.358850e-01	 2.153338e+01
1	 1.290304e+00	 3.642825e-01	 2.090666e+01
1	 1.286026e+00	 3.791075e-01	 2.112890e+01
1	 1.281565e+00	 3.939256e-01	 2.127293e+01
1	 1.276919e+00	 4.087337e-01	 2.134150e+01
1	 1.272089e+00	 4.235284e-01	 2.133736e+01
1	 1.267073e+00	 4.383066e-01	 2.126332e+01
1	 1.297433e+00	 3.662951e-01	 2.063275e+01
1	 1.293131e+00	 3.812020e-01	 2.085373e+01
1	 1.288645e+00	 3.961020e-01	 2.099645e+01
1	 1.283974e+00	 4.109919e-01	 2.106359e+01
1	 1.279117e+00	 4.258684e-01	 2.105790e+01
1	 1.274073e+00	 4.407281e-01	 2.098216e+01
1	 1.304561e+00	 3.683077e-01	 2.034901e+01
1	 1.300236e+00	 3.832965e-01	 2.056798e+01
1	 1.295726e+00	 3.982784e-01	 2.070889e+01
1	 1.291029e+00	 4.132501e-01	 2.077438e+01
1	 1.286145e+00	 4.282083e-01	 2.076717e+01
1	 1.281073e+00	 4.431497e-01	 2.069003e+01
1	 1.311690e+00	 3.703203e-01	 2.005561e+01
1	 1.307341e+00	 3.853910e-01	 2.027190e+01
1	 1.302806e+00	 4.004548e-01	 2.041052e+01
1	 1.298084e+00	 4.155083e-01	 2.047410e+01
1	 1.293173e+00	 4.305483e-01	 2.046535e+01
1	 1.288074e+00	 4.455713e-01	 2.038706e+01
1	 1.318819e+00	 3.723329e-01	 1.975273e+01
1	 1.314447e+00	 3.874855e-01	 1.996570e+01
1	 1.309887e+00	 4.026312e-01	 2.010159e+01
1	 1.305138e+00	 4.177665e-01	 2.016300e+01
1	 1.300201e+00	 4.328882e-01	 2.015266e+01
1	 1.295074e+00	 4.479929e-01	 2.007335e+01
1	 1.260072e+00	 4.358850e-01	 2.153338e+01
1	 1.254899e+00	 4.505616e-01	 2.138125e+01
1	 1.249541e+00	 4.652151e-01	 2.113694e+01
1	 1.243997e+00	 4.798421e-01	 2.080159e+01
1	 1.238268e+00	 4.944392e-01	 2.037647e+01
1	 1.232353e+00	 5.090031e-01	 1.986302e+01
1	 1.267073e+00	 4.383066e-01	 2.126332e+01
1	 1.261871e+00	 4.530647e-01	 2.110933e+01
1	 1.256483e+00	 4.677997e-01	 2.086412e+01
1	 1.250908e+00	 4.825079e-01	 2.052880e+01
1	 1.245147e+00	 4.971861e-01	 2.010461e+01
1	 1.239199e+00	 5.118309e-01	 1.959292e+01
1	 1.274073e+00	 4.407281e-01	 2.098216e+01
1	 1.268843e+00	 4.555679e-01	 2.082685e+01
1	 1.263425e+00	 4.703842e-01	 2.058118e+01
1	 1.257820e+00	 4.851737e-01	 2.024619e+01
1	 1.252027e+00	 4.999330e-01	 1.982305e+01
1	 1.246046e+00	 5.146587e-01	 1.931300e+01
1	 1.281073e+00	 4.431497e-01	 2.069003e+01
1	 1.275814e+00	 4.580710e-01	 2.053385e+01
1	 1.270367e+00	 4.729687e-01	 2.028814e+01
1	 1.264731e+00	 4.878395e-01	 1.995382e+01
1	 1.258906e+00	 5.026799e-01	 1.953191e+01
1	 1.252892e+00	 5.174865e-01	 1.902353e+01
1	 1.288074e+00	 4.455713e-01	 2.038706e+01
1	 1.282786e+00	 4.605741e-01	 2.023038e+01
1	 1.277309e+00	 4.755532e-01	 1.998503e+01
1	 1.271642e+00	 4.905053e-01	 1.965174e+01
1	 1.265785e+00	 5.054268e-01	 1.923133e+01
1	 1.259738e+00	 5.203143e-01	 1.872475e+01
1	 1.295074e+00	 4.479929e-01	 2.007335e+01
1	 1.289758e+00	 4.630772e-01	 1.991649e+01
1	 1.284250e+00	 4.781378e-01	 1.967187e+01
1	 1.278553e+00	 4.931711e-01	 1.933998e+01
1	 1.272664e+00	 5.081737e-01	 1.892142e+01
1	 1.266585e+00	 5.231421e-01	 1.841692e+01
1	 1.232353e+00	 5.090031e-01	 1.986302e+01
1	 1.226252e+00	 5.235303e-01	 1.925617e+01
1	 1.219965e+00	 5.380174e-01	 1.855045e+01
1	 1.213493e+00	 5.524609e-01	 1.774665e+01
1	 1.206835e+00	 5.668575e-01	 1.684554e+01
1	 1.199992e+00	 5.812035e-01	 1.584780e+01
1	 1.239199e+00	 5.118309e-01	 1.959292e+01
1	 1.233064e+00	 5.264388e-01	 1.898775e+01
1	 1.226743e+00	 5.410064e-01	 1.828264e+01
1	 1.220234e+00	 5.555301e-01	 1.747832e+01
1	 1.213540e+00	 5.700067e-01	 1.657550e+01
1	 1.206658e+00	 5.844324e-01	 1.557486e+01
1	 1.246046e+00	 5.146587e-01	 1.931300e+01
1	 1.239877e+00	 5.293473e-01	 1.870936e+01
1	 1.233520e+00	 5.439953e-01	 1.800497e+01
1	 1.226976e+00	 5.585994e-01	 1.720058e+01
1	 1.220244e+00	 5.731559e-01	 1.629692e+01
1	 1.213325e+00	 5.876614e-01	 1.529473e+01
1	 1.252892e+00	 5.174865e-01	 1.902353e+01
1	 1.246689e+00	 5.322558e-01	 1.842138e+01
1	 1.240298e+00	 5.469843e-01	 1.771788e+01
1	 1.233718e+00	 5.616686e-01	 1.691384e+01
1	 1.226949e+00	 5.763051e-01	 1.601011e+01
1	 1.219992e+00	 5.908903e-01	 1.500753e+01
1	 1.259738e+00	 5.203143e-01	 1.872475e+01
1	 1.253502e+00	 5.351643e-01	 1.812419e+01
1	 1.247076e+00	 5.499733e-01	 1.742178e+01
1	 1.240459e+00	 5.647378e-01	 1.661850e+01
1	 1.233653e+00	 5.794543e-01	 1.571535e+01
1	 1.226658e+00	 5.941192e-01	 1.471339e+01
1	 1.266585e+00	 5.231421e-01	 1.841692e+01
1	 1.260314e+00	 5.380728e-01	 1.781815e+01
1	 1.253853e+00	 5.529623e-01	 1.711709e+01
1	 1.247201e+00	 5.678070e-01	 1.631494e+01
1	 1.240358e+00	 5.826035e-01	 1.541295e+01
1	 1.233325e+00	 5.973481e-01	 1.441242e+01
1	 1.199992e+00	 5.812035e-01	 1.584780e+01
1	 1.192964e+00	 5.954957e-01	 1.475823e+01
1	 1.185751e+00	 6.097304e-01	 1.358158e+01
1	 1.178355e+00	 6.239043e-01	 1.231838e+01
1	 1.170776e+00	 6.380139e-01	 1.096909e+01
1	 1.163014e+00	 6.520556e-01	 9.534049e+00
1	 1.206658e+00	 5.844324e-01	 1.557486e+01
1	 1.199591e+00	 5.988040e-01	 1.448091e+01
1	 1.192339e+00	 6.131178e-01	 1.329804e+01
1	 1.184902e+00	 6.273705e-01	 1.202666e+01
1	 1.177280e+00	 6.415584e-01	 1.066705e+01
1	 1.169475e+00	 6.556781e-01	 9.219284e+00
1	 1.213325e+00	 5.876614e-01	 1.529473e+01
1	 1.206219e+00	 6.021123e-01	 1.419779e+01
1	 1.198926e+00	 6.165052e-01	 1.300960e+01
1	 1.191448e+00	 6.308366e-01	 1.173036e+01
1	 1.183784e+00	 6.451029e-01	 1.036006e+01
1	 1.175936e+00	 6.593006e-01	 8.898456e+00
1	 1.219992e+00	 5.908903e-01	 1.500753e+01
1	 1.212847e+00	 6.054206e-01	 1.390884e+01
1	 1.205514e+00	 6.198926e-01	 1.271619e+01
1	 1.197995e+00	 6.343027e-01	 1.142949e+01
1	 1.190289e+00	 6.486474e-01	 1.004835e+01
1	 1.182397e+00	 6.629232e-01	 8.572127e+00
1	 1.226658e+00	 5.941192e-01	 1.471339e+01
1	 1.219474e+00	 6.087289e-01	 1.361403e+01
1	 1.212102e+00	 6.232800e-01	 1.241776e+01
1	 1.204541e+00	 6.377689e-01	 1.112407e+01
1	 1.196793e+00	 6.521919e-01	 9.732139e+00
1	 1.188859e+00	 6.665457e-01	 8.240843e+00
1	 1.233325e+00	 5.973481e-01	 1.441242e+01
1	 1.226102e+00	 6.120372e-01	 1.331333e+01
1	 1.218689e+00	 6.266674e-01	 1.211423e+01
1	 1.211087e+00	 6.412350e-01	 1.081412e+01
1	 1.203297e+00	 6.557365e-01	 9.411648e+00
1	 1.195320e+00	 6.701682e-01	 7.905142e+00
1	 1.163014e+00	 6.520556e-01	 9.534049e+00
1	 1.155070e+00	 6.660260e-01	 8.019427e+00
1	 1.146946e+00	 6.799217e-01	 6.429429e+00
1	 1.138641e+00	 6.937392e-01	 4.761190e+00
1	 1.130158e+00	 7.074751e-01	 3.011555e+00
1	 1.121497e+00	 7.211259e-01	 1.177075e+00
1	 1.169475e+00	 6.556781e-01	 9.219284e+00
1	 1.161487e+00	 6.697261e-01	 7.688924e+00
1	 1.153318e+00	 6.836990e-01	 6.079933e+00
1	 1.144967e+00	 6.975933e-01	 4.389791e+00
1	 1.136437e+00	 7.114055e-01	 2.615829e+00
1	 1.127727e+00	 7.251322e-01	 7.552275e-01
1	 1.175936e+00	 6.593006e-01	 8.898456e+00
1	 1.167904e+00	 6.734263e-01	 7.351399e+00
1	 1.159689e+00	 6.874764e-01	 5.723672e+00
1	 1.151293e+00	 7.014474e-01	 4.013257e+00
1	 1.142715e+00	 7.153359e-01	 2.218112e+00
1	 1.133958e+00	 7.291384e-01	 3.361718e-01
1	 1.182397e+00	 6.629232e-01	 8.572127e+00
1	 1.174321e+00	 6.771264e-01	 7.007726e+00
1	 1.166061e+00	 6.912537e-01	 5.361668e+00
1	 1.157619e+00	 7.053015e-01	 3.632590e+00
1	 1.148994e+00	 7.192663e-01	 1.819214e+00
1	 1.140188e+00	 7.331447e-01	-7.964991e-02
1	 1.188859e+00	 6.665457e-01	 8.240843e+00
1	 1.180738e+00	 6.808266e-01	 6.658761e+00
1	 1.172433e+00	 6.950311e-01	 4.994921e+00
1	 1.163944e+00	 7.091556e-01	 3.248769e+00
1	 1.155272e+00	 7.231967e-01	 1.419926e+00
1	 1.146419e+00	 7.371509e-01	-4.918049e-01
1	 1.195320e+00	 6.701682e-01	 7.905142e+00
1	 1.187155e+00	 6.845267e-01	 6.305343e+00
1	 1.178805e+00	 6.988084e-01	 4.624412e+00
1	 1.170270e+00	 7.130097e-01	 2.862753e+00
1	 1.161551e+00	 7.271271e-01	 1.021022e+00
1	 1.152650e+00	 7.411572e-01	-8.998701e-01
1	 1.121497e+00	 7.211259e-01	 1.177075e+00
1	 1.112659e+00	 7.346883e-01	-6.595353e-01
1	 1.103647e+00	 7.481590e-01	-2.409122e+00
1	 1.094460e+00	 7.615344e-01	-4.065322e+00
1	 1.085101e+00	 7.748114e-01	-5.621296e+00
1	 1.075572e+00	 7.879867e-01	-7.069743e+00
1	 1.127727e+00	 7.251322e-01	 7.552275e-01
1	 1.118841e+00	 7.387699e-01	-1.105397e+00
1	 1.109778e+00	 7.523154e-01	-2.873645e+00
1	 1.100541e+00	 7.657652e-01	-4.543484e+00
1	 1.091130e+00	 7.791159e-01	-6.108513e+00
1	 1.081547e+00	 7.923644e-01	-7.561976e+00
1	 1.133958e+00	 7.291384e-01	 3.361718e-01
1	 1.125022e+00	 7.428515e-01	-1.543081e+00
1	 1.115909e+00	 7.564718e-01	-3.325283e+00
1	 1.106621e+00	 7.699959e-01	-5.004985e+00
1	 1.097158e+00	 7.834205e-01	-6.576463e+00
1	 1.087523e+00	 7.967421e-01	-8.033738e+00
1	 1.140188e+00	 7.331447e-01	-7.964991e-02
1	 1.131204e+00	 7.469331e-01	-1.972541e+00
1	 1.122041e+00	 7.606283e-01	-3.764267e+00
1	 1.112701e+00	 7.742267e-01	-5.450208e+00
1	 1.103186e+00	 7.877250e-01	-7.025558e+00
1	 1.093498e+00	 8.011198e-01	-8.485335e+00
1	 1.146419e+00	 7.371509e-01	-4.918049e-01
1	 1.137385e+00	 7.510147e-01	-2.393733e+00
1	 1.128172e+00	 7.647847e-01	-4.190823e+00
1	 1.118782e+00	 7.784574e-01	-5.879531e+00
1	 1.109215e+00	 7.920295e-01	-7.456198e+00
1	 1.099473e+00	 8.054975e-01	-8.917064e+00
1	 1.152650e+00	 7.411572e-01	-8.998701e-01
1	 1.143567e+00	 7.550963e-01	-2.806612e+00
1	 1.134304e+00	 7.689412e-01	-4.605171e+00
1	 1.124862e+00	 7.826882e-01	-6.293319e+00
1	 1.115243e+00	 7.963340e-01	-7.868775e+00
1	 1.105449e+00	 8.098752e-01	-9.329216e+00
1	 1.075572e+00	 7.879867e-01	-7.069743e+00
1	 1.065873e+00	 8.010569e-01	-8.393080e+00
1	 1.056007e+00	 8.140189e-01	-9.580521e+00
1	 1.045975e+00	 8.268694e-01	-1.063466e+01
1	 1.035780e+00	 8.396054e-01	-1.155813e+01
1	 1.025423e+00	 8.522237e-01	-1.235361e+01
1	 1.081547e+00	 7.923644e-01	-7.561976e+00
1	 1.071795e+00	 8.055072e-01	-8.888599e+00
1	 1.061874e+00	 8.185412e-01	-1.007952e+01
1	 1.051786e+00	 8.314631e-01	-1.113740e+01
1	 1.041535e+00	 8.442699e-01	-1.206491e+01
1	 1.031120e+00	 8.569582e-01	-1.286478e+01
1	 1.087523e+00	 7.967421e-01	-8.033738e+00
1	 1.077716e+00	 8.099575e-01	-9.363536e+00
1	 1.067741e+00	 8.230635e-01	-1.055831e+01
1	 1.057597e+00	 8.360569e-01	-1.162052e+01
1	 1.047289e+00	 8.489343e-01	-1.255266e+01
1	 1.036817e+00	 8.616928e-01	-1.335728e+01
1	 1.093498e+00	 8.011198e-01	-8.485335e+00
1	 1.083638e+00	 8.144079e-01	-9.818033e+00
1	 1.073607e+00	 8.275859e-01	-1.101688e+01
1	 1.063408e+00	 8.406506e-01	-1.208391e+01
1	 1.053043e+00	 8.535988e-01	-1.302120e+01
1	 1.042514e+00	 8.664274e-01	-1.383088e+01
1	 1.099473e+00	 8.054975e-01	-8.917064e+00
1	 1.089559e+00	 8.188582e-01	-1.025223e+01
1	 1.079474e+00	 8.321082e-01	-1.145524e+01
1	 1.069219e+00	 8.452443e-01	-1.252746e+01
1	 1.058798e+00	 8.582633e-01	-1.347033e+01
1	 1.048210e+00	 8.711620e-01	-1.428532e+01
1	 1.105449e+00	 8.098752e-01	-9.329216e+00
1	 1.095481e+00	 8.233085e-01	-1.066626e+01
1	 1.085341e+00	 8.366305e-01	-1.187338e+01
1	 1.075030e+00	 8.498380e-01	-1.295107e+01
1	 1.064552e+00	 8.629278e-01	-1.389987e+01
1	 1.053907e+00	 8.758965e-01	-1.472039e+01
1	 1.025423e+00	 8.522237e-01	-1.235361e+01
1	 1.014906e+00	 8.647212e-01	-1.305688e+01
1	 1.004232e+00	 8.770950e-01	-1.369966e+01
1	 9.934025e-01	 8.893420e-01	-1.427845e+01
1	 9.824198e-01	 9.014595e-01	-1.478959e+01
1	 9.712863e-01	 9.134444e-01	-1.522928e+01
1	 1.031120e+00	 8.569582e-01	-1.286478e+01
1	 1.020545e+00	 8.695252e-01	-1.357211e+01
1	 1.009811e+00	 8.819677e-01	-1.421786e+01
1	 9.989214e-01	 8.942828e-01	-1.479845e+01
1	 9.878776e-01	 9.064676e-01	-1.531011e+01
1	 9.766823e-01	 9.185191e-01	-1.574894e+01
1	 1.036817e+00	 8.616928e-01	-1.335728e+01
1	 1.026183e+00	 8.743292e-01	-1.406857e+01
1	 1.015390e+00	 8.868405e-01	-1.471680e+01
1	 1.004440e+00	 8.992236e-01	-1.529850e+01
1	 9.933355e-01	 9.114757e-01	-1.581005e+01
1	 9.820783e-01	 9.235938e-01	-1.624763e+01
1	 1.042514e+00	 8.664274e-01	-1.383088e+01
1	 1.031822e+00	 8.791332e-01	-1.454601e+01
1	 1.020969e+00	 8.917132e-01	-1.519626e+01
1	 1.009959e+00	 9.041644e-01	-1.577849e+01
1	 9.987934e-01	 9.164838e-01	-1.628939e+01
1	 9.874744e-01	 9.286685e-01	-1.672550e+01
1	 1.048210e+00	 8.711620e-01	-1.428532e+01
1	 1.037460e+00	 8.839372e-01	-1.500419e+01
1	 1.026548e+00	 8.965860e-01	-1.565603e+01
1	 1.015478e+00	 9.091052e-01	-1.623827e+01
1	 1.004251e+00	 9.214919e-01	-1.674813e+01
1	 9.928704e-01	 9.337432e-01	-1.718267e+01
1	 1.053907e+00	 8.758965e-01	-1.472039e+01
1	 1.043098e+00	 8.887412e-01	-1.544286e+01
1	 1.032127e+00	 9.014587e-01	-1.609592e+01
1	 1.020997e+00	 9.140460e-01	-1.667772e+01
1	 1.009709e+00	 9.265000e-01	-1.718625e+01
1	 9.982665e-01	 9.388179e-01	-1.761929e+01
1	 9.712863e-01	 9.134444e-01	-1.522928e+01
1	 9.600045e-01	 9.252941e-01	-1.563639e+01
1	 9.485768e-01	 9.370058e-01	-1.605351e+01
1	 9.370058e-01	 9.485768e-01	-1.648231e+01
1	 9.252941e-01	 9.600045e-01	-1.692459e+01
1	 9.134444e-01	 9.712863e-01	-1.738232e+01
1	 9.766823e-01	 9.185191e-01	-1.574894e+01
1	 9.653378e-01	 9.304346e-01	-1.615528e+01
1	 9.538467e-01	 9.422114e-01	-1.657329e+01
1	 9.422114e-01	 9.538467e-01	-1.700472e+01
1	 9.304346e-01	 9.653378e-01	-1.745144e+01
1	 9.185191e-01	 9.766823e-01	-1.791548e+01
1	 9.820783e-01	 9.235938e-01	-1.624763e+01
1	 9.706712e-01	 9.355752e-01	-1.665327e+01
1	 9.591165e-01	 9.474170e-01	-1.707257e+01
1	 9.474170e-01	 9.591165e-01	-1.750707e+01
1	 9.355752e-01	 9.706712e-01	-1.795845e+01
1	 9.235938e-01	 9.820783e-01	-1.842850e+01
1	 9.874744e-01	 9.286685e-01	-1.672550e+01
1	 9.760045e-01	 9.407157e-01	-1.713061e+01
1	 9.643864e-01	 9.526226e-01	-1.755161e+01
1	 9.526226e-01	 9.643864e-01	-1.798954e+01
1	 9.407157e-01	 9.760045e-01	-1.844558e+01
1	 9.286685e-01	 9.874744e-01	-1.892102e+01
1	 9.928704e-01	 9.337432e-01	-1.718267e+01
1	 9.813379e-01	 9.458562e-01	-1.758755e+01
1	 9.696563e-01	 9.578282e-01	-1.801064e+01
1	 9.578282e-01	 9.696563e-01	-1.845225e+01
1	 9.458562e-01	 9.813379e-01	-1.891276e+01
1	 9.337432e-01	 9.928704e-01	-1.939268e+01
1	 9.982665e-01	 9.388179e-01	-1.761929e+01
1	 9.866712e-01	 9.509967e-01	-1.802434e+01
1	 9.749261e-01	 9.630337e-01	-1.844993e+01
1	 9.630337e-01	 9.749261e-01	-1.889535e+01
1	 9.509967e-01	 9.866712e-01	-1.935995e+01
1	 9.388179e-01	 9.982665e-01	-1.984314e+01
1	 9.134444e-01	 9.712863e-01	-1.738232e+01
1	 9.014595e-01	 9.824198e-01	-1.789360e+01
1	 8.893420e-01	 9.934025e-01	-1.849466e+01
1	 8.770950e-01	 1.004232e+00	-1.918476e+01
1	 8.647212e-01	 1.014906e+00	-1.996324e+01
1	 8.522237e-01	 1.025423e+00	-2.082950e+01
1	 9.185191e-01	 9.766823e-01	-1.791548e+01
1	 9.064676e-01	 9.878776e-01	-1.843511e+01
1	 8.942828e-01	 9.989214e-01	-1.904684e+01
1	 8.819677e-01	 1.009811e+00	-1.975021e+01
1	 8.695252e-01	 1.020545e+00	-2.054482e+01
1	 8.569582e-01	 1.031120e+00	-2.143037e+01
1	 9.235938e-01	 9.820783e-01	-1.842850e+01
1	 9.114757e-01	 9.933355e-01	-1.895551e+01
1	 8.992236e-01	 1.004440e+00	-1.957664e+01
1	 8.868405e-01	 1.015390e+00	-2.029213e+01
1	 8.743292e-01	 1.026183e+00	-2.110236e+01
1	 8.616928e-01	 1.036817e+00	-2.200779e+01
1	 9.286685e-01	 9.874744e-01	-1.892102e+01
1	 9.164838e-01	 9.987934e-01	-1.945419e+01
1	 9.041644e-01	 1.009959e+00	-2.008338e+01
1	 8.917132e-01	 1.020969e+00	-2.081002e+01
1	 8.791332e-01	 1.031822e+00	-2.163569e+01
1	 8.664274e-01	 1.042514e+00	-2.256210e+01
1	 9.337432e-01	 9.928704e-01	-1.939268e+01
1	 9.214919e-01	 1.004251e+00	-1.993054e+01
1	 9.091052e-01	 1.015478e+00	-2.056642e+01
1	 8.965860e-01	 1.026548e+00	-2.130336e+01
1	 8.839372e-01	 1.037460e+00	-2.214461e+01
1	 8.711620e-01	 1.048210e+00	-2.309359e+01
1	 9.388179e-01	 9.982665e-01	-1.984314e+01
1	 9.265000e-01	 1.009709e+00	-2.038398e+01
1	 9.140460e-01	 1.020997e+00	-2.102513e+01
1	 9.014587e-01	 1.032127e+00	-2.177167e+01
1	 8.887412e-01	 1.043098e+00	-2.262894e+01
1	 8.758965e-01	 1.053907e+00	-2.360258e+01
1	 8.522237e-01	 1.025423e+00	-2.082950e+01
1	 8.396054e-01	 1.035780e+00	-2.181630e+01
1	 8.268694e-01	 1.045975e+00	-2.295950e+01
1	 8.140189e-01	 1.056007e+00	-2.426340e+01
1	 8.010569e-01	 1.065873e+00	-2.573251e+01
1	 7.879867e-01	 1.075572e+00	-2.737151e+01
1	 8.569582e-01	 1.031120e+00	-2.143037e+01
1	 8.442699e-01	 1.041535e+00	-2.244091e+01
1	 8.314631e-01	 1.051786e+00	-2.361335e+01
1	 8.185412e-01	 1.061874e+00	-2.495187e+01
1	 8.055072e-01	 1.071795e+00	-2.646090e+01
1	 7.923644e-01	 1.081547e+00	-2.814504e+01
1	 8.616928e-01	 1.036817e+00	-2.200779e+01
1	 8.489343e-01	 1.047289e+00	-2.304393e+01
1	 8.360569e-01	 1.057597e+00	-2.424792e+01
1	 8.230635e-01	 1.067741e+00	-2.562286e+01
1	 8.099575e-01	 1.077716e+00	-2.717207e+01
1	 7.967421e-01	 1.087523e+00	-2.889903e+01
1	 8.664274e-01	 1.042514e+00	-2.256210e+01
1	 8.535988e-01	 1.053043e+00	-2.362609e+01
1	 8.406506e-01	 1.063408e+00	-2.486395e+01
1	 8.275859e-01	 1.073607e+00	-2.627676e+01
1	 8.144079e-01	 1.083638e+00	-2.786573e+01
1	 8.011198e-01	 1.093498e+00	-2.963217e+01
1	 8.711620e-01	 1.048210e+00	-2.309359e+01
1	 8.582633e-01	 1.058798e+00	-2.418808e+01
1	 8.452443e-01	 1.069219e+00	-2.546216e+01
1	 8.321082e-01	 1.079474e+00	-2.691396e+01
1	 8.188582e-01	 1.089559e+00	-2.854158e+01
1	 8.054975e-01	 1.099473e+00	-3.034318e+01
1	 8.758965e-01	 1.053907e+00	-2.360258e+01
1	 8.629278e-01	 1.064552e+00	-2.473059e+01
1	 8.498380e-01	 1.075030e+00	-2.604327e+01
1	 8.366305e-01	 1.085341e+00	-2.753483e+01
1	 8.233085e-01	 1.095481e+00	-2.919935e+01
1	 8.098752e-01	 1.105449e+00	-3.103081e+01
1	 7.879867e-01	 1.075572e+00	-2.737151e+01
1	 7.748114e-01	 1.085101e+00	-2.916636e+01
1	 7.615344e-01	 1.094460e+00	-3.109774e+01
1	 7.481590e-01	 1.103647e+00	-3.316257e+01
1	 7.346883e-01	 1.112659e+00	-3.535776e+01
1	 7.211259e-01	 1.121497e+00	-3.768021e+01
1	 7.923644e-01	 1.081547e+00	-2.814504e+01
1	 7.791159e-01	 1.091130e+00	-2.998798e+01
1	 7.657652e-01	 1.100541e+00	-3.196537e+01
1	 7.523154e-01	 1.109778e+00	-3.406977e+01
1	 7.387699e-01	 1.118841e+00	-3.629358e+01
1	 7.251322e-01	 1.127727e+00	-3.862910e+01
1	 7.967421e-01	 1.087523e+00	-2.889903e+01
1	 7.834205e-01	 1.097158e+00	-3.078393e+01
1	 7.699959e-01	 1.106621e+00	-3.279788e+01
1	 7.564718e-01	 1.115909e+00	-3.493063e+01
1	 7.428515e-01	 1.125022e+00	-3.717172e+01
1	 7.291384e-01	 1.133958e+00	-3.951046e+01
1	 8.011198e-01	 1.093498e+00	-2.963217e+01
1	 7.877250e-01	 1.103186e+00	-3.155201e+01
1	 7.742267e-01	 1.112701e+00	-3.359273e+01
1	 7.606283e-01	 1.122041e+00	-3.574283e+01
1	 7.469331e-01	 1.131204e+00	-3.799054e+01
1	 7.331447e-01	 1.140188e+00	-4.032387e+01
1	 8.054975e-01	 1.099473e+00	-3.034318e+01
1	 7.920295e-01	 1.109215e+00	-3.229008e+01
1	 7.784574e-01	 1.118782e+00	-3.434746e+01
1	 7.647847e-01	 1.128172e+00	-3.650408e+01
1	 7.510147e-01	 1.137385e+00	-3.874845e+01
1	 7.371509e-01	 1.146419e+00	-4.106886e+01
1	 8.098752e-01	 1.105449e+00	-3.103081e+01
1	 7.963340e-01	 1.115243e+00	-3.299603e+01
1	 7.826882e-01	 1.124862e+00	-3.505965e+01
1	 7.689412e-01	 1.134304e+00	-3.721217e+01
1	 7.550963e-01	 1.143567e+00	-3.944390e+01
1	 7.411572e-01	 1.152650e+00	-4.174501e+01
1	 7.211259e-01	 1.121497e+00	-3.768021e+01
1	 7.074751e-01	 1.130158e+00	-4.004413e+01
1	 6.937392e-01	 1.138641e+00	-4.236223e+01
1	 6.799217e-01	 1.146946e+00	-4.462903e+01
1	 6.660260e-01	 1.155070e+00	-4.683884e+01
1	 6.520556e-01	 1.163014e+00	-4.898583e+01
1	 7.251322e-01	 1.127727e+00	-3.862910e+01
1	 7.114055e-01	 1.136437e+00	-4.098692e+01
1	 6.975933e-01	 1.144967e+00	-4.328343e+01
1	 6.836990e-01	 1.153318e+00	-4.551945e+01
1	 6.697261e-01	 1.161487e+00	-4.769579e+01
1	 6.556781e-01	 1.169475e+00	-4.981325e+01
1	 7.291384e-01	 1.133958e+00	-3.951046e+01
1	 7.153359e-01	 1.142715e+00	-4.185654e+01
1	 7.014474e-01	 1.151293e+00	-4.413054e+01
1	 6.874764e-01	 1.159689e+00	-4.633813e+01
1	 6.734263e-01	 1.167904e+00	-4.848511e+01
1	 6.593006e-01	 1.175936e+00	-5.057739e+01
1	 7.331447e-01	 1.140188e+00	-4.032387e+01
1	 7.192663e-01	 1.148994e+00	-4.265368e+01
1	 7.053015e-01	 1.157619e+00	-4.490488e+01
1	 6.912537e-01	 1.166061e+00	-4.708655e+01
1	 6.771264e-01	 1.174321e+00	-4.920800e+01
1	 6.629232e-01	 1.182397e+00	-5.127872e+01
1	 7.371509e-01	 1.146419e+00	-4.106886e+01
1	 7.231967e-01	 1.155272e+00	-4.337900e+01
1	 7.091556e-01	 1.163944e+00	-4.560775e+01
1	 6.950311e-01	 1.172433e+00	-4.776617e+01
1	 6.808266e-01	 1.180738e+00	-4.986562e+01
1	 6.665457e-01	 1.188859e+00	-5.191769e+01
1	 7.411572e-01	 1.152650e+00	-4.174501e+01
1	 7.271271e-01	 1.161551e+00	-4.403318e+01
1	 7.130097e-01	 1.170270e+00	-4.624042e+01
1	 6.988084e-01	 1.178805e+00	-4.837840e+01
1	 6.845267e-01	 1.187155e+00	-5.045910e+01
1	 6.701682e-01	 1.195320e+00	-5.249474e+01
1	 6.520556e-01	 1.163014e+00	-4.898583e+01
1	 6.380139e-01	 1.170776e+00	-5.104697e+01
1	 6.239043e-01	 1.178355e+00	-5.300106e+01
1	 6.097304e-01	 1.185751e+00	-5.484481e+01
1	 5.954957e-01	 1.192964e+00	-5.657478e+01
1	 5.812035e-01	 1.199992e+00	-5.818742e+01
1	 6.556781e-01	 1.169475e+00	-4.981325e+01
1	 6.415584e-01	 1.177280e+00	-5.185311e+01
1	 6.273705e-01	 1.184902e+00	-5.379191e+01
1	 6.131178e-01	 1.192339e+00	-5.562318e+01
1	 5.988040e-01	 1.199591e+00	-5.734022e+01
1	 5.844324e-01	 1.206658e+00	-5.893619e+01
1	 6.593006e-01	 1.175936e+00	-5.057739e+01
1	 6.451029e-01	 1.183784e+00	-5.259819e+01
1	 6.308366e-01	 1.191448e+00	-5.452107e+01
1	 6.165052e-01	 1.198926e+00	-5.633736e+01
1	 6.021123e-01	 1.206219e+00	-5.803810e+01
1	 5.876614e-01	 1.213325e+00	-5.961412e+01
1	 6.629232e-01	 1.182397e+00	-5.127872e+01
1	 6.486474e-01	 1.190289e+00	-5.328190e+01
1	 6.343027e-01	 1.197995e+00	-5.518781e+01
1	 6.198926e-01	 1.205514e+00	-5.698649e+01
1	 6.054206e-01	 1.212847e+00	-5.866770e+01
1	 5.908903e-01	 1.219992e+00	-6.022093e+01
1	 6.665457e-01	 1.188859e+00	-5.191769e+01
1	 6.521919e-01	 1.196793e+00	-5.390395e+01
1	 6.377689e-01	 1.204541e+00	-5.579139e+01
1	 6.232800e-01	 1.212102e+00	-5.756971e+01
1	 6.087289e-01	 1.219474e+00	-5.922832e+01
1	 5.941192e-01	 1.226658e+00	-6.075634e+01
1	 6.701682e-01	 1.195320e+00	-5.249474e+01
1	 6.557365e-01	 1.203297e+00	-5.446404e+01
1	 6.412350e-01	 1.211087e+00	-5.633110e+01
1	 6.266674e-01	 1.218689e+00	-5.808618e+01
1	 6.120372e-01	 1.226102e+00	-5.971927e+01
1	 5.973481e-01	 1.233325e+00	-6.122009e+01
1	 5.812035e-01	 1.199992e+00	-5.818742e+01
1	 5.668575e-01	 1.206835e+00	-5.966875e+01
1	 5.524609e-01	 1.213493e+00	-6.100397e+01
1	 5.380174e-01	 1.219965e+00	-6.218821e+01
1	 5.235303e-01	 1.226252e+00	-6.321662e+01
1	 5.090031e-01	 1.232353e+00	-6.408434e+01
1	 5.844324e-01	 1.206658e+00	-5.893619e+01
1	 5.700067e-01	 1.213540e+00	-6.039508e+01
1	 5.555301e-01	 1.220234e+00	-6.170368e+01
1	 5.410064e-01	 1.226743e+00	-6.285914e+01
1	 5.264388e-01	 1.233064e+00	-6.385868e+01
1	 5.118309e-01	 1.239199e+00	-6.469956e+01
1	 5.876614e-01	 1.213325e+00	-5.961412e+01
1	 5.731559e-01	 1.220244e+00	-6.104876e+01
1	 5.585994e-01	 1.226976e+00	-6.233064e+01
1	 5.439953e-01	 1.233520e+00	-6.345837e+01
1	 5.293473e-01	 1.239877e+00	-6.443060e+01
1	 5.146587e-01	 1.246046e+00	-6.524605e+01
1	 5.908903e-01	 1.219992e+00	-6.022093e+01
1	 5.763051e-01	 1.226949e+00	-6.162996e+01
1	 5.616686e-01	 1.233718e+00	-6.288531e+01
1	 5.469843e-01	 1.240298e+00	-6.398640e+01
1	 5.322558e-01	 1.246689e+00	-6.493275e+01
1	 5.174865e-01	 1.252892e+00	-6.572392e+01
1	 5.941192e-01	 1.226658e+00	-6.075634e+01
1	 5.794543e-01	 1.233653e+00	-6.213886e+01
1	 5.647378e-01	 1.240459e+00	-6.336810e+01
1	 5.499733e-01	 1.247076e+00	-6.444373e+01
1	 5.351643e-01	 1.253502e+00	-6.536552e+01
1	 5.203143e-01	 1.259738e+00	-6.613327e+01
1	 5.973481e-01	 1.233325e+00	-6.122009e+01
1	 5.826035e-01	 1.240358e+00	-6.257564e+01
1	 5.678070e-01	 1.247201e+00	-6.377944e+01
1	 5.529623e-01	 1.253853e+00	-6.483085e+01
1	 5.380728e-01	 1.260314e+00	-6.572929e+01
1	 5.231421e-01	 1.266585e+00	-6.647422e+01
1	 5.090031e-01	 1.232353e+00	-6.408434e+01
1	 4.944392e-01	 1.238268e+00	-6.478279e+01
1	 4.798421e-01	 1.243997e+00	-6.530923e+01
1	 4.652151e-01	 1.249541e+00	-6.566767e+01
1	 4.505616e-01	 1.254899e+00	-6.586221e+01
1	 4.358850e-01	 1.260072e+00	-6.589700e+01
1	 5.118309e-01	 1.239199e+00	-6.469956e+01
1	 4.971861e-01	 1.245147e+00	-6.537517e+01
1	 4.825079e-01	 1.250908e+00	-6.588292e+01
1	 4.677997e-01	 1.256483e+00	-6.622618e+01
1	 4.530647e-01	 1.261871e+00	-6.640836e+01
1	 4.383066e-01	 1.267073e+00	-6.643292e+01
1	 5.146587e-01	 1.246046e+00	-6.524605e+01
1	 4.999330e-01	 1.252027e+00	-6.589936e+01
1	 4.851737e-01	 1.257820e+00	-6.638802e+01
1	 4.703842e-01	 1.263425e+00	-6.671509e+01
1	 4.555679e-01	 1.268843e+00	-6.688367e+01
1	 4.407281e-01	 1.274073e+00	-6.689694e+01
1	 5.174865e-01	 1.252892e+00	-6.572392e+01
1	 5.026799e-01	 1.258906e+00	-6.635519e+01
1	 4.878395e-01	 1.264731e+00	-6.682416e+01
1	 4.729687e-01	 1.270367e+00	-6.713398e+01
1	 4.580710e-01	 1.275814e+00	-6.728781e+01
1	 4.431497e-01	 1.281073e+00	-6.728891e+01
1	 5.203143e-01	 1.259738e+00	-6.613327e+01
1	 5.054268e-01	 1.265785e+00	-6.674246e+01
1	 4.905053e-01	 1.271642e+00	-6.719100e+01
1	 4.755532e-01	 1.277309e+00	-6.748246e+01
1	 4.605741e-01	 1.282786e+00	-6.762046e+01
1	 4.455713e-01	 1.288074e+00	-6.760868e+01
1	 5.231421e-01	 1.266585e+00	-6.647422e+01
1	 5.081737e-01	 1.272664e+00	-6.706099e+01
1	 4.931711e-01	 1.278553e+00	-6.748817e+01
1	 4.781378e-01	 1.284250e+00	-6.776013e+01
1	 4.630772e-01	 1.289758e+00	-6.788128e+01
1	 4.479929e-01	 1.295074e+00	-6.785610e+01
1	 4.358850e-01	 1.260072e+00	-6.589700e+01
1	 4.211885e-01	 1.265060e+00	-6.578373e+01
1	 4.064755e-01	 1.269864e+00	-6.551998e+01
1	 3.917493e-01	 1.274484e+00	-6.508901e+01
1	 3.770130e-01	 1.278921e+00	-6.447419e+01
1	 3.622699e-01	 1.283175e+00	-6.365906e+01
1	 4.383066e-01	 1.267073e+00	-6.643292e+01
1	 4.235284e-01	 1.272089e+00	-6.631002e+01
1	 4.087337e-01	 1.276919e+00	-6.603693e+01
1	 3.939256e-01	 1.281565e+00	-6.559796e+01
1	 3.791075e-01	 1.286026e+00	-6.497755e+01
1	 3.642825e-01	 1.290304e+00	-6.416031e+01
1	 4.407281e-01	 1.274073e+00	-6.689694e+01
1	 4.258684e-01	 1.279117e+00	-6.676402e+01
1	 4.109919e-01	 1.283974e+00	-6.648202e+01
1	 3.961020e-01	 1.288645e+00	-6.603619e+01
1	 3.812020e-01	 1.293131e+00	-6.541193e+01
1	 3.662951e-01	 1.297433e+00	-6.459479e+01
1	 4.431497e-01	 1.281073e+00	-6.728891e+01
1	 4.282083e-01	 1.286145e+00	-6.714577e+01
1	 4.132501e-01	 1.291029e+00	-6.685541e+01
1	 3.982784e-01	 1.295726e+00	-6.640393e+01
1	 3.832965e-01	 1.300236e+00	-6.577754e+01
1	 3.683077e-01	 1.304561e+00	-6.496264e+01
1	 4.455713e-01	 1.288074e+00	-6.760868e+01
1	 4.305483e-01	 1.293173e+00	-6.745532e+01
1	 4.155083e-01	 1.298084e+00	-6.715729e+01
1	 4.004548e-01	 1.302806e+00	-6.670139e+01
1	 3.853910e-01	 1.307341e+00	-6.607459e+01
1	 3.703203e-01	 1.311690e+00	-6.526399e+01
1	 4.479929e-01	 1.295074e+00	-6.785610e+01
1	 4.328882e-01	 1.300201e+00	-6.769271e+01
1	 4.177665e-01	 1.305138e+00	-6.738780e+01
1	 4.026312e-01	 1.309887e+00	-6.692881e+01
1	 3.874855e-01	 1.314447e+00	-6.630330e+01
1	 3.723329e-01	 1.318819e+00	-6.549898e+01
1	 3.622699e-01	 1.283175e+00	-6.365906e+01
1	 3.475231e-01	 1.287247e+00	-6.268776e+01
1	 3.327758e-01	 1.291138e+00	-6.161807e+01
1	 3.180311e-01	 1.294849e+00	-6.045420e+01
1	 3.032921e-01	 1.298380e+00	-5.920054e+01
1	 2.885617e-01	 1.301733e+00	-5.786157e+01
1	 3.642825e-01	 1.290304e+00	-6.416031e+01
1	 3.494538e-01	 1.294399e+00	-6.319231e+01
1	 3.346246e-01	 1.298311e+00	-6.213128e+01
1	 3.197980e-01	 1.302043e+00	-6.097962e+01
1	 3.049770e-01	 1.305594e+00	-5.973987e+01
1	 2.901648e-01	 1.308965e+00	-5.841470e+01
1	 3.662951e-01	 1.297433e+00	-6.459479e+01
1	 3.513845e-01	 1.301550e+00	-6.363246e+01
1	 3.364733e-01	 1.305484e+00	-6.258247e+01
1	 3.215648e-01	 1.309236e+00	-6.144547e+01
1	 3.066620e-01	 1.312807e+00	-6.022227e+01
1	 2.917679e-01	 1.316197e+00	-5.891376e+01
1	 3.683077e-01	 1.304561e+00	-6.496264e+01
1	 3.533152e-01	 1.308701e+00	-6.400826e+01
1	 3.383221e-01	 1.312657e+00	-6.297165e+01
1	 3.233317e-01	 1.316430e+00	-6.185179e+01
1	 3.083470e-01	 1.320020e+00	-6.064780e+01
1	 2.933710e-01	 1.323429e+00	-5.935894e+01
1	 3.703203e-01	 1.311690e+00	-6.526399e+01
1	 3.552458e-01	 1.315853e+00	-6.431978e+01
1	 3.401709e-01	 1.319830e+00	-6.329885e+01
1	 3.250985e-01	 1.323623e+00	-6.219858e+01
1	 3.100319e-01	 1.327233e+00	-6.101654e+01
1	 2.949742e-01	 1.330661e+00	-5.975040e+01
1	 3.723329e-01	 1.318819e+00	-6.549898e+01
1	 3.571765e-01	 1.323004e+00	-6.456706e+01
1	 3.420196e-01	 1.327003e+00	-6.356407e+01
1	 3.268653e-01	 1.330817e+00	-6.248588e+01
1	 3.117169e-01	 1.334447e+00	-6.132856e+01
1	 2.965773e-01	 1.337893e+00	-6.008828e+01
1	 2.885617e-01	 1.301733e+00	-5.786157e+01
1	 2.738429e-01	 1.304909e+00	-5.645237e+01
1	 2.591387e-01	 1.307909e+00	-5.499666e+01
1	 2.444519e-01	 1.310733e+00	-5.351198e+01
1	 2.297854e-01	 1.313384e+00	-5.201587e+01
1	 2.151419e-01	 1.315862e+00	-5.052580e+01
1	 2.901648e-01	 1.308965e+00	-5.841470e+01
1	 2.753642e-01	 1.312159e+00	-5.701875e+01
1	 2.605783e-01	 1.315175e+00	-5.557685e+01
1	 2.458099e-01	 1.318015e+00	-5.410700e+01
1	 2.310620e-01	 1.320680e+00	-5.262717e+01
1	 2.163372e-01	 1.323172e+00	-5.115527e+01
1	 2.917679e-01	 1.316197e+00	-5.891376e+01
1	 2.768856e-01	 1.319408e+00	-5.753440e+01
1	 2.620180e-01	 1.322441e+00	-5.611011e+01
1	 2.471680e-01	 1.325297e+00	-5.465921e+01
1	 2.323385e-01	 1.327977e+00	-5.319997e+01
1	 2.175324e-01	 1.330482e+00	-5.175062e+01
1	 2.933710e-01	 1.323429e+00	-5.935894e+01
1	 2.784069e-01	 1.326658e+00	-5.799957e+01
1	 2.634577e-01	 1.329707e+00	-5.659674e+01
1	 2.485261e-01	 1.332579e+00	-5.516893e+01
1	 2.336151e-01	 1.335273e+00	-5.373459e+01
1	 2.187276e-01	 1.337793e+00	-5.231210e+01
1	 2.949742e-01	 1.330661e+00	-5.975040e+01
1	 2.799283e-01	 1.333907e+00	-5.841452e+01
1	 2.648973e-01	 1.336973e+00	-5.703705e+01
1	 2.498841e-01	 1.339860e+00	-5.563649e+01
1	 2.348917e-01	 1.342570e+00	-5.423132e+01
1	 2.199229e-01	 1.345103e+00	-5.283995e+01
1	 2.965773e-01	 1.337893e+00	-6.008828e+01
1	 2.814496e-01	 1.341157e+00	-5.877949e+01
1	 2.663370e-01	 1.344239e+00	-5.743133e+01
1	 2.512422e-01	 1.347142e+00	-5.606219e+01
1	 2.361683e-01	 1.349866e+00	-5.469044e+01
1	 2.211181e-01	 1.352413e+00	-5.333440e+01
1	 2.151419e-01	 1.315862e+00	-5.052580e+01
1	 2.005243e-01	 1.318168e+00	-4.905920e+01
1	 1.859351e-01	 1.320305e+00	-4.762811e+01
1	 1.713771e-01	 1.322274e+00	-4.624174e+01
1	 1.568529e-01	 1.324075e+00	-4.490913e+01
1	 1.423649e-01	 1.325711e+00	-4.363912e+01
1	 2.163372e-01	 1.323172e+00	-5.115527e+01
1	 2.016383e-01	 1.325492e+00	-4.970846e+01
1	 1.869681e-01	 1.327640e+00	-4.829767e+01
1	 1.723292e-01	 1.329620e+00	-4.693128e+01
1	 1.577243e-01	 1.331431e+00	-4.561753e+01
1	 1.431558e-01	 1.333076e+00	-4.436446e+01
1	 2.175324e-01	 1.330482e+00	-5.175062e+01
1	 2.027523e-01	 1.332815e+00	-5.032786e+01
1	 1.880011e-01	 1.334975e+00	-4.894142e+01
1	 1.732813e-01	 1.336966e+00	-4.759891e+01
1	 1.585957e-01	 1.338787e+00	-4.630777e+01
1	 1.439467e-01	 1.340441e+00	-4.507526e+01
1	 2.187276e-01	 1.337793e+00	-5.231210e+01
1	 2.038664e-01	 1.340138e+00	-5.091757e+01
1	 1.890341e-01	 1.342310e+00	-4.955951e+01
1	 1.742334e-01	 1.344312e+00	-4.824475e+01
1	 1.594671e-01	 1.346143e+00	-4.697995e+01
1	 1.447376e-01	 1.347806e+00	-4.577163e+01
1	 2.199229e-01	 1.345103e+00	-5.283995e+01
1	 2.049804e-01	 1.347461e+00	-5.147778e+01
1	 1.900670e-01	 1.349645e+00	-5.015207e+01
1	 1.751855e-01	 1.351658e+00	-4.886889e+01
1	 1.603385e-01	 1.353499e+00	-4.763417e+01
1	 1.455286e-01	 1.355171e+00	-4.645366e+01
1	 2.211181e-01	 1.352413e+00	-5.333440e+01
1	 2.060944e-01	 1.354784e+00	-5.200865e+01
1	 1.911000e-01	 1.356980e+00	-5.071923e+01
1	 1.761376e-01	 1.359003e+00	-4.947145e+01
1	 1.612099e-01	 1.360855e+00	-4.827050e+01
1	 1.463195e-01	 1.362536e+00	-4.712143e+01
1	 1.423649e-01	 1.325711e+00	-4.363912e+01
1	 1.279157e-01	 1.327183e+00	-4.244208e+01
1	 1.135076e-01	 1.328493e+00	-4.133003e+01
1	 9.914315e-02	 1.329642e+00	-4.031393e+01
1	 8.482457e-02	 1.330632e+00	-3.940442e+01
1	 7.055415e-02	 1.331465e+00	-3.861184e+01
1	 1.431558e-01	 1.333076e+00	-4.436446e+01
1	 1.286263e-01	 1.334556e+00	-4.318192e+01
1	 1.141382e-01	 1.335874e+00	-4.208172e+01
1	 9.969394e-02	 1.337029e+00	-4.107451e+01
1	 8.529582e-02	 1.338025e+00	-4.017062e+01
1	 7.094612e-02	 1.338862e+00	-3.938009e+01
1	 1.439467e-01	 1.340441e+00	-4.507526e+01
1	 1.293369e-01	 1.341930e+00	-4.391073e+01
1	 1.147688e-01	 1.343254e+00	-4.282572e+01
1	 1.002447e-01	 1.344416e+00	-4.183047e+01
1	 8.576706e-02	 1.345417e+00	-4.093490e+01
1	 7.133808e-02	 1.346259e+00	-4.014866e+01
1	 1.447376e-01	 1.347806e+00	-4.577163e+01
1	 1.300476e-01	 1.349303e+00	-4.462863e+01
1	 1.153994e-01	 1.350635e+00	-4.356214e+01
1	 1.007955e-01	 1.351803e+00	-4.258190e+01
1	 8.623831e-02	 1.352810e+00	-4.169735e+01
1	 7.173005e-02	 1.353656e+00	-4.091762e+01
1	 1.455286e-01	 1.355171e+00	-4.645366e+01
1	 1.307582e-01	 1.356676e+00	-4.533570e+01
1	 1.160300e-01	 1.358015e+00	-4.429108e+01
1	 1.013463e-01	 1.359190e+00	-4.332890e+01
1	 8.670956e-02	 1.360202e+00	-4.245804e+01
1	 7.212202e-02	 1.361053e+00	-4.168706e+01
1	 1.463195e-01	 1.362536e+00	-4.712143e+01
1	 1.314689e-01	 1.364049e+00	-4.603205e+01
1	 1.166606e-01	 1.365396e+00	-4.501261e+01
1	 1.018971e-01	 1.366577e+00	-4.407156e+01
1	 8.718081e-02	 1.367594e+00	-4.321707e+01
1	 7.251399e-02	 1.368450e+00	-4.245704e+01
1	 7.055415e-02	 1.331465e+00	-3.861184e+01
1	 5.633411e-02	 1.332143e+00	-3.794634e+01
1	 4.216660e-02	 1.332666e+00	-3.741777e+01
1	 2.805372e-02	 1.333038e+00	-3.703546e+01
1	 1.399753e-02	 1.333260e+00	-3.680831e+01
1	 0.000000e+00	 1.333333e+00	-3.674479e+01
1	 7.094612e-02	 1.338862e+00	-3.938009e+01
1	 5.664707e-02	 1.339544e+00	-3.871261e+01
1	 4.240085e-02	 1.340070e+00	-3.817753e+01
1	 2.820957e-02	 1.340444e+00	-3.778377e+01
1	 1.407529e-02	 1.340667e+00	-3.753987e+01
1	 0.000000e+00	 1.340741e+00	-3.745394e+01
1	 7.133808e-02	 1.346259e+00	-4.014866e+01
1	 5.696004e-02	 1.346944e+00	-3.948090e+01
1	 4.263511e-02	 1.347474e+00	-3.894043e+01
1	 2.836543e-02	 1.347850e+00	-3.853581e+01
1	 1.415305e-02	 1.348074e+00	-3.827517e+01
1	 0.000000e+00	 1.348148e+00	-3.816628e+01
1	 7.173005e-02	 1.353656e+00	-4.091762e+01
1	 5.727301e-02	 1.354345e+00	-4.025128e+01
1	 4.286937e-02	 1.354878e+00	-3.970656e+01
1	 2.852128e-02	 1.355255e+00	-3.929165e+01
1	 1.423082e-02	 1.355481e+00	-3.901433e+01
1	 0.000000e+00	 1.355556e+00	-3.888199e+01
1	 7.212202e-02	 1.361053e+00	-4.168706e+01
1	 5.758597e-02	 1.361746e+00	-4.102382e+01
1	 4.310363e-02	 1.362281e+00	-4.047600e+01
1	 2.867714e-02	 1.362661e+00	-4.005141e+01
1	 1.430858e-02	 1.362888e+00	-3.975748e+01
1	 0.000000e+00	 1.362963e+00	-3.960123e+01
1	 7.251399e-02	 1.368450e+00	-4.245704e+01
1	 5.789894e-02	 1.369147e+00	-4.179858e+01
1	 4.333789e-02	 1.369685e+00	-4.124881e+01
1	 2.883299e-02	 1.370067e+00	-4.081517e+01
1	 1.438635e-02	 1.370295e+00	-4.050473e+01
1	 0.000000e+00	 1.370370e+00	-4.032417e+01
1	 1.370370e+00	 0.000000e+00	 1.941453e+01
1	 1.370295e+00	 1.438635e-02	 1.903359e+01
1	 1.370067e+00	 2.883299e-02	 1.869503e+01
1	 1.369685e+00	 4.333789e-02	 1.839712e+01
1	 1.369147e+00	 5.789894e-02	 1.813805e+01
1	 1.368450e+00	 7.251399e-02	 1.791593e+01
1	 1.377778e+00	 0.000000e+00	 1.928329e+01
1	 1.377702e+00	 1.446411e-02	 1.889900e+01
1	 1.377473e+00	 2.898884e-02	 1.855591e+01
1	 1.377089e+00	 4.357215e-02	 1.825234e+01
1	 1.376547e+00	 5.821191e-02	 1.798655e+01
1	 1.375847e+00	 7.290595e-02	 1.775676e+01
1	 1.385185e+00	 0.000000e+00	 1.915576e+01
1	 1.385109e+00	 1.454187e-02	 1.876848e+01
1	 1.384879e+00	 2.914470e-02	 1.842105e+01
1	 1.384492e+00	 4.380641e-02	 1.811188e+01
1	 1.383948e+00	 5.852488e-02	 1.783933e+01
1	 1.383245e+00	 7.329792e-02	 1.760170e+01
1	 1.392593e+00	 0.000000e+00	 1.903191e+01
1	 1.392516e+00	 1.461964e-02	 1.864203e+01
1	 1.392284e+00	 2.930055e-02	 1.829049e+01
1	 1.391896e+00	 4.404067e-02	 1.797582e+01
1	 1.391349e+00	 5.883784e-02	 1.769647e+01
1	 1.390642e+00	 7.368989e-02	 1.745085e+01
1	 1.400000e+00	 0.000000e+00	 1.891174e+01
1	 1.399923e+00	 1.469740e-02	 1.851966e+01
1	 1.399690e+00	 2.945641e-02	 1.816426e+01
1	 1.399300e+00	 4.427493e-02	 1.784419e+01
1	 1.398750e+00	 5.915081e-02	 1.755803e+01
1	 1.398039e+00	 7.408186e-02	 1.730432e+01
1	 1.407407e+00	 0.000000e+00	 1.879524e+01
1	 1.407330e+00	 1.477517e-02	 1.840137e+01
1	 1.407096e+00	 2.961226e-02	 1.804238e+01
1	 1.406703e+00	 4.450918e-02	 1.771705e+01
1	 1.406151e+00	 5.946378e-02	 1.742409e+01
1	 1.405436e+00	 7.447382e-02	 1.716220e+01
1	 1.368450e+00	 7.251399e-02	 1.791593e+01
1	 1.367594e+00	 8.718081e-02	 1.773203e+01
1	 1.366577e+00	 1.018971e-01	 1.758759e+01
1	 1.365396e+00	 1.166606e-01	 1.748065e+01
1	 1.364049e+00	 1.314689e-01	 1.740926e+01
1	 1.362536e+00	 1.463195e-01	 1.737139e+01
1	 1.375847e+00	 7.290595e-02	 1.775676e+01
1	 1.374987e+00	 8.765205e-02	 1.756440e+01
1	 1.373964e+00	 1.024479e-01	 1.741096e+01
1	 1.372776e+00	 1.172912e-01	 1.729463e+01
1	 1.371423e+00	 1.321795e-01	 1.721357e+01
1	 1.369902e+00	 1.471104e-01	 1.716591e+01
1	 1.383245e+00	 7.329792e-02	 1.760170e+01
1	 1.382379e+00	 8.812330e-02	 1.740062e+01
1	 1.381351e+00	 1.029987e-01	 1.723780e+01
1	 1.380157e+00	 1.179218e-01	 1.711158e+01
1	 1.378796e+00	 1.328902e-01	 1.702028e+01
1	 1.377267e+00	 1.479013e-01	 1.696217e+01
1	 1.390642e+00	 7.368989e-02	 1.745085e+01
1	 1.389772e+00	 8.859455e-02	 1.724080e+01
1	 1.388737e+00	 1.035495e-01	 1.706825e+01
1	 1.387537e+00	 1.185524e-01	 1.693169e+01
1	 1.386169e+00	 1.336008e-01	 1.682958e+01
1	 1.384632e+00	 1.486922e-01	 1.676037e+01
1	 1.398039e+00	 7.408186e-02	 1.730432e+01
1	 1.397164e+00	 8.906580e-02	 1.708508e+01
1	 1.396124e+00	 1.041003e-01	 1.690246e+01
1	 1.394918e+00	 1.191830e-01	 1.675511e+01
1	 1.393542e+00	 1.343114e-01	 1.664166e+01
1	 1.391997e+00	 1.494831e-01	 1.656071e+01
1	 1.405436e+00	 7.447382e-02	 1.716220e+01
1	 1.404556e+00	 8.953704e-02	 1.693357e+01
1	 1.403511e+00	 1.046511e-01	 1.674057e+01
1	 1.402298e+00	 1.198136e-01	 1.658202e+01
1	 1.400916e+00	 1.350221e-01	 1.645671e+01
1	 1.399362e+00	 1.502741e-01	 1.636340e+01
1	 1.362536e+00	 1.463195e-01	 1.737139e+01
1	 1.360855e+00	 1.612099e-01	 1.736544e+01
1	 1.359003e+00	 1.761376e-01	 1.739022e+01
1	 1.356980e+00	 1.911000e-01	 1.744434e+01
1	 1.354784e+00	 2.060944e-01	 1.752638e+01
1	 1.352413e+00	 2.211181e-01	 1.763490e+01
1	 1.369902e+00	 1.471104e-01	 1.716591e+01
1	 1.368211e+00	 1.620813e-01	 1.715002e+01
1	 1.366349e+00	 1.770897e-01	 1.716463e+01
1	 1.364315e+00	 1.921330e-01	 1.720848e+01
1	 1.362107e+00	 2.072084e-01	 1.728026e+01
1	 1.359724e+00	 2.223133e-01	 1.737865e+01
1	 1.377267e+00	 1.479013e-01	 1.696217e+01
1	 1.375567e+00	 1.629527e-01	 1.693559e+01
1	 1.373695e+00	 1.780418e-01	 1.693926e+01
1	 1.371650e+00	 1.931660e-01	 1.697205e+01
1	 1.369430e+00	 2.083225e-01	 1.703278e+01
1	 1.367034e+00	 2.235086e-01	 1.712026e+01
1	 1.384632e+00	 1.486922e-01	 1.676037e+01
1	 1.382923e+00	 1.638241e-01	 1.672237e+01
1	 1.381041e+00	 1.789939e-01	 1.671434e+01
1	 1.378985e+00	 1.941989e-01	 1.673527e+01
1	 1.376754e+00	 2.094365e-01	 1.678414e+01
1	 1.374344e+00	 2.247038e-01	 1.685990e+01
1	 1.391997e+00	 1.494831e-01	 1.656071e+01
1	 1.390279e+00	 1.646955e-01	 1.651060e+01
1	 1.388387e+00	 1.799460e-01	 1.649010e+01
1	 1.386320e+00	 1.952319e-01	 1.649837e+01
1	 1.384077e+00	 2.105505e-01	 1.653456e+01
1	 1.381655e+00	 2.258990e-01	 1.659778e+01
1	 1.399362e+00	 1.502741e-01	 1.636340e+01
1	 1.397635e+00	 1.655669e-01	 1.630048e+01
1	 1.395733e+00	 1.808981e-01	 1.626676e+01
1	 1.393656e+00	 1.962649e-01	 1.626157e+01
1	 1.391400e+00	 2.116645e-01	 1.628424e+01
1	 1.388965e+00	 2.270943e-01	 1.633407e+01
1	 1.352413e+00	 2.211181e-01	 1.763490e+01
1	 1.349866e+00	 2.361683e-01	 1.777063e+01
1	 1.347142e+00	 2.512422e-01	 1.793304e+01
1	 1.344239e+00	 2.663370e-01	 1.811879e+01
1	 1.341157e+00	 2.814496e-01	 1.832461e+01
1	 1.337893e+00	 2.965773e-01	 1.854731e+01
1	 1.359724e+00	 2.223133e-01	 1.737865e+01
1	 1.357163e+00	 2.374449e-01	 1.750497e+01
1	 1.354424e+00	 2.526003e-01	 1.765922e+01
1	 1.351506e+00	 2.677766e-01	 1.783807e+01
1	 1.348406e+00	 2.829710e-01	 1.803826e+01
1	 1.345125e+00	 2.981804e-01	 1.825660e+01
1	 1.367034e+00	 2.235086e-01	 1.712026e+01
1	 1.364460e+00	 2.387215e-01	 1.723640e+01
1	 1.361706e+00	 2.539583e-01	 1.738171e+01
1	 1.358772e+00	 2.692163e-01	 1.755287e+01
1	 1.355656e+00	 2.844923e-01	 1.774665e+01
1	 1.352356e+00	 2.997835e-01	 1.795985e+01
1	 1.374344e+00	 2.247038e-01	 1.685990e+01
1	 1.371756e+00	 2.399981e-01	 1.696507e+01
1	 1.368988e+00	 2.553164e-01	 1.710065e+01
1	 1.366038e+00	 2.706559e-01	 1.726336e+01
1	 1.362905e+00	 2.860137e-01	 1.744994e+01
1	 1.359588e+00	 3.013866e-01	 1.765724e+01
1	 1.381655e+00	 2.258990e-01	 1.659778e+01
1	 1.379053e+00	 2.412746e-01	 1.669116e+01
1	 1.376270e+00	 2.566745e-01	 1.681621e+01
1	 1.373304e+00	 2.720956e-01	 1.696966e+01
1	 1.370155e+00	 2.875350e-01	 1.714830e+01
1	 1.366820e+00	 3.029898e-01	 1.734897e+01
1	 1.388965e+00	 2.270943e-01	 1.633407e+01
1	 1.386349e+00	 2.425512e-01	 1.641481e+01
1	 1.383552e+00	 2.580325e-01	 1.652852e+01
1	 1.380570e+00	 2.735353e-01	 1.667194e+01
1	 1.377404e+00	 2.890564e-01	 1.684188e+01
1	 1.374052e+00	 3.045929e-01	 1.703519e+01
1	 1.337893e+00	 2.965773e-01	 1.854731e+01
1	 1.334447e+00	 3.117169e-01	 1.877955e+01
1	 1.330817e+00	 3.268653e-01	 1.901612e+01
1	 1.327003e+00	 3.420196e-01	 1.925713e+01
1	 1.323004e+00	 3.571765e-01	 1.950265e+01
1	 1.318819e+00	 3.723329e-01	 1.975273e+01
1	 1.345125e+00	 2.981804e-01	 1.825660e+01
1	 1.341660e+00	 3.134018e-01	 1.848487e+01
1	 1.338011e+00	 3.286322e-01	 1.871714e+01
1	 1.334176e+00	 3.438684e-01	 1.895367e+01
1	 1.330155e+00	 3.591072e-01	 1.919472e+01
1	 1.325948e+00	 3.743455e-01	 1.944052e+01
1	 1.352356e+00	 2.997835e-01	 1.795985e+01
1	 1.348873e+00	 3.150868e-01	 1.818341e+01
1	 1.345204e+00	 3.303990e-01	 1.841067e+01
1	 1.341349e+00	 3.457171e-01	 1.864208e+01
1	 1.337307e+00	 3.610379e-01	 1.887810e+01
1	 1.333076e+00	 3.763581e-01	 1.911914e+01
1	 1.359588e+00	 3.013866e-01	 1.765724e+01
1	 1.356086e+00	 3.167717e-01	 1.787536e+01
1	 1.352398e+00	 3.321659e-01	 1.809691e+01
1	 1.348522e+00	 3.475659e-01	 1.832258e+01
1	 1.344458e+00	 3.629686e-01	 1.855300e+01
1	 1.340205e+00	 3.783707e-01	 1.878878e+01
1	 1.366820e+00	 3.029898e-01	 1.734897e+01
1	 1.363299e+00	 3.184567e-01	 1.756092e+01
1	 1.359591e+00	 3.339327e-01	 1.777610e+01
1	 1.355695e+00	 3.494146e-01	 1.799538e+01
1	 1.351610e+00	 3.648993e-01	 1.821960e+01
1	 1.347334e+00	 3.803834e-01	 1.844959e+01
1	 1.374052e+00	 3.045929e-01	 1.703519e+01
1	 1.370513e+00	 3.201416e-01	 1.724030e+01
1	 1.366785e+00	 3.356995e-01	 1.744842e+01
1	 1.362868e+00	 3.512634e-01	 1.766067e+01
1	 1.358761e+00	 3.668299e-01	 1.787810e+01
1	 1.354463e+00	 3.823960e-01	 1.810175e+01
1	 1.318819e+00	 3.723329e-01	 1.975273e+01
1	 1.314447e+00	 3.874855e-01	 1.996570e+01
1	 1.309887e+00	 4.026312e-01	 2.010159e+01
1	 1.305138e+00	 4.177665e-01	 2.016300e+01
1	 1.300201e+00	 4.328882e-01	 2.015266e+01
1	 1.295074e+00	 4.479929e-01	 2.007335e+01
1	 1.325948e+00	 3.743455e-01	 1.944052e+01
1	 1.321552e+00	 3.895801e-01	 1.964973e+01
1	 1.316967e+00	 4.048076e-01	 1.978259e+01
1	 1.312193e+00	 4.200247e-01	 1.984171e+01
1	 1.307229e+00	 4.352281e-01	 1.982978e+01
1	 1.302075e+00	 4.504145e-01	 1.974960e+01
1	 1.333076e+00	 3.763581e-01	 1.911914e+01
1	 1.328657e+00	 3.916746e-01	 1.932427e+01
1	 1.324048e+00	 4.069839e-01	 1.945395e+01
1	 1.319248e+00	 4.222829e-01	 1.951077e+01
1	 1.314257e+00	 4.375681e-01	 1.949737e+01
1	 1.309075e+00	 4.528361e-01	 1.941651e+01
1	 1.340205e+00	 3.783707e-01	 1.878878e+01
1	 1.335762e+00	 3.937691e-01	 1.898946e+01
1	 1.331128e+00	 4.091603e-01	 1.911581e+01
1	 1.326303e+00	 4.245411e-01	 1.917031e+01
1	 1.321285e+00	 4.399080e-01	 1.915556e+01
1	 1.316075e+00	 4.552576e-01	 1.907427e+01
1	 1.347334e+00	 3.803834e-01	 1.844959e+01
1	 1.342867e+00	 3.958636e-01	 1.864545e+01
1	 1.338209e+00	 4.113367e-01	 1.876828e+01
1	 1.333358e+00	 4.267993e-01	 1.882046e+01
1	 1.328314e+00	 4.422479e-01	 1.880451e+01
1	 1.323076e+00	 4.576792e-01	 1.872303e+01
1	 1.354463e+00	 3.823960e-01	 1.810175e+01
1	 1.349972e+00	 3.979581e-01	 1.829237e+01
1	 1.345289e+00	 4.135131e-01	 1.841149e+01
1	 1.340412e+00	 4.290575e-01	 1.846136e+01
1	 1.335342e+00	 4.445879e-01	 1.844435e+01
1	 1.330076e+00	 4.601008e-01	 1.836297e+01
1	 1.295074e+00	 4.479929e-01	 2.007335e+01
1	 1.289758e+00	 4.630772e-01	 1.991649e+01
1	 1.284250e+00	 4.781378e-01	 1.967187e+01
1	 1.278553e+00	 4.931711e-01	 1.933998e+01
1	 1.272664e+00	 5.081737e-01	 1.892142e+01
1	 1.266585e+00	 5.231421e-01	 1.841692e+01
1	 1.302075e+00	 4.504145e-01	 1.974960e+01
1	 1.296729e+00	 4.655803e-01	 1.959280e+01
1	 1.291192e+00	 4.807223e-01	 1.934921e+01
1	 1.285464e+00	 4.958369e-01	 1.901910e+01
1	 1.279544e+00	 5.109205e-01	 1.860282e+01
1	 1.273431e+00	 5.259699e-01	 1.810082e+01
1	 1.309075e+00	 4.528361e-01	 1.941651e+01
1	 1.303701e+00	 4.680835e-01	 1.926002e+01
1	 1.298134e+00	 4.833068e-01	 1.901777e+01
1	 1.292375e+00	 4.985026e-01	 1.868979e+01
1	 1.286423e+00	 5.136674e-01	 1.827620e+01
1	 1.280278e+00	 5.287977e-01	 1.777723e+01
1	 1.316075e+00	 4.552576e-01	 1.907427e+01
1	 1.310672e+00	 4.705866e-01	 1.891836e+01
1	 1.305076e+00	 4.858914e-01	 1.867775e+01
1	 1.299286e+00	 5.011684e-01	 1.835225e+01
1	 1.293302e+00	 5.164143e-01	 1.794177e+01
1	 1.287124e+00	 5.316255e-01	 1.744633e+01
1	 1.323076e+00	 4.576792e-01	 1.872303e+01
1	 1.317644e+00	 4.730897e-01	 1.856802e+01
1	 1.312018e+00	 4.884759e-01	 1.832937e+01
1	 1.306197e+00	 5.038342e-01	 1.800671e+01
1	 1.300181e+00	 5.191612e-01	 1.759973e+01
1	 1.293971e+00	 5.344533e-01	 1.710828e+01
1	 1.330076e+00	 4.601008e-01	 1.836297e+01
1	 1.324616e+00	 4.755928e-01	 1.820919e+01
1	 1.318960e+00	 4.910604e-01	 1.797284e+01
1	 1.313108e+00	 5.065000e-01	 1.765337e+01
1	 1.307061e+00	 5.219081e-01	 1.725029e+01
1	 1.300817e+00	 5.372811e-01	 1.676327e+01
1	 1.266585e+00	 5.231421e-01	 1.841692e+01
1	 1.260314e+00	 5.380728e-01	 1.781815e+01
1	 1.253853e+00	 5.529623e-01	 1.711709e+01
1	 1.247201e+00	 5.678070e-01	 1.631494e+01
1	 1.240358e+00	 5.826035e-01	 1.541295e+01
1	 1.233325e+00	 5.973481e-01	 1.441242e+01
1	 1.273431e+00	 5.259699e-01	 1.810082e+01
1	 1.267127e+00	 5.409813e-01	 1.750432e+01
1	 1.260631e+00	 5.559513e-01	 1.680509e+01
1	 1.253943e+00	 5.708763e-01	 1.600461e+01
1	 1.247063e+00	 5.857527e-01	 1.510440e+01
1	 1.239991e+00	 6.005770e-01	 1.410602e+01
1	 1.280278e+00	 5.287977e-01	 1.777723e+01
1	 1.273940e+00	 5.438898e-01	 1.718360e+01
1	 1.267408e+00	 5.589403e-01	 1.648688e+01
1	 1.260684e+00	 5.739455e-01	 1.568879e+01
1	 1.253767e+00	 5.889019e-01	 1.479108e+01
1	 1.246658e+00	 6.038059e-01	 1.379556e+01
1	 1.287124e+00	 5.316255e-01	 1.744633e+01
1	 1.280752e+00	 5.467983e-01	 1.685614e+01
1	 1.274186e+00	 5.619293e-01	 1.616259e+01
1	 1.267426e+00	 5.770147e-01	 1.536759e+01
1	 1.260472e+00	 5.920511e-01	 1.447312e+01
1	 1.253325e+00	 6.070348e-01	 1.348119e+01
1	 1.293971e+00	 5.344533e-01	 1.710828e+01
1	 1.287565e+00	 5.497068e-01	 1.652210e+01
1	 1.280963e+00	 5.649182e-01	 1.583235e+01
1	 1.274167e+00	 5.800840e-01	 1.504114e+01
1	 1.267177e+00	 5.952003e-01	 1.415062e+01
1	 1.259991e+00	 6.102637e-01	 1.316303e+01
1	 1.300817e+00	 5.372811e-01	 1.676327e+01
1	 1.294377e+00	 5.526153e-01	 1.618161e+01
1	 1.287741e+00	 5.679072e-01	 1.549629e+01
1	 1.280909e+00	 5.831532e-01	 1.470954e+01
1	 1.273881e+00	 5.983495e-01	 1.382372e+01
1	 1.266658e+00	 6.134926e-01	 1.284121e+01
1	 1.233325e+00	 5.973481e-01	 1.441242e+01
1	 1.226102e+00	 6.120372e-01	 1.331333e+01
1	 1.218689e+00	 6.266674e-01	 1.211423e+01
1	 1.211087e+00	 6.412350e-01	 1.081412e+01
1	 1.203297e+00	 6.557365e-01	 9.411648e+00
1	 1.195320e+00	 6.701682e-01	 7.905142e+00
1	 1.239991e+00	 6.005770e-01	 1.410602e+01
1	 1.232729e+00	 6.153455e-01	 1.300791e+01
1	 1.225277e+00	 6.300548e-01	 1.180660e+01
1	 1.217634e+00	 6.447011e-01	 1.050055e+01
1	 1.209802e+00	 6.592810e-01	 9.087900e+00
1	 1.201781e+00	 6.737908e-01	 7.566409e+00
1	 1.246658e+00	 6.038059e-01	 1.379556e+01
1	 1.239357e+00	 6.186539e-01	 1.269906e+01
1	 1.231864e+00	 6.334422e-01	 1.149603e+01
1	 1.224180e+00	 6.481673e-01	 1.018448e+01
1	 1.216306e+00	 6.628255e-01	 8.762050e+00
1	 1.208242e+00	 6.774133e-01	 7.226032e+00
1	 1.253325e+00	 6.070348e-01	 1.348119e+01
1	 1.245984e+00	 6.219622e-01	 1.238695e+01
1	 1.238452e+00	 6.368296e-01	 1.118275e+01
1	 1.230727e+00	 6.516334e-01	 9.866186e+00
1	 1.222810e+00	 6.663700e-01	 8.434496e+00
1	 1.214703e+00	 6.810358e-01	 6.884534e+00
1	 1.259991e+00	 6.102637e-01	 1.316303e+01
1	 1.252612e+00	 6.252705e-01	 1.207173e+01
1	 1.245039e+00	 6.402170e-01	 1.086696e+01
1	 1.237273e+00	 6.550995e-01	 9.545969e+00
1	 1.229315e+00	 6.699146e-01	 8.105627e+00
1	 1.221165e+00	 6.846583e-01	 6.542427e+00
1	 1.266658e+00	 6.134926e-01	 1.284121e+01
1	 1.259240e+00	 6.285788e-01	 1.175356e+01
1	 1.251627e+00	 6.436044e-01	 1.054888e+01
1	 1.243819e+00	 6.585657e-01	 9.224108e+00
1	 1.235819e+00	 6.734591e-01	 7.775826e+00
1	 1.227626e+00	 6.882809e-01	 6.200212e+00
1	 1.195320e+00	 6.701682e-01	 7.905142e+00
1	 1.187155e+00	 6.845267e-01	 6.305343e+00
1	 1.178805e+00	 6.988084e-01	 4.624412e+00
1	 1.170270e+00	 7.130097e-01	 2.862753e+00
1	 1.161551e+00	 7.271271e-01	 1.021022e+00
1	 1.152650e+00	 7.411572e-01	-8.998701e-01
1	 1.201781e+00	 6.737908e-01	 7.566409e+00
1	 1.193573e+00	 6.882269e-01	 5.949377e+00
1	 1.185177e+00	 7.025857e-01	 4.252531e+00
1	 1.176596e+00	 7.168638e-01	 2.477272e+00
1	 1.167830e+00	 7.310576e-01	 6.253199e-01
1	 1.158880e+00	 7.451634e-01	-1.301280e+00
1	 1.208242e+00	 6.774133e-01	 7.226032e+00
1	 1.199990e+00	 6.919270e-01	 5.592659e+00
1	 1.191549e+00	 7.063631e-01	 3.881520e+00
1	 1.182922e+00	 7.207179e-01	 2.094952e+00
1	 1.174108e+00	 7.349880e-01	 2.356734e-01
1	 1.165111e+00	 7.491697e-01	-1.693210e+00
1	 1.214703e+00	 6.810358e-01	 6.884534e+00
1	 1.206407e+00	 6.956271e-01	 5.235829e+00
1	 1.197921e+00	 7.101404e-01	 3.512107e+00
1	 1.189247e+00	 7.245720e-01	 1.716574e+00
1	 1.180387e+00	 7.389184e-01	-1.471167e-01
1	 1.171341e+00	 7.531760e-01	-2.074869e+00
1	 1.221165e+00	 6.846583e-01	 6.542427e+00
1	 1.212824e+00	 6.993273e-01	 4.879517e+00
1	 1.204293e+00	 7.139178e-01	 3.145002e+00
1	 1.195573e+00	 7.284261e-01	 1.342901e+00
1	 1.186666e+00	 7.428488e-01	-5.222664e-01
1	 1.177572e+00	 7.571822e-01	-2.445481e+00
1	 1.227626e+00	 6.882809e-01	 6.200212e+00
1	 1.219241e+00	 7.030274e-01	 4.524337e+00
1	 1.210665e+00	 7.176951e-01	 2.780904e+00
1	 1.201899e+00	 7.322802e-01	 9.746812e-01
1	 1.192944e+00	 7.467792e-01	-8.890081e-01
1	 1.183802e+00	 7.611885e-01	-2.804289e+00
1	 1.152650e+00	 7.411572e-01	-8.998701e-01
1	 1.143567e+00	 7.550963e-01	-2.806612e+00
1	 1.134304e+00	 7.689412e-01	-4.605171e+00
1	 1.124862e+00	 7.826882e-01	-6.293319e+00
1	 1.115243e+00	 7.963340e-01	-7.868775e+00
1	 1.105449e+00	 8.098752e-01	-9.329216e+00
1	 1.158880e+00	 7.451634e-01	-1.301280e+00
1	 1.149748e+00	 7.591779e-01	-3.209143e+00
1	 1.140435e+00	 7.730976e-01	-5.005860e+00
1	 1.130942e+00	 7.869189e-01	-6.690612e+00
1	 1.121271e+00	 8.006385e-01	-8.262588e+00
1	 1.111424e+00	 8.142529e-01	-9.720991e+00
1	 1.165111e+00	 7.491697e-01	-1.693210e+00
1	 1.155929e+00	 7.632595e-01	-3.598815e+00
1	 1.146566e+00	 7.772540e-01	-5.390849e+00
1	 1.137023e+00	 7.911497e-01	-7.069855e+00
1	 1.127300e+00	 8.049430e-01	-8.636450e+00
1	 1.117400e+00	 8.186306e-01	-1.009132e+01
1	 1.171341e+00	 7.531760e-01	-2.074869e+00
1	 1.162111e+00	 7.673412e-01	-3.974884e+00
1	 1.152698e+00	 7.814105e-01	-5.759484e+00
1	 1.143103e+00	 7.953804e-01	-7.430530e+00
1	 1.133328e+00	 8.092475e-01	-8.990024e+00
1	 1.123375e+00	 8.230083e-01	-1.044011e+01
1	 1.177572e+00	 7.571822e-01	-2.445481e+00
1	 1.168292e+00	 7.714228e-01	-4.336618e+00
1	 1.158829e+00	 7.855669e-01	-6.111123e+00
1	 1.149183e+00	 7.996112e-01	-7.772128e+00
1	 1.139356e+00	 8.135520e-01	-9.322980e+00
1	 1.129350e+00	 8.273860e-01	-1.076724e+01
1	 1.183802e+00	 7.611885e-01	-2.804289e+00
1	 1.174474e+00	 7.755044e-01	-4.683304e+00
1	 1.164960e+00	 7.897233e-01	-6.445140e+00
1	 1.155264e+00	 8.038419e-01	-8.094153e+00
1	 1.145385e+00	 8.178565e-01	-9.634997e+00
1	 1.135326e+00	 8.317637e-01	-1.107261e+01
1	 1.105449e+00	 8.098752e-01	-9.329216e+00
1	 1.095481e+00	 8.233085e-01	-1.066626e+01
1	 1.085341e+00	 8.366305e-01	-1.187338e+01
1	 1.075030e+00	 8.498380e-01	-1.295107e+01
1	 1.064552e+00	 8.629278e-01	-1.389987e+01
1	 1.053907e+00	 8.758965e-01	-1.472039e+01
1	 1.111424e+00	 8.142529e-01	-9.720991e+00
1	 1.101402e+00	 8.277588e-01	-1.105884e+01
1	 1.091207e+00	 8.411528e-01	-1.226936e+01
1	 1.080841e+00	 8.544317e-01	-1.335208e+01
1	 1.070306e+00	 8.675922e-01	-1.430662e+01
1	 1.059604e+00	 8.806311e-01	-1.513266e+01
1	 1.117400e+00	 8.186306e-01	-1.009132e+01
1	 1.107324e+00	 8.322091e-01	-1.142870e+01
1	 1.097074e+00	 8.456752e-01	-1.264140e+01
1	 1.086652e+00	 8.590255e-01	-1.372816e+01
1	 1.076061e+00	 8.722567e-01	-1.468777e+01
1	 1.065301e+00	 8.853657e-01	-1.551907e+01
1	 1.123375e+00	 8.230083e-01	-1.044011e+01
1	 1.113245e+00	 8.366594e-01	-1.177592e+01
1	 1.102941e+00	 8.501975e-01	-1.298977e+01
1	 1.092463e+00	 8.636192e-01	-1.407966e+01
1	 1.081815e+00	 8.769212e-01	-1.504367e+01
1	 1.070998e+00	 8.901003e-01	-1.587994e+01
1	 1.129350e+00	 8.273860e-01	-1.076724e+01
1	 1.119167e+00	 8.411097e-01	-1.210064e+01
1	 1.108807e+00	 8.547198e-01	-1.331473e+01
1	 1.098274e+00	 8.682129e-01	-1.440692e+01
1	 1.087569e+00	 8.815856e-01	-1.537470e+01
1	 1.076694e+00	 8.948348e-01	-1.621558e+01
1	 1.135326e+00	 8.317637e-01	-1.107261e+01
1	 1.125088e+00	 8.455601e-01	-1.240296e+01
1	 1.114674e+00	 8.592421e-01	-1.361653e+01
1	 1.104085e+00	 8.728066e-01	-1.471029e+01
1	 1.093324e+00	 8.862501e-01	-1.568120e+01
1	 1.082391e+00	 8.995694e-01	-1.652628e+01
1	 1.053907e+00	 8.758965e-01	-1.472039e+01
1	 1.043098e+00	 8.887412e-01	-1.544286e+01
1	 1.032127e+00	 9.014587e-01	-1.609592e+01
1	 1.020997e+00	 9.140460e-01	-1.667772e+01
1	 1.009709e+00	 9.265000e-01	-1.718625e+01
1	 9.982665e-01	 9.388179e-01	-1.761929e+01
1	 1.059604e+00	 8.806311e-01	-1.513266e+01
1	 1.048737e+00	 8.935452e-01	-1.585881e+01
1	 1.037707e+00	 9.063315e-01	-1.651320e+01
1	 1.026516e+00	 9.189868e-01	-1.709470e+01
1	 1.015167e+00	 9.315081e-01	-1.760204e+01
1	 1.003662e+00	 9.438926e-01	-1.803376e+01
1	 1.065301e+00	 8.853657e-01	-1.551907e+01
1	 1.054375e+00	 8.983492e-01	-1.624911e+01
1	 1.043286e+00	 9.112042e-01	-1.690533e+01
1	 1.032035e+00	 9.239276e-01	-1.748711e+01
1	 1.020625e+00	 9.365162e-01	-1.799371e+01
1	 1.009059e+00	 9.489673e-01	-1.842417e+01
1	 1.070998e+00	 8.901003e-01	-1.587994e+01
1	 1.060013e+00	 9.031532e-01	-1.661399e+01
1	 1.048865e+00	 9.160770e-01	-1.727242e+01
1	 1.037554e+00	 9.288683e-01	-1.785493e+01
1	 1.026083e+00	 9.415243e-01	-1.836108e+01
1	 1.014455e+00	 9.540420e-01	-1.879023e+01
1	 1.076694e+00	 8.948348e-01	-1.621558e+01
1	 1.065652e+00	 9.079573e-01	-1.695364e+01
1	 1.054444e+00	 9.209497e-01	-1.761456e+01
1	 1.043073e+00	 9.338091e-01	-1.819813e+01
1	 1.031541e+00	 9.465325e-01	-1.870399e+01
1	 1.019851e+00	 9.591167e-01	-1.913163e+01
1	 1.082391e+00	 8.995694e-01	-1.652628e+01
1	 1.071290e+00	 9.127613e-01	-1.726828e+01
1	 1.060023e+00	 9.258225e-01	-1.793185e+01
1	 1.048592e+00	 9.387499e-01	-1.851667e+01
1	 1.036999e+00	 9.515406e-01	-1.902229e+01
1	 1.025247e+00	 9.641914e-01	-1.944809e+01
1	 9.982665e-01	 9.388179e-01	-1.761929e+01
1	 9.866712e-01	 9.509967e-01	-1.802434e+01
1	 9.749261e-01	 9.630337e-01	-1.844993e+01
1	 9.630337e-01	 9.749261e-01	-1.889535e+01
1	 9.509967e-01	 9.866712e-01	-1.935995e+01
1	 9.388179e-01	 9.982665e-01	-1.984314e+01
1	 1.003662e+00	 9.438926e-01	-1.803376e+01
1	 9.920046e-01	 9.561373e-01	-1.843895e+01
1	 9.801960e-01	 9.682393e-01	-1.886664e+01
1	 9.682393e-01	 9.801960e-01	-1.931516e+01
1	 9.561373e-01	 9.920046e-01	-1.978284e+01
1	 9.438926e-01	 1.003662e+00	-2.026803e+01
1	 1.009059e+00	 9.489673e-01	-1.842417e+01
1	 9.973380e-01	 9.612778e-01	-1.882893e+01
1	 9.854659e-01	 9.734449e-01	-1.925757e+01
1	 9.734449e-01	 9.854659e-01	-1.970776e+01
1	 9.612778e-01	 9.973380e-01	-2.017716e+01
1	 9.489673e-01	 1.009059e+00	-2.066341e+01
1	 1.014455e+00	 9.540420e-01	-1.879023e+01
1	 1.002671e+00	 9.664183e-01	-1.919389e+01
1	 9.907357e-01	 9.786505e-01	-1.962233e+01
1	 9.786505e-01	 9.907357e-01	-2.007288e+01
1	 9.664183e-01	 1.002671e+00	-2.054287e+01
1	 9.540420e-01	 1.014455e+00	-2.102957e+01
1	 1.019851e+00	 9.591167e-01	-1.913163e+01
1	 1.008005e+00	 9.715588e-01	-1.953346e+01
1	 9.960056e-01	 9.838561e-01	-1.996057e+01
1	 9.838561e-01	 9.960056e-01	-2.041030e+01
1	 9.715588e-01	 1.008005e+00	-2.087995e+01
1	 9.591167e-01	 1.019851e+00	-2.136678e+01
1	 1.025247e+00	 9.641914e-01	-1.944809e+01
1	 1.013338e+00	 9.766994e-01	-1.984725e+01
1	 1.001275e+00	 9.890617e-01	-2.027194e+01
1	 9.890617e-01	 1.001275e+00	-2.071978e+01
1	 9.766994e-01	 1.013338e+00	-2.118838e+01
1	 9.641914e-01	 1.025247e+00	-2.167533e+01
1	 9.388179e-01	 9.982665e-01	-1.984314e+01
1	 9.265000e-01	 1.009709e+00	-2.038398e+01
1	 9.140460e-01	 1.020997e+00	-2.102513e+01
1	 9.014587e-01	 1.032127e+00	-2.177167e+01
1	 8.887412e-01	 1.043098e+00	-2.262894e+01
1	 8.758965e-01	 1.053907e+00	-2.360258e+01
1	 9.438926e-01	 1.003662e+00	-2.026803e+01
1	 9.315081e-01	 1.015167e+00	-2.081092e+01
1	 9.189868e-01	 1.026516e+00	-2.145724e+01
1	 9.063315e-01	 1.037707e+00	-2.221398e+01
1	 8.935452e-01	 1.048737e+00	-2.308849e+01
1	 8.806311e-01	 1.059604e+00	-2.408848e+01
1	 9.489673e-01	 1.009059e+00	-2.066341e+01
1	 9.365162e-01	 1.020625e+00	-2.120849e+01
1	 9.239276e-01	 1.032035e+00	-2.186122e+01
1	 9.112042e-01	 1.043286e+00	-2.262985e+01
1	 8.983492e-01	 1.054375e+00	-2.352306e+01
1	 8.853657e-01	 1.065301e+00	-2.454993e+01
1	 9.540420e-01	 1.014455e+00	-2.102957e+01
1	 9.415243e-01	 1.026083e+00	-2.157723e+01
1	 9.288683e-01	 1.037554e+00	-2.223759e+01
1	 9.160770e-01	 1.048865e+00	-2.301956e+01
1	 9.031532e-01	 1.060013e+00	-2.393247e+01
1	 8.901003e-01	 1.070998e+00	-2.498609e+01
1	 9.591167e-01	 1.019851e+00	-2.136678e+01
1	 9.465325e-01	 1.031541e+00	-2.191763e+01
1	 9.338091e-01	 1.043073e+00	-2.258687e+01
1	 9.209497e-01	 1.054444e+00	-2.338338e+01
1	 9.079573e-01	 1.065652e+00	-2.431654e+01
1	 8.948348e-01	 1.076694e+00	-2.539613e+01
1	 9.641914e-01	 1.025247e+00	-2.167533e+01
1	 9.515406e-01	 1.036999e+00	-2.223021e+01
1	 9.387499e-01	 1.048592e+00	-2.290953e+01
1	 9.258225e-01	 1.060023e+00	-2.372159e+01
1	 9.127613e-01	 1.071290e+00	-2.467511e+01
1	 8.995694e-01	 1.082391e+00	-2.577926e+01
1	 8.758965e-01	 1.053907e+00	-2.360258e+01
1	 8.629278e-01	 1.064552e+00	-2.473059e+01
1	 8.498380e-01	 1.075030e+00	-2.604327e+01
1	 8.366305e-01	 1.085341e+00	-2.753483e+01
1	 8.233085e-01	 1.095481e+00	-2.919935e+01
1	 8.098752e-01	 1.105449e+00	-3.103081e+01
1	 8.806311e-01	 1.059604e+00	-2.408848e+01
1	 8.675922e-01	 1.070306e+00	-2.525096e+01
1	 8.544317e-01	 1.080841e+00	-2.660129e+01
1	 8.411528e-01	 1.091207e+00	-2.812975e+01
1	 8.277588e-01	 1.101402e+00	-2.982636e+01
1	 8.142529e-01	 1.111424e+00	-3.168088e+01
1	 8.853657e-01	 1.065301e+00	-2.454993e+01
1	 8.722567e-01	 1.076061e+00	-2.574510e+01
1	 8.590255e-01	 1.086652e+00	-2.712864e+01
1	 8.456752e-01	 1.097074e+00	-2.868774e+01
1	 8.322091e-01	 1.107324e+00	-3.040921e+01
1	 8.186306e-01	 1.117400e+00	-3.227953e+01
1	 8.901003e-01	 1.070998e+00	-2.498609e+01
1	 8.769212e-01	 1.081815e+00	-2.621159e+01
1	 8.636192e-01	 1.092463e+00	-2.762362e+01
1	 8.501975e-01	 1.102941e+00	-2.920712e+01
1	 8.366594e-01	 1.113245e+00	-3.094657e+01
1	 8.230083e-01	 1.123375e+00	-3.282605e+01
1	 8.948348e-01	 1.076694e+00	-2.539613e+01
1	 8.815856e-01	 1.087569e+00	-2.664901e+01
1	 8.682129e-01	 1.098274e+00	-2.808455e+01
1	 8.547198e-01	 1.108807e+00	-2.968626e+01
1	 8.411097e-01	 1.119167e+00	-3.143713e+01
1	 8.273860e-01	 1.129350e+00	-3.331973e+01
1	 8.995694e-01	 1.082391e+00	-2.577926e+01
1	 8.862501e-01	 1.093324e+00	-2.705599e+01
1	 8.728066e-01	 1.104085e+00	-2.850979e+01
1	 8.592421e-01	 1.114674e+00	-3.012354e+01
1	 8.455601e-01	 1.125088e+00	-3.187961e+01
1	 8.317637e-01	 1.135326e+00	-3.375989e+01
1	 8.098752e-01	 1.105449e+00	-3.103081e+01
1	 7.963340e-01	 1.115243e+00	-3.299603e+01
1	 7.826882e-01	 1.124862e+00	-3.505965e+01
1	 7.689412e-01	 1.134304e+00	-3.721217e+01
1	 7.550963e-01	 1.143567e+00	-3.944390e+01
1	 7.411572e-01	 1.152650e+00	-4.174501e+01
1	 8.142529e-01	 1.111424e+00	-3.168088e+01
1	 8.006385e-01	 1.121271e+00	-3.365670e+01
1	 7.869189e-01	 1.130942e+00	-3.571935e+01
1	 7.730976e-01	 1.140435e+00	-3.786157e+01
1	 7.591779e-01	 1.149748e+00	-4.007602e+01
1	 7.451634e-01	 1.158880e+00	-4.235522e+01
1	 8.186306e-01	 1.117400e+00	-3.227953e+01
1	 8.049430e-01	 1.127300e+00	-3.426025e+01
1	 7.911497e-01	 1.137023e+00	-3.631846e+01
1	 7.772540e-01	 1.146566e+00	-3.844869e+01
1	 7.632595e-01	 1.155929e+00	-4.064542e+01
1	 7.491697e-01	 1.165111e+00	-4.290309e+01
1	 8.230083e-01	 1.123375e+00	-3.282605e+01
1	 8.092475e-01	 1.133328e+00	-3.480661e+01
1	 7.953804e-01	 1.143103e+00	-3.685735e+01
1	 7.814105e-01	 1.152698e+00	-3.897413e+01
1	 7.673412e-01	 1.162111e+00	-4.115278e+01
1	 7.531760e-01	 1.171341e+00	-4.338915e+01
1	 8.273860e-01	 1.129350e+00	-3.331973e+01
1	 8.135520e-01	 1.139356e+00	-3.529572e+01
1	 7.996112e-01	 1.149183e+00	-3.733639e+01
1	 7.855669e-01	 1.158829e+00	-3.943849e+01
1	 7.714228e-01	 1.168292e+00	-4.159875e+01
1	 7.571822e-01	 1.177572e+00	-4.381394e+01
1	 8.317637e-01	 1.135326e+00	-3.375989e+01
1	 8.178565e-01	 1.145385e+00	-3.572750e+01
1	 8.038419e-01	 1.155264e+00	-3.775593e+01
1	 7.897233e-01	 1.164960e+00	-3.984237e+01
1	 7.755044e-01	 1.174474e+00	-4.198398e+01
1	 7.611885e-01	 1.183802e+00	-4.417798e+01
1	 7.411572e-01	 1.152650e+00	-4.174501e+01
1	 7.271271e-01	 1.161551e+00	-4.403318e+01
1	 7.130097e-01	 1.170270e+00	-4.624042e+01
1	 6.988084e-01	 1.178805e+00	-4.837840e+01
1	 6.845267e-01	 1.187155e+00	-5.045910e+01
1	 6.701682e-01	 1.195320e+00	-5.249474e+01
1	 7.451634e-01	 1.158880e+00	-4.235522e+01
1	 7.310576e-01	 1.167830e+00	-4.462091e+01
1	 7.168638e-01	 1.176596e+00	-4.680740e+01
1	 7.025857e-01	 1.185177e+00	-4.892631e+01
1	 6.882269e-01	 1.193573e+00	-5.098954e+01
1	 6.737908e-01	 1.201781e+00	-5.300924e+01
1	 7.491697e-01	 1.165111e+00	-4.290309e+01
1	 7.349880e-01	 1.174108e+00	-4.514669e+01
1	 7.207179e-01	 1.182922e+00	-4.731251e+01
1	 7.063631e-01	 1.191549e+00	-4.941211e+01
1	 6.919270e-01	 1.199990e+00	-5.145737e+01
1	 6.774133e-01	 1.208242e+00	-5.346037e+01
1	 7.531760e-01	 1.171341e+00	-4.338915e+01
1	 7.389184e-01	 1.180387e+00	-4.561089e+01
1	 7.245720e-01	 1.189247e+00	-4.775597e+01
1	 7.101404e-01	 1.197921e+00	-4.983596e+01
1	 6.956271e-01	 1.206407e+00	-5.186269e+01
1	 6.810358e-01	 1.214703e+00	-5.384827e+01
1	 7.571822e-01	 1.177572e+00	-4.381394e+01
1	 7.428488e-01	 1.186666e+00	-4.601386e+01
1	 7.284261e-01	 1.195573e+00	-4.813802e+01
1	 7.139178e-01	 1.204293e+00	-5.019799e+01
1	 6.993273e-01	 1.212824e+00	-5.220564e+01
1	 6.846583e-01	 1.221165e+00	-5.417308e+01
1	 7.611885e-01	 1.183802e+00	-4.417798e+01
1	 7.467792e-01	 1.192944e+00	-4.635593e+01
1	 7.322802e-01	 1.201899e+00	-4.845886e+01
1	 7.176951e-01	 1.210665e+00	-5.049835e+01
1	 7.030274e-01	 1.219241e+00	-5.248632e+01
1	 6.882809e-01	 1.227626e+00	-5.443493e+01
1	 6.701682e-01	 1.195320e+00	-5.249474e+01
1	 6.557365e-01	 1.203297e+00	-5.446404e+01
1	 6.412350e-01	 1.211087e+00	-5.633110e+01
1	 6.266674e-01	 1.218689e+00	-5.808618e+01
1	 6.120372e-01	 1.226102e+00	-5.971927e+01
1	 5.973481e-01	 1.233325e+00	-6.122009e+01
1	 6.737908e-01	 1.201781e+00	-5.300924e+01
1	 6.592810e-01	 1.209802e+00	-5.496092e+01
1	 6.447011e-01	 1.217634e+00	-5.680620e+01
1	 6.300548e-01	 1.225277e+00	-5.853634e+01
1	 6.153455e-01	 1.232729e+00	-6.014235e+01
1	 6.005770e-01	 1.239991e+00	-6.161502e+01
1	 6.774133e-01	 1.208242e+00	-5.346037e+01
1	 6.628255e-01	 1.216306e+00	-5.539366e+01
1	 6.481673e-01	 1.224180e+00	-5.721653e+01
1	 6.334422e-01	 1.231864e+00	-5.892124e+01
1	 6.186539e-01	 1.239357e+00	-6.049981e+01
1	 6.038059e-01	 1.246658e+00	-6.194407e+01
1	 6.810358e-01	 1.214703e+00	-5.384827e+01
1	 6.663700e-01	 1.222810e+00	-5.576241e+01
1	 6.516334e-01	 1.230727e+00	-5.756225e+01
1	 6.368296e-01	 1.238452e+00	-5.924100e+01
1	 6.219622e-01	 1.245984e+00	-6.079169e+01
1	 6.070348e-01	 1.253325e+00	-6.220713e+01
1	 6.846583e-01	 1.221165e+00	-5.417308e+01
1	 6.699146e-01	 1.229315e+00	-5.606735e+01
1	 6.550995e-01	 1.237273e+00	-5.784351e+01
1	 6.402170e-01	 1.245039e+00	-5.949573e+01
1	 6.252705e-01	 1.252612e+00	-6.101799e+01
1	 6.102637e-01	 1.259991e+00	-6.240412e+01
1	 6.882809e-01	 1.227626e+00	-5.443493e+01
1	 6.734591e-01	 1.235819e+00	-5.630864e+01
1	 6.585657e-01	 1.243819e+00	-5.806047e+01
1	 6.436044e-01	 1.251627e+00	-5.968553e+01
1	 6.285788e-01	 1.259240e+00	-6.117875e+01
1	 6.134926e-01	 1.266658e+00	-6.253492e+01
1	 5.973481e-01	 1.233325e+00	-6.122009e+01
1	 5.826035e-01	 1.240358e+00	-6.257564e+01
1	 5.678070e-01	 1.247201e+00	-6.377944e+01
1	 5.529623e-01	 1.253853e+00	-6.483085e+01
1	 5.380728e-01	 1.260314e+00	-6.572929e+01
1	 5.231421e-01	 1.266585e+00	-6.647422e+01
1	 6.005770e-01	 1.239991e+00	-6.161502e+01
1	 5.857527e-01	 1.247063e+00	-6.294333e+01
1	 5.708763e-01	 1.253943e+00	-6.412171e+01
1	 5.559513e-01	 1.260631e+00	-6.514899e+01
1	 5.409813e-01	 1.267127e+00	-6.602400e+01
1	 5.259699e-01	 1.273431e+00	-6.674561e+01
1	 6.038059e-01	 1.246658e+00	-6.194407e+01
1	 5.889019e-01	 1.253767e+00	-6.324469e+01
1	 5.739455e-01	 1.260684e+00	-6.439682e+01
1	 5.589403e-01	 1.267408e+00	-6.539886e+01
1	 5.438898e-01	 1.273940e+00	-6.624918e+01
1	 5.287977e-01	 1.280278e+00	-6.694615e+01
1	 6.070348e-01	 1.253325e+00	-6.220713e+01
1	 5.920511e-01	 1.260472e+00	-6.347950e+01
1	 5.770147e-01	 1.267426e+00	-6.460450e+01
1	 5.619293e-01	 1.274186e+00	-6.558019e+01
1	 5.467983e-01	 1.280752e+00	-6.640459e+01
1	 5.316255e-01	 1.287124e+00	-6.707570e+01
1	 6.102637e-01	 1.259991e+00	-6.240412e+01
1	 5.952003e-01	 1.267177e+00	-6.364755e+01
1	 5.800840e-01	 1.274167e+00	-6.474448e+01
1	 5.649182e-01	 1.280963e+00	-6.569271e+01
1	 5.497068e-01	 1.287565e+00	-6.649002e+01
1	 5.344533e-01	 1.293971e+00	-6.713415e+01
1	 6.134926e-01	 1.266658e+00	-6.253492e+01
1	 5.983495e-01	 1.273881e+00	-6.374863e+01
1	 5.831532e-01	 1.280909e+00	-6.481648e+01
1	 5.679072e-01	 1.287741e+00	-6.573614e+01
1	 5.526153e-01	 1.294377e+00	-6.650523e+01
1	 5.372811e-01	 1.300817e+00	-6.712136e+01
1	 5.231421e-01	 1.266585e+00	-6.647422e+01
1	 5.081737e-01	 1.272664e+00	-6.706099e+01
1	 4.931711e-01	 1.278553e+00	-6.748817e+01
1	 4.781378e-01	 1.284250e+00	-6.776013e+01
1	 4.630772e-01	 1.289758e+00	-6.788128e+01
1	 4.479929e-01	 1.295074e+00	-6.785610e+01
1	 5.259699e-01	 1.273431e+00	-6.674561e+01
1	 5.109205e-01	 1.279544e+00	-6.730914e+01
1	 4.958369e-01	 1.285464e+00	-6.771415e+01
1	 4.807223e-01	 1.291192e+00	-6.796589e+01
1	 4.655803e-01	 1.296729e+00	-6.806971e+01
1	 4.504145e-01	 1.302075e+00	-6.803103e+01
1	 5.287977e-01	 1.280278e+00	-6.694615e+01
1	 5.136674e-01	 1.286423e+00	-6.748540e+01
1	 4.985026e-01	 1.292375e+00	-6.786763e+01
1	 4.833068e-01	 1.298134e+00	-6.809891e+01
1	 4.680835e-01	 1.303701e+00	-6.818541e+01
1	 4.528361e-01	 1.309075e+00	-6.813336e+01
1	 5.316255e-01	 1.287124e+00	-6.707570e+01
1	 5.164143e-01	 1.293302e+00	-6.758972e+01
1	 5.011684e-01	 1.299286e+00	-6.794863e+01
1	 4.858914e-01	 1.305076e+00	-6.815922e+01
1	 4.705866e-01	 1.310672e+00	-6.822836e+01
1	 4.552576e-01	 1.316075e+00	-6.816302e+01
1	 5.344533e-01	 1.293971e+00	-6.713415e+01
1	 5.191612e-01	 1.300181e+00	-6.762208e+01
1	 5.038342e-01	 1.306197e+00	-6.795719e+01
1	 4.884759e-01	 1.312018e+00	-6.814685e+01
1	 4.730897e-01	 1.317644e+00	-6.819856e+01
1	 4.576792e-01	 1.323076e+00	-6.811991e+01
1	 5.372811e-01	 1.300817e+00	-6.712136e+01
1	 5.219081e-01	 1.307061e+00	-6.758246e+01
1	 5.065000e-01	 1.313108e+00	-6.789332e+01
1	 4.910604e-01	 1.318960e+00	-6.806183e+01
1	 4.755928e-01	 1.324616e+00	-6.809601e+01
1	 4.601008e-01	 1.330076e+00	-6.800396e+01
1	 4.479929e-01	 1.295074e+00	-6.785610e+01
1	 4.328882e-01	 1.300201e+00	-6.769271e+01
1	 4.177665e-01	 1.305138e+00	-6.738780e+01
1	 4.026312e-01	 1.309887e+00	-6.692881e+01
1	 3.874855e-01	 1.314447e+00	-6.630330e+01
1	 3.723329e-01	 1.318819e+00	-6.549898e+01
1	 4.504145e-01	 1.302075e+00	-6.803103e+01
1	 4.352281e-01	 1.307229e+00	-6.785784e+01
1	 4.200247e-01	 1.312193e+00	-6.754653e+01
1	 4.048076e-01	 1.316967e+00	-6.708520e+01
1	 3.895801e-01	 1.321552e+00	-6.646204e+01
1	 3.743455e-01	 1.325948e+00	-6.566539e+01
1	 4.528361e-01	 1.309075e+00	-6.813336e+01
1	 4.375681e-01	 1.314257e+00	-6.795048e+01
1	 4.222829e-01	 1.319248e+00	-6.763283e+01
1	 4.069839e-01	 1.324048e+00	-6.716934e+01
1	 3.916746e-01	 1.328657e+00	-6.654900e+01
1	 3.763581e-01	 1.333076e+00	-6.576094e+01
1	 4.552576e-01	 1.316075e+00	-6.816302e+01
1	 4.399080e-01	 1.321285e+00	-6.797046e+01
1	 4.245411e-01	 1.326303e+00	-6.764651e+01
1	 4.091603e-01	 1.331128e+00	-6.718106e+01
1	 3.937691e-01	 1.335762e+00	-6.656408e+01
1	 3.783707e-01	 1.340205e+00	-6.578562e+01
1	 4.576792e-01	 1.323076e+00	-6.811991e+01
1	 4.422479e-01	 1.328314e+00	-6.791764e+01
1	 4.267993e-01	 1.333358e+00	-6.758741e+01
1	 4.113367e-01	 1.338209e+00	-6.712022e+01
1	 3.958636e-01	 1.342867e+00	-6.650718e+01
1	 3.803834e-01	 1.347334e+00	-6.573944e+01
1	 4.601008e-01	 1.330076e+00	-6.800396e+01
1	 4.445879e-01	 1.335342e+00	-6.779187e+01
1	 4.290575e-01	 1.340412e+00	-6.745534e+01
1	 4.135131e-01	 1.345289e+00	-6.698666e+01
1	 3.979581e-01	 1.349972e+00	-6.637821e+01
1	 3.823960e-01	 1.354463e+00	-6.562242e+01
1	 3.723329e-01	 1.318819e+00	-6.549898e+01
1	 3.571765e-01	 1.323004e+00	-6.456706e+01
1	 3.420196e-01	 1.327003e+00	-6.356407e+01
1	 3.268653e-01	 1.330817e+00	-6.248588e+01
1	 3.117169e-01	 1.334447e+00	-6.132856e+01
1	 2.965773e-01	 1.337893e+00	-6.008828e+01
1	 3.743455e-01	 1.325948e+00	-6.566539e+01
1	 3.591072e-01	 1.330155e+00	-6.474750e+01
1	 3.438684e-01	 1.334176e+00	-6.376453e+01
1	 3.286322e-01	 1.338011e+00	-6.271086e+01
1	 3.134018e-01	 1.341660e+00	-6.158106e+01
1	 2.981804e-01	 1.345125e+00	-6.036985e+01
1	 3.763581e-01	 1.333076e+00	-6.576094e+01
1	 3.610379e-01	 1.337307e+00	-6.485854e+01
1	 3.457171e-01	 1.341349e+00	-6.389754e+01
1	 3.303990e-01	 1.345204e+00	-6.287081e+01
1	 3.150868e-01	 1.348873e+00	-6.177136e+01
1	 2.997835e-01	 1.352356e+00	-6.059238e+01
1	 3.783707e-01	 1.340205e+00	-6.578562e+01
1	 3.629686e-01	 1.344458e+00	-6.490028e+01
1	 3.475659e-01	 1.348522e+00	-6.396330e+01
1	 3.321659e-01	 1.352398e+00	-6.296596e+01
1	 3.167717e-01	 1.356086e+00	-6.189967e+01
1	 3.013866e-01	 1.359588e+00	-6.075604e+01
1	 3.803834e-01	 1.347334e+00	-6.573944e+01
1	 3.648993e-01	 1.351610e+00	-6.487283e+01
1	 3.494146e-01	 1.355695e+00	-6.396198e+01
1	 3.339327e-01	 1.359591e+00	-6.299651e+01
1	 3.184567e-01	 1.363299e+00	-6.196620e+01
1	 3.029898e-01	 1.366820e+00	-6.086103e+01
1	 3.823960e-01	 1.354463e+00	-6.562242e+01
1	 3.668299e-01	 1.358761e+00	-6.477631e+01
1	 3.512634e-01	 1.362868e+00	-6.389376e+01
1	 3.356995e-01	 1.366785e+00	-6.296268e+01
1	 3.201416e-01	 1.370513e+00	-6.197118e+01
1	 3.045929e-01	 1.374052e+00	-6.090752e+01
1	 2.965773e-01	 1.337893e+00	-6.008828e+01
1	 2.814496e-01	 1.341157e+00	-5.877949e+01
1	 2.663370e-01	 1.344239e+00	-5.743133e+01
1	 2.512422e-01	 1.347142e+00	-5.606219e+01
1	 2.361683e-01	 1.349866e+00	-5.469044e+01
1	 2.211181e-01	 1.352413e+00	-5.333440e+01
1	 2.981804e-01	 1.345125e+00	-6.036985e+01
1	 2.829710e-01	 1.348406e+00	-5.909172e+01
1	 2.677766e-01	 1.351506e+00	-5.777670e+01
1	 2.526003e-01	 1.354424e+00	-5.644302e+01
1	 2.374449e-01	 1.357163e+00	-5.510890e+01
1	 2.223133e-01	 1.359724e+00	-5.379243e+01
1	 2.997835e-01	 1.352356e+00	-6.059238e+01
1	 2.844923e-01	 1.355656e+00	-5.934833e+01
1	 2.692163e-01	 1.358772e+00	-5.807016e+01
1	 2.539583e-01	 1.361706e+00	-5.677588e+01
1	 2.387215e-01	 1.364460e+00	-5.548351e+01
1	 2.235086e-01	 1.367034e+00	-5.421097e+01
1	 3.013866e-01	 1.359588e+00	-6.075604e+01
1	 2.860137e-01	 1.362905e+00	-5.954950e+01
1	 2.706559e-01	 1.366038e+00	-5.831183e+01
1	 2.553164e-01	 1.368988e+00	-5.706087e+01
1	 2.399981e-01	 1.371756e+00	-5.581441e+01
1	 2.247038e-01	 1.374344e+00	-5.459017e+01
1	 3.029898e-01	 1.366820e+00	-6.086103e+01
1	 2.875350e-01	 1.370155e+00	-5.969535e+01
1	 2.720956e-01	 1.373304e+00	-5.850184e+01
1	 2.566745e-01	 1.376270e+00	-5.729811e+01
1	 2.412746e-01	 1.379053e+00	-5.610173e+01
1	 2.258990e-01	 1.381655e+00	-5.493019e+01
1	 3.045929e-01	 1.374052e+00	-6.090752e+01
1	 2.890564e-01	 1.377404e+00	-5.978604e+01
1	 2.735353e-01	 1.380570e+00	-5.864031e+01
1	 2.580325e-01	 1.383552e+00	-5.748772e+01
1	 2.425512e-01	 1.386349e+00	-5.634559e+01
1	 2.270943e-01	 1.388965e+00	-5.523119e+01
1	 2.211181e-01	 1.352413e+00	-5.333440e+01
1	 2.060944e-01	 1.354784e+00	-5.200865e+01
1	 1.911000e-01	 1.356980e+00	-5.071923e+01
1	 1.761376e-01	 1.359003e+00	-4.947145e+01
1	 1.612099e-01	 1.360855e+00	-4.827050e+01
1	 1.463195e-01	 1.362536e+00	-4.712143e+01
1	 2.223133e-01	 1.359724e+00	-5.379243e+01
1	 2.072084e-01	 1.362107e+00	-5.250738e+01
1	 1.921330e-01	 1.364315e+00	-5.125852e+01
1	 1.770897e-01	 1.366349e+00	-5.005039e+01
1	 1.620813e-01	 1.368211e+00	-4.888739e+01
1	 1.471104e-01	 1.369902e+00	-4.777381e+01
1	 2.235086e-01	 1.367034e+00	-5.421097e+01
1	 2.083225e-01	 1.369430e+00	-5.297115e+01
1	 1.931660e-01	 1.371650e+00	-5.176754e+01
1	 1.780418e-01	 1.373695e+00	-5.060376e+01
1	 1.629527e-01	 1.375567e+00	-4.948334e+01
1	 1.479013e-01	 1.377267e+00	-4.840971e+01
1	 2.247038e-01	 1.374344e+00	-5.459017e+01
1	 2.094365e-01	 1.376754e+00	-5.340017e+01
1	 1.941989e-01	 1.378985e+00	-5.224649e+01
1	 1.789939e-01	 1.381041e+00	-5.113176e+01
1	 1.638241e-01	 1.382923e+00	-5.005855e+01
1	 1.486922e-01	 1.384632e+00	-4.902929e+01
1	 2.258990e-01	 1.381655e+00	-5.493019e+01
1	 2.105505e-01	 1.384077e+00	-5.379461e+01
1	 1.952319e-01	 1.386320e+00	-5.269557e+01
1	 1.799460e-01	 1.388387e+00	-5.163460e+01
1	 1.646955e-01	 1.390279e+00	-5.061319e+01
1	 1.494831e-01	 1.391997e+00	-4.963271e+01
1	 2.270943e-01	 1.388965e+00	-5.523119e+01
1	 2.116645e-01	 1.391400e+00	-5.415466e+01
1	 1.962649e-01	 1.393656e+00	-5.311497e+01
1	 1.808981e-01	 1.395733e+00	-5.211246e+01
1	 1.655669e-01	 1.397635e+00	-5.114745e+01
1	 1.502741e-01	 1.399362e+00	-5.022014e+01
1	 1.463195e-01	 1.362536e+00	-4.712143e+01
1	 1.314689e-01	 1.364049e+00	-4.603205e+01
1	 1.166606e-01	 1.365396e+00	-4.501261e+01
1	 1.018971e-01	 1.366577e+00	-4.407156e+01
1	 8.718081e-02	 1.367594e+00	-4.321707e+01
1	 7.251399e-02	 1.368450e+00	-4.245704e+01
1	 1.471104e-01	 1.369902e+00	-4.777381e+01
1	 1.321795e-01	 1.371423e+00	-4.671686e+01
1	 1.172912e-01	 1.372776e+00	-4.572619e+01
1	 1.024479e-01	 1.373964e+00	-4.480948e+01
1	 8.765205e-02	 1.374987e+00	-4.397418e+01
1	 7.290595e-02	 1.375847e+00	-4.322747e+01
1	 1.479013e-01	 1.377267e+00	-4.840971e+01
1	 1.328902e-01	 1.378796e+00	-4.738934e+01
1	 1.179218e-01	 1.380157e+00	-4.643123e+01
1	 1.029987e-01	 1.381351e+00	-4.554228e+01
1	 8.812330e-02	 1.382379e+00	-4.472915e+01
1	 7.329792e-02	 1.383245e+00	-4.399827e+01
1	 1.486922e-01	 1.384632e+00	-4.902929e+01
1	 1.336008e-01	 1.386169e+00	-4.804965e+01
1	 1.185524e-01	 1.387537e+00	-4.712788e+01
1	 1.035495e-01	 1.388737e+00	-4.627006e+01
1	 8.859455e-02	 1.389772e+00	-4.548207e+01
1	 7.368989e-02	 1.390642e+00	-4.476953e+01
1	 1.494831e-01	 1.391997e+00	-4.963271e+01
1	 1.343114e-01	 1.393542e+00	-4.869791e+01
1	 1.191830e-01	 1.394918e+00	-4.781624e+01
1	 1.041003e-01	 1.396124e+00	-4.699293e+01
1	 8.906580e-02	 1.397164e+00	-4.623302e+01
1	 7.408186e-02	 1.398039e+00	-4.554134e+01
1	 1.502741e-01	 1.399362e+00	-5.022014e+01
1	 1.350221e-01	 1.400916e+00	-4.933426e+01
1	 1.198136e-01	 1.402298e+00	-4.849642e+01
1	 1.046511e-01	 1.403511e+00	-4.771097e+01
1	 8.953704e-02	 1.404556e+00	-4.698209e+01
1	 7.447382e-02	 1.405436e+00	-4.631376e+01
1	 7.251399e-02	 1.368450e+00	-4.245704e+01
1	 5.789894e-02	 1.369147e+00	-4.179858e+01
1	 4.333789e-02	 1.369685e+00	-4.124881e+01
1	 2.883299e-02	 1.370067e+00	-4.081517e+01
1	 1.438635e-02	 1.370295e+00	-4.050473e+01
1	 0.000000e+00	 1.370370e+00	-4.032417e+01
1	 7.290595e-02	 1.375847e+00	-4.322747e+01
1	 5.821191e-02	 1.376547e+00	-4.257565e+01
1	 4.357215e-02	 1.377089e+00	-4.202526e+01
1	 2.898884e-02	 1.377473e+00	-4.158331e+01
1	 1.446411e-02	 1.377702e+00	-4.125648e+01
1	 0.000000e+00	 1.377778e+00	-4.105108e+01
1	 7.329792e-02	 1.383245e+00	-4.399827e+01
1	 5.852488e-02	 1.383948e+00	-4.335514e+01
1	 4.380641e-02	 1.384492e+00	-4.280560e+01
1	 2.914470e-02	 1.384879e+00	-4.235620e+01
1	 1.454187e-02	 1.385109e+00	-4.201313e+01
1	 0.000000e+00	 1.385185e+00	-4.178224e+01
1	 7.368989e-02	 1.390642e+00	-4.476953e+01
1	 5.883784e-02	 1.391349e+00	-4.413711e+01
1	 4.404067e-02	 1.391896e+00	-4.358993e+01
1	 2.930055e-02	 1.392284e+00	-4.313394e+01
1	 1.461964e-02	 1.392516e+00	-4.277479e+01
1	 0.000000e+00	 1.392593e+00	-4.251778e+01
1	 7.408186e-02	 1.398039e+00	-4.554134e+01
1	 5.915081e-02	 1.398750e+00	-4.492166e+01
1	 4.427493e-02	 1.399300e+00	-4.437832e+01
1	 2.945641e-02	 1.399690e+00	-4.391662e+01
1	 1.469740e-02	 1.399923e+00	-4.354157e+01
1	 0.000000e+00	 1.400000e+00	-4.325786e+01
1	 7.447382e-02	 1.405436e+00	-4.631376e+01
1	 5.946378e-02	 1.406151e+00	-4.570886e+01
1	 4.450918e-02	 1.406703e+00	-4.517086e+01
1	 2.961226e-02	 1.407096e+00	-4.470433e+01
1	 1.477517e-02	 1.407330e+00	-4.431358e+01
1	 0.000000e+00	 1.407407e+00	-4.400261e+01
1	 1.407407e+00	 0.000000e+00	 1.879524e+01
1	 1.407330e+00	 1.477517e-02	 1.840137e+01
1	 1.407096e+00	 2.961226e-02	 1.804238e+01
1	 1.406703e+00	 4.450918e-02	 1.771705e+01
1	 1.406151e+00	 5.946378e-02	 1.742409e+01
1	 1.405436e+00	 7.447382e-02	 1.716220e+01
1	 1.414815e+00	 0.000000e+00	 1.868250e+01
1	 1.414737e+00	 1.485293e-02	 1.828727e+01
1	 1.414502e+00	 2.976811e-02	 1.792496e+01
1	 1.414107e+00	 4.474344e-02	 1.759449e+01
1	 1.413551e+00	 5.977675e-02	 1.729474e+01
1	 1.412833e+00	 7.486579e-02	 1.702454e+01
1	 1.422222e+00	 0.000000e+00	 1.857368e+01
1	 1.422144e+00	 1.493069e-02	 1.817750e+01
1	 1.421907e+00	 2.992397e-02	 1.781214e+01
1	 1.421511e+00	 4.497770e-02	 1.747665e+01
1	 1.420952e+00	 6.008971e-02	 1.717009e+01
1	 1.420230e+00	 7.525776e-02	 1.689142e+01
1	 1.429630e+00	 0.000000e+00	 1.846880e+01
1	 1.429551e+00	 1.500846e-02	 1.807212e+01
1	 1.429313e+00	 3.007982e-02	 1.770398e+01
1	 1.428915e+00	 4.521196e-02	 1.736362e+01
1	 1.428353e+00	 6.040268e-02	 1.705023e+01
1	 1.427627e+00	 7.564973e-02	 1.676295e+01
1	 1.437037e+00	 0.000000e+00	 1.836793e+01
1	 1.436958e+00	 1.508622e-02	 1.797120e+01
1	 1.436719e+00	 3.023568e-02	 1.760058e+01
1	 1.436318e+00	 4.544622e-02	 1.725548e+01
1	 1.435754e+00	 6.071565e-02	 1.693526e+01
1	 1.435024e+00	 7.604169e-02	 1.663925e+01
1	 1.444444e+00	 0.000000e+00	 1.827108e+01
1	 1.444365e+00	 1.516399e-02	 1.787477e+01
1	 1.444125e+00	 3.039153e-02	 1.750199e+01
1	 1.443722e+00	 4.568048e-02	 1.715232e+01
1	 1.443155e+00	 6.102861e-02	 1.682530e+01
1	 1.442421e+00	 7.643366e-02	 1.652043e+01
1	 1.405436e+00	 7.447382e-02	 1.716220e+01
1	 1.404556e+00	 8.953704e-02	 1.693357e+01
1	 1.403511e+00	 1.046511e-01	 1.674057e+01
1	 1.402298e+00	 1.198136e-01	 1.658202e+01
1	 1.400916e+00	 1.350221e-01	 1.645671e+01
1	 1.399362e+00	 1.502741e-01	 1.636340e+01
1	 1.412833e+00	 7.486579e-02	 1.702454e+01
1	 1.411949e+00	 9.000829e-02	 1.678628e+01
1	 1.410898e+00	 1.052019e-01	 1.658254e+01
1	 1.409679e+00	 1.204442e-01	 1.641231e+01
1	 1.408289e+00	 1.357327e-01	 1.627459e+01
1	 1.406727e+00	 1.510650e-01	 1.616830e+01
1	 1.420230e+00	 7.525776e-02	 1.689142e+01
1	 1.419341e+00	 9.047954e-02	 1.664324e+01
1	 1.418285e+00	 1.057527e-01	 1.642833e+01
1	 1.417059e+00	 1.210748e-01	 1.624591e+01
1	 1.415662e+00	 1.364434e-01	 1.609516e+01
1	 1.414092e+00	 1.518559e-01	 1.597525e+01
1	 1.427627e+00	 7.564973e-02	 1.676295e+01
1	 1.426734e+00	 9.095079e-02	 1.650457e+01
1	 1.425672e+00	 1.063035e-01	 1.627808e+01
1	 1.424440e+00	 1.217054e-01	 1.608295e+01
1	 1.423035e+00	 1.371540e-01	 1.591858e+01
1	 1.421457e+00	 1.526468e-01	 1.578437e+01
1	 1.435024e+00	 7.604169e-02	 1.663925e+01
1	 1.434126e+00	 9.142203e-02	 1.637039e+01
1	 1.433059e+00	 1.068543e-01	 1.613192e+01
1	 1.431820e+00	 1.223360e-01	 1.592355e+01
1	 1.430409e+00	 1.378647e-01	 1.574496e+01
1	 1.428822e+00	 1.534377e-01	 1.559580e+01
1	 1.442421e+00	 7.643366e-02	 1.652043e+01
1	 1.441518e+00	 9.189328e-02	 1.624082e+01
1	 1.440446e+00	 1.074051e-01	 1.598996e+01
1	 1.439201e+00	 1.229666e-01	 1.576785e+01
1	 1.437782e+00	 1.385753e-01	 1.557444e+01
1	 1.436187e+00	 1.542286e-01	 1.540968e+01
1	 1.399362e+00	 1.502741e-01	 1.636340e+01
1	 1.397635e+00	 1.655669e-01	 1.630048e+01
1	 1.395733e+00	 1.808981e-01	 1.626676e+01
1	 1.393656e+00	 1.962649e-01	 1.626157e+01
1	 1.391400e+00	 2.116645e-01	 1.628424e+01
1	 1.388965e+00	 2.270943e-01	 1.633407e+01
1	 1.406727e+00	 1.510650e-01	 1.616830e+01
1	 1.404991e+00	 1.664383e-01	 1.609189e+01
1	 1.403079e+00	 1.818502e-01	 1.604420e+01
1	 1.400991e+00	 1.972978e-01	 1.602477e+01
1	 1.398723e+00	 2.127785e-01	 1.603311e+01
1	 1.396275e+00	 2.282895e-01	 1.606869e+01
1	 1.414092e+00	 1.518559e-01	 1.597525e+01
1	 1.412347e+00	 1.673097e-01	 1.588466e+01
1	 1.410425e+00	 1.828023e-01	 1.582229e+01
1	 1.408326e+00	 1.983308e-01	 1.578788e+01
1	 1.406046e+00	 2.138926e-01	 1.578110e+01
1	 1.403586e+00	 2.294847e-01	 1.580161e+01
1	 1.421457e+00	 1.526468e-01	 1.578437e+01
1	 1.419703e+00	 1.681811e-01	 1.567892e+01
1	 1.417771e+00	 1.837544e-01	 1.560119e+01
1	 1.415661e+00	 1.993638e-01	 1.555108e+01
1	 1.413369e+00	 2.150066e-01	 1.552846e+01
1	 1.410896e+00	 2.306800e-01	 1.553315e+01
1	 1.428822e+00	 1.534377e-01	 1.559580e+01
1	 1.427059e+00	 1.690526e-01	 1.547482e+01
1	 1.425117e+00	 1.847065e-01	 1.538106e+01
1	 1.422996e+00	 2.003968e-01	 1.531458e+01
1	 1.420693e+00	 2.161206e-01	 1.527542e+01
1	 1.418206e+00	 2.318752e-01	 1.526359e+01
1	 1.436187e+00	 1.542286e-01	 1.540968e+01
1	 1.434415e+00	 1.699240e-01	 1.527250e+01
1	 1.432463e+00	 1.856586e-01	 1.516205e+01
1	 1.430331e+00	 2.014297e-01	 1.507856e+01
1	 1.428016e+00	 2.172346e-01	 1.502222e+01
1	 1.425517e+00	 2.330704e-01	 1.499321e+01
1	 1.388965e+00	 2.270943e-01	 1.633407e+01
1	 1.386349e+00	 2.425512e-01	 1.641481e+01
1	 1.383552e+00	 2.580325e-01	 1.652852e+01
1	 1.380570e+00	 2.735353e-01	 1.667194e+01
1	 1.377404e+00	 2.890564e-01	 1.684188e+01
1	 1.374052e+00	 3.045929e-01	 1.703519e+01
1	 1.396275e+00	 2.282895e-01	 1.606869e+01
1	 1.393646e+00	 2.438278e-01	 1.613592e+01
1	 1.390833e+00	 2.593906e-01	 1.623743e+01
1	 1.387836e+00	 2.749749e-01	 1.637001e+01
1	 1.384654e+00	 2.905777e-01	 1.653049e+01
1	 1.381284e+00	 3.061960e-01	 1.671577e+01
1	 1.403586e+00	 2.294847e-01	 1.580161e+01
1	 1.400942e+00	 2.451044e-01	 1.585450e+01
1	 1.398115e+00	 2.607487e-01	 1.594296e+01
1	 1.395103e+00	 2.764146e-01	 1.606386e+01
1	 1.391903e+00	 2.920991e-01	 1.621409e+01
1	 1.388516e+00	 3.077991e-01	 1.639060e+01
1	 1.410896e+00	 2.306800e-01	 1.553315e+01
1	 1.408239e+00	 2.463810e-01	 1.557088e+01
1	 1.405397e+00	 2.621067e-01	 1.564547e+01
1	 1.402369e+00	 2.778542e-01	 1.575385e+01
1	 1.399153e+00	 2.936204e-01	 1.589301e+01
1	 1.395748e+00	 3.094022e-01	 1.605999e+01
1	 1.418206e+00	 2.318752e-01	 1.526359e+01
1	 1.415536e+00	 2.476576e-01	 1.528542e+01
1	 1.412679e+00	 2.634648e-01	 1.534531e+01
1	 1.409635e+00	 2.792939e-01	 1.544034e+01
1	 1.406402e+00	 2.951418e-01	 1.556759e+01
1	 1.402979e+00	 3.110054e-01	 1.572419e+01
1	 1.425517e+00	 2.330704e-01	 1.499321e+01
1	 1.422832e+00	 2.489342e-01	 1.499844e+01
1	 1.419961e+00	 2.648229e-01	 1.504286e+01
1	 1.416901e+00	 2.807336e-01	 1.512369e+01
1	 1.413652e+00	 2.966631e-01	 1.523814e+01
1	 1.410211e+00	 3.126085e-01	 1.538348e+01
1	 1.374052e+00	 3.045929e-01	 1.703519e+01
1	 1.370513e+00	 3.201416e-01	 1.724030e+01
1	 1.366785e+00	 3.356995e-01	 1.744842e+01
1	 1.362868e+00	 3.512634e-01	 1.766067e+01
1	 1.358761e+00	 3.668299e-01	 1.787810e+01
1	 1.354463e+00	 3.823960e-01	 1.810175e+01
1	 1.381284e+00	 3.061960e-01	 1.671577e+01
1	 1.377726e+00	 3.218266e-01	 1.691339e+01
1	 1.373979e+00	 3.374664e-01	 1.711386e+01
1	 1.370041e+00	 3.531121e-01	 1.731850e+01
1	 1.365912e+00	 3.687606e-01	 1.752862e+01
1	 1.361591e+00	 3.844086e-01	 1.774546e+01
1	 1.388516e+00	 3.077991e-01	 1.639060e+01
1	 1.384939e+00	 3.235116e-01	 1.658010e+01
1	 1.381172e+00	 3.392332e-01	 1.677234e+01
1	 1.377214e+00	 3.549609e-01	 1.696888e+01
1	 1.373064e+00	 3.706913e-01	 1.717124e+01
1	 1.368720e+00	 3.864212e-01	 1.738090e+01
1	 1.395748e+00	 3.094022e-01	 1.605999e+01
1	 1.392152e+00	 3.251965e-01	 1.624064e+01
1	 1.388366e+00	 3.410001e-01	 1.642403e+01
1	 1.384387e+00	 3.568096e-01	 1.661193e+01
1	 1.380215e+00	 3.726220e-01	 1.680608e+01
1	 1.375849e+00	 3.884338e-01	 1.700817e+01
1	 1.402979e+00	 3.110054e-01	 1.572419e+01
1	 1.399366e+00	 3.268815e-01	 1.589524e+01
1	 1.395559e+00	 3.427669e-01	 1.606911e+01
1	 1.391560e+00	 3.586584e-01	 1.624779e+01
1	 1.387366e+00	 3.745527e-01	 1.643325e+01
1	 1.382978e+00	 3.904464e-01	 1.662739e+01
1	 1.410211e+00	 3.126085e-01	 1.538348e+01
1	 1.406579e+00	 3.285664e-01	 1.554410e+01
1	 1.402753e+00	 3.445337e-01	 1.570773e+01
1	 1.398733e+00	 3.605072e-01	 1.587659e+01
1	 1.394518e+00	 3.764834e-01	 1.605286e+01
1	 1.390106e+00	 3.924590e-01	 1.623867e+01
1	 1.354463e+00	 3.823960e-01	 1.810175e+01
1	 1.349972e+00	 3.979581e-01	 1.829237e+01
1	 1.345289e+00	 4.135131e-01	 1.841149e+01
1	 1.340412e+00	 4.290575e-01	 1.846136e+01
1	 1.335342e+00	 4.445879e-01	 1.844435e+01
1	 1.330076e+00	 4.601008e-01	 1.836297e+01
1	 1.361591e+00	 3.844086e-01	 1.774546e+01
1	 1.357077e+00	 4.000526e-01	 1.793053e+01
1	 1.352369e+00	 4.156895e-01	 1.804584e+01
1	 1.347467e+00	 4.313157e-01	 1.809347e+01
1	 1.342370e+00	 4.469278e-01	 1.807566e+01
1	 1.337077e+00	 4.625224e-01	 1.799476e+01
1	 1.368720e+00	 3.864212e-01	 1.738090e+01
1	 1.364182e+00	 4.021472e-01	 1.756019e+01
1	 1.359450e+00	 4.178659e-01	 1.767169e+01
1	 1.354522e+00	 4.335739e-01	 1.771729e+01
1	 1.349398e+00	 4.492677e-01	 1.769902e+01
1	 1.344077e+00	 4.649440e-01	 1.761905e+01
1	 1.375849e+00	 3.884338e-01	 1.700817e+01
1	 1.371288e+00	 4.042417e-01	 1.718147e+01
1	 1.366530e+00	 4.200423e-01	 1.728918e+01
1	 1.361577e+00	 4.358321e-01	 1.733294e+01
1	 1.356426e+00	 4.516077e-01	 1.731456e+01
1	 1.351077e+00	 4.673656e-01	 1.723597e+01
1	 1.382978e+00	 3.904464e-01	 1.662739e+01
1	 1.378393e+00	 4.063362e-01	 1.679449e+01
1	 1.373611e+00	 4.222186e-01	 1.689842e+01
1	 1.368632e+00	 4.380903e-01	 1.694054e+01
1	 1.363454e+00	 4.539476e-01	 1.692239e+01
1	 1.358078e+00	 4.697871e-01	 1.684566e+01
1	 1.390106e+00	 3.924590e-01	 1.623867e+01
1	 1.385498e+00	 4.084307e-01	 1.639936e+01
1	 1.380691e+00	 4.243950e-01	 1.649952e+01
1	 1.375686e+00	 4.403485e-01	 1.654019e+01
1	 1.370482e+00	 4.562876e-01	 1.652263e+01
1	 1.365078e+00	 4.722087e-01	 1.644822e+01
1	 1.330076e+00	 4.601008e-01	 1.836297e+01
1	 1.324616e+00	 4.755928e-01	 1.820919e+01
1	 1.318960e+00	 4.910604e-01	 1.797284e+01
1	 1.313108e+00	 5.065000e-01	 1.765337e+01
1	 1.307061e+00	 5.219081e-01	 1.725029e+01
1	 1.300817e+00	 5.372811e-01	 1.676327e+01
1	 1.337077e+00	 4.625224e-01	 1.799476e+01
1	 1.331587e+00	 4.780959e-01	 1.784262e+01
1	 1.325902e+00	 4.936449e-01	 1.760896e+01
1	 1.320019e+00	 5.091658e-01	 1.729306e+01
1	 1.313940e+00	 5.246550e-01	 1.689431e+01
1	 1.307663e+00	 5.401088e-01	 1.641219e+01
1	 1.344077e+00	 4.649440e-01	 1.761905e+01
1	 1.338559e+00	 4.805991e-01	 1.746903e+01
1	 1.332844e+00	 4.962295e-01	 1.723849e+01
1	 1.326930e+00	 5.118316e-01	 1.692661e+01
1	 1.320819e+00	 5.274019e-01	 1.653265e+01
1	 1.314510e+00	 5.429366e-01	 1.605597e+01
1	 1.351077e+00	 4.673656e-01	 1.723597e+01
1	 1.345531e+00	 4.831022e-01	 1.708854e+01
1	 1.339786e+00	 4.988140e-01	 1.686158e+01
1	 1.333842e+00	 5.144974e-01	 1.655416e+01
1	 1.327698e+00	 5.301487e-01	 1.616547e+01
1	 1.321356e+00	 5.457644e-01	 1.569479e+01
1	 1.358078e+00	 4.697871e-01	 1.684566e+01
1	 1.352502e+00	 4.856053e-01	 1.670130e+01
1	 1.346728e+00	 5.013985e-01	 1.647836e+01
1	 1.340753e+00	 5.171632e-01	 1.617587e+01
1	 1.334578e+00	 5.328956e-01	 1.579297e+01
1	 1.328203e+00	 5.485922e-01	 1.532887e+01
1	 1.365078e+00	 4.722087e-01	 1.644822e+01
1	 1.359474e+00	 4.881084e-01	 1.630743e+01
1	 1.353669e+00	 5.039830e-01	 1.608898e+01
1	 1.347664e+00	 5.198290e-01	 1.579190e+01
1	 1.341457e+00	 5.356425e-01	 1.541530e+01
1	 1.335049e+00	 5.514200e-01	 1.495838e+01
1	 1.300817e+00	 5.372811e-01	 1.676327e+01
1	 1.294377e+00	 5.526153e-01	 1.618161e+01
1	 1.287741e+00	 5.679072e-01	 1.549629e+01
1	 1.280909e+00	 5.831532e-01	 1.470954e+01
1	 1.273881e+00	 5.983495e-01	 1.382372e+01
1	 1.266658e+00	 6.134926e-01	 1.284121e+01
1	 1.307663e+00	 5.401088e-01	 1.641219e+01
1	 1.301190e+00	 5.555238e-01	 1.583564e+01
1	 1.294519e+00	 5.708962e-01	 1.515541e+01
1	 1.287651e+00	 5.862224e-01	 1.437390e+01
1	 1.280586e+00	 6.014987e-01	 1.349355e+01
1	 1.273325e+00	 6.167215e-01	 1.251689e+01
1	 1.314510e+00	 5.429366e-01	 1.605597e+01
1	 1.308002e+00	 5.584323e-01	 1.548517e+01
1	 1.301296e+00	 5.738852e-01	 1.481081e+01
1	 1.294392e+00	 5.892916e-01	 1.403534e+01
1	 1.287291e+00	 6.046479e-01	 1.316126e+01
1	 1.279991e+00	 6.199504e-01	 1.219119e+01
1	 1.321356e+00	 5.457644e-01	 1.569479e+01
1	 1.314815e+00	 5.613408e-01	 1.513042e+01
1	 1.308074e+00	 5.768742e-01	 1.446269e+01
1	 1.301134e+00	 5.923609e-01	 1.369403e+01
1	 1.293995e+00	 6.077972e-01	 1.282699e+01
1	 1.286658e+00	 6.231793e-01	 1.186417e+01
1	 1.328203e+00	 5.485922e-01	 1.532887e+01
1	 1.321627e+00	 5.642493e-01	 1.477160e+01
1	 1.314851e+00	 5.798632e-01	 1.411123e+01
1	 1.307876e+00	 5.954301e-01	 1.335015e+01
1	 1.300700e+00	 6.109464e-01	 1.249084e+01
1	 1.293324e+00	 6.264083e-01	 1.153588e+01
1	 1.335049e+00	 5.514200e-01	 1.495838e+01
1	 1.328440e+00	 5.671578e-01	 1.440892e+01
1	 1.321629e+00	 5.828521e-01	 1.375664e+01
1	 1.314617e+00	 5.984993e-01	 1.300385e+01
1	 1.307404e+00	 6.140956e-01	 1.215294e+01
1	 1.299991e+00	 6.296372e-01	 1.120636e+01
1	 1.266658e+00	 6.134926e-01	 1.284121e+01
1	 1.259240e+00	 6.285788e-01	 1.175356e+01
1	 1.251627e+00	 6.436044e-01	 1.054888e+01
1	 1.243819e+00	 6.585657e-01	 9.224108e+00
1	 1.235819e+00	 6.734591e-01	 7.775826e+00
1	 1.227626e+00	 6.882809e-01	 6.200212e+00
1	 1.273325e+00	 6.167215e-01	 1.251689e+01
1	 1.265867e+00	 6.318871e-01	 1.143359e+01
1	 1.258214e+00	 6.469918e-01	 1.022963e+01
1	 1.250366e+00	 6.620318e-01	 8.901757e+00
1	 1.242323e+00	 6.770036e-01	 7.446328e+00
1	 1.234087e+00	 6.919034e-01	 5.859317e+00
1	 1.279991e+00	 6.199504e-01	 1.219119e+01
1	 1.272495e+00	 6.351954e-01	 1.111288e+01
1	 1.264802e+00	 6.503791e-01	 9.910253e+00
1	 1.256912e+00	 6.654979e-01	 8.579980e+00
1	 1.248828e+00	 6.805481e-01	 7.118337e+00
1	 1.240548e+00	 6.955259e-01	 5.521220e+00
1	 1.286658e+00	 6.231793e-01	 1.186417e+01
1	 1.279122e+00	 6.385037e-01	 1.079143e+01
1	 1.271389e+00	 6.537665e-01	 9.590783e+00
1	 1.263459e+00	 6.689641e-01	 8.258925e+00
1	 1.255332e+00	 6.840926e-01	 6.792172e+00
1	 1.247009e+00	 6.991485e-01	 5.186482e+00
1	 1.293324e+00	 6.264083e-01	 1.153588e+01
1	 1.285750e+00	 6.418120e-01	 1.046925e+01
1	 1.277977e+00	 6.571539e-01	 9.271263e+00
1	 1.270005e+00	 6.724302e-01	 7.938733e+00
1	 1.261836e+00	 6.876372e-01	 6.468148e+00
1	 1.253471e+00	 7.027710e-01	 4.855655e+00
1	 1.299991e+00	 6.296372e-01	 1.120636e+01
1	 1.292377e+00	 6.451203e-01	 1.014636e+01
1	 1.284564e+00	 6.605413e-01	 8.951733e+00
1	 1.276552e+00	 6.758964e-01	 7.619545e+00
1	 1.268341e+00	 6.911817e-01	 6.146570e+00
1	 1.259932e+00	 7.063935e-01	 4.529276e+00
1	 1.227626e+00	 6.882809e-01	 6.200212e+00
1	 1.219241e+00	 7.030274e-01	 4.524337e+00
1	 1.210665e+00	 7.176951e-01	 2.780904e+00
1	 1.201899e+00	 7.322802e-01	 9.746812e-01
1	 1.192944e+00	 7.467792e-01	-8.890081e-01
1	 1.183802e+00	 7.611885e-01	-2.804289e+00
1	 1.234087e+00	 6.919034e-01	 5.859317e+00
1	 1.225658e+00	 7.067276e-01	 4.171997e+00
1	 1.217037e+00	 7.214724e-01	 2.421805e+00
1	 1.208225e+00	 7.361344e-01	 6.141283e-01
1	 1.199223e+00	 7.507096e-01	-1.245046e+00
1	 1.190033e+00	 7.651947e-01	-3.149135e+00
1	 1.240548e+00	 6.955259e-01	 5.521220e+00
1	 1.232075e+00	 7.104277e-01	 3.824329e+00
1	 1.223409e+00	 7.252498e-01	 2.069838e+00
1	 1.214551e+00	 7.399885e-01	 2.635546e-01
1	 1.205502e+00	 7.546401e-01	-1.588083e+00
1	 1.196263e+00	 7.692010e-01	-3.478011e+00
1	 1.247009e+00	 6.991485e-01	 5.186482e+00
1	 1.238492e+00	 7.141279e-01	 3.482111e+00
1	 1.229781e+00	 7.290271e-01	 1.725882e+00
1	 1.220876e+00	 7.438426e-01	-7.617232e-02
1	 1.211780e+00	 7.585705e-01	-1.917373e+00
1	 1.202494e+00	 7.732072e-01	-3.790398e+00
1	 1.253471e+00	 7.027710e-01	 4.855655e+00
1	 1.244909e+00	 7.178280e-01	 3.146105e+00
1	 1.236153e+00	 7.328045e-01	 1.390799e+00
1	 1.227202e+00	 7.476967e-01	-4.042026e-01
1	 1.218059e+00	 7.625009e-01	-2.232185e+00
1	 1.208724e+00	 7.772135e-01	-4.085788e+00
1	 1.259932e+00	 7.063935e-01	 4.529276e+00
1	 1.251326e+00	 7.215282e-01	 2.817059e+00
1	 1.242524e+00	 7.365818e-01	 1.065432e+00
1	 1.233528e+00	 7.515508e-01	-7.197038e-01
1	 1.224338e+00	 7.664313e-01	-2.531803e+00
1	 1.214955e+00	 7.812197e-01	-4.363685e+00
1	 1.183802e+00	 7.611885e-01	-2.804289e+00
1	 1.174474e+00	 7.755044e-01	-4.683304e+00
1	 1.164960e+00	 7.897233e-01	-6.445140e+00
1	 1.155264e+00	 8.038419e-01	-8.094153e+00
1	 1.145385e+00	 8.178565e-01	-9.634997e+00
1	 1.135326e+00	 8.317637e-01	-1.107261e+01
1	 1.190033e+00	 7.651947e-01	-3.149135e+00
1	 1.180655e+00	 7.795860e-01	-5.013186e+00
1	 1.171092e+00	 7.938798e-01	-6.760355e+00
1	 1.161344e+00	 8.080727e-01	-8.396066e+00
1	 1.151413e+00	 8.221610e-01	-9.926114e+00
1	 1.141301e+00	 8.361414e-01	-1.135666e+01
1	 1.196263e+00	 7.692010e-01	-3.478011e+00
1	 1.186837e+00	 7.836676e-01	-5.324783e+00
1	 1.177223e+00	 7.980362e-01	-7.055898e+00
1	 1.167424e+00	 8.123034e-01	-8.677575e+00
1	 1.157441e+00	 8.264655e-01	-1.019647e+01
1	 1.147277e+00	 8.405191e-01	-1.161968e+01
1	 1.202494e+00	 7.732072e-01	-3.790398e+00
1	 1.193018e+00	 7.877492e-01	-5.617807e+00
1	 1.183354e+00	 8.021927e-01	-7.331612e+00
1	 1.173505e+00	 8.165341e-01	-8.938565e+00
1	 1.163470e+00	 8.307700e-01	-1.044591e+01
1	 1.153252e+00	 8.448968e-01	-1.186137e+01
1	 1.208724e+00	 7.772135e-01	-4.085788e+00
1	 1.199200e+00	 7.918308e-01	-5.891975e+00
1	 1.189486e+00	 8.063491e-01	-7.587347e+00
1	 1.179585e+00	 8.207649e-01	-9.178924e+00
1	 1.169498e+00	 8.350746e-01	-1.067426e+01
1	 1.159227e+00	 8.492745e-01	-1.208144e+01
1	 1.214955e+00	 7.812197e-01	-4.363685e+00
1	 1.205381e+00	 7.959124e-01	-6.147012e+00
1	 1.195617e+00	 8.105055e-01	-7.822952e+00
1	 1.185665e+00	 8.249956e-01	-9.398540e+00
1	 1.175526e+00	 8.393791e-01	-1.088137e+01
1	 1.165203e+00	 8.536522e-01	-1.227960e+01
1	 1.135326e+00	 8.317637e-01	-1.107261e+01
1	 1.125088e+00	 8.455601e-01	-1.240296e+01
1	 1.114674e+00	 8.592421e-01	-1.361653e+01
1	 1.104085e+00	 8.728066e-01	-1.471029e+01
1	 1.093324e+00	 8.862501e-01	-1.568120e+01
1	 1.082391e+00	 8.995694e-01	-1.652628e+01
1	 1.141301e+00	 8.361414e-01	-1.135666e+01
1	 1.131010e+00	 8.500104e-01	-1.268337e+01
1	 1.120541e+00	 8.637645e-01	-1.389545e+01
1	 1.109896e+00	 8.774003e-01	-1.498957e+01
1	 1.099078e+00	 8.909146e-01	-1.596244e+01
1	 1.088088e+00	 9.043040e-01	-1.681073e+01
1	 1.147277e+00	 8.405191e-01	-1.161968e+01
1	 1.136931e+00	 8.544607e-01	-1.294203e+01
1	 1.126408e+00	 8.682868e-01	-1.415126e+01
1	 1.115707e+00	 8.819940e-01	-1.524409e+01
1	 1.104832e+00	 8.955791e-01	-1.621722e+01
1	 1.093785e+00	 9.090386e-01	-1.706734e+01
1	 1.153252e+00	 8.448968e-01	-1.186137e+01
1	 1.142853e+00	 8.589110e-01	-1.317849e+01
1	 1.132274e+00	 8.728091e-01	-1.438349e+01
1	 1.121518e+00	 8.865878e-01	-1.547339e+01
1	 1.110587e+00	 9.002435e-01	-1.644522e+01
1	 1.099481e+00	 9.137731e-01	-1.729597e+01
1	 1.159227e+00	 8.492745e-01	-1.208144e+01
1	 1.148774e+00	 8.633613e-01	-1.339235e+01
1	 1.138141e+00	 8.773315e-01	-1.459168e+01
1	 1.127329e+00	 8.911815e-01	-1.567706e+01
1	 1.116341e+00	 9.049080e-01	-1.664612e+01
1	 1.105178e+00	 9.185077e-01	-1.749649e+01
1	 1.165203e+00	 8.536522e-01	-1.227960e+01
1	 1.154696e+00	 8.678116e-01	-1.358319e+01
1	 1.144008e+00	 8.818538e-01	-1.477538e+01
1	 1.133140e+00	 8.957752e-01	-1.585468e+01
1	 1.122095e+00	 9.095725e-01	-1.681963e+01
1	 1.110875e+00	 9.232423e-01	-1.766875e+01
1	 1.082391e+00	 8.995694e-01	-1.652628e+01
1	 1.071290e+00	 9.127613e-01	-1.726828e+01
1	 1.060023e+00	 9.258225e-01	-1.793185e+01
1	 1.048592e+00	 9.387499e-01	-1.851667e+01
1	 1.036999e+00	 9.515406e-01	-1.902229e+01
1	 1.025247e+00	 9.641914e-01	-1.944809e+01
1	 1.088088e+00	 9.043040e-01	-1.681073e+01
1	 1.076928e+00	 9.175653e-01	-1.755613e+01
1	 1.065602e+00	 9.306952e-01	-1.822217e+01
1	 1.054110e+00	 9.436907e-01	-1.880825e+01
1	 1.042457e+00	 9.565487e-01	-1.931359e+01
1	 1.030643e+00	 9.692660e-01	-1.973726e+01
1	 1.093785e+00	 9.090386e-01	-1.706734e+01
1	 1.082567e+00	 9.223693e-01	-1.781529e+01
1	 1.071181e+00	 9.355680e-01	-1.848344e+01
1	 1.059629e+00	 9.486315e-01	-1.907068e+01
1	 1.047914e+00	 9.615568e-01	-1.957570e+01
1	 1.036039e+00	 9.743407e-01	-1.999706e+01
1	 1.099481e+00	 9.137731e-01	-1.729597e+01
1	 1.088205e+00	 9.271733e-01	-1.804582e+01
1	 1.076760e+00	 9.404407e-01	-1.871581e+01
1	 1.065148e+00	 9.535723e-01	-1.930414e+01
1	 1.053372e+00	 9.665649e-01	-1.980879e+01
1	 1.041435e+00	 9.794154e-01	-2.022753e+01
1	 1.105178e+00	 9.185077e-01	-1.749649e+01
1	 1.093844e+00	 9.319773e-01	-1.824775e+01
1	 1.082339e+00	 9.453135e-01	-1.891944e+01
1	 1.070667e+00	 9.585131e-01	-1.950883e+01
1	 1.058830e+00	 9.715730e-01	-2.001299e+01
1	 1.046831e+00	 9.844901e-01	-2.042875e+01
1	 1.110875e+00	 9.232423e-01	-1.766875e+01
1	 1.099482e+00	 9.367813e-01	-1.842114e+01
1	 1.087918e+00	 9.501862e-01	-1.909447e+01
1	 1.076186e+00	 9.634539e-01	-1.968493e+01
1	 1.064288e+00	 9.765811e-01	-2.018848e+01
1	 1.052227e+00	 9.895648e-01	-2.060077e+01
1	 1.025247e+00	 9.641914e-01	-1.944809e+01
1	 1.013338e+00	 9.766994e-01	-1.984725e+01
1	 1.001275e+00	 9.890617e-01	-2.027194e+01
1	 9.890617e-01	 1.001275e+00	-2.071978e+01
1	 9.766994e-01	 1.013338e+00	-2.118838e+01
1	 9.641914e-01	 1.025247e+00	-2.167533e+01
1	 1.030643e+00	 9.692660e-01	-1.973726e+01
1	 1.018671e+00	 9.818399e-01	-2.013315e+01
1	 1.006545e+00	 9.942673e-01	-2.055464e+01
1	 9.942673e-01	 1.006545e+00	-2.099985e+01
1	 9.818399e-01	 1.018671e+00	-2.146690e+01
1	 9.692660e-01	 1.030643e+00	-2.195392e+01
1	 1.036039e+00	 9.743407e-01	-1.999706e+01
1	 1.024005e+00	 9.869804e-01	-2.038925e+01
1	 1.011815e+00	 9.994729e-01	-2.080701e+01
1	 9.994729e-01	 1.011815e+00	-2.124907e+01
1	 9.869804e-01	 1.024005e+00	-2.171415e+01
1	 9.743407e-01	 1.036039e+00	-2.220097e+01
1	 1.041435e+00	 9.794154e-01	-2.022753e+01
1	 1.029338e+00	 9.921209e-01	-2.061550e+01
1	 1.017085e+00	 1.004678e+00	-2.102896e+01
1	 1.004678e+00	 1.017085e+00	-2.146731e+01
1	 9.921209e-01	 1.029338e+00	-2.192995e+01
1	 9.794154e-01	 1.041435e+00	-2.241633e+01
1	 1.046831e+00	 9.844901e-01	-2.042875e+01
1	 1.034671e+00	 9.972614e-01	-2.081185e+01
1	 1.022355e+00	 1.009884e+00	-2.122036e+01
1	 1.009884e+00	 1.022355e+00	-2.165439e+01
1	 9.972614e-01	 1.034671e+00	-2.211415e+01
1	 9.844901e-01	 1.046831e+00	-2.259985e+01
1	 1.052227e+00	 9.895648e-01	-2.060077e+01
1	 1.040005e+00	 1.002402e+00	-2.097828e+01
1	 1.027625e+00	 1.015090e+00	-2.138110e+01
1	 1.015090e+00	 1.027625e+00	-2.181018e+01
1	 1.002402e+00	 1.040005e+00	-2.226657e+01
1	 9.895648e-01	 1.052227e+00	-2.275140e+01
1	 9.641914e-01	 1.025247e+00	-2.167533e+01
1	 9.515406e-01	 1.036999e+00	-2.223021e+01
1	 9.387499e-01	 1.048592e+00	-2.290953e+01
1	 9.258225e-01	 1.060023e+00	-2.372159e+01
1	 9.127613e-01	 1.071290e+00	-2.467511e+01
1	 8.995694e-01	 1.082391e+00	-2.577926e+01
1	 9.692660e-01	 1.030643e+00	-2.195392e+01
1	 9.565487e-01	 1.042457e+00	-2.251318e+01
1	 9.436907e-01	 1.054110e+00	-2.320289e+01
1	 9.306952e-01	 1.065602e+00	-2.403032e+01
1	 9.175653e-01	 1.076928e+00	-2.500320e+01
1	 9.043040e-01	 1.088088e+00	-2.612959e+01
1	 9.743407e-01	 1.036039e+00	-2.220097e+01
1	 9.615568e-01	 1.047914e+00	-2.276434e+01
1	 9.486315e-01	 1.059629e+00	-2.346378e+01
1	 9.355680e-01	 1.071181e+00	-2.430539e+01
1	 9.223693e-01	 1.082567e+00	-2.529563e+01
1	 9.090386e-01	 1.093785e+00	-2.644132e+01
1	 9.794154e-01	 1.041435e+00	-2.241633e+01
1	 9.665649e-01	 1.053372e+00	-2.298354e+01
1	 9.535723e-01	 1.065148e+00	-2.369202e+01
1	 9.404407e-01	 1.076760e+00	-2.454649e+01
1	 9.271733e-01	 1.088205e+00	-2.555198e+01
1	 9.137731e-01	 1.099481e+00	-2.671385e+01
1	 9.844901e-01	 1.046831e+00	-2.259985e+01
1	 9.715730e-01	 1.058830e+00	-2.317065e+01
1	 9.585131e-01	 1.070667e+00	-2.388743e+01
1	 9.453135e-01	 1.082339e+00	-2.475335e+01
1	 9.319773e-01	 1.093844e+00	-2.577184e+01
1	 9.185077e-01	 1.105178e+00	-2.694659e+01
1	 9.895648e-01	 1.052227e+00	-2.275140e+01
1	 9.765811e-01	 1.064288e+00	-2.332551e+01
1	 9.634539e-01	 1.076186e+00	-2.404981e+01
1	 9.501862e-01	 1.087918e+00	-2.492570e+01
1	 9.367813e-01	 1.099482e+00	-2.595480e+01
1	 9.232423e-01	 1.110875e+00	-2.713895e+01
1	 8.995694e-01	 1.082391e+00	-2.577926e+01
1	 8.862501e-01	 1.093324e+00	-2.705599e+01
1	 8.728066e-01	 1.104085e+00	-2.850979e+01
1	 8.592421e-01	 1.114674e+00	-3.012354e+01
1	 8.455601e-01	 1.125088e+00	-3.187961e+01
1	 8.317637e-01	 1.135326e+00	-3.375989e+01
1	 9.043040e-01	 1.088088e+00	-2.612959e+01
1	 8.909146e-01	 1.099078e+00	-2.742636e+01
1	 8.774003e-01	 1.109896e+00	-2.889366e+01
1	 8.637645e-01	 1.120541e+00	-3.051436e+01
1	 8.500104e-01	 1.131010e+00	-3.227083e+01
1	 8.361414e-01	 1.141301e+00	-3.414500e+01
1	 9.090386e-01	 1.093785e+00	-2.644132e+01
1	 8.955791e-01	 1.104832e+00	-2.775434e+01
1	 8.819940e-01	 1.115707e+00	-2.923102e+01
1	 8.682868e-01	 1.126408e+00	-3.085468e+01
1	 8.544607e-01	 1.136931e+00	-3.260818e+01
1	 8.405191e-01	 1.147277e+00	-3.447393e+01
1	 9.137731e-01	 1.099481e+00	-2.671385e+01
1	 9.002435e-01	 1.110587e+00	-2.803919e+01
1	 8.865878e-01	 1.121518e+00	-2.952111e+01
1	 8.728091e-01	 1.132274e+00	-3.114385e+01
1	 8.589110e-01	 1.142853e+00	-3.289121e+01
1	 8.448968e-01	 1.153252e+00	-3.474658e+01
1	 9.185077e-01	 1.105178e+00	-2.694659e+01
1	 9.049080e-01	 1.116341e+00	-2.828017e+01
1	 8.911815e-01	 1.127329e+00	-2.976319e+01
1	 8.773315e-01	 1.138141e+00	-3.138124e+01
1	 8.633613e-01	 1.148774e+00	-3.311951e+01
1	 8.492745e-01	 1.159227e+00	-3.496283e+01
1	 9.232423e-01	 1.110875e+00	-2.713895e+01
1	 9.095725e-01	 1.122095e+00	-2.847657e+01
1	 8.957752e-01	 1.133140e+00	-2.995654e+01
1	 8.818538e-01	 1.144008e+00	-3.156622e+01
1	 8.678116e-01	 1.154696e+00	-3.329266e+01
1	 8.536522e-01	 1.165203e+00	-3.512258e+01
1	 8.317637e-01	 1.135326e+00	-3.375989e+01
1	 8.178565e-01	 1.145385e+00	-3.572750e+01
1	 8.038419e-01	 1.155264e+00	-3.775593e+01
1	 7.897233e-01	 1.164960e+00	-3.984237e+01
1	 7.755044e-01	 1.174474e+00	-4.198398e+01
1	 7.611885e-01	 1.183802e+00	-4.417798e+01
1	 8.361414e-01	 1.141301e+00	-3.414500e+01
1	 8.221610e-01	 1.151413e+00	-3.610192e+01
1	 8.080727e-01	 1.161344e+00	-3.811704e+01
1	 7.938798e-01	 1.171092e+00	-4.018757e+01
1	 7.795860e-01	 1.180655e+00	-4.231069e+01
1	 7.651947e-01	 1.190033e+00	-4.448361e+01
1	 8.405191e-01	 1.147277e+00	-3.447393e+01
1	 8.264655e-01	 1.157441e+00	-3.641915e+01
1	 8.123034e-01	 1.167424e+00	-3.842085e+01
1	 7.980362e-01	 1.177223e+00	-4.047588e+01
1	 7.836676e-01	 1.186837e+00	-4.258106e+01
1	 7.692010e-01	 1.196263e+00	-4.473319e+01
1	 8.448968e-01	 1.153252e+00	-3.474658e+01
1	 8.307700e-01	 1.163470e+00	-3.667939e+01
1	 8.165341e-01	 1.173505e+00	-3.866778e+01
1	 8.021927e-01	 1.183354e+00	-4.070786e+01
1	 7.877492e-01	 1.193018e+00	-4.279569e+01
1	 7.732072e-01	 1.202494e+00	-4.492728e+01
1	 8.492745e-01	 1.159227e+00	-3.496283e+01
1	 8.350746e-01	 1.169498e+00	-3.688286e+01
1	 8.207649e-01	 1.179585e+00	-3.885827e+01
1	 8.063491e-01	 1.189486e+00	-4.088406e+01
1	 7.918308e-01	 1.199200e+00	-4.295517e+01
1	 7.772135e-01	 1.208724e+00	-4.506641e+01
1	 8.536522e-01	 1.165203e+00	-3.512258e+01
1	 8.393791e-01	 1.175526e+00	-3.702976e+01
1	 8.249956e-01	 1.185665e+00	-3.899272e+01
1	 8.105055e-01	 1.195617e+00	-4.100502e+01
1	 7.959124e-01	 1.205381e+00	-4.306005e+01
1	 7.812197e-01	 1.214955e+00	-4.515110e+01
1	 7.611885e-01	 1.183802e+00	-4.417798e+01
1	 7.467792e-01	 1.192944e+00	-4.635593e+01
1	 7.322802e-01	 1.201899e+00	-4.845886e+01
1	 7.176951e-01	 1.210665e+00	-5.049835e+01
1	 7.030274e-01	 1.219241e+00	-5.248632e+01
1	 6.882809e-01	 1.227626e+00	-5.443493e+01
1	 7.651947e-01	 1.190033e+00	-4.448361e+01
1	 7.507096e-01	 1.199223e+00	-4.663944e+01
1	 7.361344e-01	 1.208225e+00	-4.872075e+01
1	 7.214724e-01	 1.217037e+00	-5.073922e+01
1	 7.067276e-01	 1.225658e+00	-5.270683e+01
1	 6.919034e-01	 1.234087e+00	-5.463587e+01
1	 7.692010e-01	 1.196263e+00	-4.473319e+01
1	 7.546401e-01	 1.205502e+00	-4.686676e+01
1	 7.399885e-01	 1.214551e+00	-4.892606e+01
1	 7.252498e-01	 1.223409e+00	-5.092288e+01
1	 7.104277e-01	 1.232075e+00	-5.286936e+01
1	 6.955259e-01	 1.240548e+00	-5.477793e+01
1	 7.732072e-01	 1.202494e+00	-4.492728e+01
1	 7.585705e-01	 1.211780e+00	-4.703837e+01
1	 7.438426e-01	 1.220876e+00	-4.907517e+01
1	 7.290271e-01	 1.229781e+00	-5.104963e+01
1	 7.141279e-01	 1.238492e+00	-5.297411e+01
1	 6.991485e-01	 1.247009e+00	-5.486125e+01
1	 7.772135e-01	 1.208724e+00	-4.506641e+01
1	 7.625009e-01	 1.218059e+00	-4.715472e+01
1	 7.476967e-01	 1.227202e+00	-4.916843e+01
1	 7.328045e-01	 1.236153e+00	-5.111976e+01
1	 7.178280e-01	 1.244909e+00	-5.302129e+01
1	 7.027710e-01	 1.253471e+00	-5.488595e+01
1	 7.812197e-01	 1.214955e+00	-4.515110e+01
1	 7.664313e-01	 1.224338e+00	-4.721624e+01
1	 7.515508e-01	 1.233528e+00	-4.920623e+01
1	 7.365818e-01	 1.242524e+00	-5.113355e+01
1	 7.215282e-01	 1.251326e+00	-5.301111e+01
1	 7.063935e-01	 1.259932e+00	-5.485216e+01
1	 6.882809e-01	 1.227626e+00	-5.443493e+01
1	 6.734591e-01	 1.235819e+00	-5.630864e+01
1	 6.585657e-01	 1.243819e+00	-5.806047e+01
1	 6.436044e-01	 1.251627e+00	-5.968553e+01
1	 6.285788e-01	 1.259240e+00	-6.117875e+01
1	 6.134926e-01	 1.266658e+00	-6.253492e+01
1	 6.919034e-01	 1.234087e+00	-5.463587e+01
1	 6.770036e-01	 1.242323e+00	-5.648824e+01
1	 6.620318e-01	 1.250366e+00	-5.821496e+01
1	 6.469918e-01	 1.258214e+00	-5.981207e+01
1	 6.318871e-01	 1.265867e+00	-6.127545e+01
1	 6.167215e-01	 1.273325e+00	-6.260083e+01
1	 6.955259e-01	 1.240548e+00	-5.477793e+01
1	 6.805481e-01	 1.248828e+00	-5.660804e+01
1	 6.654979e-01	 1.256912e+00	-5.830871e+01
1	 6.503791e-01	 1.264802e+00	-5.987692e+01
1	 6.351954e-01	 1.272495e+00	-6.130949e+01
1	 6.199504e-01	 1.279991e+00	-6.260307e+01
1	 6.991485e-01	 1.247009e+00	-5.486125e+01
1	 6.840926e-01	 1.255332e+00	-5.666809e+01
1	 6.689641e-01	 1.263459e+00	-5.834171e+01
1	 6.537665e-01	 1.271389e+00	-5.988000e+01
1	 6.385037e-01	 1.279122e+00	-6.128072e+01
1	 6.231793e-01	 1.286658e+00	-6.254149e+01
1	 7.027710e-01	 1.253471e+00	-5.488595e+01
1	 6.876372e-01	 1.261836e+00	-5.666844e+01
1	 6.724302e-01	 1.270005e+00	-5.831393e+01
1	 6.571539e-01	 1.277977e+00	-5.982123e+01
1	 6.418120e-01	 1.285750e+00	-6.118903e+01
1	 6.264083e-01	 1.293324e+00	-6.241590e+01
1	 7.063935e-01	 1.259932e+00	-5.485216e+01
1	 6.911817e-01	 1.268341e+00	-5.660914e+01
1	 6.758964e-01	 1.276552e+00	-5.822535e+01
1	 6.605413e-01	 1.284564e+00	-5.970053e+01
1	 6.451203e-01	 1.292377e+00	-6.103429e+01
1	 6.296372e-01	 1.299991e+00	-6.222616e+01
1	 6.134926e-01	 1.266658e+00	-6.253492e+01
1	 5.983495e-01	 1.273881e+00	-6.374863e+01
1	 5.831532e-01	 1.280909e+00	-6.481648e+01
1	 5.679072e-01	 1.287741e+00	-6.573614e+01
1	 5.526153e-01	 1.294377e+00	-6.650523e+01
1	 5.372811e-01	 1.300817e+00	-6.712136e+01
1	 6.167215e-01	 1.273325e+00	-6.260083e+01
1	 6.014987e-01	 1.280586e+00	-6.378385e+01
1	 5.862224e-01	 1.287651e+00	-6.482151e+01
1	 5.708962e-01	 1.294519e+00	-6.571142e+01
1	 5.555238e-01	 1.301190e+00	-6.645114e+01
1	 5.401088e-01	 1.307663e+00	-6.703822e+01
1	 6.199504e-01	 1.279991e+00	-6.260307e+01
1	 6.046479e-01	 1.287291e+00	-6.375433e+01
1	 5.892916e-01	 1.294392e+00	-6.476060e+01
1	 5.738852e-01	 1.301296e+00	-6.561952e+01
1	 5.584323e-01	 1.308002e+00	-6.632867e+01
1	 5.429366e-01	 1.314510e+00	-6.688560e+01
1	 6.231793e-01	 1.286658e+00	-6.254149e+01
1	 6.077972e-01	 1.293995e+00	-6.365986e+01
1	 5.923609e-01	 1.301134e+00	-6.463354e+01
1	 5.768742e-01	 1.308074e+00	-6.546025e+01
1	 5.613408e-01	 1.314815e+00	-6.613765e+01
1	 5.457644e-01	 1.321356e+00	-6.666336e+01
1	 6.264083e-01	 1.293324e+00	-6.241590e+01
1	 6.109464e-01	 1.300700e+00	-6.350026e+01
1	 5.954301e-01	 1.307876e+00	-6.444015e+01
1	 5.798632e-01	 1.314851e+00	-6.523342e+01
1	 5.642493e-01	 1.321627e+00	-6.587791e+01
1	 5.485922e-01	 1.328203e+00	-6.637139e+01
1	 6.296372e-01	 1.299991e+00	-6.222616e+01
1	 6.140956e-01	 1.307404e+00	-6.327535e+01
1	 5.984993e-01	 1.314617e+00	-6.418022e+01
1	 5.828521e-01	 1.321629e+00	-6.493885e+01
1	 5.671578e-01	 1.328440e+00	-6.554928e+01
1	 5.514200e-01	 1.335049e+00	-6.600953e+01
1	 5.372811e-01	 1.300817e+00	-6.712136e+01
1	 5.219081e-01	 1.307061e+00	-6.758246e+01
1	 5.065000e-01	 1.313108e+00	-6.789332e+01
1	 4.910604e-01	 1.318960e+00	-6.806183e+01
1	 4.755928e-01	 1.324616e+00	-6.809601e+01
1	 4.601008e-01	 1.330076e+00	-6.800396e+01
1	 5.401088e-01	 1.307663e+00	-6.703822e+01
1	 5.246550e-01	 1.313940e+00	-6.747168e+01
1	 5.091658e-01	 1.320019e+00	-6.775770e+01
1	 4.936449e-01	 1.325902e+00	-6.790461e+01
1	 4.780959e-01	 1.331587e+00	-6.792085e+01
1	 4.625224e-01	 1.337077e+00	-6.781493e+01
1	 5.429366e-01	 1.314510e+00	-6.688560e+01
1	 5.274019e-01	 1.320819e+00	-6.729050e+01
1	 5.118316e-01	 1.326930e+00	-6.755093e+01
1	 4.962295e-01	 1.332844e+00	-6.767556e+01
1	 4.805991e-01	 1.338559e+00	-6.767314e+01
1	 4.649440e-01	 1.344077e+00	-6.755253e+01
1	 5.457644e-01	 1.321356e+00	-6.666336e+01
1	 5.301487e-01	 1.327698e+00	-6.703883e+01
1	 5.144974e-01	 1.333842e+00	-6.727294e+01
1	 4.988140e-01	 1.339786e+00	-6.737459e+01
1	 4.831022e-01	 1.345531e+00	-6.735279e+01
1	 4.673656e-01	 1.351077e+00	-6.721662e+01
1	 5.485922e-01	 1.328203e+00	-6.637139e+01
1	 5.328956e-01	 1.334578e+00	-6.671657e+01
1	 5.171632e-01	 1.340753e+00	-6.692362e+01
1	 5.013985e-01	 1.346728e+00	-6.700161e+01
1	 4.856053e-01	 1.352502e+00	-6.695968e+01
1	 4.697871e-01	 1.358078e+00	-6.680709e+01
1	 5.514200e-01	 1.335049e+00	-6.600953e+01
1	 5.356425e-01	 1.341457e+00	-6.632362e+01
1	 5.198290e-01	 1.347664e+00	-6.650291e+01
1	 5.039830e-01	 1.353669e+00	-6.655654e+01
1	 4.881084e-01	 1.359474e+00	-6.649374e+01
1	 4.722087e-01	 1.365078e+00	-6.632380e+01
1	 4.601008e-01	 1.330076e+00	-6.800396e+01
1	 4.445879e-01	 1.335342e+00	-6.779187e+01
1	 4.290575e-01	 1.340412e+00	-6.745534e+01
1	 4.135131e-01	 1.345289e+00	-6.698666e+01
1	 3.979581e-01	 1.349972e+00	-6.637821e+01
1	 3.823960e-01	 1.354463e+00	-6.562242e+01
1	 4.625224e-01	 1.337077e+00	-6.781493e+01
1	 4.469278e-01	 1.342370e+00	-6.759249e+01
1	 4.313157e-01	 1.347467e+00	-6.724924e+01
1	 4.156895e-01	 1.352369e+00	-6.677893e+01
1	 4.000526e-01	 1.357077e+00	-6.617536e+01
1	 3.844086e-01	 1.361591e+00	-6.543239e+01
1	 4.649440e-01	 1.344077e+00	-6.755253e+01
1	 4.492677e-01	 1.349398e+00	-6.731882e+01
1	 4.335739e-01	 1.354522e+00	-6.696805e+01
1	 4.178659e-01	 1.359450e+00	-6.649557e+01
1	 4.021472e-01	 1.364182e+00	-6.589677e+01
1	 3.864212e-01	 1.368720e+00	-6.516709e+01
1	 4.673656e-01	 1.351077e+00	-6.721662e+01
1	 4.516077e-01	 1.356426e+00	-6.697071e+01
1	 4.358321e-01	 1.361577e+00	-6.661161e+01
1	 4.200423e-01	 1.366530e+00	-6.613642e+01
1	 4.042417e-01	 1.371288e+00	-6.554228e+01
1	 3.884338e-01	 1.375849e+00	-6.482637e+01
1	 4.697871e-01	 1.358078e+00	-6.680709e+01
1	 4.539476e-01	 1.363454e+00	-6.654800e+01
1	 4.380903e-01	 1.368632e+00	-6.617974e+01
1	 4.222186e-01	 1.373611e+00	-6.570129e+01
1	 4.063362e-01	 1.378393e+00	-6.511172e+01
1	 3.904464e-01	 1.382978e+00	-6.441009e+01
1	 4.722087e-01	 1.365078e+00	-6.632380e+01
1	 4.562876e-01	 1.370482e+00	-6.605055e+01
1	 4.403485e-01	 1.375686e+00	-6.567228e+01
1	 4.243950e-01	 1.380691e+00	-6.519004e+01
1	 4.084307e-01	 1.385498e+00	-6.460494e+01
1	 3.924590e-01	 1.390106e+00	-6.391810e+01
1	 3.823960e-01	 1.354463e+00	-6.562242e+01
1	 3.668299e-01	 1.358761e+00	-6.477631e+01
1	 3.512634e-01	 1.362868e+00	-6.389376e+01
1	 3.356995e-01	 1.366785e+00	-6.296268e+01
1	 3.201416e-01	 1.370513e+00	-6.197118e+01
1	 3.045929e-01	 1.374052e+00	-6.090752e+01
1	 3.844086e-01	 1.361591e+00	-6.543239e+01
1	 3.687606e-01	 1.365912e+00	-6.460820e+01
1	 3.531121e-01	 1.370041e+00	-6.375577e+01
1	 3.374664e-01	 1.373979e+00	-6.286132e+01
1	 3.218266e-01	 1.377726e+00	-6.191126e+01
1	 3.061960e-01	 1.381284e+00	-6.089216e+01
1	 3.864212e-01	 1.368720e+00	-6.516709e+01
1	 3.706913e-01	 1.373064e+00	-6.436585e+01
1	 3.549609e-01	 1.377214e+00	-6.354501e+01
1	 3.392332e-01	 1.381172e+00	-6.268916e+01
1	 3.235116e-01	 1.384939e+00	-6.178304e+01
1	 3.077991e-01	 1.388516e+00	-6.081159e+01
1	 3.884338e-01	 1.375849e+00	-6.482637e+01
1	 3.726220e-01	 1.380215e+00	-6.404913e+01
1	 3.568096e-01	 1.384387e+00	-6.326141e+01
1	 3.410001e-01	 1.388366e+00	-6.244618e+01
1	 3.251965e-01	 1.392152e+00	-6.158661e+01
1	 3.094022e-01	 1.395748e+00	-6.066601e+01
1	 3.904464e-01	 1.382978e+00	-6.441009e+01
1	 3.745527e-01	 1.387366e+00	-6.365793e+01
1	 3.586584e-01	 1.391560e+00	-6.290489e+01
1	 3.427669e-01	 1.395559e+00	-6.213239e+01
1	 3.268815e-01	 1.399366e+00	-6.132203e+01
1	 3.110054e-01	 1.402979e+00	-6.045559e+01
1	 3.924590e-01	 1.390106e+00	-6.391810e+01
1	 3.764834e-01	 1.394518e+00	-6.319212e+01
1	 3.605072e-01	 1.398733e+00	-6.247538e+01
1	 3.445337e-01	 1.402753e+00	-6.174778e+01
1	 3.285664e-01	 1.406579e+00	-6.098941e+01
1	 3.126085e-01	 1.410211e+00	-6.018052e+01
1	 3.045929e-01	 1.374052e+00	-6.090752e+01
1	 2.890564e-01	 1.377404e+00	-5.978604e+01
1	 2.735353e-01	 1.380570e+00	-5.864031e+01
1	 2.580325e-01	 1.383552e+00	-5.748772e+01
1	 2.425512e-01	 1.386349e+00	-5.634559e+01
1	 2.270943e-01	 1.388965e+00	-5.523119e+01
1	 3.061960e-01	 1.381284e+00	-6.089216e+01
1	 2.905777e-01	 1.384654e+00	-5.981836e+01
1	 2.749749e-01	 1.387836e+00	-5.872436e+01
1	 2.593906e-01	 1.390833e+00	-5.762720e+01
1	 2.438278e-01	 1.393646e+00	-5.654386e+01
1	 2.282895e-01	 1.396275e+00	-5.549127e+01
1	 3.077991e-01	 1.388516e+00	-6.081159e+01
1	 2.920991e-01	 1.391903e+00	-5.978922e+01
1	 2.764146e-01	 1.395103e+00	-5.875125e+01
1	 2.607487e-01	 1.398115e+00	-5.771420e+01
1	 2.451044e-01	 1.400942e+00	-5.669453e+01
1	 2.294847e-01	 1.403586e+00	-5.570863e+01
1	 3.094022e-01	 1.395748e+00	-6.066601e+01
1	 2.936204e-01	 1.399153e+00	-5.969890e+01
1	 2.778542e-01	 1.402369e+00	-5.872132e+01
1	 2.621067e-01	 1.405397e+00	-5.774906e+01
1	 2.463810e-01	 1.408239e+00	-5.679790e+01
1	 2.306800e-01	 1.410896e+00	-5.588351e+01
1	 3.110054e-01	 1.402979e+00	-6.045559e+01
1	 2.951418e-01	 1.406402e+00	-5.954767e+01
1	 2.792939e-01	 1.409635e+00	-5.863488e+01
1	 2.634648e-01	 1.412679e+00	-5.773213e+01
1	 2.476576e-01	 1.415536e+00	-5.685429e+01
1	 2.318752e-01	 1.418206e+00	-5.601616e+01
1	 3.126085e-01	 1.410211e+00	-6.018052e+01
1	 2.966631e-01	 1.413652e+00	-5.933581e+01
1	 2.807336e-01	 1.416901e+00	-5.849227e+01
1	 2.648229e-01	 1.419961e+00	-5.766372e+01
1	 2.489342e-01	 1.422832e+00	-5.686400e+01
1	 2.330704e-01	 1.425517e+00	-5.610684e+01
1	 2.270943e-01	 1.388965e+00	-5.523119e+01
1	 2.116645e-01	 1.391400e+00	-5.415466e+01
1	 1.962649e-01	 1.393656e+00	-5.311497e+01
1	 1.808981e-01	 1.395733e+00	-5.211246e+01
1	 1.655669e-01	 1.397635e+00	-5.114745e+01
1	 1.502741e-01	 1.399362e+00	-5.022014e+01
1	 2.282895e-01	 1.396275e+00	-5.549127e+01
1	 2.127785e-01	 1.398723e+00	-5.447850e+01
1	 1.972978e-01	 1.400991e+00	-5.350281e+01
1	 1.818502e-01	 1.403079e+00	-5.256335e+01
1	 1.664383e-01	 1.404991e+00	-5.165923e+01
1	 1.510650e-01	 1.406727e+00	-5.078949e+01
1	 2.294847e-01	 1.403586e+00	-5.570863e+01
1	 2.138926e-01	 1.406046e+00	-5.476431e+01
1	 1.983308e-01	 1.408326e+00	-5.385718e+01
1	 1.828023e-01	 1.410425e+00	-5.298522e+01
1	 1.673097e-01	 1.412347e+00	-5.214639e+01
1	 1.518559e-01	 1.414092e+00	-5.133861e+01
1	 2.306800e-01	 1.410896e+00	-5.588351e+01
1	 2.150066e-01	 1.413369e+00	-5.501230e+01
1	 1.993638e-01	 1.415661e+00	-5.417823e+01
1	 1.837544e-01	 1.417771e+00	-5.337817e+01
1	 1.681811e-01	 1.419703e+00	-5.260901e+01
1	 1.526468e-01	 1.421457e+00	-5.186759e+01
1	 2.318752e-01	 1.418206e+00	-5.601616e+01
1	 2.161206e-01	 1.420693e+00	-5.522265e+01
1	 2.003968e-01	 1.422996e+00	-5.446609e+01
1	 1.847065e-01	 1.425117e+00	-5.374231e+01
1	 1.690526e-01	 1.427059e+00	-5.304716e+01
1	 1.534377e-01	 1.428822e+00	-5.237650e+01
1	 2.330704e-01	 1.425517e+00	-5.610684e+01
1	 2.172346e-01	 1.428016e+00	-5.539555e+01
1	 2.014297e-01	 1.430331e+00	-5.472089e+01
1	 1.856586e-01	 1.432463e+00	-5.407772e+01
1	 1.699240e-01	 1.434415e+00	-5.346094e+01
1	 1.542286e-01	 1.436187e+00	-5.286542e+01
1	 1.502741e-01	 1.399362e+00	-5.022014e+01
1	 1.350221e-01	 1.400916e+00	-4.933426e+01
1	 1.198136e-01	 1.402298e+00	-4.849642e+01
1	 1.046511e-01	 1.403511e+00	-4.771097e+01
1	 8.953704e-02	 1.404556e+00	-4.698209e+01
1	 7.447382e-02	 1.405436e+00	-4.631376e+01
1	 1.510650e-01	 1.406727e+00	-5.078949e+01
1	 1.357327e-01	 1.408289e+00	-4.995678e+01
1	 1.204442e-01	 1.409679e+00	-4.916680e+01
1	 1.052019e-01	 1.410898e+00	-4.842293e+01
1	 9.000829e-02	 1.411949e+00	-4.772840e+01
1	 7.486579e-02	 1.412833e+00	-4.708627e+01
1	 1.518559e-01	 1.414092e+00	-5.133861e+01
1	 1.364434e-01	 1.415662e+00	-5.056351e+01
1	 1.210748e-01	 1.417059e+00	-4.982572e+01
1	 1.057527e-01	 1.418285e+00	-4.912752e+01
1	 9.047954e-02	 1.419341e+00	-4.847105e+01
1	 7.525776e-02	 1.420230e+00	-4.785830e+01
1	 1.526468e-01	 1.421457e+00	-5.186759e+01
1	 1.371540e-01	 1.423035e+00	-5.115452e+01
1	 1.217054e-01	 1.424440e+00	-5.047325e+01
1	 1.063035e-01	 1.425672e+00	-4.982481e+01
1	 9.095079e-02	 1.426734e+00	-4.921011e+01
1	 7.564973e-02	 1.427627e+00	-4.862994e+01
1	 1.534377e-01	 1.428822e+00	-5.237650e+01
1	 1.378647e-01	 1.430409e+00	-5.172989e+01
1	 1.223360e-01	 1.431820e+00	-5.110946e+01
1	 1.068543e-01	 1.433059e+00	-5.051487e+01
1	 9.142203e-02	 1.434126e+00	-4.994565e+01
1	 7.604169e-02	 1.435024e+00	-4.940126e+01
1	 1.542286e-01	 1.436187e+00	-5.286542e+01
1	 1.385753e-01	 1.437782e+00	-5.228969e+01
1	 1.229666e-01	 1.439201e+00	-5.173444e+01
1	 1.074051e-01	 1.440446e+00	-5.119778e+01
1	 9.189328e-02	 1.441518e+00	-5.067775e+01
1	 7.643366e-02	 1.442421e+00	-5.017235e+01
1	 7.447382e-02	 1.405436e+00	-4.631376e+01
1	 5.946378e-02	 1.406151e+00	-4.570886e+01
1	 4.450918e-02	 1.406703e+00	-4.517086e+01
1	 2.961226e-02	 1.407096e+00	-4.470433e+01
1	 1.477517e-02	 1.407330e+00	-4.431358e+01
1	 0.000000e+00	 1.407407e+00	-4.400261e+01
1	 7.486579e-02	 1.412833e+00	-4.708627e+01
1	 5.977675e-02	 1.413551e+00	-4.649842e+01
1	 4.474344e-02	 1.414107e+00	-4.596746e+01
1	 2.976811e-02	 1.414502e+00	-4.549716e+01
1	 1.485293e-02	 1.414737e+00	-4.509105e+01
1	 0.000000e+00	 1.414815e+00	-4.475241e+01
1	 7.525776e-02	 1.420230e+00	-4.785830e+01
1	 6.008971e-02	 1.420952e+00	-4.729008e+01
1	 4.497770e-02	 1.421511e+00	-4.676804e+01
1	 2.992397e-02	 1.421907e+00	-4.629517e+01
1	 1.493069e-02	 1.422144e+00	-4.587420e+01
1	 0.000000e+00	 1.422222e+00	-4.550766e+01
1	 7.564973e-02	 1.427627e+00	-4.862994e+01
1	 6.040268e-02	 1.428353e+00	-4.808391e+01
1	 4.521196e-02	 1.428915e+00	-4.757272e+01
1	 3.007982e-02	 1.429313e+00	-4.709850e+01
1	 1.500846e-02	 1.429551e+00	-4.666320e+01
1	 0.000000e+00	 1.429630e+00	-4.626855e+01
1	 7.604169e-02	 1.435024e+00	-4.940126e+01
1	 6.071565e-02	 1.435754e+00	-4.888001e+01
1	 4.544622e-02	 1.436318e+00	-4.838158e+01
1	 3.023568e-02	 1.436719e+00	-4.790726e+01
1	 1.508622e-02	 1.436958e+00	-4.745817e+01
1	 0.000000e+00	 1.437037e+00	-4.703525e+01
1	 7.643366e-02	 1.442421e+00	-5.017235e+01
1	 6.102861e-02	 1.443155e+00	-4.967846e+01
1	 4.568048e-02	 1.443722e+00	-4.919472e+01
1	 3.039153e-02	 1.444125e+00	-4.872157e+01
1	 1.516399e-02	 1.444365e+00	-4.825927e+01
1	 0.000000e+00	 1.444444e+00	-4.780794e+01
1	 1.444444e+00	 0.000000e+00	 1.827108e+01
1	 1.444365e+00	 1.516399e-02	 1.787477e+01
1	 1.444125e+00	 3.039153e-02	 1.750199e+01
1	 1.443722e+00	 4.568048e-02	 1.715232e+01
1	 1.443155e+00	 6.102861e-02	 1.682530e+01
1	 1.442421e+00	 7.643366e-02	 1.652043e+01
1	 1.451852e+00	 0.000000e+00	 1.817838e+01
1	 1.451772e+00	 1.524175e-02	 1.778302e+01
1	 1.451530e+00	 3.054738e-02	 1.740843e+01
1	 1.451126e+00	 4.591474e-02	 1.705438e+01
1	 1.450555e+00	 6.134158e-02	 1.672060e+01
1	 1.449818e+00	 7.682563e-02	 1.640677e+01
1	 1.459259e+00	 0.000000e+00	 1.808991e+01
1	 1.459179e+00	 1.531951e-02	 1.769607e+01
1	 1.458936e+00	 3.070324e-02	 1.732008e+01
1	 1.458529e+00	 4.614900e-02	 1.696190e+01
1	 1.457956e+00	 6.165455e-02	 1.662146e+01
1	 1.457215e+00	 7.721760e-02	 1.629864e+01
1	 1.466667e+00	 0.000000e+00	 1.800572e+01
1	 1.466586e+00	 1.539728e-02	 1.761399e+01
1	 1.466342e+00	 3.085909e-02	 1.723702e+01
1	 1.465933e+00	 4.638326e-02	 1.687498e+01
1	 1.465357e+00	 6.196752e-02	 1.652800e+01
1	 1.464612e+00	 7.760956e-02	 1.619619e+01
1	 1.474074e+00	 0.000000e+00	 1.792582e+01
1	 1.473993e+00	 1.547504e-02	 1.753681e+01
1	 1.473748e+00	 3.101495e-02	 1.715931e+01
1	 1.473337e+00	 4.661751e-02	 1.679370e+01
1	 1.472758e+00	 6.228048e-02	 1.644035e+01
1	 1.472009e+00	 7.800153e-02	 1.609960e+01
1	 1.481481e+00	 0.000000e+00	 1.785026e+01
1	 1.481400e+00	 1.555281e-02	 1.746458e+01
1	 1.481154e+00	 3.117080e-02	 1.708701e+01
1	 1.480740e+00	 4.685177e-02	 1.671817e+01
1	 1.480159e+00	 6.259345e-02	 1.635865e+01
1	 1.479406e+00	 7.839350e-02	 1.600903e+01
1	 1.442421e+00	 7.643366e-02	 1.652043e+01
1	 1.441518e+00	 9.189328e-02	 1.624082e+01
1	 1.440446e+00	 1.074051e-01	 1.598996e+01
1	 1.439201e+00	 1.229666e-01	 1.576785e+01
1	 1.437782e+00	 1.385753e-01	 1.557444e+01
1	 1.436187e+00	 1.542286e-01	 1.540968e+01
1	 1.449818e+00	 7.682563e-02	 1.640677e+01
1	 1.448911e+00	 9.236453e-02	 1.611619e+01
1	 1.447833e+00	 1.079559e-01	 1.585257e+01
1	 1.446581e+00	 1.235972e-01	 1.561621e+01
1	 1.445155e+00	 1.392859e-01	 1.540738e+01
1	 1.443552e+00	 1.550196e-01	 1.522630e+01
1	 1.457215e+00	 7.721760e-02	 1.629864e+01
1	 1.456303e+00	 9.283578e-02	 1.599690e+01
1	 1.455220e+00	 1.085067e-01	 1.572020e+01
1	 1.453962e+00	 1.242278e-01	 1.546912e+01
1	 1.452528e+00	 1.399966e-01	 1.524424e+01
1	 1.450917e+00	 1.558105e-01	 1.504607e+01
1	 1.464612e+00	 7.760956e-02	 1.619619e+01
1	 1.463696e+00	 9.330702e-02	 1.588317e+01
1	 1.462606e+00	 1.090575e-01	 1.559310e+01
1	 1.461342e+00	 1.248584e-01	 1.532687e+01
1	 1.459902e+00	 1.407072e-01	 1.508535e+01
1	 1.458282e+00	 1.566014e-01	 1.486936e+01
1	 1.472009e+00	 7.800153e-02	 1.609960e+01
1	 1.471088e+00	 9.377827e-02	 1.577521e+01
1	 1.469993e+00	 1.096083e-01	 1.547152e+01
1	 1.468723e+00	 1.254890e-01	 1.518974e+01
1	 1.467275e+00	 1.414179e-01	 1.493102e+01
1	 1.465647e+00	 1.573923e-01	 1.469650e+01
1	 1.479406e+00	 7.839350e-02	 1.600903e+01
1	 1.478480e+00	 9.424952e-02	 1.567322e+01
1	 1.477380e+00	 1.101591e-01	 1.535571e+01
1	 1.476103e+00	 1.261196e-01	 1.505801e+01
1	 1.474648e+00	 1.421285e-01	 1.478157e+01
1	 1.473012e+00	 1.581832e-01	 1.452782e+01
1	 1.436187e+00	 1.542286e-01	 1.540968e+01
1	 1.434415e+00	 1.699240e-01	 1.527250e+01
1	 1.432463e+00	 1.856586e-01	 1.516205e+01
1	 1.430331e+00	 2.014297e-01	 1.507856e+01
1	 1.428016e+00	 2.172346e-01	 1.502222e+01
1	 1.425517e+00	 2.330704e-01	 1.499321e+01
1	 1.443552e+00	 1.550196e-01	 1.522630e+01
1	 1.441771e+00	 1.707954e-01	 1.507214e+01
1	 1.439809e+00	 1.866107e-01	 1.494421e+01
1	 1.437666e+00	 2.024627e-01	 1.484293e+01
1	 1.435339e+00	 2.183487e-01	 1.476867e+01
1	 1.432827e+00	 2.342656e-01	 1.472179e+01
1	 1.450917e+00	 1.558105e-01	 1.504607e+01
1	 1.449127e+00	 1.716668e-01	 1.487406e+01
1	 1.447155e+00	 1.875628e-01	 1.472773e+01
1	 1.445001e+00	 2.034957e-01	 1.460772e+01
1	 1.442662e+00	 2.194627e-01	 1.451464e+01
1	 1.440137e+00	 2.354609e-01	 1.444905e+01
1	 1.458282e+00	 1.566014e-01	 1.486936e+01
1	 1.456483e+00	 1.725382e-01	 1.467863e+01
1	 1.454501e+00	 1.885149e-01	 1.451297e+01
1	 1.452336e+00	 2.045287e-01	 1.437327e+01
1	 1.449985e+00	 2.205767e-01	 1.426041e+01
1	 1.447448e+00	 2.366561e-01	 1.417522e+01
1	 1.465647e+00	 1.573923e-01	 1.469650e+01
1	 1.463839e+00	 1.734096e-01	 1.448621e+01
1	 1.461847e+00	 1.894670e-01	 1.430028e+01
1	 1.459671e+00	 2.055616e-01	 1.413991e+01
1	 1.457308e+00	 2.216907e-01	 1.400627e+01
1	 1.454758e+00	 2.378513e-01	 1.390050e+01
1	 1.473012e+00	 1.581832e-01	 1.452782e+01
1	 1.471195e+00	 1.742810e-01	 1.429714e+01
1	 1.469193e+00	 1.904191e-01	 1.409000e+01
1	 1.467006e+00	 2.065946e-01	 1.390794e+01
1	 1.464631e+00	 2.228048e-01	 1.375248e+01
1	 1.462068e+00	 2.390466e-01	 1.362509e+01
1	 1.425517e+00	 2.330704e-01	 1.499321e+01
1	 1.422832e+00	 2.489342e-01	 1.499844e+01
1	 1.419961e+00	 2.648229e-01	 1.504286e+01
1	 1.416901e+00	 2.807336e-01	 1.512369e+01
1	 1.413652e+00	 2.966631e-01	 1.523814e+01
1	 1.410211e+00	 3.126085e-01	 1.538348e+01
1	 1.432827e+00	 2.342656e-01	 1.472179e+01
1	 1.430129e+00	 2.502107e-01	 1.470971e+01
1	 1.427243e+00	 2.661809e-01	 1.473792e+01
1	 1.424167e+00	 2.821732e-01	 1.480376e+01
1	 1.420901e+00	 2.981845e-01	 1.490462e+01
1	 1.417443e+00	 3.142116e-01	 1.503789e+01
1	 1.440137e+00	 2.354609e-01	 1.444905e+01
1	 1.437425e+00	 2.514873e-01	 1.441891e+01
1	 1.434524e+00	 2.675390e-01	 1.443012e+01
1	 1.431433e+00	 2.836129e-01	 1.448025e+01
1	 1.428151e+00	 2.997058e-01	 1.456680e+01
1	 1.424675e+00	 3.158147e-01	 1.468730e+01
1	 1.447448e+00	 2.366561e-01	 1.417522e+01
1	 1.444722e+00	 2.527639e-01	 1.412615e+01
1	 1.441806e+00	 2.688971e-01	 1.411957e+01
1	 1.438699e+00	 2.850525e-01	 1.415319e+01
1	 1.435400e+00	 3.012272e-01	 1.422470e+01
1	 1.431907e+00	 3.174178e-01	 1.433177e+01
1	 1.454758e+00	 2.378513e-01	 1.390050e+01
1	 1.452019e+00	 2.540405e-01	 1.383158e+01
1	 1.449088e+00	 2.702551e-01	 1.380634e+01
1	 1.445966e+00	 2.864922e-01	 1.382265e+01
1	 1.442650e+00	 3.027485e-01	 1.387837e+01
1	 1.439139e+00	 3.190210e-01	 1.397133e+01
1	 1.462068e+00	 2.390466e-01	 1.362509e+01
1	 1.459315e+00	 2.553171e-01	 1.353534e+01
1	 1.456370e+00	 2.716132e-01	 1.349051e+01
1	 1.453232e+00	 2.879319e-01	 1.348868e+01
1	 1.449899e+00	 3.042699e-01	 1.352785e+01
1	 1.446370e+00	 3.206241e-01	 1.360603e+01
1	 1.410211e+00	 3.126085e-01	 1.538348e+01
1	 1.406579e+00	 3.285664e-01	 1.554410e+01
1	 1.402753e+00	 3.445337e-01	 1.570773e+01
1	 1.398733e+00	 3.605072e-01	 1.587659e+01
1	 1.394518e+00	 3.764834e-01	 1.605286e+01
1	 1.390106e+00	 3.924590e-01	 1.623867e+01
1	 1.417443e+00	 3.142116e-01	 1.503789e+01
1	 1.413792e+00	 3.302514e-01	 1.518734e+01
1	 1.409947e+00	 3.463006e-01	 1.534013e+01
1	 1.405906e+00	 3.623559e-01	 1.549869e+01
1	 1.401669e+00	 3.784140e-01	 1.566540e+01
1	 1.397235e+00	 3.944716e-01	 1.584258e+01
1	 1.424675e+00	 3.158147e-01	 1.468730e+01
1	 1.421005e+00	 3.319363e-01	 1.482501e+01
1	 1.417140e+00	 3.480674e-01	 1.496654e+01
1	 1.413079e+00	 3.642047e-01	 1.511450e+01
1	 1.408821e+00	 3.803447e-01	 1.527143e+01
1	 1.404364e+00	 3.964842e-01	 1.543985e+01
1	 1.431907e+00	 3.174178e-01	 1.433177e+01
1	 1.428218e+00	 3.336213e-01	 1.445717e+01
1	 1.424334e+00	 3.498343e-01	 1.458706e+01
1	 1.420252e+00	 3.660534e-01	 1.472417e+01
1	 1.415972e+00	 3.822754e-01	 1.487119e+01
1	 1.411493e+00	 3.984968e-01	 1.503076e+01
1	 1.439139e+00	 3.190210e-01	 1.397133e+01
1	 1.435432e+00	 3.353062e-01	 1.408390e+01
1	 1.431528e+00	 3.516011e-01	 1.420180e+01
1	 1.427425e+00	 3.679022e-01	 1.432785e+01
1	 1.423123e+00	 3.842061e-01	 1.446488e+01
1	 1.418621e+00	 4.005095e-01	 1.461564e+01
1	 1.446370e+00	 3.206241e-01	 1.360603e+01
1	 1.442645e+00	 3.369912e-01	 1.370526e+01
1	 1.438721e+00	 3.533679e-01	 1.381085e+01
1	 1.434598e+00	 3.697509e-01	 1.392570e+01
1	 1.430275e+00	 3.861368e-01	 1.405272e+01
1	 1.425750e+00	 4.025221e-01	 1.419476e+01
1	 1.390106e+00	 3.924590e-01	 1.623867e+01
1	 1.385498e+00	 4.084307e-01	 1.639936e+01
1	 1.380691e+00	 4.243950e-01	 1.649952e+01
1	 1.375686e+00	 4.403485e-01	 1.654019e+01
1	 1.370482e+00	 4.562876e-01	 1.652263e+01
1	 1.365078e+00	 4.722087e-01	 1.644822e+01
1	 1.397235e+00	 3.944716e-01	 1.584258e+01
1	 1.392603e+00	 4.105252e-01	 1.599671e+01
1	 1.387772e+00	 4.265714e-01	 1.609311e+01
1	 1.382741e+00	 4.426067e-01	 1.613253e+01
1	 1.377510e+00	 4.586275e-01	 1.611589e+01
1	 1.372079e+00	 4.746303e-01	 1.604428e+01
1	 1.404364e+00	 3.964842e-01	 1.543985e+01
1	 1.399708e+00	 4.126197e-01	 1.558733e+01
1	 1.394852e+00	 4.287478e-01	 1.568002e+01
1	 1.389796e+00	 4.448649e-01	 1.571834e+01
1	 1.384538e+00	 4.609674e-01	 1.570288e+01
1	 1.379079e+00	 4.770519e-01	 1.563442e+01
1	 1.411493e+00	 3.984968e-01	 1.503076e+01
1	 1.406813e+00	 4.147143e-01	 1.517160e+01
1	 1.401933e+00	 4.309242e-01	 1.526062e+01
1	 1.396851e+00	 4.471231e-01	 1.529794e+01
1	 1.391567e+00	 4.633074e-01	 1.528384e+01
1	 1.386079e+00	 4.794735e-01	 1.521877e+01
1	 1.418621e+00	 4.005095e-01	 1.461564e+01
1	 1.413918e+00	 4.168088e-01	 1.474987e+01
1	 1.409013e+00	 4.331006e-01	 1.483528e+01
1	 1.403906e+00	 4.493813e-01	 1.487167e+01
1	 1.398595e+00	 4.656473e-01	 1.485901e+01
1	 1.393080e+00	 4.818951e-01	 1.479743e+01
1	 1.425750e+00	 4.025221e-01	 1.419476e+01
1	 1.421023e+00	 4.189033e-01	 1.432251e+01
1	 1.416094e+00	 4.352769e-01	 1.440437e+01
1	 1.410960e+00	 4.516395e-01	 1.443986e+01
1	 1.405623e+00	 4.679872e-01	 1.442863e+01
1	 1.400080e+00	 4.843166e-01	 1.437049e+01
1	 1.365078e+00	 4.722087e-01	 1.644822e+01
1	 1.359474e+00	 4.881084e-01	 1.630743e+01
1	 1.353669e+00	 5.039830e-01	 1.608898e+01
1	 1.347664e+00	 5.198290e-01	 1.579190e+01
1	 1.341457e+00	 5.356425e-01	 1.541530e+01
1	 1.335049e+00	 5.514200e-01	 1.495838e+01
1	 1.372079e+00	 4.746303e-01	 1.604428e+01
1	 1.366446e+00	 4.906116e-01	 1.590757e+01
1	 1.360611e+00	 5.065676e-01	 1.569416e+01
1	 1.354575e+00	 5.224948e-01	 1.540304e+01
1	 1.348336e+00	 5.383894e-01	 1.503335e+01
1	 1.341895e+00	 5.542478e-01	 1.458428e+01
1	 1.379079e+00	 4.770519e-01	 1.563442e+01
1	 1.373417e+00	 4.931147e-01	 1.550228e+01
1	 1.367553e+00	 5.091521e-01	 1.529444e+01
1	 1.361486e+00	 5.251605e-01	 1.500992e+01
1	 1.355216e+00	 5.411363e-01	 1.464783e+01
1	 1.348742e+00	 5.570756e-01	 1.420741e+01
1	 1.386079e+00	 4.794735e-01	 1.521877e+01
1	 1.380389e+00	 4.956178e-01	 1.509152e+01
1	 1.374495e+00	 5.117366e-01	 1.488973e+01
1	 1.368397e+00	 5.278263e-01	 1.461241e+01
1	 1.362095e+00	 5.438832e-01	 1.425868e+01
1	 1.355588e+00	 5.599034e-01	 1.382781e+01
1	 1.393080e+00	 4.818951e-01	 1.479743e+01
1	 1.387361e+00	 4.981209e-01	 1.467526e+01
1	 1.381437e+00	 5.143212e-01	 1.447991e+01
1	 1.375308e+00	 5.304921e-01	 1.421038e+01
1	 1.368974e+00	 5.466301e-01	 1.386582e+01
1	 1.362435e+00	 5.627312e-01	 1.344551e+01
1	 1.400080e+00	 4.843166e-01	 1.437049e+01
1	 1.394332e+00	 5.006240e-01	 1.425346e+01
1	 1.388379e+00	 5.169057e-01	 1.406488e+01
1	 1.382219e+00	 5.331579e-01	 1.380374e+01
1	 1.375853e+00	 5.493769e-01	 1.346918e+01
1	 1.369281e+00	 5.655590e-01	 1.306056e+01
1	 1.335049e+00	 5.514200e-01	 1.495838e+01
1	 1.328440e+00	 5.671578e-01	 1.440892e+01
1	 1.321629e+00	 5.828521e-01	 1.375664e+01
1	 1.314617e+00	 5.984993e-01	 1.300385e+01
1	 1.307404e+00	 6.140956e-01	 1.215294e+01
1	 1.299991e+00	 6.296372e-01	 1.120636e+01
1	 1.341895e+00	 5.542478e-01	 1.458428e+01
1	 1.335252e+00	 5.700663e-01	 1.404333e+01
1	 1.328407e+00	 5.858411e-01	 1.339987e+01
1	 1.321359e+00	 6.015685e-01	 1.265607e+01
1	 1.314109e+00	 6.172448e-01	 1.181417e+01
1	 1.306658e+00	 6.328661e-01	 1.087647e+01
1	 1.348742e+00	 5.570756e-01	 1.420741e+01
1	 1.342065e+00	 5.729748e-01	 1.367580e+01
1	 1.335184e+00	 5.888301e-01	 1.304191e+01
1	 1.328100e+00	 6.046378e-01	 1.230777e+01
1	 1.320814e+00	 6.203940e-01	 1.147547e+01
1	 1.313324e+00	 6.360950e-01	 1.054713e+01
1	 1.355588e+00	 5.599034e-01	 1.382781e+01
1	 1.348877e+00	 5.758833e-01	 1.330646e+01
1	 1.341962e+00	 5.918191e-01	 1.268298e+01
1	 1.334842e+00	 6.077070e-01	 1.195920e+01
1	 1.327518e+00	 6.235432e-01	 1.113705e+01
1	 1.319991e+00	 6.393239e-01	 1.021845e+01
1	 1.362435e+00	 5.627312e-01	 1.344551e+01
1	 1.355690e+00	 5.787918e-01	 1.293549e+01
1	 1.348739e+00	 5.948081e-01	 1.232329e+01
1	 1.341584e+00	 6.107762e-01	 1.161060e+01
1	 1.334223e+00	 6.266924e-01	 1.079912e+01
1	 1.326658e+00	 6.425528e-01	 9.890548e+00
1	 1.369281e+00	 5.655590e-01	 1.306056e+01
1	 1.362502e+00	 5.817003e-01	 1.256303e+01
1	 1.355517e+00	 5.977971e-01	 1.196307e+01
1	 1.348325e+00	 6.138455e-01	 1.126219e+01
1	 1.340928e+00	 6.298416e-01	 1.046187e+01
1	 1.333324e+00	 6.457817e-01	 9.563552e+00
1	 1.299991e+00	 6.296372e-01	 1.120636e+01
1	 1.292377e+00	 6.451203e-01	 1.014636e+01
1	 1.284564e+00	 6.605413e-01	 8.951733e+00
1	 1.276552e+00	 6.758964e-01	 7.619545e+00
1	 1.268341e+00	 6.911817e-01	 6.146570e+00
1	 1.259932e+00	 7.063935e-01	 4.529276e+00
1	 1.306658e+00	 6.328661e-01	 1.087647e+01
1	 1.299005e+00	 6.484286e-01	 9.823656e+00
1	 1.291152e+00	 6.639287e-01	 8.633220e+00
1	 1.283098e+00	 6.793625e-01	 7.302570e+00
1	 1.274845e+00	 6.947262e-01	 5.828849e+00
1	 1.266393e+00	 7.100161e-01	 4.208940e+00
1	 1.313324e+00	 6.360950e-01	 1.054713e+01
1	 1.305633e+00	 6.517370e-01	 9.502061e+00
1	 1.297739e+00	 6.673161e-01	 8.316758e+00
1	 1.289644e+00	 6.828286e-01	 6.988999e+00
1	 1.281349e+00	 6.982707e-01	 5.516355e+00
1	 1.272854e+00	 7.136386e-01	 3.896185e+00
1	 1.319991e+00	 6.393239e-01	 1.021845e+01
1	 1.312260e+00	 6.550453e-01	 9.181623e+00
1	 1.304327e+00	 6.707035e-01	 8.002387e+00
1	 1.296191e+00	 6.862948e-01	 6.678938e+00
1	 1.287853e+00	 7.018152e-01	 5.209326e+00
1	 1.279315e+00	 7.172611e-01	 3.591449e+00
1	 1.326658e+00	 6.425528e-01	 9.890548e+00
1	 1.318888e+00	 6.583536e-01	 8.862389e+00
1	 1.310914e+00	 6.740909e-01	 7.690150e+00
1	 1.302737e+00	 6.897609e-01	 6.372493e+00
1	 1.294358e+00	 7.053598e-01	 4.907999e+00
1	 1.285776e+00	 7.208837e-01	 3.295165e+00
1	 1.333324e+00	 6.457817e-01	 9.563552e+00
1	 1.325515e+00	 6.616619e-01	 8.544407e+00
1	 1.317502e+00	 6.774783e-01	 7.380089e+00
1	 1.309284e+00	 6.932270e-01	 6.069767e+00
1	 1.300862e+00	 7.089043e-01	 4.612604e+00
1	 1.292238e+00	 7.245062e-01	 3.007754e+00
1	 1.259932e+00	 7.063935e-01	 4.529276e+00
1	 1.251326e+00	 7.215282e-01	 2.817059e+00
1	 1.242524e+00	 7.365818e-01	 1.065432e+00
1	 1.233528e+00	 7.515508e-01	-7.197038e-01
1	 1.224338e+00	 7.664313e-01	-2.531803e+00
1	 1.214955e+00	 7.812197e-01	-4.363685e+00
1	 1.266393e+00	 7.100161e-01	 4.208940e+00
1	 1.257743e+00	 7.252283e-01	 2.496626e+00
1	 1.248896e+00	 7.403592e-01	 7.513178e-01
1	 1.239854e+00	 7.554049e-01	-1.021384e+00
1	 1.230616e+00	 7.703617e-01	-2.815258e+00
1	 1.221185e+00	 7.852260e-01	-4.623471e+00
1	 1.272854e+00	 7.136386e-01	 3.896185e+00
1	 1.264160e+00	 7.289284e-01	 2.186388e+00
1	 1.255268e+00	 7.441365e-01	 4.499046e-01
1	 1.246180e+00	 7.592590e-01	-1.308059e+00
1	 1.236895e+00	 7.742922e-01	-3.081711e+00
1	 1.227416e+00	 7.892322e-01	-4.864685e+00
1	 1.279315e+00	 7.172611e-01	 3.591449e+00
1	 1.270577e+00	 7.326286e-01	 1.886963e+00
1	 1.261640e+00	 7.479138e-01	 1.618798e-01
1	 1.252505e+00	 7.631131e-01	-1.579080e+00
1	 1.243174e+00	 7.782226e-01	-3.330661e+00
1	 1.233647e+00	 7.932385e-01	-5.087079e+00
1	 1.285776e+00	 7.208837e-01	 3.295165e+00
1	 1.276994e+00	 7.363287e-01	 1.598958e+00
1	 1.268012e+00	 7.516912e-01	-1.120829e-01
1	 1.258831e+00	 7.669672e-01	-1.833813e+00
1	 1.249452e+00	 7.821530e-01	-3.561616e+00
1	 1.239877e+00	 7.972448e-01	-5.290408e+00
1	 1.292238e+00	 7.245062e-01	 3.007754e+00
1	 1.283411e+00	 7.400289e-01	 1.322967e+00
1	 1.274384e+00	 7.554685e-01	-3.713232e-01
1	 1.265157e+00	 7.708213e-01	-2.071636e+00
1	 1.255731e+00	 7.860834e-01	-3.774095e+00
1	 1.246108e+00	 8.012510e-01	-5.474433e+00
1	 1.214955e+00	 7.812197e-01	-4.363685e+00
1	 1.205381e+00	 7.959124e-01	-6.147012e+00
1	 1.195617e+00	 8.105055e-01	-7.822952e+00
1	 1.185665e+00	 8.249956e-01	-9.398540e+00
1	 1.175526e+00	 8.393791e-01	-1.088137e+01
1	 1.165203e+00	 8.536522e-01	-1.227960e+01
1	 1.221185e+00	 7.852260e-01	-4.623471e+00
1	 1.211562e+00	 7.999940e-01	-6.382552e+00
1	 1.201749e+00	 8.146620e-01	-8.038174e+00
1	 1.191746e+00	 8.292264e-01	-9.597198e+00
1	 1.181555e+00	 8.436836e-01	-1.106707e+01
1	 1.171178e+00	 8.580299e-01	-1.245580e+01
1	 1.227416e+00	 7.892322e-01	-4.864685e+00
1	 1.217744e+00	 8.040756e-01	-6.598414e+00
1	 1.207880e+00	 8.188184e-01	-8.232951e+00
1	 1.197826e+00	 8.334571e-01	-9.774871e+00
1	 1.187583e+00	 8.479881e-01	-1.123134e+01
1	 1.177154e+00	 8.624076e-01	-1.261010e+01
1	 1.233647e+00	 7.932385e-01	-5.087079e+00
1	 1.223925e+00	 8.081572e-01	-6.794597e+00
1	 1.214011e+00	 8.229749e-01	-8.407420e+00
1	 1.203906e+00	 8.376879e-01	-9.931729e+00
1	 1.193612e+00	 8.522926e-01	-1.137428e+01
1	 1.183129e+00	 8.667854e-01	-1.274240e+01
1	 1.239877e+00	 7.972448e-01	-5.290408e+00
1	 1.230107e+00	 8.122388e-01	-6.971100e+00
1	 1.220143e+00	 8.271313e-01	-8.561720e+00
1	 1.209987e+00	 8.419186e-01	-1.006794e+01
1	 1.199640e+00	 8.565971e-01	-1.149599e+01
1	 1.189104e+00	 8.711631e-01	-1.285264e+01
1	 1.246108e+00	 8.012510e-01	-5.474433e+00
1	 1.236288e+00	 8.163204e-01	-7.127923e+00
1	 1.226274e+00	 8.312877e-01	-8.695983e+00
1	 1.216067e+00	 8.461494e-01	-1.018367e+01
1	 1.205668e+00	 8.609016e-01	-1.159655e+01
1	 1.195080e+00	 8.755408e-01	-1.294074e+01
1	 1.165203e+00	 8.536522e-01	-1.227960e+01
1	 1.154696e+00	 8.678116e-01	-1.358319e+01
1	 1.144008e+00	 8.818538e-01	-1.477538e+01
1	 1.133140e+00	 8.957752e-01	-1.585468e+01
1	 1.122095e+00	 9.095725e-01	-1.681963e+01
1	 1.110875e+00	 9.232423e-01	-1.766875e+01
1	 1.171178e+00	 8.580299e-01	-1.245580e+01
1	 1.160617e+00	 8.722620e-01	-1.375124e+01
1	 1.149874e+00	 8.863761e-01	-1.493526e+01
1	 1.138951e+00	 9.003689e-01	-1.600739e+01
1	 1.127850e+00	 9.142370e-01	-1.696720e+01
1	 1.116572e+00	 9.279769e-01	-1.781427e+01
1	 1.177154e+00	 8.624076e-01	-1.261010e+01
1	 1.166539e+00	 8.767123e-01	-1.389681e+01
1	 1.155741e+00	 8.908984e-01	-1.507201e+01
1	 1.144762e+00	 9.049626e-01	-1.613623e+01
1	 1.133604e+00	 9.189014e-01	-1.709007e+01
1	 1.122269e+00	 9.327114e-01	-1.793419e+01
1	 1.183129e+00	 8.667854e-01	-1.274240e+01
1	 1.172460e+00	 8.811626e-01	-1.401960e+01
1	 1.161608e+00	 8.954208e-01	-1.518517e+01
1	 1.150573e+00	 9.095564e-01	-1.624063e+01
1	 1.139358e+00	 9.235659e-01	-1.718763e+01
1	 1.127965e+00	 9.374460e-01	-1.802789e+01
1	 1.189104e+00	 8.711631e-01	-1.285264e+01
1	 1.178382e+00	 8.856129e-01	-1.411934e+01
1	 1.167475e+00	 8.999431e-01	-1.527431e+01
1	 1.156384e+00	 9.141501e-01	-1.632006e+01
1	 1.145113e+00	 9.282304e-01	-1.725926e+01
1	 1.133662e+00	 9.421806e-01	-1.809473e+01
1	 1.195080e+00	 8.755408e-01	-1.294074e+01
1	 1.184304e+00	 8.900632e-01	-1.419574e+01
1	 1.173341e+00	 9.044654e-01	-1.533899e+01
1	 1.162195e+00	 9.187438e-01	-1.637397e+01
1	 1.150867e+00	 9.328949e-01	-1.730438e+01
1	 1.139359e+00	 9.469152e-01	-1.813411e+01
1	 1.110875e+00	 9.232423e-01	-1.766875e+01
1	 1.099482e+00	 9.367813e-01	-1.842114e+01
1	 1.087918e+00	 9.501862e-01	-1.909447e+01
1	 1.076186e+00	 9.634539e-01	-1.968493e+01
1	 1.064288e+00	 9.765811e-01	-2.018848e+01
1	 1.052227e+00	 9.895648e-01	-2.060077e+01
1	 1.116572e+00	 9.279769e-01	-1.781427e+01
1	 1.105120e+00	 9.415853e-01	-1.856707e+01
1	 1.093497e+00	 9.550590e-01	-1.924124e+01
1	 1.081705e+00	 9.683947e-01	-1.983190e+01
1	 1.069746e+00	 9.815892e-01	-2.033389e+01
1	 1.057623e+00	 9.946395e-01	-2.074173e+01
1	 1.122269e+00	 9.327114e-01	-1.793419e+01
1	 1.110759e+00	 9.463893e-01	-1.868622e+01
1	 1.099076e+00	 9.599317e-01	-1.935966e+01
1	 1.087224e+00	 9.733355e-01	-1.994881e+01
1	 1.075204e+00	 9.865973e-01	-2.044762e+01
1	 1.063019e+00	 9.997142e-01	-2.084970e+01
1	 1.127965e+00	 9.374460e-01	-1.802789e+01
1	 1.116397e+00	 9.511933e-01	-1.877797e+01
1	 1.104655e+00	 9.648045e-01	-1.944921e+01
1	 1.092743e+00	 9.782762e-01	-2.003527e+01
1	 1.080662e+00	 9.916054e-01	-2.052944e+01
1	 1.068415e+00	 1.004789e+00	-2.092465e+01
1	 1.133662e+00	 9.421806e-01	-1.809473e+01
1	 1.122035e+00	 9.559973e-01	-1.884175e+01
1	 1.110234e+00	 9.696772e-01	-1.950938e+01
1	 1.098262e+00	 9.832170e-01	-2.009089e+01
1	 1.086120e+00	 9.966135e-01	-2.057914e+01
1	 1.073811e+00	 1.009864e+00	-2.096659e+01
1	 1.139359e+00	 9.469152e-01	-1.813411e+01
1	 1.127674e+00	 9.608013e-01	-1.887696e+01
1	 1.115813e+00	 9.745500e-01	-1.953968e+01
1	 1.103781e+00	 9.881578e-01	-2.011531e+01
1	 1.091578e+00	 1.001622e+00	-2.059650e+01
1	 1.079207e+00	 1.014938e+00	-2.097548e+01
1	 1.052227e+00	 9.895648e-01	-2.060077e+01
1	 1.040005e+00	 1.002402e+00	-2.097828e+01
1	 1.027625e+00	 1.015090e+00	-2.138110e+01
1	 1.015090e+00	 1.027625e+00	-2.181018e+01
1	 1.002402e+00	 1.040005e+00	-2.226657e+01
1	 9.895648e-01	 1.052227e+00	-2.275140e+01
1	 1.057623e+00	 9.946395e-01	-2.074173e+01
1	 1.045338e+00	 1.007542e+00	-2.111286e+01
1	 1.032895e+00	 1.020295e+00	-2.150957e+01
1	 1.020295e+00	 1.032895e+00	-2.193349e+01
1	 1.007542e+00	 1.045338e+00	-2.238640e+01
1	 9.946395e-01	 1.057623e+00	-2.287015e+01
1	 1.063019e+00	 9.997142e-01	-2.084970e+01
1	 1.050672e+00	 1.012683e+00	-2.121380e+01
1	 1.038165e+00	 1.025501e+00	-2.160437e+01
1	 1.025501e+00	 1.038165e+00	-2.202339e+01
1	 1.012683e+00	 1.050672e+00	-2.247294e+01
1	 9.997142e-01	 1.063019e+00	-2.295523e+01
1	 1.068415e+00	 1.004789e+00	-2.092465e+01
1	 1.056005e+00	 1.017824e+00	-2.128126e+01
1	 1.043434e+00	 1.030706e+00	-2.166573e+01
1	 1.030706e+00	 1.043434e+00	-2.208001e+01
1	 1.017824e+00	 1.056005e+00	-2.252617e+01
1	 1.004789e+00	 1.068415e+00	-2.300636e+01
1	 1.073811e+00	 1.009864e+00	-2.096659e+01
1	 1.061338e+00	 1.022964e+00	-2.131537e+01
1	 1.048704e+00	 1.035912e+00	-2.169383e+01
1	 1.035912e+00	 1.048704e+00	-2.210351e+01
1	 1.022964e+00	 1.061338e+00	-2.254608e+01
1	 1.009864e+00	 1.073811e+00	-2.302329e+01
1	 1.079207e+00	 1.014938e+00	-2.097548e+01
1	 1.066672e+00	 1.028105e+00	-2.131630e+01
1	 1.053974e+00	 1.041118e+00	-2.168886e+01
1	 1.041118e+00	 1.053974e+00	-2.209402e+01
1	 1.028105e+00	 1.066672e+00	-2.253266e+01
1	 1.014938e+00	 1.079207e+00	-2.300577e+01
1	 9.895648e-01	 1.052227e+00	-2.275140e+01
1	 9.765811e-01	 1.064288e+00	-2.332551e+01
1	 9.634539e-01	 1.076186e+00	-2.404981e+01
1	 9.501862e-01	 1.087918e+00	-2.492570e+01
1	 9.367813e-01	 1.099482e+00	-2.595480e+01
1	 9.232423e-01	 1.110875e+00	-2.713895e+01
1	 9.946395e-01	 1.057623e+00	-2.287015e+01
1	 9.815892e-01	 1.069746e+00	-2.344684e+01
1	 9.683947e-01	 1.081705e+00	-2.417707e+01
1	 9.550590e-01	 1.093497e+00	-2.506061e+01
1	 9.415853e-01	 1.105120e+00	-2.609742e+01
1	 9.279769e-01	 1.116572e+00	-2.728763e+01
1	 9.997142e-01	 1.063019e+00	-2.295523e+01
1	 9.865973e-01	 1.075204e+00	-2.353308e+01
1	 9.733355e-01	 1.087224e+00	-2.426680e+01
1	 9.599317e-01	 1.099076e+00	-2.515497e+01
1	 9.463893e-01	 1.110759e+00	-2.619632e+01
1	 9.327114e-01	 1.122269e+00	-2.738970e+01
1	 1.004789e+00	 1.068415e+00	-2.300636e+01
1	 9.916054e-01	 1.080662e+00	-2.358374e+01
1	 9.782762e-01	 1.092743e+00	-2.431844e+01
1	 9.648045e-01	 1.104655e+00	-2.520827e+01
1	 9.511933e-01	 1.116397e+00	-2.625116e+01
1	 9.374460e-01	 1.127965e+00	-2.744515e+01
1	 1.009864e+00	 1.073811e+00	-2.302329e+01
1	 9.966135e-01	 1.086120e+00	-2.359834e+01
1	 9.832170e-01	 1.098262e+00	-2.433143e+01
1	 9.696772e-01	 1.110234e+00	-2.522000e+01
1	 9.559973e-01	 1.122035e+00	-2.626162e+01
1	 9.421806e-01	 1.133662e+00	-2.745397e+01
1	 1.014938e+00	 1.079207e+00	-2.300577e+01
1	 1.001622e+00	 1.091578e+00	-2.357640e+01
1	 9.881578e-01	 1.103781e+00	-2.430520e+01
1	 9.745500e-01	 1.115813e+00	-2.518966e+01
1	 9.608013e-01	 1.127674e+00	-2.622739e+01
1	 9.469152e-01	 1.139359e+00	-2.741615e+01
1	 9.232423e-01	 1.110875e+00	-2.713895e+01
1	 9.095725e-01	 1.122095e+00	-2.847657e+01
1	 8.957752e-01	 1.133140e+00	-2.995654e+01
1	 8.818538e-01	 1.144008e+00	-3.156622e+01
1	 8.678116e-01	 1.154696e+00	-3.329266e+01
1	 8.536522e-01	 1.165203e+00	-3.512258e+01
1	 9.279769e-01	 1.116572e+00	-2.728763e+01
1	 9.142370e-01	 1.127850e+00	-2.862612e+01
1	 9.003689e-01	 1.138951e+00	-3.010058e+01
1	 8.863761e-01	 1.149874e+00	-3.170022e+01
1	 8.722620e-01	 1.160617e+00	-3.341394e+01
1	 8.580299e-01	 1.171178e+00	-3.523041e+01
1	 9.327114e-01	 1.122269e+00	-2.738970e+01
1	 9.189014e-01	 1.133604e+00	-2.872721e+01
1	 9.049626e-01	 1.144762e+00	-3.019556e+01
1	 8.908984e-01	 1.155741e+00	-3.178540e+01
1	 8.767123e-01	 1.166539e+00	-3.348717e+01
1	 8.624076e-01	 1.177154e+00	-3.529105e+01
1	 9.374460e-01	 1.127965e+00	-2.744515e+01
1	 9.235659e-01	 1.139358e+00	-2.878015e+01
1	 9.095564e-01	 1.150573e+00	-3.024192e+01
1	 8.954208e-01	 1.161608e+00	-3.182226e+01
1	 8.811626e-01	 1.172460e+00	-3.351271e+01
1	 8.667854e-01	 1.183129e+00	-3.530464e+01
1	 9.421806e-01	 1.133662e+00	-2.745397e+01
1	 9.282304e-01	 1.145113e+00	-2.878521e+01
1	 9.141501e-01	 1.156384e+00	-3.024012e+01
1	 8.999431e-01	 1.167475e+00	-3.181124e+01
1	 8.856129e-01	 1.178382e+00	-3.349093e+01
1	 8.711631e-01	 1.189104e+00	-3.527132e+01
1	 9.469152e-01	 1.139359e+00	-2.741615e+01
1	 9.328949e-01	 1.150867e+00	-2.874267e+01
1	 9.187438e-01	 1.162195e+00	-3.019057e+01
1	 9.044654e-01	 1.173341e+00	-3.175282e+01
1	 8.900632e-01	 1.184304e+00	-3.342218e+01
1	 8.755408e-01	 1.195080e+00	-3.519122e+01
1	 8.536522e-01	 1.165203e+00	-3.512258e+01
1	 8.393791e-01	 1.175526e+00	-3.702976e+01
1	 8.249956e-01	 1.185665e+00	-3.899272e+01
1	 8.105055e-01	 1.195617e+00	-4.100502e+01
1	 7.959124e-01	 1.205381e+00	-4.306005e+01
1	 7.812197e-01	 1.214955e+00	-4.515110e+01
1	 8.580299e-01	 1.171178e+00	-3.523041e+01
1	 8.436836e-01	 1.181555e+00	-3.712501e+01
1	 8.292264e-01	 1.191746e+00	-3.907562e+01
1	 8.146620e-01	 1.201749e+00	-4.107429e+01
1	 7.999940e-01	 1.211562e+00	-4.311288e+01
1	 7.852260e-01	 1.221185e+00	-4.518307e+01
1	 8.624076e-01	 1.177154e+00	-3.529105e+01
1	 8.479881e-01	 1.187583e+00	-3.717336e+01
1	 8.334571e-01	 1.197826e+00	-3.911106e+01
1	 8.188184e-01	 1.207880e+00	-4.109500e+01
1	 8.040756e-01	 1.217744e+00	-4.311579e+01
1	 7.892322e-01	 1.227416e+00	-4.516384e+01
1	 8.667854e-01	 1.183129e+00	-3.530464e+01
1	 8.522926e-01	 1.193612e+00	-3.717471e+01
1	 8.376879e-01	 1.203906e+00	-3.909883e+01
1	 8.229749e-01	 1.214011e+00	-4.106695e+01
1	 8.081572e-01	 1.223925e+00	-4.306872e+01
1	 7.932385e-01	 1.233647e+00	-4.509360e+01
1	 8.711631e-01	 1.189104e+00	-3.527132e+01
1	 8.565971e-01	 1.199640e+00	-3.712897e+01
1	 8.419186e-01	 1.209987e+00	-3.903876e+01
1	 8.271313e-01	 1.220143e+00	-4.098997e+01
1	 8.122388e-01	 1.230107e+00	-4.297164e+01
1	 7.972448e-01	 1.239877e+00	-4.497254e+01
1	 8.755408e-01	 1.195080e+00	-3.519122e+01
1	 8.609016e-01	 1.205668e+00	-3.703607e+01
1	 8.461494e-01	 1.216067e+00	-3.893065e+01
1	 8.312877e-01	 1.226274e+00	-4.086390e+01
1	 8.163204e-01	 1.236288e+00	-4.282449e+01
1	 8.012510e-01	 1.246108e+00	-4.480085e+01
1	 7.812197e-01	 1.214955e+00	-4.515110e+01
1	 7.664313e-01	 1.224338e+00	-4.721624e+01
1	 7.515508e-01	 1.233528e+00	-4.920623e+01
1	 7.365818e-01	 1.242524e+00	-5.113355e+01
1	 7.215282e-01	 1.251326e+00	-5.301111e+01
1	 7.063935e-01	 1.259932e+00	-5.485216e+01
1	 7.852260e-01	 1.221185e+00	-4.518307e+01
1	 7.703617e-01	 1.230616e+00	-4.722436e+01
1	 7.554049e-01	 1.239854e+00	-4.919009e+01
1	 7.403592e-01	 1.248896e+00	-5.109292e+01
1	 7.252283e-01	 1.257743e+00	-5.294590e+01
1	 7.100161e-01	 1.266393e+00	-5.476248e+01
1	 7.892322e-01	 1.227416e+00	-4.516384e+01
1	 7.742922e-01	 1.236895e+00	-4.718049e+01
1	 7.592590e-01	 1.246180e+00	-4.912170e+01
1	 7.441365e-01	 1.255268e+00	-5.099995e+01
1	 7.289284e-01	 1.264160e+00	-5.282814e+01
1	 7.136386e-01	 1.272854e+00	-5.461957e+01
1	 7.932385e-01	 1.233647e+00	-4.509360e+01
1	 7.782226e-01	 1.243174e+00	-4.708507e+01
1	 7.631131e-01	 1.252505e+00	-4.900159e+01
1	 7.479138e-01	 1.261640e+00	-5.085518e+01
1	 7.326286e-01	 1.270577e+00	-5.265825e+01
1	 7.172611e-01	 1.279315e+00	-5.442362e+01
1	 7.972448e-01	 1.239877e+00	-4.497254e+01
1	 7.821530e-01	 1.249452e+00	-4.693851e+01
1	 7.669672e-01	 1.258831e+00	-4.883030e+01
1	 7.516912e-01	 1.268012e+00	-5.065913e+01
1	 7.363287e-01	 1.276994e+00	-5.243665e+01
1	 7.208837e-01	 1.285776e+00	-5.417482e+01
1	 8.012510e-01	 1.246108e+00	-4.480085e+01
1	 7.860834e-01	 1.255731e+00	-4.674123e+01
1	 7.708213e-01	 1.265157e+00	-4.860834e+01
1	 7.554685e-01	 1.274384e+00	-5.041232e+01
1	 7.400289e-01	 1.283411e+00	-5.216371e+01
1	 7.245062e-01	 1.292238e+00	-5.387336e+01
1	 7.063935e-01	 1.259932e+00	-5.485216e+01
1	 6.911817e-01	 1.268341e+00	-5.660914e+01
1	 6.758964e-01	 1.276552e+00	-5.822535e+01
1	 6.605413e-01	 1.284564e+00	-5.970053e+01
1	 6.451203e-01	 1.292377e+00	-6.103429e+01
1	 6.296372e-01	 1.299991e+00	-6.222616e+01
1	 7.100161e-01	 1.266393e+00	-5.476248e+01
1	 6.947262e-01	 1.274845e+00	-5.649279e+01
1	 6.793625e-01	 1.283098e+00	-5.807838e+01
1	 6.639287e-01	 1.291152e+00	-5.951999e+01
1	 6.484286e-01	 1.299005e+00	-6.081830e+01
1	 6.328661e-01	 1.306658e+00	-6.197389e+01
1	 7.136386e-01	 1.272854e+00	-5.461957e+01
1	 6.982707e-01	 1.281349e+00	-5.632194e+01
1	 6.828286e-01	 1.289644e+00	-5.787529e+01
1	 6.673161e-01	 1.297739e+00	-5.928160e+01
1	 6.517370e-01	 1.305633e+00	-6.054280e+01
1	 6.360950e-01	 1.313324e+00	-6.166076e+01
1	 7.172611e-01	 1.279315e+00	-5.442362e+01
1	 7.018152e-01	 1.287853e+00	-5.609655e+01
1	 6.862948e-01	 1.296191e+00	-5.761590e+01
1	 6.707035e-01	 1.304327e+00	-5.898509e+01
1	 6.550453e-01	 1.312260e+00	-6.020754e+01
1	 6.393239e-01	 1.319991e+00	-6.128663e+01
1	 7.208837e-01	 1.285776e+00	-5.417482e+01
1	 7.053598e-01	 1.294358e+00	-5.581657e+01
1	 6.897609e-01	 1.302737e+00	-5.730002e+01
1	 6.740909e-01	 1.310914e+00	-5.863024e+01
1	 6.583536e-01	 1.318888e+00	-5.981231e+01
1	 6.425528e-01	 1.326658e+00	-6.085135e+01
1	 7.245062e-01	 1.292238e+00	-5.387336e+01
1	 7.089043e-01	 1.300862e+00	-5.548198e+01
1	 6.932270e-01	 1.309284e+00	-5.692749e+01
1	 6.774783e-01	 1.317502e+00	-5.821680e+01
1	 6.616619e-01	 1.325515e+00	-5.935689e+01
1	 6.457817e-01	 1.333324e+00	-6.035481e+01
1	 6.296372e-01	 1.299991e+00	-6.222616e+01
1	 6.140956e-01	 1.307404e+00	-6.327535e+01
1	 5.984993e-01	 1.314617e+00	-6.418022e+01
1	 5.828521e-01	 1.321629e+00	-6.493885e+01
1	 5.671578e-01	 1.328440e+00	-6.554928e+01
1	 5.514200e-01	 1.335049e+00	-6.600953e+01
1	 6.328661e-01	 1.306658e+00	-6.197389e+01
1	 6.172448e-01	 1.314109e+00	-6.298680e+01
1	 6.015685e-01	 1.321359e+00	-6.385558e+01
1	 5.858411e-01	 1.328407e+00	-6.457849e+01
1	 5.700663e-01	 1.335252e+00	-6.515376e+01
1	 5.542478e-01	 1.341895e+00	-6.557957e+01
1	 6.360950e-01	 1.313324e+00	-6.166076e+01
1	 6.203940e-01	 1.320814e+00	-6.263637e+01
1	 6.046378e-01	 1.328100e+00	-6.346816e+01
1	 5.888301e-01	 1.335184e+00	-6.415441e+01
1	 5.729748e-01	 1.342065e+00	-6.469335e+01
1	 5.570756e-01	 1.348742e+00	-6.508315e+01
1	 6.393239e-01	 1.319991e+00	-6.128663e+01
1	 6.235432e-01	 1.327518e+00	-6.222403e+01
1	 6.077070e-01	 1.334842e+00	-6.301796e+01
1	 5.918191e-01	 1.341962e+00	-6.366658e+01
1	 5.758833e-01	 1.348877e+00	-6.416793e+01
1	 5.599034e-01	 1.355588e+00	-6.452002e+01
1	 6.425528e-01	 1.326658e+00	-6.085135e+01
1	 6.266924e-01	 1.334223e+00	-6.174973e+01
1	 6.107762e-01	 1.341584e+00	-6.250499e+01
1	 5.948081e-01	 1.348739e+00	-6.311496e+01
1	 5.787918e-01	 1.355690e+00	-6.357739e+01
1	 5.627312e-01	 1.362435e+00	-6.388992e+01
1	 6.457817e-01	 1.333324e+00	-6.035481e+01
1	 6.298416e-01	 1.340928e+00	-6.121344e+01
1	 6.138455e-01	 1.348325e+00	-6.192922e+01
1	 5.977971e-01	 1.355517e+00	-6.249953e+01
1	 5.817003e-01	 1.362502e+00	-6.292161e+01
1	 5.655590e-01	 1.369281e+00	-6.319262e+01
1	 5.514200e-01	 1.335049e+00	-6.600953e+01
1	 5.356425e-01	 1.341457e+00	-6.632362e+01
1	 5.198290e-01	 1.347664e+00	-6.650291e+01
1	 5.039830e-01	 1.353669e+00	-6.655654e+01
1	 4.881084e-01	 1.359474e+00	-6.649374e+01
1	 4.722087e-01	 1.365078e+00	-6.632380e+01
1	 5.542478e-01	 1.341895e+00	-6.557957e+01
1	 5.383894e-01	 1.348336e+00	-6.586118e+01
1	 5.224948e-01	 1.354575e+00	-6.601126e+01
1	 5.065676e-01	 1.360611e+00	-6.603908e+01
1	 4.906116e-01	 1.366446e+00	-6.595404e+01
1	 4.746303e-01	 1.372079e+00	-6.576560e+01
1	 5.570756e-01	 1.348742e+00	-6.508315e+01
1	 5.411363e-01	 1.355216e+00	-6.533028e+01
1	 5.251605e-01	 1.361486e+00	-6.544889e+01
1	 5.091521e-01	 1.367553e+00	-6.544869e+01
1	 4.931147e-01	 1.373417e+00	-6.533951e+01
1	 4.770519e-01	 1.379079e+00	-6.513125e+01
1	 5.599034e-01	 1.355588e+00	-6.452002e+01
1	 5.438832e-01	 1.362095e+00	-6.473052e+01
1	 5.278263e-01	 1.368397e+00	-6.481535e+01
1	 5.117366e-01	 1.374495e+00	-6.478494e+01
1	 4.956178e-01	 1.380389e+00	-6.464979e+01
1	 4.794735e-01	 1.386079e+00	-6.442052e+01
1	 5.627312e-01	 1.362435e+00	-6.388992e+01
1	 5.466301e-01	 1.368974e+00	-6.406152e+01
1	 5.304921e-01	 1.375308e+00	-6.411021e+01
1	 5.143212e-01	 1.381437e+00	-6.404739e+01
1	 4.981209e-01	 1.387361e+00	-6.388452e+01
1	 4.818951e-01	 1.393080e+00	-6.363321e+01
1	 5.655590e-01	 1.369281e+00	-6.319262e+01
1	 5.493769e-01	 1.375853e+00	-6.332290e+01
1	 5.331579e-01	 1.382219e+00	-6.333304e+01
1	 5.169057e-01	 1.388379e+00	-6.323562e+01
1	 5.006240e-01	 1.394332e+00	-6.304336e+01
1	 4.843166e-01	 1.400080e+00	-6.276909e+01
1	 4.722087e-01	 1.365078e+00	-6.632380e+01
1	 4.562876e-01	 1.370482e+00	-6.605055e+01
1	 4.403485e-01	 1.375686e+00	-6.567228e+01
1	 4.243950e-01	 1.380691e+00	-6.519004e+01
1	 4.084307e-01	 1.385498e+00	-6.460494e+01
1	 3.924590e-01	 1.390106e+00	-6.391810e+01
1	 4.746303e-01	 1.372079e+00	-6.576560e+01
1	 4.586275e-01	 1.377510e+00	-6.547741e+01
1	 4.426067e-01	 1.382741e+00	-6.508882e+01
1	 4.265714e-01	 1.387772e+00	-6.460290e+01
1	 4.105252e-01	 1.392603e+00	-6.402276e+01
1	 3.944716e-01	 1.397235e+00	-6.335148e+01
1	 4.770519e-01	 1.379079e+00	-6.513125e+01
1	 4.609674e-01	 1.384538e+00	-6.482765e+01
1	 4.448649e-01	 1.389796e+00	-6.442905e+01
1	 4.287478e-01	 1.394852e+00	-6.394027e+01
1	 4.126197e-01	 1.399708e+00	-6.336612e+01
1	 3.964842e-01	 1.404364e+00	-6.271143e+01
1	 4.794735e-01	 1.386079e+00	-6.442052e+01
1	 4.633074e-01	 1.391567e+00	-6.410120e+01
1	 4.471231e-01	 1.396851e+00	-6.369300e+01
1	 4.309242e-01	 1.401933e+00	-6.320220e+01
1	 4.147143e-01	 1.406813e+00	-6.263511e+01
1	 3.984968e-01	 1.411493e+00	-6.199799e+01
1	 4.818951e-01	 1.393080e+00	-6.363321e+01
1	 4.656473e-01	 1.398595e+00	-6.329799e+01
1	 4.493813e-01	 1.403906e+00	-6.288066e+01
1	 4.331006e-01	 1.409013e+00	-6.238875e+01
1	 4.168088e-01	 1.413918e+00	-6.182977e+01
1	 4.005095e-01	 1.418621e+00	-6.121121e+01
1	 4.843166e-01	 1.400080e+00	-6.276909e+01
1	 4.679872e-01	 1.405623e+00	-6.241792e+01
1	 4.516395e-01	 1.410960e+00	-6.199204e+01
1	 4.352769e-01	 1.416094e+00	-6.149998e+01
1	 4.189033e-01	 1.421023e+00	-6.095019e+01
1	 4.025221e-01	 1.425750e+00	-6.035112e+01
1	 3.924590e-01	 1.390106e+00	-6.391810e+01
1	 3.764834e-01	 1.394518e+00	-6.319212e+01
1	 3.605072e-01	 1.398733e+00	-6.247538e+01
1	 3.445337e-01	 1.402753e+00	-6.174778e+01
1	 3.285664e-01	 1.406579e+00	-6.098941e+01
1	 3.126085e-01	 1.410211e+00	-6.018052e+01
1	 3.944716e-01	 1.397235e+00	-6.335148e+01
1	 3.784140e-01	 1.401669e+00	-6.265261e+01
1	 3.623559e-01	 1.405906e+00	-6.197324e+01
1	 3.463006e-01	 1.409947e+00	-6.129193e+01
1	 3.302514e-01	 1.413792e+00	-6.058740e+01
1	 3.142116e-01	 1.417443e+00	-5.983857e+01
1	 3.964842e-01	 1.404364e+00	-6.271143e+01
1	 3.803447e-01	 1.408821e+00	-6.204038e+01
1	 3.642047e-01	 1.413079e+00	-6.139888e+01
1	 3.480674e-01	 1.417140e+00	-6.076441e+01
1	 3.319363e-01	 1.421005e+00	-6.011462e+01
1	 3.158147e-01	 1.424675e+00	-5.942737e+01
1	 3.984968e-01	 1.411493e+00	-6.199799e+01
1	 3.822754e-01	 1.415972e+00	-6.135545e+01
1	 3.660534e-01	 1.420252e+00	-6.075227e+01
1	 3.498343e-01	 1.424334e+00	-6.016518e+01
1	 3.336213e-01	 1.428218e+00	-5.957102e+01
1	 3.174178e-01	 1.431907e+00	-5.894687e+01
1	 4.005095e-01	 1.418621e+00	-6.121121e+01
1	 3.842061e-01	 1.423123e+00	-6.059781e+01
1	 3.679022e-01	 1.427425e+00	-6.003341e+01
1	 3.516011e-01	 1.431528e+00	-5.949422e+01
1	 3.353062e-01	 1.435432e+00	-5.895657e+01
1	 3.190210e-01	 1.439139e+00	-5.839702e+01
1	 4.025221e-01	 1.425750e+00	-6.035112e+01
1	 3.861368e-01	 1.430275e+00	-5.976747e+01
1	 3.697509e-01	 1.434598e+00	-5.924228e+01
1	 3.533679e-01	 1.438721e+00	-5.875150e+01
1	 3.369912e-01	 1.442645e+00	-5.827123e+01
1	 3.206241e-01	 1.446370e+00	-5.777776e+01
1	 3.126085e-01	 1.410211e+00	-6.018052e+01
1	 2.966631e-01	 1.413652e+00	-5.933581e+01
1	 2.807336e-01	 1.416901e+00	-5.849227e+01
1	 2.648229e-01	 1.419961e+00	-5.766372e+01
1	 2.489342e-01	 1.422832e+00	-5.686400e+01
1	 2.330704e-01	 1.425517e+00	-5.610684e+01
1	 3.142116e-01	 1.417443e+00	-5.983857e+01
1	 2.981845e-01	 1.420901e+00	-5.906027e+01
1	 2.821732e-01	 1.424167e+00	-5.828973e+01
1	 2.661809e-01	 1.427243e+00	-5.753963e+01
1	 2.502107e-01	 1.430129e+00	-5.682261e+01
1	 2.342656e-01	 1.432827e+00	-5.615125e+01
1	 3.158147e-01	 1.424675e+00	-5.942737e+01
1	 2.997058e-01	 1.428151e+00	-5.871779e+01
1	 2.836129e-01	 1.431433e+00	-5.802331e+01
1	 2.675390e-01	 1.434524e+00	-5.735540e+01
1	 2.514873e-01	 1.437425e+00	-5.672552e+01
1	 2.354609e-01	 1.440137e+00	-5.614503e+01
1	 3.174178e-01	 1.431907e+00	-5.894687e+01
1	 3.012272e-01	 1.435400e+00	-5.830831e+01
1	 2.850525e-01	 1.438699e+00	-5.769296e+01
1	 2.688971e-01	 1.441806e+00	-5.711104e+01
1	 2.527639e-01	 1.444722e+00	-5.657278e+01
1	 2.366561e-01	 1.447448e+00	-5.608831e+01
1	 3.190210e-01	 1.439139e+00	-5.839702e+01
1	 3.027485e-01	 1.442650e+00	-5.783179e+01
1	 2.864922e-01	 1.445966e+00	-5.729865e+01
1	 2.702551e-01	 1.449088e+00	-5.680656e+01
1	 2.540405e-01	 1.452019e+00	-5.636446e+01
1	 2.378513e-01	 1.454758e+00	-5.598123e+01
1	 3.206241e-01	 1.446370e+00	-5.777776e+01
1	 3.042699e-01	 1.449899e+00	-5.728816e+01
1	 2.879319e-01	 1.453232e+00	-5.684034e+01
1	 2.716132e-01	 1.456370e+00	-5.644194e+01
1	 2.553171e-01	 1.459315e+00	-5.610061e+01
1	 2.390466e-01	 1.462068e+00	-5.582391e+01
1	 2.330704e-01	 1.425517e+00	-5.610684e+01
1	 2.172346e-01	 1.428016e+00	-5.539555e+01
1	 2.014297e-01	 1.430331e+00	-5.472089e+01
1	 1.856586e-01	 1.432463e+00	-5.407772e+01
1	 1.699240e-01	 1.434415e+00	-5.346094e+01
1	 1.542286e-01	 1.436187e+00	-5.286542e+01
1	 2.342656e-01	 1.432827e+00	-5.615125e+01
1	 2.183487e-01	 1.435339e+00	-5.552722e+01
1	 2.024627e-01	 1.437666e+00	-5.493972e+01
1	 1.866107e-01	 1.439809e+00	-5.438249e+01
1	 1.707954e-01	 1.441771e+00	-5.384937e+01
1	 1.550196e-01	 1.443552e+00	-5.333419e+01
1	 2.354609e-01	 1.440137e+00	-5.614503e+01
1	 2.194627e-01	 1.442662e+00	-5.561396e+01
1	 2.034957e-01	 1.445001e+00	-5.511974e+01
1	 1.875628e-01	 1.447155e+00	-5.465479e+01
1	 1.716668e-01	 1.449127e+00	-5.421162e+01
1	 1.558105e-01	 1.450917e+00	-5.378278e+01
1	 2.366561e-01	 1.447448e+00	-5.608831e+01
1	 2.205767e-01	 1.449985e+00	-5.565596e+01
1	 2.045287e-01	 1.452336e+00	-5.526119e+01
1	 1.885149e-01	 1.454501e+00	-5.489488e+01
1	 1.725382e-01	 1.456483e+00	-5.454796e+01
1	 1.566014e-01	 1.458282e+00	-5.421142e+01
1	 2.378513e-01	 1.454758e+00	-5.598123e+01
1	 2.216907e-01	 1.457308e+00	-5.565341e+01
1	 2.055616e-01	 1.459671e+00	-5.536434e+01
1	 1.894670e-01	 1.461847e+00	-5.510303e+01
1	 1.734096e-01	 1.463839e+00	-5.485862e+01
1	 1.573923e-01	 1.465647e+00	-5.462034e+01
1	 2.390466e-01	 1.462068e+00	-5.582391e+01
1	 2.228048e-01	 1.464631e+00	-5.560653e+01
1	 2.065946e-01	 1.467006e+00	-5.542940e+01
1	 1.904191e-01	 1.469193e+00	-5.527948e+01
1	 1.742810e-01	 1.471195e+00	-5.514386e+01
1	 1.581832e-01	 1.473012e+00	-5.500976e+01
1	 1.542286e-01	 1.436187e+00	-5.286542e+01
1	 1.385753e-01	 1.437782e+00	-5.228969e+01
1	 1.229666e-01	 1.439201e+00	-5.173444e+01
1	 1.074051e-01	 1.440446e+00	-5.119778e+01
1	 9.189328e-02	 1.441518e+00	-5.067775e+01
1	 7.643366e-02	 1.442421e+00	-5.017235e+01
1	 1.550196e-01	 1.443552e+00	-5.333419e+01
1	 1.392859e-01	 1.445155e+00	-5.283430e+01
1	 1.235972e-01	 1.446581e+00	-5.234882e+01
1	 1.079559e-01	 1.447833e+00	-5.187427e+01
1	 9.236453e-02	 1.448911e+00	-5.140713e+01
1	 7.682563e-02	 1.449818e+00	-5.094385e+01
1	 1.558105e-01	 1.450917e+00	-5.378278e+01
1	 1.399966e-01	 1.452528e+00	-5.336420e+01
1	 1.242278e-01	 1.453962e+00	-5.295334e+01
1	 1.085067e-01	 1.455220e+00	-5.254516e+01
1	 9.283578e-02	 1.456303e+00	-5.213456e+01
1	 7.721760e-02	 1.457215e+00	-5.171647e+01
1	 1.566014e-01	 1.458282e+00	-5.421142e+01
1	 1.407072e-01	 1.459902e+00	-5.387957e+01
1	 1.248584e-01	 1.461342e+00	-5.354817e+01
1	 1.090575e-01	 1.462606e+00	-5.321058e+01
1	 9.330702e-02	 1.463696e+00	-5.286015e+01
1	 7.760956e-02	 1.464612e+00	-5.249029e+01
1	 1.573923e-01	 1.465647e+00	-5.462034e+01
1	 1.414179e-01	 1.467275e+00	-5.438062e+01
1	 1.254890e-01	 1.468723e+00	-5.413348e+01
1	 1.096083e-01	 1.469993e+00	-5.387068e+01
1	 9.377827e-02	 1.471088e+00	-5.358404e+01
1	 7.800153e-02	 1.472009e+00	-5.326542e+01
1	 1.581832e-01	 1.473012e+00	-5.500976e+01
1	 1.421285e-01	 1.474648e+00	-5.486755e+01
1	 1.261196e-01	 1.476103e+00	-5.470944e+01
1	 1.101591e-01	 1.477380e+00	-5.452562e+01
1	 9.424952e-02	 1.478480e+00	-5.430634e+01
1	 7.839350e-02	 1.479406e+00	-5.404196e+01
1	 7.643366e-02	 1.442421e+00	-5.017235e+01
1	 6.102861e-02	 1.443155e+00	-4.967846e+01
1	 4.568048e-02	 1.443722e+00	-4.919472e+01
1	 3.039153e-02	 1.444125e+00	-4.872157e+01
1	 1.516399e-02	 1.444365e+00	-4.825927e+01
1	 0.000000e+00	 1.444444e+00	-4.780794e+01
1	 7.682563e-02	 1.449818e+00	-5.094385e+01
1	 6.134158e-02	 1.450555e+00	-5.047986e+01
1	 4.591474e-02	 1.451126e+00	-5.001272e+01
1	 3.054738e-02	 1.451530e+00	-4.954193e+01
1	 1.524175e-02	 1.451772e+00	-4.906687e+01
1	 0.000000e+00	 1.451852e+00	-4.858681e+01
1	 7.721760e-02	 1.457215e+00	-5.171647e+01
1	 6.165455e-02	 1.457956e+00	-5.128485e+01
1	 4.614900e-02	 1.458529e+00	-5.083612e+01
1	 3.070324e-02	 1.458936e+00	-5.036880e+01
1	 1.531951e-02	 1.459179e+00	-4.988132e+01
1	 0.000000e+00	 1.459259e+00	-4.937202e+01
1	 7.760956e-02	 1.464612e+00	-5.249029e+01
1	 6.196752e-02	 1.465357e+00	-5.209350e+01
1	 4.638326e-02	 1.465933e+00	-5.166501e+01
1	 3.085909e-02	 1.466342e+00	-5.120229e+01
1	 1.539728e-02	 1.466586e+00	-5.070276e+01
1	 0.000000e+00	 1.466667e+00	-5.016377e+01
1	 7.800153e-02	 1.472009e+00	-5.326542e+01
1	 6.228048e-02	 1.472758e+00	-5.290589e+01
1	 4.661751e-02	 1.473337e+00	-5.249946e+01
1	 3.101495e-02	 1.473748e+00	-5.204249e+01
1	 1.547504e-02	 1.473993e+00	-5.153129e+01
1	 0.000000e+00	 1.474074e+00	-5.096220e+01
1	 7.839350e-02	 1.479406e+00	-5.404196e+01
1	 6.259345e-02	 1.480159e+00	-5.372211e+01
1	 4.685177e-02	 1.480740e+00	-5.333957e+01
1	 3.117080e-02	 1.481154e+00	-5.288948e+01
1	 1.555281e-02	 1.481400e+00	-5.236705e+01
1	 0.000000e+00	 1.481481e+00	-5.176749e+01
1	 1.481481e+00	 0.000000e+00	 1.785026e+01
1	 1.481400e+00	 1.555281e-02	 1.746458e+01
1	 1.481154e+00	 3.117080e-02	 1.708701e+01
1	 1.480740e+00	 4.685177e-02	 1.671817e+01
1	 1.480159e+00	 6.259345e-02	 1.635865e+01
1	 1.479406e+00	 7.839350e-02	 1.600903e+01
1	 1.488889e+00	 0.000000e+00	 1.777420e+01
1	 1.488807e+00	 1.563057e-02	 1.739230e+01
1	 1.488559e+00	 3.132665e-02	 1.701511e+01
1	 1.488144e+00	 4.708603e-02	 1.664345e+01
1	 1.487559e+00	 6.290642e-02	 1.627816e+01
1	 1.486803e+00	 7.878547e-02	 1.592006e+01
1	 1.496296e+00	 0.000000e+00	 1.769276e+01
1	 1.496214e+00	 1.570833e-02	 1.731494e+01
1	 1.495965e+00	 3.148251e-02	 1.693852e+01
1	 1.495548e+00	 4.732029e-02	 1.656454e+01
1	 1.494960e+00	 6.321939e-02	 1.619405e+01
1	 1.494200e+00	 7.917743e-02	 1.582810e+01
1	 1.503704e+00	 0.000000e+00	 1.760589e+01
1	 1.503621e+00	 1.578610e-02	 1.723244e+01
1	 1.503371e+00	 3.163836e-02	 1.685719e+01
1	 1.502952e+00	 4.755455e-02	 1.648137e+01
1	 1.502361e+00	 6.353235e-02	 1.610624e+01
1	 1.501597e+00	 7.956940e-02	 1.573306e+01
1	 1.511111e+00	 0.000000e+00	 1.751356e+01
1	 1.511028e+00	 1.586386e-02	 1.714476e+01
1	 1.510777e+00	 3.179422e-02	 1.677106e+01
1	 1.510355e+00	 4.778881e-02	 1.639388e+01
1	 1.509762e+00	 6.384532e-02	 1.601466e+01
1	 1.508994e+00	 7.996137e-02	 1.563487e+01
1	 1.518519e+00	 0.000000e+00	 1.741571e+01
1	 1.518435e+00	 1.594163e-02	 1.705185e+01
1	 1.518182e+00	 3.195007e-02	 1.668008e+01
1	 1.517759e+00	 4.802307e-02	 1.630201e+01
1	 1.517163e+00	 6.415829e-02	 1.591925e+01
1	 1.516391e+00	 8.035334e-02	 1.553345e+01
1	 1.479406e+00	 7.839350e-02	 1.600903e+01
1	 1.478480e+00	 9.424952e-02	 1.567322e+01
1	 1.477380e+00	 1.101591e-01	 1.535571e+01
1	 1.476103e+00	 1.261196e-01	 1.505801e+01
1	 1.474648e+00	 1.421285e-01	 1.478157e+01
1	 1.473012e+00	 1.581832e-01	 1.452782e+01
1	 1.486803e+00	 7.878547e-02	 1.592006e+01
1	 1.485873e+00	 9.472077e-02	 1.557314e+01
1	 1.484767e+00	 1.107098e-01	 1.524203e+01
1	 1.483484e+00	 1.267502e-01	 1.492852e+01
1	 1.482021e+00	 1.428392e-01	 1.463437e+01
1	 1.480377e+00	 1.589741e-01	 1.436131e+01
1	 1.494200e+00	 7.917743e-02	 1.582810e+01
1	 1.493265e+00	 9.519201e-02	 1.547072e+01
1	 1.492154e+00	 1.112606e-01	 1.512663e+01
1	 1.490864e+00	 1.273808e-01	 1.479790e+01
1	 1.489395e+00	 1.435498e-01	 1.448658e+01
1	 1.487742e+00	 1.597650e-01	 1.419469e+01
1	 1.501597e+00	 7.956940e-02	 1.573306e+01
1	 1.500658e+00	 9.566326e-02	 1.536587e+01
1	 1.499541e+00	 1.118114e-01	 1.500943e+01
1	 1.498245e+00	 1.280114e-01	 1.466608e+01
1	 1.496768e+00	 1.442604e-01	 1.433815e+01
1	 1.495108e+00	 1.605560e-01	 1.402794e+01
1	 1.508994e+00	 7.996137e-02	 1.563487e+01
1	 1.508050e+00	 9.613451e-02	 1.525850e+01
1	 1.506928e+00	 1.123622e-01	 1.489033e+01
1	 1.505625e+00	 1.286420e-01	 1.453298e+01
1	 1.504141e+00	 1.449711e-01	 1.418903e+01
1	 1.502473e+00	 1.613469e-01	 1.386105e+01
1	 1.516391e+00	 8.035334e-02	 1.553345e+01
1	 1.515442e+00	 9.660576e-02	 1.514853e+01
1	 1.514315e+00	 1.129130e-01	 1.476927e+01
1	 1.513006e+00	 1.292726e-01	 1.439853e+01
1	 1.511514e+00	 1.456817e-01	 1.403917e+01
1	 1.509838e+00	 1.621378e-01	 1.369400e+01
1	 1.473012e+00	 1.581832e-01	 1.452782e+01
1	 1.471195e+00	 1.742810e-01	 1.429714e+01
1	 1.469193e+00	 1.904191e-01	 1.409000e+01
1	 1.467006e+00	 2.065946e-01	 1.390794e+01
1	 1.464631e+00	 2.228048e-01	 1.375248e+01
1	 1.462068e+00	 2.390466e-01	 1.362509e+01
1	 1.480377e+00	 1.589741e-01	 1.436131e+01
1	 1.478551e+00	 1.751524e-01	 1.411002e+01
1	 1.476539e+00	 1.913711e-01	 1.388131e+01
1	 1.474341e+00	 2.076276e-01	 1.367707e+01
1	 1.471955e+00	 2.239188e-01	 1.349915e+01
1	 1.469379e+00	 2.402418e-01	 1.334935e+01
1	 1.487742e+00	 1.597650e-01	 1.419469e+01
1	 1.485907e+00	 1.760238e-01	 1.392319e+01
1	 1.483885e+00	 1.923232e-01	 1.367321e+01
1	 1.481676e+00	 2.086606e-01	 1.344692e+01
1	 1.479278e+00	 2.250328e-01	 1.324644e+01
1	 1.476689e+00	 2.414370e-01	 1.307386e+01
1	 1.495108e+00	 1.605560e-01	 1.402794e+01
1	 1.493263e+00	 1.768952e-01	 1.373670e+01
1	 1.491231e+00	 1.932753e-01	 1.346583e+01
1	 1.489011e+00	 2.096935e-01	 1.321771e+01
1	 1.486601e+00	 2.261468e-01	 1.299470e+01
1	 1.483999e+00	 2.426323e-01	 1.279913e+01
1	 1.502473e+00	 1.613469e-01	 1.386105e+01
1	 1.500618e+00	 1.777666e-01	 1.355059e+01
1	 1.498577e+00	 1.942274e-01	 1.325927e+01
1	 1.496346e+00	 2.107265e-01	 1.298965e+01
1	 1.493924e+00	 2.272609e-01	 1.274429e+01
1	 1.491310e+00	 2.438275e-01	 1.252569e+01
1	 1.509838e+00	 1.621378e-01	 1.369400e+01
1	 1.507974e+00	 1.786380e-01	 1.336488e+01
1	 1.505923e+00	 1.951795e-01	 1.305364e+01
1	 1.503681e+00	 2.117595e-01	 1.276297e+01
1	 1.501247e+00	 2.283749e-01	 1.249556e+01
1	 1.498620e+00	 2.450227e-01	 1.225404e+01
1	 1.462068e+00	 2.390466e-01	 1.362509e+01
1	 1.459315e+00	 2.553171e-01	 1.353534e+01
1	 1.456370e+00	 2.716132e-01	 1.349051e+01
1	 1.453232e+00	 2.879319e-01	 1.348868e+01
1	 1.449899e+00	 3.042699e-01	 1.352785e+01
1	 1.446370e+00	 3.206241e-01	 1.360603e+01
1	 1.469379e+00	 2.402418e-01	 1.334935e+01
1	 1.466612e+00	 2.565937e-01	 1.323785e+01
1	 1.463652e+00	 2.729713e-01	 1.317248e+01
1	 1.460498e+00	 2.893715e-01	 1.315152e+01
1	 1.457149e+00	 3.057912e-01	 1.317322e+01
1	 1.453602e+00	 3.222272e-01	 1.323579e+01
1	 1.476689e+00	 2.414370e-01	 1.307386e+01
1	 1.473908e+00	 2.578702e-01	 1.293993e+01
1	 1.470934e+00	 2.743293e-01	 1.285310e+01
1	 1.467764e+00	 2.908112e-01	 1.281196e+01
1	 1.464398e+00	 3.073126e-01	 1.281508e+01
1	 1.460834e+00	 3.238303e-01	 1.286098e+01
1	 1.483999e+00	 2.426323e-01	 1.279913e+01
1	 1.481205e+00	 2.591468e-01	 1.264225e+01
1	 1.478216e+00	 2.756874e-01	 1.253315e+01
1	 1.475030e+00	 2.922508e-01	 1.247083e+01
1	 1.471648e+00	 3.088339e-01	 1.245425e+01
1	 1.468066e+00	 3.254335e-01	 1.248233e+01
1	 1.491310e+00	 2.438275e-01	 1.252569e+01
1	 1.488501e+00	 2.604234e-01	 1.234549e+01
1	 1.485497e+00	 2.770455e-01	 1.221340e+01
1	 1.482296e+00	 2.936905e-01	 1.212893e+01
1	 1.478897e+00	 3.103553e-01	 1.209152e+01
1	 1.475298e+00	 3.270366e-01	 1.210055e+01
1	 1.498620e+00	 2.450227e-01	 1.225404e+01
1	 1.495798e+00	 2.617000e-01	 1.205031e+01
1	 1.492779e+00	 2.784035e-01	 1.189460e+01
1	 1.489563e+00	 2.951302e-01	 1.178705e+01
1	 1.486147e+00	 3.118766e-01	 1.172766e+01
1	 1.482530e+00	 3.286397e-01	 1.171634e+01
1	 1.446370e+00	 3.206241e-01	 1.360603e+01
1	 1.442645e+00	 3.369912e-01	 1.370526e+01
1	 1.438721e+00	 3.533679e-01	 1.381085e+01
1	 1.434598e+00	 3.697509e-01	 1.392570e+01
1	 1.430275e+00	 3.861368e-01	 1.405272e+01
1	 1.425750e+00	 4.025221e-01	 1.419476e+01
1	 1.453602e+00	 3.222272e-01	 1.323579e+01
1	 1.449858e+00	 3.386762e-01	 1.332103e+01
1	 1.445915e+00	 3.551348e-01	 1.341390e+01
1	 1.441771e+00	 3.715997e-01	 1.351739e+01
1	 1.437426e+00	 3.880675e-01	 1.363445e+01
1	 1.432879e+00	 4.045347e-01	 1.376802e+01
1	 1.460834e+00	 3.238303e-01	 1.286098e+01
1	 1.457071e+00	 3.403611e-01	 1.293134e+01
1	 1.453108e+00	 3.569016e-01	 1.301089e+01
1	 1.448944e+00	 3.734484e-01	 1.310267e+01
1	 1.444577e+00	 3.899981e-01	 1.320972e+01
1	 1.440008e+00	 4.065473e-01	 1.333504e+01
1	 1.468066e+00	 3.254335e-01	 1.248233e+01
1	 1.464285e+00	 3.420461e-01	 1.253680e+01
1	 1.460302e+00	 3.586685e-01	 1.260227e+01
1	 1.456117e+00	 3.752972e-01	 1.268185e+01
1	 1.451729e+00	 3.919288e-01	 1.277864e+01
1	 1.447136e+00	 4.085599e-01	 1.289571e+01
1	 1.475298e+00	 3.270366e-01	 1.210055e+01
1	 1.471498e+00	 3.437310e-01	 1.213801e+01
1	 1.467496e+00	 3.604353e-01	 1.218851e+01
1	 1.463290e+00	 3.771459e-01	 1.225522e+01
1	 1.458880e+00	 3.938595e-01	 1.234131e+01
1	 1.454265e+00	 4.105725e-01	 1.244992e+01
1	 1.482530e+00	 3.286397e-01	 1.171634e+01
1	 1.478711e+00	 3.454160e-01	 1.173556e+01
1	 1.474689e+00	 3.622021e-01	 1.177006e+01
1	 1.470463e+00	 3.789947e-01	 1.182307e+01
1	 1.466032e+00	 3.957902e-01	 1.189784e+01
1	 1.461394e+00	 4.125851e-01	 1.199756e+01
1	 1.425750e+00	 4.025221e-01	 1.419476e+01
1	 1.421023e+00	 4.189033e-01	 1.432251e+01
1	 1.416094e+00	 4.352769e-01	 1.440437e+01
1	 1.410960e+00	 4.516395e-01	 1.443986e+01
1	 1.405623e+00	 4.679872e-01	 1.442863e+01
1	 1.400080e+00	 4.843166e-01	 1.437049e+01
1	 1.432879e+00	 4.045347e-01	 1.376802e+01
1	 1.428128e+00	 4.209978e-01	 1.388964e+01
1	 1.423174e+00	 4.374533e-01	 1.396829e+01
1	 1.418015e+00	 4.538977e-01	 1.400315e+01
1	 1.412651e+00	 4.703272e-01	 1.399351e+01
1	 1.407081e+00	 4.867382e-01	 1.393882e+01
1	 1.440008e+00	 4.065473e-01	 1.333504e+01
1	 1.435234e+00	 4.230923e-01	 1.345096e+01
1	 1.430255e+00	 4.396297e-01	 1.352694e+01
1	 1.425070e+00	 4.561559e-01	 1.356171e+01
1	 1.419679e+00	 4.726671e-01	 1.355415e+01
1	 1.414081e+00	 4.891598e-01	 1.350325e+01
1	 1.447136e+00	 4.085599e-01	 1.289571e+01
1	 1.442339e+00	 4.251868e-01	 1.300620e+01
1	 1.437335e+00	 4.418061e-01	 1.307996e+01
1	 1.432125e+00	 4.584140e-01	 1.311521e+01
1	 1.426707e+00	 4.750070e-01	 1.311032e+01
1	 1.421081e+00	 4.915814e-01	 1.306379e+01
1	 1.454265e+00	 4.105725e-01	 1.244992e+01
1	 1.449444e+00	 4.272814e-01	 1.255505e+01
1	 1.444416e+00	 4.439825e-01	 1.262697e+01
1	 1.439180e+00	 4.606722e-01	 1.266330e+01
1	 1.433735e+00	 4.773470e-01	 1.266182e+01
1	 1.428082e+00	 4.940030e-01	 1.262047e+01
1	 1.461394e+00	 4.125851e-01	 1.199756e+01
1	 1.456549e+00	 4.293759e-01	 1.209724e+01
1	 1.451496e+00	 4.461589e-01	 1.216762e+01
1	 1.446234e+00	 4.629304e-01	 1.220565e+01
1	 1.440763e+00	 4.796869e-01	 1.220844e+01
1	 1.435082e+00	 4.964246e-01	 1.217331e+01
1	 1.400080e+00	 4.843166e-01	 1.437049e+01
1	 1.394332e+00	 5.006240e-01	 1.425346e+01
1	 1.388379e+00	 5.169057e-01	 1.406488e+01
1	 1.382219e+00	 5.331579e-01	 1.380374e+01
1	 1.375853e+00	 5.493769e-01	 1.346918e+01
1	 1.369281e+00	 5.655590e-01	 1.306056e+01
1	 1.407081e+00	 4.867382e-01	 1.393882e+01
1	 1.401304e+00	 5.031272e-01	 1.382698e+01
1	 1.395321e+00	 5.194902e-01	 1.364545e+01
1	 1.389130e+00	 5.358237e-01	 1.339322e+01
1	 1.382733e+00	 5.521238e-01	 1.306951e+01
1	 1.376127e+00	 5.683868e-01	 1.267373e+01
1	 1.414081e+00	 4.891598e-01	 1.350325e+01
1	 1.408276e+00	 5.056303e-01	 1.339687e+01
1	 1.402263e+00	 5.220747e-01	 1.322274e+01
1	 1.396041e+00	 5.384895e-01	 1.297995e+01
1	 1.389612e+00	 5.548707e-01	 1.266779e+01
1	 1.382974e+00	 5.712146e-01	 1.228580e+01
1	 1.421081e+00	 4.915814e-01	 1.306379e+01
1	 1.415247e+00	 5.081334e-01	 1.296338e+01
1	 1.409205e+00	 5.246593e-01	 1.279715e+01
1	 1.402953e+00	 5.411553e-01	 1.256431e+01
1	 1.396491e+00	 5.576176e-01	 1.226433e+01
1	 1.389820e+00	 5.740424e-01	 1.189689e+01
1	 1.428082e+00	 4.940030e-01	 1.262047e+01
1	 1.422219e+00	 5.106365e-01	 1.252677e+01
1	 1.416146e+00	 5.272438e-01	 1.236904e+01
1	 1.409864e+00	 5.438211e-01	 1.214670e+01
1	 1.403370e+00	 5.603645e-01	 1.185942e+01
1	 1.396667e+00	 5.768702e-01	 1.150707e+01
1	 1.435082e+00	 4.964246e-01	 1.217331e+01
1	 1.429191e+00	 5.131396e-01	 1.208727e+01
1	 1.423088e+00	 5.298283e-01	 1.193878e+01
1	 1.416775e+00	 5.464869e-01	 1.172751e+01
1	 1.410250e+00	 5.631114e-01	 1.145336e+01
1	 1.403513e+00	 5.796980e-01	 1.111645e+01
1	 1.369281e+00	 5.655590e-01	 1.306056e+01
1	 1.362502e+00	 5.817003e-01	 1.256303e+01
1	 1.355517e+00	 5.977971e-01	 1.196307e+01
1	 1.348325e+00	 6.138455e-01	 1.126219e+01
1	 1.340928e+00	 6.298416e-01	 1.046187e+01
1	 1.333324e+00	 6.457817e-01	 9.563552e+00
1	 1.376127e+00	 5.683868e-01	 1.267373e+01
1	 1.369315e+00	 5.846088e-01	 1.218988e+01
1	 1.362294e+00	 6.007861e-01	 1.160315e+01
1	 1.355067e+00	 6.169147e-01	 1.091481e+01
1	 1.347632e+00	 6.329908e-01	 1.012611e+01
1	 1.339991e+00	 6.490106e-01	 9.238243e+00
1	 1.382974e+00	 5.712146e-01	 1.228580e+01
1	 1.376127e+00	 5.875173e-01	 1.181668e+01
1	 1.369072e+00	 6.037750e-01	 1.124405e+01
1	 1.361809e+00	 6.199839e-01	 1.056897e+01
1	 1.354337e+00	 6.361400e-01	 9.792428e+00
1	 1.346657e+00	 6.522395e-01	 8.915346e+00
1	 1.389820e+00	 5.740424e-01	 1.189689e+01
1	 1.382940e+00	 5.904258e-01	 1.144330e+01
1	 1.375850e+00	 6.067640e-01	 1.088554e+01
1	 1.368550e+00	 6.230531e-01	 1.022442e+01
1	 1.361042e+00	 6.392892e-01	 9.460652e+00
1	 1.353324e+00	 6.554684e-01	 8.594892e+00
1	 1.396667e+00	 5.768702e-01	 1.150707e+01
1	 1.389752e+00	 5.933343e-01	 1.106962e+01
1	 1.382627e+00	 6.097530e-01	 1.052740e+01
1	 1.375292e+00	 6.261224e-01	 9.880916e+00
1	 1.367746e+00	 6.424384e-01	 9.130626e+00
1	 1.359991e+00	 6.586973e-01	 8.276906e+00
1	 1.403513e+00	 5.796980e-01	 1.111645e+01
1	 1.396565e+00	 5.962428e-01	 1.069554e+01
1	 1.389405e+00	 6.127420e-01	 1.016939e+01
1	 1.382033e+00	 6.291916e-01	 9.538223e+00
1	 1.374451e+00	 6.455877e-01	 8.802196e+00
1	 1.366657e+00	 6.619262e-01	 7.961417e+00
1	 1.333324e+00	 6.457817e-01	 9.563552e+00
1	 1.325515e+00	 6.616619e-01	 8.544407e+00
1	 1.317502e+00	 6.774783e-01	 7.380089e+00
1	 1.309284e+00	 6.932270e-01	 6.069767e+00
1	 1.300862e+00	 7.089043e-01	 4.612604e+00
1	 1.292238e+00	 7.245062e-01	 3.007754e+00
1	 1.339991e+00	 6.490106e-01	 9.238243e+00
1	 1.332143e+00	 6.649702e-01	 8.228470e+00
1	 1.324089e+00	 6.808657e-01	 7.073066e+00
1	 1.315830e+00	 6.966932e-01	 5.771727e+00
1	 1.307366e+00	 7.124488e-01	 4.324217e+00
1	 1.298699e+00	 7.281287e-01	 2.730368e+00
1	 1.346657e+00	 6.522395e-01	 8.915346e+00
1	 1.338771e+00	 6.682785e-01	 7.915498e+00
1	 1.330677e+00	 6.842531e-01	 6.770162e+00
1	 1.322376e+00	 7.001593e-01	 5.479556e+00
1	 1.313871e+00	 7.159933e-01	 4.044032e+00
1	 1.305160e+00	 7.317512e-01	 2.464081e+00
1	 1.353324e+00	 6.554684e-01	 8.594892e+00
1	 1.345398e+00	 6.715868e-01	 7.605724e+00
1	 1.337264e+00	 6.876404e-01	 6.471737e+00
1	 1.328923e+00	 7.036254e-01	 5.193666e+00
1	 1.320375e+00	 7.195379e-01	 3.772443e+00
1	 1.311621e+00	 7.353738e-01	 2.209194e+00
1	 1.359991e+00	 6.586973e-01	 8.276906e+00
1	 1.352026e+00	 6.748951e-01	 7.299374e+00
1	 1.343852e+00	 6.910278e-01	 6.178143e+00
1	 1.335469e+00	 7.070916e-01	 4.914465e+00
1	 1.326879e+00	 7.230824e-01	 3.509836e+00
1	 1.318082e+00	 7.389963e-01	 1.966001e+00
1	 1.366657e+00	 6.619262e-01	 7.961417e+00
1	 1.358653e+00	 6.782034e-01	 6.996670e+00
1	 1.350439e+00	 6.944152e-01	 5.889726e+00
1	 1.342016e+00	 7.105577e-01	 4.642349e+00
1	 1.333384e+00	 7.266269e-01	 3.256591e+00
1	 1.324544e+00	 7.426188e-01	 1.734792e+00
1	 1.292238e+00	 7.245062e-01	 3.007754e+00
1	 1.283411e+00	 7.400289e-01	 1.322967e+00
1	 1.274384e+00	 7.554685e-01	-3.713232e-01
1	 1.265157e+00	 7.708213e-01	-2.071636e+00
1	 1.255731e+00	 7.860834e-01	-3.774095e+00
1	 1.246108e+00	 8.012510e-01	-5.474433e+00
1	 1.298699e+00	 7.281287e-01	 2.730368e+00
1	 1.289828e+00	 7.437290e-01	 1.060082e+00
1	 1.280756e+00	 7.592459e-01	-6.149727e-01
1	 1.271483e+00	 7.746754e-01	-2.292021e+00
1	 1.262010e+00	 7.900138e-01	-3.967973e+00
1	 1.252338e+00	 8.052573e-01	-5.639428e+00
1	 1.305160e+00	 7.317512e-01	 2.464081e+00
1	 1.296245e+00	 7.474292e-01	 8.111288e-01
1	 1.287128e+00	 7.630232e-01	-8.425303e-01
1	 1.277808e+00	 7.785295e-01	-2.494822e+00
1	 1.268288e+00	 7.939442e-01	-4.143435e+00
1	 1.258569e+00	 8.092635e-01	-5.785819e+00
1	 1.311621e+00	 7.353738e-01	 2.209194e+00
1	 1.302662e+00	 7.511293e-01	 5.762926e-01
1	 1.293500e+00	 7.668006e-01	-1.053899e+00
1	 1.284134e+00	 7.823836e-01	-2.680001e+00
1	 1.274567e+00	 7.978747e-01	-4.300468e+00
1	 1.264799e+00	 8.132698e-01	-5.913592e+00
1	 1.318082e+00	 7.389963e-01	 1.966001e+00
1	 1.309080e+00	 7.548295e-01	 3.557533e-01
1	 1.299872e+00	 7.705779e-01	-1.248984e+00
1	 1.290460e+00	 7.862377e-01	-2.847517e+00
1	 1.280846e+00	 8.018051e-01	-4.439061e+00
1	 1.271030e+00	 8.172760e-01	-6.022738e+00
1	 1.324544e+00	 7.426188e-01	 1.734792e+00
1	 1.315497e+00	 7.585296e-01	 1.496879e-01
1	 1.306244e+00	 7.743552e-01	-1.427691e+00
1	 1.296786e+00	 7.900918e-01	-2.997334e+00
1	 1.287124e+00	 8.057355e-01	-4.559205e+00
1	 1.277260e+00	 8.212823e-01	-6.113243e+00
1	 1.246108e+00	 8.012510e-01	-5.474433e+00
1	 1.236288e+00	 8.163204e-01	-7.127923e+00
1	 1.226274e+00	 8.312877e-01	-8.695983e+00
1	 1.216067e+00	 8.461494e-01	-1.018367e+01
1	 1.205668e+00	 8.609016e-01	-1.159655e+01
1	 1.195080e+00	 8.755408e-01	-1.294074e+01
1	 1.252338e+00	 8.052573e-01	-5.639428e+00
1	 1.242470e+00	 8.204020e-01	-7.265607e+00
1	 1.232405e+00	 8.354442e-01	-8.810833e+00
1	 1.222147e+00	 8.503801e-01	-1.027950e+01
1	 1.211697e+00	 8.652061e-01	-1.167647e+01
1	 1.201055e+00	 8.799185e-01	-1.300712e+01
1	 1.258569e+00	 8.092635e-01	-5.785819e+00
1	 1.248651e+00	 8.244836e-01	-7.384677e+00
1	 1.238537e+00	 8.396006e-01	-8.906792e+00
1	 1.228228e+00	 8.546109e-01	-1.035590e+01
1	 1.217725e+00	 8.695106e-01	-1.173620e+01
1	 1.207031e+00	 8.842962e-01	-1.305230e+01
1	 1.264799e+00	 8.132698e-01	-5.913592e+00
1	 1.254832e+00	 8.285652e-01	-7.485112e+00
1	 1.244668e+00	 8.437571e-01	-8.983841e+00
1	 1.234308e+00	 8.588416e-01	-1.041288e+01
1	 1.223753e+00	 8.738151e-01	-1.177574e+01
1	 1.213006e+00	 8.886739e-01	-1.307634e+01
1	 1.271030e+00	 8.172760e-01	-6.022738e+00
1	 1.261014e+00	 8.326468e-01	-7.566891e+00
1	 1.250800e+00	 8.479135e-01	-9.041959e+00
1	 1.240388e+00	 8.630724e-01	-1.045042e+01
1	 1.229782e+00	 8.781196e-01	-1.179511e+01
1	 1.218981e+00	 8.930516e-01	-1.307928e+01
1	 1.277260e+00	 8.212823e-01	-6.113243e+00
1	 1.267195e+00	 8.367284e-01	-7.629995e+00
1	 1.256931e+00	 8.520699e-01	-9.081129e+00
1	 1.246469e+00	 8.673031e-01	-1.046851e+01
1	 1.235810e+00	 8.824241e-01	-1.179433e+01
1	 1.224957e+00	 8.974293e-01	-1.306116e+01
1	 1.195080e+00	 8.755408e-01	-1.294074e+01
1	 1.184304e+00	 8.900632e-01	-1.419574e+01
1	 1.173341e+00	 9.044654e-01	-1.533899e+01
1	 1.162195e+00	 9.187438e-01	-1.637397e+01
1	 1.150867e+00	 9.328949e-01	-1.730438e+01
1	 1.139359e+00	 9.469152e-01	-1.813411e+01
1	 1.201055e+00	 8.799185e-01	-1.300712e+01
1	 1.190225e+00	 8.945135e-01	-1.424932e+01
1	 1.179208e+00	 9.089877e-01	-1.537995e+01
1	 1.168006e+00	 9.233375e-01	-1.640342e+01
1	 1.156621e+00	 9.375593e-01	-1.732439e+01
1	 1.145056e+00	 9.516498e-01	-1.814773e+01
1	 1.207031e+00	 8.842962e-01	-1.305230e+01
1	 1.196147e+00	 8.989639e-01	-1.428079e+01
1	 1.185075e+00	 9.135101e-01	-1.539821e+01
1	 1.173817e+00	 9.279312e-01	-1.640975e+01
1	 1.162376e+00	 9.422238e-01	-1.732090e+01
1	 1.150753e+00	 9.563843e-01	-1.813739e+01
1	 1.213006e+00	 8.886739e-01	-1.307634e+01
1	 1.202068e+00	 9.034142e-01	-1.429021e+01
1	 1.190941e+00	 9.180324e-01	-1.539377e+01
1	 1.179628e+00	 9.325250e-01	-1.639286e+01
1	 1.168130e+00	 9.468883e-01	-1.729366e+01
1	 1.156449e+00	 9.611189e-01	-1.810262e+01
1	 1.218981e+00	 8.930516e-01	-1.307928e+01
1	 1.207990e+00	 9.078645e-01	-1.427764e+01
1	 1.196808e+00	 9.225547e-01	-1.536664e+01
1	 1.185439e+00	 9.371187e-01	-1.635266e+01
1	 1.173884e+00	 9.515528e-01	-1.724241e+01
1	 1.162146e+00	 9.658535e-01	-1.804295e+01
1	 1.224957e+00	 8.974293e-01	-1.306116e+01
1	 1.213911e+00	 9.123148e-01	-1.424312e+01
1	 1.202675e+00	 9.270771e-01	-1.531682e+01
1	 1.191250e+00	 9.417124e-01	-1.628903e+01
1	 1.179639e+00	 9.562172e-01	-1.716690e+01
1	 1.167843e+00	 9.705881e-01	-1.795793e+01
1	 1.139359e+00	 9.469152e-01	-1.813411e+01
1	 1.127674e+00	 9.608013e-01	-1.887696e+01
1	 1.115813e+00	 9.745500e-01	-1.953968e+01
1	 1.103781e+00	 9.881578e-01	-2.011531e+01
1	 1.091578e+00	 1.001622e+00	-2.059650e+01
1	 1.079207e+00	 1.014938e+00	-2.097548e+01
1	 1.145056e+00	 9.516498e-01	-1.814773e+01
1	 1.133312e+00	 9.656053e-01	-1.888553e+01
1	 1.121393e+00	 9.794227e-01	-1.954208e+01
1	 1.109299e+00	 9.930986e-01	-2.011043e+01
1	 1.097035e+00	 1.006630e+00	-2.058321e+01
1	 1.084603e+00	 1.020013e+00	-2.095262e+01
1	 1.150753e+00	 9.563843e-01	-1.813739e+01
1	 1.138951e+00	 9.704093e-01	-1.886930e+01
1	 1.126972e+00	 9.842955e-01	-1.951839e+01
1	 1.114818e+00	 9.980394e-01	-2.007788e+01
1	 1.102493e+00	 1.011638e+00	-2.054057e+01
1	 1.089999e+00	 1.025088e+00	-2.089880e+01
1	 1.156449e+00	 9.611189e-01	-1.810262e+01
1	 1.144589e+00	 9.752133e-01	-1.882758e+01
1	 1.132551e+00	 9.891682e-01	-1.946780e+01
1	 1.120337e+00	 1.002980e+00	-2.001682e+01
1	 1.107951e+00	 1.016646e+00	-2.046777e+01
1	 1.095395e+00	 1.030162e+00	-2.081334e+01
1	 1.162146e+00	 9.658535e-01	-1.804295e+01
1	 1.150227e+00	 9.800173e-01	-1.875973e+01
1	 1.138130e+00	 9.940410e-01	-1.938955e+01
1	 1.125856e+00	 1.007921e+00	-1.992644e+01
1	 1.113409e+00	 1.021654e+00	-2.036403e+01
1	 1.100791e+00	 1.035237e+00	-2.069556e+01
1	 1.167843e+00	 9.705881e-01	-1.795793e+01
1	 1.155866e+00	 9.848214e-01	-1.866510e+01
1	 1.143709e+00	 9.989137e-01	-1.928288e+01
1	 1.131375e+00	 1.012862e+00	-1.980595e+01
1	 1.118867e+00	 1.026662e+00	-2.022860e+01
1	 1.106187e+00	 1.040312e+00	-2.054478e+01
1	 1.079207e+00	 1.014938e+00	-2.097548e+01
1	 1.066672e+00	 1.028105e+00	-2.131630e+01
1	 1.053974e+00	 1.041118e+00	-2.168886e+01
1	 1.041118e+00	 1.053974e+00	-2.209402e+01
1	 1.028105e+00	 1.066672e+00	-2.253266e+01
1	 1.014938e+00	 1.079207e+00	-2.300577e+01
1	 1.084603e+00	 1.020013e+00	-2.095262e+01
1	 1.072005e+00	 1.033245e+00	-2.128466e+01
1	 1.059244e+00	 1.046323e+00	-2.165066e+01
1	 1.046323e+00	 1.059244e+00	-2.205058e+01
1	 1.033245e+00	 1.072005e+00	-2.248440e+01
1	 1.020013e+00	 1.084603e+00	-2.295212e+01
1	 1.089999e+00	 1.025088e+00	-2.089880e+01
1	 1.077338e+00	 1.038386e+00	-2.122060e+01
1	 1.064514e+00	 1.051529e+00	-2.157865e+01
1	 1.051529e+00	 1.064514e+00	-2.197202e+01
1	 1.038386e+00	 1.077338e+00	-2.239978e+01
1	 1.025088e+00	 1.089999e+00	-2.286102e+01
1	 1.095395e+00	 1.030162e+00	-2.081334e+01
1	 1.082672e+00	 1.043526e+00	-2.112359e+01
1	 1.069784e+00	 1.056734e+00	-2.147245e+01
1	 1.056734e+00	 1.069784e+00	-2.185812e+01
1	 1.043526e+00	 1.082672e+00	-2.227880e+01
1	 1.030162e+00	 1.095395e+00	-2.273265e+01
1	 1.100791e+00	 1.035237e+00	-2.069556e+01
1	 1.088005e+00	 1.048667e+00	-2.099309e+01
1	 1.075054e+00	 1.061940e+00	-2.133168e+01
1	 1.061940e+00	 1.075054e+00	-2.170869e+01
1	 1.048667e+00	 1.088005e+00	-2.212145e+01
1	 1.035237e+00	 1.100791e+00	-2.256722e+01
1	 1.106187e+00	 1.040312e+00	-2.054478e+01
1	 1.093338e+00	 1.053807e+00	-2.082856e+01
1	 1.080324e+00	 1.067145e+00	-2.115596e+01
1	 1.067145e+00	 1.080324e+00	-2.152352e+01
1	 1.053807e+00	 1.093338e+00	-2.192771e+01
1	 1.040312e+00	 1.106187e+00	-2.236493e+01
1	 1.014938e+00	 1.079207e+00	-2.300577e+01
1	 1.001622e+00	 1.091578e+00	-2.357640e+01
1	 9.881578e-01	 1.103781e+00	-2.430520e+01
1	 9.745500e-01	 1.115813e+00	-2.518966e+01
1	 9.608013e-01	 1.127674e+00	-2.622739e+01
1	 9.469152e-01	 1.139359e+00	-2.741615e+01
1	 1.020013e+00	 1.084603e+00	-2.295212e+01
1	 1.006630e+00	 1.097035e+00	-2.351676e+01
1	 9.930986e-01	 1.109299e+00	-2.423965e+01
1	 9.794227e-01	 1.121393e+00	-2.511847e+01
1	 9.656053e-01	 1.133312e+00	-2.615106e+01
1	 9.516498e-01	 1.145056e+00	-2.733539e+01
1	 1.025088e+00	 1.089999e+00	-2.286102e+01
1	 1.011638e+00	 1.102493e+00	-2.341882e+01
1	 9.980394e-01	 1.114818e+00	-2.413532e+01
1	 9.842955e-01	 1.126972e+00	-2.500830e+01
1	 9.704093e-01	 1.138951e+00	-2.603569e+01
1	 9.563843e-01	 1.150753e+00	-2.721560e+01
1	 1.030162e+00	 1.095395e+00	-2.273265e+01
1	 1.016646e+00	 1.107951e+00	-2.328297e+01
1	 1.002980e+00	 1.120337e+00	-2.399270e+01
1	 9.891682e-01	 1.132551e+00	-2.485963e+01
1	 9.752133e-01	 1.144589e+00	-2.588172e+01
1	 9.611189e-01	 1.156449e+00	-2.705704e+01
1	 1.035237e+00	 1.100791e+00	-2.256722e+01
1	 1.021654e+00	 1.113409e+00	-2.310956e+01
1	 1.007921e+00	 1.125856e+00	-2.381224e+01
1	 9.940410e-01	 1.138130e+00	-2.467295e+01
1	 9.800173e-01	 1.150227e+00	-2.568953e+01
1	 9.658535e-01	 1.162146e+00	-2.685997e+01
1	 1.040312e+00	 1.106187e+00	-2.236493e+01
1	 1.026662e+00	 1.118867e+00	-2.289898e+01
1	 1.012862e+00	 1.131375e+00	-2.359440e+01
1	 9.989137e-01	 1.143709e+00	-2.444871e+01
1	 9.848214e-01	 1.155866e+00	-2.545954e+01
1	 9.705881e-01	 1.167843e+00	-2.662464e+01
1	 9.469152e-01	 1.139359e+00	-2.741615e+01
1	 9.328949e-01	 1.150867e+00	-2.874267e+01
1	 9.187438e-01	 1.162195e+00	-3.019057e+01
1	 9.044654e-01	 1.173341e+00	-3.175282e+01
1	 8.900632e-01	 1.184304e+00	-3.342218e+01
1	 8.755408e-01	 1.195080e+00	-3.519122e+01
1	 9.516498e-01	 1.145056e+00	-2.733539e+01
1	 9.375593e-01	 1.156621e+00	-2.865682e+01
1	 9.233375e-01	 1.168006e+00	-3.009760e+01
1	 9.089877e-01	 1.179208e+00	-3.165096e+01
1	 8.945135e-01	 1.190225e+00	-3.330995e+01
1	 8.799185e-01	 1.201055e+00	-3.506739e+01
1	 9.563843e-01	 1.150753e+00	-2.721560e+01
1	 9.422238e-01	 1.162376e+00	-2.853182e+01
1	 9.279312e-01	 1.173817e+00	-2.996521e+01
1	 9.135101e-01	 1.185075e+00	-3.150930e+01
1	 8.989639e-01	 1.196147e+00	-3.315746e+01
1	 8.842962e-01	 1.207031e+00	-3.490281e+01
1	 9.611189e-01	 1.156449e+00	-2.705704e+01
1	 9.468883e-01	 1.168130e+00	-2.836779e+01
1	 9.325250e-01	 1.179628e+00	-2.979341e+01
1	 9.180324e-01	 1.190941e+00	-3.132781e+01
1	 9.034142e-01	 1.202068e+00	-3.296468e+01
1	 8.886739e-01	 1.213006e+00	-3.469752e+01
1	 9.658535e-01	 1.162146e+00	-2.685997e+01
1	 9.515528e-01	 1.173884e+00	-2.816481e+01
1	 9.371187e-01	 1.185439e+00	-2.958222e+01
1	 9.225547e-01	 1.196808e+00	-3.110645e+01
1	 9.078645e-01	 1.207990e+00	-3.273160e+01
1	 8.930516e-01	 1.218981e+00	-3.445155e+01
1	 9.705881e-01	 1.167843e+00	-2.662464e+01
1	 9.562172e-01	 1.179639e+00	-2.792301e+01
1	 9.417124e-01	 1.191250e+00	-2.933163e+01
1	 9.270771e-01	 1.202675e+00	-3.084518e+01
1	 9.123148e-01	 1.213911e+00	-3.245818e+01
1	 8.974293e-01	 1.224957e+00	-3.416496e+01
1	 8.755408e-01	 1.195080e+00	-3.519122e+01
1	 8.609016e-01	 1.205668e+00	-3.703607e+01
1	 8.461494e-01	 1.216067e+00	-3.893065e+01
1	 8.312877e-01	 1.226274e+00	-4.086390e+01
1	 8.163204e-01	 1.236288e+00	-4.282449e+01
1	 8.012510e-01	 1.246108e+00	-4.480085e+01
1	 8.799185e-01	 1.201055e+00	-3.506739e+01
1	 8.652061e-01	 1.211697e+00	-3.689890e+01
1	 8.503801e-01	 1.222147e+00	-3.877759e+01
1	 8.354442e-01	 1.232405e+00	-4.069215e+01
1	 8.204020e-01	 1.242470e+00	-4.263102e+01
1	 8.052573e-01	 1.252338e+00	-4.458242e+01
1	 8.842962e-01	 1.207031e+00	-3.490281e+01
1	 8.695106e-01	 1.217725e+00	-3.672052e+01
1	 8.546109e-01	 1.228228e+00	-3.858288e+01
1	 8.396006e-01	 1.238537e+00	-4.047834e+01
1	 8.244836e-01	 1.248651e+00	-4.239507e+01
1	 8.092635e-01	 1.258569e+00	-4.432103e+01
1	 8.886739e-01	 1.213006e+00	-3.469752e+01
1	 8.738151e-01	 1.223753e+00	-3.650104e+01
1	 8.588416e-01	 1.234308e+00	-3.834668e+01
1	 8.437571e-01	 1.244668e+00	-4.022261e+01
1	 8.285652e-01	 1.254832e+00	-4.211672e+01
1	 8.132698e-01	 1.264799e+00	-4.401668e+01
1	 8.930516e-01	 1.218981e+00	-3.445155e+01
1	 8.781196e-01	 1.229782e+00	-3.624057e+01
1	 8.630724e-01	 1.240388e+00	-3.806913e+01
1	 8.479135e-01	 1.250800e+00	-3.992509e+01
1	 8.326468e-01	 1.261014e+00	-4.179606e+01
1	 8.172760e-01	 1.271030e+00	-4.366937e+01
1	 8.974293e-01	 1.224957e+00	-3.416496e+01
1	 8.824241e-01	 1.235810e+00	-3.593921e+01
1	 8.673031e-01	 1.246469e+00	-3.775035e+01
1	 8.520699e-01	 1.256931e+00	-3.958592e+01
1	 8.367284e-01	 1.267195e+00	-4.143317e+01
1	 8.212823e-01	 1.277260e+00	-4.327910e+01
1	 8.012510e-01	 1.246108e+00	-4.480085e+01
1	 7.860834e-01	 1.255731e+00	-4.674123e+01
1	 7.708213e-01	 1.265157e+00	-4.860834e+01
1	 7.554685e-01	 1.274384e+00	-5.041232e+01
1	 7.400289e-01	 1.283411e+00	-5.216371e+01
1	 7.245062e-01	 1.292238e+00	-5.387336e+01
1	 8.052573e-01	 1.252338e+00	-4.458242e+01
1	 7.900138e-01	 1.262010e+00	-4.649690e+01
1	 7.746754e-01	 1.271483e+00	-4.833883e+01
1	 7.592459e-01	 1.280756e+00	-5.011719e+01
1	 7.437290e-01	 1.289828e+00	-5.184129e+01
1	 7.281287e-01	 1.298699e+00	-5.352073e+01
1	 8.092635e-01	 1.258569e+00	-4.432103e+01
1	 7.939442e-01	 1.268288e+00	-4.620887e+01
1	 7.785295e-01	 1.277808e+00	-4.802449e+01
1	 7.630232e-01	 1.287128e+00	-4.977581e+01
1	 7.474292e-01	 1.296245e+00	-5.147099e+01
1	 7.317512e-01	 1.305160e+00	-5.311850e+01
1	 8.132698e-01	 1.264799e+00	-4.401668e+01
1	 7.978747e-01	 1.274567e+00	-4.587707e+01
1	 7.823836e-01	 1.284134e+00	-4.766526e+01
1	 7.668006e-01	 1.293500e+00	-4.938815e+01
1	 7.511293e-01	 1.302662e+00	-5.105290e+01
1	 7.353738e-01	 1.311621e+00	-5.266691e+01
1	 8.172760e-01	 1.271030e+00	-4.366937e+01
1	 8.018051e-01	 1.280846e+00	-4.550142e+01
1	 7.862377e-01	 1.290460e+00	-4.726104e+01
1	 7.705779e-01	 1.299872e+00	-4.895418e+01
1	 7.548295e-01	 1.309080e+00	-5.058708e+01
1	 7.389963e-01	 1.318082e+00	-5.216618e+01
1	 8.212823e-01	 1.277260e+00	-4.327910e+01
1	 8.057355e-01	 1.287124e+00	-4.508188e+01
1	 7.900918e-01	 1.296786e+00	-4.681175e+01
1	 7.743552e-01	 1.306244e+00	-4.847387e+01
1	 7.585296e-01	 1.315497e+00	-5.007361e+01
1	 7.426188e-01	 1.324544e+00	-5.161656e+01
1	 7.245062e-01	 1.292238e+00	-5.387336e+01
1	 7.089043e-01	 1.300862e+00	-5.548198e+01
1	 6.932270e-01	 1.309284e+00	-5.692749e+01
1	 6.774783e-01	 1.317502e+00	-5.821680e+01
1	 6.616619e-01	 1.325515e+00	-5.935689e+01
1	 6.457817e-01	 1.333324e+00	-6.035481e+01
1	 7.281287e-01	 1.298699e+00	-5.352073e+01
1	 7.124488e-01	 1.307366e+00	-5.509444e+01
1	 6.966932e-01	 1.315830e+00	-5.650052e+01
1	 6.808657e-01	 1.324089e+00	-5.774767e+01
1	 6.649702e-01	 1.332143e+00	-5.884469e+01
1	 6.490106e-01	 1.339991e+00	-5.980054e+01
1	 7.317512e-01	 1.305160e+00	-5.311850e+01
1	 7.159933e-01	 1.313871e+00	-5.465591e+01
1	 7.001593e-01	 1.322376e+00	-5.602171e+01
1	 6.842531e-01	 1.330677e+00	-5.722607e+01
1	 6.682785e-01	 1.338771e+00	-5.827933e+01
1	 6.522395e-01	 1.346657e+00	-5.919197e+01
1	 7.353738e-01	 1.311621e+00	-5.266691e+01
1	 7.195379e-01	 1.320375e+00	-5.416676e+01
1	 7.036254e-01	 1.328923e+00	-5.549144e+01
1	 6.876404e-01	 1.337264e+00	-5.665230e+01
1	 6.715868e-01	 1.345398e+00	-5.766086e+01
1	 6.554684e-01	 1.353324e+00	-5.852884e+01
1	 7.389963e-01	 1.318082e+00	-5.216618e+01
1	 7.230824e-01	 1.326879e+00	-5.362736e+01
1	 7.070916e-01	 1.335469e+00	-5.491010e+01
1	 6.910278e-01	 1.343852e+00	-5.602661e+01
1	 6.748951e-01	 1.352026e+00	-5.698933e+01
1	 6.586973e-01	 1.359991e+00	-5.781087e+01
1	 7.426188e-01	 1.324544e+00	-5.161656e+01
1	 7.266269e-01	 1.333384e+00	-5.303806e+01
1	 7.105577e-01	 1.342016e+00	-5.427804e+01
1	 6.944152e-01	 1.350439e+00	-5.534927e+01
1	 6.782034e-01	 1.358653e+00	-5.626479e+01
1	 6.619262e-01	 1.366657e+00	-5.703781e+01
1	 6.457817e-01	 1.333324e+00	-6.035481e+01
1	 6.298416e-01	 1.340928e+00	-6.121344e+01
1	 6.138455e-01	 1.348325e+00	-6.192922e+01
1	 5.977971e-01	 1.355517e+00	-6.249953e+01
1	 5.817003e-01	 1.362502e+00	-6.292161e+01
1	 5.655590e-01	 1.369281e+00	-6.319262e+01
1	 6.490106e-01	 1.339991e+00	-5.980054e+01
1	 6.329908e-01	 1.347632e+00	-6.061819e+01
1	 6.169147e-01	 1.355067e+00	-6.129275e+01
1	 6.007861e-01	 1.362294e+00	-6.182131e+01
1	 5.846088e-01	 1.369315e+00	-6.220082e+01
1	 5.683868e-01	 1.376127e+00	-6.242811e+01
1	 6.522395e-01	 1.346657e+00	-5.919197e+01
1	 6.361400e-01	 1.354337e+00	-5.996663e+01
1	 6.199839e-01	 1.361809e+00	-6.059718e+01
1	 6.037750e-01	 1.369072e+00	-6.108090e+01
1	 5.875173e-01	 1.376127e+00	-6.141499e+01
1	 5.712146e-01	 1.382974e+00	-6.159648e+01
1	 6.554684e-01	 1.353324e+00	-5.852884e+01
1	 6.392892e-01	 1.361042e+00	-5.925821e+01
1	 6.230531e-01	 1.368550e+00	-5.984181e+01
1	 6.067640e-01	 1.375850e+00	-6.027765e+01
1	 5.904258e-01	 1.382940e+00	-6.056364e+01
1	 5.740424e-01	 1.389820e+00	-6.069757e+01
1	 6.586973e-01	 1.359991e+00	-5.781087e+01
1	 6.424384e-01	 1.367746e+00	-5.849237e+01
1	 6.261224e-01	 1.375292e+00	-5.902596e+01
1	 6.097530e-01	 1.382627e+00	-5.941090e+01
1	 5.933343e-01	 1.389752e+00	-5.964632e+01
1	 5.768702e-01	 1.396667e+00	-5.973125e+01
1	 6.619262e-01	 1.366657e+00	-5.703781e+01
1	 6.455877e-01	 1.374451e+00	-5.766855e+01
1	 6.291916e-01	 1.382033e+00	-5.814898e+01
1	 6.127420e-01	 1.389405e+00	-5.848003e+01
1	 5.962428e-01	 1.396565e+00	-5.866256e+01
1	 5.796980e-01	 1.403513e+00	-5.869738e+01
1	 5.655590e-01	 1.369281e+00	-6.319262e+01
1	 5.493769e-01	 1.375853e+00	-6.332290e+01
1	 5.331579e-01	 1.382219e+00	-6.333304e+01
1	 5.169057e-01	 1.388379e+00	-6.323562e+01
1	 5.006240e-01	 1.394332e+00	-6.304336e+01
1	 4.843166e-01	 1.400080e+00	-6.276909e+01
1	 5.683868e-01	 1.376127e+00	-6.242811e+01
1	 5.521238e-01	 1.382733e+00	-6.251531e+01
1	 5.358237e-01	 1.389130e+00	-6.248564e+01
1	 5.194902e-01	 1.395321e+00	-6.235270e+01
1	 5.031272e-01	 1.401304e+00	-6.213020e+01
1	 4.867382e-01	 1.407081e+00	-6.183200e+01
1	 5.712146e-01	 1.382974e+00	-6.159648e+01
1	 5.548707e-01	 1.389612e+00	-6.163973e+01
1	 5.384895e-01	 1.396041e+00	-6.157031e+01
1	 5.220747e-01	 1.402263e+00	-6.140212e+01
1	 5.056303e-01	 1.408276e+00	-6.114920e+01
1	 4.891598e-01	 1.414081e+00	-6.082571e+01
1	 5.740424e-01	 1.389820e+00	-6.069757e+01
1	 5.576176e-01	 1.396491e+00	-6.069635e+01
1	 5.411553e-01	 1.402953e+00	-6.058735e+01
1	 5.246593e-01	 1.409205e+00	-6.038415e+01
1	 5.081334e-01	 1.415247e+00	-6.010043e+01
1	 4.915814e-01	 1.421081e+00	-5.974999e+01
1	 5.768702e-01	 1.396667e+00	-5.973125e+01
1	 5.603645e-01	 1.403370e+00	-5.968530e+01
1	 5.438211e-01	 1.409864e+00	-5.953705e+01
1	 5.272438e-01	 1.416146e+00	-5.929905e+01
1	 5.106365e-01	 1.422219e+00	-5.898398e+01
1	 4.940030e-01	 1.428082e+00	-5.860458e+01
1	 5.796980e-01	 1.403513e+00	-5.869738e+01
1	 5.631114e-01	 1.410250e+00	-5.860676e+01
1	 5.464869e-01	 1.416775e+00	-5.841969e+01
1	 5.298283e-01	 1.423088e+00	-5.814708e+01
1	 5.131396e-01	 1.429191e+00	-5.779992e+01
1	 4.964246e-01	 1.435082e+00	-5.738925e+01
1	 4.843166e-01	 1.400080e+00	-6.276909e+01
1	 4.679872e-01	 1.405623e+00	-6.241792e+01
1	 4.516395e-01	 1.410960e+00	-6.199204e+01
1	 4.352769e-01	 1.416094e+00	-6.149998e+01
1	 4.189033e-01	 1.421023e+00	-6.095019e+01
1	 4.025221e-01	 1.425750e+00	-6.035112e+01
1	 4.867382e-01	 1.407081e+00	-6.183200e+01
1	 4.703272e-01	 1.412651e+00	-6.146352e+01
1	 4.538977e-01	 1.418015e+00	-6.102747e+01
1	 4.374533e-01	 1.423174e+00	-6.053359e+01
1	 4.209978e-01	 1.428128e+00	-5.999160e+01
1	 4.045347e-01	 1.432879e+00	-5.941113e+01
1	 4.891598e-01	 1.414081e+00	-6.082571e+01
1	 4.726671e-01	 1.419679e+00	-6.043699e+01
1	 4.561559e-01	 1.425070e+00	-5.998674e+01
1	 4.396297e-01	 1.430255e+00	-5.948674e+01
1	 4.230923e-01	 1.435234e+00	-5.894870e+01
1	 4.065473e-01	 1.440008e+00	-5.838427e+01
1	 4.915814e-01	 1.421081e+00	-5.974999e+01
1	 4.750070e-01	 1.426707e+00	-5.933775e+01
1	 4.584140e-01	 1.432125e+00	-5.886912e+01
1	 4.418061e-01	 1.437335e+00	-5.835864e+01
1	 4.251868e-01	 1.442339e+00	-5.782081e+01
1	 4.085599e-01	 1.447136e+00	-5.727005e+01
1	 4.940030e-01	 1.428082e+00	-5.860458e+01
1	 4.773470e-01	 1.433735e+00	-5.816525e+01
1	 4.606722e-01	 1.439180e+00	-5.767387e+01
1	 4.439825e-01	 1.444416e+00	-5.714852e+01
1	 4.272814e-01	 1.449444e+00	-5.660724e+01
1	 4.105725e-01	 1.454265e+00	-5.606796e+01
1	 4.964246e-01	 1.435082e+00	-5.738925e+01
1	 4.796869e-01	 1.440763e+00	-5.691893e+01
1	 4.629304e-01	 1.446234e+00	-5.640027e+01
1	 4.461589e-01	 1.451496e+00	-5.585564e+01
1	 4.293759e-01	 1.456549e+00	-5.530731e+01
1	 4.125851e-01	 1.461394e+00	-5.477752e+01
1	 4.025221e-01	 1.425750e+00	-6.035112e+01
1	 3.861368e-01	 1.430275e+00	-5.976747e+01
1	 3.697509e-01	 1.434598e+00	-5.924228e+01
1	 3.533679e-01	 1.438721e+00	-5.875150e+01
1	 3.369912e-01	 1.442645e+00	-5.827123e+01
1	 3.206241e-01	 1.446370e+00	-5.777776e+01
1	 4.045347e-01	 1.432879e+00	-5.941113e+01
1	 3.880675e-01	 1.437426e+00	-5.885707e+01
1	 3.715997e-01	 1.441771e+00	-5.837171e+01
1	 3.551348e-01	 1.445915e+00	-5.793083e+01
1	 3.386762e-01	 1.449858e+00	-5.751033e+01
1	 3.222272e-01	 1.453602e+00	-5.708629e+01
1	 4.065473e-01	 1.440008e+00	-5.838427e+01
1	 3.899981e-01	 1.444577e+00	-5.785905e+01
1	 3.734484e-01	 1.448944e+00	-5.741452e+01
1	 3.569016e-01	 1.453108e+00	-5.702611e+01
1	 3.403611e-01	 1.457071e+00	-5.666941e+01
1	 3.238303e-01	 1.460834e+00	-5.632015e+01
1	 4.085599e-01	 1.447136e+00	-5.727005e+01
1	 3.919288e-01	 1.451729e+00	-5.677315e+01
1	 3.752972e-01	 1.456117e+00	-5.637063e+01
1	 3.586685e-01	 1.460302e+00	-5.603749e+01
1	 3.420461e-01	 1.464285e+00	-5.574879e+01
1	 3.254335e-01	 1.468066e+00	-5.547979e+01
1	 4.105725e-01	 1.454265e+00	-5.606796e+01
1	 3.938595e-01	 1.458880e+00	-5.559909e+01
1	 3.771459e-01	 1.463290e+00	-5.524000e+01
1	 3.604353e-01	 1.467496e+00	-5.496508e+01
1	 3.437310e-01	 1.471498e+00	-5.474877e+01
1	 3.270366e-01	 1.475298e+00	-5.456567e+01
1	 4.125851e-01	 1.461394e+00	-5.477752e+01
1	 3.957902e-01	 1.466032e+00	-5.433660e+01
1	 3.789947e-01	 1.470463e+00	-5.402257e+01
1	 3.622021e-01	 1.474689e+00	-5.380902e+01
1	 3.454160e-01	 1.478711e+00	-5.366963e+01
1	 3.286397e-01	 1.482530e+00	-5.357823e+01
1	 3.206241e-01	 1.446370e+00	-5.777776e+01
1	 3.042699e-01	 1.449899e+00	-5.728816e+01
1	 2.879319e-01	 1.453232e+00	-5.684034e+01
1	 2.716132e-01	 1.456370e+00	-5.644194e+01
1	 2.553171e-01	 1.459315e+00	-5.610061e+01
1	 2.390466e-01	 1.462068e+00	-5.582391e+01
1	 3.222272e-01	 1.453602e+00	-5.708629e+01
1	 3.057912e-01	 1.457149e+00	-5.667662e+01
1	 2.893715e-01	 1.460498e+00	-5.631907e+01
1	 2.729713e-01	 1.463652e+00	-5.601967e+01
1	 2.565937e-01	 1.466612e+00	-5.578443e+01
1	 2.402418e-01	 1.469379e+00	-5.561933e+01
1	 3.238303e-01	 1.460834e+00	-5.632015e+01
1	 3.073126e-01	 1.464398e+00	-5.599675e+01
1	 2.908112e-01	 1.467764e+00	-5.573629e+01
1	 2.743293e-01	 1.470934e+00	-5.554257e+01
1	 2.578702e-01	 1.473908e+00	-5.541940e+01
1	 2.414370e-01	 1.476689e+00	-5.537055e+01
1	 3.254335e-01	 1.468066e+00	-5.547979e+01
1	 3.088339e-01	 1.471648e+00	-5.524914e+01
1	 2.922508e-01	 1.475030e+00	-5.509261e+01
1	 2.756874e-01	 1.478216e+00	-5.501122e+01
1	 2.591468e-01	 1.481205e+00	-5.500598e+01
1	 2.426323e-01	 1.483999e+00	-5.507789e+01
1	 3.270366e-01	 1.475298e+00	-5.456567e+01
1	 3.103553e-01	 1.478897e+00	-5.443434e+01
1	 2.936905e-01	 1.482296e+00	-5.438862e+01
1	 2.770455e-01	 1.485497e+00	-5.442616e+01
1	 2.604234e-01	 1.488501e+00	-5.454461e+01
1	 2.438275e-01	 1.491310e+00	-5.474162e+01
1	 3.286397e-01	 1.482530e+00	-5.357823e+01
1	 3.118766e-01	 1.486147e+00	-5.355290e+01
1	 2.951302e-01	 1.489563e+00	-5.362489e+01
1	 2.784035e-01	 1.492779e+00	-5.378792e+01
1	 2.617000e-01	 1.495798e+00	-5.403573e+01
1	 2.450227e-01	 1.498620e+00	-5.436205e+01
1	 2.390466e-01	 1.462068e+00	-5.582391e+01
1	 2.228048e-01	 1.464631e+00	-5.560653e+01
1	 2.065946e-01	 1.467006e+00	-5.542940e+01
1	 1.904191e-01	 1.469193e+00	-5.527948e+01
1	 1.742810e-01	 1.471195e+00	-5.514386e+01
1	 1.581832e-01	 1.473012e+00	-5.500976e+01
1	 2.402418e-01	 1.469379e+00	-5.561933e+01
1	 2.239188e-01	 1.471955e+00	-5.551687e+01
1	 2.076276e-01	 1.474341e+00	-5.545555e+01
1	 1.913711e-01	 1.476539e+00	-5.542035e+01
1	 1.751524e-01	 1.478551e+00	-5.539639e+01
1	 1.589741e-01	 1.480377e+00	-5.536895e+01
1	 2.414370e-01	 1.476689e+00	-5.537055e+01
1	 2.250328e-01	 1.479278e+00	-5.538593e+01
1	 2.086606e-01	 1.481676e+00	-5.544181e+01
1	 1.923232e-01	 1.483885e+00	-5.552155e+01
1	 1.760238e-01	 1.485907e+00	-5.560868e+01
1	 1.597650e-01	 1.487742e+00	-5.568691e+01
1	 2.426323e-01	 1.483999e+00	-5.507789e+01
1	 2.261468e-01	 1.486601e+00	-5.521387e+01
1	 2.096935e-01	 1.489011e+00	-5.538821e+01
1	 1.932753e-01	 1.491231e+00	-5.558302e+01
1	 1.768952e-01	 1.493263e+00	-5.578062e+01
1	 1.605560e-01	 1.495108e+00	-5.596349e+01
1	 2.438275e-01	 1.491310e+00	-5.474162e+01
1	 2.272609e-01	 1.493924e+00	-5.500081e+01
1	 2.107265e-01	 1.496346e+00	-5.529475e+01
1	 1.942274e-01	 1.498577e+00	-5.560470e+01
1	 1.777666e-01	 1.500618e+00	-5.591208e+01
1	 1.613469e-01	 1.502473e+00	-5.619857e+01
1	 2.450227e-01	 1.498620e+00	-5.436205e+01
1	 2.283749e-01	 1.501247e+00	-5.474689e+01
1	 2.117595e-01	 1.503681e+00	-5.516147e+01
1	 1.951795e-01	 1.505923e+00	-5.558652e+01
1	 1.786380e-01	 1.507974e+00	-5.600297e+01
1	 1.621378e-01	 1.509838e+00	-5.639200e+01
1	 1.581832e-01	 1.473012e+00	-5.500976e+01
1	 1.421285e-01	 1.474648e+00	-5.486755e+01
1	 1.261196e-01	 1.476103e+00	-5.470944e+01
1	 1.101591e-01	 1.477380e+00	-5.452562e+01
1	 9.424952e-02	 1.478480e+00	-5.430634e+01
1	 7.839350e-02	 1.479406e+00	-5.404196e+01
1	 1.589741e-01	 1.480377e+00	-5.536895e+01
1	 1.428392e-01	 1.482021e+00	-5.532638e+01
1	 1.267502e-01	 1.483484e+00	-5.525913e+01
1	 1.107098e-01	 1.484767e+00	-5.515583e+01
1	 9.472077e-02	 1.485873e+00	-5.500523e+01
1	 7.878547e-02	 1.486803e+00	-5.479619e+01
1	 1.597650e-01	 1.487742e+00	-5.568691e+01
1	 1.435498e-01	 1.489395e+00	-5.574289e+01
1	 1.273808e-01	 1.490864e+00	-5.576540e+01
1	 1.112606e-01	 1.492154e+00	-5.574158e+01
1	 9.519201e-02	 1.493265e+00	-5.565871e+01
1	 7.917743e-02	 1.494200e+00	-5.550423e+01
1	 1.605560e-01	 1.495108e+00	-5.596349e+01
1	 1.442604e-01	 1.496768e+00	-5.611692e+01
1	 1.280114e-01	 1.498245e+00	-5.622809e+01
1	 1.118114e-01	 1.499541e+00	-5.628270e+01
1	 9.566326e-02	 1.500658e+00	-5.626663e+01
1	 7.956940e-02	 1.501597e+00	-5.616594e+01
1	 1.613469e-01	 1.502473e+00	-5.619857e+01
1	 1.449711e-01	 1.504141e+00	-5.644832e+01
1	 1.286420e-01	 1.505625e+00	-5.664703e+01
1	 1.123622e-01	 1.506928e+00	-5.677903e+01
1	 9.613451e-02	 1.508050e+00	-5.682883e+01
1	 7.996137e-02	 1.508994e+00	-5.678118e+01
1	 1.621378e-01	 1.509838e+00	-5.639200e+01
1	 1.456817e-01	 1.511514e+00	-5.673693e+01
1	 1.292726e-01	 1.513006e+00	-5.702207e+01
1	 1.129130e-01	 1.514315e+00	-5.723040e+01
1	 9.660576e-02	 1.515442e+00	-5.734515e+01
1	 8.035334e-02	 1.516391e+00	-5.734980e+01
1	 7.839350e-02	 1.479406e+00	-5.404196e+01
1	 6.259345e-02	 1.480159e+00	-5.372211e+01
1	 4.685177e-02	 1.480740e+00	-5.333957e+01
1	 3.117080e-02	 1.481154e+00	-5.288948e+01
1	 1.555281e-02	 1.481400e+00	-5.236705e+01
1	 0.000000e+00	 1.481481e+00	-5.176749e+01
1	 7.878547e-02	 1.486803e+00	-5.479619e+01
1	 6.290642e-02	 1.487559e+00	-5.451697e+01
1	 4.708603e-02	 1.488144e+00	-5.415913e+01
1	 3.132665e-02	 1.488559e+00	-5.371670e+01
1	 1.563057e-02	 1.488807e+00	-5.318373e+01
1	 0.000000e+00	 1.488889e+00	-5.255438e+01
1	 7.917743e-02	 1.494200e+00	-5.550423e+01
1	 6.321939e-02	 1.494960e+00	-5.526511e+01
1	 4.732029e-02	 1.495548e+00	-5.493185e+01
1	 3.148251e-02	 1.495965e+00	-5.449741e+01
1	 1.570833e-02	 1.496214e+00	-5.395485e+01
1	 0.000000e+00	 1.496296e+00	-5.329736e+01
1	 7.956940e-02	 1.501597e+00	-5.616594e+01
1	 6.353235e-02	 1.502361e+00	-5.596640e+01
1	 4.755455e-02	 1.502952e+00	-5.565757e+01
1	 3.163836e-02	 1.503371e+00	-5.523146e+01
1	 1.578610e-02	 1.503621e+00	-5.468024e+01
1	 0.000000e+00	 1.503704e+00	-5.399621e+01
1	 7.996137e-02	 1.508994e+00	-5.678118e+01
1	 6.384532e-02	 1.509762e+00	-5.662071e+01
1	 4.778881e-02	 1.510355e+00	-5.633616e+01
1	 3.179422e-02	 1.510777e+00	-5.591871e+01
1	 1.586386e-02	 1.511028e+00	-5.535972e+01
1	 0.000000e+00	 1.511111e+00	-5.465075e+01
1	 8.035334e-02	 1.516391e+00	-5.734980e+01
1	 6.415829e-02	 1.517163e+00	-5.722791e+01
1	 4.802307e-02	 1.517759e+00	-5.696749e+01
1	 3.195007e-02	 1.518182e+00	-5.655901e+01
1	 1.594163e-02	 1.518435e+00	-5.599313e+01
1	 0.000000e+00	 1.518519e+00	-5.526075e+01
1	 1.518519e+00	 0.000000e+00	 1.741571e+01
1	 1.518435e+00	 1.594163e-02	 1.705185e+01
1	 1.518182e+00	 3.195007e-02	 1.668008e+01
1	 1.517759e+00	 4.802307e-02	 1.630201e+01
1	 1.517163e+00	 6.415829e-02	 1.591925e+01
1	 1.516391e+00	 8.035334e-02	 1.553345e+01
1	 1.525926e+00	 0.000000e+00	 1.731234e+01
1	 1.525842e+00	 1.601939e-02	 1.695370e+01
1	 1.525588e+00	 3.210592e-02	 1.658422e+01
1	 1.525163e+00	 4.825733e-02	 1.620567e+01
1	 1.524563e+00	 6.447125e-02	 1.581984e+01
1	 1.523788e+00	 8.074530e-02	 1.542854e+01
1	 1.533333e+00	 0.000000e+00	 1.720340e+01
1	 1.533249e+00	 1.609715e-02	 1.685029e+01
1	 1.532994e+00	 3.226178e-02	 1.648342e+01
1	 1.532566e+00	 4.849159e-02	 1.610474e+01
1	 1.531964e+00	 6.478422e-02	 1.571624e+01
1	 1.531185e+00	 8.113727e-02	 1.531990e+01
1	 1.540741e+00	 0.000000e+00	 1.708883e+01
1	 1.540656e+00	 1.617492e-02	 1.674155e+01
1	 1.540400e+00	 3.241763e-02	 1.637761e+01
1	 1.539970e+00	 4.872584e-02	 1.599915e+01
1	 1.539365e+00	 6.509719e-02	 1.560834e+01
1	 1.538582e+00	 8.152924e-02	 1.520740e+01
1	 1.548148e+00	 0.000000e+00	 1.696855e+01
1	 1.548063e+00	 1.625268e-02	 1.662741e+01
1	 1.547805e+00	 3.257349e-02	 1.626671e+01
1	 1.547374e+00	 4.896010e-02	 1.588879e+01
1	 1.546766e+00	 6.541016e-02	 1.549606e+01
1	 1.545979e+00	 8.192121e-02	 1.509092e+01
1	 1.555556e+00	 0.000000e+00	 1.684249e+01
1	 1.555470e+00	 1.633045e-02	 1.650779e+01
1	 1.555211e+00	 3.272934e-02	 1.615064e+01
1	 1.554777e+00	 4.919436e-02	 1.577360e+01
1	 1.554167e+00	 6.572312e-02	 1.537929e+01
1	 1.553376e+00	 8.231317e-02	 1.497037e+01
1	 1.516391e+00	 8.035334e-02	 1.553345e+01
1	 1.515442e+00	 9.660576e-02	 1.514853e+01
1	 1.514315e+00	 1.129130e-01	 1.476927e+01
1	 1.513006e+00	 1.292726e-01	 1.439853e+01
1	 1.511514e+00	 1.456817e-01	 1.403917e+01
1	 1.509838e+00	 1.621378e-01	 1.369400e+01
1	 1.523788e+00	 8.074530e-02	 1.542854e+01
1	 1.522835e+00	 9.707701e-02	 1.503565e+01
1	 1.521702e+00	 1.134638e-01	 1.464590e+01
1	 1.520386e+00	 1.299032e-01	 1.426240e+01
1	 1.518887e+00	 1.463924e-01	 1.388825e+01
1	 1.517203e+00	 1.629287e-01	 1.352652e+01
1	 1.531185e+00	 8.113727e-02	 1.531990e+01
1	 1.530227e+00	 9.754825e-02	 1.491954e+01
1	 1.529089e+00	 1.140146e-01	 1.451986e+01
1	 1.527767e+00	 1.305338e-01	 1.412420e+01
1	 1.526261e+00	 1.471030e-01	 1.373589e+01
1	 1.524568e+00	 1.637196e-01	 1.335825e+01
1	 1.538582e+00	 8.152924e-02	 1.520740e+01
1	 1.537620e+00	 9.801950e-02	 1.480007e+01
1	 1.536475e+00	 1.145654e-01	 1.439100e+01
1	 1.535148e+00	 1.311644e-01	 1.398376e+01
1	 1.533634e+00	 1.478137e-01	 1.358192e+01
1	 1.531933e+00	 1.645105e-01	 1.318902e+01
1	 1.545979e+00	 8.192121e-02	 1.509092e+01
1	 1.545012e+00	 9.849075e-02	 1.467709e+01
1	 1.543862e+00	 1.151162e-01	 1.425917e+01
1	 1.542528e+00	 1.317950e-01	 1.384094e+01
1	 1.541007e+00	 1.485243e-01	 1.342618e+01
1	 1.539298e+00	 1.653015e-01	 1.301867e+01
1	 1.553376e+00	 8.231317e-02	 1.497037e+01
1	 1.552404e+00	 9.896200e-02	 1.455050e+01
1	 1.551249e+00	 1.156670e-01	 1.412423e+01
1	 1.549909e+00	 1.324256e-01	 1.369558e+01
1	 1.548380e+00	 1.492349e-01	 1.326851e+01
1	 1.546663e+00	 1.660924e-01	 1.284703e+01
1	 1.509838e+00	 1.621378e-01	 1.369400e+01
1	 1.507974e+00	 1.786380e-01	 1.336488e+01
1	 1.505923e+00	 1.951795e-01	 1.305364e+01
1	 1.503681e+00	 2.117595e-01	 1.276297e+01
1	 1.501247e+00	 2.283749e-01	 1.249556e+01
1	 1.498620e+00	 2.450227e-01	 1.225404e+01
1	 1.517203e+00	 1.629287e-01	 1.352652e+01
1	 1.515330e+00	 1.795094e-01	 1.317939e+01
1	 1.513269e+00	 1.961316e-01	 1.284891e+01
1	 1.511016e+00	 2.127924e-01	 1.253789e+01
1	 1.508570e+00	 2.294889e-01	 1.224912e+01
1	 1.505930e+00	 2.462180e-01	 1.198536e+01
1	 1.524568e+00	 1.637196e-01	 1.335825e+01
1	 1.522686e+00	 1.803808e-01	 1.299380e+01
1	 1.520615e+00	 1.970837e-01	 1.264484e+01
1	 1.518351e+00	 2.138254e-01	 1.231432e+01
1	 1.515894e+00	 2.306029e-01	 1.200514e+01
1	 1.513241e+00	 2.474132e-01	 1.172021e+01
1	 1.531933e+00	 1.645105e-01	 1.318902e+01
1	 1.530042e+00	 1.812522e-01	 1.280793e+01
1	 1.527961e+00	 1.980358e-01	 1.244123e+01
1	 1.525686e+00	 2.148584e-01	 1.209201e+01
1	 1.523217e+00	 2.317170e-01	 1.176332e+01
1	 1.520551e+00	 2.486084e-01	 1.145821e+01
1	 1.539298e+00	 1.653015e-01	 1.301867e+01
1	 1.537398e+00	 1.821236e-01	 1.262161e+01
1	 1.535307e+00	 1.989879e-01	 1.223788e+01
1	 1.533021e+00	 2.158914e-01	 1.187073e+01
1	 1.530540e+00	 2.328310e-01	 1.152336e+01
1	 1.527862e+00	 2.498037e-01	 1.119897e+01
1	 1.546663e+00	 1.660924e-01	 1.284703e+01
1	 1.544754e+00	 1.829950e-01	 1.243467e+01
1	 1.542653e+00	 1.999400e-01	 1.203461e+01
1	 1.540356e+00	 2.169243e-01	 1.165024e+01
1	 1.537863e+00	 2.339450e-01	 1.128496e+01
1	 1.535172e+00	 2.509989e-01	 1.094212e+01
1	 1.498620e+00	 2.450227e-01	 1.225404e+01
1	 1.495798e+00	 2.617000e-01	 1.205031e+01
1	 1.492779e+00	 2.784035e-01	 1.189460e+01
1	 1.489563e+00	 2.951302e-01	 1.178705e+01
1	 1.486147e+00	 3.118766e-01	 1.172766e+01
1	 1.482530e+00	 3.286397e-01	 1.171634e+01
1	 1.505930e+00	 2.462180e-01	 1.198536e+01
1	 1.503095e+00	 2.629766e-01	 1.175856e+01
1	 1.500061e+00	 2.797616e-01	 1.157938e+01
1	 1.496829e+00	 2.965698e-01	 1.144853e+01
1	 1.493396e+00	 3.133980e-01	 1.136659e+01
1	 1.489762e+00	 3.302428e-01	 1.133403e+01
1	 1.513241e+00	 2.474132e-01	 1.172021e+01
1	 1.510391e+00	 2.642532e-01	 1.147141e+01
1	 1.507343e+00	 2.811197e-01	 1.126961e+01
1	 1.504095e+00	 2.980095e-01	 1.111601e+01
1	 1.500646e+00	 3.149193e-01	 1.101169e+01
1	 1.496993e+00	 3.318459e-01	 1.095762e+01
1	 1.520551e+00	 2.486084e-01	 1.145821e+01
1	 1.517688e+00	 2.655298e-01	 1.118842e+01
1	 1.514625e+00	 2.824777e-01	 1.096487e+01
1	 1.511361e+00	 2.994491e-01	 1.078920e+01
1	 1.507895e+00	 3.164407e-01	 1.066291e+01
1	 1.504225e+00	 3.334491e-01	 1.058736e+01
1	 1.527862e+00	 2.498037e-01	 1.119897e+01
1	 1.524984e+00	 2.668063e-01	 1.090915e+01
1	 1.521907e+00	 2.838358e-01	 1.066478e+01
1	 1.518627e+00	 3.008888e-01	 1.046784e+01
1	 1.515144e+00	 3.179620e-01	 1.032017e+01
1	 1.511457e+00	 3.350522e-01	 1.022348e+01
1	 1.535172e+00	 2.509989e-01	 1.094212e+01
1	 1.532281e+00	 2.680829e-01	 1.063318e+01
1	 1.529189e+00	 2.851939e-01	 1.036895e+01
1	 1.525893e+00	 3.023285e-01	 1.015166e+01
1	 1.522394e+00	 3.194834e-01	 9.983424e+00
1	 1.518689e+00	 3.366553e-01	 9.866217e+00
1	 1.482530e+00	 3.286397e-01	 1.171634e+01
1	 1.478711e+00	 3.454160e-01	 1.173556e+01
1	 1.474689e+00	 3.622021e-01	 1.177006e+01
1	 1.470463e+00	 3.789947e-01	 1.182307e+01
1	 1.466032e+00	 3.957902e-01	 1.189784e+01
1	 1.461394e+00	 4.125851e-01	 1.199756e+01
1	 1.489762e+00	 3.302428e-01	 1.133403e+01
1	 1.485924e+00	 3.471009e-01	 1.133390e+01
1	 1.481883e+00	 3.639690e-01	 1.135124e+01
1	 1.477636e+00	 3.808435e-01	 1.138940e+01
1	 1.473183e+00	 3.977209e-01	 1.145170e+01
1	 1.468523e+00	 4.145977e-01	 1.154142e+01
1	 1.496993e+00	 3.318459e-01	 1.095762e+01
1	 1.493137e+00	 3.487859e-01	 1.093746e+01
1	 1.489076e+00	 3.657358e-01	 1.093669e+01
1	 1.484809e+00	 3.826922e-01	 1.095880e+01
1	 1.480334e+00	 3.996516e-01	 1.100722e+01
1	 1.475651e+00	 4.166103e-01	 1.108537e+01
1	 1.504225e+00	 3.334491e-01	 1.058736e+01
1	 1.500351e+00	 3.504709e-01	 1.054684e+01
1	 1.496270e+00	 3.675027e-01	 1.052729e+01
1	 1.491982e+00	 3.845410e-01	 1.053238e+01
1	 1.487486e+00	 4.015823e-01	 1.056575e+01
1	 1.482780e+00	 4.186229e-01	 1.063094e+01
1	 1.511457e+00	 3.350522e-01	 1.022348e+01
1	 1.507564e+00	 3.521558e-01	 1.016258e+01
1	 1.503464e+00	 3.692695e-01	 1.012387e+01
1	 1.499155e+00	 3.863897e-01	 1.011126e+01
1	 1.494637e+00	 4.035129e-01	 1.012859e+01
1	 1.489909e+00	 4.206356e-01	 1.017960e+01
1	 1.518689e+00	 3.366553e-01	 9.866217e+00
1	 1.514777e+00	 3.538408e-01	 9.785238e+00
1	 1.510657e+00	 3.710363e-01	 9.727270e+00
1	 1.506328e+00	 3.882385e-01	 9.696501e+00
1	 1.501788e+00	 4.054436e-01	 9.697021e+00
1	 1.497038e+00	 4.226482e-01	 9.732811e+00
1	 1.461394e+00	 4.125851e-01	 1.199756e+01
1	 1.456549e+00	 4.293759e-01	 1.209724e+01
1	 1.451496e+00	 4.461589e-01	 1.216762e+01
1	 1.446234e+00	 4.629304e-01	 1.220565e+01
1	 1.440763e+00	 4.796869e-01	 1.220844e+01
1	 1.435082e+00	 4.964246e-01	 1.217331e+01
1	 1.468523e+00	 4.145977e-01	 1.154142e+01
1	 1.463654e+00	 4.314704e-01	 1.163475e+01
1	 1.458577e+00	 4.483353e-01	 1.170314e+01
1	 1.453289e+00	 4.651886e-01	 1.174285e+01
1	 1.447791e+00	 4.820269e-01	 1.175036e+01
1	 1.442083e+00	 4.988461e-01	 1.172235e+01
1	 1.475651e+00	 4.166103e-01	 1.108537e+01
1	 1.470759e+00	 4.335649e-01	 1.117083e+01
1	 1.465657e+00	 4.505116e-01	 1.123599e+01
1	 1.460344e+00	 4.674468e-01	 1.127656e+01
1	 1.454820e+00	 4.843668e-01	 1.128846e+01
1	 1.449083e+00	 5.012677e-01	 1.126782e+01
1	 1.482780e+00	 4.186229e-01	 1.063094e+01
1	 1.477864e+00	 4.356594e-01	 1.070708e+01
1	 1.472737e+00	 4.526880e-01	 1.076769e+01
1	 1.467399e+00	 4.697050e-01	 1.080803e+01
1	 1.461848e+00	 4.867067e-01	 1.082357e+01
1	 1.456083e+00	 5.036893e-01	 1.080996e+01
1	 1.489909e+00	 4.206356e-01	 1.017960e+01
1	 1.484969e+00	 4.377539e-01	 1.024503e+01
1	 1.479818e+00	 4.548644e-01	 1.029969e+01
1	 1.474454e+00	 4.719632e-01	 1.033848e+01
1	 1.468876e+00	 4.890467e-01	 1.035650e+01
1	 1.463084e+00	 5.061109e-01	 1.034901e+01
1	 1.497038e+00	 4.226482e-01	 9.732811e+00
1	 1.492075e+00	 4.398485e-01	 9.786231e+00
1	 1.486898e+00	 4.570408e-01	 9.833439e+00
1	 1.481508e+00	 4.742214e-01	 9.869112e+00
1	 1.475904e+00	 4.913866e-01	 9.888053e+00
1	 1.470084e+00	 5.085325e-01	 9.885210e+00
1	 1.435082e+00	 4.964246e-01	 1.217331e+01
1	 1.429191e+00	 5.131396e-01	 1.208727e+01
1	 1.423088e+00	 5.298283e-01	 1.193878e+01
1	 1.416775e+00	 5.464869e-01	 1.172751e+01
1	 1.410250e+00	 5.631114e-01	 1.145336e+01
1	 1.403513e+00	 5.796980e-01	 1.111645e+01
1	 1.442083e+00	 4.988461e-01	 1.172235e+01
1	 1.436162e+00	 5.156428e-01	 1.164510e+01
1	 1.430030e+00	 5.324129e-01	 1.150683e+01
1	 1.423686e+00	 5.491526e-01	 1.130745e+01
1	 1.417129e+00	 5.658582e-01	 1.104705e+01
1	 1.410359e+00	 5.825258e-01	 1.072593e+01
1	 1.449083e+00	 5.012677e-01	 1.126782e+01
1	 1.443134e+00	 5.181459e-01	 1.120007e+01
1	 1.436972e+00	 5.349974e-01	 1.107296e+01
1	 1.430597e+00	 5.518184e-01	 1.088645e+01
1	 1.424008e+00	 5.686051e-01	 1.064070e+01
1	 1.417206e+00	 5.853536e-01	 1.033609e+01
1	 1.456083e+00	 5.036893e-01	 1.080996e+01
1	 1.450106e+00	 5.206490e-01	 1.075187e+01
1	 1.443914e+00	 5.375819e-01	 1.063649e+01
1	 1.437508e+00	 5.544842e-01	 1.046371e+01
1	 1.430887e+00	 5.713520e-01	 1.023359e+01
1	 1.424052e+00	 5.881814e-01	 9.946483e+00
1	 1.463084e+00	 5.061109e-01	 1.034901e+01
1	 1.457077e+00	 5.231521e-01	 1.030017e+01
1	 1.450856e+00	 5.401664e-01	 1.019678e+01
1	 1.444419e+00	 5.571500e-01	 1.003842e+01
1	 1.437767e+00	 5.740989e-01	 9.825003e+00
1	 1.430899e+00	 5.910092e-01	 9.556698e+00
1	 1.470084e+00	 5.085325e-01	 9.885210e+00
1	 1.464049e+00	 5.256552e-01	 9.844687e+00
1	 1.457798e+00	 5.427510e-01	 9.753164e+00
1	 1.451330e+00	 5.598158e-01	 9.609829e+00
1	 1.444646e+00	 5.768458e-01	 9.414236e+00
1	 1.437745e+00	 5.938370e-01	 9.166320e+00
1	 1.403513e+00	 5.796980e-01	 1.111645e+01
1	 1.396565e+00	 5.962428e-01	 1.069554e+01
1	 1.389405e+00	 6.127420e-01	 1.016939e+01
1	 1.382033e+00	 6.291916e-01	 9.538223e+00
1	 1.374451e+00	 6.455877e-01	 8.802196e+00
1	 1.366657e+00	 6.619262e-01	 7.961417e+00
1	 1.410359e+00	 5.825258e-01	 1.072593e+01
1	 1.403377e+00	 5.991513e-01	 1.032182e+01
1	 1.396182e+00	 6.157310e-01	 9.812126e+00
1	 1.388775e+00	 6.322608e-01	 9.196804e+00
1	 1.381155e+00	 6.487369e-01	 8.475767e+00
1	 1.373324e+00	 6.651552e-01	 7.648892e+00
1	 1.417206e+00	 5.853536e-01	 1.033609e+01
1	 1.410190e+00	 6.020598e-01	 9.949280e+00
1	 1.402960e+00	 6.187200e-01	 9.456485e+00
1	 1.395517e+00	 6.353300e-01	 8.857499e+00
1	 1.387860e+00	 6.518861e-01	 8.152082e+00
1	 1.379991e+00	 6.683841e-01	 7.339962e+00
1	 1.424052e+00	 5.881814e-01	 9.946483e+00
1	 1.417002e+00	 6.049683e-01	 9.577843e+00
1	 1.409738e+00	 6.217090e-01	 9.102644e+00
1	 1.402258e+00	 6.383993e-01	 8.520627e+00
1	 1.394565e+00	 6.550353e-01	 7.831493e+00
1	 1.386657e+00	 6.716130e-01	 7.034899e+00
1	 1.430899e+00	 5.910092e-01	 9.556698e+00
1	 1.423815e+00	 6.078768e-01	 9.207440e+00
1	 1.416515e+00	 6.246979e-01	 8.750778e+00
1	 1.409000e+00	 6.414685e-01	 8.186503e+00
1	 1.401269e+00	 6.581845e-01	 7.514345e+00
1	 1.393324e+00	 6.748419e-01	 6.733969e+00
1	 1.437745e+00	 5.938370e-01	 9.166320e+00
1	 1.430627e+00	 6.107853e-01	 8.838001e+00
1	 1.423293e+00	 6.276869e-01	 8.401059e+00
1	 1.415742e+00	 6.445377e-01	 7.855434e+00
1	 1.407974e+00	 6.613337e-01	 7.200975e+00
1	 1.399990e+00	 6.780708e-01	 6.437434e+00
1	 1.366657e+00	 6.619262e-01	 7.961417e+00
1	 1.358653e+00	 6.782034e-01	 6.996670e+00
1	 1.350439e+00	 6.944152e-01	 5.889726e+00
1	 1.342016e+00	 7.105577e-01	 4.642349e+00
1	 1.333384e+00	 7.266269e-01	 3.256591e+00
1	 1.324544e+00	 7.426188e-01	 1.734792e+00
1	 1.373324e+00	 6.651552e-01	 7.648892e+00
1	 1.365281e+00	 6.815117e-01	 6.698223e+00
1	 1.357027e+00	 6.978026e-01	 5.607228e+00
1	 1.348562e+00	 7.140238e-01	 4.378128e+00
1	 1.339888e+00	 7.301714e-01	 3.013475e+00
1	 1.331005e+00	 7.462414e-01	 1.516148e+00
1	 1.379991e+00	 6.683841e-01	 7.339962e+00
1	 1.371908e+00	 6.848200e-01	 6.404599e+00
1	 1.363614e+00	 7.011900e-01	 5.331195e+00
1	 1.355109e+00	 7.174900e-01	 4.122330e+00
1	 1.346392e+00	 7.337159e-01	 2.780958e+00
1	 1.337466e+00	 7.498639e-01	 1.310402e+00
1	 1.386657e+00	 6.716130e-01	 7.034899e+00
1	 1.378536e+00	 6.881284e-01	 6.115945e+00
1	 1.370202e+00	 7.045774e-01	 5.061674e+00
1	 1.361655e+00	 7.209561e-01	 3.874928e+00
1	 1.352897e+00	 7.372605e-01	 2.558966e+00
1	 1.343927e+00	 7.534864e-01	 1.117464e+00
1	 1.393324e+00	 6.748419e-01	 6.733969e+00
1	 1.385164e+00	 6.914367e-01	 5.832405e+00
1	 1.376789e+00	 7.079648e-01	 4.798712e+00
1	 1.368201e+00	 7.244222e-01	 3.635896e+00
1	 1.359401e+00	 7.408050e-01	 2.347429e+00
1	 1.350388e+00	 7.571090e-01	 9.372440e-01
1	 1.399990e+00	 6.780708e-01	 6.437434e+00
1	 1.391791e+00	 6.947450e-01	 5.554121e+00
1	 1.383377e+00	 7.113522e-01	 4.542354e+00
1	 1.374748e+00	 7.278884e-01	 3.405208e+00
1	 1.365905e+00	 7.443495e-01	 2.146274e+00
1	 1.356850e+00	 7.607315e-01	 7.696542e-01
1	 1.324544e+00	 7.426188e-01	 1.734792e+00
1	 1.315497e+00	 7.585296e-01	 1.496879e-01
1	 1.306244e+00	 7.743552e-01	-1.427691e+00
1	 1.296786e+00	 7.900918e-01	-2.997334e+00
1	 1.287124e+00	 8.057355e-01	-4.559205e+00
1	 1.277260e+00	 8.212823e-01	-6.113243e+00
1	 1.331005e+00	 7.462414e-01	 1.516148e+00
1	 1.321914e+00	 7.622297e-01	-4.162923e-02
1	 1.312616e+00	 7.781326e-01	-1.590101e+00
1	 1.303112e+00	 7.939459e-01	-3.129881e+00
1	 1.293403e+00	 8.096659e-01	-4.661623e+00
1	 1.283491e+00	 8.252885e-01	-6.186021e+00
1	 1.337466e+00	 7.498639e-01	 1.310402e+00
1	 1.328331e+00	 7.659299e-01	-2.181006e-01
1	 1.318987e+00	 7.819099e-01	-1.736413e+00
1	 1.309437e+00	 7.978001e-01	-3.245662e+00
1	 1.299682e+00	 8.135963e-01	-4.747083e+00
1	 1.289721e+00	 8.292948e-01	-6.242012e+00
1	 1.343927e+00	 7.534864e-01	 1.117464e+00
1	 1.334748e+00	 7.696300e-01	-3.798165e-01
1	 1.325359e+00	 7.856873e-01	-1.866708e+00
1	 1.315763e+00	 8.016542e-01	-3.344747e+00
1	 1.305960e+00	 8.175267e-01	-4.815638e+00
1	 1.295952e+00	 8.333011e-01	-6.281255e+00
1	 1.350388e+00	 7.571090e-01	 9.372440e-01
1	 1.341165e+00	 7.733302e-01	-5.268656e-01
1	 1.331731e+00	 7.894646e-01	-1.981070e+00
1	 1.322089e+00	 8.055083e-01	-3.427205e+00
1	 1.312239e+00	 8.214572e-01	-4.867343e+00
1	 1.302182e+00	 8.373073e-01	-6.303784e+00
1	 1.356850e+00	 7.607315e-01	 7.696542e-01
1	 1.347582e+00	 7.770303e-01	-6.593347e-01
1	 1.338103e+00	 7.932420e-01	-2.079576e+00
1	 1.328415e+00	 8.093624e-01	-3.493105e+00
1	 1.318518e+00	 8.253876e-01	-4.902250e+00
1	 1.308413e+00	 8.413136e-01	-6.309635e+00
1	 1.277260e+00	 8.212823e-01	-6.113243e+00
1	 1.267195e+00	 8.367284e-01	-7.629995e+00
1	 1.256931e+00	 8.520699e-01	-9.081129e+00
1	 1.246469e+00	 8.673031e-01	-1.046851e+01
1	 1.235810e+00	 8.824241e-01	-1.179433e+01
1	 1.224957e+00	 8.974293e-01	-1.306116e+01
1	 1.283491e+00	 8.252885e-01	-6.186021e+00
1	 1.273377e+00	 8.408100e-01	-7.675398e+00
1	 1.263062e+00	 8.562264e-01	-9.102318e+00
1	 1.252549e+00	 8.715339e-01	-1.046809e+01
1	 1.241838e+00	 8.867286e-01	-1.177433e+01
1	 1.230932e+00	 9.018070e-01	-1.302297e+01
1	 1.289721e+00	 8.292948e-01	-6.242012e+00
1	 1.279558e+00	 8.448916e-01	-7.704112e+00
1	 1.269194e+00	 8.603828e-01	-9.106536e+00
1	 1.258629e+00	 8.757646e-01	-1.045015e+01
1	 1.247867e+00	 8.910332e-01	-1.173609e+01
1	 1.236908e+00	 9.061847e-01	-1.296580e+01
1	 1.295952e+00	 8.333011e-01	-6.281255e+00
1	 1.285740e+00	 8.489732e-01	-7.716164e+00
1	 1.275325e+00	 8.645392e-01	-9.093826e+00
1	 1.264710e+00	 8.799953e-01	-1.041476e+01
1	 1.253895e+00	 8.953377e-01	-1.167975e+01
1	 1.242883e+00	 9.105624e-01	-1.288983e+01
1	 1.302182e+00	 8.373073e-01	-6.303784e+00
1	 1.291921e+00	 8.530548e-01	-7.711584e+00
1	 1.281456e+00	 8.686957e-01	-9.064228e+00
1	 1.270790e+00	 8.842261e-01	-1.036200e+01
1	 1.259923e+00	 8.996422e-01	-1.160543e+01
1	 1.248858e+00	 9.149401e-01	-1.279524e+01
1	 1.308413e+00	 8.413136e-01	-6.309635e+00
1	 1.298103e+00	 8.571364e-01	-7.690398e+00
1	 1.287588e+00	 8.728521e-01	-9.017784e+00
1	 1.276870e+00	 8.884568e-01	-1.029194e+01
1	 1.265952e+00	 9.039467e-01	-1.151323e+01
1	 1.254834e+00	 9.193178e-01	-1.268223e+01
1	 1.224957e+00	 8.974293e-01	-1.306116e+01
1	 1.213911e+00	 9.123148e-01	-1.424312e+01
1	 1.202675e+00	 9.270771e-01	-1.531682e+01
1	 1.191250e+00	 9.417124e-01	-1.628903e+01
1	 1.179639e+00	 9.562172e-01	-1.716690e+01
1	 1.167843e+00	 9.705881e-01	-1.795793e+01
1	 1.230932e+00	 9.018070e-01	-1.302297e+01
1	 1.219833e+00	 9.167651e-01	-1.418779e+01
1	 1.208541e+00	 9.315994e-01	-1.524561e+01
1	 1.197061e+00	 9.463061e-01	-1.620346e+01
1	 1.185393e+00	 9.608817e-01	-1.706877e+01
1	 1.173540e+00	 9.753226e-01	-1.784932e+01
1	 1.236908e+00	 9.061847e-01	-1.296580e+01
1	 1.225754e+00	 9.212154e-01	-1.411288e+01
1	 1.214408e+00	 9.361217e-01	-1.515441e+01
1	 1.202872e+00	 9.508998e-01	-1.609753e+01
1	 1.191147e+00	 9.655462e-01	-1.694976e+01
1	 1.179237e+00	 9.800572e-01	-1.771897e+01
1	 1.242883e+00	 9.105624e-01	-1.288983e+01
1	 1.231676e+00	 9.256658e-01	-1.401861e+01
1	 1.220275e+00	 9.406440e-01	-1.504343e+01
1	 1.208683e+00	 9.554936e-01	-1.597135e+01
1	 1.196902e+00	 9.702107e-01	-1.680980e+01
1	 1.184933e+00	 9.847918e-01	-1.756660e+01
1	 1.248858e+00	 9.149401e-01	-1.279524e+01
1	 1.237597e+00	 9.301161e-01	-1.390522e+01
1	 1.226142e+00	 9.451664e-01	-1.491286e+01
1	 1.214494e+00	 9.600873e-01	-1.582499e+01
1	 1.202656e+00	 9.748751e-01	-1.664883e+01
1	 1.190630e+00	 9.895264e-01	-1.739192e+01
1	 1.254834e+00	 9.193178e-01	-1.268223e+01
1	 1.243519e+00	 9.345664e-01	-1.377291e+01
1	 1.232008e+00	 9.496887e-01	-1.476287e+01
1	 1.220305e+00	 9.646810e-01	-1.565856e+01
1	 1.208410e+00	 9.795396e-01	-1.646678e+01
1	 1.196327e+00	 9.942609e-01	-1.719463e+01
1	 1.167843e+00	 9.705881e-01	-1.795793e+01
1	 1.155866e+00	 9.848214e-01	-1.866510e+01
1	 1.143709e+00	 9.989137e-01	-1.928288e+01
1	 1.131375e+00	 1.012862e+00	-1.980595e+01
1	 1.118867e+00	 1.026662e+00	-2.022860e+01
1	 1.106187e+00	 1.040312e+00	-2.054478e+01
1	 1.173540e+00	 9.753226e-01	-1.784932e+01
1	 1.161504e+00	 9.896254e-01	-1.854559e+01
1	 1.149288e+00	 1.003786e+00	-1.914985e+01
1	 1.136894e+00	 1.017803e+00	-1.965757e+01
1	 1.124325e+00	 1.031670e+00	-2.006386e+01
1	 1.111583e+00	 1.045386e+00	-2.036351e+01
1	 1.179237e+00	 9.800572e-01	-1.771897e+01
1	 1.167142e+00	 9.944294e-01	-1.840317e+01
1	 1.154867e+00	 1.008659e+00	-1.899258e+01
1	 1.142413e+00	 1.022743e+00	-1.948358e+01
1	 1.129783e+00	 1.036678e+00	-1.987221e+01
1	 1.116979e+00	 1.050461e+00	-2.015422e+01
1	 1.184933e+00	 9.847918e-01	-1.756660e+01
1	 1.172781e+00	 9.992334e-01	-1.823731e+01
1	 1.160446e+00	 1.013532e+00	-1.881041e+01
1	 1.147932e+00	 1.027684e+00	-1.928325e+01
1	 1.135241e+00	 1.041687e+00	-1.965291e+01
1	 1.122375e+00	 1.055536e+00	-1.991625e+01
1	 1.190630e+00	 9.895264e-01	-1.739192e+01
1	 1.178419e+00	 1.004037e+00	-1.804752e+01
1	 1.166025e+00	 1.018405e+00	-1.860269e+01
1	 1.153451e+00	 1.032625e+00	-1.905586e+01
1	 1.140699e+00	 1.046695e+00	-1.940525e+01
1	 1.127771e+00	 1.060610e+00	-1.964894e+01
1	 1.196327e+00	 9.942609e-01	-1.719463e+01
1	 1.184057e+00	 1.008841e+00	-1.783329e+01
1	 1.171604e+00	 1.023277e+00	-1.836878e+01
1	 1.158970e+00	 1.037566e+00	-1.880070e+01
1	 1.146156e+00	 1.051703e+00	-1.912852e+01
1	 1.133167e+00	 1.065685e+00	-1.935165e+01
1	 1.106187e+00	 1.040312e+00	-2.054478e+01
1	 1.093338e+00	 1.053807e+00	-2.082856e+01
1	 1.080324e+00	 1.067145e+00	-2.115596e+01
1	 1.067145e+00	 1.080324e+00	-2.152352e+01
1	 1.053807e+00	 1.093338e+00	-2.192771e+01
1	 1.040312e+00	 1.106187e+00	-2.236493e+01
1	 1.111583e+00	 1.045386e+00	-2.036351e+01
1	 1.098672e+00	 1.058948e+00	-2.063252e+01
1	 1.085593e+00	 1.072351e+00	-2.094776e+01
1	 1.072351e+00	 1.085593e+00	-2.130502e+01
1	 1.058948e+00	 1.098672e+00	-2.170001e+01
1	 1.045386e+00	 1.111583e+00	-2.212834e+01
1	 1.116979e+00	 1.050461e+00	-2.015422e+01
1	 1.104005e+00	 1.064088e+00	-2.040744e+01
1	 1.090863e+00	 1.077557e+00	-2.070948e+01
1	 1.077557e+00	 1.090863e+00	-2.105555e+01
1	 1.064088e+00	 1.104005e+00	-2.144074e+01
1	 1.050461e+00	 1.116979e+00	-2.186002e+01
1	 1.122375e+00	 1.055536e+00	-1.991625e+01
1	 1.109338e+00	 1.069229e+00	-2.015276e+01
1	 1.096133e+00	 1.082762e+00	-2.044072e+01
1	 1.082762e+00	 1.096133e+00	-2.077488e+01
1	 1.069229e+00	 1.109338e+00	-2.114985e+01
1	 1.055536e+00	 1.122375e+00	-2.156014e+01
1	 1.127771e+00	 1.060610e+00	-1.964894e+01
1	 1.114672e+00	 1.074369e+00	-1.986795e+01
1	 1.101403e+00	 1.087968e+00	-2.014108e+01
1	 1.087968e+00	 1.101403e+00	-2.046275e+01
1	 1.074369e+00	 1.114672e+00	-2.082729e+01
1	 1.060610e+00	 1.127771e+00	-2.122884e+01
1	 1.133167e+00	 1.065685e+00	-1.935165e+01
1	 1.120005e+00	 1.079510e+00	-1.955248e+01
1	 1.106673e+00	 1.093173e+00	-1.981015e+01
1	 1.093173e+00	 1.106673e+00	-2.011895e+01
1	 1.079510e+00	 1.120005e+00	-2.047301e+01
1	 1.065685e+00	 1.133167e+00	-2.086630e+01
1	 1.040312e+00	 1.106187e+00	-2.236493e+01
1	 1.026662e+00	 1.118867e+00	-2.289898e+01
1	 1.012862e+00	 1.131375e+00	-2.359440e+01
1	 9.989137e-01	 1.143709e+00	-2.444871e+01
1	 9.848214e-01	 1.155866e+00	-2.545954e+01
1	 9.705881e-01	 1.167843e+00	-2.662464e+01
1	 1.045386e+00	 1.111583e+00	-2.212834e+01
1	 1.031670e+00	 1.124325e+00	-2.265409e+01
1	 1.017803e+00	 1.136894e+00	-2.334242e+01
1	 1.003786e+00	 1.149288e+00	-2.419052e+01
1	 9.896254e-01	 1.161504e+00	-2.519566e+01
1	 9.753226e-01	 1.173540e+00	-2.635523e+01
1	 1.050461e+00	 1.116979e+00	-2.186002e+01
1	 1.036678e+00	 1.129783e+00	-2.237778e+01
1	 1.022743e+00	 1.142413e+00	-2.305955e+01
1	 1.008659e+00	 1.154867e+00	-2.390201e+01
1	 9.944294e-01	 1.167142e+00	-2.490190e+01
1	 9.800572e-01	 1.179237e+00	-2.605598e+01
1	 1.055536e+00	 1.122375e+00	-2.156014e+01
1	 1.041687e+00	 1.135241e+00	-2.207037e+01
1	 1.027684e+00	 1.147932e+00	-2.274624e+01
1	 1.013532e+00	 1.160446e+00	-2.358371e+01
1	 9.992334e-01	 1.172781e+00	-2.457874e+01
1	 9.847918e-01	 1.184933e+00	-2.572731e+01
1	 1.060610e+00	 1.127771e+00	-2.122884e+01
1	 1.046695e+00	 1.140699e+00	-2.173223e+01
1	 1.032625e+00	 1.153451e+00	-2.240295e+01
1	 1.018405e+00	 1.166025e+00	-2.323609e+01
1	 1.004037e+00	 1.178419e+00	-2.422665e+01
1	 9.895264e-01	 1.190630e+00	-2.536959e+01
1	 1.065685e+00	 1.133167e+00	-2.086630e+01
1	 1.051703e+00	 1.146156e+00	-2.136368e+01
1	 1.037566e+00	 1.158970e+00	-2.203013e+01
1	 1.023277e+00	 1.171604e+00	-2.285964e+01
1	 1.008841e+00	 1.184057e+00	-2.384609e+01
1	 9.942609e-01	 1.196327e+00	-2.498322e+01
1	 9.705881e-01	 1.167843e+00	-2.662464e+01
1	 9.562172e-01	 1.179639e+00	-2.792301e+01
1	 9.417124e-01	 1.191250e+00	-2.933163e+01
1	 9.270771e-01	 1.202675e+00	-3.084518e+01
1	 9.123148e-01	 1.213911e+00	-3.245818e+01
1	 8.974293e-01	 1.224957e+00	-3.416496e+01
1	 9.753226e-01	 1.173540e+00	-2.635523e+01
1	 9.608817e-01	 1.185393e+00	-2.764669e+01
1	 9.463061e-01	 1.197061e+00	-2.904607e+01
1	 9.315994e-01	 1.208541e+00	-3.054848e+01
1	 9.167651e-01	 1.219833e+00	-3.214886e+01
1	 9.018070e-01	 1.230932e+00	-3.384201e+01
1	 9.800572e-01	 1.179237e+00	-2.605598e+01
1	 9.655462e-01	 1.191147e+00	-2.734029e+01
1	 9.508998e-01	 1.202872e+00	-2.873007e+01
1	 9.361217e-01	 1.214408e+00	-3.022085e+01
1	 9.212154e-01	 1.225754e+00	-3.180802e+01
1	 9.061847e-01	 1.236908e+00	-3.348685e+01
1	 9.847918e-01	 1.184933e+00	-2.572731e+01
1	 9.702107e-01	 1.196902e+00	-2.700408e+01
1	 9.554936e-01	 1.208683e+00	-2.838378e+01
1	 9.406440e-01	 1.220275e+00	-2.986235e+01
1	 9.256658e-01	 1.231676e+00	-3.143560e+01
1	 9.105624e-01	 1.242883e+00	-3.309926e+01
1	 9.895264e-01	 1.190630e+00	-2.536959e+01
1	 9.748751e-01	 1.202656e+00	-2.663836e+01
1	 9.600873e-01	 1.214494e+00	-2.800739e+01
1	 9.451664e-01	 1.226142e+00	-2.947302e+01
1	 9.301161e-01	 1.237597e+00	-3.103153e+01
1	 9.149401e-01	 1.248858e+00	-3.267907e+01
1	 9.942609e-01	 1.196327e+00	-2.498322e+01
1	 9.795396e-01	 1.208410e+00	-2.624338e+01
1	 9.646810e-01	 1.220305e+00	-2.760103e+01
1	 9.496887e-01	 1.232008e+00	-2.905292e+01
1	 9.345664e-01	 1.243519e+00	-3.059572e+01
1	 9.193178e-01	 1.254834e+00	-3.222607e+01
1	 8.974293e-01	 1.224957e+00	-3.416496e+01
1	 8.824241e-01	 1.235810e+00	-3.593921e+01
1	 8.673031e-01	 1.246469e+00	-3.775035e+01
1	 8.520699e-01	 1.256931e+00	-3.958592e+01
1	 8.367284e-01	 1.267195e+00	-4.143317e+01
1	 8.212823e-01	 1.277260e+00	-4.327910e+01
1	 9.018070e-01	 1.230932e+00	-3.384201e+01
1	 8.867286e-01	 1.241838e+00	-3.560096e+01
1	 8.715339e-01	 1.252549e+00	-3.739395e+01
1	 8.562264e-01	 1.263062e+00	-3.920829e+01
1	 8.408100e-01	 1.273377e+00	-4.103096e+01
1	 8.252885e-01	 1.283491e+00	-4.284869e+01
1	 9.061847e-01	 1.236908e+00	-3.348685e+01
1	 8.910332e-01	 1.247867e+00	-3.522956e+01
1	 8.757646e-01	 1.258629e+00	-3.700325e+01
1	 8.603828e-01	 1.269194e+00	-3.879516e+01
1	 8.448916e-01	 1.279558e+00	-4.059220e+01
1	 8.292948e-01	 1.289721e+00	-4.238101e+01
1	 9.105624e-01	 1.242883e+00	-3.309926e+01
1	 8.953377e-01	 1.253895e+00	-3.482471e+01
1	 8.799953e-01	 1.264710e+00	-3.657796e+01
1	 8.645392e-01	 1.275325e+00	-3.834631e+01
1	 8.489732e-01	 1.285740e+00	-4.011680e+01
1	 8.333011e-01	 1.295952e+00	-4.187616e+01
1	 9.149401e-01	 1.248858e+00	-3.267907e+01
1	 8.996422e-01	 1.259923e+00	-3.438616e+01
1	 8.842261e-01	 1.270790e+00	-3.611778e+01
1	 8.686957e-01	 1.281456e+00	-3.786152e+01
1	 8.530548e-01	 1.291921e+00	-3.960467e+01
1	 8.373073e-01	 1.302182e+00	-4.133426e+01
1	 9.193178e-01	 1.254834e+00	-3.222607e+01
1	 9.039467e-01	 1.265952e+00	-3.391361e+01
1	 8.884568e-01	 1.276870e+00	-3.562244e+01
1	 8.728521e-01	 1.287588e+00	-3.734055e+01
1	 8.571364e-01	 1.298103e+00	-3.905571e+01
1	 8.413136e-01	 1.308413e+00	-4.075540e+01
1	 8.212823e-01	 1.277260e+00	-4.327910e+01
1	 8.057355e-01	 1.287124e+00	-4.508188e+01
1	 7.900918e-01	 1.296786e+00	-4.681175e+01
1	 7.743552e-01	 1.306244e+00	-4.847387e+01
1	 7.585296e-01	 1.315497e+00	-5.007361e+01
1	 7.426188e-01	 1.324544e+00	-5.161656e+01
1	 8.252885e-01	 1.283491e+00	-4.284869e+01
1	 8.096659e-01	 1.293403e+00	-4.462144e+01
1	 7.939459e-01	 1.303112e+00	-4.632084e+01
1	 7.781326e-01	 1.312616e+00	-4.795109e+01
1	 7.622297e-01	 1.321914e+00	-4.951661e+01
1	 7.462414e-01	 1.331005e+00	-5.102205e+01
1	 8.292948e-01	 1.289721e+00	-4.238101e+01
1	 8.135963e-01	 1.299682e+00	-4.412337e+01
1	 7.978001e-01	 1.309437e+00	-4.579200e+01
1	 7.819099e-01	 1.318987e+00	-4.738990e+01
1	 7.659299e-01	 1.328331e+00	-4.892024e+01
1	 7.498639e-01	 1.337466e+00	-5.038643e+01
1	 8.333011e-01	 1.295952e+00	-4.187616e+01
1	 8.175267e-01	 1.305960e+00	-4.358794e+01
1	 8.016542e-01	 1.315763e+00	-4.522558e+01
1	 7.856873e-01	 1.325359e+00	-4.679059e+01
1	 7.696300e-01	 1.334748e+00	-4.828464e+01
1	 7.534864e-01	 1.343927e+00	-4.970956e+01
1	 8.373073e-01	 1.302182e+00	-4.133426e+01
1	 8.214572e-01	 1.312239e+00	-4.301544e+01
1	 8.055083e-01	 1.322089e+00	-4.462192e+01
1	 7.894646e-01	 1.331731e+00	-4.615346e+01
1	 7.733302e-01	 1.341165e+00	-4.760993e+01
1	 7.571090e-01	 1.350388e+00	-4.899131e+01
1	 8.413136e-01	 1.308413e+00	-4.075540e+01
1	 8.253876e-01	 1.318518e+00	-4.240613e+01
1	 8.093624e-01	 1.328415e+00	-4.398134e+01
1	 7.932420e-01	 1.338103e+00	-4.547877e+01
1	 7.770303e-01	 1.347582e+00	-4.689623e+01
1	 7.607315e-01	 1.356850e+00	-4.823157e+01
1	 7.426188e-01	 1.324544e+00	-5.161656e+01
1	 7.266269e-01	 1.333384e+00	-5.303806e+01
1	 7.105577e-01	 1.342016e+00	-5.427804e+01
1	 6.944152e-01	 1.350439e+00	-5.534927e+01
1	 6.782034e-01	 1.358653e+00	-5.626479e+01
1	 6.619262e-01	 1.366657e+00	-5.703781e+01
1	 7.462414e-01	 1.331005e+00	-5.102205e+01
1	 7.301714e-01	 1.339888e+00	-5.240224e+01
1	 7.140238e-01	 1.348562e+00	-5.359763e+01
1	 6.978026e-01	 1.357027e+00	-5.462164e+01
1	 6.815117e-01	 1.365281e+00	-5.548794e+01
1	 6.651552e-01	 1.373324e+00	-5.621039e+01
1	 7.498639e-01	 1.337466e+00	-5.038643e+01
1	 7.337159e-01	 1.346392e+00	-5.172276e+01
1	 7.174900e-01	 1.355109e+00	-5.287068e+01
1	 7.011900e-01	 1.363614e+00	-5.384463e+01
1	 6.848200e-01	 1.371908e+00	-5.465931e+01
1	 6.683841e-01	 1.379991e+00	-5.532964e+01
1	 7.534864e-01	 1.343927e+00	-4.970956e+01
1	 7.372605e-01	 1.352897e+00	-5.099926e+01
1	 7.209561e-01	 1.361655e+00	-5.209676e+01
1	 7.045774e-01	 1.370202e+00	-5.301787e+01
1	 6.881284e-01	 1.378536e+00	-5.377872e+01
1	 6.716130e-01	 1.386657e+00	-5.439571e+01
1	 7.571090e-01	 1.350388e+00	-4.899131e+01
1	 7.408050e-01	 1.359401e+00	-5.023139e+01
1	 7.244222e-01	 1.368201e+00	-5.127541e+01
1	 7.079648e-01	 1.376789e+00	-5.214097e+01
1	 6.914367e-01	 1.385164e+00	-5.284599e+01
1	 6.748419e-01	 1.393324e+00	-5.340874e+01
1	 7.607315e-01	 1.356850e+00	-4.823157e+01
1	 7.443495e-01	 1.365905e+00	-4.941879e+01
1	 7.278884e-01	 1.374748e+00	-5.040622e+01
1	 7.113522e-01	 1.383377e+00	-5.121356e+01
1	 6.947450e-01	 1.391791e+00	-5.186094e+01
1	 6.780708e-01	 1.399990e+00	-5.236888e+01
1	 6.619262e-01	 1.366657e+00	-5.703781e+01
1	 6.455877e-01	 1.374451e+00	-5.766855e+01
1	 6.291916e-01	 1.382033e+00	-5.814898e+01
1	 6.127420e-01	 1.389405e+00	-5.848003e+01
1	 5.962428e-01	 1.396565e+00	-5.866256e+01
1	 5.796980e-01	 1.403513e+00	-5.869738e+01
1	 6.651552e-01	 1.373324e+00	-5.621039e+01
1	 6.487369e-01	 1.381155e+00	-5.678856e+01
1	 6.322608e-01	 1.388775e+00	-5.721430e+01
1	 6.157310e-01	 1.396182e+00	-5.749008e+01
1	 5.991513e-01	 1.403377e+00	-5.761832e+01
1	 5.825258e-01	 1.410359e+00	-5.760139e+01
1	 6.683841e-01	 1.379991e+00	-5.532964e+01
1	 6.518861e-01	 1.387860e+00	-5.585483e+01
1	 6.353300e-01	 1.395517e+00	-5.622613e+01
1	 6.187200e-01	 1.402960e+00	-5.644673e+01
1	 6.020598e-01	 1.410190e+00	-5.651976e+01
1	 5.853536e-01	 1.417206e+00	-5.644835e+01
1	 6.716130e-01	 1.386657e+00	-5.439571e+01
1	 6.550353e-01	 1.394565e+00	-5.486779e+01
1	 6.383993e-01	 1.402258e+00	-5.518495e+01
1	 6.217090e-01	 1.409738e+00	-5.535026e+01
1	 6.049683e-01	 1.417002e+00	-5.536679e+01
1	 5.881814e-01	 1.424052e+00	-5.523755e+01
1	 6.748419e-01	 1.393324e+00	-5.340874e+01
1	 6.581845e-01	 1.401269e+00	-5.382786e+01
1	 6.414685e-01	 1.409000e+00	-5.409121e+01
1	 6.246979e-01	 1.416515e+00	-5.420097e+01
1	 6.078768e-01	 1.423815e+00	-5.415931e+01
1	 5.910092e-01	 1.430899e+00	-5.396835e+01
1	 6.780708e-01	 1.399990e+00	-5.236888e+01
1	 6.613337e-01	 1.407974e+00	-5.273547e+01
1	 6.445377e-01	 1.415742e+00	-5.294537e+01
1	 6.276869e-01	 1.423293e+00	-5.299914e+01
1	 6.107853e-01	 1.430627e+00	-5.289724e+01
1	 5.938370e-01	 1.437745e+00	-5.264006e+01
1	 5.796980e-01	 1.403513e+00	-5.869738e+01
1	 5.631114e-01	 1.410250e+00	-5.860676e+01
1	 5.464869e-01	 1.416775e+00	-5.841969e+01
1	 5.298283e-01	 1.423088e+00	-5.814708e+01
1	 5.131396e-01	 1.429191e+00	-5.779992e+01
1	 4.964246e-01	 1.435082e+00	-5.738925e+01
1	 5.825258e-01	 1.410359e+00	-5.760139e+01
1	 5.658582e-01	 1.417129e+00	-5.746377e+01
1	 5.491526e-01	 1.423686e+00	-5.723475e+01
1	 5.324129e-01	 1.430030e+00	-5.692408e+01
1	 5.156428e-01	 1.436162e+00	-5.654150e+01
1	 4.988461e-01	 1.442083e+00	-5.609685e+01
1	 5.853536e-01	 1.417206e+00	-5.644835e+01
1	 5.686051e-01	 1.424008e+00	-5.625844e+01
1	 5.518184e-01	 1.430597e+00	-5.598060e+01
1	 5.349974e-01	 1.436972e+00	-5.562489e+01
1	 5.181459e-01	 1.443134e+00	-5.520142e+01
1	 5.012677e-01	 1.449083e+00	-5.472034e+01
1	 5.881814e-01	 1.424052e+00	-5.523755e+01
1	 5.713520e-01	 1.430887e+00	-5.498960e+01
1	 5.544842e-01	 1.437508e+00	-5.465587e+01
1	 5.375819e-01	 1.443914e+00	-5.424830e+01
1	 5.206490e-01	 1.450106e+00	-5.377887e+01
1	 5.036893e-01	 1.456083e+00	-5.325963e+01
1	 5.910092e-01	 1.430899e+00	-5.396835e+01
1	 5.740989e-01	 1.437767e+00	-5.365607e+01
1	 5.571500e-01	 1.444419e+00	-5.325923e+01
1	 5.401664e-01	 1.450856e+00	-5.279311e+01
1	 5.231521e-01	 1.457077e+00	-5.227309e+01
1	 5.061109e-01	 1.463084e+00	-5.171464e+01
1	 5.938370e-01	 1.437745e+00	-5.264006e+01
1	 5.768458e-01	 1.444646e+00	-5.225669e+01
1	 5.598158e-01	 1.451330e+00	-5.178935e+01
1	 5.427510e-01	 1.457798e+00	-5.125814e+01
1	 5.256552e-01	 1.464049e+00	-5.068333e+01
1	 5.085325e-01	 1.470084e+00	-5.008528e+01
1	 4.964246e-01	 1.435082e+00	-5.738925e+01
1	 4.796869e-01	 1.440763e+00	-5.691893e+01
1	 4.629304e-01	 1.446234e+00	-5.640027e+01
1	 4.461589e-01	 1.451496e+00	-5.585564e+01
1	 4.293759e-01	 1.456549e+00	-5.530731e+01
1	 4.125851e-01	 1.461394e+00	-5.477752e+01
1	 4.988461e-01	 1.442083e+00	-5.609685e+01
1	 4.820269e-01	 1.447791e+00	-5.559428e+01
1	 4.651886e-01	 1.453289e+00	-5.504895e+01
1	 4.483353e-01	 1.458577e+00	-5.448722e+01
1	 4.314704e-01	 1.463654e+00	-5.393540e+01
1	 4.145977e-01	 1.468523e+00	-5.341971e+01
1	 5.012677e-01	 1.449083e+00	-5.472034e+01
1	 4.843668e-01	 1.454820e+00	-5.418759e+01
1	 4.674468e-01	 1.460344e+00	-5.362174e+01
1	 4.505116e-01	 1.465657e+00	-5.305193e+01
1	 4.335649e-01	 1.470759e+00	-5.250726e+01
1	 4.166103e-01	 1.475651e+00	-5.201674e+01
1	 5.036893e-01	 1.456083e+00	-5.325963e+01
1	 4.867067e-01	 1.461848e+00	-5.269946e+01
1	 4.697050e-01	 1.467399e+00	-5.211971e+01
1	 4.526880e-01	 1.472737e+00	-5.155111e+01
1	 4.356594e-01	 1.477864e+00	-5.102432e+01
1	 4.186229e-01	 1.482780e+00	-5.056990e+01
1	 5.061109e-01	 1.463084e+00	-5.171464e+01
1	 4.890467e-01	 1.468876e+00	-5.113052e+01
1	 4.719632e-01	 1.474454e+00	-5.054396e+01
1	 4.548644e-01	 1.479818e+00	-4.998609e+01
1	 4.377539e-01	 1.484969e+00	-4.948795e+01
1	 4.206356e-01	 1.489909e+00	-4.908045e+01
1	 5.085325e-01	 1.470084e+00	-5.008528e+01
1	 4.913866e-01	 1.475904e+00	-4.948135e+01
1	 4.742214e-01	 1.481508e+00	-4.889553e+01
1	 4.570408e-01	 1.486898e+00	-4.835817e+01
1	 4.398485e-01	 1.492075e+00	-4.789952e+01
1	 4.226482e-01	 1.497038e+00	-4.754966e+01
1	 4.125851e-01	 1.461394e+00	-5.477752e+01
1	 3.957902e-01	 1.466032e+00	-5.433660e+01
1	 3.789947e-01	 1.470463e+00	-5.402257e+01
1	 3.622021e-01	 1.474689e+00	-5.380902e+01
1	 3.454160e-01	 1.478711e+00	-5.366963e+01
1	 3.286397e-01	 1.482530e+00	-5.357823e+01
1	 4.145977e-01	 1.468523e+00	-5.341971e+01
1	 3.977209e-01	 1.473183e+00	-5.301194e+01
1	 3.808435e-01	 1.477636e+00	-5.274816e+01
1	 3.639690e-01	 1.481883e+00	-5.260105e+01
1	 3.471009e-01	 1.485924e+00	-5.254332e+01
1	 3.302428e-01	 1.489762e+00	-5.254783e+01
1	 4.166103e-01	 1.475651e+00	-5.201674e+01
1	 3.996516e-01	 1.480334e+00	-5.165221e+01
1	 3.826922e-01	 1.484809e+00	-5.144721e+01
1	 3.657358e-01	 1.489076e+00	-5.137322e+01
1	 3.487859e-01	 1.493137e+00	-5.140176e+01
1	 3.318459e-01	 1.496993e+00	-5.150446e+01
1	 4.186229e-01	 1.482780e+00	-5.056990e+01
1	 4.015823e-01	 1.487486e+00	-5.025852e+01
1	 3.845410e-01	 1.491982e+00	-5.012057e+01
1	 3.675027e-01	 1.496270e+00	-5.012611e+01
1	 3.504709e-01	 1.500351e+00	-5.024523e+01
1	 3.334491e-01	 1.504225e+00	-5.044809e+01
1	 4.206356e-01	 1.489909e+00	-4.908045e+01
1	 4.035129e-01	 1.494637e+00	-4.883191e+01
1	 3.863897e-01	 1.499155e+00	-4.876905e+01
1	 3.692695e-01	 1.503464e+00	-4.886027e+01
1	 3.521558e-01	 1.507564e+00	-4.907398e+01
1	 3.350522e-01	 1.511457e+00	-4.937869e+01
1	 4.226482e-01	 1.497038e+00	-4.754966e+01
1	 4.054436e-01	 1.501788e+00	-4.737344e+01
1	 3.882385e-01	 1.506328e+00	-4.739346e+01
1	 3.710363e-01	 1.510657e+00	-4.757624e+01
1	 3.538408e-01	 1.514777e+00	-4.788829e+01
1	 3.366553e-01	 1.518689e+00	-4.829620e+01
1	 3.286397e-01	 1.482530e+00	-5.357823e+01
1	 3.118766e-01	 1.486147e+00	-5.355290e+01
1	 2.951302e-01	 1.489563e+00	-5.362489e+01
1	 2.784035e-01	 1.492779e+00	-5.378792e+01
1	 2.617000e-01	 1.495798e+00	-5.403573e+01
1	 2.450227e-01	 1.498620e+00	-5.436205e+01
1	 3.302428e-01	 1.489762e+00	-5.254783e+01
1	 3.133980e-01	 1.493396e+00	-5.263183e+01
1	 2.965698e-01	 1.496829e+00	-5.282386e+01
1	 2.797616e-01	 1.500061e+00	-5.311376e+01
1	 2.629766e-01	 1.503095e+00	-5.349140e+01
1	 2.462180e-01	 1.505930e+00	-5.394670e+01
1	 3.318459e-01	 1.496993e+00	-5.150446e+01
1	 3.149193e-01	 1.500646e+00	-5.169756e+01
1	 2.980095e-01	 1.504095e+00	-5.200725e+01
1	 2.811197e-01	 1.507343e+00	-5.242018e+01
1	 2.642532e-01	 1.510391e+00	-5.292306e+01
1	 2.474132e-01	 1.513241e+00	-5.350264e+01
1	 3.334491e-01	 1.504225e+00	-5.044809e+01
1	 3.164407e-01	 1.507895e+00	-5.074978e+01
1	 2.994491e-01	 1.511361e+00	-5.117458e+01
1	 2.824777e-01	 1.514625e+00	-5.170663e+01
1	 2.655298e-01	 1.517688e+00	-5.233015e+01
1	 2.486084e-01	 1.520551e+00	-5.302938e+01
1	 3.350522e-01	 1.511457e+00	-4.937869e+01
1	 3.179620e-01	 1.515144e+00	-4.978819e+01
1	 3.008888e-01	 1.518627e+00	-5.032539e+01
1	 2.838358e-01	 1.521907e+00	-5.097258e+01
1	 2.668063e-01	 1.524984e+00	-5.171214e+01
1	 2.498037e-01	 1.527862e+00	-5.252649e+01
1	 3.366553e-01	 1.518689e+00	-4.829620e+01
1	 3.194834e-01	 1.522394e+00	-4.881248e+01
1	 3.023285e-01	 1.525893e+00	-4.945921e+01
1	 2.851939e-01	 1.529189e+00	-5.021750e+01
1	 2.680829e-01	 1.532281e+00	-5.106851e+01
1	 2.509989e-01	 1.535172e+00	-5.199352e+01
1	 2.450227e-01	 1.498620e+00	-5.436205e+01
1	 2.283749e-01	 1.501247e+00	-5.474689e+01
1	 2.117595e-01	 1.503681e+00	-5.516147e+01
1	 1.951795e-01	 1.505923e+00	-5.558652e+01
1	 1.786380e-01	 1.507974e+00	-5.600297e+01
1	 1.621378e-01	 1.509838e+00	-5.639200e+01
1	 2.462180e-01	 1.505930e+00	-5.394670e+01
1	 2.294889e-01	 1.508570e+00	-5.445628e+01
1	 2.127924e-01	 1.511016e+00	-5.499025e+01
1	 1.961316e-01	 1.513269e+00	-5.552893e+01
1	 1.795094e-01	 1.515330e+00	-5.605287e+01
1	 1.629287e-01	 1.517203e+00	-5.654288e+01
1	 2.474132e-01	 1.513241e+00	-5.350264e+01
1	 2.306029e-01	 1.515894e+00	-5.413282e+01
1	 2.138254e-01	 1.518351e+00	-5.478276e+01
1	 1.970837e-01	 1.520615e+00	-5.543225e+01
1	 1.803808e-01	 1.522686e+00	-5.606133e+01
1	 1.637196e-01	 1.524568e+00	-5.665033e+01
1	 2.486084e-01	 1.520551e+00	-5.302938e+01
1	 2.317170e-01	 1.523217e+00	-5.377616e+01
1	 2.148584e-01	 1.525686e+00	-5.453873e+01
1	 1.980358e-01	 1.527961e+00	-5.529626e+01
1	 1.812522e-01	 1.530042e+00	-5.602817e+01
1	 1.645105e-01	 1.531933e+00	-5.671415e+01
1	 2.498037e-01	 1.527862e+00	-5.252649e+01
1	 2.328310e-01	 1.530540e+00	-5.338593e+01
1	 2.158914e-01	 1.533021e+00	-5.425787e+01
1	 1.989879e-01	 1.535307e+00	-5.512072e+01
1	 1.821236e-01	 1.537398e+00	-5.595317e+01
1	 1.653015e-01	 1.539298e+00	-5.673419e+01
1	 2.509989e-01	 1.535172e+00	-5.199352e+01
1	 2.339450e-01	 1.537863e+00	-5.296179e+01
1	 2.169243e-01	 1.540356e+00	-5.393991e+01
1	 1.999400e-01	 1.542653e+00	-5.490543e+01
1	 1.829950e-01	 1.544754e+00	-5.583617e+01
1	 1.660924e-01	 1.546663e+00	-5.671026e+01
1	 1.621378e-01	 1.509838e+00	-5.639200e+01
1	 1.456817e-01	 1.511514e+00	-5.673693e+01
1	 1.292726e-01	 1.513006e+00	-5.702207e+01
1	 1.129130e-01	 1.514315e+00	-5.723040e+01
1	 9.660576e-02	 1.515442e+00	-5.734515e+01
1	 8.035334e-02	 1.516391e+00	-5.734980e+01
1	 1.629287e-01	 1.517203e+00	-5.654288e+01
1	 1.463924e-01	 1.518887e+00	-5.698155e+01
1	 1.299032e-01	 1.520386e+00	-5.735180e+01
1	 1.134638e-01	 1.521702e+00	-5.763535e+01
1	 9.707701e-02	 1.522835e+00	-5.781420e+01
1	 8.074530e-02	 1.523788e+00	-5.787060e+01
1	 1.637196e-01	 1.524568e+00	-5.665033e+01
1	 1.471030e-01	 1.526261e+00	-5.718096e+01
1	 1.305338e-01	 1.527767e+00	-5.763482e+01
1	 1.140146e-01	 1.529089e+00	-5.799241e+01
1	 9.754825e-02	 1.530227e+00	-5.823456e+01
1	 8.113727e-02	 1.531185e+00	-5.834239e+01
1	 1.645105e-01	 1.531933e+00	-5.671415e+01
1	 1.478137e-01	 1.533634e+00	-5.733500e+01
1	 1.311644e-01	 1.535148e+00	-5.787096e+01
1	 1.145654e-01	 1.536475e+00	-5.830142e+01
1	 9.801950e-02	 1.537620e+00	-5.860608e+01
1	 8.152924e-02	 1.538582e+00	-5.876499e+01
1	 1.653015e-01	 1.539298e+00	-5.673419e+01
1	 1.485243e-01	 1.541007e+00	-5.744350e+01
1	 1.317950e-01	 1.542528e+00	-5.806008e+01
1	 1.151162e-01	 1.543862e+00	-5.856223e+01
1	 9.849075e-02	 1.545012e+00	-5.892862e+01
1	 8.192121e-02	 1.545979e+00	-5.913826e+01
1	 1.660924e-01	 1.546663e+00	-5.671026e+01
1	 1.492349e-01	 1.548380e+00	-5.750631e+01
1	 1.324256e-01	 1.549909e+00	-5.820202e+01
1	 1.156670e-01	 1.551249e+00	-5.877469e+01
1	 9.896200e-02	 1.552404e+00	-5.920201e+01
1	 8.231317e-02	 1.553376e+00	-5.946205e+01
1	 8.035334e-02	 1.516391e+00	-5.734980e+01
1	 6.415829e-02	 1.517163e+00	-5.722791e+01
1	 4.802307e-02	 1.517759e+00	-5.696749e+01
1	 3.195007e-02	 1.518182e+00	-5.655901e+01
1	 1.594163e-02	 1.518435e+00	-5.599313e+01
1	 0.000000e+00	 1.518519e+00	-5.526075e+01
1	 8.074530e-02	 1.523788e+00	-5.787060e+01
1	 6.447125e-02	 1.524563e+00	-5.778713e+01
1	 4.825733e-02	 1.525163e+00	-5.755106e+01
1	 3.210592e-02	 1.525588e+00	-5.715214e+01
1	 1.601939e-02	 1.525842e+00	-5.658035e+01
1	 0.000000e+00	 1.525926e+00	-5.582592e+01
1	 8.113727e-02	 1.531185e+00	-5.834239e+01
1	 6.478422e-02	 1.531964e+00	-5.829748e+01
1	 4.849159e-02	 1.532566e+00	-5.808632e+01
1	 3.226178e-02	 1.532994e+00	-5.769784e+01
1	 1.609715e-02	 1.533249e+00	-5.712122e+01
1	 0.000000e+00	 1.533333e+00	-5.634593e+01
1	 8.152924e-02	 1.538582e+00	-5.876499e+01
1	 6.509719e-02	 1.539365e+00	-5.875880e+01
1	 4.872584e-02	 1.539970e+00	-5.857311e+01
1	 3.241763e-02	 1.540400e+00	-5.819593e+01
1	 1.617492e-02	 1.540656e+00	-5.761556e+01
1	 0.000000e+00	 1.540741e+00	-5.682059e+01
1	 8.192121e-02	 1.545979e+00	-5.913826e+01
1	 6.541016e-02	 1.546766e+00	-5.917092e+01
1	 4.896010e-02	 1.547374e+00	-5.901124e+01
1	 3.257349e-02	 1.547805e+00	-5.864622e+01
1	 1.625268e-02	 1.548063e+00	-5.806316e+01
1	 0.000000e+00	 1.548148e+00	-5.724968e+01
1	 8.231317e-02	 1.553376e+00	-5.946205e+01
1	 6.572312e-02	 1.554167e+00	-5.953368e+01
1	 4.919436e-02	 1.554777e+00	-5.940056e+01
1	 3.272934e-02	 1.555211e+00	-5.904854e+01
1	 1.633045e-02	 1.555470e+00	-5.846383e+01
1	 0.000000e+00	 1.555556e+00	-5.763302e+01
1	 1.555556e+00	 0.000000e+00	 1.684249e+01
1	 1.555470e+00	 1.633045e-02	 1.650779e+01
1	 1.555211e+00	 3.272934e-02	 1.615064e+01
1	 1.554777e+00	 4.919436e-02	 1.577360e+01
1	 1.554167e+00	 6.572312e-02	 1.537929e+01
1	 1.553376e+00	 8.231317e-02	 1.497037e+01
1	 1.562963e+00	 0.000000e+00	 1.671067e+01
1	 1.562877e+00	 1.640821e-02	 1.638268e+01
1	 1.562617e+00	 3.288519e-02	 1.602939e+01
1	 1.562181e+00	 4.942862e-02	 1.565359e+01
1	 1.561567e+00	 6.603609e-02	 1.525812e+01
1	 1.560773e+00	 8.270514e-02	 1.484585e+01
1	 1.570370e+00	 0.000000e+00	 1.657314e+01
1	 1.570284e+00	 1.648597e-02	 1.625205e+01
1	 1.570023e+00	 3.304105e-02	 1.590293e+01
1	 1.569585e+00	 4.966288e-02	 1.552877e+01
1	 1.568968e+00	 6.634906e-02	 1.513261e+01
1	 1.568170e+00	 8.309711e-02	 1.471751e+01
1	 1.577778e+00	 0.000000e+00	 1.642988e+01
1	 1.577691e+00	 1.656374e-02	 1.611587e+01
1	 1.577429e+00	 3.319690e-02	 1.577122e+01
1	 1.576989e+00	 4.989714e-02	 1.539908e+01
1	 1.576369e+00	 6.666203e-02	 1.500268e+01
1	 1.575567e+00	 8.348908e-02	 1.458525e+01
1	 1.585185e+00	 0.000000e+00	 1.628088e+01
1	 1.585098e+00	 1.664150e-02	 1.597410e+01
1	 1.584834e+00	 3.335276e-02	 1.563419e+01
1	 1.584392e+00	 5.013140e-02	 1.526444e+01
1	 1.583770e+00	 6.697499e-02	 1.486824e+01
1	 1.582964e+00	 8.388104e-02	 1.444899e+01
1	 1.592593e+00	 0.000000e+00	 1.612613e+01
1	 1.592505e+00	 1.671927e-02	 1.582670e+01
1	 1.592240e+00	 3.350861e-02	 1.549178e+01
1	 1.591796e+00	 5.036566e-02	 1.512478e+01
1	 1.591170e+00	 6.728796e-02	 1.472922e+01
1	 1.590361e+00	 8.427301e-02	 1.430864e+01
1	 1.553376e+00	 8.231317e-02	 1.497037e+01
1	 1.552404e+00	 9.896200e-02	 1.455050e+01
1	 1.551249e+00	 1.156670e-01	 1.412423e+01
1	 1.549909e+00	 1.324256e-01	 1.369558e+01
1	 1.548380e+00	 1.492349e-01	 1.326851e+01
1	 1.546663e+00	 1.660924e-01	 1.284703e+01
1	 1.560773e+00	 8.270514e-02	 1.484585e+01
1	 1.559797e+00	 9.943324e-02	 1.442044e+01
1	 1.558636e+00	 1.162178e-01	 1.398639e+01
1	 1.557289e+00	 1.330562e-01	 1.354790e+01
1	 1.555754e+00	 1.499456e-01	 1.310918e+01
1	 1.554028e+00	 1.668833e-01	 1.267443e+01
1	 1.568170e+00	 8.309711e-02	 1.471751e+01
1	 1.567189e+00	 9.990449e-02	 1.428709e+01
1	 1.566023e+00	 1.167686e-01	 1.384584e+01
1	 1.564670e+00	 1.336868e-01	 1.339815e+01
1	 1.563127e+00	 1.506562e-01	 1.294845e+01
1	 1.561393e+00	 1.676742e-01	 1.250114e+01
1	 1.575567e+00	 8.348908e-02	 1.458525e+01
1	 1.574582e+00	 1.003757e-01	 1.415038e+01
1	 1.573410e+00	 1.173194e-01	 1.370248e+01
1	 1.572050e+00	 1.343174e-01	 1.324619e+01
1	 1.570500e+00	 1.513669e-01	 1.278615e+01
1	 1.568758e+00	 1.684651e-01	 1.232699e+01
1	 1.582964e+00	 8.388104e-02	 1.444899e+01
1	 1.581974e+00	 1.008470e-01	 1.401018e+01
1	 1.580797e+00	 1.178702e-01	 1.355621e+01
1	 1.579431e+00	 1.349479e-01	 1.309191e+01
1	 1.577873e+00	 1.520775e-01	 1.262215e+01
1	 1.576123e+00	 1.692560e-01	 1.215179e+01
1	 1.590361e+00	 8.427301e-02	 1.430864e+01
1	 1.589366e+00	 1.013182e-01	 1.386642e+01
1	 1.588184e+00	 1.184210e-01	 1.340691e+01
1	 1.586811e+00	 1.355785e-01	 1.293517e+01
1	 1.585247e+00	 1.527882e-01	 1.245629e+01
1	 1.583488e+00	 1.700470e-01	 1.197536e+01
1	 1.546663e+00	 1.660924e-01	 1.284703e+01
1	 1.544754e+00	 1.829950e-01	 1.243467e+01
1	 1.542653e+00	 1.999400e-01	 1.203461e+01
1	 1.540356e+00	 2.169243e-01	 1.165024e+01
1	 1.537863e+00	 2.339450e-01	 1.128496e+01
1	 1.535172e+00	 2.509989e-01	 1.094212e+01
1	 1.554028e+00	 1.668833e-01	 1.267443e+01
1	 1.552110e+00	 1.838664e-01	 1.224749e+01
1	 1.549999e+00	 2.008921e-01	 1.183181e+01
1	 1.547691e+00	 2.179573e-01	 1.143096e+01
1	 1.545186e+00	 2.350590e-01	 1.104849e+01
1	 1.542482e+00	 2.521941e-01	 1.068791e+01
1	 1.561393e+00	 1.676742e-01	 1.250114e+01
1	 1.559466e+00	 1.847378e-01	 1.206039e+01
1	 1.557345e+00	 2.018442e-01	 1.162988e+01
1	 1.555026e+00	 2.189903e-01	 1.121331e+01
1	 1.552509e+00	 2.361730e-01	 1.081438e+01
1	 1.549793e+00	 2.533894e-01	 1.043675e+01
1	 1.568758e+00	 1.684651e-01	 1.232699e+01
1	 1.566822e+00	 1.856092e-01	 1.187316e+01
1	 1.564691e+00	 2.027963e-01	 1.142859e+01
1	 1.562361e+00	 2.200233e-01	 1.099709e+01
1	 1.559833e+00	 2.372871e-01	 1.058247e+01
1	 1.557103e+00	 2.545846e-01	 1.018852e+01
1	 1.576123e+00	 1.692560e-01	 1.215179e+01
1	 1.574178e+00	 1.864807e-01	 1.168560e+01
1	 1.572036e+00	 2.037484e-01	 1.122772e+01
1	 1.569696e+00	 2.210562e-01	 1.078209e+01
1	 1.567156e+00	 2.384011e-01	 1.035259e+01
1	 1.564413e+00	 2.557798e-01	 9.943097e+00
1	 1.583488e+00	 1.700470e-01	 1.197536e+01
1	 1.581534e+00	 1.873521e-01	 1.149749e+01
1	 1.579382e+00	 2.047005e-01	 1.102708e+01
1	 1.577031e+00	 2.220892e-01	 1.056811e+01
1	 1.574479e+00	 2.395151e-01	 1.012456e+01
1	 1.571724e+00	 2.569751e-01	 9.700378e+00
1	 1.535172e+00	 2.509989e-01	 1.094212e+01
1	 1.532281e+00	 2.680829e-01	 1.063318e+01
1	 1.529189e+00	 2.851939e-01	 1.036895e+01
1	 1.525893e+00	 3.023285e-01	 1.015166e+01
1	 1.522394e+00	 3.194834e-01	 9.983424e+00
1	 1.518689e+00	 3.366553e-01	 9.866217e+00
1	 1.542482e+00	 2.521941e-01	 1.068791e+01
1	 1.539577e+00	 2.693595e-01	 1.036062e+01
1	 1.536470e+00	 2.865519e-01	 1.007739e+01
1	 1.533160e+00	 3.037681e-01	 9.840707e+00
1	 1.529643e+00	 3.210047e-01	 9.652936e+00
1	 1.525921e+00	 3.382584e-01	 9.516320e+00
1	 1.549793e+00	 2.533894e-01	 1.043675e+01
1	 1.546874e+00	 2.706361e-01	 1.009176e+01
1	 1.543752e+00	 2.879100e-01	 9.790279e+00
1	 1.540426e+00	 3.052078e-01	 9.535072e+00
1	 1.536893e+00	 3.225261e-01	 9.328810e+00
1	 1.533153e+00	 3.398615e-01	 9.174046e+00
1	 1.557103e+00	 2.545846e-01	 1.018852e+01
1	 1.554171e+00	 2.719127e-01	 9.826545e+00
1	 1.551034e+00	 2.892681e-01	 9.507524e+00
1	 1.547692e+00	 3.066474e-01	 9.234582e+00
1	 1.544142e+00	 3.240474e-01	 9.010739e+00
1	 1.540385e+00	 3.414647e-01	 8.838898e+00
1	 1.564413e+00	 2.557798e-01	 9.943097e+00
1	 1.561467e+00	 2.731893e-01	 9.564879e+00
1	 1.558316e+00	 2.906261e-01	 9.229024e+00
1	 1.554958e+00	 3.080871e-01	 8.939065e+00
1	 1.551392e+00	 3.255688e-01	 8.698421e+00
1	 1.547616e+00	 3.430678e-01	 8.510388e+00
1	 1.571724e+00	 2.569751e-01	 9.700378e+00
1	 1.568764e+00	 2.744659e-01	 9.306686e+00
1	 1.565598e+00	 2.919842e-01	 8.954682e+00
1	 1.562224e+00	 3.095267e-01	 8.648353e+00
1	 1.558641e+00	 3.270901e-01	 8.391561e+00
1	 1.554848e+00	 3.446709e-01	 8.188037e+00
1	 1.518689e+00	 3.366553e-01	 9.866217e+00
1	 1.514777e+00	 3.538408e-01	 9.785238e+00
1	 1.510657e+00	 3.710363e-01	 9.727270e+00
1	 1.506328e+00	 3.882385e-01	 9.696501e+00
1	 1.501788e+00	 4.054436e-01	 9.697021e+00
1	 1.497038e+00	 4.226482e-01	 9.732811e+00
1	 1.525921e+00	 3.382584e-01	 9.516320e+00
1	 1.521990e+00	 3.555257e-01	 9.416278e+00
1	 1.517851e+00	 3.728032e-01	 9.339793e+00
1	 1.513501e+00	 3.900872e-01	 9.291289e+00
1	 1.508940e+00	 4.073743e-01	 9.275070e+00
1	 1.504166e+00	 4.246608e-01	 9.295309e+00
1	 1.533153e+00	 3.398615e-01	 9.174046e+00
1	 1.529204e+00	 3.572107e-01	 9.056343e+00
1	 1.525044e+00	 3.745700e-01	 8.962695e+00
1	 1.520674e+00	 3.919360e-01	 8.897627e+00
1	 1.516091e+00	 4.093050e-01	 8.865537e+00
1	 1.511295e+00	 4.266734e-01	 8.870685e+00
1	 1.540385e+00	 3.414647e-01	 8.838898e+00
1	 1.536417e+00	 3.588956e-01	 8.704770e+00
1	 1.532238e+00	 3.763368e-01	 8.595245e+00
1	 1.527847e+00	 3.937847e-01	 8.514824e+00
1	 1.523243e+00	 4.112357e-01	 8.467882e+00
1	 1.518424e+00	 4.286860e-01	 8.458655e+00
1	 1.547616e+00	 3.430678e-01	 8.510388e+00
1	 1.543630e+00	 3.605806e-01	 8.360904e+00
1	 1.539432e+00	 3.781037e-01	 8.236726e+00
1	 1.535020e+00	 3.956335e-01	 8.142203e+00
1	 1.530394e+00	 4.131664e-01	 8.081572e+00
1	 1.525553e+00	 4.306986e-01	 8.058939e+00
1	 1.554848e+00	 3.446709e-01	 8.188037e+00
1	 1.550843e+00	 3.622655e-01	 8.024106e+00
1	 1.546625e+00	 3.798705e-01	 7.886435e+00
1	 1.542193e+00	 3.974822e-01	 7.779101e+00
1	 1.537545e+00	 4.150970e-01	 7.706084e+00
1	 1.532681e+00	 4.327112e-01	 7.671261e+00
1	 1.497038e+00	 4.226482e-01	 9.732811e+00
1	 1.492075e+00	 4.398485e-01	 9.786231e+00
1	 1.486898e+00	 4.570408e-01	 9.833439e+00
1	 1.481508e+00	 4.742214e-01	 9.869112e+00
1	 1.475904e+00	 4.913866e-01	 9.888053e+00
1	 1.470084e+00	 5.085325e-01	 9.885210e+00
1	 1.504166e+00	 4.246608e-01	 9.295309e+00
1	 1.499180e+00	 4.419430e-01	 9.335901e+00
1	 1.493979e+00	 4.592172e-01	 9.374342e+00
1	 1.488563e+00	 4.764796e-01	 9.405150e+00
1	 1.482932e+00	 4.937265e-01	 9.422928e+00
1	 1.477085e+00	 5.109541e-01	 9.422364e+00
1	 1.511295e+00	 4.266734e-01	 8.870685e+00
1	 1.506285e+00	 4.440375e-01	 8.898306e+00
1	 1.501059e+00	 4.613936e-01	 8.927139e+00
1	 1.495618e+00	 4.787378e-01	 8.951611e+00
1	 1.489960e+00	 4.960665e-01	 8.966183e+00
1	 1.484085e+00	 5.133756e-01	 8.965359e+00
1	 1.518424e+00	 4.286860e-01	 8.458655e+00
1	 1.513390e+00	 4.461320e-01	 8.473492e+00
1	 1.508140e+00	 4.635699e-01	 8.492258e+00
1	 1.502673e+00	 4.809960e-01	 8.509341e+00
1	 1.496988e+00	 4.984064e-01	 8.519129e+00
1	 1.491085e+00	 5.157972e-01	 8.516012e+00
1	 1.525553e+00	 4.306986e-01	 8.058939e+00
1	 1.520495e+00	 4.482265e-01	 8.061510e+00
1	 1.515220e+00	 4.657463e-01	 8.070117e+00
1	 1.509728e+00	 4.832542e-01	 8.079172e+00
1	 1.504016e+00	 5.007463e-01	 8.083051e+00
1	 1.498086e+00	 5.182188e-01	 8.076103e+00
1	 1.532681e+00	 4.327112e-01	 7.671261e+00
1	 1.527600e+00	 4.503210e-01	 7.662404e+00
1	 1.522301e+00	 4.679227e-01	 7.661125e+00
1	 1.516782e+00	 4.855124e-01	 7.661918e+00
1	 1.511044e+00	 5.030863e-01	 7.659211e+00
1	 1.505086e+00	 5.206404e-01	 7.647381e+00
1	 1.470084e+00	 5.085325e-01	 9.885210e+00
1	 1.464049e+00	 5.256552e-01	 9.844687e+00
1	 1.457798e+00	 5.427510e-01	 9.753164e+00
1	 1.451330e+00	 5.598158e-01	 9.609829e+00
1	 1.444646e+00	 5.768458e-01	 9.414236e+00
1	 1.437745e+00	 5.938370e-01	 9.166320e+00
1	 1.477085e+00	 5.109541e-01	 9.422364e+00
1	 1.471021e+00	 5.281584e-01	 9.388129e+00
1	 1.464740e+00	 5.453355e-01	 9.307337e+00
1	 1.458241e+00	 5.624816e-01	 9.178745e+00
1	 1.451525e+00	 5.795927e-01	 9.001547e+00
1	 1.444591e+00	 5.966647e-01	 8.775391e+00
1	 1.484085e+00	 5.133756e-01	 8.965359e+00
1	 1.477992e+00	 5.306615e-01	 8.934902e+00
1	 1.471682e+00	 5.479200e-01	 8.862925e+00
1	 1.465152e+00	 5.651474e-01	 8.747860e+00
1	 1.458405e+00	 5.823396e-01	 8.588615e+00
1	 1.451438e+00	 5.994925e-01	 8.384587e+00
1	 1.491085e+00	 5.157972e-01	 8.516012e+00
1	 1.484964e+00	 5.331646e-01	 8.487192e+00
1	 1.478623e+00	 5.505046e-01	 8.422173e+00
1	 1.472063e+00	 5.678132e-01	 8.319167e+00
1	 1.465284e+00	 5.850864e-01	 8.176865e+00
1	 1.458284e+00	 6.023203e-01	 7.994448e+00
1	 1.498086e+00	 5.182188e-01	 8.076103e+00
1	 1.491936e+00	 5.356677e-01	 8.047146e+00
1	 1.485565e+00	 5.530891e-01	 7.987287e+00
1	 1.478975e+00	 5.704790e-01	 7.894623e+00
1	 1.472163e+00	 5.878333e-01	 7.767696e+00
1	 1.465131e+00	 6.051481e-01	 7.605505e+00
1	 1.505086e+00	 5.206404e-01	 7.647381e+00
1	 1.498907e+00	 5.381708e-01	 7.616869e+00
1	 1.492507e+00	 5.556736e-01	 7.560429e+00
1	 1.485886e+00	 5.731448e-01	 7.476147e+00
1	 1.479042e+00	 5.905802e-01	 7.362482e+00
1	 1.471977e+00	 6.079759e-01	 7.218278e+00
1	 1.437745e+00	 5.938370e-01	 9.166320e+00
1	 1.430627e+00	 6.107853e-01	 8.838001e+00
1	 1.423293e+00	 6.276869e-01	 8.401059e+00
1	 1.415742e+00	 6.445377e-01	 7.855434e+00
1	 1.407974e+00	 6.613337e-01	 7.200975e+00
1	 1.399990e+00	 6.780708e-01	 6.437434e+00
1	 1.444591e+00	 5.966647e-01	 8.775391e+00
1	 1.437440e+00	 6.136938e-01	 8.469651e+00
1	 1.430070e+00	 6.306759e-01	 8.053815e+00
1	 1.422483e+00	 6.476070e-01	 7.527964e+00
1	 1.414679e+00	 6.644829e-01	 6.892068e+00
1	 1.406657e+00	 6.812997e-01	 6.145983e+00
1	 1.451438e+00	 5.994925e-01	 8.384587e+00
1	 1.444252e+00	 6.166023e-01	 8.102332e+00
1	 1.436848e+00	 6.336649e-01	 7.708674e+00
1	 1.429225e+00	 6.506762e-01	 7.203710e+00
1	 1.421383e+00	 6.676321e-01	 6.587454e+00
1	 1.413324e+00	 6.845286e-01	 5.859829e+00
1	 1.458284e+00	 6.023203e-01	 7.994448e+00
1	 1.451065e+00	 6.195108e-01	 7.735710e+00
1	 1.443625e+00	 6.366539e-01	 7.364759e+00
1	 1.435966e+00	 6.537454e-01	 6.881596e+00
1	 1.428088e+00	 6.707813e-01	 6.286198e+00
1	 1.419990e+00	 6.877575e-01	 5.578517e+00
1	 1.465131e+00	 6.051481e-01	 7.605505e+00
1	 1.457877e+00	 6.224193e-01	 7.369454e+00
1	 1.450403e+00	 6.396429e-01	 7.021212e+00
1	 1.442708e+00	 6.568146e-01	 6.560565e+00
1	 1.434793e+00	 6.739305e-01	 5.987381e+00
1	 1.426657e+00	 6.909864e-01	 5.301601e+00
1	 1.471977e+00	 6.079759e-01	 7.218278e+00
1	 1.464690e+00	 6.253278e-01	 7.003243e+00
1	 1.457181e+00	 6.426319e-01	 6.677190e+00
1	 1.449450e+00	 6.598839e-01	 6.239584e+00
1	 1.441497e+00	 6.770797e-01	 5.690102e+00
1	 1.433323e+00	 6.942153e-01	 5.028644e+00
1	 1.399990e+00	 6.780708e-01	 6.437434e+00
1	 1.391791e+00	 6.947450e-01	 5.554121e+00
1	 1.383377e+00	 7.113522e-01	 4.542354e+00
1	 1.374748e+00	 7.278884e-01	 3.405208e+00
1	 1.365905e+00	 7.443495e-01	 2.146274e+00
1	 1.356850e+00	 7.607315e-01	 7.696542e-01
1	 1.406657e+00	 6.812997e-01	 6.145983e+00
1	 1.398419e+00	 6.980533e-01	 5.281640e+00
1	 1.389964e+00	 7.147396e-01	 4.292915e+00
1	 1.381294e+00	 7.313545e-01	 3.182911e+00
1	 1.372409e+00	 7.478940e-01	 1.955281e+00
1	 1.363311e+00	 7.643540e-01	 6.142318e-01
1	 1.413324e+00	 6.845286e-01	 5.859829e+00
1	 1.405046e+00	 7.013616e-01	 5.015479e+00
1	 1.396552e+00	 7.181270e-01	 4.050960e+00
1	 1.387841e+00	 7.348207e-01	 2.969412e+00
1	 1.378914e+00	 7.514385e-01	 1.774538e+00
1	 1.369772e+00	 7.679766e-01	 4.706043e-01
1	 1.419990e+00	 6.877575e-01	 5.578517e+00
1	 1.411674e+00	 7.046699e-01	 4.755725e+00
1	 1.403139e+00	 7.215144e-01	 3.816897e+00
1	 1.394387e+00	 7.382868e-01	 2.765221e+00
1	 1.385418e+00	 7.549831e-01	 1.604434e+00
1	 1.376233e+00	 7.715991e-01	 3.388203e-01
1	 1.426657e+00	 6.909864e-01	 5.301601e+00
1	 1.418301e+00	 7.079782e-01	 4.502466e+00
1	 1.409727e+00	 7.249018e-01	 3.591129e+00
1	 1.400934e+00	 7.417529e-01	 2.570840e+00
1	 1.391922e+00	 7.585276e-01	 1.445354e+00
1	 1.382694e+00	 7.752216e-01	 2.189274e-01
1	 1.433323e+00	 6.942153e-01	 5.028644e+00
1	 1.424929e+00	 7.112865e-01	 4.255785e+00
1	 1.416314e+00	 7.282891e-01	 3.374051e+00
1	 1.407480e+00	 7.452191e-01	 2.386761e+00
1	 1.398427e+00	 7.620721e-01	 1.297672e+00
1	 1.389155e+00	 7.788442e-01	 1.109722e-01
1	 1.356850e+00	 7.607315e-01	 7.696542e-01
1	 1.347582e+00	 7.770303e-01	-6.593347e-01
1	 1.338103e+00	 7.932420e-01	-2.079576e+00
1	 1.328415e+00	 8.093624e-01	-3.493105e+00
1	 1.318518e+00	 8.253876e-01	-4.902250e+00
1	 1.308413e+00	 8.413136e-01	-6.309635e+00
1	 1.363311e+00	 7.643540e-01	 6.142318e-01
1	 1.353999e+00	 7.807305e-01	-7.778743e-01
1	 1.344475e+00	 7.970193e-01	-2.163013e+00
1	 1.334740e+00	 8.132165e-01	-3.543336e+00
1	 1.324796e+00	 8.293180e-01	-4.921339e+00
1	 1.314644e+00	 8.453198e-01	-6.299865e+00
1	 1.369772e+00	 7.679766e-01	 4.706043e-01
1	 1.360416e+00	 7.844306e-01	-8.833001e-01
1	 1.350847e+00	 8.007966e-01	-2.232491e+00
1	 1.341066e+00	 8.170706e-01	-3.579175e+00
1	 1.331075e+00	 8.332484e-01	-4.925936e+00
1	 1.320874e+00	 8.493261e-01	-6.275741e+00
1	 1.376233e+00	 7.715991e-01	 3.388203e-01
1	 1.366833e+00	 7.881308e-01	-9.759404e-01
1	 1.357219e+00	 8.045740e-01	-2.288565e+00
1	 1.347392e+00	 8.209247e-01	-3.601254e+00
1	 1.337353e+00	 8.371788e-01	-4.916606e+00
1	 1.327105e+00	 8.533323e-01	-6.237610e+00
1	 1.382694e+00	 7.752216e-01	 2.189274e-01
1	 1.373250e+00	 7.918309e-01	-1.056118e+00
1	 1.363591e+00	 8.083513e-01	-2.331779e+00
1	 1.353718e+00	 8.247788e-01	-3.610197e+00
1	 1.343632e+00	 8.411092e-01	-4.893901e+00
1	 1.333335e+00	 8.573386e-01	-6.185813e+00
1	 1.389155e+00	 7.788442e-01	 1.109722e-01
1	 1.379667e+00	 7.955310e-01	-1.124148e+00
1	 1.369963e+00	 8.121287e-01	-2.362670e+00
1	 1.360044e+00	 8.286329e-01	-3.606612e+00
1	 1.349911e+00	 8.450397e-01	-4.858364e+00
1	 1.339566e+00	 8.613448e-01	-6.120682e+00
1	 1.308413e+00	 8.413136e-01	-6.309635e+00
1	 1.298103e+00	 8.571364e-01	-7.690398e+00
1	 1.287588e+00	 8.728521e-01	-9.017784e+00
1	 1.276870e+00	 8.884568e-01	-1.029194e+01
1	 1.265952e+00	 9.039467e-01	-1.151323e+01
1	 1.254834e+00	 9.193178e-01	-1.268223e+01
1	 1.314644e+00	 8.453198e-01	-6.299865e+00
1	 1.304284e+00	 8.612180e-01	-7.653752e+00
1	 1.293719e+00	 8.770086e-01	-8.955747e+00
1	 1.282951e+00	 8.926876e-01	-1.020595e+01
1	 1.271980e+00	 9.082512e-01	-1.140467e+01
1	 1.260809e+00	 9.236955e-01	-1.255240e+01
1	 1.320874e+00	 8.493261e-01	-6.275741e+00
1	 1.310465e+00	 8.652996e-01	-7.602840e+00
1	 1.299851e+00	 8.811650e-01	-8.879314e+00
1	 1.289031e+00	 8.969183e-01	-1.010530e+01
1	 1.278008e+00	 9.125557e-01	-1.128111e+01
1	 1.266785e+00	 9.280732e-01	-1.240727e+01
1	 1.327105e+00	 8.533323e-01	-6.237610e+00
1	 1.316647e+00	 8.693812e-01	-7.537766e+00
1	 1.305982e+00	 8.853214e-01	-8.788439e+00
1	 1.295111e+00	 9.011491e-01	-9.989862e+00
1	 1.284037e+00	 9.168602e-01	-1.114247e+01
1	 1.272760e+00	 9.324509e-01	-1.224690e+01
1	 1.333335e+00	 8.573386e-01	-6.185813e+00
1	 1.322828e+00	 8.734628e-01	-7.458631e+00
1	 1.312113e+00	 8.894779e-01	-8.683074e+00
1	 1.301192e+00	 9.053798e-01	-9.859549e+00
1	 1.290065e+00	 9.211647e-01	-1.098868e+01
1	 1.278735e+00	 9.368286e-01	-1.207133e+01
1	 1.339566e+00	 8.613448e-01	-6.120682e+00
1	 1.329010e+00	 8.775444e-01	-7.365534e+00
1	 1.318245e+00	 8.936343e-01	-8.563174e+00
1	 1.307272e+00	 9.096106e-01	-9.714254e+00
1	 1.296093e+00	 9.254692e-01	-1.081968e+01
1	 1.284711e+00	 9.412063e-01	-1.188061e+01
1	 1.254834e+00	 9.193178e-01	-1.268223e+01
1	 1.243519e+00	 9.345664e-01	-1.377291e+01
1	 1.232008e+00	 9.496887e-01	-1.476287e+01
1	 1.220305e+00	 9.646810e-01	-1.565856e+01
1	 1.208410e+00	 9.795396e-01	-1.646678e+01
1	 1.196327e+00	 9.942609e-01	-1.719463e+01
1	 1.260809e+00	 9.236955e-01	-1.255240e+01
1	 1.249440e+00	 9.390167e-01	-1.362336e+01
1	 1.237875e+00	 9.542110e-01	-1.459516e+01
1	 1.226116e+00	 9.692747e-01	-1.547372e+01
1	 1.214165e+00	 9.842041e-01	-1.626528e+01
1	 1.202024e+00	 9.989955e-01	-1.697640e+01
1	 1.266785e+00	 9.280732e-01	-1.240727e+01
1	 1.255362e+00	 9.434670e-01	-1.345825e+01
1	 1.243742e+00	 9.587333e-01	-1.441145e+01
1	 1.231927e+00	 9.738684e-01	-1.527221e+01
1	 1.219919e+00	 9.888686e-01	-1.604613e+01
1	 1.207721e+00	 1.003730e+00	-1.673909e+01
1	 1.272760e+00	 9.324509e-01	-1.224690e+01
1	 1.261283e+00	 9.479173e-01	-1.327774e+01
1	 1.249608e+00	 9.632557e-01	-1.421199e+01
1	 1.237738e+00	 9.784621e-01	-1.505429e+01
1	 1.225673e+00	 9.935330e-01	-1.580950e+01
1	 1.213417e+00	 1.008465e+00	-1.648272e+01
1	 1.278735e+00	 9.368286e-01	-1.207133e+01
1	 1.267205e+00	 9.523677e-01	-1.308200e+01
1	 1.255475e+00	 9.677780e-01	-1.399700e+01
1	 1.243549e+00	 9.830559e-01	-1.482018e+01
1	 1.231428e+00	 9.981975e-01	-1.555555e+01
1	 1.219114e+00	 1.013199e+00	-1.620733e+01
1	 1.284711e+00	 9.412063e-01	-1.188061e+01
1	 1.273126e+00	 9.568180e-01	-1.287123e+01
1	 1.261342e+00	 9.723003e-01	-1.376673e+01
1	 1.249360e+00	 9.876496e-01	-1.457010e+01
1	 1.237182e+00	 1.002862e+00	-1.528444e+01
1	 1.224811e+00	 1.017934e+00	-1.591295e+01
1	 1.196327e+00	 9.942609e-01	-1.719463e+01
1	 1.184057e+00	 1.008841e+00	-1.783329e+01
1	 1.171604e+00	 1.023277e+00	-1.836878e+01
1	 1.158970e+00	 1.037566e+00	-1.880070e+01
1	 1.146156e+00	 1.051703e+00	-1.912852e+01
1	 1.133167e+00	 1.065685e+00	-1.935165e+01
1	 1.202024e+00	 9.989955e-01	-1.697640e+01
1	 1.189696e+00	 1.013645e+00	-1.759644e+01
1	 1.177183e+00	 1.028150e+00	-1.811079e+01
1	 1.164488e+00	 1.042506e+00	-1.852030e+01
1	 1.151614e+00	 1.056711e+00	-1.882578e+01
1	 1.138563e+00	 1.070760e+00	-1.902800e+01
1	 1.207721e+00	 1.003730e+00	-1.673909e+01
1	 1.195334e+00	 1.018449e+00	-1.733899e+01
1	 1.182762e+00	 1.033023e+00	-1.783108e+01
1	 1.170007e+00	 1.047447e+00	-1.821747e+01
1	 1.157072e+00	 1.061719e+00	-1.850031e+01
1	 1.143959e+00	 1.075835e+00	-1.868183e+01
1	 1.213417e+00	 1.008465e+00	-1.648272e+01
1	 1.200973e+00	 1.023253e+00	-1.706083e+01
1	 1.188341e+00	 1.037896e+00	-1.752944e+01
1	 1.175526e+00	 1.052388e+00	-1.789192e+01
1	 1.162530e+00	 1.066727e+00	-1.815184e+01
1	 1.149355e+00	 1.080909e+00	-1.831288e+01
1	 1.219114e+00	 1.013199e+00	-1.620733e+01
1	 1.206611e+00	 1.028057e+00	-1.676186e+01
1	 1.193920e+00	 1.042768e+00	-1.720564e+01
1	 1.181045e+00	 1.057329e+00	-1.754338e+01
1	 1.167988e+00	 1.071735e+00	-1.778005e+01
1	 1.154751e+00	 1.085984e+00	-1.792085e+01
1	 1.224811e+00	 1.017934e+00	-1.591295e+01
1	 1.212249e+00	 1.032861e+00	-1.644196e+01
1	 1.199499e+00	 1.047641e+00	-1.685948e+01
1	 1.186564e+00	 1.062270e+00	-1.717158e+01
1	 1.173446e+00	 1.076743e+00	-1.738466e+01
1	 1.160147e+00	 1.091059e+00	-1.750548e+01
1	 1.133167e+00	 1.065685e+00	-1.935165e+01
1	 1.120005e+00	 1.079510e+00	-1.955248e+01
1	 1.106673e+00	 1.093173e+00	-1.981015e+01
1	 1.093173e+00	 1.106673e+00	-2.011895e+01
1	 1.079510e+00	 1.120005e+00	-2.047301e+01
1	 1.065685e+00	 1.133167e+00	-2.086630e+01
1	 1.138563e+00	 1.070760e+00	-1.902800e+01
1	 1.125339e+00	 1.084650e+00	-1.921052e+01
1	 1.111943e+00	 1.098379e+00	-1.945265e+01
1	 1.098379e+00	 1.111943e+00	-1.974861e+01
1	 1.084650e+00	 1.125339e+00	-2.009247e+01
1	 1.070760e+00	 1.138563e+00	-2.047816e+01
1	 1.143959e+00	 1.075835e+00	-1.868183e+01
1	 1.130672e+00	 1.089791e+00	-1.884647e+01
1	 1.117213e+00	 1.103585e+00	-1.907340e+01
1	 1.103585e+00	 1.117213e+00	-1.935693e+01
1	 1.089791e+00	 1.130672e+00	-1.969115e+01
1	 1.075835e+00	 1.143959e+00	-2.007000e+01
1	 1.149355e+00	 1.080909e+00	-1.831288e+01
1	 1.136005e+00	 1.094931e+00	-1.846006e+01
1	 1.122483e+00	 1.108790e+00	-1.867222e+01
1	 1.108790e+00	 1.122483e+00	-1.894378e+01
1	 1.094931e+00	 1.136005e+00	-1.926896e+01
1	 1.080909e+00	 1.149355e+00	-1.964183e+01
1	 1.154751e+00	 1.085984e+00	-1.792085e+01
1	 1.141339e+00	 1.100072e+00	-1.805107e+01
1	 1.127752e+00	 1.113996e+00	-1.824892e+01
1	 1.113996e+00	 1.127752e+00	-1.850903e+01
1	 1.100072e+00	 1.141339e+00	-1.882585e+01
1	 1.085984e+00	 1.154751e+00	-1.919363e+01
1	 1.160147e+00	 1.091059e+00	-1.750548e+01
1	 1.146672e+00	 1.105212e+00	-1.761927e+01
1	 1.133022e+00	 1.119201e+00	-1.780332e+01
1	 1.119201e+00	 1.133022e+00	-1.805257e+01
1	 1.105212e+00	 1.146672e+00	-1.836174e+01
1	 1.091059e+00	 1.160147e+00	-1.872542e+01
1	 1.065685e+00	 1.133167e+00	-2.086630e+01
1	 1.051703e+00	 1.146156e+00	-2.136368e+01
1	 1.037566e+00	 1.158970e+00	-2.203013e+01
1	 1.023277e+00	 1.171604e+00	-2.285964e+01
1	 1.008841e+00	 1.184057e+00	-2.384609e+01
1	 9.942609e-01	 1.196327e+00	-2.498322e+01
1	 1.070760e+00	 1.138563e+00	-2.047816e+01
1	 1.056711e+00	 1.151614e+00	-2.097038e+01
1	 1.042506e+00	 1.164488e+00	-2.163323e+01
1	 1.028150e+00	 1.177183e+00	-2.245950e+01
1	 1.013645e+00	 1.189696e+00	-2.344176e+01
1	 9.989955e-01	 1.202024e+00	-2.457238e+01
1	 1.075835e+00	 1.143959e+00	-2.007000e+01
1	 1.061719e+00	 1.157072e+00	-2.055783e+01
1	 1.047447e+00	 1.170007e+00	-2.121752e+01
1	 1.033023e+00	 1.182762e+00	-2.204053e+01
1	 1.018449e+00	 1.195334e+00	-2.301804e+01
1	 1.003730e+00	 1.207721e+00	-2.414098e+01
1	 1.080909e+00	 1.149355e+00	-1.964183e+01
1	 1.066727e+00	 1.162530e+00	-2.012609e+01
1	 1.052388e+00	 1.175526e+00	-2.078306e+01
1	 1.037896e+00	 1.188341e+00	-2.160279e+01
1	 1.023253e+00	 1.200973e+00	-2.257498e+01
1	 1.008465e+00	 1.213417e+00	-2.368899e+01
1	 1.085984e+00	 1.154751e+00	-1.919363e+01
1	 1.071735e+00	 1.167988e+00	-1.967521e+01
1	 1.057329e+00	 1.181045e+00	-2.032993e+01
1	 1.042768e+00	 1.193920e+00	-2.114636e+01
1	 1.028057e+00	 1.206611e+00	-2.211260e+01
1	 1.013199e+00	 1.219114e+00	-2.321638e+01
1	 1.091059e+00	 1.160147e+00	-1.872542e+01
1	 1.076743e+00	 1.173446e+00	-1.920525e+01
1	 1.062270e+00	 1.186564e+00	-1.985822e+01
1	 1.047641e+00	 1.199499e+00	-2.067130e+01
1	 1.032861e+00	 1.212249e+00	-2.163095e+01
1	 1.017934e+00	 1.224811e+00	-2.272313e+01
1	 9.942609e-01	 1.196327e+00	-2.498322e+01
1	 9.795396e-01	 1.208410e+00	-2.624338e+01
1	 9.646810e-01	 1.220305e+00	-2.760103e+01
1	 9.496887e-01	 1.232008e+00	-2.905292e+01
1	 9.345664e-01	 1.243519e+00	-3.059572e+01
1	 9.193178e-01	 1.254834e+00	-3.222607e+01
1	 9.989955e-01	 1.202024e+00	-2.457238e+01
1	 9.842041e-01	 1.214165e+00	-2.582287e+01
1	 9.692747e-01	 1.226116e+00	-2.716807e+01
1	 9.542110e-01	 1.237875e+00	-2.860517e+01
1	 9.390167e-01	 1.249440e+00	-3.013132e+01
1	 9.236955e-01	 1.260809e+00	-3.174365e+01
1	 1.003730e+00	 1.207721e+00	-2.414098e+01
1	 9.888686e-01	 1.219919e+00	-2.538031e+01
1	 9.738684e-01	 1.231927e+00	-2.671170e+01
1	 9.587333e-01	 1.243742e+00	-2.813287e+01
1	 9.434670e-01	 1.255362e+00	-2.964153e+01
1	 9.280732e-01	 1.266785e+00	-3.123541e+01
1	 1.008465e+00	 1.213417e+00	-2.368899e+01
1	 9.935330e-01	 1.225673e+00	-2.491562e+01
1	 9.784621e-01	 1.237738e+00	-2.623183e+01
1	 9.632557e-01	 1.249608e+00	-2.763596e+01
1	 9.479173e-01	 1.261283e+00	-2.912638e+01
1	 9.324509e-01	 1.272760e+00	-3.070151e+01
1	 1.013199e+00	 1.219114e+00	-2.321638e+01
1	 9.981975e-01	 1.231428e+00	-2.442872e+01
1	 9.830559e-01	 1.243549e+00	-2.572837e+01
1	 9.677780e-01	 1.255475e+00	-2.711439e+01
1	 9.523677e-01	 1.267205e+00	-2.858591e+01
1	 9.368286e-01	 1.278735e+00	-3.014212e+01
1	 1.017934e+00	 1.224811e+00	-2.272313e+01
1	 1.002862e+00	 1.237182e+00	-2.391951e+01
1	 9.876496e-01	 1.249360e+00	-2.520123e+01
1	 9.723003e-01	 1.261342e+00	-2.656812e+01
1	 9.568180e-01	 1.273126e+00	-2.802015e+01
1	 9.412063e-01	 1.284711e+00	-2.955740e+01
1	 9.193178e-01	 1.254834e+00	-3.222607e+01
1	 9.039467e-01	 1.265952e+00	-3.391361e+01
1	 8.884568e-01	 1.276870e+00	-3.562244e+01
1	 8.728521e-01	 1.287588e+00	-3.734055e+01
1	 8.571364e-01	 1.298103e+00	-3.905571e+01
1	 8.413136e-01	 1.308413e+00	-4.075540e+01
1	 9.236955e-01	 1.260809e+00	-3.174365e+01
1	 9.082512e-01	 1.271980e+00	-3.341098e+01
1	 8.926876e-01	 1.282951e+00	-3.509649e+01
1	 8.770086e-01	 1.293719e+00	-3.678858e+01
1	 8.612180e-01	 1.304284e+00	-3.847539e+01
1	 8.453198e-01	 1.314644e+00	-4.014483e+01
1	 9.280732e-01	 1.266785e+00	-3.123541e+01
1	 9.125557e-01	 1.278008e+00	-3.288251e+01
1	 8.969183e-01	 1.289031e+00	-3.454486e+01
1	 8.811650e-01	 1.299851e+00	-3.621099e+01
1	 8.652996e-01	 1.310465e+00	-3.786917e+01
1	 8.493261e-01	 1.320874e+00	-3.950745e+01
1	 9.324509e-01	 1.272760e+00	-3.070151e+01
1	 9.168602e-01	 1.284037e+00	-3.232846e+01
1	 9.011491e-01	 1.295111e+00	-3.396779e+01
1	 8.853214e-01	 1.305982e+00	-3.560791e+01
1	 8.693812e-01	 1.316647e+00	-3.723696e+01
1	 8.533323e-01	 1.327105e+00	-3.884285e+01
1	 9.368286e-01	 1.278735e+00	-3.014212e+01
1	 9.211647e-01	 1.290065e+00	-3.174908e+01
1	 9.053798e-01	 1.301192e+00	-3.336551e+01
1	 8.894779e-01	 1.312113e+00	-3.497945e+01
1	 8.734628e-01	 1.322828e+00	-3.657865e+01
1	 8.573386e-01	 1.333335e+00	-3.815062e+01
1	 9.412063e-01	 1.284711e+00	-2.955740e+01
1	 9.254692e-01	 1.296093e+00	-3.114463e+01
1	 9.096106e-01	 1.307272e+00	-3.273827e+01
1	 8.936343e-01	 1.318245e+00	-3.432574e+01
1	 8.775444e-01	 1.329010e+00	-3.589416e+01
1	 8.613448e-01	 1.339566e+00	-3.743036e+01
1	 8.413136e-01	 1.308413e+00	-4.075540e+01
1	 8.253876e-01	 1.318518e+00	-4.240613e+01
1	 8.093624e-01	 1.328415e+00	-4.398134e+01
1	 7.932420e-01	 1.338103e+00	-4.547877e+01
1	 7.770303e-01	 1.347582e+00	-4.689623e+01
1	 7.607315e-01	 1.356850e+00	-4.823157e+01
1	 8.453198e-01	 1.314644e+00	-4.014483e+01
1	 8.293180e-01	 1.324796e+00	-4.176435e+01
1	 8.132165e-01	 1.334740e+00	-4.330683e+01
1	 7.970193e-01	 1.344475e+00	-4.476818e+01
1	 7.807305e-01	 1.353999e+00	-4.614430e+01
1	 7.643540e-01	 1.363311e+00	-4.743110e+01
1	 8.493261e-01	 1.320874e+00	-3.950745e+01
1	 8.332484e-01	 1.331075e+00	-4.109379e+01
1	 8.170706e-01	 1.341066e+00	-4.260067e+01
1	 8.007966e-01	 1.350847e+00	-4.402275e+01
1	 7.844306e-01	 1.360416e+00	-4.535467e+01
1	 7.679766e-01	 1.369772e+00	-4.659104e+01
1	 8.533323e-01	 1.327105e+00	-3.884285e+01
1	 8.371788e-01	 1.337353e+00	-4.039378e+01
1	 8.209247e-01	 1.347392e+00	-4.186215e+01
1	 8.045740e-01	 1.357219e+00	-4.324195e+01
1	 7.881308e-01	 1.366833e+00	-4.452717e+01
1	 7.715991e-01	 1.376233e+00	-4.571174e+01
1	 8.573386e-01	 1.333335e+00	-3.815062e+01
1	 8.411092e-01	 1.343632e+00	-3.966368e+01
1	 8.247788e-01	 1.353718e+00	-4.109057e+01
1	 8.083513e-01	 1.363591e+00	-4.242525e+01
1	 7.918309e-01	 1.373250e+00	-4.366161e+01
1	 7.752216e-01	 1.382694e+00	-4.479355e+01
1	 8.613448e-01	 1.339566e+00	-3.743036e+01
1	 8.450397e-01	 1.349911e+00	-3.890283e+01
1	 8.286329e-01	 1.360044e+00	-4.028526e+01
1	 8.121287e-01	 1.369963e+00	-4.157211e+01
1	 7.955310e-01	 1.379667e+00	-4.275782e+01
1	 7.788442e-01	 1.389155e+00	-4.383684e+01
1	 7.607315e-01	 1.356850e+00	-4.823157e+01
1	 7.443495e-01	 1.365905e+00	-4.941879e+01
1	 7.278884e-01	 1.374748e+00	-5.040622e+01
1	 7.113522e-01	 1.383377e+00	-5.121356e+01
1	 6.947450e-01	 1.391791e+00	-5.186094e+01
1	 6.780708e-01	 1.399990e+00	-5.236888e+01
1	 7.643540e-01	 1.363311e+00	-4.743110e+01
1	 7.478940e-01	 1.372409e+00	-4.856354e+01
1	 7.313545e-01	 1.381294e+00	-4.949328e+01
1	 7.147396e-01	 1.389964e+00	-5.024176e+01
1	 6.980533e-01	 1.398419e+00	-5.083085e+01
1	 6.812997e-01	 1.406657e+00	-5.128288e+01
1	 7.679766e-01	 1.369772e+00	-4.659104e+01
1	 7.514385e-01	 1.378914e+00	-4.766849e+01
1	 7.348207e-01	 1.387841e+00	-4.854164e+01
1	 7.181270e-01	 1.396552e+00	-4.923240e+01
1	 7.013616e-01	 1.405046e+00	-4.976320e+01
1	 6.845286e-01	 1.413324e+00	-5.015693e+01
1	 7.715991e-01	 1.376233e+00	-4.571174e+01
1	 7.549831e-01	 1.385418e+00	-4.673449e+01
1	 7.382868e-01	 1.394387e+00	-4.755222e+01
1	 7.215144e-01	 1.403139e+00	-4.818619e+01
1	 7.046699e-01	 1.411674e+00	-4.865816e+01
1	 6.877575e-01	 1.419990e+00	-4.899032e+01
1	 7.752216e-01	 1.382694e+00	-4.479355e+01
1	 7.585276e-01	 1.391922e+00	-4.576232e+01
1	 7.417529e-01	 1.400934e+00	-4.652592e+01
1	 7.249018e-01	 1.409727e+00	-4.710381e+01
1	 7.079782e-01	 1.418301e+00	-4.751585e+01
1	 6.909864e-01	 1.426657e+00	-4.778237e+01
1	 7.788442e-01	 1.389155e+00	-4.383684e+01
1	 7.620721e-01	 1.398427e+00	-4.475278e+01
1	 7.452191e-01	 1.407480e+00	-4.546365e+01
1	 7.282891e-01	 1.416314e+00	-4.598592e+01
1	 7.112865e-01	 1.424929e+00	-4.633644e+01
1	 6.942153e-01	 1.433323e+00	-4.653242e+01
1	 6.780708e-01	 1.399990e+00	-5.236888e+01
1	 6.613337e-01	 1.407974e+00	-5.273547e+01
1	 6.445377e-01	 1.415742e+00	-5.294537e+01
1	 6.276869e-01	 1.423293e+00	-5.299914e+01
1	 6.107853e-01	 1.430627e+00	-5.289724e+01
1	 5.938370e-01	 1.437745e+00	-5.264006e+01
1	 6.812997e-01	 1.406657e+00	-5.128288e+01
1	 6.644829e-01	 1.414679e+00	-5.159459e+01
1	 6.476070e-01	 1.422483e+00	-5.174741e+01
1	 6.306759e-01	 1.430070e+00	-5.174092e+01
1	 6.136938e-01	 1.437440e+00	-5.157459e+01
1	 5.966647e-01	 1.444591e+00	-5.124777e+01
1	 6.845286e-01	 1.413324e+00	-5.015693e+01
1	 6.676321e-01	 1.421383e+00	-5.040800e+01
1	 6.506762e-01	 1.429225e+00	-5.049590e+01
1	 6.336649e-01	 1.436848e+00	-5.042137e+01
1	 6.166023e-01	 1.444252e+00	-5.018501e+01
1	 5.994925e-01	 1.451438e+00	-4.978733e+01
1	 6.877575e-01	 1.419990e+00	-4.899032e+01
1	 6.707813e-01	 1.428088e+00	-4.917427e+01
1	 6.537454e-01	 1.435966e+00	-4.918923e+01
1	 6.366539e-01	 1.443625e+00	-4.903914e+01
1	 6.195108e-01	 1.451065e+00	-4.872788e+01
1	 6.023203e-01	 1.458284e+00	-4.825925e+01
1	 6.909864e-01	 1.426657e+00	-4.778237e+01
1	 6.739305e-01	 1.434793e+00	-4.789201e+01
1	 6.568146e-01	 1.442708e+00	-4.782578e+01
1	 6.396429e-01	 1.450403e+00	-4.759289e+01
1	 6.224193e-01	 1.457877e+00	-4.720255e+01
1	 6.051481e-01	 1.465131e+00	-4.666401e+01
1	 6.942153e-01	 1.433323e+00	-4.653242e+01
1	 6.770797e-01	 1.441497e+00	-4.655985e+01
1	 6.598839e-01	 1.449450e+00	-4.640398e+01
1	 6.426319e-01	 1.457181e+00	-4.608130e+01
1	 6.253278e-01	 1.464690e+00	-4.560842e+01
1	 6.079759e-01	 1.471977e+00	-4.500209e+01
1	 5.938370e-01	 1.437745e+00	-5.264006e+01
1	 5.768458e-01	 1.444646e+00	-5.225669e+01
1	 5.598158e-01	 1.451330e+00	-5.178935e+01
1	 5.427510e-01	 1.457798e+00	-5.125814e+01
1	 5.256552e-01	 1.464049e+00	-5.068333e+01
1	 5.085325e-01	 1.470084e+00	-5.008528e+01
1	 5.966647e-01	 1.444591e+00	-5.124777e+01
1	 5.795927e-01	 1.451525e+00	-5.079194e+01
1	 5.624816e-01	 1.458241e+00	-5.025541e+01
1	 5.453355e-01	 1.464740e+00	-4.966287e+01
1	 5.281584e-01	 1.471021e+00	-4.903920e+01
1	 5.109541e-01	 1.477085e+00	-4.840946e+01
1	 5.994925e-01	 1.451438e+00	-4.978733e+01
1	 5.823396e-01	 1.458405e+00	-4.926412e+01
1	 5.651474e-01	 1.465152e+00	-4.866897e+01
1	 5.479200e-01	 1.471682e+00	-4.802922e+01
1	 5.306615e-01	 1.477992e+00	-4.737246e+01
1	 5.133756e-01	 1.484085e+00	-4.672640e+01
1	 6.023203e-01	 1.458284e+00	-4.825925e+01
1	 5.850864e-01	 1.465284e+00	-4.767483e+01
1	 5.678132e-01	 1.472063e+00	-4.703229e+01
1	 5.505046e-01	 1.478623e+00	-4.635973e+01
1	 5.331646e-01	 1.484964e+00	-4.568548e+01
1	 5.157972e-01	 1.491085e+00	-4.503800e+01
1	 6.051481e-01	 1.465131e+00	-4.666401e+01
1	 5.878333e-01	 1.472163e+00	-4.602565e+01
1	 5.704790e-01	 1.478975e+00	-4.534760e+01
1	 5.530891e-01	 1.485565e+00	-4.465687e+01
1	 5.356677e-01	 1.491936e+00	-4.398062e+01
1	 5.182188e-01	 1.498086e+00	-4.334612e+01
1	 6.079759e-01	 1.471977e+00	-4.500209e+01
1	 5.905802e-01	 1.479042e+00	-4.431812e+01
1	 5.731448e-01	 1.485886e+00	-4.361710e+01
1	 5.556736e-01	 1.492507e+00	-4.292307e+01
1	 5.381708e-01	 1.498907e+00	-4.226016e+01
1	 5.206404e-01	 1.505086e+00	-4.165258e+01
1	 5.085325e-01	 1.470084e+00	-5.008528e+01
1	 4.913866e-01	 1.475904e+00	-4.948135e+01
1	 4.742214e-01	 1.481508e+00	-4.889553e+01
1	 4.570408e-01	 1.486898e+00	-4.835817e+01
1	 4.398485e-01	 1.492075e+00	-4.789952e+01
1	 4.226482e-01	 1.497038e+00	-4.754966e+01
1	 5.109541e-01	 1.477085e+00	-4.840946e+01
1	 4.937265e-01	 1.482932e+00	-4.779467e+01
1	 4.764796e-01	 1.488563e+00	-4.721851e+01
1	 4.592172e-01	 1.493979e+00	-4.670994e+01
1	 4.419430e-01	 1.499180e+00	-4.629782e+01
1	 4.246608e-01	 1.504166e+00	-4.601079e+01
1	 5.133756e-01	 1.484085e+00	-4.672640e+01
1	 4.960665e-01	 1.489960e+00	-4.611367e+01
1	 4.787378e-01	 1.495618e+00	-4.555678e+01
1	 4.613936e-01	 1.501059e+00	-4.508331e+01
1	 4.440375e-01	 1.506285e+00	-4.472063e+01
1	 4.266734e-01	 1.511295e+00	-4.449592e+01
1	 5.157972e-01	 1.491085e+00	-4.503800e+01
1	 4.984064e-01	 1.496988e+00	-4.443961e+01
1	 4.809960e-01	 1.502673e+00	-4.391107e+01
1	 4.635699e-01	 1.508140e+00	-4.347848e+01
1	 4.461320e-01	 1.513390e+00	-4.316774e+01
1	 4.286860e-01	 1.518424e+00	-4.300452e+01
1	 5.182188e-01	 1.498086e+00	-4.334612e+01
1	 5.007463e-01	 1.504016e+00	-4.277373e+01
1	 4.832542e-01	 1.509728e+00	-4.228206e+01
1	 4.657463e-01	 1.515220e+00	-4.189567e+01
1	 4.482265e-01	 1.520495e+00	-4.163895e+01
1	 4.306986e-01	 1.525553e+00	-4.153603e+01
1	 5.206404e-01	 1.505086e+00	-4.165258e+01
1	 5.030863e-01	 1.511044e+00	-4.111726e+01
1	 4.855124e-01	 1.516782e+00	-4.067043e+01
1	 4.679227e-01	 1.522301e+00	-4.033511e+01
1	 4.503210e-01	 1.527600e+00	-4.013408e+01
1	 4.327112e-01	 1.532681e+00	-4.008994e+01
1	 4.226482e-01	 1.497038e+00	-4.754966e+01
1	 4.054436e-01	 1.501788e+00	-4.737344e+01
1	 3.882385e-01	 1.506328e+00	-4.739346e+01
1	 3.710363e-01	 1.510657e+00	-4.757624e+01
1	 3.538408e-01	 1.514777e+00	-4.788829e+01
1	 3.366553e-01	 1.518689e+00	-4.829620e+01
1	 4.246608e-01	 1.504166e+00	-4.601079e+01
1	 4.073743e-01	 1.508940e+00	-4.590979e+01
1	 3.900872e-01	 1.513501e+00	-4.601352e+01
1	 3.728032e-01	 1.517851e+00	-4.628701e+01
1	 3.555257e-01	 1.521990e+00	-4.669529e+01
1	 3.382584e-01	 1.525921e+00	-4.720344e+01
1	 4.266734e-01	 1.511295e+00	-4.449592e+01
1	 4.093050e-01	 1.516091e+00	-4.446642e+01
1	 3.919360e-01	 1.520674e+00	-4.464778e+01
1	 3.745700e-01	 1.525044e+00	-4.500459e+01
1	 3.572107e-01	 1.529204e+00	-4.550140e+01
1	 3.398615e-01	 1.533153e+00	-4.610281e+01
1	 4.286860e-01	 1.518424e+00	-4.300452e+01
1	 4.112357e-01	 1.523243e+00	-4.304254e+01
1	 3.937847e-01	 1.527847e+00	-4.329535e+01
1	 3.763368e-01	 1.532238e+00	-4.372808e+01
1	 3.588956e-01	 1.536417e+00	-4.430582e+01
1	 3.414647e-01	 1.540385e+00	-4.499372e+01
1	 4.306986e-01	 1.525553e+00	-4.153603e+01
1	 4.131664e-01	 1.530394e+00	-4.163737e+01
1	 3.956335e-01	 1.535020e+00	-4.195533e+01
1	 3.781037e-01	 1.539432e+00	-4.245658e+01
1	 3.605806e-01	 1.543630e+00	-4.310776e+01
1	 3.430678e-01	 1.547616e+00	-4.387554e+01
1	 4.327112e-01	 1.532681e+00	-4.008994e+01
1	 4.150970e-01	 1.537545e+00	-4.025016e+01
1	 3.974822e-01	 1.542193e+00	-4.062684e+01
1	 3.798705e-01	 1.546625e+00	-4.118922e+01
1	 3.622655e-01	 1.550843e+00	-4.190644e+01
1	 3.446709e-01	 1.554848e+00	-4.274768e+01
1	 3.366553e-01	 1.518689e+00	-4.829620e+01
1	 3.194834e-01	 1.522394e+00	-4.881248e+01
1	 3.023285e-01	 1.525893e+00	-4.945921e+01
1	 2.851939e-01	 1.529189e+00	-5.021750e+01
1	 2.680829e-01	 1.532281e+00	-5.106851e+01
1	 2.509989e-01	 1.535172e+00	-5.199352e+01
1	 3.382584e-01	 1.525921e+00	-4.720344e+01
1	 3.210047e-01	 1.529643e+00	-4.782312e+01
1	 3.037681e-01	 1.533160e+00	-4.857584e+01
1	 2.865519e-01	 1.536470e+00	-4.944160e+01
1	 2.693595e-01	 1.539577e+00	-5.040048e+01
1	 2.521941e-01	 1.542482e+00	-5.143268e+01
1	 3.398615e-01	 1.533153e+00	-4.610281e+01
1	 3.225261e-01	 1.536893e+00	-4.682047e+01
1	 3.052078e-01	 1.540426e+00	-4.767515e+01
1	 2.879100e-01	 1.543752e+00	-4.864530e+01
1	 2.706361e-01	 1.546874e+00	-4.970947e+01
1	 2.533894e-01	 1.549793e+00	-5.084634e+01
1	 3.414647e-01	 1.540385e+00	-4.499372e+01
1	 3.240474e-01	 1.544142e+00	-4.580412e+01
1	 3.066474e-01	 1.547692e+00	-4.675686e+01
1	 2.892681e-01	 1.551034e+00	-4.782839e+01
1	 2.719127e-01	 1.554171e+00	-4.899530e+01
1	 2.545846e-01	 1.557103e+00	-5.023430e+01
1	 3.430678e-01	 1.547616e+00	-4.387554e+01
1	 3.255688e-01	 1.551392e+00	-4.477365e+01
1	 3.080871e-01	 1.554958e+00	-4.582067e+01
1	 2.906261e-01	 1.558316e+00	-4.699065e+01
1	 2.731893e-01	 1.561467e+00	-4.825776e+01
1	 2.557798e-01	 1.564413e+00	-4.959635e+01
1	 3.446709e-01	 1.554848e+00	-4.274768e+01
1	 3.270901e-01	 1.558641e+00	-4.372864e+01
1	 3.095267e-01	 1.562224e+00	-4.486630e+01
1	 2.919842e-01	 1.565598e+00	-4.613186e+01
1	 2.744659e-01	 1.568764e+00	-4.749668e+01
1	 2.569751e-01	 1.571724e+00	-4.893228e+01
1	 2.509989e-01	 1.535172e+00	-5.199352e+01
1	 2.339450e-01	 1.537863e+00	-5.296179e+01
1	 2.169243e-01	 1.540356e+00	-5.393991e+01
1	 1.999400e-01	 1.542653e+00	-5.490543e+01
1	 1.829950e-01	 1.544754e+00	-5.583617e+01
1	 1.660924e-01	 1.546663e+00	-5.671026e+01
1	 2.521941e-01	 1.542482e+00	-5.143268e+01
1	 2.350590e-01	 1.545186e+00	-5.250650e+01
1	 2.179573e-01	 1.547691e+00	-5.358771e+01
1	 2.008921e-01	 1.549999e+00	-5.465302e+01
1	 1.838664e-01	 1.552110e+00	-5.567943e+01
1	 1.668833e-01	 1.554028e+00	-5.664428e+01
1	 2.533894e-01	 1.549793e+00	-5.084634e+01
1	 2.361730e-01	 1.552509e+00	-5.202289e+01
1	 2.189903e-01	 1.555026e+00	-5.320413e+01
1	 2.018442e-01	 1.557345e+00	-5.436611e+01
1	 1.847378e-01	 1.559466e+00	-5.548522e+01
1	 1.676742e-01	 1.561393e+00	-5.653813e+01
1	 2.545846e-01	 1.557103e+00	-5.023430e+01
1	 2.372871e-01	 1.559833e+00	-5.151073e+01
1	 2.200233e-01	 1.562361e+00	-5.278892e+01
1	 2.027963e-01	 1.564691e+00	-5.404447e+01
1	 1.856092e-01	 1.566822e+00	-5.525328e+01
1	 1.684651e-01	 1.568758e+00	-5.639159e+01
1	 2.557798e-01	 1.564413e+00	-4.959635e+01
1	 2.384011e-01	 1.567156e+00	-5.096978e+01
1	 2.210562e-01	 1.569696e+00	-5.234185e+01
1	 2.037484e-01	 1.572036e+00	-5.368784e+01
1	 1.864807e-01	 1.574178e+00	-5.498338e+01
1	 1.692560e-01	 1.576123e+00	-5.620446e+01
1	 2.569751e-01	 1.571724e+00	-4.893228e+01
1	 2.395151e-01	 1.574479e+00	-5.039982e+01
1	 2.220892e-01	 1.577031e+00	-5.186266e+01
1	 2.047005e-01	 1.579382e+00	-5.329599e+01
1	 1.873521e-01	 1.581534e+00	-5.467532e+01
1	 1.700470e-01	 1.583488e+00	-5.597652e+01
1	 1.660924e-01	 1.546663e+00	-5.671026e+01
1	 1.492349e-01	 1.548380e+00	-5.750631e+01
1	 1.324256e-01	 1.549909e+00	-5.820202e+01
1	 1.156670e-01	 1.551249e+00	-5.877469e+01
1	 9.896200e-02	 1.552404e+00	-5.920201e+01
1	 8.231317e-02	 1.553376e+00	-5.946205e+01
1	 1.668833e-01	 1.554028e+00	-5.664428e+01
1	 1.499456e-01	 1.555754e+00	-5.752507e+01
1	 1.330562e-01	 1.557289e+00	-5.829826e+01
1	 1.162178e-01	 1.558636e+00	-5.894016e+01
1	 9.943324e-02	 1.559797e+00	-5.942746e+01
1	 8.270514e-02	 1.560773e+00	-5.973728e+01
1	 1.676742e-01	 1.561393e+00	-5.653813e+01
1	 1.506562e-01	 1.563127e+00	-5.750142e+01
1	 1.336868e-01	 1.564670e+00	-5.835029e+01
1	 1.167686e-01	 1.566023e+00	-5.905998e+01
1	 9.990449e-02	 1.567189e+00	-5.960614e+01
1	 8.309711e-02	 1.568170e+00	-5.996487e+01
1	 1.684651e-01	 1.568758e+00	-5.639159e+01
1	 1.513669e-01	 1.570500e+00	-5.743517e+01
1	 1.343174e-01	 1.572050e+00	-5.835793e+01
1	 1.173194e-01	 1.573410e+00	-5.913398e+01
1	 1.003757e-01	 1.574582e+00	-5.973789e+01
1	 8.348908e-02	 1.575567e+00	-6.014468e+01
1	 1.692560e-01	 1.576123e+00	-5.620446e+01
1	 1.520775e-01	 1.577873e+00	-5.732612e+01
1	 1.349479e-01	 1.579431e+00	-5.832100e+01
1	 1.178702e-01	 1.580797e+00	-5.916201e+01
1	 1.008470e-01	 1.581974e+00	-5.982257e+01
1	 8.388104e-02	 1.582964e+00	-6.027657e+01
1	 1.700470e-01	 1.583488e+00	-5.597652e+01
1	 1.527882e-01	 1.585247e+00	-5.717410e+01
1	 1.355785e-01	 1.586811e+00	-5.823933e+01
1	 1.184210e-01	 1.588184e+00	-5.914391e+01
1	 1.013182e-01	 1.589366e+00	-5.986003e+01
1	 8.427301e-02	 1.590361e+00	-6.036041e+01
1	 8.231317e-02	 1.553376e+00	-5.946205e+01
1	 6.572312e-02	 1.554167e+00	-5.953368e+01
1	 4.919436e-02	 1.554777e+00	-5.940056e+01
1	 3.272934e-02	 1.555211e+00	-5.904854e+01
1	 1.633045e-02	 1.555470e+00	-5.846383e+01
1	 0.000000e+00	 1.555556e+00	-5.763302e+01
1	 8.270514e-02	 1.560773e+00	-5.973728e+01
1	 6.603609e-02	 1.561567e+00	-5.984762e+01
1	 4.942862e-02	 1.562181e+00	-5.974119e+01
1	 3.288519e-02	 1.562617e+00	-5.940272e+01
1	 1.640821e-02	 1.562877e+00	-5.881736e+01
1	 0.000000e+00	 1.562963e+00	-5.797067e+01
1	 8.309711e-02	 1.568170e+00	-5.996487e+01
1	 6.634906e-02	 1.568968e+00	-6.011331e+01
1	 4.966288e-02	 1.569585e+00	-6.003330e+01
1	 3.304105e-02	 1.570023e+00	-5.970863e+01
1	 1.648597e-02	 1.570284e+00	-5.912352e+01
1	 0.000000e+00	 1.570370e+00	-5.826266e+01
1	 8.348908e-02	 1.575567e+00	-6.014468e+01
1	 6.666203e-02	 1.576369e+00	-6.033061e+01
1	 4.989714e-02	 1.576989e+00	-6.027676e+01
1	 3.319690e-02	 1.577429e+00	-5.996613e+01
1	 1.656374e-02	 1.577691e+00	-5.938216e+01
1	 0.000000e+00	 1.577778e+00	-5.850881e+01
1	 8.388104e-02	 1.582964e+00	-6.027657e+01
1	 6.697499e-02	 1.583770e+00	-6.049937e+01
1	 5.013140e-02	 1.584392e+00	-6.047142e+01
1	 3.335276e-02	 1.584834e+00	-6.017505e+01
1	 1.664150e-02	 1.585098e+00	-5.959310e+01
1	 0.000000e+00	 1.585185e+00	-5.870890e+01
1	 8.427301e-02	 1.590361e+00	-6.036041e+01
1	 6.728796e-02	 1.591170e+00	-6.061947e+01
1	 5.036566e-02	 1.591796e+00	-6.061715e+01
1	 3.350861e-02	 1.592240e+00	-6.033527e+01
1	 1.671927e-02	 1.592505e+00	-5.975618e+01
1	 0.000000e+00	 1.592593e+00	-5.886274e+01
1	 1.592593e+00	 0.000000e+00	 1.612613e+01
1	 1.592505e+00	 1.671927e-02	 1.582670e+01
1	 1.592240e+00	 3.350861e-02	 1.549178e+01
1	 1.591796e+00	 5.036566e-02	 1.512478e+01
1	 1.591170e+00	 6.728796e-02	 1.472922e+01
1	 1.590361e+00	 8.427301e-02	 1.430864e+01
1	 1.600000e+00	 0.000000e+00	 1.596560e+01
1	 1.599912e+00	 1.679703e-02	 1.567369e+01
1	 1.599646e+00	 3.366446e-02	 1.534399e+01
1	 1.599200e+00	 5.059991e-02	 1.498007e+01
1	 1.598571e+00	 6.760093e-02	 1.458555e+01
1	 1.597758e+00	 8.466498e-02	 1.416413e+01
1	 1.607407e+00	 0.000000e+00	 1.579924e+01
1	 1.607319e+00	 1.687479e-02	 1.551504e+01
1	 1.607052e+00	 3.382032e-02	 1.519081e+01
1	 1.606603e+00	 5.083417e-02	 1.483026e+01
1	 1.605972e+00	 6.791389e-02	 1.443717e+01
1	 1.605155e+00	 8.505695e-02	 1.401539e+01
1	 1.614815e+00	 0.000000e+00	 1.562700e+01
1	 1.614726e+00	 1.695256e-02	 1.535072e+01
1	 1.614457e+00	 3.397617e-02	 1.503220e+01
1	 1.614007e+00	 5.106843e-02	 1.467532e+01
1	 1.613373e+00	 6.822686e-02	 1.428401e+01
1	 1.612552e+00	 8.544891e-02	 1.386230e+01
1	 1.622222e+00	 0.000000e+00	 1.544882e+01
1	 1.622133e+00	 1.703032e-02	 1.518068e+01
1	 1.621863e+00	 3.413203e-02	 1.486812e+01
1	 1.621411e+00	 5.130269e-02	 1.451518e+01
1	 1.620774e+00	 6.853983e-02	 1.412599e+01
1	 1.619949e+00	 8.584088e-02	 1.370476e+01
1	 1.629630e+00	 0.000000e+00	 1.526463e+01
1	 1.629540e+00	 1.710809e-02	 1.500487e+01
1	 1.629269e+00	 3.428788e-02	 1.469851e+01
1	 1.628814e+00	 5.153695e-02	 1.434979e+01
1	 1.628174e+00	 6.885280e-02	 1.396304e+01
1	 1.627346e+00	 8.623285e-02	 1.354266e+01
1	 1.590361e+00	 8.427301e-02	 1.430864e+01
1	 1.589366e+00	 1.013182e-01	 1.386642e+01
1	 1.588184e+00	 1.184210e-01	 1.340691e+01
1	 1.586811e+00	 1.355785e-01	 1.293517e+01
1	 1.585247e+00	 1.527882e-01	 1.245629e+01
1	 1.583488e+00	 1.700470e-01	 1.197536e+01
1	 1.597758e+00	 8.466498e-02	 1.416413e+01
1	 1.596759e+00	 1.017895e-01	 1.371906e+01
1	 1.595571e+00	 1.189718e-01	 1.325460e+01
1	 1.594192e+00	 1.362091e-01	 1.277604e+01
1	 1.592620e+00	 1.534988e-01	 1.228869e+01
1	 1.590853e+00	 1.708379e-01	 1.179783e+01
1	 1.605155e+00	 8.505695e-02	 1.401539e+01
1	 1.604151e+00	 1.022607e-01	 1.356803e+01
1	 1.602958e+00	 1.195226e-01	 1.309927e+01
1	 1.601572e+00	 1.368397e-01	 1.261457e+01
1	 1.599993e+00	 1.542094e-01	 1.211944e+01
1	 1.598218e+00	 1.716288e-01	 1.161937e+01
1	 1.612552e+00	 8.544891e-02	 1.386230e+01
1	 1.611544e+00	 1.027320e-01	 1.341319e+01
1	 1.610344e+00	 1.200734e-01	 1.294074e+01
1	 1.608953e+00	 1.374703e-01	 1.245059e+01
1	 1.607366e+00	 1.549201e-01	 1.194840e+01
1	 1.605583e+00	 1.724197e-01	 1.143983e+01
1	 1.619949e+00	 8.584088e-02	 1.370476e+01
1	 1.618936e+00	 1.032032e-01	 1.325440e+01
1	 1.617731e+00	 1.206242e-01	 1.277887e+01
1	 1.616333e+00	 1.381009e-01	 1.228393e+01
1	 1.614740e+00	 1.556307e-01	 1.177539e+01
1	 1.612949e+00	 1.732106e-01	 1.125909e+01
1	 1.627346e+00	 8.623285e-02	 1.354266e+01
1	 1.626328e+00	 1.036745e-01	 1.309154e+01
1	 1.625118e+00	 1.211750e-01	 1.261349e+01
1	 1.623714e+00	 1.387315e-01	 1.211443e+01
1	 1.622113e+00	 1.563414e-01	 1.160028e+01
1	 1.620314e+00	 1.740015e-01	 1.107700e+01
1	 1.583488e+00	 1.700470e-01	 1.197536e+01
1	 1.581534e+00	 1.873521e-01	 1.149749e+01
1	 1.579382e+00	 2.047005e-01	 1.102708e+01
1	 1.577031e+00	 2.220892e-01	 1.056811e+01
1	 1.574479e+00	 2.395151e-01	 1.012456e+01
1	 1.571724e+00	 2.569751e-01	 9.700378e+00
1	 1.590853e+00	 1.708379e-01	 1.179783e+01
1	 1.588890e+00	 1.882235e-01	 1.130897e+01
1	 1.586728e+00	 2.056526e-01	 1.082678e+01
1	 1.584366e+00	 2.231222e-01	 1.035532e+01
1	 1.581802e+00	 2.406291e-01	 9.898613e+00
1	 1.579034e+00	 2.581703e-01	 9.460713e+00
1	 1.598218e+00	 1.716288e-01	 1.161937e+01
1	 1.596246e+00	 1.890949e-01	 1.112024e+01
1	 1.594074e+00	 2.066047e-01	 1.062703e+01
1	 1.591701e+00	 2.241551e-01	 1.014389e+01
1	 1.589125e+00	 2.417432e-01	 9.674940e+00
1	 1.586344e+00	 2.593655e-01	 9.224322e+00
1	 1.605583e+00	 1.724197e-01	 1.143983e+01
1	 1.603602e+00	 1.899663e-01	 1.093116e+01
1	 1.601420e+00	 2.075568e-01	 1.042768e+01
1	 1.599036e+00	 2.251881e-01	 9.933650e+00
1	 1.596448e+00	 2.428572e-01	 9.453306e+00
1	 1.593655e+00	 2.605608e-01	 8.990887e+00
1	 1.612949e+00	 1.732106e-01	 1.125909e+01
1	 1.610958e+00	 1.908377e-01	 1.074161e+01
1	 1.608766e+00	 2.085089e-01	 1.022860e+01
1	 1.606371e+00	 2.262211e-01	 9.724440e+00
1	 1.603771e+00	 2.439712e-01	 9.233485e+00
1	 1.600965e+00	 2.617560e-01	 8.760095e+00
1	 1.620314e+00	 1.740015e-01	 1.107700e+01
1	 1.618314e+00	 1.917091e-01	 1.055147e+01
1	 1.616112e+00	 2.094610e-01	 1.002967e+01
1	 1.613706e+00	 2.272541e-01	 9.516091e+00
1	 1.611095e+00	 2.450852e-01	 9.015252e+00
1	 1.608275e+00	 2.629512e-01	 8.531641e+00
1	 1.571724e+00	 2.569751e-01	 9.700378e+00
1	 1.568764e+00	 2.744659e-01	 9.306686e+00
1	 1.565598e+00	 2.919842e-01	 8.954682e+00
1	 1.562224e+00	 3.095267e-01	 8.648353e+00
1	 1.558641e+00	 3.270901e-01	 8.391561e+00
1	 1.554848e+00	 3.446709e-01	 8.188037e+00
1	 1.579034e+00	 2.581703e-01	 9.460713e+00
1	 1.576060e+00	 2.757424e-01	 9.052492e+00
1	 1.572880e+00	 2.933423e-01	 8.685165e+00
1	 1.569490e+00	 3.109664e-01	 8.363174e+00
1	 1.565891e+00	 3.286115e-01	 8.090827e+00
1	 1.562080e+00	 3.462740e-01	 7.872289e+00
1	 1.586344e+00	 2.593655e-01	 9.224322e+00
1	 1.583357e+00	 2.770190e-01	 8.802609e+00
1	 1.580161e+00	 2.947003e-01	 8.420926e+00
1	 1.576756e+00	 3.124061e-01	 8.084122e+00
1	 1.573140e+00	 3.301328e-01	 7.796904e+00
1	 1.569312e+00	 3.478771e-01	 7.563834e+00
1	 1.593655e+00	 2.605608e-01	 8.990887e+00
1	 1.590653e+00	 2.782956e-01	 8.556648e+00
1	 1.587443e+00	 2.960584e-01	 8.161563e+00
1	 1.584023e+00	 3.138457e-01	 7.810836e+00
1	 1.580390e+00	 3.316542e-01	 7.509531e+00
1	 1.576544e+00	 3.494803e-01	 7.262569e+00
1	 1.600965e+00	 2.617560e-01	 8.760095e+00
1	 1.597950e+00	 2.795722e-01	 8.314228e+00
1	 1.594725e+00	 2.974165e-01	 7.906679e+00
1	 1.591289e+00	 3.152854e-01	 7.542960e+00
1	 1.587639e+00	 3.331755e-01	 7.228452e+00
1	 1.583776e+00	 3.510834e-01	 6.968395e+00
1	 1.608275e+00	 2.629512e-01	 8.531641e+00
1	 1.605247e+00	 2.808488e-01	 8.074974e+00
1	 1.602007e+00	 2.987745e-01	 7.655884e+00
1	 1.598555e+00	 3.167250e-01	 7.280146e+00
1	 1.594889e+00	 3.346969e-01	 6.953414e+00
1	 1.591008e+00	 3.526865e-01	 6.681212e+00
1	 1.554848e+00	 3.446709e-01	 8.188037e+00
1	 1.550843e+00	 3.622655e-01	 8.024106e+00
1	 1.546625e+00	 3.798705e-01	 7.886435e+00
1	 1.542193e+00	 3.974822e-01	 7.779101e+00
1	 1.537545e+00	 4.150970e-01	 7.706084e+00
1	 1.532681e+00	 4.327112e-01	 7.671261e+00
1	 1.562080e+00	 3.462740e-01	 7.872289e+00
1	 1.558056e+00	 3.639505e-01	 7.694468e+00
1	 1.553819e+00	 3.816374e-01	 7.544111e+00
1	 1.549366e+00	 3.993310e-01	 7.424983e+00
1	 1.544697e+00	 4.170277e-01	 7.340775e+00
1	 1.539810e+00	 4.347238e-01	 7.295093e+00
1	 1.569312e+00	 3.478771e-01	 7.563834e+00
1	 1.565270e+00	 3.656355e-01	 7.372529e+00
1	 1.561012e+00	 3.834042e-01	 7.210009e+00
1	 1.556539e+00	 4.011798e-01	 7.079775e+00
1	 1.551848e+00	 4.189584e-01	 6.985261e+00
1	 1.546939e+00	 4.367364e-01	 6.929830e+00
1	 1.576544e+00	 3.494803e-01	 7.262569e+00
1	 1.572483e+00	 3.673204e-01	 7.058330e+00
1	 1.568206e+00	 3.851710e-01	 6.884214e+00
1	 1.563712e+00	 4.030285e-01	 6.743503e+00
1	 1.558999e+00	 4.208891e-01	 6.639416e+00
1	 1.554068e+00	 4.387491e-01	 6.575096e+00
1	 1.583776e+00	 3.510834e-01	 6.968395e+00
1	 1.579696e+00	 3.690054e-01	 6.751908e+00
1	 1.575400e+00	 3.869379e-01	 6.566805e+00
1	 1.570885e+00	 4.048773e-01	 6.416197e+00
1	 1.566151e+00	 4.228198e-01	 6.303119e+00
1	 1.561196e+00	 4.407617e-01	 6.230519e+00
1	 1.591008e+00	 3.526865e-01	 6.681212e+00
1	 1.586909e+00	 3.706903e-01	 6.453301e+00
1	 1.582593e+00	 3.887047e-01	 6.257863e+00
1	 1.578058e+00	 4.067260e-01	 6.097883e+00
1	 1.573302e+00	 4.247505e-01	 5.976248e+00
1	 1.568325e+00	 4.427743e-01	 5.895735e+00
1	 1.532681e+00	 4.327112e-01	 7.671261e+00
1	 1.527600e+00	 4.503210e-01	 7.662404e+00
1	 1.522301e+00	 4.679227e-01	 7.661125e+00
1	 1.516782e+00	 4.855124e-01	 7.661918e+00
1	 1.511044e+00	 5.030863e-01	 7.659211e+00
1	 1.505086e+00	 5.206404e-01	 7.647381e+00
1	 1.539810e+00	 4.347238e-01	 7.295093e+00
1	 1.534705e+00	 4.524156e-01	 7.276016e+00
1	 1.529381e+00	 4.700991e-01	 7.265698e+00
1	 1.523837e+00	 4.877706e-01	 7.258714e+00
1	 1.518073e+00	 5.054262e-01	 7.249559e+00
1	 1.512087e+00	 5.230620e-01	 7.232654e+00
1	 1.546939e+00	 4.367364e-01	 6.929830e+00
1	 1.541810e+00	 4.545101e-01	 6.901735e+00
1	 1.536462e+00	 4.722755e-01	 6.883477e+00
1	 1.530892e+00	 4.900288e-01	 6.869658e+00
1	 1.525101e+00	 5.077662e-01	 6.854797e+00
1	 1.519087e+00	 5.254836e-01	 6.833332e+00
1	 1.554068e+00	 4.387491e-01	 6.575096e+00
1	 1.548915e+00	 4.566046e-01	 6.538940e+00
1	 1.543542e+00	 4.744519e-01	 6.513719e+00
1	 1.537947e+00	 4.922870e-01	 6.494007e+00
1	 1.532129e+00	 5.101061e-01	 6.474304e+00
1	 1.526087e+00	 5.279051e-01	 6.449040e+00
1	 1.561196e+00	 4.407617e-01	 6.230519e+00
1	 1.556021e+00	 4.586991e-01	 6.187022e+00
1	 1.550623e+00	 4.766283e-01	 6.155695e+00
1	 1.545002e+00	 4.945452e-01	 6.131031e+00
1	 1.539157e+00	 5.124460e-01	 6.107473e+00
1	 1.533088e+00	 5.303267e-01	 6.079413e+00
1	 1.568325e+00	 4.427743e-01	 5.895735e+00
1	 1.563126e+00	 4.607936e-01	 5.845383e+00
1	 1.557703e+00	 4.788046e-01	 5.808689e+00
1	 1.552056e+00	 4.968034e-01	 5.780016e+00
1	 1.546185e+00	 5.147860e-01	 5.753705e+00
1	 1.540088e+00	 5.327483e-01	 5.724090e+00
1	 1.505086e+00	 5.206404e-01	 7.647381e+00
1	 1.498907e+00	 5.381708e-01	 7.616869e+00
1	 1.492507e+00	 5.556736e-01	 7.560429e+00
1	 1.485886e+00	 5.731448e-01	 7.476147e+00
1	 1.479042e+00	 5.905802e-01	 7.362482e+00
1	 1.471977e+00	 6.079759e-01	 7.218278e+00
1	 1.512087e+00	 5.230620e-01	 7.232654e+00
1	 1.505879e+00	 5.406740e-01	 7.199879e+00
1	 1.499449e+00	 5.582581e-01	 7.145478e+00
1	 1.492797e+00	 5.758105e-01	 7.067575e+00
1	 1.485922e+00	 5.933271e-01	 6.964591e+00
1	 1.478823e+00	 6.108037e-01	 6.835246e+00
1	 1.519087e+00	 5.254836e-01	 6.833332e+00
1	 1.512851e+00	 5.431771e-01	 6.798284e+00
1	 1.506391e+00	 5.608427e-01	 6.745102e+00
1	 1.499708e+00	 5.784763e-01	 6.671968e+00
1	 1.492801e+00	 5.960740e-01	 6.577278e+00
1	 1.485670e+00	 6.136315e-01	 6.459648e+00
1	 1.526087e+00	 5.279051e-01	 6.449040e+00
1	 1.519822e+00	 5.456802e-01	 6.412035e+00
1	 1.513333e+00	 5.634272e-01	 6.359620e+00
1	 1.506619e+00	 5.811421e-01	 6.290046e+00
1	 1.499680e+00	 5.988209e-01	 6.201702e+00
1	 1.492516e+00	 6.164593e-01	 6.093121e+00
1	 1.533088e+00	 5.303267e-01	 6.079413e+00
1	 1.526794e+00	 5.481833e-01	 6.041088e+00
1	 1.520275e+00	 5.660117e-01	 5.989344e+00
1	 1.513530e+00	 5.838079e-01	 5.922515e+00
1	 1.506559e+00	 6.015677e-01	 5.838999e+00
1	 1.499363e+00	 6.192871e-01	 5.737271e+00
1	 1.540088e+00	 5.327483e-01	 5.724090e+00
1	 1.533766e+00	 5.506864e-01	 5.685398e+00
1	 1.527217e+00	 5.685963e-01	 5.634582e+00
1	 1.520441e+00	 5.864737e-01	 5.570069e+00
1	 1.513439e+00	 6.043146e-01	 5.490289e+00
1	 1.506209e+00	 6.221149e-01	 5.393675e+00
1	 1.471977e+00	 6.079759e-01	 7.218278e+00
1	 1.464690e+00	 6.253278e-01	 7.003243e+00
1	 1.457181e+00	 6.426319e-01	 6.677190e+00
1	 1.449450e+00	 6.598839e-01	 6.239584e+00
1	 1.441497e+00	 6.770797e-01	 5.690102e+00
1	 1.433323e+00	 6.942153e-01	 5.028644e+00
1	 1.478823e+00	 6.108037e-01	 6.835246e+00
1	 1.471502e+00	 6.282363e-01	 6.638494e+00
1	 1.463958e+00	 6.456208e-01	 6.333226e+00
1	 1.456191e+00	 6.629531e-01	 5.918562e+00
1	 1.448202e+00	 6.802289e-01	 5.393978e+00
1	 1.439990e+00	 6.974442e-01	 4.759314e+00
1	 1.485670e+00	 6.136315e-01	 6.459648e+00
1	 1.478315e+00	 6.311448e-01	 6.278182e+00
1	 1.470736e+00	 6.486098e-01	 5.991798e+00
1	 1.462933e+00	 6.660223e-01	 5.599344e+00
1	 1.454906e+00	 6.833781e-01	 5.100133e+00
1	 1.446657e+00	 7.006731e-01	 4.493952e+00
1	 1.492516e+00	 6.164593e-01	 6.093121e+00
1	 1.485127e+00	 6.340533e-01	 5.924300e+00
1	 1.477513e+00	 6.515988e-01	 5.654971e+00
1	 1.469675e+00	 6.690915e-01	 5.283783e+00
1	 1.461611e+00	 6.865274e-01	 4.809925e+00
1	 1.453323e+00	 7.039021e-01	 4.233134e+00
1	 1.499363e+00	 6.192871e-01	 5.737271e+00
1	 1.491940e+00	 6.369618e-01	 5.578802e+00
1	 1.484291e+00	 6.545878e-01	 5.324772e+00
1	 1.476416e+00	 6.721608e-01	 4.973699e+00
1	 1.468316e+00	 6.896766e-01	 4.524685e+00
1	 1.459990e+00	 7.071310e-01	 3.977424e+00
1	 1.506209e+00	 6.221149e-01	 5.393675e+00
1	 1.498752e+00	 6.398703e-01	 5.243608e+00
1	 1.491069e+00	 6.575768e-01	 5.003188e+00
1	 1.483158e+00	 6.752300e-01	 4.670877e+00
1	 1.475020e+00	 6.928258e-01	 4.245722e+00
1	 1.466657e+00	 7.103599e-01	 3.727375e+00
1	 1.433323e+00	 6.942153e-01	 5.028644e+00
1	 1.424929e+00	 7.112865e-01	 4.255785e+00
1	 1.416314e+00	 7.282891e-01	 3.374051e+00
1	 1.407480e+00	 7.452191e-01	 2.386761e+00
1	 1.398427e+00	 7.620721e-01	 1.297672e+00
1	 1.389155e+00	 7.788442e-01	 1.109722e-01
1	 1.439990e+00	 6.974442e-01	 4.759314e+00
1	 1.431557e+00	 7.145948e-01	 4.015548e+00
1	 1.422902e+00	 7.316765e-01	 3.165628e+00
1	 1.414026e+00	 7.486852e-01	 2.212900e+00
1	 1.404931e+00	 7.656166e-01	 1.161082e+00
1	 1.395617e+00	 7.824667e-01	 1.426192e-02
1	 1.446657e+00	 7.006731e-01	 4.493952e+00
1	 1.438184e+00	 7.179031e-01	 3.781416e+00
1	 1.429489e+00	 7.350639e-01	 2.965061e+00
1	 1.420573e+00	 7.521513e-01	 2.048168e+00
1	 1.411435e+00	 7.691612e-01	 1.034358e+00
1	 1.402078e+00	 7.860892e-01	-7.241185e-02
1	 1.453323e+00	 7.039021e-01	 4.233134e+00
1	 1.444812e+00	 7.212114e-01	 3.553171e+00
1	 1.436077e+00	 7.384513e-01	 2.771606e+00
1	 1.427119e+00	 7.556175e-01	 1.891562e+00
1	 1.417940e+00	 7.727057e-01	 9.165048e-01
1	 1.408539e+00	 7.897117e-01	-1.497659e-01
1	 1.459990e+00	 7.071310e-01	 3.977424e+00
1	 1.451439e+00	 7.245198e-01	 3.330598e+00
1	 1.442664e+00	 7.418387e-01	 2.584530e+00
1	 1.433666e+00	 7.590836e-01	 1.742096e+00
1	 1.424444e+00	 7.762502e-01	 8.065451e-01
1	 1.415000e+00	 7.933343e-01	-2.185039e-01
1	 1.466657e+00	 7.103599e-01	 3.727375e+00
1	 1.458067e+00	 7.278281e-01	 3.113487e+00
1	 1.449252e+00	 7.452261e-01	 2.403115e+00
1	 1.440212e+00	 7.625497e-01	 1.598801e+00
1	 1.430948e+00	 7.797947e-01	 7.035192e-01
1	 1.421461e+00	 7.969568e-01	-2.793169e-01
1	 1.389155e+00	 7.788442e-01	 1.109722e-01
1	 1.379667e+00	 7.955310e-01	-1.124148e+00
1	 1.369963e+00	 8.121287e-01	-2.362670e+00
1	 1.360044e+00	 8.286329e-01	-3.606612e+00
1	 1.349911e+00	 8.450397e-01	-4.858364e+00
1	 1.339566e+00	 8.613448e-01	-6.120682e+00
1	 1.395617e+00	 7.824667e-01	 1.426192e-02
1	 1.386084e+00	 7.992312e-01	-1.181130e+00
1	 1.376335e+00	 8.159060e-01	-2.382619e+00
1	 1.366369e+00	 8.324870e-01	-3.592036e+00
1	 1.356189e+00	 8.489701e-01	-4.811561e+00
1	 1.345796e+00	 8.653511e-01	-6.043714e+00
1	 1.402078e+00	 7.860892e-01	-7.241185e-02
1	 1.392501e+00	 8.029313e-01	-1.228198e+00
1	 1.382707e+00	 8.196834e-01	-2.392739e+00
1	 1.372695e+00	 8.363411e-01	-3.567603e+00
1	 1.362468e+00	 8.529005e-01	-4.754697e+00
1	 1.352027e+00	 8.693573e-01	-5.956262e+00
1	 1.408539e+00	 7.897117e-01	-1.497659e-01
1	 1.398918e+00	 8.066315e-01	-1.265713e+00
1	 1.389079e+00	 8.234607e-01	-2.393151e+00
1	 1.379021e+00	 8.401952e-01	-3.533311e+00
1	 1.368747e+00	 8.568309e-01	-4.687766e+00
1	 1.358257e+00	 8.733636e-01	-5.858432e+00
1	 1.415000e+00	 7.933343e-01	-2.185039e-01
1	 1.405335e+00	 8.103316e-01	-1.294030e+00
1	 1.395451e+00	 8.272380e-01	-2.383975e+00
1	 1.385347e+00	 8.440493e-01	-3.489160e+00
1	 1.375025e+00	 8.607613e-01	-4.610764e+00
1	 1.364488e+00	 8.773699e-01	-5.750332e+00
1	 1.421461e+00	 7.969568e-01	-2.793169e-01
1	 1.411752e+00	 8.140318e-01	-1.313496e+00
1	 1.401822e+00	 8.310154e-01	-2.365328e+00
1	 1.391673e+00	 8.479034e-01	-3.435146e+00
1	 1.381304e+00	 8.646917e-01	-4.523684e+00
1	 1.370718e+00	 8.813761e-01	-5.632067e+00
1	 1.339566e+00	 8.613448e-01	-6.120682e+00
1	 1.329010e+00	 8.775444e-01	-7.365534e+00
1	 1.318245e+00	 8.936343e-01	-8.563174e+00
1	 1.307272e+00	 9.096106e-01	-9.714254e+00
1	 1.296093e+00	 9.254692e-01	-1.081968e+01
1	 1.284711e+00	 9.412063e-01	-1.188061e+01
1	 1.345796e+00	 8.653511e-01	-6.043714e+00
1	 1.335191e+00	 8.816260e-01	-7.259913e+00
1	 1.324376e+00	 8.977908e-01	-8.430206e+00
1	 1.313352e+00	 9.138413e-01	-9.555542e+00
1	 1.302122e+00	 9.297737e-01	-1.063716e+01
1	 1.290686e+00	 9.455840e-01	-1.167658e+01
1	 1.352027e+00	 8.693573e-01	-5.956262e+00
1	 1.341373e+00	 8.857076e-01	-7.143309e+00
1	 1.330507e+00	 9.019472e-01	-8.285886e+00
1	 1.319433e+00	 9.180721e-01	-9.385272e+00
1	 1.308150e+00	 9.340782e-01	-1.044306e+01
1	 1.296662e+00	 9.499617e-01	-1.146116e+01
1	 1.358257e+00	 8.733636e-01	-5.858432e+00
1	 1.347554e+00	 8.897892e-01	-7.015973e+00
1	 1.336639e+00	 9.061036e-01	-8.130539e+00
1	 1.325513e+00	 9.223028e-01	-9.203776e+00
1	 1.314178e+00	 9.383827e-01	-1.023766e+01
1	 1.302637e+00	 9.543394e-01	-1.123449e+01
1	 1.364488e+00	 8.773699e-01	-5.750332e+00
1	 1.353736e+00	 8.938708e-01	-6.878150e+00
1	 1.342770e+00	 9.102601e-01	-7.964485e+00
1	 1.331593e+00	 9.265336e-01	-9.011380e+00
1	 1.320207e+00	 9.426873e-01	-1.002122e+01
1	 1.308612e+00	 9.587171e-01	-1.099673e+01
1	 1.370718e+00	 8.813761e-01	-5.632067e+00
1	 1.359917e+00	 8.979524e-01	-6.730081e+00
1	 1.348901e+00	 9.144165e-01	-7.788036e+00
1	 1.337674e+00	 9.307643e-01	-8.808407e+00
1	 1.326235e+00	 9.469918e-01	-9.794010e+00
1	 1.314588e+00	 9.630948e-01	-1.074800e+01
1	 1.284711e+00	 9.412063e-01	-1.188061e+01
1	 1.273126e+00	 9.568180e-01	-1.287123e+01
1	 1.261342e+00	 9.723003e-01	-1.376673e+01
1	 1.249360e+00	 9.876496e-01	-1.457010e+01
1	 1.237182e+00	 1.002862e+00	-1.528444e+01
1	 1.224811e+00	 1.017934e+00	-1.591295e+01
1	 1.290686e+00	 9.455840e-01	-1.167658e+01
1	 1.279048e+00	 9.612683e-01	-1.264731e+01
1	 1.267209e+00	 9.768227e-01	-1.352304e+01
1	 1.255171e+00	 9.922433e-01	-1.430586e+01
1	 1.242936e+00	 1.007526e+00	-1.499790e+01
1	 1.230508e+00	 1.022668e+00	-1.560134e+01
1	 1.296662e+00	 9.499617e-01	-1.146116e+01
1	 1.284969e+00	 9.657186e-01	-1.241205e+01
1	 1.273075e+00	 9.813450e-01	-1.326761e+01
1	 1.260982e+00	 9.968370e-01	-1.402906e+01
1	 1.248691e+00	 1.012191e+00	-1.469759e+01
1	 1.236205e+00	 1.027403e+00	-1.527439e+01
1	 1.302637e+00	 9.543394e-01	-1.123449e+01
1	 1.290891e+00	 9.701689e-01	-1.216549e+01
1	 1.278942e+00	 9.858673e-01	-1.300042e+01
1	 1.266793e+00	 1.001431e+00	-1.373966e+01
1	 1.254445e+00	 1.016855e+00	-1.438353e+01
1	 1.241901e+00	 1.032138e+00	-1.493226e+01
1	 1.308612e+00	 9.587171e-01	-1.099673e+01
1	 1.296812e+00	 9.746192e-01	-1.190763e+01
1	 1.284809e+00	 9.903896e-01	-1.272142e+01
1	 1.272604e+00	 1.006024e+00	-1.343765e+01
1	 1.260199e+00	 1.021520e+00	-1.405577e+01
1	 1.247598e+00	 1.036872e+00	-1.457513e+01
1	 1.314588e+00	 9.630948e-01	-1.074800e+01
1	 1.302734e+00	 9.790695e-01	-1.163849e+01
1	 1.290675e+00	 9.949120e-01	-1.243056e+01
1	 1.278414e+00	 1.010618e+00	-1.312298e+01
1	 1.265954e+00	 1.026184e+00	-1.371435e+01
1	 1.253295e+00	 1.041607e+00	-1.420317e+01
1	 1.224811e+00	 1.017934e+00	-1.591295e+01
1	 1.212249e+00	 1.032861e+00	-1.644196e+01
1	 1.199499e+00	 1.047641e+00	-1.685948e+01
1	 1.186564e+00	 1.062270e+00	-1.717158e+01
1	 1.173446e+00	 1.076743e+00	-1.738466e+01
1	 1.160147e+00	 1.091059e+00	-1.750548e+01
1	 1.230508e+00	 1.022668e+00	-1.560134e+01
1	 1.217888e+00	 1.037665e+00	-1.610312e+01
1	 1.205079e+00	 1.052514e+00	-1.649339e+01
1	 1.192083e+00	 1.067210e+00	-1.677954e+01
1	 1.178904e+00	 1.081751e+00	-1.696940e+01
1	 1.165544e+00	 1.096133e+00	-1.707125e+01
1	 1.236205e+00	 1.027403e+00	-1.527439e+01
1	 1.223526e+00	 1.042469e+00	-1.574764e+01
1	 1.210658e+00	 1.057387e+00	-1.611022e+01
1	 1.197602e+00	 1.072151e+00	-1.637075e+01
1	 1.184362e+00	 1.086759e+00	-1.653845e+01
1	 1.170940e+00	 1.101208e+00	-1.662304e+01
1	 1.241901e+00	 1.032138e+00	-1.493226e+01
1	 1.229164e+00	 1.047273e+00	-1.537584e+01
1	 1.216237e+00	 1.062259e+00	-1.571036e+01
1	 1.203121e+00	 1.077092e+00	-1.594566e+01
1	 1.189819e+00	 1.091768e+00	-1.609223e+01
1	 1.176336e+00	 1.106283e+00	-1.616119e+01
1	 1.247598e+00	 1.036872e+00	-1.457513e+01
1	 1.234803e+00	 1.052077e+00	-1.498803e+01
1	 1.221816e+00	 1.067132e+00	-1.529421e+01
1	 1.208640e+00	 1.082033e+00	-1.550468e+01
1	 1.195277e+00	 1.096776e+00	-1.563114e+01
1	 1.181732e+00	 1.111357e+00	-1.568602e+01
1	 1.253295e+00	 1.041607e+00	-1.420317e+01
1	 1.240441e+00	 1.056881e+00	-1.458451e+01
1	 1.227395e+00	 1.072005e+00	-1.486217e+01
1	 1.214159e+00	 1.086974e+00	-1.504823e+01
1	 1.200735e+00	 1.101784e+00	-1.515556e+01
1	 1.187128e+00	 1.116432e+00	-1.519784e+01
1	 1.160147e+00	 1.091059e+00	-1.750548e+01
1	 1.146672e+00	 1.105212e+00	-1.761927e+01
1	 1.133022e+00	 1.119201e+00	-1.780332e+01
1	 1.119201e+00	 1.133022e+00	-1.805257e+01
1	 1.105212e+00	 1.146672e+00	-1.836174e+01
1	 1.091059e+00	 1.160147e+00	-1.872542e+01
1	 1.165544e+00	 1.096133e+00	-1.707125e+01
1	 1.152005e+00	 1.110353e+00	-1.716988e+01
1	 1.138292e+00	 1.124407e+00	-1.734128e+01
1	 1.124407e+00	 1.138292e+00	-1.758070e+01
1	 1.110353e+00	 1.152005e+00	-1.788317e+01
1	 1.096133e+00	 1.165544e+00	-1.824356e+01
1	 1.170940e+00	 1.101208e+00	-1.662304e+01
1	 1.157339e+00	 1.115493e+00	-1.670842e+01
1	 1.143562e+00	 1.129613e+00	-1.686884e+01
1	 1.129613e+00	 1.143562e+00	-1.709977e+01
1	 1.115493e+00	 1.157339e+00	-1.739649e+01
1	 1.101208e+00	 1.170940e+00	-1.775410e+01
1	 1.176336e+00	 1.106283e+00	-1.616119e+01
1	 1.162672e+00	 1.120634e+00	-1.623511e+01
1	 1.148832e+00	 1.134818e+00	-1.638605e+01
1	 1.134818e+00	 1.148832e+00	-1.660969e+01
1	 1.120634e+00	 1.162672e+00	-1.690145e+01
1	 1.106283e+00	 1.176336e+00	-1.725657e+01
1	 1.181732e+00	 1.111357e+00	-1.568602e+01
1	 1.168005e+00	 1.125775e+00	-1.575014e+01
1	 1.154102e+00	 1.140024e+00	-1.589301e+01
1	 1.140024e+00	 1.154102e+00	-1.611038e+01
1	 1.125775e+00	 1.168005e+00	-1.639778e+01
1	 1.111357e+00	 1.181732e+00	-1.675051e+01
1	 1.187128e+00	 1.116432e+00	-1.519784e+01
1	 1.173339e+00	 1.130915e+00	-1.525373e+01
1	 1.159372e+00	 1.145229e+00	-1.538976e+01
1	 1.145229e+00	 1.159372e+00	-1.560174e+01
1	 1.130915e+00	 1.173339e+00	-1.588520e+01
1	 1.116432e+00	 1.187128e+00	-1.623546e+01
1	 1.091059e+00	 1.160147e+00	-1.872542e+01
1	 1.076743e+00	 1.173446e+00	-1.920525e+01
1	 1.062270e+00	 1.186564e+00	-1.985822e+01
1	 1.047641e+00	 1.199499e+00	-2.067130e+01
1	 1.032861e+00	 1.212249e+00	-2.163095e+01
1	 1.017934e+00	 1.224811e+00	-2.272313e+01
1	 1.096133e+00	 1.165544e+00	-1.824356e+01
1	 1.081751e+00	 1.178904e+00	-1.872204e+01
1	 1.067210e+00	 1.192083e+00	-1.937297e+01
1	 1.052514e+00	 1.205079e+00	-2.018185e+01
1	 1.037665e+00	 1.217888e+00	-2.113359e+01
1	 1.022668e+00	 1.230508e+00	-2.221251e+01
1	 1.101208e+00	 1.170940e+00	-1.775410e+01
1	 1.086759e+00	 1.184362e+00	-1.823097e+01
1	 1.072151e+00	 1.197602e+00	-1.887877e+01
1	 1.057387e+00	 1.210658e+00	-1.968184e+01
1	 1.042469e+00	 1.223526e+00	-2.062384e+01
1	 1.027403e+00	 1.236205e+00	-2.168779e+01
1	 1.106283e+00	 1.176336e+00	-1.725657e+01
1	 1.091768e+00	 1.189819e+00	-1.773141e+01
1	 1.077092e+00	 1.203121e+00	-1.837497e+01
1	 1.062259e+00	 1.216237e+00	-1.917070e+01
1	 1.047273e+00	 1.229164e+00	-2.010136e+01
1	 1.032138e+00	 1.241901e+00	-2.114895e+01
1	 1.111357e+00	 1.181732e+00	-1.675051e+01
1	 1.096776e+00	 1.195277e+00	-1.722276e+01
1	 1.082033e+00	 1.208640e+00	-1.786093e+01
1	 1.067132e+00	 1.221816e+00	-1.864791e+01
1	 1.052077e+00	 1.234803e+00	-1.956579e+01
1	 1.036872e+00	 1.247598e+00	-2.059596e+01
1	 1.116432e+00	 1.187128e+00	-1.623546e+01
1	 1.101784e+00	 1.200735e+00	-1.670442e+01
1	 1.086974e+00	 1.214159e+00	-1.733604e+01
1	 1.072005e+00	 1.227395e+00	-1.811291e+01
1	 1.056881e+00	 1.240441e+00	-1.901682e+01
1	 1.041607e+00	 1.253295e+00	-2.002880e+01
1	 1.017934e+00	 1.224811e+00	-2.272313e+01
1	 1.002862e+00	 1.237182e+00	-2.391951e+01
1	 9.876496e-01	 1.249360e+00	-2.520123e+01
1	 9.723003e-01	 1.261342e+00	-2.656812e+01
1	 9.568180e-01	 1.273126e+00	-2.802015e+01
1	 9.412063e-01	 1.284711e+00	-2.955740e+01
1	 1.022668e+00	 1.230508e+00	-2.221251e+01
1	 1.007526e+00	 1.242936e+00	-2.339152e+01
1	 9.922433e-01	 1.255171e+00	-2.465450e+01
1	 9.768227e-01	 1.267209e+00	-2.600191e+01
1	 9.612683e-01	 1.279048e+00	-2.743436e+01
1	 9.455840e-01	 1.290686e+00	-2.895263e+01
1	 1.027403e+00	 1.236205e+00	-2.168779e+01
1	 1.012191e+00	 1.248691e+00	-2.284846e+01
1	 9.968370e-01	 1.260982e+00	-2.409258e+01
1	 9.813450e-01	 1.273075e+00	-2.542078e+01
1	 9.657186e-01	 1.284969e+00	-2.683388e+01
1	 9.499617e-01	 1.296662e+00	-2.833286e+01
1	 1.032138e+00	 1.241901e+00	-2.114895e+01
1	 1.016855e+00	 1.254445e+00	-2.229059e+01
1	 1.001431e+00	 1.266793e+00	-2.351584e+01
1	 9.858673e-01	 1.278942e+00	-2.482508e+01
1	 9.701689e-01	 1.290891e+00	-2.621886e+01
1	 9.543394e-01	 1.302637e+00	-2.769792e+01
1	 1.036872e+00	 1.247598e+00	-2.059596e+01
1	 1.021520e+00	 1.260199e+00	-2.171817e+01
1	 1.006024e+00	 1.272604e+00	-2.292467e+01
1	 9.903896e-01	 1.284809e+00	-2.421515e+01
1	 9.746192e-01	 1.296812e+00	-2.558946e+01
1	 9.587171e-01	 1.308612e+00	-2.704763e+01
1	 1.041607e+00	 1.253295e+00	-2.002880e+01
1	 1.026184e+00	 1.265954e+00	-2.113145e+01
1	 1.010618e+00	 1.278414e+00	-2.231943e+01
1	 9.949120e-01	 1.290675e+00	-2.359131e+01
1	 9.790695e-01	 1.302734e+00	-2.494582e+01
1	 9.630948e-01	 1.314588e+00	-2.638183e+01
1	 9.412063e-01	 1.284711e+00	-2.955740e+01
1	 9.254692e-01	 1.296093e+00	-3.114463e+01
1	 9.096106e-01	 1.307272e+00	-3.273827e+01
1	 8.936343e-01	 1.318245e+00	-3.432574e+01
1	 8.775444e-01	 1.329010e+00	-3.589416e+01
1	 8.613448e-01	 1.339566e+00	-3.743036e+01
1	 9.455840e-01	 1.290686e+00	-2.895263e+01
1	 9.297737e-01	 1.302122e+00	-3.051973e+01
1	 9.138413e-01	 1.313352e+00	-3.208959e+01
1	 8.977908e-01	 1.324376e+00	-3.364918e+01
1	 8.816260e-01	 1.335191e+00	-3.518513e+01
1	 8.653511e-01	 1.345796e+00	-3.668381e+01
1	 9.499617e-01	 1.296662e+00	-2.833286e+01
1	 9.340782e-01	 1.308150e+00	-2.987851e+01
1	 9.180721e-01	 1.319433e+00	-3.142243e+01
1	 9.019472e-01	 1.330507e+00	-3.295172e+01
1	 8.857076e-01	 1.341373e+00	-3.445311e+01
1	 8.693573e-01	 1.352027e+00	-3.591307e+01
1	 9.543394e-01	 1.302637e+00	-2.769792e+01
1	 9.383827e-01	 1.314178e+00	-2.922049e+01
1	 9.223028e-01	 1.325513e+00	-3.073621e+01
1	 9.061036e-01	 1.336639e+00	-3.223284e+01
1	 8.897892e-01	 1.347554e+00	-3.369782e+01
1	 8.733636e-01	 1.358257e+00	-3.511831e+01
1	 9.587171e-01	 1.308612e+00	-2.704763e+01
1	 9.426873e-01	 1.320207e+00	-2.854519e+01
1	 9.265336e-01	 1.331593e+00	-3.003034e+01
1	 9.102601e-01	 1.342770e+00	-3.149206e+01
1	 8.938708e-01	 1.353736e+00	-3.291902e+01
1	 8.773699e-01	 1.364488e+00	-3.429969e+01
1	 9.630948e-01	 1.314588e+00	-2.638183e+01
1	 9.469918e-01	 1.326235e+00	-2.785216e+01
1	 9.307643e-01	 1.337674e+00	-2.930426e+01
1	 9.144165e-01	 1.348901e+00	-3.072886e+01
1	 8.979524e-01	 1.359917e+00	-3.211645e+01
1	 8.813761e-01	 1.370718e+00	-3.345737e+01
1	 8.613448e-01	 1.339566e+00	-3.743036e+01
1	 8.450397e-01	 1.349911e+00	-3.890283e+01
1	 8.286329e-01	 1.360044e+00	-4.028526e+01
1	 8.121287e-01	 1.369963e+00	-4.157211e+01
1	 7.955310e-01	 1.379667e+00	-4.275782e+01
1	 7.788442e-01	 1.389155e+00	-4.383684e+01
1	 8.653511e-01	 1.345796e+00	-3.668381e+01
1	 8.489701e-01	 1.356189e+00	-3.811423e+01
1	 8.324870e-01	 1.366369e+00	-3.945118e+01
1	 8.159060e-01	 1.376335e+00	-4.068946e+01
1	 7.992312e-01	 1.386084e+00	-4.182385e+01
1	 7.824667e-01	 1.395617e+00	-4.284918e+01
1	 8.693573e-01	 1.352027e+00	-3.591307e+01
1	 8.529005e-01	 1.362468e+00	-3.730164e+01
1	 8.363411e-01	 1.372695e+00	-3.859418e+01
1	 8.196834e-01	 1.382707e+00	-3.978485e+01
1	 8.029313e-01	 1.392501e+00	-4.086787e+01
1	 7.860892e-01	 1.402078e+00	-4.183745e+01
1	 8.733636e-01	 1.358257e+00	-3.511831e+01
1	 8.568309e-01	 1.368747e+00	-3.646561e+01
1	 8.401952e-01	 1.379021e+00	-3.771485e+01
1	 8.234607e-01	 1.389079e+00	-3.885871e+01
1	 8.066315e-01	 1.398918e+00	-3.988986e+01
1	 7.897117e-01	 1.408539e+00	-4.080096e+01
1	 8.773699e-01	 1.364488e+00	-3.429969e+01
1	 8.607613e-01	 1.375025e+00	-3.560663e+01
1	 8.440493e-01	 1.385347e+00	-3.681380e+01
1	 8.272380e-01	 1.395451e+00	-3.791146e+01
1	 8.103316e-01	 1.405335e+00	-3.888981e+01
1	 7.933343e-01	 1.415000e+00	-3.973902e+01
1	 8.813761e-01	 1.370718e+00	-3.345737e+01
1	 8.646917e-01	 1.381304e+00	-3.472523e+01
1	 8.479034e-01	 1.391673e+00	-3.589162e+01
1	 8.310154e-01	 1.401822e+00	-3.694350e+01
1	 8.140318e-01	 1.411752e+00	-3.786771e+01
1	 7.969568e-01	 1.421461e+00	-3.865096e+01
1	 7.788442e-01	 1.389155e+00	-4.383684e+01
1	 7.620721e-01	 1.398427e+00	-4.475278e+01
1	 7.452191e-01	 1.407480e+00	-4.546365e+01
1	 7.282891e-01	 1.416314e+00	-4.598592e+01
1	 7.112865e-01	 1.424929e+00	-4.633644e+01
1	 6.942153e-01	 1.433323e+00	-4.653242e+01
1	 7.824667e-01	 1.395617e+00	-4.284918e+01
1	 7.656166e-01	 1.404931e+00	-4.371074e+01
1	 7.486852e-01	 1.414026e+00	-4.436625e+01
1	 7.316765e-01	 1.422902e+00	-4.482951e+01
1	 7.145948e-01	 1.431557e+00	-4.511466e+01
1	 6.974442e-01	 1.439990e+00	-4.523616e+01
1	 7.860892e-01	 1.402078e+00	-4.183745e+01
1	 7.691612e-01	 1.411435e+00	-4.263973e+01
1	 7.521513e-01	 1.420573e+00	-4.323307e+01
1	 7.350639e-01	 1.429489e+00	-4.363041e+01
1	 7.179031e-01	 1.438184e+00	-4.384498e+01
1	 7.006731e-01	 1.446657e+00	-4.389031e+01
1	 7.897117e-01	 1.408539e+00	-4.080096e+01
1	 7.727057e-01	 1.417940e+00	-4.153848e+01
1	 7.556175e-01	 1.427119e+00	-4.206276e+01
1	 7.384513e-01	 1.436077e+00	-4.238760e+01
1	 7.212114e-01	 1.444812e+00	-4.252710e+01
1	 7.039021e-01	 1.453323e+00	-4.249569e+01
1	 7.933343e-01	 1.415000e+00	-3.973902e+01
1	 7.762502e-01	 1.424444e+00	-4.040576e+01
1	 7.590836e-01	 1.433666e+00	-4.085399e+01
1	 7.418387e-01	 1.442664e+00	-4.110007e+01
1	 7.245198e-01	 1.451439e+00	-4.116074e+01
1	 7.071310e-01	 1.459990e+00	-4.105310e+01
1	 7.969568e-01	 1.421461e+00	-3.865096e+01
1	 7.797947e-01	 1.430948e+00	-3.924037e+01
1	 7.625497e-01	 1.440212e+00	-3.960546e+01
1	 7.452261e-01	 1.449252e+00	-3.976683e+01
1	 7.278281e-01	 1.458067e+00	-3.974561e+01
1	 7.103599e-01	 1.466657e+00	-3.956333e+01
1	 6.942153e-01	 1.433323e+00	-4.653242e+01
1	 6.770797e-01	 1.441497e+00	-4.655985e+01
1	 6.598839e-01	 1.449450e+00	-4.640398e+01
1	 6.426319e-01	 1.457181e+00	-4.608130e+01
1	 6.253278e-01	 1.464690e+00	-4.560842e+01
1	 6.079759e-01	 1.471977e+00	-4.500209e+01
1	 6.974442e-01	 1.439990e+00	-4.523616e+01
1	 6.802289e-01	 1.448202e+00	-4.517889e+01
1	 6.629531e-01	 1.456191e+00	-4.493372e+01
1	 6.456208e-01	 1.463958e+00	-4.452451e+01
1	 6.282363e-01	 1.471502e+00	-4.397538e+01
1	 6.108037e-01	 1.478823e+00	-4.331069e+01
1	 7.006731e-01	 1.446657e+00	-4.389031e+01
1	 6.833781e-01	 1.454906e+00	-4.375241e+01
1	 6.660223e-01	 1.462933e+00	-4.342759e+01
1	 6.486098e-01	 1.470736e+00	-4.294531e+01
1	 6.311448e-01	 1.478315e+00	-4.233540e+01
1	 6.136315e-01	 1.485670e+00	-4.162799e+01
1	 7.039021e-01	 1.453323e+00	-4.249569e+01
1	 6.865274e-01	 1.461611e+00	-4.228229e+01
1	 6.690915e-01	 1.469675e+00	-4.188808e+01
1	 6.515988e-01	 1.477513e+00	-4.134639e+01
1	 6.340533e-01	 1.485127e+00	-4.069096e+01
1	 6.164593e-01	 1.492516e+00	-3.995587e+01
1	 7.071310e-01	 1.459990e+00	-4.105310e+01
1	 6.896766e-01	 1.468316e+00	-4.077038e+01
1	 6.721608e-01	 1.476416e+00	-4.031765e+01
1	 6.545878e-01	 1.484291e+00	-3.973038e+01
1	 6.369618e-01	 1.491940e+00	-3.904447e+01
1	 6.192871e-01	 1.499363e+00	-3.829618e+01
1	 7.103599e-01	 1.466657e+00	-3.956333e+01
1	 6.928258e-01	 1.475020e+00	-3.921849e+01
1	 6.752300e-01	 1.483158e+00	-3.871870e+01
1	 6.575768e-01	 1.491069e+00	-3.809988e+01
1	 6.398703e-01	 1.498752e+00	-3.739834e+01
1	 6.221149e-01	 1.506209e+00	-3.665074e+01
1	 6.079759e-01	 1.471977e+00	-4.500209e+01
1	 5.905802e-01	 1.479042e+00	-4.431812e+01
1	 5.731448e-01	 1.485886e+00	-4.361710e+01
1	 5.556736e-01	 1.492507e+00	-4.292307e+01
1	 5.381708e-01	 1.498907e+00	-4.226016e+01
1	 5.206404e-01	 1.505086e+00	-4.165258e+01
1	 6.108037e-01	 1.478823e+00	-4.331069e+01
1	 5.933271e-01	 1.485922e+00	-4.259249e+01
1	 5.758105e-01	 1.492797e+00	-4.187993e+01
1	 5.582581e-01	 1.499449e+00	-4.119323e+01
1	 5.406740e-01	 1.505879e+00	-4.055266e+01
1	 5.230620e-01	 1.512087e+00	-3.997843e+01
1	 6.136315e-01	 1.485670e+00	-4.162799e+01
1	 5.960740e-01	 1.492801e+00	-4.088877e+01
1	 5.784763e-01	 1.499708e+00	-4.017419e+01
1	 5.608427e-01	 1.506391e+00	-3.950077e+01
1	 5.431771e-01	 1.512851e+00	-3.888497e+01
1	 5.254836e-01	 1.519087e+00	-3.834317e+01
1	 6.164593e-01	 1.492516e+00	-3.995587e+01
1	 5.988209e-01	 1.499680e+00	-3.920813e+01
1	 5.811421e-01	 1.506619e+00	-3.850048e+01
1	 5.634272e-01	 1.513333e+00	-3.784580e+01
1	 5.456802e-01	 1.519822e+00	-3.725684e+01
1	 5.279051e-01	 1.526087e+00	-3.674628e+01
1	 6.192871e-01	 1.499363e+00	-3.829618e+01
1	 6.015677e-01	 1.506559e+00	-3.755175e+01
1	 5.838079e-01	 1.513530e+00	-3.685938e+01
1	 5.660117e-01	 1.520275e+00	-3.622841e+01
1	 5.481833e-01	 1.526794e+00	-3.566802e+01
1	 5.303267e-01	 1.533088e+00	-3.518725e+01
1	 6.221149e-01	 1.506209e+00	-3.665074e+01
1	 6.043146e-01	 1.513439e+00	-3.592076e+01
1	 5.864737e-01	 1.520441e+00	-3.525147e+01
1	 5.685963e-01	 1.527217e+00	-3.464873e+01
1	 5.506864e-01	 1.533766e+00	-3.411825e+01
1	 5.327483e-01	 1.540088e+00	-3.366556e+01
1	 5.206404e-01	 1.505086e+00	-4.165258e+01
1	 5.030863e-01	 1.511044e+00	-4.111726e+01
1	 4.855124e-01	 1.516782e+00	-4.067043e+01
1	 4.679227e-01	 1.522301e+00	-4.033511e+01
1	 4.503210e-01	 1.527600e+00	-4.013408e+01
1	 4.327112e-01	 1.532681e+00	-4.008994e+01
1	 5.230620e-01	 1.512087e+00	-3.997843e+01
1	 5.054262e-01	 1.518073e+00	-3.948372e+01
1	 4.877706e-01	 1.523837e+00	-3.908287e+01
1	 4.700991e-01	 1.529381e+00	-3.879775e+01
1	 4.524156e-01	 1.534705e+00	-3.865001e+01
1	 4.347238e-01	 1.539810e+00	-3.866107e+01
1	 5.254836e-01	 1.519087e+00	-3.834317e+01
1	 5.077662e-01	 1.525101e+00	-3.788536e+01
1	 4.900288e-01	 1.530892e+00	-3.752511e+01
1	 4.722755e-01	 1.536462e+00	-3.728398e+01
1	 4.545101e-01	 1.541810e+00	-3.718334e+01
1	 4.367364e-01	 1.546939e+00	-3.724433e+01
1	 5.279051e-01	 1.526087e+00	-3.674628e+01
1	 5.101061e-01	 1.532129e+00	-3.632152e+01
1	 4.922870e-01	 1.537947e+00	-3.599641e+01
1	 4.744519e-01	 1.543542e+00	-3.579309e+01
1	 4.566046e-01	 1.548915e+00	-3.573348e+01
1	 4.387491e-01	 1.554068e+00	-3.583933e+01
1	 5.303267e-01	 1.533088e+00	-3.518725e+01
1	 5.124460e-01	 1.539157e+00	-3.479151e+01
1	 4.945452e-01	 1.545002e+00	-3.449606e+01
1	 4.766283e-01	 1.550623e+00	-3.432439e+01
1	 4.586991e-01	 1.556021e+00	-3.429988e+01
1	 4.407617e-01	 1.561196e+00	-3.444567e+01
1	 5.327483e-01	 1.540088e+00	-3.366556e+01
1	 5.147860e-01	 1.546185e+00	-3.329470e+01
1	 4.968034e-01	 1.552056e+00	-3.302333e+01
1	 4.788046e-01	 1.557703e+00	-3.287723e+01
1	 4.607936e-01	 1.563126e+00	-3.288197e+01
1	 4.427743e-01	 1.568325e+00	-3.306295e+01
1	 4.327112e-01	 1.532681e+00	-4.008994e+01
1	 4.150970e-01	 1.537545e+00	-4.025016e+01
1	 3.974822e-01	 1.542193e+00	-4.062684e+01
1	 3.798705e-01	 1.546625e+00	-4.118922e+01
1	 3.622655e-01	 1.550843e+00	-4.190644e+01
1	 3.446709e-01	 1.554848e+00	-4.274768e+01
1	 4.347238e-01	 1.539810e+00	-3.866107e+01
1	 4.170277e-01	 1.544697e+00	-3.887598e+01
1	 3.993310e-01	 1.549366e+00	-3.930698e+01
1	 3.816374e-01	 1.553819e+00	-3.992599e+01
1	 3.639505e-01	 1.558056e+00	-4.070486e+01
1	 3.462740e-01	 1.562080e+00	-4.161544e+01
1	 4.367364e-01	 1.546939e+00	-3.724433e+01
1	 4.189584e-01	 1.551848e+00	-3.751030e+01
1	 4.011798e-01	 1.556539e+00	-3.799330e+01
1	 3.834042e-01	 1.561012e+00	-3.866736e+01
1	 3.656355e-01	 1.565270e+00	-3.950638e+01
1	 3.478771e-01	 1.569312e+00	-4.048427e+01
1	 4.387491e-01	 1.554068e+00	-3.583933e+01
1	 4.208891e-01	 1.558999e+00	-3.615286e+01
1	 4.030285e-01	 1.563712e+00	-3.668565e+01
1	 3.851710e-01	 1.568206e+00	-3.741318e+01
1	 3.673204e-01	 1.572483e+00	-3.831081e+01
1	 3.494803e-01	 1.576544e+00	-3.935386e+01
1	 4.407617e-01	 1.561196e+00	-3.444567e+01
1	 4.228198e-01	 1.566151e+00	-3.480343e+01
1	 4.048773e-01	 1.570885e+00	-3.538387e+01
1	 3.869379e-01	 1.575400e+00	-3.616330e+01
1	 3.690054e-01	 1.579696e+00	-3.711793e+01
1	 3.510834e-01	 1.583776e+00	-3.822390e+01
1	 4.427743e-01	 1.568325e+00	-3.306295e+01
1	 4.247505e-01	 1.573302e+00	-3.346180e+01
1	 4.067260e-01	 1.578058e+00	-3.408783e+01
1	 3.887047e-01	 1.582593e+00	-3.491759e+01
1	 3.706903e-01	 1.586909e+00	-3.592755e+01
1	 3.526865e-01	 1.591008e+00	-3.709407e+01
1	 3.446709e-01	 1.554848e+00	-4.274768e+01
1	 3.270901e-01	 1.558641e+00	-4.372864e+01
1	 3.095267e-01	 1.562224e+00	-4.486630e+01
1	 2.919842e-01	 1.565598e+00	-4.613186e+01
1	 2.744659e-01	 1.568764e+00	-4.749668e+01
1	 2.569751e-01	 1.571724e+00	-4.893228e+01
1	 3.462740e-01	 1.562080e+00	-4.161544e+01
1	 3.286115e-01	 1.565891e+00	-4.267532e+01
1	 3.109664e-01	 1.569490e+00	-4.389973e+01
1	 2.933423e-01	 1.572880e+00	-4.525704e+01
1	 2.757424e-01	 1.576060e+00	-4.671577e+01
1	 2.581703e-01	 1.579034e+00	-4.824464e+01
1	 3.478771e-01	 1.569312e+00	-4.048427e+01
1	 3.301328e-01	 1.573140e+00	-4.161990e+01
1	 3.124061e-01	 1.576756e+00	-4.292682e+01
1	 2.947003e-01	 1.580161e+00	-4.437099e+01
1	 2.770190e-01	 1.583357e+00	-4.591856e+01
1	 2.593655e-01	 1.586344e+00	-4.753587e+01
1	 3.494803e-01	 1.576544e+00	-3.935386e+01
1	 3.316542e-01	 1.580390e+00	-4.056195e+01
1	 3.138457e-01	 1.584023e+00	-4.194707e+01
1	 2.960584e-01	 1.587443e+00	-4.347322e+01
1	 2.782956e-01	 1.590653e+00	-4.510460e+01
1	 2.605608e-01	 1.593655e+00	-4.680560e+01
1	 3.510834e-01	 1.583776e+00	-3.822390e+01
1	 3.331755e-01	 1.587639e+00	-3.950104e+01
1	 3.152854e-01	 1.591289e+00	-4.096001e+01
1	 2.974165e-01	 1.594725e+00	-4.256327e+01
1	 2.795722e-01	 1.597950e+00	-4.427346e+01
1	 2.617560e-01	 1.600965e+00	-4.605347e+01
1	 3.526865e-01	 1.591008e+00	-3.709407e+01
1	 3.346969e-01	 1.594889e+00	-3.843677e+01
1	 3.167250e-01	 1.598555e+00	-3.996519e+01
1	 2.987745e-01	 1.602007e+00	-4.164066e+01
1	 2.808488e-01	 1.605247e+00	-4.342472e+01
1	 2.629512e-01	 1.608275e+00	-4.527913e+01
1	 2.569751e-01	 1.571724e+00	-4.893228e+01
1	 2.395151e-01	 1.574479e+00	-5.039982e+01
1	 2.220892e-01	 1.577031e+00	-5.186266e+01
1	 2.047005e-01	 1.579382e+00	-5.329599e+01
1	 1.873521e-01	 1.581534e+00	-5.467532e+01
1	 1.700470e-01	 1.583488e+00	-5.597652e+01
1	 2.581703e-01	 1.579034e+00	-4.824464e+01
1	 2.406291e-01	 1.581802e+00	-4.980270e+01
1	 2.231222e-01	 1.584366e+00	-5.135295e+01
1	 2.056526e-01	 1.586728e+00	-5.287048e+01
1	 1.882235e-01	 1.588890e+00	-5.433069e+01
1	 1.708379e-01	 1.590853e+00	-5.570937e+01
1	 2.593655e-01	 1.586344e+00	-4.753587e+01
1	 2.417432e-01	 1.589125e+00	-4.918024e+01
1	 2.241551e-01	 1.591701e+00	-5.081432e+01
1	 2.066047e-01	 1.594074e+00	-5.241292e+01
1	 1.890949e-01	 1.596246e+00	-5.395117e+01
1	 1.716288e-01	 1.598218e+00	-5.540460e+01
1	 2.605608e-01	 1.593655e+00	-4.680560e+01
1	 2.428572e-01	 1.596448e+00	-4.853215e+01
1	 2.251881e-01	 1.599036e+00	-5.024653e+01
1	 2.075568e-01	 1.601420e+00	-5.192311e+01
1	 1.899663e-01	 1.603602e+00	-5.353659e+01
1	 1.724197e-01	 1.605583e+00	-5.506206e+01
1	 2.617560e-01	 1.600965e+00	-4.605347e+01
1	 2.439712e-01	 1.603771e+00	-4.785817e+01
1	 2.262211e-01	 1.606371e+00	-4.964938e+01
1	 2.085089e-01	 1.608766e+00	-5.140087e+01
1	 1.908377e-01	 1.610958e+00	-5.308677e+01
1	 1.732106e-01	 1.612949e+00	-5.468157e+01
1	 2.629512e-01	 1.608275e+00	-4.527913e+01
1	 2.450852e-01	 1.611095e+00	-4.715801e+01
1	 2.272541e-01	 1.613706e+00	-4.902264e+01
1	 2.094610e-01	 1.616112e+00	-5.084603e+01
1	 1.917091e-01	 1.618314e+00	-5.260155e+01
1	 1.740015e-01	 1.620314e+00	-5.426298e+01
1	 1.700470e-01	 1.583488e+00	-5.597652e+01
1	 1.527882e-01	 1.585247e+00	-5.717410e+01
1	 1.355785e-01	 1.586811e+00	-5.823933e+01
1	 1.184210e-01	 1.588184e+00	-5.914391e+01
1	 1.013182e-01	 1.589366e+00	-5.986003e+01
1	 8.427301e-02	 1.590361e+00	-6.036041e+01
1	 1.708379e-01	 1.590853e+00	-5.570937e+01
1	 1.534988e-01	 1.592620e+00	-5.698043e+01
1	 1.362091e-01	 1.594192e+00	-5.811385e+01
1	 1.189718e-01	 1.595571e+00	-5.908013e+01
1	 1.017895e-01	 1.596759e+00	-5.985031e+01
1	 8.466498e-02	 1.597758e+00	-6.039599e+01
1	 1.716288e-01	 1.598218e+00	-5.540460e+01
1	 1.542094e-01	 1.599993e+00	-5.674645e+01
1	 1.368397e-01	 1.601572e+00	-5.794547e+01
1	 1.195226e-01	 1.602958e+00	-5.897113e+01
1	 1.022607e-01	 1.604151e+00	-5.979347e+01
1	 8.505695e-02	 1.605155e+00	-6.038309e+01
1	 1.724197e-01	 1.605583e+00	-5.506206e+01
1	 1.549201e-01	 1.607366e+00	-5.647199e+01
1	 1.374703e-01	 1.608953e+00	-5.773401e+01
1	 1.200734e-01	 1.610344e+00	-5.881674e+01
1	 1.027320e-01	 1.611544e+00	-5.968934e+01
1	 8.544891e-02	 1.612552e+00	-6.032159e+01
1	 1.732106e-01	 1.612949e+00	-5.468157e+01
1	 1.556307e-01	 1.614740e+00	-5.615687e+01
1	 1.381009e-01	 1.616333e+00	-5.747932e+01
1	 1.206242e-01	 1.617731e+00	-5.861680e+01
1	 1.032032e-01	 1.618936e+00	-5.953777e+01
1	 8.584088e-02	 1.619949e+00	-6.021133e+01
1	 1.740015e-01	 1.620314e+00	-5.426298e+01
1	 1.563414e-01	 1.622113e+00	-5.580093e+01
1	 1.387315e-01	 1.623714e+00	-5.718123e+01
1	 1.211750e-01	 1.625118e+00	-5.837116e+01
1	 1.036745e-01	 1.626328e+00	-5.933862e+01
1	 8.623285e-02	 1.627346e+00	-6.005219e+01
1	 8.427301e-02	 1.590361e+00	-6.036041e+01
1	 6.728796e-02	 1.591170e+00	-6.061947e+01
1	 5.036566e-02	 1.591796e+00	-6.061715e+01
1	 3.350861e-02	 1.592240e+00	-6.033527e+01
1	 1.671927e-02	 1.592505e+00	-5.975618e+01
1	 0.000000e+00	 1.592593e+00	-5.886274e+01
1	 8.466498e-02	 1.597758e+00	-6.039599e+01
1	 6.760093e-02	 1.598571e+00	-6.069067e+01
1	 5.059991e-02	 1.599200e+00	-6.071381e+01
1	 3.366446e-02	 1.599646e+00	-6.044674e+01
1	 1.679703e-02	 1.599912e+00	-5.987132e+01
1	 0.000000e+00	 1.600000e+00	-5.896997e+01
1	 8.505695e-02	 1.605155e+00	-6.038309e+01
1	 6.791389e-02	 1.605972e+00	-6.071273e+01
1	 5.083417e-02	 1.606603e+00	-6.076126e+01
1	 3.382032e-02	 1.607052e+00	-6.050940e+01
1	 1.687479e-02	 1.607319e+00	-5.993844e+01
1	 0.000000e+00	 1.607407e+00	-5.903022e+01
1	 8.544891e-02	 1.612552e+00	-6.032159e+01
1	 6.822686e-02	 1.613373e+00	-6.068551e+01
1	 5.106843e-02	 1.614007e+00	-6.075935e+01
1	 3.397617e-02	 1.614457e+00	-6.052311e+01
1	 1.695256e-02	 1.614726e+00	-5.995736e+01
1	 0.000000e+00	 1.614815e+00	-5.904328e+01
1	 8.584088e-02	 1.619949e+00	-6.021133e+01
1	 6.853983e-02	 1.620774e+00	-6.060889e+01
1	 5.130269e-02	 1.621411e+00	-6.070796e+01
1	 3.413203e-02	 1.621863e+00	-6.048770e+01
1	 1.703032e-02	 1.622133e+00	-5.992790e+01
1	 0.000000e+00	 1.622222e+00	-5.900895e+01
1	 8.623285e-02	 1.627346e+00	-6.005219e+01
1	 6.885280e-02	 1.628174e+00	-6.048273e+01
1	 5.153695e-02	 1.628814e+00	-6.060693e+01
1	 3.428788e-02	 1.629269e+00	-6.040302e+01
1	 1.710809e-02	 1.629540e+00	-5.984988e+01
1	 0.000000e+00	 1.629630e+00	-5.892703e+01
1	 1.629630e+00	 0.000000e+00	 1.526463e+01
1	 1.629540e+00	 1.710809e-02	 1.500487e+01
1	 1.629269e+00	 3.428788e-02	 1.469851e+01
1	 1.628814e+00	 5.153695e-02	 1.434979e+01
1	 1.628174e+00	 6.885280e-02	 1.396304e+01
1	 1.627346e+00	 8.623285e-02	 1.354266e+01
1	 1.637037e+00	 0.000000e+00	 1.507447e+01
1	 1.636947e+00	 1.718585e-02	 1.482327e+01
1	 1.636675e+00	 3.444373e-02	 1.452335e+01
1	 1.636218e+00	 5.177121e-02	 1.417915e+01
1	 1.635575e+00	 6.916576e-02	 1.379520e+01
1	 1.634744e+00	 8.662482e-02	 1.337609e+01
1	 1.644444e+00	 0.000000e+00	 1.487840e+01
1	 1.644354e+00	 1.726361e-02	 1.463584e+01
1	 1.644080e+00	 3.459959e-02	 1.434259e+01
1	 1.643622e+00	 5.200547e-02	 1.400325e+01
1	 1.642976e+00	 6.947873e-02	 1.362250e+01
1	 1.642141e+00	 8.701678e-02	 1.320510e+01
1	 1.651852e+00	 0.000000e+00	 1.467642e+01
1	 1.651761e+00	 1.734138e-02	 1.444255e+01
1	 1.651486e+00	 3.475544e-02	 1.415616e+01
1	 1.651026e+00	 5.223973e-02	 1.382199e+01
1	 1.650377e+00	 6.979170e-02	 1.344485e+01
1	 1.649538e+00	 8.740875e-02	 1.302962e+01
1	 1.659259e+00	 0.000000e+00	 1.446854e+01
1	 1.659168e+00	 1.741914e-02	 1.424337e+01
1	 1.658892e+00	 3.491130e-02	 1.396401e+01
1	 1.658429e+00	 5.247399e-02	 1.363530e+01
1	 1.657778e+00	 7.010467e-02	 1.326215e+01
1	 1.656935e+00	 8.780072e-02	 1.284955e+01
1	 1.666667e+00	 0.000000e+00	 1.425477e+01
1	 1.666575e+00	 1.749691e-02	 1.403826e+01
1	 1.666298e+00	 3.506715e-02	 1.376608e+01
1	 1.665833e+00	 5.270824e-02	 1.344310e+01
1	 1.665178e+00	 7.041763e-02	 1.307432e+01
1	 1.664332e+00	 8.819269e-02	 1.266479e+01
1	 1.627346e+00	 8.623285e-02	 1.354266e+01
1	 1.626328e+00	 1.036745e-01	 1.309154e+01
1	 1.625118e+00	 1.211750e-01	 1.261349e+01
1	 1.623714e+00	 1.387315e-01	 1.211443e+01
1	 1.622113e+00	 1.563414e-01	 1.160028e+01
1	 1.620314e+00	 1.740015e-01	 1.107700e+01
1	 1.634744e+00	 8.662482e-02	 1.337609e+01
1	 1.633721e+00	 1.041457e-01	 1.292467e+01
1	 1.632505e+00	 1.217258e-01	 1.244470e+01
1	 1.631094e+00	 1.393621e-01	 1.194218e+01
1	 1.629486e+00	 1.570520e-01	 1.142317e+01
1	 1.627679e+00	 1.747925e-01	 1.089373e+01
1	 1.642141e+00	 8.701678e-02	 1.320510e+01
1	 1.641113e+00	 1.046170e-01	 1.275390e+01
1	 1.639892e+00	 1.222765e-01	 1.227258e+01
1	 1.638475e+00	 1.399927e-01	 1.176729e+01
1	 1.636859e+00	 1.577627e-01	 1.124417e+01
1	 1.635044e+00	 1.755834e-01	 1.070942e+01
1	 1.649538e+00	 8.740875e-02	 1.302962e+01
1	 1.648506e+00	 1.050882e-01	 1.257913e+01
1	 1.647279e+00	 1.228273e-01	 1.209705e+01
1	 1.645855e+00	 1.406233e-01	 1.158961e+01
1	 1.644233e+00	 1.584733e-01	 1.106311e+01
1	 1.642409e+00	 1.763743e-01	 1.052386e+01
1	 1.656935e+00	 8.780072e-02	 1.284955e+01
1	 1.655898e+00	 1.055595e-01	 1.240028e+01
1	 1.654666e+00	 1.233781e-01	 1.191799e+01
1	 1.653236e+00	 1.412539e-01	 1.140904e+01
1	 1.651606e+00	 1.591839e-01	 1.087985e+01
1	 1.649774e+00	 1.771652e-01	 1.033686e+01
1	 1.664332e+00	 8.819269e-02	 1.266479e+01
1	 1.663290e+00	 1.060307e-01	 1.221725e+01
1	 1.662053e+00	 1.239289e-01	 1.173530e+01
1	 1.660616e+00	 1.418845e-01	 1.122545e+01
1	 1.658979e+00	 1.598946e-01	 1.069424e+01
1	 1.657139e+00	 1.779561e-01	 1.014823e+01
1	 1.620314e+00	 1.740015e-01	 1.107700e+01
1	 1.618314e+00	 1.917091e-01	 1.055147e+01
1	 1.616112e+00	 2.094610e-01	 1.002967e+01
1	 1.613706e+00	 2.272541e-01	 9.516091e+00
1	 1.611095e+00	 2.450852e-01	 9.015252e+00
1	 1.608275e+00	 2.629512e-01	 8.531641e+00
1	 1.627679e+00	 1.747925e-01	 1.089373e+01
1	 1.625670e+00	 1.925805e-01	 1.036101e+01
1	 1.623458e+00	 2.104131e-01	 9.831218e+00
1	 1.621041e+00	 2.282870e-01	 9.309012e+00
1	 1.618418e+00	 2.461993e-01	 8.799034e+00
1	 1.615586e+00	 2.641465e-01	 8.305902e+00
1	 1.635044e+00	 1.755834e-01	 1.070942e+01
1	 1.633026e+00	 1.934519e-01	 1.017040e+01
1	 1.630804e+00	 2.113652e-01	 9.633522e+00
1	 1.628376e+00	 2.293200e-01	 9.103556e+00
1	 1.625741e+00	 2.473133e-01	 8.585253e+00
1	 1.622896e+00	 2.653417e-01	 8.083341e+00
1	 1.642409e+00	 1.763743e-01	 1.052386e+01
1	 1.640382e+00	 1.943233e-01	 9.979407e+00
1	 1.638150e+00	 2.123172e-01	 9.436327e+00
1	 1.635711e+00	 2.303530e-01	 8.899475e+00
1	 1.633064e+00	 2.484273e-01	 8.373690e+00
1	 1.630206e+00	 2.665369e-01	 7.863785e+00
1	 1.649774e+00	 1.771652e-01	 1.033686e+01
1	 1.647738e+00	 1.951947e-01	 9.787805e+00
1	 1.645496e+00	 2.132693e-01	 9.239387e+00
1	 1.643047e+00	 2.313860e-01	 8.696527e+00
1	 1.640387e+00	 2.495413e-01	 8.164127e+00
1	 1.637517e+00	 2.677322e-01	 7.647064e+00
1	 1.657139e+00	 1.779561e-01	 1.014823e+01
1	 1.655094e+00	 1.960661e-01	 9.595365e+00
1	 1.652842e+00	 2.142214e-01	 9.042459e+00
1	 1.650382e+00	 2.324189e-01	 8.494474e+00
1	 1.647710e+00	 2.506554e-01	 7.956352e+00
1	 1.644827e+00	 2.689274e-01	 7.433011e+00
1	 1.608275e+00	 2.629512e-01	 8.531641e+00
1	 1.605247e+00	 2.808488e-01	 8.074974e+00
1	 1.602007e+00	 2.987745e-01	 7.655884e+00
1	 1.598555e+00	 3.167250e-01	 7.280146e+00
1	 1.594889e+00	 3.346969e-01	 6.953414e+00
1	 1.591008e+00	 3.526865e-01	 6.681212e+00
1	 1.615586e+00	 2.641465e-01	 8.305902e+00
1	 1.612543e+00	 2.821254e-01	 7.839171e+00
1	 1.609289e+00	 3.001326e-01	 7.409388e+00
1	 1.605821e+00	 3.181647e-01	 7.022575e+00
1	 1.602138e+00	 3.362182e-01	 6.684649e+00
1	 1.598239e+00	 3.542896e-01	 6.401410e+00
1	 1.622896e+00	 2.653417e-01	 8.083341e+00
1	 1.619840e+00	 2.834020e-01	 7.607262e+00
1	 1.616571e+00	 3.014907e-01	 7.167564e+00
1	 1.613087e+00	 3.196044e-01	 6.770538e+00
1	 1.609388e+00	 3.377396e-01	 6.422384e+00
1	 1.605471e+00	 3.558927e-01	 6.129189e+00
1	 1.630206e+00	 2.665369e-01	 7.863785e+00
1	 1.627136e+00	 2.846785e-01	 7.379115e+00
1	 1.623853e+00	 3.028487e-01	 6.930279e+00
1	 1.620353e+00	 3.210440e-01	 6.523864e+00
1	 1.616637e+00	 3.392609e-01	 6.166366e+00
1	 1.612703e+00	 3.574959e-01	 5.864175e+00
1	 1.637517e+00	 2.677322e-01	 7.647064e+00
1	 1.634433e+00	 2.859551e-01	 7.154599e+00
1	 1.631134e+00	 3.042068e-01	 6.697403e+00
1	 1.627620e+00	 3.224837e-01	 6.282382e+00
1	 1.623887e+00	 3.407823e-01	 5.916345e+00
1	 1.619935e+00	 3.590990e-01	 5.606003e+00
1	 1.644827e+00	 2.689274e-01	 7.433011e+00
1	 1.641729e+00	 2.872317e-01	 6.933584e+00
1	 1.638416e+00	 3.055649e-01	 6.468808e+00
1	 1.634886e+00	 3.239233e-01	 6.045925e+00
1	 1.631136e+00	 3.423036e-01	 5.672080e+00
1	 1.627167e+00	 3.607021e-01	 5.354312e+00
1	 1.591008e+00	 3.526865e-01	 6.681212e+00
1	 1.586909e+00	 3.706903e-01	 6.453301e+00
1	 1.582593e+00	 3.887047e-01	 6.257863e+00
1	 1.578058e+00	 4.067260e-01	 6.097883e+00
1	 1.573302e+00	 4.247505e-01	 5.976248e+00
1	 1.568325e+00	 4.427743e-01	 5.895735e+00
1	 1.598239e+00	 3.542896e-01	 6.401410e+00
1	 1.594123e+00	 3.723753e-01	 6.163113e+00
1	 1.589787e+00	 3.904716e-01	 5.958167e+00
1	 1.585231e+00	 4.085748e-01	 5.789416e+00
1	 1.580454e+00	 4.266811e-01	 5.659585e+00
1	 1.575454e+00	 4.447869e-01	 5.571267e+00
1	 1.605471e+00	 3.558927e-01	 6.129189e+00
1	 1.601336e+00	 3.740602e-01	 5.881605e+00
1	 1.596980e+00	 3.922384e-01	 5.668107e+00
1	 1.592404e+00	 4.104235e-01	 5.491333e+00
1	 1.587605e+00	 4.286118e-01	 5.353783e+00
1	 1.582583e+00	 4.467995e-01	 5.257818e+00
1	 1.612703e+00	 3.574959e-01	 5.864175e+00
1	 1.608549e+00	 3.757452e-01	 5.608299e+00
1	 1.604174e+00	 3.940052e-01	 5.387184e+00
1	 1.599577e+00	 4.122723e-01	 5.203190e+00
1	 1.594756e+00	 4.305425e-01	 5.058538e+00
1	 1.589711e+00	 4.488121e-01	 4.955301e+00
1	 1.619935e+00	 3.590990e-01	 5.606003e+00
1	 1.615762e+00	 3.774301e-01	 5.342731e+00
1	 1.611368e+00	 3.957721e-01	 5.114908e+00
1	 1.606750e+00	 4.141210e-01	 4.924553e+00
1	 1.601908e+00	 4.324732e-01	 4.773547e+00
1	 1.596840e+00	 4.508247e-01	 4.663627e+00
1	 1.627167e+00	 3.607021e-01	 5.354312e+00
1	 1.622976e+00	 3.791151e-01	 5.084442e+00
1	 1.618561e+00	 3.975389e-01	 4.850798e+00
1	 1.613923e+00	 4.159698e-01	 4.654994e+00
1	 1.609059e+00	 4.344039e-01	 4.498515e+00
1	 1.603969e+00	 4.528373e-01	 4.382713e+00
1	 1.568325e+00	 4.427743e-01	 5.895735e+00
1	 1.563126e+00	 4.607936e-01	 5.845383e+00
1	 1.557703e+00	 4.788046e-01	 5.808689e+00
1	 1.552056e+00	 4.968034e-01	 5.780016e+00
1	 1.546185e+00	 5.147860e-01	 5.753705e+00
1	 1.540088e+00	 5.327483e-01	 5.724090e+00
1	 1.575454e+00	 4.447869e-01	 5.571267e+00
1	 1.570231e+00	 4.628881e-01	 5.514160e+00
1	 1.564784e+00	 4.809810e-01	 5.472462e+00
1	 1.559111e+00	 4.990616e-01	 5.440420e+00
1	 1.553213e+00	 5.171259e-01	 5.412299e+00
1	 1.547089e+00	 5.351699e-01	 5.382389e+00
1	 1.582583e+00	 4.467995e-01	 5.257818e+00
1	 1.577336e+00	 4.649827e-01	 5.193957e+00
1	 1.571864e+00	 4.831574e-01	 5.147359e+00
1	 1.566166e+00	 5.013198e-01	 5.112247e+00
1	 1.560241e+00	 5.194658e-01	 5.082881e+00
1	 1.554089e+00	 5.375915e-01	 5.053569e+00
1	 1.589711e+00	 4.488121e-01	 4.955301e+00
1	 1.584441e+00	 4.670772e-01	 4.884880e+00
1	 1.578944e+00	 4.853338e-01	 4.833550e+00
1	 1.573221e+00	 5.035780e-01	 4.795597e+00
1	 1.567269e+00	 5.218058e-01	 4.765352e+00
1	 1.561090e+00	 5.400131e-01	 4.737194e+00
1	 1.596840e+00	 4.508247e-01	 4.663627e+00
1	 1.591546e+00	 4.691717e-01	 4.587033e+00
1	 1.586025e+00	 4.875102e-01	 4.531202e+00
1	 1.580276e+00	 5.058362e-01	 4.490573e+00
1	 1.574297e+00	 5.241457e-01	 4.459613e+00
1	 1.568090e+00	 5.424346e-01	 4.432838e+00
1	 1.603969e+00	 4.528373e-01	 4.382713e+00
1	 1.598651e+00	 4.712662e-01	 4.300519e+00
1	 1.593105e+00	 4.896866e-01	 4.240481e+00
1	 1.587330e+00	 5.080944e-01	 4.197271e+00
1	 1.581326e+00	 5.264856e-01	 4.165571e+00
1	 1.575090e+00	 5.448562e-01	 4.140082e+00
1	 1.540088e+00	 5.327483e-01	 5.724090e+00
1	 1.533766e+00	 5.506864e-01	 5.685398e+00
1	 1.527217e+00	 5.685963e-01	 5.634582e+00
1	 1.520441e+00	 5.864737e-01	 5.570069e+00
1	 1.513439e+00	 6.043146e-01	 5.490289e+00
1	 1.506209e+00	 6.221149e-01	 5.393675e+00
1	 1.547089e+00	 5.351699e-01	 5.382389e+00
1	 1.540737e+00	 5.531896e-01	 5.344490e+00
1	 1.534159e+00	 5.711808e-01	 5.295210e+00
1	 1.527352e+00	 5.891395e-01	 5.233041e+00
1	 1.520318e+00	 6.070615e-01	 5.156425e+00
1	 1.513055e+00	 6.249427e-01	 5.063754e+00
1	 1.554089e+00	 5.375915e-01	 5.053569e+00
1	 1.547709e+00	 5.556927e-01	 5.017415e+00
1	 1.541101e+00	 5.737653e-01	 4.970323e+00
1	 1.534263e+00	 5.918053e-01	 4.910778e+00
1	 1.527197e+00	 6.098084e-01	 4.837184e+00
1	 1.519902e+00	 6.277705e-01	 4.747866e+00
1	 1.561090e+00	 5.400131e-01	 4.737194e+00
1	 1.554681e+00	 5.581958e-01	 4.703431e+00
1	 1.548042e+00	 5.763498e-01	 4.659065e+00
1	 1.541174e+00	 5.944711e-01	 4.602501e+00
1	 1.534076e+00	 6.125553e-01	 4.532059e+00
1	 1.526748e+00	 6.305983e-01	 4.445972e+00
1	 1.568090e+00	 5.424346e-01	 4.432838e+00
1	 1.561652e+00	 5.606989e-01	 4.401808e+00
1	 1.554984e+00	 5.789344e-01	 4.360591e+00
1	 1.548086e+00	 5.971369e-01	 4.307443e+00
1	 1.540956e+00	 6.153022e-01	 4.240553e+00
1	 1.533595e+00	 6.334261e-01	 4.158036e+00
1	 1.575090e+00	 5.448562e-01	 4.140082e+00
1	 1.568624e+00	 5.632020e-01	 4.111831e+00
1	 1.561926e+00	 5.815189e-01	 4.074073e+00
1	 1.554997e+00	 5.998026e-01	 4.024852e+00
1	 1.547835e+00	 6.180491e-01	 3.962175e+00
1	 1.540441e+00	 6.362539e-01	 3.884020e+00
1	 1.506209e+00	 6.221149e-01	 5.393675e+00
1	 1.498752e+00	 6.398703e-01	 5.243608e+00
1	 1.491069e+00	 6.575768e-01	 5.003188e+00
1	 1.483158e+00	 6.752300e-01	 4.670877e+00
1	 1.475020e+00	 6.928258e-01	 4.245722e+00
1	 1.466657e+00	 7.103599e-01	 3.727375e+00
1	 1.513055e+00	 6.249427e-01	 5.063754e+00
1	 1.505565e+00	 6.427789e-01	 4.920577e+00
1	 1.497846e+00	 6.605658e-01	 4.692220e+00
1	 1.489899e+00	 6.782992e-01	 4.377138e+00
1	 1.481725e+00	 6.959750e-01	 3.974354e+00
1	 1.473323e+00	 7.135888e-01	 3.483482e+00
1	 1.519902e+00	 6.277705e-01	 4.747866e+00
1	 1.512377e+00	 6.456874e-01	 4.610624e+00
1	 1.504624e+00	 6.635548e-01	 4.393136e+00
1	 1.496641e+00	 6.813685e-01	 4.093882e+00
1	 1.488430e+00	 6.991242e-01	 3.711889e+00
1	 1.479990e+00	 7.168177e-01	 3.246734e+00
1	 1.526748e+00	 6.305983e-01	 4.445972e+00
1	 1.519190e+00	 6.485959e-01	 4.314220e+00
1	 1.511401e+00	 6.665437e-01	 4.106789e+00
1	 1.503383e+00	 6.844377e-01	 3.822228e+00
1	 1.495134e+00	 7.022734e-01	 3.459582e+00
1	 1.486656e+00	 7.200466e-01	 3.018405e+00
1	 1.533595e+00	 6.334261e-01	 4.158036e+00
1	 1.526002e+00	 6.515044e-01	 4.031823e+00
1	 1.518179e+00	 6.695327e-01	 3.834018e+00
1	 1.510124e+00	 6.875069e-01	 3.563270e+00
1	 1.501839e+00	 7.054226e-01	 3.218669e+00
1	 1.493323e+00	 7.232755e-01	 2.799747e+00
1	 1.540441e+00	 6.362539e-01	 3.884020e+00
1	 1.532815e+00	 6.544129e-01	 3.763886e+00
1	 1.524956e+00	 6.725217e-01	 3.575646e+00
1	 1.516866e+00	 6.905761e-01	 3.318087e+00
1	 1.508544e+00	 7.085718e-01	 2.990361e+00
1	 1.499990e+00	 7.265044e-01	 2.591988e+00
1	 1.466657e+00	 7.103599e-01	 3.727375e+00
1	 1.458067e+00	 7.278281e-01	 3.113487e+00
1	 1.449252e+00	 7.452261e-01	 2.403115e+00
1	 1.440212e+00	 7.625497e-01	 1.598801e+00
1	 1.430948e+00	 7.797947e-01	 7.035192e-01
1	 1.421461e+00	 7.969568e-01	-2.793169e-01
1	 1.473323e+00	 7.135888e-01	 3.483482e+00
1	 1.464694e+00	 7.311364e-01	 2.901427e+00
1	 1.455839e+00	 7.486135e-01	 2.226245e+00
1	 1.446758e+00	 7.660159e-01	 1.460105e+00
1	 1.437453e+00	 7.833392e-01	 6.056811e-01
1	 1.427923e+00	 8.005793e-01	-3.338378e-01
1	 1.479990e+00	 7.168177e-01	 3.246734e+00
1	 1.471322e+00	 7.344447e-01	 2.694945e+00
1	 1.462427e+00	 7.520009e-01	 2.053962e+00
1	 1.453305e+00	 7.694820e-01	 1.325589e+00
1	 1.443957e+00	 7.868838e-01	 5.122015e-01
1	 1.434384e+00	 8.042019e-01	-3.832462e-01
1	 1.486656e+00	 7.200466e-01	 3.018405e+00
1	 1.477950e+00	 7.377530e-01	 2.495230e+00
1	 1.469014e+00	 7.553883e-01	 1.887283e+00
1	 1.459851e+00	 7.729481e-01	 1.196016e+00
1	 1.450461e+00	 7.904283e-01	 4.235037e-01
1	 1.440845e+00	 8.078244e-01	-4.275434e-01
1	 1.493323e+00	 7.232755e-01	 2.799747e+00
1	 1.484577e+00	 7.410613e-01	 2.303449e+00
1	 1.475602e+00	 7.587757e-01	 1.727209e+00
1	 1.466398e+00	 7.764143e-01	 1.072135e+00
1	 1.456966e+00	 7.939728e-01	 3.400035e-01
1	 1.447306e+00	 8.114469e-01	-4.667308e-01
1	 1.499990e+00	 7.265044e-01	 2.591988e+00
1	 1.491205e+00	 7.443696e-01	 2.120747e+00
1	 1.482189e+00	 7.621631e-01	 1.574720e+00
1	 1.472944e+00	 7.798804e-01	 9.546818e-01
1	 1.463470e+00	 7.975173e-01	 2.621092e-01
1	 1.453767e+00	 8.150695e-01	-5.008096e-01
1	 1.421461e+00	 7.969568e-01	-2.793169e-01
1	 1.411752e+00	 8.140318e-01	-1.313496e+00
1	 1.401822e+00	 8.310154e-01	-2.365328e+00
1	 1.391673e+00	 8.479034e-01	-3.435146e+00
1	 1.381304e+00	 8.646917e-01	-4.523684e+00
1	 1.370718e+00	 8.813761e-01	-5.632067e+00
1	 1.427923e+00	 8.005793e-01	-3.338378e-01
1	 1.418170e+00	 8.177319e-01	-1.325498e+00
1	 1.408194e+00	 8.347927e-01	-2.338402e+00
1	 1.397998e+00	 8.517575e-01	-3.372377e+00
1	 1.387583e+00	 8.686222e-01	-4.427680e+00
1	 1.376949e+00	 8.853824e-01	-5.504993e+00
1	 1.434384e+00	 8.042019e-01	-3.832462e-01
1	 1.424587e+00	 8.214321e-01	-1.331463e+00
1	 1.414566e+00	 8.385701e-01	-2.304761e+00
1	 1.404324e+00	 8.556117e-01	-3.302486e+00
1	 1.393861e+00	 8.725526e-01	-4.324426e+00
1	 1.383179e+00	 8.893886e-01	-5.370808e+00
1	 1.440845e+00	 8.078244e-01	-4.275434e-01
1	 1.431004e+00	 8.251322e-01	-1.331789e+00
1	 1.420938e+00	 8.423474e-01	-2.265064e+00
1	 1.410650e+00	 8.594658e-01	-3.226255e+00
1	 1.400140e+00	 8.764830e-01	-4.214686e+00
1	 1.389410e+00	 8.933949e-01	-5.230121e+00
1	 1.447306e+00	 8.114469e-01	-4.667308e-01
1	 1.437421e+00	 8.288323e-01	-1.326871e+00
1	 1.427310e+00	 8.461248e-01	-2.219959e+00
1	 1.416976e+00	 8.633199e-01	-3.144449e+00
1	 1.406419e+00	 8.804134e-01	-4.099210e+00
1	 1.395641e+00	 8.974011e-01	-5.083528e+00
1	 1.453767e+00	 8.150695e-01	-5.008096e-01
1	 1.443838e+00	 8.325325e-01	-1.317092e+00
1	 1.433682e+00	 8.499021e-01	-2.170083e+00
1	 1.423301e+00	 8.671740e-01	-3.057825e+00
1	 1.412697e+00	 8.843438e-01	-3.978736e+00
1	 1.401871e+00	 9.014074e-01	-4.931616e+00
1	 1.370718e+00	 8.813761e-01	-5.632067e+00
1	 1.359917e+00	 8.979524e-01	-6.730081e+00
1	 1.348901e+00	 9.144165e-01	-7.788036e+00
1	 1.337674e+00	 9.307643e-01	-8.808407e+00
1	 1.326235e+00	 9.469918e-01	-9.794010e+00
1	 1.314588e+00	 9.630948e-01	-1.074800e+01
1	 1.376949e+00	 8.853824e-01	-5.504993e+00
1	 1.366098e+00	 9.020340e-01	-6.573411e+00
1	 1.355033e+00	 9.185729e-01	-7.603110e+00
1	 1.343754e+00	 9.349951e-01	-8.596974e+00
1	 1.332263e+00	 9.512963e-01	-9.558234e+00
1	 1.320563e+00	 9.674725e-01	-1.049045e+01
1	 1.383179e+00	 8.893886e-01	-5.370808e+00
1	 1.372280e+00	 9.061156e-01	-6.409899e+00
1	 1.361164e+00	 9.227294e-01	-7.411566e+00
1	 1.349834e+00	 9.392258e-01	-8.379040e+00
1	 1.338292e+00	 9.556008e-01	-9.315897e+00
1	 1.326539e+00	 9.718502e-01	-1.022605e+01
1	 1.389410e+00	 8.933949e-01	-5.230121e+00
1	 1.378461e+00	 9.101972e-01	-6.239942e+00
1	 1.367296e+00	 9.268858e-01	-7.213625e+00
1	 1.355915e+00	 9.434566e-01	-8.154678e+00
1	 1.344320e+00	 9.599053e-01	-9.066960e+00
1	 1.332514e+00	 9.762279e-01	-9.954677e+00
1	 1.395641e+00	 8.974011e-01	-5.083528e+00
1	 1.384643e+00	 9.142788e-01	-6.063930e+00
1	 1.373427e+00	 9.310423e-01	-7.009502e+00
1	 1.361995e+00	 9.476873e-01	-7.923960e+00
1	 1.350348e+00	 9.642098e-01	-8.811385e+00
1	 1.338489e+00	 9.806057e-01	-9.676212e+00
1	 1.401871e+00	 9.014074e-01	-4.931616e+00
1	 1.390824e+00	 9.183604e-01	-5.882248e+00
1	 1.379558e+00	 9.351987e-01	-6.799409e+00
1	 1.368075e+00	 9.519180e-01	-7.686958e+00
1	 1.356377e+00	 9.685143e-01	-8.549133e+00
1	 1.344465e+00	 9.849834e-01	-9.390543e+00
1	 1.314588e+00	 9.630948e-01	-1.074800e+01
1	 1.302734e+00	 9.790695e-01	-1.163849e+01
1	 1.290675e+00	 9.949120e-01	-1.243056e+01
1	 1.278414e+00	 1.010618e+00	-1.312298e+01
1	 1.265954e+00	 1.026184e+00	-1.371435e+01
1	 1.253295e+00	 1.041607e+00	-1.420317e+01
1	 1.320563e+00	 9.674725e-01	-1.049045e+01
1	 1.308655e+00	 9.835199e-01	-1.136004e+01
1	 1.296542e+00	 9.994343e-01	-1.212965e+01
1	 1.284225e+00	 1.015212e+00	-1.279734e+01
1	 1.271708e+00	 1.030849e+00	-1.336101e+01
1	 1.258992e+00	 1.046341e+00	-1.381841e+01
1	 1.326539e+00	 9.718502e-01	-1.022605e+01
1	 1.314577e+00	 9.879702e-01	-1.107412e+01
1	 1.302409e+00	 1.003957e+00	-1.182041e+01
1	 1.290036e+00	 1.019806e+00	-1.246245e+01
1	 1.277462e+00	 1.035513e+00	-1.299762e+01
1	 1.264689e+00	 1.051076e+00	-1.342311e+01
1	 1.332514e+00	 9.762279e-01	-9.954677e+00
1	 1.320498e+00	 9.924205e-01	-1.078060e+01
1	 1.308275e+00	 1.008479e+00	-1.150276e+01
1	 1.295847e+00	 1.024399e+00	-1.211835e+01
1	 1.283217e+00	 1.040178e+00	-1.262439e+01
1	 1.270385e+00	 1.055810e+00	-1.301773e+01
1	 1.338489e+00	 9.806057e-01	-9.676212e+00
1	 1.326420e+00	 9.968708e-01	-1.047933e+01
1	 1.314142e+00	 1.013001e+00	-1.117661e+01
1	 1.301658e+00	 1.028993e+00	-1.176507e+01
1	 1.288971e+00	 1.044842e+00	-1.224156e+01
1	 1.276082e+00	 1.060545e+00	-1.260277e+01
1	 1.344465e+00	 9.849834e-01	-9.390543e+00
1	 1.332341e+00	 1.001321e+00	-1.017018e+01
1	 1.320009e+00	 1.017524e+00	-1.084187e+01
1	 1.307469e+00	 1.033587e+00	-1.140264e+01
1	 1.294725e+00	 1.049507e+00	-1.184933e+01
1	 1.281779e+00	 1.065280e+00	-1.217868e+01
1	 1.253295e+00	 1.041607e+00	-1.420317e+01
1	 1.240441e+00	 1.056881e+00	-1.458451e+01
1	 1.227395e+00	 1.072005e+00	-1.486217e+01
1	 1.214159e+00	 1.086974e+00	-1.504823e+01
1	 1.200735e+00	 1.101784e+00	-1.515556e+01
1	 1.187128e+00	 1.116432e+00	-1.519784e+01
1	 1.258992e+00	 1.046341e+00	-1.381841e+01
1	 1.246080e+00	 1.061685e+00	-1.416784e+01
1	 1.232974e+00	 1.076878e+00	-1.441739e+01
1	 1.219678e+00	 1.091914e+00	-1.458010e+01
1	 1.206193e+00	 1.106792e+00	-1.466985e+01
1	 1.192524e+00	 1.121507e+00	-1.470137e+01
1	 1.264689e+00	 1.051076e+00	-1.342311e+01
1	 1.251718e+00	 1.066489e+00	-1.374083e+01
1	 1.238553e+00	 1.081750e+00	-1.396334e+01
1	 1.225196e+00	 1.096855e+00	-1.410436e+01
1	 1.211651e+00	 1.111800e+00	-1.417855e+01
1	 1.197920e+00	 1.126581e+00	-1.420144e+01
1	 1.270385e+00	 1.055810e+00	-1.301773e+01
1	 1.257356e+00	 1.071293e+00	-1.330421e+01
1	 1.244132e+00	 1.086623e+00	-1.350084e+01
1	 1.230715e+00	 1.101796e+00	-1.362184e+01
1	 1.217109e+00	 1.116808e+00	-1.368238e+01
1	 1.203316e+00	 1.131656e+00	-1.369855e+01
1	 1.276082e+00	 1.060545e+00	-1.260277e+01
1	 1.262995e+00	 1.076097e+00	-1.285868e+01
1	 1.249711e+00	 1.091496e+00	-1.303071e+01
1	 1.236234e+00	 1.106737e+00	-1.313334e+01
1	 1.222567e+00	 1.121816e+00	-1.318204e+01
1	 1.208712e+00	 1.136731e+00	-1.319318e+01
1	 1.281779e+00	 1.065280e+00	-1.217868e+01
1	 1.268633e+00	 1.080901e+00	-1.240492e+01
1	 1.255290e+00	 1.096369e+00	-1.255374e+01
1	 1.241753e+00	 1.111678e+00	-1.263967e+01
1	 1.228025e+00	 1.126824e+00	-1.267821e+01
1	 1.214108e+00	 1.141806e+00	-1.268579e+01
1	 1.187128e+00	 1.116432e+00	-1.519784e+01
1	 1.173339e+00	 1.130915e+00	-1.525373e+01
1	 1.159372e+00	 1.145229e+00	-1.538976e+01
1	 1.145229e+00	 1.159372e+00	-1.560174e+01
1	 1.130915e+00	 1.173339e+00	-1.588520e+01
1	 1.116432e+00	 1.187128e+00	-1.623546e+01
1	 1.192524e+00	 1.121507e+00	-1.470137e+01
1	 1.178672e+00	 1.136056e+00	-1.475074e+01
1	 1.164641e+00	 1.150435e+00	-1.488119e+01
1	 1.150435e+00	 1.164641e+00	-1.508853e+01
1	 1.136056e+00	 1.178672e+00	-1.536833e+01
1	 1.121507e+00	 1.192524e+00	-1.571589e+01
1	 1.197920e+00	 1.126581e+00	-1.420144e+01
1	 1.184005e+00	 1.141196e+00	-1.424607e+01
1	 1.169911e+00	 1.155640e+00	-1.437209e+01
1	 1.155640e+00	 1.169911e+00	-1.457541e+01
1	 1.141196e+00	 1.184005e+00	-1.485167e+01
1	 1.126581e+00	 1.197920e+00	-1.519623e+01
1	 1.203316e+00	 1.131656e+00	-1.369855e+01
1	 1.189339e+00	 1.146337e+00	-1.373994e+01
1	 1.175181e+00	 1.160846e+00	-1.386248e+01
1	 1.160846e+00	 1.175181e+00	-1.406221e+01
1	 1.146337e+00	 1.189339e+00	-1.433489e+01
1	 1.131656e+00	 1.203316e+00	-1.467602e+01
1	 1.208712e+00	 1.136731e+00	-1.319318e+01
1	 1.194672e+00	 1.151477e+00	-1.323259e+01
1	 1.180451e+00	 1.166052e+00	-1.335237e+01
1	 1.166052e+00	 1.180451e+00	-1.354874e+01
1	 1.151477e+00	 1.194672e+00	-1.381766e+01
1	 1.136731e+00	 1.208712e+00	-1.415481e+01
1	 1.214108e+00	 1.141806e+00	-1.268579e+01
1	 1.200006e+00	 1.156618e+00	-1.272424e+01
1	 1.185721e+00	 1.171257e+00	-1.284175e+01
1	 1.171257e+00	 1.185721e+00	-1.303483e+01
1	 1.156618e+00	 1.200006e+00	-1.329966e+01
1	 1.141806e+00	 1.214108e+00	-1.363214e+01
1	 1.116432e+00	 1.187128e+00	-1.623546e+01
1	 1.101784e+00	 1.200735e+00	-1.670442e+01
1	 1.086974e+00	 1.214159e+00	-1.733604e+01
1	 1.072005e+00	 1.227395e+00	-1.811291e+01
1	 1.056881e+00	 1.240441e+00	-1.901682e+01
1	 1.041607e+00	 1.253295e+00	-2.002880e+01
1	 1.121507e+00	 1.192524e+00	-1.571589e+01
1	 1.106792e+00	 1.206193e+00	-1.618086e+01
1	 1.091914e+00	 1.219678e+00	-1.680490e+01
1	 1.076878e+00	 1.232974e+00	-1.757049e+01
1	 1.061685e+00	 1.246080e+00	-1.845930e+01
1	 1.046341e+00	 1.258992e+00	-1.945224e+01
1	 1.126581e+00	 1.197920e+00	-1.519623e+01
1	 1.111800e+00	 1.211651e+00	-1.565656e+01
1	 1.096855e+00	 1.225196e+00	-1.627210e+01
1	 1.081750e+00	 1.238553e+00	-1.702535e+01
1	 1.066489e+00	 1.251718e+00	-1.789796e+01
1	 1.051076e+00	 1.264689e+00	-1.887081e+01
1	 1.131656e+00	 1.203316e+00	-1.467602e+01
1	 1.116808e+00	 1.217109e+00	-1.513097e+01
1	 1.101796e+00	 1.230715e+00	-1.573708e+01
1	 1.086623e+00	 1.244132e+00	-1.647693e+01
1	 1.071293e+00	 1.257356e+00	-1.733228e+01
1	 1.055810e+00	 1.270385e+00	-1.828411e+01
1	 1.136731e+00	 1.208712e+00	-1.415481e+01
1	 1.121816e+00	 1.222567e+00	-1.460355e+01
1	 1.106737e+00	 1.236234e+00	-1.519924e+01
1	 1.091496e+00	 1.249711e+00	-1.592466e+01
1	 1.076097e+00	 1.262995e+00	-1.676177e+01
1	 1.060545e+00	 1.276082e+00	-1.769173e+01
1	 1.141806e+00	 1.214108e+00	-1.363214e+01
1	 1.126824e+00	 1.228025e+00	-1.407378e+01
1	 1.111678e+00	 1.241753e+00	-1.465804e+01
1	 1.096369e+00	 1.255290e+00	-1.536800e+01
1	 1.080901e+00	 1.268633e+00	-1.618592e+01
1	 1.065280e+00	 1.281779e+00	-1.709327e+01
1	 1.041607e+00	 1.253295e+00	-2.002880e+01
1	 1.026184e+00	 1.265954e+00	-2.113145e+01
1	 1.010618e+00	 1.278414e+00	-2.231943e+01
1	 9.949120e-01	 1.290675e+00	-2.359131e+01
1	 9.790695e-01	 1.302734e+00	-2.494582e+01
1	 9.630948e-01	 1.314588e+00	-2.638183e+01
1	 1.046341e+00	 1.258992e+00	-1.945224e+01
1	 1.030849e+00	 1.271708e+00	-2.053481e+01
1	 1.015212e+00	 1.284225e+00	-2.170382e+01
1	 9.994343e-01	 1.296542e+00	-2.295658e+01
1	 9.835199e-01	 1.308655e+00	-2.429051e+01
1	 9.674725e-01	 1.320563e+00	-2.570310e+01
1	 1.051076e+00	 1.264689e+00	-1.887081e+01
1	 1.035513e+00	 1.277462e+00	-1.993227e+01
1	 1.019806e+00	 1.290036e+00	-2.108122e+01
1	 1.003957e+00	 1.302409e+00	-2.231376e+01
1	 9.879702e-01	 1.314577e+00	-2.362606e+01
1	 9.718502e-01	 1.326539e+00	-2.501432e+01
1	 1.055810e+00	 1.270385e+00	-1.828411e+01
1	 1.040178e+00	 1.283217e+00	-1.932355e+01
1	 1.024399e+00	 1.295847e+00	-2.045146e+01
1	 1.008479e+00	 1.308275e+00	-2.166281e+01
1	 9.924205e-01	 1.320498e+00	-2.295257e+01
1	 9.762279e-01	 1.332514e+00	-2.431572e+01
1	 1.060545e+00	 1.276082e+00	-1.769173e+01
1	 1.044842e+00	 1.288971e+00	-1.870837e+01
1	 1.028993e+00	 1.301658e+00	-1.981440e+01
1	 1.013001e+00	 1.314142e+00	-2.100371e+01
1	 9.968708e-01	 1.326420e+00	-2.227014e+01
1	 9.806057e-01	 1.338489e+00	-2.360751e+01
1	 1.065280e+00	 1.281779e+00	-1.709327e+01
1	 1.049507e+00	 1.294725e+00	-1.808645e+01
1	 1.033587e+00	 1.307469e+00	-1.916988e+01
1	 1.017524e+00	 1.320009e+00	-2.033643e+01
1	 1.001321e+00	 1.332341e+00	-2.157888e+01
1	 9.849834e-01	 1.344465e+00	-2.288994e+01
1	 9.630948e-01	 1.314588e+00	-2.638183e+01
1	 9.469918e-01	 1.326235e+00	-2.785216e+01
1	 9.307643e-01	 1.337674e+00	-2.930426e+01
1	 9.144165e-01	 1.348901e+00	-3.072886e+01
1	 8.979524e-01	 1.359917e+00	-3.211645e+01
1	 8.813761e-01	 1.370718e+00	-3.345737e+01
1	 9.674725e-01	 1.320563e+00	-2.570310e+01
1	 9.512963e-01	 1.332263e+00	-2.714479e+01
1	 9.349951e-01	 1.343754e+00	-2.856268e+01
1	 9.185729e-01	 1.355033e+00	-2.994930e+01
1	 9.020340e-01	 1.366098e+00	-3.129702e+01
1	 8.853824e-01	 1.376949e+00	-3.259805e+01
1	 9.718502e-01	 1.326539e+00	-2.501432e+01
1	 9.556008e-01	 1.338292e+00	-2.642697e+01
1	 9.392258e-01	 1.349834e+00	-2.781086e+01
1	 9.227294e-01	 1.361164e+00	-2.915984e+01
1	 9.061156e-01	 1.372280e+00	-3.046765e+01
1	 8.893886e-01	 1.383179e+00	-3.172795e+01
1	 9.762279e-01	 1.332514e+00	-2.431572e+01
1	 9.599053e-01	 1.344320e+00	-2.569901e+01
1	 9.434566e-01	 1.355915e+00	-2.704904e+01
1	 9.268858e-01	 1.367296e+00	-2.836054e+01
1	 9.101972e-01	 1.378461e+00	-2.962817e+01
1	 8.933949e-01	 1.389410e+00	-3.084652e+01
1	 9.806057e-01	 1.338489e+00	-2.360751e+01
1	 9.642098e-01	 1.350348e+00	-2.496120e+01
1	 9.476873e-01	 1.361995e+00	-2.627748e+01
1	 9.310423e-01	 1.373427e+00	-2.755151e+01
1	 9.142788e-01	 1.384643e+00	-2.877839e+01
1	 8.974011e-01	 1.395641e+00	-2.995322e+01
1	 9.849834e-01	 1.344465e+00	-2.288994e+01
1	 9.685143e-01	 1.356377e+00	-2.421382e+01
1	 9.519180e-01	 1.368075e+00	-2.549640e+01
1	 9.351987e-01	 1.379558e+00	-2.673280e+01
1	 9.183604e-01	 1.390824e+00	-2.791814e+01
1	 9.014074e-01	 1.401871e+00	-2.904752e+01
1	 8.813761e-01	 1.370718e+00	-3.345737e+01
1	 8.646917e-01	 1.381304e+00	-3.472523e+01
1	 8.479034e-01	 1.391673e+00	-3.589162e+01
1	 8.310154e-01	 1.401822e+00	-3.694350e+01
1	 8.140318e-01	 1.411752e+00	-3.786771e+01
1	 7.969568e-01	 1.421461e+00	-3.865096e+01
1	 8.853824e-01	 1.376949e+00	-3.259805e+01
1	 8.686222e-01	 1.387583e+00	-3.382641e+01
1	 8.517575e-01	 1.397998e+00	-3.495064e+01
1	 8.347927e-01	 1.408194e+00	-3.595451e+01
1	 8.177319e-01	 1.418170e+00	-3.682152e+01
1	 8.005793e-01	 1.427923e+00	-3.753500e+01
1	 8.893886e-01	 1.383179e+00	-3.172795e+01
1	 8.725526e-01	 1.393861e+00	-3.291427e+01
1	 8.556117e-01	 1.404324e+00	-3.399226e+01
1	 8.385701e-01	 1.414566e+00	-3.494343e+01
1	 8.214321e-01	 1.424587e+00	-3.574902e+01
1	 8.042019e-01	 1.434384e+00	-3.639000e+01
1	 8.933949e-01	 1.389410e+00	-3.084652e+01
1	 8.764830e-01	 1.400140e+00	-3.198798e+01
1	 8.594658e-01	 1.410650e+00	-3.301557e+01
1	 8.423474e-01	 1.420938e+00	-3.390957e+01
1	 8.251322e-01	 1.431004e+00	-3.464993e+01
1	 8.078244e-01	 1.440845e+00	-3.521630e+01
1	 8.974011e-01	 1.395641e+00	-2.995322e+01
1	 8.804134e-01	 1.406419e+00	-3.104672e+01
1	 8.633199e-01	 1.416976e+00	-3.201972e+01
1	 8.461248e-01	 1.427310e+00	-3.285225e+01
1	 8.288323e-01	 1.437421e+00	-3.352397e+01
1	 8.114469e-01	 1.447306e+00	-3.401421e+01
1	 9.014074e-01	 1.401871e+00	-2.904752e+01
1	 8.843438e-01	 1.412697e+00	-3.008966e+01
1	 8.671740e-01	 1.423301e+00	-3.100386e+01
1	 8.499021e-01	 1.433682e+00	-3.177081e+01
1	 8.325325e-01	 1.443838e+00	-3.237086e+01
1	 8.150695e-01	 1.453767e+00	-3.278405e+01
1	 7.969568e-01	 1.421461e+00	-3.865096e+01
1	 7.797947e-01	 1.430948e+00	-3.924037e+01
1	 7.625497e-01	 1.440212e+00	-3.960546e+01
1	 7.452261e-01	 1.449252e+00	-3.976683e+01
1	 7.278281e-01	 1.458067e+00	-3.974561e+01
1	 7.103599e-01	 1.466657e+00	-3.956333e+01
1	 8.005793e-01	 1.427923e+00	-3.753500e+01
1	 7.833392e-01	 1.437453e+00	-3.804363e+01
1	 7.660159e-01	 1.446758e+00	-3.832392e+01
1	 7.486135e-01	 1.455839e+00	-3.840126e+01
1	 7.311364e-01	 1.464694e+00	-3.830167e+01
1	 7.135888e-01	 1.473323e+00	-3.805167e+01
1	 8.042019e-01	 1.434384e+00	-3.639000e+01
1	 7.868838e-01	 1.443957e+00	-3.681830e+01
1	 7.694820e-01	 1.453305e+00	-3.701795e+01
1	 7.520009e-01	 1.462427e+00	-3.701853e+01
1	 7.344447e-01	 1.471322e+00	-3.685028e+01
1	 7.168177e-01	 1.479990e+00	-3.654410e+01
1	 8.078244e-01	 1.440845e+00	-3.521630e+01
1	 7.904283e-01	 1.450461e+00	-3.556532e+01
1	 7.729481e-01	 1.459851e+00	-3.568895e+01
1	 7.553883e-01	 1.469014e+00	-3.562030e+01
1	 7.377530e-01	 1.477950e+00	-3.539326e+01
1	 7.200466e-01	 1.486656e+00	-3.504241e+01
1	 8.114469e-01	 1.447306e+00	-3.401421e+01
1	 7.939728e-01	 1.456966e+00	-3.428561e+01
1	 7.764143e-01	 1.466398e+00	-3.433827e+01
1	 7.587757e-01	 1.475602e+00	-3.420823e+01
1	 7.410613e-01	 1.484577e+00	-3.393240e+01
1	 7.232755e-01	 1.493323e+00	-3.354839e+01
1	 8.150695e-01	 1.453767e+00	-3.278405e+01
1	 7.975173e-01	 1.463470e+00	-3.298009e+01
1	 7.798804e-01	 1.472944e+00	-3.296726e+01
1	 7.621631e-01	 1.482189e+00	-3.278395e+01
1	 7.443696e-01	 1.491205e+00	-3.246942e+01
1	 7.265044e-01	 1.499990e+00	-3.206376e+01
1	 7.103599e-01	 1.466657e+00	-3.956333e+01
1	 6.928258e-01	 1.475020e+00	-3.921849e+01
1	 6.752300e-01	 1.483158e+00	-3.871870e+01
1	 6.575768e-01	 1.491069e+00	-3.809988e+01
1	 6.398703e-01	 1.498752e+00	-3.739834e+01
1	 6.221149e-01	 1.506209e+00	-3.665074e+01
1	 7.135888e-01	 1.473323e+00	-3.805167e+01
1	 6.959750e-01	 1.481725e+00	-3.765468e+01
1	 6.782992e-01	 1.489899e+00	-3.711935e+01
1	 6.605658e-01	 1.497846e+00	-3.648076e+01
1	 6.427789e-01	 1.505565e+00	-3.577438e+01
1	 6.249427e-01	 1.513055e+00	-3.503596e+01
1	 7.168177e-01	 1.479990e+00	-3.654410e+01
1	 6.991242e-01	 1.488430e+00	-3.610696e+01
1	 6.813685e-01	 1.496641e+00	-3.554709e+01
1	 6.635548e-01	 1.504624e+00	-3.489792e+01
1	 6.456874e-01	 1.512377e+00	-3.419323e+01
1	 6.277705e-01	 1.519902e+00	-3.346702e+01
1	 7.200466e-01	 1.486656e+00	-3.504241e+01
1	 7.022734e-01	 1.495134e+00	-3.457698e+01
1	 6.844377e-01	 1.503383e+00	-3.400331e+01
1	 6.665437e-01	 1.511401e+00	-3.335238e+01
1	 6.485959e-01	 1.519190e+00	-3.265543e+01
1	 6.305983e-01	 1.526748e+00	-3.194392e+01
1	 7.232755e-01	 1.493323e+00	-3.354839e+01
1	 7.054226e-01	 1.501839e+00	-3.306637e+01
1	 6.875069e-01	 1.510124e+00	-3.248938e+01
1	 6.695327e-01	 1.518179e+00	-3.184513e+01
1	 6.515044e-01	 1.526002e+00	-3.116152e+01
1	 6.334261e-01	 1.533595e+00	-3.046663e+01
1	 7.265044e-01	 1.499990e+00	-3.206376e+01
1	 7.085718e-01	 1.508544e+00	-3.157672e+01
1	 6.905761e-01	 1.516866e+00	-3.100664e+01
1	 6.725217e-01	 1.524956e+00	-3.037716e+01
1	 6.544129e-01	 1.532815e+00	-2.971203e+01
1	 6.362539e-01	 1.540441e+00	-2.903515e+01
1	 6.221149e-01	 1.506209e+00	-3.665074e+01
1	 6.043146e-01	 1.513439e+00	-3.592076e+01
1	 5.864737e-01	 1.520441e+00	-3.525147e+01
1	 5.685963e-01	 1.527217e+00	-3.464873e+01
1	 5.506864e-01	 1.533766e+00	-3.411825e+01
1	 5.327483e-01	 1.540088e+00	-3.366556e+01
1	 6.249427e-01	 1.513055e+00	-3.503596e+01
1	 6.070615e-01	 1.520318e+00	-3.432548e+01
1	 5.891395e-01	 1.527352e+00	-3.368113e+01
1	 5.711808e-01	 1.534159e+00	-3.310606e+01
1	 5.531896e-01	 1.540737e+00	-3.260322e+01
1	 5.351699e-01	 1.547089e+00	-3.217540e+01
1	 6.277705e-01	 1.519902e+00	-3.346702e+01
1	 6.098084e-01	 1.527197e+00	-3.277514e+01
1	 5.918053e-01	 1.534263e+00	-3.215190e+01
1	 5.737653e-01	 1.541101e+00	-3.159910e+01
1	 5.556927e-01	 1.547709e+00	-3.111834e+01
1	 5.375915e-01	 1.554089e+00	-3.071106e+01
1	 6.305983e-01	 1.526748e+00	-3.194392e+01
1	 6.125553e-01	 1.534076e+00	-3.126924e+01
1	 5.944711e-01	 1.541174e+00	-3.066302e+01
1	 5.763498e-01	 1.548042e+00	-3.012706e+01
1	 5.581958e-01	 1.554681e+00	-2.966297e+01
1	 5.400131e-01	 1.561090e+00	-2.927220e+01
1	 6.334261e-01	 1.533595e+00	-3.046663e+01
1	 6.153022e-01	 1.540956e+00	-2.980730e+01
1	 5.971369e-01	 1.548086e+00	-2.921377e+01
1	 5.789344e-01	 1.554984e+00	-2.868917e+01
1	 5.606989e-01	 1.561652e+00	-2.823648e+01
1	 5.424346e-01	 1.568090e+00	-2.785850e+01
1	 6.362539e-01	 1.540441e+00	-2.903515e+01
1	 6.180491e-01	 1.547835e+00	-2.838884e+01
1	 5.998026e-01	 1.554997e+00	-2.780342e+01
1	 5.815189e-01	 1.561926e+00	-2.728466e+01
1	 5.632020e-01	 1.568624e+00	-2.683823e+01
1	 5.448562e-01	 1.575090e+00	-2.646964e+01
1	 5.327483e-01	 1.540088e+00	-3.366556e+01
1	 5.147860e-01	 1.546185e+00	-3.329470e+01
1	 4.968034e-01	 1.552056e+00	-3.302333e+01
1	 4.788046e-01	 1.557703e+00	-3.287723e+01
1	 4.607936e-01	 1.563126e+00	-3.288197e+01
1	 4.427743e-01	 1.568325e+00	-3.306295e+01
1	 5.351699e-01	 1.547089e+00	-3.217540e+01
1	 5.171259e-01	 1.553213e+00	-3.182621e+01
1	 4.990616e-01	 1.559111e+00	-3.157614e+01
1	 4.809810e-01	 1.564784e+00	-3.145306e+01
1	 4.628881e-01	 1.570231e+00	-3.148471e+01
1	 4.447869e-01	 1.575454e+00	-3.169859e+01
1	 5.375915e-01	 1.554089e+00	-3.071106e+01
1	 5.194658e-01	 1.560241e+00	-3.038163e+01
1	 5.013198e-01	 1.566166e+00	-3.015292e+01
1	 4.831574e-01	 1.571864e+00	-3.005392e+01
1	 4.649827e-01	 1.577336e+00	-3.011343e+01
1	 4.467995e-01	 1.582583e+00	-3.036007e+01
1	 5.400131e-01	 1.561090e+00	-2.927220e+01
1	 5.218058e-01	 1.567269e+00	-2.896091e+01
1	 5.035780e-01	 1.573221e+00	-2.875380e+01
1	 4.853338e-01	 1.578944e+00	-2.867993e+01
1	 4.670772e-01	 1.584441e+00	-2.876817e+01
1	 4.488121e-01	 1.589711e+00	-2.904721e+01
1	 5.424346e-01	 1.568090e+00	-2.785850e+01
1	 5.241457e-01	 1.574297e+00	-2.756405e+01
1	 5.058362e-01	 1.580276e+00	-2.737892e+01
1	 4.875102e-01	 1.586025e+00	-2.733123e+01
1	 4.691717e-01	 1.591546e+00	-2.744895e+01
1	 4.508247e-01	 1.596840e+00	-2.775980e+01
1	 5.448562e-01	 1.575090e+00	-2.646964e+01
1	 5.264856e-01	 1.581326e+00	-2.619101e+01
1	 5.080944e-01	 1.587330e+00	-2.602838e+01
1	 4.896866e-01	 1.593105e+00	-2.600797e+01
1	 4.712662e-01	 1.598651e+00	-2.615579e+01
1	 4.528373e-01	 1.603969e+00	-2.649763e+01
1	 4.427743e-01	 1.568325e+00	-3.306295e+01
1	 4.247505e-01	 1.573302e+00	-3.346180e+01
1	 4.067260e-01	 1.578058e+00	-3.408783e+01
1	 3.887047e-01	 1.582593e+00	-3.491759e+01
1	 3.706903e-01	 1.586909e+00	-3.592755e+01
1	 3.526865e-01	 1.591008e+00	-3.709407e+01
1	 4.447869e-01	 1.575454e+00	-3.169859e+01
1	 4.266811e-01	 1.580454e+00	-3.213602e+01
1	 4.085748e-01	 1.585231e+00	-3.280477e+01
1	 3.904716e-01	 1.589787e+00	-3.368168e+01
1	 3.723753e-01	 1.594123e+00	-3.474343e+01
1	 3.542896e-01	 1.598239e+00	-3.596663e+01
1	 4.467995e-01	 1.582583e+00	-3.036007e+01
1	 4.286118e-01	 1.587605e+00	-3.083401e+01
1	 4.104235e-01	 1.592404e+00	-3.154170e+01
1	 3.922384e-01	 1.596980e+00	-3.246085e+01
1	 3.740602e-01	 1.601336e+00	-3.356904e+01
1	 3.558927e-01	 1.605471e+00	-3.484371e+01
1	 4.488121e-01	 1.589711e+00	-2.904721e+01
1	 4.305425e-01	 1.594756e+00	-2.955533e+01
1	 4.122723e-01	 1.599577e+00	-3.029803e+01
1	 3.940052e-01	 1.604174e+00	-3.125451e+01
1	 3.757452e-01	 1.608549e+00	-3.240382e+01
1	 3.574959e-01	 1.612703e+00	-3.372485e+01
1	 4.508247e-01	 1.596840e+00	-2.775980e+01
1	 4.324732e-01	 1.601908e+00	-2.829954e+01
1	 4.141210e-01	 1.606750e+00	-2.907320e+01
1	 3.957721e-01	 1.611368e+00	-3.006205e+01
1	 3.774301e-01	 1.615762e+00	-3.124720e+01
1	 3.590990e-01	 1.619935e+00	-3.260960e+01
1	 4.528373e-01	 1.603969e+00	-2.649763e+01
1	 4.344039e-01	 1.609059e+00	-2.706624e+01
1	 4.159698e-01	 1.613923e+00	-2.786668e+01
1	 3.975389e-01	 1.618561e+00	-2.888289e+01
1	 3.791151e-01	 1.622976e+00	-3.009863e+01
1	 3.607021e-01	 1.627167e+00	-3.149752e+01
1	 3.526865e-01	 1.591008e+00	-3.709407e+01
1	 3.346969e-01	 1.594889e+00	-3.843677e+01
1	 3.167250e-01	 1.598555e+00	-3.996519e+01
1	 2.987745e-01	 1.602007e+00	-4.164066e+01
1	 2.808488e-01	 1.605247e+00	-4.342472e+01
1	 2.629512e-01	 1.608275e+00	-4.527913e+01
1	 3.542896e-01	 1.598239e+00	-3.596663e+01
1	 3.362182e-01	 1.602138e+00	-3.737074e+01
1	 3.181647e-01	 1.605821e+00	-3.896433e+01
1	 3.001326e-01	 1.609289e+00	-4.070769e+01
1	 2.821254e-01	 1.612543e+00	-4.256133e+01
1	 2.641465e-01	 1.615586e+00	-4.448603e+01
1	 3.558927e-01	 1.605471e+00	-3.484371e+01
1	 3.377396e-01	 1.609388e+00	-3.630463e+01
1	 3.196044e-01	 1.613087e+00	-3.795931e+01
1	 3.014907e-01	 1.616571e+00	-3.976680e+01
1	 2.834020e-01	 1.619840e+00	-4.168640e+01
1	 2.653417e-01	 1.622896e+00	-4.367767e+01
1	 3.574959e-01	 1.612703e+00	-3.372485e+01
1	 3.392609e-01	 1.616637e+00	-3.523810e+01
1	 3.210440e-01	 1.620353e+00	-3.694988e+01
1	 3.028487e-01	 1.623853e+00	-3.881780e+01
1	 2.846785e-01	 1.627136e+00	-4.079973e+01
1	 2.665369e-01	 1.630206e+00	-4.285381e+01
1	 3.590990e-01	 1.619935e+00	-3.260960e+01
1	 3.407823e-01	 1.623887e+00	-3.417082e+01
1	 3.224837e-01	 1.627620e+00	-3.593578e+01
1	 3.042068e-01	 1.631134e+00	-3.786045e+01
1	 2.859551e-01	 1.634433e+00	-3.990110e+01
1	 2.677322e-01	 1.637517e+00	-4.201423e+01
1	 3.607021e-01	 1.627167e+00	-3.149752e+01
1	 3.423036e-01	 1.631136e+00	-3.310247e+01
1	 3.239233e-01	 1.634886e+00	-3.491676e+01
1	 3.055649e-01	 1.638416e+00	-3.689457e+01
1	 2.872317e-01	 1.641729e+00	-3.899031e+01
1	 2.689274e-01	 1.644827e+00	-4.115867e+01
1	 2.629512e-01	 1.608275e+00	-4.527913e+01
1	 2.450852e-01	 1.611095e+00	-4.715801e+01
1	 2.272541e-01	 1.613706e+00	-4.902264e+01
1	 2.094610e-01	 1.616112e+00	-5.084603e+01
1	 1.917091e-01	 1.618314e+00	-5.260155e+01
1	 1.740015e-01	 1.620314e+00	-5.426298e+01
1	 2.641465e-01	 1.615586e+00	-4.448603e+01
1	 2.461993e-01	 1.618418e+00	-4.643516e+01
1	 2.282870e-01	 1.621041e+00	-4.836943e+01
1	 2.104131e-01	 1.623458e+00	-5.026111e+01
1	 1.925805e-01	 1.625670e+00	-5.208283e+01
1	 1.747925e-01	 1.627679e+00	-5.380762e+01
1	 2.653417e-01	 1.622896e+00	-4.367767e+01
1	 2.473133e-01	 1.625741e+00	-4.569307e+01
1	 2.293200e-01	 1.628376e+00	-4.769282e+01
1	 2.113652e-01	 1.630804e+00	-4.964860e+01
1	 1.934519e-01	 1.633026e+00	-5.153245e+01
1	 1.755834e-01	 1.635044e+00	-5.331684e+01
1	 2.665369e-01	 1.630206e+00	-4.285381e+01
1	 2.484273e-01	 1.633064e+00	-4.493147e+01
1	 2.303530e-01	 1.635711e+00	-4.699252e+01
1	 2.123172e-01	 1.638150e+00	-4.900821e+01
1	 1.943233e-01	 1.640382e+00	-5.095016e+01
1	 1.763743e-01	 1.642409e+00	-5.279040e+01
1	 2.677322e-01	 1.637517e+00	-4.201423e+01
1	 2.495413e-01	 1.640387e+00	-4.415010e+01
1	 2.313860e-01	 1.643047e+00	-4.626825e+01
1	 2.132693e-01	 1.645496e+00	-4.833966e+01
1	 1.951947e-01	 1.647738e+00	-5.033569e+01
1	 1.771652e-01	 1.649774e+00	-5.222812e+01
1	 2.689274e-01	 1.644827e+00	-4.115867e+01
1	 2.506554e-01	 1.647710e+00	-4.334868e+01
1	 2.324189e-01	 1.650382e+00	-4.551973e+01
1	 2.142214e-01	 1.652842e+00	-4.764269e+01
1	 1.960661e-01	 1.655094e+00	-4.968882e+01
1	 1.779561e-01	 1.657139e+00	-5.162978e+01
1	 1.740015e-01	 1.620314e+00	-5.426298e+01
1	 1.563414e-01	 1.622113e+00	-5.580093e+01
1	 1.387315e-01	 1.623714e+00	-5.718123e+01
1	 1.211750e-01	 1.625118e+00	-5.837116e+01
1	 1.036745e-01	 1.626328e+00	-5.933862e+01
1	 8.623285e-02	 1.627346e+00	-6.005219e+01
1	 1.747925e-01	 1.627679e+00	-5.380762e+01
1	 1.570520e-01	 1.629486e+00	-5.540521e+01
1	 1.393621e-01	 1.631094e+00	-5.684062e+01
1	 1.217258e-01	 1.632505e+00	-5.808065e+01
1	 1.041457e-01	 1.633721e+00	-5.909269e+01
1	 8.662482e-02	 1.634744e+00	-5.984483e+01
1	 1.755834e-01	 1.635044e+00	-5.331684e+01
1	 1.577627e-01	 1.636859e+00	-5.497073e+01
1	 1.399927e-01	 1.638475e+00	-5.645843e+01
1	 1.222765e-01	 1.639892e+00	-5.774616e+01
1	 1.046170e-01	 1.641113e+00	-5.880081e+01
1	 8.701678e-02	 1.642141e+00	-5.958992e+01
1	 1.763743e-01	 1.642409e+00	-5.279040e+01
1	 1.584733e-01	 1.644233e+00	-5.449732e+01
1	 1.406233e-01	 1.645855e+00	-5.603450e+01
1	 1.228273e-01	 1.647279e+00	-5.736757e+01
1	 1.050882e-01	 1.648506e+00	-5.846284e+01
1	 8.740875e-02	 1.649538e+00	-5.928733e+01
1	 1.771652e-01	 1.649774e+00	-5.222812e+01
1	 1.591839e-01	 1.651606e+00	-5.398484e+01
1	 1.412539e-01	 1.653236e+00	-5.556870e+01
1	 1.233781e-01	 1.654666e+00	-5.694474e+01
1	 1.055595e-01	 1.655898e+00	-5.807867e+01
1	 8.780072e-02	 1.656935e+00	-5.893693e+01
1	 1.779561e-01	 1.657139e+00	-5.162978e+01
1	 1.598946e-01	 1.658979e+00	-5.343311e+01
1	 1.418845e-01	 1.660616e+00	-5.506090e+01
1	 1.239289e-01	 1.662053e+00	-5.647757e+01
1	 1.060307e-01	 1.663290e+00	-5.764819e+01
1	 8.819269e-02	 1.664332e+00	-5.853860e+01
1	 8.623285e-02	 1.627346e+00	-6.005219e+01
1	 6.885280e-02	 1.628174e+00	-6.048273e+01
1	 5.153695e-02	 1.628814e+00	-6.060693e+01
1	 3.428788e-02	 1.629269e+00	-6.040302e+01
1	 1.710809e-02	 1.629540e+00	-5.984988e+01
1	 0.000000e+00	 1.629630e+00	-5.892703e+01
1	 8.662482e-02	 1.634744e+00	-5.984483e+01
1	 6.916576e-02	 1.635575e+00	-6.030741e+01
1	 5.177121e-02	 1.636218e+00	-6.045632e+01
1	 3.444373e-02	 1.636675e+00	-6.026888e+01
1	 1.718585e-02	 1.636947e+00	-5.972306e+01
1	 0.000000e+00	 1.637037e+00	-5.879753e+01
1	 8.701678e-02	 1.642141e+00	-5.958992e+01
1	 6.947873e-02	 1.642976e+00	-6.008333e+01
1	 5.200547e-02	 1.643622e+00	-6.025620e+01
1	 3.459959e-02	 1.644080e+00	-6.008507e+01
1	 1.726361e-02	 1.644354e+00	-5.954720e+01
1	 0.000000e+00	 1.644444e+00	-5.862050e+01
1	 8.740875e-02	 1.649538e+00	-5.928733e+01
1	 6.979170e-02	 1.650377e+00	-5.981033e+01
1	 5.223973e-02	 1.651026e+00	-6.000639e+01
1	 3.475544e-02	 1.651486e+00	-5.985144e+01
1	 1.734138e-02	 1.651761e+00	-5.932211e+01
1	 0.000000e+00	 1.651852e+00	-5.839576e+01
1	 8.780072e-02	 1.656935e+00	-5.893693e+01
1	 7.010467e-02	 1.657778e+00	-5.948827e+01
1	 5.247399e-02	 1.658429e+00	-5.970675e+01
1	 3.491130e-02	 1.658892e+00	-5.956782e+01
1	 1.741914e-02	 1.659168e+00	-5.904765e+01
1	 0.000000e+00	 1.659259e+00	-5.812315e+01
1	 8.819269e-02	 1.664332e+00	-5.853860e+01
1	 7.041763e-02	 1.665178e+00	-5.911701e+01
1	 5.270824e-02	 1.665833e+00	-5.935713e+01
1	 3.506715e-02	 1.666298e+00	-5.923405e+01
1	 1.749691e-02	 1.666575e+00	-5.872364e+01
1	 0.000000e+00	 1.666667e+00	-5.780250e+01
1	 1.666667e+00	 0.000000e+00	 1.425477e+01
1	 1.666575e+00	 1.749691e-02	 1.403826e+01
1	 1.666298e+00	 3.506715e-02	 1.376608e+01
1	 1.665833e+00	 5.270824e-02	 1.344310e+01
1	 1.665178e+00	 7.041763e-02	 1.307432e+01
1	 1.664332e+00	 8.819269e-02	 1.266479e+01
1	 1.674074e+00	 0.000000e+00	 1.403507e+01
1	 1.673982e+00	 1.757467e-02	 1.382724e+01
1	 1.673703e+00	 3.522300e-02	 1.356235e+01
1	 1.673237e+00	 5.294250e-02	 1.324534e+01
1	 1.672579e+00	 7.073060e-02	 1.288128e+01
1	 1.671729e+00	 8.858465e-02	 1.247530e+01
1	 1.681481e+00	 0.000000e+00	 1.380939e+01
1	 1.681389e+00	 1.765243e-02	 1.361030e+01
1	 1.681109e+00	 3.537886e-02	 1.335282e+01
1	 1.680640e+00	 5.317676e-02	 1.304202e+01
1	 1.679980e+00	 7.104357e-02	 1.268301e+01
1	 1.679126e+00	 8.897662e-02	 1.228101e+01
1	 1.688889e+00	 0.000000e+00	 1.357769e+01
1	 1.688796e+00	 1.773020e-02	 1.338740e+01
1	 1.688515e+00	 3.553471e-02	 1.313749e+01
1	 1.688044e+00	 5.341102e-02	 1.283308e+01
1	 1.687381e+00	 7.135653e-02	 1.247942e+01
1	 1.686523e+00	 8.936859e-02	 1.208181e+01
1	 1.696296e+00	 0.000000e+00	 1.333992e+01
1	 1.696203e+00	 1.780796e-02	 1.315852e+01
1	 1.695921e+00	 3.569057e-02	 1.291630e+01
1	 1.695448e+00	 5.364528e-02	 1.261850e+01
1	 1.694782e+00	 7.166950e-02	 1.227046e+01
1	 1.693920e+00	 8.976056e-02	 1.187761e+01
1	 1.703704e+00	 0.000000e+00	 1.309601e+01
1	 1.703610e+00	 1.788573e-02	 1.292362e+01
1	 1.703327e+00	 3.584642e-02	 1.268923e+01
1	 1.702852e+00	 5.387954e-02	 1.239822e+01
1	 1.702182e+00	 7.198247e-02	 1.205606e+01
1	 1.701317e+00	 9.015252e-02	 1.166831e+01
1	 1.664332e+00	 8.819269e-02	 1.266479e+01
1	 1.663290e+00	 1.060307e-01	 1.221725e+01
1	 1.662053e+00	 1.239289e-01	 1.173530e+01
1	 1.660616e+00	 1.418845e-01	 1.122545e+01
1	 1.658979e+00	 1.598946e-01	 1.069424e+01
1	 1.657139e+00	 1.779561e-01	 1.014823e+01
1	 1.671729e+00	 8.858465e-02	 1.247530e+01
1	 1.670683e+00	 1.065020e-01	 1.203003e+01
1	 1.669440e+00	 1.244797e-01	 1.154905e+01
1	 1.667997e+00	 1.425151e-01	 1.103897e+01
1	 1.666352e+00	 1.606052e-01	 1.050644e+01
1	 1.664504e+00	 1.787470e-01	 9.958168e+00
1	 1.679126e+00	 8.897662e-02	 1.228101e+01
1	 1.678075e+00	 1.069732e-01	 1.183859e+01
1	 1.676827e+00	 1.250305e-01	 1.135924e+01
1	 1.675377e+00	 1.431457e-01	 1.084967e+01
1	 1.673726e+00	 1.613159e-01	 1.031662e+01
1	 1.671869e+00	 1.795380e-01	 9.766865e+00
1	 1.686523e+00	 8.936859e-02	 1.208181e+01
1	 1.685468e+00	 1.074445e-01	 1.164278e+01
1	 1.684213e+00	 1.255813e-01	 1.116571e+01
1	 1.682758e+00	 1.437763e-01	 1.065738e+01
1	 1.681099e+00	 1.620265e-01	 1.012458e+01
1	 1.679234e+00	 1.803289e-01	 9.574156e+00
1	 1.693920e+00	 8.976056e-02	 1.187761e+01
1	 1.692860e+00	 1.079157e-01	 1.144245e+01
1	 1.691600e+00	 1.261321e-01	 1.096829e+01
1	 1.690138e+00	 1.444069e-01	 1.046192e+01
1	 1.688472e+00	 1.627371e-01	 9.930157e+00
1	 1.686599e+00	 1.811198e-01	 9.379876e+00
1	 1.701317e+00	 9.015252e-02	 1.166831e+01
1	 1.700253e+00	 1.083869e-01	 1.123748e+01
1	 1.698987e+00	 1.266829e-01	 1.076682e+01
1	 1.697519e+00	 1.450375e-01	 1.026311e+01
1	 1.695845e+00	 1.634478e-01	 9.733164e+00
1	 1.693964e+00	 1.819107e-01	 9.183864e+00
1	 1.657139e+00	 1.779561e-01	 1.014823e+01
1	 1.655094e+00	 1.960661e-01	 9.595365e+00
1	 1.652842e+00	 2.142214e-01	 9.042459e+00
1	 1.650382e+00	 2.324189e-01	 8.494474e+00
1	 1.647710e+00	 2.506554e-01	 7.956352e+00
1	 1.644827e+00	 2.689274e-01	 7.433011e+00
1	 1.664504e+00	 1.787470e-01	 9.958168e+00
1	 1.662450e+00	 1.969375e-01	 9.402262e+00
1	 1.660188e+00	 2.151735e-01	 8.845697e+00
1	 1.657717e+00	 2.334519e-01	 8.293464e+00
1	 1.655034e+00	 2.517694e-01	 7.750543e+00
1	 1.652137e+00	 2.701226e-01	 7.221892e+00
1	 1.671869e+00	 1.795380e-01	 9.766865e+00
1	 1.669806e+00	 1.978089e-01	 9.208715e+00
1	 1.667534e+00	 2.161256e-01	 8.649305e+00
1	 1.665052e+00	 2.344849e-01	 8.093679e+00
1	 1.662357e+00	 2.528834e-01	 7.546870e+00
1	 1.659448e+00	 2.713179e-01	 7.013892e+00
1	 1.679234e+00	 1.803289e-01	 9.574156e+00
1	 1.677162e+00	 1.986803e-01	 9.014568e+00
1	 1.674880e+00	 2.170777e-01	 8.453123e+00
1	 1.672387e+00	 2.355179e-01	 7.894936e+00
1	 1.669680e+00	 2.539974e-01	 7.345111e+00
1	 1.666758e+00	 2.725131e-01	 6.808733e+00
1	 1.686599e+00	 1.811198e-01	 9.379876e+00
1	 1.684518e+00	 1.995517e-01	 8.819667e+00
1	 1.682226e+00	 2.180298e-01	 8.256992e+00
1	 1.679722e+00	 2.365508e-01	 7.697056e+00
1	 1.677003e+00	 2.551114e-01	 7.145049e+00
1	 1.674068e+00	 2.737083e-01	 6.606141e+00
1	 1.693964e+00	 1.819107e-01	 9.183864e+00
1	 1.691874e+00	 2.004231e-01	 8.623862e+00
1	 1.689572e+00	 2.189819e-01	 8.060758e+00
1	 1.687057e+00	 2.375838e-01	 7.499863e+00
1	 1.684326e+00	 2.562255e-01	 6.946470e+00
1	 1.681379e+00	 2.749036e-01	 6.405847e+00
1	 1.644827e+00	 2.689274e-01	 7.433011e+00
1	 1.641729e+00	 2.872317e-01	 6.933584e+00
1	 1.638416e+00	 3.055649e-01	 6.468808e+00
1	 1.634886e+00	 3.239233e-01	 6.045925e+00
1	 1.631136e+00	 3.423036e-01	 5.672080e+00
1	 1.627167e+00	 3.607021e-01	 5.354312e+00
1	 1.652137e+00	 2.701226e-01	 7.221892e+00
1	 1.649026e+00	 2.885083e-01	 6.716463e+00
1	 1.645698e+00	 3.069229e-01	 6.245002e+00
1	 1.642152e+00	 3.253630e-01	 5.815070e+00
1	 1.638386e+00	 3.438250e-01	 5.434129e+00
1	 1.634399e+00	 3.623052e-01	 5.109527e+00
1	 1.659448e+00	 2.713179e-01	 7.013892e+00
1	 1.656323e+00	 2.897849e-01	 6.503491e+00
1	 1.652980e+00	 3.082810e-01	 6.026347e+00
1	 1.649418e+00	 3.268027e-01	 5.590283e+00
1	 1.645635e+00	 3.453463e-01	 5.203027e+00
1	 1.641630e+00	 3.639083e-01	 4.872187e+00
1	 1.666758e+00	 2.725131e-01	 6.808733e+00
1	 1.663619e+00	 2.910615e-01	 6.294341e+00
1	 1.660262e+00	 3.096391e-01	 5.812498e+00
1	 1.656684e+00	 3.282423e-01	 5.371240e+00
1	 1.652885e+00	 3.468677e-01	 4.978503e+00
1	 1.648862e+00	 3.655115e-01	 4.642111e+00
1	 1.674068e+00	 2.737083e-01	 6.606141e+00
1	 1.670916e+00	 2.923381e-01	 6.088689e+00
1	 1.667544e+00	 3.109971e-01	 5.603119e+00
1	 1.663950e+00	 3.296820e-01	 5.157619e+00
1	 1.660134e+00	 3.483890e-01	 4.760289e+00
1	 1.656094e+00	 3.671146e-01	 4.419117e+00
1	 1.681379e+00	 2.749036e-01	 6.405847e+00
1	 1.678212e+00	 2.936146e-01	 5.886219e+00
1	 1.674826e+00	 3.123552e-01	 5.397875e+00
1	 1.671217e+00	 3.311216e-01	 4.949107e+00
1	 1.667384e+00	 3.499104e-01	 4.548123e+00
1	 1.663326e+00	 3.687177e-01	 4.203032e+00
1	 1.627167e+00	 3.607021e-01	 5.354312e+00
1	 1.622976e+00	 3.791151e-01	 5.084442e+00
1	 1.618561e+00	 3.975389e-01	 4.850798e+00
1	 1.613923e+00	 4.159698e-01	 4.654994e+00
1	 1.609059e+00	 4.344039e-01	 4.498515e+00
1	 1.603969e+00	 4.528373e-01	 4.382713e+00
1	 1.634399e+00	 3.623052e-01	 5.109527e+00
1	 1.630189e+00	 3.808001e-01	 4.833632e+00
1	 1.625755e+00	 3.993058e-01	 4.594833e+00
1	 1.621096e+00	 4.178185e-01	 4.394331e+00
1	 1.616210e+00	 4.363346e-01	 4.233213e+00
1	 1.611098e+00	 4.548499e-01	 4.112445e+00
1	 1.641630e+00	 3.639083e-01	 4.872187e+00
1	 1.637402e+00	 3.824850e-01	 4.590738e+00
1	 1.632948e+00	 4.010726e-01	 4.347258e+00
1	 1.628269e+00	 4.196673e-01	 4.142596e+00
1	 1.623362e+00	 4.382652e-01	 3.977486e+00
1	 1.618226e+00	 4.568625e-01	 3.852553e+00
1	 1.648862e+00	 3.655115e-01	 4.642111e+00
1	 1.644615e+00	 3.841700e-01	 4.355658e+00
1	 1.640142e+00	 4.028394e-01	 4.108003e+00
1	 1.635442e+00	 4.215161e-01	 3.899691e+00
1	 1.630513e+00	 4.401959e-01	 3.731158e+00
1	 1.625355e+00	 4.588752e-01	 3.602727e+00
1	 1.656094e+00	 3.671146e-01	 4.419117e+00
1	 1.651828e+00	 3.858549e-01	 4.128294e+00
1	 1.647336e+00	 4.046063e-01	 3.876996e+00
1	 1.642615e+00	 4.233648e-01	 3.665522e+00
1	 1.637665e+00	 4.421266e-01	 3.494053e+00
1	 1.632484e+00	 4.608878e-01	 3.362656e+00
1	 1.663326e+00	 3.687177e-01	 4.203032e+00
1	 1.659042e+00	 3.875399e-01	 3.908548e+00
1	 1.654529e+00	 4.063731e-01	 3.654168e+00
1	 1.649788e+00	 4.252136e-01	 3.439993e+00
1	 1.644816e+00	 4.440573e-01	 3.266001e+00
1	 1.639613e+00	 4.629004e-01	 3.132041e+00
1	 1.603969e+00	 4.528373e-01	 4.382713e+00
1	 1.598651e+00	 4.712662e-01	 4.300519e+00
1	 1.593105e+00	 4.896866e-01	 4.240481e+00
1	 1.587330e+00	 5.080944e-01	 4.197271e+00
1	 1.581326e+00	 5.264856e-01	 4.165571e+00
1	 1.575090e+00	 5.448562e-01	 4.140082e+00
1	 1.611098e+00	 4.548499e-01	 4.112445e+00
1	 1.605756e+00	 4.733607e-01	 4.025450e+00
1	 1.600186e+00	 4.918629e-01	 3.961695e+00
1	 1.594385e+00	 5.103526e-01	 3.916099e+00
1	 1.588354e+00	 5.288256e-01	 3.883562e+00
1	 1.582091e+00	 5.472778e-01	 3.858979e+00
1	 1.618226e+00	 4.568625e-01	 3.852553e+00
1	 1.612862e+00	 4.754552e-01	 3.761575e+00
1	 1.607266e+00	 4.940393e-01	 3.694724e+00
1	 1.601440e+00	 5.126108e-01	 3.647102e+00
1	 1.595382e+00	 5.311655e-01	 3.613777e+00
1	 1.589091e+00	 5.496994e-01	 3.589792e+00
1	 1.625355e+00	 4.588752e-01	 3.602727e+00
1	 1.619967e+00	 4.775498e-01	 3.508457e+00
1	 1.614347e+00	 4.962157e-01	 3.439090e+00
1	 1.608495e+00	 5.148690e-01	 3.389847e+00
1	 1.602410e+00	 5.335054e-01	 3.355908e+00
1	 1.596092e+00	 5.521210e-01	 3.332426e+00
1	 1.632484e+00	 4.608878e-01	 3.362656e+00
1	 1.627072e+00	 4.796443e-01	 3.265670e+00
1	 1.621427e+00	 4.983921e-01	 3.194326e+00
1	 1.615550e+00	 5.171272e-01	 3.143906e+00
1	 1.609438e+00	 5.358454e-01	 3.109654e+00
1	 1.603092e+00	 5.545426e-01	 3.086787e+00
1	 1.639613e+00	 4.629004e-01	 3.132041e+00
1	 1.634177e+00	 4.817388e-01	 3.032792e+00
1	 1.628508e+00	 5.005685e-01	 2.959972e+00
1	 1.622604e+00	 5.193854e-01	 2.908861e+00
1	 1.616466e+00	 5.381853e-01	 2.874718e+00
1	 1.610092e+00	 5.569641e-01	 2.852782e+00
1	 1.575090e+00	 5.448562e-01	 4.140082e+00
1	 1.568624e+00	 5.632020e-01	 4.111831e+00
1	 1.561926e+00	 5.815189e-01	 4.074073e+00
1	 1.554997e+00	 5.998026e-01	 4.024852e+00
1	 1.547835e+00	 6.180491e-01	 3.962175e+00
1	 1.540441e+00	 6.362539e-01	 3.884020e+00
1	 1.582091e+00	 5.472778e-01	 3.858979e+00
1	 1.575596e+00	 5.657052e-01	 3.833147e+00
1	 1.568868e+00	 5.841034e-01	 3.798821e+00
1	 1.561908e+00	 6.024684e-01	 3.753835e+00
1	 1.554714e+00	 6.207959e-01	 3.696033e+00
1	 1.547288e+00	 6.390817e-01	 3.623269e+00
1	 1.589091e+00	 5.496994e-01	 3.589792e+00
1	 1.582567e+00	 5.682083e-01	 3.565942e+00
1	 1.575810e+00	 5.866880e-01	 3.534792e+00
1	 1.568819e+00	 6.051342e-01	 3.494055e+00
1	 1.561594e+00	 6.235428e-01	 3.441478e+00
1	 1.554134e+00	 6.419095e-01	 3.374845e+00
1	 1.596092e+00	 5.521210e-01	 3.332426e+00
1	 1.589539e+00	 5.707114e-01	 3.310310e+00
1	 1.582752e+00	 5.892725e-01	 3.282142e+00
1	 1.575730e+00	 6.078000e-01	 3.245598e+00
1	 1.568473e+00	 6.262897e-01	 3.198395e+00
1	 1.560980e+00	 6.447373e-01	 3.138302e+00
1	 1.603092e+00	 5.545426e-01	 3.086787e+00
1	 1.596511e+00	 5.732145e-01	 3.066344e+00
1	 1.589694e+00	 5.918570e-01	 3.041026e+00
1	 1.582641e+00	 6.104658e-01	 3.008549e+00
1	 1.575352e+00	 6.290366e-01	 2.966673e+00
1	 1.567827e+00	 6.475651e-01	 2.913199e+00
1	 1.610092e+00	 5.569641e-01	 2.852782e+00
1	 1.603482e+00	 5.757176e-01	 2.834136e+00
1	 1.596636e+00	 5.944415e-01	 2.811593e+00
1	 1.589552e+00	 6.131316e-01	 2.782993e+00
1	 1.582231e+00	 6.317835e-01	 2.746200e+00
1	 1.574673e+00	 6.503929e-01	 2.699102e+00
1	 1.540441e+00	 6.362539e-01	 3.884020e+00
1	 1.532815e+00	 6.544129e-01	 3.763886e+00
1	 1.524956e+00	 6.725217e-01	 3.575646e+00
1	 1.516866e+00	 6.905761e-01	 3.318087e+00
1	 1.508544e+00	 7.085718e-01	 2.990361e+00
1	 1.499990e+00	 7.265044e-01	 2.591988e+00
1	 1.547288e+00	 6.390817e-01	 3.623269e+00
1	 1.539627e+00	 6.573214e-01	 3.510133e+00
1	 1.531734e+00	 6.755107e-01	 3.331756e+00
1	 1.523608e+00	 6.936454e-01	 3.087031e+00
1	 1.515248e+00	 7.117210e-01	 2.775144e+00
1	 1.506656e+00	 7.297333e-01	 2.395581e+00
1	 1.554134e+00	 6.419095e-01	 3.374845e+00
1	 1.546440e+00	 6.602299e-01	 3.269487e+00
1	 1.538512e+00	 6.784997e-01	 3.101328e+00
1	 1.530349e+00	 6.967146e-01	 2.869266e+00
1	 1.521953e+00	 7.148702e-01	 2.572452e+00
1	 1.513323e+00	 7.329622e-01	 2.210288e+00
1	 1.560980e+00	 6.447373e-01	 3.138302e+00
1	 1.553252e+00	 6.631384e-01	 3.041202e+00
1	 1.545289e+00	 6.814887e-01	 2.883526e+00
1	 1.537091e+00	 6.997838e-01	 2.664083e+00
1	 1.528658e+00	 7.180194e-01	 2.381909e+00
1	 1.519990e+00	 7.361911e-01	 2.036284e+00
1	 1.567827e+00	 6.475651e-01	 2.913199e+00
1	 1.560065e+00	 6.660469e-01	 2.824546e+00
1	 1.552067e+00	 6.844777e-01	 2.677534e+00
1	 1.543832e+00	 7.028530e-01	 2.470782e+00
1	 1.535362e+00	 7.211686e-01	 2.203147e+00
1	 1.526656e+00	 7.394201e-01	 1.873737e+00
1	 1.574673e+00	 6.503929e-01	 2.699102e+00
1	 1.566877e+00	 6.689554e-01	 2.618800e+00
1	 1.558844e+00	 6.874666e-01	 2.482547e+00
1	 1.550574e+00	 7.059223e-01	 2.288679e+00
1	 1.542067e+00	 7.243179e-01	 2.035805e+00
1	 1.533323e+00	 7.426490e-01	 1.722817e+00
1	 1.499990e+00	 7.265044e-01	 2.591988e+00
1	 1.491205e+00	 7.443696e-01	 2.120747e+00
1	 1.482189e+00	 7.621631e-01	 1.574720e+00
1	 1.472944e+00	 7.798804e-01	 9.546818e-01
1	 1.463470e+00	 7.975173e-01	 2.621092e-01
1	 1.453767e+00	 8.150695e-01	-5.008096e-01
1	 1.506656e+00	 7.297333e-01	 2.395581e+00
1	 1.497832e+00	 7.476779e-01	 1.947366e+00
1	 1.488777e+00	 7.655504e-01	 1.429699e+00
1	 1.479491e+00	 7.833465e-01	 8.430931e-01
1	 1.469974e+00	 8.010618e-01	 1.887746e-01
1	 1.460229e+00	 8.186920e-01	-5.313035e-01
1	 1.513323e+00	 7.329622e-01	 2.210288e+00
1	 1.504460e+00	 7.509862e-01	 1.783278e+00
1	 1.495364e+00	 7.689378e-01	 1.292092e+00
1	 1.486037e+00	 7.868127e-01	 7.371061e-01
1	 1.476478e+00	 8.046064e-01	 1.193962e-01
1	 1.466690e+00	 8.223145e-01	-5.592488e-01
1	 1.519990e+00	 7.361911e-01	 2.036284e+00
1	 1.511087e+00	 7.542945e-01	 1.629206e+00
1	 1.501952e+00	 7.723252e-01	 1.162951e+00
1	 1.492583e+00	 7.902788e-01	 6.378834e-01
1	 1.482983e+00	 8.081509e-01	 5.502674e-02
1	 1.473151e+00	 8.259371e-01	-5.839249e-01
1	 1.526656e+00	 7.394201e-01	 1.873737e+00
1	 1.517715e+00	 7.576029e-01	 1.485858e+00
1	 1.508539e+00	 7.757126e-01	 1.043309e+00
1	 1.499130e+00	 7.937449e-01	 5.465674e-01
1	 1.489487e+00	 8.116954e-01	-3.299382e-03
1	 1.479612e+00	 8.295596e-01	-6.046238e-01
1	 1.533323e+00	 7.426490e-01	 1.722817e+00
1	 1.524343e+00	 7.609112e-01	 1.353930e+00
1	 1.515127e+00	 7.791000e-01	 9.341815e-01
1	 1.505676e+00	 7.972111e-01	 4.642806e-01
1	 1.495991e+00	 8.152399e-01	-5.456580e-02
1	 1.486073e+00	 8.331821e-01	-6.206500e-01
1	 1.453767e+00	 8.150695e-01	-5.008096e-01
1	 1.443838e+00	 8.325325e-01	-1.317092e+00
1	 1.433682e+00	 8.499021e-01	-2.170083e+00
1	 1.423301e+00	 8.671740e-01	-3.057825e+00
1	 1.412697e+00	 8.843438e-01	-3.978736e+00
1	 1.401871e+00	 9.014074e-01	-4.931616e+00
1	 1.460229e+00	 8.186920e-01	-5.313035e-01
1	 1.450255e+00	 8.362326e-01	-1.304316e+00
1	 1.440054e+00	 8.536794e-01	-2.117422e+00
1	 1.429627e+00	 8.710281e-01	-2.968329e+00
1	 1.418976e+00	 8.882742e-01	-3.855072e+00
1	 1.408102e+00	 9.054136e-01	-4.776010e+00
1	 1.466690e+00	 8.223145e-01	-5.592488e-01
1	 1.456672e+00	 8.399328e-01	-1.289937e+00
1	 1.446426e+00	 8.574568e-01	-2.063540e+00
1	 1.435953e+00	 8.748822e-01	-2.877566e+00
1	 1.425255e+00	 8.922047e-01	-3.729783e+00
1	 1.414332e+00	 9.094199e-01	-4.618218e+00
1	 1.473151e+00	 8.259371e-01	-5.839249e-01
1	 1.463089e+00	 8.436329e-01	-1.273634e+00
1	 1.452798e+00	 8.612341e-01	-2.008431e+00
1	 1.442279e+00	 8.787363e-01	-2.785755e+00
1	 1.431533e+00	 8.961351e-01	-3.603222e+00
1	 1.420563e+00	 9.134262e-01	-4.458639e+00
1	 1.479612e+00	 8.295596e-01	-6.046238e-01
1	 1.469506e+00	 8.473331e-01	-1.255093e+00
1	 1.459170e+00	 8.650115e-01	-1.952091e+00
1	 1.448605e+00	 8.825904e-01	-2.693110e+00
1	 1.437812e+00	 9.000655e-01	-3.475740e+00
1	 1.426793e+00	 9.174324e-01	-4.297665e+00
1	 1.486073e+00	 8.331821e-01	-6.206500e-01
1	 1.475923e+00	 8.510332e-01	-1.234006e+00
1	 1.465542e+00	 8.687888e-01	-1.894513e+00
1	 1.454930e+00	 8.864445e-01	-2.599846e+00
1	 1.444091e+00	 9.039959e-01	-3.347678e+00
1	 1.433024e+00	 9.214387e-01	-4.135680e+00
1	 1.401871e+00	 9.014074e-01	-4.931616e+00
1	 1.390824e+00	 9.183604e-01	-5.882248e+00
1	 1.379558e+00	 9.351987e-01	-6.799409e+00
1	 1.368075e+00	 9.519180e-01	-7.686958e+00
1	 1.356377e+00	 9.685143e-01	-8.549133e+00
1	 1.344465e+00	 9.849834e-01	-9.390543e+00
1	 1.408102e+00	 9.054136e-01	-4.776010e+00
1	 1.397006e+00	 9.224420e-01	-5.696413e+00
1	 1.385690e+00	 9.393551e-01	-6.584880e+00
1	 1.374156e+00	 9.561488e-01	-7.445305e+00
1	 1.362405e+00	 9.728188e-01	-8.281977e+00
1	 1.350440e+00	 9.893611e-01	-9.099568e+00
1	 1.414332e+00	 9.094199e-01	-4.618218e+00
1	 1.403187e+00	 9.265236e-01	-5.507947e+00
1	 1.391821e+00	 9.435116e-01	-6.367540e+00
1	 1.380236e+00	 9.603795e-01	-7.200777e+00
1	 1.368433e+00	 9.771233e-01	-8.011842e+00
1	 1.356416e+00	 9.937388e-01	-8.805314e+00
1	 1.420563e+00	 9.134262e-01	-4.458639e+00
1	 1.409369e+00	 9.306052e-01	-5.317231e+00
1	 1.397952e+00	 9.476680e-01	-6.147729e+00
1	 1.386316e+00	 9.646103e-01	-6.953648e+00
1	 1.374462e+00	 9.814278e-01	-7.738914e+00
1	 1.362391e+00	 9.981165e-01	-8.507857e+00
1	 1.426793e+00	 9.174324e-01	-4.297665e+00
1	 1.415550e+00	 9.346868e-01	-5.124643e+00
1	 1.404084e+00	 9.518245e-01	-5.925781e+00
1	 1.392397e+00	 9.688410e-01	-6.704186e+00
1	 1.380490e+00	 9.857323e-01	-7.463375e+00
1	 1.368366e+00	 1.002494e+00	-8.207276e+00
1	 1.433024e+00	 9.214387e-01	-4.135680e+00
1	 1.421731e+00	 9.387684e-01	-4.930550e+00
1	 1.410215e+00	 9.559809e-01	-5.702025e+00
1	 1.398477e+00	 9.730718e-01	-6.452656e+00
1	 1.386518e+00	 9.900368e-01	-7.185405e+00
1	 1.374342e+00	 1.006872e+00	-7.903644e+00
1	 1.344465e+00	 9.849834e-01	-9.390543e+00
1	 1.332341e+00	 1.001321e+00	-1.017018e+01
1	 1.320009e+00	 1.017524e+00	-1.084187e+01
1	 1.307469e+00	 1.033587e+00	-1.140264e+01
1	 1.294725e+00	 1.049507e+00	-1.184933e+01
1	 1.281779e+00	 1.065280e+00	-1.217868e+01
1	 1.350440e+00	 9.893611e-01	-9.099568e+00
1	 1.338263e+00	 1.005771e+00	-9.855138e+00
1	 1.325876e+00	 1.022046e+00	-1.050064e+01
1	 1.313280e+00	 1.038180e+00	-1.103330e+01
1	 1.300480e+00	 1.054171e+00	-1.145017e+01
1	 1.287476e+00	 1.070014e+00	-1.174824e+01
1	 1.356416e+00	 9.937388e-01	-8.805314e+00
1	 1.344184e+00	 1.010222e+00	-9.536294e+00
1	 1.331742e+00	 1.026568e+00	-1.015510e+01
1	 1.319091e+00	 1.042774e+00	-1.065934e+01
1	 1.306234e+00	 1.058836e+00	-1.104657e+01
1	 1.293173e+00	 1.074749e+00	-1.131423e+01
1	 1.362391e+00	 9.981165e-01	-8.507857e+00
1	 1.350106e+00	 1.014672e+00	-9.213650e+00
1	 1.337609e+00	 1.031091e+00	-9.805235e+00
1	 1.324902e+00	 1.047368e+00	-1.028087e+01
1	 1.311988e+00	 1.063500e+00	-1.063878e+01
1	 1.298869e+00	 1.079483e+00	-1.087715e+01
1	 1.368366e+00	 1.002494e+00	-8.207276e+00
1	 1.356028e+00	 1.019122e+00	-8.887209e+00
1	 1.343476e+00	 1.035613e+00	-9.451072e+00
1	 1.330713e+00	 1.051962e+00	-9.897978e+00
1	 1.317743e+00	 1.068165e+00	-1.022706e+01
1	 1.304566e+00	 1.084218e+00	-1.043749e+01
1	 1.374342e+00	 1.006872e+00	-7.903644e+00
1	 1.361949e+00	 1.023573e+00	-8.556972e+00
1	 1.349342e+00	 1.040135e+00	-9.092614e+00
1	 1.336524e+00	 1.056555e+00	-9.510750e+00
1	 1.323497e+00	 1.072829e+00	-9.811658e+00
1	 1.310263e+00	 1.088952e+00	-9.995715e+00
1	 1.281779e+00	 1.065280e+00	-1.217868e+01
1	 1.268633e+00	 1.080901e+00	-1.240492e+01
1	 1.255290e+00	 1.096369e+00	-1.255374e+01
1	 1.241753e+00	 1.111678e+00	-1.263967e+01
1	 1.228025e+00	 1.126824e+00	-1.267821e+01
1	 1.214108e+00	 1.141806e+00	-1.268579e+01
1	 1.287476e+00	 1.070014e+00	-1.174824e+01
1	 1.274271e+00	 1.085705e+00	-1.194605e+01
1	 1.260869e+00	 1.101241e+00	-1.207331e+01
1	 1.247272e+00	 1.116618e+00	-1.214436e+01
1	 1.233483e+00	 1.131832e+00	-1.217448e+01
1	 1.219504e+00	 1.146880e+00	-1.217988e+01
1	 1.293173e+00	 1.074749e+00	-1.131423e+01
1	 1.279910e+00	 1.090510e+00	-1.148518e+01
1	 1.266448e+00	 1.106114e+00	-1.159280e+01
1	 1.252791e+00	 1.121559e+00	-1.165095e+01
1	 1.238940e+00	 1.136841e+00	-1.167443e+01
1	 1.224900e+00	 1.151955e+00	-1.167892e+01
1	 1.298869e+00	 1.079483e+00	-1.087715e+01
1	 1.285548e+00	 1.095314e+00	-1.102303e+01
1	 1.272027e+00	 1.110987e+00	-1.111300e+01
1	 1.258310e+00	 1.126500e+00	-1.116022e+01
1	 1.244398e+00	 1.141849e+00	-1.117869e+01
1	 1.230296e+00	 1.157030e+00	-1.118331e+01
1	 1.304566e+00	 1.084218e+00	-1.043749e+01
1	 1.291186e+00	 1.100118e+00	-1.056028e+01
1	 1.277606e+00	 1.115860e+00	-1.063470e+01
1	 1.263829e+00	 1.131441e+00	-1.067292e+01
1	 1.249856e+00	 1.146857e+00	-1.068791e+01
1	 1.235692e+00	 1.162104e+00	-1.069347e+01
1	 1.310263e+00	 1.088952e+00	-9.995715e+00
1	 1.296825e+00	 1.104922e+00	-1.009762e+01
1	 1.283186e+00	 1.120732e+00	-1.015867e+01
1	 1.269348e+00	 1.136381e+00	-1.018981e+01
1	 1.255314e+00	 1.151865e+00	-1.020272e+01
1	 1.241088e+00	 1.167179e+00	-1.020979e+01
1	 1.214108e+00	 1.141806e+00	-1.268579e+01
1	 1.200006e+00	 1.156618e+00	-1.272424e+01
1	 1.185721e+00	 1.171257e+00	-1.284175e+01
1	 1.171257e+00	 1.185721e+00	-1.303483e+01
1	 1.156618e+00	 1.200006e+00	-1.329966e+01
1	 1.141806e+00	 1.214108e+00	-1.363214e+01
1	 1.219504e+00	 1.146880e+00	-1.217988e+01
1	 1.205339e+00	 1.161758e+00	-1.221819e+01
1	 1.190991e+00	 1.176463e+00	-1.233380e+01
1	 1.176463e+00	 1.190991e+00	-1.252351e+01
1	 1.161758e+00	 1.205339e+00	-1.278385e+01
1	 1.146880e+00	 1.219504e+00	-1.311107e+01
1	 1.224900e+00	 1.151955e+00	-1.167892e+01
1	 1.210672e+00	 1.166899e+00	-1.171774e+01
1	 1.196261e+00	 1.181668e+00	-1.183161e+01
1	 1.181668e+00	 1.196261e+00	-1.201779e+01
1	 1.166899e+00	 1.210672e+00	-1.227325e+01
1	 1.151955e+00	 1.224900e+00	-1.259472e+01
1	 1.230296e+00	 1.157030e+00	-1.118331e+01
1	 1.216006e+00	 1.172039e+00	-1.122304e+01
1	 1.201531e+00	 1.186874e+00	-1.133517e+01
1	 1.186874e+00	 1.201531e+00	-1.151750e+01
1	 1.172039e+00	 1.216006e+00	-1.176761e+01
1	 1.157030e+00	 1.230296e+00	-1.208282e+01
1	 1.235692e+00	 1.162104e+00	-1.069347e+01
1	 1.221339e+00	 1.177180e+00	-1.073425e+01
1	 1.206800e+00	 1.192080e+00	-1.084442e+01
1	 1.192080e+00	 1.206800e+00	-1.102248e+01
1	 1.177180e+00	 1.221339e+00	-1.126668e+01
1	 1.162104e+00	 1.235692e+00	-1.157509e+01
1	 1.241088e+00	 1.167179e+00	-1.020979e+01
1	 1.226672e+00	 1.182320e+00	-1.025151e+01
1	 1.212070e+00	 1.197285e+00	-1.035934e+01
1	 1.197285e+00	 1.212070e+00	-1.053254e+01
1	 1.182320e+00	 1.226672e+00	-1.077020e+01
1	 1.167179e+00	 1.241088e+00	-1.107125e+01
1	 1.141806e+00	 1.214108e+00	-1.363214e+01
1	 1.126824e+00	 1.228025e+00	-1.407378e+01
1	 1.111678e+00	 1.241753e+00	-1.465804e+01
1	 1.096369e+00	 1.255290e+00	-1.536800e+01
1	 1.080901e+00	 1.268633e+00	-1.618592e+01
1	 1.065280e+00	 1.281779e+00	-1.709327e+01
1	 1.146880e+00	 1.219504e+00	-1.311107e+01
1	 1.131832e+00	 1.233483e+00	-1.354489e+01
1	 1.116618e+00	 1.247272e+00	-1.411701e+01
1	 1.101241e+00	 1.260869e+00	-1.481082e+01
1	 1.085705e+00	 1.274271e+00	-1.560892e+01
1	 1.070014e+00	 1.287476e+00	-1.649314e+01
1	 1.151955e+00	 1.224900e+00	-1.259472e+01
1	 1.136841e+00	 1.238940e+00	-1.302028e+01
1	 1.121559e+00	 1.252791e+00	-1.357985e+01
1	 1.106114e+00	 1.266448e+00	-1.425714e+01
1	 1.090510e+00	 1.279910e+00	-1.503504e+01
1	 1.074749e+00	 1.293173e+00	-1.589572e+01
1	 1.157030e+00	 1.230296e+00	-1.208282e+01
1	 1.141849e+00	 1.244398e+00	-1.249966e+01
1	 1.126500e+00	 1.258310e+00	-1.304626e+01
1	 1.110987e+00	 1.272027e+00	-1.370660e+01
1	 1.095314e+00	 1.285548e+00	-1.446389e+01
1	 1.079483e+00	 1.298869e+00	-1.530055e+01
1	 1.162104e+00	 1.235692e+00	-1.157509e+01
1	 1.146857e+00	 1.249856e+00	-1.198274e+01
1	 1.131441e+00	 1.263829e+00	-1.251593e+01
1	 1.115860e+00	 1.277606e+00	-1.315889e+01
1	 1.100118e+00	 1.291186e+00	-1.389507e+01
1	 1.084218e+00	 1.304566e+00	-1.470720e+01
1	 1.167179e+00	 1.241088e+00	-1.107125e+01
1	 1.151865e+00	 1.255314e+00	-1.146924e+01
1	 1.136381e+00	 1.269348e+00	-1.198856e+01
1	 1.120732e+00	 1.283186e+00	-1.261366e+01
1	 1.104922e+00	 1.296825e+00	-1.332823e+01
1	 1.088952e+00	 1.310263e+00	-1.411524e+01
1	 1.065280e+00	 1.281779e+00	-1.709327e+01
1	 1.049507e+00	 1.294725e+00	-1.808645e+01
1	 1.033587e+00	 1.307469e+00	-1.916988e+01
1	 1.017524e+00	 1.320009e+00	-2.033643e+01
1	 1.001321e+00	 1.332341e+00	-2.157888e+01
1	 9.849834e-01	 1.344465e+00	-2.288994e+01
1	 1.070014e+00	 1.287476e+00	-1.649314e+01
1	 1.054171e+00	 1.300480e+00	-1.746227e+01
1	 1.038180e+00	 1.313280e+00	-1.852229e+01
1	 1.022046e+00	 1.325876e+00	-1.966515e+01
1	 1.005771e+00	 1.338263e+00	-2.088270e+01
1	 9.893611e-01	 1.350440e+00	-2.216665e+01
1	 1.074749e+00	 1.293173e+00	-1.589572e+01
1	 1.058836e+00	 1.306234e+00	-1.684015e+01
1	 1.042774e+00	 1.319091e+00	-1.787580e+01
1	 1.026568e+00	 1.331742e+00	-1.899386e+01
1	 1.010222e+00	 1.344184e+00	-2.018536e+01
1	 9.937388e-01	 1.356416e+00	-2.144120e+01
1	 1.079483e+00	 1.298869e+00	-1.530055e+01
1	 1.063500e+00	 1.311988e+00	-1.621961e+01
1	 1.047368e+00	 1.324902e+00	-1.722997e+01
1	 1.031091e+00	 1.337609e+00	-1.832219e+01
1	 1.014672e+00	 1.350106e+00	-1.948667e+01
1	 9.981165e-01	 1.362391e+00	-2.071361e+01
1	 1.084218e+00	 1.304566e+00	-1.470720e+01
1	 1.068165e+00	 1.317743e+00	-1.560020e+01
1	 1.051962e+00	 1.330713e+00	-1.658438e+01
1	 1.035613e+00	 1.343476e+00	-1.764983e+01
1	 1.019122e+00	 1.356028e+00	-1.878643e+01
1	 1.002494e+00	 1.368366e+00	-1.998389e+01
1	 1.088952e+00	 1.310263e+00	-1.411524e+01
1	 1.072829e+00	 1.323497e+00	-1.498145e+01
1	 1.056555e+00	 1.336524e+00	-1.593859e+01
1	 1.040135e+00	 1.349342e+00	-1.697642e+01
1	 1.023573e+00	 1.361949e+00	-1.808448e+01
1	 1.006872e+00	 1.374342e+00	-1.925209e+01
1	 9.849834e-01	 1.344465e+00	-2.288994e+01
1	 9.685143e-01	 1.356377e+00	-2.421382e+01
1	 9.519180e-01	 1.368075e+00	-2.549640e+01
1	 9.351987e-01	 1.379558e+00	-2.673280e+01
1	 9.183604e-01	 1.390824e+00	-2.791814e+01
1	 9.014074e-01	 1.401871e+00	-2.904752e+01
1	 9.893611e-01	 1.350440e+00	-2.216665e+01
1	 9.728188e-01	 1.362405e+00	-2.346027e+01
1	 9.561488e-01	 1.374156e+00	-2.470890e+01
1	 9.393551e-01	 1.385690e+00	-2.590727e+01
1	 9.224420e-01	 1.397006e+00	-2.705012e+01
1	 9.054136e-01	 1.408102e+00	-2.813216e+01
1	 9.937388e-01	 1.356416e+00	-2.144120e+01
1	 9.771233e-01	 1.368433e+00	-2.270387e+01
1	 9.603795e-01	 1.380236e+00	-2.391806e+01
1	 9.435116e-01	 1.391821e+00	-2.507782e+01
1	 9.265236e-01	 1.403187e+00	-2.617715e+01
1	 9.094199e-01	 1.414332e+00	-2.721008e+01
1	 9.981165e-01	 1.362391e+00	-2.071361e+01
1	 9.814278e-01	 1.374462e+00	-2.194483e+01
1	 9.646103e-01	 1.386316e+00	-2.312416e+01
1	 9.476680e-01	 1.397952e+00	-2.424464e+01
1	 9.306052e-01	 1.409369e+00	-2.529926e+01
1	 9.134262e-01	 1.420563e+00	-2.628099e+01
1	 1.002494e+00	 1.368366e+00	-1.998389e+01
1	 9.857323e-01	 1.380490e+00	-2.118335e+01
1	 9.688410e-01	 1.392397e+00	-2.232744e+01
1	 9.518245e-01	 1.404084e+00	-2.340793e+01
1	 9.346868e-01	 1.415550e+00	-2.441646e+01
1	 9.174324e-01	 1.426793e+00	-2.534461e+01
1	 1.006872e+00	 1.374342e+00	-1.925209e+01
1	 9.900368e-01	 1.386518e+00	-2.041963e+01
1	 9.730718e-01	 1.398477e+00	-2.152817e+01
1	 9.559809e-01	 1.410215e+00	-2.256787e+01
1	 9.387684e-01	 1.421731e+00	-2.352875e+01
1	 9.214387e-01	 1.433024e+00	-2.440070e+01
1	 9.014074e-01	 1.401871e+00	-2.904752e+01
1	 8.843438e-01	 1.412697e+00	-3.008966e+01
1	 8.671740e-01	 1.423301e+00	-3.100386e+01
1	 8.499021e-01	 1.433682e+00	-3.177081e+01
1	 8.325325e-01	 1.443838e+00	-3.237086e+01
1	 8.150695e-01	 1.453767e+00	-3.278405e+01
1	 9.054136e-01	 1.408102e+00	-2.813216e+01
1	 8.882742e-01	 1.418976e+00	-2.912003e+01
1	 8.710281e-01	 1.429627e+00	-2.997226e+01
1	 8.536794e-01	 1.440054e+00	-3.067120e+01
1	 8.362326e-01	 1.450255e+00	-3.119886e+01
1	 8.186920e-01	 1.460229e+00	-3.153699e+01
1	 9.094199e-01	 1.414332e+00	-2.721008e+01
1	 8.922047e-01	 1.425255e+00	-2.814127e+01
1	 8.748822e-01	 1.435953e+00	-2.892950e+01
1	 8.574568e-01	 1.446426e+00	-2.955974e+01
1	 8.399328e-01	 1.456672e+00	-3.001670e+01
1	 8.223145e-01	 1.466690e+00	-3.028487e+01
1	 9.134262e-01	 1.420563e+00	-2.628099e+01
1	 8.961351e-01	 1.431533e+00	-2.715287e+01
1	 8.787363e-01	 1.442279e+00	-2.787515e+01
1	 8.612341e-01	 1.452798e+00	-2.843635e+01
1	 8.436329e-01	 1.463089e+00	-2.882486e+01
1	 8.259371e-01	 1.473151e+00	-2.902893e+01
1	 9.174324e-01	 1.426793e+00	-2.534461e+01
1	 9.000655e-01	 1.437812e+00	-2.615438e+01
1	 8.825904e-01	 1.448605e+00	-2.680878e+01
1	 8.650115e-01	 1.459170e+00	-2.730091e+01
1	 8.473331e-01	 1.469506e+00	-2.762378e+01
1	 8.295596e-01	 1.479612e+00	-2.777040e+01
1	 9.214387e-01	 1.433024e+00	-2.440070e+01
1	 9.039959e-01	 1.444091e+00	-2.514531e+01
1	 8.864445e-01	 1.454930e+00	-2.573001e+01
1	 8.687888e-01	 1.465542e+00	-2.615333e+01
1	 8.510332e-01	 1.475923e+00	-2.641390e+01
1	 8.331821e-01	 1.486073e+00	-2.651049e+01
1	 8.150695e-01	 1.453767e+00	-3.278405e+01
1	 7.975173e-01	 1.463470e+00	-3.298009e+01
1	 7.798804e-01	 1.472944e+00	-3.296726e+01
1	 7.621631e-01	 1.482189e+00	-3.278395e+01
1	 7.443696e-01	 1.491205e+00	-3.246942e+01
1	 7.265044e-01	 1.499990e+00	-3.206376e+01
1	 8.186920e-01	 1.460229e+00	-3.153699e+01
1	 8.010618e-01	 1.469974e+00	-3.166323e+01
1	 7.833465e-01	 1.479491e+00	-3.159332e+01
1	 7.655504e-01	 1.488777e+00	-3.136680e+01
1	 7.476779e-01	 1.497832e+00	-3.102411e+01
1	 7.297333e-01	 1.506656e+00	-3.060648e+01
1	 8.223145e-01	 1.466690e+00	-3.028487e+01
1	 8.046064e-01	 1.476478e+00	-3.035018e+01
1	 7.868127e-01	 1.486037e+00	-3.023443e+01
1	 7.689378e-01	 1.495364e+00	-2.997648e+01
1	 7.509862e-01	 1.504460e+00	-2.961608e+01
1	 7.329622e-01	 1.513323e+00	-2.919376e+01
1	 8.259371e-01	 1.473151e+00	-2.902893e+01
1	 8.081509e-01	 1.482983e+00	-2.904288e+01
1	 7.902788e-01	 1.492583e+00	-2.889276e+01
1	 7.723252e-01	 1.501952e+00	-2.861499e+01
1	 7.542945e-01	 1.511087e+00	-2.824682e+01
1	 7.361911e-01	 1.519990e+00	-2.782622e+01
1	 8.295596e-01	 1.479612e+00	-2.777040e+01
1	 8.116954e-01	 1.489487e+00	-2.774322e+01
1	 7.937449e-01	 1.499130e+00	-2.757046e+01
1	 7.757126e-01	 1.508539e+00	-2.728434e+01
1	 7.576029e-01	 1.517715e+00	-2.691781e+01
1	 7.394201e-01	 1.526656e+00	-2.650445e+01
1	 8.331821e-01	 1.486073e+00	-2.651049e+01
1	 8.152399e-01	 1.495991e+00	-2.645307e+01
1	 7.972111e-01	 1.505676e+00	-2.626964e+01
1	 7.791000e-01	 1.515127e+00	-2.598648e+01
1	 7.609112e-01	 1.524343e+00	-2.563048e+01
1	 7.426490e-01	 1.533323e+00	-2.522904e+01
1	 7.265044e-01	 1.499990e+00	-3.206376e+01
1	 7.085718e-01	 1.508544e+00	-3.157672e+01
1	 6.905761e-01	 1.516866e+00	-3.100664e+01
1	 6.725217e-01	 1.524956e+00	-3.037716e+01
1	 6.544129e-01	 1.532815e+00	-2.971203e+01
1	 6.362539e-01	 1.540441e+00	-2.903515e+01
1	 7.297333e-01	 1.506656e+00	-3.060648e+01
1	 7.117210e-01	 1.515248e+00	-3.012169e+01
1	 6.936454e-01	 1.523608e+00	-2.956293e+01
1	 6.755107e-01	 1.531734e+00	-2.895016e+01
1	 6.573214e-01	 1.539627e+00	-2.830342e+01
1	 6.390817e-01	 1.547288e+00	-2.764285e+01
1	 7.329622e-01	 1.513323e+00	-2.919376e+01
1	 7.148702e-01	 1.521953e+00	-2.871373e+01
1	 6.967146e-01	 1.530349e+00	-2.816468e+01
1	 6.784997e-01	 1.538512e+00	-2.756453e+01
1	 6.602299e-01	 1.546440e+00	-2.693126e+01
1	 6.419095e-01	 1.554134e+00	-2.628288e+01
1	 7.361911e-01	 1.519990e+00	-2.782622e+01
1	 7.180194e-01	 1.528658e+00	-2.735256e+01
1	 6.997838e-01	 1.537091e+00	-2.681112e+01
1	 6.814887e-01	 1.545289e+00	-2.621935e+01
1	 6.631384e-01	 1.553252e+00	-2.559474e+01
1	 6.447373e-01	 1.560980e+00	-2.495487e+01
1	 7.394201e-01	 1.526656e+00	-2.650445e+01
1	 7.211686e-01	 1.535362e+00	-2.603793e+01
1	 7.028530e-01	 1.543832e+00	-2.550149e+01
1	 6.844777e-01	 1.552067e+00	-2.491367e+01
1	 6.660469e-01	 1.560065e+00	-2.429309e+01
1	 6.475651e-01	 1.567827e+00	-2.365847e+01
1	 7.426490e-01	 1.533323e+00	-2.522904e+01
1	 7.243179e-01	 1.542067e+00	-2.476959e+01
1	 7.059223e-01	 1.550574e+00	-2.423505e+01
1	 6.874666e-01	 1.558844e+00	-2.364659e+01
1	 6.689554e-01	 1.566877e+00	-2.302553e+01
1	 6.503929e-01	 1.574673e+00	-2.239332e+01
1	 6.362539e-01	 1.540441e+00	-2.903515e+01
1	 6.180491e-01	 1.547835e+00	-2.838884e+01
1	 5.998026e-01	 1.554997e+00	-2.780342e+01
1	 5.815189e-01	 1.561926e+00	-2.728466e+01
1	 5.632020e-01	 1.568624e+00	-2.683823e+01
1	 5.448562e-01	 1.575090e+00	-2.646964e+01
1	 6.390817e-01	 1.547288e+00	-2.764285e+01
1	 6.207959e-01	 1.554714e+00	-2.700726e+01
1	 6.024684e-01	 1.561908e+00	-2.642781e+01
1	 5.841034e-01	 1.568868e+00	-2.591308e+01
1	 5.657052e-01	 1.575596e+00	-2.547154e+01
1	 5.472778e-01	 1.582091e+00	-2.511156e+01
1	 6.419095e-01	 1.554134e+00	-2.628288e+01
1	 6.235428e-01	 1.561594e+00	-2.565634e+01
1	 6.051342e-01	 1.568819e+00	-2.508350e+01
1	 5.866880e-01	 1.575810e+00	-2.457473e+01
1	 5.682083e-01	 1.582567e+00	-2.414031e+01
1	 5.496994e-01	 1.589091e+00	-2.379042e+01
1	 6.447373e-01	 1.560980e+00	-2.495487e+01
1	 6.262897e-01	 1.568473e+00	-2.433618e+01
1	 6.078000e-01	 1.575730e+00	-2.377084e+01
1	 5.892725e-01	 1.582752e+00	-2.327003e+01
1	 5.707114e-01	 1.589539e+00	-2.284483e+01
1	 5.521210e-01	 1.596092e+00	-2.250621e+01
1	 6.475651e-01	 1.567827e+00	-2.365847e+01
1	 6.290366e-01	 1.575352e+00	-2.304687e+01
1	 6.104658e-01	 1.582641e+00	-2.249018e+01
1	 5.918570e-01	 1.589694e+00	-2.199939e+01
1	 5.732145e-01	 1.596511e+00	-2.158538e+01
1	 5.545426e-01	 1.603092e+00	-2.125893e+01
1	 6.503929e-01	 1.574673e+00	-2.239332e+01
1	 6.317835e-01	 1.582231e+00	-2.178850e+01
1	 6.131316e-01	 1.589552e+00	-2.124185e+01
1	 5.944415e-01	 1.596636e+00	-2.076319e+01
1	 5.757176e-01	 1.603482e+00	-2.036224e+01
1	 5.569641e-01	 1.610092e+00	-2.004858e+01
1	 5.448562e-01	 1.575090e+00	-2.646964e+01
1	 5.264856e-01	 1.581326e+00	-2.619101e+01
1	 5.080944e-01	 1.587330e+00	-2.602838e+01
1	 4.896866e-01	 1.593105e+00	-2.600797e+01
1	 4.712662e-01	 1.598651e+00	-2.615579e+01
1	 4.528373e-01	 1.603969e+00	-2.649763e+01
1	 5.472778e-01	 1.582091e+00	-2.511156e+01
1	 5.288256e-01	 1.588354e+00	-2.484829e+01
1	 5.103526e-01	 1.594385e+00	-2.470750e+01
1	 4.918629e-01	 1.600186e+00	-2.471331e+01
1	 4.733607e-01	 1.605756e+00	-2.488960e+01
1	 4.548499e-01	 1.611098e+00	-2.526006e+01
1	 5.496994e-01	 1.589091e+00	-2.379042e+01
1	 5.311655e-01	 1.595382e+00	-2.354219e+01
1	 5.126108e-01	 1.601440e+00	-2.342117e+01
1	 4.940393e-01	 1.607266e+00	-2.344997e+01
1	 4.754552e-01	 1.612862e+00	-2.365098e+01
1	 4.568625e-01	 1.618226e+00	-2.404635e+01
1	 5.521210e-01	 1.596092e+00	-2.250621e+01
1	 5.335054e-01	 1.602410e+00	-2.227240e+01
1	 5.148690e-01	 1.608495e+00	-2.216891e+01
1	 4.962157e-01	 1.614347e+00	-2.221742e+01
1	 4.775498e-01	 1.619967e+00	-2.243943e+01
1	 4.588752e-01	 1.625355e+00	-2.285619e+01
1	 5.545426e-01	 1.603092e+00	-2.125893e+01
1	 5.358454e-01	 1.609438e+00	-2.103862e+01
1	 5.171272e-01	 1.615550e+00	-2.095023e+01
1	 4.983921e-01	 1.621427e+00	-2.101512e+01
1	 4.796443e-01	 1.627072e+00	-2.125448e+01
1	 4.608878e-01	 1.632484e+00	-2.168925e+01
1	 5.569641e-01	 1.610092e+00	-2.004858e+01
1	 5.381853e-01	 1.616466e+00	-1.984055e+01
1	 5.193854e-01	 1.622604e+00	-1.976467e+01
1	 5.005685e-01	 1.628508e+00	-1.984257e+01
1	 4.817388e-01	 1.634177e+00	-2.009568e+01
1	 4.629004e-01	 1.639613e+00	-2.054523e+01
1	 4.528373e-01	 1.603969e+00	-2.649763e+01
1	 4.344039e-01	 1.609059e+00	-2.706624e+01
1	 4.159698e-01	 1.613923e+00	-2.786668e+01
1	 3.975389e-01	 1.618561e+00	-2.888289e+01
1	 3.791151e-01	 1.622976e+00	-3.009863e+01
1	 3.607021e-01	 1.627167e+00	-3.149752e+01
1	 4.548499e-01	 1.611098e+00	-2.526006e+01
1	 4.363346e-01	 1.616210e+00	-2.585454e+01
1	 4.178185e-01	 1.621096e+00	-2.667850e+01
1	 3.993058e-01	 1.625755e+00	-2.771860e+01
1	 3.808001e-01	 1.630189e+00	-2.896135e+01
1	 3.623052e-01	 1.634399e+00	-3.039309e+01
1	 4.568625e-01	 1.618226e+00	-2.404635e+01
1	 4.382652e-01	 1.623362e+00	-2.466377e+01
1	 4.196673e-01	 1.628269e+00	-2.550902e+01
1	 4.010726e-01	 1.632948e+00	-2.657112e+01
1	 3.824850e-01	 1.637402e+00	-2.783888e+01
1	 3.639083e-01	 1.641630e+00	-2.930093e+01
1	 4.588752e-01	 1.625355e+00	-2.285619e+01
1	 4.401959e-01	 1.630513e+00	-2.349375e+01
1	 4.215161e-01	 1.635442e+00	-2.435818e+01
1	 4.028394e-01	 1.640142e+00	-2.544039e+01
1	 3.841700e-01	 1.644615e+00	-2.673108e+01
1	 3.655115e-01	 1.648862e+00	-2.822078e+01
1	 4.608878e-01	 1.632484e+00	-2.168925e+01
1	 4.421266e-01	 1.637665e+00	-2.234435e+01
1	 4.233648e-01	 1.642615e+00	-2.322591e+01
1	 4.046063e-01	 1.647336e+00	-2.432634e+01
1	 3.858549e-01	 1.651828e+00	-2.563784e+01
1	 3.671146e-01	 1.656094e+00	-2.715240e+01
1	 4.629004e-01	 1.639613e+00	-2.054523e+01
1	 4.440573e-01	 1.644816e+00	-2.121541e+01
1	 4.252136e-01	 1.649788e+00	-2.211213e+01
1	 4.063731e-01	 1.654529e+00	-2.322891e+01
1	 3.875399e-01	 1.659042e+00	-2.455904e+01
1	 3.687177e-01	 1.663326e+00	-2.609556e+01
1	 3.607021e-01	 1.627167e+00	-3.149752e+01
1	 3.423036e-01	 1.631136e+00	-3.310247e+01
1	 3.239233e-01	 1.634886e+00	-3.491676e+01
1	 3.055649e-01	 1.638416e+00	-3.689457e+01
1	 2.872317e-01	 1.641729e+00	-3.899031e+01
1	 2.689274e-01	 1.644827e+00	-4.115867e+01
1	 3.623052e-01	 1.634399e+00	-3.039309e+01
1	 3.438250e-01	 1.638386e+00	-3.203797e+01
1	 3.253630e-01	 1.642152e+00	-3.389749e+01
1	 3.069229e-01	 1.645698e+00	-3.592409e+01
1	 2.885083e-01	 1.649026e+00	-3.807042e+01
1	 2.701226e-01	 1.652137e+00	-4.028946e+01
1	 3.639083e-01	 1.641630e+00	-2.930093e+01
1	 3.453463e-01	 1.645635e+00	-3.098219e+01
1	 3.268027e-01	 1.649418e+00	-3.288246e+01
1	 3.082810e-01	 1.652980e+00	-3.495276e+01
1	 2.897849e-01	 1.656323e+00	-3.714436e+01
1	 2.713179e-01	 1.659448e+00	-3.940882e+01
1	 3.655115e-01	 1.648862e+00	-2.822078e+01
1	 3.468677e-01	 1.652885e+00	-2.993476e+01
1	 3.282423e-01	 1.656684e+00	-3.187123e+01
1	 3.096391e-01	 1.660262e+00	-3.398014e+01
1	 2.910615e-01	 1.663619e+00	-3.621169e+01
1	 2.725131e-01	 1.666758e+00	-3.851640e+01
1	 3.671146e-01	 1.656094e+00	-2.715240e+01
1	 3.483890e-01	 1.660134e+00	-2.889532e+01
1	 3.296820e-01	 1.663950e+00	-3.086337e+01
1	 3.109971e-01	 1.667544e+00	-3.300578e+01
1	 2.923381e-01	 1.670916e+00	-3.527201e+01
1	 2.737083e-01	 1.674068e+00	-3.761189e+01
1	 3.687177e-01	 1.663326e+00	-2.609556e+01
1	 3.499104e-01	 1.667384e+00	-2.786351e+01
1	 3.311216e-01	 1.671217e+00	-2.985846e+01
1	 3.123552e-01	 1.674826e+00	-3.202924e+01
1	 2.936146e-01	 1.678212e+00	-3.432492e+01
1	 2.749036e-01	 1.681379e+00	-3.669494e+01
1	 2.689274e-01	 1.644827e+00	-4.115867e+01
1	 2.506554e-01	 1.647710e+00	-4.334868e+01
1	 2.324189e-01	 1.650382e+00	-4.551973e+01
1	 2.142214e-01	 1.652842e+00	-4.764269e+01
1	 1.960661e-01	 1.655094e+00	-4.968882e+01
1	 1.779561e-01	 1.657139e+00	-5.162978e+01
1	 2.701226e-01	 1.652137e+00	-4.028946e+01
1	 2.517694e-01	 1.655034e+00	-4.252909e+01
1	 2.334519e-01	 1.657717e+00	-4.474871e+01
1	 2.151735e-01	 1.660188e+00	-4.691910e+01
1	 1.969375e-01	 1.662450e+00	-4.901140e+01
1	 1.787470e-01	 1.664504e+00	-5.099722e+01
1	 2.713179e-01	 1.659448e+00	-3.940882e+01
1	 2.528834e-01	 1.662357e+00	-4.169324e+01
1	 2.344849e-01	 1.665052e+00	-4.395703e+01
1	 2.161256e-01	 1.667534e+00	-4.617074e+01
1	 1.978089e-01	 1.669806e+00	-4.830536e+01
1	 1.795380e-01	 1.671869e+00	-5.033229e+01
1	 2.725131e-01	 1.666758e+00	-3.851640e+01
1	 2.539974e-01	 1.669680e+00	-4.084087e+01
1	 2.355179e-01	 1.672387e+00	-4.314447e+01
1	 2.170777e-01	 1.674880e+00	-4.539747e+01
1	 1.986803e-01	 1.677162e+00	-4.757054e+01
1	 1.803289e-01	 1.679234e+00	-4.963480e+01
1	 2.737083e-01	 1.674068e+00	-3.761189e+01
1	 2.551114e-01	 1.677003e+00	-3.997173e+01
1	 2.365508e-01	 1.679722e+00	-4.231085e+01
1	 2.180298e-01	 1.682226e+00	-4.459911e+01
1	 1.995517e-01	 1.684518e+00	-4.680679e+01
1	 1.811198e-01	 1.686599e+00	-4.890459e+01
1	 2.749036e-01	 1.681379e+00	-3.669494e+01
1	 2.562255e-01	 1.684326e+00	-3.908557e+01
1	 2.375838e-01	 1.687057e+00	-4.145598e+01
1	 2.189819e-01	 1.689572e+00	-4.377552e+01
1	 2.004231e-01	 1.691874e+00	-4.601396e+01
1	 1.819107e-01	 1.693964e+00	-4.814150e+01
1	 1.779561e-01	 1.657139e+00	-5.162978e+01
1	 1.598946e-01	 1.658979e+00	-5.343311e+01
1	 1.418845e-01	 1.660616e+00	-5.506090e+01
1	 1.239289e-01	 1.662053e+00	-5.647757e+01
1	 1.060307e-01	 1.663290e+00	-5.764819e+01
1	 8.819269e-02	 1.664332e+00	-5.853860e+01
1	 1.787470e-01	 1.664504e+00	-5.099722e+01
1	 1.606052e-01	 1.666352e+00	-5.284372e+01
1	 1.425151e-01	 1.667997e+00	-5.451229e+01
1	 1.244797e-01	 1.669440e+00	-5.596677e+01
1	 1.065020e-01	 1.670683e+00	-5.717169e+01
1	 8.858465e-02	 1.671729e+00	-5.809232e+01
1	 1.795380e-01	 1.671869e+00	-5.033229e+01
1	 1.613159e-01	 1.673726e+00	-5.221823e+01
1	 1.431457e-01	 1.675377e+00	-5.392400e+01
1	 1.250305e-01	 1.676827e+00	-5.541301e+01
1	 1.069732e-01	 1.678075e+00	-5.664941e+01
1	 8.897662e-02	 1.679126e+00	-5.759807e+01
1	 1.803289e-01	 1.679234e+00	-4.963480e+01
1	 1.620265e-01	 1.681099e+00	-5.155645e+01
1	 1.437763e-01	 1.682758e+00	-5.329584e+01
1	 1.255813e-01	 1.684213e+00	-5.481612e+01
1	 1.074445e-01	 1.685468e+00	-5.608120e+01
1	 8.936859e-02	 1.686523e+00	-5.705573e+01
1	 1.811198e-01	 1.686599e+00	-4.890459e+01
1	 1.627371e-01	 1.688472e+00	-5.085820e+01
1	 1.444069e-01	 1.690138e+00	-5.262761e+01
1	 1.261321e-01	 1.691600e+00	-5.417592e+01
1	 1.079157e-01	 1.692860e+00	-5.546691e+01
1	 8.976056e-02	 1.693920e+00	-5.646517e+01
1	 1.819107e-01	 1.693964e+00	-4.814150e+01
1	 1.634478e-01	 1.695845e+00	-5.012328e+01
1	 1.450375e-01	 1.697519e+00	-5.191914e+01
1	 1.266829e-01	 1.698987e+00	-5.349222e+01
1	 1.083869e-01	 1.700253e+00	-5.480637e+01
1	 9.015252e-02	 1.701317e+00	-5.582625e+01
1	 8.819269e-02	 1.664332e+00	-5.853860e+01
1	 7.041763e-02	 1.665178e+00	-5.911701e+01
1	 5.270824e-02	 1.665833e+00	-5.935713e+01
1	 3.506715e-02	 1.666298e+00	-5.923405e+01
1	 1.749691e-02	 1.666575e+00	-5.872364e+01
1	 0.000000e+00	 1.666667e+00	-5.780250e+01
1	 8.858465e-02	 1.671729e+00	-5.809232e+01
1	 7.073060e-02	 1.672579e+00	-5.869644e+01
1	 5.294250e-02	 1.673237e+00	-5.895743e+01
1	 3.522300e-02	 1.673703e+00	-5.885009e+01
1	 1.757467e-02	 1.673982e+00	-5.835000e+01
1	 0.000000e+00	 1.674074e+00	-5.743347e+01
1	 8.897662e-02	 1.679126e+00	-5.759807e+01
1	 7.104357e-02	 1.679980e+00	-5.822645e+01
1	 5.317676e-02	 1.680640e+00	-5.850758e+01
1	 3.537886e-02	 1.681109e+00	-5.841590e+01
1	 1.765243e-02	 1.681389e+00	-5.792661e+01
1	 0.000000e+00	 1.681481e+00	-5.701568e+01
1	 8.936859e-02	 1.686523e+00	-5.705573e+01
1	 7.135653e-02	 1.687381e+00	-5.770693e+01
1	 5.341102e-02	 1.688044e+00	-5.800748e+01
1	 3.553471e-02	 1.688515e+00	-5.793135e+01
1	 1.773020e-02	 1.688796e+00	-5.745331e+01
1	 0.000000e+00	 1.688889e+00	-5.654891e+01
1	 8.976056e-02	 1.693920e+00	-5.646517e+01
1	 7.166950e-02	 1.694782e+00	-5.713779e+01
1	 5.364528e-02	 1.695448e+00	-5.745702e+01
1	 3.569057e-02	 1.695921e+00	-5.739632e+01
1	 1.780796e-02	 1.696203e+00	-5.692993e+01
1	 0.000000e+00	 1.696296e+00	-5.603293e+01
1	 9.015252e-02	 1.701317e+00	-5.582625e+01
1	 7.198247e-02	 1.702182e+00	-5.651891e+01
1	 5.387954e-02	 1.702852e+00	-5.685610e+01
1	 3.584642e-02	 1.703327e+00	-5.681067e+01
1	 1.788573e-02	 1.703610e+00	-5.635631e+01
1	 0.000000e+00	 1.703704e+00	-5.546753e+01
1	 1.703704e+00	 0.000000e+00	 1.309601e+01
1	 1.703610e+00	 1.788573e-02	 1.292362e+01
1	 1.703327e+00	 3.584642e-02	 1.268923e+01
1	 1.702852e+00	 5.387954e-02	 1.239822e+01
1	 1.702182e+00	 7.198247e-02	 1.205606e+01
1	 1.701317e+00	 9.015252e-02	 1.166831e+01
1	 1.711111e+00	 0.000000e+00	 1.284602e+01
1	 1.711017e+00	 1.796349e-02	 1.268267e+01
1	 1.710732e+00	 3.600227e-02	 1.245626e+01
1	 1.710255e+00	 5.411380e-02	 1.217226e+01
1	 1.709583e+00	 7.229544e-02	 1.183628e+01
1	 1.708714e+00	 9.054449e-02	 1.145398e+01
1	 1.718519e+00	 0.000000e+00	 1.258999e+01
1	 1.718424e+00	 1.804125e-02	 1.243566e+01
1	 1.718138e+00	 3.615813e-02	 1.221733e+01
1	 1.717659e+00	 5.434806e-02	 1.194059e+01
1	 1.716984e+00	 7.260840e-02	 1.161113e+01
1	 1.716111e+00	 9.093646e-02	 1.123471e+01
1	 1.725926e+00	 0.000000e+00	 1.232796e+01
1	 1.725831e+00	 1.811902e-02	 1.218254e+01
1	 1.725544e+00	 3.631398e-02	 1.197238e+01
1	 1.725063e+00	 5.458232e-02	 1.170312e+01
1	 1.724385e+00	 7.292137e-02	 1.138052e+01
1	 1.723508e+00	 9.132843e-02	 1.101038e+01
1	 1.733333e+00	 0.000000e+00	 1.205994e+01
1	 1.733238e+00	 1.819678e-02	 1.192329e+01
1	 1.732950e+00	 3.646984e-02	 1.172133e+01
1	 1.732466e+00	 5.481657e-02	 1.145975e+01
1	 1.731786e+00	 7.323434e-02	 1.114432e+01
1	 1.730905e+00	 9.172039e-02	 1.078091e+01
1	 1.740741e+00	 0.000000e+00	 1.178593e+01
1	 1.740645e+00	 1.827455e-02	 1.165786e+01
1	 1.740355e+00	 3.662569e-02	 1.146411e+01
1	 1.739870e+00	 5.505083e-02	 1.121038e+01
1	 1.739186e+00	 7.354730e-02	 1.090245e+01
1	 1.738302e+00	 9.211236e-02	 1.054619e+01
1	 1.701317e+00	 9.015252e-02	 1.166831e+01
1	 1.700253e+00	 1.083869e-01	 1.123748e+01
1	 1.698987e+00	 1.266829e-01	 1.076682e+01
1	 1.697519e+00	 1.450375e-01	 1.026311e+01
1	 1.695845e+00	 1.634478e-01	 9.733164e+00
1	 1.693964e+00	 1.819107e-01	 9.183864e+00
1	 1.708714e+00	 9.054449e-02	 1.145398e+01
1	 1.707645e+00	 1.088582e-01	 1.102795e+01
1	 1.706374e+00	 1.272337e-01	 1.056139e+01
1	 1.704899e+00	 1.456681e-01	 1.006105e+01
1	 1.703218e+00	 1.641584e-01	 9.533736e+00
1	 1.701329e+00	 1.827016e-01	 8.986308e+00
1	 1.716111e+00	 9.093646e-02	 1.123471e+01
1	 1.715037e+00	 1.093294e-01	 1.081397e+01
1	 1.713761e+00	 1.277845e-01	 1.035212e+01
1	 1.712280e+00	 1.462987e-01	 9.855882e+00
1	 1.710592e+00	 1.648691e-01	 9.332024e+00
1	 1.708694e+00	 1.834925e-01	 8.787379e+00
1	 1.723508e+00	 9.132843e-02	 1.101038e+01
1	 1.722430e+00	 1.098007e-01	 1.059545e+01
1	 1.721148e+00	 1.283353e-01	 1.013893e+01
1	 1.719660e+00	 1.469293e-01	 9.647491e+00
1	 1.717965e+00	 1.655797e-01	 9.127879e+00
1	 1.716059e+00	 1.842834e-01	 8.586889e+00
1	 1.730905e+00	 9.172039e-02	 1.078091e+01
1	 1.729822e+00	 1.102719e-01	 1.037230e+01
1	 1.728535e+00	 1.288861e-01	 9.921704e+00
1	 1.727041e+00	 1.475599e-01	 9.435758e+00
1	 1.725338e+00	 1.662904e-01	 8.921156e+00
1	 1.723424e+00	 1.850744e-01	 8.384650e+00
1	 1.738302e+00	 9.211236e-02	 1.054619e+01
1	 1.737215e+00	 1.107432e-01	 1.014442e+01
1	 1.735922e+00	 1.294369e-01	 9.700353e+00
1	 1.734421e+00	 1.481905e-01	 9.220570e+00
1	 1.732711e+00	 1.670010e-01	 8.711713e+00
1	 1.730790e+00	 1.858653e-01	 8.180481e+00
1	 1.693964e+00	 1.819107e-01	 9.183864e+00
1	 1.691874e+00	 2.004231e-01	 8.623862e+00
1	 1.689572e+00	 2.189819e-01	 8.060758e+00
1	 1.687057e+00	 2.375838e-01	 7.499863e+00
1	 1.684326e+00	 2.562255e-01	 6.946470e+00
1	 1.681379e+00	 2.749036e-01	 6.405847e+00
1	 1.701329e+00	 1.827016e-01	 8.986308e+00
1	 1.699230e+00	 2.012945e-01	 8.427423e+00
1	 1.696918e+00	 2.199340e-01	 7.864769e+00
1	 1.694392e+00	 2.386168e-01	 7.303761e+00
1	 1.691649e+00	 2.573395e-01	 6.749798e+00
1	 1.688689e+00	 2.760988e-01	 6.208246e+00
1	 1.708694e+00	 1.834925e-01	 8.787379e+00
1	 1.706586e+00	 2.021659e-01	 8.230566e+00
1	 1.704264e+00	 2.208861e-01	 7.669303e+00
1	 1.701727e+00	 2.396497e-01	 7.109096e+00
1	 1.698973e+00	 2.584535e-01	 6.555432e+00
1	 1.695999e+00	 2.772940e-01	 6.013760e+00
1	 1.716059e+00	 1.842834e-01	 8.586889e+00
1	 1.713942e+00	 2.030373e-01	 8.033061e+00
1	 1.711610e+00	 2.218382e-01	 7.474109e+00
1	 1.709062e+00	 2.406827e-01	 6.915612e+00
1	 1.706296e+00	 2.595675e-01	 6.363125e+00
1	 1.703310e+00	 2.784893e-01	 5.822172e+00
1	 1.723424e+00	 1.850744e-01	 8.384650e+00
1	 1.721298e+00	 2.039088e-01	 7.834685e+00
1	 1.718956e+00	 2.227903e-01	 7.278941e+00
1	 1.716397e+00	 2.417157e-01	 6.723055e+00
1	 1.713619e+00	 2.606816e-01	 6.172636e+00
1	 1.710620e+00	 2.796845e-01	 5.633265e+00
1	 1.730790e+00	 1.858653e-01	 8.180481e+00
1	 1.728654e+00	 2.047802e-01	 7.635216e+00
1	 1.726302e+00	 2.237424e-01	 7.083557e+00
1	 1.723732e+00	 2.427487e-01	 6.531176e+00
1	 1.720942e+00	 2.617956e-01	 5.983726e+00
1	 1.717930e+00	 2.808797e-01	 5.446831e+00
1	 1.681379e+00	 2.749036e-01	 6.405847e+00
1	 1.678212e+00	 2.936146e-01	 5.886219e+00
1	 1.674826e+00	 3.123552e-01	 5.397875e+00
1	 1.671217e+00	 3.311216e-01	 4.949107e+00
1	 1.667384e+00	 3.499104e-01	 4.548123e+00
1	 1.663326e+00	 3.687177e-01	 4.203032e+00
1	 1.688689e+00	 2.760988e-01	 6.208246e+00
1	 1.685509e+00	 2.948912e-01	 5.687254e+00
1	 1.682107e+00	 3.137133e-01	 5.197018e+00
1	 1.678483e+00	 3.325613e-01	 4.745900e+00
1	 1.674633e+00	 3.514317e-01	 4.342191e+00
1	 1.670558e+00	 3.703208e-01	 3.994089e+00
1	 1.695999e+00	 2.772940e-01	 6.013760e+00
1	 1.692806e+00	 2.961678e-01	 5.492196e+00
1	 1.689389e+00	 3.150713e-01	 5.000888e+00
1	 1.685749e+00	 3.340010e-01	 4.548266e+00
1	 1.681883e+00	 3.529531e-01	 4.142692e+00
1	 1.677790e+00	 3.719239e-01	 3.792447e+00
1	 1.703310e+00	 2.784893e-01	 5.822172e+00
1	 1.700102e+00	 2.974444e-01	 5.300854e+00
1	 1.696671e+00	 3.164294e-01	 4.809301e+00
1	 1.693015e+00	 3.354406e-01	 4.356005e+00
1	 1.689132e+00	 3.544744e-01	 3.949395e+00
1	 1.685022e+00	 3.735271e-01	 3.597819e+00
1	 1.710620e+00	 2.796845e-01	 5.633265e+00
1	 1.707399e+00	 2.987210e-01	 5.113039e+00
1	 1.703953e+00	 3.177874e-01	 4.622076e+00
1	 1.700281e+00	 3.368803e-01	 4.168924e+00
1	 1.696382e+00	 3.559958e-01	 3.762071e+00
1	 1.692253e+00	 3.751302e-01	 3.409924e+00
1	 1.717930e+00	 2.808797e-01	 5.446831e+00
1	 1.714695e+00	 2.999976e-01	 4.928565e+00
1	 1.711235e+00	 3.191455e-01	 4.439032e+00
1	 1.707547e+00	 3.383199e-01	 3.986829e+00
1	 1.703631e+00	 3.575171e-01	 3.580495e+00
1	 1.699485e+00	 3.767333e-01	 3.228486e+00
1	 1.663326e+00	 3.687177e-01	 4.203032e+00
1	 1.659042e+00	 3.875399e-01	 3.908548e+00
1	 1.654529e+00	 4.063731e-01	 3.654168e+00
1	 1.649788e+00	 4.252136e-01	 3.439993e+00
1	 1.644816e+00	 4.440573e-01	 3.266001e+00
1	 1.639613e+00	 4.629004e-01	 3.132041e+00
1	 1.670558e+00	 3.703208e-01	 3.994089e+00
1	 1.666255e+00	 3.892248e-01	 3.696744e+00
1	 1.661723e+00	 4.081400e-01	 3.439906e+00
1	 1.656961e+00	 4.270623e-01	 3.223503e+00
1	 1.651967e+00	 4.459880e-01	 3.047323e+00
1	 1.646741e+00	 4.649130e-01	 2.911018e+00
1	 1.677790e+00	 3.719239e-01	 3.792447e+00
1	 1.673468e+00	 3.909098e-01	 3.493041e+00
1	 1.668917e+00	 4.099068e-01	 3.234410e+00
1	 1.664134e+00	 4.289111e-01	 3.016290e+00
1	 1.659119e+00	 4.479187e-01	 2.838275e+00
1	 1.653870e+00	 4.669256e-01	 2.699813e+00
1	 1.685022e+00	 3.735271e-01	 3.597819e+00
1	 1.680681e+00	 3.925948e-01	 3.297108e+00
1	 1.676110e+00	 4.116736e-01	 3.037336e+00
1	 1.671307e+00	 4.307598e-01	 2.818036e+00
1	 1.666270e+00	 4.498494e-01	 2.638596e+00
1	 1.660999e+00	 4.689382e-01	 2.498255e+00
1	 1.692253e+00	 3.751302e-01	 3.409924e+00
1	 1.687895e+00	 3.942797e-01	 3.108618e+00
1	 1.683304e+00	 4.134405e-01	 2.848345e+00
1	 1.678480e+00	 4.326086e-01	 2.628423e+00
1	 1.673421e+00	 4.517800e-01	 2.448026e+00
1	 1.668128e+00	 4.709508e-01	 2.306179e+00
1	 1.699485e+00	 3.767333e-01	 3.228486e+00
1	 1.695108e+00	 3.959647e-01	 2.927250e+00
1	 1.690497e+00	 4.152073e-01	 2.667105e+00
1	 1.685653e+00	 4.344573e-01	 2.447142e+00
1	 1.680573e+00	 4.537107e-01	 2.266312e+00
1	 1.675256e+00	 4.729634e-01	 2.123423e+00
1	 1.639613e+00	 4.629004e-01	 3.132041e+00
1	 1.634177e+00	 4.817388e-01	 3.032792e+00
1	 1.628508e+00	 5.005685e-01	 2.959972e+00
1	 1.622604e+00	 5.193854e-01	 2.908861e+00
1	 1.616466e+00	 5.381853e-01	 2.874718e+00
1	 1.610092e+00	 5.569641e-01	 2.852782e+00
1	 1.646741e+00	 4.649130e-01	 2.911018e+00
1	 1.641282e+00	 4.838333e-01	 2.809712e+00
1	 1.635588e+00	 5.027449e-01	 2.735690e+00
1	 1.629659e+00	 5.216436e-01	 2.684223e+00
1	 1.623494e+00	 5.405253e-01	 2.650573e+00
1	 1.617093e+00	 5.593857e-01	 2.629998e+00
1	 1.653870e+00	 4.669256e-01	 2.699813e+00
1	 1.648387e+00	 4.859278e-01	 2.596541e+00
1	 1.642669e+00	 5.049213e-01	 2.521415e+00
1	 1.636714e+00	 5.239018e-01	 2.469737e+00
1	 1.630522e+00	 5.428652e-01	 2.436801e+00
1	 1.624093e+00	 5.618073e-01	 2.417911e+00
1	 1.660999e+00	 4.689382e-01	 2.498255e+00
1	 1.655492e+00	 4.880223e-01	 2.393196e+00
1	 1.649749e+00	 5.070976e-01	 2.317101e+00
1	 1.643769e+00	 5.261600e-01	 2.265338e+00
1	 1.637551e+00	 5.452051e-01	 2.233270e+00
1	 1.631094e+00	 5.642289e-01	 2.216266e+00
1	 1.668128e+00	 4.709508e-01	 2.306179e+00
1	 1.662597e+00	 4.901169e-01	 2.199596e+00
1	 1.656830e+00	 5.092740e-01	 2.122701e+00
1	 1.650824e+00	 5.284182e-01	 2.070964e+00
1	 1.644579e+00	 5.475451e-01	 2.039848e+00
1	 1.638094e+00	 5.666505e-01	 2.024816e+00
1	 1.675256e+00	 4.729634e-01	 2.123423e+00
1	 1.669702e+00	 4.922114e-01	 2.015662e+00
1	 1.663910e+00	 5.114504e-01	 1.938169e+00
1	 1.657878e+00	 5.306764e-01	 1.886554e+00
1	 1.651607e+00	 5.498850e-01	 1.856409e+00
1	 1.645094e+00	 5.690721e-01	 1.843314e+00
1	 1.610092e+00	 5.569641e-01	 2.852782e+00
1	 1.603482e+00	 5.757176e-01	 2.834136e+00
1	 1.596636e+00	 5.944415e-01	 2.811593e+00
1	 1.589552e+00	 6.131316e-01	 2.782993e+00
1	 1.582231e+00	 6.317835e-01	 2.746200e+00
1	 1.574673e+00	 6.503929e-01	 2.699102e+00
1	 1.617093e+00	 5.593857e-01	 2.629998e+00
1	 1.610454e+00	 5.782208e-01	 2.613469e+00
1	 1.603578e+00	 5.970261e-01	 2.593778e+00
1	 1.596463e+00	 6.157974e-01	 2.568911e+00
1	 1.589111e+00	 6.345304e-01	 2.536851e+00
1	 1.581520e+00	 6.532206e-01	 2.495584e+00
1	 1.624093e+00	 5.618073e-01	 2.417911e+00
1	 1.617426e+00	 5.807239e-01	 2.403818e+00
1	 1.610519e+00	 5.996106e-01	 2.387140e+00
1	 1.603374e+00	 6.184632e-01	 2.365967e+00
1	 1.595990e+00	 6.372772e-01	 2.338371e+00
1	 1.588366e+00	 6.560484e-01	 2.302413e+00
1	 1.631094e+00	 5.642289e-01	 2.216266e+00
1	 1.624397e+00	 5.832270e-01	 2.204816e+00
1	 1.617461e+00	 6.021951e-01	 2.191266e+00
1	 1.610285e+00	 6.211290e-01	 2.173772e+00
1	 1.602869e+00	 6.400241e-01	 2.150465e+00
1	 1.595212e+00	 6.588762e-01	 2.119456e+00
1	 1.638094e+00	 5.666505e-01	 2.024816e+00
1	 1.631369e+00	 5.857301e-01	 2.016100e+00
1	 1.624403e+00	 6.047797e-01	 2.005750e+00
1	 1.617197e+00	 6.237948e-01	 1.991945e+00
1	 1.609748e+00	 6.427710e-01	 1.972842e+00
1	 1.602059e+00	 6.617040e-01	 1.946584e+00
1	 1.645094e+00	 5.690721e-01	 1.843314e+00
1	 1.638341e+00	 5.882332e-01	 1.837317e+00
1	 1.631345e+00	 6.073642e-01	 1.830193e+00
1	 1.624108e+00	 6.264605e-01	 1.820107e+00
1	 1.616628e+00	 6.455179e-01	 1.805216e+00
1	 1.608905e+00	 6.645318e-01	 1.783669e+00
1	 1.574673e+00	 6.503929e-01	 2.699102e+00
1	 1.566877e+00	 6.689554e-01	 2.618800e+00
1	 1.558844e+00	 6.874666e-01	 2.482547e+00
1	 1.550574e+00	 7.059223e-01	 2.288679e+00
1	 1.542067e+00	 7.243179e-01	 2.035805e+00
1	 1.533323e+00	 7.426490e-01	 1.722817e+00
1	 1.581520e+00	 6.532206e-01	 2.495584e+00
1	 1.573690e+00	 6.718639e-01	 2.423155e+00
1	 1.565622e+00	 6.904556e-01	 2.297482e+00
1	 1.557316e+00	 7.089915e-01	 2.116588e+00
1	 1.548771e+00	 7.274671e-01	 1.878813e+00
1	 1.539989e+00	 7.458779e-01	 1.582817e+00
1	 1.588366e+00	 6.560484e-01	 2.302413e+00
1	 1.580502e+00	 6.747724e-01	 2.237289e+00
1	 1.572400e+00	 6.934446e-01	 2.121830e+00
1	 1.564057e+00	 7.120607e-01	 1.953785e+00
1	 1.555476e+00	 7.306163e-01	 1.731245e+00
1	 1.546656e+00	 7.491068e-01	 1.452651e+00
1	 1.595212e+00	 6.588762e-01	 2.119456e+00
1	 1.587315e+00	 6.776809e-01	 2.061217e+00
1	 1.579177e+00	 6.964336e-01	 1.955655e+00
1	 1.570799e+00	 7.151300e-01	 1.800281e+00
1	 1.562181e+00	 7.337655e-01	 1.592960e+00
1	 1.553323e+00	 7.523357e-01	 1.331922e+00
1	 1.602059e+00	 6.617040e-01	 1.946584e+00
1	 1.594128e+00	 6.805894e-01	 1.894956e+00
1	 1.585955e+00	 6.994226e-01	 1.799023e+00
1	 1.577541e+00	 7.181992e-01	 1.656090e+00
1	 1.568885e+00	 7.369147e-01	 1.463819e+00
1	 1.559989e+00	 7.555646e-01	 1.220239e+00
1	 1.608905e+00	 6.645318e-01	 1.783669e+00
1	 1.600940e+00	 6.834979e-01	 1.738523e+00
1	 1.592732e+00	 7.024116e-01	 1.651997e+00
1	 1.584282e+00	 7.212684e-01	 1.521225e+00
1	 1.575590e+00	 7.400639e-01	 1.343686e+00
1	 1.566656e+00	 7.587935e-01	 1.117218e+00
1	 1.533323e+00	 7.426490e-01	 1.722817e+00
1	 1.524343e+00	 7.609112e-01	 1.353930e+00
1	 1.515127e+00	 7.791000e-01	 9.341815e-01
1	 1.505676e+00	 7.972111e-01	 4.642806e-01
1	 1.495991e+00	 8.152399e-01	-5.456580e-02
1	 1.486073e+00	 8.331821e-01	-6.206500e-01
1	 1.539989e+00	 7.458779e-01	 1.582817e+00
1	 1.530970e+00	 7.642195e-01	 1.233170e+00
1	 1.521714e+00	 7.824874e-01	 8.356368e-01
1	 1.512223e+00	 8.006772e-01	 3.912155e-01
1	 1.502496e+00	 8.187845e-01	-9.869792e-02
1	 1.492534e+00	 8.368046e-01	-6.323067e-01
1	 1.546656e+00	 7.491068e-01	 1.452651e+00
1	 1.537598e+00	 7.675278e-01	 1.122444e+00
1	 1.528302e+00	 7.858748e-01	 7.466152e-01
1	 1.518769e+00	 8.041434e-01	 3.264373e-01
1	 1.509000e+00	 8.223290e-01	-1.364948e-01
1	 1.498996e+00	 8.404272e-01	-6.402636e-01
1	 1.553323e+00	 7.523357e-01	 1.331922e+00
1	 1.544225e+00	 7.708361e-01	 1.021131e+00
1	 1.534889e+00	 7.892622e-01	 6.664346e-01
1	 1.525315e+00	 8.076095e-01	 2.693701e-01
1	 1.515504e+00	 8.258735e-01	-1.682598e-01
1	 1.505457e+00	 8.440497e-01	-6.443858e-01
1	 1.559989e+00	 7.555646e-01	 1.220239e+00
1	 1.550853e+00	 7.741444e-01	 9.286178e-01
1	 1.541477e+00	 7.926496e-01	 5.944245e-01
1	 1.531862e+00	 8.110756e-01	 2.194480e-01
1	 1.522009e+00	 8.294180e-01	-1.942910e-01
1	 1.511918e+00	 8.476722e-01	-6.445402e-01
1	 1.566656e+00	 7.587935e-01	 1.117218e+00
1	 1.557481e+00	 7.774527e-01	 8.443035e-01
1	 1.548064e+00	 7.960370e-01	 5.299260e-01
1	 1.538408e+00	 8.145418e-01	 1.761148e-01
1	 1.528513e+00	 8.329625e-01	-2.148817e-01
1	 1.518379e+00	 8.512948e-01	-6.405963e-01
1	 1.486073e+00	 8.331821e-01	-6.206500e-01
1	 1.475923e+00	 8.510332e-01	-1.234006e+00
1	 1.465542e+00	 8.687888e-01	-1.894513e+00
1	 1.454930e+00	 8.864445e-01	-2.599846e+00
1	 1.444091e+00	 9.039959e-01	-3.347678e+00
1	 1.433024e+00	 9.214387e-01	-4.135680e+00
1	 1.492534e+00	 8.368046e-01	-6.323067e-01
1	 1.482340e+00	 8.547334e-01	-1.211203e+00
1	 1.471914e+00	 8.725662e-01	-1.837034e+00
1	 1.461256e+00	 8.902986e-01	-2.507707e+00
1	 1.450369e+00	 9.079263e-01	-3.221040e+00
1	 1.439254e+00	 9.254449e-01	-3.974754e+00
1	 1.498996e+00	 8.404272e-01	-6.402636e-01
1	 1.488757e+00	 8.584335e-01	-1.187339e+00
1	 1.478285e+00	 8.763435e-01	-1.780456e+00
1	 1.467582e+00	 8.941527e-01	-2.417736e+00
1	 1.456648e+00	 9.118567e-01	-3.097140e+00
1	 1.445485e+00	 9.294512e-01	-3.816472e+00
1	 1.505457e+00	 8.440497e-01	-6.443858e-01
1	 1.495174e+00	 8.621336e-01	-1.161852e+00
1	 1.484657e+00	 8.801208e-01	-1.723986e+00
1	 1.473908e+00	 8.980068e-01	-2.329096e+00
1	 1.462927e+00	 9.157872e-01	-2.975293e+00
1	 1.451715e+00	 9.334574e-01	-3.660491e+00
1	 1.511918e+00	 8.476722e-01	-6.445402e-01
1	 1.501591e+00	 8.658338e-01	-1.134191e+00
1	 1.491029e+00	 8.838982e-01	-1.666840e+00
1	 1.480234e+00	 9.018609e-01	-2.240963e+00
1	 1.469205e+00	 9.197176e-01	-2.854823e+00
1	 1.457946e+00	 9.374637e-01	-3.506473e+00
1	 1.518379e+00	 8.512948e-01	-6.405963e-01
1	 1.508008e+00	 8.695339e-01	-1.103814e+00
1	 1.497401e+00	 8.876755e-01	-1.608252e+00
1	 1.486559e+00	 9.057150e-01	-2.152530e+00
1	 1.475484e+00	 9.236480e-01	-2.735068e+00
1	 1.464176e+00	 9.414699e-01	-3.354087e+00
1	 1.433024e+00	 9.214387e-01	-4.135680e+00
1	 1.421731e+00	 9.387684e-01	-4.930550e+00
1	 1.410215e+00	 9.559809e-01	-5.702025e+00
1	 1.398477e+00	 9.730718e-01	-6.452656e+00
1	 1.386518e+00	 9.900368e-01	-7.185405e+00
1	 1.374342e+00	 1.006872e+00	-7.903644e+00
1	 1.439254e+00	 9.254449e-01	-3.974754e+00
1	 1.427913e+00	 9.428500e-01	-4.736897e+00
1	 1.416347e+00	 9.601373e-01	-5.478170e+00
1	 1.404557e+00	 9.773025e-01	-6.200521e+00
1	 1.392547e+00	 9.943413e-01	-6.906297e+00
1	 1.380317e+00	 1.011250e+00	-7.598249e+00
1	 1.445485e+00	 9.294512e-01	-3.816472e+00
1	 1.434094e+00	 9.469316e-01	-4.545413e+00
1	 1.422478e+00	 9.642938e-01	-5.255922e+00
1	 1.410638e+00	 9.815333e-01	-5.949389e+00
1	 1.398575e+00	 9.986459e-01	-6.627580e+00
1	 1.386293e+00	 1.015627e+00	-7.292640e+00
1	 1.451715e+00	 9.334574e-01	-3.660491e+00
1	 1.440276e+00	 9.510132e-01	-4.356140e+00
1	 1.428609e+00	 9.684502e-01	-5.035595e+00
1	 1.416718e+00	 9.857640e-01	-5.699735e+00
1	 1.404603e+00	 1.002950e+00	-6.349779e+00
1	 1.392268e+00	 1.020005e+00	-6.987277e+00
1	 1.457946e+00	 9.374637e-01	-3.506473e+00
1	 1.446457e+00	 9.550948e-01	-4.169116e+00
1	 1.434741e+00	 9.726066e-01	-4.817495e+00
1	 1.422798e+00	 9.899948e-01	-5.452026e+00
1	 1.410632e+00	 1.007255e+00	-6.073406e+00
1	 1.398243e+00	 1.024383e+00	-6.682613e+00
1	 1.464176e+00	 9.414699e-01	-3.354087e+00
1	 1.452639e+00	 9.591764e-01	-3.984382e+00
1	 1.440872e+00	 9.767631e-01	-4.601927e+00
1	 1.428879e+00	 9.942255e-01	-5.206720e+00
1	 1.416660e+00	 1.011559e+00	-5.798969e+00
1	 1.404219e+00	 1.028760e+00	-6.379091e+00
1	 1.374342e+00	 1.006872e+00	-7.903644e+00
1	 1.361949e+00	 1.023573e+00	-8.556972e+00
1	 1.349342e+00	 1.040135e+00	-9.092614e+00
1	 1.336524e+00	 1.056555e+00	-9.510750e+00
1	 1.323497e+00	 1.072829e+00	-9.811658e+00
1	 1.310263e+00	 1.088952e+00	-9.995715e+00
1	 1.380317e+00	 1.011250e+00	-7.598249e+00
1	 1.367871e+00	 1.028023e+00	-8.224484e+00
1	 1.355209e+00	 1.044658e+00	-8.731879e+00
1	 1.342335e+00	 1.061149e+00	-9.121768e+00
1	 1.329251e+00	 1.077494e+00	-9.395664e+00
1	 1.315960e+00	 1.093687e+00	-9.555256e+00
1	 1.386293e+00	 1.015627e+00	-7.292640e+00
1	 1.373792e+00	 1.032473e+00	-7.891524e+00
1	 1.361076e+00	 1.049180e+00	-8.371068e+00
1	 1.348146e+00	 1.065743e+00	-8.733713e+00
1	 1.335006e+00	 1.082158e+00	-8.982165e+00
1	 1.321656e+00	 1.098422e+00	-9.119390e+00
1	 1.392268e+00	 1.020005e+00	-6.987277e+00
1	 1.379714e+00	 1.036924e+00	-7.558448e+00
1	 1.366943e+00	 1.053702e+00	-8.010460e+00
1	 1.353957e+00	 1.070337e+00	-8.346820e+00
1	 1.340760e+00	 1.086823e+00	-8.571383e+00
1	 1.327353e+00	 1.103156e+00	-8.688354e+00
1	 1.398243e+00	 1.024383e+00	-6.682613e+00
1	 1.385635e+00	 1.041374e+00	-7.225604e+00
1	 1.372809e+00	 1.058225e+00	-7.650332e+00
1	 1.359768e+00	 1.074930e+00	-7.961319e+00
1	 1.346514e+00	 1.091487e+00	-8.163534e+00
1	 1.333050e+00	 1.107891e+00	-8.262385e+00
1	 1.404219e+00	 1.028760e+00	-6.379091e+00
1	 1.391557e+00	 1.045824e+00	-6.893336e+00
1	 1.378676e+00	 1.062747e+00	-7.290953e+00
1	 1.365579e+00	 1.079524e+00	-7.577438e+00
1	 1.352269e+00	 1.096151e+00	-7.758832e+00
1	 1.338747e+00	 1.112625e+00	-7.841713e+00
1	 1.310263e+00	 1.088952e+00	-9.995715e+00
1	 1.296825e+00	 1.104922e+00	-1.009762e+01
1	 1.283186e+00	 1.120732e+00	-1.015867e+01
1	 1.269348e+00	 1.136381e+00	-1.018981e+01
1	 1.255314e+00	 1.151865e+00	-1.020272e+01
1	 1.241088e+00	 1.167179e+00	-1.020979e+01
1	 1.315960e+00	 1.093687e+00	-9.555256e+00
1	 1.302463e+00	 1.109726e+00	-9.638435e+00
1	 1.288765e+00	 1.125605e+00	-9.687942e+00
1	 1.274867e+00	 1.141322e+00	-9.713383e+00
1	 1.260772e+00	 1.156873e+00	-9.725022e+00
1	 1.246484e+00	 1.172254e+00	-9.733763e+00
1	 1.321656e+00	 1.098422e+00	-9.119390e+00
1	 1.308102e+00	 1.114530e+00	-9.185872e+00
1	 1.294344e+00	 1.130478e+00	-9.225250e+00
1	 1.280385e+00	 1.146263e+00	-9.245849e+00
1	 1.266230e+00	 1.161881e+00	-9.256567e+00
1	 1.251880e+00	 1.177328e+00	-9.266856e+00
1	 1.327353e+00	 1.103156e+00	-8.688354e+00
1	 1.313740e+00	 1.119334e+00	-8.740201e+00
1	 1.299923e+00	 1.135351e+00	-8.770895e+00
1	 1.285904e+00	 1.151204e+00	-8.787530e+00
1	 1.271688e+00	 1.166889e+00	-8.797687e+00
1	 1.257276e+00	 1.182403e+00	-8.809418e+00
1	 1.333050e+00	 1.107891e+00	-8.262385e+00
1	 1.319378e+00	 1.124138e+00	-8.301688e+00
1	 1.305502e+00	 1.140223e+00	-8.325169e+00
1	 1.291423e+00	 1.156145e+00	-8.338742e+00
1	 1.277146e+00	 1.171897e+00	-8.348717e+00
1	 1.262672e+00	 1.187478e+00	-8.361792e+00
1	 1.338747e+00	 1.112625e+00	-7.841713e+00
1	 1.325017e+00	 1.128942e+00	-7.870593e+00
1	 1.311081e+00	 1.145096e+00	-7.888360e+00
1	 1.296942e+00	 1.161085e+00	-7.899794e+00
1	 1.282604e+00	 1.176905e+00	-7.909984e+00
1	 1.268068e+00	 1.192552e+00	-7.924318e+00
1	 1.241088e+00	 1.167179e+00	-1.020979e+01
1	 1.226672e+00	 1.182320e+00	-1.025151e+01
1	 1.212070e+00	 1.197285e+00	-1.035934e+01
1	 1.197285e+00	 1.212070e+00	-1.053254e+01
1	 1.182320e+00	 1.226672e+00	-1.077020e+01
1	 1.167179e+00	 1.241088e+00	-1.107125e+01
1	 1.246484e+00	 1.172254e+00	-9.733763e+00
1	 1.232006e+00	 1.187461e+00	-9.776220e+00
1	 1.217340e+00	 1.202491e+00	-9.881512e+00
1	 1.202491e+00	 1.217340e+00	-1.004966e+01
1	 1.187461e+00	 1.232006e+00	-1.028057e+01
1	 1.172254e+00	 1.246484e+00	-1.057398e+01
1	 1.251880e+00	 1.177328e+00	-9.266856e+00
1	 1.237339e+00	 1.192601e+00	-9.309894e+00
1	 1.222610e+00	 1.207696e+00	-9.412751e+00
1	 1.207696e+00	 1.222610e+00	-9.576051e+00
1	 1.192601e+00	 1.237339e+00	-9.800322e+00
1	 1.177328e+00	 1.251880e+00	-1.008599e+01
1	 1.257276e+00	 1.182403e+00	-8.809418e+00
1	 1.242672e+00	 1.197742e+00	-8.852864e+00
1	 1.227880e+00	 1.212902e+00	-8.953319e+00
1	 1.212902e+00	 1.227880e+00	-9.111851e+00
1	 1.197742e+00	 1.242672e+00	-9.329456e+00
1	 1.182403e+00	 1.257276e+00	-9.607063e+00
1	 1.262672e+00	 1.187478e+00	-8.361792e+00
1	 1.248006e+00	 1.202882e+00	-8.405457e+00
1	 1.233150e+00	 1.218108e+00	-8.503477e+00
1	 1.218108e+00	 1.233150e+00	-8.657207e+00
1	 1.202882e+00	 1.248006e+00	-8.867956e+00
1	 1.187478e+00	 1.262672e+00	-9.136979e+00
1	 1.268068e+00	 1.192552e+00	-7.924318e+00
1	 1.253339e+00	 1.208023e+00	-7.967994e+00
1	 1.238420e+00	 1.223313e+00	-8.063479e+00
1	 1.223313e+00	 1.238420e+00	-8.212266e+00
1	 1.208023e+00	 1.253339e+00	-8.415810e+00
1	 1.192552e+00	 1.268068e+00	-8.675530e+00
1	 1.167179e+00	 1.241088e+00	-1.107125e+01
1	 1.151865e+00	 1.255314e+00	-1.146924e+01
1	 1.136381e+00	 1.269348e+00	-1.198856e+01
1	 1.120732e+00	 1.283186e+00	-1.261366e+01
1	 1.104922e+00	 1.296825e+00	-1.332823e+01
1	 1.088952e+00	 1.310263e+00	-1.411524e+01
1	 1.172254e+00	 1.246484e+00	-1.057398e+01
1	 1.156873e+00	 1.260772e+00	-1.096189e+01
1	 1.141322e+00	 1.274867e+00	-1.146673e+01
1	 1.125605e+00	 1.288765e+00	-1.207333e+01
1	 1.109726e+00	 1.302463e+00	-1.276574e+01
1	 1.093687e+00	 1.315960e+00	-1.352728e+01
1	 1.177328e+00	 1.251880e+00	-1.008599e+01
1	 1.161881e+00	 1.266230e+00	-1.046331e+01
1	 1.146263e+00	 1.280385e+00	-1.095292e+01
1	 1.130478e+00	 1.294344e+00	-1.154026e+01
1	 1.114530e+00	 1.308102e+00	-1.221000e+01
1	 1.098422e+00	 1.321656e+00	-1.294613e+01
1	 1.182403e+00	 1.257276e+00	-9.607063e+00
1	 1.166889e+00	 1.271688e+00	-9.973108e+00
1	 1.151204e+00	 1.285904e+00	-1.044666e+01
1	 1.135351e+00	 1.299923e+00	-1.101400e+01
1	 1.119334e+00	 1.313740e+00	-1.166071e+01
1	 1.103156e+00	 1.327353e+00	-1.237172e+01
1	 1.187478e+00	 1.262672e+00	-9.136979e+00
1	 1.171897e+00	 1.277146e+00	-9.490909e+00
1	 1.156145e+00	 1.291423e+00	-9.947495e+00
1	 1.140223e+00	 1.305502e+00	-1.049413e+01
1	 1.124138e+00	 1.319378e+00	-1.111756e+01
1	 1.107891e+00	 1.333050e+00	-1.180393e+01
1	 1.192552e+00	 1.268068e+00	-8.675530e+00
1	 1.176905e+00	 1.282604e+00	-9.016328e+00
1	 1.161085e+00	 1.296942e+00	-9.454978e+00
1	 1.145096e+00	 1.311081e+00	-9.980231e+00
1	 1.128942e+00	 1.325017e+00	-1.058026e+01
1	 1.112625e+00	 1.338747e+00	-1.124270e+01
1	 1.088952e+00	 1.310263e+00	-1.411524e+01
1	 1.072829e+00	 1.323497e+00	-1.498145e+01
1	 1.056555e+00	 1.336524e+00	-1.593859e+01
1	 1.040135e+00	 1.349342e+00	-1.697642e+01
1	 1.023573e+00	 1.361949e+00	-1.808448e+01
1	 1.006872e+00	 1.374342e+00	-1.925209e+01
1	 1.093687e+00	 1.315960e+00	-1.352728e+01
1	 1.077494e+00	 1.329251e+00	-1.436656e+01
1	 1.061149e+00	 1.342335e+00	-1.529663e+01
1	 1.044658e+00	 1.355209e+00	-1.630675e+01
1	 1.028023e+00	 1.367871e+00	-1.738599e+01
1	 1.011250e+00	 1.380317e+00	-1.852317e+01
1	 1.098422e+00	 1.321656e+00	-1.294613e+01
1	 1.082158e+00	 1.335006e+00	-1.375913e+01
1	 1.065743e+00	 1.348146e+00	-1.466290e+01
1	 1.049180e+00	 1.361076e+00	-1.564585e+01
1	 1.032473e+00	 1.373792e+00	-1.669616e+01
1	 1.015627e+00	 1.386293e+00	-1.780173e+01
1	 1.103156e+00	 1.327353e+00	-1.237172e+01
1	 1.086823e+00	 1.340760e+00	-1.315925e+01
1	 1.070337e+00	 1.353957e+00	-1.403755e+01
1	 1.053702e+00	 1.366943e+00	-1.499378e+01
1	 1.036924e+00	 1.379714e+00	-1.601484e+01
1	 1.020005e+00	 1.392268e+00	-1.708729e+01
1	 1.107891e+00	 1.333050e+00	-1.180393e+01
1	 1.091487e+00	 1.346514e+00	-1.256702e+01
1	 1.074930e+00	 1.359768e+00	-1.342072e+01
1	 1.058225e+00	 1.372809e+00	-1.435061e+01
1	 1.041374e+00	 1.385635e+00	-1.534187e+01
1	 1.024383e+00	 1.398243e+00	-1.637934e+01
1	 1.112625e+00	 1.338747e+00	-1.124270e+01
1	 1.096151e+00	 1.352269e+00	-1.198253e+01
1	 1.079524e+00	 1.365579e+00	-1.281257e+01
1	 1.062747e+00	 1.378676e+00	-1.371639e+01
1	 1.045824e+00	 1.391557e+00	-1.467711e+01
1	 1.028760e+00	 1.404219e+00	-1.567742e+01
1	 1.006872e+00	 1.374342e+00	-1.925209e+01
1	 9.900368e-01	 1.386518e+00	-2.041963e+01
1	 9.730718e-01	 1.398477e+00	-2.152817e+01
1	 9.559809e-01	 1.410215e+00	-2.256787e+01
1	 9.387684e-01	 1.421731e+00	-2.352875e+01
1	 9.214387e-01	 1.433024e+00	-2.440070e+01
1	 1.011250e+00	 1.380317e+00	-1.852317e+01
1	 9.943413e-01	 1.392547e+00	-1.965759e+01
1	 9.773025e-01	 1.404557e+00	-2.072880e+01
1	 9.601373e-01	 1.416347e+00	-2.172569e+01
1	 9.428500e-01	 1.427913e+00	-2.263696e+01
1	 9.254449e-01	 1.439254e+00	-2.345111e+01
1	 1.015627e+00	 1.386293e+00	-1.780173e+01
1	 9.986459e-01	 1.398575e+00	-1.890053e+01
1	 9.815333e-01	 1.410638e+00	-1.993115e+01
1	 9.642938e-01	 1.422478e+00	-2.088215e+01
1	 9.469316e-01	 1.434094e+00	-2.174187e+01
1	 9.294512e-01	 1.445485e+00	-2.249846e+01
1	 1.020005e+00	 1.392268e+00	-1.708729e+01
1	 1.002950e+00	 1.404603e+00	-1.814766e+01
1	 9.857640e-01	 1.416718e+00	-1.913445e+01
1	 9.684502e-01	 1.428609e+00	-2.003676e+01
1	 9.510132e-01	 1.440276e+00	-2.084354e+01
1	 9.334574e-01	 1.451715e+00	-2.154352e+01
1	 1.024383e+00	 1.398243e+00	-1.637934e+01
1	 1.007255e+00	 1.410632e+00	-1.739826e+01
1	 9.899948e-01	 1.422798e+00	-1.833796e+01
1	 9.726066e-01	 1.434741e+00	-1.918905e+01
1	 9.550948e-01	 1.446457e+00	-1.994198e+01
1	 9.374637e-01	 1.457946e+00	-2.058706e+01
1	 1.028760e+00	 1.404219e+00	-1.567742e+01
1	 1.011559e+00	 1.416660e+00	-1.665158e+01
1	 9.942255e-01	 1.428879e+00	-1.754096e+01
1	 9.767631e-01	 1.440872e+00	-1.833855e+01
1	 9.591764e-01	 1.452639e+00	-1.903723e+01
1	 9.414699e-01	 1.464176e+00	-1.962983e+01
1	 9.214387e-01	 1.433024e+00	-2.440070e+01
1	 9.039959e-01	 1.444091e+00	-2.514531e+01
1	 8.864445e-01	 1.454930e+00	-2.573001e+01
1	 8.687888e-01	 1.465542e+00	-2.615333e+01
1	 8.510332e-01	 1.475923e+00	-2.641390e+01
1	 8.331821e-01	 1.486073e+00	-2.651049e+01
1	 9.254449e-01	 1.439254e+00	-2.345111e+01
1	 9.079263e-01	 1.450369e+00	-2.413063e+01
1	 8.902986e-01	 1.461256e+00	-2.464809e+01
1	 8.725662e-01	 1.471914e+00	-2.500728e+01
1	 8.547334e-01	 1.482340e+00	-2.521223e+01
1	 8.368046e-01	 1.492534e+00	-2.526718e+01
1	 9.294512e-01	 1.445485e+00	-2.249846e+01
1	 9.118567e-01	 1.456648e+00	-2.311657e+01
1	 8.941527e-01	 1.467582e+00	-2.357375e+01
1	 8.763435e-01	 1.478285e+00	-2.387767e+01
1	 8.584335e-01	 1.488757e+00	-2.403633e+01
1	 8.404272e-01	 1.498996e+00	-2.405805e+01
1	 9.334574e-01	 1.451715e+00	-2.154352e+01
1	 9.157872e-01	 1.462927e+00	-2.210458e+01
1	 8.980068e-01	 1.473908e+00	-2.250874e+01
1	 8.801208e-01	 1.484657e+00	-2.276619e+01
1	 8.621336e-01	 1.495174e+00	-2.288752e+01
1	 8.440497e-01	 1.505457e+00	-2.288371e+01
1	 9.374637e-01	 1.457946e+00	-2.058706e+01
1	 9.197176e-01	 1.469205e+00	-2.109609e+01
1	 9.018609e-01	 1.480234e+00	-2.145478e+01
1	 8.838982e-01	 1.491029e+00	-2.167450e+01
1	 8.658338e-01	 1.501591e+00	-2.176708e+01
1	 8.476722e-01	 1.511918e+00	-2.174472e+01
1	 9.414699e-01	 1.464176e+00	-1.962983e+01
1	 9.236480e-01	 1.475484e+00	-2.009252e+01
1	 9.057150e-01	 1.486559e+00	-2.041357e+01
1	 8.876755e-01	 1.497401e+00	-2.060426e+01
1	 8.695339e-01	 1.508008e+00	-2.067627e+01
1	 8.512948e-01	 1.518379e+00	-2.064167e+01
1	 8.331821e-01	 1.486073e+00	-2.651049e+01
1	 8.152399e-01	 1.495991e+00	-2.645307e+01
1	 7.972111e-01	 1.505676e+00	-2.626964e+01
1	 7.791000e-01	 1.515127e+00	-2.598648e+01
1	 7.609112e-01	 1.524343e+00	-2.563048e+01
1	 7.426490e-01	 1.533323e+00	-2.522904e+01
1	 8.368046e-01	 1.492534e+00	-2.526718e+01
1	 8.187845e-01	 1.502496e+00	-2.518804e+01
1	 8.006772e-01	 1.512223e+00	-2.500092e+01
1	 7.824874e-01	 1.521714e+00	-2.472585e+01
1	 7.642195e-01	 1.530970e+00	-2.438335e+01
1	 7.458779e-01	 1.539989e+00	-2.399428e+01
1	 8.404272e-01	 1.498996e+00	-2.405805e+01
1	 8.223290e-01	 1.509000e+00	-2.396245e+01
1	 8.041434e-01	 1.518769e+00	-2.377319e+01
1	 7.858748e-01	 1.528302e+00	-2.350516e+01
1	 7.675278e-01	 1.537598e+00	-2.317359e+01
1	 7.491068e-01	 1.546656e+00	-2.279398e+01
1	 8.440497e-01	 1.505457e+00	-2.288371e+01
1	 8.258735e-01	 1.515504e+00	-2.277617e+01
1	 8.076095e-01	 1.525315e+00	-2.258591e+01
1	 7.892622e-01	 1.534889e+00	-2.232372e+01
1	 7.708361e-01	 1.544225e+00	-2.200066e+01
1	 7.523357e-01	 1.553323e+00	-2.162798e+01
1	 8.476722e-01	 1.511918e+00	-2.174472e+01
1	 8.294180e-01	 1.522009e+00	-2.162908e+01
1	 8.110756e-01	 1.531862e+00	-2.143855e+01
1	 7.926496e-01	 1.541477e+00	-2.118089e+01
1	 7.741444e-01	 1.550853e+00	-2.086404e+01
1	 7.555646e-01	 1.559989e+00	-2.049612e+01
1	 8.512948e-01	 1.518379e+00	-2.064167e+01
1	 8.329625e-01	 1.528513e+00	-2.052106e+01
1	 8.145418e-01	 1.538408e+00	-2.033058e+01
1	 7.960370e-01	 1.548064e+00	-2.007599e+01
1	 7.774527e-01	 1.557481e+00	-1.976319e+01
1	 7.587935e-01	 1.566656e+00	-1.939823e+01
1	 7.426490e-01	 1.533323e+00	-2.522904e+01
1	 7.243179e-01	 1.542067e+00	-2.476959e+01
1	 7.059223e-01	 1.550574e+00	-2.423505e+01
1	 6.874666e-01	 1.558844e+00	-2.364659e+01
1	 6.689554e-01	 1.566877e+00	-2.302553e+01
1	 6.503929e-01	 1.574673e+00	-2.239332e+01
1	 7.458779e-01	 1.539989e+00	-2.399428e+01
1	 7.274671e-01	 1.548771e+00	-2.354068e+01
1	 7.089915e-01	 1.557316e+00	-2.300642e+01
1	 6.904556e-01	 1.565622e+00	-2.241572e+01
1	 6.718639e-01	 1.573690e+00	-2.179301e+01
1	 6.532206e-01	 1.581520e+00	-2.116294e+01
1	 7.491068e-01	 1.546656e+00	-2.279398e+01
1	 7.306163e-01	 1.555476e+00	-2.234466e+01
1	 7.120607e-01	 1.564057e+00	-2.181101e+01
1	 6.934446e-01	 1.572400e+00	-2.121959e+01
1	 6.747724e-01	 1.580502e+00	-2.059726e+01
1	 6.560484e-01	 1.588366e+00	-1.997111e+01
1	 7.523357e-01	 1.553323e+00	-2.162798e+01
1	 7.337655e-01	 1.562181e+00	-2.118180e+01
1	 7.151300e-01	 1.570799e+00	-2.064929e+01
1	 6.964336e-01	 1.579177e+00	-2.005870e+01
1	 6.776809e-01	 1.587315e+00	-1.943864e+01
1	 6.588762e-01	 1.595212e+00	-1.881795e+01
1	 7.555646e-01	 1.559989e+00	-2.049612e+01
1	 7.369147e-01	 1.568885e+00	-2.005232e+01
1	 7.181992e-01	 1.577541e+00	-1.952170e+01
1	 6.994226e-01	 1.585955e+00	-1.893356e+01
1	 6.805894e-01	 1.594128e+00	-1.831752e+01
1	 6.617040e-01	 1.602059e+00	-1.770351e+01
1	 7.587935e-01	 1.566656e+00	-1.939823e+01
1	 7.400639e-01	 1.575590e+00	-1.895645e+01
1	 7.212684e-01	 1.584282e+00	-1.842870e+01
1	 7.024116e-01	 1.592732e+00	-1.784463e+01
1	 6.834979e-01	 1.600940e+00	-1.723427e+01
1	 6.645318e-01	 1.608905e+00	-1.662791e+01
1	 6.503929e-01	 1.574673e+00	-2.239332e+01
1	 6.317835e-01	 1.582231e+00	-2.178850e+01
1	 6.131316e-01	 1.589552e+00	-2.124185e+01
1	 5.944415e-01	 1.596636e+00	-2.076319e+01
1	 5.757176e-01	 1.603482e+00	-2.036224e+01
1	 5.569641e-01	 1.610092e+00	-2.004858e+01
1	 6.532206e-01	 1.581520e+00	-2.116294e+01
1	 6.345304e-01	 1.589111e+00	-2.056532e+01
1	 6.157974e-01	 1.596463e+00	-2.002920e+01
1	 5.970261e-01	 1.603578e+00	-1.956300e+01
1	 5.782208e-01	 1.610454e+00	-1.917503e+01
1	 5.593857e-01	 1.617093e+00	-1.887339e+01
1	 6.560484e-01	 1.588366e+00	-1.997111e+01
1	 6.372772e-01	 1.595990e+00	-1.938135e+01
1	 6.184632e-01	 1.603374e+00	-1.885509e+01
1	 5.996106e-01	 1.610519e+00	-1.839984e+01
1	 5.807239e-01	 1.617426e+00	-1.802292e+01
1	 5.618073e-01	 1.624093e+00	-1.773151e+01
1	 6.588762e-01	 1.595212e+00	-1.881795e+01
1	 6.400241e-01	 1.602869e+00	-1.823639e+01
1	 6.211290e-01	 1.610285e+00	-1.771916e+01
1	 6.021951e-01	 1.617461e+00	-1.727327e+01
1	 5.832270e-01	 1.624397e+00	-1.690558e+01
1	 5.642289e-01	 1.631094e+00	-1.662274e+01
1	 6.617040e-01	 1.602059e+00	-1.770351e+01
1	 6.427710e-01	 1.609748e+00	-1.713022e+01
1	 6.237948e-01	 1.617197e+00	-1.662102e+01
1	 6.047797e-01	 1.624403e+00	-1.618288e+01
1	 5.857301e-01	 1.631369e+00	-1.582264e+01
1	 5.666505e-01	 1.638094e+00	-1.554693e+01
1	 6.645318e-01	 1.608905e+00	-1.662791e+01
1	 6.455179e-01	 1.616628e+00	-1.606265e+01
1	 6.264605e-01	 1.624108e+00	-1.556031e+01
1	 6.073642e-01	 1.631345e+00	-1.512827e+01
1	 5.882332e-01	 1.638341e+00	-1.477378e+01
1	 5.690721e-01	 1.645094e+00	-1.450392e+01
1	 5.569641e-01	 1.610092e+00	-2.004858e+01
1	 5.381853e-01	 1.616466e+00	-1.984055e+01
1	 5.193854e-01	 1.622604e+00	-1.976467e+01
1	 5.005685e-01	 1.628508e+00	-1.984257e+01
1	 4.817388e-01	 1.634177e+00	-2.009568e+01
1	 4.629004e-01	 1.639613e+00	-2.054523e+01
1	 5.593857e-01	 1.617093e+00	-1.887339e+01
1	 5.405253e-01	 1.623494e+00	-1.867629e+01
1	 5.216436e-01	 1.629659e+00	-1.861127e+01
1	 5.027449e-01	 1.635588e+00	-1.870031e+01
1	 4.838333e-01	 1.641282e+00	-1.896524e+01
1	 4.649130e-01	 1.646741e+00	-1.942769e+01
1	 5.618073e-01	 1.624093e+00	-1.773151e+01
1	 5.428652e-01	 1.630522e+00	-1.754414e+01
1	 5.239018e-01	 1.636714e+00	-1.748942e+01
1	 5.049213e-01	 1.642669e+00	-1.758934e+01
1	 4.859278e-01	 1.648387e+00	-1.786575e+01
1	 4.669256e-01	 1.653870e+00	-1.834033e+01
1	 5.642289e-01	 1.631094e+00	-1.662274e+01
1	 5.452051e-01	 1.637551e+00	-1.644413e+01
1	 5.261600e-01	 1.643769e+00	-1.639924e+01
1	 5.070976e-01	 1.649749e+00	-1.650977e+01
1	 4.880223e-01	 1.655492e+00	-1.679725e+01
1	 4.689382e-01	 1.660999e+00	-1.728305e+01
1	 5.666505e-01	 1.638094e+00	-1.554693e+01
1	 5.475451e-01	 1.644579e+00	-1.537626e+01
1	 5.284182e-01	 1.650824e+00	-1.534085e+01
1	 5.092740e-01	 1.656830e+00	-1.546174e+01
1	 4.901169e-01	 1.662597e+00	-1.575981e+01
1	 4.709508e-01	 1.668128e+00	-1.625576e+01
1	 5.690721e-01	 1.645094e+00	-1.450392e+01
1	 5.498850e-01	 1.651607e+00	-1.434055e+01
1	 5.306764e-01	 1.657878e+00	-1.431435e+01
1	 5.114504e-01	 1.663910e+00	-1.444535e+01
1	 4.922114e-01	 1.669702e+00	-1.475346e+01
1	 4.729634e-01	 1.675256e+00	-1.525837e+01
1	 4.629004e-01	 1.639613e+00	-2.054523e+01
1	 4.440573e-01	 1.644816e+00	-2.121541e+01
1	 4.252136e-01	 1.649788e+00	-2.211213e+01
1	 4.063731e-01	 1.654529e+00	-2.322891e+01
1	 3.875399e-01	 1.659042e+00	-2.455904e+01
1	 3.687177e-01	 1.663326e+00	-2.609556e+01
1	 4.649130e-01	 1.646741e+00	-1.942769e+01
1	 4.459880e-01	 1.651967e+00	-2.011105e+01
1	 4.270623e-01	 1.656961e+00	-2.102086e+01
1	 4.081400e-01	 1.661723e+00	-2.215161e+01
1	 3.892248e-01	 1.666255e+00	-2.349750e+01
1	 3.703208e-01	 1.670558e+00	-2.505254e+01
1	 4.669256e-01	 1.653870e+00	-1.834033e+01
1	 4.479187e-01	 1.659119e+00	-1.903535e+01
1	 4.289111e-01	 1.664134e+00	-1.995594e+01
1	 4.099068e-01	 1.668917e+00	-2.109768e+01
1	 3.909098e-01	 1.673468e+00	-2.245587e+01
1	 3.719239e-01	 1.677790e+00	-2.402559e+01
1	 4.689382e-01	 1.660999e+00	-1.728305e+01
1	 4.498494e-01	 1.666270e+00	-1.798804e+01
1	 4.307598e-01	 1.671307e+00	-1.891701e+01
1	 4.116736e-01	 1.676110e+00	-2.006674e+01
1	 3.925948e-01	 1.680681e+00	-2.143377e+01
1	 3.735271e-01	 1.685022e+00	-2.301436e+01
1	 4.709508e-01	 1.668128e+00	-1.625576e+01
1	 4.517800e-01	 1.673421e+00	-1.696889e+01
1	 4.326086e-01	 1.678480e+00	-1.790372e+01
1	 4.134405e-01	 1.683304e+00	-1.905839e+01
1	 3.942797e-01	 1.687895e+00	-2.043079e+01
1	 3.751302e-01	 1.692253e+00	-2.201853e+01
1	 4.729634e-01	 1.675256e+00	-1.525837e+01
1	 4.537107e-01	 1.680573e+00	-1.597766e+01
1	 4.344573e-01	 1.685653e+00	-1.691574e+01
1	 4.152073e-01	 1.690497e+00	-1.807226e+01
1	 3.959647e-01	 1.695108e+00	-1.944658e+01
1	 3.767333e-01	 1.699485e+00	-2.103779e+01
1	 3.687177e-01	 1.663326e+00	-2.609556e+01
1	 3.499104e-01	 1.667384e+00	-2.786351e+01
1	 3.311216e-01	 1.671217e+00	-2.985846e+01
1	 3.123552e-01	 1.674826e+00	-3.202924e+01
1	 2.936146e-01	 1.678212e+00	-3.432492e+01
1	 2.749036e-01	 1.681379e+00	-3.669494e+01
1	 3.703208e-01	 1.670558e+00	-2.505254e+01
1	 3.514317e-01	 1.674633e+00	-2.684149e+01
1	 3.325613e-01	 1.678483e+00	-2.885886e+01
1	 3.137133e-01	 1.682107e+00	-3.105326e+01
1	 2.948912e-01	 1.685509e+00	-3.337356e+01
1	 2.760988e-01	 1.688689e+00	-3.576897e+01
1	 3.719239e-01	 1.677790e+00	-2.402559e+01
1	 3.529531e-01	 1.681883e+00	-2.583146e+01
1	 3.340010e-01	 1.685749e+00	-2.786705e+01
1	 3.150713e-01	 1.689389e+00	-3.008074e+01
1	 2.961678e-01	 1.692806e+00	-3.242120e+01
1	 2.772940e-01	 1.695999e+00	-3.483744e+01
1	 3.735271e-01	 1.685022e+00	-2.301436e+01
1	 3.544744e-01	 1.689132e+00	-2.483317e+01
1	 3.354406e-01	 1.693015e+00	-2.688280e+01
1	 3.164294e-01	 1.696671e+00	-2.911147e+01
1	 2.974444e-01	 1.700102e+00	-3.146763e+01
1	 2.784893e-01	 1.703310e+00	-3.390010e+01
1	 3.751302e-01	 1.692253e+00	-2.201853e+01
1	 3.559958e-01	 1.696382e+00	-2.384634e+01
1	 3.368803e-01	 1.700281e+00	-2.590591e+01
1	 3.177874e-01	 1.703953e+00	-2.814524e+01
1	 2.987210e-01	 1.707399e+00	-3.051263e+01
1	 2.796845e-01	 1.710620e+00	-3.295672e+01
1	 3.767333e-01	 1.699485e+00	-2.103779e+01
1	 3.575171e-01	 1.703631e+00	-2.287074e+01
1	 3.383199e-01	 1.707547e+00	-2.493615e+01
1	 3.191455e-01	 1.711235e+00	-2.718187e+01
1	 2.999976e-01	 1.714695e+00	-2.955602e+01
1	 2.808797e-01	 1.717930e+00	-3.200705e+01
1	 2.749036e-01	 1.681379e+00	-3.669494e+01
1	 2.562255e-01	 1.684326e+00	-3.908557e+01
1	 2.375838e-01	 1.687057e+00	-4.145598e+01
1	 2.189819e-01	 1.689572e+00	-4.377552e+01
1	 2.004231e-01	 1.691874e+00	-4.601396e+01
1	 1.819107e-01	 1.693964e+00	-4.814150e+01
1	 2.760988e-01	 1.688689e+00	-3.576897e+01
1	 2.573395e-01	 1.691649e+00	-3.818578e+01
1	 2.386168e-01	 1.694392e+00	-4.058295e+01
1	 2.199340e-01	 1.696918e+00	-4.292934e+01
1	 2.012945e-01	 1.699230e+00	-4.519421e+01
1	 1.827016e-01	 1.701329e+00	-4.734724e+01
1	 2.772940e-01	 1.695999e+00	-3.483744e+01
1	 2.584535e-01	 1.698973e+00	-3.727571e+01
1	 2.396497e-01	 1.701727e+00	-3.969481e+01
1	 2.208861e-01	 1.704264e+00	-4.206318e+01
1	 2.021659e-01	 1.706586e+00	-4.434965e+01
1	 1.834925e-01	 1.708694e+00	-4.652352e+01
1	 2.784893e-01	 1.703310e+00	-3.390010e+01
1	 2.595675e-01	 1.706296e+00	-3.635509e+01
1	 2.406827e-01	 1.709062e+00	-3.879126e+01
1	 2.218382e-01	 1.711610e+00	-4.117674e+01
1	 2.030373e-01	 1.713942e+00	-4.348004e+01
1	 1.842834e-01	 1.716059e+00	-4.567014e+01
1	 2.796845e-01	 1.710620e+00	-3.295672e+01
1	 2.606816e-01	 1.713619e+00	-3.542365e+01
1	 2.417157e-01	 1.716397e+00	-3.787203e+01
1	 2.227903e-01	 1.718956e+00	-4.026975e+01
1	 2.039088e-01	 1.721298e+00	-4.258513e+01
1	 1.850744e-01	 1.723424e+00	-4.478691e+01
1	 2.808797e-01	 1.717930e+00	-3.200705e+01
1	 2.617956e-01	 1.720942e+00	-3.448111e+01
1	 2.427487e-01	 1.723732e+00	-3.693683e+01
1	 2.237424e-01	 1.726302e+00	-3.934196e+01
1	 2.047802e-01	 1.728654e+00	-4.166469e+01
1	 1.858653e-01	 1.730790e+00	-4.387365e+01
1	 1.819107e-01	 1.693964e+00	-4.814150e+01
1	 1.634478e-01	 1.695845e+00	-5.012328e+01
1	 1.450375e-01	 1.697519e+00	-5.191914e+01
1	 1.266829e-01	 1.698987e+00	-5.349222e+01
1	 1.083869e-01	 1.700253e+00	-5.480637e+01
1	 9.015252e-02	 1.701317e+00	-5.582625e+01
1	 1.827016e-01	 1.701329e+00	-4.734724e+01
1	 1.641584e-01	 1.703218e+00	-4.935311e+01
1	 1.456681e-01	 1.704899e+00	-5.117164e+01
1	 1.272337e-01	 1.706374e+00	-5.276609e+01
1	 1.088582e-01	 1.707645e+00	-5.410052e+01
1	 9.054449e-02	 1.708714e+00	-5.513972e+01
1	 1.834925e-01	 1.708694e+00	-4.652352e+01
1	 1.648691e-01	 1.710592e+00	-4.854913e+01
1	 1.462987e-01	 1.712280e+00	-5.038635e+01
1	 1.277845e-01	 1.713761e+00	-5.199867e+01
1	 1.093294e-01	 1.715037e+00	-5.335032e+01
1	 9.093646e-02	 1.716111e+00	-5.440631e+01
1	 1.842834e-01	 1.716059e+00	-4.567014e+01
1	 1.655797e-01	 1.717965e+00	-4.771117e+01
1	 1.469293e-01	 1.719660e+00	-4.956317e+01
1	 1.283353e-01	 1.721148e+00	-5.118985e+01
1	 1.098007e-01	 1.722430e+00	-5.255568e+01
1	 9.132843e-02	 1.723508e+00	-5.362591e+01
1	 1.850744e-01	 1.723424e+00	-4.478691e+01
1	 1.662904e-01	 1.725338e+00	-4.683911e+01
1	 1.475599e-01	 1.727041e+00	-4.870199e+01
1	 1.288861e-01	 1.728535e+00	-5.033953e+01
1	 1.102719e-01	 1.729822e+00	-5.171649e+01
1	 9.172039e-02	 1.730905e+00	-5.279838e+01
1	 1.858653e-01	 1.730790e+00	-4.387365e+01
1	 1.670010e-01	 1.732711e+00	-4.593281e+01
1	 1.481905e-01	 1.734421e+00	-4.780270e+01
1	 1.294369e-01	 1.735922e+00	-4.944763e+01
1	 1.107432e-01	 1.737215e+00	-5.083266e+01
1	 9.211236e-02	 1.738302e+00	-5.192361e+01
1	 9.015252e-02	 1.701317e+00	-5.582625e+01
1	 7.198247e-02	 1.702182e+00	-5.651891e+01
1	 5.387954e-02	 1.702852e+00	-5.685610e+01
1	 3.584642e-02	 1.703327e+00	-5.681067e+01
1	 1.788573e-02	 1.703610e+00	-5.635631e+01
1	 0.000000e+00	 1.703704e+00	-5.546753e+01
1	 9.054449e-02	 1.708714e+00	-5.513972e+01
1	 7.229544e-02	 1.709583e+00	-5.585075e+01
1	 5.411380e-02	 1.710255e+00	-5.620483e+01
1	 3.600227e-02	 1.710732e+00	-5.617428e+01
1	 1.796349e-02	 1.711017e+00	-5.573224e+01
1	 0.000000e+00	 1.711111e+00	-5.485269e+01
1	 9.093646e-02	 1.716111e+00	-5.440631e+01
1	 7.260840e-02	 1.716984e+00	-5.513370e+01
1	 5.434806e-02	 1.717659e+00	-5.550329e+01
1	 3.615813e-02	 1.718138e+00	-5.548698e+01
1	 1.804125e-02	 1.718424e+00	-5.505751e+01
1	 0.000000e+00	 1.718519e+00	-5.418845e+01
1	 9.132843e-02	 1.723508e+00	-5.362591e+01
1	 7.292137e-02	 1.724385e+00	-5.436762e+01
1	 5.458232e-02	 1.725063e+00	-5.475132e+01
1	 3.631398e-02	 1.725544e+00	-5.474861e+01
1	 1.811902e-02	 1.725831e+00	-5.433195e+01
1	 0.000000e+00	 1.725926e+00	-5.347463e+01
1	 9.172039e-02	 1.730905e+00	-5.279838e+01
1	 7.323434e-02	 1.731786e+00	-5.355237e+01
1	 5.481657e-02	 1.732466e+00	-5.394875e+01
1	 3.646984e-02	 1.732950e+00	-5.395899e+01
1	 1.819678e-02	 1.733238e+00	-5.355539e+01
1	 0.000000e+00	 1.733333e+00	-5.271110e+01
1	 9.211236e-02	 1.738302e+00	-5.192361e+01
1	 7.354730e-02	 1.739186e+00	-5.268780e+01
1	 5.505083e-02	 1.739870e+00	-5.309544e+01
1	 3.662569e-02	 1.740355e+00	-5.311797e+01
1	 1.827455e-02	 1.740645e+00	-5.272767e+01
1	 0.000000e+00	 1.740741e+00	-5.189769e+01
1	 1.740741e+00	 0.000000e+00	 1.178593e+01
1	 1.740645e+00	 1.827455e-02	 1.165786e+01
1	 1.740355e+00	 3.662569e-02	 1.146411e+01
1	 1.739870e+00	 5.505083e-02	 1.121038e+01
1	 1.739186e+00	 7.354730e-02	 1.090245e+01
1	 1.738302e+00	 9.211236e-02	 1.054619e+01
1	 1.748148e+00	 0.000000e+00	 1.150595e+01
1	 1.748052e+00	 1.835231e-02	 1.138625e+01
1	 1.747761e+00	 3.678154e-02	 1.120069e+01
1	 1.747274e+00	 5.528509e-02	 1.095495e+01
1	 1.746587e+00	 7.386027e-02	 1.065481e+01
1	 1.745699e+00	 9.250433e-02	 1.030614e+01
1	 1.755556e+00	 0.000000e+00	 1.121994e+01
1	 1.755459e+00	 1.843007e-02	 1.110845e+01
1	 1.755167e+00	 3.693740e-02	 1.093104e+01
1	 1.754677e+00	 5.551935e-02	 1.069342e+01
1	 1.753988e+00	 7.417324e-02	 1.040133e+01
1	 1.753096e+00	 9.289630e-02	 1.006066e+01
1	 1.762963e+00	 0.000000e+00	 1.092788e+01
1	 1.762866e+00	 1.850784e-02	 1.082443e+01
1	 1.762573e+00	 3.709325e-02	 1.065516e+01
1	 1.762081e+00	 5.575361e-02	 1.042575e+01
1	 1.761389e+00	 7.448621e-02	 1.014196e+01
1	 1.760493e+00	 9.328826e-02	 9.809664e+00
1	 1.770370e+00	 0.000000e+00	 1.062976e+01
1	 1.770273e+00	 1.858560e-02	 1.053420e+01
1	 1.769978e+00	 3.724911e-02	 1.037302e+01
1	 1.769485e+00	 5.598787e-02	 1.015191e+01
1	 1.768790e+00	 7.479917e-02	 9.876631e+00
1	 1.767890e+00	 9.368023e-02	 9.553040e+00
1	 1.777778e+00	 0.000000e+00	 1.032554e+01
1	 1.777680e+00	 1.866337e-02	 1.023771e+01
1	 1.777384e+00	 3.740496e-02	 1.008459e+01
1	 1.776889e+00	 5.622213e-02	 9.871855e+00
1	 1.776190e+00	 7.511214e-02	 9.605271e+00
1	 1.775287e+00	 9.407220e-02	 9.290689e+00
1	 1.738302e+00	 9.211236e-02	 1.054619e+01
1	 1.737215e+00	 1.107432e-01	 1.014442e+01
1	 1.735922e+00	 1.294369e-01	 9.700353e+00
1	 1.734421e+00	 1.481905e-01	 9.220570e+00
1	 1.732711e+00	 1.670010e-01	 8.711713e+00
1	 1.730790e+00	 1.858653e-01	 8.180481e+00
1	 1.745699e+00	 9.250433e-02	 1.030614e+01
1	 1.744607e+00	 1.112144e-01	 9.911757e+00
1	 1.743309e+00	 1.299877e-01	 9.474856e+00
1	 1.741802e+00	 1.488211e-01	 9.001943e+00
1	 1.740085e+00	 1.677116e-01	 8.499597e+00
1	 1.738155e+00	 1.866562e-01	 7.974447e+00
1	 1.753096e+00	 9.289630e-02	 1.006066e+01
1	 1.751999e+00	 1.116857e-01	 9.674222e+00
1	 1.750696e+00	 1.305385e-01	 9.245139e+00
1	 1.749183e+00	 1.494517e-01	 8.779838e+00
1	 1.747458e+00	 1.684223e-01	 8.284809e+00
1	 1.745520e+00	 1.874471e-01	 7.766590e+00
1	 1.760493e+00	 9.328826e-02	 9.809664e+00
1	 1.759392e+00	 1.121569e-01	 9.431669e+00
1	 1.758082e+00	 1.310893e-01	 9.011029e+00
1	 1.756563e+00	 1.500823e-01	 8.554060e+00
1	 1.754831e+00	 1.691329e-01	 8.067141e+00
1	 1.752885e+00	 1.882380e-01	 7.556701e+00
1	 1.767890e+00	 9.368023e-02	 9.553040e+00
1	 1.766784e+00	 1.126282e-01	 9.183958e+00
1	 1.765469e+00	 1.316401e-01	 8.772356e+00
1	 1.763944e+00	 1.507129e-01	 8.324417e+00
1	 1.762204e+00	 1.698436e-01	 7.846389e+00
1	 1.760250e+00	 1.890289e-01	 7.344571e+00
1	 1.775287e+00	 9.407220e-02	 9.290689e+00
1	 1.774177e+00	 1.130994e-01	 8.930951e+00
1	 1.772856e+00	 1.321909e-01	 8.528951e+00
1	 1.771324e+00	 1.513435e-01	 8.090720e+00
1	 1.769578e+00	 1.705542e-01	 7.622353e+00
1	 1.767615e+00	 1.898199e-01	 7.129998e+00
1	 1.730790e+00	 1.858653e-01	 8.180481e+00
1	 1.728654e+00	 2.047802e-01	 7.635216e+00
1	 1.726302e+00	 2.237424e-01	 7.083557e+00
1	 1.723732e+00	 2.427487e-01	 6.531176e+00
1	 1.720942e+00	 2.617956e-01	 5.983726e+00
1	 1.717930e+00	 2.808797e-01	 5.446831e+00
1	 1.738155e+00	 1.866562e-01	 7.974447e+00
1	 1.736010e+00	 2.056516e-01	 7.434732e+00
1	 1.733648e+00	 2.246945e-01	 6.888052e+00
1	 1.731067e+00	 2.437816e-01	 6.340103e+00
1	 1.728265e+00	 2.629096e-01	 5.796567e+00
1	 1.725241e+00	 2.820750e-01	 5.263101e+00
1	 1.745520e+00	 1.874471e-01	 7.766590e+00
1	 1.743366e+00	 2.065230e-01	 7.233313e+00
1	 1.740994e+00	 2.256466e-01	 6.692537e+00
1	 1.738402e+00	 2.448146e-01	 6.149976e+00
1	 1.735588e+00	 2.640236e-01	 5.611332e+00
1	 1.732551e+00	 2.832702e-01	 5.082281e+00
1	 1.752885e+00	 1.882380e-01	 7.556701e+00
1	 1.750722e+00	 2.073944e-01	 7.030748e+00
1	 1.748340e+00	 2.265987e-01	 6.496799e+00
1	 1.745737e+00	 2.458476e-01	 5.960574e+00
1	 1.742911e+00	 2.651377e-01	 5.427787e+00
1	 1.739861e+00	 2.844654e-01	 4.904126e+00
1	 1.760250e+00	 1.890289e-01	 7.344571e+00
1	 1.758078e+00	 2.082658e-01	 6.826830e+00
1	 1.755686e+00	 2.275508e-01	 6.300625e+00
1	 1.753072e+00	 2.468806e-01	 5.771679e+00
1	 1.750235e+00	 2.662517e-01	 5.245704e+00
1	 1.747172e+00	 2.856607e-01	 4.728393e+00
1	 1.767615e+00	 1.898199e-01	 7.129998e+00
1	 1.765434e+00	 2.091372e-01	 6.621354e+00
1	 1.763032e+00	 2.285029e-01	 6.103809e+00
1	 1.760407e+00	 2.479135e-01	 5.583075e+00
1	 1.757558e+00	 2.673657e-01	 5.064857e+00
1	 1.754482e+00	 2.868559e-01	 4.554842e+00
1	 1.717930e+00	 2.808797e-01	 5.446831e+00
1	 1.714695e+00	 2.999976e-01	 4.928565e+00
1	 1.711235e+00	 3.191455e-01	 4.439032e+00
1	 1.707547e+00	 3.383199e-01	 3.986829e+00
1	 1.703631e+00	 3.575171e-01	 3.580495e+00
1	 1.699485e+00	 3.767333e-01	 3.228486e+00
1	 1.725241e+00	 2.820750e-01	 5.263101e+00
1	 1.721992e+00	 3.012742e-01	 4.747728e+00
1	 1.718517e+00	 3.205036e-01	 4.260506e+00
1	 1.714814e+00	 3.397596e-01	 3.810065e+00
1	 1.710881e+00	 3.590385e-01	 3.404978e+00
1	 1.706717e+00	 3.783364e-01	 3.053733e+00
1	 1.732551e+00	 2.832702e-01	 5.082281e+00
1	 1.729288e+00	 3.025507e-01	 4.570773e+00
1	 1.725798e+00	 3.218616e-01	 4.086776e+00
1	 1.722080e+00	 3.411993e-01	 3.638930e+00
1	 1.718130e+00	 3.605598e-01	 3.235816e+00
1	 1.713949e+00	 3.799395e-01	 2.885930e+00
1	 1.739861e+00	 2.844654e-01	 4.904126e+00
1	 1.736585e+00	 3.038273e-01	 4.397442e+00
1	 1.733080e+00	 3.232197e-01	 3.917581e+00
1	 1.729346e+00	 3.426389e-01	 3.473169e+00
1	 1.725380e+00	 3.620812e-01	 3.072770e+00
1	 1.721181e+00	 3.815427e-01	 2.724863e+00
1	 1.747172e+00	 2.856607e-01	 4.728393e+00
1	 1.743882e+00	 3.051039e-01	 4.227479e+00
1	 1.740362e+00	 3.245778e-01	 3.752664e+00
1	 1.736612e+00	 3.440786e-01	 3.312532e+00
1	 1.732629e+00	 3.636025e-01	 2.915605e+00
1	 1.728413e+00	 3.831458e-01	 2.570323e+00
1	 1.754482e+00	 2.868559e-01	 4.554842e+00
1	 1.751178e+00	 3.063805e-01	 4.060637e+00
1	 1.747644e+00	 3.259358e-01	 3.591774e+00
1	 1.743878e+00	 3.455182e-01	 3.156773e+00
1	 1.739879e+00	 3.651239e-01	 2.764089e+00
1	 1.735645e+00	 3.847489e-01	 2.422101e+00
1	 1.699485e+00	 3.767333e-01	 3.228486e+00
1	 1.695108e+00	 3.959647e-01	 2.927250e+00
1	 1.690497e+00	 4.152073e-01	 2.667105e+00
1	 1.685653e+00	 4.344573e-01	 2.447142e+00
1	 1.680573e+00	 4.537107e-01	 2.266312e+00
1	 1.675256e+00	 4.729634e-01	 2.123423e+00
1	 1.706717e+00	 3.783364e-01	 3.053733e+00
1	 1.702321e+00	 3.976496e-01	 2.753119e+00
1	 1.697691e+00	 4.169742e-01	 2.493625e+00
1	 1.692826e+00	 4.363061e-01	 2.274121e+00
1	 1.687724e+00	 4.556414e-01	 2.093340e+00
1	 1.682385e+00	 4.749760e-01	 1.949882e+00
1	 1.713949e+00	 3.799395e-01	 2.885930e+00
1	 1.709534e+00	 3.993346e-01	 2.586425e+00
1	 1.704885e+00	 4.187410e-01	 2.328016e+00
1	 1.699999e+00	 4.381548e-01	 2.109373e+00
1	 1.694876e+00	 4.575721e-01	 1.929036e+00
1	 1.689514e+00	 4.769886e-01	 1.785416e+00
1	 1.721181e+00	 3.815427e-01	 2.724863e+00
1	 1.716747e+00	 4.010195e-01	 2.426979e+00
1	 1.712078e+00	 4.205078e-01	 2.170099e+00
1	 1.707172e+00	 4.400036e-01	 1.952720e+00
1	 1.702027e+00	 4.595028e-01	 1.773209e+00
1	 1.696643e+00	 4.790013e-01	 1.629810e+00
1	 1.728413e+00	 3.831458e-01	 2.570323e+00
1	 1.723961e+00	 4.027045e-01	 2.274593e+00
1	 1.719272e+00	 4.222747e-01	 2.019701e+00
1	 1.714345e+00	 4.418524e-01	 1.803988e+00
1	 1.709178e+00	 4.614335e-01	 1.625673e+00
1	 1.703771e+00	 4.810139e-01	 1.482852e+00
1	 1.735645e+00	 3.847489e-01	 2.422101e+00
1	 1.731174e+00	 4.043894e-01	 2.129086e+00
1	 1.726465e+00	 4.240415e-01	 1.876650e+00
1	 1.721518e+00	 4.437011e-01	 1.663006e+00
1	 1.716330e+00	 4.633641e-01	 1.486244e+00
1	 1.710900e+00	 4.830265e-01	 1.344335e+00
1	 1.675256e+00	 4.729634e-01	 2.123423e+00
1	 1.669702e+00	 4.922114e-01	 2.015662e+00
1	 1.663910e+00	 5.114504e-01	 1.938169e+00
1	 1.657878e+00	 5.306764e-01	 1.886554e+00
1	 1.651607e+00	 5.498850e-01	 1.856409e+00
1	 1.645094e+00	 5.690721e-01	 1.843314e+00
1	 1.682385e+00	 4.749760e-01	 1.949882e+00
1	 1.676808e+00	 4.943059e-01	 1.841327e+00
1	 1.670991e+00	 5.136268e-01	 1.763456e+00
1	 1.664933e+00	 5.329346e-01	 1.712037e+00
1	 1.658635e+00	 5.522249e-01	 1.682808e+00
1	 1.652095e+00	 5.714936e-01	 1.671484e+00
1	 1.689514e+00	 4.769886e-01	 1.785416e+00
1	 1.683913e+00	 4.964004e-01	 1.676416e+00
1	 1.678071e+00	 5.158032e-01	 1.598375e+00
1	 1.671988e+00	 5.351928e-01	 1.547220e+00
1	 1.665663e+00	 5.545649e-01	 1.518839e+00
1	 1.659095e+00	 5.739152e-01	 1.509087e+00
1	 1.696643e+00	 4.790013e-01	 1.629810e+00
1	 1.691018e+00	 4.984949e-01	 1.520692e+00
1	 1.685152e+00	 5.179796e-01	 1.442679e+00
1	 1.679043e+00	 5.374510e-01	 1.391862e+00
1	 1.672691e+00	 5.569048e-01	 1.364283e+00
1	 1.666096e+00	 5.763368e-01	 1.355942e+00
1	 1.703771e+00	 4.810139e-01	 1.482852e+00
1	 1.698123e+00	 5.005894e-01	 1.373918e+00
1	 1.692232e+00	 5.201559e-01	 1.296123e+00
1	 1.686098e+00	 5.397092e-01	 1.245726e+00
1	 1.679719e+00	 5.592447e-01	 1.218926e+00
1	 1.673096e+00	 5.787584e-01	 1.211873e+00
1	 1.710900e+00	 4.830265e-01	 1.344335e+00
1	 1.705228e+00	 5.026840e-01	 1.235862e+00
1	 1.699312e+00	 5.223323e-01	 1.158470e+00
1	 1.693152e+00	 5.419673e-01	 1.108580e+00
1	 1.686747e+00	 5.615847e-01	 1.082555e+00
1	 1.680096e+00	 5.811800e-01	 1.076704e+00
1	 1.645094e+00	 5.690721e-01	 1.843314e+00
1	 1.638341e+00	 5.882332e-01	 1.837317e+00
1	 1.631345e+00	 6.073642e-01	 1.830193e+00
1	 1.624108e+00	 6.264605e-01	 1.820107e+00
1	 1.616628e+00	 6.455179e-01	 1.805216e+00
1	 1.608905e+00	 6.645318e-01	 1.783669e+00
1	 1.652095e+00	 5.714936e-01	 1.671484e+00
1	 1.645312e+00	 5.907364e-01	 1.668037e+00
1	 1.638287e+00	 6.099487e-01	 1.664055e+00
1	 1.631019e+00	 6.291263e-01	 1.657665e+00
1	 1.623507e+00	 6.482648e-01	 1.646996e+00
1	 1.615752e+00	 6.673596e-01	 1.630185e+00
1	 1.659095e+00	 5.739152e-01	 1.509087e+00
1	 1.652284e+00	 5.932395e-01	 1.507969e+00
1	 1.645229e+00	 6.125332e-01	 1.506979e+00
1	 1.637930e+00	 6.317921e-01	 1.504189e+00
1	 1.630386e+00	 6.510117e-01	 1.497690e+00
1	 1.622598e+00	 6.701874e-01	 1.485586e+00
1	 1.666096e+00	 5.763368e-01	 1.355942e+00
1	 1.659256e+00	 5.957426e-01	 1.356969e+00
1	 1.652171e+00	 6.151178e-01	 1.358840e+00
1	 1.644841e+00	 6.344579e-01	 1.359562e+00
1	 1.637265e+00	 6.537586e-01	 1.357166e+00
1	 1.629444e+00	 6.730152e-01	 1.349710e+00
1	 1.673096e+00	 5.787584e-01	 1.211873e+00
1	 1.666227e+00	 5.982457e-01	 1.214897e+00
1	 1.659113e+00	 6.177023e-01	 1.219518e+00
1	 1.651752e+00	 6.371237e-01	 1.223666e+00
1	 1.644145e+00	 6.565054e-01	 1.225296e+00
1	 1.636291e+00	 6.758430e-01	 1.222401e+00
1	 1.680096e+00	 5.811800e-01	 1.076704e+00
1	 1.673199e+00	 6.007488e-01	 1.081614e+00
1	 1.666055e+00	 6.202868e-01	 1.088896e+00
1	 1.658663e+00	 6.397895e-01	 1.096387e+00
1	 1.651024e+00	 6.592523e-01	 1.101954e+00
1	 1.643137e+00	 6.786708e-01	 1.103506e+00
1	 1.608905e+00	 6.645318e-01	 1.783669e+00
1	 1.600940e+00	 6.834979e-01	 1.738523e+00
1	 1.592732e+00	 7.024116e-01	 1.651997e+00
1	 1.584282e+00	 7.212684e-01	 1.521225e+00
1	 1.575590e+00	 7.400639e-01	 1.343686e+00
1	 1.566656e+00	 7.587935e-01	 1.117218e+00
1	 1.615752e+00	 6.673596e-01	 1.630185e+00
1	 1.607753e+00	 6.864064e-01	 1.591453e+00
1	 1.599510e+00	 7.054006e-01	 1.514095e+00
1	 1.591024e+00	 7.243376e-01	 1.395114e+00
1	 1.582295e+00	 7.432131e-01	 1.231837e+00
1	 1.573323e+00	 7.620224e-01	 1.021933e+00
1	 1.622598e+00	 6.701874e-01	 1.485586e+00
1	 1.614565e+00	 6.893149e-01	 1.453139e+00
1	 1.606288e+00	 7.083895e-01	 1.384646e+00
1	 1.597765e+00	 7.274069e-01	 1.277013e+00
1	 1.588999e+00	 7.463623e-01	 1.127456e+00
1	 1.579989e+00	 7.652513e-01	 9.335175e-01
1	 1.629444e+00	 6.730152e-01	 1.349710e+00
1	 1.621378e+00	 6.922234e-01	 1.323388e+00
1	 1.613065e+00	 7.113785e-01	 1.263427e+00
1	 1.604507e+00	 7.304761e-01	 1.166674e+00
1	 1.595704e+00	 7.495115e-01	 1.030275e+00
1	 1.586656e+00	 7.684802e-01	 8.516840e-01
1	 1.636291e+00	 6.758430e-01	 1.222401e+00
1	 1.628190e+00	 6.951319e-01	 1.202010e+00
1	 1.619843e+00	 7.143675e-01	 1.150218e+00
1	 1.611249e+00	 7.335453e-01	 1.063854e+00
1	 1.602409e+00	 7.526607e-01	 9.400297e-01
1	 1.593322e+00	 7.717091e-01	 7.761505e-01
1	 1.643137e+00	 6.786708e-01	 1.103506e+00
1	 1.635003e+00	 6.980404e-01	 1.088818e+00
1	 1.626620e+00	 7.173565e-01	 1.044805e+00
1	 1.617990e+00	 7.366145e-01	 9.683133e-01
1	 1.609113e+00	 7.558099e-01	 8.564591e-01
1	 1.599989e+00	 7.749380e-01	 7.066394e-01
1	 1.566656e+00	 7.587935e-01	 1.117218e+00
1	 1.557481e+00	 7.774527e-01	 8.443035e-01
1	 1.548064e+00	 7.960370e-01	 5.299260e-01
1	 1.538408e+00	 8.145418e-01	 1.761148e-01
1	 1.528513e+00	 8.329625e-01	-2.148817e-01
1	 1.518379e+00	 8.512948e-01	-6.405963e-01
1	 1.573323e+00	 7.620224e-01	 1.021933e+00
1	 1.564108e+00	 7.807610e-01	 7.671336e-01
1	 1.554652e+00	 7.994244e-01	 4.719277e-01
1	 1.544955e+00	 8.180079e-01	 1.385487e-01
1	 1.535017e+00	 8.365071e-01	-2.305519e-01
1	 1.524840e+00	 8.549173e-01	-6.327062e-01
1	 1.579989e+00	 7.652513e-01	 9.335175e-01
1	 1.570736e+00	 7.840693e-01	 6.962473e-01
1	 1.561239e+00	 8.028118e-01	 4.196450e-01
1	 1.551501e+00	 8.214740e-01	 1.060884e-01
1	 1.541522e+00	 8.400516e-01	-2.418276e-01
1	 1.531302e+00	 8.585398e-01	-6.212925e-01
1	 1.586656e+00	 7.684802e-01	 8.516840e-01
1	 1.577363e+00	 7.873776e-01	 6.313442e-01
1	 1.567827e+00	 8.061991e-01	 3.727716e-01
1	 1.558048e+00	 8.249402e-01	 7.842945e-02
1	 1.548026e+00	 8.435961e-01	-2.490023e-01
1	 1.537763e+00	 8.621624e-01	-6.066290e-01
1	 1.593322e+00	 7.717091e-01	 7.761505e-01
1	 1.583991e+00	 7.906859e-01	 5.721290e-01
1	 1.574414e+00	 8.095865e-01	 3.310064e-01
1	 1.564594e+00	 8.284063e-01	 5.527257e-02
1	 1.554530e+00	 8.471406e-01	-2.523652e-01
1	 1.544224e+00	 8.657849e-01	-5.889847e-01
1	 1.599989e+00	 7.749380e-01	 7.066394e-01
1	 1.590618e+00	 7.939943e-01	 5.183114e-01
1	 1.581002e+00	 8.129739e-01	 2.940530e-01
1	 1.571140e+00	 8.318724e-01	 3.632339e-02
1	 1.561034e+00	 8.506851e-01	-2.522001e-01
1	 1.550685e+00	 8.694074e-01	-5.686243e-01
1	 1.518379e+00	 8.512948e-01	-6.405963e-01
1	 1.508008e+00	 8.695339e-01	-1.103814e+00
1	 1.497401e+00	 8.876755e-01	-1.608252e+00
1	 1.486559e+00	 9.057150e-01	-2.152530e+00
1	 1.475484e+00	 9.236480e-01	-2.735068e+00
1	 1.464176e+00	 9.414699e-01	-3.354087e+00
1	 1.524840e+00	 8.549173e-01	-6.327062e-01
1	 1.514425e+00	 8.732341e-01	-1.070621e+00
1	 1.503773e+00	 8.914529e-01	-1.548116e+00
1	 1.492885e+00	 9.095691e-01	-2.063900e+00
1	 1.481763e+00	 9.275784e-01	-2.616505e+00
1	 1.470407e+00	 9.454762e-01	-3.204284e+00
1	 1.531302e+00	 8.585398e-01	-6.212925e-01
1	 1.520842e+00	 8.769342e-01	-1.035027e+00
1	 1.510145e+00	 8.952302e-01	-1.486950e+00
1	 1.499211e+00	 9.134233e-01	-1.975768e+00
1	 1.488041e+00	 9.315088e-01	-2.500032e+00
1	 1.476638e+00	 9.494825e-01	-3.058128e+00
1	 1.537763e+00	 8.621624e-01	-6.066290e-01
1	 1.527259e+00	 8.806344e-01	-9.972683e-01
1	 1.516517e+00	 8.990076e-01	-1.424926e+00
1	 1.505537e+00	 9.172774e-01	-1.888220e+00
1	 1.494320e+00	 9.354392e-01	-2.385623e+00
1	 1.482868e+00	 9.534887e-01	-2.915464e+00
1	 1.544224e+00	 8.657849e-01	-5.889847e-01
1	 1.533677e+00	 8.843345e-01	-9.575766e-01
1	 1.522889e+00	 9.027849e-01	-1.362214e+00
1	 1.511862e+00	 9.211315e-01	-1.801338e+00
1	 1.500599e+00	 9.393697e-01	-2.273255e+00
1	 1.489099e+00	 9.574950e-01	-2.776138e+00
1	 1.550685e+00	 8.694074e-01	-5.686243e-01
1	 1.540094e+00	 8.880347e-01	-9.161797e-01
1	 1.529261e+00	 9.065622e-01	-1.298982e+00
1	 1.518188e+00	 9.249856e-01	-1.715207e+00
1	 1.506877e+00	 9.433001e-01	-2.162906e+00
1	 1.495329e+00	 9.615012e-01	-2.639999e+00
1	 1.464176e+00	 9.414699e-01	-3.354087e+00
1	 1.452639e+00	 9.591764e-01	-3.984382e+00
1	 1.440872e+00	 9.767631e-01	-4.601927e+00
1	 1.428879e+00	 9.942255e-01	-5.206720e+00
1	 1.416660e+00	 1.011559e+00	-5.798969e+00
1	 1.404219e+00	 1.028760e+00	-6.379091e+00
1	 1.470407e+00	 9.454762e-01	-3.204284e+00
1	 1.458820e+00	 9.632580e-01	-3.803292e+00
1	 1.447003e+00	 9.809195e-01	-4.390476e+00
1	 1.434959e+00	 9.984563e-01	-4.965496e+00
1	 1.422688e+00	 1.015864e+00	-5.528152e+00
1	 1.410194e+00	 1.033138e+00	-6.078382e+00
1	 1.476638e+00	 9.494825e-01	-3.058128e+00
1	 1.465001e+00	 9.673396e-01	-3.627005e+00
1	 1.453135e+00	 9.850760e-01	-4.184350e+00
1	 1.441039e+00	 1.002687e+00	-4.729604e+00
1	 1.428717e+00	 1.020168e+00	-5.262288e+00
1	 1.416170e+00	 1.037516e+00	-5.782004e+00
1	 1.482868e+00	 9.534887e-01	-2.915464e+00
1	 1.471183e+00	 9.714212e-01	-3.455267e+00
1	 1.459266e+00	 9.892324e-01	-3.983284e+00
1	 1.447120e+00	 1.006918e+00	-4.498853e+00
1	 1.434745e+00	 1.024473e+00	-5.001346e+00
1	 1.422145e+00	 1.041894e+00	-5.490167e+00
1	 1.489099e+00	 9.574950e-01	-2.776138e+00
1	 1.477364e+00	 9.755028e-01	-3.287827e+00
1	 1.465398e+00	 9.933888e-01	-3.787017e+00
1	 1.453200e+00	 1.011149e+00	-4.273056e+00
1	 1.440774e+00	 1.028777e+00	-4.745295e+00
1	 1.428120e+00	 1.046271e+00	-5.203080e+00
1	 1.495329e+00	 9.615012e-01	-2.639999e+00
1	 1.483546e+00	 9.795844e-01	-3.124441e+00
1	 1.471529e+00	 9.975453e-01	-3.595293e+00
1	 1.459280e+00	 1.015379e+00	-4.052030e+00
1	 1.446802e+00	 1.033082e+00	-4.494105e+00
1	 1.434096e+00	 1.050649e+00	-4.920945e+00
1	 1.404219e+00	 1.028760e+00	-6.379091e+00
1	 1.391557e+00	 1.045824e+00	-6.893336e+00
1	 1.378676e+00	 1.062747e+00	-7.290953e+00
1	 1.365579e+00	 1.079524e+00	-7.577438e+00
1	 1.352269e+00	 1.096151e+00	-7.758832e+00
1	 1.338747e+00	 1.112625e+00	-7.841713e+00
1	 1.410194e+00	 1.033138e+00	-6.078382e+00
1	 1.397478e+00	 1.050275e+00	-6.563371e+00
1	 1.384543e+00	 1.067269e+00	-6.934200e+00
1	 1.371390e+00	 1.084118e+00	-7.197243e+00
1	 1.358023e+00	 1.100816e+00	-7.359515e+00
1	 1.344444e+00	 1.117360e+00	-7.428655e+00
1	 1.416170e+00	 1.037516e+00	-5.782004e+00
1	 1.403400e+00	 1.054725e+00	-6.237505e+00
1	 1.390409e+00	 1.071792e+00	-6.582146e+00
1	 1.377201e+00	 1.088711e+00	-6.823036e+00
1	 1.363777e+00	 1.105480e+00	-6.968001e+00
1	 1.350140e+00	 1.122094e+00	-7.025568e+00
1	 1.422145e+00	 1.041894e+00	-5.490167e+00
1	 1.409321e+00	 1.059175e+00	-5.916176e+00
1	 1.396276e+00	 1.076314e+00	-6.235350e+00
1	 1.383012e+00	 1.093305e+00	-6.455388e+00
1	 1.369532e+00	 1.110145e+00	-6.584769e+00
1	 1.355837e+00	 1.126829e+00	-6.632738e+00
1	 1.428120e+00	 1.046271e+00	-5.203080e+00
1	 1.415243e+00	 1.063626e+00	-5.599817e+00
1	 1.402143e+00	 1.080836e+00	-5.894360e+00
1	 1.388823e+00	 1.097899e+00	-6.094860e+00
1	 1.375286e+00	 1.114809e+00	-6.210291e+00
1	 1.361534e+00	 1.131564e+00	-6.250443e+00
1	 1.434096e+00	 1.050649e+00	-4.920945e+00
1	 1.421164e+00	 1.068076e+00	-5.288850e+00
1	 1.408009e+00	 1.085359e+00	-5.559716e+00
1	 1.394634e+00	 1.102493e+00	-5.742003e+00
1	 1.381040e+00	 1.119474e+00	-5.845030e+00
1	 1.367231e+00	 1.136298e+00	-5.878961e+00
1	 1.338747e+00	 1.112625e+00	-7.841713e+00
1	 1.325017e+00	 1.128942e+00	-7.870593e+00
1	 1.311081e+00	 1.145096e+00	-7.888360e+00
1	 1.296942e+00	 1.161085e+00	-7.899794e+00
1	 1.282604e+00	 1.176905e+00	-7.909984e+00
1	 1.268068e+00	 1.192552e+00	-7.924318e+00
1	 1.344444e+00	 1.117360e+00	-7.428655e+00
1	 1.330655e+00	 1.133746e+00	-7.449165e+00
1	 1.316660e+00	 1.149969e+00	-7.462516e+00
1	 1.302461e+00	 1.166026e+00	-7.472444e+00
1	 1.288061e+00	 1.181914e+00	-7.482912e+00
1	 1.273464e+00	 1.197627e+00	-7.498099e+00
1	 1.350140e+00	 1.122094e+00	-7.025568e+00
1	 1.336293e+00	 1.138550e+00	-7.039533e+00
1	 1.322239e+00	 1.154842e+00	-7.049459e+00
1	 1.307980e+00	 1.170967e+00	-7.058170e+00
1	 1.293519e+00	 1.186922e+00	-7.068643e+00
1	 1.278860e+00	 1.202702e+00	-7.084000e+00
1	 1.355837e+00	 1.126829e+00	-6.632738e+00
1	 1.341932e+00	 1.143354e+00	-6.641774e+00
1	 1.327818e+00	 1.159714e+00	-6.649133e+00
1	 1.313499e+00	 1.175908e+00	-6.656857e+00
1	 1.298977e+00	 1.191930e+00	-6.667074e+00
1	 1.284256e+00	 1.207777e+00	-6.681999e+00
1	 1.361534e+00	 1.131564e+00	-6.250443e+00
1	 1.347570e+00	 1.148158e+00	-6.255966e+00
1	 1.333397e+00	 1.164587e+00	-6.261487e+00
1	 1.319018e+00	 1.180849e+00	-6.268392e+00
1	 1.304435e+00	 1.196938e+00	-6.278103e+00
1	 1.289652e+00	 1.212851e+00	-6.292073e+00
1	 1.367231e+00	 1.136298e+00	-5.878961e+00
1	 1.353209e+00	 1.152962e+00	-5.882183e+00
1	 1.338976e+00	 1.169460e+00	-5.886466e+00
1	 1.324537e+00	 1.185789e+00	-5.892666e+00
1	 1.309893e+00	 1.201946e+00	-5.901631e+00
1	 1.295048e+00	 1.217926e+00	-5.914199e+00
1	 1.268068e+00	 1.192552e+00	-7.924318e+00
1	 1.253339e+00	 1.208023e+00	-7.967994e+00
1	 1.238420e+00	 1.223313e+00	-8.063479e+00
1	 1.223313e+00	 1.238420e+00	-8.212266e+00
1	 1.208023e+00	 1.253339e+00	-8.415810e+00
1	 1.192552e+00	 1.268068e+00	-8.675530e+00
1	 1.273464e+00	 1.197627e+00	-7.498099e+00
1	 1.258673e+00	 1.213163e+00	-7.541296e+00
1	 1.243690e+00	 1.228519e+00	-7.633928e+00
1	 1.228519e+00	 1.243690e+00	-7.777514e+00
1	 1.213163e+00	 1.258673e+00	-7.973549e+00
1	 1.197627e+00	 1.273464e+00	-8.223499e+00
1	 1.278860e+00	 1.202702e+00	-7.084000e+00
1	 1.264006e+00	 1.218304e+00	-7.126026e+00
1	 1.248959e+00	 1.233724e+00	-7.215354e+00
1	 1.233724e+00	 1.248959e+00	-7.353475e+00
1	 1.218304e+00	 1.264006e+00	-7.541857e+00
1	 1.202702e+00	 1.278860e+00	-7.781945e+00
1	 1.284256e+00	 1.207777e+00	-6.681999e+00
1	 1.269339e+00	 1.223444e+00	-6.722260e+00
1	 1.254229e+00	 1.238930e+00	-6.807908e+00
1	 1.238930e+00	 1.254229e+00	-6.940344e+00
1	 1.223444e+00	 1.269339e+00	-7.120947e+00
1	 1.207777e+00	 1.284256e+00	-7.351076e+00
1	 1.289652e+00	 1.212851e+00	-6.292073e+00
1	 1.274673e+00	 1.228585e+00	-6.330073e+00
1	 1.259499e+00	 1.244135e+00	-6.411736e+00
1	 1.244135e+00	 1.259499e+00	-6.538312e+00
1	 1.228585e+00	 1.274673e+00	-6.711030e+00
1	 1.212851e+00	 1.289652e+00	-6.931093e+00
1	 1.295048e+00	 1.217926e+00	-5.914199e+00
1	 1.280006e+00	 1.233726e+00	-5.949541e+00
1	 1.264769e+00	 1.249341e+00	-6.026982e+00
1	 1.249341e+00	 1.264769e+00	-6.147566e+00
1	 1.233726e+00	 1.280006e+00	-6.312309e+00
1	 1.217926e+00	 1.295048e+00	-6.522198e+00
1	 1.192552e+00	 1.268068e+00	-8.675530e+00
1	 1.176905e+00	 1.282604e+00	-9.016328e+00
1	 1.161085e+00	 1.296942e+00	-9.454978e+00
1	 1.145096e+00	 1.311081e+00	-9.980231e+00
1	 1.128942e+00	 1.325017e+00	-1.058026e+01
1	 1.112625e+00	 1.338747e+00	-1.124270e+01
1	 1.197627e+00	 1.273464e+00	-8.223499e+00
1	 1.181914e+00	 1.288061e+00	-8.550676e+00
1	 1.166026e+00	 1.302461e+00	-8.971142e+00
1	 1.149969e+00	 1.316660e+00	-9.475070e+00
1	 1.133746e+00	 1.330655e+00	-1.005213e+01
1	 1.117360e+00	 1.344444e+00	-1.069150e+01
1	 1.202702e+00	 1.278860e+00	-7.781945e+00
1	 1.186922e+00	 1.293519e+00	-8.095627e+00
1	 1.170967e+00	 1.307980e+00	-8.498383e+00
1	 1.154842e+00	 1.322239e+00	-8.981689e+00
1	 1.138550e+00	 1.336293e+00	-9.536582e+00
1	 1.122094e+00	 1.350140e+00	-1.015368e+01
1	 1.207777e+00	 1.284256e+00	-7.351076e+00
1	 1.191930e+00	 1.298977e+00	-7.651351e+00
1	 1.175908e+00	 1.313499e+00	-8.036802e+00
1	 1.159714e+00	 1.327818e+00	-8.500089e+00
1	 1.143354e+00	 1.341932e+00	-9.033494e+00
1	 1.126829e+00	 1.355837e+00	-9.628943e+00
1	 1.212851e+00	 1.289652e+00	-6.931093e+00
1	 1.196938e+00	 1.304435e+00	-7.218015e+00
1	 1.180849e+00	 1.319018e+00	-7.586498e+00
1	 1.164587e+00	 1.333397e+00	-8.030268e+00
1	 1.148158e+00	 1.347570e+00	-8.542735e+00
1	 1.131564e+00	 1.361534e+00	-9.117004e+00
1	 1.217926e+00	 1.295048e+00	-6.522198e+00
1	 1.201946e+00	 1.309893e+00	-6.795785e+00
1	 1.185789e+00	 1.324537e+00	-7.147569e+00
1	 1.169460e+00	 1.338976e+00	-7.572228e+00
1	 1.152962e+00	 1.353209e+00	-8.064177e+00
1	 1.136298e+00	 1.367231e+00	-8.617581e+00
1	 1.112625e+00	 1.338747e+00	-1.124270e+01
1	 1.096151e+00	 1.352269e+00	-1.198253e+01
1	 1.079524e+00	 1.365579e+00	-1.281257e+01
1	 1.062747e+00	 1.378676e+00	-1.371639e+01
1	 1.045824e+00	 1.391557e+00	-1.467711e+01
1	 1.028760e+00	 1.404219e+00	-1.567742e+01
1	 1.117360e+00	 1.344444e+00	-1.069150e+01
1	 1.100816e+00	 1.358023e+00	-1.140886e+01
1	 1.084118e+00	 1.371390e+00	-1.221532e+01
1	 1.067269e+00	 1.384543e+00	-1.309249e+01
1	 1.050275e+00	 1.397478e+00	-1.402139e+01
1	 1.033138e+00	 1.410194e+00	-1.498253e+01
1	 1.122094e+00	 1.350140e+00	-1.015368e+01
1	 1.105480e+00	 1.363777e+00	-1.084871e+01
1	 1.088711e+00	 1.377201e+00	-1.163083e+01
1	 1.071792e+00	 1.390409e+00	-1.247999e+01
1	 1.054725e+00	 1.403400e+00	-1.337548e+01
1	 1.037516e+00	 1.416170e+00	-1.429605e+01
1	 1.126829e+00	 1.355837e+00	-9.628943e+00
1	 1.110145e+00	 1.369532e+00	-1.030168e+01
1	 1.093305e+00	 1.383012e+00	-1.105866e+01
1	 1.076314e+00	 1.396276e+00	-1.187851e+01
1	 1.059175e+00	 1.409321e+00	-1.273920e+01
1	 1.041894e+00	 1.422145e+00	-1.361801e+01
1	 1.131564e+00	 1.361534e+00	-9.117004e+00
1	 1.114809e+00	 1.375286e+00	-9.767363e+00
1	 1.097899e+00	 1.388823e+00	-1.049837e+01
1	 1.080836e+00	 1.402143e+00	-1.128772e+01
1	 1.063626e+00	 1.415243e+00	-1.211234e+01
1	 1.046271e+00	 1.428120e+00	-1.294848e+01
1	 1.136298e+00	 1.367231e+00	-8.617581e+00
1	 1.119474e+00	 1.381040e+00	-9.245351e+00
1	 1.102493e+00	 1.394634e+00	-9.949546e+00
1	 1.085359e+00	 1.408009e+00	-1.070724e+01
1	 1.068076e+00	 1.421164e+00	-1.149470e+01
1	 1.050649e+00	 1.434096e+00	-1.228748e+01
1	 1.028760e+00	 1.404219e+00	-1.567742e+01
1	 1.011559e+00	 1.416660e+00	-1.665158e+01
1	 9.942255e-01	 1.428879e+00	-1.754096e+01
1	 9.767631e-01	 1.440872e+00	-1.833855e+01
1	 9.591764e-01	 1.452639e+00	-1.903723e+01
1	 9.414699e-01	 1.464176e+00	-1.962983e+01
1	 1.033138e+00	 1.410194e+00	-1.498253e+01
1	 1.015864e+00	 1.422688e+00	-1.590994e+01
1	 9.984563e-01	 1.434959e+00	-1.674796e+01
1	 9.809195e-01	 1.447003e+00	-1.749226e+01
1	 9.632580e-01	 1.458820e+00	-1.813848e+01
1	 9.454762e-01	 1.470407e+00	-1.868232e+01
1	 1.037516e+00	 1.416170e+00	-1.429605e+01
1	 1.020168e+00	 1.428717e+00	-1.517636e+01
1	 1.002687e+00	 1.441039e+00	-1.596427e+01
1	 9.850760e-01	 1.453135e+00	-1.665785e+01
1	 9.673396e-01	 1.465001e+00	-1.725530e+01
1	 9.494825e-01	 1.476638e+00	-1.775487e+01
1	 1.041894e+00	 1.422145e+00	-1.361801e+01
1	 1.024473e+00	 1.434745e+00	-1.445115e+01
1	 1.006918e+00	 1.447120e+00	-1.519035e+01
1	 9.892324e-01	 1.459266e+00	-1.583592e+01
1	 9.714212e-01	 1.471183e+00	-1.638828e+01
1	 9.534887e-01	 1.482868e+00	-1.684804e+01
1	 1.046271e+00	 1.428120e+00	-1.294848e+01
1	 1.028777e+00	 1.440774e+00	-1.373459e+01
1	 1.011149e+00	 1.453200e+00	-1.442668e+01
1	 9.933888e-01	 1.465398e+00	-1.502701e+01
1	 9.755028e-01	 1.477364e+00	-1.553802e+01
1	 9.574950e-01	 1.489099e+00	-1.596239e+01
1	 1.050649e+00	 1.434096e+00	-1.228748e+01
1	 1.033082e+00	 1.446802e+00	-1.302697e+01
1	 1.015379e+00	 1.459280e+00	-1.367372e+01
1	 9.975453e-01	 1.471529e+00	-1.423169e+01
1	 9.795844e-01	 1.483546e+00	-1.470510e+01
1	 9.615012e-01	 1.495329e+00	-1.509846e+01
1	 9.414699e-01	 1.464176e+00	-1.962983e+01
1	 9.236480e-01	 1.475484e+00	-2.009252e+01
1	 9.057150e-01	 1.486559e+00	-2.041357e+01
1	 8.876755e-01	 1.497401e+00	-2.060426e+01
1	 8.695339e-01	 1.508008e+00	-2.067627e+01
1	 8.512948e-01	 1.518379e+00	-2.064167e+01
1	 9.454762e-01	 1.470407e+00	-1.868232e+01
1	 9.275784e-01	 1.481763e+00	-1.910404e+01
1	 9.095691e-01	 1.492885e+00	-1.939354e+01
1	 8.914529e-01	 1.503773e+00	-1.956125e+01
1	 8.732341e-01	 1.514425e+00	-1.961796e+01
1	 8.549173e-01	 1.524840e+00	-1.957483e+01
1	 9.494825e-01	 1.476638e+00	-1.775487e+01
1	 9.315088e-01	 1.488041e+00	-1.814023e+01
1	 9.134233e-01	 1.499211e+00	-1.840227e+01
1	 8.952302e-01	 1.510145e+00	-1.855039e+01
1	 8.769342e-01	 1.520842e+00	-1.859433e+01
1	 8.585398e-01	 1.531302e+00	-1.854414e+01
1	 9.534887e-01	 1.482868e+00	-1.684804e+01
1	 9.354392e-01	 1.494320e+00	-1.720158e+01
1	 9.172774e-01	 1.505537e+00	-1.744014e+01
1	 8.990076e-01	 1.516517e+00	-1.757195e+01
1	 8.806344e-01	 1.527259e+00	-1.760552e+01
1	 8.621624e-01	 1.537763e+00	-1.754963e+01
1	 9.574950e-01	 1.489099e+00	-1.596239e+01
1	 9.393697e-01	 1.500599e+00	-1.628855e+01
1	 9.211315e-01	 1.511862e+00	-1.650753e+01
1	 9.027849e-01	 1.522889e+00	-1.662620e+01
1	 8.843345e-01	 1.533677e+00	-1.665167e+01
1	 8.657849e-01	 1.544224e+00	-1.659130e+01
1	 9.615012e-01	 1.495329e+00	-1.509846e+01
1	 9.433001e-01	 1.506877e+00	-1.540162e+01
1	 9.249856e-01	 1.518188e+00	-1.560482e+01
1	 9.065622e-01	 1.529261e+00	-1.571341e+01
1	 8.880347e-01	 1.540094e+00	-1.573295e+01
1	 8.694074e-01	 1.550685e+00	-1.566918e+01
1	 8.512948e-01	 1.518379e+00	-2.064167e+01
1	 8.329625e-01	 1.528513e+00	-2.052106e+01
1	 8.145418e-01	 1.538408e+00	-2.033058e+01
1	 7.960370e-01	 1.548064e+00	-2.007599e+01
1	 7.774527e-01	 1.557481e+00	-1.976319e+01
1	 7.587935e-01	 1.566656e+00	-1.939823e+01
1	 8.549173e-01	 1.524840e+00	-1.957483e+01
1	 8.365071e-01	 1.535017e+00	-1.945085e+01
1	 8.180079e-01	 1.544955e+00	-1.926030e+01
1	 7.994244e-01	 1.554652e+00	-1.900762e+01
1	 7.807610e-01	 1.564108e+00	-1.869738e+01
1	 7.620224e-01	 1.573323e+00	-1.833427e+01
1	 8.585398e-01	 1.531302e+00	-1.854414e+01
1	 8.400516e-01	 1.541522e+00	-1.841720e+01
1	 8.214740e-01	 1.551501e+00	-1.822622e+01
1	 8.028118e-01	 1.561239e+00	-1.797466e+01
1	 7.840693e-01	 1.570736e+00	-1.766610e+01
1	 7.652513e-01	 1.579989e+00	-1.730422e+01
1	 8.621624e-01	 1.537763e+00	-1.754963e+01
1	 8.435961e-01	 1.548026e+00	-1.742001e+01
1	 8.249402e-01	 1.558048e+00	-1.722819e+01
1	 8.061991e-01	 1.567827e+00	-1.697694e+01
1	 7.873776e-01	 1.577363e+00	-1.666919e+01
1	 7.684802e-01	 1.586656e+00	-1.630797e+01
1	 8.657849e-01	 1.544224e+00	-1.659130e+01
1	 8.471406e-01	 1.554530e+00	-1.645920e+01
1	 8.284063e-01	 1.564594e+00	-1.626604e+01
1	 8.095865e-01	 1.574414e+00	-1.601428e+01
1	 7.906859e-01	 1.583991e+00	-1.570650e+01
1	 7.717091e-01	 1.593322e+00	-1.534542e+01
1	 8.694074e-01	 1.550685e+00	-1.566918e+01
1	 8.506851e-01	 1.561034e+00	-1.553468e+01
1	 8.318724e-01	 1.571140e+00	-1.533964e+01
1	 8.129739e-01	 1.581002e+00	-1.508651e+01
1	 7.939943e-01	 1.590618e+00	-1.477788e+01
1	 7.749380e-01	 1.599989e+00	-1.441647e+01
1	 7.587935e-01	 1.566656e+00	-1.939823e+01
1	 7.400639e-01	 1.575590e+00	-1.895645e+01
1	 7.212684e-01	 1.584282e+00	-1.842870e+01
1	 7.024116e-01	 1.592732e+00	-1.784463e+01
1	 6.834979e-01	 1.600940e+00	-1.723427e+01
1	 6.645318e-01	 1.608905e+00	-1.662791e+01
1	 7.620224e-01	 1.573323e+00	-1.833427e+01
1	 7.432131e-01	 1.582295e+00	-1.789439e+01
1	 7.243376e-01	 1.591024e+00	-1.737019e+01
1	 7.054006e-01	 1.599510e+00	-1.679129e+01
1	 6.864064e-01	 1.607753e+00	-1.618765e+01
1	 6.673596e-01	 1.615752e+00	-1.558950e+01
1	 7.652513e-01	 1.579989e+00	-1.730422e+01
1	 7.463623e-01	 1.588999e+00	-1.686613e+01
1	 7.274069e-01	 1.597765e+00	-1.634579e+01
1	 7.083895e-01	 1.606288e+00	-1.577258e+01
1	 6.893149e-01	 1.614565e+00	-1.517621e+01
1	 6.701874e-01	 1.622598e+00	-1.458666e+01
1	 7.684802e-01	 1.586656e+00	-1.630797e+01
1	 7.495115e-01	 1.595704e+00	-1.587162e+01
1	 7.304761e-01	 1.604507e+00	-1.535549e+01
1	 7.113785e-01	 1.613065e+00	-1.478853e+01
1	 6.922234e-01	 1.621378e+00	-1.420002e+01
1	 6.730152e-01	 1.629444e+00	-1.361949e+01
1	 7.717091e-01	 1.593322e+00	-1.534542e+01
1	 7.526607e-01	 1.602409e+00	-1.491082e+01
1	 7.335453e-01	 1.611249e+00	-1.439930e+01
1	 7.143675e-01	 1.619843e+00	-1.383919e+01
1	 6.951319e-01	 1.628190e+00	-1.325914e+01
1	 6.758430e-01	 1.636291e+00	-1.268805e+01
1	 7.749380e-01	 1.599989e+00	-1.441647e+01
1	 7.558099e-01	 1.609113e+00	-1.398367e+01
1	 7.366145e-01	 1.617990e+00	-1.347721e+01
1	 7.173565e-01	 1.626620e+00	-1.292459e+01
1	 6.980404e-01	 1.635003e+00	-1.235365e+01
1	 6.786708e-01	 1.643137e+00	-1.179244e+01
1	 6.645318e-01	 1.608905e+00	-1.662791e+01
1	 6.455179e-01	 1.616628e+00	-1.606265e+01
1	 6.264605e-01	 1.624108e+00	-1.556031e+01
1	 6.073642e-01	 1.631345e+00	-1.512827e+01
1	 5.882332e-01	 1.638341e+00	-1.477378e+01
1	 5.690721e-01	 1.645094e+00	-1.450392e+01
1	 6.673596e-01	 1.615752e+00	-1.558950e+01
1	 6.482648e-01	 1.623507e+00	-1.503216e+01
1	 6.291263e-01	 1.631019e+00	-1.453611e+01
1	 6.099487e-01	 1.638287e+00	-1.410937e+01
1	 5.907364e-01	 1.645312e+00	-1.375983e+01
1	 5.714936e-01	 1.652095e+00	-1.349523e+01
1	 6.701874e-01	 1.622598e+00	-1.458666e+01
1	 6.510117e-01	 1.630386e+00	-1.403745e+01
1	 6.317921e-01	 1.637930e+00	-1.354781e+01
1	 6.125332e-01	 1.645229e+00	-1.312643e+01
1	 5.932395e-01	 1.652284e+00	-1.278185e+01
1	 5.739152e-01	 1.659095e+00	-1.252249e+01
1	 6.730152e-01	 1.629444e+00	-1.361949e+01
1	 6.537586e-01	 1.637265e+00	-1.307860e+01
1	 6.344579e-01	 1.644841e+00	-1.259549e+01
1	 6.151178e-01	 1.652171e+00	-1.217951e+01
1	 5.957426e-01	 1.659256e+00	-1.183986e+01
1	 5.763368e-01	 1.666096e+00	-1.158564e+01
1	 6.758430e-01	 1.636291e+00	-1.268805e+01
1	 6.565054e-01	 1.644145e+00	-1.215571e+01
1	 6.371237e-01	 1.651752e+00	-1.167924e+01
1	 6.177023e-01	 1.659113e+00	-1.126867e+01
1	 5.982457e-01	 1.666227e+00	-1.093387e+01
1	 5.787584e-01	 1.673096e+00	-1.068464e+01
1	 6.786708e-01	 1.643137e+00	-1.179244e+01
1	 6.592523e-01	 1.651024e+00	-1.126887e+01
1	 6.397895e-01	 1.658663e+00	-1.079915e+01
1	 6.202868e-01	 1.666055e+00	-1.039396e+01
1	 6.007488e-01	 1.673199e+00	-1.006390e+01
1	 5.811800e-01	 1.680096e+00	-9.819448e+00
1	 5.690721e-01	 1.645094e+00	-1.450392e+01
1	 5.498850e-01	 1.651607e+00	-1.434055e+01
1	 5.306764e-01	 1.657878e+00	-1.431435e+01
1	 5.114504e-01	 1.663910e+00	-1.444535e+01
1	 4.922114e-01	 1.669702e+00	-1.475346e+01
1	 4.729634e-01	 1.675256e+00	-1.525837e+01
1	 5.714936e-01	 1.652095e+00	-1.349523e+01
1	 5.522249e-01	 1.658635e+00	-1.333882e+01
1	 5.329346e-01	 1.664933e+00	-1.332142e+01
1	 5.136268e-01	 1.670991e+00	-1.346196e+01
1	 4.943059e-01	 1.676808e+00	-1.377917e+01
1	 4.749760e-01	 1.682385e+00	-1.429163e+01
1	 5.739152e-01	 1.659095e+00	-1.252249e+01
1	 5.545649e-01	 1.665663e+00	-1.237279e+01
1	 5.351928e-01	 1.671988e+00	-1.236359e+01
1	 5.158032e-01	 1.678071e+00	-1.251271e+01
1	 4.964004e-01	 1.683913e+00	-1.283778e+01
1	 4.769886e-01	 1.689514e+00	-1.335625e+01
1	 5.763368e-01	 1.666096e+00	-1.158564e+01
1	 5.569048e-01	 1.672691e+00	-1.144235e+01
1	 5.374510e-01	 1.679043e+00	-1.144071e+01
1	 5.179796e-01	 1.685152e+00	-1.159745e+01
1	 4.984949e-01	 1.691018e+00	-1.192914e+01
1	 4.790013e-01	 1.696643e+00	-1.245214e+01
1	 5.787584e-01	 1.673096e+00	-1.068464e+01
1	 5.592447e-01	 1.679719e+00	-1.054740e+01
1	 5.397092e-01	 1.686098e+00	-1.055264e+01
1	 5.201559e-01	 1.692232e+00	-1.071603e+01
1	 5.005894e-01	 1.698123e+00	-1.105310e+01
1	 4.810139e-01	 1.703771e+00	-1.157916e+01
1	 5.811800e-01	 1.680096e+00	-9.819448e+00
1	 5.615847e-01	 1.686747e+00	-9.687837e+00
1	 5.419673e-01	 1.693152e+00	-9.699227e+00
1	 5.223323e-01	 1.699312e+00	-9.868290e+00
1	 5.026840e-01	 1.705228e+00	-1.020952e+01
1	 4.830265e-01	 1.710900e+00	-1.073722e+01
1	 4.729634e-01	 1.675256e+00	-1.525837e+01
1	 4.537107e-01	 1.680573e+00	-1.597766e+01
1	 4.344573e-01	 1.685653e+00	-1.691574e+01
1	 4.152073e-01	 1.690497e+00	-1.807226e+01
1	 3.959647e-01	 1.695108e+00	-1.944658e+01
1	 3.767333e-01	 1.699485e+00	-2.103779e+01
1	 4.749760e-01	 1.682385e+00	-1.429163e+01
1	 4.556414e-01	 1.687724e+00	-1.501520e+01
1	 4.363061e-01	 1.692826e+00	-1.595437e+01
1	 4.169742e-01	 1.697691e+00	-1.711024e+01
1	 3.976496e-01	 1.702321e+00	-1.848364e+01
1	 3.783364e-01	 1.706717e+00	-2.007514e+01
1	 4.769886e-01	 1.689514e+00	-1.335625e+01
1	 4.575721e-01	 1.694876e+00	-1.408248e+01
1	 4.381548e-01	 1.699999e+00	-1.502105e+01
1	 4.187410e-01	 1.704885e+00	-1.617438e+01
1	 3.993346e-01	 1.709534e+00	-1.754463e+01
1	 3.799395e-01	 1.713949e+00	-1.913367e+01
1	 4.790013e-01	 1.696643e+00	-1.245214e+01
1	 4.595028e-01	 1.702027e+00	-1.317943e+01
1	 4.400036e-01	 1.707172e+00	-1.411572e+01
1	 4.205078e-01	 1.712078e+00	-1.526460e+01
1	 4.010195e-01	 1.716747e+00	-1.662940e+01
1	 3.815427e-01	 1.721181e+00	-1.821318e+01
1	 4.810139e-01	 1.703771e+00	-1.157916e+01
1	 4.614335e-01	 1.709178e+00	-1.230594e+01
1	 4.418524e-01	 1.714345e+00	-1.323828e+01
1	 4.222747e-01	 1.719272e+00	-1.438080e+01
1	 4.027045e-01	 1.723961e+00	-1.573783e+01
1	 3.831458e-01	 1.728413e+00	-1.731347e+01
1	 4.830265e-01	 1.710900e+00	-1.073722e+01
1	 4.633641e-01	 1.716330e+00	-1.146195e+01
1	 4.437011e-01	 1.721518e+00	-1.238866e+01
1	 4.240415e-01	 1.726465e+00	-1.352286e+01
1	 4.043894e-01	 1.731174e+00	-1.486977e+01
1	 3.847489e-01	 1.735645e+00	-1.643434e+01
1	 3.767333e-01	 1.699485e+00	-2.103779e+01
1	 3.575171e-01	 1.703631e+00	-2.287074e+01
1	 3.383199e-01	 1.707547e+00	-2.493615e+01
1	 3.191455e-01	 1.711235e+00	-2.718187e+01
1	 2.999976e-01	 1.714695e+00	-2.955602e+01
1	 2.808797e-01	 1.717930e+00	-3.200705e+01
1	 3.783364e-01	 1.706717e+00	-2.007514e+01
1	 3.590385e-01	 1.710881e+00	-2.190962e+01
1	 3.397596e-01	 1.714814e+00	-2.397680e+01
1	 3.205036e-01	 1.718517e+00	-2.622445e+01
1	 3.012742e-01	 1.721992e+00	-2.860058e+01
1	 2.820750e-01	 1.725241e+00	-3.105356e+01
1	 3.799395e-01	 1.713949e+00	-1.913367e+01
1	 3.605598e-01	 1.718130e+00	-2.096624e+01
1	 3.411993e-01	 1.722080e+00	-2.303106e+01
1	 3.218616e-01	 1.725798e+00	-2.527597e+01
1	 3.025507e-01	 1.729288e+00	-2.764904e+01
1	 2.832702e-01	 1.732551e+00	-3.009869e+01
1	 3.815427e-01	 1.721181e+00	-1.821318e+01
1	 3.620812e-01	 1.725380e+00	-2.004034e+01
1	 3.426389e-01	 1.729346e+00	-2.209865e+01
1	 3.232197e-01	 1.733080e+00	-2.433614e+01
1	 3.038273e-01	 1.736585e+00	-2.670111e+01
1	 2.844654e-01	 1.739861e+00	-2.914215e+01
1	 3.831458e-01	 1.728413e+00	-1.731347e+01
1	 3.636025e-01	 1.732629e+00	-1.913166e+01
1	 3.440786e-01	 1.736612e+00	-2.117926e+01
1	 3.245778e-01	 1.740362e+00	-2.340465e+01
1	 3.051039e-01	 1.743882e+00	-2.575648e+01
1	 2.856607e-01	 1.747172e+00	-2.818368e+01
1	 3.847489e-01	 1.735645e+00	-1.643434e+01
1	 3.651239e-01	 1.739879e+00	-1.823995e+01
1	 3.455182e-01	 1.743878e+00	-2.027261e+01
1	 3.259358e-01	 1.747644e+00	-2.248121e+01
1	 3.063805e-01	 1.751178e+00	-2.481486e+01
1	 2.868559e-01	 1.754482e+00	-2.722300e+01
1	 2.808797e-01	 1.717930e+00	-3.200705e+01
1	 2.617956e-01	 1.720942e+00	-3.448111e+01
1	 2.427487e-01	 1.723732e+00	-3.693683e+01
1	 2.237424e-01	 1.726302e+00	-3.934196e+01
1	 2.047802e-01	 1.728654e+00	-4.166469e+01
1	 1.858653e-01	 1.730790e+00	-4.387365e+01
1	 2.820750e-01	 1.725241e+00	-3.105356e+01
1	 2.629096e-01	 1.728265e+00	-3.352964e+01
1	 2.437816e-01	 1.731067e+00	-3.598757e+01
1	 2.246945e-01	 1.733648e+00	-3.839504e+01
1	 2.056516e-01	 1.736010e+00	-4.072019e+01
1	 1.866562e-01	 1.738155e+00	-4.293156e+01
1	 2.832702e-01	 1.732551e+00	-3.009869e+01
1	 2.640236e-01	 1.735588e+00	-3.257142e+01
1	 2.448146e-01	 1.738402e+00	-3.502620e+01
1	 2.256466e-01	 1.740994e+00	-3.743072e+01
1	 2.065230e-01	 1.743366e+00	-3.975309e+01
1	 1.874471e-01	 1.745520e+00	-4.196187e+01
1	 2.844654e-01	 1.739861e+00	-2.914215e+01
1	 2.651377e-01	 1.742911e+00	-3.160619e+01
1	 2.458476e-01	 1.745737e+00	-3.405249e+01
1	 2.265987e-01	 1.748340e+00	-3.644878e+01
1	 2.073944e-01	 1.750722e+00	-3.876320e+01
1	 1.882380e-01	 1.752885e+00	-4.096437e+01
1	 2.856607e-01	 1.747172e+00	-2.818368e+01
1	 2.662517e-01	 1.750235e+00	-3.063372e+01
1	 2.468806e-01	 1.753072e+00	-3.306622e+01
1	 2.275508e-01	 1.755686e+00	-3.544902e+01
1	 2.082658e-01	 1.758078e+00	-3.775033e+01
1	 1.890289e-01	 1.760250e+00	-3.993886e+01
1	 2.868559e-01	 1.754482e+00	-2.722300e+01
1	 2.673657e-01	 1.757558e+00	-2.965376e+01
1	 2.479135e-01	 1.760407e+00	-3.206718e+01
1	 2.285029e-01	 1.763032e+00	-3.443123e+01
1	 2.091372e-01	 1.765434e+00	-3.671428e+01
1	 1.898199e-01	 1.767615e+00	-3.888515e+01
1	 1.858653e-01	 1.730790e+00	-4.387365e+01
1	 1.670010e-01	 1.732711e+00	-4.593281e+01
1	 1.481905e-01	 1.734421e+00	-4.780270e+01
1	 1.294369e-01	 1.735922e+00	-4.944763e+01
1	 1.107432e-01	 1.737215e+00	-5.083266e+01
1	 9.211236e-02	 1.738302e+00	-5.192361e+01
1	 1.866562e-01	 1.738155e+00	-4.293156e+01
1	 1.677116e-01	 1.740085e+00	-4.499319e+01
1	 1.488211e-01	 1.741802e+00	-4.686592e+01
1	 1.299877e-01	 1.743309e+00	-4.851446e+01
1	 1.112144e-01	 1.744607e+00	-4.990424e+01
1	 9.250433e-02	 1.745699e+00	-5.100147e+01
1	 1.874471e-01	 1.745520e+00	-4.196187e+01
1	 1.684223e-01	 1.747458e+00	-4.402116e+01
1	 1.494517e-01	 1.749183e+00	-4.589221e+01
1	 1.305385e-01	 1.750696e+00	-4.754026e+01
1	 1.116857e-01	 1.751999e+00	-4.893123e+01
1	 9.289630e-02	 1.753096e+00	-5.003183e+01
1	 1.882380e-01	 1.752885e+00	-4.096437e+01
1	 1.691329e-01	 1.754831e+00	-4.301650e+01
1	 1.500823e-01	 1.756563e+00	-4.488138e+01
1	 1.310893e-01	 1.758082e+00	-4.652487e+01
1	 1.121569e-01	 1.759392e+00	-4.791349e+01
1	 9.328826e-02	 1.760493e+00	-4.901457e+01
1	 1.890289e-01	 1.760250e+00	-3.993886e+01
1	 1.698436e-01	 1.762204e+00	-4.197902e+01
1	 1.507129e-01	 1.763944e+00	-4.383325e+01
1	 1.316401e-01	 1.765469e+00	-4.546811e+01
1	 1.126282e-01	 1.766784e+00	-4.685088e+01
1	 9.368023e-02	 1.767890e+00	-4.794957e+01
1	 1.898199e-01	 1.767615e+00	-3.888515e+01
1	 1.705542e-01	 1.769578e+00	-4.090854e+01
1	 1.513435e-01	 1.771324e+00	-4.274763e+01
1	 1.321909e-01	 1.772856e+00	-4.436983e+01
1	 1.130994e-01	 1.774177e+00	-4.574324e+01
1	 9.407220e-02	 1.775287e+00	-4.683672e+01
1	 9.211236e-02	 1.738302e+00	-5.192361e+01
1	 7.354730e-02	 1.739186e+00	-5.268780e+01
1	 5.505083e-02	 1.739870e+00	-5.309544e+01
1	 3.662569e-02	 1.740355e+00	-5.311797e+01
1	 1.827455e-02	 1.740645e+00	-5.272767e+01
1	 0.000000e+00	 1.740741e+00	-5.189769e+01
1	 9.250433e-02	 1.745699e+00	-5.100147e+01
1	 7.386027e-02	 1.746587e+00	-5.177372e+01
1	 5.528509e-02	 1.747274e+00	-5.219120e+01
1	 3.678154e-02	 1.747761e+00	-5.222540e+01
1	 1.835231e-02	 1.748052e+00	-5.184863e+01
1	 0.000000e+00	 1.748148e+00	-5.103409e+01
1	 9.289630e-02	 1.753096e+00	-5.003183e+01
1	 7.417324e-02	 1.753988e+00	-5.080996e+01
1	 5.551935e-02	 1.754677e+00	-5.123591e+01
1	 3.693740e-02	 1.755167e+00	-5.128117e+01
1	 1.843007e-02	 1.755459e+00	-5.091811e+01
1	 0.000000e+00	 1.755556e+00	-5.011995e+01
1	 9.328826e-02	 1.760493e+00	-4.901457e+01
1	 7.448621e-02	 1.761389e+00	-4.979645e+01
1	 5.575361e-02	 1.762081e+00	-5.022947e+01
1	 3.709325e-02	 1.762573e+00	-5.028518e+01
1	 1.850784e-02	 1.762866e+00	-4.993595e+01
1	 0.000000e+00	 1.762963e+00	-4.915504e+01
1	 9.368023e-02	 1.767890e+00	-4.794957e+01
1	 7.479917e-02	 1.768790e+00	-4.873306e+01
1	 5.598787e-02	 1.769485e+00	-4.917179e+01
1	 3.724911e-02	 1.769978e+00	-4.923730e+01
1	 1.858560e-02	 1.770273e+00	-4.890201e+01
1	 0.000000e+00	 1.770370e+00	-4.813917e+01
1	 9.407220e-02	 1.775287e+00	-4.683672e+01
1	 7.511214e-02	 1.776190e+00	-4.761973e+01
1	 5.622213e-02	 1.776889e+00	-4.806278e+01
1	 3.740496e-02	 1.777384e+00	-4.813744e+01
1	 1.866337e-02	 1.777680e+00	-4.781613e+01
1	 0.000000e+00	 1.777778e+00	-4.707214e+01
1	 1.777778e+00	 0.000000e+00	 1.032554e+01
1	 1.777680e+00	 1.866337e-02	 1.023771e+01
1	 1.777384e+00	 3.740496e-02	 1.008459e+01
1	 1.776889e+00	 5.622213e-02	 9.871855e+00
1	 1.776190e+00	 7.511214e-02	 9.605271e+00
1	 1.775287e+00	 9.407220e-02	 9.290689e+00
1	 1.785185e+00	 0.000000e+00	 1.001526e+01
1	 1.785087e+00	 1.874113e-02	 9.934989e+00
1	 1.784790e+00	 3.756081e-02	 9.789895e+00
1	 1.784292e+00	 5.645639e-02	 9.585650e+00
1	 1.783591e+00	 7.542511e-02	 9.328008e+00
1	 1.782684e+00	 9.446417e-02	 9.022798e+00
1	 1.792593e+00	 0.000000e+00	 9.698962e+00
1	 1.792494e+00	 1.881890e-02	 9.625999e+00
1	 1.792196e+00	 3.771667e-02	 9.488907e+00
1	 1.791696e+00	 5.669065e-02	 9.293315e+00
1	 1.790992e+00	 7.573808e-02	 9.044931e+00
1	 1.790081e+00	 9.485613e-02	 8.749542e+00
1	 1.800000e+00	 0.000000e+00	 9.376624e+00
1	 1.799901e+00	 1.889666e-02	 9.310693e+00
1	 1.799602e+00	 3.787252e-02	 9.181547e+00
1	 1.799100e+00	 5.692490e-02	 8.994745e+00
1	 1.798393e+00	 7.605104e-02	 8.755929e+00
1	 1.797478e+00	 9.524810e-02	 8.470810e+00
1	 1.807407e+00	 0.000000e+00	 9.048236e+00
1	 1.807308e+00	 1.897442e-02	 8.989020e+00
1	 1.807007e+00	 3.802838e-02	 8.867734e+00
1	 1.806503e+00	 5.715916e-02	 8.689842e+00
1	 1.805793e+00	 7.636401e-02	 8.460889e+00
1	 1.804875e+00	 9.564007e-02	 8.186488e+00
1	 1.814815e+00	 0.000000e+00	 8.713788e+00
1	 1.814715e+00	 1.905219e-02	 8.660930e+00
1	 1.814413e+00	 3.818423e-02	 8.547389e+00
1	 1.813907e+00	 5.739342e-02	 8.378506e+00
1	 1.813194e+00	 7.667698e-02	 8.159702e+00
1	 1.812272e+00	 9.603204e-02	 7.896467e+00
1	 1.775287e+00	 9.407220e-02	 9.290689e+00
1	 1.774177e+00	 1.130994e-01	 8.930951e+00
1	 1.772856e+00	 1.321909e-01	 8.528951e+00
1	 1.771324e+00	 1.513435e-01	 8.090720e+00
1	 1.769578e+00	 1.705542e-01	 7.622353e+00
1	 1.767615e+00	 1.898199e-01	 7.129998e+00
1	 1.782684e+00	 9.446417e-02	 9.022798e+00
1	 1.781569e+00	 1.135707e-01	 8.672895e+00
1	 1.780243e+00	 1.327417e-01	 8.281122e+00
1	 1.778705e+00	 1.519741e-01	 7.853334e+00
1	 1.776951e+00	 1.712649e-01	 7.395449e+00
1	 1.774980e+00	 1.906108e-01	 6.913443e+00
1	 1.790081e+00	 9.485613e-02	 8.749542e+00
1	 1.788961e+00	 1.140419e-01	 8.410052e+00
1	 1.787630e+00	 1.332925e-01	 8.029207e+00
1	 1.786085e+00	 1.526047e-01	 7.612661e+00
1	 1.784324e+00	 1.719755e-01	 7.166132e+00
1	 1.782345e+00	 1.914017e-01	 6.695391e+00
1	 1.797478e+00	 9.524810e-02	 8.470810e+00
1	 1.796354e+00	 1.145132e-01	 8.142309e+00
1	 1.795017e+00	 1.338432e-01	 7.773088e+00
1	 1.793466e+00	 1.532353e-01	 7.368575e+00
1	 1.791697e+00	 1.726861e-01	 6.934258e+00
1	 1.789710e+00	 1.921926e-01	 6.475681e+00
1	 1.804875e+00	 9.564007e-02	 8.186488e+00
1	 1.803746e+00	 1.149844e-01	 7.869556e+00
1	 1.802404e+00	 1.343940e-01	 7.512651e+00
1	 1.800846e+00	 1.538659e-01	 7.120950e+00
1	 1.799071e+00	 1.733968e-01	 6.699688e+00
1	 1.797075e+00	 1.929835e-01	 6.254150e+00
1	 1.812272e+00	 9.603204e-02	 7.896467e+00
1	 1.811139e+00	 1.154557e-01	 7.591685e+00
1	 1.809791e+00	 1.349448e-01	 7.247784e+00
1	 1.808227e+00	 1.544965e-01	 6.869665e+00
1	 1.806444e+00	 1.741074e-01	 6.462283e+00
1	 1.804440e+00	 1.937744e-01	 6.030642e+00
1	 1.767615e+00	 1.898199e-01	 7.129998e+00
1	 1.765434e+00	 2.091372e-01	 6.621354e+00
1	 1.763032e+00	 2.285029e-01	 6.103809e+00
1	 1.760407e+00	 2.479135e-01	 5.583075e+00
1	 1.757558e+00	 2.673657e-01	 5.064857e+00
1	 1.754482e+00	 2.868559e-01	 4.554842e+00
1	 1.774980e+00	 1.906108e-01	 6.913443e+00
1	 1.772789e+00	 2.100086e-01	 6.414811e+00
1	 1.770378e+00	 2.294550e-01	 5.906847e+00
1	 1.767742e+00	 2.489465e-01	 5.395247e+00
1	 1.764881e+00	 2.684797e-01	 4.885703e+00
1	 1.761792e+00	 2.880511e-01	 4.383885e+00
1	 1.782345e+00	 1.914017e-01	 6.695391e+00
1	 1.780145e+00	 2.108800e-01	 6.207700e+00
1	 1.777723e+00	 2.304071e-01	 5.710235e+00
1	 1.775077e+00	 2.499795e-01	 5.208672e+00
1	 1.772204e+00	 2.695938e-01	 4.708682e+00
1	 1.769103e+00	 2.892464e-01	 4.215918e+00
1	 1.789710e+00	 1.921926e-01	 6.475681e+00
1	 1.787501e+00	 2.117514e-01	 5.999836e+00
1	 1.785069e+00	 2.313592e-01	 5.513767e+00
1	 1.782412e+00	 2.510124e-01	 5.023125e+00
1	 1.779527e+00	 2.707078e-01	 4.533555e+00
1	 1.776413e+00	 2.904416e-01	 4.050687e+00
1	 1.797075e+00	 1.929835e-01	 6.254150e+00
1	 1.794857e+00	 2.126228e-01	 5.791035e+00
1	 1.792415e+00	 2.323112e-01	 5.317240e+00
1	 1.789747e+00	 2.520454e-01	 4.838385e+00
1	 1.786850e+00	 2.718218e-01	 4.360085e+00
1	 1.783723e+00	 2.916368e-01	 3.887942e+00
1	 1.804440e+00	 1.937744e-01	 6.030642e+00
1	 1.802213e+00	 2.134942e-01	 5.581118e+00
1	 1.799761e+00	 2.332633e-01	 5.120455e+00
1	 1.797082e+00	 2.530784e-01	 4.654236e+00
1	 1.794174e+00	 2.729358e-01	 4.188041e+00
1	 1.791034e+00	 2.928321e-01	 3.727438e+00
1	 1.754482e+00	 2.868559e-01	 4.554842e+00
1	 1.751178e+00	 3.063805e-01	 4.060637e+00
1	 1.747644e+00	 3.259358e-01	 3.591774e+00
1	 1.743878e+00	 3.455182e-01	 3.156773e+00
1	 1.739879e+00	 3.651239e-01	 2.764089e+00
1	 1.735645e+00	 3.847489e-01	 2.422101e+00
1	 1.761792e+00	 2.880511e-01	 4.383885e+00
1	 1.758475e+00	 3.076571e-01	 3.897272e+00
1	 1.754926e+00	 3.272939e-01	 3.435216e+00
1	 1.751144e+00	 3.469579e-01	 3.006147e+00
1	 1.747128e+00	 3.666452e-01	 2.618435e+00
1	 1.742876e+00	 3.863520e-01	 2.280375e+00
1	 1.769103e+00	 2.892464e-01	 4.215918e+00
1	 1.765771e+00	 3.089337e-01	 3.737730e+00
1	 1.762208e+00	 3.286520e-01	 3.283281e+00
1	 1.758410e+00	 3.483975e-01	 2.860895e+00
1	 1.754378e+00	 3.681666e-01	 2.478835e+00
1	 1.750108e+00	 3.879551e-01	 2.145294e+00
1	 1.776413e+00	 2.904416e-01	 4.050687e+00
1	 1.773068e+00	 3.102103e-01	 3.581747e+00
1	 1.769490e+00	 3.300100e-01	 3.135704e+00
1	 1.765677e+00	 3.498372e-01	 2.720753e+00
1	 1.761627e+00	 3.696879e-01	 2.345036e+00
1	 1.757340e+00	 3.895583e-01	 2.016625e+00
1	 1.783723e+00	 2.916368e-01	 3.887942e+00
1	 1.780364e+00	 3.114868e-01	 3.429064e+00
1	 1.776771e+00	 3.313681e-01	 2.992222e+00
1	 1.772943e+00	 3.512769e-01	 2.585464e+00
1	 1.768877e+00	 3.712093e-01	 2.216790e+00
1	 1.764572e+00	 3.911614e-01	 1.894134e+00
1	 1.791034e+00	 2.928321e-01	 3.727438e+00
1	 1.787661e+00	 3.127634e-01	 3.279427e+00
1	 1.784053e+00	 3.327262e-01	 2.852576e+00
1	 1.780209e+00	 3.527165e-01	 2.454771e+00
1	 1.776126e+00	 3.727306e-01	 2.093851e+00
1	 1.771804e+00	 3.927645e-01	 1.777593e+00
1	 1.735645e+00	 3.847489e-01	 2.422101e+00
1	 1.731174e+00	 4.043894e-01	 2.129086e+00
1	 1.726465e+00	 4.240415e-01	 1.876650e+00
1	 1.721518e+00	 4.437011e-01	 1.663006e+00
1	 1.716330e+00	 4.633641e-01	 1.486244e+00
1	 1.710900e+00	 4.830265e-01	 1.344335e+00
1	 1.742876e+00	 3.863520e-01	 2.280375e+00
1	 1.738387e+00	 4.060744e-01	 1.990595e+00
1	 1.733659e+00	 4.258084e-01	 1.741039e+00
1	 1.728691e+00	 4.455499e-01	 1.529810e+00
1	 1.723481e+00	 4.652948e-01	 1.354891e+00
1	 1.718029e+00	 4.850391e-01	 1.214147e+00
1	 1.750108e+00	 3.879551e-01	 2.145294e+00
1	 1.745600e+00	 4.077594e-01	 1.859234e+00
1	 1.740853e+00	 4.275752e-01	 1.612937e+00
1	 1.735864e+00	 4.473986e-01	 1.404418e+00
1	 1.730632e+00	 4.672255e-01	 1.231576e+00
1	 1.725158e+00	 4.870517e-01	 1.092187e+00
1	 1.757340e+00	 3.895583e-01	 2.016625e+00
1	 1.752814e+00	 4.094443e-01	 1.734786e+00
1	 1.748046e+00	 4.293420e-01	 1.492141e+00
1	 1.743037e+00	 4.492474e-01	 1.286640e+00
1	 1.737784e+00	 4.691562e-01	 1.116112e+00
1	 1.732286e+00	 4.890643e-01	 9.782707e-01
1	 1.764572e+00	 3.911614e-01	 1.894134e+00
1	 1.760027e+00	 4.111293e-01	 1.617037e+00
1	 1.755240e+00	 4.311089e-01	 1.378453e+00
1	 1.750210e+00	 4.510961e-01	 1.176286e+00
1	 1.744935e+00	 4.710869e-01	 1.008319e+00
1	 1.739415e+00	 4.910769e-01	 8.722175e-01
1	 1.771804e+00	 3.927645e-01	 1.777593e+00
1	 1.767240e+00	 4.128142e-01	 1.505777e+00
1	 1.762433e+00	 4.328757e-01	 1.271678e+00
1	 1.757383e+00	 4.529449e-01	 1.073172e+00
1	 1.752087e+00	 4.730176e-01	 9.080157e-01
1	 1.746544e+00	 4.930895e-01	 7.738488e-01
1	 1.710900e+00	 4.830265e-01	 1.344335e+00
1	 1.705228e+00	 5.026840e-01	 1.235862e+00
1	 1.699312e+00	 5.223323e-01	 1.158470e+00
1	 1.693152e+00	 5.419673e-01	 1.108580e+00
1	 1.686747e+00	 5.615847e-01	 1.082555e+00
1	 1.680096e+00	 5.811800e-01	 1.076704e+00
1	 1.718029e+00	 4.850391e-01	 1.214147e+00
1	 1.712333e+00	 5.047785e-01	 1.106336e+00
1	 1.706393e+00	 5.245087e-01	 1.029463e+00
1	 1.700207e+00	 5.442255e-01	 9.801193e-01
1	 1.693775e+00	 5.639246e-01	 9.548339e-01
1	 1.687097e+00	 5.836016e-01	 9.500768e-01
1	 1.725158e+00	 4.870517e-01	 1.092187e+00
1	 1.719438e+00	 5.068730e-01	 9.851760e-01
1	 1.713473e+00	 5.266851e-01	 9.088859e-01
1	 1.707262e+00	 5.464837e-01	 8.600799e-01
1	 1.700804e+00	 5.662646e-01	 8.354553e-01
1	 1.694097e+00	 5.860231e-01	 8.316479e-01
1	 1.732286e+00	 4.890643e-01	 9.782707e-01
1	 1.726543e+00	 5.089675e-01	 8.721988e-01
1	 1.720554e+00	 5.288615e-01	 7.965592e-01
1	 1.714317e+00	 5.487419e-01	 7.482897e-01
1	 1.707832e+00	 5.686045e-01	 7.242594e-01
1	 1.701098e+00	 5.884447e-01	 7.212730e-01
1	 1.739415e+00	 4.910769e-01	 8.722175e-01
1	 1.733649e+00	 5.110620e-01	 7.672234e-01
1	 1.727634e+00	 5.310379e-01	 6.923061e-01
1	 1.721372e+00	 5.510001e-01	 6.445800e-01
1	 1.714860e+00	 5.709444e-01	 6.210888e-01
1	 1.708098e+00	 5.908663e-01	 6.188101e-01
1	 1.746544e+00	 4.930895e-01	 7.738488e-01
1	 1.740754e+00	 5.131565e-01	 6.700722e-01
1	 1.734715e+00	 5.332143e-01	 5.959530e-01
1	 1.728426e+00	 5.532583e-01	 5.487847e-01
1	 1.721888e+00	 5.732844e-01	 5.257889e-01
1	 1.715098e+00	 5.932879e-01	 5.241191e-01
1	 1.680096e+00	 5.811800e-01	 1.076704e+00
1	 1.673199e+00	 6.007488e-01	 1.081614e+00
1	 1.666055e+00	 6.202868e-01	 1.088896e+00
1	 1.658663e+00	 6.397895e-01	 1.096387e+00
1	 1.651024e+00	 6.592523e-01	 1.101954e+00
1	 1.643137e+00	 6.786708e-01	 1.103506e+00
1	 1.687097e+00	 5.836016e-01	 9.500768e-01
1	 1.680171e+00	 6.032520e-01	 9.567366e-01
1	 1.672997e+00	 6.228714e-01	 9.665538e-01
1	 1.665574e+00	 6.424553e-01	 9.772612e-01
1	 1.657903e+00	 6.619992e-01	 9.866289e-01
1	 1.649984e+00	 6.814986e-01	 9.924682e-01
1	 1.694097e+00	 5.860231e-01	 8.316479e-01
1	 1.687142e+00	 6.057551e-01	 8.398838e-01
1	 1.679938e+00	 6.254559e-01	 8.520613e-01
1	 1.672485e+00	 6.451211e-01	 8.658075e-01
1	 1.664783e+00	 6.647461e-01	 8.787878e-01
1	 1.656830e+00	 6.843264e-01	 8.887107e-01
1	 1.701098e+00	 5.884447e-01	 7.212730e-01
1	 1.694114e+00	 6.082582e-01	 7.309229e-01
1	 1.686880e+00	 6.280404e-01	 7.452888e-01
1	 1.679396e+00	 6.477869e-01	 7.618880e-01
1	 1.671662e+00	 6.674930e-01	 7.782760e-01
1	 1.663676e+00	 6.871542e-01	 7.920514e-01
1	 1.708098e+00	 5.908663e-01	 6.188101e-01
1	 1.701086e+00	 6.107613e-01	 6.297238e-01
1	 1.693822e+00	 6.306249e-01	 6.461085e-01
1	 1.686307e+00	 6.504526e-01	 6.653674e-01
1	 1.678541e+00	 6.702399e-01	 6.849409e-01
1	 1.670523e+00	 6.899820e-01	 7.023113e-01
1	 1.715098e+00	 5.932879e-01	 5.241191e-01
1	 1.708057e+00	 6.132644e-01	 5.361583e-01
1	 1.700764e+00	 6.332095e-01	 5.543944e-01
1	 1.693219e+00	 6.531184e-01	 5.761127e-01
1	 1.685420e+00	 6.729867e-01	 5.986328e-01
1	 1.677369e+00	 6.928098e-01	 6.193141e-01
1	 1.643137e+00	 6.786708e-01	 1.103506e+00
1	 1.635003e+00	 6.980404e-01	 1.088818e+00
1	 1.626620e+00	 7.173565e-01	 1.044805e+00
1	 1.617990e+00	 7.366145e-01	 9.683133e-01
1	 1.609113e+00	 7.558099e-01	 8.564591e-01
1	 1.599989e+00	 7.749380e-01	 7.066394e-01
1	 1.649984e+00	 6.814986e-01	 9.924682e-01
1	 1.641815e+00	 7.009489e-01	 9.832271e-01
1	 1.633398e+00	 7.203455e-01	 9.465914e-01
1	 1.624732e+00	 7.396838e-01	 8.794506e-01
1	 1.615818e+00	 7.589591e-01	 7.789532e-01
1	 1.606656e+00	 7.781670e-01	 6.425158e-01
1	 1.656830e+00	 6.843264e-01	 8.887107e-01
1	 1.648628e+00	 7.038574e-01	 8.846369e-01
1	 1.640175e+00	 7.233345e-01	 8.549765e-01
1	 1.631474e+00	 7.427530e-01	 7.966783e-01
1	 1.622522e+00	 7.621083e-01	 7.069391e-01
1	 1.613322e+00	 7.813959e-01	 5.832142e-01
1	 1.663676e+00	 6.871542e-01	 7.920514e-01
1	 1.655440e+00	 7.067659e-01	 7.928400e-01
1	 1.646953e+00	 7.263234e-01	 7.697427e-01
1	 1.638215e+00	 7.458222e-01	 7.197815e-01
1	 1.629227e+00	 7.652576e-01	 6.402188e-01
1	 1.619989e+00	 7.846248e-01	 5.285670e-01
1	 1.670523e+00	 6.899820e-01	 7.023113e-01
1	 1.662253e+00	 7.096744e-01	 7.076330e-01
1	 1.653731e+00	 7.293124e-01	 6.906756e-01
1	 1.644957e+00	 7.488915e-01	 6.485490e-01
1	 1.635932e+00	 7.684068e-01	 5.785976e-01
1	 1.626656e+00	 7.878537e-01	 4.784093e-01
1	 1.677369e+00	 6.928098e-01	 6.193141e-01
1	 1.669065e+00	 7.125829e-01	 6.288156e-01
1	 1.660508e+00	 7.323014e-01	 6.175645e-01
1	 1.651699e+00	 7.519607e-01	 5.827731e-01
1	 1.642636e+00	 7.715560e-01	 5.218839e-01
1	 1.633322e+00	 7.910826e-01	 4.325787e-01
1	 1.599989e+00	 7.749380e-01	 7.066394e-01
1	 1.590618e+00	 7.939943e-01	 5.183114e-01
1	 1.581002e+00	 8.129739e-01	 2.940530e-01
1	 1.571140e+00	 8.318724e-01	 3.632339e-02
1	 1.561034e+00	 8.506851e-01	-2.522001e-01
1	 1.550685e+00	 8.694074e-01	-5.686243e-01
1	 1.606656e+00	 7.781670e-01	 6.425158e-01
1	 1.597246e+00	 7.973026e-01	 4.692120e-01
1	 1.587589e+00	 8.163613e-01	 2.611874e-01
1	 1.577687e+00	 8.353386e-01	 2.083811e-02
1	 1.567539e+00	 8.542297e-01	-2.492220e-01
1	 1.557146e+00	 8.730300e-01	-5.461635e-01
1	 1.613322e+00	 7.813959e-01	 5.832142e-01
1	 1.603874e+00	 8.006109e-01	 4.242464e-01
1	 1.594177e+00	 8.197487e-01	 2.317851e-01
1	 1.584233e+00	 8.388047e-01	 8.156237e-03
1	 1.574043e+00	 8.577742e-01	-2.441003e-01
1	 1.563608e+00	 8.766525e-01	-5.222325e-01
1	 1.619989e+00	 7.846248e-01	 5.285670e-01
1	 1.610501e+00	 8.039192e-01	 3.832721e-01
1	 1.600764e+00	 8.231361e-01	 2.057048e-01
1	 1.590780e+00	 8.422708e-01	-1.885946e-03
1	 1.580547e+00	 8.613187e-01	-2.370447e-01
1	 1.570069e+00	 8.802750e-01	-4.971109e-01
1	 1.626656e+00	 7.878537e-01	 4.784093e-01
1	 1.617129e+00	 8.072275e-01	 3.461487e-01
1	 1.607352e+00	 8.265235e-01	 1.828076e-01
1	 1.597326e+00	 8.457370e-01	-9.449459e-03
1	 1.587052e+00	 8.648632e-01	-2.282616e-01
1	 1.576530e+00	 8.838975e-01	-4.710734e-01
1	 1.633322e+00	 7.910826e-01	 4.325787e-01
1	 1.623756e+00	 8.105358e-01	 3.127384e-01
1	 1.613940e+00	 8.299109e-01	 1.629567e-01
1	 1.603872e+00	 8.492031e-01	-1.469270e-02
1	 1.593556e+00	 8.684078e-01	-2.179540e-01
1	 1.582991e+00	 8.875201e-01	-4.443906e-01
1	 1.550685e+00	 8.694074e-01	-5.686243e-01
1	 1.540094e+00	 8.880347e-01	-9.161797e-01
1	 1.529261e+00	 9.065622e-01	-1.298982e+00
1	 1.518188e+00	 9.249856e-01	-1.715207e+00
1	 1.506877e+00	 9.433001e-01	-2.162906e+00
1	 1.495329e+00	 9.615012e-01	-2.639999e+00
1	 1.557146e+00	 8.730300e-01	-5.461635e-01
1	 1.546511e+00	 8.917348e-01	-8.735058e-01
1	 1.535633e+00	 9.103396e-01	-1.235415e+00
1	 1.524514e+00	 9.288397e-01	-1.629773e+00
1	 1.513156e+00	 9.472305e-01	-2.054340e+00
1	 1.501560e+00	 9.655075e-01	-2.506749e+00
1	 1.563608e+00	 8.766525e-01	-5.222325e-01
1	 1.552928e+00	 8.954349e-01	-8.300629e-01
1	 1.542005e+00	 9.141169e-01	-1.171831e+00
1	 1.530840e+00	 9.326938e-01	-1.545154e+00
1	 1.519434e+00	 9.511609e-01	-1.947522e+00
1	 1.507790e+00	 9.695137e-01	-2.376294e+00
1	 1.570069e+00	 8.802750e-01	-4.971109e-01
1	 1.559345e+00	 8.991351e-01	-7.861910e-01
1	 1.548377e+00	 9.178943e-01	-1.108590e+00
1	 1.537166e+00	 9.365479e-01	-1.461686e+00
1	 1.525713e+00	 9.550913e-01	-1.842720e+00
1	 1.514021e+00	 9.735200e-01	-2.248795e+00
1	 1.576530e+00	 8.838975e-01	-4.710734e-01
1	 1.565762e+00	 9.028352e-01	-7.422245e-01
1	 1.554749e+00	 9.216716e-01	-1.046043e+00
1	 1.543491e+00	 9.404020e-01	-1.379697e+00
1	 1.531992e+00	 9.590217e-01	-1.740198e+00
1	 1.520251e+00	 9.775262e-01	-2.124407e+00
1	 1.582991e+00	 8.875201e-01	-4.443906e-01
1	 1.572179e+00	 9.065354e-01	-6.984924e-01
1	 1.561120e+00	 9.254490e-01	-9.845394e-01
1	 1.549817e+00	 9.442561e-01	-1.299513e+00
1	 1.538270e+00	 9.629522e-01	-1.640217e+00
1	 1.526482e+00	 9.815325e-01	-2.003286e+00
1	 1.495329e+00	 9.615012e-01	-2.639999e+00
1	 1.483546e+00	 9.795844e-01	-3.124441e+00
1	 1.471529e+00	 9.975453e-01	-3.595293e+00
1	 1.459280e+00	 1.015379e+00	-4.052030e+00
1	 1.446802e+00	 1.033082e+00	-4.494105e+00
1	 1.434096e+00	 1.050649e+00	-4.920945e+00
1	 1.501560e+00	 9.655075e-01	-2.506749e+00
1	 1.489727e+00	 9.836661e-01	-2.964942e+00
1	 1.477660e+00	 1.001702e+00	-3.408274e+00
1	 1.465361e+00	 1.019610e+00	-3.836385e+00
1	 1.452830e+00	 1.037386e+00	-4.248874e+00
1	 1.440071e+00	 1.055027e+00	-4.645306e+00
1	 1.507790e+00	 9.695137e-01	-2.376294e+00
1	 1.495909e+00	 9.877477e-01	-2.809362e+00
1	 1.483792e+00	 1.005858e+00	-3.226296e+00
1	 1.471441e+00	 1.023841e+00	-3.626858e+00
1	 1.458859e+00	 1.041691e+00	-4.010765e+00
1	 1.446047e+00	 1.059404e+00	-4.377693e+00
1	 1.514021e+00	 9.735200e-01	-2.248795e+00
1	 1.502090e+00	 9.918293e-01	-2.657757e+00
1	 1.489923e+00	 1.010015e+00	-3.049364e+00
1	 1.477521e+00	 1.028071e+00	-3.423459e+00
1	 1.464887e+00	 1.045995e+00	-3.779845e+00
1	 1.452022e+00	 1.063782e+00	-4.118286e+00
1	 1.520251e+00	 9.775262e-01	-2.124407e+00
1	 1.508272e+00	 9.959109e-01	-2.510181e+00
1	 1.496054e+00	 1.014171e+00	-2.877481e+00
1	 1.483602e+00	 1.032302e+00	-3.226195e+00
1	 1.470915e+00	 1.050300e+00	-3.556180e+00
1	 1.457997e+00	 1.068160e+00	-3.867262e+00
1	 1.526482e+00	 9.815325e-01	-2.003286e+00
1	 1.514453e+00	 9.999925e-01	-2.366688e+00
1	 1.502186e+00	 1.018327e+00	-2.710653e+00
1	 1.489682e+00	 1.036533e+00	-3.035075e+00
1	 1.476944e+00	 1.054604e+00	-3.339834e+00
1	 1.463973e+00	 1.072537e+00	-3.624796e+00
1	 1.434096e+00	 1.050649e+00	-4.920945e+00
1	 1.421164e+00	 1.068076e+00	-5.288850e+00
1	 1.408009e+00	 1.085359e+00	-5.559716e+00
1	 1.394634e+00	 1.102493e+00	-5.742003e+00
1	 1.381040e+00	 1.119474e+00	-5.845030e+00
1	 1.367231e+00	 1.136298e+00	-5.878961e+00
1	 1.440071e+00	 1.055027e+00	-4.645306e+00
1	 1.427086e+00	 1.072526e+00	-4.985074e+00
1	 1.413876e+00	 1.089881e+00	-5.233231e+00
1	 1.400445e+00	 1.107086e+00	-5.398465e+00
1	 1.386795e+00	 1.124138e+00	-5.490348e+00
1	 1.372928e+00	 1.141033e+00	-5.519314e+00
1	 1.446047e+00	 1.059404e+00	-4.377693e+00
1	 1.433007e+00	 1.076977e+00	-4.690207e+00
1	 1.419743e+00	 1.094403e+00	-4.916594e+00
1	 1.406256e+00	 1.111680e+00	-5.065754e+00
1	 1.392549e+00	 1.128803e+00	-5.147476e+00
1	 1.378624e+00	 1.145767e+00	-5.172430e+00
1	 1.452022e+00	 1.063782e+00	-4.118286e+00
1	 1.438929e+00	 1.081427e+00	-4.404539e+00
1	 1.425610e+00	 1.098925e+00	-4.610147e+00
1	 1.412067e+00	 1.116274e+00	-4.744197e+00
1	 1.398303e+00	 1.133467e+00	-4.816672e+00
1	 1.384321e+00	 1.150502e+00	-4.838433e+00
1	 1.457997e+00	 1.068160e+00	-3.867262e+00
1	 1.444850e+00	 1.085877e+00	-4.128354e+00
1	 1.431476e+00	 1.103448e+00	-4.314222e+00
1	 1.417878e+00	 1.120867e+00	-4.434118e+00
1	 1.404058e+00	 1.138132e+00	-4.498187e+00
1	 1.390018e+00	 1.155237e+00	-4.517446e+00
1	 1.463973e+00	 1.072537e+00	-3.624796e+00
1	 1.450772e+00	 1.090327e+00	-3.861935e+00
1	 1.437343e+00	 1.107970e+00	-4.029149e+00
1	 1.423689e+00	 1.125461e+00	-4.135835e+00
1	 1.409812e+00	 1.142796e+00	-4.192271e+00
1	 1.395715e+00	 1.159971e+00	-4.209591e+00
1	 1.367231e+00	 1.136298e+00	-5.878961e+00
1	 1.353209e+00	 1.152962e+00	-5.882183e+00
1	 1.338976e+00	 1.169460e+00	-5.886466e+00
1	 1.324537e+00	 1.185789e+00	-5.892666e+00
1	 1.309893e+00	 1.201946e+00	-5.901631e+00
1	 1.295048e+00	 1.217926e+00	-5.914199e+00
1	 1.372928e+00	 1.141033e+00	-5.519314e+00
1	 1.358847e+00	 1.157766e+00	-5.521187e+00
1	 1.344555e+00	 1.174333e+00	-5.524703e+00
1	 1.330056e+00	 1.190730e+00	-5.530274e+00
1	 1.315351e+00	 1.206954e+00	-5.538268e+00
1	 1.300444e+00	 1.223001e+00	-5.549010e+00
1	 1.378624e+00	 1.145767e+00	-5.172430e+00
1	 1.364485e+00	 1.162570e+00	-5.173679e+00
1	 1.350134e+00	 1.179205e+00	-5.176789e+00
1	 1.335574e+00	 1.195671e+00	-5.181773e+00
1	 1.320809e+00	 1.211962e+00	-5.188573e+00
1	 1.305840e+00	 1.228075e+00	-5.197059e+00
1	 1.384321e+00	 1.150502e+00	-4.838433e+00
1	 1.370124e+00	 1.167374e+00	-4.839644e+00
1	 1.355713e+00	 1.184078e+00	-4.842614e+00
1	 1.341093e+00	 1.200612e+00	-4.847004e+00
1	 1.326267e+00	 1.216970e+00	-4.852379e+00
1	 1.311236e+00	 1.233150e+00	-4.858210e+00
1	 1.390018e+00	 1.155237e+00	-4.517446e+00
1	 1.375762e+00	 1.172178e+00	-4.519067e+00
1	 1.361292e+00	 1.188951e+00	-4.522071e+00
1	 1.346612e+00	 1.205553e+00	-4.525807e+00
1	 1.331725e+00	 1.221978e+00	-4.529516e+00
1	 1.316633e+00	 1.238225e+00	-4.532329e+00
1	 1.395715e+00	 1.159971e+00	-4.209591e+00
1	 1.381400e+00	 1.176982e+00	-4.211935e+00
1	 1.366872e+00	 1.193824e+00	-4.215052e+00
1	 1.352131e+00	 1.210493e+00	-4.218027e+00
1	 1.337182e+00	 1.226987e+00	-4.219822e+00
1	 1.322029e+00	 1.243299e+00	-4.219286e+00
1	 1.295048e+00	 1.217926e+00	-5.914199e+00
1	 1.280006e+00	 1.233726e+00	-5.949541e+00
1	 1.264769e+00	 1.249341e+00	-6.026982e+00
1	 1.249341e+00	 1.264769e+00	-6.147566e+00
1	 1.233726e+00	 1.280006e+00	-6.312309e+00
1	 1.217926e+00	 1.295048e+00	-6.522198e+00
1	 1.300444e+00	 1.223001e+00	-5.549010e+00
1	 1.285339e+00	 1.238866e+00	-5.581253e+00
1	 1.270039e+00	 1.254547e+00	-5.654126e+00
1	 1.254547e+00	 1.270039e+00	-5.768464e+00
1	 1.238866e+00	 1.285339e+00	-5.925068e+00
1	 1.223001e+00	 1.300444e+00	-6.124699e+00
1	 1.305840e+00	 1.228075e+00	-5.197059e+00
1	 1.290673e+00	 1.244007e+00	-5.225698e+00
1	 1.275309e+00	 1.259752e+00	-5.293554e+00
1	 1.259752e+00	 1.275309e+00	-5.401301e+00
1	 1.244007e+00	 1.290673e+00	-5.549576e+00
1	 1.228075e+00	 1.305840e+00	-5.738973e+00
1	 1.311236e+00	 1.233150e+00	-4.858210e+00
1	 1.296006e+00	 1.249147e+00	-4.882804e+00
1	 1.280579e+00	 1.264958e+00	-4.945265e+00
1	 1.264958e+00	 1.280579e+00	-5.046161e+00
1	 1.249147e+00	 1.296006e+00	-5.186018e+00
1	 1.233150e+00	 1.311236e+00	-5.365313e+00
1	 1.316633e+00	 1.238225e+00	-4.532329e+00
1	 1.301339e+00	 1.254288e+00	-4.552495e+00
1	 1.285849e+00	 1.270163e+00	-4.609259e+00
1	 1.270163e+00	 1.285849e+00	-4.703131e+00
1	 1.254288e+00	 1.301339e+00	-4.834574e+00
1	 1.238225e+00	 1.316633e+00	-5.004007e+00
1	 1.322029e+00	 1.243299e+00	-4.219286e+00
1	 1.306673e+00	 1.259428e+00	-4.234701e+00
1	 1.291118e+00	 1.275369e+00	-4.285536e+00
1	 1.275369e+00	 1.291118e+00	-4.372292e+00
1	 1.259428e+00	 1.306673e+00	-4.495424e+00
1	 1.243299e+00	 1.322029e+00	-4.655340e+00
1	 1.217926e+00	 1.295048e+00	-6.522198e+00
1	 1.201946e+00	 1.309893e+00	-6.795785e+00
1	 1.185789e+00	 1.324537e+00	-7.147569e+00
1	 1.169460e+00	 1.338976e+00	-7.572228e+00
1	 1.152962e+00	 1.353209e+00	-8.064177e+00
1	 1.136298e+00	 1.367231e+00	-8.617581e+00
1	 1.223001e+00	 1.300444e+00	-6.124699e+00
1	 1.206954e+00	 1.315351e+00	-6.385135e+00
1	 1.190730e+00	 1.330056e+00	-6.720747e+00
1	 1.174333e+00	 1.344555e+00	-7.126996e+00
1	 1.157766e+00	 1.358847e+00	-7.599127e+00
1	 1.141033e+00	 1.372928e+00	-8.132181e+00
1	 1.228075e+00	 1.305840e+00	-5.738973e+00
1	 1.211962e+00	 1.320809e+00	-5.986678e+00
1	 1.195671e+00	 1.335574e+00	-6.306943e+00
1	 1.179205e+00	 1.350134e+00	-6.695789e+00
1	 1.162570e+00	 1.364485e+00	-7.149061e+00
1	 1.145767e+00	 1.378624e+00	-7.662428e+00
1	 1.233150e+00	 1.311236e+00	-5.365313e+00
1	 1.216970e+00	 1.326267e+00	-5.600781e+00
1	 1.200612e+00	 1.341093e+00	-5.906519e+00
1	 1.184078e+00	 1.355713e+00	-6.278888e+00
1	 1.167374e+00	 1.370124e+00	-6.714100e+00
1	 1.150502e+00	 1.384321e+00	-7.208219e+00
1	 1.238225e+00	 1.316633e+00	-5.004007e+00
1	 1.221978e+00	 1.331725e+00	-5.227807e+00
1	 1.205553e+00	 1.346612e+00	-5.519831e+00
1	 1.188951e+00	 1.361292e+00	-5.876568e+00
1	 1.172178e+00	 1.375762e+00	-6.294368e+00
1	 1.155237e+00	 1.390018e+00	-6.769451e+00
1	 1.243299e+00	 1.322029e+00	-4.655340e+00
1	 1.226987e+00	 1.337182e+00	-4.868110e+00
1	 1.210493e+00	 1.352131e+00	-5.147229e+00
1	 1.193824e+00	 1.366872e+00	-5.489098e+00
1	 1.176982e+00	 1.381400e+00	-5.889982e+00
1	 1.159971e+00	 1.395715e+00	-6.346024e+00
1	 1.136298e+00	 1.367231e+00	-8.617581e+00
1	 1.119474e+00	 1.381040e+00	-9.245351e+00
1	 1.102493e+00	 1.394634e+00	-9.949546e+00
1	 1.085359e+00	 1.408009e+00	-1.070724e+01
1	 1.068076e+00	 1.421164e+00	-1.149470e+01
1	 1.050649e+00	 1.434096e+00	-1.228748e+01
1	 1.141033e+00	 1.372928e+00	-8.132181e+00
1	 1.124138e+00	 1.386795e+00	-8.737302e+00
1	 1.107086e+00	 1.400445e+00	-9.414032e+00
1	 1.089881e+00	 1.413876e+00	-1.013921e+01
1	 1.072526e+00	 1.427086e+00	-1.088886e+01
1	 1.055027e+00	 1.440071e+00	-1.163823e+01
1	 1.145767e+00	 1.378624e+00	-7.662428e+00
1	 1.128803e+00	 1.392549e+00	-8.244932e+00
1	 1.111680e+00	 1.406256e+00	-8.893710e+00
1	 1.094403e+00	 1.419743e+00	-9.585804e+00
1	 1.076977e+00	 1.433007e+00	-1.029743e+01
1	 1.059404e+00	 1.446047e+00	-1.100401e+01
1	 1.150502e+00	 1.384321e+00	-7.208219e+00
1	 1.133467e+00	 1.398303e+00	-7.767947e+00
1	 1.116274e+00	 1.412067e+00	-8.388224e+00
1	 1.098925e+00	 1.425610e+00	-9.046727e+00
1	 1.081427e+00	 1.438929e+00	-9.720306e+00
1	 1.063782e+00	 1.452022e+00	-1.038504e+01
1	 1.155237e+00	 1.390018e+00	-6.769451e+00
1	 1.138132e+00	 1.404058e+00	-7.306052e+00
1	 1.120867e+00	 1.417878e+00	-7.897224e+00
1	 1.103448e+00	 1.431476e+00	-8.521696e+00
1	 1.085877e+00	 1.444850e+00	-9.157401e+00
1	 1.068160e+00	 1.457997e+00	-9.781525e+00
1	 1.159971e+00	 1.395715e+00	-6.346024e+00
1	 1.142796e+00	 1.409812e+00	-6.858962e+00
1	 1.125461e+00	 1.423689e+00	-7.420363e+00
1	 1.107970e+00	 1.437343e+00	-8.010432e+00
1	 1.090327e+00	 1.450772e+00	-8.608617e+00
1	 1.072537e+00	 1.463973e+00	-9.193658e+00
1	 1.050649e+00	 1.434096e+00	-1.228748e+01
1	 1.033082e+00	 1.446802e+00	-1.302697e+01
1	 1.015379e+00	 1.459280e+00	-1.367372e+01
1	 9.975453e-01	 1.471529e+00	-1.423169e+01
1	 9.795844e-01	 1.483546e+00	-1.470510e+01
1	 9.615012e-01	 1.495329e+00	-1.509846e+01
1	 1.055027e+00	 1.440071e+00	-1.163823e+01
1	 1.037386e+00	 1.452830e+00	-1.233226e+01
1	 1.019610e+00	 1.465361e+00	-1.293610e+01
1	 1.001702e+00	 1.477660e+00	-1.345505e+01
1	 9.836661e-01	 1.489727e+00	-1.389467e+01
1	 9.655075e-01	 1.501560e+00	-1.426086e+01
1	 1.059404e+00	 1.446047e+00	-1.100401e+01
1	 1.041691e+00	 1.458859e+00	-1.165455e+01
1	 1.023841e+00	 1.471441e+00	-1.221861e+01
1	 1.005858e+00	 1.483792e+00	-1.270224e+01
1	 9.877477e-01	 1.495909e+00	-1.311181e+01
1	 9.695137e-01	 1.507790e+00	-1.345400e+01
1	 1.063782e+00	 1.452022e+00	-1.038504e+01
1	 1.045995e+00	 1.464887e+00	-1.099433e+01
1	 1.028071e+00	 1.477521e+00	-1.152186e+01
1	 1.010015e+00	 1.489923e+00	-1.197389e+01
1	 9.918293e-01	 1.502090e+00	-1.235699e+01
1	 9.735200e-01	 1.514021e+00	-1.267806e+01
1	 1.068160e+00	 1.457997e+00	-9.781525e+00
1	 1.050300e+00	 1.470915e+00	-1.035209e+01
1	 1.032302e+00	 1.483602e+00	-1.084648e+01
1	 1.014171e+00	 1.496054e+00	-1.127060e+01
1	 9.959109e-01	 1.508272e+00	-1.163068e+01
1	 9.775262e-01	 1.520251e+00	-1.193324e+01
1	 1.072537e+00	 1.463973e+00	-9.193658e+00
1	 1.054604e+00	 1.476944e+00	-9.728312e+00
1	 1.036533e+00	 1.489682e+00	-1.019306e+01
1	 1.018327e+00	 1.502186e+00	-1.059296e+01
1	 9.999925e-01	 1.514453e+00	-1.093332e+01
1	 9.815325e-01	 1.526482e+00	-1.121973e+01
1	 9.615012e-01	 1.495329e+00	-1.509846e+01
1	 9.433001e-01	 1.506877e+00	-1.540162e+01
1	 9.249856e-01	 1.518188e+00	-1.560482e+01
1	 9.065622e-01	 1.529261e+00	-1.571341e+01
1	 8.880347e-01	 1.540094e+00	-1.573295e+01
1	 8.694074e-01	 1.550685e+00	-1.566918e+01
1	 9.655075e-01	 1.501560e+00	-1.426086e+01
1	 9.472305e-01	 1.513156e+00	-1.454423e+01
1	 9.288397e-01	 1.524514e+00	-1.473389e+01
1	 9.103396e-01	 1.535633e+00	-1.483378e+01
1	 8.917348e-01	 1.546511e+00	-1.484803e+01
1	 8.730300e-01	 1.557146e+00	-1.478092e+01
1	 9.695137e-01	 1.507790e+00	-1.345400e+01
1	 9.511609e-01	 1.519434e+00	-1.371947e+01
1	 9.326938e-01	 1.530840e+00	-1.389619e+01
1	 9.141169e-01	 1.542005e+00	-1.398711e+01
1	 8.954349e-01	 1.552928e+00	-1.399530e+01
1	 8.766525e-01	 1.563608e+00	-1.392400e+01
1	 9.735200e-01	 1.514021e+00	-1.267806e+01
1	 9.550913e-01	 1.525713e+00	-1.292725e+01
1	 9.365479e-01	 1.537166e+00	-1.309147e+01
1	 9.178943e-01	 1.548377e+00	-1.317304e+01
1	 8.991351e-01	 1.559345e+00	-1.317443e+01
1	 8.802750e-01	 1.570069e+00	-1.309820e+01
1	 9.775262e-01	 1.520251e+00	-1.193324e+01
1	 9.590217e-01	 1.531992e+00	-1.216749e+01
1	 9.404020e-01	 1.543491e+00	-1.231946e+01
1	 9.216716e-01	 1.554749e+00	-1.239125e+01
1	 9.028352e-01	 1.565762e+00	-1.238509e+01
1	 8.838975e-01	 1.576530e+00	-1.230331e+01
1	 9.815325e-01	 1.526482e+00	-1.121973e+01
1	 9.629522e-01	 1.538270e+00	-1.144010e+01
1	 9.442561e-01	 1.549817e+00	-1.157991e+01
1	 9.254490e-01	 1.561120e+00	-1.164140e+01
1	 9.065354e-01	 1.572179e+00	-1.162696e+01
1	 8.875201e-01	 1.582991e+00	-1.153910e+01
1	 8.694074e-01	 1.550685e+00	-1.566918e+01
1	 8.506851e-01	 1.561034e+00	-1.553468e+01
1	 8.318724e-01	 1.571140e+00	-1.533964e+01
1	 8.129739e-01	 1.581002e+00	-1.508651e+01
1	 7.939943e-01	 1.590618e+00	-1.477788e+01
1	 7.749380e-01	 1.599989e+00	-1.441647e+01
1	 8.730300e-01	 1.557146e+00	-1.478092e+01
1	 8.542297e-01	 1.567539e+00	-1.464374e+01
1	 8.353386e-01	 1.577687e+00	-1.444650e+01
1	 8.163613e-01	 1.587589e+00	-1.419173e+01
1	 7.973026e-01	 1.597246e+00	-1.388213e+01
1	 7.781670e-01	 1.606656e+00	-1.352051e+01
1	 8.766525e-01	 1.563608e+00	-1.392400e+01
1	 8.577742e-01	 1.574043e+00	-1.378369e+01
1	 8.388047e-01	 1.584233e+00	-1.358425e+01
1	 8.197487e-01	 1.594177e+00	-1.332820e+01
1	 8.006109e-01	 1.603874e+00	-1.301821e+01
1	 7.813959e-01	 1.613322e+00	-1.265707e+01
1	 8.802750e-01	 1.570069e+00	-1.309820e+01
1	 8.613187e-01	 1.580547e+00	-1.295442e+01
1	 8.422708e-01	 1.590780e+00	-1.275288e+01
1	 8.231361e-01	 1.600764e+00	-1.249597e+01
1	 8.039192e-01	 1.610501e+00	-1.218620e+01
1	 7.846248e-01	 1.619989e+00	-1.182621e+01
1	 8.838975e-01	 1.576530e+00	-1.230331e+01
1	 8.648632e-01	 1.587052e+00	-1.215586e+01
1	 8.457370e-01	 1.597326e+00	-1.195240e+01
1	 8.265235e-01	 1.607352e+00	-1.169509e+01
1	 8.072275e-01	 1.617129e+00	-1.138616e+01
1	 7.878537e-01	 1.626656e+00	-1.102798e+01
1	 8.875201e-01	 1.582991e+00	-1.153910e+01
1	 8.684078e-01	 1.593556e+00	-1.138790e+01
1	 8.492031e-01	 1.603872e+00	-1.118281e+01
1	 8.299109e-01	 1.613940e+00	-1.092561e+01
1	 8.105358e-01	 1.623756e+00	-1.061816e+01
1	 7.910826e-01	 1.633322e+00	-1.026245e+01
1	 7.749380e-01	 1.599989e+00	-1.441647e+01
1	 7.558099e-01	 1.609113e+00	-1.398367e+01
1	 7.366145e-01	 1.617990e+00	-1.347721e+01
1	 7.173565e-01	 1.626620e+00	-1.292459e+01
1	 6.980404e-01	 1.635003e+00	-1.235365e+01
1	 6.786708e-01	 1.643137e+00	-1.179244e+01
1	 7.781670e-01	 1.606656e+00	-1.352051e+01
1	 7.589591e-01	 1.615818e+00	-1.308990e+01
1	 7.396838e-01	 1.624732e+00	-1.258898e+01
1	 7.203455e-01	 1.633398e+00	-1.204436e+01
1	 7.009489e-01	 1.641815e+00	-1.148296e+01
1	 6.814986e-01	 1.649984e+00	-1.093195e+01
1	 7.813959e-01	 1.613322e+00	-1.265707e+01
1	 7.621083e-01	 1.622522e+00	-1.222927e+01
1	 7.427530e-01	 1.631474e+00	-1.173436e+01
1	 7.233345e-01	 1.640175e+00	-1.119809e+01
1	 7.038574e-01	 1.648628e+00	-1.064650e+01
1	 6.843264e-01	 1.656830e+00	-1.010583e+01
1	 7.846248e-01	 1.619989e+00	-1.182621e+01
1	 7.652576e-01	 1.629227e+00	-1.140180e+01
1	 7.458222e-01	 1.638215e+00	-1.091339e+01
1	 7.263234e-01	 1.646953e+00	-1.038583e+01
1	 7.067659e-01	 1.655440e+00	-9.844276e+00
1	 6.871542e-01	 1.663676e+00	-9.314126e+00
1	 7.878537e-01	 1.626656e+00	-1.102798e+01
1	 7.684068e-01	 1.635932e+00	-1.060755e+01
1	 7.488915e-01	 1.644957e+00	-1.012608e+01
1	 7.293124e-01	 1.653731e+00	-9.607568e+00
1	 7.096744e-01	 1.662253e+00	-9.076322e+00
1	 6.899820e-01	 1.670523e+00	-8.556864e+00
1	 7.910826e-01	 1.633322e+00	-1.026245e+01
1	 7.715560e-01	 1.642636e+00	-9.846542e+00
1	 7.519607e-01	 1.651699e+00	-9.372449e+00
1	 7.323014e-01	 1.660508e+00	-8.863338e+00
1	 7.125829e-01	 1.669065e+00	-8.342656e+00
1	 6.928098e-01	 1.677369e+00	-7.834081e+00
1	 6.786708e-01	 1.643137e+00	-1.179244e+01
1	 6.592523e-01	 1.651024e+00	-1.126887e+01
1	 6.397895e-01	 1.658663e+00	-1.079915e+01
1	 6.202868e-01	 1.666055e+00	-1.039396e+01
1	 6.007488e-01	 1.673199e+00	-1.006390e+01
1	 5.811800e-01	 1.680096e+00	-9.819448e+00
1	 6.814986e-01	 1.649984e+00	-1.093195e+01
1	 6.619992e-01	 1.657903e+00	-1.041734e+01
1	 6.424553e-01	 1.665574e+00	-9.954537e+00
1	 6.228714e-01	 1.672997e+00	-9.554880e+00
1	 6.032520e-01	 1.680171e+00	-9.229633e+00
1	 5.836016e-01	 1.687097e+00	-8.989960e+00
1	 6.843264e-01	 1.656830e+00	-1.010583e+01
1	 6.647461e-01	 1.664783e+00	-9.600356e+00
1	 6.451211e-01	 1.672485e+00	-9.144718e+00
1	 6.254559e-01	 1.679938e+00	-8.750886e+00
1	 6.057551e-01	 1.687142e+00	-8.430753e+00
1	 5.860231e-01	 1.694097e+00	-8.196127e+00
1	 6.871542e-01	 1.663676e+00	-9.314126e+00
1	 6.674930e-01	 1.671662e+00	-8.817962e+00
1	 6.477869e-01	 1.679396e+00	-8.369745e+00
1	 6.280404e-01	 1.686880e+00	-7.982028e+00
1	 6.082582e-01	 1.694114e+00	-7.667301e+00
1	 5.884447e-01	 1.701098e+00	-7.437966e+00
1	 6.899820e-01	 1.670523e+00	-8.556864e+00
1	 6.702399e-01	 1.678541e+00	-8.070206e+00
1	 6.504526e-01	 1.686307e+00	-7.629669e+00
1	 6.306249e-01	 1.693822e+00	-7.248356e+00
1	 6.107613e-01	 1.701086e+00	-6.939311e+00
1	 5.908663e-01	 1.708098e+00	-6.715498e+00
1	 6.928098e-01	 1.677369e+00	-7.834081e+00
1	 6.729867e-01	 1.685420e+00	-7.357133e+00
1	 6.531184e-01	 1.693219e+00	-6.924540e+00
1	 6.332095e-01	 1.700764e+00	-6.549916e+00
1	 6.132644e-01	 1.708057e+00	-6.246821e+00
1	 5.932879e-01	 1.715098e+00	-6.028740e+00
1	 5.811800e-01	 1.680096e+00	-9.819448e+00
1	 5.615847e-01	 1.686747e+00	-9.687837e+00
1	 5.419673e-01	 1.693152e+00	-9.699227e+00
1	 5.223323e-01	 1.699312e+00	-9.868290e+00
1	 5.026840e-01	 1.705228e+00	-1.020952e+01
1	 4.830265e-01	 1.710900e+00	-1.073722e+01
1	 5.836016e-01	 1.687097e+00	-8.989960e+00
1	 5.639246e-01	 1.693775e+00	-8.863808e+00
1	 5.442255e-01	 1.700207e+00	-8.880924e+00
1	 5.245087e-01	 1.706393e+00	-9.054976e+00
1	 5.047785e-01	 1.712333e+00	-9.399461e+00
1	 4.850391e-01	 1.718029e+00	-9.927681e+00
1	 5.860231e-01	 1.694097e+00	-8.196127e+00
1	 5.662646e-01	 1.700804e+00	-8.075542e+00
1	 5.464837e-01	 1.707262e+00	-8.098245e+00
1	 5.266851e-01	 1.713473e+00	-8.276913e+00
1	 5.068730e-01	 1.719438e+00	-8.624055e+00
1	 4.870517e-01	 1.725158e+00	-9.151984e+00
1	 5.884447e-01	 1.701098e+00	-7.437966e+00
1	 5.686045e-01	 1.707832e+00	-7.323036e+00
1	 5.487419e-01	 1.714317e+00	-7.351172e+00
1	 5.288615e-01	 1.720554e+00	-7.534070e+00
1	 5.089675e-01	 1.726543e+00	-7.883258e+00
1	 4.890643e-01	 1.732286e+00	-8.410075e+00
1	 5.908663e-01	 1.708098e+00	-6.715498e+00
1	 5.709444e-01	 1.714860e+00	-6.606290e+00
1	 5.510001e-01	 1.721372e+00	-6.639688e+00
1	 5.310379e-01	 1.727634e+00	-6.826416e+00
1	 5.110620e-01	 1.733649e+00	-7.177030e+00
1	 4.910769e-01	 1.739415e+00	-7.701904e+00
1	 5.932879e-01	 1.715098e+00	-6.028740e+00
1	 5.732844e-01	 1.721888e+00	-5.925303e+00
1	 5.532583e-01	 1.728426e+00	-5.963777e+00
1	 5.332143e-01	 1.734715e+00	-6.153920e+00
1	 5.131565e-01	 1.740754e+00	-6.505330e+00
1	 4.930895e-01	 1.746544e+00	-7.027421e+00
1	 4.830265e-01	 1.710900e+00	-1.073722e+01
1	 4.633641e-01	 1.716330e+00	-1.146195e+01
1	 4.437011e-01	 1.721518e+00	-1.238866e+01
1	 4.240415e-01	 1.726465e+00	-1.352286e+01
1	 4.043894e-01	 1.731174e+00	-1.486977e+01
1	 3.847489e-01	 1.735645e+00	-1.643434e+01
1	 4.850391e-01	 1.718029e+00	-9.927681e+00
1	 4.652948e-01	 1.723481e+00	-1.064912e+01
1	 4.455499e-01	 1.728691e+00	-1.156879e+01
1	 4.258084e-01	 1.733659e+00	-1.269293e+01
1	 4.060744e-01	 1.738387e+00	-1.402752e+01
1	 3.863520e-01	 1.742876e+00	-1.557826e+01
1	 4.870517e-01	 1.725158e+00	-9.151984e+00
1	 4.672255e-01	 1.730632e+00	-9.869144e+00
1	 4.473986e-01	 1.735864e+00	-1.078057e+01
1	 4.275752e-01	 1.740853e+00	-1.189312e+01
1	 4.077594e-01	 1.745600e+00	-1.321339e+01
1	 3.879551e-01	 1.750108e+00	-1.474769e+01
1	 4.890643e-01	 1.732286e+00	-8.410075e+00
1	 4.691562e-01	 1.737784e+00	-9.121965e+00
1	 4.492474e-01	 1.743037e+00	-1.002394e+01
1	 4.293420e-01	 1.748046e+00	-1.112333e+01
1	 4.094443e-01	 1.752814e+00	-1.242724e+01
1	 3.895583e-01	 1.757340e+00	-1.394245e+01
1	 4.910769e-01	 1.739415e+00	-7.701904e+00
1	 4.710869e-01	 1.744935e+00	-8.407518e+00
1	 4.510961e-01	 1.750210e+00	-9.298800e+00
1	 4.311089e-01	 1.755240e+00	-1.038345e+01
1	 4.111293e-01	 1.760027e+00	-1.166892e+01
1	 3.911614e-01	 1.764572e+00	-1.316236e+01
1	 4.930895e-01	 1.746544e+00	-7.027421e+00
1	 4.730176e-01	 1.752087e+00	-7.725743e+00
1	 4.529449e-01	 1.757383e+00	-8.605081e+00
1	 4.328757e-01	 1.762433e+00	-9.673373e+00
1	 4.128142e-01	 1.767240e+00	-1.093829e+01
1	 3.927645e-01	 1.771804e+00	-1.240726e+01
1	 3.847489e-01	 1.735645e+00	-1.643434e+01
1	 3.651239e-01	 1.739879e+00	-1.823995e+01
1	 3.455182e-01	 1.743878e+00	-2.027261e+01
1	 3.259358e-01	 1.747644e+00	-2.248121e+01
1	 3.063805e-01	 1.751178e+00	-2.481486e+01
1	 2.868559e-01	 1.754482e+00	-2.722300e+01
1	 3.863520e-01	 1.742876e+00	-1.557826e+01
1	 3.666452e-01	 1.747128e+00	-1.736783e+01
1	 3.469579e-01	 1.751144e+00	-1.938150e+01
1	 3.272939e-01	 1.754926e+00	-2.156877e+01
1	 3.076571e-01	 1.758475e+00	-2.387940e+01
1	 2.880511e-01	 1.761792e+00	-2.626344e+01
1	 3.879551e-01	 1.750108e+00	-1.474769e+01
1	 3.681666e-01	 1.754378e+00	-1.651793e+01
1	 3.483975e-01	 1.758410e+00	-1.850873e+01
1	 3.286520e-01	 1.762208e+00	-2.067034e+01
1	 3.089337e-01	 1.765771e+00	-2.295327e+01
1	 2.892464e-01	 1.769103e+00	-2.530833e+01
1	 3.895583e-01	 1.757340e+00	-1.394245e+01
1	 3.696879e-01	 1.761627e+00	-1.569005e+01
1	 3.498372e-01	 1.765677e+00	-1.765407e+01
1	 3.300100e-01	 1.769490e+00	-1.978567e+01
1	 3.102103e-01	 1.773068e+00	-2.203622e+01
1	 2.904416e-01	 1.776413e+00	-2.435742e+01
1	 3.911614e-01	 1.764572e+00	-1.316236e+01
1	 3.712093e-01	 1.768877e+00	-1.488397e+01
1	 3.512769e-01	 1.772943e+00	-1.681730e+01
1	 3.313681e-01	 1.776771e+00	-1.891453e+01
1	 3.114868e-01	 1.780364e+00	-2.112802e+01
1	 2.916368e-01	 1.783723e+00	-2.341048e+01
1	 3.927645e-01	 1.771804e+00	-1.240726e+01
1	 3.727306e-01	 1.776126e+00	-1.409948e+01
1	 3.527165e-01	 1.780209e+00	-1.599819e+01
1	 3.327262e-01	 1.784053e+00	-1.805667e+01
1	 3.127634e-01	 1.787661e+00	-2.022842e+01
1	 2.928321e-01	 1.791034e+00	-2.246726e+01
1	 2.868559e-01	 1.754482e+00	-2.722300e+01
1	 2.673657e-01	 1.757558e+00	-2.965376e+01
1	 2.479135e-01	 1.760407e+00	-3.206718e+01
1	 2.285029e-01	 1.763032e+00	-3.443123e+01
1	 2.091372e-01	 1.765434e+00	-3.671428e+01
1	 1.898199e-01	 1.767615e+00	-3.888515e+01
1	 2.880511e-01	 1.761792e+00	-2.626344e+01
1	 2.684797e-01	 1.764881e+00	-2.866978e+01
1	 2.489465e-01	 1.767742e+00	-3.105892e+01
1	 2.294550e-01	 1.770378e+00	-3.339901e+01
1	 2.100086e-01	 1.772789e+00	-3.565857e+01
1	 1.906108e-01	 1.774980e+00	-3.780660e+01
1	 2.892464e-01	 1.769103e+00	-2.530833e+01
1	 2.695938e-01	 1.772204e+00	-2.768524e+01
1	 2.499795e-01	 1.775077e+00	-3.004500e+01
1	 2.304071e-01	 1.777723e+00	-3.235593e+01
1	 2.108800e-01	 1.780145e+00	-3.458675e+01
1	 1.914017e-01	 1.782345e+00	-3.670661e+01
1	 2.904416e-01	 1.776413e+00	-2.435742e+01
1	 2.707078e-01	 1.779527e+00	-2.669991e+01
1	 2.510124e-01	 1.782412e+00	-2.902520e+01
1	 2.313592e-01	 1.785069e+00	-3.130180e+01
1	 2.117514e-01	 1.787501e+00	-3.349862e+01
1	 1.921926e-01	 1.789710e+00	-3.558502e+01
1	 2.916368e-01	 1.783723e+00	-2.341048e+01
1	 2.718218e-01	 1.786850e+00	-2.571357e+01
1	 2.520454e-01	 1.789747e+00	-2.799930e+01
1	 2.323112e-01	 1.792415e+00	-3.023641e+01
1	 2.126228e-01	 1.794857e+00	-3.239401e+01
1	 1.929835e-01	 1.797075e+00	-3.444168e+01
1	 2.928321e-01	 1.791034e+00	-2.246726e+01
1	 2.729358e-01	 1.794174e+00	-2.472598e+01
1	 2.530784e-01	 1.797082e+00	-2.696709e+01
1	 2.332633e-01	 1.799761e+00	-2.915957e+01
1	 2.134942e-01	 1.802213e+00	-3.127275e+01
1	 1.937744e-01	 1.804440e+00	-3.327644e+01
1	 1.898199e-01	 1.767615e+00	-3.888515e+01
1	 1.705542e-01	 1.769578e+00	-4.090854e+01
1	 1.513435e-01	 1.771324e+00	-4.274763e+01
1	 1.321909e-01	 1.772856e+00	-4.436983e+01
1	 1.130994e-01	 1.774177e+00	-4.574324e+01
1	 9.407220e-02	 1.775287e+00	-4.683672e+01
1	 1.906108e-01	 1.774980e+00	-3.780660e+01
1	 1.712649e-01	 1.776951e+00	-3.980814e+01
1	 1.519741e-01	 1.778705e+00	-4.162727e+01
1	 1.327417e-01	 1.780243e+00	-4.323236e+01
1	 1.135707e-01	 1.781569e+00	-4.459248e+01
1	 9.446417e-02	 1.782684e+00	-4.567742e+01
1	 1.914017e-01	 1.782345e+00	-3.670661e+01
1	 1.719755e-01	 1.784324e+00	-3.868098e+01
1	 1.526047e-01	 1.786085e+00	-4.047497e+01
1	 1.332925e-01	 1.787630e+00	-4.205808e+01
1	 1.140419e-01	 1.788961e+00	-4.340049e+01
1	 9.485613e-02	 1.790081e+00	-4.447305e+01
1	 1.921926e-01	 1.789710e+00	-3.558502e+01
1	 1.726861e-01	 1.791697e+00	-3.752692e+01
1	 1.532353e-01	 1.793466e+00	-3.929063e+01
1	 1.338432e-01	 1.795017e+00	-4.084691e+01
1	 1.145132e-01	 1.796354e+00	-4.216717e+01
1	 9.524810e-02	 1.797478e+00	-4.322350e+01
1	 1.929835e-01	 1.797075e+00	-3.444168e+01
1	 1.733968e-01	 1.799071e+00	-3.634584e+01
1	 1.538659e-01	 1.800846e+00	-3.807414e+01
1	 1.343940e-01	 1.802404e+00	-3.959873e+01
1	 1.149844e-01	 1.803746e+00	-4.089242e+01
1	 9.564007e-02	 1.804875e+00	-4.192865e+01
1	 1.937744e-01	 1.804440e+00	-3.327644e+01
1	 1.741074e-01	 1.806444e+00	-3.513762e+01
1	 1.544965e-01	 1.808227e+00	-3.682539e+01
1	 1.349448e-01	 1.809791e+00	-3.831346e+01
1	 1.154557e-01	 1.811139e+00	-3.957614e+01
1	 9.603204e-02	 1.812272e+00	-4.058838e+01
1	 9.407220e-02	 1.775287e+00	-4.683672e+01
1	 7.511214e-02	 1.776190e+00	-4.761973e+01
1	 5.622213e-02	 1.776889e+00	-4.806278e+01
1	 3.740496e-02	 1.777384e+00	-4.813744e+01
1	 1.866337e-02	 1.777680e+00	-4.781613e+01
1	 0.000000e+00	 1.777778e+00	-4.707214e+01
1	 9.446417e-02	 1.782684e+00	-4.567742e+01
1	 7.542511e-02	 1.783591e+00	-4.645733e+01
1	 5.645639e-02	 1.784292e+00	-4.690286e+01
1	 3.756081e-02	 1.784790e+00	-4.698567e+01
1	 1.874113e-02	 1.785087e+00	-4.667823e+01
1	 0.000000e+00	 1.785185e+00	-4.595391e+01
1	 9.485613e-02	 1.790081e+00	-4.447305e+01
1	 7.573808e-02	 1.790992e+00	-4.524674e+01
1	 5.669065e-02	 1.791696e+00	-4.569244e+01
1	 3.771667e-02	 1.792196e+00	-4.578202e+01
1	 1.881890e-02	 1.792494e+00	-4.548818e+01
1	 0.000000e+00	 1.792593e+00	-4.478446e+01
1	 9.524810e-02	 1.797478e+00	-4.322350e+01
1	 7.605104e-02	 1.798393e+00	-4.398781e+01
1	 5.692490e-02	 1.799100e+00	-4.443134e+01
1	 3.787252e-02	 1.799602e+00	-4.452632e+01
1	 1.889666e-02	 1.799901e+00	-4.424579e+01
1	 0.000000e+00	 1.800000e+00	-4.356361e+01
1	 9.564007e-02	 1.804875e+00	-4.192865e+01
1	 7.636401e-02	 1.805793e+00	-4.268040e+01
1	 5.715916e-02	 1.806503e+00	-4.311942e+01
1	 3.802838e-02	 1.807007e+00	-4.321842e+01
1	 1.897442e-02	 1.807308e+00	-4.295089e+01
1	 0.000000e+00	 1.807407e+00	-4.229116e+01
1	 9.603204e-02	 1.812272e+00	-4.058838e+01
1	 7.667698e-02	 1.813194e+00	-4.132437e+01
1	 5.739342e-02	 1.813907e+00	-4.175652e+01
1	 3.818423e-02	 1.814413e+00	-4.185814e+01
1	 1.905219e-02	 1.814715e+00	-4.160331e+01
1	 0.000000e+00	 1.814815e+00	-4.096693e+01
1	 1.814815e+00	 0.000000e+00	 8.713788e+00
1	 1.814715e+00	 1.905219e-02	 8.660930e+00
1	 1.814413e+00	 3.818423e-02	 8.547389e+00
1	 1.813907e+00	 5.739342e-02	 8.378506e+00
1	 1.813194e+00	 7.667698e-02	 8.159702e+00
1	 1.812272e+00	 9.603204e-02	 7.896467e+00
1	 1.822222e+00	 0.000000e+00	 8.373264e+00
1	 1.822122e+00	 1.912995e-02	 8.326376e+00
1	 1.821819e+00	 3.834008e-02	 8.220391e+00
1	 1.821311e+00	 5.762768e-02	 8.060518e+00
1	 1.820595e+00	 7.698994e-02	 7.852043e+00
1	 1.819669e+00	 9.642400e-02	 7.600320e+00
1	 1.829630e+00	 0.000000e+00	 8.026660e+00
1	 1.829529e+00	 1.920772e-02	 7.985340e+00
1	 1.829225e+00	 3.849594e-02	 7.886659e+00
1	 1.828714e+00	 5.786194e-02	 7.735698e+00
1	 1.827996e+00	 7.730291e-02	 7.537611e+00
1	 1.827066e+00	 9.681597e-02	 7.297618e+00
1	 1.837037e+00	 0.000000e+00	 7.673981e+00
1	 1.836936e+00	 1.928548e-02	 7.637819e+00
1	 1.836630e+00	 3.865179e-02	 7.546176e+00
1	 1.836118e+00	 5.809620e-02	 7.404007e+00
1	 1.835397e+00	 7.761588e-02	 7.216337e+00
1	 1.834463e+00	 9.720794e-02	 6.988259e+00
1	 1.844444e+00	 0.000000e+00	 7.315229e+00
1	 1.844343e+00	 1.936324e-02	 7.283809e+00
1	 1.844036e+00	 3.880765e-02	 7.198923e+00
1	 1.843522e+00	 5.833046e-02	 7.065405e+00
1	 1.842797e+00	 7.792885e-02	 6.888156e+00
1	 1.841860e+00	 9.759991e-02	 6.672139e+00
1	 1.851852e+00	 0.000000e+00	 6.950410e+00
1	 1.851750e+00	 1.944101e-02	 6.923308e+00
1	 1.851442e+00	 3.896350e-02	 6.844884e+00
1	 1.850926e+00	 5.856472e-02	 6.719854e+00
1	 1.850198e+00	 7.824181e-02	 6.552999e+00
1	 1.849257e+00	 9.799187e-02	 6.349158e+00
1	 1.812272e+00	 9.603204e-02	 7.896467e+00
1	 1.811139e+00	 1.154557e-01	 7.591685e+00
1	 1.809791e+00	 1.349448e-01	 7.247784e+00
1	 1.808227e+00	 1.544965e-01	 6.869665e+00
1	 1.806444e+00	 1.741074e-01	 6.462283e+00
1	 1.804440e+00	 1.937744e-01	 6.030642e+00
1	 1.819669e+00	 9.642400e-02	 7.600320e+00
1	 1.818531e+00	 1.159269e-01	 7.308179e+00
1	 1.817178e+00	 1.354956e-01	 6.977896e+00
1	 1.815607e+00	 1.551271e-01	 6.614081e+00
1	 1.813817e+00	 1.748181e-01	 6.221396e+00
1	 1.811805e+00	 1.945654e-01	 5.804544e+00
1	 1.827066e+00	 9.681597e-02	 7.297618e+00
1	 1.825923e+00	 1.163982e-01	 7.018494e+00
1	 1.824565e+00	 1.360464e-01	 6.702349e+00
1	 1.822988e+00	 1.557577e-01	 6.353499e+00
1	 1.821190e+00	 1.755287e-01	 5.976306e+00
1	 1.819170e+00	 1.953563e-01	 5.575169e+00
1	 1.834463e+00	 9.720794e-02	 6.988259e+00
1	 1.833316e+00	 1.168694e-01	 6.722487e+00
1	 1.831951e+00	 1.365972e-01	 6.420966e+00
1	 1.830368e+00	 1.563883e-01	 6.087709e+00
1	 1.828564e+00	 1.762394e-01	 5.726774e+00
1	 1.826535e+00	 1.961472e-01	 5.342252e+00
1	 1.841860e+00	 9.759991e-02	 6.672139e+00
1	 1.840708e+00	 1.173407e-01	 6.420019e+00
1	 1.839338e+00	 1.371480e-01	 6.133571e+00
1	 1.837749e+00	 1.570189e-01	 5.816504e+00
1	 1.835937e+00	 1.769500e-01	 5.472564e+00
1	 1.833900e+00	 1.969381e-01	 5.105531e+00
1	 1.849257e+00	 9.799187e-02	 6.349158e+00
1	 1.848101e+00	 1.178119e-01	 6.110952e+00
1	 1.846725e+00	 1.376988e-01	 5.839993e+00
1	 1.845129e+00	 1.576495e-01	 5.539680e+00
1	 1.843310e+00	 1.776606e-01	 5.213444e+00
1	 1.841265e+00	 1.977290e-01	 4.864748e+00
1	 1.804440e+00	 1.937744e-01	 6.030642e+00
1	 1.802213e+00	 2.134942e-01	 5.581118e+00
1	 1.799761e+00	 2.332633e-01	 5.120455e+00
1	 1.797082e+00	 2.530784e-01	 4.654236e+00
1	 1.794174e+00	 2.729358e-01	 4.188041e+00
1	 1.791034e+00	 2.928321e-01	 3.727438e+00
1	 1.811805e+00	 1.945654e-01	 5.804544e+00
1	 1.809569e+00	 2.143656e-01	 5.369567e+00
1	 1.807107e+00	 2.342154e-01	 4.923028e+00
1	 1.804417e+00	 2.541114e-01	 4.470444e+00
1	 1.801497e+00	 2.740499e-01	 4.017333e+00
1	 1.798344e+00	 2.940273e-01	 3.569199e+00
1	 1.819170e+00	 1.953563e-01	 5.575169e+00
1	 1.816925e+00	 2.152370e-01	 5.155789e+00
1	 1.814453e+00	 2.351675e-01	 4.724511e+00
1	 1.811752e+00	 2.551443e-01	 4.286731e+00
1	 1.808820e+00	 2.751639e-01	 3.847851e+00
1	 1.805655e+00	 2.952225e-01	 3.413261e+00
1	 1.826535e+00	 1.961472e-01	 5.342252e+00
1	 1.824281e+00	 2.161084e-01	 4.939502e+00
1	 1.821799e+00	 2.361196e-01	 4.524614e+00
1	 1.819087e+00	 2.561773e-01	 4.102815e+00
1	 1.816143e+00	 2.762779e-01	 3.679335e+00
1	 1.812965e+00	 2.964178e-01	 3.259402e+00
1	 1.833900e+00	 1.969381e-01	 5.105531e+00
1	 1.831637e+00	 2.169798e-01	 4.720424e+00
1	 1.829145e+00	 2.370717e-01	 4.323053e+00
1	 1.826422e+00	 2.572103e-01	 3.918418e+00
1	 1.823466e+00	 2.773919e-01	 3.511530e+00
1	 1.820275e+00	 2.976130e-01	 3.107403e+00
1	 1.841265e+00	 1.977290e-01	 4.864748e+00
1	 1.838993e+00	 2.178512e-01	 4.498281e+00
1	 1.836491e+00	 2.380238e-01	 4.119545e+00
1	 1.833757e+00	 2.582433e-01	 3.733267e+00
1	 1.830789e+00	 2.785059e-01	 3.344185e+00
1	 1.827586e+00	 2.988082e-01	 2.957050e+00
1	 1.791034e+00	 2.928321e-01	 3.727438e+00
1	 1.787661e+00	 3.127634e-01	 3.279427e+00
1	 1.784053e+00	 3.327262e-01	 2.852576e+00
1	 1.780209e+00	 3.527165e-01	 2.454771e+00
1	 1.776126e+00	 3.727306e-01	 2.093851e+00
1	 1.771804e+00	 3.927645e-01	 1.777593e+00
1	 1.798344e+00	 2.940273e-01	 3.569199e+00
1	 1.794958e+00	 3.140400e-01	 3.132923e+00
1	 1.791335e+00	 3.340842e-01	 2.716876e+00
1	 1.787475e+00	 3.541562e-01	 2.328774e+00
1	 1.783376e+00	 3.742520e-01	 1.976290e+00
1	 1.779036e+00	 3.943676e-01	 1.667038e+00
1	 1.805655e+00	 2.952225e-01	 3.413261e+00
1	 1.802254e+00	 3.153166e-01	 2.989682e+00
1	 1.798617e+00	 3.354423e-01	 2.585290e+00
1	 1.794741e+00	 3.555958e-01	 2.207636e+00
1	 1.790625e+00	 3.757733e-01	 1.864230e+00
1	 1.786268e+00	 3.959707e-01	 1.562528e+00
1	 1.812965e+00	 2.964178e-01	 3.259402e+00
1	 1.809551e+00	 3.165932e-01	 2.849521e+00
1	 1.805899e+00	 3.368004e-01	 2.457657e+00
1	 1.802007e+00	 3.570355e-01	 2.091202e+00
1	 1.797875e+00	 3.772947e-01	 1.757510e+00
1	 1.793499e+00	 3.975739e-01	 1.463882e+00
1	 1.820275e+00	 2.976130e-01	 3.107403e+00
1	 1.816847e+00	 3.178698e-01	 2.712258e+00
1	 1.813181e+00	 3.381584e-01	 2.333817e+00
1	 1.809274e+00	 3.584752e-01	 1.979322e+00
1	 1.805124e+00	 3.788160e-01	 1.655974e+00
1	 1.800731e+00	 3.991770e-01	 1.370920e+00
1	 1.827586e+00	 2.988082e-01	 2.957050e+00
1	 1.824144e+00	 3.191463e-01	 2.577714e+00
1	 1.820463e+00	 3.395165e-01	 2.213614e+00
1	 1.816540e+00	 3.599148e-01	 1.871846e+00
1	 1.812374e+00	 3.803374e-01	 1.559464e+00
1	 1.807963e+00	 4.007801e-01	 1.283464e+00
1	 1.771804e+00	 3.927645e-01	 1.777593e+00
1	 1.767240e+00	 4.128142e-01	 1.505777e+00
1	 1.762433e+00	 4.328757e-01	 1.271678e+00
1	 1.757383e+00	 4.529449e-01	 1.073172e+00
1	 1.752087e+00	 4.730176e-01	 9.080157e-01
1	 1.746544e+00	 4.930895e-01	 7.738488e-01
1	 1.779036e+00	 3.943676e-01	 1.667038e+00
1	 1.774453e+00	 4.144992e-01	 1.401003e+00
1	 1.769627e+00	 4.346426e-01	 1.171769e+00
1	 1.764556e+00	 4.547936e-01	 9.772047e-01
1	 1.759238e+00	 4.749482e-01	 8.150630e-01
1	 1.753673e+00	 4.951021e-01	 6.829771e-01
1	 1.786268e+00	 3.959707e-01	 1.562528e+00
1	 1.781666e+00	 4.161841e-01	 1.302708e+00
1	 1.776821e+00	 4.364094e-01	 1.078658e+00
1	 1.771729e+00	 4.566424e-01	 8.882634e-01
1	 1.766389e+00	 4.768789e-01	 7.292921e-01
1	 1.760801e+00	 4.971148e-01	 5.993969e-01
1	 1.793499e+00	 3.975739e-01	 1.463882e+00
1	 1.788880e+00	 4.178691e-01	 1.210686e+00
1	 1.784014e+00	 4.381762e-01	 9.921259e-01
1	 1.778902e+00	 4.584911e-01	 8.061234e-01
1	 1.773541e+00	 4.788096e-01	 6.504853e-01
1	 1.767930e+00	 4.991274e-01	 5.229069e-01
1	 1.800731e+00	 3.991770e-01	 1.370920e+00
1	 1.796093e+00	 4.195541e-01	 1.124731e+00
1	 1.791208e+00	 4.399431e-01	 9.119542e-01
1	 1.786075e+00	 4.603399e-01	 7.305639e-01
1	 1.780692e+00	 4.807403e-01	 5.784283e-01
1	 1.775059e+00	 5.011400e-01	 4.533089e-01
1	 1.807963e+00	 4.007801e-01	 1.283464e+00
1	 1.803306e+00	 4.212390e-01	 1.044645e+00
1	 1.798401e+00	 4.417099e-01	 8.379294e-01
1	 1.793248e+00	 4.621887e-01	 6.613676e-01
1	 1.787843e+00	 4.826710e-01	 5.129102e-01
1	 1.782188e+00	 5.031526e-01	 3.904080e-01
1	 1.746544e+00	 4.930895e-01	 7.738488e-01
1	 1.740754e+00	 5.131565e-01	 6.700722e-01
1	 1.734715e+00	 5.332143e-01	 5.959530e-01
1	 1.728426e+00	 5.532583e-01	 5.487847e-01
1	 1.721888e+00	 5.732844e-01	 5.257889e-01
1	 1.715098e+00	 5.932879e-01	 5.241191e-01
1	 1.753673e+00	 4.951021e-01	 6.829771e-01
1	 1.747859e+00	 5.152511e-01	 5.805152e-01
1	 1.741795e+00	 5.353906e-01	 5.072344e-01
1	 1.735481e+00	 5.555165e-01	 4.606080e-01
1	 1.728916e+00	 5.756243e-01	 4.380359e-01
1	 1.722099e+00	 5.957095e-01	 4.368488e-01
1	 1.760801e+00	 4.971148e-01	 5.993969e-01
1	 1.754964e+00	 5.173456e-01	 4.983176e-01
1	 1.748876e+00	 5.375670e-01	 4.258888e-01
1	 1.742536e+00	 5.577747e-01	 3.797625e-01
1	 1.735944e+00	 5.779642e-01	 3.575158e-01
1	 1.729099e+00	 5.981311e-01	 3.566541e-01
1	 1.767930e+00	 4.991274e-01	 5.229069e-01
1	 1.762069e+00	 5.194401e-01	 4.232980e-01
1	 1.755956e+00	 5.397434e-01	 3.517524e-01
1	 1.749591e+00	 5.600329e-01	 3.060995e-01
1	 1.742972e+00	 5.803042e-01	 2.840920e-01
1	 1.736100e+00	 6.005526e-01	 2.834086e-01
1	 1.775059e+00	 5.011400e-01	 4.533089e-01
1	 1.769174e+00	 5.215346e-01	 3.552780e-01
1	 1.763037e+00	 5.419198e-01	 2.846639e-01
1	 1.756646e+00	 5.622911e-01	 2.394723e-01
1	 1.750000e+00	 5.826441e-01	 2.176301e-01
1	 1.743100e+00	 6.029742e-01	 2.169875e-01
1	 1.782188e+00	 5.031526e-01	 3.904080e-01
1	 1.776279e+00	 5.236291e-01	 2.940822e-01
1	 1.770117e+00	 5.440962e-01	 2.244647e-01
1	 1.763700e+00	 5.645493e-01	 1.797367e-01
1	 1.757028e+00	 5.849840e-01	 1.579979e-01
1	 1.750100e+00	 6.053958e-01	 1.572681e-01
1	 1.715098e+00	 5.932879e-01	 5.241191e-01
1	 1.708057e+00	 6.132644e-01	 5.361583e-01
1	 1.700764e+00	 6.332095e-01	 5.543944e-01
1	 1.693219e+00	 6.531184e-01	 5.761127e-01
1	 1.685420e+00	 6.729867e-01	 5.986328e-01
1	 1.677369e+00	 6.928098e-01	 6.193141e-01
1	 1.722099e+00	 5.957095e-01	 4.368488e-01
1	 1.715029e+00	 6.157676e-01	 4.498404e-01
1	 1.707706e+00	 6.357940e-01	 4.697165e-01
1	 1.700130e+00	 6.557842e-01	 4.936455e-01
1	 1.692300e+00	 6.757336e-01	 5.188266e-01
1	 1.684216e+00	 6.956376e-01	 5.424953e-01
1	 1.729099e+00	 5.981311e-01	 3.566541e-01
1	 1.722001e+00	 6.182707e-01	 3.703877e-01
1	 1.714648e+00	 6.383785e-01	 3.916509e-01
1	 1.707041e+00	 6.584500e-01	 4.175007e-01
1	 1.699179e+00	 6.784805e-01	 4.450215e-01
1	 1.691062e+00	 6.984654e-01	 4.713303e-01
1	 1.736100e+00	 6.005526e-01	 2.834086e-01
1	 1.728972e+00	 6.207738e-01	 2.976812e-01
1	 1.721590e+00	 6.409631e-01	 3.200835e-01
1	 1.713952e+00	 6.611158e-01	 3.475671e-01
1	 1.706058e+00	 6.812274e-01	 3.771067e-01
1	 1.697908e+00	 7.012932e-01	 4.057064e-01
1	 1.743100e+00	 6.029742e-01	 2.169875e-01
1	 1.735944e+00	 6.232769e-01	 2.316036e-01
1	 1.728532e+00	 6.435476e-01	 2.549023e-01
1	 1.720863e+00	 6.637816e-01	 2.837354e-01
1	 1.712937e+00	 6.839743e-01	 3.149736e-01
1	 1.704755e+00	 7.041210e-01	 3.455127e-01
1	 1.750100e+00	 6.053958e-01	 1.572681e-01
1	 1.742916e+00	 6.257800e-01	 1.720395e-01
1	 1.735474e+00	 6.461321e-01	 1.959969e-01
1	 1.727774e+00	 6.664474e-01	 2.258980e-01
1	 1.719817e+00	 6.867212e-01	 2.585149e-01
1	 1.711601e+00	 7.069488e-01	 2.906402e-01
1	 1.677369e+00	 6.928098e-01	 6.193141e-01
1	 1.669065e+00	 7.125829e-01	 6.288156e-01
1	 1.660508e+00	 7.323014e-01	 6.175645e-01
1	 1.651699e+00	 7.519607e-01	 5.827731e-01
1	 1.642636e+00	 7.715560e-01	 5.218839e-01
1	 1.633322e+00	 7.910826e-01	 4.325787e-01
1	 1.684216e+00	 6.956376e-01	 5.424953e-01
1	 1.675878e+00	 7.154914e-01	 5.558047e-01
1	 1.667286e+00	 7.352904e-01	 5.498348e-01
1	 1.658440e+00	 7.550299e-01	 5.219079e-01
1	 1.649341e+00	 7.747052e-01	 4.695731e-01
1	 1.639989e+00	 7.943115e-01	 3.906148e-01
1	 1.691062e+00	 6.984654e-01	 4.713303e-01
1	 1.682690e+00	 7.183999e-01	 4.880695e-01
1	 1.674063e+00	 7.382794e-01	 4.869648e-01
1	 1.665182e+00	 7.580991e-01	 4.654496e-01
1	 1.656046e+00	 7.778544e-01	 4.211799e-01
1	 1.646655e+00	 7.975404e-01	 3.520430e-01
1	 1.697908e+00	 7.012932e-01	 4.057064e-01
1	 1.689503e+00	 7.213084e-01	 4.254920e-01
1	 1.680841e+00	 7.412684e-01	 4.288274e-01
1	 1.671923e+00	 7.611684e-01	 4.132578e-01
1	 1.662750e+00	 7.810036e-01	 3.765469e-01
1	 1.653322e+00	 8.007693e-01	 3.166846e-01
1	 1.704755e+00	 7.041210e-01	 3.455127e-01
1	 1.696315e+00	 7.242169e-01	 3.679562e-01
1	 1.687619e+00	 7.442574e-01	 3.752973e-01
1	 1.678665e+00	 7.642376e-01	 3.651944e-01
1	 1.669455e+00	 7.841528e-01	 3.355189e-01
1	 1.659989e+00	 8.039982e-01	 2.843635e-01
1	 1.711601e+00	 7.069488e-01	 2.906402e-01
1	 1.703128e+00	 7.271254e-01	 3.153479e-01
1	 1.694396e+00	 7.472463e-01	 3.262515e-01
1	 1.685407e+00	 7.673068e-01	 3.211233e-01
1	 1.676160e+00	 7.873020e-01	 2.979433e-01
1	 1.666655e+00	 8.072271e-01	 2.549065e-01
1	 1.633322e+00	 7.910826e-01	 4.325787e-01
1	 1.623756e+00	 8.105358e-01	 3.127384e-01
1	 1.613940e+00	 8.299109e-01	 1.629567e-01
1	 1.603872e+00	 8.492031e-01	-1.469270e-02
1	 1.593556e+00	 8.684078e-01	-2.179540e-01
1	 1.582991e+00	 8.875201e-01	-4.443906e-01
1	 1.639989e+00	 7.943115e-01	 3.906148e-01
1	 1.630384e+00	 8.138441e-01	 2.826071e-01
1	 1.620527e+00	 8.332983e-01	 1.457190e-01
1	 1.610419e+00	 8.526692e-01	-1.806404e-02
1	 1.600060e+00	 8.719523e-01	-2.065884e-01
1	 1.589452e+00	 8.911426e-01	-4.175344e-01
1	 1.646655e+00	 7.975404e-01	 3.520430e-01
1	 1.637011e+00	 8.171524e-01	 2.552801e-01
1	 1.627115e+00	 8.366857e-01	 1.306176e-01
1	 1.616965e+00	 8.561354e-01	-2.003369e-02
1	 1.606565e+00	 8.754968e-01	-1.946073e-01
1	 1.595914e+00	 8.947651e-01	-3.908833e-01
1	 1.653322e+00	 8.007693e-01	 3.166846e-01
1	 1.643639e+00	 8.204607e-01	 2.305622e-01
1	 1.633702e+00	 8.400731e-01	 1.174547e-01
1	 1.623512e+00	 8.596015e-01	-2.078859e-02
1	 1.613069e+00	 8.790413e-01	-1.821734e-01
1	 1.602375e+00	 8.983877e-01	-3.645622e-01
1	 1.659989e+00	 8.039982e-01	 2.843635e-01
1	 1.650267e+00	 8.237690e-01	 2.082613e-01
1	 1.640290e+00	 8.434605e-01	 1.060357e-01
1	 1.630058e+00	 8.630677e-01	-2.051265e-02
1	 1.619573e+00	 8.825858e-01	-1.694465e-01
1	 1.608836e+00	 9.020102e-01	-3.386943e-01
1	 1.666655e+00	 8.072271e-01	 2.549065e-01
1	 1.656894e+00	 8.270773e-01	 1.881884e-01
1	 1.646877e+00	 8.468478e-01	 9.616897e-02
1	 1.636605e+00	 8.665338e-01	-1.938687e-02
1	 1.626078e+00	 8.861304e-01	-1.565842e-01
1	 1.615297e+00	 9.056327e-01	-3.134005e-01
1	 1.582991e+00	 8.875201e-01	-4.443906e-01
1	 1.572179e+00	 9.065354e-01	-6.984924e-01
1	 1.561120e+00	 9.254490e-01	-9.845394e-01
1	 1.549817e+00	 9.442561e-01	-1.299513e+00
1	 1.538270e+00	 9.629522e-01	-1.640217e+00
1	 1.526482e+00	 9.815325e-01	-2.003286e+00
1	 1.589452e+00	 8.911426e-01	-4.175344e-01
1	 1.578596e+00	 9.102355e-01	-6.554245e-01
1	 1.567492e+00	 9.292263e-01	-9.244017e-01
1	 1.556143e+00	 9.481102e-01	-1.221304e+00
1	 1.544549e+00	 9.668826e-01	-1.542770e+00
1	 1.532712e+00	 9.855387e-01	-1.885249e+00
1	 1.595914e+00	 8.947651e-01	-3.908833e-01
1	 1.585013e+00	 9.139357e-01	-6.132977e-01
1	 1.573864e+00	 9.330036e-01	-8.657876e-01
1	 1.562469e+00	 9.519643e-01	-1.145106e+00
1	 1.550828e+00	 9.708130e-01	-1.447792e+00
1	 1.538943e+00	 9.895450e-01	-1.770171e+00
1	 1.602375e+00	 8.983877e-01	-3.645622e-01
1	 1.591430e+00	 9.176358e-01	-5.722067e-01
1	 1.580236e+00	 9.367810e-01	-8.087885e-01
1	 1.568795e+00	 9.558184e-01	-1.071035e+00
1	 1.557106e+00	 9.747434e-01	-1.355444e+00
1	 1.545173e+00	 9.935513e-01	-1.658289e+00
1	 1.608836e+00	 9.020102e-01	-3.386943e-01
1	 1.597847e+00	 9.213360e-01	-5.322447e-01
1	 1.586608e+00	 9.405583e-01	-7.534942e-01
1	 1.575120e+00	 9.596725e-01	-9.992018e-01
1	 1.563385e+00	 9.786738e-01	-1.265888e+00
1	 1.551404e+00	 9.975575e-01	-1.549838e+00
1	 1.615297e+00	 9.056327e-01	-3.134005e-01
1	 1.604264e+00	 9.250361e-01	-4.935031e-01
1	 1.592980e+00	 9.443357e-01	-6.999933e-01
1	 1.581446e+00	 9.635266e-01	-9.297184e-01
1	 1.569664e+00	 9.826043e-01	-1.179282e+00
1	 1.557635e+00	 1.001564e+00	-1.445046e+00
1	 1.526482e+00	 9.815325e-01	-2.003286e+00
1	 1.514453e+00	 9.999925e-01	-2.366688e+00
1	 1.502186e+00	 1.018327e+00	-2.710653e+00
1	 1.489682e+00	 1.036533e+00	-3.035075e+00
1	 1.476944e+00	 1.054604e+00	-3.339834e+00
1	 1.463973e+00	 1.072537e+00	-3.624796e+00
1	 1.532712e+00	 9.855387e-01	-1.885249e+00
1	 1.520634e+00	 1.004074e+00	-2.226978e+00
1	 1.508317e+00	 1.022484e+00	-2.548563e+00
1	 1.495762e+00	 1.040764e+00	-2.849859e+00
1	 1.482972e+00	 1.058909e+00	-3.130726e+00
1	 1.469948e+00	 1.076915e+00	-3.391029e+00
1	 1.538943e+00	 9.895450e-01	-1.770171e+00
1	 1.526816e+00	 1.008156e+00	-2.090927e+00
1	 1.514448e+00	 1.026640e+00	-2.391131e+00
1	 1.501843e+00	 1.044994e+00	-2.670550e+00
1	 1.489000e+00	 1.063213e+00	-2.928973e+00
1	 1.475924e+00	 1.081293e+00	-3.166205e+00
1	 1.545173e+00	 9.935513e-01	-1.658289e+00
1	 1.532997e+00	 1.012237e+00	-1.958842e+00
1	 1.520580e+00	 1.030797e+00	-2.238708e+00
1	 1.507923e+00	 1.049225e+00	-2.497518e+00
1	 1.495029e+00	 1.067518e+00	-2.734933e+00
1	 1.481899e+00	 1.085671e+00	-2.950643e+00
1	 1.551404e+00	 9.975575e-01	-1.549838e+00
1	 1.539179e+00	 1.016319e+00	-1.831029e+00
1	 1.526711e+00	 1.034953e+00	-2.091642e+00
1	 1.514003e+00	 1.053456e+00	-2.331124e+00
1	 1.501057e+00	 1.071822e+00	-2.548957e+00
1	 1.487874e+00	 1.090048e+00	-2.744659e+00
1	 1.557635e+00	 1.001564e+00	-1.445046e+00
1	 1.545360e+00	 1.020400e+00	-1.707785e+00
1	 1.532843e+00	 1.039110e+00	-1.950274e+00
1	 1.520084e+00	 1.057687e+00	-2.171725e+00
1	 1.507085e+00	 1.076127e+00	-2.371392e+00
1	 1.493850e+00	 1.094426e+00	-2.548562e+00
1	 1.463973e+00	 1.072537e+00	-3.624796e+00
1	 1.450772e+00	 1.090327e+00	-3.861935e+00
1	 1.437343e+00	 1.107970e+00	-4.029149e+00
1	 1.423689e+00	 1.125461e+00	-4.135835e+00
1	 1.409812e+00	 1.142796e+00	-4.192271e+00
1	 1.395715e+00	 1.159971e+00	-4.209591e+00
1	 1.469948e+00	 1.076915e+00	-3.391029e+00
1	 1.456693e+00	 1.094778e+00	-3.605645e+00
1	 1.443210e+00	 1.112492e+00	-3.755442e+00
1	 1.429500e+00	 1.130055e+00	-3.849930e+00
1	 1.415566e+00	 1.147461e+00	-3.899472e+00
1	 1.401412e+00	 1.164706e+00	-3.915275e+00
1	 1.475924e+00	 1.081293e+00	-3.166205e+00
1	 1.462615e+00	 1.099228e+00	-3.359838e+00
1	 1.449076e+00	 1.117015e+00	-3.493535e+00
1	 1.435311e+00	 1.134649e+00	-3.576859e+00
1	 1.421321e+00	 1.152125e+00	-3.620206e+00
1	 1.407108e+00	 1.169440e+00	-3.634794e+00
1	 1.481899e+00	 1.085671e+00	-2.950643e+00
1	 1.468536e+00	 1.103678e+00	-3.124780e+00
1	 1.454943e+00	 1.121537e+00	-3.243627e+00
1	 1.441122e+00	 1.139242e+00	-3.316746e+00
1	 1.427075e+00	 1.156790e+00	-3.354514e+00
1	 1.412805e+00	 1.174175e+00	-3.368101e+00
1	 1.487874e+00	 1.090048e+00	-2.744659e+00
1	 1.474458e+00	 1.108129e+00	-2.900730e+00
1	 1.460810e+00	 1.126059e+00	-3.005913e+00
1	 1.446933e+00	 1.143836e+00	-3.069716e+00
1	 1.432829e+00	 1.161454e+00	-3.102437e+00
1	 1.418502e+00	 1.178909e+00	-3.115147e+00
1	 1.493850e+00	 1.094426e+00	-2.548562e+00
1	 1.480379e+00	 1.112579e+00	-2.687946e+00
1	 1.466677e+00	 1.130582e+00	-2.780588e+00
1	 1.452744e+00	 1.148430e+00	-2.835889e+00
1	 1.438584e+00	 1.166119e+00	-2.864017e+00
1	 1.424199e+00	 1.183644e+00	-2.875885e+00
1	 1.395715e+00	 1.159971e+00	-4.209591e+00
1	 1.381400e+00	 1.176982e+00	-4.211935e+00
1	 1.366872e+00	 1.193824e+00	-4.215052e+00
1	 1.352131e+00	 1.210493e+00	-4.218027e+00
1	 1.337182e+00	 1.226987e+00	-4.219822e+00
1	 1.322029e+00	 1.243299e+00	-4.219286e+00
1	 1.401412e+00	 1.164706e+00	-3.915275e+00
1	 1.387039e+00	 1.181786e+00	-3.918452e+00
1	 1.372451e+00	 1.198696e+00	-3.921567e+00
1	 1.357650e+00	 1.215434e+00	-3.923514e+00
1	 1.342640e+00	 1.231995e+00	-3.923065e+00
1	 1.327425e+00	 1.248374e+00	-3.918869e+00
1	 1.407108e+00	 1.169440e+00	-3.634794e+00
1	 1.392677e+00	 1.186590e+00	-3.638747e+00
1	 1.378030e+00	 1.203569e+00	-3.641582e+00
1	 1.363169e+00	 1.220375e+00	-3.642114e+00
1	 1.348098e+00	 1.237003e+00	-3.639033e+00
1	 1.332821e+00	 1.253449e+00	-3.630912e+00
1	 1.412805e+00	 1.174175e+00	-3.368101e+00
1	 1.398316e+00	 1.191394e+00	-3.372696e+00
1	 1.383609e+00	 1.208442e+00	-3.374936e+00
1	 1.368688e+00	 1.225316e+00	-3.373660e+00
1	 1.353556e+00	 1.242011e+00	-3.367594e+00
1	 1.338217e+00	 1.258523e+00	-3.355349e+00
1	 1.418502e+00	 1.178909e+00	-3.115147e+00
1	 1.403954e+00	 1.196198e+00	-3.120177e+00
1	 1.389188e+00	 1.213315e+00	-3.121468e+00
1	 1.374207e+00	 1.230256e+00	-3.117992e+00
1	 1.359014e+00	 1.247019e+00	-3.108619e+00
1	 1.343613e+00	 1.263598e+00	-3.092115e+00
1	 1.424199e+00	 1.183644e+00	-2.875885e+00
1	 1.409592e+00	 1.201002e+00	-2.881069e+00
1	 1.394767e+00	 1.218187e+00	-2.881021e+00
1	 1.379726e+00	 1.235197e+00	-2.874950e+00
1	 1.364472e+00	 1.252027e+00	-2.861979e+00
1	 1.349009e+00	 1.268673e+00	-2.841146e+00
1	 1.322029e+00	 1.243299e+00	-4.219286e+00
1	 1.306673e+00	 1.259428e+00	-4.234701e+00
1	 1.291118e+00	 1.275369e+00	-4.285536e+00
1	 1.275369e+00	 1.291118e+00	-4.372292e+00
1	 1.259428e+00	 1.306673e+00	-4.495424e+00
1	 1.243299e+00	 1.322029e+00	-4.655340e+00
1	 1.327425e+00	 1.248374e+00	-3.918869e+00
1	 1.312006e+00	 1.264569e+00	-3.929339e+00
1	 1.296388e+00	 1.280575e+00	-3.974197e+00
1	 1.280575e+00	 1.296388e+00	-4.053930e+00
1	 1.264569e+00	 1.312006e+00	-4.168979e+00
1	 1.248374e+00	 1.327425e+00	-4.319738e+00
1	 1.332821e+00	 1.253449e+00	-3.630912e+00
1	 1.317339e+00	 1.269709e+00	-3.636383e+00
1	 1.301658e+00	 1.285780e+00	-3.675388e+00
1	 1.285780e+00	 1.301658e+00	-3.748348e+00
1	 1.269709e+00	 1.317339e+00	-3.855628e+00
1	 1.253449e+00	 1.332821e+00	-3.997548e+00
1	 1.338217e+00	 1.258523e+00	-3.355349e+00
1	 1.322673e+00	 1.274850e+00	-3.355839e+00
1	 1.306928e+00	 1.290986e+00	-3.389177e+00
1	 1.290986e+00	 1.306928e+00	-3.455656e+00
1	 1.274850e+00	 1.322673e+00	-3.555512e+00
1	 1.258523e+00	 1.338217e+00	-3.688928e+00
1	 1.343613e+00	 1.263598e+00	-3.092115e+00
1	 1.328006e+00	 1.279990e+00	-3.087716e+00
1	 1.312198e+00	 1.296191e+00	-3.115630e+00
1	 1.296191e+00	 1.312198e+00	-3.175965e+00
1	 1.279990e+00	 1.328006e+00	-3.268771e+00
1	 1.263598e+00	 1.343613e+00	-3.394034e+00
1	 1.349009e+00	 1.268673e+00	-2.841146e+00
1	 1.333340e+00	 1.285131e+00	-2.832023e+00
1	 1.317468e+00	 1.301397e+00	-2.854810e+00
1	 1.301397e+00	 1.317468e+00	-2.909382e+00
1	 1.285131e+00	 1.333340e+00	-2.995541e+00
1	 1.268673e+00	 1.349009e+00	-3.113019e+00
1	 1.243299e+00	 1.322029e+00	-4.655340e+00
1	 1.226987e+00	 1.337182e+00	-4.868110e+00
1	 1.210493e+00	 1.352131e+00	-5.147229e+00
1	 1.193824e+00	 1.366872e+00	-5.489098e+00
1	 1.176982e+00	 1.381400e+00	-5.889982e+00
1	 1.159971e+00	 1.395715e+00	-6.346024e+00
1	 1.248374e+00	 1.327425e+00	-4.319738e+00
1	 1.231995e+00	 1.342640e+00	-4.521956e+00
1	 1.215434e+00	 1.357650e+00	-4.788699e+00
1	 1.198696e+00	 1.372451e+00	-5.116193e+00
1	 1.181786e+00	 1.387039e+00	-5.500532e+00
1	 1.164706e+00	 1.401412e+00	-5.937681e+00
1	 1.253449e+00	 1.332821e+00	-3.997548e+00
1	 1.237003e+00	 1.348098e+00	-4.189490e+00
1	 1.220375e+00	 1.363169e+00	-4.444116e+00
1	 1.203569e+00	 1.378030e+00	-4.757521e+00
1	 1.186590e+00	 1.392677e+00	-5.125664e+00
1	 1.169440e+00	 1.407108e+00	-5.544380e+00
1	 1.258523e+00	 1.338217e+00	-3.688928e+00
1	 1.242011e+00	 1.353556e+00	-3.870881e+00
1	 1.225316e+00	 1.368688e+00	-4.113663e+00
1	 1.208442e+00	 1.383609e+00	-4.413276e+00
1	 1.191394e+00	 1.398316e+00	-4.765588e+00
1	 1.174175e+00	 1.412805e+00	-5.166342e+00
1	 1.263598e+00	 1.343613e+00	-3.394034e+00
1	 1.247019e+00	 1.359014e+00	-3.566298e+00
1	 1.230256e+00	 1.374207e+00	-3.797519e+00
1	 1.213315e+00	 1.389188e+00	-4.083650e+00
1	 1.196198e+00	 1.403954e+00	-4.420507e+00
1	 1.178909e+00	 1.418502e+00	-4.803781e+00
1	 1.268673e+00	 1.349009e+00	-3.113019e+00
1	 1.252027e+00	 1.364472e+00	-3.275903e+00
1	 1.235197e+00	 1.379726e+00	-3.495860e+00
1	 1.218187e+00	 1.394767e+00	-3.768831e+00
1	 1.201002e+00	 1.409592e+00	-4.090622e+00
1	 1.183644e+00	 1.424199e+00	-4.456913e+00
1	 1.159971e+00	 1.395715e+00	-6.346024e+00
1	 1.142796e+00	 1.409812e+00	-6.858962e+00
1	 1.125461e+00	 1.423689e+00	-7.420363e+00
1	 1.107970e+00	 1.437343e+00	-8.010432e+00
1	 1.090327e+00	 1.450772e+00	-8.608617e+00
1	 1.072537e+00	 1.463973e+00	-9.193658e+00
1	 1.164706e+00	 1.401412e+00	-5.937681e+00
1	 1.147461e+00	 1.415566e+00	-6.427017e+00
1	 1.130055e+00	 1.429500e+00	-6.958926e+00
1	 1.112492e+00	 1.443210e+00	-7.515252e+00
1	 1.094778e+00	 1.456693e+00	-8.077134e+00
1	 1.076915e+00	 1.469948e+00	-8.625045e+00
1	 1.169440e+00	 1.407108e+00	-5.544380e+00
1	 1.152125e+00	 1.421321e+00	-6.010898e+00
1	 1.134649e+00	 1.435311e+00	-6.514561e+00
1	 1.117015e+00	 1.449076e+00	-7.038773e+00
1	 1.099228e+00	 1.462615e+00	-7.566276e+00
1	 1.081293e+00	 1.475924e+00	-8.079195e+00
1	 1.174175e+00	 1.412805e+00	-5.166342e+00
1	 1.156790e+00	 1.427075e+00	-5.610828e+00
1	 1.139242e+00	 1.441122e+00	-6.087476e+00
1	 1.121537e+00	 1.454943e+00	-6.581167e+00
1	 1.103678e+00	 1.468536e+00	-7.076165e+00
1	 1.085671e+00	 1.481899e+00	-7.556160e+00
1	 1.178909e+00	 1.418502e+00	-4.803781e+00
1	 1.161454e+00	 1.432829e+00	-5.227025e+00
1	 1.143836e+00	 1.446933e+00	-5.677873e+00
1	 1.126059e+00	 1.460810e+00	-6.142603e+00
1	 1.108129e+00	 1.474458e+00	-6.606920e+00
1	 1.090048e+00	 1.487874e+00	-7.055994e+00
1	 1.183644e+00	 1.424199e+00	-4.456913e+00
1	 1.166119e+00	 1.438584e+00	-4.859705e+00
1	 1.148430e+00	 1.452744e+00	-5.285951e+00
1	 1.130582e+00	 1.466677e+00	-5.723246e+00
1	 1.112579e+00	 1.480379e+00	-6.158658e+00
1	 1.094426e+00	 1.493850e+00	-6.578751e+00
1	 1.072537e+00	 1.463973e+00	-9.193658e+00
1	 1.054604e+00	 1.476944e+00	-9.728312e+00
1	 1.036533e+00	 1.489682e+00	-1.019306e+01
1	 1.018327e+00	 1.502186e+00	-1.059296e+01
1	 9.999925e-01	 1.514453e+00	-1.093332e+01
1	 9.815325e-01	 1.526482e+00	-1.121973e+01
1	 1.076915e+00	 1.469948e+00	-8.625045e+00
1	 1.058909e+00	 1.482972e+00	-9.126280e+00
1	 1.040764e+00	 1.495762e+00	-9.563954e+00
1	 1.022484e+00	 1.508317e+00	-9.941987e+00
1	 1.004074e+00	 1.520634e+00	-1.026454e+01
1	 9.855387e-01	 1.532712e+00	-1.053599e+01
1	 1.081293e+00	 1.475924e+00	-8.079195e+00
1	 1.063213e+00	 1.489000e+00	-8.548972e+00
1	 1.044994e+00	 1.501843e+00	-8.961045e+00
1	 1.026640e+00	 1.514448e+00	-9.318242e+00
1	 1.008156e+00	 1.526816e+00	-9.623586e+00
1	 9.895450e-01	 1.538943e+00	-9.880291e+00
1	 1.085671e+00	 1.481899e+00	-7.556160e+00
1	 1.067518e+00	 1.495029e+00	-7.996377e+00
1	 1.049225e+00	 1.507923e+00	-8.384286e+00
1	 1.030797e+00	 1.520580e+00	-8.721648e+00
1	 1.012237e+00	 1.532997e+00	-9.010386e+00
1	 9.935513e-01	 1.545173e+00	-9.252577e+00
1	 1.090048e+00	 1.487874e+00	-7.055994e+00
1	 1.071822e+00	 1.501057e+00	-7.468487e+00
1	 1.053456e+00	 1.514003e+00	-7.833623e+00
1	 1.034953e+00	 1.526711e+00	-8.152129e+00
1	 1.016319e+00	 1.539179e+00	-8.424856e+00
1	 9.975575e-01	 1.551404e+00	-8.652779e+00
1	 1.094426e+00	 1.493850e+00	-6.578751e+00
1	 1.076127e+00	 1.507085e+00	-6.965292e+00
1	 1.057687e+00	 1.520084e+00	-7.309006e+00
1	 1.039110e+00	 1.532843e+00	-7.609610e+00
1	 1.020400e+00	 1.545360e+00	-7.866917e+00
1	 1.001564e+00	 1.557635e+00	-8.080834e+00
1	 9.815325e-01	 1.526482e+00	-1.121973e+01
1	 9.629522e-01	 1.538270e+00	-1.144010e+01
1	 9.442561e-01	 1.549817e+00	-1.157991e+01
1	 9.254490e-01	 1.561120e+00	-1.164140e+01
1	 9.065354e-01	 1.572179e+00	-1.162696e+01
1	 8.875201e-01	 1.582991e+00	-1.153910e+01
1	 9.855387e-01	 1.532712e+00	-1.053599e+01
1	 9.668826e-01	 1.544549e+00	-1.074294e+01
1	 9.481102e-01	 1.556143e+00	-1.087062e+01
1	 9.292263e-01	 1.567492e+00	-1.092162e+01
1	 9.102355e-01	 1.578596e+00	-1.089868e+01
1	 8.911426e-01	 1.589452e+00	-1.080468e+01
1	 9.895450e-01	 1.538943e+00	-9.880291e+00
1	 9.708130e-01	 1.550828e+00	-1.007388e+01
1	 9.519643e-01	 1.562469e+00	-1.018954e+01
1	 9.330036e-01	 1.573864e+00	-1.023021e+01
1	 9.139357e-01	 1.585013e+00	-1.019902e+01
1	 8.947651e-01	 1.595914e+00	-1.009924e+01
1	 9.935513e-01	 1.545173e+00	-9.252577e+00
1	 9.747434e-01	 1.557106e+00	-9.432882e+00
1	 9.558184e-01	 1.568795e+00	-9.536630e+00
1	 9.367810e-01	 1.580236e+00	-9.567150e+00
1	 9.176358e-01	 1.591430e+00	-9.527944e+00
1	 8.983877e-01	 1.602375e+00	-9.422686e+00
1	 9.975575e-01	 1.551404e+00	-8.652779e+00
1	 9.786738e-01	 1.563385e+00	-8.819890e+00
1	 9.596725e-01	 1.575120e+00	-8.911852e+00
1	 9.405583e-01	 1.586608e+00	-8.932382e+00
1	 9.213360e-01	 1.597847e+00	-8.885387e+00
1	 9.020102e-01	 1.608836e+00	-8.774951e+00
1	 1.001564e+00	 1.557635e+00	-8.080834e+00
1	 9.826043e-01	 1.569664e+00	-8.234862e+00
1	 9.635266e-01	 1.581446e+00	-8.315165e+00
1	 9.443357e-01	 1.592980e+00	-8.325871e+00
1	 9.250361e-01	 1.604264e+00	-8.271299e+00
1	 9.056327e-01	 1.615297e+00	-8.155956e+00
1	 8.875201e-01	 1.582991e+00	-1.153910e+01
1	 8.684078e-01	 1.593556e+00	-1.138790e+01
1	 8.492031e-01	 1.603872e+00	-1.118281e+01
1	 8.299109e-01	 1.613940e+00	-1.092561e+01
1	 8.105358e-01	 1.623756e+00	-1.061816e+01
1	 7.910826e-01	 1.633322e+00	-1.026245e+01
1	 8.911426e-01	 1.589452e+00	-1.080468e+01
1	 8.719523e-01	 1.600060e+00	-1.064991e+01
1	 8.526692e-01	 1.610419e+00	-1.044347e+01
1	 8.332983e-01	 1.620527e+00	-1.018676e+01
1	 8.138441e-01	 1.630384e+00	-9.881225e+00
1	 7.943115e-01	 1.639989e+00	-9.528405e+00
1	 8.947651e-01	 1.595914e+00	-1.009924e+01
1	 8.754968e-01	 1.606565e+00	-9.941218e+00
1	 8.561354e-01	 1.616965e+00	-9.733694e+00
1	 8.366857e-01	 1.627115e+00	-9.477679e+00
1	 8.171524e-01	 1.637011e+00	-9.174261e+00
1	 7.975404e-01	 1.646655e+00	-8.824599e+00
1	 8.983877e-01	 1.602375e+00	-9.422686e+00
1	 8.790413e-01	 1.613069e+00	-9.261738e+00
1	 8.596015e-01	 1.623512e+00	-9.053368e+00
1	 8.400731e-01	 1.633702e+00	-8.798272e+00
1	 8.204607e-01	 1.643639e+00	-8.497213e+00
1	 8.007693e-01	 1.653322e+00	-8.151015e+00
1	 9.020102e-01	 1.608836e+00	-8.774951e+00
1	 8.825858e-01	 1.619573e+00	-8.611370e+00
1	 8.630677e-01	 1.630058e+00	-8.402396e+00
1	 8.434605e-01	 1.640290e+00	-8.148453e+00
1	 8.237690e-01	 1.650267e+00	-7.850023e+00
1	 8.039982e-01	 1.659989e+00	-7.507638e+00
1	 9.056327e-01	 1.615297e+00	-8.155956e+00
1	 8.861304e-01	 1.626078e+00	-7.990018e+00
1	 8.665338e-01	 1.636605e+00	-7.780679e+00
1	 8.468478e-01	 1.646877e+00	-7.528136e+00
1	 8.270773e-01	 1.656894e+00	-7.232632e+00
1	 8.072271e-01	 1.666655e+00	-6.894453e+00
1	 7.910826e-01	 1.633322e+00	-1.026245e+01
1	 7.715560e-01	 1.642636e+00	-9.846542e+00
1	 7.519607e-01	 1.651699e+00	-9.372449e+00
1	 7.323014e-01	 1.660508e+00	-8.863338e+00
1	 7.125829e-01	 1.669065e+00	-8.342656e+00
1	 6.928098e-01	 1.677369e+00	-7.834081e+00
1	 7.943115e-01	 1.639989e+00	-9.528405e+00
1	 7.747052e-01	 1.649341e+00	-9.117452e+00
1	 7.550299e-01	 1.658440e+00	-8.651165e+00
1	 7.352904e-01	 1.667286e+00	-8.151862e+00
1	 7.154914e-01	 1.675878e+00	-7.642140e+00
1	 6.956376e-01	 1.684216e+00	-7.144822e+00
1	 7.975404e-01	 1.646655e+00	-8.824599e+00
1	 7.778544e-01	 1.656046e+00	-8.418952e+00
1	 7.580991e-01	 1.665182e+00	-7.960909e+00
1	 7.382794e-01	 1.674063e+00	-7.471915e+00
1	 7.183999e-01	 1.682690e+00	-6.973689e+00
1	 6.984654e-01	 1.691062e+00	-6.488174e+00
1	 8.007693e-01	 1.653322e+00	-8.151015e+00
1	 7.810036e-01	 1.662750e+00	-7.751072e+00
1	 7.611684e-01	 1.671923e+00	-7.301746e+00
1	 7.412684e-01	 1.680841e+00	-6.823584e+00
1	 7.213084e-01	 1.689503e+00	-6.337401e+00
1	 7.012932e-01	 1.697908e+00	-5.864232e+00
1	 8.039982e-01	 1.659989e+00	-7.507638e+00
1	 7.841528e-01	 1.669455e+00	-7.113844e+00
1	 7.642376e-01	 1.678665e+00	-6.673740e+00
1	 7.442574e-01	 1.687619e+00	-6.206953e+00
1	 7.242169e-01	 1.696315e+00	-5.733369e+00
1	 7.041210e-01	 1.704755e+00	-5.273091e+00
1	 8.072271e-01	 1.666655e+00	-6.894453e+00
1	 7.873020e-01	 1.676160e+00	-6.507296e+00
1	 7.673068e-01	 1.685407e+00	-6.076953e+00
1	 7.472463e-01	 1.694396e+00	-5.622106e+00
1	 7.271254e-01	 1.703128e+00	-5.161688e+00
1	 7.069488e-01	 1.711601e+00	-4.714842e+00
1	 6.928098e-01	 1.677369e+00	-7.834081e+00
1	 6.729867e-01	 1.685420e+00	-7.357133e+00
1	 6.531184e-01	 1.693219e+00	-6.924540e+00
1	 6.332095e-01	 1.700764e+00	-6.549916e+00
1	 6.132644e-01	 1.708057e+00	-6.246821e+00
1	 5.932879e-01	 1.715098e+00	-6.028740e+00
1	 6.956376e-01	 1.684216e+00	-7.144822e+00
1	 6.757336e-01	 1.692300e+00	-6.677989e+00
1	 6.557842e-01	 1.700130e+00	-6.253808e+00
1	 6.357940e-01	 1.707706e+00	-5.886359e+00
1	 6.157676e-01	 1.715029e+00	-5.589673e+00
1	 5.957095e-01	 1.722099e+00	-5.377712e+00
1	 6.984654e-01	 1.691062e+00	-6.488174e+00
1	 6.784805e-01	 1.699179e+00	-6.032048e+00
1	 6.584500e-01	 1.707041e+00	-5.616943e+00
1	 6.383785e-01	 1.714648e+00	-5.257350e+00
1	 6.182707e-01	 1.722001e+00	-4.967726e+00
1	 5.981311e-01	 1.729099e+00	-4.762457e+00
1	 7.012932e-01	 1.697908e+00	-5.864232e+00
1	 6.812274e-01	 1.706058e+00	-5.419400e+00
1	 6.611158e-01	 1.713952e+00	-5.014025e+00
1	 6.409631e-01	 1.721590e+00	-4.662963e+00
1	 6.207738e-01	 1.728972e+00	-4.381043e+00
1	 6.005526e-01	 1.736100e+00	-4.183030e+00
1	 7.041210e-01	 1.704755e+00	-5.273091e+00
1	 6.839743e-01	 1.712937e+00	-4.840131e+00
1	 6.637816e-01	 1.720863e+00	-4.445132e+00
1	 6.435476e-01	 1.728532e+00	-4.103268e+00
1	 6.232769e-01	 1.735944e+00	-3.829688e+00
1	 6.029742e-01	 1.743100e+00	-3.639488e+00
1	 7.069488e-01	 1.711601e+00	-4.714842e+00
1	 6.867212e-01	 1.719817e+00	-4.294326e+00
1	 6.664474e-01	 1.727774e+00	-3.910342e+00
1	 6.461321e-01	 1.735474e+00	-3.578332e+00
1	 6.257800e-01	 1.742916e+00	-3.313720e+00
1	 6.053958e-01	 1.750100e+00	-3.131882e+00
1	 5.932879e-01	 1.715098e+00	-6.028740e+00
1	 5.732844e-01	 1.721888e+00	-5.925303e+00
1	 5.532583e-01	 1.728426e+00	-5.963777e+00
1	 5.332143e-01	 1.734715e+00	-6.153920e+00
1	 5.131565e-01	 1.740754e+00	-6.505330e+00
1	 4.930895e-01	 1.746544e+00	-7.027421e+00
1	 5.957095e-01	 1.722099e+00	-5.377712e+00
1	 5.756243e-01	 1.728916e+00	-5.280257e+00
1	 5.555165e-01	 1.735481e+00	-5.323770e+00
1	 5.353906e-01	 1.741795e+00	-5.517058e+00
1	 5.152511e-01	 1.747859e+00	-5.868766e+00
1	 4.951021e-01	 1.753673e+00	-6.387362e+00
1	 5.981311e-01	 1.729099e+00	-4.762457e+00
1	 5.779642e-01	 1.735944e+00	-4.671364e+00
1	 5.577747e-01	 1.742536e+00	-4.720036e+00
1	 5.375670e-01	 1.748876e+00	-4.916338e+00
1	 5.173456e-01	 1.754964e+00	-5.267973e+00
1	 4.971148e-01	 1.760801e+00	-5.782477e+00
1	 6.005526e-01	 1.736100e+00	-4.183030e+00
1	 5.803042e-01	 1.742972e+00	-4.098672e+00
1	 5.600329e-01	 1.749591e+00	-4.152609e+00
1	 5.397434e-01	 1.755956e+00	-4.351776e+00
1	 5.194401e-01	 1.762069e+00	-4.702949e+00
1	 4.991274e-01	 1.767930e+00	-5.212737e+00
1	 6.029742e-01	 1.743100e+00	-3.639488e+00
1	 5.826441e-01	 1.750000e+00	-3.562226e+00
1	 5.622911e-01	 1.756646e+00	-3.621522e+00
1	 5.419198e-01	 1.763037e+00	-3.823390e+00
1	 5.215346e-01	 1.769174e+00	-4.173691e+00
1	 5.011400e-01	 1.775059e+00	-4.678116e+00
1	 6.053958e-01	 1.750100e+00	-3.131882e+00
1	 5.849840e-01	 1.757028e+00	-3.062072e+00
1	 5.645493e-01	 1.763700e+00	-3.126808e+00
1	 5.440962e-01	 1.770117e+00	-3.331198e+00
1	 5.236291e-01	 1.776279e+00	-3.680194e+00
1	 5.031526e-01	 1.782188e+00	-4.178585e+00
1	 4.930895e-01	 1.746544e+00	-7.027421e+00
1	 4.730176e-01	 1.752087e+00	-7.725743e+00
1	 4.529449e-01	 1.757383e+00	-8.605081e+00
1	 4.328757e-01	 1.762433e+00	-9.673373e+00
1	 4.128142e-01	 1.767240e+00	-1.093829e+01
1	 3.927645e-01	 1.771804e+00	-1.240726e+01
1	 4.951021e-01	 1.753673e+00	-6.387362e+00
1	 4.749482e-01	 1.759238e+00	-7.077493e+00
1	 4.547936e-01	 1.764556e+00	-7.943750e+00
1	 4.346426e-01	 1.769627e+00	-8.994199e+00
1	 4.144992e-01	 1.774453e+00	-1.023665e+01
1	 3.943676e-01	 1.779036e+00	-1.167864e+01
1	 4.971148e-01	 1.760801e+00	-5.782477e+00
1	 4.768789e-01	 1.766389e+00	-6.463623e+00
1	 4.566424e-01	 1.771729e+00	-7.315778e+00
1	 4.364094e-01	 1.776821e+00	-8.347045e+00
1	 4.161841e-01	 1.781666e+00	-9.565280e+00
1	 3.959707e-01	 1.786268e+00	-1.097808e+01
1	 4.991274e-01	 1.767930e+00	-5.212737e+00
1	 4.788096e-01	 1.773541e+00	-5.884080e+00
1	 4.584911e-01	 1.778902e+00	-6.721088e+00
1	 4.381762e-01	 1.784014e+00	-7.731818e+00
1	 4.178691e-01	 1.788880e+00	-8.924084e+00
1	 3.975739e-01	 1.793499e+00	-1.030545e+01
1	 5.011400e-01	 1.775059e+00	-4.678116e+00
1	 4.807403e-01	 1.780692e+00	-5.338811e+00
1	 4.603399e-01	 1.786075e+00	-6.159608e+00
1	 4.399431e-01	 1.791208e+00	-7.148426e+00
1	 4.195541e-01	 1.796093e+00	-8.312956e+00
1	 3.991770e-01	 1.800731e+00	-9.660645e+00
1	 5.031526e-01	 1.782188e+00	-4.178585e+00
1	 4.826710e-01	 1.787843e+00	-4.827765e+00
1	 4.621887e-01	 1.793248e+00	-5.631262e+00
1	 4.417099e-01	 1.798401e+00	-6.596778e+00
1	 4.212390e-01	 1.803306e+00	-7.731793e+00
1	 4.007801e-01	 1.807963e+00	-9.043558e+00
1	 3.927645e-01	 1.771804e+00	-1.240726e+01
1	 3.727306e-01	 1.776126e+00	-1.409948e+01
1	 3.527165e-01	 1.780209e+00	-1.599819e+01
1	 3.327262e-01	 1.784053e+00	-1.805667e+01
1	 3.127634e-01	 1.787661e+00	-2.022842e+01
1	 2.928321e-01	 1.791034e+00	-2.246726e+01
1	 3.943676e-01	 1.779036e+00	-1.167864e+01
1	 3.742520e-01	 1.783376e+00	-1.333841e+01
1	 3.541562e-01	 1.787475e+00	-1.519883e+01
1	 3.340842e-01	 1.791335e+00	-1.721437e+01
1	 3.140400e-01	 1.794958e+00	-1.933966e+01
1	 2.940273e-01	 1.798344e+00	-2.152967e+01
1	 3.959707e-01	 1.786268e+00	-1.097808e+01
1	 3.757733e-01	 1.790625e+00	-1.260261e+01
1	 3.555958e-01	 1.794741e+00	-1.442138e+01
1	 3.354423e-01	 1.798617e+00	-1.638992e+01
1	 3.153166e-01	 1.802254e+00	-1.846399e+01
1	 2.952225e-01	 1.805655e+00	-2.059960e+01
1	 3.975739e-01	 1.793499e+00	-1.030545e+01
1	 3.772947e-01	 1.797875e+00	-1.189195e+01
1	 3.570355e-01	 1.802007e+00	-1.366568e+01
1	 3.368004e-01	 1.805899e+00	-1.558318e+01
1	 3.165932e-01	 1.809551e+00	-1.760121e+01
1	 2.964178e-01	 1.812965e+00	-1.967680e+01
1	 3.991770e-01	 1.800731e+00	-9.660645e+00
1	 3.788160e-01	 1.805124e+00	-1.120633e+01
1	 3.584752e-01	 1.809274e+00	-1.293161e+01
1	 3.381584e-01	 1.813181e+00	-1.479399e+01
1	 3.178698e-01	 1.816847e+00	-1.675114e+01
1	 2.976130e-01	 1.820275e+00	-1.876104e+01
1	 4.007801e-01	 1.807963e+00	-9.043558e+00
1	 3.803374e-01	 1.812374e+00	-1.054563e+01
1	 3.599148e-01	 1.816540e+00	-1.221904e+01
1	 3.395165e-01	 1.820463e+00	-1.402217e+01
1	 3.191463e-01	 1.824144e+00	-1.591357e+01
1	 2.988082e-01	 1.827586e+00	-1.785208e+01
1	 2.928321e-01	 1.791034e+00	-2.246726e+01
1	 2.729358e-01	 1.794174e+00	-2.472598e+01
1	 2.530784e-01	 1.797082e+00	-2.696709e+01
1	 2.332633e-01	 1.799761e+00	-2.915957e+01
1	 2.134942e-01	 1.802213e+00	-3.127275e+01
1	 1.937744e-01	 1.804440e+00	-3.327644e+01
1	 2.940273e-01	 1.798344e+00	-2.152967e+01
1	 2.740499e-01	 1.801497e+00	-2.373834e+01
1	 2.541114e-01	 1.804417e+00	-2.592884e+01
1	 2.342154e-01	 1.807107e+00	-2.807053e+01
1	 2.143656e-01	 1.809569e+00	-3.013316e+01
1	 1.945654e-01	 1.811805e+00	-3.208691e+01
1	 2.952225e-01	 1.805655e+00	-2.059960e+01
1	 2.751639e-01	 1.808820e+00	-2.275182e+01
1	 2.551443e-01	 1.811752e+00	-2.488476e+01
1	 2.351675e-01	 1.814453e+00	-2.696850e+01
1	 2.152370e-01	 1.816925e+00	-2.897349e+01
1	 1.953563e-01	 1.819170e+00	-3.087062e+01
1	 2.964178e-01	 1.812965e+00	-1.967680e+01
1	 2.762779e-01	 1.816143e+00	-2.176616e+01
1	 2.561773e-01	 1.819087e+00	-2.383458e+01
1	 2.361196e-01	 1.821799e+00	-2.585318e+01
1	 2.161084e-01	 1.824281e+00	-2.779346e+01
1	 1.961472e-01	 1.826535e+00	-2.962734e+01
1	 2.976130e-01	 1.820275e+00	-1.876104e+01
1	 2.773919e-01	 1.823466e+00	-2.078108e+01
1	 2.572103e-01	 1.826422e+00	-2.277800e+01
1	 2.370717e-01	 1.829145e+00	-2.472431e+01
1	 2.169798e-01	 1.831637e+00	-2.659283e+01
1	 1.969381e-01	 1.833900e+00	-2.835683e+01
1	 2.988082e-01	 1.827586e+00	-1.785208e+01
1	 2.785059e-01	 1.830789e+00	-1.979631e+01
1	 2.582433e-01	 1.833757e+00	-2.171476e+01
1	 2.380238e-01	 1.836491e+00	-2.358160e+01
1	 2.178512e-01	 1.838993e+00	-2.537134e+01
1	 1.977290e-01	 1.841265e+00	-2.705886e+01
1	 1.937744e-01	 1.804440e+00	-3.327644e+01
1	 1.741074e-01	 1.806444e+00	-3.513762e+01
1	 1.544965e-01	 1.808227e+00	-3.682539e+01
1	 1.349448e-01	 1.809791e+00	-3.831346e+01
1	 1.154557e-01	 1.811139e+00	-3.957614e+01
1	 9.603204e-02	 1.812272e+00	-4.058838e+01
1	 1.945654e-01	 1.811805e+00	-3.208691e+01
1	 1.748181e-01	 1.813817e+00	-3.389949e+01
1	 1.551271e-01	 1.815607e+00	-3.554154e+01
1	 1.354956e-01	 1.817178e+00	-3.698840e+01
1	 1.159269e-01	 1.818531e+00	-3.821597e+01
1	 9.642400e-02	 1.819669e+00	-3.920078e+01
1	 1.953563e-01	 1.819170e+00	-3.087062e+01
1	 1.755287e-01	 1.821190e+00	-3.262860e+01
1	 1.557577e-01	 1.822988e+00	-3.421967e+01
1	 1.360464e-01	 1.824565e+00	-3.562082e+01
1	 1.163982e-01	 1.825923e+00	-3.680954e+01
1	 9.681597e-02	 1.827066e+00	-3.776393e+01
1	 1.961472e-01	 1.826535e+00	-2.962734e+01
1	 1.762394e-01	 1.828564e+00	-3.132475e+01
1	 1.563883e-01	 1.830368e+00	-3.285962e+01
1	 1.365972e-01	 1.831951e+00	-3.421057e+01
1	 1.168694e-01	 1.833316e+00	-3.535672e+01
1	 9.720794e-02	 1.834463e+00	-3.627774e+01
1	 1.969381e-01	 1.833900e+00	-2.835683e+01
1	 1.769500e-01	 1.835937e+00	-2.998773e+01
1	 1.570189e-01	 1.837749e+00	-3.146119e+01
1	 1.371480e-01	 1.839338e+00	-3.275749e+01
1	 1.173407e-01	 1.840708e+00	-3.385738e+01
1	 9.759991e-02	 1.841860e+00	-3.474212e+01
1	 1.977290e-01	 1.841265e+00	-2.705886e+01
1	 1.776606e-01	 1.843310e+00	-2.861733e+01
1	 1.576495e-01	 1.845129e+00	-3.002421e+01
1	 1.376988e-01	 1.846725e+00	-3.126144e+01
1	 1.178119e-01	 1.848101e+00	-3.231140e+01
1	 9.799187e-02	 1.849257e+00	-3.315696e+01
1	 9.603204e-02	 1.812272e+00	-4.058838e+01
1	 7.667698e-02	 1.813194e+00	-4.132437e+01
1	 5.739342e-02	 1.813907e+00	-4.175652e+01
1	 3.818423e-02	 1.814413e+00	-4.185814e+01
1	 1.905219e-02	 1.814715e+00	-4.160331e+01
1	 0.000000e+00	 1.814815e+00	-4.096693e+01
1	 9.642400e-02	 1.819669e+00	-3.920078e+01
1	 7.698994e-02	 1.820595e+00	-3.991831e+01
1	 5.762768e-02	 1.821311e+00	-4.034171e+01
1	 3.834008e-02	 1.821819e+00	-4.044495e+01
1	 1.912995e-02	 1.822122e+00	-4.020276e+01
1	 0.000000e+00	 1.822222e+00	-3.959066e+01
1	 9.681597e-02	 1.827066e+00	-3.776393e+01
1	 7.730291e-02	 1.827996e+00	-3.846082e+01
1	 5.786194e-02	 1.828714e+00	-3.887409e+01
1	 3.849594e-02	 1.829225e+00	-3.897836e+01
1	 1.920772e-02	 1.829529e+00	-3.874898e+01
1	 0.000000e+00	 1.829630e+00	-3.816209e+01
1	 9.720794e-02	 1.834463e+00	-3.627774e+01
1	 7.761588e-02	 1.835397e+00	-3.695183e+01
1	 5.809620e-02	 1.836118e+00	-3.735359e+01
1	 3.865179e-02	 1.836630e+00	-3.745827e+01
1	 1.928548e-02	 1.836936e+00	-3.724184e+01
1	 0.000000e+00	 1.837037e+00	-3.668102e+01
1	 9.759991e-02	 1.841860e+00	-3.474212e+01
1	 7.792885e-02	 1.842797e+00	-3.539125e+01
1	 5.833046e-02	 1.843522e+00	-3.578011e+01
1	 3.880765e-02	 1.844036e+00	-3.588458e+01
1	 1.936324e-02	 1.844343e+00	-3.568120e+01
1	 0.000000e+00	 1.844444e+00	-3.514727e+01
1	 9.799187e-02	 1.849257e+00	-3.315696e+01
1	 7.824181e-02	 1.850198e+00	-3.377901e+01
1	 5.856472e-02	 1.850926e+00	-3.415360e+01
1	 3.896350e-02	 1.851442e+00	-3.425719e+01
1	 1.944101e-02	 1.851750e+00	-3.406694e+01
1	 0.000000e+00	 1.851852e+00	-3.356066e+01
1	 1.851852e+00	 0.000000e+00	 6.950410e+00
1	 1.851750e+00	 1.944101e-02	 6.923308e+00
1	 1.851442e+00	 3.896350e-02	 6.844884e+00
1	 1.850926e+00	 5.856472e-02	 6.719854e+00
1	 1.850198e+00	 7.824181e-02	 6.552999e+00
1	 1.849257e+00	 9.799187e-02	 6.349158e+00
1	 1.859259e+00	 0.000000e+00	 6.587810e+00
1	 1.859157e+00	 1.951877e-02	 6.564676e+00
1	 1.858848e+00	 3.911935e-02	 6.492385e+00
1	 1.858329e+00	 5.879898e-02	 6.375538e+00
1	 1.857599e+00	 7.855478e-02	 6.218797e+00
1	 1.856654e+00	 9.838384e-02	 6.026874e+00
1	 1.866667e+00	 0.000000e+00	 6.235611e+00
1	 1.866564e+00	 1.959654e-02	 6.216184e+00
1	 1.866253e+00	 3.927521e-02	 6.149687e+00
1	 1.865733e+00	 5.903323e-02	 6.040603e+00
1	 1.865000e+00	 7.886775e-02	 5.893468e+00
1	 1.864051e+00	 9.877581e-02	 5.712867e+00
1	 1.874074e+00	 0.000000e+00	 5.893653e+00
1	 1.873971e+00	 1.967430e-02	 5.877698e+00
1	 1.873659e+00	 3.943106e-02	 5.816677e+00
1	 1.873137e+00	 5.926749e-02	 5.714951e+00
1	 1.872401e+00	 7.918072e-02	 5.576930e+00
1	 1.871448e+00	 9.916778e-02	 5.407067e+00
1	 1.881481e+00	 0.000000e+00	 5.561782e+00
1	 1.881378e+00	 1.975206e-02	 5.549085e+00
1	 1.881065e+00	 3.958692e-02	 5.493240e+00
1	 1.880540e+00	 5.950175e-02	 5.398486e+00
1	 1.879801e+00	 7.949368e-02	 5.269102e+00
1	 1.878846e+00	 9.955974e-02	 5.109406e+00
1	 1.888889e+00	 0.000000e+00	 5.239846e+00
1	 1.888785e+00	 1.982983e-02	 5.230214e+00
1	 1.888471e+00	 3.974277e-02	 5.179267e+00
1	 1.887944e+00	 5.973601e-02	 5.091114e+00
1	 1.887202e+00	 7.980665e-02	 4.969905e+00
1	 1.886243e+00	 9.995171e-02	 4.819817e+00
1	 1.849257e+00	 9.799187e-02	 6.349158e+00
1	 1.848101e+00	 1.178119e-01	 6.110952e+00
1	 1.846725e+00	 1.376988e-01	 5.839993e+00
1	 1.845129e+00	 1.576495e-01	 5.539680e+00
1	 1.843310e+00	 1.776606e-01	 5.213444e+00
1	 1.841265e+00	 1.977290e-01	 4.864748e+00
1	 1.856654e+00	 9.838384e-02	 6.026874e+00
1	 1.855493e+00	 1.182831e-01	 5.802362e+00
1	 1.854112e+00	 1.382496e-01	 5.546733e+00
1	 1.852510e+00	 1.582801e-01	 5.263082e+00
1	 1.850683e+00	 1.783713e-01	 4.954538e+00
1	 1.848631e+00	 1.985199e-01	 4.624256e+00
1	 1.864051e+00	 9.877581e-02	 5.712867e+00
1	 1.862885e+00	 1.187544e-01	 5.501379e+00
1	 1.861499e+00	 1.388004e-01	 5.260369e+00
1	 1.859890e+00	 1.589107e-01	 4.992658e+00
1	 1.858057e+00	 1.790819e-01	 4.701094e+00
1	 1.855996e+00	 1.993109e-01	 4.388552e+00
1	 1.871448e+00	 9.916778e-02	 5.407067e+00
1	 1.870278e+00	 1.192256e-01	 5.207944e+00
1	 1.868886e+00	 1.393512e-01	 4.980854e+00
1	 1.867271e+00	 1.595413e-01	 4.728367e+00
1	 1.865430e+00	 1.797926e-01	 4.453077e+00
1	 1.863361e+00	 2.001018e-01	 4.157602e+00
1	 1.878846e+00	 9.955974e-02	 5.109406e+00
1	 1.877670e+00	 1.196969e-01	 4.922000e+00
1	 1.876273e+00	 1.399020e-01	 4.708140e+00
1	 1.874651e+00	 1.601719e-01	 4.470168e+00
1	 1.872803e+00	 1.805032e-01	 4.210450e+00
1	 1.870726e+00	 2.008927e-01	 3.931373e+00
1	 1.886243e+00	 9.995171e-02	 4.819817e+00
1	 1.885063e+00	 1.201681e-01	 4.643490e+00
1	 1.883660e+00	 1.404528e-01	 4.442178e+00
1	 1.882032e+00	 1.608025e-01	 4.218021e+00
1	 1.880176e+00	 1.812139e-01	 3.973180e+00
1	 1.878091e+00	 2.016836e-01	 3.709834e+00
1	 1.841265e+00	 1.977290e-01	 4.864748e+00
1	 1.838993e+00	 2.178512e-01	 4.498281e+00
1	 1.836491e+00	 2.380238e-01	 4.119545e+00
1	 1.833757e+00	 2.582433e-01	 3.733267e+00
1	 1.830789e+00	 2.785059e-01	 3.344185e+00
1	 1.827586e+00	 2.988082e-01	 2.957050e+00
1	 1.848631e+00	 1.985199e-01	 4.624256e+00
1	 1.846349e+00	 2.187226e-01	 4.276625e+00
1	 1.843837e+00	 2.389759e-01	 3.916862e+00
1	 1.841092e+00	 2.592762e-01	 3.549407e+00
1	 1.838113e+00	 2.796200e-01	 3.178721e+00
1	 1.834896e+00	 3.000035e-01	 2.809280e+00
1	 1.855996e+00	 1.993109e-01	 4.388552e+00
1	 1.853705e+00	 2.195940e-01	 4.059163e+00
1	 1.851183e+00	 2.399280e-01	 3.717910e+00
1	 1.848427e+00	 2.603092e-01	 3.368984e+00
1	 1.845436e+00	 2.807340e-01	 3.016600e+00
1	 1.842206e+00	 3.011987e-01	 2.664992e+00
1	 1.863361e+00	 2.001018e-01	 4.157602e+00
1	 1.861061e+00	 2.204654e-01	 3.845853e+00
1	 1.858529e+00	 2.408801e-01	 3.522621e+00
1	 1.855762e+00	 2.613422e-01	 3.191882e+00
1	 1.852759e+00	 2.818480e-01	 2.857638e+00
1	 1.849517e+00	 3.023939e-01	 2.523911e+00
1	 1.870726e+00	 2.008927e-01	 3.931373e+00
1	 1.868417e+00	 2.213369e-01	 3.636654e+00
1	 1.865875e+00	 2.418322e-01	 3.330926e+00
1	 1.863097e+00	 2.623751e-01	 3.017985e+00
1	 1.860082e+00	 2.829620e-01	 2.701653e+00
1	 1.856827e+00	 3.035892e-01	 2.385770e+00
1	 1.878091e+00	 2.016836e-01	 3.709834e+00
1	 1.875773e+00	 2.222083e-01	 3.431526e+00
1	 1.873221e+00	 2.427843e-01	 3.142758e+00
1	 1.870432e+00	 2.634081e-01	 2.847180e+00
1	 1.867405e+00	 2.840761e-01	 2.548466e+00
1	 1.864137e+00	 3.047844e-01	 2.250303e+00
1	 1.827586e+00	 2.988082e-01	 2.957050e+00
1	 1.824144e+00	 3.191463e-01	 2.577714e+00
1	 1.820463e+00	 3.395165e-01	 2.213614e+00
1	 1.816540e+00	 3.599148e-01	 1.871846e+00
1	 1.812374e+00	 3.803374e-01	 1.559464e+00
1	 1.807963e+00	 4.007801e-01	 1.283464e+00
1	 1.834896e+00	 3.000035e-01	 2.809280e+00
1	 1.831440e+00	 3.204229e-01	 2.446508e+00
1	 1.827744e+00	 3.408746e-01	 2.097469e+00
1	 1.823806e+00	 3.613545e-01	 1.769080e+00
1	 1.819623e+00	 3.818587e-01	 1.468214e+00
1	 1.815195e+00	 4.023832e-01	 1.201684e+00
1	 1.842206e+00	 3.011987e-01	 2.664992e+00
1	 1.838737e+00	 3.216995e-01	 2.319136e+00
1	 1.835026e+00	 3.422326e-01	 1.985638e+00
1	 1.831072e+00	 3.627941e-01	 1.671162e+00
1	 1.826873e+00	 3.833801e-01	 1.382324e+00
1	 1.822427e+00	 4.039864e-01	 1.125688e+00
1	 1.849517e+00	 3.023939e-01	 2.523911e+00
1	 1.846034e+00	 3.229761e-01	 2.195246e+00
1	 1.842308e+00	 3.435907e-01	 1.877732e+00
1	 1.838338e+00	 3.642338e-01	 1.577701e+00
1	 1.834122e+00	 3.849014e-01	 1.301448e+00
1	 1.829659e+00	 4.055895e-01	 1.055218e+00
1	 1.856827e+00	 3.035892e-01	 2.385770e+00
1	 1.853330e+00	 3.242527e-01	 2.074491e+00
1	 1.849590e+00	 3.449488e-01	 1.773363e+00
1	 1.845604e+00	 3.656735e-01	 1.488314e+00
1	 1.841372e+00	 3.864228e-01	 1.225245e+00
1	 1.836891e+00	 4.071926e-01	 9.900203e-01
1	 1.864137e+00	 3.047844e-01	 2.250303e+00
1	 1.860627e+00	 3.255293e-01	 1.956529e+00
1	 1.856872e+00	 3.463068e-01	 1.672153e+00
1	 1.852871e+00	 3.671131e-01	 1.402623e+00
1	 1.848621e+00	 3.879441e-01	 1.153381e+00
1	 1.844122e+00	 4.087957e-01	 9.298431e-01
1	 1.807963e+00	 4.007801e-01	 1.283464e+00
1	 1.803306e+00	 4.212390e-01	 1.044645e+00
1	 1.798401e+00	 4.417099e-01	 8.379294e-01
1	 1.793248e+00	 4.621887e-01	 6.613676e-01
1	 1.787843e+00	 4.826710e-01	 5.129102e-01
1	 1.782188e+00	 5.031526e-01	 3.904080e-01
1	 1.815195e+00	 4.023832e-01	 1.201684e+00
1	 1.810519e+00	 4.229240e-01	 9.705187e-01
1	 1.805595e+00	 4.434768e-01	 7.700607e-01
1	 1.800421e+00	 4.640374e-01	 5.984646e-01
1	 1.794995e+00	 4.846017e-01	 4.537898e-01
1	 1.789316e+00	 5.051652e-01	 3.340029e-01
1	 1.822427e+00	 4.039864e-01	 1.125688e+00
1	 1.817733e+00	 4.246089e-01	 9.024643e-01
1	 1.812789e+00	 4.452436e-01	 7.084320e-01
1	 1.807594e+00	 4.658862e-01	 5.418853e-01
1	 1.802146e+00	 4.865323e-01	 4.010259e-01
1	 1.796445e+00	 5.071778e-01	 2.839644e-01
1	 1.829659e+00	 4.055895e-01	 1.055218e+00
1	 1.824946e+00	 4.262939e-01	 8.403181e-01
1	 1.819982e+00	 4.470104e-01	 6.529445e-01
1	 1.814767e+00	 4.677349e-01	 4.915667e-01
1	 1.809298e+00	 4.884630e-01	 3.545603e-01
1	 1.803574e+00	 5.091904e-01	 2.402091e-01
1	 1.836891e+00	 4.071926e-01	 9.900203e-01
1	 1.832159e+00	 4.279788e-01	 7.839185e-01
1	 1.827176e+00	 4.487773e-01	 6.035009e-01
1	 1.821940e+00	 4.695837e-01	 4.474464e-01
1	 1.816449e+00	 4.903937e-01	 3.143363e-01
1	 1.810703e+00	 5.112030e-01	 2.026552e-01
1	 1.844122e+00	 4.087957e-01	 9.298431e-01
1	 1.839372e+00	 4.296638e-01	 7.331067e-01
1	 1.834369e+00	 4.505441e-01	 5.600057e-01
1	 1.829113e+00	 4.714324e-01	 4.094633e-01
1	 1.823600e+00	 4.923244e-01	 2.802976e-01
1	 1.817831e+00	 5.132156e-01	 1.712219e-01
1	 1.782188e+00	 5.031526e-01	 3.904080e-01
1	 1.776279e+00	 5.236291e-01	 2.940822e-01
1	 1.770117e+00	 5.440962e-01	 2.244647e-01
1	 1.763700e+00	 5.645493e-01	 1.797367e-01
1	 1.757028e+00	 5.849840e-01	 1.579979e-01
1	 1.750100e+00	 6.053958e-01	 1.572681e-01
1	 1.789316e+00	 5.051652e-01	 3.340029e-01
1	 1.783384e+00	 5.257236e-01	 2.394588e-01
1	 1.777198e+00	 5.462726e-01	 1.708593e-01
1	 1.770755e+00	 5.668075e-01	 1.265583e-01
1	 1.764057e+00	 5.873240e-01	 1.048257e-01
1	 1.757101e+00	 6.078174e-01	 1.038494e-01
1	 1.796445e+00	 5.071778e-01	 2.839644e-01
1	 1.790489e+00	 5.278182e-01	 1.911918e-01
1	 1.784278e+00	 5.484490e-01	 1.235607e-01
1	 1.777810e+00	 5.690657e-01	 7.959266e-02
1	 1.771085e+00	 5.896639e-01	 5.772517e-02
1	 1.764101e+00	 6.102390e-01	 5.631256e-02
1	 1.803574e+00	 5.091904e-01	 2.402091e-01
1	 1.797595e+00	 5.299127e-01	 1.491628e-01
1	 1.791359e+00	 5.506253e-01	 8.242623e-02
1	 1.784865e+00	 5.713239e-01	 3.868476e-02
1	 1.778113e+00	 5.920039e-01	 1.654008e-02
1	 1.771102e+00	 6.126606e-01	 1.451145e-02
1	 1.810703e+00	 5.112030e-01	 2.026552e-01
1	 1.804700e+00	 5.320072e-01	 1.132549e-01
1	 1.798439e+00	 5.528017e-01	 4.731569e-02
1	 1.791920e+00	 5.735821e-01	 3.681866e-03
1	 1.785141e+00	 5.943438e-01	-1.888350e-02
1	 1.778102e+00	 6.150821e-01	-2.169769e-02
1	 1.817831e+00	 5.132156e-01	 1.712219e-01
1	 1.811805e+00	 5.341017e-01	 8.335335e-02
1	 1.805519e+00	 5.549781e-01	 1.809097e-02
1	 1.798974e+00	 5.758403e-01	-2.556635e-02
1	 1.792169e+00	 5.966837e-01	-4.869705e-02
1	 1.785102e+00	 6.175037e-01	-5.245643e-02
1	 1.750100e+00	 6.053958e-01	 1.572681e-01
1	 1.742916e+00	 6.257800e-01	 1.720395e-01
1	 1.735474e+00	 6.461321e-01	 1.959969e-01
1	 1.727774e+00	 6.664474e-01	 2.258980e-01
1	 1.719817e+00	 6.867212e-01	 2.585149e-01
1	 1.711601e+00	 7.069488e-01	 2.906402e-01
1	 1.757101e+00	 6.078174e-01	 1.038494e-01
1	 1.749887e+00	 6.282832e-01	 1.185604e-01
1	 1.742415e+00	 6.487166e-01	 1.429159e-01
1	 1.734685e+00	 6.691132e-01	 1.735862e-01
1	 1.726696e+00	 6.894681e-01	 2.072515e-01
1	 1.718448e+00	 7.097765e-01	 2.406080e-01
1	 1.764101e+00	 6.102390e-01	 5.631256e-02
1	 1.756859e+00	 6.307863e-01	 7.072620e-02
1	 1.749357e+00	 6.513012e-01	 9.520305e-02
1	 1.741596e+00	 6.717790e-01	 1.263344e-01
1	 1.733575e+00	 6.922149e-01	 1.607167e-01
1	 1.725294e+00	 7.126043e-01	 1.949579e-01
1	 1.771102e+00	 6.126606e-01	 1.451145e-02
1	 1.763831e+00	 6.332894e-01	 2.840644e-02
1	 1.756299e+00	 6.538857e-01	 5.274319e-02
1	 1.748507e+00	 6.744448e-01	 8.404209e-02
1	 1.740454e+00	 6.949618e-01	 1.188239e-01
1	 1.732140e+00	 7.154321e-01	 1.536166e-01
1	 1.778102e+00	 6.150821e-01	-2.169769e-02
1	 1.770802e+00	 6.357925e-01	-8.527086e-03
1	 1.763241e+00	 6.564702e-01	 1.542313e-02
1	 1.755418e+00	 6.771105e-01	 4.661046e-02
1	 1.747334e+00	 6.977087e-01	 8.148816e-02
1	 1.738987e+00	 7.182599e-01	 1.165119e-01
1	 1.785102e+00	 6.175037e-01	-5.245643e-02
1	 1.777774e+00	 6.382956e-01	-4.020064e-02
1	 1.770183e+00	 6.590548e-01	-1.686861e-02
1	 1.762330e+00	 6.797763e-01	 1.394226e-02
1	 1.754213e+00	 7.004556e-01	 4.862562e-02
1	 1.745833e+00	 7.210877e-01	 8.357294e-02
1	 1.711601e+00	 7.069488e-01	 2.906402e-01
1	 1.703128e+00	 7.271254e-01	 3.153479e-01
1	 1.694396e+00	 7.472463e-01	 3.262515e-01
1	 1.685407e+00	 7.673068e-01	 3.211233e-01
1	 1.676160e+00	 7.873020e-01	 2.979433e-01
1	 1.666655e+00	 8.072271e-01	 2.549065e-01
1	 1.718448e+00	 7.097765e-01	 2.406080e-01
1	 1.709940e+00	 7.300339e-01	 2.671934e-01
1	 1.701174e+00	 7.502353e-01	 2.812308e-01
1	 1.692148e+00	 7.703760e-01	 2.806065e-01
1	 1.682864e+00	 7.904512e-01	 2.634082e-01
1	 1.673322e+00	 8.104560e-01	 2.279312e-01
1	 1.725294e+00	 7.126043e-01	 1.949579e-01
1	 1.716753e+00	 7.329424e-01	 2.230510e-01
1	 1.707951e+00	 7.532243e-01	 2.398143e-01
1	 1.698890e+00	 7.734453e-01	 2.432474e-01
1	 1.689569e+00	 7.936004e-01	 2.315433e-01
1	 1.679988e+00	 8.136849e-01	 2.030950e-01
1	 1.732140e+00	 7.154321e-01	 1.536166e-01
1	 1.723565e+00	 7.358509e-01	 1.828559e-01
1	 1.714729e+00	 7.562133e-01	 2.019380e-01
1	 1.705632e+00	 7.765145e-01	 2.089747e-01
1	 1.696273e+00	 7.967496e-01	 2.022623e-01
1	 1.686655e+00	 8.169139e-01	 1.802876e-01
1	 1.738987e+00	 7.182599e-01	 1.165119e-01
1	 1.730378e+00	 7.387594e-01	 1.465447e-01
1	 1.721506e+00	 7.592023e-01	 1.675391e-01
1	 1.712373e+00	 7.795837e-01	 1.777183e-01
1	 1.702978e+00	 7.998988e-01	 1.754797e-01
1	 1.693322e+00	 8.201428e-01	 1.594009e-01
1	 1.745833e+00	 7.210877e-01	 8.357294e-02
1	 1.737190e+00	 7.416679e-01	 1.140549e-01
1	 1.728284e+00	 7.621913e-01	 1.365558e-01
1	 1.719115e+00	 7.826530e-01	 1.494092e-01
1	 1.709683e+00	 8.030481e-01	 1.511116e-01
1	 1.699988e+00	 8.233717e-01	 1.403281e-01
1	 1.666655e+00	 8.072271e-01	 2.549065e-01
1	 1.656894e+00	 8.270773e-01	 1.881884e-01
1	 1.646877e+00	 8.468478e-01	 9.616897e-02
1	 1.636605e+00	 8.665338e-01	-1.938687e-02
1	 1.626078e+00	 8.861304e-01	-1.565842e-01
1	 1.615297e+00	 9.056327e-01	-3.134005e-01
1	 1.673322e+00	 8.104560e-01	 2.279312e-01
1	 1.663522e+00	 8.303857e-01	 1.700003e-01
1	 1.653465e+00	 8.502352e-01	 8.756264e-02
1	 1.643151e+00	 8.699999e-01	-1.764660e-02
1	 1.632582e+00	 8.896749e-01	-1.437674e-01
1	 1.621758e+00	 9.092553e-01	-2.888167e-01
1	 1.679988e+00	 8.136849e-01	 2.030950e-01
1	 1.670149e+00	 8.336940e-01	 1.533893e-01
1	 1.660052e+00	 8.536226e-01	 7.995632e-02
1	 1.649697e+00	 8.734661e-01	-1.550040e-02
1	 1.639086e+00	 8.932194e-01	-1.311551e-01
1	 1.628219e+00	 9.128778e-01	-2.650620e-01
1	 1.686655e+00	 8.169139e-01	 1.802876e-01
1	 1.676777e+00	 8.370023e-01	 1.382243e-01
1	 1.666640e+00	 8.570100e-01	 7.320968e-02
1	 1.656244e+00	 8.769322e-01	-1.308521e-02
1	 1.645591e+00	 8.967639e-01	-1.188684e-01
1	 1.634681e+00	 9.165003e-01	-2.422293e-01
1	 1.693322e+00	 8.201428e-01	 1.594009e-01
1	 1.683404e+00	 8.403106e-01	 1.243759e-01
1	 1.673227e+00	 8.603974e-01	 6.718460e-02
1	 1.662790e+00	 8.803983e-01	-1.053579e-02
1	 1.652095e+00	 9.003084e-01	-1.070267e-01
1	 1.641142e+00	 9.201229e-01	-2.204101e-01
1	 1.699988e+00	 8.233717e-01	 1.403281e-01
1	 1.690032e+00	 8.436189e-01	 1.117168e-01
1	 1.679815e+00	 8.637848e-01	 6.174513e-02
1	 1.669337e+00	 8.838645e-01	-7.984828e-03
1	 1.658599e+00	 9.038530e-01	-9.574725e-02
1	 1.647603e+00	 9.237454e-01	-1.996946e-01
1	 1.615297e+00	 9.056327e-01	-3.134005e-01
1	 1.604264e+00	 9.250361e-01	-4.935031e-01
1	 1.592980e+00	 9.443357e-01	-6.999933e-01
1	 1.581446e+00	 9.635266e-01	-9.297184e-01
1	 1.569664e+00	 9.826043e-01	-1.179282e+00
1	 1.557635e+00	 1.001564e+00	-1.445046e+00
1	 1.621758e+00	 9.092553e-01	-2.888167e-01
1	 1.610681e+00	 9.287362e-01	-4.561036e-01
1	 1.599352e+00	 9.481130e-01	-6.484241e-01
1	 1.587772e+00	 9.673807e-01	-8.627482e-01
1	 1.575942e+00	 9.865347e-01	-1.095799e+00
1	 1.563865e+00	 1.005570e+00	-1.344056e+00
1	 1.628219e+00	 9.128778e-01	-2.650620e-01
1	 1.617098e+00	 9.324364e-01	-4.201525e-01
1	 1.605724e+00	 9.518904e-01	-5.989073e-01
1	 1.594098e+00	 9.712349e-01	-7.984289e-01
1	 1.582221e+00	 9.904651e-01	-1.015573e+00
1	 1.570096e+00	 1.009576e+00	-1.246954e+00
1	 1.634681e+00	 9.165003e-01	-2.422293e-01
1	 1.623515e+00	 9.361365e-01	-3.857176e-01
1	 1.612096e+00	 9.556677e-01	-5.515024e-01
1	 1.600423e+00	 9.750890e-01	-7.368297e-01
1	 1.588500e+00	 9.943955e-01	-9.387019e-01
1	 1.576326e+00	 1.013583e+00	-1.153881e+00
1	 1.641142e+00	 9.201229e-01	-2.204101e-01
1	 1.629932e+00	 9.398367e-01	-3.528652e-01
1	 1.618468e+00	 9.594450e-01	-5.062683e-01
1	 1.606749e+00	 9.789431e-01	-6.780192e-01
1	 1.594778e+00	 9.983259e-01	-8.652795e-01
1	 1.582557e+00	 1.017589e+00	-1.064976e+00
1	 1.647603e+00	 9.237454e-01	-1.996946e-01
1	 1.636349e+00	 9.435368e-01	-3.216607e-01
1	 1.624840e+00	 9.632224e-01	-4.632628e-01
1	 1.613075e+00	 9.827972e-01	-6.220645e-01
1	 1.601057e+00	 1.002256e+00	-7.953997e-01
1	 1.588787e+00	 1.021595e+00	-9.803751e-01
1	 1.557635e+00	 1.001564e+00	-1.445046e+00
1	 1.545360e+00	 1.020400e+00	-1.707785e+00
1	 1.532843e+00	 1.039110e+00	-1.950274e+00
1	 1.520084e+00	 1.057687e+00	-2.171725e+00
1	 1.507085e+00	 1.076127e+00	-2.371392e+00
1	 1.493850e+00	 1.094426e+00	-2.548562e+00
1	 1.563865e+00	 1.005570e+00	-1.344056e+00
1	 1.551542e+00	 1.024482e+00	-1.589144e+00
1	 1.538974e+00	 1.043266e+00	-1.814453e+00
1	 1.526164e+00	 1.061917e+00	-2.018956e+00
1	 1.513114e+00	 1.080432e+00	-2.201662e+00
1	 1.499825e+00	 1.098804e+00	-2.361621e+00
1	 1.570096e+00	 1.009576e+00	-1.246954e+00
1	 1.557723e+00	 1.028564e+00	-1.475070e+00
1	 1.545105e+00	 1.047423e+00	-1.683960e+00
1	 1.532244e+00	 1.066148e+00	-1.872389e+00
1	 1.519142e+00	 1.084736e+00	-2.039155e+00
1	 1.505801e+00	 1.103181e+00	-2.183097e+00
1	 1.576326e+00	 1.013583e+00	-1.153881e+00
1	 1.563905e+00	 1.032645e+00	-1.365753e+00
1	 1.551237e+00	 1.051579e+00	-1.559024e+00
1	 1.538325e+00	 1.070379e+00	-1.732284e+00
1	 1.525170e+00	 1.089041e+00	-1.884152e+00
1	 1.511776e+00	 1.107559e+00	-2.013282e+00
1	 1.582557e+00	 1.017589e+00	-1.064976e+00
1	 1.570086e+00	 1.036727e+00	-1.261378e+00
1	 1.557368e+00	 1.055735e+00	-1.439872e+00
1	 1.544405e+00	 1.074610e+00	-1.598899e+00
1	 1.531199e+00	 1.093345e+00	-1.736930e+00
1	 1.517751e+00	 1.111937e+00	-1.852462e+00
1	 1.588787e+00	 1.021595e+00	-9.803751e-01
1	 1.576267e+00	 1.040808e+00	-1.162131e+00
1	 1.563499e+00	 1.059892e+00	-1.326724e+00
1	 1.550485e+00	 1.078840e+00	-1.472484e+00
1	 1.537227e+00	 1.097650e+00	-1.597759e+00
1	 1.523727e+00	 1.116314e+00	-1.700920e+00
1	 1.493850e+00	 1.094426e+00	-2.548562e+00
1	 1.480379e+00	 1.112579e+00	-2.687946e+00
1	 1.466677e+00	 1.130582e+00	-2.780588e+00
1	 1.452744e+00	 1.148430e+00	-2.835889e+00
1	 1.438584e+00	 1.166119e+00	-2.864017e+00
1	 1.424199e+00	 1.183644e+00	-2.875885e+00
1	 1.499825e+00	 1.098804e+00	-2.361621e+00
1	 1.486301e+00	 1.117029e+00	-2.485627e+00
1	 1.472543e+00	 1.135104e+00	-2.566860e+00
1	 1.458555e+00	 1.153023e+00	-2.614534e+00
1	 1.444338e+00	 1.170783e+00	-2.638602e+00
1	 1.429896e+00	 1.188379e+00	-2.649734e+00
1	 1.505801e+00	 1.103181e+00	-2.183097e+00
1	 1.492222e+00	 1.121480e+00	-2.292997e+00
1	 1.478410e+00	 1.139626e+00	-2.363983e+00
1	 1.464366e+00	 1.157617e+00	-2.404977e+00
1	 1.450092e+00	 1.175448e+00	-2.425602e+00
1	 1.435592e+00	 1.193113e+00	-2.436169e+00
1	 1.511776e+00	 1.107559e+00	-2.013282e+00
1	 1.498144e+00	 1.125930e+00	-2.110340e+00
1	 1.484277e+00	 1.144149e+00	-2.172214e+00
1	 1.470177e+00	 1.162211e+00	-2.207420e+00
1	 1.455847e+00	 1.180112e+00	-2.225145e+00
1	 1.441289e+00	 1.197848e+00	-2.235226e+00
1	 1.517751e+00	 1.111937e+00	-1.852462e+00
1	 1.504065e+00	 1.130380e+00	-1.937938e+00
1	 1.490143e+00	 1.148671e+00	-1.991802e+00
1	 1.475988e+00	 1.166805e+00	-2.022063e+00
1	 1.461601e+00	 1.184776e+00	-2.037358e+00
1	 1.446986e+00	 1.202582e+00	-2.046939e+00
1	 1.523727e+00	 1.116314e+00	-1.700920e+00
1	 1.509987e+00	 1.134831e+00	-1.776065e+00
1	 1.496010e+00	 1.153193e+00	-1.822993e+00
1	 1.481799e+00	 1.171398e+00	-1.849100e+00
1	 1.467355e+00	 1.189441e+00	-1.862366e+00
1	 1.452683e+00	 1.207317e+00	-1.871343e+00
1	 1.424199e+00	 1.183644e+00	-2.875885e+00
1	 1.409592e+00	 1.201002e+00	-2.881069e+00
1	 1.394767e+00	 1.218187e+00	-2.881021e+00
1	 1.379726e+00	 1.235197e+00	-2.874950e+00
1	 1.364472e+00	 1.252027e+00	-2.861979e+00
1	 1.349009e+00	 1.268673e+00	-2.841146e+00
1	 1.429896e+00	 1.188379e+00	-2.649734e+00
1	 1.415231e+00	 1.205806e+00	-2.654849e+00
1	 1.400346e+00	 1.223060e+00	-2.653131e+00
1	 1.385245e+00	 1.240138e+00	-2.644127e+00
1	 1.369930e+00	 1.257035e+00	-2.627319e+00
1	 1.354405e+00	 1.273748e+00	-2.602130e+00
1	 1.435592e+00	 1.193113e+00	-2.436169e+00
1	 1.420869e+00	 1.210610e+00	-2.441039e+00
1	 1.405925e+00	 1.227933e+00	-2.437368e+00
1	 1.390763e+00	 1.245079e+00	-2.425136e+00
1	 1.375388e+00	 1.262043e+00	-2.404289e+00
1	 1.359801e+00	 1.278822e+00	-2.374740e+00
1	 1.441289e+00	 1.197848e+00	-2.235226e+00
1	 1.426507e+00	 1.215414e+00	-2.239589e+00
1	 1.411504e+00	 1.232806e+00	-2.233626e+00
1	 1.396282e+00	 1.250020e+00	-2.217848e+00
1	 1.380846e+00	 1.267051e+00	-2.192768e+00
1	 1.365197e+00	 1.283897e+00	-2.158893e+00
1	 1.446986e+00	 1.202582e+00	-2.046939e+00
1	 1.432146e+00	 1.220218e+00	-2.050449e+00
1	 1.417083e+00	 1.237678e+00	-2.041803e+00
1	 1.401801e+00	 1.254960e+00	-2.022141e+00
1	 1.386303e+00	 1.272059e+00	-1.992638e+00
1	 1.370593e+00	 1.288972e+00	-1.954508e+00
1	 1.452683e+00	 1.207317e+00	-1.871343e+00
1	 1.437784e+00	 1.225022e+00	-1.873568e+00
1	 1.422662e+00	 1.242551e+00	-1.861797e+00
1	 1.407320e+00	 1.259901e+00	-1.837889e+00
1	 1.391761e+00	 1.277068e+00	-1.803785e+00
1	 1.375989e+00	 1.294046e+00	-1.761503e+00
1	 1.349009e+00	 1.268673e+00	-2.841146e+00
1	 1.333340e+00	 1.285131e+00	-2.832023e+00
1	 1.317468e+00	 1.301397e+00	-2.854810e+00
1	 1.301397e+00	 1.317468e+00	-2.909382e+00
1	 1.285131e+00	 1.333340e+00	-2.995541e+00
1	 1.268673e+00	 1.349009e+00	-3.113019e+00
1	 1.354405e+00	 1.273748e+00	-2.602130e+00
1	 1.338673e+00	 1.290271e+00	-2.588458e+00
1	 1.322738e+00	 1.306603e+00	-2.606394e+00
1	 1.306603e+00	 1.322738e+00	-2.655538e+00
1	 1.290271e+00	 1.338673e+00	-2.735411e+00
1	 1.273748e+00	 1.354405e+00	-2.845453e+00
1	 1.359801e+00	 1.278822e+00	-2.374740e+00
1	 1.344006e+00	 1.295412e+00	-2.356694e+00
1	 1.328007e+00	 1.311808e+00	-2.370021e+00
1	 1.311808e+00	 1.328007e+00	-2.414033e+00
1	 1.295412e+00	 1.344006e+00	-2.487952e+00
1	 1.278822e+00	 1.359801e+00	-2.590910e+00
1	 1.365197e+00	 1.283897e+00	-2.158893e+00
1	 1.349340e+00	 1.300552e+00	-2.136697e+00
1	 1.333277e+00	 1.317014e+00	-2.145705e+00
1	 1.317014e+00	 1.333277e+00	-2.184927e+00
1	 1.300552e+00	 1.349340e+00	-2.253269e+00
1	 1.283897e+00	 1.365197e+00	-2.349536e+00
1	 1.370593e+00	 1.288972e+00	-1.954508e+00
1	 1.354673e+00	 1.305693e+00	-1.928433e+00
1	 1.338547e+00	 1.322219e+00	-1.933461e+00
1	 1.322219e+00	 1.338547e+00	-1.968280e+00
1	 1.305693e+00	 1.354673e+00	-2.031465e+00
1	 1.288972e+00	 1.370593e+00	-2.121481e+00
1	 1.375989e+00	 1.294046e+00	-1.761503e+00
1	 1.360006e+00	 1.310833e+00	-1.731870e+00
1	 1.343817e+00	 1.327425e+00	-1.733300e+00
1	 1.327425e+00	 1.343817e+00	-1.764148e+00
1	 1.310833e+00	 1.360006e+00	-1.822642e+00
1	 1.294046e+00	 1.375989e+00	-1.906888e+00
1	 1.268673e+00	 1.349009e+00	-3.113019e+00
1	 1.252027e+00	 1.364472e+00	-3.275903e+00
1	 1.235197e+00	 1.379726e+00	-3.495860e+00
1	 1.218187e+00	 1.394767e+00	-3.768831e+00
1	 1.201002e+00	 1.409592e+00	-4.090622e+00
1	 1.183644e+00	 1.424199e+00	-4.456913e+00
1	 1.273748e+00	 1.354405e+00	-2.845453e+00
1	 1.257035e+00	 1.369930e+00	-2.999295e+00
1	 1.240138e+00	 1.385245e+00	-3.208355e+00
1	 1.223060e+00	 1.400346e+00	-3.468592e+00
1	 1.205806e+00	 1.415231e+00	-3.775829e+00
1	 1.188379e+00	 1.429896e+00	-4.125761e+00
1	 1.278822e+00	 1.359801e+00	-2.590910e+00
1	 1.262043e+00	 1.375388e+00	-2.736089e+00
1	 1.245079e+00	 1.390763e+00	-2.934701e+00
1	 1.227933e+00	 1.405925e+00	-3.182738e+00
1	 1.210610e+00	 1.420869e+00	-3.476053e+00
1	 1.193113e+00	 1.435592e+00	-3.810371e+00
1	 1.283897e+00	 1.365197e+00	-2.349536e+00
1	 1.267051e+00	 1.380846e+00	-2.486476e+00
1	 1.250020e+00	 1.396282e+00	-2.675116e+00
1	 1.232806e+00	 1.411504e+00	-2.911502e+00
1	 1.215414e+00	 1.426507e+00	-3.191534e+00
1	 1.197848e+00	 1.441289e+00	-3.510979e+00
1	 1.288972e+00	 1.370593e+00	-2.121481e+00
1	 1.272059e+00	 1.386303e+00	-2.250638e+00
1	 1.254960e+00	 1.401801e+00	-2.429812e+00
1	 1.237678e+00	 1.417083e+00	-2.655115e+00
1	 1.220218e+00	 1.432146e+00	-2.922509e+00
1	 1.202582e+00	 1.446986e+00	-3.227817e+00
1	 1.294046e+00	 1.375989e+00	-1.906888e+00
1	 1.277068e+00	 1.391761e+00	-2.028760e+00
1	 1.259901e+00	 1.407320e+00	-2.198999e+00
1	 1.242551e+00	 1.422662e+00	-2.413803e+00
1	 1.225022e+00	 1.437784e+00	-2.669211e+00
1	 1.207317e+00	 1.452683e+00	-2.961114e+00
1	 1.183644e+00	 1.424199e+00	-4.456913e+00
1	 1.166119e+00	 1.438584e+00	-4.859705e+00
1	 1.148430e+00	 1.452744e+00	-5.285951e+00
1	 1.130582e+00	 1.466677e+00	-5.723246e+00
1	 1.112579e+00	 1.480379e+00	-6.158658e+00
1	 1.094426e+00	 1.493850e+00	-6.578751e+00
1	 1.188379e+00	 1.429896e+00	-4.125761e+00
1	 1.170783e+00	 1.444338e+00	-4.509006e+00
1	 1.153023e+00	 1.458555e+00	-4.911913e+00
1	 1.135104e+00	 1.472543e+00	-5.323294e+00
1	 1.117029e+00	 1.486301e+00	-5.731468e+00
1	 1.098804e+00	 1.499825e+00	-6.124289e+00
1	 1.193113e+00	 1.435592e+00	-3.810371e+00
1	 1.175448e+00	 1.450092e+00	-4.175072e+00
1	 1.157617e+00	 1.464366e+00	-4.555953e+00
1	 1.139626e+00	 1.478410e+00	-4.942914e+00
1	 1.121480e+00	 1.492222e+00	-5.325398e+00
1	 1.103181e+00	 1.505801e+00	-5.692416e+00
1	 1.197848e+00	 1.441289e+00	-3.510979e+00
1	 1.180112e+00	 1.455847e+00	-3.858119e+00
1	 1.162211e+00	 1.470177e+00	-4.218251e+00
1	 1.144149e+00	 1.484277e+00	-4.582233e+00
1	 1.125930e+00	 1.498144e+00	-4.940504e+00
1	 1.107559e+00	 1.511776e+00	-5.283102e+00
1	 1.202582e+00	 1.446986e+00	-3.227817e+00
1	 1.184776e+00	 1.461601e+00	-3.558361e+00
1	 1.166805e+00	 1.475988e+00	-3.898981e+00
1	 1.148671e+00	 1.490143e+00	-4.241373e+00
1	 1.130380e+00	 1.504065e+00	-4.576840e+00
1	 1.111937e+00	 1.517751e+00	-4.896320e+00
1	 1.207317e+00	 1.452683e+00	-2.961114e+00
1	 1.189441e+00	 1.467355e+00	-3.276007e+00
1	 1.171398e+00	 1.481799e+00	-3.598318e+00
1	 1.153193e+00	 1.496010e+00	-3.920453e+00
1	 1.134831e+00	 1.509987e+00	-4.234460e+00
1	 1.116314e+00	 1.523727e+00	-4.532043e+00
1	 1.094426e+00	 1.493850e+00	-6.578751e+00
1	 1.076127e+00	 1.507085e+00	-6.965292e+00
1	 1.057687e+00	 1.520084e+00	-7.309006e+00
1	 1.039110e+00	 1.532843e+00	-7.609610e+00
1	 1.020400e+00	 1.545360e+00	-7.866917e+00
1	 1.001564e+00	 1.557635e+00	-8.080834e+00
1	 1.098804e+00	 1.499825e+00	-6.124289e+00
1	 1.080432e+00	 1.513114e+00	-6.486307e+00
1	 1.061917e+00	 1.526164e+00	-6.809553e+00
1	 1.043266e+00	 1.538974e+00	-7.092825e+00
1	 1.024482e+00	 1.551542e+00	-7.334988e+00
1	 1.005570e+00	 1.563865e+00	-7.534974e+00
1	 1.103181e+00	 1.505801e+00	-5.692416e+00
1	 1.084736e+00	 1.519142e+00	-6.030986e+00
1	 1.066148e+00	 1.532244e+00	-6.334323e+00
1	 1.047423e+00	 1.545105e+00	-6.600453e+00
1	 1.028564e+00	 1.557723e+00	-6.827446e+00
1	 1.009576e+00	 1.570096e+00	-7.013417e+00
1	 1.107559e+00	 1.511776e+00	-5.283102e+00
1	 1.089041e+00	 1.525170e+00	-5.599228e+00
1	 1.070379e+00	 1.538325e+00	-5.883174e+00
1	 1.051579e+00	 1.551237e+00	-6.132343e+00
1	 1.032645e+00	 1.563905e+00	-6.344158e+00
1	 1.013583e+00	 1.576326e+00	-6.516075e+00
1	 1.111937e+00	 1.517751e+00	-4.896320e+00
1	 1.093345e+00	 1.531199e+00	-5.190933e+00
1	 1.074610e+00	 1.544405e+00	-5.455967e+00
1	 1.055735e+00	 1.557368e+00	-5.688344e+00
1	 1.036727e+00	 1.570086e+00	-5.884994e+00
1	 1.017589e+00	 1.582557e+00	-6.042860e+00
1	 1.116314e+00	 1.523727e+00	-4.532043e+00
1	 1.097650e+00	 1.537227e+00	-4.806004e+00
1	 1.078840e+00	 1.550485e+00	-5.052564e+00
1	 1.059892e+00	 1.563499e+00	-5.268310e+00
1	 1.040808e+00	 1.576267e+00	-5.449824e+00
1	 1.021595e+00	 1.588787e+00	-5.593687e+00
1	 1.001564e+00	 1.557635e+00	-8.080834e+00
1	 9.826043e-01	 1.569664e+00	-8.234862e+00
1	 9.635266e-01	 1.581446e+00	-8.315165e+00
1	 9.443357e-01	 1.592980e+00	-8.325871e+00
1	 9.250361e-01	 1.604264e+00	-8.271299e+00
1	 9.056327e-01	 1.615297e+00	-8.155956e+00
1	 1.005570e+00	 1.563865e+00	-7.534974e+00
1	 9.865347e-01	 1.575942e+00	-7.676007e+00
1	 9.673807e-01	 1.587772e+00	-7.744874e+00
1	 9.481130e-01	 1.599352e+00	-7.746073e+00
1	 9.287362e-01	 1.610681e+00	-7.684301e+00
1	 9.092553e-01	 1.621758e+00	-7.564447e+00
1	 1.009576e+00	 1.570096e+00	-7.013417e+00
1	 9.904651e-01	 1.582221e+00	-7.141540e+00
1	 9.712349e-01	 1.594098e+00	-7.199298e+00
1	 9.518904e-01	 1.605724e+00	-7.191469e+00
1	 9.324364e-01	 1.617098e+00	-7.123041e+00
1	 9.128778e-01	 1.628219e+00	-6.999195e+00
1	 1.013583e+00	 1.576326e+00	-6.516075e+00
1	 9.943955e-01	 1.588500e+00	-6.631422e+00
1	 9.750890e-01	 1.600423e+00	-6.678423e+00
1	 9.556677e-01	 1.612096e+00	-6.662056e+00
1	 9.361365e-01	 1.623515e+00	-6.587509e+00
1	 9.165003e-01	 1.634681e+00	-6.460166e+00
1	 1.017589e+00	 1.582557e+00	-6.042860e+00
1	 9.983259e-01	 1.594778e+00	-6.145612e+00
1	 9.789431e-01	 1.606749e+00	-6.182238e+00
1	 9.594450e-01	 1.618468e+00	-6.157831e+00
1	 9.398367e-01	 1.629932e+00	-6.077693e+00
1	 9.201229e-01	 1.641142e+00	-5.947324e+00
1	 1.021595e+00	 1.588787e+00	-5.593687e+00
1	 1.002256e+00	 1.601057e+00	-5.684070e+00
1	 9.827972e-01	 1.613075e+00	-5.710730e+00
1	 9.632224e-01	 1.624840e+00	-5.678790e+00
1	 9.435368e-01	 1.636349e+00	-5.593583e+00
1	 9.237454e-01	 1.647603e+00	-5.460636e+00
1	 9.056327e-01	 1.615297e+00	-8.155956e+00
1	 8.861304e-01	 1.626078e+00	-7.990018e+00
1	 8.665338e-01	 1.636605e+00	-7.780679e+00
1	 8.468478e-01	 1.646877e+00	-7.528136e+00
1	 8.270773e-01	 1.656894e+00	-7.232632e+00
1	 8.072271e-01	 1.666655e+00	-6.894453e+00
1	 9.092553e-01	 1.621758e+00	-7.564447e+00
1	 8.896749e-01	 1.632582e+00	-7.396484e+00
1	 8.699999e-01	 1.643151e+00	-7.187037e+00
1	 8.502352e-01	 1.653465e+00	-6.936136e+00
1	 8.303857e-01	 1.663522e+00	-6.643851e+00
1	 8.104560e-01	 1.673322e+00	-6.310291e+00
1	 9.128778e-01	 1.628219e+00	-6.999195e+00
1	 8.932194e-01	 1.639086e+00	-6.829596e+00
1	 8.734661e-01	 1.649697e+00	-6.620308e+00
1	 8.536226e-01	 1.660052e+00	-6.371282e+00
1	 8.336940e-01	 1.670149e+00	-6.082501e+00
1	 8.136849e-01	 1.679988e+00	-5.753985e+00
1	 9.165003e-01	 1.634681e+00	-6.460166e+00
1	 8.967639e-01	 1.645591e+00	-6.289293e+00
1	 8.769322e-01	 1.656244e+00	-6.080425e+00
1	 8.570100e-01	 1.666640e+00	-5.833513e+00
1	 8.370023e-01	 1.676777e+00	-5.548542e+00
1	 8.169139e-01	 1.686655e+00	-5.225528e+00
1	 9.201229e-01	 1.641142e+00	-5.947324e+00
1	 9.003084e-01	 1.652095e+00	-5.775518e+00
1	 8.803983e-01	 1.662790e+00	-5.567320e+00
1	 8.603974e-01	 1.673227e+00	-5.322769e+00
1	 8.403106e-01	 1.683404e+00	-5.041933e+00
1	 8.201428e-01	 1.693322e+00	-4.724911e+00
1	 9.237454e-01	 1.647603e+00	-5.460636e+00
1	 9.038530e-01	 1.658599e+00	-5.288213e+00
1	 8.838645e-01	 1.669337e+00	-5.080929e+00
1	 8.637848e-01	 1.679815e+00	-4.838991e+00
1	 8.436189e-01	 1.690032e+00	-4.562636e+00
1	 8.233717e-01	 1.699988e+00	-4.252128e+00
1	 8.072271e-01	 1.666655e+00	-6.894453e+00
1	 7.873020e-01	 1.676160e+00	-6.507296e+00
1	 7.673068e-01	 1.685407e+00	-6.076953e+00
1	 7.472463e-01	 1.694396e+00	-5.622106e+00
1	 7.271254e-01	 1.703128e+00	-5.161688e+00
1	 7.069488e-01	 1.711601e+00	-4.714842e+00
1	 8.104560e-01	 1.673322e+00	-6.310291e+00
1	 7.904512e-01	 1.682864e+00	-5.930305e+00
1	 7.703760e-01	 1.692148e+00	-5.510316e+00
1	 7.502353e-01	 1.701174e+00	-5.068031e+00
1	 7.300339e-01	 1.709940e+00	-4.621395e+00
1	 7.097765e-01	 1.718448e+00	-4.188557e+00
1	 8.136849e-01	 1.679988e+00	-5.753985e+00
1	 7.936004e-01	 1.689569e+00	-5.381745e+00
1	 7.734453e-01	 1.698890e+00	-4.972758e+00
1	 7.532243e-01	 1.707951e+00	-4.543713e+00
1	 7.329424e-01	 1.716753e+00	-4.111529e+00
1	 7.126043e-01	 1.725294e+00	-3.693319e+00
1	 8.169139e-01	 1.686655e+00	-5.225528e+00
1	 7.967496e-01	 1.696273e+00	-4.861644e+00
1	 7.765145e-01	 1.705632e+00	-4.464334e+00
1	 7.562133e-01	 1.714729e+00	-4.049232e+00
1	 7.358509e-01	 1.723565e+00	-3.632187e+00
1	 7.154321e-01	 1.732140e+00	-3.229235e+00
1	 8.201428e-01	 1.693322e+00	-4.724911e+00
1	 7.998988e-01	 1.702978e+00	-4.370028e+00
1	 7.795837e-01	 1.712373e+00	-3.985101e+00
1	 7.592023e-01	 1.721506e+00	-3.584665e+00
1	 7.387594e-01	 1.730378e+00	-3.183463e+00
1	 7.182599e-01	 1.738987e+00	-2.796412e+00
1	 8.233717e-01	 1.699988e+00	-4.252128e+00
1	 8.030481e-01	 1.709683e+00	-3.906924e+00
1	 7.826530e-01	 1.719115e+00	-3.535112e+00
1	 7.621913e-01	 1.728284e+00	-3.150089e+00
1	 7.416679e-01	 1.737190e+00	-2.765451e+00
1	 7.210877e-01	 1.745833e+00	-2.394956e+00
1	 7.069488e-01	 1.711601e+00	-4.714842e+00
1	 6.867212e-01	 1.719817e+00	-4.294326e+00
1	 6.664474e-01	 1.727774e+00	-3.910342e+00
1	 6.461321e-01	 1.735474e+00	-3.578332e+00
1	 6.257800e-01	 1.742916e+00	-3.313720e+00
1	 6.053958e-01	 1.750100e+00	-3.131882e+00
1	 7.097765e-01	 1.718448e+00	-4.188557e+00
1	 6.894681e-01	 1.726696e+00	-3.781074e+00
1	 6.691132e-01	 1.734685e+00	-3.408759e+00
1	 6.487166e-01	 1.742415e+00	-3.087283e+00
1	 6.282832e-01	 1.749887e+00	-2.832310e+00
1	 6.078174e-01	 1.757101e+00	-2.659459e+00
1	 7.126043e-01	 1.725294e+00	-3.693319e+00
1	 6.922149e-01	 1.733575e+00	-3.299482e+00
1	 6.717790e-01	 1.741596e+00	-2.939505e+00
1	 6.513012e-01	 1.749357e+00	-2.629265e+00
1	 6.307863e-01	 1.756859e+00	-2.384636e+00
1	 6.102390e-01	 1.764101e+00	-2.221459e+00
1	 7.154321e-01	 1.732140e+00	-3.229235e+00
1	 6.949618e-01	 1.740454e+00	-2.849665e+00
1	 6.744448e-01	 1.748507e+00	-2.502691e+00
1	 6.538857e-01	 1.756299e+00	-2.204374e+00
1	 6.332894e-01	 1.763831e+00	-1.970774e+00
1	 6.126606e-01	 1.771102e+00	-1.817925e+00
1	 7.182599e-01	 1.738987e+00	-2.796412e+00
1	 6.977087e-01	 1.747334e+00	-2.431733e+00
1	 6.771105e-01	 1.755418e+00	-2.098424e+00
1	 6.564702e-01	 1.763241e+00	-1.812703e+00
1	 6.357925e-01	 1.770802e+00	-1.590795e+00
1	 6.150821e-01	 1.778102e+00	-1.448899e+00
1	 7.210877e-01	 1.745833e+00	-2.394956e+00
1	 7.004556e-01	 1.754213e+00	-2.045796e+00
1	 6.797763e-01	 1.762330e+00	-1.726808e+00
1	 6.590548e-01	 1.770183e+00	-1.454345e+00
1	 6.382956e-01	 1.777774e+00	-1.244770e+00
1	 6.175037e-01	 1.785102e+00	-1.114424e+00
1	 6.053958e-01	 1.750100e+00	-3.131882e+00
1	 5.849840e-01	 1.757028e+00	-3.062072e+00
1	 5.645493e-01	 1.763700e+00	-3.126808e+00
1	 5.440962e-01	 1.770117e+00	-3.331198e+00
1	 5.236291e-01	 1.776279e+00	-3.680194e+00
1	 5.031526e-01	 1.782188e+00	-4.178585e+00
1	 6.078174e-01	 1.757101e+00	-2.659459e+00
1	 5.873240e-01	 1.764057e+00	-2.597574e+00
1	 5.668075e-01	 1.770755e+00	-2.668011e+00
1	 5.462726e-01	 1.777198e+00	-2.875002e+00
1	 5.257236e-01	 1.783384e+00	-3.222623e+00
1	 5.051652e-01	 1.789316e+00	-3.714788e+00
1	 6.102390e-01	 1.764101e+00	-2.221459e+00
1	 5.896639e-01	 1.771085e+00	-2.168081e+00
1	 5.690657e-01	 1.777810e+00	-2.244662e+00
1	 5.484490e-01	 1.784278e+00	-2.454608e+00
1	 5.278182e-01	 1.790489e+00	-2.801171e+00
1	 5.071778e-01	 1.796445e+00	-3.287444e+00
1	 6.126606e-01	 1.771102e+00	-1.817925e+00
1	 5.920039e-01	 1.778113e+00	-1.773609e+00
1	 5.713239e-01	 1.784865e+00	-1.856770e+00
1	 5.506253e-01	 1.791359e+00	-2.070037e+00
1	 5.299127e-01	 1.797595e+00	-2.415886e+00
1	 5.091904e-01	 1.803574e+00	-2.896641e+00
1	 6.150821e-01	 1.778102e+00	-1.448899e+00
1	 5.943438e-01	 1.785141e+00	-1.414176e+00
1	 5.735821e-01	 1.791920e+00	-1.504347e+00
1	 5.528017e-01	 1.798439e+00	-1.721308e+00
1	 5.320072e-01	 1.804700e+00	-2.066811e+00
1	 5.112030e-01	 1.810703e+00	-2.542463e+00
1	 6.175037e-01	 1.785102e+00	-1.114424e+00
1	 5.966837e-01	 1.792169e+00	-1.089801e+00
1	 5.758403e-01	 1.798974e+00	-1.187402e+00
1	 5.549781e-01	 1.805519e+00	-1.408440e+00
1	 5.341017e-01	 1.811805e+00	-1.753991e+00
1	 5.132156e-01	 1.817831e+00	-2.224995e+00
1	 5.031526e-01	 1.782188e+00	-4.178585e+00
1	 4.826710e-01	 1.787843e+00	-4.827765e+00
1	 4.621887e-01	 1.793248e+00	-5.631262e+00
1	 4.417099e-01	 1.798401e+00	-6.596778e+00
1	 4.212390e-01	 1.803306e+00	-7.731793e+00
1	 4.007801e-01	 1.807963e+00	-9.043558e+00
1	 5.051652e-01	 1.789316e+00	-3.714788e+00
1	 4.846017e-01	 1.794995e+00	-4.352186e+00
1	 4.640374e-01	 1.800421e+00	-5.137945e+00
1	 4.434768e-01	 1.805595e+00	-6.079366e+00
1	 4.229240e-01	 1.810519e+00	-7.183542e+00
1	 4.023832e-01	 1.815195e+00	-8.457344e+00
1	 5.071778e-01	 1.796445e+00	-3.287444e+00
1	 4.865323e-01	 1.802146e+00	-3.913432e+00
1	 4.658862e-01	 1.807594e+00	-4.681671e+00
1	 4.452436e-01	 1.812789e+00	-5.598787e+00
1	 4.246089e-01	 1.817733e+00	-6.671210e+00
1	 4.039864e-01	 1.822427e+00	-7.905159e+00
1	 5.091904e-01	 1.803574e+00	-2.896641e+00
1	 4.884630e-01	 1.809298e+00	-3.511620e+00
1	 4.677349e-01	 1.814767e+00	-4.262548e+00
1	 4.470104e-01	 1.819982e+00	-5.155107e+00
1	 4.262939e-01	 1.824946e+00	-6.194789e+00
1	 4.055895e-01	 1.829659e+00	-7.386894e+00
1	 5.112030e-01	 1.810703e+00	-2.542463e+00
1	 4.903937e-01	 1.816449e+00	-3.146864e+00
1	 4.695837e-01	 1.821940e+00	-3.880682e+00
1	 4.487773e-01	 1.827176e+00	-4.748389e+00
1	 4.279788e-01	 1.832159e+00	-5.754273e+00
1	 4.071926e-01	 1.836891e+00	-6.902441e+00
1	 5.132156e-01	 1.817831e+00	-2.224995e+00
1	 4.923244e-01	 1.823600e+00	-2.819276e+00
1	 4.714324e-01	 1.829113e+00	-3.536179e+00
1	 4.505441e-01	 1.834369e+00	-4.378698e+00
1	 4.296638e-01	 1.839372e+00	-5.349654e+00
1	 4.087957e-01	 1.844122e+00	-6.451697e+00
1	 4.007801e-01	 1.807963e+00	-9.043558e+00
1	 3.803374e-01	 1.812374e+00	-1.054563e+01
1	 3.599148e-01	 1.816540e+00	-1.221904e+01
1	 3.395165e-01	 1.820463e+00	-1.402217e+01
1	 3.191463e-01	 1.824144e+00	-1.591357e+01
1	 2.988082e-01	 1.827586e+00	-1.785208e+01
1	 4.023832e-01	 1.815195e+00	-8.457344e+00
1	 3.818587e-01	 1.819623e+00	-9.912940e+00
1	 3.613545e-01	 1.823806e+00	-1.153095e+01
1	 3.408746e-01	 1.827744e+00	-1.327086e+01
1	 3.204229e-01	 1.831440e+00	-1.509234e+01
1	 3.000035e-01	 1.834896e+00	-1.695531e+01
1	 4.039864e-01	 1.822427e+00	-7.905159e+00
1	 3.833801e-01	 1.826873e+00	-9.311297e+00
1	 3.627941e-01	 1.831072e+00	-1.087026e+01
1	 3.422326e-01	 1.835026e+00	-1.254316e+01
1	 3.216995e-01	 1.838737e+00	-1.429129e+01
1	 3.011987e-01	 1.842206e+00	-1.607620e+01
1	 4.055895e-01	 1.829659e+00	-7.386894e+00
1	 3.849014e-01	 1.834122e+00	-8.740506e+00
1	 3.642338e-01	 1.838338e+00	-1.023673e+01
1	 3.435907e-01	 1.842308e+00	-1.183884e+01
1	 3.229761e-01	 1.846034e+00	-1.351026e+01
1	 3.023939e-01	 1.849517e+00	-1.521465e+01
1	 4.071926e-01	 1.836891e+00	-6.902441e+00
1	 3.864228e-01	 1.841372e+00	-8.200378e+00
1	 3.656735e-01	 1.845604e+00	-9.630153e+00
1	 3.449488e-01	 1.849590e+00	-1.115769e+01
1	 3.242527e-01	 1.853330e+00	-1.274907e+01
1	 3.035892e-01	 1.856827e+00	-1.437059e+01
1	 4.087957e-01	 1.844122e+00	-6.451697e+00
1	 3.879441e-01	 1.848621e+00	-7.690725e+00
1	 3.671131e-01	 1.852871e+00	-9.050297e+00
1	 3.463068e-01	 1.856872e+00	-1.049950e+01
1	 3.255293e-01	 1.860627e+00	-1.200757e+01
1	 3.047844e-01	 1.864137e+00	-1.354394e+01
1	 2.988082e-01	 1.827586e+00	-1.785208e+01
1	 2.785059e-01	 1.830789e+00	-1.979631e+01
1	 2.582433e-01	 1.833757e+00	-2.171476e+01
1	 2.380238e-01	 1.836491e+00	-2.358160e+01
1	 2.178512e-01	 1.838993e+00	-2.537134e+01
1	 1.977290e-01	 1.841265e+00	-2.705886e+01
1	 3.000035e-01	 1.834896e+00	-1.695531e+01
1	 2.796200e-01	 1.838113e+00	-1.881984e+01
1	 2.592762e-01	 1.841092e+00	-2.065631e+01
1	 2.389759e-01	 1.843837e+00	-2.244058e+01
1	 2.187226e-01	 1.846349e+00	-2.414884e+01
1	 1.985199e-01	 1.848631e+00	-2.575767e+01
1	 3.011987e-01	 1.842206e+00	-1.607620e+01
1	 2.807340e-01	 1.845436e+00	-1.785981e+01
1	 2.603092e-01	 1.848427e+00	-1.961430e+01
1	 2.399280e-01	 1.851183e+00	-2.131697e+01
1	 2.195940e-01	 1.853705e+00	-2.294546e+01
1	 1.993109e-01	 1.855996e+00	-2.447775e+01
1	 3.023939e-01	 1.849517e+00	-1.521465e+01
1	 2.818480e-01	 1.852759e+00	-1.691622e+01
1	 2.613422e-01	 1.855762e+00	-1.858880e+01
1	 2.408801e-01	 1.858529e+00	-2.021089e+01
1	 2.204654e-01	 1.861061e+00	-2.176131e+01
1	 2.001018e-01	 1.863361e+00	-2.321921e+01
1	 3.035892e-01	 1.856827e+00	-1.437059e+01
1	 2.829620e-01	 1.860082e+00	-1.598908e+01
1	 2.623751e-01	 1.863097e+00	-1.757986e+01
1	 2.418322e-01	 1.865875e+00	-1.912242e+01
1	 2.213369e-01	 1.868417e+00	-2.059649e+01
1	 2.008927e-01	 1.870726e+00	-2.198217e+01
1	 3.047844e-01	 1.864137e+00	-1.354394e+01
1	 2.840761e-01	 1.867405e+00	-1.507838e+01
1	 2.634081e-01	 1.870432e+00	-1.658756e+01
1	 2.427843e-01	 1.873221e+00	-1.805166e+01
1	 2.222083e-01	 1.875773e+00	-1.945113e+01
1	 2.016836e-01	 1.878091e+00	-2.076674e+01
1	 1.977290e-01	 1.841265e+00	-2.705886e+01
1	 1.776606e-01	 1.843310e+00	-2.861733e+01
1	 1.576495e-01	 1.845129e+00	-3.002421e+01
1	 1.376988e-01	 1.846725e+00	-3.126144e+01
1	 1.178119e-01	 1.848101e+00	-3.231140e+01
1	 9.799187e-02	 1.849257e+00	-3.315696e+01
1	 1.985199e-01	 1.848631e+00	-2.575767e+01
1	 1.783713e-01	 1.850683e+00	-2.724197e+01
1	 1.582801e-01	 1.852510e+00	-2.858092e+01
1	 1.382496e-01	 1.854112e+00	-2.975808e+01
1	 1.182831e-01	 1.855493e+00	-3.075740e+01
1	 9.838384e-02	 1.856654e+00	-3.156329e+01
1	 1.993109e-01	 1.855996e+00	-2.447775e+01
1	 1.790819e-01	 1.858057e+00	-2.589026e+01
1	 1.589107e-01	 1.859890e+00	-2.716375e+01
1	 1.388004e-01	 1.861499e+00	-2.828324e+01
1	 1.187544e-01	 1.862885e+00	-2.923413e+01
1	 9.877581e-02	 1.864051e+00	-3.000225e+01
1	 2.001018e-01	 1.863361e+00	-2.321921e+01
1	 1.797926e-01	 1.865430e+00	-2.456232e+01
1	 1.595413e-01	 1.867271e+00	-2.577279e+01
1	 1.393512e-01	 1.868886e+00	-2.683700e+01
1	 1.192256e-01	 1.870278e+00	-2.774166e+01
1	 9.916778e-02	 1.871448e+00	-2.847387e+01
1	 2.008927e-01	 1.870726e+00	-2.198217e+01
1	 1.805032e-01	 1.872803e+00	-2.325824e+01
1	 1.601719e-01	 1.874651e+00	-2.440813e+01
1	 1.399020e-01	 1.876273e+00	-2.541943e+01
1	 1.196969e-01	 1.877670e+00	-2.628003e+01
1	 9.955974e-02	 1.878846e+00	-2.697820e+01
1	 2.016836e-01	 1.878091e+00	-2.076674e+01
1	 1.812139e-01	 1.880176e+00	-2.197812e+01
1	 1.608025e-01	 1.882032e+00	-2.306986e+01
1	 1.404528e-01	 1.883660e+00	-2.403060e+01
1	 1.201681e-01	 1.885063e+00	-2.484931e+01
1	 9.995171e-02	 1.886243e+00	-2.551528e+01
1	 9.799187e-02	 1.849257e+00	-3.315696e+01
1	 7.824181e-02	 1.850198e+00	-3.377901e+01
1	 5.856472e-02	 1.850926e+00	-3.415360e+01
1	 3.896350e-02	 1.851442e+00	-3.425719e+01
1	 1.944101e-02	 1.851750e+00	-3.406694e+01
1	 0.000000e+00	 1.851852e+00	-3.356066e+01
1	 9.838384e-02	 1.856654e+00	-3.156329e+01
1	 7.855478e-02	 1.857599e+00	-3.215793e+01
1	 5.879898e-02	 1.858329e+00	-3.251805e+01
1	 3.911935e-02	 1.858848e+00	-3.262071e+01
1	 1.951877e-02	 1.859157e+00	-3.244363e+01
1	 0.000000e+00	 1.859259e+00	-3.196520e+01
1	 9.877581e-02	 1.864051e+00	-3.000225e+01
1	 7.886775e-02	 1.865000e+00	-3.057092e+01
1	 5.903323e-02	 1.865733e+00	-3.091754e+01
1	 3.927521e-02	 1.866253e+00	-3.101979e+01
1	 1.959654e-02	 1.866564e+00	-3.085597e+01
1	 0.000000e+00	 1.866667e+00	-3.040502e+01
1	 9.916778e-02	 1.871448e+00	-2.847387e+01
1	 7.918072e-02	 1.872401e+00	-2.901801e+01
1	 5.926749e-02	 1.873137e+00	-2.935211e+01
1	 3.943106e-02	 1.873659e+00	-2.945445e+01
1	 1.967430e-02	 1.873971e+00	-2.930395e+01
1	 0.000000e+00	 1.874074e+00	-2.888012e+01
1	 9.955974e-02	 1.878846e+00	-2.697820e+01
1	 7.949368e-02	 1.879801e+00	-2.749924e+01
1	 5.950175e-02	 1.880540e+00	-2.782176e+01
1	 3.958692e-02	 1.881065e+00	-2.792471e+01
1	 1.975206e-02	 1.881378e+00	-2.778759e+01
1	 0.000000e+00	 1.881481e+00	-2.739052e+01
1	 9.995171e-02	 1.886243e+00	-2.551528e+01
1	 7.980665e-02	 1.887202e+00	-2.601462e+01
1	 5.973601e-02	 1.887944e+00	-2.632652e+01
1	 3.974277e-02	 1.888471e+00	-2.643057e+01
1	 1.982983e-02	 1.888785e+00	-2.630691e+01
1	 0.000000e+00	 1.888889e+00	-2.593624e+01
1	 1.888889e+00	 0.000000e+00	 5.239846e+00
1	 1.888785e+00	 1.982983e-02	 5.230214e+00
1	 1.888471e+00	 3.974277e-02	 5.179267e+00
1	 1.887944e+00	 5.973601e-02	 5.091114e+00
1	 1.887202e+00	 7.980665e-02	 4.969905e+00
1	 1.886243e+00	 9.995171e-02	 4.819817e+00
1	 1.896296e+00	 0.000000e+00	 4.927770e+00
1	 1.896192e+00	 1.990759e-02	 4.921019e+00
1	 1.895877e+00	 3.989862e-02	 4.874747e+00
1	 1.895348e+00	 5.997027e-02	 4.792933e+00
1	 1.894603e+00	 8.011962e-02	 4.679582e+00
1	 1.893640e+00	 1.003437e-01	 4.538725e+00
1	 1.903704e+00	 0.000000e+00	 4.625509e+00
1	 1.903599e+00	 1.998536e-02	 4.621465e+00
1	 1.903282e+00	 4.005448e-02	 4.579706e+00
1	 1.902751e+00	 6.020453e-02	 4.504065e+00
1	 1.902004e+00	 8.043258e-02	 4.398392e+00
1	 1.901037e+00	 1.007356e-01	 4.266555e+00
1	 1.911111e+00	 0.000000e+00	 4.332957e+00
1	 1.911006e+00	 2.006312e-02	 4.331473e+00
1	 1.910688e+00	 4.021033e-02	 4.294083e+00
1	 1.910155e+00	 6.043879e-02	 4.224458e+00
1	 1.909405e+00	 8.074555e-02	 4.126282e+00
1	 1.908434e+00	 1.011276e-01	 4.003243e+00
1	 1.918519e+00	 0.000000e+00	 4.050007e+00
1	 1.918413e+00	 2.014088e-02	 4.050965e+00
1	 1.918094e+00	 4.036619e-02	 4.017816e+00
1	 1.917559e+00	 6.067305e-02	 3.954061e+00
1	 1.916805e+00	 8.105852e-02	 3.863200e+00
1	 1.915831e+00	 1.015196e-01	 3.748728e+00
1	 1.925926e+00	 0.000000e+00	 3.776554e+00
1	 1.925820e+00	 2.021865e-02	 3.779865e+00
1	 1.925500e+00	 4.052204e-02	 3.750848e+00
1	 1.924963e+00	 6.090730e-02	 3.692823e+00
1	 1.924206e+00	 8.137149e-02	 3.609094e+00
1	 1.923228e+00	 1.019115e-01	 3.502948e+00
1	 1.886243e+00	 9.995171e-02	 4.819817e+00
1	 1.885063e+00	 1.201681e-01	 4.643490e+00
1	 1.883660e+00	 1.404528e-01	 4.442178e+00
1	 1.882032e+00	 1.608025e-01	 4.218021e+00
1	 1.880176e+00	 1.812139e-01	 3.973180e+00
1	 1.878091e+00	 2.016836e-01	 3.709834e+00
1	 1.893640e+00	 1.003437e-01	 4.538725e+00
1	 1.892455e+00	 1.206394e-01	 4.373048e+00
1	 1.891047e+00	 1.410036e-01	 4.183829e+00
1	 1.889412e+00	 1.614331e-01	 3.973012e+00
1	 1.887550e+00	 1.819245e-01	 3.742561e+00
1	 1.885456e+00	 2.024745e-01	 3.494457e+00
1	 1.901037e+00	 1.007356e-01	 4.266555e+00
1	 1.899847e+00	 1.211106e-01	 4.111296e+00
1	 1.898434e+00	 1.415544e-01	 3.933930e+00
1	 1.896793e+00	 1.620637e-01	 3.736197e+00
1	 1.894923e+00	 1.826351e-01	 3.519858e+00
1	 1.892821e+00	 2.032654e-01	 3.286689e+00
1	 1.908434e+00	 1.011276e-01	 4.003243e+00
1	 1.907240e+00	 1.215819e-01	 3.858158e+00
1	 1.905821e+00	 1.421052e-01	 3.692398e+00
1	 1.904173e+00	 1.626943e-01	 3.507493e+00
1	 1.902296e+00	 1.833458e-01	 3.304993e+00
1	 1.900186e+00	 2.040564e-01	 3.086460e+00
1	 1.915831e+00	 1.015196e-01	 3.748728e+00
1	 1.914632e+00	 1.220531e-01	 3.613560e+00
1	 1.913207e+00	 1.426560e-01	 3.459152e+00
1	 1.911554e+00	 1.633249e-01	 3.286816e+00
1	 1.909669e+00	 1.840564e-01	 3.097884e+00
1	 1.907551e+00	 2.048473e-01	 2.893699e+00
1	 1.923228e+00	 1.019115e-01	 3.502948e+00
1	 1.922025e+00	 1.225244e-01	 3.377428e+00
1	 1.920594e+00	 1.432068e-01	 3.234112e+00
1	 1.918934e+00	 1.639555e-01	 3.074086e+00
1	 1.917042e+00	 1.847671e-01	 2.898454e+00
1	 1.914916e+00	 2.056382e-01	 2.708337e+00
1	 1.878091e+00	 2.016836e-01	 3.709834e+00
1	 1.875773e+00	 2.222083e-01	 3.431526e+00
1	 1.873221e+00	 2.427843e-01	 3.142758e+00
1	 1.870432e+00	 2.634081e-01	 2.847180e+00
1	 1.867405e+00	 2.840761e-01	 2.548466e+00
1	 1.864137e+00	 3.047844e-01	 2.250303e+00
1	 1.885456e+00	 2.024745e-01	 3.494457e+00
1	 1.883129e+00	 2.230797e-01	 3.232064e+00
1	 1.880567e+00	 2.437364e-01	 2.959755e+00
1	 1.877767e+00	 2.644411e-01	 2.681048e+00
1	 1.874728e+00	 2.851901e-01	 2.399478e+00
1	 1.871448e+00	 3.059796e-01	 2.118597e+00
1	 1.892821e+00	 2.032654e-01	 3.286689e+00
1	 1.890485e+00	 2.239511e-01	 3.039855e+00
1	 1.887913e+00	 2.446885e-01	 2.783578e+00
1	 1.885102e+00	 2.654741e-01	 2.521238e+00
1	 1.882051e+00	 2.863041e-01	 2.256233e+00
1	 1.878758e+00	 3.071749e-01	 1.991971e+00
1	 1.900186e+00	 2.040564e-01	 3.086460e+00
1	 1.897841e+00	 2.248225e-01	 2.854844e+00
1	 1.895259e+00	 2.456406e-01	 2.614195e+00
1	 1.892437e+00	 2.665070e-01	 2.367752e+00
1	 1.889375e+00	 2.874181e-01	 2.118768e+00
1	 1.886068e+00	 3.083701e-01	 1.870508e+00
1	 1.907551e+00	 2.048473e-01	 2.893699e+00
1	 1.905197e+00	 2.256939e-01	 2.676974e+00
1	 1.902605e+00	 2.465927e-01	 2.451573e+00
1	 1.899773e+00	 2.675400e-01	 2.220587e+00
1	 1.896698e+00	 2.885322e-01	 1.987121e+00
1	 1.893379e+00	 3.095653e-01	 1.754291e+00
1	 1.914916e+00	 2.056382e-01	 2.708337e+00
1	 1.912553e+00	 2.265653e-01	 2.506193e+00
1	 1.909951e+00	 2.475448e-01	 2.295682e+00
1	 1.907108e+00	 2.685730e-01	 2.079742e+00
1	 1.904021e+00	 2.896462e-01	 1.861328e+00
1	 1.900689e+00	 3.107606e-01	 1.643403e+00
1	 1.864137e+00	 3.047844e-01	 2.250303e+00
1	 1.860627e+00	 3.255293e-01	 1.956529e+00
1	 1.856872e+00	 3.463068e-01	 1.672153e+00
1	 1.852871e+00	 3.671131e-01	 1.402623e+00
1	 1.848621e+00	 3.879441e-01	 1.153381e+00
1	 1.844122e+00	 4.087957e-01	 9.298431e-01
1	 1.871448e+00	 3.059796e-01	 2.118597e+00
1	 1.867923e+00	 3.268059e-01	 1.842017e+00
1	 1.864154e+00	 3.476649e-01	 1.574288e+00
1	 1.860137e+00	 3.685528e-01	 1.320379e+00
1	 1.855871e+00	 3.894655e-01	 1.085265e+00
1	 1.851354e+00	 4.103988e-01	 8.739143e-01
1	 1.878758e+00	 3.071749e-01	 1.991971e+00
1	 1.875220e+00	 3.280824e-01	 1.731909e+00
1	 1.871435e+00	 3.490230e-01	 1.480259e+00
1	 1.867403e+00	 3.699924e-01	 1.241579e+00
1	 1.863120e+00	 3.909868e-01	 1.020437e+00
1	 1.858586e+00	 4.120020e-01	 8.214040e-01
1	 1.886068e+00	 3.083701e-01	 1.870508e+00
1	 1.882516e+00	 3.293590e-01	 1.626314e+00
1	 1.878717e+00	 3.503810e-01	 1.390149e+00
1	 1.874669e+00	 3.714321e-01	 1.166222e+00
1	 1.870370e+00	 3.925082e-01	 9.587572e-01
1	 1.865818e+00	 4.136051e-01	 7.719818e-01
1	 1.893379e+00	 3.095653e-01	 1.754291e+00
1	 1.889813e+00	 3.306356e-01	 1.525339e+00
1	 1.885999e+00	 3.517391e-01	 1.304035e+00
1	 1.881935e+00	 3.728718e-01	 1.094307e+00
1	 1.877619e+00	 3.940295e-01	 9.000905e-01
1	 1.873050e+00	 4.152082e-01	 7.253226e-01
1	 1.900689e+00	 3.107606e-01	 1.643403e+00
1	 1.897110e+00	 3.319122e-01	 1.429089e+00
1	 1.893281e+00	 3.530972e-01	 1.221997e+00
1	 1.889201e+00	 3.743114e-01	 1.025833e+00
1	 1.884869e+00	 3.955509e-01	 8.443029e-01
1	 1.880282e+00	 4.168113e-01	 6.811061e-01
1	 1.844122e+00	 4.087957e-01	 9.298431e-01
1	 1.839372e+00	 4.296638e-01	 7.331067e-01
1	 1.834369e+00	 4.505441e-01	 5.600057e-01
1	 1.829113e+00	 4.714324e-01	 4.094633e-01
1	 1.823600e+00	 4.923244e-01	 2.802976e-01
1	 1.817831e+00	 5.132156e-01	 1.712219e-01
1	 1.851354e+00	 4.103988e-01	 8.739143e-01
1	 1.846585e+00	 4.313487e-01	 6.871015e-01
1	 1.841563e+00	 4.523110e-01	 5.217804e-01
1	 1.836286e+00	 4.732812e-01	 3.770939e-01
1	 1.830752e+00	 4.942551e-01	 2.520755e-01
1	 1.824960e+00	 5.152282e-01	 1.456491e-01
1	 1.858586e+00	 4.120020e-01	 8.214040e-01
1	 1.853799e+00	 4.330337e-01	 6.448819e-01
1	 1.848757e+00	 4.540778e-01	 4.877977e-01
1	 1.843459e+00	 4.751299e-01	 3.494309e-01
1	 1.837903e+00	 4.961858e-01	 2.289576e-01
1	 1.832089e+00	 5.172409e-01	 1.254497e-01
1	 1.865818e+00	 4.136051e-01	 7.719818e-01
1	 1.861012e+00	 4.347187e-01	 6.059374e-01
1	 1.855950e+00	 4.558446e-01	 4.574470e-01
1	 1.850632e+00	 4.769787e-01	 3.258455e-01
1	 1.845054e+00	 4.981164e-01	 2.103797e-01
1	 1.839218e+00	 5.192535e-01	 1.102079e-01
1	 1.873050e+00	 4.152082e-01	 7.253226e-01
1	 1.868225e+00	 4.364036e-01	 5.697649e-01
1	 1.863144e+00	 4.576115e-01	 4.301272e-01
1	 1.857805e+00	 4.788274e-01	 3.057187e-01
1	 1.852206e+00	 5.000471e-01	 1.957863e-01
1	 1.846346e+00	 5.212661e-01	 9.951435e-02
1	 1.880282e+00	 4.168113e-01	 6.811061e-01
1	 1.875438e+00	 4.380886e-01	 5.358695e-01
1	 1.870337e+00	 4.593783e-01	 4.052462e-01
1	 1.864977e+00	 4.806762e-01	 2.884408e-01
1	 1.859357e+00	 5.019778e-01	 1.846306e-01
1	 1.853475e+00	 5.232787e-01	 9.296618e-02
1	 1.817831e+00	 5.132156e-01	 1.712219e-01
1	 1.811805e+00	 5.341017e-01	 8.335335e-02
1	 1.805519e+00	 5.549781e-01	 1.809097e-02
1	 1.798974e+00	 5.758403e-01	-2.556635e-02
1	 1.792169e+00	 5.966837e-01	-4.869705e-02
1	 1.785102e+00	 6.175037e-01	-5.245643e-02
1	 1.824960e+00	 5.152282e-01	 1.456491e-01
1	 1.818910e+00	 5.361962e-01	 5.923819e-02
1	 1.812600e+00	 5.571545e-01	-5.476856e-03
1	 1.806029e+00	 5.780985e-01	-4.932601e-02
1	 1.799197e+00	 5.990237e-01	-7.321500e-02
1	 1.792103e+00	 6.199253e-01	-7.812509e-02
1	 1.832089e+00	 5.172409e-01	 1.254497e-01
1	 1.826015e+00	 5.382907e-01	 4.059852e-02
1	 1.819680e+00	 5.593309e-01	-2.360850e-02
1	 1.813084e+00	 5.803567e-01	-6.779341e-02
1	 1.806225e+00	 6.013636e-01	-9.265812e-02
1	 1.799103e+00	 6.223469e-01	-9.898473e-02
1	 1.839218e+00	 5.192535e-01	 1.102079e-01
1	 1.833120e+00	 5.403852e-01	 2.718732e-02
1	 1.826761e+00	 5.615073e-01	-3.642666e-02
1	 1.820139e+00	 5.826149e-01	-8.101180e-02
1	 1.813253e+00	 6.037035e-01	-1.070355e-01
1	 1.806104e+00	 6.247685e-01	-1.150561e-01
1	 1.846346e+00	 5.212661e-01	 9.951435e-02
1	 1.840225e+00	 5.424798e-01	 1.876141e-02
1	 1.833841e+00	 5.636836e-01	-4.405214e-02
1	 1.827194e+00	 5.848731e-01	-8.902376e-02
1	 1.820281e+00	 6.060435e-01	-1.163562e-01
1	 1.813104e+00	 6.271901e-01	-1.263594e-01
1	 1.853475e+00	 5.232787e-01	 9.296618e-02
1	 1.847330e+00	 5.445743e-01	 1.508132e-02
1	 1.840922e+00	 5.658600e-01	-4.660387e-02
1	 1.834248e+00	 5.871313e-01	-9.187121e-02
1	 1.827310e+00	 6.083834e-01	-1.206290e-01
1	 1.820104e+00	 6.296116e-01	-1.329149e-01
1	 1.785102e+00	 6.175037e-01	-5.245643e-02
1	 1.777774e+00	 6.382956e-01	-4.020064e-02
1	 1.770183e+00	 6.590548e-01	-1.686861e-02
1	 1.762330e+00	 6.797763e-01	 1.394226e-02
1	 1.754213e+00	 7.004556e-01	 4.862562e-02
1	 1.745833e+00	 7.210877e-01	 8.357294e-02
1	 1.792103e+00	 6.199253e-01	-7.812509e-02
1	 1.784746e+00	 6.407988e-01	-6.700967e-02
1	 1.777125e+00	 6.616393e-01	-4.455077e-02
1	 1.769241e+00	 6.824421e-01	-1.439271e-02
1	 1.761092e+00	 7.032025e-01	 1.980735e-02
1	 1.752680e+00	 7.239155e-01	 5.438638e-02
1	 1.799103e+00	 6.223469e-01	-9.898473e-02
1	 1.791717e+00	 6.433019e-01	-8.929972e-02
1	 1.784067e+00	 6.642238e-01	-6.801331e-02
1	 1.776152e+00	 6.851079e-01	-3.880878e-02
1	 1.767972e+00	 7.059494e-01	-5.384331e-03
1	 1.759526e+00	 7.267433e-01	 2.855393e-02
1	 1.806104e+00	 6.247685e-01	-1.150561e-01
1	 1.798689e+00	 6.458050e-01	-1.071201e-01
1	 1.791009e+00	 6.668083e-01	-8.732250e-02
1	 1.783063e+00	 6.877737e-01	-5.937741e-02
1	 1.774851e+00	 7.086962e-01	-2.701450e-02
1	 1.766372e+00	 7.295711e-01	 6.028409e-03
1	 1.813104e+00	 6.271901e-01	-1.263594e-01
1	 1.805661e+00	 6.483081e-01	-1.205195e-01
1	 1.797951e+00	 6.693929e-01	-1.025436e-01
1	 1.789974e+00	 6.904395e-01	-7.616895e-02
1	 1.781730e+00	 7.114431e-01	-4.514724e-02
1	 1.773219e+00	 7.323989e-01	-1.323667e-02
1	 1.820104e+00	 6.296116e-01	-1.329149e-01
1	 1.812632e+00	 6.508112e-01	-1.295457e-01
1	 1.804893e+00	 6.719774e-01	-1.137407e-01
1	 1.796885e+00	 6.931053e-01	-8.925270e-02
1	 1.788609e+00	 7.141900e-01	-5.984565e-02
1	 1.780065e+00	 7.352267e-01	-2.928705e-02
1	 1.745833e+00	 7.210877e-01	 8.357294e-02
1	 1.737190e+00	 7.416679e-01	 1.140549e-01
1	 1.728284e+00	 7.621913e-01	 1.365558e-01
1	 1.719115e+00	 7.826530e-01	 1.494092e-01
1	 1.709683e+00	 8.030481e-01	 1.511116e-01
1	 1.699988e+00	 8.233717e-01	 1.403281e-01
1	 1.752680e+00	 7.239155e-01	 5.438638e-02
1	 1.744003e+00	 7.445764e-01	 8.500060e-02
1	 1.735062e+00	 7.651803e-01	 1.086357e-01
1	 1.725856e+00	 7.857222e-01	 1.237325e-01
1	 1.716387e+00	 8.061973e-01	 1.288821e-01
1	 1.706655e+00	 8.266006e-01	 1.228317e-01
1	 1.759526e+00	 7.267433e-01	 2.855393e-02
1	 1.750815e+00	 7.474849e-01	 5.901872e-02
1	 1.741839e+00	 7.681692e-01	 8.345665e-02
1	 1.732598e+00	 7.887914e-01	 1.004105e-01
1	 1.723092e+00	 8.093465e-01	 1.085598e-01
1	 1.713322e+00	 8.298295e-01	 1.067260e-01
1	 1.766372e+00	 7.295711e-01	 6.028409e-03
1	 1.757628e+00	 7.503934e-01	 3.608170e-02
1	 1.748617e+00	 7.711582e-01	 6.100279e-02
1	 1.739340e+00	 7.918606e-01	 7.943133e-02
1	 1.729797e+00	 8.124957e-01	 9.012891e-02
1	 1.719988e+00	 8.330584e-01	 9.198340e-02
1	 1.773219e+00	 7.323989e-01	-1.323667e-02
1	 1.764440e+00	 7.533019e-01	 1.616238e-02
1	 1.755394e+00	 7.741472e-01	 4.125854e-02
1	 1.746081e+00	 7.949299e-01	 6.078326e-02
1	 1.736501e+00	 8.156449e-01	 7.357377e-02
1	 1.726655e+00	 8.362873e-01	 7.857697e-02
1	 1.780065e+00	 7.352267e-01	-2.928705e-02
1	 1.771253e+00	 7.562104e-01	-7.659482e-04
1	 1.762172e+00	 7.771362e-01	 2.420856e-02
1	 1.752823e+00	 7.979991e-01	 4.445470e-02
1	 1.743206e+00	 8.187941e-01	 5.887906e-02
1	 1.733321e+00	 8.395162e-01	 6.648008e-02
1	 1.699988e+00	 8.233717e-01	 1.403281e-01
1	 1.690032e+00	 8.436189e-01	 1.117168e-01
1	 1.679815e+00	 8.637848e-01	 6.174513e-02
1	 1.669337e+00	 8.838645e-01	-7.984828e-03
1	 1.658599e+00	 9.038530e-01	-9.574725e-02
1	 1.647603e+00	 9.237454e-01	-1.996946e-01
1	 1.706655e+00	 8.266006e-01	 1.228317e-01
1	 1.696660e+00	 8.469272e-01	 1.000535e-01
1	 1.686402e+00	 8.671722e-01	 5.675128e-02
1	 1.675883e+00	 8.873306e-01	-5.515165e-03
1	 1.665103e+00	 9.073975e-01	-8.505909e-02
1	 1.654064e+00	 9.273679e-01	-1.800688e-01
1	 1.713322e+00	 8.298295e-01	 1.067260e-01
1	 1.703287e+00	 8.502355e-01	 8.924770e-02
1	 1.692990e+00	 8.705596e-01	 5.211445e-02
1	 1.682429e+00	 8.907967e-01	-3.169239e-03
1	 1.671608e+00	 9.109420e-01	-7.496883e-02
1	 1.660525e+00	 9.309905e-01	-1.615214e-01
1	 1.719988e+00	 8.330584e-01	 9.198340e-02
1	 1.709915e+00	 8.535438e-01	 7.925680e-02
1	 1.699577e+00	 8.739470e-01	 4.777804e-02
1	 1.688976e+00	 8.942629e-01	-1.016704e-03
1	 1.678112e+00	 9.144865e-01	-6.555795e-02
1	 1.666987e+00	 9.346130e-01	-1.441444e-01
1	 1.726655e+00	 8.362873e-01	 7.857697e-02
1	 1.716542e+00	 8.568521e-01	 7.003901e-02
1	 1.706165e+00	 8.773344e-01	 4.368632e-02
1	 1.695522e+00	 8.977290e-01	 8.738652e-04
1	 1.684616e+00	 9.180311e-01	-5.690669e-02
1	 1.673448e+00	 9.382355e-01	-1.280283e-01
1	 1.733321e+00	 8.395162e-01	 6.648008e-02
1	 1.723170e+00	 8.601604e-01	 6.155316e-02
1	 1.712752e+00	 8.807218e-01	 3.978442e-02
1	 1.702069e+00	 9.011951e-01	 2.434946e-03
1	 1.691121e+00	 9.215756e-01	-4.909406e-02
1	 1.679909e+00	 9.418580e-01	-1.132623e-01
1	 1.647603e+00	 9.237454e-01	-1.996946e-01
1	 1.636349e+00	 9.435368e-01	-3.216607e-01
1	 1.624840e+00	 9.632224e-01	-4.632628e-01
1	 1.613075e+00	 9.827972e-01	-6.220645e-01
1	 1.601057e+00	 1.002256e+00	-7.953997e-01
1	 1.588787e+00	 1.021595e+00	-9.803751e-01
1	 1.654064e+00	 9.273679e-01	-1.800688e-01
1	 1.642766e+00	 9.472370e-01	-2.920746e-01
1	 1.631212e+00	 9.669997e-01	-4.224693e-01
1	 1.619401e+00	 9.866513e-01	-5.689753e-01
1	 1.607336e+00	 1.006187e+00	-7.290943e-01
1	 1.595018e+00	 1.025601e+00	-9.001098e-01
1	 1.660525e+00	 9.309905e-01	-1.615214e-01
1	 1.649184e+00	 9.509371e-01	-2.641006e-01
1	 1.637583e+00	 9.707771e-01	-3.838997e-01
1	 1.625727e+00	 9.905054e-01	-5.187798e-01
1	 1.613614e+00	 1.010117e+00	-6.663889e-01
1	 1.601248e+00	 1.029608e+00	-8.241646e-01
1	 1.666987e+00	 9.346130e-01	-1.441444e-01
1	 1.655601e+00	 9.546373e-01	-2.378371e-01
1	 1.643955e+00	 9.745544e-01	-3.476530e-01
1	 1.632052e+00	 9.943595e-01	-4.715714e-01
1	 1.619893e+00	 1.014048e+00	-6.073655e-01
1	 1.607479e+00	 1.033614e+00	-7.526049e-01
1	 1.673448e+00	 9.382355e-01	-1.280283e-01
1	 1.662018e+00	 9.583374e-01	-2.133813e-01
1	 1.650327e+00	 9.783318e-01	-3.138267e-01
1	 1.638378e+00	 9.982136e-01	-4.274420e-01
1	 1.626172e+00	 1.017978e+00	-5.521049e-01
1	 1.613709e+00	 1.037620e+00	-6.854950e-01
1	 1.679909e+00	 9.418580e-01	-1.132623e-01
1	 1.668435e+00	 9.620375e-01	-1.908287e-01
1	 1.656699e+00	 9.821091e-01	-2.825167e-01
1	 1.644704e+00	 1.002068e+00	-3.864822e-01
1	 1.632450e+00	 1.021908e+00	-5.006866e-01
1	 1.619940e+00	 1.041626e+00	-6.228981e-01
1	 1.588787e+00	 1.021595e+00	-9.803751e-01
1	 1.576267e+00	 1.040808e+00	-1.162131e+00
1	 1.563499e+00	 1.059892e+00	-1.326724e+00
1	 1.550485e+00	 1.078840e+00	-1.472484e+00
1	 1.537227e+00	 1.097650e+00	-1.597759e+00
1	 1.523727e+00	 1.116314e+00	-1.700920e+00
1	 1.595018e+00	 1.025601e+00	-9.001098e-01
1	 1.582449e+00	 1.044890e+00	-1.067993e+00
1	 1.569631e+00	 1.064048e+00	-1.219462e+00
1	 1.556566e+00	 1.083071e+00	-1.352771e+00
1	 1.543255e+00	 1.101954e+00	-1.466188e+00
1	 1.529702e+00	 1.120692e+00	-1.557999e+00
1	 1.601248e+00	 1.029608e+00	-8.241646e-01
1	 1.588630e+00	 1.048972e+00	-9.788599e-01
1	 1.575762e+00	 1.068205e+00	-1.117853e+00
1	 1.562646e+00	 1.087302e+00	-1.239371e+00
1	 1.549284e+00	 1.106259e+00	-1.341650e+00
1	 1.535678e+00	 1.125070e+00	-1.422944e+00
1	 1.607479e+00	 1.033614e+00	-7.526049e-01
1	 1.594812e+00	 1.053053e+00	-8.947856e-01
1	 1.581894e+00	 1.072361e+00	-1.021952e+00
1	 1.568726e+00	 1.091533e+00	-1.132350e+00
1	 1.555312e+00	 1.110563e+00	-1.224236e+00
1	 1.541653e+00	 1.129448e+00	-1.295883e+00
1	 1.613709e+00	 1.037620e+00	-6.854950e-01
1	 1.600993e+00	 1.057135e+00	-8.158215e-01
1	 1.588025e+00	 1.076518e+00	-9.318099e-01
1	 1.574807e+00	 1.095763e+00	-1.031774e+00
1	 1.561340e+00	 1.114868e+00	-1.114039e+00
1	 1.547628e+00	 1.133825e+00	-1.176946e+00
1	 1.619940e+00	 1.041626e+00	-6.228981e-01
1	 1.607175e+00	 1.061216e+00	-7.420186e-01
1	 1.594156e+00	 1.080674e+00	-8.474794e-01
1	 1.580887e+00	 1.099994e+00	-9.377080e-01
1	 1.567369e+00	 1.119172e+00	-1.011147e+00
1	 1.553604e+00	 1.138203e+00	-1.066257e+00
1	 1.523727e+00	 1.116314e+00	-1.700920e+00
1	 1.509987e+00	 1.134831e+00	-1.776065e+00
1	 1.496010e+00	 1.153193e+00	-1.822993e+00
1	 1.481799e+00	 1.171398e+00	-1.849100e+00
1	 1.467355e+00	 1.189441e+00	-1.862366e+00
1	 1.452683e+00	 1.207317e+00	-1.871343e+00
1	 1.529702e+00	 1.120692e+00	-1.557999e+00
1	 1.515909e+00	 1.139281e+00	-1.623845e+00
1	 1.501877e+00	 1.157716e+00	-1.664694e+00
1	 1.487610e+00	 1.175992e+00	-1.687253e+00
1	 1.473110e+00	 1.194105e+00	-1.698768e+00
1	 1.458380e+00	 1.212051e+00	-1.707010e+00
1	 1.535678e+00	 1.125070e+00	-1.422944e+00
1	 1.521830e+00	 1.143731e+00	-1.480329e+00
1	 1.507744e+00	 1.162238e+00	-1.515771e+00
1	 1.493421e+00	 1.180586e+00	-1.535240e+00
1	 1.478864e+00	 1.198770e+00	-1.545199e+00
1	 1.464076e+00	 1.216786e+00	-1.552588e+00
1	 1.541653e+00	 1.129448e+00	-1.295883e+00
1	 1.527752e+00	 1.148182e+00	-1.345681e+00
1	 1.513610e+00	 1.166760e+00	-1.376405e+00
1	 1.499232e+00	 1.185180e+00	-1.393245e+00
1	 1.484618e+00	 1.203434e+00	-1.401832e+00
1	 1.469773e+00	 1.221521e+00	-1.408221e+00
1	 1.547628e+00	 1.133825e+00	-1.176946e+00
1	 1.533673e+00	 1.152632e+00	-1.220064e+00
1	 1.519477e+00	 1.171283e+00	-1.246777e+00
1	 1.505043e+00	 1.189773e+00	-1.261451e+00
1	 1.490373e+00	 1.208099e+00	-1.268835e+00
1	 1.475470e+00	 1.226255e+00	-1.274051e+00
1	 1.553604e+00	 1.138203e+00	-1.066257e+00
1	 1.539595e+00	 1.157082e+00	-1.103635e+00
1	 1.525344e+00	 1.175805e+00	-1.127064e+00
1	 1.510853e+00	 1.194367e+00	-1.140037e+00
1	 1.496127e+00	 1.212763e+00	-1.146377e+00
1	 1.481167e+00	 1.230990e+00	-1.150220e+00
1	 1.452683e+00	 1.207317e+00	-1.871343e+00
1	 1.437784e+00	 1.225022e+00	-1.873568e+00
1	 1.422662e+00	 1.242551e+00	-1.861797e+00
1	 1.407320e+00	 1.259901e+00	-1.837889e+00
1	 1.391761e+00	 1.277068e+00	-1.803785e+00
1	 1.375989e+00	 1.294046e+00	-1.761503e+00
1	 1.458380e+00	 1.212051e+00	-1.707010e+00
1	 1.443422e+00	 1.229826e+00	-1.707624e+00
1	 1.428241e+00	 1.247424e+00	-1.692497e+00
1	 1.412839e+00	 1.264842e+00	-1.664243e+00
1	 1.397219e+00	 1.282076e+00	-1.625604e+00
1	 1.381385e+00	 1.299121e+00	-1.579440e+00
1	 1.464076e+00	 1.216786e+00	-1.552588e+00
1	 1.449061e+00	 1.234630e+00	-1.551399e+00
1	 1.433820e+00	 1.252297e+00	-1.532908e+00
1	 1.418358e+00	 1.269783e+00	-1.500460e+00
1	 1.402677e+00	 1.287084e+00	-1.457567e+00
1	 1.386781e+00	 1.304196e+00	-1.407910e+00
1	 1.469773e+00	 1.221521e+00	-1.408221e+00
1	 1.454699e+00	 1.239434e+00	-1.405002e+00
1	 1.439399e+00	 1.257169e+00	-1.383105e+00
1	 1.423877e+00	 1.274724e+00	-1.346575e+00
1	 1.408135e+00	 1.292092e+00	-1.299676e+00
1	 1.392177e+00	 1.309270e+00	-1.246878e+00
1	 1.475470e+00	 1.226255e+00	-1.274051e+00
1	 1.460338e+00	 1.244238e+00	-1.268540e+00
1	 1.444978e+00	 1.262042e+00	-1.243158e+00
1	 1.429396e+00	 1.279664e+00	-1.202627e+00
1	 1.413593e+00	 1.297100e+00	-1.151932e+00
1	 1.397573e+00	 1.314345e+00	-1.096309e+00
1	 1.481167e+00	 1.230990e+00	-1.150220e+00
1	 1.465976e+00	 1.249042e+00	-1.142121e+00
1	 1.450558e+00	 1.266915e+00	-1.113141e+00
1	 1.434915e+00	 1.284605e+00	-1.068652e+00
1	 1.419051e+00	 1.302108e+00	-1.014335e+00
1	 1.402969e+00	 1.319420e+00	-9.561689e-01
1	 1.375989e+00	 1.294046e+00	-1.761503e+00
1	 1.360006e+00	 1.310833e+00	-1.731870e+00
1	 1.343817e+00	 1.327425e+00	-1.733300e+00
1	 1.327425e+00	 1.343817e+00	-1.764148e+00
1	 1.310833e+00	 1.360006e+00	-1.822642e+00
1	 1.294046e+00	 1.375989e+00	-1.906888e+00
1	 1.381385e+00	 1.299121e+00	-1.579440e+00
1	 1.365340e+00	 1.315974e+00	-1.546597e+00
1	 1.349087e+00	 1.332630e+00	-1.544731e+00
1	 1.332630e+00	 1.349087e+00	-1.571902e+00
1	 1.315974e+00	 1.365340e+00	-1.626035e+00
1	 1.299121e+00	 1.381385e+00	-1.704921e+00
1	 1.386781e+00	 1.304196e+00	-1.407910e+00
1	 1.370673e+00	 1.321114e+00	-1.372188e+00
1	 1.354357e+00	 1.337836e+00	-1.367215e+00
1	 1.337836e+00	 1.354357e+00	-1.390854e+00
1	 1.321114e+00	 1.370673e+00	-1.440826e+00
1	 1.304196e+00	 1.386781e+00	-1.514713e+00
1	 1.392177e+00	 1.309270e+00	-1.246878e+00
1	 1.376006e+00	 1.326255e+00	-1.208584e+00
1	 1.359627e+00	 1.343042e+00	-1.200697e+00
1	 1.343042e+00	 1.359627e+00	-1.220976e+00
1	 1.326255e+00	 1.376006e+00	-1.267041e+00
1	 1.309270e+00	 1.392177e+00	-1.336367e+00
1	 1.397573e+00	 1.314345e+00	-1.096309e+00
1	 1.381340e+00	 1.331395e+00	-1.055729e+00
1	 1.364897e+00	 1.348247e+00	-1.045122e+00
1	 1.348247e+00	 1.364897e+00	-1.062244e+00
1	 1.331395e+00	 1.381340e+00	-1.104705e+00
1	 1.314345e+00	 1.397573e+00	-1.169981e+00
1	 1.402969e+00	 1.319420e+00	-9.561689e-01
1	 1.386673e+00	 1.336536e+00	-9.135653e-01
1	 1.370166e+00	 1.353453e+00	-9.004387e-01
1	 1.353453e+00	 1.370166e+00	-9.146302e-01
1	 1.336536e+00	 1.386673e+00	-9.538437e-01
1	 1.319420e+00	 1.402969e+00	-1.015652e+00
1	 1.294046e+00	 1.375989e+00	-1.906888e+00
1	 1.277068e+00	 1.391761e+00	-2.028760e+00
1	 1.259901e+00	 1.407320e+00	-2.198999e+00
1	 1.242551e+00	 1.422662e+00	-2.413803e+00
1	 1.225022e+00	 1.437784e+00	-2.669211e+00
1	 1.207317e+00	 1.452683e+00	-2.961114e+00
1	 1.299121e+00	 1.381385e+00	-1.704921e+00
1	 1.282076e+00	 1.397219e+00	-1.820031e+00
1	 1.264842e+00	 1.412839e+00	-1.981957e+00
1	 1.247424e+00	 1.428241e+00	-2.186942e+00
1	 1.229826e+00	 1.443422e+00	-2.431066e+00
1	 1.212051e+00	 1.458380e+00	-2.710246e+00
1	 1.304196e+00	 1.386781e+00	-1.514713e+00
1	 1.287084e+00	 1.402677e+00	-1.623640e+00
1	 1.269783e+00	 1.418358e+00	-1.777969e+00
1	 1.252297e+00	 1.433820e+00	-1.973908e+00
1	 1.234630e+00	 1.449061e+00	-2.207483e+00
1	 1.216786e+00	 1.464076e+00	-2.474543e+00
1	 1.309270e+00	 1.392177e+00	-1.336367e+00
1	 1.292092e+00	 1.408135e+00	-1.439755e+00
1	 1.274724e+00	 1.423877e+00	-1.587245e+00
1	 1.257169e+00	 1.439399e+00	-1.774921e+00
1	 1.239434e+00	 1.454699e+00	-1.998665e+00
1	 1.221521e+00	 1.469773e+00	-2.254165e+00
1	 1.314345e+00	 1.397573e+00	-1.169981e+00
1	 1.297100e+00	 1.413593e+00	-1.268547e+00
1	 1.279664e+00	 1.429396e+00	-1.409994e+00
1	 1.262042e+00	 1.444978e+00	-1.590200e+00
1	 1.244238e+00	 1.460338e+00	-1.804813e+00
1	 1.226255e+00	 1.475470e+00	-2.049267e+00
1	 1.319420e+00	 1.402969e+00	-1.015652e+00
1	 1.302108e+00	 1.419051e+00	-1.110179e+00
1	 1.284605e+00	 1.434915e+00	-1.246420e+00
1	 1.266915e+00	 1.450558e+00	-1.419958e+00
1	 1.249042e+00	 1.465976e+00	-1.626125e+00
1	 1.230990e+00	 1.481167e+00	-1.860004e+00
1	 1.207317e+00	 1.452683e+00	-2.961114e+00
1	 1.189441e+00	 1.467355e+00	-3.276007e+00
1	 1.171398e+00	 1.481799e+00	-3.598318e+00
1	 1.153193e+00	 1.496010e+00	-3.920453e+00
1	 1.134831e+00	 1.509987e+00	-4.234460e+00
1	 1.116314e+00	 1.523727e+00	-4.532043e+00
1	 1.212051e+00	 1.458380e+00	-2.710246e+00
1	 1.194105e+00	 1.473110e+00	-3.010244e+00
1	 1.175992e+00	 1.487610e+00	-3.315161e+00
1	 1.157716e+00	 1.501877e+00	-3.618049e+00
1	 1.139281e+00	 1.515909e+00	-3.911633e+00
1	 1.120692e+00	 1.529702e+00	-4.188325e+00
1	 1.216786e+00	 1.464076e+00	-2.474543e+00
1	 1.198770e+00	 1.478864e+00	-2.760193e+00
1	 1.180586e+00	 1.493421e+00	-3.048337e+00
1	 1.162238e+00	 1.507744e+00	-3.332672e+00
1	 1.143731e+00	 1.521830e+00	-3.606596e+00
1	 1.125070e+00	 1.535678e+00	-3.863227e+00
1	 1.221521e+00	 1.469773e+00	-2.254165e+00
1	 1.203434e+00	 1.484618e+00	-2.525958e+00
1	 1.185180e+00	 1.499232e+00	-2.797907e+00
1	 1.166760e+00	 1.513610e+00	-3.064348e+00
1	 1.148182e+00	 1.527752e+00	-3.319349e+00
1	 1.129448e+00	 1.541653e+00	-3.556731e+00
1	 1.226255e+00	 1.475470e+00	-2.049267e+00
1	 1.208099e+00	 1.490373e+00	-2.307642e+00
1	 1.189773e+00	 1.505043e+00	-2.563931e+00
1	 1.171283e+00	 1.519477e+00	-2.813101e+00
1	 1.152632e+00	 1.533673e+00	-3.049890e+00
1	 1.133825e+00	 1.547628e+00	-3.268820e+00
1	 1.230990e+00	 1.481167e+00	-1.860004e+00
1	 1.212763e+00	 1.496127e+00	-2.105349e+00
1	 1.194367e+00	 1.510853e+00	-2.346468e+00
1	 1.175805e+00	 1.525344e+00	-2.578957e+00
1	 1.157082e+00	 1.539595e+00	-2.798220e+00
1	 1.138203e+00	 1.553604e+00	-2.999476e+00
1	 1.116314e+00	 1.523727e+00	-4.532043e+00
1	 1.097650e+00	 1.537227e+00	-4.806004e+00
1	 1.078840e+00	 1.550485e+00	-5.052564e+00
1	 1.059892e+00	 1.563499e+00	-5.268310e+00
1	 1.040808e+00	 1.576267e+00	-5.449824e+00
1	 1.021595e+00	 1.588787e+00	-5.593687e+00
1	 1.120692e+00	 1.529702e+00	-4.188325e+00
1	 1.101954e+00	 1.543255e+00	-4.442428e+00
1	 1.083071e+00	 1.556566e+00	-4.671025e+00
1	 1.064048e+00	 1.569631e+00	-4.870458e+00
1	 1.044890e+00	 1.582449e+00	-5.037057e+00
1	 1.025601e+00	 1.595018e+00	-5.167137e+00
1	 1.125070e+00	 1.535678e+00	-3.863227e+00
1	 1.106259e+00	 1.549284e+00	-4.098239e+00
1	 1.087302e+00	 1.562646e+00	-4.309476e+00
1	 1.068205e+00	 1.575762e+00	-4.493079e+00
1	 1.048972e+00	 1.588630e+00	-4.645166e+00
1	 1.029608e+00	 1.601248e+00	-4.761832e+00
1	 1.129448e+00	 1.541653e+00	-3.556731e+00
1	 1.110563e+00	 1.555312e+00	-3.773410e+00
1	 1.091533e+00	 1.568726e+00	-3.967885e+00
1	 1.072361e+00	 1.581894e+00	-4.136139e+00
1	 1.053053e+00	 1.594812e+00	-4.274120e+00
1	 1.033614e+00	 1.607479e+00	-4.377746e+00
1	 1.133825e+00	 1.547628e+00	-3.268820e+00
1	 1.114868e+00	 1.561340e+00	-3.467913e+00
1	 1.095763e+00	 1.574807e+00	-3.646220e+00
1	 1.076518e+00	 1.588025e+00	-3.799606e+00
1	 1.057135e+00	 1.600993e+00	-3.923890e+00
1	 1.037620e+00	 1.613709e+00	-4.014855e+00
1	 1.138203e+00	 1.553604e+00	-2.999476e+00
1	 1.119172e+00	 1.567369e+00	-3.181723e+00
1	 1.099994e+00	 1.580887e+00	-3.344450e+00
1	 1.080674e+00	 1.594156e+00	-3.483446e+00
1	 1.061216e+00	 1.607175e+00	-3.594445e+00
1	 1.041626e+00	 1.619940e+00	-3.673135e+00
1	 1.021595e+00	 1.588787e+00	-5.593687e+00
1	 1.002256e+00	 1.601057e+00	-5.684070e+00
1	 9.827972e-01	 1.613075e+00	-5.710730e+00
1	 9.632224e-01	 1.624840e+00	-5.678790e+00
1	 9.435368e-01	 1.636349e+00	-5.593583e+00
1	 9.237454e-01	 1.647603e+00	-5.460636e+00
1	 1.025601e+00	 1.595018e+00	-5.167137e+00
1	 1.006187e+00	 1.607336e+00	-5.245472e+00
1	 9.866513e-01	 1.619401e+00	-5.262586e+00
1	 9.669997e-01	 1.631212e+00	-5.223583e+00
1	 9.472370e-01	 1.642766e+00	-5.133773e+00
1	 9.273679e-01	 1.654064e+00	-4.998656e+00
1	 1.029608e+00	 1.601248e+00	-4.761832e+00
1	 1.010117e+00	 1.613614e+00	-4.828503e+00
1	 9.905054e-01	 1.625727e+00	-4.836485e+00
1	 9.707771e-01	 1.637583e+00	-4.790843e+00
1	 9.509371e-01	 1.649184e+00	-4.696842e+00
1	 9.309905e-01	 1.660525e+00	-4.559936e+00
1	 1.033614e+00	 1.607479e+00	-4.377746e+00
1	 1.014048e+00	 1.619893e+00	-4.433144e+00
1	 9.943595e-01	 1.632052e+00	-4.432408e+00
1	 9.745544e-01	 1.643955e+00	-4.380545e+00
1	 9.546373e-01	 1.655601e+00	-4.282758e+00
1	 9.346130e-01	 1.666987e+00	-4.144431e+00
1	 1.037620e+00	 1.613709e+00	-4.014855e+00
1	 1.017978e+00	 1.626172e+00	-4.059375e+00
1	 9.982136e-01	 1.638378e+00	-4.050336e+00
1	 9.783318e-01	 1.650327e+00	-3.992667e+00
1	 9.583374e-01	 1.662018e+00	-3.891489e+00
1	 9.382355e-01	 1.673448e+00	-3.752097e+00
1	 1.041626e+00	 1.619940e+00	-3.673135e+00
1	 1.021908e+00	 1.632450e+00	-3.707176e+00
1	 1.002068e+00	 1.644704e+00	-3.690248e+00
1	 9.821091e-01	 1.656699e+00	-3.627185e+00
1	 9.620375e-01	 1.668435e+00	-3.523003e+00
1	 9.418580e-01	 1.679909e+00	-3.382891e+00
1	 9.237454e-01	 1.647603e+00	-5.460636e+00
1	 9.038530e-01	 1.658599e+00	-5.288213e+00
1	 8.838645e-01	 1.669337e+00	-5.080929e+00
1	 8.637848e-01	 1.679815e+00	-4.838991e+00
1	 8.436189e-01	 1.690032e+00	-4.562636e+00
1	 8.233717e-01	 1.699988e+00	-4.252128e+00
1	 9.273679e-01	 1.654064e+00	-4.998656e+00
1	 9.073975e-01	 1.665103e+00	-4.825952e+00
1	 8.873306e-01	 1.675883e+00	-4.619896e+00
1	 8.671722e-01	 1.686402e+00	-4.380916e+00
1	 8.469272e-01	 1.696660e+00	-4.109474e+00
1	 8.266006e-01	 1.706655e+00	-3.806058e+00
1	 9.309905e-01	 1.660525e+00	-4.559936e+00
1	 9.109420e-01	 1.671608e+00	-4.387313e+00
1	 8.907967e-01	 1.682429e+00	-4.182873e+00
1	 8.705596e-01	 1.692990e+00	-3.947294e+00
1	 8.502355e-01	 1.703287e+00	-3.681289e+00
1	 8.298295e-01	 1.713322e+00	-3.385599e+00
1	 9.346130e-01	 1.666987e+00	-4.144431e+00
1	 9.144865e-01	 1.678112e+00	-3.972243e+00
1	 8.942629e-01	 1.688976e+00	-3.769811e+00
1	 8.739470e-01	 1.699577e+00	-3.538089e+00
1	 8.535438e-01	 1.709915e+00	-3.278068e+00
1	 8.330584e-01	 1.719988e+00	-2.990773e+00
1	 9.382355e-01	 1.673448e+00	-3.752097e+00
1	 9.180311e-01	 1.684616e+00	-3.580689e+00
1	 8.977290e-01	 1.695522e+00	-3.380660e+00
1	 8.773344e-01	 1.706165e+00	-3.153264e+00
1	 8.568521e-01	 1.716542e+00	-2.899799e+00
1	 8.362873e-01	 1.726655e+00	-2.621600e+00
1	 9.418580e-01	 1.679909e+00	-3.382891e+00
1	 9.215756e-01	 1.691121e+00	-3.212601e+00
1	 9.011951e-01	 1.702069e+00	-3.015372e+00
1	 8.807218e-01	 1.712752e+00	-2.792784e+00
1	 8.601604e-01	 1.723170e+00	-2.546469e+00
1	 8.395162e-01	 1.733321e+00	-2.278099e+00
1	 8.233717e-01	 1.699988e+00	-4.252128e+00
1	 8.030481e-01	 1.709683e+00	-3.906924e+00
1	 7.826530e-01	 1.719115e+00	-3.535112e+00
1	 7.621913e-01	 1.728284e+00	-3.150089e+00
1	 7.416679e-01	 1.737190e+00	-2.765451e+00
1	 7.210877e-01	 1.745833e+00	-2.394956e+00
1	 8.266006e-01	 1.706655e+00	-3.806058e+00
1	 8.061973e-01	 1.716387e+00	-3.471208e+00
1	 7.857222e-01	 1.725856e+00	-3.113191e+00
1	 7.651803e-01	 1.735062e+00	-2.744263e+00
1	 7.445764e-01	 1.744003e+00	-2.376858e+00
1	 7.239155e-01	 1.752680e+00	-2.023569e+00
1	 8.298295e-01	 1.713322e+00	-3.385599e+00
1	 8.093465e-01	 1.723092e+00	-3.061774e+00
1	 7.887914e-01	 1.732598e+00	-2.718179e+00
1	 7.681692e-01	 1.741839e+00	-2.365952e+00
1	 7.474849e-01	 1.750815e+00	-2.016392e+00
1	 7.267433e-01	 1.759526e+00	-1.680943e+00
1	 8.330584e-01	 1.719988e+00	-2.990773e+00
1	 8.124957e-01	 1.729797e+00	-2.678675e+00
1	 7.918606e-01	 1.739340e+00	-2.350153e+00
1	 7.711582e-01	 1.748617e+00	-2.015246e+00
1	 7.503934e-01	 1.757628e+00	-1.684143e+00
1	 7.295711e-01	 1.766372e+00	-1.367155e+00
1	 8.362873e-01	 1.726655e+00	-2.621600e+00
1	 8.156449e-01	 1.736501e+00	-2.321965e+00
1	 7.949299e-01	 1.746081e+00	-2.009188e+00
1	 7.741472e-01	 1.755394e+00	-1.692234e+00
1	 7.533019e-01	 1.764440e+00	-1.380199e+00
1	 7.323989e-01	 1.773219e+00	-1.082286e+00
1	 8.395162e-01	 1.733321e+00	-2.278099e+00
1	 8.187941e-01	 1.743206e+00	-1.991697e+00
1	 7.979991e-01	 1.752823e+00	-1.695359e+00
1	 7.771362e-01	 1.762172e+00	-1.397001e+00
1	 7.562104e-01	 1.771253e+00	-1.104647e+00
1	 7.352267e-01	 1.780065e+00	-8.264117e-01
1	 7.210877e-01	 1.745833e+00	-2.394956e+00
1	 7.004556e-01	 1.754213e+00	-2.045796e+00
1	 6.797763e-01	 1.762330e+00	-1.726808e+00
1	 6.590548e-01	 1.770183e+00	-1.454345e+00
1	 6.382956e-01	 1.777774e+00	-1.244770e+00
1	 6.175037e-01	 1.785102e+00	-1.114424e+00
1	 7.239155e-01	 1.752680e+00	-2.023569e+00
1	 7.032025e-01	 1.761092e+00	-1.690628e+00
1	 6.824421e-01	 1.769241e+00	-1.386771e+00
1	 6.616393e-01	 1.777125e+00	-1.128468e+00
1	 6.407988e-01	 1.784746e+00	-9.322077e-01
1	 6.199253e-01	 1.792103e+00	-8.144580e-01
1	 7.267433e-01	 1.759526e+00	-1.680943e+00
1	 7.059494e-01	 1.767972e+00	-1.364979e+00
1	 6.851079e-01	 1.776152e+00	-1.077219e+00
1	 6.642238e-01	 1.784067e+00	-8.342456e-01
1	 6.433019e-01	 1.791717e+00	-6.526617e-01
1	 6.223469e-01	 1.799103e+00	-5.490587e-01
1	 7.295711e-01	 1.766372e+00	-1.367155e+00
1	 7.086962e-01	 1.774851e+00	-1.068919e+00
1	 6.877737e-01	 1.783063e+00	-7.982312e-01
1	 6.668083e-01	 1.791009e+00	-5.717758e-01
1	 6.458050e-01	 1.798689e+00	-4.062662e-01
1	 6.247685e-01	 1.806104e+00	-3.184121e-01
1	 7.323989e-01	 1.773219e+00	-1.082286e+00
1	 7.114431e-01	 1.781730e+00	-8.025181e-01
1	 6.904395e-01	 1.789974e+00	-5.498827e-01
1	 6.693929e-01	 1.797951e+00	-3.411557e-01
1	 6.483081e-01	 1.805661e+00	-1.931541e-01
1	 6.271901e-01	 1.813104e+00	-1.227014e-01
1	 7.352267e-01	 1.780065e+00	-8.264117e-01
1	 7.141900e-01	 1.788609e+00	-5.658454e-01
1	 6.931053e-01	 1.796885e+00	-3.322486e-01
1	 6.719774e-01	 1.804893e+00	-1.424808e-01
1	 6.508112e-01	 1.812632e+00	-1.345604e-02
1	 6.296116e-01	 1.820104e+00	 3.789279e-02
1	 6.175037e-01	 1.785102e+00	-1.114424e+00
1	 5.966837e-01	 1.792169e+00	-1.089801e+00
1	 5.758403e-01	 1.798974e+00	-1.187402e+00
1	 5.549781e-01	 1.805519e+00	-1.408440e+00
1	 5.341017e-01	 1.811805e+00	-1.753991e+00
1	 5.132156e-01	 1.817831e+00	-2.224995e+00
1	 6.199253e-01	 1.792103e+00	-8.144580e-01
1	 5.990237e-01	 1.799197e+00	-8.009841e-01
1	 5.780985e-01	 1.806029e+00	-9.069149e-01
1	 5.571545e-01	 1.812600e+00	-1.132633e+00
1	 5.361962e-01	 1.818910e+00	-1.478392e+00
1	 5.152282e-01	 1.824960e+00	-1.944315e+00
1	 6.223469e-01	 1.799103e+00	-5.490587e-01
1	 6.013636e-01	 1.806225e+00	-5.483598e-01
1	 5.803567e-01	 1.813084e+00	-6.639865e-01
1	 5.593309e-01	 1.819680e+00	-8.951514e-01
1	 5.382907e-01	 1.826015e+00	-1.240940e+00
1	 5.172409e-01	 1.832089e+00	-1.700317e+00
1	 6.247685e-01	 1.806104e+00	-3.184121e-01
1	 6.037035e-01	 1.813253e+00	-3.321440e-01
1	 5.826149e-01	 1.820139e+00	-4.588060e-01
1	 5.615073e-01	 1.826761e+00	-6.961049e-01
1	 5.403852e-01	 1.833120e+00	-1.041621e+00
1	 5.192535e-01	 1.839218e+00	-1.492816e+00
1	 6.271901e-01	 1.813104e+00	-1.227014e-01
1	 6.060435e-01	 1.820281e+00	-1.525491e-01
1	 5.848731e-01	 1.827194e+00	-2.915596e-01
1	 5.636836e-01	 1.833841e+00	-5.356026e-01
1	 5.424798e-01	 1.840225e+00	-8.804186e-01
1	 5.212661e-01	 1.846346e+00	-1.321630e+00
1	 6.296116e-01	 1.820104e+00	 3.789279e-02
1	 6.083834e-01	 1.827310e+00	-9.784165e-03
1	 5.871313e-01	 1.834248e+00	-1.624306e-01
1	 5.658600e-01	 1.840922e+00	-4.137518e-01
1	 5.445743e-01	 1.847330e+00	-7.573175e-01
1	 5.232787e-01	 1.853475e+00	-1.186578e+00
1	 5.132156e-01	 1.817831e+00	-2.224995e+00
1	 4.923244e-01	 1.823600e+00	-2.819276e+00
1	 4.714324e-01	 1.829113e+00	-3.536179e+00
1	 4.505441e-01	 1.834369e+00	-4.378698e+00
1	 4.296638e-01	 1.839372e+00	-5.349654e+00
1	 4.087957e-01	 1.844122e+00	-6.451697e+00
1	 5.152282e-01	 1.824960e+00	-1.944315e+00
1	 4.942551e-01	 1.830752e+00	-2.527295e+00
1	 4.732812e-01	 1.836286e+00	-3.225455e+00
1	 4.523110e-01	 1.841563e+00	-4.040549e+00
1	 4.313487e-01	 1.846585e+00	-4.974169e+00
1	 4.103988e-01	 1.851354e+00	-6.027741e+00
1	 5.172409e-01	 1.832089e+00	-1.700317e+00
1	 4.961858e-01	 1.837903e+00	-2.269060e+00
1	 4.751299e-01	 1.843459e+00	-2.944604e+00
1	 4.540778e-01	 1.848757e+00	-3.728188e+00
1	 4.330337e-01	 1.853799e+00	-4.620903e+00
1	 4.120020e-01	 1.858586e+00	-5.623683e+00
1	 5.192535e-01	 1.839218e+00	-1.492816e+00
1	 4.981164e-01	 1.845054e+00	-2.044246e+00
1	 4.769787e-01	 1.850632e+00	-2.693250e+00
1	 4.558446e-01	 1.855950e+00	-3.441273e+00
1	 4.347187e-01	 1.861012e+00	-4.289624e+00
1	 4.136051e-01	 1.865818e+00	-5.239468e+00
1	 5.212661e-01	 1.846346e+00	-1.321630e+00
1	 5.000471e-01	 1.852206e+00	-1.852530e+00
1	 4.788274e-01	 1.857805e+00	-2.471022e+00
1	 4.576115e-01	 1.863144e+00	-3.179468e+00
1	 4.364036e-01	 1.868225e+00	-3.980104e+00
1	 4.152082e-01	 1.873050e+00	-4.875040e+00
1	 5.232787e-01	 1.853475e+00	-1.186578e+00
1	 5.019778e-01	 1.859357e+00	-1.693595e+00
1	 4.806762e-01	 1.864977e+00	-2.277557e+00
1	 4.593783e-01	 1.870337e+00	-2.942441e+00
1	 4.380886e-01	 1.875438e+00	-3.692117e+00
1	 4.168113e-01	 1.880282e+00	-4.530344e+00
1	 4.087957e-01	 1.844122e+00	-6.451697e+00
1	 3.879441e-01	 1.848621e+00	-7.690725e+00
1	 3.671131e-01	 1.852871e+00	-9.050297e+00
1	 3.463068e-01	 1.856872e+00	-1.049950e+01
1	 3.255293e-01	 1.860627e+00	-1.200757e+01
1	 3.047844e-01	 1.864137e+00	-1.354394e+01
1	 4.103988e-01	 1.851354e+00	-6.027741e+00
1	 3.894655e-01	 1.855871e+00	-7.205943e+00
1	 3.685528e-01	 1.860137e+00	-8.494020e+00
1	 3.476649e-01	 1.864154e+00	-9.864201e+00
1	 3.268059e-01	 1.867923e+00	-1.128885e+01
1	 3.059796e-01	 1.871448e+00	-1.274051e+01
1	 4.120020e-01	 1.858586e+00	-5.623683e+00
1	 3.909868e-01	 1.863120e+00	-6.740630e+00
1	 3.699924e-01	 1.867403e+00	-7.958470e+00
1	 3.490230e-01	 1.871435e+00	-9.252031e+00
1	 3.280824e-01	 1.875220e+00	-1.059626e+01
1	 3.071749e-01	 1.878758e+00	-1.196629e+01
1	 4.136051e-01	 1.865818e+00	-5.239468e+00
1	 3.925082e-01	 1.870370e+00	-6.294901e+00
1	 3.714321e-01	 1.874669e+00	-7.443868e+00
1	 3.503810e-01	 1.878717e+00	-8.663261e+00
1	 3.293590e-01	 1.882516e+00	-9.930083e+00
1	 3.083701e-01	 1.886068e+00	-1.122149e+01
1	 4.152082e-01	 1.873050e+00	-4.875040e+00
1	 3.940295e-01	 1.877619e+00	-5.868870e+00
1	 3.728718e-01	 1.881935e+00	-6.950432e+00
1	 3.517391e-01	 1.885999e+00	-8.098157e+00
1	 3.306356e-01	 1.889813e+00	-9.290570e+00
1	 3.095653e-01	 1.893379e+00	-1.050633e+01
1	 4.168113e-01	 1.880282e+00	-4.530344e+00
1	 3.955509e-01	 1.884869e+00	-5.462647e+00
1	 3.743114e-01	 1.889201e+00	-6.478377e+00
1	 3.530972e-01	 1.893281e+00	-7.556979e+00
1	 3.319122e-01	 1.897110e+00	-8.677979e+00
1	 3.107606e-01	 1.900689e+00	-9.821029e+00
1	 3.047844e-01	 1.864137e+00	-1.354394e+01
1	 2.840761e-01	 1.867405e+00	-1.507838e+01
1	 2.634081e-01	 1.870432e+00	-1.658756e+01
1	 2.427843e-01	 1.873221e+00	-1.805166e+01
1	 2.222083e-01	 1.875773e+00	-1.945113e+01
1	 2.016836e-01	 1.878091e+00	-2.076674e+01
1	 3.059796e-01	 1.871448e+00	-1.274051e+01
1	 2.851901e-01	 1.874728e+00	-1.419179e+01
1	 2.644411e-01	 1.877767e+00	-1.562054e+01
1	 2.437364e-01	 1.880567e+00	-1.700756e+01
1	 2.230797e-01	 1.883129e+00	-1.833392e+01
1	 2.024745e-01	 1.885456e+00	-1.958096e+01
1	 3.071749e-01	 1.878758e+00	-1.196629e+01
1	 2.863041e-01	 1.882051e+00	-1.333704e+01
1	 2.654741e-01	 1.885102e+00	-1.468749e+01
1	 2.446885e-01	 1.887913e+00	-1.599907e+01
1	 2.239511e-01	 1.890485e+00	-1.725352e+01
1	 2.032654e-01	 1.892821e+00	-1.843283e+01
1	 3.083701e-01	 1.886068e+00	-1.122149e+01
1	 2.874181e-01	 1.889375e+00	-1.251431e+01
1	 2.665070e-01	 1.892437e+00	-1.378850e+01
1	 2.456406e-01	 1.895259e+00	-1.502625e+01
1	 2.248225e-01	 1.897841e+00	-1.620997e+01
1	 2.040564e-01	 1.900186e+00	-1.732236e+01
1	 3.095653e-01	 1.893379e+00	-1.050633e+01
1	 2.885322e-01	 1.896698e+00	-1.172373e+01
1	 2.675400e-01	 1.899773e+00	-1.292369e+01
1	 2.465927e-01	 1.902605e+00	-1.408915e+01
1	 2.256939e-01	 1.905197e+00	-1.520328e+01
1	 2.048473e-01	 1.907551e+00	-1.624954e+01
1	 3.107606e-01	 1.900689e+00	-9.821029e+00
1	 2.896462e-01	 1.904021e+00	-1.096545e+01
1	 2.685730e-01	 1.907108e+00	-1.209313e+01
1	 2.475448e-01	 1.909951e+00	-1.318782e+01
1	 2.265653e-01	 1.912553e+00	-1.423350e+01
1	 2.056382e-01	 1.914916e+00	-1.521440e+01
1	 2.016836e-01	 1.878091e+00	-2.076674e+01
1	 1.812139e-01	 1.880176e+00	-2.197812e+01
1	 1.608025e-01	 1.882032e+00	-2.306986e+01
1	 1.404528e-01	 1.883660e+00	-2.403060e+01
1	 1.201681e-01	 1.885063e+00	-2.484931e+01
1	 9.995171e-02	 1.886243e+00	-2.551528e+01
1	 2.024745e-01	 1.885456e+00	-1.958096e+01
1	 1.819245e-01	 1.887550e+00	-2.072911e+01
1	 1.614331e-01	 1.889412e+00	-2.176403e+01
1	 1.410036e-01	 1.891047e+00	-2.267540e+01
1	 1.206394e-01	 1.892455e+00	-2.345320e+01
1	 1.003437e-01	 1.893640e+00	-2.408773e+01
1	 2.032654e-01	 1.892821e+00	-1.843283e+01
1	 1.826351e-01	 1.894923e+00	-1.951826e+01
1	 1.620637e-01	 1.896793e+00	-2.049660e+01
1	 1.415544e-01	 1.898434e+00	-2.135863e+01
1	 1.211106e-01	 1.899847e+00	-2.209537e+01
1	 1.007356e-01	 1.901037e+00	-2.269815e+01
1	 2.040564e-01	 1.900186e+00	-1.732236e+01
1	 1.833458e-01	 1.902296e+00	-1.834556e+01
1	 1.626943e-01	 1.904173e+00	-1.926758e+01
1	 1.421052e-01	 1.905821e+00	-2.008030e+01
1	 1.215819e-01	 1.907240e+00	-2.077584e+01
1	 1.011276e-01	 1.908434e+00	-2.134659e+01
1	 2.048473e-01	 1.907551e+00	-1.624954e+01
1	 1.840564e-01	 1.909669e+00	-1.721102e+01
1	 1.633249e-01	 1.911554e+00	-1.807697e+01
1	 1.426560e-01	 1.913207e+00	-1.884041e+01
1	 1.220531e-01	 1.914632e+00	-1.949460e+01
1	 1.015196e-01	 1.915831e+00	-2.003306e+01
1	 2.056382e-01	 1.914916e+00	-1.521440e+01
1	 1.847671e-01	 1.917042e+00	-1.611463e+01
1	 1.639555e-01	 1.918934e+00	-1.692475e+01
1	 1.432068e-01	 1.920594e+00	-1.763895e+01
1	 1.225244e-01	 1.922025e+00	-1.825169e+01
1	 1.019115e-01	 1.923228e+00	-1.875760e+01
1	 9.995171e-02	 1.886243e+00	-2.551528e+01
1	 7.980665e-02	 1.887202e+00	-2.601462e+01
1	 5.973601e-02	 1.887944e+00	-2.632652e+01
1	 3.974277e-02	 1.888471e+00	-2.643057e+01
1	 1.982983e-02	 1.888785e+00	-2.630691e+01
1	 0.000000e+00	 1.888889e+00	-2.593624e+01
1	 1.003437e-01	 1.893640e+00	-2.408773e+01
1	 8.011962e-02	 1.894603e+00	-2.456585e+01
1	 5.997027e-02	 1.895348e+00	-2.486735e+01
1	 3.989862e-02	 1.895877e+00	-2.497250e+01
1	 1.990759e-02	 1.896192e+00	-2.486210e+01
1	 0.000000e+00	 1.896296e+00	-2.451749e+01
1	 1.007356e-01	 1.901037e+00	-2.269815e+01
1	 8.043258e-02	 1.902004e+00	-2.315463e+01
1	 6.020453e-02	 1.902751e+00	-2.344523e+01
1	 4.005448e-02	 1.903282e+00	-2.355098e+01
1	 1.998536e-02	 1.903599e+00	-2.345340e+01
1	 0.000000e+00	 1.903704e+00	-2.313453e+01
1	 1.011276e-01	 1.908434e+00	-2.134659e+01
1	 8.074555e-02	 1.909405e+00	-2.178102e+01
1	 6.043879e-02	 1.910155e+00	-2.206024e+01
1	 4.021033e-02	 1.910688e+00	-2.216608e+01
1	 2.006312e-02	 1.911006e+00	-2.208089e+01
1	 0.000000e+00	 1.911111e+00	-2.178745e+01
1	 1.015196e-01	 1.915831e+00	-2.003306e+01
1	 8.105852e-02	 1.916805e+00	-2.044507e+01
1	 6.067305e-02	 1.917559e+00	-2.071243e+01
1	 4.036619e-02	 1.918094e+00	-2.081790e+01
1	 2.014088e-02	 1.918413e+00	-2.074464e+01
1	 0.000000e+00	 1.918519e+00	-2.047630e+01
1	 1.019115e-01	 1.923228e+00	-1.875760e+01
1	 8.137149e-02	 1.924206e+00	-1.914682e+01
1	 6.090730e-02	 1.924963e+00	-1.940188e+01
1	 4.052204e-02	 1.925500e+00	-1.950649e+01
1	 2.021865e-02	 1.925820e+00	-1.944474e+01
1	 0.000000e+00	 1.925926e+00	-1.920116e+01
1	 1.925926e+00	 0.000000e+00	 3.776554e+00
1	 1.925820e+00	 2.021865e-02	 3.779865e+00
1	 1.925500e+00	 4.052204e-02	 3.750848e+00
1	 1.924963e+00	 6.090730e-02	 3.692823e+00
1	 1.924206e+00	 8.137149e-02	 3.609094e+00
1	 1.923228e+00	 1.019115e-01	 3.502948e+00
1	 1.933333e+00	 0.000000e+00	 3.512817e+00
1	 1.933227e+00	 2.029641e-02	 3.518135e+00
1	 1.932905e+00	 4.067789e-02	 3.493007e+00
1	 1.932366e+00	 6.114156e-02	 3.440513e+00
1	 1.931607e+00	 8.168445e-02	 3.363707e+00
1	 1.930625e+00	 1.023035e-01	 3.265613e+00
1	 1.940741e+00	 0.000000e+00	 3.259093e+00
1	 1.940634e+00	 2.037418e-02	 3.265769e+00
1	 1.940311e+00	 4.083375e-02	 3.244110e+00
1	 1.939770e+00	 6.137582e-02	 3.196861e+00
1	 1.939008e+00	 8.199742e-02	 3.126730e+00
1	 1.938022e+00	 1.026955e-01	 3.036378e+00
1	 1.948148e+00	 0.000000e+00	 3.015403e+00
1	 1.948041e+00	 2.045194e-02	 3.022733e+00
1	 1.947717e+00	 4.098960e-02	 3.004078e+00
1	 1.947174e+00	 6.161008e-02	 2.961756e+00
1	 1.946409e+00	 8.231039e-02	 2.898030e+00
1	 1.945419e+00	 1.030875e-01	 2.815106e+00
1	 1.955556e+00	 0.000000e+00	 2.781768e+00
1	 1.955448e+00	 2.052970e-02	 2.788994e+00
1	 1.955123e+00	 4.114546e-02	 2.772837e+00
1	 1.954577e+00	 6.184434e-02	 2.735091e+00
1	 1.953809e+00	 8.262336e-02	 2.677481e+00
1	 1.952816e+00	 1.034794e-01	 2.601661e+00
1	 1.962963e+00	 0.000000e+00	 2.558208e+00
1	 1.962855e+00	 2.060747e-02	 2.564521e+00
1	 1.962528e+00	 4.130131e-02	 2.550312e+00
1	 1.961981e+00	 6.207860e-02	 2.516759e+00
1	 1.961210e+00	 8.293632e-02	 2.464955e+00
1	 1.960213e+00	 1.038714e-01	 2.395910e+00
1	 1.923228e+00	 1.019115e-01	 3.502948e+00
1	 1.922025e+00	 1.225244e-01	 3.377428e+00
1	 1.920594e+00	 1.432068e-01	 3.234112e+00
1	 1.918934e+00	 1.639555e-01	 3.074086e+00
1	 1.917042e+00	 1.847671e-01	 2.898454e+00
1	 1.914916e+00	 2.056382e-01	 2.708337e+00
1	 1.930625e+00	 1.023035e-01	 3.265613e+00
1	 1.929417e+00	 1.229956e-01	 3.149403e+00
1	 1.927981e+00	 1.437576e-01	 3.016824e+00
1	 1.926315e+00	 1.645861e-01	 2.868744e+00
1	 1.924416e+00	 1.854777e-01	 2.706049e+00
1	 1.922281e+00	 2.064291e-01	 2.529642e+00
1	 1.938022e+00	 1.026955e-01	 3.036378e+00
1	 1.936809e+00	 1.234669e-01	 2.929084e+00
1	 1.935368e+00	 1.443084e-01	 2.806811e+00
1	 1.933695e+00	 1.652166e-01	 2.670231e+00
1	 1.931789e+00	 1.861884e-01	 2.520034e+00
1	 1.929646e+00	 2.072200e-01	 2.356930e+00
1	 1.945419e+00	 1.030875e-01	 2.815106e+00
1	 1.944202e+00	 1.239381e-01	 2.716338e+00
1	 1.942755e+00	 1.448592e-01	 2.603958e+00
1	 1.941076e+00	 1.658472e-01	 2.478461e+00
1	 1.939162e+00	 1.868990e-01	 2.340363e+00
1	 1.937011e+00	 2.080109e-01	 2.190209e+00
1	 1.952816e+00	 1.034794e-01	 2.601661e+00
1	 1.951594e+00	 1.244094e-01	 2.511035e+00
1	 1.950142e+00	 1.454100e-01	 2.408152e+00
1	 1.948456e+00	 1.664778e-01	 2.293349e+00
1	 1.946535e+00	 1.876096e-01	 2.166993e+00
1	 1.944376e+00	 2.088018e-01	 2.029485e+00
1	 1.960213e+00	 1.038714e-01	 2.395910e+00
1	 1.958987e+00	 1.248806e-01	 2.313048e+00
1	 1.957529e+00	 1.459607e-01	 2.219282e+00
1	 1.955837e+00	 1.671084e-01	 2.114813e+00
1	 1.953909e+00	 1.883203e-01	 1.999879e+00
1	 1.951741e+00	 2.095928e-01	 1.874764e+00
1	 1.914916e+00	 2.056382e-01	 2.708337e+00
1	 1.912553e+00	 2.265653e-01	 2.506193e+00
1	 1.909951e+00	 2.475448e-01	 2.295682e+00
1	 1.907108e+00	 2.685730e-01	 2.079742e+00
1	 1.904021e+00	 2.896462e-01	 1.861328e+00
1	 1.900689e+00	 3.107606e-01	 1.643403e+00
1	 1.922281e+00	 2.064291e-01	 2.529642e+00
1	 1.919909e+00	 2.274367e-01	 2.341725e+00
1	 1.917297e+00	 2.484969e-01	 2.145739e+00
1	 1.914443e+00	 2.696060e-01	 1.944472e+00
1	 1.911344e+00	 2.907602e-01	 1.740721e+00
1	 1.907999e+00	 3.119558e-01	 1.537299e+00
1	 1.929646e+00	 2.072200e-01	 2.356930e+00
1	 1.927265e+00	 2.283081e-01	 2.182862e+00
1	 1.924643e+00	 2.494490e-01	 2.001035e+00
1	 1.921778e+00	 2.706389e-01	 1.814084e+00
1	 1.918667e+00	 2.918742e-01	 1.624653e+00
1	 1.915310e+00	 3.131510e-01	 1.435396e+00
1	 1.937011e+00	 2.080109e-01	 2.190209e+00
1	 1.934621e+00	 2.291795e-01	 2.029659e+00
1	 1.931989e+00	 2.504011e-01	 1.861648e+00
1	 1.929113e+00	 2.716719e-01	 1.688661e+00
1	 1.925990e+00	 2.929883e-01	 1.513189e+00
1	 1.922620e+00	 3.143463e-01	 1.337723e+00
1	 1.944376e+00	 2.088018e-01	 2.029485e+00
1	 1.941977e+00	 2.300509e-01	 1.882167e+00
1	 1.939335e+00	 2.513532e-01	 1.727655e+00
1	 1.936448e+00	 2.727049e-01	 1.568286e+00
1	 1.933314e+00	 2.941023e-01	 1.406394e+00
1	 1.929930e+00	 3.155415e-01	 1.244306e+00
1	 1.951741e+00	 2.095928e-01	 1.874764e+00
1	 1.949333e+00	 2.309223e-01	 1.740439e+00
1	 1.946681e+00	 2.523052e-01	 1.599133e+00
1	 1.943783e+00	 2.737379e-01	 1.453039e+00
1	 1.940637e+00	 2.952163e-01	 1.304332e+00
1	 1.937241e+00	 3.167367e-01	 1.155171e+00
1	 1.900689e+00	 3.107606e-01	 1.643403e+00
1	 1.897110e+00	 3.319122e-01	 1.429089e+00
1	 1.893281e+00	 3.530972e-01	 1.221997e+00
1	 1.889201e+00	 3.743114e-01	 1.025833e+00
1	 1.884869e+00	 3.955509e-01	 8.443029e-01
1	 1.880282e+00	 4.168113e-01	 6.811061e-01
1	 1.907999e+00	 3.119558e-01	 1.537299e+00
1	 1.904406e+00	 3.331888e-01	 1.337158e+00
1	 1.900563e+00	 3.544552e-01	 1.143724e+00
1	 1.896467e+00	 3.757511e-01	 9.605089e-01
1	 1.892118e+00	 3.970722e-01	 7.910141e-01
1	 1.887513e+00	 4.184144e-01	 6.387219e-01
1	 1.915310e+00	 3.131510e-01	 1.435396e+00
1	 1.911703e+00	 3.344654e-01	 1.249064e+00
1	 1.907845e+00	 3.558133e-01	 1.068851e+00
1	 1.903734e+00	 3.771907e-01	 8.980641e-01
1	 1.899368e+00	 3.985936e-01	 7.399910e-01
1	 1.894745e+00	 4.200176e-01	 5.978949e-01
1	 1.922620e+00	 3.143463e-01	 1.337723e+00
1	 1.918999e+00	 3.357420e-01	 1.164801e+00
1	 1.915127e+00	 3.571714e-01	 9.973710e-01
1	 1.911000e+00	 3.786304e-01	 8.385218e-01
1	 1.906617e+00	 4.001149e-01	 6.913212e-01
1	 1.901977e+00	 4.216207e-01	 5.588088e-01
1	 1.929930e+00	 3.155415e-01	 1.244306e+00
1	 1.926296e+00	 3.370185e-01	 1.084363e+00
1	 1.922408e+00	 3.585294e-01	 9.292762e-01
1	 1.918266e+00	 3.800701e-01	 7.819057e-01
1	 1.913867e+00	 4.016363e-01	 6.450907e-01
1	 1.909209e+00	 4.232238e-01	 5.216449e-01
1	 1.937241e+00	 3.167367e-01	 1.155171e+00
1	 1.933593e+00	 3.382951e-01	 1.007743e+00
1	 1.929690e+00	 3.598875e-01	 8.645596e-01
1	 1.925532e+00	 3.815097e-01	 7.282387e-01
1	 1.921116e+00	 4.031576e-01	 6.013846e-01
1	 1.916441e+00	 4.248269e-01	 4.865814e-01
1	 1.880282e+00	 4.168113e-01	 6.811061e-01
1	 1.875438e+00	 4.380886e-01	 5.358695e-01
1	 1.870337e+00	 4.593783e-01	 4.052462e-01
1	 1.864977e+00	 4.806762e-01	 2.884408e-01
1	 1.859357e+00	 5.019778e-01	 1.846306e-01
1	 1.853475e+00	 5.232787e-01	 9.296618e-02
1	 1.887513e+00	 4.184144e-01	 6.387219e-01
1	 1.882652e+00	 4.397735e-01	 5.033093e-01
1	 1.877531e+00	 4.611452e-01	 3.815343e-01
1	 1.872150e+00	 4.825250e-01	 2.724861e-01
1	 1.866509e+00	 5.039085e-01	 1.752601e-01
1	 1.860604e+00	 5.252913e-01	 8.896025e-02
1	 1.894745e+00	 4.200176e-01	 5.978949e-01
1	 1.889865e+00	 4.414585e-01	 4.716381e-01
1	 1.884725e+00	 4.629120e-01	 3.582637e-01
1	 1.879323e+00	 4.843737e-01	 2.568017e-01
1	 1.873660e+00	 5.058392e-01	 1.663103e-01
1	 1.867733e+00	 5.273039e-01	 8.587830e-02
1	 1.901977e+00	 4.216207e-01	 5.588088e-01
1	 1.897078e+00	 4.431434e-01	 4.411066e-01
1	 1.891918e+00	 4.646788e-01	 3.356595e-01
1	 1.886496e+00	 4.862225e-01	 2.414937e-01
1	 1.880811e+00	 5.077699e-01	 1.576734e-01
1	 1.874861e+00	 5.293165e-01	 8.330408e-02
1	 1.909209e+00	 4.232238e-01	 5.216449e-01
1	 1.904291e+00	 4.448284e-01	 4.119619e-01
1	 1.899112e+00	 4.664457e-01	 3.139434e-01
1	 1.893669e+00	 4.880712e-01	 2.266662e-01
1	 1.887963e+00	 5.097006e-01	 1.492437e-01
1	 1.881990e+00	 5.313291e-01	 8.082763e-02
1	 1.916441e+00	 4.248269e-01	 4.865814e-01
1	 1.911504e+00	 4.465133e-01	 3.844472e-01
1	 1.906305e+00	 4.682125e-01	 2.933336e-01
1	 1.900842e+00	 4.899200e-01	 2.124221e-01
1	 1.895114e+00	 5.116312e-01	 1.409165e-01
1	 1.889119e+00	 5.333417e-01	 7.804520e-02
1	 1.853475e+00	 5.232787e-01	 9.296618e-02
1	 1.847330e+00	 5.445743e-01	 1.508132e-02
1	 1.840922e+00	 5.658600e-01	-4.660387e-02
1	 1.834248e+00	 5.871313e-01	-9.187121e-02
1	 1.827310e+00	 6.083834e-01	-1.206290e-01
1	 1.820104e+00	 6.296116e-01	-1.329149e-01
1	 1.860604e+00	 5.252913e-01	 8.896025e-02
1	 1.854435e+00	 5.466688e-01	 1.475431e-02
1	 1.848002e+00	 5.680364e-01	-4.519141e-02
1	 1.841303e+00	 5.893895e-01	-9.037152e-02
1	 1.834338e+00	 6.107233e-01	-1.204223e-01
1	 1.827105e+00	 6.320332e-01	-1.351257e-01
1	 1.867733e+00	 5.273039e-01	 8.587830e-02
1	 1.861541e+00	 5.487633e-01	 1.606783e-02
1	 1.855083e+00	 5.702128e-01	-4.143274e-02
1	 1.848358e+00	 5.916477e-01	-8.592195e-02
1	 1.841366e+00	 6.130633e-01	-1.168378e-01
1	 1.834105e+00	 6.344548e-01	-1.337621e-01
1	 1.874861e+00	 5.293165e-01	 8.330408e-02
1	 1.868646e+00	 5.508578e-01	 1.831370e-02
1	 1.862163e+00	 5.723892e-01	-3.619802e-02
1	 1.855413e+00	 5.939059e-01	-7.942341e-02
1	 1.848394e+00	 6.154032e-01	-1.106747e-01
1	 1.841106e+00	 6.368764e-01	-1.293881e-01
1	 1.881990e+00	 5.313291e-01	 8.082763e-02
1	 1.875751e+00	 5.529523e-01	 2.079447e-02
1	 1.869244e+00	 5.745656e-01	-3.034425e-02
1	 1.862468e+00	 5.961641e-01	-7.176317e-02
1	 1.855422e+00	 6.177432e-01	-1.027201e-01
1	 1.848106e+00	 6.392980e-01	-1.225591e-01
1	 1.889119e+00	 5.333417e-01	 7.804520e-02
1	 1.882856e+00	 5.550469e-01	 2.282323e-02
1	 1.876324e+00	 5.767420e-01	-2.471547e-02
1	 1.869522e+00	 5.984223e-01	-6.381510e-02
1	 1.862450e+00	 6.200831e-01	-9.374910e-02
1	 1.855106e+00	 6.417196e-01	-1.138223e-01
1	 1.820104e+00	 6.296116e-01	-1.329149e-01
1	 1.812632e+00	 6.508112e-01	-1.295457e-01
1	 1.804893e+00	 6.719774e-01	-1.137407e-01
1	 1.796885e+00	 6.931053e-01	-8.925270e-02
1	 1.788609e+00	 7.141900e-01	-5.984565e-02
1	 1.780065e+00	 7.352267e-01	-2.928705e-02
1	 1.827105e+00	 6.320332e-01	-1.351257e-01
1	 1.819604e+00	 6.533144e-01	-1.345325e-01
1	 1.811834e+00	 6.745619e-01	-1.212405e-01
1	 1.803796e+00	 6.957711e-01	-9.897698e-02
1	 1.795489e+00	 7.169369e-01	-7.148060e-02
1	 1.786912e+00	 7.380545e-01	-4.249458e-02
1	 1.834105e+00	 6.344548e-01	-1.337621e-01
1	 1.826575e+00	 6.558175e-01	-1.359809e-01
1	 1.818776e+00	 6.771465e-01	-1.253903e-01
1	 1.810707e+00	 6.984369e-01	-1.056174e-01
1	 1.802368e+00	 7.196838e-01	-8.031086e-02
1	 1.793758e+00	 7.408823e-01	-5.313390e-02
1	 1.841106e+00	 6.368764e-01	-1.293881e-01
1	 1.833547e+00	 6.583206e-01	-1.341860e-01
1	 1.825718e+00	 6.797310e-01	-1.262833e-01
1	 1.817618e+00	 7.011026e-01	-1.091338e-01
1	 1.809247e+00	 7.224307e-01	-8.623177e-02
1	 1.800604e+00	 7.437101e-01	-6.110564e-02
1	 1.848106e+00	 6.392980e-01	-1.225591e-01
1	 1.840519e+00	 6.608237e-01	-1.294385e-01
1	 1.832660e+00	 6.823155e-01	-1.240116e-01
1	 1.824529e+00	 7.037684e-01	-1.094867e-01
1	 1.816126e+00	 7.251776e-01	-8.914029e-02
1	 1.807451e+00	 7.465379e-01	-6.631194e-02
1	 1.855106e+00	 6.417196e-01	-1.138223e-01
1	 1.847490e+00	 6.633268e-01	-1.220245e-01
1	 1.839602e+00	 6.849000e-01	-1.186657e-01
1	 1.831440e+00	 7.064342e-01	-1.066371e-01
1	 1.823006e+00	 7.279244e-01	-8.893493e-02
1	 1.814297e+00	 7.493657e-01	-6.865640e-02
1	 1.780065e+00	 7.352267e-01	-2.928705e-02
1	 1.771253e+00	 7.562104e-01	-7.659482e-04
1	 1.762172e+00	 7.771362e-01	 2.420856e-02
1	 1.752823e+00	 7.979991e-01	 4.445470e-02
1	 1.743206e+00	 8.187941e-01	 5.887906e-02
1	 1.733321e+00	 8.395162e-01	 6.648008e-02
1	 1.786912e+00	 7.380545e-01	-4.249458e-02
1	 1.778065e+00	 7.591189e-01	-1.504287e-02
1	 1.768950e+00	 7.801252e-01	 9.569823e-03
1	 1.759565e+00	 8.010683e-01	 3.023175e-02
1	 1.749911e+00	 8.219433e-01	 4.590217e-02
1	 1.739988e+00	 8.427451e-01	 5.561440e-02
1	 1.793758e+00	 7.408823e-01	-5.313390e-02
1	 1.784878e+00	 7.620274e-01	-2.694715e-02
1	 1.775727e+00	 7.831142e-01	-2.904312e-03
1	 1.766306e+00	 8.041375e-01	 1.792470e-02
1	 1.756615e+00	 8.250925e-01	 3.452483e-02
1	 1.746655e+00	 8.459740e-01	 4.593865e-02
1	 1.800604e+00	 7.437101e-01	-6.110564e-02
1	 1.791690e+00	 7.649359e-01	-3.641478e-02
1	 1.782505e+00	 7.861032e-01	-1.317485e-02
1	 1.773048e+00	 8.072068e-01	 7.558141e-03
1	 1.763320e+00	 8.282417e-01	 2.476818e-02
1	 1.753321e+00	 8.492029e-01	 3.748175e-02
1	 1.807451e+00	 7.465379e-01	-6.631194e-02
1	 1.798503e+00	 7.678444e-01	-4.338268e-02
1	 1.789282e+00	 7.890921e-01	-2.120340e-02
1	 1.779789e+00	 8.102760e-01	-8.437324e-04
1	 1.770024e+00	 8.313909e-01	 1.665301e-02
1	 1.759988e+00	 8.524319e-01	 3.027221e-02
1	 1.814297e+00	 7.493657e-01	-6.865640e-02
1	 1.805315e+00	 7.707529e-01	-4.778875e-02
1	 1.796060e+00	 7.920811e-01	-2.695214e-02
1	 1.786531e+00	 8.133452e-01	-7.257072e-03
1	 1.776729e+00	 8.345401e-01	 1.019982e-02
1	 1.766655e+00	 8.556608e-01	 2.433807e-02
1	 1.733321e+00	 8.395162e-01	 6.648008e-02
1	 1.723170e+00	 8.601604e-01	 6.155316e-02
1	 1.712752e+00	 8.807218e-01	 3.978442e-02
1	 1.702069e+00	 9.011951e-01	 2.434946e-03
1	 1.691121e+00	 9.215756e-01	-4.909406e-02
1	 1.679909e+00	 9.418580e-01	-1.132623e-01
1	 1.739988e+00	 8.427451e-01	 5.561440e-02
1	 1.729798e+00	 8.634688e-01	 5.377322e-02
1	 1.719340e+00	 8.841091e-01	 3.608882e-02
1	 1.708615e+00	 9.046613e-01	 3.717336e-03
1	 1.697625e+00	 9.251201e-01	-4.204250e-02
1	 1.686370e+00	 9.454806e-01	-9.975027e-02
1	 1.746655e+00	 8.459740e-01	 4.593865e-02
1	 1.736425e+00	 8.667771e-01	 4.672448e-02
1	 1.725927e+00	 8.874965e-01	 3.267195e-02
1	 1.715162e+00	 9.081274e-01	 4.822865e-03
1	 1.704129e+00	 9.286646e-01	-3.563802e-02
1	 1.692831e+00	 9.491031e-01	-8.738364e-02
1	 1.753321e+00	 8.492029e-01	 3.748175e-02
1	 1.743053e+00	 8.700854e-01	 4.044275e-02
1	 1.732515e+00	 8.908839e-01	 2.956319e-02
1	 1.721708e+00	 9.115935e-01	 5.761230e-03
1	 1.710634e+00	 9.322091e-01	-2.990372e-02
1	 1.699293e+00	 9.527256e-01	-7.623141e-02
1	 1.759988e+00	 8.524319e-01	 3.027221e-02
1	 1.749680e+00	 8.733937e-01	 3.496327e-02
1	 1.739102e+00	 8.942713e-01	 2.679145e-02
1	 1.728254e+00	 9.150597e-01	 6.541982e-03
1	 1.717138e+00	 9.357537e-01	-2.486236e-02
1	 1.705754e+00	 9.563482e-01	-6.636147e-02
1	 1.766655e+00	 8.556608e-01	 2.433807e-02
1	 1.756308e+00	 8.767020e-01	 3.032077e-02
1	 1.745690e+00	 8.976587e-01	 2.438522e-02
1	 1.734801e+00	 9.185258e-01	 7.174524e-03
1	 1.723642e+00	 9.392982e-01	-2.053636e-02
1	 1.712215e+00	 9.599707e-01	-5.784070e-02
1	 1.679909e+00	 9.418580e-01	-1.132623e-01
1	 1.668435e+00	 9.620375e-01	-1.908287e-01
1	 1.656699e+00	 9.821091e-01	-2.825167e-01
1	 1.644704e+00	 1.002068e+00	-3.864822e-01
1	 1.632450e+00	 1.021908e+00	-5.006866e-01
1	 1.619940e+00	 1.041626e+00	-6.228981e-01
1	 1.686370e+00	 9.454806e-01	-9.975027e-02
1	 1.674852e+00	 9.657377e-01	-1.700689e-01
1	 1.663071e+00	 9.858864e-01	-2.535980e-01
1	 1.651030e+00	 1.005922e+00	-3.485514e-01
1	 1.638729e+00	 1.025839e+00	-4.529512e-01
1	 1.626170e+00	 1.045633e+00	-5.646287e-01
1	 1.692831e+00	 9.491031e-01	-8.738364e-02
1	 1.681269e+00	 9.694378e-01	-1.510026e-01
1	 1.669443e+00	 9.896638e-01	-2.269693e-01
1	 1.657355e+00	 1.009776e+00	-3.135340e-01
1	 1.645008e+00	 1.029769e+00	-4.087539e-01
1	 1.632401e+00	 1.049639e+00	-5.104950e-01
1	 1.699293e+00	 9.527256e-01	-7.623141e-02
1	 1.687686e+00	 9.731380e-01	-1.337397e-01
1	 1.675815e+00	 9.934411e-01	-2.027592e-01
1	 1.663681e+00	 1.013630e+00	-2.815548e-01
1	 1.651286e+00	 1.033700e+00	-3.681942e-01
1	 1.638632e+00	 1.053645e+00	-4.605493e-01
1	 1.705754e+00	 9.563482e-01	-6.636147e-02
1	 1.694103e+00	 9.768381e-01	-1.183886e-01
1	 1.682187e+00	 9.972185e-01	-1.810943e-01
1	 1.670007e+00	 1.017484e+00	-2.527370e-01
1	 1.657565e+00	 1.037630e+00	-3.313701e-01
1	 1.644862e+00	 1.057651e+00	-4.148433e-01
1	 1.712215e+00	 9.599707e-01	-5.784070e-02
1	 1.700520e+00	 9.805383e-01	-1.050560e-01
1	 1.688559e+00	 1.000996e+00	-1.620994e-01
1	 1.676333e+00	 1.021338e+00	-2.272020e-01
1	 1.663844e+00	 1.041561e+00	-2.983781e-01
1	 1.651093e+00	 1.061658e+00	-3.734276e-01
1	 1.619940e+00	 1.041626e+00	-6.228981e-01
1	 1.607175e+00	 1.061216e+00	-7.420186e-01
1	 1.594156e+00	 1.080674e+00	-8.474794e-01
1	 1.580887e+00	 1.099994e+00	-9.377080e-01
1	 1.567369e+00	 1.119172e+00	-1.011147e+00
1	 1.553604e+00	 1.138203e+00	-1.066257e+00
1	 1.626170e+00	 1.045633e+00	-5.646287e-01
1	 1.613356e+00	 1.065298e+00	-6.731631e-01
1	 1.600288e+00	 1.084830e+00	-7.687138e-01
1	 1.586967e+00	 1.104225e+00	-8.498549e-01
1	 1.573397e+00	 1.123477e+00	-9.151808e-01
1	 1.559579e+00	 1.142581e+00	-9.633090e-01
1	 1.632401e+00	 1.049639e+00	-5.104950e-01
1	 1.619537e+00	 1.069380e+00	-6.090095e-01
1	 1.606419e+00	 1.088987e+00	-6.952130e-01
1	 1.593048e+00	 1.108456e+00	-7.678448e-01
1	 1.579425e+00	 1.127781e+00	-8.256728e-01
1	 1.565555e+00	 1.146958e+00	-8.674959e-01
1	 1.638632e+00	 1.053645e+00	-4.605493e-01
1	 1.625719e+00	 1.073461e+00	-5.495609e-01
1	 1.612550e+00	 1.093143e+00	-6.269481e-01
1	 1.599128e+00	 1.112686e+00	-6.916338e-01
1	 1.585454e+00	 1.132086e+00	-7.425808e-01
1	 1.571530e+00	 1.151336e+00	-7.787934e-01
1	 1.644862e+00	 1.057651e+00	-4.148433e-01
1	 1.631900e+00	 1.077543e+00	-4.948205e-01
1	 1.618682e+00	 1.097300e+00	-5.638906e-01
1	 1.605208e+00	 1.116917e+00	-6.211787e-01
1	 1.591482e+00	 1.136390e+00	-6.658633e-01
1	 1.577505e+00	 1.155714e+00	-6.971779e-01
1	 1.651093e+00	 1.061658e+00	-3.734276e-01
1	 1.638082e+00	 1.081624e+00	-4.447912e-01
1	 1.624813e+00	 1.101456e+00	-5.060126e-01
1	 1.611289e+00	 1.121148e+00	-5.564369e-01
1	 1.597510e+00	 1.140695e+00	-5.954793e-01
1	 1.583481e+00	 1.160092e+00	-6.226263e-01
1	 1.553604e+00	 1.138203e+00	-1.066257e+00
1	 1.539595e+00	 1.157082e+00	-1.103635e+00
1	 1.525344e+00	 1.175805e+00	-1.127064e+00
1	 1.510853e+00	 1.194367e+00	-1.140037e+00
1	 1.496127e+00	 1.212763e+00	-1.146377e+00
1	 1.481167e+00	 1.230990e+00	-1.150220e+00
1	 1.559579e+00	 1.142581e+00	-9.633090e-01
1	 1.545516e+00	 1.161533e+00	-9.957000e-01
1	 1.531210e+00	 1.180327e+00	-1.016336e+00
1	 1.516664e+00	 1.198961e+00	-1.027838e+00
1	 1.501881e+00	 1.217428e+00	-1.033093e+00
1	 1.486864e+00	 1.235724e+00	-1.035250e+00
1	 1.565555e+00	 1.146958e+00	-8.674959e-01
1	 1.551438e+00	 1.165983e+00	-8.954583e-01
1	 1.537077e+00	 1.184850e+00	-9.135713e-01
1	 1.522475e+00	 1.203554e+00	-9.236170e-01
1	 1.507636e+00	 1.222092e+00	-9.275850e-01
1	 1.492560e+00	 1.240459e+00	-9.276682e-01
1	 1.571530e+00	 1.151336e+00	-7.787934e-01
1	 1.557359e+00	 1.170433e+00	-8.029145e-01
1	 1.542944e+00	 1.189372e+00	-8.188055e-01
1	 1.528286e+00	 1.208148e+00	-8.274443e-01
1	 1.513390e+00	 1.226757e+00	-8.299581e-01
1	 1.498257e+00	 1.245193e+00	-8.276210e-01
1	 1.577505e+00	 1.155714e+00	-6.971779e-01
1	 1.563281e+00	 1.174883e+00	-7.180728e-01
1	 1.548810e+00	 1.193894e+00	-7.320737e-01
1	 1.534097e+00	 1.212742e+00	-7.393889e-01
1	 1.519144e+00	 1.231421e+00	-7.403182e-01
1	 1.503954e+00	 1.249928e+00	-7.352520e-01
1	 1.583481e+00	 1.160092e+00	-6.226263e-01
1	 1.569202e+00	 1.179334e+00	-6.409374e-01
1	 1.554677e+00	 1.198417e+00	-6.534104e-01
1	 1.539908e+00	 1.217336e+00	-6.595186e-01
1	 1.524899e+00	 1.236086e+00	-6.587688e-01
1	 1.509651e+00	 1.254663e+00	-6.507026e-01
1	 1.481167e+00	 1.230990e+00	-1.150220e+00
1	 1.465976e+00	 1.249042e+00	-1.142121e+00
1	 1.450558e+00	 1.266915e+00	-1.113141e+00
1	 1.434915e+00	 1.284605e+00	-1.068652e+00
1	 1.419051e+00	 1.302108e+00	-1.014335e+00
1	 1.402969e+00	 1.319420e+00	-9.561689e-01
1	 1.486864e+00	 1.235724e+00	-1.035250e+00
1	 1.471614e+00	 1.253846e+00	-1.024267e+00
1	 1.456137e+00	 1.271788e+00	-9.916708e-01
1	 1.440434e+00	 1.289546e+00	-9.434172e-01
1	 1.424509e+00	 1.307116e+00	-8.858166e-01
1	 1.408365e+00	 1.324494e+00	-8.255191e-01
1	 1.492560e+00	 1.240459e+00	-9.276682e-01
1	 1.477253e+00	 1.258650e+00	-9.135493e-01
1	 1.461716e+00	 1.276660e+00	-8.774387e-01
1	 1.445953e+00	 1.294487e+00	-8.257741e-01
1	 1.429967e+00	 1.312124e+00	-7.653861e-01
1	 1.413761e+00	 1.329569e+00	-7.034851e-01
1	 1.498257e+00	 1.245193e+00	-8.276210e-01
1	 1.482891e+00	 1.263454e+00	-8.101400e-01
1	 1.467295e+00	 1.281533e+00	-7.706223e-01
1	 1.451471e+00	 1.299428e+00	-7.158821e-01
1	 1.435424e+00	 1.317132e+00	-6.531637e-01
1	 1.419157e+00	 1.334644e+00	-5.901274e-01
1	 1.503954e+00	 1.249928e+00	-7.352520e-01
1	 1.488529e+00	 1.268258e+00	-7.142105e-01
1	 1.472874e+00	 1.286406e+00	-6.713965e-01
1	 1.456990e+00	 1.304368e+00	-6.138982e-01
1	 1.440882e+00	 1.322141e+00	-5.492675e-01
1	 1.424553e+00	 1.339719e+00	-4.855054e-01
1	 1.509651e+00	 1.254663e+00	-6.507026e-01
1	 1.494168e+00	 1.273062e+00	-6.259291e-01
1	 1.478453e+00	 1.291279e+00	-5.799336e-01
1	 1.462509e+00	 1.309309e+00	-5.199769e-01
1	 1.446340e+00	 1.327149e+00	-4.538138e-01
1	 1.429949e+00	 1.344793e+00	-3.896778e-01
1	 1.402969e+00	 1.319420e+00	-9.561689e-01
1	 1.386673e+00	 1.336536e+00	-9.135653e-01
1	 1.370166e+00	 1.353453e+00	-9.004387e-01
1	 1.353453e+00	 1.370166e+00	-9.146302e-01
1	 1.336536e+00	 1.386673e+00	-9.538437e-01
1	 1.319420e+00	 1.402969e+00	-1.015652e+00
1	 1.408365e+00	 1.324494e+00	-8.255191e-01
1	 1.392006e+00	 1.341676e+00	-7.812345e-01
1	 1.375436e+00	 1.358658e+00	-7.658248e-01
1	 1.358658e+00	 1.375436e+00	-7.773170e-01
1	 1.341676e+00	 1.392006e+00	-8.136104e-01
1	 1.324494e+00	 1.408365e+00	-8.724822e-01
1	 1.413761e+00	 1.329569e+00	-7.034851e-01
1	 1.397340e+00	 1.346817e+00	-6.579174e-01
1	 1.380706e+00	 1.363864e+00	-6.404756e-01
1	 1.363864e+00	 1.380706e+00	-6.494778e-01
1	 1.346817e+00	 1.397340e+00	-6.831273e-01
1	 1.329569e+00	 1.413761e+00	-7.395175e-01
1	 1.419157e+00	 1.334644e+00	-5.901274e-01
1	 1.402673e+00	 1.351958e+00	-5.436180e-01
1	 1.385976e+00	 1.369070e+00	-5.243635e-01
1	 1.369070e+00	 1.385976e+00	-5.310766e-01
1	 1.351958e+00	 1.402673e+00	-5.623718e-01
1	 1.334644e+00	 1.419157e+00	-6.167700e-01
1	 1.424553e+00	 1.339719e+00	-4.855054e-01
1	 1.408007e+00	 1.357098e+00	-4.383403e-01
1	 1.391246e+00	 1.374275e+00	-4.174613e-01
1	 1.374275e+00	 1.391246e+00	-4.220778e-01
1	 1.357098e+00	 1.408007e+00	-4.513220e-01
1	 1.339719e+00	 1.424553e+00	-5.042515e-01
1	 1.429949e+00	 1.344793e+00	-3.896778e-01
1	 1.413340e+00	 1.362239e+00	-3.420884e-01
1	 1.396516e+00	 1.379481e+00	-3.197420e-01
1	 1.379481e+00	 1.396516e+00	-3.224463e-01
1	 1.362239e+00	 1.413340e+00	-3.499559e-01
1	 1.344793e+00	 1.429949e+00	-4.019735e-01
1	 1.319420e+00	 1.402969e+00	-1.015652e+00
1	 1.302108e+00	 1.419051e+00	-1.110179e+00
1	 1.284605e+00	 1.434915e+00	-1.246420e+00
1	 1.266915e+00	 1.450558e+00	-1.419958e+00
1	 1.249042e+00	 1.465976e+00	-1.626125e+00
1	 1.230990e+00	 1.481167e+00	-1.860004e+00
1	 1.324494e+00	 1.408365e+00	-8.724822e-01
1	 1.307116e+00	 1.424509e+00	-9.636624e-01
1	 1.289546e+00	 1.440434e+00	-1.095388e+00
1	 1.271788e+00	 1.456137e+00	-1.262885e+00
1	 1.253846e+00	 1.471614e+00	-1.461094e+00
1	 1.235724e+00	 1.486864e+00	-1.684679e+00
1	 1.329569e+00	 1.413761e+00	-7.395175e-01
1	 1.312124e+00	 1.429967e+00	-8.279307e-01
1	 1.294487e+00	 1.445953e+00	-9.556827e-01
1	 1.276660e+00	 1.461716e+00	-1.117591e+00
1	 1.258650e+00	 1.477253e+00	-1.308154e+00
1	 1.240459e+00	 1.492560e+00	-1.521560e+00
1	 1.334644e+00	 1.419157e+00	-6.167700e-01
1	 1.317132e+00	 1.435424e+00	-7.030346e-01
1	 1.299428e+00	 1.451471e+00	-8.273825e-01
1	 1.281533e+00	 1.467295e+00	-9.841718e-01
1	 1.263454e+00	 1.482891e+00	-1.167406e+00
1	 1.245193e+00	 1.498257e+00	-1.370746e+00
1	 1.339719e+00	 1.424553e+00	-5.042515e-01
1	 1.322141e+00	 1.440882e+00	-5.890242e-01
1	 1.304368e+00	 1.456990e+00	-7.105639e-01
1	 1.286406e+00	 1.472874e+00	-8.627203e-01
1	 1.268258e+00	 1.488529e+00	-1.038950e+00
1	 1.249928e+00	 1.503954e+00	-1.232335e+00
1	 1.344793e+00	 1.429949e+00	-4.019735e-01
1	 1.327149e+00	 1.446340e+00	-4.859484e-01
1	 1.309309e+00	 1.462509e+00	-6.053028e-01
1	 1.291279e+00	 1.478453e+00	-7.533285e-01
1	 1.273062e+00	 1.494168e+00	-9.228863e-01
1	 1.254663e+00	 1.509651e+00	-1.106423e+00
1	 1.230990e+00	 1.481167e+00	-1.860004e+00
1	 1.212763e+00	 1.496127e+00	-2.105349e+00
1	 1.194367e+00	 1.510853e+00	-2.346468e+00
1	 1.175805e+00	 1.525344e+00	-2.578957e+00
1	 1.157082e+00	 1.539595e+00	-2.798220e+00
1	 1.138203e+00	 1.553604e+00	-2.999476e+00
1	 1.235724e+00	 1.486864e+00	-1.684679e+00
1	 1.217428e+00	 1.501881e+00	-1.917223e+00
1	 1.198961e+00	 1.516664e+00	-2.143560e+00
1	 1.180327e+00	 1.531210e+00	-2.359908e+00
1	 1.161533e+00	 1.545516e+00	-2.562332e+00
1	 1.142581e+00	 1.559579e+00	-2.746751e+00
1	 1.240459e+00	 1.492560e+00	-1.521560e+00
1	 1.222092e+00	 1.507636e+00	-1.741407e+00
1	 1.203554e+00	 1.522475e+00	-1.953270e+00
1	 1.184850e+00	 1.537077e+00	-2.153986e+00
1	 1.165983e+00	 1.551438e+00	-2.340276e+00
1	 1.146958e+00	 1.565555e+00	-2.508752e+00
1	 1.245193e+00	 1.498257e+00	-1.370746e+00
1	 1.226757e+00	 1.513390e+00	-1.577993e+00
1	 1.208148e+00	 1.528286e+00	-1.775684e+00
1	 1.189372e+00	 1.542944e+00	-1.961270e+00
1	 1.170433e+00	 1.557359e+00	-2.132127e+00
1	 1.151336e+00	 1.571530e+00	-2.285555e+00
1	 1.249928e+00	 1.503954e+00	-1.232335e+00
1	 1.231421e+00	 1.519144e+00	-1.427072e+00
1	 1.212742e+00	 1.534097e+00	-1.610887e+00
1	 1.193894e+00	 1.548810e+00	-1.781843e+00
1	 1.174883e+00	 1.563281e+00	-1.937963e+00
1	 1.155714e+00	 1.577505e+00	-2.077233e+00
1	 1.254663e+00	 1.509651e+00	-1.106423e+00
1	 1.236086e+00	 1.524899e+00	-1.288735e+00
1	 1.217336e+00	 1.539908e+00	-1.458965e+00
1	 1.198417e+00	 1.554677e+00	-1.615784e+00
1	 1.179334e+00	 1.569202e+00	-1.757858e+00
1	 1.160092e+00	 1.583481e+00	-1.883856e+00
1	 1.138203e+00	 1.553604e+00	-2.999476e+00
1	 1.119172e+00	 1.567369e+00	-3.181723e+00
1	 1.099994e+00	 1.580887e+00	-3.344450e+00
1	 1.080674e+00	 1.594156e+00	-3.483446e+00
1	 1.061216e+00	 1.607175e+00	-3.594445e+00
1	 1.041626e+00	 1.619940e+00	-3.673135e+00
1	 1.142581e+00	 1.559579e+00	-2.746751e+00
1	 1.123477e+00	 1.573397e+00	-2.912987e+00
1	 1.104225e+00	 1.586967e+00	-3.060846e+00
1	 1.084830e+00	 1.600288e+00	-3.186058e+00
1	 1.065298e+00	 1.613356e+00	-3.284289e+00
1	 1.045633e+00	 1.626170e+00	-3.351152e+00
1	 1.146958e+00	 1.565555e+00	-2.508752e+00
1	 1.127781e+00	 1.579425e+00	-2.659917e+00
1	 1.108456e+00	 1.593048e+00	-2.793736e+00
1	 1.088987e+00	 1.606419e+00	-2.905882e+00
1	 1.069380e+00	 1.619537e+00	-2.991951e+00
1	 1.049639e+00	 1.632401e+00	-3.047474e+00
1	 1.151336e+00	 1.571530e+00	-2.285555e+00
1	 1.132086e+00	 1.585454e+00	-2.422579e+00
1	 1.112686e+00	 1.599128e+00	-2.543176e+00
1	 1.093143e+00	 1.612550e+00	-2.642956e+00
1	 1.073461e+00	 1.625719e+00	-2.717442e+00
1	 1.053645e+00	 1.638632e+00	-2.762079e+00
1	 1.155714e+00	 1.577505e+00	-2.077233e+00
1	 1.136390e+00	 1.591482e+00	-2.201041e+00
1	 1.116917e+00	 1.605208e+00	-2.309219e+00
1	 1.097300e+00	 1.618682e+00	-2.397313e+00
1	 1.077543e+00	 1.631900e+00	-2.460769e+00
1	 1.057651e+00	 1.644862e+00	-2.494945e+00
1	 1.160092e+00	 1.583481e+00	-1.883856e+00
1	 1.140695e+00	 1.597510e+00	-1.995368e+00
1	 1.121148e+00	 1.611289e+00	-2.091919e+00
1	 1.101456e+00	 1.624813e+00	-2.168989e+00
1	 1.081624e+00	 1.638082e+00	-2.221943e+00
1	 1.061658e+00	 1.651093e+00	-2.246048e+00
1	 1.041626e+00	 1.619940e+00	-3.673135e+00
1	 1.021908e+00	 1.632450e+00	-3.707176e+00
1	 1.002068e+00	 1.644704e+00	-3.690248e+00
1	 9.821091e-01	 1.656699e+00	-3.627185e+00
1	 9.620375e-01	 1.668435e+00	-3.523003e+00
1	 9.418580e-01	 1.679909e+00	-3.382891e+00
1	 1.045633e+00	 1.626170e+00	-3.351152e+00
1	 1.025839e+00	 1.638729e+00	-3.375118e+00
1	 1.005922e+00	 1.651030e+00	-3.350680e+00
1	 9.858864e-01	 1.663071e+00	-3.282581e+00
1	 9.657377e-01	 1.674852e+00	-3.175745e+00
1	 9.454806e-01	 1.686370e+00	-3.035265e+00
1	 1.049639e+00	 1.632401e+00	-3.047474e+00
1	 1.029769e+00	 1.645008e+00	-3.061754e+00
1	 1.009776e+00	 1.657355e+00	-3.030136e+00
1	 9.896638e-01	 1.669443e+00	-2.957314e+00
1	 9.694378e-01	 1.681269e+00	-2.848155e+00
1	 9.491031e-01	 1.692831e+00	-2.707694e+00
1	 1.053645e+00	 1.638632e+00	-2.762079e+00
1	 1.033700e+00	 1.651286e+00	-2.767032e+00
1	 1.013630e+00	 1.663681e+00	-2.728555e+00
1	 9.934411e-01	 1.675815e+00	-2.651324e+00
1	 9.731380e-01	 1.687686e+00	-2.540190e+00
1	 9.527256e-01	 1.699293e+00	-2.400171e+00
1	 1.057651e+00	 1.644862e+00	-2.494945e+00
1	 1.037630e+00	 1.657565e+00	-2.490902e+00
1	 1.017484e+00	 1.670007e+00	-2.445874e+00
1	 9.972185e-01	 1.682187e+00	-2.364553e+00
1	 9.768381e-01	 1.694103e+00	-2.251811e+00
1	 9.563482e-01	 1.705754e+00	-2.112685e+00
1	 1.061658e+00	 1.651093e+00	-2.246048e+00
1	 1.041561e+00	 1.663844e+00	-2.233316e+00
1	 1.021338e+00	 1.676333e+00	-2.182032e+00
1	 1.000996e+00	 1.688559e+00	-2.096943e+00
1	 9.805383e-01	 1.700520e+00	-1.982977e+00
1	 9.599707e-01	 1.712215e+00	-1.845230e+00
1	 9.418580e-01	 1.679909e+00	-3.382891e+00
1	 9.215756e-01	 1.691121e+00	-3.212601e+00
1	 9.011951e-01	 1.702069e+00	-3.015372e+00
1	 8.807218e-01	 1.712752e+00	-2.792784e+00
1	 8.601604e-01	 1.723170e+00	-2.546469e+00
1	 8.395162e-01	 1.733321e+00	-2.278099e+00
1	 9.454806e-01	 1.686370e+00	-3.035265e+00
1	 9.251201e-01	 1.697625e+00	-2.866505e+00
1	 9.046613e-01	 1.708615e+00	-2.672592e+00
1	 8.841091e-01	 1.719340e+00	-2.455419e+00
1	 8.634688e-01	 1.729798e+00	-2.216933e+00
1	 8.427451e-01	 1.739988e+00	-1.959134e+00
1	 9.491031e-01	 1.692831e+00	-2.707694e+00
1	 9.286646e-01	 1.704129e+00	-2.540979e+00
1	 9.081274e-01	 1.715162e+00	-2.351025e+00
1	 8.874965e-01	 1.725927e+00	-2.139983e+00
1	 8.667771e-01	 1.736425e+00	-1.910066e+00
1	 8.459740e-01	 1.746655e+00	-1.663538e+00
1	 9.527256e-01	 1.699293e+00	-2.400171e+00
1	 9.322091e-01	 1.710634e+00	-2.236043e+00
1	 9.115935e-01	 1.721708e+00	-2.050704e+00
1	 8.908839e-01	 1.732515e+00	-1.846511e+00
1	 8.700854e-01	 1.743053e+00	-1.625882e+00
1	 8.492029e-01	 1.753321e+00	-1.391292e+00
1	 9.563482e-01	 1.705754e+00	-2.112685e+00
1	 9.357537e-01	 1.717138e+00	-1.951720e+00
1	 9.150597e-01	 1.728254e+00	-1.771666e+00
1	 8.942713e-01	 1.739102e+00	-1.575032e+00
1	 8.733937e-01	 1.749680e+00	-1.364393e+00
1	 8.524319e-01	 1.759988e+00	-1.142375e+00
1	 9.599707e-01	 1.712215e+00	-1.845230e+00
1	 9.392982e-01	 1.723642e+00	-1.688031e+00
1	 9.185258e-01	 1.734801e+00	-1.513944e+00
1	 8.976587e-01	 1.745690e+00	-1.325581e+00
1	 8.767020e-01	 1.756308e+00	-1.125613e+00
1	 8.556608e-01	 1.766655e+00	-9.167678e-01
1	 8.395162e-01	 1.733321e+00	-2.278099e+00
1	 8.187941e-01	 1.743206e+00	-1.991697e+00
1	 7.979991e-01	 1.752823e+00	-1.695359e+00
1	 7.771362e-01	 1.762172e+00	-1.397001e+00
1	 7.562104e-01	 1.771253e+00	-1.104647e+00
1	 7.352267e-01	 1.780065e+00	-8.264117e-01
1	 8.427451e-01	 1.739988e+00	-1.959134e+00
1	 8.219433e-01	 1.749911e+00	-1.686632e+00
1	 8.010683e-01	 1.759565e+00	-1.407279e+00
1	 7.801252e-01	 1.768950e+00	-1.128051e+00
1	 7.591189e-01	 1.778065e+00	-8.560139e-01
1	 7.380545e-01	 1.786912e+00	-5.983031e-01
1	 8.459740e-01	 1.746655e+00	-1.663538e+00
1	 8.250925e-01	 1.756615e+00	-1.405466e+00
1	 8.041375e-01	 1.766306e+00	-1.143493e+00
1	 7.831142e-01	 1.775727e+00	-8.838518e-01
1	 7.620274e-01	 1.784878e+00	-6.328464e-01
1	 7.408823e-01	 1.793758e+00	-3.968388e-01
1	 8.492029e-01	 1.753321e+00	-1.391292e+00
1	 8.282417e-01	 1.763320e+00	-1.148159e+00
1	 8.072068e-01	 1.773048e+00	-9.039776e-01
1	 7.861032e-01	 1.782505e+00	-6.644312e-01
1	 7.649359e-01	 1.791690e+00	-4.352607e-01
1	 7.437101e-01	 1.800604e+00	-2.222538e-01
1	 8.524319e-01	 1.759988e+00	-1.142375e+00
1	 8.313909e-01	 1.770024e+00	-9.146689e-01
1	 8.102760e-01	 1.779789e+00	-6.887086e-01
1	 7.890921e-01	 1.789282e+00	-4.698181e-01
1	 7.678444e-01	 1.798503e+00	-2.633714e-01
1	 7.465379e-01	 1.807451e+00	-7.477955e-02
1	 8.556608e-01	 1.766655e+00	-9.167678e-01
1	 8.345401e-01	 1.776729e+00	-7.049565e-01
1	 8.133452e-01	 1.786531e+00	-4.976623e-01
1	 7.920811e-01	 1.796060e+00	-3.000409e-01
1	 7.707529e-01	 1.805315e+00	-1.172912e-01
1	 7.493657e-01	 1.814297e+00	 4.535595e-02
1	 7.352267e-01	 1.780065e+00	-8.264117e-01
1	 7.141900e-01	 1.788609e+00	-5.658454e-01
1	 6.931053e-01	 1.796885e+00	-3.322486e-01
1	 6.719774e-01	 1.804893e+00	-1.424808e-01
1	 6.508112e-01	 1.812632e+00	-1.345604e-02
1	 6.296116e-01	 1.820104e+00	 3.789279e-02
1	 7.380545e-01	 1.786912e+00	-5.983031e-01
1	 7.169369e-01	 1.795489e+00	-3.581635e-01
1	 6.957711e-01	 1.803796e+00	-1.450791e-01
1	 6.745619e-01	 1.811834e+00	 2.433859e-02
1	 6.533144e-01	 1.819604e+00	 1.334134e-01
1	 6.320332e-01	 1.827105e+00	 1.654399e-01
1	 7.408823e-01	 1.793758e+00	-3.968388e-01
1	 7.196838e-01	 1.802368e+00	-1.789005e-01
1	 6.984369e-01	 1.810707e+00	 1.173354e-02
1	 6.771465e-01	 1.818776e+00	 1.593503e-01
1	 6.558175e-01	 1.826575e+00	 2.481692e-01
1	 6.344548e-01	 1.834105e+00	 2.623764e-01
1	 7.437101e-01	 1.800604e+00	-2.222538e-01
1	 7.224307e-01	 1.809247e+00	-2.836921e-02
1	 7.011026e-01	 1.817618e+00	 1.379057e-01
1	 6.797310e-01	 1.825718e+00	 2.623988e-01
1	 6.583206e-01	 1.833547e+00	 3.308756e-01
1	 6.368764e-01	 1.841106e+00	 3.290700e-01
1	 7.465379e-01	 1.807451e+00	-7.477955e-02
1	 7.251776e-01	 1.816126e+00	 9.312234e-02
1	 7.037684e-01	 1.824529e+00	 2.331581e-01
1	 6.823155e-01	 1.832660e+00	 3.333313e-01
1	 6.608237e-01	 1.840519e+00	 3.815960e-01
1	 6.392980e-01	 1.848106e+00	 3.658832e-01
1	 7.493657e-01	 1.814297e+00	 4.535595e-02
1	 7.279244e-01	 1.823006e+00	 1.852708e-01
1	 7.064342e-01	 1.831440e+00	 2.972154e-01
1	 6.849000e-01	 1.839602e+00	 3.719968e-01
1	 6.633268e-01	 1.847490e+00	 4.003929e-01
1	 6.417196e-01	 1.855106e+00	 3.731727e-01
1	 6.296116e-01	 1.820104e+00	 3.789279e-02
1	 6.083834e-01	 1.827310e+00	-9.784165e-03
1	 5.871313e-01	 1.834248e+00	-1.624306e-01
1	 5.658600e-01	 1.840922e+00	-4.137518e-01
1	 5.445743e-01	 1.847330e+00	-7.573175e-01
1	 5.232787e-01	 1.853475e+00	-1.186578e+00
1	 6.320332e-01	 1.827105e+00	 1.654399e-01
1	 6.107233e-01	 1.834338e+00	 1.008684e-01
1	 5.893895e-01	 1.841303e+00	-6.339034e-02
1	 5.680364e-01	 1.848002e+00	-3.192353e-01
1	 5.466688e-01	 1.854435e+00	-6.584270e-01
1	 5.252913e-01	 1.860604e+00	-1.072607e+00
1	 6.344548e-01	 1.834105e+00	 2.623764e-01
1	 6.130633e-01	 1.841366e+00	 1.846866e-01
1	 5.916477e-01	 1.848358e+00	 1.420111e-02
1	 5.702128e-01	 1.855083e+00	-2.402065e-01
1	 5.487633e-01	 1.861541e+00	-5.695297e-01
1	 5.273039e-01	 1.867733e+00	-9.646507e-01
1	 6.368764e-01	 1.841106e+00	 3.290700e-01
1	 6.154032e-01	 1.848394e+00	 2.422976e-01
1	 5.939059e-01	 1.855413e+00	 7.107087e-02
1	 5.723892e-01	 1.862163e+00	-1.759850e-01
1	 5.508578e-01	 1.868646e+00	-4.901270e-01
1	 5.293165e-01	 1.874861e+00	-8.625149e-01
1	 6.392980e-01	 1.848106e+00	 3.658832e-01
1	 6.177432e-01	 1.855422e+00	 2.743190e-01
1	 5.961641e-01	 1.862468e+00	 1.079351e-01
1	 5.745656e-01	 1.869244e+00	-1.259009e-01
1	 5.529523e-01	 1.875751e+00	-4.197275e-01
1	 5.313291e-01	 1.881990e+00	-7.660075e-01
1	 6.417196e-01	 1.855106e+00	 3.731727e-01
1	 6.200831e-01	 1.862450e+00	 2.813590e-01
1	 5.984223e-01	 1.869522e+00	 1.254990e-01
1	 5.767420e-01	 1.876324e+00	-8.929429e-02
1	 5.550469e-01	 1.882856e+00	-3.578476e-01
1	 5.333417e-01	 1.889119e+00	-6.749392e-01
1	 5.232787e-01	 1.853475e+00	-1.186578e+00
1	 5.019778e-01	 1.859357e+00	-1.693595e+00
1	 4.806762e-01	 1.864977e+00	-2.277557e+00
1	 4.593783e-01	 1.870337e+00	-2.942441e+00
1	 4.380886e-01	 1.875438e+00	-3.692117e+00
1	 4.168113e-01	 1.880282e+00	-4.530344e+00
1	 5.252913e-01	 1.860604e+00	-1.072607e+00
1	 5.039085e-01	 1.866509e+00	-1.553143e+00
1	 4.825250e-01	 1.872150e+00	-2.100810e+00
1	 4.611452e-01	 1.877531e+00	-2.721212e+00
1	 4.397735e-01	 1.882652e+00	-3.419862e+00
1	 4.184144e-01	 1.887513e+00	-4.202174e+00
1	 5.273039e-01	 1.867733e+00	-9.646507e-01
1	 5.058392e-01	 1.873660e+00	-1.417158e+00
1	 4.843737e-01	 1.879323e+00	-1.929179e+00
1	 4.629120e-01	 1.884725e+00	-2.507279e+00
1	 4.414585e-01	 1.889865e+00	-3.157942e+00
1	 4.200176e-01	 1.894745e+00	-3.887557e+00
1	 5.293165e-01	 1.874861e+00	-8.625149e-01
1	 5.077699e-01	 1.880811e+00	-1.285746e+00
1	 4.862225e-01	 1.886496e+00	-1.762962e+00
1	 4.646788e-01	 1.891918e+00	-2.301030e+00
1	 4.431434e-01	 1.897078e+00	-2.906736e+00
1	 4.216207e-01	 1.901977e+00	-3.586778e+00
1	 5.313291e-01	 1.881990e+00	-7.660075e-01
1	 5.097006e-01	 1.887963e+00	-1.159014e+00
1	 4.880712e-01	 1.893669e+00	-1.602457e+00
1	 4.664457e-01	 1.899112e+00	-2.102848e+00
1	 4.448284e-01	 1.904291e+00	-2.666622e+00
1	 4.232238e-01	 1.909209e+00	-3.300120e+00
1	 5.333417e-01	 1.889119e+00	-6.749392e-01
1	 5.116312e-01	 1.895114e+00	-1.037068e+00
1	 4.899200e-01	 1.900842e+00	-1.447952e+00
1	 4.682125e-01	 1.906305e+00	-1.913109e+00
1	 4.465133e-01	 1.911504e+00	-2.437969e+00
1	 4.248269e-01	 1.916441e+00	-3.027864e+00
1	 4.168113e-01	 1.880282e+00	-4.530344e+00
1	 3.955509e-01	 1.884869e+00	-5.462647e+00
1	 3.743114e-01	 1.889201e+00	-6.478377e+00
1	 3.530972e-01	 1.893281e+00	-7.556979e+00
1	 3.319122e-01	 1.897110e+00	-8.677979e+00
1	 3.107606e-01	 1.900689e+00	-9.821029e+00
1	 4.184144e-01	 1.887513e+00	-4.202174e+00
1	 3.970722e-01	 1.892118e+00	-5.074474e+00
1	 3.757511e-01	 1.896467e+00	-6.026350e+00
1	 3.544552e-01	 1.900563e+00	-7.038065e+00
1	 3.331888e-01	 1.904406e+00	-8.089950e+00
1	 3.119558e-01	 1.907999e+00	-9.162445e+00
1	 4.200176e-01	 1.894745e+00	-3.887557e+00
1	 3.985936e-01	 1.899368e+00	-4.702635e+00
1	 3.771907e-01	 1.903734e+00	-5.592927e+00
1	 3.558133e-01	 1.907845e+00	-6.539628e+00
1	 3.344654e-01	 1.911703e+00	-7.523997e+00
1	 3.131510e-01	 1.915310e+00	-8.527394e+00
1	 4.216207e-01	 1.901977e+00	-3.586778e+00
1	 4.001149e-01	 1.906617e+00	-4.347305e+00
1	 3.786304e-01	 1.911000e+00	-5.178207e+00
1	 3.571714e-01	 1.915127e+00	-6.061734e+00
1	 3.357420e-01	 1.918999e+00	-6.980194e+00
1	 3.143463e-01	 1.922620e+00	-7.915991e+00
1	 4.232238e-01	 1.909209e+00	-3.300120e+00
1	 4.016363e-01	 1.913867e+00	-4.008654e+00
1	 3.800701e-01	 1.918266e+00	-4.782291e+00
1	 3.585294e-01	 1.922408e+00	-5.604451e+00
1	 3.370185e-01	 1.926296e+00	-6.458614e+00
1	 3.155415e-01	 1.929930e+00	-7.328348e+00
1	 4.248269e-01	 1.916441e+00	-3.027864e+00
1	 4.031576e-01	 1.921116e+00	-3.686852e+00
1	 3.815097e-01	 1.925532e+00	-4.405277e+00
1	 3.598875e-01	 1.929690e+00	-5.167845e+00
1	 3.382951e-01	 1.933593e+00	-5.959326e+00
1	 3.167367e-01	 1.937241e+00	-6.764577e+00
1	 3.107606e-01	 1.900689e+00	-9.821029e+00
1	 2.896462e-01	 1.904021e+00	-1.096545e+01
1	 2.685730e-01	 1.907108e+00	-1.209313e+01
1	 2.475448e-01	 1.909951e+00	-1.318782e+01
1	 2.265653e-01	 1.912553e+00	-1.423350e+01
1	 2.056382e-01	 1.914916e+00	-1.521440e+01
1	 3.119558e-01	 1.907999e+00	-9.162445e+00
1	 2.907602e-01	 1.911344e+00	-1.023581e+01
1	 2.696060e-01	 1.914443e+00	-1.129290e+01
1	 2.484969e-01	 1.917297e+00	-1.231829e+01
1	 2.274367e-01	 1.919909e+00	-1.329680e+01
1	 2.064291e-01	 1.922281e+00	-1.421345e+01
1	 3.131510e-01	 1.915310e+00	-8.527394e+00
1	 2.918742e-01	 1.918667e+00	-9.531137e+00
1	 2.706389e-01	 1.921778e+00	-1.051909e+01
1	 2.494490e-01	 1.924643e+00	-1.147665e+01
1	 2.283081e-01	 1.927265e+00	-1.238944e+01
1	 2.072200e-01	 1.929646e+00	-1.324329e+01
1	 3.143463e-01	 1.922620e+00	-7.915991e+00
1	 2.929883e-01	 1.925990e+00	-8.851596e+00
1	 2.716719e-01	 1.929113e+00	-9.771884e+00
1	 2.504011e-01	 1.931989e+00	-1.066308e+01
1	 2.291795e-01	 1.934621e+00	-1.151158e+01
1	 2.080109e-01	 1.937011e+00	-1.230403e+01
1	 3.155415e-01	 1.929930e+00	-7.328348e+00
1	 2.941023e-01	 1.933314e+00	-8.197346e+00
1	 2.727049e-01	 1.936448e+00	-9.051471e+00
1	 2.513532e-01	 1.939335e+00	-9.877752e+00
1	 2.300509e-01	 1.941977e+00	-1.066339e+01
1	 2.088018e-01	 1.944376e+00	-1.139576e+01
1	 3.167367e-01	 1.937241e+00	-6.764577e+00
1	 2.952163e-01	 1.940637e+00	-7.568544e+00
1	 2.737379e-01	 1.943783e+00	-8.358027e+00
1	 2.523052e-01	 1.946681e+00	-9.120854e+00
1	 2.309223e-01	 1.949333e+00	-9.844998e+00
1	 2.095928e-01	 1.951741e+00	-1.051860e+01
1	 2.056382e-01	 1.914916e+00	-1.521440e+01
1	 1.847671e-01	 1.917042e+00	-1.611463e+01
1	 1.639555e-01	 1.918934e+00	-1.692475e+01
1	 1.432068e-01	 1.920594e+00	-1.763895e+01
1	 1.225244e-01	 1.922025e+00	-1.825169e+01
1	 1.019115e-01	 1.923228e+00	-1.875760e+01
1	 2.064291e-01	 1.922281e+00	-1.421345e+01
1	 1.854777e-01	 1.924416e+00	-1.505341e+01
1	 1.645861e-01	 1.926315e+00	-1.580848e+01
1	 1.437576e-01	 1.927981e+00	-1.647405e+01
1	 1.229956e-01	 1.929417e+00	-1.704567e+01
1	 1.023035e-01	 1.930625e+00	-1.751911e+01
1	 2.072200e-01	 1.929646e+00	-1.324329e+01
1	 1.861884e-01	 1.931789e+00	-1.402439e+01
1	 1.652166e-01	 1.933695e+00	-1.472574e+01
1	 1.443084e-01	 1.935368e+00	-1.534377e+01
1	 1.234669e-01	 1.936809e+00	-1.587508e+01
1	 1.026955e-01	 1.938022e+00	-1.631643e+01
1	 2.080109e-01	 1.937011e+00	-1.230403e+01
1	 1.868990e-01	 1.939162e+00	-1.302762e+01
1	 1.658472e-01	 1.941076e+00	-1.367653e+01
1	 1.448592e-01	 1.942755e+00	-1.424811e+01
1	 1.239381e-01	 1.944202e+00	-1.473987e+01
1	 1.030875e-01	 1.945419e+00	-1.514949e+01
1	 2.088018e-01	 1.944376e+00	-1.139576e+01
1	 1.876096e-01	 1.946535e+00	-1.206316e+01
1	 1.664778e-01	 1.948456e+00	-1.266085e+01
1	 1.454100e-01	 1.950142e+00	-1.318702e+01
1	 1.244094e-01	 1.951594e+00	-1.363998e+01
1	 1.034794e-01	 1.952816e+00	-1.401824e+01
1	 2.095928e-01	 1.951741e+00	-1.051860e+01
1	 1.883203e-01	 1.953909e+00	-1.113105e+01
1	 1.671084e-01	 1.955837e+00	-1.167870e+01
1	 1.459607e-01	 1.957529e+00	-1.216047e+01
1	 1.248806e-01	 1.958987e+00	-1.257537e+01
1	 1.038714e-01	 1.960213e+00	-1.292261e+01
1	 1.019115e-01	 1.923228e+00	-1.875760e+01
1	 8.137149e-02	 1.924206e+00	-1.914682e+01
1	 6.090730e-02	 1.924963e+00	-1.940188e+01
1	 4.052204e-02	 1.925500e+00	-1.950649e+01
1	 2.021865e-02	 1.925820e+00	-1.944474e+01
1	 0.000000e+00	 1.925926e+00	-1.920116e+01
1	 1.023035e-01	 1.930625e+00	-1.751911e+01
1	 8.168445e-02	 1.931607e+00	-1.788532e+01
1	 6.114156e-02	 1.932366e+00	-1.812773e+01
1	 4.067789e-02	 1.932905e+00	-1.823127e+01
1	 2.029641e-02	 1.933227e+00	-1.818122e+01
1	 0.000000e+00	 1.933333e+00	-1.796324e+01
1	 1.026955e-01	 1.938022e+00	-1.631643e+01
1	 8.199742e-02	 1.939008e+00	-1.665953e+01
1	 6.137582e-02	 1.939770e+00	-1.688908e+01
1	 4.083375e-02	 1.940311e+00	-1.699167e+01
1	 2.037418e-02	 1.940634e+00	-1.695419e+01
1	 0.000000e+00	 1.940741e+00	-1.676390e+01
1	 1.030875e-01	 1.945419e+00	-1.514949e+01
1	 8.231039e-02	 1.946409e+00	-1.546943e+01
1	 6.161008e-02	 1.947174e+00	-1.568594e+01
1	 4.098960e-02	 1.947717e+00	-1.578773e+01
1	 2.045194e-02	 1.948041e+00	-1.576379e+01
1	 0.000000e+00	 1.948148e+00	-1.560336e+01
1	 1.034794e-01	 1.952816e+00	-1.401824e+01
1	 8.262336e-02	 1.953809e+00	-1.431495e+01
1	 6.184434e-02	 1.954577e+00	-1.451829e+01
1	 4.114546e-02	 1.955123e+00	-1.461953e+01
1	 2.052970e-02	 1.955448e+00	-1.461015e+01
1	 0.000000e+00	 1.955556e+00	-1.448186e+01
1	 1.038714e-01	 1.960213e+00	-1.292261e+01
1	 8.293632e-02	 1.961210e+00	-1.319605e+01
1	 6.207860e-02	 1.961981e+00	-1.338614e+01
1	 4.130131e-02	 1.962528e+00	-1.348712e+01
1	 2.060747e-02	 1.962855e+00	-1.349343e+01
1	 0.000000e+00	 1.962963e+00	-1.339963e+01
1	 1.962963e+00	 0.000000e+00	 2.558208e+00
1	 1.962855e+00	 2.060747e-02	 2.564521e+00
1	 1.962528e+00	 4.130131e-02	 2.550312e+00
1	 1.961981e+00	 6.207860e-02	 2.516759e+00
1	 1.961210e+00	 8.293632e-02	 2.464955e+00
1	 1.960213e+00	 1.038714e-01	 2.395910e+00
1	 1.970370e+00	 0.000000e+00	 2.344987e+00
1	 1.970262e+00	 2.068523e-02	 2.349275e+00
1	 1.969934e+00	 4.145716e-02	 2.336359e+00
1	 1.969385e+00	 6.231286e-02	 2.306625e+00
1	 1.968611e+00	 8.324929e-02	 2.260385e+00
1	 1.967610e+00	 1.042634e-01	 2.197881e+00
1	 1.977778e+00	 0.000000e+00	 2.143871e+00
1	 1.977669e+00	 2.076300e-02	 2.143759e+00
1	 1.977340e+00	 4.161302e-02	 2.130702e+00
1	 1.976789e+00	 6.254712e-02	 2.104044e+00
1	 1.976012e+00	 8.356226e-02	 2.063112e+00
1	 1.975007e+00	 1.046553e-01	 2.007224e+00
1	 1.985185e+00	 0.000000e+00	 1.957104e+00
1	 1.985076e+00	 2.084076e-02	 1.948739e+00
1	 1.984746e+00	 4.176887e-02	 1.933073e+00
1	 1.984192e+00	 6.278138e-02	 1.908157e+00
1	 1.983413e+00	 8.387522e-02	 1.872133e+00
1	 1.982404e+00	 1.050473e-01	 1.823248e+00
1	 1.992593e+00	 0.000000e+00	 1.786899e+00
1	 1.992483e+00	 2.091852e-02	 1.764971e+00
1	 1.992151e+00	 4.192473e-02	 1.743207e+00
1	 1.991596e+00	 6.301563e-02	 1.718117e+00
1	 1.990813e+00	 8.418819e-02	 1.686463e+00
1	 1.989801e+00	 1.054393e-01	 1.645273e+00
1	 2.000000e+00	 0.000000e+00	 1.635432e+00
1	 1.999890e+00	 2.099629e-02	 1.593201e+00
1	 1.999557e+00	 4.208058e-02	 1.560843e+00
1	 1.999000e+00	 6.324989e-02	 1.533089e+00
1	 1.998214e+00	 8.450116e-02	 1.505128e+00
1	 1.997198e+00	 1.058312e-01	 1.472627e+00
1	 1.960213e+00	 1.038714e-01	 2.395910e+00
1	 1.958987e+00	 1.248806e-01	 2.313048e+00
1	 1.957529e+00	 1.459607e-01	 2.219282e+00
1	 1.955837e+00	 1.671084e-01	 2.114813e+00
1	 1.953909e+00	 1.883203e-01	 1.999879e+00
1	 1.951741e+00	 2.095928e-01	 1.874764e+00
1	 1.967610e+00	 1.042634e-01	 2.197881e+00
1	 1.966379e+00	 1.253519e-01	 2.122477e+00
1	 1.964916e+00	 1.465115e-01	 2.037473e+00
1	 1.963218e+00	 1.677390e-01	 1.942979e+00
1	 1.961282e+00	 1.890309e-01	 1.839147e+00
1	 1.959106e+00	 2.103837e-01	 1.726168e+00
1	 1.975007e+00	 1.046553e-01	 2.007224e+00
1	 1.973771e+00	 1.258231e-01	 1.939353e+00
1	 1.972303e+00	 1.470623e-01	 1.862985e+00
1	 1.970598e+00	 1.683696e-01	 1.778211e+00
1	 1.968655e+00	 1.897416e-01	 1.685145e+00
1	 1.966472e+00	 2.111746e-01	 1.583928e+00
1	 1.982404e+00	 1.050473e-01	 1.823248e+00
1	 1.981164e+00	 1.262944e-01	 1.763453e+00
1	 1.979690e+00	 1.476131e-01	 1.695914e+00
1	 1.977979e+00	 1.690002e-01	 1.620774e+00
1	 1.976028e+00	 1.904522e-01	 1.538167e+00
1	 1.973837e+00	 2.119655e-01	 1.448212e+00
1	 1.989801e+00	 1.054393e-01	 1.645273e+00
1	 1.988556e+00	 1.267656e-01	 1.594552e+00
1	 1.987076e+00	 1.481639e-01	 1.536351e+00
1	 1.985359e+00	 1.696308e-01	 1.470933e+00
1	 1.983402e+00	 1.911629e-01	 1.398499e+00
1	 1.981202e+00	 2.127564e-01	 1.319186e+00
1	 1.997198e+00	 1.058312e-01	 1.472627e+00
1	 1.995949e+00	 1.272369e-01	 1.432432e+00
1	 1.994463e+00	 1.487147e-01	 1.384389e+00
1	 1.992740e+00	 1.702614e-01	 1.328947e+00
1	 1.990775e+00	 1.918735e-01	 1.266427e+00
1	 1.988567e+00	 2.135473e-01	 1.197015e+00
1	 1.951741e+00	 2.095928e-01	 1.874764e+00
1	 1.949333e+00	 2.309223e-01	 1.740439e+00
1	 1.946681e+00	 2.523052e-01	 1.599133e+00
1	 1.943783e+00	 2.737379e-01	 1.453039e+00
1	 1.940637e+00	 2.952163e-01	 1.304332e+00
1	 1.937241e+00	 3.167367e-01	 1.155171e+00
1	 1.959106e+00	 2.103837e-01	 1.726168e+00
1	 1.956689e+00	 2.317937e-01	 1.604594e+00
1	 1.954027e+00	 2.532573e-01	 1.476193e+00
1	 1.951118e+00	 2.747708e-01	 1.343002e+00
1	 1.947960e+00	 2.963303e-01	 1.207033e+00
1	 1.944551e+00	 3.179320e-01	 1.070273e+00
1	 1.966472e+00	 2.111746e-01	 1.583928e+00
1	 1.964045e+00	 2.326651e-01	 1.474721e+00
1	 1.961373e+00	 2.542094e-01	 1.358832e+00
1	 1.958453e+00	 2.758038e-01	 1.238120e+00
1	 1.955283e+00	 2.974444e-01	 1.114424e+00
1	 1.951861e+00	 3.191272e-01	 9.895549e-01
1	 1.973837e+00	 2.119655e-01	 1.448212e+00
1	 1.971401e+00	 2.335365e-01	 1.350823e+00
1	 1.968719e+00	 2.551615e-01	 1.246953e+00
1	 1.965788e+00	 2.768368e-01	 1.138267e+00
1	 1.962606e+00	 2.985584e-01	 1.026414e+00
1	 1.959172e+00	 3.203224e-01	 9.130282e-01
1	 1.981202e+00	 2.127564e-01	 1.319186e+00
1	 1.978757e+00	 2.344079e-01	 1.232903e+00
1	 1.976065e+00	 2.561136e-01	 1.140463e+00
1	 1.973123e+00	 2.778697e-01	 1.043315e+00
1	 1.969929e+00	 2.996724e-01	 9.429110e-01
1	 1.966482e+00	 3.215177e-01	 8.407027e-01
1	 1.988567e+00	 2.135473e-01	 1.197015e+00
1	 1.986113e+00	 2.352793e-01	 1.120964e+00
1	 1.983411e+00	 2.570657e-01	 1.039268e+00
1	 1.980458e+00	 2.789027e-01	 9.531412e-01
1	 1.977253e+00	 3.007864e-01	 8.638252e-01
1	 1.973792e+00	 3.227129e-01	 7.725886e-01
1	 1.937241e+00	 3.167367e-01	 1.155171e+00
1	 1.933593e+00	 3.382951e-01	 1.007743e+00
1	 1.929690e+00	 3.598875e-01	 8.645596e-01
1	 1.925532e+00	 3.815097e-01	 7.282387e-01
1	 1.921116e+00	 4.031576e-01	 6.013846e-01
1	 1.916441e+00	 4.248269e-01	 4.865814e-01
1	 1.944551e+00	 3.179320e-01	 1.070273e+00
1	 1.940889e+00	 3.395717e-01	 9.348148e-01
1	 1.936972e+00	 3.612456e-01	 8.030371e-01
1	 1.932798e+00	 3.829494e-01	 6.773244e-01
1	 1.928366e+00	 4.046790e-01	 5.600507e-01
1	 1.923673e+00	 4.264300e-01	 4.535748e-01
1	 1.951861e+00	 3.191272e-01	 9.895549e-01
1	 1.948186e+00	 3.408483e-01	 8.655353e-01
1	 1.944254e+00	 3.626036e-01	 7.446517e-01
1	 1.940064e+00	 3.843890e-01	 6.290790e-01
1	 1.935615e+00	 4.062003e-01	 5.209795e-01
1	 1.930905e+00	 4.280332e-01	 4.224973e-01
1	 1.959172e+00	 3.203224e-01	 9.130282e-01
1	 1.955482e+00	 3.421249e-01	 8.000266e-01
1	 1.951536e+00	 3.639617e-01	 6.895848e-01
1	 1.947331e+00	 3.858287e-01	 5.836925e-01
1	 1.942865e+00	 4.077217e-01	 4.843170e-01
1	 1.938136e+00	 4.296363e-01	 3.933989e-01
1	 1.966482e+00	 3.215177e-01	 8.407027e-01
1	 1.962779e+00	 3.434015e-01	 7.384085e-01
1	 1.958818e+00	 3.653198e-01	 6.380156e-01
1	 1.954597e+00	 3.872684e-01	 5.413519e-01
1	 1.950114e+00	 4.092430e-01	 4.502072e-01
1	 1.945368e+00	 4.312394e-01	 3.663286e-01
1	 1.973792e+00	 3.227129e-01	 7.725886e-01
1	 1.970075e+00	 3.446781e-01	 6.807991e-01
1	 1.966100e+00	 3.666778e-01	 5.901203e-01
1	 1.961863e+00	 3.887080e-01	 5.022416e-01
1	 1.957364e+00	 4.107643e-01	 4.187919e-01
1	 1.952600e+00	 4.328425e-01	 3.413349e-01
1	 1.916441e+00	 4.248269e-01	 4.865814e-01
1	 1.911504e+00	 4.465133e-01	 3.844472e-01
1	 1.906305e+00	 4.682125e-01	 2.933336e-01
1	 1.900842e+00	 4.899200e-01	 2.124221e-01
1	 1.895114e+00	 5.116312e-01	 1.409165e-01
1	 1.889119e+00	 5.333417e-01	 7.804520e-02
1	 1.923673e+00	 4.264300e-01	 4.535748e-01
1	 1.918718e+00	 4.481983e-01	 3.586446e-01
1	 1.913499e+00	 4.699794e-01	 2.739775e-01
1	 1.908015e+00	 4.917687e-01	 1.988752e-01
1	 1.902265e+00	 5.135619e-01	 1.326464e-01
1	 1.896248e+00	 5.353543e-01	 7.460807e-02
1	 1.930905e+00	 4.280332e-01	 4.224973e-01
1	 1.925931e+00	 4.498833e-01	 3.344468e-01
1	 1.920693e+00	 4.717462e-01	 2.558256e-01
1	 1.915188e+00	 4.936175e-01	 1.860352e-01
1	 1.909417e+00	 5.154926e-01	 1.244762e-01
1	 1.903376e+00	 5.373670e-01	 7.054941e-02
1	 1.938136e+00	 4.296363e-01	 3.933989e-01
1	 1.933144e+00	 4.515682e-01	 3.118102e-01
1	 1.927886e+00	 4.735130e-01	 2.387995e-01
1	 1.922361e+00	 4.954662e-01	 1.738476e-01
1	 1.916568e+00	 5.174233e-01	 1.164346e-01
1	 1.910505e+00	 5.393796e-01	 6.604088e-02
1	 1.945368e+00	 4.312394e-01	 3.663286e-01
1	 1.940357e+00	 4.532532e-01	 2.906919e-01
1	 1.935080e+00	 4.752799e-01	 2.228219e-01
1	 1.929534e+00	 4.973150e-01	 1.622587e-01
1	 1.923719e+00	 5.193540e-01	 1.085500e-01
1	 1.917634e+00	 5.413922e-01	 6.125160e-02
1	 1.952600e+00	 4.328425e-01	 3.413349e-01
1	 1.947571e+00	 4.549381e-01	 2.710495e-01
1	 1.942274e+00	 4.770467e-01	 2.078165e-01
1	 1.936707e+00	 4.991637e-01	 1.512158e-01
1	 1.930871e+00	 5.212847e-01	 1.008505e-01
1	 1.924763e+00	 5.434048e-01	 5.634819e-02
1	 1.889119e+00	 5.333417e-01	 7.804520e-02
1	 1.882856e+00	 5.550469e-01	 2.282323e-02
1	 1.876324e+00	 5.767420e-01	-2.471547e-02
1	 1.869522e+00	 5.984223e-01	-6.381510e-02
1	 1.862450e+00	 6.200831e-01	-9.374910e-02
1	 1.855106e+00	 6.417196e-01	-1.138223e-01
1	 1.896248e+00	 5.353543e-01	 7.460807e-02
1	 1.889961e+00	 5.571414e-01	 2.368324e-02
1	 1.883405e+00	 5.789183e-01	-2.033214e-02
1	 1.876577e+00	 6.006805e-01	-5.678616e-02
1	 1.869478e+00	 6.224230e-01	-8.500296e-02
1	 1.862107e+00	 6.441411e-01	-1.042835e-01
1	 1.903376e+00	 5.373670e-01	 7.054941e-02
1	 1.897066e+00	 5.592359e-01	 2.329966e-02
1	 1.890485e+00	 5.810947e-01	-1.748215e-02
1	 1.883632e+00	 6.029387e-01	-5.123077e-02
1	 1.876506e+00	 6.247630e-01	-7.732189e-02
1	 1.869107e+00	 6.465627e-01	-9.507222e-02
1	 1.910505e+00	 5.393796e-01	 6.604088e-02
1	 1.904171e+00	 5.613304e-01	 2.195304e-02
1	 1.897566e+00	 5.832711e-01	-1.590415e-02
1	 1.890687e+00	 6.051969e-01	-4.703535e-02
1	 1.883534e+00	 6.271029e-01	-7.086918e-02
1	 1.876108e+00	 6.489843e-01	-8.675780e-02
1	 1.917634e+00	 5.413922e-01	 6.125160e-02
1	 1.911276e+00	 5.634249e-01	 1.991976e-02
1	 1.904646e+00	 5.854475e-01	-1.534065e-02
1	 1.897742e+00	 6.074551e-01	-4.408803e-02
1	 1.890563e+00	 6.294428e-01	-6.580568e-02
1	 1.883108e+00	 6.514059e-01	-7.990129e-02
1	 1.924763e+00	 5.434048e-01	 5.634819e-02
1	 1.918382e+00	 5.655194e-01	 1.747210e-02
1	 1.911726e+00	 5.876239e-01	-1.553799e-02
1	 1.904797e+00	 6.097133e-01	-4.227858e-02
1	 1.897591e+00	 6.317828e-01	-6.228986e-02
1	 1.890108e+00	 6.538275e-01	-7.505539e-02
1	 1.855106e+00	 6.417196e-01	-1.138223e-01
1	 1.847490e+00	 6.633268e-01	-1.220245e-01
1	 1.839602e+00	 6.849000e-01	-1.186657e-01
1	 1.831440e+00	 7.064342e-01	-1.066371e-01
1	 1.823006e+00	 7.279244e-01	-8.893493e-02
1	 1.814297e+00	 7.493657e-01	-6.865640e-02
1	 1.862107e+00	 6.441411e-01	-1.042835e-01
1	 1.854462e+00	 6.658300e-01	-1.128077e-01
1	 1.846544e+00	 6.874846e-01	-1.108627e-01
1	 1.838352e+00	 7.091000e-01	-1.009944e-01
1	 1.829885e+00	 7.306713e-01	-8.588019e-02
1	 1.821144e+00	 7.521935e-01	-6.832572e-02
1	 1.869107e+00	 6.465627e-01	-9.507222e-02
1	 1.861434e+00	 6.683331e-01	-1.030970e-01
1	 1.853486e+00	 6.900691e-01	-1.019080e-01
1	 1.845263e+00	 7.117658e-01	-9.371985e-02
1	 1.836764e+00	 7.334182e-01	-8.087563e-02
1	 1.827990e+00	 7.550213e-01	-6.584384e-02
1	 1.876108e+00	 6.489843e-01	-8.675780e-02
1	 1.868405e+00	 6.708362e-01	-9.383248e-02
1	 1.860428e+00	 6.926536e-01	-9.291096e-02
1	 1.852174e+00	 7.144316e-01	-8.589054e-02
1	 1.843643e+00	 7.361651e-01	-7.476392e-02
1	 1.834837e+00	 7.578491e-01	-6.161674e-02
1	 1.883108e+00	 6.514059e-01	-7.990129e-02
1	 1.875377e+00	 6.733393e-01	-8.594022e-02
1	 1.867370e+00	 6.952382e-01	-8.496469e-02
1	 1.859085e+00	 7.170974e-01	-7.856759e-02
1	 1.850523e+00	 7.389120e-01	-6.837522e-02
1	 1.841683e+00	 7.606769e-01	-5.604437e-02
1	 1.890108e+00	 6.538275e-01	-7.505539e-02
1	 1.882349e+00	 6.758424e-01	-8.033258e-02
1	 1.874311e+00	 6.978227e-01	-7.914594e-02
1	 1.865996e+00	 7.197632e-01	-7.279640e-02
1	 1.857402e+00	 7.416589e-01	-6.252737e-02
1	 1.848529e+00	 7.635047e-01	-4.952074e-02
1	 1.814297e+00	 7.493657e-01	-6.865640e-02
1	 1.805315e+00	 7.707529e-01	-4.778875e-02
1	 1.796060e+00	 7.920811e-01	-2.695214e-02
1	 1.786531e+00	 8.133452e-01	-7.257072e-03
1	 1.776729e+00	 8.345401e-01	 1.019982e-02
1	 1.766655e+00	 8.556608e-01	 2.433807e-02
1	 1.821144e+00	 7.521935e-01	-6.832572e-02
1	 1.812128e+00	 7.736614e-01	-4.978991e-02
1	 1.802837e+00	 7.950701e-01	-3.056245e-02
1	 1.793273e+00	 8.164145e-01	-1.179805e-02
1	 1.783434e+00	 8.376893e-01	 5.338668e-03
1	 1.773321e+00	 8.588897e-01	 1.967525e-02
1	 1.827990e+00	 7.550213e-01	-6.584384e-02
1	 1.818940e+00	 7.765699e-01	-4.954802e-02
1	 1.809615e+00	 7.980591e-01	-3.196094e-02
1	 1.800014e+00	 8.194837e-01	-1.426137e-02
1	 1.790138e+00	 8.408386e-01	 2.314386e-03
1	 1.779988e+00	 8.621186e-01	 1.647403e-02
1	 1.834837e+00	 7.578491e-01	-6.161674e-02
1	 1.825753e+00	 7.794784e-01	-4.700970e-02
1	 1.816393e+00	 8.010481e-01	-3.079205e-02
1	 1.806756e+00	 8.225529e-01	-1.414693e-02
1	 1.796843e+00	 8.439878e-01	 1.613839e-03
1	 1.786654e+00	 8.653475e-01	 1.505020e-02
1	 1.841683e+00	 7.606769e-01	-5.604437e-02
1	 1.832565e+00	 7.823869e-01	-4.212234e-02
1	 1.823170e+00	 8.040371e-01	-2.670551e-02
1	 1.813498e+00	 8.256221e-01	-1.096203e-02
1	 1.803548e+00	 8.471370e-01	 3.716656e-03
1	 1.793321e+00	 8.685764e-01	 1.571485e-02
1	 1.848529e+00	 7.635047e-01	-4.952074e-02
1	 1.839378e+00	 7.852954e-01	-3.483413e-02
1	 1.829948e+00	 8.070261e-01	-1.935626e-02
1	 1.820239e+00	 8.286914e-01	-4.221296e-03
1	 1.810252e+00	 8.502862e-01	 9.095363e-03
1	 1.799988e+00	 8.718053e-01	 1.877445e-02
1	 1.766655e+00	 8.556608e-01	 2.433807e-02
1	 1.756308e+00	 8.767020e-01	 3.032077e-02
1	 1.745690e+00	 8.976587e-01	 2.438522e-02
1	 1.734801e+00	 9.185258e-01	 7.174524e-03
1	 1.723642e+00	 9.392982e-01	-2.053636e-02
1	 1.712215e+00	 9.599707e-01	-5.784070e-02
1	 1.773321e+00	 8.588897e-01	 1.967525e-02
1	 1.762935e+00	 8.800103e-01	 2.659049e-02
1	 1.752277e+00	 9.010461e-01	 2.249926e-02
1	 1.741347e+00	 9.219919e-01	 7.875424e-03
1	 1.730147e+00	 9.428427e-01	-1.667759e-02
1	 1.718676e+00	 9.635932e-01	-5.042651e-02
1	 1.779988e+00	 8.621186e-01	 1.647403e-02
1	 1.769563e+00	 8.833186e-01	 2.388906e-02
1	 1.758865e+00	 9.044335e-01	 2.122541e-02
1	 1.747894e+00	 9.254581e-01	 8.742848e-03
1	 1.736651e+00	 9.463872e-01	-1.316262e-02
1	 1.725137e+00	 9.672158e-01	-4.395795e-02
1	 1.786654e+00	 8.653475e-01	 1.505020e-02
1	 1.776191e+00	 8.866269e-01	 2.231187e-02
1	 1.765452e+00	 9.078209e-01	 2.049815e-02
1	 1.754440e+00	 9.289242e-01	 9.610384e-03
1	 1.743155e+00	 9.499317e-01	-1.019829e-02
1	 1.731598e+00	 9.708383e-01	-3.862148e-02
1	 1.793321e+00	 8.685764e-01	 1.571485e-02
1	 1.782818e+00	 8.899352e-01	 2.195288e-02
1	 1.772040e+00	 9.112083e-01	 2.025292e-02
1	 1.760987e+00	 9.323904e-01	 1.031409e-02
1	 1.749659e+00	 9.534763e-01	-7.988378e-03
1	 1.738060e+00	 9.744608e-01	-3.460077e-02
1	 1.799988e+00	 8.718053e-01	 1.877445e-02
1	 1.789446e+00	 8.932435e-01	 2.290464e-02
1	 1.778627e+00	 9.145957e-01	 2.042613e-02
1	 1.767533e+00	 9.358565e-01	 1.069246e-02
1	 1.756164e+00	 9.570208e-01	-6.733634e-03
1	 1.744521e+00	 9.780834e-01	-3.207679e-02
1	 1.712215e+00	 9.599707e-01	-5.784070e-02
1	 1.700520e+00	 9.805383e-01	-1.050560e-01
1	 1.688559e+00	 1.000996e+00	-1.620994e-01
1	 1.676333e+00	 1.021338e+00	-2.272020e-01
1	 1.663844e+00	 1.041561e+00	-2.983781e-01
1	 1.651093e+00	 1.061658e+00	-3.734276e-01
1	 1.718676e+00	 9.635932e-01	-5.042651e-02
1	 1.706937e+00	 9.842384e-01	-9.353181e-02
1	 1.694931e+00	 1.004773e+00	-1.456006e-01
1	 1.682659e+00	 1.025192e+00	-2.047996e-01
1	 1.670122e+00	 1.045491e+00	-2.690657e-01
1	 1.657323e+00	 1.065664e+00	-3.361086e-01
1	 1.725137e+00	 9.672158e-01	-4.395795e-02
1	 1.713354e+00	 9.879386e-01	-8.362785e-02
1	 1.701303e+00	 1.008550e+00	-1.314025e-01
1	 1.688984e+00	 1.029046e+00	-1.853313e-01
1	 1.676401e+00	 1.049421e+00	-2.432217e-01
1	 1.663554e+00	 1.069670e+00	-3.026409e-01
1	 1.731598e+00	 9.708383e-01	-3.862148e-02
1	 1.719771e+00	 9.916387e-01	-7.548093e-02
1	 1.707675e+00	 1.012328e+00	-1.195949e-01
1	 1.695310e+00	 1.032901e+00	-1.688438e-01
1	 1.682679e+00	 1.053352e+00	-2.208533e-01
1	 1.669784e+00	 1.073676e+00	-2.729966e-01
1	 1.738060e+00	 9.744608e-01	-3.460077e-02
1	 1.726188e+00	 9.953388e-01	-6.922580e-02
1	 1.714047e+00	 1.016105e+00	-1.102665e-01
1	 1.701636e+00	 1.036755e+00	-1.553829e-01
1	 1.688958e+00	 1.057282e+00	-2.019677e-01
1	 1.676015e+00	 1.077683e+00	-2.471489e-01
1	 1.744521e+00	 9.780834e-01	-3.207679e-02
1	 1.732605e+00	 9.990390e-01	-6.499520e-02
1	 1.720418e+00	 1.019883e+00	-1.035047e-01
1	 1.707962e+00	 1.040609e+00	-1.449939e-01
1	 1.695237e+00	 1.061213e+00	-1.865718e-01
1	 1.682245e+00	 1.081689e+00	-2.250708e-01
1	 1.651093e+00	 1.061658e+00	-3.734276e-01
1	 1.638082e+00	 1.081624e+00	-4.447912e-01
1	 1.624813e+00	 1.101456e+00	-5.060126e-01
1	 1.611289e+00	 1.121148e+00	-5.564369e-01
1	 1.597510e+00	 1.140695e+00	-5.954793e-01
1	 1.583481e+00	 1.160092e+00	-6.226263e-01
1	 1.657323e+00	 1.065664e+00	-3.361086e-01
1	 1.644263e+00	 1.085706e+00	-3.992083e-01
1	 1.630945e+00	 1.105613e+00	-4.529673e-01
1	 1.617369e+00	 1.125379e+00	-4.969758e-01
1	 1.603539e+00	 1.144999e+00	-5.309121e-01
1	 1.589456e+00	 1.164469e+00	-5.545446e-01
1	 1.663554e+00	 1.069670e+00	-3.026409e-01
1	 1.650445e+00	 1.089788e+00	-3.577680e-01
1	 1.637076e+00	 1.109769e+00	-4.043793e-01
1	 1.623449e+00	 1.129609e+00	-4.423401e-01
1	 1.609567e+00	 1.149304e+00	-4.716247e-01
1	 1.595432e+00	 1.168847e+00	-4.923177e-01
1	 1.669784e+00	 1.073676e+00	-2.729966e-01
1	 1.656626e+00	 1.093869e+00	-3.204161e-01
1	 1.643207e+00	 1.113926e+00	-3.601786e-01
1	 1.629530e+00	 1.133840e+00	-3.924549e-01
1	 1.615595e+00	 1.153608e+00	-4.175476e-01
1	 1.601407e+00	 1.173225e+00	-4.358914e-01
1	 1.676015e+00	 1.077683e+00	-2.471489e-01
1	 1.662808e+00	 1.097951e+00	-2.870992e-01
1	 1.649339e+00	 1.118082e+00	-3.202963e-01
1	 1.635610e+00	 1.138071e+00	-3.472465e-01
1	 1.621624e+00	 1.157913e+00	-3.686123e-01
1	 1.607382e+00	 1.177602e+00	-3.852122e-01
1	 1.682245e+00	 1.081689e+00	-2.250708e-01
1	 1.668989e+00	 1.102033e+00	-2.577646e-01
1	 1.655470e+00	 1.122238e+00	-2.846646e-01
1	 1.641690e+00	 1.142302e+00	-3.066421e-01
1	 1.627652e+00	 1.162217e+00	-3.247512e-01
1	 1.613358e+00	 1.181980e+00	-3.402277e-01
1	 1.583481e+00	 1.160092e+00	-6.226263e-01
1	 1.569202e+00	 1.179334e+00	-6.409374e-01
1	 1.554677e+00	 1.198417e+00	-6.534104e-01
1	 1.539908e+00	 1.217336e+00	-6.595186e-01
1	 1.524899e+00	 1.236086e+00	-6.587688e-01
1	 1.509651e+00	 1.254663e+00	-6.507026e-01
1	 1.589456e+00	 1.164469e+00	-5.545446e-01
1	 1.575124e+00	 1.183784e+00	-5.708434e-01
1	 1.560544e+00	 1.202939e+00	-5.820828e-01
1	 1.545719e+00	 1.221929e+00	-5.870361e-01
1	 1.530653e+00	 1.240750e+00	-5.844535e-01
1	 1.515348e+00	 1.259397e+00	-5.730639e-01
1	 1.595432e+00	 1.168847e+00	-4.923177e-01
1	 1.581045e+00	 1.188234e+00	-5.071018e-01
1	 1.566411e+00	 1.207461e+00	-5.173304e-01
1	 1.551530e+00	 1.226523e+00	-5.211139e-01
1	 1.536407e+00	 1.245415e+00	-5.164830e-01
1	 1.521044e+00	 1.264132e+00	-5.013914e-01
1	 1.601407e+00	 1.173225e+00	-4.358914e-01
1	 1.586967e+00	 1.192685e+00	-4.496804e-01
1	 1.572277e+00	 1.211984e+00	-4.591464e-01
1	 1.557341e+00	 1.231117e+00	-4.617736e-01
1	 1.542162e+00	 1.250079e+00	-4.549097e-01
1	 1.526741e+00	 1.268866e+00	-4.357707e-01
1	 1.607382e+00	 1.177602e+00	-3.852122e-01
1	 1.592888e+00	 1.197135e+00	-3.985475e-01
1	 1.578144e+00	 1.216506e+00	-4.075241e-01
1	 1.563152e+00	 1.235710e+00	-4.090362e-01
1	 1.547916e+00	 1.254744e+00	-3.997851e-01
1	 1.532438e+00	 1.273601e+00	-3.762856e-01
1	 1.613358e+00	 1.181980e+00	-3.402277e-01
1	 1.598810e+00	 1.201585e+00	-3.536719e-01
1	 1.584011e+00	 1.221028e+00	-3.624569e-01
1	 1.568963e+00	 1.240304e+00	-3.629226e-01
1	 1.553670e+00	 1.259408e+00	-3.511601e-01
1	 1.538135e+00	 1.278335e+00	-3.230192e-01
1	 1.509651e+00	 1.254663e+00	-6.507026e-01
1	 1.494168e+00	 1.273062e+00	-6.259291e-01
1	 1.478453e+00	 1.291279e+00	-5.799336e-01
1	 1.462509e+00	 1.309309e+00	-5.199769e-01
1	 1.446340e+00	 1.327149e+00	-4.538138e-01
1	 1.429949e+00	 1.344793e+00	-3.896778e-01
1	 1.515348e+00	 1.259397e+00	-5.730639e-01
1	 1.499806e+00	 1.277866e+00	-5.443315e-01
1	 1.484032e+00	 1.296151e+00	-4.952052e-01
1	 1.468028e+00	 1.314250e+00	-4.330255e-01
1	 1.451798e+00	 1.332157e+00	-3.656541e-01
1	 1.435345e+00	 1.349868e+00	-3.014583e-01
1	 1.521044e+00	 1.264132e+00	-5.013914e-01
1	 1.505445e+00	 1.282670e+00	-4.684175e-01
1	 1.489611e+00	 1.301024e+00	-4.161518e-01
1	 1.473547e+00	 1.319191e+00	-3.519294e-01
1	 1.457256e+00	 1.337165e+00	-2.836317e-01
1	 1.440741e+00	 1.354943e+00	-2.196701e-01
1	 1.526741e+00	 1.268866e+00	-4.357707e-01
1	 1.511083e+00	 1.287474e+00	-3.982984e-01
1	 1.495190e+00	 1.305897e+00	-3.428952e-01
1	 1.479066e+00	 1.324131e+00	-2.768069e-01
1	 1.462714e+00	 1.342173e+00	-2.078476e-01
1	 1.446137e+00	 1.360017e+00	-1.443847e-01
1	 1.532438e+00	 1.273601e+00	-3.762856e-01
1	 1.516721e+00	 1.292278e+00	-3.340838e-01
1	 1.500769e+00	 1.310770e+00	-2.755557e-01
1	 1.484585e+00	 1.329072e+00	-2.077742e-01
1	 1.468172e+00	 1.347181e+00	-1.384014e-01
1	 1.451533e+00	 1.365092e+00	-7.567248e-02
1	 1.538135e+00	 1.278335e+00	-3.230192e-01
1	 1.522360e+00	 1.297082e+00	-2.758819e-01
1	 1.506348e+00	 1.315642e+00	-2.142515e-01
1	 1.490104e+00	 1.334013e+00	-1.449463e-01
1	 1.473630e+00	 1.352189e+00	-7.539119e-02
1	 1.456929e+00	 1.370167e+00	-1.360285e-02
1	 1.429949e+00	 1.344793e+00	-3.896778e-01
1	 1.413340e+00	 1.362239e+00	-3.420884e-01
1	 1.396516e+00	 1.379481e+00	-3.197420e-01
1	 1.379481e+00	 1.396516e+00	-3.224463e-01
1	 1.362239e+00	 1.413340e+00	-3.499559e-01
1	 1.344793e+00	 1.429949e+00	-4.019735e-01
1	 1.435345e+00	 1.349868e+00	-3.014583e-01
1	 1.418673e+00	 1.367379e+00	-2.536783e-01
1	 1.401786e+00	 1.384686e+00	-2.300611e-01
1	 1.384686e+00	 1.401786e+00	-2.310830e-01
1	 1.367379e+00	 1.418673e+00	-2.571940e-01
1	 1.349868e+00	 1.435345e+00	-3.088174e-01
1	 1.440741e+00	 1.354943e+00	-2.196701e-01
1	 1.424007e+00	 1.372520e+00	-1.719499e-01
1	 1.407056e+00	 1.389892e+00	-1.472999e-01
1	 1.389892e+00	 1.407056e+00	-1.469059e-01
1	 1.372520e+00	 1.424007e+00	-1.719547e-01
1	 1.354943e+00	 1.440741e+00	-2.236324e-01
1	 1.446137e+00	 1.360017e+00	-1.443847e-01
1	 1.429340e+00	 1.377660e+00	-9.694232e-02
1	 1.412325e+00	 1.395098e+00	-7.147109e-02
1	 1.395098e+00	 1.412325e+00	-6.990634e-02
1	 1.377660e+00	 1.429340e+00	-9.421295e-02
1	 1.360017e+00	 1.446137e+00	-1.463818e-01
1	 1.451533e+00	 1.365092e+00	-7.567248e-02
1	 1.434673e+00	 1.382801e+00	-2.869398e-02
1	 1.417595e+00	 1.400303e+00	-2.586996e-03
1	 1.400303e+00	 1.417595e+00	-7.600366e-05
1	 1.382801e+00	 1.434673e+00	-2.394452e-02
1	 1.365092e+00	 1.451533e+00	-7.702982e-02
1	 1.456929e+00	 1.370167e+00	-1.360285e-02
1	 1.440007e+00	 1.387941e+00	 3.275717e-02
1	 1.422865e+00	 1.405509e+00	 5.934019e-02
1	 1.405509e+00	 1.422865e+00	 6.259347e-02
1	 1.387941e+00	 1.440007e+00	 3.887468e-02
1	 1.370167e+00	 1.456929e+00	-1.554082e-02
1	 1.344793e+00	 1.429949e+00	-4.019735e-01
1	 1.327149e+00	 1.446340e+00	-4.859484e-01
1	 1.309309e+00	 1.462509e+00	-6.053028e-01
1	 1.291279e+00	 1.478453e+00	-7.533285e-01
1	 1.273062e+00	 1.494168e+00	-9.228863e-01
1	 1.254663e+00	 1.509651e+00	-1.106423e+00
1	 1.349868e+00	 1.435345e+00	-3.088174e-01
1	 1.332157e+00	 1.451798e+00	-3.925592e-01
1	 1.314250e+00	 1.468028e+00	-5.101563e-01
1	 1.296151e+00	 1.484032e+00	-6.543461e-01
1	 1.277866e+00	 1.499806e+00	-8.173971e-01
1	 1.259397e+00	 1.515348e+00	-9.911274e-01
1	 1.354943e+00	 1.440741e+00	-2.236324e-01
1	 1.337165e+00	 1.457256e+00	-3.075513e-01
1	 1.319191e+00	 1.473547e+00	-4.236191e-01
1	 1.301024e+00	 1.489611e+00	-5.640738e-01
1	 1.282670e+00	 1.505445e+00	-7.206492e-01
1	 1.264132e+00	 1.521044e+00	-8.845947e-01
1	 1.360017e+00	 1.446137e+00	-1.463818e-01
1	 1.342173e+00	 1.462714e+00	-2.308879e-01
1	 1.324131e+00	 1.479066e+00	-3.456725e-01
1	 1.305897e+00	 1.495190e+00	-4.825290e-01
1	 1.287474e+00	 1.511083e+00	-6.327134e-01
1	 1.268866e+00	 1.526741e+00	-7.869662e-01
1	 1.365092e+00	 1.451533e+00	-7.702982e-02
1	 1.347181e+00	 1.468172e+00	-1.625328e-01
1	 1.329072e+00	 1.484585e+00	-2.762984e-01
1	 1.310770e+00	 1.500769e+00	-4.097290e-01
1	 1.292278e+00	 1.516721e+00	-5.536598e-01
1	 1.273601e+00	 1.532438e+00	-6.983808e-01
1	 1.370167e+00	 1.456929e+00	-1.554082e-02
1	 1.352189e+00	 1.473630e+00	-1.024501e-01
1	 1.334013e+00	 1.490104e+00	-2.154786e-01
1	 1.315642e+00	 1.506348e+00	-3.456910e-01
1	 1.297082e+00	 1.522360e+00	-4.835572e-01
1	 1.278335e+00	 1.538135e+00	-6.189753e-01
1	 1.254663e+00	 1.509651e+00	-1.106423e+00
1	 1.236086e+00	 1.524899e+00	-1.288735e+00
1	 1.217336e+00	 1.539908e+00	-1.458965e+00
1	 1.198417e+00	 1.554677e+00	-1.615784e+00
1	 1.179334e+00	 1.569202e+00	-1.757858e+00
1	 1.160092e+00	 1.583481e+00	-1.883856e+00
1	 1.259397e+00	 1.515348e+00	-9.911274e-01
1	 1.240750e+00	 1.530653e+00	-1.161164e+00
1	 1.221929e+00	 1.545719e+00	-1.318260e+00
1	 1.202939e+00	 1.560544e+00	-1.461621e+00
1	 1.183784e+00	 1.575124e+00	-1.590486e+00
1	 1.164469e+00	 1.589456e+00	-1.704128e+00
1	 1.264132e+00	 1.521044e+00	-8.845947e-01
1	 1.245415e+00	 1.536407e+00	-1.042620e+00
1	 1.226523e+00	 1.551530e+00	-1.187208e+00
1	 1.207461e+00	 1.566411e+00	-1.317966e+00
1	 1.188234e+00	 1.581045e+00	-1.434562e+00
1	 1.168847e+00	 1.595432e+00	-1.536732e+00
1	 1.268866e+00	 1.526741e+00	-7.869662e-01
1	 1.250079e+00	 1.542162e+00	-9.333006e-01
1	 1.231117e+00	 1.557341e+00	-1.066024e+00
1	 1.211984e+00	 1.572277e+00	-1.185010e+00
1	 1.192685e+00	 1.586967e+00	-1.290221e+00
1	 1.173225e+00	 1.601407e+00	-1.381706e+00
1	 1.273601e+00	 1.532438e+00	-6.983808e-01
1	 1.254744e+00	 1.547916e+00	-8.334013e-01
1	 1.235710e+00	 1.563152e+00	-9.549194e-01
1	 1.216506e+00	 1.578144e+00	-1.062945e+00
1	 1.197135e+00	 1.592888e+00	-1.157594e+00
1	 1.177602e+00	 1.607382e+00	-1.239091e+00
1	 1.278335e+00	 1.538135e+00	-6.189753e-01
1	 1.259408e+00	 1.553670e+00	-7.431146e-01
1	 1.240304e+00	 1.568963e+00	-8.541038e-01
1	 1.221028e+00	 1.584011e+00	-9.519581e-01
1	 1.201585e+00	 1.598810e+00	-1.036813e+00
1	 1.181980e+00	 1.613358e+00	-1.108925e+00
1	 1.160092e+00	 1.583481e+00	-1.883856e+00
1	 1.140695e+00	 1.597510e+00	-1.995368e+00
1	 1.121148e+00	 1.611289e+00	-2.091919e+00
1	 1.101456e+00	 1.624813e+00	-2.168989e+00
1	 1.081624e+00	 1.638082e+00	-2.221943e+00
1	 1.061658e+00	 1.651093e+00	-2.246048e+00
1	 1.164469e+00	 1.589456e+00	-1.704128e+00
1	 1.144999e+00	 1.603539e+00	-1.804136e+00
1	 1.125379e+00	 1.617369e+00	-1.889631e+00
1	 1.105613e+00	 1.630945e+00	-1.956115e+00
1	 1.085706e+00	 1.644263e+00	-1.998968e+00
1	 1.065664e+00	 1.657323e+00	-2.013456e+00
1	 1.168847e+00	 1.595432e+00	-1.536732e+00
1	 1.149304e+00	 1.609567e+00	-1.625845e+00
1	 1.129609e+00	 1.623449e+00	-1.700620e+00
1	 1.109769e+00	 1.637076e+00	-1.756761e+00
1	 1.089788e+00	 1.650445e+00	-1.789845e+00
1	 1.069670e+00	 1.663554e+00	-1.795333e+00
1	 1.173225e+00	 1.601407e+00	-1.381706e+00
1	 1.153608e+00	 1.615595e+00	-1.460450e+00
1	 1.133840e+00	 1.629530e+00	-1.524810e+00
1	 1.113926e+00	 1.643207e+00	-1.570867e+00
1	 1.093869e+00	 1.656626e+00	-1.594580e+00
1	 1.073676e+00	 1.669784e+00	-1.591795e+00
1	 1.177602e+00	 1.607382e+00	-1.239091e+00
1	 1.157913e+00	 1.621624e+00	-1.307906e+00
1	 1.138071e+00	 1.635610e+00	-1.362122e+00
1	 1.118082e+00	 1.649339e+00	-1.398373e+00
1	 1.097951e+00	 1.662808e+00	-1.413179e+00
1	 1.077683e+00	 1.676015e+00	-1.402959e+00
1	 1.181980e+00	 1.613358e+00	-1.108925e+00
1	 1.162217e+00	 1.627652e+00	-1.168170e+00
1	 1.142302e+00	 1.641690e+00	-1.212482e+00
1	 1.122238e+00	 1.655470e+00	-1.239220e+00
1	 1.102033e+00	 1.668989e+00	-1.245647e+00
1	 1.081689e+00	 1.682245e+00	-1.228939e+00
1	 1.061658e+00	 1.651093e+00	-2.246048e+00
1	 1.041561e+00	 1.663844e+00	-2.233316e+00
1	 1.021338e+00	 1.676333e+00	-2.182032e+00
1	 1.000996e+00	 1.688559e+00	-2.096943e+00
1	 9.805383e-01	 1.700520e+00	-1.982977e+00
1	 9.599707e-01	 1.712215e+00	-1.845230e+00
1	 1.065664e+00	 1.657323e+00	-2.013456e+00
1	 1.045491e+00	 1.670122e+00	-1.992656e+00
1	 1.025192e+00	 1.682659e+00	-1.935873e+00
1	 1.004773e+00	 1.694931e+00	-1.847788e+00
1	 9.842384e-01	 1.706937e+00	-1.733260e+00
1	 9.635932e-01	 1.718676e+00	-1.597320e+00
1	 1.069670e+00	 1.663554e+00	-1.795333e+00
1	 1.049421e+00	 1.676401e+00	-1.767481e+00
1	 1.029046e+00	 1.688984e+00	-1.706430e+00
1	 1.008550e+00	 1.701303e+00	-1.616523e+00
1	 9.879386e-01	 1.713354e+00	-1.502274e+00
1	 9.672158e-01	 1.725137e+00	-1.368354e+00
1	 1.073676e+00	 1.669784e+00	-1.591795e+00
1	 1.053352e+00	 1.682679e+00	-1.558001e+00
1	 1.032901e+00	 1.695310e+00	-1.493926e+00
1	 1.012328e+00	 1.707675e+00	-1.403310e+00
1	 9.916387e-01	 1.719771e+00	-1.290040e+00
1	 9.708383e-01	 1.731598e+00	-1.158143e+00
1	 1.077683e+00	 1.676015e+00	-1.402959e+00
1	 1.057282e+00	 1.688958e+00	-1.364426e+00
1	 1.036755e+00	 1.701636e+00	-1.298584e+00
1	 1.016105e+00	 1.714047e+00	-1.208305e+00
1	 9.953388e-01	 1.726188e+00	-1.096579e+00
1	 9.744608e-01	 1.738060e+00	-9.665039e-01
1	 1.081689e+00	 1.682245e+00	-1.228939e+00
1	 1.061213e+00	 1.695237e+00	-1.186959e+00
1	 1.040609e+00	 1.707962e+00	-1.120619e+00
1	 1.019883e+00	 1.720418e+00	-1.031665e+00
1	 9.990390e-01	 1.732605e+00	-9.219143e-01
1	 9.780834e-01	 1.744521e+00	-7.932562e-01
1	 9.599707e-01	 1.712215e+00	-1.845230e+00
1	 9.392982e-01	 1.723642e+00	-1.688031e+00
1	 9.185258e-01	 1.734801e+00	-1.513944e+00
1	 8.976587e-01	 1.745690e+00	-1.325581e+00
1	 8.767020e-01	 1.756308e+00	-1.125613e+00
1	 8.556608e-01	 1.766655e+00	-9.167678e-01
1	 9.635932e-01	 1.718676e+00	-1.597320e+00
1	 9.428427e-01	 1.730147e+00	-1.444007e+00
1	 9.219919e-01	 1.741347e+00	-1.275845e+00
1	 9.010461e-01	 1.752277e+00	-1.095765e+00
1	 8.800103e-01	 1.762935e+00	-9.067585e-01
1	 8.588897e-01	 1.773321e+00	-7.118785e-01
1	 9.672158e-01	 1.725137e+00	-1.368354e+00
1	 9.463872e-01	 1.736651e+00	-1.218422e+00
1	 9.254581e-01	 1.747894e+00	-1.055387e+00
1	 9.044335e-01	 1.758865e+00	-8.829684e-01
1	 8.833186e-01	 1.769563e+00	-7.049760e-01
1	 8.621186e-01	 1.779988e+00	-5.252957e-01
1	 9.708383e-01	 1.731598e+00	-1.158143e+00
1	 9.499317e-01	 1.743155e+00	-1.010918e+00
1	 9.289242e-01	 1.754440e+00	-8.521710e-01
1	 9.078209e-01	 1.765452e+00	-6.868878e-01
1	 8.866269e-01	 1.776191e+00	-5.201794e-01
1	 8.653475e-01	 1.786654e+00	-3.572690e-01
1	 9.744608e-01	 1.738060e+00	-9.665039e-01
1	 9.534763e-01	 1.749659e+00	-8.211387e-01
1	 9.323904e-01	 1.760987e+00	-6.658068e-01
1	 9.112083e-01	 1.772040e+00	-5.072234e-01
1	 8.899352e-01	 1.782818e+00	-3.522833e-01
1	 8.685764e-01	 1.793321e+00	-2.080444e-01
1	 9.780834e-01	 1.744521e+00	-7.932562e-01
1	 9.570208e-01	 1.756164e+00	-6.487360e-01
1	 9.358565e-01	 1.767533e+00	-4.959092e-01
1	 9.145957e-01	 1.778627e+00	-3.436799e-01
1	 8.932435e-01	 1.789446e+00	-2.012037e-01
1	 8.718053e-01	 1.799988e+00	-7.786385e-02
1	 8.556608e-01	 1.766655e+00	-9.167678e-01
1	 8.345401e-01	 1.776729e+00	-7.049565e-01
1	 8.133452e-01	 1.786531e+00	-4.976623e-01
1	 7.920811e-01	 1.796060e+00	-3.000409e-01
1	 7.707529e-01	 1.805315e+00	-1.172912e-01
1	 7.493657e-01	 1.814297e+00	 4.535595e-02
1	 8.588897e-01	 1.773321e+00	-7.118785e-01
1	 8.376893e-01	 1.783434e+00	-5.173594e-01
1	 8.164145e-01	 1.793273e+00	-3.304535e-01
1	 7.950701e-01	 1.802837e+00	-1.558042e-01
1	 7.736614e-01	 1.812128e+00	 1.917397e-03
1	 7.521935e-01	 1.821144e+00	 1.380228e-01
1	 8.621186e-01	 1.779988e+00	-5.252957e-01
1	 8.408386e-01	 1.790138e+00	-3.506027e-01
1	 8.194837e-01	 1.800014e+00	-1.871244e-01
1	 7.980591e-01	 1.809615e+00	-3.812402e-02
1	 7.765699e-01	 1.818940e+00	 9.314609e-02
1	 7.550213e-01	 1.827990e+00	 2.034511e-01
1	 8.653475e-01	 1.786654e+00	-3.572690e-01
1	 8.439878e-01	 1.796843e+00	-2.052216e-01
1	 8.225529e-01	 1.806756e+00	-6.828691e-02
1	 8.010481e-01	 1.816393e+00	 5.251023e-02
1	 7.794784e-01	 1.825753e+00	 1.562166e-01
1	 7.578491e-01	 1.834837e+00	 2.419514e-01
1	 8.685764e-01	 1.793321e+00	-2.080444e-01
1	 8.471370e-01	 1.803548e+00	-8.174340e-02
1	 8.256221e-01	 1.813498e+00	 2.545645e-02
1	 8.040371e-01	 1.823170e+00	 1.156166e-01
1	 7.823869e-01	 1.832565e+00	 1.909533e-01
1	 7.606769e-01	 1.841683e+00	 2.538301e-01
1	 8.718053e-01	 1.799988e+00	-7.786385e-02
1	 8.502862e-01	 1.810252e+00	 1.931252e-02
1	 8.286914e-01	 1.820239e+00	 9.351200e-02
1	 8.070261e-01	 1.829948e+00	 1.507202e-01
1	 7.852954e-01	 1.839378e+00	 1.971831e-01
1	 7.635047e-01	 1.848529e+00	 2.393888e-01
1	 7.493657e-01	 1.814297e+00	 4.535595e-02
1	 7.279244e-01	 1.823006e+00	 1.852708e-01
1	 7.064342e-01	 1.831440e+00	 2.972154e-01
1	 6.849000e-01	 1.839602e+00	 3.719968e-01
1	 6.633268e-01	 1.847490e+00	 4.003929e-01
1	 6.417196e-01	 1.855106e+00	 3.731727e-01
1	 7.521935e-01	 1.821144e+00	 1.380228e-01
1	 7.306713e-01	 1.829885e+00	 2.505221e-01
1	 7.091000e-01	 1.838352e+00	 3.361478e-01
1	 6.874846e-01	 1.846544e+00	 3.882687e-01
1	 6.658300e-01	 1.854462e+00	 4.002380e-01
1	 6.441411e-01	 1.862107e+00	 3.654077e-01
1	 7.550213e-01	 1.827990e+00	 2.034511e-01
1	 7.334182e-01	 1.836764e+00	 2.920370e-01
1	 7.117658e-01	 1.845263e+00	 3.568679e-01
1	 6.900691e-01	 1.853486e+00	 3.927777e-01
1	 6.683331e-01	 1.861434e+00	 3.945759e-01
1	 6.465627e-01	 1.869107e+00	 3.570594e-01
1	 7.578491e-01	 1.834837e+00	 2.419514e-01
1	 7.361651e-01	 1.843643e+00	 3.105792e-01
1	 7.144316e-01	 1.852174e+00	 3.603571e-01
1	 6.926536e-01	 1.860428e+00	 3.865001e-01
1	 6.708362e-01	 1.868405e+00	 3.841688e-01
1	 6.489843e-01	 1.876108e+00	 3.484799e-01
1	 7.606769e-01	 1.841683e+00	 2.538301e-01
1	 7.389120e-01	 1.850523e+00	 3.069008e-01
1	 7.170974e-01	 1.859085e+00	 3.475817e-01
1	 6.952382e-01	 1.867370e+00	 3.703978e-01
1	 6.733393e-01	 1.875377e+00	 3.697676e-01
1	 6.514059e-01	 1.883108e+00	 3.400161e-01
1	 7.635047e-01	 1.848529e+00	 2.393888e-01
1	 7.416589e-01	 1.857402e+00	 2.817430e-01
1	 7.197632e-01	 1.865996e+00	 3.194940e-01
1	 6.978227e-01	 1.874311e+00	 3.454184e-01
1	 6.758424e-01	 1.882349e+00	 3.521121e-01
1	 6.538275e-01	 1.890108e+00	 3.320098e-01
1	 6.417196e-01	 1.855106e+00	 3.731727e-01
1	 6.200831e-01	 1.862450e+00	 2.813590e-01
1	 5.984223e-01	 1.869522e+00	 1.254990e-01
1	 5.767420e-01	 1.876324e+00	-8.929429e-02
1	 5.550469e-01	 1.882856e+00	-3.578476e-01
1	 5.333417e-01	 1.889119e+00	-6.749392e-01
1	 6.441411e-01	 1.862107e+00	 3.654077e-01
1	 6.224230e-01	 1.869478e+00	 2.770943e-01
1	 6.006805e-01	 1.876577e+00	 1.348173e-01
1	 5.789183e-01	 1.883405e+00	-5.873419e-02
1	 5.571414e-01	 1.889961e+00	-3.008409e-01
1	 5.353543e-01	 1.896248e+00	-5.887598e-01
1	 6.465627e-01	 1.869107e+00	 3.570594e-01
1	 6.247630e-01	 1.876506e+00	 2.747539e-01
1	 6.029387e-01	 1.883632e+00	 1.462562e-01
1	 5.810947e-01	 1.890485e+00	-2.752203e-02
1	 5.592359e-01	 1.897066e+00	-2.456546e-01
1	 5.373670e-01	 1.903376e+00	-5.072033e-01
1	 6.489843e-01	 1.876108e+00	 3.484799e-01
1	 6.271029e-01	 1.883534e+00	 2.742685e-01
1	 6.051969e-01	 1.890687e+00	 1.594844e-01
1	 5.832711e-01	 1.897566e+00	 3.900813e-03
1	 5.613304e-01	 1.904171e+00	-1.926961e-01
1	 5.393796e-01	 1.910505e+00	-4.305069e-01
1	 6.514059e-01	 1.883108e+00	 3.400161e-01
1	 6.294428e-01	 1.890563e+00	 2.755696e-01
1	 6.074551e-01	 1.897742e+00	 1.741756e-01
1	 5.854475e-01	 1.904646e+00	 3.509957e-02
1	 5.634249e-01	 1.911276e+00	-1.423668e-01
1	 5.413922e-01	 1.917634e+00	-3.589045e-01
1	 6.538275e-01	 1.890108e+00	 3.320098e-01
1	 6.317828e-01	 1.897591e+00	 2.785899e-01
1	 6.097133e-01	 1.904797e+00	 1.900082e-01
1	 5.876239e-01	 1.911726e+00	 6.564588e-02
1	 5.655194e-01	 1.918382e+00	-9.506200e-02
1	 5.434048e-01	 1.924763e+00	-2.926263e-01
1	 5.333417e-01	 1.889119e+00	-6.749392e-01
1	 5.116312e-01	 1.895114e+00	-1.037068e+00
1	 4.899200e-01	 1.900842e+00	-1.447952e+00
1	 4.682125e-01	 1.906305e+00	-1.913109e+00
1	 4.465133e-01	 1.911504e+00	-2.437969e+00
1	 4.248269e-01	 1.916441e+00	-3.027864e+00
1	 5.353543e-01	 1.896248e+00	-5.887598e-01
1	 5.135619e-01	 1.902265e+00	-9.210440e-01
1	 4.917687e-01	 1.908015e+00	-1.300996e+00
1	 4.699794e-01	 1.913499e+00	-1.732917e+00
1	 4.481983e-01	 1.918718e+00	-2.221012e+00
1	 4.264300e-01	 1.923673e+00	-2.769384e+00
1	 5.373670e-01	 1.903376e+00	-5.072033e-01
1	 5.154926e-01	 1.909417e+00	-8.120446e-01
1	 4.936175e-01	 1.915188e+00	-1.162913e+00
1	 4.717462e-01	 1.920693e+00	-1.563085e+00
1	 4.498833e-01	 1.925931e+00	-2.015744e+00
1	 4.280332e-01	 1.930905e+00	-2.523979e+00
1	 5.393796e-01	 1.910505e+00	-4.305069e-01
1	 5.174233e-01	 1.916568e+00	-7.101166e-01
1	 4.954662e-01	 1.922361e+00	-1.033649e+00
1	 4.735130e-01	 1.927886e+00	-1.403547e+00
1	 4.515682e-01	 1.933144e+00	-1.822173e+00
1	 4.296363e-01	 1.938136e+00	-2.291811e+00
1	 5.413922e-01	 1.917634e+00	-3.589045e-01
1	 5.193540e-01	 1.923719e+00	-6.153070e-01
1	 4.973150e-01	 1.929534e+00	-9.131523e-01
1	 4.752799e-01	 1.935080e+00	-1.254237e+00
1	 4.532532e-01	 1.940357e+00	-1.640304e+00
1	 4.312394e-01	 1.945368e+00	-2.073037e+00
1	 5.434048e-01	 1.924763e+00	-2.926263e-01
1	 5.212847e-01	 1.930871e+00	-5.276616e-01
1	 4.991637e-01	 1.936707e+00	-8.013714e-01
1	 4.770467e-01	 1.942274e+00	-1.115094e+00
1	 4.549381e-01	 1.947571e+00	-1.470144e+00
1	 4.328425e-01	 1.952600e+00	-1.867811e+00
1	 4.248269e-01	 1.916441e+00	-3.027864e+00
1	 4.031576e-01	 1.921116e+00	-3.686852e+00
1	 3.815097e-01	 1.925532e+00	-4.405277e+00
1	 3.598875e-01	 1.929690e+00	-5.167845e+00
1	 3.382951e-01	 1.933593e+00	-5.959326e+00
1	 3.167367e-01	 1.937241e+00	-6.764577e+00
1	 4.264300e-01	 1.923673e+00	-2.769384e+00
1	 4.046790e-01	 1.928366e+00	-3.380809e+00
1	 3.829494e-01	 1.932798e+00	-4.046015e+00
1	 3.612456e-01	 1.936972e+00	-4.750987e+00
1	 3.395717e-01	 1.940889e+00	-5.481769e+00
1	 3.179320e-01	 1.944551e+00	-6.224492e+00
1	 4.280332e-01	 1.930905e+00	-2.523979e+00
1	 4.062003e-01	 1.935615e+00	-3.089537e+00
1	 3.843890e-01	 1.940064e+00	-3.703555e+00
1	 3.626036e-01	 1.944254e+00	-4.353160e+00
1	 3.408483e-01	 1.948186e+00	-5.025531e+00
1	 3.191272e-01	 1.951861e+00	-5.707924e+00
1	 4.296363e-01	 1.938136e+00	-2.291811e+00
1	 4.077217e-01	 1.942865e+00	-2.813350e+00
1	 3.858287e-01	 1.947331e+00	-3.378281e+00
1	 3.639617e-01	 1.951536e+00	-3.974742e+00
1	 3.421249e-01	 1.955482e+00	-4.590909e+00
1	 3.203224e-01	 1.959172e+00	-5.215013e+00
1	 4.312394e-01	 1.945368e+00	-2.073037e+00
1	 4.092430e-01	 1.950114e+00	-2.552556e+00
1	 3.872684e-01	 1.954597e+00	-3.070573e+00
1	 3.653198e-01	 1.958818e+00	-3.616109e+00
1	 3.434015e-01	 1.962779e+00	-4.178195e+00
1	 3.215177e-01	 1.966482e+00	-4.745892e+00
1	 4.328425e-01	 1.952600e+00	-1.867811e+00
1	 4.107643e-01	 1.957364e+00	-2.307458e+00
1	 3.887080e-01	 1.961863e+00	-2.780805e+00
1	 3.666778e-01	 1.966100e+00	-3.277627e+00
1	 3.446781e-01	 1.970075e+00	-3.787676e+00
1	 3.227129e-01	 1.973792e+00	-4.300697e+00
1	 3.167367e-01	 1.937241e+00	-6.764577e+00
1	 2.952163e-01	 1.940637e+00	-7.568544e+00
1	 2.737379e-01	 1.943783e+00	-8.358027e+00
1	 2.523052e-01	 1.946681e+00	-9.120854e+00
1	 2.309223e-01	 1.949333e+00	-9.844998e+00
1	 2.095928e-01	 1.951741e+00	-1.051860e+01
1	 3.179320e-01	 1.944551e+00	-6.224492e+00
1	 2.963303e-01	 1.947960e+00	-6.965268e+00
1	 2.747708e-01	 1.951118e+00	-7.691786e+00
1	 2.532573e-01	 1.954027e+00	-8.392708e+00
1	 2.317937e-01	 1.956689e+00	-9.056832e+00
1	 2.103837e-01	 1.959106e+00	-9.673101e+00
1	 3.191272e-01	 1.951861e+00	-5.707924e+00
1	 2.974444e-01	 1.955283e+00	-6.387484e+00
1	 2.758038e-01	 1.958453e+00	-7.052808e+00
1	 2.542094e-01	 1.961373e+00	-7.693486e+00
1	 2.326651e-01	 1.964045e+00	-8.299234e+00
1	 2.111746e-01	 1.966472e+00	-8.859902e+00
1	 3.203224e-01	 1.959172e+00	-5.215013e+00
1	 2.985584e-01	 1.962606e+00	-5.835177e+00
1	 2.768368e-01	 1.965788e+00	-6.441014e+00
1	 2.551615e-01	 1.968719e+00	-7.023129e+00
1	 2.335365e-01	 1.971401e+00	-7.572247e+00
1	 2.119655e-01	 1.973837e+00	-8.079237e+00
1	 3.215177e-01	 1.966482e+00	-4.745892e+00
1	 2.996724e-01	 1.969929e+00	-5.308334e+00
1	 2.778697e-01	 1.973123e+00	-5.856328e+00
1	 2.561136e-01	 1.976065e+00	-6.381576e+00
1	 2.344079e-01	 1.978757e+00	-6.875917e+00
1	 2.127564e-01	 1.981202e+00	-7.331333e+00
1	 3.227129e-01	 1.973792e+00	-4.300697e+00
1	 3.007864e-01	 1.977253e+00	-4.806941e+00
1	 2.789027e-01	 1.980458e+00	-5.298671e+00
1	 2.570657e-01	 1.983411e+00	-5.768772e+00
1	 2.352793e-01	 1.986113e+00	-6.210285e+00
1	 2.135473e-01	 1.988567e+00	-6.616415e+00
1	 2.095928e-01	 1.951741e+00	-1.051860e+01
1	 1.883203e-01	 1.953909e+00	-1.113105e+01
1	 1.671084e-01	 1.955837e+00	-1.167870e+01
1	 1.459607e-01	 1.957529e+00	-1.216047e+01
1	 1.248806e-01	 1.958987e+00	-1.257537e+01
1	 1.038714e-01	 1.960213e+00	-1.292261e+01
1	 2.103837e-01	 1.959106e+00	-9.673101e+00
1	 1.890309e-01	 1.961282e+00	-1.023208e+01
1	 1.677390e-01	 1.963218e+00	-1.073115e+01
1	 1.465115e-01	 1.964916e+00	-1.116976e+01
1	 1.253519e-01	 1.966379e+00	-1.154744e+01
1	 1.042634e-01	 1.967610e+00	-1.186391e+01
1	 2.111746e-01	 1.966472e+00	-8.859902e+00
1	 1.897416e-01	 1.968655e+00	-9.367259e+00
1	 1.683696e-01	 1.970598e+00	-9.819503e+00
1	 1.470623e-01	 1.972303e+00	-1.021633e+01
1	 1.258231e-01	 1.973771e+00	-1.055754e+01
1	 1.046553e-01	 1.975007e+00	-1.084306e+01
1	 2.119655e-01	 1.973837e+00	-8.079237e+00
1	 1.904522e-01	 1.976028e+00	-8.536972e+00
1	 1.690002e-01	 1.977979e+00	-8.944115e+00
1	 1.476131e-01	 1.979690e+00	-9.300380e+00
1	 1.262944e-01	 1.981164e+00	-9.605547e+00
1	 1.050473e-01	 1.982404e+00	-9.859463e+00
1	 2.127564e-01	 1.981202e+00	-7.331333e+00
1	 1.911629e-01	 1.983402e+00	-7.741586e+00
1	 1.696308e-01	 1.985359e+00	-8.105348e+00
1	 1.481639e-01	 1.987076e+00	-8.422100e+00
1	 1.267656e-01	 1.988556e+00	-8.691329e+00
1	 1.054393e-01	 1.989801e+00	-8.912533e+00
1	 2.135473e-01	 1.988567e+00	-6.616415e+00
1	 1.918735e-01	 1.990775e+00	-6.981466e+00
1	 1.702614e-01	 1.992740e+00	-7.303554e+00
1	 1.487147e-01	 1.994463e+00	-7.581675e+00
1	 1.272369e-01	 1.995949e+00	-7.814762e+00
1	 1.058312e-01	 1.997198e+00	-8.001685e+00
1	 1.038714e-01	 1.960213e+00	-1.292261e+01
1	 8.293632e-02	 1.961210e+00	-1.319605e+01
1	 6.207860e-02	 1.961981e+00	-1.338614e+01
1	 4.130131e-02	 1.962528e+00	-1.348712e+01
1	 2.060747e-02	 1.962855e+00	-1.349343e+01
1	 0.000000e+00	 1.962963e+00	-1.339963e+01
1	 1.042634e-01	 1.967610e+00	-1.186391e+01
1	 8.324929e-02	 1.968611e+00	-1.211369e+01
1	 6.231286e-02	 1.969385e+00	-1.228991e+01
1	 4.145716e-02	 1.969934e+00	-1.239030e+01
1	 2.068523e-02	 1.970262e+00	-1.241273e+01
1	 0.000000e+00	 1.970370e+00	-1.235519e+01
1	 1.046553e-01	 1.975007e+00	-1.084306e+01
1	 8.356226e-02	 1.976012e+00	-1.106823e+01
1	 6.254712e-02	 1.976789e+00	-1.122952e+01
1	 4.161302e-02	 1.977340e+00	-1.132872e+01
1	 2.076300e-02	 1.977669e+00	-1.136772e+01
1	 0.000000e+00	 1.977778e+00	-1.134854e+01
1	 1.050473e-01	 1.982404e+00	-9.859463e+00
1	 8.387522e-02	 1.983413e+00	-1.005875e+01
1	 6.278138e-02	 1.984192e+00	-1.020424e+01
1	 4.176887e-02	 1.984746e+00	-1.030225e+01
1	 2.084076e-02	 1.985076e+00	-1.035931e+01
1	 0.000000e+00	 1.985185e+00	-1.038212e+01
1	 1.054393e-01	 1.989801e+00	-8.912533e+00
1	 8.418819e-02	 1.990813e+00	-9.084373e+00
1	 6.301563e-02	 1.991596e+00	-9.213303e+00
1	 4.192473e-02	 1.992151e+00	-9.310752e+00
1	 2.091852e-02	 1.992483e+00	-9.388432e+00
1	 0.000000e+00	 1.992593e+00	-9.458307e+00
1	 1.058312e-01	 1.997198e+00	-8.001685e+00
1	 8.450116e-02	 1.998214e+00	-8.144207e+00
1	 6.324989e-02	 1.999000e+00	-8.255996e+00
1	 4.208058e-02	 1.999557e+00	-8.354095e+00
1	 2.099629e-02	 1.999890e+00	-8.455971e+00
1	 0.000000e+00	 2.000000e+00	-8.579473e+00
