patch_n	x	y	stress_yy
0	 0.000000000000000e+00	 0.000000000000000e+00	 7.137700866388738e-01
0	 1.428571428571429e-01	 0.000000000000000e+00	-2.289503900806091e+00
0	 2.857142857142858e-01	 0.000000000000000e+00	-4.080740917495665e+00
0	 4.285714285714287e-01	 0.000000000000000e+00	-4.828002853903815e+00
0	 5.714285714285714e-01	 0.000000000000000e+00	-4.699351600504513e+00
0	 7.142857142857144e-01	 0.000000000000000e+00	-3.862849047771727e+00
0	 8.571428571428573e-01	 0.000000000000000e+00	-2.486557086179426e+00
0	 1.000000000000000e+00	 0.000000000000000e+00	-7.385376062015849e-01
0	 1.142857142857143e+00	 0.000000000000000e+00	 1.213147501687829e+00
0	 1.285714285714286e+00	 0.000000000000000e+00	 3.200436347014852e+00
0	 1.428571428571429e+00	 0.000000000000000e+00	 5.055267039305496e+00
0	 1.428571428571429e+00	 0.000000000000000e+00	 5.055267039305496e+00
0	 1.571428571428572e+00	 0.000000000000000e+00	 6.611698647778116e+00
0	 1.714285714285714e+00	 0.000000000000000e+00	 7.841441888975615e+00
0	 1.857142857142858e+00	 0.000000000000000e+00	 8.782912343410876e+00
0	 2.000000000000001e+00	 0.000000000000000e+00	 9.474525591596823e+00
0	 2.142857142857144e+00	 0.000000000000000e+00	 9.954697214046339e+00
0	 2.285714285714286e+00	 0.000000000000000e+00	 1.026184279127232e+01
0	 2.428571428571430e+00	 0.000000000000000e+00	 1.043437790378767e+01
0	 2.571428571428572e+00	 0.000000000000000e+00	 1.051071813210528e+01
0	 2.714285714285715e+00	 0.000000000000000e+00	 1.052927905673806e+01
0	 2.857142857142857e+00	 0.000000000000000e+00	 1.052847625819889e+01
0	 2.857142857142857e+00	 0.000000000000000e+00	 1.052847625819889e+01
0	 3.000000000000001e+00	 0.000000000000000e+00	 1.052743049075861e+01
0	 3.142857142857143e+00	 0.000000000000000e+00	 1.051957099243788e+01
0	 3.285714285714286e+00	 0.000000000000000e+00	 1.050477606937437e+01
0	 3.428571428571429e+00	 0.000000000000000e+00	 1.048292402770575e+01
0	 3.571428571428572e+00	 0.000000000000000e+00	 1.045389317356971e+01
0	 3.714285714285715e+00	 0.000000000000000e+00	 1.041756181310389e+01
0	 3.857142857142858e+00	 0.000000000000000e+00	 1.037380825244600e+01
0	 4.000000000000001e+00	 0.000000000000000e+00	 1.032251079773369e+01
0	 4.142857142857143e+00	 0.000000000000000e+00	 1.026354775510463e+01
0	 4.285714285714286e+00	 0.000000000000000e+00	 1.019679743069649e+01
0	 4.285714285714286e+00	 0.000000000000000e+00	 1.019679743069649e+01
0	 4.428571428571429e+00	 0.000000000000000e+00	 1.013608130125871e+01
0	 4.571428571428572e+00	 0.000000000000000e+00	 1.009385443231600e+01
0	 4.714285714285715e+00	 0.000000000000000e+00	 1.006794551316896e+01
0	 4.857142857142858e+00	 0.000000000000000e+00	 1.005618323311818e+01
0	 5.000000000000000e+00	 0.000000000000000e+00	 1.005639628146424e+01
0	 5.142857142857143e+00	 0.000000000000000e+00	 1.006641334750775e+01
0	 5.285714285714284e+00	 0.000000000000000e+00	 1.008406312054928e+01
0	 5.428571428571427e+00	 0.000000000000000e+00	 1.010717428988945e+01
0	 5.571428571428570e+00	 0.000000000000000e+00	 1.013357554482883e+01
0	 5.714285714285714e+00	 0.000000000000000e+00	 1.016109557466802e+01
0	 5.714285714285714e+00	 0.000000000000000e+00	 1.016109557466802e+01
0	 5.857142857142858e+00	 0.000000000000000e+00	 1.018163130900872e+01
0	 5.999999999999999e+00	 0.000000000000000e+00	 1.018973811071794e+01
0	 6.142857142857141e+00	 0.000000000000000e+00	 1.018723231899426e+01
0	 6.285714285714284e+00	 0.000000000000000e+00	 1.017593027303623e+01
0	 6.428571428571426e+00	 0.000000000000000e+00	 1.015764831204242e+01
0	 6.571428571428569e+00	 0.000000000000000e+00	 1.013420277521139e+01
0	 6.714285714285712e+00	 0.000000000000000e+00	 1.010741000174170e+01
0	 6.857142857142853e+00	 0.000000000000000e+00	 1.007908633083192e+01
0	 6.999999999999996e+00	 0.000000000000000e+00	 1.005104810168062e+01
0	 7.142857142857143e+00	 0.000000000000000e+00	 1.002511165348636e+01
0	 7.142857142857143e+00	 0.000000000000000e+00	 1.002511165348636e+01
0	 7.285714285714286e+00	 0.000000000000000e+00	 1.000531088045527e+01
0	 7.428571428571429e+00	 0.000000000000000e+00	 9.993502205683754e+00
0	 7.571428571428570e+00	 0.000000000000000e+00	 9.988235761705788e+00
0	 7.714285714285714e+00	 0.000000000000000e+00	 9.988061681055349e+00
0	 7.857142857142854e+00	 0.000000000000000e+00	 9.991530096266398e+00
0	 7.999999999999997e+00	 0.000000000000000e+00	 9.997191139872918e+00
0	 8.142857142857141e+00	 0.000000000000000e+00	 1.000359494440888e+01
0	 8.285714285714283e+00	 0.000000000000000e+00	 1.000929164240826e+01
0	 8.428571428571425e+00	 0.000000000000000e+00	 1.001283136640502e+01
0	 8.571428571428573e+00	 0.000000000000000e+00	 1.001276424893316e+01
0	 8.571428571428573e+00	 0.000000000000000e+00	 1.001276424893316e+01
0	 8.714285714285715e+00	 0.000000000000000e+00	 1.000694036874827e+01
0	 8.857142857142858e+00	 0.000000000000000e+00	 9.995332694185585e+00
0	 9.000000000000000e+00	 0.000000000000000e+00	 9.979675692148398e+00
0	 9.142857142857142e+00	 0.000000000000000e+00	 9.961703829540026e+00
0	 9.285714285714285e+00	 0.000000000000000e+00	 9.943151573263787e+00
0	 9.428571428571427e+00	 0.000000000000000e+00	 9.925753390222987e+00
0	 9.571428571428569e+00	 0.000000000000000e+00	 9.911243747320942e+00
0	 9.714285714285712e+00	 0.000000000000000e+00	 9.901357111460976e+00
0	 9.857142857142852e+00	 0.000000000000000e+00	 9.897827949546404e+00
0	 1.000000000000000e+01	 0.000000000000000e+00	 9.902390728480530e+00
1	 1.000000000000000e+00	 0.000000000000000e+00	 2.414245794047343e+01
1	 1.014285714285714e+00	 0.000000000000000e+00	 2.322063043698432e+01
1	 1.028571428571428e+00	 0.000000000000000e+00	 2.235124401126746e+01
1	 1.042857142857143e+00	 0.000000000000000e+00	 2.152948312105221e+01
1	 1.057142857142857e+00	 0.000000000000000e+00	 2.075079252365010e+01
1	 1.071428571428571e+00	 0.000000000000000e+00	 2.001085992264946e+01
1	 1.085714285714286e+00	 0.000000000000000e+00	 1.930559998460756e+01
1	 1.100000000000000e+00	 0.000000000000000e+00	 1.863113960119567e+01
1	 1.114285714285715e+00	 0.000000000000000e+00	 1.798380428502492e+01
1	 1.128571428571429e+00	 0.000000000000000e+00	 1.736010559870084e+01
1	 1.142857142857143e+00	 0.000000000000000e+00	 1.675672952669871e+01
1	 1.142857142857143e+00	 0.000000000000000e+00	 1.675672952669871e+01
1	 1.157142857142857e+00	 0.000000000000000e+00	 1.617555026284395e+01
1	 1.171428571428571e+00	 0.000000000000000e+00	 1.561926107818813e+01
1	 1.185714285714286e+00	 0.000000000000000e+00	 1.508597173263164e+01
1	 1.200000000000000e+00	 0.000000000000000e+00	 1.457388199750817e+01
1	 1.214285714285715e+00	 0.000000000000000e+00	 1.408127636079452e+01
1	 1.228571428571429e+00	 0.000000000000000e+00	 1.360651910172440e+01
1	 1.242857142857143e+00	 0.000000000000000e+00	 1.314804970508398e+01
1	 1.257142857142857e+00	 0.000000000000000e+00	 1.270437858816917e+01
1	 1.271428571428571e+00	 0.000000000000000e+00	 1.227408311581310e+01
1	 1.285714285714286e+00	 0.000000000000000e+00	 1.185580388107860e+01
1	 1.285714285714286e+00	 0.000000000000000e+00	 1.185580388107860e+01
1	 1.300000000000000e+00	 0.000000000000000e+00	 1.145042280002996e+01
1	 1.314285714285714e+00	 0.000000000000000e+00	 1.105918377960857e+01
1	 1.328571428571429e+00	 0.000000000000000e+00	 1.068134058717860e+01
1	 1.342857142857143e+00	 0.000000000000000e+00	 1.031617874468444e+01
1	 1.357142857142857e+00	 0.000000000000000e+00	 9.963013857357087e+00
1	 1.371428571428571e+00	 0.000000000000000e+00	 9.621190046876199e+00
1	 1.385714285714286e+00	 0.000000000000000e+00	 9.290078481450120e+00
1	 1.400000000000000e+00	 0.000000000000000e+00	 8.969075995890941e+00
1	 1.414285714285714e+00	 0.000000000000000e+00	 8.657603795321378e+00
1	 1.428571428571429e+00	 0.000000000000000e+00	 8.355106236659230e+00
1	 1.428571428571429e+00	 0.000000000000000e+00	 8.355106236659230e+00
1	 1.442857142857143e+00	 0.000000000000000e+00	 8.062392174714358e+00
1	 1.457142857142858e+00	 0.000000000000000e+00	 7.780240242857195e+00
1	 1.471428571428572e+00	 0.000000000000000e+00	 7.508083153758754e+00
1	 1.485714285714286e+00	 0.000000000000000e+00	 7.245375438833475e+00
1	 1.500000000000000e+00	 0.000000000000000e+00	 6.991592409251433e+00
1	 1.514285714285714e+00	 0.000000000000000e+00	 6.746229175761191e+00
1	 1.528571428571428e+00	 0.000000000000000e+00	 6.508799723475851e+00
1	 1.542857142857143e+00	 0.000000000000000e+00	 6.278836038059882e+00
1	 1.557142857142857e+00	 0.000000000000000e+00	 6.055887280015754e+00
1	 1.571428571428571e+00	 0.000000000000000e+00	 5.839519004009487e+00
1	 1.571428571428571e+00	 0.000000000000000e+00	 5.839519004009488e+00
1	 1.585714285714286e+00	 0.000000000000000e+00	 5.629938272747301e+00
1	 1.600000000000000e+00	 0.000000000000000e+00	 5.427416715155643e+00
1	 1.614285714285714e+00	 0.000000000000000e+00	 5.231637231903559e+00
1	 1.628571428571428e+00	 0.000000000000000e+00	 5.042293849952406e+00
1	 1.642857142857143e+00	 0.000000000000000e+00	 4.859091238804009e+00
1	 1.657142857142857e+00	 0.000000000000000e+00	 4.681744251770486e+00
1	 1.671428571428571e+00	 0.000000000000000e+00	 4.509977490768662e+00
1	 1.685714285714285e+00	 0.000000000000000e+00	 4.343524893243613e+00
1	 1.699999999999999e+00	 0.000000000000000e+00	 4.182129339919550e+00
1	 1.714285714285714e+00	 0.000000000000000e+00	 4.025542282163239e+00
1	 1.714285714285714e+00	 0.000000000000000e+00	 4.025542282163239e+00
1	 1.728571428571429e+00	 0.000000000000000e+00	 3.874364690798134e+00
1	 1.742857142857143e+00	 0.000000000000000e+00	 3.729267476284669e+00
1	 1.757142857142857e+00	 0.000000000000000e+00	 3.590116565001422e+00
1	 1.771428571428571e+00	 0.000000000000000e+00	 3.456782208282508e+00
1	 1.785714285714285e+00	 0.000000000000000e+00	 3.329138809419349e+00
1	 1.800000000000000e+00	 0.000000000000000e+00	 3.207064758900465e+00
1	 1.814285714285714e+00	 0.000000000000000e+00	 3.090442277435208e+00
1	 1.828571428571428e+00	 0.000000000000000e+00	 2.979157266335774e+00
1	 1.842857142857143e+00	 0.000000000000000e+00	 2.873099164858146e+00
1	 1.857142857142857e+00	 0.000000000000000e+00	 2.772160814127362e+00
1	 1.857142857142857e+00	 0.000000000000000e+00	 2.772160814127363e+00
1	 1.871428571428572e+00	 0.000000000000000e+00	 2.677024095563686e+00
1	 1.885714285714286e+00	 0.000000000000000e+00	 2.589360810950870e+00
1	 1.900000000000000e+00	 0.000000000000000e+00	 2.510520022648040e+00
1	 1.914285714285714e+00	 0.000000000000000e+00	 2.441810522496178e+00
1	 1.928571428571428e+00	 0.000000000000000e+00	 2.384502323318702e+00
1	 1.942857142857142e+00	 0.000000000000000e+00	 2.339828084620742e+00
1	 1.957142857142857e+00	 0.000000000000000e+00	 2.308984475848857e+00
1	 1.971428571428571e+00	 0.000000000000000e+00	 2.293133480378700e+00
1	 1.985714285714285e+00	 0.000000000000000e+00	 2.293403643215395e+00
1	 2.000000000000000e+00	 0.000000000000000e+00	 2.310891265221072e+00
