patch_n	x	y	stress_yy
0	 0.000000000000000e+00	 0.000000000000000e+00	 4.595053511041343e-01
0	 3.703703703703703e-02	 0.000000000000000e+00	 5.492327247997780e-01
0	 7.407407407407410e-02	 0.000000000000000e+00	 6.229560024406051e-01
0	 1.111111111111111e-01	 0.000000000000000e+00	 6.797561410487856e-01
0	 1.481481481481482e-01	 0.000000000000000e+00	 7.187140976464887e-01
0	 1.851851851851852e-01	 0.000000000000000e+00	 7.389108292558849e-01
0	 2.222222222222223e-01	 0.000000000000000e+00	 7.394272928991438e-01
0	 2.592592592592593e-01	 0.000000000000000e+00	 7.193444455984350e-01
0	 2.962962962962963e-01	 0.000000000000000e+00	 6.777432443759291e-01
0	 3.333333333333333e-01	 0.000000000000000e+00	 6.137046462537948e-01
0	 3.703703703703705e-01	 0.000000000000000e+00	 5.263096082542027e-01
0	 3.703703703703705e-01	 0.000000000000000e+00	 5.263096082542027e-01
0	 4.074074074074074e-01	 0.000000000000000e+00	 4.284718990354460e-01
0	 4.444444444444445e-01	 0.000000000000000e+00	 3.354385244809970e-01
0	 4.814814814814816e-01	 0.000000000000000e+00	 2.497902974507934e-01
0	 5.185185185185186e-01	 0.000000000000000e+00	 1.741080308047724e-01
0	 5.555555555555556e-01	 0.000000000000000e+00	 1.109725374028718e-01
0	 5.925925925925926e-01	 0.000000000000000e+00	 6.296463010502890e-02
0	 6.296296296296297e-01	 0.000000000000000e+00	 3.266512177118118e-02
0	 6.666666666666669e-01	 0.000000000000000e+00	 2.265482526126640e-02
0	 7.037037037037038e-01	 0.000000000000000e+00	 3.551455343522211e-02
0	 7.407407407407409e-01	 0.000000000000000e+00	 7.382511915298562e-02
0	 7.407407407407409e-01	 0.000000000000000e+00	 7.382511915298562e-02
0	 7.777777777777778e-01	 0.000000000000000e+00	 8.692720853553698e-02
0	 8.148148148148151e-01	 0.000000000000000e+00	 2.900307559767101e-02
0	 8.518518518518522e-01	 0.000000000000000e+00	-9.010411495995213e-02
0	 8.888888888888892e-01	 0.000000000000000e+00	-2.605511984366725e-01
0	 9.259259259259263e-01	 0.000000000000000e+00	-4.724950101318305e-01
0	 9.629629629629635e-01	 0.000000000000000e+00	-7.160923853447656e-01
0	 1.000000000000000e+00	 0.000000000000000e+00	-9.815001593748176e-01
0	 1.037037037037038e+00	 0.000000000000000e+00	-1.258875167521328e+00
0	 1.074074074074075e+00	 0.000000000000000e+00	-1.538374245083636e+00
0	 1.111111111111111e+00	 0.000000000000000e+00	-1.810154227361076e+00
0	 1.111111111111111e+00	 0.000000000000000e+00	-1.810154227361076e+00
0	 1.148148148148148e+00	 0.000000000000000e+00	-2.026947318875209e+00
0	 1.185185185185185e+00	 0.000000000000000e+00	-2.158923276412712e+00
0	 1.222222222222223e+00	 0.000000000000000e+00	-2.222395263670647e+00
0	 1.259259259259260e+00	 0.000000000000000e+00	-2.233676444346059e+00
0	 1.296296296296297e+00	 0.000000000000000e+00	-2.209079982136016e+00
0	 1.333333333333334e+00	 0.000000000000000e+00	-2.164919040737558e+00
0	 1.370370370370371e+00	 0.000000000000000e+00	-2.117506783847752e+00
0	 1.407407407407408e+00	 0.000000000000000e+00	-2.083156375163639e+00
0	 1.444444444444445e+00	 0.000000000000000e+00	-2.078180978382285e+00
0	 1.481481481481482e+00	 0.000000000000000e+00	-2.118893757200741e+00
0	 1.481481481481482e+00	 0.000000000000000e+00	-2.118893757200741e+00
0	 1.518518518518519e+00	 0.000000000000000e+00	-2.096000787157887e+00
0	 1.555555555555556e+00	 0.000000000000000e+00	-1.890624178750214e+00
0	 1.592592592592593e+00	 0.000000000000000e+00	-1.504701148111142e+00
0	 1.629629629629630e+00	 0.000000000000000e+00	-9.401689113741334e-01
0	 1.666666666666667e+00	 0.000000000000000e+00	-1.989646846726210e-01
0	 1.703703703703704e+00	 0.000000000000000e+00	 7.169743158599449e-01
0	 1.740740740740741e+00	 0.000000000000000e+00	 1.805710874090151e+00
0	 1.777777777777778e+00	 0.000000000000000e+00	 3.065307773884516e+00
0	 1.814814814814816e+00	 0.000000000000000e+00	 4.493827799109638e+00
0	 1.851851851851852e+00	 0.000000000000000e+00	 6.089333733632023e+00
0	 1.851851851851852e+00	 0.000000000000000e+00	 6.089333733632023e+00
0	 1.888888888888889e+00	 0.000000000000000e+00	 7.645774733766874e+00
0	 1.925925925925926e+00	 0.000000000000000e+00	 8.965171399509547e+00
0	 1.962962962962963e+00	 0.000000000000000e+00	 1.005769368024704e+01
0	 2.000000000000000e+00	 0.000000000000000e+00	 1.093351152536630e+01
0	 2.037037037037038e+00	 0.000000000000000e+00	 1.160279488425431e+01
0	 2.074074074074075e+00	 0.000000000000000e+00	 1.207571370629803e+01
0	 2.111111111111112e+00	 0.000000000000000e+00	 1.236243794088444e+01
0	 2.148148148148149e+00	 0.000000000000000e+00	 1.247313753740050e+01
0	 2.185185185185186e+00	 0.000000000000000e+00	 1.241798244523319e+01
0	 2.222222222222223e+00	 0.000000000000000e+00	 1.220714261376948e+01
0	 2.222222222222223e+00	 0.000000000000000e+00	 1.220714261376948e+01
0	 2.259259259259260e+00	 0.000000000000000e+00	 1.194686746907077e+01
0	 2.296296296296297e+00	 0.000000000000000e+00	 1.173399042583873e+01
0	 2.333333333333333e+00	 0.000000000000000e+00	 1.156455741642062e+01
0	 2.370370370370371e+00	 0.000000000000000e+00	 1.143461437316376e+01
0	 2.407407407407407e+00	 0.000000000000000e+00	 1.134020722841544e+01
0	 2.444444444444445e+00	 0.000000000000000e+00	 1.127738191452296e+01
0	 2.481481481481482e+00	 0.000000000000000e+00	 1.124218436383362e+01
0	 2.518518518518520e+00	 0.000000000000000e+00	 1.123066050869472e+01
0	 2.555555555555557e+00	 0.000000000000000e+00	 1.123885628145354e+01
0	 2.592592592592593e+00	 0.000000000000000e+00	 1.126281761445740e+01
0	 2.592592592592593e+00	 0.000000000000000e+00	 1.126281761445740e+01
0	 2.629629629629630e+00	 0.000000000000000e+00	 1.128397697466730e+01
0	 2.666666666666667e+00	 0.000000000000000e+00	 1.128782186805347e+01
0	 2.703703703703704e+00	 0.000000000000000e+00	 1.127648078547704e+01
0	 2.740740740740741e+00	 0.000000000000000e+00	 1.125208221779913e+01
0	 2.777777777777778e+00	 0.000000000000000e+00	 1.121675465588087e+01
0	 2.814814814814816e+00	 0.000000000000000e+00	 1.117262659058340e+01
0	 2.851851851851853e+00	 0.000000000000000e+00	 1.112182651276785e+01
0	 2.888888888888890e+00	 0.000000000000000e+00	 1.106648291329535e+01
0	 2.925925925925927e+00	 0.000000000000000e+00	 1.100872428302702e+01
0	 2.962962962962963e+00	 0.000000000000000e+00	 1.095067911282401e+01
0	 2.962962962962963e+00	 0.000000000000000e+00	 1.095067911282401e+01
0	 3.000000000000000e+00	 0.000000000000000e+00	 1.089921037548072e+01
0	 3.037037037037038e+00	 0.000000000000000e+00	 1.085882894941467e+01
0	 3.074074074074074e+00	 0.000000000000000e+00	 1.082813518392159e+01
0	 3.111111111111112e+00	 0.000000000000000e+00	 1.080572942829724e+01
0	 3.148148148148149e+00	 0.000000000000000e+00	 1.079021203183737e+01
0	 3.185185185185186e+00	 0.000000000000000e+00	 1.078018334383772e+01
0	 3.222222222222223e+00	 0.000000000000000e+00	 1.077424371359404e+01
0	 3.259259259259260e+00	 0.000000000000000e+00	 1.077099349040208e+01
0	 3.296296296296297e+00	 0.000000000000000e+00	 1.076903302355758e+01
0	 3.333333333333333e+00	 0.000000000000000e+00	 1.076696266235630e+01
0	 3.333333333333333e+00	 0.000000000000000e+00	 1.076696266235630e+01
0	 3.370370370370370e+00	 0.000000000000000e+00	 1.076188706206134e+01
0	 3.407407407407408e+00	 0.000000000000000e+00	 1.075233074398190e+01
0	 3.444444444444445e+00	 0.000000000000000e+00	 1.073902385648292e+01
0	 3.481481481481481e+00	 0.000000000000000e+00	 1.072269654792932e+01
0	 3.518518518518518e+00	 0.000000000000000e+00	 1.070407896668602e+01
0	 3.555555555555555e+00	 0.000000000000000e+00	 1.068390126111793e+01
0	 3.592592592592593e+00	 0.000000000000000e+00	 1.066289357959000e+01
0	 3.629629629629631e+00	 0.000000000000000e+00	 1.064178607046715e+01
0	 3.666666666666667e+00	 0.000000000000000e+00	 1.062130888211429e+01
0	 3.703703703703704e+00	 0.000000000000000e+00	 1.060219216289636e+01
0	 3.703703703703704e+00	 0.000000000000000e+00	 1.060219216289636e+01
0	 3.740740740740741e+00	 0.000000000000000e+00	 1.058548135982684e+01
0	 3.777777777777779e+00	 0.000000000000000e+00	 1.057147638407927e+01
0	 3.814814814814815e+00	 0.000000000000000e+00	 1.055978908025858e+01
0	 3.851851851851852e+00	 0.000000000000000e+00	 1.055003129296973e+01
0	 3.888888888888890e+00	 0.000000000000000e+00	 1.054181486681768e+01
0	 3.925925925925927e+00	 0.000000000000000e+00	 1.053475164640736e+01
0	 3.962962962962964e+00	 0.000000000000000e+00	 1.052845347634373e+01
0	 4.000000000000001e+00	 0.000000000000000e+00	 1.052253220123174e+01
0	 4.037037037037039e+00	 0.000000000000000e+00	 1.051659966567635e+01
0	 4.074074074074075e+00	 0.000000000000000e+00	 1.051026771428250e+01
0	 4.074074074074075e+00	 0.000000000000000e+00	 1.051026771428250e+01
0	 4.111111111111112e+00	 0.000000000000000e+00	 1.050312968980536e+01
0	 4.148148148148150e+00	 0.000000000000000e+00	 1.049515233063164e+01
0	 4.185185185185186e+00	 0.000000000000000e+00	 1.048650757481362e+01
0	 4.222222222222223e+00	 0.000000000000000e+00	 1.047736736040353e+01
0	 4.259259259259260e+00	 0.000000000000000e+00	 1.046790362545364e+01
0	 4.296296296296298e+00	 0.000000000000000e+00	 1.045828830801621e+01
0	 4.333333333333334e+00	 0.000000000000000e+00	 1.044869334614349e+01
0	 4.370370370370371e+00	 0.000000000000000e+00	 1.043929067788775e+01
0	 4.407407407407409e+00	 0.000000000000000e+00	 1.043025224130123e+01
0	 4.444444444444446e+00	 0.000000000000000e+00	 1.042174997443620e+01
0	 4.444444444444446e+00	 0.000000000000000e+00	 1.042174997443620e+01
0	 4.481481481481483e+00	 0.000000000000000e+00	 1.041387467010797e+01
0	 4.518518518518519e+00	 0.000000000000000e+00	 1.040655047382059e+01
0	 4.555555555555555e+00	 0.000000000000000e+00	 1.039969935265940e+01
0	 4.592592592592593e+00	 0.000000000000000e+00	 1.039324327370976e+01
0	 4.629629629629631e+00	 0.000000000000000e+00	 1.038710420405701e+01
0	 4.666666666666668e+00	 0.000000000000000e+00	 1.038120411078651e+01
0	 4.703703703703704e+00	 0.000000000000000e+00	 1.037546496098359e+01
0	 4.740740740740740e+00	 0.000000000000000e+00	 1.036980872173359e+01
0	 4.777777777777779e+00	 0.000000000000000e+00	 1.036415736012190e+01
0	 4.814814814814815e+00	 0.000000000000000e+00	 1.035843284323382e+01
0	 4.814814814814815e+00	 0.000000000000000e+00	 1.035843284323382e+01
0	 4.851851851851853e+00	 0.000000000000000e+00	 1.035260392684678e+01
0	 4.888888888888888e+00	 0.000000000000000e+00	 1.034670992867891e+01
0	 4.925925925925926e+00	 0.000000000000000e+00	 1.034077865872666e+01
0	 4.962962962962963e+00	 0.000000000000000e+00	 1.033483792698654e+01
0	 5.000000000000002e+00	 0.000000000000000e+00	 1.032891554345498e+01
0	 5.037037037037037e+00	 0.000000000000000e+00	 1.032303931812849e+01
0	 5.074074074074074e+00	 0.000000000000000e+00	 1.031723706100351e+01
0	 5.111111111111111e+00	 0.000000000000000e+00	 1.031153658207655e+01
0	 5.148148148148147e+00	 0.000000000000000e+00	 1.030596569134405e+01
0	 5.185185185185185e+00	 0.000000000000000e+00	 1.030055219880249e+01
0	 5.185185185185185e+00	 0.000000000000000e+00	 1.030055219880249e+01
0	 5.222222222222222e+00	 0.000000000000000e+00	 1.029528029103662e+01
0	 5.259259259259261e+00	 0.000000000000000e+00	 1.029010870385924e+01
0	 5.296296296296299e+00	 0.000000000000000e+00	 1.028502707110893e+01
0	 5.333333333333337e+00	 0.000000000000000e+00	 1.028002502662424e+01
0	 5.370370370370373e+00	 0.000000000000000e+00	 1.027509220424373e+01
0	 5.407407407407410e+00	 0.000000000000000e+00	 1.027021823780597e+01
0	 5.444444444444448e+00	 0.000000000000000e+00	 1.026539276114955e+01
0	 5.481481481481485e+00	 0.000000000000000e+00	 1.026060540811300e+01
0	 5.518518518518523e+00	 0.000000000000000e+00	 1.025584581253490e+01
0	 5.555555555555557e+00	 0.000000000000000e+00	 1.025110360825381e+01
0	 5.555555555555557e+00	 0.000000000000000e+00	 1.025110360825381e+01
0	 5.592592592592593e+00	 0.000000000000000e+00	 1.024638184956796e+01
0	 5.629629629629630e+00	 0.000000000000000e+00	 1.024169152763734e+01
0	 5.666666666666667e+00	 0.000000000000000e+00	 1.023703418159320e+01
0	 5.703703703703703e+00	 0.000000000000000e+00	 1.023241135056673e+01
0	 5.740740740740740e+00	 0.000000000000000e+00	 1.022782457368922e+01
0	 5.777777777777774e+00	 0.000000000000000e+00	 1.022327539009185e+01
0	 5.814814814814812e+00	 0.000000000000000e+00	 1.021876533890590e+01
0	 5.851851851851849e+00	 0.000000000000000e+00	 1.021429595926257e+01
0	 5.888888888888886e+00	 0.000000000000000e+00	 1.020986879029310e+01
0	 5.925925925925926e+00	 0.000000000000000e+00	 1.020548537112871e+01
0	 5.925925925925926e+00	 0.000000000000000e+00	 1.020548537112872e+01
0	 5.962962962962964e+00	 0.000000000000000e+00	 1.020113375282540e+01
0	 6.000000000000002e+00	 0.000000000000000e+00	 1.019680079647789e+01
0	 6.037037037037040e+00	 0.000000000000000e+00	 1.019248625627556e+01
0	 6.074074074074075e+00	 0.000000000000000e+00	 1.018818988640778e+01
0	 6.111111111111114e+00	 0.000000000000000e+00	 1.018391144106393e+01
0	 6.148148148148152e+00	 0.000000000000000e+00	 1.017965067443339e+01
0	 6.185185185185189e+00	 0.000000000000000e+00	 1.017540734070553e+01
0	 6.222222222222227e+00	 0.000000000000000e+00	 1.017118119406974e+01
0	 6.259259259259266e+00	 0.000000000000000e+00	 1.016697198871538e+01
0	 6.296296296296297e+00	 0.000000000000000e+00	 1.016277947883184e+01
0	 6.296296296296297e+00	 0.000000000000000e+00	 1.016277947883184e+01
0	 6.333333333333333e+00	 0.000000000000000e+00	 1.015860441185849e+01
0	 6.370370370370369e+00	 0.000000000000000e+00	 1.015444690081544e+01
0	 6.407407407407407e+00	 0.000000000000000e+00	 1.015030574826318e+01
0	 6.444444444444442e+00	 0.000000000000000e+00	 1.014617975676212e+01
0	 6.481481481481479e+00	 0.000000000000000e+00	 1.014206772887276e+01
0	 6.518518518518515e+00	 0.000000000000000e+00	 1.013796846715553e+01
0	 6.555555555555552e+00	 0.000000000000000e+00	 1.013388077417092e+01
0	 6.592592592592589e+00	 0.000000000000000e+00	 1.012980345247936e+01
0	 6.629629629629626e+00	 0.000000000000000e+00	 1.012573530464133e+01
0	 6.666666666666666e+00	 0.000000000000000e+00	 1.012167513321728e+01
0	 6.666666666666666e+00	 0.000000000000000e+00	 1.012167513321728e+01
0	 6.703703703703703e+00	 0.000000000000000e+00	 1.011761808606536e+01
0	 6.740740740740740e+00	 0.000000000000000e+00	 1.011356012358811e+01
0	 6.777777777777778e+00	 0.000000000000000e+00	 1.010950126716255e+01
0	 6.814814814814816e+00	 0.000000000000000e+00	 1.010544153816569e+01
0	 6.851851851851854e+00	 0.000000000000000e+00	 1.010138095797459e+01
0	 6.888888888888892e+00	 0.000000000000000e+00	 1.009731954796626e+01
0	 6.925925925925928e+00	 0.000000000000000e+00	 1.009325732951774e+01
0	 6.962962962962966e+00	 0.000000000000000e+00	 1.008919432400603e+01
0	 7.000000000000004e+00	 0.000000000000000e+00	 1.008513055280816e+01
0	 7.037037037037037e+00	 0.000000000000000e+00	 1.008106603730119e+01
0	 7.037037037037037e+00	 0.000000000000000e+00	 1.008106603730119e+01
0	 7.074074074074074e+00	 0.000000000000000e+00	 1.007700004939021e+01
0	 7.111111111111110e+00	 0.000000000000000e+00	 1.007293110828778e+01
0	 7.148148148148146e+00	 0.000000000000000e+00	 1.006885810633198e+01
0	 7.185185185185182e+00	 0.000000000000000e+00	 1.006477993586093e+01
0	 7.222222222222221e+00	 0.000000000000000e+00	 1.006069548921273e+01
0	 7.259259259259255e+00	 0.000000000000000e+00	 1.005660365872548e+01
0	 7.296296296296293e+00	 0.000000000000000e+00	 1.005250333673730e+01
0	 7.333333333333328e+00	 0.000000000000000e+00	 1.004839341558629e+01
0	 7.370370370370367e+00	 0.000000000000000e+00	 1.004427278761056e+01
0	 7.407407407407405e+00	 0.000000000000000e+00	 1.004014034514822e+01
0	 7.407407407407405e+00	 0.000000000000000e+00	 1.004014034514822e+01
0	 7.444444444444444e+00	 0.000000000000000e+00	 1.003599436592516e+01
0	 7.481481481481481e+00	 0.000000000000000e+00	 1.003183339220134e+01
0	 7.518518518518520e+00	 0.000000000000000e+00	 1.002765671311600e+01
0	 7.555555555555557e+00	 0.000000000000000e+00	 1.002346361780831e+01
0	 7.592592592592593e+00	 0.000000000000000e+00	 1.001925339541751e+01
0	 7.629629629629631e+00	 0.000000000000000e+00	 1.001502533508280e+01
0	 7.666666666666670e+00	 0.000000000000000e+00	 1.001077872594343e+01
0	 7.703703703703707e+00	 0.000000000000000e+00	 1.000651285713859e+01
0	 7.740740740740746e+00	 0.000000000000000e+00	 1.000222701780747e+01
0	 7.777777777777778e+00	 0.000000000000000e+00	 9.997920497089318e+00
0	 7.777777777777778e+00	 0.000000000000000e+00	 9.997920497089318e+00
0	 7.814814814814814e+00	 0.000000000000000e+00	 9.993592817868878e+00
0	 7.851851851851851e+00	 0.000000000000000e+00	 9.989243081649690e+00
0	 7.888888888888888e+00	 0.000000000000000e+00	 9.984869945499108e+00
0	 7.925925925925924e+00	 0.000000000000000e+00	 9.980472066484497e+00
0	 7.962962962962960e+00	 0.000000000000000e+00	 9.976048101673205e+00
0	 7.999999999999997e+00	 0.000000000000000e+00	 9.971596708132617e+00
0	 8.037037037037035e+00	 0.000000000000000e+00	 9.967116542930073e+00
0	 8.074074074074069e+00	 0.000000000000000e+00	 9.962606263132948e+00
0	 8.111111111111109e+00	 0.000000000000000e+00	 9.958064525808599e+00
0	 8.148148148148149e+00	 0.000000000000000e+00	 9.953489988024391e+00
0	 8.148148148148149e+00	 0.000000000000000e+00	 9.953489988024391e+00
0	 8.185185185185185e+00	 0.000000000000000e+00	 9.948882418911570e+00
0	 8.222222222222221e+00	 0.000000000000000e+00	 9.944241437099658e+00
0	 8.259259259259260e+00	 0.000000000000000e+00	 9.939565473903460e+00
0	 8.296296296296299e+00	 0.000000000000000e+00	 9.934852960637821e+00
0	 8.333333333333336e+00	 0.000000000000000e+00	 9.930102328617542e+00
0	 8.370370370370374e+00	 0.000000000000000e+00	 9.925312009157443e+00
0	 8.407407407407410e+00	 0.000000000000000e+00	 9.920480433572331e+00
0	 8.444444444444448e+00	 0.000000000000000e+00	 9.915606033177028e+00
0	 8.481481481481486e+00	 0.000000000000000e+00	 9.910687239286350e+00
0	 8.518518518518521e+00	 0.000000000000000e+00	 9.905722483215120e+00
0	 8.518518518518521e+00	 0.000000000000000e+00	 9.905722483215122e+00
0	 8.555555555555555e+00	 0.000000000000000e+00	 9.900712216277858e+00
0	 8.592592592592592e+00	 0.000000000000000e+00	 9.895656475440839e+00
0	 8.629629629629628e+00	 0.000000000000000e+00	 9.890553070496512e+00
0	 8.666666666666666e+00	 0.000000000000000e+00	 9.885399811237296e+00
0	 8.703703703703702e+00	 0.000000000000000e+00	 9.880194507455634e+00
0	 8.740740740740737e+00	 0.000000000000000e+00	 9.874934968943940e+00
0	 8.777777777777775e+00	 0.000000000000000e+00	 9.869619005494659e+00
0	 8.814814814814810e+00	 0.000000000000000e+00	 9.864244426900239e+00
0	 8.851851851851849e+00	 0.000000000000000e+00	 9.858809042953077e+00
0	 8.888888888888888e+00	 0.000000000000000e+00	 9.853310663445637e+00
0	 8.888888888888888e+00	 0.000000000000000e+00	 9.853310663445637e+00
0	 8.925925925925926e+00	 0.000000000000000e+00	 9.847750332989767e+00
0	 8.962962962962962e+00	 0.000000000000000e+00	 9.842128638712147e+00
0	 9.000000000000002e+00	 0.000000000000000e+00	 9.836442704177554e+00
0	 9.037037037037040e+00	 0.000000000000000e+00	 9.830689652950726e+00
0	 9.074074074074074e+00	 0.000000000000000e+00	 9.824866608596416e+00
0	 9.111111111111112e+00	 0.000000000000000e+00	 9.818970694679358e+00
0	 9.148148148148151e+00	 0.000000000000000e+00	 9.812999034764315e+00
0	 9.185185185185187e+00	 0.000000000000000e+00	 9.806948752416011e+00
0	 9.222222222222227e+00	 0.000000000000000e+00	 9.800816971199209e+00
0	 9.259259259259260e+00	 0.000000000000000e+00	 9.794600814678665e+00
0	 9.259259259259260e+00	 0.000000000000000e+00	 9.794600814678663e+00
0	 9.296296296296296e+00	 0.000000000000000e+00	 9.788302274455484e+00
0	 9.333333333333332e+00	 0.000000000000000e+00	 9.781922660277143e+00
0	 9.370370370370370e+00	 0.000000000000000e+00	 9.775458072927909e+00
0	 9.407407407407407e+00	 0.000000000000000e+00	 9.768904613192035e+00
0	 9.444444444444443e+00	 0.000000000000000e+00	 9.762258381853799e+00
0	 9.481481481481477e+00	 0.000000000000000e+00	 9.755515479697449e+00
0	 9.518518518518514e+00	 0.000000000000000e+00	 9.748672007507277e+00
0	 9.555555555555550e+00	 0.000000000000000e+00	 9.741724066067521e+00
0	 9.592592592592588e+00	 0.000000000000000e+00	 9.734667756162469e+00
0	 9.629629629629630e+00	 0.000000000000000e+00	 9.727499178576378e+00
0	 9.629629629629630e+00	 0.000000000000000e+00	 9.727499178576378e+00
0	 9.666666666666666e+00	 0.000000000000000e+00	 9.720221025134888e+00
0	 9.703703703703702e+00	 0.000000000000000e+00	 9.712835130495080e+00
0	 9.740740740740740e+00	 0.000000000000000e+00	 9.705336309688336e+00
0	 9.777777777777779e+00	 0.000000000000000e+00	 9.697719377746072e+00
0	 9.814814814814817e+00	 0.000000000000000e+00	 9.689979149699628e+00
0	 9.851851851851855e+00	 0.000000000000000e+00	 9.682110440580420e+00
0	 9.888888888888893e+00	 0.000000000000000e+00	 9.674108065419805e+00
0	 9.925925925925931e+00	 0.000000000000000e+00	 9.665966839249201e+00
0	 9.962962962962967e+00	 0.000000000000000e+00	 9.657681577099959e+00
0	 1.000000000000000e+01	 0.000000000000000e+00	 9.649247094003464e+00
1	 1.000000000000000e+00	 0.000000000000000e+00	 3.174569902151911e+01
1	 1.003703703703704e+00	 0.000000000000000e+00	 3.150826464942506e+01
1	 1.007407407407408e+00	 0.000000000000000e+00	 3.127565364111420e+01
1	 1.011111111111111e+00	 0.000000000000000e+00	 3.104771942825220e+01
1	 1.014814814814815e+00	 0.000000000000000e+00	 3.082431758218862e+01
1	 1.018518518518519e+00	 0.000000000000000e+00	 3.060530577505328e+01
1	 1.022222222222222e+00	 0.000000000000000e+00	 3.039054374169882e+01
1	 1.025925925925926e+00	 0.000000000000000e+00	 3.017989324246738e+01
1	 1.029629629629630e+00	 0.000000000000000e+00	 2.997321802676083e+01
1	 1.033333333333333e+00	 0.000000000000000e+00	 2.977038379739478e+01
1	 1.037037037037037e+00	 0.000000000000000e+00	 2.957125817571588e+01
1	 1.037037037037037e+00	 0.000000000000000e+00	 2.957125817571588e+01
1	 1.040740740740741e+00	 0.000000000000000e+00	 2.937592925235803e+01
1	 1.044444444444445e+00	 0.000000000000000e+00	 2.918448631662671e+01
1	 1.048148148148148e+00	 0.000000000000000e+00	 2.899680157543049e+01
1	 1.051851851851852e+00	 0.000000000000000e+00	 2.881274903558072e+01
1	 1.055555555555556e+00	 0.000000000000000e+00	 2.863220447221419e+01
1	 1.059259259259259e+00	 0.000000000000000e+00	 2.845504539787833e+01
1	 1.062962962962963e+00	 0.000000000000000e+00	 2.828115103226273e+01
1	 1.066666666666667e+00	 0.000000000000000e+00	 2.811040227256143e+01
1	 1.070370370370370e+00	 0.000000000000000e+00	 2.794268166445006e+01
1	 1.074074074074074e+00	 0.000000000000000e+00	 2.777787337366399e+01
1	 1.074074074074074e+00	 0.000000000000000e+00	 2.777787337366399e+01
1	 1.077777777777778e+00	 0.000000000000000e+00	 2.761605425354051e+01
1	 1.081481481481481e+00	 0.000000000000000e+00	 2.745730867201823e+01
1	 1.085185185185185e+00	 0.000000000000000e+00	 2.730153432335509e+01
1	 1.088888888888889e+00	 0.000000000000000e+00	 2.714863029372393e+01
1	 1.092592592592593e+00	 0.000000000000000e+00	 2.699849703762077e+01
1	 1.096296296296296e+00	 0.000000000000000e+00	 2.685103635475093e+01
1	 1.100000000000000e+00	 0.000000000000000e+00	 2.670615136738283e+01
1	 1.103703703703704e+00	 0.000000000000000e+00	 2.656374649815700e+01
1	 1.107407407407408e+00	 0.000000000000000e+00	 2.642372744834087e+01
1	 1.111111111111111e+00	 0.000000000000000e+00	 2.628600117651840e+01
1	 1.111111111111111e+00	 0.000000000000000e+00	 2.628600117651840e+01
1	 1.114814814814815e+00	 0.000000000000000e+00	 2.615020611624116e+01
1	 1.118518518518518e+00	 0.000000000000000e+00	 2.601600495255286e+01
1	 1.122222222222222e+00	 0.000000000000000e+00	 2.588334250350894e+01
1	 1.125925925925926e+00	 0.000000000000000e+00	 2.575216431324314e+01
1	 1.129629629629630e+00	 0.000000000000000e+00	 2.562241664006446e+01
1	 1.133333333333334e+00	 0.000000000000000e+00	 2.549404644478765e+01
1	 1.137037037037037e+00	 0.000000000000000e+00	 2.536700137929175e+01
1	 1.140740740740741e+00	 0.000000000000000e+00	 2.524122977530159e+01
1	 1.144444444444445e+00	 0.000000000000000e+00	 2.511668063338688e+01
1	 1.148148148148148e+00	 0.000000000000000e+00	 2.499330361217465e+01
1	 1.148148148148148e+00	 0.000000000000000e+00	 2.499330361217465e+01
1	 1.151851851851852e+00	 0.000000000000000e+00	 2.487116315924293e+01
1	 1.155555555555556e+00	 0.000000000000000e+00	 2.475032969459095e+01
1	 1.159259259259259e+00	 0.000000000000000e+00	 2.463076271462212e+01
1	 1.162962962962963e+00	 0.000000000000000e+00	 2.451242223170938e+01
1	 1.166666666666667e+00	 0.000000000000000e+00	 2.439526876600495e+01
1	 1.170370370370371e+00	 0.000000000000000e+00	 2.427926333740599e+01
1	 1.174074074074074e+00	 0.000000000000000e+00	 2.416436745767215e+01
1	 1.177777777777778e+00	 0.000000000000000e+00	 2.405054312269192e+01
1	 1.181481481481482e+00	 0.000000000000000e+00	 2.393775280489432e+01
1	 1.185185185185185e+00	 0.000000000000000e+00	 2.382595944580307e+01
1	 1.185185185185185e+00	 0.000000000000000e+00	 2.382595944580307e+01
1	 1.188888888888889e+00	 0.000000000000000e+00	 2.371521822358205e+01
1	 1.192592592592593e+00	 0.000000000000000e+00	 2.360558896967512e+01
1	 1.196296296296296e+00	 0.000000000000000e+00	 2.349704222908963e+01
1	 1.200000000000000e+00	 0.000000000000000e+00	 2.338954891047482e+01
1	 1.203703703703704e+00	 0.000000000000000e+00	 2.328308028052731e+01
1	 1.207407407407408e+00	 0.000000000000000e+00	 2.317760795849965e+01
1	 1.211111111111111e+00	 0.000000000000000e+00	 2.307310391080943e+01
1	 1.214814814814815e+00	 0.000000000000000e+00	 2.296954044574723e+01
1	 1.218518518518519e+00	 0.000000000000000e+00	 2.286689020828089e+01
1	 1.222222222222223e+00	 0.000000000000000e+00	 2.276512617495450e+01
1	 1.222222222222223e+00	 0.000000000000000e+00	 2.276512617495450e+01
1	 1.225925925925926e+00	 0.000000000000000e+00	 2.266429177907162e+01
1	 1.229629629629630e+00	 0.000000000000000e+00	 2.256443442962319e+01
1	 1.233333333333333e+00	 0.000000000000000e+00	 2.246553349986804e+01
1	 1.237037037037037e+00	 0.000000000000000e+00	 2.236756861009182e+01
1	 1.240740740740741e+00	 0.000000000000000e+00	 2.227051962391998e+01
1	 1.244444444444444e+00	 0.000000000000000e+00	 2.217436664469687e+01
1	 1.248148148148148e+00	 0.000000000000000e+00	 2.207909001192878e+01
1	 1.251851851851852e+00	 0.000000000000000e+00	 2.198467029779066e+01
1	 1.255555555555556e+00	 0.000000000000000e+00	 2.189108830369421e+01
1	 1.259259259259259e+00	 0.000000000000000e+00	 2.179832505691704e+01
1	 1.259259259259259e+00	 0.000000000000000e+00	 2.179832505691704e+01
1	 1.262962962962963e+00	 0.000000000000000e+00	 2.170642224653653e+01
1	 1.266666666666667e+00	 0.000000000000000e+00	 2.161542590870260e+01
1	 1.270370370370371e+00	 0.000000000000000e+00	 2.152532386615450e+01
1	 1.274074074074074e+00	 0.000000000000000e+00	 2.143610408322747e+01
1	 1.277777777777778e+00	 0.000000000000000e+00	 2.134775466380083e+01
1	 1.281481481481482e+00	 0.000000000000000e+00	 2.126026384928113e+01
1	 1.285185185185185e+00	 0.000000000000000e+00	 2.117362001662075e+01
1	 1.288888888888889e+00	 0.000000000000000e+00	 2.108781167637037e+01
1	 1.292592592592593e+00	 0.000000000000000e+00	 2.100282747076474e+01
1	 1.296296296296297e+00	 0.000000000000000e+00	 2.091865617184182e+01
1	 1.296296296296297e+00	 0.000000000000000e+00	 2.091865617184182e+01
1	 1.300000000000000e+00	 0.000000000000000e+00	 2.083533008132738e+01
1	 1.303703703703704e+00	 0.000000000000000e+00	 2.075288285673904e+01
1	 1.307407407407408e+00	 0.000000000000000e+00	 2.067130547736235e+01
1	 1.311111111111111e+00	 0.000000000000000e+00	 2.059058902441210e+01
1	 1.314814814814815e+00	 0.000000000000000e+00	 2.051072467959619e+01
1	 1.318518518518519e+00	 0.000000000000000e+00	 2.043170372370460e+01
1	 1.322222222222222e+00	 0.000000000000000e+00	 2.035351753522144e+01
1	 1.325925925925926e+00	 0.000000000000000e+00	 2.027615758896070e+01
1	 1.329629629629630e+00	 0.000000000000000e+00	 2.019961545472438e+01
1	 1.333333333333333e+00	 0.000000000000000e+00	 2.012388279598354e+01
1	 1.333333333333333e+00	 0.000000000000000e+00	 2.012388279598354e+01
1	 1.337037037037037e+00	 0.000000000000000e+00	 2.004899252900622e+01
1	 1.340740740740741e+00	 0.000000000000000e+00	 1.997498269514274e+01
1	 1.344444444444445e+00	 0.000000000000000e+00	 1.990185271974704e+01
1	 1.348148148148148e+00	 0.000000000000000e+00	 1.982960203448791e+01
1	 1.351851851851852e+00	 0.000000000000000e+00	 1.975823007726240e+01
1	 1.355555555555555e+00	 0.000000000000000e+00	 1.968773629211082e+01
1	 1.359259259259259e+00	 0.000000000000000e+00	 1.961812012913287e+01
1	 1.362962962962963e+00	 0.000000000000000e+00	 1.954938104440564e+01
1	 1.366666666666666e+00	 0.000000000000000e+00	 1.948151849990210e+01
1	 1.370370370370370e+00	 0.000000000000000e+00	 1.941453196341199e+01
1	 1.370370370370370e+00	 0.000000000000000e+00	 1.941453196341199e+01
1	 1.374074074074074e+00	 0.000000000000000e+00	 1.934844786757497e+01
1	 1.377777777777778e+00	 0.000000000000000e+00	 1.928329178087233e+01
1	 1.381481481481481e+00	 0.000000000000000e+00	 1.921906189384242e+01
1	 1.385185185185185e+00	 0.000000000000000e+00	 1.915575641637616e+01
1	 1.388888888888889e+00	 0.000000000000000e+00	 1.909337357745893e+01
1	 1.392592592592593e+00	 0.000000000000000e+00	 1.903191162491683e+01
1	 1.396296296296296e+00	 0.000000000000000e+00	 1.897136882516642e+01
1	 1.400000000000000e+00	 0.000000000000000e+00	 1.891174346296934e+01
1	 1.403703703703704e+00	 0.000000000000000e+00	 1.885303384118971e+01
1	 1.407407407407407e+00	 0.000000000000000e+00	 1.879523828055658e+01
1	 1.407407407407407e+00	 0.000000000000000e+00	 1.879523828055658e+01
1	 1.411111111111111e+00	 0.000000000000000e+00	 1.873838371908797e+01
1	 1.414814814814815e+00	 0.000000000000000e+00	 1.868250175323742e+01
1	 1.418518518518519e+00	 0.000000000000000e+00	 1.862759766296014e+01
1	 1.422222222222222e+00	 0.000000000000000e+00	 1.857367667321193e+01
1	 1.425925925925926e+00	 0.000000000000000e+00	 1.852074395466330e+01
1	 1.429629629629630e+00	 0.000000000000000e+00	 1.846880462440267e+01
1	 1.433333333333333e+00	 0.000000000000000e+00	 1.841786374662864e+01
1	 1.437037037037037e+00	 0.000000000000000e+00	 1.836792633333169e+01
1	 1.440740740740741e+00	 0.000000000000000e+00	 1.831899734496493e+01
1	 1.444444444444445e+00	 0.000000000000000e+00	 1.827108169110517e+01
1	 1.444444444444445e+00	 0.000000000000000e+00	 1.827108169110517e+01
1	 1.448148148148148e+00	 0.000000000000000e+00	 1.822420102053625e+01
1	 1.451851851851852e+00	 0.000000000000000e+00	 1.817837638555437e+01
1	 1.455555555555556e+00	 0.000000000000000e+00	 1.813361173287958e+01
1	 1.459259259259259e+00	 0.000000000000000e+00	 1.808991096916380e+01
1	 1.462962962962963e+00	 0.000000000000000e+00	 1.804727796149790e+01
1	 1.466666666666667e+00	 0.000000000000000e+00	 1.800571653791117e+01
1	 1.470370370370371e+00	 0.000000000000000e+00	 1.796523048786332e+01
1	 1.474074074074074e+00	 0.000000000000000e+00	 1.792582356272924e+01
1	 1.477777777777778e+00	 0.000000000000000e+00	 1.788749947627570e+01
1	 1.481481481481481e+00	 0.000000000000000e+00	 1.785026190513217e+01
1	 1.481481481481481e+00	 0.000000000000000e+00	 1.785026190513217e+01
1	 1.485185185185185e+00	 0.000000000000000e+00	 1.781290110927712e+01
1	 1.488888888888889e+00	 0.000000000000000e+00	 1.777420106813731e+01
1	 1.492592592592593e+00	 0.000000000000000e+00	 1.773415605290543e+01
1	 1.496296296296296e+00	 0.000000000000000e+00	 1.769276039149500e+01
1	 1.500000000000000e+00	 0.000000000000000e+00	 1.765000846784030e+01
1	 1.503703703703704e+00	 0.000000000000000e+00	 1.760589472120615e+01
1	 1.507407407407408e+00	 0.000000000000000e+00	 1.756041364550848e+01
1	 1.511111111111111e+00	 0.000000000000000e+00	 1.751355978864416e+01
1	 1.514814814814815e+00	 0.000000000000000e+00	 1.746532775183170e+01
1	 1.518518518518519e+00	 0.000000000000000e+00	 1.741571218896051e+01
1	 1.518518518518519e+00	 0.000000000000000e+00	 1.741571218896051e+01
1	 1.522222222222222e+00	 0.000000000000000e+00	 1.736471536703122e+01
1	 1.525925925925926e+00	 0.000000000000000e+00	 1.731233693846255e+01
1	 1.529629629629630e+00	 0.000000000000000e+00	 1.725856774142621e+01
1	 1.533333333333334e+00	 0.000000000000000e+00	 1.720339870261412e+01
1	 1.537037037037037e+00	 0.000000000000000e+00	 1.714682083617186e+01
1	 1.540740740740741e+00	 0.000000000000000e+00	 1.708882524264724e+01
1	 1.544444444444445e+00	 0.000000000000000e+00	 1.702940310795471e+01
1	 1.548148148148149e+00	 0.000000000000000e+00	 1.696854570235389e+01
1	 1.551851851851853e+00	 0.000000000000000e+00	 1.690624437944330e+01
1	 1.555555555555556e+00	 0.000000000000000e+00	 1.684249057516824e+01
1	 1.555555555555556e+00	 0.000000000000000e+00	 1.684249057516824e+01
1	 1.559259259259260e+00	 0.000000000000000e+00	 1.677729503031921e+01
1	 1.562962962962963e+00	 0.000000000000000e+00	 1.671067295057097e+01
1	 1.566666666666667e+00	 0.000000000000000e+00	 1.664262254317222e+01
1	 1.570370370370370e+00	 0.000000000000000e+00	 1.657314203228424e+01
1	 1.574074074074074e+00	 0.000000000000000e+00	 1.650222965878230e+01
1	 1.577777777777778e+00	 0.000000000000000e+00	 1.642988368005916e+01
1	 1.581481481481481e+00	 0.000000000000000e+00	 1.635610236983171e+01
1	 1.585185185185185e+00	 0.000000000000000e+00	 1.628088401795052e+01
1	 1.588888888888889e+00	 0.000000000000000e+00	 1.620422693021148e+01
1	 1.592592592592593e+00	 0.000000000000000e+00	 1.612612942817031e+01
1	 1.592592592592593e+00	 0.000000000000000e+00	 1.612612942817031e+01
1	 1.596296296296297e+00	 0.000000000000000e+00	 1.604658922177879e+01
1	 1.600000000000000e+00	 0.000000000000000e+00	 1.596560007137696e+01
1	 1.603703703703704e+00	 0.000000000000000e+00	 1.588315443840862e+01
1	 1.607407407407407e+00	 0.000000000000000e+00	 1.579924485379716e+01
1	 1.611111111111111e+00	 0.000000000000000e+00	 1.571386391714718e+01
1	 1.614814814814816e+00	 0.000000000000000e+00	 1.562700429595674e+01
1	 1.618518518518519e+00	 0.000000000000000e+00	 1.553865872484072e+01
1	 1.622222222222223e+00	 0.000000000000000e+00	 1.544882000476457e+01
1	 1.625925925925927e+00	 0.000000000000000e+00	 1.535748100228841e+01
1	 1.629629629629630e+00	 0.000000000000000e+00	 1.526463464882220e+01
1	 1.629629629629630e+00	 0.000000000000000e+00	 1.526463464882220e+01
1	 1.633333333333334e+00	 0.000000000000000e+00	 1.517029299466885e+01
1	 1.637037037037037e+00	 0.000000000000000e+00	 1.507447314976056e+01
1	 1.640740740740741e+00	 0.000000000000000e+00	 1.497717567929163e+01
1	 1.644444444444444e+00	 0.000000000000000e+00	 1.487840114336441e+01
1	 1.648148148148148e+00	 0.000000000000000e+00	 1.477815009704710e+01
1	 1.651851851851852e+00	 0.000000000000000e+00	 1.467642309042913e+01
1	 1.655555555555555e+00	 0.000000000000000e+00	 1.457322066867765e+01
1	 1.659259259259259e+00	 0.000000000000000e+00	 1.446854337209241e+01
1	 1.662962962962963e+00	 0.000000000000000e+00	 1.436239173615972e+01
1	 1.666666666666666e+00	 0.000000000000000e+00	 1.425476629160569e+01
1	 1.666666666666666e+00	 0.000000000000000e+00	 1.425476629160570e+01
1	 1.670370370370370e+00	 0.000000000000000e+00	 1.414566207990977e+01
1	 1.674074074074074e+00	 0.000000000000000e+00	 1.403506960183029e+01
1	 1.677777777777778e+00	 0.000000000000000e+00	 1.392298261508930e+01
1	 1.681481481481482e+00	 0.000000000000000e+00	 1.380939493240705e+01
1	 1.685185185185185e+00	 0.000000000000000e+00	 1.369430042089732e+01
1	 1.688888888888889e+00	 0.000000000000000e+00	 1.357769300147119e+01
1	 1.692592592592593e+00	 0.000000000000000e+00	 1.345956664824833e+01
1	 1.696296296296297e+00	 0.000000000000000e+00	 1.333991538797632e+01
1	 1.700000000000000e+00	 0.000000000000000e+00	 1.321873329945717e+01
1	 1.703703703703704e+00	 0.000000000000000e+00	 1.309601451298150e+01
1	 1.703703703703704e+00	 0.000000000000000e+00	 1.309601451298150e+01
1	 1.707407407407407e+00	 0.000000000000000e+00	 1.297177040746034e+01
1	 1.711111111111111e+00	 0.000000000000000e+00	 1.284601766588006e+01
1	 1.714814814814815e+00	 0.000000000000000e+00	 1.271875839915855e+01
1	 1.718518518518518e+00	 0.000000000000000e+00	 1.258999470001610e+01
1	 1.722222222222222e+00	 0.000000000000000e+00	 1.245972864317092e+01
1	 1.725925925925926e+00	 0.000000000000000e+00	 1.232796228553267e+01
1	 1.729629629629629e+00	 0.000000000000000e+00	 1.219469766639287e+01
1	 1.733333333333333e+00	 0.000000000000000e+00	 1.205993680761319e+01
1	 1.737037037037037e+00	 0.000000000000000e+00	 1.192368171381140e+01
1	 1.740740740740740e+00	 0.000000000000000e+00	 1.178593437254444e+01
1	 1.740740740740740e+00	 0.000000000000000e+00	 1.178593437254444e+01
1	 1.744444444444444e+00	 0.000000000000000e+00	 1.164669142022996e+01
1	 1.748148148148148e+00	 0.000000000000000e+00	 1.150594614184450e+01
1	 1.751851851851852e+00	 0.000000000000000e+00	 1.136369550445638e+01
1	 1.755555555555556e+00	 0.000000000000000e+00	 1.121993650072813e+01
1	 1.759259259259260e+00	 0.000000000000000e+00	 1.107466614864750e+01
1	 1.762962962962963e+00	 0.000000000000000e+00	 1.092788149126079e+01
1	 1.766666666666667e+00	 0.000000000000000e+00	 1.077957959641090e+01
1	 1.770370370370371e+00	 0.000000000000000e+00	 1.062975755647749e+01
1	 1.774074074074075e+00	 0.000000000000000e+00	 1.047841248812086e+01
1	 1.777777777777778e+00	 0.000000000000000e+00	 1.032554153202936e+01
1	 1.777777777777778e+00	 0.000000000000000e+00	 1.032554153202936e+01
1	 1.781481481481481e+00	 0.000000000000000e+00	 1.017115496812436e+01
1	 1.785185185185185e+00	 0.000000000000000e+00	 1.001526391649727e+01
1	 1.788888888888889e+00	 0.000000000000000e+00	 9.857866805782793e+00
1	 1.792592592592593e+00	 0.000000000000000e+00	 9.698962077602186e+00
1	 1.796296296296296e+00	 0.000000000000000e+00	 9.538548186429347e+00
1	 1.800000000000000e+00	 0.000000000000000e+00	 9.376623599458474e+00
1	 1.803703703703703e+00	 0.000000000000000e+00	 9.213186796473403e+00
1	 1.807407407407407e+00	 0.000000000000000e+00	 9.048236269719155e+00
1	 1.811111111111111e+00	 0.000000000000000e+00	 8.881770523773721e+00
1	 1.814814814814815e+00	 0.000000000000000e+00	 8.713788075422906e+00
1	 1.814814814814815e+00	 0.000000000000000e+00	 8.713788075422906e+00
1	 1.818518518518518e+00	 0.000000000000000e+00	 8.544286359154290e+00
1	 1.822222222222222e+00	 0.000000000000000e+00	 8.373264139222576e+00
1	 1.825925925925926e+00	 0.000000000000000e+00	 8.200721932977173e+00
1	 1.829629629629630e+00	 0.000000000000000e+00	 8.026660253578514e+00
1	 1.833333333333333e+00	 0.000000000000000e+00	 7.851079610040265e+00
1	 1.837037037037038e+00	 0.000000000000000e+00	 7.673980507271223e+00
1	 1.840740740740741e+00	 0.000000000000000e+00	 7.495363446116325e+00
1	 1.844444444444445e+00	 0.000000000000000e+00	 7.315228923397777e+00
1	 1.848148148148149e+00	 0.000000000000000e+00	 7.133577431955340e+00
1	 1.851851851851852e+00	 0.000000000000000e+00	 6.950409460685965e+00
1	 1.851851851851852e+00	 0.000000000000000e+00	 6.950409460685965e+00
1	 1.855555555555556e+00	 0.000000000000000e+00	 6.767799973359220e+00
1	 1.859259259259259e+00	 0.000000000000000e+00	 6.587810246141256e+00
1	 1.862962962962963e+00	 0.000000000000000e+00	 6.410420353145568e+00
1	 1.866666666666666e+00	 0.000000000000000e+00	 6.235610526627614e+00
1	 1.870370370370370e+00	 0.000000000000000e+00	 6.063361155419093e+00
1	 1.874074074074074e+00	 0.000000000000000e+00	 5.893652783380658e+00
1	 1.877777777777778e+00	 0.000000000000000e+00	 5.726466107873118e+00
1	 1.881481481481481e+00	 0.000000000000000e+00	 5.561781978246516e+00
1	 1.885185185185185e+00	 0.000000000000000e+00	 5.399581394347173e+00
1	 1.888888888888889e+00	 0.000000000000000e+00	 5.239845505042213e+00
1	 1.888888888888889e+00	 0.000000000000000e+00	 5.239845505042213e+00
1	 1.892592592592593e+00	 0.000000000000000e+00	 5.082573948236567e+00
1	 1.896296296296296e+00	 0.000000000000000e+00	 4.927769753478921e+00
1	 1.900000000000000e+00	 0.000000000000000e+00	 4.775419347831899e+00
1	 1.903703703703704e+00	 0.000000000000000e+00	 4.625509263984166e+00
1	 1.907407407407407e+00	 0.000000000000000e+00	 4.478026139224789e+00
1	 1.911111111111111e+00	 0.000000000000000e+00	 4.332956714429790e+00
1	 1.914814814814815e+00	 0.000000000000000e+00	 4.190287833060359e+00
1	 1.918518518518519e+00	 0.000000000000000e+00	 4.050006440172473e+00
1	 1.922222222222223e+00	 0.000000000000000e+00	 3.912099581438238e+00
1	 1.925925925925926e+00	 0.000000000000000e+00	 3.776554402178571e+00
1	 1.925925925925926e+00	 0.000000000000000e+00	 3.776554402178571e+00
1	 1.929629629629629e+00	 0.000000000000000e+00	 3.643435309976960e+00
1	 1.933333333333333e+00	 0.000000000000000e+00	 3.512816987162126e+00
1	 1.937037037037037e+00	 0.000000000000000e+00	 3.384702050239166e+00
1	 1.940740740740740e+00	 0.000000000000000e+00	 3.259093095739729e+00
1	 1.944444444444444e+00	 0.000000000000000e+00	 3.135992700412431e+00
1	 1.948148148148148e+00	 0.000000000000000e+00	 3.015403421410798e+00
1	 1.951851851851851e+00	 0.000000000000000e+00	 2.897327796479296e+00
1	 1.955555555555555e+00	 0.000000000000000e+00	 2.781768344137006e+00
1	 1.959259259259259e+00	 0.000000000000000e+00	 2.668727563859365e+00
1	 1.962962962962963e+00	 0.000000000000000e+00	 2.558207936257873e+00
1	 1.962962962962963e+00	 0.000000000000000e+00	 2.558207936257873e+00
1	 1.966666666666667e+00	 0.000000000000000e+00	 2.450226056633690e+00
1	 1.970370370370370e+00	 0.000000000000000e+00	 2.344987124447947e+00
1	 1.974074074074074e+00	 0.000000000000000e+00	 2.242774906284819e+00
1	 1.977777777777778e+00	 0.000000000000000e+00	 2.143871043136147e+00
1	 1.981481481481481e+00	 0.000000000000000e+00	 2.048555070266734e+00
1	 1.985185185185185e+00	 0.000000000000000e+00	 1.957104436857326e+00
1	 1.988888888888889e+00	 0.000000000000000e+00	 1.869794525428050e+00
1	 1.992592592592593e+00	 0.000000000000000e+00	 1.786898671045400e+00
1	 1.996296296296297e+00	 0.000000000000000e+00	 1.708688180315253e+00
1	 2.000000000000000e+00	 0.000000000000000e+00	 1.635432350164931e+00
