patch_n	x	y	stress_yy
0	 1.000000e+00	 0.000000e+00	 3.115623e+01
0	 9.999184e-01	 1.277180e-02	 3.114333e+01
0	 9.996730e-01	 2.557294e-02	 3.110696e+01
0	 9.992624e-01	 3.840038e-02	 3.104714e+01
0	 9.986858e-01	 5.125101e-02	 3.096394e+01
0	 9.979421e-01	 6.412169e-02	 3.085747e+01
0	 1.066667e+00	 0.000000e+00	 2.666142e+01
0	 1.066750e+00	 1.395072e-02	 2.664367e+01
0	 1.066668e+00	 2.793590e-02	 2.660769e+01
0	 1.066419e+00	 4.195230e-02	 2.655346e+01
0	 1.066001e+00	 5.599659e-02	 2.648100e+01
0	 1.065415e+00	 7.006541e-02	 2.639038e+01
0	 1.133333e+00	 0.000000e+00	 2.349983e+01
0	 1.133577e+00	 1.512954e-02	 2.348003e+01
0	 1.133653e+00	 3.029848e-02	 2.344636e+01
0	 1.133559e+00	 4.550336e-02	 2.339877e+01
0	 1.133296e+00	 6.074065e-02	 2.333726e+01
0	 1.132861e+00	 7.600680e-02	 2.326187e+01
0	 1.200000e+00	 0.000000e+00	 2.121838e+01
0	 1.200398e+00	 1.630826e-02	 2.119836e+01
0	 1.200626e+00	 3.266066e-02	 2.116806e+01
0	 1.200683e+00	 4.905355e-02	 2.112742e+01
0	 1.200568e+00	 6.548321e-02	 2.107644e+01
0	 1.200280e+00	 8.194586e-02	 2.101510e+01
0	 1.266667e+00	 0.000000e+00	 1.948606e+01
0	 1.267213e+00	 1.748688e-02	 1.946690e+01
0	 1.267588e+00	 3.502246e-02	 1.944034e+01
0	 1.267791e+00	 5.260288e-02	 1.940632e+01
0	 1.267820e+00	 7.022425e-02	 1.936481e+01
0	 1.267674e+00	 8.788260e-02	 1.931582e+01
0	 1.333333e+00	 0.000000e+00	 1.805544e+01
0	 1.334023e+00	 1.866540e-02	 1.803763e+01
0	 1.334539e+00	 3.738387e-02	 1.801459e+01
0	 1.334882e+00	 5.615135e-02	 1.798627e+01
0	 1.335049e+00	 7.496378e-02	 1.795266e+01
0	 1.335041e+00	 9.381700e-02	 1.791375e+01
0	 9.979421e-01	 6.412169e-02	 3.085747e+01
0	 9.970304e-01	 7.700924e-02	 3.072773e+01
0	 9.959499e-01	 8.991045e-02	 3.057469e+01
0	 9.946998e-01	 1.028221e-01	 3.039854e+01
0	 9.932795e-01	 1.157408e-01	 3.019951e+01
0	 9.916883e-01	 1.286633e-01	 2.997787e+01
0	 1.065415e+00	 7.006541e-02	 2.639038e+01
0	 1.064658e+00	 8.415537e-02	 2.628185e+01
0	 1.063730e+00	 9.826302e-02	 2.615567e+01
0	 1.062630e+00	 1.123849e-01	 2.601195e+01
0	 1.061358e+00	 1.265175e-01	 2.585088e+01
0	 1.059912e+00	 1.406572e-01	 2.567264e+01
0	 1.132861e+00	 7.600680e-02	 2.326187e+01
0	 1.132254e+00	 9.129819e-02	 2.317295e+01
0	 1.131474e+00	 1.066112e-01	 2.307089e+01
0	 1.130520e+00	 1.219420e-01	 2.295576e+01
0	 1.129391e+00	 1.372871e-01	 2.282769e+01
0	 1.128087e+00	 1.526425e-01	 2.268683e+01
0	 1.200280e+00	 8.194586e-02	 2.101510e+01
0	 1.199818e+00	 9.843771e-02	 2.094381e+01
0	 1.199181e+00	 1.149549e-01	 2.086294e+01
0	 1.198369e+00	 1.314935e-01	 2.077256e+01
0	 1.197379e+00	 1.480495e-01	 2.067277e+01
0	 1.196212e+00	 1.646191e-01	 2.056370e+01
0	 1.267674e+00	 8.788260e-02	 1.931582e+01
0	 1.267352e+00	 1.055739e-01	 1.925967e+01
0	 1.266853e+00	 1.232942e-01	 1.919674e+01
0	 1.266177e+00	 1.410392e-01	 1.912706e+01
0	 1.265323e+00	 1.588049e-01	 1.905072e+01
0	 1.264289e+00	 1.765871e-01	 1.896782e+01
0	 1.335041e+00	 9.381700e-02	 1.791375e+01
0	 1.334854e+00	 1.127068e-01	 1.786981e+01
0	 1.334490e+00	 1.316290e-01	 1.782112e+01
0	 1.333946e+00	 1.505793e-01	 1.776775e+01
0	 1.333221e+00	 1.695532e-01	 1.770976e+01
0	 1.332317e+00	 1.885465e-01	 1.764725e+01
0	 9.916883e-01	 1.286633e-01	 2.997787e+01
0	 9.899259e-01	 1.415864e-01	 2.973389e+01
0	 9.879918e-01	 1.545065e-01	 2.946787e+01
0	 9.858856e-01	 1.674204e-01	 2.918025e+01
0	 9.836071e-01	 1.803247e-01	 2.887149e+01
0	 9.811563e-01	 1.932158e-01	 2.854213e+01
0	 1.059912e+00	 1.406572e-01	 2.567264e+01
0	 1.058293e+00	 1.548006e-01	 2.547782e+01
0	 1.056500e+00	 1.689439e-01	 2.526701e+01
0	 1.054532e+00	 1.830836e-01	 2.504051e+01
0	 1.052389e+00	 1.972161e-01	 2.479866e+01
0	 1.050071e+00	 2.113376e-01	 2.454182e+01
0	 1.128087e+00	 1.526425e-01	 2.268683e+01
0	 1.126607e+00	 1.680045e-01	 2.253385e+01
0	 1.124950e+00	 1.833693e-01	 2.236940e+01
0	 1.123117e+00	 1.987330e-01	 2.219369e+01
0	 1.121107e+00	 2.140917e-01	 2.200699e+01
0	 1.118919e+00	 2.294416e-01	 2.180956e+01
0	 1.196212e+00	 1.646191e-01	 2.056370e+01
0	 1.194867e+00	 1.811981e-01	 2.044593e+01
0	 1.193344e+00	 1.977826e-01	 2.032005e+01
0	 1.191642e+00	 2.143685e-01	 2.018623e+01
0	 1.189760e+00	 2.309516e-01	 2.004468e+01
0	 1.187699e+00	 2.475279e-01	 1.989560e+01
0	 1.264289e+00	 1.765871e-01	 1.896782e+01
0	 1.263075e+00	 1.943816e-01	 1.887882e+01
0	 1.261681e+00	 2.121840e-01	 1.878417e+01
0	 1.260106e+00	 2.299902e-01	 1.868401e+01
0	 1.258350e+00	 2.477958e-01	 1.857850e+01
0	 1.256413e+00	 2.655965e-01	 1.846785e+01
0	 1.332317e+00	 1.885465e-01	 1.764725e+01
0	 1.331230e+00	 2.075548e-01	 1.758051e+01
0	 1.329962e+00	 2.265735e-01	 1.750983e+01
0	 1.328510e+00	 2.455982e-01	 1.743535e+01
0	 1.326876e+00	 2.646243e-01	 1.735723e+01
0	 1.325059e+00	 2.836475e-01	 1.727563e+01
0	 9.811563e-01	 1.932158e-01	 2.854213e+01
0	 9.785329e-01	 2.060905e-01	 2.819270e+01
0	 9.757371e-01	 2.189453e-01	 2.782376e+01
0	 9.727690e-01	 2.317767e-01	 2.743597e+01
0	 9.696288e-01	 2.445813e-01	 2.703002e+01
0	 9.663168e-01	 2.573556e-01	 2.660669e+01
0	 1.050071e+00	 2.113376e-01	 2.454182e+01
0	 1.047579e+00	 2.254445e-01	 2.427080e+01
0	 1.044911e+00	 2.395331e-01	 2.398638e+01
0	 1.042068e+00	 2.535998e-01	 2.368901e+01
0	 1.039051e+00	 2.676408e-01	 2.337919e+01
0	 1.035858e+00	 2.816524e-01	 2.305743e+01
0	 1.118919e+00	 2.294416e-01	 2.180956e+01
0	 1.116554e+00	 2.447787e-01	 2.160219e+01
0	 1.114011e+00	 2.600991e-01	 2.138568e+01
0	 1.111291e+00	 2.753989e-01	 2.116036e+01
0	 1.108393e+00	 2.906742e-01	 2.092658e+01
0	 1.105319e+00	 3.059209e-01	 2.068471e+01
0	 1.187699e+00	 2.475279e-01	 1.989560e+01
0	 1.185459e+00	 2.640932e-01	 1.973965e+01
0	 1.183038e+00	 2.806433e-01	 1.957747e+01
0	 1.180438e+00	 2.971741e-01	 1.940931e+01
0	 1.177658e+00	 3.136815e-01	 1.923546e+01
0	 1.174698e+00	 3.301611e-01	 1.905621e+01
0	 1.256413e+00	 2.655965e-01	 1.846785e+01
0	 1.254293e+00	 2.833879e-01	 1.835247e+01
0	 1.251992e+00	 3.011656e-01	 1.823280e+01
0	 1.249509e+00	 3.189254e-01	 1.810907e+01
0	 1.246844e+00	 3.366626e-01	 1.798151e+01
0	 1.243997e+00	 3.543731e-01	 1.785036e+01
0	 1.325059e+00	 2.836475e-01	 1.727563e+01
0	 1.323057e+00	 3.026629e-01	 1.719076e+01
0	 1.320873e+00	 3.216662e-01	 1.710285e+01
0	 1.318504e+00	 3.406527e-01	 1.701209e+01
0	 1.315951e+00	 3.596178e-01	 1.691871e+01
0	 1.313215e+00	 3.785569e-01	 1.682294e+01
0	 9.663168e-01	 2.573556e-01	 2.660669e+01
0	 9.628333e-01	 2.700963e-01	 2.616672e+01
0	 9.591790e-01	 2.827998e-01	 2.571090e+01
0	 9.553543e-01	 2.954628e-01	 2.524006e+01
0	 9.513599e-01	 3.080818e-01	 2.475509e+01
0	 9.471966e-01	 3.206534e-01	 2.425690e+01
0	 1.035858e+00	 2.816524e-01	 2.305743e+01
0	 1.032492e+00	 2.956310e-01	 2.272463e+01
0	 1.028952e+00	 3.095728e-01	 2.238170e+01
0	 1.025238e+00	 3.234741e-01	 2.202920e+01
0	 1.021352e+00	 3.373313e-01	 2.166774e+01
0	 1.017294e+00	 3.511407e-01	 2.129791e+01
0	 1.105319e+00	 3.059209e-01	 2.068471e+01
0	 1.102067e+00	 3.211352e-01	 2.043556e+01
0	 1.098639e+00	 3.363131e-01	 2.017995e+01
0	 1.095035e+00	 3.514506e-01	 1.991826e+01
0	 1.091256e+00	 3.665439e-01	 1.965093e+01
0	 1.087302e+00	 3.815890e-01	 1.937839e+01
0	 1.174698e+00	 3.301611e-01	 1.905621e+01
0	 1.171559e+00	 3.466090e-01	 1.887213e+01
0	 1.168242e+00	 3.630208e-01	 1.868382e+01
0	 1.164745e+00	 3.793924e-01	 1.849158e+01
0	 1.161071e+00	 3.957197e-01	 1.829575e+01
0	 1.157220e+00	 4.119984e-01	 1.809664e+01
0	 1.243997e+00	 3.543731e-01	 1.785036e+01
0	 1.240969e+00	 3.720523e-01	 1.771593e+01
0	 1.237759e+00	 3.896959e-01	 1.757854e+01
0	 1.234369e+00	 4.072995e-01	 1.743847e+01
0	 1.230799e+00	 4.248586e-01	 1.729598e+01
0	 1.227048e+00	 4.423690e-01	 1.715137e+01
0	 1.313215e+00	 3.785569e-01	 1.682294e+01
0	 1.310295e+00	 3.974654e-01	 1.672482e+01
0	 1.307192e+00	 4.163386e-01	 1.662441e+01
0	 1.303906e+00	 4.351720e-01	 1.652198e+01
0	 1.300438e+00	 4.539609e-01	 1.641779e+01
0	 1.296788e+00	 4.727008e-01	 1.631211e+01
0	 9.471966e-01	 3.206534e-01	 2.425690e+01
0	 9.428653e-01	 3.331743e-01	 2.374642e+01
0	 9.383668e-01	 3.456410e-01	 2.322456e+01
0	 9.337023e-01	 3.580504e-01	 2.269227e+01
0	 9.288728e-01	 3.703989e-01	 2.215054e+01
0	 9.238795e-01	 3.826834e-01	 2.160036e+01
0	 1.017294e+00	 3.511407e-01	 2.129791e+01
0	 1.013065e+00	 3.648987e-01	 2.092064e+01
0	 1.008665e+00	 3.786016e-01	 2.053680e+01
0	 1.004097e+00	 3.922459e-01	 2.014703e+01
0	 9.993600e-01	 4.058279e-01	 1.975198e+01
0	 9.944563e-01	 4.193441e-01	 1.935230e+01
0	 1.087302e+00	 3.815890e-01	 1.937839e+01
0	 1.083173e+00	 3.965821e-01	 1.910135e+01
0	 1.078872e+00	 4.115192e-01	 1.882049e+01
0	 1.074399e+00	 4.263965e-01	 1.853628e+01
0	 1.069755e+00	 4.412102e-01	 1.824915e+01
0	 1.064940e+00	 4.559565e-01	 1.795956e+01
0	 1.157220e+00	 4.119984e-01	 1.809664e+01
0	 1.153192e+00	 4.282246e-01	 1.789469e+01
0	 1.148988e+00	 4.443939e-01	 1.769032e+01
0	 1.144609e+00	 4.605024e-01	 1.748387e+01
0	 1.140056e+00	 4.765460e-01	 1.727567e+01
0	 1.135331e+00	 4.925207e-01	 1.706609e+01
0	 1.227048e+00	 4.423690e-01	 1.715137e+01
0	 1.223119e+00	 4.598262e-01	 1.700474e+01
0	 1.219012e+00	 4.772258e-01	 1.685623e+01
0	 1.214727e+00	 4.945637e-01	 1.670614e+01
0	 1.210266e+00	 5.118354e-01	 1.655475e+01
0	 1.205629e+00	 5.290368e-01	 1.640237e+01
0	 1.296788e+00	 4.727008e-01	 1.631211e+01
0	 1.292957e+00	 4.913870e-01	 1.620478e+01
0	 1.288945e+00	 5.100151e-01	 1.609568e+01
0	 1.284754e+00	 5.285804e-01	 1.598511e+01
0	 1.280383e+00	 5.470785e-01	 1.587334e+01
0	 1.275835e+00	 5.655049e-01	 1.576066e+01
0	 9.238795e-01	 3.826834e-01	 2.160036e+01
0	 9.187238e-01	 3.949007e-01	 2.104275e+01
0	 9.134071e-01	 4.070474e-01	 2.047867e+01
0	 9.079307e-01	 4.191204e-01	 1.990911e+01
0	 9.022962e-01	 4.311166e-01	 1.933505e+01
0	 8.965053e-01	 4.430329e-01	 1.875752e+01
0	 9.944563e-01	 4.193441e-01	 1.935230e+01
0	 9.893868e-01	 4.327910e-01	 1.894881e+01
0	 9.841529e-01	 4.461652e-01	 1.854228e+01
0	 9.787560e-01	 4.594632e-01	 1.813336e+01
0	 9.731977e-01	 4.726815e-01	 1.772270e+01
0	 9.674794e-01	 4.858169e-01	 1.731094e+01
0	 1.064940e+00	 4.559565e-01	 1.795956e+01
0	 1.059957e+00	 4.706316e-01	 1.766803e+01
0	 1.054806e+00	 4.852318e-01	 1.737507e+01
0	 1.049489e+00	 4.997533e-01	 1.708113e+01
0	 1.044007e+00	 5.141927e-01	 1.678664e+01
0	 1.038363e+00	 5.285462e-01	 1.649206e+01
0	 1.135331e+00	 4.925207e-01	 1.706609e+01
0	 1.130434e+00	 5.084224e-01	 1.685530e+01
0	 1.125367e+00	 5.242471e-01	 1.664353e+01
0	 1.120130e+00	 5.399910e-01	 1.643111e+01
0	 1.114726e+00	 5.556502e-01	 1.621839e+01
0	 1.109155e+00	 5.712208e-01	 1.600569e+01
0	 1.205629e+00	 5.290368e-01	 1.640237e+01
0	 1.200819e+00	 5.461635e-01	 1.624890e+01
0	 1.195835e+00	 5.632114e-01	 1.609426e+01
0	 1.190679e+00	 5.801763e-01	 1.593875e+01
0	 1.185353e+00	 5.970542e-01	 1.578268e+01
0	 1.179858e+00	 6.138409e-01	 1.562633e+01
0	 1.275835e+00	 5.655049e-01	 1.576066e+01
0	 1.271111e+00	 5.838551e-01	 1.564676e+01
0	 1.266211e+00	 6.021247e-01	 1.553132e+01
0	 1.261136e+00	 6.203094e-01	 1.541466e+01
0	 1.255889e+00	 6.384048e-01	 1.529706e+01
0	 1.250469e+00	 6.564066e-01	 1.517881e+01
0	 8.965053e-01	 4.430329e-01	 1.875752e+01
0	 8.905597e-01	 4.548663e-01	 1.817749e+01
0	 8.844612e-01	 4.666137e-01	 1.759592e+01
0	 8.782116e-01	 4.782723e-01	 1.701373e+01
0	 8.718129e-01	 4.898391e-01	 1.643184e+01
0	 8.652670e-01	 5.013112e-01	 1.585119e+01
0	 9.674794e-01	 4.858169e-01	 1.731094e+01
0	 9.616029e-01	 4.988661e-01	 1.689873e+01
0	 9.555699e-01	 5.118257e-01	 1.648666e+01
0	 9.493823e-01	 5.246926e-01	 1.607535e+01
0	 9.430419e-01	 5.374637e-01	 1.566540e+01
0	 9.365507e-01	 5.501359e-01	 1.525741e+01
0	 1.038363e+00	 5.285462e-01	 1.649206e+01
0	 1.032556e+00	 5.428103e-01	 1.619767e+01
0	 1.026590e+00	 5.569815e-01	 1.590374e+01
0	 1.020466e+00	 5.710564e-01	 1.561071e+01
0	 1.014186e+00	 5.850315e-01	 1.531898e+01
0	 1.007751e+00	 5.989036e-01	 1.502898e+01
0	 1.109155e+00	 5.712208e-01	 1.600569e+01
0	 1.103420e+00	 5.866990e-01	 1.579300e+01
0	 1.097522e+00	 6.020812e-01	 1.558029e+01
0	 1.091463e+00	 6.173635e-01	 1.536790e+01
0	 1.085245e+00	 6.325425e-01	 1.515615e+01
0	 1.078869e+00	 6.476145e-01	 1.494535e+01
0	 1.179858e+00	 6.138409e-01	 1.562633e+01
0	 1.174195e+00	 6.305325e-01	 1.546942e+01
0	 1.168367e+00	 6.471249e-01	 1.531171e+01
0	 1.162374e+00	 6.636143e-01	 1.515349e+01
0	 1.156219e+00	 6.799968e-01	 1.499505e+01
0	 1.149904e+00	 6.962687e-01	 1.483665e+01
0	 1.250469e+00	 6.564066e-01	 1.517881e+01
0	 1.244880e+00	 6.743106e-01	 1.505946e+01
0	 1.239123e+00	 6.921127e-01	 1.493862e+01
0	 1.233198e+00	 7.098087e-01	 1.481658e+01
0	 1.227109e+00	 7.273945e-01	 1.469362e+01
0	 1.220856e+00	 7.448662e-01	 1.457001e+01
0	 8.652670e-01	 5.013112e-01	 1.585119e+01
0	 8.585762e-01	 5.126860e-01	 1.527269e+01
0	 8.517424e-01	 5.239607e-01	 1.469719e+01
0	 8.447680e-01	 5.351326e-01	 1.412549e+01
0	 8.376553e-01	 5.461993e-01	 1.355837e+01
0	 8.304065e-01	 5.571580e-01	 1.299664e+01
0	 9.365507e-01	 5.501359e-01	 1.525741e+01
0	 9.299107e-01	 5.627060e-01	 1.485180e+01
0	 9.231241e-01	 5.751713e-01	 1.444897e+01
0	 9.161931e-01	 5.875287e-01	 1.404945e+01
0	 9.091198e-01	 5.997755e-01	 1.365378e+01
0	 9.019067e-01	 6.119089e-01	 1.326248e+01
0	 1.007751e+00	 5.989036e-01	 1.502898e+01
0	 1.001164e+00	 6.126693e-01	 1.474074e+01
0	 9.944274e-01	 6.263256e-01	 1.445431e+01
0	 9.875423e-01	 6.398692e-01	 1.417009e+01
0	 9.805114e-01	 6.532970e-01	 1.388845e+01
0	 9.733369e-01	 6.666062e-01	 1.360975e+01
0	 1.078869e+00	 6.476145e-01	 1.494535e+01
0	 1.072337e+00	 6.625760e-01	 1.473528e+01
0	 1.065652e+00	 6.774237e-01	 1.452574e+01
0	 1.058816e+00	 6.921540e-01	 1.431704e+01
0	 1.051830e+00	 7.067639e-01	 1.410946e+01
0	 1.044697e+00	 7.212500e-01	 1.390331e+01
0	 1.149904e+00	 6.962687e-01	 1.483665e+01
0	 1.143429e+00	 7.124261e-01	 1.467790e+01
0	 1.136799e+00	 7.284656e-01	 1.451845e+01
0	 1.130014e+00	 7.443834e-01	 1.435856e+01
0	 1.123076e+00	 7.601762e-01	 1.419850e+01
0	 1.115988e+00	 7.758403e-01	 1.403853e+01
0	 1.220856e+00	 7.448662e-01	 1.457001e+01
0	 1.214441e+00	 7.622198e-01	 1.444528e+01
0	 1.207867e+00	 7.794515e-01	 1.431899e+01
0	 1.201136e+00	 7.965574e-01	 1.419141e+01
0	 1.194249e+00	 8.135339e-01	 1.406281e+01
0	 1.187209e+00	 8.303774e-01	 1.393343e+01
0	 8.304065e-01	 5.571580e-01	 1.299664e+01
0	 8.230241e-01	 5.680065e-01	 1.244102e+01
0	 8.155105e-01	 5.787423e-01	 1.189220e+01
0	 8.078683e-01	 5.893631e-01	 1.135082e+01
0	 8.001000e-01	 5.998666e-01	 1.081752e+01
0	 7.922083e-01	 6.102508e-01	 1.029291e+01
0	 9.019067e-01	 6.119089e-01	 1.326248e+01
0	 8.945560e-01	 6.239261e-01	 1.287575e+01
0	 8.870702e-01	 6.358247e-01	 1.249378e+01
0	 8.794518e-01	 6.476020e-01	 1.211702e+01
0	 8.717032e-01	 6.592556e-01	 1.174593e+01
0	 8.638272e-01	 6.707830e-01	 1.138093e+01
0	 9.733369e-01	 6.666062e-01	 1.360975e+01
0	 9.660212e-01	 6.797937e-01	 1.333386e+01
0	 9.585667e-01	 6.928567e-01	 1.306063e+01
0	 9.509757e-01	 7.057925e-01	 1.279042e+01
0	 9.432509e-01	 7.185983e-01	 1.252356e+01
0	 9.353947e-01	 7.312717e-01	 1.226035e+01
0	 1.044697e+00	 7.212500e-01	 1.390331e+01
0	 1.037420e+00	 7.356091e-01	 1.369822e+01
0	 1.030000e+00	 7.498383e-01	 1.349389e+01
0	 1.022440e+00	 7.639346e-01	 1.329060e+01
0	 1.014743e+00	 7.778950e-01	 1.308861e+01
0	 1.006911e+00	 7.917168e-01	 1.288818e+01
0	 1.115988e+00	 7.758403e-01	 1.403853e+01
0	 1.108752e+00	 7.913726e-01	 1.387821e+01
0	 1.101370e+00	 8.067697e-01	 1.371714e+01
0	 1.093845e+00	 8.220284e-01	 1.355557e+01
0	 1.086179e+00	 8.371457e-01	 1.339375e+01
0	 1.078375e+00	 8.521185e-01	 1.323190e+01
0	 1.187209e+00	 8.303774e-01	 1.393343e+01
0	 1.180018e+00	 8.470841e-01	 1.380285e+01
0	 1.172678e+00	 8.636508e-01	 1.367066e+01
0	 1.165191e+00	 8.800740e-01	 1.353710e+01
0	 1.157561e+00	 8.963504e-01	 1.340243e+01
0	 1.149788e+00	 9.124767e-01	 1.326685e+01
0	 7.922083e-01	 6.102508e-01	 1.029291e+01
0	 7.841957e-01	 6.205135e-01	 9.777482e+00
0	 7.760651e-01	 6.306528e-01	 9.271666e+00
0	 7.678192e-01	 6.406666e-01	 8.776033e+00
0	 7.594607e-01	 6.505532e-01	 8.291129e+00
0	 7.509925e-01	 6.603107e-01	 7.817481e+00
0	 8.638272e-01	 6.707830e-01	 1.138093e+01
0	 8.558264e-01	 6.821821e-01	 1.102203e+01
0	 8.477033e-01	 6.934505e-01	 1.066924e+01
0	 8.394608e-01	 7.045861e-01	 1.032298e+01
0	 8.311016e-01	 7.155869e-01	 9.983614e+00
0	 8.226285e-01	 7.264508e-01	 9.651529e+00
0	 9.353947e-01	 7.312717e-01	 1.226035e+01
0	 9.274098e-01	 7.438099e-01	 1.200053e+01
0	 9.192988e-01	 7.562107e-01	 1.174386e+01
0	 9.110644e-01	 7.684716e-01	 1.149064e+01
0	 9.027093e-01	 7.805904e-01	 1.124116e+01
0	 8.942364e-01	 7.925649e-01	 1.099568e+01
0	 1.006911e+00	 7.917168e-01	 1.288818e+01
0	 9.989460e-01	 8.053971e-01	 1.268891e+01
0	 9.908515e-01	 8.189335e-01	 1.249042e+01
0	 9.826299e-01	 8.323232e-01	 1.229297e+01
0	 9.742839e-01	 8.455639e-01	 1.209678e+01
0	 9.658163e-01	 8.586532e-01	 1.190206e+01
0	 1.078375e+00	 8.521185e-01	 1.323190e+01
0	 1.070435e+00	 8.669438e-01	 1.306961e+01
0	 1.062362e+00	 8.816189e-01	 1.290647e+01
0	 1.054158e+00	 8.961409e-01	 1.274271e+01
0	 1.045825e+00	 9.105073e-01	 1.257853e+01
0	 1.037368e+00	 9.247155e-01	 1.241411e+01
0	 1.149788e+00	 9.124767e-01	 1.326685e+01
0	 1.141877e+00	 9.284499e-01	 1.313002e+01
0	 1.133829e+00	 9.442669e-01	 1.299157e+01
0	 1.125647e+00	 9.599248e-01	 1.285174e+01
0	 1.117334e+00	 9.754207e-01	 1.271071e+01
0	 1.108892e+00	 9.907519e-01	 1.256870e+01
0	 7.509925e-01	 6.603107e-01	 7.817481e+00
0	 7.424174e-01	 6.699376e-01	 7.354763e+00
0	 7.337384e-01	 6.794321e-01	 6.902945e+00
0	 7.249583e-01	 6.887927e-01	 6.462964e+00
0	 7.160801e-01	 6.980181e-01	 6.035729e+00
0	 7.071068e-01	 7.071068e-01	 5.622115e+00
0	 8.226285e-01	 7.264508e-01	 9.651529e+00
0	 8.140443e-01	 7.371760e-01	 9.326557e+00
0	 8.053520e-01	 7.477607e-01	 9.008662e+00
0	 7.965544e-01	 7.582032e-01	 8.698385e+00
0	 7.876544e-01	 7.685018e-01	 8.396244e+00
0	 7.786550e-01	 7.786550e-01	 8.102739e+00
0	 8.942364e-01	 7.925649e-01	 1.099568e+01
0	 8.856484e-01	 8.043931e-01	 1.075403e+01
0	 8.769482e-01	 8.160728e-01	 1.051608e+01
0	 8.681387e-01	 8.276023e-01	 1.028210e+01
0	 8.592227e-01	 8.389797e-01	 1.005238e+01
0	 8.502032e-01	 8.502032e-01	 9.827155e+00
0	 9.658163e-01	 8.586532e-01	 1.190206e+01
0	 9.572297e-01	 8.715887e-01	 1.170857e+01
0	 9.485271e-01	 8.843684e-01	 1.151604e+01
0	 9.397112e-01	 8.969900e-01	 1.132463e+01
0	 9.307850e-01	 9.094517e-01	 1.113447e+01
0	 9.217514e-01	 9.217514e-01	 1.094568e+01
0	 1.037368e+00	 9.247155e-01	 1.241411e+01
0	 1.028788e+00	 9.387629e-01	 1.224916e+01
0	 1.020089e+00	 9.526473e-01	 1.208334e+01
0	 1.011272e+00	 9.663663e-01	 1.191676e+01
0	 1.002341e+00	 9.799178e-01	 1.174950e+01
0	 9.932997e-01	 9.932997e-01	 1.158165e+01
0	 1.108892e+00	 9.907519e-01	 1.256870e+01
0	 1.100324e+00	 1.005916e+00	 1.242539e+01
0	 1.091633e+00	 1.020910e+00	 1.228050e+01
0	 1.082821e+00	 1.035731e+00	 1.213416e+01
0	 1.073892e+00	 1.050378e+00	 1.198650e+01
0	 1.064848e+00	 1.064848e+00	 1.183765e+01
0	 1.333333e+00	 0.000000e+00	 1.805544e+01
0	 1.334023e+00	 1.866540e-02	 1.803763e+01
0	 1.334539e+00	 3.738387e-02	 1.801459e+01
0	 1.334882e+00	 5.615135e-02	 1.798627e+01
0	 1.335049e+00	 7.496378e-02	 1.795266e+01
0	 1.335041e+00	 9.381700e-02	 1.791375e+01
0	 1.400000e+00	 0.000000e+00	 1.686311e+01
0	 1.400827e+00	 1.984383e-02	 1.684680e+01
0	 1.401480e+00	 3.974489e-02	 1.682687e+01
0	 1.401957e+00	 5.969896e-02	 1.680329e+01
0	 1.402258e+00	 7.970180e-02	 1.677603e+01
0	 1.402381e+00	 9.974909e-02	 1.674512e+01
0	 1.466667e+00	 0.000000e+00	 1.592696e+01
0	 1.467625e+00	 2.102216e-02	 1.591226e+01
0	 1.468409e+00	 4.210552e-02	 1.589518e+01
0	 1.469016e+00	 6.324571e-02	 1.587571e+01
0	 1.469445e+00	 8.443832e-02	 1.585383e+01
0	 1.469695e+00	 1.056788e-01	 1.582957e+01
0	 1.533333e+00	 0.000000e+00	 1.518084e+01
0	 1.534418e+00	 2.220039e-02	 1.516779e+01
0	 1.535327e+00	 4.446576e-02	 1.515332e+01
0	 1.536058e+00	 6.679160e-02	 1.513744e+01
0	 1.536611e+00	 8.917332e-02	 1.512015e+01
0	 1.536983e+00	 1.116063e-01	 1.510147e+01
0	 1.600000e+00	 0.000000e+00	 1.457193e+01
0	 1.601206e+00	 2.337852e-02	 1.456051e+01
0	 1.602235e+00	 4.682562e-02	 1.454842e+01
0	 1.603085e+00	 7.033663e-02	 1.453569e+01
0	 1.603755e+00	 9.390682e-02	 1.452233e+01
0	 1.604244e+00	 1.175314e-01	 1.450836e+01
0	 1.666667e+00	 0.000000e+00	 1.405757e+01
0	 1.667988e+00	 2.455656e-02	 1.404769e+01
0	 1.669131e+00	 4.918509e-02	 1.403774e+01
0	 1.670095e+00	 7.388080e-02	 1.402777e+01
0	 1.670878e+00	 9.863881e-02	 1.401778e+01
0	 1.671479e+00	 1.234542e-01	 1.400782e+01
0	 1.335041e+00	 9.381700e-02	 1.791375e+01
0	 1.334854e+00	 1.127068e-01	 1.786981e+01
0	 1.334490e+00	 1.316290e-01	 1.782112e+01
0	 1.333946e+00	 1.505793e-01	 1.776775e+01
0	 1.333221e+00	 1.695532e-01	 1.770976e+01
0	 1.332317e+00	 1.885465e-01	 1.764725e+01
0	 1.402381e+00	 9.974909e-02	 1.674512e+01
0	 1.402325e+00	 1.198364e-01	 1.671074e+01
0	 1.402090e+00	 1.399594e-01	 1.667309e+01
0	 1.401673e+00	 1.601136e-01	 1.663225e+01
0	 1.401076e+00	 1.802944e-01	 1.658828e+01
0	 1.400295e+00	 2.004973e-01	 1.654129e+01
0	 1.469695e+00	 1.056788e-01	 1.582957e+01
0	 1.469765e+00	 1.269628e-01	 1.580303e+01
0	 1.469654e+00	 1.482855e-01	 1.577434e+01
0	 1.469361e+00	 1.696423e-01	 1.574358e+01
0	 1.468885e+00	 1.910286e-01	 1.571082e+01
0	 1.468225e+00	 2.124396e-01	 1.567617e+01
0	 1.536983e+00	 1.116063e-01	 1.510147e+01
0	 1.537174e+00	 1.340858e-01	 1.508142e+01
0	 1.537183e+00	 1.566071e-01	 1.506008e+01
0	 1.537008e+00	 1.791653e-01	 1.503751e+01
0	 1.536650e+00	 2.017557e-01	 1.501380e+01
0	 1.536107e+00	 2.243733e-01	 1.498906e+01
0	 1.604244e+00	 1.175314e-01	 1.450836e+01
0	 1.604551e+00	 1.412055e-01	 1.449375e+01
0	 1.604675e+00	 1.649243e-01	 1.447848e+01
0	 1.604615e+00	 1.886827e-01	 1.446264e+01
0	 1.604370e+00	 2.124757e-01	 1.444632e+01
0	 1.603939e+00	 2.362984e-01	 1.442963e+01
0	 1.671479e+00	 1.234542e-01	 1.400782e+01
0	 1.671898e+00	 1.483220e-01	 1.399779e+01
0	 1.672132e+00	 1.732370e-01	 1.398760e+01
0	 1.672182e+00	 1.981943e-01	 1.397734e+01
0	 1.672046e+00	 2.231887e-01	 1.396714e+01
0	 1.671723e+00	 2.482149e-01	 1.395709e+01
0	 1.332317e+00	 1.885465e-01	 1.764725e+01
0	 1.331230e+00	 2.075548e-01	 1.758051e+01
0	 1.329962e+00	 2.265735e-01	 1.750983e+01
0	 1.328510e+00	 2.455982e-01	 1.743535e+01
0	 1.326876e+00	 2.646243e-01	 1.735723e+01
0	 1.325059e+00	 2.836475e-01	 1.727563e+01
0	 1.400295e+00	 2.004973e-01	 1.654129e+01
0	 1.399332e+00	 2.207177e-01	 1.649139e+01
0	 1.398185e+00	 2.409510e-01	 1.643874e+01
0	 1.396854e+00	 2.611924e-01	 1.638348e+01
0	 1.395338e+00	 2.814372e-01	 1.632577e+01
0	 1.393638e+00	 3.016808e-01	 1.626578e+01
0	 1.468225e+00	 2.124396e-01	 1.567617e+01
0	 1.467381e+00	 2.338705e-01	 1.563960e+01
0	 1.466352e+00	 2.553165e-01	 1.560114e+01
0	 1.465137e+00	 2.767728e-01	 1.556093e+01
0	 1.463737e+00	 2.982344e-01	 1.551914e+01
0	 1.462150e+00	 3.196965e-01	 1.547593e+01
0	 1.536107e+00	 2.243733e-01	 1.498906e+01
0	 1.535378e+00	 2.470131e-01	 1.496314e+01
0	 1.534463e+00	 2.696702e-01	 1.493594e+01
0	 1.533361e+00	 2.923395e-01	 1.490763e+01
0	 1.532072e+00	 3.150160e-01	 1.487836e+01
0	 1.530595e+00	 3.376947e-01	 1.484830e+01
0	 1.603939e+00	 2.362984e-01	 1.442963e+01
0	 1.603321e+00	 2.601455e-01	 1.441232e+01
0	 1.602517e+00	 2.840119e-01	 1.439418e+01
0	 1.601524e+00	 3.078925e-01	 1.437538e+01
0	 1.600343e+00	 3.317821e-01	 1.435609e+01
0	 1.598973e+00	 3.556753e-01	 1.433648e+01
0	 1.671723e+00	 2.482149e-01	 1.395709e+01
0	 1.671213e+00	 2.732677e-01	 1.394685e+01
0	 1.670514e+00	 2.983418e-01	 1.393612e+01
0	 1.669627e+00	 3.234318e-01	 1.392507e+01
0	 1.668551e+00	 3.485325e-01	 1.391388e+01
0	 1.667285e+00	 3.736384e-01	 1.390273e+01
0	 1.325059e+00	 2.836475e-01	 1.727563e+01
0	 1.323057e+00	 3.026629e-01	 1.719076e+01
0	 1.320873e+00	 3.216662e-01	 1.710285e+01
0	 1.318504e+00	 3.406527e-01	 1.701209e+01
0	 1.315951e+00	 3.596178e-01	 1.691871e+01
0	 1.313215e+00	 3.785569e-01	 1.682294e+01
0	 1.393638e+00	 3.016808e-01	 1.626578e+01
0	 1.391752e+00	 3.219183e-01	 1.620349e+01
0	 1.389680e+00	 3.421451e-01	 1.613894e+01
0	 1.387423e+00	 3.623563e-01	 1.607235e+01
0	 1.384981e+00	 3.825470e-01	 1.600393e+01
0	 1.382353e+00	 4.027126e-01	 1.593390e+01
0	 1.462150e+00	 3.196965e-01	 1.547593e+01
0	 1.460376e+00	 3.411541e-01	 1.543112e+01
0	 1.458415e+00	 3.626023e-01	 1.538458e+01
0	 1.456267e+00	 3.840360e-01	 1.533653e+01
0	 1.453932e+00	 4.054503e-01	 1.528718e+01
0	 1.451410e+00	 4.268402e-01	 1.523676e+01
0	 1.530595e+00	 3.376947e-01	 1.484830e+01
0	 1.528930e+00	 3.603703e-01	 1.481714e+01
0	 1.527077e+00	 3.830378e-01	 1.478459e+01
0	 1.525035e+00	 4.056920e-01	 1.475087e+01
0	 1.522805e+00	 4.283277e-01	 1.471621e+01
0	 1.520387e+00	 4.509397e-01	 1.468084e+01
0	 1.598973e+00	 3.556753e-01	 1.433648e+01
0	 1.597414e+00	 3.795669e-01	 1.431611e+01
0	 1.595666e+00	 4.034517e-01	 1.429457e+01
0	 1.593728e+00	 4.273242e-01	 1.427209e+01
0	 1.591601e+00	 4.511792e-01	 1.424891e+01
0	 1.589284e+00	 4.750113e-01	 1.422526e+01
0	 1.667285e+00	 3.736384e-01	 1.390273e+01
0	 1.665829e+00	 3.987440e-01	 1.389108e+01
0	 1.664183e+00	 4.238439e-01	 1.387841e+01
0	 1.662346e+00	 4.489327e-01	 1.386496e+01
0	 1.660319e+00	 4.740049e-01	 1.385097e+01
0	 1.658101e+00	 4.990550e-01	 1.383668e+01
0	 1.313215e+00	 3.785569e-01	 1.682294e+01
0	 1.310295e+00	 3.974654e-01	 1.672482e+01
0	 1.307192e+00	 4.163386e-01	 1.662441e+01
0	 1.303906e+00	 4.351720e-01	 1.652198e+01
0	 1.300438e+00	 4.539609e-01	 1.641779e+01
0	 1.296788e+00	 4.727008e-01	 1.631211e+01
0	 1.382353e+00	 4.027126e-01	 1.593390e+01
0	 1.379539e+00	 4.228481e-01	 1.586209e+01
0	 1.376541e+00	 4.429488e-01	 1.578836e+01
0	 1.373358e+00	 4.630099e-01	 1.571298e+01
0	 1.369990e+00	 4.830265e-01	 1.563620e+01
0	 1.366439e+00	 5.029938e-01	 1.555829e+01
0	 1.451410e+00	 4.268402e-01	 1.523676e+01
0	 1.448701e+00	 4.482007e-01	 1.518493e+01
0	 1.445805e+00	 4.695267e-01	 1.513137e+01
0	 1.442723e+00	 4.908133e-01	 1.507635e+01
0	 1.439455e+00	 5.120555e-01	 1.502014e+01
0	 1.436001e+00	 5.332483e-01	 1.496301e+01
0	 1.520387e+00	 4.509397e-01	 1.468084e+01
0	 1.517780e+00	 4.735230e-01	 1.464428e+01
0	 1.514985e+00	 4.960723e-01	 1.460607e+01
0	 1.512002e+00	 5.185823e-01	 1.456649e+01
0	 1.508832e+00	 5.410480e-01	 1.452581e+01
0	 1.505474e+00	 5.634642e-01	 1.448431e+01
0	 1.589284e+00	 4.750113e-01	 1.422526e+01
0	 1.586777e+00	 4.988152e-01	 1.420054e+01
0	 1.584081e+00	 5.225856e-01	 1.417420e+01
0	 1.581196e+00	 5.463169e-01	 1.414651e+01
0	 1.578121e+00	 5.700041e-01	 1.411775e+01
0	 1.574859e+00	 5.936416e-01	 1.408820e+01
0	 1.658101e+00	 4.990550e-01	 1.383668e+01
0	 1.655692e+00	 5.240774e-01	 1.382141e+01
0	 1.653093e+00	 5.490667e-01	 1.380451e+01
0	 1.650303e+00	 5.740173e-01	 1.378626e+01
0	 1.647324e+00	 5.989238e-01	 1.376695e+01
0	 1.644155e+00	 6.237806e-01	 1.374685e+01
0	 1.296788e+00	 4.727008e-01	 1.631211e+01
0	 1.292957e+00	 4.913870e-01	 1.620478e+01
0	 1.288945e+00	 5.100151e-01	 1.609568e+01
0	 1.284754e+00	 5.285804e-01	 1.598511e+01
0	 1.280383e+00	 5.470785e-01	 1.587334e+01
0	 1.275835e+00	 5.655049e-01	 1.576066e+01
0	 1.366439e+00	 5.029938e-01	 1.555829e+01
0	 1.362704e+00	 5.229071e-01	 1.547890e+01
0	 1.358787e+00	 5.427616e-01	 1.539773e+01
0	 1.354689e+00	 5.625526e-01	 1.531507e+01
0	 1.350409e+00	 5.822753e-01	 1.523120e+01
0	 1.345949e+00	 6.019250e-01	 1.514642e+01
0	 1.436001e+00	 5.332483e-01	 1.496301e+01
0	 1.432362e+00	 5.543866e-01	 1.490447e+01
0	 1.428539e+00	 5.754657e-01	 1.484406e+01
0	 1.424532e+00	 5.964804e-01	 1.478208e+01
0	 1.420342e+00	 6.174259e-01	 1.471884e+01
0	 1.415971e+00	 6.382974e-01	 1.465461e+01
0	 1.505474e+00	 5.634642e-01	 1.448431e+01
0	 1.501930e+00	 5.858256e-01	 1.444139e+01
0	 1.498200e+00	 6.081272e-01	 1.439650e+01
0	 1.494284e+00	 6.303639e-01	 1.434994e+01
0	 1.490184e+00	 6.525305e-01	 1.430200e+01
0	 1.485901e+00	 6.746221e-01	 1.425299e+01
0	 1.574859e+00	 5.936416e-01	 1.408820e+01
0	 1.571408e+00	 6.172241e-01	 1.405719e+01
0	 1.567770e+00	 6.407464e-01	 1.402410e+01
0	 1.563945e+00	 6.642032e-01	 1.398923e+01
0	 1.559935e+00	 6.875892e-01	 1.395287e+01
0	 1.555739e+00	 7.108991e-01	 1.391532e+01
0	 1.644155e+00	 6.237806e-01	 1.374685e+01
0	 1.640797e+00	 6.485823e-01	 1.372526e+01
0	 1.637250e+00	 6.733233e-01	 1.370148e+01
0	 1.633516e+00	 6.979984e-01	 1.367583e+01
0	 1.629594e+00	 7.226019e-01	 1.364860e+01
0	 1.625486e+00	 7.471286e-01	 1.362007e+01
0	 1.275835e+00	 5.655049e-01	 1.576066e+01
0	 1.271111e+00	 5.838551e-01	 1.564676e+01
0	 1.266211e+00	 6.021247e-01	 1.553132e+01
0	 1.261136e+00	 6.203094e-01	 1.541466e+01
0	 1.255889e+00	 6.384048e-01	 1.529706e+01
0	 1.250469e+00	 6.564066e-01	 1.517881e+01
0	 1.345949e+00	 6.019250e-01	 1.514642e+01
0	 1.341311e+00	 6.214972e-01	 1.506026e+01
0	 1.336494e+00	 6.409871e-01	 1.497227e+01
0	 1.331502e+00	 6.603902e-01	 1.488276e+01
0	 1.326333e+00	 6.797020e-01	 1.479204e+01
0	 1.320991e+00	 6.989180e-01	 1.470038e+01
0	 1.415971e+00	 6.382974e-01	 1.465461e+01
0	 1.411419e+00	 6.590899e-01	 1.458885e+01
0	 1.406687e+00	 6.797987e-01	 1.452101e+01
0	 1.401776e+00	 7.004190e-01	 1.445142e+01
0	 1.396688e+00	 7.209460e-01	 1.438037e+01
0	 1.391423e+00	 7.413752e-01	 1.430816e+01
0	 1.485901e+00	 6.746221e-01	 1.425299e+01
0	 1.481435e+00	 6.966334e-01	 1.420228e+01
0	 1.476787e+00	 7.185597e-01	 1.414931e+01
0	 1.471959e+00	 7.403958e-01	 1.409439e+01
0	 1.466951e+00	 7.621370e-01	 1.403780e+01
0	 1.461765e+00	 7.837782e-01	 1.397985e+01
0	 1.555739e+00	 7.108991e-01	 1.391532e+01
0	 1.551359e+00	 7.341278e-01	 1.387596e+01
0	 1.546796e+00	 7.572700e-01	 1.383417e+01
0	 1.542050e+00	 7.803208e-01	 1.379025e+01
0	 1.537124e+00	 8.032749e-01	 1.374452e+01
0	 1.532018e+00	 8.261273e-01	 1.369724e+01
0	 1.625486e+00	 7.471286e-01	 1.362007e+01
0	 1.621192e+00	 7.715730e-01	 1.358962e+01
0	 1.616713e+00	 7.959299e-01	 1.355664e+01
0	 1.612051e+00	 8.201939e-01	 1.352140e+01
0	 1.607207e+00	 8.443598e-01	 1.348421e+01
0	 1.602181e+00	 8.684225e-01	 1.344534e+01
0	 1.250469e+00	 6.564066e-01	 1.517881e+01
0	 1.244880e+00	 6.743106e-01	 1.505946e+01
0	 1.239123e+00	 6.921127e-01	 1.493862e+01
0	 1.233198e+00	 7.098087e-01	 1.481658e+01
0	 1.227109e+00	 7.273945e-01	 1.469362e+01
0	 1.220856e+00	 7.448662e-01	 1.457001e+01
0	 1.320991e+00	 6.989180e-01	 1.470038e+01
0	 1.315477e+00	 7.180337e-01	 1.460729e+01
0	 1.309791e+00	 7.370448e-01	 1.451226e+01
0	 1.303936e+00	 7.559469e-01	 1.441560e+01
0	 1.297914e+00	 7.747358e-01	 1.431760e+01
0	 1.291725e+00	 7.934072e-01	 1.421855e+01
0	 1.391423e+00	 7.413752e-01	 1.430816e+01
0	 1.385984e+00	 7.617017e-01	 1.423425e+01
0	 1.380372e+00	 7.819211e-01	 1.415811e+01
0	 1.374588e+00	 8.020289e-01	 1.408004e+01
0	 1.368635e+00	 8.220206e-01	 1.400034e+01
0	 1.362512e+00	 8.418918e-01	 1.391928e+01
0	 1.461765e+00	 7.837782e-01	 1.397985e+01
0	 1.456403e+00	 8.053148e-01	 1.392000e+01
0	 1.450866e+00	 8.267420e-01	 1.385772e+01
0	 1.445154e+00	 8.480550e-01	 1.379332e+01
0	 1.439271e+00	 8.692492e-01	 1.372708e+01
0	 1.433217e+00	 8.903201e-01	 1.365927e+01
0	 1.532018e+00	 8.261273e-01	 1.369724e+01
0	 1.526734e+00	 8.488731e-01	 1.364792e+01
0	 1.521272e+00	 8.715073e-01	 1.359605e+01
0	 1.515635e+00	 8.940251e-01	 1.354191e+01
0	 1.509824e+00	 9.164216e-01	 1.348577e+01
0	 1.503840e+00	 9.386921e-01	 1.342791e+01
0	 1.602181e+00	 8.684225e-01	 1.344534e+01
0	 1.596976e+00	 8.923767e-01	 1.340432e+01
0	 1.591591e+00	 9.162173e-01	 1.336066e+01
0	 1.586030e+00	 9.399394e-01	 1.331463e+01
0	 1.580292e+00	 9.635379e-01	 1.326649e+01
0	 1.574381e+00	 9.870080e-01	 1.321650e+01
0	 1.220856e+00	 7.448662e-01	 1.457001e+01
0	 1.214441e+00	 7.622198e-01	 1.444528e+01
0	 1.207867e+00	 7.794515e-01	 1.431899e+01
0	 1.201136e+00	 7.965574e-01	 1.419141e+01
0	 1.194249e+00	 8.135339e-01	 1.406281e+01
0	 1.187209e+00	 8.303774e-01	 1.393343e+01
0	 1.291725e+00	 7.934072e-01	 1.421855e+01
0	 1.285373e+00	 8.119571e-01	 1.411795e+01
0	 1.278858e+00	 8.303814e-01	 1.401535e+01
0	 1.272183e+00	 8.486761e-01	 1.391103e+01
0	 1.265350e+00	 8.668373e-01	 1.380526e+01
0	 1.258360e+00	 8.848611e-01	 1.369830e+01
0	 1.362512e+00	 8.418918e-01	 1.391928e+01
0	 1.356224e+00	 8.616382e-01	 1.383642e+01
0	 1.349770e+00	 8.812555e-01	 1.375132e+01
0	 1.343154e+00	 9.007396e-01	 1.366424e+01
0	 1.336378e+00	 9.200864e-01	 1.357545e+01
0	 1.329442e+00	 9.392917e-01	 1.348522e+01
0	 1.433217e+00	 8.903201e-01	 1.365927e+01
0	 1.426995e+00	 9.112631e-01	 1.358948e+01
0	 1.420605e+00	 9.320739e-01	 1.351733e+01
0	 1.414051e+00	 9.527480e-01	 1.344307e+01
0	 1.407333e+00	 9.732812e-01	 1.336696e+01
0	 1.400455e+00	 9.936692e-01	 1.328924e+01
0	 1.503840e+00	 9.386921e-01	 1.342791e+01
0	 1.497686e+00	 9.608320e-01	 1.336797e+01
0	 1.491363e+00	 9.828365e-01	 1.330561e+01
0	 1.484872e+00	 1.004701e+00	 1.324107e+01
0	 1.478217e+00	 1.026422e+00	 1.317459e+01
0	 1.471398e+00	 1.047994e+00	 1.310641e+01
0	 1.574381e+00	 9.870080e-01	 1.321650e+01
0	 1.568297e+00	 1.010345e+00	 1.316436e+01
0	 1.562043e+00	 1.033544e+00	 1.310977e+01
0	 1.555619e+00	 1.056600e+00	 1.305296e+01
0	 1.549028e+00	 1.079508e+00	 1.299413e+01
0	 1.542272e+00	 1.102265e+00	 1.293351e+01
0	 1.187209e+00	 8.303774e-01	 1.393343e+01
0	 1.180018e+00	 8.470841e-01	 1.380285e+01
0	 1.172678e+00	 8.636508e-01	 1.367066e+01
0	 1.165191e+00	 8.800740e-01	 1.353710e+01
0	 1.157561e+00	 8.963504e-01	 1.340243e+01
0	 1.149788e+00	 9.124767e-01	 1.326685e+01
0	 1.258360e+00	 8.848611e-01	 1.369830e+01
0	 1.251217e+00	 9.027439e-01	 1.358976e+01
0	 1.243922e+00	 9.204818e-01	 1.347927e+01
0	 1.236478e+00	 9.380714e-01	 1.336708e+01
0	 1.228886e+00	 9.555091e-01	 1.325344e+01
0	 1.221150e+00	 9.727916e-01	 1.313858e+01
0	 1.329442e+00	 9.392917e-01	 1.348522e+01
0	 1.322350e+00	 9.583518e-01	 1.339322e+01
0	 1.315104e+00	 9.772627e-01	 1.329913e+01
0	 1.307705e+00	 9.960206e-01	 1.320321e+01
0	 1.300157e+00	 1.014622e+00	 1.310568e+01
0	 1.292461e+00	 1.033063e+00	 1.300677e+01
0	 1.400455e+00	 9.936692e-01	 1.328924e+01
0	 1.393417e+00	 1.013908e+00	 1.320968e+01
0	 1.386223e+00	 1.033994e+00	 1.312801e+01
0	 1.378874e+00	 1.053922e+00	 1.304448e+01
0	 1.371372e+00	 1.073689e+00	 1.295929e+01
0	 1.363720e+00	 1.093291e+00	 1.287265e+01
0	 1.471398e+00	 1.047994e+00	 1.310641e+01
0	 1.464418e+00	 1.069413e+00	 1.303634e+01
0	 1.457279e+00	 1.090674e+00	 1.296421e+01
0	 1.449983e+00	 1.111775e+00	 1.289021e+01
0	 1.442532e+00	 1.132710e+00	 1.281455e+01
0	 1.434929e+00	 1.153477e+00	 1.273740e+01
0	 1.542272e+00	 1.102265e+00	 1.293351e+01
0	 1.535353e+00	 1.124866e+00	 1.287098e+01
0	 1.528273e+00	 1.147305e+00	 1.280641e+01
0	 1.521033e+00	 1.169580e+00	 1.273998e+01
0	 1.513637e+00	 1.191686e+00	 1.267185e+01
0	 1.506086e+00	 1.213618e+00	 1.260219e+01
0	 1.149788e+00	 9.124767e-01	 1.326685e+01
0	 1.141877e+00	 9.284499e-01	 1.313002e+01
0	 1.133829e+00	 9.442669e-01	 1.299157e+01
0	 1.125647e+00	 9.599248e-01	 1.285174e+01
0	 1.117334e+00	 9.754207e-01	 1.271071e+01
0	 1.108892e+00	 9.907519e-01	 1.256870e+01
0	 1.221150e+00	 9.727916e-01	 1.313858e+01
0	 1.213272e+00	 9.899155e-01	 1.302221e+01
0	 1.205254e+00	 1.006878e+00	 1.290408e+01
0	 1.197099e+00	 1.023675e+00	 1.278440e+01
0	 1.188809e+00	 1.040304e+00	 1.266338e+01
0	 1.180388e+00	 1.056762e+00	 1.254123e+01
0	 1.292461e+00	 1.033063e+00	 1.300677e+01
0	 1.284620e+00	 1.051341e+00	 1.290629e+01
0	 1.276636e+00	 1.069451e+00	 1.280408e+01
0	 1.268513e+00	 1.087391e+00	 1.270034e+01
0	 1.260251e+00	 1.105157e+00	 1.259527e+01
0	 1.251855e+00	 1.122747e+00	 1.248906e+01
0	 1.363720e+00	 1.093291e+00	 1.287265e+01
0	 1.355921e+00	 1.112725e+00	 1.278448e+01
0	 1.347976e+00	 1.131987e+00	 1.269468e+01
0	 1.339889e+00	 1.151073e+00	 1.260344e+01
0	 1.331661e+00	 1.169981e+00	 1.251094e+01
0	 1.323295e+00	 1.188706e+00	 1.241735e+01
0	 1.434929e+00	 1.153477e+00	 1.273740e+01
0	 1.427175e+00	 1.174070e+00	 1.265877e+01
0	 1.419274e+00	 1.194486e+00	 1.257862e+01
0	 1.411227e+00	 1.214722e+00	 1.249712e+01
0	 1.403037e+00	 1.234774e+00	 1.241442e+01
0	 1.394707e+00	 1.254639e+00	 1.233066e+01
0	 1.506086e+00	 1.213618e+00	 1.260219e+01
0	 1.498382e+00	 1.235374e+00	 1.253104e+01
0	 1.490528e+00	 1.256948e+00	 1.245843e+01
0	 1.482527e+00	 1.278337e+00	 1.238448e+01
0	 1.474380e+00	 1.299538e+00	 1.230930e+01
0	 1.466091e+00	 1.320546e+00	 1.223302e+01
0	 1.108892e+00	 9.907519e-01	 1.256870e+01
0	 1.100324e+00	 1.005916e+00	 1.242539e+01
0	 1.091633e+00	 1.020910e+00	 1.228050e+01
0	 1.082821e+00	 1.035731e+00	 1.213416e+01
0	 1.073892e+00	 1.050378e+00	 1.198650e+01
0	 1.064848e+00	 1.064848e+00	 1.183765e+01
0	 1.180388e+00	 1.056762e+00	 1.254123e+01
0	 1.171837e+00	 1.073047e+00	 1.241774e+01
0	 1.163159e+00	 1.089155e+00	 1.229273e+01
0	 1.154358e+00	 1.105085e+00	 1.216638e+01
0	 1.145436e+00	 1.120832e+00	 1.203889e+01
0	 1.136396e+00	 1.136396e+00	 1.191043e+01
0	 1.251855e+00	 1.122747e+00	 1.248906e+01
0	 1.243327e+00	 1.140157e+00	 1.238164e+01
0	 1.234669e+00	 1.157385e+00	 1.227295e+01
0	 1.225884e+00	 1.174427e+00	 1.216320e+01
0	 1.216975e+00	 1.191281e+00	 1.205259e+01
0	 1.207944e+00	 1.207944e+00	 1.194130e+01
0	 1.323295e+00	 1.188706e+00	 1.241735e+01
0	 1.314794e+00	 1.207246e+00	 1.232273e+01
0	 1.306161e+00	 1.225597e+00	 1.222714e+01
0	 1.297398e+00	 1.243758e+00	 1.213077e+01
0	 1.288507e+00	 1.261724e+00	 1.203379e+01
0	 1.279493e+00	 1.279493e+00	 1.193639e+01
0	 1.394707e+00	 1.254639e+00	 1.233066e+01
0	 1.386239e+00	 1.274313e+00	 1.224599e+01
0	 1.377636e+00	 1.293794e+00	 1.216056e+01
0	 1.368900e+00	 1.313077e+00	 1.207452e+01
0	 1.360034e+00	 1.332160e+00	 1.198800e+01
0	 1.351041e+00	 1.351041e+00	 1.190114e+01
0	 1.466091e+00	 1.320546e+00	 1.223302e+01
0	 1.457661e+00	 1.341359e+00	 1.215583e+01
0	 1.449093e+00	 1.361973e+00	 1.207789e+01
0	 1.440390e+00	 1.382385e+00	 1.199929e+01
0	 1.431554e+00	 1.402591e+00	 1.192010e+01
0	 1.422589e+00	 1.422589e+00	 1.184040e+01
0	 1.666667e+00	 0.000000e+00	 1.405757e+01
0	 1.667988e+00	 2.455656e-02	 1.404769e+01
0	 1.669131e+00	 4.918509e-02	 1.403774e+01
0	 1.670095e+00	 7.388080e-02	 1.402777e+01
0	 1.670878e+00	 9.863881e-02	 1.401778e+01
0	 1.671479e+00	 1.234542e-01	 1.400782e+01
0	 1.733333e+00	 0.000000e+00	 1.362122e+01
0	 1.734764e+00	 2.573449e-02	 1.361262e+01
0	 1.736016e+00	 5.154417e-02	 1.360444e+01
0	 1.737088e+00	 7.742411e-02	 1.359673e+01
0	 1.737979e+00	 1.033693e-01	 1.358950e+01
0	 1.738688e+00	 1.293747e-01	 1.358282e+01
0	 1.800000e+00	 0.000000e+00	 1.325813e+01
0	 1.801535e+00	 2.691233e-02	 1.325052e+01
0	 1.802891e+00	 5.390287e-02	 1.324372e+01
0	 1.804066e+00	 8.096656e-02	 1.323776e+01
0	 1.805060e+00	 1.080983e-01	 1.323270e+01
0	 1.805870e+00	 1.352928e-01	 1.322859e+01
0	 1.866667e+00	 0.000000e+00	 1.295189e+01
0	 1.868300e+00	 2.809007e-02	 1.294507e+01
0	 1.869754e+00	 5.626118e-02	 1.293937e+01
0	 1.871027e+00	 8.450815e-02	 1.293482e+01
0	 1.872118e+00	 1.128258e-01	 1.293147e+01
0	 1.873026e+00	 1.412087e-01	 1.292939e+01
0	 1.933333e+00	 0.000000e+00	 1.268871e+01
0	 1.935060e+00	 2.926771e-02	 1.268257e+01
0	 1.936606e+00	 5.861910e-02	 1.267779e+01
0	 1.937972e+00	 8.804888e-02	 1.267440e+01
0	 1.939156e+00	 1.175517e-01	 1.267246e+01
0	 1.940156e+00	 1.471222e-01	 1.267203e+01
0	 2.000000e+00	 0.000000e+00	 1.245691e+01
0	 2.001814e+00	 3.044525e-02	 1.245143e+01
0	 2.003448e+00	 6.097663e-02	 1.244748e+01
0	 2.004901e+00	 9.158876e-02	 1.244511e+01
0	 2.006172e+00	 1.222762e-01	 1.244438e+01
0	 2.007260e+00	 1.530334e-01	 1.244534e+01
0	 1.671479e+00	 1.234542e-01	 1.400782e+01
0	 1.671898e+00	 1.483220e-01	 1.399779e+01
0	 1.672132e+00	 1.732370e-01	 1.398760e+01
0	 1.672182e+00	 1.981943e-01	 1.397734e+01
0	 1.672046e+00	 2.231887e-01	 1.396714e+01
0	 1.671723e+00	 2.482149e-01	 1.395709e+01
0	 1.738688e+00	 1.293747e-01	 1.358282e+01
0	 1.739213e+00	 1.554351e-01	 1.357651e+01
0	 1.739553e+00	 1.815454e-01	 1.357044e+01
0	 1.739708e+00	 2.077004e-01	 1.356472e+01
0	 1.739677e+00	 2.338946e-01	 1.355945e+01
0	 1.739458e+00	 2.601229e-01	 1.355477e+01
0	 1.805870e+00	 1.352928e-01	 1.322859e+01
0	 1.806497e+00	 1.625450e-01	 1.322519e+01
0	 1.806939e+00	 1.898494e-01	 1.322235e+01
0	 1.807195e+00	 2.172007e-01	 1.322016e+01
0	 1.807264e+00	 2.445935e-01	 1.321875e+01
0	 1.807145e+00	 2.720224e-01	 1.321824e+01
0	 1.873026e+00	 1.412087e-01	 1.292939e+01
0	 1.873750e+00	 1.696516e-01	 1.292830e+01
0	 1.874289e+00	 1.981490e-01	 1.292799e+01
0	 1.874641e+00	 2.266954e-01	 1.292858e+01
0	 1.874806e+00	 2.552854e-01	 1.293019e+01
0	 1.874783e+00	 2.839133e-01	 1.293296e+01
0	 1.940156e+00	 1.471222e-01	 1.267203e+01
0	 1.940972e+00	 1.767549e-01	 1.267280e+01
0	 1.941603e+00	 2.064442e-01	 1.267452e+01
0	 1.942047e+00	 2.361845e-01	 1.267732e+01
0	 1.942304e+00	 2.659703e-01	 1.268132e+01
0	 1.942372e+00	 2.957957e-01	 1.268667e+01
0	 2.007260e+00	 1.530334e-01	 1.244534e+01
0	 2.008163e+00	 1.838549e-01	 1.244765e+01
0	 2.008882e+00	 2.147350e-01	 1.245104e+01
0	 2.009413e+00	 2.456679e-01	 1.245564e+01
0	 2.009758e+00	 2.766481e-01	 1.246158e+01
0	 2.009914e+00	 3.076696e-01	 1.246899e+01
0	 1.671723e+00	 2.482149e-01	 1.395709e+01
0	 1.671213e+00	 2.732677e-01	 1.394685e+01
0	 1.670514e+00	 2.983418e-01	 1.393612e+01
0	 1.669627e+00	 3.234318e-01	 1.392507e+01
0	 1.668551e+00	 3.485325e-01	 1.391388e+01
0	 1.667285e+00	 3.736384e-01	 1.390273e+01
0	 1.739458e+00	 2.601229e-01	 1.355477e+01
0	 1.739051e+00	 2.863798e-01	 1.355023e+01
0	 1.738455e+00	 3.126598e-01	 1.354545e+01
0	 1.737670e+00	 3.389575e-01	 1.354061e+01
0	 1.736695e+00	 3.652674e-01	 1.353591e+01
0	 1.735530e+00	 3.915839e-01	 1.353153e+01
0	 1.807145e+00	 2.720224e-01	 1.321824e+01
0	 1.806837e+00	 2.994817e-01	 1.321814e+01
0	 1.806340e+00	 3.269659e-01	 1.321798e+01
0	 1.805654e+00	 3.544695e-01	 1.321796e+01
0	 1.804777e+00	 3.819868e-01	 1.321827e+01
0	 1.803709e+00	 4.095120e-01	 1.321910e+01
0	 1.874783e+00	 2.839133e-01	 1.293296e+01
0	 1.874571e+00	 3.125734e-01	 1.293632e+01
0	 1.874169e+00	 3.412602e-01	 1.293975e+01
0	 1.873578e+00	 3.699678e-01	 1.294345e+01
0	 1.872795e+00	 3.986906e-01	 1.294763e+01
0	 1.871821e+00	 4.274227e-01	 1.295247e+01
0	 1.942372e+00	 2.957957e-01	 1.268667e+01
0	 1.942252e+00	 3.256551e-01	 1.269274e+01
0	 1.941942e+00	 3.555427e-01	 1.269898e+01
0	 1.941442e+00	 3.854526e-01	 1.270558e+01
0	 1.940750e+00	 4.153790e-01	 1.271275e+01
0	 1.939868e+00	 4.453159e-01	 1.272069e+01
0	 2.009914e+00	 3.076696e-01	 1.246899e+01
0	 2.009881e+00	 3.387266e-01	 1.247723e+01
0	 2.009659e+00	 3.698133e-01	 1.248569e+01
0	 2.009246e+00	 4.009237e-01	 1.249459e+01
0	 2.008642e+00	 4.320519e-01	 1.250411e+01
0	 2.007848e+00	 4.631918e-01	 1.251448e+01
0	 1.667285e+00	 3.736384e-01	 1.390273e+01
0	 1.665829e+00	 3.987440e-01	 1.389108e+01
0	 1.664183e+00	 4.238439e-01	 1.387841e+01
0	 1.662346e+00	 4.489327e-01	 1.386496e+01
0	 1.660319e+00	 4.740049e-01	 1.385097e+01
0	 1.658101e+00	 4.990550e-01	 1.383668e+01
0	 1.735530e+00	 3.915839e-01	 1.353153e+01
0	 1.734174e+00	 4.179016e-01	 1.352683e+01
0	 1.732627e+00	 4.442147e-01	 1.352123e+01
0	 1.730889e+00	 4.705177e-01	 1.351496e+01
0	 1.728959e+00	 4.968049e-01	 1.350827e+01
0	 1.726838e+00	 5.230707e-01	 1.350140e+01
0	 1.803709e+00	 4.095120e-01	 1.321910e+01
0	 1.802450e+00	 4.370397e-01	 1.321976e+01
0	 1.800999e+00	 4.645639e-01	 1.321958e+01
0	 1.799356e+00	 4.920790e-01	 1.321880e+01
0	 1.797522e+00	 5.195792e-01	 1.321769e+01
0	 1.795495e+00	 5.470587e-01	 1.321648e+01
0	 1.871821e+00	 4.274227e-01	 1.295247e+01
0	 1.870656e+00	 4.561583e-01	 1.295723e+01
0	 1.869299e+00	 4.848916e-01	 1.296120e+01
0	 1.867749e+00	 5.136167e-01	 1.296462e+01
0	 1.866007e+00	 5.423277e-01	 1.296774e+01
0	 1.864073e+00	 5.710188e-01	 1.297083e+01
0	 1.939868e+00	 4.453159e-01	 1.272069e+01
0	 1.938793e+00	 4.752575e-01	 1.272861e+01
0	 1.937526e+00	 5.051979e-01	 1.273576e+01
0	 1.936067e+00	 5.351309e-01	 1.274239e+01
0	 1.934416e+00	 5.650507e-01	 1.274875e+01
0	 1.932572e+00	 5.949512e-01	 1.275509e+01
0	 2.007848e+00	 4.631918e-01	 1.251448e+01
0	 2.006861e+00	 4.943374e-01	 1.252486e+01
0	 2.005682e+00	 5.254827e-01	 1.253449e+01
0	 2.004311e+00	 5.566216e-01	 1.254360e+01
0	 2.002747e+00	 5.877481e-01	 1.255246e+01
0	 2.000991e+00	 6.188559e-01	 1.256131e+01
0	 1.658101e+00	 4.990550e-01	 1.383668e+01
0	 1.655692e+00	 5.240774e-01	 1.382141e+01
0	 1.653093e+00	 5.490667e-01	 1.380451e+01
0	 1.650303e+00	 5.740173e-01	 1.378626e+01
0	 1.647324e+00	 5.989238e-01	 1.376695e+01
0	 1.644155e+00	 6.237806e-01	 1.374685e+01
0	 1.726838e+00	 5.230707e-01	 1.350140e+01
0	 1.724525e+00	 5.493095e-01	 1.349361e+01
0	 1.722021e+00	 5.755156e-01	 1.348419e+01
0	 1.719326e+00	 6.016834e-01	 1.347342e+01
0	 1.716440e+00	 6.278071e-01	 1.346159e+01
0	 1.713363e+00	 6.538812e-01	 1.344896e+01
0	 1.795495e+00	 5.470587e-01	 1.321648e+01
0	 1.793276e+00	 5.745117e-01	 1.321438e+01
0	 1.790866e+00	 6.019325e-01	 1.321065e+01
0	 1.788263e+00	 6.293153e-01	 1.320556e+01
0	 1.785469e+00	 6.566543e-01	 1.319939e+01
0	 1.782484e+00	 6.839437e-01	 1.319241e+01
0	 1.864073e+00	 5.710188e-01	 1.297083e+01
0	 1.861946e+00	 5.996840e-01	 1.297305e+01
0	 1.859627e+00	 6.283174e-01	 1.297362e+01
0	 1.857115e+00	 6.569131e-01	 1.297281e+01
0	 1.854412e+00	 6.854653e-01	 1.297091e+01
0	 1.851516e+00	 7.139679e-01	 1.296819e+01
0	 1.932572e+00	 5.949512e-01	 1.275509e+01
0	 1.930535e+00	 6.248264e-01	 1.276058e+01
0	 1.928305e+00	 6.546703e-01	 1.276441e+01
0	 1.925883e+00	 6.844769e-01	 1.276684e+01
0	 1.923268e+00	 7.142401e-01	 1.276817e+01
0	 1.920461e+00	 7.439540e-01	 1.276865e+01
0	 2.000991e+00	 6.188559e-01	 1.256131e+01
0	 1.999042e+00	 6.499390e-01	 1.256932e+01
0	 1.996900e+00	 6.809914e-01	 1.257564e+01
0	 1.994565e+00	 7.120067e-01	 1.258056e+01
0	 1.992038e+00	 7.429790e-01	 1.258436e+01
0	 1.989319e+00	 7.739021e-01	 1.258729e+01
0	 1.644155e+00	 6.237806e-01	 1.374685e+01
0	 1.640797e+00	 6.485823e-01	 1.372526e+01
0	 1.637250e+00	 6.733233e-01	 1.370148e+01
0	 1.633516e+00	 6.979984e-01	 1.367583e+01
0	 1.629594e+00	 7.226019e-01	 1.364860e+01
0	 1.625486e+00	 7.471286e-01	 1.362007e+01
0	 1.713363e+00	 6.538812e-01	 1.344896e+01
0	 1.710097e+00	 6.799001e-01	 1.343480e+01
0	 1.706641e+00	 7.058580e-01	 1.341841e+01
0	 1.702995e+00	 7.317495e-01	 1.340007e+01
0	 1.699162e+00	 7.575689e-01	 1.338007e+01
0	 1.695141e+00	 7.833106e-01	 1.335870e+01
0	 1.782484e+00	 6.839437e-01	 1.319241e+01
0	 1.779308e+00	 7.111777e-01	 1.318389e+01
0	 1.775941e+00	 7.383506e-01	 1.317308e+01
0	 1.772385e+00	 7.654566e-01	 1.316028e+01
0	 1.768639e+00	 7.924901e-01	 1.314577e+01
0	 1.764705e+00	 8.194454e-01	 1.312983e+01
0	 1.851516e+00	 7.139679e-01	 1.296819e+01
0	 1.848430e+00	 7.424151e-01	 1.296390e+01
0	 1.845152e+00	 7.708011e-01	 1.295730e+01
0	 1.841684e+00	 7.991199e-01	 1.294868e+01
0	 1.838026e+00	 8.273657e-01	 1.293831e+01
0	 1.834178e+00	 8.555328e-01	 1.292647e+01
0	 1.920461e+00	 7.439540e-01	 1.276865e+01
0	 1.917463e+00	 7.736125e-01	 1.276755e+01
0	 1.914273e+00	 8.032096e-01	 1.276414e+01
0	 1.910892e+00	 8.327394e-01	 1.275867e+01
0	 1.907321e+00	 8.621958e-01	 1.275144e+01
0	 1.903561e+00	 8.915731e-01	 1.274271e+01
0	 1.989319e+00	 7.739021e-01	 1.258729e+01
0	 1.986407e+00	 8.047698e-01	 1.258863e+01
0	 1.983305e+00	 8.355762e-01	 1.258766e+01
0	 1.980011e+00	 8.663151e-01	 1.258463e+01
0	 1.976527e+00	 8.969805e-01	 1.257981e+01
0	 1.972853e+00	 9.275664e-01	 1.257347e+01
0	 1.625486e+00	 7.471286e-01	 1.362007e+01
0	 1.621192e+00	 7.715730e-01	 1.358962e+01
0	 1.616713e+00	 7.959299e-01	 1.355664e+01
0	 1.612051e+00	 8.201939e-01	 1.352140e+01
0	 1.607207e+00	 8.443598e-01	 1.348421e+01
0	 1.602181e+00	 8.684225e-01	 1.344534e+01
0	 1.695141e+00	 7.833106e-01	 1.335870e+01
0	 1.690933e+00	 8.089693e-01	 1.333534e+01
0	 1.686540e+00	 8.345394e-01	 1.330937e+01
0	 1.681962e+00	 8.600154e-01	 1.328107e+01
0	 1.677200e+00	 8.853920e-01	 1.325072e+01
0	 1.672255e+00	 9.106639e-01	 1.321860e+01
0	 1.764705e+00	 8.194454e-01	 1.312983e+01
0	 1.760584e+00	 8.463167e-01	 1.311185e+01
0	 1.756275e+00	 8.730986e-01	 1.309124e+01
0	 1.751781e+00	 8.997853e-01	 1.306826e+01
0	 1.747102e+00	 9.263715e-01	 1.304318e+01
0	 1.742240e+00	 9.528515e-01	 1.301625e+01
0	 1.834178e+00	 8.555328e-01	 1.292647e+01
0	 1.830143e+00	 8.836153e-01	 1.291258e+01
0	 1.825920e+00	 9.116076e-01	 1.289604e+01
0	 1.821511e+00	 9.395038e-01	 1.287712e+01
0	 1.816916e+00	 9.672984e-01	 1.285607e+01
0	 1.812136e+00	 9.949856e-01	 1.283315e+01
0	 1.903561e+00	 8.915731e-01	 1.274271e+01
0	 1.899612e+00	 9.208653e-01	 1.273191e+01
0	 1.895474e+00	 9.500665e-01	 1.271849e+01
0	 1.891150e+00	 9.791709e-01	 1.270269e+01
0	 1.886639e+00	 1.008173e+00	 1.268476e+01
0	 1.881943e+00	 1.037066e+00	 1.266493e+01
0	 1.972853e+00	 9.275664e-01	 1.257347e+01
0	 1.968990e+00	 9.580666e-01	 1.256507e+01
0	 1.964938e+00	 9.884754e-01	 1.255407e+01
0	 1.960699e+00	 1.018787e+00	 1.254072e+01
0	 1.956273e+00	 1.048995e+00	 1.252523e+01
0	 1.951662e+00	 1.079093e+00	 1.250785e+01
0	 1.602181e+00	 8.684225e-01	 1.344534e+01
0	 1.596976e+00	 8.923767e-01	 1.340432e+01
0	 1.591591e+00	 9.162173e-01	 1.336066e+01
0	 1.586030e+00	 9.399394e-01	 1.331463e+01
0	 1.580292e+00	 9.635379e-01	 1.326649e+01
0	 1.574381e+00	 9.870080e-01	 1.321650e+01
0	 1.672255e+00	 9.106639e-01	 1.321860e+01
0	 1.667129e+00	 9.358256e-01	 1.318425e+01
0	 1.661824e+00	 9.608720e-01	 1.314722e+01
0	 1.656339e+00	 9.857980e-01	 1.310778e+01
0	 1.650677e+00	 1.010598e+00	 1.306615e+01
0	 1.644840e+00	 1.035268e+00	 1.302258e+01
0	 1.742240e+00	 9.528515e-01	 1.301625e+01
0	 1.737195e+00	 9.792200e-01	 1.298707e+01
0	 1.731969e+00	 1.005472e+00	 1.295523e+01
0	 1.726563e+00	 1.031601e+00	 1.292095e+01
0	 1.720979e+00	 1.057603e+00	 1.288446e+01
0	 1.715218e+00	 1.083472e+00	 1.284599e+01
0	 1.812136e+00	 9.949856e-01	 1.283315e+01
0	 1.807173e+00	 1.022560e+00	 1.280797e+01
0	 1.802028e+00	 1.050016e+00	 1.278017e+01
0	 1.796702e+00	 1.077348e+00	 1.274995e+01
0	 1.791197e+00	 1.104551e+00	 1.271753e+01
0	 1.785513e+00	 1.131620e+00	 1.268311e+01
0	 1.881943e+00	 1.037066e+00	 1.266493e+01
0	 1.877063e+00	 1.065846e+00	 1.264288e+01
0	 1.872001e+00	 1.094506e+00	 1.261824e+01
0	 1.866756e+00	 1.123040e+00	 1.259123e+01
0	 1.861332e+00	 1.151444e+00	 1.256205e+01
0	 1.855728e+00	 1.179712e+00	 1.253089e+01
0	 1.951662e+00	 1.079093e+00	 1.250785e+01
0	 1.946866e+00	 1.109077e+00	 1.248828e+01
0	 1.941887e+00	 1.138940e+00	 1.246618e+01
0	 1.936726e+00	 1.168677e+00	 1.244176e+01
0	 1.931383e+00	 1.198282e+00	 1.241521e+01
0	 1.925861e+00	 1.227749e+00	 1.238670e+01
0	 1.574381e+00	 9.870080e-01	 1.321650e+01
0	 1.568297e+00	 1.010345e+00	 1.316436e+01
0	 1.562043e+00	 1.033544e+00	 1.310977e+01
0	 1.555619e+00	 1.056600e+00	 1.305296e+01
0	 1.549028e+00	 1.079508e+00	 1.299413e+01
0	 1.542272e+00	 1.102265e+00	 1.293351e+01
0	 1.644840e+00	 1.035268e+00	 1.302258e+01
0	 1.638829e+00	 1.059802e+00	 1.297682e+01
0	 1.632645e+00	 1.084195e+00	 1.292861e+01
0	 1.626291e+00	 1.108443e+00	 1.287816e+01
0	 1.619768e+00	 1.132541e+00	 1.282566e+01
0	 1.613078e+00	 1.156484e+00	 1.277129e+01
0	 1.715218e+00	 1.083472e+00	 1.284599e+01
0	 1.709281e+00	 1.109203e+00	 1.280533e+01
0	 1.703170e+00	 1.134791e+00	 1.276227e+01
0	 1.696888e+00	 1.160232e+00	 1.271698e+01
0	 1.690435e+00	 1.185520e+00	 1.266965e+01
0	 1.683814e+00	 1.210650e+00	 1.262045e+01
0	 1.785513e+00	 1.131620e+00	 1.268311e+01
0	 1.779654e+00	 1.158549e+00	 1.264655e+01
0	 1.773619e+00	 1.185332e+00	 1.260764e+01
0	 1.767411e+00	 1.211966e+00	 1.256656e+01
0	 1.761031e+00	 1.238444e+00	 1.252348e+01
0	 1.754481e+00	 1.264763e+00	 1.247855e+01
0	 1.855728e+00	 1.179712e+00	 1.253089e+01
0	 1.849947e+00	 1.207839e+00	 1.249762e+01
0	 1.843990e+00	 1.235818e+00	 1.246210e+01
0	 1.837859e+00	 1.263645e+00	 1.242448e+01
0	 1.831555e+00	 1.291315e+00	 1.238490e+01
0	 1.825080e+00	 1.318823e+00	 1.234352e+01
0	 1.925861e+00	 1.227749e+00	 1.238670e+01
0	 1.920161e+00	 1.257073e+00	 1.235614e+01
0	 1.914284e+00	 1.286249e+00	 1.232341e+01
0	 1.908232e+00	 1.315270e+00	 1.228865e+01
0	 1.902007e+00	 1.344133e+00	 1.225201e+01
0	 1.895610e+00	 1.372831e+00	 1.221361e+01
0	 1.542272e+00	 1.102265e+00	 1.293351e+01
0	 1.535353e+00	 1.124866e+00	 1.287098e+01
0	 1.528273e+00	 1.147305e+00	 1.280641e+01
0	 1.521033e+00	 1.169580e+00	 1.273998e+01
0	 1.513637e+00	 1.191686e+00	 1.267185e+01
0	 1.506086e+00	 1.213618e+00	 1.260219e+01
0	 1.613078e+00	 1.156484e+00	 1.277129e+01
0	 1.606222e+00	 1.180267e+00	 1.271501e+01
0	 1.599204e+00	 1.203887e+00	 1.265671e+01
0	 1.592025e+00	 1.227338e+00	 1.259655e+01
0	 1.584687e+00	 1.250616e+00	 1.253467e+01
0	 1.577192e+00	 1.273717e+00	 1.247121e+01
0	 1.683814e+00	 1.210650e+00	 1.262045e+01
0	 1.677026e+00	 1.235617e+00	 1.256935e+01
0	 1.670073e+00	 1.260418e+00	 1.251630e+01
0	 1.662958e+00	 1.285047e+00	 1.246143e+01
0	 1.655682e+00	 1.309500e+00	 1.240485e+01
0	 1.648247e+00	 1.333773e+00	 1.234670e+01
0	 1.754481e+00	 1.264763e+00	 1.247855e+01
0	 1.747763e+00	 1.290916e+00	 1.243177e+01
0	 1.740880e+00	 1.316900e+00	 1.238312e+01
0	 1.733832e+00	 1.342709e+00	 1.233271e+01
0	 1.726622e+00	 1.368339e+00	 1.228065e+01
0	 1.719251e+00	 1.393785e+00	 1.222705e+01
0	 1.825080e+00	 1.318823e+00	 1.234352e+01
0	 1.818436e+00	 1.346164e+00	 1.230035e+01
0	 1.811624e+00	 1.373332e+00	 1.225541e+01
0	 1.804647e+00	 1.400323e+00	 1.220880e+01
0	 1.797507e+00	 1.427132e+00	 1.216061e+01
0	 1.790205e+00	 1.453755e+00	 1.211094e+01
0	 1.895610e+00	 1.372831e+00	 1.221361e+01
0	 1.889042e+00	 1.401360e+00	 1.217351e+01
0	 1.882306e+00	 1.429714e+00	 1.213172e+01
0	 1.875404e+00	 1.457889e+00	 1.208836e+01
0	 1.868337e+00	 1.485880e+00	 1.204350e+01
0	 1.861107e+00	 1.513682e+00	 1.199724e+01
0	 1.506086e+00	 1.213618e+00	 1.260219e+01
0	 1.498382e+00	 1.235374e+00	 1.253104e+01
0	 1.490528e+00	 1.256948e+00	 1.245843e+01
0	 1.482527e+00	 1.278337e+00	 1.238448e+01
0	 1.474380e+00	 1.299538e+00	 1.230930e+01
0	 1.466091e+00	 1.320546e+00	 1.223302e+01
0	 1.577192e+00	 1.273717e+00	 1.247121e+01
0	 1.569543e+00	 1.296637e+00	 1.240625e+01
0	 1.561741e+00	 1.319372e+00	 1.233984e+01
0	 1.553790e+00	 1.341918e+00	 1.227206e+01
0	 1.545691e+00	 1.364271e+00	 1.220301e+01
0	 1.537447e+00	 1.386428e+00	 1.213278e+01
0	 1.648247e+00	 1.333773e+00	 1.234670e+01
0	 1.640656e+00	 1.357861e+00	 1.228707e+01
0	 1.632911e+00	 1.381760e+00	 1.222602e+01
0	 1.625014e+00	 1.405466e+00	 1.216362e+01
0	 1.616968e+00	 1.428975e+00	 1.209994e+01
0	 1.608774e+00	 1.452283e+00	 1.203504e+01
0	 1.719251e+00	 1.393785e+00	 1.222705e+01
0	 1.711723e+00	 1.419044e+00	 1.217202e+01
0	 1.704039e+00	 1.444110e+00	 1.211563e+01
0	 1.696201e+00	 1.468980e+00	 1.205794e+01
0	 1.688212e+00	 1.493649e+00	 1.199901e+01
0	 1.680075e+00	 1.518113e+00	 1.193888e+01
0	 1.790205e+00	 1.453755e+00	 1.211094e+01
0	 1.782743e+00	 1.480187e+00	 1.205990e+01
0	 1.775125e+00	 1.506423e+00	 1.200759e+01
0	 1.767351e+00	 1.532460e+00	 1.195406e+01
0	 1.759424e+00	 1.558293e+00	 1.189936e+01
0	 1.751347e+00	 1.583918e+00	 1.184354e+01
0	 1.861107e+00	 1.513682e+00	 1.199724e+01
0	 1.853717e+00	 1.541290e+00	 1.194970e+01
0	 1.846168e+00	 1.568700e+00	 1.190099e+01
0	 1.838463e+00	 1.595907e+00	 1.185117e+01
0	 1.830603e+00	 1.622907e+00	 1.180030e+01
0	 1.822591e+00	 1.649696e+00	 1.174842e+01
0	 1.466091e+00	 1.320546e+00	 1.223302e+01
0	 1.457661e+00	 1.341359e+00	 1.215583e+01
0	 1.449093e+00	 1.361973e+00	 1.207789e+01
0	 1.440390e+00	 1.382385e+00	 1.199929e+01
0	 1.431554e+00	 1.402591e+00	 1.192010e+01
0	 1.422589e+00	 1.422589e+00	 1.184040e+01
0	 1.537447e+00	 1.386428e+00	 1.213278e+01
0	 1.529060e+00	 1.408384e+00	 1.206153e+01
0	 1.520533e+00	 1.430136e+00	 1.198944e+01
0	 1.511868e+00	 1.451681e+00	 1.191650e+01
0	 1.503069e+00	 1.473016e+00	 1.184275e+01
0	 1.494137e+00	 1.494137e+00	 1.176820e+01
0	 1.608774e+00	 1.452283e+00	 1.203504e+01
0	 1.600436e+00	 1.475387e+00	 1.196908e+01
0	 1.591956e+00	 1.498283e+00	 1.190217e+01
0	 1.583335e+00	 1.520967e+00	 1.183429e+01
0	 1.574578e+00	 1.543435e+00	 1.176544e+01
0	 1.565685e+00	 1.565685e+00	 1.169559e+01
0	 1.680075e+00	 1.518113e+00	 1.193888e+01
0	 1.671790e+00	 1.542369e+00	 1.187768e+01
0	 1.663361e+00	 1.566413e+00	 1.181548e+01
0	 1.654790e+00	 1.590240e+00	 1.175225e+01
0	 1.646080e+00	 1.613849e+00	 1.168800e+01
0	 1.637234e+00	 1.637234e+00	 1.162270e+01
0	 1.751347e+00	 1.583918e+00	 1.184354e+01
0	 1.743121e+00	 1.609330e+00	 1.178669e+01
0	 1.734749e+00	 1.634526e+00	 1.172888e+01
0	 1.726234e+00	 1.659503e+00	 1.167011e+01
0	 1.717577e+00	 1.684256e+00	 1.161037e+01
0	 1.708782e+00	 1.708782e+00	 1.154967e+01
0	 1.822591e+00	 1.649696e+00	 1.174842e+01
0	 1.814429e+00	 1.676269e+00	 1.169565e+01
0	 1.806120e+00	 1.702623e+00	 1.164205e+01
0	 1.797665e+00	 1.728754e+00	 1.158768e+01
0	 1.789068e+00	 1.754658e+00	 1.153256e+01
0	 1.780330e+00	 1.780330e+00	 1.147674e+01
0	 2.000000e+00	 0.000000e+00	 1.245691e+01
0	 2.001814e+00	 3.044525e-02	 1.245143e+01
0	 2.003448e+00	 6.097663e-02	 1.244748e+01
0	 2.004901e+00	 9.158876e-02	 1.244511e+01
0	 2.006172e+00	 1.222762e-01	 1.244438e+01
0	 2.007260e+00	 1.530334e-01	 1.244534e+01
0	 2.066667e+00	 0.000000e+00	 1.225234e+01
0	 2.068562e+00	 3.162270e-02	 1.224748e+01
0	 2.070278e+00	 6.333378e-02	 1.224429e+01
0	 2.071814e+00	 9.512778e-02	 1.224283e+01
0	 2.073167e+00	 1.269992e-01	 1.224313e+01
0	 2.074337e+00	 1.589423e-01	 1.224525e+01
0	 2.133333e+00	 0.000000e+00	 1.207446e+01
0	 2.135305e+00	 3.280005e-02	 1.207018e+01
0	 2.137098e+00	 6.569054e-02	 1.206766e+01
0	 2.138710e+00	 9.866594e-02	 1.206695e+01
0	 2.140141e+00	 1.317206e-01	 1.206810e+01
0	 2.141389e+00	 1.648489e-01	 1.207116e+01
0	 2.200000e+00	 0.000000e+00	 1.191894e+01
0	 2.202042e+00	 3.397729e-02	 1.191520e+01
0	 2.203906e+00	 6.804691e-02	 1.191327e+01
0	 2.205590e+00	 1.022032e-01	 1.191320e+01
0	 2.207093e+00	 1.364406e-01	 1.191505e+01
0	 2.208413e+00	 1.707532e-01	 1.191887e+01
0	 2.266667e+00	 0.000000e+00	 1.178204e+01
0	 2.268774e+00	 3.515445e-02	 1.177879e+01
0	 2.270704e+00	 7.040290e-02	 1.177737e+01
0	 2.272454e+00	 1.057397e-01	 1.177786e+01
0	 2.274024e+00	 1.411591e-01	 1.178029e+01
0	 2.275412e+00	 1.766552e-01	 1.178474e+01
0	 2.333333e+00	 0.000000e+00	 1.166049e+01
0	 2.335501e+00	 3.633150e-02	 1.165769e+01
0	 2.337490e+00	 7.275850e-02	 1.165673e+01
0	 2.339302e+00	 1.092753e-01	 1.165769e+01
0	 2.340934e+00	 1.458760e-01	 1.166062e+01
0	 2.342385e+00	 1.825549e-01	 1.166559e+01
0	 2.007260e+00	 1.530334e-01	 1.244534e+01
0	 2.008163e+00	 1.838549e-01	 1.244765e+01
0	 2.008882e+00	 2.147350e-01	 1.245104e+01
0	 2.009413e+00	 2.456679e-01	 1.245564e+01
0	 2.009758e+00	 2.766481e-01	 1.246158e+01
0	 2.009914e+00	 3.076696e-01	 1.246899e+01
0	 2.074337e+00	 1.589423e-01	 1.224525e+01
0	 2.075324e+00	 1.909517e-01	 1.224884e+01
0	 2.076124e+00	 2.230214e-01	 1.225359e+01
0	 2.076739e+00	 2.551457e-01	 1.225964e+01
0	 2.077167e+00	 2.873189e-01	 1.226712e+01
0	 2.077407e+00	 3.195350e-01	 1.227618e+01
0	 2.141389e+00	 1.648489e-01	 1.207116e+01
0	 2.142453e+00	 1.980451e-01	 1.207576e+01
0	 2.143332e+00	 2.313034e-01	 1.208158e+01
0	 2.144025e+00	 2.646179e-01	 1.208876e+01
0	 2.144532e+00	 2.979827e-01	 1.209744e+01
0	 2.144851e+00	 3.313919e-01	 1.210775e+01
0	 2.208413e+00	 1.707532e-01	 1.191887e+01
0	 2.209551e+00	 2.051353e-01	 1.192428e+01
0	 2.210504e+00	 2.395811e-01	 1.193094e+01
0	 2.211271e+00	 2.740845e-01	 1.193900e+01
0	 2.211853e+00	 3.086396e-01	 1.194860e+01
0	 2.212248e+00	 3.432403e-01	 1.195986e+01
0	 2.275412e+00	 1.766552e-01	 1.178474e+01
0	 2.276618e+00	 2.122223e-01	 1.179080e+01
0	 2.277640e+00	 2.478543e-01	 1.179814e+01
0	 2.278478e+00	 2.835454e-01	 1.180689e+01
0	 2.279130e+00	 3.192894e-01	 1.181720e+01
0	 2.279596e+00	 3.550803e-01	 1.182920e+01
0	 2.342385e+00	 1.825549e-01	 1.166559e+01
0	 2.343654e+00	 2.193060e-01	 1.167219e+01
0	 2.344741e+00	 2.561232e-01	 1.168007e+01
0	 2.345644e+00	 2.930007e-01	 1.168939e+01
0	 2.346363e+00	 3.299323e-01	 1.170026e+01
0	 2.346896e+00	 3.669118e-01	 1.171285e+01
0	 2.009914e+00	 3.076696e-01	 1.246899e+01
0	 2.009881e+00	 3.387266e-01	 1.247723e+01
0	 2.009659e+00	 3.698133e-01	 1.248569e+01
0	 2.009246e+00	 4.009237e-01	 1.249459e+01
0	 2.008642e+00	 4.320519e-01	 1.250411e+01
0	 2.007848e+00	 4.631918e-01	 1.251448e+01
0	 2.077407e+00	 3.195350e-01	 1.227618e+01
0	 2.077458e+00	 3.517881e-01	 1.228613e+01
0	 2.077319e+00	 3.840722e-01	 1.229634e+01
0	 2.076991e+00	 4.163813e-01	 1.230702e+01
0	 2.076472e+00	 4.487093e-01	 1.231838e+01
0	 2.075761e+00	 4.810502e-01	 1.233062e+01
0	 2.144851e+00	 3.313919e-01	 1.210775e+01
0	 2.144982e+00	 3.648394e-01	 1.211899e+01
0	 2.144924e+00	 3.983192e-01	 1.213053e+01
0	 2.144676e+00	 4.318253e-01	 1.214256e+01
0	 2.144238e+00	 4.653513e-01	 1.215529e+01
0	 2.143609e+00	 4.988913e-01	 1.216894e+01
0	 2.212248e+00	 3.432403e-01	 1.195986e+01
0	 2.212454e+00	 3.778807e-01	 1.197210e+01
0	 2.212473e+00	 4.125545e-01	 1.198463e+01
0	 2.212302e+00	 4.472557e-01	 1.199767e+01
0	 2.211942e+00	 4.819780e-01	 1.201143e+01
0	 2.211391e+00	 5.167151e-01	 1.202611e+01
0	 2.279596e+00	 3.550803e-01	 1.182920e+01
0	 2.279875e+00	 3.909119e-01	 1.184218e+01
0	 2.279966e+00	 4.267781e-01	 1.185548e+01
0	 2.279869e+00	 4.626726e-01	 1.186928e+01
0	 2.279583e+00	 4.985892e-01	 1.188381e+01
0	 2.279108e+00	 5.345216e-01	 1.189926e+01
0	 2.346896e+00	 3.669118e-01	 1.171285e+01
0	 2.347243e+00	 4.039331e-01	 1.172643e+01
0	 2.347403e+00	 4.409899e-01	 1.174031e+01
0	 2.347376e+00	 4.780760e-01	 1.175471e+01
0	 2.347162e+00	 5.151851e-01	 1.176983e+01
0	 2.346758e+00	 5.523108e-01	 1.178587e+01
0	 2.007848e+00	 4.631918e-01	 1.251448e+01
0	 2.006861e+00	 4.943374e-01	 1.252486e+01
0	 2.005682e+00	 5.254827e-01	 1.253449e+01
0	 2.004311e+00	 5.566216e-01	 1.254360e+01
0	 2.002747e+00	 5.877481e-01	 1.255246e+01
0	 2.000991e+00	 6.188559e-01	 1.256131e+01
0	 2.075761e+00	 4.810502e-01	 1.233062e+01
0	 2.074860e+00	 5.133979e-01	 1.234291e+01
0	 2.073766e+00	 5.457462e-01	 1.235444e+01
0	 2.072480e+00	 5.780889e-01	 1.236547e+01
0	 2.071002e+00	 6.104199e-01	 1.237625e+01
0	 2.069331e+00	 6.427330e-01	 1.238702e+01
0	 2.143609e+00	 4.988913e-01	 1.216894e+01
0	 2.142790e+00	 5.324391e-01	 1.218264e+01
0	 2.141778e+00	 5.659883e-01	 1.219560e+01
0	 2.140575e+00	 5.995328e-01	 1.220805e+01
0	 2.139180e+00	 6.330662e-01	 1.222025e+01
0	 2.137592e+00	 6.665824e-01	 1.223245e+01
0	 2.211391e+00	 5.167151e-01	 1.202611e+01
0	 2.210650e+00	 5.514609e-01	 1.204087e+01
0	 2.209719e+00	 5.862091e-01	 1.205487e+01
0	 2.208595e+00	 6.209532e-01	 1.206837e+01
0	 2.207281e+00	 6.556871e-01	 1.208162e+01
0	 2.205774e+00	 6.904044e-01	 1.209486e+01
0	 2.279108e+00	 5.345216e-01	 1.189926e+01
0	 2.278443e+00	 5.704635e-01	 1.191479e+01
0	 2.277588e+00	 6.064086e-01	 1.192958e+01
0	 2.276542e+00	 6.423504e-01	 1.194386e+01
0	 2.275305e+00	 6.782826e-01	 1.195788e+01
0	 2.273878e+00	 7.141988e-01	 1.197189e+01
0	 2.346758e+00	 5.523108e-01	 1.178587e+01
0	 2.346166e+00	 5.894469e-01	 1.180199e+01
0	 2.345385e+00	 6.265868e-01	 1.181737e+01
0	 2.344414e+00	 6.637242e-01	 1.183225e+01
0	 2.343254e+00	 7.008527e-01	 1.184687e+01
0	 2.341903e+00	 7.379658e-01	 1.186146e+01
0	 2.000991e+00	 6.188559e-01	 1.256131e+01
0	 1.999042e+00	 6.499390e-01	 1.256932e+01
0	 1.996900e+00	 6.809914e-01	 1.257564e+01
0	 1.994565e+00	 7.120067e-01	 1.258056e+01
0	 1.992038e+00	 7.429790e-01	 1.258436e+01
0	 1.989319e+00	 7.739021e-01	 1.258729e+01
0	 2.069331e+00	 6.427330e-01	 1.238702e+01
0	 2.067468e+00	 6.750219e-01	 1.239695e+01
0	 2.065411e+00	 7.072805e-01	 1.240519e+01
0	 2.063163e+00	 7.395026e-01	 1.241203e+01
0	 2.060722e+00	 7.716819e-01	 1.241772e+01
0	 2.058089e+00	 8.038122e-01	 1.242254e+01
0	 2.137592e+00	 6.665824e-01	 1.223245e+01
0	 2.135812e+00	 7.000751e-01	 1.224380e+01
0	 2.133840e+00	 7.335379e-01	 1.225348e+01
0	 2.131676e+00	 7.669646e-01	 1.226174e+01
0	 2.129320e+00	 8.003488e-01	 1.226886e+01
0	 2.126772e+00	 8.336844e-01	 1.227509e+01
0	 2.205774e+00	 6.904044e-01	 1.209486e+01
0	 2.204076e+00	 7.250986e-01	 1.210726e+01
0	 2.202187e+00	 7.597636e-01	 1.211800e+01
0	 2.200105e+00	 7.943928e-01	 1.212733e+01
0	 2.197832e+00	 8.289800e-01	 1.213551e+01
0	 2.195368e+00	 8.635187e-01	 1.214280e+01
0	 2.273878e+00	 7.141988e-01	 1.197189e+01
0	 2.272260e+00	 7.500926e-01	 1.198507e+01
0	 2.270450e+00	 7.859576e-01	 1.199659e+01
0	 2.268450e+00	 8.217873e-01	 1.200672e+01
0	 2.266259e+00	 8.575754e-01	 1.201571e+01
0	 2.263877e+00	 8.933154e-01	 1.202380e+01
0	 2.341903e+00	 7.379658e-01	 1.186146e+01
0	 2.340363e+00	 7.750570e-01	 1.187523e+01
0	 2.338632e+00	 8.121199e-01	 1.188736e+01
0	 2.336711e+00	 8.491481e-01	 1.189811e+01
0	 2.334600e+00	 8.861351e-01	 1.190773e+01
0	 2.332300e+00	 9.230743e-01	 1.191645e+01
0	 1.989319e+00	 7.739021e-01	 1.258729e+01
0	 1.986407e+00	 8.047698e-01	 1.258863e+01
0	 1.983305e+00	 8.355762e-01	 1.258766e+01
0	 1.980011e+00	 8.663151e-01	 1.258463e+01
0	 1.976527e+00	 8.969805e-01	 1.257981e+01
0	 1.972853e+00	 9.275664e-01	 1.257347e+01
0	 2.058089e+00	 8.038122e-01	 1.242254e+01
0	 2.055264e+00	 8.358873e-01	 1.242576e+01
0	 2.052247e+00	 8.679011e-01	 1.242668e+01
0	 2.049040e+00	 8.998473e-01	 1.242555e+01
0	 2.045642e+00	 9.317198e-01	 1.242263e+01
0	 2.042054e+00	 9.635126e-01	 1.241817e+01
0	 2.126772e+00	 8.336844e-01	 1.227509e+01
0	 2.124032e+00	 8.669649e-01	 1.227974e+01
0	 2.121101e+00	 9.001842e-01	 1.228211e+01
0	 2.117979e+00	 9.333359e-01	 1.228244e+01
0	 2.114667e+00	 9.664139e-01	 1.228100e+01
0	 2.111165e+00	 9.994120e-01	 1.227801e+01
0	 2.195368e+00	 8.635187e-01	 1.214280e+01
0	 2.192712e+00	 8.980027e-01	 1.214853e+01
0	 2.189866e+00	 9.324256e-01	 1.215200e+01
0	 2.186829e+00	 9.667811e-01	 1.215347e+01
0	 2.183603e+00	 1.001063e+00	 1.215318e+01
0	 2.180186e+00	 1.035265e+00	 1.215135e+01
0	 2.263877e+00	 8.933154e-01	 1.202380e+01
0	 2.261305e+00	 9.290009e-01	 1.203035e+01
0	 2.258542e+00	 9.646255e-01	 1.203468e+01
0	 2.255590e+00	 1.000183e+00	 1.203704e+01
0	 2.252448e+00	 1.035667e+00	 1.203766e+01
0	 2.249118e+00	 1.071070e+00	 1.203676e+01
0	 2.332300e+00	 9.230743e-01	 1.191645e+01
0	 2.329809e+00	 9.599594e-01	 1.192365e+01
0	 2.327130e+00	 9.967839e-01	 1.192867e+01
0	 2.324261e+00	 1.033541e+00	 1.193176e+01
0	 2.321204e+00	 1.070225e+00	 1.193312e+01
0	 2.317959e+00	 1.106830e+00	 1.193299e+01
0	 1.972853e+00	 9.275664e-01	 1.257347e+01
0	 1.968990e+00	 9.580666e-01	 1.256507e+01
0	 1.964938e+00	 9.884754e-01	 1.255407e+01
0	 1.960699e+00	 1.018787e+00	 1.254072e+01
0	 1.956273e+00	 1.048995e+00	 1.252523e+01
0	 1.951662e+00	 1.079093e+00	 1.250785e+01
0	 2.042054e+00	 9.635126e-01	 1.241817e+01
0	 2.038277e+00	 9.952195e-01	 1.241167e+01
0	 2.034312e+00	 1.026834e+00	 1.240261e+01
0	 2.030158e+00	 1.058351e+00	 1.239122e+01
0	 2.025818e+00	 1.089764e+00	 1.237773e+01
0	 2.021292e+00	 1.121067e+00	 1.236235e+01
0	 2.111165e+00	 9.994120e-01	 1.227801e+01
0	 2.107474e+00	 1.032324e+00	 1.227301e+01
0	 2.103595e+00	 1.065144e+00	 1.226551e+01
0	 2.099528e+00	 1.097865e+00	 1.225572e+01
0	 2.095274e+00	 1.130482e+00	 1.224386e+01
0	 2.090834e+00	 1.162988e+00	 1.223013e+01
0	 2.180186e+00	 1.035265e+00	 1.215135e+01
0	 2.176581e+00	 1.069380e+00	 1.214755e+01
0	 2.172788e+00	 1.103403e+00	 1.214131e+01
0	 2.168808e+00	 1.137328e+00	 1.213282e+01
0	 2.164641e+00	 1.171147e+00	 1.212230e+01
0	 2.160288e+00	 1.204856e+00	 1.210995e+01
0	 2.249118e+00	 1.071070e+00	 1.203676e+01
0	 2.245599e+00	 1.106388e+00	 1.203393e+01
0	 2.241892e+00	 1.141613e+00	 1.202871e+01
0	 2.237999e+00	 1.176739e+00	 1.202131e+01
0	 2.233919e+00	 1.211760e+00	 1.201192e+01
0	 2.229655e+00	 1.246671e+00	 1.200073e+01
0	 2.317959e+00	 1.106830e+00	 1.193299e+01
0	 2.314526e+00	 1.143348e+00	 1.193096e+01
0	 2.310907e+00	 1.179773e+00	 1.192661e+01
0	 2.307101e+00	 1.216100e+00	 1.192013e+01
0	 2.303109e+00	 1.252322e+00	 1.191170e+01
0	 2.298933e+00	 1.288432e+00	 1.190152e+01
0	 1.951662e+00	 1.079093e+00	 1.250785e+01
0	 1.946866e+00	 1.109077e+00	 1.248828e+01
0	 1.941887e+00	 1.138940e+00	 1.246618e+01
0	 1.936726e+00	 1.168677e+00	 1.244176e+01
0	 1.931383e+00	 1.198282e+00	 1.241521e+01
0	 1.925861e+00	 1.227749e+00	 1.238670e+01
0	 2.021292e+00	 1.121067e+00	 1.236235e+01
0	 2.016582e+00	 1.152255e+00	 1.234481e+01
0	 2.011687e+00	 1.183320e+00	 1.232482e+01
0	 2.006610e+00	 1.214259e+00	 1.230256e+01
0	 2.001352e+00	 1.245064e+00	 1.227821e+01
0	 1.995913e+00	 1.275730e+00	 1.225194e+01
0	 2.090834e+00	 1.162988e+00	 1.223013e+01
0	 2.086210e+00	 1.195378e+00	 1.221429e+01
0	 2.081401e+00	 1.227646e+00	 1.219608e+01
0	 2.076410e+00	 1.259785e+00	 1.217566e+01
0	 2.071238e+00	 1.291790e+00	 1.215320e+01
0	 2.065885e+00	 1.323656e+00	 1.212888e+01
0	 2.160288e+00	 1.204856e+00	 1.210995e+01
0	 2.155751e+00	 1.238448e+00	 1.209554e+01
0	 2.151030e+00	 1.271917e+00	 1.207884e+01
0	 2.146126e+00	 1.305256e+00	 1.206000e+01
0	 2.141041e+00	 1.338462e+00	 1.203919e+01
0	 2.135775e+00	 1.371526e+00	 1.201655e+01
0	 2.229655e+00	 1.246671e+00	 1.200073e+01
0	 2.225205e+00	 1.281463e+00	 1.198755e+01
0	 2.220573e+00	 1.316133e+00	 1.197214e+01
0	 2.215758e+00	 1.350673e+00	 1.195467e+01
0	 2.210761e+00	 1.385078e+00	 1.193528e+01
0	 2.205585e+00	 1.419341e+00	 1.191412e+01
0	 2.298933e+00	 1.288432e+00	 1.190152e+01
0	 2.294573e+00	 1.324425e+00	 1.188939e+01
0	 2.290030e+00	 1.360295e+00	 1.187512e+01
0	 2.285305e+00	 1.396035e+00	 1.185885e+01
0	 2.280399e+00	 1.431639e+00	 1.184072e+01
0	 2.275314e+00	 1.467101e+00	 1.182087e+01
0	 1.925861e+00	 1.227749e+00	 1.238670e+01
0	 1.920161e+00	 1.257073e+00	 1.235614e+01
0	 1.914284e+00	 1.286249e+00	 1.232341e+01
0	 1.908232e+00	 1.315270e+00	 1.228865e+01
0	 1.902007e+00	 1.344133e+00	 1.225201e+01
0	 1.895610e+00	 1.372831e+00	 1.221361e+01
0	 1.995913e+00	 1.275730e+00	 1.225194e+01
0	 1.990296e+00	 1.306252e+00	 1.222368e+01
0	 1.984502e+00	 1.336624e+00	 1.219334e+01
0	 1.978532e+00	 1.366841e+00	 1.216105e+01
0	 1.972388e+00	 1.396897e+00	 1.212694e+01
0	 1.966071e+00	 1.426787e+00	 1.209113e+01
0	 2.065885e+00	 1.323656e+00	 1.212888e+01
0	 2.060353e+00	 1.355376e+00	 1.210263e+01
0	 2.054643e+00	 1.386945e+00	 1.207438e+01
0	 2.048758e+00	 1.418357e+00	 1.204425e+01
0	 2.042697e+00	 1.449607e+00	 1.201237e+01
0	 2.036464e+00	 1.480690e+00	 1.197885e+01
0	 2.135775e+00	 1.371526e+00	 1.201655e+01
0	 2.130330e+00	 1.404444e+00	 1.199205e+01
0	 2.124708e+00	 1.437210e+00	 1.196564e+01
0	 2.118909e+00	 1.469819e+00	 1.193743e+01
0	 2.112936e+00	 1.502264e+00	 1.190753e+01
0	 2.106789e+00	 1.534540e+00	 1.187606e+01
0	 2.205585e+00	 1.419341e+00	 1.191412e+01
0	 2.200229e+00	 1.453458e+00	 1.189117e+01
0	 2.194696e+00	 1.487421e+00	 1.186639e+01
0	 2.188987e+00	 1.521227e+00	 1.183988e+01
0	 2.183103e+00	 1.554868e+00	 1.181175e+01
0	 2.177045e+00	 1.588339e+00	 1.178210e+01
0	 2.275314e+00	 1.467101e+00	 1.182087e+01
0	 2.270050e+00	 1.502416e+00	 1.179929e+01
0	 2.264608e+00	 1.537578e+00	 1.177597e+01
0	 2.258991e+00	 1.572580e+00	 1.175098e+01
0	 2.253199e+00	 1.607418e+00	 1.172444e+01
0	 2.247233e+00	 1.642085e+00	 1.169644e+01
0	 1.895610e+00	 1.372831e+00	 1.221361e+01
0	 1.889042e+00	 1.401360e+00	 1.217351e+01
0	 1.882306e+00	 1.429714e+00	 1.213172e+01
0	 1.875404e+00	 1.457889e+00	 1.208836e+01
0	 1.868337e+00	 1.485880e+00	 1.204350e+01
0	 1.861107e+00	 1.513682e+00	 1.199724e+01
0	 1.966071e+00	 1.426787e+00	 1.209113e+01
0	 1.959583e+00	 1.456505e+00	 1.205369e+01
0	 1.952927e+00	 1.486047e+00	 1.201466e+01
0	 1.946102e+00	 1.515408e+00	 1.197413e+01
0	 1.939112e+00	 1.544582e+00	 1.193220e+01
0	 1.931959e+00	 1.573566e+00	 1.188894e+01
0	 2.036464e+00	 1.480690e+00	 1.197885e+01
0	 2.030059e+00	 1.511599e+00	 1.194378e+01
0	 2.023485e+00	 1.542331e+00	 1.190720e+01
0	 2.016742e+00	 1.572879e+00	 1.186921e+01
0	 2.009833e+00	 1.603240e+00	 1.182988e+01
0	 2.002760e+00	 1.633406e+00	 1.178929e+01
0	 2.106789e+00	 1.534540e+00	 1.187606e+01
0	 2.100470e+00	 1.566642e+00	 1.184309e+01
0	 2.093981e+00	 1.598565e+00	 1.180871e+01
0	 2.087324e+00	 1.630303e+00	 1.177298e+01
0	 2.080500e+00	 1.661851e+00	 1.173599e+01
0	 2.073511e+00	 1.693205e+00	 1.169779e+01
0	 2.177045e+00	 1.588339e+00	 1.178210e+01
0	 2.170816e+00	 1.621635e+00	 1.175103e+01
0	 2.164416e+00	 1.654750e+00	 1.171862e+01
0	 2.157847e+00	 1.687680e+00	 1.168493e+01
0	 2.151111e+00	 1.720418e+00	 1.165004e+01
0	 2.144210e+00	 1.752960e+00	 1.161401e+01
0	 2.247233e+00	 1.642085e+00	 1.169644e+01
0	 2.241096e+00	 1.676576e+00	 1.166708e+01
0	 2.234789e+00	 1.710886e+00	 1.163645e+01
0	 2.228312e+00	 1.745009e+00	 1.160462e+01
0	 2.221669e+00	 1.778939e+00	 1.157163e+01
0	 2.214860e+00	 1.812673e+00	 1.153756e+01
0	 1.861107e+00	 1.513682e+00	 1.199724e+01
0	 1.853717e+00	 1.541290e+00	 1.194970e+01
0	 1.846168e+00	 1.568700e+00	 1.190099e+01
0	 1.838463e+00	 1.595907e+00	 1.185117e+01
0	 1.830603e+00	 1.622907e+00	 1.180030e+01
0	 1.822591e+00	 1.649696e+00	 1.174842e+01
0	 1.931959e+00	 1.573566e+00	 1.188894e+01
0	 1.924644e+00	 1.602353e+00	 1.184450e+01
0	 1.917169e+00	 1.630939e+00	 1.179899e+01
0	 1.909537e+00	 1.659320e+00	 1.175249e+01
0	 1.901749e+00	 1.687491e+00	 1.170505e+01
0	 1.893807e+00	 1.715449e+00	 1.165674e+01
0	 2.002760e+00	 1.633406e+00	 1.178929e+01
0	 1.995524e+00	 1.663375e+00	 1.174760e+01
0	 1.988128e+00	 1.693141e+00	 1.170495e+01
0	 1.980573e+00	 1.722700e+00	 1.166140e+01
0	 1.972862e+00	 1.752046e+00	 1.161700e+01
0	 1.964996e+00	 1.781176e+00	 1.157181e+01
0	 2.073511e+00	 1.693205e+00	 1.169779e+01
0	 2.066358e+00	 1.724358e+00	 1.165857e+01
0	 2.059045e+00	 1.755307e+00	 1.161847e+01
0	 2.051572e+00	 1.786046e+00	 1.157754e+01
0	 2.043942e+00	 1.816571e+00	 1.153584e+01
0	 2.036157e+00	 1.846877e+00	 1.149342e+01
0	 2.144210e+00	 1.752960e+00	 1.161401e+01
0	 2.137146e+00	 1.785301e+00	 1.157700e+01
0	 2.129920e+00	 1.817435e+00	 1.153920e+01
0	 2.122534e+00	 1.849358e+00	 1.150062e+01
0	 2.114990e+00	 1.881066e+00	 1.146133e+01
0	 2.107290e+00	 1.912553e+00	 1.142134e+01
0	 2.214860e+00	 1.812673e+00	 1.153756e+01
0	 2.207887e+00	 1.846203e+00	 1.150257e+01
0	 2.200752e+00	 1.879527e+00	 1.146684e+01
0	 2.193458e+00	 1.912637e+00	 1.143039e+01
0	 2.186005e+00	 1.945531e+00	 1.139325e+01
0	 2.178395e+00	 1.978203e+00	 1.135543e+01
0	 1.822591e+00	 1.649696e+00	 1.174842e+01
0	 1.814429e+00	 1.676269e+00	 1.169565e+01
0	 1.806120e+00	 1.702623e+00	 1.164205e+01
0	 1.797665e+00	 1.728754e+00	 1.158768e+01
0	 1.789068e+00	 1.754658e+00	 1.153256e+01
0	 1.780330e+00	 1.780330e+00	 1.147674e+01
0	 1.893807e+00	 1.715449e+00	 1.165674e+01
0	 1.885715e+00	 1.743188e+00	 1.160767e+01
0	 1.877473e+00	 1.770704e+00	 1.155801e+01
0	 1.869085e+00	 1.797994e+00	 1.150780e+01
0	 1.860553e+00	 1.825053e+00	 1.145714e+01
0	 1.851878e+00	 1.851878e+00	 1.140607e+01
0	 1.964996e+00	 1.781176e+00	 1.157181e+01
0	 1.956978e+00	 1.810084e+00	 1.152602e+01
0	 1.948810e+00	 1.838768e+00	 1.147981e+01
0	 1.940494e+00	 1.867222e+00	 1.143327e+01
0	 1.932032e+00	 1.895443e+00	 1.138647e+01
0	 1.923427e+00	 1.923427e+00	 1.133949e+01
0	 2.036157e+00	 1.846877e+00	 1.149342e+01
0	 2.028218e+00	 1.876960e+00	 1.145049e+01
0	 2.020129e+00	 1.906815e+00	 1.140730e+01
0	 2.011890e+00	 1.936439e+00	 1.136390e+01
0	 2.003505e+00	 1.965827e+00	 1.132037e+01
0	 1.994975e+00	 1.994975e+00	 1.127678e+01
0	 2.107290e+00	 1.912553e+00	 1.142134e+01
0	 2.099436e+00	 1.943814e+00	 1.138092e+01
0	 2.091430e+00	 1.974847e+00	 1.134032e+01
0	 2.083275e+00	 2.005645e+00	 1.129956e+01
0	 2.074972e+00	 2.036205e+00	 1.125869e+01
0	 2.066523e+00	 2.066523e+00	 1.121774e+01
0	 2.178395e+00	 1.978203e+00	 1.135543e+01
0	 2.170631e+00	 2.010647e+00	 1.131719e+01
0	 2.162715e+00	 2.042861e+00	 1.127877e+01
0	 2.154648e+00	 2.074839e+00	 1.124015e+01
0	 2.146433e+00	 2.106577e+00	 1.120131e+01
0	 2.138071e+00	 2.138071e+00	 1.116226e+01
0	 2.333333e+00	 0.000000e+00	 1.166049e+01
0	 2.335501e+00	 3.633150e-02	 1.165769e+01
0	 2.337490e+00	 7.275850e-02	 1.165673e+01
0	 2.339302e+00	 1.092753e-01	 1.165769e+01
0	 2.340934e+00	 1.458760e-01	 1.166062e+01
0	 2.342385e+00	 1.825549e-01	 1.166559e+01
0	 2.400000e+00	 0.000000e+00	 1.155206e+01
0	 2.402221e+00	 3.750845e-02	 1.154963e+01
0	 2.404266e+00	 7.511371e-02	 1.154906e+01
0	 2.406133e+00	 1.128100e-01	 1.155040e+01
0	 2.407822e+00	 1.505915e-01	 1.155373e+01
0	 2.409331e+00	 1.884523e-01	 1.155911e+01
0	 2.466667e+00	 0.000000e+00	 1.145522e+01
0	 2.468936e+00	 3.868531e-02	 1.145308e+01
0	 2.471031e+00	 7.746854e-02	 1.145279e+01
0	 2.472949e+00	 1.163439e-01	 1.145443e+01
0	 2.474690e+00	 1.553055e-01	 1.145806e+01
0	 2.476252e+00	 1.943473e-01	 1.146375e+01
0	 2.533333e+00	 0.000000e+00	 1.136823e+01
0	 2.535646e+00	 3.986207e-02	 1.136632e+01
0	 2.537785e+00	 7.982298e-02	 1.136627e+01
0	 2.539748e+00	 1.198769e-01	 1.136814e+01
0	 2.541536e+00	 1.600179e-01	 1.137200e+01
0	 2.543146e+00	 2.002401e-01	 1.137791e+01
0	 2.600000e+00	 0.000000e+00	 1.128959e+01
0	 2.602350e+00	 4.103873e-02	 1.128787e+01
0	 2.604527e+00	 8.217704e-02	 1.128801e+01
0	 2.606531e+00	 1.234091e-01	 1.129006e+01
0	 2.608360e+00	 1.647289e-01	 1.129410e+01
0	 2.610014e+00	 2.061306e-01	 1.130017e+01
0	 2.666667e+00	 0.000000e+00	 1.121792e+01
0	 2.669048e+00	 4.221529e-02	 1.121639e+01
0	 2.671259e+00	 8.453071e-02	 1.121670e+01
0	 2.673298e+00	 1.269404e-01	 1.121891e+01
0	 2.675164e+00	 1.694384e-01	 1.122309e+01
0	 2.676856e+00	 2.120187e-01	 1.122930e+01
0	 2.342385e+00	 1.825549e-01	 1.166559e+01
0	 2.343654e+00	 2.193060e-01	 1.167219e+01
0	 2.344741e+00	 2.561232e-01	 1.168007e+01
0	 2.345644e+00	 2.930007e-01	 1.168939e+01
0	 2.346363e+00	 3.299323e-01	 1.170026e+01
0	 2.346896e+00	 3.669118e-01	 1.171285e+01
0	 2.409331e+00	 1.884523e-01	 1.155911e+01
0	 2.410660e+00	 2.263864e-01	 1.156614e+01
0	 2.411806e+00	 2.643878e-01	 1.157445e+01
0	 2.412770e+00	 3.024504e-01	 1.158420e+01
0	 2.413551e+00	 3.405682e-01	 1.159551e+01
0	 2.414148e+00	 3.787348e-01	 1.160854e+01
0	 2.476252e+00	 1.943473e-01	 1.146375e+01
0	 2.477634e+00	 2.334635e-01	 1.147108e+01
0	 2.478836e+00	 2.726479e-01	 1.147970e+01
0	 2.479857e+00	 3.118945e-01	 1.148975e+01
0	 2.480696e+00	 3.511971e-01	 1.150136e+01
0	 2.481352e+00	 3.905494e-01	 1.151468e+01
0	 2.543146e+00	 2.002401e-01	 1.137791e+01
0	 2.544578e+00	 2.405374e-01	 1.138546e+01
0	 2.545831e+00	 2.809038e-01	 1.139429e+01
0	 2.546904e+00	 3.213330e-01	 1.140454e+01
0	 2.547796e+00	 3.618190e-01	 1.141633e+01
0	 2.548507e+00	 4.023556e-01	 1.142982e+01
0	 2.610014e+00	 2.061306e-01	 1.130017e+01
0	 2.611491e+00	 2.476080e-01	 1.130788e+01
0	 2.612790e+00	 2.891552e-01	 1.131685e+01
0	 2.613911e+00	 3.307659e-01	 1.132722e+01
0	 2.614853e+00	 3.724340e-01	 1.133912e+01
0	 2.615615e+00	 4.141533e-01	 1.135270e+01
0	 2.676856e+00	 2.120187e-01	 1.122930e+01
0	 2.678373e+00	 2.546754e-01	 1.123711e+01
0	 2.679714e+00	 2.974023e-01	 1.124617e+01
0	 2.680879e+00	 3.401933e-01	 1.125661e+01
0	 2.681866e+00	 3.830421e-01	 1.126856e+01
0	 2.682675e+00	 4.259426e-01	 1.128217e+01
0	 2.346896e+00	 3.669118e-01	 1.171285e+01
0	 2.347243e+00	 4.039331e-01	 1.172643e+01
0	 2.347403e+00	 4.409899e-01	 1.174031e+01
0	 2.347376e+00	 4.780760e-01	 1.175471e+01
0	 2.347162e+00	 5.151851e-01	 1.176983e+01
0	 2.346758e+00	 5.523108e-01	 1.178587e+01
0	 2.414148e+00	 3.787348e-01	 1.160854e+01
0	 2.414559e+00	 4.169442e-01	 1.162255e+01
0	 2.414785e+00	 4.551900e-01	 1.163688e+01
0	 2.414825e+00	 4.934659e-01	 1.165171e+01
0	 2.414678e+00	 5.317657e-01	 1.166726e+01
0	 2.414343e+00	 5.700828e-01	 1.168373e+01
0	 2.481352e+00	 3.905494e-01	 1.151468e+01
0	 2.481824e+00	 4.299453e-01	 1.152898e+01
0	 2.482111e+00	 4.693784e-01	 1.154358e+01
0	 2.482214e+00	 5.088424e-01	 1.155869e+01
0	 2.482132e+00	 5.483309e-01	 1.157450e+01
0	 2.481863e+00	 5.878376e-01	 1.159122e+01
0	 2.548507e+00	 4.023556e-01	 1.142982e+01
0	 2.549036e+00	 4.429363e-01	 1.144429e+01
0	 2.549382e+00	 4.835550e-01	 1.145905e+01
0	 2.549545e+00	 5.242053e-01	 1.147430e+01
0	 2.549523e+00	 5.648808e-01	 1.149025e+01
0	 2.549317e+00	 6.055751e-01	 1.150709e+01
0	 2.615615e+00	 4.141533e-01	 1.135270e+01
0	 2.616197e+00	 4.559174e-01	 1.136724e+01
0	 2.616597e+00	 4.977200e-01	 1.138206e+01
0	 2.616816e+00	 5.395549e-01	 1.139736e+01
0	 2.616852e+00	 5.814155e-01	 1.141335e+01
0	 2.616706e+00	 6.232955e-01	 1.143020e+01
0	 2.682675e+00	 4.259426e-01	 1.128217e+01
0	 2.683306e+00	 4.688884e-01	 1.129671e+01
0	 2.683757e+00	 5.118734e-01	 1.131153e+01
0	 2.684029e+00	 5.548910e-01	 1.132682e+01
0	 2.684120e+00	 5.979349e-01	 1.134276e+01
0	 2.684030e+00	 6.409988e-01	 1.135956e+01
0	 2.346758e+00	 5.523108e-01	 1.178587e+01
0	 2.346166e+00	 5.894469e-01	 1.180199e+01
0	 2.345385e+00	 6.265868e-01	 1.181737e+01
0	 2.344414e+00	 6.637242e-01	 1.183225e+01
0	 2.343254e+00	 7.008527e-01	 1.184687e+01
0	 2.341903e+00	 7.379658e-01	 1.186146e+01
0	 2.414343e+00	 5.700828e-01	 1.168373e+01
0	 2.413821e+00	 6.084110e-01	 1.170027e+01
0	 2.413111e+00	 6.467438e-01	 1.171608e+01
0	 2.412213e+00	 6.850748e-01	 1.173139e+01
0	 2.411126e+00	 7.233974e-01	 1.174643e+01
0	 2.409850e+00	 7.617053e-01	 1.176144e+01
0	 2.481863e+00	 5.878376e-01	 1.159122e+01
0	 2.481408e+00	 6.273560e-01	 1.160802e+01
0	 2.480766e+00	 6.668797e-01	 1.162408e+01
0	 2.479938e+00	 7.064021e-01	 1.163964e+01
0	 2.478922e+00	 7.459169e-01	 1.165493e+01
0	 2.477718e+00	 7.854175e-01	 1.167019e+01
0	 2.549317e+00	 6.055751e-01	 1.150709e+01
0	 2.548926e+00	 6.462818e-01	 1.152399e+01
0	 2.548350e+00	 6.869944e-01	 1.154017e+01
0	 2.547589e+00	 7.277063e-01	 1.155585e+01
0	 2.546641e+00	 7.684112e-01	 1.157126e+01
0	 2.545508e+00	 8.091024e-01	 1.158662e+01
0	 2.616706e+00	 6.232955e-01	 1.143020e+01
0	 2.616376e+00	 6.651885e-01	 1.144712e+01
0	 2.615863e+00	 7.070879e-01	 1.146331e+01
0	 2.615166e+00	 7.489873e-01	 1.147900e+01
0	 2.614285e+00	 7.908802e-01	 1.149442e+01
0	 2.613220e+00	 8.327601e-01	 1.150978e+01
0	 2.684030e+00	 6.409988e-01	 1.135956e+01
0	 2.683758e+00	 6.840761e-01	 1.137642e+01
0	 2.683306e+00	 7.271604e-01	 1.139255e+01
0	 2.682671e+00	 7.702452e-01	 1.140819e+01
0	 2.681854e+00	 8.133241e-01	 1.142354e+01
0	 2.680854e+00	 8.563905e-01	 1.143883e+01
0	 2.341903e+00	 7.379658e-01	 1.186146e+01
0	 2.340363e+00	 7.750570e-01	 1.187523e+01
0	 2.338632e+00	 8.121199e-01	 1.188736e+01
0	 2.336711e+00	 8.491481e-01	 1.189811e+01
0	 2.334600e+00	 8.861351e-01	 1.190773e+01
0	 2.332300e+00	 9.230743e-01	 1.191645e+01
0	 2.409850e+00	 7.617053e-01	 1.176144e+01
0	 2.408385e+00	 7.999919e-01	 1.177563e+01
0	 2.406731e+00	 8.382508e-01	 1.178821e+01
0	 2.404888e+00	 8.764753e-01	 1.179943e+01
0	 2.402856e+00	 9.146591e-01	 1.180951e+01
0	 2.400636e+00	 9.527956e-01	 1.181870e+01
0	 2.477718e+00	 7.854175e-01	 1.167019e+01
0	 2.476327e+00	 8.248974e-01	 1.168463e+01
0	 2.474748e+00	 8.643501e-01	 1.169748e+01
0	 2.472981e+00	 9.037690e-01	 1.170898e+01
0	 2.471027e+00	 9.431476e-01	 1.171937e+01
0	 2.468886e+00	 9.824794e-01	 1.172887e+01
0	 2.545508e+00	 8.091024e-01	 1.158662e+01
0	 2.544189e+00	 8.497735e-01	 1.160117e+01
0	 2.542683e+00	 8.904180e-01	 1.161416e+01
0	 2.540991e+00	 9.310292e-01	 1.162582e+01
0	 2.539113e+00	 9.716006e-01	 1.163638e+01
0	 2.537049e+00	 1.012126e+00	 1.164605e+01
0	 2.613220e+00	 8.327601e-01	 1.150978e+01
0	 2.611971e+00	 8.746203e-01	 1.152434e+01
0	 2.610536e+00	 9.164544e-01	 1.153737e+01
0	 2.608918e+00	 9.582559e-01	 1.154909e+01
0	 2.607115e+00	 1.000018e+00	 1.155971e+01
0	 2.605127e+00	 1.041735e+00	 1.156946e+01
0	 2.680854e+00	 8.563905e-01	 1.143883e+01
0	 2.679673e+00	 8.994378e-01	 1.145333e+01
0	 2.678308e+00	 9.424596e-01	 1.146633e+01
0	 2.676761e+00	 9.854493e-01	 1.147803e+01
0	 2.675031e+00	 1.028400e+00	 1.148865e+01
0	 2.673119e+00	 1.071306e+00	 1.149841e+01
0	 2.332300e+00	 9.230743e-01	 1.191645e+01
0	 2.329809e+00	 9.599594e-01	 1.192365e+01
0	 2.327130e+00	 9.967839e-01	 1.192867e+01
0	 2.324261e+00	 1.033541e+00	 1.193176e+01
0	 2.321204e+00	 1.070225e+00	 1.193312e+01
0	 2.317959e+00	 1.106830e+00	 1.193299e+01
0	 2.400636e+00	 9.527956e-01	 1.181870e+01
0	 2.398227e+00	 9.908784e-01	 1.182639e+01
0	 2.395629e+00	 1.028901e+00	 1.183196e+01
0	 2.392844e+00	 1.066857e+00	 1.183561e+01
0	 2.389871e+00	 1.104739e+00	 1.183758e+01
0	 2.386711e+00	 1.142542e+00	 1.183806e+01
0	 2.468886e+00	 9.824794e-01	 1.172887e+01
0	 2.466557e+00	 1.021758e+00	 1.173689e+01
0	 2.464041e+00	 1.060977e+00	 1.174283e+01
0	 2.461338e+00	 1.100129e+00	 1.174689e+01
0	 2.458449e+00	 1.139209e+00	 1.174930e+01
0	 2.455373e+00	 1.178209e+00	 1.175025e+01
0	 2.537049e+00	 1.012126e+00	 1.164605e+01
0	 2.534799e+00	 1.052598e+00	 1.165427e+01
0	 2.532364e+00	 1.093011e+00	 1.166046e+01
0	 2.529743e+00	 1.133358e+00	 1.166482e+01
0	 2.526937e+00	 1.173633e+00	 1.166754e+01
0	 2.523947e+00	 1.213829e+00	 1.166883e+01
0	 2.605127e+00	 1.041735e+00	 1.156946e+01
0	 2.602955e+00	 1.083399e+00	 1.157779e+01
0	 2.600599e+00	 1.125004e+00	 1.158413e+01
0	 2.598060e+00	 1.166544e+00	 1.158868e+01
0	 2.595337e+00	 1.208013e+00	 1.159162e+01
0	 2.592431e+00	 1.249403e+00	 1.159317e+01
0	 2.673119e+00	 1.071306e+00	 1.149841e+01
0	 2.671024e+00	 1.114160e+00	 1.150677e+01
0	 2.668747e+00	 1.156956e+00	 1.151319e+01
0	 2.666289e+00	 1.199688e+00	 1.151785e+01
0	 2.663648e+00	 1.242348e+00	 1.152095e+01
0	 2.660826e+00	 1.284930e+00	 1.152268e+01
0	 2.317959e+00	 1.106830e+00	 1.193299e+01
0	 2.314526e+00	 1.143348e+00	 1.193096e+01
0	 2.310907e+00	 1.179773e+00	 1.192661e+01
0	 2.307101e+00	 1.216100e+00	 1.192013e+01
0	 2.303109e+00	 1.252322e+00	 1.191170e+01
0	 2.298933e+00	 1.288432e+00	 1.190152e+01
0	 2.386711e+00	 1.142542e+00	 1.183806e+01
0	 2.383364e+00	 1.180260e+00	 1.183669e+01
0	 2.379831e+00	 1.217884e+00	 1.183306e+01
0	 2.376113e+00	 1.255410e+00	 1.182736e+01
0	 2.372210e+00	 1.292832e+00	 1.181975e+01
0	 2.368124e+00	 1.330141e+00	 1.181042e+01
0	 2.455373e+00	 1.178209e+00	 1.175025e+01
0	 2.452113e+00	 1.217123e+00	 1.174939e+01
0	 2.448667e+00	 1.255946e+00	 1.174633e+01
0	 2.445037e+00	 1.294670e+00	 1.174125e+01
0	 2.441224e+00	 1.333290e+00	 1.173431e+01
0	 2.437227e+00	 1.371798e+00	 1.172569e+01
0	 2.523947e+00	 1.213829e+00	 1.166883e+01
0	 2.520772e+00	 1.253939e+00	 1.166836e+01
0	 2.517414e+00	 1.293958e+00	 1.166575e+01
0	 2.513873e+00	 1.333879e+00	 1.166117e+01
0	 2.510149e+00	 1.373696e+00	 1.165479e+01
0	 2.506243e+00	 1.413402e+00	 1.164676e+01
0	 2.592431e+00	 1.249403e+00	 1.159317e+01
0	 2.589342e+00	 1.290708e+00	 1.159299e+01
0	 2.586072e+00	 1.331922e+00	 1.159073e+01
0	 2.582619e+00	 1.373038e+00	 1.158657e+01
0	 2.578986e+00	 1.414051e+00	 1.158064e+01
0	 2.575173e+00	 1.454953e+00	 1.157312e+01
0	 2.660826e+00	 1.284930e+00	 1.152268e+01
0	 2.657824e+00	 1.327428e+00	 1.152272e+01
0	 2.654641e+00	 1.369836e+00	 1.152076e+01
0	 2.651278e+00	 1.412147e+00	 1.151693e+01
0	 2.647736e+00	 1.454354e+00	 1.151140e+01
0	 2.644015e+00	 1.496452e+00	 1.150430e+01
0	 2.298933e+00	 1.288432e+00	 1.190152e+01
0	 2.294573e+00	 1.324425e+00	 1.188939e+01
0	 2.290030e+00	 1.360295e+00	 1.187512e+01
0	 2.285305e+00	 1.396035e+00	 1.185885e+01
0	 2.280399e+00	 1.431639e+00	 1.184072e+01
0	 2.275314e+00	 1.467101e+00	 1.182087e+01
0	 2.368124e+00	 1.330141e+00	 1.181042e+01
0	 2.363854e+00	 1.367334e+00	 1.179920e+01
0	 2.359402e+00	 1.404403e+00	 1.178591e+01
0	 2.354769e+00	 1.441342e+00	 1.177069e+01
0	 2.349955e+00	 1.478145e+00	 1.175367e+01
0	 2.344963e+00	 1.514806e+00	 1.173497e+01
0	 2.437227e+00	 1.371798e+00	 1.172569e+01
0	 2.433049e+00	 1.410189e+00	 1.171524e+01
0	 2.428689e+00	 1.448456e+00	 1.170279e+01
0	 2.424149e+00	 1.486594e+00	 1.168848e+01
0	 2.419429e+00	 1.524596e+00	 1.167242e+01
0	 2.414531e+00	 1.562456e+00	 1.165473e+01
0	 2.506243e+00	 1.413402e+00	 1.164676e+01
0	 2.502157e+00	 1.452990e+00	 1.163696e+01
0	 2.497891e+00	 1.492456e+00	 1.162524e+01
0	 2.493445e+00	 1.531792e+00	 1.161171e+01
0	 2.488821e+00	 1.570992e+00	 1.159649e+01
0	 2.484019e+00	 1.610051e+00	 1.157970e+01
0	 2.575173e+00	 1.454953e+00	 1.157312e+01
0	 2.571180e+00	 1.495739e+00	 1.156387e+01
0	 2.567008e+00	 1.536401e+00	 1.155278e+01
0	 2.562658e+00	 1.576935e+00	 1.153994e+01
0	 2.558131e+00	 1.617334e+00	 1.152547e+01
0	 2.553428e+00	 1.657591e+00	 1.150949e+01
0	 2.644015e+00	 1.496452e+00	 1.150430e+01
0	 2.640116e+00	 1.538434e+00	 1.149554e+01
0	 2.636040e+00	 1.580293e+00	 1.148500e+01
0	 2.631787e+00	 1.622024e+00	 1.147279e+01
0	 2.627359e+00	 1.663621e+00	 1.145900e+01
0	 2.622756e+00	 1.705077e+00	 1.144373e+01
0	 2.275314e+00	 1.467101e+00	 1.182087e+01
0	 2.270050e+00	 1.502416e+00	 1.179929e+01
0	 2.264608e+00	 1.537578e+00	 1.177597e+01
0	 2.258991e+00	 1.572580e+00	 1.175098e+01
0	 2.253199e+00	 1.607418e+00	 1.172444e+01
0	 2.247233e+00	 1.642085e+00	 1.169644e+01
0	 2.344963e+00	 1.514806e+00	 1.173497e+01
0	 2.339792e+00	 1.551320e+00	 1.171462e+01
0	 2.334444e+00	 1.587679e+00	 1.169259e+01
0	 2.328921e+00	 1.623880e+00	 1.166898e+01
0	 2.323224e+00	 1.659915e+00	 1.164387e+01
0	 2.317354e+00	 1.695779e+00	 1.161735e+01
0	 2.414531e+00	 1.562456e+00	 1.165473e+01
0	 2.409456e+00	 1.600168e+00	 1.163546e+01
0	 2.404205e+00	 1.637727e+00	 1.161458e+01
0	 2.398778e+00	 1.675126e+00	 1.159220e+01
0	 2.393178e+00	 1.712359e+00	 1.156838e+01
0	 2.387406e+00	 1.749421e+00	 1.154321e+01
0	 2.484019e+00	 1.610051e+00	 1.157970e+01
0	 2.479042e+00	 1.648962e+00	 1.156138e+01
0	 2.473889e+00	 1.687720e+00	 1.154155e+01
0	 2.468562e+00	 1.726317e+00	 1.152026e+01
0	 2.463062e+00	 1.764750e+00	 1.149761e+01
0	 2.457390e+00	 1.803011e+00	 1.147367e+01
0	 2.553428e+00	 1.657591e+00	 1.150949e+01
0	 2.548550e+00	 1.697701e+00	 1.149203e+01
0	 2.543497e+00	 1.737658e+00	 1.147313e+01
0	 2.538272e+00	 1.777456e+00	 1.145285e+01
0	 2.532875e+00	 1.817088e+00	 1.143126e+01
0	 2.527307e+00	 1.856550e+00	 1.140843e+01
0	 2.622756e+00	 1.705077e+00	 1.144373e+01
0	 2.617980e+00	 1.746386e+00	 1.142706e+01
0	 2.613030e+00	 1.787542e+00	 1.140901e+01
0	 2.607909e+00	 1.828540e+00	 1.138964e+01
0	 2.602617e+00	 1.869373e+00	 1.136903e+01
0	 2.597156e+00	 1.910036e+00	 1.134722e+01
0	 2.247233e+00	 1.642085e+00	 1.169644e+01
0	 2.241096e+00	 1.676576e+00	 1.166708e+01
0	 2.234789e+00	 1.710886e+00	 1.163645e+01
0	 2.228312e+00	 1.745009e+00	 1.160462e+01
0	 2.221669e+00	 1.778939e+00	 1.157163e+01
0	 2.214860e+00	 1.812673e+00	 1.153756e+01
0	 2.317354e+00	 1.695779e+00	 1.161735e+01
0	 2.311312e+00	 1.731467e+00	 1.158954e+01
0	 2.305100e+00	 1.766972e+00	 1.156055e+01
0	 2.298719e+00	 1.802290e+00	 1.153042e+01
0	 2.292172e+00	 1.837416e+00	 1.149919e+01
0	 2.285459e+00	 1.872343e+00	 1.146693e+01
0	 2.387406e+00	 1.749421e+00	 1.154321e+01
0	 2.381462e+00	 1.786307e+00	 1.151682e+01
0	 2.375349e+00	 1.823010e+00	 1.148932e+01
0	 2.369068e+00	 1.859525e+00	 1.146075e+01
0	 2.362620e+00	 1.895847e+00	 1.143116e+01
0	 2.356007e+00	 1.931970e+00	 1.140058e+01
0	 2.457390e+00	 1.803011e+00	 1.147367e+01
0	 2.451548e+00	 1.841096e+00	 1.144857e+01
0	 2.445537e+00	 1.878998e+00	 1.142244e+01
0	 2.439359e+00	 1.916712e+00	 1.139531e+01
0	 2.433014e+00	 1.954233e+00	 1.136722e+01
0	 2.426505e+00	 1.991555e+00	 1.133819e+01
0	 2.527307e+00	 1.856550e+00	 1.140843e+01
0	 2.521570e+00	 1.895835e+00	 1.138451e+01
0	 2.515664e+00	 1.934937e+00	 1.135962e+01
0	 2.509592e+00	 1.973852e+00	 1.133381e+01
0	 2.503354e+00	 2.012574e+00	 1.130709e+01
0	 2.496953e+00	 2.051097e+00	 1.127949e+01
0	 2.597156e+00	 1.910036e+00	 1.134722e+01
0	 2.591526e+00	 1.950523e+00	 1.132437e+01
0	 2.585730e+00	 1.990828e+00	 1.130063e+01
0	 2.579767e+00	 2.030945e+00	 1.127601e+01
0	 2.573640e+00	 2.070870e+00	 1.125053e+01
0	 2.567350e+00	 2.110597e+00	 1.122422e+01
0	 2.214860e+00	 1.812673e+00	 1.153756e+01
0	 2.207887e+00	 1.846203e+00	 1.150257e+01
0	 2.200752e+00	 1.879527e+00	 1.146684e+01
0	 2.193458e+00	 1.912637e+00	 1.143039e+01
0	 2.186005e+00	 1.945531e+00	 1.139325e+01
0	 2.178395e+00	 1.978203e+00	 1.135543e+01
0	 2.285459e+00	 1.872343e+00	 1.146693e+01
0	 2.278582e+00	 1.907066e+00	 1.143381e+01
0	 2.271543e+00	 1.941581e+00	 1.140002e+01
0	 2.264344e+00	 1.975883e+00	 1.136555e+01
0	 2.256987e+00	 2.009967e+00	 1.133041e+01
0	 2.249472e+00	 2.043827e+00	 1.129462e+01
0	 2.356007e+00	 1.931970e+00	 1.140058e+01
0	 2.349230e+00	 1.967889e+00	 1.136921e+01
0	 2.342292e+00	 2.003599e+00	 1.133724e+01
0	 2.335193e+00	 2.039096e+00	 1.130465e+01
0	 2.327936e+00	 2.074373e+00	 1.127144e+01
0	 2.320522e+00	 2.109426e+00	 1.123761e+01
0	 2.426505e+00	 1.991555e+00	 1.133819e+01
0	 2.419833e+00	 2.028672e+00	 1.130845e+01
0	 2.412999e+00	 2.065581e+00	 1.127816e+01
0	 2.406005e+00	 2.102274e+00	 1.124732e+01
0	 2.398853e+00	 2.138749e+00	 1.121592e+01
0	 2.391544e+00	 2.174999e+00	 1.118394e+01
0	 2.496953e+00	 2.051097e+00	 1.127949e+01
0	 2.490388e+00	 2.089416e+00	 1.125123e+01
0	 2.483663e+00	 2.127525e+00	 1.122247e+01
0	 2.476779e+00	 2.165420e+00	 1.119323e+01
0	 2.469737e+00	 2.203095e+00	 1.116348e+01
0	 2.462538e+00	 2.240546e+00	 1.113322e+01
0	 2.567350e+00	 2.110597e+00	 1.122422e+01
0	 2.560898e+00	 2.150119e+00	 1.119729e+01
0	 2.554286e+00	 2.189433e+00	 1.116991e+01
0	 2.547516e+00	 2.228532e+00	 1.114209e+01
0	 2.540588e+00	 2.267412e+00	 1.111381e+01
0	 2.533505e+00	 2.306068e+00	 1.108507e+01
0	 2.178395e+00	 1.978203e+00	 1.135543e+01
0	 2.170631e+00	 2.010647e+00	 1.131719e+01
0	 2.162715e+00	 2.042861e+00	 1.127877e+01
0	 2.154648e+00	 2.074839e+00	 1.124015e+01
0	 2.146433e+00	 2.106577e+00	 1.120131e+01
0	 2.138071e+00	 2.138071e+00	 1.116226e+01
0	 2.249472e+00	 2.043827e+00	 1.129462e+01
0	 2.241804e+00	 2.077459e+00	 1.125841e+01
0	 2.233982e+00	 2.110859e+00	 1.122196e+01
0	 2.226009e+00	 2.144022e+00	 1.118523e+01
0	 2.217888e+00	 2.176944e+00	 1.114816e+01
0	 2.209619e+00	 2.209619e+00	 1.111069e+01
0	 2.320522e+00	 2.109426e+00	 1.123761e+01
0	 2.312953e+00	 2.144250e+00	 1.120337e+01
0	 2.305232e+00	 2.178841e+00	 1.116887e+01
0	 2.297359e+00	 2.213194e+00	 1.113403e+01
0	 2.289337e+00	 2.247304e+00	 1.109879e+01
0	 2.281168e+00	 2.281168e+00	 1.106306e+01
0	 2.391544e+00	 2.174999e+00	 1.118394e+01
0	 2.384081e+00	 2.211019e+00	 1.115158e+01
0	 2.376464e+00	 2.246806e+00	 1.111895e+01
0	 2.368697e+00	 2.282354e+00	 1.108598e+01
0	 2.360780e+00	 2.317659e+00	 1.105260e+01
0	 2.352716e+00	 2.352716e+00	 1.101873e+01
0	 2.462538e+00	 2.240546e+00	 1.113322e+01
0	 2.455185e+00	 2.277768e+00	 1.110259e+01
0	 2.447680e+00	 2.314755e+00	 1.107173e+01
0	 2.440023e+00	 2.351503e+00	 1.104056e+01
0	 2.432217e+00	 2.388007e+00	 1.100906e+01
0	 2.424264e+00	 2.424264e+00	 1.097715e+01
0	 2.533505e+00	 2.306068e+00	 1.108507e+01
0	 2.526267e+00	 2.344495e+00	 1.105602e+01
0	 2.518878e+00	 2.382687e+00	 1.102678e+01
0	 2.511338e+00	 2.420640e+00	 1.099734e+01
0	 2.503648e+00	 2.458350e+00	 1.096769e+01
0	 2.495812e+00	 2.495812e+00	 1.093781e+01
0	 2.666667e+00	 0.000000e+00	 1.121792e+01
0	 2.669048e+00	 4.221529e-02	 1.121639e+01
0	 2.671259e+00	 8.453071e-02	 1.121670e+01
0	 2.673298e+00	 1.269404e-01	 1.121891e+01
0	 2.675164e+00	 1.694384e-01	 1.122309e+01
0	 2.676856e+00	 2.120187e-01	 1.122930e+01
0	 2.733333e+00	 0.000000e+00	 1.115241e+01
0	 2.735741e+00	 4.339176e-02	 1.115106e+01
0	 2.737980e+00	 8.688399e-02	 1.115153e+01
0	 2.740049e+00	 1.304708e-01	 1.115388e+01
0	 2.741946e+00	 1.741464e-01	 1.115818e+01
0	 2.743672e+00	 2.179046e-01	 1.116448e+01
0	 2.800000e+00	 0.000000e+00	 1.109262e+01
0	 2.802429e+00	 4.456812e-02	 1.109144e+01
0	 2.804690e+00	 8.923689e-02	 1.109206e+01
0	 2.806783e+00	 1.340004e-01	 1.109453e+01
0	 2.808707e+00	 1.788529e-01	 1.109891e+01
0	 2.810461e+00	 2.237882e-01	 1.110527e+01
0	 2.866667e+00	 0.000000e+00	 1.103794e+01
0	 2.869110e+00	 4.574439e-02	 1.103693e+01
0	 2.871389e+00	 9.158940e-02	 1.103769e+01
0	 2.873502e+00	 1.375292e-01	 1.104026e+01
0	 2.875447e+00	 1.835579e-01	 1.104470e+01
0	 2.877225e+00	 2.296695e-01	 1.105108e+01
0	 2.933333e+00	 0.000000e+00	 1.098785e+01
0	 2.935787e+00	 4.692056e-02	 1.098700e+01
0	 2.938077e+00	 9.394153e-02	 1.098787e+01
0	 2.940204e+00	 1.410571e-01	 1.099052e+01
0	 2.942166e+00	 1.882614e-01	 1.099501e+01
0	 2.943963e+00	 2.355485e-01	 1.100139e+01
0	 3.000000e+00	 0.000000e+00	 1.094185e+01
0	 3.002457e+00	 4.809663e-02	 1.094115e+01
0	 3.004754e+00	 9.629327e-02	 1.094212e+01
0	 3.006890e+00	 1.445841e-01	 1.094484e+01
0	 3.008864e+00	 1.929634e-01	 1.094935e+01
0	 3.010675e+00	 2.414252e-01	 1.095571e+01
0	 2.676856e+00	 2.120187e-01	 1.122930e+01
0	 2.678373e+00	 2.546754e-01	 1.123711e+01
0	 2.679714e+00	 2.974023e-01	 1.124617e+01
0	 2.680879e+00	 3.401933e-01	 1.125661e+01
0	 2.681866e+00	 3.830421e-01	 1.126856e+01
0	 2.682675e+00	 4.259426e-01	 1.128217e+01
0	 2.743672e+00	 2.179046e-01	 1.116448e+01
0	 2.745224e+00	 2.617395e-01	 1.117236e+01
0	 2.746603e+00	 3.056450e-01	 1.118147e+01
0	 2.747807e+00	 3.496150e-01	 1.119193e+01
0	 2.748835e+00	 3.936432e-01	 1.120388e+01
0	 2.749688e+00	 4.377235e-01	 1.121745e+01
0	 2.810461e+00	 2.237882e-01	 1.110527e+01
0	 2.812045e+00	 2.688004e-01	 1.111318e+01
0	 2.813456e+00	 3.138834e-01	 1.112229e+01
0	 2.814695e+00	 3.590311e-01	 1.113272e+01
0	 2.815760e+00	 4.042374e-01	 1.114462e+01
0	 2.816652e+00	 4.494960e-01	 1.115811e+01
0	 2.877225e+00	 2.296695e-01	 1.105108e+01
0	 2.878834e+00	 2.758580e-01	 1.105898e+01
0	 2.880274e+00	 3.221175e-01	 1.106806e+01
0	 2.881543e+00	 3.684417e-01	 1.107843e+01
0	 2.882642e+00	 4.148247e-01	 1.109024e+01
0	 2.883569e+00	 4.612601e-01	 1.110361e+01
0	 2.943963e+00	 2.355485e-01	 1.100139e+01
0	 2.945593e+00	 2.829124e-01	 1.100926e+01
0	 2.947057e+00	 3.303472e-01	 1.101828e+01
0	 2.948352e+00	 3.778467e-01	 1.102857e+01
0	 2.949480e+00	 4.254050e-01	 1.104026e+01
0	 2.950438e+00	 4.730158e-01	 1.105348e+01
0	 3.010675e+00	 2.414252e-01	 1.095571e+01
0	 3.012322e+00	 2.899635e-01	 1.096354e+01
0	 3.013804e+00	 3.385726e-01	 1.097248e+01
0	 3.015122e+00	 3.872462e-01	 1.098267e+01
0	 3.016274e+00	 4.359784e-01	 1.099423e+01
0	 3.017259e+00	 4.847631e-01	 1.100728e+01
0	 2.682675e+00	 4.259426e-01	 1.128217e+01
0	 2.683306e+00	 4.688884e-01	 1.129671e+01
0	 2.683757e+00	 5.118734e-01	 1.131153e+01
0	 2.684029e+00	 5.548910e-01	 1.132682e+01
0	 2.684120e+00	 5.979349e-01	 1.134276e+01
0	 2.684030e+00	 6.409988e-01	 1.135956e+01
0	 2.749688e+00	 4.377235e-01	 1.121745e+01
0	 2.750363e+00	 4.818495e-01	 1.123195e+01
0	 2.750862e+00	 5.260150e-01	 1.124671e+01
0	 2.751182e+00	 5.702137e-01	 1.126192e+01
0	 2.751325e+00	 6.144391e-01	 1.127777e+01
0	 2.751288e+00	 6.586849e-01	 1.129445e+01
0	 2.816652e+00	 4.494960e-01	 1.115811e+01
0	 2.817369e+00	 4.948006e-01	 1.117251e+01
0	 2.817911e+00	 5.401451e-01	 1.118715e+01
0	 2.818278e+00	 5.855230e-01	 1.120223e+01
0	 2.818468e+00	 6.309281e-01	 1.121793e+01
0	 2.818482e+00	 6.763539e-01	 1.123444e+01
0	 2.883569e+00	 4.612601e-01	 1.110361e+01
0	 2.884323e+00	 5.077418e-01	 1.111787e+01
0	 2.884906e+00	 5.542635e-01	 1.113235e+01
0	 2.885314e+00	 6.008189e-01	 1.114726e+01
0	 2.885549e+00	 6.474019e-01	 1.116278e+01
0	 2.885610e+00	 6.940059e-01	 1.117907e+01
0	 2.950438e+00	 4.730158e-01	 1.105348e+01
0	 2.951226e+00	 5.206729e-01	 1.106756e+01
0	 2.951845e+00	 5.683703e-01	 1.108187e+01
0	 2.952292e+00	 6.161015e-01	 1.109658e+01
0	 2.952569e+00	 6.638605e-01	 1.111187e+01
0	 2.952674e+00	 7.116408e-01	 1.112793e+01
0	 3.017259e+00	 4.847631e-01	 1.100728e+01
0	 3.018078e+00	 5.335942e-01	 1.102118e+01
0	 3.018729e+00	 5.824655e-01	 1.103528e+01
0	 3.019212e+00	 6.313708e-01	 1.104978e+01
0	 3.019527e+00	 6.803039e-01	 1.106484e+01
0	 3.019673e+00	 7.292586e-01	 1.108064e+01
0	 2.684030e+00	 6.409988e-01	 1.135956e+01
0	 2.683758e+00	 6.840761e-01	 1.137642e+01
0	 2.683306e+00	 7.271604e-01	 1.139255e+01
0	 2.682671e+00	 7.702452e-01	 1.140819e+01
0	 2.681854e+00	 8.133241e-01	 1.142354e+01
0	 2.680854e+00	 8.563905e-01	 1.143883e+01
0	 2.751288e+00	 6.586849e-01	 1.129445e+01
0	 2.751072e+00	 7.029446e-01	 1.131119e+01
0	 2.750677e+00	 7.472118e-01	 1.132720e+01
0	 2.750102e+00	 7.914801e-01	 1.134272e+01
0	 2.749346e+00	 8.357429e-01	 1.135795e+01
0	 2.748411e+00	 8.799937e-01	 1.137311e+01
0	 2.818482e+00	 6.763539e-01	 1.123444e+01
0	 2.818318e+00	 7.217941e-01	 1.125100e+01
0	 2.817978e+00	 7.672422e-01	 1.126684e+01
0	 2.817460e+00	 8.126919e-01	 1.128219e+01
0	 2.816764e+00	 8.581366e-01	 1.129725e+01
0	 2.815890e+00	 9.035698e-01	 1.131223e+01
0	 2.885610e+00	 6.940059e-01	 1.117907e+01
0	 2.885497e+00	 7.406246e-01	 1.119541e+01
0	 2.885208e+00	 7.872517e-01	 1.121104e+01
0	 2.884745e+00	 8.338807e-01	 1.122618e+01
0	 2.884106e+00	 8.805053e-01	 1.124103e+01
0	 2.883291e+00	 9.271189e-01	 1.125579e+01
0	 2.952674e+00	 7.116408e-01	 1.112793e+01
0	 2.952607e+00	 7.594361e-01	 1.114402e+01
0	 2.952368e+00	 8.072401e-01	 1.115941e+01
0	 2.951956e+00	 8.550466e-01	 1.117432e+01
0	 2.951372e+00	 9.028489e-01	 1.118892e+01
0	 2.950615e+00	 9.506409e-01	 1.120344e+01
0	 3.019673e+00	 7.292586e-01	 1.108064e+01
0	 3.019650e+00	 7.782287e-01	 1.109647e+01
0	 3.019458e+00	 8.272077e-01	 1.111161e+01
0	 3.019096e+00	 8.761895e-01	 1.112626e+01
0	 3.018564e+00	 9.251677e-01	 1.114062e+01
0	 3.017862e+00	 9.741360e-01	 1.115488e+01
0	 2.680854e+00	 8.563905e-01	 1.143883e+01
0	 2.679673e+00	 8.994378e-01	 1.145333e+01
0	 2.678308e+00	 9.424596e-01	 1.146633e+01
0	 2.676761e+00	 9.854493e-01	 1.147803e+01
0	 2.675031e+00	 1.028400e+00	 1.148865e+01
0	 2.673119e+00	 1.071306e+00	 1.149841e+01
0	 2.748411e+00	 8.799937e-01	 1.137311e+01
0	 2.747295e+00	 9.242261e-01	 1.138750e+01
0	 2.745998e+00	 9.684335e-01	 1.140040e+01
0	 2.744521e+00	 1.012609e+00	 1.141203e+01
0	 2.742863e+00	 1.056747e+00	 1.142259e+01
0	 2.741025e+00	 1.100841e+00	 1.143230e+01
0	 2.815890e+00	 9.035698e-01	 1.131223e+01
0	 2.814837e+00	 9.489852e-01	 1.132644e+01
0	 2.813607e+00	 9.943762e-01	 1.133920e+01
0	 2.812198e+00	 1.039736e+00	 1.135071e+01
0	 2.810611e+00	 1.085059e+00	 1.136117e+01
0	 2.808846e+00	 1.130338e+00	 1.137078e+01
0	 2.883291e+00	 9.271189e-01	 1.125579e+01
0	 2.882301e+00	 9.737152e-01	 1.126979e+01
0	 2.881135e+00	 1.020288e+00	 1.128237e+01
0	 2.879793e+00	 1.066830e+00	 1.129372e+01
0	 2.878275e+00	 1.113335e+00	 1.130404e+01
0	 2.876581e+00	 1.159798e+00	 1.131354e+01
0	 2.950615e+00	 9.506409e-01	 1.120344e+01
0	 2.949685e+00	 9.984161e-01	 1.121722e+01
0	 2.948581e+00	 1.046168e+00	 1.122959e+01
0	 2.947304e+00	 1.093890e+00	 1.124076e+01
0	 2.945854e+00	 1.141577e+00	 1.125092e+01
0	 2.944231e+00	 1.189221e+00	 1.126027e+01
0	 3.017862e+00	 9.741360e-01	 1.115488e+01
0	 3.016989e+00	 1.023088e+00	 1.116841e+01
0	 3.015947e+00	 1.072017e+00	 1.118057e+01
0	 3.014734e+00	 1.120918e+00	 1.119155e+01
0	 3.013350e+00	 1.169783e+00	 1.120154e+01
0	 3.011796e+00	 1.218607e+00	 1.121072e+01
0	 2.673119e+00	 1.071306e+00	 1.149841e+01
0	 2.671024e+00	 1.114160e+00	 1.150677e+01
0	 2.668747e+00	 1.156956e+00	 1.151319e+01
0	 2.666289e+00	 1.199688e+00	 1.151785e+01
0	 2.663648e+00	 1.242348e+00	 1.152095e+01
0	 2.660826e+00	 1.284930e+00	 1.152268e+01
0	 2.741025e+00	 1.100841e+00	 1.143230e+01
0	 2.739007e+00	 1.144883e+00	 1.144064e+01
0	 2.736808e+00	 1.188868e+00	 1.144709e+01
0	 2.734429e+00	 1.232788e+00	 1.145183e+01
0	 2.731871e+00	 1.276639e+00	 1.145503e+01
0	 2.729133e+00	 1.320412e+00	 1.145689e+01
0	 2.808846e+00	 1.130338e+00	 1.137078e+01
0	 2.806902e+00	 1.175566e+00	 1.137906e+01
0	 2.804781e+00	 1.220738e+00	 1.138550e+01
0	 2.802482e+00	 1.265846e+00	 1.139026e+01
0	 2.800005e+00	 1.310885e+00	 1.139352e+01
0	 2.797351e+00	 1.355847e+00	 1.139547e+01
0	 2.876581e+00	 1.159798e+00	 1.131354e+01
0	 2.874712e+00	 1.206211e+00	 1.132172e+01
0	 2.872667e+00	 1.252567e+00	 1.132810e+01
0	 2.870447e+00	 1.298862e+00	 1.133286e+01
0	 2.868051e+00	 1.345087e+00	 1.133615e+01
0	 2.865481e+00	 1.391237e+00	 1.133816e+01
0	 2.944231e+00	 1.189221e+00	 1.126027e+01
0	 2.942435e+00	 1.236816e+00	 1.126833e+01
0	 2.940466e+00	 1.284356e+00	 1.127465e+01
0	 2.938324e+00	 1.331834e+00	 1.127937e+01
0	 2.936010e+00	 1.379245e+00	 1.128267e+01
0	 2.933523e+00	 1.426581e+00	 1.128471e+01
0	 3.011796e+00	 1.218607e+00	 1.121072e+01
0	 3.010072e+00	 1.267383e+00	 1.121865e+01
0	 3.008178e+00	 1.316104e+00	 1.122488e+01
0	 3.006114e+00	 1.364765e+00	 1.122956e+01
0	 3.003880e+00	 1.413358e+00	 1.123285e+01
0	 3.001477e+00	 1.461879e+00	 1.123491e+01
0	 2.660826e+00	 1.284930e+00	 1.152268e+01
0	 2.657824e+00	 1.327428e+00	 1.152272e+01
0	 2.654641e+00	 1.369836e+00	 1.152076e+01
0	 2.651278e+00	 1.412147e+00	 1.151693e+01
0	 2.647736e+00	 1.454354e+00	 1.151140e+01
0	 2.644015e+00	 1.496452e+00	 1.150430e+01
0	 2.729133e+00	 1.320412e+00	 1.145689e+01
0	 2.726217e+00	 1.364101e+00	 1.145710e+01
0	 2.723121e+00	 1.407701e+00	 1.145538e+01
0	 2.719848e+00	 1.451205e+00	 1.145185e+01
0	 2.716398e+00	 1.494606e+00	 1.144665e+01
0	 2.712770e+00	 1.537898e+00	 1.143994e+01
0	 2.797351e+00	 1.355847e+00	 1.139547e+01
0	 2.794521e+00	 1.400727e+00	 1.139582e+01
0	 2.791514e+00	 1.445518e+00	 1.139429e+01
0	 2.788331e+00	 1.490213e+00	 1.139102e+01
0	 2.784973e+00	 1.534807e+00	 1.138613e+01
0	 2.781439e+00	 1.579293e+00	 1.137976e+01
0	 2.865481e+00	 1.391237e+00	 1.133816e+01
0	 2.862737e+00	 1.437305e+00	 1.133862e+01
0	 2.859818e+00	 1.483286e+00	 1.133725e+01
0	 2.856726e+00	 1.529172e+00	 1.133419e+01
0	 2.853460e+00	 1.574957e+00	 1.132957e+01
0	 2.850022e+00	 1.620635e+00	 1.132351e+01
0	 2.933523e+00	 1.426581e+00	 1.128471e+01
0	 2.930864e+00	 1.473836e+00	 1.128525e+01
0	 2.928034e+00	 1.521005e+00	 1.128402e+01
0	 2.925033e+00	 1.568080e+00	 1.128116e+01
0	 2.921861e+00	 1.615056e+00	 1.127677e+01
0	 2.918518e+00	 1.661926e+00	 1.127099e+01
0	 3.001477e+00	 1.461879e+00	 1.123491e+01
0	 2.998904e+00	 1.510320e+00	 1.123551e+01
0	 2.996162e+00	 1.558675e+00	 1.123440e+01
0	 2.993252e+00	 1.606938e+00	 1.123170e+01
0	 2.990174e+00	 1.655104e+00	 1.122753e+01
0	 2.986929e+00	 1.703164e+00	 1.122200e+01
0	 2.644015e+00	 1.496452e+00	 1.150430e+01
0	 2.640116e+00	 1.538434e+00	 1.149554e+01
0	 2.636040e+00	 1.580293e+00	 1.148500e+01
0	 2.631787e+00	 1.622024e+00	 1.147279e+01
0	 2.627359e+00	 1.663621e+00	 1.145900e+01
0	 2.622756e+00	 1.705077e+00	 1.144373e+01
0	 2.712770e+00	 1.537898e+00	 1.143994e+01
0	 2.708967e+00	 1.581075e+00	 1.143162e+01
0	 2.704988e+00	 1.624131e+00	 1.142159e+01
0	 2.700834e+00	 1.667059e+00	 1.140994e+01
0	 2.696506e+00	 1.709853e+00	 1.139677e+01
0	 2.692005e+00	 1.752508e+00	 1.138218e+01
0	 2.781439e+00	 1.579293e+00	 1.137976e+01
0	 2.777732e+00	 1.623664e+00	 1.137184e+01
0	 2.773851e+00	 1.667915e+00	 1.136227e+01
0	 2.769797e+00	 1.712040e+00	 1.135116e+01
0	 2.765572e+00	 1.756031e+00	 1.133858e+01
0	 2.761174e+00	 1.799884e+00	 1.132462e+01
0	 2.850022e+00	 1.620635e+00	 1.132351e+01
0	 2.846412e+00	 1.666200e+00	 1.131596e+01
0	 2.842630e+00	 1.711646e+00	 1.130683e+01
0	 2.838678e+00	 1.756967e+00	 1.129620e+01
0	 2.834556e+00	 1.802155e+00	 1.128417e+01
0	 2.830264e+00	 1.847206e+00	 1.127081e+01
0	 2.918518e+00	 1.661926e+00	 1.127099e+01
0	 2.915006e+00	 1.708684e+00	 1.126377e+01
0	 2.911325e+00	 1.755324e+00	 1.125504e+01
0	 2.907476e+00	 1.801839e+00	 1.124486e+01
0	 2.903459e+00	 1.848225e+00	 1.123333e+01
0	 2.899275e+00	 1.894474e+00	 1.122053e+01
0	 2.986929e+00	 1.703164e+00	 1.122200e+01
0	 2.983516e+00	 1.751114e+00	 1.121508e+01
0	 2.979937e+00	 1.798948e+00	 1.120671e+01
0	 2.976192e+00	 1.846658e+00	 1.119694e+01
0	 2.972281e+00	 1.894240e+00	 1.118588e+01
0	 2.968206e+00	 1.941687e+00	 1.117357e+01
0	 2.622756e+00	 1.705077e+00	 1.144373e+01
0	 2.617980e+00	 1.746386e+00	 1.142706e+01
0	 2.613030e+00	 1.787542e+00	 1.140901e+01
0	 2.607909e+00	 1.828540e+00	 1.138964e+01
0	 2.602617e+00	 1.869373e+00	 1.136903e+01
0	 2.597156e+00	 1.910036e+00	 1.134722e+01
0	 2.692005e+00	 1.752508e+00	 1.138218e+01
0	 2.687332e+00	 1.795016e+00	 1.136624e+01
0	 2.682488e+00	 1.837372e+00	 1.134899e+01
0	 2.677473e+00	 1.879571e+00	 1.133049e+01
0	 2.672289e+00	 1.921606e+00	 1.131078e+01
0	 2.666937e+00	 1.963471e+00	 1.128993e+01
0	 2.761174e+00	 1.799884e+00	 1.132462e+01
0	 2.756607e+00	 1.843592e+00	 1.130938e+01
0	 2.751870e+00	 1.887148e+00	 1.129288e+01
0	 2.746964e+00	 1.930548e+00	 1.127519e+01
0	 2.741891e+00	 1.973785e+00	 1.125636e+01
0	 2.736651e+00	 2.016854e+00	 1.123643e+01
0	 2.830264e+00	 1.847206e+00	 1.127081e+01
0	 2.825804e+00	 1.892113e+00	 1.125621e+01
0	 2.821177e+00	 1.936871e+00	 1.124043e+01
0	 2.816383e+00	 1.981472e+00	 1.122351e+01
0	 2.811423e+00	 2.025913e+00	 1.120549e+01
0	 2.806298e+00	 2.070185e+00	 1.118642e+01
0	 2.899275e+00	 1.894474e+00	 1.122053e+01
0	 2.894924e+00	 1.940580e+00	 1.120653e+01
0	 2.890409e+00	 1.986539e+00	 1.119141e+01
0	 2.885728e+00	 2.032343e+00	 1.117519e+01
0	 2.880884e+00	 2.077987e+00	 1.115793e+01
0	 2.875877e+00	 2.123465e+00	 1.113967e+01
0	 2.968206e+00	 1.941687e+00	 1.117357e+01
0	 2.963967e+00	 1.988994e+00	 1.116013e+01
0	 2.959565e+00	 2.036153e+00	 1.114560e+01
0	 2.955001e+00	 2.083160e+00	 1.113004e+01
0	 2.950276e+00	 2.130009e+00	 1.111347e+01
0	 2.945390e+00	 2.176694e+00	 1.109594e+01
0	 2.597156e+00	 1.910036e+00	 1.134722e+01
0	 2.591526e+00	 1.950523e+00	 1.132437e+01
0	 2.585730e+00	 1.990828e+00	 1.130063e+01
0	 2.579767e+00	 2.030945e+00	 1.127601e+01
0	 2.573640e+00	 2.070870e+00	 1.125053e+01
0	 2.567350e+00	 2.110597e+00	 1.122422e+01
0	 2.666937e+00	 1.963471e+00	 1.128993e+01
0	 2.661418e+00	 2.005161e+00	 1.126810e+01
0	 2.655734e+00	 2.046669e+00	 1.124541e+01
0	 2.649884e+00	 2.087992e+00	 1.122190e+01
0	 2.643872e+00	 2.129122e+00	 1.119758e+01
0	 2.637697e+00	 2.170054e+00	 1.117246e+01
0	 2.736651e+00	 2.016854e+00	 1.123643e+01
0	 2.731246e+00	 2.059748e+00	 1.121555e+01
0	 2.725677e+00	 2.102462e+00	 1.119388e+01
0	 2.719944e+00	 2.144991e+00	 1.117142e+01
0	 2.714049e+00	 2.187328e+00	 1.114820e+01
0	 2.707994e+00	 2.229469e+00	 1.112422e+01
0	 2.806298e+00	 2.070185e+00	 1.118642e+01
0	 2.801010e+00	 2.114285e+00	 1.116646e+01
0	 2.795559e+00	 2.158206e+00	 1.114574e+01
0	 2.789946e+00	 2.201943e+00	 1.112427e+01
0	 2.784173e+00	 2.245490e+00	 1.110208e+01
0	 2.778241e+00	 2.288841e+00	 1.107916e+01
0	 2.875877e+00	 2.123465e+00	 1.113967e+01
0	 2.870709e+00	 2.168772e+00	 1.112055e+01
0	 2.865379e+00	 2.213902e+00	 1.110071e+01
0	 2.859890e+00	 2.258848e+00	 1.108017e+01
0	 2.854243e+00	 2.303607e+00	 1.105893e+01
0	 2.848438e+00	 2.348171e+00	 1.103701e+01
0	 2.945390e+00	 2.176694e+00	 1.109594e+01
0	 2.940344e+00	 2.223209e+00	 1.107760e+01
0	 2.935139e+00	 2.269549e+00	 1.105857e+01
0	 2.929777e+00	 2.315707e+00	 1.103887e+01
0	 2.924259e+00	 2.361679e+00	 1.101851e+01
0	 2.918585e+00	 2.407459e+00	 1.099751e+01
0	 2.567350e+00	 2.110597e+00	 1.122422e+01
0	 2.560898e+00	 2.150119e+00	 1.119729e+01
0	 2.554286e+00	 2.189433e+00	 1.116991e+01
0	 2.547516e+00	 2.228532e+00	 1.114209e+01
0	 2.540588e+00	 2.267412e+00	 1.111381e+01
0	 2.533505e+00	 2.306068e+00	 1.108507e+01
0	 2.637697e+00	 2.170054e+00	 1.117246e+01
0	 2.631362e+00	 2.210783e+00	 1.114675e+01
0	 2.624868e+00	 2.251304e+00	 1.112062e+01
0	 2.618215e+00	 2.291611e+00	 1.109408e+01
0	 2.611407e+00	 2.331700e+00	 1.106712e+01
0	 2.604443e+00	 2.371564e+00	 1.103974e+01
0	 2.707994e+00	 2.229469e+00	 1.112422e+01
0	 2.701780e+00	 2.271407e+00	 1.109966e+01
0	 2.695407e+00	 2.313138e+00	 1.107471e+01
0	 2.688878e+00	 2.354657e+00	 1.104936e+01
0	 2.682193e+00	 2.395957e+00	 1.102361e+01
0	 2.675355e+00	 2.437035e+00	 1.099746e+01
0	 2.778241e+00	 2.288841e+00	 1.107916e+01
0	 2.772151e+00	 2.331992e+00	 1.105570e+01
0	 2.765905e+00	 2.374936e+00	 1.103185e+01
0	 2.759503e+00	 2.417669e+00	 1.100761e+01
0	 2.752947e+00	 2.460186e+00	 1.098298e+01
0	 2.746238e+00	 2.502481e+00	 1.095798e+01
0	 2.848438e+00	 2.348171e+00	 1.103701e+01
0	 2.842477e+00	 2.392537e+00	 1.101457e+01
0	 2.836360e+00	 2.436697e+00	 1.099175e+01
0	 2.830090e+00	 2.480648e+00	 1.096855e+01
0	 2.823668e+00	 2.524384e+00	 1.094499e+01
0	 2.817094e+00	 2.567900e+00	 1.092105e+01
0	 2.918585e+00	 2.407459e+00	 1.099751e+01
0	 2.912756e+00	 2.453042e+00	 1.097601e+01
0	 2.906775e+00	 2.498422e+00	 1.095415e+01
0	 2.900641e+00	 2.543594e+00	 1.093195e+01
0	 2.894356e+00	 2.588554e+00	 1.090938e+01
0	 2.887922e+00	 2.633294e+00	 1.088647e+01
0	 2.533505e+00	 2.306068e+00	 1.108507e+01
0	 2.526267e+00	 2.344495e+00	 1.105602e+01
0	 2.518878e+00	 2.382687e+00	 1.102678e+01
0	 2.511338e+00	 2.420640e+00	 1.099734e+01
0	 2.503648e+00	 2.458350e+00	 1.096769e+01
0	 2.495812e+00	 2.495812e+00	 1.093781e+01
0	 2.604443e+00	 2.371564e+00	 1.103974e+01
0	 2.597327e+00	 2.411200e+00	 1.101208e+01
0	 2.590059e+00	 2.450603e+00	 1.098430e+01
0	 2.582640e+00	 2.489767e+00	 1.095642e+01
0	 2.575074e+00	 2.528687e+00	 1.092847e+01
0	 2.567361e+00	 2.567361e+00	 1.090048e+01
0	 2.675355e+00	 2.437035e+00	 1.099746e+01
0	 2.668364e+00	 2.477885e+00	 1.097107e+01
0	 2.661222e+00	 2.518502e+00	 1.094459e+01
0	 2.653932e+00	 2.558882e+00	 1.091809e+01
0	 2.646493e+00	 2.599019e+00	 1.089159e+01
0	 2.638909e+00	 2.638909e+00	 1.086513e+01
0	 2.746238e+00	 2.502481e+00	 1.095798e+01
0	 2.739378e+00	 2.544549e+00	 1.093275e+01
0	 2.732369e+00	 2.586385e+00	 1.090746e+01
0	 2.725211e+00	 2.627985e+00	 1.088216e+01
0	 2.717907e+00	 2.669344e+00	 1.085690e+01
0	 2.710457e+00	 2.710457e+00	 1.083171e+01
0	 2.817094e+00	 2.567900e+00	 1.092105e+01
0	 2.810370e+00	 2.611191e+00	 1.089691e+01
0	 2.803498e+00	 2.654252e+00	 1.087272e+01
0	 2.796479e+00	 2.697077e+00	 1.084851e+01
0	 2.789314e+00	 2.739663e+00	 1.082431e+01
0	 2.782005e+00	 2.782005e+00	 1.080013e+01
0	 2.887922e+00	 2.633294e+00	 1.088647e+01
0	 2.881339e+00	 2.677812e+00	 1.086336e+01
0	 2.874610e+00	 2.722102e+00	 1.084021e+01
0	 2.867735e+00	 2.766158e+00	 1.081700e+01
0	 2.860716e+00	 2.809977e+00	 1.079372e+01
0	 2.853553e+00	 2.853553e+00	 1.077036e+01
0	 3.000000e+00	 0.000000e+00	 1.094185e+01
0	 3.002457e+00	 4.809663e-02	 1.094115e+01
0	 3.004754e+00	 9.629327e-02	 1.094212e+01
0	 3.006890e+00	 1.445841e-01	 1.094484e+01
0	 3.008864e+00	 1.929634e-01	 1.094935e+01
0	 3.010675e+00	 2.414252e-01	 1.095571e+01
0	 3.066667e+00	 0.000000e+00	 1.089941e+01
0	 3.069123e+00	 4.927261e-02	 1.089883e+01
0	 3.071421e+00	 9.864462e-02	 1.089989e+01
0	 3.073560e+00	 1.481103e-01	 1.090265e+01
0	 3.075540e+00	 1.976639e-01	 1.090716e+01
0	 3.077360e+00	 2.472996e-01	 1.091349e+01
0	 3.133333e+00	 0.000000e+00	 1.086007e+01
0	 3.135782e+00	 5.044849e-02	 1.085958e+01
0	 3.138076e+00	 1.009956e-01	 1.086070e+01
0	 3.140214e+00	 1.516356e-01	 1.086349e+01
0	 3.142196e+00	 2.023629e-01	 1.086799e+01
0	 3.144020e+00	 2.531717e-01	 1.087428e+01
0	 3.200000e+00	 0.000000e+00	 1.082353e+01
0	 3.202436e+00	 5.162426e-02	 1.082312e+01
0	 3.204720e+00	 1.033462e-01	 1.082429e+01
0	 3.206852e+00	 1.551601e-01	 1.082708e+01
0	 3.208830e+00	 2.070605e-01	 1.083156e+01
0	 3.210654e+00	 2.590415e-01	 1.083779e+01
0	 3.266667e+00	 0.000000e+00	 1.078952e+01
0	 3.269085e+00	 5.279995e-02	 1.078918e+01
0	 3.271354e+00	 1.056964e-01	 1.079037e+01
0	 3.273474e+00	 1.586838e-01	 1.079317e+01
0	 3.275443e+00	 2.117565e-01	 1.079762e+01
0	 3.277261e+00	 2.649090e-01	 1.080378e+01
0	 3.333333e+00	 0.000000e+00	 1.075779e+01
0	 3.335728e+00	 5.397553e-02	 1.075750e+01
0	 3.337977e+00	 1.080462e-01	 1.075873e+01
0	 3.340079e+00	 1.622065e-01	 1.076153e+01
0	 3.342035e+00	 2.164511e-01	 1.076594e+01
0	 3.343843e+00	 2.707743e-01	 1.077202e+01
0	 3.010675e+00	 2.414252e-01	 1.095571e+01
0	 3.012322e+00	 2.899635e-01	 1.096354e+01
0	 3.013804e+00	 3.385726e-01	 1.097248e+01
0	 3.015122e+00	 3.872462e-01	 1.098267e+01
0	 3.016274e+00	 4.359784e-01	 1.099423e+01
0	 3.017259e+00	 4.847631e-01	 1.100728e+01
0	 3.077360e+00	 2.472996e-01	 1.091349e+01
0	 3.079019e+00	 2.970114e-01	 1.092126e+01
0	 3.080517e+00	 3.467936e-01	 1.093011e+01
0	 3.081852e+00	 3.966401e-01	 1.094018e+01
0	 3.083024e+00	 4.465449e-01	 1.095159e+01
0	 3.084033e+00	 4.965021e-01	 1.096447e+01
0	 3.144020e+00	 2.531717e-01	 1.087428e+01
0	 3.145686e+00	 3.040561e-01	 1.088196e+01
0	 3.147194e+00	 3.550103e-01	 1.089071e+01
0	 3.148542e+00	 4.060284e-01	 1.090065e+01
0	 3.149731e+00	 4.571046e-01	 1.091189e+01
0	 3.150759e+00	 5.082327e-01	 1.092456e+01
0	 3.210654e+00	 2.590415e-01	 1.083779e+01
0	 3.212323e+00	 3.110975e-01	 1.084538e+01
0	 3.213836e+00	 3.632227e-01	 1.085401e+01
0	 3.215193e+00	 4.154112e-01	 1.086380e+01
0	 3.216394e+00	 4.676573e-01	 1.087487e+01
0	 3.217438e+00	 5.199550e-01	 1.088733e+01
0	 3.277261e+00	 2.649090e-01	 1.080378e+01
0	 3.278928e+00	 3.181357e-01	 1.081127e+01
0	 3.280443e+00	 3.714307e-01	 1.081978e+01
0	 3.281805e+00	 4.247885e-01	 1.082941e+01
0	 3.283014e+00	 4.782031e-01	 1.084029e+01
0	 3.284069e+00	 5.316689e-01	 1.085253e+01
0	 3.343843e+00	 2.707743e-01	 1.077202e+01
0	 3.345504e+00	 3.251706e-01	 1.077941e+01
0	 3.347015e+00	 3.796344e-01	 1.078779e+01
0	 3.348378e+00	 4.341602e-01	 1.079726e+01
0	 3.349590e+00	 4.887421e-01	 1.080795e+01
0	 3.350653e+00	 5.433745e-01	 1.081996e+01
0	 3.017259e+00	 4.847631e-01	 1.100728e+01
0	 3.018078e+00	 5.335942e-01	 1.102118e+01
0	 3.018729e+00	 5.824655e-01	 1.103528e+01
0	 3.019212e+00	 6.313708e-01	 1.104978e+01
0	 3.019527e+00	 6.803039e-01	 1.106484e+01
0	 3.019673e+00	 7.292586e-01	 1.108064e+01
0	 3.084033e+00	 4.965021e-01	 1.096447e+01
0	 3.084878e+00	 5.465055e-01	 1.097816e+01
0	 3.085558e+00	 5.965491e-01	 1.099205e+01
0	 3.086073e+00	 6.466268e-01	 1.100631e+01
0	 3.086423e+00	 6.967323e-01	 1.102113e+01
0	 3.086607e+00	 7.468595e-01	 1.103666e+01
0	 3.150759e+00	 5.082327e-01	 1.092456e+01
0	 3.151626e+00	 5.594069e-01	 1.093803e+01
0	 3.152332e+00	 6.106212e-01	 1.095169e+01
0	 3.152876e+00	 6.618694e-01	 1.096571e+01
0	 3.153258e+00	 7.131455e-01	 1.098026e+01
0	 3.153477e+00	 7.644434e-01	 1.099551e+01
0	 3.217438e+00	 5.199550e-01	 1.088733e+01
0	 3.218324e+00	 5.722984e-01	 1.090056e+01
0	 3.219052e+00	 6.246817e-01	 1.091397e+01
0	 3.219621e+00	 6.770988e-01	 1.092773e+01
0	 3.220031e+00	 7.295437e-01	 1.094200e+01
0	 3.220283e+00	 7.820104e-01	 1.095695e+01
0	 3.284069e+00	 5.316689e-01	 1.085253e+01
0	 3.284970e+00	 5.851801e-01	 1.086552e+01
0	 3.285716e+00	 6.387307e-01	 1.087868e+01
0	 3.286308e+00	 6.923149e-01	 1.089217e+01
0	 3.286744e+00	 7.459267e-01	 1.090616e+01
0	 3.287024e+00	 7.995604e-01	 1.092081e+01
0	 3.350653e+00	 5.433745e-01	 1.081996e+01
0	 3.351565e+00	 5.980518e-01	 1.083271e+01
0	 3.352326e+00	 6.527681e-01	 1.084561e+01
0	 3.352936e+00	 7.075177e-01	 1.085883e+01
0	 3.353394e+00	 7.622948e-01	 1.087254e+01
0	 3.353700e+00	 8.170936e-01	 1.088688e+01
0	 3.019673e+00	 7.292586e-01	 1.108064e+01
0	 3.019650e+00	 7.782287e-01	 1.109647e+01
0	 3.019458e+00	 8.272077e-01	 1.111161e+01
0	 3.019096e+00	 8.761895e-01	 1.112626e+01
0	 3.018564e+00	 9.251677e-01	 1.114062e+01
0	 3.017862e+00	 9.741360e-01	 1.115488e+01
0	 3.086607e+00	 7.468595e-01	 1.103666e+01
0	 3.086625e+00	 7.970023e-01	 1.105221e+01
0	 3.086477e+00	 8.471544e-01	 1.106709e+01
0	 3.086162e+00	 8.973095e-01	 1.108147e+01
0	 3.085680e+00	 9.474615e-01	 1.109557e+01
0	 3.085031e+00	 9.976041e-01	 1.110956e+01
0	 3.153477e+00	 7.644434e-01	 1.099551e+01
0	 3.153534e+00	 8.157570e-01	 1.101076e+01
0	 3.153427e+00	 8.670802e-01	 1.102535e+01
0	 3.153156e+00	 9.184067e-01	 1.103946e+01
0	 3.152722e+00	 9.697305e-01	 1.105328e+01
0	 3.152124e+00	 1.021045e+00	 1.106699e+01
0	 3.220283e+00	 7.820104e-01	 1.095695e+01
0	 3.220374e+00	 8.344929e-01	 1.097191e+01
0	 3.220306e+00	 8.869852e-01	 1.098621e+01
0	 3.220078e+00	 9.394811e-01	 1.100003e+01
0	 3.219689e+00	 9.919746e-01	 1.101355e+01
0	 3.219140e+00	 1.044460e+00	 1.102697e+01
0	 3.287024e+00	 7.995604e-01	 1.092081e+01
0	 3.287148e+00	 8.532099e-01	 1.093545e+01
0	 3.287116e+00	 9.068694e-01	 1.094945e+01
0	 3.286927e+00	 9.605327e-01	 1.096297e+01
0	 3.286581e+00	 1.014194e+00	 1.097621e+01
0	 3.286079e+00	 1.067847e+00	 1.098932e+01
0	 3.353700e+00	 8.170936e-01	 1.088688e+01
0	 3.353854e+00	 8.719082e-01	 1.090121e+01
0	 3.353855e+00	 9.267328e-01	 1.091491e+01
0	 3.353704e+00	 9.815616e-01	 1.092814e+01
0	 3.353399e+00	 1.036389e+00	 1.094107e+01
0	 3.352941e+00	 1.091208e+00	 1.095389e+01
0	 3.017862e+00	 9.741360e-01	 1.115488e+01
0	 3.016989e+00	 1.023088e+00	 1.116841e+01
0	 3.015947e+00	 1.072017e+00	 1.118057e+01
0	 3.014734e+00	 1.120918e+00	 1.119155e+01
0	 3.013350e+00	 1.169783e+00	 1.120154e+01
0	 3.011796e+00	 1.218607e+00	 1.121072e+01
0	 3.085031e+00	 9.976041e-01	 1.110956e+01
0	 3.084215e+00	 1.047731e+00	 1.112283e+01
0	 3.083232e+00	 1.097836e+00	 1.113476e+01
0	 3.082081e+00	 1.147912e+00	 1.114554e+01
0	 3.080762e+00	 1.197955e+00	 1.115534e+01
0	 3.079277e+00	 1.247956e+00	 1.116435e+01
0	 3.152124e+00	 1.021045e+00	 1.106699e+01
0	 3.151362e+00	 1.072345e+00	 1.107999e+01
0	 3.150436e+00	 1.123623e+00	 1.109168e+01
0	 3.149345e+00	 1.174874e+00	 1.110224e+01
0	 3.148091e+00	 1.226091e+00	 1.111184e+01
0	 3.146672e+00	 1.277268e+00	 1.112067e+01
0	 3.219140e+00	 1.044460e+00	 1.102697e+01
0	 3.218430e+00	 1.096930e+00	 1.103969e+01
0	 3.217560e+00	 1.149380e+00	 1.105113e+01
0	 3.216528e+00	 1.201803e+00	 1.106146e+01
0	 3.215336e+00	 1.254193e+00	 1.107086e+01
0	 3.213984e+00	 1.306544e+00	 1.107949e+01
0	 3.286079e+00	 1.067847e+00	 1.098932e+01
0	 3.285419e+00	 1.121486e+00	 1.100176e+01
0	 3.284603e+00	 1.175106e+00	 1.101295e+01
0	 3.283629e+00	 1.228699e+00	 1.102304e+01
0	 3.282498e+00	 1.282260e+00	 1.103222e+01
0	 3.281210e+00	 1.335783e+00	 1.104065e+01
0	 3.352941e+00	 1.091208e+00	 1.095389e+01
0	 3.352330e+00	 1.146014e+00	 1.096604e+01
0	 3.351566e+00	 1.200801e+00	 1.097697e+01
0	 3.350648e+00	 1.255562e+00	 1.098683e+01
0	 3.349577e+00	 1.310292e+00	 1.099579e+01
0	 3.348353e+00	 1.364985e+00	 1.100402e+01
0	 3.011796e+00	 1.218607e+00	 1.121072e+01
0	 3.010072e+00	 1.267383e+00	 1.121865e+01
0	 3.008178e+00	 1.316104e+00	 1.122488e+01
0	 3.006114e+00	 1.364765e+00	 1.122956e+01
0	 3.003880e+00	 1.413358e+00	 1.123285e+01
0	 3.001477e+00	 1.461879e+00	 1.123491e+01
0	 3.079277e+00	 1.247956e+00	 1.116435e+01
0	 3.077624e+00	 1.297910e+00	 1.117214e+01
0	 3.075804e+00	 1.347811e+00	 1.117827e+01
0	 3.073817e+00	 1.397653e+00	 1.118289e+01
0	 3.071663e+00	 1.447428e+00	 1.118616e+01
0	 3.069343e+00	 1.497131e+00	 1.118822e+01
0	 3.146672e+00	 1.277268e+00	 1.112067e+01
0	 3.145090e+00	 1.328399e+00	 1.112830e+01
0	 3.143343e+00	 1.379478e+00	 1.113432e+01
0	 3.141433e+00	 1.430498e+00	 1.113887e+01
0	 3.139358e+00	 1.481454e+00	 1.114210e+01
0	 3.137121e+00	 1.532338e+00	 1.114415e+01
0	 3.213984e+00	 1.306544e+00	 1.107949e+01
0	 3.212470e+00	 1.358850e+00	 1.108696e+01
0	 3.210796e+00	 1.411104e+00	 1.109285e+01
0	 3.208961e+00	 1.463302e+00	 1.109732e+01
0	 3.206967e+00	 1.515436e+00	 1.110049e+01
0	 3.204812e+00	 1.567500e+00	 1.110252e+01
0	 3.281210e+00	 1.335783e+00	 1.104065e+01
0	 3.279765e+00	 1.389261e+00	 1.104795e+01
0	 3.278163e+00	 1.442690e+00	 1.105371e+01
0	 3.276404e+00	 1.496063e+00	 1.105809e+01
0	 3.274488e+00	 1.549374e+00	 1.106120e+01
0	 3.272415e+00	 1.602616e+00	 1.106320e+01
0	 3.348353e+00	 1.364985e+00	 1.100402e+01
0	 3.346975e+00	 1.419635e+00	 1.101114e+01
0	 3.345444e+00	 1.474236e+00	 1.101677e+01
0	 3.343759e+00	 1.528782e+00	 1.102104e+01
0	 3.341922e+00	 1.583268e+00	 1.102409e+01
0	 3.339931e+00	 1.637687e+00	 1.102604e+01
0	 3.001477e+00	 1.461879e+00	 1.123491e+01
0	 2.998904e+00	 1.510320e+00	 1.123551e+01
0	 2.996162e+00	 1.558675e+00	 1.123440e+01
0	 2.993252e+00	 1.606938e+00	 1.123170e+01
0	 2.990174e+00	 1.655104e+00	 1.122753e+01
0	 2.986929e+00	 1.703164e+00	 1.122200e+01
0	 3.069343e+00	 1.497131e+00	 1.118822e+01
0	 3.066856e+00	 1.546757e+00	 1.118887e+01
0	 3.064203e+00	 1.596297e+00	 1.118786e+01
0	 3.061385e+00	 1.645747e+00	 1.118531e+01
0	 3.058401e+00	 1.695101e+00	 1.118133e+01
0	 3.055253e+00	 1.744351e+00	 1.117603e+01
0	 3.137121e+00	 1.532338e+00	 1.114415e+01
0	 3.134720e+00	 1.583146e+00	 1.114482e+01
0	 3.132156e+00	 1.633871e+00	 1.114390e+01
0	 3.129430e+00	 1.684507e+00	 1.114148e+01
0	 3.126542e+00	 1.735047e+00	 1.113767e+01
0	 3.123492e+00	 1.785486e+00	 1.113259e+01
0	 3.204812e+00	 1.567500e+00	 1.110252e+01
0	 3.202497e+00	 1.619489e+00	 1.110322e+01
0	 3.200022e+00	 1.671396e+00	 1.110236e+01
0	 3.197388e+00	 1.723216e+00	 1.110005e+01
0	 3.194596e+00	 1.774942e+00	 1.109640e+01
0	 3.191645e+00	 1.826569e+00	 1.109151e+01
0	 3.272415e+00	 1.602616e+00	 1.106320e+01
0	 3.270186e+00	 1.655785e+00	 1.106390e+01
0	 3.267801e+00	 1.708874e+00	 1.106310e+01
0	 3.265260e+00	 1.761876e+00	 1.106089e+01
0	 3.262564e+00	 1.814788e+00	 1.105738e+01
0	 3.259712e+00	 1.867601e+00	 1.105266e+01
0	 3.339931e+00	 1.637687e+00	 1.102604e+01
0	 3.337788e+00	 1.692034e+00	 1.102674e+01
0	 3.335493e+00	 1.746303e+00	 1.102597e+01
0	 3.333045e+00	 1.800487e+00	 1.102385e+01
0	 3.330445e+00	 1.854582e+00	 1.102046e+01
0	 3.327694e+00	 1.908582e+00	 1.101589e+01
0	 2.986929e+00	 1.703164e+00	 1.122200e+01
0	 2.983516e+00	 1.751114e+00	 1.121508e+01
0	 2.979937e+00	 1.798948e+00	 1.120671e+01
0	 2.976192e+00	 1.846658e+00	 1.119694e+01
0	 2.972281e+00	 1.894240e+00	 1.118588e+01
0	 2.968206e+00	 1.941687e+00	 1.117357e+01
0	 3.055253e+00	 1.744351e+00	 1.117603e+01
0	 3.051940e+00	 1.793492e+00	 1.116939e+01
0	 3.048464e+00	 1.842518e+00	 1.116134e+01
0	 3.044825e+00	 1.891423e+00	 1.115196e+01
0	 3.041022e+00	 1.940202e+00	 1.114131e+01
0	 3.037058e+00	 1.988847e+00	 1.112948e+01
0	 3.123492e+00	 1.785486e+00	 1.113259e+01
0	 3.120280e+00	 1.835818e+00	 1.112620e+01
0	 3.116908e+00	 1.886036e+00	 1.111846e+01
0	 3.113375e+00	 1.936135e+00	 1.110943e+01
0	 3.109683e+00	 1.986109e+00	 1.109918e+01
0	 3.105832e+00	 2.035952e+00	 1.108777e+01
0	 3.191645e+00	 1.826569e+00	 1.109151e+01
0	 3.188535e+00	 1.878091e+00	 1.108536e+01
0	 3.185268e+00	 1.929500e+00	 1.107790e+01
0	 3.181844e+00	 1.980793e+00	 1.106919e+01
0	 3.178263e+00	 2.031963e+00	 1.105931e+01
0	 3.174527e+00	 2.083003e+00	 1.104831e+01
0	 3.259712e+00	 1.867601e+00	 1.105266e+01
0	 3.256706e+00	 1.920311e+00	 1.104672e+01
0	 3.253545e+00	 1.972912e+00	 1.103951e+01
0	 3.250231e+00	 2.025398e+00	 1.103111e+01
0	 3.246763e+00	 2.077762e+00	 1.102157e+01
0	 3.243143e+00	 2.130001e+00	 1.101095e+01
0	 3.327694e+00	 1.908582e+00	 1.101589e+01
0	 3.324792e+00	 1.962480e+00	 1.101015e+01
0	 3.321739e+00	 2.016271e+00	 1.100318e+01
0	 3.318536e+00	 2.069949e+00	 1.099505e+01
0	 3.315183e+00	 2.123509e+00	 1.098582e+01
0	 3.311680e+00	 2.176944e+00	 1.097555e+01
0	 2.968206e+00	 1.941687e+00	 1.117357e+01
0	 2.963967e+00	 1.988994e+00	 1.116013e+01
0	 2.959565e+00	 2.036153e+00	 1.114560e+01
0	 2.955001e+00	 2.083160e+00	 1.113004e+01
0	 2.950276e+00	 2.130009e+00	 1.111347e+01
0	 2.945390e+00	 2.176694e+00	 1.109594e+01
0	 3.037058e+00	 1.988847e+00	 1.112948e+01
0	 3.032933e+00	 2.037353e+00	 1.111654e+01
0	 3.028647e+00	 2.085714e+00	 1.110257e+01
0	 3.024202e+00	 2.133925e+00	 1.108759e+01
0	 3.019597e+00	 2.181979e+00	 1.107166e+01
0	 3.014835e+00	 2.229871e+00	 1.105480e+01
0	 3.105832e+00	 2.035952e+00	 1.108777e+01
0	 3.101822e+00	 2.085658e+00	 1.107531e+01
0	 3.097655e+00	 2.135221e+00	 1.106185e+01
0	 3.093330e+00	 2.184636e+00	 1.104743e+01
0	 3.088849e+00	 2.233896e+00	 1.103209e+01
0	 3.084213e+00	 2.282997e+00	 1.101586e+01
0	 3.174527e+00	 2.083003e+00	 1.104831e+01
0	 3.170634e+00	 2.133909e+00	 1.103629e+01
0	 3.166587e+00	 2.184675e+00	 1.102331e+01
0	 3.162386e+00	 2.235294e+00	 1.100941e+01
0	 3.158031e+00	 2.285762e+00	 1.099462e+01
0	 3.153524e+00	 2.336072e+00	 1.097897e+01
0	 3.243143e+00	 2.130001e+00	 1.101095e+01
0	 3.239370e+00	 2.182107e+00	 1.099933e+01
0	 3.235445e+00	 2.234075e+00	 1.098680e+01
0	 3.231370e+00	 2.285899e+00	 1.097339e+01
0	 3.227144e+00	 2.337575e+00	 1.095911e+01
0	 3.222769e+00	 2.389095e+00	 1.094401e+01
0	 3.311680e+00	 2.176944e+00	 1.097555e+01
0	 3.308029e+00	 2.230251e+00	 1.096432e+01
0	 3.304229e+00	 2.283422e+00	 1.095221e+01
0	 3.300282e+00	 2.336452e+00	 1.093925e+01
0	 3.296187e+00	 2.389336e+00	 1.092546e+01
0	 3.291946e+00	 2.442068e+00	 1.091087e+01
0	 2.945390e+00	 2.176694e+00	 1.109594e+01
0	 2.940344e+00	 2.223209e+00	 1.107760e+01
0	 2.935139e+00	 2.269549e+00	 1.105857e+01
0	 2.929777e+00	 2.315707e+00	 1.103887e+01
0	 2.924259e+00	 2.361679e+00	 1.101851e+01
0	 2.918585e+00	 2.407459e+00	 1.099751e+01
0	 3.014835e+00	 2.229871e+00	 1.105480e+01
0	 3.009915e+00	 2.277596e+00	 1.103716e+01
0	 3.004839e+00	 2.325147e+00	 1.101887e+01
0	 2.999607e+00	 2.372519e+00	 1.099994e+01
0	 2.994221e+00	 2.419707e+00	 1.098039e+01
0	 2.988682e+00	 2.466705e+00	 1.096022e+01
0	 3.084213e+00	 2.282997e+00	 1.101586e+01
0	 3.079422e+00	 2.331932e+00	 1.099887e+01
0	 3.074477e+00	 2.380697e+00	 1.098127e+01
0	 3.069379e+00	 2.429284e+00	 1.096305e+01
0	 3.064129e+00	 2.477690e+00	 1.094423e+01
0	 3.058729e+00	 2.525909e+00	 1.092483e+01
0	 3.153524e+00	 2.336072e+00	 1.097897e+01
0	 3.148865e+00	 2.386219e+00	 1.096260e+01
0	 3.144055e+00	 2.436198e+00	 1.094563e+01
0	 3.139094e+00	 2.486003e+00	 1.092808e+01
0	 3.133984e+00	 2.535629e+00	 1.090995e+01
0	 3.128726e+00	 2.585070e+00	 1.089126e+01
0	 3.222769e+00	 2.389095e+00	 1.094401e+01
0	 3.218244e+00	 2.440456e+00	 1.092821e+01
0	 3.213572e+00	 2.491651e+00	 1.091184e+01
0	 3.208752e+00	 2.542675e+00	 1.089492e+01
0	 3.203785e+00	 2.593523e+00	 1.087744e+01
0	 3.198673e+00	 2.644189e+00	 1.085941e+01
0	 3.291946e+00	 2.442068e+00	 1.091087e+01
0	 3.287560e+00	 2.494643e+00	 1.089561e+01
0	 3.283028e+00	 2.547056e+00	 1.087981e+01
0	 3.278352e+00	 2.599301e+00	 1.086348e+01
0	 3.273533e+00	 2.651373e+00	 1.084662e+01
0	 3.268571e+00	 2.703267e+00	 1.082923e+01
0	 2.918585e+00	 2.407459e+00	 1.099751e+01
0	 2.912756e+00	 2.453042e+00	 1.097601e+01
0	 2.906775e+00	 2.498422e+00	 1.095415e+01
0	 2.900641e+00	 2.543594e+00	 1.093195e+01
0	 2.894356e+00	 2.588554e+00	 1.090938e+01
0	 2.887922e+00	 2.633294e+00	 1.088647e+01
0	 2.988682e+00	 2.466705e+00	 1.096022e+01
0	 2.982990e+00	 2.513508e+00	 1.093959e+01
0	 2.977147e+00	 2.560110e+00	 1.091863e+01
0	 2.971154e+00	 2.606507e+00	 1.089735e+01
0	 2.965012e+00	 2.652693e+00	 1.087575e+01
0	 2.958723e+00	 2.698663e+00	 1.085381e+01
0	 3.058729e+00	 2.525909e+00	 1.092483e+01
0	 3.053178e+00	 2.573934e+00	 1.090500e+01
0	 3.047478e+00	 2.621762e+00	 1.088488e+01
0	 3.041630e+00	 2.669387e+00	 1.086446e+01
0	 3.035636e+00	 2.716803e+00	 1.084375e+01
0	 3.029496e+00	 2.764006e+00	 1.082273e+01
0	 3.128726e+00	 2.585070e+00	 1.089126e+01
0	 3.123320e+00	 2.634321e+00	 1.087216e+01
0	 3.117767e+00	 2.683378e+00	 1.085282e+01
0	 3.112069e+00	 2.732233e+00	 1.083321e+01
0	 3.106227e+00	 2.780884e+00	 1.081333e+01
0	 3.100241e+00	 2.829324e+00	 1.079317e+01
0	 3.198673e+00	 2.644189e+00	 1.085941e+01
0	 3.193416e+00	 2.694669e+00	 1.084101e+01
0	 3.188015e+00	 2.744956e+00	 1.082239e+01
0	 3.182471e+00	 2.795047e+00	 1.080353e+01
0	 3.176786e+00	 2.844935e+00	 1.078442e+01
0	 3.170959e+00	 2.894617e+00	 1.076505e+01
0	 3.268571e+00	 2.703267e+00	 1.082923e+01
0	 3.263467e+00	 2.754977e+00	 1.081148e+01
0	 3.258222e+00	 2.806499e+00	 1.079353e+01
0	 3.252836e+00	 2.857827e+00	 1.077537e+01
0	 3.247312e+00	 2.908957e+00	 1.075697e+01
0	 3.241649e+00	 2.959883e+00	 1.073832e+01
0	 2.887922e+00	 2.633294e+00	 1.088647e+01
0	 2.881339e+00	 2.677812e+00	 1.086336e+01
0	 2.874610e+00	 2.722102e+00	 1.084021e+01
0	 2.867735e+00	 2.766158e+00	 1.081700e+01
0	 2.860716e+00	 2.809977e+00	 1.079372e+01
0	 2.853553e+00	 2.853553e+00	 1.077036e+01
0	 2.958723e+00	 2.698663e+00	 1.085381e+01
0	 2.952286e+00	 2.744412e+00	 1.083170e+01
0	 2.945705e+00	 2.789935e+00	 1.080955e+01
0	 2.938979e+00	 2.835228e+00	 1.078730e+01
0	 2.932111e+00	 2.880285e+00	 1.076491e+01
0	 2.925102e+00	 2.925102e+00	 1.074234e+01
0	 3.029496e+00	 2.764006e+00	 1.082273e+01
0	 3.023211e+00	 2.810991e+00	 1.080157e+01
0	 3.016782e+00	 2.857753e+00	 1.078037e+01
0	 3.010212e+00	 2.904286e+00	 1.075908e+01
0	 3.003501e+00	 2.950587e+00	 1.073762e+01
0	 2.996650e+00	 2.996650e+00	 1.071594e+01
0	 3.100241e+00	 2.829324e+00	 1.079317e+01
0	 3.094113e+00	 2.877549e+00	 1.077288e+01
0	 3.087843e+00	 2.925554e+00	 1.075259e+01
0	 3.081433e+00	 2.973333e+00	 1.073221e+01
0	 3.074884e+00	 3.020883e+00	 1.071169e+01
0	 3.068198e+00	 3.068198e+00	 1.069095e+01
0	 3.170959e+00	 2.894617e+00	 1.076505e+01
0	 3.164992e+00	 2.944086e+00	 1.074557e+01
0	 3.158886e+00	 2.993338e+00	 1.072610e+01
0	 3.152643e+00	 3.042369e+00	 1.070659e+01
0	 3.146262e+00	 3.091173e+00	 1.068698e+01
0	 3.139746e+00	 3.139746e+00	 1.066721e+01
0	 3.241649e+00	 2.959883e+00	 1.073832e+01
0	 3.235849e+00	 3.010601e+00	 1.071956e+01
0	 3.229912e+00	 3.061106e+00	 1.070084e+01
0	 3.223840e+00	 3.111393e+00	 1.068211e+01
0	 3.217634e+00	 3.161457e+00	 1.066336e+01
0	 3.211294e+00	 3.211294e+00	 1.064455e+01
0	 3.333333e+00	 0.000000e+00	 1.075779e+01
0	 3.335728e+00	 5.397553e-02	 1.075750e+01
0	 3.337977e+00	 1.080462e-01	 1.075873e+01
0	 3.340079e+00	 1.622065e-01	 1.076153e+01
0	 3.342035e+00	 2.164511e-01	 1.076594e+01
0	 3.343843e+00	 2.707743e-01	 1.077202e+01
0	 3.400000e+00	 0.000000e+00	 1.072806e+01
0	 3.402365e+00	 5.515101e-02	 1.072784e+01
0	 3.404588e+00	 1.103956e-01	 1.072910e+01
0	 3.406669e+00	 1.657285e-01	 1.073189e+01
0	 3.408606e+00	 2.211441e-01	 1.073626e+01
0	 3.410399e+00	 2.766373e-01	 1.074226e+01
0	 3.466667e+00	 0.000000e+00	 1.070014e+01
0	 3.468997e+00	 5.632640e-02	 1.069998e+01
0	 3.471189e+00	 1.127447e-01	 1.070127e+01
0	 3.473242e+00	 1.692495e-01	 1.070405e+01
0	 3.475156e+00	 2.258357e-01	 1.070838e+01
0	 3.476929e+00	 2.824979e-01	 1.071430e+01
0	 3.533333e+00	 0.000000e+00	 1.067391e+01
0	 3.535623e+00	 5.750169e-02	 1.067381e+01
0	 3.537779e+00	 1.150933e-01	 1.067512e+01
0	 3.539799e+00	 1.727698e-01	 1.067789e+01
0	 3.541684e+00	 2.305258e-01	 1.068216e+01
0	 3.543433e+00	 2.883563e-01	 1.068800e+01
0	 3.600000e+00	 0.000000e+00	 1.064924e+01
0	 3.602244e+00	 5.867688e-02	 1.064920e+01
0	 3.604358e+00	 1.174416e-01	 1.065053e+01
0	 3.606340e+00	 1.762891e-01	 1.065329e+01
0	 3.608192e+00	 2.352144e-01	 1.065751e+01
0	 3.609911e+00	 2.942125e-01	 1.066325e+01
0	 3.666667e+00	 0.000000e+00	 1.062604e+01
0	 3.668859e+00	 5.985198e-02	 1.062605e+01
0	 3.670926e+00	 1.197895e-01	 1.062740e+01
0	 3.672865e+00	 1.798077e-01	 1.063014e+01
0	 3.674678e+00	 2.399016e-01	 1.063430e+01
0	 3.676364e+00	 3.000663e-01	 1.063995e+01
0	 3.343843e+00	 2.707743e-01	 1.077202e+01
0	 3.345504e+00	 3.251706e-01	 1.077941e+01
0	 3.347015e+00	 3.796344e-01	 1.078779e+01
0	 3.348378e+00	 4.341602e-01	 1.079726e+01
0	 3.349590e+00	 4.887421e-01	 1.080795e+01
0	 3.350653e+00	 5.433745e-01	 1.081996e+01
0	 3.410399e+00	 2.766373e-01	 1.074226e+01
0	 3.412048e+00	 3.322023e-01	 1.074955e+01
0	 3.413552e+00	 3.878339e-01	 1.075778e+01
0	 3.414911e+00	 4.435263e-01	 1.076709e+01
0	 3.416123e+00	 4.992742e-01	 1.077758e+01
0	 3.417190e+00	 5.550718e-01	 1.078937e+01
0	 3.476929e+00	 2.824979e-01	 1.071430e+01
0	 3.478562e+00	 3.392308e-01	 1.072146e+01
0	 3.480054e+00	 3.960290e-01	 1.072956e+01
0	 3.481405e+00	 4.528870e-01	 1.073869e+01
0	 3.482613e+00	 5.097994e-01	 1.074899e+01
0	 3.483679e+00	 5.667608e-01	 1.076054e+01
0	 3.543433e+00	 2.883563e-01	 1.068800e+01
0	 3.545046e+00	 3.462561e-01	 1.069504e+01
0	 3.546521e+00	 4.042197e-01	 1.070299e+01
0	 3.547859e+00	 4.622421e-01	 1.071196e+01
0	 3.549059e+00	 5.203178e-01	 1.072205e+01
0	 3.550121e+00	 5.784415e-01	 1.073337e+01
0	 3.609911e+00	 2.942125e-01	 1.066325e+01
0	 3.611499e+00	 3.532781e-01	 1.067017e+01
0	 3.612953e+00	 4.124062e-01	 1.067798e+01
0	 3.614274e+00	 4.715917e-01	 1.068677e+01
0	 3.615462e+00	 5.308293e-01	 1.069666e+01
0	 3.616516e+00	 5.901138e-01	 1.070775e+01
0	 3.676364e+00	 3.000663e-01	 1.063995e+01
0	 3.677921e+00	 3.602969e-01	 1.064675e+01
0	 3.679350e+00	 4.205884e-01	 1.065441e+01
0	 3.680651e+00	 4.809358e-01	 1.066303e+01
0	 3.681822e+00	 5.413340e-01	 1.067272e+01
0	 3.682864e+00	 6.017779e-01	 1.068359e+01
0	 3.350653e+00	 5.433745e-01	 1.081996e+01
0	 3.351565e+00	 5.980518e-01	 1.083271e+01
0	 3.352326e+00	 6.527681e-01	 1.084561e+01
0	 3.352936e+00	 7.075177e-01	 1.085883e+01
0	 3.353394e+00	 7.622948e-01	 1.087254e+01
0	 3.353700e+00	 8.170936e-01	 1.088688e+01
0	 3.417190e+00	 5.550718e-01	 1.078937e+01
0	 3.418109e+00	 6.109137e-01	 1.080187e+01
0	 3.418882e+00	 6.667940e-01	 1.081451e+01
0	 3.419507e+00	 7.227073e-01	 1.082747e+01
0	 3.419984e+00	 7.786478e-01	 1.084088e+01
0	 3.420313e+00	 8.346098e-01	 1.085492e+01
0	 3.483679e+00	 5.667608e-01	 1.076054e+01
0	 3.484603e+00	 6.237657e-01	 1.077279e+01
0	 3.485383e+00	 6.808085e-01	 1.078518e+01
0	 3.486020e+00	 7.378837e-01	 1.079786e+01
0	 3.486513e+00	 7.949858e-01	 1.081098e+01
0	 3.486861e+00	 8.521092e-01	 1.082471e+01
0	 3.550121e+00	 5.784415e-01	 1.073337e+01
0	 3.551045e+00	 6.366078e-01	 1.074537e+01
0	 3.551829e+00	 6.948114e-01	 1.075749e+01
0	 3.552474e+00	 7.530469e-01	 1.076990e+01
0	 3.552980e+00	 8.113089e-01	 1.078274e+01
0	 3.553346e+00	 8.695918e-01	 1.079617e+01
0	 3.616516e+00	 5.901138e-01	 1.070775e+01
0	 3.617436e+00	 6.494401e-01	 1.071950e+01
0	 3.618221e+00	 7.088029e-01	 1.073137e+01
0	 3.618871e+00	 7.681970e-01	 1.074351e+01
0	 3.619387e+00	 8.276169e-01	 1.075606e+01
0	 3.619767e+00	 8.870576e-01	 1.076918e+01
0	 3.682864e+00	 6.017779e-01	 1.068359e+01
0	 3.683776e+00	 6.622626e-01	 1.069509e+01
0	 3.684559e+00	 7.227830e-01	 1.070670e+01
0	 3.685211e+00	 7.833338e-01	 1.071858e+01
0	 3.685732e+00	 8.439101e-01	 1.073085e+01
0	 3.686123e+00	 9.045066e-01	 1.074368e+01
0	 3.353700e+00	 8.170936e-01	 1.088688e+01
0	 3.353854e+00	 8.719082e-01	 1.090121e+01
0	 3.353855e+00	 9.267328e-01	 1.091491e+01
0	 3.353704e+00	 9.815616e-01	 1.092814e+01
0	 3.353399e+00	 1.036389e+00	 1.094107e+01
0	 3.352941e+00	 1.091208e+00	 1.095389e+01
0	 3.420313e+00	 8.346098e-01	 1.085492e+01
0	 3.420494e+00	 8.905876e-01	 1.086894e+01
0	 3.420526e+00	 9.465755e-01	 1.088233e+01
0	 3.420409e+00	 1.002568e+00	 1.089526e+01
0	 3.420143e+00	 1.058559e+00	 1.090791e+01
0	 3.419728e+00	 1.114542e+00	 1.092043e+01
0	 3.486861e+00	 8.521092e-01	 1.082471e+01
0	 3.487066e+00	 9.092483e-01	 1.083843e+01
0	 3.487126e+00	 9.663975e-01	 1.085152e+01
0	 3.487042e+00	 1.023551e+00	 1.086415e+01
0	 3.486812e+00	 1.080704e+00	 1.087650e+01
0	 3.486437e+00	 1.137850e+00	 1.088872e+01
0	 3.553346e+00	 8.695918e-01	 1.079617e+01
0	 3.553572e+00	 9.278903e-01	 1.080957e+01
0	 3.553657e+00	 9.861989e-01	 1.082236e+01
0	 3.553603e+00	 1.044512e+00	 1.083470e+01
0	 3.553407e+00	 1.102824e+00	 1.084676e+01
0	 3.553071e+00	 1.161130e+00	 1.085869e+01
0	 3.619767e+00	 8.870576e-01	 1.076918e+01
0	 3.620011e+00	 9.465136e-01	 1.078228e+01
0	 3.620119e+00	 1.005980e+00	 1.079478e+01
0	 3.620092e+00	 1.065450e+00	 1.080683e+01
0	 3.619928e+00	 1.124921e+00	 1.081860e+01
0	 3.619629e+00	 1.184385e+00	 1.083024e+01
0	 3.686123e+00	 9.045066e-01	 1.074368e+01
0	 3.686383e+00	 9.651182e-01	 1.075647e+01
0	 3.686512e+00	 1.025740e+00	 1.076868e+01
0	 3.686510e+00	 1.086366e+00	 1.078045e+01
0	 3.686376e+00	 1.146992e+00	 1.079193e+01
0	 3.686110e+00	 1.207612e+00	 1.080329e+01
0	 3.352941e+00	 1.091208e+00	 1.095389e+01
0	 3.352330e+00	 1.146014e+00	 1.096604e+01
0	 3.351566e+00	 1.200801e+00	 1.097697e+01
0	 3.350648e+00	 1.255562e+00	 1.098683e+01
0	 3.349577e+00	 1.310292e+00	 1.099579e+01
0	 3.348353e+00	 1.364985e+00	 1.100402e+01
0	 3.419728e+00	 1.114542e+00	 1.092043e+01
0	 3.419163e+00	 1.170513e+00	 1.093229e+01
0	 3.418449e+00	 1.226465e+00	 1.094296e+01
0	 3.417586e+00	 1.282392e+00	 1.095258e+01
0	 3.416573e+00	 1.338289e+00	 1.096133e+01
0	 3.415411e+00	 1.394150e+00	 1.096935e+01
0	 3.486437e+00	 1.137850e+00	 1.088872e+01
0	 3.485918e+00	 1.194983e+00	 1.090031e+01
0	 3.485253e+00	 1.252098e+00	 1.091071e+01
0	 3.484442e+00	 1.309190e+00	 1.092010e+01
0	 3.483487e+00	 1.366252e+00	 1.092863e+01
0	 3.482386e+00	 1.423280e+00	 1.093645e+01
0	 3.553071e+00	 1.161130e+00	 1.085869e+01
0	 3.552594e+00	 1.219425e+00	 1.086999e+01
0	 3.551976e+00	 1.277701e+00	 1.088014e+01
0	 3.551217e+00	 1.335955e+00	 1.088930e+01
0	 3.550317e+00	 1.394181e+00	 1.089761e+01
0	 3.549277e+00	 1.452372e+00	 1.090523e+01
0	 3.619629e+00	 1.184385e+00	 1.083024e+01
0	 3.619193e+00	 1.243838e+00	 1.084126e+01
0	 3.618620e+00	 1.303274e+00	 1.085116e+01
0	 3.617911e+00	 1.362688e+00	 1.086009e+01
0	 3.617066e+00	 1.422075e+00	 1.086819e+01
0	 3.616084e+00	 1.481429e+00	 1.087560e+01
0	 3.686110e+00	 1.207612e+00	 1.080329e+01
0	 3.685713e+00	 1.268222e+00	 1.081404e+01
0	 3.685184e+00	 1.328816e+00	 1.082369e+01
0	 3.684524e+00	 1.389388e+00	 1.083239e+01
0	 3.683732e+00	 1.449934e+00	 1.084028e+01
0	 3.682807e+00	 1.510449e+00	 1.084750e+01
0	 3.348353e+00	 1.364985e+00	 1.100402e+01
0	 3.346975e+00	 1.419635e+00	 1.101114e+01
0	 3.345444e+00	 1.474236e+00	 1.101677e+01
0	 3.343759e+00	 1.528782e+00	 1.102104e+01
0	 3.341922e+00	 1.583268e+00	 1.102409e+01
0	 3.339931e+00	 1.637687e+00	 1.102604e+01
0	 3.415411e+00	 1.394150e+00	 1.096935e+01
0	 3.414100e+00	 1.449970e+00	 1.097629e+01
0	 3.412639e+00	 1.505741e+00	 1.098178e+01
0	 3.411028e+00	 1.561460e+00	 1.098595e+01
0	 3.409269e+00	 1.617119e+00	 1.098893e+01
0	 3.407361e+00	 1.672713e+00	 1.099084e+01
0	 3.482386e+00	 1.423280e+00	 1.093645e+01
0	 3.481139e+00	 1.480266e+00	 1.094321e+01
0	 3.479748e+00	 1.537207e+00	 1.094856e+01
0	 3.478211e+00	 1.594095e+00	 1.095263e+01
0	 3.476530e+00	 1.650926e+00	 1.095553e+01
0	 3.474703e+00	 1.707694e+00	 1.095739e+01
0	 3.549277e+00	 1.452372e+00	 1.090523e+01
0	 3.548095e+00	 1.510524e+00	 1.091181e+01
0	 3.546772e+00	 1.568632e+00	 1.091703e+01
0	 3.545308e+00	 1.626689e+00	 1.092098e+01
0	 3.543704e+00	 1.684690e+00	 1.092380e+01
0	 3.541959e+00	 1.742629e+00	 1.092561e+01
0	 3.616084e+00	 1.481429e+00	 1.087560e+01
0	 3.614965e+00	 1.540744e+00	 1.088201e+01
0	 3.613710e+00	 1.600017e+00	 1.088709e+01
0	 3.612319e+00	 1.659241e+00	 1.089093e+01
0	 3.610792e+00	 1.718410e+00	 1.089368e+01
0	 3.609128e+00	 1.777520e+00	 1.089543e+01
0	 3.682807e+00	 1.510449e+00	 1.084750e+01
0	 3.681752e+00	 1.570926e+00	 1.085374e+01
0	 3.680564e+00	 1.631362e+00	 1.085867e+01
0	 3.679245e+00	 1.691751e+00	 1.086241e+01
0	 3.677794e+00	 1.752087e+00	 1.086507e+01
0	 3.676211e+00	 1.812366e+00	 1.086677e+01
0	 3.339931e+00	 1.637687e+00	 1.102604e+01
0	 3.337788e+00	 1.692034e+00	 1.102674e+01
0	 3.335493e+00	 1.746303e+00	 1.102597e+01
0	 3.333045e+00	 1.800487e+00	 1.102385e+01
0	 3.330445e+00	 1.854582e+00	 1.102046e+01
0	 3.327694e+00	 1.908582e+00	 1.101589e+01
0	 3.407361e+00	 1.672713e+00	 1.099084e+01
0	 3.405303e+00	 1.728237e+00	 1.099152e+01
0	 3.403098e+00	 1.783684e+00	 1.099078e+01
0	 3.400744e+00	 1.839049e+00	 1.098873e+01
0	 3.398241e+00	 1.894327e+00	 1.098545e+01
0	 3.395592e+00	 1.949511e+00	 1.098102e+01
0	 3.474703e+00	 1.707694e+00	 1.095739e+01
0	 3.472732e+00	 1.764392e+00	 1.095805e+01
0	 3.470616e+00	 1.821017e+00	 1.095734e+01
0	 3.468356e+00	 1.877562e+00	 1.095535e+01
0	 3.465952e+00	 1.934021e+00	 1.095217e+01
0	 3.463404e+00	 1.990389e+00	 1.094788e+01
0	 3.541959e+00	 1.742629e+00	 1.092561e+01
0	 3.540073e+00	 1.800502e+00	 1.092625e+01
0	 3.538048e+00	 1.858302e+00	 1.092557e+01
0	 3.535882e+00	 1.916025e+00	 1.092363e+01
0	 3.533576e+00	 1.973665e+00	 1.092054e+01
0	 3.531131e+00	 2.031216e+00	 1.091636e+01
0	 3.609128e+00	 1.777520e+00	 1.089543e+01
0	 3.607329e+00	 1.836565e+00	 1.089605e+01
0	 3.605393e+00	 1.895540e+00	 1.089538e+01
0	 3.603322e+00	 1.954440e+00	 1.089349e+01
0	 3.601116e+00	 2.013259e+00	 1.089048e+01
0	 3.598774e+00	 2.071992e+00	 1.088642e+01
0	 3.676211e+00	 1.812366e+00	 1.086677e+01
0	 3.674498e+00	 1.872582e+00	 1.086736e+01
0	 3.672653e+00	 1.932730e+00	 1.086670e+01
0	 3.670677e+00	 1.992805e+00	 1.086486e+01
0	 3.668570e+00	 2.052803e+00	 1.086192e+01
0	 3.666332e+00	 2.112717e+00	 1.085796e+01
0	 3.327694e+00	 1.908582e+00	 1.101589e+01
0	 3.324792e+00	 1.962480e+00	 1.101015e+01
0	 3.321739e+00	 2.016271e+00	 1.100318e+01
0	 3.318536e+00	 2.069949e+00	 1.099505e+01
0	 3.315183e+00	 2.123509e+00	 1.098582e+01
0	 3.311680e+00	 2.176944e+00	 1.097555e+01
0	 3.395592e+00	 1.949511e+00	 1.098102e+01
0	 3.392794e+00	 2.004596e+00	 1.097545e+01
0	 3.389850e+00	 2.059577e+00	 1.096871e+01
0	 3.386759e+00	 2.114447e+00	 1.096084e+01
0	 3.383522e+00	 2.169201e+00	 1.095190e+01
0	 3.380139e+00	 2.223835e+00	 1.094195e+01
0	 3.463404e+00	 1.990389e+00	 1.094788e+01
0	 3.460713e+00	 2.046660e+00	 1.094247e+01
0	 3.457878e+00	 2.102830e+00	 1.093593e+01
0	 3.454901e+00	 2.158892e+00	 1.092830e+01
0	 3.451782e+00	 2.214841e+00	 1.091964e+01
0	 3.448520e+00	 2.270671e+00	 1.091000e+01
0	 3.531131e+00	 2.031216e+00	 1.091636e+01
0	 3.528547e+00	 2.088673e+00	 1.091111e+01
0	 3.525824e+00	 2.146030e+00	 1.090476e+01
0	 3.522962e+00	 2.203283e+00	 1.089736e+01
0	 3.519961e+00	 2.260426e+00	 1.088896e+01
0	 3.516823e+00	 2.317454e+00	 1.087961e+01
0	 3.598774e+00	 2.071992e+00	 1.088642e+01
0	 3.596298e+00	 2.130633e+00	 1.088131e+01
0	 3.593686e+00	 2.189179e+00	 1.087514e+01
0	 3.590941e+00	 2.247622e+00	 1.086795e+01
0	 3.588061e+00	 2.305959e+00	 1.085979e+01
0	 3.585048e+00	 2.364184e+00	 1.085072e+01
0	 3.666332e+00	 2.112717e+00	 1.085796e+01
0	 3.663965e+00	 2.172542e+00	 1.085298e+01
0	 3.661467e+00	 2.232274e+00	 1.084698e+01
0	 3.658839e+00	 2.291908e+00	 1.083999e+01
0	 3.656082e+00	 2.351438e+00	 1.083206e+01
0	 3.653195e+00	 2.410860e+00	 1.082324e+01
0	 3.311680e+00	 2.176944e+00	 1.097555e+01
0	 3.308029e+00	 2.230251e+00	 1.096432e+01
0	 3.304229e+00	 2.283422e+00	 1.095221e+01
0	 3.300282e+00	 2.336452e+00	 1.093925e+01
0	 3.296187e+00	 2.389336e+00	 1.092546e+01
0	 3.291946e+00	 2.442068e+00	 1.091087e+01
0	 3.380139e+00	 2.223835e+00	 1.094195e+01
0	 3.376611e+00	 2.278341e+00	 1.093109e+01
0	 3.372939e+00	 2.332715e+00	 1.091937e+01
0	 3.369122e+00	 2.386951e+00	 1.090683e+01
0	 3.365161e+00	 2.441045e+00	 1.089350e+01
0	 3.361058e+00	 2.494990e+00	 1.087939e+01
0	 3.448520e+00	 2.270671e+00	 1.091000e+01
0	 3.445118e+00	 2.326378e+00	 1.089947e+01
0	 3.441574e+00	 2.381955e+00	 1.088813e+01
0	 3.437890e+00	 2.437398e+00	 1.087600e+01
0	 3.434066e+00	 2.492702e+00	 1.086310e+01
0	 3.430103e+00	 2.547860e+00	 1.084945e+01
0	 3.516823e+00	 2.317454e+00	 1.087961e+01
0	 3.513548e+00	 2.374361e+00	 1.086941e+01
0	 3.510135e+00	 2.431143e+00	 1.085842e+01
0	 3.506586e+00	 2.487793e+00	 1.084667e+01
0	 3.502901e+00	 2.544307e+00	 1.083418e+01
0	 3.499081e+00	 2.600680e+00	 1.082097e+01
0	 3.585048e+00	 2.364184e+00	 1.085072e+01
0	 3.581902e+00	 2.422291e+00	 1.084081e+01
0	 3.578623e+00	 2.480277e+00	 1.083015e+01
0	 3.575211e+00	 2.538135e+00	 1.081876e+01
0	 3.571668e+00	 2.595861e+00	 1.080666e+01
0	 3.567993e+00	 2.653449e+00	 1.079387e+01
0	 3.653195e+00	 2.410860e+00	 1.082324e+01
0	 3.650180e+00	 2.470168e+00	 1.081362e+01
0	 3.647037e+00	 2.529358e+00	 1.080328e+01
0	 3.643765e+00	 2.588424e+00	 1.079223e+01
0	 3.640365e+00	 2.647363e+00	 1.078049e+01
0	 3.636839e+00	 2.706167e+00	 1.076808e+01
0	 3.291946e+00	 2.442068e+00	 1.091087e+01
0	 3.287560e+00	 2.494643e+00	 1.089561e+01
0	 3.283028e+00	 2.547056e+00	 1.087981e+01
0	 3.278352e+00	 2.599301e+00	 1.086348e+01
0	 3.273533e+00	 2.651373e+00	 1.084662e+01
0	 3.268571e+00	 2.703267e+00	 1.082923e+01
0	 3.361058e+00	 2.494990e+00	 1.087939e+01
0	 3.356812e+00	 2.548781e+00	 1.086465e+01
0	 3.352424e+00	 2.602412e+00	 1.084940e+01
0	 3.347896e+00	 2.655880e+00	 1.083364e+01
0	 3.343227e+00	 2.709178e+00	 1.081737e+01
0	 3.338419e+00	 2.762302e+00	 1.080059e+01
0	 3.430103e+00	 2.547860e+00	 1.084945e+01
0	 3.426000e+00	 2.602868e+00	 1.083520e+01
0	 3.421760e+00	 2.657721e+00	 1.082047e+01
0	 3.417382e+00	 2.712413e+00	 1.080526e+01
0	 3.412868e+00	 2.766940e+00	 1.078956e+01
0	 3.408217e+00	 2.821295e+00	 1.077338e+01
0	 3.499081e+00	 2.600680e+00	 1.082097e+01
0	 3.495125e+00	 2.656906e+00	 1.080718e+01
0	 3.491036e+00	 2.712981e+00	 1.079294e+01
0	 3.486812e+00	 2.768900e+00	 1.077825e+01
0	 3.482455e+00	 2.824656e+00	 1.076310e+01
0	 3.477966e+00	 2.880247e+00	 1.074749e+01
0	 3.567993e+00	 2.653449e+00	 1.079387e+01
0	 3.564187e+00	 2.710895e+00	 1.078052e+01
0	 3.560251e+00	 2.768194e+00	 1.076674e+01
0	 3.556185e+00	 2.825340e+00	 1.075253e+01
0	 3.551989e+00	 2.882329e+00	 1.073789e+01
0	 3.547665e+00	 2.939156e+00	 1.072282e+01
0	 3.636839e+00	 2.706167e+00	 1.076808e+01
0	 3.633186e+00	 2.764834e+00	 1.075514e+01
0	 3.629406e+00	 2.823358e+00	 1.074180e+01
0	 3.625501e+00	 2.881734e+00	 1.072804e+01
0	 3.621470e+00	 2.939958e+00	 1.071387e+01
0	 3.617315e+00	 2.998024e+00	 1.069929e+01
0	 3.268571e+00	 2.703267e+00	 1.082923e+01
0	 3.263467e+00	 2.754977e+00	 1.081148e+01
0	 3.258222e+00	 2.806499e+00	 1.079353e+01
0	 3.252836e+00	 2.857827e+00	 1.077537e+01
0	 3.247312e+00	 2.908957e+00	 1.075697e+01
0	 3.241649e+00	 2.959883e+00	 1.073832e+01
0	 3.338419e+00	 2.762302e+00	 1.080059e+01
0	 3.333472e+00	 2.815246e+00	 1.078348e+01
0	 3.328387e+00	 2.868005e+00	 1.076618e+01
0	 3.323164e+00	 2.920575e+00	 1.074867e+01
0	 3.317806e+00	 2.972950e+00	 1.073094e+01
0	 3.312312e+00	 3.025125e+00	 1.071296e+01
0	 3.408217e+00	 2.821295e+00	 1.077338e+01
0	 3.403431e+00	 2.875476e+00	 1.075688e+01
0	 3.398510e+00	 2.929475e+00	 1.074020e+01
0	 3.393455e+00	 2.983289e+00	 1.072333e+01
0	 3.388267e+00	 3.036913e+00	 1.070624e+01
0	 3.382947e+00	 3.090341e+00	 1.068891e+01
0	 3.477966e+00	 2.880247e+00	 1.074749e+01
0	 3.473344e+00	 2.935666e+00	 1.073157e+01
0	 3.468592e+00	 2.990909e+00	 1.071548e+01
0	 3.463709e+00	 3.045970e+00	 1.069921e+01
0	 3.458696e+00	 3.100846e+00	 1.068274e+01
0	 3.453555e+00	 3.155532e+00	 1.066604e+01
0	 3.547665e+00	 2.939156e+00	 1.072282e+01
0	 3.543213e+00	 2.995817e+00	 1.070745e+01
0	 3.538633e+00	 3.052306e+00	 1.069192e+01
0	 3.533926e+00	 3.108619e+00	 1.067622e+01
0	 3.529093e+00	 3.164751e+00	 1.066032e+01
0	 3.524135e+00	 3.220697e+00	 1.064422e+01
0	 3.617315e+00	 2.998024e+00	 1.069929e+01
0	 3.613035e+00	 3.055929e+00	 1.068443e+01
0	 3.608632e+00	 3.113667e+00	 1.066941e+01
0	 3.604106e+00	 3.171234e+00	 1.065423e+01
0	 3.599458e+00	 3.228626e+00	 1.063888e+01
0	 3.594688e+00	 3.285837e+00	 1.062335e+01
0	 3.241649e+00	 2.959883e+00	 1.073832e+01
0	 3.235849e+00	 3.010601e+00	 1.071956e+01
0	 3.229912e+00	 3.061106e+00	 1.070084e+01
0	 3.223840e+00	 3.111393e+00	 1.068211e+01
0	 3.217634e+00	 3.161457e+00	 1.066336e+01
0	 3.211294e+00	 3.211294e+00	 1.064455e+01
0	 3.312312e+00	 3.025125e+00	 1.071296e+01
0	 3.306683e+00	 3.077096e+00	 1.069488e+01
0	 3.300921e+00	 3.128858e+00	 1.067683e+01
0	 3.295026e+00	 3.180406e+00	 1.065882e+01
0	 3.289000e+00	 3.231736e+00	 1.064084e+01
0	 3.282843e+00	 3.282843e+00	 1.062288e+01
0	 3.382947e+00	 3.090341e+00	 1.068891e+01
0	 3.377495e+00	 3.143569e+00	 1.067148e+01
0	 3.371913e+00	 3.196593e+00	 1.065408e+01
0	 3.366201e+00	 3.249408e+00	 1.063672e+01
0	 3.360360e+00	 3.302009e+00	 1.061942e+01
0	 3.354391e+00	 3.354391e+00	 1.060218e+01
0	 3.453555e+00	 3.155532e+00	 1.066604e+01
0	 3.448285e+00	 3.210022e+00	 1.064923e+01
0	 3.442887e+00	 3.264312e+00	 1.063245e+01
0	 3.437364e+00	 3.318398e+00	 1.061570e+01
0	 3.431714e+00	 3.372275e+00	 1.059901e+01
0	 3.425939e+00	 3.425939e+00	 1.058238e+01
0	 3.524135e+00	 3.220697e+00	 1.064422e+01
0	 3.519052e+00	 3.276453e+00	 1.062802e+01
0	 3.513845e+00	 3.332015e+00	 1.061183e+01
0	 3.508515e+00	 3.387377e+00	 1.059566e+01
0	 3.503062e+00	 3.442536e+00	 1.057952e+01
0	 3.497487e+00	 3.497487e+00	 1.056342e+01
0	 3.594688e+00	 3.285837e+00	 1.062335e+01
0	 3.589797e+00	 3.342864e+00	 1.060772e+01
0	 3.584785e+00	 3.399701e+00	 1.059210e+01
0	 3.579654e+00	 3.456345e+00	 1.057649e+01
0	 3.574404e+00	 3.512791e+00	 1.056088e+01
0	 3.569036e+00	 3.569036e+00	 1.054525e+01
0	 3.666667e+00	 0.000000e+00	 1.062604e+01
0	 3.668859e+00	 5.985198e-02	 1.062605e+01
0	 3.670926e+00	 1.197895e-01	 1.062740e+01
0	 3.672865e+00	 1.798077e-01	 1.063014e+01
0	 3.674678e+00	 2.399016e-01	 1.063430e+01
0	 3.676364e+00	 3.000663e-01	 1.063995e+01
0	 3.733333e+00	 0.000000e+00	 1.060413e+01
0	 3.735469e+00	 6.102697e-02	 1.060418e+01
0	 3.737483e+00	 1.221370e-01	 1.060554e+01
0	 3.739375e+00	 1.833253e-01	 1.060825e+01
0	 3.741144e+00	 2.445872e-01	 1.061236e+01
0	 3.742790e+00	 3.059179e-01	 1.061792e+01
0	 3.800000e+00	 0.000000e+00	 1.058333e+01
0	 3.802073e+00	 6.220187e-02	 1.058342e+01
0	 3.804029e+00	 1.244841e-01	 1.058478e+01
0	 3.805867e+00	 1.868421e-01	 1.058747e+01
0	 3.807588e+00	 2.492714e-01	 1.059152e+01
0	 3.809191e+00	 3.117672e-01	 1.059698e+01
0	 3.866667e+00	 0.000000e+00	 1.056358e+01
0	 3.868672e+00	 6.337667e-02	 1.056370e+01
0	 3.870564e+00	 1.268309e-01	 1.056507e+01
0	 3.872344e+00	 1.903581e-01	 1.056773e+01
0	 3.874012e+00	 2.539541e-01	 1.057171e+01
0	 3.875565e+00	 3.176142e-01	 1.057708e+01
0	 3.933333e+00	 0.000000e+00	 1.054481e+01
0	 3.935265e+00	 6.455138e-02	 1.054496e+01
0	 3.937089e+00	 1.291772e-01	 1.054633e+01
0	 3.938805e+00	 1.938732e-01	 1.054896e+01
0	 3.940414e+00	 2.586352e-01	 1.055288e+01
0	 3.941914e+00	 3.234589e-01	 1.055816e+01
0	 4.000000e+00	 0.000000e+00	 1.052697e+01
0	 4.001852e+00	 6.572598e-02	 1.052715e+01
0	 4.003602e+00	 1.315232e-01	 1.052851e+01
0	 4.005250e+00	 1.973875e-01	 1.053111e+01
0	 4.006795e+00	 2.633150e-01	 1.053498e+01
0	 4.008238e+00	 3.293014e-01	 1.054016e+01
0	 3.676364e+00	 3.000663e-01	 1.063995e+01
0	 3.677921e+00	 3.602969e-01	 1.064675e+01
0	 3.679350e+00	 4.205884e-01	 1.065441e+01
0	 3.680651e+00	 4.809358e-01	 1.066303e+01
0	 3.681822e+00	 5.413340e-01	 1.067272e+01
0	 3.682864e+00	 6.017779e-01	 1.068359e+01
0	 3.742790e+00	 3.059179e-01	 1.061792e+01
0	 3.744313e+00	 3.673125e-01	 1.062459e+01
0	 3.745712e+00	 4.287663e-01	 1.063211e+01
0	 3.746988e+00	 4.902743e-01	 1.064056e+01
0	 3.748139e+00	 5.518318e-01	 1.065006e+01
0	 3.749165e+00	 6.134338e-01	 1.066070e+01
0	 3.809191e+00	 3.117672e-01	 1.059698e+01
0	 3.810675e+00	 3.743249e-01	 1.060354e+01
0	 3.812040e+00	 4.369399e-01	 1.061091e+01
0	 3.813286e+00	 4.996074e-01	 1.061919e+01
0	 3.814412e+00	 5.623228e-01	 1.062849e+01
0	 3.815418e+00	 6.250813e-01	 1.063891e+01
0	 3.875565e+00	 3.176142e-01	 1.057708e+01
0	 3.877006e+00	 3.813341e-01	 1.058352e+01
0	 3.878332e+00	 4.451091e-01	 1.059074e+01
0	 3.879544e+00	 5.089350e-01	 1.059886e+01
0	 3.880642e+00	 5.728070e-01	 1.060797e+01
0	 3.881625e+00	 6.367206e-01	 1.061817e+01
0	 3.941914e+00	 3.234589e-01	 1.055816e+01
0	 3.943306e+00	 3.883400e-01	 1.056447e+01
0	 3.944590e+00	 4.532741e-01	 1.057156e+01
0	 3.945764e+00	 5.182570e-01	 1.057951e+01
0	 3.946829e+00	 5.832843e-01	 1.058843e+01
0	 3.947785e+00	 6.483516e-01	 1.059841e+01
0	 4.008238e+00	 3.293014e-01	 1.054016e+01
0	 4.009577e+00	 3.953427e-01	 1.054635e+01
0	 4.010813e+00	 4.614348e-01	 1.055330e+01
0	 4.011945e+00	 5.275736e-01	 1.056109e+01
0	 4.012973e+00	 5.937548e-01	 1.056983e+01
0	 4.013898e+00	 6.599744e-01	 1.057959e+01
0	 3.682864e+00	 6.017779e-01	 1.068359e+01
0	 3.683776e+00	 6.622626e-01	 1.069509e+01
0	 3.684559e+00	 7.227830e-01	 1.070670e+01
0	 3.685211e+00	 7.833338e-01	 1.071858e+01
0	 3.685732e+00	 8.439101e-01	 1.073085e+01
0	 3.686123e+00	 9.045066e-01	 1.074368e+01
0	 3.749165e+00	 6.134338e-01	 1.066070e+01
0	 3.750066e+00	 6.750753e-01	 1.067195e+01
0	 3.750842e+00	 7.367516e-01	 1.068332e+01
0	 3.751493e+00	 7.984575e-01	 1.069493e+01
0	 3.752017e+00	 8.601883e-01	 1.070693e+01
0	 3.752416e+00	 9.219388e-01	 1.071946e+01
0	 3.815418e+00	 6.250813e-01	 1.063891e+01
0	 3.816305e+00	 6.878782e-01	 1.064992e+01
0	 3.817071e+00	 7.507087e-01	 1.066104e+01
0	 3.817717e+00	 8.135681e-01	 1.067239e+01
0	 3.818242e+00	 8.764516e-01	 1.068412e+01
0	 3.818646e+00	 9.393543e-01	 1.069637e+01
0	 3.881625e+00	 6.367206e-01	 1.061817e+01
0	 3.882493e+00	 7.006713e-01	 1.062894e+01
0	 3.883246e+00	 7.646545e-01	 1.063981e+01
0	 3.883884e+00	 8.286656e-01	 1.065091e+01
0	 3.884406e+00	 8.927000e-01	 1.066238e+01
0	 3.884812e+00	 9.567532e-01	 1.067434e+01
0	 3.947785e+00	 6.483516e-01	 1.059841e+01
0	 3.948631e+00	 7.134546e-01	 1.060895e+01
0	 3.949367e+00	 7.785889e-01	 1.061958e+01
0	 3.949993e+00	 8.437500e-01	 1.063043e+01
0	 3.950509e+00	 9.089336e-01	 1.064164e+01
0	 3.950914e+00	 9.741353e-01	 1.065332e+01
0	 4.013898e+00	 6.599744e-01	 1.057959e+01
0	 4.014718e+00	 7.262282e-01	 1.058990e+01
0	 4.015434e+00	 7.925119e-01	 1.060030e+01
0	 4.016045e+00	 8.588213e-01	 1.061091e+01
0	 4.016552e+00	 9.251524e-01	 1.062185e+01
0	 4.016953e+00	 9.915008e-01	 1.063327e+01
0	 3.686123e+00	 9.045066e-01	 1.074368e+01
0	 3.686383e+00	 9.651182e-01	 1.075647e+01
0	 3.686512e+00	 1.025740e+00	 1.076868e+01
0	 3.686510e+00	 1.086366e+00	 1.078045e+01
0	 3.686376e+00	 1.146992e+00	 1.079193e+01
0	 3.686110e+00	 1.207612e+00	 1.080329e+01
0	 3.752416e+00	 9.219388e-01	 1.071946e+01
0	 3.752689e+00	 9.837042e-01	 1.073196e+01
0	 3.752836e+00	 1.045479e+00	 1.074388e+01
0	 3.752856e+00	 1.107259e+00	 1.075537e+01
0	 3.752749e+00	 1.169039e+00	 1.076658e+01
0	 3.752516e+00	 1.230814e+00	 1.077766e+01
0	 3.818646e+00	 9.393543e-01	 1.069637e+01
0	 3.818929e+00	 1.002272e+00	 1.070858e+01
0	 3.819090e+00	 1.065198e+00	 1.072022e+01
0	 3.819131e+00	 1.128130e+00	 1.073143e+01
0	 3.819049e+00	 1.191062e+00	 1.074237e+01
0	 3.818846e+00	 1.253989e+00	 1.075318e+01
0	 3.884812e+00	 9.567532e-01	 1.067434e+01
0	 3.885102e+00	 1.020820e+00	 1.068627e+01
0	 3.885276e+00	 1.084897e+00	 1.069763e+01
0	 3.885334e+00	 1.148978e+00	 1.070858e+01
0	 3.885276e+00	 1.213060e+00	 1.071925e+01
0	 3.885101e+00	 1.277137e+00	 1.072979e+01
0	 3.950914e+00	 9.741353e-01	 1.065332e+01
0	 3.951209e+00	 1.039351e+00	 1.066498e+01
0	 3.951393e+00	 1.104575e+00	 1.067607e+01
0	 3.951467e+00	 1.169804e+00	 1.068675e+01
0	 3.951429e+00	 1.235034e+00	 1.069716e+01
0	 3.951281e+00	 1.300259e+00	 1.070744e+01
0	 4.016953e+00	 9.915008e-01	 1.063327e+01
0	 4.017250e+00	 1.057862e+00	 1.064465e+01
0	 4.017442e+00	 1.124233e+00	 1.065548e+01
0	 4.017528e+00	 1.190608e+00	 1.066591e+01
0	 4.017509e+00	 1.256983e+00	 1.067606e+01
0	 4.017385e+00	 1.323355e+00	 1.068609e+01
0	 3.686110e+00	 1.207612e+00	 1.080329e+01
0	 3.685713e+00	 1.268222e+00	 1.081404e+01
0	 3.685184e+00	 1.328816e+00	 1.082369e+01
0	 3.684524e+00	 1.389388e+00	 1.083239e+01
0	 3.683732e+00	 1.449934e+00	 1.084028e+01
0	 3.682807e+00	 1.510449e+00	 1.084750e+01
0	 3.752516e+00	 1.230814e+00	 1.077766e+01
0	 3.752156e+00	 1.292578e+00	 1.078814e+01
0	 3.751670e+00	 1.354327e+00	 1.079755e+01
0	 3.751056e+00	 1.416056e+00	 1.080603e+01
0	 3.750315e+00	 1.477759e+00	 1.081371e+01
0	 3.749448e+00	 1.539433e+00	 1.082074e+01
0	 3.818846e+00	 1.253989e+00	 1.075318e+01
0	 3.818522e+00	 1.316906e+00	 1.076340e+01
0	 3.818075e+00	 1.379808e+00	 1.077257e+01
0	 3.817507e+00	 1.442691e+00	 1.078083e+01
0	 3.816817e+00	 1.505550e+00	 1.078831e+01
0	 3.816005e+00	 1.568380e+00	 1.079515e+01
0	 3.885101e+00	 1.277137e+00	 1.072979e+01
0	 3.884810e+00	 1.341205e+00	 1.073975e+01
0	 3.884402e+00	 1.405259e+00	 1.074869e+01
0	 3.883878e+00	 1.469295e+00	 1.075674e+01
0	 3.883237e+00	 1.533307e+00	 1.076402e+01
0	 3.882480e+00	 1.597292e+00	 1.077067e+01
0	 3.951281e+00	 1.300259e+00	 1.070744e+01
0	 3.951021e+00	 1.365476e+00	 1.071715e+01
0	 3.950650e+00	 1.430680e+00	 1.072586e+01
0	 3.950168e+00	 1.495866e+00	 1.073370e+01
0	 3.949576e+00	 1.561030e+00	 1.074079e+01
0	 3.948871e+00	 1.626167e+00	 1.074726e+01
0	 4.017385e+00	 1.323355e+00	 1.068609e+01
0	 4.017155e+00	 1.389719e+00	 1.069556e+01
0	 4.016819e+00	 1.456070e+00	 1.070404e+01
0	 4.016379e+00	 1.522405e+00	 1.071167e+01
0	 4.015832e+00	 1.588718e+00	 1.071857e+01
0	 4.015180e+00	 1.655007e+00	 1.072486e+01
0	 3.682807e+00	 1.510449e+00	 1.084750e+01
0	 3.681752e+00	 1.570926e+00	 1.085374e+01
0	 3.680564e+00	 1.631362e+00	 1.085867e+01
0	 3.679245e+00	 1.691751e+00	 1.086241e+01
0	 3.677794e+00	 1.752087e+00	 1.086507e+01
0	 3.676211e+00	 1.812366e+00	 1.086677e+01
0	 3.749448e+00	 1.539433e+00	 1.082074e+01
0	 3.748454e+00	 1.601070e+00	 1.082681e+01
0	 3.747332e+00	 1.662668e+00	 1.083161e+01
0	 3.746084e+00	 1.724220e+00	 1.083524e+01
0	 3.744710e+00	 1.785721e+00	 1.083782e+01
0	 3.743208e+00	 1.847167e+00	 1.083945e+01
0	 3.816005e+00	 1.568380e+00	 1.079515e+01
0	 3.815072e+00	 1.631176e+00	 1.080105e+01
0	 3.814016e+00	 1.693933e+00	 1.080571e+01
0	 3.812839e+00	 1.756647e+00	 1.080924e+01
0	 3.811540e+00	 1.819312e+00	 1.081173e+01
0	 3.810119e+00	 1.881923e+00	 1.081331e+01
0	 3.882480e+00	 1.597292e+00	 1.077067e+01
0	 3.881606e+00	 1.661244e+00	 1.077641e+01
0	 3.880615e+00	 1.725159e+00	 1.078094e+01
0	 3.879508e+00	 1.789033e+00	 1.078435e+01
0	 3.878284e+00	 1.852860e+00	 1.078677e+01
0	 3.876944e+00	 1.916635e+00	 1.078829e+01
0	 3.948871e+00	 1.626167e+00	 1.074726e+01
0	 3.948056e+00	 1.691274e+00	 1.075283e+01
0	 3.947130e+00	 1.756346e+00	 1.075723e+01
0	 3.946092e+00	 1.821377e+00	 1.076054e+01
0	 3.944943e+00	 1.886364e+00	 1.076288e+01
0	 3.943684e+00	 1.951303e+00	 1.076433e+01
0	 4.015180e+00	 1.655007e+00	 1.072486e+01
0	 4.014423e+00	 1.721267e+00	 1.073028e+01
0	 4.013560e+00	 1.787492e+00	 1.073455e+01
0	 4.012591e+00	 1.853680e+00	 1.073776e+01
0	 4.011517e+00	 1.919826e+00	 1.074001e+01
0	 4.010338e+00	 1.985926e+00	 1.074140e+01
0	 3.676211e+00	 1.812366e+00	 1.086677e+01
0	 3.674498e+00	 1.872582e+00	 1.086736e+01
0	 3.672653e+00	 1.932730e+00	 1.086670e+01
0	 3.670677e+00	 1.992805e+00	 1.086486e+01
0	 3.668570e+00	 2.052803e+00	 1.086192e+01
0	 3.666332e+00	 2.112717e+00	 1.085796e+01
0	 3.743208e+00	 1.847167e+00	 1.083945e+01
0	 3.741580e+00	 1.908553e+00	 1.084002e+01
0	 3.739826e+00	 1.969873e+00	 1.083936e+01
0	 3.737945e+00	 2.031122e+00	 1.083755e+01
0	 3.735939e+00	 2.092297e+00	 1.083468e+01
0	 3.733806e+00	 2.153391e+00	 1.083082e+01
0	 3.810119e+00	 1.881923e+00	 1.081331e+01
0	 3.808577e+00	 1.944477e+00	 1.081384e+01
0	 3.806914e+00	 2.006968e+00	 1.081318e+01
0	 3.805129e+00	 2.069391e+00	 1.081142e+01
0	 3.803223e+00	 2.131741e+00	 1.080861e+01
0	 3.801196e+00	 2.194014e+00	 1.080483e+01
0	 3.876944e+00	 1.916635e+00	 1.078829e+01
0	 3.875488e+00	 1.980356e+00	 1.078878e+01
0	 3.873915e+00	 2.044015e+00	 1.078813e+01
0	 3.872227e+00	 2.107610e+00	 1.078639e+01
0	 3.870422e+00	 2.171136e+00	 1.078364e+01
0	 3.868502e+00	 2.234587e+00	 1.077995e+01
0	 3.943684e+00	 1.951303e+00	 1.076433e+01
0	 3.942313e+00	 2.016188e+00	 1.076480e+01
0	 3.940832e+00	 2.081016e+00	 1.076414e+01
0	 3.939240e+00	 2.145781e+00	 1.076242e+01
0	 3.937537e+00	 2.210481e+00	 1.075973e+01
0	 3.935724e+00	 2.275109e+00	 1.075611e+01
0	 4.010338e+00	 1.985926e+00	 1.074140e+01
0	 4.009053e+00	 2.051975e+00	 1.074183e+01
0	 4.007663e+00	 2.117969e+00	 1.074116e+01
0	 4.006168e+00	 2.183904e+00	 1.073947e+01
0	 4.004568e+00	 2.249776e+00	 1.073682e+01
0	 4.002862e+00	 2.315581e+00	 1.073328e+01
0	 3.666332e+00	 2.112717e+00	 1.085796e+01
0	 3.663965e+00	 2.172542e+00	 1.085298e+01
0	 3.661467e+00	 2.232274e+00	 1.084698e+01
0	 3.658839e+00	 2.291908e+00	 1.083999e+01
0	 3.656082e+00	 2.351438e+00	 1.083206e+01
0	 3.653195e+00	 2.410860e+00	 1.082324e+01
0	 3.733806e+00	 2.153391e+00	 1.083082e+01
0	 3.731548e+00	 2.214399e+00	 1.082597e+01
0	 3.729165e+00	 2.275318e+00	 1.082012e+01
0	 3.726656e+00	 2.336141e+00	 1.081332e+01
0	 3.724023e+00	 2.396865e+00	 1.080561e+01
0	 3.721265e+00	 2.457483e+00	 1.079703e+01
0	 3.801196e+00	 2.194014e+00	 1.080483e+01
0	 3.799049e+00	 2.256205e+00	 1.080010e+01
0	 3.796781e+00	 2.318309e+00	 1.079440e+01
0	 3.794393e+00	 2.380322e+00	 1.078778e+01
0	 3.791885e+00	 2.442238e+00	 1.078028e+01
0	 3.789257e+00	 2.504053e+00	 1.077193e+01
0	 3.868502e+00	 2.234587e+00	 1.077995e+01
0	 3.866466e+00	 2.297959e+00	 1.077533e+01
0	 3.864315e+00	 2.361248e+00	 1.076977e+01
0	 3.862049e+00	 2.424450e+00	 1.076332e+01
0	 3.859667e+00	 2.487558e+00	 1.075601e+01
0	 3.857171e+00	 2.550570e+00	 1.074788e+01
0	 3.935724e+00	 2.275109e+00	 1.075611e+01
0	 3.933801e+00	 2.339662e+00	 1.075160e+01
0	 3.931767e+00	 2.404135e+00	 1.074617e+01
0	 3.929624e+00	 2.468525e+00	 1.073988e+01
0	 3.927371e+00	 2.532826e+00	 1.073275e+01
0	 3.925009e+00	 2.597034e+00	 1.072483e+01
0	 4.002862e+00	 2.315581e+00	 1.073328e+01
0	 4.001053e+00	 2.381314e+00	 1.072886e+01
0	 3.999138e+00	 2.446971e+00	 1.072356e+01
0	 3.997119e+00	 2.512548e+00	 1.071742e+01
0	 3.994996e+00	 2.578041e+00	 1.071046e+01
0	 3.992769e+00	 2.643446e+00	 1.070274e+01
0	 3.653195e+00	 2.410860e+00	 1.082324e+01
0	 3.650180e+00	 2.470168e+00	 1.081362e+01
0	 3.647037e+00	 2.529358e+00	 1.080328e+01
0	 3.643765e+00	 2.588424e+00	 1.079223e+01
0	 3.640365e+00	 2.647363e+00	 1.078049e+01
0	 3.636839e+00	 2.706167e+00	 1.076808e+01
0	 3.721265e+00	 2.457483e+00	 1.079703e+01
0	 3.718383e+00	 2.517992e+00	 1.078768e+01
0	 3.715377e+00	 2.578387e+00	 1.077763e+01
0	 3.712247e+00	 2.638662e+00	 1.076691e+01
0	 3.708994e+00	 2.698813e+00	 1.075551e+01
0	 3.705619e+00	 2.758835e+00	 1.074347e+01
0	 3.789257e+00	 2.504053e+00	 1.077193e+01
0	 3.786510e+00	 2.565763e+00	 1.076284e+01
0	 3.783643e+00	 2.627362e+00	 1.075307e+01
0	 3.780658e+00	 2.688847e+00	 1.074265e+01
0	 3.777554e+00	 2.750212e+00	 1.073159e+01
0	 3.774332e+00	 2.811452e+00	 1.071990e+01
0	 3.857171e+00	 2.550570e+00	 1.074788e+01
0	 3.854561e+00	 2.613481e+00	 1.073903e+01
0	 3.851836e+00	 2.676285e+00	 1.072954e+01
0	 3.848998e+00	 2.738979e+00	 1.071941e+01
0	 3.846046e+00	 2.801559e+00	 1.070866e+01
0	 3.842980e+00	 2.864019e+00	 1.069731e+01
0	 3.925009e+00	 2.597034e+00	 1.072483e+01
0	 3.922537e+00	 2.661146e+00	 1.071622e+01
0	 3.919956e+00	 2.725156e+00	 1.070697e+01
0	 3.917266e+00	 2.789060e+00	 1.069712e+01
0	 3.914468e+00	 2.852855e+00	 1.068668e+01
0	 3.911562e+00	 2.916535e+00	 1.067565e+01
0	 3.992769e+00	 2.643446e+00	 1.070274e+01
0	 3.990437e+00	 2.708758e+00	 1.069434e+01
0	 3.988003e+00	 2.773974e+00	 1.068534e+01
0	 3.985464e+00	 2.839089e+00	 1.067575e+01
0	 3.982823e+00	 2.904099e+00	 1.066558e+01
0	 3.980079e+00	 2.969001e+00	 1.065485e+01
0	 3.636839e+00	 2.706167e+00	 1.076808e+01
0	 3.633186e+00	 2.764834e+00	 1.075514e+01
0	 3.629406e+00	 2.823358e+00	 1.074180e+01
0	 3.625501e+00	 2.881734e+00	 1.072804e+01
0	 3.621470e+00	 2.939958e+00	 1.071387e+01
0	 3.617315e+00	 2.998024e+00	 1.069929e+01
0	 3.705619e+00	 2.758835e+00	 1.074347e+01
0	 3.702121e+00	 2.818724e+00	 1.073092e+01
0	 3.698501e+00	 2.878474e+00	 1.071798e+01
0	 3.694760e+00	 2.938082e+00	 1.070465e+01
0	 3.690898e+00	 2.997542e+00	 1.069092e+01
0	 3.686915e+00	 3.056850e+00	 1.067679e+01
0	 3.774332e+00	 2.811452e+00	 1.071990e+01
0	 3.770993e+00	 2.872564e+00	 1.070772e+01
0	 3.767536e+00	 2.933543e+00	 1.069517e+01
0	 3.763962e+00	 2.994384e+00	 1.068224e+01
0	 3.760272e+00	 3.055082e+00	 1.066892e+01
0	 3.756466e+00	 3.115634e+00	 1.065522e+01
0	 3.842980e+00	 2.864019e+00	 1.069731e+01
0	 3.839802e+00	 2.926355e+00	 1.068549e+01
0	 3.836511e+00	 2.988564e+00	 1.067330e+01
0	 3.833108e+00	 3.050640e+00	 1.066074e+01
0	 3.829594e+00	 3.112579e+00	 1.064782e+01
0	 3.825967e+00	 3.174377e+00	 1.063452e+01
0	 3.911562e+00	 2.916535e+00	 1.067565e+01
0	 3.908548e+00	 2.980097e+00	 1.066415e+01
0	 3.905427e+00	 3.043537e+00	 1.065231e+01
0	 3.902198e+00	 3.106849e+00	 1.064011e+01
0	 3.898862e+00	 3.170031e+00	 1.062756e+01
0	 3.895420e+00	 3.233078e+00	 1.061465e+01
0	 3.980079e+00	 2.969001e+00	 1.065485e+01
0	 3.977232e+00	 3.033790e+00	 1.064367e+01
0	 3.974282e+00	 3.098462e+00	 1.063215e+01
0	 3.971231e+00	 3.163013e+00	 1.062029e+01
0	 3.968078e+00	 3.227440e+00	 1.060809e+01
0	 3.964823e+00	 3.291737e+00	 1.059554e+01
0	 3.617315e+00	 2.998024e+00	 1.069929e+01
0	 3.613035e+00	 3.055929e+00	 1.068443e+01
0	 3.608632e+00	 3.113667e+00	 1.066941e+01
0	 3.604106e+00	 3.171234e+00	 1.065423e+01
0	 3.599458e+00	 3.228626e+00	 1.063888e+01
0	 3.594688e+00	 3.285837e+00	 1.062335e+01
0	 3.686915e+00	 3.056850e+00	 1.067679e+01
0	 3.682812e+00	 3.116002e+00	 1.066239e+01
0	 3.678590e+00	 3.174992e+00	 1.064785e+01
0	 3.674249e+00	 3.233817e+00	 1.063316e+01
0	 3.669790e+00	 3.292471e+00	 1.061831e+01
0	 3.665213e+00	 3.350952e+00	 1.060329e+01
0	 3.756466e+00	 3.115634e+00	 1.065522e+01
0	 3.752544e+00	 3.176035e+00	 1.064126e+01
0	 3.748507e+00	 3.236281e+00	 1.062716e+01
0	 3.744356e+00	 3.296366e+00	 1.061292e+01
0	 3.740090e+00	 3.356288e+00	 1.059853e+01
0	 3.735711e+00	 3.416041e+00	 1.058399e+01
0	 3.825967e+00	 3.174377e+00	 1.063452e+01
0	 3.822230e+00	 3.236030e+00	 1.062098e+01
0	 3.818383e+00	 3.297534e+00	 1.060730e+01
0	 3.814425e+00	 3.358883e+00	 1.059349e+01
0	 3.810358e+00	 3.420075e+00	 1.057953e+01
0	 3.806181e+00	 3.481105e+00	 1.056542e+01
0	 3.895420e+00	 3.233078e+00	 1.061465e+01
0	 3.891871e+00	 3.295986e+00	 1.060149e+01
0	 3.888217e+00	 3.358750e+00	 1.058822e+01
0	 3.884458e+00	 3.421367e+00	 1.057481e+01
0	 3.880593e+00	 3.483833e+00	 1.056126e+01
0	 3.876625e+00	 3.546144e+00	 1.054756e+01
0	 3.964823e+00	 3.291737e+00	 1.059554e+01
0	 3.961467e+00	 3.355902e+00	 1.058276e+01
0	 3.958011e+00	 3.419931e+00	 1.056987e+01
0	 3.954454e+00	 3.483818e+00	 1.055686e+01
0	 3.950797e+00	 3.547562e+00	 1.054370e+01
0	 3.947040e+00	 3.611157e+00	 1.053039e+01
0	 3.594688e+00	 3.285837e+00	 1.062335e+01
0	 3.589797e+00	 3.342864e+00	 1.060772e+01
0	 3.584785e+00	 3.399701e+00	 1.059210e+01
0	 3.579654e+00	 3.456345e+00	 1.057649e+01
0	 3.574404e+00	 3.512791e+00	 1.056088e+01
0	 3.569036e+00	 3.569036e+00	 1.054525e+01
0	 3.665213e+00	 3.350952e+00	 1.060329e+01
0	 3.660519e+00	 3.409253e+00	 1.058820e+01
0	 3.655708e+00	 3.467371e+00	 1.057313e+01
0	 3.650782e+00	 3.525302e+00	 1.055806e+01
0	 3.645740e+00	 3.583041e+00	 1.054296e+01
0	 3.640584e+00	 3.640584e+00	 1.052780e+01
0	 3.735711e+00	 3.416041e+00	 1.058399e+01
0	 3.731219e+00	 3.475621e+00	 1.056939e+01
0	 3.726614e+00	 3.535025e+00	 1.055483e+01
0	 3.721898e+00	 3.594247e+00	 1.054027e+01
0	 3.717070e+00	 3.653284e+00	 1.052567e+01
0	 3.712132e+00	 3.712132e+00	 1.051100e+01
0	 3.806181e+00	 3.481105e+00	 1.056542e+01
0	 3.801896e+00	 3.541968e+00	 1.055127e+01
0	 3.797503e+00	 3.602662e+00	 1.053718e+01
0	 3.793002e+00	 3.663181e+00	 1.052310e+01
0	 3.788395e+00	 3.723522e+00	 1.050899e+01
0	 3.783680e+00	 3.783680e+00	 1.049481e+01
0	 3.876625e+00	 3.546144e+00	 1.054756e+01
0	 3.872552e+00	 3.608295e+00	 1.053383e+01
0	 3.868375e+00	 3.670283e+00	 1.052017e+01
0	 3.864095e+00	 3.732104e+00	 1.050653e+01
0	 3.859713e+00	 3.793753e+00	 1.049289e+01
0	 3.855228e+00	 3.855228e+00	 1.047920e+01
0	 3.947040e+00	 3.611157e+00	 1.053039e+01
0	 3.943184e+00	 3.674600e+00	 1.051705e+01
0	 3.939230e+00	 3.737887e+00	 1.050378e+01
0	 3.935177e+00	 3.801015e+00	 1.049055e+01
0	 3.931025e+00	 3.863979e+00	 1.047734e+01
0	 3.926777e+00	 3.926777e+00	 1.046412e+01
0	 4.000000e+00	 0.000000e+00	 1.052697e+01
0	 4.001852e+00	 6.572598e-02	 1.052715e+01
0	 4.003602e+00	 1.315232e-01	 1.052851e+01
0	 4.005250e+00	 1.973875e-01	 1.053111e+01
0	 4.006795e+00	 2.633150e-01	 1.053498e+01
0	 4.008238e+00	 3.293014e-01	 1.054016e+01
0	 4.066667e+00	 0.000000e+00	 1.050994e+01
0	 4.068434e+00	 6.690049e-02	 1.051015e+01
0	 4.070105e+00	 1.338688e-01	 1.051151e+01
0	 4.071679e+00	 2.009009e-01	 1.051408e+01
0	 4.073156e+00	 2.679932e-01	 1.051788e+01
0	 4.074535e+00	 3.351416e-01	 1.052297e+01
0	 4.133333e+00	 0.000000e+00	 1.049364e+01
0	 4.135010e+00	 6.807490e-02	 1.049387e+01
0	 4.136597e+00	 1.362140e-01	 1.049523e+01
0	 4.138091e+00	 2.044135e-01	 1.049777e+01
0	 4.139495e+00	 2.726699e-01	 1.050151e+01
0	 4.140807e+00	 3.409795e-01	 1.050651e+01
0	 4.200000e+00	 0.000000e+00	 1.047802e+01
0	 4.201581e+00	 6.924921e-02	 1.047827e+01
0	 4.203077e+00	 1.385588e-01	 1.047964e+01
0	 4.204488e+00	 2.079253e-01	 1.048214e+01
0	 4.205813e+00	 2.773452e-01	 1.048583e+01
0	 4.207052e+00	 3.468152e-01	 1.049074e+01
0	 4.266667e+00	 0.000000e+00	 1.046306e+01
0	 4.268147e+00	 7.042342e-02	 1.046334e+01
0	 4.269547e+00	 1.409032e-01	 1.046470e+01
0	 4.270869e+00	 2.114361e-01	 1.046717e+01
0	 4.272111e+00	 2.820190e-01	 1.047080e+01
0	 4.273273e+00	 3.526486e-01	 1.047562e+01
0	 4.333333e+00	 0.000000e+00	 1.044873e+01
0	 4.334706e+00	 7.159754e-02	 1.044903e+01
0	 4.336007e+00	 1.432473e-01	 1.045038e+01
0	 4.337233e+00	 2.149462e-01	 1.045283e+01
0	 4.338387e+00	 2.866913e-01	 1.045640e+01
0	 4.339467e+00	 3.584797e-01	 1.046113e+01
0	 4.008238e+00	 3.293014e-01	 1.054016e+01
0	 4.009577e+00	 3.953427e-01	 1.054635e+01
0	 4.010813e+00	 4.614348e-01	 1.055330e+01
0	 4.011945e+00	 5.275736e-01	 1.056109e+01
0	 4.012973e+00	 5.937548e-01	 1.056983e+01
0	 4.013898e+00	 6.599744e-01	 1.057959e+01
0	 4.074535e+00	 3.351416e-01	 1.052297e+01
0	 4.075817e+00	 4.023423e-01	 1.052905e+01
0	 4.077001e+00	 4.695913e-01	 1.053586e+01
0	 4.078087e+00	 5.368847e-01	 1.054350e+01
0	 4.079075e+00	 6.042186e-01	 1.055205e+01
0	 4.079964e+00	 6.715890e-01	 1.056160e+01
0	 4.140807e+00	 3.409795e-01	 1.050651e+01
0	 4.142026e+00	 4.093386e-01	 1.051247e+01
0	 4.143154e+00	 4.777434e-01	 1.051915e+01
0	 4.144190e+00	 5.461903e-01	 1.052663e+01
0	 4.145133e+00	 6.146755e-01	 1.053500e+01
0	 4.145983e+00	 6.831953e-01	 1.054435e+01
0	 4.207052e+00	 3.468152e-01	 1.049074e+01
0	 4.208206e+00	 4.163317e-01	 1.049658e+01
0	 4.209273e+00	 4.858913e-01	 1.050313e+01
0	 4.210254e+00	 5.554904e-01	 1.051045e+01
0	 4.211148e+00	 6.251257e-01	 1.051864e+01
0	 4.211956e+00	 6.947935e-01	 1.052780e+01
0	 4.273273e+00	 3.526486e-01	 1.047562e+01
0	 4.274355e+00	 4.233216e-01	 1.048135e+01
0	 4.275357e+00	 4.940349e-01	 1.048777e+01
0	 4.276279e+00	 5.647851e-01	 1.049494e+01
0	 4.277121e+00	 6.355690e-01	 1.050296e+01
0	 4.277882e+00	 7.063834e-01	 1.051192e+01
0	 4.339467e+00	 3.584797e-01	 1.046113e+01
0	 4.340474e+00	 4.303083e-01	 1.046676e+01
0	 4.341406e+00	 5.021742e-01	 1.047304e+01
0	 4.342265e+00	 5.740743e-01	 1.048007e+01
0	 4.343050e+00	 6.460056e-01	 1.048792e+01
0	 4.343761e+00	 7.179651e-01	 1.049669e+01
0	 4.013898e+00	 6.599744e-01	 1.057959e+01
0	 4.014718e+00	 7.262282e-01	 1.058990e+01
0	 4.015434e+00	 7.925119e-01	 1.060030e+01
0	 4.016045e+00	 8.588213e-01	 1.061091e+01
0	 4.016552e+00	 9.251524e-01	 1.062185e+01
0	 4.016953e+00	 9.915008e-01	 1.063327e+01
0	 4.079964e+00	 6.715890e-01	 1.056160e+01
0	 4.080755e+00	 7.389919e-01	 1.057169e+01
0	 4.081447e+00	 8.064235e-01	 1.058186e+01
0	 4.082040e+00	 8.738796e-01	 1.059223e+01
0	 4.082534e+00	 9.413563e-01	 1.060292e+01
0	 4.082929e+00	 1.008850e+00	 1.061408e+01
0	 4.145983e+00	 6.831953e-01	 1.054435e+01
0	 4.146741e+00	 7.517460e-01	 1.055422e+01
0	 4.147406e+00	 8.203237e-01	 1.056416e+01
0	 4.147978e+00	 8.889248e-01	 1.057429e+01
0	 4.148457e+00	 9.575454e-01	 1.058475e+01
0	 4.148842e+00	 1.026182e+00	 1.059565e+01
0	 4.211956e+00	 6.947935e-01	 1.052780e+01
0	 4.212677e+00	 7.644903e-01	 1.053745e+01
0	 4.213311e+00	 8.342126e-01	 1.054717e+01
0	 4.213858e+00	 9.039570e-01	 1.055708e+01
0	 4.214319e+00	 9.737198e-01	 1.056730e+01
0	 4.214692e+00	 1.043497e+00	 1.057795e+01
0	 4.277882e+00	 7.063834e-01	 1.051192e+01
0	 4.278563e+00	 7.772249e-01	 1.052137e+01
0	 4.279163e+00	 8.480902e-01	 1.053087e+01
0	 4.279682e+00	 9.189762e-01	 1.054056e+01
0	 4.280121e+00	 9.898794e-01	 1.055055e+01
0	 4.280478e+00	 1.060797e+00	 1.056095e+01
0	 4.343761e+00	 7.179651e-01	 1.049669e+01
0	 4.344398e+00	 7.899497e-01	 1.050593e+01
0	 4.344960e+00	 8.619565e-01	 1.051523e+01
0	 4.345449e+00	 9.339823e-01	 1.052470e+01
0	 4.345863e+00	 1.006024e+00	 1.053446e+01
0	 4.346202e+00	 1.078079e+00	 1.054463e+01
0	 4.016953e+00	 9.915008e-01	 1.063327e+01
0	 4.017250e+00	 1.057862e+00	 1.064465e+01
0	 4.017442e+00	 1.124233e+00	 1.065548e+01
0	 4.017528e+00	 1.190608e+00	 1.066591e+01
0	 4.017509e+00	 1.256983e+00	 1.067606e+01
0	 4.017385e+00	 1.323355e+00	 1.068609e+01
0	 4.082929e+00	 1.008850e+00	 1.061408e+01
0	 4.083225e+00	 1.076355e+00	 1.062519e+01
0	 4.083421e+00	 1.143870e+00	 1.063577e+01
0	 4.083518e+00	 1.211389e+00	 1.064594e+01
0	 4.083516e+00	 1.278908e+00	 1.065585e+01
0	 4.083414e+00	 1.346425e+00	 1.066562e+01
0	 4.148842e+00	 1.026182e+00	 1.059565e+01
0	 4.149134e+00	 1.094830e+00	 1.060650e+01
0	 4.149333e+00	 1.163487e+00	 1.061683e+01
0	 4.149438e+00	 1.232148e+00	 1.062676e+01
0	 4.149450e+00	 1.300809e+00	 1.063642e+01
0	 4.149367e+00	 1.369468e+00	 1.064595e+01
0	 4.214692e+00	 1.043497e+00	 1.057795e+01
0	 4.214977e+00	 1.113287e+00	 1.058855e+01
0	 4.215176e+00	 1.183083e+00	 1.059863e+01
0	 4.215287e+00	 1.252884e+00	 1.060832e+01
0	 4.215310e+00	 1.322686e+00	 1.061775e+01
0	 4.215246e+00	 1.392485e+00	 1.062704e+01
0	 4.280478e+00	 1.060797e+00	 1.056095e+01
0	 4.280755e+00	 1.131724e+00	 1.057131e+01
0	 4.280951e+00	 1.202660e+00	 1.058115e+01
0	 4.281065e+00	 1.273599e+00	 1.059061e+01
0	 4.281099e+00	 1.344539e+00	 1.059980e+01
0	 4.281051e+00	 1.415476e+00	 1.060887e+01
0	 4.346202e+00	 1.078079e+00	 1.054463e+01
0	 4.346467e+00	 1.150144e+00	 1.055474e+01
0	 4.346657e+00	 1.222216e+00	 1.056435e+01
0	 4.346773e+00	 1.294291e+00	 1.057359e+01
0	 4.346814e+00	 1.366367e+00	 1.058256e+01
0	 4.346780e+00	 1.438441e+00	 1.059141e+01
0	 4.017385e+00	 1.323355e+00	 1.068609e+01
0	 4.017155e+00	 1.389719e+00	 1.069556e+01
0	 4.016819e+00	 1.456070e+00	 1.070404e+01
0	 4.016379e+00	 1.522405e+00	 1.071167e+01
0	 4.015832e+00	 1.588718e+00	 1.071857e+01
0	 4.015180e+00	 1.655007e+00	 1.072486e+01
0	 4.083414e+00	 1.346425e+00	 1.066562e+01
0	 4.083212e+00	 1.413933e+00	 1.067485e+01
0	 4.082910e+00	 1.481430e+00	 1.068312e+01
0	 4.082509e+00	 1.548911e+00	 1.069055e+01
0	 4.082008e+00	 1.616373e+00	 1.069726e+01
0	 4.081407e+00	 1.683811e+00	 1.070338e+01
0	 4.149367e+00	 1.369468e+00	 1.064595e+01
0	 4.149192e+00	 1.438119e+00	 1.065495e+01
0	 4.148922e+00	 1.506760e+00	 1.066301e+01
0	 4.148559e+00	 1.575386e+00	 1.067024e+01
0	 4.148102e+00	 1.643994e+00	 1.067677e+01
0	 4.147551e+00	 1.712579e+00	 1.068272e+01
0	 4.215246e+00	 1.392485e+00	 1.062704e+01
0	 4.215095e+00	 1.462277e+00	 1.063582e+01
0	 4.214856e+00	 1.532060e+00	 1.064367e+01
0	 4.214529e+00	 1.601829e+00	 1.065071e+01
0	 4.214115e+00	 1.671580e+00	 1.065707e+01
0	 4.213613e+00	 1.741311e+00	 1.066285e+01
0	 4.281051e+00	 1.415476e+00	 1.060887e+01
0	 4.280922e+00	 1.486408e+00	 1.061742e+01
0	 4.280711e+00	 1.557330e+00	 1.062507e+01
0	 4.280420e+00	 1.628239e+00	 1.063193e+01
0	 4.280047e+00	 1.699133e+00	 1.063812e+01
0	 4.279593e+00	 1.770008e+00	 1.064374e+01
0	 4.346780e+00	 1.438441e+00	 1.059141e+01
0	 4.346672e+00	 1.510510e+00	 1.059974e+01
0	 4.346489e+00	 1.582570e+00	 1.060720e+01
0	 4.346231e+00	 1.654618e+00	 1.061388e+01
0	 4.345898e+00	 1.726652e+00	 1.061990e+01
0	 4.345491e+00	 1.798669e+00	 1.062536e+01
0	 4.015180e+00	 1.655007e+00	 1.072486e+01
0	 4.014423e+00	 1.721267e+00	 1.073028e+01
0	 4.013560e+00	 1.787492e+00	 1.073455e+01
0	 4.012591e+00	 1.853680e+00	 1.073776e+01
0	 4.011517e+00	 1.919826e+00	 1.074001e+01
0	 4.010338e+00	 1.985926e+00	 1.074140e+01
0	 4.081407e+00	 1.683811e+00	 1.070338e+01
0	 4.080706e+00	 1.751221e+00	 1.070865e+01
0	 4.079906e+00	 1.818600e+00	 1.071278e+01
0	 4.079006e+00	 1.885942e+00	 1.071589e+01
0	 4.078006e+00	 1.953245e+00	 1.071806e+01
0	 4.076906e+00	 2.020504e+00	 1.071940e+01
0	 4.147551e+00	 1.712579e+00	 1.068272e+01
0	 4.146906e+00	 1.781138e+00	 1.068784e+01
0	 4.146168e+00	 1.849668e+00	 1.069185e+01
0	 4.145335e+00	 1.918163e+00	 1.069486e+01
0	 4.144410e+00	 1.986622e+00	 1.069695e+01
0	 4.143390e+00	 2.055039e+00	 1.069823e+01
0	 4.213613e+00	 1.741311e+00	 1.066285e+01
0	 4.213023e+00	 1.811018e+00	 1.066782e+01
0	 4.212346e+00	 1.880696e+00	 1.067171e+01
0	 4.211581e+00	 1.950343e+00	 1.067462e+01
0	 4.210728e+00	 2.019956e+00	 1.067664e+01
0	 4.209788e+00	 2.089529e+00	 1.067786e+01
0	 4.279593e+00	 1.770008e+00	 1.064374e+01
0	 4.279057e+00	 1.840860e+00	 1.064857e+01
0	 4.278440e+00	 1.911686e+00	 1.065234e+01
0	 4.277742e+00	 1.982483e+00	 1.065516e+01
0	 4.276963e+00	 2.053247e+00	 1.065710e+01
0	 4.276102e+00	 2.123976e+00	 1.065826e+01
0	 4.345491e+00	 1.798669e+00	 1.062536e+01
0	 4.345008e+00	 1.870664e+00	 1.063005e+01
0	 4.344451e+00	 1.942636e+00	 1.063371e+01
0	 4.343819e+00	 2.014581e+00	 1.063643e+01
0	 4.343113e+00	 2.086496e+00	 1.063830e+01
0	 4.342331e+00	 2.158378e+00	 1.063940e+01
0	 4.010338e+00	 1.985926e+00	 1.074140e+01
0	 4.009053e+00	 2.051975e+00	 1.074183e+01
0	 4.007663e+00	 2.117969e+00	 1.074116e+01
0	 4.006168e+00	 2.183904e+00	 1.073947e+01
0	 4.004568e+00	 2.249776e+00	 1.073682e+01
0	 4.002862e+00	 2.315581e+00	 1.073328e+01
0	 4.076906e+00	 2.020504e+00	 1.071940e+01
0	 4.075707e+00	 2.087716e+00	 1.071979e+01
0	 4.074409e+00	 2.154875e+00	 1.071912e+01
0	 4.073011e+00	 2.221979e+00	 1.071745e+01
0	 4.071514e+00	 2.289022e+00	 1.071484e+01
0	 4.069917e+00	 2.356002e+00	 1.071136e+01
0	 4.143390e+00	 2.055039e+00	 1.069823e+01
0	 4.142277e+00	 2.123411e+00	 1.069858e+01
0	 4.141070e+00	 2.191734e+00	 1.069790e+01
0	 4.139769e+00	 2.260005e+00	 1.069625e+01
0	 4.138376e+00	 2.328219e+00	 1.069368e+01
0	 4.136889e+00	 2.396373e+00	 1.069027e+01
0	 4.209788e+00	 2.089529e+00	 1.067786e+01
0	 4.208761e+00	 2.159061e+00	 1.067818e+01
0	 4.207646e+00	 2.228547e+00	 1.067749e+01
0	 4.206443e+00	 2.297983e+00	 1.067585e+01
0	 4.205154e+00	 2.367367e+00	 1.067332e+01
0	 4.203777e+00	 2.436694e+00	 1.066997e+01
0	 4.276102e+00	 2.123976e+00	 1.065826e+01
0	 4.275160e+00	 2.194665e+00	 1.065854e+01
0	 4.274137e+00	 2.265312e+00	 1.065784e+01
0	 4.273033e+00	 2.335913e+00	 1.065621e+01
0	 4.271848e+00	 2.406465e+00	 1.065372e+01
0	 4.270582e+00	 2.476965e+00	 1.065042e+01
0	 4.342331e+00	 2.158378e+00	 1.063940e+01
0	 4.341475e+00	 2.230224e+00	 1.063964e+01
0	 4.340544e+00	 2.302031e+00	 1.063893e+01
0	 4.339539e+00	 2.373795e+00	 1.063732e+01
0	 4.338459e+00	 2.445515e+00	 1.063486e+01
0	 4.337304e+00	 2.517186e+00	 1.063161e+01
0	 4.002862e+00	 2.315581e+00	 1.073328e+01
0	 4.001053e+00	 2.381314e+00	 1.072886e+01
0	 3.999138e+00	 2.446971e+00	 1.072356e+01
0	 3.997119e+00	 2.512548e+00	 1.071742e+01
0	 3.994996e+00	 2.578041e+00	 1.071046e+01
0	 3.992769e+00	 2.643446e+00	 1.070274e+01
0	 4.069917e+00	 2.356002e+00	 1.071136e+01
0	 4.068222e+00	 2.422914e+00	 1.070703e+01
0	 4.066427e+00	 2.489754e+00	 1.070185e+01
0	 4.064534e+00	 2.556519e+00	 1.069584e+01
0	 4.062542e+00	 2.623203e+00	 1.068906e+01
0	 4.060452e+00	 2.689804e+00	 1.068152e+01
0	 4.136889e+00	 2.396373e+00	 1.069027e+01
0	 4.135308e+00	 2.464463e+00	 1.068602e+01
0	 4.133635e+00	 2.532486e+00	 1.068095e+01
0	 4.131869e+00	 2.600437e+00	 1.067508e+01
0	 4.130010e+00	 2.668313e+00	 1.066845e+01
0	 4.128058e+00	 2.736110e+00	 1.066109e+01
0	 4.203777e+00	 2.436694e+00	 1.066997e+01
0	 4.202313e+00	 2.505962e+00	 1.066580e+01
0	 4.200762e+00	 2.575166e+00	 1.066083e+01
0	 4.199124e+00	 2.644303e+00	 1.065509e+01
0	 4.197399e+00	 2.713370e+00	 1.064861e+01
0	 4.195587e+00	 2.782363e+00	 1.064142e+01
0	 4.270582e+00	 2.476965e+00	 1.065042e+01
0	 4.269235e+00	 2.547409e+00	 1.064634e+01
0	 4.267807e+00	 2.617794e+00	 1.064147e+01
0	 4.266299e+00	 2.688118e+00	 1.063585e+01
0	 4.264710e+00	 2.758375e+00	 1.062951e+01
0	 4.263040e+00	 2.828564e+00	 1.062248e+01
0	 4.337304e+00	 2.517186e+00	 1.063161e+01
0	 4.336075e+00	 2.588806e+00	 1.062759e+01
0	 4.334772e+00	 2.660372e+00	 1.062282e+01
0	 4.333394e+00	 2.731880e+00	 1.061731e+01
0	 4.331942e+00	 2.803328e+00	 1.061110e+01
0	 4.330416e+00	 2.874712e+00	 1.060422e+01
0	 3.992769e+00	 2.643446e+00	 1.070274e+01
0	 3.990437e+00	 2.708758e+00	 1.069434e+01
0	 3.988003e+00	 2.773974e+00	 1.068534e+01
0	 3.985464e+00	 2.839089e+00	 1.067575e+01
0	 3.982823e+00	 2.904099e+00	 1.066558e+01
0	 3.980079e+00	 2.969001e+00	 1.065485e+01
0	 4.060452e+00	 2.689804e+00	 1.068152e+01
0	 4.058263e+00	 2.756317e+00	 1.067332e+01
0	 4.055976e+00	 2.822739e+00	 1.066455e+01
0	 4.053592e+00	 2.889066e+00	 1.065520e+01
0	 4.051109e+00	 2.955293e+00	 1.064530e+01
0	 4.048529e+00	 3.021417e+00	 1.063485e+01
0	 4.128058e+00	 2.736110e+00	 1.066109e+01
0	 4.126014e+00	 2.803824e+00	 1.065309e+01
0	 4.123877e+00	 2.871452e+00	 1.064453e+01
0	 4.121648e+00	 2.938991e+00	 1.063542e+01
0	 4.119327e+00	 3.006435e+00	 1.062576e+01
0	 4.116914e+00	 3.073782e+00	 1.061558e+01
0	 4.195587e+00	 2.782363e+00	 1.064142e+01
0	 4.193689e+00	 2.851279e+00	 1.063361e+01
0	 4.191705e+00	 2.920113e+00	 1.062525e+01
0	 4.189634e+00	 2.988864e+00	 1.061636e+01
0	 4.187477e+00	 3.057526e+00	 1.060694e+01
0	 4.185234e+00	 3.126098e+00	 1.059701e+01
0	 4.263040e+00	 2.828564e+00	 1.062248e+01
0	 4.261290e+00	 2.898681e+00	 1.061484e+01
0	 4.259460e+00	 2.968722e+00	 1.060668e+01
0	 4.257549e+00	 3.038685e+00	 1.059800e+01
0	 4.255559e+00	 3.108567e+00	 1.058880e+01
0	 4.253488e+00	 3.178363e+00	 1.057911e+01
0	 4.330416e+00	 2.874712e+00	 1.060422e+01
0	 4.328816e+00	 2.946030e+00	 1.059676e+01
0	 4.327142e+00	 3.017279e+00	 1.058878e+01
0	 4.325394e+00	 3.088455e+00	 1.058029e+01
0	 4.323573e+00	 3.159556e+00	 1.057131e+01
0	 4.321678e+00	 3.230579e+00	 1.056184e+01
0	 3.980079e+00	 2.969001e+00	 1.065485e+01
0	 3.977232e+00	 3.033790e+00	 1.064367e+01
0	 3.974282e+00	 3.098462e+00	 1.063215e+01
0	 3.971231e+00	 3.163013e+00	 1.062029e+01
0	 3.968078e+00	 3.227440e+00	 1.060809e+01
0	 3.964823e+00	 3.291737e+00	 1.059554e+01
0	 4.048529e+00	 3.021417e+00	 1.063485e+01
0	 4.045852e+00	 3.087434e+00	 1.062396e+01
0	 4.043078e+00	 3.153340e+00	 1.061275e+01
0	 4.040207e+00	 3.219131e+00	 1.060121e+01
0	 4.037240e+00	 3.284804e+00	 1.058934e+01
0	 4.034177e+00	 3.350355e+00	 1.057714e+01
0	 4.116914e+00	 3.073782e+00	 1.061558e+01
0	 4.114410e+00	 3.141029e+00	 1.060497e+01
0	 4.111815e+00	 3.208170e+00	 1.059406e+01
0	 4.109128e+00	 3.275204e+00	 1.058282e+01
0	 4.106350e+00	 3.342125e+00	 1.057127e+01
0	 4.103482e+00	 3.408932e+00	 1.055939e+01
0	 4.185234e+00	 3.126098e+00	 1.059701e+01
0	 4.182906e+00	 3.194574e+00	 1.058667e+01
0	 4.180491e+00	 3.262953e+00	 1.057603e+01
0	 4.177992e+00	 3.331230e+00	 1.056508e+01
0	 4.175407e+00	 3.399402e+00	 1.055383e+01
0	 4.172738e+00	 3.467466e+00	 1.054227e+01
0	 4.253488e+00	 3.178363e+00	 1.057911e+01
0	 4.251338e+00	 3.248071e+00	 1.056902e+01
0	 4.249109e+00	 3.317688e+00	 1.055864e+01
0	 4.246800e+00	 3.387211e+00	 1.054797e+01
0	 4.244412e+00	 3.456636e+00	 1.053701e+01
0	 4.241944e+00	 3.525960e+00	 1.052574e+01
0	 4.321678e+00	 3.230579e+00	 1.056184e+01
0	 4.319709e+00	 3.301520e+00	 1.055200e+01
0	 4.317667e+00	 3.372377e+00	 1.054187e+01
0	 4.315552e+00	 3.443146e+00	 1.053147e+01
0	 4.313363e+00	 3.513826e+00	 1.052077e+01
0	 4.311102e+00	 3.584412e+00	 1.050979e+01
0	 3.964823e+00	 3.291737e+00	 1.059554e+01
0	 3.961467e+00	 3.355902e+00	 1.058276e+01
0	 3.958011e+00	 3.419931e+00	 1.056987e+01
0	 3.954454e+00	 3.483818e+00	 1.055686e+01
0	 3.950797e+00	 3.547562e+00	 1.054370e+01
0	 3.947040e+00	 3.611157e+00	 1.053039e+01
0	 4.034177e+00	 3.350355e+00	 1.057714e+01
0	 4.031018e+00	 3.415780e+00	 1.056472e+01
0	 4.027763e+00	 3.481075e+00	 1.055221e+01
0	 4.024413e+00	 3.546237e+00	 1.053957e+01
0	 4.020968e+00	 3.611261e+00	 1.052679e+01
0	 4.017429e+00	 3.676145e+00	 1.051387e+01
0	 4.103482e+00	 3.408932e+00	 1.055939e+01
0	 4.100523e+00	 3.475619e+00	 1.054732e+01
0	 4.097474e+00	 3.542184e+00	 1.053515e+01
0	 4.094335e+00	 3.608622e+00	 1.052288e+01
0	 4.091107e+00	 3.674932e+00	 1.051047e+01
0	 4.087790e+00	 3.741108e+00	 1.049792e+01
0	 4.172738e+00	 3.467466e+00	 1.054227e+01
0	 4.169983e+00	 3.535419e+00	 1.053051e+01
0	 4.167144e+00	 3.603256e+00	 1.051868e+01
0	 4.164221e+00	 3.670975e+00	 1.050675e+01
0	 4.161214e+00	 3.738573e+00	 1.049469e+01
0	 4.158123e+00	 3.806045e+00	 1.048250e+01
0	 4.241944e+00	 3.525960e+00	 1.052574e+01
0	 4.239398e+00	 3.595180e+00	 1.051429e+01
0	 4.236774e+00	 3.664293e+00	 1.050277e+01
0	 4.234070e+00	 3.733296e+00	 1.049115e+01
0	 4.231289e+00	 3.802185e+00	 1.047943e+01
0	 4.228429e+00	 3.870958e+00	 1.046759e+01
0	 4.311102e+00	 3.584412e+00	 1.050979e+01
0	 4.308768e+00	 3.654902e+00	 1.049862e+01
0	 4.306362e+00	 3.725294e+00	 1.048739e+01
0	 4.303883e+00	 3.795583e+00	 1.047607e+01
0	 4.301332e+00	 3.865768e+00	 1.046466e+01
0	 4.298708e+00	 3.935845e+00	 1.045313e+01
0	 3.947040e+00	 3.611157e+00	 1.053039e+01
0	 3.943184e+00	 3.674600e+00	 1.051705e+01
0	 3.939230e+00	 3.737887e+00	 1.050378e+01
0	 3.935177e+00	 3.801015e+00	 1.049055e+01
0	 3.931025e+00	 3.863979e+00	 1.047734e+01
0	 3.926777e+00	 3.926777e+00	 1.046412e+01
0	 4.017429e+00	 3.676145e+00	 1.051387e+01
0	 4.013795e+00	 3.740884e+00	 1.050090e+01
0	 4.010067e+00	 3.805476e+00	 1.048800e+01
0	 4.006246e+00	 3.869915e+00	 1.047515e+01
0	 4.002332e+00	 3.934199e+00	 1.046234e+01
0	 3.998325e+00	 3.998325e+00	 1.044955e+01
0	 4.087790e+00	 3.741108e+00	 1.049792e+01
0	 4.084383e+00	 3.807148e+00	 1.048532e+01
0	 4.080888e+00	 3.873047e+00	 1.047279e+01
0	 4.077304e+00	 3.938804e+00	 1.046031e+01
0	 4.073632e+00	 4.004414e+00	 1.044787e+01
0	 4.069873e+00	 4.069873e+00	 1.043546e+01
0	 4.158123e+00	 3.806045e+00	 1.048250e+01
0	 4.154949e+00	 3.873390e+00	 1.047027e+01
0	 4.151691e+00	 3.940603e+00	 1.045809e+01
0	 4.148350e+00	 4.007681e+00	 1.044596e+01
0	 4.144927e+00	 4.074622e+00	 1.043388e+01
0	 4.141421e+00	 4.141421e+00	 1.042182e+01
0	 4.228429e+00	 3.870958e+00	 1.046759e+01
0	 4.225492e+00	 3.939611e+00	 1.045570e+01
0	 4.222477e+00	 4.008142e+00	 1.044387e+01
0	 4.219385e+00	 4.076548e+00	 1.043207e+01
0	 4.216216e+00	 4.144824e+00	 1.042032e+01
0	 4.212970e+00	 4.212970e+00	 1.040858e+01
0	 4.298708e+00	 3.935845e+00	 1.045313e+01
0	 4.296013e+00	 4.005812e+00	 1.044157e+01
0	 4.293246e+00	 4.075665e+00	 1.043007e+01
0	 4.290408e+00	 4.145403e+00	 1.041860e+01
0	 4.287499e+00	 4.215021e+00	 1.040715e+01
0	 4.284518e+00	 4.284518e+00	 1.039572e+01
0	 4.333333e+00	 0.000000e+00	 1.044873e+01
0	 4.334706e+00	 7.159754e-02	 1.044903e+01
0	 4.336007e+00	 1.432473e-01	 1.045038e+01
0	 4.337233e+00	 2.149462e-01	 1.045283e+01
0	 4.338387e+00	 2.866913e-01	 1.045640e+01
0	 4.339467e+00	 3.584797e-01	 1.046113e+01
0	 4.400000e+00	 0.000000e+00	 1.043495e+01
0	 4.401261e+00	 7.277156e-02	 1.043527e+01
0	 4.402455e+00	 1.455909e-01	 1.043662e+01
0	 4.403582e+00	 2.184554e-01	 1.043904e+01
0	 4.404642e+00	 2.913622e-01	 1.044255e+01
0	 4.405636e+00	 3.643086e-01	 1.044719e+01
0	 4.466667e+00	 0.000000e+00	 1.042165e+01
0	 4.467809e+00	 7.394548e-02	 1.042199e+01
0	 4.468892e+00	 1.479342e-01	 1.042334e+01
0	 4.469915e+00	 2.219637e-01	 1.042572e+01
0	 4.470877e+00	 2.960315e-01	 1.042917e+01
0	 4.471779e+00	 3.701352e-01	 1.043374e+01
0	 4.533333e+00	 0.000000e+00	 1.040881e+01
0	 4.534353e+00	 7.511930e-02	 1.040917e+01
0	 4.535319e+00	 1.502771e-01	 1.041051e+01
0	 4.536231e+00	 2.254712e-01	 1.041286e+01
0	 4.537091e+00	 3.006994e-01	 1.041626e+01
0	 4.537896e+00	 3.759595e-01	 1.042074e+01
0	 4.600000e+00	 0.000000e+00	 1.039642e+01
0	 4.600890e+00	 7.629303e-02	 1.039679e+01
0	 4.601734e+00	 1.526196e-01	 1.039813e+01
0	 4.602532e+00	 2.289779e-01	 1.040045e+01
0	 4.603283e+00	 3.053658e-01	 1.040379e+01
0	 4.603988e+00	 3.817816e-01	 1.040819e+01
0	 4.666667e+00	 0.000000e+00	 1.038445e+01
0	 4.667422e+00	 7.746666e-02	 1.038484e+01
0	 4.668139e+00	 1.549617e-01	 1.038617e+01
0	 4.668817e+00	 2.324837e-01	 1.038846e+01
0	 4.669455e+00	 3.100308e-01	 1.039175e+01
0	 4.670054e+00	 3.876014e-01	 1.039608e+01
0	 4.339467e+00	 3.584797e-01	 1.046113e+01
0	 4.340474e+00	 4.303083e-01	 1.046676e+01
0	 4.341406e+00	 5.021742e-01	 1.047304e+01
0	 4.342265e+00	 5.740743e-01	 1.048007e+01
0	 4.343050e+00	 6.460056e-01	 1.048792e+01
0	 4.343761e+00	 7.179651e-01	 1.049669e+01
0	 4.405636e+00	 3.643086e-01	 1.044719e+01
0	 4.406562e+00	 4.372919e-01	 1.045271e+01
0	 4.407421e+00	 5.103093e-01	 1.045887e+01
0	 4.408213e+00	 5.833580e-01	 1.046576e+01
0	 4.408937e+00	 6.564354e-01	 1.047345e+01
0	 4.409594e+00	 7.295386e-01	 1.048203e+01
0	 4.471779e+00	 3.701352e-01	 1.043374e+01
0	 4.472620e+00	 4.442722e-01	 1.043915e+01
0	 4.473401e+00	 5.184401e-01	 1.044519e+01
0	 4.474121e+00	 5.926363e-01	 1.045193e+01
0	 4.474781e+00	 6.668585e-01	 1.045947e+01
0	 4.475380e+00	 7.411040e-01	 1.046787e+01
0	 4.537896e+00	 3.759595e-01	 1.042074e+01
0	 4.538648e+00	 4.512493e-01	 1.042605e+01
0	 4.539347e+00	 5.265666e-01	 1.043198e+01
0	 4.539991e+00	 6.019091e-01	 1.043858e+01
0	 4.540582e+00	 6.772747e-01	 1.044596e+01
0	 4.541120e+00	 7.526612e-01	 1.045419e+01
0	 4.603988e+00	 3.817816e-01	 1.040819e+01
0	 4.604646e+00	 4.582233e-01	 1.041341e+01
0	 4.605258e+00	 5.346889e-01	 1.041921e+01
0	 4.605823e+00	 6.111765e-01	 1.042569e+01
0	 4.606341e+00	 6.876843e-01	 1.043291e+01
0	 4.606813e+00	 7.642102e-01	 1.044097e+01
0	 4.670054e+00	 3.876014e-01	 1.039608e+01
0	 4.670614e+00	 4.651940e-01	 1.040119e+01
0	 4.671134e+00	 5.428069e-01	 1.040688e+01
0	 4.671615e+00	 6.204385e-01	 1.041323e+01
0	 4.672057e+00	 6.980870e-01	 1.042031e+01
0	 4.672460e+00	 7.757510e-01	 1.042819e+01
0	 4.343761e+00	 7.179651e-01	 1.049669e+01
0	 4.344398e+00	 7.899497e-01	 1.050593e+01
0	 4.344960e+00	 8.619565e-01	 1.051523e+01
0	 4.345449e+00	 9.339823e-01	 1.052470e+01
0	 4.345863e+00	 1.006024e+00	 1.053446e+01
0	 4.346202e+00	 1.078079e+00	 1.054463e+01
0	 4.409594e+00	 7.295386e-01	 1.048203e+01
0	 4.410183e+00	 8.026649e-01	 1.049107e+01
0	 4.410705e+00	 8.758115e-01	 1.050017e+01
0	 4.411159e+00	 9.489755e-01	 1.050943e+01
0	 4.411545e+00	 1.022154e+00	 1.051897e+01
0	 4.411863e+00	 1.095345e+00	 1.052890e+01
0	 4.475380e+00	 7.411040e-01	 1.046787e+01
0	 4.475918e+00	 8.153704e-01	 1.047672e+01
0	 4.476395e+00	 8.896552e-01	 1.048561e+01
0	 4.476812e+00	 9.639558e-01	 1.049467e+01
0	 4.477167e+00	 1.038270e+00	 1.050400e+01
0	 4.477461e+00	 1.112595e+00	 1.051371e+01
0	 4.541120e+00	 7.526612e-01	 1.045419e+01
0	 4.541603e+00	 8.280662e-01	 1.046285e+01
0	 4.542032e+00	 9.034876e-01	 1.047155e+01
0	 4.542408e+00	 9.789231e-01	 1.048041e+01
0	 4.542729e+00	 1.054371e+00	 1.048952e+01
0	 4.542997e+00	 1.129828e+00	 1.049902e+01
0	 4.606813e+00	 7.642102e-01	 1.044097e+01
0	 4.607238e+00	 8.407523e-01	 1.044944e+01
0	 4.607616e+00	 9.173087e-01	 1.045796e+01
0	 4.607947e+00	 9.938775e-01	 1.046662e+01
0	 4.608232e+00	 1.070457e+00	 1.047554e+01
0	 4.608470e+00	 1.147044e+00	 1.048482e+01
0	 4.672460e+00	 7.757510e-01	 1.042819e+01
0	 4.672823e+00	 8.534288e-01	 1.043649e+01
0	 4.673146e+00	 9.311186e-01	 1.044482e+01
0	 4.673431e+00	 1.008819e+00	 1.045330e+01
0	 4.673675e+00	 1.086528e+00	 1.046202e+01
0	 4.673880e+00	 1.164245e+00	 1.047109e+01
0	 4.346202e+00	 1.078079e+00	 1.054463e+01
0	 4.346467e+00	 1.150144e+00	 1.055474e+01
0	 4.346657e+00	 1.222216e+00	 1.056435e+01
0	 4.346773e+00	 1.294291e+00	 1.057359e+01
0	 4.346814e+00	 1.366367e+00	 1.058256e+01
0	 4.346780e+00	 1.438441e+00	 1.059141e+01
0	 4.411863e+00	 1.095345e+00	 1.052890e+01
0	 4.412113e+00	 1.168545e+00	 1.053879e+01
0	 4.412296e+00	 1.241751e+00	 1.054817e+01
0	 4.412410e+00	 1.314961e+00	 1.055718e+01
0	 4.412457e+00	 1.388172e+00	 1.056594e+01
0	 4.412436e+00	 1.461380e+00	 1.057457e+01
0	 4.477461e+00	 1.112595e+00	 1.051371e+01
0	 4.477694e+00	 1.186928e+00	 1.052336e+01
0	 4.477867e+00	 1.261267e+00	 1.053253e+01
0	 4.477978e+00	 1.335609e+00	 1.054133e+01
0	 4.478028e+00	 1.409952e+00	 1.054987e+01
0	 4.478016e+00	 1.484293e+00	 1.055829e+01
0	 4.542997e+00	 1.129828e+00	 1.049902e+01
0	 4.543210e+00	 1.205292e+00	 1.050845e+01
0	 4.543370e+00	 1.280762e+00	 1.051741e+01
0	 4.543475e+00	 1.356235e+00	 1.052600e+01
0	 4.543526e+00	 1.431708e+00	 1.053434e+01
0	 4.543523e+00	 1.507180e+00	 1.054255e+01
0	 4.608470e+00	 1.147044e+00	 1.048482e+01
0	 4.608661e+00	 1.223638e+00	 1.049404e+01
0	 4.608805e+00	 1.300237e+00	 1.050278e+01
0	 4.608902e+00	 1.376838e+00	 1.051117e+01
0	 4.608952e+00	 1.453441e+00	 1.051931e+01
0	 4.608955e+00	 1.530041e+00	 1.052733e+01
0	 4.673880e+00	 1.164245e+00	 1.047109e+01
0	 4.674046e+00	 1.241966e+00	 1.048010e+01
0	 4.674172e+00	 1.319692e+00	 1.048865e+01
0	 4.674259e+00	 1.397420e+00	 1.049684e+01
0	 4.674306e+00	 1.475149e+00	 1.050479e+01
0	 4.674314e+00	 1.552877e+00	 1.051260e+01
0	 4.346780e+00	 1.438441e+00	 1.059141e+01
0	 4.346672e+00	 1.510510e+00	 1.059974e+01
0	 4.346489e+00	 1.582570e+00	 1.060720e+01
0	 4.346231e+00	 1.654618e+00	 1.061388e+01
0	 4.345898e+00	 1.726652e+00	 1.061990e+01
0	 4.345491e+00	 1.798669e+00	 1.062536e+01
0	 4.412436e+00	 1.461380e+00	 1.057457e+01
0	 4.412346e+00	 1.534584e+00	 1.058270e+01
0	 4.412188e+00	 1.607780e+00	 1.058996e+01
0	 4.411963e+00	 1.680965e+00	 1.059647e+01
0	 4.411669e+00	 1.754138e+00	 1.060232e+01
0	 4.411307e+00	 1.827294e+00	 1.060764e+01
0	 4.478016e+00	 1.484293e+00	 1.055829e+01
0	 4.477944e+00	 1.558630e+00	 1.056622e+01
0	 4.477810e+00	 1.632960e+00	 1.057330e+01
0	 4.477615e+00	 1.707281e+00	 1.057963e+01
0	 4.477359e+00	 1.781589e+00	 1.058533e+01
0	 4.477042e+00	 1.855884e+00	 1.059050e+01
0	 4.543523e+00	 1.507180e+00	 1.054255e+01
0	 4.543466e+00	 1.582648e+00	 1.055028e+01
0	 4.543354e+00	 1.658110e+00	 1.055718e+01
0	 4.543189e+00	 1.733564e+00	 1.056335e+01
0	 4.542969e+00	 1.809008e+00	 1.056889e+01
0	 4.542695e+00	 1.884438e+00	 1.057392e+01
0	 4.608955e+00	 1.530041e+00	 1.052733e+01
0	 4.608911e+00	 1.606639e+00	 1.053487e+01
0	 4.608821e+00	 1.683231e+00	 1.054159e+01
0	 4.608683e+00	 1.759816e+00	 1.054760e+01
0	 4.608498e+00	 1.836392e+00	 1.055300e+01
0	 4.608267e+00	 1.912957e+00	 1.055788e+01
0	 4.674314e+00	 1.552877e+00	 1.051260e+01
0	 4.674282e+00	 1.630601e+00	 1.051996e+01
0	 4.674210e+00	 1.708322e+00	 1.052652e+01
0	 4.674099e+00	 1.786037e+00	 1.053237e+01
0	 4.673948e+00	 1.863744e+00	 1.053762e+01
0	 4.673758e+00	 1.941441e+00	 1.054237e+01
0	 4.345491e+00	 1.798669e+00	 1.062536e+01
0	 4.345008e+00	 1.870664e+00	 1.063005e+01
0	 4.344451e+00	 1.942636e+00	 1.063371e+01
0	 4.343819e+00	 2.014581e+00	 1.063643e+01
0	 4.343113e+00	 2.086496e+00	 1.063830e+01
0	 4.342331e+00	 2.158378e+00	 1.063940e+01
0	 4.411307e+00	 1.827294e+00	 1.060764e+01
0	 4.410877e+00	 1.900431e+00	 1.061219e+01
0	 4.410379e+00	 1.973547e+00	 1.061573e+01
0	 4.409812e+00	 2.046638e+00	 1.061836e+01
0	 4.409178e+00	 2.119702e+00	 1.062016e+01
0	 4.408476e+00	 2.192736e+00	 1.062120e+01
0	 4.477042e+00	 1.855884e+00	 1.059050e+01
0	 4.476663e+00	 1.930161e+00	 1.059491e+01
0	 4.476223e+00	 2.004419e+00	 1.059835e+01
0	 4.475722e+00	 2.078655e+00	 1.060089e+01
0	 4.475159e+00	 2.152866e+00	 1.060262e+01
0	 4.474536e+00	 2.227051e+00	 1.060360e+01
0	 4.542695e+00	 1.884438e+00	 1.057392e+01
0	 4.542367e+00	 1.959854e+00	 1.057821e+01
0	 4.541984e+00	 2.035252e+00	 1.058154e+01
0	 4.541548e+00	 2.110631e+00	 1.058399e+01
0	 4.541057e+00	 2.185988e+00	 1.058565e+01
0	 4.540512e+00	 2.261322e+00	 1.058658e+01
0	 4.608267e+00	 1.912957e+00	 1.055788e+01
0	 4.607988e+00	 1.989509e+00	 1.056205e+01
0	 4.607662e+00	 2.066047e+00	 1.056527e+01
0	 4.607290e+00	 2.142567e+00	 1.056764e+01
0	 4.606870e+00	 2.219068e+00	 1.056923e+01
0	 4.606404e+00	 2.295549e+00	 1.057011e+01
0	 4.673758e+00	 1.941441e+00	 1.054237e+01
0	 4.673528e+00	 2.019128e+00	 1.054641e+01
0	 4.673258e+00	 2.096802e+00	 1.054954e+01
0	 4.672949e+00	 2.174462e+00	 1.055182e+01
0	 4.672600e+00	 2.252106e+00	 1.055334e+01
0	 4.672212e+00	 2.329732e+00	 1.055417e+01
0	 4.342331e+00	 2.158378e+00	 1.063940e+01
0	 4.341475e+00	 2.230224e+00	 1.063964e+01
0	 4.340544e+00	 2.302031e+00	 1.063893e+01
0	 4.339539e+00	 2.373795e+00	 1.063732e+01
0	 4.338459e+00	 2.445515e+00	 1.063486e+01
0	 4.337304e+00	 2.517186e+00	 1.063161e+01
0	 4.408476e+00	 2.192736e+00	 1.062120e+01
0	 4.407705e+00	 2.265737e+00	 1.062141e+01
0	 4.406867e+00	 2.338703e+00	 1.062069e+01
0	 4.405960e+00	 2.411630e+00	 1.061908e+01
0	 4.404986e+00	 2.484515e+00	 1.061665e+01
0	 4.403944e+00	 2.557357e+00	 1.061345e+01
0	 4.474536e+00	 2.227051e+00	 1.060360e+01
0	 4.473851e+00	 2.301205e+00	 1.060378e+01
0	 4.473105e+00	 2.375328e+00	 1.060304e+01
0	 4.472298e+00	 2.449416e+00	 1.060144e+01
0	 4.471430e+00	 2.523467e+00	 1.059904e+01
0	 4.470501e+00	 2.597478e+00	 1.059588e+01
0	 4.540512e+00	 2.261322e+00	 1.058658e+01
0	 4.539913e+00	 2.336629e+00	 1.058672e+01
0	 4.539259e+00	 2.411907e+00	 1.058597e+01
0	 4.538552e+00	 2.487155e+00	 1.058438e+01
0	 4.537790e+00	 2.562370e+00	 1.058200e+01
0	 4.536975e+00	 2.637550e+00	 1.057889e+01
0	 4.606404e+00	 2.295549e+00	 1.057011e+01
0	 4.605890e+00	 2.372007e+00	 1.057021e+01
0	 4.605330e+00	 2.448440e+00	 1.056944e+01
0	 4.604722e+00	 2.524846e+00	 1.056786e+01
0	 4.604068e+00	 2.601224e+00	 1.056551e+01
0	 4.603367e+00	 2.677572e+00	 1.056244e+01
0	 4.672212e+00	 2.329732e+00	 1.055417e+01
0	 4.671784e+00	 2.407340e+00	 1.055424e+01
0	 4.671317e+00	 2.484926e+00	 1.055346e+01
0	 4.670810e+00	 2.562490e+00	 1.055188e+01
0	 4.670263e+00	 2.640030e+00	 1.054955e+01
0	 4.669677e+00	 2.717544e+00	 1.054651e+01
0	 4.337304e+00	 2.517186e+00	 1.063161e+01
0	 4.336075e+00	 2.588806e+00	 1.062759e+01
0	 4.334772e+00	 2.660372e+00	 1.062282e+01
0	 4.333394e+00	 2.731880e+00	 1.061731e+01
0	 4.331942e+00	 2.803328e+00	 1.061110e+01
0	 4.330416e+00	 2.874712e+00	 1.060422e+01
0	 4.403944e+00	 2.557357e+00	 1.061345e+01
0	 4.402834e+00	 2.630152e+00	 1.060950e+01
0	 4.401656e+00	 2.702897e+00	 1.060481e+01
0	 4.400410e+00	 2.775590e+00	 1.059942e+01
0	 4.399097e+00	 2.848228e+00	 1.059334e+01
0	 4.397716e+00	 2.920808e+00	 1.058660e+01
0	 4.470501e+00	 2.597478e+00	 1.059588e+01
0	 4.469510e+00	 2.671447e+00	 1.059200e+01
0	 4.468459e+00	 2.745372e+00	 1.058740e+01
0	 4.467347e+00	 2.819249e+00	 1.058210e+01
0	 4.466174e+00	 2.893077e+00	 1.057614e+01
0	 4.464940e+00	 2.966852e+00	 1.056954e+01
0	 4.536975e+00	 2.637550e+00	 1.057889e+01
0	 4.536105e+00	 2.712692e+00	 1.057506e+01
0	 4.535182e+00	 2.787795e+00	 1.057054e+01
0	 4.534204e+00	 2.862856e+00	 1.056534e+01
0	 4.533173e+00	 2.937873e+00	 1.055949e+01
0	 4.532087e+00	 3.012844e+00	 1.055302e+01
0	 4.603367e+00	 2.677572e+00	 1.056244e+01
0	 4.602619e+00	 2.753887e+00	 1.055867e+01
0	 4.601824e+00	 2.830167e+00	 1.055422e+01
0	 4.600983e+00	 2.906412e+00	 1.054912e+01
0	 4.600094e+00	 2.982618e+00	 1.054338e+01
0	 4.599159e+00	 3.058783e+00	 1.053703e+01
0	 4.669677e+00	 2.717544e+00	 1.054651e+01
0	 4.669051e+00	 2.795031e+00	 1.054280e+01
0	 4.668386e+00	 2.872489e+00	 1.053842e+01
0	 4.667682e+00	 2.949916e+00	 1.053340e+01
0	 4.666938e+00	 3.027310e+00	 1.052777e+01
0	 4.666155e+00	 3.104671e+00	 1.052154e+01
0	 4.330416e+00	 2.874712e+00	 1.060422e+01
0	 4.328816e+00	 2.946030e+00	 1.059676e+01
0	 4.327142e+00	 3.017279e+00	 1.058878e+01
0	 4.325394e+00	 3.088455e+00	 1.058029e+01
0	 4.323573e+00	 3.159556e+00	 1.057131e+01
0	 4.321678e+00	 3.230579e+00	 1.056184e+01
0	 4.397716e+00	 2.920808e+00	 1.058660e+01
0	 4.396268e+00	 2.993328e+00	 1.057929e+01
0	 4.394752e+00	 3.065784e+00	 1.057149e+01
0	 4.393169e+00	 3.138174e+00	 1.056319e+01
0	 4.391519e+00	 3.210495e+00	 1.055441e+01
0	 4.389802e+00	 3.282744e+00	 1.054516e+01
0	 4.464940e+00	 2.966852e+00	 1.056954e+01
0	 4.463645e+00	 3.040573e+00	 1.056239e+01
0	 4.462290e+00	 3.114236e+00	 1.055475e+01
0	 4.460874e+00	 3.187840e+00	 1.054663e+01
0	 4.459397e+00	 3.261382e+00	 1.053804e+01
0	 4.457860e+00	 3.334860e+00	 1.052900e+01
0	 4.532087e+00	 3.012844e+00	 1.055302e+01
0	 4.530948e+00	 3.087766e+00	 1.054601e+01
0	 4.529755e+00	 3.162637e+00	 1.053853e+01
0	 4.528509e+00	 3.237456e+00	 1.053059e+01
0	 4.527208e+00	 3.312219e+00	 1.052219e+01
0	 4.525854e+00	 3.386926e+00	 1.051334e+01
0	 4.599159e+00	 3.058783e+00	 1.053703e+01
0	 4.598177e+00	 3.134907e+00	 1.053016e+01
0	 4.597149e+00	 3.210987e+00	 1.052283e+01
0	 4.596073e+00	 3.287020e+00	 1.051505e+01
0	 4.594952e+00	 3.363006e+00	 1.050683e+01
0	 4.593783e+00	 3.438942e+00	 1.049817e+01
0	 4.666155e+00	 3.104671e+00	 1.052154e+01
0	 4.665332e+00	 3.181996e+00	 1.051480e+01
0	 4.664470e+00	 3.259284e+00	 1.050761e+01
0	 4.663568e+00	 3.336533e+00	 1.049999e+01
0	 4.662628e+00	 3.413742e+00	 1.049194e+01
0	 4.661647e+00	 3.490909e+00	 1.048346e+01
0	 4.321678e+00	 3.230579e+00	 1.056184e+01
0	 4.319709e+00	 3.301520e+00	 1.055200e+01
0	 4.317667e+00	 3.372377e+00	 1.054187e+01
0	 4.315552e+00	 3.443146e+00	 1.053147e+01
0	 4.313363e+00	 3.513826e+00	 1.052077e+01
0	 4.311102e+00	 3.584412e+00	 1.050979e+01
0	 4.389802e+00	 3.282744e+00	 1.054516e+01
0	 4.388017e+00	 3.354919e+00	 1.053554e+01
0	 4.386166e+00	 3.427017e+00	 1.052566e+01
0	 4.384248e+00	 3.499036e+00	 1.051551e+01
0	 4.382263e+00	 3.570972e+00	 1.050507e+01
0	 4.380211e+00	 3.642823e+00	 1.049436e+01
0	 4.457860e+00	 3.334860e+00	 1.052900e+01
0	 4.456263e+00	 3.408270e+00	 1.051960e+01
0	 4.454605e+00	 3.481611e+00	 1.050995e+01
0	 4.452887e+00	 3.554880e+00	 1.050004e+01
0	 4.451109e+00	 3.628074e+00	 1.048986e+01
0	 4.449271e+00	 3.701192e+00	 1.047940e+01
0	 4.525854e+00	 3.386926e+00	 1.051334e+01
0	 4.524447e+00	 3.461572e+00	 1.050415e+01
0	 4.522986e+00	 3.536157e+00	 1.049472e+01
0	 4.521471e+00	 3.610678e+00	 1.048504e+01
0	 4.519904e+00	 3.685133e+00	 1.047510e+01
0	 4.518283e+00	 3.759520e+00	 1.046489e+01
0	 4.593783e+00	 3.438942e+00	 1.049817e+01
0	 4.592568e+00	 3.514826e+00	 1.048918e+01
0	 4.591307e+00	 3.590657e+00	 1.047995e+01
0	 4.590000e+00	 3.666432e+00	 1.047049e+01
0	 4.588646e+00	 3.742149e+00	 1.046077e+01
0	 4.587245e+00	 3.817807e+00	 1.045080e+01
0	 4.661647e+00	 3.490909e+00	 1.048346e+01
0	 4.660628e+00	 3.568031e+00	 1.047466e+01
0	 4.659570e+00	 3.645109e+00	 1.046563e+01
0	 4.658472e+00	 3.722139e+00	 1.045637e+01
0	 4.657335e+00	 3.799121e+00	 1.044687e+01
0	 4.656159e+00	 3.876053e+00	 1.043712e+01
0	 4.311102e+00	 3.584412e+00	 1.050979e+01
0	 4.308768e+00	 3.654902e+00	 1.049862e+01
0	 4.306362e+00	 3.725294e+00	 1.048739e+01
0	 4.303883e+00	 3.795583e+00	 1.047607e+01
0	 4.301332e+00	 3.865768e+00	 1.046466e+01
0	 4.298708e+00	 3.935845e+00	 1.045313e+01
0	 4.380211e+00	 3.642823e+00	 1.049436e+01
0	 4.378093e+00	 3.714586e+00	 1.048346e+01
0	 4.375909e+00	 3.786258e+00	 1.047250e+01
0	 4.373659e+00	 3.857838e+00	 1.046146e+01
0	 4.371342e+00	 3.929322e+00	 1.045034e+01
0	 4.368960e+00	 4.000707e+00	 1.043910e+01
0	 4.449271e+00	 3.701192e+00	 1.047940e+01
0	 4.447373e+00	 3.774231e+00	 1.046877e+01
0	 4.445416e+00	 3.847187e+00	 1.045807e+01
0	 4.443398e+00	 3.920060e+00	 1.044730e+01
0	 4.441321e+00	 3.992846e+00	 1.043644e+01
0	 4.439185e+00	 4.065544e+00	 1.042548e+01
0	 4.518283e+00	 3.759520e+00	 1.046489e+01
0	 4.516609e+00	 3.833837e+00	 1.045451e+01
0	 4.514881e+00	 3.908081e+00	 1.044407e+01
0	 4.513101e+00	 3.982250e+00	 1.043355e+01
0	 4.511268e+00	 4.056342e+00	 1.042294e+01
0	 4.509382e+00	 4.130355e+00	 1.041224e+01
0	 4.587245e+00	 3.817807e+00	 1.045080e+01
0	 4.585799e+00	 3.893404e+00	 1.044067e+01
0	 4.584306e+00	 3.968938e+00	 1.043047e+01
0	 4.582767e+00	 4.044407e+00	 1.042019e+01
0	 4.581182e+00	 4.119809e+00	 1.040983e+01
0	 4.579552e+00	 4.195142e+00	 1.039937e+01
0	 4.656159e+00	 3.876053e+00	 1.043712e+01
0	 4.654944e+00	 3.952933e+00	 1.042721e+01
0	 4.653690e+00	 4.029760e+00	 1.041725e+01
0	 4.652397e+00	 4.106531e+00	 1.040721e+01
0	 4.651065e+00	 4.183246e+00	 1.039708e+01
0	 4.649694e+00	 4.259903e+00	 1.038686e+01
0	 4.298708e+00	 3.935845e+00	 1.045313e+01
0	 4.296013e+00	 4.005812e+00	 1.044157e+01
0	 4.293246e+00	 4.075665e+00	 1.043007e+01
0	 4.290408e+00	 4.145403e+00	 1.041860e+01
0	 4.287499e+00	 4.215021e+00	 1.040715e+01
0	 4.284518e+00	 4.284518e+00	 1.039572e+01
0	 4.368960e+00	 4.000707e+00	 1.043910e+01
0	 4.366512e+00	 4.071991e+00	 1.042785e+01
0	 4.363999e+00	 4.143172e+00	 1.041665e+01
0	 4.361420e+00	 4.214246e+00	 1.040548e+01
0	 4.358775e+00	 4.285212e+00	 1.039433e+01
0	 4.356066e+00	 4.356066e+00	 1.038319e+01
0	 4.439185e+00	 4.065544e+00	 1.042548e+01
0	 4.436989e+00	 4.138150e+00	 1.041450e+01
0	 4.434734e+00	 4.210662e+00	 1.040358e+01
0	 4.432419e+00	 4.283079e+00	 1.039270e+01
0	 4.430046e+00	 4.355397e+00	 1.038183e+01
0	 4.427614e+00	 4.427614e+00	 1.037097e+01
0	 4.509382e+00	 4.130355e+00	 1.041224e+01
0	 4.507443e+00	 4.204288e+00	 1.040152e+01
0	 4.505452e+00	 4.278137e+00	 1.039086e+01
0	 4.503408e+00	 4.351900e+00	 1.038024e+01
0	 4.501311e+00	 4.425576e+00	 1.036965e+01
0	 4.499162e+00	 4.499162e+00	 1.035905e+01
0	 4.579552e+00	 4.195142e+00	 1.039937e+01
0	 4.577875e+00	 4.270404e+00	 1.038890e+01
0	 4.576152e+00	 4.345594e+00	 1.037849e+01
0	 4.574384e+00	 4.420710e+00	 1.036812e+01
0	 4.572570e+00	 4.495749e+00	 1.035777e+01
0	 4.570711e+00	 4.570711e+00	 1.034743e+01
0	 4.649694e+00	 4.259903e+00	 1.038686e+01
0	 4.648285e+00	 4.336500e+00	 1.037662e+01
0	 4.646836e+00	 4.413036e+00	 1.036645e+01
0	 4.645349e+00	 4.489509e+00	 1.035632e+01
0	 4.643823e+00	 4.565917e+00	 1.034621e+01
0	 4.642259e+00	 4.642259e+00	 1.033612e+01
0	 4.666667e+00	 0.000000e+00	 1.038445e+01
0	 4.667422e+00	 7.746666e-02	 1.038484e+01
0	 4.668139e+00	 1.549617e-01	 1.038617e+01
0	 4.668817e+00	 2.324837e-01	 1.038846e+01
0	 4.669455e+00	 3.100308e-01	 1.039175e+01
0	 4.670054e+00	 3.876014e-01	 1.039608e+01
0	 4.733333e+00	 0.000000e+00	 1.037286e+01
0	 4.733949e+00	 7.864019e-02	 1.037326e+01
0	 4.734533e+00	 1.573035e-01	 1.037458e+01
0	 4.735085e+00	 2.359886e-01	 1.037685e+01
0	 4.735606e+00	 3.146942e-01	 1.038009e+01
0	 4.736094e+00	 3.934190e-01	 1.038434e+01
0	 4.800000e+00	 0.000000e+00	 1.036160e+01
0	 4.800470e+00	 7.981362e-02	 1.036202e+01
0	 4.800916e+00	 1.596449e-01	 1.036333e+01
0	 4.801338e+00	 2.394927e-01	 1.036557e+01
0	 4.801736e+00	 3.193562e-01	 1.036876e+01
0	 4.802109e+00	 3.992343e-01	 1.037294e+01
0	 4.866667e+00	 0.000000e+00	 1.035066e+01
0	 4.866986e+00	 8.098696e-02	 1.035109e+01
0	 4.867288e+00	 1.619858e-01	 1.035240e+01
0	 4.867575e+00	 2.429960e-01	 1.035461e+01
0	 4.867845e+00	 3.240167e-01	 1.035776e+01
0	 4.868098e+00	 4.050473e-01	 1.036186e+01
0	 4.933333e+00	 0.000000e+00	 1.034003e+01
0	 4.933496e+00	 8.216019e-02	 1.034048e+01
0	 4.933650e+00	 1.643264e-01	 1.034178e+01
0	 4.933795e+00	 2.464984e-01	 1.034397e+01
0	 4.933933e+00	 3.286758e-01	 1.034706e+01
0	 4.934062e+00	 4.108581e-01	 1.035109e+01
0	 5.000000e+00	 0.000000e+00	 1.032970e+01
0	 5.000000e+00	 8.333333e-02	 1.033016e+01
0	 5.000000e+00	 1.666667e-01	 1.033146e+01
0	 5.000000e+00	 2.500000e-01	 1.033362e+01
0	 5.000000e+00	 3.333333e-01	 1.033667e+01
0	 5.000000e+00	 4.166667e-01	 1.034064e+01
0	 4.670054e+00	 3.876014e-01	 1.039608e+01
0	 4.670614e+00	 4.651940e-01	 1.040119e+01
0	 4.671134e+00	 5.428069e-01	 1.040688e+01
0	 4.671615e+00	 6.204385e-01	 1.041323e+01
0	 4.672057e+00	 6.980870e-01	 1.042031e+01
0	 4.672460e+00	 7.757510e-01	 1.042819e+01
0	 4.736094e+00	 3.934190e-01	 1.038434e+01
0	 4.736551e+00	 4.721616e-01	 1.038936e+01
0	 4.736976e+00	 5.509207e-01	 1.039494e+01
0	 4.737369e+00	 6.296950e-01	 1.040116e+01
0	 4.737731e+00	 7.084831e-01	 1.040810e+01
0	 4.738060e+00	 7.872838e-01	 1.041582e+01
0	 4.802109e+00	 3.992343e-01	 1.037294e+01
0	 4.802459e+00	 4.791259e-01	 1.037786e+01
0	 4.802784e+00	 5.590302e-01	 1.038334e+01
0	 4.803085e+00	 6.389460e-01	 1.038944e+01
0	 4.803362e+00	 7.188724e-01	 1.039623e+01
0	 4.803614e+00	 7.988083e-01	 1.040380e+01
0	 4.868098e+00	 4.050473e-01	 1.036186e+01
0	 4.868336e+00	 4.860871e-01	 1.036669e+01
0	 4.868557e+00	 5.671355e-01	 1.037207e+01
0	 4.868762e+00	 6.481917e-01	 1.037805e+01
0	 4.868950e+00	 7.292550e-01	 1.038471e+01
0	 4.869123e+00	 8.103248e-01	 1.039212e+01
0	 4.934062e+00	 4.108581e-01	 1.035109e+01
0	 4.934183e+00	 4.930452e-01	 1.035584e+01
0	 4.934296e+00	 5.752365e-01	 1.036112e+01
0	 4.934400e+00	 6.574319e-01	 1.036698e+01
0	 4.934496e+00	 7.396308e-01	 1.037351e+01
0	 4.934584e+00	 8.218331e-01	 1.038077e+01
0	 5.000000e+00	 4.166667e-01	 1.034064e+01
0	 5.000000e+00	 5.000000e-01	 1.034530e+01
0	 5.000000e+00	 5.833333e-01	 1.035048e+01
0	 5.000000e+00	 6.666667e-01	 1.035623e+01
0	 5.000000e+00	 7.500000e-01	 1.036263e+01
0	 5.000000e+00	 8.333333e-01	 1.036974e+01
0	 4.672460e+00	 7.757510e-01	 1.042819e+01
0	 4.672823e+00	 8.534288e-01	 1.043649e+01
0	 4.673146e+00	 9.311186e-01	 1.044482e+01
0	 4.673431e+00	 1.008819e+00	 1.045330e+01
0	 4.673675e+00	 1.086528e+00	 1.046202e+01
0	 4.673880e+00	 1.164245e+00	 1.047109e+01
0	 4.738060e+00	 7.872838e-01	 1.041582e+01
0	 4.738358e+00	 8.660956e-01	 1.042394e+01
0	 4.738623e+00	 9.449173e-01	 1.043210e+01
0	 4.738857e+00	 1.023748e+00	 1.044039e+01
0	 4.739059e+00	 1.102585e+00	 1.044892e+01
0	 4.739229e+00	 1.181428e+00	 1.045779e+01
0	 4.803614e+00	 7.988083e-01	 1.040380e+01
0	 4.803843e+00	 8.787528e-01	 1.041175e+01
0	 4.804047e+00	 9.587048e-01	 1.041973e+01
0	 4.804227e+00	 1.038663e+00	 1.042785e+01
0	 4.804383e+00	 1.118627e+00	 1.043619e+01
0	 4.804515e+00	 1.198596e+00	 1.044486e+01
0	 4.869123e+00	 8.103248e-01	 1.039212e+01
0	 4.869278e+00	 8.914004e-01	 1.039991e+01
0	 4.869418e+00	 9.724810e-01	 1.040772e+01
0	 4.869541e+00	 1.053566e+00	 1.041566e+01
0	 4.869648e+00	 1.134655e+00	 1.042382e+01
0	 4.869739e+00	 1.215747e+00	 1.043231e+01
0	 4.934584e+00	 8.218331e-01	 1.038077e+01
0	 4.934664e+00	 9.040383e-01	 1.038840e+01
0	 4.934735e+00	 9.862461e-01	 1.039605e+01
0	 4.934799e+00	 1.068456e+00	 1.040382e+01
0	 4.934854e+00	 1.150668e+00	 1.041181e+01
0	 4.934900e+00	 1.232882e+00	 1.042011e+01
0	 5.000000e+00	 8.333333e-01	 1.036974e+01
0	 5.000000e+00	 9.166667e-01	 1.037722e+01
0	 5.000000e+00	 1.000000e+00	 1.038471e+01
0	 5.000000e+00	 1.083333e+00	 1.039232e+01
0	 5.000000e+00	 1.166667e+00	 1.040013e+01
0	 5.000000e+00	 1.250000e+00	 1.040825e+01
0	 4.673880e+00	 1.164245e+00	 1.047109e+01
0	 4.674046e+00	 1.241966e+00	 1.048010e+01
0	 4.674172e+00	 1.319692e+00	 1.048865e+01
0	 4.674259e+00	 1.397420e+00	 1.049684e+01
0	 4.674306e+00	 1.475149e+00	 1.050479e+01
0	 4.674314e+00	 1.552877e+00	 1.051260e+01
0	 4.739229e+00	 1.181428e+00	 1.045779e+01
0	 4.739367e+00	 1.260276e+00	 1.046659e+01
0	 4.739472e+00	 1.339127e+00	 1.047494e+01
0	 4.739546e+00	 1.417980e+00	 1.048295e+01
0	 4.739588e+00	 1.496833e+00	 1.049071e+01
0	 4.739598e+00	 1.575686e+00	 1.049834e+01
0	 4.804515e+00	 1.198596e+00	 1.044486e+01
0	 4.804622e+00	 1.278568e+00	 1.045347e+01
0	 4.804705e+00	 1.358542e+00	 1.046163e+01
0	 4.804764e+00	 1.438518e+00	 1.046945e+01
0	 4.804799e+00	 1.518494e+00	 1.047703e+01
0	 4.804809e+00	 1.598470e+00	 1.048448e+01
0	 4.869739e+00	 1.215747e+00	 1.043231e+01
0	 4.869813e+00	 1.296841e+00	 1.044073e+01
0	 4.869871e+00	 1.377937e+00	 1.044870e+01
0	 4.869912e+00	 1.459034e+00	 1.045634e+01
0	 4.869937e+00	 1.540131e+00	 1.046374e+01
0	 4.869946e+00	 1.621228e+00	 1.047101e+01
0	 4.934900e+00	 1.232882e+00	 1.042011e+01
0	 4.934939e+00	 1.315096e+00	 1.042834e+01
0	 4.934969e+00	 1.397312e+00	 1.043614e+01
0	 4.934991e+00	 1.479528e+00	 1.044360e+01
0	 4.935004e+00	 1.561744e+00	 1.045083e+01
0	 4.935010e+00	 1.643960e+00	 1.045793e+01
0	 5.000000e+00	 1.250000e+00	 1.040825e+01
0	 5.000000e+00	 1.333333e+00	 1.041631e+01
0	 5.000000e+00	 1.416667e+00	 1.042394e+01
0	 5.000000e+00	 1.500000e+00	 1.043123e+01
0	 5.000000e+00	 1.583333e+00	 1.043829e+01
0	 5.000000e+00	 1.666667e+00	 1.044522e+01
0	 4.674314e+00	 1.552877e+00	 1.051260e+01
0	 4.674282e+00	 1.630601e+00	 1.051996e+01
0	 4.674210e+00	 1.708322e+00	 1.052652e+01
0	 4.674099e+00	 1.786037e+00	 1.053237e+01
0	 4.673948e+00	 1.863744e+00	 1.053762e+01
0	 4.673758e+00	 1.941441e+00	 1.054237e+01
0	 4.739598e+00	 1.575686e+00	 1.049834e+01
0	 4.739576e+00	 1.654536e+00	 1.050551e+01
0	 4.739522e+00	 1.733383e+00	 1.051190e+01
0	 4.739436e+00	 1.812225e+00	 1.051760e+01
0	 4.739318e+00	 1.891061e+00	 1.052271e+01
0	 4.739167e+00	 1.969890e+00	 1.052733e+01
0	 4.804809e+00	 1.598470e+00	 1.048448e+01
0	 4.804795e+00	 1.678444e+00	 1.049148e+01
0	 4.804757e+00	 1.758415e+00	 1.049771e+01
0	 4.804694e+00	 1.838383e+00	 1.050326e+01
0	 4.804607e+00	 1.918346e+00	 1.050824e+01
0	 4.804496e+00	 1.998303e+00	 1.051272e+01
0	 4.869946e+00	 1.621228e+00	 1.047101e+01
0	 4.869939e+00	 1.702323e+00	 1.047784e+01
0	 4.869915e+00	 1.783417e+00	 1.048392e+01
0	 4.869874e+00	 1.864509e+00	 1.048933e+01
0	 4.869818e+00	 1.945597e+00	 1.049417e+01
0	 4.869745e+00	 2.026682e+00	 1.049854e+01
0	 4.935010e+00	 1.643960e+00	 1.045793e+01
0	 4.935007e+00	 1.726175e+00	 1.046460e+01
0	 4.934996e+00	 1.808390e+00	 1.047052e+01
0	 4.934976e+00	 1.890603e+00	 1.047580e+01
0	 4.934949e+00	 1.972815e+00	 1.048051e+01
0	 4.934913e+00	 2.055025e+00	 1.048475e+01
0	 5.000000e+00	 1.666667e+00	 1.044522e+01
0	 5.000000e+00	 1.750000e+00	 1.045173e+01
0	 5.000000e+00	 1.833333e+00	 1.045751e+01
0	 5.000000e+00	 1.916667e+00	 1.046265e+01
0	 5.000000e+00	 2.000000e+00	 1.046723e+01
0	 5.000000e+00	 2.083333e+00	 1.047136e+01
0	 4.673758e+00	 1.941441e+00	 1.054237e+01
0	 4.673528e+00	 2.019128e+00	 1.054641e+01
0	 4.673258e+00	 2.096802e+00	 1.054954e+01
0	 4.672949e+00	 2.174462e+00	 1.055182e+01
0	 4.672600e+00	 2.252106e+00	 1.055334e+01
0	 4.672212e+00	 2.329732e+00	 1.055417e+01
0	 4.739167e+00	 1.969890e+00	 1.052733e+01
0	 4.738985e+00	 2.048709e+00	 1.053126e+01
0	 4.738771e+00	 2.127519e+00	 1.053428e+01
0	 4.738525e+00	 2.206317e+00	 1.053649e+01
0	 4.738246e+00	 2.285102e+00	 1.053794e+01
0	 4.737936e+00	 2.363873e+00	 1.053872e+01
0	 4.804496e+00	 1.998303e+00	 1.051272e+01
0	 4.804361e+00	 2.078254e+00	 1.051654e+01
0	 4.804202e+00	 2.158197e+00	 1.051947e+01
0	 4.804018e+00	 2.238131e+00	 1.052159e+01
0	 4.803809e+00	 2.318056e+00	 1.052298e+01
0	 4.803577e+00	 2.397969e+00	 1.052371e+01
0	 4.869745e+00	 2.026682e+00	 1.049854e+01
0	 4.869655e+00	 2.107762e+00	 1.050224e+01
0	 4.869550e+00	 2.188836e+00	 1.050508e+01
0	 4.869428e+00	 2.269905e+00	 1.050713e+01
0	 4.869289e+00	 2.350968e+00	 1.050846e+01
0	 4.869135e+00	 2.432023e+00	 1.050914e+01
0	 4.934913e+00	 2.055025e+00	 1.048475e+01
0	 4.934868e+00	 2.137232e+00	 1.048835e+01
0	 4.934816e+00	 2.219437e+00	 1.049110e+01
0	 4.934755e+00	 2.301639e+00	 1.049307e+01
0	 4.934686e+00	 2.383838e+00	 1.049434e+01
0	 4.934609e+00	 2.466033e+00	 1.049497e+01
0	 5.000000e+00	 2.083333e+00	 1.047136e+01
0	 5.000000e+00	 2.166667e+00	 1.047485e+01
0	 5.000000e+00	 2.250000e+00	 1.047751e+01
0	 5.000000e+00	 2.333333e+00	 1.047942e+01
0	 5.000000e+00	 2.416667e+00	 1.048063e+01
0	 5.000000e+00	 2.500000e+00	 1.048122e+01
0	 4.672212e+00	 2.329732e+00	 1.055417e+01
0	 4.671784e+00	 2.407340e+00	 1.055424e+01
0	 4.671317e+00	 2.484926e+00	 1.055346e+01
0	 4.670810e+00	 2.562490e+00	 1.055188e+01
0	 4.670263e+00	 2.640030e+00	 1.054955e+01
0	 4.669677e+00	 2.717544e+00	 1.054651e+01
0	 4.737936e+00	 2.363873e+00	 1.053872e+01
0	 4.737594e+00	 2.442628e+00	 1.053875e+01
0	 4.737220e+00	 2.521366e+00	 1.053796e+01
0	 4.736813e+00	 2.600087e+00	 1.053638e+01
0	 4.736375e+00	 2.678787e+00	 1.053407e+01
0	 4.735905e+00	 2.757467e+00	 1.053107e+01
0	 4.803577e+00	 2.397969e+00	 1.052371e+01
0	 4.803320e+00	 2.477871e+00	 1.052371e+01
0	 4.803039e+00	 2.557760e+00	 1.052290e+01
0	 4.802734e+00	 2.637636e+00	 1.052133e+01
0	 4.802405e+00	 2.717496e+00	 1.051903e+01
0	 4.802051e+00	 2.797341e+00	 1.051607e+01
0	 4.869135e+00	 2.432023e+00	 1.050914e+01
0	 4.868963e+00	 2.513070e+00	 1.050910e+01
0	 4.868776e+00	 2.594108e+00	 1.050828e+01
0	 4.868572e+00	 2.675138e+00	 1.050670e+01
0	 4.868352e+00	 2.756157e+00	 1.050443e+01
0	 4.868116e+00	 2.837165e+00	 1.050150e+01
0	 4.934609e+00	 2.466033e+00	 1.049497e+01
0	 4.934523e+00	 2.548224e+00	 1.049491e+01
0	 4.934429e+00	 2.630410e+00	 1.049407e+01
0	 4.934327e+00	 2.712592e+00	 1.049249e+01
0	 4.934217e+00	 2.794769e+00	 1.049024e+01
0	 4.934098e+00	 2.876940e+00	 1.048733e+01
0	 5.000000e+00	 2.500000e+00	 1.048122e+01
0	 5.000000e+00	 2.583333e+00	 1.048112e+01
0	 5.000000e+00	 2.666667e+00	 1.048026e+01
0	 5.000000e+00	 2.750000e+00	 1.047869e+01
0	 5.000000e+00	 2.833333e+00	 1.047644e+01
0	 5.000000e+00	 2.916667e+00	 1.047357e+01
0	 4.669677e+00	 2.717544e+00	 1.054651e+01
0	 4.669051e+00	 2.795031e+00	 1.054280e+01
0	 4.668386e+00	 2.872489e+00	 1.053842e+01
0	 4.667682e+00	 2.949916e+00	 1.053340e+01
0	 4.666938e+00	 3.027310e+00	 1.052777e+01
0	 4.666155e+00	 3.104671e+00	 1.052154e+01
0	 4.735905e+00	 2.757467e+00	 1.053107e+01
0	 4.735403e+00	 2.836125e+00	 1.052741e+01
0	 4.734869e+00	 2.914759e+00	 1.052310e+01
0	 4.734303e+00	 2.993368e+00	 1.051816e+01
0	 4.733705e+00	 3.071951e+00	 1.051262e+01
0	 4.733075e+00	 3.150507e+00	 1.050651e+01
0	 4.802051e+00	 2.797341e+00	 1.051607e+01
0	 4.801673e+00	 2.877169e+00	 1.051246e+01
0	 4.801271e+00	 2.956979e+00	 1.050821e+01
0	 4.800845e+00	 3.036770e+00	 1.050336e+01
0	 4.800394e+00	 3.116541e+00	 1.049791e+01
0	 4.799919e+00	 3.196291e+00	 1.049190e+01
0	 4.868116e+00	 2.837165e+00	 1.050150e+01
0	 4.867863e+00	 2.918162e+00	 1.049793e+01
0	 4.867594e+00	 2.999147e+00	 1.049375e+01
0	 4.867308e+00	 3.080120e+00	 1.048897e+01
0	 4.867006e+00	 3.161079e+00	 1.048361e+01
0	 4.866688e+00	 3.242023e+00	 1.047771e+01
0	 4.934098e+00	 2.876940e+00	 1.048733e+01
0	 4.933972e+00	 2.959106e+00	 1.048381e+01
0	 4.933837e+00	 3.041266e+00	 1.047969e+01
0	 4.933693e+00	 3.123419e+00	 1.047499e+01
0	 4.933542e+00	 3.205565e+00	 1.046972e+01
0	 4.933382e+00	 3.287704e+00	 1.046391e+01
0	 5.000000e+00	 2.916667e+00	 1.047357e+01
0	 5.000000e+00	 3.000000e+00	 1.047009e+01
0	 5.000000e+00	 3.083333e+00	 1.046603e+01
0	 5.000000e+00	 3.166667e+00	 1.046139e+01
0	 5.000000e+00	 3.250000e+00	 1.045621e+01
0	 5.000000e+00	 3.333333e+00	 1.045050e+01
0	 4.666155e+00	 3.104671e+00	 1.052154e+01
0	 4.665332e+00	 3.181996e+00	 1.051480e+01
0	 4.664470e+00	 3.259284e+00	 1.050761e+01
0	 4.663568e+00	 3.336533e+00	 1.049999e+01
0	 4.662628e+00	 3.413742e+00	 1.049194e+01
0	 4.661647e+00	 3.490909e+00	 1.048346e+01
0	 4.733075e+00	 3.150507e+00	 1.050651e+01
0	 4.732413e+00	 3.229034e+00	 1.049989e+01
0	 4.731719e+00	 3.307530e+00	 1.049285e+01
0	 4.730994e+00	 3.385995e+00	 1.048538e+01
0	 4.730236e+00	 3.464428e+00	 1.047749e+01
0	 4.729447e+00	 3.542826e+00	 1.046919e+01
0	 4.799919e+00	 3.196291e+00	 1.049190e+01
0	 4.799420e+00	 3.276019e+00	 1.048541e+01
0	 4.798897e+00	 3.355725e+00	 1.047849e+01
0	 4.798349e+00	 3.435406e+00	 1.047117e+01
0	 4.797778e+00	 3.515063e+00	 1.046344e+01
0	 4.797182e+00	 3.594693e+00	 1.045530e+01
0	 4.866688e+00	 3.242023e+00	 1.047771e+01
0	 4.866354e+00	 3.322953e+00	 1.047133e+01
0	 4.866003e+00	 3.403868e+00	 1.046454e+01
0	 4.865636e+00	 3.484766e+00	 1.045735e+01
0	 4.865252e+00	 3.565648e+00	 1.044977e+01
0	 4.864852e+00	 3.646511e+00	 1.044180e+01
0	 4.933382e+00	 3.287704e+00	 1.046391e+01
0	 4.933213e+00	 3.369836e+00	 1.045764e+01
0	 4.933037e+00	 3.451960e+00	 1.045098e+01
0	 4.932852e+00	 3.534075e+00	 1.044392e+01
0	 4.932659e+00	 3.616182e+00	 1.043648e+01
0	 4.932458e+00	 3.698280e+00	 1.042865e+01
0	 5.000000e+00	 3.333333e+00	 1.045050e+01
0	 5.000000e+00	 3.416667e+00	 1.044434e+01
0	 5.000000e+00	 3.500000e+00	 1.043779e+01
0	 5.000000e+00	 3.583333e+00	 1.043085e+01
0	 5.000000e+00	 3.666667e+00	 1.042354e+01
0	 5.000000e+00	 3.750000e+00	 1.041585e+01
0	 4.661647e+00	 3.490909e+00	 1.048346e+01
0	 4.660628e+00	 3.568031e+00	 1.047466e+01
0	 4.659570e+00	 3.645109e+00	 1.046563e+01
0	 4.658472e+00	 3.722139e+00	 1.045637e+01
0	 4.657335e+00	 3.799121e+00	 1.044687e+01
0	 4.656159e+00	 3.876053e+00	 1.043712e+01
0	 4.729447e+00	 3.542826e+00	 1.046919e+01
0	 4.728626e+00	 3.621188e+00	 1.046057e+01
0	 4.727773e+00	 3.699514e+00	 1.045172e+01
0	 4.726889e+00	 3.777802e+00	 1.044265e+01
0	 4.725972e+00	 3.856050e+00	 1.043335e+01
0	 4.725024e+00	 3.934258e+00	 1.042380e+01
0	 4.797182e+00	 3.594693e+00	 1.045530e+01
0	 4.796562e+00	 3.674297e+00	 1.044686e+01
0	 4.795918e+00	 3.753873e+00	 1.043819e+01
0	 4.795250e+00	 3.833419e+00	 1.042931e+01
0	 4.794557e+00	 3.912936e+00	 1.042019e+01
0	 4.793841e+00	 3.992422e+00	 1.041085e+01
0	 4.864852e+00	 3.646511e+00	 1.044180e+01
0	 4.864436e+00	 3.727357e+00	 1.043352e+01
0	 4.864004e+00	 3.808184e+00	 1.042503e+01
0	 4.863555e+00	 3.888991e+00	 1.041632e+01
0	 4.863090e+00	 3.969778e+00	 1.040739e+01
0	 4.862609e+00	 4.050544e+00	 1.039823e+01
0	 4.932458e+00	 3.698280e+00	 1.042865e+01
0	 4.932249e+00	 3.780369e+00	 1.042054e+01
0	 4.932031e+00	 3.862449e+00	 1.041222e+01
0	 4.931805e+00	 3.944518e+00	 1.040368e+01
0	 4.931571e+00	 4.026577e+00	 1.039493e+01
0	 4.931329e+00	 4.108626e+00	 1.038595e+01
0	 5.000000e+00	 3.750000e+00	 1.041585e+01
0	 5.000000e+00	 3.833333e+00	 1.040789e+01
0	 5.000000e+00	 3.916667e+00	 1.039973e+01
0	 5.000000e+00	 4.000000e+00	 1.039137e+01
0	 5.000000e+00	 4.083333e+00	 1.038279e+01
0	 5.000000e+00	 4.166667e+00	 1.037400e+01
0	 4.656159e+00	 3.876053e+00	 1.043712e+01
0	 4.654944e+00	 3.952933e+00	 1.042721e+01
0	 4.653690e+00	 4.029760e+00	 1.041725e+01
0	 4.652397e+00	 4.106531e+00	 1.040721e+01
0	 4.651065e+00	 4.183246e+00	 1.039708e+01
0	 4.649694e+00	 4.259903e+00	 1.038686e+01
0	 4.725024e+00	 3.934258e+00	 1.042380e+01
0	 4.724045e+00	 4.012424e+00	 1.041412e+01
0	 4.723033e+00	 4.090546e+00	 1.040437e+01
0	 4.721990e+00	 4.168623e+00	 1.039456e+01
0	 4.720916e+00	 4.246655e+00	 1.038466e+01
0	 4.719810e+00	 4.324639e+00	 1.037467e+01
0	 4.793841e+00	 3.992422e+00	 1.041085e+01
0	 4.793101e+00	 4.071875e+00	 1.040136e+01
0	 4.792336e+00	 4.151296e+00	 1.039183e+01
0	 4.791547e+00	 4.230683e+00	 1.038223e+01
0	 4.790735e+00	 4.310035e+00	 1.037255e+01
0	 4.789898e+00	 4.389351e+00	 1.036278e+01
0	 4.862609e+00	 4.050544e+00	 1.039823e+01
0	 4.862112e+00	 4.131289e+00	 1.038894e+01
0	 4.861598e+00	 4.212011e+00	 1.037960e+01
0	 4.861068e+00	 4.292710e+00	 1.037020e+01
0	 4.860522e+00	 4.373385e+00	 1.036073e+01
0	 4.859959e+00	 4.454037e+00	 1.035117e+01
0	 4.931329e+00	 4.108626e+00	 1.038595e+01
0	 4.931078e+00	 4.190664e+00	 1.037684e+01
0	 4.930819e+00	 4.272690e+00	 1.036769e+01
0	 4.930552e+00	 4.354705e+00	 1.035849e+01
0	 4.930277e+00	 4.436707e+00	 1.034921e+01
0	 4.929993e+00	 4.518697e+00	 1.033985e+01
0	 5.000000e+00	 4.166667e+00	 1.037400e+01
0	 5.000000e+00	 4.250000e+00	 1.036507e+01
0	 5.000000e+00	 4.333333e+00	 1.035610e+01
0	 5.000000e+00	 4.416667e+00	 1.034707e+01
0	 5.000000e+00	 4.500000e+00	 1.033798e+01
0	 5.000000e+00	 4.583333e+00	 1.032881e+01
0	 4.649694e+00	 4.259903e+00	 1.038686e+01
0	 4.648285e+00	 4.336500e+00	 1.037662e+01
0	 4.646836e+00	 4.413036e+00	 1.036645e+01
0	 4.645349e+00	 4.489509e+00	 1.035632e+01
0	 4.643823e+00	 4.565917e+00	 1.034621e+01
0	 4.642259e+00	 4.642259e+00	 1.033612e+01
0	 4.719810e+00	 4.324639e+00	 1.037467e+01
0	 4.718672e+00	 4.402575e+00	 1.036466e+01
0	 4.717503e+00	 4.480461e+00	 1.035472e+01
0	 4.716303e+00	 4.558296e+00	 1.034482e+01
0	 4.715071e+00	 4.636078e+00	 1.033495e+01
0	 4.713807e+00	 4.713807e+00	 1.032509e+01
0	 4.789898e+00	 4.389351e+00	 1.036278e+01
0	 4.789038e+00	 4.468629e+00	 1.035299e+01
0	 4.788153e+00	 4.547870e+00	 1.034327e+01
0	 4.787244e+00	 4.627072e+00	 1.033359e+01
0	 4.786312e+00	 4.706234e+00	 1.032395e+01
0	 4.785355e+00	 4.785355e+00	 1.031432e+01
0	 4.859959e+00	 4.454037e+00	 1.035117e+01
0	 4.859381e+00	 4.534663e+00	 1.034160e+01
0	 4.858786e+00	 4.615263e+00	 1.033209e+01
0	 4.858174e+00	 4.695837e+00	 1.032262e+01
0	 4.857547e+00	 4.776384e+00	 1.031319e+01
0	 4.856904e+00	 4.856904e+00	 1.030378e+01
0	 4.929993e+00	 4.518697e+00	 1.033985e+01
0	 4.929701e+00	 4.600675e+00	 1.033048e+01
0	 4.929401e+00	 4.682640e+00	 1.032117e+01
0	 4.929093e+00	 4.764591e+00	 1.031190e+01
0	 4.928777e+00	 4.846528e+00	 1.030267e+01
0	 4.928452e+00	 4.928452e+00	 1.029346e+01
0	 5.000000e+00	 4.583333e+00	 1.032881e+01
0	 5.000000e+00	 4.666667e+00	 1.031962e+01
0	 5.000000e+00	 4.750000e+00	 1.031049e+01
0	 5.000000e+00	 4.833333e+00	 1.030141e+01
0	 5.000000e+00	 4.916667e+00	 1.029236e+01
0	 5.000000e+00	 5.000000e+00	 1.028333e+01
1	 5.000000e+00	 0.000000e+00	 1.032966e+01
1	 5.000000e+00	 8.333333e-02	 1.033013e+01
1	 5.000000e+00	 1.666667e-01	 1.033143e+01
1	 5.000000e+00	 2.500000e-01	 1.033358e+01
1	 5.000000e+00	 3.333333e-01	 1.033663e+01
1	 5.000000e+00	 4.166667e-01	 1.034061e+01
1	 5.083333e+00	 0.000000e+00	 1.031712e+01
1	 5.083333e+00	 8.333333e-02	 1.031756e+01
1	 5.083333e+00	 1.666667e-01	 1.031878e+01
1	 5.083333e+00	 2.500000e-01	 1.032080e+01
1	 5.083333e+00	 3.333333e-01	 1.032367e+01
1	 5.083333e+00	 4.166667e-01	 1.032741e+01
1	 5.166667e+00	 0.000000e+00	 1.030492e+01
1	 5.166667e+00	 8.333333e-02	 1.030534e+01
1	 5.166667e+00	 1.666667e-01	 1.030648e+01
1	 5.166667e+00	 2.500000e-01	 1.030839e+01
1	 5.166667e+00	 3.333333e-01	 1.031108e+01
1	 5.166667e+00	 4.166667e-01	 1.031460e+01
1	 5.250000e+00	 0.000000e+00	 1.029305e+01
1	 5.250000e+00	 8.333333e-02	 1.029344e+01
1	 5.250000e+00	 1.666667e-01	 1.029452e+01
1	 5.250000e+00	 2.500000e-01	 1.029631e+01
1	 5.250000e+00	 3.333333e-01	 1.029886e+01
1	 5.250000e+00	 4.166667e-01	 1.030217e+01
1	 5.333333e+00	 0.000000e+00	 1.028150e+01
1	 5.333333e+00	 8.333333e-02	 1.028186e+01
1	 5.333333e+00	 1.666667e-01	 1.028288e+01
1	 5.333333e+00	 2.500000e-01	 1.028457e+01
1	 5.333333e+00	 3.333333e-01	 1.028697e+01
1	 5.333333e+00	 4.166667e-01	 1.029009e+01
1	 5.416667e+00	 0.000000e+00	 1.027025e+01
1	 5.416667e+00	 8.333333e-02	 1.027059e+01
1	 5.416667e+00	 1.666667e-01	 1.027155e+01
1	 5.416667e+00	 2.500000e-01	 1.027315e+01
1	 5.416667e+00	 3.333333e-01	 1.027541e+01
1	 5.416667e+00	 4.166667e-01	 1.027834e+01
1	 5.000000e+00	 4.166667e-01	 1.034061e+01
1	 5.000000e+00	 5.000000e-01	 1.034529e+01
1	 5.000000e+00	 5.833333e-01	 1.035046e+01
1	 5.000000e+00	 6.666667e-01	 1.035620e+01
1	 5.000000e+00	 7.500000e-01	 1.036260e+01
1	 5.000000e+00	 8.333333e-01	 1.036973e+01
1	 5.083333e+00	 4.166667e-01	 1.032741e+01
1	 5.083333e+00	 5.000000e-01	 1.033180e+01
1	 5.083333e+00	 5.833333e-01	 1.033667e+01
1	 5.083333e+00	 6.666667e-01	 1.034209e+01
1	 5.083333e+00	 7.500000e-01	 1.034812e+01
1	 5.083333e+00	 8.333333e-01	 1.035486e+01
1	 5.166667e+00	 4.166667e-01	 1.031460e+01
1	 5.166667e+00	 5.000000e-01	 1.031874e+01
1	 5.166667e+00	 5.833333e-01	 1.032333e+01
1	 5.166667e+00	 6.666667e-01	 1.032844e+01
1	 5.166667e+00	 7.500000e-01	 1.033415e+01
1	 5.166667e+00	 8.333333e-01	 1.034052e+01
1	 5.250000e+00	 4.166667e-01	 1.030217e+01
1	 5.250000e+00	 5.000000e-01	 1.030607e+01
1	 5.250000e+00	 5.833333e-01	 1.031040e+01
1	 5.250000e+00	 6.666667e-01	 1.031524e+01
1	 5.250000e+00	 7.500000e-01	 1.032064e+01
1	 5.250000e+00	 8.333333e-01	 1.032666e+01
1	 5.333333e+00	 4.166667e-01	 1.029009e+01
1	 5.333333e+00	 5.000000e-01	 1.029377e+01
1	 5.333333e+00	 5.833333e-01	 1.029786e+01
1	 5.333333e+00	 6.666667e-01	 1.030244e+01
1	 5.333333e+00	 7.500000e-01	 1.030755e+01
1	 5.333333e+00	 8.333333e-01	 1.031325e+01
1	 5.416667e+00	 4.166667e-01	 1.027834e+01
1	 5.416667e+00	 5.000000e-01	 1.028181e+01
1	 5.416667e+00	 5.833333e-01	 1.028568e+01
1	 5.416667e+00	 6.666667e-01	 1.029001e+01
1	 5.416667e+00	 7.500000e-01	 1.029484e+01
1	 5.416667e+00	 8.333333e-01	 1.030024e+01
1	 5.000000e+00	 8.333333e-01	 1.036973e+01
1	 5.000000e+00	 9.166667e-01	 1.037723e+01
1	 5.000000e+00	 1.000000e+00	 1.038473e+01
1	 5.000000e+00	 1.083333e+00	 1.039232e+01
1	 5.000000e+00	 1.166667e+00	 1.040013e+01
1	 5.000000e+00	 1.250000e+00	 1.040826e+01
1	 5.083333e+00	 8.333333e-01	 1.035486e+01
1	 5.083333e+00	 9.166667e-01	 1.036195e+01
1	 5.083333e+00	 1.000000e+00	 1.036906e+01
1	 5.083333e+00	 1.083333e+00	 1.037628e+01
1	 5.083333e+00	 1.166667e+00	 1.038372e+01
1	 5.083333e+00	 1.250000e+00	 1.039147e+01
1	 5.166667e+00	 8.333333e-01	 1.034052e+01
1	 5.166667e+00	 9.166667e-01	 1.034723e+01
1	 5.166667e+00	 1.000000e+00	 1.035397e+01
1	 5.166667e+00	 1.083333e+00	 1.036084e+01
1	 5.166667e+00	 1.166667e+00	 1.036794e+01
1	 5.166667e+00	 1.250000e+00	 1.037533e+01
1	 5.250000e+00	 8.333333e-01	 1.032666e+01
1	 5.250000e+00	 9.166667e-01	 1.033302e+01
1	 5.250000e+00	 1.000000e+00	 1.033942e+01
1	 5.250000e+00	 1.083333e+00	 1.034597e+01
1	 5.250000e+00	 1.166667e+00	 1.035273e+01
1	 5.250000e+00	 1.250000e+00	 1.035979e+01
1	 5.333333e+00	 8.333333e-01	 1.031325e+01
1	 5.333333e+00	 9.166667e-01	 1.031927e+01
1	 5.333333e+00	 1.000000e+00	 1.032536e+01
1	 5.333333e+00	 1.083333e+00	 1.033159e+01
1	 5.333333e+00	 1.166667e+00	 1.033804e+01
1	 5.333333e+00	 1.250000e+00	 1.034478e+01
1	 5.416667e+00	 8.333333e-01	 1.030024e+01
1	 5.416667e+00	 9.166667e-01	 1.030595e+01
1	 5.416667e+00	 1.000000e+00	 1.031173e+01
1	 5.416667e+00	 1.083333e+00	 1.031766e+01
1	 5.416667e+00	 1.166667e+00	 1.032381e+01
1	 5.416667e+00	 1.250000e+00	 1.033024e+01
1	 5.000000e+00	 1.250000e+00	 1.040826e+01
1	 5.000000e+00	 1.333333e+00	 1.041633e+01
1	 5.000000e+00	 1.416667e+00	 1.042396e+01
1	 5.000000e+00	 1.500000e+00	 1.043126e+01
1	 5.000000e+00	 1.583333e+00	 1.043832e+01
1	 5.000000e+00	 1.666667e+00	 1.044524e+01
1	 5.083333e+00	 1.250000e+00	 1.039147e+01
1	 5.083333e+00	 1.333333e+00	 1.039919e+01
1	 5.083333e+00	 1.416667e+00	 1.040652e+01
1	 5.083333e+00	 1.500000e+00	 1.041356e+01
1	 5.083333e+00	 1.583333e+00	 1.042039e+01
1	 5.083333e+00	 1.666667e+00	 1.042712e+01
1	 5.166667e+00	 1.250000e+00	 1.037533e+01
1	 5.166667e+00	 1.333333e+00	 1.038272e+01
1	 5.166667e+00	 1.416667e+00	 1.038976e+01
1	 5.166667e+00	 1.500000e+00	 1.039655e+01
1	 5.166667e+00	 1.583333e+00	 1.040316e+01
1	 5.166667e+00	 1.666667e+00	 1.040969e+01
1	 5.250000e+00	 1.250000e+00	 1.035979e+01
1	 5.250000e+00	 1.333333e+00	 1.036686e+01
1	 5.250000e+00	 1.416667e+00	 1.037362e+01
1	 5.250000e+00	 1.500000e+00	 1.038016e+01
1	 5.250000e+00	 1.583333e+00	 1.038656e+01
1	 5.250000e+00	 1.666667e+00	 1.039289e+01
1	 5.333333e+00	 1.250000e+00	 1.034478e+01
1	 5.333333e+00	 1.333333e+00	 1.035154e+01
1	 5.333333e+00	 1.416667e+00	 1.035803e+01
1	 5.333333e+00	 1.500000e+00	 1.036433e+01
1	 5.333333e+00	 1.583333e+00	 1.037051e+01
1	 5.333333e+00	 1.666667e+00	 1.037665e+01
1	 5.416667e+00	 1.250000e+00	 1.033024e+01
1	 5.416667e+00	 1.333333e+00	 1.033670e+01
1	 5.416667e+00	 1.416667e+00	 1.034293e+01
1	 5.416667e+00	 1.500000e+00	 1.034899e+01
1	 5.416667e+00	 1.583333e+00	 1.035496e+01
1	 5.416667e+00	 1.666667e+00	 1.036090e+01
1	 5.000000e+00	 1.666667e+00	 1.044524e+01
1	 5.000000e+00	 1.750000e+00	 1.045174e+01
1	 5.000000e+00	 1.833333e+00	 1.045754e+01
1	 5.000000e+00	 1.916667e+00	 1.046270e+01
1	 5.000000e+00	 2.000000e+00	 1.046729e+01
1	 5.000000e+00	 2.083333e+00	 1.047138e+01
1	 5.083333e+00	 1.666667e+00	 1.042712e+01
1	 5.083333e+00	 1.750000e+00	 1.043347e+01
1	 5.083333e+00	 1.833333e+00	 1.043917e+01
1	 5.083333e+00	 1.916667e+00	 1.044430e+01
1	 5.083333e+00	 2.000000e+00	 1.044890e+01
1	 5.083333e+00	 2.083333e+00	 1.045306e+01
1	 5.166667e+00	 1.666667e+00	 1.040969e+01
1	 5.166667e+00	 1.750000e+00	 1.041589e+01
1	 5.166667e+00	 1.833333e+00	 1.042149e+01
1	 5.166667e+00	 1.916667e+00	 1.042656e+01
1	 5.166667e+00	 2.000000e+00	 1.043116e+01
1	 5.166667e+00	 2.083333e+00	 1.043535e+01
1	 5.250000e+00	 1.666667e+00	 1.039289e+01
1	 5.250000e+00	 1.750000e+00	 1.039892e+01
1	 5.250000e+00	 1.833333e+00	 1.040441e+01
1	 5.250000e+00	 1.916667e+00	 1.040942e+01
1	 5.250000e+00	 2.000000e+00	 1.041399e+01
1	 5.250000e+00	 2.083333e+00	 1.041820e+01
1	 5.333333e+00	 1.666667e+00	 1.037665e+01
1	 5.333333e+00	 1.750000e+00	 1.038252e+01
1	 5.333333e+00	 1.833333e+00	 1.038789e+01
1	 5.333333e+00	 1.916667e+00	 1.039281e+01
1	 5.333333e+00	 2.000000e+00	 1.039735e+01
1	 5.333333e+00	 2.083333e+00	 1.040155e+01
1	 5.416667e+00	 1.666667e+00	 1.036090e+01
1	 5.416667e+00	 1.750000e+00	 1.036660e+01
1	 5.416667e+00	 1.833333e+00	 1.037184e+01
1	 5.416667e+00	 1.916667e+00	 1.037668e+01
1	 5.416667e+00	 2.000000e+00	 1.038116e+01
1	 5.416667e+00	 2.083333e+00	 1.038535e+01
1	 5.000000e+00	 2.083333e+00	 1.047138e+01
1	 5.000000e+00	 2.166667e+00	 1.047484e+01
1	 5.000000e+00	 2.250000e+00	 1.047752e+01
1	 5.000000e+00	 2.333333e+00	 1.047946e+01
1	 5.000000e+00	 2.416667e+00	 1.048068e+01
1	 5.000000e+00	 2.500000e+00	 1.048122e+01
1	 5.083333e+00	 2.083333e+00	 1.045306e+01
1	 5.083333e+00	 2.166667e+00	 1.045663e+01
1	 5.083333e+00	 2.250000e+00	 1.045947e+01
1	 5.083333e+00	 2.333333e+00	 1.046162e+01
1	 5.083333e+00	 2.416667e+00	 1.046311e+01
1	 5.083333e+00	 2.500000e+00	 1.046395e+01
1	 5.166667e+00	 2.083333e+00	 1.043535e+01
1	 5.166667e+00	 2.166667e+00	 1.043900e+01
1	 5.166667e+00	 2.250000e+00	 1.044198e+01
1	 5.166667e+00	 2.333333e+00	 1.044430e+01
1	 5.166667e+00	 2.416667e+00	 1.044600e+01
1	 5.166667e+00	 2.500000e+00	 1.044712e+01
1	 5.250000e+00	 2.083333e+00	 1.041820e+01
1	 5.250000e+00	 2.166667e+00	 1.042191e+01
1	 5.250000e+00	 2.250000e+00	 1.042499e+01
1	 5.250000e+00	 2.333333e+00	 1.042745e+01
1	 5.250000e+00	 2.416667e+00	 1.042934e+01
1	 5.250000e+00	 2.500000e+00	 1.043068e+01
1	 5.333333e+00	 2.083333e+00	 1.040155e+01
1	 5.333333e+00	 2.166667e+00	 1.040530e+01
1	 5.333333e+00	 2.250000e+00	 1.040845e+01
1	 5.333333e+00	 2.333333e+00	 1.041103e+01
1	 5.333333e+00	 2.416667e+00	 1.041308e+01
1	 5.333333e+00	 2.500000e+00	 1.041462e+01
1	 5.416667e+00	 2.083333e+00	 1.038535e+01
1	 5.416667e+00	 2.166667e+00	 1.038912e+01
1	 5.416667e+00	 2.250000e+00	 1.039232e+01
1	 5.416667e+00	 2.333333e+00	 1.039500e+01
1	 5.416667e+00	 2.416667e+00	 1.039718e+01
1	 5.416667e+00	 2.500000e+00	 1.039889e+01
1	 5.000000e+00	 2.500000e+00	 1.048122e+01
1	 5.000000e+00	 2.583333e+00	 1.048109e+01
1	 5.000000e+00	 2.666667e+00	 1.048025e+01
1	 5.000000e+00	 2.750000e+00	 1.047872e+01
1	 5.000000e+00	 2.833333e+00	 1.047649e+01
1	 5.000000e+00	 2.916667e+00	 1.047357e+01
1	 5.083333e+00	 2.500000e+00	 1.046395e+01
1	 5.083333e+00	 2.583333e+00	 1.046416e+01
1	 5.083333e+00	 2.666667e+00	 1.046370e+01
1	 5.083333e+00	 2.750000e+00	 1.046258e+01
1	 5.083333e+00	 2.833333e+00	 1.046080e+01
1	 5.083333e+00	 2.916667e+00	 1.045836e+01
1	 5.166667e+00	 2.500000e+00	 1.044712e+01
1	 5.166667e+00	 2.583333e+00	 1.044763e+01
1	 5.166667e+00	 2.666667e+00	 1.044750e+01
1	 5.166667e+00	 2.750000e+00	 1.044674e+01
1	 5.166667e+00	 2.833333e+00	 1.044536e+01
1	 5.166667e+00	 2.916667e+00	 1.044336e+01
1	 5.250000e+00	 2.500000e+00	 1.043068e+01
1	 5.250000e+00	 2.583333e+00	 1.043146e+01
1	 5.250000e+00	 2.666667e+00	 1.043162e+01
1	 5.250000e+00	 2.750000e+00	 1.043119e+01
1	 5.250000e+00	 2.833333e+00	 1.043016e+01
1	 5.250000e+00	 2.916667e+00	 1.042855e+01
1	 5.333333e+00	 2.500000e+00	 1.041462e+01
1	 5.333333e+00	 2.583333e+00	 1.041562e+01
1	 5.333333e+00	 2.666667e+00	 1.041605e+01
1	 5.333333e+00	 2.750000e+00	 1.041591e+01
1	 5.333333e+00	 2.833333e+00	 1.041520e+01
1	 5.333333e+00	 2.916667e+00	 1.041395e+01
1	 5.416667e+00	 2.500000e+00	 1.039889e+01
1	 5.416667e+00	 2.583333e+00	 1.040010e+01
1	 5.416667e+00	 2.666667e+00	 1.040076e+01
1	 5.416667e+00	 2.750000e+00	 1.040088e+01
1	 5.416667e+00	 2.833333e+00	 1.040047e+01
1	 5.416667e+00	 2.916667e+00	 1.039953e+01
1	 5.000000e+00	 2.916667e+00	 1.047357e+01
1	 5.000000e+00	 3.000000e+00	 1.047005e+01
1	 5.000000e+00	 3.083333e+00	 1.046600e+01
1	 5.000000e+00	 3.166667e+00	 1.046140e+01
1	 5.000000e+00	 3.250000e+00	 1.045623e+01
1	 5.000000e+00	 3.333333e+00	 1.045049e+01
1	 5.083333e+00	 2.916667e+00	 1.045836e+01
1	 5.083333e+00	 3.000000e+00	 1.045534e+01
1	 5.083333e+00	 3.083333e+00	 1.045181e+01
1	 5.083333e+00	 3.166667e+00	 1.044774e+01
1	 5.083333e+00	 3.250000e+00	 1.044312e+01
1	 5.083333e+00	 3.333333e+00	 1.043794e+01
1	 5.166667e+00	 2.916667e+00	 1.044336e+01
1	 5.166667e+00	 3.000000e+00	 1.044079e+01
1	 5.166667e+00	 3.083333e+00	 1.043773e+01
1	 5.166667e+00	 3.166667e+00	 1.043414e+01
1	 5.166667e+00	 3.250000e+00	 1.043002e+01
1	 5.166667e+00	 3.333333e+00	 1.042536e+01
1	 5.250000e+00	 2.916667e+00	 1.042855e+01
1	 5.250000e+00	 3.000000e+00	 1.042641e+01
1	 5.250000e+00	 3.083333e+00	 1.042377e+01
1	 5.250000e+00	 3.166667e+00	 1.042062e+01
1	 5.250000e+00	 3.250000e+00	 1.041697e+01
1	 5.250000e+00	 3.333333e+00	 1.041279e+01
1	 5.333333e+00	 2.916667e+00	 1.041395e+01
1	 5.333333e+00	 3.000000e+00	 1.041218e+01
1	 5.333333e+00	 3.083333e+00	 1.040993e+01
1	 5.333333e+00	 3.166667e+00	 1.040720e+01
1	 5.333333e+00	 3.250000e+00	 1.040397e+01
1	 5.333333e+00	 3.333333e+00	 1.040024e+01
1	 5.416667e+00	 2.916667e+00	 1.039953e+01
1	 5.416667e+00	 3.000000e+00	 1.039811e+01
1	 5.416667e+00	 3.083333e+00	 1.039623e+01
1	 5.416667e+00	 3.166667e+00	 1.039387e+01
1	 5.416667e+00	 3.250000e+00	 1.039104e+01
1	 5.416667e+00	 3.333333e+00	 1.038772e+01
1	 5.000000e+00	 3.333333e+00	 1.045049e+01
1	 5.000000e+00	 3.416667e+00	 1.044429e+01
1	 5.000000e+00	 3.500000e+00	 1.043775e+01
1	 5.000000e+00	 3.583333e+00	 1.043085e+01
1	 5.000000e+00	 3.666667e+00	 1.042355e+01
1	 5.000000e+00	 3.750000e+00	 1.041584e+01
1	 5.083333e+00	 3.333333e+00	 1.043794e+01
1	 5.083333e+00	 3.416667e+00	 1.043230e+01
1	 5.083333e+00	 3.500000e+00	 1.042633e+01
1	 5.083333e+00	 3.583333e+00	 1.041999e+01
1	 5.083333e+00	 3.666667e+00	 1.041326e+01
1	 5.083333e+00	 3.750000e+00	 1.040612e+01
1	 5.166667e+00	 3.333333e+00	 1.042536e+01
1	 5.166667e+00	 3.416667e+00	 1.042026e+01
1	 5.166667e+00	 3.500000e+00	 1.041481e+01
1	 5.166667e+00	 3.583333e+00	 1.040900e+01
1	 5.166667e+00	 3.666667e+00	 1.040280e+01
1	 5.166667e+00	 3.750000e+00	 1.039619e+01
1	 5.250000e+00	 3.333333e+00	 1.041279e+01
1	 5.250000e+00	 3.416667e+00	 1.040818e+01
1	 5.250000e+00	 3.500000e+00	 1.040322e+01
1	 5.250000e+00	 3.583333e+00	 1.039790e+01
1	 5.250000e+00	 3.666667e+00	 1.039220e+01
1	 5.250000e+00	 3.750000e+00	 1.038609e+01
1	 5.333333e+00	 3.333333e+00	 1.040024e+01
1	 5.333333e+00	 3.416667e+00	 1.039608e+01
1	 5.333333e+00	 3.500000e+00	 1.039158e+01
1	 5.333333e+00	 3.583333e+00	 1.038673e+01
1	 5.333333e+00	 3.666667e+00	 1.038149e+01
1	 5.333333e+00	 3.750000e+00	 1.037586e+01
1	 5.416667e+00	 3.333333e+00	 1.038772e+01
1	 5.416667e+00	 3.416667e+00	 1.038400e+01
1	 5.416667e+00	 3.500000e+00	 1.037993e+01
1	 5.416667e+00	 3.583333e+00	 1.037551e+01
1	 5.416667e+00	 3.666667e+00	 1.037071e+01
1	 5.416667e+00	 3.750000e+00	 1.036553e+01
1	 5.000000e+00	 3.750000e+00	 1.041584e+01
1	 5.000000e+00	 3.833333e+00	 1.040785e+01
1	 5.000000e+00	 3.916667e+00	 1.039969e+01
1	 5.000000e+00	 4.000000e+00	 1.039134e+01
1	 5.000000e+00	 4.083333e+00	 1.038278e+01
1	 5.000000e+00	 4.166667e+00	 1.037396e+01
1	 5.083333e+00	 3.750000e+00	 1.040612e+01
1	 5.083333e+00	 3.833333e+00	 1.039868e+01
1	 5.083333e+00	 3.916667e+00	 1.039107e+01
1	 5.083333e+00	 4.000000e+00	 1.038326e+01
1	 5.083333e+00	 4.083333e+00	 1.037521e+01
1	 5.083333e+00	 4.166667e+00	 1.036691e+01
1	 5.166667e+00	 3.750000e+00	 1.039619e+01
1	 5.166667e+00	 3.833333e+00	 1.038928e+01
1	 5.166667e+00	 3.916667e+00	 1.038219e+01
1	 5.166667e+00	 4.000000e+00	 1.037488e+01
1	 5.166667e+00	 4.083333e+00	 1.036733e+01
1	 5.166667e+00	 4.166667e+00	 1.035953e+01
1	 5.250000e+00	 3.750000e+00	 1.038609e+01
1	 5.250000e+00	 3.833333e+00	 1.037968e+01
1	 5.250000e+00	 3.916667e+00	 1.037308e+01
1	 5.250000e+00	 4.000000e+00	 1.036625e+01
1	 5.250000e+00	 4.083333e+00	 1.035918e+01
1	 5.250000e+00	 4.166667e+00	 1.035185e+01
1	 5.333333e+00	 3.750000e+00	 1.037586e+01
1	 5.333333e+00	 3.833333e+00	 1.036993e+01
1	 5.333333e+00	 3.916667e+00	 1.036379e+01
1	 5.333333e+00	 4.000000e+00	 1.035742e+01
1	 5.333333e+00	 4.083333e+00	 1.035081e+01
1	 5.333333e+00	 4.166667e+00	 1.034392e+01
1	 5.416667e+00	 3.750000e+00	 1.036553e+01
1	 5.416667e+00	 3.833333e+00	 1.036005e+01
1	 5.416667e+00	 3.916667e+00	 1.035435e+01
1	 5.416667e+00	 4.000000e+00	 1.034843e+01
1	 5.416667e+00	 4.083333e+00	 1.034225e+01
1	 5.416667e+00	 4.166667e+00	 1.033579e+01
1	 5.000000e+00	 4.166667e+00	 1.037396e+01
1	 5.000000e+00	 4.250000e+00	 1.036502e+01
1	 5.000000e+00	 4.333333e+00	 1.035605e+01
1	 5.000000e+00	 4.416667e+00	 1.034704e+01
1	 5.000000e+00	 4.500000e+00	 1.033796e+01
1	 5.000000e+00	 4.583333e+00	 1.032879e+01
1	 5.083333e+00	 4.166667e+00	 1.036691e+01
1	 5.083333e+00	 4.250000e+00	 1.035847e+01
1	 5.083333e+00	 4.333333e+00	 1.034998e+01
1	 5.083333e+00	 4.416667e+00	 1.034143e+01
1	 5.083333e+00	 4.500000e+00	 1.033279e+01
1	 5.083333e+00	 4.583333e+00	 1.032405e+01
1	 5.166667e+00	 4.166667e+00	 1.035953e+01
1	 5.166667e+00	 4.250000e+00	 1.035156e+01
1	 5.166667e+00	 4.333333e+00	 1.034353e+01
1	 5.166667e+00	 4.416667e+00	 1.033543e+01
1	 5.166667e+00	 4.500000e+00	 1.032722e+01
1	 5.166667e+00	 4.583333e+00	 1.031889e+01
1	 5.250000e+00	 4.166667e+00	 1.035185e+01
1	 5.250000e+00	 4.250000e+00	 1.034434e+01
1	 5.250000e+00	 4.333333e+00	 1.033676e+01
1	 5.250000e+00	 4.416667e+00	 1.032909e+01
1	 5.250000e+00	 4.500000e+00	 1.032130e+01
1	 5.250000e+00	 4.583333e+00	 1.031338e+01
1	 5.333333e+00	 4.166667e+00	 1.034392e+01
1	 5.333333e+00	 4.250000e+00	 1.033686e+01
1	 5.333333e+00	 4.333333e+00	 1.032971e+01
1	 5.333333e+00	 4.416667e+00	 1.032246e+01
1	 5.333333e+00	 4.500000e+00	 1.031507e+01
1	 5.333333e+00	 4.583333e+00	 1.030755e+01
1	 5.416667e+00	 4.166667e+00	 1.033579e+01
1	 5.416667e+00	 4.250000e+00	 1.032916e+01
1	 5.416667e+00	 4.333333e+00	 1.032243e+01
1	 5.416667e+00	 4.416667e+00	 1.031557e+01
1	 5.416667e+00	 4.500000e+00	 1.030859e+01
1	 5.416667e+00	 4.583333e+00	 1.030144e+01
1	 5.000000e+00	 4.583333e+00	 1.032879e+01
1	 5.000000e+00	 4.666667e+00	 1.031960e+01
1	 5.000000e+00	 4.750000e+00	 1.031048e+01
1	 5.000000e+00	 4.833333e+00	 1.030140e+01
1	 5.000000e+00	 4.916667e+00	 1.029235e+01
1	 5.000000e+00	 5.000000e+00	 1.028330e+01
1	 5.083333e+00	 4.583333e+00	 1.032405e+01
1	 5.083333e+00	 4.666667e+00	 1.031527e+01
1	 5.083333e+00	 4.750000e+00	 1.030653e+01
1	 5.083333e+00	 4.833333e+00	 1.029783e+01
1	 5.083333e+00	 4.916667e+00	 1.028913e+01
1	 5.083333e+00	 5.000000e+00	 1.028042e+01
1	 5.166667e+00	 4.583333e+00	 1.031889e+01
1	 5.166667e+00	 4.666667e+00	 1.031052e+01
1	 5.166667e+00	 4.750000e+00	 1.030217e+01
1	 5.166667e+00	 4.833333e+00	 1.029383e+01
1	 5.166667e+00	 4.916667e+00	 1.028548e+01
1	 5.166667e+00	 5.000000e+00	 1.027711e+01
1	 5.250000e+00	 4.583333e+00	 1.031338e+01
1	 5.250000e+00	 4.666667e+00	 1.030539e+01
1	 5.250000e+00	 4.750000e+00	 1.029742e+01
1	 5.250000e+00	 4.833333e+00	 1.028944e+01
1	 5.250000e+00	 4.916667e+00	 1.028144e+01
1	 5.250000e+00	 5.000000e+00	 1.027340e+01
1	 5.333333e+00	 4.583333e+00	 1.030755e+01
1	 5.333333e+00	 4.666667e+00	 1.029994e+01
1	 5.333333e+00	 4.750000e+00	 1.029234e+01
1	 5.333333e+00	 4.833333e+00	 1.028471e+01
1	 5.333333e+00	 4.916667e+00	 1.027705e+01
1	 5.333333e+00	 5.000000e+00	 1.026934e+01
1	 5.416667e+00	 4.583333e+00	 1.030144e+01
1	 5.416667e+00	 4.666667e+00	 1.029422e+01
1	 5.416667e+00	 4.750000e+00	 1.028697e+01
1	 5.416667e+00	 4.833333e+00	 1.027969e+01
1	 5.416667e+00	 4.916667e+00	 1.027237e+01
1	 5.416667e+00	 5.000000e+00	 1.026497e+01
1	 5.416667e+00	 0.000000e+00	 1.027025e+01
1	 5.416667e+00	 8.333333e-02	 1.027059e+01
1	 5.416667e+00	 1.666667e-01	 1.027155e+01
1	 5.416667e+00	 2.500000e-01	 1.027315e+01
1	 5.416667e+00	 3.333333e-01	 1.027541e+01
1	 5.416667e+00	 4.166667e-01	 1.027834e+01
1	 5.500000e+00	 0.000000e+00	 1.025926e+01
1	 5.500000e+00	 8.333333e-02	 1.025958e+01
1	 5.500000e+00	 1.666667e-01	 1.026049e+01
1	 5.500000e+00	 2.500000e-01	 1.026199e+01
1	 5.500000e+00	 3.333333e-01	 1.026412e+01
1	 5.500000e+00	 4.166667e-01	 1.026689e+01
1	 5.583333e+00	 0.000000e+00	 1.024849e+01
1	 5.583333e+00	 8.333333e-02	 1.024879e+01
1	 5.583333e+00	 1.666667e-01	 1.024964e+01
1	 5.583333e+00	 2.500000e-01	 1.025107e+01
1	 5.583333e+00	 3.333333e-01	 1.025308e+01
1	 5.583333e+00	 4.166667e-01	 1.025569e+01
1	 5.666667e+00	 0.000000e+00	 1.023792e+01
1	 5.666667e+00	 8.333333e-02	 1.023821e+01
1	 5.666667e+00	 1.666667e-01	 1.023901e+01
1	 5.666667e+00	 2.500000e-01	 1.024036e+01
1	 5.666667e+00	 3.333333e-01	 1.024226e+01
1	 5.666667e+00	 4.166667e-01	 1.024473e+01
1	 5.750000e+00	 0.000000e+00	 1.022756e+01
1	 5.750000e+00	 8.333333e-02	 1.022782e+01
1	 5.750000e+00	 1.666667e-01	 1.022859e+01
1	 5.750000e+00	 2.500000e-01	 1.022986e+01
1	 5.750000e+00	 3.333333e-01	 1.023166e+01
1	 5.750000e+00	 4.166667e-01	 1.023400e+01
1	 5.833333e+00	 0.000000e+00	 1.021738e+01
1	 5.833333e+00	 8.333333e-02	 1.021764e+01
1	 5.833333e+00	 1.666667e-01	 1.021836e+01
1	 5.833333e+00	 2.500000e-01	 1.021956e+01
1	 5.833333e+00	 3.333333e-01	 1.022126e+01
1	 5.833333e+00	 4.166667e-01	 1.022347e+01
1	 5.416667e+00	 4.166667e-01	 1.027834e+01
1	 5.416667e+00	 5.000000e-01	 1.028181e+01
1	 5.416667e+00	 5.833333e-01	 1.028568e+01
1	 5.416667e+00	 6.666667e-01	 1.029001e+01
1	 5.416667e+00	 7.500000e-01	 1.029484e+01
1	 5.416667e+00	 8.333333e-01	 1.030024e+01
1	 5.500000e+00	 4.166667e-01	 1.026689e+01
1	 5.500000e+00	 5.000000e-01	 1.027016e+01
1	 5.500000e+00	 5.833333e-01	 1.027382e+01
1	 5.500000e+00	 6.666667e-01	 1.027792e+01
1	 5.500000e+00	 7.500000e-01	 1.028249e+01
1	 5.500000e+00	 8.333333e-01	 1.028760e+01
1	 5.583333e+00	 4.166667e-01	 1.025569e+01
1	 5.583333e+00	 5.000000e-01	 1.025878e+01
1	 5.583333e+00	 5.833333e-01	 1.026225e+01
1	 5.583333e+00	 6.666667e-01	 1.026612e+01
1	 5.583333e+00	 7.500000e-01	 1.027046e+01
1	 5.583333e+00	 8.333333e-01	 1.027530e+01
1	 5.666667e+00	 4.166667e-01	 1.024473e+01
1	 5.666667e+00	 5.000000e-01	 1.024766e+01
1	 5.666667e+00	 5.833333e-01	 1.025094e+01
1	 5.666667e+00	 6.666667e-01	 1.025461e+01
1	 5.666667e+00	 7.500000e-01	 1.025873e+01
1	 5.666667e+00	 8.333333e-01	 1.026332e+01
1	 5.750000e+00	 4.166667e-01	 1.023400e+01
1	 5.750000e+00	 5.000000e-01	 1.023676e+01
1	 5.750000e+00	 5.833333e-01	 1.023987e+01
1	 5.750000e+00	 6.666667e-01	 1.024336e+01
1	 5.750000e+00	 7.500000e-01	 1.024726e+01
1	 5.750000e+00	 8.333333e-01	 1.025162e+01
1	 5.833333e+00	 4.166667e-01	 1.022347e+01
1	 5.833333e+00	 5.000000e-01	 1.022609e+01
1	 5.833333e+00	 5.833333e-01	 1.022904e+01
1	 5.833333e+00	 6.666667e-01	 1.023235e+01
1	 5.833333e+00	 7.500000e-01	 1.023605e+01
1	 5.833333e+00	 8.333333e-01	 1.024019e+01
1	 5.416667e+00	 8.333333e-01	 1.030024e+01
1	 5.416667e+00	 9.166667e-01	 1.030595e+01
1	 5.416667e+00	 1.000000e+00	 1.031173e+01
1	 5.416667e+00	 1.083333e+00	 1.031766e+01
1	 5.416667e+00	 1.166667e+00	 1.032381e+01
1	 5.416667e+00	 1.250000e+00	 1.033024e+01
1	 5.500000e+00	 8.333333e-01	 1.028760e+01
1	 5.500000e+00	 9.166667e-01	 1.029301e+01
1	 5.500000e+00	 1.000000e+00	 1.029850e+01
1	 5.500000e+00	 1.083333e+00	 1.030415e+01
1	 5.500000e+00	 1.166667e+00	 1.031001e+01
1	 5.500000e+00	 1.250000e+00	 1.031615e+01
1	 5.583333e+00	 8.333333e-01	 1.027530e+01
1	 5.583333e+00	 9.166667e-01	 1.028043e+01
1	 5.583333e+00	 1.000000e+00	 1.028566e+01
1	 5.583333e+00	 1.083333e+00	 1.029104e+01
1	 5.583333e+00	 1.166667e+00	 1.029663e+01
1	 5.583333e+00	 1.250000e+00	 1.030249e+01
1	 5.666667e+00	 8.333333e-01	 1.026332e+01
1	 5.666667e+00	 9.166667e-01	 1.026819e+01
1	 5.666667e+00	 1.000000e+00	 1.027317e+01
1	 5.666667e+00	 1.083333e+00	 1.027829e+01
1	 5.666667e+00	 1.166667e+00	 1.028363e+01
1	 5.666667e+00	 1.250000e+00	 1.028923e+01
1	 5.750000e+00	 8.333333e-01	 1.025162e+01
1	 5.750000e+00	 9.166667e-01	 1.025626e+01
1	 5.750000e+00	 1.000000e+00	 1.026099e+01
1	 5.750000e+00	 1.083333e+00	 1.026588e+01
1	 5.750000e+00	 1.166667e+00	 1.027097e+01
1	 5.750000e+00	 1.250000e+00	 1.027632e+01
1	 5.833333e+00	 8.333333e-01	 1.024019e+01
1	 5.833333e+00	 9.166667e-01	 1.024459e+01
1	 5.833333e+00	 1.000000e+00	 1.024910e+01
1	 5.833333e+00	 1.083333e+00	 1.025376e+01
1	 5.833333e+00	 1.166667e+00	 1.025862e+01
1	 5.833333e+00	 1.250000e+00	 1.026373e+01
1	 5.416667e+00	 1.250000e+00	 1.033024e+01
1	 5.416667e+00	 1.333333e+00	 1.033670e+01
1	 5.416667e+00	 1.416667e+00	 1.034293e+01
1	 5.416667e+00	 1.500000e+00	 1.034899e+01
1	 5.416667e+00	 1.583333e+00	 1.035496e+01
1	 5.416667e+00	 1.666667e+00	 1.036090e+01
1	 5.500000e+00	 1.250000e+00	 1.031615e+01
1	 5.500000e+00	 1.333333e+00	 1.032233e+01
1	 5.500000e+00	 1.416667e+00	 1.032830e+01
1	 5.500000e+00	 1.500000e+00	 1.033413e+01
1	 5.500000e+00	 1.583333e+00	 1.033989e+01
1	 5.500000e+00	 1.666667e+00	 1.034563e+01
1	 5.583333e+00	 1.250000e+00	 1.030249e+01
1	 5.583333e+00	 1.333333e+00	 1.030840e+01
1	 5.583333e+00	 1.416667e+00	 1.031413e+01
1	 5.583333e+00	 1.500000e+00	 1.031974e+01
1	 5.583333e+00	 1.583333e+00	 1.032529e+01
1	 5.583333e+00	 1.666667e+00	 1.033085e+01
1	 5.666667e+00	 1.250000e+00	 1.028923e+01
1	 5.666667e+00	 1.333333e+00	 1.029488e+01
1	 5.666667e+00	 1.416667e+00	 1.030038e+01
1	 5.666667e+00	 1.500000e+00	 1.030578e+01
1	 5.666667e+00	 1.583333e+00	 1.031114e+01
1	 5.666667e+00	 1.666667e+00	 1.031651e+01
1	 5.750000e+00	 1.250000e+00	 1.027632e+01
1	 5.750000e+00	 1.333333e+00	 1.028174e+01
1	 5.750000e+00	 1.416667e+00	 1.028701e+01
1	 5.750000e+00	 1.500000e+00	 1.029221e+01
1	 5.750000e+00	 1.583333e+00	 1.029737e+01
1	 5.750000e+00	 1.666667e+00	 1.030255e+01
1	 5.833333e+00	 1.250000e+00	 1.026373e+01
1	 5.833333e+00	 1.333333e+00	 1.026891e+01
1	 5.833333e+00	 1.416667e+00	 1.027397e+01
1	 5.833333e+00	 1.500000e+00	 1.027896e+01
1	 5.833333e+00	 1.583333e+00	 1.028394e+01
1	 5.833333e+00	 1.666667e+00	 1.028895e+01
1	 5.416667e+00	 1.666667e+00	 1.036090e+01
1	 5.416667e+00	 1.750000e+00	 1.036660e+01
1	 5.416667e+00	 1.833333e+00	 1.037184e+01
1	 5.416667e+00	 1.916667e+00	 1.037668e+01
1	 5.416667e+00	 2.000000e+00	 1.038116e+01
1	 5.416667e+00	 2.083333e+00	 1.038535e+01
1	 5.500000e+00	 1.666667e+00	 1.034563e+01
1	 5.500000e+00	 1.750000e+00	 1.035116e+01
1	 5.500000e+00	 1.833333e+00	 1.035627e+01
1	 5.500000e+00	 1.916667e+00	 1.036102e+01
1	 5.500000e+00	 2.000000e+00	 1.036544e+01
1	 5.500000e+00	 2.083333e+00	 1.036960e+01
1	 5.583333e+00	 1.666667e+00	 1.033085e+01
1	 5.583333e+00	 1.750000e+00	 1.033621e+01
1	 5.583333e+00	 1.833333e+00	 1.034120e+01
1	 5.583333e+00	 1.916667e+00	 1.034584e+01
1	 5.583333e+00	 2.000000e+00	 1.035020e+01
1	 5.583333e+00	 2.083333e+00	 1.035431e+01
1	 5.666667e+00	 1.666667e+00	 1.031651e+01
1	 5.666667e+00	 1.750000e+00	 1.032171e+01
1	 5.666667e+00	 1.833333e+00	 1.032656e+01
1	 5.666667e+00	 1.916667e+00	 1.033110e+01
1	 5.666667e+00	 2.000000e+00	 1.033538e+01
1	 5.666667e+00	 2.083333e+00	 1.033945e+01
1	 5.750000e+00	 1.666667e+00	 1.030255e+01
1	 5.750000e+00	 1.750000e+00	 1.030759e+01
1	 5.750000e+00	 1.833333e+00	 1.031231e+01
1	 5.750000e+00	 1.916667e+00	 1.031675e+01
1	 5.750000e+00	 2.000000e+00	 1.032095e+01
1	 5.750000e+00	 2.083333e+00	 1.032496e+01
1	 5.833333e+00	 1.666667e+00	 1.028895e+01
1	 5.833333e+00	 1.750000e+00	 1.029382e+01
1	 5.833333e+00	 1.833333e+00	 1.029841e+01
1	 5.833333e+00	 1.916667e+00	 1.030274e+01
1	 5.833333e+00	 2.000000e+00	 1.030686e+01
1	 5.833333e+00	 2.083333e+00	 1.031080e+01
1	 5.416667e+00	 2.083333e+00	 1.038535e+01
1	 5.416667e+00	 2.166667e+00	 1.038912e+01
1	 5.416667e+00	 2.250000e+00	 1.039232e+01
1	 5.416667e+00	 2.333333e+00	 1.039500e+01
1	 5.416667e+00	 2.416667e+00	 1.039718e+01
1	 5.416667e+00	 2.500000e+00	 1.039889e+01
1	 5.500000e+00	 2.083333e+00	 1.036960e+01
1	 5.500000e+00	 2.166667e+00	 1.037337e+01
1	 5.500000e+00	 2.250000e+00	 1.037662e+01
1	 5.500000e+00	 2.333333e+00	 1.037937e+01
1	 5.500000e+00	 2.416667e+00	 1.038166e+01
1	 5.500000e+00	 2.500000e+00	 1.038352e+01
1	 5.583333e+00	 2.083333e+00	 1.035431e+01
1	 5.583333e+00	 2.166667e+00	 1.035807e+01
1	 5.583333e+00	 2.250000e+00	 1.036134e+01
1	 5.583333e+00	 2.333333e+00	 1.036416e+01
1	 5.583333e+00	 2.416667e+00	 1.036654e+01
1	 5.583333e+00	 2.500000e+00	 1.036852e+01
1	 5.666667e+00	 2.083333e+00	 1.033945e+01
1	 5.666667e+00	 2.166667e+00	 1.034319e+01
1	 5.666667e+00	 2.250000e+00	 1.034647e+01
1	 5.666667e+00	 2.333333e+00	 1.034932e+01
1	 5.666667e+00	 2.416667e+00	 1.035178e+01
1	 5.666667e+00	 2.500000e+00	 1.035386e+01
1	 5.750000e+00	 2.083333e+00	 1.032496e+01
1	 5.750000e+00	 2.166667e+00	 1.032867e+01
1	 5.750000e+00	 2.250000e+00	 1.033195e+01
1	 5.750000e+00	 2.333333e+00	 1.033483e+01
1	 5.750000e+00	 2.416667e+00	 1.033734e+01
1	 5.750000e+00	 2.500000e+00	 1.033952e+01
1	 5.833333e+00	 2.083333e+00	 1.031080e+01
1	 5.833333e+00	 2.166667e+00	 1.031447e+01
1	 5.833333e+00	 2.250000e+00	 1.031774e+01
1	 5.833333e+00	 2.333333e+00	 1.032064e+01
1	 5.833333e+00	 2.416667e+00	 1.032320e+01
1	 5.833333e+00	 2.500000e+00	 1.032545e+01
1	 5.416667e+00	 2.500000e+00	 1.039889e+01
1	 5.416667e+00	 2.583333e+00	 1.040010e+01
1	 5.416667e+00	 2.666667e+00	 1.040076e+01
1	 5.416667e+00	 2.750000e+00	 1.040088e+01
1	 5.416667e+00	 2.833333e+00	 1.040047e+01
1	 5.416667e+00	 2.916667e+00	 1.039953e+01
1	 5.500000e+00	 2.500000e+00	 1.038352e+01
1	 5.500000e+00	 2.583333e+00	 1.038491e+01
1	 5.500000e+00	 2.666667e+00	 1.038577e+01
1	 5.500000e+00	 2.750000e+00	 1.038613e+01
1	 5.500000e+00	 2.833333e+00	 1.038598e+01
1	 5.500000e+00	 2.916667e+00	 1.038534e+01
1	 5.583333e+00	 2.500000e+00	 1.036852e+01
1	 5.583333e+00	 2.583333e+00	 1.037006e+01
1	 5.583333e+00	 2.666667e+00	 1.037111e+01
1	 5.583333e+00	 2.750000e+00	 1.037167e+01
1	 5.583333e+00	 2.833333e+00	 1.037175e+01
1	 5.583333e+00	 2.916667e+00	 1.037138e+01
1	 5.666667e+00	 2.500000e+00	 1.035386e+01
1	 5.666667e+00	 2.583333e+00	 1.035553e+01
1	 5.666667e+00	 2.666667e+00	 1.035674e+01
1	 5.666667e+00	 2.750000e+00	 1.035748e+01
1	 5.666667e+00	 2.833333e+00	 1.035777e+01
1	 5.666667e+00	 2.916667e+00	 1.035763e+01
1	 5.750000e+00	 2.500000e+00	 1.033952e+01
1	 5.750000e+00	 2.583333e+00	 1.034130e+01
1	 5.750000e+00	 2.666667e+00	 1.034264e+01
1	 5.750000e+00	 2.750000e+00	 1.034354e+01
1	 5.750000e+00	 2.833333e+00	 1.034402e+01
1	 5.750000e+00	 2.916667e+00	 1.034410e+01
1	 5.833333e+00	 2.500000e+00	 1.032545e+01
1	 5.833333e+00	 2.583333e+00	 1.032733e+01
1	 5.833333e+00	 2.666667e+00	 1.032879e+01
1	 5.833333e+00	 2.750000e+00	 1.032984e+01
1	 5.833333e+00	 2.833333e+00	 1.033049e+01
1	 5.833333e+00	 2.916667e+00	 1.033076e+01
1	 5.416667e+00	 2.916667e+00	 1.039953e+01
1	 5.416667e+00	 3.000000e+00	 1.039811e+01
1	 5.416667e+00	 3.083333e+00	 1.039623e+01
1	 5.416667e+00	 3.166667e+00	 1.039387e+01
1	 5.416667e+00	 3.250000e+00	 1.039104e+01
1	 5.416667e+00	 3.333333e+00	 1.038772e+01
1	 5.500000e+00	 2.916667e+00	 1.038534e+01
1	 5.500000e+00	 3.000000e+00	 1.038423e+01
1	 5.500000e+00	 3.083333e+00	 1.038268e+01
1	 5.500000e+00	 3.166667e+00	 1.038067e+01
1	 5.500000e+00	 3.250000e+00	 1.037821e+01
1	 5.500000e+00	 3.333333e+00	 1.037528e+01
1	 5.583333e+00	 2.916667e+00	 1.037138e+01
1	 5.583333e+00	 3.000000e+00	 1.037056e+01
1	 5.583333e+00	 3.083333e+00	 1.036930e+01
1	 5.583333e+00	 3.166667e+00	 1.036761e+01
1	 5.583333e+00	 3.250000e+00	 1.036548e+01
1	 5.583333e+00	 3.333333e+00	 1.036291e+01
1	 5.666667e+00	 2.916667e+00	 1.035763e+01
1	 5.666667e+00	 3.000000e+00	 1.035707e+01
1	 5.666667e+00	 3.083333e+00	 1.035609e+01
1	 5.666667e+00	 3.166667e+00	 1.035469e+01
1	 5.666667e+00	 3.250000e+00	 1.035287e+01
1	 5.666667e+00	 3.333333e+00	 1.035062e+01
1	 5.750000e+00	 2.916667e+00	 1.034410e+01
1	 5.750000e+00	 3.000000e+00	 1.034377e+01
1	 5.750000e+00	 3.083333e+00	 1.034304e+01
1	 5.750000e+00	 3.166667e+00	 1.034191e+01
1	 5.750000e+00	 3.250000e+00	 1.034037e+01
1	 5.750000e+00	 3.333333e+00	 1.033843e+01
1	 5.833333e+00	 2.916667e+00	 1.033076e+01
1	 5.833333e+00	 3.000000e+00	 1.033064e+01
1	 5.833333e+00	 3.083333e+00	 1.033014e+01
1	 5.833333e+00	 3.166667e+00	 1.032926e+01
1	 5.833333e+00	 3.250000e+00	 1.032799e+01
1	 5.833333e+00	 3.333333e+00	 1.032633e+01
1	 5.416667e+00	 3.333333e+00	 1.038772e+01
1	 5.416667e+00	 3.416667e+00	 1.038400e+01
1	 5.416667e+00	 3.500000e+00	 1.037993e+01
1	 5.416667e+00	 3.583333e+00	 1.037551e+01
1	 5.416667e+00	 3.666667e+00	 1.037071e+01
1	 5.416667e+00	 3.750000e+00	 1.036553e+01
1	 5.500000e+00	 3.333333e+00	 1.037528e+01
1	 5.500000e+00	 3.416667e+00	 1.037195e+01
1	 5.500000e+00	 3.500000e+00	 1.036828e+01
1	 5.500000e+00	 3.583333e+00	 1.036427e+01
1	 5.500000e+00	 3.666667e+00	 1.035989e+01
1	 5.500000e+00	 3.750000e+00	 1.035513e+01
1	 5.583333e+00	 3.333333e+00	 1.036291e+01
1	 5.583333e+00	 3.416667e+00	 1.035995e+01
1	 5.583333e+00	 3.500000e+00	 1.035666e+01
1	 5.583333e+00	 3.583333e+00	 1.035302e+01
1	 5.583333e+00	 3.666667e+00	 1.034903e+01
1	 5.583333e+00	 3.750000e+00	 1.034467e+01
1	 5.666667e+00	 3.333333e+00	 1.035062e+01
1	 5.666667e+00	 3.416667e+00	 1.034801e+01
1	 5.666667e+00	 3.500000e+00	 1.034506e+01
1	 5.666667e+00	 3.583333e+00	 1.034178e+01
1	 5.666667e+00	 3.666667e+00	 1.033815e+01
1	 5.666667e+00	 3.750000e+00	 1.033416e+01
1	 5.750000e+00	 3.333333e+00	 1.033843e+01
1	 5.750000e+00	 3.416667e+00	 1.033613e+01
1	 5.750000e+00	 3.500000e+00	 1.033351e+01
1	 5.750000e+00	 3.583333e+00	 1.033056e+01
1	 5.750000e+00	 3.666667e+00	 1.032727e+01
1	 5.750000e+00	 3.750000e+00	 1.032364e+01
1	 5.833333e+00	 3.333333e+00	 1.032633e+01
1	 5.833333e+00	 3.416667e+00	 1.032433e+01
1	 5.833333e+00	 3.500000e+00	 1.032201e+01
1	 5.833333e+00	 3.583333e+00	 1.031937e+01
1	 5.833333e+00	 3.666667e+00	 1.031641e+01
1	 5.833333e+00	 3.750000e+00	 1.031310e+01
1	 5.416667e+00	 3.750000e+00	 1.036553e+01
1	 5.416667e+00	 3.833333e+00	 1.036005e+01
1	 5.416667e+00	 3.916667e+00	 1.035435e+01
1	 5.416667e+00	 4.000000e+00	 1.034843e+01
1	 5.416667e+00	 4.083333e+00	 1.034225e+01
1	 5.416667e+00	 4.166667e+00	 1.033579e+01
1	 5.500000e+00	 3.750000e+00	 1.035513e+01
1	 5.500000e+00	 3.833333e+00	 1.035007e+01
1	 5.500000e+00	 3.916667e+00	 1.034480e+01
1	 5.500000e+00	 4.000000e+00	 1.033929e+01
1	 5.500000e+00	 4.083333e+00	 1.033352e+01
1	 5.500000e+00	 4.166667e+00	 1.032749e+01
1	 5.583333e+00	 3.750000e+00	 1.034467e+01
1	 5.583333e+00	 3.833333e+00	 1.034001e+01
1	 5.583333e+00	 3.916667e+00	 1.033513e+01
1	 5.583333e+00	 4.000000e+00	 1.033002e+01
1	 5.583333e+00	 4.083333e+00	 1.032465e+01
1	 5.583333e+00	 4.166667e+00	 1.031901e+01
1	 5.666667e+00	 3.750000e+00	 1.033416e+01
1	 5.666667e+00	 3.833333e+00	 1.032989e+01
1	 5.666667e+00	 3.916667e+00	 1.032538e+01
1	 5.666667e+00	 4.000000e+00	 1.032064e+01
1	 5.666667e+00	 4.083333e+00	 1.031565e+01
1	 5.666667e+00	 4.166667e+00	 1.031038e+01
1	 5.750000e+00	 3.750000e+00	 1.032364e+01
1	 5.750000e+00	 3.833333e+00	 1.031972e+01
1	 5.750000e+00	 3.916667e+00	 1.031557e+01
1	 5.750000e+00	 4.000000e+00	 1.031118e+01
1	 5.750000e+00	 4.083333e+00	 1.030654e+01
1	 5.750000e+00	 4.166667e+00	 1.030164e+01
1	 5.833333e+00	 3.750000e+00	 1.031310e+01
1	 5.833333e+00	 3.833333e+00	 1.030952e+01
1	 5.833333e+00	 3.916667e+00	 1.030571e+01
1	 5.833333e+00	 4.000000e+00	 1.030167e+01
1	 5.833333e+00	 4.083333e+00	 1.029737e+01
1	 5.833333e+00	 4.166667e+00	 1.029281e+01
1	 5.416667e+00	 4.166667e+00	 1.033579e+01
1	 5.416667e+00	 4.250000e+00	 1.032916e+01
1	 5.416667e+00	 4.333333e+00	 1.032243e+01
1	 5.416667e+00	 4.416667e+00	 1.031557e+01
1	 5.416667e+00	 4.500000e+00	 1.030859e+01
1	 5.416667e+00	 4.583333e+00	 1.030144e+01
1	 5.500000e+00	 4.166667e+00	 1.032749e+01
1	 5.500000e+00	 4.250000e+00	 1.032126e+01
1	 5.500000e+00	 4.333333e+00	 1.031493e+01
1	 5.500000e+00	 4.416667e+00	 1.030846e+01
1	 5.500000e+00	 4.500000e+00	 1.030186e+01
1	 5.500000e+00	 4.583333e+00	 1.029509e+01
1	 5.583333e+00	 4.166667e+00	 1.031901e+01
1	 5.583333e+00	 4.250000e+00	 1.031317e+01
1	 5.583333e+00	 4.333333e+00	 1.030722e+01
1	 5.583333e+00	 4.416667e+00	 1.030113e+01
1	 5.583333e+00	 4.500000e+00	 1.029489e+01
1	 5.583333e+00	 4.583333e+00	 1.028848e+01
1	 5.666667e+00	 4.166667e+00	 1.031038e+01
1	 5.666667e+00	 4.250000e+00	 1.030492e+01
1	 5.666667e+00	 4.333333e+00	 1.029933e+01
1	 5.666667e+00	 4.416667e+00	 1.029361e+01
1	 5.666667e+00	 4.500000e+00	 1.028772e+01
1	 5.666667e+00	 4.583333e+00	 1.028166e+01
1	 5.750000e+00	 4.166667e+00	 1.030164e+01
1	 5.750000e+00	 4.250000e+00	 1.029654e+01
1	 5.750000e+00	 4.333333e+00	 1.029130e+01
1	 5.750000e+00	 4.416667e+00	 1.028592e+01
1	 5.750000e+00	 4.500000e+00	 1.028038e+01
1	 5.750000e+00	 4.583333e+00	 1.027466e+01
1	 5.833333e+00	 4.166667e+00	 1.029281e+01
1	 5.833333e+00	 4.250000e+00	 1.028805e+01
1	 5.833333e+00	 4.333333e+00	 1.028316e+01
1	 5.833333e+00	 4.416667e+00	 1.027811e+01
1	 5.833333e+00	 4.500000e+00	 1.027290e+01
1	 5.833333e+00	 4.583333e+00	 1.026751e+01
1	 5.416667e+00	 4.583333e+00	 1.030144e+01
1	 5.416667e+00	 4.666667e+00	 1.029422e+01
1	 5.416667e+00	 4.750000e+00	 1.028697e+01
1	 5.416667e+00	 4.833333e+00	 1.027969e+01
1	 5.416667e+00	 4.916667e+00	 1.027237e+01
1	 5.416667e+00	 5.000000e+00	 1.026497e+01
1	 5.500000e+00	 4.583333e+00	 1.029509e+01
1	 5.500000e+00	 4.666667e+00	 1.028822e+01
1	 5.500000e+00	 4.750000e+00	 1.028133e+01
1	 5.500000e+00	 4.833333e+00	 1.027439e+01
1	 5.500000e+00	 4.916667e+00	 1.026739e+01
1	 5.500000e+00	 5.000000e+00	 1.026031e+01
1	 5.583333e+00	 4.583333e+00	 1.028848e+01
1	 5.583333e+00	 4.666667e+00	 1.028197e+01
1	 5.583333e+00	 4.750000e+00	 1.027542e+01
1	 5.583333e+00	 4.833333e+00	 1.026881e+01
1	 5.583333e+00	 4.916667e+00	 1.026213e+01
1	 5.583333e+00	 5.000000e+00	 1.025537e+01
1	 5.666667e+00	 4.583333e+00	 1.028166e+01
1	 5.666667e+00	 4.666667e+00	 1.027549e+01
1	 5.666667e+00	 4.750000e+00	 1.026927e+01
1	 5.666667e+00	 4.833333e+00	 1.026299e+01
1	 5.666667e+00	 4.916667e+00	 1.025662e+01
1	 5.666667e+00	 5.000000e+00	 1.025016e+01
1	 5.750000e+00	 4.583333e+00	 1.027466e+01
1	 5.750000e+00	 4.666667e+00	 1.026882e+01
1	 5.750000e+00	 4.750000e+00	 1.026293e+01
1	 5.750000e+00	 4.833333e+00	 1.025696e+01
1	 5.750000e+00	 4.916667e+00	 1.025090e+01
1	 5.750000e+00	 5.000000e+00	 1.024474e+01
1	 5.833333e+00	 4.583333e+00	 1.026751e+01
1	 5.833333e+00	 4.666667e+00	 1.026199e+01
1	 5.833333e+00	 4.750000e+00	 1.025641e+01
1	 5.833333e+00	 4.833333e+00	 1.025075e+01
1	 5.833333e+00	 4.916667e+00	 1.024499e+01
1	 5.833333e+00	 5.000000e+00	 1.023912e+01
1	 5.833333e+00	 0.000000e+00	 1.021738e+01
1	 5.833333e+00	 8.333333e-02	 1.021764e+01
1	 5.833333e+00	 1.666667e-01	 1.021836e+01
1	 5.833333e+00	 2.500000e-01	 1.021956e+01
1	 5.833333e+00	 3.333333e-01	 1.022126e+01
1	 5.833333e+00	 4.166667e-01	 1.022347e+01
1	 5.916667e+00	 0.000000e+00	 1.020737e+01
1	 5.916667e+00	 8.333333e-02	 1.020761e+01
1	 5.916667e+00	 1.666667e-01	 1.020830e+01
1	 5.916667e+00	 2.500000e-01	 1.020944e+01
1	 5.916667e+00	 3.333333e-01	 1.021104e+01
1	 5.916667e+00	 4.166667e-01	 1.021313e+01
1	 6.000000e+00	 0.000000e+00	 1.019748e+01
1	 6.000000e+00	 8.333333e-02	 1.019771e+01
1	 6.000000e+00	 1.666667e-01	 1.019836e+01
1	 6.000000e+00	 2.500000e-01	 1.019944e+01
1	 6.000000e+00	 3.333333e-01	 1.020097e+01
1	 6.000000e+00	 4.166667e-01	 1.020295e+01
1	 6.083333e+00	 0.000000e+00	 1.018772e+01
1	 6.083333e+00	 8.333333e-02	 1.018794e+01
1	 6.083333e+00	 1.666667e-01	 1.018855e+01
1	 6.083333e+00	 2.500000e-01	 1.018958e+01
1	 6.083333e+00	 3.333333e-01	 1.019102e+01
1	 6.083333e+00	 4.166667e-01	 1.019290e+01
1	 6.166667e+00	 0.000000e+00	 1.017807e+01
1	 6.166667e+00	 8.333333e-02	 1.017828e+01
1	 6.166667e+00	 1.666667e-01	 1.017886e+01
1	 6.166667e+00	 2.500000e-01	 1.017984e+01
1	 6.166667e+00	 3.333333e-01	 1.018121e+01
1	 6.166667e+00	 4.166667e-01	 1.018299e+01
1	 6.250000e+00	 0.000000e+00	 1.016853e+01
1	 6.250000e+00	 8.333333e-02	 1.016873e+01
1	 6.250000e+00	 1.666667e-01	 1.016928e+01
1	 6.250000e+00	 2.500000e-01	 1.017021e+01
1	 6.250000e+00	 3.333333e-01	 1.017151e+01
1	 6.250000e+00	 4.166667e-01	 1.017321e+01
1	 5.833333e+00	 4.166667e-01	 1.022347e+01
1	 5.833333e+00	 5.000000e-01	 1.022609e+01
1	 5.833333e+00	 5.833333e-01	 1.022904e+01
1	 5.833333e+00	 6.666667e-01	 1.023235e+01
1	 5.833333e+00	 7.500000e-01	 1.023605e+01
1	 5.833333e+00	 8.333333e-01	 1.024019e+01
1	 5.916667e+00	 4.166667e-01	 1.021313e+01
1	 5.916667e+00	 5.000000e-01	 1.021562e+01
1	 5.916667e+00	 5.833333e-01	 1.021841e+01
1	 5.916667e+00	 6.666667e-01	 1.022155e+01
1	 5.916667e+00	 7.500000e-01	 1.022507e+01
1	 5.916667e+00	 8.333333e-01	 1.022899e+01
1	 6.000000e+00	 4.166667e-01	 1.020295e+01
1	 6.000000e+00	 5.000000e-01	 1.020530e+01
1	 6.000000e+00	 5.833333e-01	 1.020795e+01
1	 6.000000e+00	 6.666667e-01	 1.021093e+01
1	 6.000000e+00	 7.500000e-01	 1.021428e+01
1	 6.000000e+00	 8.333333e-01	 1.021801e+01
1	 6.083333e+00	 4.166667e-01	 1.019290e+01
1	 6.083333e+00	 5.000000e-01	 1.019514e+01
1	 6.083333e+00	 5.833333e-01	 1.019766e+01
1	 6.083333e+00	 6.666667e-01	 1.020049e+01
1	 6.083333e+00	 7.500000e-01	 1.020367e+01
1	 6.083333e+00	 8.333333e-01	 1.020723e+01
1	 6.166667e+00	 4.166667e-01	 1.018299e+01
1	 6.166667e+00	 5.000000e-01	 1.018511e+01
1	 6.166667e+00	 5.833333e-01	 1.018751e+01
1	 6.166667e+00	 6.666667e-01	 1.019021e+01
1	 6.166667e+00	 7.500000e-01	 1.019324e+01
1	 6.166667e+00	 8.333333e-01	 1.019662e+01
1	 6.250000e+00	 4.166667e-01	 1.017321e+01
1	 6.250000e+00	 5.000000e-01	 1.017522e+01
1	 6.250000e+00	 5.833333e-01	 1.017750e+01
1	 6.250000e+00	 6.666667e-01	 1.018007e+01
1	 6.250000e+00	 7.500000e-01	 1.018296e+01
1	 6.250000e+00	 8.333333e-01	 1.018618e+01
1	 5.833333e+00	 8.333333e-01	 1.024019e+01
1	 5.833333e+00	 9.166667e-01	 1.024459e+01
1	 5.833333e+00	 1.000000e+00	 1.024910e+01
1	 5.833333e+00	 1.083333e+00	 1.025376e+01
1	 5.833333e+00	 1.166667e+00	 1.025862e+01
1	 5.833333e+00	 1.250000e+00	 1.026373e+01
1	 5.916667e+00	 8.333333e-01	 1.022899e+01
1	 5.916667e+00	 9.166667e-01	 1.023317e+01
1	 5.916667e+00	 1.000000e+00	 1.023747e+01
1	 5.916667e+00	 1.083333e+00	 1.024191e+01
1	 5.916667e+00	 1.166667e+00	 1.024655e+01
1	 5.916667e+00	 1.250000e+00	 1.025143e+01
1	 6.000000e+00	 8.333333e-01	 1.021801e+01
1	 6.000000e+00	 9.166667e-01	 1.022199e+01
1	 6.000000e+00	 1.000000e+00	 1.022608e+01
1	 6.000000e+00	 1.083333e+00	 1.023032e+01
1	 6.000000e+00	 1.166667e+00	 1.023476e+01
1	 6.000000e+00	 1.250000e+00	 1.023943e+01
1	 6.083333e+00	 8.333333e-01	 1.020723e+01
1	 6.083333e+00	 9.166667e-01	 1.021102e+01
1	 6.083333e+00	 1.000000e+00	 1.021492e+01
1	 6.083333e+00	 1.083333e+00	 1.021897e+01
1	 6.083333e+00	 1.166667e+00	 1.022321e+01
1	 6.083333e+00	 1.250000e+00	 1.022768e+01
1	 6.166667e+00	 8.333333e-01	 1.019662e+01
1	 6.166667e+00	 9.166667e-01	 1.020023e+01
1	 6.166667e+00	 1.000000e+00	 1.020396e+01
1	 6.166667e+00	 1.083333e+00	 1.020783e+01
1	 6.166667e+00	 1.166667e+00	 1.021189e+01
1	 6.166667e+00	 1.250000e+00	 1.021617e+01
1	 6.250000e+00	 8.333333e-01	 1.018618e+01
1	 6.250000e+00	 9.166667e-01	 1.018962e+01
1	 6.250000e+00	 1.000000e+00	 1.019317e+01
1	 6.250000e+00	 1.083333e+00	 1.019688e+01
1	 6.250000e+00	 1.166667e+00	 1.020076e+01
1	 6.250000e+00	 1.250000e+00	 1.020486e+01
1	 5.833333e+00	 1.250000e+00	 1.026373e+01
1	 5.833333e+00	 1.333333e+00	 1.026891e+01
1	 5.833333e+00	 1.416667e+00	 1.027397e+01
1	 5.833333e+00	 1.500000e+00	 1.027896e+01
1	 5.833333e+00	 1.583333e+00	 1.028394e+01
1	 5.833333e+00	 1.666667e+00	 1.028895e+01
1	 5.916667e+00	 1.250000e+00	 1.025143e+01
1	 5.916667e+00	 1.333333e+00	 1.025639e+01
1	 5.916667e+00	 1.416667e+00	 1.026125e+01
1	 5.916667e+00	 1.500000e+00	 1.026605e+01
1	 5.916667e+00	 1.583333e+00	 1.027084e+01
1	 5.916667e+00	 1.666667e+00	 1.027568e+01
1	 6.000000e+00	 1.250000e+00	 1.023943e+01
1	 6.000000e+00	 1.333333e+00	 1.024417e+01
1	 6.000000e+00	 1.416667e+00	 1.024883e+01
1	 6.000000e+00	 1.500000e+00	 1.025345e+01
1	 6.000000e+00	 1.583333e+00	 1.025808e+01
1	 6.000000e+00	 1.666667e+00	 1.026274e+01
1	 6.083333e+00	 1.250000e+00	 1.022768e+01
1	 6.083333e+00	 1.333333e+00	 1.023223e+01
1	 6.083333e+00	 1.416667e+00	 1.023670e+01
1	 6.083333e+00	 1.500000e+00	 1.024115e+01
1	 6.083333e+00	 1.583333e+00	 1.024561e+01
1	 6.083333e+00	 1.666667e+00	 1.025011e+01
1	 6.166667e+00	 1.250000e+00	 1.021617e+01
1	 6.166667e+00	 1.333333e+00	 1.022052e+01
1	 6.166667e+00	 1.416667e+00	 1.022483e+01
1	 6.166667e+00	 1.500000e+00	 1.022911e+01
1	 6.166667e+00	 1.583333e+00	 1.023340e+01
1	 6.166667e+00	 1.666667e+00	 1.023776e+01
1	 6.250000e+00	 1.250000e+00	 1.020486e+01
1	 6.250000e+00	 1.333333e+00	 1.020903e+01
1	 6.250000e+00	 1.416667e+00	 1.021317e+01
1	 6.250000e+00	 1.500000e+00	 1.021729e+01
1	 6.250000e+00	 1.583333e+00	 1.022143e+01
1	 6.250000e+00	 1.666667e+00	 1.022564e+01
1	 5.833333e+00	 1.666667e+00	 1.028895e+01
1	 5.833333e+00	 1.750000e+00	 1.029382e+01
1	 5.833333e+00	 1.833333e+00	 1.029841e+01
1	 5.833333e+00	 1.916667e+00	 1.030274e+01
1	 5.833333e+00	 2.000000e+00	 1.030686e+01
1	 5.833333e+00	 2.083333e+00	 1.031080e+01
1	 5.916667e+00	 1.666667e+00	 1.027568e+01
1	 5.916667e+00	 1.750000e+00	 1.028040e+01
1	 5.916667e+00	 1.833333e+00	 1.028485e+01
1	 5.916667e+00	 1.916667e+00	 1.028907e+01
1	 5.916667e+00	 2.000000e+00	 1.029310e+01
1	 5.916667e+00	 2.083333e+00	 1.029698e+01
1	 6.000000e+00	 1.666667e+00	 1.026274e+01
1	 6.000000e+00	 1.750000e+00	 1.026731e+01
1	 6.000000e+00	 1.833333e+00	 1.027164e+01
1	 6.000000e+00	 1.916667e+00	 1.027575e+01
1	 6.000000e+00	 2.000000e+00	 1.027970e+01
1	 6.000000e+00	 2.083333e+00	 1.028351e+01
1	 6.083333e+00	 1.666667e+00	 1.025011e+01
1	 6.083333e+00	 1.750000e+00	 1.025454e+01
1	 6.083333e+00	 1.833333e+00	 1.025874e+01
1	 6.083333e+00	 1.916667e+00	 1.026275e+01
1	 6.083333e+00	 2.000000e+00	 1.026660e+01
1	 6.083333e+00	 2.083333e+00	 1.027034e+01
1	 6.166667e+00	 1.666667e+00	 1.023776e+01
1	 6.166667e+00	 1.750000e+00	 1.024204e+01
1	 6.166667e+00	 1.833333e+00	 1.024611e+01
1	 6.166667e+00	 1.916667e+00	 1.025002e+01
1	 6.166667e+00	 2.000000e+00	 1.025379e+01
1	 6.166667e+00	 2.083333e+00	 1.025746e+01
1	 6.250000e+00	 1.666667e+00	 1.022564e+01
1	 6.250000e+00	 1.750000e+00	 1.022978e+01
1	 6.250000e+00	 1.833333e+00	 1.023374e+01
1	 6.250000e+00	 1.916667e+00	 1.023754e+01
1	 6.250000e+00	 2.000000e+00	 1.024122e+01
1	 6.250000e+00	 2.083333e+00	 1.024481e+01
1	 5.833333e+00	 2.083333e+00	 1.031080e+01
1	 5.833333e+00	 2.166667e+00	 1.031447e+01
1	 5.833333e+00	 2.250000e+00	 1.031774e+01
1	 5.833333e+00	 2.333333e+00	 1.032064e+01
1	 5.833333e+00	 2.416667e+00	 1.032320e+01
1	 5.833333e+00	 2.500000e+00	 1.032545e+01
1	 5.916667e+00	 2.083333e+00	 1.029698e+01
1	 5.916667e+00	 2.166667e+00	 1.030061e+01
1	 5.916667e+00	 2.250000e+00	 1.030386e+01
1	 5.916667e+00	 2.333333e+00	 1.030677e+01
1	 5.916667e+00	 2.416667e+00	 1.030937e+01
1	 5.916667e+00	 2.500000e+00	 1.031167e+01
1	 6.000000e+00	 2.083333e+00	 1.028351e+01
1	 6.000000e+00	 2.166667e+00	 1.028708e+01
1	 6.000000e+00	 2.250000e+00	 1.029031e+01
1	 6.000000e+00	 2.333333e+00	 1.029322e+01
1	 6.000000e+00	 2.416667e+00	 1.029584e+01
1	 6.000000e+00	 2.500000e+00	 1.029819e+01
1	 6.083333e+00	 2.083333e+00	 1.027034e+01
1	 6.083333e+00	 2.166667e+00	 1.027386e+01
1	 6.083333e+00	 2.250000e+00	 1.027707e+01
1	 6.083333e+00	 2.333333e+00	 1.027997e+01
1	 6.083333e+00	 2.416667e+00	 1.028261e+01
1	 6.083333e+00	 2.500000e+00	 1.028499e+01
1	 6.166667e+00	 2.083333e+00	 1.025746e+01
1	 6.166667e+00	 2.166667e+00	 1.026092e+01
1	 6.166667e+00	 2.250000e+00	 1.026409e+01
1	 6.166667e+00	 2.333333e+00	 1.026698e+01
1	 6.166667e+00	 2.416667e+00	 1.026963e+01
1	 6.166667e+00	 2.500000e+00	 1.027204e+01
1	 6.250000e+00	 2.083333e+00	 1.024481e+01
1	 6.250000e+00	 2.166667e+00	 1.024822e+01
1	 6.250000e+00	 2.250000e+00	 1.025135e+01
1	 6.250000e+00	 2.333333e+00	 1.025423e+01
1	 6.250000e+00	 2.416667e+00	 1.025688e+01
1	 6.250000e+00	 2.500000e+00	 1.025932e+01
1	 5.833333e+00	 2.500000e+00	 1.032545e+01
1	 5.833333e+00	 2.583333e+00	 1.032733e+01
1	 5.833333e+00	 2.666667e+00	 1.032879e+01
1	 5.833333e+00	 2.750000e+00	 1.032984e+01
1	 5.833333e+00	 2.833333e+00	 1.033049e+01
1	 5.833333e+00	 2.916667e+00	 1.033076e+01
1	 5.916667e+00	 2.500000e+00	 1.031167e+01
1	 5.916667e+00	 2.583333e+00	 1.031363e+01
1	 5.916667e+00	 2.666667e+00	 1.031520e+01
1	 5.916667e+00	 2.750000e+00	 1.031638e+01
1	 5.916667e+00	 2.833333e+00	 1.031718e+01
1	 5.916667e+00	 2.916667e+00	 1.031763e+01
1	 6.000000e+00	 2.500000e+00	 1.029819e+01
1	 6.000000e+00	 2.583333e+00	 1.030023e+01
1	 6.000000e+00	 2.666667e+00	 1.030188e+01
1	 6.000000e+00	 2.750000e+00	 1.030317e+01
1	 6.000000e+00	 2.833333e+00	 1.030411e+01
1	 6.000000e+00	 2.916667e+00	 1.030472e+01
1	 6.083333e+00	 2.500000e+00	 1.028499e+01
1	 6.083333e+00	 2.583333e+00	 1.028708e+01
1	 6.083333e+00	 2.666667e+00	 1.028882e+01
1	 6.083333e+00	 2.750000e+00	 1.029021e+01
1	 6.083333e+00	 2.833333e+00	 1.029127e+01
1	 6.083333e+00	 2.916667e+00	 1.029202e+01
1	 6.166667e+00	 2.500000e+00	 1.027204e+01
1	 6.166667e+00	 2.583333e+00	 1.027418e+01
1	 6.166667e+00	 2.666667e+00	 1.027598e+01
1	 6.166667e+00	 2.750000e+00	 1.027746e+01
1	 6.166667e+00	 2.833333e+00	 1.027863e+01
1	 6.166667e+00	 2.916667e+00	 1.027951e+01
1	 6.250000e+00	 2.500000e+00	 1.025932e+01
1	 6.250000e+00	 2.583333e+00	 1.026149e+01
1	 6.250000e+00	 2.666667e+00	 1.026336e+01
1	 6.250000e+00	 2.750000e+00	 1.026491e+01
1	 6.250000e+00	 2.833333e+00	 1.026618e+01
1	 6.250000e+00	 2.916667e+00	 1.026717e+01
1	 5.833333e+00	 2.916667e+00	 1.033076e+01
1	 5.833333e+00	 3.000000e+00	 1.033064e+01
1	 5.833333e+00	 3.083333e+00	 1.033014e+01
1	 5.833333e+00	 3.166667e+00	 1.032926e+01
1	 5.833333e+00	 3.250000e+00	 1.032799e+01
1	 5.833333e+00	 3.333333e+00	 1.032633e+01
1	 5.916667e+00	 2.916667e+00	 1.031763e+01
1	 5.916667e+00	 3.000000e+00	 1.031771e+01
1	 5.916667e+00	 3.083333e+00	 1.031742e+01
1	 5.916667e+00	 3.166667e+00	 1.031676e+01
1	 5.916667e+00	 3.250000e+00	 1.031574e+01
1	 5.916667e+00	 3.333333e+00	 1.031434e+01
1	 6.000000e+00	 2.916667e+00	 1.030472e+01
1	 6.000000e+00	 3.000000e+00	 1.030498e+01
1	 6.000000e+00	 3.083333e+00	 1.030488e+01
1	 6.000000e+00	 3.166667e+00	 1.030443e+01
1	 6.000000e+00	 3.250000e+00	 1.030363e+01
1	 6.000000e+00	 3.333333e+00	 1.030248e+01
1	 6.083333e+00	 2.916667e+00	 1.029202e+01
1	 6.083333e+00	 3.000000e+00	 1.029243e+01
1	 6.083333e+00	 3.083333e+00	 1.029251e+01
1	 6.083333e+00	 3.166667e+00	 1.029225e+01
1	 6.083333e+00	 3.250000e+00	 1.029166e+01
1	 6.083333e+00	 3.333333e+00	 1.029073e+01
1	 6.166667e+00	 2.916667e+00	 1.027951e+01
1	 6.166667e+00	 3.000000e+00	 1.028007e+01
1	 6.166667e+00	 3.083333e+00	 1.028031e+01
1	 6.166667e+00	 3.166667e+00	 1.028022e+01
1	 6.166667e+00	 3.250000e+00	 1.027982e+01
1	 6.166667e+00	 3.333333e+00	 1.027910e+01
1	 6.250000e+00	 2.916667e+00	 1.026717e+01
1	 6.250000e+00	 3.000000e+00	 1.026787e+01
1	 6.250000e+00	 3.083333e+00	 1.026825e+01
1	 6.250000e+00	 3.166667e+00	 1.026833e+01
1	 6.250000e+00	 3.250000e+00	 1.026811e+01
1	 6.250000e+00	 3.333333e+00	 1.026759e+01
1	 5.833333e+00	 3.333333e+00	 1.032633e+01
1	 5.833333e+00	 3.416667e+00	 1.032433e+01
1	 5.833333e+00	 3.500000e+00	 1.032201e+01
1	 5.833333e+00	 3.583333e+00	 1.031937e+01
1	 5.833333e+00	 3.666667e+00	 1.031641e+01
1	 5.833333e+00	 3.750000e+00	 1.031310e+01
1	 5.916667e+00	 3.333333e+00	 1.031434e+01
1	 5.916667e+00	 3.416667e+00	 1.031262e+01
1	 5.916667e+00	 3.500000e+00	 1.031058e+01
1	 5.916667e+00	 3.583333e+00	 1.030824e+01
1	 5.916667e+00	 3.666667e+00	 1.030558e+01
1	 5.916667e+00	 3.750000e+00	 1.030259e+01
1	 6.000000e+00	 3.333333e+00	 1.030248e+01
1	 6.000000e+00	 3.416667e+00	 1.030101e+01
1	 6.000000e+00	 3.500000e+00	 1.029924e+01
1	 6.000000e+00	 3.583333e+00	 1.029717e+01
1	 6.000000e+00	 3.666667e+00	 1.029479e+01
1	 6.000000e+00	 3.750000e+00	 1.029209e+01
1	 6.083333e+00	 3.333333e+00	 1.029073e+01
1	 6.083333e+00	 3.416667e+00	 1.028950e+01
1	 6.083333e+00	 3.500000e+00	 1.028797e+01
1	 6.083333e+00	 3.583333e+00	 1.028616e+01
1	 6.083333e+00	 3.666667e+00	 1.028404e+01
1	 6.083333e+00	 3.750000e+00	 1.028162e+01
1	 6.166667e+00	 3.333333e+00	 1.027910e+01
1	 6.166667e+00	 3.416667e+00	 1.027809e+01
1	 6.166667e+00	 3.500000e+00	 1.027680e+01
1	 6.166667e+00	 3.583333e+00	 1.027522e+01
1	 6.166667e+00	 3.666667e+00	 1.027335e+01
1	 6.166667e+00	 3.750000e+00	 1.027119e+01
1	 6.250000e+00	 3.333333e+00	 1.026759e+01
1	 6.250000e+00	 3.416667e+00	 1.026678e+01
1	 6.250000e+00	 3.500000e+00	 1.026570e+01
1	 6.250000e+00	 3.583333e+00	 1.026435e+01
1	 6.250000e+00	 3.666667e+00	 1.026272e+01
1	 6.250000e+00	 3.750000e+00	 1.026081e+01
1	 5.833333e+00	 3.750000e+00	 1.031310e+01
1	 5.833333e+00	 3.833333e+00	 1.030952e+01
1	 5.833333e+00	 3.916667e+00	 1.030571e+01
1	 5.833333e+00	 4.000000e+00	 1.030167e+01
1	 5.833333e+00	 4.083333e+00	 1.029737e+01
1	 5.833333e+00	 4.166667e+00	 1.029281e+01
1	 5.916667e+00	 3.750000e+00	 1.030259e+01
1	 5.916667e+00	 3.833333e+00	 1.029932e+01
1	 5.916667e+00	 3.916667e+00	 1.029584e+01
1	 5.916667e+00	 4.000000e+00	 1.029211e+01
1	 5.916667e+00	 4.083333e+00	 1.028814e+01
1	 5.916667e+00	 4.166667e+00	 1.028391e+01
1	 6.000000e+00	 3.750000e+00	 1.029209e+01
1	 6.000000e+00	 3.833333e+00	 1.028913e+01
1	 6.000000e+00	 3.916667e+00	 1.028594e+01
1	 6.000000e+00	 4.000000e+00	 1.028252e+01
1	 6.000000e+00	 4.083333e+00	 1.027886e+01
1	 6.000000e+00	 4.166667e+00	 1.027494e+01
1	 6.083333e+00	 3.750000e+00	 1.028162e+01
1	 6.083333e+00	 3.833333e+00	 1.027894e+01
1	 6.083333e+00	 3.916667e+00	 1.027604e+01
1	 6.083333e+00	 4.000000e+00	 1.027291e+01
1	 6.083333e+00	 4.083333e+00	 1.026954e+01
1	 6.083333e+00	 4.166667e+00	 1.026592e+01
1	 6.166667e+00	 3.750000e+00	 1.027119e+01
1	 6.166667e+00	 3.833333e+00	 1.026878e+01
1	 6.166667e+00	 3.916667e+00	 1.026615e+01
1	 6.166667e+00	 4.000000e+00	 1.026330e+01
1	 6.166667e+00	 4.083333e+00	 1.026021e+01
1	 6.166667e+00	 4.166667e+00	 1.025687e+01
1	 6.250000e+00	 3.750000e+00	 1.026081e+01
1	 6.250000e+00	 3.833333e+00	 1.025865e+01
1	 6.250000e+00	 3.916667e+00	 1.025628e+01
1	 6.250000e+00	 4.000000e+00	 1.025369e+01
1	 6.250000e+00	 4.083333e+00	 1.025086e+01
1	 6.250000e+00	 4.166667e+00	 1.024780e+01
1	 5.833333e+00	 4.166667e+00	 1.029281e+01
1	 5.833333e+00	 4.250000e+00	 1.028805e+01
1	 5.833333e+00	 4.333333e+00	 1.028316e+01
1	 5.833333e+00	 4.416667e+00	 1.027811e+01
1	 5.833333e+00	 4.500000e+00	 1.027290e+01
1	 5.833333e+00	 4.583333e+00	 1.026751e+01
1	 5.916667e+00	 4.166667e+00	 1.028391e+01
1	 5.916667e+00	 4.250000e+00	 1.027948e+01
1	 5.916667e+00	 4.333333e+00	 1.027491e+01
1	 5.916667e+00	 4.416667e+00	 1.027018e+01
1	 5.916667e+00	 4.500000e+00	 1.026529e+01
1	 5.916667e+00	 4.583333e+00	 1.026022e+01
1	 6.000000e+00	 4.166667e+00	 1.027494e+01
1	 6.000000e+00	 4.250000e+00	 1.027083e+01
1	 6.000000e+00	 4.333333e+00	 1.026657e+01
1	 6.000000e+00	 4.416667e+00	 1.026215e+01
1	 6.000000e+00	 4.500000e+00	 1.025756e+01
1	 6.000000e+00	 4.583333e+00	 1.025279e+01
1	 6.083333e+00	 4.166667e+00	 1.026592e+01
1	 6.083333e+00	 4.250000e+00	 1.026211e+01
1	 6.083333e+00	 4.333333e+00	 1.025814e+01
1	 6.083333e+00	 4.416667e+00	 1.025402e+01
1	 6.083333e+00	 4.500000e+00	 1.024973e+01
1	 6.083333e+00	 4.583333e+00	 1.024525e+01
1	 6.166667e+00	 4.166667e+00	 1.025687e+01
1	 6.166667e+00	 4.250000e+00	 1.025334e+01
1	 6.166667e+00	 4.333333e+00	 1.024967e+01
1	 6.166667e+00	 4.416667e+00	 1.024583e+01
1	 6.166667e+00	 4.500000e+00	 1.024182e+01
1	 6.166667e+00	 4.583333e+00	 1.023763e+01
1	 6.250000e+00	 4.166667e+00	 1.024780e+01
1	 6.250000e+00	 4.250000e+00	 1.024455e+01
1	 6.250000e+00	 4.333333e+00	 1.024115e+01
1	 6.250000e+00	 4.416667e+00	 1.023758e+01
1	 6.250000e+00	 4.500000e+00	 1.023385e+01
1	 6.250000e+00	 4.583333e+00	 1.022993e+01
1	 5.833333e+00	 4.583333e+00	 1.026751e+01
1	 5.833333e+00	 4.666667e+00	 1.026199e+01
1	 5.833333e+00	 4.750000e+00	 1.025641e+01
1	 5.833333e+00	 4.833333e+00	 1.025075e+01
1	 5.833333e+00	 4.916667e+00	 1.024499e+01
1	 5.833333e+00	 5.000000e+00	 1.023912e+01
1	 5.916667e+00	 4.583333e+00	 1.026022e+01
1	 5.916667e+00	 4.666667e+00	 1.025501e+01
1	 5.916667e+00	 4.750000e+00	 1.024974e+01
1	 5.916667e+00	 4.833333e+00	 1.024437e+01
1	 5.916667e+00	 4.916667e+00	 1.023891e+01
1	 5.916667e+00	 5.000000e+00	 1.023333e+01
1	 6.000000e+00	 4.583333e+00	 1.025279e+01
1	 6.000000e+00	 4.666667e+00	 1.024789e+01
1	 6.000000e+00	 4.750000e+00	 1.024291e+01
1	 6.000000e+00	 4.833333e+00	 1.023783e+01
1	 6.000000e+00	 4.916667e+00	 1.023265e+01
1	 6.000000e+00	 5.000000e+00	 1.022735e+01
1	 6.083333e+00	 4.583333e+00	 1.024525e+01
1	 6.083333e+00	 4.666667e+00	 1.024065e+01
1	 6.083333e+00	 4.750000e+00	 1.023595e+01
1	 6.083333e+00	 4.833333e+00	 1.023116e+01
1	 6.083333e+00	 4.916667e+00	 1.022625e+01
1	 6.083333e+00	 5.000000e+00	 1.022123e+01
1	 6.166667e+00	 4.583333e+00	 1.023763e+01
1	 6.166667e+00	 4.666667e+00	 1.023330e+01
1	 6.166667e+00	 4.750000e+00	 1.022889e+01
1	 6.166667e+00	 4.833333e+00	 1.022436e+01
1	 6.166667e+00	 4.916667e+00	 1.021973e+01
1	 6.166667e+00	 5.000000e+00	 1.021497e+01
1	 6.250000e+00	 4.583333e+00	 1.022993e+01
1	 6.250000e+00	 4.666667e+00	 1.022588e+01
1	 6.250000e+00	 4.750000e+00	 1.022173e+01
1	 6.250000e+00	 4.833333e+00	 1.021748e+01
1	 6.250000e+00	 4.916667e+00	 1.021311e+01
1	 6.250000e+00	 5.000000e+00	 1.020861e+01
1	 6.250000e+00	 0.000000e+00	 1.016853e+01
1	 6.250000e+00	 8.333333e-02	 1.016873e+01
1	 6.250000e+00	 1.666667e-01	 1.016928e+01
1	 6.250000e+00	 2.500000e-01	 1.017021e+01
1	 6.250000e+00	 3.333333e-01	 1.017151e+01
1	 6.250000e+00	 4.166667e-01	 1.017321e+01
1	 6.333333e+00	 0.000000e+00	 1.015908e+01
1	 6.333333e+00	 8.333333e-02	 1.015927e+01
1	 6.333333e+00	 1.666667e-01	 1.015980e+01
1	 6.333333e+00	 2.500000e-01	 1.016067e+01
1	 6.333333e+00	 3.333333e-01	 1.016191e+01
1	 6.333333e+00	 4.166667e-01	 1.016352e+01
1	 6.416667e+00	 0.000000e+00	 1.014969e+01
1	 6.416667e+00	 8.333333e-02	 1.014987e+01
1	 6.416667e+00	 1.666667e-01	 1.015037e+01
1	 6.416667e+00	 2.500000e-01	 1.015121e+01
1	 6.416667e+00	 3.333333e-01	 1.015239e+01
1	 6.416667e+00	 4.166667e-01	 1.015392e+01
1	 6.500000e+00	 0.000000e+00	 1.014036e+01
1	 6.500000e+00	 8.333333e-02	 1.014053e+01
1	 6.500000e+00	 1.666667e-01	 1.014101e+01
1	 6.500000e+00	 2.500000e-01	 1.014181e+01
1	 6.500000e+00	 3.333333e-01	 1.014293e+01
1	 6.500000e+00	 4.166667e-01	 1.014439e+01
1	 6.583333e+00	 0.000000e+00	 1.013108e+01
1	 6.583333e+00	 8.333333e-02	 1.013124e+01
1	 6.583333e+00	 1.666667e-01	 1.013170e+01
1	 6.583333e+00	 2.500000e-01	 1.013246e+01
1	 6.583333e+00	 3.333333e-01	 1.013353e+01
1	 6.583333e+00	 4.166667e-01	 1.013492e+01
1	 6.666667e+00	 0.000000e+00	 1.012185e+01
1	 6.666667e+00	 8.333333e-02	 1.012200e+01
1	 6.666667e+00	 1.666667e-01	 1.012244e+01
1	 6.666667e+00	 2.500000e-01	 1.012317e+01
1	 6.666667e+00	 3.333333e-01	 1.012419e+01
1	 6.666667e+00	 4.166667e-01	 1.012552e+01
1	 6.250000e+00	 4.166667e-01	 1.017321e+01
1	 6.250000e+00	 5.000000e-01	 1.017522e+01
1	 6.250000e+00	 5.833333e-01	 1.017750e+01
1	 6.250000e+00	 6.666667e-01	 1.018007e+01
1	 6.250000e+00	 7.500000e-01	 1.018296e+01
1	 6.250000e+00	 8.333333e-01	 1.018618e+01
1	 6.333333e+00	 4.166667e-01	 1.016352e+01
1	 6.333333e+00	 5.000000e-01	 1.016544e+01
1	 6.333333e+00	 5.833333e-01	 1.016761e+01
1	 6.333333e+00	 6.666667e-01	 1.017006e+01
1	 6.333333e+00	 7.500000e-01	 1.017281e+01
1	 6.333333e+00	 8.333333e-01	 1.017587e+01
1	 6.416667e+00	 4.166667e-01	 1.015392e+01
1	 6.416667e+00	 5.000000e-01	 1.015574e+01
1	 6.416667e+00	 5.833333e-01	 1.015781e+01
1	 6.416667e+00	 6.666667e-01	 1.016015e+01
1	 6.416667e+00	 7.500000e-01	 1.016277e+01
1	 6.416667e+00	 8.333333e-01	 1.016570e+01
1	 6.500000e+00	 4.166667e-01	 1.014439e+01
1	 6.500000e+00	 5.000000e-01	 1.014613e+01
1	 6.500000e+00	 5.833333e-01	 1.014810e+01
1	 6.500000e+00	 6.666667e-01	 1.015033e+01
1	 6.500000e+00	 7.500000e-01	 1.015284e+01
1	 6.500000e+00	 8.333333e-01	 1.015564e+01
1	 6.583333e+00	 4.166667e-01	 1.013492e+01
1	 6.583333e+00	 5.000000e-01	 1.013658e+01
1	 6.583333e+00	 5.833333e-01	 1.013847e+01
1	 6.583333e+00	 6.666667e-01	 1.014060e+01
1	 6.583333e+00	 7.500000e-01	 1.014300e+01
1	 6.583333e+00	 8.333333e-01	 1.014567e+01
1	 6.666667e+00	 4.166667e-01	 1.012552e+01
1	 6.666667e+00	 5.000000e-01	 1.012710e+01
1	 6.666667e+00	 5.833333e-01	 1.012890e+01
1	 6.666667e+00	 6.666667e-01	 1.013094e+01
1	 6.666667e+00	 7.500000e-01	 1.013323e+01
1	 6.666667e+00	 8.333333e-01	 1.013579e+01
1	 6.250000e+00	 8.333333e-01	 1.018618e+01
1	 6.250000e+00	 9.166667e-01	 1.018962e+01
1	 6.250000e+00	 1.000000e+00	 1.019317e+01
1	 6.250000e+00	 1.083333e+00	 1.019688e+01
1	 6.250000e+00	 1.166667e+00	 1.020076e+01
1	 6.250000e+00	 1.250000e+00	 1.020486e+01
1	 6.333333e+00	 8.333333e-01	 1.017587e+01
1	 6.333333e+00	 9.166667e-01	 1.017916e+01
1	 6.333333e+00	 1.000000e+00	 1.018255e+01
1	 6.333333e+00	 1.083333e+00	 1.018610e+01
1	 6.333333e+00	 1.166667e+00	 1.018981e+01
1	 6.333333e+00	 1.250000e+00	 1.019374e+01
1	 6.416667e+00	 8.333333e-01	 1.016570e+01
1	 6.416667e+00	 9.166667e-01	 1.016883e+01
1	 6.416667e+00	 1.000000e+00	 1.017208e+01
1	 6.416667e+00	 1.083333e+00	 1.017547e+01
1	 6.416667e+00	 1.166667e+00	 1.017904e+01
1	 6.416667e+00	 1.250000e+00	 1.018280e+01
1	 6.500000e+00	 8.333333e-01	 1.015564e+01
1	 6.500000e+00	 9.166667e-01	 1.015863e+01
1	 6.500000e+00	 1.000000e+00	 1.016174e+01
1	 6.500000e+00	 1.083333e+00	 1.016499e+01
1	 6.500000e+00	 1.166667e+00	 1.016841e+01
1	 6.500000e+00	 1.250000e+00	 1.017202e+01
1	 6.583333e+00	 8.333333e-01	 1.014567e+01
1	 6.583333e+00	 9.166667e-01	 1.014854e+01
1	 6.583333e+00	 1.000000e+00	 1.015152e+01
1	 6.583333e+00	 1.083333e+00	 1.015464e+01
1	 6.583333e+00	 1.166667e+00	 1.015792e+01
1	 6.583333e+00	 1.250000e+00	 1.016139e+01
1	 6.666667e+00	 8.333333e-01	 1.013579e+01
1	 6.666667e+00	 9.166667e-01	 1.013854e+01
1	 6.666667e+00	 1.000000e+00	 1.014139e+01
1	 6.666667e+00	 1.083333e+00	 1.014439e+01
1	 6.666667e+00	 1.166667e+00	 1.014754e+01
1	 6.666667e+00	 1.250000e+00	 1.015088e+01
1	 6.250000e+00	 1.250000e+00	 1.020486e+01
1	 6.250000e+00	 1.333333e+00	 1.020903e+01
1	 6.250000e+00	 1.416667e+00	 1.021317e+01
1	 6.250000e+00	 1.500000e+00	 1.021729e+01
1	 6.250000e+00	 1.583333e+00	 1.022143e+01
1	 6.250000e+00	 1.666667e+00	 1.022564e+01
1	 6.333333e+00	 1.250000e+00	 1.019374e+01
1	 6.333333e+00	 1.333333e+00	 1.019774e+01
1	 6.333333e+00	 1.416667e+00	 1.020172e+01
1	 6.333333e+00	 1.500000e+00	 1.020569e+01
1	 6.333333e+00	 1.583333e+00	 1.020968e+01
1	 6.333333e+00	 1.666667e+00	 1.021374e+01
1	 6.416667e+00	 1.250000e+00	 1.018280e+01
1	 6.416667e+00	 1.333333e+00	 1.018665e+01
1	 6.416667e+00	 1.416667e+00	 1.019047e+01
1	 6.416667e+00	 1.500000e+00	 1.019429e+01
1	 6.416667e+00	 1.583333e+00	 1.019815e+01
1	 6.416667e+00	 1.666667e+00	 1.020208e+01
1	 6.500000e+00	 1.250000e+00	 1.017202e+01
1	 6.500000e+00	 1.333333e+00	 1.017572e+01
1	 6.500000e+00	 1.416667e+00	 1.017940e+01
1	 6.500000e+00	 1.500000e+00	 1.018309e+01
1	 6.500000e+00	 1.583333e+00	 1.018682e+01
1	 6.500000e+00	 1.666667e+00	 1.019062e+01
1	 6.583333e+00	 1.250000e+00	 1.016139e+01
1	 6.583333e+00	 1.333333e+00	 1.016495e+01
1	 6.583333e+00	 1.416667e+00	 1.016849e+01
1	 6.583333e+00	 1.500000e+00	 1.017206e+01
1	 6.583333e+00	 1.583333e+00	 1.017566e+01
1	 6.583333e+00	 1.666667e+00	 1.017933e+01
1	 6.666667e+00	 1.250000e+00	 1.015088e+01
1	 6.666667e+00	 1.333333e+00	 1.015430e+01
1	 6.666667e+00	 1.416667e+00	 1.015772e+01
1	 6.666667e+00	 1.500000e+00	 1.016116e+01
1	 6.666667e+00	 1.583333e+00	 1.016464e+01
1	 6.666667e+00	 1.666667e+00	 1.016820e+01
1	 6.250000e+00	 1.666667e+00	 1.022564e+01
1	 6.250000e+00	 1.750000e+00	 1.022978e+01
1	 6.250000e+00	 1.833333e+00	 1.023374e+01
1	 6.250000e+00	 1.916667e+00	 1.023754e+01
1	 6.250000e+00	 2.000000e+00	 1.024122e+01
1	 6.250000e+00	 2.083333e+00	 1.024481e+01
1	 6.333333e+00	 1.666667e+00	 1.021374e+01
1	 6.333333e+00	 1.750000e+00	 1.021775e+01
1	 6.333333e+00	 1.833333e+00	 1.022160e+01
1	 6.333333e+00	 1.916667e+00	 1.022530e+01
1	 6.333333e+00	 2.000000e+00	 1.022890e+01
1	 6.333333e+00	 2.083333e+00	 1.023241e+01
1	 6.416667e+00	 1.666667e+00	 1.020208e+01
1	 6.416667e+00	 1.750000e+00	 1.020596e+01
1	 6.416667e+00	 1.833333e+00	 1.020970e+01
1	 6.416667e+00	 1.916667e+00	 1.021330e+01
1	 6.416667e+00	 2.000000e+00	 1.021682e+01
1	 6.416667e+00	 2.083333e+00	 1.022026e+01
1	 6.500000e+00	 1.666667e+00	 1.019062e+01
1	 6.500000e+00	 1.750000e+00	 1.019438e+01
1	 6.500000e+00	 1.833333e+00	 1.019801e+01
1	 6.500000e+00	 1.916667e+00	 1.020153e+01
1	 6.500000e+00	 2.000000e+00	 1.020496e+01
1	 6.500000e+00	 2.083333e+00	 1.020833e+01
1	 6.583333e+00	 1.666667e+00	 1.017933e+01
1	 6.583333e+00	 1.750000e+00	 1.018298e+01
1	 6.583333e+00	 1.833333e+00	 1.018651e+01
1	 6.583333e+00	 1.916667e+00	 1.018994e+01
1	 6.583333e+00	 2.000000e+00	 1.019329e+01
1	 6.583333e+00	 2.083333e+00	 1.019659e+01
1	 6.666667e+00	 1.666667e+00	 1.016820e+01
1	 6.666667e+00	 1.750000e+00	 1.017174e+01
1	 6.666667e+00	 1.833333e+00	 1.017517e+01
1	 6.666667e+00	 1.916667e+00	 1.017851e+01
1	 6.666667e+00	 2.000000e+00	 1.018179e+01
1	 6.666667e+00	 2.083333e+00	 1.018503e+01
1	 6.250000e+00	 2.083333e+00	 1.024481e+01
1	 6.250000e+00	 2.166667e+00	 1.024822e+01
1	 6.250000e+00	 2.250000e+00	 1.025135e+01
1	 6.250000e+00	 2.333333e+00	 1.025423e+01
1	 6.250000e+00	 2.416667e+00	 1.025688e+01
1	 6.250000e+00	 2.500000e+00	 1.025932e+01
1	 6.333333e+00	 2.083333e+00	 1.023241e+01
1	 6.333333e+00	 2.166667e+00	 1.023576e+01
1	 6.333333e+00	 2.250000e+00	 1.023886e+01
1	 6.333333e+00	 2.333333e+00	 1.024172e+01
1	 6.333333e+00	 2.416667e+00	 1.024436e+01
1	 6.333333e+00	 2.500000e+00	 1.024682e+01
1	 6.416667e+00	 2.083333e+00	 1.022026e+01
1	 6.416667e+00	 2.166667e+00	 1.022355e+01
1	 6.416667e+00	 2.250000e+00	 1.022661e+01
1	 6.416667e+00	 2.333333e+00	 1.022945e+01
1	 6.416667e+00	 2.416667e+00	 1.023209e+01
1	 6.416667e+00	 2.500000e+00	 1.023455e+01
1	 6.500000e+00	 2.083333e+00	 1.020833e+01
1	 6.500000e+00	 2.166667e+00	 1.021156e+01
1	 6.500000e+00	 2.250000e+00	 1.021458e+01
1	 6.500000e+00	 2.333333e+00	 1.021739e+01
1	 6.500000e+00	 2.416667e+00	 1.022003e+01
1	 6.500000e+00	 2.500000e+00	 1.022250e+01
1	 6.583333e+00	 2.083333e+00	 1.019659e+01
1	 6.583333e+00	 2.166667e+00	 1.019977e+01
1	 6.583333e+00	 2.250000e+00	 1.020275e+01
1	 6.583333e+00	 2.333333e+00	 1.020554e+01
1	 6.583333e+00	 2.416667e+00	 1.020816e+01
1	 6.583333e+00	 2.500000e+00	 1.021063e+01
1	 6.666667e+00	 2.083333e+00	 1.018503e+01
1	 6.666667e+00	 2.166667e+00	 1.018815e+01
1	 6.666667e+00	 2.250000e+00	 1.019109e+01
1	 6.666667e+00	 2.333333e+00	 1.019385e+01
1	 6.666667e+00	 2.416667e+00	 1.019646e+01
1	 6.666667e+00	 2.500000e+00	 1.019894e+01
1	 6.250000e+00	 2.500000e+00	 1.025932e+01
1	 6.250000e+00	 2.583333e+00	 1.026149e+01
1	 6.250000e+00	 2.666667e+00	 1.026336e+01
1	 6.250000e+00	 2.750000e+00	 1.026491e+01
1	 6.250000e+00	 2.833333e+00	 1.026618e+01
1	 6.250000e+00	 2.916667e+00	 1.026717e+01
1	 6.333333e+00	 2.500000e+00	 1.024682e+01
1	 6.333333e+00	 2.583333e+00	 1.024903e+01
1	 6.333333e+00	 2.666667e+00	 1.025094e+01
1	 6.333333e+00	 2.750000e+00	 1.025257e+01
1	 6.333333e+00	 2.833333e+00	 1.025393e+01
1	 6.333333e+00	 2.916667e+00	 1.025502e+01
1	 6.416667e+00	 2.500000e+00	 1.023455e+01
1	 6.416667e+00	 2.583333e+00	 1.023679e+01
1	 6.416667e+00	 2.666667e+00	 1.023875e+01
1	 6.416667e+00	 2.750000e+00	 1.024044e+01
1	 6.416667e+00	 2.833333e+00	 1.024187e+01
1	 6.416667e+00	 2.916667e+00	 1.024306e+01
1	 6.500000e+00	 2.500000e+00	 1.022250e+01
1	 6.500000e+00	 2.583333e+00	 1.022476e+01
1	 6.500000e+00	 2.666667e+00	 1.022676e+01
1	 6.500000e+00	 2.750000e+00	 1.022850e+01
1	 6.500000e+00	 2.833333e+00	 1.023001e+01
1	 6.500000e+00	 2.916667e+00	 1.023128e+01
1	 6.583333e+00	 2.500000e+00	 1.021063e+01
1	 6.583333e+00	 2.583333e+00	 1.021291e+01
1	 6.583333e+00	 2.666667e+00	 1.021494e+01
1	 6.583333e+00	 2.750000e+00	 1.021674e+01
1	 6.583333e+00	 2.833333e+00	 1.021831e+01
1	 6.583333e+00	 2.916667e+00	 1.021967e+01
1	 6.666667e+00	 2.500000e+00	 1.019894e+01
1	 6.666667e+00	 2.583333e+00	 1.020123e+01
1	 6.666667e+00	 2.666667e+00	 1.020330e+01
1	 6.666667e+00	 2.750000e+00	 1.020514e+01
1	 6.666667e+00	 2.833333e+00	 1.020677e+01
1	 6.666667e+00	 2.916667e+00	 1.020820e+01
1	 6.250000e+00	 2.916667e+00	 1.026717e+01
1	 6.250000e+00	 3.000000e+00	 1.026787e+01
1	 6.250000e+00	 3.083333e+00	 1.026825e+01
1	 6.250000e+00	 3.166667e+00	 1.026833e+01
1	 6.250000e+00	 3.250000e+00	 1.026811e+01
1	 6.250000e+00	 3.333333e+00	 1.026759e+01
1	 6.333333e+00	 2.916667e+00	 1.025502e+01
1	 6.333333e+00	 3.000000e+00	 1.025584e+01
1	 6.333333e+00	 3.083333e+00	 1.025636e+01
1	 6.333333e+00	 3.166667e+00	 1.025659e+01
1	 6.333333e+00	 3.250000e+00	 1.025653e+01
1	 6.333333e+00	 3.333333e+00	 1.025619e+01
1	 6.416667e+00	 2.916667e+00	 1.024306e+01
1	 6.416667e+00	 3.000000e+00	 1.024399e+01
1	 6.416667e+00	 3.083333e+00	 1.024464e+01
1	 6.416667e+00	 3.166667e+00	 1.024501e+01
1	 6.416667e+00	 3.250000e+00	 1.024511e+01
1	 6.416667e+00	 3.333333e+00	 1.024493e+01
1	 6.500000e+00	 2.916667e+00	 1.023128e+01
1	 6.500000e+00	 3.000000e+00	 1.023232e+01
1	 6.500000e+00	 3.083333e+00	 1.023308e+01
1	 6.500000e+00	 3.166667e+00	 1.023358e+01
1	 6.500000e+00	 3.250000e+00	 1.023382e+01
1	 6.500000e+00	 3.333333e+00	 1.023380e+01
1	 6.583333e+00	 2.916667e+00	 1.021967e+01
1	 6.583333e+00	 3.000000e+00	 1.022079e+01
1	 6.583333e+00	 3.083333e+00	 1.022166e+01
1	 6.583333e+00	 3.166667e+00	 1.022228e+01
1	 6.583333e+00	 3.250000e+00	 1.022265e+01
1	 6.583333e+00	 3.333333e+00	 1.022279e+01
1	 6.666667e+00	 2.916667e+00	 1.020820e+01
1	 6.666667e+00	 3.000000e+00	 1.020941e+01
1	 6.666667e+00	 3.083333e+00	 1.021038e+01
1	 6.666667e+00	 3.166667e+00	 1.021111e+01
1	 6.666667e+00	 3.250000e+00	 1.021161e+01
1	 6.666667e+00	 3.333333e+00	 1.021188e+01
1	 6.250000e+00	 3.333333e+00	 1.026759e+01
1	 6.250000e+00	 3.416667e+00	 1.026678e+01
1	 6.250000e+00	 3.500000e+00	 1.026570e+01
1	 6.250000e+00	 3.583333e+00	 1.026435e+01
1	 6.250000e+00	 3.666667e+00	 1.026272e+01
1	 6.250000e+00	 3.750000e+00	 1.026081e+01
1	 6.333333e+00	 3.333333e+00	 1.025619e+01
1	 6.333333e+00	 3.416667e+00	 1.025558e+01
1	 6.333333e+00	 3.500000e+00	 1.025471e+01
1	 6.333333e+00	 3.583333e+00	 1.025357e+01
1	 6.333333e+00	 3.666667e+00	 1.025216e+01
1	 6.333333e+00	 3.750000e+00	 1.025048e+01
1	 6.416667e+00	 3.333333e+00	 1.024493e+01
1	 6.416667e+00	 3.416667e+00	 1.024450e+01
1	 6.416667e+00	 3.500000e+00	 1.024382e+01
1	 6.416667e+00	 3.583333e+00	 1.024288e+01
1	 6.416667e+00	 3.666667e+00	 1.024168e+01
1	 6.416667e+00	 3.750000e+00	 1.024022e+01
1	 6.500000e+00	 3.333333e+00	 1.023380e+01
1	 6.500000e+00	 3.416667e+00	 1.023354e+01
1	 6.500000e+00	 3.500000e+00	 1.023303e+01
1	 6.500000e+00	 3.583333e+00	 1.023228e+01
1	 6.500000e+00	 3.666667e+00	 1.023128e+01
1	 6.500000e+00	 3.750000e+00	 1.023003e+01
1	 6.583333e+00	 3.333333e+00	 1.022279e+01
1	 6.583333e+00	 3.416667e+00	 1.022268e+01
1	 6.583333e+00	 3.500000e+00	 1.022234e+01
1	 6.583333e+00	 3.583333e+00	 1.022176e+01
1	 6.583333e+00	 3.666667e+00	 1.022095e+01
1	 6.583333e+00	 3.750000e+00	 1.021990e+01
1	 6.666667e+00	 3.333333e+00	 1.021188e+01
1	 6.666667e+00	 3.416667e+00	 1.021193e+01
1	 6.666667e+00	 3.500000e+00	 1.021175e+01
1	 6.666667e+00	 3.583333e+00	 1.021134e+01
1	 6.666667e+00	 3.666667e+00	 1.021070e+01
1	 6.666667e+00	 3.750000e+00	 1.020984e+01
1	 6.250000e+00	 3.750000e+00	 1.026081e+01
1	 6.250000e+00	 3.833333e+00	 1.025865e+01
1	 6.250000e+00	 3.916667e+00	 1.025628e+01
1	 6.250000e+00	 4.000000e+00	 1.025369e+01
1	 6.250000e+00	 4.083333e+00	 1.025086e+01
1	 6.250000e+00	 4.166667e+00	 1.024780e+01
1	 6.333333e+00	 3.750000e+00	 1.025048e+01
1	 6.333333e+00	 3.833333e+00	 1.024857e+01
1	 6.333333e+00	 3.916667e+00	 1.024644e+01
1	 6.333333e+00	 4.000000e+00	 1.024410e+01
1	 6.333333e+00	 4.083333e+00	 1.024153e+01
1	 6.333333e+00	 4.166667e+00	 1.023873e+01
1	 6.416667e+00	 3.750000e+00	 1.024022e+01
1	 6.416667e+00	 3.833333e+00	 1.023853e+01
1	 6.416667e+00	 3.916667e+00	 1.023664e+01
1	 6.416667e+00	 4.000000e+00	 1.023453e+01
1	 6.416667e+00	 4.083333e+00	 1.023221e+01
1	 6.416667e+00	 4.166667e+00	 1.022966e+01
1	 6.500000e+00	 3.750000e+00	 1.023003e+01
1	 6.500000e+00	 3.833333e+00	 1.022855e+01
1	 6.500000e+00	 3.916667e+00	 1.022688e+01
1	 6.500000e+00	 4.000000e+00	 1.022500e+01
1	 6.500000e+00	 4.083333e+00	 1.022290e+01
1	 6.500000e+00	 4.166667e+00	 1.022059e+01
1	 6.583333e+00	 3.750000e+00	 1.021990e+01
1	 6.583333e+00	 3.833333e+00	 1.021863e+01
1	 6.583333e+00	 3.916667e+00	 1.021717e+01
1	 6.583333e+00	 4.000000e+00	 1.021550e+01
1	 6.583333e+00	 4.083333e+00	 1.021363e+01
1	 6.583333e+00	 4.166667e+00	 1.021154e+01
1	 6.666667e+00	 3.750000e+00	 1.020984e+01
1	 6.666667e+00	 3.833333e+00	 1.020877e+01
1	 6.666667e+00	 3.916667e+00	 1.020751e+01
1	 6.666667e+00	 4.000000e+00	 1.020605e+01
1	 6.666667e+00	 4.083333e+00	 1.020439e+01
1	 6.666667e+00	 4.166667e+00	 1.020252e+01
1	 6.250000e+00	 4.166667e+00	 1.024780e+01
1	 6.250000e+00	 4.250000e+00	 1.024455e+01
1	 6.250000e+00	 4.333333e+00	 1.024115e+01
1	 6.250000e+00	 4.416667e+00	 1.023758e+01
1	 6.250000e+00	 4.500000e+00	 1.023385e+01
1	 6.250000e+00	 4.583333e+00	 1.022993e+01
1	 6.333333e+00	 4.166667e+00	 1.023873e+01
1	 6.333333e+00	 4.250000e+00	 1.023574e+01
1	 6.333333e+00	 4.333333e+00	 1.023260e+01
1	 6.333333e+00	 4.416667e+00	 1.022930e+01
1	 6.333333e+00	 4.500000e+00	 1.022583e+01
1	 6.333333e+00	 4.583333e+00	 1.022218e+01
1	 6.416667e+00	 4.166667e+00	 1.022966e+01
1	 6.416667e+00	 4.250000e+00	 1.022692e+01
1	 6.416667e+00	 4.333333e+00	 1.022403e+01
1	 6.416667e+00	 4.416667e+00	 1.022098e+01
1	 6.416667e+00	 4.500000e+00	 1.021776e+01
1	 6.416667e+00	 4.583333e+00	 1.021437e+01
1	 6.500000e+00	 4.166667e+00	 1.022059e+01
1	 6.500000e+00	 4.250000e+00	 1.021809e+01
1	 6.500000e+00	 4.333333e+00	 1.021545e+01
1	 6.500000e+00	 4.416667e+00	 1.021264e+01
1	 6.500000e+00	 4.500000e+00	 1.020967e+01
1	 6.500000e+00	 4.583333e+00	 1.020652e+01
1	 6.583333e+00	 4.166667e+00	 1.021154e+01
1	 6.583333e+00	 4.250000e+00	 1.020928e+01
1	 6.583333e+00	 4.333333e+00	 1.020686e+01
1	 6.583333e+00	 4.416667e+00	 1.020429e+01
1	 6.583333e+00	 4.500000e+00	 1.020156e+01
1	 6.583333e+00	 4.583333e+00	 1.019865e+01
1	 6.666667e+00	 4.166667e+00	 1.020252e+01
1	 6.666667e+00	 4.250000e+00	 1.020048e+01
1	 6.666667e+00	 4.333333e+00	 1.019829e+01
1	 6.666667e+00	 4.416667e+00	 1.019595e+01
1	 6.666667e+00	 4.500000e+00	 1.019344e+01
1	 6.666667e+00	 4.583333e+00	 1.019077e+01
1	 6.250000e+00	 4.583333e+00	 1.022993e+01
1	 6.250000e+00	 4.666667e+00	 1.022588e+01
1	 6.250000e+00	 4.750000e+00	 1.022173e+01
1	 6.250000e+00	 4.833333e+00	 1.021748e+01
1	 6.250000e+00	 4.916667e+00	 1.021311e+01
1	 6.250000e+00	 5.000000e+00	 1.020861e+01
1	 6.333333e+00	 4.583333e+00	 1.022218e+01
1	 6.333333e+00	 4.666667e+00	 1.021839e+01
1	 6.333333e+00	 4.750000e+00	 1.021451e+01
1	 6.333333e+00	 4.833333e+00	 1.021051e+01
1	 6.333333e+00	 4.916667e+00	 1.020640e+01
1	 6.333333e+00	 5.000000e+00	 1.020215e+01
1	 6.416667e+00	 4.583333e+00	 1.021437e+01
1	 6.416667e+00	 4.666667e+00	 1.021084e+01
1	 6.416667e+00	 4.750000e+00	 1.020721e+01
1	 6.416667e+00	 4.833333e+00	 1.020346e+01
1	 6.416667e+00	 4.916667e+00	 1.019960e+01
1	 6.416667e+00	 5.000000e+00	 1.019560e+01
1	 6.500000e+00	 4.583333e+00	 1.020652e+01
1	 6.500000e+00	 4.666667e+00	 1.020324e+01
1	 6.500000e+00	 4.750000e+00	 1.019985e+01
1	 6.500000e+00	 4.833333e+00	 1.019635e+01
1	 6.500000e+00	 4.916667e+00	 1.019273e+01
1	 6.500000e+00	 5.000000e+00	 1.018898e+01
1	 6.583333e+00	 4.583333e+00	 1.019865e+01
1	 6.583333e+00	 4.666667e+00	 1.019561e+01
1	 6.583333e+00	 4.750000e+00	 1.019246e+01
1	 6.583333e+00	 4.833333e+00	 1.018919e+01
1	 6.583333e+00	 4.916667e+00	 1.018581e+01
1	 6.583333e+00	 5.000000e+00	 1.018229e+01
1	 6.666667e+00	 4.583333e+00	 1.019077e+01
1	 6.666667e+00	 4.666667e+00	 1.018796e+01
1	 6.666667e+00	 4.750000e+00	 1.018504e+01
1	 6.666667e+00	 4.833333e+00	 1.018200e+01
1	 6.666667e+00	 4.916667e+00	 1.017885e+01
1	 6.666667e+00	 5.000000e+00	 1.017556e+01
1	 6.666667e+00	 0.000000e+00	 1.012185e+01
1	 6.666667e+00	 8.333333e-02	 1.012200e+01
1	 6.666667e+00	 1.666667e-01	 1.012244e+01
1	 6.666667e+00	 2.500000e-01	 1.012317e+01
1	 6.666667e+00	 3.333333e-01	 1.012419e+01
1	 6.666667e+00	 4.166667e-01	 1.012552e+01
1	 6.750000e+00	 0.000000e+00	 1.011265e+01
1	 6.750000e+00	 8.333333e-02	 1.011279e+01
1	 6.750000e+00	 1.666667e-01	 1.011321e+01
1	 6.750000e+00	 2.500000e-01	 1.011390e+01
1	 6.750000e+00	 3.333333e-01	 1.011488e+01
1	 6.750000e+00	 4.166667e-01	 1.011615e+01
1	 6.833333e+00	 0.000000e+00	 1.010345e+01
1	 6.833333e+00	 8.333333e-02	 1.010359e+01
1	 6.833333e+00	 1.666667e-01	 1.010399e+01
1	 6.833333e+00	 2.500000e-01	 1.010465e+01
1	 6.833333e+00	 3.333333e-01	 1.010559e+01
1	 6.833333e+00	 4.166667e-01	 1.010680e+01
1	 6.916667e+00	 0.000000e+00	 1.009426e+01
1	 6.916667e+00	 8.333333e-02	 1.009439e+01
1	 6.916667e+00	 1.666667e-01	 1.009477e+01
1	 6.916667e+00	 2.500000e-01	 1.009541e+01
1	 6.916667e+00	 3.333333e-01	 1.009631e+01
1	 6.916667e+00	 4.166667e-01	 1.009747e+01
1	 7.000000e+00	 0.000000e+00	 1.008506e+01
1	 7.000000e+00	 8.333333e-02	 1.008519e+01
1	 7.000000e+00	 1.666667e-01	 1.008556e+01
1	 7.000000e+00	 2.500000e-01	 1.008617e+01
1	 7.000000e+00	 3.333333e-01	 1.008703e+01
1	 7.000000e+00	 4.166667e-01	 1.008815e+01
1	 7.083333e+00	 0.000000e+00	 1.007586e+01
1	 7.083333e+00	 8.333333e-02	 1.007598e+01
1	 7.083333e+00	 1.666667e-01	 1.007633e+01
1	 7.083333e+00	 2.500000e-01	 1.007692e+01
1	 7.083333e+00	 3.333333e-01	 1.007775e+01
1	 7.083333e+00	 4.166667e-01	 1.007882e+01
1	 6.666667e+00	 4.166667e-01	 1.012552e+01
1	 6.666667e+00	 5.000000e-01	 1.012710e+01
1	 6.666667e+00	 5.833333e-01	 1.012890e+01
1	 6.666667e+00	 6.666667e-01	 1.013094e+01
1	 6.666667e+00	 7.500000e-01	 1.013323e+01
1	 6.666667e+00	 8.333333e-01	 1.013579e+01
1	 6.750000e+00	 4.166667e-01	 1.011615e+01
1	 6.750000e+00	 5.000000e-01	 1.011766e+01
1	 6.750000e+00	 5.833333e-01	 1.011939e+01
1	 6.750000e+00	 6.666667e-01	 1.012134e+01
1	 6.750000e+00	 7.500000e-01	 1.012353e+01
1	 6.750000e+00	 8.333333e-01	 1.012598e+01
1	 6.833333e+00	 4.166667e-01	 1.010680e+01
1	 6.833333e+00	 5.000000e-01	 1.010825e+01
1	 6.833333e+00	 5.833333e-01	 1.010990e+01
1	 6.833333e+00	 6.666667e-01	 1.011178e+01
1	 6.833333e+00	 7.500000e-01	 1.011388e+01
1	 6.833333e+00	 8.333333e-01	 1.011623e+01
1	 6.916667e+00	 4.166667e-01	 1.009747e+01
1	 6.916667e+00	 5.000000e-01	 1.009886e+01
1	 6.916667e+00	 5.833333e-01	 1.010045e+01
1	 6.916667e+00	 6.666667e-01	 1.010225e+01
1	 6.916667e+00	 7.500000e-01	 1.010427e+01
1	 6.916667e+00	 8.333333e-01	 1.010652e+01
1	 7.000000e+00	 4.166667e-01	 1.008815e+01
1	 7.000000e+00	 5.000000e-01	 1.008948e+01
1	 7.000000e+00	 5.833333e-01	 1.009101e+01
1	 7.000000e+00	 6.666667e-01	 1.009274e+01
1	 7.000000e+00	 7.500000e-01	 1.009468e+01
1	 7.000000e+00	 8.333333e-01	 1.009685e+01
1	 7.083333e+00	 4.166667e-01	 1.007882e+01
1	 7.083333e+00	 5.000000e-01	 1.008010e+01
1	 7.083333e+00	 5.833333e-01	 1.008157e+01
1	 7.083333e+00	 6.666667e-01	 1.008324e+01
1	 7.083333e+00	 7.500000e-01	 1.008511e+01
1	 7.083333e+00	 8.333333e-01	 1.008720e+01
1	 6.666667e+00	 8.333333e-01	 1.013579e+01
1	 6.666667e+00	 9.166667e-01	 1.013854e+01
1	 6.666667e+00	 1.000000e+00	 1.014139e+01
1	 6.666667e+00	 1.083333e+00	 1.014439e+01
1	 6.666667e+00	 1.166667e+00	 1.014754e+01
1	 6.666667e+00	 1.250000e+00	 1.015088e+01
1	 6.750000e+00	 8.333333e-01	 1.012598e+01
1	 6.750000e+00	 9.166667e-01	 1.012861e+01
1	 6.750000e+00	 1.000000e+00	 1.013136e+01
1	 6.750000e+00	 1.083333e+00	 1.013423e+01
1	 6.750000e+00	 1.166667e+00	 1.013726e+01
1	 6.750000e+00	 1.250000e+00	 1.014047e+01
1	 6.833333e+00	 8.333333e-01	 1.011623e+01
1	 6.833333e+00	 9.166667e-01	 1.011875e+01
1	 6.833333e+00	 1.000000e+00	 1.012139e+01
1	 6.833333e+00	 1.083333e+00	 1.012416e+01
1	 6.833333e+00	 1.166667e+00	 1.012708e+01
1	 6.833333e+00	 1.250000e+00	 1.013017e+01
1	 6.916667e+00	 8.333333e-01	 1.010652e+01
1	 6.916667e+00	 9.166667e-01	 1.010895e+01
1	 6.916667e+00	 1.000000e+00	 1.011149e+01
1	 6.916667e+00	 1.083333e+00	 1.011416e+01
1	 6.916667e+00	 1.166667e+00	 1.011697e+01
1	 6.916667e+00	 1.250000e+00	 1.011996e+01
1	 7.000000e+00	 8.333333e-01	 1.009685e+01
1	 7.000000e+00	 9.166667e-01	 1.009919e+01
1	 7.000000e+00	 1.000000e+00	 1.010163e+01
1	 7.000000e+00	 1.083333e+00	 1.010421e+01
1	 7.000000e+00	 1.166667e+00	 1.010693e+01
1	 7.000000e+00	 1.250000e+00	 1.010981e+01
1	 7.083333e+00	 8.333333e-01	 1.008720e+01
1	 7.083333e+00	 9.166667e-01	 1.008945e+01
1	 7.083333e+00	 1.000000e+00	 1.009181e+01
1	 7.083333e+00	 1.083333e+00	 1.009430e+01
1	 7.083333e+00	 1.166667e+00	 1.009693e+01
1	 7.083333e+00	 1.250000e+00	 1.009972e+01
1	 6.666667e+00	 1.250000e+00	 1.015088e+01
1	 6.666667e+00	 1.333333e+00	 1.015430e+01
1	 6.666667e+00	 1.416667e+00	 1.015772e+01
1	 6.666667e+00	 1.500000e+00	 1.016116e+01
1	 6.666667e+00	 1.583333e+00	 1.016464e+01
1	 6.666667e+00	 1.666667e+00	 1.016820e+01
1	 6.750000e+00	 1.250000e+00	 1.014047e+01
1	 6.750000e+00	 1.333333e+00	 1.014377e+01
1	 6.750000e+00	 1.416667e+00	 1.014707e+01
1	 6.750000e+00	 1.500000e+00	 1.015039e+01
1	 6.750000e+00	 1.583333e+00	 1.015377e+01
1	 6.750000e+00	 1.666667e+00	 1.015722e+01
1	 6.833333e+00	 1.250000e+00	 1.013017e+01
1	 6.833333e+00	 1.333333e+00	 1.013335e+01
1	 6.833333e+00	 1.416667e+00	 1.013654e+01
1	 6.833333e+00	 1.500000e+00	 1.013976e+01
1	 6.833333e+00	 1.583333e+00	 1.014303e+01
1	 6.833333e+00	 1.666667e+00	 1.014637e+01
1	 6.916667e+00	 1.250000e+00	 1.011996e+01
1	 6.916667e+00	 1.333333e+00	 1.012303e+01
1	 6.916667e+00	 1.416667e+00	 1.012611e+01
1	 6.916667e+00	 1.500000e+00	 1.012923e+01
1	 6.916667e+00	 1.583333e+00	 1.013241e+01
1	 6.916667e+00	 1.666667e+00	 1.013566e+01
1	 7.000000e+00	 1.250000e+00	 1.010981e+01
1	 7.000000e+00	 1.333333e+00	 1.011278e+01
1	 7.000000e+00	 1.416667e+00	 1.011577e+01
1	 7.000000e+00	 1.500000e+00	 1.011880e+01
1	 7.000000e+00	 1.583333e+00	 1.012188e+01
1	 7.000000e+00	 1.666667e+00	 1.012504e+01
1	 7.083333e+00	 1.250000e+00	 1.009972e+01
1	 7.083333e+00	 1.333333e+00	 1.010259e+01
1	 7.083333e+00	 1.416667e+00	 1.010549e+01
1	 7.083333e+00	 1.500000e+00	 1.010843e+01
1	 7.083333e+00	 1.583333e+00	 1.011143e+01
1	 7.083333e+00	 1.666667e+00	 1.011451e+01
1	 6.666667e+00	 1.666667e+00	 1.016820e+01
1	 6.666667e+00	 1.750000e+00	 1.017174e+01
1	 6.666667e+00	 1.833333e+00	 1.017517e+01
1	 6.666667e+00	 1.916667e+00	 1.017851e+01
1	 6.666667e+00	 2.000000e+00	 1.018179e+01
1	 6.666667e+00	 2.083333e+00	 1.018503e+01
1	 6.750000e+00	 1.666667e+00	 1.015722e+01
1	 6.750000e+00	 1.750000e+00	 1.016065e+01
1	 6.750000e+00	 1.833333e+00	 1.016399e+01
1	 6.750000e+00	 1.916667e+00	 1.016725e+01
1	 6.750000e+00	 2.000000e+00	 1.017046e+01
1	 6.750000e+00	 2.083333e+00	 1.017363e+01
1	 6.833333e+00	 1.666667e+00	 1.014637e+01
1	 6.833333e+00	 1.750000e+00	 1.014971e+01
1	 6.833333e+00	 1.833333e+00	 1.015297e+01
1	 6.833333e+00	 1.916667e+00	 1.015615e+01
1	 6.833333e+00	 2.000000e+00	 1.015929e+01
1	 6.833333e+00	 2.083333e+00	 1.016240e+01
1	 6.916667e+00	 1.666667e+00	 1.013566e+01
1	 6.916667e+00	 1.750000e+00	 1.013891e+01
1	 6.916667e+00	 1.833333e+00	 1.014208e+01
1	 6.916667e+00	 1.916667e+00	 1.014519e+01
1	 6.916667e+00	 2.000000e+00	 1.014827e+01
1	 6.916667e+00	 2.083333e+00	 1.015132e+01
1	 7.000000e+00	 1.666667e+00	 1.012504e+01
1	 7.000000e+00	 1.750000e+00	 1.012821e+01
1	 7.000000e+00	 1.833333e+00	 1.013130e+01
1	 7.000000e+00	 1.916667e+00	 1.013435e+01
1	 7.000000e+00	 2.000000e+00	 1.013737e+01
1	 7.000000e+00	 2.083333e+00	 1.014037e+01
1	 7.083333e+00	 1.666667e+00	 1.011451e+01
1	 7.083333e+00	 1.750000e+00	 1.011760e+01
1	 7.083333e+00	 1.833333e+00	 1.012063e+01
1	 7.083333e+00	 1.916667e+00	 1.012361e+01
1	 7.083333e+00	 2.000000e+00	 1.012658e+01
1	 7.083333e+00	 2.083333e+00	 1.012953e+01
1	 6.666667e+00	 2.083333e+00	 1.018503e+01
1	 6.666667e+00	 2.166667e+00	 1.018815e+01
1	 6.666667e+00	 2.250000e+00	 1.019109e+01
1	 6.666667e+00	 2.333333e+00	 1.019385e+01
1	 6.666667e+00	 2.416667e+00	 1.019646e+01
1	 6.666667e+00	 2.500000e+00	 1.019894e+01
1	 6.750000e+00	 2.083333e+00	 1.017363e+01
1	 6.750000e+00	 2.166667e+00	 1.017670e+01
1	 6.750000e+00	 2.250000e+00	 1.017960e+01
1	 6.750000e+00	 2.333333e+00	 1.018234e+01
1	 6.750000e+00	 2.416667e+00	 1.018494e+01
1	 6.750000e+00	 2.500000e+00	 1.018741e+01
1	 6.833333e+00	 2.083333e+00	 1.016240e+01
1	 6.833333e+00	 2.166667e+00	 1.016542e+01
1	 6.833333e+00	 2.250000e+00	 1.016828e+01
1	 6.833333e+00	 2.333333e+00	 1.017100e+01
1	 6.833333e+00	 2.416667e+00	 1.017359e+01
1	 6.833333e+00	 2.500000e+00	 1.017606e+01
1	 6.916667e+00	 2.083333e+00	 1.015132e+01
1	 6.916667e+00	 2.166667e+00	 1.015430e+01
1	 6.916667e+00	 2.250000e+00	 1.015712e+01
1	 6.916667e+00	 2.333333e+00	 1.015982e+01
1	 6.916667e+00	 2.416667e+00	 1.016239e+01
1	 6.916667e+00	 2.500000e+00	 1.016487e+01
1	 7.000000e+00	 2.083333e+00	 1.014037e+01
1	 7.000000e+00	 2.166667e+00	 1.014330e+01
1	 7.000000e+00	 2.250000e+00	 1.014610e+01
1	 7.000000e+00	 2.333333e+00	 1.014877e+01
1	 7.000000e+00	 2.416667e+00	 1.015134e+01
1	 7.000000e+00	 2.500000e+00	 1.015381e+01
1	 7.083333e+00	 2.083333e+00	 1.012953e+01
1	 7.083333e+00	 2.166667e+00	 1.013242e+01
1	 7.083333e+00	 2.250000e+00	 1.013519e+01
1	 7.083333e+00	 2.333333e+00	 1.013784e+01
1	 7.083333e+00	 2.416667e+00	 1.014040e+01
1	 7.083333e+00	 2.500000e+00	 1.014288e+01
1	 6.666667e+00	 2.500000e+00	 1.019894e+01
1	 6.666667e+00	 2.583333e+00	 1.020123e+01
1	 6.666667e+00	 2.666667e+00	 1.020330e+01
1	 6.666667e+00	 2.750000e+00	 1.020514e+01
1	 6.666667e+00	 2.833333e+00	 1.020677e+01
1	 6.666667e+00	 2.916667e+00	 1.020820e+01
1	 6.750000e+00	 2.500000e+00	 1.018741e+01
1	 6.750000e+00	 2.583333e+00	 1.018972e+01
1	 6.750000e+00	 2.666667e+00	 1.019181e+01
1	 6.750000e+00	 2.750000e+00	 1.019369e+01
1	 6.750000e+00	 2.833333e+00	 1.019538e+01
1	 6.750000e+00	 2.916667e+00	 1.019688e+01
1	 6.833333e+00	 2.500000e+00	 1.017606e+01
1	 6.833333e+00	 2.583333e+00	 1.017838e+01
1	 6.833333e+00	 2.666667e+00	 1.018050e+01
1	 6.833333e+00	 2.750000e+00	 1.018242e+01
1	 6.833333e+00	 2.833333e+00	 1.018416e+01
1	 6.833333e+00	 2.916667e+00	 1.018572e+01
1	 6.916667e+00	 2.500000e+00	 1.016487e+01
1	 6.916667e+00	 2.583333e+00	 1.016720e+01
1	 6.916667e+00	 2.666667e+00	 1.016934e+01
1	 6.916667e+00	 2.750000e+00	 1.017130e+01
1	 6.916667e+00	 2.833333e+00	 1.017308e+01
1	 6.916667e+00	 2.916667e+00	 1.017471e+01
1	 7.000000e+00	 2.500000e+00	 1.015381e+01
1	 7.000000e+00	 2.583333e+00	 1.015615e+01
1	 7.000000e+00	 2.666667e+00	 1.015832e+01
1	 7.000000e+00	 2.750000e+00	 1.016031e+01
1	 7.000000e+00	 2.833333e+00	 1.016214e+01
1	 7.000000e+00	 2.916667e+00	 1.016383e+01
1	 7.083333e+00	 2.500000e+00	 1.014288e+01
1	 7.083333e+00	 2.583333e+00	 1.014523e+01
1	 7.083333e+00	 2.666667e+00	 1.014741e+01
1	 7.083333e+00	 2.750000e+00	 1.014944e+01
1	 7.083333e+00	 2.833333e+00	 1.015132e+01
1	 7.083333e+00	 2.916667e+00	 1.015306e+01
1	 6.666667e+00	 2.916667e+00	 1.020820e+01
1	 6.666667e+00	 3.000000e+00	 1.020941e+01
1	 6.666667e+00	 3.083333e+00	 1.021038e+01
1	 6.666667e+00	 3.166667e+00	 1.021111e+01
1	 6.666667e+00	 3.250000e+00	 1.021161e+01
1	 6.666667e+00	 3.333333e+00	 1.021188e+01
1	 6.750000e+00	 2.916667e+00	 1.019688e+01
1	 6.750000e+00	 3.000000e+00	 1.019818e+01
1	 6.750000e+00	 3.083333e+00	 1.019924e+01
1	 6.750000e+00	 3.166667e+00	 1.020008e+01
1	 6.750000e+00	 3.250000e+00	 1.020070e+01
1	 6.750000e+00	 3.333333e+00	 1.020110e+01
1	 6.833333e+00	 2.916667e+00	 1.018572e+01
1	 6.833333e+00	 3.000000e+00	 1.018709e+01
1	 6.833333e+00	 3.083333e+00	 1.018825e+01
1	 6.833333e+00	 3.166667e+00	 1.018919e+01
1	 6.833333e+00	 3.250000e+00	 1.018992e+01
1	 6.833333e+00	 3.333333e+00	 1.019044e+01
1	 6.916667e+00	 2.916667e+00	 1.017471e+01
1	 6.916667e+00	 3.000000e+00	 1.017615e+01
1	 6.916667e+00	 3.083333e+00	 1.017739e+01
1	 6.916667e+00	 3.166667e+00	 1.017842e+01
1	 6.916667e+00	 3.250000e+00	 1.017926e+01
1	 6.916667e+00	 3.333333e+00	 1.017991e+01
1	 7.000000e+00	 2.916667e+00	 1.016383e+01
1	 7.000000e+00	 3.000000e+00	 1.016534e+01
1	 7.000000e+00	 3.083333e+00	 1.016666e+01
1	 7.000000e+00	 3.166667e+00	 1.016778e+01
1	 7.000000e+00	 3.250000e+00	 1.016872e+01
1	 7.000000e+00	 3.333333e+00	 1.016948e+01
1	 7.083333e+00	 2.916667e+00	 1.015306e+01
1	 7.083333e+00	 3.000000e+00	 1.015464e+01
1	 7.083333e+00	 3.083333e+00	 1.015604e+01
1	 7.083333e+00	 3.166667e+00	 1.015725e+01
1	 7.083333e+00	 3.250000e+00	 1.015829e+01
1	 7.083333e+00	 3.333333e+00	 1.015915e+01
1	 6.666667e+00	 3.333333e+00	 1.021188e+01
1	 6.666667e+00	 3.416667e+00	 1.021193e+01
1	 6.666667e+00	 3.500000e+00	 1.021175e+01
1	 6.666667e+00	 3.583333e+00	 1.021134e+01
1	 6.666667e+00	 3.666667e+00	 1.021070e+01
1	 6.666667e+00	 3.750000e+00	 1.020984e+01
1	 6.750000e+00	 3.333333e+00	 1.020110e+01
1	 6.750000e+00	 3.416667e+00	 1.020129e+01
1	 6.750000e+00	 3.500000e+00	 1.020126e+01
1	 6.750000e+00	 3.583333e+00	 1.020101e+01
1	 6.750000e+00	 3.666667e+00	 1.020055e+01
1	 6.750000e+00	 3.750000e+00	 1.019986e+01
1	 6.833333e+00	 3.333333e+00	 1.019044e+01
1	 6.833333e+00	 3.416667e+00	 1.019077e+01
1	 6.833333e+00	 3.500000e+00	 1.019088e+01
1	 6.833333e+00	 3.583333e+00	 1.019078e+01
1	 6.833333e+00	 3.666667e+00	 1.019048e+01
1	 6.833333e+00	 3.750000e+00	 1.018997e+01
1	 6.916667e+00	 3.333333e+00	 1.017991e+01
1	 6.916667e+00	 3.416667e+00	 1.018036e+01
1	 6.916667e+00	 3.500000e+00	 1.018061e+01
1	 6.916667e+00	 3.583333e+00	 1.018066e+01
1	 6.916667e+00	 3.666667e+00	 1.018051e+01
1	 6.916667e+00	 3.750000e+00	 1.018016e+01
1	 7.000000e+00	 3.333333e+00	 1.016948e+01
1	 7.000000e+00	 3.416667e+00	 1.017005e+01
1	 7.000000e+00	 3.500000e+00	 1.017043e+01
1	 7.000000e+00	 3.583333e+00	 1.017062e+01
1	 7.000000e+00	 3.666667e+00	 1.017062e+01
1	 7.000000e+00	 3.750000e+00	 1.017043e+01
1	 7.083333e+00	 3.333333e+00	 1.015915e+01
1	 7.083333e+00	 3.416667e+00	 1.015984e+01
1	 7.083333e+00	 3.500000e+00	 1.016035e+01
1	 7.083333e+00	 3.583333e+00	 1.016068e+01
1	 7.083333e+00	 3.666667e+00	 1.016082e+01
1	 7.083333e+00	 3.750000e+00	 1.016078e+01
1	 6.666667e+00	 3.750000e+00	 1.020984e+01
1	 6.666667e+00	 3.833333e+00	 1.020877e+01
1	 6.666667e+00	 3.916667e+00	 1.020751e+01
1	 6.666667e+00	 4.000000e+00	 1.020605e+01
1	 6.666667e+00	 4.083333e+00	 1.020439e+01
1	 6.666667e+00	 4.166667e+00	 1.020252e+01
1	 6.750000e+00	 3.750000e+00	 1.019986e+01
1	 6.750000e+00	 3.833333e+00	 1.019898e+01
1	 6.750000e+00	 3.916667e+00	 1.019791e+01
1	 6.750000e+00	 4.000000e+00	 1.019665e+01
1	 6.750000e+00	 4.083333e+00	 1.019519e+01
1	 6.750000e+00	 4.166667e+00	 1.019354e+01
1	 6.833333e+00	 3.750000e+00	 1.018997e+01
1	 6.833333e+00	 3.833333e+00	 1.018927e+01
1	 6.833333e+00	 3.916667e+00	 1.018838e+01
1	 6.833333e+00	 4.000000e+00	 1.018731e+01
1	 6.833333e+00	 4.083333e+00	 1.018605e+01
1	 6.833333e+00	 4.166667e+00	 1.018460e+01
1	 6.916667e+00	 3.750000e+00	 1.018016e+01
1	 6.916667e+00	 3.833333e+00	 1.017963e+01
1	 6.916667e+00	 3.916667e+00	 1.017892e+01
1	 6.916667e+00	 4.000000e+00	 1.017803e+01
1	 6.916667e+00	 4.083333e+00	 1.017695e+01
1	 6.916667e+00	 4.166667e+00	 1.017570e+01
1	 7.000000e+00	 3.750000e+00	 1.017043e+01
1	 7.000000e+00	 3.833333e+00	 1.017006e+01
1	 7.000000e+00	 3.916667e+00	 1.016952e+01
1	 7.000000e+00	 4.000000e+00	 1.016881e+01
1	 7.000000e+00	 4.083333e+00	 1.016792e+01
1	 7.000000e+00	 4.166667e+00	 1.016685e+01
1	 7.083333e+00	 3.750000e+00	 1.016078e+01
1	 7.083333e+00	 3.833333e+00	 1.016057e+01
1	 7.083333e+00	 3.916667e+00	 1.016020e+01
1	 7.083333e+00	 4.000000e+00	 1.015965e+01
1	 7.083333e+00	 4.083333e+00	 1.015894e+01
1	 7.083333e+00	 4.166667e+00	 1.015806e+01
1	 6.666667e+00	 4.166667e+00	 1.020252e+01
1	 6.666667e+00	 4.250000e+00	 1.020048e+01
1	 6.666667e+00	 4.333333e+00	 1.019829e+01
1	 6.666667e+00	 4.416667e+00	 1.019595e+01
1	 6.666667e+00	 4.500000e+00	 1.019344e+01
1	 6.666667e+00	 4.583333e+00	 1.019077e+01
1	 6.750000e+00	 4.166667e+00	 1.019354e+01
1	 6.750000e+00	 4.250000e+00	 1.019171e+01
1	 6.750000e+00	 4.333333e+00	 1.018974e+01
1	 6.750000e+00	 4.416667e+00	 1.018761e+01
1	 6.750000e+00	 4.500000e+00	 1.018533e+01
1	 6.750000e+00	 4.583333e+00	 1.018288e+01
1	 6.833333e+00	 4.166667e+00	 1.018460e+01
1	 6.833333e+00	 4.250000e+00	 1.018298e+01
1	 6.833333e+00	 4.333333e+00	 1.018121e+01
1	 6.833333e+00	 4.416667e+00	 1.017930e+01
1	 6.833333e+00	 4.500000e+00	 1.017723e+01
1	 6.833333e+00	 4.583333e+00	 1.017499e+01
1	 6.916667e+00	 4.166667e+00	 1.017570e+01
1	 6.916667e+00	 4.250000e+00	 1.017428e+01
1	 6.916667e+00	 4.333333e+00	 1.017271e+01
1	 6.916667e+00	 4.416667e+00	 1.017100e+01
1	 6.916667e+00	 4.500000e+00	 1.016914e+01
1	 6.916667e+00	 4.583333e+00	 1.016712e+01
1	 7.000000e+00	 4.166667e+00	 1.016685e+01
1	 7.000000e+00	 4.250000e+00	 1.016562e+01
1	 7.000000e+00	 4.333333e+00	 1.016425e+01
1	 7.000000e+00	 4.416667e+00	 1.016274e+01
1	 7.000000e+00	 4.500000e+00	 1.016108e+01
1	 7.000000e+00	 4.583333e+00	 1.015926e+01
1	 7.083333e+00	 4.166667e+00	 1.015806e+01
1	 7.083333e+00	 4.250000e+00	 1.015701e+01
1	 7.083333e+00	 4.333333e+00	 1.015584e+01
1	 7.083333e+00	 4.416667e+00	 1.015452e+01
1	 7.083333e+00	 4.500000e+00	 1.015305e+01
1	 7.083333e+00	 4.583333e+00	 1.015143e+01
1	 6.666667e+00	 4.583333e+00	 1.019077e+01
1	 6.666667e+00	 4.666667e+00	 1.018796e+01
1	 6.666667e+00	 4.750000e+00	 1.018504e+01
1	 6.666667e+00	 4.833333e+00	 1.018200e+01
1	 6.666667e+00	 4.916667e+00	 1.017885e+01
1	 6.666667e+00	 5.000000e+00	 1.017556e+01
1	 6.750000e+00	 4.583333e+00	 1.018288e+01
1	 6.750000e+00	 4.666667e+00	 1.018029e+01
1	 6.750000e+00	 4.750000e+00	 1.017760e+01
1	 6.750000e+00	 4.833333e+00	 1.017479e+01
1	 6.750000e+00	 4.916667e+00	 1.017186e+01
1	 6.750000e+00	 5.000000e+00	 1.016880e+01
1	 6.833333e+00	 4.583333e+00	 1.017499e+01
1	 6.833333e+00	 4.666667e+00	 1.017263e+01
1	 6.833333e+00	 4.750000e+00	 1.017015e+01
1	 6.833333e+00	 4.833333e+00	 1.016756e+01
1	 6.833333e+00	 4.916667e+00	 1.016485e+01
1	 6.833333e+00	 5.000000e+00	 1.016201e+01
1	 6.916667e+00	 4.583333e+00	 1.016712e+01
1	 6.916667e+00	 4.666667e+00	 1.016496e+01
1	 6.916667e+00	 4.750000e+00	 1.016270e+01
1	 6.916667e+00	 4.833333e+00	 1.016032e+01
1	 6.916667e+00	 4.916667e+00	 1.015782e+01
1	 6.916667e+00	 5.000000e+00	 1.015519e+01
1	 7.000000e+00	 4.583333e+00	 1.015926e+01
1	 7.000000e+00	 4.666667e+00	 1.015731e+01
1	 7.000000e+00	 4.750000e+00	 1.015526e+01
1	 7.000000e+00	 4.833333e+00	 1.015308e+01
1	 7.000000e+00	 4.916667e+00	 1.015079e+01
1	 7.000000e+00	 5.000000e+00	 1.014837e+01
1	 7.083333e+00	 4.583333e+00	 1.015143e+01
1	 7.083333e+00	 4.666667e+00	 1.014969e+01
1	 7.083333e+00	 4.750000e+00	 1.014783e+01
1	 7.083333e+00	 4.833333e+00	 1.014586e+01
1	 7.083333e+00	 4.916667e+00	 1.014377e+01
1	 7.083333e+00	 5.000000e+00	 1.014156e+01
1	 7.083333e+00	 0.000000e+00	 1.007586e+01
1	 7.083333e+00	 8.333333e-02	 1.007598e+01
1	 7.083333e+00	 1.666667e-01	 1.007633e+01
1	 7.083333e+00	 2.500000e-01	 1.007692e+01
1	 7.083333e+00	 3.333333e-01	 1.007775e+01
1	 7.083333e+00	 4.166667e-01	 1.007882e+01
1	 7.166667e+00	 0.000000e+00	 1.006663e+01
1	 7.166667e+00	 8.333333e-02	 1.006675e+01
1	 7.166667e+00	 1.666667e-01	 1.006709e+01
1	 7.166667e+00	 2.500000e-01	 1.006765e+01
1	 7.166667e+00	 3.333333e-01	 1.006845e+01
1	 7.166667e+00	 4.166667e-01	 1.006948e+01
1	 7.250000e+00	 0.000000e+00	 1.005736e+01
1	 7.250000e+00	 8.333333e-02	 1.005748e+01
1	 7.250000e+00	 1.666667e-01	 1.005780e+01
1	 7.250000e+00	 2.500000e-01	 1.005835e+01
1	 7.250000e+00	 3.333333e-01	 1.005912e+01
1	 7.250000e+00	 4.166667e-01	 1.006011e+01
1	 7.333333e+00	 0.000000e+00	 1.004805e+01
1	 7.333333e+00	 8.333333e-02	 1.004816e+01
1	 7.333333e+00	 1.666667e-01	 1.004848e+01
1	 7.333333e+00	 2.500000e-01	 1.004900e+01
1	 7.333333e+00	 3.333333e-01	 1.004975e+01
1	 7.333333e+00	 4.166667e-01	 1.005071e+01
1	 7.416667e+00	 0.000000e+00	 1.003868e+01
1	 7.416667e+00	 8.333333e-02	 1.003879e+01
1	 7.416667e+00	 1.666667e-01	 1.003909e+01
1	 7.416667e+00	 2.500000e-01	 1.003960e+01
1	 7.416667e+00	 3.333333e-01	 1.004032e+01
1	 7.416667e+00	 4.166667e-01	 1.004125e+01
1	 7.500000e+00	 0.000000e+00	 1.002925e+01
1	 7.500000e+00	 8.333333e-02	 1.002935e+01
1	 7.500000e+00	 1.666667e-01	 1.002965e+01
1	 7.500000e+00	 2.500000e-01	 1.003014e+01
1	 7.500000e+00	 3.333333e-01	 1.003084e+01
1	 7.500000e+00	 4.166667e-01	 1.003174e+01
1	 7.083333e+00	 4.166667e-01	 1.007882e+01
1	 7.083333e+00	 5.000000e-01	 1.008010e+01
1	 7.083333e+00	 5.833333e-01	 1.008157e+01
1	 7.083333e+00	 6.666667e-01	 1.008324e+01
1	 7.083333e+00	 7.500000e-01	 1.008511e+01
1	 7.083333e+00	 8.333333e-01	 1.008720e+01
1	 7.166667e+00	 4.166667e-01	 1.006948e+01
1	 7.166667e+00	 5.000000e-01	 1.007071e+01
1	 7.166667e+00	 5.833333e-01	 1.007213e+01
1	 7.166667e+00	 6.666667e-01	 1.007374e+01
1	 7.166667e+00	 7.500000e-01	 1.007554e+01
1	 7.166667e+00	 8.333333e-01	 1.007756e+01
1	 7.250000e+00	 4.166667e-01	 1.006011e+01
1	 7.250000e+00	 5.000000e-01	 1.006130e+01
1	 7.250000e+00	 5.833333e-01	 1.006267e+01
1	 7.250000e+00	 6.666667e-01	 1.006422e+01
1	 7.250000e+00	 7.500000e-01	 1.006597e+01
1	 7.250000e+00	 8.333333e-01	 1.006792e+01
1	 7.333333e+00	 4.166667e-01	 1.005071e+01
1	 7.333333e+00	 5.000000e-01	 1.005186e+01
1	 7.333333e+00	 5.833333e-01	 1.005318e+01
1	 7.333333e+00	 6.666667e-01	 1.005468e+01
1	 7.333333e+00	 7.500000e-01	 1.005638e+01
1	 7.333333e+00	 8.333333e-01	 1.005826e+01
1	 7.416667e+00	 4.166667e-01	 1.004125e+01
1	 7.416667e+00	 5.000000e-01	 1.004237e+01
1	 7.416667e+00	 5.833333e-01	 1.004365e+01
1	 7.416667e+00	 6.666667e-01	 1.004511e+01
1	 7.416667e+00	 7.500000e-01	 1.004675e+01
1	 7.416667e+00	 8.333333e-01	 1.004858e+01
1	 7.500000e+00	 4.166667e-01	 1.003174e+01
1	 7.500000e+00	 5.000000e-01	 1.003283e+01
1	 7.500000e+00	 5.833333e-01	 1.003407e+01
1	 7.500000e+00	 6.666667e-01	 1.003549e+01
1	 7.500000e+00	 7.500000e-01	 1.003709e+01
1	 7.500000e+00	 8.333333e-01	 1.003887e+01
1	 7.083333e+00	 8.333333e-01	 1.008720e+01
1	 7.083333e+00	 9.166667e-01	 1.008945e+01
1	 7.083333e+00	 1.000000e+00	 1.009181e+01
1	 7.083333e+00	 1.083333e+00	 1.009430e+01
1	 7.083333e+00	 1.166667e+00	 1.009693e+01
1	 7.083333e+00	 1.250000e+00	 1.009972e+01
1	 7.166667e+00	 8.333333e-01	 1.007756e+01
1	 7.166667e+00	 9.166667e-01	 1.007973e+01
1	 7.166667e+00	 1.000000e+00	 1.008202e+01
1	 7.166667e+00	 1.083333e+00	 1.008442e+01
1	 7.166667e+00	 1.166667e+00	 1.008697e+01
1	 7.166667e+00	 1.250000e+00	 1.008967e+01
1	 7.250000e+00	 8.333333e-01	 1.006792e+01
1	 7.250000e+00	 9.166667e-01	 1.007002e+01
1	 7.250000e+00	 1.000000e+00	 1.007223e+01
1	 7.250000e+00	 1.083333e+00	 1.007457e+01
1	 7.250000e+00	 1.166667e+00	 1.007704e+01
1	 7.250000e+00	 1.250000e+00	 1.007966e+01
1	 7.333333e+00	 8.333333e-01	 1.005826e+01
1	 7.333333e+00	 9.166667e-01	 1.006030e+01
1	 7.333333e+00	 1.000000e+00	 1.006245e+01
1	 7.333333e+00	 1.083333e+00	 1.006472e+01
1	 7.333333e+00	 1.166667e+00	 1.006712e+01
1	 7.333333e+00	 1.250000e+00	 1.006967e+01
1	 7.416667e+00	 8.333333e-01	 1.004858e+01
1	 7.416667e+00	 9.166667e-01	 1.005057e+01
1	 7.416667e+00	 1.000000e+00	 1.005265e+01
1	 7.416667e+00	 1.083333e+00	 1.005486e+01
1	 7.416667e+00	 1.166667e+00	 1.005720e+01
1	 7.416667e+00	 1.250000e+00	 1.005968e+01
1	 7.500000e+00	 8.333333e-01	 1.003887e+01
1	 7.500000e+00	 9.166667e-01	 1.004080e+01
1	 7.500000e+00	 1.000000e+00	 1.004283e+01
1	 7.500000e+00	 1.083333e+00	 1.004499e+01
1	 7.500000e+00	 1.166667e+00	 1.004727e+01
1	 7.500000e+00	 1.250000e+00	 1.004970e+01
1	 7.083333e+00	 1.250000e+00	 1.009972e+01
1	 7.083333e+00	 1.333333e+00	 1.010259e+01
1	 7.083333e+00	 1.416667e+00	 1.010549e+01
1	 7.083333e+00	 1.500000e+00	 1.010843e+01
1	 7.083333e+00	 1.583333e+00	 1.011143e+01
1	 7.083333e+00	 1.666667e+00	 1.011451e+01
1	 7.166667e+00	 1.250000e+00	 1.008967e+01
1	 7.166667e+00	 1.333333e+00	 1.009246e+01
1	 7.166667e+00	 1.416667e+00	 1.009527e+01
1	 7.166667e+00	 1.500000e+00	 1.009814e+01
1	 7.166667e+00	 1.583333e+00	 1.010106e+01
1	 7.166667e+00	 1.666667e+00	 1.010406e+01
1	 7.250000e+00	 1.250000e+00	 1.007966e+01
1	 7.250000e+00	 1.333333e+00	 1.008237e+01
1	 7.250000e+00	 1.416667e+00	 1.008511e+01
1	 7.250000e+00	 1.500000e+00	 1.008790e+01
1	 7.250000e+00	 1.583333e+00	 1.009075e+01
1	 7.250000e+00	 1.666667e+00	 1.009368e+01
1	 7.333333e+00	 1.250000e+00	 1.006967e+01
1	 7.333333e+00	 1.333333e+00	 1.007230e+01
1	 7.333333e+00	 1.416667e+00	 1.007498e+01
1	 7.333333e+00	 1.500000e+00	 1.007771e+01
1	 7.333333e+00	 1.583333e+00	 1.008050e+01
1	 7.333333e+00	 1.666667e+00	 1.008337e+01
1	 7.416667e+00	 1.250000e+00	 1.005968e+01
1	 7.416667e+00	 1.333333e+00	 1.006226e+01
1	 7.416667e+00	 1.416667e+00	 1.006487e+01
1	 7.416667e+00	 1.500000e+00	 1.006754e+01
1	 7.416667e+00	 1.583333e+00	 1.007028e+01
1	 7.416667e+00	 1.666667e+00	 1.007309e+01
1	 7.500000e+00	 1.250000e+00	 1.004970e+01
1	 7.500000e+00	 1.333333e+00	 1.005221e+01
1	 7.500000e+00	 1.416667e+00	 1.005477e+01
1	 7.500000e+00	 1.500000e+00	 1.005739e+01
1	 7.500000e+00	 1.583333e+00	 1.006007e+01
1	 7.500000e+00	 1.666667e+00	 1.006284e+01
1	 7.083333e+00	 1.666667e+00	 1.011451e+01
1	 7.083333e+00	 1.750000e+00	 1.011760e+01
1	 7.083333e+00	 1.833333e+00	 1.012063e+01
1	 7.083333e+00	 1.916667e+00	 1.012361e+01
1	 7.083333e+00	 2.000000e+00	 1.012658e+01
1	 7.083333e+00	 2.083333e+00	 1.012953e+01
1	 7.166667e+00	 1.666667e+00	 1.010406e+01
1	 7.166667e+00	 1.750000e+00	 1.010707e+01
1	 7.166667e+00	 1.833333e+00	 1.011004e+01
1	 7.166667e+00	 1.916667e+00	 1.011297e+01
1	 7.166667e+00	 2.000000e+00	 1.011588e+01
1	 7.166667e+00	 2.083333e+00	 1.011879e+01
1	 7.250000e+00	 1.666667e+00	 1.009368e+01
1	 7.250000e+00	 1.750000e+00	 1.009663e+01
1	 7.250000e+00	 1.833333e+00	 1.009954e+01
1	 7.250000e+00	 1.916667e+00	 1.010242e+01
1	 7.250000e+00	 2.000000e+00	 1.010529e+01
1	 7.250000e+00	 2.083333e+00	 1.010816e+01
1	 7.333333e+00	 1.666667e+00	 1.008337e+01
1	 7.333333e+00	 1.750000e+00	 1.008626e+01
1	 7.333333e+00	 1.833333e+00	 1.008912e+01
1	 7.333333e+00	 1.916667e+00	 1.009195e+01
1	 7.333333e+00	 2.000000e+00	 1.009478e+01
1	 7.333333e+00	 2.083333e+00	 1.009762e+01
1	 7.416667e+00	 1.666667e+00	 1.007309e+01
1	 7.416667e+00	 1.750000e+00	 1.007593e+01
1	 7.416667e+00	 1.833333e+00	 1.007874e+01
1	 7.416667e+00	 1.916667e+00	 1.008154e+01
1	 7.416667e+00	 2.000000e+00	 1.008434e+01
1	 7.416667e+00	 2.083333e+00	 1.008715e+01
1	 7.500000e+00	 1.666667e+00	 1.006284e+01
1	 7.500000e+00	 1.750000e+00	 1.006564e+01
1	 7.500000e+00	 1.833333e+00	 1.006841e+01
1	 7.500000e+00	 1.916667e+00	 1.007118e+01
1	 7.500000e+00	 2.000000e+00	 1.007395e+01
1	 7.500000e+00	 2.083333e+00	 1.007673e+01
1	 7.083333e+00	 2.083333e+00	 1.012953e+01
1	 7.083333e+00	 2.166667e+00	 1.013242e+01
1	 7.083333e+00	 2.250000e+00	 1.013519e+01
1	 7.083333e+00	 2.333333e+00	 1.013784e+01
1	 7.083333e+00	 2.416667e+00	 1.014040e+01
1	 7.083333e+00	 2.500000e+00	 1.014288e+01
1	 7.166667e+00	 2.083333e+00	 1.011879e+01
1	 7.166667e+00	 2.166667e+00	 1.012165e+01
1	 7.166667e+00	 2.250000e+00	 1.012439e+01
1	 7.166667e+00	 2.333333e+00	 1.012703e+01
1	 7.166667e+00	 2.416667e+00	 1.012958e+01
1	 7.166667e+00	 2.500000e+00	 1.013206e+01
1	 7.250000e+00	 2.083333e+00	 1.010816e+01
1	 7.250000e+00	 2.166667e+00	 1.011099e+01
1	 7.250000e+00	 2.250000e+00	 1.011370e+01
1	 7.250000e+00	 2.333333e+00	 1.011633e+01
1	 7.250000e+00	 2.416667e+00	 1.011888e+01
1	 7.250000e+00	 2.500000e+00	 1.012136e+01
1	 7.333333e+00	 2.083333e+00	 1.009762e+01
1	 7.333333e+00	 2.166667e+00	 1.010042e+01
1	 7.333333e+00	 2.250000e+00	 1.010312e+01
1	 7.333333e+00	 2.333333e+00	 1.010574e+01
1	 7.333333e+00	 2.416667e+00	 1.010829e+01
1	 7.333333e+00	 2.500000e+00	 1.011078e+01
1	 7.416667e+00	 2.083333e+00	 1.008715e+01
1	 7.416667e+00	 2.166667e+00	 1.008992e+01
1	 7.416667e+00	 2.250000e+00	 1.009261e+01
1	 7.416667e+00	 2.333333e+00	 1.009523e+01
1	 7.416667e+00	 2.416667e+00	 1.009778e+01
1	 7.416667e+00	 2.500000e+00	 1.010028e+01
1	 7.500000e+00	 2.083333e+00	 1.007673e+01
1	 7.500000e+00	 2.166667e+00	 1.007949e+01
1	 7.500000e+00	 2.250000e+00	 1.008217e+01
1	 7.500000e+00	 2.333333e+00	 1.008479e+01
1	 7.500000e+00	 2.416667e+00	 1.008735e+01
1	 7.500000e+00	 2.500000e+00	 1.008986e+01
1	 7.083333e+00	 2.500000e+00	 1.014288e+01
1	 7.083333e+00	 2.583333e+00	 1.014523e+01
1	 7.083333e+00	 2.666667e+00	 1.014741e+01
1	 7.083333e+00	 2.750000e+00	 1.014944e+01
1	 7.083333e+00	 2.833333e+00	 1.015132e+01
1	 7.083333e+00	 2.916667e+00	 1.015306e+01
1	 7.166667e+00	 2.500000e+00	 1.013206e+01
1	 7.166667e+00	 2.583333e+00	 1.013442e+01
1	 7.166667e+00	 2.666667e+00	 1.013663e+01
1	 7.166667e+00	 2.750000e+00	 1.013869e+01
1	 7.166667e+00	 2.833333e+00	 1.014062e+01
1	 7.166667e+00	 2.916667e+00	 1.014242e+01
1	 7.250000e+00	 2.500000e+00	 1.012136e+01
1	 7.250000e+00	 2.583333e+00	 1.012374e+01
1	 7.250000e+00	 2.666667e+00	 1.012598e+01
1	 7.250000e+00	 2.750000e+00	 1.012807e+01
1	 7.250000e+00	 2.833333e+00	 1.013004e+01
1	 7.250000e+00	 2.916667e+00	 1.013189e+01
1	 7.333333e+00	 2.500000e+00	 1.011078e+01
1	 7.333333e+00	 2.583333e+00	 1.011317e+01
1	 7.333333e+00	 2.666667e+00	 1.011543e+01
1	 7.333333e+00	 2.750000e+00	 1.011757e+01
1	 7.333333e+00	 2.833333e+00	 1.011958e+01
1	 7.333333e+00	 2.916667e+00	 1.012149e+01
1	 7.416667e+00	 2.500000e+00	 1.010028e+01
1	 7.416667e+00	 2.583333e+00	 1.010270e+01
1	 7.416667e+00	 2.666667e+00	 1.010498e+01
1	 7.416667e+00	 2.750000e+00	 1.010716e+01
1	 7.416667e+00	 2.833333e+00	 1.010922e+01
1	 7.416667e+00	 2.916667e+00	 1.011118e+01
1	 7.500000e+00	 2.500000e+00	 1.008986e+01
1	 7.500000e+00	 2.583333e+00	 1.009230e+01
1	 7.500000e+00	 2.666667e+00	 1.009462e+01
1	 7.500000e+00	 2.750000e+00	 1.009683e+01
1	 7.500000e+00	 2.833333e+00	 1.009894e+01
1	 7.500000e+00	 2.916667e+00	 1.010096e+01
1	 7.083333e+00	 2.916667e+00	 1.015306e+01
1	 7.083333e+00	 3.000000e+00	 1.015464e+01
1	 7.083333e+00	 3.083333e+00	 1.015604e+01
1	 7.083333e+00	 3.166667e+00	 1.015725e+01
1	 7.083333e+00	 3.250000e+00	 1.015829e+01
1	 7.083333e+00	 3.333333e+00	 1.015915e+01
1	 7.166667e+00	 2.916667e+00	 1.014242e+01
1	 7.166667e+00	 3.000000e+00	 1.014406e+01
1	 7.166667e+00	 3.083333e+00	 1.014553e+01
1	 7.166667e+00	 3.166667e+00	 1.014683e+01
1	 7.166667e+00	 3.250000e+00	 1.014796e+01
1	 7.166667e+00	 3.333333e+00	 1.014894e+01
1	 7.250000e+00	 2.916667e+00	 1.013189e+01
1	 7.250000e+00	 3.000000e+00	 1.013360e+01
1	 7.250000e+00	 3.083333e+00	 1.013515e+01
1	 7.250000e+00	 3.166667e+00	 1.013653e+01
1	 7.250000e+00	 3.250000e+00	 1.013776e+01
1	 7.250000e+00	 3.333333e+00	 1.013883e+01
1	 7.333333e+00	 2.916667e+00	 1.012149e+01
1	 7.333333e+00	 3.000000e+00	 1.012326e+01
1	 7.333333e+00	 3.083333e+00	 1.012488e+01
1	 7.333333e+00	 3.166667e+00	 1.012634e+01
1	 7.333333e+00	 3.250000e+00	 1.012766e+01
1	 7.333333e+00	 3.333333e+00	 1.012883e+01
1	 7.416667e+00	 2.916667e+00	 1.011118e+01
1	 7.416667e+00	 3.000000e+00	 1.011302e+01
1	 7.416667e+00	 3.083333e+00	 1.011471e+01
1	 7.416667e+00	 3.166667e+00	 1.011625e+01
1	 7.416667e+00	 3.250000e+00	 1.011766e+01
1	 7.416667e+00	 3.333333e+00	 1.011893e+01
1	 7.500000e+00	 2.916667e+00	 1.010096e+01
1	 7.500000e+00	 3.000000e+00	 1.010286e+01
1	 7.500000e+00	 3.083333e+00	 1.010462e+01
1	 7.500000e+00	 3.166667e+00	 1.010625e+01
1	 7.500000e+00	 3.250000e+00	 1.010775e+01
1	 7.500000e+00	 3.333333e+00	 1.010913e+01
1	 7.083333e+00	 3.333333e+00	 1.015915e+01
1	 7.083333e+00	 3.416667e+00	 1.015984e+01
1	 7.083333e+00	 3.500000e+00	 1.016035e+01
1	 7.083333e+00	 3.583333e+00	 1.016068e+01
1	 7.083333e+00	 3.666667e+00	 1.016082e+01
1	 7.083333e+00	 3.750000e+00	 1.016078e+01
1	 7.166667e+00	 3.333333e+00	 1.014894e+01
1	 7.166667e+00	 3.416667e+00	 1.014974e+01
1	 7.166667e+00	 3.500000e+00	 1.015037e+01
1	 7.166667e+00	 3.583333e+00	 1.015083e+01
1	 7.166667e+00	 3.666667e+00	 1.015111e+01
1	 7.166667e+00	 3.750000e+00	 1.015122e+01
1	 7.250000e+00	 3.333333e+00	 1.013883e+01
1	 7.250000e+00	 3.416667e+00	 1.013975e+01
1	 7.250000e+00	 3.500000e+00	 1.014050e+01
1	 7.250000e+00	 3.583333e+00	 1.014108e+01
1	 7.250000e+00	 3.666667e+00	 1.014150e+01
1	 7.250000e+00	 3.750000e+00	 1.014175e+01
1	 7.333333e+00	 3.333333e+00	 1.012883e+01
1	 7.333333e+00	 3.416667e+00	 1.012986e+01
1	 7.333333e+00	 3.500000e+00	 1.013072e+01
1	 7.333333e+00	 3.583333e+00	 1.013143e+01
1	 7.333333e+00	 3.666667e+00	 1.013198e+01
1	 7.333333e+00	 3.750000e+00	 1.013237e+01
1	 7.416667e+00	 3.333333e+00	 1.011893e+01
1	 7.416667e+00	 3.416667e+00	 1.012007e+01
1	 7.416667e+00	 3.500000e+00	 1.012105e+01
1	 7.416667e+00	 3.583333e+00	 1.012187e+01
1	 7.416667e+00	 3.666667e+00	 1.012255e+01
1	 7.416667e+00	 3.750000e+00	 1.012308e+01
1	 7.500000e+00	 3.333333e+00	 1.010913e+01
1	 7.500000e+00	 3.416667e+00	 1.011036e+01
1	 7.500000e+00	 3.500000e+00	 1.011146e+01
1	 7.500000e+00	 3.583333e+00	 1.011240e+01
1	 7.500000e+00	 3.666667e+00	 1.011321e+01
1	 7.500000e+00	 3.750000e+00	 1.011387e+01
1	 7.083333e+00	 3.750000e+00	 1.016078e+01
1	 7.083333e+00	 3.833333e+00	 1.016057e+01
1	 7.083333e+00	 3.916667e+00	 1.016020e+01
1	 7.083333e+00	 4.000000e+00	 1.015965e+01
1	 7.083333e+00	 4.083333e+00	 1.015894e+01
1	 7.083333e+00	 4.166667e+00	 1.015806e+01
1	 7.166667e+00	 3.750000e+00	 1.015122e+01
1	 7.166667e+00	 3.833333e+00	 1.015117e+01
1	 7.166667e+00	 3.916667e+00	 1.015095e+01
1	 7.166667e+00	 4.000000e+00	 1.015057e+01
1	 7.166667e+00	 4.083333e+00	 1.015003e+01
1	 7.166667e+00	 4.166667e+00	 1.014932e+01
1	 7.250000e+00	 3.750000e+00	 1.014175e+01
1	 7.250000e+00	 3.833333e+00	 1.014185e+01
1	 7.250000e+00	 3.916667e+00	 1.014179e+01
1	 7.250000e+00	 4.000000e+00	 1.014157e+01
1	 7.250000e+00	 4.083333e+00	 1.014119e+01
1	 7.250000e+00	 4.166667e+00	 1.014065e+01
1	 7.333333e+00	 3.750000e+00	 1.013237e+01
1	 7.333333e+00	 3.833333e+00	 1.013261e+01
1	 7.333333e+00	 3.916667e+00	 1.013270e+01
1	 7.333333e+00	 4.000000e+00	 1.013264e+01
1	 7.333333e+00	 4.083333e+00	 1.013243e+01
1	 7.333333e+00	 4.166667e+00	 1.013206e+01
1	 7.416667e+00	 3.750000e+00	 1.012308e+01
1	 7.416667e+00	 3.833333e+00	 1.012346e+01
1	 7.416667e+00	 3.916667e+00	 1.012370e+01
1	 7.416667e+00	 4.000000e+00	 1.012379e+01
1	 7.416667e+00	 4.083333e+00	 1.012373e+01
1	 7.416667e+00	 4.166667e+00	 1.012353e+01
1	 7.500000e+00	 3.750000e+00	 1.011387e+01
1	 7.500000e+00	 3.833333e+00	 1.011439e+01
1	 7.500000e+00	 3.916667e+00	 1.011478e+01
1	 7.500000e+00	 4.000000e+00	 1.011502e+01
1	 7.500000e+00	 4.083333e+00	 1.011512e+01
1	 7.500000e+00	 4.166667e+00	 1.011507e+01
1	 7.083333e+00	 4.166667e+00	 1.015806e+01
1	 7.083333e+00	 4.250000e+00	 1.015701e+01
1	 7.083333e+00	 4.333333e+00	 1.015584e+01
1	 7.083333e+00	 4.416667e+00	 1.015452e+01
1	 7.083333e+00	 4.500000e+00	 1.015305e+01
1	 7.083333e+00	 4.583333e+00	 1.015143e+01
1	 7.166667e+00	 4.166667e+00	 1.014932e+01
1	 7.166667e+00	 4.250000e+00	 1.014846e+01
1	 7.166667e+00	 4.333333e+00	 1.014747e+01
1	 7.166667e+00	 4.416667e+00	 1.014634e+01
1	 7.166667e+00	 4.500000e+00	 1.014506e+01
1	 7.166667e+00	 4.583333e+00	 1.014364e+01
1	 7.250000e+00	 4.166667e+00	 1.014065e+01
1	 7.250000e+00	 4.250000e+00	 1.013997e+01
1	 7.250000e+00	 4.333333e+00	 1.013916e+01
1	 7.250000e+00	 4.416667e+00	 1.013821e+01
1	 7.250000e+00	 4.500000e+00	 1.013712e+01
1	 7.250000e+00	 4.583333e+00	 1.013588e+01
1	 7.333333e+00	 4.166667e+00	 1.013206e+01
1	 7.333333e+00	 4.250000e+00	 1.013155e+01
1	 7.333333e+00	 4.333333e+00	 1.013091e+01
1	 7.333333e+00	 4.416667e+00	 1.013013e+01
1	 7.333333e+00	 4.500000e+00	 1.012922e+01
1	 7.333333e+00	 4.583333e+00	 1.012818e+01
1	 7.416667e+00	 4.166667e+00	 1.012353e+01
1	 7.416667e+00	 4.250000e+00	 1.012319e+01
1	 7.416667e+00	 4.333333e+00	 1.012272e+01
1	 7.416667e+00	 4.416667e+00	 1.012212e+01
1	 7.416667e+00	 4.500000e+00	 1.012139e+01
1	 7.416667e+00	 4.583333e+00	 1.012052e+01
1	 7.500000e+00	 4.166667e+00	 1.011507e+01
1	 7.500000e+00	 4.250000e+00	 1.011490e+01
1	 7.500000e+00	 4.333333e+00	 1.011460e+01
1	 7.500000e+00	 4.416667e+00	 1.011417e+01
1	 7.500000e+00	 4.500000e+00	 1.011361e+01
1	 7.500000e+00	 4.583333e+00	 1.011292e+01
1	 7.083333e+00	 4.583333e+00	 1.015143e+01
1	 7.083333e+00	 4.666667e+00	 1.014969e+01
1	 7.083333e+00	 4.750000e+00	 1.014783e+01
1	 7.083333e+00	 4.833333e+00	 1.014586e+01
1	 7.083333e+00	 4.916667e+00	 1.014377e+01
1	 7.083333e+00	 5.000000e+00	 1.014156e+01
1	 7.166667e+00	 4.583333e+00	 1.014364e+01
1	 7.166667e+00	 4.666667e+00	 1.014209e+01
1	 7.166667e+00	 4.750000e+00	 1.014043e+01
1	 7.166667e+00	 4.833333e+00	 1.013866e+01
1	 7.166667e+00	 4.916667e+00	 1.013677e+01
1	 7.166667e+00	 5.000000e+00	 1.013475e+01
1	 7.250000e+00	 4.583333e+00	 1.013588e+01
1	 7.250000e+00	 4.666667e+00	 1.013453e+01
1	 7.250000e+00	 4.750000e+00	 1.013306e+01
1	 7.250000e+00	 4.833333e+00	 1.013148e+01
1	 7.250000e+00	 4.916667e+00	 1.012978e+01
1	 7.250000e+00	 5.000000e+00	 1.012797e+01
1	 7.333333e+00	 4.583333e+00	 1.012818e+01
1	 7.333333e+00	 4.666667e+00	 1.012700e+01
1	 7.333333e+00	 4.750000e+00	 1.012573e+01
1	 7.333333e+00	 4.833333e+00	 1.012433e+01
1	 7.333333e+00	 4.916667e+00	 1.012283e+01
1	 7.333333e+00	 5.000000e+00	 1.012120e+01
1	 7.416667e+00	 4.583333e+00	 1.012052e+01
1	 7.416667e+00	 4.666667e+00	 1.011953e+01
1	 7.416667e+00	 4.750000e+00	 1.011844e+01
1	 7.416667e+00	 4.833333e+00	 1.011723e+01
1	 7.416667e+00	 4.916667e+00	 1.011591e+01
1	 7.416667e+00	 5.000000e+00	 1.011447e+01
1	 7.500000e+00	 4.583333e+00	 1.011292e+01
1	 7.500000e+00	 4.666667e+00	 1.011211e+01
1	 7.500000e+00	 4.750000e+00	 1.011120e+01
1	 7.500000e+00	 4.833333e+00	 1.011018e+01
1	 7.500000e+00	 4.916667e+00	 1.010904e+01
1	 7.500000e+00	 5.000000e+00	 1.010779e+01
1	 7.500000e+00	 0.000000e+00	 1.002925e+01
1	 7.500000e+00	 8.333333e-02	 1.002935e+01
1	 7.500000e+00	 1.666667e-01	 1.002965e+01
1	 7.500000e+00	 2.500000e-01	 1.003014e+01
1	 7.500000e+00	 3.333333e-01	 1.003084e+01
1	 7.500000e+00	 4.166667e-01	 1.003174e+01
1	 7.583333e+00	 0.000000e+00	 1.001974e+01
1	 7.583333e+00	 8.333333e-02	 1.001984e+01
1	 7.583333e+00	 1.666667e-01	 1.002013e+01
1	 7.583333e+00	 2.500000e-01	 1.002061e+01
1	 7.583333e+00	 3.333333e-01	 1.002129e+01
1	 7.583333e+00	 4.166667e-01	 1.002217e+01
1	 7.666667e+00	 0.000000e+00	 1.001014e+01
1	 7.666667e+00	 8.333333e-02	 1.001024e+01
1	 7.666667e+00	 1.666667e-01	 1.001052e+01
1	 7.666667e+00	 2.500000e-01	 1.001099e+01
1	 7.666667e+00	 3.333333e-01	 1.001165e+01
1	 7.666667e+00	 4.166667e-01	 1.001251e+01
1	 7.750000e+00	 0.000000e+00	 1.000044e+01
1	 7.750000e+00	 8.333333e-02	 1.000054e+01
1	 7.750000e+00	 1.666667e-01	 1.000082e+01
1	 7.750000e+00	 2.500000e-01	 1.000128e+01
1	 7.750000e+00	 3.333333e-01	 1.000192e+01
1	 7.750000e+00	 4.166667e-01	 1.000276e+01
1	 7.833333e+00	 0.000000e+00	 9.990637e+00
1	 7.833333e+00	 8.333333e-02	 9.990729e+00
1	 7.833333e+00	 1.666667e-01	 9.991001e+00
1	 7.833333e+00	 2.500000e-01	 9.991454e+00
1	 7.833333e+00	 3.333333e-01	 9.992090e+00
1	 7.833333e+00	 4.166667e-01	 9.992911e+00
1	 7.916667e+00	 0.000000e+00	 9.980707e+00
1	 7.916667e+00	 8.333333e-02	 9.980798e+00
1	 7.916667e+00	 1.666667e-01	 9.981065e+00
1	 7.916667e+00	 2.500000e-01	 9.981511e+00
1	 7.916667e+00	 3.333333e-01	 9.982137e+00
1	 7.916667e+00	 4.166667e-01	 9.982945e+00
1	 7.500000e+00	 4.166667e-01	 1.003174e+01
1	 7.500000e+00	 5.000000e-01	 1.003283e+01
1	 7.500000e+00	 5.833333e-01	 1.003407e+01
1	 7.500000e+00	 6.666667e-01	 1.003549e+01
1	 7.500000e+00	 7.500000e-01	 1.003709e+01
1	 7.500000e+00	 8.333333e-01	 1.003887e+01
1	 7.583333e+00	 4.166667e-01	 1.002217e+01
1	 7.583333e+00	 5.000000e-01	 1.002322e+01
1	 7.583333e+00	 5.833333e-01	 1.002444e+01
1	 7.583333e+00	 6.666667e-01	 1.002582e+01
1	 7.583333e+00	 7.500000e-01	 1.002737e+01
1	 7.583333e+00	 8.333333e-01	 1.002911e+01
1	 7.666667e+00	 4.166667e-01	 1.001251e+01
1	 7.666667e+00	 5.000000e-01	 1.001354e+01
1	 7.666667e+00	 5.833333e-01	 1.001473e+01
1	 7.666667e+00	 6.666667e-01	 1.001608e+01
1	 7.666667e+00	 7.500000e-01	 1.001760e+01
1	 7.666667e+00	 8.333333e-01	 1.001930e+01
1	 7.750000e+00	 4.166667e-01	 1.000276e+01
1	 7.750000e+00	 5.000000e-01	 1.000377e+01
1	 7.750000e+00	 5.833333e-01	 1.000493e+01
1	 7.750000e+00	 6.666667e-01	 1.000626e+01
1	 7.750000e+00	 7.500000e-01	 1.000775e+01
1	 7.750000e+00	 8.333333e-01	 1.000941e+01
1	 7.833333e+00	 4.166667e-01	 9.992911e+00
1	 7.833333e+00	 5.000000e-01	 9.993901e+00
1	 7.833333e+00	 5.833333e-01	 9.995044e+00
1	 7.833333e+00	 6.666667e-01	 9.996346e+00
1	 7.833333e+00	 7.500000e-01	 9.997812e+00
1	 7.833333e+00	 8.333333e-01	 9.999449e+00
1	 7.916667e+00	 4.166667e-01	 9.982945e+00
1	 7.916667e+00	 5.000000e-01	 9.983919e+00
1	 7.916667e+00	 5.833333e-01	 9.985046e+00
1	 7.916667e+00	 6.666667e-01	 9.986330e+00
1	 7.916667e+00	 7.500000e-01	 9.987776e+00
1	 7.916667e+00	 8.333333e-01	 9.989390e+00
1	 7.500000e+00	 8.333333e-01	 1.003887e+01
1	 7.500000e+00	 9.166667e-01	 1.004080e+01
1	 7.500000e+00	 1.000000e+00	 1.004283e+01
1	 7.500000e+00	 1.083333e+00	 1.004499e+01
1	 7.500000e+00	 1.166667e+00	 1.004727e+01
1	 7.500000e+00	 1.250000e+00	 1.004970e+01
1	 7.583333e+00	 8.333333e-01	 1.002911e+01
1	 7.583333e+00	 9.166667e-01	 1.003099e+01
1	 7.583333e+00	 1.000000e+00	 1.003298e+01
1	 7.583333e+00	 1.083333e+00	 1.003509e+01
1	 7.583333e+00	 1.166667e+00	 1.003732e+01
1	 7.583333e+00	 1.250000e+00	 1.003969e+01
1	 7.666667e+00	 8.333333e-01	 1.001930e+01
1	 7.666667e+00	 9.166667e-01	 1.002114e+01
1	 7.666667e+00	 1.000000e+00	 1.002308e+01
1	 7.666667e+00	 1.083333e+00	 1.002515e+01
1	 7.666667e+00	 1.166667e+00	 1.002734e+01
1	 7.666667e+00	 1.250000e+00	 1.002967e+01
1	 7.750000e+00	 8.333333e-01	 1.000941e+01
1	 7.750000e+00	 9.166667e-01	 1.001122e+01
1	 7.750000e+00	 1.000000e+00	 1.001313e+01
1	 7.750000e+00	 1.083333e+00	 1.001516e+01
1	 7.750000e+00	 1.166667e+00	 1.001732e+01
1	 7.750000e+00	 1.250000e+00	 1.001961e+01
1	 7.833333e+00	 8.333333e-01	 9.999449e+00
1	 7.833333e+00	 9.166667e-01	 1.000122e+01
1	 7.833333e+00	 1.000000e+00	 1.000311e+01
1	 7.833333e+00	 1.083333e+00	 1.000511e+01
1	 7.833333e+00	 1.166667e+00	 1.000724e+01
1	 7.833333e+00	 1.250000e+00	 1.000951e+01
1	 7.916667e+00	 8.333333e-01	 9.989390e+00
1	 7.916667e+00	 9.166667e-01	 9.991142e+00
1	 7.916667e+00	 1.000000e+00	 9.993005e+00
1	 7.916667e+00	 1.083333e+00	 9.994986e+00
1	 7.916667e+00	 1.166667e+00	 9.997093e+00
1	 7.916667e+00	 1.250000e+00	 9.999333e+00
1	 7.500000e+00	 1.250000e+00	 1.004970e+01
1	 7.500000e+00	 1.333333e+00	 1.005221e+01
1	 7.500000e+00	 1.416667e+00	 1.005477e+01
1	 7.500000e+00	 1.500000e+00	 1.005739e+01
1	 7.500000e+00	 1.583333e+00	 1.006007e+01
1	 7.500000e+00	 1.666667e+00	 1.006284e+01
1	 7.583333e+00	 1.250000e+00	 1.003969e+01
1	 7.583333e+00	 1.333333e+00	 1.004216e+01
1	 7.583333e+00	 1.416667e+00	 1.004467e+01
1	 7.583333e+00	 1.500000e+00	 1.004725e+01
1	 7.583333e+00	 1.583333e+00	 1.004989e+01
1	 7.583333e+00	 1.666667e+00	 1.005261e+01
1	 7.666667e+00	 1.250000e+00	 1.002967e+01
1	 7.666667e+00	 1.333333e+00	 1.003209e+01
1	 7.666667e+00	 1.416667e+00	 1.003457e+01
1	 7.666667e+00	 1.500000e+00	 1.003710e+01
1	 7.666667e+00	 1.583333e+00	 1.003971e+01
1	 7.666667e+00	 1.666667e+00	 1.004240e+01
1	 7.750000e+00	 1.250000e+00	 1.001961e+01
1	 7.750000e+00	 1.333333e+00	 1.002200e+01
1	 7.750000e+00	 1.416667e+00	 1.002444e+01
1	 7.750000e+00	 1.500000e+00	 1.002695e+01
1	 7.750000e+00	 1.583333e+00	 1.002952e+01
1	 7.750000e+00	 1.666667e+00	 1.003219e+01
1	 7.833333e+00	 1.250000e+00	 1.000951e+01
1	 7.833333e+00	 1.333333e+00	 1.001186e+01
1	 7.833333e+00	 1.416667e+00	 1.001428e+01
1	 7.833333e+00	 1.500000e+00	 1.001676e+01
1	 7.833333e+00	 1.583333e+00	 1.001932e+01
1	 7.833333e+00	 1.666667e+00	 1.002196e+01
1	 7.916667e+00	 1.250000e+00	 9.999333e+00
1	 7.916667e+00	 1.333333e+00	 1.000167e+01
1	 7.916667e+00	 1.416667e+00	 1.000407e+01
1	 7.916667e+00	 1.500000e+00	 1.000653e+01
1	 7.916667e+00	 1.583333e+00	 1.000908e+01
1	 7.916667e+00	 1.666667e+00	 1.001171e+01
1	 7.500000e+00	 1.666667e+00	 1.006284e+01
1	 7.500000e+00	 1.750000e+00	 1.006564e+01
1	 7.500000e+00	 1.833333e+00	 1.006841e+01
1	 7.500000e+00	 1.916667e+00	 1.007118e+01
1	 7.500000e+00	 2.000000e+00	 1.007395e+01
1	 7.500000e+00	 2.083333e+00	 1.007673e+01
1	 7.583333e+00	 1.666667e+00	 1.005261e+01
1	 7.583333e+00	 1.750000e+00	 1.005537e+01
1	 7.583333e+00	 1.833333e+00	 1.005811e+01
1	 7.583333e+00	 1.916667e+00	 1.006085e+01
1	 7.583333e+00	 2.000000e+00	 1.006360e+01
1	 7.583333e+00	 2.083333e+00	 1.006637e+01
1	 7.666667e+00	 1.666667e+00	 1.004240e+01
1	 7.666667e+00	 1.750000e+00	 1.004513e+01
1	 7.666667e+00	 1.833333e+00	 1.004785e+01
1	 7.666667e+00	 1.916667e+00	 1.005057e+01
1	 7.666667e+00	 2.000000e+00	 1.005330e+01
1	 7.666667e+00	 2.083333e+00	 1.005606e+01
1	 7.750000e+00	 1.666667e+00	 1.003219e+01
1	 7.750000e+00	 1.750000e+00	 1.003489e+01
1	 7.750000e+00	 1.833333e+00	 1.003759e+01
1	 7.750000e+00	 1.916667e+00	 1.004030e+01
1	 7.750000e+00	 2.000000e+00	 1.004303e+01
1	 7.750000e+00	 2.083333e+00	 1.004578e+01
1	 7.833333e+00	 1.666667e+00	 1.002196e+01
1	 7.833333e+00	 1.750000e+00	 1.002465e+01
1	 7.833333e+00	 1.833333e+00	 1.002734e+01
1	 7.833333e+00	 1.916667e+00	 1.003005e+01
1	 7.833333e+00	 2.000000e+00	 1.003277e+01
1	 7.833333e+00	 2.083333e+00	 1.003553e+01
1	 7.916667e+00	 1.666667e+00	 1.001171e+01
1	 7.916667e+00	 1.750000e+00	 1.001439e+01
1	 7.916667e+00	 1.833333e+00	 1.001708e+01
1	 7.916667e+00	 1.916667e+00	 1.001978e+01
1	 7.916667e+00	 2.000000e+00	 1.002252e+01
1	 7.916667e+00	 2.083333e+00	 1.002528e+01
1	 7.500000e+00	 2.083333e+00	 1.007673e+01
1	 7.500000e+00	 2.166667e+00	 1.007949e+01
1	 7.500000e+00	 2.250000e+00	 1.008217e+01
1	 7.500000e+00	 2.333333e+00	 1.008479e+01
1	 7.500000e+00	 2.416667e+00	 1.008735e+01
1	 7.500000e+00	 2.500000e+00	 1.008986e+01
1	 7.583333e+00	 2.083333e+00	 1.006637e+01
1	 7.583333e+00	 2.166667e+00	 1.006912e+01
1	 7.583333e+00	 2.250000e+00	 1.007179e+01
1	 7.583333e+00	 2.333333e+00	 1.007441e+01
1	 7.583333e+00	 2.416667e+00	 1.007699e+01
1	 7.583333e+00	 2.500000e+00	 1.007952e+01
1	 7.666667e+00	 2.083333e+00	 1.005606e+01
1	 7.666667e+00	 2.166667e+00	 1.005880e+01
1	 7.666667e+00	 2.250000e+00	 1.006148e+01
1	 7.666667e+00	 2.333333e+00	 1.006411e+01
1	 7.666667e+00	 2.416667e+00	 1.006670e+01
1	 7.666667e+00	 2.500000e+00	 1.006925e+01
1	 7.750000e+00	 2.083333e+00	 1.004578e+01
1	 7.750000e+00	 2.166667e+00	 1.004852e+01
1	 7.750000e+00	 2.250000e+00	 1.005121e+01
1	 7.750000e+00	 2.333333e+00	 1.005386e+01
1	 7.750000e+00	 2.416667e+00	 1.005647e+01
1	 7.750000e+00	 2.500000e+00	 1.005905e+01
1	 7.833333e+00	 2.083333e+00	 1.003553e+01
1	 7.833333e+00	 2.166667e+00	 1.003828e+01
1	 7.833333e+00	 2.250000e+00	 1.004098e+01
1	 7.833333e+00	 2.333333e+00	 1.004365e+01
1	 7.833333e+00	 2.416667e+00	 1.004629e+01
1	 7.833333e+00	 2.500000e+00	 1.004891e+01
1	 7.916667e+00	 2.083333e+00	 1.002528e+01
1	 7.916667e+00	 2.166667e+00	 1.002805e+01
1	 7.916667e+00	 2.250000e+00	 1.003077e+01
1	 7.916667e+00	 2.333333e+00	 1.003347e+01
1	 7.916667e+00	 2.416667e+00	 1.003614e+01
1	 7.916667e+00	 2.500000e+00	 1.003880e+01
1	 7.500000e+00	 2.500000e+00	 1.008986e+01
1	 7.500000e+00	 2.583333e+00	 1.009230e+01
1	 7.500000e+00	 2.666667e+00	 1.009462e+01
1	 7.500000e+00	 2.750000e+00	 1.009683e+01
1	 7.500000e+00	 2.833333e+00	 1.009894e+01
1	 7.500000e+00	 2.916667e+00	 1.010096e+01
1	 7.583333e+00	 2.500000e+00	 1.007952e+01
1	 7.583333e+00	 2.583333e+00	 1.008198e+01
1	 7.583333e+00	 2.666667e+00	 1.008434e+01
1	 7.583333e+00	 2.750000e+00	 1.008659e+01
1	 7.583333e+00	 2.833333e+00	 1.008875e+01
1	 7.583333e+00	 2.916667e+00	 1.009083e+01
1	 7.666667e+00	 2.500000e+00	 1.006925e+01
1	 7.666667e+00	 2.583333e+00	 1.007175e+01
1	 7.666667e+00	 2.666667e+00	 1.007414e+01
1	 7.666667e+00	 2.750000e+00	 1.007644e+01
1	 7.666667e+00	 2.833333e+00	 1.007866e+01
1	 7.666667e+00	 2.916667e+00	 1.008079e+01
1	 7.750000e+00	 2.500000e+00	 1.005905e+01
1	 7.750000e+00	 2.583333e+00	 1.006158e+01
1	 7.750000e+00	 2.666667e+00	 1.006402e+01
1	 7.750000e+00	 2.750000e+00	 1.006637e+01
1	 7.750000e+00	 2.833333e+00	 1.006864e+01
1	 7.750000e+00	 2.916667e+00	 1.007084e+01
1	 7.833333e+00	 2.500000e+00	 1.004891e+01
1	 7.833333e+00	 2.583333e+00	 1.005147e+01
1	 7.833333e+00	 2.666667e+00	 1.005395e+01
1	 7.833333e+00	 2.750000e+00	 1.005636e+01
1	 7.833333e+00	 2.833333e+00	 1.005869e+01
1	 7.833333e+00	 2.916667e+00	 1.006096e+01
1	 7.916667e+00	 2.500000e+00	 1.003880e+01
1	 7.916667e+00	 2.583333e+00	 1.004141e+01
1	 7.916667e+00	 2.666667e+00	 1.004394e+01
1	 7.916667e+00	 2.750000e+00	 1.004641e+01
1	 7.916667e+00	 2.833333e+00	 1.004881e+01
1	 7.916667e+00	 2.916667e+00	 1.005115e+01
1	 7.500000e+00	 2.916667e+00	 1.010096e+01
1	 7.500000e+00	 3.000000e+00	 1.010286e+01
1	 7.500000e+00	 3.083333e+00	 1.010462e+01
1	 7.500000e+00	 3.166667e+00	 1.010625e+01
1	 7.500000e+00	 3.250000e+00	 1.010775e+01
1	 7.500000e+00	 3.333333e+00	 1.010913e+01
1	 7.583333e+00	 2.916667e+00	 1.009083e+01
1	 7.583333e+00	 3.000000e+00	 1.009280e+01
1	 7.583333e+00	 3.083333e+00	 1.009464e+01
1	 7.583333e+00	 3.166667e+00	 1.009635e+01
1	 7.583333e+00	 3.250000e+00	 1.009794e+01
1	 7.583333e+00	 3.333333e+00	 1.009941e+01
1	 7.666667e+00	 2.916667e+00	 1.008079e+01
1	 7.666667e+00	 3.000000e+00	 1.008283e+01
1	 7.666667e+00	 3.083333e+00	 1.008475e+01
1	 7.666667e+00	 3.166667e+00	 1.008654e+01
1	 7.666667e+00	 3.250000e+00	 1.008822e+01
1	 7.666667e+00	 3.333333e+00	 1.008979e+01
1	 7.750000e+00	 2.916667e+00	 1.007084e+01
1	 7.750000e+00	 3.000000e+00	 1.007295e+01
1	 7.750000e+00	 3.083333e+00	 1.007494e+01
1	 7.750000e+00	 3.166667e+00	 1.007682e+01
1	 7.750000e+00	 3.250000e+00	 1.007860e+01
1	 7.750000e+00	 3.333333e+00	 1.008027e+01
1	 7.833333e+00	 2.916667e+00	 1.006096e+01
1	 7.833333e+00	 3.000000e+00	 1.006315e+01
1	 7.833333e+00	 3.083333e+00	 1.006522e+01
1	 7.833333e+00	 3.166667e+00	 1.006719e+01
1	 7.833333e+00	 3.250000e+00	 1.006906e+01
1	 7.833333e+00	 3.333333e+00	 1.007083e+01
1	 7.916667e+00	 2.916667e+00	 1.005115e+01
1	 7.916667e+00	 3.000000e+00	 1.005341e+01
1	 7.916667e+00	 3.083333e+00	 1.005557e+01
1	 7.916667e+00	 3.166667e+00	 1.005763e+01
1	 7.916667e+00	 3.250000e+00	 1.005960e+01
1	 7.916667e+00	 3.333333e+00	 1.006147e+01
1	 7.500000e+00	 3.333333e+00	 1.010913e+01
1	 7.500000e+00	 3.416667e+00	 1.011036e+01
1	 7.500000e+00	 3.500000e+00	 1.011146e+01
1	 7.500000e+00	 3.583333e+00	 1.011240e+01
1	 7.500000e+00	 3.666667e+00	 1.011321e+01
1	 7.500000e+00	 3.750000e+00	 1.011387e+01
1	 7.583333e+00	 3.333333e+00	 1.009941e+01
1	 7.583333e+00	 3.416667e+00	 1.010075e+01
1	 7.583333e+00	 3.500000e+00	 1.010196e+01
1	 7.583333e+00	 3.583333e+00	 1.010302e+01
1	 7.583333e+00	 3.666667e+00	 1.010396e+01
1	 7.583333e+00	 3.750000e+00	 1.010475e+01
1	 7.666667e+00	 3.333333e+00	 1.008979e+01
1	 7.666667e+00	 3.416667e+00	 1.009124e+01
1	 7.666667e+00	 3.500000e+00	 1.009256e+01
1	 7.666667e+00	 3.583333e+00	 1.009374e+01
1	 7.666667e+00	 3.666667e+00	 1.009480e+01
1	 7.666667e+00	 3.750000e+00	 1.009573e+01
1	 7.750000e+00	 3.333333e+00	 1.008027e+01
1	 7.750000e+00	 3.416667e+00	 1.008182e+01
1	 7.750000e+00	 3.500000e+00	 1.008325e+01
1	 7.750000e+00	 3.583333e+00	 1.008456e+01
1	 7.750000e+00	 3.666667e+00	 1.008574e+01
1	 7.750000e+00	 3.750000e+00	 1.008680e+01
1	 7.833333e+00	 3.333333e+00	 1.007083e+01
1	 7.833333e+00	 3.416667e+00	 1.007249e+01
1	 7.833333e+00	 3.500000e+00	 1.007404e+01
1	 7.833333e+00	 3.583333e+00	 1.007546e+01
1	 7.833333e+00	 3.666667e+00	 1.007676e+01
1	 7.833333e+00	 3.750000e+00	 1.007795e+01
1	 7.916667e+00	 3.333333e+00	 1.006147e+01
1	 7.916667e+00	 3.416667e+00	 1.006325e+01
1	 7.916667e+00	 3.500000e+00	 1.006490e+01
1	 7.916667e+00	 3.583333e+00	 1.006645e+01
1	 7.916667e+00	 3.666667e+00	 1.006788e+01
1	 7.916667e+00	 3.750000e+00	 1.006920e+01
1	 7.500000e+00	 3.750000e+00	 1.011387e+01
1	 7.500000e+00	 3.833333e+00	 1.011439e+01
1	 7.500000e+00	 3.916667e+00	 1.011478e+01
1	 7.500000e+00	 4.000000e+00	 1.011502e+01
1	 7.500000e+00	 4.083333e+00	 1.011512e+01
1	 7.500000e+00	 4.166667e+00	 1.011507e+01
1	 7.583333e+00	 3.750000e+00	 1.010475e+01
1	 7.583333e+00	 3.833333e+00	 1.010541e+01
1	 7.583333e+00	 3.916667e+00	 1.010594e+01
1	 7.583333e+00	 4.000000e+00	 1.010633e+01
1	 7.583333e+00	 4.083333e+00	 1.010658e+01
1	 7.583333e+00	 4.166667e+00	 1.010670e+01
1	 7.666667e+00	 3.750000e+00	 1.009573e+01
1	 7.666667e+00	 3.833333e+00	 1.009653e+01
1	 7.666667e+00	 3.916667e+00	 1.009719e+01
1	 7.666667e+00	 4.000000e+00	 1.009773e+01
1	 7.666667e+00	 4.083333e+00	 1.009813e+01
1	 7.666667e+00	 4.166667e+00	 1.009841e+01
1	 7.750000e+00	 3.750000e+00	 1.008680e+01
1	 7.750000e+00	 3.833333e+00	 1.008773e+01
1	 7.750000e+00	 3.916667e+00	 1.008854e+01
1	 7.750000e+00	 4.000000e+00	 1.008922e+01
1	 7.750000e+00	 4.083333e+00	 1.008977e+01
1	 7.750000e+00	 4.166667e+00	 1.009020e+01
1	 7.833333e+00	 3.750000e+00	 1.007795e+01
1	 7.833333e+00	 3.833333e+00	 1.007902e+01
1	 7.833333e+00	 3.916667e+00	 1.007997e+01
1	 7.833333e+00	 4.000000e+00	 1.008080e+01
1	 7.833333e+00	 4.083333e+00	 1.008150e+01
1	 7.833333e+00	 4.166667e+00	 1.008208e+01
1	 7.916667e+00	 3.750000e+00	 1.006920e+01
1	 7.916667e+00	 3.833333e+00	 1.007041e+01
1	 7.916667e+00	 3.916667e+00	 1.007150e+01
1	 7.916667e+00	 4.000000e+00	 1.007247e+01
1	 7.916667e+00	 4.083333e+00	 1.007332e+01
1	 7.916667e+00	 4.166667e+00	 1.007405e+01
1	 7.500000e+00	 4.166667e+00	 1.011507e+01
1	 7.500000e+00	 4.250000e+00	 1.011490e+01
1	 7.500000e+00	 4.333333e+00	 1.011460e+01
1	 7.500000e+00	 4.416667e+00	 1.011417e+01
1	 7.500000e+00	 4.500000e+00	 1.011361e+01
1	 7.500000e+00	 4.583333e+00	 1.011292e+01
1	 7.583333e+00	 4.166667e+00	 1.010670e+01
1	 7.583333e+00	 4.250000e+00	 1.010669e+01
1	 7.583333e+00	 4.333333e+00	 1.010655e+01
1	 7.583333e+00	 4.416667e+00	 1.010629e+01
1	 7.583333e+00	 4.500000e+00	 1.010590e+01
1	 7.583333e+00	 4.583333e+00	 1.010539e+01
1	 7.666667e+00	 4.166667e+00	 1.009841e+01
1	 7.666667e+00	 4.250000e+00	 1.009855e+01
1	 7.666667e+00	 4.333333e+00	 1.009858e+01
1	 7.666667e+00	 4.416667e+00	 1.009849e+01
1	 7.666667e+00	 4.500000e+00	 1.009827e+01
1	 7.666667e+00	 4.583333e+00	 1.009793e+01
1	 7.750000e+00	 4.166667e+00	 1.009020e+01
1	 7.750000e+00	 4.250000e+00	 1.009050e+01
1	 7.750000e+00	 4.333333e+00	 1.009069e+01
1	 7.750000e+00	 4.416667e+00	 1.009076e+01
1	 7.750000e+00	 4.500000e+00	 1.009071e+01
1	 7.750000e+00	 4.583333e+00	 1.009054e+01
1	 7.833333e+00	 4.166667e+00	 1.008208e+01
1	 7.833333e+00	 4.250000e+00	 1.008254e+01
1	 7.833333e+00	 4.333333e+00	 1.008289e+01
1	 7.833333e+00	 4.416667e+00	 1.008312e+01
1	 7.833333e+00	 4.500000e+00	 1.008323e+01
1	 7.833333e+00	 4.583333e+00	 1.008323e+01
1	 7.916667e+00	 4.166667e+00	 1.007405e+01
1	 7.916667e+00	 4.250000e+00	 1.007467e+01
1	 7.916667e+00	 4.333333e+00	 1.007518e+01
1	 7.916667e+00	 4.416667e+00	 1.007557e+01
1	 7.916667e+00	 4.500000e+00	 1.007584e+01
1	 7.916667e+00	 4.583333e+00	 1.007600e+01
1	 7.500000e+00	 4.583333e+00	 1.011292e+01
1	 7.500000e+00	 4.666667e+00	 1.011211e+01
1	 7.500000e+00	 4.750000e+00	 1.011120e+01
1	 7.500000e+00	 4.833333e+00	 1.011018e+01
1	 7.500000e+00	 4.916667e+00	 1.010904e+01
1	 7.500000e+00	 5.000000e+00	 1.010779e+01
1	 7.583333e+00	 4.583333e+00	 1.010539e+01
1	 7.583333e+00	 4.666667e+00	 1.010476e+01
1	 7.583333e+00	 4.750000e+00	 1.010402e+01
1	 7.583333e+00	 4.833333e+00	 1.010318e+01
1	 7.583333e+00	 4.916667e+00	 1.010222e+01
1	 7.583333e+00	 5.000000e+00	 1.010115e+01
1	 7.666667e+00	 4.583333e+00	 1.009793e+01
1	 7.666667e+00	 4.666667e+00	 1.009747e+01
1	 7.666667e+00	 4.750000e+00	 1.009691e+01
1	 7.666667e+00	 4.833333e+00	 1.009624e+01
1	 7.666667e+00	 4.916667e+00	 1.009546e+01
1	 7.666667e+00	 5.000000e+00	 1.009457e+01
1	 7.750000e+00	 4.583333e+00	 1.009054e+01
1	 7.750000e+00	 4.666667e+00	 1.009025e+01
1	 7.750000e+00	 4.750000e+00	 1.008986e+01
1	 7.750000e+00	 4.833333e+00	 1.008937e+01
1	 7.750000e+00	 4.916667e+00	 1.008876e+01
1	 7.750000e+00	 5.000000e+00	 1.008805e+01
1	 7.833333e+00	 4.583333e+00	 1.008323e+01
1	 7.833333e+00	 4.666667e+00	 1.008311e+01
1	 7.833333e+00	 4.750000e+00	 1.008289e+01
1	 7.833333e+00	 4.833333e+00	 1.008257e+01
1	 7.833333e+00	 4.916667e+00	 1.008214e+01
1	 7.833333e+00	 5.000000e+00	 1.008159e+01
1	 7.916667e+00	 4.583333e+00	 1.007600e+01
1	 7.916667e+00	 4.666667e+00	 1.007605e+01
1	 7.916667e+00	 4.750000e+00	 1.007600e+01
1	 7.916667e+00	 4.833333e+00	 1.007585e+01
1	 7.916667e+00	 4.916667e+00	 1.007559e+01
1	 7.916667e+00	 5.000000e+00	 1.007522e+01
1	 7.916667e+00	 0.000000e+00	 9.980707e+00
1	 7.916667e+00	 8.333333e-02	 9.980798e+00
1	 7.916667e+00	 1.666667e-01	 9.981065e+00
1	 7.916667e+00	 2.500000e-01	 9.981511e+00
1	 7.916667e+00	 3.333333e-01	 9.982137e+00
1	 7.916667e+00	 4.166667e-01	 9.982945e+00
1	 8.000000e+00	 0.000000e+00	 9.970645e+00
1	 8.000000e+00	 8.333333e-02	 9.970735e+00
1	 8.000000e+00	 1.666667e-01	 9.970999e+00
1	 8.000000e+00	 2.500000e-01	 9.971439e+00
1	 8.000000e+00	 3.333333e-01	 9.972057e+00
1	 8.000000e+00	 4.166667e-01	 9.972855e+00
1	 8.083333e+00	 0.000000e+00	 9.960440e+00
1	 8.083333e+00	 8.333333e-02	 9.960529e+00
1	 8.083333e+00	 1.666667e-01	 9.960791e+00
1	 8.083333e+00	 2.500000e-01	 9.961227e+00
1	 8.083333e+00	 3.333333e-01	 9.961839e+00
1	 8.083333e+00	 4.166667e-01	 9.962630e+00
1	 8.166667e+00	 0.000000e+00	 9.950075e+00
1	 8.166667e+00	 8.333333e-02	 9.950164e+00
1	 8.166667e+00	 1.666667e-01	 9.950424e+00
1	 8.166667e+00	 2.500000e-01	 9.950858e+00
1	 8.166667e+00	 3.333333e-01	 9.951467e+00
1	 8.166667e+00	 4.166667e-01	 9.952253e+00
1	 8.250000e+00	 0.000000e+00	 9.939536e+00
1	 8.250000e+00	 8.333333e-02	 9.939624e+00
1	 8.250000e+00	 1.666667e-01	 9.939884e+00
1	 8.250000e+00	 2.500000e-01	 9.940317e+00
1	 8.250000e+00	 3.333333e-01	 9.940925e+00
1	 8.250000e+00	 4.166667e-01	 9.941709e+00
1	 8.333333e+00	 0.000000e+00	 9.928805e+00
1	 8.333333e+00	 8.333333e-02	 9.928893e+00
1	 8.333333e+00	 1.666667e-01	 9.929154e+00
1	 8.333333e+00	 2.500000e-01	 9.929588e+00
1	 8.333333e+00	 3.333333e-01	 9.930197e+00
1	 8.333333e+00	 4.166667e-01	 9.930982e+00
1	 7.916667e+00	 4.166667e-01	 9.982945e+00
1	 7.916667e+00	 5.000000e-01	 9.983919e+00
1	 7.916667e+00	 5.833333e-01	 9.985046e+00
1	 7.916667e+00	 6.666667e-01	 9.986330e+00
1	 7.916667e+00	 7.500000e-01	 9.987776e+00
1	 7.916667e+00	 8.333333e-01	 9.989390e+00
1	 8.000000e+00	 4.166667e-01	 9.972855e+00
1	 8.000000e+00	 5.000000e-01	 9.973817e+00
1	 8.000000e+00	 5.833333e-01	 9.974931e+00
1	 8.000000e+00	 6.666667e-01	 9.976201e+00
1	 8.000000e+00	 7.500000e-01	 9.977631e+00
1	 8.000000e+00	 8.333333e-01	 9.979228e+00
1	 8.083333e+00	 4.166667e-01	 9.962630e+00
1	 8.083333e+00	 5.000000e-01	 9.963583e+00
1	 8.083333e+00	 5.833333e-01	 9.964688e+00
1	 8.083333e+00	 6.666667e-01	 9.965949e+00
1	 8.083333e+00	 7.500000e-01	 9.967369e+00
1	 8.083333e+00	 8.333333e-01	 9.968954e+00
1	 8.166667e+00	 4.166667e-01	 9.952253e+00
1	 8.166667e+00	 5.000000e-01	 9.953202e+00
1	 8.166667e+00	 5.833333e-01	 9.954302e+00
1	 8.166667e+00	 6.666667e-01	 9.955558e+00
1	 8.166667e+00	 7.500000e-01	 9.956973e+00
1	 8.166667e+00	 8.333333e-01	 9.958552e+00
1	 8.250000e+00	 4.166667e-01	 9.941709e+00
1	 8.250000e+00	 5.000000e-01	 9.942657e+00
1	 8.250000e+00	 5.833333e-01	 9.943756e+00
1	 8.250000e+00	 6.666667e-01	 9.945011e+00
1	 8.250000e+00	 7.500000e-01	 9.946427e+00
1	 8.250000e+00	 8.333333e-01	 9.948005e+00
1	 8.333333e+00	 4.166667e-01	 9.930982e+00
1	 8.333333e+00	 5.000000e-01	 9.931932e+00
1	 8.333333e+00	 5.833333e-01	 9.933034e+00
1	 8.333333e+00	 6.666667e-01	 9.934294e+00
1	 8.333333e+00	 7.500000e-01	 9.935714e+00
1	 8.333333e+00	 8.333333e-01	 9.937298e+00
1	 7.916667e+00	 8.333333e-01	 9.989390e+00
1	 7.916667e+00	 9.166667e-01	 9.991142e+00
1	 7.916667e+00	 1.000000e+00	 9.993005e+00
1	 7.916667e+00	 1.083333e+00	 9.994986e+00
1	 7.916667e+00	 1.166667e+00	 9.997093e+00
1	 7.916667e+00	 1.250000e+00	 9.999333e+00
1	 8.000000e+00	 8.333333e-01	 9.979228e+00
1	 8.000000e+00	 9.166667e-01	 9.980962e+00
1	 8.000000e+00	 1.000000e+00	 9.982809e+00
1	 8.000000e+00	 1.083333e+00	 9.984774e+00
1	 8.000000e+00	 1.166667e+00	 9.986865e+00
1	 8.000000e+00	 1.250000e+00	 9.989090e+00
1	 8.083333e+00	 8.333333e-01	 9.968954e+00
1	 8.083333e+00	 9.166667e-01	 9.970677e+00
1	 8.083333e+00	 1.000000e+00	 9.972513e+00
1	 8.083333e+00	 1.083333e+00	 9.974470e+00
1	 8.083333e+00	 1.166667e+00	 9.976553e+00
1	 8.083333e+00	 1.250000e+00	 9.978769e+00
1	 8.166667e+00	 8.333333e-01	 9.958552e+00
1	 8.166667e+00	 9.166667e-01	 9.960269e+00
1	 8.166667e+00	 1.000000e+00	 9.962102e+00
1	 8.166667e+00	 1.083333e+00	 9.964057e+00
1	 8.166667e+00	 1.166667e+00	 9.966138e+00
1	 8.166667e+00	 1.250000e+00	 9.968354e+00
1	 8.250000e+00	 8.333333e-01	 9.948005e+00
1	 8.250000e+00	 9.166667e-01	 9.949724e+00
1	 8.250000e+00	 1.000000e+00	 9.951559e+00
1	 8.250000e+00	 1.083333e+00	 9.953519e+00
1	 8.250000e+00	 1.166667e+00	 9.955607e+00
1	 8.250000e+00	 1.250000e+00	 9.957829e+00
1	 8.333333e+00	 8.333333e-01	 9.937298e+00
1	 8.333333e+00	 9.166667e-01	 9.939024e+00
1	 8.333333e+00	 1.000000e+00	 9.940869e+00
1	 8.333333e+00	 1.083333e+00	 9.942840e+00
1	 8.333333e+00	 1.166667e+00	 9.944942e+00
1	 8.333333e+00	 1.250000e+00	 9.947179e+00
1	 7.916667e+00	 1.250000e+00	 9.999333e+00
1	 7.916667e+00	 1.333333e+00	 1.000167e+01
1	 7.916667e+00	 1.416667e+00	 1.000407e+01
1	 7.916667e+00	 1.500000e+00	 1.000653e+01
1	 7.916667e+00	 1.583333e+00	 1.000908e+01
1	 7.916667e+00	 1.666667e+00	 1.001171e+01
1	 8.000000e+00	 1.250000e+00	 9.989090e+00
1	 8.000000e+00	 1.333333e+00	 9.991412e+00
1	 8.000000e+00	 1.416667e+00	 9.993799e+00
1	 8.000000e+00	 1.500000e+00	 9.996257e+00
1	 8.000000e+00	 1.583333e+00	 9.998796e+00
1	 8.000000e+00	 1.666667e+00	 1.000142e+01
1	 8.083333e+00	 1.250000e+00	 9.978769e+00
1	 8.083333e+00	 1.333333e+00	 9.981085e+00
1	 8.083333e+00	 1.416667e+00	 9.983468e+00
1	 8.083333e+00	 1.500000e+00	 9.985927e+00
1	 8.083333e+00	 1.583333e+00	 9.988468e+00
1	 8.083333e+00	 1.666667e+00	 9.991100e+00
1	 8.166667e+00	 1.250000e+00	 9.968354e+00
1	 8.166667e+00	 1.333333e+00	 9.970671e+00
1	 8.166667e+00	 1.416667e+00	 9.973060e+00
1	 8.166667e+00	 1.500000e+00	 9.975526e+00
1	 8.166667e+00	 1.583333e+00	 9.978078e+00
1	 8.166667e+00	 1.666667e+00	 9.980723e+00
1	 8.250000e+00	 1.250000e+00	 9.957829e+00
1	 8.250000e+00	 1.333333e+00	 9.960156e+00
1	 8.250000e+00	 1.416667e+00	 9.962558e+00
1	 8.250000e+00	 1.500000e+00	 9.965041e+00
1	 8.250000e+00	 1.583333e+00	 9.967612e+00
1	 8.250000e+00	 1.666667e+00	 9.970278e+00
1	 8.333333e+00	 1.250000e+00	 9.947179e+00
1	 8.333333e+00	 1.333333e+00	 9.949523e+00
1	 8.333333e+00	 1.416667e+00	 9.951946e+00
1	 8.333333e+00	 1.500000e+00	 9.954454e+00
1	 8.333333e+00	 1.583333e+00	 9.957053e+00
1	 8.333333e+00	 1.666667e+00	 9.959749e+00
1	 7.916667e+00	 1.666667e+00	 1.001171e+01
1	 7.916667e+00	 1.750000e+00	 1.001439e+01
1	 7.916667e+00	 1.833333e+00	 1.001708e+01
1	 7.916667e+00	 1.916667e+00	 1.001978e+01
1	 7.916667e+00	 2.000000e+00	 1.002252e+01
1	 7.916667e+00	 2.083333e+00	 1.002528e+01
1	 8.000000e+00	 1.666667e+00	 1.000142e+01
1	 8.000000e+00	 1.750000e+00	 1.000410e+01
1	 8.000000e+00	 1.833333e+00	 1.000680e+01
1	 8.000000e+00	 1.916667e+00	 1.000951e+01
1	 8.000000e+00	 2.000000e+00	 1.001226e+01
1	 8.000000e+00	 2.083333e+00	 1.001504e+01
1	 8.083333e+00	 1.666667e+00	 9.991100e+00
1	 8.083333e+00	 1.750000e+00	 9.993787e+00
1	 8.083333e+00	 1.833333e+00	 9.996492e+00
1	 8.083333e+00	 1.916667e+00	 9.999224e+00
1	 8.083333e+00	 2.000000e+00	 1.000199e+01
1	 8.083333e+00	 2.083333e+00	 1.000480e+01
1	 8.166667e+00	 1.666667e+00	 9.980723e+00
1	 8.166667e+00	 1.750000e+00	 9.983426e+00
1	 8.166667e+00	 1.833333e+00	 9.986152e+00
1	 8.166667e+00	 1.916667e+00	 9.988910e+00
1	 8.166667e+00	 2.000000e+00	 9.991707e+00
1	 8.166667e+00	 2.083333e+00	 9.994549e+00
1	 8.250000e+00	 1.666667e+00	 9.970278e+00
1	 8.250000e+00	 1.750000e+00	 9.973006e+00
1	 8.250000e+00	 1.833333e+00	 9.975762e+00
1	 8.250000e+00	 1.916667e+00	 9.978555e+00
1	 8.250000e+00	 2.000000e+00	 9.981389e+00
1	 8.250000e+00	 2.083333e+00	 9.984274e+00
1	 8.333333e+00	 1.666667e+00	 9.959749e+00
1	 8.333333e+00	 1.750000e+00	 9.962511e+00
1	 8.333333e+00	 1.833333e+00	 9.965307e+00
1	 8.333333e+00	 1.916667e+00	 9.968142e+00
1	 8.333333e+00	 2.000000e+00	 9.971025e+00
1	 8.333333e+00	 2.083333e+00	 9.973960e+00
1	 7.916667e+00	 2.083333e+00	 1.002528e+01
1	 7.916667e+00	 2.166667e+00	 1.002805e+01
1	 7.916667e+00	 2.250000e+00	 1.003077e+01
1	 7.916667e+00	 2.333333e+00	 1.003347e+01
1	 7.916667e+00	 2.416667e+00	 1.003614e+01
1	 7.916667e+00	 2.500000e+00	 1.003880e+01
1	 8.000000e+00	 2.083333e+00	 1.001504e+01
1	 8.000000e+00	 2.166667e+00	 1.001783e+01
1	 8.000000e+00	 2.250000e+00	 1.002058e+01
1	 8.000000e+00	 2.333333e+00	 1.002331e+01
1	 8.000000e+00	 2.416667e+00	 1.002602e+01
1	 8.000000e+00	 2.500000e+00	 1.002872e+01
1	 8.083333e+00	 2.083333e+00	 1.000480e+01
1	 8.083333e+00	 2.166667e+00	 1.000762e+01
1	 8.083333e+00	 2.250000e+00	 1.001041e+01
1	 8.083333e+00	 2.333333e+00	 1.001318e+01
1	 8.083333e+00	 2.416667e+00	 1.001594e+01
1	 8.083333e+00	 2.500000e+00	 1.001869e+01
1	 8.166667e+00	 2.083333e+00	 9.994549e+00
1	 8.166667e+00	 2.166667e+00	 9.997404e+00
1	 8.166667e+00	 2.250000e+00	 1.000024e+01
1	 8.166667e+00	 2.333333e+00	 1.000306e+01
1	 8.166667e+00	 2.416667e+00	 1.000587e+01
1	 8.166667e+00	 2.500000e+00	 1.000869e+01
1	 8.250000e+00	 2.083333e+00	 9.984274e+00
1	 8.250000e+00	 2.166667e+00	 9.987175e+00
1	 8.250000e+00	 2.250000e+00	 9.990063e+00
1	 8.250000e+00	 2.333333e+00	 9.992942e+00
1	 8.250000e+00	 2.416667e+00	 9.995819e+00
1	 8.250000e+00	 2.500000e+00	 9.998699e+00
1	 8.333333e+00	 2.083333e+00	 9.973960e+00
1	 8.333333e+00	 2.166667e+00	 9.976918e+00
1	 8.333333e+00	 2.250000e+00	 9.979867e+00
1	 8.333333e+00	 2.333333e+00	 9.982812e+00
1	 8.333333e+00	 2.416667e+00	 9.985760e+00
1	 8.333333e+00	 2.500000e+00	 9.988717e+00
1	 7.916667e+00	 2.500000e+00	 1.003880e+01
1	 7.916667e+00	 2.583333e+00	 1.004141e+01
1	 7.916667e+00	 2.666667e+00	 1.004394e+01
1	 7.916667e+00	 2.750000e+00	 1.004641e+01
1	 7.916667e+00	 2.833333e+00	 1.004881e+01
1	 7.916667e+00	 2.916667e+00	 1.005115e+01
1	 8.000000e+00	 2.500000e+00	 1.002872e+01
1	 8.000000e+00	 2.583333e+00	 1.003139e+01
1	 8.000000e+00	 2.666667e+00	 1.003398e+01
1	 8.000000e+00	 2.750000e+00	 1.003651e+01
1	 8.000000e+00	 2.833333e+00	 1.003898e+01
1	 8.000000e+00	 2.916667e+00	 1.004140e+01
1	 8.083333e+00	 2.500000e+00	 1.001869e+01
1	 8.083333e+00	 2.583333e+00	 1.002141e+01
1	 8.083333e+00	 2.666667e+00	 1.002407e+01
1	 8.083333e+00	 2.750000e+00	 1.002667e+01
1	 8.083333e+00	 2.833333e+00	 1.002922e+01
1	 8.083333e+00	 2.916667e+00	 1.003171e+01
1	 8.166667e+00	 2.500000e+00	 1.000869e+01
1	 8.166667e+00	 2.583333e+00	 1.001147e+01
1	 8.166667e+00	 2.666667e+00	 1.001420e+01
1	 8.166667e+00	 2.750000e+00	 1.001688e+01
1	 8.166667e+00	 2.833333e+00	 1.001950e+01
1	 8.166667e+00	 2.916667e+00	 1.002209e+01
1	 8.250000e+00	 2.500000e+00	 9.998699e+00
1	 8.250000e+00	 2.583333e+00	 1.000156e+01
1	 8.250000e+00	 2.666667e+00	 1.000436e+01
1	 8.250000e+00	 2.750000e+00	 1.000712e+01
1	 8.250000e+00	 2.833333e+00	 1.000984e+01
1	 8.250000e+00	 2.916667e+00	 1.001252e+01
1	 8.333333e+00	 2.500000e+00	 9.988717e+00
1	 8.333333e+00	 2.583333e+00	 9.991654e+00
1	 8.333333e+00	 2.666667e+00	 9.994546e+00
1	 8.333333e+00	 2.750000e+00	 9.997397e+00
1	 8.333333e+00	 2.833333e+00	 1.000021e+01
1	 8.333333e+00	 2.916667e+00	 1.000299e+01
1	 7.916667e+00	 2.916667e+00	 1.005115e+01
1	 7.916667e+00	 3.000000e+00	 1.005341e+01
1	 7.916667e+00	 3.083333e+00	 1.005557e+01
1	 7.916667e+00	 3.166667e+00	 1.005763e+01
1	 7.916667e+00	 3.250000e+00	 1.005960e+01
1	 7.916667e+00	 3.333333e+00	 1.006147e+01
1	 8.000000e+00	 2.916667e+00	 1.004140e+01
1	 8.000000e+00	 3.000000e+00	 1.004374e+01
1	 8.000000e+00	 3.083333e+00	 1.004599e+01
1	 8.000000e+00	 3.166667e+00	 1.004815e+01
1	 8.000000e+00	 3.250000e+00	 1.005021e+01
1	 8.000000e+00	 3.333333e+00	 1.005220e+01
1	 8.083333e+00	 2.916667e+00	 1.003171e+01
1	 8.083333e+00	 3.000000e+00	 1.003415e+01
1	 8.083333e+00	 3.083333e+00	 1.003649e+01
1	 8.083333e+00	 3.166667e+00	 1.003874e+01
1	 8.083333e+00	 3.250000e+00	 1.004092e+01
1	 8.083333e+00	 3.333333e+00	 1.004301e+01
1	 8.166667e+00	 2.916667e+00	 1.002209e+01
1	 8.166667e+00	 3.000000e+00	 1.002462e+01
1	 8.166667e+00	 3.083333e+00	 1.002706e+01
1	 8.166667e+00	 3.166667e+00	 1.002942e+01
1	 8.166667e+00	 3.250000e+00	 1.003170e+01
1	 8.166667e+00	 3.333333e+00	 1.003391e+01
1	 8.250000e+00	 2.916667e+00	 1.001252e+01
1	 8.250000e+00	 3.000000e+00	 1.001514e+01
1	 8.250000e+00	 3.083333e+00	 1.001769e+01
1	 8.250000e+00	 3.166667e+00	 1.002016e+01
1	 8.250000e+00	 3.250000e+00	 1.002255e+01
1	 8.250000e+00	 3.333333e+00	 1.002488e+01
1	 8.333333e+00	 2.916667e+00	 1.000299e+01
1	 8.333333e+00	 3.000000e+00	 1.000572e+01
1	 8.333333e+00	 3.083333e+00	 1.000838e+01
1	 8.333333e+00	 3.166667e+00	 1.001096e+01
1	 8.333333e+00	 3.250000e+00	 1.001348e+01
1	 8.333333e+00	 3.333333e+00	 1.001593e+01
1	 7.916667e+00	 3.333333e+00	 1.006147e+01
1	 7.916667e+00	 3.416667e+00	 1.006325e+01
1	 7.916667e+00	 3.500000e+00	 1.006490e+01
1	 7.916667e+00	 3.583333e+00	 1.006645e+01
1	 7.916667e+00	 3.666667e+00	 1.006788e+01
1	 7.916667e+00	 3.750000e+00	 1.006920e+01
1	 8.000000e+00	 3.333333e+00	 1.005220e+01
1	 8.000000e+00	 3.416667e+00	 1.005408e+01
1	 8.000000e+00	 3.500000e+00	 1.005586e+01
1	 8.000000e+00	 3.583333e+00	 1.005753e+01
1	 8.000000e+00	 3.666667e+00	 1.005909e+01
1	 8.000000e+00	 3.750000e+00	 1.006054e+01
1	 8.083333e+00	 3.333333e+00	 1.004301e+01
1	 8.083333e+00	 3.416667e+00	 1.004501e+01
1	 8.083333e+00	 3.500000e+00	 1.004691e+01
1	 8.083333e+00	 3.583333e+00	 1.004870e+01
1	 8.083333e+00	 3.666667e+00	 1.005039e+01
1	 8.083333e+00	 3.750000e+00	 1.005198e+01
1	 8.166667e+00	 3.333333e+00	 1.003391e+01
1	 8.166667e+00	 3.416667e+00	 1.003603e+01
1	 8.166667e+00	 3.500000e+00	 1.003804e+01
1	 8.166667e+00	 3.583333e+00	 1.003996e+01
1	 8.166667e+00	 3.666667e+00	 1.004179e+01
1	 8.166667e+00	 3.750000e+00	 1.004351e+01
1	 8.250000e+00	 3.333333e+00	 1.002488e+01
1	 8.250000e+00	 3.416667e+00	 1.002712e+01
1	 8.250000e+00	 3.500000e+00	 1.002927e+01
1	 8.250000e+00	 3.583333e+00	 1.003132e+01
1	 8.250000e+00	 3.666667e+00	 1.003328e+01
1	 8.250000e+00	 3.750000e+00	 1.003514e+01
1	 8.333333e+00	 3.333333e+00	 1.001593e+01
1	 8.333333e+00	 3.416667e+00	 1.001830e+01
1	 8.333333e+00	 3.500000e+00	 1.002058e+01
1	 8.333333e+00	 3.583333e+00	 1.002277e+01
1	 8.333333e+00	 3.666667e+00	 1.002486e+01
1	 8.333333e+00	 3.750000e+00	 1.002687e+01
1	 7.916667e+00	 3.750000e+00	 1.006920e+01
1	 7.916667e+00	 3.833333e+00	 1.007041e+01
1	 7.916667e+00	 3.916667e+00	 1.007150e+01
1	 7.916667e+00	 4.000000e+00	 1.007247e+01
1	 7.916667e+00	 4.083333e+00	 1.007332e+01
1	 7.916667e+00	 4.166667e+00	 1.007405e+01
1	 8.000000e+00	 3.750000e+00	 1.006054e+01
1	 8.000000e+00	 3.833333e+00	 1.006189e+01
1	 8.000000e+00	 3.916667e+00	 1.006312e+01
1	 8.000000e+00	 4.000000e+00	 1.006423e+01
1	 8.000000e+00	 4.083333e+00	 1.006523e+01
1	 8.000000e+00	 4.166667e+00	 1.006612e+01
1	 8.083333e+00	 3.750000e+00	 1.005198e+01
1	 8.083333e+00	 3.833333e+00	 1.005346e+01
1	 8.083333e+00	 3.916667e+00	 1.005483e+01
1	 8.083333e+00	 4.000000e+00	 1.005609e+01
1	 8.083333e+00	 4.083333e+00	 1.005724e+01
1	 8.083333e+00	 4.166667e+00	 1.005828e+01
1	 8.166667e+00	 3.750000e+00	 1.004351e+01
1	 8.166667e+00	 3.833333e+00	 1.004514e+01
1	 8.166667e+00	 3.916667e+00	 1.004665e+01
1	 8.166667e+00	 4.000000e+00	 1.004806e+01
1	 8.166667e+00	 4.083333e+00	 1.004936e+01
1	 8.166667e+00	 4.166667e+00	 1.005055e+01
1	 8.250000e+00	 3.750000e+00	 1.003514e+01
1	 8.250000e+00	 3.833333e+00	 1.003691e+01
1	 8.250000e+00	 3.916667e+00	 1.003857e+01
1	 8.250000e+00	 4.000000e+00	 1.004013e+01
1	 8.250000e+00	 4.083333e+00	 1.004158e+01
1	 8.250000e+00	 4.166667e+00	 1.004293e+01
1	 8.333333e+00	 3.750000e+00	 1.002687e+01
1	 8.333333e+00	 3.833333e+00	 1.002879e+01
1	 8.333333e+00	 3.916667e+00	 1.003060e+01
1	 8.333333e+00	 4.000000e+00	 1.003231e+01
1	 8.333333e+00	 4.083333e+00	 1.003391e+01
1	 8.333333e+00	 4.166667e+00	 1.003541e+01
1	 7.916667e+00	 4.166667e+00	 1.007405e+01
1	 7.916667e+00	 4.250000e+00	 1.007467e+01
1	 7.916667e+00	 4.333333e+00	 1.007518e+01
1	 7.916667e+00	 4.416667e+00	 1.007557e+01
1	 7.916667e+00	 4.500000e+00	 1.007584e+01
1	 7.916667e+00	 4.583333e+00	 1.007600e+01
1	 8.000000e+00	 4.166667e+00	 1.006612e+01
1	 8.000000e+00	 4.250000e+00	 1.006689e+01
1	 8.000000e+00	 4.333333e+00	 1.006755e+01
1	 8.000000e+00	 4.416667e+00	 1.006811e+01
1	 8.000000e+00	 4.500000e+00	 1.006855e+01
1	 8.000000e+00	 4.583333e+00	 1.006887e+01
1	 8.083333e+00	 4.166667e+00	 1.005828e+01
1	 8.083333e+00	 4.250000e+00	 1.005921e+01
1	 8.083333e+00	 4.333333e+00	 1.006003e+01
1	 8.083333e+00	 4.416667e+00	 1.006074e+01
1	 8.083333e+00	 4.500000e+00	 1.006134e+01
1	 8.083333e+00	 4.583333e+00	 1.006183e+01
1	 8.166667e+00	 4.166667e+00	 1.005055e+01
1	 8.166667e+00	 4.250000e+00	 1.005164e+01
1	 8.166667e+00	 4.333333e+00	 1.005262e+01
1	 8.166667e+00	 4.416667e+00	 1.005349e+01
1	 8.166667e+00	 4.500000e+00	 1.005425e+01
1	 8.166667e+00	 4.583333e+00	 1.005490e+01
1	 8.250000e+00	 4.166667e+00	 1.004293e+01
1	 8.250000e+00	 4.250000e+00	 1.004417e+01
1	 8.250000e+00	 4.333333e+00	 1.004531e+01
1	 8.250000e+00	 4.416667e+00	 1.004634e+01
1	 8.250000e+00	 4.500000e+00	 1.004726e+01
1	 8.250000e+00	 4.583333e+00	 1.004807e+01
1	 8.333333e+00	 4.166667e+00	 1.003541e+01
1	 8.333333e+00	 4.250000e+00	 1.003681e+01
1	 8.333333e+00	 4.333333e+00	 1.003811e+01
1	 8.333333e+00	 4.416667e+00	 1.003930e+01
1	 8.333333e+00	 4.500000e+00	 1.004039e+01
1	 8.333333e+00	 4.583333e+00	 1.004136e+01
1	 7.916667e+00	 4.583333e+00	 1.007600e+01
1	 7.916667e+00	 4.666667e+00	 1.007605e+01
1	 7.916667e+00	 4.750000e+00	 1.007600e+01
1	 7.916667e+00	 4.833333e+00	 1.007585e+01
1	 7.916667e+00	 4.916667e+00	 1.007559e+01
1	 7.916667e+00	 5.000000e+00	 1.007522e+01
1	 8.000000e+00	 4.583333e+00	 1.006887e+01
1	 8.000000e+00	 4.666667e+00	 1.006909e+01
1	 8.000000e+00	 4.750000e+00	 1.006920e+01
1	 8.000000e+00	 4.833333e+00	 1.006922e+01
1	 8.000000e+00	 4.916667e+00	 1.006913e+01
1	 8.000000e+00	 5.000000e+00	 1.006893e+01
1	 8.083333e+00	 4.583333e+00	 1.006183e+01
1	 8.083333e+00	 4.666667e+00	 1.006222e+01
1	 8.083333e+00	 4.750000e+00	 1.006250e+01
1	 8.083333e+00	 4.833333e+00	 1.006268e+01
1	 8.083333e+00	 4.916667e+00	 1.006275e+01
1	 8.083333e+00	 5.000000e+00	 1.006272e+01
1	 8.166667e+00	 4.583333e+00	 1.005490e+01
1	 8.166667e+00	 4.666667e+00	 1.005544e+01
1	 8.166667e+00	 4.750000e+00	 1.005589e+01
1	 8.166667e+00	 4.833333e+00	 1.005624e+01
1	 8.166667e+00	 4.916667e+00	 1.005648e+01
1	 8.166667e+00	 5.000000e+00	 1.005661e+01
1	 8.250000e+00	 4.583333e+00	 1.004807e+01
1	 8.250000e+00	 4.666667e+00	 1.004878e+01
1	 8.250000e+00	 4.750000e+00	 1.004939e+01
1	 8.250000e+00	 4.833333e+00	 1.004990e+01
1	 8.250000e+00	 4.916667e+00	 1.005031e+01
1	 8.250000e+00	 5.000000e+00	 1.005061e+01
1	 8.333333e+00	 4.583333e+00	 1.004136e+01
1	 8.333333e+00	 4.666667e+00	 1.004224e+01
1	 8.333333e+00	 4.750000e+00	 1.004301e+01
1	 8.333333e+00	 4.833333e+00	 1.004368e+01
1	 8.333333e+00	 4.916667e+00	 1.004425e+01
1	 8.333333e+00	 5.000000e+00	 1.004472e+01
1	 8.333333e+00	 0.000000e+00	 9.928805e+00
1	 8.333333e+00	 8.333333e-02	 9.928893e+00
1	 8.333333e+00	 1.666667e-01	 9.929154e+00
1	 8.333333e+00	 2.500000e-01	 9.929588e+00
1	 8.333333e+00	 3.333333e-01	 9.930197e+00
1	 8.333333e+00	 4.166667e-01	 9.930982e+00
1	 8.416667e+00	 0.000000e+00	 9.917876e+00
1	 8.416667e+00	 8.333333e-02	 9.917964e+00
1	 8.416667e+00	 1.666667e-01	 9.918227e+00
1	 8.416667e+00	 2.500000e-01	 9.918663e+00
1	 8.416667e+00	 3.333333e-01	 9.919276e+00
1	 8.416667e+00	 4.166667e-01	 9.920065e+00
1	 8.500000e+00	 0.000000e+00	 9.906736e+00
1	 8.500000e+00	 8.333333e-02	 9.906825e+00
1	 8.500000e+00	 1.666667e-01	 9.907090e+00
1	 8.500000e+00	 2.500000e-01	 9.907531e+00
1	 8.500000e+00	 3.333333e-01	 9.908149e+00
1	 8.500000e+00	 4.166667e-01	 9.908946e+00
1	 8.583333e+00	 0.000000e+00	 9.895364e+00
1	 8.583333e+00	 8.333333e-02	 9.895455e+00
1	 8.583333e+00	 1.666667e-01	 9.895723e+00
1	 8.583333e+00	 2.500000e-01	 9.896170e+00
1	 8.583333e+00	 3.333333e-01	 9.896797e+00
1	 8.583333e+00	 4.166667e-01	 9.897604e+00
1	 8.666667e+00	 0.000000e+00	 9.883738e+00
1	 8.666667e+00	 8.333333e-02	 9.883830e+00
1	 8.666667e+00	 1.666667e-01	 9.884103e+00
1	 8.666667e+00	 2.500000e-01	 9.884558e+00
1	 8.666667e+00	 3.333333e-01	 9.885196e+00
1	 8.666667e+00	 4.166667e-01	 9.886017e+00
1	 8.750000e+00	 0.000000e+00	 9.871836e+00
1	 8.750000e+00	 8.333333e-02	 9.871930e+00
1	 8.750000e+00	 1.666667e-01	 9.872209e+00
1	 8.750000e+00	 2.500000e-01	 9.872674e+00
1	 8.750000e+00	 3.333333e-01	 9.873325e+00
1	 8.750000e+00	 4.166667e-01	 9.874164e+00
1	 8.333333e+00	 4.166667e-01	 9.930982e+00
1	 8.333333e+00	 5.000000e-01	 9.931932e+00
1	 8.333333e+00	 5.833333e-01	 9.933034e+00
1	 8.333333e+00	 6.666667e-01	 9.934294e+00
1	 8.333333e+00	 7.500000e-01	 9.935714e+00
1	 8.333333e+00	 8.333333e-01	 9.937298e+00
1	 8.416667e+00	 4.166667e-01	 9.920065e+00
1	 8.416667e+00	 5.000000e-01	 9.921020e+00
1	 8.416667e+00	 5.833333e-01	 9.922130e+00
1	 8.416667e+00	 6.666667e-01	 9.923399e+00
1	 8.416667e+00	 7.500000e-01	 9.924829e+00
1	 8.416667e+00	 8.333333e-01	 9.926424e+00
1	 8.500000e+00	 4.166667e-01	 9.908946e+00
1	 8.500000e+00	 5.000000e-01	 9.909910e+00
1	 8.500000e+00	 5.833333e-01	 9.911032e+00
1	 8.500000e+00	 6.666667e-01	 9.912315e+00
1	 8.500000e+00	 7.500000e-01	 9.913761e+00
1	 8.500000e+00	 8.333333e-01	 9.915374e+00
1	 8.583333e+00	 4.166667e-01	 9.897604e+00
1	 8.583333e+00	 5.000000e-01	 9.898581e+00
1	 8.583333e+00	 5.833333e-01	 9.899720e+00
1	 8.583333e+00	 6.666667e-01	 9.901021e+00
1	 8.583333e+00	 7.500000e-01	 9.902489e+00
1	 8.583333e+00	 8.333333e-01	 9.904126e+00
1	 8.666667e+00	 4.166667e-01	 9.886017e+00
1	 8.666667e+00	 5.000000e-01	 9.887012e+00
1	 8.666667e+00	 5.833333e-01	 9.888171e+00
1	 8.666667e+00	 6.666667e-01	 9.889497e+00
1	 8.666667e+00	 7.500000e-01	 9.890993e+00
1	 8.666667e+00	 8.333333e-01	 9.892660e+00
1	 8.750000e+00	 4.166667e-01	 9.874164e+00
1	 8.750000e+00	 5.000000e-01	 9.875180e+00
1	 8.750000e+00	 5.833333e-01	 9.876365e+00
1	 8.750000e+00	 6.666667e-01	 9.877721e+00
1	 8.750000e+00	 7.500000e-01	 9.879251e+00
1	 8.750000e+00	 8.333333e-01	 9.880956e+00
1	 8.333333e+00	 8.333333e-01	 9.937298e+00
1	 8.333333e+00	 9.166667e-01	 9.939024e+00
1	 8.333333e+00	 1.000000e+00	 9.940869e+00
1	 8.333333e+00	 1.083333e+00	 9.942840e+00
1	 8.333333e+00	 1.166667e+00	 9.944942e+00
1	 8.333333e+00	 1.250000e+00	 9.947179e+00
1	 8.416667e+00	 8.333333e-01	 9.926424e+00
1	 8.416667e+00	 9.166667e-01	 9.928163e+00
1	 8.416667e+00	 1.000000e+00	 9.930025e+00
1	 8.416667e+00	 1.083333e+00	 9.932015e+00
1	 8.416667e+00	 1.166667e+00	 9.934137e+00
1	 8.416667e+00	 1.250000e+00	 9.936397e+00
1	 8.500000e+00	 8.333333e-01	 9.915374e+00
1	 8.500000e+00	 9.166667e-01	 9.917133e+00
1	 8.500000e+00	 1.000000e+00	 9.919018e+00
1	 8.500000e+00	 1.083333e+00	 9.921034e+00
1	 8.500000e+00	 1.166667e+00	 9.923186e+00
1	 8.500000e+00	 1.250000e+00	 9.925477e+00
1	 8.583333e+00	 8.333333e-01	 9.904126e+00
1	 8.583333e+00	 9.166667e-01	 9.905912e+00
1	 8.583333e+00	 1.000000e+00	 9.907828e+00
1	 8.583333e+00	 1.083333e+00	 9.909879e+00
1	 8.583333e+00	 1.166667e+00	 9.912068e+00
1	 8.583333e+00	 1.250000e+00	 9.914400e+00
1	 8.666667e+00	 8.333333e-01	 9.892660e+00
1	 8.666667e+00	 9.166667e-01	 9.894481e+00
1	 8.666667e+00	 1.000000e+00	 9.896435e+00
1	 8.666667e+00	 1.083333e+00	 9.898529e+00
1	 8.666667e+00	 1.166667e+00	 9.900764e+00
1	 8.666667e+00	 1.250000e+00	 9.903145e+00
1	 8.750000e+00	 8.333333e-01	 9.880956e+00
1	 8.750000e+00	 9.166667e-01	 9.882818e+00
1	 8.750000e+00	 1.000000e+00	 9.884820e+00
1	 8.750000e+00	 1.083333e+00	 9.886964e+00
1	 8.750000e+00	 1.166667e+00	 9.889255e+00
1	 8.750000e+00	 1.250000e+00	 9.891695e+00
1	 8.333333e+00	 1.250000e+00	 9.947179e+00
1	 8.333333e+00	 1.333333e+00	 9.949523e+00
1	 8.333333e+00	 1.416667e+00	 9.951946e+00
1	 8.333333e+00	 1.500000e+00	 9.954454e+00
1	 8.333333e+00	 1.583333e+00	 9.957053e+00
1	 8.333333e+00	 1.666667e+00	 9.959749e+00
1	 8.416667e+00	 1.250000e+00	 9.936397e+00
1	 8.416667e+00	 1.333333e+00	 9.938768e+00
1	 8.416667e+00	 1.416667e+00	 9.941220e+00
1	 8.416667e+00	 1.500000e+00	 9.943762e+00
1	 8.416667e+00	 1.583333e+00	 9.946397e+00
1	 8.416667e+00	 1.666667e+00	 9.949133e+00
1	 8.500000e+00	 1.250000e+00	 9.925477e+00
1	 8.500000e+00	 1.333333e+00	 9.927882e+00
1	 8.500000e+00	 1.416667e+00	 9.930374e+00
1	 8.500000e+00	 1.500000e+00	 9.932958e+00
1	 8.500000e+00	 1.583333e+00	 9.935640e+00
1	 8.500000e+00	 1.666667e+00	 9.938425e+00
1	 8.583333e+00	 1.250000e+00	 9.914400e+00
1	 8.583333e+00	 1.333333e+00	 9.916848e+00
1	 8.583333e+00	 1.416667e+00	 9.919388e+00
1	 8.583333e+00	 1.500000e+00	 9.922025e+00
1	 8.583333e+00	 1.583333e+00	 9.924763e+00
1	 8.583333e+00	 1.666667e+00	 9.927608e+00
1	 8.666667e+00	 1.250000e+00	 9.903145e+00
1	 8.666667e+00	 1.333333e+00	 9.905647e+00
1	 8.666667e+00	 1.416667e+00	 9.908246e+00
1	 8.666667e+00	 1.500000e+00	 9.910945e+00
1	 8.666667e+00	 1.583333e+00	 9.913750e+00
1	 8.666667e+00	 1.666667e+00	 9.916665e+00
1	 8.750000e+00	 1.250000e+00	 9.891695e+00
1	 8.750000e+00	 1.333333e+00	 9.894261e+00
1	 8.750000e+00	 1.416667e+00	 9.896928e+00
1	 8.750000e+00	 1.500000e+00	 9.899701e+00
1	 8.750000e+00	 1.583333e+00	 9.902584e+00
1	 8.750000e+00	 1.666667e+00	 9.905580e+00
1	 8.333333e+00	 1.666667e+00	 9.959749e+00
1	 8.333333e+00	 1.750000e+00	 9.962511e+00
1	 8.333333e+00	 1.833333e+00	 9.965307e+00
1	 8.333333e+00	 1.916667e+00	 9.968142e+00
1	 8.333333e+00	 2.000000e+00	 9.971025e+00
1	 8.333333e+00	 2.083333e+00	 9.973960e+00
1	 8.416667e+00	 1.666667e+00	 9.949133e+00
1	 8.416667e+00	 1.750000e+00	 9.951938e+00
1	 8.416667e+00	 1.833333e+00	 9.954782e+00
1	 8.416667e+00	 1.916667e+00	 9.957671e+00
1	 8.416667e+00	 2.000000e+00	 9.960610e+00
1	 8.416667e+00	 2.083333e+00	 9.963607e+00
1	 8.500000e+00	 1.666667e+00	 9.938425e+00
1	 8.500000e+00	 1.750000e+00	 9.941283e+00
1	 8.500000e+00	 1.833333e+00	 9.944185e+00
1	 8.500000e+00	 1.916667e+00	 9.947137e+00
1	 8.500000e+00	 2.000000e+00	 9.950143e+00
1	 8.500000e+00	 2.083333e+00	 9.953210e+00
1	 8.583333e+00	 1.666667e+00	 9.927608e+00
1	 8.583333e+00	 1.750000e+00	 9.930530e+00
1	 8.583333e+00	 1.833333e+00	 9.933501e+00
1	 8.583333e+00	 1.916667e+00	 9.936525e+00
1	 8.583333e+00	 2.000000e+00	 9.939609e+00
1	 8.583333e+00	 2.083333e+00	 9.942757e+00
1	 8.666667e+00	 1.666667e+00	 9.916665e+00
1	 8.666667e+00	 1.750000e+00	 9.919662e+00
1	 8.666667e+00	 1.833333e+00	 9.922712e+00
1	 8.666667e+00	 1.916667e+00	 9.925822e+00
1	 8.666667e+00	 2.000000e+00	 9.928994e+00
1	 8.666667e+00	 2.083333e+00	 9.932235e+00
1	 8.750000e+00	 1.666667e+00	 9.905580e+00
1	 8.750000e+00	 1.750000e+00	 9.908664e+00
1	 8.750000e+00	 1.833333e+00	 9.911806e+00
1	 8.750000e+00	 1.916667e+00	 9.915011e+00
1	 8.750000e+00	 2.000000e+00	 9.918284e+00
1	 8.750000e+00	 2.083333e+00	 9.921630e+00
1	 8.333333e+00	 2.083333e+00	 9.973960e+00
1	 8.333333e+00	 2.166667e+00	 9.976918e+00
1	 8.333333e+00	 2.250000e+00	 9.979867e+00
1	 8.333333e+00	 2.333333e+00	 9.982812e+00
1	 8.333333e+00	 2.416667e+00	 9.985760e+00
1	 8.333333e+00	 2.500000e+00	 9.988717e+00
1	 8.416667e+00	 2.083333e+00	 9.963607e+00
1	 8.416667e+00	 2.166667e+00	 9.966629e+00
1	 8.416667e+00	 2.250000e+00	 9.969648e+00
1	 8.416667e+00	 2.333333e+00	 9.972669e+00
1	 8.416667e+00	 2.416667e+00	 9.975698e+00
1	 8.416667e+00	 2.500000e+00	 9.978739e+00
1	 8.500000e+00	 2.083333e+00	 9.953210e+00
1	 8.500000e+00	 2.166667e+00	 9.956308e+00
1	 8.500000e+00	 2.250000e+00	 9.959407e+00
1	 8.500000e+00	 2.333333e+00	 9.962513e+00
1	 8.500000e+00	 2.416667e+00	 9.965631e+00
1	 8.500000e+00	 2.500000e+00	 9.968765e+00
1	 8.583333e+00	 2.083333e+00	 9.942757e+00
1	 8.583333e+00	 2.166667e+00	 9.945941e+00
1	 8.583333e+00	 2.250000e+00	 9.949131e+00
1	 8.583333e+00	 2.333333e+00	 9.952332e+00
1	 8.583333e+00	 2.416667e+00	 9.955550e+00
1	 8.583333e+00	 2.500000e+00	 9.958788e+00
1	 8.666667e+00	 2.083333e+00	 9.932235e+00
1	 8.666667e+00	 2.166667e+00	 9.935515e+00
1	 8.666667e+00	 2.250000e+00	 9.938807e+00
1	 8.666667e+00	 2.333333e+00	 9.942115e+00
1	 8.666667e+00	 2.416667e+00	 9.945443e+00
1	 8.666667e+00	 2.500000e+00	 9.948796e+00
1	 8.750000e+00	 2.083333e+00	 9.921630e+00
1	 8.750000e+00	 2.166667e+00	 9.925019e+00
1	 8.750000e+00	 2.250000e+00	 9.928425e+00
1	 8.750000e+00	 2.333333e+00	 9.931851e+00
1	 8.750000e+00	 2.416667e+00	 9.935302e+00
1	 8.750000e+00	 2.500000e+00	 9.938781e+00
1	 8.333333e+00	 2.500000e+00	 9.988717e+00
1	 8.333333e+00	 2.583333e+00	 9.991654e+00
1	 8.333333e+00	 2.666667e+00	 9.994546e+00
1	 8.333333e+00	 2.750000e+00	 9.997397e+00
1	 8.333333e+00	 2.833333e+00	 1.000021e+01
1	 8.333333e+00	 2.916667e+00	 1.000299e+01
1	 8.416667e+00	 2.500000e+00	 9.978739e+00
1	 8.416667e+00	 2.583333e+00	 9.981766e+00
1	 8.416667e+00	 2.666667e+00	 9.984752e+00
1	 8.416667e+00	 2.750000e+00	 9.987702e+00
1	 8.416667e+00	 2.833333e+00	 9.990620e+00
1	 8.416667e+00	 2.916667e+00	 9.993511e+00
1	 8.500000e+00	 2.500000e+00	 9.968765e+00
1	 8.500000e+00	 2.583333e+00	 9.971891e+00
1	 8.500000e+00	 2.666667e+00	 9.974980e+00
1	 8.500000e+00	 2.750000e+00	 9.978038e+00
1	 8.500000e+00	 2.833333e+00	 9.981069e+00
1	 8.500000e+00	 2.916667e+00	 9.984076e+00
1	 8.583333e+00	 2.500000e+00	 9.958788e+00
1	 8.583333e+00	 2.583333e+00	 9.962021e+00
1	 8.583333e+00	 2.666667e+00	 9.965224e+00
1	 8.583333e+00	 2.750000e+00	 9.968399e+00
1	 8.583333e+00	 2.833333e+00	 9.971550e+00
1	 8.583333e+00	 2.916667e+00	 9.974682e+00
1	 8.666667e+00	 2.500000e+00	 9.948796e+00
1	 8.666667e+00	 2.583333e+00	 9.952149e+00
1	 8.666667e+00	 2.666667e+00	 9.955474e+00
1	 8.666667e+00	 2.750000e+00	 9.958776e+00
1	 8.666667e+00	 2.833333e+00	 9.962059e+00
1	 8.666667e+00	 2.916667e+00	 9.965325e+00
1	 8.750000e+00	 2.500000e+00	 9.938781e+00
1	 8.750000e+00	 2.583333e+00	 9.942264e+00
1	 8.750000e+00	 2.666667e+00	 9.945724e+00
1	 8.750000e+00	 2.750000e+00	 9.949164e+00
1	 8.750000e+00	 2.833333e+00	 9.952588e+00
1	 8.750000e+00	 2.916667e+00	 9.956000e+00
1	 8.333333e+00	 2.916667e+00	 1.000299e+01
1	 8.333333e+00	 3.000000e+00	 1.000572e+01
1	 8.333333e+00	 3.083333e+00	 1.000838e+01
1	 8.333333e+00	 3.166667e+00	 1.001096e+01
1	 8.333333e+00	 3.250000e+00	 1.001348e+01
1	 8.333333e+00	 3.333333e+00	 1.001593e+01
1	 8.416667e+00	 2.916667e+00	 9.993511e+00
1	 8.416667e+00	 3.000000e+00	 9.996353e+00
1	 8.416667e+00	 3.083333e+00	 9.999126e+00
1	 8.416667e+00	 3.166667e+00	 1.000183e+01
1	 8.416667e+00	 3.250000e+00	 1.000447e+01
1	 8.416667e+00	 3.333333e+00	 1.000705e+01
1	 8.500000e+00	 2.916667e+00	 9.984076e+00
1	 8.500000e+00	 3.000000e+00	 9.987038e+00
1	 8.500000e+00	 3.083333e+00	 9.989935e+00
1	 8.500000e+00	 3.166667e+00	 9.992769e+00
1	 8.500000e+00	 3.250000e+00	 9.995544e+00
1	 8.500000e+00	 3.333333e+00	 9.998261e+00
1	 8.583333e+00	 2.916667e+00	 9.974682e+00
1	 8.583333e+00	 3.000000e+00	 9.977774e+00
1	 8.583333e+00	 3.083333e+00	 9.980803e+00
1	 8.583333e+00	 3.166667e+00	 9.983774e+00
1	 8.583333e+00	 3.250000e+00	 9.986688e+00
1	 8.583333e+00	 3.333333e+00	 9.989548e+00
1	 8.666667e+00	 2.916667e+00	 9.965325e+00
1	 8.666667e+00	 3.000000e+00	 9.968555e+00
1	 8.666667e+00	 3.083333e+00	 9.971726e+00
1	 8.666667e+00	 3.166667e+00	 9.974841e+00
1	 8.666667e+00	 3.250000e+00	 9.977903e+00
1	 8.666667e+00	 3.333333e+00	 9.980915e+00
1	 8.750000e+00	 2.916667e+00	 9.956000e+00
1	 8.750000e+00	 3.000000e+00	 9.959378e+00
1	 8.750000e+00	 3.083333e+00	 9.962701e+00
1	 8.750000e+00	 3.166667e+00	 9.965970e+00
1	 8.750000e+00	 3.250000e+00	 9.969189e+00
1	 8.750000e+00	 3.333333e+00	 9.972360e+00
1	 8.333333e+00	 3.333333e+00	 1.001593e+01
1	 8.333333e+00	 3.416667e+00	 1.001830e+01
1	 8.333333e+00	 3.500000e+00	 1.002058e+01
1	 8.333333e+00	 3.583333e+00	 1.002277e+01
1	 8.333333e+00	 3.666667e+00	 1.002486e+01
1	 8.333333e+00	 3.750000e+00	 1.002687e+01
1	 8.416667e+00	 3.333333e+00	 1.000705e+01
1	 8.416667e+00	 3.416667e+00	 1.000956e+01
1	 8.416667e+00	 3.500000e+00	 1.001198e+01
1	 8.416667e+00	 3.583333e+00	 1.001430e+01
1	 8.416667e+00	 3.666667e+00	 1.001655e+01
1	 8.416667e+00	 3.750000e+00	 1.001870e+01
1	 8.500000e+00	 3.333333e+00	 9.998261e+00
1	 8.500000e+00	 3.416667e+00	 1.000091e+01
1	 8.500000e+00	 3.500000e+00	 1.000347e+01
1	 8.500000e+00	 3.583333e+00	 1.000594e+01
1	 8.500000e+00	 3.666667e+00	 1.000833e+01
1	 8.500000e+00	 3.750000e+00	 1.001064e+01
1	 8.583333e+00	 3.333333e+00	 9.989548e+00
1	 8.583333e+00	 3.416667e+00	 9.992340e+00
1	 8.583333e+00	 3.500000e+00	 9.995047e+00
1	 8.583333e+00	 3.583333e+00	 9.997672e+00
1	 8.583333e+00	 3.666667e+00	 1.000022e+01
1	 8.583333e+00	 3.750000e+00	 1.000268e+01
1	 8.666667e+00	 3.333333e+00	 9.980915e+00
1	 8.666667e+00	 3.416667e+00	 9.983860e+00
1	 8.666667e+00	 3.500000e+00	 9.986723e+00
1	 8.666667e+00	 3.583333e+00	 9.989505e+00
1	 8.666667e+00	 3.666667e+00	 9.992209e+00
1	 8.666667e+00	 3.750000e+00	 9.994835e+00
1	 8.750000e+00	 3.333333e+00	 9.972360e+00
1	 8.750000e+00	 3.416667e+00	 9.975467e+00
1	 8.750000e+00	 3.500000e+00	 9.978493e+00
1	 8.750000e+00	 3.583333e+00	 9.981440e+00
1	 8.750000e+00	 3.666667e+00	 9.984311e+00
1	 8.750000e+00	 3.750000e+00	 9.987105e+00
1	 8.333333e+00	 3.750000e+00	 1.002687e+01
1	 8.333333e+00	 3.833333e+00	 1.002879e+01
1	 8.333333e+00	 3.916667e+00	 1.003060e+01
1	 8.333333e+00	 4.000000e+00	 1.003231e+01
1	 8.333333e+00	 4.083333e+00	 1.003391e+01
1	 8.333333e+00	 4.166667e+00	 1.003541e+01
1	 8.416667e+00	 3.750000e+00	 1.001870e+01
1	 8.416667e+00	 3.833333e+00	 1.002077e+01
1	 8.416667e+00	 3.916667e+00	 1.002273e+01
1	 8.416667e+00	 4.000000e+00	 1.002459e+01
1	 8.416667e+00	 4.083333e+00	 1.002635e+01
1	 8.416667e+00	 4.166667e+00	 1.002801e+01
1	 8.500000e+00	 3.750000e+00	 1.001064e+01
1	 8.500000e+00	 3.833333e+00	 1.001285e+01
1	 8.500000e+00	 3.916667e+00	 1.001497e+01
1	 8.500000e+00	 4.000000e+00	 1.001699e+01
1	 8.500000e+00	 4.083333e+00	 1.001891e+01
1	 8.500000e+00	 4.166667e+00	 1.002074e+01
1	 8.583333e+00	 3.750000e+00	 1.000268e+01
1	 8.583333e+00	 3.833333e+00	 1.000506e+01
1	 8.583333e+00	 3.916667e+00	 1.000733e+01
1	 8.583333e+00	 4.000000e+00	 1.000951e+01
1	 8.583333e+00	 4.083333e+00	 1.001160e+01
1	 8.583333e+00	 4.166667e+00	 1.001358e+01
1	 8.666667e+00	 3.750000e+00	 9.994835e+00
1	 8.666667e+00	 3.833333e+00	 9.997374e+00
1	 8.666667e+00	 3.916667e+00	 9.999815e+00
1	 8.666667e+00	 4.000000e+00	 1.000216e+01
1	 8.666667e+00	 4.083333e+00	 1.000441e+01
1	 8.666667e+00	 4.166667e+00	 1.000656e+01
1	 8.750000e+00	 3.750000e+00	 9.987105e+00
1	 8.750000e+00	 3.833333e+00	 9.989813e+00
1	 8.750000e+00	 3.916667e+00	 9.992425e+00
1	 8.750000e+00	 4.000000e+00	 9.994940e+00
1	 8.750000e+00	 4.083333e+00	 9.997359e+00
1	 8.750000e+00	 4.166667e+00	 9.999684e+00
1	 8.333333e+00	 4.166667e+00	 1.003541e+01
1	 8.333333e+00	 4.250000e+00	 1.003681e+01
1	 8.333333e+00	 4.333333e+00	 1.003811e+01
1	 8.333333e+00	 4.416667e+00	 1.003930e+01
1	 8.333333e+00	 4.500000e+00	 1.004039e+01
1	 8.333333e+00	 4.583333e+00	 1.004136e+01
1	 8.416667e+00	 4.166667e+00	 1.002801e+01
1	 8.416667e+00	 4.250000e+00	 1.002958e+01
1	 8.416667e+00	 4.333333e+00	 1.003103e+01
1	 8.416667e+00	 4.416667e+00	 1.003238e+01
1	 8.416667e+00	 4.500000e+00	 1.003363e+01
1	 8.416667e+00	 4.583333e+00	 1.003477e+01
1	 8.500000e+00	 4.166667e+00	 1.002074e+01
1	 8.500000e+00	 4.250000e+00	 1.002246e+01
1	 8.500000e+00	 4.333333e+00	 1.002408e+01
1	 8.500000e+00	 4.416667e+00	 1.002559e+01
1	 8.500000e+00	 4.500000e+00	 1.002700e+01
1	 8.500000e+00	 4.583333e+00	 1.002831e+01
1	 8.583333e+00	 4.166667e+00	 1.001358e+01
1	 8.583333e+00	 4.250000e+00	 1.001547e+01
1	 8.583333e+00	 4.333333e+00	 1.001725e+01
1	 8.583333e+00	 4.416667e+00	 1.001893e+01
1	 8.583333e+00	 4.500000e+00	 1.002051e+01
1	 8.583333e+00	 4.583333e+00	 1.002198e+01
1	 8.666667e+00	 4.166667e+00	 1.000656e+01
1	 8.666667e+00	 4.250000e+00	 1.000862e+01
1	 8.666667e+00	 4.333333e+00	 1.001057e+01
1	 8.666667e+00	 4.416667e+00	 1.001241e+01
1	 8.666667e+00	 4.500000e+00	 1.001416e+01
1	 8.666667e+00	 4.583333e+00	 1.001579e+01
1	 8.750000e+00	 4.166667e+00	 9.999684e+00
1	 8.750000e+00	 4.250000e+00	 1.000191e+01
1	 8.750000e+00	 4.333333e+00	 1.000403e+01
1	 8.750000e+00	 4.416667e+00	 1.000605e+01
1	 8.750000e+00	 4.500000e+00	 1.000796e+01
1	 8.750000e+00	 4.583333e+00	 1.000976e+01
1	 8.333333e+00	 4.583333e+00	 1.004136e+01
1	 8.333333e+00	 4.666667e+00	 1.004224e+01
1	 8.333333e+00	 4.750000e+00	 1.004301e+01
1	 8.333333e+00	 4.833333e+00	 1.004368e+01
1	 8.333333e+00	 4.916667e+00	 1.004425e+01
1	 8.333333e+00	 5.000000e+00	 1.004472e+01
1	 8.416667e+00	 4.583333e+00	 1.003477e+01
1	 8.416667e+00	 4.666667e+00	 1.003581e+01
1	 8.416667e+00	 4.750000e+00	 1.003675e+01
1	 8.416667e+00	 4.833333e+00	 1.003758e+01
1	 8.416667e+00	 4.916667e+00	 1.003832e+01
1	 8.416667e+00	 5.000000e+00	 1.003894e+01
1	 8.500000e+00	 4.583333e+00	 1.002831e+01
1	 8.500000e+00	 4.666667e+00	 1.002951e+01
1	 8.500000e+00	 4.750000e+00	 1.003061e+01
1	 8.500000e+00	 4.833333e+00	 1.003161e+01
1	 8.500000e+00	 4.916667e+00	 1.003250e+01
1	 8.500000e+00	 5.000000e+00	 1.003329e+01
1	 8.583333e+00	 4.583333e+00	 1.002198e+01
1	 8.583333e+00	 4.666667e+00	 1.002334e+01
1	 8.583333e+00	 4.750000e+00	 1.002461e+01
1	 8.583333e+00	 4.833333e+00	 1.002577e+01
1	 8.583333e+00	 4.916667e+00	 1.002683e+01
1	 8.583333e+00	 5.000000e+00	 1.002778e+01
1	 8.666667e+00	 4.583333e+00	 1.001579e+01
1	 8.666667e+00	 4.666667e+00	 1.001732e+01
1	 8.666667e+00	 4.750000e+00	 1.001875e+01
1	 8.666667e+00	 4.833333e+00	 1.002008e+01
1	 8.666667e+00	 4.916667e+00	 1.002130e+01
1	 8.666667e+00	 5.000000e+00	 1.002241e+01
1	 8.750000e+00	 4.583333e+00	 1.000976e+01
1	 8.750000e+00	 4.666667e+00	 1.001146e+01
1	 8.750000e+00	 4.750000e+00	 1.001305e+01
1	 8.750000e+00	 4.833333e+00	 1.001454e+01
1	 8.750000e+00	 4.916667e+00	 1.001592e+01
1	 8.750000e+00	 5.000000e+00	 1.001720e+01
1	 8.750000e+00	 0.000000e+00	 9.871836e+00
1	 8.750000e+00	 8.333333e-02	 9.871930e+00
1	 8.750000e+00	 1.666667e-01	 9.872209e+00
1	 8.750000e+00	 2.500000e-01	 9.872674e+00
1	 8.750000e+00	 3.333333e-01	 9.873325e+00
1	 8.750000e+00	 4.166667e-01	 9.874164e+00
1	 8.833333e+00	 0.000000e+00	 9.859650e+00
1	 8.833333e+00	 8.333333e-02	 9.859747e+00
1	 8.833333e+00	 1.666667e-01	 9.860033e+00
1	 8.833333e+00	 2.500000e-01	 9.860510e+00
1	 8.833333e+00	 3.333333e-01	 9.861177e+00
1	 8.833333e+00	 4.166667e-01	 9.862037e+00
1	 8.916667e+00	 0.000000e+00	 9.847170e+00
1	 8.916667e+00	 8.333333e-02	 9.847269e+00
1	 8.916667e+00	 1.666667e-01	 9.847563e+00
1	 8.916667e+00	 2.500000e-01	 9.848054e+00
1	 8.916667e+00	 3.333333e-01	 9.848741e+00
1	 8.916667e+00	 4.166667e-01	 9.849625e+00
1	 9.000000e+00	 0.000000e+00	 9.834363e+00
1	 9.000000e+00	 8.333333e-02	 9.834465e+00
1	 9.000000e+00	 1.666667e-01	 9.834769e+00
1	 9.000000e+00	 2.500000e-01	 9.835276e+00
1	 9.000000e+00	 3.333333e-01	 9.835985e+00
1	 9.000000e+00	 4.166667e-01	 9.836899e+00
1	 9.083333e+00	 0.000000e+00	 9.821200e+00
1	 9.083333e+00	 8.333333e-02	 9.821306e+00
1	 9.083333e+00	 1.666667e-01	 9.821621e+00
1	 9.083333e+00	 2.500000e-01	 9.822146e+00
1	 9.083333e+00	 3.333333e-01	 9.822882e+00
1	 9.083333e+00	 4.166667e-01	 9.823828e+00
1	 9.166667e+00	 0.000000e+00	 9.807651e+00
1	 9.166667e+00	 8.333333e-02	 9.807761e+00
1	 9.166667e+00	 1.666667e-01	 9.808089e+00
1	 9.166667e+00	 2.500000e-01	 9.808635e+00
1	 9.166667e+00	 3.333333e-01	 9.809399e+00
1	 9.166667e+00	 4.166667e-01	 9.810383e+00
1	 8.750000e+00	 4.166667e-01	 9.874164e+00
1	 8.750000e+00	 5.000000e-01	 9.875180e+00
1	 8.750000e+00	 5.833333e-01	 9.876365e+00
1	 8.750000e+00	 6.666667e-01	 9.877721e+00
1	 8.750000e+00	 7.500000e-01	 9.879251e+00
1	 8.750000e+00	 8.333333e-01	 9.880956e+00
1	 8.833333e+00	 4.166667e-01	 9.862037e+00
1	 8.833333e+00	 5.000000e-01	 9.863079e+00
1	 8.833333e+00	 5.833333e-01	 9.864295e+00
1	 8.833333e+00	 6.666667e-01	 9.865687e+00
1	 8.833333e+00	 7.500000e-01	 9.867257e+00
1	 8.833333e+00	 8.333333e-01	 9.869007e+00
1	 8.916667e+00	 4.166667e-01	 9.849625e+00
1	 8.916667e+00	 5.000000e-01	 9.850698e+00
1	 8.916667e+00	 5.833333e-01	 9.851950e+00
1	 8.916667e+00	 6.666667e-01	 9.853383e+00
1	 8.916667e+00	 7.500000e-01	 9.855000e+00
1	 8.916667e+00	 8.333333e-01	 9.856802e+00
1	 9.000000e+00	 4.166667e-01	 9.836899e+00
1	 9.000000e+00	 5.000000e-01	 9.838007e+00
1	 9.000000e+00	 5.833333e-01	 9.839300e+00
1	 9.000000e+00	 6.666667e-01	 9.840782e+00
1	 9.000000e+00	 7.500000e-01	 9.842453e+00
1	 9.000000e+00	 8.333333e-01	 9.844315e+00
1	 9.083333e+00	 4.166667e-01	 9.823828e+00
1	 9.083333e+00	 5.000000e-01	 9.824976e+00
1	 9.083333e+00	 5.833333e-01	 9.826317e+00
1	 9.083333e+00	 6.666667e-01	 9.827854e+00
1	 9.083333e+00	 7.500000e-01	 9.829587e+00
1	 9.083333e+00	 8.333333e-01	 9.831518e+00
1	 9.166667e+00	 4.166667e-01	 9.810383e+00
1	 9.166667e+00	 5.000000e-01	 9.811577e+00
1	 9.166667e+00	 5.833333e-01	 9.812973e+00
1	 9.166667e+00	 6.666667e-01	 9.814571e+00
1	 9.166667e+00	 7.500000e-01	 9.816374e+00
1	 9.166667e+00	 8.333333e-01	 9.818384e+00
1	 8.750000e+00	 8.333333e-01	 9.880956e+00
1	 8.750000e+00	 9.166667e-01	 9.882818e+00
1	 8.750000e+00	 1.000000e+00	 9.884820e+00
1	 8.750000e+00	 1.083333e+00	 9.886964e+00
1	 8.750000e+00	 1.166667e+00	 9.889255e+00
1	 8.750000e+00	 1.250000e+00	 9.891695e+00
1	 8.833333e+00	 8.333333e-01	 9.869007e+00
1	 8.833333e+00	 9.166667e-01	 9.870919e+00
1	 8.833333e+00	 1.000000e+00	 9.872975e+00
1	 8.833333e+00	 1.083333e+00	 9.875179e+00
1	 8.833333e+00	 1.166667e+00	 9.877535e+00
1	 8.833333e+00	 1.250000e+00	 9.880044e+00
1	 8.916667e+00	 8.333333e-01	 9.856802e+00
1	 8.916667e+00	 9.166667e-01	 9.858772e+00
1	 8.916667e+00	 1.000000e+00	 9.860892e+00
1	 8.916667e+00	 1.083333e+00	 9.863165e+00
1	 8.916667e+00	 1.166667e+00	 9.865595e+00
1	 8.916667e+00	 1.250000e+00	 9.868184e+00
1	 9.000000e+00	 8.333333e-01	 9.844315e+00
1	 9.000000e+00	 9.166667e-01	 9.846352e+00
1	 9.000000e+00	 1.000000e+00	 9.848544e+00
1	 9.000000e+00	 1.083333e+00	 9.850897e+00
1	 9.000000e+00	 1.166667e+00	 9.853411e+00
1	 9.000000e+00	 1.250000e+00	 9.856091e+00
1	 9.083333e+00	 8.333333e-01	 9.831518e+00
1	 9.083333e+00	 9.166667e-01	 9.833630e+00
1	 9.083333e+00	 1.000000e+00	 9.835906e+00
1	 9.083333e+00	 1.083333e+00	 9.838348e+00
1	 9.083333e+00	 1.166667e+00	 9.840959e+00
1	 9.083333e+00	 1.250000e+00	 9.843742e+00
1	 9.166667e+00	 8.333333e-01	 9.818384e+00
1	 9.166667e+00	 9.166667e-01	 9.820582e+00
1	 9.166667e+00	 1.000000e+00	 9.822951e+00
1	 9.166667e+00	 1.083333e+00	 9.825494e+00
1	 9.166667e+00	 1.166667e+00	 9.828213e+00
1	 9.166667e+00	 1.250000e+00	 9.831111e+00
1	 8.750000e+00	 1.250000e+00	 9.891695e+00
1	 8.750000e+00	 1.333333e+00	 9.894261e+00
1	 8.750000e+00	 1.416667e+00	 9.896928e+00
1	 8.750000e+00	 1.500000e+00	 9.899701e+00
1	 8.750000e+00	 1.583333e+00	 9.902584e+00
1	 8.750000e+00	 1.666667e+00	 9.905580e+00
1	 8.833333e+00	 1.250000e+00	 9.880044e+00
1	 8.833333e+00	 1.333333e+00	 9.882684e+00
1	 8.833333e+00	 1.416667e+00	 9.885431e+00
1	 8.833333e+00	 1.500000e+00	 9.888288e+00
1	 8.833333e+00	 1.583333e+00	 9.891260e+00
1	 8.833333e+00	 1.666667e+00	 9.894350e+00
1	 8.916667e+00	 1.250000e+00	 9.868184e+00
1	 8.916667e+00	 1.333333e+00	 9.870909e+00
1	 8.916667e+00	 1.416667e+00	 9.873746e+00
1	 8.916667e+00	 1.500000e+00	 9.876699e+00
1	 8.916667e+00	 1.583333e+00	 9.879772e+00
1	 8.916667e+00	 1.666667e+00	 9.882968e+00
1	 9.000000e+00	 1.250000e+00	 9.856091e+00
1	 9.000000e+00	 1.333333e+00	 9.858913e+00
1	 9.000000e+00	 1.416667e+00	 9.861852e+00
1	 9.000000e+00	 1.500000e+00	 9.864913e+00
1	 9.000000e+00	 1.583333e+00	 9.868100e+00
1	 9.000000e+00	 1.666667e+00	 9.871415e+00
1	 9.083333e+00	 1.250000e+00	 9.843742e+00
1	 9.083333e+00	 1.333333e+00	 9.846672e+00
1	 9.083333e+00	 1.416667e+00	 9.849727e+00
1	 9.083333e+00	 1.500000e+00	 9.852910e+00
1	 9.083333e+00	 1.583333e+00	 9.856224e+00
1	 9.083333e+00	 1.666667e+00	 9.859673e+00
1	 9.166667e+00	 1.250000e+00	 9.831111e+00
1	 9.166667e+00	 1.333333e+00	 9.834164e+00
1	 9.166667e+00	 1.416667e+00	 9.837349e+00
1	 9.166667e+00	 1.500000e+00	 9.840668e+00
1	 9.166667e+00	 1.583333e+00	 9.844124e+00
1	 9.166667e+00	 1.666667e+00	 9.847721e+00
1	 8.750000e+00	 1.666667e+00	 9.905580e+00
1	 8.750000e+00	 1.750000e+00	 9.908664e+00
1	 8.750000e+00	 1.833333e+00	 9.911806e+00
1	 8.750000e+00	 1.916667e+00	 9.915011e+00
1	 8.750000e+00	 2.000000e+00	 9.918284e+00
1	 8.750000e+00	 2.083333e+00	 9.921630e+00
1	 8.833333e+00	 1.666667e+00	 9.894350e+00
1	 8.833333e+00	 1.750000e+00	 9.897532e+00
1	 8.833333e+00	 1.833333e+00	 9.900777e+00
1	 8.833333e+00	 1.916667e+00	 9.904091e+00
1	 8.833333e+00	 2.000000e+00	 9.907477e+00
1	 8.833333e+00	 2.083333e+00	 9.910939e+00
1	 8.916667e+00	 1.666667e+00	 9.882968e+00
1	 8.916667e+00	 1.750000e+00	 9.886260e+00
1	 8.916667e+00	 1.833333e+00	 9.889622e+00
1	 8.916667e+00	 1.916667e+00	 9.893056e+00
1	 8.916667e+00	 2.000000e+00	 9.896568e+00
1	 8.916667e+00	 2.083333e+00	 9.900160e+00
1	 9.000000e+00	 1.666667e+00	 9.871415e+00
1	 9.000000e+00	 1.750000e+00	 9.874832e+00
1	 9.000000e+00	 1.833333e+00	 9.878323e+00
1	 9.000000e+00	 1.916667e+00	 9.881892e+00
1	 9.000000e+00	 2.000000e+00	 9.885544e+00
1	 9.000000e+00	 2.083333e+00	 9.889280e+00
1	 9.083333e+00	 1.666667e+00	 9.859673e+00
1	 9.083333e+00	 1.750000e+00	 9.863228e+00
1	 9.083333e+00	 1.833333e+00	 9.866864e+00
1	 9.083333e+00	 1.916667e+00	 9.870583e+00
1	 9.083333e+00	 2.000000e+00	 9.874388e+00
1	 9.083333e+00	 2.083333e+00	 9.878285e+00
1	 9.166667e+00	 1.666667e+00	 9.847721e+00
1	 9.166667e+00	 1.750000e+00	 9.851432e+00
1	 9.166667e+00	 1.833333e+00	 9.855227e+00
1	 9.166667e+00	 1.916667e+00	 9.859111e+00
1	 9.166667e+00	 2.000000e+00	 9.863088e+00
1	 9.166667e+00	 2.083333e+00	 9.867160e+00
1	 8.750000e+00	 2.083333e+00	 9.921630e+00
1	 8.750000e+00	 2.166667e+00	 9.925019e+00
1	 8.750000e+00	 2.250000e+00	 9.928425e+00
1	 8.750000e+00	 2.333333e+00	 9.931851e+00
1	 8.750000e+00	 2.416667e+00	 9.935302e+00
1	 8.750000e+00	 2.500000e+00	 9.938781e+00
1	 8.833333e+00	 2.083333e+00	 9.910939e+00
1	 8.833333e+00	 2.166667e+00	 9.914450e+00
1	 8.833333e+00	 2.250000e+00	 9.917982e+00
1	 8.833333e+00	 2.333333e+00	 9.921539e+00
1	 8.833333e+00	 2.416667e+00	 9.925124e+00
1	 8.833333e+00	 2.500000e+00	 9.928742e+00
1	 8.916667e+00	 2.083333e+00	 9.900160e+00
1	 8.916667e+00	 2.166667e+00	 9.903806e+00
1	 8.916667e+00	 2.250000e+00	 9.907477e+00
1	 8.916667e+00	 2.333333e+00	 9.911177e+00
1	 8.916667e+00	 2.416667e+00	 9.914909e+00
1	 8.916667e+00	 2.500000e+00	 9.918678e+00
1	 9.000000e+00	 2.083333e+00	 9.889280e+00
1	 9.000000e+00	 2.166667e+00	 9.893075e+00
1	 9.000000e+00	 2.250000e+00	 9.896898e+00
1	 9.000000e+00	 2.333333e+00	 9.900755e+00
1	 9.000000e+00	 2.416667e+00	 9.904649e+00
1	 9.000000e+00	 2.500000e+00	 9.908582e+00
1	 9.083333e+00	 2.083333e+00	 9.878285e+00
1	 9.083333e+00	 2.166667e+00	 9.882243e+00
1	 9.083333e+00	 2.250000e+00	 9.886235e+00
1	 9.083333e+00	 2.333333e+00	 9.890264e+00
1	 9.083333e+00	 2.416667e+00	 9.894333e+00
1	 9.083333e+00	 2.500000e+00	 9.898446e+00
1	 9.166667e+00	 2.083333e+00	 9.867160e+00
1	 9.166667e+00	 2.166667e+00	 9.871298e+00
1	 9.166667e+00	 2.250000e+00	 9.875475e+00
1	 9.166667e+00	 2.333333e+00	 9.879692e+00
1	 9.166667e+00	 2.416667e+00	 9.883953e+00
1	 9.166667e+00	 2.500000e+00	 9.888263e+00
1	 8.750000e+00	 2.500000e+00	 9.938781e+00
1	 8.750000e+00	 2.583333e+00	 9.942264e+00
1	 8.750000e+00	 2.666667e+00	 9.945724e+00
1	 8.750000e+00	 2.750000e+00	 9.949164e+00
1	 8.750000e+00	 2.833333e+00	 9.952588e+00
1	 8.750000e+00	 2.916667e+00	 9.956000e+00
1	 8.833333e+00	 2.500000e+00	 9.928742e+00
1	 8.833333e+00	 2.583333e+00	 9.932367e+00
1	 8.833333e+00	 2.666667e+00	 9.935972e+00
1	 8.833333e+00	 2.750000e+00	 9.939562e+00
1	 8.833333e+00	 2.833333e+00	 9.943139e+00
1	 8.833333e+00	 2.916667e+00	 9.946707e+00
1	 8.916667e+00	 2.500000e+00	 9.918678e+00
1	 8.916667e+00	 2.583333e+00	 9.922458e+00
1	 8.916667e+00	 2.666667e+00	 9.926221e+00
1	 8.916667e+00	 2.750000e+00	 9.929972e+00
1	 8.916667e+00	 2.833333e+00	 9.933713e+00
1	 8.916667e+00	 2.916667e+00	 9.937448e+00
1	 9.000000e+00	 2.500000e+00	 9.908582e+00
1	 9.000000e+00	 2.583333e+00	 9.912530e+00
1	 9.000000e+00	 2.666667e+00	 9.916464e+00
1	 9.000000e+00	 2.750000e+00	 9.920389e+00
1	 9.000000e+00	 2.833333e+00	 9.924308e+00
1	 9.000000e+00	 2.916667e+00	 9.928222e+00
1	 9.083333e+00	 2.500000e+00	 9.898446e+00
1	 9.083333e+00	 2.583333e+00	 9.902577e+00
1	 9.083333e+00	 2.666667e+00	 9.906697e+00
1	 9.083333e+00	 2.750000e+00	 9.910810e+00
1	 9.083333e+00	 2.833333e+00	 9.914919e+00
1	 9.083333e+00	 2.916667e+00	 9.919027e+00
1	 9.166667e+00	 2.500000e+00	 9.888263e+00
1	 9.166667e+00	 2.583333e+00	 9.892592e+00
1	 9.166667e+00	 2.666667e+00	 9.896913e+00
1	 9.166667e+00	 2.750000e+00	 9.901230e+00
1	 9.166667e+00	 2.833333e+00	 9.905544e+00
1	 9.166667e+00	 2.916667e+00	 9.909860e+00
1	 8.750000e+00	 2.916667e+00	 9.956000e+00
1	 8.750000e+00	 3.000000e+00	 9.959378e+00
1	 8.750000e+00	 3.083333e+00	 9.962701e+00
1	 8.750000e+00	 3.166667e+00	 9.965970e+00
1	 8.750000e+00	 3.250000e+00	 9.969189e+00
1	 8.750000e+00	 3.333333e+00	 9.972360e+00
1	 8.833333e+00	 2.916667e+00	 9.946707e+00
1	 8.833333e+00	 3.000000e+00	 9.950244e+00
1	 8.833333e+00	 3.083333e+00	 9.953728e+00
1	 8.833333e+00	 3.166667e+00	 9.957161e+00
1	 8.833333e+00	 3.250000e+00	 9.960546e+00
1	 8.833333e+00	 3.333333e+00	 9.963885e+00
1	 8.916667e+00	 2.916667e+00	 9.937448e+00
1	 8.916667e+00	 3.000000e+00	 9.941155e+00
1	 8.916667e+00	 3.083333e+00	 9.944811e+00
1	 8.916667e+00	 3.166667e+00	 9.948418e+00
1	 8.916667e+00	 3.250000e+00	 9.951978e+00
1	 8.916667e+00	 3.333333e+00	 9.955495e+00
1	 9.000000e+00	 2.916667e+00	 9.928222e+00
1	 9.000000e+00	 3.000000e+00	 9.932111e+00
1	 9.000000e+00	 3.083333e+00	 9.935950e+00
1	 9.000000e+00	 3.166667e+00	 9.939741e+00
1	 9.000000e+00	 3.250000e+00	 9.943489e+00
1	 9.000000e+00	 3.333333e+00	 9.947193e+00
1	 9.083333e+00	 2.916667e+00	 9.919027e+00
1	 9.083333e+00	 3.000000e+00	 9.923110e+00
1	 9.083333e+00	 3.083333e+00	 9.927145e+00
1	 9.083333e+00	 3.166667e+00	 9.931134e+00
1	 9.083333e+00	 3.250000e+00	 9.935079e+00
1	 9.083333e+00	 3.333333e+00	 9.938984e+00
1	 9.166667e+00	 2.916667e+00	 9.909860e+00
1	 9.166667e+00	 3.000000e+00	 9.914153e+00
1	 9.166667e+00	 3.083333e+00	 9.918397e+00
1	 9.166667e+00	 3.166667e+00	 9.922597e+00
1	 9.166667e+00	 3.250000e+00	 9.926754e+00
1	 9.166667e+00	 3.333333e+00	 9.930869e+00
1	 8.750000e+00	 3.333333e+00	 9.972360e+00
1	 8.750000e+00	 3.416667e+00	 9.975467e+00
1	 8.750000e+00	 3.500000e+00	 9.978493e+00
1	 8.750000e+00	 3.583333e+00	 9.981440e+00
1	 8.750000e+00	 3.666667e+00	 9.984311e+00
1	 8.750000e+00	 3.750000e+00	 9.987105e+00
1	 8.833333e+00	 3.333333e+00	 9.963885e+00
1	 8.833333e+00	 3.416667e+00	 9.967162e+00
1	 8.833333e+00	 3.500000e+00	 9.970360e+00
1	 8.833333e+00	 3.583333e+00	 9.973480e+00
1	 8.833333e+00	 3.666667e+00	 9.976524e+00
1	 8.833333e+00	 3.750000e+00	 9.979493e+00
1	 8.916667e+00	 3.333333e+00	 9.955495e+00
1	 8.916667e+00	 3.416667e+00	 9.958951e+00
1	 8.916667e+00	 3.500000e+00	 9.962329e+00
1	 8.916667e+00	 3.583333e+00	 9.965629e+00
1	 8.916667e+00	 3.666667e+00	 9.968854e+00
1	 8.916667e+00	 3.750000e+00	 9.972005e+00
1	 9.000000e+00	 3.333333e+00	 9.947193e+00
1	 9.000000e+00	 3.416667e+00	 9.950838e+00
1	 9.000000e+00	 3.500000e+00	 9.954404e+00
1	 9.000000e+00	 3.583333e+00	 9.957894e+00
1	 9.000000e+00	 3.666667e+00	 9.961308e+00
1	 9.000000e+00	 3.750000e+00	 9.964649e+00
1	 9.083333e+00	 3.333333e+00	 9.938984e+00
1	 9.083333e+00	 3.416667e+00	 9.942828e+00
1	 9.083333e+00	 3.500000e+00	 9.946593e+00
1	 9.083333e+00	 3.583333e+00	 9.950282e+00
1	 9.083333e+00	 3.666667e+00	 9.953894e+00
1	 9.083333e+00	 3.750000e+00	 9.957433e+00
1	 9.166667e+00	 3.333333e+00	 9.930869e+00
1	 9.166667e+00	 3.416667e+00	 9.934925e+00
1	 9.166667e+00	 3.500000e+00	 9.938901e+00
1	 9.166667e+00	 3.583333e+00	 9.942798e+00
1	 9.166667e+00	 3.666667e+00	 9.946619e+00
1	 9.166667e+00	 3.750000e+00	 9.950366e+00
1	 8.750000e+00	 3.750000e+00	 9.987105e+00
1	 8.750000e+00	 3.833333e+00	 9.989813e+00
1	 8.750000e+00	 3.916667e+00	 9.992425e+00
1	 8.750000e+00	 4.000000e+00	 9.994940e+00
1	 8.750000e+00	 4.083333e+00	 9.997359e+00
1	 8.750000e+00	 4.166667e+00	 9.999684e+00
1	 8.833333e+00	 3.750000e+00	 9.979493e+00
1	 8.833333e+00	 3.833333e+00	 9.982377e+00
1	 8.833333e+00	 3.916667e+00	 9.985164e+00
1	 8.833333e+00	 4.000000e+00	 9.987854e+00
1	 8.833333e+00	 4.083333e+00	 9.990449e+00
1	 8.833333e+00	 4.166667e+00	 9.992949e+00
1	 8.916667e+00	 3.750000e+00	 9.972005e+00
1	 8.916667e+00	 3.833333e+00	 9.975070e+00
1	 8.916667e+00	 3.916667e+00	 9.978038e+00
1	 8.916667e+00	 4.000000e+00	 9.980909e+00
1	 8.916667e+00	 4.083333e+00	 9.983685e+00
1	 8.916667e+00	 4.166667e+00	 9.986364e+00
1	 9.000000e+00	 3.750000e+00	 9.964649e+00
1	 9.000000e+00	 3.833333e+00	 9.967903e+00
1	 9.000000e+00	 3.916667e+00	 9.971059e+00
1	 9.000000e+00	 4.000000e+00	 9.974117e+00
1	 9.000000e+00	 4.083333e+00	 9.977077e+00
1	 9.000000e+00	 4.166667e+00	 9.979942e+00
1	 9.083333e+00	 3.750000e+00	 9.957433e+00
1	 9.083333e+00	 3.833333e+00	 9.960884e+00
1	 9.083333e+00	 3.916667e+00	 9.964235e+00
1	 9.083333e+00	 4.000000e+00	 9.967486e+00
1	 9.083333e+00	 4.083333e+00	 9.970639e+00
1	 9.083333e+00	 4.166667e+00	 9.973693e+00
1	 9.166667e+00	 3.750000e+00	 9.950366e+00
1	 9.166667e+00	 3.833333e+00	 9.954023e+00
1	 9.166667e+00	 3.916667e+00	 9.957577e+00
1	 9.166667e+00	 4.000000e+00	 9.961029e+00
1	 9.166667e+00	 4.083333e+00	 9.964380e+00
1	 9.166667e+00	 4.166667e+00	 9.967631e+00
1	 8.750000e+00	 4.166667e+00	 9.999684e+00
1	 8.750000e+00	 4.250000e+00	 1.000191e+01
1	 8.750000e+00	 4.333333e+00	 1.000403e+01
1	 8.750000e+00	 4.416667e+00	 1.000605e+01
1	 8.750000e+00	 4.500000e+00	 1.000796e+01
1	 8.750000e+00	 4.583333e+00	 1.000976e+01
1	 8.833333e+00	 4.166667e+00	 9.992949e+00
1	 8.833333e+00	 4.250000e+00	 9.995349e+00
1	 8.833333e+00	 4.333333e+00	 9.997643e+00
1	 8.833333e+00	 4.416667e+00	 9.999831e+00
1	 8.833333e+00	 4.500000e+00	 1.000191e+01
1	 8.833333e+00	 4.583333e+00	 1.000389e+01
1	 8.916667e+00	 4.166667e+00	 9.986364e+00
1	 8.916667e+00	 4.250000e+00	 9.988943e+00
1	 8.916667e+00	 4.333333e+00	 9.991413e+00
1	 8.916667e+00	 4.416667e+00	 9.993776e+00
1	 8.916667e+00	 4.500000e+00	 9.996031e+00
1	 8.916667e+00	 4.583333e+00	 9.998178e+00
1	 9.000000e+00	 4.166667e+00	 9.979942e+00
1	 9.000000e+00	 4.250000e+00	 9.982703e+00
1	 9.000000e+00	 4.333333e+00	 9.985354e+00
1	 9.000000e+00	 4.416667e+00	 9.987895e+00
1	 9.000000e+00	 4.500000e+00	 9.990326e+00
1	 9.000000e+00	 4.583333e+00	 9.992647e+00
1	 9.083333e+00	 4.166667e+00	 9.973693e+00
1	 9.083333e+00	 4.250000e+00	 9.976643e+00
1	 9.083333e+00	 4.333333e+00	 9.979479e+00
1	 9.083333e+00	 4.416667e+00	 9.982202e+00
1	 9.083333e+00	 4.500000e+00	 9.984812e+00
1	 9.083333e+00	 4.583333e+00	 9.987310e+00
1	 9.166667e+00	 4.166667e+00	 9.967631e+00
1	 9.166667e+00	 4.250000e+00	 9.970774e+00
1	 9.166667e+00	 4.333333e+00	 9.973800e+00
1	 9.166667e+00	 4.416667e+00	 9.976710e+00
1	 9.166667e+00	 4.500000e+00	 9.979503e+00
1	 9.166667e+00	 4.583333e+00	 9.982180e+00
1	 8.750000e+00	 4.583333e+00	 1.000976e+01
1	 8.750000e+00	 4.666667e+00	 1.001146e+01
1	 8.750000e+00	 4.750000e+00	 1.001305e+01
1	 8.750000e+00	 4.833333e+00	 1.001454e+01
1	 8.750000e+00	 4.916667e+00	 1.001592e+01
1	 8.750000e+00	 5.000000e+00	 1.001720e+01
1	 8.833333e+00	 4.583333e+00	 1.000389e+01
1	 8.833333e+00	 4.666667e+00	 1.000576e+01
1	 8.833333e+00	 4.750000e+00	 1.000752e+01
1	 8.833333e+00	 4.833333e+00	 1.000917e+01
1	 8.833333e+00	 4.916667e+00	 1.001071e+01
1	 8.833333e+00	 5.000000e+00	 1.001214e+01
1	 8.916667e+00	 4.583333e+00	 9.998178e+00
1	 8.916667e+00	 4.666667e+00	 1.000022e+01
1	 8.916667e+00	 4.750000e+00	 1.000214e+01
1	 8.916667e+00	 4.833333e+00	 1.000396e+01
1	 8.916667e+00	 4.916667e+00	 1.000566e+01
1	 8.916667e+00	 5.000000e+00	 1.000726e+01
1	 9.000000e+00	 4.583333e+00	 9.992647e+00
1	 9.000000e+00	 4.666667e+00	 9.994856e+00
1	 9.000000e+00	 4.750000e+00	 9.996952e+00
1	 9.000000e+00	 4.833333e+00	 9.998934e+00
1	 9.000000e+00	 4.916667e+00	 1.000080e+01
1	 9.000000e+00	 5.000000e+00	 1.000255e+01
1	 9.083333e+00	 4.583333e+00	 9.987310e+00
1	 9.083333e+00	 4.666667e+00	 9.989693e+00
1	 9.083333e+00	 4.750000e+00	 9.991959e+00
1	 9.083333e+00	 4.833333e+00	 9.994107e+00
1	 9.083333e+00	 4.916667e+00	 9.996137e+00
1	 9.083333e+00	 5.000000e+00	 9.998049e+00
1	 9.166667e+00	 4.583333e+00	 9.982180e+00
1	 9.166667e+00	 4.666667e+00	 9.984739e+00
1	 9.166667e+00	 4.750000e+00	 9.987177e+00
1	 9.166667e+00	 4.833333e+00	 9.989492e+00
1	 9.166667e+00	 4.916667e+00	 9.991686e+00
1	 9.166667e+00	 5.000000e+00	 9.993758e+00
1	 9.166667e+00	 0.000000e+00	 9.807651e+00
1	 9.166667e+00	 8.333333e-02	 9.807761e+00
1	 9.166667e+00	 1.666667e-01	 9.808089e+00
1	 9.166667e+00	 2.500000e-01	 9.808635e+00
1	 9.166667e+00	 3.333333e-01	 9.809399e+00
1	 9.166667e+00	 4.166667e-01	 9.810383e+00
1	 9.250000e+00	 0.000000e+00	 9.793709e+00
1	 9.250000e+00	 8.333333e-02	 9.793824e+00
1	 9.250000e+00	 1.666667e-01	 9.794166e+00
1	 9.250000e+00	 2.500000e-01	 9.794736e+00
1	 9.250000e+00	 3.333333e-01	 9.795533e+00
1	 9.250000e+00	 4.166667e-01	 9.796559e+00
1	 9.333333e+00	 0.000000e+00	 9.779361e+00
1	 9.333333e+00	 8.333333e-02	 9.779482e+00
1	 9.333333e+00	 1.666667e-01	 9.779839e+00
1	 9.333333e+00	 2.500000e-01	 9.780435e+00
1	 9.333333e+00	 3.333333e-01	 9.781269e+00
1	 9.333333e+00	 4.166667e-01	 9.782342e+00
1	 9.416667e+00	 0.000000e+00	 9.764565e+00
1	 9.416667e+00	 8.333333e-02	 9.764692e+00
1	 9.416667e+00	 1.666667e-01	 9.765067e+00
1	 9.416667e+00	 2.500000e-01	 9.765692e+00
1	 9.416667e+00	 3.333333e-01	 9.766567e+00
1	 9.416667e+00	 4.166667e-01	 9.767692e+00
1	 9.500000e+00	 0.000000e+00	 9.749279e+00
1	 9.500000e+00	 8.333333e-02	 9.749411e+00
1	 9.500000e+00	 1.666667e-01	 9.749806e+00
1	 9.500000e+00	 2.500000e-01	 9.750463e+00
1	 9.500000e+00	 3.333333e-01	 9.751383e+00
1	 9.500000e+00	 4.166667e-01	 9.752567e+00
1	 9.583333e+00	 0.000000e+00	 9.733459e+00
1	 9.583333e+00	 8.333333e-02	 9.733599e+00
1	 9.583333e+00	 1.666667e-01	 9.734015e+00
1	 9.583333e+00	 2.500000e-01	 9.734708e+00
1	 9.583333e+00	 3.333333e-01	 9.735678e+00
1	 9.583333e+00	 4.166667e-01	 9.736926e+00
1	 9.166667e+00	 4.166667e-01	 9.810383e+00
1	 9.166667e+00	 5.000000e-01	 9.811577e+00
1	 9.166667e+00	 5.833333e-01	 9.812973e+00
1	 9.166667e+00	 6.666667e-01	 9.814571e+00
1	 9.166667e+00	 7.500000e-01	 9.816374e+00
1	 9.166667e+00	 8.333333e-01	 9.818384e+00
1	 9.250000e+00	 4.166667e-01	 9.796559e+00
1	 9.250000e+00	 5.000000e-01	 9.797805e+00
1	 9.250000e+00	 5.833333e-01	 9.799261e+00
1	 9.250000e+00	 6.666667e-01	 9.800929e+00
1	 9.250000e+00	 7.500000e-01	 9.802810e+00
1	 9.250000e+00	 8.333333e-01	 9.804907e+00
1	 9.333333e+00	 4.166667e-01	 9.782342e+00
1	 9.333333e+00	 5.000000e-01	 9.783645e+00
1	 9.333333e+00	 5.833333e-01	 9.785168e+00
1	 9.333333e+00	 6.666667e-01	 9.786914e+00
1	 9.333333e+00	 7.500000e-01	 9.788882e+00
1	 9.333333e+00	 8.333333e-01	 9.791076e+00
1	 9.416667e+00	 4.166667e-01	 9.767692e+00
1	 9.416667e+00	 5.000000e-01	 9.769058e+00
1	 9.416667e+00	 5.833333e-01	 9.770656e+00
1	 9.416667e+00	 6.666667e-01	 9.772487e+00
1	 9.416667e+00	 7.500000e-01	 9.774553e+00
1	 9.416667e+00	 8.333333e-01	 9.776854e+00
1	 9.500000e+00	 4.166667e-01	 9.752567e+00
1	 9.500000e+00	 5.000000e-01	 9.754004e+00
1	 9.500000e+00	 5.833333e-01	 9.755685e+00
1	 9.500000e+00	 6.666667e-01	 9.757611e+00
1	 9.500000e+00	 7.500000e-01	 9.759783e+00
1	 9.500000e+00	 8.333333e-01	 9.762204e+00
1	 9.583333e+00	 4.166667e-01	 9.736926e+00
1	 9.583333e+00	 5.000000e-01	 9.738442e+00
1	 9.583333e+00	 5.833333e-01	 9.740214e+00
1	 9.583333e+00	 6.666667e-01	 9.742245e+00
1	 9.583333e+00	 7.500000e-01	 9.744536e+00
1	 9.583333e+00	 8.333333e-01	 9.747089e+00
1	 9.166667e+00	 8.333333e-01	 9.818384e+00
1	 9.166667e+00	 9.166667e-01	 9.820582e+00
1	 9.166667e+00	 1.000000e+00	 9.822951e+00
1	 9.166667e+00	 1.083333e+00	 9.825494e+00
1	 9.166667e+00	 1.166667e+00	 9.828213e+00
1	 9.166667e+00	 1.250000e+00	 9.831111e+00
1	 9.250000e+00	 8.333333e-01	 9.804907e+00
1	 9.250000e+00	 9.166667e-01	 9.807201e+00
1	 9.250000e+00	 1.000000e+00	 9.809674e+00
1	 9.250000e+00	 1.083333e+00	 9.812330e+00
1	 9.250000e+00	 1.166667e+00	 9.815170e+00
1	 9.250000e+00	 1.250000e+00	 9.818196e+00
1	 9.333333e+00	 8.333333e-01	 9.791076e+00
1	 9.333333e+00	 9.166667e-01	 9.793476e+00
1	 9.333333e+00	 1.000000e+00	 9.796065e+00
1	 9.333333e+00	 1.083333e+00	 9.798845e+00
1	 9.333333e+00	 1.166667e+00	 9.801818e+00
1	 9.333333e+00	 1.250000e+00	 9.804987e+00
1	 9.416667e+00	 8.333333e-01	 9.776854e+00
1	 9.416667e+00	 9.166667e-01	 9.779372e+00
1	 9.416667e+00	 1.000000e+00	 9.782089e+00
1	 9.416667e+00	 1.083333e+00	 9.785007e+00
1	 9.416667e+00	 1.166667e+00	 9.788127e+00
1	 9.416667e+00	 1.250000e+00	 9.791453e+00
1	 9.500000e+00	 8.333333e-01	 9.762204e+00
1	 9.500000e+00	 9.166667e-01	 9.764853e+00
1	 9.500000e+00	 1.000000e+00	 9.767711e+00
1	 9.500000e+00	 1.083333e+00	 9.770781e+00
1	 9.500000e+00	 1.166667e+00	 9.774064e+00
1	 9.500000e+00	 1.250000e+00	 9.777563e+00
1	 9.583333e+00	 8.333333e-01	 9.747089e+00
1	 9.583333e+00	 9.166667e-01	 9.749882e+00
1	 9.583333e+00	 1.000000e+00	 9.752896e+00
1	 9.583333e+00	 1.083333e+00	 9.756134e+00
1	 9.583333e+00	 1.166667e+00	 9.759597e+00
1	 9.583333e+00	 1.250000e+00	 9.763287e+00
1	 9.166667e+00	 1.250000e+00	 9.831111e+00
1	 9.166667e+00	 1.333333e+00	 9.834164e+00
1	 9.166667e+00	 1.416667e+00	 9.837349e+00
1	 9.166667e+00	 1.500000e+00	 9.840668e+00
1	 9.166667e+00	 1.583333e+00	 9.844124e+00
1	 9.166667e+00	 1.666667e+00	 9.847721e+00
1	 9.250000e+00	 1.250000e+00	 9.818196e+00
1	 9.250000e+00	 1.333333e+00	 9.821386e+00
1	 9.250000e+00	 1.416667e+00	 9.824713e+00
1	 9.250000e+00	 1.500000e+00	 9.828183e+00
1	 9.250000e+00	 1.583333e+00	 9.831796e+00
1	 9.250000e+00	 1.666667e+00	 9.835558e+00
1	 9.333333e+00	 1.250000e+00	 9.804987e+00
1	 9.333333e+00	 1.333333e+00	 9.808327e+00
1	 9.333333e+00	 1.416667e+00	 9.811812e+00
1	 9.333333e+00	 1.500000e+00	 9.815447e+00
1	 9.333333e+00	 1.583333e+00	 9.819234e+00
1	 9.333333e+00	 1.666667e+00	 9.823176e+00
1	 9.416667e+00	 1.250000e+00	 9.791453e+00
1	 9.416667e+00	 1.333333e+00	 9.794959e+00
1	 9.416667e+00	 1.416667e+00	 9.798619e+00
1	 9.416667e+00	 1.500000e+00	 9.802436e+00
1	 9.416667e+00	 1.583333e+00	 9.806412e+00
1	 9.416667e+00	 1.666667e+00	 9.810552e+00
1	 9.500000e+00	 1.250000e+00	 9.777563e+00
1	 9.500000e+00	 1.333333e+00	 9.781252e+00
1	 9.500000e+00	 1.416667e+00	 9.785103e+00
1	 9.500000e+00	 1.500000e+00	 9.789121e+00
1	 9.500000e+00	 1.583333e+00	 9.793307e+00
1	 9.500000e+00	 1.666667e+00	 9.797664e+00
1	 9.583333e+00	 1.250000e+00	 9.763287e+00
1	 9.583333e+00	 1.333333e+00	 9.767177e+00
1	 9.583333e+00	 1.416667e+00	 9.771239e+00
1	 9.583333e+00	 1.500000e+00	 9.775477e+00
1	 9.583333e+00	 1.583333e+00	 9.779892e+00
1	 9.583333e+00	 1.666667e+00	 9.784488e+00
1	 9.166667e+00	 1.666667e+00	 9.847721e+00
1	 9.166667e+00	 1.750000e+00	 9.851432e+00
1	 9.166667e+00	 1.833333e+00	 9.855227e+00
1	 9.166667e+00	 1.916667e+00	 9.859111e+00
1	 9.166667e+00	 2.000000e+00	 9.863088e+00
1	 9.166667e+00	 2.083333e+00	 9.867160e+00
1	 9.250000e+00	 1.666667e+00	 9.835558e+00
1	 9.250000e+00	 1.750000e+00	 9.839438e+00
1	 9.250000e+00	 1.833333e+00	 9.843410e+00
1	 9.250000e+00	 1.916667e+00	 9.847476e+00
1	 9.250000e+00	 2.000000e+00	 9.851639e+00
1	 9.250000e+00	 2.083333e+00	 9.855904e+00
1	 9.333333e+00	 1.666667e+00	 9.823176e+00
1	 9.333333e+00	 1.750000e+00	 9.827243e+00
1	 9.333333e+00	 1.833333e+00	 9.831407e+00
1	 9.333333e+00	 1.916667e+00	 9.835672e+00
1	 9.333333e+00	 2.000000e+00	 9.840039e+00
1	 9.333333e+00	 2.083333e+00	 9.844513e+00
1	 9.416667e+00	 1.666667e+00	 9.810552e+00
1	 9.416667e+00	 1.750000e+00	 9.814824e+00
1	 9.416667e+00	 1.833333e+00	 9.819200e+00
1	 9.416667e+00	 1.916667e+00	 9.823681e+00
1	 9.416667e+00	 2.000000e+00	 9.828272e+00
1	 9.416667e+00	 2.083333e+00	 9.832974e+00
1	 9.500000e+00	 1.666667e+00	 9.797664e+00
1	 9.500000e+00	 1.750000e+00	 9.802161e+00
1	 9.500000e+00	 1.833333e+00	 9.806767e+00
1	 9.500000e+00	 1.916667e+00	 9.811486e+00
1	 9.500000e+00	 2.000000e+00	 9.816320e+00
1	 9.500000e+00	 2.083333e+00	 9.821272e+00
1	 9.583333e+00	 1.666667e+00	 9.784488e+00
1	 9.583333e+00	 1.750000e+00	 9.789231e+00
1	 9.583333e+00	 1.833333e+00	 9.794091e+00
1	 9.583333e+00	 1.916667e+00	 9.799069e+00
1	 9.583333e+00	 2.000000e+00	 9.804168e+00
1	 9.583333e+00	 2.083333e+00	 9.809393e+00
1	 9.166667e+00	 2.083333e+00	 9.867160e+00
1	 9.166667e+00	 2.166667e+00	 9.871298e+00
1	 9.166667e+00	 2.250000e+00	 9.875475e+00
1	 9.166667e+00	 2.333333e+00	 9.879692e+00
1	 9.166667e+00	 2.416667e+00	 9.883953e+00
1	 9.166667e+00	 2.500000e+00	 9.888263e+00
1	 9.250000e+00	 2.083333e+00	 9.855904e+00
1	 9.250000e+00	 2.166667e+00	 9.860239e+00
1	 9.250000e+00	 2.250000e+00	 9.864616e+00
1	 9.250000e+00	 2.333333e+00	 9.869039e+00
1	 9.250000e+00	 2.416667e+00	 9.873509e+00
1	 9.250000e+00	 2.500000e+00	 9.878030e+00
1	 9.333333e+00	 2.083333e+00	 9.844513e+00
1	 9.333333e+00	 2.166667e+00	 9.849063e+00
1	 9.333333e+00	 2.250000e+00	 9.853659e+00
1	 9.333333e+00	 2.333333e+00	 9.858303e+00
1	 9.333333e+00	 2.416667e+00	 9.862998e+00
1	 9.333333e+00	 2.500000e+00	 9.867749e+00
1	 9.416667e+00	 2.083333e+00	 9.832974e+00
1	 9.416667e+00	 2.166667e+00	 9.837758e+00
1	 9.416667e+00	 2.250000e+00	 9.842590e+00
1	 9.416667e+00	 2.333333e+00	 9.847475e+00
1	 9.416667e+00	 2.416667e+00	 9.852415e+00
1	 9.416667e+00	 2.500000e+00	 9.857413e+00
1	 9.500000e+00	 2.083333e+00	 9.821272e+00
1	 9.500000e+00	 2.166667e+00	 9.826310e+00
1	 9.500000e+00	 2.250000e+00	 9.831401e+00
1	 9.500000e+00	 2.333333e+00	 9.836547e+00
1	 9.500000e+00	 2.416667e+00	 9.841752e+00
1	 9.500000e+00	 2.500000e+00	 9.847019e+00
1	 9.583333e+00	 2.083333e+00	 9.809393e+00
1	 9.583333e+00	 2.166667e+00	 9.814708e+00
1	 9.583333e+00	 2.250000e+00	 9.820079e+00
1	 9.583333e+00	 2.333333e+00	 9.825509e+00
1	 9.583333e+00	 2.416667e+00	 9.831001e+00
1	 9.583333e+00	 2.500000e+00	 9.836558e+00
1	 9.166667e+00	 2.500000e+00	 9.888263e+00
1	 9.166667e+00	 2.583333e+00	 9.892592e+00
1	 9.166667e+00	 2.666667e+00	 9.896913e+00
1	 9.166667e+00	 2.750000e+00	 9.901230e+00
1	 9.166667e+00	 2.833333e+00	 9.905544e+00
1	 9.166667e+00	 2.916667e+00	 9.909860e+00
1	 9.250000e+00	 2.500000e+00	 9.878030e+00
1	 9.250000e+00	 2.583333e+00	 9.882574e+00
1	 9.250000e+00	 2.666667e+00	 9.887112e+00
1	 9.250000e+00	 2.750000e+00	 9.891648e+00
1	 9.250000e+00	 2.833333e+00	 9.896184e+00
1	 9.250000e+00	 2.916667e+00	 9.900722e+00
1	 9.333333e+00	 2.500000e+00	 9.867749e+00
1	 9.333333e+00	 2.583333e+00	 9.872525e+00
1	 9.333333e+00	 2.666667e+00	 9.877297e+00
1	 9.333333e+00	 2.750000e+00	 9.882067e+00
1	 9.333333e+00	 2.833333e+00	 9.886840e+00
1	 9.333333e+00	 2.916667e+00	 9.891616e+00
1	 9.416667e+00	 2.500000e+00	 9.857413e+00
1	 9.416667e+00	 2.583333e+00	 9.862440e+00
1	 9.416667e+00	 2.666667e+00	 9.867463e+00
1	 9.416667e+00	 2.750000e+00	 9.872487e+00
1	 9.416667e+00	 2.833333e+00	 9.877513e+00
1	 9.416667e+00	 2.916667e+00	 9.882545e+00
1	 9.500000e+00	 2.500000e+00	 9.847019e+00
1	 9.500000e+00	 2.583333e+00	 9.852315e+00
1	 9.500000e+00	 2.666667e+00	 9.857610e+00
1	 9.500000e+00	 2.750000e+00	 9.862906e+00
1	 9.500000e+00	 2.833333e+00	 9.868206e+00
1	 9.500000e+00	 2.916667e+00	 9.873512e+00
1	 9.583333e+00	 2.500000e+00	 9.836558e+00
1	 9.583333e+00	 2.583333e+00	 9.842148e+00
1	 9.583333e+00	 2.666667e+00	 9.847735e+00
1	 9.583333e+00	 2.750000e+00	 9.853325e+00
1	 9.583333e+00	 2.833333e+00	 9.858918e+00
1	 9.583333e+00	 2.916667e+00	 9.864518e+00
1	 9.166667e+00	 2.916667e+00	 9.909860e+00
1	 9.166667e+00	 3.000000e+00	 9.914153e+00
1	 9.166667e+00	 3.083333e+00	 9.918397e+00
1	 9.166667e+00	 3.166667e+00	 9.922597e+00
1	 9.166667e+00	 3.250000e+00	 9.926754e+00
1	 9.166667e+00	 3.333333e+00	 9.930869e+00
1	 9.250000e+00	 2.916667e+00	 9.900722e+00
1	 9.250000e+00	 3.000000e+00	 9.905239e+00
1	 9.250000e+00	 3.083333e+00	 9.909707e+00
1	 9.250000e+00	 3.166667e+00	 9.914131e+00
1	 9.250000e+00	 3.250000e+00	 9.918511e+00
1	 9.250000e+00	 3.333333e+00	 9.922851e+00
1	 9.333333e+00	 2.916667e+00	 9.891616e+00
1	 9.333333e+00	 3.000000e+00	 9.896371e+00
1	 9.333333e+00	 3.083333e+00	 9.901079e+00
1	 9.333333e+00	 3.166667e+00	 9.905740e+00
1	 9.333333e+00	 3.250000e+00	 9.910358e+00
1	 9.333333e+00	 3.333333e+00	 9.914935e+00
1	 9.416667e+00	 2.916667e+00	 9.882545e+00
1	 9.416667e+00	 3.000000e+00	 9.887556e+00
1	 9.416667e+00	 3.083333e+00	 9.892517e+00
1	 9.416667e+00	 3.166667e+00	 9.897432e+00
1	 9.416667e+00	 3.250000e+00	 9.902303e+00
1	 9.416667e+00	 3.333333e+00	 9.907131e+00
1	 9.500000e+00	 2.916667e+00	 9.873512e+00
1	 9.500000e+00	 3.000000e+00	 9.878796e+00
1	 9.500000e+00	 3.083333e+00	 9.884029e+00
1	 9.500000e+00	 3.166667e+00	 9.889214e+00
1	 9.500000e+00	 3.250000e+00	 9.894354e+00
1	 9.500000e+00	 3.333333e+00	 9.899449e+00
1	 9.583333e+00	 2.916667e+00	 9.864518e+00
1	 9.583333e+00	 3.000000e+00	 9.870095e+00
1	 9.583333e+00	 3.083333e+00	 9.875620e+00
1	 9.583333e+00	 3.166667e+00	 9.881094e+00
1	 9.583333e+00	 3.250000e+00	 9.886520e+00
1	 9.583333e+00	 3.333333e+00	 9.891899e+00
1	 9.166667e+00	 3.333333e+00	 9.930869e+00
1	 9.166667e+00	 3.416667e+00	 9.934925e+00
1	 9.166667e+00	 3.500000e+00	 9.938901e+00
1	 9.166667e+00	 3.583333e+00	 9.942798e+00
1	 9.166667e+00	 3.666667e+00	 9.946619e+00
1	 9.166667e+00	 3.750000e+00	 9.950366e+00
1	 9.250000e+00	 3.333333e+00	 9.922851e+00
1	 9.250000e+00	 3.416667e+00	 9.927131e+00
1	 9.250000e+00	 3.500000e+00	 9.931328e+00
1	 9.250000e+00	 3.583333e+00	 9.935446e+00
1	 9.250000e+00	 3.666667e+00	 9.939486e+00
1	 9.250000e+00	 3.750000e+00	 9.943449e+00
1	 9.333333e+00	 3.333333e+00	 9.914935e+00
1	 9.333333e+00	 3.416667e+00	 9.919450e+00
1	 9.333333e+00	 3.500000e+00	 9.923882e+00
1	 9.333333e+00	 3.583333e+00	 9.928231e+00
1	 9.333333e+00	 3.666667e+00	 9.932500e+00
1	 9.333333e+00	 3.750000e+00	 9.936690e+00
1	 9.416667e+00	 3.333333e+00	 9.907131e+00
1	 9.416667e+00	 3.416667e+00	 9.911896e+00
1	 9.416667e+00	 3.500000e+00	 9.916574e+00
1	 9.416667e+00	 3.583333e+00	 9.921166e+00
1	 9.416667e+00	 3.666667e+00	 9.925676e+00
1	 9.416667e+00	 3.750000e+00	 9.930104e+00
1	 9.500000e+00	 3.333333e+00	 9.899449e+00
1	 9.500000e+00	 3.416667e+00	 9.904478e+00
1	 9.500000e+00	 3.500000e+00	 9.909417e+00
1	 9.500000e+00	 3.583333e+00	 9.914266e+00
1	 9.500000e+00	 3.666667e+00	 9.919029e+00
1	 9.500000e+00	 3.750000e+00	 9.923707e+00
1	 9.583333e+00	 3.333333e+00	 9.891899e+00
1	 9.583333e+00	 3.416667e+00	 9.897209e+00
1	 9.583333e+00	 3.500000e+00	 9.902424e+00
1	 9.583333e+00	 3.583333e+00	 9.907545e+00
1	 9.583333e+00	 3.666667e+00	 9.912575e+00
1	 9.583333e+00	 3.750000e+00	 9.917515e+00
1	 9.166667e+00	 3.750000e+00	 9.950366e+00
1	 9.166667e+00	 3.833333e+00	 9.954023e+00
1	 9.166667e+00	 3.916667e+00	 9.957577e+00
1	 9.166667e+00	 4.000000e+00	 9.961029e+00
1	 9.166667e+00	 4.083333e+00	 9.964380e+00
1	 9.166667e+00	 4.166667e+00	 9.967631e+00
1	 9.250000e+00	 3.750000e+00	 9.943449e+00
1	 9.250000e+00	 3.833333e+00	 9.947321e+00
1	 9.250000e+00	 3.916667e+00	 9.951087e+00
1	 9.250000e+00	 4.000000e+00	 9.954748e+00
1	 9.250000e+00	 4.083333e+00	 9.958305e+00
1	 9.250000e+00	 4.166667e+00	 9.961758e+00
1	 9.333333e+00	 3.750000e+00	 9.936690e+00
1	 9.333333e+00	 3.833333e+00	 9.940786e+00
1	 9.333333e+00	 3.916667e+00	 9.944772e+00
1	 9.333333e+00	 4.000000e+00	 9.948649e+00
1	 9.333333e+00	 4.083333e+00	 9.952419e+00
1	 9.333333e+00	 4.166667e+00	 9.956081e+00
1	 9.416667e+00	 3.750000e+00	 9.930104e+00
1	 9.416667e+00	 3.833333e+00	 9.934434e+00
1	 9.416667e+00	 3.916667e+00	 9.938649e+00
1	 9.416667e+00	 4.000000e+00	 9.942752e+00
1	 9.416667e+00	 4.083333e+00	 9.946742e+00
1	 9.416667e+00	 4.166667e+00	 9.950621e+00
1	 9.500000e+00	 3.750000e+00	 9.923707e+00
1	 9.500000e+00	 3.833333e+00	 9.928282e+00
1	 9.500000e+00	 3.916667e+00	 9.932737e+00
1	 9.500000e+00	 4.000000e+00	 9.937074e+00
1	 9.500000e+00	 4.083333e+00	 9.941293e+00
1	 9.500000e+00	 4.166667e+00	 9.945396e+00
1	 9.583333e+00	 3.750000e+00	 9.917515e+00
1	 9.583333e+00	 3.833333e+00	 9.922347e+00
1	 9.583333e+00	 3.916667e+00	 9.927053e+00
1	 9.583333e+00	 4.000000e+00	 9.931635e+00
1	 9.583333e+00	 4.083333e+00	 9.936092e+00
1	 9.583333e+00	 4.166667e+00	 9.940427e+00
1	 9.166667e+00	 4.166667e+00	 9.967631e+00
1	 9.166667e+00	 4.250000e+00	 9.970774e+00
1	 9.166667e+00	 4.333333e+00	 9.973800e+00
1	 9.166667e+00	 4.416667e+00	 9.976710e+00
1	 9.166667e+00	 4.500000e+00	 9.979503e+00
1	 9.166667e+00	 4.583333e+00	 9.982180e+00
1	 9.250000e+00	 4.166667e+00	 9.961758e+00
1	 9.250000e+00	 4.250000e+00	 9.965100e+00
1	 9.250000e+00	 4.333333e+00	 9.968321e+00
1	 9.250000e+00	 4.416667e+00	 9.971421e+00
1	 9.250000e+00	 4.500000e+00	 9.974401e+00
1	 9.250000e+00	 4.583333e+00	 9.977261e+00
1	 9.333333e+00	 4.166667e+00	 9.956081e+00
1	 9.333333e+00	 4.250000e+00	 9.959628e+00
1	 9.333333e+00	 4.333333e+00	 9.963049e+00
1	 9.333333e+00	 4.416667e+00	 9.966344e+00
1	 9.333333e+00	 4.500000e+00	 9.969515e+00
1	 9.333333e+00	 4.583333e+00	 9.972560e+00
1	 9.416667e+00	 4.166667e+00	 9.950621e+00
1	 9.416667e+00	 4.250000e+00	 9.954379e+00
1	 9.416667e+00	 4.333333e+00	 9.958005e+00
1	 9.416667e+00	 4.416667e+00	 9.961500e+00
1	 9.416667e+00	 4.500000e+00	 9.964865e+00
1	 9.416667e+00	 4.583333e+00	 9.968100e+00
1	 9.500000e+00	 4.166667e+00	 9.945396e+00
1	 9.500000e+00	 4.250000e+00	 9.949372e+00
1	 9.500000e+00	 4.333333e+00	 9.953210e+00
1	 9.500000e+00	 4.416667e+00	 9.956911e+00
1	 9.500000e+00	 4.500000e+00	 9.960474e+00
1	 9.500000e+00	 4.583333e+00	 9.963902e+00
1	 9.583333e+00	 4.166667e+00	 9.940427e+00
1	 9.583333e+00	 4.250000e+00	 9.944629e+00
1	 9.583333e+00	 4.333333e+00	 9.948685e+00
1	 9.583333e+00	 4.416667e+00	 9.952597e+00
1	 9.583333e+00	 4.500000e+00	 9.956364e+00
1	 9.583333e+00	 4.583333e+00	 9.959988e+00
1	 9.166667e+00	 4.583333e+00	 9.982180e+00
1	 9.166667e+00	 4.666667e+00	 9.984739e+00
1	 9.166667e+00	 4.750000e+00	 9.987177e+00
1	 9.166667e+00	 4.833333e+00	 9.989492e+00
1	 9.166667e+00	 4.916667e+00	 9.991686e+00
1	 9.166667e+00	 5.000000e+00	 9.993758e+00
1	 9.250000e+00	 4.583333e+00	 9.977261e+00
1	 9.250000e+00	 4.666667e+00	 9.979998e+00
1	 9.250000e+00	 4.750000e+00	 9.982609e+00
1	 9.250000e+00	 4.833333e+00	 9.985094e+00
1	 9.250000e+00	 4.916667e+00	 9.987452e+00
1	 9.250000e+00	 5.000000e+00	 9.989683e+00
1	 9.333333e+00	 4.583333e+00	 9.972560e+00
1	 9.333333e+00	 4.666667e+00	 9.975478e+00
1	 9.333333e+00	 4.750000e+00	 9.978264e+00
1	 9.333333e+00	 4.833333e+00	 9.980919e+00
1	 9.333333e+00	 4.916667e+00	 9.983441e+00
1	 9.333333e+00	 5.000000e+00	 9.985831e+00
1	 9.416667e+00	 4.583333e+00	 9.968100e+00
1	 9.416667e+00	 4.666667e+00	 9.971201e+00
1	 9.416667e+00	 4.750000e+00	 9.974164e+00
1	 9.416667e+00	 4.833333e+00	 9.976990e+00
1	 9.416667e+00	 4.916667e+00	 9.979677e+00
1	 9.416667e+00	 5.000000e+00	 9.982226e+00
1	 9.500000e+00	 4.583333e+00	 9.963902e+00
1	 9.500000e+00	 4.666667e+00	 9.967189e+00
1	 9.500000e+00	 4.750000e+00	 9.970331e+00
1	 9.500000e+00	 4.833333e+00	 9.973329e+00
1	 9.500000e+00	 4.916667e+00	 9.976182e+00
1	 9.500000e+00	 5.000000e+00	 9.978890e+00
1	 9.583333e+00	 4.583333e+00	 9.959988e+00
1	 9.583333e+00	 4.666667e+00	 9.963464e+00
1	 9.583333e+00	 4.750000e+00	 9.966788e+00
1	 9.583333e+00	 4.833333e+00	 9.969959e+00
1	 9.583333e+00	 4.916667e+00	 9.972978e+00
1	 9.583333e+00	 5.000000e+00	 9.975844e+00
1	 9.583333e+00	 0.000000e+00	 9.733459e+00
1	 9.583333e+00	 8.333333e-02	 9.733599e+00
1	 9.583333e+00	 1.666667e-01	 9.734015e+00
1	 9.583333e+00	 2.500000e-01	 9.734708e+00
1	 9.583333e+00	 3.333333e-01	 9.735678e+00
1	 9.583333e+00	 4.166667e-01	 9.736926e+00
1	 9.666667e+00	 0.000000e+00	 9.717099e+00
1	 9.666667e+00	 8.333333e-02	 9.717247e+00
1	 9.666667e+00	 1.666667e-01	 9.717687e+00
1	 9.666667e+00	 2.500000e-01	 9.718419e+00
1	 9.666667e+00	 3.333333e-01	 9.719444e+00
1	 9.666667e+00	 4.166667e-01	 9.720763e+00
1	 9.750000e+00	 0.000000e+00	 9.700180e+00
1	 9.750000e+00	 8.333333e-02	 9.700336e+00
1	 9.750000e+00	 1.666667e-01	 9.700802e+00
1	 9.750000e+00	 2.500000e-01	 9.701577e+00
1	 9.750000e+00	 3.333333e-01	 9.702663e+00
1	 9.750000e+00	 4.166667e-01	 9.704059e+00
1	 9.833333e+00	 0.000000e+00	 9.682643e+00
1	 9.833333e+00	 8.333333e-02	 9.682809e+00
1	 9.833333e+00	 1.666667e-01	 9.683303e+00
1	 9.833333e+00	 2.500000e-01	 9.684126e+00
1	 9.833333e+00	 3.333333e-01	 9.685277e+00
1	 9.833333e+00	 4.166667e-01	 9.686758e+00
1	 9.916667e+00	 0.000000e+00	 9.664431e+00
1	 9.916667e+00	 8.333333e-02	 9.664608e+00
1	 9.916667e+00	 1.666667e-01	 9.665133e+00
1	 9.916667e+00	 2.500000e-01	 9.666006e+00
1	 9.916667e+00	 3.333333e-01	 9.667230e+00
1	 9.916667e+00	 4.166667e-01	 9.668804e+00
1	 1.000000e+01	 0.000000e+00	 9.645485e+00
1	 1.000000e+01	 8.333333e-02	 9.645673e+00
1	 1.000000e+01	 1.666667e-01	 9.646231e+00
1	 1.000000e+01	 2.500000e-01	 9.647162e+00
1	 1.000000e+01	 3.333333e-01	 9.648465e+00
1	 1.000000e+01	 4.166667e-01	 9.650141e+00
1	 9.583333e+00	 4.166667e-01	 9.736926e+00
1	 9.583333e+00	 5.000000e-01	 9.738442e+00
1	 9.583333e+00	 5.833333e-01	 9.740214e+00
1	 9.583333e+00	 6.666667e-01	 9.742245e+00
1	 9.583333e+00	 7.500000e-01	 9.744536e+00
1	 9.583333e+00	 8.333333e-01	 9.747089e+00
1	 9.666667e+00	 4.166667e-01	 9.720763e+00
1	 9.666667e+00	 5.000000e-01	 9.722364e+00
1	 9.666667e+00	 5.833333e-01	 9.724237e+00
1	 9.666667e+00	 6.666667e-01	 9.726383e+00
1	 9.666667e+00	 7.500000e-01	 9.728804e+00
1	 9.666667e+00	 8.333333e-01	 9.731502e+00
1	 9.750000e+00	 4.166667e-01	 9.704059e+00
1	 9.750000e+00	 5.000000e-01	 9.705754e+00
1	 9.750000e+00	 5.833333e-01	 9.707737e+00
1	 9.750000e+00	 6.666667e-01	 9.710009e+00
1	 9.750000e+00	 7.500000e-01	 9.712572e+00
1	 9.750000e+00	 8.333333e-01	 9.715427e+00
1	 9.833333e+00	 4.166667e-01	 9.686758e+00
1	 9.833333e+00	 5.000000e-01	 9.688556e+00
1	 9.833333e+00	 5.833333e-01	 9.690659e+00
1	 9.833333e+00	 6.666667e-01	 9.693069e+00
1	 9.833333e+00	 7.500000e-01	 9.695788e+00
1	 9.833333e+00	 8.333333e-01	 9.698816e+00
1	 9.916667e+00	 4.166667e-01	 9.668804e+00
1	 9.916667e+00	 5.000000e-01	 9.670715e+00
1	 9.916667e+00	 5.833333e-01	 9.672950e+00
1	 9.916667e+00	 6.666667e-01	 9.675511e+00
1	 9.916667e+00	 7.500000e-01	 9.678400e+00
1	 9.916667e+00	 8.333333e-01	 9.681617e+00
1	 1.000000e+01	 4.166667e-01	 9.650141e+00
1	 1.000000e+01	 5.000000e-01	 9.652176e+00
1	 1.000000e+01	 5.833333e-01	 9.654556e+00
1	 1.000000e+01	 6.666667e-01	 9.657282e+00
1	 1.000000e+01	 7.500000e-01	 9.660356e+00
1	 1.000000e+01	 8.333333e-01	 9.663781e+00
1	 9.583333e+00	 8.333333e-01	 9.747089e+00
1	 9.583333e+00	 9.166667e-01	 9.749882e+00
1	 9.583333e+00	 1.000000e+00	 9.752896e+00
1	 9.583333e+00	 1.083333e+00	 9.756134e+00
1	 9.583333e+00	 1.166667e+00	 9.759597e+00
1	 9.583333e+00	 1.250000e+00	 9.763287e+00
1	 9.666667e+00	 8.333333e-01	 9.731502e+00
1	 9.666667e+00	 9.166667e-01	 9.734453e+00
1	 9.666667e+00	 1.000000e+00	 9.737639e+00
1	 9.666667e+00	 1.083333e+00	 9.741060e+00
1	 9.666667e+00	 1.166667e+00	 9.744719e+00
1	 9.666667e+00	 1.250000e+00	 9.748618e+00
1	 9.750000e+00	 8.333333e-01	 9.715427e+00
1	 9.750000e+00	 9.166667e-01	 9.718552e+00
1	 9.750000e+00	 1.000000e+00	 9.721923e+00
1	 9.750000e+00	 1.083333e+00	 9.725545e+00
1	 9.750000e+00	 1.166667e+00	 9.729417e+00
1	 9.750000e+00	 1.250000e+00	 9.733544e+00
1	 9.833333e+00	 8.333333e-01	 9.698816e+00
1	 9.833333e+00	 9.166667e-01	 9.702129e+00
1	 9.833333e+00	 1.000000e+00	 9.705704e+00
1	 9.833333e+00	 1.083333e+00	 9.709544e+00
1	 9.833333e+00	 1.166667e+00	 9.713651e+00
1	 9.833333e+00	 1.250000e+00	 9.718026e+00
1	 9.916667e+00	 8.333333e-01	 9.681617e+00
1	 9.916667e+00	 9.166667e-01	 9.685137e+00
1	 9.916667e+00	 1.000000e+00	 9.688935e+00
1	 9.916667e+00	 1.083333e+00	 9.693014e+00
1	 9.916667e+00	 1.166667e+00	 9.697375e+00
1	 9.916667e+00	 1.250000e+00	 9.702022e+00
1	 1.000000e+01	 8.333333e-01	 9.663781e+00
1	 1.000000e+01	 9.166667e-01	 9.667527e+00
1	 1.000000e+01	 1.000000e+00	 9.671569e+00
1	 1.000000e+01	 1.083333e+00	 9.675909e+00
1	 1.000000e+01	 1.166667e+00	 9.680549e+00
1	 1.000000e+01	 1.250000e+00	 9.685493e+00
1	 9.583333e+00	 1.250000e+00	 9.763287e+00
1	 9.583333e+00	 1.333333e+00	 9.767177e+00
1	 9.583333e+00	 1.416667e+00	 9.771239e+00
1	 9.583333e+00	 1.500000e+00	 9.775477e+00
1	 9.583333e+00	 1.583333e+00	 9.779892e+00
1	 9.583333e+00	 1.666667e+00	 9.784488e+00
1	 9.666667e+00	 1.250000e+00	 9.748618e+00
1	 9.666667e+00	 1.333333e+00	 9.752728e+00
1	 9.666667e+00	 1.416667e+00	 9.757021e+00
1	 9.666667e+00	 1.500000e+00	 9.761498e+00
1	 9.666667e+00	 1.583333e+00	 9.766163e+00
1	 9.666667e+00	 1.666667e+00	 9.771019e+00
1	 9.750000e+00	 1.250000e+00	 9.733544e+00
1	 9.750000e+00	 1.333333e+00	 9.737894e+00
1	 9.750000e+00	 1.416667e+00	 9.742437e+00
1	 9.750000e+00	 1.500000e+00	 9.747176e+00
1	 9.750000e+00	 1.583333e+00	 9.752112e+00
1	 9.750000e+00	 1.666667e+00	 9.757250e+00
1	 9.833333e+00	 1.250000e+00	 9.718026e+00
1	 9.833333e+00	 1.333333e+00	 9.722638e+00
1	 9.833333e+00	 1.416667e+00	 9.727453e+00
1	 9.833333e+00	 1.500000e+00	 9.732476e+00
1	 9.833333e+00	 1.583333e+00	 9.737708e+00
1	 9.833333e+00	 1.666667e+00	 9.743153e+00
1	 9.916667e+00	 1.250000e+00	 9.702022e+00
1	 9.916667e+00	 1.333333e+00	 9.706920e+00
1	 9.916667e+00	 1.416667e+00	 9.712033e+00
1	 9.916667e+00	 1.500000e+00	 9.717365e+00
1	 9.916667e+00	 1.583333e+00	 9.722920e+00
1	 9.916667e+00	 1.666667e+00	 9.728699e+00
1	 1.000000e+01	 1.250000e+00	 9.685493e+00
1	 1.000000e+01	 1.333333e+00	 9.690703e+00
1	 1.000000e+01	 1.416667e+00	 9.696141e+00
1	 1.000000e+01	 1.500000e+00	 9.701811e+00
1	 1.000000e+01	 1.583333e+00	 9.707716e+00
1	 1.000000e+01	 1.666667e+00	 9.713859e+00
1	 9.583333e+00	 1.666667e+00	 9.784488e+00
1	 9.583333e+00	 1.750000e+00	 9.789231e+00
1	 9.583333e+00	 1.833333e+00	 9.794091e+00
1	 9.583333e+00	 1.916667e+00	 9.799069e+00
1	 9.583333e+00	 2.000000e+00	 9.804168e+00
1	 9.583333e+00	 2.083333e+00	 9.809393e+00
1	 9.666667e+00	 1.666667e+00	 9.771019e+00
1	 9.666667e+00	 1.750000e+00	 9.776031e+00
1	 9.666667e+00	 1.833333e+00	 9.781165e+00
1	 9.666667e+00	 1.916667e+00	 9.786425e+00
1	 9.666667e+00	 2.000000e+00	 9.791813e+00
1	 9.666667e+00	 2.083333e+00	 9.797333e+00
1	 9.750000e+00	 1.666667e+00	 9.757250e+00
1	 9.750000e+00	 1.750000e+00	 9.762553e+00
1	 9.750000e+00	 1.833333e+00	 9.767986e+00
1	 9.750000e+00	 1.916667e+00	 9.773550e+00
1	 9.750000e+00	 2.000000e+00	 9.779250e+00
1	 9.750000e+00	 2.083333e+00	 9.785088e+00
1	 9.833333e+00	 1.666667e+00	 9.743153e+00
1	 9.833333e+00	 1.750000e+00	 9.748772e+00
1	 9.833333e+00	 1.833333e+00	 9.754528e+00
1	 9.833333e+00	 1.916667e+00	 9.760423e+00
1	 9.833333e+00	 2.000000e+00	 9.766461e+00
1	 9.833333e+00	 2.083333e+00	 9.772645e+00
1	 9.916667e+00	 1.666667e+00	 9.728699e+00
1	 9.916667e+00	 1.750000e+00	 9.734662e+00
1	 9.916667e+00	 1.833333e+00	 9.740769e+00
1	 9.916667e+00	 1.916667e+00	 9.747023e+00
1	 9.916667e+00	 2.000000e+00	 9.753428e+00
1	 9.916667e+00	 2.083333e+00	 9.759986e+00
1	 1.000000e+01	 1.666667e+00	 9.713859e+00
1	 1.000000e+01	 1.750000e+00	 9.720197e+00
1	 1.000000e+01	 1.833333e+00	 9.726686e+00
1	 1.000000e+01	 1.916667e+00	 9.733330e+00
1	 1.000000e+01	 2.000000e+00	 9.740133e+00
1	 1.000000e+01	 2.083333e+00	 9.747097e+00
1	 9.583333e+00	 2.083333e+00	 9.809393e+00
1	 9.583333e+00	 2.166667e+00	 9.814708e+00
1	 9.583333e+00	 2.250000e+00	 9.820079e+00
1	 9.583333e+00	 2.333333e+00	 9.825509e+00
1	 9.583333e+00	 2.416667e+00	 9.831001e+00
1	 9.583333e+00	 2.500000e+00	 9.836558e+00
1	 9.666667e+00	 2.083333e+00	 9.797333e+00
1	 9.666667e+00	 2.166667e+00	 9.802948e+00
1	 9.666667e+00	 2.250000e+00	 9.808622e+00
1	 9.666667e+00	 2.333333e+00	 9.814358e+00
1	 9.666667e+00	 2.416667e+00	 9.820161e+00
1	 9.666667e+00	 2.500000e+00	 9.826031e+00
1	 9.750000e+00	 2.083333e+00	 9.785088e+00
1	 9.750000e+00	 2.166667e+00	 9.791027e+00
1	 9.750000e+00	 2.250000e+00	 9.797029e+00
1	 9.750000e+00	 2.333333e+00	 9.803095e+00
1	 9.750000e+00	 2.416667e+00	 9.809231e+00
1	 9.750000e+00	 2.500000e+00	 9.815438e+00
1	 9.833333e+00	 2.083333e+00	 9.772645e+00
1	 9.833333e+00	 2.166667e+00	 9.778934e+00
1	 9.833333e+00	 2.250000e+00	 9.785289e+00
1	 9.833333e+00	 2.333333e+00	 9.791712e+00
1	 9.833333e+00	 2.416667e+00	 9.798207e+00
1	 9.833333e+00	 2.500000e+00	 9.804777e+00
1	 9.916667e+00	 2.083333e+00	 9.759986e+00
1	 9.916667e+00	 2.166667e+00	 9.766655e+00
1	 9.916667e+00	 2.250000e+00	 9.773392e+00
1	 9.916667e+00	 2.333333e+00	 9.780200e+00
1	 9.916667e+00	 2.416667e+00	 9.787083e+00
1	 9.916667e+00	 2.500000e+00	 9.794044e+00
1	 1.000000e+01	 2.083333e+00	 9.747097e+00
1	 1.000000e+01	 2.166667e+00	 9.754178e+00
1	 1.000000e+01	 2.250000e+00	 9.761329e+00
1	 1.000000e+01	 2.333333e+00	 9.768553e+00
1	 1.000000e+01	 2.416667e+00	 9.775855e+00
1	 1.000000e+01	 2.500000e+00	 9.783238e+00
1	 9.583333e+00	 2.500000e+00	 9.836558e+00
1	 9.583333e+00	 2.583333e+00	 9.842148e+00
1	 9.583333e+00	 2.666667e+00	 9.847735e+00
1	 9.583333e+00	 2.750000e+00	 9.853325e+00
1	 9.583333e+00	 2.833333e+00	 9.858918e+00
1	 9.583333e+00	 2.916667e+00	 9.864518e+00
1	 9.666667e+00	 2.500000e+00	 9.826031e+00
1	 9.666667e+00	 2.583333e+00	 9.831935e+00
1	 9.666667e+00	 2.666667e+00	 9.837838e+00
1	 9.666667e+00	 2.750000e+00	 9.843742e+00
1	 9.666667e+00	 2.833333e+00	 9.849650e+00
1	 9.666667e+00	 2.916667e+00	 9.855565e+00
1	 9.750000e+00	 2.500000e+00	 9.815438e+00
1	 9.750000e+00	 2.583333e+00	 9.821680e+00
1	 9.750000e+00	 2.666667e+00	 9.827920e+00
1	 9.750000e+00	 2.750000e+00	 9.834161e+00
1	 9.750000e+00	 2.833333e+00	 9.840406e+00
1	 9.750000e+00	 2.916667e+00	 9.846657e+00
1	 9.833333e+00	 2.500000e+00	 9.804777e+00
1	 9.833333e+00	 2.583333e+00	 9.811382e+00
1	 9.833333e+00	 2.666667e+00	 9.817985e+00
1	 9.833333e+00	 2.750000e+00	 9.824587e+00
1	 9.833333e+00	 2.833333e+00	 9.831192e+00
1	 9.833333e+00	 2.916667e+00	 9.837802e+00
1	 9.916667e+00	 2.500000e+00	 9.794044e+00
1	 9.916667e+00	 2.583333e+00	 9.801041e+00
1	 9.916667e+00	 2.666667e+00	 9.808033e+00
1	 9.916667e+00	 2.750000e+00	 9.815024e+00
1	 9.916667e+00	 2.833333e+00	 9.822015e+00
1	 9.916667e+00	 2.916667e+00	 9.829011e+00
1	 1.000000e+01	 2.500000e+00	 9.783238e+00
1	 1.000000e+01	 2.583333e+00	 9.790657e+00
1	 1.000000e+01	 2.666667e+00	 9.798069e+00
1	 1.000000e+01	 2.750000e+00	 9.805477e+00
1	 1.000000e+01	 2.833333e+00	 9.812883e+00
1	 1.000000e+01	 2.916667e+00	 9.820292e+00
1	 9.583333e+00	 2.916667e+00	 9.864518e+00
1	 9.583333e+00	 3.000000e+00	 9.870095e+00
1	 9.583333e+00	 3.083333e+00	 9.875620e+00
1	 9.583333e+00	 3.166667e+00	 9.881094e+00
1	 9.583333e+00	 3.250000e+00	 9.886520e+00
1	 9.583333e+00	 3.333333e+00	 9.891899e+00
1	 9.666667e+00	 2.916667e+00	 9.855565e+00
1	 9.666667e+00	 3.000000e+00	 9.861456e+00
1	 9.666667e+00	 3.083333e+00	 9.867290e+00
1	 9.666667e+00	 3.166667e+00	 9.873072e+00
1	 9.666667e+00	 3.250000e+00	 9.878802e+00
1	 9.666667e+00	 3.333333e+00	 9.884483e+00
1	 9.750000e+00	 2.916667e+00	 9.846657e+00
1	 9.750000e+00	 3.000000e+00	 9.852881e+00
1	 9.750000e+00	 3.083333e+00	 9.859046e+00
1	 9.750000e+00	 3.166667e+00	 9.865154e+00
1	 9.750000e+00	 3.250000e+00	 9.871206e+00
1	 9.750000e+00	 3.333333e+00	 9.877207e+00
1	 9.833333e+00	 2.916667e+00	 9.837802e+00
1	 9.833333e+00	 3.000000e+00	 9.844384e+00
1	 9.833333e+00	 3.083333e+00	 9.850901e+00
1	 9.833333e+00	 3.166667e+00	 9.857356e+00
1	 9.833333e+00	 3.250000e+00	 9.863751e+00
1	 9.833333e+00	 3.333333e+00	 9.870091e+00
1	 9.916667e+00	 2.916667e+00	 9.829011e+00
1	 9.916667e+00	 3.000000e+00	 9.835974e+00
1	 9.916667e+00	 3.083333e+00	 9.842867e+00
1	 9.916667e+00	 3.166667e+00	 9.849693e+00
1	 9.916667e+00	 3.250000e+00	 9.856454e+00
1	 9.916667e+00	 3.333333e+00	 9.863153e+00
1	 1.000000e+01	 2.916667e+00	 9.820292e+00
1	 1.000000e+01	 3.000000e+00	 9.827664e+00
1	 1.000000e+01	 3.083333e+00	 9.834959e+00
1	 1.000000e+01	 3.166667e+00	 9.842180e+00
1	 1.000000e+01	 3.250000e+00	 9.849330e+00
1	 1.000000e+01	 3.333333e+00	 9.856412e+00
1	 9.583333e+00	 3.333333e+00	 9.891899e+00
1	 9.583333e+00	 3.416667e+00	 9.897209e+00
1	 9.583333e+00	 3.500000e+00	 9.902424e+00
1	 9.583333e+00	 3.583333e+00	 9.907545e+00
1	 9.583333e+00	 3.666667e+00	 9.912575e+00
1	 9.583333e+00	 3.750000e+00	 9.917515e+00
1	 9.666667e+00	 3.333333e+00	 9.884483e+00
1	 9.666667e+00	 3.416667e+00	 9.890090e+00
1	 9.666667e+00	 3.500000e+00	 9.895596e+00
1	 9.666667e+00	 3.583333e+00	 9.901003e+00
1	 9.666667e+00	 3.666667e+00	 9.906314e+00
1	 9.666667e+00	 3.750000e+00	 9.911530e+00
1	 9.750000e+00	 3.333333e+00	 9.877207e+00
1	 9.750000e+00	 3.416667e+00	 9.883128e+00
1	 9.750000e+00	 3.500000e+00	 9.888942e+00
1	 9.750000e+00	 3.583333e+00	 9.894651e+00
1	 9.750000e+00	 3.666667e+00	 9.900257e+00
1	 9.750000e+00	 3.750000e+00	 9.905762e+00
1	 9.833333e+00	 3.333333e+00	 9.870091e+00
1	 9.833333e+00	 3.416667e+00	 9.876344e+00
1	 9.833333e+00	 3.500000e+00	 9.882484e+00
1	 9.833333e+00	 3.583333e+00	 9.888511e+00
1	 9.833333e+00	 3.666667e+00	 9.894428e+00
1	 9.833333e+00	 3.750000e+00	 9.900236e+00
1	 9.916667e+00	 3.333333e+00	 9.863153e+00
1	 9.916667e+00	 3.416667e+00	 9.869759e+00
1	 9.916667e+00	 3.500000e+00	 9.876243e+00
1	 9.916667e+00	 3.583333e+00	 9.882607e+00
1	 9.916667e+00	 3.666667e+00	 9.888851e+00
1	 9.916667e+00	 3.750000e+00	 9.894979e+00
1	 1.000000e+01	 3.333333e+00	 9.856412e+00
1	 1.000000e+01	 3.416667e+00	 9.863394e+00
1	 1.000000e+01	 3.500000e+00	 9.870243e+00
1	 1.000000e+01	 3.583333e+00	 9.876962e+00
1	 1.000000e+01	 3.666667e+00	 9.883552e+00
1	 1.000000e+01	 3.750000e+00	 9.890017e+00
1	 9.583333e+00	 3.750000e+00	 9.917515e+00
1	 9.583333e+00	 3.833333e+00	 9.922347e+00
1	 9.583333e+00	 3.916667e+00	 9.927053e+00
1	 9.583333e+00	 4.000000e+00	 9.931635e+00
1	 9.583333e+00	 4.083333e+00	 9.936092e+00
1	 9.583333e+00	 4.166667e+00	 9.940427e+00
1	 9.666667e+00	 3.750000e+00	 9.911530e+00
1	 9.666667e+00	 3.833333e+00	 9.916632e+00
1	 9.666667e+00	 3.916667e+00	 9.921600e+00
1	 9.666667e+00	 4.000000e+00	 9.926436e+00
1	 9.666667e+00	 4.083333e+00	 9.931142e+00
1	 9.666667e+00	 4.166667e+00	 9.935718e+00
1	 9.750000e+00	 3.750000e+00	 9.905762e+00
1	 9.750000e+00	 3.833333e+00	 9.911145e+00
1	 9.750000e+00	 3.916667e+00	 9.916388e+00
1	 9.750000e+00	 4.000000e+00	 9.921489e+00
1	 9.750000e+00	 4.083333e+00	 9.926452e+00
1	 9.750000e+00	 4.166667e+00	 9.931278e+00
1	 9.833333e+00	 3.750000e+00	 9.900236e+00
1	 9.833333e+00	 3.833333e+00	 9.905915e+00
1	 9.833333e+00	 3.916667e+00	 9.911444e+00
1	 9.833333e+00	 4.000000e+00	 9.916823e+00
1	 9.833333e+00	 4.083333e+00	 9.922053e+00
1	 9.833333e+00	 4.166667e+00	 9.927137e+00
1	 9.916667e+00	 3.750000e+00	 9.894979e+00
1	 9.916667e+00	 3.833333e+00	 9.900969e+00
1	 9.916667e+00	 3.916667e+00	 9.906797e+00
1	 9.916667e+00	 4.000000e+00	 9.912465e+00
1	 9.916667e+00	 4.083333e+00	 9.917975e+00
1	 9.916667e+00	 4.166667e+00	 9.923327e+00
1	 1.000000e+01	 3.750000e+00	 9.890017e+00
1	 1.000000e+01	 3.833333e+00	 9.896332e+00
1	 1.000000e+01	 3.916667e+00	 9.902475e+00
1	 1.000000e+01	 4.000000e+00	 9.908445e+00
1	 1.000000e+01	 4.083333e+00	 9.914246e+00
1	 1.000000e+01	 4.166667e+00	 9.919877e+00
1	 9.583333e+00	 4.166667e+00	 9.940427e+00
1	 9.583333e+00	 4.250000e+00	 9.944629e+00
1	 9.583333e+00	 4.333333e+00	 9.948685e+00
1	 9.583333e+00	 4.416667e+00	 9.952597e+00
1	 9.583333e+00	 4.500000e+00	 9.956364e+00
1	 9.583333e+00	 4.583333e+00	 9.959988e+00
1	 9.666667e+00	 4.166667e+00	 9.935718e+00
1	 9.666667e+00	 4.250000e+00	 9.940153e+00
1	 9.666667e+00	 4.333333e+00	 9.944434e+00
1	 9.666667e+00	 4.416667e+00	 9.948562e+00
1	 9.666667e+00	 4.500000e+00	 9.952538e+00
1	 9.666667e+00	 4.583333e+00	 9.956362e+00
1	 9.750000e+00	 4.166667e+00	 9.931278e+00
1	 9.750000e+00	 4.250000e+00	 9.935953e+00
1	 9.750000e+00	 4.333333e+00	 9.940466e+00
1	 9.750000e+00	 4.416667e+00	 9.944817e+00
1	 9.750000e+00	 4.500000e+00	 9.949006e+00
1	 9.750000e+00	 4.583333e+00	 9.953035e+00
1	 9.833333e+00	 4.166667e+00	 9.927137e+00
1	 9.833333e+00	 4.250000e+00	 9.932062e+00
1	 9.833333e+00	 4.333333e+00	 9.936814e+00
1	 9.833333e+00	 4.416667e+00	 9.941393e+00
1	 9.833333e+00	 4.500000e+00	 9.945801e+00
1	 9.833333e+00	 4.583333e+00	 9.950038e+00
1	 9.916667e+00	 4.166667e+00	 9.923327e+00
1	 9.916667e+00	 4.250000e+00	 9.928510e+00
1	 9.916667e+00	 4.333333e+00	 9.933508e+00
1	 9.916667e+00	 4.416667e+00	 9.938322e+00
1	 9.916667e+00	 4.500000e+00	 9.942954e+00
1	 9.916667e+00	 4.583333e+00	 9.947403e+00
1	 1.000000e+01	 4.166667e+00	 9.919877e+00
1	 1.000000e+01	 4.250000e+00	 9.925327e+00
1	 1.000000e+01	 4.333333e+00	 9.930579e+00
1	 1.000000e+01	 4.416667e+00	 9.935636e+00
1	 1.000000e+01	 4.500000e+00	 9.940497e+00
1	 1.000000e+01	 4.583333e+00	 9.945163e+00
1	 9.583333e+00	 4.583333e+00	 9.959988e+00
1	 9.583333e+00	 4.666667e+00	 9.963464e+00
1	 9.583333e+00	 4.750000e+00	 9.966788e+00
1	 9.583333e+00	 4.833333e+00	 9.969959e+00
1	 9.583333e+00	 4.916667e+00	 9.972978e+00
1	 9.583333e+00	 5.000000e+00	 9.975844e+00
1	 9.666667e+00	 4.583333e+00	 9.956362e+00
1	 9.666667e+00	 4.666667e+00	 9.960030e+00
1	 9.666667e+00	 4.750000e+00	 9.963537e+00
1	 9.666667e+00	 4.833333e+00	 9.966883e+00
1	 9.666667e+00	 4.916667e+00	 9.970069e+00
1	 9.666667e+00	 5.000000e+00	 9.973093e+00
1	 9.750000e+00	 4.583333e+00	 9.953035e+00
1	 9.750000e+00	 4.666667e+00	 9.956898e+00
1	 9.750000e+00	 4.750000e+00	 9.960590e+00
1	 9.750000e+00	 4.833333e+00	 9.964113e+00
1	 9.750000e+00	 4.916667e+00	 9.967465e+00
1	 9.750000e+00	 5.000000e+00	 9.970647e+00
1	 9.833333e+00	 4.583333e+00	 9.950038e+00
1	 9.833333e+00	 4.666667e+00	 9.954099e+00
1	 9.833333e+00	 4.750000e+00	 9.957979e+00
1	 9.833333e+00	 4.833333e+00	 9.961679e+00
1	 9.833333e+00	 4.916667e+00	 9.965198e+00
1	 9.833333e+00	 5.000000e+00	 9.968536e+00
1	 9.916667e+00	 4.583333e+00	 9.947403e+00
1	 9.916667e+00	 4.666667e+00	 9.951665e+00
1	 9.916667e+00	 4.750000e+00	 9.955735e+00
1	 9.916667e+00	 4.833333e+00	 9.959613e+00
1	 9.916667e+00	 4.916667e+00	 9.963299e+00
1	 9.916667e+00	 5.000000e+00	 9.966792e+00
1	 1.000000e+01	 4.583333e+00	 9.945163e+00
1	 1.000000e+01	 4.666667e+00	 9.949630e+00
1	 1.000000e+01	 4.750000e+00	 9.953891e+00
1	 1.000000e+01	 4.833333e+00	 9.957948e+00
1	 1.000000e+01	 4.916667e+00	 9.961799e+00
1	 1.000000e+01	 5.000000e+00	 9.965446e+00
2	 5.000000e+00	 5.000000e+00	 1.028338e+01
2	 5.000000e+00	 5.083333e+00	 1.027442e+01
2	 5.000000e+00	 5.166667e+00	 1.026560e+01
2	 5.000000e+00	 5.250000e+00	 1.025690e+01
2	 5.000000e+00	 5.333333e+00	 1.024831e+01
2	 5.000000e+00	 5.416667e+00	 1.023981e+01
2	 5.083333e+00	 5.000000e+00	 1.028050e+01
2	 5.083333e+00	 5.083333e+00	 1.027185e+01
2	 5.083333e+00	 5.166667e+00	 1.026333e+01
2	 5.083333e+00	 5.250000e+00	 1.025491e+01
2	 5.083333e+00	 5.333333e+00	 1.024658e+01
2	 5.083333e+00	 5.416667e+00	 1.023833e+01
2	 5.166667e+00	 5.000000e+00	 1.027718e+01
2	 5.166667e+00	 5.083333e+00	 1.026885e+01
2	 5.166667e+00	 5.166667e+00	 1.026063e+01
2	 5.166667e+00	 5.250000e+00	 1.025249e+01
2	 5.166667e+00	 5.333333e+00	 1.024442e+01
2	 5.166667e+00	 5.416667e+00	 1.023641e+01
2	 5.250000e+00	 5.000000e+00	 1.027346e+01
2	 5.250000e+00	 5.083333e+00	 1.026545e+01
2	 5.250000e+00	 5.166667e+00	 1.025752e+01
2	 5.250000e+00	 5.250000e+00	 1.024967e+01
2	 5.250000e+00	 5.333333e+00	 1.024187e+01
2	 5.250000e+00	 5.416667e+00	 1.023411e+01
2	 5.333333e+00	 5.000000e+00	 1.026940e+01
2	 5.333333e+00	 5.083333e+00	 1.026170e+01
2	 5.333333e+00	 5.166667e+00	 1.025407e+01
2	 5.333333e+00	 5.250000e+00	 1.024650e+01
2	 5.333333e+00	 5.333333e+00	 1.023897e+01
2	 5.333333e+00	 5.416667e+00	 1.023146e+01
2	 5.416667e+00	 5.000000e+00	 1.026504e+01
2	 5.416667e+00	 5.083333e+00	 1.025765e+01
2	 5.416667e+00	 5.166667e+00	 1.025031e+01
2	 5.416667e+00	 5.250000e+00	 1.024301e+01
2	 5.416667e+00	 5.333333e+00	 1.023575e+01
2	 5.416667e+00	 5.416667e+00	 1.022850e+01
2	 5.000000e+00	 5.416667e+00	 1.023981e+01
2	 5.000000e+00	 5.500000e+00	 1.023144e+01
2	 5.000000e+00	 5.583333e+00	 1.022323e+01
2	 5.000000e+00	 5.666667e+00	 1.021518e+01
2	 5.000000e+00	 5.750000e+00	 1.020726e+01
2	 5.000000e+00	 5.833333e+00	 1.019948e+01
2	 5.083333e+00	 5.416667e+00	 1.023833e+01
2	 5.083333e+00	 5.500000e+00	 1.023018e+01
2	 5.083333e+00	 5.583333e+00	 1.022219e+01
2	 5.083333e+00	 5.666667e+00	 1.021432e+01
2	 5.083333e+00	 5.750000e+00	 1.020659e+01
2	 5.083333e+00	 5.833333e+00	 1.019897e+01
2	 5.166667e+00	 5.416667e+00	 1.023641e+01
2	 5.166667e+00	 5.500000e+00	 1.022850e+01
2	 5.166667e+00	 5.583333e+00	 1.022072e+01
2	 5.166667e+00	 5.666667e+00	 1.021306e+01
2	 5.166667e+00	 5.750000e+00	 1.020552e+01
2	 5.166667e+00	 5.833333e+00	 1.019807e+01
2	 5.250000e+00	 5.416667e+00	 1.023411e+01
2	 5.250000e+00	 5.500000e+00	 1.022644e+01
2	 5.250000e+00	 5.583333e+00	 1.021888e+01
2	 5.250000e+00	 5.666667e+00	 1.021143e+01
2	 5.250000e+00	 5.750000e+00	 1.020407e+01
2	 5.250000e+00	 5.833333e+00	 1.019681e+01
2	 5.333333e+00	 5.416667e+00	 1.023146e+01
2	 5.333333e+00	 5.500000e+00	 1.022403e+01
2	 5.333333e+00	 5.583333e+00	 1.021669e+01
2	 5.333333e+00	 5.666667e+00	 1.020945e+01
2	 5.333333e+00	 5.750000e+00	 1.020230e+01
2	 5.333333e+00	 5.833333e+00	 1.019522e+01
2	 5.416667e+00	 5.416667e+00	 1.022850e+01
2	 5.416667e+00	 5.500000e+00	 1.022130e+01
2	 5.416667e+00	 5.583333e+00	 1.021420e+01
2	 5.416667e+00	 5.666667e+00	 1.020717e+01
2	 5.416667e+00	 5.750000e+00	 1.020022e+01
2	 5.416667e+00	 5.833333e+00	 1.019333e+01
2	 5.000000e+00	 5.833333e+00	 1.019948e+01
2	 5.000000e+00	 5.916667e+00	 1.019185e+01
2	 5.000000e+00	 6.000000e+00	 1.018439e+01
2	 5.000000e+00	 6.083333e+00	 1.017709e+01
2	 5.000000e+00	 6.166667e+00	 1.016996e+01
2	 5.000000e+00	 6.250000e+00	 1.016297e+01
2	 5.083333e+00	 5.833333e+00	 1.019897e+01
2	 5.083333e+00	 5.916667e+00	 1.019149e+01
2	 5.083333e+00	 6.000000e+00	 1.018417e+01
2	 5.083333e+00	 6.083333e+00	 1.017700e+01
2	 5.083333e+00	 6.166667e+00	 1.016998e+01
2	 5.083333e+00	 6.250000e+00	 1.016309e+01
2	 5.166667e+00	 5.833333e+00	 1.019807e+01
2	 5.166667e+00	 5.916667e+00	 1.019075e+01
2	 5.166667e+00	 6.000000e+00	 1.018357e+01
2	 5.166667e+00	 6.083333e+00	 1.017654e+01
2	 5.166667e+00	 6.166667e+00	 1.016964e+01
2	 5.166667e+00	 6.250000e+00	 1.016287e+01
2	 5.250000e+00	 5.833333e+00	 1.019681e+01
2	 5.250000e+00	 5.916667e+00	 1.018965e+01
2	 5.250000e+00	 6.000000e+00	 1.018263e+01
2	 5.250000e+00	 6.083333e+00	 1.017574e+01
2	 5.250000e+00	 6.166667e+00	 1.016897e+01
2	 5.250000e+00	 6.250000e+00	 1.016232e+01
2	 5.333333e+00	 5.833333e+00	 1.019522e+01
2	 5.333333e+00	 5.916667e+00	 1.018823e+01
2	 5.333333e+00	 6.000000e+00	 1.018137e+01
2	 5.333333e+00	 6.083333e+00	 1.017463e+01
2	 5.333333e+00	 6.166667e+00	 1.016801e+01
2	 5.333333e+00	 6.250000e+00	 1.016148e+01
2	 5.416667e+00	 5.833333e+00	 1.019333e+01
2	 5.416667e+00	 5.916667e+00	 1.018652e+01
2	 5.416667e+00	 6.000000e+00	 1.017983e+01
2	 5.416667e+00	 6.083333e+00	 1.017324e+01
2	 5.416667e+00	 6.166667e+00	 1.016676e+01
2	 5.416667e+00	 6.250000e+00	 1.016037e+01
2	 5.000000e+00	 6.250000e+00	 1.016297e+01
2	 5.000000e+00	 6.333333e+00	 1.015615e+01
2	 5.000000e+00	 6.416667e+00	 1.014950e+01
2	 5.000000e+00	 6.500000e+00	 1.014301e+01
2	 5.000000e+00	 6.583333e+00	 1.013667e+01
2	 5.000000e+00	 6.666667e+00	 1.013050e+01
2	 5.083333e+00	 6.250000e+00	 1.016309e+01
2	 5.083333e+00	 6.333333e+00	 1.015636e+01
2	 5.083333e+00	 6.416667e+00	 1.014978e+01
2	 5.083333e+00	 6.500000e+00	 1.014336e+01
2	 5.083333e+00	 6.583333e+00	 1.013709e+01
2	 5.083333e+00	 6.666667e+00	 1.013096e+01
2	 5.166667e+00	 6.250000e+00	 1.016287e+01
2	 5.166667e+00	 6.333333e+00	 1.015623e+01
2	 5.166667e+00	 6.416667e+00	 1.014975e+01
2	 5.166667e+00	 6.500000e+00	 1.014341e+01
2	 5.166667e+00	 6.583333e+00	 1.013721e+01
2	 5.166667e+00	 6.666667e+00	 1.013114e+01
2	 5.250000e+00	 6.250000e+00	 1.016232e+01
2	 5.250000e+00	 6.333333e+00	 1.015579e+01
2	 5.250000e+00	 6.416667e+00	 1.014941e+01
2	 5.250000e+00	 6.500000e+00	 1.014316e+01
2	 5.250000e+00	 6.583333e+00	 1.013704e+01
2	 5.250000e+00	 6.666667e+00	 1.013105e+01
2	 5.333333e+00	 6.250000e+00	 1.016148e+01
2	 5.333333e+00	 6.333333e+00	 1.015507e+01
2	 5.333333e+00	 6.416667e+00	 1.014879e+01
2	 5.333333e+00	 6.500000e+00	 1.014264e+01
2	 5.333333e+00	 6.583333e+00	 1.013661e+01
2	 5.333333e+00	 6.666667e+00	 1.013070e+01
2	 5.416667e+00	 6.250000e+00	 1.016037e+01
2	 5.416667e+00	 6.333333e+00	 1.015408e+01
2	 5.416667e+00	 6.416667e+00	 1.014792e+01
2	 5.416667e+00	 6.500000e+00	 1.014187e+01
2	 5.416667e+00	 6.583333e+00	 1.013594e+01
2	 5.416667e+00	 6.666667e+00	 1.013012e+01
2	 5.000000e+00	 6.666667e+00	 1.013050e+01
2	 5.000000e+00	 6.750000e+00	 1.012448e+01
2	 5.000000e+00	 6.833333e+00	 1.011861e+01
2	 5.000000e+00	 6.916667e+00	 1.011291e+01
2	 5.000000e+00	 7.000000e+00	 1.010735e+01
2	 5.000000e+00	 7.083333e+00	 1.010194e+01
2	 5.083333e+00	 6.666667e+00	 1.013096e+01
2	 5.083333e+00	 6.750000e+00	 1.012499e+01
2	 5.083333e+00	 6.833333e+00	 1.011916e+01
2	 5.083333e+00	 6.916667e+00	 1.011348e+01
2	 5.083333e+00	 7.000000e+00	 1.010795e+01
2	 5.083333e+00	 7.083333e+00	 1.010255e+01
2	 5.166667e+00	 6.666667e+00	 1.013114e+01
2	 5.166667e+00	 6.750000e+00	 1.012522e+01
2	 5.166667e+00	 6.833333e+00	 1.011944e+01
2	 5.166667e+00	 6.916667e+00	 1.011380e+01
2	 5.166667e+00	 7.000000e+00	 1.010829e+01
2	 5.166667e+00	 7.083333e+00	 1.010293e+01
2	 5.250000e+00	 6.666667e+00	 1.013105e+01
2	 5.250000e+00	 6.750000e+00	 1.012518e+01
2	 5.250000e+00	 6.833333e+00	 1.011946e+01
2	 5.250000e+00	 6.916667e+00	 1.011387e+01
2	 5.250000e+00	 7.000000e+00	 1.010841e+01
2	 5.250000e+00	 7.083333e+00	 1.010308e+01
2	 5.333333e+00	 6.666667e+00	 1.013070e+01
2	 5.333333e+00	 6.750000e+00	 1.012491e+01
2	 5.333333e+00	 6.833333e+00	 1.011925e+01
2	 5.333333e+00	 6.916667e+00	 1.011372e+01
2	 5.333333e+00	 7.000000e+00	 1.010831e+01
2	 5.333333e+00	 7.083333e+00	 1.010302e+01
2	 5.416667e+00	 6.666667e+00	 1.013012e+01
2	 5.416667e+00	 6.750000e+00	 1.012440e+01
2	 5.416667e+00	 6.833333e+00	 1.011882e+01
2	 5.416667e+00	 6.916667e+00	 1.011336e+01
2	 5.416667e+00	 7.000000e+00	 1.010801e+01
2	 5.416667e+00	 7.083333e+00	 1.010277e+01
2	 5.000000e+00	 7.083333e+00	 1.010194e+01
2	 5.000000e+00	 7.166667e+00	 1.009668e+01
2	 5.000000e+00	 7.250000e+00	 1.009157e+01
2	 5.000000e+00	 7.333333e+00	 1.008660e+01
2	 5.000000e+00	 7.416667e+00	 1.008177e+01
2	 5.000000e+00	 7.500000e+00	 1.007708e+01
2	 5.083333e+00	 7.083333e+00	 1.010255e+01
2	 5.083333e+00	 7.166667e+00	 1.009730e+01
2	 5.083333e+00	 7.250000e+00	 1.009219e+01
2	 5.083333e+00	 7.333333e+00	 1.008722e+01
2	 5.083333e+00	 7.416667e+00	 1.008239e+01
2	 5.083333e+00	 7.500000e+00	 1.007768e+01
2	 5.166667e+00	 7.083333e+00	 1.010293e+01
2	 5.166667e+00	 7.166667e+00	 1.009770e+01
2	 5.166667e+00	 7.250000e+00	 1.009260e+01
2	 5.166667e+00	 7.333333e+00	 1.008764e+01
2	 5.166667e+00	 7.416667e+00	 1.008281e+01
2	 5.166667e+00	 7.500000e+00	 1.007811e+01
2	 5.250000e+00	 7.083333e+00	 1.010308e+01
2	 5.250000e+00	 7.166667e+00	 1.009788e+01
2	 5.250000e+00	 7.250000e+00	 1.009281e+01
2	 5.250000e+00	 7.333333e+00	 1.008787e+01
2	 5.250000e+00	 7.416667e+00	 1.008305e+01
2	 5.250000e+00	 7.500000e+00	 1.007836e+01
2	 5.333333e+00	 7.083333e+00	 1.010302e+01
2	 5.333333e+00	 7.166667e+00	 1.009786e+01
2	 5.333333e+00	 7.250000e+00	 1.009282e+01
2	 5.333333e+00	 7.333333e+00	 1.008791e+01
2	 5.333333e+00	 7.416667e+00	 1.008312e+01
2	 5.333333e+00	 7.500000e+00	 1.007845e+01
2	 5.416667e+00	 7.083333e+00	 1.010277e+01
2	 5.416667e+00	 7.166667e+00	 1.009766e+01
2	 5.416667e+00	 7.250000e+00	 1.009266e+01
2	 5.416667e+00	 7.333333e+00	 1.008779e+01
2	 5.416667e+00	 7.416667e+00	 1.008303e+01
2	 5.416667e+00	 7.500000e+00	 1.007838e+01
2	 5.000000e+00	 7.500000e+00	 1.007708e+01
2	 5.000000e+00	 7.583333e+00	 1.007252e+01
2	 5.000000e+00	 7.666667e+00	 1.006810e+01
2	 5.000000e+00	 7.750000e+00	 1.006382e+01
2	 5.000000e+00	 7.833333e+00	 1.005966e+01
2	 5.000000e+00	 7.916667e+00	 1.005563e+01
2	 5.083333e+00	 7.500000e+00	 1.007768e+01
2	 5.083333e+00	 7.583333e+00	 1.007312e+01
2	 5.083333e+00	 7.666667e+00	 1.006868e+01
2	 5.083333e+00	 7.750000e+00	 1.006438e+01
2	 5.083333e+00	 7.833333e+00	 1.006020e+01
2	 5.083333e+00	 7.916667e+00	 1.005614e+01
2	 5.166667e+00	 7.500000e+00	 1.007811e+01
2	 5.166667e+00	 7.583333e+00	 1.007354e+01
2	 5.166667e+00	 7.666667e+00	 1.006910e+01
2	 5.166667e+00	 7.750000e+00	 1.006478e+01
2	 5.166667e+00	 7.833333e+00	 1.006059e+01
2	 5.166667e+00	 7.916667e+00	 1.005652e+01
2	 5.250000e+00	 7.500000e+00	 1.007836e+01
2	 5.250000e+00	 7.583333e+00	 1.007379e+01
2	 5.250000e+00	 7.666667e+00	 1.006936e+01
2	 5.250000e+00	 7.750000e+00	 1.006504e+01
2	 5.250000e+00	 7.833333e+00	 1.006085e+01
2	 5.250000e+00	 7.916667e+00	 1.005678e+01
2	 5.333333e+00	 7.500000e+00	 1.007845e+01
2	 5.333333e+00	 7.583333e+00	 1.007390e+01
2	 5.333333e+00	 7.666667e+00	 1.006947e+01
2	 5.333333e+00	 7.750000e+00	 1.006517e+01
2	 5.333333e+00	 7.833333e+00	 1.006098e+01
2	 5.333333e+00	 7.916667e+00	 1.005691e+01
2	 5.416667e+00	 7.500000e+00	 1.007838e+01
2	 5.416667e+00	 7.583333e+00	 1.007386e+01
2	 5.416667e+00	 7.666667e+00	 1.006945e+01
2	 5.416667e+00	 7.750000e+00	 1.006516e+01
2	 5.416667e+00	 7.833333e+00	 1.006099e+01
2	 5.416667e+00	 7.916667e+00	 1.005693e+01
2	 5.000000e+00	 7.916667e+00	 1.005563e+01
2	 5.000000e+00	 8.000000e+00	 1.005173e+01
2	 5.000000e+00	 8.083333e+00	 1.004796e+01
2	 5.000000e+00	 8.166667e+00	 1.004432e+01
2	 5.000000e+00	 8.250000e+00	 1.004080e+01
2	 5.000000e+00	 8.333333e+00	 1.003740e+01
2	 5.083333e+00	 7.916667e+00	 1.005614e+01
2	 5.083333e+00	 8.000000e+00	 1.005222e+01
2	 5.083333e+00	 8.083333e+00	 1.004842e+01
2	 5.083333e+00	 8.166667e+00	 1.004475e+01
2	 5.083333e+00	 8.250000e+00	 1.004121e+01
2	 5.083333e+00	 8.333333e+00	 1.003778e+01
2	 5.166667e+00	 7.916667e+00	 1.005652e+01
2	 5.166667e+00	 8.000000e+00	 1.005258e+01
2	 5.166667e+00	 8.083333e+00	 1.004877e+01
2	 5.166667e+00	 8.166667e+00	 1.004508e+01
2	 5.166667e+00	 8.250000e+00	 1.004152e+01
2	 5.166667e+00	 8.333333e+00	 1.003807e+01
2	 5.250000e+00	 7.916667e+00	 1.005678e+01
2	 5.250000e+00	 8.000000e+00	 1.005283e+01
2	 5.250000e+00	 8.083333e+00	 1.004901e+01
2	 5.250000e+00	 8.166667e+00	 1.004531e+01
2	 5.250000e+00	 8.250000e+00	 1.004173e+01
2	 5.250000e+00	 8.333333e+00	 1.003827e+01
2	 5.333333e+00	 7.916667e+00	 1.005691e+01
2	 5.333333e+00	 8.000000e+00	 1.005296e+01
2	 5.333333e+00	 8.083333e+00	 1.004914e+01
2	 5.333333e+00	 8.166667e+00	 1.004544e+01
2	 5.333333e+00	 8.250000e+00	 1.004185e+01
2	 5.333333e+00	 8.333333e+00	 1.003838e+01
2	 5.416667e+00	 7.916667e+00	 1.005693e+01
2	 5.416667e+00	 8.000000e+00	 1.005299e+01
2	 5.416667e+00	 8.083333e+00	 1.004917e+01
2	 5.416667e+00	 8.166667e+00	 1.004547e+01
2	 5.416667e+00	 8.250000e+00	 1.004189e+01
2	 5.416667e+00	 8.333333e+00	 1.003842e+01
2	 5.000000e+00	 8.333333e+00	 1.003740e+01
2	 5.000000e+00	 8.416667e+00	 1.003413e+01
2	 5.000000e+00	 8.500000e+00	 1.003100e+01
2	 5.000000e+00	 8.583333e+00	 1.002799e+01
2	 5.000000e+00	 8.666667e+00	 1.002511e+01
2	 5.000000e+00	 8.750000e+00	 1.002235e+01
2	 5.083333e+00	 8.333333e+00	 1.003778e+01
2	 5.083333e+00	 8.416667e+00	 1.003448e+01
2	 5.083333e+00	 8.500000e+00	 1.003132e+01
2	 5.083333e+00	 8.583333e+00	 1.002828e+01
2	 5.083333e+00	 8.666667e+00	 1.002537e+01
2	 5.083333e+00	 8.750000e+00	 1.002259e+01
2	 5.166667e+00	 8.333333e+00	 1.003807e+01
2	 5.166667e+00	 8.416667e+00	 1.003474e+01
2	 5.166667e+00	 8.500000e+00	 1.003156e+01
2	 5.166667e+00	 8.583333e+00	 1.002850e+01
2	 5.166667e+00	 8.666667e+00	 1.002557e+01
2	 5.166667e+00	 8.750000e+00	 1.002276e+01
2	 5.250000e+00	 8.333333e+00	 1.003827e+01
2	 5.250000e+00	 8.416667e+00	 1.003493e+01
2	 5.250000e+00	 8.500000e+00	 1.003173e+01
2	 5.250000e+00	 8.583333e+00	 1.002866e+01
2	 5.250000e+00	 8.666667e+00	 1.002572e+01
2	 5.250000e+00	 8.750000e+00	 1.002289e+01
2	 5.333333e+00	 8.333333e+00	 1.003838e+01
2	 5.333333e+00	 8.416667e+00	 1.003504e+01
2	 5.333333e+00	 8.500000e+00	 1.003183e+01
2	 5.333333e+00	 8.583333e+00	 1.002875e+01
2	 5.333333e+00	 8.666667e+00	 1.002580e+01
2	 5.333333e+00	 8.750000e+00	 1.002297e+01
2	 5.416667e+00	 8.333333e+00	 1.003842e+01
2	 5.416667e+00	 8.416667e+00	 1.003508e+01
2	 5.416667e+00	 8.500000e+00	 1.003187e+01
2	 5.416667e+00	 8.583333e+00	 1.002879e+01
2	 5.416667e+00	 8.666667e+00	 1.002583e+01
2	 5.416667e+00	 8.750000e+00	 1.002299e+01
2	 5.000000e+00	 8.750000e+00	 1.002235e+01
2	 5.000000e+00	 8.833333e+00	 1.001973e+01
2	 5.000000e+00	 8.916667e+00	 1.001726e+01
2	 5.000000e+00	 9.000000e+00	 1.001493e+01
2	 5.000000e+00	 9.083333e+00	 1.001274e+01
2	 5.000000e+00	 9.166667e+00	 1.001068e+01
2	 5.083333e+00	 8.750000e+00	 1.002259e+01
2	 5.083333e+00	 8.833333e+00	 1.001993e+01
2	 5.083333e+00	 8.916667e+00	 1.001744e+01
2	 5.083333e+00	 9.000000e+00	 1.001508e+01
2	 5.083333e+00	 9.083333e+00	 1.001287e+01
2	 5.083333e+00	 9.166667e+00	 1.001078e+01
2	 5.166667e+00	 8.750000e+00	 1.002276e+01
2	 5.166667e+00	 8.833333e+00	 1.002009e+01
2	 5.166667e+00	 8.916667e+00	 1.001757e+01
2	 5.166667e+00	 9.000000e+00	 1.001520e+01
2	 5.166667e+00	 9.083333e+00	 1.001297e+01
2	 5.166667e+00	 9.166667e+00	 1.001086e+01
2	 5.250000e+00	 8.750000e+00	 1.002289e+01
2	 5.250000e+00	 8.833333e+00	 1.002020e+01
2	 5.250000e+00	 8.916667e+00	 1.001767e+01
2	 5.250000e+00	 9.000000e+00	 1.001528e+01
2	 5.250000e+00	 9.083333e+00	 1.001304e+01
2	 5.250000e+00	 9.166667e+00	 1.001092e+01
2	 5.333333e+00	 8.750000e+00	 1.002297e+01
2	 5.333333e+00	 8.833333e+00	 1.002027e+01
2	 5.333333e+00	 8.916667e+00	 1.001773e+01
2	 5.333333e+00	 9.000000e+00	 1.001533e+01
2	 5.333333e+00	 9.083333e+00	 1.001308e+01
2	 5.333333e+00	 9.166667e+00	 1.001096e+01
2	 5.416667e+00	 8.750000e+00	 1.002299e+01
2	 5.416667e+00	 8.833333e+00	 1.002029e+01
2	 5.416667e+00	 8.916667e+00	 1.001775e+01
2	 5.416667e+00	 9.000000e+00	 1.001535e+01
2	 5.416667e+00	 9.083333e+00	 1.001309e+01
2	 5.416667e+00	 9.166667e+00	 1.001097e+01
2	 5.000000e+00	 9.166667e+00	 1.001068e+01
2	 5.000000e+00	 9.250000e+00	 1.000877e+01
2	 5.000000e+00	 9.333333e+00	 1.000705e+01
2	 5.000000e+00	 9.416667e+00	 1.000551e+01
2	 5.000000e+00	 9.500000e+00	 1.000413e+01
2	 5.000000e+00	 9.583333e+00	 1.000290e+01
2	 5.083333e+00	 9.166667e+00	 1.001078e+01
2	 5.083333e+00	 9.250000e+00	 1.000886e+01
2	 5.083333e+00	 9.333333e+00	 1.000712e+01
2	 5.083333e+00	 9.416667e+00	 1.000556e+01
2	 5.083333e+00	 9.500000e+00	 1.000417e+01
2	 5.083333e+00	 9.583333e+00	 1.000293e+01
2	 5.166667e+00	 9.166667e+00	 1.001086e+01
2	 5.166667e+00	 9.250000e+00	 1.000892e+01
2	 5.166667e+00	 9.333333e+00	 1.000717e+01
2	 5.166667e+00	 9.416667e+00	 1.000560e+01
2	 5.166667e+00	 9.500000e+00	 1.000420e+01
2	 5.166667e+00	 9.583333e+00	 1.000295e+01
2	 5.250000e+00	 9.166667e+00	 1.001092e+01
2	 5.250000e+00	 9.250000e+00	 1.000897e+01
2	 5.250000e+00	 9.333333e+00	 1.000721e+01
2	 5.250000e+00	 9.416667e+00	 1.000563e+01
2	 5.250000e+00	 9.500000e+00	 1.000422e+01
2	 5.250000e+00	 9.583333e+00	 1.000296e+01
2	 5.333333e+00	 9.166667e+00	 1.001096e+01
2	 5.333333e+00	 9.250000e+00	 1.000900e+01
2	 5.333333e+00	 9.333333e+00	 1.000723e+01
2	 5.333333e+00	 9.416667e+00	 1.000564e+01
2	 5.333333e+00	 9.500000e+00	 1.000423e+01
2	 5.333333e+00	 9.583333e+00	 1.000297e+01
2	 5.416667e+00	 9.166667e+00	 1.001097e+01
2	 5.416667e+00	 9.250000e+00	 1.000900e+01
2	 5.416667e+00	 9.333333e+00	 1.000723e+01
2	 5.416667e+00	 9.416667e+00	 1.000565e+01
2	 5.416667e+00	 9.500000e+00	 1.000423e+01
2	 5.416667e+00	 9.583333e+00	 1.000297e+01
2	 5.000000e+00	 9.583333e+00	 1.000290e+01
2	 5.000000e+00	 9.666667e+00	 1.000187e+01
2	 5.000000e+00	 9.750000e+00	 1.000108e+01
2	 5.000000e+00	 9.833333e+00	 1.000051e+01
2	 5.000000e+00	 9.916667e+00	 1.000014e+01
2	 5.000000e+00	 1.000000e+01	 9.999961e+00
2	 5.083333e+00	 9.583333e+00	 1.000293e+01
2	 5.083333e+00	 9.666667e+00	 1.000189e+01
2	 5.083333e+00	 9.750000e+00	 1.000109e+01
2	 5.083333e+00	 9.833333e+00	 1.000051e+01
2	 5.083333e+00	 9.916667e+00	 1.000014e+01
2	 5.083333e+00	 1.000000e+01	 9.999960e+00
2	 5.166667e+00	 9.583333e+00	 1.000295e+01
2	 5.166667e+00	 9.666667e+00	 1.000190e+01
2	 5.166667e+00	 9.750000e+00	 1.000109e+01
2	 5.166667e+00	 9.833333e+00	 1.000051e+01
2	 5.166667e+00	 9.916667e+00	 1.000014e+01
2	 5.166667e+00	 1.000000e+01	 9.999960e+00
2	 5.250000e+00	 9.583333e+00	 1.000296e+01
2	 5.250000e+00	 9.666667e+00	 1.000191e+01
2	 5.250000e+00	 9.750000e+00	 1.000110e+01
2	 5.250000e+00	 9.833333e+00	 1.000051e+01
2	 5.250000e+00	 9.916667e+00	 1.000014e+01
2	 5.250000e+00	 1.000000e+01	 9.999961e+00
2	 5.333333e+00	 9.583333e+00	 1.000297e+01
2	 5.333333e+00	 9.666667e+00	 1.000191e+01
2	 5.333333e+00	 9.750000e+00	 1.000110e+01
2	 5.333333e+00	 9.833333e+00	 1.000051e+01
2	 5.333333e+00	 9.916667e+00	 1.000014e+01
2	 5.333333e+00	 1.000000e+01	 9.999962e+00
2	 5.416667e+00	 9.583333e+00	 1.000297e+01
2	 5.416667e+00	 9.666667e+00	 1.000191e+01
2	 5.416667e+00	 9.750000e+00	 1.000110e+01
2	 5.416667e+00	 9.833333e+00	 1.000051e+01
2	 5.416667e+00	 9.916667e+00	 1.000014e+01
2	 5.416667e+00	 1.000000e+01	 9.999963e+00
2	 5.416667e+00	 5.000000e+00	 1.026504e+01
2	 5.416667e+00	 5.083333e+00	 1.025765e+01
2	 5.416667e+00	 5.166667e+00	 1.025031e+01
2	 5.416667e+00	 5.250000e+00	 1.024301e+01
2	 5.416667e+00	 5.333333e+00	 1.023575e+01
2	 5.416667e+00	 5.416667e+00	 1.022850e+01
2	 5.500000e+00	 5.000000e+00	 1.026038e+01
2	 5.500000e+00	 5.083333e+00	 1.025329e+01
2	 5.500000e+00	 5.166667e+00	 1.024624e+01
2	 5.500000e+00	 5.250000e+00	 1.023923e+01
2	 5.500000e+00	 5.333333e+00	 1.023223e+01
2	 5.500000e+00	 5.416667e+00	 1.022523e+01
2	 5.583333e+00	 5.000000e+00	 1.025543e+01
2	 5.583333e+00	 5.083333e+00	 1.024864e+01
2	 5.583333e+00	 5.166667e+00	 1.024188e+01
2	 5.583333e+00	 5.250000e+00	 1.023514e+01
2	 5.583333e+00	 5.333333e+00	 1.022841e+01
2	 5.583333e+00	 5.416667e+00	 1.022166e+01
2	 5.666667e+00	 5.000000e+00	 1.025023e+01
2	 5.666667e+00	 5.083333e+00	 1.024373e+01
2	 5.666667e+00	 5.166667e+00	 1.023726e+01
2	 5.666667e+00	 5.250000e+00	 1.023079e+01
2	 5.666667e+00	 5.333333e+00	 1.022432e+01
2	 5.666667e+00	 5.416667e+00	 1.021783e+01
2	 5.750000e+00	 5.000000e+00	 1.024480e+01
2	 5.750000e+00	 5.083333e+00	 1.023860e+01
2	 5.750000e+00	 5.166667e+00	 1.023240e+01
2	 5.750000e+00	 5.250000e+00	 1.022620e+01
2	 5.750000e+00	 5.333333e+00	 1.021999e+01
2	 5.750000e+00	 5.416667e+00	 1.021375e+01
2	 5.833333e+00	 5.000000e+00	 1.023918e+01
2	 5.833333e+00	 5.083333e+00	 1.023326e+01
2	 5.833333e+00	 5.166667e+00	 1.022735e+01
2	 5.833333e+00	 5.250000e+00	 1.022141e+01
2	 5.833333e+00	 5.333333e+00	 1.021546e+01
2	 5.833333e+00	 5.416667e+00	 1.020947e+01
2	 5.416667e+00	 5.416667e+00	 1.022850e+01
2	 5.416667e+00	 5.500000e+00	 1.022130e+01
2	 5.416667e+00	 5.583333e+00	 1.021420e+01
2	 5.416667e+00	 5.666667e+00	 1.020717e+01
2	 5.416667e+00	 5.750000e+00	 1.020022e+01
2	 5.416667e+00	 5.833333e+00	 1.019333e+01
2	 5.500000e+00	 5.416667e+00	 1.022523e+01
2	 5.500000e+00	 5.500000e+00	 1.021828e+01
2	 5.500000e+00	 5.583333e+00	 1.021140e+01
2	 5.500000e+00	 5.666667e+00	 1.020459e+01
2	 5.500000e+00	 5.750000e+00	 1.019784e+01
2	 5.500000e+00	 5.833333e+00	 1.019114e+01
2	 5.583333e+00	 5.416667e+00	 1.022166e+01
2	 5.583333e+00	 5.500000e+00	 1.021495e+01
2	 5.583333e+00	 5.583333e+00	 1.020830e+01
2	 5.583333e+00	 5.666667e+00	 1.020172e+01
2	 5.583333e+00	 5.750000e+00	 1.019518e+01
2	 5.583333e+00	 5.833333e+00	 1.018867e+01
2	 5.666667e+00	 5.416667e+00	 1.021783e+01
2	 5.666667e+00	 5.500000e+00	 1.021136e+01
2	 5.666667e+00	 5.583333e+00	 1.020494e+01
2	 5.666667e+00	 5.666667e+00	 1.019857e+01
2	 5.666667e+00	 5.750000e+00	 1.019224e+01
2	 5.666667e+00	 5.833333e+00	 1.018594e+01
2	 5.750000e+00	 5.416667e+00	 1.021375e+01
2	 5.750000e+00	 5.500000e+00	 1.020752e+01
2	 5.750000e+00	 5.583333e+00	 1.020134e+01
2	 5.750000e+00	 5.666667e+00	 1.019519e+01
2	 5.750000e+00	 5.750000e+00	 1.018907e+01
2	 5.750000e+00	 5.833333e+00	 1.018297e+01
2	 5.833333e+00	 5.416667e+00	 1.020947e+01
2	 5.833333e+00	 5.500000e+00	 1.020348e+01
2	 5.833333e+00	 5.583333e+00	 1.019752e+01
2	 5.833333e+00	 5.666667e+00	 1.019160e+01
2	 5.833333e+00	 5.750000e+00	 1.018569e+01
2	 5.833333e+00	 5.833333e+00	 1.017979e+01
2	 5.416667e+00	 5.833333e+00	 1.019333e+01
2	 5.416667e+00	 5.916667e+00	 1.018652e+01
2	 5.416667e+00	 6.000000e+00	 1.017983e+01
2	 5.416667e+00	 6.083333e+00	 1.017324e+01
2	 5.416667e+00	 6.166667e+00	 1.016676e+01
2	 5.416667e+00	 6.250000e+00	 1.016037e+01
2	 5.500000e+00	 5.833333e+00	 1.019114e+01
2	 5.500000e+00	 5.916667e+00	 1.018452e+01
2	 5.500000e+00	 6.000000e+00	 1.017800e+01
2	 5.500000e+00	 6.083333e+00	 1.017158e+01
2	 5.500000e+00	 6.166667e+00	 1.016524e+01
2	 5.500000e+00	 6.250000e+00	 1.015899e+01
2	 5.583333e+00	 5.833333e+00	 1.018867e+01
2	 5.583333e+00	 5.916667e+00	 1.018223e+01
2	 5.583333e+00	 6.000000e+00	 1.017589e+01
2	 5.583333e+00	 6.083333e+00	 1.016963e+01
2	 5.583333e+00	 6.166667e+00	 1.016345e+01
2	 5.583333e+00	 6.250000e+00	 1.015735e+01
2	 5.666667e+00	 5.833333e+00	 1.018594e+01
2	 5.666667e+00	 5.916667e+00	 1.017969e+01
2	 5.666667e+00	 6.000000e+00	 1.017353e+01
2	 5.666667e+00	 6.083333e+00	 1.016744e+01
2	 5.666667e+00	 6.166667e+00	 1.016142e+01
2	 5.666667e+00	 6.250000e+00	 1.015546e+01
2	 5.750000e+00	 5.833333e+00	 1.018297e+01
2	 5.750000e+00	 5.916667e+00	 1.017691e+01
2	 5.750000e+00	 6.000000e+00	 1.017093e+01
2	 5.750000e+00	 6.083333e+00	 1.016502e+01
2	 5.750000e+00	 6.166667e+00	 1.015916e+01
2	 5.750000e+00	 6.250000e+00	 1.015336e+01
2	 5.833333e+00	 5.833333e+00	 1.017979e+01
2	 5.833333e+00	 5.916667e+00	 1.017393e+01
2	 5.833333e+00	 6.000000e+00	 1.016813e+01
2	 5.833333e+00	 6.083333e+00	 1.016239e+01
2	 5.833333e+00	 6.166667e+00	 1.015670e+01
2	 5.833333e+00	 6.250000e+00	 1.015106e+01
2	 5.416667e+00	 6.250000e+00	 1.016037e+01
2	 5.416667e+00	 6.333333e+00	 1.015408e+01
2	 5.416667e+00	 6.416667e+00	 1.014792e+01
2	 5.416667e+00	 6.500000e+00	 1.014187e+01
2	 5.416667e+00	 6.583333e+00	 1.013594e+01
2	 5.416667e+00	 6.666667e+00	 1.013012e+01
2	 5.500000e+00	 6.250000e+00	 1.015899e+01
2	 5.500000e+00	 6.333333e+00	 1.015283e+01
2	 5.500000e+00	 6.416667e+00	 1.014679e+01
2	 5.500000e+00	 6.500000e+00	 1.014086e+01
2	 5.500000e+00	 6.583333e+00	 1.013503e+01
2	 5.500000e+00	 6.666667e+00	 1.012930e+01
2	 5.583333e+00	 6.250000e+00	 1.015735e+01
2	 5.583333e+00	 6.333333e+00	 1.015133e+01
2	 5.583333e+00	 6.416667e+00	 1.014541e+01
2	 5.583333e+00	 6.500000e+00	 1.013960e+01
2	 5.583333e+00	 6.583333e+00	 1.013389e+01
2	 5.583333e+00	 6.666667e+00	 1.012826e+01
2	 5.666667e+00	 6.250000e+00	 1.015546e+01
2	 5.666667e+00	 6.333333e+00	 1.014959e+01
2	 5.666667e+00	 6.416667e+00	 1.014381e+01
2	 5.666667e+00	 6.500000e+00	 1.013812e+01
2	 5.666667e+00	 6.583333e+00	 1.013252e+01
2	 5.666667e+00	 6.666667e+00	 1.012700e+01
2	 5.750000e+00	 6.250000e+00	 1.015336e+01
2	 5.750000e+00	 6.333333e+00	 1.014763e+01
2	 5.750000e+00	 6.416667e+00	 1.014199e+01
2	 5.750000e+00	 6.500000e+00	 1.013643e+01
2	 5.750000e+00	 6.583333e+00	 1.013096e+01
2	 5.750000e+00	 6.666667e+00	 1.012556e+01
2	 5.833333e+00	 6.250000e+00	 1.015106e+01
2	 5.833333e+00	 6.333333e+00	 1.014548e+01
2	 5.833333e+00	 6.416667e+00	 1.013998e+01
2	 5.833333e+00	 6.500000e+00	 1.013456e+01
2	 5.833333e+00	 6.583333e+00	 1.012922e+01
2	 5.833333e+00	 6.666667e+00	 1.012393e+01
2	 5.416667e+00	 6.666667e+00	 1.013012e+01
2	 5.416667e+00	 6.750000e+00	 1.012440e+01
2	 5.416667e+00	 6.833333e+00	 1.011882e+01
2	 5.416667e+00	 6.916667e+00	 1.011336e+01
2	 5.416667e+00	 7.000000e+00	 1.010801e+01
2	 5.416667e+00	 7.083333e+00	 1.010277e+01
2	 5.500000e+00	 6.666667e+00	 1.012930e+01
2	 5.500000e+00	 6.750000e+00	 1.012368e+01
2	 5.500000e+00	 6.833333e+00	 1.011817e+01
2	 5.500000e+00	 6.916667e+00	 1.011279e+01
2	 5.500000e+00	 7.000000e+00	 1.010751e+01
2	 5.500000e+00	 7.083333e+00	 1.010233e+01
2	 5.583333e+00	 6.666667e+00	 1.012826e+01
2	 5.583333e+00	 6.750000e+00	 1.012273e+01
2	 5.583333e+00	 6.833333e+00	 1.011732e+01
2	 5.583333e+00	 6.916667e+00	 1.011201e+01
2	 5.583333e+00	 7.000000e+00	 1.010680e+01
2	 5.583333e+00	 7.083333e+00	 1.010170e+01
2	 5.666667e+00	 6.666667e+00	 1.012700e+01
2	 5.666667e+00	 6.750000e+00	 1.012158e+01
2	 5.666667e+00	 6.833333e+00	 1.011626e+01
2	 5.666667e+00	 6.916667e+00	 1.011104e+01
2	 5.666667e+00	 7.000000e+00	 1.010592e+01
2	 5.666667e+00	 7.083333e+00	 1.010089e+01
2	 5.750000e+00	 6.666667e+00	 1.012556e+01
2	 5.750000e+00	 6.750000e+00	 1.012024e+01
2	 5.750000e+00	 6.833333e+00	 1.011502e+01
2	 5.750000e+00	 6.916667e+00	 1.010990e+01
2	 5.750000e+00	 7.000000e+00	 1.010487e+01
2	 5.750000e+00	 7.083333e+00	 1.009992e+01
2	 5.833333e+00	 6.666667e+00	 1.012393e+01
2	 5.833333e+00	 6.750000e+00	 1.011873e+01
2	 5.833333e+00	 6.833333e+00	 1.011362e+01
2	 5.833333e+00	 6.916667e+00	 1.010860e+01
2	 5.833333e+00	 7.000000e+00	 1.010366e+01
2	 5.833333e+00	 7.083333e+00	 1.009880e+01
2	 5.416667e+00	 7.083333e+00	 1.010277e+01
2	 5.416667e+00	 7.166667e+00	 1.009766e+01
2	 5.416667e+00	 7.250000e+00	 1.009266e+01
2	 5.416667e+00	 7.333333e+00	 1.008779e+01
2	 5.416667e+00	 7.416667e+00	 1.008303e+01
2	 5.416667e+00	 7.500000e+00	 1.007838e+01
2	 5.500000e+00	 7.083333e+00	 1.010233e+01
2	 5.500000e+00	 7.166667e+00	 1.009727e+01
2	 5.500000e+00	 7.250000e+00	 1.009233e+01
2	 5.500000e+00	 7.333333e+00	 1.008750e+01
2	 5.500000e+00	 7.416667e+00	 1.008278e+01
2	 5.500000e+00	 7.500000e+00	 1.007817e+01
2	 5.583333e+00	 7.083333e+00	 1.010170e+01
2	 5.583333e+00	 7.166667e+00	 1.009670e+01
2	 5.583333e+00	 7.250000e+00	 1.009181e+01
2	 5.583333e+00	 7.333333e+00	 1.008704e+01
2	 5.583333e+00	 7.416667e+00	 1.008237e+01
2	 5.583333e+00	 7.500000e+00	 1.007780e+01
2	 5.666667e+00	 7.083333e+00	 1.010089e+01
2	 5.666667e+00	 7.166667e+00	 1.009596e+01
2	 5.666667e+00	 7.250000e+00	 1.009114e+01
2	 5.666667e+00	 7.333333e+00	 1.008643e+01
2	 5.666667e+00	 7.416667e+00	 1.008181e+01
2	 5.666667e+00	 7.500000e+00	 1.007730e+01
2	 5.750000e+00	 7.083333e+00	 1.009992e+01
2	 5.750000e+00	 7.166667e+00	 1.009507e+01
2	 5.750000e+00	 7.250000e+00	 1.009032e+01
2	 5.750000e+00	 7.333333e+00	 1.008567e+01
2	 5.750000e+00	 7.416667e+00	 1.008112e+01
2	 5.750000e+00	 7.500000e+00	 1.007666e+01
2	 5.833333e+00	 7.083333e+00	 1.009880e+01
2	 5.833333e+00	 7.166667e+00	 1.009403e+01
2	 5.833333e+00	 7.250000e+00	 1.008936e+01
2	 5.833333e+00	 7.333333e+00	 1.008479e+01
2	 5.833333e+00	 7.416667e+00	 1.008030e+01
2	 5.833333e+00	 7.500000e+00	 1.007591e+01
2	 5.416667e+00	 7.500000e+00	 1.007838e+01
2	 5.416667e+00	 7.583333e+00	 1.007386e+01
2	 5.416667e+00	 7.666667e+00	 1.006945e+01
2	 5.416667e+00	 7.750000e+00	 1.006516e+01
2	 5.416667e+00	 7.833333e+00	 1.006099e+01
2	 5.416667e+00	 7.916667e+00	 1.005693e+01
2	 5.500000e+00	 7.500000e+00	 1.007817e+01
2	 5.500000e+00	 7.583333e+00	 1.007367e+01
2	 5.500000e+00	 7.666667e+00	 1.006929e+01
2	 5.500000e+00	 7.750000e+00	 1.006503e+01
2	 5.500000e+00	 7.833333e+00	 1.006088e+01
2	 5.500000e+00	 7.916667e+00	 1.005684e+01
2	 5.583333e+00	 7.500000e+00	 1.007780e+01
2	 5.583333e+00	 7.583333e+00	 1.007334e+01
2	 5.583333e+00	 7.666667e+00	 1.006900e+01
2	 5.583333e+00	 7.750000e+00	 1.006477e+01
2	 5.583333e+00	 7.833333e+00	 1.006065e+01
2	 5.583333e+00	 7.916667e+00	 1.005663e+01
2	 5.666667e+00	 7.500000e+00	 1.007730e+01
2	 5.666667e+00	 7.583333e+00	 1.007288e+01
2	 5.666667e+00	 7.666667e+00	 1.006858e+01
2	 5.666667e+00	 7.750000e+00	 1.006439e+01
2	 5.666667e+00	 7.833333e+00	 1.006031e+01
2	 5.666667e+00	 7.916667e+00	 1.005632e+01
2	 5.750000e+00	 7.500000e+00	 1.007666e+01
2	 5.750000e+00	 7.583333e+00	 1.007230e+01
2	 5.750000e+00	 7.666667e+00	 1.006805e+01
2	 5.750000e+00	 7.750000e+00	 1.006391e+01
2	 5.750000e+00	 7.833333e+00	 1.005986e+01
2	 5.750000e+00	 7.916667e+00	 1.005591e+01
2	 5.833333e+00	 7.500000e+00	 1.007591e+01
2	 5.833333e+00	 7.583333e+00	 1.007161e+01
2	 5.833333e+00	 7.666667e+00	 1.006741e+01
2	 5.833333e+00	 7.750000e+00	 1.006332e+01
2	 5.833333e+00	 7.833333e+00	 1.005932e+01
2	 5.833333e+00	 7.916667e+00	 1.005542e+01
2	 5.416667e+00	 7.916667e+00	 1.005693e+01
2	 5.416667e+00	 8.000000e+00	 1.005299e+01
2	 5.416667e+00	 8.083333e+00	 1.004917e+01
2	 5.416667e+00	 8.166667e+00	 1.004547e+01
2	 5.416667e+00	 8.250000e+00	 1.004189e+01
2	 5.416667e+00	 8.333333e+00	 1.003842e+01
2	 5.500000e+00	 7.916667e+00	 1.005684e+01
2	 5.500000e+00	 8.000000e+00	 1.005291e+01
2	 5.500000e+00	 8.083333e+00	 1.004910e+01
2	 5.500000e+00	 8.166667e+00	 1.004542e+01
2	 5.500000e+00	 8.250000e+00	 1.004185e+01
2	 5.500000e+00	 8.333333e+00	 1.003839e+01
2	 5.583333e+00	 7.916667e+00	 1.005663e+01
2	 5.583333e+00	 8.000000e+00	 1.005273e+01
2	 5.583333e+00	 8.083333e+00	 1.004894e+01
2	 5.583333e+00	 8.166667e+00	 1.004527e+01
2	 5.583333e+00	 8.250000e+00	 1.004172e+01
2	 5.583333e+00	 8.333333e+00	 1.003827e+01
2	 5.666667e+00	 7.916667e+00	 1.005632e+01
2	 5.666667e+00	 8.000000e+00	 1.005244e+01
2	 5.666667e+00	 8.083333e+00	 1.004869e+01
2	 5.666667e+00	 8.166667e+00	 1.004505e+01
2	 5.666667e+00	 8.250000e+00	 1.004151e+01
2	 5.666667e+00	 8.333333e+00	 1.003809e+01
2	 5.750000e+00	 7.916667e+00	 1.005591e+01
2	 5.750000e+00	 8.000000e+00	 1.005207e+01
2	 5.750000e+00	 8.083333e+00	 1.004835e+01
2	 5.750000e+00	 8.166667e+00	 1.004474e+01
2	 5.750000e+00	 8.250000e+00	 1.004124e+01
2	 5.750000e+00	 8.333333e+00	 1.003783e+01
2	 5.833333e+00	 7.916667e+00	 1.005542e+01
2	 5.833333e+00	 8.000000e+00	 1.005162e+01
2	 5.833333e+00	 8.083333e+00	 1.004794e+01
2	 5.833333e+00	 8.166667e+00	 1.004436e+01
2	 5.833333e+00	 8.250000e+00	 1.004089e+01
2	 5.833333e+00	 8.333333e+00	 1.003752e+01
2	 5.416667e+00	 8.333333e+00	 1.003842e+01
2	 5.416667e+00	 8.416667e+00	 1.003508e+01
2	 5.416667e+00	 8.500000e+00	 1.003187e+01
2	 5.416667e+00	 8.583333e+00	 1.002879e+01
2	 5.416667e+00	 8.666667e+00	 1.002583e+01
2	 5.416667e+00	 8.750000e+00	 1.002299e+01
2	 5.500000e+00	 8.333333e+00	 1.003839e+01
2	 5.500000e+00	 8.416667e+00	 1.003505e+01
2	 5.500000e+00	 8.500000e+00	 1.003184e+01
2	 5.500000e+00	 8.583333e+00	 1.002877e+01
2	 5.500000e+00	 8.666667e+00	 1.002581e+01
2	 5.500000e+00	 8.750000e+00	 1.002298e+01
2	 5.583333e+00	 8.333333e+00	 1.003827e+01
2	 5.583333e+00	 8.416667e+00	 1.003494e+01
2	 5.583333e+00	 8.500000e+00	 1.003175e+01
2	 5.583333e+00	 8.583333e+00	 1.002868e+01
2	 5.583333e+00	 8.666667e+00	 1.002574e+01
2	 5.583333e+00	 8.750000e+00	 1.002291e+01
2	 5.666667e+00	 8.333333e+00	 1.003809e+01
2	 5.666667e+00	 8.416667e+00	 1.003478e+01
2	 5.666667e+00	 8.500000e+00	 1.003160e+01
2	 5.666667e+00	 8.583333e+00	 1.002855e+01
2	 5.666667e+00	 8.666667e+00	 1.002562e+01
2	 5.666667e+00	 8.750000e+00	 1.002280e+01
2	 5.750000e+00	 8.333333e+00	 1.003783e+01
2	 5.750000e+00	 8.416667e+00	 1.003455e+01
2	 5.750000e+00	 8.500000e+00	 1.003139e+01
2	 5.750000e+00	 8.583333e+00	 1.002837e+01
2	 5.750000e+00	 8.666667e+00	 1.002546e+01
2	 5.750000e+00	 8.750000e+00	 1.002266e+01
2	 5.833333e+00	 8.333333e+00	 1.003752e+01
2	 5.833333e+00	 8.416667e+00	 1.003426e+01
2	 5.833333e+00	 8.500000e+00	 1.003114e+01
2	 5.833333e+00	 8.583333e+00	 1.002813e+01
2	 5.833333e+00	 8.666667e+00	 1.002525e+01
2	 5.833333e+00	 8.750000e+00	 1.002247e+01
2	 5.416667e+00	 8.750000e+00	 1.002299e+01
2	 5.416667e+00	 8.833333e+00	 1.002029e+01
2	 5.416667e+00	 8.916667e+00	 1.001775e+01
2	 5.416667e+00	 9.000000e+00	 1.001535e+01
2	 5.416667e+00	 9.083333e+00	 1.001309e+01
2	 5.416667e+00	 9.166667e+00	 1.001097e+01
2	 5.500000e+00	 8.750000e+00	 1.002298e+01
2	 5.500000e+00	 8.833333e+00	 1.002028e+01
2	 5.500000e+00	 8.916667e+00	 1.001773e+01
2	 5.500000e+00	 9.000000e+00	 1.001534e+01
2	 5.500000e+00	 9.083333e+00	 1.001308e+01
2	 5.500000e+00	 9.166667e+00	 1.001096e+01
2	 5.583333e+00	 8.750000e+00	 1.002291e+01
2	 5.583333e+00	 8.833333e+00	 1.002022e+01
2	 5.583333e+00	 8.916667e+00	 1.001768e+01
2	 5.583333e+00	 9.000000e+00	 1.001529e+01
2	 5.583333e+00	 9.083333e+00	 1.001304e+01
2	 5.583333e+00	 9.166667e+00	 1.001092e+01
2	 5.666667e+00	 8.750000e+00	 1.002280e+01
2	 5.666667e+00	 8.833333e+00	 1.002012e+01
2	 5.666667e+00	 8.916667e+00	 1.001760e+01
2	 5.666667e+00	 9.000000e+00	 1.001522e+01
2	 5.666667e+00	 9.083333e+00	 1.001298e+01
2	 5.666667e+00	 9.166667e+00	 1.001087e+01
2	 5.750000e+00	 8.750000e+00	 1.002266e+01
2	 5.750000e+00	 8.833333e+00	 1.001999e+01
2	 5.750000e+00	 8.916667e+00	 1.001748e+01
2	 5.750000e+00	 9.000000e+00	 1.001512e+01
2	 5.750000e+00	 9.083333e+00	 1.001289e+01
2	 5.750000e+00	 9.166667e+00	 1.001080e+01
2	 5.833333e+00	 8.750000e+00	 1.002247e+01
2	 5.833333e+00	 8.833333e+00	 1.001983e+01
2	 5.833333e+00	 8.916667e+00	 1.001734e+01
2	 5.833333e+00	 9.000000e+00	 1.001500e+01
2	 5.833333e+00	 9.083333e+00	 1.001279e+01
2	 5.833333e+00	 9.166667e+00	 1.001071e+01
2	 5.416667e+00	 9.166667e+00	 1.001097e+01
2	 5.416667e+00	 9.250000e+00	 1.000900e+01
2	 5.416667e+00	 9.333333e+00	 1.000723e+01
2	 5.416667e+00	 9.416667e+00	 1.000565e+01
2	 5.416667e+00	 9.500000e+00	 1.000423e+01
2	 5.416667e+00	 9.583333e+00	 1.000297e+01
2	 5.500000e+00	 9.166667e+00	 1.001096e+01
2	 5.500000e+00	 9.250000e+00	 1.000899e+01
2	 5.500000e+00	 9.333333e+00	 1.000722e+01
2	 5.500000e+00	 9.416667e+00	 1.000564e+01
2	 5.500000e+00	 9.500000e+00	 1.000422e+01
2	 5.500000e+00	 9.583333e+00	 1.000297e+01
2	 5.583333e+00	 9.166667e+00	 1.001092e+01
2	 5.583333e+00	 9.250000e+00	 1.000896e+01
2	 5.583333e+00	 9.333333e+00	 1.000720e+01
2	 5.583333e+00	 9.416667e+00	 1.000562e+01
2	 5.583333e+00	 9.500000e+00	 1.000421e+01
2	 5.583333e+00	 9.583333e+00	 1.000295e+01
2	 5.666667e+00	 9.166667e+00	 1.001087e+01
2	 5.666667e+00	 9.250000e+00	 1.000892e+01
2	 5.666667e+00	 9.333333e+00	 1.000716e+01
2	 5.666667e+00	 9.416667e+00	 1.000559e+01
2	 5.666667e+00	 9.500000e+00	 1.000418e+01
2	 5.666667e+00	 9.583333e+00	 1.000294e+01
2	 5.750000e+00	 9.166667e+00	 1.001080e+01
2	 5.750000e+00	 9.250000e+00	 1.000886e+01
2	 5.750000e+00	 9.333333e+00	 1.000711e+01
2	 5.750000e+00	 9.416667e+00	 1.000555e+01
2	 5.750000e+00	 9.500000e+00	 1.000415e+01
2	 5.750000e+00	 9.583333e+00	 1.000292e+01
2	 5.833333e+00	 9.166667e+00	 1.001071e+01
2	 5.833333e+00	 9.250000e+00	 1.000878e+01
2	 5.833333e+00	 9.333333e+00	 1.000705e+01
2	 5.833333e+00	 9.416667e+00	 1.000550e+01
2	 5.833333e+00	 9.500000e+00	 1.000412e+01
2	 5.833333e+00	 9.583333e+00	 1.000289e+01
2	 5.416667e+00	 9.583333e+00	 1.000297e+01
2	 5.416667e+00	 9.666667e+00	 1.000191e+01
2	 5.416667e+00	 9.750000e+00	 1.000110e+01
2	 5.416667e+00	 9.833333e+00	 1.000051e+01
2	 5.416667e+00	 9.916667e+00	 1.000014e+01
2	 5.416667e+00	 1.000000e+01	 9.999963e+00
2	 5.500000e+00	 9.583333e+00	 1.000297e+01
2	 5.500000e+00	 9.666667e+00	 1.000191e+01
2	 5.500000e+00	 9.750000e+00	 1.000110e+01
2	 5.500000e+00	 9.833333e+00	 1.000051e+01
2	 5.500000e+00	 9.916667e+00	 1.000014e+01
2	 5.500000e+00	 1.000000e+01	 9.999963e+00
2	 5.583333e+00	 9.583333e+00	 1.000295e+01
2	 5.583333e+00	 9.666667e+00	 1.000190e+01
2	 5.583333e+00	 9.750000e+00	 1.000109e+01
2	 5.583333e+00	 9.833333e+00	 1.000051e+01
2	 5.583333e+00	 9.916667e+00	 1.000014e+01
2	 5.583333e+00	 1.000000e+01	 9.999963e+00
2	 5.666667e+00	 9.583333e+00	 1.000294e+01
2	 5.666667e+00	 9.666667e+00	 1.000189e+01
2	 5.666667e+00	 9.750000e+00	 1.000109e+01
2	 5.666667e+00	 9.833333e+00	 1.000051e+01
2	 5.666667e+00	 9.916667e+00	 1.000014e+01
2	 5.666667e+00	 1.000000e+01	 9.999963e+00
2	 5.750000e+00	 9.583333e+00	 1.000292e+01
2	 5.750000e+00	 9.666667e+00	 1.000188e+01
2	 5.750000e+00	 9.750000e+00	 1.000108e+01
2	 5.750000e+00	 9.833333e+00	 1.000050e+01
2	 5.750000e+00	 9.916667e+00	 1.000014e+01
2	 5.750000e+00	 1.000000e+01	 9.999964e+00
2	 5.833333e+00	 9.583333e+00	 1.000289e+01
2	 5.833333e+00	 9.666667e+00	 1.000186e+01
2	 5.833333e+00	 9.750000e+00	 1.000107e+01
2	 5.833333e+00	 9.833333e+00	 1.000050e+01
2	 5.833333e+00	 9.916667e+00	 1.000014e+01
2	 5.833333e+00	 1.000000e+01	 9.999967e+00
2	 5.833333e+00	 5.000000e+00	 1.023918e+01
2	 5.833333e+00	 5.083333e+00	 1.023326e+01
2	 5.833333e+00	 5.166667e+00	 1.022735e+01
2	 5.833333e+00	 5.250000e+00	 1.022141e+01
2	 5.833333e+00	 5.333333e+00	 1.021546e+01
2	 5.833333e+00	 5.416667e+00	 1.020947e+01
2	 5.916667e+00	 5.000000e+00	 1.023338e+01
2	 5.916667e+00	 5.083333e+00	 1.022775e+01
2	 5.916667e+00	 5.166667e+00	 1.022210e+01
2	 5.916667e+00	 5.250000e+00	 1.021643e+01
2	 5.916667e+00	 5.333333e+00	 1.021073e+01
2	 5.916667e+00	 5.416667e+00	 1.020498e+01
2	 6.000000e+00	 5.000000e+00	 1.022741e+01
2	 6.000000e+00	 5.083333e+00	 1.022204e+01
2	 6.000000e+00	 5.166667e+00	 1.021666e+01
2	 6.000000e+00	 5.250000e+00	 1.021125e+01
2	 6.000000e+00	 5.333333e+00	 1.020580e+01
2	 6.000000e+00	 5.416667e+00	 1.020030e+01
2	 6.083333e+00	 5.000000e+00	 1.022128e+01
2	 6.083333e+00	 5.083333e+00	 1.021618e+01
2	 6.083333e+00	 5.166667e+00	 1.021106e+01
2	 6.083333e+00	 5.250000e+00	 1.020591e+01
2	 6.083333e+00	 5.333333e+00	 1.020070e+01
2	 6.083333e+00	 5.416667e+00	 1.019544e+01
2	 6.166667e+00	 5.000000e+00	 1.021502e+01
2	 6.166667e+00	 5.083333e+00	 1.021019e+01
2	 6.166667e+00	 5.166667e+00	 1.020532e+01
2	 6.166667e+00	 5.250000e+00	 1.020042e+01
2	 6.166667e+00	 5.333333e+00	 1.019546e+01
2	 6.166667e+00	 5.416667e+00	 1.019043e+01
2	 6.250000e+00	 5.000000e+00	 1.020866e+01
2	 6.250000e+00	 5.083333e+00	 1.020408e+01
2	 6.250000e+00	 5.166667e+00	 1.019947e+01
2	 6.250000e+00	 5.250000e+00	 1.019480e+01
2	 6.250000e+00	 5.333333e+00	 1.019008e+01
2	 6.250000e+00	 5.416667e+00	 1.018530e+01
2	 5.833333e+00	 5.416667e+00	 1.020947e+01
2	 5.833333e+00	 5.500000e+00	 1.020348e+01
2	 5.833333e+00	 5.583333e+00	 1.019752e+01
2	 5.833333e+00	 5.666667e+00	 1.019160e+01
2	 5.833333e+00	 5.750000e+00	 1.018569e+01
2	 5.833333e+00	 5.833333e+00	 1.017979e+01
2	 5.916667e+00	 5.416667e+00	 1.020498e+01
2	 5.916667e+00	 5.500000e+00	 1.019923e+01
2	 5.916667e+00	 5.583333e+00	 1.019351e+01
2	 5.916667e+00	 5.666667e+00	 1.018780e+01
2	 5.916667e+00	 5.750000e+00	 1.018210e+01
2	 5.916667e+00	 5.833333e+00	 1.017641e+01
2	 6.000000e+00	 5.416667e+00	 1.020030e+01
2	 6.000000e+00	 5.500000e+00	 1.019478e+01
2	 6.000000e+00	 5.583333e+00	 1.018929e+01
2	 6.000000e+00	 5.666667e+00	 1.018380e+01
2	 6.000000e+00	 5.750000e+00	 1.017831e+01
2	 6.000000e+00	 5.833333e+00	 1.017282e+01
2	 6.083333e+00	 5.416667e+00	 1.019544e+01
2	 6.083333e+00	 5.500000e+00	 1.019016e+01
2	 6.083333e+00	 5.583333e+00	 1.018489e+01
2	 6.083333e+00	 5.666667e+00	 1.017962e+01
2	 6.083333e+00	 5.750000e+00	 1.017435e+01
2	 6.083333e+00	 5.833333e+00	 1.016906e+01
2	 6.166667e+00	 5.416667e+00	 1.019043e+01
2	 6.166667e+00	 5.500000e+00	 1.018538e+01
2	 6.166667e+00	 5.583333e+00	 1.018033e+01
2	 6.166667e+00	 5.666667e+00	 1.017528e+01
2	 6.166667e+00	 5.750000e+00	 1.017022e+01
2	 6.166667e+00	 5.833333e+00	 1.016513e+01
2	 6.250000e+00	 5.416667e+00	 1.018530e+01
2	 6.250000e+00	 5.500000e+00	 1.018047e+01
2	 6.250000e+00	 5.583333e+00	 1.017565e+01
2	 6.250000e+00	 5.666667e+00	 1.017081e+01
2	 6.250000e+00	 5.750000e+00	 1.016596e+01
2	 6.250000e+00	 5.833333e+00	 1.016107e+01
2	 5.833333e+00	 5.833333e+00	 1.017979e+01
2	 5.833333e+00	 5.916667e+00	 1.017393e+01
2	 5.833333e+00	 6.000000e+00	 1.016813e+01
2	 5.833333e+00	 6.083333e+00	 1.016239e+01
2	 5.833333e+00	 6.166667e+00	 1.015670e+01
2	 5.833333e+00	 6.250000e+00	 1.015106e+01
2	 5.916667e+00	 5.833333e+00	 1.017641e+01
2	 5.916667e+00	 5.916667e+00	 1.017074e+01
2	 5.916667e+00	 6.000000e+00	 1.016513e+01
2	 5.916667e+00	 6.083333e+00	 1.015957e+01
2	 5.916667e+00	 6.166667e+00	 1.015405e+01
2	 5.916667e+00	 6.250000e+00	 1.014857e+01
2	 6.000000e+00	 5.833333e+00	 1.017282e+01
2	 6.000000e+00	 5.916667e+00	 1.016735e+01
2	 6.000000e+00	 6.000000e+00	 1.016193e+01
2	 6.000000e+00	 6.083333e+00	 1.015655e+01
2	 6.000000e+00	 6.166667e+00	 1.015120e+01
2	 6.000000e+00	 6.250000e+00	 1.014588e+01
2	 6.083333e+00	 5.833333e+00	 1.016906e+01
2	 6.083333e+00	 5.916667e+00	 1.016378e+01
2	 6.083333e+00	 6.000000e+00	 1.015855e+01
2	 6.083333e+00	 6.083333e+00	 1.015335e+01
2	 6.083333e+00	 6.166667e+00	 1.014818e+01
2	 6.083333e+00	 6.250000e+00	 1.014303e+01
2	 6.166667e+00	 5.833333e+00	 1.016513e+01
2	 6.166667e+00	 5.916667e+00	 1.016005e+01
2	 6.166667e+00	 6.000000e+00	 1.015501e+01
2	 6.166667e+00	 6.083333e+00	 1.015000e+01
2	 6.166667e+00	 6.166667e+00	 1.014500e+01
2	 6.166667e+00	 6.250000e+00	 1.014002e+01
2	 6.250000e+00	 5.833333e+00	 1.016107e+01
2	 6.250000e+00	 5.916667e+00	 1.015619e+01
2	 6.250000e+00	 6.000000e+00	 1.015134e+01
2	 6.250000e+00	 6.083333e+00	 1.014651e+01
2	 6.250000e+00	 6.166667e+00	 1.014169e+01
2	 6.250000e+00	 6.250000e+00	 1.013688e+01
2	 5.833333e+00	 6.250000e+00	 1.015106e+01
2	 5.833333e+00	 6.333333e+00	 1.014548e+01
2	 5.833333e+00	 6.416667e+00	 1.013998e+01
2	 5.833333e+00	 6.500000e+00	 1.013456e+01
2	 5.833333e+00	 6.583333e+00	 1.012922e+01
2	 5.833333e+00	 6.666667e+00	 1.012393e+01
2	 5.916667e+00	 6.250000e+00	 1.014857e+01
2	 5.916667e+00	 6.333333e+00	 1.014314e+01
2	 5.916667e+00	 6.416667e+00	 1.013779e+01
2	 5.916667e+00	 6.500000e+00	 1.013251e+01
2	 5.916667e+00	 6.583333e+00	 1.012730e+01
2	 5.916667e+00	 6.666667e+00	 1.012214e+01
2	 6.000000e+00	 6.250000e+00	 1.014588e+01
2	 6.000000e+00	 6.333333e+00	 1.014062e+01
2	 6.000000e+00	 6.416667e+00	 1.013542e+01
2	 6.000000e+00	 6.500000e+00	 1.013028e+01
2	 6.000000e+00	 6.583333e+00	 1.012520e+01
2	 6.000000e+00	 6.666667e+00	 1.012017e+01
2	 6.083333e+00	 6.250000e+00	 1.014303e+01
2	 6.083333e+00	 6.333333e+00	 1.013792e+01
2	 6.083333e+00	 6.416667e+00	 1.013287e+01
2	 6.083333e+00	 6.500000e+00	 1.012788e+01
2	 6.083333e+00	 6.583333e+00	 1.012294e+01
2	 6.083333e+00	 6.666667e+00	 1.011805e+01
2	 6.166667e+00	 6.250000e+00	 1.014002e+01
2	 6.166667e+00	 6.333333e+00	 1.013507e+01
2	 6.166667e+00	 6.416667e+00	 1.013018e+01
2	 6.166667e+00	 6.500000e+00	 1.012534e+01
2	 6.166667e+00	 6.583333e+00	 1.012055e+01
2	 6.166667e+00	 6.666667e+00	 1.011579e+01
2	 6.250000e+00	 6.250000e+00	 1.013688e+01
2	 6.250000e+00	 6.333333e+00	 1.013210e+01
2	 6.250000e+00	 6.416667e+00	 1.012736e+01
2	 6.250000e+00	 6.500000e+00	 1.012268e+01
2	 6.250000e+00	 6.583333e+00	 1.011802e+01
2	 6.250000e+00	 6.666667e+00	 1.011341e+01
2	 5.833333e+00	 6.666667e+00	 1.012393e+01
2	 5.833333e+00	 6.750000e+00	 1.011873e+01
2	 5.833333e+00	 6.833333e+00	 1.011362e+01
2	 5.833333e+00	 6.916667e+00	 1.010860e+01
2	 5.833333e+00	 7.000000e+00	 1.010366e+01
2	 5.833333e+00	 7.083333e+00	 1.009880e+01
2	 5.916667e+00	 6.666667e+00	 1.012214e+01
2	 5.916667e+00	 6.750000e+00	 1.011705e+01
2	 5.916667e+00	 6.833333e+00	 1.011205e+01
2	 5.916667e+00	 6.916667e+00	 1.010714e+01
2	 5.916667e+00	 7.000000e+00	 1.010230e+01
2	 5.916667e+00	 7.083333e+00	 1.009754e+01
2	 6.000000e+00	 6.666667e+00	 1.012017e+01
2	 6.000000e+00	 6.750000e+00	 1.011521e+01
2	 6.000000e+00	 6.833333e+00	 1.011033e+01
2	 6.000000e+00	 6.916667e+00	 1.010552e+01
2	 6.000000e+00	 7.000000e+00	 1.010079e+01
2	 6.000000e+00	 7.083333e+00	 1.009612e+01
2	 6.083333e+00	 6.666667e+00	 1.011805e+01
2	 6.083333e+00	 6.750000e+00	 1.011321e+01
2	 6.083333e+00	 6.833333e+00	 1.010845e+01
2	 6.083333e+00	 6.916667e+00	 1.010377e+01
2	 6.083333e+00	 7.000000e+00	 1.009914e+01
2	 6.083333e+00	 7.083333e+00	 1.009458e+01
2	 6.166667e+00	 6.666667e+00	 1.011579e+01
2	 6.166667e+00	 6.750000e+00	 1.011108e+01
2	 6.166667e+00	 6.833333e+00	 1.010645e+01
2	 6.166667e+00	 6.916667e+00	 1.010188e+01
2	 6.166667e+00	 7.000000e+00	 1.009737e+01
2	 6.166667e+00	 7.083333e+00	 1.009292e+01
2	 6.250000e+00	 6.666667e+00	 1.011341e+01
2	 6.250000e+00	 6.750000e+00	 1.010883e+01
2	 6.250000e+00	 6.833333e+00	 1.010433e+01
2	 6.250000e+00	 6.916667e+00	 1.009988e+01
2	 6.250000e+00	 7.000000e+00	 1.009549e+01
2	 6.250000e+00	 7.083333e+00	 1.009115e+01
2	 5.833333e+00	 7.083333e+00	 1.009880e+01
2	 5.833333e+00	 7.166667e+00	 1.009403e+01
2	 5.833333e+00	 7.250000e+00	 1.008936e+01
2	 5.833333e+00	 7.333333e+00	 1.008479e+01
2	 5.833333e+00	 7.416667e+00	 1.008030e+01
2	 5.833333e+00	 7.500000e+00	 1.007591e+01
2	 5.916667e+00	 7.083333e+00	 1.009754e+01
2	 5.916667e+00	 7.166667e+00	 1.009285e+01
2	 5.916667e+00	 7.250000e+00	 1.008827e+01
2	 5.916667e+00	 7.333333e+00	 1.008377e+01
2	 5.916667e+00	 7.416667e+00	 1.007936e+01
2	 5.916667e+00	 7.500000e+00	 1.007503e+01
2	 6.000000e+00	 7.083333e+00	 1.009612e+01
2	 6.000000e+00	 7.166667e+00	 1.009154e+01
2	 6.000000e+00	 7.250000e+00	 1.008704e+01
2	 6.000000e+00	 7.333333e+00	 1.008263e+01
2	 6.000000e+00	 7.416667e+00	 1.007830e+01
2	 6.000000e+00	 7.500000e+00	 1.007404e+01
2	 6.083333e+00	 7.083333e+00	 1.009458e+01
2	 6.083333e+00	 7.166667e+00	 1.009009e+01
2	 6.083333e+00	 7.250000e+00	 1.008569e+01
2	 6.083333e+00	 7.333333e+00	 1.008137e+01
2	 6.083333e+00	 7.416667e+00	 1.007712e+01
2	 6.083333e+00	 7.500000e+00	 1.007295e+01
2	 6.166667e+00	 7.083333e+00	 1.009292e+01
2	 6.166667e+00	 7.166667e+00	 1.008853e+01
2	 6.166667e+00	 7.250000e+00	 1.008423e+01
2	 6.166667e+00	 7.333333e+00	 1.008000e+01
2	 6.166667e+00	 7.416667e+00	 1.007585e+01
2	 6.166667e+00	 7.500000e+00	 1.007176e+01
2	 6.250000e+00	 7.083333e+00	 1.009115e+01
2	 6.250000e+00	 7.166667e+00	 1.008687e+01
2	 6.250000e+00	 7.250000e+00	 1.008267e+01
2	 6.250000e+00	 7.333333e+00	 1.007854e+01
2	 6.250000e+00	 7.416667e+00	 1.007448e+01
2	 6.250000e+00	 7.500000e+00	 1.007048e+01
2	 5.833333e+00	 7.500000e+00	 1.007591e+01
2	 5.833333e+00	 7.583333e+00	 1.007161e+01
2	 5.833333e+00	 7.666667e+00	 1.006741e+01
2	 5.833333e+00	 7.750000e+00	 1.006332e+01
2	 5.833333e+00	 7.833333e+00	 1.005932e+01
2	 5.833333e+00	 7.916667e+00	 1.005542e+01
2	 5.916667e+00	 7.500000e+00	 1.007503e+01
2	 5.916667e+00	 7.583333e+00	 1.007080e+01
2	 5.916667e+00	 7.666667e+00	 1.006666e+01
2	 5.916667e+00	 7.750000e+00	 1.006263e+01
2	 5.916667e+00	 7.833333e+00	 1.005869e+01
2	 5.916667e+00	 7.916667e+00	 1.005483e+01
2	 6.000000e+00	 7.500000e+00	 1.007404e+01
2	 6.000000e+00	 7.583333e+00	 1.006988e+01
2	 6.000000e+00	 7.666667e+00	 1.006581e+01
2	 6.000000e+00	 7.750000e+00	 1.006184e+01
2	 6.000000e+00	 7.833333e+00	 1.005796e+01
2	 6.000000e+00	 7.916667e+00	 1.005416e+01
2	 6.083333e+00	 7.500000e+00	 1.007295e+01
2	 6.083333e+00	 7.583333e+00	 1.006886e+01
2	 6.083333e+00	 7.666667e+00	 1.006487e+01
2	 6.083333e+00	 7.750000e+00	 1.006096e+01
2	 6.083333e+00	 7.833333e+00	 1.005715e+01
2	 6.083333e+00	 7.916667e+00	 1.005341e+01
2	 6.166667e+00	 7.500000e+00	 1.007176e+01
2	 6.166667e+00	 7.583333e+00	 1.006775e+01
2	 6.166667e+00	 7.666667e+00	 1.006383e+01
2	 6.166667e+00	 7.750000e+00	 1.006000e+01
2	 6.166667e+00	 7.833333e+00	 1.005625e+01
2	 6.166667e+00	 7.916667e+00	 1.005258e+01
2	 6.250000e+00	 7.500000e+00	 1.007048e+01
2	 6.250000e+00	 7.583333e+00	 1.006655e+01
2	 6.250000e+00	 7.666667e+00	 1.006272e+01
2	 6.250000e+00	 7.750000e+00	 1.005897e+01
2	 6.250000e+00	 7.833333e+00	 1.005529e+01
2	 6.250000e+00	 7.916667e+00	 1.005169e+01
2	 5.833333e+00	 7.916667e+00	 1.005542e+01
2	 5.833333e+00	 8.000000e+00	 1.005162e+01
2	 5.833333e+00	 8.083333e+00	 1.004794e+01
2	 5.833333e+00	 8.166667e+00	 1.004436e+01
2	 5.833333e+00	 8.250000e+00	 1.004089e+01
2	 5.833333e+00	 8.333333e+00	 1.003752e+01
2	 5.916667e+00	 7.916667e+00	 1.005483e+01
2	 5.916667e+00	 8.000000e+00	 1.005108e+01
2	 5.916667e+00	 8.083333e+00	 1.004744e+01
2	 5.916667e+00	 8.166667e+00	 1.004391e+01
2	 5.916667e+00	 8.250000e+00	 1.004048e+01
2	 5.916667e+00	 8.333333e+00	 1.003714e+01
2	 6.000000e+00	 7.916667e+00	 1.005416e+01
2	 6.000000e+00	 8.000000e+00	 1.005046e+01
2	 6.000000e+00	 8.083333e+00	 1.004687e+01
2	 6.000000e+00	 8.166667e+00	 1.004339e+01
2	 6.000000e+00	 8.250000e+00	 1.004000e+01
2	 6.000000e+00	 8.333333e+00	 1.003671e+01
2	 6.083333e+00	 7.916667e+00	 1.005341e+01
2	 6.083333e+00	 8.000000e+00	 1.004977e+01
2	 6.083333e+00	 8.083333e+00	 1.004623e+01
2	 6.083333e+00	 8.166667e+00	 1.004280e+01
2	 6.083333e+00	 8.250000e+00	 1.003946e+01
2	 6.083333e+00	 8.333333e+00	 1.003622e+01
2	 6.166667e+00	 7.916667e+00	 1.005258e+01
2	 6.166667e+00	 8.000000e+00	 1.004900e+01
2	 6.166667e+00	 8.083333e+00	 1.004553e+01
2	 6.166667e+00	 8.166667e+00	 1.004215e+01
2	 6.166667e+00	 8.250000e+00	 1.003887e+01
2	 6.166667e+00	 8.333333e+00	 1.003568e+01
2	 6.250000e+00	 7.916667e+00	 1.005169e+01
2	 6.250000e+00	 8.000000e+00	 1.004818e+01
2	 6.250000e+00	 8.083333e+00	 1.004477e+01
2	 6.250000e+00	 8.166667e+00	 1.004145e+01
2	 6.250000e+00	 8.250000e+00	 1.003823e+01
2	 6.250000e+00	 8.333333e+00	 1.003509e+01
2	 5.833333e+00	 8.333333e+00	 1.003752e+01
2	 5.833333e+00	 8.416667e+00	 1.003426e+01
2	 5.833333e+00	 8.500000e+00	 1.003114e+01
2	 5.833333e+00	 8.583333e+00	 1.002813e+01
2	 5.833333e+00	 8.666667e+00	 1.002525e+01
2	 5.833333e+00	 8.750000e+00	 1.002247e+01
2	 5.916667e+00	 8.333333e+00	 1.003714e+01
2	 5.916667e+00	 8.416667e+00	 1.003392e+01
2	 5.916667e+00	 8.500000e+00	 1.003083e+01
2	 5.916667e+00	 8.583333e+00	 1.002786e+01
2	 5.916667e+00	 8.666667e+00	 1.002500e+01
2	 5.916667e+00	 8.750000e+00	 1.002225e+01
2	 6.000000e+00	 8.333333e+00	 1.003671e+01
2	 6.000000e+00	 8.416667e+00	 1.003353e+01
2	 6.000000e+00	 8.500000e+00	 1.003047e+01
2	 6.000000e+00	 8.583333e+00	 1.002753e+01
2	 6.000000e+00	 8.666667e+00	 1.002471e+01
2	 6.000000e+00	 8.750000e+00	 1.002199e+01
2	 6.083333e+00	 8.333333e+00	 1.003622e+01
2	 6.083333e+00	 8.416667e+00	 1.003308e+01
2	 6.083333e+00	 8.500000e+00	 1.003007e+01
2	 6.083333e+00	 8.583333e+00	 1.002717e+01
2	 6.083333e+00	 8.666667e+00	 1.002438e+01
2	 6.083333e+00	 8.750000e+00	 1.002170e+01
2	 6.166667e+00	 8.333333e+00	 1.003568e+01
2	 6.166667e+00	 8.416667e+00	 1.003259e+01
2	 6.166667e+00	 8.500000e+00	 1.002962e+01
2	 6.166667e+00	 8.583333e+00	 1.002677e+01
2	 6.166667e+00	 8.666667e+00	 1.002402e+01
2	 6.166667e+00	 8.750000e+00	 1.002138e+01
2	 6.250000e+00	 8.333333e+00	 1.003509e+01
2	 6.250000e+00	 8.416667e+00	 1.003205e+01
2	 6.250000e+00	 8.500000e+00	 1.002914e+01
2	 6.250000e+00	 8.583333e+00	 1.002633e+01
2	 6.250000e+00	 8.666667e+00	 1.002363e+01
2	 6.250000e+00	 8.750000e+00	 1.002103e+01
2	 5.833333e+00	 8.750000e+00	 1.002247e+01
2	 5.833333e+00	 8.833333e+00	 1.001983e+01
2	 5.833333e+00	 8.916667e+00	 1.001734e+01
2	 5.833333e+00	 9.000000e+00	 1.001500e+01
2	 5.833333e+00	 9.083333e+00	 1.001279e+01
2	 5.833333e+00	 9.166667e+00	 1.001071e+01
2	 5.916667e+00	 8.750000e+00	 1.002225e+01
2	 5.916667e+00	 8.833333e+00	 1.001963e+01
2	 5.916667e+00	 8.916667e+00	 1.001717e+01
2	 5.916667e+00	 9.000000e+00	 1.001485e+01
2	 5.916667e+00	 9.083333e+00	 1.001266e+01
2	 5.916667e+00	 9.166667e+00	 1.001060e+01
2	 6.000000e+00	 8.750000e+00	 1.002199e+01
2	 6.000000e+00	 8.833333e+00	 1.001941e+01
2	 6.000000e+00	 8.916667e+00	 1.001697e+01
2	 6.000000e+00	 9.000000e+00	 1.001467e+01
2	 6.000000e+00	 9.083333e+00	 1.001251e+01
2	 6.000000e+00	 9.166667e+00	 1.001047e+01
2	 6.083333e+00	 8.750000e+00	 1.002170e+01
2	 6.083333e+00	 8.833333e+00	 1.001915e+01
2	 6.083333e+00	 8.916667e+00	 1.001674e+01
2	 6.083333e+00	 9.000000e+00	 1.001448e+01
2	 6.083333e+00	 9.083333e+00	 1.001234e+01
2	 6.083333e+00	 9.166667e+00	 1.001033e+01
2	 6.166667e+00	 8.750000e+00	 1.002138e+01
2	 6.166667e+00	 8.833333e+00	 1.001886e+01
2	 6.166667e+00	 8.916667e+00	 1.001649e+01
2	 6.166667e+00	 9.000000e+00	 1.001426e+01
2	 6.166667e+00	 9.083333e+00	 1.001216e+01
2	 6.166667e+00	 9.166667e+00	 1.001017e+01
2	 6.250000e+00	 8.750000e+00	 1.002103e+01
2	 6.250000e+00	 8.833333e+00	 1.001856e+01
2	 6.250000e+00	 8.916667e+00	 1.001622e+01
2	 6.250000e+00	 9.000000e+00	 1.001403e+01
2	 6.250000e+00	 9.083333e+00	 1.001196e+01
2	 6.250000e+00	 9.166667e+00	 1.001001e+01
2	 5.833333e+00	 9.166667e+00	 1.001071e+01
2	 5.833333e+00	 9.250000e+00	 1.000878e+01
2	 5.833333e+00	 9.333333e+00	 1.000705e+01
2	 5.833333e+00	 9.416667e+00	 1.000550e+01
2	 5.833333e+00	 9.500000e+00	 1.000412e+01
2	 5.833333e+00	 9.583333e+00	 1.000289e+01
2	 5.916667e+00	 9.166667e+00	 1.001060e+01
2	 5.916667e+00	 9.250000e+00	 1.000870e+01
2	 5.916667e+00	 9.333333e+00	 1.000698e+01
2	 5.916667e+00	 9.416667e+00	 1.000544e+01
2	 5.916667e+00	 9.500000e+00	 1.000407e+01
2	 5.916667e+00	 9.583333e+00	 1.000286e+01
2	 6.000000e+00	 9.166667e+00	 1.001047e+01
2	 6.000000e+00	 9.250000e+00	 1.000859e+01
2	 6.000000e+00	 9.333333e+00	 1.000690e+01
2	 6.000000e+00	 9.416667e+00	 1.000538e+01
2	 6.000000e+00	 9.500000e+00	 1.000402e+01
2	 6.000000e+00	 9.583333e+00	 1.000282e+01
2	 6.083333e+00	 9.166667e+00	 1.001033e+01
2	 6.083333e+00	 9.250000e+00	 1.000847e+01
2	 6.083333e+00	 9.333333e+00	 1.000680e+01
2	 6.083333e+00	 9.416667e+00	 1.000530e+01
2	 6.083333e+00	 9.500000e+00	 1.000397e+01
2	 6.083333e+00	 9.583333e+00	 1.000278e+01
2	 6.166667e+00	 9.166667e+00	 1.001017e+01
2	 6.166667e+00	 9.250000e+00	 1.000834e+01
2	 6.166667e+00	 9.333333e+00	 1.000670e+01
2	 6.166667e+00	 9.416667e+00	 1.000522e+01
2	 6.166667e+00	 9.500000e+00	 1.000390e+01
2	 6.166667e+00	 9.583333e+00	 1.000274e+01
2	 6.250000e+00	 9.166667e+00	 1.001001e+01
2	 6.250000e+00	 9.250000e+00	 1.000821e+01
2	 6.250000e+00	 9.333333e+00	 1.000658e+01
2	 6.250000e+00	 9.416667e+00	 1.000513e+01
2	 6.250000e+00	 9.500000e+00	 1.000384e+01
2	 6.250000e+00	 9.583333e+00	 1.000269e+01
2	 5.833333e+00	 9.583333e+00	 1.000289e+01
2	 5.833333e+00	 9.666667e+00	 1.000186e+01
2	 5.833333e+00	 9.750000e+00	 1.000107e+01
2	 5.833333e+00	 9.833333e+00	 1.000050e+01
2	 5.833333e+00	 9.916667e+00	 1.000014e+01
2	 5.833333e+00	 1.000000e+01	 9.999967e+00
2	 5.916667e+00	 9.583333e+00	 1.000286e+01
2	 5.916667e+00	 9.666667e+00	 1.000184e+01
2	 5.916667e+00	 9.750000e+00	 1.000106e+01
2	 5.916667e+00	 9.833333e+00	 1.000049e+01
2	 5.916667e+00	 9.916667e+00	 1.000014e+01
2	 5.916667e+00	 1.000000e+01	 9.999969e+00
2	 6.000000e+00	 9.583333e+00	 1.000282e+01
2	 6.000000e+00	 9.666667e+00	 1.000182e+01
2	 6.000000e+00	 9.750000e+00	 1.000104e+01
2	 6.000000e+00	 9.833333e+00	 1.000049e+01
2	 6.000000e+00	 9.916667e+00	 1.000013e+01
2	 6.000000e+00	 1.000000e+01	 9.999968e+00
2	 6.083333e+00	 9.583333e+00	 1.000278e+01
2	 6.083333e+00	 9.666667e+00	 1.000179e+01
2	 6.083333e+00	 9.750000e+00	 1.000103e+01
2	 6.083333e+00	 9.833333e+00	 1.000048e+01
2	 6.083333e+00	 9.916667e+00	 1.000013e+01
2	 6.083333e+00	 1.000000e+01	 9.999967e+00
2	 6.166667e+00	 9.583333e+00	 1.000274e+01
2	 6.166667e+00	 9.666667e+00	 1.000176e+01
2	 6.166667e+00	 9.750000e+00	 1.000101e+01
2	 6.166667e+00	 9.833333e+00	 1.000047e+01
2	 6.166667e+00	 9.916667e+00	 1.000012e+01
2	 6.166667e+00	 1.000000e+01	 9.999968e+00
2	 6.250000e+00	 9.583333e+00	 1.000269e+01
2	 6.250000e+00	 9.666667e+00	 1.000173e+01
2	 6.250000e+00	 9.750000e+00	 1.000099e+01
2	 6.250000e+00	 9.833333e+00	 1.000046e+01
2	 6.250000e+00	 9.916667e+00	 1.000012e+01
2	 6.250000e+00	 1.000000e+01	 9.999971e+00
2	 6.250000e+00	 5.000000e+00	 1.020866e+01
2	 6.250000e+00	 5.083333e+00	 1.020408e+01
2	 6.250000e+00	 5.166667e+00	 1.019947e+01
2	 6.250000e+00	 5.250000e+00	 1.019480e+01
2	 6.250000e+00	 5.333333e+00	 1.019008e+01
2	 6.250000e+00	 5.416667e+00	 1.018530e+01
2	 6.333333e+00	 5.000000e+00	 1.020220e+01
2	 6.333333e+00	 5.083333e+00	 1.019787e+01
2	 6.333333e+00	 5.166667e+00	 1.019350e+01
2	 6.333333e+00	 5.250000e+00	 1.018908e+01
2	 6.333333e+00	 5.333333e+00	 1.018459e+01
2	 6.333333e+00	 5.416667e+00	 1.018004e+01
2	 6.416667e+00	 5.000000e+00	 1.019565e+01
2	 6.416667e+00	 5.083333e+00	 1.019157e+01
2	 6.416667e+00	 5.166667e+00	 1.018744e+01
2	 6.416667e+00	 5.250000e+00	 1.018325e+01
2	 6.416667e+00	 5.333333e+00	 1.017899e+01
2	 6.416667e+00	 5.416667e+00	 1.017466e+01
2	 6.500000e+00	 5.000000e+00	 1.018902e+01
2	 6.500000e+00	 5.083333e+00	 1.018518e+01
2	 6.500000e+00	 5.166667e+00	 1.018128e+01
2	 6.500000e+00	 5.250000e+00	 1.017732e+01
2	 6.500000e+00	 5.333333e+00	 1.017329e+01
2	 6.500000e+00	 5.416667e+00	 1.016919e+01
2	 6.583333e+00	 5.000000e+00	 1.018233e+01
2	 6.583333e+00	 5.083333e+00	 1.017872e+01
2	 6.583333e+00	 5.166667e+00	 1.017506e+01
2	 6.583333e+00	 5.250000e+00	 1.017132e+01
2	 6.583333e+00	 5.333333e+00	 1.016752e+01
2	 6.583333e+00	 5.416667e+00	 1.016363e+01
2	 6.666667e+00	 5.000000e+00	 1.017560e+01
2	 6.666667e+00	 5.083333e+00	 1.017222e+01
2	 6.666667e+00	 5.166667e+00	 1.016878e+01
2	 6.666667e+00	 5.250000e+00	 1.016527e+01
2	 6.666667e+00	 5.333333e+00	 1.016168e+01
2	 6.666667e+00	 5.416667e+00	 1.015801e+01
2	 6.250000e+00	 5.416667e+00	 1.018530e+01
2	 6.250000e+00	 5.500000e+00	 1.018047e+01
2	 6.250000e+00	 5.583333e+00	 1.017565e+01
2	 6.250000e+00	 5.666667e+00	 1.017081e+01
2	 6.250000e+00	 5.750000e+00	 1.016596e+01
2	 6.250000e+00	 5.833333e+00	 1.016107e+01
2	 6.333333e+00	 5.416667e+00	 1.018004e+01
2	 6.333333e+00	 5.500000e+00	 1.017544e+01
2	 6.333333e+00	 5.583333e+00	 1.017083e+01
2	 6.333333e+00	 5.666667e+00	 1.016621e+01
2	 6.333333e+00	 5.750000e+00	 1.016156e+01
2	 6.333333e+00	 5.833333e+00	 1.015688e+01
2	 6.416667e+00	 5.416667e+00	 1.017466e+01
2	 6.416667e+00	 5.500000e+00	 1.017029e+01
2	 6.416667e+00	 5.583333e+00	 1.016590e+01
2	 6.416667e+00	 5.666667e+00	 1.016149e+01
2	 6.416667e+00	 5.750000e+00	 1.015705e+01
2	 6.416667e+00	 5.833333e+00	 1.015257e+01
2	 6.500000e+00	 5.416667e+00	 1.016919e+01
2	 6.500000e+00	 5.500000e+00	 1.016503e+01
2	 6.500000e+00	 5.583333e+00	 1.016086e+01
2	 6.500000e+00	 5.666667e+00	 1.015665e+01
2	 6.500000e+00	 5.750000e+00	 1.015242e+01
2	 6.500000e+00	 5.833333e+00	 1.014814e+01
2	 6.583333e+00	 5.416667e+00	 1.016363e+01
2	 6.583333e+00	 5.500000e+00	 1.015969e+01
2	 6.583333e+00	 5.583333e+00	 1.015573e+01
2	 6.583333e+00	 5.666667e+00	 1.015173e+01
2	 6.583333e+00	 5.750000e+00	 1.014770e+01
2	 6.583333e+00	 5.833333e+00	 1.014362e+01
2	 6.666667e+00	 5.416667e+00	 1.015801e+01
2	 6.666667e+00	 5.500000e+00	 1.015429e+01
2	 6.666667e+00	 5.583333e+00	 1.015053e+01
2	 6.666667e+00	 5.666667e+00	 1.014674e+01
2	 6.666667e+00	 5.750000e+00	 1.014291e+01
2	 6.666667e+00	 5.833333e+00	 1.013902e+01
2	 6.250000e+00	 5.833333e+00	 1.016107e+01
2	 6.250000e+00	 5.916667e+00	 1.015619e+01
2	 6.250000e+00	 6.000000e+00	 1.015134e+01
2	 6.250000e+00	 6.083333e+00	 1.014651e+01
2	 6.250000e+00	 6.166667e+00	 1.014169e+01
2	 6.250000e+00	 6.250000e+00	 1.013688e+01
2	 6.333333e+00	 5.833333e+00	 1.015688e+01
2	 6.333333e+00	 5.916667e+00	 1.015220e+01
2	 6.333333e+00	 6.000000e+00	 1.014753e+01
2	 6.333333e+00	 6.083333e+00	 1.014289e+01
2	 6.333333e+00	 6.166667e+00	 1.013825e+01
2	 6.333333e+00	 6.250000e+00	 1.013361e+01
2	 6.416667e+00	 5.833333e+00	 1.015257e+01
2	 6.416667e+00	 5.916667e+00	 1.014808e+01
2	 6.416667e+00	 6.000000e+00	 1.014360e+01
2	 6.416667e+00	 6.083333e+00	 1.013914e+01
2	 6.416667e+00	 6.166667e+00	 1.013467e+01
2	 6.416667e+00	 6.250000e+00	 1.013021e+01
2	 6.500000e+00	 5.833333e+00	 1.014814e+01
2	 6.500000e+00	 5.916667e+00	 1.014384e+01
2	 6.500000e+00	 6.000000e+00	 1.013956e+01
2	 6.500000e+00	 6.083333e+00	 1.013528e+01
2	 6.500000e+00	 6.166667e+00	 1.013099e+01
2	 6.500000e+00	 6.250000e+00	 1.012670e+01
2	 6.583333e+00	 5.833333e+00	 1.014362e+01
2	 6.583333e+00	 5.916667e+00	 1.013951e+01
2	 6.583333e+00	 6.000000e+00	 1.013542e+01
2	 6.583333e+00	 6.083333e+00	 1.013132e+01
2	 6.583333e+00	 6.166667e+00	 1.012721e+01
2	 6.583333e+00	 6.250000e+00	 1.012309e+01
2	 6.666667e+00	 5.833333e+00	 1.013902e+01
2	 6.666667e+00	 5.916667e+00	 1.013511e+01
2	 6.666667e+00	 6.000000e+00	 1.013120e+01
2	 6.666667e+00	 6.083333e+00	 1.012729e+01
2	 6.666667e+00	 6.166667e+00	 1.012336e+01
2	 6.666667e+00	 6.250000e+00	 1.011941e+01
2	 6.250000e+00	 6.250000e+00	 1.013688e+01
2	 6.250000e+00	 6.333333e+00	 1.013210e+01
2	 6.250000e+00	 6.416667e+00	 1.012736e+01
2	 6.250000e+00	 6.500000e+00	 1.012268e+01
2	 6.250000e+00	 6.583333e+00	 1.011802e+01
2	 6.250000e+00	 6.666667e+00	 1.011341e+01
2	 6.333333e+00	 6.250000e+00	 1.013361e+01
2	 6.333333e+00	 6.333333e+00	 1.012899e+01
2	 6.333333e+00	 6.416667e+00	 1.012442e+01
2	 6.333333e+00	 6.500000e+00	 1.011988e+01
2	 6.333333e+00	 6.583333e+00	 1.011538e+01
2	 6.333333e+00	 6.666667e+00	 1.011090e+01
2	 6.416667e+00	 6.250000e+00	 1.013021e+01
2	 6.416667e+00	 6.333333e+00	 1.012576e+01
2	 6.416667e+00	 6.416667e+00	 1.012135e+01
2	 6.416667e+00	 6.500000e+00	 1.011697e+01
2	 6.416667e+00	 6.583333e+00	 1.011261e+01
2	 6.416667e+00	 6.666667e+00	 1.010828e+01
2	 6.500000e+00	 6.250000e+00	 1.012670e+01
2	 6.500000e+00	 6.333333e+00	 1.012242e+01
2	 6.500000e+00	 6.416667e+00	 1.011817e+01
2	 6.500000e+00	 6.500000e+00	 1.011395e+01
2	 6.500000e+00	 6.583333e+00	 1.010974e+01
2	 6.500000e+00	 6.666667e+00	 1.010556e+01
2	 6.583333e+00	 6.250000e+00	 1.012309e+01
2	 6.583333e+00	 6.333333e+00	 1.011898e+01
2	 6.583333e+00	 6.416667e+00	 1.011489e+01
2	 6.583333e+00	 6.500000e+00	 1.011083e+01
2	 6.583333e+00	 6.583333e+00	 1.010678e+01
2	 6.583333e+00	 6.666667e+00	 1.010274e+01
2	 6.666667e+00	 6.250000e+00	 1.011941e+01
2	 6.666667e+00	 6.333333e+00	 1.011547e+01
2	 6.666667e+00	 6.416667e+00	 1.011154e+01
2	 6.666667e+00	 6.500000e+00	 1.010764e+01
2	 6.666667e+00	 6.583333e+00	 1.010374e+01
2	 6.666667e+00	 6.666667e+00	 1.009986e+01
2	 6.250000e+00	 6.666667e+00	 1.011341e+01
2	 6.250000e+00	 6.750000e+00	 1.010883e+01
2	 6.250000e+00	 6.833333e+00	 1.010433e+01
2	 6.250000e+00	 6.916667e+00	 1.009988e+01
2	 6.250000e+00	 7.000000e+00	 1.009549e+01
2	 6.250000e+00	 7.083333e+00	 1.009115e+01
2	 6.333333e+00	 6.666667e+00	 1.011090e+01
2	 6.333333e+00	 6.750000e+00	 1.010647e+01
2	 6.333333e+00	 6.833333e+00	 1.010209e+01
2	 6.333333e+00	 6.916667e+00	 1.009777e+01
2	 6.333333e+00	 7.000000e+00	 1.009350e+01
2	 6.333333e+00	 7.083333e+00	 1.008928e+01
2	 6.416667e+00	 6.666667e+00	 1.010828e+01
2	 6.416667e+00	 6.750000e+00	 1.010399e+01
2	 6.416667e+00	 6.833333e+00	 1.009975e+01
2	 6.416667e+00	 6.916667e+00	 1.009556e+01
2	 6.416667e+00	 7.000000e+00	 1.009141e+01
2	 6.416667e+00	 7.083333e+00	 1.008730e+01
2	 6.500000e+00	 6.666667e+00	 1.010556e+01
2	 6.500000e+00	 6.750000e+00	 1.010140e+01
2	 6.500000e+00	 6.833333e+00	 1.009730e+01
2	 6.500000e+00	 6.916667e+00	 1.009324e+01
2	 6.500000e+00	 7.000000e+00	 1.008922e+01
2	 6.500000e+00	 7.083333e+00	 1.008524e+01
2	 6.583333e+00	 6.666667e+00	 1.010274e+01
2	 6.583333e+00	 6.750000e+00	 1.009873e+01
2	 6.583333e+00	 6.833333e+00	 1.009477e+01
2	 6.583333e+00	 6.916667e+00	 1.009084e+01
2	 6.583333e+00	 7.000000e+00	 1.008695e+01
2	 6.583333e+00	 7.083333e+00	 1.008309e+01
2	 6.666667e+00	 6.666667e+00	 1.009986e+01
2	 6.666667e+00	 6.750000e+00	 1.009599e+01
2	 6.666667e+00	 6.833333e+00	 1.009216e+01
2	 6.666667e+00	 6.916667e+00	 1.008837e+01
2	 6.666667e+00	 7.000000e+00	 1.008462e+01
2	 6.666667e+00	 7.083333e+00	 1.008088e+01
2	 6.250000e+00	 7.083333e+00	 1.009115e+01
2	 6.250000e+00	 7.166667e+00	 1.008687e+01
2	 6.250000e+00	 7.250000e+00	 1.008267e+01
2	 6.250000e+00	 7.333333e+00	 1.007854e+01
2	 6.250000e+00	 7.416667e+00	 1.007448e+01
2	 6.250000e+00	 7.500000e+00	 1.007048e+01
2	 6.333333e+00	 7.083333e+00	 1.008928e+01
2	 6.333333e+00	 7.166667e+00	 1.008511e+01
2	 6.333333e+00	 7.250000e+00	 1.008101e+01
2	 6.333333e+00	 7.333333e+00	 1.007699e+01
2	 6.333333e+00	 7.416667e+00	 1.007302e+01
2	 6.333333e+00	 7.500000e+00	 1.006912e+01
2	 6.416667e+00	 7.083333e+00	 1.008730e+01
2	 6.416667e+00	 7.166667e+00	 1.008325e+01
2	 6.416667e+00	 7.250000e+00	 1.007926e+01
2	 6.416667e+00	 7.333333e+00	 1.007534e+01
2	 6.416667e+00	 7.416667e+00	 1.007148e+01
2	 6.416667e+00	 7.500000e+00	 1.006767e+01
2	 6.500000e+00	 7.083333e+00	 1.008524e+01
2	 6.500000e+00	 7.166667e+00	 1.008130e+01
2	 6.500000e+00	 7.250000e+00	 1.007743e+01
2	 6.500000e+00	 7.333333e+00	 1.007362e+01
2	 6.500000e+00	 7.416667e+00	 1.006986e+01
2	 6.500000e+00	 7.500000e+00	 1.006615e+01
2	 6.583333e+00	 7.083333e+00	 1.008309e+01
2	 6.583333e+00	 7.166667e+00	 1.007928e+01
2	 6.583333e+00	 7.250000e+00	 1.007552e+01
2	 6.583333e+00	 7.333333e+00	 1.007182e+01
2	 6.583333e+00	 7.416667e+00	 1.006817e+01
2	 6.583333e+00	 7.500000e+00	 1.006456e+01
2	 6.666667e+00	 7.083333e+00	 1.008088e+01
2	 6.666667e+00	 7.166667e+00	 1.007719e+01
2	 6.666667e+00	 7.250000e+00	 1.007355e+01
2	 6.666667e+00	 7.333333e+00	 1.006996e+01
2	 6.666667e+00	 7.416667e+00	 1.006642e+01
2	 6.666667e+00	 7.500000e+00	 1.006292e+01
2	 6.250000e+00	 7.500000e+00	 1.007048e+01
2	 6.250000e+00	 7.583333e+00	 1.006655e+01
2	 6.250000e+00	 7.666667e+00	 1.006272e+01
2	 6.250000e+00	 7.750000e+00	 1.005897e+01
2	 6.250000e+00	 7.833333e+00	 1.005529e+01
2	 6.250000e+00	 7.916667e+00	 1.005169e+01
2	 6.333333e+00	 7.500000e+00	 1.006912e+01
2	 6.333333e+00	 7.583333e+00	 1.006528e+01
2	 6.333333e+00	 7.666667e+00	 1.006153e+01
2	 6.333333e+00	 7.750000e+00	 1.005786e+01
2	 6.333333e+00	 7.833333e+00	 1.005426e+01
2	 6.333333e+00	 7.916667e+00	 1.005074e+01
2	 6.416667e+00	 7.500000e+00	 1.006767e+01
2	 6.416667e+00	 7.583333e+00	 1.006393e+01
2	 6.416667e+00	 7.666667e+00	 1.006027e+01
2	 6.416667e+00	 7.750000e+00	 1.005668e+01
2	 6.416667e+00	 7.833333e+00	 1.005317e+01
2	 6.416667e+00	 7.916667e+00	 1.004972e+01
2	 6.500000e+00	 7.500000e+00	 1.006615e+01
2	 6.500000e+00	 7.583333e+00	 1.006250e+01
2	 6.500000e+00	 7.666667e+00	 1.005893e+01
2	 6.500000e+00	 7.750000e+00	 1.005544e+01
2	 6.500000e+00	 7.833333e+00	 1.005201e+01
2	 6.500000e+00	 7.916667e+00	 1.004864e+01
2	 6.583333e+00	 7.500000e+00	 1.006456e+01
2	 6.583333e+00	 7.583333e+00	 1.006101e+01
2	 6.583333e+00	 7.666667e+00	 1.005754e+01
2	 6.583333e+00	 7.750000e+00	 1.005414e+01
2	 6.583333e+00	 7.833333e+00	 1.005080e+01
2	 6.583333e+00	 7.916667e+00	 1.004752e+01
2	 6.666667e+00	 7.500000e+00	 1.006292e+01
2	 6.666667e+00	 7.583333e+00	 1.005948e+01
2	 6.666667e+00	 7.666667e+00	 1.005610e+01
2	 6.666667e+00	 7.750000e+00	 1.005279e+01
2	 6.666667e+00	 7.833333e+00	 1.004954e+01
2	 6.666667e+00	 7.916667e+00	 1.004635e+01
2	 6.250000e+00	 7.916667e+00	 1.005169e+01
2	 6.250000e+00	 8.000000e+00	 1.004818e+01
2	 6.250000e+00	 8.083333e+00	 1.004477e+01
2	 6.250000e+00	 8.166667e+00	 1.004145e+01
2	 6.250000e+00	 8.250000e+00	 1.003823e+01
2	 6.250000e+00	 8.333333e+00	 1.003509e+01
2	 6.333333e+00	 7.916667e+00	 1.005074e+01
2	 6.333333e+00	 8.000000e+00	 1.004730e+01
2	 6.333333e+00	 8.083333e+00	 1.004395e+01
2	 6.333333e+00	 8.166667e+00	 1.004070e+01
2	 6.333333e+00	 8.250000e+00	 1.003754e+01
2	 6.333333e+00	 8.333333e+00	 1.003446e+01
2	 6.416667e+00	 7.916667e+00	 1.004972e+01
2	 6.416667e+00	 8.000000e+00	 1.004635e+01
2	 6.416667e+00	 8.083333e+00	 1.004308e+01
2	 6.416667e+00	 8.166667e+00	 1.003990e+01
2	 6.416667e+00	 8.250000e+00	 1.003680e+01
2	 6.416667e+00	 8.333333e+00	 1.003378e+01
2	 6.500000e+00	 7.916667e+00	 1.004864e+01
2	 6.500000e+00	 8.000000e+00	 1.004535e+01
2	 6.500000e+00	 8.083333e+00	 1.004216e+01
2	 6.500000e+00	 8.166667e+00	 1.003905e+01
2	 6.500000e+00	 8.250000e+00	 1.003602e+01
2	 6.500000e+00	 8.333333e+00	 1.003307e+01
2	 6.583333e+00	 7.916667e+00	 1.004752e+01
2	 6.583333e+00	 8.000000e+00	 1.004431e+01
2	 6.583333e+00	 8.083333e+00	 1.004119e+01
2	 6.583333e+00	 8.166667e+00	 1.003816e+01
2	 6.583333e+00	 8.250000e+00	 1.003520e+01
2	 6.583333e+00	 8.333333e+00	 1.003232e+01
2	 6.666667e+00	 7.916667e+00	 1.004635e+01
2	 6.666667e+00	 8.000000e+00	 1.004323e+01
2	 6.666667e+00	 8.083333e+00	 1.004019e+01
2	 6.666667e+00	 8.166667e+00	 1.003723e+01
2	 6.666667e+00	 8.250000e+00	 1.003435e+01
2	 6.666667e+00	 8.333333e+00	 1.003154e+01
2	 6.250000e+00	 8.333333e+00	 1.003509e+01
2	 6.250000e+00	 8.416667e+00	 1.003205e+01
2	 6.250000e+00	 8.500000e+00	 1.002914e+01
2	 6.250000e+00	 8.583333e+00	 1.002633e+01
2	 6.250000e+00	 8.666667e+00	 1.002363e+01
2	 6.250000e+00	 8.750000e+00	 1.002103e+01
2	 6.333333e+00	 8.333333e+00	 1.003446e+01
2	 6.333333e+00	 8.416667e+00	 1.003148e+01
2	 6.333333e+00	 8.500000e+00	 1.002861e+01
2	 6.333333e+00	 8.583333e+00	 1.002586e+01
2	 6.333333e+00	 8.666667e+00	 1.002321e+01
2	 6.333333e+00	 8.750000e+00	 1.002066e+01
2	 6.416667e+00	 8.333333e+00	 1.003378e+01
2	 6.416667e+00	 8.416667e+00	 1.003086e+01
2	 6.416667e+00	 8.500000e+00	 1.002806e+01
2	 6.416667e+00	 8.583333e+00	 1.002536e+01
2	 6.416667e+00	 8.666667e+00	 1.002276e+01
2	 6.416667e+00	 8.750000e+00	 1.002025e+01
2	 6.500000e+00	 8.333333e+00	 1.003307e+01
2	 6.500000e+00	 8.416667e+00	 1.003021e+01
2	 6.500000e+00	 8.500000e+00	 1.002746e+01
2	 6.500000e+00	 8.583333e+00	 1.002482e+01
2	 6.500000e+00	 8.666667e+00	 1.002228e+01
2	 6.500000e+00	 8.750000e+00	 1.001983e+01
2	 6.583333e+00	 8.333333e+00	 1.003232e+01
2	 6.583333e+00	 8.416667e+00	 1.002953e+01
2	 6.583333e+00	 8.500000e+00	 1.002684e+01
2	 6.583333e+00	 8.583333e+00	 1.002426e+01
2	 6.583333e+00	 8.666667e+00	 1.002178e+01
2	 6.583333e+00	 8.750000e+00	 1.001938e+01
2	 6.666667e+00	 8.333333e+00	 1.003154e+01
2	 6.666667e+00	 8.416667e+00	 1.002882e+01
2	 6.666667e+00	 8.500000e+00	 1.002620e+01
2	 6.666667e+00	 8.583333e+00	 1.002368e+01
2	 6.666667e+00	 8.666667e+00	 1.002126e+01
2	 6.666667e+00	 8.750000e+00	 1.001892e+01
2	 6.250000e+00	 8.750000e+00	 1.002103e+01
2	 6.250000e+00	 8.833333e+00	 1.001856e+01
2	 6.250000e+00	 8.916667e+00	 1.001622e+01
2	 6.250000e+00	 9.000000e+00	 1.001403e+01
2	 6.250000e+00	 9.083333e+00	 1.001196e+01
2	 6.250000e+00	 9.166667e+00	 1.001001e+01
2	 6.333333e+00	 8.750000e+00	 1.002066e+01
2	 6.333333e+00	 8.833333e+00	 1.001822e+01
2	 6.333333e+00	 8.916667e+00	 1.001593e+01
2	 6.333333e+00	 9.000000e+00	 1.001377e+01
2	 6.333333e+00	 9.083333e+00	 1.001174e+01
2	 6.333333e+00	 9.166667e+00	 1.000983e+01
2	 6.416667e+00	 8.750000e+00	 1.002025e+01
2	 6.416667e+00	 8.833333e+00	 1.001787e+01
2	 6.416667e+00	 8.916667e+00	 1.001562e+01
2	 6.416667e+00	 9.000000e+00	 1.001350e+01
2	 6.416667e+00	 9.083333e+00	 1.001151e+01
2	 6.416667e+00	 9.166667e+00	 1.000963e+01
2	 6.500000e+00	 8.750000e+00	 1.001983e+01
2	 6.500000e+00	 8.833333e+00	 1.001749e+01
2	 6.500000e+00	 8.916667e+00	 1.001529e+01
2	 6.500000e+00	 9.000000e+00	 1.001322e+01
2	 6.500000e+00	 9.083333e+00	 1.001127e+01
2	 6.500000e+00	 9.166667e+00	 1.000942e+01
2	 6.583333e+00	 8.750000e+00	 1.001938e+01
2	 6.583333e+00	 8.833333e+00	 1.001710e+01
2	 6.583333e+00	 8.916667e+00	 1.001494e+01
2	 6.583333e+00	 9.000000e+00	 1.001292e+01
2	 6.583333e+00	 9.083333e+00	 1.001101e+01
2	 6.583333e+00	 9.166667e+00	 1.000921e+01
2	 6.666667e+00	 8.750000e+00	 1.001892e+01
2	 6.666667e+00	 8.833333e+00	 1.001669e+01
2	 6.666667e+00	 8.916667e+00	 1.001459e+01
2	 6.666667e+00	 9.000000e+00	 1.001261e+01
2	 6.666667e+00	 9.083333e+00	 1.001074e+01
2	 6.666667e+00	 9.166667e+00	 1.000899e+01
2	 6.250000e+00	 9.166667e+00	 1.001001e+01
2	 6.250000e+00	 9.250000e+00	 1.000821e+01
2	 6.250000e+00	 9.333333e+00	 1.000658e+01
2	 6.250000e+00	 9.416667e+00	 1.000513e+01
2	 6.250000e+00	 9.500000e+00	 1.000384e+01
2	 6.250000e+00	 9.583333e+00	 1.000269e+01
2	 6.333333e+00	 9.166667e+00	 1.000983e+01
2	 6.333333e+00	 9.250000e+00	 1.000806e+01
2	 6.333333e+00	 9.333333e+00	 1.000646e+01
2	 6.333333e+00	 9.416667e+00	 1.000504e+01
2	 6.333333e+00	 9.500000e+00	 1.000377e+01
2	 6.333333e+00	 9.583333e+00	 1.000264e+01
2	 6.416667e+00	 9.166667e+00	 1.000963e+01
2	 6.416667e+00	 9.250000e+00	 1.000790e+01
2	 6.416667e+00	 9.333333e+00	 1.000633e+01
2	 6.416667e+00	 9.416667e+00	 1.000494e+01
2	 6.416667e+00	 9.500000e+00	 1.000369e+01
2	 6.416667e+00	 9.583333e+00	 1.000259e+01
2	 6.500000e+00	 9.166667e+00	 1.000942e+01
2	 6.500000e+00	 9.250000e+00	 1.000773e+01
2	 6.500000e+00	 9.333333e+00	 1.000620e+01
2	 6.500000e+00	 9.416667e+00	 1.000483e+01
2	 6.500000e+00	 9.500000e+00	 1.000361e+01
2	 6.500000e+00	 9.583333e+00	 1.000253e+01
2	 6.583333e+00	 9.166667e+00	 1.000921e+01
2	 6.583333e+00	 9.250000e+00	 1.000755e+01
2	 6.583333e+00	 9.333333e+00	 1.000605e+01
2	 6.583333e+00	 9.416667e+00	 1.000471e+01
2	 6.583333e+00	 9.500000e+00	 1.000352e+01
2	 6.583333e+00	 9.583333e+00	 1.000247e+01
2	 6.666667e+00	 9.166667e+00	 1.000899e+01
2	 6.666667e+00	 9.250000e+00	 1.000737e+01
2	 6.666667e+00	 9.333333e+00	 1.000591e+01
2	 6.666667e+00	 9.416667e+00	 1.000460e+01
2	 6.666667e+00	 9.500000e+00	 1.000344e+01
2	 6.666667e+00	 9.583333e+00	 1.000241e+01
2	 6.250000e+00	 9.583333e+00	 1.000269e+01
2	 6.250000e+00	 9.666667e+00	 1.000173e+01
2	 6.250000e+00	 9.750000e+00	 1.000099e+01
2	 6.250000e+00	 9.833333e+00	 1.000046e+01
2	 6.250000e+00	 9.916667e+00	 1.000012e+01
2	 6.250000e+00	 1.000000e+01	 9.999971e+00
2	 6.333333e+00	 9.583333e+00	 1.000264e+01
2	 6.333333e+00	 9.666667e+00	 1.000170e+01
2	 6.333333e+00	 9.750000e+00	 1.000098e+01
2	 6.333333e+00	 9.833333e+00	 1.000045e+01
2	 6.333333e+00	 9.916667e+00	 1.000012e+01
2	 6.333333e+00	 1.000000e+01	 9.999975e+00
2	 6.416667e+00	 9.583333e+00	 1.000259e+01
2	 6.416667e+00	 9.666667e+00	 1.000167e+01
2	 6.416667e+00	 9.750000e+00	 1.000095e+01
2	 6.416667e+00	 9.833333e+00	 1.000044e+01
2	 6.416667e+00	 9.916667e+00	 1.000012e+01
2	 6.416667e+00	 1.000000e+01	 9.999974e+00
2	 6.500000e+00	 9.583333e+00	 1.000253e+01
2	 6.500000e+00	 9.666667e+00	 1.000163e+01
2	 6.500000e+00	 9.750000e+00	 1.000093e+01
2	 6.500000e+00	 9.833333e+00	 1.000043e+01
2	 6.500000e+00	 9.916667e+00	 1.000011e+01
2	 6.500000e+00	 1.000000e+01	 9.999972e+00
2	 6.583333e+00	 9.583333e+00	 1.000247e+01
2	 6.583333e+00	 9.666667e+00	 1.000159e+01
2	 6.583333e+00	 9.750000e+00	 1.000091e+01
2	 6.583333e+00	 9.833333e+00	 1.000042e+01
2	 6.583333e+00	 9.916667e+00	 1.000011e+01
2	 6.583333e+00	 1.000000e+01	 9.999972e+00
2	 6.666667e+00	 9.583333e+00	 1.000241e+01
2	 6.666667e+00	 9.666667e+00	 1.000155e+01
2	 6.666667e+00	 9.750000e+00	 1.000089e+01
2	 6.666667e+00	 9.833333e+00	 1.000041e+01
2	 6.666667e+00	 9.916667e+00	 1.000011e+01
2	 6.666667e+00	 1.000000e+01	 9.999976e+00
2	 6.666667e+00	 5.000000e+00	 1.017560e+01
2	 6.666667e+00	 5.083333e+00	 1.017222e+01
2	 6.666667e+00	 5.166667e+00	 1.016878e+01
2	 6.666667e+00	 5.250000e+00	 1.016527e+01
2	 6.666667e+00	 5.333333e+00	 1.016168e+01
2	 6.666667e+00	 5.416667e+00	 1.015801e+01
2	 6.750000e+00	 5.000000e+00	 1.016884e+01
2	 6.750000e+00	 5.083333e+00	 1.016568e+01
2	 6.750000e+00	 5.166667e+00	 1.016246e+01
2	 6.750000e+00	 5.250000e+00	 1.015916e+01
2	 6.750000e+00	 5.333333e+00	 1.015579e+01
2	 6.750000e+00	 5.416667e+00	 1.015234e+01
2	 6.833333e+00	 5.000000e+00	 1.016204e+01
2	 6.833333e+00	 5.083333e+00	 1.015910e+01
2	 6.833333e+00	 5.166667e+00	 1.015609e+01
2	 6.833333e+00	 5.250000e+00	 1.015301e+01
2	 6.833333e+00	 5.333333e+00	 1.014985e+01
2	 6.833333e+00	 5.416667e+00	 1.014661e+01
2	 6.916667e+00	 5.000000e+00	 1.015522e+01
2	 6.916667e+00	 5.083333e+00	 1.015250e+01
2	 6.916667e+00	 5.166667e+00	 1.014970e+01
2	 6.916667e+00	 5.250000e+00	 1.014683e+01
2	 6.916667e+00	 5.333333e+00	 1.014388e+01
2	 6.916667e+00	 5.416667e+00	 1.014084e+01
2	 7.000000e+00	 5.000000e+00	 1.014840e+01
2	 7.000000e+00	 5.083333e+00	 1.014588e+01
2	 7.000000e+00	 5.166667e+00	 1.014330e+01
2	 7.000000e+00	 5.250000e+00	 1.014063e+01
2	 7.000000e+00	 5.333333e+00	 1.013788e+01
2	 7.000000e+00	 5.416667e+00	 1.013504e+01
2	 7.083333e+00	 5.000000e+00	 1.014159e+01
2	 7.083333e+00	 5.083333e+00	 1.013927e+01
2	 7.083333e+00	 5.166667e+00	 1.013689e+01
2	 7.083333e+00	 5.250000e+00	 1.013442e+01
2	 7.083333e+00	 5.333333e+00	 1.013187e+01
2	 7.083333e+00	 5.416667e+00	 1.012923e+01
2	 6.666667e+00	 5.416667e+00	 1.015801e+01
2	 6.666667e+00	 5.500000e+00	 1.015429e+01
2	 6.666667e+00	 5.583333e+00	 1.015053e+01
2	 6.666667e+00	 5.666667e+00	 1.014674e+01
2	 6.666667e+00	 5.750000e+00	 1.014291e+01
2	 6.666667e+00	 5.833333e+00	 1.013902e+01
2	 6.750000e+00	 5.416667e+00	 1.015234e+01
2	 6.750000e+00	 5.500000e+00	 1.014882e+01
2	 6.750000e+00	 5.583333e+00	 1.014527e+01
2	 6.750000e+00	 5.666667e+00	 1.014168e+01
2	 6.750000e+00	 5.750000e+00	 1.013804e+01
2	 6.750000e+00	 5.833333e+00	 1.013435e+01
2	 6.833333e+00	 5.416667e+00	 1.014661e+01
2	 6.833333e+00	 5.500000e+00	 1.014330e+01
2	 6.833333e+00	 5.583333e+00	 1.013995e+01
2	 6.833333e+00	 5.666667e+00	 1.013656e+01
2	 6.833333e+00	 5.750000e+00	 1.013312e+01
2	 6.833333e+00	 5.833333e+00	 1.012962e+01
2	 6.916667e+00	 5.416667e+00	 1.014084e+01
2	 6.916667e+00	 5.500000e+00	 1.013773e+01
2	 6.916667e+00	 5.583333e+00	 1.013458e+01
2	 6.916667e+00	 5.666667e+00	 1.013139e+01
2	 6.916667e+00	 5.750000e+00	 1.012814e+01
2	 6.916667e+00	 5.833333e+00	 1.012483e+01
2	 7.000000e+00	 5.416667e+00	 1.013504e+01
2	 7.000000e+00	 5.500000e+00	 1.013213e+01
2	 7.000000e+00	 5.583333e+00	 1.012918e+01
2	 7.000000e+00	 5.666667e+00	 1.012618e+01
2	 7.000000e+00	 5.750000e+00	 1.012312e+01
2	 7.000000e+00	 5.833333e+00	 1.012001e+01
2	 7.083333e+00	 5.416667e+00	 1.012923e+01
2	 7.083333e+00	 5.500000e+00	 1.012652e+01
2	 7.083333e+00	 5.583333e+00	 1.012376e+01
2	 7.083333e+00	 5.666667e+00	 1.012095e+01
2	 7.083333e+00	 5.750000e+00	 1.011809e+01
2	 7.083333e+00	 5.833333e+00	 1.011516e+01
2	 6.666667e+00	 5.833333e+00	 1.013902e+01
2	 6.666667e+00	 5.916667e+00	 1.013511e+01
2	 6.666667e+00	 6.000000e+00	 1.013120e+01
2	 6.666667e+00	 6.083333e+00	 1.012729e+01
2	 6.666667e+00	 6.166667e+00	 1.012336e+01
2	 6.666667e+00	 6.250000e+00	 1.011941e+01
2	 6.750000e+00	 5.833333e+00	 1.013435e+01
2	 6.750000e+00	 5.916667e+00	 1.013064e+01
2	 6.750000e+00	 6.000000e+00	 1.012691e+01
2	 6.750000e+00	 6.083333e+00	 1.012318e+01
2	 6.750000e+00	 6.166667e+00	 1.011943e+01
2	 6.750000e+00	 6.250000e+00	 1.011565e+01
2	 6.833333e+00	 5.833333e+00	 1.012962e+01
2	 6.833333e+00	 5.916667e+00	 1.012609e+01
2	 6.833333e+00	 6.000000e+00	 1.012255e+01
2	 6.833333e+00	 6.083333e+00	 1.011900e+01
2	 6.833333e+00	 6.166667e+00	 1.011542e+01
2	 6.833333e+00	 6.250000e+00	 1.011182e+01
2	 6.916667e+00	 5.833333e+00	 1.012483e+01
2	 6.916667e+00	 5.916667e+00	 1.012149e+01
2	 6.916667e+00	 6.000000e+00	 1.011814e+01
2	 6.916667e+00	 6.083333e+00	 1.011476e+01
2	 6.916667e+00	 6.166667e+00	 1.011136e+01
2	 6.916667e+00	 6.250000e+00	 1.010793e+01
2	 7.000000e+00	 5.833333e+00	 1.012001e+01
2	 7.000000e+00	 5.916667e+00	 1.011685e+01
2	 7.000000e+00	 6.000000e+00	 1.011368e+01
2	 7.000000e+00	 6.083333e+00	 1.011048e+01
2	 7.000000e+00	 6.166667e+00	 1.010726e+01
2	 7.000000e+00	 6.250000e+00	 1.010400e+01
2	 7.083333e+00	 5.833333e+00	 1.011516e+01
2	 7.083333e+00	 5.916667e+00	 1.011218e+01
2	 7.083333e+00	 6.000000e+00	 1.010919e+01
2	 7.083333e+00	 6.083333e+00	 1.010617e+01
2	 7.083333e+00	 6.166667e+00	 1.010312e+01
2	 7.083333e+00	 6.250000e+00	 1.010003e+01
2	 6.666667e+00	 6.250000e+00	 1.011941e+01
2	 6.666667e+00	 6.333333e+00	 1.011547e+01
2	 6.666667e+00	 6.416667e+00	 1.011154e+01
2	 6.666667e+00	 6.500000e+00	 1.010764e+01
2	 6.666667e+00	 6.583333e+00	 1.010374e+01
2	 6.666667e+00	 6.666667e+00	 1.009986e+01
2	 6.750000e+00	 6.250000e+00	 1.011565e+01
2	 6.750000e+00	 6.333333e+00	 1.011188e+01
2	 6.750000e+00	 6.416667e+00	 1.010812e+01
2	 6.750000e+00	 6.500000e+00	 1.010437e+01
2	 6.750000e+00	 6.583333e+00	 1.010063e+01
2	 6.750000e+00	 6.666667e+00	 1.009689e+01
2	 6.833333e+00	 6.250000e+00	 1.011182e+01
2	 6.833333e+00	 6.333333e+00	 1.010822e+01
2	 6.833333e+00	 6.416667e+00	 1.010462e+01
2	 6.833333e+00	 6.500000e+00	 1.010103e+01
2	 6.833333e+00	 6.583333e+00	 1.009745e+01
2	 6.833333e+00	 6.666667e+00	 1.009386e+01
2	 6.916667e+00	 6.250000e+00	 1.010793e+01
2	 6.916667e+00	 6.333333e+00	 1.010449e+01
2	 6.916667e+00	 6.416667e+00	 1.010106e+01
2	 6.916667e+00	 6.500000e+00	 1.009764e+01
2	 6.916667e+00	 6.583333e+00	 1.009421e+01
2	 6.916667e+00	 6.666667e+00	 1.009077e+01
2	 7.000000e+00	 6.250000e+00	 1.010400e+01
2	 7.000000e+00	 6.333333e+00	 1.010073e+01
2	 7.000000e+00	 6.416667e+00	 1.009746e+01
2	 7.000000e+00	 6.500000e+00	 1.009419e+01
2	 7.000000e+00	 6.583333e+00	 1.009092e+01
2	 7.000000e+00	 6.666667e+00	 1.008764e+01
2	 7.083333e+00	 6.250000e+00	 1.010003e+01
2	 7.083333e+00	 6.333333e+00	 1.009693e+01
2	 7.083333e+00	 6.416667e+00	 1.009382e+01
2	 7.083333e+00	 6.500000e+00	 1.009071e+01
2	 7.083333e+00	 6.583333e+00	 1.008760e+01
2	 7.083333e+00	 6.666667e+00	 1.008446e+01
2	 6.666667e+00	 6.666667e+00	 1.009986e+01
2	 6.666667e+00	 6.750000e+00	 1.009599e+01
2	 6.666667e+00	 6.833333e+00	 1.009216e+01
2	 6.666667e+00	 6.916667e+00	 1.008837e+01
2	 6.666667e+00	 7.000000e+00	 1.008462e+01
2	 6.666667e+00	 7.083333e+00	 1.008088e+01
2	 6.750000e+00	 6.666667e+00	 1.009689e+01
2	 6.750000e+00	 6.750000e+00	 1.009317e+01
2	 6.750000e+00	 6.833333e+00	 1.008949e+01
2	 6.750000e+00	 6.916667e+00	 1.008584e+01
2	 6.750000e+00	 7.000000e+00	 1.008221e+01
2	 6.750000e+00	 7.083333e+00	 1.007860e+01
2	 6.833333e+00	 6.666667e+00	 1.009386e+01
2	 6.833333e+00	 6.750000e+00	 1.009029e+01
2	 6.833333e+00	 6.833333e+00	 1.008675e+01
2	 6.833333e+00	 6.916667e+00	 1.008323e+01
2	 6.833333e+00	 7.000000e+00	 1.007974e+01
2	 6.833333e+00	 7.083333e+00	 1.007627e+01
2	 6.916667e+00	 6.666667e+00	 1.009077e+01
2	 6.916667e+00	 6.750000e+00	 1.008735e+01
2	 6.916667e+00	 6.833333e+00	 1.008395e+01
2	 6.916667e+00	 6.916667e+00	 1.008057e+01
2	 6.916667e+00	 7.000000e+00	 1.007722e+01
2	 6.916667e+00	 7.083333e+00	 1.007387e+01
2	 7.000000e+00	 6.666667e+00	 1.008764e+01
2	 7.000000e+00	 6.750000e+00	 1.008436e+01
2	 7.000000e+00	 6.833333e+00	 1.008110e+01
2	 7.000000e+00	 6.916667e+00	 1.007787e+01
2	 7.000000e+00	 7.000000e+00	 1.007465e+01
2	 7.000000e+00	 7.083333e+00	 1.007144e+01
2	 7.083333e+00	 6.666667e+00	 1.008446e+01
2	 7.083333e+00	 6.750000e+00	 1.008134e+01
2	 7.083333e+00	 6.833333e+00	 1.007823e+01
2	 7.083333e+00	 6.916667e+00	 1.007513e+01
2	 7.083333e+00	 7.000000e+00	 1.007205e+01
2	 7.083333e+00	 7.083333e+00	 1.006897e+01
2	 6.666667e+00	 7.083333e+00	 1.008088e+01
2	 6.666667e+00	 7.166667e+00	 1.007719e+01
2	 6.666667e+00	 7.250000e+00	 1.007355e+01
2	 6.666667e+00	 7.333333e+00	 1.006996e+01
2	 6.666667e+00	 7.416667e+00	 1.006642e+01
2	 6.666667e+00	 7.500000e+00	 1.006292e+01
2	 6.750000e+00	 7.083333e+00	 1.007860e+01
2	 6.750000e+00	 7.166667e+00	 1.007504e+01
2	 6.750000e+00	 7.250000e+00	 1.007152e+01
2	 6.750000e+00	 7.333333e+00	 1.006805e+01
2	 6.750000e+00	 7.416667e+00	 1.006462e+01
2	 6.750000e+00	 7.500000e+00	 1.006122e+01
2	 6.833333e+00	 7.083333e+00	 1.007627e+01
2	 6.833333e+00	 7.166667e+00	 1.007282e+01
2	 6.833333e+00	 7.250000e+00	 1.006943e+01
2	 6.833333e+00	 7.333333e+00	 1.006607e+01
2	 6.833333e+00	 7.416667e+00	 1.006276e+01
2	 6.833333e+00	 7.500000e+00	 1.005948e+01
2	 6.916667e+00	 7.083333e+00	 1.007387e+01
2	 6.916667e+00	 7.166667e+00	 1.007056e+01
2	 6.916667e+00	 7.250000e+00	 1.006728e+01
2	 6.916667e+00	 7.333333e+00	 1.006405e+01
2	 6.916667e+00	 7.416667e+00	 1.006085e+01
2	 6.916667e+00	 7.500000e+00	 1.005768e+01
2	 7.000000e+00	 7.083333e+00	 1.007144e+01
2	 7.000000e+00	 7.166667e+00	 1.006825e+01
2	 7.000000e+00	 7.250000e+00	 1.006510e+01
2	 7.000000e+00	 7.333333e+00	 1.006199e+01
2	 7.000000e+00	 7.416667e+00	 1.005891e+01
2	 7.000000e+00	 7.500000e+00	 1.005585e+01
2	 7.083333e+00	 7.083333e+00	 1.006897e+01
2	 7.083333e+00	 7.166667e+00	 1.006591e+01
2	 7.083333e+00	 7.250000e+00	 1.006289e+01
2	 7.083333e+00	 7.333333e+00	 1.005990e+01
2	 7.083333e+00	 7.416667e+00	 1.005693e+01
2	 7.083333e+00	 7.500000e+00	 1.005399e+01
2	 6.666667e+00	 7.500000e+00	 1.006292e+01
2	 6.666667e+00	 7.583333e+00	 1.005948e+01
2	 6.666667e+00	 7.666667e+00	 1.005610e+01
2	 6.666667e+00	 7.750000e+00	 1.005279e+01
2	 6.666667e+00	 7.833333e+00	 1.004954e+01
2	 6.666667e+00	 7.916667e+00	 1.004635e+01
2	 6.750000e+00	 7.500000e+00	 1.006122e+01
2	 6.750000e+00	 7.583333e+00	 1.005788e+01
2	 6.750000e+00	 7.666667e+00	 1.005461e+01
2	 6.750000e+00	 7.750000e+00	 1.005140e+01
2	 6.750000e+00	 7.833333e+00	 1.004824e+01
2	 6.750000e+00	 7.916667e+00	 1.004514e+01
2	 6.833333e+00	 7.500000e+00	 1.005948e+01
2	 6.833333e+00	 7.583333e+00	 1.005624e+01
2	 6.833333e+00	 7.666667e+00	 1.005307e+01
2	 6.833333e+00	 7.750000e+00	 1.004996e+01
2	 6.833333e+00	 7.833333e+00	 1.004690e+01
2	 6.833333e+00	 7.916667e+00	 1.004389e+01
2	 6.916667e+00	 7.500000e+00	 1.005768e+01
2	 6.916667e+00	 7.583333e+00	 1.005456e+01
2	 6.916667e+00	 7.666667e+00	 1.005149e+01
2	 6.916667e+00	 7.750000e+00	 1.004848e+01
2	 6.916667e+00	 7.833333e+00	 1.004552e+01
2	 6.916667e+00	 7.916667e+00	 1.004260e+01
2	 7.000000e+00	 7.500000e+00	 1.005585e+01
2	 7.000000e+00	 7.583333e+00	 1.005284e+01
2	 7.000000e+00	 7.666667e+00	 1.004988e+01
2	 7.000000e+00	 7.750000e+00	 1.004697e+01
2	 7.000000e+00	 7.833333e+00	 1.004411e+01
2	 7.000000e+00	 7.916667e+00	 1.004129e+01
2	 7.083333e+00	 7.500000e+00	 1.005399e+01
2	 7.083333e+00	 7.583333e+00	 1.005109e+01
2	 7.083333e+00	 7.666667e+00	 1.004824e+01
2	 7.083333e+00	 7.750000e+00	 1.004544e+01
2	 7.083333e+00	 7.833333e+00	 1.004268e+01
2	 7.083333e+00	 7.916667e+00	 1.003996e+01
2	 6.666667e+00	 7.916667e+00	 1.004635e+01
2	 6.666667e+00	 8.000000e+00	 1.004323e+01
2	 6.666667e+00	 8.083333e+00	 1.004019e+01
2	 6.666667e+00	 8.166667e+00	 1.003723e+01
2	 6.666667e+00	 8.250000e+00	 1.003435e+01
2	 6.666667e+00	 8.333333e+00	 1.003154e+01
2	 6.750000e+00	 7.916667e+00	 1.004514e+01
2	 6.750000e+00	 8.000000e+00	 1.004210e+01
2	 6.750000e+00	 8.083333e+00	 1.003915e+01
2	 6.750000e+00	 8.166667e+00	 1.003628e+01
2	 6.750000e+00	 8.250000e+00	 1.003347e+01
2	 6.750000e+00	 8.333333e+00	 1.003074e+01
2	 6.833333e+00	 7.916667e+00	 1.004389e+01
2	 6.833333e+00	 8.000000e+00	 1.004094e+01
2	 6.833333e+00	 8.083333e+00	 1.003808e+01
2	 6.833333e+00	 8.166667e+00	 1.003528e+01
2	 6.833333e+00	 8.250000e+00	 1.003256e+01
2	 6.833333e+00	 8.333333e+00	 1.002990e+01
2	 6.916667e+00	 7.916667e+00	 1.004260e+01
2	 6.916667e+00	 8.000000e+00	 1.003975e+01
2	 6.916667e+00	 8.083333e+00	 1.003697e+01
2	 6.916667e+00	 8.166667e+00	 1.003426e+01
2	 6.916667e+00	 8.250000e+00	 1.003162e+01
2	 6.916667e+00	 8.333333e+00	 1.002904e+01
2	 7.000000e+00	 7.916667e+00	 1.004129e+01
2	 7.000000e+00	 8.000000e+00	 1.003853e+01
2	 7.000000e+00	 8.083333e+00	 1.003584e+01
2	 7.000000e+00	 8.166667e+00	 1.003322e+01
2	 7.000000e+00	 8.250000e+00	 1.003066e+01
2	 7.000000e+00	 8.333333e+00	 1.002816e+01
2	 7.083333e+00	 7.916667e+00	 1.003996e+01
2	 7.083333e+00	 8.000000e+00	 1.003729e+01
2	 7.083333e+00	 8.083333e+00	 1.003469e+01
2	 7.083333e+00	 8.166667e+00	 1.003216e+01
2	 7.083333e+00	 8.250000e+00	 1.002969e+01
2	 7.083333e+00	 8.333333e+00	 1.002727e+01
2	 6.666667e+00	 8.333333e+00	 1.003154e+01
2	 6.666667e+00	 8.416667e+00	 1.002882e+01
2	 6.666667e+00	 8.500000e+00	 1.002620e+01
2	 6.666667e+00	 8.583333e+00	 1.002368e+01
2	 6.666667e+00	 8.666667e+00	 1.002126e+01
2	 6.666667e+00	 8.750000e+00	 1.001892e+01
2	 6.750000e+00	 8.333333e+00	 1.003074e+01
2	 6.750000e+00	 8.416667e+00	 1.002808e+01
2	 6.750000e+00	 8.500000e+00	 1.002553e+01
2	 6.750000e+00	 8.583333e+00	 1.002308e+01
2	 6.750000e+00	 8.666667e+00	 1.002072e+01
2	 6.750000e+00	 8.750000e+00	 1.001844e+01
2	 6.833333e+00	 8.333333e+00	 1.002990e+01
2	 6.833333e+00	 8.416667e+00	 1.002732e+01
2	 6.833333e+00	 8.500000e+00	 1.002484e+01
2	 6.833333e+00	 8.583333e+00	 1.002246e+01
2	 6.833333e+00	 8.666667e+00	 1.002016e+01
2	 6.833333e+00	 8.750000e+00	 1.001794e+01
2	 6.916667e+00	 8.333333e+00	 1.002904e+01
2	 6.916667e+00	 8.416667e+00	 1.002654e+01
2	 6.916667e+00	 8.500000e+00	 1.002413e+01
2	 6.916667e+00	 8.583333e+00	 1.002181e+01
2	 6.916667e+00	 8.666667e+00	 1.001958e+01
2	 6.916667e+00	 8.750000e+00	 1.001742e+01
2	 7.000000e+00	 8.333333e+00	 1.002816e+01
2	 7.000000e+00	 8.416667e+00	 1.002573e+01
2	 7.000000e+00	 8.500000e+00	 1.002340e+01
2	 7.000000e+00	 8.583333e+00	 1.002115e+01
2	 7.000000e+00	 8.666667e+00	 1.001899e+01
2	 7.000000e+00	 8.750000e+00	 1.001690e+01
2	 7.083333e+00	 8.333333e+00	 1.002727e+01
2	 7.083333e+00	 8.416667e+00	 1.002492e+01
2	 7.083333e+00	 8.500000e+00	 1.002266e+01
2	 7.083333e+00	 8.583333e+00	 1.002049e+01
2	 7.083333e+00	 8.666667e+00	 1.001839e+01
2	 7.083333e+00	 8.750000e+00	 1.001637e+01
2	 6.666667e+00	 8.750000e+00	 1.001892e+01
2	 6.666667e+00	 8.833333e+00	 1.001669e+01
2	 6.666667e+00	 8.916667e+00	 1.001459e+01
2	 6.666667e+00	 9.000000e+00	 1.001261e+01
2	 6.666667e+00	 9.083333e+00	 1.001074e+01
2	 6.666667e+00	 9.166667e+00	 1.000899e+01
2	 6.750000e+00	 8.750000e+00	 1.001844e+01
2	 6.750000e+00	 8.833333e+00	 1.001626e+01
2	 6.750000e+00	 8.916667e+00	 1.001422e+01
2	 6.750000e+00	 9.000000e+00	 1.001229e+01
2	 6.750000e+00	 9.083333e+00	 1.001047e+01
2	 6.750000e+00	 9.166667e+00	 1.000876e+01
2	 6.833333e+00	 8.750000e+00	 1.001794e+01
2	 6.833333e+00	 8.833333e+00	 1.001582e+01
2	 6.833333e+00	 8.916667e+00	 1.001383e+01
2	 6.833333e+00	 9.000000e+00	 1.001195e+01
2	 6.833333e+00	 9.083333e+00	 1.001018e+01
2	 6.833333e+00	 9.166667e+00	 1.000852e+01
2	 6.916667e+00	 8.750000e+00	 1.001742e+01
2	 6.916667e+00	 8.833333e+00	 1.001537e+01
2	 6.916667e+00	 8.916667e+00	 1.001343e+01
2	 6.916667e+00	 9.000000e+00	 1.001161e+01
2	 6.916667e+00	 9.083333e+00	 1.000989e+01
2	 6.916667e+00	 9.166667e+00	 1.000827e+01
2	 7.000000e+00	 8.750000e+00	 1.001690e+01
2	 7.000000e+00	 8.833333e+00	 1.001490e+01
2	 7.000000e+00	 8.916667e+00	 1.001303e+01
2	 7.000000e+00	 9.000000e+00	 1.001126e+01
2	 7.000000e+00	 9.083333e+00	 1.000959e+01
2	 7.000000e+00	 9.166667e+00	 1.000802e+01
2	 7.083333e+00	 8.750000e+00	 1.001637e+01
2	 7.083333e+00	 8.833333e+00	 1.001444e+01
2	 7.083333e+00	 8.916667e+00	 1.001262e+01
2	 7.083333e+00	 9.000000e+00	 1.001090e+01
2	 7.083333e+00	 9.083333e+00	 1.000929e+01
2	 7.083333e+00	 9.166667e+00	 1.000777e+01
2	 6.666667e+00	 9.166667e+00	 1.000899e+01
2	 6.666667e+00	 9.250000e+00	 1.000737e+01
2	 6.666667e+00	 9.333333e+00	 1.000591e+01
2	 6.666667e+00	 9.416667e+00	 1.000460e+01
2	 6.666667e+00	 9.500000e+00	 1.000344e+01
2	 6.666667e+00	 9.583333e+00	 1.000241e+01
2	 6.750000e+00	 9.166667e+00	 1.000876e+01
2	 6.750000e+00	 9.250000e+00	 1.000718e+01
2	 6.750000e+00	 9.333333e+00	 1.000576e+01
2	 6.750000e+00	 9.416667e+00	 1.000448e+01
2	 6.750000e+00	 9.500000e+00	 1.000335e+01
2	 6.750000e+00	 9.583333e+00	 1.000235e+01
2	 6.833333e+00	 9.166667e+00	 1.000852e+01
2	 6.833333e+00	 9.250000e+00	 1.000698e+01
2	 6.833333e+00	 9.333333e+00	 1.000560e+01
2	 6.833333e+00	 9.416667e+00	 1.000436e+01
2	 6.833333e+00	 9.500000e+00	 1.000326e+01
2	 6.833333e+00	 9.583333e+00	 1.000228e+01
2	 6.916667e+00	 9.166667e+00	 1.000827e+01
2	 6.916667e+00	 9.250000e+00	 1.000678e+01
2	 6.916667e+00	 9.333333e+00	 1.000543e+01
2	 6.916667e+00	 9.416667e+00	 1.000423e+01
2	 6.916667e+00	 9.500000e+00	 1.000316e+01
2	 6.916667e+00	 9.583333e+00	 1.000221e+01
2	 7.000000e+00	 9.166667e+00	 1.000802e+01
2	 7.000000e+00	 9.250000e+00	 1.000657e+01
2	 7.000000e+00	 9.333333e+00	 1.000526e+01
2	 7.000000e+00	 9.416667e+00	 1.000410e+01
2	 7.000000e+00	 9.500000e+00	 1.000306e+01
2	 7.000000e+00	 9.583333e+00	 1.000214e+01
2	 7.083333e+00	 9.166667e+00	 1.000777e+01
2	 7.083333e+00	 9.250000e+00	 1.000636e+01
2	 7.083333e+00	 9.333333e+00	 1.000510e+01
2	 7.083333e+00	 9.416667e+00	 1.000397e+01
2	 7.083333e+00	 9.500000e+00	 1.000296e+01
2	 7.083333e+00	 9.583333e+00	 1.000208e+01
2	 6.666667e+00	 9.583333e+00	 1.000241e+01
2	 6.666667e+00	 9.666667e+00	 1.000155e+01
2	 6.666667e+00	 9.750000e+00	 1.000089e+01
2	 6.666667e+00	 9.833333e+00	 1.000041e+01
2	 6.666667e+00	 9.916667e+00	 1.000011e+01
2	 6.666667e+00	 1.000000e+01	 9.999976e+00
2	 6.750000e+00	 9.583333e+00	 1.000235e+01
2	 6.750000e+00	 9.666667e+00	 1.000151e+01
2	 6.750000e+00	 9.750000e+00	 1.000087e+01
2	 6.750000e+00	 9.833333e+00	 1.000040e+01
2	 6.750000e+00	 9.916667e+00	 1.000011e+01
2	 6.750000e+00	 1.000000e+01	 9.999980e+00
2	 6.833333e+00	 9.583333e+00	 1.000228e+01
2	 6.833333e+00	 9.666667e+00	 1.000147e+01
2	 6.833333e+00	 9.750000e+00	 1.000084e+01
2	 6.833333e+00	 9.833333e+00	 1.000039e+01
2	 6.833333e+00	 9.916667e+00	 1.000011e+01
2	 6.833333e+00	 1.000000e+01	 9.999980e+00
2	 6.916667e+00	 9.583333e+00	 1.000221e+01
2	 6.916667e+00	 9.666667e+00	 1.000142e+01
2	 6.916667e+00	 9.750000e+00	 1.000081e+01
2	 6.916667e+00	 9.833333e+00	 1.000037e+01
2	 6.916667e+00	 9.916667e+00	 1.000010e+01
2	 6.916667e+00	 1.000000e+01	 9.999978e+00
2	 7.000000e+00	 9.583333e+00	 1.000214e+01
2	 7.000000e+00	 9.666667e+00	 1.000138e+01
2	 7.000000e+00	 9.750000e+00	 1.000078e+01
2	 7.000000e+00	 9.833333e+00	 1.000036e+01
2	 7.000000e+00	 9.916667e+00	 1.000009e+01
2	 7.000000e+00	 1.000000e+01	 9.999977e+00
2	 7.083333e+00	 9.583333e+00	 1.000208e+01
2	 7.083333e+00	 9.666667e+00	 1.000133e+01
2	 7.083333e+00	 9.750000e+00	 1.000076e+01
2	 7.083333e+00	 9.833333e+00	 1.000035e+01
2	 7.083333e+00	 9.916667e+00	 1.000009e+01
2	 7.083333e+00	 1.000000e+01	 9.999982e+00
2	 7.083333e+00	 5.000000e+00	 1.014159e+01
2	 7.083333e+00	 5.083333e+00	 1.013927e+01
2	 7.083333e+00	 5.166667e+00	 1.013689e+01
2	 7.083333e+00	 5.250000e+00	 1.013442e+01
2	 7.083333e+00	 5.333333e+00	 1.013187e+01
2	 7.083333e+00	 5.416667e+00	 1.012923e+01
2	 7.166667e+00	 5.000000e+00	 1.013478e+01
2	 7.166667e+00	 5.083333e+00	 1.013267e+01
2	 7.166667e+00	 5.166667e+00	 1.013048e+01
2	 7.166667e+00	 5.250000e+00	 1.012821e+01
2	 7.166667e+00	 5.333333e+00	 1.012586e+01
2	 7.166667e+00	 5.416667e+00	 1.012341e+01
2	 7.250000e+00	 5.000000e+00	 1.012799e+01
2	 7.250000e+00	 5.083333e+00	 1.012607e+01
2	 7.250000e+00	 5.166667e+00	 1.012408e+01
2	 7.250000e+00	 5.250000e+00	 1.012200e+01
2	 7.250000e+00	 5.333333e+00	 1.011984e+01
2	 7.250000e+00	 5.416667e+00	 1.011759e+01
2	 7.333333e+00	 5.000000e+00	 1.012123e+01
2	 7.333333e+00	 5.083333e+00	 1.011950e+01
2	 7.333333e+00	 5.166667e+00	 1.011770e+01
2	 7.333333e+00	 5.250000e+00	 1.011581e+01
2	 7.333333e+00	 5.333333e+00	 1.011384e+01
2	 7.333333e+00	 5.416667e+00	 1.011178e+01
2	 7.416667e+00	 5.000000e+00	 1.011450e+01
2	 7.416667e+00	 5.083333e+00	 1.011296e+01
2	 7.416667e+00	 5.166667e+00	 1.011134e+01
2	 7.416667e+00	 5.250000e+00	 1.010965e+01
2	 7.416667e+00	 5.333333e+00	 1.010786e+01
2	 7.416667e+00	 5.416667e+00	 1.010598e+01
2	 7.500000e+00	 5.000000e+00	 1.010781e+01
2	 7.500000e+00	 5.083333e+00	 1.010646e+01
2	 7.500000e+00	 5.166667e+00	 1.010503e+01
2	 7.500000e+00	 5.250000e+00	 1.010351e+01
2	 7.500000e+00	 5.333333e+00	 1.010191e+01
2	 7.500000e+00	 5.416667e+00	 1.010022e+01
2	 7.083333e+00	 5.416667e+00	 1.012923e+01
2	 7.083333e+00	 5.500000e+00	 1.012652e+01
2	 7.083333e+00	 5.583333e+00	 1.012376e+01
2	 7.083333e+00	 5.666667e+00	 1.012095e+01
2	 7.083333e+00	 5.750000e+00	 1.011809e+01
2	 7.083333e+00	 5.833333e+00	 1.011516e+01
2	 7.166667e+00	 5.416667e+00	 1.012341e+01
2	 7.166667e+00	 5.500000e+00	 1.012090e+01
2	 7.166667e+00	 5.583333e+00	 1.011833e+01
2	 7.166667e+00	 5.666667e+00	 1.011571e+01
2	 7.166667e+00	 5.750000e+00	 1.011303e+01
2	 7.166667e+00	 5.833333e+00	 1.011028e+01
2	 7.250000e+00	 5.416667e+00	 1.011759e+01
2	 7.250000e+00	 5.500000e+00	 1.011527e+01
2	 7.250000e+00	 5.583333e+00	 1.011289e+01
2	 7.250000e+00	 5.666667e+00	 1.011045e+01
2	 7.250000e+00	 5.750000e+00	 1.010796e+01
2	 7.250000e+00	 5.833333e+00	 1.010539e+01
2	 7.333333e+00	 5.416667e+00	 1.011178e+01
2	 7.333333e+00	 5.500000e+00	 1.010964e+01
2	 7.333333e+00	 5.583333e+00	 1.010745e+01
2	 7.333333e+00	 5.666667e+00	 1.010520e+01
2	 7.333333e+00	 5.750000e+00	 1.010288e+01
2	 7.333333e+00	 5.833333e+00	 1.010050e+01
2	 7.416667e+00	 5.416667e+00	 1.010598e+01
2	 7.416667e+00	 5.500000e+00	 1.010403e+01
2	 7.416667e+00	 5.583333e+00	 1.010202e+01
2	 7.416667e+00	 5.666667e+00	 1.009995e+01
2	 7.416667e+00	 5.750000e+00	 1.009781e+01
2	 7.416667e+00	 5.833333e+00	 1.009561e+01
2	 7.500000e+00	 5.416667e+00	 1.010022e+01
2	 7.500000e+00	 5.500000e+00	 1.009845e+01
2	 7.500000e+00	 5.583333e+00	 1.009662e+01
2	 7.500000e+00	 5.666667e+00	 1.009473e+01
2	 7.500000e+00	 5.750000e+00	 1.009277e+01
2	 7.500000e+00	 5.833333e+00	 1.009074e+01
2	 7.083333e+00	 5.833333e+00	 1.011516e+01
2	 7.083333e+00	 5.916667e+00	 1.011218e+01
2	 7.083333e+00	 6.000000e+00	 1.010919e+01
2	 7.083333e+00	 6.083333e+00	 1.010617e+01
2	 7.083333e+00	 6.166667e+00	 1.010312e+01
2	 7.083333e+00	 6.250000e+00	 1.010003e+01
2	 7.166667e+00	 5.833333e+00	 1.011028e+01
2	 7.166667e+00	 5.916667e+00	 1.010749e+01
2	 7.166667e+00	 6.000000e+00	 1.010468e+01
2	 7.166667e+00	 6.083333e+00	 1.010183e+01
2	 7.166667e+00	 6.166667e+00	 1.009895e+01
2	 7.166667e+00	 6.250000e+00	 1.009604e+01
2	 7.250000e+00	 5.833333e+00	 1.010539e+01
2	 7.250000e+00	 5.916667e+00	 1.010278e+01
2	 7.250000e+00	 6.000000e+00	 1.010014e+01
2	 7.250000e+00	 6.083333e+00	 1.009747e+01
2	 7.250000e+00	 6.166667e+00	 1.009477e+01
2	 7.250000e+00	 6.250000e+00	 1.009202e+01
2	 7.333333e+00	 5.833333e+00	 1.010050e+01
2	 7.333333e+00	 5.916667e+00	 1.009806e+01
2	 7.333333e+00	 6.000000e+00	 1.009560e+01
2	 7.333333e+00	 6.083333e+00	 1.009310e+01
2	 7.333333e+00	 6.166667e+00	 1.009056e+01
2	 7.333333e+00	 6.250000e+00	 1.008798e+01
2	 7.416667e+00	 5.833333e+00	 1.009561e+01
2	 7.416667e+00	 5.916667e+00	 1.009335e+01
2	 7.416667e+00	 6.000000e+00	 1.009106e+01
2	 7.416667e+00	 6.083333e+00	 1.008873e+01
2	 7.416667e+00	 6.166667e+00	 1.008636e+01
2	 7.416667e+00	 6.250000e+00	 1.008394e+01
2	 7.500000e+00	 5.833333e+00	 1.009074e+01
2	 7.500000e+00	 5.916667e+00	 1.008865e+01
2	 7.500000e+00	 6.000000e+00	 1.008653e+01
2	 7.500000e+00	 6.083333e+00	 1.008437e+01
2	 7.500000e+00	 6.166667e+00	 1.008216e+01
2	 7.500000e+00	 6.250000e+00	 1.007991e+01
2	 7.083333e+00	 6.250000e+00	 1.010003e+01
2	 7.083333e+00	 6.333333e+00	 1.009693e+01
2	 7.083333e+00	 6.416667e+00	 1.009382e+01
2	 7.083333e+00	 6.500000e+00	 1.009071e+01
2	 7.083333e+00	 6.583333e+00	 1.008760e+01
2	 7.083333e+00	 6.666667e+00	 1.008446e+01
2	 7.166667e+00	 6.250000e+00	 1.009604e+01
2	 7.166667e+00	 6.333333e+00	 1.009310e+01
2	 7.166667e+00	 6.416667e+00	 1.009015e+01
2	 7.166667e+00	 6.500000e+00	 1.008720e+01
2	 7.166667e+00	 6.583333e+00	 1.008424e+01
2	 7.166667e+00	 6.666667e+00	 1.008126e+01
2	 7.250000e+00	 6.250000e+00	 1.009202e+01
2	 7.250000e+00	 6.333333e+00	 1.008924e+01
2	 7.250000e+00	 6.416667e+00	 1.008646e+01
2	 7.250000e+00	 6.500000e+00	 1.008367e+01
2	 7.250000e+00	 6.583333e+00	 1.008086e+01
2	 7.250000e+00	 6.666667e+00	 1.007803e+01
2	 7.333333e+00	 6.250000e+00	 1.008798e+01
2	 7.333333e+00	 6.333333e+00	 1.008537e+01
2	 7.333333e+00	 6.416667e+00	 1.008275e+01
2	 7.333333e+00	 6.500000e+00	 1.008011e+01
2	 7.333333e+00	 6.583333e+00	 1.007746e+01
2	 7.333333e+00	 6.666667e+00	 1.007478e+01
2	 7.416667e+00	 6.250000e+00	 1.008394e+01
2	 7.416667e+00	 6.333333e+00	 1.008149e+01
2	 7.416667e+00	 6.416667e+00	 1.007903e+01
2	 7.416667e+00	 6.500000e+00	 1.007655e+01
2	 7.416667e+00	 6.583333e+00	 1.007405e+01
2	 7.416667e+00	 6.666667e+00	 1.007152e+01
2	 7.500000e+00	 6.250000e+00	 1.007991e+01
2	 7.500000e+00	 6.333333e+00	 1.007762e+01
2	 7.500000e+00	 6.416667e+00	 1.007532e+01
2	 7.500000e+00	 6.500000e+00	 1.007299e+01
2	 7.500000e+00	 6.583333e+00	 1.007064e+01
2	 7.500000e+00	 6.666667e+00	 1.006826e+01
2	 7.083333e+00	 6.666667e+00	 1.008446e+01
2	 7.083333e+00	 6.750000e+00	 1.008134e+01
2	 7.083333e+00	 6.833333e+00	 1.007823e+01
2	 7.083333e+00	 6.916667e+00	 1.007513e+01
2	 7.083333e+00	 7.000000e+00	 1.007205e+01
2	 7.083333e+00	 7.083333e+00	 1.006897e+01
2	 7.166667e+00	 6.666667e+00	 1.008126e+01
2	 7.166667e+00	 6.750000e+00	 1.007828e+01
2	 7.166667e+00	 6.833333e+00	 1.007532e+01
2	 7.166667e+00	 6.916667e+00	 1.007236e+01
2	 7.166667e+00	 7.000000e+00	 1.006941e+01
2	 7.166667e+00	 7.083333e+00	 1.006647e+01
2	 7.250000e+00	 6.666667e+00	 1.007803e+01
2	 7.250000e+00	 6.750000e+00	 1.007520e+01
2	 7.250000e+00	 6.833333e+00	 1.007238e+01
2	 7.250000e+00	 6.916667e+00	 1.006956e+01
2	 7.250000e+00	 7.000000e+00	 1.006675e+01
2	 7.250000e+00	 7.083333e+00	 1.006394e+01
2	 7.333333e+00	 6.666667e+00	 1.007478e+01
2	 7.333333e+00	 6.750000e+00	 1.007209e+01
2	 7.333333e+00	 6.833333e+00	 1.006942e+01
2	 7.333333e+00	 6.916667e+00	 1.006674e+01
2	 7.333333e+00	 7.000000e+00	 1.006407e+01
2	 7.333333e+00	 7.083333e+00	 1.006139e+01
2	 7.416667e+00	 6.666667e+00	 1.007152e+01
2	 7.416667e+00	 6.750000e+00	 1.006898e+01
2	 7.416667e+00	 6.833333e+00	 1.006645e+01
2	 7.416667e+00	 6.916667e+00	 1.006391e+01
2	 7.416667e+00	 7.000000e+00	 1.006138e+01
2	 7.416667e+00	 7.083333e+00	 1.005883e+01
2	 7.500000e+00	 6.666667e+00	 1.006826e+01
2	 7.500000e+00	 6.750000e+00	 1.006587e+01
2	 7.500000e+00	 6.833333e+00	 1.006348e+01
2	 7.500000e+00	 6.916667e+00	 1.006108e+01
2	 7.500000e+00	 7.000000e+00	 1.005868e+01
2	 7.500000e+00	 7.083333e+00	 1.005627e+01
2	 7.083333e+00	 7.083333e+00	 1.006897e+01
2	 7.083333e+00	 7.166667e+00	 1.006591e+01
2	 7.083333e+00	 7.250000e+00	 1.006289e+01
2	 7.083333e+00	 7.333333e+00	 1.005990e+01
2	 7.083333e+00	 7.416667e+00	 1.005693e+01
2	 7.083333e+00	 7.500000e+00	 1.005399e+01
2	 7.166667e+00	 7.083333e+00	 1.006647e+01
2	 7.166667e+00	 7.166667e+00	 1.006354e+01
2	 7.166667e+00	 7.250000e+00	 1.006065e+01
2	 7.166667e+00	 7.333333e+00	 1.005778e+01
2	 7.166667e+00	 7.416667e+00	 1.005493e+01
2	 7.166667e+00	 7.500000e+00	 1.005211e+01
2	 7.250000e+00	 7.083333e+00	 1.006394e+01
2	 7.250000e+00	 7.166667e+00	 1.006114e+01
2	 7.250000e+00	 7.250000e+00	 1.005838e+01
2	 7.250000e+00	 7.333333e+00	 1.005563e+01
2	 7.250000e+00	 7.416667e+00	 1.005291e+01
2	 7.250000e+00	 7.500000e+00	 1.005020e+01
2	 7.333333e+00	 7.083333e+00	 1.006139e+01
2	 7.333333e+00	 7.166667e+00	 1.005873e+01
2	 7.333333e+00	 7.250000e+00	 1.005609e+01
2	 7.333333e+00	 7.333333e+00	 1.005347e+01
2	 7.333333e+00	 7.416667e+00	 1.005086e+01
2	 7.333333e+00	 7.500000e+00	 1.004827e+01
2	 7.416667e+00	 7.083333e+00	 1.005883e+01
2	 7.416667e+00	 7.166667e+00	 1.005630e+01
2	 7.416667e+00	 7.250000e+00	 1.005378e+01
2	 7.416667e+00	 7.333333e+00	 1.005129e+01
2	 7.416667e+00	 7.416667e+00	 1.004881e+01
2	 7.416667e+00	 7.500000e+00	 1.004633e+01
2	 7.500000e+00	 7.083333e+00	 1.005627e+01
2	 7.500000e+00	 7.166667e+00	 1.005387e+01
2	 7.500000e+00	 7.250000e+00	 1.005148e+01
2	 7.500000e+00	 7.333333e+00	 1.004911e+01
2	 7.500000e+00	 7.416667e+00	 1.004675e+01
2	 7.500000e+00	 7.500000e+00	 1.004439e+01
2	 7.083333e+00	 7.500000e+00	 1.005399e+01
2	 7.083333e+00	 7.583333e+00	 1.005109e+01
2	 7.083333e+00	 7.666667e+00	 1.004824e+01
2	 7.083333e+00	 7.750000e+00	 1.004544e+01
2	 7.083333e+00	 7.833333e+00	 1.004268e+01
2	 7.083333e+00	 7.916667e+00	 1.003996e+01
2	 7.166667e+00	 7.500000e+00	 1.005211e+01
2	 7.166667e+00	 7.583333e+00	 1.004932e+01
2	 7.166667e+00	 7.666667e+00	 1.004658e+01
2	 7.166667e+00	 7.750000e+00	 1.004388e+01
2	 7.166667e+00	 7.833333e+00	 1.004122e+01
2	 7.166667e+00	 7.916667e+00	 1.003860e+01
2	 7.250000e+00	 7.500000e+00	 1.005020e+01
2	 7.250000e+00	 7.583333e+00	 1.004752e+01
2	 7.250000e+00	 7.666667e+00	 1.004489e+01
2	 7.250000e+00	 7.750000e+00	 1.004230e+01
2	 7.250000e+00	 7.833333e+00	 1.003975e+01
2	 7.250000e+00	 7.916667e+00	 1.003723e+01
2	 7.333333e+00	 7.500000e+00	 1.004827e+01
2	 7.333333e+00	 7.583333e+00	 1.004571e+01
2	 7.333333e+00	 7.666667e+00	 1.004319e+01
2	 7.333333e+00	 7.750000e+00	 1.004070e+01
2	 7.333333e+00	 7.833333e+00	 1.003826e+01
2	 7.333333e+00	 7.916667e+00	 1.003583e+01
2	 7.416667e+00	 7.500000e+00	 1.004633e+01
2	 7.416667e+00	 7.583333e+00	 1.004388e+01
2	 7.416667e+00	 7.666667e+00	 1.004147e+01
2	 7.416667e+00	 7.750000e+00	 1.003910e+01
2	 7.416667e+00	 7.833333e+00	 1.003675e+01
2	 7.416667e+00	 7.916667e+00	 1.003443e+01
2	 7.500000e+00	 7.500000e+00	 1.004439e+01
2	 7.500000e+00	 7.583333e+00	 1.004206e+01
2	 7.500000e+00	 7.666667e+00	 1.003976e+01
2	 7.500000e+00	 7.750000e+00	 1.003749e+01
2	 7.500000e+00	 7.833333e+00	 1.003525e+01
2	 7.500000e+00	 7.916667e+00	 1.003303e+01
2	 7.083333e+00	 7.916667e+00	 1.003996e+01
2	 7.083333e+00	 8.000000e+00	 1.003729e+01
2	 7.083333e+00	 8.083333e+00	 1.003469e+01
2	 7.083333e+00	 8.166667e+00	 1.003216e+01
2	 7.083333e+00	 8.250000e+00	 1.002969e+01
2	 7.083333e+00	 8.333333e+00	 1.002727e+01
2	 7.166667e+00	 7.916667e+00	 1.003860e+01
2	 7.166667e+00	 8.000000e+00	 1.003603e+01
2	 7.166667e+00	 8.083333e+00	 1.003353e+01
2	 7.166667e+00	 8.166667e+00	 1.003108e+01
2	 7.166667e+00	 8.250000e+00	 1.002869e+01
2	 7.166667e+00	 8.333333e+00	 1.002636e+01
2	 7.250000e+00	 7.916667e+00	 1.003723e+01
2	 7.250000e+00	 8.000000e+00	 1.003475e+01
2	 7.250000e+00	 8.083333e+00	 1.003234e+01
2	 7.250000e+00	 8.166667e+00	 1.002999e+01
2	 7.250000e+00	 8.250000e+00	 1.002769e+01
2	 7.250000e+00	 8.333333e+00	 1.002544e+01
2	 7.333333e+00	 7.916667e+00	 1.003583e+01
2	 7.333333e+00	 8.000000e+00	 1.003346e+01
2	 7.333333e+00	 8.083333e+00	 1.003114e+01
2	 7.333333e+00	 8.166667e+00	 1.002888e+01
2	 7.333333e+00	 8.250000e+00	 1.002667e+01
2	 7.333333e+00	 8.333333e+00	 1.002450e+01
2	 7.416667e+00	 7.916667e+00	 1.003443e+01
2	 7.416667e+00	 8.000000e+00	 1.003216e+01
2	 7.416667e+00	 8.083333e+00	 1.002993e+01
2	 7.416667e+00	 8.166667e+00	 1.002776e+01
2	 7.416667e+00	 8.250000e+00	 1.002564e+01
2	 7.416667e+00	 8.333333e+00	 1.002356e+01
2	 7.500000e+00	 7.916667e+00	 1.003303e+01
2	 7.500000e+00	 8.000000e+00	 1.003085e+01
2	 7.500000e+00	 8.083333e+00	 1.002873e+01
2	 7.500000e+00	 8.166667e+00	 1.002665e+01
2	 7.500000e+00	 8.250000e+00	 1.002461e+01
2	 7.500000e+00	 8.333333e+00	 1.002262e+01
2	 7.083333e+00	 8.333333e+00	 1.002727e+01
2	 7.083333e+00	 8.416667e+00	 1.002492e+01
2	 7.083333e+00	 8.500000e+00	 1.002266e+01
2	 7.083333e+00	 8.583333e+00	 1.002049e+01
2	 7.083333e+00	 8.666667e+00	 1.001839e+01
2	 7.083333e+00	 8.750000e+00	 1.001637e+01
2	 7.166667e+00	 8.333333e+00	 1.002636e+01
2	 7.166667e+00	 8.416667e+00	 1.002409e+01
2	 7.166667e+00	 8.500000e+00	 1.002191e+01
2	 7.166667e+00	 8.583333e+00	 1.001981e+01
2	 7.166667e+00	 8.666667e+00	 1.001778e+01
2	 7.166667e+00	 8.750000e+00	 1.001583e+01
2	 7.250000e+00	 8.333333e+00	 1.002544e+01
2	 7.250000e+00	 8.416667e+00	 1.002325e+01
2	 7.250000e+00	 8.500000e+00	 1.002115e+01
2	 7.250000e+00	 8.583333e+00	 1.001912e+01
2	 7.250000e+00	 8.666667e+00	 1.001716e+01
2	 7.250000e+00	 8.750000e+00	 1.001527e+01
2	 7.333333e+00	 8.333333e+00	 1.002450e+01
2	 7.333333e+00	 8.416667e+00	 1.002240e+01
2	 7.333333e+00	 8.500000e+00	 1.002037e+01
2	 7.333333e+00	 8.583333e+00	 1.001842e+01
2	 7.333333e+00	 8.666667e+00	 1.001654e+01
2	 7.333333e+00	 8.750000e+00	 1.001472e+01
2	 7.416667e+00	 8.333333e+00	 1.002356e+01
2	 7.416667e+00	 8.416667e+00	 1.002154e+01
2	 7.416667e+00	 8.500000e+00	 1.001959e+01
2	 7.416667e+00	 8.583333e+00	 1.001772e+01
2	 7.416667e+00	 8.666667e+00	 1.001591e+01
2	 7.416667e+00	 8.750000e+00	 1.001416e+01
2	 7.500000e+00	 8.333333e+00	 1.002262e+01
2	 7.500000e+00	 8.416667e+00	 1.002068e+01
2	 7.500000e+00	 8.500000e+00	 1.001881e+01
2	 7.500000e+00	 8.583333e+00	 1.001701e+01
2	 7.500000e+00	 8.666667e+00	 1.001528e+01
2	 7.500000e+00	 8.750000e+00	 1.001360e+01
2	 7.083333e+00	 8.750000e+00	 1.001637e+01
2	 7.083333e+00	 8.833333e+00	 1.001444e+01
2	 7.083333e+00	 8.916667e+00	 1.001262e+01
2	 7.083333e+00	 9.000000e+00	 1.001090e+01
2	 7.083333e+00	 9.083333e+00	 1.000929e+01
2	 7.083333e+00	 9.166667e+00	 1.000777e+01
2	 7.166667e+00	 8.750000e+00	 1.001583e+01
2	 7.166667e+00	 8.833333e+00	 1.001396e+01
2	 7.166667e+00	 8.916667e+00	 1.001220e+01
2	 7.166667e+00	 9.000000e+00	 1.001054e+01
2	 7.166667e+00	 9.083333e+00	 1.000898e+01
2	 7.166667e+00	 9.166667e+00	 1.000751e+01
2	 7.250000e+00	 8.750000e+00	 1.001527e+01
2	 7.250000e+00	 8.833333e+00	 1.001347e+01
2	 7.250000e+00	 8.916667e+00	 1.001177e+01
2	 7.250000e+00	 9.000000e+00	 1.001017e+01
2	 7.250000e+00	 9.083333e+00	 1.000867e+01
2	 7.250000e+00	 9.166667e+00	 1.000725e+01
2	 7.333333e+00	 8.750000e+00	 1.001472e+01
2	 7.333333e+00	 8.833333e+00	 1.001298e+01
2	 7.333333e+00	 8.916667e+00	 1.001134e+01
2	 7.333333e+00	 9.000000e+00	 1.000980e+01
2	 7.333333e+00	 9.083333e+00	 1.000835e+01
2	 7.333333e+00	 9.166667e+00	 1.000698e+01
2	 7.416667e+00	 8.750000e+00	 1.001416e+01
2	 7.416667e+00	 8.833333e+00	 1.001248e+01
2	 7.416667e+00	 8.916667e+00	 1.001091e+01
2	 7.416667e+00	 9.000000e+00	 1.000943e+01
2	 7.416667e+00	 9.083333e+00	 1.000803e+01
2	 7.416667e+00	 9.166667e+00	 1.000671e+01
2	 7.500000e+00	 8.750000e+00	 1.001360e+01
2	 7.500000e+00	 8.833333e+00	 1.001199e+01
2	 7.500000e+00	 8.916667e+00	 1.001048e+01
2	 7.500000e+00	 9.000000e+00	 1.000905e+01
2	 7.500000e+00	 9.083333e+00	 1.000771e+01
2	 7.500000e+00	 9.166667e+00	 1.000645e+01
2	 7.083333e+00	 9.166667e+00	 1.000777e+01
2	 7.083333e+00	 9.250000e+00	 1.000636e+01
2	 7.083333e+00	 9.333333e+00	 1.000510e+01
2	 7.083333e+00	 9.416667e+00	 1.000397e+01
2	 7.083333e+00	 9.500000e+00	 1.000296e+01
2	 7.083333e+00	 9.583333e+00	 1.000208e+01
2	 7.166667e+00	 9.166667e+00	 1.000751e+01
2	 7.166667e+00	 9.250000e+00	 1.000615e+01
2	 7.166667e+00	 9.333333e+00	 1.000493e+01
2	 7.166667e+00	 9.416667e+00	 1.000384e+01
2	 7.166667e+00	 9.500000e+00	 1.000286e+01
2	 7.166667e+00	 9.583333e+00	 1.000201e+01
2	 7.250000e+00	 9.166667e+00	 1.000725e+01
2	 7.250000e+00	 9.250000e+00	 1.000593e+01
2	 7.250000e+00	 9.333333e+00	 1.000475e+01
2	 7.250000e+00	 9.416667e+00	 1.000370e+01
2	 7.250000e+00	 9.500000e+00	 1.000276e+01
2	 7.250000e+00	 9.583333e+00	 1.000194e+01
2	 7.333333e+00	 9.166667e+00	 1.000698e+01
2	 7.333333e+00	 9.250000e+00	 1.000571e+01
2	 7.333333e+00	 9.333333e+00	 1.000458e+01
2	 7.333333e+00	 9.416667e+00	 1.000356e+01
2	 7.333333e+00	 9.500000e+00	 1.000266e+01
2	 7.333333e+00	 9.583333e+00	 1.000186e+01
2	 7.416667e+00	 9.166667e+00	 1.000671e+01
2	 7.416667e+00	 9.250000e+00	 1.000549e+01
2	 7.416667e+00	 9.333333e+00	 1.000440e+01
2	 7.416667e+00	 9.416667e+00	 1.000342e+01
2	 7.416667e+00	 9.500000e+00	 1.000255e+01
2	 7.416667e+00	 9.583333e+00	 1.000179e+01
2	 7.500000e+00	 9.166667e+00	 1.000645e+01
2	 7.500000e+00	 9.250000e+00	 1.000528e+01
2	 7.500000e+00	 9.333333e+00	 1.000423e+01
2	 7.500000e+00	 9.416667e+00	 1.000329e+01
2	 7.500000e+00	 9.500000e+00	 1.000245e+01
2	 7.500000e+00	 9.583333e+00	 1.000172e+01
2	 7.083333e+00	 9.583333e+00	 1.000208e+01
2	 7.083333e+00	 9.666667e+00	 1.000133e+01
2	 7.083333e+00	 9.750000e+00	 1.000076e+01
2	 7.083333e+00	 9.833333e+00	 1.000035e+01
2	 7.083333e+00	 9.916667e+00	 1.000009e+01
2	 7.083333e+00	 1.000000e+01	 9.999982e+00
2	 7.166667e+00	 9.583333e+00	 1.000201e+01
2	 7.166667e+00	 9.666667e+00	 1.000129e+01
2	 7.166667e+00	 9.750000e+00	 1.000074e+01
2	 7.166667e+00	 9.833333e+00	 1.000034e+01
2	 7.166667e+00	 9.916667e+00	 1.000009e+01
2	 7.166667e+00	 1.000000e+01	 9.999986e+00
2	 7.250000e+00	 9.583333e+00	 1.000194e+01
2	 7.250000e+00	 9.666667e+00	 1.000124e+01
2	 7.250000e+00	 9.750000e+00	 1.000071e+01
2	 7.250000e+00	 9.833333e+00	 1.000033e+01
2	 7.250000e+00	 9.916667e+00	 1.000009e+01
2	 7.250000e+00	 1.000000e+01	 9.999985e+00
2	 7.333333e+00	 9.583333e+00	 1.000186e+01
2	 7.333333e+00	 9.666667e+00	 1.000119e+01
2	 7.333333e+00	 9.750000e+00	 1.000068e+01
2	 7.333333e+00	 9.833333e+00	 1.000031e+01
2	 7.333333e+00	 9.916667e+00	 1.000008e+01
2	 7.333333e+00	 1.000000e+01	 9.999983e+00
2	 7.416667e+00	 9.583333e+00	 1.000179e+01
2	 7.416667e+00	 9.666667e+00	 1.000115e+01
2	 7.416667e+00	 9.750000e+00	 1.000065e+01
2	 7.416667e+00	 9.833333e+00	 1.000030e+01
2	 7.416667e+00	 9.916667e+00	 1.000008e+01
2	 7.416667e+00	 1.000000e+01	 9.999982e+00
2	 7.500000e+00	 9.583333e+00	 1.000172e+01
2	 7.500000e+00	 9.666667e+00	 1.000110e+01
2	 7.500000e+00	 9.750000e+00	 1.000063e+01
2	 7.500000e+00	 9.833333e+00	 1.000029e+01
2	 7.500000e+00	 9.916667e+00	 1.000008e+01
2	 7.500000e+00	 1.000000e+01	 9.999986e+00
2	 7.500000e+00	 5.000000e+00	 1.010781e+01
2	 7.500000e+00	 5.083333e+00	 1.010646e+01
2	 7.500000e+00	 5.166667e+00	 1.010503e+01
2	 7.500000e+00	 5.250000e+00	 1.010351e+01
2	 7.500000e+00	 5.333333e+00	 1.010191e+01
2	 7.500000e+00	 5.416667e+00	 1.010022e+01
2	 7.583333e+00	 5.000000e+00	 1.010117e+01
2	 7.583333e+00	 5.083333e+00	 1.010000e+01
2	 7.583333e+00	 5.166667e+00	 1.009875e+01
2	 7.583333e+00	 5.250000e+00	 1.009742e+01
2	 7.583333e+00	 5.333333e+00	 1.009600e+01
2	 7.583333e+00	 5.416667e+00	 1.009448e+01
2	 7.666667e+00	 5.000000e+00	 1.009459e+01
2	 7.666667e+00	 5.083333e+00	 1.009360e+01
2	 7.666667e+00	 5.166667e+00	 1.009253e+01
2	 7.666667e+00	 5.250000e+00	 1.009137e+01
2	 7.666667e+00	 5.333333e+00	 1.009013e+01
2	 7.666667e+00	 5.416667e+00	 1.008879e+01
2	 7.750000e+00	 5.000000e+00	 1.008806e+01
2	 7.750000e+00	 5.083333e+00	 1.008725e+01
2	 7.750000e+00	 5.166667e+00	 1.008636e+01
2	 7.750000e+00	 5.250000e+00	 1.008538e+01
2	 7.750000e+00	 5.333333e+00	 1.008431e+01
2	 7.750000e+00	 5.416667e+00	 1.008314e+01
2	 7.833333e+00	 5.000000e+00	 1.008161e+01
2	 7.833333e+00	 5.083333e+00	 1.008097e+01
2	 7.833333e+00	 5.166667e+00	 1.008025e+01
2	 7.833333e+00	 5.250000e+00	 1.007944e+01
2	 7.833333e+00	 5.333333e+00	 1.007855e+01
2	 7.833333e+00	 5.416667e+00	 1.007756e+01
2	 7.916667e+00	 5.000000e+00	 1.007523e+01
2	 7.916667e+00	 5.083333e+00	 1.007477e+01
2	 7.916667e+00	 5.166667e+00	 1.007422e+01
2	 7.916667e+00	 5.250000e+00	 1.007358e+01
2	 7.916667e+00	 5.333333e+00	 1.007285e+01
2	 7.916667e+00	 5.416667e+00	 1.007204e+01
2	 7.500000e+00	 5.416667e+00	 1.010022e+01
2	 7.500000e+00	 5.500000e+00	 1.009845e+01
2	 7.500000e+00	 5.583333e+00	 1.009662e+01
2	 7.500000e+00	 5.666667e+00	 1.009473e+01
2	 7.500000e+00	 5.750000e+00	 1.009277e+01
2	 7.500000e+00	 5.833333e+00	 1.009074e+01
2	 7.583333e+00	 5.416667e+00	 1.009448e+01
2	 7.583333e+00	 5.500000e+00	 1.009289e+01
2	 7.583333e+00	 5.583333e+00	 1.009124e+01
2	 7.583333e+00	 5.666667e+00	 1.008953e+01
2	 7.583333e+00	 5.750000e+00	 1.008774e+01
2	 7.583333e+00	 5.833333e+00	 1.008589e+01
2	 7.666667e+00	 5.416667e+00	 1.008879e+01
2	 7.666667e+00	 5.500000e+00	 1.008738e+01
2	 7.666667e+00	 5.583333e+00	 1.008590e+01
2	 7.666667e+00	 5.666667e+00	 1.008436e+01
2	 7.666667e+00	 5.750000e+00	 1.008275e+01
2	 7.666667e+00	 5.833333e+00	 1.008106e+01
2	 7.750000e+00	 5.416667e+00	 1.008314e+01
2	 7.750000e+00	 5.500000e+00	 1.008190e+01
2	 7.750000e+00	 5.583333e+00	 1.008060e+01
2	 7.750000e+00	 5.666667e+00	 1.007923e+01
2	 7.750000e+00	 5.750000e+00	 1.007779e+01
2	 7.750000e+00	 5.833333e+00	 1.007627e+01
2	 7.833333e+00	 5.416667e+00	 1.007756e+01
2	 7.833333e+00	 5.500000e+00	 1.007649e+01
2	 7.833333e+00	 5.583333e+00	 1.007535e+01
2	 7.833333e+00	 5.666667e+00	 1.007415e+01
2	 7.833333e+00	 5.750000e+00	 1.007288e+01
2	 7.833333e+00	 5.833333e+00	 1.007152e+01
2	 7.916667e+00	 5.416667e+00	 1.007204e+01
2	 7.916667e+00	 5.500000e+00	 1.007114e+01
2	 7.916667e+00	 5.583333e+00	 1.007017e+01
2	 7.916667e+00	 5.666667e+00	 1.006913e+01
2	 7.916667e+00	 5.750000e+00	 1.006802e+01
2	 7.916667e+00	 5.833333e+00	 1.006683e+01
2	 7.500000e+00	 5.833333e+00	 1.009074e+01
2	 7.500000e+00	 5.916667e+00	 1.008865e+01
2	 7.500000e+00	 6.000000e+00	 1.008653e+01
2	 7.500000e+00	 6.083333e+00	 1.008437e+01
2	 7.500000e+00	 6.166667e+00	 1.008216e+01
2	 7.500000e+00	 6.250000e+00	 1.007991e+01
2	 7.583333e+00	 5.833333e+00	 1.008589e+01
2	 7.583333e+00	 5.916667e+00	 1.008397e+01
2	 7.583333e+00	 6.000000e+00	 1.008202e+01
2	 7.583333e+00	 6.083333e+00	 1.008003e+01
2	 7.583333e+00	 6.166667e+00	 1.007798e+01
2	 7.583333e+00	 6.250000e+00	 1.007589e+01
2	 7.666667e+00	 5.833333e+00	 1.008106e+01
2	 7.666667e+00	 5.916667e+00	 1.007932e+01
2	 7.666667e+00	 6.000000e+00	 1.007753e+01
2	 7.666667e+00	 6.083333e+00	 1.007570e+01
2	 7.666667e+00	 6.166667e+00	 1.007382e+01
2	 7.666667e+00	 6.250000e+00	 1.007188e+01
2	 7.750000e+00	 5.833333e+00	 1.007627e+01
2	 7.750000e+00	 5.916667e+00	 1.007469e+01
2	 7.750000e+00	 6.000000e+00	 1.007307e+01
2	 7.750000e+00	 6.083333e+00	 1.007140e+01
2	 7.750000e+00	 6.166667e+00	 1.006968e+01
2	 7.750000e+00	 6.250000e+00	 1.006790e+01
2	 7.833333e+00	 5.833333e+00	 1.007152e+01
2	 7.833333e+00	 5.916667e+00	 1.007011e+01
2	 7.833333e+00	 6.000000e+00	 1.006865e+01
2	 7.833333e+00	 6.083333e+00	 1.006714e+01
2	 7.833333e+00	 6.166667e+00	 1.006558e+01
2	 7.833333e+00	 6.250000e+00	 1.006396e+01
2	 7.916667e+00	 5.833333e+00	 1.006683e+01
2	 7.916667e+00	 5.916667e+00	 1.006558e+01
2	 7.916667e+00	 6.000000e+00	 1.006428e+01
2	 7.916667e+00	 6.083333e+00	 1.006293e+01
2	 7.916667e+00	 6.166667e+00	 1.006152e+01
2	 7.916667e+00	 6.250000e+00	 1.006006e+01
2	 7.500000e+00	 6.250000e+00	 1.007991e+01
2	 7.500000e+00	 6.333333e+00	 1.007762e+01
2	 7.500000e+00	 6.416667e+00	 1.007532e+01
2	 7.500000e+00	 6.500000e+00	 1.007299e+01
2	 7.500000e+00	 6.583333e+00	 1.007064e+01
2	 7.500000e+00	 6.666667e+00	 1.006826e+01
2	 7.583333e+00	 6.250000e+00	 1.007589e+01
2	 7.583333e+00	 6.333333e+00	 1.007376e+01
2	 7.583333e+00	 6.416667e+00	 1.007161e+01
2	 7.583333e+00	 6.500000e+00	 1.006944e+01
2	 7.583333e+00	 6.583333e+00	 1.006724e+01
2	 7.583333e+00	 6.666667e+00	 1.006501e+01
2	 7.666667e+00	 6.250000e+00	 1.007188e+01
2	 7.666667e+00	 6.333333e+00	 1.006991e+01
2	 7.666667e+00	 6.416667e+00	 1.006792e+01
2	 7.666667e+00	 6.500000e+00	 1.006590e+01
2	 7.666667e+00	 6.583333e+00	 1.006385e+01
2	 7.666667e+00	 6.666667e+00	 1.006176e+01
2	 7.750000e+00	 6.250000e+00	 1.006790e+01
2	 7.750000e+00	 6.333333e+00	 1.006609e+01
2	 7.750000e+00	 6.416667e+00	 1.006425e+01
2	 7.750000e+00	 6.500000e+00	 1.006237e+01
2	 7.750000e+00	 6.583333e+00	 1.006047e+01
2	 7.750000e+00	 6.666667e+00	 1.005853e+01
2	 7.833333e+00	 6.250000e+00	 1.006396e+01
2	 7.833333e+00	 6.333333e+00	 1.006229e+01
2	 7.833333e+00	 6.416667e+00	 1.006060e+01
2	 7.833333e+00	 6.500000e+00	 1.005888e+01
2	 7.833333e+00	 6.583333e+00	 1.005712e+01
2	 7.833333e+00	 6.666667e+00	 1.005532e+01
2	 7.916667e+00	 6.250000e+00	 1.006006e+01
2	 7.916667e+00	 6.333333e+00	 1.005854e+01
2	 7.916667e+00	 6.416667e+00	 1.005700e+01
2	 7.916667e+00	 6.500000e+00	 1.005542e+01
2	 7.916667e+00	 6.583333e+00	 1.005381e+01
2	 7.916667e+00	 6.666667e+00	 1.005215e+01
2	 7.500000e+00	 6.666667e+00	 1.006826e+01
2	 7.500000e+00	 6.750000e+00	 1.006587e+01
2	 7.500000e+00	 6.833333e+00	 1.006348e+01
2	 7.500000e+00	 6.916667e+00	 1.006108e+01
2	 7.500000e+00	 7.000000e+00	 1.005868e+01
2	 7.500000e+00	 7.083333e+00	 1.005627e+01
2	 7.583333e+00	 6.666667e+00	 1.006501e+01
2	 7.583333e+00	 6.750000e+00	 1.006276e+01
2	 7.583333e+00	 6.833333e+00	 1.006051e+01
2	 7.583333e+00	 6.916667e+00	 1.005826e+01
2	 7.583333e+00	 7.000000e+00	 1.005599e+01
2	 7.583333e+00	 7.083333e+00	 1.005371e+01
2	 7.666667e+00	 6.666667e+00	 1.006176e+01
2	 7.666667e+00	 6.750000e+00	 1.005966e+01
2	 7.666667e+00	 6.833333e+00	 1.005755e+01
2	 7.666667e+00	 6.916667e+00	 1.005543e+01
2	 7.666667e+00	 7.000000e+00	 1.005330e+01
2	 7.666667e+00	 7.083333e+00	 1.005115e+01
2	 7.750000e+00	 6.666667e+00	 1.005853e+01
2	 7.750000e+00	 6.750000e+00	 1.005657e+01
2	 7.750000e+00	 6.833333e+00	 1.005460e+01
2	 7.750000e+00	 6.916667e+00	 1.005262e+01
2	 7.750000e+00	 7.000000e+00	 1.005062e+01
2	 7.750000e+00	 7.083333e+00	 1.004860e+01
2	 7.833333e+00	 6.666667e+00	 1.005532e+01
2	 7.833333e+00	 6.750000e+00	 1.005350e+01
2	 7.833333e+00	 6.833333e+00	 1.005167e+01
2	 7.833333e+00	 6.916667e+00	 1.004982e+01
2	 7.833333e+00	 7.000000e+00	 1.004796e+01
2	 7.833333e+00	 7.083333e+00	 1.004607e+01
2	 7.916667e+00	 6.666667e+00	 1.005215e+01
2	 7.916667e+00	 6.750000e+00	 1.005047e+01
2	 7.916667e+00	 6.833333e+00	 1.004877e+01
2	 7.916667e+00	 6.916667e+00	 1.004706e+01
2	 7.916667e+00	 7.000000e+00	 1.004532e+01
2	 7.916667e+00	 7.083333e+00	 1.004356e+01
2	 7.500000e+00	 7.083333e+00	 1.005627e+01
2	 7.500000e+00	 7.166667e+00	 1.005387e+01
2	 7.500000e+00	 7.250000e+00	 1.005148e+01
2	 7.500000e+00	 7.333333e+00	 1.004911e+01
2	 7.500000e+00	 7.416667e+00	 1.004675e+01
2	 7.500000e+00	 7.500000e+00	 1.004439e+01
2	 7.583333e+00	 7.083333e+00	 1.005371e+01
2	 7.583333e+00	 7.166667e+00	 1.005144e+01
2	 7.583333e+00	 7.250000e+00	 1.004918e+01
2	 7.583333e+00	 7.333333e+00	 1.004693e+01
2	 7.583333e+00	 7.416667e+00	 1.004468e+01
2	 7.583333e+00	 7.500000e+00	 1.004245e+01
2	 7.666667e+00	 7.083333e+00	 1.005115e+01
2	 7.666667e+00	 7.166667e+00	 1.004901e+01
2	 7.666667e+00	 7.250000e+00	 1.004687e+01
2	 7.666667e+00	 7.333333e+00	 1.004474e+01
2	 7.666667e+00	 7.416667e+00	 1.004262e+01
2	 7.666667e+00	 7.500000e+00	 1.004050e+01
2	 7.750000e+00	 7.083333e+00	 1.004860e+01
2	 7.750000e+00	 7.166667e+00	 1.004658e+01
2	 7.750000e+00	 7.250000e+00	 1.004457e+01
2	 7.750000e+00	 7.333333e+00	 1.004257e+01
2	 7.750000e+00	 7.416667e+00	 1.004056e+01
2	 7.750000e+00	 7.500000e+00	 1.003856e+01
2	 7.833333e+00	 7.083333e+00	 1.004607e+01
2	 7.833333e+00	 7.166667e+00	 1.004418e+01
2	 7.833333e+00	 7.250000e+00	 1.004229e+01
2	 7.833333e+00	 7.333333e+00	 1.004040e+01
2	 7.833333e+00	 7.416667e+00	 1.003852e+01
2	 7.833333e+00	 7.500000e+00	 1.003663e+01
2	 7.916667e+00	 7.083333e+00	 1.004356e+01
2	 7.916667e+00	 7.166667e+00	 1.004179e+01
2	 7.916667e+00	 7.250000e+00	 1.004003e+01
2	 7.916667e+00	 7.333333e+00	 1.003826e+01
2	 7.916667e+00	 7.416667e+00	 1.003649e+01
2	 7.916667e+00	 7.500000e+00	 1.003471e+01
2	 7.500000e+00	 7.500000e+00	 1.004439e+01
2	 7.500000e+00	 7.583333e+00	 1.004206e+01
2	 7.500000e+00	 7.666667e+00	 1.003976e+01
2	 7.500000e+00	 7.750000e+00	 1.003749e+01
2	 7.500000e+00	 7.833333e+00	 1.003525e+01
2	 7.500000e+00	 7.916667e+00	 1.003303e+01
2	 7.583333e+00	 7.500000e+00	 1.004245e+01
2	 7.583333e+00	 7.583333e+00	 1.004022e+01
2	 7.583333e+00	 7.666667e+00	 1.003804e+01
2	 7.583333e+00	 7.750000e+00	 1.003588e+01
2	 7.583333e+00	 7.833333e+00	 1.003374e+01
2	 7.583333e+00	 7.916667e+00	 1.003163e+01
2	 7.666667e+00	 7.500000e+00	 1.004050e+01
2	 7.666667e+00	 7.583333e+00	 1.003839e+01
2	 7.666667e+00	 7.666667e+00	 1.003631e+01
2	 7.666667e+00	 7.750000e+00	 1.003426e+01
2	 7.666667e+00	 7.833333e+00	 1.003223e+01
2	 7.666667e+00	 7.916667e+00	 1.003022e+01
2	 7.750000e+00	 7.500000e+00	 1.003856e+01
2	 7.750000e+00	 7.583333e+00	 1.003656e+01
2	 7.750000e+00	 7.666667e+00	 1.003460e+01
2	 7.750000e+00	 7.750000e+00	 1.003265e+01
2	 7.750000e+00	 7.833333e+00	 1.003072e+01
2	 7.750000e+00	 7.916667e+00	 1.002881e+01
2	 7.833333e+00	 7.500000e+00	 1.003663e+01
2	 7.833333e+00	 7.583333e+00	 1.003474e+01
2	 7.833333e+00	 7.666667e+00	 1.003289e+01
2	 7.833333e+00	 7.750000e+00	 1.003105e+01
2	 7.833333e+00	 7.833333e+00	 1.002922e+01
2	 7.833333e+00	 7.916667e+00	 1.002741e+01
2	 7.916667e+00	 7.500000e+00	 1.003471e+01
2	 7.916667e+00	 7.583333e+00	 1.003294e+01
2	 7.916667e+00	 7.666667e+00	 1.003119e+01
2	 7.916667e+00	 7.750000e+00	 1.002946e+01
2	 7.916667e+00	 7.833333e+00	 1.002773e+01
2	 7.916667e+00	 7.916667e+00	 1.002602e+01
2	 7.500000e+00	 7.916667e+00	 1.003303e+01
2	 7.500000e+00	 8.000000e+00	 1.003085e+01
2	 7.500000e+00	 8.083333e+00	 1.002873e+01
2	 7.500000e+00	 8.166667e+00	 1.002665e+01
2	 7.500000e+00	 8.250000e+00	 1.002461e+01
2	 7.500000e+00	 8.333333e+00	 1.002262e+01
2	 7.583333e+00	 7.916667e+00	 1.003163e+01
2	 7.583333e+00	 8.000000e+00	 1.002955e+01
2	 7.583333e+00	 8.083333e+00	 1.002751e+01
2	 7.583333e+00	 8.166667e+00	 1.002553e+01
2	 7.583333e+00	 8.250000e+00	 1.002358e+01
2	 7.583333e+00	 8.333333e+00	 1.002168e+01
2	 7.666667e+00	 7.916667e+00	 1.003022e+01
2	 7.666667e+00	 8.000000e+00	 1.002823e+01
2	 7.666667e+00	 8.083333e+00	 1.002630e+01
2	 7.666667e+00	 8.166667e+00	 1.002441e+01
2	 7.666667e+00	 8.250000e+00	 1.002255e+01
2	 7.666667e+00	 8.333333e+00	 1.002073e+01
2	 7.750000e+00	 7.916667e+00	 1.002881e+01
2	 7.750000e+00	 8.000000e+00	 1.002693e+01
2	 7.750000e+00	 8.083333e+00	 1.002509e+01
2	 7.750000e+00	 8.166667e+00	 1.002328e+01
2	 7.750000e+00	 8.250000e+00	 1.002152e+01
2	 7.750000e+00	 8.333333e+00	 1.001978e+01
2	 7.833333e+00	 7.916667e+00	 1.002741e+01
2	 7.833333e+00	 8.000000e+00	 1.002562e+01
2	 7.833333e+00	 8.083333e+00	 1.002388e+01
2	 7.833333e+00	 8.166667e+00	 1.002217e+01
2	 7.833333e+00	 8.250000e+00	 1.002049e+01
2	 7.833333e+00	 8.333333e+00	 1.001884e+01
2	 7.916667e+00	 7.916667e+00	 1.002602e+01
2	 7.916667e+00	 8.000000e+00	 1.002433e+01
2	 7.916667e+00	 8.083333e+00	 1.002268e+01
2	 7.916667e+00	 8.166667e+00	 1.002106e+01
2	 7.916667e+00	 8.250000e+00	 1.001947e+01
2	 7.916667e+00	 8.333333e+00	 1.001791e+01
2	 7.500000e+00	 8.333333e+00	 1.002262e+01
2	 7.500000e+00	 8.416667e+00	 1.002068e+01
2	 7.500000e+00	 8.500000e+00	 1.001881e+01
2	 7.500000e+00	 8.583333e+00	 1.001701e+01
2	 7.500000e+00	 8.666667e+00	 1.001528e+01
2	 7.500000e+00	 8.750000e+00	 1.001360e+01
2	 7.583333e+00	 8.333333e+00	 1.002168e+01
2	 7.583333e+00	 8.416667e+00	 1.001982e+01
2	 7.583333e+00	 8.500000e+00	 1.001803e+01
2	 7.583333e+00	 8.583333e+00	 1.001631e+01
2	 7.583333e+00	 8.666667e+00	 1.001465e+01
2	 7.583333e+00	 8.750000e+00	 1.001303e+01
2	 7.666667e+00	 8.333333e+00	 1.002073e+01
2	 7.666667e+00	 8.416667e+00	 1.001896e+01
2	 7.666667e+00	 8.500000e+00	 1.001725e+01
2	 7.666667e+00	 8.583333e+00	 1.001560e+01
2	 7.666667e+00	 8.666667e+00	 1.001401e+01
2	 7.666667e+00	 8.750000e+00	 1.001247e+01
2	 7.750000e+00	 8.333333e+00	 1.001978e+01
2	 7.750000e+00	 8.416667e+00	 1.001809e+01
2	 7.750000e+00	 8.500000e+00	 1.001646e+01
2	 7.750000e+00	 8.583333e+00	 1.001489e+01
2	 7.750000e+00	 8.666667e+00	 1.001338e+01
2	 7.750000e+00	 8.750000e+00	 1.001191e+01
2	 7.833333e+00	 8.333333e+00	 1.001884e+01
2	 7.833333e+00	 8.416667e+00	 1.001723e+01
2	 7.833333e+00	 8.500000e+00	 1.001568e+01
2	 7.833333e+00	 8.583333e+00	 1.001419e+01
2	 7.833333e+00	 8.666667e+00	 1.001274e+01
2	 7.833333e+00	 8.750000e+00	 1.001134e+01
2	 7.916667e+00	 8.333333e+00	 1.001791e+01
2	 7.916667e+00	 8.416667e+00	 1.001638e+01
2	 7.916667e+00	 8.500000e+00	 1.001491e+01
2	 7.916667e+00	 8.583333e+00	 1.001349e+01
2	 7.916667e+00	 8.666667e+00	 1.001212e+01
2	 7.916667e+00	 8.750000e+00	 1.001079e+01
2	 7.500000e+00	 8.750000e+00	 1.001360e+01
2	 7.500000e+00	 8.833333e+00	 1.001199e+01
2	 7.500000e+00	 8.916667e+00	 1.001048e+01
2	 7.500000e+00	 9.000000e+00	 1.000905e+01
2	 7.500000e+00	 9.083333e+00	 1.000771e+01
2	 7.500000e+00	 9.166667e+00	 1.000645e+01
2	 7.583333e+00	 8.750000e+00	 1.001303e+01
2	 7.583333e+00	 8.833333e+00	 1.001150e+01
2	 7.583333e+00	 8.916667e+00	 1.001005e+01
2	 7.583333e+00	 9.000000e+00	 1.000868e+01
2	 7.583333e+00	 9.083333e+00	 1.000740e+01
2	 7.583333e+00	 9.166667e+00	 1.000618e+01
2	 7.666667e+00	 8.750000e+00	 1.001247e+01
2	 7.666667e+00	 8.833333e+00	 1.001100e+01
2	 7.666667e+00	 8.916667e+00	 1.000961e+01
2	 7.666667e+00	 9.000000e+00	 1.000831e+01
2	 7.666667e+00	 9.083333e+00	 1.000707e+01
2	 7.666667e+00	 9.166667e+00	 1.000591e+01
2	 7.750000e+00	 8.750000e+00	 1.001191e+01
2	 7.750000e+00	 8.833333e+00	 1.001050e+01
2	 7.750000e+00	 8.916667e+00	 1.000918e+01
2	 7.750000e+00	 9.000000e+00	 1.000793e+01
2	 7.750000e+00	 9.083333e+00	 1.000675e+01
2	 7.750000e+00	 9.166667e+00	 1.000564e+01
2	 7.833333e+00	 8.750000e+00	 1.001134e+01
2	 7.833333e+00	 8.833333e+00	 1.001001e+01
2	 7.833333e+00	 8.916667e+00	 1.000874e+01
2	 7.833333e+00	 9.000000e+00	 1.000756e+01
2	 7.833333e+00	 9.083333e+00	 1.000644e+01
2	 7.833333e+00	 9.166667e+00	 1.000538e+01
2	 7.916667e+00	 8.750000e+00	 1.001079e+01
2	 7.916667e+00	 8.833333e+00	 1.000952e+01
2	 7.916667e+00	 8.916667e+00	 1.000832e+01
2	 7.916667e+00	 9.000000e+00	 1.000719e+01
2	 7.916667e+00	 9.083333e+00	 1.000612e+01
2	 7.916667e+00	 9.166667e+00	 1.000512e+01
2	 7.500000e+00	 9.166667e+00	 1.000645e+01
2	 7.500000e+00	 9.250000e+00	 1.000528e+01
2	 7.500000e+00	 9.333333e+00	 1.000423e+01
2	 7.500000e+00	 9.416667e+00	 1.000329e+01
2	 7.500000e+00	 9.500000e+00	 1.000245e+01
2	 7.500000e+00	 9.583333e+00	 1.000172e+01
2	 7.583333e+00	 9.166667e+00	 1.000618e+01
2	 7.583333e+00	 9.250000e+00	 1.000506e+01
2	 7.583333e+00	 9.333333e+00	 1.000405e+01
2	 7.583333e+00	 9.416667e+00	 1.000315e+01
2	 7.583333e+00	 9.500000e+00	 1.000235e+01
2	 7.583333e+00	 9.583333e+00	 1.000165e+01
2	 7.666667e+00	 9.166667e+00	 1.000591e+01
2	 7.666667e+00	 9.250000e+00	 1.000484e+01
2	 7.666667e+00	 9.333333e+00	 1.000388e+01
2	 7.666667e+00	 9.416667e+00	 1.000301e+01
2	 7.666667e+00	 9.500000e+00	 1.000225e+01
2	 7.666667e+00	 9.583333e+00	 1.000158e+01
2	 7.750000e+00	 9.166667e+00	 1.000564e+01
2	 7.750000e+00	 9.250000e+00	 1.000462e+01
2	 7.750000e+00	 9.333333e+00	 1.000370e+01
2	 7.750000e+00	 9.416667e+00	 1.000288e+01
2	 7.750000e+00	 9.500000e+00	 1.000214e+01
2	 7.750000e+00	 9.583333e+00	 1.000150e+01
2	 7.833333e+00	 9.166667e+00	 1.000538e+01
2	 7.833333e+00	 9.250000e+00	 1.000440e+01
2	 7.833333e+00	 9.333333e+00	 1.000352e+01
2	 7.833333e+00	 9.416667e+00	 1.000274e+01
2	 7.833333e+00	 9.500000e+00	 1.000204e+01
2	 7.833333e+00	 9.583333e+00	 1.000143e+01
2	 7.916667e+00	 9.166667e+00	 1.000512e+01
2	 7.916667e+00	 9.250000e+00	 1.000419e+01
2	 7.916667e+00	 9.333333e+00	 1.000335e+01
2	 7.916667e+00	 9.416667e+00	 1.000261e+01
2	 7.916667e+00	 9.500000e+00	 1.000194e+01
2	 7.916667e+00	 9.583333e+00	 1.000136e+01
2	 7.500000e+00	 9.583333e+00	 1.000172e+01
2	 7.500000e+00	 9.666667e+00	 1.000110e+01
2	 7.500000e+00	 9.750000e+00	 1.000063e+01
2	 7.500000e+00	 9.833333e+00	 1.000029e+01
2	 7.500000e+00	 9.916667e+00	 1.000008e+01
2	 7.500000e+00	 1.000000e+01	 9.999986e+00
2	 7.583333e+00	 9.583333e+00	 1.000165e+01
2	 7.583333e+00	 9.666667e+00	 1.000106e+01
2	 7.583333e+00	 9.750000e+00	 1.000061e+01
2	 7.583333e+00	 9.833333e+00	 1.000028e+01
2	 7.583333e+00	 9.916667e+00	 1.000008e+01
2	 7.583333e+00	 1.000000e+01	 9.999991e+00
2	 7.666667e+00	 9.583333e+00	 1.000158e+01
2	 7.666667e+00	 9.666667e+00	 1.000101e+01
2	 7.666667e+00	 9.750000e+00	 1.000058e+01
2	 7.666667e+00	 9.833333e+00	 1.000027e+01
2	 7.666667e+00	 9.916667e+00	 1.000007e+01
2	 7.666667e+00	 1.000000e+01	 9.999990e+00
2	 7.750000e+00	 9.583333e+00	 1.000150e+01
2	 7.750000e+00	 9.666667e+00	 1.000096e+01
2	 7.750000e+00	 9.750000e+00	 1.000055e+01
2	 7.750000e+00	 9.833333e+00	 1.000025e+01
2	 7.750000e+00	 9.916667e+00	 1.000007e+01
2	 7.750000e+00	 1.000000e+01	 9.999988e+00
2	 7.833333e+00	 9.583333e+00	 1.000143e+01
2	 7.833333e+00	 9.666667e+00	 1.000092e+01
2	 7.833333e+00	 9.750000e+00	 1.000052e+01
2	 7.833333e+00	 9.833333e+00	 1.000024e+01
2	 7.833333e+00	 9.916667e+00	 1.000006e+01
2	 7.833333e+00	 1.000000e+01	 9.999987e+00
2	 7.916667e+00	 9.583333e+00	 1.000136e+01
2	 7.916667e+00	 9.666667e+00	 1.000087e+01
2	 7.916667e+00	 9.750000e+00	 1.000050e+01
2	 7.916667e+00	 9.833333e+00	 1.000023e+01
2	 7.916667e+00	 9.916667e+00	 1.000006e+01
2	 7.916667e+00	 1.000000e+01	 9.999990e+00
2	 7.916667e+00	 5.000000e+00	 1.007523e+01
2	 7.916667e+00	 5.083333e+00	 1.007477e+01
2	 7.916667e+00	 5.166667e+00	 1.007422e+01
2	 7.916667e+00	 5.250000e+00	 1.007358e+01
2	 7.916667e+00	 5.333333e+00	 1.007285e+01
2	 7.916667e+00	 5.416667e+00	 1.007204e+01
2	 8.000000e+00	 5.000000e+00	 1.006894e+01
2	 8.000000e+00	 5.083333e+00	 1.006864e+01
2	 8.000000e+00	 5.166667e+00	 1.006826e+01
2	 8.000000e+00	 5.250000e+00	 1.006780e+01
2	 8.000000e+00	 5.333333e+00	 1.006724e+01
2	 8.000000e+00	 5.416667e+00	 1.006659e+01
2	 8.083333e+00	 5.000000e+00	 1.006273e+01
2	 8.083333e+00	 5.083333e+00	 1.006261e+01
2	 8.083333e+00	 5.166667e+00	 1.006239e+01
2	 8.083333e+00	 5.250000e+00	 1.006209e+01
2	 8.083333e+00	 5.333333e+00	 1.006170e+01
2	 8.083333e+00	 5.416667e+00	 1.006121e+01
2	 8.166667e+00	 5.000000e+00	 1.005662e+01
2	 8.166667e+00	 5.083333e+00	 1.005666e+01
2	 8.166667e+00	 5.166667e+00	 1.005661e+01
2	 8.166667e+00	 5.250000e+00	 1.005648e+01
2	 8.166667e+00	 5.333333e+00	 1.005625e+01
2	 8.166667e+00	 5.416667e+00	 1.005593e+01
2	 8.250000e+00	 5.000000e+00	 1.005062e+01
2	 8.250000e+00	 5.083333e+00	 1.005082e+01
2	 8.250000e+00	 5.166667e+00	 1.005094e+01
2	 8.250000e+00	 5.250000e+00	 1.005096e+01
2	 8.250000e+00	 5.333333e+00	 1.005090e+01
2	 8.250000e+00	 5.416667e+00	 1.005073e+01
2	 8.333333e+00	 5.000000e+00	 1.004473e+01
2	 8.333333e+00	 5.083333e+00	 1.004509e+01
2	 8.333333e+00	 5.166667e+00	 1.004537e+01
2	 8.333333e+00	 5.250000e+00	 1.004556e+01
2	 8.333333e+00	 5.333333e+00	 1.004565e+01
2	 8.333333e+00	 5.416667e+00	 1.004565e+01
2	 7.916667e+00	 5.416667e+00	 1.007204e+01
2	 7.916667e+00	 5.500000e+00	 1.007114e+01
2	 7.916667e+00	 5.583333e+00	 1.007017e+01
2	 7.916667e+00	 5.666667e+00	 1.006913e+01
2	 7.916667e+00	 5.750000e+00	 1.006802e+01
2	 7.916667e+00	 5.833333e+00	 1.006683e+01
2	 8.000000e+00	 5.416667e+00	 1.006659e+01
2	 8.000000e+00	 5.500000e+00	 1.006585e+01
2	 8.000000e+00	 5.583333e+00	 1.006505e+01
2	 8.000000e+00	 5.666667e+00	 1.006418e+01
2	 8.000000e+00	 5.750000e+00	 1.006323e+01
2	 8.000000e+00	 5.833333e+00	 1.006220e+01
2	 8.083333e+00	 5.416667e+00	 1.006121e+01
2	 8.083333e+00	 5.500000e+00	 1.006065e+01
2	 8.083333e+00	 5.583333e+00	 1.006001e+01
2	 8.083333e+00	 5.666667e+00	 1.005930e+01
2	 8.083333e+00	 5.750000e+00	 1.005851e+01
2	 8.083333e+00	 5.833333e+00	 1.005764e+01
2	 8.166667e+00	 5.416667e+00	 1.005593e+01
2	 8.166667e+00	 5.500000e+00	 1.005552e+01
2	 8.166667e+00	 5.583333e+00	 1.005504e+01
2	 8.166667e+00	 5.666667e+00	 1.005449e+01
2	 8.166667e+00	 5.750000e+00	 1.005386e+01
2	 8.166667e+00	 5.833333e+00	 1.005315e+01
2	 8.250000e+00	 5.416667e+00	 1.005073e+01
2	 8.250000e+00	 5.500000e+00	 1.005049e+01
2	 8.250000e+00	 5.583333e+00	 1.005017e+01
2	 8.250000e+00	 5.666667e+00	 1.004977e+01
2	 8.250000e+00	 5.750000e+00	 1.004930e+01
2	 8.250000e+00	 5.833333e+00	 1.004874e+01
2	 8.333333e+00	 5.416667e+00	 1.004565e+01
2	 8.333333e+00	 5.500000e+00	 1.004556e+01
2	 8.333333e+00	 5.583333e+00	 1.004540e+01
2	 8.333333e+00	 5.666667e+00	 1.004516e+01
2	 8.333333e+00	 5.750000e+00	 1.004483e+01
2	 8.333333e+00	 5.833333e+00	 1.004442e+01
2	 7.916667e+00	 5.833333e+00	 1.006683e+01
2	 7.916667e+00	 5.916667e+00	 1.006558e+01
2	 7.916667e+00	 6.000000e+00	 1.006428e+01
2	 7.916667e+00	 6.083333e+00	 1.006293e+01
2	 7.916667e+00	 6.166667e+00	 1.006152e+01
2	 7.916667e+00	 6.250000e+00	 1.006006e+01
2	 8.000000e+00	 5.833333e+00	 1.006220e+01
2	 8.000000e+00	 5.916667e+00	 1.006111e+01
2	 8.000000e+00	 6.000000e+00	 1.005997e+01
2	 8.000000e+00	 6.083333e+00	 1.005877e+01
2	 8.000000e+00	 6.166667e+00	 1.005752e+01
2	 8.000000e+00	 6.250000e+00	 1.005620e+01
2	 8.083333e+00	 5.833333e+00	 1.005764e+01
2	 8.083333e+00	 5.916667e+00	 1.005670e+01
2	 8.083333e+00	 6.000000e+00	 1.005572e+01
2	 8.083333e+00	 6.083333e+00	 1.005467e+01
2	 8.083333e+00	 6.166667e+00	 1.005357e+01
2	 8.083333e+00	 6.250000e+00	 1.005240e+01
2	 8.166667e+00	 5.833333e+00	 1.005315e+01
2	 8.166667e+00	 5.916667e+00	 1.005237e+01
2	 8.166667e+00	 6.000000e+00	 1.005153e+01
2	 8.166667e+00	 6.083333e+00	 1.005063e+01
2	 8.166667e+00	 6.166667e+00	 1.004968e+01
2	 8.166667e+00	 6.250000e+00	 1.004866e+01
2	 8.250000e+00	 5.833333e+00	 1.004874e+01
2	 8.250000e+00	 5.916667e+00	 1.004811e+01
2	 8.250000e+00	 6.000000e+00	 1.004742e+01
2	 8.250000e+00	 6.083333e+00	 1.004667e+01
2	 8.250000e+00	 6.166667e+00	 1.004586e+01
2	 8.250000e+00	 6.250000e+00	 1.004498e+01
2	 8.333333e+00	 5.833333e+00	 1.004442e+01
2	 8.333333e+00	 5.916667e+00	 1.004394e+01
2	 8.333333e+00	 6.000000e+00	 1.004340e+01
2	 8.333333e+00	 6.083333e+00	 1.004280e+01
2	 8.333333e+00	 6.166667e+00	 1.004213e+01
2	 8.333333e+00	 6.250000e+00	 1.004139e+01
2	 7.916667e+00	 6.250000e+00	 1.006006e+01
2	 7.916667e+00	 6.333333e+00	 1.005854e+01
2	 7.916667e+00	 6.416667e+00	 1.005700e+01
2	 7.916667e+00	 6.500000e+00	 1.005542e+01
2	 7.916667e+00	 6.583333e+00	 1.005381e+01
2	 7.916667e+00	 6.666667e+00	 1.005215e+01
2	 8.000000e+00	 6.250000e+00	 1.005620e+01
2	 8.000000e+00	 6.333333e+00	 1.005484e+01
2	 8.000000e+00	 6.416667e+00	 1.005344e+01
2	 8.000000e+00	 6.500000e+00	 1.005201e+01
2	 8.000000e+00	 6.583333e+00	 1.005053e+01
2	 8.000000e+00	 6.666667e+00	 1.004902e+01
2	 8.083333e+00	 6.250000e+00	 1.005240e+01
2	 8.083333e+00	 6.333333e+00	 1.005118e+01
2	 8.083333e+00	 6.416667e+00	 1.004993e+01
2	 8.083333e+00	 6.500000e+00	 1.004864e+01
2	 8.083333e+00	 6.583333e+00	 1.004730e+01
2	 8.083333e+00	 6.666667e+00	 1.004592e+01
2	 8.166667e+00	 6.250000e+00	 1.004866e+01
2	 8.166667e+00	 6.333333e+00	 1.004758e+01
2	 8.166667e+00	 6.416667e+00	 1.004647e+01
2	 8.166667e+00	 6.500000e+00	 1.004532e+01
2	 8.166667e+00	 6.583333e+00	 1.004412e+01
2	 8.166667e+00	 6.666667e+00	 1.004287e+01
2	 8.250000e+00	 6.250000e+00	 1.004498e+01
2	 8.250000e+00	 6.333333e+00	 1.004405e+01
2	 8.250000e+00	 6.416667e+00	 1.004308e+01
2	 8.250000e+00	 6.500000e+00	 1.004206e+01
2	 8.250000e+00	 6.583333e+00	 1.004099e+01
2	 8.250000e+00	 6.666667e+00	 1.003987e+01
2	 8.333333e+00	 6.250000e+00	 1.004139e+01
2	 8.333333e+00	 6.333333e+00	 1.004060e+01
2	 8.333333e+00	 6.416667e+00	 1.003976e+01
2	 8.333333e+00	 6.500000e+00	 1.003887e+01
2	 8.333333e+00	 6.583333e+00	 1.003793e+01
2	 8.333333e+00	 6.666667e+00	 1.003694e+01
2	 7.916667e+00	 6.666667e+00	 1.005215e+01
2	 7.916667e+00	 6.750000e+00	 1.005047e+01
2	 7.916667e+00	 6.833333e+00	 1.004877e+01
2	 7.916667e+00	 6.916667e+00	 1.004706e+01
2	 7.916667e+00	 7.000000e+00	 1.004532e+01
2	 7.916667e+00	 7.083333e+00	 1.004356e+01
2	 8.000000e+00	 6.666667e+00	 1.004902e+01
2	 8.000000e+00	 6.750000e+00	 1.004747e+01
2	 8.000000e+00	 6.833333e+00	 1.004590e+01
2	 8.000000e+00	 6.916667e+00	 1.004432e+01
2	 8.000000e+00	 7.000000e+00	 1.004271e+01
2	 8.000000e+00	 7.083333e+00	 1.004108e+01
2	 8.083333e+00	 6.666667e+00	 1.004592e+01
2	 8.083333e+00	 6.750000e+00	 1.004451e+01
2	 8.083333e+00	 6.833333e+00	 1.004307e+01
2	 8.083333e+00	 6.916667e+00	 1.004162e+01
2	 8.083333e+00	 7.000000e+00	 1.004014e+01
2	 8.083333e+00	 7.083333e+00	 1.003863e+01
2	 8.166667e+00	 6.666667e+00	 1.004287e+01
2	 8.166667e+00	 6.750000e+00	 1.004159e+01
2	 8.166667e+00	 6.833333e+00	 1.004028e+01
2	 8.166667e+00	 6.916667e+00	 1.003895e+01
2	 8.166667e+00	 7.000000e+00	 1.003760e+01
2	 8.166667e+00	 7.083333e+00	 1.003621e+01
2	 8.250000e+00	 6.666667e+00	 1.003987e+01
2	 8.250000e+00	 6.750000e+00	 1.003872e+01
2	 8.250000e+00	 6.833333e+00	 1.003754e+01
2	 8.250000e+00	 6.916667e+00	 1.003634e+01
2	 8.250000e+00	 7.000000e+00	 1.003510e+01
2	 8.250000e+00	 7.083333e+00	 1.003383e+01
2	 8.333333e+00	 6.666667e+00	 1.003694e+01
2	 8.333333e+00	 6.750000e+00	 1.003592e+01
2	 8.333333e+00	 6.833333e+00	 1.003486e+01
2	 8.333333e+00	 6.916667e+00	 1.003377e+01
2	 8.333333e+00	 7.000000e+00	 1.003266e+01
2	 8.333333e+00	 7.083333e+00	 1.003150e+01
2	 7.916667e+00	 7.083333e+00	 1.004356e+01
2	 7.916667e+00	 7.166667e+00	 1.004179e+01
2	 7.916667e+00	 7.250000e+00	 1.004003e+01
2	 7.916667e+00	 7.333333e+00	 1.003826e+01
2	 7.916667e+00	 7.416667e+00	 1.003649e+01
2	 7.916667e+00	 7.500000e+00	 1.003471e+01
2	 8.000000e+00	 7.083333e+00	 1.004108e+01
2	 8.000000e+00	 7.166667e+00	 1.003943e+01
2	 8.000000e+00	 7.250000e+00	 1.003779e+01
2	 8.000000e+00	 7.333333e+00	 1.003614e+01
2	 8.000000e+00	 7.416667e+00	 1.003448e+01
2	 8.000000e+00	 7.500000e+00	 1.003282e+01
2	 8.083333e+00	 7.083333e+00	 1.003863e+01
2	 8.083333e+00	 7.166667e+00	 1.003710e+01
2	 8.083333e+00	 7.250000e+00	 1.003557e+01
2	 8.083333e+00	 7.333333e+00	 1.003404e+01
2	 8.083333e+00	 7.416667e+00	 1.003250e+01
2	 8.083333e+00	 7.500000e+00	 1.003094e+01
2	 8.166667e+00	 7.083333e+00	 1.003621e+01
2	 8.166667e+00	 7.166667e+00	 1.003480e+01
2	 8.166667e+00	 7.250000e+00	 1.003339e+01
2	 8.166667e+00	 7.333333e+00	 1.003197e+01
2	 8.166667e+00	 7.416667e+00	 1.003054e+01
2	 8.166667e+00	 7.500000e+00	 1.002909e+01
2	 8.250000e+00	 7.083333e+00	 1.003383e+01
2	 8.250000e+00	 7.166667e+00	 1.003254e+01
2	 8.250000e+00	 7.250000e+00	 1.003124e+01
2	 8.250000e+00	 7.333333e+00	 1.002993e+01
2	 8.250000e+00	 7.416667e+00	 1.002861e+01
2	 8.250000e+00	 7.500000e+00	 1.002727e+01
2	 8.333333e+00	 7.083333e+00	 1.003150e+01
2	 8.333333e+00	 7.166667e+00	 1.003032e+01
2	 8.333333e+00	 7.250000e+00	 1.002914e+01
2	 8.333333e+00	 7.333333e+00	 1.002793e+01
2	 8.333333e+00	 7.416667e+00	 1.002672e+01
2	 8.333333e+00	 7.500000e+00	 1.002548e+01
2	 7.916667e+00	 7.500000e+00	 1.003471e+01
2	 7.916667e+00	 7.583333e+00	 1.003294e+01
2	 7.916667e+00	 7.666667e+00	 1.003119e+01
2	 7.916667e+00	 7.750000e+00	 1.002946e+01
2	 7.916667e+00	 7.833333e+00	 1.002773e+01
2	 7.916667e+00	 7.916667e+00	 1.002602e+01
2	 8.000000e+00	 7.500000e+00	 1.003282e+01
2	 8.000000e+00	 7.583333e+00	 1.003116e+01
2	 8.000000e+00	 7.666667e+00	 1.002951e+01
2	 8.000000e+00	 7.750000e+00	 1.002788e+01
2	 8.000000e+00	 7.833333e+00	 1.002626e+01
2	 8.000000e+00	 7.916667e+00	 1.002465e+01
2	 8.083333e+00	 7.500000e+00	 1.003094e+01
2	 8.083333e+00	 7.583333e+00	 1.002939e+01
2	 8.083333e+00	 7.666667e+00	 1.002785e+01
2	 8.083333e+00	 7.750000e+00	 1.002632e+01
2	 8.083333e+00	 7.833333e+00	 1.002480e+01
2	 8.083333e+00	 7.916667e+00	 1.002328e+01
2	 8.166667e+00	 7.500000e+00	 1.002909e+01
2	 8.166667e+00	 7.583333e+00	 1.002764e+01
2	 8.166667e+00	 7.666667e+00	 1.002621e+01
2	 8.166667e+00	 7.750000e+00	 1.002478e+01
2	 8.166667e+00	 7.833333e+00	 1.002336e+01
2	 8.166667e+00	 7.916667e+00	 1.002193e+01
2	 8.250000e+00	 7.500000e+00	 1.002727e+01
2	 8.250000e+00	 7.583333e+00	 1.002592e+01
2	 8.250000e+00	 7.666667e+00	 1.002459e+01
2	 8.250000e+00	 7.750000e+00	 1.002326e+01
2	 8.250000e+00	 7.833333e+00	 1.002193e+01
2	 8.250000e+00	 7.916667e+00	 1.002060e+01
2	 8.333333e+00	 7.500000e+00	 1.002548e+01
2	 8.333333e+00	 7.583333e+00	 1.002424e+01
2	 8.333333e+00	 7.666667e+00	 1.002300e+01
2	 8.333333e+00	 7.750000e+00	 1.002177e+01
2	 8.333333e+00	 7.833333e+00	 1.002053e+01
2	 8.333333e+00	 7.916667e+00	 1.001930e+01
2	 7.916667e+00	 7.916667e+00	 1.002602e+01
2	 7.916667e+00	 8.000000e+00	 1.002433e+01
2	 7.916667e+00	 8.083333e+00	 1.002268e+01
2	 7.916667e+00	 8.166667e+00	 1.002106e+01
2	 7.916667e+00	 8.250000e+00	 1.001947e+01
2	 7.916667e+00	 8.333333e+00	 1.001791e+01
2	 8.000000e+00	 7.916667e+00	 1.002465e+01
2	 8.000000e+00	 8.000000e+00	 1.002305e+01
2	 8.000000e+00	 8.083333e+00	 1.002149e+01
2	 8.000000e+00	 8.166667e+00	 1.001996e+01
2	 8.000000e+00	 8.250000e+00	 1.001846e+01
2	 8.000000e+00	 8.333333e+00	 1.001698e+01
2	 8.083333e+00	 7.916667e+00	 1.002328e+01
2	 8.083333e+00	 8.000000e+00	 1.002178e+01
2	 8.083333e+00	 8.083333e+00	 1.002032e+01
2	 8.083333e+00	 8.166667e+00	 1.001887e+01
2	 8.083333e+00	 8.250000e+00	 1.001746e+01
2	 8.083333e+00	 8.333333e+00	 1.001606e+01
2	 8.166667e+00	 7.916667e+00	 1.002193e+01
2	 8.166667e+00	 8.000000e+00	 1.002053e+01
2	 8.166667e+00	 8.083333e+00	 1.001915e+01
2	 8.166667e+00	 8.166667e+00	 1.001780e+01
2	 8.166667e+00	 8.250000e+00	 1.001646e+01
2	 8.166667e+00	 8.333333e+00	 1.001515e+01
2	 8.250000e+00	 7.916667e+00	 1.002060e+01
2	 8.250000e+00	 8.000000e+00	 1.001929e+01
2	 8.250000e+00	 8.083333e+00	 1.001800e+01
2	 8.250000e+00	 8.166667e+00	 1.001673e+01
2	 8.250000e+00	 8.250000e+00	 1.001548e+01
2	 8.250000e+00	 8.333333e+00	 1.001425e+01
2	 8.333333e+00	 7.916667e+00	 1.001930e+01
2	 8.333333e+00	 8.000000e+00	 1.001807e+01
2	 8.333333e+00	 8.083333e+00	 1.001687e+01
2	 8.333333e+00	 8.166667e+00	 1.001569e+01
2	 8.333333e+00	 8.250000e+00	 1.001452e+01
2	 8.333333e+00	 8.333333e+00	 1.001336e+01
2	 7.916667e+00	 8.333333e+00	 1.001791e+01
2	 7.916667e+00	 8.416667e+00	 1.001638e+01
2	 7.916667e+00	 8.500000e+00	 1.001491e+01
2	 7.916667e+00	 8.583333e+00	 1.001349e+01
2	 7.916667e+00	 8.666667e+00	 1.001212e+01
2	 7.916667e+00	 8.750000e+00	 1.001079e+01
2	 8.000000e+00	 8.333333e+00	 1.001698e+01
2	 8.000000e+00	 8.416667e+00	 1.001554e+01
2	 8.000000e+00	 8.500000e+00	 1.001414e+01
2	 8.000000e+00	 8.583333e+00	 1.001280e+01
2	 8.000000e+00	 8.666667e+00	 1.001150e+01
2	 8.000000e+00	 8.750000e+00	 1.001024e+01
2	 8.083333e+00	 8.333333e+00	 1.001606e+01
2	 8.083333e+00	 8.416667e+00	 1.001470e+01
2	 8.083333e+00	 8.500000e+00	 1.001338e+01
2	 8.083333e+00	 8.583333e+00	 1.001211e+01
2	 8.083333e+00	 8.666667e+00	 1.001088e+01
2	 8.083333e+00	 8.750000e+00	 1.000969e+01
2	 8.166667e+00	 8.333333e+00	 1.001515e+01
2	 8.166667e+00	 8.416667e+00	 1.001386e+01
2	 8.166667e+00	 8.500000e+00	 1.001263e+01
2	 8.166667e+00	 8.583333e+00	 1.001143e+01
2	 8.166667e+00	 8.666667e+00	 1.001027e+01
2	 8.166667e+00	 8.750000e+00	 1.000914e+01
2	 8.250000e+00	 8.333333e+00	 1.001425e+01
2	 8.250000e+00	 8.416667e+00	 1.001304e+01
2	 8.250000e+00	 8.500000e+00	 1.001188e+01
2	 8.250000e+00	 8.583333e+00	 1.001076e+01
2	 8.250000e+00	 8.666667e+00	 1.000967e+01
2	 8.250000e+00	 8.750000e+00	 1.000861e+01
2	 8.333333e+00	 8.333333e+00	 1.001336e+01
2	 8.333333e+00	 8.416667e+00	 1.001224e+01
2	 8.333333e+00	 8.500000e+00	 1.001115e+01
2	 8.333333e+00	 8.583333e+00	 1.001009e+01
2	 8.333333e+00	 8.666667e+00	 1.000907e+01
2	 8.333333e+00	 8.750000e+00	 1.000808e+01
2	 7.916667e+00	 8.750000e+00	 1.001079e+01
2	 7.916667e+00	 8.833333e+00	 1.000952e+01
2	 7.916667e+00	 8.916667e+00	 1.000832e+01
2	 7.916667e+00	 9.000000e+00	 1.000719e+01
2	 7.916667e+00	 9.083333e+00	 1.000612e+01
2	 7.916667e+00	 9.166667e+00	 1.000512e+01
2	 8.000000e+00	 8.750000e+00	 1.001024e+01
2	 8.000000e+00	 8.833333e+00	 1.000903e+01
2	 8.000000e+00	 8.916667e+00	 1.000789e+01
2	 8.000000e+00	 9.000000e+00	 1.000682e+01
2	 8.000000e+00	 9.083333e+00	 1.000581e+01
2	 8.000000e+00	 9.166667e+00	 1.000486e+01
2	 8.083333e+00	 8.750000e+00	 1.000969e+01
2	 8.083333e+00	 8.833333e+00	 1.000855e+01
2	 8.083333e+00	 8.916667e+00	 1.000747e+01
2	 8.083333e+00	 9.000000e+00	 1.000646e+01
2	 8.083333e+00	 9.083333e+00	 1.000550e+01
2	 8.083333e+00	 9.166667e+00	 1.000460e+01
2	 8.166667e+00	 8.750000e+00	 1.000914e+01
2	 8.166667e+00	 8.833333e+00	 1.000807e+01
2	 8.166667e+00	 8.916667e+00	 1.000705e+01
2	 8.166667e+00	 9.000000e+00	 1.000609e+01
2	 8.166667e+00	 9.083333e+00	 1.000519e+01
2	 8.166667e+00	 9.166667e+00	 1.000434e+01
2	 8.250000e+00	 8.750000e+00	 1.000861e+01
2	 8.250000e+00	 8.833333e+00	 1.000759e+01
2	 8.250000e+00	 8.916667e+00	 1.000664e+01
2	 8.250000e+00	 9.000000e+00	 1.000574e+01
2	 8.250000e+00	 9.083333e+00	 1.000489e+01
2	 8.250000e+00	 9.166667e+00	 1.000408e+01
2	 8.333333e+00	 8.750000e+00	 1.000808e+01
2	 8.333333e+00	 8.833333e+00	 1.000713e+01
2	 8.333333e+00	 8.916667e+00	 1.000623e+01
2	 8.333333e+00	 9.000000e+00	 1.000538e+01
2	 8.333333e+00	 9.083333e+00	 1.000459e+01
2	 8.333333e+00	 9.166667e+00	 1.000383e+01
2	 7.916667e+00	 9.166667e+00	 1.000512e+01
2	 7.916667e+00	 9.250000e+00	 1.000419e+01
2	 7.916667e+00	 9.333333e+00	 1.000335e+01
2	 7.916667e+00	 9.416667e+00	 1.000261e+01
2	 7.916667e+00	 9.500000e+00	 1.000194e+01
2	 7.916667e+00	 9.583333e+00	 1.000136e+01
2	 8.000000e+00	 9.166667e+00	 1.000486e+01
2	 8.000000e+00	 9.250000e+00	 1.000398e+01
2	 8.000000e+00	 9.333333e+00	 1.000318e+01
2	 8.000000e+00	 9.416667e+00	 1.000248e+01
2	 8.000000e+00	 9.500000e+00	 1.000185e+01
2	 8.000000e+00	 9.583333e+00	 1.000129e+01
2	 8.083333e+00	 9.166667e+00	 1.000460e+01
2	 8.083333e+00	 9.250000e+00	 1.000376e+01
2	 8.083333e+00	 9.333333e+00	 1.000301e+01
2	 8.083333e+00	 9.416667e+00	 1.000234e+01
2	 8.083333e+00	 9.500000e+00	 1.000175e+01
2	 8.083333e+00	 9.583333e+00	 1.000122e+01
2	 8.166667e+00	 9.166667e+00	 1.000434e+01
2	 8.166667e+00	 9.250000e+00	 1.000355e+01
2	 8.166667e+00	 9.333333e+00	 1.000284e+01
2	 8.166667e+00	 9.416667e+00	 1.000221e+01
2	 8.166667e+00	 9.500000e+00	 1.000165e+01
2	 8.166667e+00	 9.583333e+00	 1.000115e+01
2	 8.250000e+00	 9.166667e+00	 1.000408e+01
2	 8.250000e+00	 9.250000e+00	 1.000334e+01
2	 8.250000e+00	 9.333333e+00	 1.000267e+01
2	 8.250000e+00	 9.416667e+00	 1.000208e+01
2	 8.250000e+00	 9.500000e+00	 1.000155e+01
2	 8.250000e+00	 9.583333e+00	 1.000108e+01
2	 8.333333e+00	 9.166667e+00	 1.000383e+01
2	 8.333333e+00	 9.250000e+00	 1.000314e+01
2	 8.333333e+00	 9.333333e+00	 1.000251e+01
2	 8.333333e+00	 9.416667e+00	 1.000195e+01
2	 8.333333e+00	 9.500000e+00	 1.000146e+01
2	 8.333333e+00	 9.583333e+00	 1.000102e+01
2	 7.916667e+00	 9.583333e+00	 1.000136e+01
2	 7.916667e+00	 9.666667e+00	 1.000087e+01
2	 7.916667e+00	 9.750000e+00	 1.000050e+01
2	 7.916667e+00	 9.833333e+00	 1.000023e+01
2	 7.916667e+00	 9.916667e+00	 1.000006e+01
2	 7.916667e+00	 1.000000e+01	 9.999990e+00
2	 8.000000e+00	 9.583333e+00	 1.000129e+01
2	 8.000000e+00	 9.666667e+00	 1.000083e+01
2	 8.000000e+00	 9.750000e+00	 1.000047e+01
2	 8.000000e+00	 9.833333e+00	 1.000022e+01
2	 8.000000e+00	 9.916667e+00	 1.000006e+01
2	 8.000000e+00	 1.000000e+01	 9.999994e+00
2	 8.083333e+00	 9.583333e+00	 1.000122e+01
2	 8.083333e+00	 9.666667e+00	 1.000079e+01
2	 8.083333e+00	 9.750000e+00	 1.000045e+01
2	 8.083333e+00	 9.833333e+00	 1.000021e+01
2	 8.083333e+00	 9.916667e+00	 1.000006e+01
2	 8.083333e+00	 1.000000e+01	 9.999992e+00
2	 8.166667e+00	 9.583333e+00	 1.000115e+01
2	 8.166667e+00	 9.666667e+00	 1.000074e+01
2	 8.166667e+00	 9.750000e+00	 1.000042e+01
2	 8.166667e+00	 9.833333e+00	 1.000019e+01
2	 8.166667e+00	 9.916667e+00	 1.000005e+01
2	 8.166667e+00	 1.000000e+01	 9.999989e+00
2	 8.250000e+00	 9.583333e+00	 1.000108e+01
2	 8.250000e+00	 9.666667e+00	 1.000069e+01
2	 8.250000e+00	 9.750000e+00	 1.000039e+01
2	 8.250000e+00	 9.833333e+00	 1.000018e+01
2	 8.250000e+00	 9.916667e+00	 1.000004e+01
2	 8.250000e+00	 1.000000e+01	 9.999988e+00
2	 8.333333e+00	 9.583333e+00	 1.000102e+01
2	 8.333333e+00	 9.666667e+00	 1.000065e+01
2	 8.333333e+00	 9.750000e+00	 1.000037e+01
2	 8.333333e+00	 9.833333e+00	 1.000017e+01
2	 8.333333e+00	 9.916667e+00	 1.000004e+01
2	 8.333333e+00	 1.000000e+01	 9.999992e+00
2	 8.333333e+00	 5.000000e+00	 1.004473e+01
2	 8.333333e+00	 5.083333e+00	 1.004509e+01
2	 8.333333e+00	 5.166667e+00	 1.004537e+01
2	 8.333333e+00	 5.250000e+00	 1.004556e+01
2	 8.333333e+00	 5.333333e+00	 1.004565e+01
2	 8.333333e+00	 5.416667e+00	 1.004565e+01
2	 8.416667e+00	 5.000000e+00	 1.003895e+01
2	 8.416667e+00	 5.083333e+00	 1.003948e+01
2	 8.416667e+00	 5.166667e+00	 1.003992e+01
2	 8.416667e+00	 5.250000e+00	 1.004027e+01
2	 8.416667e+00	 5.333333e+00	 1.004052e+01
2	 8.416667e+00	 5.416667e+00	 1.004067e+01
2	 8.500000e+00	 5.000000e+00	 1.003330e+01
2	 8.500000e+00	 5.083333e+00	 1.003399e+01
2	 8.500000e+00	 5.166667e+00	 1.003459e+01
2	 8.500000e+00	 5.250000e+00	 1.003509e+01
2	 8.500000e+00	 5.333333e+00	 1.003550e+01
2	 8.500000e+00	 5.416667e+00	 1.003581e+01
2	 8.583333e+00	 5.000000e+00	 1.002779e+01
2	 8.583333e+00	 5.083333e+00	 1.002864e+01
2	 8.583333e+00	 5.166667e+00	 1.002939e+01
2	 8.583333e+00	 5.250000e+00	 1.003005e+01
2	 8.583333e+00	 5.333333e+00	 1.003062e+01
2	 8.583333e+00	 5.416667e+00	 1.003108e+01
2	 8.666667e+00	 5.000000e+00	 1.002241e+01
2	 8.666667e+00	 5.083333e+00	 1.002342e+01
2	 8.666667e+00	 5.166667e+00	 1.002434e+01
2	 8.666667e+00	 5.250000e+00	 1.002515e+01
2	 8.666667e+00	 5.333333e+00	 1.002587e+01
2	 8.666667e+00	 5.416667e+00	 1.002648e+01
2	 8.750000e+00	 5.000000e+00	 1.001720e+01
2	 8.750000e+00	 5.083333e+00	 1.001837e+01
2	 8.750000e+00	 5.166667e+00	 1.001944e+01
2	 8.750000e+00	 5.250000e+00	 1.002041e+01
2	 8.750000e+00	 5.333333e+00	 1.002127e+01
2	 8.750000e+00	 5.416667e+00	 1.002204e+01
2	 8.333333e+00	 5.416667e+00	 1.004565e+01
2	 8.333333e+00	 5.500000e+00	 1.004556e+01
2	 8.333333e+00	 5.583333e+00	 1.004540e+01
2	 8.333333e+00	 5.666667e+00	 1.004516e+01
2	 8.333333e+00	 5.750000e+00	 1.004483e+01
2	 8.333333e+00	 5.833333e+00	 1.004442e+01
2	 8.416667e+00	 5.416667e+00	 1.004067e+01
2	 8.416667e+00	 5.500000e+00	 1.004074e+01
2	 8.416667e+00	 5.583333e+00	 1.004073e+01
2	 8.416667e+00	 5.666667e+00	 1.004064e+01
2	 8.416667e+00	 5.750000e+00	 1.004047e+01
2	 8.416667e+00	 5.833333e+00	 1.004021e+01
2	 8.500000e+00	 5.416667e+00	 1.003581e+01
2	 8.500000e+00	 5.500000e+00	 1.003604e+01
2	 8.500000e+00	 5.583333e+00	 1.003618e+01
2	 8.500000e+00	 5.666667e+00	 1.003623e+01
2	 8.500000e+00	 5.750000e+00	 1.003621e+01
2	 8.500000e+00	 5.833333e+00	 1.003609e+01
2	 8.583333e+00	 5.416667e+00	 1.003108e+01
2	 8.583333e+00	 5.500000e+00	 1.003145e+01
2	 8.583333e+00	 5.583333e+00	 1.003174e+01
2	 8.583333e+00	 5.666667e+00	 1.003195e+01
2	 8.583333e+00	 5.750000e+00	 1.003206e+01
2	 8.583333e+00	 5.833333e+00	 1.003209e+01
2	 8.666667e+00	 5.416667e+00	 1.002648e+01
2	 8.666667e+00	 5.500000e+00	 1.002701e+01
2	 8.666667e+00	 5.583333e+00	 1.002744e+01
2	 8.666667e+00	 5.666667e+00	 1.002779e+01
2	 8.666667e+00	 5.750000e+00	 1.002805e+01
2	 8.666667e+00	 5.833333e+00	 1.002821e+01
2	 8.750000e+00	 5.416667e+00	 1.002204e+01
2	 8.750000e+00	 5.500000e+00	 1.002271e+01
2	 8.750000e+00	 5.583333e+00	 1.002329e+01
2	 8.750000e+00	 5.666667e+00	 1.002377e+01
2	 8.750000e+00	 5.750000e+00	 1.002417e+01
2	 8.750000e+00	 5.833333e+00	 1.002447e+01
2	 8.333333e+00	 5.833333e+00	 1.004442e+01
2	 8.333333e+00	 5.916667e+00	 1.004394e+01
2	 8.333333e+00	 6.000000e+00	 1.004340e+01
2	 8.333333e+00	 6.083333e+00	 1.004280e+01
2	 8.333333e+00	 6.166667e+00	 1.004213e+01
2	 8.333333e+00	 6.250000e+00	 1.004139e+01
2	 8.416667e+00	 5.833333e+00	 1.004021e+01
2	 8.416667e+00	 5.916667e+00	 1.003987e+01
2	 8.416667e+00	 6.000000e+00	 1.003948e+01
2	 8.416667e+00	 6.083333e+00	 1.003901e+01
2	 8.416667e+00	 6.166667e+00	 1.003848e+01
2	 8.416667e+00	 6.250000e+00	 1.003788e+01
2	 8.500000e+00	 5.833333e+00	 1.003609e+01
2	 8.500000e+00	 5.916667e+00	 1.003590e+01
2	 8.500000e+00	 6.000000e+00	 1.003564e+01
2	 8.500000e+00	 6.083333e+00	 1.003532e+01
2	 8.500000e+00	 6.166667e+00	 1.003492e+01
2	 8.500000e+00	 6.250000e+00	 1.003446e+01
2	 8.583333e+00	 5.833333e+00	 1.003209e+01
2	 8.583333e+00	 5.916667e+00	 1.003204e+01
2	 8.583333e+00	 6.000000e+00	 1.003192e+01
2	 8.583333e+00	 6.083333e+00	 1.003173e+01
2	 8.583333e+00	 6.166667e+00	 1.003146e+01
2	 8.583333e+00	 6.250000e+00	 1.003113e+01
2	 8.666667e+00	 5.833333e+00	 1.002821e+01
2	 8.666667e+00	 5.916667e+00	 1.002830e+01
2	 8.666667e+00	 6.000000e+00	 1.002831e+01
2	 8.666667e+00	 6.083333e+00	 1.002825e+01
2	 8.666667e+00	 6.166667e+00	 1.002812e+01
2	 8.666667e+00	 6.250000e+00	 1.002790e+01
2	 8.750000e+00	 5.833333e+00	 1.002447e+01
2	 8.750000e+00	 5.916667e+00	 1.002469e+01
2	 8.750000e+00	 6.000000e+00	 1.002483e+01
2	 8.750000e+00	 6.083333e+00	 1.002490e+01
2	 8.750000e+00	 6.166667e+00	 1.002489e+01
2	 8.750000e+00	 6.250000e+00	 1.002480e+01
2	 8.333333e+00	 6.250000e+00	 1.004139e+01
2	 8.333333e+00	 6.333333e+00	 1.004060e+01
2	 8.333333e+00	 6.416667e+00	 1.003976e+01
2	 8.333333e+00	 6.500000e+00	 1.003887e+01
2	 8.333333e+00	 6.583333e+00	 1.003793e+01
2	 8.333333e+00	 6.666667e+00	 1.003694e+01
2	 8.416667e+00	 6.250000e+00	 1.003788e+01
2	 8.416667e+00	 6.333333e+00	 1.003722e+01
2	 8.416667e+00	 6.416667e+00	 1.003651e+01
2	 8.416667e+00	 6.500000e+00	 1.003575e+01
2	 8.416667e+00	 6.583333e+00	 1.003494e+01
2	 8.416667e+00	 6.666667e+00	 1.003408e+01
2	 8.500000e+00	 6.250000e+00	 1.003446e+01
2	 8.500000e+00	 6.333333e+00	 1.003393e+01
2	 8.500000e+00	 6.416667e+00	 1.003335e+01
2	 8.500000e+00	 6.500000e+00	 1.003271e+01
2	 8.500000e+00	 6.583333e+00	 1.003203e+01
2	 8.500000e+00	 6.666667e+00	 1.003129e+01
2	 8.583333e+00	 6.250000e+00	 1.003113e+01
2	 8.583333e+00	 6.333333e+00	 1.003072e+01
2	 8.583333e+00	 6.416667e+00	 1.003027e+01
2	 8.583333e+00	 6.500000e+00	 1.002976e+01
2	 8.583333e+00	 6.583333e+00	 1.002919e+01
2	 8.583333e+00	 6.666667e+00	 1.002857e+01
2	 8.666667e+00	 6.250000e+00	 1.002790e+01
2	 8.666667e+00	 6.333333e+00	 1.002762e+01
2	 8.666667e+00	 6.416667e+00	 1.002729e+01
2	 8.666667e+00	 6.500000e+00	 1.002690e+01
2	 8.666667e+00	 6.583333e+00	 1.002645e+01
2	 8.666667e+00	 6.666667e+00	 1.002593e+01
2	 8.750000e+00	 6.250000e+00	 1.002480e+01
2	 8.750000e+00	 6.333333e+00	 1.002464e+01
2	 8.750000e+00	 6.416667e+00	 1.002442e+01
2	 8.750000e+00	 6.500000e+00	 1.002414e+01
2	 8.750000e+00	 6.583333e+00	 1.002380e+01
2	 8.750000e+00	 6.666667e+00	 1.002340e+01
2	 8.333333e+00	 6.666667e+00	 1.003694e+01
2	 8.333333e+00	 6.750000e+00	 1.003592e+01
2	 8.333333e+00	 6.833333e+00	 1.003486e+01
2	 8.333333e+00	 6.916667e+00	 1.003377e+01
2	 8.333333e+00	 7.000000e+00	 1.003266e+01
2	 8.333333e+00	 7.083333e+00	 1.003150e+01
2	 8.416667e+00	 6.666667e+00	 1.003408e+01
2	 8.416667e+00	 6.750000e+00	 1.003317e+01
2	 8.416667e+00	 6.833333e+00	 1.003224e+01
2	 8.416667e+00	 6.916667e+00	 1.003127e+01
2	 8.416667e+00	 7.000000e+00	 1.003027e+01
2	 8.416667e+00	 7.083333e+00	 1.002922e+01
2	 8.500000e+00	 6.666667e+00	 1.003129e+01
2	 8.500000e+00	 6.750000e+00	 1.003050e+01
2	 8.500000e+00	 6.833333e+00	 1.002968e+01
2	 8.500000e+00	 6.916667e+00	 1.002882e+01
2	 8.500000e+00	 7.000000e+00	 1.002793e+01
2	 8.500000e+00	 7.083333e+00	 1.002700e+01
2	 8.583333e+00	 6.666667e+00	 1.002857e+01
2	 8.583333e+00	 6.750000e+00	 1.002789e+01
2	 8.583333e+00	 6.833333e+00	 1.002719e+01
2	 8.583333e+00	 6.916667e+00	 1.002644e+01
2	 8.583333e+00	 7.000000e+00	 1.002566e+01
2	 8.583333e+00	 7.083333e+00	 1.002483e+01
2	 8.666667e+00	 6.666667e+00	 1.002593e+01
2	 8.666667e+00	 6.750000e+00	 1.002537e+01
2	 8.666667e+00	 6.833333e+00	 1.002477e+01
2	 8.666667e+00	 6.916667e+00	 1.002413e+01
2	 8.666667e+00	 7.000000e+00	 1.002345e+01
2	 8.666667e+00	 7.083333e+00	 1.002272e+01
2	 8.750000e+00	 6.666667e+00	 1.002340e+01
2	 8.750000e+00	 6.750000e+00	 1.002294e+01
2	 8.750000e+00	 6.833333e+00	 1.002244e+01
2	 8.750000e+00	 6.916667e+00	 1.002190e+01
2	 8.750000e+00	 7.000000e+00	 1.002132e+01
2	 8.750000e+00	 7.083333e+00	 1.002069e+01
2	 8.333333e+00	 7.083333e+00	 1.003150e+01
2	 8.333333e+00	 7.166667e+00	 1.003032e+01
2	 8.333333e+00	 7.250000e+00	 1.002914e+01
2	 8.333333e+00	 7.333333e+00	 1.002793e+01
2	 8.333333e+00	 7.416667e+00	 1.002672e+01
2	 8.333333e+00	 7.500000e+00	 1.002548e+01
2	 8.416667e+00	 7.083333e+00	 1.002922e+01
2	 8.416667e+00	 7.166667e+00	 1.002816e+01
2	 8.416667e+00	 7.250000e+00	 1.002708e+01
2	 8.416667e+00	 7.333333e+00	 1.002598e+01
2	 8.416667e+00	 7.416667e+00	 1.002487e+01
2	 8.416667e+00	 7.500000e+00	 1.002373e+01
2	 8.500000e+00	 7.083333e+00	 1.002700e+01
2	 8.500000e+00	 7.166667e+00	 1.002604e+01
2	 8.500000e+00	 7.250000e+00	 1.002506e+01
2	 8.500000e+00	 7.333333e+00	 1.002407e+01
2	 8.500000e+00	 7.416667e+00	 1.002305e+01
2	 8.500000e+00	 7.500000e+00	 1.002201e+01
2	 8.583333e+00	 7.083333e+00	 1.002483e+01
2	 8.583333e+00	 7.166667e+00	 1.002397e+01
2	 8.583333e+00	 7.250000e+00	 1.002310e+01
2	 8.583333e+00	 7.333333e+00	 1.002220e+01
2	 8.583333e+00	 7.416667e+00	 1.002128e+01
2	 8.583333e+00	 7.500000e+00	 1.002034e+01
2	 8.666667e+00	 7.083333e+00	 1.002272e+01
2	 8.666667e+00	 7.166667e+00	 1.002197e+01
2	 8.666667e+00	 7.250000e+00	 1.002119e+01
2	 8.666667e+00	 7.333333e+00	 1.002038e+01
2	 8.666667e+00	 7.416667e+00	 1.001956e+01
2	 8.666667e+00	 7.500000e+00	 1.001871e+01
2	 8.750000e+00	 7.083333e+00	 1.002069e+01
2	 8.750000e+00	 7.166667e+00	 1.002002e+01
2	 8.750000e+00	 7.250000e+00	 1.001934e+01
2	 8.750000e+00	 7.333333e+00	 1.001863e+01
2	 8.750000e+00	 7.416667e+00	 1.001789e+01
2	 8.750000e+00	 7.500000e+00	 1.001712e+01
2	 8.333333e+00	 7.500000e+00	 1.002548e+01
2	 8.333333e+00	 7.583333e+00	 1.002424e+01
2	 8.333333e+00	 7.666667e+00	 1.002300e+01
2	 8.333333e+00	 7.750000e+00	 1.002177e+01
2	 8.333333e+00	 7.833333e+00	 1.002053e+01
2	 8.333333e+00	 7.916667e+00	 1.001930e+01
2	 8.416667e+00	 7.500000e+00	 1.002373e+01
2	 8.416667e+00	 7.583333e+00	 1.002259e+01
2	 8.416667e+00	 7.666667e+00	 1.002144e+01
2	 8.416667e+00	 7.750000e+00	 1.002030e+01
2	 8.416667e+00	 7.833333e+00	 1.001916e+01
2	 8.416667e+00	 7.916667e+00	 1.001802e+01
2	 8.500000e+00	 7.500000e+00	 1.002201e+01
2	 8.500000e+00	 7.583333e+00	 1.002097e+01
2	 8.500000e+00	 7.666667e+00	 1.001992e+01
2	 8.500000e+00	 7.750000e+00	 1.001887e+01
2	 8.500000e+00	 7.833333e+00	 1.001782e+01
2	 8.500000e+00	 7.916667e+00	 1.001676e+01
2	 8.583333e+00	 7.500000e+00	 1.002034e+01
2	 8.583333e+00	 7.583333e+00	 1.001938e+01
2	 8.583333e+00	 7.666667e+00	 1.001842e+01
2	 8.583333e+00	 7.750000e+00	 1.001746e+01
2	 8.583333e+00	 7.833333e+00	 1.001650e+01
2	 8.583333e+00	 7.916667e+00	 1.001552e+01
2	 8.666667e+00	 7.500000e+00	 1.001871e+01
2	 8.666667e+00	 7.583333e+00	 1.001784e+01
2	 8.666667e+00	 7.666667e+00	 1.001697e+01
2	 8.666667e+00	 7.750000e+00	 1.001609e+01
2	 8.666667e+00	 7.833333e+00	 1.001520e+01
2	 8.666667e+00	 7.916667e+00	 1.001431e+01
2	 8.750000e+00	 7.500000e+00	 1.001712e+01
2	 8.750000e+00	 7.583333e+00	 1.001634e+01
2	 8.750000e+00	 7.666667e+00	 1.001555e+01
2	 8.750000e+00	 7.750000e+00	 1.001475e+01
2	 8.750000e+00	 7.833333e+00	 1.001395e+01
2	 8.750000e+00	 7.916667e+00	 1.001313e+01
2	 8.333333e+00	 7.916667e+00	 1.001930e+01
2	 8.333333e+00	 8.000000e+00	 1.001807e+01
2	 8.333333e+00	 8.083333e+00	 1.001687e+01
2	 8.333333e+00	 8.166667e+00	 1.001569e+01
2	 8.333333e+00	 8.250000e+00	 1.001452e+01
2	 8.333333e+00	 8.333333e+00	 1.001336e+01
2	 8.416667e+00	 7.916667e+00	 1.001802e+01
2	 8.416667e+00	 8.000000e+00	 1.001688e+01
2	 8.416667e+00	 8.083333e+00	 1.001576e+01
2	 8.416667e+00	 8.166667e+00	 1.001466e+01
2	 8.416667e+00	 8.250000e+00	 1.001357e+01
2	 8.416667e+00	 8.333333e+00	 1.001249e+01
2	 8.500000e+00	 7.916667e+00	 1.001676e+01
2	 8.500000e+00	 8.000000e+00	 1.001570e+01
2	 8.500000e+00	 8.083333e+00	 1.001467e+01
2	 8.500000e+00	 8.166667e+00	 1.001364e+01
2	 8.500000e+00	 8.250000e+00	 1.001263e+01
2	 8.500000e+00	 8.333333e+00	 1.001163e+01
2	 8.583333e+00	 7.916667e+00	 1.001552e+01
2	 8.583333e+00	 8.000000e+00	 1.001455e+01
2	 8.583333e+00	 8.083333e+00	 1.001359e+01
2	 8.583333e+00	 8.166667e+00	 1.001265e+01
2	 8.583333e+00	 8.250000e+00	 1.001171e+01
2	 8.583333e+00	 8.333333e+00	 1.001078e+01
2	 8.666667e+00	 7.916667e+00	 1.001431e+01
2	 8.666667e+00	 8.000000e+00	 1.001342e+01
2	 8.666667e+00	 8.083333e+00	 1.001254e+01
2	 8.666667e+00	 8.166667e+00	 1.001167e+01
2	 8.666667e+00	 8.250000e+00	 1.001081e+01
2	 8.666667e+00	 8.333333e+00	 1.000995e+01
2	 8.750000e+00	 7.916667e+00	 1.001313e+01
2	 8.750000e+00	 8.000000e+00	 1.001231e+01
2	 8.750000e+00	 8.083333e+00	 1.001151e+01
2	 8.750000e+00	 8.166667e+00	 1.001071e+01
2	 8.750000e+00	 8.250000e+00	 1.000992e+01
2	 8.750000e+00	 8.333333e+00	 1.000913e+01
2	 8.333333e+00	 8.333333e+00	 1.001336e+01
2	 8.333333e+00	 8.416667e+00	 1.001224e+01
2	 8.333333e+00	 8.500000e+00	 1.001115e+01
2	 8.333333e+00	 8.583333e+00	 1.001009e+01
2	 8.333333e+00	 8.666667e+00	 1.000907e+01
2	 8.333333e+00	 8.750000e+00	 1.000808e+01
2	 8.416667e+00	 8.333333e+00	 1.001249e+01
2	 8.416667e+00	 8.416667e+00	 1.001144e+01
2	 8.416667e+00	 8.500000e+00	 1.001042e+01
2	 8.416667e+00	 8.583333e+00	 1.000944e+01
2	 8.416667e+00	 8.666667e+00	 1.000848e+01
2	 8.416667e+00	 8.750000e+00	 1.000755e+01
2	 8.500000e+00	 8.333333e+00	 1.001163e+01
2	 8.500000e+00	 8.416667e+00	 1.001065e+01
2	 8.500000e+00	 8.500000e+00	 1.000971e+01
2	 8.500000e+00	 8.583333e+00	 1.000879e+01
2	 8.500000e+00	 8.666667e+00	 1.000790e+01
2	 8.500000e+00	 8.750000e+00	 1.000703e+01
2	 8.583333e+00	 8.333333e+00	 1.001078e+01
2	 8.583333e+00	 8.416667e+00	 1.000988e+01
2	 8.583333e+00	 8.500000e+00	 1.000900e+01
2	 8.583333e+00	 8.583333e+00	 1.000815e+01
2	 8.583333e+00	 8.666667e+00	 1.000732e+01
2	 8.583333e+00	 8.750000e+00	 1.000652e+01
2	 8.666667e+00	 8.333333e+00	 1.000995e+01
2	 8.666667e+00	 8.416667e+00	 1.000911e+01
2	 8.666667e+00	 8.500000e+00	 1.000830e+01
2	 8.666667e+00	 8.583333e+00	 1.000751e+01
2	 8.666667e+00	 8.666667e+00	 1.000675e+01
2	 8.666667e+00	 8.750000e+00	 1.000601e+01
2	 8.750000e+00	 8.333333e+00	 1.000913e+01
2	 8.750000e+00	 8.416667e+00	 1.000836e+01
2	 8.750000e+00	 8.500000e+00	 1.000761e+01
2	 8.750000e+00	 8.583333e+00	 1.000689e+01
2	 8.750000e+00	 8.666667e+00	 1.000619e+01
2	 8.750000e+00	 8.750000e+00	 1.000551e+01
2	 8.333333e+00	 8.750000e+00	 1.000808e+01
2	 8.333333e+00	 8.833333e+00	 1.000713e+01
2	 8.333333e+00	 8.916667e+00	 1.000623e+01
2	 8.333333e+00	 9.000000e+00	 1.000538e+01
2	 8.333333e+00	 9.083333e+00	 1.000459e+01
2	 8.333333e+00	 9.166667e+00	 1.000383e+01
2	 8.416667e+00	 8.750000e+00	 1.000755e+01
2	 8.416667e+00	 8.833333e+00	 1.000666e+01
2	 8.416667e+00	 8.916667e+00	 1.000583e+01
2	 8.416667e+00	 9.000000e+00	 1.000504e+01
2	 8.416667e+00	 9.083333e+00	 1.000429e+01
2	 8.416667e+00	 9.166667e+00	 1.000359e+01
2	 8.500000e+00	 8.750000e+00	 1.000703e+01
2	 8.500000e+00	 8.833333e+00	 1.000621e+01
2	 8.500000e+00	 8.916667e+00	 1.000542e+01
2	 8.500000e+00	 9.000000e+00	 1.000469e+01
2	 8.500000e+00	 9.083333e+00	 1.000399e+01
2	 8.500000e+00	 9.166667e+00	 1.000334e+01
2	 8.583333e+00	 8.750000e+00	 1.000652e+01
2	 8.583333e+00	 8.833333e+00	 1.000575e+01
2	 8.583333e+00	 8.916667e+00	 1.000503e+01
2	 8.583333e+00	 9.000000e+00	 1.000434e+01
2	 8.583333e+00	 9.083333e+00	 1.000370e+01
2	 8.583333e+00	 9.166667e+00	 1.000309e+01
2	 8.666667e+00	 8.750000e+00	 1.000601e+01
2	 8.666667e+00	 8.833333e+00	 1.000530e+01
2	 8.666667e+00	 8.916667e+00	 1.000463e+01
2	 8.666667e+00	 9.000000e+00	 1.000400e+01
2	 8.666667e+00	 9.083333e+00	 1.000340e+01
2	 8.666667e+00	 9.166667e+00	 1.000284e+01
2	 8.750000e+00	 8.750000e+00	 1.000551e+01
2	 8.750000e+00	 8.833333e+00	 1.000485e+01
2	 8.750000e+00	 8.916667e+00	 1.000424e+01
2	 8.750000e+00	 9.000000e+00	 1.000366e+01
2	 8.750000e+00	 9.083333e+00	 1.000311e+01
2	 8.750000e+00	 9.166667e+00	 1.000260e+01
2	 8.333333e+00	 9.166667e+00	 1.000383e+01
2	 8.333333e+00	 9.250000e+00	 1.000314e+01
2	 8.333333e+00	 9.333333e+00	 1.000251e+01
2	 8.333333e+00	 9.416667e+00	 1.000195e+01
2	 8.333333e+00	 9.500000e+00	 1.000146e+01
2	 8.333333e+00	 9.583333e+00	 1.000102e+01
2	 8.416667e+00	 9.166667e+00	 1.000359e+01
2	 8.416667e+00	 9.250000e+00	 1.000293e+01
2	 8.416667e+00	 9.333333e+00	 1.000235e+01
2	 8.416667e+00	 9.416667e+00	 1.000183e+01
2	 8.416667e+00	 9.500000e+00	 1.000136e+01
2	 8.416667e+00	 9.583333e+00	 1.000096e+01
2	 8.500000e+00	 9.166667e+00	 1.000334e+01
2	 8.500000e+00	 9.250000e+00	 1.000273e+01
2	 8.500000e+00	 9.333333e+00	 1.000219e+01
2	 8.500000e+00	 9.416667e+00	 1.000170e+01
2	 8.500000e+00	 9.500000e+00	 1.000127e+01
2	 8.500000e+00	 9.583333e+00	 1.000089e+01
2	 8.583333e+00	 9.166667e+00	 1.000309e+01
2	 8.583333e+00	 9.250000e+00	 1.000253e+01
2	 8.583333e+00	 9.333333e+00	 1.000202e+01
2	 8.583333e+00	 9.416667e+00	 1.000157e+01
2	 8.583333e+00	 9.500000e+00	 1.000117e+01
2	 8.583333e+00	 9.583333e+00	 1.000082e+01
2	 8.666667e+00	 9.166667e+00	 1.000284e+01
2	 8.666667e+00	 9.250000e+00	 1.000232e+01
2	 8.666667e+00	 9.333333e+00	 1.000186e+01
2	 8.666667e+00	 9.416667e+00	 1.000144e+01
2	 8.666667e+00	 9.500000e+00	 1.000107e+01
2	 8.666667e+00	 9.583333e+00	 1.000075e+01
2	 8.750000e+00	 9.166667e+00	 1.000260e+01
2	 8.750000e+00	 9.250000e+00	 1.000212e+01
2	 8.750000e+00	 9.333333e+00	 1.000170e+01
2	 8.750000e+00	 9.416667e+00	 1.000132e+01
2	 8.750000e+00	 9.500000e+00	 1.000098e+01
2	 8.750000e+00	 9.583333e+00	 1.000069e+01
2	 8.333333e+00	 9.583333e+00	 1.000102e+01
2	 8.333333e+00	 9.666667e+00	 1.000065e+01
2	 8.333333e+00	 9.750000e+00	 1.000037e+01
2	 8.333333e+00	 9.833333e+00	 1.000017e+01
2	 8.333333e+00	 9.916667e+00	 1.000004e+01
2	 8.333333e+00	 1.000000e+01	 9.999992e+00
2	 8.416667e+00	 9.583333e+00	 1.000096e+01
2	 8.416667e+00	 9.666667e+00	 1.000061e+01
2	 8.416667e+00	 9.750000e+00	 1.000035e+01
2	 8.416667e+00	 9.833333e+00	 1.000016e+01
2	 8.416667e+00	 9.916667e+00	 1.000005e+01
2	 8.416667e+00	 1.000000e+01	 9.999996e+00
2	 8.500000e+00	 9.583333e+00	 1.000089e+01
2	 8.500000e+00	 9.666667e+00	 1.000057e+01
2	 8.500000e+00	 9.750000e+00	 1.000033e+01
2	 8.500000e+00	 9.833333e+00	 1.000015e+01
2	 8.500000e+00	 9.916667e+00	 1.000004e+01
2	 8.500000e+00	 1.000000e+01	 9.999996e+00
2	 8.583333e+00	 9.583333e+00	 1.000082e+01
2	 8.583333e+00	 9.666667e+00	 1.000053e+01
2	 8.583333e+00	 9.750000e+00	 1.000030e+01
2	 8.583333e+00	 9.833333e+00	 1.000014e+01
2	 8.583333e+00	 9.916667e+00	 1.000004e+01
2	 8.583333e+00	 1.000000e+01	 9.999994e+00
2	 8.666667e+00	 9.583333e+00	 1.000075e+01
2	 8.666667e+00	 9.666667e+00	 1.000048e+01
2	 8.666667e+00	 9.750000e+00	 1.000027e+01
2	 8.666667e+00	 9.833333e+00	 1.000012e+01
2	 8.666667e+00	 9.916667e+00	 1.000003e+01
2	 8.666667e+00	 1.000000e+01	 9.999993e+00
2	 8.750000e+00	 9.583333e+00	 1.000069e+01
2	 8.750000e+00	 9.666667e+00	 1.000044e+01
2	 8.750000e+00	 9.750000e+00	 1.000025e+01
2	 8.750000e+00	 9.833333e+00	 1.000012e+01
2	 8.750000e+00	 9.916667e+00	 1.000003e+01
2	 8.750000e+00	 1.000000e+01	 9.999995e+00
2	 8.750000e+00	 5.000000e+00	 1.001720e+01
2	 8.750000e+00	 5.083333e+00	 1.001837e+01
2	 8.750000e+00	 5.166667e+00	 1.001944e+01
2	 8.750000e+00	 5.250000e+00	 1.002041e+01
2	 8.750000e+00	 5.333333e+00	 1.002127e+01
2	 8.750000e+00	 5.416667e+00	 1.002204e+01
2	 8.833333e+00	 5.000000e+00	 1.001215e+01
2	 8.833333e+00	 5.083333e+00	 1.001347e+01
2	 8.833333e+00	 5.166667e+00	 1.001470e+01
2	 8.833333e+00	 5.250000e+00	 1.001582e+01
2	 8.833333e+00	 5.333333e+00	 1.001684e+01
2	 8.833333e+00	 5.416667e+00	 1.001775e+01
2	 8.916667e+00	 5.000000e+00	 1.000726e+01
2	 8.916667e+00	 5.083333e+00	 1.000874e+01
2	 8.916667e+00	 5.166667e+00	 1.001012e+01
2	 8.916667e+00	 5.250000e+00	 1.001139e+01
2	 8.916667e+00	 5.333333e+00	 1.001256e+01
2	 8.916667e+00	 5.416667e+00	 1.001361e+01
2	 9.000000e+00	 5.000000e+00	 1.000256e+01
2	 9.000000e+00	 5.083333e+00	 1.000420e+01
2	 9.000000e+00	 5.166667e+00	 1.000573e+01
2	 9.000000e+00	 5.250000e+00	 1.000715e+01
2	 9.000000e+00	 5.333333e+00	 1.000846e+01
2	 9.000000e+00	 5.416667e+00	 1.000966e+01
2	 9.083333e+00	 5.000000e+00	 9.998052e+00
2	 9.083333e+00	 5.083333e+00	 9.999847e+00
2	 9.083333e+00	 5.166667e+00	 1.000153e+01
2	 9.083333e+00	 5.250000e+00	 1.000310e+01
2	 9.083333e+00	 5.333333e+00	 1.000455e+01
2	 9.083333e+00	 5.416667e+00	 1.000589e+01
2	 9.166667e+00	 5.000000e+00	 9.993760e+00
2	 9.166667e+00	 5.083333e+00	 9.995711e+00
2	 9.166667e+00	 5.166667e+00	 9.997543e+00
2	 9.166667e+00	 5.250000e+00	 9.999257e+00
2	 9.166667e+00	 5.333333e+00	 1.000085e+01
2	 9.166667e+00	 5.416667e+00	 1.000233e+01
2	 8.750000e+00	 5.416667e+00	 1.002204e+01
2	 8.750000e+00	 5.500000e+00	 1.002271e+01
2	 8.750000e+00	 5.583333e+00	 1.002329e+01
2	 8.750000e+00	 5.666667e+00	 1.002377e+01
2	 8.750000e+00	 5.750000e+00	 1.002417e+01
2	 8.750000e+00	 5.833333e+00	 1.002447e+01
2	 8.833333e+00	 5.416667e+00	 1.001775e+01
2	 8.833333e+00	 5.500000e+00	 1.001856e+01
2	 8.833333e+00	 5.583333e+00	 1.001928e+01
2	 8.833333e+00	 5.666667e+00	 1.001990e+01
2	 8.833333e+00	 5.750000e+00	 1.002044e+01
2	 8.833333e+00	 5.833333e+00	 1.002087e+01
2	 8.916667e+00	 5.416667e+00	 1.001361e+01
2	 8.916667e+00	 5.500000e+00	 1.001457e+01
2	 8.916667e+00	 5.583333e+00	 1.001543e+01
2	 8.916667e+00	 5.666667e+00	 1.001619e+01
2	 8.916667e+00	 5.750000e+00	 1.001685e+01
2	 8.916667e+00	 5.833333e+00	 1.001741e+01
2	 9.000000e+00	 5.416667e+00	 1.000966e+01
2	 9.000000e+00	 5.500000e+00	 1.001075e+01
2	 9.000000e+00	 5.583333e+00	 1.001174e+01
2	 9.000000e+00	 5.666667e+00	 1.001263e+01
2	 9.000000e+00	 5.750000e+00	 1.001343e+01
2	 9.000000e+00	 5.833333e+00	 1.001411e+01
2	 9.083333e+00	 5.416667e+00	 1.000589e+01
2	 9.083333e+00	 5.500000e+00	 1.000712e+01
2	 9.083333e+00	 5.583333e+00	 1.000824e+01
2	 9.083333e+00	 5.666667e+00	 1.000926e+01
2	 9.083333e+00	 5.750000e+00	 1.001018e+01
2	 9.083333e+00	 5.833333e+00	 1.001099e+01
2	 9.166667e+00	 5.416667e+00	 1.000233e+01
2	 9.166667e+00	 5.500000e+00	 1.000369e+01
2	 9.166667e+00	 5.583333e+00	 1.000494e+01
2	 9.166667e+00	 5.666667e+00	 1.000609e+01
2	 9.166667e+00	 5.750000e+00	 1.000712e+01
2	 9.166667e+00	 5.833333e+00	 1.000804e+01
2	 8.750000e+00	 5.833333e+00	 1.002447e+01
2	 8.750000e+00	 5.916667e+00	 1.002469e+01
2	 8.750000e+00	 6.000000e+00	 1.002483e+01
2	 8.750000e+00	 6.083333e+00	 1.002490e+01
2	 8.750000e+00	 6.166667e+00	 1.002489e+01
2	 8.750000e+00	 6.250000e+00	 1.002480e+01
2	 8.833333e+00	 5.833333e+00	 1.002087e+01
2	 8.833333e+00	 5.916667e+00	 1.002122e+01
2	 8.833333e+00	 6.000000e+00	 1.002149e+01
2	 8.833333e+00	 6.083333e+00	 1.002168e+01
2	 8.833333e+00	 6.166667e+00	 1.002179e+01
2	 8.833333e+00	 6.250000e+00	 1.002181e+01
2	 8.916667e+00	 5.833333e+00	 1.001741e+01
2	 8.916667e+00	 5.916667e+00	 1.001788e+01
2	 8.916667e+00	 6.000000e+00	 1.001828e+01
2	 8.916667e+00	 6.083333e+00	 1.001858e+01
2	 8.916667e+00	 6.166667e+00	 1.001881e+01
2	 8.916667e+00	 6.250000e+00	 1.001895e+01
2	 9.000000e+00	 5.833333e+00	 1.001411e+01
2	 9.000000e+00	 5.916667e+00	 1.001471e+01
2	 9.000000e+00	 6.000000e+00	 1.001521e+01
2	 9.000000e+00	 6.083333e+00	 1.001564e+01
2	 9.000000e+00	 6.166667e+00	 1.001597e+01
2	 9.000000e+00	 6.250000e+00	 1.001622e+01
2	 9.083333e+00	 5.833333e+00	 1.001099e+01
2	 9.083333e+00	 5.916667e+00	 1.001169e+01
2	 9.083333e+00	 6.000000e+00	 1.001232e+01
2	 9.083333e+00	 6.083333e+00	 1.001285e+01
2	 9.083333e+00	 6.166667e+00	 1.001329e+01
2	 9.083333e+00	 6.250000e+00	 1.001364e+01
2	 9.166667e+00	 5.833333e+00	 1.000804e+01
2	 9.166667e+00	 5.916667e+00	 1.000886e+01
2	 9.166667e+00	 6.000000e+00	 1.000959e+01
2	 9.166667e+00	 6.083333e+00	 1.001023e+01
2	 9.166667e+00	 6.166667e+00	 1.001077e+01
2	 9.166667e+00	 6.250000e+00	 1.001121e+01
2	 8.750000e+00	 6.250000e+00	 1.002480e+01
2	 8.750000e+00	 6.333333e+00	 1.002464e+01
2	 8.750000e+00	 6.416667e+00	 1.002442e+01
2	 8.750000e+00	 6.500000e+00	 1.002414e+01
2	 8.750000e+00	 6.583333e+00	 1.002380e+01
2	 8.750000e+00	 6.666667e+00	 1.002340e+01
2	 8.833333e+00	 6.250000e+00	 1.002181e+01
2	 8.833333e+00	 6.333333e+00	 1.002177e+01
2	 8.833333e+00	 6.416667e+00	 1.002166e+01
2	 8.833333e+00	 6.500000e+00	 1.002149e+01
2	 8.833333e+00	 6.583333e+00	 1.002125e+01
2	 8.833333e+00	 6.666667e+00	 1.002095e+01
2	 8.916667e+00	 6.250000e+00	 1.001895e+01
2	 8.916667e+00	 6.333333e+00	 1.001901e+01
2	 8.916667e+00	 6.416667e+00	 1.001901e+01
2	 8.916667e+00	 6.500000e+00	 1.001894e+01
2	 8.916667e+00	 6.583333e+00	 1.001881e+01
2	 8.916667e+00	 6.666667e+00	 1.001861e+01
2	 9.000000e+00	 6.250000e+00	 1.001622e+01
2	 9.000000e+00	 6.333333e+00	 1.001639e+01
2	 9.000000e+00	 6.416667e+00	 1.001649e+01
2	 9.000000e+00	 6.500000e+00	 1.001652e+01
2	 9.000000e+00	 6.583333e+00	 1.001648e+01
2	 9.000000e+00	 6.666667e+00	 1.001637e+01
2	 9.083333e+00	 6.250000e+00	 1.001364e+01
2	 9.083333e+00	 6.333333e+00	 1.001390e+01
2	 9.083333e+00	 6.416667e+00	 1.001410e+01
2	 9.083333e+00	 6.500000e+00	 1.001422e+01
2	 9.083333e+00	 6.583333e+00	 1.001427e+01
2	 9.083333e+00	 6.666667e+00	 1.001425e+01
2	 9.166667e+00	 6.250000e+00	 1.001121e+01
2	 9.166667e+00	 6.333333e+00	 1.001157e+01
2	 9.166667e+00	 6.416667e+00	 1.001185e+01
2	 9.166667e+00	 6.500000e+00	 1.001206e+01
2	 9.166667e+00	 6.583333e+00	 1.001220e+01
2	 9.166667e+00	 6.666667e+00	 1.001225e+01
2	 8.750000e+00	 6.666667e+00	 1.002340e+01
2	 8.750000e+00	 6.750000e+00	 1.002294e+01
2	 8.750000e+00	 6.833333e+00	 1.002244e+01
2	 8.750000e+00	 6.916667e+00	 1.002190e+01
2	 8.750000e+00	 7.000000e+00	 1.002132e+01
2	 8.750000e+00	 7.083333e+00	 1.002069e+01
2	 8.833333e+00	 6.666667e+00	 1.002095e+01
2	 8.833333e+00	 6.750000e+00	 1.002060e+01
2	 8.833333e+00	 6.833333e+00	 1.002020e+01
2	 8.833333e+00	 6.916667e+00	 1.001975e+01
2	 8.833333e+00	 7.000000e+00	 1.001926e+01
2	 8.833333e+00	 7.083333e+00	 1.001873e+01
2	 8.916667e+00	 6.666667e+00	 1.001861e+01
2	 8.916667e+00	 6.750000e+00	 1.001835e+01
2	 8.916667e+00	 6.833333e+00	 1.001804e+01
2	 8.916667e+00	 6.916667e+00	 1.001769e+01
2	 8.916667e+00	 7.000000e+00	 1.001729e+01
2	 8.916667e+00	 7.083333e+00	 1.001684e+01
2	 9.000000e+00	 6.666667e+00	 1.001637e+01
2	 9.000000e+00	 6.750000e+00	 1.001620e+01
2	 9.000000e+00	 6.833333e+00	 1.001598e+01
2	 9.000000e+00	 6.916667e+00	 1.001571e+01
2	 9.000000e+00	 7.000000e+00	 1.001539e+01
2	 9.000000e+00	 7.083333e+00	 1.001502e+01
2	 9.083333e+00	 6.666667e+00	 1.001425e+01
2	 9.083333e+00	 6.750000e+00	 1.001416e+01
2	 9.083333e+00	 6.833333e+00	 1.001402e+01
2	 9.083333e+00	 6.916667e+00	 1.001383e+01
2	 9.083333e+00	 7.000000e+00	 1.001359e+01
2	 9.083333e+00	 7.083333e+00	 1.001329e+01
2	 9.166667e+00	 6.666667e+00	 1.001225e+01
2	 9.166667e+00	 6.750000e+00	 1.001224e+01
2	 9.166667e+00	 6.833333e+00	 1.001218e+01
2	 9.166667e+00	 6.916667e+00	 1.001206e+01
2	 9.166667e+00	 7.000000e+00	 1.001189e+01
2	 9.166667e+00	 7.083333e+00	 1.001165e+01
2	 8.750000e+00	 7.083333e+00	 1.002069e+01
2	 8.750000e+00	 7.166667e+00	 1.002002e+01
2	 8.750000e+00	 7.250000e+00	 1.001934e+01
2	 8.750000e+00	 7.333333e+00	 1.001863e+01
2	 8.750000e+00	 7.416667e+00	 1.001789e+01
2	 8.750000e+00	 7.500000e+00	 1.001712e+01
2	 8.833333e+00	 7.083333e+00	 1.001873e+01
2	 8.833333e+00	 7.166667e+00	 1.001815e+01
2	 8.833333e+00	 7.250000e+00	 1.001755e+01
2	 8.833333e+00	 7.333333e+00	 1.001693e+01
2	 8.833333e+00	 7.416667e+00	 1.001627e+01
2	 8.833333e+00	 7.500000e+00	 1.001559e+01
2	 8.916667e+00	 7.083333e+00	 1.001684e+01
2	 8.916667e+00	 7.166667e+00	 1.001634e+01
2	 8.916667e+00	 7.250000e+00	 1.001583e+01
2	 8.916667e+00	 7.333333e+00	 1.001528e+01
2	 8.916667e+00	 7.416667e+00	 1.001471e+01
2	 8.916667e+00	 7.500000e+00	 1.001410e+01
2	 9.000000e+00	 7.083333e+00	 1.001502e+01
2	 9.000000e+00	 7.166667e+00	 1.001461e+01
2	 9.000000e+00	 7.250000e+00	 1.001417e+01
2	 9.000000e+00	 7.333333e+00	 1.001370e+01
2	 9.000000e+00	 7.416667e+00	 1.001320e+01
2	 9.000000e+00	 7.500000e+00	 1.001266e+01
2	 9.083333e+00	 7.083333e+00	 1.001329e+01
2	 9.083333e+00	 7.166667e+00	 1.001295e+01
2	 9.083333e+00	 7.250000e+00	 1.001258e+01
2	 9.083333e+00	 7.333333e+00	 1.001218e+01
2	 9.083333e+00	 7.416667e+00	 1.001175e+01
2	 9.083333e+00	 7.500000e+00	 1.001128e+01
2	 9.166667e+00	 7.083333e+00	 1.001165e+01
2	 9.166667e+00	 7.166667e+00	 1.001138e+01
2	 9.166667e+00	 7.250000e+00	 1.001107e+01
2	 9.166667e+00	 7.333333e+00	 1.001073e+01
2	 9.166667e+00	 7.416667e+00	 1.001036e+01
2	 9.166667e+00	 7.500000e+00	 1.000995e+01
2	 8.750000e+00	 7.500000e+00	 1.001712e+01
2	 8.750000e+00	 7.583333e+00	 1.001634e+01
2	 8.750000e+00	 7.666667e+00	 1.001555e+01
2	 8.750000e+00	 7.750000e+00	 1.001475e+01
2	 8.750000e+00	 7.833333e+00	 1.001395e+01
2	 8.750000e+00	 7.916667e+00	 1.001313e+01
2	 8.833333e+00	 7.500000e+00	 1.001559e+01
2	 8.833333e+00	 7.583333e+00	 1.001488e+01
2	 8.833333e+00	 7.666667e+00	 1.001417e+01
2	 8.833333e+00	 7.750000e+00	 1.001345e+01
2	 8.833333e+00	 7.833333e+00	 1.001272e+01
2	 8.833333e+00	 7.916667e+00	 1.001198e+01
2	 8.916667e+00	 7.500000e+00	 1.001410e+01
2	 8.916667e+00	 7.583333e+00	 1.001347e+01
2	 8.916667e+00	 7.666667e+00	 1.001283e+01
2	 8.916667e+00	 7.750000e+00	 1.001219e+01
2	 8.916667e+00	 7.833333e+00	 1.001153e+01
2	 8.916667e+00	 7.916667e+00	 1.001085e+01
2	 9.000000e+00	 7.500000e+00	 1.001266e+01
2	 9.000000e+00	 7.583333e+00	 1.001210e+01
2	 9.000000e+00	 7.666667e+00	 1.001153e+01
2	 9.000000e+00	 7.750000e+00	 1.001096e+01
2	 9.000000e+00	 7.833333e+00	 1.001036e+01
2	 9.000000e+00	 7.916667e+00	 1.000975e+01
2	 9.083333e+00	 7.500000e+00	 1.001128e+01
2	 9.083333e+00	 7.583333e+00	 1.001078e+01
2	 9.083333e+00	 7.666667e+00	 1.001028e+01
2	 9.083333e+00	 7.750000e+00	 1.000976e+01
2	 9.083333e+00	 7.833333e+00	 1.000923e+01
2	 9.083333e+00	 7.916667e+00	 1.000868e+01
2	 9.166667e+00	 7.500000e+00	 1.000995e+01
2	 9.166667e+00	 7.583333e+00	 1.000951e+01
2	 9.166667e+00	 7.666667e+00	 1.000906e+01
2	 9.166667e+00	 7.750000e+00	 1.000860e+01
2	 9.166667e+00	 7.833333e+00	 1.000813e+01
2	 9.166667e+00	 7.916667e+00	 1.000764e+01
2	 8.750000e+00	 7.916667e+00	 1.001313e+01
2	 8.750000e+00	 8.000000e+00	 1.001231e+01
2	 8.750000e+00	 8.083333e+00	 1.001151e+01
2	 8.750000e+00	 8.166667e+00	 1.001071e+01
2	 8.750000e+00	 8.250000e+00	 1.000992e+01
2	 8.750000e+00	 8.333333e+00	 1.000913e+01
2	 8.833333e+00	 7.916667e+00	 1.001198e+01
2	 8.833333e+00	 8.000000e+00	 1.001123e+01
2	 8.833333e+00	 8.083333e+00	 1.001050e+01
2	 8.833333e+00	 8.166667e+00	 1.000977e+01
2	 8.833333e+00	 8.250000e+00	 1.000905e+01
2	 8.833333e+00	 8.333333e+00	 1.000833e+01
2	 8.916667e+00	 7.916667e+00	 1.001085e+01
2	 8.916667e+00	 8.000000e+00	 1.001018e+01
2	 8.916667e+00	 8.083333e+00	 1.000951e+01
2	 8.916667e+00	 8.166667e+00	 1.000885e+01
2	 8.916667e+00	 8.250000e+00	 1.000819e+01
2	 8.916667e+00	 8.333333e+00	 1.000753e+01
2	 9.000000e+00	 7.916667e+00	 1.000975e+01
2	 9.000000e+00	 8.000000e+00	 1.000914e+01
2	 9.000000e+00	 8.083333e+00	 1.000854e+01
2	 9.000000e+00	 8.166667e+00	 1.000794e+01
2	 9.000000e+00	 8.250000e+00	 1.000734e+01
2	 9.000000e+00	 8.333333e+00	 1.000674e+01
2	 9.083333e+00	 7.916667e+00	 1.000868e+01
2	 9.083333e+00	 8.000000e+00	 1.000813e+01
2	 9.083333e+00	 8.083333e+00	 1.000758e+01
2	 9.083333e+00	 8.166667e+00	 1.000704e+01
2	 9.083333e+00	 8.250000e+00	 1.000650e+01
2	 9.083333e+00	 8.333333e+00	 1.000597e+01
2	 9.166667e+00	 7.916667e+00	 1.000764e+01
2	 9.166667e+00	 8.000000e+00	 1.000714e+01
2	 9.166667e+00	 8.083333e+00	 1.000665e+01
2	 9.166667e+00	 8.166667e+00	 1.000616e+01
2	 9.166667e+00	 8.250000e+00	 1.000568e+01
2	 9.166667e+00	 8.333333e+00	 1.000519e+01
2	 8.750000e+00	 8.333333e+00	 1.000913e+01
2	 8.750000e+00	 8.416667e+00	 1.000836e+01
2	 8.750000e+00	 8.500000e+00	 1.000761e+01
2	 8.750000e+00	 8.583333e+00	 1.000689e+01
2	 8.750000e+00	 8.666667e+00	 1.000619e+01
2	 8.750000e+00	 8.750000e+00	 1.000551e+01
2	 8.833333e+00	 8.333333e+00	 1.000833e+01
2	 8.833333e+00	 8.416667e+00	 1.000762e+01
2	 8.833333e+00	 8.500000e+00	 1.000694e+01
2	 8.833333e+00	 8.583333e+00	 1.000627e+01
2	 8.833333e+00	 8.666667e+00	 1.000563e+01
2	 8.833333e+00	 8.750000e+00	 1.000501e+01
2	 8.916667e+00	 8.333333e+00	 1.000753e+01
2	 8.916667e+00	 8.416667e+00	 1.000689e+01
2	 8.916667e+00	 8.500000e+00	 1.000626e+01
2	 8.916667e+00	 8.583333e+00	 1.000566e+01
2	 8.916667e+00	 8.666667e+00	 1.000508e+01
2	 8.916667e+00	 8.750000e+00	 1.000451e+01
2	 9.000000e+00	 8.333333e+00	 1.000674e+01
2	 9.000000e+00	 8.416667e+00	 1.000616e+01
2	 9.000000e+00	 8.500000e+00	 1.000559e+01
2	 9.000000e+00	 8.583333e+00	 1.000505e+01
2	 9.000000e+00	 8.666667e+00	 1.000452e+01
2	 9.000000e+00	 8.750000e+00	 1.000400e+01
2	 9.083333e+00	 8.333333e+00	 1.000597e+01
2	 9.083333e+00	 8.416667e+00	 1.000544e+01
2	 9.083333e+00	 8.500000e+00	 1.000493e+01
2	 9.083333e+00	 8.583333e+00	 1.000444e+01
2	 9.083333e+00	 8.666667e+00	 1.000396e+01
2	 9.083333e+00	 8.750000e+00	 1.000350e+01
2	 9.166667e+00	 8.333333e+00	 1.000519e+01
2	 9.166667e+00	 8.416667e+00	 1.000472e+01
2	 9.166667e+00	 8.500000e+00	 1.000426e+01
2	 9.166667e+00	 8.583333e+00	 1.000382e+01
2	 9.166667e+00	 8.666667e+00	 1.000340e+01
2	 9.166667e+00	 8.750000e+00	 1.000299e+01
2	 8.750000e+00	 8.750000e+00	 1.000551e+01
2	 8.750000e+00	 8.833333e+00	 1.000485e+01
2	 8.750000e+00	 8.916667e+00	 1.000424e+01
2	 8.750000e+00	 9.000000e+00	 1.000366e+01
2	 8.750000e+00	 9.083333e+00	 1.000311e+01
2	 8.750000e+00	 9.166667e+00	 1.000260e+01
2	 8.833333e+00	 8.750000e+00	 1.000501e+01
2	 8.833333e+00	 8.833333e+00	 1.000441e+01
2	 8.833333e+00	 8.916667e+00	 1.000384e+01
2	 8.833333e+00	 9.000000e+00	 1.000332e+01
2	 8.833333e+00	 9.083333e+00	 1.000282e+01
2	 8.833333e+00	 9.166667e+00	 1.000235e+01
2	 8.916667e+00	 8.750000e+00	 1.000451e+01
2	 8.916667e+00	 8.833333e+00	 1.000396e+01
2	 8.916667e+00	 8.916667e+00	 1.000345e+01
2	 8.916667e+00	 9.000000e+00	 1.000297e+01
2	 8.916667e+00	 9.083333e+00	 1.000252e+01
2	 8.916667e+00	 9.166667e+00	 1.000210e+01
2	 9.000000e+00	 8.750000e+00	 1.000400e+01
2	 9.000000e+00	 8.833333e+00	 1.000351e+01
2	 9.000000e+00	 8.916667e+00	 1.000305e+01
2	 9.000000e+00	 9.000000e+00	 1.000262e+01
2	 9.000000e+00	 9.083333e+00	 1.000222e+01
2	 9.000000e+00	 9.166667e+00	 1.000184e+01
2	 9.083333e+00	 8.750000e+00	 1.000350e+01
2	 9.083333e+00	 8.833333e+00	 1.000306e+01
2	 9.083333e+00	 8.916667e+00	 1.000265e+01
2	 9.083333e+00	 9.000000e+00	 1.000227e+01
2	 9.083333e+00	 9.083333e+00	 1.000191e+01
2	 9.083333e+00	 9.166667e+00	 1.000158e+01
2	 9.166667e+00	 8.750000e+00	 1.000299e+01
2	 9.166667e+00	 8.833333e+00	 1.000260e+01
2	 9.166667e+00	 8.916667e+00	 1.000224e+01
2	 9.166667e+00	 9.000000e+00	 1.000190e+01
2	 9.166667e+00	 9.083333e+00	 1.000159e+01
2	 9.166667e+00	 9.166667e+00	 1.000131e+01
2	 8.750000e+00	 9.166667e+00	 1.000260e+01
2	 8.750000e+00	 9.250000e+00	 1.000212e+01
2	 8.750000e+00	 9.333333e+00	 1.000170e+01
2	 8.750000e+00	 9.416667e+00	 1.000132e+01
2	 8.750000e+00	 9.500000e+00	 1.000098e+01
2	 8.750000e+00	 9.583333e+00	 1.000069e+01
2	 8.833333e+00	 9.166667e+00	 1.000235e+01
2	 8.833333e+00	 9.250000e+00	 1.000192e+01
2	 8.833333e+00	 9.333333e+00	 1.000153e+01
2	 8.833333e+00	 9.416667e+00	 1.000119e+01
2	 8.833333e+00	 9.500000e+00	 1.000089e+01
2	 8.833333e+00	 9.583333e+00	 1.000062e+01
2	 8.916667e+00	 9.166667e+00	 1.000210e+01
2	 8.916667e+00	 9.250000e+00	 1.000171e+01
2	 8.916667e+00	 9.333333e+00	 1.000136e+01
2	 8.916667e+00	 9.416667e+00	 1.000106e+01
2	 8.916667e+00	 9.500000e+00	 1.000078e+01
2	 8.916667e+00	 9.583333e+00	 1.000055e+01
2	 9.000000e+00	 9.166667e+00	 1.000184e+01
2	 9.000000e+00	 9.250000e+00	 1.000150e+01
2	 9.000000e+00	 9.333333e+00	 1.000119e+01
2	 9.000000e+00	 9.416667e+00	 1.000092e+01
2	 9.000000e+00	 9.500000e+00	 1.000068e+01
2	 9.000000e+00	 9.583333e+00	 1.000047e+01
2	 9.083333e+00	 9.166667e+00	 1.000158e+01
2	 9.083333e+00	 9.250000e+00	 1.000128e+01
2	 9.083333e+00	 9.333333e+00	 1.000101e+01
2	 9.083333e+00	 9.416667e+00	 1.000077e+01
2	 9.083333e+00	 9.500000e+00	 1.000057e+01
2	 9.083333e+00	 9.583333e+00	 1.000039e+01
2	 9.166667e+00	 9.166667e+00	 1.000131e+01
2	 9.166667e+00	 9.250000e+00	 1.000105e+01
2	 9.166667e+00	 9.333333e+00	 1.000082e+01
2	 9.166667e+00	 9.416667e+00	 1.000062e+01
2	 9.166667e+00	 9.500000e+00	 1.000045e+01
2	 9.166667e+00	 9.583333e+00	 1.000031e+01
2	 8.750000e+00	 9.583333e+00	 1.000069e+01
2	 8.750000e+00	 9.666667e+00	 1.000044e+01
2	 8.750000e+00	 9.750000e+00	 1.000025e+01
2	 8.750000e+00	 9.833333e+00	 1.000012e+01
2	 8.750000e+00	 9.916667e+00	 1.000003e+01
2	 8.750000e+00	 1.000000e+01	 9.999995e+00
2	 8.833333e+00	 9.583333e+00	 1.000062e+01
2	 8.833333e+00	 9.666667e+00	 1.000040e+01
2	 8.833333e+00	 9.750000e+00	 1.000023e+01
2	 8.833333e+00	 9.833333e+00	 1.000011e+01
2	 8.833333e+00	 9.916667e+00	 1.000003e+01
2	 8.833333e+00	 1.000000e+01	 9.999997e+00
2	 8.916667e+00	 9.583333e+00	 1.000055e+01
2	 8.916667e+00	 9.666667e+00	 1.000035e+01
2	 8.916667e+00	 9.750000e+00	 1.000020e+01
2	 8.916667e+00	 9.833333e+00	 1.000009e+01
2	 8.916667e+00	 9.916667e+00	 1.000002e+01
2	 8.916667e+00	 1.000000e+01	 9.999994e+00
2	 9.000000e+00	 9.583333e+00	 1.000047e+01
2	 9.000000e+00	 9.666667e+00	 1.000030e+01
2	 9.000000e+00	 9.750000e+00	 1.000017e+01
2	 9.000000e+00	 9.833333e+00	 1.000008e+01
2	 9.000000e+00	 9.916667e+00	 1.000002e+01
2	 9.000000e+00	 1.000000e+01	 9.999993e+00
2	 9.083333e+00	 9.583333e+00	 1.000039e+01
2	 9.083333e+00	 9.666667e+00	 1.000025e+01
2	 9.083333e+00	 9.750000e+00	 1.000014e+01
2	 9.083333e+00	 9.833333e+00	 1.000006e+01
2	 9.083333e+00	 9.916667e+00	 1.000001e+01
2	 9.083333e+00	 1.000000e+01	 9.999995e+00
2	 9.166667e+00	 9.583333e+00	 1.000031e+01
2	 9.166667e+00	 9.666667e+00	 1.000020e+01
2	 9.166667e+00	 9.750000e+00	 1.000011e+01
2	 9.166667e+00	 9.833333e+00	 1.000005e+01
2	 9.166667e+00	 9.916667e+00	 1.000001e+01
2	 9.166667e+00	 1.000000e+01	 1.000001e+01
2	 9.166667e+00	 5.000000e+00	 9.993760e+00
2	 9.166667e+00	 5.083333e+00	 9.995711e+00
2	 9.166667e+00	 5.166667e+00	 9.997543e+00
2	 9.166667e+00	 5.250000e+00	 9.999257e+00
2	 9.166667e+00	 5.333333e+00	 1.000085e+01
2	 9.166667e+00	 5.416667e+00	 1.000233e+01
2	 9.250000e+00	 5.000000e+00	 9.989685e+00
2	 9.250000e+00	 5.083333e+00	 9.991790e+00
2	 9.250000e+00	 5.166667e+00	 9.993772e+00
2	 9.250000e+00	 5.250000e+00	 9.995630e+00
2	 9.250000e+00	 5.333333e+00	 9.997365e+00
2	 9.250000e+00	 5.416667e+00	 9.998975e+00
2	 9.333333e+00	 5.000000e+00	 9.985833e+00
2	 9.333333e+00	 5.083333e+00	 9.988092e+00
2	 9.333333e+00	 5.166667e+00	 9.990222e+00
2	 9.333333e+00	 5.250000e+00	 9.992223e+00
2	 9.333333e+00	 5.333333e+00	 9.994095e+00
2	 9.333333e+00	 5.416667e+00	 9.995836e+00
2	 9.416667e+00	 5.000000e+00	 9.982228e+00
2	 9.416667e+00	 5.083333e+00	 9.984640e+00
2	 9.416667e+00	 5.166667e+00	 9.986917e+00
2	 9.416667e+00	 5.250000e+00	 9.989058e+00
2	 9.416667e+00	 5.333333e+00	 9.991064e+00
2	 9.416667e+00	 5.416667e+00	 9.992934e+00
2	 9.500000e+00	 5.000000e+00	 9.978892e+00
2	 9.500000e+00	 5.083333e+00	 9.981455e+00
2	 9.500000e+00	 5.166667e+00	 9.983877e+00
2	 9.500000e+00	 5.250000e+00	 9.986157e+00
2	 9.500000e+00	 5.333333e+00	 9.988294e+00
2	 9.500000e+00	 5.416667e+00	 9.990289e+00
2	 9.583333e+00	 5.000000e+00	 9.975846e+00
2	 9.583333e+00	 5.083333e+00	 9.978560e+00
2	 9.583333e+00	 5.166667e+00	 9.981125e+00
2	 9.583333e+00	 5.250000e+00	 9.983541e+00
2	 9.583333e+00	 5.333333e+00	 9.985806e+00
2	 9.583333e+00	 5.416667e+00	 9.987922e+00
2	 9.166667e+00	 5.416667e+00	 1.000233e+01
2	 9.166667e+00	 5.500000e+00	 1.000369e+01
2	 9.166667e+00	 5.583333e+00	 1.000494e+01
2	 9.166667e+00	 5.666667e+00	 1.000609e+01
2	 9.166667e+00	 5.750000e+00	 1.000712e+01
2	 9.166667e+00	 5.833333e+00	 1.000804e+01
2	 9.250000e+00	 5.416667e+00	 9.998975e+00
2	 9.250000e+00	 5.500000e+00	 1.000047e+01
2	 9.250000e+00	 5.583333e+00	 1.000184e+01
2	 9.250000e+00	 5.666667e+00	 1.000311e+01
2	 9.250000e+00	 5.750000e+00	 1.000426e+01
2	 9.250000e+00	 5.833333e+00	 1.000529e+01
2	 9.333333e+00	 5.416667e+00	 9.995836e+00
2	 9.333333e+00	 5.500000e+00	 9.997454e+00
2	 9.333333e+00	 5.583333e+00	 9.998953e+00
2	 9.333333e+00	 5.666667e+00	 1.000033e+01
2	 9.333333e+00	 5.750000e+00	 1.000159e+01
2	 9.333333e+00	 5.833333e+00	 1.000273e+01
2	 9.416667e+00	 5.416667e+00	 9.992934e+00
2	 9.416667e+00	 5.500000e+00	 9.994674e+00
2	 9.416667e+00	 5.583333e+00	 9.996290e+00
2	 9.416667e+00	 5.666667e+00	 9.997782e+00
2	 9.416667e+00	 5.750000e+00	 9.999147e+00
2	 9.416667e+00	 5.833333e+00	 1.000039e+01
2	 9.500000e+00	 5.416667e+00	 9.990289e+00
2	 9.500000e+00	 5.500000e+00	 9.992147e+00
2	 9.500000e+00	 5.583333e+00	 9.993876e+00
2	 9.500000e+00	 5.666667e+00	 9.995473e+00
2	 9.500000e+00	 5.750000e+00	 9.996938e+00
2	 9.500000e+00	 5.833333e+00	 9.998270e+00
2	 9.583333e+00	 5.416667e+00	 9.987922e+00
2	 9.583333e+00	 5.500000e+00	 9.989894e+00
2	 9.583333e+00	 5.583333e+00	 9.991729e+00
2	 9.583333e+00	 5.666667e+00	 9.993426e+00
2	 9.583333e+00	 5.750000e+00	 9.994985e+00
2	 9.583333e+00	 5.833333e+00	 9.996404e+00
2	 9.166667e+00	 5.833333e+00	 1.000804e+01
2	 9.166667e+00	 5.916667e+00	 1.000886e+01
2	 9.166667e+00	 6.000000e+00	 1.000959e+01
2	 9.166667e+00	 6.083333e+00	 1.001023e+01
2	 9.166667e+00	 6.166667e+00	 1.001077e+01
2	 9.166667e+00	 6.250000e+00	 1.001121e+01
2	 9.250000e+00	 5.833333e+00	 1.000529e+01
2	 9.250000e+00	 5.916667e+00	 1.000622e+01
2	 9.250000e+00	 6.000000e+00	 1.000705e+01
2	 9.250000e+00	 6.083333e+00	 1.000778e+01
2	 9.250000e+00	 6.166667e+00	 1.000841e+01
2	 9.250000e+00	 6.250000e+00	 1.000895e+01
2	 9.333333e+00	 5.833333e+00	 1.000273e+01
2	 9.333333e+00	 5.916667e+00	 1.000376e+01
2	 9.333333e+00	 6.000000e+00	 1.000469e+01
2	 9.333333e+00	 6.083333e+00	 1.000551e+01
2	 9.333333e+00	 6.166667e+00	 1.000623e+01
2	 9.333333e+00	 6.250000e+00	 1.000685e+01
2	 9.416667e+00	 5.833333e+00	 1.000039e+01
2	 9.416667e+00	 5.916667e+00	 1.000151e+01
2	 9.416667e+00	 6.000000e+00	 1.000252e+01
2	 9.416667e+00	 6.083333e+00	 1.000343e+01
2	 9.416667e+00	 6.166667e+00	 1.000423e+01
2	 9.416667e+00	 6.250000e+00	 1.000492e+01
2	 9.500000e+00	 5.833333e+00	 9.998270e+00
2	 9.500000e+00	 5.916667e+00	 9.999481e+00
2	 9.500000e+00	 6.000000e+00	 1.000058e+01
2	 9.500000e+00	 6.083333e+00	 1.000157e+01
2	 9.500000e+00	 6.166667e+00	 1.000244e+01
2	 9.500000e+00	 6.250000e+00	 1.000319e+01
2	 9.583333e+00	 5.833333e+00	 9.996404e+00
2	 9.583333e+00	 5.916667e+00	 9.997694e+00
2	 9.583333e+00	 6.000000e+00	 9.998868e+00
2	 9.583333e+00	 6.083333e+00	 9.999923e+00
2	 9.583333e+00	 6.166667e+00	 1.000086e+01
2	 9.583333e+00	 6.250000e+00	 1.000167e+01
2	 9.166667e+00	 6.250000e+00	 1.001121e+01
2	 9.166667e+00	 6.333333e+00	 1.001157e+01
2	 9.166667e+00	 6.416667e+00	 1.001185e+01
2	 9.166667e+00	 6.500000e+00	 1.001206e+01
2	 9.166667e+00	 6.583333e+00	 1.001220e+01
2	 9.166667e+00	 6.666667e+00	 1.001225e+01
2	 9.250000e+00	 6.250000e+00	 1.000895e+01
2	 9.250000e+00	 6.333333e+00	 1.000939e+01
2	 9.250000e+00	 6.416667e+00	 1.000976e+01
2	 9.250000e+00	 6.500000e+00	 1.001004e+01
2	 9.250000e+00	 6.583333e+00	 1.001025e+01
2	 9.250000e+00	 6.666667e+00	 1.001038e+01
2	 9.333333e+00	 6.250000e+00	 1.000685e+01
2	 9.333333e+00	 6.333333e+00	 1.000737e+01
2	 9.333333e+00	 6.416667e+00	 1.000781e+01
2	 9.333333e+00	 6.500000e+00	 1.000817e+01
2	 9.333333e+00	 6.583333e+00	 1.000844e+01
2	 9.333333e+00	 6.666667e+00	 1.000864e+01
2	 9.416667e+00	 6.250000e+00	 1.000492e+01
2	 9.416667e+00	 6.333333e+00	 1.000552e+01
2	 9.416667e+00	 6.416667e+00	 1.000603e+01
2	 9.416667e+00	 6.500000e+00	 1.000645e+01
2	 9.416667e+00	 6.583333e+00	 1.000678e+01
2	 9.416667e+00	 6.666667e+00	 1.000703e+01
2	 9.500000e+00	 6.250000e+00	 1.000319e+01
2	 9.500000e+00	 6.333333e+00	 1.000385e+01
2	 9.500000e+00	 6.416667e+00	 1.000442e+01
2	 9.500000e+00	 6.500000e+00	 1.000490e+01
2	 9.500000e+00	 6.583333e+00	 1.000528e+01
2	 9.500000e+00	 6.666667e+00	 1.000558e+01
2	 9.583333e+00	 6.250000e+00	 1.000167e+01
2	 9.583333e+00	 6.333333e+00	 1.000238e+01
2	 9.583333e+00	 6.416667e+00	 1.000300e+01
2	 9.583333e+00	 6.500000e+00	 1.000352e+01
2	 9.583333e+00	 6.583333e+00	 1.000395e+01
2	 9.583333e+00	 6.666667e+00	 1.000428e+01
2	 9.166667e+00	 6.666667e+00	 1.001225e+01
2	 9.166667e+00	 6.750000e+00	 1.001224e+01
2	 9.166667e+00	 6.833333e+00	 1.001218e+01
2	 9.166667e+00	 6.916667e+00	 1.001206e+01
2	 9.166667e+00	 7.000000e+00	 1.001189e+01
2	 9.166667e+00	 7.083333e+00	 1.001165e+01
2	 9.250000e+00	 6.666667e+00	 1.001038e+01
2	 9.250000e+00	 6.750000e+00	 1.001044e+01
2	 9.250000e+00	 6.833333e+00	 1.001044e+01
2	 9.250000e+00	 6.916667e+00	 1.001039e+01
2	 9.250000e+00	 7.000000e+00	 1.001028e+01
2	 9.250000e+00	 7.083333e+00	 1.001010e+01
2	 9.333333e+00	 6.666667e+00	 1.000864e+01
2	 9.333333e+00	 6.750000e+00	 1.000876e+01
2	 9.333333e+00	 6.833333e+00	 1.000882e+01
2	 9.333333e+00	 6.916667e+00	 1.000882e+01
2	 9.333333e+00	 7.000000e+00	 1.000877e+01
2	 9.333333e+00	 7.083333e+00	 1.000865e+01
2	 9.416667e+00	 6.666667e+00	 1.000703e+01
2	 9.416667e+00	 6.750000e+00	 1.000721e+01
2	 9.416667e+00	 6.833333e+00	 1.000732e+01
2	 9.416667e+00	 6.916667e+00	 1.000737e+01
2	 9.416667e+00	 7.000000e+00	 1.000736e+01
2	 9.416667e+00	 7.083333e+00	 1.000728e+01
2	 9.500000e+00	 6.666667e+00	 1.000558e+01
2	 9.500000e+00	 6.750000e+00	 1.000579e+01
2	 9.500000e+00	 6.833333e+00	 1.000595e+01
2	 9.500000e+00	 6.916667e+00	 1.000604e+01
2	 9.500000e+00	 7.000000e+00	 1.000606e+01
2	 9.500000e+00	 7.083333e+00	 1.000602e+01
2	 9.583333e+00	 6.666667e+00	 1.000428e+01
2	 9.583333e+00	 6.750000e+00	 1.000453e+01
2	 9.583333e+00	 6.833333e+00	 1.000471e+01
2	 9.583333e+00	 6.916667e+00	 1.000483e+01
2	 9.583333e+00	 7.000000e+00	 1.000488e+01
2	 9.583333e+00	 7.083333e+00	 1.000486e+01
2	 9.166667e+00	 7.083333e+00	 1.001165e+01
2	 9.166667e+00	 7.166667e+00	 1.001138e+01
2	 9.166667e+00	 7.250000e+00	 1.001107e+01
2	 9.166667e+00	 7.333333e+00	 1.001073e+01
2	 9.166667e+00	 7.416667e+00	 1.001036e+01
2	 9.166667e+00	 7.500000e+00	 1.000995e+01
2	 9.250000e+00	 7.083333e+00	 1.001010e+01
2	 9.250000e+00	 7.166667e+00	 1.000989e+01
2	 9.250000e+00	 7.250000e+00	 1.000964e+01
2	 9.250000e+00	 7.333333e+00	 1.000935e+01
2	 9.250000e+00	 7.416667e+00	 1.000903e+01
2	 9.250000e+00	 7.500000e+00	 1.000867e+01
2	 9.333333e+00	 7.083333e+00	 1.000865e+01
2	 9.333333e+00	 7.166667e+00	 1.000848e+01
2	 9.333333e+00	 7.250000e+00	 1.000828e+01
2	 9.333333e+00	 7.333333e+00	 1.000804e+01
2	 9.333333e+00	 7.416667e+00	 1.000777e+01
2	 9.333333e+00	 7.500000e+00	 1.000745e+01
2	 9.416667e+00	 7.083333e+00	 1.000728e+01
2	 9.416667e+00	 7.166667e+00	 1.000716e+01
2	 9.416667e+00	 7.250000e+00	 1.000700e+01
2	 9.416667e+00	 7.333333e+00	 1.000680e+01
2	 9.416667e+00	 7.416667e+00	 1.000656e+01
2	 9.416667e+00	 7.500000e+00	 1.000629e+01
2	 9.500000e+00	 7.083333e+00	 1.000602e+01
2	 9.500000e+00	 7.166667e+00	 1.000593e+01
2	 9.500000e+00	 7.250000e+00	 1.000580e+01
2	 9.500000e+00	 7.333333e+00	 1.000563e+01
2	 9.500000e+00	 7.416667e+00	 1.000543e+01
2	 9.500000e+00	 7.500000e+00	 1.000518e+01
2	 9.583333e+00	 7.083333e+00	 1.000486e+01
2	 9.583333e+00	 7.166667e+00	 1.000479e+01
2	 9.583333e+00	 7.250000e+00	 1.000468e+01
2	 9.583333e+00	 7.333333e+00	 1.000454e+01
2	 9.583333e+00	 7.416667e+00	 1.000435e+01
2	 9.583333e+00	 7.500000e+00	 1.000412e+01
2	 9.166667e+00	 7.500000e+00	 1.000995e+01
2	 9.166667e+00	 7.583333e+00	 1.000951e+01
2	 9.166667e+00	 7.666667e+00	 1.000906e+01
2	 9.166667e+00	 7.750000e+00	 1.000860e+01
2	 9.166667e+00	 7.833333e+00	 1.000813e+01
2	 9.166667e+00	 7.916667e+00	 1.000764e+01
2	 9.250000e+00	 7.500000e+00	 1.000867e+01
2	 9.250000e+00	 7.583333e+00	 1.000829e+01
2	 9.250000e+00	 7.666667e+00	 1.000789e+01
2	 9.250000e+00	 7.750000e+00	 1.000748e+01
2	 9.250000e+00	 7.833333e+00	 1.000706e+01
2	 9.250000e+00	 7.916667e+00	 1.000662e+01
2	 9.333333e+00	 7.500000e+00	 1.000745e+01
2	 9.333333e+00	 7.583333e+00	 1.000712e+01
2	 9.333333e+00	 7.666667e+00	 1.000676e+01
2	 9.333333e+00	 7.750000e+00	 1.000640e+01
2	 9.333333e+00	 7.833333e+00	 1.000602e+01
2	 9.333333e+00	 7.916667e+00	 1.000562e+01
2	 9.416667e+00	 7.500000e+00	 1.000629e+01
2	 9.416667e+00	 7.583333e+00	 1.000599e+01
2	 9.416667e+00	 7.666667e+00	 1.000567e+01
2	 9.416667e+00	 7.750000e+00	 1.000535e+01
2	 9.416667e+00	 7.833333e+00	 1.000500e+01
2	 9.416667e+00	 7.916667e+00	 1.000465e+01
2	 9.500000e+00	 7.500000e+00	 1.000518e+01
2	 9.500000e+00	 7.583333e+00	 1.000491e+01
2	 9.500000e+00	 7.666667e+00	 1.000462e+01
2	 9.500000e+00	 7.750000e+00	 1.000432e+01
2	 9.500000e+00	 7.833333e+00	 1.000401e+01
2	 9.500000e+00	 7.916667e+00	 1.000368e+01
2	 9.583333e+00	 7.500000e+00	 1.000412e+01
2	 9.583333e+00	 7.583333e+00	 1.000387e+01
2	 9.583333e+00	 7.666667e+00	 1.000360e+01
2	 9.583333e+00	 7.750000e+00	 1.000333e+01
2	 9.583333e+00	 7.833333e+00	 1.000304e+01
2	 9.583333e+00	 7.916667e+00	 1.000273e+01
2	 9.166667e+00	 7.916667e+00	 1.000764e+01
2	 9.166667e+00	 8.000000e+00	 1.000714e+01
2	 9.166667e+00	 8.083333e+00	 1.000665e+01
2	 9.166667e+00	 8.166667e+00	 1.000616e+01
2	 9.166667e+00	 8.250000e+00	 1.000568e+01
2	 9.166667e+00	 8.333333e+00	 1.000519e+01
2	 9.250000e+00	 7.916667e+00	 1.000662e+01
2	 9.250000e+00	 8.000000e+00	 1.000617e+01
2	 9.250000e+00	 8.083333e+00	 1.000573e+01
2	 9.250000e+00	 8.166667e+00	 1.000529e+01
2	 9.250000e+00	 8.250000e+00	 1.000486e+01
2	 9.250000e+00	 8.333333e+00	 1.000442e+01
2	 9.333333e+00	 7.916667e+00	 1.000562e+01
2	 9.333333e+00	 8.000000e+00	 1.000522e+01
2	 9.333333e+00	 8.083333e+00	 1.000482e+01
2	 9.333333e+00	 8.166667e+00	 1.000443e+01
2	 9.333333e+00	 8.250000e+00	 1.000404e+01
2	 9.333333e+00	 8.333333e+00	 1.000365e+01
2	 9.416667e+00	 7.916667e+00	 1.000465e+01
2	 9.416667e+00	 8.000000e+00	 1.000428e+01
2	 9.416667e+00	 8.083333e+00	 1.000392e+01
2	 9.416667e+00	 8.166667e+00	 1.000357e+01
2	 9.416667e+00	 8.250000e+00	 1.000322e+01
2	 9.416667e+00	 8.333333e+00	 1.000288e+01
2	 9.500000e+00	 7.916667e+00	 1.000368e+01
2	 9.500000e+00	 8.000000e+00	 1.000335e+01
2	 9.500000e+00	 8.083333e+00	 1.000303e+01
2	 9.500000e+00	 8.166667e+00	 1.000271e+01
2	 9.500000e+00	 8.250000e+00	 1.000240e+01
2	 9.500000e+00	 8.333333e+00	 1.000209e+01
2	 9.583333e+00	 7.916667e+00	 1.000273e+01
2	 9.583333e+00	 8.000000e+00	 1.000242e+01
2	 9.583333e+00	 8.083333e+00	 1.000212e+01
2	 9.583333e+00	 8.166667e+00	 1.000183e+01
2	 9.583333e+00	 8.250000e+00	 1.000155e+01
2	 9.583333e+00	 8.333333e+00	 1.000128e+01
2	 9.166667e+00	 8.333333e+00	 1.000519e+01
2	 9.166667e+00	 8.416667e+00	 1.000472e+01
2	 9.166667e+00	 8.500000e+00	 1.000426e+01
2	 9.166667e+00	 8.583333e+00	 1.000382e+01
2	 9.166667e+00	 8.666667e+00	 1.000340e+01
2	 9.166667e+00	 8.750000e+00	 1.000299e+01
2	 9.250000e+00	 8.333333e+00	 1.000442e+01
2	 9.250000e+00	 8.416667e+00	 1.000400e+01
2	 9.250000e+00	 8.500000e+00	 1.000359e+01
2	 9.250000e+00	 8.583333e+00	 1.000320e+01
2	 9.250000e+00	 8.666667e+00	 1.000283e+01
2	 9.250000e+00	 8.750000e+00	 1.000247e+01
2	 9.333333e+00	 8.333333e+00	 1.000365e+01
2	 9.333333e+00	 8.416667e+00	 1.000328e+01
2	 9.333333e+00	 8.500000e+00	 1.000292e+01
2	 9.333333e+00	 8.583333e+00	 1.000257e+01
2	 9.333333e+00	 8.666667e+00	 1.000225e+01
2	 9.333333e+00	 8.750000e+00	 1.000194e+01
2	 9.416667e+00	 8.333333e+00	 1.000288e+01
2	 9.416667e+00	 8.416667e+00	 1.000254e+01
2	 9.416667e+00	 8.500000e+00	 1.000223e+01
2	 9.416667e+00	 8.583333e+00	 1.000193e+01
2	 9.416667e+00	 8.666667e+00	 1.000165e+01
2	 9.416667e+00	 8.750000e+00	 1.000139e+01
2	 9.500000e+00	 8.333333e+00	 1.000209e+01
2	 9.500000e+00	 8.416667e+00	 1.000179e+01
2	 9.500000e+00	 8.500000e+00	 1.000152e+01
2	 9.500000e+00	 8.583333e+00	 1.000126e+01
2	 9.500000e+00	 8.666667e+00	 1.000103e+01
2	 9.500000e+00	 8.750000e+00	 1.000081e+01
2	 9.583333e+00	 8.333333e+00	 1.000128e+01
2	 9.583333e+00	 8.416667e+00	 1.000102e+01
2	 9.583333e+00	 8.500000e+00	 1.000078e+01
2	 9.583333e+00	 8.583333e+00	 1.000057e+01
2	 9.583333e+00	 8.666667e+00	 1.000037e+01
2	 9.583333e+00	 8.750000e+00	 1.000020e+01
2	 9.166667e+00	 8.750000e+00	 1.000299e+01
2	 9.166667e+00	 8.833333e+00	 1.000260e+01
2	 9.166667e+00	 8.916667e+00	 1.000224e+01
2	 9.166667e+00	 9.000000e+00	 1.000190e+01
2	 9.166667e+00	 9.083333e+00	 1.000159e+01
2	 9.166667e+00	 9.166667e+00	 1.000131e+01
2	 9.250000e+00	 8.750000e+00	 1.000247e+01
2	 9.250000e+00	 8.833333e+00	 1.000213e+01
2	 9.250000e+00	 8.916667e+00	 1.000182e+01
2	 9.250000e+00	 9.000000e+00	 1.000153e+01
2	 9.250000e+00	 9.083333e+00	 1.000127e+01
2	 9.250000e+00	 9.166667e+00	 1.000103e+01
2	 9.333333e+00	 8.750000e+00	 1.000194e+01
2	 9.333333e+00	 8.833333e+00	 1.000165e+01
2	 9.333333e+00	 8.916667e+00	 1.000138e+01
2	 9.333333e+00	 9.000000e+00	 1.000114e+01
2	 9.333333e+00	 9.083333e+00	 1.000092e+01
2	 9.333333e+00	 9.166667e+00	 1.000073e+01
2	 9.416667e+00	 8.750000e+00	 1.000139e+01
2	 9.416667e+00	 8.833333e+00	 1.000114e+01
2	 9.416667e+00	 8.916667e+00	 1.000093e+01
2	 9.416667e+00	 9.000000e+00	 1.000073e+01
2	 9.416667e+00	 9.083333e+00	 1.000056e+01
2	 9.416667e+00	 9.166667e+00	 1.000041e+01
2	 9.500000e+00	 8.750000e+00	 1.000081e+01
2	 9.500000e+00	 8.833333e+00	 1.000062e+01
2	 9.500000e+00	 8.916667e+00	 1.000045e+01
2	 9.500000e+00	 9.000000e+00	 1.000030e+01
2	 9.500000e+00	 9.083333e+00	 1.000017e+01
2	 9.500000e+00	 9.166667e+00	 1.000007e+01
2	 9.583333e+00	 8.750000e+00	 1.000020e+01
2	 9.583333e+00	 8.833333e+00	 1.000005e+01
2	 9.583333e+00	 8.916667e+00	 9.999932e+00
2	 9.583333e+00	 9.000000e+00	 9.999834e+00
2	 9.583333e+00	 9.083333e+00	 9.999761e+00
2	 9.583333e+00	 9.166667e+00	 9.999711e+00
2	 9.166667e+00	 9.166667e+00	 1.000131e+01
2	 9.166667e+00	 9.250000e+00	 1.000105e+01
2	 9.166667e+00	 9.333333e+00	 1.000082e+01
2	 9.166667e+00	 9.416667e+00	 1.000062e+01
2	 9.166667e+00	 9.500000e+00	 1.000045e+01
2	 9.166667e+00	 9.583333e+00	 1.000031e+01
2	 9.250000e+00	 9.166667e+00	 1.000103e+01
2	 9.250000e+00	 9.250000e+00	 1.000081e+01
2	 9.250000e+00	 9.333333e+00	 1.000062e+01
2	 9.250000e+00	 9.416667e+00	 1.000046e+01
2	 9.250000e+00	 9.500000e+00	 1.000033e+01
2	 9.250000e+00	 9.583333e+00	 1.000022e+01
2	 9.333333e+00	 9.166667e+00	 1.000073e+01
2	 9.333333e+00	 9.250000e+00	 1.000055e+01
2	 9.333333e+00	 9.333333e+00	 1.000041e+01
2	 9.333333e+00	 9.416667e+00	 1.000029e+01
2	 9.333333e+00	 9.500000e+00	 1.000020e+01
2	 9.333333e+00	 9.583333e+00	 1.000013e+01
2	 9.416667e+00	 9.166667e+00	 1.000041e+01
2	 9.416667e+00	 9.250000e+00	 1.000028e+01
2	 9.416667e+00	 9.333333e+00	 1.000018e+01
2	 9.416667e+00	 9.416667e+00	 1.000010e+01
2	 9.416667e+00	 9.500000e+00	 1.000005e+01
2	 9.416667e+00	 9.583333e+00	 1.000002e+01
2	 9.500000e+00	 9.166667e+00	 1.000007e+01
2	 9.500000e+00	 9.250000e+00	 9.999994e+00
2	 9.500000e+00	 9.333333e+00	 9.999938e+00
2	 9.500000e+00	 9.416667e+00	 9.999904e+00
2	 9.500000e+00	 9.500000e+00	 9.999894e+00
2	 9.500000e+00	 9.583333e+00	 9.999907e+00
2	 9.583333e+00	 9.166667e+00	 9.999711e+00
2	 9.583333e+00	 9.250000e+00	 9.999683e+00
2	 9.583333e+00	 9.333333e+00	 9.999677e+00
2	 9.583333e+00	 9.416667e+00	 9.999691e+00
2	 9.583333e+00	 9.500000e+00	 9.999725e+00
2	 9.583333e+00	 9.583333e+00	 9.999781e+00
2	 9.166667e+00	 9.583333e+00	 1.000031e+01
2	 9.166667e+00	 9.666667e+00	 1.000020e+01
2	 9.166667e+00	 9.750000e+00	 1.000011e+01
2	 9.166667e+00	 9.833333e+00	 1.000005e+01
2	 9.166667e+00	 9.916667e+00	 1.000001e+01
2	 9.166667e+00	 1.000000e+01	 1.000001e+01
2	 9.250000e+00	 9.583333e+00	 1.000022e+01
2	 9.250000e+00	 9.666667e+00	 1.000014e+01
2	 9.250000e+00	 9.750000e+00	 1.000008e+01
2	 9.250000e+00	 9.833333e+00	 1.000003e+01
2	 9.250000e+00	 9.916667e+00	 1.000001e+01
2	 9.250000e+00	 1.000000e+01	 1.000002e+01
2	 9.333333e+00	 9.583333e+00	 1.000013e+01
2	 9.333333e+00	 9.666667e+00	 1.000008e+01
2	 9.333333e+00	 9.750000e+00	 1.000004e+01
2	 9.333333e+00	 9.833333e+00	 1.000001e+01
2	 9.333333e+00	 9.916667e+00	 1.000000e+01
2	 9.333333e+00	 1.000000e+01	 1.000002e+01
2	 9.416667e+00	 9.583333e+00	 1.000002e+01
2	 9.416667e+00	 9.666667e+00	 1.000001e+01
2	 9.416667e+00	 9.750000e+00	 9.999993e+00
2	 9.416667e+00	 9.833333e+00	 9.999987e+00
2	 9.416667e+00	 9.916667e+00	 9.999994e+00
2	 9.416667e+00	 1.000000e+01	 1.000002e+01
2	 9.500000e+00	 9.583333e+00	 9.999907e+00
2	 9.500000e+00	 9.666667e+00	 9.999927e+00
2	 9.500000e+00	 9.750000e+00	 9.999940e+00
2	 9.500000e+00	 9.833333e+00	 9.999956e+00
2	 9.500000e+00	 9.916667e+00	 9.999982e+00
2	 9.500000e+00	 1.000000e+01	 1.000003e+01
2	 9.583333e+00	 9.583333e+00	 9.999781e+00
2	 9.583333e+00	 9.666667e+00	 9.999838e+00
2	 9.583333e+00	 9.750000e+00	 9.999881e+00
2	 9.583333e+00	 9.833333e+00	 9.999923e+00
2	 9.583333e+00	 9.916667e+00	 9.999973e+00
2	 9.583333e+00	 1.000000e+01	 1.000004e+01
2	 9.583333e+00	 5.000000e+00	 9.975846e+00
2	 9.583333e+00	 5.083333e+00	 9.978560e+00
2	 9.583333e+00	 5.166667e+00	 9.981125e+00
2	 9.583333e+00	 5.250000e+00	 9.983541e+00
2	 9.583333e+00	 5.333333e+00	 9.985806e+00
2	 9.583333e+00	 5.416667e+00	 9.987922e+00
2	 9.666667e+00	 5.000000e+00	 9.973095e+00
2	 9.666667e+00	 5.083333e+00	 9.975958e+00
2	 9.666667e+00	 5.166667e+00	 9.978665e+00
2	 9.666667e+00	 5.250000e+00	 9.981213e+00
2	 9.666667e+00	 5.333333e+00	 9.983604e+00
2	 9.666667e+00	 5.416667e+00	 9.985836e+00
2	 9.750000e+00	 5.000000e+00	 9.970649e+00
2	 9.750000e+00	 5.083333e+00	 9.973660e+00
2	 9.750000e+00	 5.166667e+00	 9.976506e+00
2	 9.750000e+00	 5.250000e+00	 9.979185e+00
2	 9.750000e+00	 5.333333e+00	 9.981697e+00
2	 9.750000e+00	 5.416667e+00	 9.984041e+00
2	 9.833333e+00	 5.000000e+00	 9.968538e+00
2	 9.833333e+00	 5.083333e+00	 9.971696e+00
2	 9.833333e+00	 5.166667e+00	 9.974678e+00
2	 9.833333e+00	 5.250000e+00	 9.977484e+00
2	 9.833333e+00	 5.333333e+00	 9.980113e+00
2	 9.833333e+00	 5.416667e+00	 9.982565e+00
2	 9.916667e+00	 5.000000e+00	 9.966795e+00
2	 9.916667e+00	 5.083333e+00	 9.970097e+00
2	 9.916667e+00	 5.166667e+00	 9.973213e+00
2	 9.916667e+00	 5.250000e+00	 9.976142e+00
2	 9.916667e+00	 5.333333e+00	 9.978883e+00
2	 9.916667e+00	 5.416667e+00	 9.981436e+00
2	 1.000000e+01	 5.000000e+00	 9.965450e+00
2	 1.000000e+01	 5.083333e+00	 9.968894e+00
2	 1.000000e+01	 5.166667e+00	 9.972140e+00
2	 1.000000e+01	 5.250000e+00	 9.975187e+00
2	 1.000000e+01	 5.333333e+00	 9.978035e+00
2	 1.000000e+01	 5.416667e+00	 9.980683e+00
2	 9.583333e+00	 5.416667e+00	 9.987922e+00
2	 9.583333e+00	 5.500000e+00	 9.989894e+00
2	 9.583333e+00	 5.583333e+00	 9.991729e+00
2	 9.583333e+00	 5.666667e+00	 9.993426e+00
2	 9.583333e+00	 5.750000e+00	 9.994985e+00
2	 9.583333e+00	 5.833333e+00	 9.996404e+00
2	 9.666667e+00	 5.416667e+00	 9.985836e+00
2	 9.666667e+00	 5.500000e+00	 9.987917e+00
2	 9.666667e+00	 5.583333e+00	 9.989854e+00
2	 9.666667e+00	 5.666667e+00	 9.991645e+00
2	 9.666667e+00	 5.750000e+00	 9.993291e+00
2	 9.666667e+00	 5.833333e+00	 9.994789e+00
2	 9.750000e+00	 5.416667e+00	 9.984041e+00
2	 9.750000e+00	 5.500000e+00	 9.986226e+00
2	 9.750000e+00	 5.583333e+00	 9.988259e+00
2	 9.750000e+00	 5.666667e+00	 9.990138e+00
2	 9.750000e+00	 5.750000e+00	 9.991864e+00
2	 9.750000e+00	 5.833333e+00	 9.993434e+00
2	 9.833333e+00	 5.416667e+00	 9.982565e+00
2	 9.833333e+00	 5.500000e+00	 9.984848e+00
2	 9.833333e+00	 5.583333e+00	 9.986970e+00
2	 9.833333e+00	 5.666667e+00	 9.988930e+00
2	 9.833333e+00	 5.750000e+00	 9.990728e+00
2	 9.833333e+00	 5.833333e+00	 9.992362e+00
2	 9.916667e+00	 5.416667e+00	 9.981436e+00
2	 9.916667e+00	 5.500000e+00	 9.983811e+00
2	 9.916667e+00	 5.583333e+00	 9.986015e+00
2	 9.916667e+00	 5.666667e+00	 9.988048e+00
2	 9.916667e+00	 5.750000e+00	 9.989909e+00
2	 9.916667e+00	 5.833333e+00	 9.991598e+00
2	 1.000000e+01	 5.416667e+00	 9.980683e+00
2	 1.000000e+01	 5.500000e+00	 9.983142e+00
2	 1.000000e+01	 5.583333e+00	 9.985420e+00
2	 1.000000e+01	 5.666667e+00	 9.987517e+00
2	 1.000000e+01	 5.750000e+00	 9.989432e+00
2	 1.000000e+01	 5.833333e+00	 9.991164e+00
2	 9.583333e+00	 5.833333e+00	 9.996404e+00
2	 9.583333e+00	 5.916667e+00	 9.997694e+00
2	 9.583333e+00	 6.000000e+00	 9.998868e+00
2	 9.583333e+00	 6.083333e+00	 9.999923e+00
2	 9.583333e+00	 6.166667e+00	 1.000086e+01
2	 9.583333e+00	 6.250000e+00	 1.000167e+01
2	 9.666667e+00	 5.833333e+00	 9.994789e+00
2	 9.666667e+00	 5.916667e+00	 9.996153e+00
2	 9.666667e+00	 6.000000e+00	 9.997393e+00
2	 9.666667e+00	 6.083333e+00	 9.998509e+00
2	 9.666667e+00	 6.166667e+00	 9.999499e+00
2	 9.666667e+00	 6.250000e+00	 1.000036e+01
2	 9.750000e+00	 5.833333e+00	 9.993434e+00
2	 9.750000e+00	 5.916667e+00	 9.994862e+00
2	 9.750000e+00	 6.000000e+00	 9.996161e+00
2	 9.750000e+00	 6.083333e+00	 9.997329e+00
2	 9.750000e+00	 6.166667e+00	 9.998365e+00
2	 9.750000e+00	 6.250000e+00	 9.999268e+00
2	 9.833333e+00	 5.833333e+00	 9.992362e+00
2	 9.833333e+00	 5.916667e+00	 9.993846e+00
2	 9.833333e+00	 6.000000e+00	 9.995194e+00
2	 9.833333e+00	 6.083333e+00	 9.996404e+00
2	 9.833333e+00	 6.166667e+00	 9.997475e+00
2	 9.833333e+00	 6.250000e+00	 9.998406e+00
2	 9.916667e+00	 5.833333e+00	 9.991598e+00
2	 9.916667e+00	 5.916667e+00	 9.993128e+00
2	 9.916667e+00	 6.000000e+00	 9.994514e+00
2	 9.916667e+00	 6.083333e+00	 9.995755e+00
2	 9.916667e+00	 6.166667e+00	 9.996850e+00
2	 9.916667e+00	 6.250000e+00	 9.997796e+00
2	 1.000000e+01	 5.833333e+00	 9.991164e+00
2	 1.000000e+01	 5.916667e+00	 9.992729e+00
2	 1.000000e+01	 6.000000e+00	 9.994142e+00
2	 1.000000e+01	 6.083333e+00	 9.995402e+00
2	 1.000000e+01	 6.166667e+00	 9.996507e+00
2	 1.000000e+01	 6.250000e+00	 9.997456e+00
2	 9.583333e+00	 6.250000e+00	 1.000167e+01
2	 9.583333e+00	 6.333333e+00	 1.000238e+01
2	 9.583333e+00	 6.416667e+00	 1.000300e+01
2	 9.583333e+00	 6.500000e+00	 1.000352e+01
2	 9.583333e+00	 6.583333e+00	 1.000395e+01
2	 9.583333e+00	 6.666667e+00	 1.000428e+01
2	 9.666667e+00	 6.250000e+00	 1.000036e+01
2	 9.666667e+00	 6.333333e+00	 1.000112e+01
2	 9.666667e+00	 6.416667e+00	 1.000177e+01
2	 9.666667e+00	 6.500000e+00	 1.000233e+01
2	 9.666667e+00	 6.583333e+00	 1.000278e+01
2	 9.666667e+00	 6.666667e+00	 1.000314e+01
2	 9.750000e+00	 6.250000e+00	 9.999268e+00
2	 9.750000e+00	 6.333333e+00	 1.000005e+01
2	 9.750000e+00	 6.416667e+00	 1.000074e+01
2	 9.750000e+00	 6.500000e+00	 1.000132e+01
2	 9.750000e+00	 6.583333e+00	 1.000180e+01
2	 9.750000e+00	 6.666667e+00	 1.000217e+01
2	 9.833333e+00	 6.250000e+00	 9.998406e+00
2	 9.833333e+00	 6.333333e+00	 9.999214e+00
2	 9.833333e+00	 6.416667e+00	 9.999915e+00
2	 9.833333e+00	 6.500000e+00	 1.000051e+01
2	 9.833333e+00	 6.583333e+00	 1.000099e+01
2	 9.833333e+00	 6.666667e+00	 1.000137e+01
2	 9.916667e+00	 6.250000e+00	 9.997796e+00
2	 9.916667e+00	 6.333333e+00	 9.998614e+00
2	 9.916667e+00	 6.416667e+00	 9.999320e+00
2	 9.916667e+00	 6.500000e+00	 9.999913e+00
2	 9.916667e+00	 6.583333e+00	 1.000039e+01
2	 9.916667e+00	 6.666667e+00	 1.000075e+01
2	 1.000000e+01	 6.250000e+00	 9.997456e+00
2	 1.000000e+01	 6.333333e+00	 9.998269e+00
2	 1.000000e+01	 6.416667e+00	 9.998966e+00
2	 1.000000e+01	 6.500000e+00	 9.999544e+00
2	 1.000000e+01	 6.583333e+00	 1.000000e+01
2	 1.000000e+01	 6.666667e+00	 1.000034e+01
2	 9.583333e+00	 6.666667e+00	 1.000428e+01
2	 9.583333e+00	 6.750000e+00	 1.000453e+01
2	 9.583333e+00	 6.833333e+00	 1.000471e+01
2	 9.583333e+00	 6.916667e+00	 1.000483e+01
2	 9.583333e+00	 7.000000e+00	 1.000488e+01
2	 9.583333e+00	 7.083333e+00	 1.000486e+01
2	 9.666667e+00	 6.666667e+00	 1.000314e+01
2	 9.666667e+00	 6.750000e+00	 1.000341e+01
2	 9.666667e+00	 6.833333e+00	 1.000362e+01
2	 9.666667e+00	 6.916667e+00	 1.000375e+01
2	 9.666667e+00	 7.000000e+00	 1.000382e+01
2	 9.666667e+00	 7.083333e+00	 1.000381e+01
2	 9.750000e+00	 6.666667e+00	 1.000217e+01
2	 9.750000e+00	 6.750000e+00	 1.000245e+01
2	 9.750000e+00	 6.833333e+00	 1.000266e+01
2	 9.750000e+00	 6.916667e+00	 1.000281e+01
2	 9.750000e+00	 7.000000e+00	 1.000288e+01
2	 9.750000e+00	 7.083333e+00	 1.000287e+01
2	 9.833333e+00	 6.666667e+00	 1.000137e+01
2	 9.833333e+00	 6.750000e+00	 1.000165e+01
2	 9.833333e+00	 6.833333e+00	 1.000186e+01
2	 9.833333e+00	 6.916667e+00	 1.000200e+01
2	 9.833333e+00	 7.000000e+00	 1.000206e+01
2	 9.833333e+00	 7.083333e+00	 1.000204e+01
2	 9.916667e+00	 6.666667e+00	 1.000075e+01
2	 9.916667e+00	 6.750000e+00	 1.000102e+01
2	 9.916667e+00	 6.833333e+00	 1.000121e+01
2	 9.916667e+00	 6.916667e+00	 1.000133e+01
2	 9.916667e+00	 7.000000e+00	 1.000137e+01
2	 9.916667e+00	 7.083333e+00	 1.000132e+01
2	 1.000000e+01	 6.666667e+00	 1.000034e+01
2	 1.000000e+01	 6.750000e+00	 1.000058e+01
2	 1.000000e+01	 6.833333e+00	 1.000073e+01
2	 1.000000e+01	 6.916667e+00	 1.000081e+01
2	 1.000000e+01	 7.000000e+00	 1.000081e+01
2	 1.000000e+01	 7.083333e+00	 1.000073e+01
2	 9.583333e+00	 7.083333e+00	 1.000486e+01
2	 9.583333e+00	 7.166667e+00	 1.000479e+01
2	 9.583333e+00	 7.250000e+00	 1.000468e+01
2	 9.583333e+00	 7.333333e+00	 1.000454e+01
2	 9.583333e+00	 7.416667e+00	 1.000435e+01
2	 9.583333e+00	 7.500000e+00	 1.000412e+01
2	 9.666667e+00	 7.083333e+00	 1.000381e+01
2	 9.666667e+00	 7.166667e+00	 1.000375e+01
2	 9.666667e+00	 7.250000e+00	 1.000366e+01
2	 9.666667e+00	 7.333333e+00	 1.000352e+01
2	 9.666667e+00	 7.416667e+00	 1.000334e+01
2	 9.666667e+00	 7.500000e+00	 1.000312e+01
2	 9.750000e+00	 7.083333e+00	 1.000287e+01
2	 9.750000e+00	 7.166667e+00	 1.000281e+01
2	 9.750000e+00	 7.250000e+00	 1.000271e+01
2	 9.750000e+00	 7.333333e+00	 1.000257e+01
2	 9.750000e+00	 7.416667e+00	 1.000240e+01
2	 9.750000e+00	 7.500000e+00	 1.000217e+01
2	 9.833333e+00	 7.083333e+00	 1.000204e+01
2	 9.833333e+00	 7.166667e+00	 1.000197e+01
2	 9.833333e+00	 7.250000e+00	 1.000185e+01
2	 9.833333e+00	 7.333333e+00	 1.000170e+01
2	 9.833333e+00	 7.416667e+00	 1.000151e+01
2	 9.833333e+00	 7.500000e+00	 1.000128e+01
2	 9.916667e+00	 7.083333e+00	 1.000132e+01
2	 9.916667e+00	 7.166667e+00	 1.000122e+01
2	 9.916667e+00	 7.250000e+00	 1.000108e+01
2	 9.916667e+00	 7.333333e+00	 1.000091e+01
2	 9.916667e+00	 7.416667e+00	 1.000069e+01
2	 9.916667e+00	 7.500000e+00	 1.000042e+01
2	 1.000000e+01	 7.083333e+00	 1.000073e+01
2	 1.000000e+01	 7.166667e+00	 1.000058e+01
2	 1.000000e+01	 7.250000e+00	 1.000040e+01
2	 1.000000e+01	 7.333333e+00	 1.000018e+01
2	 1.000000e+01	 7.416667e+00	 9.999920e+00
2	 1.000000e+01	 7.500000e+00	 9.999615e+00
2	 9.583333e+00	 7.500000e+00	 1.000412e+01
2	 9.583333e+00	 7.583333e+00	 1.000387e+01
2	 9.583333e+00	 7.666667e+00	 1.000360e+01
2	 9.583333e+00	 7.750000e+00	 1.000333e+01
2	 9.583333e+00	 7.833333e+00	 1.000304e+01
2	 9.583333e+00	 7.916667e+00	 1.000273e+01
2	 9.666667e+00	 7.500000e+00	 1.000312e+01
2	 9.666667e+00	 7.583333e+00	 1.000288e+01
2	 9.666667e+00	 7.666667e+00	 1.000262e+01
2	 9.666667e+00	 7.750000e+00	 1.000236e+01
2	 9.666667e+00	 7.833333e+00	 1.000208e+01
2	 9.666667e+00	 7.916667e+00	 1.000179e+01
2	 9.750000e+00	 7.500000e+00	 1.000217e+01
2	 9.750000e+00	 7.583333e+00	 1.000193e+01
2	 9.750000e+00	 7.666667e+00	 1.000167e+01
2	 9.750000e+00	 7.750000e+00	 1.000141e+01
2	 9.750000e+00	 7.833333e+00	 1.000114e+01
2	 9.750000e+00	 7.916667e+00	 1.000085e+01
2	 9.833333e+00	 7.500000e+00	 1.000128e+01
2	 9.833333e+00	 7.583333e+00	 1.000102e+01
2	 9.833333e+00	 7.666667e+00	 1.000075e+01
2	 9.833333e+00	 7.750000e+00	 1.000048e+01
2	 9.833333e+00	 7.833333e+00	 1.000020e+01
2	 9.833333e+00	 7.916667e+00	 9.999910e+00
2	 9.916667e+00	 7.500000e+00	 1.000042e+01
2	 9.916667e+00	 7.583333e+00	 1.000014e+01
2	 9.916667e+00	 7.666667e+00	 9.999850e+00
2	 9.916667e+00	 7.750000e+00	 9.999557e+00
2	 9.916667e+00	 7.833333e+00	 9.999259e+00
2	 9.916667e+00	 7.916667e+00	 9.998953e+00
2	 1.000000e+01	 7.500000e+00	 9.999615e+00
2	 1.000000e+01	 7.583333e+00	 9.999289e+00
2	 1.000000e+01	 7.666667e+00	 9.998963e+00
2	 1.000000e+01	 7.750000e+00	 9.998636e+00
2	 1.000000e+01	 7.833333e+00	 9.998305e+00
2	 1.000000e+01	 7.916667e+00	 9.997970e+00
2	 9.583333e+00	 7.916667e+00	 1.000273e+01
2	 9.583333e+00	 8.000000e+00	 1.000242e+01
2	 9.583333e+00	 8.083333e+00	 1.000212e+01
2	 9.583333e+00	 8.166667e+00	 1.000183e+01
2	 9.583333e+00	 8.250000e+00	 1.000155e+01
2	 9.583333e+00	 8.333333e+00	 1.000128e+01
2	 9.666667e+00	 7.916667e+00	 1.000179e+01
2	 9.666667e+00	 8.000000e+00	 1.000150e+01
2	 9.666667e+00	 8.083333e+00	 1.000122e+01
2	 9.666667e+00	 8.166667e+00	 1.000095e+01
2	 9.666667e+00	 8.250000e+00	 1.000069e+01
2	 9.666667e+00	 8.333333e+00	 1.000044e+01
2	 9.750000e+00	 7.916667e+00	 1.000085e+01
2	 9.750000e+00	 8.000000e+00	 1.000057e+01
2	 9.750000e+00	 8.083333e+00	 1.000030e+01
2	 9.750000e+00	 8.166667e+00	 1.000005e+01
2	 9.750000e+00	 8.250000e+00	 9.999810e+00
2	 9.750000e+00	 8.333333e+00	 9.999584e+00
2	 9.833333e+00	 7.916667e+00	 9.999910e+00
2	 9.833333e+00	 8.000000e+00	 9.999625e+00
2	 9.833333e+00	 8.083333e+00	 9.999361e+00
2	 9.833333e+00	 8.166667e+00	 9.999116e+00
2	 9.833333e+00	 8.250000e+00	 9.998889e+00
2	 9.833333e+00	 8.333333e+00	 9.998679e+00
2	 9.916667e+00	 7.916667e+00	 9.998953e+00
2	 9.916667e+00	 8.000000e+00	 9.998656e+00
2	 9.916667e+00	 8.083333e+00	 9.998384e+00
2	 9.916667e+00	 8.166667e+00	 9.998137e+00
2	 9.916667e+00	 8.250000e+00	 9.997914e+00
2	 9.916667e+00	 8.333333e+00	 9.997713e+00
2	 1.000000e+01	 7.916667e+00	 9.997970e+00
2	 1.000000e+01	 8.000000e+00	 9.997648e+00
2	 1.000000e+01	 8.083333e+00	 9.997358e+00
2	 1.000000e+01	 8.166667e+00	 9.997100e+00
2	 1.000000e+01	 8.250000e+00	 9.996872e+00
2	 1.000000e+01	 8.333333e+00	 9.996672e+00
2	 9.583333e+00	 8.333333e+00	 1.000128e+01
2	 9.583333e+00	 8.416667e+00	 1.000102e+01
2	 9.583333e+00	 8.500000e+00	 1.000078e+01
2	 9.583333e+00	 8.583333e+00	 1.000057e+01
2	 9.583333e+00	 8.666667e+00	 1.000037e+01
2	 9.583333e+00	 8.750000e+00	 1.000020e+01
2	 9.666667e+00	 8.333333e+00	 1.000044e+01
2	 9.666667e+00	 8.416667e+00	 1.000021e+01
2	 9.666667e+00	 8.500000e+00	 1.000001e+01
2	 9.666667e+00	 8.583333e+00	 9.999836e+00
2	 9.666667e+00	 8.666667e+00	 9.999685e+00
2	 9.666667e+00	 8.750000e+00	 9.999559e+00
2	 9.750000e+00	 8.333333e+00	 9.999584e+00
2	 9.750000e+00	 8.416667e+00	 9.999380e+00
2	 9.750000e+00	 8.500000e+00	 9.999208e+00
2	 9.750000e+00	 8.583333e+00	 9.999066e+00
2	 9.750000e+00	 8.666667e+00	 9.998955e+00
2	 9.750000e+00	 8.750000e+00	 9.998873e+00
2	 9.833333e+00	 8.333333e+00	 9.998679e+00
2	 9.833333e+00	 8.416667e+00	 9.998496e+00
2	 9.833333e+00	 8.500000e+00	 9.998349e+00
2	 9.833333e+00	 8.583333e+00	 9.998239e+00
2	 9.833333e+00	 8.666667e+00	 9.998165e+00
2	 9.833333e+00	 8.750000e+00	 9.998125e+00
2	 9.916667e+00	 8.333333e+00	 9.997713e+00
2	 9.916667e+00	 8.416667e+00	 9.997545e+00
2	 9.916667e+00	 8.500000e+00	 9.997420e+00
2	 9.916667e+00	 8.583333e+00	 9.997338e+00
2	 9.916667e+00	 8.666667e+00	 9.997298e+00
2	 9.916667e+00	 8.750000e+00	 9.997299e+00
2	 1.000000e+01	 8.333333e+00	 9.996672e+00
2	 1.000000e+01	 8.416667e+00	 9.996512e+00
2	 1.000000e+01	 8.500000e+00	 9.996403e+00
2	 1.000000e+01	 8.583333e+00	 9.996344e+00
2	 1.000000e+01	 8.666667e+00	 9.996335e+00
2	 1.000000e+01	 8.750000e+00	 9.996374e+00
2	 9.583333e+00	 8.750000e+00	 1.000020e+01
2	 9.583333e+00	 8.833333e+00	 1.000005e+01
2	 9.583333e+00	 8.916667e+00	 9.999932e+00
2	 9.583333e+00	 9.000000e+00	 9.999834e+00
2	 9.583333e+00	 9.083333e+00	 9.999761e+00
2	 9.583333e+00	 9.166667e+00	 9.999711e+00
2	 9.666667e+00	 8.750000e+00	 9.999559e+00
2	 9.666667e+00	 8.833333e+00	 9.999459e+00
2	 9.666667e+00	 8.916667e+00	 9.999385e+00
2	 9.666667e+00	 9.000000e+00	 9.999338e+00
2	 9.666667e+00	 9.083333e+00	 9.999317e+00
2	 9.666667e+00	 9.166667e+00	 9.999323e+00
2	 9.750000e+00	 8.750000e+00	 9.998873e+00
2	 9.750000e+00	 8.833333e+00	 9.998820e+00
2	 9.750000e+00	 8.916667e+00	 9.998797e+00
2	 9.750000e+00	 9.000000e+00	 9.998803e+00
2	 9.750000e+00	 9.083333e+00	 9.998838e+00
2	 9.750000e+00	 9.166667e+00	 9.998903e+00
2	 9.833333e+00	 8.750000e+00	 9.998125e+00
2	 9.833333e+00	 8.833333e+00	 9.998120e+00
2	 9.833333e+00	 8.916667e+00	 9.998149e+00
2	 9.833333e+00	 9.000000e+00	 9.998212e+00
2	 9.833333e+00	 9.083333e+00	 9.998310e+00
2	 9.833333e+00	 9.166667e+00	 9.998444e+00
2	 9.916667e+00	 8.750000e+00	 9.997299e+00
2	 9.916667e+00	 8.833333e+00	 9.997341e+00
2	 9.916667e+00	 8.916667e+00	 9.997425e+00
2	 9.916667e+00	 9.000000e+00	 9.997552e+00
2	 9.916667e+00	 9.083333e+00	 9.997721e+00
2	 9.916667e+00	 9.166667e+00	 9.997935e+00
2	 1.000000e+01	 8.750000e+00	 9.996374e+00
2	 1.000000e+01	 8.833333e+00	 9.996464e+00
2	 1.000000e+01	 8.916667e+00	 9.996607e+00
2	 1.000000e+01	 9.000000e+00	 9.996806e+00
2	 1.000000e+01	 9.083333e+00	 9.997059e+00
2	 1.000000e+01	 9.166667e+00	 9.997369e+00
2	 9.583333e+00	 9.166667e+00	 9.999711e+00
2	 9.583333e+00	 9.250000e+00	 9.999683e+00
2	 9.583333e+00	 9.333333e+00	 9.999677e+00
2	 9.583333e+00	 9.416667e+00	 9.999691e+00
2	 9.583333e+00	 9.500000e+00	 9.999725e+00
2	 9.583333e+00	 9.583333e+00	 9.999781e+00
2	 9.666667e+00	 9.166667e+00	 9.999323e+00
2	 9.666667e+00	 9.250000e+00	 9.999350e+00
2	 9.666667e+00	 9.333333e+00	 9.999396e+00
2	 9.666667e+00	 9.416667e+00	 9.999459e+00
2	 9.666667e+00	 9.500000e+00	 9.999540e+00
2	 9.666667e+00	 9.583333e+00	 9.999639e+00
2	 9.750000e+00	 9.166667e+00	 9.998903e+00
2	 9.750000e+00	 9.250000e+00	 9.998991e+00
2	 9.750000e+00	 9.333333e+00	 9.999093e+00
2	 9.750000e+00	 9.416667e+00	 9.999210e+00
2	 9.750000e+00	 9.500000e+00	 9.999342e+00
2	 9.750000e+00	 9.583333e+00	 9.999489e+00
2	 9.833333e+00	 9.166667e+00	 9.998444e+00
2	 9.833333e+00	 9.250000e+00	 9.998601e+00
2	 9.833333e+00	 9.333333e+00	 9.998769e+00
2	 9.833333e+00	 9.416667e+00	 9.998950e+00
2	 9.833333e+00	 9.500000e+00	 9.999143e+00
2	 9.833333e+00	 9.583333e+00	 9.999350e+00
2	 9.916667e+00	 9.166667e+00	 9.997935e+00
2	 9.916667e+00	 9.250000e+00	 9.998176e+00
2	 9.916667e+00	 9.333333e+00	 9.998425e+00
2	 9.916667e+00	 9.416667e+00	 9.998685e+00
2	 9.916667e+00	 9.500000e+00	 9.998957e+00
2	 9.916667e+00	 9.583333e+00	 9.999243e+00
2	 1.000000e+01	 9.166667e+00	 9.997369e+00
2	 1.000000e+01	 9.250000e+00	 9.997711e+00
2	 1.000000e+01	 9.333333e+00	 9.998061e+00
2	 1.000000e+01	 9.416667e+00	 9.998422e+00
2	 1.000000e+01	 9.500000e+00	 9.998796e+00
2	 1.000000e+01	 9.583333e+00	 9.999186e+00
2	 9.583333e+00	 9.583333e+00	 9.999781e+00
2	 9.583333e+00	 9.666667e+00	 9.999838e+00
2	 9.583333e+00	 9.750000e+00	 9.999881e+00
2	 9.583333e+00	 9.833333e+00	 9.999923e+00
2	 9.583333e+00	 9.916667e+00	 9.999973e+00
2	 9.583333e+00	 1.000000e+01	 1.000004e+01
2	 9.666667e+00	 9.583333e+00	 9.999639e+00
2	 9.666667e+00	 9.666667e+00	 9.999733e+00
2	 9.666667e+00	 9.750000e+00	 9.999810e+00
2	 9.666667e+00	 9.833333e+00	 9.999880e+00
2	 9.666667e+00	 9.916667e+00	 9.999956e+00
2	 9.666667e+00	 1.000000e+01	 1.000005e+01
2	 9.750000e+00	 9.583333e+00	 9.999489e+00
2	 9.750000e+00	 9.666667e+00	 9.999626e+00
2	 9.750000e+00	 9.750000e+00	 9.999738e+00
2	 9.750000e+00	 9.833333e+00	 9.999836e+00
2	 9.750000e+00	 9.916667e+00	 9.999933e+00
2	 9.750000e+00	 1.000000e+01	 1.000004e+01
2	 9.833333e+00	 9.583333e+00	 9.999350e+00
2	 9.833333e+00	 9.666667e+00	 9.999541e+00
2	 9.833333e+00	 9.750000e+00	 9.999692e+00
2	 9.833333e+00	 9.833333e+00	 9.999817e+00
2	 9.833333e+00	 9.916667e+00	 9.999926e+00
2	 9.833333e+00	 1.000000e+01	 1.000003e+01
2	 9.916667e+00	 9.583333e+00	 9.999243e+00
2	 9.916667e+00	 9.666667e+00	 9.999502e+00
2	 9.916667e+00	 9.750000e+00	 9.999701e+00
2	 9.916667e+00	 9.833333e+00	 9.999849e+00
2	 9.916667e+00	 9.916667e+00	 9.999956e+00
2	 9.916667e+00	 1.000000e+01	 1.000003e+01
2	 1.000000e+01	 9.583333e+00	 9.999186e+00
2	 1.000000e+01	 9.666667e+00	 9.999536e+00
2	 1.000000e+01	 9.750000e+00	 9.999791e+00
2	 1.000000e+01	 9.833333e+00	 9.999959e+00
2	 1.000000e+01	 9.916667e+00	 1.000005e+01
2	 1.000000e+01	 1.000000e+01	 1.000006e+01
3	 0.000000e+00	 5.000000e+00	 9.248727e+00
3	 0.000000e+00	 5.083333e+00	 9.281183e+00
3	 0.000000e+00	 5.166667e+00	 9.312360e+00
3	 0.000000e+00	 5.250000e+00	 9.342236e+00
3	 0.000000e+00	 5.333333e+00	 9.370790e+00
3	 0.000000e+00	 5.416667e+00	 9.398001e+00
3	 8.333333e-02	 5.000000e+00	 9.250116e+00
3	 8.333333e-02	 5.083333e+00	 9.282487e+00
3	 8.333333e-02	 5.166667e+00	 9.313583e+00
3	 8.333333e-02	 5.250000e+00	 9.343383e+00
3	 8.333333e-02	 5.333333e+00	 9.371865e+00
3	 8.333333e-02	 5.416667e+00	 9.399009e+00
3	 1.666667e-01	 5.000000e+00	 9.254397e+00
3	 1.666667e-01	 5.083333e+00	 9.286492e+00
3	 1.666667e-01	 5.166667e+00	 9.317329e+00
3	 1.666667e-01	 5.250000e+00	 9.346886e+00
3	 1.666667e-01	 5.333333e+00	 9.375143e+00
3	 1.666667e-01	 5.416667e+00	 9.402080e+00
3	 2.500000e-01	 5.000000e+00	 9.261469e+00
3	 2.500000e-01	 5.083333e+00	 9.293108e+00
3	 2.500000e-01	 5.166667e+00	 9.323514e+00
3	 2.500000e-01	 5.250000e+00	 9.352670e+00
3	 2.500000e-01	 5.333333e+00	 9.380556e+00
3	 2.500000e-01	 5.416667e+00	 9.407154e+00
3	 3.333333e-01	 5.000000e+00	 9.271232e+00
3	 3.333333e-01	 5.083333e+00	 9.302242e+00
3	 3.333333e-01	 5.166667e+00	 9.332058e+00
3	 3.333333e-01	 5.250000e+00	 9.360662e+00
3	 3.333333e-01	 5.333333e+00	 9.388039e+00
3	 3.333333e-01	 5.416667e+00	 9.414170e+00
3	 4.166667e-01	 5.000000e+00	 9.283584e+00
3	 4.166667e-01	 5.083333e+00	 9.313804e+00
3	 4.166667e-01	 5.166667e+00	 9.342877e+00
3	 4.166667e-01	 5.250000e+00	 9.370788e+00
3	 4.166667e-01	 5.333333e+00	 9.397523e+00
3	 4.166667e-01	 5.416667e+00	 9.423065e+00
3	 0.000000e+00	 5.416667e+00	 9.398001e+00
3	 0.000000e+00	 5.500000e+00	 9.424054e+00
3	 0.000000e+00	 5.583333e+00	 9.449139e+00
3	 0.000000e+00	 5.666667e+00	 9.473243e+00
3	 0.000000e+00	 5.750000e+00	 9.496350e+00
3	 0.000000e+00	 5.833333e+00	 9.518446e+00
3	 8.333333e-02	 5.416667e+00	 9.399009e+00
3	 8.333333e-02	 5.500000e+00	 9.424999e+00
3	 8.333333e-02	 5.583333e+00	 9.450026e+00
3	 8.333333e-02	 5.666667e+00	 9.474075e+00
3	 8.333333e-02	 5.750000e+00	 9.497131e+00
3	 8.333333e-02	 5.833333e+00	 9.519180e+00
3	 1.666667e-01	 5.416667e+00	 9.402080e+00
3	 1.666667e-01	 5.500000e+00	 9.427880e+00
3	 1.666667e-01	 5.583333e+00	 9.452727e+00
3	 1.666667e-01	 5.666667e+00	 9.476607e+00
3	 1.666667e-01	 5.750000e+00	 9.499506e+00
3	 1.666667e-01	 5.833333e+00	 9.521411e+00
3	 2.500000e-01	 5.416667e+00	 9.407154e+00
3	 2.500000e-01	 5.500000e+00	 9.432639e+00
3	 2.500000e-01	 5.583333e+00	 9.457189e+00
3	 2.500000e-01	 5.666667e+00	 9.480792e+00
3	 2.500000e-01	 5.750000e+00	 9.503433e+00
3	 2.500000e-01	 5.833333e+00	 9.525101e+00
3	 3.333333e-01	 5.416667e+00	 9.414170e+00
3	 3.333333e-01	 5.500000e+00	 9.439221e+00
3	 3.333333e-01	 5.583333e+00	 9.463363e+00
3	 3.333333e-01	 5.666667e+00	 9.486583e+00
3	 3.333333e-01	 5.750000e+00	 9.508869e+00
3	 3.333333e-01	 5.833333e+00	 9.530209e+00
3	 4.166667e-01	 5.416667e+00	 9.423065e+00
3	 4.166667e-01	 5.500000e+00	 9.447571e+00
3	 4.166667e-01	 5.583333e+00	 9.471198e+00
3	 4.166667e-01	 5.666667e+00	 9.493935e+00
3	 4.166667e-01	 5.750000e+00	 9.515772e+00
3	 4.166667e-01	 5.833333e+00	 9.536698e+00
3	 0.000000e+00	 5.833333e+00	 9.518446e+00
3	 0.000000e+00	 5.916667e+00	 9.539669e+00
3	 0.000000e+00	 6.000000e+00	 9.560159e+00
3	 0.000000e+00	 6.083333e+00	 9.579907e+00
3	 0.000000e+00	 6.166667e+00	 9.598903e+00
3	 0.000000e+00	 6.250000e+00	 9.617137e+00
3	 8.333333e-02	 5.833333e+00	 9.519180e+00
3	 8.333333e-02	 5.916667e+00	 9.540359e+00
3	 8.333333e-02	 6.000000e+00	 9.560807e+00
3	 8.333333e-02	 6.083333e+00	 9.580516e+00
3	 8.333333e-02	 6.166667e+00	 9.599475e+00
3	 8.333333e-02	 6.250000e+00	 9.617676e+00
3	 1.666667e-01	 5.833333e+00	 9.521411e+00
3	 1.666667e-01	 5.916667e+00	 9.542456e+00
3	 1.666667e-01	 6.000000e+00	 9.562777e+00
3	 1.666667e-01	 6.083333e+00	 9.582366e+00
3	 1.666667e-01	 6.166667e+00	 9.601214e+00
3	 1.666667e-01	 6.250000e+00	 9.619311e+00
3	 2.500000e-01	 5.833333e+00	 9.525101e+00
3	 2.500000e-01	 5.916667e+00	 9.545924e+00
3	 2.500000e-01	 6.000000e+00	 9.566036e+00
3	 2.500000e-01	 6.083333e+00	 9.585428e+00
3	 2.500000e-01	 6.166667e+00	 9.604091e+00
3	 2.500000e-01	 6.250000e+00	 9.622017e+00
3	 3.333333e-01	 5.833333e+00	 9.530209e+00
3	 3.333333e-01	 5.916667e+00	 9.550727e+00
3	 3.333333e-01	 6.000000e+00	 9.570550e+00
3	 3.333333e-01	 6.083333e+00	 9.589669e+00
3	 3.333333e-01	 6.166667e+00	 9.608078e+00
3	 3.333333e-01	 6.250000e+00	 9.625768e+00
3	 4.166667e-01	 5.833333e+00	 9.536698e+00
3	 4.166667e-01	 5.916667e+00	 9.556829e+00
3	 4.166667e-01	 6.000000e+00	 9.576286e+00
3	 4.166667e-01	 6.083333e+00	 9.595061e+00
3	 4.166667e-01	 6.166667e+00	 9.613147e+00
3	 4.166667e-01	 6.250000e+00	 9.630538e+00
3	 0.000000e+00	 6.250000e+00	 9.617137e+00
3	 0.000000e+00	 6.333333e+00	 9.634703e+00
3	 0.000000e+00	 6.416667e+00	 9.651696e+00
3	 0.000000e+00	 6.500000e+00	 9.668110e+00
3	 0.000000e+00	 6.583333e+00	 9.683939e+00
3	 0.000000e+00	 6.666667e+00	 9.699178e+00
3	 8.333333e-02	 6.250000e+00	 9.617676e+00
3	 8.333333e-02	 6.333333e+00	 9.635210e+00
3	 8.333333e-02	 6.416667e+00	 9.652173e+00
3	 8.333333e-02	 6.500000e+00	 9.668558e+00
3	 8.333333e-02	 6.583333e+00	 9.684360e+00
3	 8.333333e-02	 6.666667e+00	 9.699574e+00
3	 1.666667e-01	 6.250000e+00	 9.619311e+00
3	 1.666667e-01	 6.333333e+00	 9.636748e+00
3	 1.666667e-01	 6.416667e+00	 9.653618e+00
3	 1.666667e-01	 6.500000e+00	 9.669917e+00
3	 1.666667e-01	 6.583333e+00	 9.685637e+00
3	 1.666667e-01	 6.666667e+00	 9.700774e+00
3	 2.500000e-01	 6.250000e+00	 9.622017e+00
3	 2.500000e-01	 6.333333e+00	 9.639294e+00
3	 2.500000e-01	 6.416667e+00	 9.656012e+00
3	 2.500000e-01	 6.500000e+00	 9.672166e+00
3	 2.500000e-01	 6.583333e+00	 9.687751e+00
3	 2.500000e-01	 6.666667e+00	 9.702762e+00
3	 3.333333e-01	 6.250000e+00	 9.625768e+00
3	 3.333333e-01	 6.333333e+00	 9.642823e+00
3	 3.333333e-01	 6.416667e+00	 9.659330e+00
3	 3.333333e-01	 6.500000e+00	 9.675285e+00
3	 3.333333e-01	 6.583333e+00	 9.690683e+00
3	 3.333333e-01	 6.666667e+00	 9.705520e+00
3	 4.166667e-01	 6.250000e+00	 9.630538e+00
3	 4.166667e-01	 6.333333e+00	 9.647312e+00
3	 4.166667e-01	 6.416667e+00	 9.663552e+00
3	 4.166667e-01	 6.500000e+00	 9.679255e+00
3	 4.166667e-01	 6.583333e+00	 9.694415e+00
3	 4.166667e-01	 6.666667e+00	 9.709030e+00
3	 0.000000e+00	 6.666667e+00	 9.699178e+00
3	 0.000000e+00	 6.750000e+00	 9.713891e+00
3	 0.000000e+00	 6.833333e+00	 9.728143e+00
3	 0.000000e+00	 6.916667e+00	 9.741933e+00
3	 0.000000e+00	 7.000000e+00	 9.755258e+00
3	 0.000000e+00	 7.083333e+00	 9.768116e+00
3	 8.333333e-02	 6.666667e+00	 9.699574e+00
3	 8.333333e-02	 6.750000e+00	 9.714263e+00
3	 8.333333e-02	 6.833333e+00	 9.728493e+00
3	 8.333333e-02	 6.916667e+00	 9.742261e+00
3	 8.333333e-02	 7.000000e+00	 9.755566e+00
3	 8.333333e-02	 7.083333e+00	 9.768405e+00
3	 1.666667e-01	 6.666667e+00	 9.700774e+00
3	 1.666667e-01	 6.750000e+00	 9.715391e+00
3	 1.666667e-01	 6.833333e+00	 9.729553e+00
3	 1.666667e-01	 6.916667e+00	 9.743256e+00
3	 1.666667e-01	 7.000000e+00	 9.756500e+00
3	 1.666667e-01	 7.083333e+00	 9.769281e+00
3	 2.500000e-01	 6.666667e+00	 9.702762e+00
3	 2.500000e-01	 6.750000e+00	 9.717260e+00
3	 2.500000e-01	 6.833333e+00	 9.731308e+00
3	 2.500000e-01	 6.916667e+00	 9.744904e+00
3	 2.500000e-01	 7.000000e+00	 9.758046e+00
3	 2.500000e-01	 7.083333e+00	 9.770732e+00
3	 3.333333e-01	 6.666667e+00	 9.705520e+00
3	 3.333333e-01	 6.750000e+00	 9.719853e+00
3	 3.333333e-01	 6.833333e+00	 9.733744e+00
3	 3.333333e-01	 6.916667e+00	 9.747191e+00
3	 3.333333e-01	 7.000000e+00	 9.760193e+00
3	 3.333333e-01	 7.083333e+00	 9.772747e+00
3	 4.166667e-01	 6.666667e+00	 9.709030e+00
3	 4.166667e-01	 6.750000e+00	 9.723154e+00
3	 4.166667e-01	 6.833333e+00	 9.736846e+00
3	 4.166667e-01	 6.916667e+00	 9.750104e+00
3	 4.166667e-01	 7.000000e+00	 9.762927e+00
3	 4.166667e-01	 7.083333e+00	 9.775312e+00
3	 0.000000e+00	 7.083333e+00	 9.768116e+00
3	 0.000000e+00	 7.166667e+00	 9.780548e+00
3	 0.000000e+00	 7.250000e+00	 9.792595e+00
3	 0.000000e+00	 7.333333e+00	 9.804259e+00
3	 0.000000e+00	 7.416667e+00	 9.815540e+00
3	 0.000000e+00	 7.500000e+00	 9.826438e+00
3	 8.333333e-02	 7.083333e+00	 9.768405e+00
3	 8.333333e-02	 7.166667e+00	 9.780819e+00
3	 8.333333e-02	 7.250000e+00	 9.792849e+00
3	 8.333333e-02	 7.333333e+00	 9.804496e+00
3	 8.333333e-02	 7.416667e+00	 9.815762e+00
3	 8.333333e-02	 7.500000e+00	 9.826645e+00
3	 1.666667e-01	 7.083333e+00	 9.769281e+00
3	 1.666667e-01	 7.166667e+00	 9.781640e+00
3	 1.666667e-01	 7.250000e+00	 9.793618e+00
3	 1.666667e-01	 7.333333e+00	 9.805216e+00
3	 1.666667e-01	 7.416667e+00	 9.816434e+00
3	 1.666667e-01	 7.500000e+00	 9.827273e+00
3	 2.500000e-01	 7.083333e+00	 9.770732e+00
3	 2.500000e-01	 7.166667e+00	 9.783001e+00
3	 2.500000e-01	 7.250000e+00	 9.794893e+00
3	 2.500000e-01	 7.333333e+00	 9.806408e+00
3	 2.500000e-01	 7.416667e+00	 9.817549e+00
3	 2.500000e-01	 7.500000e+00	 9.828314e+00
3	 3.333333e-01	 7.083333e+00	 9.772747e+00
3	 3.333333e-01	 7.166667e+00	 9.784890e+00
3	 3.333333e-01	 7.250000e+00	 9.796662e+00
3	 3.333333e-01	 7.333333e+00	 9.808064e+00
3	 3.333333e-01	 7.416667e+00	 9.819096e+00
3	 3.333333e-01	 7.500000e+00	 9.829760e+00
3	 4.166667e-01	 7.083333e+00	 9.775312e+00
3	 4.166667e-01	 7.166667e+00	 9.787297e+00
3	 4.166667e-01	 7.250000e+00	 9.798917e+00
3	 4.166667e-01	 7.333333e+00	 9.810174e+00
3	 4.166667e-01	 7.416667e+00	 9.821069e+00
3	 4.166667e-01	 7.500000e+00	 9.831603e+00
3	 0.000000e+00	 7.500000e+00	 9.826438e+00
3	 0.000000e+00	 7.583333e+00	 9.836976e+00
3	 0.000000e+00	 7.666667e+00	 9.847177e+00
3	 0.000000e+00	 7.750000e+00	 9.857045e+00
3	 0.000000e+00	 7.833333e+00	 9.866583e+00
3	 0.000000e+00	 7.916667e+00	 9.875795e+00
3	 8.333333e-02	 7.500000e+00	 9.826645e+00
3	 8.333333e-02	 7.583333e+00	 9.837169e+00
3	 8.333333e-02	 7.666667e+00	 9.847357e+00
3	 8.333333e-02	 7.750000e+00	 9.857212e+00
3	 8.333333e-02	 7.833333e+00	 9.866738e+00
3	 8.333333e-02	 7.916667e+00	 9.875938e+00
3	 1.666667e-01	 7.500000e+00	 9.827273e+00
3	 1.666667e-01	 7.583333e+00	 9.837755e+00
3	 1.666667e-01	 7.666667e+00	 9.847903e+00
3	 1.666667e-01	 7.750000e+00	 9.857719e+00
3	 1.666667e-01	 7.833333e+00	 9.867209e+00
3	 1.666667e-01	 7.916667e+00	 9.876374e+00
3	 2.500000e-01	 7.500000e+00	 9.828314e+00
3	 2.500000e-01	 7.583333e+00	 9.838726e+00
3	 2.500000e-01	 7.666667e+00	 9.848807e+00
3	 2.500000e-01	 7.750000e+00	 9.858560e+00
3	 2.500000e-01	 7.833333e+00	 9.867988e+00
3	 2.500000e-01	 7.916667e+00	 9.877097e+00
3	 3.333333e-01	 7.500000e+00	 9.829760e+00
3	 3.333333e-01	 7.583333e+00	 9.840075e+00
3	 3.333333e-01	 7.666667e+00	 9.850063e+00
3	 3.333333e-01	 7.750000e+00	 9.859727e+00
3	 3.333333e-01	 7.833333e+00	 9.869072e+00
3	 3.333333e-01	 7.916667e+00	 9.878100e+00
3	 4.166667e-01	 7.500000e+00	 9.831603e+00
3	 4.166667e-01	 7.583333e+00	 9.841794e+00
3	 4.166667e-01	 7.666667e+00	 9.851664e+00
3	 4.166667e-01	 7.750000e+00	 9.861215e+00
3	 4.166667e-01	 7.833333e+00	 9.870452e+00
3	 4.166667e-01	 7.916667e+00	 9.879379e+00
3	 0.000000e+00	 7.916667e+00	 9.875795e+00
3	 0.000000e+00	 8.000000e+00	 9.884685e+00
3	 0.000000e+00	 8.083333e+00	 9.893260e+00
3	 0.000000e+00	 8.166667e+00	 9.901528e+00
3	 0.000000e+00	 8.250000e+00	 9.909494e+00
3	 0.000000e+00	 8.333333e+00	 9.917166e+00
3	 8.333333e-02	 7.916667e+00	 9.875938e+00
3	 8.333333e-02	 8.000000e+00	 9.884818e+00
3	 8.333333e-02	 8.083333e+00	 9.893383e+00
3	 8.333333e-02	 8.166667e+00	 9.901640e+00
3	 8.333333e-02	 8.250000e+00	 9.909597e+00
3	 8.333333e-02	 8.333333e+00	 9.917260e+00
3	 1.666667e-01	 7.916667e+00	 9.876374e+00
3	 1.666667e-01	 8.000000e+00	 9.885221e+00
3	 1.666667e-01	 8.083333e+00	 9.893754e+00
3	 1.666667e-01	 8.166667e+00	 9.901981e+00
3	 1.666667e-01	 8.250000e+00	 9.909909e+00
3	 1.666667e-01	 8.333333e+00	 9.917545e+00
3	 2.500000e-01	 7.916667e+00	 9.877097e+00
3	 2.500000e-01	 8.000000e+00	 9.885888e+00
3	 2.500000e-01	 8.083333e+00	 9.894369e+00
3	 2.500000e-01	 8.166667e+00	 9.902547e+00
3	 2.500000e-01	 8.250000e+00	 9.910427e+00
3	 2.500000e-01	 8.333333e+00	 9.918017e+00
3	 3.333333e-01	 7.916667e+00	 9.878100e+00
3	 3.333333e-01	 8.000000e+00	 9.886816e+00
3	 3.333333e-01	 8.083333e+00	 9.895224e+00
3	 3.333333e-01	 8.166667e+00	 9.903332e+00
3	 3.333333e-01	 8.250000e+00	 9.911146e+00
3	 3.333333e-01	 8.333333e+00	 9.918673e+00
3	 4.166667e-01	 7.916667e+00	 9.879379e+00
3	 4.166667e-01	 8.000000e+00	 9.887998e+00
3	 4.166667e-01	 8.083333e+00	 9.896313e+00
3	 4.166667e-01	 8.166667e+00	 9.904332e+00
3	 4.166667e-01	 8.250000e+00	 9.912062e+00
3	 4.166667e-01	 8.333333e+00	 9.919509e+00
3	 0.000000e+00	 8.333333e+00	 9.917166e+00
3	 0.000000e+00	 8.416667e+00	 9.924530e+00
3	 0.000000e+00	 8.500000e+00	 9.931576e+00
3	 0.000000e+00	 8.583333e+00	 9.938313e+00
3	 0.000000e+00	 8.666667e+00	 9.944754e+00
3	 0.000000e+00	 8.750000e+00	 9.950909e+00
3	 8.333333e-02	 8.333333e+00	 9.917260e+00
3	 8.333333e-02	 8.416667e+00	 9.924615e+00
3	 8.333333e-02	 8.500000e+00	 9.931653e+00
3	 8.333333e-02	 8.583333e+00	 9.938383e+00
3	 8.333333e-02	 8.666667e+00	 9.944817e+00
3	 8.333333e-02	 8.750000e+00	 9.950964e+00
3	 1.666667e-01	 8.333333e+00	 9.917545e+00
3	 1.666667e-01	 8.416667e+00	 9.924874e+00
3	 1.666667e-01	 8.500000e+00	 9.931887e+00
3	 1.666667e-01	 8.583333e+00	 9.938594e+00
3	 1.666667e-01	 8.666667e+00	 9.945005e+00
3	 1.666667e-01	 8.750000e+00	 9.951132e+00
3	 2.500000e-01	 8.333333e+00	 9.918017e+00
3	 2.500000e-01	 8.416667e+00	 9.925304e+00
3	 2.500000e-01	 8.500000e+00	 9.932276e+00
3	 2.500000e-01	 8.583333e+00	 9.938943e+00
3	 2.500000e-01	 8.666667e+00	 9.945318e+00
3	 2.500000e-01	 8.750000e+00	 9.951410e+00
3	 3.333333e-01	 8.333333e+00	 9.918673e+00
3	 3.333333e-01	 8.416667e+00	 9.925900e+00
3	 3.333333e-01	 8.500000e+00	 9.932815e+00
3	 3.333333e-01	 8.583333e+00	 9.939429e+00
3	 3.333333e-01	 8.666667e+00	 9.945752e+00
3	 3.333333e-01	 8.750000e+00	 9.951795e+00
3	 4.166667e-01	 8.333333e+00	 9.919509e+00
3	 4.166667e-01	 8.416667e+00	 9.926660e+00
3	 4.166667e-01	 8.500000e+00	 9.933502e+00
3	 4.166667e-01	 8.583333e+00	 9.940047e+00
3	 4.166667e-01	 8.666667e+00	 9.946304e+00
3	 4.166667e-01	 8.750000e+00	 9.952285e+00
3	 0.000000e+00	 8.750000e+00	 9.950909e+00
3	 0.000000e+00	 8.833333e+00	 9.956745e+00
3	 0.000000e+00	 8.916667e+00	 9.962233e+00
3	 0.000000e+00	 9.000000e+00	 9.967389e+00
3	 0.000000e+00	 9.083333e+00	 9.972229e+00
3	 0.000000e+00	 9.166667e+00	 9.976768e+00
3	 8.333333e-02	 8.750000e+00	 9.950964e+00
3	 8.333333e-02	 8.833333e+00	 9.956794e+00
3	 8.333333e-02	 8.916667e+00	 9.962276e+00
3	 8.333333e-02	 9.000000e+00	 9.967426e+00
3	 8.333333e-02	 9.083333e+00	 9.972260e+00
3	 8.333333e-02	 9.166667e+00	 9.976794e+00
3	 1.666667e-01	 8.750000e+00	 9.951132e+00
3	 1.666667e-01	 8.833333e+00	 9.956942e+00
3	 1.666667e-01	 8.916667e+00	 9.962405e+00
3	 1.666667e-01	 9.000000e+00	 9.967537e+00
3	 1.666667e-01	 9.083333e+00	 9.972355e+00
3	 1.666667e-01	 9.166667e+00	 9.976873e+00
3	 2.500000e-01	 8.750000e+00	 9.951410e+00
3	 2.500000e-01	 8.833333e+00	 9.957186e+00
3	 2.500000e-01	 8.916667e+00	 9.962618e+00
3	 2.500000e-01	 9.000000e+00	 9.967722e+00
3	 2.500000e-01	 9.083333e+00	 9.972512e+00
3	 2.500000e-01	 9.166667e+00	 9.977005e+00
3	 3.333333e-01	 8.750000e+00	 9.951795e+00
3	 3.333333e-01	 8.833333e+00	 9.957525e+00
3	 3.333333e-01	 8.916667e+00	 9.962915e+00
3	 3.333333e-01	 9.000000e+00	 9.967978e+00
3	 3.333333e-01	 9.083333e+00	 9.972730e+00
3	 3.333333e-01	 9.166667e+00	 9.977188e+00
3	 4.166667e-01	 8.750000e+00	 9.952285e+00
3	 4.166667e-01	 8.833333e+00	 9.957957e+00
3	 4.166667e-01	 8.916667e+00	 9.963291e+00
3	 4.166667e-01	 9.000000e+00	 9.968302e+00
3	 4.166667e-01	 9.083333e+00	 9.973006e+00
3	 4.166667e-01	 9.166667e+00	 9.977418e+00
3	 0.000000e+00	 9.166667e+00	 9.976768e+00
3	 0.000000e+00	 9.250000e+00	 9.980947e+00
3	 0.000000e+00	 9.333333e+00	 9.984712e+00
3	 0.000000e+00	 9.416667e+00	 9.988084e+00
3	 0.000000e+00	 9.500000e+00	 9.991088e+00
3	 0.000000e+00	 9.583333e+00	 9.993745e+00
3	 8.333333e-02	 9.166667e+00	 9.976794e+00
3	 8.333333e-02	 9.250000e+00	 9.980968e+00
3	 8.333333e-02	 9.333333e+00	 9.984728e+00
3	 8.333333e-02	 9.416667e+00	 9.988098e+00
3	 8.333333e-02	 9.500000e+00	 9.991098e+00
3	 8.333333e-02	 9.583333e+00	 9.993752e+00
3	 1.666667e-01	 9.166667e+00	 9.976873e+00
3	 1.666667e-01	 9.250000e+00	 9.981034e+00
3	 1.666667e-01	 9.333333e+00	 9.984781e+00
3	 1.666667e-01	 9.416667e+00	 9.988139e+00
3	 1.666667e-01	 9.500000e+00	 9.991129e+00
3	 1.666667e-01	 9.583333e+00	 9.993775e+00
3	 2.500000e-01	 9.166667e+00	 9.977005e+00
3	 2.500000e-01	 9.250000e+00	 9.981142e+00
3	 2.500000e-01	 9.333333e+00	 9.984869e+00
3	 2.500000e-01	 9.416667e+00	 9.988208e+00
3	 2.500000e-01	 9.500000e+00	 9.991181e+00
3	 2.500000e-01	 9.583333e+00	 9.993811e+00
3	 3.333333e-01	 9.166667e+00	 9.977188e+00
3	 3.333333e-01	 9.250000e+00	 9.981292e+00
3	 3.333333e-01	 9.333333e+00	 9.984989e+00
3	 3.333333e-01	 9.416667e+00	 9.988302e+00
3	 3.333333e-01	 9.500000e+00	 9.991251e+00
3	 3.333333e-01	 9.583333e+00	 9.993861e+00
3	 4.166667e-01	 9.166667e+00	 9.977418e+00
3	 4.166667e-01	 9.250000e+00	 9.981481e+00
3	 4.166667e-01	 9.333333e+00	 9.985141e+00
3	 4.166667e-01	 9.416667e+00	 9.988419e+00
3	 4.166667e-01	 9.500000e+00	 9.991339e+00
3	 4.166667e-01	 9.583333e+00	 9.993921e+00
3	 0.000000e+00	 9.583333e+00	 9.993745e+00
3	 0.000000e+00	 9.666667e+00	 9.995971e+00
3	 0.000000e+00	 9.750000e+00	 9.997686e+00
3	 0.000000e+00	 9.833333e+00	 9.998921e+00
3	 0.000000e+00	 9.916667e+00	 9.999708e+00
3	 0.000000e+00	 1.000000e+01	 1.000008e+01
3	 8.333333e-02	 9.583333e+00	 9.993752e+00
3	 8.333333e-02	 9.666667e+00	 9.995975e+00
3	 8.333333e-02	 9.750000e+00	 9.997688e+00
3	 8.333333e-02	 9.833333e+00	 9.998921e+00
3	 8.333333e-02	 9.916667e+00	 9.999707e+00
3	 8.333333e-02	 1.000000e+01	 1.000008e+01
3	 1.666667e-01	 9.583333e+00	 9.993775e+00
3	 1.666667e-01	 9.666667e+00	 9.995990e+00
3	 1.666667e-01	 9.750000e+00	 9.997697e+00
3	 1.666667e-01	 9.833333e+00	 9.998926e+00
3	 1.666667e-01	 9.916667e+00	 9.999709e+00
3	 1.666667e-01	 1.000000e+01	 1.000008e+01
3	 2.500000e-01	 9.583333e+00	 9.993811e+00
3	 2.500000e-01	 9.666667e+00	 9.996014e+00
3	 2.500000e-01	 9.750000e+00	 9.997711e+00
3	 2.500000e-01	 9.833333e+00	 9.998933e+00
3	 2.500000e-01	 9.916667e+00	 9.999712e+00
3	 2.500000e-01	 1.000000e+01	 1.000008e+01
3	 3.333333e-01	 9.583333e+00	 9.993861e+00
3	 3.333333e-01	 9.666667e+00	 9.996046e+00
3	 3.333333e-01	 9.750000e+00	 9.997729e+00
3	 3.333333e-01	 9.833333e+00	 9.998942e+00
3	 3.333333e-01	 9.916667e+00	 9.999714e+00
3	 3.333333e-01	 1.000000e+01	 1.000008e+01
3	 4.166667e-01	 9.583333e+00	 9.993921e+00
3	 4.166667e-01	 9.666667e+00	 9.996084e+00
3	 4.166667e-01	 9.750000e+00	 9.997750e+00
3	 4.166667e-01	 9.833333e+00	 9.998950e+00
3	 4.166667e-01	 9.916667e+00	 9.999714e+00
3	 4.166667e-01	 1.000000e+01	 1.000007e+01
3	 4.166667e-01	 5.000000e+00	 9.283584e+00
3	 4.166667e-01	 5.083333e+00	 9.313804e+00
3	 4.166667e-01	 5.166667e+00	 9.342877e+00
3	 4.166667e-01	 5.250000e+00	 9.370788e+00
3	 4.166667e-01	 5.333333e+00	 9.397523e+00
3	 4.166667e-01	 5.416667e+00	 9.423065e+00
3	 5.000000e-01	 5.000000e+00	 9.298554e+00
3	 5.000000e-01	 5.083333e+00	 9.327821e+00
3	 5.000000e-01	 5.166667e+00	 9.355998e+00
3	 5.000000e-01	 5.250000e+00	 9.383072e+00
3	 5.000000e-01	 5.333333e+00	 9.409030e+00
3	 5.000000e-01	 5.416667e+00	 9.433861e+00
3	 5.833333e-01	 5.000000e+00	 9.316078e+00
3	 5.833333e-01	 5.083333e+00	 9.344235e+00
3	 5.833333e-01	 5.166667e+00	 9.371366e+00
3	 5.833333e-01	 5.250000e+00	 9.397463e+00
3	 5.833333e-01	 5.333333e+00	 9.422516e+00
3	 5.833333e-01	 5.416667e+00	 9.446516e+00
3	 6.666667e-01	 5.000000e+00	 9.335917e+00
3	 6.666667e-01	 5.083333e+00	 9.362826e+00
3	 6.666667e-01	 5.166667e+00	 9.388783e+00
3	 6.666667e-01	 5.250000e+00	 9.413782e+00
3	 6.666667e-01	 5.333333e+00	 9.437815e+00
3	 6.666667e-01	 5.416667e+00	 9.460878e+00
3	 7.500000e-01	 5.000000e+00	 9.357834e+00
3	 7.500000e-01	 5.083333e+00	 9.383379e+00
3	 7.500000e-01	 5.166667e+00	 9.408050e+00
3	 7.500000e-01	 5.250000e+00	 9.431845e+00
3	 7.500000e-01	 5.333333e+00	 9.454761e+00
3	 7.500000e-01	 5.416667e+00	 9.476795e+00
3	 8.333333e-01	 5.000000e+00	 9.381590e+00
3	 8.333333e-01	 5.083333e+00	 9.405674e+00
3	 8.333333e-01	 5.166667e+00	 9.428968e+00
3	 8.333333e-01	 5.250000e+00	 9.451472e+00
3	 8.333333e-01	 5.333333e+00	 9.473188e+00
3	 8.333333e-01	 5.416667e+00	 9.494115e+00
3	 4.166667e-01	 5.416667e+00	 9.423065e+00
3	 4.166667e-01	 5.500000e+00	 9.447571e+00
3	 4.166667e-01	 5.583333e+00	 9.471198e+00
3	 4.166667e-01	 5.666667e+00	 9.493935e+00
3	 4.166667e-01	 5.750000e+00	 9.515772e+00
3	 4.166667e-01	 5.833333e+00	 9.536698e+00
3	 5.000000e-01	 5.416667e+00	 9.433861e+00
3	 5.000000e-01	 5.500000e+00	 9.457706e+00
3	 5.000000e-01	 5.583333e+00	 9.480710e+00
3	 5.000000e-01	 5.666667e+00	 9.502862e+00
3	 5.000000e-01	 5.750000e+00	 9.524155e+00
3	 5.000000e-01	 5.833333e+00	 9.544579e+00
3	 5.833333e-01	 5.416667e+00	 9.446516e+00
3	 5.833333e-01	 5.500000e+00	 9.469589e+00
3	 5.833333e-01	 5.583333e+00	 9.491864e+00
3	 5.833333e-01	 5.666667e+00	 9.513334e+00
3	 5.833333e-01	 5.750000e+00	 9.533991e+00
3	 5.833333e-01	 5.833333e+00	 9.553828e+00
3	 6.666667e-01	 5.416667e+00	 9.460878e+00
3	 6.666667e-01	 5.500000e+00	 9.483081e+00
3	 6.666667e-01	 5.583333e+00	 9.504533e+00
3	 6.666667e-01	 5.666667e+00	 9.525232e+00
3	 6.666667e-01	 5.750000e+00	 9.545170e+00
3	 6.666667e-01	 5.833333e+00	 9.564344e+00
3	 7.500000e-01	 5.416667e+00	 9.476795e+00
3	 7.500000e-01	 5.500000e+00	 9.498041e+00
3	 7.500000e-01	 5.583333e+00	 9.518589e+00
3	 7.500000e-01	 5.666667e+00	 9.538439e+00
3	 7.500000e-01	 5.750000e+00	 9.557586e+00
3	 7.500000e-01	 5.833333e+00	 9.576027e+00
3	 8.333333e-01	 5.416667e+00	 9.494115e+00
3	 8.333333e-01	 5.500000e+00	 9.514329e+00
3	 8.333333e-01	 5.583333e+00	 9.533903e+00
3	 8.333333e-01	 5.666667e+00	 9.552837e+00
3	 8.333333e-01	 5.750000e+00	 9.571129e+00
3	 8.333333e-01	 5.833333e+00	 9.588780e+00
3	 4.166667e-01	 5.833333e+00	 9.536698e+00
3	 4.166667e-01	 5.916667e+00	 9.556829e+00
3	 4.166667e-01	 6.000000e+00	 9.576286e+00
3	 4.166667e-01	 6.083333e+00	 9.595061e+00
3	 4.166667e-01	 6.166667e+00	 9.613147e+00
3	 4.166667e-01	 6.250000e+00	 9.630538e+00
3	 5.000000e-01	 5.833333e+00	 9.544579e+00
3	 5.000000e-01	 5.916667e+00	 9.564243e+00
3	 5.000000e-01	 6.000000e+00	 9.583257e+00
3	 5.000000e-01	 6.083333e+00	 9.601614e+00
3	 5.000000e-01	 6.166667e+00	 9.619309e+00
3	 5.000000e-01	 6.250000e+00	 9.636336e+00
3	 5.833333e-01	 5.833333e+00	 9.553828e+00
3	 5.833333e-01	 5.916667e+00	 9.572944e+00
3	 5.833333e-01	 6.000000e+00	 9.591439e+00
3	 5.833333e-01	 6.083333e+00	 9.609307e+00
3	 5.833333e-01	 6.166667e+00	 9.626544e+00
3	 5.833333e-01	 6.250000e+00	 9.643145e+00
3	 6.666667e-01	 5.833333e+00	 9.564344e+00
3	 6.666667e-01	 5.916667e+00	 9.582840e+00
3	 6.666667e-01	 6.000000e+00	 9.600747e+00
3	 6.666667e-01	 6.083333e+00	 9.618062e+00
3	 6.666667e-01	 6.166667e+00	 9.634780e+00
3	 6.666667e-01	 6.250000e+00	 9.650898e+00
3	 7.500000e-01	 5.833333e+00	 9.576027e+00
3	 7.500000e-01	 5.916667e+00	 9.593839e+00
3	 7.500000e-01	 6.000000e+00	 9.611098e+00
3	 7.500000e-01	 6.083333e+00	 9.627801e+00
3	 7.500000e-01	 6.166667e+00	 9.643946e+00
3	 7.500000e-01	 6.250000e+00	 9.659530e+00
3	 8.333333e-01	 5.833333e+00	 9.588780e+00
3	 8.333333e-01	 5.916667e+00	 9.605851e+00
3	 8.333333e-01	 6.000000e+00	 9.622407e+00
3	 8.333333e-01	 6.083333e+00	 9.638447e+00
3	 8.333333e-01	 6.166667e+00	 9.653969e+00
3	 8.333333e-01	 6.250000e+00	 9.668973e+00
3	 4.166667e-01	 6.250000e+00	 9.630538e+00
3	 4.166667e-01	 6.333333e+00	 9.647312e+00
3	 4.166667e-01	 6.416667e+00	 9.663552e+00
3	 4.166667e-01	 6.500000e+00	 9.679255e+00
3	 4.166667e-01	 6.583333e+00	 9.694415e+00
3	 4.166667e-01	 6.666667e+00	 9.709030e+00
3	 5.000000e-01	 6.250000e+00	 9.636336e+00
3	 5.000000e-01	 6.333333e+00	 9.652769e+00
3	 5.000000e-01	 6.416667e+00	 9.668686e+00
3	 5.000000e-01	 6.500000e+00	 9.684082e+00
3	 5.000000e-01	 6.583333e+00	 9.698954e+00
3	 5.000000e-01	 6.666667e+00	 9.713300e+00
3	 5.833333e-01	 6.250000e+00	 9.643145e+00
3	 5.833333e-01	 6.333333e+00	 9.659179e+00
3	 5.833333e-01	 6.416667e+00	 9.674716e+00
3	 5.833333e-01	 6.500000e+00	 9.689753e+00
3	 5.833333e-01	 6.583333e+00	 9.704287e+00
3	 5.833333e-01	 6.666667e+00	 9.718316e+00
3	 6.666667e-01	 6.250000e+00	 9.650898e+00
3	 6.666667e-01	 6.333333e+00	 9.666479e+00
3	 6.666667e-01	 6.416667e+00	 9.681585e+00
3	 6.666667e-01	 6.500000e+00	 9.696214e+00
3	 6.666667e-01	 6.583333e+00	 9.710365e+00
3	 6.666667e-01	 6.666667e+00	 9.724036e+00
3	 7.500000e-01	 6.250000e+00	 9.659530e+00
3	 7.500000e-01	 6.333333e+00	 9.674609e+00
3	 7.500000e-01	 6.416667e+00	 9.689237e+00
3	 7.500000e-01	 6.500000e+00	 9.703415e+00
3	 7.500000e-01	 6.583333e+00	 9.717140e+00
3	 7.500000e-01	 6.666667e+00	 9.730413e+00
3	 8.333333e-01	 6.250000e+00	 9.668973e+00
3	 8.333333e-01	 6.333333e+00	 9.683507e+00
3	 8.333333e-01	 6.416667e+00	 9.697616e+00
3	 8.333333e-01	 6.500000e+00	 9.711302e+00
3	 8.333333e-01	 6.583333e+00	 9.724564e+00
3	 8.333333e-01	 6.666667e+00	 9.737402e+00
3	 4.166667e-01	 6.666667e+00	 9.709030e+00
3	 4.166667e-01	 6.750000e+00	 9.723154e+00
3	 4.166667e-01	 6.833333e+00	 9.736846e+00
3	 4.166667e-01	 6.916667e+00	 9.750104e+00
3	 4.166667e-01	 7.000000e+00	 9.762927e+00
3	 4.166667e-01	 7.083333e+00	 9.775312e+00
3	 5.000000e-01	 6.666667e+00	 9.713300e+00
3	 5.000000e-01	 6.750000e+00	 9.727170e+00
3	 5.000000e-01	 6.833333e+00	 9.740620e+00
3	 5.000000e-01	 6.916667e+00	 9.753648e+00
3	 5.000000e-01	 7.000000e+00	 9.766253e+00
3	 5.000000e-01	 7.083333e+00	 9.778435e+00
3	 5.833333e-01	 6.666667e+00	 9.718316e+00
3	 5.833333e-01	 6.750000e+00	 9.731889e+00
3	 5.833333e-01	 6.833333e+00	 9.745055e+00
3	 5.833333e-01	 6.916667e+00	 9.757813e+00
3	 5.833333e-01	 7.000000e+00	 9.770164e+00
3	 5.833333e-01	 7.083333e+00	 9.782105e+00
3	 6.666667e-01	 6.666667e+00	 9.724036e+00
3	 6.666667e-01	 6.750000e+00	 9.737270e+00
3	 6.666667e-01	 6.833333e+00	 9.750113e+00
3	 6.666667e-01	 6.916667e+00	 9.762564e+00
3	 6.666667e-01	 7.000000e+00	 9.774625e+00
3	 6.666667e-01	 7.083333e+00	 9.786294e+00
3	 7.500000e-01	 6.666667e+00	 9.730413e+00
3	 7.500000e-01	 6.750000e+00	 9.743271e+00
3	 7.500000e-01	 6.833333e+00	 9.755755e+00
3	 7.500000e-01	 6.916667e+00	 9.767866e+00
3	 7.500000e-01	 7.000000e+00	 9.779603e+00
3	 7.500000e-01	 7.083333e+00	 9.790969e+00
3	 8.333333e-01	 6.666667e+00	 9.737402e+00
3	 8.333333e-01	 6.750000e+00	 9.749850e+00
3	 8.333333e-01	 6.833333e+00	 9.761943e+00
3	 8.333333e-01	 6.916667e+00	 9.773681e+00
3	 8.333333e-01	 7.000000e+00	 9.785067e+00
3	 8.333333e-01	 7.083333e+00	 9.796100e+00
3	 4.166667e-01	 7.083333e+00	 9.775312e+00
3	 4.166667e-01	 7.166667e+00	 9.787297e+00
3	 4.166667e-01	 7.250000e+00	 9.798917e+00
3	 4.166667e-01	 7.333333e+00	 9.810174e+00
3	 4.166667e-01	 7.416667e+00	 9.821069e+00
3	 4.166667e-01	 7.500000e+00	 9.831603e+00
3	 5.000000e-01	 7.083333e+00	 9.778435e+00
3	 5.000000e-01	 7.166667e+00	 9.790225e+00
3	 5.000000e-01	 7.250000e+00	 9.801661e+00
3	 5.000000e-01	 7.333333e+00	 9.812741e+00
3	 5.000000e-01	 7.416667e+00	 9.823469e+00
3	 5.000000e-01	 7.500000e+00	 9.833845e+00
3	 5.833333e-01	 7.083333e+00	 9.782105e+00
3	 5.833333e-01	 7.166667e+00	 9.793669e+00
3	 5.833333e-01	 7.250000e+00	 9.804887e+00
3	 5.833333e-01	 7.333333e+00	 9.815761e+00
3	 5.833333e-01	 7.416667e+00	 9.826293e+00
3	 5.833333e-01	 7.500000e+00	 9.836483e+00
3	 6.666667e-01	 7.083333e+00	 9.786294e+00
3	 6.666667e-01	 7.166667e+00	 9.797599e+00
3	 6.666667e-01	 7.250000e+00	 9.808570e+00
3	 6.666667e-01	 7.333333e+00	 9.819208e+00
3	 6.666667e-01	 7.416667e+00	 9.829516e+00
3	 6.666667e-01	 7.500000e+00	 9.839496e+00
3	 7.500000e-01	 7.083333e+00	 9.790969e+00
3	 7.500000e-01	 7.166667e+00	 9.801986e+00
3	 7.500000e-01	 7.250000e+00	 9.812682e+00
3	 7.500000e-01	 7.333333e+00	 9.823058e+00
3	 7.500000e-01	 7.416667e+00	 9.833117e+00
3	 7.500000e-01	 7.500000e+00	 9.842861e+00
3	 8.333333e-01	 7.083333e+00	 9.796100e+00
3	 8.333333e-01	 7.166667e+00	 9.806803e+00
3	 8.333333e-01	 7.250000e+00	 9.817197e+00
3	 8.333333e-01	 7.333333e+00	 9.827286e+00
3	 8.333333e-01	 7.416667e+00	 9.837072e+00
3	 8.333333e-01	 7.500000e+00	 9.846557e+00
3	 4.166667e-01	 7.500000e+00	 9.831603e+00
3	 4.166667e-01	 7.583333e+00	 9.841794e+00
3	 4.166667e-01	 7.666667e+00	 9.851664e+00
3	 4.166667e-01	 7.750000e+00	 9.861215e+00
3	 4.166667e-01	 7.833333e+00	 9.870452e+00
3	 4.166667e-01	 7.916667e+00	 9.879379e+00
3	 5.000000e-01	 7.500000e+00	 9.833845e+00
3	 5.000000e-01	 7.583333e+00	 9.843887e+00
3	 5.000000e-01	 7.666667e+00	 9.853613e+00
3	 5.000000e-01	 7.750000e+00	 9.863027e+00
3	 5.000000e-01	 7.833333e+00	 9.872134e+00
3	 5.000000e-01	 7.916667e+00	 9.880936e+00
3	 5.833333e-01	 7.500000e+00	 9.836483e+00
3	 5.833333e-01	 7.583333e+00	 9.846349e+00
3	 5.833333e-01	 7.666667e+00	 9.855906e+00
3	 5.833333e-01	 7.750000e+00	 9.865159e+00
3	 5.833333e-01	 7.833333e+00	 9.874112e+00
3	 5.833333e-01	 7.916667e+00	 9.882769e+00
3	 6.666667e-01	 7.500000e+00	 9.839496e+00
3	 6.666667e-01	 7.583333e+00	 9.849160e+00
3	 6.666667e-01	 7.666667e+00	 9.858525e+00
3	 6.666667e-01	 7.750000e+00	 9.867594e+00
3	 6.666667e-01	 7.833333e+00	 9.876372e+00
3	 6.666667e-01	 7.916667e+00	 9.884864e+00
3	 7.500000e-01	 7.500000e+00	 9.842861e+00
3	 7.500000e-01	 7.583333e+00	 9.852301e+00
3	 7.500000e-01	 7.666667e+00	 9.861451e+00
3	 7.500000e-01	 7.750000e+00	 9.870315e+00
3	 7.500000e-01	 7.833333e+00	 9.878898e+00
3	 7.500000e-01	 7.916667e+00	 9.887204e+00
3	 8.333333e-01	 7.500000e+00	 9.846557e+00
3	 8.333333e-01	 7.583333e+00	 9.855752e+00
3	 8.333333e-01	 7.666667e+00	 9.864667e+00
3	 8.333333e-01	 7.750000e+00	 9.873306e+00
3	 8.333333e-01	 7.833333e+00	 9.881675e+00
3	 8.333333e-01	 7.916667e+00	 9.889777e+00
3	 4.166667e-01	 7.916667e+00	 9.879379e+00
3	 4.166667e-01	 8.000000e+00	 9.887998e+00
3	 4.166667e-01	 8.083333e+00	 9.896313e+00
3	 4.166667e-01	 8.166667e+00	 9.904332e+00
3	 4.166667e-01	 8.250000e+00	 9.912062e+00
3	 4.166667e-01	 8.333333e+00	 9.919509e+00
3	 5.000000e-01	 7.916667e+00	 9.880936e+00
3	 5.000000e-01	 8.000000e+00	 9.889437e+00
3	 5.000000e-01	 8.083333e+00	 9.897640e+00
3	 5.000000e-01	 8.166667e+00	 9.905551e+00
3	 5.000000e-01	 8.250000e+00	 9.913178e+00
3	 5.000000e-01	 8.333333e+00	 9.920528e+00
3	 5.833333e-01	 7.916667e+00	 9.882769e+00
3	 5.833333e-01	 8.000000e+00	 9.891132e+00
3	 5.833333e-01	 8.083333e+00	 9.899202e+00
3	 5.833333e-01	 8.166667e+00	 9.906986e+00
3	 5.833333e-01	 8.250000e+00	 9.914493e+00
3	 5.833333e-01	 8.333333e+00	 9.921728e+00
3	 6.666667e-01	 7.916667e+00	 9.884864e+00
3	 6.666667e-01	 8.000000e+00	 9.893068e+00
3	 6.666667e-01	 8.083333e+00	 9.900986e+00
3	 6.666667e-01	 8.166667e+00	 9.908626e+00
3	 6.666667e-01	 8.250000e+00	 9.915995e+00
3	 6.666667e-01	 8.333333e+00	 9.923099e+00
3	 7.500000e-01	 7.916667e+00	 9.887204e+00
3	 7.500000e-01	 8.000000e+00	 9.895232e+00
3	 7.500000e-01	 8.083333e+00	 9.902981e+00
3	 7.500000e-01	 8.166667e+00	 9.910460e+00
3	 7.500000e-01	 8.250000e+00	 9.917674e+00
3	 7.500000e-01	 8.333333e+00	 9.924632e+00
3	 8.333333e-01	 7.916667e+00	 9.889777e+00
3	 8.333333e-01	 8.000000e+00	 9.897610e+00
3	 8.333333e-01	 8.083333e+00	 9.905174e+00
3	 8.333333e-01	 8.166667e+00	 9.912475e+00
3	 8.333333e-01	 8.250000e+00	 9.919520e+00
3	 8.333333e-01	 8.333333e+00	 9.926317e+00
3	 4.166667e-01	 8.333333e+00	 9.919509e+00
3	 4.166667e-01	 8.416667e+00	 9.926660e+00
3	 4.166667e-01	 8.500000e+00	 9.933502e+00
3	 4.166667e-01	 8.583333e+00	 9.940047e+00
3	 4.166667e-01	 8.666667e+00	 9.946304e+00
3	 4.166667e-01	 8.750000e+00	 9.952285e+00
3	 5.000000e-01	 8.333333e+00	 9.920528e+00
3	 5.000000e-01	 8.416667e+00	 9.927586e+00
3	 5.000000e-01	 8.500000e+00	 9.934340e+00
3	 5.000000e-01	 8.583333e+00	 9.940800e+00
3	 5.000000e-01	 8.666667e+00	 9.946977e+00
3	 5.000000e-01	 8.750000e+00	 9.952883e+00
3	 5.833333e-01	 8.333333e+00	 9.921728e+00
3	 5.833333e-01	 8.416667e+00	 9.928677e+00
3	 5.833333e-01	 8.500000e+00	 9.935327e+00
3	 5.833333e-01	 8.583333e+00	 9.941688e+00
3	 5.833333e-01	 8.666667e+00	 9.947772e+00
3	 5.833333e-01	 8.750000e+00	 9.953588e+00
3	 6.666667e-01	 8.333333e+00	 9.923099e+00
3	 6.666667e-01	 8.416667e+00	 9.929924e+00
3	 6.666667e-01	 8.500000e+00	 9.936455e+00
3	 6.666667e-01	 8.583333e+00	 9.942704e+00
3	 6.666667e-01	 8.666667e+00	 9.948680e+00
3	 6.666667e-01	 8.750000e+00	 9.954395e+00
3	 7.500000e-01	 8.333333e+00	 9.924632e+00
3	 7.500000e-01	 8.416667e+00	 9.931317e+00
3	 7.500000e-01	 8.500000e+00	 9.937716e+00
3	 7.500000e-01	 8.583333e+00	 9.943838e+00
3	 7.500000e-01	 8.666667e+00	 9.949695e+00
3	 7.500000e-01	 8.750000e+00	 9.955296e+00
3	 8.333333e-01	 8.333333e+00	 9.926317e+00
3	 8.333333e-01	 8.416667e+00	 9.932848e+00
3	 8.333333e-01	 8.500000e+00	 9.939101e+00
3	 8.333333e-01	 8.583333e+00	 9.945084e+00
3	 8.333333e-01	 8.666667e+00	 9.950809e+00
3	 8.333333e-01	 8.750000e+00	 9.956285e+00
3	 4.166667e-01	 8.750000e+00	 9.952285e+00
3	 4.166667e-01	 8.833333e+00	 9.957957e+00
3	 4.166667e-01	 8.916667e+00	 9.963291e+00
3	 4.166667e-01	 9.000000e+00	 9.968302e+00
3	 4.166667e-01	 9.083333e+00	 9.973006e+00
3	 4.166667e-01	 9.166667e+00	 9.977418e+00
3	 5.000000e-01	 8.750000e+00	 9.952883e+00
3	 5.000000e-01	 8.833333e+00	 9.958483e+00
3	 5.000000e-01	 8.916667e+00	 9.963750e+00
3	 5.000000e-01	 9.000000e+00	 9.968699e+00
3	 5.000000e-01	 9.083333e+00	 9.973344e+00
3	 5.000000e-01	 9.166667e+00	 9.977701e+00
3	 5.833333e-01	 8.750000e+00	 9.953588e+00
3	 5.833333e-01	 8.833333e+00	 9.959105e+00
3	 5.833333e-01	 8.916667e+00	 9.964294e+00
3	 5.833333e-01	 9.000000e+00	 9.969168e+00
3	 5.833333e-01	 9.083333e+00	 9.973744e+00
3	 5.833333e-01	 9.166667e+00	 9.978036e+00
3	 6.666667e-01	 8.750000e+00	 9.954395e+00
3	 6.666667e-01	 8.833333e+00	 9.959816e+00
3	 6.666667e-01	 8.916667e+00	 9.964915e+00
3	 6.666667e-01	 9.000000e+00	 9.969705e+00
3	 6.666667e-01	 9.083333e+00	 9.974202e+00
3	 6.666667e-01	 9.166667e+00	 9.978420e+00
3	 7.500000e-01	 8.750000e+00	 9.955296e+00
3	 7.500000e-01	 8.833333e+00	 9.960610e+00
3	 7.500000e-01	 8.916667e+00	 9.965608e+00
3	 7.500000e-01	 9.000000e+00	 9.970303e+00
3	 7.500000e-01	 9.083333e+00	 9.974712e+00
3	 7.500000e-01	 9.166667e+00	 9.978847e+00
3	 8.333333e-01	 8.750000e+00	 9.956285e+00
3	 8.333333e-01	 8.833333e+00	 9.961481e+00
3	 8.333333e-01	 8.916667e+00	 9.966367e+00
3	 8.333333e-01	 9.000000e+00	 9.970958e+00
3	 8.333333e-01	 9.083333e+00	 9.975269e+00
3	 8.333333e-01	 9.166667e+00	 9.979313e+00
3	 4.166667e-01	 9.166667e+00	 9.977418e+00
3	 4.166667e-01	 9.250000e+00	 9.981481e+00
3	 4.166667e-01	 9.333333e+00	 9.985141e+00
3	 4.166667e-01	 9.416667e+00	 9.988419e+00
3	 4.166667e-01	 9.500000e+00	 9.991339e+00
3	 4.166667e-01	 9.583333e+00	 9.993921e+00
3	 5.000000e-01	 9.166667e+00	 9.977701e+00
3	 5.000000e-01	 9.250000e+00	 9.981713e+00
3	 5.000000e-01	 9.333333e+00	 9.985327e+00
3	 5.000000e-01	 9.416667e+00	 9.988564e+00
3	 5.000000e-01	 9.500000e+00	 9.991447e+00
3	 5.000000e-01	 9.583333e+00	 9.993997e+00
3	 5.833333e-01	 9.166667e+00	 9.978036e+00
3	 5.833333e-01	 9.250000e+00	 9.981989e+00
3	 5.833333e-01	 9.333333e+00	 9.985549e+00
3	 5.833333e-01	 9.416667e+00	 9.988739e+00
3	 5.833333e-01	 9.500000e+00	 9.991579e+00
3	 5.833333e-01	 9.583333e+00	 9.994090e+00
3	 6.666667e-01	 9.166667e+00	 9.978420e+00
3	 6.666667e-01	 9.250000e+00	 9.982305e+00
3	 6.666667e-01	 9.333333e+00	 9.985804e+00
3	 6.666667e-01	 9.416667e+00	 9.988938e+00
3	 6.666667e-01	 9.500000e+00	 9.991729e+00
3	 6.666667e-01	 9.583333e+00	 9.994197e+00
3	 7.500000e-01	 9.166667e+00	 9.978847e+00
3	 7.500000e-01	 9.250000e+00	 9.982656e+00
3	 7.500000e-01	 9.333333e+00	 9.986086e+00
3	 7.500000e-01	 9.416667e+00	 9.989159e+00
3	 7.500000e-01	 9.500000e+00	 9.991895e+00
3	 7.500000e-01	 9.583333e+00	 9.994314e+00
3	 8.333333e-01	 9.166667e+00	 9.979313e+00
3	 8.333333e-01	 9.250000e+00	 9.983038e+00
3	 8.333333e-01	 9.333333e+00	 9.986392e+00
3	 8.333333e-01	 9.416667e+00	 9.989397e+00
3	 8.333333e-01	 9.500000e+00	 9.992072e+00
3	 8.333333e-01	 9.583333e+00	 9.994436e+00
3	 4.166667e-01	 9.583333e+00	 9.993921e+00
3	 4.166667e-01	 9.666667e+00	 9.996084e+00
3	 4.166667e-01	 9.750000e+00	 9.997750e+00
3	 4.166667e-01	 9.833333e+00	 9.998950e+00
3	 4.166667e-01	 9.916667e+00	 9.999714e+00
3	 4.166667e-01	 1.000000e+01	 1.000007e+01
3	 5.000000e-01	 9.583333e+00	 9.993997e+00
3	 5.000000e-01	 9.666667e+00	 9.996132e+00
3	 5.000000e-01	 9.750000e+00	 9.997777e+00
3	 5.000000e-01	 9.833333e+00	 9.998962e+00
3	 5.000000e-01	 9.916667e+00	 9.999716e+00
3	 5.000000e-01	 1.000000e+01	 1.000007e+01
3	 5.833333e-01	 9.583333e+00	 9.994090e+00
3	 5.833333e-01	 9.666667e+00	 9.996193e+00
3	 5.833333e-01	 9.750000e+00	 9.997814e+00
3	 5.833333e-01	 9.833333e+00	 9.998981e+00
3	 5.833333e-01	 9.916667e+00	 9.999724e+00
3	 5.833333e-01	 1.000000e+01	 1.000007e+01
3	 6.666667e-01	 9.583333e+00	 9.994197e+00
3	 6.666667e-01	 9.666667e+00	 9.996264e+00
3	 6.666667e-01	 9.750000e+00	 9.997857e+00
3	 6.666667e-01	 9.833333e+00	 9.999003e+00
3	 6.666667e-01	 9.916667e+00	 9.999733e+00
3	 6.666667e-01	 1.000000e+01	 1.000007e+01
3	 7.500000e-01	 9.583333e+00	 9.994314e+00
3	 7.500000e-01	 9.666667e+00	 9.996340e+00
3	 7.500000e-01	 9.750000e+00	 9.997901e+00
3	 7.500000e-01	 9.833333e+00	 9.999025e+00
3	 7.500000e-01	 9.916667e+00	 9.999739e+00
3	 7.500000e-01	 1.000000e+01	 1.000007e+01
3	 8.333333e-01	 9.583333e+00	 9.994436e+00
3	 8.333333e-01	 9.666667e+00	 9.996417e+00
3	 8.333333e-01	 9.750000e+00	 9.997942e+00
3	 8.333333e-01	 9.833333e+00	 9.999041e+00
3	 8.333333e-01	 9.916667e+00	 9.999739e+00
3	 8.333333e-01	 1.000000e+01	 1.000006e+01
3	 8.333333e-01	 5.000000e+00	 9.381590e+00
3	 8.333333e-01	 5.083333e+00	 9.405674e+00
3	 8.333333e-01	 5.166667e+00	 9.428968e+00
3	 8.333333e-01	 5.250000e+00	 9.451472e+00
3	 8.333333e-01	 5.333333e+00	 9.473188e+00
3	 8.333333e-01	 5.416667e+00	 9.494115e+00
3	 9.166667e-01	 5.000000e+00	 9.407193e+00
3	 9.166667e-01	 5.083333e+00	 9.429720e+00
3	 9.166667e-01	 5.166667e+00	 9.451544e+00
3	 9.166667e-01	 5.250000e+00	 9.472670e+00
3	 9.166667e-01	 5.333333e+00	 9.493101e+00
3	 9.166667e-01	 5.416667e+00	 9.512844e+00
3	 1.000000e+00	 5.000000e+00	 9.434603e+00
3	 1.000000e+00	 5.083333e+00	 9.455478e+00
3	 1.000000e+00	 5.166667e+00	 9.475742e+00
3	 1.000000e+00	 5.250000e+00	 9.495404e+00
3	 1.000000e+00	 5.333333e+00	 9.514472e+00
3	 1.000000e+00	 5.416667e+00	 9.532954e+00
3	 1.083333e+00	 5.000000e+00	 9.463508e+00
3	 1.083333e+00	 5.083333e+00	 9.482662e+00
3	 1.083333e+00	 5.166667e+00	 9.501301e+00
3	 1.083333e+00	 5.250000e+00	 9.519435e+00
3	 1.083333e+00	 5.333333e+00	 9.537078e+00
3	 1.083333e+00	 5.416667e+00	 9.554240e+00
3	 1.166667e+00	 5.000000e+00	 9.493599e+00
3	 1.166667e+00	 5.083333e+00	 9.510987e+00
3	 1.166667e+00	 5.166667e+00	 9.527957e+00
3	 1.166667e+00	 5.250000e+00	 9.544521e+00
3	 1.166667e+00	 5.333333e+00	 9.560697e+00
3	 1.166667e+00	 5.416667e+00	 9.576498e+00
3	 1.250000e+00	 5.000000e+00	 9.524564e+00
3	 1.250000e+00	 5.083333e+00	 9.540168e+00
3	 1.250000e+00	 5.166667e+00	 9.555447e+00
3	 1.250000e+00	 5.250000e+00	 9.570421e+00
3	 1.250000e+00	 5.333333e+00	 9.585107e+00
3	 1.250000e+00	 5.416667e+00	 9.599522e+00
3	 8.333333e-01	 5.416667e+00	 9.494115e+00
3	 8.333333e-01	 5.500000e+00	 9.514329e+00
3	 8.333333e-01	 5.583333e+00	 9.533903e+00
3	 8.333333e-01	 5.666667e+00	 9.552837e+00
3	 8.333333e-01	 5.750000e+00	 9.571129e+00
3	 8.333333e-01	 5.833333e+00	 9.588780e+00
3	 9.166667e-01	 5.416667e+00	 9.512844e+00
3	 9.166667e-01	 5.500000e+00	 9.531953e+00
3	 9.166667e-01	 5.583333e+00	 9.550482e+00
3	 9.166667e-01	 5.666667e+00	 9.568433e+00
3	 9.166667e-01	 5.750000e+00	 9.585807e+00
3	 9.166667e-01	 5.833333e+00	 9.602606e+00
3	 1.000000e+00	 5.416667e+00	 9.532954e+00
3	 1.000000e+00	 5.500000e+00	 9.550886e+00
3	 1.000000e+00	 5.583333e+00	 9.568301e+00
3	 1.000000e+00	 5.666667e+00	 9.585203e+00
3	 1.000000e+00	 5.750000e+00	 9.601597e+00
3	 1.000000e+00	 5.833333e+00	 9.617487e+00
3	 1.083333e+00	 5.416667e+00	 9.554240e+00
3	 1.083333e+00	 5.500000e+00	 9.570938e+00
3	 1.083333e+00	 5.583333e+00	 9.587185e+00
3	 1.083333e+00	 5.666667e+00	 9.602988e+00
3	 1.083333e+00	 5.750000e+00	 9.618352e+00
3	 1.083333e+00	 5.833333e+00	 9.633284e+00
3	 1.166667e+00	 5.416667e+00	 9.576498e+00
3	 1.166667e+00	 5.500000e+00	 9.591922e+00
3	 1.166667e+00	 5.583333e+00	 9.606961e+00
3	 1.166667e+00	 5.666667e+00	 9.621625e+00
3	 1.166667e+00	 5.750000e+00	 9.635923e+00
3	 1.166667e+00	 5.833333e+00	 9.649862e+00
3	 1.250000e+00	 5.416667e+00	 9.599522e+00
3	 1.250000e+00	 5.500000e+00	 9.613647e+00
3	 1.250000e+00	 5.583333e+00	 9.627454e+00
3	 1.250000e+00	 5.666667e+00	 9.640955e+00
3	 1.250000e+00	 5.750000e+00	 9.654161e+00
3	 1.250000e+00	 5.833333e+00	 9.667082e+00
3	 8.333333e-01	 5.833333e+00	 9.588780e+00
3	 8.333333e-01	 5.916667e+00	 9.605851e+00
3	 8.333333e-01	 6.000000e+00	 9.622407e+00
3	 8.333333e-01	 6.083333e+00	 9.638447e+00
3	 8.333333e-01	 6.166667e+00	 9.653969e+00
3	 8.333333e-01	 6.250000e+00	 9.668973e+00
3	 9.166667e-01	 5.833333e+00	 9.602606e+00
3	 9.166667e-01	 5.916667e+00	 9.618880e+00
3	 9.166667e-01	 6.000000e+00	 9.634679e+00
3	 9.166667e-01	 6.083333e+00	 9.650004e+00
3	 9.166667e-01	 6.166667e+00	 9.664855e+00
3	 9.166667e-01	 6.250000e+00	 9.679233e+00
3	 1.000000e+00	 5.833333e+00	 9.617487e+00
3	 1.000000e+00	 5.916667e+00	 9.632908e+00
3	 1.000000e+00	 6.000000e+00	 9.647898e+00
3	 1.000000e+00	 6.083333e+00	 9.662457e+00
3	 1.000000e+00	 6.166667e+00	 9.676589e+00
3	 1.000000e+00	 6.250000e+00	 9.690296e+00
3	 1.083333e+00	 5.833333e+00	 9.633284e+00
3	 1.083333e+00	 5.916667e+00	 9.647808e+00
3	 1.083333e+00	 6.000000e+00	 9.661944e+00
3	 1.083333e+00	 6.083333e+00	 9.675697e+00
3	 1.083333e+00	 6.166667e+00	 9.689071e+00
3	 1.083333e+00	 6.250000e+00	 9.702068e+00
3	 1.166667e+00	 5.833333e+00	 9.649862e+00
3	 1.166667e+00	 5.916667e+00	 9.663452e+00
3	 1.166667e+00	 6.000000e+00	 9.676702e+00
3	 1.166667e+00	 6.083333e+00	 9.689615e+00
3	 1.166667e+00	 6.166667e+00	 9.702198e+00
3	 1.166667e+00	 6.250000e+00	 9.714455e+00
3	 1.250000e+00	 5.833333e+00	 9.667082e+00
3	 1.250000e+00	 5.916667e+00	 9.679714e+00
3	 1.250000e+00	 6.000000e+00	 9.692052e+00
3	 1.250000e+00	 6.083333e+00	 9.704101e+00
3	 1.250000e+00	 6.166667e+00	 9.715870e+00
3	 1.250000e+00	 6.250000e+00	 9.727364e+00
3	 8.333333e-01	 6.250000e+00	 9.668973e+00
3	 8.333333e-01	 6.333333e+00	 9.683507e+00
3	 8.333333e-01	 6.416667e+00	 9.697616e+00
3	 8.333333e-01	 6.500000e+00	 9.711302e+00
3	 8.333333e-01	 6.583333e+00	 9.724564e+00
3	 8.333333e-01	 6.666667e+00	 9.737402e+00
3	 9.166667e-01	 6.250000e+00	 9.679233e+00
3	 9.166667e-01	 6.333333e+00	 9.693177e+00
3	 9.166667e-01	 6.416667e+00	 9.706725e+00
3	 9.166667e-01	 6.500000e+00	 9.719879e+00
3	 9.166667e-01	 6.583333e+00	 9.732640e+00
3	 9.166667e-01	 6.666667e+00	 9.745008e+00
3	 1.000000e+00	 6.250000e+00	 9.690296e+00
3	 1.000000e+00	 6.333333e+00	 9.703607e+00
3	 1.000000e+00	 6.416667e+00	 9.716554e+00
3	 1.000000e+00	 6.500000e+00	 9.729137e+00
3	 1.000000e+00	 6.583333e+00	 9.741359e+00
3	 1.000000e+00	 6.666667e+00	 9.753221e+00
3	 1.083333e+00	 6.250000e+00	 9.702068e+00
3	 1.083333e+00	 6.333333e+00	 9.714711e+00
3	 1.083333e+00	 6.416667e+00	 9.727020e+00
3	 1.083333e+00	 6.500000e+00	 9.738999e+00
3	 1.083333e+00	 6.583333e+00	 9.750650e+00
3	 1.083333e+00	 6.666667e+00	 9.761977e+00
3	 1.166667e+00	 6.250000e+00	 9.714455e+00
3	 1.166667e+00	 6.333333e+00	 9.726400e+00
3	 1.166667e+00	 6.416667e+00	 9.738044e+00
3	 1.166667e+00	 6.500000e+00	 9.749391e+00
3	 1.166667e+00	 6.583333e+00	 9.760445e+00
3	 1.166667e+00	 6.666667e+00	 9.771211e+00
3	 1.250000e+00	 6.250000e+00	 9.727364e+00
3	 1.250000e+00	 6.333333e+00	 9.738588e+00
3	 1.250000e+00	 6.416667e+00	 9.749544e+00
3	 1.250000e+00	 6.500000e+00	 9.760238e+00
3	 1.250000e+00	 6.583333e+00	 9.770674e+00
3	 1.250000e+00	 6.666667e+00	 9.780857e+00
3	 8.333333e-01	 6.666667e+00	 9.737402e+00
3	 8.333333e-01	 6.750000e+00	 9.749850e+00
3	 8.333333e-01	 6.833333e+00	 9.761943e+00
3	 8.333333e-01	 6.916667e+00	 9.773681e+00
3	 8.333333e-01	 7.000000e+00	 9.785067e+00
3	 8.333333e-01	 7.083333e+00	 9.796100e+00
3	 9.166667e-01	 6.666667e+00	 9.745008e+00
3	 9.166667e-01	 6.750000e+00	 9.757011e+00
3	 9.166667e-01	 6.833333e+00	 9.768680e+00
3	 9.166667e-01	 6.916667e+00	 9.780015e+00
3	 9.166667e-01	 7.000000e+00	 9.791018e+00
3	 9.166667e-01	 7.083333e+00	 9.801691e+00
3	 1.000000e+00	 6.666667e+00	 9.753221e+00
3	 1.000000e+00	 6.750000e+00	 9.764747e+00
3	 1.000000e+00	 6.833333e+00	 9.775959e+00
3	 1.000000e+00	 6.916667e+00	 9.786859e+00
3	 1.000000e+00	 7.000000e+00	 9.797451e+00
3	 1.000000e+00	 7.083333e+00	 9.807736e+00
3	 1.083333e+00	 6.666667e+00	 9.761977e+00
3	 1.083333e+00	 6.750000e+00	 9.772996e+00
3	 1.083333e+00	 6.833333e+00	 9.783723e+00
3	 1.083333e+00	 6.916667e+00	 9.794162e+00
3	 1.083333e+00	 7.000000e+00	 9.804316e+00
3	 1.083333e+00	 7.083333e+00	 9.814189e+00
3	 1.166667e+00	 6.666667e+00	 9.771211e+00
3	 1.166667e+00	 6.750000e+00	 9.781698e+00
3	 1.166667e+00	 6.833333e+00	 9.791917e+00
3	 1.166667e+00	 6.916667e+00	 9.801872e+00
3	 1.166667e+00	 7.000000e+00	 9.811567e+00
3	 1.166667e+00	 7.083333e+00	 9.821005e+00
3	 1.250000e+00	 6.666667e+00	 9.780857e+00
3	 1.250000e+00	 6.750000e+00	 9.790792e+00
3	 1.250000e+00	 6.833333e+00	 9.800484e+00
3	 1.250000e+00	 6.916667e+00	 9.809936e+00
3	 1.250000e+00	 7.000000e+00	 9.819154e+00
3	 1.250000e+00	 7.083333e+00	 9.828140e+00
3	 8.333333e-01	 7.083333e+00	 9.796100e+00
3	 8.333333e-01	 7.166667e+00	 9.806803e+00
3	 8.333333e-01	 7.250000e+00	 9.817197e+00
3	 8.333333e-01	 7.333333e+00	 9.827286e+00
3	 8.333333e-01	 7.416667e+00	 9.837072e+00
3	 8.333333e-01	 7.500000e+00	 9.846557e+00
3	 9.166667e-01	 7.083333e+00	 9.801691e+00
3	 9.166667e-01	 7.166667e+00	 9.812052e+00
3	 9.166667e-01	 7.250000e+00	 9.822119e+00
3	 9.166667e-01	 7.333333e+00	 9.831896e+00
3	 9.166667e-01	 7.416667e+00	 9.841385e+00
3	 9.166667e-01	 7.500000e+00	 9.850589e+00
3	 1.000000e+00	 7.083333e+00	 9.807736e+00
3	 1.000000e+00	 7.166667e+00	 9.817728e+00
3	 1.000000e+00	 7.250000e+00	 9.827442e+00
3	 1.000000e+00	 7.333333e+00	 9.836882e+00
3	 1.000000e+00	 7.416667e+00	 9.846051e+00
3	 1.000000e+00	 7.500000e+00	 9.854953e+00
3	 1.083333e+00	 7.083333e+00	 9.814189e+00
3	 1.083333e+00	 7.166667e+00	 9.823789e+00
3	 1.083333e+00	 7.250000e+00	 9.833128e+00
3	 1.083333e+00	 7.333333e+00	 9.842210e+00
3	 1.083333e+00	 7.416667e+00	 9.851038e+00
3	 1.083333e+00	 7.500000e+00	 9.859616e+00
3	 1.166667e+00	 7.083333e+00	 9.821005e+00
3	 1.166667e+00	 7.166667e+00	 9.830193e+00
3	 1.166667e+00	 7.250000e+00	 9.839137e+00
3	 1.166667e+00	 7.333333e+00	 9.847842e+00
3	 1.166667e+00	 7.416667e+00	 9.856311e+00
3	 1.166667e+00	 7.500000e+00	 9.864549e+00
3	 1.250000e+00	 7.083333e+00	 9.828140e+00
3	 1.250000e+00	 7.166667e+00	 9.836899e+00
3	 1.250000e+00	 7.250000e+00	 9.845431e+00
3	 1.250000e+00	 7.333333e+00	 9.853742e+00
3	 1.250000e+00	 7.416667e+00	 9.861836e+00
3	 1.250000e+00	 7.500000e+00	 9.869718e+00
3	 8.333333e-01	 7.500000e+00	 9.846557e+00
3	 8.333333e-01	 7.583333e+00	 9.855752e+00
3	 8.333333e-01	 7.666667e+00	 9.864667e+00
3	 8.333333e-01	 7.750000e+00	 9.873306e+00
3	 8.333333e-01	 7.833333e+00	 9.881675e+00
3	 8.333333e-01	 7.916667e+00	 9.889777e+00
3	 9.166667e-01	 7.500000e+00	 9.850589e+00
3	 9.166667e-01	 7.583333e+00	 9.859517e+00
3	 9.166667e-01	 7.666667e+00	 9.868175e+00
3	 9.166667e-01	 7.750000e+00	 9.876569e+00
3	 9.166667e-01	 7.833333e+00	 9.884704e+00
3	 9.166667e-01	 7.916667e+00	 9.892585e+00
3	 1.000000e+00	 7.500000e+00	 9.854953e+00
3	 1.000000e+00	 7.583333e+00	 9.863592e+00
3	 1.000000e+00	 7.666667e+00	 9.871973e+00
3	 1.000000e+00	 7.750000e+00	 9.880103e+00
3	 1.000000e+00	 7.833333e+00	 9.887985e+00
3	 1.000000e+00	 7.916667e+00	 9.895626e+00
3	 1.083333e+00	 7.500000e+00	 9.859616e+00
3	 1.083333e+00	 7.583333e+00	 9.867947e+00
3	 1.083333e+00	 7.666667e+00	 9.876034e+00
3	 1.083333e+00	 7.750000e+00	 9.883881e+00
3	 1.083333e+00	 7.833333e+00	 9.891495e+00
3	 1.083333e+00	 7.916667e+00	 9.898880e+00
3	 1.166667e+00	 7.500000e+00	 9.864549e+00
3	 1.166667e+00	 7.583333e+00	 9.872555e+00
3	 1.166667e+00	 7.666667e+00	 9.880330e+00
3	 1.166667e+00	 7.750000e+00	 9.887880e+00
3	 1.166667e+00	 7.833333e+00	 9.895209e+00
3	 1.166667e+00	 7.916667e+00	 9.902324e+00
3	 1.250000e+00	 7.500000e+00	 9.869718e+00
3	 1.250000e+00	 7.583333e+00	 9.877385e+00
3	 1.250000e+00	 7.666667e+00	 9.884835e+00
3	 1.250000e+00	 7.750000e+00	 9.892073e+00
3	 1.250000e+00	 7.833333e+00	 9.899105e+00
3	 1.250000e+00	 7.916667e+00	 9.905936e+00
3	 8.333333e-01	 7.916667e+00	 9.889777e+00
3	 8.333333e-01	 8.000000e+00	 9.897610e+00
3	 8.333333e-01	 8.083333e+00	 9.905174e+00
3	 8.333333e-01	 8.166667e+00	 9.912475e+00
3	 8.333333e-01	 8.250000e+00	 9.919520e+00
3	 8.333333e-01	 8.333333e+00	 9.926317e+00
3	 9.166667e-01	 7.916667e+00	 9.892585e+00
3	 9.166667e-01	 8.000000e+00	 9.900207e+00
3	 9.166667e-01	 8.083333e+00	 9.907568e+00
3	 9.166667e-01	 8.166667e+00	 9.914675e+00
3	 9.166667e-01	 8.250000e+00	 9.921535e+00
3	 9.166667e-01	 8.333333e+00	 9.928156e+00
3	 1.000000e+00	 7.916667e+00	 9.895626e+00
3	 1.000000e+00	 8.000000e+00	 9.903020e+00
3	 1.000000e+00	 8.083333e+00	 9.910162e+00
3	 1.000000e+00	 8.166667e+00	 9.917060e+00
3	 1.000000e+00	 8.250000e+00	 9.923721e+00
3	 1.000000e+00	 8.333333e+00	 9.930152e+00
3	 1.083333e+00	 7.916667e+00	 9.898880e+00
3	 1.083333e+00	 8.000000e+00	 9.906029e+00
3	 1.083333e+00	 8.083333e+00	 9.912937e+00
3	 1.083333e+00	 8.166667e+00	 9.919612e+00
3	 1.083333e+00	 8.250000e+00	 9.926059e+00
3	 1.083333e+00	 8.333333e+00	 9.932287e+00
3	 1.166667e+00	 7.916667e+00	 9.902324e+00
3	 1.166667e+00	 8.000000e+00	 9.909215e+00
3	 1.166667e+00	 8.083333e+00	 9.915876e+00
3	 1.166667e+00	 8.166667e+00	 9.922314e+00
3	 1.166667e+00	 8.250000e+00	 9.928536e+00
3	 1.166667e+00	 8.333333e+00	 9.934549e+00
3	 1.250000e+00	 7.916667e+00	 9.905936e+00
3	 1.250000e+00	 8.000000e+00	 9.912557e+00
3	 1.250000e+00	 8.083333e+00	 9.918959e+00
3	 1.250000e+00	 8.166667e+00	 9.925148e+00
3	 1.250000e+00	 8.250000e+00	 9.931133e+00
3	 1.250000e+00	 8.333333e+00	 9.936921e+00
3	 8.333333e-01	 8.333333e+00	 9.926317e+00
3	 8.333333e-01	 8.416667e+00	 9.932848e+00
3	 8.333333e-01	 8.500000e+00	 9.939101e+00
3	 8.333333e-01	 8.583333e+00	 9.945084e+00
3	 8.333333e-01	 8.666667e+00	 9.950809e+00
3	 8.333333e-01	 8.750000e+00	 9.956285e+00
3	 9.166667e-01	 8.333333e+00	 9.928156e+00
3	 9.166667e-01	 8.416667e+00	 9.934521e+00
3	 9.166667e-01	 8.500000e+00	 9.940614e+00
3	 9.166667e-01	 8.583333e+00	 9.946446e+00
3	 9.166667e-01	 8.666667e+00	 9.952026e+00
3	 9.166667e-01	 8.750000e+00	 9.957366e+00
3	 1.000000e+00	 8.333333e+00	 9.930152e+00
3	 1.000000e+00	 8.416667e+00	 9.936335e+00
3	 1.000000e+00	 8.500000e+00	 9.942256e+00
3	 1.000000e+00	 8.583333e+00	 9.947924e+00
3	 1.000000e+00	 8.666667e+00	 9.953348e+00
3	 1.000000e+00	 8.750000e+00	 9.958540e+00
3	 1.083333e+00	 8.333333e+00	 9.932287e+00
3	 1.083333e+00	 8.416667e+00	 9.938278e+00
3	 1.083333e+00	 8.500000e+00	 9.944014e+00
3	 1.083333e+00	 8.583333e+00	 9.949507e+00
3	 1.083333e+00	 8.666667e+00	 9.954765e+00
3	 1.083333e+00	 8.750000e+00	 9.959798e+00
3	 1.166667e+00	 8.333333e+00	 9.934549e+00
3	 1.166667e+00	 8.416667e+00	 9.940335e+00
3	 1.166667e+00	 8.500000e+00	 9.945876e+00
3	 1.166667e+00	 8.583333e+00	 9.951182e+00
3	 1.166667e+00	 8.666667e+00	 9.956264e+00
3	 1.166667e+00	 8.750000e+00	 9.961130e+00
3	 1.250000e+00	 8.333333e+00	 9.936921e+00
3	 1.250000e+00	 8.416667e+00	 9.942492e+00
3	 1.250000e+00	 8.500000e+00	 9.947828e+00
3	 1.250000e+00	 8.583333e+00	 9.952939e+00
3	 1.250000e+00	 8.666667e+00	 9.957834e+00
3	 1.250000e+00	 8.750000e+00	 9.962524e+00
3	 8.333333e-01	 8.750000e+00	 9.956285e+00
3	 8.333333e-01	 8.833333e+00	 9.961481e+00
3	 8.333333e-01	 8.916667e+00	 9.966367e+00
3	 8.333333e-01	 9.000000e+00	 9.970958e+00
3	 8.333333e-01	 9.083333e+00	 9.975269e+00
3	 8.333333e-01	 9.166667e+00	 9.979313e+00
3	 9.166667e-01	 8.750000e+00	 9.957366e+00
3	 9.166667e-01	 8.833333e+00	 9.962432e+00
3	 9.166667e-01	 8.916667e+00	 9.967197e+00
3	 9.166667e-01	 9.000000e+00	 9.971675e+00
3	 9.166667e-01	 9.083333e+00	 9.975879e+00
3	 9.166667e-01	 9.166667e+00	 9.979823e+00
3	 1.000000e+00	 8.750000e+00	 9.958540e+00
3	 1.000000e+00	 8.833333e+00	 9.963467e+00
3	 1.000000e+00	 8.916667e+00	 9.968101e+00
3	 1.000000e+00	 9.000000e+00	 9.972456e+00
3	 1.000000e+00	 9.083333e+00	 9.976545e+00
3	 1.000000e+00	 9.166667e+00	 9.980382e+00
3	 1.083333e+00	 8.750000e+00	 9.959798e+00
3	 1.083333e+00	 8.833333e+00	 9.964576e+00
3	 1.083333e+00	 8.916667e+00	 9.969070e+00
3	 1.083333e+00	 9.000000e+00	 9.973293e+00
3	 1.083333e+00	 9.083333e+00	 9.977259e+00
3	 1.083333e+00	 9.166667e+00	 9.980980e+00
3	 1.166667e+00	 8.750000e+00	 9.961130e+00
3	 1.166667e+00	 8.833333e+00	 9.965750e+00
3	 1.166667e+00	 8.916667e+00	 9.970095e+00
3	 1.166667e+00	 9.000000e+00	 9.974178e+00
3	 1.166667e+00	 9.083333e+00	 9.978013e+00
3	 1.166667e+00	 9.166667e+00	 9.981612e+00
3	 1.250000e+00	 8.750000e+00	 9.962524e+00
3	 1.250000e+00	 8.833333e+00	 9.966978e+00
3	 1.250000e+00	 8.916667e+00	 9.971166e+00
3	 1.250000e+00	 9.000000e+00	 9.975103e+00
3	 1.250000e+00	 9.083333e+00	 9.978800e+00
3	 1.250000e+00	 9.166667e+00	 9.982270e+00
3	 8.333333e-01	 9.166667e+00	 9.979313e+00
3	 8.333333e-01	 9.250000e+00	 9.983038e+00
3	 8.333333e-01	 9.333333e+00	 9.986392e+00
3	 8.333333e-01	 9.416667e+00	 9.989397e+00
3	 8.333333e-01	 9.500000e+00	 9.992072e+00
3	 8.333333e-01	 9.583333e+00	 9.994436e+00
3	 9.166667e-01	 9.166667e+00	 9.979823e+00
3	 9.166667e-01	 9.250000e+00	 9.983456e+00
3	 9.166667e-01	 9.333333e+00	 9.986728e+00
3	 9.166667e-01	 9.416667e+00	 9.989658e+00
3	 9.166667e-01	 9.500000e+00	 9.992266e+00
3	 9.166667e-01	 9.583333e+00	 9.994572e+00
3	 1.000000e+00	 9.166667e+00	 9.980382e+00
3	 1.000000e+00	 9.250000e+00	 9.983915e+00
3	 1.000000e+00	 9.333333e+00	 9.987098e+00
3	 1.000000e+00	 9.416667e+00	 9.989948e+00
3	 1.000000e+00	 9.500000e+00	 9.992484e+00
3	 1.000000e+00	 9.583333e+00	 9.994726e+00
3	 1.083333e+00	 9.166667e+00	 9.980980e+00
3	 1.083333e+00	 9.250000e+00	 9.984408e+00
3	 1.083333e+00	 9.333333e+00	 9.987495e+00
3	 1.083333e+00	 9.416667e+00	 9.990259e+00
3	 1.083333e+00	 9.500000e+00	 9.992719e+00
3	 1.083333e+00	 9.583333e+00	 9.994893e+00
3	 1.166667e+00	 9.166667e+00	 9.981612e+00
3	 1.166667e+00	 9.250000e+00	 9.984928e+00
3	 1.166667e+00	 9.333333e+00	 9.987913e+00
3	 1.166667e+00	 9.416667e+00	 9.990586e+00
3	 1.166667e+00	 9.500000e+00	 9.992965e+00
3	 1.166667e+00	 9.583333e+00	 9.995067e+00
3	 1.250000e+00	 9.166667e+00	 9.982270e+00
3	 1.250000e+00	 9.250000e+00	 9.985467e+00
3	 1.250000e+00	 9.333333e+00	 9.988345e+00
3	 1.250000e+00	 9.416667e+00	 9.990922e+00
3	 1.250000e+00	 9.500000e+00	 9.993215e+00
3	 1.250000e+00	 9.583333e+00	 9.995240e+00
3	 8.333333e-01	 9.583333e+00	 9.994436e+00
3	 8.333333e-01	 9.666667e+00	 9.996417e+00
3	 8.333333e-01	 9.750000e+00	 9.997942e+00
3	 8.333333e-01	 9.833333e+00	 9.999041e+00
3	 8.333333e-01	 9.916667e+00	 9.999739e+00
3	 8.333333e-01	 1.000000e+01	 1.000006e+01
3	 9.166667e-01	 9.583333e+00	 9.994572e+00
3	 9.166667e-01	 9.666667e+00	 9.996502e+00
3	 9.166667e-01	 9.750000e+00	 9.997990e+00
3	 9.166667e-01	 9.833333e+00	 9.999060e+00
3	 9.166667e-01	 9.916667e+00	 9.999740e+00
3	 9.166667e-01	 1.000000e+01	 1.000006e+01
3	 1.000000e+00	 9.583333e+00	 9.994726e+00
3	 1.000000e+00	 9.666667e+00	 9.996604e+00
3	 1.000000e+00	 9.750000e+00	 9.998050e+00
3	 1.000000e+00	 9.833333e+00	 9.999091e+00
3	 1.000000e+00	 9.916667e+00	 9.999752e+00
3	 1.000000e+00	 1.000000e+01	 1.000006e+01
3	 1.083333e+00	 9.583333e+00	 9.994893e+00
3	 1.083333e+00	 9.666667e+00	 9.996714e+00
3	 1.083333e+00	 9.750000e+00	 9.998116e+00
3	 1.083333e+00	 9.833333e+00	 9.999126e+00
3	 1.083333e+00	 9.916667e+00	 9.999767e+00
3	 1.083333e+00	 1.000000e+01	 1.000006e+01
3	 1.166667e+00	 9.583333e+00	 9.995067e+00
3	 1.166667e+00	 9.666667e+00	 9.996827e+00
3	 1.166667e+00	 9.750000e+00	 9.998183e+00
3	 1.166667e+00	 9.833333e+00	 9.999159e+00
3	 1.166667e+00	 9.916667e+00	 9.999778e+00
3	 1.166667e+00	 1.000000e+01	 1.000006e+01
3	 1.250000e+00	 9.583333e+00	 9.995240e+00
3	 1.250000e+00	 9.666667e+00	 9.996936e+00
3	 1.250000e+00	 9.750000e+00	 9.998242e+00
3	 1.250000e+00	 9.833333e+00	 9.999182e+00
3	 1.250000e+00	 9.916667e+00	 9.999778e+00
3	 1.250000e+00	 1.000000e+01	 1.000005e+01
3	 1.250000e+00	 5.000000e+00	 9.524564e+00
3	 1.250000e+00	 5.083333e+00	 9.540168e+00
3	 1.250000e+00	 5.166667e+00	 9.555447e+00
3	 1.250000e+00	 5.250000e+00	 9.570421e+00
3	 1.250000e+00	 5.333333e+00	 9.585107e+00
3	 1.250000e+00	 5.416667e+00	 9.599522e+00
3	 1.333333e+00	 5.000000e+00	 9.556369e+00
3	 1.333333e+00	 5.083333e+00	 9.570173e+00
3	 1.333333e+00	 5.166667e+00	 9.583746e+00
3	 1.333333e+00	 5.250000e+00	 9.597111e+00
3	 1.333333e+00	 5.333333e+00	 9.610287e+00
3	 1.333333e+00	 5.416667e+00	 9.623296e+00
3	 1.416667e+00	 5.000000e+00	 9.588994e+00
3	 1.416667e+00	 5.083333e+00	 9.600983e+00
3	 1.416667e+00	 5.166667e+00	 9.612834e+00
3	 1.416667e+00	 5.250000e+00	 9.624573e+00
3	 1.416667e+00	 5.333333e+00	 9.636220e+00
3	 1.416667e+00	 5.416667e+00	 9.647801e+00
3	 1.500000e+00	 5.000000e+00	 9.622149e+00
3	 1.500000e+00	 5.083333e+00	 9.632328e+00
3	 1.500000e+00	 5.166667e+00	 9.642461e+00
3	 1.500000e+00	 5.250000e+00	 9.652573e+00
3	 1.500000e+00	 5.333333e+00	 9.662690e+00
3	 1.500000e+00	 5.416667e+00	 9.672836e+00
3	 1.583333e+00	 5.000000e+00	 9.655547e+00
3	 1.583333e+00	 5.083333e+00	 9.663941e+00
3	 1.583333e+00	 5.166667e+00	 9.672376e+00
3	 1.583333e+00	 5.250000e+00	 9.680879e+00
3	 1.583333e+00	 5.333333e+00	 9.689477e+00
3	 1.583333e+00	 5.416667e+00	 9.698198e+00
3	 1.666667e+00	 5.000000e+00	 9.688898e+00
3	 1.666667e+00	 5.083333e+00	 9.695551e+00
3	 1.666667e+00	 5.166667e+00	 9.702328e+00
3	 1.666667e+00	 5.250000e+00	 9.709256e+00
3	 1.666667e+00	 5.333333e+00	 9.716365e+00
3	 1.666667e+00	 5.416667e+00	 9.723683e+00
3	 1.250000e+00	 5.416667e+00	 9.599522e+00
3	 1.250000e+00	 5.500000e+00	 9.613647e+00
3	 1.250000e+00	 5.583333e+00	 9.627454e+00
3	 1.250000e+00	 5.666667e+00	 9.640955e+00
3	 1.250000e+00	 5.750000e+00	 9.654161e+00
3	 1.250000e+00	 5.833333e+00	 9.667082e+00
3	 1.333333e+00	 5.416667e+00	 9.623296e+00
3	 1.333333e+00	 5.500000e+00	 9.636098e+00
3	 1.333333e+00	 5.583333e+00	 9.648651e+00
3	 1.333333e+00	 5.666667e+00	 9.660965e+00
3	 1.333333e+00	 5.750000e+00	 9.673056e+00
3	 1.333333e+00	 5.833333e+00	 9.684934e+00
3	 1.416667e+00	 5.416667e+00	 9.647801e+00
3	 1.416667e+00	 5.500000e+00	 9.659260e+00
3	 1.416667e+00	 5.583333e+00	 9.670535e+00
3	 1.416667e+00	 5.666667e+00	 9.681641e+00
3	 1.416667e+00	 5.750000e+00	 9.692593e+00
3	 1.416667e+00	 5.833333e+00	 9.703406e+00
3	 1.500000e+00	 5.416667e+00	 9.672836e+00
3	 1.500000e+00	 5.500000e+00	 9.682942e+00
3	 1.500000e+00	 5.583333e+00	 9.692931e+00
3	 1.500000e+00	 5.666667e+00	 9.702818e+00
3	 1.500000e+00	 5.750000e+00	 9.712621e+00
3	 1.500000e+00	 5.833333e+00	 9.722356e+00
3	 1.583333e+00	 5.416667e+00	 9.698198e+00
3	 1.583333e+00	 5.500000e+00	 9.706957e+00
3	 1.583333e+00	 5.583333e+00	 9.715662e+00
3	 1.583333e+00	 5.666667e+00	 9.724332e+00
3	 1.583333e+00	 5.750000e+00	 9.732986e+00
3	 1.583333e+00	 5.833333e+00	 9.741640e+00
3	 1.666667e+00	 5.416667e+00	 9.723683e+00
3	 1.666667e+00	 5.500000e+00	 9.731114e+00
3	 1.666667e+00	 5.583333e+00	 9.738553e+00
3	 1.666667e+00	 5.666667e+00	 9.746020e+00
3	 1.666667e+00	 5.750000e+00	 9.753534e+00
3	 1.666667e+00	 5.833333e+00	 9.761115e+00
3	 1.250000e+00	 5.833333e+00	 9.667082e+00
3	 1.250000e+00	 5.916667e+00	 9.679714e+00
3	 1.250000e+00	 6.000000e+00	 9.692052e+00
3	 1.250000e+00	 6.083333e+00	 9.704101e+00
3	 1.250000e+00	 6.166667e+00	 9.715870e+00
3	 1.250000e+00	 6.250000e+00	 9.727364e+00
3	 1.333333e+00	 5.833333e+00	 9.684934e+00
3	 1.333333e+00	 5.916667e+00	 9.696584e+00
3	 1.333333e+00	 6.000000e+00	 9.707987e+00
3	 1.333333e+00	 6.083333e+00	 9.719150e+00
3	 1.333333e+00	 6.166667e+00	 9.730082e+00
3	 1.333333e+00	 6.250000e+00	 9.740790e+00
3	 1.416667e+00	 5.833333e+00	 9.703406e+00
3	 1.416667e+00	 5.916667e+00	 9.714052e+00
3	 1.416667e+00	 6.000000e+00	 9.724496e+00
3	 1.416667e+00	 6.083333e+00	 9.734750e+00
3	 1.416667e+00	 6.166667e+00	 9.744822e+00
3	 1.416667e+00	 6.250000e+00	 9.754723e+00
3	 1.500000e+00	 5.833333e+00	 9.722356e+00
3	 1.500000e+00	 5.916667e+00	 9.731982e+00
3	 1.500000e+00	 6.000000e+00	 9.741455e+00
3	 1.500000e+00	 6.083333e+00	 9.750785e+00
3	 1.500000e+00	 6.166667e+00	 9.759984e+00
3	 1.500000e+00	 6.250000e+00	 9.769063e+00
3	 1.583333e+00	 5.833333e+00	 9.741640e+00
3	 1.583333e+00	 5.916667e+00	 9.750243e+00
3	 1.583333e+00	 6.000000e+00	 9.758739e+00
3	 1.583333e+00	 6.083333e+00	 9.767140e+00
3	 1.583333e+00	 6.166667e+00	 9.775459e+00
3	 1.583333e+00	 6.250000e+00	 9.783707e+00
3	 1.666667e+00	 5.833333e+00	 9.761115e+00
3	 1.666667e+00	 5.916667e+00	 9.768700e+00
3	 1.666667e+00	 6.000000e+00	 9.776224e+00
3	 1.666667e+00	 6.083333e+00	 9.783699e+00
3	 1.666667e+00	 6.166667e+00	 9.791138e+00
3	 1.666667e+00	 6.250000e+00	 9.798555e+00
3	 1.250000e+00	 6.250000e+00	 9.727364e+00
3	 1.250000e+00	 6.333333e+00	 9.738588e+00
3	 1.250000e+00	 6.416667e+00	 9.749544e+00
3	 1.250000e+00	 6.500000e+00	 9.760238e+00
3	 1.250000e+00	 6.583333e+00	 9.770674e+00
3	 1.250000e+00	 6.666667e+00	 9.780857e+00
3	 1.333333e+00	 6.250000e+00	 9.740790e+00
3	 1.333333e+00	 6.333333e+00	 9.751271e+00
3	 1.333333e+00	 6.416667e+00	 9.761518e+00
3	 1.333333e+00	 6.500000e+00	 9.771537e+00
3	 1.333333e+00	 6.583333e+00	 9.781334e+00
3	 1.333333e+00	 6.666667e+00	 9.790915e+00
3	 1.416667e+00	 6.250000e+00	 9.754723e+00
3	 1.416667e+00	 6.333333e+00	 9.764439e+00
3	 1.416667e+00	 6.416667e+00	 9.773956e+00
3	 1.416667e+00	 6.500000e+00	 9.783280e+00
3	 1.416667e+00	 6.583333e+00	 9.792418e+00
3	 1.416667e+00	 6.666667e+00	 9.801377e+00
3	 1.500000e+00	 6.250000e+00	 9.769063e+00
3	 1.500000e+00	 6.333333e+00	 9.777999e+00
3	 1.500000e+00	 6.416667e+00	 9.786770e+00
3	 1.500000e+00	 6.500000e+00	 9.795384e+00
3	 1.500000e+00	 6.583333e+00	 9.803849e+00
3	 1.500000e+00	 6.666667e+00	 9.812172e+00
3	 1.583333e+00	 6.250000e+00	 9.783707e+00
3	 1.583333e+00	 6.333333e+00	 9.791855e+00
3	 1.583333e+00	 6.416667e+00	 9.799873e+00
3	 1.583333e+00	 6.500000e+00	 9.807768e+00
3	 1.583333e+00	 6.583333e+00	 9.815550e+00
3	 1.583333e+00	 6.666667e+00	 9.823227e+00
3	 1.666667e+00	 6.250000e+00	 9.798555e+00
3	 1.666667e+00	 6.333333e+00	 9.805914e+00
3	 1.666667e+00	 6.416667e+00	 9.813175e+00
3	 1.666667e+00	 6.500000e+00	 9.820349e+00
3	 1.666667e+00	 6.583333e+00	 9.827445e+00
3	 1.666667e+00	 6.666667e+00	 9.834471e+00
3	 1.250000e+00	 6.666667e+00	 9.780857e+00
3	 1.250000e+00	 6.750000e+00	 9.790792e+00
3	 1.250000e+00	 6.833333e+00	 9.800484e+00
3	 1.250000e+00	 6.916667e+00	 9.809936e+00
3	 1.250000e+00	 7.000000e+00	 9.819154e+00
3	 1.250000e+00	 7.083333e+00	 9.828140e+00
3	 1.333333e+00	 6.666667e+00	 9.790915e+00
3	 1.333333e+00	 6.750000e+00	 9.800279e+00
3	 1.333333e+00	 6.833333e+00	 9.809424e+00
3	 1.333333e+00	 6.916667e+00	 9.818354e+00
3	 1.333333e+00	 7.000000e+00	 9.827076e+00
3	 1.333333e+00	 7.083333e+00	 9.835594e+00
3	 1.416667e+00	 6.666667e+00	 9.801377e+00
3	 1.416667e+00	 6.750000e+00	 9.810151e+00
3	 1.416667e+00	 6.833333e+00	 9.818730e+00
3	 1.416667e+00	 6.916667e+00	 9.827121e+00
3	 1.416667e+00	 7.000000e+00	 9.835329e+00
3	 1.416667e+00	 7.083333e+00	 9.843361e+00
3	 1.500000e+00	 6.666667e+00	 9.812172e+00
3	 1.500000e+00	 6.750000e+00	 9.820340e+00
3	 1.500000e+00	 6.833333e+00	 9.828340e+00
3	 1.500000e+00	 6.916667e+00	 9.836178e+00
3	 1.500000e+00	 7.000000e+00	 9.843859e+00
3	 1.500000e+00	 7.083333e+00	 9.851391e+00
3	 1.583333e+00	 6.666667e+00	 9.823227e+00
3	 1.583333e+00	 6.750000e+00	 9.830781e+00
3	 1.583333e+00	 6.833333e+00	 9.838191e+00
3	 1.583333e+00	 6.916667e+00	 9.845466e+00
3	 1.583333e+00	 7.000000e+00	 9.852611e+00
3	 1.583333e+00	 7.083333e+00	 9.859633e+00
3	 1.666667e+00	 6.666667e+00	 9.834471e+00
3	 1.666667e+00	 6.750000e+00	 9.841405e+00
3	 1.666667e+00	 6.833333e+00	 9.848221e+00
3	 1.666667e+00	 6.916667e+00	 9.854926e+00
3	 1.666667e+00	 7.000000e+00	 9.861529e+00
3	 1.666667e+00	 7.083333e+00	 9.868035e+00
3	 1.250000e+00	 7.083333e+00	 9.828140e+00
3	 1.250000e+00	 7.166667e+00	 9.836899e+00
3	 1.250000e+00	 7.250000e+00	 9.845431e+00
3	 1.250000e+00	 7.333333e+00	 9.853742e+00
3	 1.250000e+00	 7.416667e+00	 9.861836e+00
3	 1.250000e+00	 7.500000e+00	 9.869718e+00
3	 1.333333e+00	 7.083333e+00	 9.835594e+00
3	 1.333333e+00	 7.166667e+00	 9.843905e+00
3	 1.333333e+00	 7.250000e+00	 9.852010e+00
3	 1.333333e+00	 7.333333e+00	 9.859911e+00
3	 1.333333e+00	 7.416667e+00	 9.867615e+00
3	 1.333333e+00	 7.500000e+00	 9.875126e+00
3	 1.416667e+00	 7.083333e+00	 9.843361e+00
3	 1.416667e+00	 7.166667e+00	 9.851210e+00
3	 1.416667e+00	 7.250000e+00	 9.858870e+00
3	 1.416667e+00	 7.333333e+00	 9.866346e+00
3	 1.416667e+00	 7.416667e+00	 9.873645e+00
3	 1.416667e+00	 7.500000e+00	 9.880771e+00
3	 1.500000e+00	 7.083333e+00	 9.851391e+00
3	 1.500000e+00	 7.166667e+00	 9.858764e+00
3	 1.500000e+00	 7.250000e+00	 9.865966e+00
3	 1.500000e+00	 7.333333e+00	 9.873005e+00
3	 1.500000e+00	 7.416667e+00	 9.879886e+00
3	 1.500000e+00	 7.500000e+00	 9.886615e+00
3	 1.583333e+00	 7.083333e+00	 9.859633e+00
3	 1.583333e+00	 7.166667e+00	 9.866519e+00
3	 1.583333e+00	 7.250000e+00	 9.873255e+00
3	 1.583333e+00	 7.333333e+00	 9.879847e+00
3	 1.583333e+00	 7.416667e+00	 9.886301e+00
3	 1.583333e+00	 7.500000e+00	 9.892623e+00
3	 1.666667e+00	 7.083333e+00	 9.868035e+00
3	 1.666667e+00	 7.166667e+00	 9.874429e+00
3	 1.666667e+00	 7.250000e+00	 9.880691e+00
3	 1.666667e+00	 7.333333e+00	 9.886830e+00
3	 1.666667e+00	 7.416667e+00	 9.892850e+00
3	 1.666667e+00	 7.500000e+00	 9.898759e+00
3	 1.250000e+00	 7.500000e+00	 9.869718e+00
3	 1.250000e+00	 7.583333e+00	 9.877385e+00
3	 1.250000e+00	 7.666667e+00	 9.884835e+00
3	 1.250000e+00	 7.750000e+00	 9.892073e+00
3	 1.250000e+00	 7.833333e+00	 9.899105e+00
3	 1.250000e+00	 7.916667e+00	 9.905936e+00
3	 1.333333e+00	 7.500000e+00	 9.875126e+00
3	 1.333333e+00	 7.583333e+00	 9.882440e+00
3	 1.333333e+00	 7.666667e+00	 9.889550e+00
3	 1.333333e+00	 7.750000e+00	 9.896462e+00
3	 1.333333e+00	 7.833333e+00	 9.903184e+00
3	 1.333333e+00	 7.916667e+00	 9.909719e+00
3	 1.416667e+00	 7.500000e+00	 9.880771e+00
3	 1.416667e+00	 7.583333e+00	 9.887716e+00
3	 1.416667e+00	 7.666667e+00	 9.894473e+00
3	 1.416667e+00	 7.750000e+00	 9.901048e+00
3	 1.416667e+00	 7.833333e+00	 9.907445e+00
3	 1.416667e+00	 7.916667e+00	 9.913673e+00
3	 1.500000e+00	 7.500000e+00	 9.886615e+00
3	 1.500000e+00	 7.583333e+00	 9.893181e+00
3	 1.500000e+00	 7.666667e+00	 9.899574e+00
3	 1.500000e+00	 7.750000e+00	 9.905799e+00
3	 1.500000e+00	 7.833333e+00	 9.911862e+00
3	 1.500000e+00	 7.916667e+00	 9.917771e+00
3	 1.583333e+00	 7.500000e+00	 9.892623e+00
3	 1.583333e+00	 7.583333e+00	 9.898801e+00
3	 1.583333e+00	 7.666667e+00	 9.904819e+00
3	 1.583333e+00	 7.750000e+00	 9.910686e+00
3	 1.583333e+00	 7.833333e+00	 9.916407e+00
3	 1.583333e+00	 7.916667e+00	 9.921989e+00
3	 1.666667e+00	 7.500000e+00	 9.898759e+00
3	 1.666667e+00	 7.583333e+00	 9.904540e+00
3	 1.666667e+00	 7.666667e+00	 9.910179e+00
3	 1.666667e+00	 7.750000e+00	 9.915681e+00
3	 1.666667e+00	 7.833333e+00	 9.921052e+00
3	 1.666667e+00	 7.916667e+00	 9.926301e+00
3	 1.250000e+00	 7.916667e+00	 9.905936e+00
3	 1.250000e+00	 8.000000e+00	 9.912557e+00
3	 1.250000e+00	 8.083333e+00	 9.918959e+00
3	 1.250000e+00	 8.166667e+00	 9.925148e+00
3	 1.250000e+00	 8.250000e+00	 9.931133e+00
3	 1.250000e+00	 8.333333e+00	 9.936921e+00
3	 1.333333e+00	 7.916667e+00	 9.909719e+00
3	 1.333333e+00	 8.000000e+00	 9.916057e+00
3	 1.333333e+00	 8.083333e+00	 9.922188e+00
3	 1.333333e+00	 8.166667e+00	 9.928118e+00
3	 1.333333e+00	 8.250000e+00	 9.933856e+00
3	 1.333333e+00	 8.333333e+00	 9.939407e+00
3	 1.416667e+00	 7.916667e+00	 9.913673e+00
3	 1.416667e+00	 8.000000e+00	 9.919717e+00
3	 1.416667e+00	 8.083333e+00	 9.925565e+00
3	 1.416667e+00	 8.166667e+00	 9.931225e+00
3	 1.416667e+00	 8.250000e+00	 9.936704e+00
3	 1.416667e+00	 8.333333e+00	 9.942009e+00
3	 1.500000e+00	 7.916667e+00	 9.917771e+00
3	 1.500000e+00	 8.000000e+00	 9.923511e+00
3	 1.500000e+00	 8.083333e+00	 9.929067e+00
3	 1.500000e+00	 8.166667e+00	 9.934447e+00
3	 1.500000e+00	 8.250000e+00	 9.939659e+00
3	 1.500000e+00	 8.333333e+00	 9.944709e+00
3	 1.583333e+00	 7.916667e+00	 9.921989e+00
3	 1.583333e+00	 8.000000e+00	 9.927416e+00
3	 1.583333e+00	 8.083333e+00	 9.932672e+00
3	 1.583333e+00	 8.166667e+00	 9.937764e+00
3	 1.583333e+00	 8.250000e+00	 9.942701e+00
3	 1.583333e+00	 8.333333e+00	 9.947489e+00
3	 1.666667e+00	 7.916667e+00	 9.926301e+00
3	 1.666667e+00	 8.000000e+00	 9.931408e+00
3	 1.666667e+00	 8.083333e+00	 9.936357e+00
3	 1.666667e+00	 8.166667e+00	 9.941156e+00
3	 1.666667e+00	 8.250000e+00	 9.945812e+00
3	 1.666667e+00	 8.333333e+00	 9.950331e+00
3	 1.250000e+00	 8.333333e+00	 9.936921e+00
3	 1.250000e+00	 8.416667e+00	 9.942492e+00
3	 1.250000e+00	 8.500000e+00	 9.947828e+00
3	 1.250000e+00	 8.583333e+00	 9.952939e+00
3	 1.250000e+00	 8.666667e+00	 9.957834e+00
3	 1.250000e+00	 8.750000e+00	 9.962524e+00
3	 1.333333e+00	 8.333333e+00	 9.939407e+00
3	 1.333333e+00	 8.416667e+00	 9.944753e+00
3	 1.333333e+00	 8.500000e+00	 9.949874e+00
3	 1.333333e+00	 8.583333e+00	 9.954781e+00
3	 1.333333e+00	 8.666667e+00	 9.959482e+00
3	 1.333333e+00	 8.750000e+00	 9.963987e+00
3	 1.416667e+00	 8.333333e+00	 9.942009e+00
3	 1.416667e+00	 8.416667e+00	 9.947120e+00
3	 1.416667e+00	 8.500000e+00	 9.952017e+00
3	 1.416667e+00	 8.583333e+00	 9.956711e+00
3	 1.416667e+00	 8.666667e+00	 9.961209e+00
3	 1.416667e+00	 8.750000e+00	 9.965521e+00
3	 1.500000e+00	 8.333333e+00	 9.944709e+00
3	 1.500000e+00	 8.416667e+00	 9.949576e+00
3	 1.500000e+00	 8.500000e+00	 9.954242e+00
3	 1.500000e+00	 8.583333e+00	 9.958714e+00
3	 1.500000e+00	 8.666667e+00	 9.963002e+00
3	 1.500000e+00	 8.750000e+00	 9.967115e+00
3	 1.583333e+00	 8.333333e+00	 9.947489e+00
3	 1.583333e+00	 8.416667e+00	 9.952106e+00
3	 1.583333e+00	 8.500000e+00	 9.956533e+00
3	 1.583333e+00	 8.583333e+00	 9.960777e+00
3	 1.583333e+00	 8.666667e+00	 9.964848e+00
3	 1.583333e+00	 8.750000e+00	 9.968755e+00
3	 1.666667e+00	 8.333333e+00	 9.950331e+00
3	 1.666667e+00	 8.416667e+00	 9.954692e+00
3	 1.666667e+00	 8.500000e+00	 9.958874e+00
3	 1.666667e+00	 8.583333e+00	 9.962885e+00
3	 1.666667e+00	 8.666667e+00	 9.966734e+00
3	 1.666667e+00	 8.750000e+00	 9.970430e+00
3	 1.250000e+00	 8.750000e+00	 9.962524e+00
3	 1.250000e+00	 8.833333e+00	 9.966978e+00
3	 1.250000e+00	 8.916667e+00	 9.971166e+00
3	 1.250000e+00	 9.000000e+00	 9.975103e+00
3	 1.250000e+00	 9.083333e+00	 9.978800e+00
3	 1.250000e+00	 9.166667e+00	 9.982270e+00
3	 1.333333e+00	 8.750000e+00	 9.963987e+00
3	 1.333333e+00	 8.833333e+00	 9.968266e+00
3	 1.333333e+00	 8.916667e+00	 9.972291e+00
3	 1.333333e+00	 9.000000e+00	 9.976073e+00
3	 1.333333e+00	 9.083333e+00	 9.979626e+00
3	 1.333333e+00	 9.166667e+00	 9.982961e+00
3	 1.416667e+00	 8.750000e+00	 9.965521e+00
3	 1.416667e+00	 8.833333e+00	 9.969618e+00
3	 1.416667e+00	 8.916667e+00	 9.973472e+00
3	 1.416667e+00	 9.000000e+00	 9.977094e+00
3	 1.416667e+00	 9.083333e+00	 9.980496e+00
3	 1.416667e+00	 9.166667e+00	 9.983690e+00
3	 1.500000e+00	 8.750000e+00	 9.967115e+00
3	 1.500000e+00	 8.833333e+00	 9.971023e+00
3	 1.500000e+00	 8.916667e+00	 9.974700e+00
3	 1.500000e+00	 9.000000e+00	 9.978155e+00
3	 1.500000e+00	 9.083333e+00	 9.981401e+00
3	 1.500000e+00	 9.166667e+00	 9.984449e+00
3	 1.583333e+00	 8.750000e+00	 9.968755e+00
3	 1.583333e+00	 8.833333e+00	 9.972469e+00
3	 1.583333e+00	 8.916667e+00	 9.975962e+00
3	 1.583333e+00	 9.000000e+00	 9.979246e+00
3	 1.583333e+00	 9.083333e+00	 9.982331e+00
3	 1.583333e+00	 9.166667e+00	 9.985229e+00
3	 1.666667e+00	 8.750000e+00	 9.970430e+00
3	 1.666667e+00	 8.833333e+00	 9.973944e+00
3	 1.666667e+00	 8.916667e+00	 9.977250e+00
3	 1.666667e+00	 9.000000e+00	 9.980357e+00
3	 1.666667e+00	 9.083333e+00	 9.983277e+00
3	 1.666667e+00	 9.166667e+00	 9.986019e+00
3	 1.250000e+00	 9.166667e+00	 9.982270e+00
3	 1.250000e+00	 9.250000e+00	 9.985467e+00
3	 1.250000e+00	 9.333333e+00	 9.988345e+00
3	 1.250000e+00	 9.416667e+00	 9.990922e+00
3	 1.250000e+00	 9.500000e+00	 9.993215e+00
3	 1.250000e+00	 9.583333e+00	 9.995240e+00
3	 1.333333e+00	 9.166667e+00	 9.982961e+00
3	 1.333333e+00	 9.250000e+00	 9.986033e+00
3	 1.333333e+00	 9.333333e+00	 9.988799e+00
3	 1.333333e+00	 9.416667e+00	 9.991275e+00
3	 1.333333e+00	 9.500000e+00	 9.993478e+00
3	 1.333333e+00	 9.583333e+00	 9.995423e+00
3	 1.416667e+00	 9.166667e+00	 9.983690e+00
3	 1.416667e+00	 9.250000e+00	 9.986633e+00
3	 1.416667e+00	 9.333333e+00	 9.989282e+00
3	 1.416667e+00	 9.416667e+00	 9.991653e+00
3	 1.416667e+00	 9.500000e+00	 9.993762e+00
3	 1.416667e+00	 9.583333e+00	 9.995624e+00
3	 1.500000e+00	 9.166667e+00	 9.984449e+00
3	 1.500000e+00	 9.250000e+00	 9.987257e+00
3	 1.500000e+00	 9.333333e+00	 9.989785e+00
3	 1.500000e+00	 9.416667e+00	 9.992048e+00
3	 1.500000e+00	 9.500000e+00	 9.994060e+00
3	 1.500000e+00	 9.583333e+00	 9.995836e+00
3	 1.583333e+00	 9.166667e+00	 9.985229e+00
3	 1.583333e+00	 9.250000e+00	 9.987898e+00
3	 1.583333e+00	 9.333333e+00	 9.990301e+00
3	 1.583333e+00	 9.416667e+00	 9.992451e+00
3	 1.583333e+00	 9.500000e+00	 9.994363e+00
3	 1.583333e+00	 9.583333e+00	 9.996050e+00
3	 1.666667e+00	 9.166667e+00	 9.986019e+00
3	 1.666667e+00	 9.250000e+00	 9.988546e+00
3	 1.666667e+00	 9.333333e+00	 9.990820e+00
3	 1.666667e+00	 9.416667e+00	 9.992855e+00
3	 1.666667e+00	 9.500000e+00	 9.994663e+00
3	 1.666667e+00	 9.583333e+00	 9.996258e+00
3	 1.250000e+00	 9.583333e+00	 9.995240e+00
3	 1.250000e+00	 9.666667e+00	 9.996936e+00
3	 1.250000e+00	 9.750000e+00	 9.998242e+00
3	 1.250000e+00	 9.833333e+00	 9.999182e+00
3	 1.250000e+00	 9.916667e+00	 9.999778e+00
3	 1.250000e+00	 1.000000e+01	 1.000005e+01
3	 1.333333e+00	 9.583333e+00	 9.995423e+00
3	 1.333333e+00	 9.666667e+00	 9.997051e+00
3	 1.333333e+00	 9.750000e+00	 9.998306e+00
3	 1.333333e+00	 9.833333e+00	 9.999208e+00
3	 1.333333e+00	 9.916667e+00	 9.999780e+00
3	 1.333333e+00	 1.000000e+01	 1.000004e+01
3	 1.416667e+00	 9.583333e+00	 9.995624e+00
3	 1.416667e+00	 9.666667e+00	 9.997183e+00
3	 1.416667e+00	 9.750000e+00	 9.998384e+00
3	 1.416667e+00	 9.833333e+00	 9.999248e+00
3	 1.416667e+00	 9.916667e+00	 9.999794e+00
3	 1.416667e+00	 1.000000e+01	 1.000004e+01
3	 1.500000e+00	 9.583333e+00	 9.995836e+00
3	 1.500000e+00	 9.666667e+00	 9.997322e+00
3	 1.500000e+00	 9.750000e+00	 9.998468e+00
3	 1.500000e+00	 9.833333e+00	 9.999292e+00
3	 1.500000e+00	 9.916667e+00	 9.999813e+00
3	 1.500000e+00	 1.000000e+01	 1.000005e+01
3	 1.583333e+00	 9.583333e+00	 9.996050e+00
3	 1.583333e+00	 9.666667e+00	 9.997462e+00
3	 1.583333e+00	 9.750000e+00	 9.998550e+00
3	 1.583333e+00	 9.833333e+00	 9.999333e+00
3	 1.583333e+00	 9.916667e+00	 9.999827e+00
3	 1.583333e+00	 1.000000e+01	 1.000005e+01
3	 1.666667e+00	 9.583333e+00	 9.996258e+00
3	 1.666667e+00	 9.666667e+00	 9.997593e+00
3	 1.666667e+00	 9.750000e+00	 9.998622e+00
3	 1.666667e+00	 9.833333e+00	 9.999361e+00
3	 1.666667e+00	 9.916667e+00	 9.999828e+00
3	 1.666667e+00	 1.000000e+01	 1.000004e+01
3	 1.666667e+00	 5.000000e+00	 9.688898e+00
3	 1.666667e+00	 5.083333e+00	 9.695551e+00
3	 1.666667e+00	 5.166667e+00	 9.702328e+00
3	 1.666667e+00	 5.250000e+00	 9.709256e+00
3	 1.666667e+00	 5.333333e+00	 9.716365e+00
3	 1.666667e+00	 5.416667e+00	 9.723683e+00
3	 1.750000e+00	 5.000000e+00	 9.722146e+00
3	 1.750000e+00	 5.083333e+00	 9.727109e+00
3	 1.750000e+00	 5.166667e+00	 9.732271e+00
3	 1.750000e+00	 5.250000e+00	 9.737664e+00
3	 1.750000e+00	 5.333333e+00	 9.743317e+00
3	 1.750000e+00	 5.416667e+00	 9.749259e+00
3	 1.833333e+00	 5.000000e+00	 9.755288e+00
3	 1.833333e+00	 5.083333e+00	 9.758608e+00
3	 1.833333e+00	 5.166667e+00	 9.762201e+00
3	 1.833333e+00	 5.250000e+00	 9.766096e+00
3	 1.833333e+00	 5.333333e+00	 9.770326e+00
3	 1.833333e+00	 5.416667e+00	 9.774920e+00
3	 1.916667e+00	 5.000000e+00	 9.788112e+00
3	 1.916667e+00	 5.083333e+00	 9.789850e+00
3	 1.916667e+00	 5.166667e+00	 9.791926e+00
3	 1.916667e+00	 5.250000e+00	 9.794374e+00
3	 1.916667e+00	 5.333333e+00	 9.797222e+00
3	 1.916667e+00	 5.416667e+00	 9.800503e+00
3	 2.000000e+00	 5.000000e+00	 9.820409e+00
3	 2.000000e+00	 5.083333e+00	 9.820634e+00
3	 2.000000e+00	 5.166667e+00	 9.821259e+00
3	 2.000000e+00	 5.250000e+00	 9.822316e+00
3	 2.000000e+00	 5.333333e+00	 9.823835e+00
3	 2.000000e+00	 5.416667e+00	 9.825847e+00
3	 2.083333e+00	 5.000000e+00	 9.851969e+00
3	 2.083333e+00	 5.083333e+00	 9.850761e+00
3	 2.083333e+00	 5.166667e+00	 9.850008e+00
3	 2.083333e+00	 5.250000e+00	 9.849742e+00
3	 2.083333e+00	 5.333333e+00	 9.849994e+00
3	 2.083333e+00	 5.416667e+00	 9.850792e+00
3	 1.666667e+00	 5.416667e+00	 9.723683e+00
3	 1.666667e+00	 5.500000e+00	 9.731114e+00
3	 1.666667e+00	 5.583333e+00	 9.738553e+00
3	 1.666667e+00	 5.666667e+00	 9.746020e+00
3	 1.666667e+00	 5.750000e+00	 9.753534e+00
3	 1.666667e+00	 5.833333e+00	 9.761115e+00
3	 1.750000e+00	 5.416667e+00	 9.749259e+00
3	 1.750000e+00	 5.500000e+00	 9.755384e+00
3	 1.750000e+00	 5.583333e+00	 9.761576e+00
3	 1.750000e+00	 5.666667e+00	 9.767856e+00
3	 1.750000e+00	 5.750000e+00	 9.774245e+00
3	 1.750000e+00	 5.833333e+00	 9.780762e+00
3	 1.833333e+00	 5.416667e+00	 9.774920e+00
3	 1.833333e+00	 5.500000e+00	 9.779761e+00
3	 1.833333e+00	 5.583333e+00	 9.784726e+00
3	 1.833333e+00	 5.666667e+00	 9.789835e+00
3	 1.833333e+00	 5.750000e+00	 9.795111e+00
3	 1.833333e+00	 5.833333e+00	 9.800574e+00
3	 1.916667e+00	 5.416667e+00	 9.800503e+00
3	 1.916667e+00	 5.500000e+00	 9.804091e+00
3	 1.916667e+00	 5.583333e+00	 9.807857e+00
3	 1.916667e+00	 5.666667e+00	 9.811820e+00
3	 1.916667e+00	 5.750000e+00	 9.816005e+00
3	 1.916667e+00	 5.833333e+00	 9.820431e+00
3	 2.000000e+00	 5.416667e+00	 9.825847e+00
3	 2.000000e+00	 5.500000e+00	 9.828223e+00
3	 2.000000e+00	 5.583333e+00	 9.830825e+00
3	 2.000000e+00	 5.666667e+00	 9.833675e+00
3	 2.000000e+00	 5.750000e+00	 9.836796e+00
3	 2.000000e+00	 5.833333e+00	 9.840210e+00
3	 2.083333e+00	 5.416667e+00	 9.850792e+00
3	 2.083333e+00	 5.500000e+00	 9.852003e+00
3	 2.083333e+00	 5.583333e+00	 9.853485e+00
3	 2.083333e+00	 5.666667e+00	 9.855262e+00
3	 2.083333e+00	 5.750000e+00	 9.857356e+00
3	 2.083333e+00	 5.833333e+00	 9.859788e+00
3	 1.666667e+00	 5.833333e+00	 9.761115e+00
3	 1.666667e+00	 5.916667e+00	 9.768700e+00
3	 1.666667e+00	 6.000000e+00	 9.776224e+00
3	 1.666667e+00	 6.083333e+00	 9.783699e+00
3	 1.666667e+00	 6.166667e+00	 9.791138e+00
3	 1.666667e+00	 6.250000e+00	 9.798555e+00
3	 1.750000e+00	 5.833333e+00	 9.780762e+00
3	 1.750000e+00	 5.916667e+00	 9.787336e+00
3	 1.750000e+00	 6.000000e+00	 9.793893e+00
3	 1.750000e+00	 6.083333e+00	 9.800446e+00
3	 1.750000e+00	 6.166667e+00	 9.807009e+00
3	 1.750000e+00	 6.250000e+00	 9.813596e+00
3	 1.833333e+00	 5.833333e+00	 9.800574e+00
3	 1.833333e+00	 5.916667e+00	 9.806146e+00
3	 1.833333e+00	 6.000000e+00	 9.811742e+00
3	 1.833333e+00	 6.083333e+00	 9.817377e+00
3	 1.833333e+00	 6.166667e+00	 9.823066e+00
3	 1.833333e+00	 6.250000e+00	 9.828824e+00
3	 1.916667e+00	 5.833333e+00	 9.820431e+00
3	 1.916667e+00	 5.916667e+00	 9.825013e+00
3	 1.916667e+00	 6.000000e+00	 9.829661e+00
3	 1.916667e+00	 6.083333e+00	 9.834389e+00
3	 1.916667e+00	 6.166667e+00	 9.839213e+00
3	 1.916667e+00	 6.250000e+00	 9.844149e+00
3	 2.000000e+00	 5.833333e+00	 9.840210e+00
3	 2.000000e+00	 5.916667e+00	 9.843824e+00
3	 2.000000e+00	 6.000000e+00	 9.847542e+00
3	 2.000000e+00	 6.083333e+00	 9.851380e+00
3	 2.000000e+00	 6.166667e+00	 9.855354e+00
3	 2.000000e+00	 6.250000e+00	 9.859479e+00
3	 2.083333e+00	 5.833333e+00	 9.859788e+00
3	 2.083333e+00	 5.916667e+00	 9.862462e+00
3	 2.083333e+00	 6.000000e+00	 9.865277e+00
3	 2.083333e+00	 6.083333e+00	 9.868248e+00
3	 2.083333e+00	 6.166667e+00	 9.871392e+00
3	 2.083333e+00	 6.250000e+00	 9.874724e+00
3	 1.666667e+00	 6.250000e+00	 9.798555e+00
3	 1.666667e+00	 6.333333e+00	 9.805914e+00
3	 1.666667e+00	 6.416667e+00	 9.813175e+00
3	 1.666667e+00	 6.500000e+00	 9.820349e+00
3	 1.666667e+00	 6.583333e+00	 9.827445e+00
3	 1.666667e+00	 6.666667e+00	 9.834471e+00
3	 1.750000e+00	 6.250000e+00	 9.813596e+00
3	 1.750000e+00	 6.333333e+00	 9.820164e+00
3	 1.750000e+00	 6.416667e+00	 9.826669e+00
3	 1.750000e+00	 6.500000e+00	 9.833119e+00
3	 1.750000e+00	 6.583333e+00	 9.839525e+00
3	 1.750000e+00	 6.666667e+00	 9.845897e+00
3	 1.833333e+00	 6.250000e+00	 9.828824e+00
3	 1.833333e+00	 6.333333e+00	 9.834602e+00
3	 1.833333e+00	 6.416667e+00	 9.840348e+00
3	 1.833333e+00	 6.500000e+00	 9.846073e+00
3	 1.833333e+00	 6.583333e+00	 9.851788e+00
3	 1.833333e+00	 6.666667e+00	 9.857502e+00
3	 1.916667e+00	 6.250000e+00	 9.844149e+00
3	 1.916667e+00	 6.333333e+00	 9.849142e+00
3	 1.916667e+00	 6.416667e+00	 9.854133e+00
3	 1.916667e+00	 6.500000e+00	 9.859136e+00
3	 1.916667e+00	 6.583333e+00	 9.864161e+00
3	 1.916667e+00	 6.666667e+00	 9.869219e+00
3	 2.000000e+00	 6.250000e+00	 9.859479e+00
3	 2.000000e+00	 6.333333e+00	 9.863697e+00
3	 2.000000e+00	 6.416667e+00	 9.867943e+00
3	 2.000000e+00	 6.500000e+00	 9.872232e+00
3	 2.000000e+00	 6.583333e+00	 9.876573e+00
3	 2.000000e+00	 6.666667e+00	 9.880979e+00
3	 2.083333e+00	 6.250000e+00	 9.874724e+00
3	 2.083333e+00	 6.333333e+00	 9.878182e+00
3	 2.083333e+00	 6.416667e+00	 9.881697e+00
3	 2.083333e+00	 6.500000e+00	 9.885284e+00
3	 2.083333e+00	 6.583333e+00	 9.888953e+00
3	 2.083333e+00	 6.666667e+00	 9.892716e+00
3	 1.666667e+00	 6.666667e+00	 9.834471e+00
3	 1.666667e+00	 6.750000e+00	 9.841405e+00
3	 1.666667e+00	 6.833333e+00	 9.848221e+00
3	 1.666667e+00	 6.916667e+00	 9.854926e+00
3	 1.666667e+00	 7.000000e+00	 9.861529e+00
3	 1.666667e+00	 7.083333e+00	 9.868035e+00
3	 1.750000e+00	 6.666667e+00	 9.845897e+00
3	 1.750000e+00	 6.750000e+00	 9.852207e+00
3	 1.750000e+00	 6.833333e+00	 9.858424e+00
3	 1.750000e+00	 6.916667e+00	 9.864556e+00
3	 1.750000e+00	 7.000000e+00	 9.870610e+00
3	 1.750000e+00	 7.083333e+00	 9.876595e+00
3	 1.833333e+00	 6.666667e+00	 9.857502e+00
3	 1.833333e+00	 6.750000e+00	 9.863184e+00
3	 1.833333e+00	 6.833333e+00	 9.868797e+00
3	 1.833333e+00	 6.916667e+00	 9.874350e+00
3	 1.833333e+00	 7.000000e+00	 9.879852e+00
3	 1.833333e+00	 7.083333e+00	 9.885310e+00
3	 1.916667e+00	 6.666667e+00	 9.869219e+00
3	 1.916667e+00	 6.750000e+00	 9.874272e+00
3	 1.916667e+00	 6.833333e+00	 9.879281e+00
3	 1.916667e+00	 6.916667e+00	 9.884255e+00
3	 1.916667e+00	 7.000000e+00	 9.889202e+00
3	 1.916667e+00	 7.083333e+00	 9.894131e+00
3	 2.000000e+00	 6.666667e+00	 9.880979e+00
3	 2.000000e+00	 6.750000e+00	 9.885408e+00
3	 2.000000e+00	 6.833333e+00	 9.889816e+00
3	 2.000000e+00	 6.916667e+00	 9.894213e+00
3	 2.000000e+00	 7.000000e+00	 9.898607e+00
3	 2.000000e+00	 7.083333e+00	 9.903008e+00
3	 2.083333e+00	 6.666667e+00	 9.892716e+00
3	 2.083333e+00	 6.750000e+00	 9.896528e+00
3	 2.083333e+00	 6.833333e+00	 9.900343e+00
3	 2.083333e+00	 6.916667e+00	 9.904168e+00
3	 2.083333e+00	 7.000000e+00	 9.908015e+00
3	 2.083333e+00	 7.083333e+00	 9.911892e+00
3	 1.666667e+00	 7.083333e+00	 9.868035e+00
3	 1.666667e+00	 7.166667e+00	 9.874429e+00
3	 1.666667e+00	 7.250000e+00	 9.880691e+00
3	 1.666667e+00	 7.333333e+00	 9.886830e+00
3	 1.666667e+00	 7.416667e+00	 9.892850e+00
3	 1.666667e+00	 7.500000e+00	 9.898759e+00
3	 1.750000e+00	 7.083333e+00	 9.876595e+00
3	 1.750000e+00	 7.166667e+00	 9.882490e+00
3	 1.750000e+00	 7.250000e+00	 9.888273e+00
3	 1.750000e+00	 7.333333e+00	 9.893951e+00
3	 1.750000e+00	 7.416667e+00	 9.899532e+00
3	 1.750000e+00	 7.500000e+00	 9.905021e+00
3	 1.833333e+00	 7.083333e+00	 9.885310e+00
3	 1.833333e+00	 7.166667e+00	 9.890701e+00
3	 1.833333e+00	 7.250000e+00	 9.895999e+00
3	 1.833333e+00	 7.333333e+00	 9.901212e+00
3	 1.833333e+00	 7.416667e+00	 9.906346e+00
3	 1.833333e+00	 7.500000e+00	 9.911409e+00
3	 1.916667e+00	 7.083333e+00	 9.894131e+00
3	 1.916667e+00	 7.166667e+00	 9.899015e+00
3	 1.916667e+00	 7.250000e+00	 9.903825e+00
3	 1.916667e+00	 7.333333e+00	 9.908569e+00
3	 1.916667e+00	 7.416667e+00	 9.913254e+00
3	 1.916667e+00	 7.500000e+00	 9.917888e+00
3	 2.000000e+00	 7.083333e+00	 9.903008e+00
3	 2.000000e+00	 7.166667e+00	 9.907385e+00
3	 2.000000e+00	 7.250000e+00	 9.911707e+00
3	 2.000000e+00	 7.333333e+00	 9.915982e+00
3	 2.000000e+00	 7.416667e+00	 9.920217e+00
3	 2.000000e+00	 7.500000e+00	 9.924420e+00
3	 2.083333e+00	 7.083333e+00	 9.911892e+00
3	 2.083333e+00	 7.166667e+00	 9.915766e+00
3	 2.083333e+00	 7.250000e+00	 9.919603e+00
3	 2.083333e+00	 7.333333e+00	 9.923411e+00
3	 2.083333e+00	 7.416667e+00	 9.927197e+00
3	 2.083333e+00	 7.500000e+00	 9.930971e+00
3	 1.666667e+00	 7.500000e+00	 9.898759e+00
3	 1.666667e+00	 7.583333e+00	 9.904540e+00
3	 1.666667e+00	 7.666667e+00	 9.910179e+00
3	 1.666667e+00	 7.750000e+00	 9.915681e+00
3	 1.666667e+00	 7.833333e+00	 9.921052e+00
3	 1.666667e+00	 7.916667e+00	 9.926301e+00
3	 1.750000e+00	 7.500000e+00	 9.905021e+00
3	 1.750000e+00	 7.583333e+00	 9.910401e+00
3	 1.750000e+00	 7.666667e+00	 9.915652e+00
3	 1.750000e+00	 7.750000e+00	 9.920783e+00
3	 1.750000e+00	 7.833333e+00	 9.925799e+00
3	 1.750000e+00	 7.916667e+00	 9.930707e+00
3	 1.833333e+00	 7.500000e+00	 9.911409e+00
3	 1.833333e+00	 7.583333e+00	 9.916381e+00
3	 1.833333e+00	 7.666667e+00	 9.921240e+00
3	 1.833333e+00	 7.750000e+00	 9.925993e+00
3	 1.833333e+00	 7.833333e+00	 9.930648e+00
3	 1.833333e+00	 7.916667e+00	 9.935211e+00
3	 1.916667e+00	 7.500000e+00	 9.917888e+00
3	 1.916667e+00	 7.583333e+00	 9.922448e+00
3	 1.916667e+00	 7.666667e+00	 9.926910e+00
3	 1.916667e+00	 7.750000e+00	 9.931282e+00
3	 1.916667e+00	 7.833333e+00	 9.935571e+00
3	 1.916667e+00	 7.916667e+00	 9.939784e+00
3	 2.000000e+00	 7.500000e+00	 9.924420e+00
3	 2.000000e+00	 7.583333e+00	 9.928567e+00
3	 2.000000e+00	 7.666667e+00	 9.932631e+00
3	 2.000000e+00	 7.750000e+00	 9.936620e+00
3	 2.000000e+00	 7.833333e+00	 9.940541e+00
3	 2.000000e+00	 7.916667e+00	 9.944402e+00
3	 2.083333e+00	 7.500000e+00	 9.930971e+00
3	 2.083333e+00	 7.583333e+00	 9.934704e+00
3	 2.083333e+00	 7.666667e+00	 9.938370e+00
3	 2.083333e+00	 7.750000e+00	 9.941977e+00
3	 2.083333e+00	 7.833333e+00	 9.945530e+00
3	 2.083333e+00	 7.916667e+00	 9.949037e+00
3	 1.666667e+00	 7.916667e+00	 9.926301e+00
3	 1.666667e+00	 8.000000e+00	 9.931408e+00
3	 1.666667e+00	 8.083333e+00	 9.936357e+00
3	 1.666667e+00	 8.166667e+00	 9.941156e+00
3	 1.666667e+00	 8.250000e+00	 9.945812e+00
3	 1.666667e+00	 8.333333e+00	 9.950331e+00
3	 1.750000e+00	 7.916667e+00	 9.930707e+00
3	 1.750000e+00	 8.000000e+00	 9.935489e+00
3	 1.750000e+00	 8.083333e+00	 9.940126e+00
3	 1.750000e+00	 8.166667e+00	 9.944625e+00
3	 1.750000e+00	 8.250000e+00	 9.948993e+00
3	 1.750000e+00	 8.333333e+00	 9.953238e+00
3	 1.833333e+00	 7.916667e+00	 9.935211e+00
3	 1.833333e+00	 8.000000e+00	 9.939661e+00
3	 1.833333e+00	 8.083333e+00	 9.943979e+00
3	 1.833333e+00	 8.166667e+00	 9.948173e+00
3	 1.833333e+00	 8.250000e+00	 9.952249e+00
3	 1.833333e+00	 8.333333e+00	 9.956214e+00
3	 1.916667e+00	 7.916667e+00	 9.939784e+00
3	 1.916667e+00	 8.000000e+00	 9.943899e+00
3	 1.916667e+00	 8.083333e+00	 9.947895e+00
3	 1.916667e+00	 8.166667e+00	 9.951779e+00
3	 1.916667e+00	 8.250000e+00	 9.955559e+00
3	 1.916667e+00	 8.333333e+00	 9.959241e+00
3	 2.000000e+00	 7.916667e+00	 9.944402e+00
3	 2.000000e+00	 8.000000e+00	 9.948178e+00
3	 2.000000e+00	 8.083333e+00	 9.951850e+00
3	 2.000000e+00	 8.166667e+00	 9.955422e+00
3	 2.000000e+00	 8.250000e+00	 9.958902e+00
3	 2.000000e+00	 8.333333e+00	 9.962298e+00
3	 2.083333e+00	 7.916667e+00	 9.949037e+00
3	 2.083333e+00	 8.000000e+00	 9.952475e+00
3	 2.083333e+00	 8.083333e+00	 9.955821e+00
3	 2.083333e+00	 8.166667e+00	 9.959080e+00
3	 2.083333e+00	 8.250000e+00	 9.962260e+00
3	 2.083333e+00	 8.333333e+00	 9.965368e+00
3	 1.666667e+00	 8.333333e+00	 9.950331e+00
3	 1.666667e+00	 8.416667e+00	 9.954692e+00
3	 1.666667e+00	 8.500000e+00	 9.958874e+00
3	 1.666667e+00	 8.583333e+00	 9.962885e+00
3	 1.666667e+00	 8.666667e+00	 9.966734e+00
3	 1.666667e+00	 8.750000e+00	 9.970430e+00
3	 1.750000e+00	 8.333333e+00	 9.953238e+00
3	 1.750000e+00	 8.416667e+00	 9.957337e+00
3	 1.750000e+00	 8.500000e+00	 9.961269e+00
3	 1.750000e+00	 8.583333e+00	 9.965042e+00
3	 1.750000e+00	 8.666667e+00	 9.968665e+00
3	 1.750000e+00	 8.750000e+00	 9.972144e+00
3	 1.833333e+00	 8.333333e+00	 9.956214e+00
3	 1.833333e+00	 8.416667e+00	 9.960047e+00
3	 1.833333e+00	 8.500000e+00	 9.963724e+00
3	 1.833333e+00	 8.583333e+00	 9.967253e+00
3	 1.833333e+00	 8.666667e+00	 9.970644e+00
3	 1.833333e+00	 8.750000e+00	 9.973904e+00
3	 1.916667e+00	 8.333333e+00	 9.959241e+00
3	 1.916667e+00	 8.416667e+00	 9.962802e+00
3	 1.916667e+00	 8.500000e+00	 9.966220e+00
3	 1.916667e+00	 8.583333e+00	 9.969503e+00
3	 1.916667e+00	 8.666667e+00	 9.972659e+00
3	 1.916667e+00	 8.750000e+00	 9.975694e+00
3	 2.000000e+00	 8.333333e+00	 9.962298e+00
3	 2.000000e+00	 8.416667e+00	 9.965586e+00
3	 2.000000e+00	 8.500000e+00	 9.968742e+00
3	 2.000000e+00	 8.583333e+00	 9.971776e+00
3	 2.000000e+00	 8.666667e+00	 9.974694e+00
3	 2.000000e+00	 8.750000e+00	 9.977503e+00
3	 2.083333e+00	 8.333333e+00	 9.965368e+00
3	 2.083333e+00	 8.416667e+00	 9.968381e+00
3	 2.083333e+00	 8.500000e+00	 9.971275e+00
3	 2.083333e+00	 8.583333e+00	 9.974057e+00
3	 2.083333e+00	 8.666667e+00	 9.976736e+00
3	 2.083333e+00	 8.750000e+00	 9.979317e+00
3	 1.666667e+00	 8.750000e+00	 9.970430e+00
3	 1.666667e+00	 8.833333e+00	 9.973944e+00
3	 1.666667e+00	 8.916667e+00	 9.977250e+00
3	 1.666667e+00	 9.000000e+00	 9.980357e+00
3	 1.666667e+00	 9.083333e+00	 9.983277e+00
3	 1.666667e+00	 9.166667e+00	 9.986019e+00
3	 1.750000e+00	 8.750000e+00	 9.972144e+00
3	 1.750000e+00	 8.833333e+00	 9.975454e+00
3	 1.750000e+00	 8.916667e+00	 9.978568e+00
3	 1.750000e+00	 9.000000e+00	 9.981495e+00
3	 1.750000e+00	 9.083333e+00	 9.984245e+00
3	 1.750000e+00	 9.166667e+00	 9.986829e+00
3	 1.833333e+00	 8.750000e+00	 9.973904e+00
3	 1.833333e+00	 8.833333e+00	 9.977005e+00
3	 1.833333e+00	 8.916667e+00	 9.979923e+00
3	 1.833333e+00	 9.000000e+00	 9.982666e+00
3	 1.833333e+00	 9.083333e+00	 9.985244e+00
3	 1.833333e+00	 9.166667e+00	 9.987666e+00
3	 1.916667e+00	 8.750000e+00	 9.975694e+00
3	 1.916667e+00	 8.833333e+00	 9.978584e+00
3	 1.916667e+00	 8.916667e+00	 9.981303e+00
3	 1.916667e+00	 9.000000e+00	 9.983859e+00
3	 1.916667e+00	 9.083333e+00	 9.986261e+00
3	 1.916667e+00	 9.166667e+00	 9.988519e+00
3	 2.000000e+00	 8.750000e+00	 9.977503e+00
3	 2.000000e+00	 8.833333e+00	 9.980179e+00
3	 2.000000e+00	 8.916667e+00	 9.982696e+00
3	 2.000000e+00	 9.000000e+00	 9.985063e+00
3	 2.000000e+00	 9.083333e+00	 9.987288e+00
3	 2.000000e+00	 9.166667e+00	 9.989380e+00
3	 2.083333e+00	 8.750000e+00	 9.979317e+00
3	 2.083333e+00	 8.833333e+00	 9.981777e+00
3	 2.083333e+00	 8.916667e+00	 9.984091e+00
3	 2.083333e+00	 9.000000e+00	 9.986267e+00
3	 2.083333e+00	 9.083333e+00	 9.988313e+00
3	 2.083333e+00	 9.166667e+00	 9.990237e+00
3	 1.666667e+00	 9.166667e+00	 9.986019e+00
3	 1.666667e+00	 9.250000e+00	 9.988546e+00
3	 1.666667e+00	 9.333333e+00	 9.990820e+00
3	 1.666667e+00	 9.416667e+00	 9.992855e+00
3	 1.666667e+00	 9.500000e+00	 9.994663e+00
3	 1.666667e+00	 9.583333e+00	 9.996258e+00
3	 1.750000e+00	 9.166667e+00	 9.986829e+00
3	 1.750000e+00	 9.250000e+00	 9.989210e+00
3	 1.750000e+00	 9.333333e+00	 9.991352e+00
3	 1.750000e+00	 9.416667e+00	 9.993269e+00
3	 1.750000e+00	 9.500000e+00	 9.994971e+00
3	 1.750000e+00	 9.583333e+00	 9.996472e+00
3	 1.833333e+00	 9.166667e+00	 9.987666e+00
3	 1.833333e+00	 9.250000e+00	 9.989898e+00
3	 1.833333e+00	 9.333333e+00	 9.991906e+00
3	 1.833333e+00	 9.416667e+00	 9.993702e+00
3	 1.833333e+00	 9.500000e+00	 9.995297e+00
3	 1.833333e+00	 9.583333e+00	 9.996703e+00
3	 1.916667e+00	 9.166667e+00	 9.988519e+00
3	 1.916667e+00	 9.250000e+00	 9.990600e+00
3	 1.916667e+00	 9.333333e+00	 9.992472e+00
3	 1.916667e+00	 9.416667e+00	 9.994146e+00
3	 1.916667e+00	 9.500000e+00	 9.995632e+00
3	 1.916667e+00	 9.583333e+00	 9.996941e+00
3	 2.000000e+00	 9.166667e+00	 9.989380e+00
3	 2.000000e+00	 9.250000e+00	 9.991307e+00
3	 2.000000e+00	 9.333333e+00	 9.993041e+00
3	 2.000000e+00	 9.416667e+00	 9.994591e+00
3	 2.000000e+00	 9.500000e+00	 9.995966e+00
3	 2.000000e+00	 9.583333e+00	 9.997177e+00
3	 2.083333e+00	 9.166667e+00	 9.990237e+00
3	 2.083333e+00	 9.250000e+00	 9.992010e+00
3	 2.083333e+00	 9.333333e+00	 9.993604e+00
3	 2.083333e+00	 9.416667e+00	 9.995028e+00
3	 2.083333e+00	 9.500000e+00	 9.996292e+00
3	 2.083333e+00	 9.583333e+00	 9.997403e+00
3	 1.666667e+00	 9.583333e+00	 9.996258e+00
3	 1.666667e+00	 9.666667e+00	 9.997593e+00
3	 1.666667e+00	 9.750000e+00	 9.998622e+00
3	 1.666667e+00	 9.833333e+00	 9.999361e+00
3	 1.666667e+00	 9.916667e+00	 9.999828e+00
3	 1.666667e+00	 1.000000e+01	 1.000004e+01
3	 1.750000e+00	 9.583333e+00	 9.996472e+00
3	 1.750000e+00	 9.666667e+00	 9.997728e+00
3	 1.750000e+00	 9.750000e+00	 9.998696e+00
3	 1.750000e+00	 9.833333e+00	 9.999391e+00
3	 1.750000e+00	 9.916667e+00	 9.999829e+00
3	 1.750000e+00	 1.000000e+01	 1.000002e+01
3	 1.833333e+00	 9.583333e+00	 9.996703e+00
3	 1.833333e+00	 9.666667e+00	 9.997878e+00
3	 1.833333e+00	 9.750000e+00	 9.998785e+00
3	 1.833333e+00	 9.833333e+00	 9.999436e+00
3	 1.833333e+00	 9.916667e+00	 9.999845e+00
3	 1.833333e+00	 1.000000e+01	 1.000003e+01
3	 1.916667e+00	 9.583333e+00	 9.996941e+00
3	 1.916667e+00	 9.666667e+00	 9.998035e+00
3	 1.916667e+00	 9.750000e+00	 9.998879e+00
3	 1.916667e+00	 9.833333e+00	 9.999485e+00
3	 1.916667e+00	 9.916667e+00	 9.999866e+00
3	 1.916667e+00	 1.000000e+01	 1.000003e+01
3	 2.000000e+00	 9.583333e+00	 9.997177e+00
3	 2.000000e+00	 9.666667e+00	 9.998189e+00
3	 2.000000e+00	 9.750000e+00	 9.998970e+00
3	 2.000000e+00	 9.833333e+00	 9.999531e+00
3	 2.000000e+00	 9.916667e+00	 9.999882e+00
3	 2.000000e+00	 1.000000e+01	 1.000004e+01
3	 2.083333e+00	 9.583333e+00	 9.997403e+00
3	 2.083333e+00	 9.666667e+00	 9.998332e+00
3	 2.083333e+00	 9.750000e+00	 9.999048e+00
3	 2.083333e+00	 9.833333e+00	 9.999562e+00
3	 2.083333e+00	 9.916667e+00	 9.999883e+00
3	 2.083333e+00	 1.000000e+01	 1.000002e+01
3	 2.083333e+00	 5.000000e+00	 9.851969e+00
3	 2.083333e+00	 5.083333e+00	 9.850761e+00
3	 2.083333e+00	 5.166667e+00	 9.850008e+00
3	 2.083333e+00	 5.250000e+00	 9.849742e+00
3	 2.083333e+00	 5.333333e+00	 9.849994e+00
3	 2.083333e+00	 5.416667e+00	 9.850792e+00
3	 2.166667e+00	 5.000000e+00	 9.882728e+00
3	 2.166667e+00	 5.083333e+00	 9.880173e+00
3	 2.166667e+00	 5.166667e+00	 9.878122e+00
3	 2.166667e+00	 5.250000e+00	 9.876606e+00
3	 2.166667e+00	 5.333333e+00	 9.875654e+00
3	 2.166667e+00	 5.416667e+00	 9.875296e+00
3	 2.250000e+00	 5.000000e+00	 9.912689e+00
3	 2.250000e+00	 5.083333e+00	 9.908872e+00
3	 2.250000e+00	 5.166667e+00	 9.905602e+00
3	 2.250000e+00	 5.250000e+00	 9.902907e+00
3	 2.250000e+00	 5.333333e+00	 9.900817e+00
3	 2.250000e+00	 5.416667e+00	 9.899359e+00
3	 2.333333e+00	 5.000000e+00	 9.941740e+00
3	 2.333333e+00	 5.083333e+00	 9.936748e+00
3	 2.333333e+00	 5.166667e+00	 9.932339e+00
3	 2.333333e+00	 5.250000e+00	 9.928540e+00
3	 2.333333e+00	 5.333333e+00	 9.925378e+00
3	 2.333333e+00	 5.416667e+00	 9.922881e+00
3	 2.416667e+00	 5.000000e+00	 9.969769e+00
3	 2.416667e+00	 5.083333e+00	 9.963690e+00
3	 2.416667e+00	 5.166667e+00	 9.958224e+00
3	 2.416667e+00	 5.250000e+00	 9.953396e+00
3	 2.416667e+00	 5.333333e+00	 9.949232e+00
3	 2.416667e+00	 5.416667e+00	 9.945759e+00
3	 2.500000e+00	 5.000000e+00	 9.996666e+00
3	 2.500000e+00	 5.083333e+00	 9.989589e+00
3	 2.500000e+00	 5.166667e+00	 9.983150e+00
3	 2.500000e+00	 5.250000e+00	 9.977371e+00
3	 2.500000e+00	 5.333333e+00	 9.972277e+00
3	 2.500000e+00	 5.416667e+00	 9.967892e+00
3	 2.083333e+00	 5.416667e+00	 9.850792e+00
3	 2.083333e+00	 5.500000e+00	 9.852003e+00
3	 2.083333e+00	 5.583333e+00	 9.853485e+00
3	 2.083333e+00	 5.666667e+00	 9.855262e+00
3	 2.083333e+00	 5.750000e+00	 9.857356e+00
3	 2.083333e+00	 5.833333e+00	 9.859788e+00
3	 2.166667e+00	 5.416667e+00	 9.875296e+00
3	 2.166667e+00	 5.500000e+00	 9.875394e+00
3	 2.166667e+00	 5.583333e+00	 9.875805e+00
3	 2.166667e+00	 5.666667e+00	 9.876552e+00
3	 2.166667e+00	 5.750000e+00	 9.877657e+00
3	 2.166667e+00	 5.833333e+00	 9.879142e+00
3	 2.250000e+00	 5.416667e+00	 9.899359e+00
3	 2.250000e+00	 5.500000e+00	 9.898395e+00
3	 2.250000e+00	 5.583333e+00	 9.897783e+00
3	 2.250000e+00	 5.666667e+00	 9.897542e+00
3	 2.250000e+00	 5.750000e+00	 9.897697e+00
3	 2.250000e+00	 5.833333e+00	 9.898268e+00
3	 2.333333e+00	 5.416667e+00	 9.922881e+00
3	 2.333333e+00	 5.500000e+00	 9.920910e+00
3	 2.333333e+00	 5.583333e+00	 9.919323e+00
3	 2.333333e+00	 5.666667e+00	 9.918142e+00
3	 2.333333e+00	 5.750000e+00	 9.917388e+00
3	 2.333333e+00	 5.833333e+00	 9.917082e+00
3	 2.416667e+00	 5.416667e+00	 9.945759e+00
3	 2.416667e+00	 5.500000e+00	 9.942838e+00
3	 2.416667e+00	 5.583333e+00	 9.940331e+00
3	 2.416667e+00	 5.666667e+00	 9.938258e+00
3	 2.416667e+00	 5.750000e+00	 9.936641e+00
3	 2.416667e+00	 5.833333e+00	 9.935499e+00
3	 2.500000e+00	 5.416667e+00	 9.967892e+00
3	 2.500000e+00	 5.500000e+00	 9.964082e+00
3	 2.500000e+00	 5.583333e+00	 9.960712e+00
3	 2.500000e+00	 5.666667e+00	 9.957800e+00
3	 2.500000e+00	 5.750000e+00	 9.955367e+00
3	 2.500000e+00	 5.833333e+00	 9.953432e+00
3	 2.083333e+00	 5.833333e+00	 9.859788e+00
3	 2.083333e+00	 5.916667e+00	 9.862462e+00
3	 2.083333e+00	 6.000000e+00	 9.865277e+00
3	 2.083333e+00	 6.083333e+00	 9.868248e+00
3	 2.083333e+00	 6.166667e+00	 9.871392e+00
3	 2.083333e+00	 6.250000e+00	 9.874724e+00
3	 2.166667e+00	 5.833333e+00	 9.879142e+00
3	 2.166667e+00	 5.916667e+00	 9.880906e+00
3	 2.166667e+00	 6.000000e+00	 9.882844e+00
3	 2.166667e+00	 6.083333e+00	 9.884973e+00
3	 2.166667e+00	 6.166667e+00	 9.887309e+00
3	 2.166667e+00	 6.250000e+00	 9.889867e+00
3	 2.250000e+00	 5.833333e+00	 9.898268e+00
3	 2.250000e+00	 5.916667e+00	 9.899152e+00
3	 2.250000e+00	 6.000000e+00	 9.900242e+00
3	 2.250000e+00	 6.083333e+00	 9.901553e+00
3	 2.250000e+00	 6.166667e+00	 9.903103e+00
3	 2.250000e+00	 6.250000e+00	 9.904907e+00
3	 2.333333e+00	 5.833333e+00	 9.917082e+00
3	 2.333333e+00	 5.916667e+00	 9.917120e+00
3	 2.333333e+00	 6.000000e+00	 9.917391e+00
3	 2.333333e+00	 6.083333e+00	 9.917914e+00
3	 2.333333e+00	 6.166667e+00	 9.918703e+00
3	 2.333333e+00	 6.250000e+00	 9.919775e+00
3	 2.416667e+00	 5.833333e+00	 9.935499e+00
3	 2.416667e+00	 5.916667e+00	 9.934726e+00
3	 2.416667e+00	 6.000000e+00	 9.934214e+00
3	 2.416667e+00	 6.083333e+00	 9.933979e+00
3	 2.416667e+00	 6.166667e+00	 9.934036e+00
3	 2.416667e+00	 6.250000e+00	 9.934402e+00
3	 2.500000e+00	 5.833333e+00	 9.953432e+00
3	 2.500000e+00	 5.916667e+00	 9.951889e+00
3	 2.500000e+00	 6.000000e+00	 9.950631e+00
3	 2.500000e+00	 6.083333e+00	 9.949673e+00
3	 2.500000e+00	 6.166667e+00	 9.949030e+00
3	 2.500000e+00	 6.250000e+00	 9.948718e+00
3	 2.083333e+00	 6.250000e+00	 9.874724e+00
3	 2.083333e+00	 6.333333e+00	 9.878182e+00
3	 2.083333e+00	 6.416667e+00	 9.881697e+00
3	 2.083333e+00	 6.500000e+00	 9.885284e+00
3	 2.083333e+00	 6.583333e+00	 9.888953e+00
3	 2.083333e+00	 6.666667e+00	 9.892716e+00
3	 2.166667e+00	 6.250000e+00	 9.889867e+00
3	 2.166667e+00	 6.333333e+00	 9.892582e+00
3	 2.166667e+00	 6.416667e+00	 9.895382e+00
3	 2.166667e+00	 6.500000e+00	 9.898280e+00
3	 2.166667e+00	 6.583333e+00	 9.901289e+00
3	 2.166667e+00	 6.666667e+00	 9.904419e+00
3	 2.250000e+00	 6.250000e+00	 9.904907e+00
3	 2.250000e+00	 6.333333e+00	 9.906896e+00
3	 2.250000e+00	 6.416667e+00	 9.908996e+00
3	 2.250000e+00	 6.500000e+00	 9.911220e+00
3	 2.250000e+00	 6.583333e+00	 9.913580e+00
3	 2.250000e+00	 6.666667e+00	 9.916088e+00
3	 2.333333e+00	 6.250000e+00	 9.919775e+00
3	 2.333333e+00	 6.333333e+00	 9.921058e+00
3	 2.333333e+00	 6.416667e+00	 9.922476e+00
3	 2.333333e+00	 6.500000e+00	 9.924043e+00
3	 2.333333e+00	 6.583333e+00	 9.925769e+00
3	 2.333333e+00	 6.666667e+00	 9.927669e+00
3	 2.416667e+00	 6.250000e+00	 9.934402e+00
3	 2.416667e+00	 6.333333e+00	 9.935002e+00
3	 2.416667e+00	 6.416667e+00	 9.935760e+00
3	 2.416667e+00	 6.500000e+00	 9.936689e+00
3	 2.416667e+00	 6.583333e+00	 9.937800e+00
3	 2.416667e+00	 6.666667e+00	 9.939106e+00
3	 2.500000e+00	 6.250000e+00	 9.948718e+00
3	 2.500000e+00	 6.333333e+00	 9.948662e+00
3	 2.500000e+00	 6.416667e+00	 9.948785e+00
3	 2.500000e+00	 6.500000e+00	 9.949098e+00
3	 2.500000e+00	 6.583333e+00	 9.949614e+00
3	 2.500000e+00	 6.666667e+00	 9.950346e+00
3	 2.083333e+00	 6.666667e+00	 9.892716e+00
3	 2.083333e+00	 6.750000e+00	 9.896528e+00
3	 2.083333e+00	 6.833333e+00	 9.900343e+00
3	 2.083333e+00	 6.916667e+00	 9.904168e+00
3	 2.083333e+00	 7.000000e+00	 9.908015e+00
3	 2.083333e+00	 7.083333e+00	 9.911892e+00
3	 2.166667e+00	 6.666667e+00	 9.904419e+00
3	 2.166667e+00	 6.750000e+00	 9.907624e+00
3	 2.166667e+00	 6.833333e+00	 9.910852e+00
3	 2.166667e+00	 6.916667e+00	 9.914114e+00
3	 2.166667e+00	 7.000000e+00	 9.917419e+00
3	 2.166667e+00	 7.083333e+00	 9.920777e+00
3	 2.250000e+00	 6.666667e+00	 9.916088e+00
3	 2.250000e+00	 6.750000e+00	 9.918694e+00
3	 2.250000e+00	 6.833333e+00	 9.921345e+00
3	 2.250000e+00	 6.916667e+00	 9.924050e+00
3	 2.250000e+00	 7.000000e+00	 9.926819e+00
3	 2.250000e+00	 7.083333e+00	 9.929662e+00
3	 2.333333e+00	 6.666667e+00	 9.927669e+00
3	 2.333333e+00	 6.750000e+00	 9.929688e+00
3	 2.333333e+00	 6.833333e+00	 9.931771e+00
3	 2.333333e+00	 6.916667e+00	 9.933929e+00
3	 2.333333e+00	 7.000000e+00	 9.936171e+00
3	 2.333333e+00	 7.083333e+00	 9.938508e+00
3	 2.416667e+00	 6.666667e+00	 9.939106e+00
3	 2.416667e+00	 6.750000e+00	 9.940552e+00
3	 2.416667e+00	 6.833333e+00	 9.942082e+00
3	 2.416667e+00	 6.916667e+00	 9.943705e+00
3	 2.416667e+00	 7.000000e+00	 9.945431e+00
3	 2.416667e+00	 7.083333e+00	 9.947270e+00
3	 2.500000e+00	 6.666667e+00	 9.950346e+00
3	 2.500000e+00	 6.750000e+00	 9.951237e+00
3	 2.500000e+00	 6.833333e+00	 9.952228e+00
3	 2.500000e+00	 6.916667e+00	 9.953331e+00
3	 2.500000e+00	 7.000000e+00	 9.954554e+00
3	 2.500000e+00	 7.083333e+00	 9.955908e+00
3	 2.083333e+00	 7.083333e+00	 9.911892e+00
3	 2.083333e+00	 7.166667e+00	 9.915766e+00
3	 2.083333e+00	 7.250000e+00	 9.919603e+00
3	 2.083333e+00	 7.333333e+00	 9.923411e+00
3	 2.083333e+00	 7.416667e+00	 9.927197e+00
3	 2.083333e+00	 7.500000e+00	 9.930971e+00
3	 2.166667e+00	 7.083333e+00	 9.920777e+00
3	 2.166667e+00	 7.166667e+00	 9.924151e+00
3	 2.166667e+00	 7.250000e+00	 9.927507e+00
3	 2.166667e+00	 7.333333e+00	 9.930851e+00
3	 2.166667e+00	 7.416667e+00	 9.934191e+00
3	 2.166667e+00	 7.500000e+00	 9.937537e+00
3	 2.250000e+00	 7.083333e+00	 9.929662e+00
3	 2.250000e+00	 7.166667e+00	 9.932542e+00
3	 2.250000e+00	 7.250000e+00	 9.935419e+00
3	 2.250000e+00	 7.333333e+00	 9.938303e+00
3	 2.250000e+00	 7.416667e+00	 9.941200e+00
3	 2.250000e+00	 7.500000e+00	 9.944119e+00
3	 2.333333e+00	 7.083333e+00	 9.938508e+00
3	 2.333333e+00	 7.166667e+00	 9.940898e+00
3	 2.333333e+00	 7.250000e+00	 9.943304e+00
3	 2.333333e+00	 7.333333e+00	 9.945732e+00
3	 2.333333e+00	 7.416667e+00	 9.948190e+00
3	 2.333333e+00	 7.500000e+00	 9.950687e+00
3	 2.416667e+00	 7.083333e+00	 9.947270e+00
3	 2.416667e+00	 7.166667e+00	 9.949181e+00
3	 2.416667e+00	 7.250000e+00	 9.951122e+00
3	 2.416667e+00	 7.333333e+00	 9.953102e+00
3	 2.416667e+00	 7.416667e+00	 9.955128e+00
3	 2.416667e+00	 7.500000e+00	 9.957208e+00
3	 2.500000e+00	 7.083333e+00	 9.955908e+00
3	 2.500000e+00	 7.166667e+00	 9.957350e+00
3	 2.500000e+00	 7.250000e+00	 9.958837e+00
3	 2.500000e+00	 7.333333e+00	 9.960378e+00
3	 2.500000e+00	 7.416667e+00	 9.961980e+00
3	 2.500000e+00	 7.500000e+00	 9.963651e+00
3	 2.083333e+00	 7.500000e+00	 9.930971e+00
3	 2.083333e+00	 7.583333e+00	 9.934704e+00
3	 2.083333e+00	 7.666667e+00	 9.938370e+00
3	 2.083333e+00	 7.750000e+00	 9.941977e+00
3	 2.083333e+00	 7.833333e+00	 9.945530e+00
3	 2.083333e+00	 7.916667e+00	 9.949037e+00
3	 2.166667e+00	 7.500000e+00	 9.937537e+00
3	 2.166667e+00	 7.583333e+00	 9.940858e+00
3	 2.166667e+00	 7.666667e+00	 9.944128e+00
3	 2.166667e+00	 7.750000e+00	 9.947352e+00
3	 2.166667e+00	 7.833333e+00	 9.950537e+00
3	 2.166667e+00	 7.916667e+00	 9.953692e+00
3	 2.250000e+00	 7.500000e+00	 9.944119e+00
3	 2.250000e+00	 7.583333e+00	 9.947031e+00
3	 2.250000e+00	 7.666667e+00	 9.949904e+00
3	 2.250000e+00	 7.750000e+00	 9.952747e+00
3	 2.250000e+00	 7.833333e+00	 9.955566e+00
3	 2.250000e+00	 7.916667e+00	 9.958368e+00
3	 2.333333e+00	 7.500000e+00	 9.950687e+00
3	 2.333333e+00	 7.583333e+00	 9.953192e+00
3	 2.333333e+00	 7.666667e+00	 9.955672e+00
3	 2.333333e+00	 7.750000e+00	 9.958136e+00
3	 2.333333e+00	 7.833333e+00	 9.960590e+00
3	 2.333333e+00	 7.916667e+00	 9.963041e+00
3	 2.416667e+00	 7.500000e+00	 9.957208e+00
3	 2.416667e+00	 7.583333e+00	 9.959311e+00
3	 2.416667e+00	 7.666667e+00	 9.961403e+00
3	 2.416667e+00	 7.750000e+00	 9.963493e+00
3	 2.416667e+00	 7.833333e+00	 9.965585e+00
3	 2.416667e+00	 7.916667e+00	 9.967688e+00
3	 2.500000e+00	 7.500000e+00	 9.963651e+00
3	 2.500000e+00	 7.583333e+00	 9.965359e+00
3	 2.500000e+00	 7.666667e+00	 9.967069e+00
3	 2.500000e+00	 7.750000e+00	 9.968790e+00
3	 2.500000e+00	 7.833333e+00	 9.970526e+00
3	 2.500000e+00	 7.916667e+00	 9.972286e+00
3	 2.083333e+00	 7.916667e+00	 9.949037e+00
3	 2.083333e+00	 8.000000e+00	 9.952475e+00
3	 2.083333e+00	 8.083333e+00	 9.955821e+00
3	 2.083333e+00	 8.166667e+00	 9.959080e+00
3	 2.083333e+00	 8.250000e+00	 9.962260e+00
3	 2.083333e+00	 8.333333e+00	 9.965368e+00
3	 2.166667e+00	 7.916667e+00	 9.953692e+00
3	 2.166667e+00	 8.000000e+00	 9.956791e+00
3	 2.166667e+00	 8.083333e+00	 9.959810e+00
3	 2.166667e+00	 8.166667e+00	 9.962756e+00
3	 2.166667e+00	 8.250000e+00	 9.965635e+00
3	 2.166667e+00	 8.333333e+00	 9.968455e+00
3	 2.250000e+00	 7.916667e+00	 9.958368e+00
3	 2.250000e+00	 8.000000e+00	 9.961128e+00
3	 2.250000e+00	 8.083333e+00	 9.963820e+00
3	 2.250000e+00	 8.166667e+00	 9.966452e+00
3	 2.250000e+00	 8.250000e+00	 9.969030e+00
3	 2.250000e+00	 8.333333e+00	 9.971561e+00
3	 2.333333e+00	 7.916667e+00	 9.963041e+00
3	 2.333333e+00	 8.000000e+00	 9.965463e+00
3	 2.333333e+00	 8.083333e+00	 9.967831e+00
3	 2.333333e+00	 8.166667e+00	 9.970150e+00
3	 2.333333e+00	 8.250000e+00	 9.972427e+00
3	 2.333333e+00	 8.333333e+00	 9.974669e+00
3	 2.416667e+00	 7.916667e+00	 9.967688e+00
3	 2.416667e+00	 8.000000e+00	 9.969776e+00
3	 2.416667e+00	 8.083333e+00	 9.971821e+00
3	 2.416667e+00	 8.166667e+00	 9.973829e+00
3	 2.416667e+00	 8.250000e+00	 9.975808e+00
3	 2.416667e+00	 8.333333e+00	 9.977763e+00
3	 2.500000e+00	 7.916667e+00	 9.972286e+00
3	 2.500000e+00	 8.000000e+00	 9.974043e+00
3	 2.500000e+00	 8.083333e+00	 9.975769e+00
3	 2.500000e+00	 8.166667e+00	 9.977471e+00
3	 2.500000e+00	 8.250000e+00	 9.979155e+00
3	 2.500000e+00	 8.333333e+00	 9.980826e+00
3	 2.083333e+00	 8.333333e+00	 9.965368e+00
3	 2.083333e+00	 8.416667e+00	 9.968381e+00
3	 2.083333e+00	 8.500000e+00	 9.971275e+00
3	 2.083333e+00	 8.583333e+00	 9.974057e+00
3	 2.083333e+00	 8.666667e+00	 9.976736e+00
3	 2.083333e+00	 8.750000e+00	 9.979317e+00
3	 2.166667e+00	 8.333333e+00	 9.968455e+00
3	 2.166667e+00	 8.416667e+00	 9.971191e+00
3	 2.166667e+00	 8.500000e+00	 9.973821e+00
3	 2.166667e+00	 8.583333e+00	 9.976352e+00
3	 2.166667e+00	 8.666667e+00	 9.978790e+00
3	 2.166667e+00	 8.750000e+00	 9.981142e+00
3	 2.250000e+00	 8.333333e+00	 9.971561e+00
3	 2.250000e+00	 8.416667e+00	 9.974020e+00
3	 2.250000e+00	 8.500000e+00	 9.976386e+00
3	 2.250000e+00	 8.583333e+00	 9.978664e+00
3	 2.250000e+00	 8.666667e+00	 9.980861e+00
3	 2.250000e+00	 8.750000e+00	 9.982983e+00
3	 2.333333e+00	 8.333333e+00	 9.974669e+00
3	 2.333333e+00	 8.416667e+00	 9.976852e+00
3	 2.333333e+00	 8.500000e+00	 9.978954e+00
3	 2.333333e+00	 8.583333e+00	 9.980979e+00
3	 2.333333e+00	 8.666667e+00	 9.982936e+00
3	 2.333333e+00	 8.750000e+00	 9.984828e+00
3	 2.416667e+00	 8.333333e+00	 9.977763e+00
3	 2.416667e+00	 8.416667e+00	 9.979672e+00
3	 2.416667e+00	 8.500000e+00	 9.981510e+00
3	 2.416667e+00	 8.583333e+00	 9.983285e+00
3	 2.416667e+00	 8.666667e+00	 9.985001e+00
3	 2.416667e+00	 8.750000e+00	 9.986664e+00
3	 2.500000e+00	 8.333333e+00	 9.980826e+00
3	 2.500000e+00	 8.416667e+00	 9.982462e+00
3	 2.500000e+00	 8.500000e+00	 9.984039e+00
3	 2.500000e+00	 8.583333e+00	 9.985565e+00
3	 2.500000e+00	 8.666667e+00	 9.987043e+00
3	 2.500000e+00	 8.750000e+00	 9.988479e+00
3	 2.083333e+00	 8.750000e+00	 9.979317e+00
3	 2.083333e+00	 8.833333e+00	 9.981777e+00
3	 2.083333e+00	 8.916667e+00	 9.984091e+00
3	 2.083333e+00	 9.000000e+00	 9.986267e+00
3	 2.083333e+00	 9.083333e+00	 9.988313e+00
3	 2.083333e+00	 9.166667e+00	 9.990237e+00
3	 2.166667e+00	 8.750000e+00	 9.981142e+00
3	 2.166667e+00	 8.833333e+00	 9.983385e+00
3	 2.166667e+00	 8.916667e+00	 9.985494e+00
3	 2.166667e+00	 9.000000e+00	 9.987479e+00
3	 2.166667e+00	 9.083333e+00	 9.989344e+00
3	 2.166667e+00	 9.166667e+00	 9.991099e+00
3	 2.250000e+00	 8.750000e+00	 9.982983e+00
3	 2.250000e+00	 8.833333e+00	 9.985008e+00
3	 2.250000e+00	 8.916667e+00	 9.986913e+00
3	 2.250000e+00	 9.000000e+00	 9.988705e+00
3	 2.250000e+00	 9.083333e+00	 9.990390e+00
3	 2.250000e+00	 9.166667e+00	 9.991975e+00
3	 2.333333e+00	 8.750000e+00	 9.984828e+00
3	 2.333333e+00	 8.833333e+00	 9.986635e+00
3	 2.333333e+00	 8.916667e+00	 9.988336e+00
3	 2.333333e+00	 9.000000e+00	 9.989935e+00
3	 2.333333e+00	 9.083333e+00	 9.991440e+00
3	 2.333333e+00	 9.166667e+00	 9.992855e+00
3	 2.416667e+00	 8.750000e+00	 9.986664e+00
3	 2.416667e+00	 8.833333e+00	 9.988255e+00
3	 2.416667e+00	 8.916667e+00	 9.989751e+00
3	 2.416667e+00	 9.000000e+00	 9.991158e+00
3	 2.416667e+00	 9.083333e+00	 9.992483e+00
3	 2.416667e+00	 9.166667e+00	 9.993729e+00
3	 2.500000e+00	 8.750000e+00	 9.988479e+00
3	 2.500000e+00	 8.833333e+00	 9.989854e+00
3	 2.500000e+00	 8.916667e+00	 9.991147e+00
3	 2.500000e+00	 9.000000e+00	 9.992364e+00
3	 2.500000e+00	 9.083333e+00	 9.993509e+00
3	 2.500000e+00	 9.166667e+00	 9.994588e+00
3	 2.083333e+00	 9.166667e+00	 9.990237e+00
3	 2.083333e+00	 9.250000e+00	 9.992010e+00
3	 2.083333e+00	 9.333333e+00	 9.993604e+00
3	 2.083333e+00	 9.416667e+00	 9.995028e+00
3	 2.083333e+00	 9.500000e+00	 9.996292e+00
3	 2.083333e+00	 9.583333e+00	 9.997403e+00
3	 2.166667e+00	 9.166667e+00	 9.991099e+00
3	 2.166667e+00	 9.250000e+00	 9.992716e+00
3	 2.166667e+00	 9.333333e+00	 9.994170e+00
3	 2.166667e+00	 9.416667e+00	 9.995468e+00
3	 2.166667e+00	 9.500000e+00	 9.996619e+00
3	 2.166667e+00	 9.583333e+00	 9.997630e+00
3	 2.250000e+00	 9.166667e+00	 9.991975e+00
3	 2.250000e+00	 9.250000e+00	 9.993436e+00
3	 2.250000e+00	 9.333333e+00	 9.994750e+00
3	 2.250000e+00	 9.416667e+00	 9.995922e+00
3	 2.250000e+00	 9.500000e+00	 9.996960e+00
3	 2.250000e+00	 9.583333e+00	 9.997871e+00
3	 2.333333e+00	 9.166667e+00	 9.992855e+00
3	 2.333333e+00	 9.250000e+00	 9.994161e+00
3	 2.333333e+00	 9.333333e+00	 9.995333e+00
3	 2.333333e+00	 9.416667e+00	 9.996379e+00
3	 2.333333e+00	 9.500000e+00	 9.997305e+00
3	 2.333333e+00	 9.583333e+00	 9.998116e+00
3	 2.416667e+00	 9.166667e+00	 9.993729e+00
3	 2.416667e+00	 9.250000e+00	 9.994879e+00
3	 2.416667e+00	 9.333333e+00	 9.995911e+00
3	 2.416667e+00	 9.416667e+00	 9.996831e+00
3	 2.416667e+00	 9.500000e+00	 9.997644e+00
3	 2.416667e+00	 9.583333e+00	 9.998356e+00
3	 2.500000e+00	 9.166667e+00	 9.994588e+00
3	 2.500000e+00	 9.250000e+00	 9.995582e+00
3	 2.500000e+00	 9.333333e+00	 9.996474e+00
3	 2.500000e+00	 9.416667e+00	 9.997269e+00
3	 2.500000e+00	 9.500000e+00	 9.997970e+00
3	 2.500000e+00	 9.583333e+00	 9.998582e+00
3	 2.083333e+00	 9.583333e+00	 9.997403e+00
3	 2.083333e+00	 9.666667e+00	 9.998332e+00
3	 2.083333e+00	 9.750000e+00	 9.999048e+00
3	 2.083333e+00	 9.833333e+00	 9.999562e+00
3	 2.083333e+00	 9.916667e+00	 9.999883e+00
3	 2.083333e+00	 1.000000e+01	 1.000002e+01
3	 2.166667e+00	 9.583333e+00	 9.997630e+00
3	 2.166667e+00	 9.666667e+00	 9.998475e+00
3	 2.166667e+00	 9.750000e+00	 9.999126e+00
3	 2.166667e+00	 9.833333e+00	 9.999593e+00
3	 2.166667e+00	 9.916667e+00	 9.999884e+00
3	 2.166667e+00	 1.000000e+01	 1.000001e+01
3	 2.250000e+00	 9.583333e+00	 9.997871e+00
3	 2.250000e+00	 9.666667e+00	 9.998632e+00
3	 2.250000e+00	 9.750000e+00	 9.999219e+00
3	 2.250000e+00	 9.833333e+00	 9.999639e+00
3	 2.250000e+00	 9.916667e+00	 9.999900e+00
3	 2.250000e+00	 1.000000e+01	 1.000001e+01
3	 2.333333e+00	 9.583333e+00	 9.998116e+00
3	 2.333333e+00	 9.666667e+00	 9.998793e+00
3	 2.333333e+00	 9.750000e+00	 9.999316e+00
3	 2.333333e+00	 9.833333e+00	 9.999690e+00
3	 2.333333e+00	 9.916667e+00	 9.999922e+00
3	 2.333333e+00	 1.000000e+01	 1.000002e+01
3	 2.416667e+00	 9.583333e+00	 9.998356e+00
3	 2.416667e+00	 9.666667e+00	 9.998950e+00
3	 2.416667e+00	 9.750000e+00	 9.999408e+00
3	 2.416667e+00	 9.833333e+00	 9.999736e+00
3	 2.416667e+00	 9.916667e+00	 9.999939e+00
3	 2.416667e+00	 1.000000e+01	 1.000002e+01
3	 2.500000e+00	 9.583333e+00	 9.998582e+00
3	 2.500000e+00	 9.666667e+00	 9.999092e+00
3	 2.500000e+00	 9.750000e+00	 9.999486e+00
3	 2.500000e+00	 9.833333e+00	 9.999768e+00
3	 2.500000e+00	 9.916667e+00	 9.999940e+00
3	 2.500000e+00	 1.000000e+01	 1.000001e+01
3	 2.500000e+00	 5.000000e+00	 9.996666e+00
3	 2.500000e+00	 5.083333e+00	 9.989589e+00
3	 2.500000e+00	 5.166667e+00	 9.983150e+00
3	 2.500000e+00	 5.250000e+00	 9.977371e+00
3	 2.500000e+00	 5.333333e+00	 9.972277e+00
3	 2.500000e+00	 5.416667e+00	 9.967892e+00
3	 2.583333e+00	 5.000000e+00	 1.002238e+01
3	 2.583333e+00	 5.083333e+00	 1.001440e+01
3	 2.583333e+00	 5.166667e+00	 1.000707e+01
3	 2.583333e+00	 5.250000e+00	 1.000042e+01
3	 2.583333e+00	 5.333333e+00	 9.994471e+00
3	 2.583333e+00	 5.416667e+00	 9.989243e+00
3	 2.666667e+00	 5.000000e+00	 1.004691e+01
3	 2.666667e+00	 5.083333e+00	 1.003811e+01
3	 2.666667e+00	 5.166667e+00	 1.002998e+01
3	 2.666667e+00	 5.250000e+00	 1.002255e+01
3	 2.666667e+00	 5.333333e+00	 1.001582e+01
3	 2.666667e+00	 5.416667e+00	 1.000981e+01
3	 2.750000e+00	 5.000000e+00	 1.007023e+01
3	 2.750000e+00	 5.083333e+00	 1.006071e+01
3	 2.750000e+00	 5.166667e+00	 1.005186e+01
3	 2.750000e+00	 5.250000e+00	 1.004371e+01
3	 2.750000e+00	 5.333333e+00	 1.003627e+01
3	 2.750000e+00	 5.416667e+00	 1.002956e+01
3	 2.833333e+00	 5.000000e+00	 1.009231e+01
3	 2.833333e+00	 5.083333e+00	 1.008215e+01
3	 2.833333e+00	 5.166667e+00	 1.007267e+01
3	 2.833333e+00	 5.250000e+00	 1.006388e+01
3	 2.833333e+00	 5.333333e+00	 1.005580e+01
3	 2.833333e+00	 5.416667e+00	 1.004844e+01
3	 2.916667e+00	 5.000000e+00	 1.011314e+01
3	 2.916667e+00	 5.083333e+00	 1.010241e+01
3	 2.916667e+00	 5.166667e+00	 1.009236e+01
3	 2.916667e+00	 5.250000e+00	 1.008301e+01
3	 2.916667e+00	 5.333333e+00	 1.007435e+01
3	 2.916667e+00	 5.416667e+00	 1.006642e+01
3	 2.500000e+00	 5.416667e+00	 9.967892e+00
3	 2.500000e+00	 5.500000e+00	 9.964082e+00
3	 2.500000e+00	 5.583333e+00	 9.960712e+00
3	 2.500000e+00	 5.666667e+00	 9.957800e+00
3	 2.500000e+00	 5.750000e+00	 9.955367e+00
3	 2.500000e+00	 5.833333e+00	 9.953432e+00
3	 2.583333e+00	 5.416667e+00	 9.989243e+00
3	 2.583333e+00	 5.500000e+00	 9.984607e+00
3	 2.583333e+00	 5.583333e+00	 9.980432e+00
3	 2.583333e+00	 5.666667e+00	 9.976736e+00
3	 2.583333e+00	 5.750000e+00	 9.973538e+00
3	 2.583333e+00	 5.833333e+00	 9.970856e+00
3	 2.666667e+00	 5.416667e+00	 1.000981e+01
3	 2.666667e+00	 5.500000e+00	 1.000442e+01
3	 2.666667e+00	 5.583333e+00	 9.999495e+00
3	 2.666667e+00	 5.666667e+00	 9.995069e+00
3	 2.666667e+00	 5.750000e+00	 9.991155e+00
3	 2.666667e+00	 5.833333e+00	 9.987772e+00
3	 2.750000e+00	 5.416667e+00	 1.002956e+01
3	 2.750000e+00	 5.500000e+00	 1.002346e+01
3	 2.750000e+00	 5.583333e+00	 1.001785e+01
3	 2.750000e+00	 5.666667e+00	 1.001275e+01
3	 2.750000e+00	 5.750000e+00	 1.000817e+01
3	 2.750000e+00	 5.833333e+00	 1.000413e+01
3	 2.833333e+00	 5.416667e+00	 1.004844e+01
3	 2.833333e+00	 5.500000e+00	 1.004170e+01
3	 2.833333e+00	 5.583333e+00	 1.003546e+01
3	 2.833333e+00	 5.666667e+00	 1.002974e+01
3	 2.833333e+00	 5.750000e+00	 1.002455e+01
3	 2.833333e+00	 5.833333e+00	 1.001990e+01
3	 2.916667e+00	 5.416667e+00	 1.006642e+01
3	 2.916667e+00	 5.500000e+00	 1.005910e+01
3	 2.916667e+00	 5.583333e+00	 1.005228e+01
3	 2.916667e+00	 5.666667e+00	 1.004599e+01
3	 2.916667e+00	 5.750000e+00	 1.004023e+01
3	 2.916667e+00	 5.833333e+00	 1.003501e+01
3	 2.500000e+00	 5.833333e+00	 9.953432e+00
3	 2.500000e+00	 5.916667e+00	 9.951889e+00
3	 2.500000e+00	 6.000000e+00	 9.950631e+00
3	 2.500000e+00	 6.083333e+00	 9.949673e+00
3	 2.500000e+00	 6.166667e+00	 9.949030e+00
3	 2.500000e+00	 6.250000e+00	 9.948718e+00
3	 2.583333e+00	 5.833333e+00	 9.970856e+00
3	 2.583333e+00	 5.916667e+00	 9.968586e+00
3	 2.583333e+00	 6.000000e+00	 9.966621e+00
3	 2.583333e+00	 6.083333e+00	 9.964976e+00
3	 2.583333e+00	 6.166667e+00	 9.963666e+00
3	 2.583333e+00	 6.250000e+00	 9.962707e+00
3	 2.666667e+00	 5.833333e+00	 9.987772e+00
3	 2.666667e+00	 5.916667e+00	 9.984816e+00
3	 2.666667e+00	 6.000000e+00	 9.982183e+00
3	 2.666667e+00	 6.083333e+00	 9.979888e+00
3	 2.666667e+00	 6.166667e+00	 9.977945e+00
3	 2.666667e+00	 6.250000e+00	 9.976369e+00
3	 2.750000e+00	 5.833333e+00	 1.000413e+01
3	 2.750000e+00	 5.916667e+00	 1.000053e+01
3	 2.750000e+00	 6.000000e+00	 9.997274e+00
3	 2.750000e+00	 6.083333e+00	 9.994366e+00
3	 2.750000e+00	 6.166667e+00	 9.991823e+00
3	 2.750000e+00	 6.250000e+00	 9.989661e+00
3	 2.833333e+00	 5.833333e+00	 1.001990e+01
3	 2.833333e+00	 5.916667e+00	 1.001570e+01
3	 2.833333e+00	 6.000000e+00	 1.001185e+01
3	 2.833333e+00	 6.083333e+00	 1.000836e+01
3	 2.833333e+00	 6.166667e+00	 1.000526e+01
3	 2.833333e+00	 6.250000e+00	 1.000254e+01
3	 2.916667e+00	 5.833333e+00	 1.003501e+01
3	 2.916667e+00	 5.916667e+00	 1.003026e+01
3	 2.916667e+00	 6.000000e+00	 1.002586e+01
3	 2.916667e+00	 6.083333e+00	 1.002184e+01
3	 2.916667e+00	 6.166667e+00	 1.001820e+01
3	 2.916667e+00	 6.250000e+00	 1.001496e+01
3	 2.500000e+00	 6.250000e+00	 9.948718e+00
3	 2.500000e+00	 6.333333e+00	 9.948662e+00
3	 2.500000e+00	 6.416667e+00	 9.948785e+00
3	 2.500000e+00	 6.500000e+00	 9.949098e+00
3	 2.500000e+00	 6.583333e+00	 9.949614e+00
3	 2.500000e+00	 6.666667e+00	 9.950346e+00
3	 2.583333e+00	 6.250000e+00	 9.962707e+00
3	 2.583333e+00	 6.333333e+00	 9.962022e+00
3	 2.583333e+00	 6.416667e+00	 9.961535e+00
3	 2.583333e+00	 6.500000e+00	 9.961257e+00
3	 2.583333e+00	 6.583333e+00	 9.961201e+00
3	 2.583333e+00	 6.666667e+00	 9.961378e+00
3	 2.666667e+00	 6.250000e+00	 9.976369e+00
3	 2.666667e+00	 6.333333e+00	 9.975083e+00
3	 2.666667e+00	 6.416667e+00	 9.974012e+00
3	 2.666667e+00	 6.500000e+00	 9.973167e+00
3	 2.666667e+00	 6.583333e+00	 9.972560e+00
3	 2.666667e+00	 6.666667e+00	 9.972202e+00
3	 2.750000e+00	 6.250000e+00	 9.989661e+00
3	 2.750000e+00	 6.333333e+00	 9.987804e+00
3	 2.750000e+00	 6.416667e+00	 9.986176e+00
3	 2.750000e+00	 6.500000e+00	 9.984789e+00
3	 2.750000e+00	 6.583333e+00	 9.983653e+00
3	 2.750000e+00	 6.666667e+00	 9.982781e+00
3	 2.833333e+00	 6.250000e+00	 1.000254e+01
3	 2.833333e+00	 6.333333e+00	 1.000014e+01
3	 2.833333e+00	 6.416667e+00	 9.997985e+00
3	 2.833333e+00	 6.500000e+00	 9.996081e+00
3	 2.833333e+00	 6.583333e+00	 9.994443e+00
3	 2.833333e+00	 6.666667e+00	 9.993079e+00
3	 2.916667e+00	 6.250000e+00	 1.001496e+01
3	 2.916667e+00	 6.333333e+00	 1.001205e+01
3	 2.916667e+00	 6.416667e+00	 1.000940e+01
3	 2.916667e+00	 6.500000e+00	 1.000701e+01
3	 2.916667e+00	 6.583333e+00	 1.000489e+01
3	 2.916667e+00	 6.666667e+00	 1.000306e+01
3	 2.500000e+00	 6.666667e+00	 9.950346e+00
3	 2.500000e+00	 6.750000e+00	 9.951237e+00
3	 2.500000e+00	 6.833333e+00	 9.952228e+00
3	 2.500000e+00	 6.916667e+00	 9.953331e+00
3	 2.500000e+00	 7.000000e+00	 9.954554e+00
3	 2.500000e+00	 7.083333e+00	 9.955908e+00
3	 2.583333e+00	 6.666667e+00	 9.961378e+00
3	 2.583333e+00	 6.750000e+00	 9.961731e+00
3	 2.583333e+00	 6.833333e+00	 9.962201e+00
3	 2.583333e+00	 6.916667e+00	 9.962799e+00
3	 2.583333e+00	 7.000000e+00	 9.963534e+00
3	 2.583333e+00	 7.083333e+00	 9.964415e+00
3	 2.666667e+00	 6.666667e+00	 9.972202e+00
3	 2.666667e+00	 6.750000e+00	 9.972035e+00
3	 2.666667e+00	 6.833333e+00	 9.972002e+00
3	 2.666667e+00	 6.916667e+00	 9.972111e+00
3	 2.666667e+00	 7.000000e+00	 9.972371e+00
3	 2.666667e+00	 7.083333e+00	 9.972792e+00
3	 2.750000e+00	 6.666667e+00	 9.982781e+00
3	 2.750000e+00	 6.750000e+00	 9.982115e+00
3	 2.750000e+00	 6.833333e+00	 9.981595e+00
3	 2.750000e+00	 6.916667e+00	 9.981232e+00
3	 2.750000e+00	 7.000000e+00	 9.981033e+00
3	 2.750000e+00	 7.083333e+00	 9.981009e+00
3	 2.833333e+00	 6.666667e+00	 9.993079e+00
3	 2.833333e+00	 6.750000e+00	 9.991934e+00
3	 2.833333e+00	 6.833333e+00	 9.990947e+00
3	 2.833333e+00	 6.916667e+00	 9.990130e+00
3	 2.833333e+00	 7.000000e+00	 9.989489e+00
3	 2.833333e+00	 7.083333e+00	 9.989035e+00
3	 2.916667e+00	 6.666667e+00	 1.000306e+01
3	 2.916667e+00	 6.750000e+00	 1.000146e+01
3	 2.916667e+00	 6.833333e+00	 1.000002e+01
3	 2.916667e+00	 6.916667e+00	 9.998772e+00
3	 2.916667e+00	 7.000000e+00	 9.997708e+00
3	 2.916667e+00	 7.083333e+00	 9.996840e+00
3	 2.500000e+00	 7.083333e+00	 9.955908e+00
3	 2.500000e+00	 7.166667e+00	 9.957350e+00
3	 2.500000e+00	 7.250000e+00	 9.958837e+00
3	 2.500000e+00	 7.333333e+00	 9.960378e+00
3	 2.500000e+00	 7.416667e+00	 9.961980e+00
3	 2.500000e+00	 7.500000e+00	 9.963651e+00
3	 2.583333e+00	 7.083333e+00	 9.964415e+00
3	 2.583333e+00	 7.166667e+00	 9.965399e+00
3	 2.583333e+00	 7.250000e+00	 9.966444e+00
3	 2.583333e+00	 7.333333e+00	 9.967555e+00
3	 2.583333e+00	 7.416667e+00	 9.968743e+00
3	 2.583333e+00	 7.500000e+00	 9.970013e+00
3	 2.666667e+00	 7.083333e+00	 9.972792e+00
3	 2.666667e+00	 7.166667e+00	 9.973331e+00
3	 2.666667e+00	 7.250000e+00	 9.973943e+00
3	 2.666667e+00	 7.333333e+00	 9.974636e+00
3	 2.666667e+00	 7.416667e+00	 9.975418e+00
3	 2.666667e+00	 7.500000e+00	 9.976295e+00
3	 2.750000e+00	 7.083333e+00	 9.981009e+00
3	 2.750000e+00	 7.166667e+00	 9.981116e+00
3	 2.750000e+00	 7.250000e+00	 9.981308e+00
3	 2.750000e+00	 7.333333e+00	 9.981594e+00
3	 2.750000e+00	 7.416667e+00	 9.981980e+00
3	 2.750000e+00	 7.500000e+00	 9.982475e+00
3	 2.833333e+00	 7.083333e+00	 9.989035e+00
3	 2.833333e+00	 7.166667e+00	 9.988724e+00
3	 2.833333e+00	 7.250000e+00	 9.988510e+00
3	 2.833333e+00	 7.333333e+00	 9.988401e+00
3	 2.833333e+00	 7.416667e+00	 9.988404e+00
3	 2.833333e+00	 7.500000e+00	 9.988526e+00
3	 2.916667e+00	 7.083333e+00	 9.996840e+00
3	 2.916667e+00	 7.166667e+00	 9.996127e+00
3	 2.916667e+00	 7.250000e+00	 9.995521e+00
3	 2.916667e+00	 7.333333e+00	 9.995031e+00
3	 2.916667e+00	 7.416667e+00	 9.994663e+00
3	 2.916667e+00	 7.500000e+00	 9.994426e+00
3	 2.500000e+00	 7.500000e+00	 9.963651e+00
3	 2.500000e+00	 7.583333e+00	 9.965359e+00
3	 2.500000e+00	 7.666667e+00	 9.967069e+00
3	 2.500000e+00	 7.750000e+00	 9.968790e+00
3	 2.500000e+00	 7.833333e+00	 9.970526e+00
3	 2.500000e+00	 7.916667e+00	 9.972286e+00
3	 2.583333e+00	 7.500000e+00	 9.970013e+00
3	 2.583333e+00	 7.583333e+00	 9.971333e+00
3	 2.583333e+00	 7.666667e+00	 9.972669e+00
3	 2.583333e+00	 7.750000e+00	 9.974026e+00
3	 2.583333e+00	 7.833333e+00	 9.975413e+00
3	 2.583333e+00	 7.916667e+00	 9.976835e+00
3	 2.666667e+00	 7.500000e+00	 9.976295e+00
3	 2.666667e+00	 7.583333e+00	 9.977236e+00
3	 2.666667e+00	 7.666667e+00	 9.978203e+00
3	 2.666667e+00	 7.750000e+00	 9.979205e+00
3	 2.666667e+00	 7.833333e+00	 9.980248e+00
3	 2.666667e+00	 7.916667e+00	 9.981337e+00
3	 2.750000e+00	 7.500000e+00	 9.982475e+00
3	 2.750000e+00	 7.583333e+00	 9.983044e+00
3	 2.750000e+00	 7.666667e+00	 9.983652e+00
3	 2.750000e+00	 7.750000e+00	 9.984306e+00
3	 2.750000e+00	 7.833333e+00	 9.985011e+00
3	 2.750000e+00	 7.916667e+00	 9.985775e+00
3	 2.833333e+00	 7.500000e+00	 9.988526e+00
3	 2.833333e+00	 7.583333e+00	 9.988734e+00
3	 2.833333e+00	 7.666667e+00	 9.988992e+00
3	 2.833333e+00	 7.750000e+00	 9.989306e+00
3	 2.833333e+00	 7.833333e+00	 9.989683e+00
3	 2.833333e+00	 7.916667e+00	 9.990128e+00
3	 2.916667e+00	 7.500000e+00	 9.994426e+00
3	 2.916667e+00	 7.583333e+00	 9.994283e+00
3	 2.916667e+00	 7.666667e+00	 9.994202e+00
3	 2.916667e+00	 7.750000e+00	 9.994187e+00
3	 2.916667e+00	 7.833333e+00	 9.994244e+00
3	 2.916667e+00	 7.916667e+00	 9.994379e+00
3	 2.500000e+00	 7.916667e+00	 9.972286e+00
3	 2.500000e+00	 8.000000e+00	 9.974043e+00
3	 2.500000e+00	 8.083333e+00	 9.975769e+00
3	 2.500000e+00	 8.166667e+00	 9.977471e+00
3	 2.500000e+00	 8.250000e+00	 9.979155e+00
3	 2.500000e+00	 8.333333e+00	 9.980826e+00
3	 2.583333e+00	 7.916667e+00	 9.976835e+00
3	 2.583333e+00	 8.000000e+00	 9.978266e+00
3	 2.583333e+00	 8.083333e+00	 9.979678e+00
3	 2.583333e+00	 8.166667e+00	 9.981077e+00
3	 2.583333e+00	 8.250000e+00	 9.982468e+00
3	 2.583333e+00	 8.333333e+00	 9.983859e+00
3	 2.666667e+00	 7.916667e+00	 9.981337e+00
3	 2.666667e+00	 8.000000e+00	 9.982447e+00
3	 2.666667e+00	 8.083333e+00	 9.983549e+00
3	 2.666667e+00	 8.166667e+00	 9.984650e+00
3	 2.666667e+00	 8.250000e+00	 9.985754e+00
3	 2.666667e+00	 8.333333e+00	 9.986867e+00
3	 2.750000e+00	 7.916667e+00	 9.985775e+00
3	 2.750000e+00	 8.000000e+00	 9.986569e+00
3	 2.750000e+00	 8.083333e+00	 9.987368e+00
3	 2.750000e+00	 8.166667e+00	 9.988175e+00
3	 2.750000e+00	 8.250000e+00	 9.988996e+00
3	 2.750000e+00	 8.333333e+00	 9.989837e+00
3	 2.833333e+00	 7.916667e+00	 9.990128e+00
3	 2.833333e+00	 8.000000e+00	 9.990615e+00
3	 2.833333e+00	 8.083333e+00	 9.991116e+00
3	 2.833333e+00	 8.166667e+00	 9.991636e+00
3	 2.833333e+00	 8.250000e+00	 9.992180e+00
3	 2.833333e+00	 8.333333e+00	 9.992753e+00
3	 2.916667e+00	 7.916667e+00	 9.994379e+00
3	 2.916667e+00	 8.000000e+00	 9.994565e+00
3	 2.916667e+00	 8.083333e+00	 9.994776e+00
3	 2.916667e+00	 8.166667e+00	 9.995016e+00
3	 2.916667e+00	 8.250000e+00	 9.995290e+00
3	 2.916667e+00	 8.333333e+00	 9.995602e+00
3	 2.500000e+00	 8.333333e+00	 9.980826e+00
3	 2.500000e+00	 8.416667e+00	 9.982462e+00
3	 2.500000e+00	 8.500000e+00	 9.984039e+00
3	 2.500000e+00	 8.583333e+00	 9.985565e+00
3	 2.500000e+00	 8.666667e+00	 9.987043e+00
3	 2.500000e+00	 8.750000e+00	 9.988479e+00
3	 2.583333e+00	 8.333333e+00	 9.983859e+00
3	 2.583333e+00	 8.416667e+00	 9.985225e+00
3	 2.583333e+00	 8.500000e+00	 9.986545e+00
3	 2.583333e+00	 8.583333e+00	 9.987824e+00
3	 2.583333e+00	 8.666667e+00	 9.989067e+00
3	 2.583333e+00	 8.750000e+00	 9.990278e+00
3	 2.666667e+00	 8.333333e+00	 9.986867e+00
3	 2.666667e+00	 8.416667e+00	 9.987968e+00
3	 2.666667e+00	 8.500000e+00	 9.989033e+00
3	 2.666667e+00	 8.583333e+00	 9.990069e+00
3	 2.666667e+00	 8.666667e+00	 9.991078e+00
3	 2.666667e+00	 8.750000e+00	 9.992067e+00
3	 2.750000e+00	 8.333333e+00	 9.989837e+00
3	 2.750000e+00	 8.416667e+00	 9.990676e+00
3	 2.750000e+00	 8.500000e+00	 9.991491e+00
3	 2.750000e+00	 8.583333e+00	 9.992286e+00
3	 2.750000e+00	 8.666667e+00	 9.993066e+00
3	 2.750000e+00	 8.750000e+00	 9.993835e+00
3	 2.833333e+00	 8.333333e+00	 9.992753e+00
3	 2.833333e+00	 8.416667e+00	 9.993335e+00
3	 2.833333e+00	 8.500000e+00	 9.993904e+00
3	 2.833333e+00	 8.583333e+00	 9.994464e+00
3	 2.833333e+00	 8.666667e+00	 9.995019e+00
3	 2.833333e+00	 8.750000e+00	 9.995572e+00
3	 2.916667e+00	 8.333333e+00	 9.995602e+00
3	 2.916667e+00	 8.416667e+00	 9.995933e+00
3	 2.916667e+00	 8.500000e+00	 9.996261e+00
3	 2.916667e+00	 8.583333e+00	 9.996590e+00
3	 2.916667e+00	 8.666667e+00	 9.996924e+00
3	 2.916667e+00	 8.750000e+00	 9.997266e+00
3	 2.500000e+00	 8.750000e+00	 9.988479e+00
3	 2.500000e+00	 8.833333e+00	 9.989854e+00
3	 2.500000e+00	 8.916667e+00	 9.991147e+00
3	 2.500000e+00	 9.000000e+00	 9.992364e+00
3	 2.500000e+00	 9.083333e+00	 9.993509e+00
3	 2.500000e+00	 9.166667e+00	 9.994588e+00
3	 2.583333e+00	 8.750000e+00	 9.990278e+00
3	 2.583333e+00	 8.833333e+00	 9.991439e+00
3	 2.583333e+00	 8.916667e+00	 9.992531e+00
3	 2.583333e+00	 9.000000e+00	 9.993559e+00
3	 2.583333e+00	 9.083333e+00	 9.994526e+00
3	 2.583333e+00	 9.166667e+00	 9.995438e+00
3	 2.666667e+00	 8.750000e+00	 9.992067e+00
3	 2.666667e+00	 8.833333e+00	 9.993017e+00
3	 2.666667e+00	 8.916667e+00	 9.993910e+00
3	 2.666667e+00	 9.000000e+00	 9.994751e+00
3	 2.666667e+00	 9.083333e+00	 9.995543e+00
3	 2.666667e+00	 9.166667e+00	 9.996290e+00
3	 2.750000e+00	 8.750000e+00	 9.993835e+00
3	 2.750000e+00	 8.833333e+00	 9.994577e+00
3	 2.750000e+00	 8.916667e+00	 9.995274e+00
3	 2.750000e+00	 9.000000e+00	 9.995931e+00
3	 2.750000e+00	 9.083333e+00	 9.996550e+00
3	 2.750000e+00	 9.166667e+00	 9.997134e+00
3	 2.833333e+00	 8.750000e+00	 9.995572e+00
3	 2.833333e+00	 8.833333e+00	 9.996109e+00
3	 2.833333e+00	 8.916667e+00	 9.996613e+00
3	 2.833333e+00	 9.000000e+00	 9.997089e+00
3	 2.833333e+00	 9.083333e+00	 9.997537e+00
3	 2.833333e+00	 9.166667e+00	 9.997961e+00
3	 2.916667e+00	 8.750000e+00	 9.997266e+00
3	 2.916667e+00	 8.833333e+00	 9.997602e+00
3	 2.916667e+00	 8.916667e+00	 9.997917e+00
3	 2.916667e+00	 9.000000e+00	 9.998215e+00
3	 2.916667e+00	 9.083333e+00	 9.998496e+00
3	 2.916667e+00	 9.166667e+00	 9.998763e+00
3	 2.500000e+00	 9.166667e+00	 9.994588e+00
3	 2.500000e+00	 9.250000e+00	 9.995582e+00
3	 2.500000e+00	 9.333333e+00	 9.996474e+00
3	 2.500000e+00	 9.416667e+00	 9.997269e+00
3	 2.500000e+00	 9.500000e+00	 9.997970e+00
3	 2.500000e+00	 9.583333e+00	 9.998582e+00
3	 2.583333e+00	 9.166667e+00	 9.995438e+00
3	 2.583333e+00	 9.250000e+00	 9.996279e+00
3	 2.583333e+00	 9.333333e+00	 9.997032e+00
3	 2.583333e+00	 9.416667e+00	 9.997702e+00
3	 2.583333e+00	 9.500000e+00	 9.998292e+00
3	 2.583333e+00	 9.583333e+00	 9.998806e+00
3	 2.666667e+00	 9.166667e+00	 9.996290e+00
3	 2.666667e+00	 9.250000e+00	 9.996979e+00
3	 2.666667e+00	 9.333333e+00	 9.997595e+00
3	 2.666667e+00	 9.416667e+00	 9.998143e+00
3	 2.666667e+00	 9.500000e+00	 9.998623e+00
3	 2.666667e+00	 9.583333e+00	 9.999039e+00
3	 2.750000e+00	 9.166667e+00	 9.997134e+00
3	 2.750000e+00	 9.250000e+00	 9.997673e+00
3	 2.750000e+00	 9.333333e+00	 9.998155e+00
3	 2.750000e+00	 9.416667e+00	 9.998581e+00
3	 2.750000e+00	 9.500000e+00	 9.998953e+00
3	 2.750000e+00	 9.583333e+00	 9.999274e+00
3	 2.833333e+00	 9.166667e+00	 9.997961e+00
3	 2.833333e+00	 9.250000e+00	 9.998353e+00
3	 2.833333e+00	 9.333333e+00	 9.998701e+00
3	 2.833333e+00	 9.416667e+00	 9.999009e+00
3	 2.833333e+00	 9.500000e+00	 9.999275e+00
3	 2.833333e+00	 9.583333e+00	 9.999501e+00
3	 2.916667e+00	 9.166667e+00	 9.998763e+00
3	 2.916667e+00	 9.250000e+00	 9.999009e+00
3	 2.916667e+00	 9.333333e+00	 9.999227e+00
3	 2.916667e+00	 9.416667e+00	 9.999417e+00
3	 2.916667e+00	 9.500000e+00	 9.999579e+00
3	 2.916667e+00	 9.583333e+00	 9.999712e+00
3	 2.500000e+00	 9.583333e+00	 9.998582e+00
3	 2.500000e+00	 9.666667e+00	 9.999092e+00
3	 2.500000e+00	 9.750000e+00	 9.999486e+00
3	 2.500000e+00	 9.833333e+00	 9.999768e+00
3	 2.500000e+00	 9.916667e+00	 9.999940e+00
3	 2.500000e+00	 1.000000e+01	 1.000001e+01
3	 2.583333e+00	 9.583333e+00	 9.998806e+00
3	 2.583333e+00	 9.666667e+00	 9.999233e+00
3	 2.583333e+00	 9.750000e+00	 9.999563e+00
3	 2.583333e+00	 9.833333e+00	 9.999798e+00
3	 2.583333e+00	 9.916667e+00	 9.999940e+00
3	 2.583333e+00	 1.000000e+01	 9.999992e+00
3	 2.666667e+00	 9.583333e+00	 9.999039e+00
3	 2.666667e+00	 9.666667e+00	 9.999385e+00
3	 2.666667e+00	 9.750000e+00	 9.999652e+00
3	 2.666667e+00	 9.833333e+00	 9.999842e+00
3	 2.666667e+00	 9.916667e+00	 9.999956e+00
3	 2.666667e+00	 1.000000e+01	 9.999994e+00
3	 2.750000e+00	 9.583333e+00	 9.999274e+00
3	 2.750000e+00	 9.666667e+00	 9.999539e+00
3	 2.750000e+00	 9.750000e+00	 9.999745e+00
3	 2.750000e+00	 9.833333e+00	 9.999891e+00
3	 2.750000e+00	 9.916667e+00	 9.999976e+00
3	 2.750000e+00	 1.000000e+01	 1.000000e+01
3	 2.833333e+00	 9.583333e+00	 9.999501e+00
3	 2.833333e+00	 9.666667e+00	 9.999688e+00
3	 2.833333e+00	 9.750000e+00	 9.999833e+00
3	 2.833333e+00	 9.833333e+00	 9.999935e+00
3	 2.833333e+00	 9.916667e+00	 9.999992e+00
3	 2.833333e+00	 1.000000e+01	 1.000000e+01
3	 2.916667e+00	 9.583333e+00	 9.999712e+00
3	 2.916667e+00	 9.666667e+00	 9.999820e+00
3	 2.916667e+00	 9.750000e+00	 9.999905e+00
3	 2.916667e+00	 9.833333e+00	 9.999964e+00
3	 2.916667e+00	 9.916667e+00	 9.999993e+00
3	 2.916667e+00	 1.000000e+01	 9.999991e+00
3	 2.916667e+00	 5.000000e+00	 1.011314e+01
3	 2.916667e+00	 5.083333e+00	 1.010241e+01
3	 2.916667e+00	 5.166667e+00	 1.009236e+01
3	 2.916667e+00	 5.250000e+00	 1.008301e+01
3	 2.916667e+00	 5.333333e+00	 1.007435e+01
3	 2.916667e+00	 5.416667e+00	 1.006642e+01
3	 3.000000e+00	 5.000000e+00	 1.013266e+01
3	 3.000000e+00	 5.083333e+00	 1.012145e+01
3	 3.000000e+00	 5.166667e+00	 1.011092e+01
3	 3.000000e+00	 5.250000e+00	 1.010107e+01
3	 3.000000e+00	 5.333333e+00	 1.009191e+01
3	 3.000000e+00	 5.416667e+00	 1.008346e+01
3	 3.083333e+00	 5.000000e+00	 1.015089e+01
3	 3.083333e+00	 5.083333e+00	 1.013928e+01
3	 3.083333e+00	 5.166667e+00	 1.012834e+01
3	 3.083333e+00	 5.250000e+00	 1.011806e+01
3	 3.083333e+00	 5.333333e+00	 1.010847e+01
3	 3.083333e+00	 5.416667e+00	 1.009956e+01
3	 3.166667e+00	 5.000000e+00	 1.016786e+01
3	 3.166667e+00	 5.083333e+00	 1.015592e+01
3	 3.166667e+00	 5.166667e+00	 1.014463e+01
3	 3.166667e+00	 5.250000e+00	 1.013400e+01
3	 3.166667e+00	 5.333333e+00	 1.012403e+01
3	 3.166667e+00	 5.416667e+00	 1.011473e+01
3	 3.250000e+00	 5.000000e+00	 1.018359e+01
3	 3.250000e+00	 5.083333e+00	 1.017139e+01
3	 3.250000e+00	 5.166667e+00	 1.015982e+01
3	 3.250000e+00	 5.250000e+00	 1.014890e+01
3	 3.250000e+00	 5.333333e+00	 1.013861e+01
3	 3.250000e+00	 5.416667e+00	 1.012898e+01
3	 3.333333e+00	 5.000000e+00	 1.019812e+01
3	 3.333333e+00	 5.083333e+00	 1.018572e+01
3	 3.333333e+00	 5.166667e+00	 1.017393e+01
3	 3.333333e+00	 5.250000e+00	 1.016276e+01
3	 3.333333e+00	 5.333333e+00	 1.015222e+01
3	 3.333333e+00	 5.416667e+00	 1.014230e+01
3	 2.916667e+00	 5.416667e+00	 1.006642e+01
3	 2.916667e+00	 5.500000e+00	 1.005910e+01
3	 2.916667e+00	 5.583333e+00	 1.005228e+01
3	 2.916667e+00	 5.666667e+00	 1.004599e+01
3	 2.916667e+00	 5.750000e+00	 1.004023e+01
3	 2.916667e+00	 5.833333e+00	 1.003501e+01
3	 3.000000e+00	 5.416667e+00	 1.008346e+01
3	 3.000000e+00	 5.500000e+00	 1.007561e+01
3	 3.000000e+00	 5.583333e+00	 1.006828e+01
3	 3.000000e+00	 5.666667e+00	 1.006147e+01
3	 3.000000e+00	 5.750000e+00	 1.005519e+01
3	 3.000000e+00	 5.833333e+00	 1.004946e+01
3	 3.083333e+00	 5.416667e+00	 1.009956e+01
3	 3.083333e+00	 5.500000e+00	 1.009126e+01
3	 3.083333e+00	 5.583333e+00	 1.008346e+01
3	 3.083333e+00	 5.666667e+00	 1.007619e+01
3	 3.083333e+00	 5.750000e+00	 1.006945e+01
3	 3.083333e+00	 5.833333e+00	 1.006325e+01
3	 3.166667e+00	 5.416667e+00	 1.011473e+01
3	 3.166667e+00	 5.500000e+00	 1.010602e+01
3	 3.166667e+00	 5.583333e+00	 1.009782e+01
3	 3.166667e+00	 5.666667e+00	 1.009014e+01
3	 3.166667e+00	 5.750000e+00	 1.008298e+01
3	 3.166667e+00	 5.833333e+00	 1.007635e+01
3	 3.250000e+00	 5.416667e+00	 1.012898e+01
3	 3.250000e+00	 5.500000e+00	 1.011992e+01
3	 3.250000e+00	 5.583333e+00	 1.011136e+01
3	 3.250000e+00	 5.666667e+00	 1.010331e+01
3	 3.250000e+00	 5.750000e+00	 1.009578e+01
3	 3.250000e+00	 5.833333e+00	 1.008877e+01
3	 3.333333e+00	 5.416667e+00	 1.014230e+01
3	 3.333333e+00	 5.500000e+00	 1.013293e+01
3	 3.333333e+00	 5.583333e+00	 1.012406e+01
3	 3.333333e+00	 5.666667e+00	 1.011570e+01
3	 3.333333e+00	 5.750000e+00	 1.010784e+01
3	 3.333333e+00	 5.833333e+00	 1.010049e+01
3	 2.916667e+00	 5.833333e+00	 1.003501e+01
3	 2.916667e+00	 5.916667e+00	 1.003026e+01
3	 2.916667e+00	 6.000000e+00	 1.002586e+01
3	 2.916667e+00	 6.083333e+00	 1.002184e+01
3	 2.916667e+00	 6.166667e+00	 1.001820e+01
3	 2.916667e+00	 6.250000e+00	 1.001496e+01
3	 3.000000e+00	 5.833333e+00	 1.004946e+01
3	 3.000000e+00	 5.916667e+00	 1.004419e+01
3	 3.000000e+00	 6.000000e+00	 1.003929e+01
3	 3.000000e+00	 6.083333e+00	 1.003477e+01
3	 3.000000e+00	 6.166667e+00	 1.003064e+01
3	 3.000000e+00	 6.250000e+00	 1.002692e+01
3	 3.083333e+00	 5.833333e+00	 1.006325e+01
3	 3.083333e+00	 5.916667e+00	 1.005751e+01
3	 3.083333e+00	 6.000000e+00	 1.005214e+01
3	 3.083333e+00	 6.083333e+00	 1.004716e+01
3	 3.083333e+00	 6.166667e+00	 1.004258e+01
3	 3.083333e+00	 6.250000e+00	 1.003840e+01
3	 3.166667e+00	 5.833333e+00	 1.007635e+01
3	 3.166667e+00	 5.916667e+00	 1.007019e+01
3	 3.166667e+00	 6.000000e+00	 1.006440e+01
3	 3.166667e+00	 6.083333e+00	 1.005900e+01
3	 3.166667e+00	 6.166667e+00	 1.005400e+01
3	 3.166667e+00	 6.250000e+00	 1.004940e+01
3	 3.250000e+00	 5.833333e+00	 1.008877e+01
3	 3.250000e+00	 5.916667e+00	 1.008222e+01
3	 3.250000e+00	 6.000000e+00	 1.007605e+01
3	 3.250000e+00	 6.083333e+00	 1.007026e+01
3	 3.250000e+00	 6.166667e+00	 1.006488e+01
3	 3.250000e+00	 6.250000e+00	 1.005989e+01
3	 3.333333e+00	 5.833333e+00	 1.010049e+01
3	 3.333333e+00	 5.916667e+00	 1.009359e+01
3	 3.333333e+00	 6.000000e+00	 1.008707e+01
3	 3.333333e+00	 6.083333e+00	 1.008094e+01
3	 3.333333e+00	 6.166667e+00	 1.007520e+01
3	 3.333333e+00	 6.250000e+00	 1.006986e+01
3	 2.916667e+00	 6.250000e+00	 1.001496e+01
3	 2.916667e+00	 6.333333e+00	 1.001205e+01
3	 2.916667e+00	 6.416667e+00	 1.000940e+01
3	 2.916667e+00	 6.500000e+00	 1.000701e+01
3	 2.916667e+00	 6.583333e+00	 1.000489e+01
3	 2.916667e+00	 6.666667e+00	 1.000306e+01
3	 3.000000e+00	 6.250000e+00	 1.002692e+01
3	 3.000000e+00	 6.333333e+00	 1.002353e+01
3	 3.000000e+00	 6.416667e+00	 1.002040e+01
3	 3.000000e+00	 6.500000e+00	 1.001755e+01
3	 3.000000e+00	 6.583333e+00	 1.001498e+01
3	 3.000000e+00	 6.666667e+00	 1.001271e+01
3	 3.083333e+00	 6.250000e+00	 1.003840e+01
3	 3.083333e+00	 6.333333e+00	 1.003457e+01
3	 3.083333e+00	 6.416667e+00	 1.003100e+01
3	 3.083333e+00	 6.500000e+00	 1.002772e+01
3	 3.083333e+00	 6.583333e+00	 1.002473e+01
3	 3.083333e+00	 6.666667e+00	 1.002203e+01
3	 3.166667e+00	 6.250000e+00	 1.004940e+01
3	 3.166667e+00	 6.333333e+00	 1.004515e+01
3	 3.166667e+00	 6.416667e+00	 1.004117e+01
3	 3.166667e+00	 6.500000e+00	 1.003749e+01
3	 3.166667e+00	 6.583333e+00	 1.003410e+01
3	 3.166667e+00	 6.666667e+00	 1.003101e+01
3	 3.250000e+00	 6.250000e+00	 1.005989e+01
3	 3.250000e+00	 6.333333e+00	 1.005526e+01
3	 3.250000e+00	 6.416667e+00	 1.005090e+01
3	 3.250000e+00	 6.500000e+00	 1.004684e+01
3	 3.250000e+00	 6.583333e+00	 1.004308e+01
3	 3.250000e+00	 6.666667e+00	 1.003962e+01
3	 3.333333e+00	 6.250000e+00	 1.006986e+01
3	 3.333333e+00	 6.333333e+00	 1.006487e+01
3	 3.333333e+00	 6.416667e+00	 1.006017e+01
3	 3.333333e+00	 6.500000e+00	 1.005576e+01
3	 3.333333e+00	 6.583333e+00	 1.005165e+01
3	 3.333333e+00	 6.666667e+00	 1.004784e+01
3	 2.916667e+00	 6.666667e+00	 1.000306e+01
3	 2.916667e+00	 6.750000e+00	 1.000146e+01
3	 2.916667e+00	 6.833333e+00	 1.000002e+01
3	 2.916667e+00	 6.916667e+00	 9.998772e+00
3	 2.916667e+00	 7.000000e+00	 9.997708e+00
3	 2.916667e+00	 7.083333e+00	 9.996840e+00
3	 3.000000e+00	 6.666667e+00	 1.001271e+01
3	 3.000000e+00	 6.750000e+00	 1.001067e+01
3	 3.000000e+00	 6.833333e+00	 1.000882e+01
3	 3.000000e+00	 6.916667e+00	 1.000715e+01
3	 3.000000e+00	 7.000000e+00	 1.000568e+01
3	 3.000000e+00	 7.083333e+00	 1.000442e+01
3	 3.083333e+00	 6.666667e+00	 1.002203e+01
3	 3.083333e+00	 6.750000e+00	 1.001958e+01
3	 3.083333e+00	 6.833333e+00	 1.001733e+01
3	 3.083333e+00	 6.916667e+00	 1.001526e+01
3	 3.083333e+00	 7.000000e+00	 1.001341e+01
3	 3.083333e+00	 7.083333e+00	 1.001177e+01
3	 3.166667e+00	 6.666667e+00	 1.003101e+01
3	 3.166667e+00	 6.750000e+00	 1.002817e+01
3	 3.166667e+00	 6.833333e+00	 1.002553e+01
3	 3.166667e+00	 6.916667e+00	 1.002310e+01
3	 3.166667e+00	 7.000000e+00	 1.002088e+01
3	 3.166667e+00	 7.083333e+00	 1.001888e+01
3	 3.250000e+00	 6.666667e+00	 1.003962e+01
3	 3.250000e+00	 6.750000e+00	 1.003642e+01
3	 3.250000e+00	 6.833333e+00	 1.003342e+01
3	 3.250000e+00	 6.916667e+00	 1.003063e+01
3	 3.250000e+00	 7.000000e+00	 1.002807e+01
3	 3.250000e+00	 7.083333e+00	 1.002572e+01
3	 3.333333e+00	 6.666667e+00	 1.004784e+01
3	 3.333333e+00	 6.750000e+00	 1.004430e+01
3	 3.333333e+00	 6.833333e+00	 1.004097e+01
3	 3.333333e+00	 6.916667e+00	 1.003785e+01
3	 3.333333e+00	 7.000000e+00	 1.003495e+01
3	 3.333333e+00	 7.083333e+00	 1.003229e+01
3	 2.916667e+00	 7.083333e+00	 9.996840e+00
3	 2.916667e+00	 7.166667e+00	 9.996127e+00
3	 2.916667e+00	 7.250000e+00	 9.995521e+00
3	 2.916667e+00	 7.333333e+00	 9.995031e+00
3	 2.916667e+00	 7.416667e+00	 9.994663e+00
3	 2.916667e+00	 7.500000e+00	 9.994426e+00
3	 3.000000e+00	 7.083333e+00	 1.000442e+01
3	 3.000000e+00	 7.166667e+00	 1.000332e+01
3	 3.000000e+00	 7.250000e+00	 1.000234e+01
3	 3.000000e+00	 7.333333e+00	 1.000148e+01
3	 3.000000e+00	 7.416667e+00	 1.000076e+01
3	 3.000000e+00	 7.500000e+00	 1.000017e+01
3	 3.083333e+00	 7.083333e+00	 1.001177e+01
3	 3.083333e+00	 7.166667e+00	 1.001030e+01
3	 3.083333e+00	 7.250000e+00	 1.000896e+01
3	 3.083333e+00	 7.333333e+00	 1.000775e+01
3	 3.083333e+00	 7.416667e+00	 1.000668e+01
3	 3.083333e+00	 7.500000e+00	 1.000576e+01
3	 3.166667e+00	 7.083333e+00	 1.001888e+01
3	 3.166667e+00	 7.166667e+00	 1.001706e+01
3	 3.166667e+00	 7.250000e+00	 1.001537e+01
3	 3.166667e+00	 7.333333e+00	 1.001382e+01
3	 3.166667e+00	 7.416667e+00	 1.001243e+01
3	 3.166667e+00	 7.500000e+00	 1.001119e+01
3	 3.250000e+00	 7.083333e+00	 1.002572e+01
3	 3.250000e+00	 7.166667e+00	 1.002357e+01
3	 3.250000e+00	 7.250000e+00	 1.002155e+01
3	 3.250000e+00	 7.333333e+00	 1.001969e+01
3	 3.250000e+00	 7.416667e+00	 1.001797e+01
3	 3.250000e+00	 7.500000e+00	 1.001642e+01
3	 3.333333e+00	 7.083333e+00	 1.003229e+01
3	 3.333333e+00	 7.166667e+00	 1.002981e+01
3	 3.333333e+00	 7.250000e+00	 1.002749e+01
3	 3.333333e+00	 7.333333e+00	 1.002532e+01
3	 3.333333e+00	 7.416667e+00	 1.002331e+01
3	 3.333333e+00	 7.500000e+00	 1.002146e+01
3	 2.916667e+00	 7.500000e+00	 9.994426e+00
3	 2.916667e+00	 7.583333e+00	 9.994283e+00
3	 2.916667e+00	 7.666667e+00	 9.994202e+00
3	 2.916667e+00	 7.750000e+00	 9.994187e+00
3	 2.916667e+00	 7.833333e+00	 9.994244e+00
3	 2.916667e+00	 7.916667e+00	 9.994379e+00
3	 3.000000e+00	 7.500000e+00	 1.000017e+01
3	 3.000000e+00	 7.583333e+00	 9.999689e+00
3	 3.000000e+00	 7.666667e+00	 9.999279e+00
3	 3.000000e+00	 7.750000e+00	 9.998945e+00
3	 3.000000e+00	 7.833333e+00	 9.998692e+00
3	 3.000000e+00	 7.916667e+00	 9.998526e+00
3	 3.083333e+00	 7.500000e+00	 1.000576e+01
3	 3.083333e+00	 7.583333e+00	 1.000495e+01
3	 3.083333e+00	 7.666667e+00	 1.000423e+01
3	 3.083333e+00	 7.750000e+00	 1.000358e+01
3	 3.083333e+00	 7.833333e+00	 1.000303e+01
3	 3.083333e+00	 7.916667e+00	 1.000257e+01
3	 3.166667e+00	 7.500000e+00	 1.001119e+01
3	 3.166667e+00	 7.583333e+00	 1.001006e+01
3	 3.166667e+00	 7.666667e+00	 1.000903e+01
3	 3.166667e+00	 7.750000e+00	 1.000809e+01
3	 3.166667e+00	 7.833333e+00	 1.000725e+01
3	 3.166667e+00	 7.916667e+00	 1.000651e+01
3	 3.250000e+00	 7.500000e+00	 1.001642e+01
3	 3.250000e+00	 7.583333e+00	 1.001500e+01
3	 3.250000e+00	 7.666667e+00	 1.001368e+01
3	 3.250000e+00	 7.750000e+00	 1.001245e+01
3	 3.250000e+00	 7.833333e+00	 1.001133e+01
3	 3.250000e+00	 7.916667e+00	 1.001032e+01
3	 3.333333e+00	 7.500000e+00	 1.002146e+01
3	 3.333333e+00	 7.583333e+00	 1.001975e+01
3	 3.333333e+00	 7.666667e+00	 1.001815e+01
3	 3.333333e+00	 7.750000e+00	 1.001665e+01
3	 3.333333e+00	 7.833333e+00	 1.001526e+01
3	 3.333333e+00	 7.916667e+00	 1.001399e+01
3	 2.916667e+00	 7.916667e+00	 9.994379e+00
3	 2.916667e+00	 8.000000e+00	 9.994565e+00
3	 2.916667e+00	 8.083333e+00	 9.994776e+00
3	 2.916667e+00	 8.166667e+00	 9.995016e+00
3	 2.916667e+00	 8.250000e+00	 9.995290e+00
3	 2.916667e+00	 8.333333e+00	 9.995602e+00
3	 3.000000e+00	 7.916667e+00	 9.998526e+00
3	 3.000000e+00	 8.000000e+00	 9.998421e+00
3	 3.000000e+00	 8.083333e+00	 9.998350e+00
3	 3.000000e+00	 8.166667e+00	 9.998318e+00
3	 3.000000e+00	 8.250000e+00	 9.998328e+00
3	 3.000000e+00	 8.333333e+00	 9.998386e+00
3	 3.083333e+00	 7.916667e+00	 1.000257e+01
3	 3.083333e+00	 8.000000e+00	 1.000219e+01
3	 3.083333e+00	 8.083333e+00	 1.000184e+01
3	 3.083333e+00	 8.166667e+00	 1.000154e+01
3	 3.083333e+00	 8.250000e+00	 1.000130e+01
3	 3.083333e+00	 8.333333e+00	 1.000111e+01
3	 3.166667e+00	 7.916667e+00	 1.000651e+01
3	 3.166667e+00	 8.000000e+00	 1.000585e+01
3	 3.166667e+00	 8.083333e+00	 1.000524e+01
3	 3.166667e+00	 8.166667e+00	 1.000469e+01
3	 3.166667e+00	 8.250000e+00	 1.000419e+01
3	 3.166667e+00	 8.333333e+00	 1.000376e+01
3	 3.250000e+00	 7.916667e+00	 1.001032e+01
3	 3.250000e+00	 8.000000e+00	 1.000939e+01
3	 3.250000e+00	 8.083333e+00	 1.000853e+01
3	 3.250000e+00	 8.166667e+00	 1.000773e+01
3	 3.250000e+00	 8.250000e+00	 1.000699e+01
3	 3.250000e+00	 8.333333e+00	 1.000633e+01
3	 3.333333e+00	 7.916667e+00	 1.001399e+01
3	 3.333333e+00	 8.000000e+00	 1.001281e+01
3	 3.333333e+00	 8.083333e+00	 1.001170e+01
3	 3.333333e+00	 8.166667e+00	 1.001066e+01
3	 3.333333e+00	 8.250000e+00	 1.000970e+01
3	 3.333333e+00	 8.333333e+00	 1.000881e+01
3	 2.916667e+00	 8.333333e+00	 9.995602e+00
3	 2.916667e+00	 8.416667e+00	 9.995933e+00
3	 2.916667e+00	 8.500000e+00	 9.996261e+00
3	 2.916667e+00	 8.583333e+00	 9.996590e+00
3	 2.916667e+00	 8.666667e+00	 9.996924e+00
3	 2.916667e+00	 8.750000e+00	 9.997266e+00
3	 3.000000e+00	 8.333333e+00	 9.998386e+00
3	 3.000000e+00	 8.416667e+00	 9.998471e+00
3	 3.000000e+00	 8.500000e+00	 9.998564e+00
3	 3.000000e+00	 8.583333e+00	 9.998669e+00
3	 3.000000e+00	 8.666667e+00	 9.998787e+00
3	 3.000000e+00	 8.750000e+00	 9.998922e+00
3	 3.083333e+00	 8.333333e+00	 1.000111e+01
3	 3.083333e+00	 8.416667e+00	 1.000096e+01
3	 3.083333e+00	 8.500000e+00	 1.000082e+01
3	 3.083333e+00	 8.583333e+00	 1.000070e+01
3	 3.083333e+00	 8.666667e+00	 1.000061e+01
3	 3.083333e+00	 8.750000e+00	 1.000055e+01
3	 3.166667e+00	 8.333333e+00	 1.000376e+01
3	 3.166667e+00	 8.416667e+00	 1.000338e+01
3	 3.166667e+00	 8.500000e+00	 1.000302e+01
3	 3.166667e+00	 8.583333e+00	 1.000269e+01
3	 3.166667e+00	 8.666667e+00	 1.000239e+01
3	 3.166667e+00	 8.750000e+00	 1.000213e+01
3	 3.250000e+00	 8.333333e+00	 1.000633e+01
3	 3.250000e+00	 8.416667e+00	 1.000572e+01
3	 3.250000e+00	 8.500000e+00	 1.000515e+01
3	 3.250000e+00	 8.583333e+00	 1.000461e+01
3	 3.250000e+00	 8.666667e+00	 1.000412e+01
3	 3.250000e+00	 8.750000e+00	 1.000367e+01
3	 3.333333e+00	 8.333333e+00	 1.000881e+01
3	 3.333333e+00	 8.416667e+00	 1.000798e+01
3	 3.333333e+00	 8.500000e+00	 1.000720e+01
3	 3.333333e+00	 8.583333e+00	 1.000647e+01
3	 3.333333e+00	 8.666667e+00	 1.000578e+01
3	 3.333333e+00	 8.750000e+00	 1.000515e+01
3	 2.916667e+00	 8.750000e+00	 9.997266e+00
3	 2.916667e+00	 8.833333e+00	 9.997602e+00
3	 2.916667e+00	 8.916667e+00	 9.997917e+00
3	 2.916667e+00	 9.000000e+00	 9.998215e+00
3	 2.916667e+00	 9.083333e+00	 9.998496e+00
3	 2.916667e+00	 9.166667e+00	 9.998763e+00
3	 3.000000e+00	 8.750000e+00	 9.998922e+00
3	 3.000000e+00	 8.833333e+00	 9.999061e+00
3	 3.000000e+00	 8.916667e+00	 9.999192e+00
3	 3.000000e+00	 9.000000e+00	 9.999316e+00
3	 3.000000e+00	 9.083333e+00	 9.999433e+00
3	 3.000000e+00	 9.166667e+00	 9.999546e+00
3	 3.083333e+00	 8.750000e+00	 1.000055e+01
3	 3.083333e+00	 8.833333e+00	 1.000049e+01
3	 3.083333e+00	 8.916667e+00	 1.000045e+01
3	 3.083333e+00	 9.000000e+00	 1.000040e+01
3	 3.083333e+00	 9.083333e+00	 1.000036e+01
3	 3.083333e+00	 9.166667e+00	 1.000032e+01
3	 3.166667e+00	 8.750000e+00	 1.000213e+01
3	 3.166667e+00	 8.833333e+00	 1.000189e+01
3	 3.166667e+00	 8.916667e+00	 1.000167e+01
3	 3.166667e+00	 9.000000e+00	 1.000146e+01
3	 3.166667e+00	 9.083333e+00	 1.000126e+01
3	 3.166667e+00	 9.166667e+00	 1.000108e+01
3	 3.250000e+00	 8.750000e+00	 1.000367e+01
3	 3.250000e+00	 8.833333e+00	 1.000325e+01
3	 3.250000e+00	 8.916667e+00	 1.000285e+01
3	 3.250000e+00	 9.000000e+00	 1.000248e+01
3	 3.250000e+00	 9.083333e+00	 1.000213e+01
3	 3.250000e+00	 9.166667e+00	 1.000181e+01
3	 3.333333e+00	 8.750000e+00	 1.000515e+01
3	 3.333333e+00	 8.833333e+00	 1.000455e+01
3	 3.333333e+00	 8.916667e+00	 1.000399e+01
3	 3.333333e+00	 9.000000e+00	 1.000346e+01
3	 3.333333e+00	 9.083333e+00	 1.000297e+01
3	 3.333333e+00	 9.166667e+00	 1.000251e+01
3	 2.916667e+00	 9.166667e+00	 9.998763e+00
3	 2.916667e+00	 9.250000e+00	 9.999009e+00
3	 2.916667e+00	 9.333333e+00	 9.999227e+00
3	 2.916667e+00	 9.416667e+00	 9.999417e+00
3	 2.916667e+00	 9.500000e+00	 9.999579e+00
3	 2.916667e+00	 9.583333e+00	 9.999712e+00
3	 3.000000e+00	 9.166667e+00	 9.999546e+00
3	 3.000000e+00	 9.250000e+00	 9.999651e+00
3	 3.000000e+00	 9.333333e+00	 9.999741e+00
3	 3.000000e+00	 9.416667e+00	 9.999816e+00
3	 3.000000e+00	 9.500000e+00	 9.999875e+00
3	 3.000000e+00	 9.583333e+00	 9.999917e+00
3	 3.083333e+00	 9.166667e+00	 1.000032e+01
3	 3.083333e+00	 9.250000e+00	 1.000029e+01
3	 3.083333e+00	 9.333333e+00	 1.000025e+01
3	 3.083333e+00	 9.416667e+00	 1.000021e+01
3	 3.083333e+00	 9.500000e+00	 1.000017e+01
3	 3.083333e+00	 9.583333e+00	 1.000013e+01
3	 3.166667e+00	 9.166667e+00	 1.000108e+01
3	 3.166667e+00	 9.250000e+00	 1.000091e+01
3	 3.166667e+00	 9.333333e+00	 1.000075e+01
3	 3.166667e+00	 9.416667e+00	 1.000061e+01
3	 3.166667e+00	 9.500000e+00	 1.000047e+01
3	 3.166667e+00	 9.583333e+00	 1.000034e+01
3	 3.250000e+00	 9.166667e+00	 1.000181e+01
3	 3.250000e+00	 9.250000e+00	 1.000151e+01
3	 3.250000e+00	 9.333333e+00	 1.000124e+01
3	 3.250000e+00	 9.416667e+00	 1.000099e+01
3	 3.250000e+00	 9.500000e+00	 1.000075e+01
3	 3.250000e+00	 9.583333e+00	 1.000054e+01
3	 3.333333e+00	 9.166667e+00	 1.000251e+01
3	 3.333333e+00	 9.250000e+00	 1.000208e+01
3	 3.333333e+00	 9.333333e+00	 1.000169e+01
3	 3.333333e+00	 9.416667e+00	 1.000134e+01
3	 3.333333e+00	 9.500000e+00	 1.000102e+01
3	 3.333333e+00	 9.583333e+00	 1.000072e+01
3	 2.916667e+00	 9.583333e+00	 9.999712e+00
3	 2.916667e+00	 9.666667e+00	 9.999820e+00
3	 2.916667e+00	 9.750000e+00	 9.999905e+00
3	 2.916667e+00	 9.833333e+00	 9.999964e+00
3	 2.916667e+00	 9.916667e+00	 9.999993e+00
3	 2.916667e+00	 1.000000e+01	 9.999991e+00
3	 3.000000e+00	 9.583333e+00	 9.999917e+00
3	 3.000000e+00	 9.666667e+00	 9.999949e+00
3	 3.000000e+00	 9.750000e+00	 9.999975e+00
3	 3.000000e+00	 9.833333e+00	 9.999991e+00
3	 3.000000e+00	 9.916667e+00	 9.999994e+00
3	 3.000000e+00	 1.000000e+01	 9.999978e+00
3	 3.083333e+00	 9.583333e+00	 1.000013e+01
3	 3.083333e+00	 9.666667e+00	 1.000009e+01
3	 3.083333e+00	 9.750000e+00	 1.000006e+01
3	 3.083333e+00	 9.833333e+00	 1.000003e+01
3	 3.083333e+00	 9.916667e+00	 1.000001e+01
3	 3.083333e+00	 1.000000e+01	 9.999980e+00
3	 3.166667e+00	 9.583333e+00	 1.000034e+01
3	 3.166667e+00	 9.666667e+00	 1.000023e+01
3	 3.166667e+00	 9.750000e+00	 1.000014e+01
3	 3.166667e+00	 9.833333e+00	 1.000007e+01
3	 3.166667e+00	 9.916667e+00	 1.000003e+01
3	 3.166667e+00	 1.000000e+01	 9.999987e+00
3	 3.250000e+00	 9.583333e+00	 1.000054e+01
3	 3.250000e+00	 9.666667e+00	 1.000036e+01
3	 3.250000e+00	 9.750000e+00	 1.000022e+01
3	 3.250000e+00	 9.833333e+00	 1.000011e+01
3	 3.250000e+00	 9.916667e+00	 1.000004e+01
3	 3.250000e+00	 1.000000e+01	 9.999990e+00
3	 3.333333e+00	 9.583333e+00	 1.000072e+01
3	 3.333333e+00	 9.666667e+00	 1.000047e+01
3	 3.333333e+00	 9.750000e+00	 1.000028e+01
3	 3.333333e+00	 9.833333e+00	 1.000014e+01
3	 3.333333e+00	 9.916667e+00	 1.000004e+01
3	 3.333333e+00	 1.000000e+01	 9.999979e+00
3	 3.333333e+00	 5.000000e+00	 1.019812e+01
3	 3.333333e+00	 5.083333e+00	 1.018572e+01
3	 3.333333e+00	 5.166667e+00	 1.017393e+01
3	 3.333333e+00	 5.250000e+00	 1.016276e+01
3	 3.333333e+00	 5.333333e+00	 1.015222e+01
3	 3.333333e+00	 5.416667e+00	 1.014230e+01
3	 3.416667e+00	 5.000000e+00	 1.021144e+01
3	 3.416667e+00	 5.083333e+00	 1.019889e+01
3	 3.416667e+00	 5.166667e+00	 1.018694e+01
3	 3.416667e+00	 5.250000e+00	 1.017558e+01
3	 3.416667e+00	 5.333333e+00	 1.016483e+01
3	 3.416667e+00	 5.416667e+00	 1.015467e+01
3	 3.500000e+00	 5.000000e+00	 1.022353e+01
3	 3.500000e+00	 5.083333e+00	 1.021090e+01
3	 3.500000e+00	 5.166667e+00	 1.019884e+01
3	 3.500000e+00	 5.250000e+00	 1.018736e+01
3	 3.500000e+00	 5.333333e+00	 1.017644e+01
3	 3.500000e+00	 5.416667e+00	 1.016610e+01
3	 3.583333e+00	 5.000000e+00	 1.023447e+01
3	 3.583333e+00	 5.083333e+00	 1.022180e+01
3	 3.583333e+00	 5.166667e+00	 1.020969e+01
3	 3.583333e+00	 5.250000e+00	 1.019812e+01
3	 3.583333e+00	 5.333333e+00	 1.018710e+01
3	 3.583333e+00	 5.416667e+00	 1.017662e+01
3	 3.666667e+00	 5.000000e+00	 1.024430e+01
3	 3.666667e+00	 5.083333e+00	 1.023165e+01
3	 3.666667e+00	 5.166667e+00	 1.021953e+01
3	 3.666667e+00	 5.250000e+00	 1.020793e+01
3	 3.666667e+00	 5.333333e+00	 1.019684e+01
3	 3.666667e+00	 5.416667e+00	 1.018627e+01
3	 3.750000e+00	 5.000000e+00	 1.025311e+01
3	 3.750000e+00	 5.083333e+00	 1.024051e+01
3	 3.750000e+00	 5.166667e+00	 1.022841e+01
3	 3.750000e+00	 5.250000e+00	 1.021681e+01
3	 3.750000e+00	 5.333333e+00	 1.020569e+01
3	 3.750000e+00	 5.416667e+00	 1.019506e+01
3	 3.333333e+00	 5.416667e+00	 1.014230e+01
3	 3.333333e+00	 5.500000e+00	 1.013293e+01
3	 3.333333e+00	 5.583333e+00	 1.012406e+01
3	 3.333333e+00	 5.666667e+00	 1.011570e+01
3	 3.333333e+00	 5.750000e+00	 1.010784e+01
3	 3.333333e+00	 5.833333e+00	 1.010049e+01
3	 3.416667e+00	 5.416667e+00	 1.015467e+01
3	 3.416667e+00	 5.500000e+00	 1.014506e+01
3	 3.416667e+00	 5.583333e+00	 1.013592e+01
3	 3.416667e+00	 5.666667e+00	 1.012728e+01
3	 3.416667e+00	 5.750000e+00	 1.011914e+01
3	 3.416667e+00	 5.833333e+00	 1.011149e+01
3	 3.500000e+00	 5.416667e+00	 1.016610e+01
3	 3.500000e+00	 5.500000e+00	 1.015628e+01
3	 3.500000e+00	 5.583333e+00	 1.014694e+01
3	 3.500000e+00	 5.666667e+00	 1.013807e+01
3	 3.500000e+00	 5.750000e+00	 1.012968e+01
3	 3.500000e+00	 5.833333e+00	 1.012178e+01
3	 3.583333e+00	 5.416667e+00	 1.017662e+01
3	 3.583333e+00	 5.500000e+00	 1.016665e+01
3	 3.583333e+00	 5.583333e+00	 1.015713e+01
3	 3.583333e+00	 5.666667e+00	 1.014808e+01
3	 3.583333e+00	 5.750000e+00	 1.013949e+01
3	 3.583333e+00	 5.833333e+00	 1.013137e+01
3	 3.666667e+00	 5.416667e+00	 1.018627e+01
3	 3.666667e+00	 5.500000e+00	 1.017617e+01
3	 3.666667e+00	 5.583333e+00	 1.016653e+01
3	 3.666667e+00	 5.666667e+00	 1.015732e+01
3	 3.666667e+00	 5.750000e+00	 1.014857e+01
3	 3.666667e+00	 5.833333e+00	 1.014027e+01
3	 3.750000e+00	 5.416667e+00	 1.019506e+01
3	 3.750000e+00	 5.500000e+00	 1.018489e+01
3	 3.750000e+00	 5.583333e+00	 1.017514e+01
3	 3.750000e+00	 5.666667e+00	 1.016583e+01
3	 3.750000e+00	 5.750000e+00	 1.015695e+01
3	 3.750000e+00	 5.833333e+00	 1.014849e+01
3	 3.333333e+00	 5.833333e+00	 1.010049e+01
3	 3.333333e+00	 5.916667e+00	 1.009359e+01
3	 3.333333e+00	 6.000000e+00	 1.008707e+01
3	 3.333333e+00	 6.083333e+00	 1.008094e+01
3	 3.333333e+00	 6.166667e+00	 1.007520e+01
3	 3.333333e+00	 6.250000e+00	 1.006986e+01
3	 3.416667e+00	 5.833333e+00	 1.011149e+01
3	 3.416667e+00	 5.916667e+00	 1.010429e+01
3	 3.416667e+00	 6.000000e+00	 1.009746e+01
3	 3.416667e+00	 6.083333e+00	 1.009101e+01
3	 3.416667e+00	 6.166667e+00	 1.008496e+01
3	 3.416667e+00	 6.250000e+00	 1.007930e+01
3	 3.500000e+00	 5.833333e+00	 1.012178e+01
3	 3.500000e+00	 5.916667e+00	 1.011431e+01
3	 3.500000e+00	 6.000000e+00	 1.010721e+01
3	 3.500000e+00	 6.083333e+00	 1.010049e+01
3	 3.500000e+00	 6.166667e+00	 1.009415e+01
3	 3.500000e+00	 6.250000e+00	 1.008820e+01
3	 3.583333e+00	 5.833333e+00	 1.013137e+01
3	 3.583333e+00	 5.916667e+00	 1.012366e+01
3	 3.583333e+00	 6.000000e+00	 1.011633e+01
3	 3.583333e+00	 6.083333e+00	 1.010936e+01
3	 3.583333e+00	 6.166667e+00	 1.010278e+01
3	 3.583333e+00	 6.250000e+00	 1.009657e+01
3	 3.666667e+00	 5.833333e+00	 1.014027e+01
3	 3.666667e+00	 5.916667e+00	 1.013237e+01
3	 3.666667e+00	 6.000000e+00	 1.012483e+01
3	 3.666667e+00	 6.083333e+00	 1.011765e+01
3	 3.666667e+00	 6.166667e+00	 1.011085e+01
3	 3.666667e+00	 6.250000e+00	 1.010442e+01
3	 3.750000e+00	 5.833333e+00	 1.014849e+01
3	 3.750000e+00	 5.916667e+00	 1.014043e+01
3	 3.750000e+00	 6.000000e+00	 1.013272e+01
3	 3.750000e+00	 6.083333e+00	 1.012536e+01
3	 3.750000e+00	 6.166667e+00	 1.011836e+01
3	 3.750000e+00	 6.250000e+00	 1.011173e+01
3	 3.333333e+00	 6.250000e+00	 1.006986e+01
3	 3.333333e+00	 6.333333e+00	 1.006487e+01
3	 3.333333e+00	 6.416667e+00	 1.006017e+01
3	 3.333333e+00	 6.500000e+00	 1.005576e+01
3	 3.333333e+00	 6.583333e+00	 1.005165e+01
3	 3.333333e+00	 6.666667e+00	 1.004784e+01
3	 3.416667e+00	 6.250000e+00	 1.007930e+01
3	 3.416667e+00	 6.333333e+00	 1.007399e+01
3	 3.416667e+00	 6.416667e+00	 1.006896e+01
3	 3.416667e+00	 6.500000e+00	 1.006423e+01
3	 3.416667e+00	 6.583333e+00	 1.005980e+01
3	 3.416667e+00	 6.666667e+00	 1.005567e+01
3	 3.500000e+00	 6.250000e+00	 1.008820e+01
3	 3.500000e+00	 6.333333e+00	 1.008260e+01
3	 3.500000e+00	 6.416667e+00	 1.007728e+01
3	 3.500000e+00	 6.500000e+00	 1.007225e+01
3	 3.500000e+00	 6.583333e+00	 1.006753e+01
3	 3.500000e+00	 6.666667e+00	 1.006311e+01
3	 3.583333e+00	 6.250000e+00	 1.009657e+01
3	 3.583333e+00	 6.333333e+00	 1.009070e+01
3	 3.583333e+00	 6.416667e+00	 1.008512e+01
3	 3.583333e+00	 6.500000e+00	 1.007983e+01
3	 3.583333e+00	 6.583333e+00	 1.007484e+01
3	 3.583333e+00	 6.666667e+00	 1.007016e+01
3	 3.666667e+00	 6.250000e+00	 1.010442e+01
3	 3.666667e+00	 6.333333e+00	 1.009831e+01
3	 3.666667e+00	 6.416667e+00	 1.009249e+01
3	 3.666667e+00	 6.500000e+00	 1.008696e+01
3	 3.666667e+00	 6.583333e+00	 1.008173e+01
3	 3.666667e+00	 6.666667e+00	 1.007680e+01
3	 3.750000e+00	 6.250000e+00	 1.011173e+01
3	 3.750000e+00	 6.333333e+00	 1.010542e+01
3	 3.750000e+00	 6.416667e+00	 1.009939e+01
3	 3.750000e+00	 6.500000e+00	 1.009365e+01
3	 3.750000e+00	 6.583333e+00	 1.008819e+01
3	 3.750000e+00	 6.666667e+00	 1.008304e+01
3	 3.333333e+00	 6.666667e+00	 1.004784e+01
3	 3.333333e+00	 6.750000e+00	 1.004430e+01
3	 3.333333e+00	 6.833333e+00	 1.004097e+01
3	 3.333333e+00	 6.916667e+00	 1.003785e+01
3	 3.333333e+00	 7.000000e+00	 1.003495e+01
3	 3.333333e+00	 7.083333e+00	 1.003229e+01
3	 3.416667e+00	 6.666667e+00	 1.005567e+01
3	 3.416667e+00	 6.750000e+00	 1.005181e+01
3	 3.416667e+00	 6.833333e+00	 1.004817e+01
3	 3.416667e+00	 6.916667e+00	 1.004474e+01
3	 3.416667e+00	 7.000000e+00	 1.004154e+01
3	 3.416667e+00	 7.083333e+00	 1.003857e+01
3	 3.500000e+00	 6.666667e+00	 1.006311e+01
3	 3.500000e+00	 6.750000e+00	 1.005896e+01
3	 3.500000e+00	 6.833333e+00	 1.005502e+01
3	 3.500000e+00	 6.916667e+00	 1.005131e+01
3	 3.500000e+00	 7.000000e+00	 1.004782e+01
3	 3.500000e+00	 7.083333e+00	 1.004457e+01
3	 3.583333e+00	 6.666667e+00	 1.007016e+01
3	 3.583333e+00	 6.750000e+00	 1.006573e+01
3	 3.583333e+00	 6.833333e+00	 1.006152e+01
3	 3.583333e+00	 6.916667e+00	 1.005754e+01
3	 3.583333e+00	 7.000000e+00	 1.005379e+01
3	 3.583333e+00	 7.083333e+00	 1.005027e+01
3	 3.666667e+00	 6.666667e+00	 1.007680e+01
3	 3.666667e+00	 6.750000e+00	 1.007212e+01
3	 3.666667e+00	 6.833333e+00	 1.006767e+01
3	 3.666667e+00	 6.916667e+00	 1.006344e+01
3	 3.666667e+00	 7.000000e+00	 1.005945e+01
3	 3.666667e+00	 7.083333e+00	 1.005568e+01
3	 3.750000e+00	 6.666667e+00	 1.008304e+01
3	 3.750000e+00	 6.750000e+00	 1.007814e+01
3	 3.750000e+00	 6.833333e+00	 1.007346e+01
3	 3.750000e+00	 6.916667e+00	 1.006900e+01
3	 3.750000e+00	 7.000000e+00	 1.006478e+01
3	 3.750000e+00	 7.083333e+00	 1.006079e+01
3	 3.333333e+00	 7.083333e+00	 1.003229e+01
3	 3.333333e+00	 7.166667e+00	 1.002981e+01
3	 3.333333e+00	 7.250000e+00	 1.002749e+01
3	 3.333333e+00	 7.333333e+00	 1.002532e+01
3	 3.333333e+00	 7.416667e+00	 1.002331e+01
3	 3.333333e+00	 7.500000e+00	 1.002146e+01
3	 3.416667e+00	 7.083333e+00	 1.003857e+01
3	 3.416667e+00	 7.166667e+00	 1.003579e+01
3	 3.416667e+00	 7.250000e+00	 1.003318e+01
3	 3.416667e+00	 7.333333e+00	 1.003072e+01
3	 3.416667e+00	 7.416667e+00	 1.002842e+01
3	 3.416667e+00	 7.500000e+00	 1.002630e+01
3	 3.500000e+00	 7.083333e+00	 1.004457e+01
3	 3.500000e+00	 7.166667e+00	 1.004151e+01
3	 3.500000e+00	 7.250000e+00	 1.003862e+01
3	 3.500000e+00	 7.333333e+00	 1.003588e+01
3	 3.500000e+00	 7.416667e+00	 1.003332e+01
3	 3.500000e+00	 7.500000e+00	 1.003094e+01
3	 3.583333e+00	 7.083333e+00	 1.005027e+01
3	 3.583333e+00	 7.166667e+00	 1.004695e+01
3	 3.583333e+00	 7.250000e+00	 1.004380e+01
3	 3.583333e+00	 7.333333e+00	 1.004081e+01
3	 3.583333e+00	 7.416667e+00	 1.003800e+01
3	 3.583333e+00	 7.500000e+00	 1.003537e+01
3	 3.666667e+00	 7.083333e+00	 1.005568e+01
3	 3.666667e+00	 7.166667e+00	 1.005212e+01
3	 3.666667e+00	 7.250000e+00	 1.004872e+01
3	 3.666667e+00	 7.333333e+00	 1.004550e+01
3	 3.666667e+00	 7.416667e+00	 1.004245e+01
3	 3.666667e+00	 7.500000e+00	 1.003958e+01
3	 3.750000e+00	 7.083333e+00	 1.006079e+01
3	 3.750000e+00	 7.166667e+00	 1.005700e+01
3	 3.750000e+00	 7.250000e+00	 1.005338e+01
3	 3.750000e+00	 7.333333e+00	 1.004993e+01
3	 3.750000e+00	 7.416667e+00	 1.004666e+01
3	 3.750000e+00	 7.500000e+00	 1.004357e+01
3	 3.333333e+00	 7.500000e+00	 1.002146e+01
3	 3.333333e+00	 7.583333e+00	 1.001975e+01
3	 3.333333e+00	 7.666667e+00	 1.001815e+01
3	 3.333333e+00	 7.750000e+00	 1.001665e+01
3	 3.333333e+00	 7.833333e+00	 1.001526e+01
3	 3.333333e+00	 7.916667e+00	 1.001399e+01
3	 3.416667e+00	 7.500000e+00	 1.002630e+01
3	 3.416667e+00	 7.583333e+00	 1.002432e+01
3	 3.416667e+00	 7.666667e+00	 1.002244e+01
3	 3.416667e+00	 7.750000e+00	 1.002068e+01
3	 3.416667e+00	 7.833333e+00	 1.001904e+01
3	 3.416667e+00	 7.916667e+00	 1.001752e+01
3	 3.500000e+00	 7.500000e+00	 1.003094e+01
3	 3.500000e+00	 7.583333e+00	 1.002869e+01
3	 3.500000e+00	 7.666667e+00	 1.002657e+01
3	 3.500000e+00	 7.750000e+00	 1.002456e+01
3	 3.500000e+00	 7.833333e+00	 1.002268e+01
3	 3.500000e+00	 7.916667e+00	 1.002092e+01
3	 3.583333e+00	 7.500000e+00	 1.003537e+01
3	 3.583333e+00	 7.583333e+00	 1.003288e+01
3	 3.583333e+00	 7.666667e+00	 1.003051e+01
3	 3.583333e+00	 7.750000e+00	 1.002827e+01
3	 3.583333e+00	 7.833333e+00	 1.002615e+01
3	 3.583333e+00	 7.916667e+00	 1.002417e+01
3	 3.666667e+00	 7.500000e+00	 1.003958e+01
3	 3.666667e+00	 7.583333e+00	 1.003686e+01
3	 3.666667e+00	 7.666667e+00	 1.003427e+01
3	 3.666667e+00	 7.750000e+00	 1.003180e+01
3	 3.666667e+00	 7.833333e+00	 1.002947e+01
3	 3.666667e+00	 7.916667e+00	 1.002727e+01
3	 3.750000e+00	 7.500000e+00	 1.004357e+01
3	 3.750000e+00	 7.583333e+00	 1.004063e+01
3	 3.750000e+00	 7.666667e+00	 1.003783e+01
3	 3.750000e+00	 7.750000e+00	 1.003516e+01
3	 3.750000e+00	 7.833333e+00	 1.003262e+01
3	 3.750000e+00	 7.916667e+00	 1.003022e+01
3	 3.333333e+00	 7.916667e+00	 1.001399e+01
3	 3.333333e+00	 8.000000e+00	 1.001281e+01
3	 3.333333e+00	 8.083333e+00	 1.001170e+01
3	 3.333333e+00	 8.166667e+00	 1.001066e+01
3	 3.333333e+00	 8.250000e+00	 1.000970e+01
3	 3.333333e+00	 8.333333e+00	 1.000881e+01
3	 3.416667e+00	 7.916667e+00	 1.001752e+01
3	 3.416667e+00	 8.000000e+00	 1.001610e+01
3	 3.416667e+00	 8.083333e+00	 1.001475e+01
3	 3.416667e+00	 8.166667e+00	 1.001349e+01
3	 3.416667e+00	 8.250000e+00	 1.001230e+01
3	 3.416667e+00	 8.333333e+00	 1.001120e+01
3	 3.500000e+00	 7.916667e+00	 1.002092e+01
3	 3.500000e+00	 8.000000e+00	 1.001926e+01
3	 3.500000e+00	 8.083333e+00	 1.001769e+01
3	 3.500000e+00	 8.166667e+00	 1.001621e+01
3	 3.500000e+00	 8.250000e+00	 1.001481e+01
3	 3.500000e+00	 8.333333e+00	 1.001350e+01
3	 3.583333e+00	 7.916667e+00	 1.002417e+01
3	 3.583333e+00	 8.000000e+00	 1.002230e+01
3	 3.583333e+00	 8.083333e+00	 1.002051e+01
3	 3.583333e+00	 8.166667e+00	 1.001881e+01
3	 3.583333e+00	 8.250000e+00	 1.001721e+01
3	 3.583333e+00	 8.333333e+00	 1.001571e+01
3	 3.666667e+00	 7.916667e+00	 1.002727e+01
3	 3.666667e+00	 8.000000e+00	 1.002519e+01
3	 3.666667e+00	 8.083333e+00	 1.002320e+01
3	 3.666667e+00	 8.166667e+00	 1.002131e+01
3	 3.666667e+00	 8.250000e+00	 1.001951e+01
3	 3.666667e+00	 8.333333e+00	 1.001781e+01
3	 3.750000e+00	 7.916667e+00	 1.003022e+01
3	 3.750000e+00	 8.000000e+00	 1.002793e+01
3	 3.750000e+00	 8.083333e+00	 1.002575e+01
3	 3.750000e+00	 8.166667e+00	 1.002367e+01
3	 3.750000e+00	 8.250000e+00	 1.002169e+01
3	 3.750000e+00	 8.333333e+00	 1.001982e+01
3	 3.333333e+00	 8.333333e+00	 1.000881e+01
3	 3.333333e+00	 8.416667e+00	 1.000798e+01
3	 3.333333e+00	 8.500000e+00	 1.000720e+01
3	 3.333333e+00	 8.583333e+00	 1.000647e+01
3	 3.333333e+00	 8.666667e+00	 1.000578e+01
3	 3.333333e+00	 8.750000e+00	 1.000515e+01
3	 3.416667e+00	 8.333333e+00	 1.001120e+01
3	 3.416667e+00	 8.416667e+00	 1.001016e+01
3	 3.416667e+00	 8.500000e+00	 1.000918e+01
3	 3.416667e+00	 8.583333e+00	 1.000825e+01
3	 3.416667e+00	 8.666667e+00	 1.000738e+01
3	 3.416667e+00	 8.750000e+00	 1.000657e+01
3	 3.500000e+00	 8.333333e+00	 1.001350e+01
3	 3.500000e+00	 8.416667e+00	 1.001226e+01
3	 3.500000e+00	 8.500000e+00	 1.001109e+01
3	 3.500000e+00	 8.583333e+00	 1.000998e+01
3	 3.500000e+00	 8.666667e+00	 1.000893e+01
3	 3.500000e+00	 8.750000e+00	 1.000795e+01
3	 3.583333e+00	 8.333333e+00	 1.001571e+01
3	 3.583333e+00	 8.416667e+00	 1.001428e+01
3	 3.583333e+00	 8.500000e+00	 1.001292e+01
3	 3.583333e+00	 8.583333e+00	 1.001164e+01
3	 3.583333e+00	 8.666667e+00	 1.001042e+01
3	 3.583333e+00	 8.750000e+00	 1.000927e+01
3	 3.666667e+00	 8.333333e+00	 1.001781e+01
3	 3.666667e+00	 8.416667e+00	 1.001621e+01
3	 3.666667e+00	 8.500000e+00	 1.001468e+01
3	 3.666667e+00	 8.583333e+00	 1.001322e+01
3	 3.666667e+00	 8.666667e+00	 1.001184e+01
3	 3.666667e+00	 8.750000e+00	 1.001054e+01
3	 3.750000e+00	 8.333333e+00	 1.001982e+01
3	 3.750000e+00	 8.416667e+00	 1.001804e+01
3	 3.750000e+00	 8.500000e+00	 1.001634e+01
3	 3.750000e+00	 8.583333e+00	 1.001473e+01
3	 3.750000e+00	 8.666667e+00	 1.001319e+01
3	 3.750000e+00	 8.750000e+00	 1.001174e+01
3	 3.333333e+00	 8.750000e+00	 1.000515e+01
3	 3.333333e+00	 8.833333e+00	 1.000455e+01
3	 3.333333e+00	 8.916667e+00	 1.000399e+01
3	 3.333333e+00	 9.000000e+00	 1.000346e+01
3	 3.333333e+00	 9.083333e+00	 1.000297e+01
3	 3.333333e+00	 9.166667e+00	 1.000251e+01
3	 3.416667e+00	 8.750000e+00	 1.000657e+01
3	 3.416667e+00	 8.833333e+00	 1.000581e+01
3	 3.416667e+00	 8.916667e+00	 1.000509e+01
3	 3.416667e+00	 9.000000e+00	 1.000441e+01
3	 3.416667e+00	 9.083333e+00	 1.000378e+01
3	 3.416667e+00	 9.166667e+00	 1.000318e+01
3	 3.500000e+00	 8.750000e+00	 1.000795e+01
3	 3.500000e+00	 8.833333e+00	 1.000702e+01
3	 3.500000e+00	 8.916667e+00	 1.000615e+01
3	 3.500000e+00	 9.000000e+00	 1.000533e+01
3	 3.500000e+00	 9.083333e+00	 1.000456e+01
3	 3.500000e+00	 9.166667e+00	 1.000384e+01
3	 3.583333e+00	 8.750000e+00	 1.000927e+01
3	 3.583333e+00	 8.833333e+00	 1.000819e+01
3	 3.583333e+00	 8.916667e+00	 1.000717e+01
3	 3.583333e+00	 9.000000e+00	 1.000622e+01
3	 3.583333e+00	 9.083333e+00	 1.000532e+01
3	 3.583333e+00	 9.166667e+00	 1.000447e+01
3	 3.666667e+00	 8.750000e+00	 1.001054e+01
3	 3.666667e+00	 8.833333e+00	 1.000931e+01
3	 3.666667e+00	 8.916667e+00	 1.000815e+01
3	 3.666667e+00	 9.000000e+00	 1.000706e+01
3	 3.666667e+00	 9.083333e+00	 1.000604e+01
3	 3.666667e+00	 9.166667e+00	 1.000508e+01
3	 3.750000e+00	 8.750000e+00	 1.001174e+01
3	 3.750000e+00	 8.833333e+00	 1.001037e+01
3	 3.750000e+00	 8.916667e+00	 1.000908e+01
3	 3.750000e+00	 9.000000e+00	 1.000786e+01
3	 3.750000e+00	 9.083333e+00	 1.000672e+01
3	 3.750000e+00	 9.166667e+00	 1.000564e+01
3	 3.333333e+00	 9.166667e+00	 1.000251e+01
3	 3.333333e+00	 9.250000e+00	 1.000208e+01
3	 3.333333e+00	 9.333333e+00	 1.000169e+01
3	 3.333333e+00	 9.416667e+00	 1.000134e+01
3	 3.333333e+00	 9.500000e+00	 1.000102e+01
3	 3.333333e+00	 9.583333e+00	 1.000072e+01
3	 3.416667e+00	 9.166667e+00	 1.000318e+01
3	 3.416667e+00	 9.250000e+00	 1.000263e+01
3	 3.416667e+00	 9.333333e+00	 1.000214e+01
3	 3.416667e+00	 9.416667e+00	 1.000168e+01
3	 3.416667e+00	 9.500000e+00	 1.000127e+01
3	 3.416667e+00	 9.583333e+00	 1.000090e+01
3	 3.500000e+00	 9.166667e+00	 1.000384e+01
3	 3.500000e+00	 9.250000e+00	 1.000317e+01
3	 3.500000e+00	 9.333333e+00	 1.000257e+01
3	 3.500000e+00	 9.416667e+00	 1.000202e+01
3	 3.500000e+00	 9.500000e+00	 1.000153e+01
3	 3.500000e+00	 9.583333e+00	 1.000108e+01
3	 3.583333e+00	 9.166667e+00	 1.000447e+01
3	 3.583333e+00	 9.250000e+00	 1.000369e+01
3	 3.583333e+00	 9.333333e+00	 1.000299e+01
3	 3.583333e+00	 9.416667e+00	 1.000235e+01
3	 3.583333e+00	 9.500000e+00	 1.000177e+01
3	 3.583333e+00	 9.583333e+00	 1.000125e+01
3	 3.666667e+00	 9.166667e+00	 1.000508e+01
3	 3.666667e+00	 9.250000e+00	 1.000419e+01
3	 3.666667e+00	 9.333333e+00	 1.000339e+01
3	 3.666667e+00	 9.416667e+00	 1.000266e+01
3	 3.666667e+00	 9.500000e+00	 1.000201e+01
3	 3.666667e+00	 9.583333e+00	 1.000142e+01
3	 3.750000e+00	 9.166667e+00	 1.000564e+01
3	 3.750000e+00	 9.250000e+00	 1.000465e+01
3	 3.750000e+00	 9.333333e+00	 1.000376e+01
3	 3.750000e+00	 9.416667e+00	 1.000295e+01
3	 3.750000e+00	 9.500000e+00	 1.000222e+01
3	 3.750000e+00	 9.583333e+00	 1.000157e+01
3	 3.333333e+00	 9.583333e+00	 1.000072e+01
3	 3.333333e+00	 9.666667e+00	 1.000047e+01
3	 3.333333e+00	 9.750000e+00	 1.000028e+01
3	 3.333333e+00	 9.833333e+00	 1.000014e+01
3	 3.333333e+00	 9.916667e+00	 1.000004e+01
3	 3.333333e+00	 1.000000e+01	 9.999979e+00
3	 3.416667e+00	 9.583333e+00	 1.000090e+01
3	 3.416667e+00	 9.666667e+00	 1.000058e+01
3	 3.416667e+00	 9.750000e+00	 1.000034e+01
3	 3.416667e+00	 9.833333e+00	 1.000016e+01
3	 3.416667e+00	 9.916667e+00	 1.000004e+01
3	 3.416667e+00	 1.000000e+01	 9.999968e+00
3	 3.500000e+00	 9.583333e+00	 1.000108e+01
3	 3.500000e+00	 9.666667e+00	 1.000070e+01
3	 3.500000e+00	 9.750000e+00	 1.000041e+01
3	 3.500000e+00	 9.833333e+00	 1.000019e+01
3	 3.500000e+00	 9.916667e+00	 1.000005e+01
3	 3.500000e+00	 1.000000e+01	 9.999969e+00
3	 3.583333e+00	 9.583333e+00	 1.000125e+01
3	 3.583333e+00	 9.666667e+00	 1.000081e+01
3	 3.583333e+00	 9.750000e+00	 1.000048e+01
3	 3.583333e+00	 9.833333e+00	 1.000023e+01
3	 3.583333e+00	 9.916667e+00	 1.000007e+01
3	 3.583333e+00	 1.000000e+01	 9.999975e+00
3	 3.666667e+00	 9.583333e+00	 1.000142e+01
3	 3.666667e+00	 9.666667e+00	 1.000092e+01
3	 3.666667e+00	 9.750000e+00	 1.000054e+01
3	 3.666667e+00	 9.833333e+00	 1.000026e+01
3	 3.666667e+00	 9.916667e+00	 1.000008e+01
3	 3.666667e+00	 1.000000e+01	 9.999978e+00
3	 3.750000e+00	 9.583333e+00	 1.000157e+01
3	 3.750000e+00	 9.666667e+00	 1.000101e+01
3	 3.750000e+00	 9.750000e+00	 1.000059e+01
3	 3.750000e+00	 9.833333e+00	 1.000028e+01
3	 3.750000e+00	 9.916667e+00	 1.000008e+01
3	 3.750000e+00	 1.000000e+01	 9.999970e+00
3	 3.750000e+00	 5.000000e+00	 1.025311e+01
3	 3.750000e+00	 5.083333e+00	 1.024051e+01
3	 3.750000e+00	 5.166667e+00	 1.022841e+01
3	 3.750000e+00	 5.250000e+00	 1.021681e+01
3	 3.750000e+00	 5.333333e+00	 1.020569e+01
3	 3.750000e+00	 5.416667e+00	 1.019506e+01
3	 3.833333e+00	 5.000000e+00	 1.026087e+01
3	 3.833333e+00	 5.083333e+00	 1.024836e+01
3	 3.833333e+00	 5.166667e+00	 1.023633e+01
3	 3.833333e+00	 5.250000e+00	 1.022476e+01
3	 3.833333e+00	 5.333333e+00	 1.021366e+01
3	 3.833333e+00	 5.416667e+00	 1.020301e+01
3	 3.916667e+00	 5.000000e+00	 1.026759e+01
3	 3.916667e+00	 5.083333e+00	 1.025521e+01
3	 3.916667e+00	 5.166667e+00	 1.024328e+01
3	 3.916667e+00	 5.250000e+00	 1.023179e+01
3	 3.916667e+00	 5.333333e+00	 1.022073e+01
3	 3.916667e+00	 5.416667e+00	 1.021009e+01
3	 4.000000e+00	 5.000000e+00	 1.027334e+01
3	 4.000000e+00	 5.083333e+00	 1.026112e+01
3	 4.000000e+00	 5.166667e+00	 1.024933e+01
3	 4.000000e+00	 5.250000e+00	 1.023794e+01
3	 4.000000e+00	 5.333333e+00	 1.022696e+01
3	 4.000000e+00	 5.416667e+00	 1.021637e+01
3	 4.083333e+00	 5.000000e+00	 1.027819e+01
3	 4.083333e+00	 5.083333e+00	 1.026616e+01
3	 4.083333e+00	 5.166667e+00	 1.025453e+01
3	 4.083333e+00	 5.250000e+00	 1.024328e+01
3	 4.083333e+00	 5.333333e+00	 1.023240e+01
3	 4.083333e+00	 5.416667e+00	 1.022189e+01
3	 4.166667e+00	 5.000000e+00	 1.028221e+01
3	 4.166667e+00	 5.083333e+00	 1.027039e+01
3	 4.166667e+00	 5.166667e+00	 1.025894e+01
3	 4.166667e+00	 5.250000e+00	 1.024785e+01
3	 4.166667e+00	 5.333333e+00	 1.023710e+01
3	 4.166667e+00	 5.416667e+00	 1.022669e+01
3	 3.750000e+00	 5.416667e+00	 1.019506e+01
3	 3.750000e+00	 5.500000e+00	 1.018489e+01
3	 3.750000e+00	 5.583333e+00	 1.017514e+01
3	 3.750000e+00	 5.666667e+00	 1.016583e+01
3	 3.750000e+00	 5.750000e+00	 1.015695e+01
3	 3.750000e+00	 5.833333e+00	 1.014849e+01
3	 3.833333e+00	 5.416667e+00	 1.020301e+01
3	 3.833333e+00	 5.500000e+00	 1.019278e+01
3	 3.833333e+00	 5.583333e+00	 1.018298e+01
3	 3.833333e+00	 5.666667e+00	 1.017359e+01
3	 3.833333e+00	 5.750000e+00	 1.016460e+01
3	 3.833333e+00	 5.833333e+00	 1.015603e+01
3	 3.916667e+00	 5.416667e+00	 1.021009e+01
3	 3.916667e+00	 5.500000e+00	 1.019986e+01
3	 3.916667e+00	 5.583333e+00	 1.019003e+01
3	 3.916667e+00	 5.666667e+00	 1.018059e+01
3	 3.916667e+00	 5.750000e+00	 1.017155e+01
3	 3.916667e+00	 5.833333e+00	 1.016289e+01
3	 4.000000e+00	 5.416667e+00	 1.021637e+01
3	 4.000000e+00	 5.500000e+00	 1.020616e+01
3	 4.000000e+00	 5.583333e+00	 1.019634e+01
3	 4.000000e+00	 5.666667e+00	 1.018688e+01
3	 4.000000e+00	 5.750000e+00	 1.017780e+01
3	 4.000000e+00	 5.833333e+00	 1.016909e+01
3	 4.083333e+00	 5.416667e+00	 1.022189e+01
3	 4.083333e+00	 5.500000e+00	 1.021173e+01
3	 4.083333e+00	 5.583333e+00	 1.020193e+01
3	 4.083333e+00	 5.666667e+00	 1.019249e+01
3	 4.083333e+00	 5.750000e+00	 1.018341e+01
3	 4.083333e+00	 5.833333e+00	 1.017466e+01
3	 4.166667e+00	 5.416667e+00	 1.022669e+01
3	 4.166667e+00	 5.500000e+00	 1.021660e+01
3	 4.166667e+00	 5.583333e+00	 1.020686e+01
3	 4.166667e+00	 5.666667e+00	 1.019746e+01
3	 4.166667e+00	 5.750000e+00	 1.018839e+01
3	 4.166667e+00	 5.833333e+00	 1.017964e+01
3	 3.750000e+00	 5.833333e+00	 1.014849e+01
3	 3.750000e+00	 5.916667e+00	 1.014043e+01
3	 3.750000e+00	 6.000000e+00	 1.013272e+01
3	 3.750000e+00	 6.083333e+00	 1.012536e+01
3	 3.750000e+00	 6.166667e+00	 1.011836e+01
3	 3.750000e+00	 6.250000e+00	 1.011173e+01
3	 3.833333e+00	 5.833333e+00	 1.015603e+01
3	 3.833333e+00	 5.916667e+00	 1.014783e+01
3	 3.833333e+00	 6.000000e+00	 1.013998e+01
3	 3.833333e+00	 6.083333e+00	 1.013248e+01
3	 3.833333e+00	 6.166667e+00	 1.012532e+01
3	 3.833333e+00	 6.250000e+00	 1.011851e+01
3	 3.916667e+00	 5.833333e+00	 1.016289e+01
3	 3.916667e+00	 5.916667e+00	 1.015459e+01
3	 3.916667e+00	 6.000000e+00	 1.014663e+01
3	 3.916667e+00	 6.083333e+00	 1.013900e+01
3	 3.916667e+00	 6.166667e+00	 1.013171e+01
3	 3.916667e+00	 6.250000e+00	 1.012476e+01
3	 4.000000e+00	 5.833333e+00	 1.016909e+01
3	 4.000000e+00	 5.916667e+00	 1.016072e+01
3	 4.000000e+00	 6.000000e+00	 1.015267e+01
3	 4.000000e+00	 6.083333e+00	 1.014495e+01
3	 4.000000e+00	 6.166667e+00	 1.013756e+01
3	 4.000000e+00	 6.250000e+00	 1.013048e+01
3	 4.083333e+00	 5.833333e+00	 1.017466e+01
3	 4.083333e+00	 5.916667e+00	 1.016625e+01
3	 4.083333e+00	 6.000000e+00	 1.015815e+01
3	 4.083333e+00	 6.083333e+00	 1.015036e+01
3	 4.083333e+00	 6.166667e+00	 1.014288e+01
3	 4.083333e+00	 6.250000e+00	 1.013571e+01
3	 4.166667e+00	 5.833333e+00	 1.017964e+01
3	 4.166667e+00	 5.916667e+00	 1.017120e+01
3	 4.166667e+00	 6.000000e+00	 1.016306e+01
3	 4.166667e+00	 6.083333e+00	 1.015523e+01
3	 4.166667e+00	 6.166667e+00	 1.014769e+01
3	 4.166667e+00	 6.250000e+00	 1.014044e+01
3	 3.750000e+00	 6.250000e+00	 1.011173e+01
3	 3.750000e+00	 6.333333e+00	 1.010542e+01
3	 3.750000e+00	 6.416667e+00	 1.009939e+01
3	 3.750000e+00	 6.500000e+00	 1.009365e+01
3	 3.750000e+00	 6.583333e+00	 1.008819e+01
3	 3.750000e+00	 6.666667e+00	 1.008304e+01
3	 3.833333e+00	 6.250000e+00	 1.011851e+01
3	 3.833333e+00	 6.333333e+00	 1.011202e+01
3	 3.833333e+00	 6.416667e+00	 1.010580e+01
3	 3.833333e+00	 6.500000e+00	 1.009987e+01
3	 3.833333e+00	 6.583333e+00	 1.009422e+01
3	 3.833333e+00	 6.666667e+00	 1.008886e+01
3	 3.916667e+00	 6.250000e+00	 1.012476e+01
3	 3.916667e+00	 6.333333e+00	 1.011811e+01
3	 3.916667e+00	 6.416667e+00	 1.011173e+01
3	 3.916667e+00	 6.500000e+00	 1.010564e+01
3	 3.916667e+00	 6.583333e+00	 1.009982e+01
3	 3.916667e+00	 6.666667e+00	 1.009428e+01
3	 4.000000e+00	 6.250000e+00	 1.013048e+01
3	 4.000000e+00	 6.333333e+00	 1.012371e+01
3	 4.000000e+00	 6.416667e+00	 1.011720e+01
3	 4.000000e+00	 6.500000e+00	 1.011096e+01
3	 4.000000e+00	 6.583333e+00	 1.010499e+01
3	 4.000000e+00	 6.666667e+00	 1.009930e+01
3	 4.083333e+00	 6.250000e+00	 1.013571e+01
3	 4.083333e+00	 6.333333e+00	 1.012882e+01
3	 4.083333e+00	 6.416667e+00	 1.012220e+01
3	 4.083333e+00	 6.500000e+00	 1.011584e+01
3	 4.083333e+00	 6.583333e+00	 1.010975e+01
3	 4.083333e+00	 6.666667e+00	 1.010392e+01
3	 4.166667e+00	 6.250000e+00	 1.014044e+01
3	 4.166667e+00	 6.333333e+00	 1.013347e+01
3	 4.166667e+00	 6.416667e+00	 1.012676e+01
3	 4.166667e+00	 6.500000e+00	 1.012030e+01
3	 4.166667e+00	 6.583333e+00	 1.011410e+01
3	 4.166667e+00	 6.666667e+00	 1.010816e+01
3	 3.750000e+00	 6.666667e+00	 1.008304e+01
3	 3.750000e+00	 6.750000e+00	 1.007814e+01
3	 3.750000e+00	 6.833333e+00	 1.007346e+01
3	 3.750000e+00	 6.916667e+00	 1.006900e+01
3	 3.750000e+00	 7.000000e+00	 1.006478e+01
3	 3.750000e+00	 7.083333e+00	 1.006079e+01
3	 3.833333e+00	 6.666667e+00	 1.008886e+01
3	 3.833333e+00	 6.750000e+00	 1.008376e+01
3	 3.833333e+00	 6.833333e+00	 1.007888e+01
3	 3.833333e+00	 6.916667e+00	 1.007422e+01
3	 3.833333e+00	 7.000000e+00	 1.006978e+01
3	 3.833333e+00	 7.083333e+00	 1.006558e+01
3	 3.916667e+00	 6.666667e+00	 1.009428e+01
3	 3.916667e+00	 6.750000e+00	 1.008900e+01
3	 3.916667e+00	 6.833333e+00	 1.008393e+01
3	 3.916667e+00	 6.916667e+00	 1.007909e+01
3	 3.916667e+00	 7.000000e+00	 1.007447e+01
3	 3.916667e+00	 7.083333e+00	 1.007008e+01
3	 4.000000e+00	 6.666667e+00	 1.009930e+01
3	 4.000000e+00	 6.750000e+00	 1.009385e+01
3	 4.000000e+00	 6.833333e+00	 1.008862e+01
3	 4.000000e+00	 6.916667e+00	 1.008361e+01
3	 4.000000e+00	 7.000000e+00	 1.007883e+01
3	 4.000000e+00	 7.083333e+00	 1.007426e+01
3	 4.083333e+00	 6.666667e+00	 1.010392e+01
3	 4.083333e+00	 6.750000e+00	 1.009834e+01
3	 4.083333e+00	 6.833333e+00	 1.009296e+01
3	 4.083333e+00	 6.916667e+00	 1.008781e+01
3	 4.083333e+00	 7.000000e+00	 1.008287e+01
3	 4.083333e+00	 7.083333e+00	 1.007815e+01
3	 4.166667e+00	 6.666667e+00	 1.010816e+01
3	 4.166667e+00	 6.750000e+00	 1.010245e+01
3	 4.166667e+00	 6.833333e+00	 1.009695e+01
3	 4.166667e+00	 6.916667e+00	 1.009166e+01
3	 4.166667e+00	 7.000000e+00	 1.008659e+01
3	 4.166667e+00	 7.083333e+00	 1.008174e+01
3	 3.750000e+00	 7.083333e+00	 1.006079e+01
3	 3.750000e+00	 7.166667e+00	 1.005700e+01
3	 3.750000e+00	 7.250000e+00	 1.005338e+01
3	 3.750000e+00	 7.333333e+00	 1.004993e+01
3	 3.750000e+00	 7.416667e+00	 1.004666e+01
3	 3.750000e+00	 7.500000e+00	 1.004357e+01
3	 3.833333e+00	 7.083333e+00	 1.006558e+01
3	 3.833333e+00	 7.166667e+00	 1.006158e+01
3	 3.833333e+00	 7.250000e+00	 1.005776e+01
3	 3.833333e+00	 7.333333e+00	 1.005410e+01
3	 3.833333e+00	 7.416667e+00	 1.005063e+01
3	 3.833333e+00	 7.500000e+00	 1.004734e+01
3	 3.916667e+00	 7.083333e+00	 1.007008e+01
3	 3.916667e+00	 7.166667e+00	 1.006588e+01
3	 3.916667e+00	 7.250000e+00	 1.006187e+01
3	 3.916667e+00	 7.333333e+00	 1.005803e+01
3	 3.916667e+00	 7.416667e+00	 1.005436e+01
3	 3.916667e+00	 7.500000e+00	 1.005088e+01
3	 4.000000e+00	 7.083333e+00	 1.007426e+01
3	 4.000000e+00	 7.166667e+00	 1.006990e+01
3	 4.000000e+00	 7.250000e+00	 1.006571e+01
3	 4.000000e+00	 7.333333e+00	 1.006169e+01
3	 4.000000e+00	 7.416667e+00	 1.005786e+01
3	 4.000000e+00	 7.500000e+00	 1.005420e+01
3	 4.083333e+00	 7.083333e+00	 1.007815e+01
3	 4.083333e+00	 7.166667e+00	 1.007363e+01
3	 4.083333e+00	 7.250000e+00	 1.006928e+01
3	 4.083333e+00	 7.333333e+00	 1.006511e+01
3	 4.083333e+00	 7.416667e+00	 1.006111e+01
3	 4.083333e+00	 7.500000e+00	 1.005730e+01
3	 4.166667e+00	 7.083333e+00	 1.008174e+01
3	 4.166667e+00	 7.166667e+00	 1.007707e+01
3	 4.166667e+00	 7.250000e+00	 1.007259e+01
3	 4.166667e+00	 7.333333e+00	 1.006827e+01
3	 4.166667e+00	 7.416667e+00	 1.006413e+01
3	 4.166667e+00	 7.500000e+00	 1.006017e+01
3	 3.750000e+00	 7.500000e+00	 1.004357e+01
3	 3.750000e+00	 7.583333e+00	 1.004063e+01
3	 3.750000e+00	 7.666667e+00	 1.003783e+01
3	 3.750000e+00	 7.750000e+00	 1.003516e+01
3	 3.750000e+00	 7.833333e+00	 1.003262e+01
3	 3.750000e+00	 7.916667e+00	 1.003022e+01
3	 3.833333e+00	 7.500000e+00	 1.004734e+01
3	 3.833333e+00	 7.583333e+00	 1.004420e+01
3	 3.833333e+00	 7.666667e+00	 1.004119e+01
3	 3.833333e+00	 7.750000e+00	 1.003833e+01
3	 3.833333e+00	 7.833333e+00	 1.003560e+01
3	 3.833333e+00	 7.916667e+00	 1.003300e+01
3	 3.916667e+00	 7.500000e+00	 1.005088e+01
3	 3.916667e+00	 7.583333e+00	 1.004755e+01
3	 3.916667e+00	 7.666667e+00	 1.004437e+01
3	 3.916667e+00	 7.750000e+00	 1.004132e+01
3	 3.916667e+00	 7.833333e+00	 1.003841e+01
3	 3.916667e+00	 7.916667e+00	 1.003564e+01
3	 4.000000e+00	 7.500000e+00	 1.005420e+01
3	 4.000000e+00	 7.583333e+00	 1.005070e+01
3	 4.000000e+00	 7.666667e+00	 1.004734e+01
3	 4.000000e+00	 7.750000e+00	 1.004412e+01
3	 4.000000e+00	 7.833333e+00	 1.004105e+01
3	 4.000000e+00	 7.916667e+00	 1.003811e+01
3	 4.083333e+00	 7.500000e+00	 1.005730e+01
3	 4.083333e+00	 7.583333e+00	 1.005364e+01
3	 4.083333e+00	 7.666667e+00	 1.005012e+01
3	 4.083333e+00	 7.750000e+00	 1.004675e+01
3	 4.083333e+00	 7.833333e+00	 1.004352e+01
3	 4.083333e+00	 7.916667e+00	 1.004043e+01
3	 4.166667e+00	 7.500000e+00	 1.006017e+01
3	 4.166667e+00	 7.583333e+00	 1.005637e+01
3	 4.166667e+00	 7.666667e+00	 1.005271e+01
3	 4.166667e+00	 7.750000e+00	 1.004919e+01
3	 4.166667e+00	 7.833333e+00	 1.004581e+01
3	 4.166667e+00	 7.916667e+00	 1.004258e+01
3	 3.750000e+00	 7.916667e+00	 1.003022e+01
3	 3.750000e+00	 8.000000e+00	 1.002793e+01
3	 3.750000e+00	 8.083333e+00	 1.002575e+01
3	 3.750000e+00	 8.166667e+00	 1.002367e+01
3	 3.750000e+00	 8.250000e+00	 1.002169e+01
3	 3.750000e+00	 8.333333e+00	 1.001982e+01
3	 3.833333e+00	 7.916667e+00	 1.003300e+01
3	 3.833333e+00	 8.000000e+00	 1.003053e+01
3	 3.833333e+00	 8.083333e+00	 1.002817e+01
3	 3.833333e+00	 8.166667e+00	 1.002591e+01
3	 3.833333e+00	 8.250000e+00	 1.002376e+01
3	 3.833333e+00	 8.333333e+00	 1.002172e+01
3	 3.916667e+00	 7.916667e+00	 1.003564e+01
3	 3.916667e+00	 8.000000e+00	 1.003299e+01
3	 3.916667e+00	 8.083333e+00	 1.003046e+01
3	 3.916667e+00	 8.166667e+00	 1.002803e+01
3	 3.916667e+00	 8.250000e+00	 1.002572e+01
3	 3.916667e+00	 8.333333e+00	 1.002352e+01
3	 4.000000e+00	 7.916667e+00	 1.003811e+01
3	 4.000000e+00	 8.000000e+00	 1.003530e+01
3	 4.000000e+00	 8.083333e+00	 1.003261e+01
3	 4.000000e+00	 8.166667e+00	 1.003003e+01
3	 4.000000e+00	 8.250000e+00	 1.002757e+01
3	 4.000000e+00	 8.333333e+00	 1.002521e+01
3	 4.083333e+00	 7.916667e+00	 1.004043e+01
3	 4.083333e+00	 8.000000e+00	 1.003747e+01
3	 4.083333e+00	 8.083333e+00	 1.003463e+01
3	 4.083333e+00	 8.166667e+00	 1.003190e+01
3	 4.083333e+00	 8.250000e+00	 1.002930e+01
3	 4.083333e+00	 8.333333e+00	 1.002680e+01
3	 4.166667e+00	 7.916667e+00	 1.004258e+01
3	 4.166667e+00	 8.000000e+00	 1.003948e+01
3	 4.166667e+00	 8.083333e+00	 1.003650e+01
3	 4.166667e+00	 8.166667e+00	 1.003365e+01
3	 4.166667e+00	 8.250000e+00	 1.003091e+01
3	 4.166667e+00	 8.333333e+00	 1.002828e+01
3	 3.750000e+00	 8.333333e+00	 1.001982e+01
3	 3.750000e+00	 8.416667e+00	 1.001804e+01
3	 3.750000e+00	 8.500000e+00	 1.001634e+01
3	 3.750000e+00	 8.583333e+00	 1.001473e+01
3	 3.750000e+00	 8.666667e+00	 1.001319e+01
3	 3.750000e+00	 8.750000e+00	 1.001174e+01
3	 3.833333e+00	 8.333333e+00	 1.002172e+01
3	 3.833333e+00	 8.416667e+00	 1.001977e+01
3	 3.833333e+00	 8.500000e+00	 1.001792e+01
3	 3.833333e+00	 8.583333e+00	 1.001615e+01
3	 3.833333e+00	 8.666667e+00	 1.001447e+01
3	 3.833333e+00	 8.750000e+00	 1.001288e+01
3	 3.916667e+00	 8.333333e+00	 1.002352e+01
3	 3.916667e+00	 8.416667e+00	 1.002142e+01
3	 3.916667e+00	 8.500000e+00	 1.001941e+01
3	 3.916667e+00	 8.583333e+00	 1.001750e+01
3	 3.916667e+00	 8.666667e+00	 1.001569e+01
3	 3.916667e+00	 8.750000e+00	 1.001396e+01
3	 4.000000e+00	 8.333333e+00	 1.002521e+01
3	 4.000000e+00	 8.416667e+00	 1.002297e+01
3	 4.000000e+00	 8.500000e+00	 1.002083e+01
3	 4.000000e+00	 8.583333e+00	 1.001878e+01
3	 4.000000e+00	 8.666667e+00	 1.001683e+01
3	 4.000000e+00	 8.750000e+00	 1.001498e+01
3	 4.083333e+00	 8.333333e+00	 1.002680e+01
3	 4.083333e+00	 8.416667e+00	 1.002442e+01
3	 4.083333e+00	 8.500000e+00	 1.002215e+01
3	 4.083333e+00	 8.583333e+00	 1.001998e+01
3	 4.083333e+00	 8.666667e+00	 1.001791e+01
3	 4.083333e+00	 8.750000e+00	 1.001594e+01
3	 4.166667e+00	 8.333333e+00	 1.002828e+01
3	 4.166667e+00	 8.416667e+00	 1.002578e+01
3	 4.166667e+00	 8.500000e+00	 1.002338e+01
3	 4.166667e+00	 8.583333e+00	 1.002109e+01
3	 4.166667e+00	 8.666667e+00	 1.001891e+01
3	 4.166667e+00	 8.750000e+00	 1.001683e+01
3	 3.750000e+00	 8.750000e+00	 1.001174e+01
3	 3.750000e+00	 8.833333e+00	 1.001037e+01
3	 3.750000e+00	 8.916667e+00	 1.000908e+01
3	 3.750000e+00	 9.000000e+00	 1.000786e+01
3	 3.750000e+00	 9.083333e+00	 1.000672e+01
3	 3.750000e+00	 9.166667e+00	 1.000564e+01
3	 3.833333e+00	 8.750000e+00	 1.001288e+01
3	 3.833333e+00	 8.833333e+00	 1.001137e+01
3	 3.833333e+00	 8.916667e+00	 1.000995e+01
3	 3.833333e+00	 9.000000e+00	 1.000862e+01
3	 3.833333e+00	 9.083333e+00	 1.000736e+01
3	 3.833333e+00	 9.166667e+00	 1.000618e+01
3	 3.916667e+00	 8.750000e+00	 1.001396e+01
3	 3.916667e+00	 8.833333e+00	 1.001233e+01
3	 3.916667e+00	 8.916667e+00	 1.001079e+01
3	 3.916667e+00	 9.000000e+00	 1.000934e+01
3	 3.916667e+00	 9.083333e+00	 1.000798e+01
3	 3.916667e+00	 9.166667e+00	 1.000670e+01
3	 4.000000e+00	 8.750000e+00	 1.001498e+01
3	 4.000000e+00	 8.833333e+00	 1.001323e+01
3	 4.000000e+00	 8.916667e+00	 1.001158e+01
3	 4.000000e+00	 9.000000e+00	 1.001002e+01
3	 4.000000e+00	 9.083333e+00	 1.000856e+01
3	 4.000000e+00	 9.166667e+00	 1.000718e+01
3	 4.083333e+00	 8.750000e+00	 1.001594e+01
3	 4.083333e+00	 8.833333e+00	 1.001407e+01
3	 4.083333e+00	 8.916667e+00	 1.001232e+01
3	 4.083333e+00	 9.000000e+00	 1.001066e+01
3	 4.083333e+00	 9.083333e+00	 1.000910e+01
3	 4.083333e+00	 9.166667e+00	 1.000764e+01
3	 4.166667e+00	 8.750000e+00	 1.001683e+01
3	 4.166667e+00	 8.833333e+00	 1.001486e+01
3	 4.166667e+00	 8.916667e+00	 1.001300e+01
3	 4.166667e+00	 9.000000e+00	 1.001125e+01
3	 4.166667e+00	 9.083333e+00	 1.000961e+01
3	 4.166667e+00	 9.166667e+00	 1.000806e+01
3	 3.750000e+00	 9.166667e+00	 1.000564e+01
3	 3.750000e+00	 9.250000e+00	 1.000465e+01
3	 3.750000e+00	 9.333333e+00	 1.000376e+01
3	 3.750000e+00	 9.416667e+00	 1.000295e+01
3	 3.750000e+00	 9.500000e+00	 1.000222e+01
3	 3.750000e+00	 9.583333e+00	 1.000157e+01
3	 3.833333e+00	 9.166667e+00	 1.000618e+01
3	 3.833333e+00	 9.250000e+00	 1.000509e+01
3	 3.833333e+00	 9.333333e+00	 1.000411e+01
3	 3.833333e+00	 9.416667e+00	 1.000322e+01
3	 3.833333e+00	 9.500000e+00	 1.000242e+01
3	 3.833333e+00	 9.583333e+00	 1.000171e+01
3	 3.916667e+00	 9.166667e+00	 1.000670e+01
3	 3.916667e+00	 9.250000e+00	 1.000552e+01
3	 3.916667e+00	 9.333333e+00	 1.000445e+01
3	 3.916667e+00	 9.416667e+00	 1.000349e+01
3	 3.916667e+00	 9.500000e+00	 1.000262e+01
3	 3.916667e+00	 9.583333e+00	 1.000185e+01
3	 4.000000e+00	 9.166667e+00	 1.000718e+01
3	 4.000000e+00	 9.250000e+00	 1.000592e+01
3	 4.000000e+00	 9.333333e+00	 1.000477e+01
3	 4.000000e+00	 9.416667e+00	 1.000374e+01
3	 4.000000e+00	 9.500000e+00	 1.000281e+01
3	 4.000000e+00	 9.583333e+00	 1.000198e+01
3	 4.083333e+00	 9.166667e+00	 1.000764e+01
3	 4.083333e+00	 9.250000e+00	 1.000629e+01
3	 4.083333e+00	 9.333333e+00	 1.000507e+01
3	 4.083333e+00	 9.416667e+00	 1.000397e+01
3	 4.083333e+00	 9.500000e+00	 1.000299e+01
3	 4.083333e+00	 9.583333e+00	 1.000210e+01
3	 4.166667e+00	 9.166667e+00	 1.000806e+01
3	 4.166667e+00	 9.250000e+00	 1.000663e+01
3	 4.166667e+00	 9.333333e+00	 1.000535e+01
3	 4.166667e+00	 9.416667e+00	 1.000418e+01
3	 4.166667e+00	 9.500000e+00	 1.000314e+01
3	 4.166667e+00	 9.583333e+00	 1.000221e+01
3	 3.750000e+00	 9.583333e+00	 1.000157e+01
3	 3.750000e+00	 9.666667e+00	 1.000101e+01
3	 3.750000e+00	 9.750000e+00	 1.000059e+01
3	 3.750000e+00	 9.833333e+00	 1.000028e+01
3	 3.750000e+00	 9.916667e+00	 1.000008e+01
3	 3.750000e+00	 1.000000e+01	 9.999970e+00
3	 3.833333e+00	 9.583333e+00	 1.000171e+01
3	 3.833333e+00	 9.666667e+00	 1.000110e+01
3	 3.833333e+00	 9.750000e+00	 1.000064e+01
3	 3.833333e+00	 9.833333e+00	 1.000030e+01
3	 3.833333e+00	 9.916667e+00	 1.000008e+01
3	 3.833333e+00	 1.000000e+01	 9.999961e+00
3	 3.916667e+00	 9.583333e+00	 1.000185e+01
3	 3.916667e+00	 9.666667e+00	 1.000119e+01
3	 3.916667e+00	 9.750000e+00	 1.000069e+01
3	 3.916667e+00	 9.833333e+00	 1.000033e+01
3	 3.916667e+00	 9.916667e+00	 1.000009e+01
3	 3.916667e+00	 1.000000e+01	 9.999962e+00
3	 4.000000e+00	 9.583333e+00	 1.000198e+01
3	 4.000000e+00	 9.666667e+00	 1.000128e+01
3	 4.000000e+00	 9.750000e+00	 1.000074e+01
3	 4.000000e+00	 9.833333e+00	 1.000035e+01
3	 4.000000e+00	 9.916667e+00	 1.000010e+01
3	 4.000000e+00	 1.000000e+01	 9.999967e+00
3	 4.083333e+00	 9.583333e+00	 1.000210e+01
3	 4.083333e+00	 9.666667e+00	 1.000136e+01
3	 4.083333e+00	 9.750000e+00	 1.000079e+01
3	 4.083333e+00	 9.833333e+00	 1.000038e+01
3	 4.083333e+00	 9.916667e+00	 1.000011e+01
3	 4.083333e+00	 1.000000e+01	 9.999970e+00
3	 4.166667e+00	 9.583333e+00	 1.000221e+01
3	 4.166667e+00	 9.666667e+00	 1.000143e+01
3	 4.166667e+00	 9.750000e+00	 1.000083e+01
3	 4.166667e+00	 9.833333e+00	 1.000039e+01
3	 4.166667e+00	 9.916667e+00	 1.000011e+01
3	 4.166667e+00	 1.000000e+01	 9.999965e+00
3	 4.166667e+00	 5.000000e+00	 1.028221e+01
3	 4.166667e+00	 5.083333e+00	 1.027039e+01
3	 4.166667e+00	 5.166667e+00	 1.025894e+01
3	 4.166667e+00	 5.250000e+00	 1.024785e+01
3	 4.166667e+00	 5.333333e+00	 1.023710e+01
3	 4.166667e+00	 5.416667e+00	 1.022669e+01
3	 4.250000e+00	 5.000000e+00	 1.028541e+01
3	 4.250000e+00	 5.083333e+00	 1.027382e+01
3	 4.250000e+00	 5.166667e+00	 1.026258e+01
3	 4.250000e+00	 5.250000e+00	 1.025166e+01
3	 4.250000e+00	 5.333333e+00	 1.024106e+01
3	 4.250000e+00	 5.416667e+00	 1.023077e+01
3	 4.333333e+00	 5.000000e+00	 1.028779e+01
3	 4.333333e+00	 5.083333e+00	 1.027645e+01
3	 4.333333e+00	 5.166667e+00	 1.026543e+01
3	 4.333333e+00	 5.250000e+00	 1.025471e+01
3	 4.333333e+00	 5.333333e+00	 1.024428e+01
3	 4.333333e+00	 5.416667e+00	 1.023413e+01
3	 4.416667e+00	 5.000000e+00	 1.028940e+01
3	 4.416667e+00	 5.083333e+00	 1.027833e+01
3	 4.416667e+00	 5.166667e+00	 1.026755e+01
3	 4.416667e+00	 5.250000e+00	 1.025705e+01
3	 4.416667e+00	 5.333333e+00	 1.024681e+01
3	 4.416667e+00	 5.416667e+00	 1.023682e+01
3	 4.500000e+00	 5.000000e+00	 1.029032e+01
3	 4.500000e+00	 5.083333e+00	 1.027953e+01
3	 4.500000e+00	 5.166667e+00	 1.026901e+01
3	 4.500000e+00	 5.250000e+00	 1.025874e+01
3	 4.500000e+00	 5.333333e+00	 1.024870e+01
3	 4.500000e+00	 5.416667e+00	 1.023889e+01
3	 4.583333e+00	 5.000000e+00	 1.029061e+01
3	 4.583333e+00	 5.083333e+00	 1.028011e+01
3	 4.583333e+00	 5.166667e+00	 1.026985e+01
3	 4.583333e+00	 5.250000e+00	 1.025982e+01
3	 4.583333e+00	 5.333333e+00	 1.025001e+01
3	 4.583333e+00	 5.416667e+00	 1.024039e+01
3	 4.166667e+00	 5.416667e+00	 1.022669e+01
3	 4.166667e+00	 5.500000e+00	 1.021660e+01
3	 4.166667e+00	 5.583333e+00	 1.020686e+01
3	 4.166667e+00	 5.666667e+00	 1.019746e+01
3	 4.166667e+00	 5.750000e+00	 1.018839e+01
3	 4.166667e+00	 5.833333e+00	 1.017964e+01
3	 4.250000e+00	 5.416667e+00	 1.023077e+01
3	 4.250000e+00	 5.500000e+00	 1.022078e+01
3	 4.250000e+00	 5.583333e+00	 1.021112e+01
3	 4.250000e+00	 5.666667e+00	 1.020178e+01
3	 4.250000e+00	 5.750000e+00	 1.019274e+01
3	 4.250000e+00	 5.833333e+00	 1.018401e+01
3	 4.333333e+00	 5.416667e+00	 1.023413e+01
3	 4.333333e+00	 5.500000e+00	 1.022426e+01
3	 4.333333e+00	 5.583333e+00	 1.021471e+01
3	 4.333333e+00	 5.666667e+00	 1.020544e+01
3	 4.333333e+00	 5.750000e+00	 1.019647e+01
3	 4.333333e+00	 5.833333e+00	 1.018778e+01
3	 4.416667e+00	 5.416667e+00	 1.023682e+01
3	 4.416667e+00	 5.500000e+00	 1.022710e+01
3	 4.416667e+00	 5.583333e+00	 1.021766e+01
3	 4.416667e+00	 5.666667e+00	 1.020850e+01
3	 4.416667e+00	 5.750000e+00	 1.019961e+01
3	 4.416667e+00	 5.833333e+00	 1.019098e+01
3	 4.500000e+00	 5.416667e+00	 1.023889e+01
3	 4.500000e+00	 5.500000e+00	 1.022933e+01
3	 4.500000e+00	 5.583333e+00	 1.022003e+01
3	 4.500000e+00	 5.666667e+00	 1.021098e+01
3	 4.500000e+00	 5.750000e+00	 1.020219e+01
3	 4.500000e+00	 5.833333e+00	 1.019364e+01
3	 4.583333e+00	 5.416667e+00	 1.024039e+01
3	 4.583333e+00	 5.500000e+00	 1.023100e+01
3	 4.583333e+00	 5.583333e+00	 1.022185e+01
3	 4.583333e+00	 5.666667e+00	 1.021294e+01
3	 4.583333e+00	 5.750000e+00	 1.020426e+01
3	 4.583333e+00	 5.833333e+00	 1.019580e+01
3	 4.166667e+00	 5.833333e+00	 1.017964e+01
3	 4.166667e+00	 5.916667e+00	 1.017120e+01
3	 4.166667e+00	 6.000000e+00	 1.016306e+01
3	 4.166667e+00	 6.083333e+00	 1.015523e+01
3	 4.166667e+00	 6.166667e+00	 1.014769e+01
3	 4.166667e+00	 6.250000e+00	 1.014044e+01
3	 4.250000e+00	 5.833333e+00	 1.018401e+01
3	 4.250000e+00	 5.916667e+00	 1.017557e+01
3	 4.250000e+00	 6.000000e+00	 1.016742e+01
3	 4.250000e+00	 6.083333e+00	 1.015956e+01
3	 4.250000e+00	 6.166667e+00	 1.015198e+01
3	 4.250000e+00	 6.250000e+00	 1.014469e+01
3	 4.333333e+00	 5.833333e+00	 1.018778e+01
3	 4.333333e+00	 5.916667e+00	 1.017936e+01
3	 4.333333e+00	 6.000000e+00	 1.017123e+01
3	 4.333333e+00	 6.083333e+00	 1.016336e+01
3	 4.333333e+00	 6.166667e+00	 1.015577e+01
3	 4.333333e+00	 6.250000e+00	 1.014844e+01
3	 4.416667e+00	 5.833333e+00	 1.019098e+01
3	 4.416667e+00	 5.916667e+00	 1.018261e+01
3	 4.416667e+00	 6.000000e+00	 1.017450e+01
3	 4.416667e+00	 6.083333e+00	 1.016666e+01
3	 4.416667e+00	 6.166667e+00	 1.015907e+01
3	 4.416667e+00	 6.250000e+00	 1.015173e+01
3	 4.500000e+00	 5.833333e+00	 1.019364e+01
3	 4.500000e+00	 5.916667e+00	 1.018533e+01
3	 4.500000e+00	 6.000000e+00	 1.017728e+01
3	 4.500000e+00	 6.083333e+00	 1.016947e+01
3	 4.500000e+00	 6.166667e+00	 1.016190e+01
3	 4.500000e+00	 6.250000e+00	 1.015457e+01
3	 4.583333e+00	 5.833333e+00	 1.019580e+01
3	 4.583333e+00	 5.916667e+00	 1.018758e+01
3	 4.583333e+00	 6.000000e+00	 1.017958e+01
3	 4.583333e+00	 6.083333e+00	 1.017182e+01
3	 4.583333e+00	 6.166667e+00	 1.016429e+01
3	 4.583333e+00	 6.250000e+00	 1.015698e+01
3	 4.166667e+00	 6.250000e+00	 1.014044e+01
3	 4.166667e+00	 6.333333e+00	 1.013347e+01
3	 4.166667e+00	 6.416667e+00	 1.012676e+01
3	 4.166667e+00	 6.500000e+00	 1.012030e+01
3	 4.166667e+00	 6.583333e+00	 1.011410e+01
3	 4.166667e+00	 6.666667e+00	 1.010816e+01
3	 4.250000e+00	 6.250000e+00	 1.014469e+01
3	 4.250000e+00	 6.333333e+00	 1.013766e+01
3	 4.250000e+00	 6.416667e+00	 1.013087e+01
3	 4.250000e+00	 6.500000e+00	 1.012434e+01
3	 4.250000e+00	 6.583333e+00	 1.011805e+01
3	 4.250000e+00	 6.666667e+00	 1.011201e+01
3	 4.333333e+00	 6.250000e+00	 1.014844e+01
3	 4.333333e+00	 6.333333e+00	 1.014137e+01
3	 4.333333e+00	 6.416667e+00	 1.013453e+01
3	 4.333333e+00	 6.500000e+00	 1.012794e+01
3	 4.333333e+00	 6.583333e+00	 1.012158e+01
3	 4.333333e+00	 6.666667e+00	 1.011546e+01
3	 4.416667e+00	 6.250000e+00	 1.015173e+01
3	 4.416667e+00	 6.333333e+00	 1.014463e+01
3	 4.416667e+00	 6.416667e+00	 1.013776e+01
3	 4.416667e+00	 6.500000e+00	 1.013113e+01
3	 4.416667e+00	 6.583333e+00	 1.012472e+01
3	 4.416667e+00	 6.666667e+00	 1.011854e+01
3	 4.500000e+00	 6.250000e+00	 1.015457e+01
3	 4.500000e+00	 6.333333e+00	 1.014746e+01
3	 4.500000e+00	 6.416667e+00	 1.014058e+01
3	 4.500000e+00	 6.500000e+00	 1.013392e+01
3	 4.500000e+00	 6.583333e+00	 1.012749e+01
3	 4.500000e+00	 6.666667e+00	 1.012126e+01
3	 4.583333e+00	 6.250000e+00	 1.015698e+01
3	 4.583333e+00	 6.333333e+00	 1.014989e+01
3	 4.583333e+00	 6.416667e+00	 1.014301e+01
3	 4.583333e+00	 6.500000e+00	 1.013634e+01
3	 4.583333e+00	 6.583333e+00	 1.012989e+01
3	 4.583333e+00	 6.666667e+00	 1.012364e+01
3	 4.166667e+00	 6.666667e+00	 1.010816e+01
3	 4.166667e+00	 6.750000e+00	 1.010245e+01
3	 4.166667e+00	 6.833333e+00	 1.009695e+01
3	 4.166667e+00	 6.916667e+00	 1.009166e+01
3	 4.166667e+00	 7.000000e+00	 1.008659e+01
3	 4.166667e+00	 7.083333e+00	 1.008174e+01
3	 4.250000e+00	 6.666667e+00	 1.011201e+01
3	 4.250000e+00	 6.750000e+00	 1.010619e+01
3	 4.250000e+00	 6.833333e+00	 1.010059e+01
3	 4.250000e+00	 6.916667e+00	 1.009519e+01
3	 4.250000e+00	 7.000000e+00	 1.009000e+01
3	 4.250000e+00	 7.083333e+00	 1.008502e+01
3	 4.333333e+00	 6.666667e+00	 1.011546e+01
3	 4.333333e+00	 6.750000e+00	 1.010956e+01
3	 4.333333e+00	 6.833333e+00	 1.010387e+01
3	 4.333333e+00	 6.916667e+00	 1.009838e+01
3	 4.333333e+00	 7.000000e+00	 1.009309e+01
3	 4.333333e+00	 7.083333e+00	 1.008801e+01
3	 4.416667e+00	 6.666667e+00	 1.011854e+01
3	 4.416667e+00	 6.750000e+00	 1.011258e+01
3	 4.416667e+00	 6.833333e+00	 1.010681e+01
3	 4.416667e+00	 6.916667e+00	 1.010124e+01
3	 4.416667e+00	 7.000000e+00	 1.009587e+01
3	 4.416667e+00	 7.083333e+00	 1.009070e+01
3	 4.500000e+00	 6.666667e+00	 1.012126e+01
3	 4.500000e+00	 6.750000e+00	 1.011525e+01
3	 4.500000e+00	 6.833333e+00	 1.010942e+01
3	 4.500000e+00	 6.916667e+00	 1.010380e+01
3	 4.500000e+00	 7.000000e+00	 1.009836e+01
3	 4.500000e+00	 7.083333e+00	 1.009311e+01
3	 4.583333e+00	 6.666667e+00	 1.012364e+01
3	 4.583333e+00	 6.750000e+00	 1.011759e+01
3	 4.583333e+00	 6.833333e+00	 1.011172e+01
3	 4.583333e+00	 6.916667e+00	 1.010605e+01
3	 4.583333e+00	 7.000000e+00	 1.010056e+01
3	 4.583333e+00	 7.083333e+00	 1.009525e+01
3	 4.166667e+00	 7.083333e+00	 1.008174e+01
3	 4.166667e+00	 7.166667e+00	 1.007707e+01
3	 4.166667e+00	 7.250000e+00	 1.007259e+01
3	 4.166667e+00	 7.333333e+00	 1.006827e+01
3	 4.166667e+00	 7.416667e+00	 1.006413e+01
3	 4.166667e+00	 7.500000e+00	 1.006017e+01
3	 4.250000e+00	 7.083333e+00	 1.008502e+01
3	 4.250000e+00	 7.166667e+00	 1.008024e+01
3	 4.250000e+00	 7.250000e+00	 1.007562e+01
3	 4.250000e+00	 7.333333e+00	 1.007118e+01
3	 4.250000e+00	 7.416667e+00	 1.006691e+01
3	 4.250000e+00	 7.500000e+00	 1.006282e+01
3	 4.333333e+00	 7.083333e+00	 1.008801e+01
3	 4.333333e+00	 7.166667e+00	 1.008311e+01
3	 4.333333e+00	 7.250000e+00	 1.007839e+01
3	 4.333333e+00	 7.333333e+00	 1.007383e+01
3	 4.333333e+00	 7.416667e+00	 1.006945e+01
3	 4.333333e+00	 7.500000e+00	 1.006524e+01
3	 4.416667e+00	 7.083333e+00	 1.009070e+01
3	 4.416667e+00	 7.166667e+00	 1.008571e+01
3	 4.416667e+00	 7.250000e+00	 1.008089e+01
3	 4.416667e+00	 7.333333e+00	 1.007624e+01
3	 4.416667e+00	 7.416667e+00	 1.007176e+01
3	 4.416667e+00	 7.500000e+00	 1.006745e+01
3	 4.500000e+00	 7.083333e+00	 1.009311e+01
3	 4.500000e+00	 7.166667e+00	 1.008805e+01
3	 4.500000e+00	 7.250000e+00	 1.008315e+01
3	 4.500000e+00	 7.333333e+00	 1.007841e+01
3	 4.500000e+00	 7.416667e+00	 1.007384e+01
3	 4.500000e+00	 7.500000e+00	 1.006944e+01
3	 4.583333e+00	 7.083333e+00	 1.009525e+01
3	 4.583333e+00	 7.166667e+00	 1.009012e+01
3	 4.583333e+00	 7.250000e+00	 1.008515e+01
3	 4.583333e+00	 7.333333e+00	 1.008035e+01
3	 4.583333e+00	 7.416667e+00	 1.007570e+01
3	 4.583333e+00	 7.500000e+00	 1.007122e+01
3	 4.166667e+00	 7.500000e+00	 1.006017e+01
3	 4.166667e+00	 7.583333e+00	 1.005637e+01
3	 4.166667e+00	 7.666667e+00	 1.005271e+01
3	 4.166667e+00	 7.750000e+00	 1.004919e+01
3	 4.166667e+00	 7.833333e+00	 1.004581e+01
3	 4.166667e+00	 7.916667e+00	 1.004258e+01
3	 4.250000e+00	 7.500000e+00	 1.006282e+01
3	 4.250000e+00	 7.583333e+00	 1.005888e+01
3	 4.250000e+00	 7.666667e+00	 1.005509e+01
3	 4.250000e+00	 7.750000e+00	 1.005144e+01
3	 4.250000e+00	 7.833333e+00	 1.004794e+01
3	 4.250000e+00	 7.916667e+00	 1.004458e+01
3	 4.333333e+00	 7.500000e+00	 1.006524e+01
3	 4.333333e+00	 7.583333e+00	 1.006119e+01
3	 4.333333e+00	 7.666667e+00	 1.005728e+01
3	 4.333333e+00	 7.750000e+00	 1.005351e+01
3	 4.333333e+00	 7.833333e+00	 1.004989e+01
3	 4.333333e+00	 7.916667e+00	 1.004641e+01
3	 4.416667e+00	 7.500000e+00	 1.006745e+01
3	 4.416667e+00	 7.583333e+00	 1.006329e+01
3	 4.416667e+00	 7.666667e+00	 1.005927e+01
3	 4.416667e+00	 7.750000e+00	 1.005540e+01
3	 4.416667e+00	 7.833333e+00	 1.005168e+01
3	 4.416667e+00	 7.916667e+00	 1.004809e+01
3	 4.500000e+00	 7.500000e+00	 1.006944e+01
3	 4.500000e+00	 7.583333e+00	 1.006519e+01
3	 4.500000e+00	 7.666667e+00	 1.006108e+01
3	 4.500000e+00	 7.750000e+00	 1.005712e+01
3	 4.500000e+00	 7.833333e+00	 1.005330e+01
3	 4.500000e+00	 7.916667e+00	 1.004961e+01
3	 4.583333e+00	 7.500000e+00	 1.007122e+01
3	 4.583333e+00	 7.583333e+00	 1.006689e+01
3	 4.583333e+00	 7.666667e+00	 1.006270e+01
3	 4.583333e+00	 7.750000e+00	 1.005866e+01
3	 4.583333e+00	 7.833333e+00	 1.005475e+01
3	 4.583333e+00	 7.916667e+00	 1.005099e+01
3	 4.166667e+00	 7.916667e+00	 1.004258e+01
3	 4.166667e+00	 8.000000e+00	 1.003948e+01
3	 4.166667e+00	 8.083333e+00	 1.003650e+01
3	 4.166667e+00	 8.166667e+00	 1.003365e+01
3	 4.166667e+00	 8.250000e+00	 1.003091e+01
3	 4.166667e+00	 8.333333e+00	 1.002828e+01
3	 4.250000e+00	 7.916667e+00	 1.004458e+01
3	 4.250000e+00	 8.000000e+00	 1.004135e+01
3	 4.250000e+00	 8.083333e+00	 1.003824e+01
3	 4.250000e+00	 8.166667e+00	 1.003526e+01
3	 4.250000e+00	 8.250000e+00	 1.003240e+01
3	 4.250000e+00	 8.333333e+00	 1.002966e+01
3	 4.333333e+00	 7.916667e+00	 1.004641e+01
3	 4.333333e+00	 8.000000e+00	 1.004307e+01
3	 4.333333e+00	 8.083333e+00	 1.003985e+01
3	 4.333333e+00	 8.166667e+00	 1.003675e+01
3	 4.333333e+00	 8.250000e+00	 1.003378e+01
3	 4.333333e+00	 8.333333e+00	 1.003093e+01
3	 4.416667e+00	 7.916667e+00	 1.004809e+01
3	 4.416667e+00	 8.000000e+00	 1.004464e+01
3	 4.416667e+00	 8.083333e+00	 1.004132e+01
3	 4.416667e+00	 8.166667e+00	 1.003812e+01
3	 4.416667e+00	 8.250000e+00	 1.003504e+01
3	 4.416667e+00	 8.333333e+00	 1.003209e+01
3	 4.500000e+00	 7.916667e+00	 1.004961e+01
3	 4.500000e+00	 8.000000e+00	 1.004607e+01
3	 4.500000e+00	 8.083333e+00	 1.004265e+01
3	 4.500000e+00	 8.166667e+00	 1.003936e+01
3	 4.500000e+00	 8.250000e+00	 1.003620e+01
3	 4.500000e+00	 8.333333e+00	 1.003315e+01
3	 4.583333e+00	 7.916667e+00	 1.005099e+01
3	 4.583333e+00	 8.000000e+00	 1.004736e+01
3	 4.583333e+00	 8.083333e+00	 1.004386e+01
3	 4.583333e+00	 8.166667e+00	 1.004048e+01
3	 4.583333e+00	 8.250000e+00	 1.003723e+01
3	 4.583333e+00	 8.333333e+00	 1.003411e+01
3	 4.166667e+00	 8.333333e+00	 1.002828e+01
3	 4.166667e+00	 8.416667e+00	 1.002578e+01
3	 4.166667e+00	 8.500000e+00	 1.002338e+01
3	 4.166667e+00	 8.583333e+00	 1.002109e+01
3	 4.166667e+00	 8.666667e+00	 1.001891e+01
3	 4.166667e+00	 8.750000e+00	 1.001683e+01
3	 4.250000e+00	 8.333333e+00	 1.002966e+01
3	 4.250000e+00	 8.416667e+00	 1.002703e+01
3	 4.250000e+00	 8.500000e+00	 1.002452e+01
3	 4.250000e+00	 8.583333e+00	 1.002213e+01
3	 4.250000e+00	 8.666667e+00	 1.001984e+01
3	 4.250000e+00	 8.750000e+00	 1.001766e+01
3	 4.333333e+00	 8.333333e+00	 1.003093e+01
3	 4.333333e+00	 8.416667e+00	 1.002820e+01
3	 4.333333e+00	 8.500000e+00	 1.002558e+01
3	 4.333333e+00	 8.583333e+00	 1.002309e+01
3	 4.333333e+00	 8.666667e+00	 1.002070e+01
3	 4.333333e+00	 8.750000e+00	 1.001842e+01
3	 4.416667e+00	 8.333333e+00	 1.003209e+01
3	 4.416667e+00	 8.416667e+00	 1.002926e+01
3	 4.416667e+00	 8.500000e+00	 1.002656e+01
3	 4.416667e+00	 8.583333e+00	 1.002397e+01
3	 4.416667e+00	 8.666667e+00	 1.002149e+01
3	 4.416667e+00	 8.750000e+00	 1.001913e+01
3	 4.500000e+00	 8.333333e+00	 1.003315e+01
3	 4.500000e+00	 8.416667e+00	 1.003023e+01
3	 4.500000e+00	 8.500000e+00	 1.002744e+01
3	 4.500000e+00	 8.583333e+00	 1.002477e+01
3	 4.500000e+00	 8.666667e+00	 1.002221e+01
3	 4.500000e+00	 8.750000e+00	 1.001977e+01
3	 4.583333e+00	 8.333333e+00	 1.003411e+01
3	 4.583333e+00	 8.416667e+00	 1.003111e+01
3	 4.583333e+00	 8.500000e+00	 1.002824e+01
3	 4.583333e+00	 8.583333e+00	 1.002549e+01
3	 4.583333e+00	 8.666667e+00	 1.002286e+01
3	 4.583333e+00	 8.750000e+00	 1.002035e+01
3	 4.166667e+00	 8.750000e+00	 1.001683e+01
3	 4.166667e+00	 8.833333e+00	 1.001486e+01
3	 4.166667e+00	 8.916667e+00	 1.001300e+01
3	 4.166667e+00	 9.000000e+00	 1.001125e+01
3	 4.166667e+00	 9.083333e+00	 1.000961e+01
3	 4.166667e+00	 9.166667e+00	 1.000806e+01
3	 4.250000e+00	 8.750000e+00	 1.001766e+01
3	 4.250000e+00	 8.833333e+00	 1.001559e+01
3	 4.250000e+00	 8.916667e+00	 1.001364e+01
3	 4.250000e+00	 9.000000e+00	 1.001180e+01
3	 4.250000e+00	 9.083333e+00	 1.001008e+01
3	 4.250000e+00	 9.166667e+00	 1.000845e+01
3	 4.333333e+00	 8.750000e+00	 1.001842e+01
3	 4.333333e+00	 8.833333e+00	 1.001626e+01
3	 4.333333e+00	 8.916667e+00	 1.001423e+01
3	 4.333333e+00	 9.000000e+00	 1.001231e+01
3	 4.333333e+00	 9.083333e+00	 1.001051e+01
3	 4.333333e+00	 9.166667e+00	 1.000882e+01
3	 4.416667e+00	 8.750000e+00	 1.001913e+01
3	 4.416667e+00	 8.833333e+00	 1.001689e+01
3	 4.416667e+00	 8.916667e+00	 1.001477e+01
3	 4.416667e+00	 9.000000e+00	 1.001278e+01
3	 4.416667e+00	 9.083333e+00	 1.001091e+01
3	 4.416667e+00	 9.166667e+00	 1.000915e+01
3	 4.500000e+00	 8.750000e+00	 1.001977e+01
3	 4.500000e+00	 8.833333e+00	 1.001745e+01
3	 4.500000e+00	 8.916667e+00	 1.001527e+01
3	 4.500000e+00	 9.000000e+00	 1.001321e+01
3	 4.500000e+00	 9.083333e+00	 1.001128e+01
3	 4.500000e+00	 9.166667e+00	 1.000946e+01
3	 4.583333e+00	 8.750000e+00	 1.002035e+01
3	 4.583333e+00	 8.833333e+00	 1.001796e+01
3	 4.583333e+00	 8.916667e+00	 1.001572e+01
3	 4.583333e+00	 9.000000e+00	 1.001360e+01
3	 4.583333e+00	 9.083333e+00	 1.001161e+01
3	 4.583333e+00	 9.166667e+00	 1.000973e+01
3	 4.166667e+00	 9.166667e+00	 1.000806e+01
3	 4.166667e+00	 9.250000e+00	 1.000663e+01
3	 4.166667e+00	 9.333333e+00	 1.000535e+01
3	 4.166667e+00	 9.416667e+00	 1.000418e+01
3	 4.166667e+00	 9.500000e+00	 1.000314e+01
3	 4.166667e+00	 9.583333e+00	 1.000221e+01
3	 4.250000e+00	 9.166667e+00	 1.000845e+01
3	 4.250000e+00	 9.250000e+00	 1.000695e+01
3	 4.250000e+00	 9.333333e+00	 1.000560e+01
3	 4.250000e+00	 9.416667e+00	 1.000438e+01
3	 4.250000e+00	 9.500000e+00	 1.000329e+01
3	 4.250000e+00	 9.583333e+00	 1.000231e+01
3	 4.333333e+00	 9.166667e+00	 1.000882e+01
3	 4.333333e+00	 9.250000e+00	 1.000725e+01
3	 4.333333e+00	 9.333333e+00	 1.000584e+01
3	 4.333333e+00	 9.416667e+00	 1.000457e+01
3	 4.333333e+00	 9.500000e+00	 1.000343e+01
3	 4.333333e+00	 9.583333e+00	 1.000241e+01
3	 4.416667e+00	 9.166667e+00	 1.000915e+01
3	 4.416667e+00	 9.250000e+00	 1.000753e+01
3	 4.416667e+00	 9.333333e+00	 1.000606e+01
3	 4.416667e+00	 9.416667e+00	 1.000474e+01
3	 4.416667e+00	 9.500000e+00	 1.000356e+01
3	 4.416667e+00	 9.583333e+00	 1.000250e+01
3	 4.500000e+00	 9.166667e+00	 1.000946e+01
3	 4.500000e+00	 9.250000e+00	 1.000778e+01
3	 4.500000e+00	 9.333333e+00	 1.000626e+01
3	 4.500000e+00	 9.416667e+00	 1.000490e+01
3	 4.500000e+00	 9.500000e+00	 1.000368e+01
3	 4.500000e+00	 9.583333e+00	 1.000259e+01
3	 4.583333e+00	 9.166667e+00	 1.000973e+01
3	 4.583333e+00	 9.250000e+00	 1.000800e+01
3	 4.583333e+00	 9.333333e+00	 1.000644e+01
3	 4.583333e+00	 9.416667e+00	 1.000503e+01
3	 4.583333e+00	 9.500000e+00	 1.000378e+01
3	 4.583333e+00	 9.583333e+00	 1.000266e+01
3	 4.166667e+00	 9.583333e+00	 1.000221e+01
3	 4.166667e+00	 9.666667e+00	 1.000143e+01
3	 4.166667e+00	 9.750000e+00	 1.000083e+01
3	 4.166667e+00	 9.833333e+00	 1.000039e+01
3	 4.166667e+00	 9.916667e+00	 1.000011e+01
3	 4.166667e+00	 1.000000e+01	 9.999965e+00
3	 4.250000e+00	 9.583333e+00	 1.000231e+01
3	 4.250000e+00	 9.666667e+00	 1.000149e+01
3	 4.250000e+00	 9.750000e+00	 1.000086e+01
3	 4.250000e+00	 9.833333e+00	 1.000041e+01
3	 4.250000e+00	 9.916667e+00	 1.000011e+01
3	 4.250000e+00	 1.000000e+01	 9.999958e+00
3	 4.333333e+00	 9.583333e+00	 1.000241e+01
3	 4.333333e+00	 9.666667e+00	 1.000156e+01
3	 4.333333e+00	 9.750000e+00	 1.000090e+01
3	 4.333333e+00	 9.833333e+00	 1.000042e+01
3	 4.333333e+00	 9.916667e+00	 1.000011e+01
3	 4.333333e+00	 1.000000e+01	 9.999958e+00
3	 4.416667e+00	 9.583333e+00	 1.000250e+01
3	 4.416667e+00	 9.666667e+00	 1.000162e+01
3	 4.416667e+00	 9.750000e+00	 1.000093e+01
3	 4.416667e+00	 9.833333e+00	 1.000044e+01
3	 4.416667e+00	 9.916667e+00	 1.000012e+01
3	 4.416667e+00	 1.000000e+01	 9.999962e+00
3	 4.500000e+00	 9.583333e+00	 1.000259e+01
3	 4.500000e+00	 9.666667e+00	 1.000167e+01
3	 4.500000e+00	 9.750000e+00	 1.000097e+01
3	 4.500000e+00	 9.833333e+00	 1.000046e+01
3	 4.500000e+00	 9.916667e+00	 1.000013e+01
3	 4.500000e+00	 1.000000e+01	 9.999964e+00
3	 4.583333e+00	 9.583333e+00	 1.000266e+01
3	 4.583333e+00	 9.666667e+00	 1.000171e+01
3	 4.583333e+00	 9.750000e+00	 1.000099e+01
3	 4.583333e+00	 9.833333e+00	 1.000047e+01
3	 4.583333e+00	 9.916667e+00	 1.000013e+01
3	 4.583333e+00	 1.000000e+01	 9.999961e+00
3	 4.583333e+00	 5.000000e+00	 1.029061e+01
3	 4.583333e+00	 5.083333e+00	 1.028011e+01
3	 4.583333e+00	 5.166667e+00	 1.026985e+01
3	 4.583333e+00	 5.250000e+00	 1.025982e+01
3	 4.583333e+00	 5.333333e+00	 1.025001e+01
3	 4.583333e+00	 5.416667e+00	 1.024039e+01
3	 4.666667e+00	 5.000000e+00	 1.029028e+01
3	 4.666667e+00	 5.083333e+00	 1.028008e+01
3	 4.666667e+00	 5.166667e+00	 1.027010e+01
3	 4.666667e+00	 5.250000e+00	 1.026032e+01
3	 4.666667e+00	 5.333333e+00	 1.025073e+01
3	 4.666667e+00	 5.416667e+00	 1.024132e+01
3	 4.750000e+00	 5.000000e+00	 1.028934e+01
3	 4.750000e+00	 5.083333e+00	 1.027945e+01
3	 4.750000e+00	 5.166667e+00	 1.026975e+01
3	 4.750000e+00	 5.250000e+00	 1.026023e+01
3	 4.750000e+00	 5.333333e+00	 1.025088e+01
3	 4.750000e+00	 5.416667e+00	 1.024169e+01
3	 4.833333e+00	 5.000000e+00	 1.028785e+01
3	 4.833333e+00	 5.083333e+00	 1.027826e+01
3	 4.833333e+00	 5.166667e+00	 1.026885e+01
3	 4.833333e+00	 5.250000e+00	 1.025961e+01
3	 4.833333e+00	 5.333333e+00	 1.025050e+01
3	 4.833333e+00	 5.416667e+00	 1.024153e+01
3	 4.916667e+00	 5.000000e+00	 1.028586e+01
3	 4.916667e+00	 5.083333e+00	 1.027658e+01
3	 4.916667e+00	 5.166667e+00	 1.026747e+01
3	 4.916667e+00	 5.250000e+00	 1.025849e+01
3	 4.916667e+00	 5.333333e+00	 1.024964e+01
3	 4.916667e+00	 5.416667e+00	 1.024091e+01
3	 5.000000e+00	 5.000000e+00	 1.028342e+01
3	 5.000000e+00	 5.083333e+00	 1.027446e+01
3	 5.000000e+00	 5.166667e+00	 1.026564e+01
3	 5.000000e+00	 5.250000e+00	 1.025694e+01
3	 5.000000e+00	 5.333333e+00	 1.024835e+01
3	 5.000000e+00	 5.416667e+00	 1.023985e+01
3	 4.583333e+00	 5.416667e+00	 1.024039e+01
3	 4.583333e+00	 5.500000e+00	 1.023100e+01
3	 4.583333e+00	 5.583333e+00	 1.022185e+01
3	 4.583333e+00	 5.666667e+00	 1.021294e+01
3	 4.583333e+00	 5.750000e+00	 1.020426e+01
3	 4.583333e+00	 5.833333e+00	 1.019580e+01
3	 4.666667e+00	 5.416667e+00	 1.024132e+01
3	 4.666667e+00	 5.500000e+00	 1.023211e+01
3	 4.666667e+00	 5.583333e+00	 1.022313e+01
3	 4.666667e+00	 5.666667e+00	 1.021437e+01
3	 4.666667e+00	 5.750000e+00	 1.020582e+01
3	 4.666667e+00	 5.833333e+00	 1.019747e+01
3	 4.750000e+00	 5.416667e+00	 1.024169e+01
3	 4.750000e+00	 5.500000e+00	 1.023267e+01
3	 4.750000e+00	 5.583333e+00	 1.022387e+01
3	 4.750000e+00	 5.666667e+00	 1.021527e+01
3	 4.750000e+00	 5.750000e+00	 1.020686e+01
3	 4.750000e+00	 5.833333e+00	 1.019864e+01
3	 4.833333e+00	 5.416667e+00	 1.024153e+01
3	 4.833333e+00	 5.500000e+00	 1.023272e+01
3	 4.833333e+00	 5.583333e+00	 1.022411e+01
3	 4.833333e+00	 5.666667e+00	 1.021568e+01
3	 4.833333e+00	 5.750000e+00	 1.020743e+01
3	 4.833333e+00	 5.833333e+00	 1.019934e+01
3	 4.916667e+00	 5.416667e+00	 1.024091e+01
3	 4.916667e+00	 5.500000e+00	 1.023231e+01
3	 4.916667e+00	 5.583333e+00	 1.022390e+01
3	 4.916667e+00	 5.666667e+00	 1.021565e+01
3	 4.916667e+00	 5.750000e+00	 1.020756e+01
3	 4.916667e+00	 5.833333e+00	 1.019962e+01
3	 5.000000e+00	 5.416667e+00	 1.023985e+01
3	 5.000000e+00	 5.500000e+00	 1.023148e+01
3	 5.000000e+00	 5.583333e+00	 1.022327e+01
3	 5.000000e+00	 5.666667e+00	 1.021521e+01
3	 5.000000e+00	 5.750000e+00	 1.020729e+01
3	 5.000000e+00	 5.833333e+00	 1.019951e+01
3	 4.583333e+00	 5.833333e+00	 1.019580e+01
3	 4.583333e+00	 5.916667e+00	 1.018758e+01
3	 4.583333e+00	 6.000000e+00	 1.017958e+01
3	 4.583333e+00	 6.083333e+00	 1.017182e+01
3	 4.583333e+00	 6.166667e+00	 1.016429e+01
3	 4.583333e+00	 6.250000e+00	 1.015698e+01
3	 4.666667e+00	 5.833333e+00	 1.019747e+01
3	 4.666667e+00	 5.916667e+00	 1.018933e+01
3	 4.666667e+00	 6.000000e+00	 1.018142e+01
3	 4.666667e+00	 6.083333e+00	 1.017373e+01
3	 4.666667e+00	 6.166667e+00	 1.016625e+01
3	 4.666667e+00	 6.250000e+00	 1.015898e+01
3	 4.750000e+00	 5.833333e+00	 1.019864e+01
3	 4.750000e+00	 5.916667e+00	 1.019061e+01
3	 4.750000e+00	 6.000000e+00	 1.018279e+01
3	 4.750000e+00	 6.083333e+00	 1.017518e+01
3	 4.750000e+00	 6.166667e+00	 1.016777e+01
3	 4.750000e+00	 6.250000e+00	 1.016055e+01
3	 4.833333e+00	 5.833333e+00	 1.019934e+01
3	 4.833333e+00	 5.916667e+00	 1.019144e+01
3	 4.833333e+00	 6.000000e+00	 1.018373e+01
3	 4.833333e+00	 6.083333e+00	 1.017621e+01
3	 4.833333e+00	 6.166667e+00	 1.016888e+01
3	 4.833333e+00	 6.250000e+00	 1.016173e+01
3	 4.916667e+00	 5.833333e+00	 1.019962e+01
3	 4.916667e+00	 5.916667e+00	 1.019185e+01
3	 4.916667e+00	 6.000000e+00	 1.018426e+01
3	 4.916667e+00	 6.083333e+00	 1.017685e+01
3	 4.916667e+00	 6.166667e+00	 1.016961e+01
3	 4.916667e+00	 6.250000e+00	 1.016253e+01
3	 5.000000e+00	 5.833333e+00	 1.019951e+01
3	 5.000000e+00	 5.916667e+00	 1.019187e+01
3	 5.000000e+00	 6.000000e+00	 1.018441e+01
3	 5.000000e+00	 6.083333e+00	 1.017712e+01
3	 5.000000e+00	 6.166667e+00	 1.016998e+01
3	 5.000000e+00	 6.250000e+00	 1.016300e+01
3	 4.583333e+00	 6.250000e+00	 1.015698e+01
3	 4.583333e+00	 6.333333e+00	 1.014989e+01
3	 4.583333e+00	 6.416667e+00	 1.014301e+01
3	 4.583333e+00	 6.500000e+00	 1.013634e+01
3	 4.583333e+00	 6.583333e+00	 1.012989e+01
3	 4.583333e+00	 6.666667e+00	 1.012364e+01
3	 4.666667e+00	 6.250000e+00	 1.015898e+01
3	 4.666667e+00	 6.333333e+00	 1.015191e+01
3	 4.666667e+00	 6.416667e+00	 1.014505e+01
3	 4.666667e+00	 6.500000e+00	 1.013839e+01
3	 4.666667e+00	 6.583333e+00	 1.013193e+01
3	 4.666667e+00	 6.666667e+00	 1.012567e+01
3	 4.750000e+00	 6.250000e+00	 1.016055e+01
3	 4.750000e+00	 6.333333e+00	 1.015352e+01
3	 4.750000e+00	 6.416667e+00	 1.014669e+01
3	 4.750000e+00	 6.500000e+00	 1.014006e+01
3	 4.750000e+00	 6.583333e+00	 1.013361e+01
3	 4.750000e+00	 6.666667e+00	 1.012735e+01
3	 4.833333e+00	 6.250000e+00	 1.016173e+01
3	 4.833333e+00	 6.333333e+00	 1.015476e+01
3	 4.833333e+00	 6.416667e+00	 1.014797e+01
3	 4.833333e+00	 6.500000e+00	 1.014137e+01
3	 4.833333e+00	 6.583333e+00	 1.013495e+01
3	 4.833333e+00	 6.666667e+00	 1.012871e+01
3	 4.916667e+00	 6.250000e+00	 1.016253e+01
3	 4.916667e+00	 6.333333e+00	 1.015563e+01
3	 4.916667e+00	 6.416667e+00	 1.014891e+01
3	 4.916667e+00	 6.500000e+00	 1.014236e+01
3	 4.916667e+00	 6.583333e+00	 1.013597e+01
3	 4.916667e+00	 6.666667e+00	 1.012976e+01
3	 5.000000e+00	 6.250000e+00	 1.016300e+01
3	 5.000000e+00	 6.333333e+00	 1.015617e+01
3	 5.000000e+00	 6.416667e+00	 1.014952e+01
3	 5.000000e+00	 6.500000e+00	 1.014302e+01
3	 5.000000e+00	 6.583333e+00	 1.013669e+01
3	 5.000000e+00	 6.666667e+00	 1.013051e+01
3	 4.583333e+00	 6.666667e+00	 1.012364e+01
3	 4.583333e+00	 6.750000e+00	 1.011759e+01
3	 4.583333e+00	 6.833333e+00	 1.011172e+01
3	 4.583333e+00	 6.916667e+00	 1.010605e+01
3	 4.583333e+00	 7.000000e+00	 1.010056e+01
3	 4.583333e+00	 7.083333e+00	 1.009525e+01
3	 4.666667e+00	 6.666667e+00	 1.012567e+01
3	 4.666667e+00	 6.750000e+00	 1.011959e+01
3	 4.666667e+00	 6.833333e+00	 1.011370e+01
3	 4.666667e+00	 6.916667e+00	 1.010799e+01
3	 4.666667e+00	 7.000000e+00	 1.010246e+01
3	 4.666667e+00	 7.083333e+00	 1.009711e+01
3	 4.750000e+00	 6.666667e+00	 1.012735e+01
3	 4.750000e+00	 6.750000e+00	 1.012127e+01
3	 4.750000e+00	 6.833333e+00	 1.011537e+01
3	 4.750000e+00	 6.916667e+00	 1.010964e+01
3	 4.750000e+00	 7.000000e+00	 1.010409e+01
3	 4.750000e+00	 7.083333e+00	 1.009870e+01
3	 4.833333e+00	 6.666667e+00	 1.012871e+01
3	 4.833333e+00	 6.750000e+00	 1.012264e+01
3	 4.833333e+00	 6.833333e+00	 1.011673e+01
3	 4.833333e+00	 6.916667e+00	 1.011100e+01
3	 4.833333e+00	 7.000000e+00	 1.010543e+01
3	 4.833333e+00	 7.083333e+00	 1.010003e+01
3	 4.916667e+00	 6.666667e+00	 1.012976e+01
3	 4.916667e+00	 6.750000e+00	 1.012370e+01
3	 4.916667e+00	 6.833333e+00	 1.011782e+01
3	 4.916667e+00	 6.916667e+00	 1.011209e+01
3	 4.916667e+00	 7.000000e+00	 1.010652e+01
3	 4.916667e+00	 7.083333e+00	 1.010111e+01
3	 5.000000e+00	 6.666667e+00	 1.013051e+01
3	 5.000000e+00	 6.750000e+00	 1.012449e+01
3	 5.000000e+00	 6.833333e+00	 1.011863e+01
3	 5.000000e+00	 6.916667e+00	 1.011292e+01
3	 5.000000e+00	 7.000000e+00	 1.010736e+01
3	 5.000000e+00	 7.083333e+00	 1.010196e+01
3	 4.583333e+00	 7.083333e+00	 1.009525e+01
3	 4.583333e+00	 7.166667e+00	 1.009012e+01
3	 4.583333e+00	 7.250000e+00	 1.008515e+01
3	 4.583333e+00	 7.333333e+00	 1.008035e+01
3	 4.583333e+00	 7.416667e+00	 1.007570e+01
3	 4.583333e+00	 7.500000e+00	 1.007122e+01
3	 4.666667e+00	 7.083333e+00	 1.009711e+01
3	 4.666667e+00	 7.166667e+00	 1.009193e+01
3	 4.666667e+00	 7.250000e+00	 1.008691e+01
3	 4.666667e+00	 7.333333e+00	 1.008204e+01
3	 4.666667e+00	 7.416667e+00	 1.007734e+01
3	 4.666667e+00	 7.500000e+00	 1.007279e+01
3	 4.750000e+00	 7.083333e+00	 1.009870e+01
3	 4.750000e+00	 7.166667e+00	 1.009348e+01
3	 4.750000e+00	 7.250000e+00	 1.008842e+01
3	 4.750000e+00	 7.333333e+00	 1.008351e+01
3	 4.750000e+00	 7.416667e+00	 1.007876e+01
3	 4.750000e+00	 7.500000e+00	 1.007416e+01
3	 4.833333e+00	 7.083333e+00	 1.010003e+01
3	 4.833333e+00	 7.166667e+00	 1.009479e+01
3	 4.833333e+00	 7.250000e+00	 1.008969e+01
3	 4.833333e+00	 7.333333e+00	 1.008475e+01
3	 4.833333e+00	 7.416667e+00	 1.007996e+01
3	 4.833333e+00	 7.500000e+00	 1.007532e+01
3	 4.916667e+00	 7.083333e+00	 1.010111e+01
3	 4.916667e+00	 7.166667e+00	 1.009585e+01
3	 4.916667e+00	 7.250000e+00	 1.009074e+01
3	 4.916667e+00	 7.333333e+00	 1.008578e+01
3	 4.916667e+00	 7.416667e+00	 1.008097e+01
3	 4.916667e+00	 7.500000e+00	 1.007630e+01
3	 5.000000e+00	 7.083333e+00	 1.010196e+01
3	 5.000000e+00	 7.166667e+00	 1.009670e+01
3	 5.000000e+00	 7.250000e+00	 1.009158e+01
3	 5.000000e+00	 7.333333e+00	 1.008661e+01
3	 5.000000e+00	 7.416667e+00	 1.008178e+01
3	 5.000000e+00	 7.500000e+00	 1.007708e+01
3	 4.583333e+00	 7.500000e+00	 1.007122e+01
3	 4.583333e+00	 7.583333e+00	 1.006689e+01
3	 4.583333e+00	 7.666667e+00	 1.006270e+01
3	 4.583333e+00	 7.750000e+00	 1.005866e+01
3	 4.583333e+00	 7.833333e+00	 1.005475e+01
3	 4.583333e+00	 7.916667e+00	 1.005099e+01
3	 4.666667e+00	 7.500000e+00	 1.007279e+01
3	 4.666667e+00	 7.583333e+00	 1.006839e+01
3	 4.666667e+00	 7.666667e+00	 1.006414e+01
3	 4.666667e+00	 7.750000e+00	 1.006002e+01
3	 4.666667e+00	 7.833333e+00	 1.005604e+01
3	 4.666667e+00	 7.916667e+00	 1.005221e+01
3	 4.750000e+00	 7.500000e+00	 1.007416e+01
3	 4.750000e+00	 7.583333e+00	 1.006970e+01
3	 4.750000e+00	 7.666667e+00	 1.006539e+01
3	 4.750000e+00	 7.750000e+00	 1.006121e+01
3	 4.750000e+00	 7.833333e+00	 1.005718e+01
3	 4.750000e+00	 7.916667e+00	 1.005328e+01
3	 4.833333e+00	 7.500000e+00	 1.007532e+01
3	 4.833333e+00	 7.583333e+00	 1.007082e+01
3	 4.833333e+00	 7.666667e+00	 1.006646e+01
3	 4.833333e+00	 7.750000e+00	 1.006224e+01
3	 4.833333e+00	 7.833333e+00	 1.005815e+01
3	 4.833333e+00	 7.916667e+00	 1.005420e+01
3	 4.916667e+00	 7.500000e+00	 1.007630e+01
3	 4.916667e+00	 7.583333e+00	 1.007176e+01
3	 4.916667e+00	 7.666667e+00	 1.006737e+01
3	 4.916667e+00	 7.750000e+00	 1.006311e+01
3	 4.916667e+00	 7.833333e+00	 1.005898e+01
3	 4.916667e+00	 7.916667e+00	 1.005498e+01
3	 5.000000e+00	 7.500000e+00	 1.007708e+01
3	 5.000000e+00	 7.583333e+00	 1.007253e+01
3	 5.000000e+00	 7.666667e+00	 1.006811e+01
3	 5.000000e+00	 7.750000e+00	 1.006382e+01
3	 5.000000e+00	 7.833333e+00	 1.005966e+01
3	 5.000000e+00	 7.916667e+00	 1.005563e+01
3	 4.583333e+00	 7.916667e+00	 1.005099e+01
3	 4.583333e+00	 8.000000e+00	 1.004736e+01
3	 4.583333e+00	 8.083333e+00	 1.004386e+01
3	 4.583333e+00	 8.166667e+00	 1.004048e+01
3	 4.583333e+00	 8.250000e+00	 1.003723e+01
3	 4.583333e+00	 8.333333e+00	 1.003411e+01
3	 4.666667e+00	 7.916667e+00	 1.005221e+01
3	 4.666667e+00	 8.000000e+00	 1.004850e+01
3	 4.666667e+00	 8.083333e+00	 1.004493e+01
3	 4.666667e+00	 8.166667e+00	 1.004148e+01
3	 4.666667e+00	 8.250000e+00	 1.003816e+01
3	 4.666667e+00	 8.333333e+00	 1.003496e+01
3	 4.750000e+00	 7.916667e+00	 1.005328e+01
3	 4.750000e+00	 8.000000e+00	 1.004951e+01
3	 4.750000e+00	 8.083333e+00	 1.004587e+01
3	 4.750000e+00	 8.166667e+00	 1.004236e+01
3	 4.750000e+00	 8.250000e+00	 1.003898e+01
3	 4.750000e+00	 8.333333e+00	 1.003572e+01
3	 4.833333e+00	 7.916667e+00	 1.005420e+01
3	 4.833333e+00	 8.000000e+00	 1.005038e+01
3	 4.833333e+00	 8.083333e+00	 1.004669e+01
3	 4.833333e+00	 8.166667e+00	 1.004313e+01
3	 4.833333e+00	 8.250000e+00	 1.003969e+01
3	 4.833333e+00	 8.333333e+00	 1.003637e+01
3	 4.916667e+00	 7.916667e+00	 1.005498e+01
3	 4.916667e+00	 8.000000e+00	 1.005112e+01
3	 4.916667e+00	 8.083333e+00	 1.004738e+01
3	 4.916667e+00	 8.166667e+00	 1.004378e+01
3	 4.916667e+00	 8.250000e+00	 1.004030e+01
3	 4.916667e+00	 8.333333e+00	 1.003694e+01
3	 5.000000e+00	 7.916667e+00	 1.005563e+01
3	 5.000000e+00	 8.000000e+00	 1.005173e+01
3	 5.000000e+00	 8.083333e+00	 1.004796e+01
3	 5.000000e+00	 8.166667e+00	 1.004432e+01
3	 5.000000e+00	 8.250000e+00	 1.004080e+01
3	 5.000000e+00	 8.333333e+00	 1.003740e+01
3	 4.583333e+00	 8.333333e+00	 1.003411e+01
3	 4.583333e+00	 8.416667e+00	 1.003111e+01
3	 4.583333e+00	 8.500000e+00	 1.002824e+01
3	 4.583333e+00	 8.583333e+00	 1.002549e+01
3	 4.583333e+00	 8.666667e+00	 1.002286e+01
3	 4.583333e+00	 8.750000e+00	 1.002035e+01
3	 4.666667e+00	 8.333333e+00	 1.003496e+01
3	 4.666667e+00	 8.416667e+00	 1.003189e+01
3	 4.666667e+00	 8.500000e+00	 1.002895e+01
3	 4.666667e+00	 8.583333e+00	 1.002614e+01
3	 4.666667e+00	 8.666667e+00	 1.002344e+01
3	 4.666667e+00	 8.750000e+00	 1.002087e+01
3	 4.750000e+00	 8.333333e+00	 1.003572e+01
3	 4.750000e+00	 8.416667e+00	 1.003259e+01
3	 4.750000e+00	 8.500000e+00	 1.002958e+01
3	 4.750000e+00	 8.583333e+00	 1.002671e+01
3	 4.750000e+00	 8.666667e+00	 1.002396e+01
3	 4.750000e+00	 8.750000e+00	 1.002133e+01
3	 4.833333e+00	 8.333333e+00	 1.003637e+01
3	 4.833333e+00	 8.416667e+00	 1.003319e+01
3	 4.833333e+00	 8.500000e+00	 1.003013e+01
3	 4.833333e+00	 8.583333e+00	 1.002721e+01
3	 4.833333e+00	 8.666667e+00	 1.002441e+01
3	 4.833333e+00	 8.750000e+00	 1.002173e+01
3	 4.916667e+00	 8.333333e+00	 1.003694e+01
3	 4.916667e+00	 8.416667e+00	 1.003370e+01
3	 4.916667e+00	 8.500000e+00	 1.003061e+01
3	 4.916667e+00	 8.583333e+00	 1.002764e+01
3	 4.916667e+00	 8.666667e+00	 1.002479e+01
3	 4.916667e+00	 8.750000e+00	 1.002207e+01
3	 5.000000e+00	 8.333333e+00	 1.003740e+01
3	 5.000000e+00	 8.416667e+00	 1.003413e+01
3	 5.000000e+00	 8.500000e+00	 1.003100e+01
3	 5.000000e+00	 8.583333e+00	 1.002799e+01
3	 5.000000e+00	 8.666667e+00	 1.002511e+01
3	 5.000000e+00	 8.750000e+00	 1.002235e+01
3	 4.583333e+00	 8.750000e+00	 1.002035e+01
3	 4.583333e+00	 8.833333e+00	 1.001796e+01
3	 4.583333e+00	 8.916667e+00	 1.001572e+01
3	 4.583333e+00	 9.000000e+00	 1.001360e+01
3	 4.583333e+00	 9.083333e+00	 1.001161e+01
3	 4.583333e+00	 9.166667e+00	 1.000973e+01
3	 4.666667e+00	 8.750000e+00	 1.002087e+01
3	 4.666667e+00	 8.833333e+00	 1.001842e+01
3	 4.666667e+00	 8.916667e+00	 1.001611e+01
3	 4.666667e+00	 9.000000e+00	 1.001394e+01
3	 4.666667e+00	 9.083333e+00	 1.001190e+01
3	 4.666667e+00	 9.166667e+00	 1.000997e+01
3	 4.750000e+00	 8.750000e+00	 1.002133e+01
3	 4.750000e+00	 8.833333e+00	 1.001882e+01
3	 4.750000e+00	 8.916667e+00	 1.001647e+01
3	 4.750000e+00	 9.000000e+00	 1.001425e+01
3	 4.750000e+00	 9.083333e+00	 1.001216e+01
3	 4.750000e+00	 9.166667e+00	 1.001019e+01
3	 4.833333e+00	 8.750000e+00	 1.002173e+01
3	 4.833333e+00	 8.833333e+00	 1.001918e+01
3	 4.833333e+00	 8.916667e+00	 1.001677e+01
3	 4.833333e+00	 9.000000e+00	 1.001451e+01
3	 4.833333e+00	 9.083333e+00	 1.001238e+01
3	 4.833333e+00	 9.166667e+00	 1.001038e+01
3	 4.916667e+00	 8.750000e+00	 1.002207e+01
3	 4.916667e+00	 8.833333e+00	 1.001948e+01
3	 4.916667e+00	 8.916667e+00	 1.001704e+01
3	 4.916667e+00	 9.000000e+00	 1.001474e+01
3	 4.916667e+00	 9.083333e+00	 1.001258e+01
3	 4.916667e+00	 9.166667e+00	 1.001054e+01
3	 5.000000e+00	 8.750000e+00	 1.002235e+01
3	 5.000000e+00	 8.833333e+00	 1.001973e+01
3	 5.000000e+00	 8.916667e+00	 1.001726e+01
3	 5.000000e+00	 9.000000e+00	 1.001493e+01
3	 5.000000e+00	 9.083333e+00	 1.001274e+01
3	 5.000000e+00	 9.166667e+00	 1.001067e+01
3	 4.583333e+00	 9.166667e+00	 1.000973e+01
3	 4.583333e+00	 9.250000e+00	 1.000800e+01
3	 4.583333e+00	 9.333333e+00	 1.000644e+01
3	 4.583333e+00	 9.416667e+00	 1.000503e+01
3	 4.583333e+00	 9.500000e+00	 1.000378e+01
3	 4.583333e+00	 9.583333e+00	 1.000266e+01
3	 4.666667e+00	 9.166667e+00	 1.000997e+01
3	 4.666667e+00	 9.250000e+00	 1.000820e+01
3	 4.666667e+00	 9.333333e+00	 1.000660e+01
3	 4.666667e+00	 9.416667e+00	 1.000516e+01
3	 4.666667e+00	 9.500000e+00	 1.000387e+01
3	 4.666667e+00	 9.583333e+00	 1.000272e+01
3	 4.750000e+00	 9.166667e+00	 1.001019e+01
3	 4.750000e+00	 9.250000e+00	 1.000837e+01
3	 4.750000e+00	 9.333333e+00	 1.000674e+01
3	 4.750000e+00	 9.416667e+00	 1.000526e+01
3	 4.750000e+00	 9.500000e+00	 1.000395e+01
3	 4.750000e+00	 9.583333e+00	 1.000278e+01
3	 4.833333e+00	 9.166667e+00	 1.001038e+01
3	 4.833333e+00	 9.250000e+00	 1.000853e+01
3	 4.833333e+00	 9.333333e+00	 1.000686e+01
3	 4.833333e+00	 9.416667e+00	 1.000536e+01
3	 4.833333e+00	 9.500000e+00	 1.000402e+01
3	 4.833333e+00	 9.583333e+00	 1.000283e+01
3	 4.916667e+00	 9.166667e+00	 1.001054e+01
3	 4.916667e+00	 9.250000e+00	 1.000866e+01
3	 4.916667e+00	 9.333333e+00	 1.000696e+01
3	 4.916667e+00	 9.416667e+00	 1.000544e+01
3	 4.916667e+00	 9.500000e+00	 1.000408e+01
3	 4.916667e+00	 9.583333e+00	 1.000287e+01
3	 5.000000e+00	 9.166667e+00	 1.001067e+01
3	 5.000000e+00	 9.250000e+00	 1.000877e+01
3	 5.000000e+00	 9.333333e+00	 1.000705e+01
3	 5.000000e+00	 9.416667e+00	 1.000551e+01
3	 5.000000e+00	 9.500000e+00	 1.000413e+01
3	 5.000000e+00	 9.583333e+00	 1.000290e+01
3	 4.583333e+00	 9.583333e+00	 1.000266e+01
3	 4.583333e+00	 9.666667e+00	 1.000171e+01
3	 4.583333e+00	 9.750000e+00	 1.000099e+01
3	 4.583333e+00	 9.833333e+00	 1.000047e+01
3	 4.583333e+00	 9.916667e+00	 1.000013e+01
3	 4.583333e+00	 1.000000e+01	 9.999961e+00
3	 4.666667e+00	 9.583333e+00	 1.000272e+01
3	 4.666667e+00	 9.666667e+00	 1.000175e+01
3	 4.666667e+00	 9.750000e+00	 1.000101e+01
3	 4.666667e+00	 9.833333e+00	 1.000047e+01
3	 4.666667e+00	 9.916667e+00	 1.000013e+01
3	 4.666667e+00	 1.000000e+01	 9.999958e+00
3	 4.750000e+00	 9.583333e+00	 1.000278e+01
3	 4.750000e+00	 9.666667e+00	 1.000179e+01
3	 4.750000e+00	 9.750000e+00	 1.000103e+01
3	 4.750000e+00	 9.833333e+00	 1.000048e+01
3	 4.750000e+00	 9.916667e+00	 1.000013e+01
3	 4.750000e+00	 1.000000e+01	 9.999959e+00
3	 4.833333e+00	 9.583333e+00	 1.000283e+01
3	 4.833333e+00	 9.666667e+00	 1.000182e+01
3	 4.833333e+00	 9.750000e+00	 1.000105e+01
3	 4.833333e+00	 9.833333e+00	 1.000049e+01
3	 4.833333e+00	 9.916667e+00	 1.000014e+01
3	 4.833333e+00	 1.000000e+01	 9.999960e+00
3	 4.916667e+00	 9.583333e+00	 1.000287e+01
3	 4.916667e+00	 9.666667e+00	 1.000185e+01
3	 4.916667e+00	 9.750000e+00	 1.000107e+01
3	 4.916667e+00	 9.833333e+00	 1.000050e+01
3	 4.916667e+00	 9.916667e+00	 1.000014e+01
3	 4.916667e+00	 1.000000e+01	 9.999961e+00
3	 5.000000e+00	 9.583333e+00	 1.000290e+01
3	 5.000000e+00	 9.666667e+00	 1.000187e+01
3	 5.000000e+00	 9.750000e+00	 1.000108e+01
3	 5.000000e+00	 9.833333e+00	 1.000050e+01
3	 5.000000e+00	 9.916667e+00	 1.000014e+01
3	 5.000000e+00	 1.000000e+01	 9.999958e+00
4	 7.071068e-01	 7.071068e-01	 5.813879e+00
4	 6.980181e-01	 7.160801e-01	 5.404173e+00
4	 6.887927e-01	 7.249583e-01	 5.002689e+00
4	 6.794321e-01	 7.337384e-01	 4.610304e+00
4	 6.699376e-01	 7.424174e-01	 4.227901e+00
4	 6.603107e-01	 7.509925e-01	 3.856365e+00
4	 7.786550e-01	 7.786550e-01	 8.028234e+00
4	 7.685018e-01	 7.876544e-01	 7.710557e+00
4	 7.582032e-01	 7.965544e-01	 7.395217e+00
4	 7.477607e-01	 8.053520e-01	 7.082897e+00
4	 7.371760e-01	 8.140443e-01	 6.774293e+00
4	 7.264508e-01	 8.226285e-01	 6.470110e+00
4	 8.502032e-01	 8.502032e-01	 9.754772e+00
4	 8.389797e-01	 8.592227e-01	 9.492157e+00
4	 8.276023e-01	 8.681387e-01	 9.227729e+00
4	 8.160728e-01	 8.769482e-01	 8.962042e+00
4	 8.043931e-01	 8.856484e-01	 8.695665e+00
4	 7.925649e-01	 8.942364e-01	 8.429186e+00
4	 9.217514e-01	 9.217514e-01	 1.098094e+01
4	 9.094517e-01	 9.307850e-01	 1.075326e+01
4	 8.969900e-01	 9.397112e-01	 1.052105e+01
4	 8.843684e-01	 9.485271e-01	 1.028480e+01
4	 8.715887e-01	 9.572297e-01	 1.004499e+01
4	 8.586532e-01	 9.658163e-01	 9.802132e+00
4	 9.932997e-01	 9.932997e-01	 1.169441e+01
4	 9.799178e-01	 1.002341e+00	 1.149517e+01
4	 9.663663e-01	 1.011272e+00	 1.128987e+01
4	 9.526473e-01	 1.020089e+00	 1.107893e+01
4	 9.387629e-01	 1.028788e+00	 1.086279e+01
4	 9.247155e-01	 1.037368e+00	 1.064191e+01
4	 1.064848e+00	 1.064848e+00	 1.188300e+01
4	 1.050378e+00	 1.073892e+00	 1.171694e+01
4	 1.035731e+00	 1.082821e+00	 1.154419e+01
4	 1.020910e+00	 1.091633e+00	 1.136511e+01
4	 1.005916e+00	 1.100324e+00	 1.118012e+01
4	 9.907519e-01	 1.108892e+00	 1.098966e+01
4	 6.603107e-01	 7.509925e-01	 3.856365e+00
4	 6.505532e-01	 7.594607e-01	 3.496687e+00
4	 6.406666e-01	 7.678192e-01	 3.149555e+00
4	 6.306528e-01	 7.760651e-01	 2.815373e+00
4	 6.205135e-01	 7.841957e-01	 2.494510e+00
4	 6.102508e-01	 7.922083e-01	 2.187301e+00
4	 7.264508e-01	 8.226285e-01	 6.470110e+00
4	 7.155869e-01	 8.311016e-01	 6.170539e+00
4	 7.045861e-01	 8.394608e-01	 5.875622e+00
4	 6.934505e-01	 8.477033e-01	 5.585848e+00
4	 6.821821e-01	 8.558264e-01	 5.301694e+00
4	 6.707830e-01	 8.638272e-01	 5.023631e+00
4	 7.925649e-01	 8.942364e-01	 8.429186e+00
4	 7.805904e-01	 9.027093e-01	 8.162373e+00
4	 7.684716e-01	 9.110644e-01	 7.894961e+00
4	 7.562107e-01	 9.192988e-01	 7.627504e+00
4	 7.438099e-01	 9.274098e-01	 7.360569e+00
4	 7.312717e-01	 9.353947e-01	 7.094736e+00
4	 8.586532e-01	 9.658163e-01	 9.802132e+00
4	 8.455639e-01	 9.742839e-01	 9.555820e+00
4	 8.323232e-01	 9.826299e-01	 9.305675e+00
4	 8.189335e-01	 9.908515e-01	 9.052292e+00
4	 8.053971e-01	 9.989460e-01	 8.796289e+00
4	 7.917168e-01	 1.006911e+00	 8.538310e+00
4	 9.247155e-01	 1.037368e+00	 1.064191e+01
4	 9.105073e-01	 1.045825e+00	 1.041585e+01
4	 8.961409e-01	 1.054158e+00	 1.018420e+01
4	 8.816189e-01	 1.062362e+00	 9.947559e+00
4	 8.669438e-01	 1.070435e+00	 9.706560e+00
4	 8.521185e-01	 1.078375e+00	 9.461853e+00
4	 9.907519e-01	 1.108892e+00	 1.098966e+01
4	 9.754207e-01	 1.117334e+00	 1.079328e+01
4	 9.599248e-01	 1.125647e+00	 1.059058e+01
4	 9.442669e-01	 1.133829e+00	 1.038211e+01
4	 9.284499e-01	 1.141877e+00	 1.016845e+01
4	 9.124767e-01	 1.149788e+00	 9.950208e+00
4	 6.102508e-01	 7.922083e-01	 2.187301e+00
4	 5.998666e-01	 8.001000e-01	 1.894123e+00
4	 5.893631e-01	 8.078683e-01	 1.615263e+00
4	 5.787423e-01	 8.155105e-01	 1.350857e+00
4	 5.680065e-01	 8.230241e-01	 1.100986e+00
4	 5.571580e-01	 8.304065e-01	 8.656760e-01
4	 6.707830e-01	 8.638272e-01	 5.023631e+00
4	 6.592556e-01	 8.717032e-01	 4.751782e+00
4	 6.476020e-01	 8.794518e-01	 4.486201e+00
4	 6.358247e-01	 8.870702e-01	 4.227236e+00
4	 6.239261e-01	 8.945560e-01	 3.975216e+00
4	 6.119089e-01	 9.019067e-01	 3.730446e+00
4	 7.312717e-01	 9.353947e-01	 7.094736e+00
4	 7.185983e-01	 9.432509e-01	 6.829949e+00
4	 7.057925e-01	 9.509757e-01	 6.566107e+00
4	 6.928567e-01	 9.585667e-01	 6.303729e+00
4	 6.797937e-01	 9.660212e-01	 6.043343e+00
4	 6.666062e-01	 9.733369e-01	 5.785476e+00
4	 7.917168e-01	 1.006911e+00	 8.538310e+00
4	 7.778950e-01	 1.014743e+00	 8.278165e+00
4	 7.639346e-01	 1.022440e+00	 8.015636e+00
4	 7.498383e-01	 1.030000e+00	 7.751360e+00
4	 7.356091e-01	 1.037420e+00	 7.485995e+00
4	 7.212500e-01	 1.044697e+00	 7.220221e+00
4	 8.521185e-01	 1.078375e+00	 9.461853e+00
4	 8.371457e-01	 1.086179e+00	 9.213128e+00
4	 8.220284e-01	 1.093845e+00	 8.960068e+00
4	 8.067697e-01	 1.101370e+00	 8.703361e+00
4	 7.913726e-01	 1.108752e+00	 8.443726e+00
4	 7.758403e-01	 1.115988e+00	 8.181907e+00
4	 9.124767e-01	 1.149788e+00	 9.950208e+00
4	 8.963504e-01	 1.157561e+00	 9.726957e+00
4	 8.800740e-01	 1.165191e+00	 9.498273e+00
4	 8.636508e-01	 1.172678e+00	 9.264827e+00
4	 8.470841e-01	 1.180018e+00	 9.027317e+00
4	 8.303774e-01	 1.187209e+00	 8.786473e+00
4	 5.571580e-01	 8.304065e-01	 8.656760e-01
4	 5.461993e-01	 8.376553e-01	 6.449559e-01
4	 5.351326e-01	 8.447680e-01	 4.388389e-01
4	 5.239607e-01	 8.517424e-01	 2.472289e-01
4	 5.126860e-01	 8.585762e-01	 6.996240e-02
4	 5.013112e-01	 8.652670e-01	-9.319473e-02
4	 6.119089e-01	 9.019067e-01	 3.730446e+00
4	 5.997755e-01	 9.091198e-01	 3.493040e+00
4	 5.875287e-01	 9.161931e-01	 3.263063e+00
4	 5.751713e-01	 9.231241e-01	 3.040716e+00
4	 5.627060e-01	 9.299107e-01	 2.826168e+00
4	 5.501359e-01	 9.365507e-01	 2.619554e+00
4	 6.666062e-01	 9.733369e-01	 5.785476e+00
4	 6.532970e-01	 9.805114e-01	 5.530232e+00
4	 6.398692e-01	 9.875423e-01	 5.277653e+00
4	 6.263256e-01	 9.944274e-01	 5.028183e+00
4	 6.126693e-01	 1.001164e+00	 4.782260e+00
4	 5.989036e-01	 1.007751e+00	 4.540317e+00
4	 7.212500e-01	 1.044697e+00	 7.220221e+00
4	 7.067639e-01	 1.051830e+00	 6.954057e+00
4	 6.921540e-01	 1.058816e+00	 6.687466e+00
4	 6.774237e-01	 1.065652e+00	 6.421069e+00
4	 6.625760e-01	 1.072337e+00	 6.155496e+00
4	 6.476145e-01	 1.078869e+00	 5.891392e+00
4	 7.758403e-01	 1.115988e+00	 8.181907e+00
4	 7.601762e-01	 1.123076e+00	 7.917794e+00
4	 7.443834e-01	 1.130014e+00	 7.651229e+00
4	 7.284656e-01	 1.136799e+00	 7.382935e+00
4	 7.124261e-01	 1.143429e+00	 7.113654e+00
4	 6.962687e-01	 1.149904e+00	 6.844152e+00
4	 8.303774e-01	 1.187209e+00	 8.786473e+00
4	 8.135339e-01	 1.194249e+00	 8.542020e+00
4	 7.965574e-01	 1.201136e+00	 8.293661e+00
4	 7.794515e-01	 1.207867e+00	 8.042140e+00
4	 7.622198e-01	 1.214441e+00	 7.788229e+00
4	 7.448662e-01	 1.220856e+00	 7.532724e+00
4	 5.013112e-01	 8.652670e-01	-9.319473e-02
4	 4.898391e-01	 8.718129e-01	-2.424849e-01
4	 4.782723e-01	 8.782116e-01	-3.781243e-01
4	 4.666137e-01	 8.844612e-01	-5.004163e-01
4	 4.548663e-01	 8.905597e-01	-6.097379e-01
4	 4.430329e-01	 8.965053e-01	-7.065418e-01
4	 5.501359e-01	 9.365507e-01	 2.619554e+00
4	 5.374637e-01	 9.430419e-01	 2.420955e+00
4	 5.246926e-01	 9.493823e-01	 2.230423e+00
4	 5.118257e-01	 9.555699e-01	 2.047997e+00
4	 4.988661e-01	 9.616029e-01	 1.873675e+00
4	 4.858169e-01	 9.674794e-01	 1.707416e+00
4	 5.989036e-01	 1.007751e+00	 4.540317e+00
4	 5.850315e-01	 1.014186e+00	 4.302556e+00
4	 5.710564e-01	 1.020466e+00	 4.069115e+00
4	 5.569815e-01	 1.026590e+00	 3.840317e+00
4	 5.428103e-01	 1.032556e+00	 3.616472e+00
4	 5.285462e-01	 1.038363e+00	 3.397874e+00
4	 6.476145e-01	 1.078869e+00	 5.891392e+00
4	 6.325425e-01	 1.085245e+00	 5.628936e+00
4	 6.173635e-01	 1.091463e+00	 5.368231e+00
4	 6.020812e-01	 1.097522e+00	 5.109818e+00
4	 5.866990e-01	 1.103420e+00	 4.854243e+00
4	 5.712208e-01	 1.109155e+00	 4.602050e+00
4	 6.962687e-01	 1.149904e+00	 6.844152e+00
4	 6.799968e-01	 1.156219e+00	 6.574493e+00
4	 6.636143e-01	 1.162374e+00	 6.304670e+00
4	 6.471249e-01	 1.168367e+00	 6.035373e+00
4	 6.305325e-01	 1.174195e+00	 5.767300e+00
4	 6.138409e-01	 1.179858e+00	 5.501167e+00
4	 7.448662e-01	 1.220856e+00	 7.532724e+00
4	 7.273945e-01	 1.227109e+00	 7.275525e+00
4	 7.098087e-01	 1.233198e+00	 7.016482e+00
4	 6.921127e-01	 1.239123e+00	 6.756357e+00
4	 6.743106e-01	 1.244880e+00	 6.495929e+00
4	 6.564066e-01	 1.250469e+00	 6.235997e+00
4	 4.430329e-01	 8.965053e-01	-7.065418e-01
4	 4.311166e-01	 9.022962e-01	-7.912995e-01
4	 4.191204e-01	 9.079307e-01	-8.644187e-01
4	 4.070474e-01	 9.134071e-01	-9.263671e-01
4	 3.949007e-01	 9.187238e-01	-9.776838e-01
4	 3.826834e-01	 9.238795e-01	-1.018980e+00
4	 4.858169e-01	 9.674794e-01	 1.707416e+00
4	 4.726815e-01	 9.731977e-01	 1.549254e+00
4	 4.594632e-01	 9.787560e-01	 1.399210e+00
4	 4.461652e-01	 9.841529e-01	 1.257165e+00
4	 4.327910e-01	 9.893868e-01	 1.122957e+00
4	 4.193441e-01	 9.944563e-01	 9.963820e-01
4	 5.285462e-01	 1.038363e+00	 3.397874e+00
4	 5.141927e-01	 1.044007e+00	 3.184786e+00
4	 4.997533e-01	 1.049489e+00	 2.977414e+00
4	 4.852318e-01	 1.054806e+00	 2.775933e+00
4	 4.706316e-01	 1.059957e+00	 2.580498e+00
4	 4.559565e-01	 1.064940e+00	 2.391242e+00
4	 5.712208e-01	 1.109155e+00	 4.602050e+00
4	 5.556502e-01	 1.114726e+00	 4.353549e+00
4	 5.399910e-01	 1.120130e+00	 4.108960e+00
4	 5.242471e-01	 1.125367e+00	 3.868700e+00
4	 5.084224e-01	 1.130434e+00	 3.633175e+00
4	 4.925207e-01	 1.135331e+00	 3.402783e+00
4	 6.138409e-01	 1.179858e+00	 5.501167e+00
4	 5.970542e-01	 1.185353e+00	 5.237208e+00
4	 5.801763e-01	 1.190679e+00	 4.975568e+00
4	 5.632114e-01	 1.195835e+00	 4.716842e+00
4	 5.461635e-01	 1.200819e+00	 4.461622e+00
4	 5.290368e-01	 1.205629e+00	 4.210506e+00
4	 6.564066e-01	 1.250469e+00	 6.235997e+00
4	 6.384048e-01	 1.255889e+00	 5.976663e+00
4	 6.203094e-01	 1.261136e+00	 5.717957e+00
4	 6.021247e-01	 1.266211e+00	 5.460589e+00
4	 5.838551e-01	 1.271111e+00	 5.205279e+00
4	 5.655049e-01	 1.275835e+00	 4.952758e+00
4	 3.826834e-01	 9.238795e-01	-1.018980e+00
4	 3.703989e-01	 9.288728e-01	-1.050887e+00
4	 3.580504e-01	 9.337023e-01	-1.073940e+00
4	 3.456410e-01	 9.383668e-01	-1.088706e+00
4	 3.331743e-01	 9.428653e-01	-1.095812e+00
4	 3.206534e-01	 9.471966e-01	-1.095944e+00
4	 4.193441e-01	 9.944563e-01	 9.963820e-01
4	 4.058279e-01	 9.993600e-01	 8.774038e-01
4	 3.922459e-01	 1.004097e+00	 7.660011e-01
4	 3.786016e-01	 1.008665e+00	 6.619246e-01
4	 3.648987e-01	 1.013065e+00	 5.648833e-01
4	 3.511407e-01	 1.017294e+00	 4.745445e-01
4	 4.559565e-01	 1.064940e+00	 2.391242e+00
4	 4.412102e-01	 1.069755e+00	 2.208431e+00
4	 4.263965e-01	 1.074399e+00	 2.032288e+00
4	 4.115192e-01	 1.078872e+00	 1.862839e+00
4	 3.965821e-01	 1.083173e+00	 1.700083e+00
4	 3.815890e-01	 1.087302e+00	 1.543989e+00
4	 4.925207e-01	 1.135331e+00	 3.402783e+00
4	 4.765460e-01	 1.140056e+00	 3.177897e+00
4	 4.605024e-01	 1.144609e+00	 2.958808e+00
4	 4.443939e-01	 1.148988e+00	 2.745777e+00
4	 4.282246e-01	 1.153192e+00	 2.539044e+00
4	 4.119984e-01	 1.157220e+00	 2.338834e+00
4	 5.290368e-01	 1.205629e+00	 4.210506e+00
4	 5.118354e-01	 1.210266e+00	 3.963850e+00
4	 4.945637e-01	 1.214727e+00	 3.721917e+00
4	 4.772258e-01	 1.219012e+00	 3.485156e+00
4	 4.598262e-01	 1.223119e+00	 3.254009e+00
4	 4.423690e-01	 1.227048e+00	 3.028907e+00
4	 5.655049e-01	 1.275835e+00	 4.952758e+00
4	 5.470785e-01	 1.280383e+00	 4.703305e+00
4	 5.285804e-01	 1.284754e+00	 4.457112e+00
4	 5.100151e-01	 1.288945e+00	 4.214780e+00
4	 4.913870e-01	 1.292957e+00	 3.976911e+00
4	 4.727008e-01	 1.296788e+00	 3.744101e+00
4	 3.206534e-01	 9.471966e-01	-1.095944e+00
4	 3.080818e-01	 9.513599e-01	-1.089807e+00
4	 2.954628e-01	 9.553543e-01	-1.077987e+00
4	 2.827998e-01	 9.591790e-01	-1.061071e+00
4	 2.700963e-01	 9.628333e-01	-1.039691e+00
4	 2.573556e-01	 9.663168e-01	-1.014518e+00
4	 3.511407e-01	 1.017294e+00	 4.745445e-01
4	 3.373313e-01	 1.021352e+00	 3.908038e-01
4	 3.234741e-01	 1.025238e+00	 3.135955e-01
4	 3.095728e-01	 1.028952e+00	 2.425865e-01
4	 2.956310e-01	 1.032492e+00	 1.774079e-01
4	 2.816524e-01	 1.035858e+00	 1.176555e-01
4	 3.815890e-01	 1.087302e+00	 1.543989e+00
4	 3.665439e-01	 1.091256e+00	 1.394781e+00
4	 3.514506e-01	 1.095035e+00	 1.252661e+00
4	 3.363131e-01	 1.098639e+00	 1.117525e+00
4	 3.211352e-01	 1.102067e+00	 9.892399e-01
4	 3.059209e-01	 1.105319e+00	 8.676416e-01
4	 4.119984e-01	 1.157220e+00	 2.338834e+00
4	 3.957197e-01	 1.161071e+00	 2.145517e+00
4	 3.793924e-01	 1.164745e+00	 1.959406e+00
4	 3.630208e-01	 1.168242e+00	 1.780600e+00
4	 3.466090e-01	 1.171559e+00	 1.609178e+00
4	 3.301611e-01	 1.174698e+00	 1.445193e+00
4	 4.423690e-01	 1.227048e+00	 3.028907e+00
4	 4.248586e-01	 1.230799e+00	 2.810264e+00
4	 4.072995e-01	 1.234369e+00	 2.598407e+00
4	 3.896959e-01	 1.237759e+00	 2.393623e+00
4	 3.720523e-01	 1.240969e+00	 2.196179e+00
4	 3.543731e-01	 1.243997e+00	 2.006325e+00
4	 4.727008e-01	 1.296788e+00	 3.744101e+00
4	 4.539609e-01	 1.300438e+00	 3.516753e+00
4	 4.351720e-01	 1.303906e+00	 3.295176e+00
4	 4.163386e-01	 1.307192e+00	 3.079821e+00
4	 3.974654e-01	 1.310295e+00	 2.871128e+00
4	 3.785569e-01	 1.313215e+00	 2.669525e+00
4	 2.573556e-01	 9.663168e-01	-1.014518e+00
4	 2.445813e-01	 9.696288e-01	-9.862361e-01
4	 2.317767e-01	 9.727690e-01	-9.554028e-01
4	 2.189453e-01	 9.757371e-01	-9.225512e-01
4	 2.060905e-01	 9.785329e-01	-8.882380e-01
4	 1.932158e-01	 9.811563e-01	-8.530419e-01
4	 2.816524e-01	 1.035858e+00	 1.176555e-01
4	 2.676408e-01	 1.039051e+00	 6.317112e-02
4	 2.535998e-01	 1.042068e+00	 1.385773e-02
4	 2.395331e-01	 1.044911e+00	-3.064285e-02
4	 2.254445e-01	 1.047579e+00	-7.071492e-02
4	 2.113376e-01	 1.050071e+00	-1.067678e-01
4	 3.059209e-01	 1.105319e+00	 8.676416e-01
4	 2.906742e-01	 1.108393e+00	 7.528782e-01
4	 2.753989e-01	 1.111291e+00	 6.451066e-01
4	 2.600991e-01	 1.114011e+00	 5.441357e-01
4	 2.447787e-01	 1.116554e+00	 4.497474e-01
4	 2.294416e-01	 1.118919e+00	 3.616976e-01
4	 3.301611e-01	 1.174698e+00	 1.445193e+00
4	 3.136815e-01	 1.177658e+00	 1.288958e+00
4	 2.971741e-01	 1.180438e+00	 1.140755e+00
4	 2.806433e-01	 1.183038e+00	 1.000555e+00
4	 2.640932e-01	 1.185459e+00	 8.683019e-01
4	 2.475279e-01	 1.187699e+00	 7.439163e-01
4	 3.543731e-01	 1.243997e+00	 2.006325e+00
4	 3.366626e-01	 1.246844e+00	 1.824456e+00
4	 3.189254e-01	 1.249509e+00	 1.650907e+00
4	 3.011656e-01	 1.251992e+00	 1.485809e+00
4	 2.833879e-01	 1.254293e+00	 1.329268e+00
4	 2.655965e-01	 1.256413e+00	 1.181367e+00
4	 3.785569e-01	 1.313215e+00	 2.669525e+00
4	 3.596178e-01	 1.315951e+00	 2.475453e+00
4	 3.406527e-01	 1.318504e+00	 2.289271e+00
4	 3.216662e-01	 1.320873e+00	 2.111268e+00
4	 3.026629e-01	 1.323057e+00	 1.941711e+00
4	 2.836475e-01	 1.325059e+00	 1.780850e+00
4	 1.932158e-01	 9.811563e-01	-8.530419e-01
4	 1.803247e-01	 9.836071e-01	-8.175485e-01
4	 1.674204e-01	 9.858856e-01	-7.822215e-01
4	 1.545065e-01	 9.879918e-01	-7.474767e-01
4	 1.415864e-01	 9.899259e-01	-7.137341e-01
4	 1.286633e-01	 9.916883e-01	-6.814173e-01
4	 2.113376e-01	 1.050071e+00	-1.067678e-01
4	 1.972161e-01	 1.052389e+00	-1.389843e-01
4	 1.830836e-01	 1.054532e+00	-1.674691e-01
4	 1.689439e-01	 1.056500e+00	-1.925440e-01
4	 1.548006e-01	 1.058293e+00	-2.145462e-01
4	 1.406572e-01	 1.059912e+00	-2.338269e-01
4	 2.294416e-01	 1.118919e+00	 3.616976e-01
4	 2.140917e-01	 1.121107e+00	 2.800512e-01
4	 1.987330e-01	 1.123117e+00	 2.049120e-01
4	 1.833693e-01	 1.124950e+00	 1.360583e-01
4	 1.680045e-01	 1.126607e+00	 7.324714e-02
4	 1.526425e-01	 1.128087e+00	 1.621503e-02
4	 2.475279e-01	 1.187699e+00	 7.439163e-01
4	 2.309516e-01	 1.189760e+00	 6.276141e-01
4	 2.143685e-01	 1.191642e+00	 5.196148e-01
4	 1.977826e-01	 1.193344e+00	 4.198061e-01
4	 1.811981e-01	 1.194867e+00	 3.280514e-01
4	 1.646191e-01	 1.196212e+00	 2.441902e-01
4	 2.655965e-01	 1.256413e+00	 1.181367e+00
4	 2.477958e-01	 1.258350e+00	 1.042421e+00
4	 2.299902e-01	 1.260106e+00	 9.127157e-01
4	 2.121840e-01	 1.261681e+00	 7.922573e-01
4	 1.943816e-01	 1.263075e+00	 6.810279e-01
4	 1.765871e-01	 1.264289e+00	 5.789855e-01
4	 2.836475e-01	 1.325059e+00	 1.780850e+00
4	 2.646243e-01	 1.326876e+00	 1.629076e+00
4	 2.455982e-01	 1.328510e+00	 1.486722e+00
4	 2.265735e-01	 1.329962e+00	 1.353925e+00
4	 2.075548e-01	 1.331230e+00	 1.230797e+00
4	 1.885465e-01	 1.332317e+00	 1.117429e+00
4	 1.286633e-01	 9.916883e-01	-6.814173e-01
4	 1.157408e-01	 9.932795e-01	-6.509575e-01
4	 1.028221e-01	 9.946998e-01	-6.226756e-01
4	 8.991045e-02	 9.959499e-01	-5.968242e-01
4	 7.700924e-02	 9.970304e-01	-5.736462e-01
4	 6.412169e-02	 9.979421e-01	-5.533738e-01
4	 1.406572e-01	 1.059912e+00	-2.338269e-01
4	 1.265175e-01	 1.061358e+00	-2.505528e-01
4	 1.123849e-01	 1.062630e+00	-2.647983e-01
4	 9.826302e-02	 1.063730e+00	-2.767906e-01
4	 8.415537e-02	 1.064658e+00	-2.867626e-01
4	 7.006541e-02	 1.065415e+00	-2.949519e-01
4	 1.526425e-01	 1.128087e+00	 1.621503e-02
4	 1.372871e-01	 1.129391e+00	-3.503560e-02
4	 1.219420e-01	 1.130520e+00	-8.043399e-02
4	 1.066112e-01	 1.131474e+00	-1.201681e-01
4	 9.129819e-02	 1.132254e+00	-1.544412e-01
4	 7.600680e-02	 1.132861e+00	-1.834713e-01
4	 1.646191e-01	 1.196212e+00	 2.441902e-01
4	 1.480495e-01	 1.197379e+00	 1.683382e-01
4	 1.314935e-01	 1.198369e+00	 1.006507e-01
4	 1.149549e-01	 1.199181e+00	 4.099396e-02
4	 9.843771e-02	 1.199818e+00	-1.078726e-02
4	 8.194586e-02	 1.200280e+00	-5.486839e-02
4	 1.765871e-01	 1.264289e+00	 5.789855e-01
4	 1.588049e-01	 1.265323e+00	 4.863311e-01
4	 1.410392e-01	 1.266177e+00	 4.032738e-01
4	 1.232942e-01	 1.266853e+00	 3.297480e-01
4	 1.055739e-01	 1.267352e+00	 2.656647e-01
4	 8.788260e-02	 1.267674e+00	 2.109118e-01
4	 1.885465e-01	 1.332317e+00	 1.117429e+00
4	 1.695532e-01	 1.333221e+00	 1.014100e+00
4	 1.505793e-01	 1.333946e+00	 9.210637e-01
4	 1.316290e-01	 1.334490e+00	 8.383371e-01
4	 1.127068e-01	 1.334854e+00	 7.659134e-01
4	 9.381700e-02	 1.335041e+00	 7.037628e-01
4	 6.412169e-02	 9.979421e-01	-5.533738e-01
4	 5.125101e-02	 9.986858e-01	-5.362623e-01
4	 3.840038e-02	 9.992624e-01	-5.223814e-01
4	 2.557294e-02	 9.996730e-01	-5.116630e-01
4	 1.277180e-02	 9.999184e-01	-5.040214e-01
4	 0.000000e+00	 1.000000e+00	-4.993545e-01
4	 7.006541e-02	 1.065415e+00	-2.949519e-01
4	 5.599659e-02	 1.066001e+00	-3.014832e-01
4	 4.195230e-02	 1.066419e+00	-3.063448e-01
4	 2.793590e-02	 1.066668e+00	-3.095733e-01
4	 1.395072e-02	 1.066750e+00	-3.112048e-01
4	 0.000000e+00	 1.066667e+00	-3.112754e-01
4	 7.600680e-02	 1.132861e+00	-1.834713e-01
4	 6.074065e-02	 1.133296e+00	-2.072993e-01
4	 4.550336e-02	 1.133559e+00	-2.258733e-01
4	 3.029848e-02	 1.133653e+00	-2.392919e-01
4	 1.512954e-02	 1.133577e+00	-2.476642e-01
4	 0.000000e+00	 1.133333e+00	-2.511100e-01
4	 8.194586e-02	 1.200280e+00	-5.486839e-02
4	 6.548321e-02	 1.200568e+00	-9.123090e-02
4	 4.905355e-02	 1.200683e+00	-1.198031e-01
4	 3.266066e-02	 1.200626e+00	-1.407093e-01
4	 1.630826e-02	 1.200398e+00	-1.540914e-01
4	 0.000000e+00	 1.200000e+00	-1.601084e-01
4	 8.788260e-02	 1.267674e+00	 2.109118e-01
4	 7.022425e-02	 1.267820e+00	 1.655582e-01
4	 5.260288e-02	 1.267791e+00	 1.296902e-01
4	 3.502246e-02	 1.267588e+00	 1.031888e-01
4	 1.748688e-02	 1.267213e+00	 8.591321e-02
4	 0.000000e+00	 1.266667e+00	 7.770225e-02
4	 9.381700e-02	 1.335041e+00	 7.037628e-01
4	 7.496378e-02	 1.335049e+00	 6.520074e-01
4	 5.615135e-02	 1.334882e+00	 6.107540e-01
4	 3.738387e-02	 1.334539e+00	 5.799148e-01
4	 1.866540e-02	 1.334023e+00	 5.593798e-01
4	 0.000000e+00	 1.333333e+00	 5.490166e-01
4	 1.064848e+00	 1.064848e+00	 1.188300e+01
4	 1.050378e+00	 1.073892e+00	 1.171694e+01
4	 1.035731e+00	 1.082821e+00	 1.154419e+01
4	 1.020910e+00	 1.091633e+00	 1.136511e+01
4	 1.005916e+00	 1.100324e+00	 1.118012e+01
4	 9.907519e-01	 1.108892e+00	 1.098966e+01
4	 1.136396e+00	 1.136396e+00	 1.184871e+01
4	 1.120832e+00	 1.145436e+00	 1.171593e+01
4	 1.105085e+00	 1.154358e+00	 1.157632e+01
4	 1.089155e+00	 1.163159e+00	 1.143021e+01
4	 1.073047e+00	 1.171837e+00	 1.127798e+01
4	 1.056762e+00	 1.180388e+00	 1.112004e+01
4	 1.207944e+00	 1.207944e+00	 1.186935e+01
4	 1.191281e+00	 1.216975e+00	 1.176036e+01
4	 1.174427e+00	 1.225884e+00	 1.164466e+01
4	 1.157385e+00	 1.234669e+00	 1.152255e+01
4	 1.140157e+00	 1.243327e+00	 1.139436e+01
4	 1.122747e+00	 1.251855e+00	 1.126043e+01
4	 1.279493e+00	 1.279493e+00	 1.190224e+01
4	 1.261724e+00	 1.288507e+00	 1.180961e+01
4	 1.243758e+00	 1.297398e+00	 1.171067e+01
4	 1.225597e+00	 1.306161e+00	 1.160564e+01
4	 1.207246e+00	 1.314794e+00	 1.149478e+01
4	 1.188706e+00	 1.323295e+00	 1.137836e+01
4	 1.351041e+00	 1.351041e+00	 1.191112e+01
4	 1.332160e+00	 1.360034e+00	 1.182923e+01
4	 1.313077e+00	 1.368900e+00	 1.174165e+01
4	 1.293794e+00	 1.377636e+00	 1.164853e+01
4	 1.274313e+00	 1.386239e+00	 1.155005e+01
4	 1.254639e+00	 1.394707e+00	 1.144640e+01
4	 1.422589e+00	 1.422589e+00	 1.186495e+01
4	 1.402591e+00	 1.431554e+00	 1.178973e+01
4	 1.382385e+00	 1.440390e+00	 1.170966e+01
4	 1.361973e+00	 1.449093e+00	 1.162481e+01
4	 1.341359e+00	 1.457661e+00	 1.153526e+01
4	 1.320546e+00	 1.466091e+00	 1.144111e+01
4	 9.907519e-01	 1.108892e+00	 1.098966e+01
4	 9.754207e-01	 1.117334e+00	 1.079328e+01
4	 9.599248e-01	 1.125647e+00	 1.059058e+01
4	 9.442669e-01	 1.133829e+00	 1.038211e+01
4	 9.284499e-01	 1.141877e+00	 1.016845e+01
4	 9.124767e-01	 1.149788e+00	 9.950208e+00
4	 1.056762e+00	 1.180388e+00	 1.112004e+01
4	 1.040304e+00	 1.188809e+00	 1.095592e+01
4	 1.023675e+00	 1.197099e+00	 1.078520e+01
4	 1.006878e+00	 1.205254e+00	 1.060838e+01
4	 9.899155e-01	 1.213272e+00	 1.042594e+01
4	 9.727916e-01	 1.221150e+00	 1.023842e+01
4	 1.122747e+00	 1.251855e+00	 1.126043e+01
4	 1.105157e+00	 1.260251e+00	 1.112027e+01
4	 1.087391e+00	 1.268513e+00	 1.097343e+01
4	 1.069451e+00	 1.276636e+00	 1.082032e+01
4	 1.051341e+00	 1.284620e+00	 1.066138e+01
4	 1.033063e+00	 1.292461e+00	 1.049705e+01
4	 1.188706e+00	 1.323295e+00	 1.137836e+01
4	 1.169981e+00	 1.331661e+00	 1.125588e+01
4	 1.151073e+00	 1.339889e+00	 1.112683e+01
4	 1.131987e+00	 1.347976e+00	 1.099156e+01
4	 1.112725e+00	 1.355921e+00	 1.085043e+01
4	 1.093291e+00	 1.363720e+00	 1.070383e+01
4	 1.254639e+00	 1.394707e+00	 1.144640e+01
4	 1.234774e+00	 1.403037e+00	 1.133702e+01
4	 1.214722e+00	 1.411227e+00	 1.122141e+01
4	 1.194486e+00	 1.419274e+00	 1.109983e+01
4	 1.174070e+00	 1.427175e+00	 1.097259e+01
4	 1.153477e+00	 1.434929e+00	 1.083999e+01
4	 1.320546e+00	 1.466091e+00	 1.144111e+01
4	 1.299538e+00	 1.474380e+00	 1.134177e+01
4	 1.278337e+00	 1.482527e+00	 1.123673e+01
4	 1.256948e+00	 1.490528e+00	 1.112620e+01
4	 1.235374e+00	 1.498382e+00	 1.101041e+01
4	 1.213618e+00	 1.506086e+00	 1.088959e+01
4	 9.124767e-01	 1.149788e+00	 9.950208e+00
4	 8.963504e-01	 1.157561e+00	 9.726957e+00
4	 8.800740e-01	 1.165191e+00	 9.498273e+00
4	 8.636508e-01	 1.172678e+00	 9.264827e+00
4	 8.470841e-01	 1.180018e+00	 9.027317e+00
4	 8.303774e-01	 1.187209e+00	 8.786473e+00
4	 9.727916e-01	 1.221150e+00	 1.023842e+01
4	 9.555091e-01	 1.228886e+00	 1.004529e+01
4	 9.380714e-01	 1.236478e+00	 9.846041e+00
4	 9.204818e-01	 1.243922e+00	 9.641291e+00
4	 9.027439e-01	 1.251217e+00	 9.431680e+00
4	 8.848611e-01	 1.258360e+00	 9.217878e+00
4	 1.033063e+00	 1.292461e+00	 1.049705e+01
4	 1.014622e+00	 1.300157e+00	 1.032675e+01
4	 9.960206e-01	 1.307705e+00	 1.014992e+01
4	 9.772627e-01	 1.315104e+00	 9.967122e+00
4	 9.583518e-01	 1.322350e+00	 9.778937e+00
4	 9.392917e-01	 1.329442e+00	 9.585976e+00
4	 1.093291e+00	 1.363720e+00	 1.070383e+01
4	 1.073689e+00	 1.371372e+00	 1.055112e+01
4	 1.053922e+00	 1.378874e+00	 1.039174e+01
4	 1.033994e+00	 1.386223e+00	 1.022619e+01
4	 1.013908e+00	 1.393417e+00	 1.005499e+01
4	 9.936692e-01	 1.400455e+00	 9.878694e+00
4	 1.153477e+00	 1.434929e+00	 1.083999e+01
4	 1.132710e+00	 1.442532e+00	 1.070139e+01
4	 1.111775e+00	 1.449983e+00	 1.055623e+01
4	 1.090674e+00	 1.457279e+00	 1.040495e+01
4	 1.069413e+00	 1.464418e+00	 1.024800e+01
4	 1.047994e+00	 1.471398e+00	 1.008589e+01
4	 1.213618e+00	 1.506086e+00	 1.088959e+01
4	 1.191686e+00	 1.513637e+00	 1.076311e+01
4	 1.169580e+00	 1.521033e+00	 1.063041e+01
4	 1.147305e+00	 1.528273e+00	 1.049188e+01
4	 1.124866e+00	 1.535353e+00	 1.034792e+01
4	 1.102265e+00	 1.542272e+00	 1.019893e+01
4	 8.303774e-01	 1.187209e+00	 8.786473e+00
4	 8.135339e-01	 1.194249e+00	 8.542020e+00
4	 7.965574e-01	 1.201136e+00	 8.293661e+00
4	 7.794515e-01	 1.207867e+00	 8.042140e+00
4	 7.622198e-01	 1.214441e+00	 7.788229e+00
4	 7.448662e-01	 1.220856e+00	 7.532724e+00
4	 8.848611e-01	 1.258360e+00	 9.217878e+00
4	 8.668373e-01	 1.265350e+00	 8.999467e+00
4	 8.486761e-01	 1.272183e+00	 8.776036e+00
4	 8.303814e-01	 1.278858e+00	 8.548308e+00
4	 8.119571e-01	 1.285373e+00	 8.317035e+00
4	 7.934072e-01	 1.291725e+00	 8.082996e+00
4	 9.392917e-01	 1.329442e+00	 9.585976e+00
4	 9.200864e-01	 1.336378e+00	 9.387729e+00
4	 9.007396e-01	 1.343154e+00	 9.183719e+00
4	 8.812555e-01	 1.349770e+00	 8.974640e+00
4	 8.616382e-01	 1.356224e+00	 8.761215e+00
4	 8.418918e-01	 1.362512e+00	 8.544193e+00
4	 9.936692e-01	 1.400455e+00	 9.878694e+00
4	 9.732812e-01	 1.407333e+00	 9.696731e+00
4	 9.527480e-01	 1.414051e+00	 9.508591e+00
4	 9.320739e-01	 1.420605e+00	 9.314932e+00
4	 9.112631e-01	 1.426995e+00	 9.116440e+00
4	 8.903201e-01	 1.433217e+00	 8.913824e+00
4	 1.047994e+00	 1.471398e+00	 1.008589e+01
4	 1.026422e+00	 1.478217e+00	 9.917997e+00
4	 1.004701e+00	 1.484872e+00	 9.743813e+00
4	 9.828365e-01	 1.491363e+00	 9.563946e+00
4	 9.608320e-01	 1.497686e+00	 9.379032e+00
4	 9.386921e-01	 1.503840e+00	 9.189733e+00
4	 1.102265e+00	 1.542272e+00	 1.019893e+01
4	 1.079508e+00	 1.549028e+00	 1.004433e+01
4	 1.056600e+00	 1.555619e+00	 9.883564e+00
4	 1.033544e+00	 1.562043e+00	 9.717203e+00
4	 1.010345e+00	 1.568297e+00	 9.545825e+00
4	 9.870080e-01	 1.574381e+00	 9.370033e+00
4	 7.448662e-01	 1.220856e+00	 7.532724e+00
4	 7.273945e-01	 1.227109e+00	 7.275525e+00
4	 7.098087e-01	 1.233198e+00	 7.016482e+00
4	 6.921127e-01	 1.239123e+00	 6.756357e+00
4	 6.743106e-01	 1.244880e+00	 6.495929e+00
4	 6.564066e-01	 1.250469e+00	 6.235997e+00
4	 7.934072e-01	 1.291725e+00	 8.082996e+00
4	 7.747358e-01	 1.297914e+00	 7.845941e+00
4	 7.559469e-01	 1.303936e+00	 7.605601e+00
4	 7.370448e-01	 1.309791e+00	 7.362764e+00
4	 7.180337e-01	 1.315477e+00	 7.118240e+00
4	 6.989180e-01	 1.320991e+00	 6.872863e+00
4	 8.418918e-01	 1.362512e+00	 8.544193e+00
4	 8.220206e-01	 1.368635e+00	 8.323222e+00
4	 8.020289e-01	 1.374588e+00	 8.097955e+00
4	 7.819211e-01	 1.380372e+00	 7.869190e+00
4	 7.617017e-01	 1.385984e+00	 7.637747e+00
4	 7.413752e-01	 1.391423e+00	 7.404473e+00
4	 8.903201e-01	 1.433217e+00	 8.913824e+00
4	 8.692492e-01	 1.439271e+00	 8.706660e+00
4	 8.480550e-01	 1.445154e+00	 8.494551e+00
4	 8.267420e-01	 1.450866e+00	 8.278287e+00
4	 8.053148e-01	 1.456403e+00	 8.058683e+00
4	 7.837782e-01	 1.461765e+00	 7.836575e+00
4	 9.386921e-01	 1.503840e+00	 9.189733e+00
4	 9.164216e-01	 1.509824e+00	 8.995574e+00
4	 8.940251e-01	 1.515635e+00	 8.796125e+00
4	 8.715073e-01	 1.521272e+00	 8.592151e+00
4	 8.488731e-01	 1.526734e+00	 8.384441e+00
4	 8.261273e-01	 1.532018e+00	 8.173806e+00
4	 9.870080e-01	 1.574381e+00	 9.370033e+00
4	 9.635379e-01	 1.580292e+00	 9.189313e+00
4	 9.399394e-01	 1.586030e+00	 9.003207e+00
4	 9.162173e-01	 1.591591e+00	 8.812441e+00
4	 8.923767e-01	 1.596976e+00	 8.617763e+00
4	 8.684225e-01	 1.602181e+00	 8.419939e+00
4	 6.564066e-01	 1.250469e+00	 6.235997e+00
4	 6.384048e-01	 1.255889e+00	 5.976663e+00
4	 6.203094e-01	 1.261136e+00	 5.717957e+00
4	 6.021247e-01	 1.266211e+00	 5.460589e+00
4	 5.838551e-01	 1.271111e+00	 5.205279e+00
4	 5.655049e-01	 1.275835e+00	 4.952758e+00
4	 6.989180e-01	 1.320991e+00	 6.872863e+00
4	 6.797020e-01	 1.326333e+00	 6.626605e+00
4	 6.603902e-01	 1.331502e+00	 6.379392e+00
4	 6.409871e-01	 1.336494e+00	 6.132011e+00
4	 6.214972e-01	 1.341311e+00	 5.885265e+00
4	 6.019250e-01	 1.345949e+00	 5.639969e+00
4	 7.413752e-01	 1.391423e+00	 7.404473e+00
4	 7.209460e-01	 1.396688e+00	 7.169241e+00
4	 7.004190e-01	 1.401776e+00	 6.931900e+00
4	 6.797987e-01	 1.406687e+00	 6.693289e+00
4	 6.590899e-01	 1.411419e+00	 6.454262e+00
4	 6.382974e-01	 1.415971e+00	 6.215691e+00
4	 7.837782e-01	 1.461765e+00	 7.836575e+00
4	 7.621370e-01	 1.466951e+00	 7.611759e+00
4	 7.403958e-01	 1.471959e+00	 7.384026e+00
4	 7.185597e-01	 1.476787e+00	 7.154238e+00
4	 6.966334e-01	 1.481435e+00	 6.923278e+00
4	 6.746221e-01	 1.485901e+00	 6.692047e+00
4	 8.261273e-01	 1.532018e+00	 8.173806e+00
4	 8.032749e-01	 1.537124e+00	 7.959976e+00
4	 7.803208e-01	 1.542050e+00	 7.742692e+00
4	 7.572700e-01	 1.546796e+00	 7.522819e+00
4	 7.341278e-01	 1.551359e+00	 7.301244e+00
4	 7.108991e-01	 1.555739e+00	 7.078869e+00
4	 8.684225e-01	 1.602181e+00	 8.419939e+00
4	 8.443598e-01	 1.607207e+00	 8.218639e+00
4	 8.201939e-01	 1.612051e+00	 8.013560e+00
4	 7.959299e-01	 1.616713e+00	 7.805548e+00
4	 7.715730e-01	 1.621192e+00	 7.595470e+00
4	 7.471286e-01	 1.625486e+00	 7.384209e+00
4	 5.655049e-01	 1.275835e+00	 4.952758e+00
4	 5.470785e-01	 1.280383e+00	 4.703305e+00
4	 5.285804e-01	 1.284754e+00	 4.457112e+00
4	 5.100151e-01	 1.288945e+00	 4.214780e+00
4	 4.913870e-01	 1.292957e+00	 3.976911e+00
4	 4.727008e-01	 1.296788e+00	 3.744101e+00
4	 6.019250e-01	 1.345949e+00	 5.639969e+00
4	 5.822753e-01	 1.350409e+00	 5.396319e+00
4	 5.625526e-01	 1.354689e+00	 5.154437e+00
4	 5.427616e-01	 1.358787e+00	 4.915041e+00
4	 5.229071e-01	 1.362704e+00	 4.678855e+00
4	 5.029938e-01	 1.366439e+00	 4.446606e+00
4	 6.382974e-01	 1.415971e+00	 6.215691e+00
4	 6.174259e-01	 1.420342e+00	 5.977696e+00
4	 5.964804e-01	 1.424532e+00	 5.740341e+00
4	 5.754657e-01	 1.428539e+00	 5.504429e+00
4	 5.543866e-01	 1.432362e+00	 5.270772e+00
4	 5.332483e-01	 1.436001e+00	 5.040190e+00
4	 6.746221e-01	 1.485901e+00	 6.692047e+00
4	 6.525305e-01	 1.490184e+00	 6.460594e+00
4	 6.303639e-01	 1.494284e+00	 6.228927e+00
4	 6.081272e-01	 1.498200e+00	 5.997908e+00
4	 5.858256e-01	 1.501930e+00	 5.768408e+00
4	 5.634642e-01	 1.505474e+00	 5.541308e+00
4	 7.108991e-01	 1.555739e+00	 7.078869e+00
4	 6.875892e-01	 1.559935e+00	 6.855676e+00
4	 6.642032e-01	 1.563945e+00	 6.631623e+00
4	 6.407464e-01	 1.567770e+00	 6.407599e+00
4	 6.172241e-01	 1.571408e+00	 6.184510e+00
4	 5.936416e-01	 1.574859e+00	 5.963270e+00
4	 7.471286e-01	 1.625486e+00	 7.384209e+00
4	 7.226019e-01	 1.629594e+00	 7.171678e+00
4	 6.979984e-01	 1.633516e+00	 6.957783e+00
4	 6.733233e-01	 1.637250e+00	 6.743421e+00
4	 6.485823e-01	 1.640797e+00	 6.529504e+00
4	 6.237806e-01	 1.644155e+00	 6.316954e+00
4	 4.727008e-01	 1.296788e+00	 3.744101e+00
4	 4.539609e-01	 1.300438e+00	 3.516753e+00
4	 4.351720e-01	 1.303906e+00	 3.295176e+00
4	 4.163386e-01	 1.307192e+00	 3.079821e+00
4	 3.974654e-01	 1.310295e+00	 2.871128e+00
4	 3.785569e-01	 1.313215e+00	 2.669525e+00
4	 5.029938e-01	 1.366439e+00	 4.446606e+00
4	 4.830265e-01	 1.369990e+00	 4.218665e+00
4	 4.630099e-01	 1.373358e+00	 3.995317e+00
4	 4.429488e-01	 1.376541e+00	 3.777152e+00
4	 4.228481e-01	 1.379539e+00	 3.564756e+00
4	 4.027126e-01	 1.382353e+00	 3.358709e+00
4	 5.332483e-01	 1.436001e+00	 5.040190e+00
4	 5.120555e-01	 1.439455e+00	 4.813018e+00
4	 4.908133e-01	 1.442723e+00	 4.589505e+00
4	 4.695267e-01	 1.445805e+00	 4.370351e+00
4	 4.482007e-01	 1.448701e+00	 4.156253e+00
4	 4.268402e-01	 1.451410e+00	 3.947908e+00
4	 5.634642e-01	 1.505474e+00	 5.541308e+00
4	 5.410480e-01	 1.508832e+00	 5.316896e+00
4	 5.185823e-01	 1.512002e+00	 5.095382e+00
4	 4.960723e-01	 1.514985e+00	 4.877546e+00
4	 4.735230e-01	 1.517780e+00	 4.664168e+00
4	 4.509397e-01	 1.520387e+00	 4.456028e+00
4	 5.936416e-01	 1.574859e+00	 5.963270e+00
4	 5.700041e-01	 1.578121e+00	 5.744110e+00
4	 5.463169e-01	 1.581196e+00	 5.527199e+00
4	 5.225856e-01	 1.584081e+00	 5.313371e+00
4	 4.988152e-01	 1.586777e+00	 5.103460e+00
4	 4.750113e-01	 1.589284e+00	 4.898306e+00
4	 6.237806e-01	 1.644155e+00	 6.316954e+00
4	 5.989238e-01	 1.647324e+00	 6.105943e+00
4	 5.740173e-01	 1.650303e+00	 5.896592e+00
4	 5.490667e-01	 1.653093e+00	 5.689766e+00
4	 5.240774e-01	 1.655692e+00	 5.486333e+00
4	 4.990550e-01	 1.658101e+00	 5.287163e+00
4	 3.785569e-01	 1.313215e+00	 2.669525e+00
4	 3.596178e-01	 1.315951e+00	 2.475453e+00
4	 3.406527e-01	 1.318504e+00	 2.289271e+00
4	 3.216662e-01	 1.320873e+00	 2.111268e+00
4	 3.026629e-01	 1.323057e+00	 1.941711e+00
4	 2.836475e-01	 1.325059e+00	 1.780850e+00
4	 4.027126e-01	 1.382353e+00	 3.358709e+00
4	 3.825470e-01	 1.384981e+00	 3.159474e+00
4	 3.623563e-01	 1.387423e+00	 2.967426e+00
4	 3.421451e-01	 1.389680e+00	 2.782993e+00
4	 3.219183e-01	 1.391752e+00	 2.606590e+00
4	 3.016808e-01	 1.393638e+00	 2.438617e+00
4	 4.268402e-01	 1.451410e+00	 3.947908e+00
4	 4.054503e-01	 1.453932e+00	 3.745780e+00
4	 3.840360e-01	 1.456267e+00	 3.550239e+00
4	 3.626023e-01	 1.458415e+00	 3.361828e+00
4	 3.411541e-01	 1.460376e+00	 3.181076e+00
4	 3.196965e-01	 1.462150e+00	 3.008503e+00
4	 4.509397e-01	 1.520387e+00	 4.456028e+00
4	 4.283277e-01	 1.522805e+00	 4.253575e+00
4	 4.056920e-01	 1.525035e+00	 4.057162e+00
4	 3.830378e-01	 1.527077e+00	 3.867418e+00
4	 3.603703e-01	 1.528930e+00	 3.684967e+00
4	 3.376947e-01	 1.530595e+00	 3.510420e+00
4	 4.750113e-01	 1.589284e+00	 4.898306e+00
4	 4.511792e-01	 1.591601e+00	 4.698326e+00
4	 4.273242e-01	 1.593728e+00	 4.503849e+00
4	 4.034517e-01	 1.595666e+00	 4.315569e+00
4	 3.795669e-01	 1.597414e+00	 4.134179e+00
4	 3.556753e-01	 1.598973e+00	 3.960360e+00
4	 4.990550e-01	 1.658101e+00	 5.287163e+00
4	 4.740049e-01	 1.660319e+00	 5.092636e+00
4	 4.489327e-01	 1.662346e+00	 4.903047e+00
4	 4.238439e-01	 1.664183e+00	 4.719141e+00
4	 3.987440e-01	 1.665829e+00	 4.541655e+00
4	 3.736384e-01	 1.667285e+00	 4.371324e+00
4	 2.836475e-01	 1.325059e+00	 1.780850e+00
4	 2.646243e-01	 1.326876e+00	 1.629076e+00
4	 2.455982e-01	 1.328510e+00	 1.486722e+00
4	 2.265735e-01	 1.329962e+00	 1.353925e+00
4	 2.075548e-01	 1.331230e+00	 1.230797e+00
4	 1.885465e-01	 1.332317e+00	 1.117429e+00
4	 3.016808e-01	 1.393638e+00	 2.438617e+00
4	 2.814372e-01	 1.395338e+00	 2.279521e+00
4	 2.611924e-01	 1.396854e+00	 2.129673e+00
4	 2.409510e-01	 1.398185e+00	 1.989332e+00
4	 2.207177e-01	 1.399332e+00	 1.858733e+00
4	 2.004973e-01	 1.400295e+00	 1.738096e+00
4	 3.196965e-01	 1.462150e+00	 3.008503e+00
4	 2.982344e-01	 1.463737e+00	 2.844590e+00
4	 2.767728e-01	 1.465137e+00	 2.689722e+00
4	 2.553165e-01	 1.466352e+00	 2.544257e+00
4	 2.338705e-01	 1.467381e+00	 2.408535e+00
4	 2.124396e-01	 1.468225e+00	 2.282879e+00
4	 3.376947e-01	 1.530595e+00	 3.510420e+00
4	 3.150160e-01	 1.532072e+00	 3.344268e+00
4	 2.923395e-01	 1.533361e+00	 3.186899e+00
4	 2.696702e-01	 1.534463e+00	 3.038752e+00
4	 2.470131e-01	 1.535378e+00	 2.900252e+00
4	 2.243733e-01	 1.536107e+00	 2.771805e+00
4	 3.556753e-01	 1.598973e+00	 3.960360e+00
4	 3.317821e-01	 1.600343e+00	 3.794600e+00
4	 3.078925e-01	 1.601524e+00	 3.637278e+00
4	 2.840119e-01	 1.602517e+00	 3.488898e+00
4	 2.601455e-01	 1.603321e+00	 3.349952e+00
4	 2.362984e-01	 1.603939e+00	 3.220917e+00
4	 3.736384e-01	 1.667285e+00	 4.371324e+00
4	 3.485325e-01	 1.668551e+00	 4.208620e+00
4	 3.234318e-01	 1.669627e+00	 4.053907e+00
4	 2.983418e-01	 1.670514e+00	 3.907742e+00
4	 2.732677e-01	 1.671213e+00	 3.770669e+00
4	 2.482149e-01	 1.671723e+00	 3.643220e+00
4	 1.885465e-01	 1.332317e+00	 1.117429e+00
4	 1.695532e-01	 1.333221e+00	 1.014100e+00
4	 1.505793e-01	 1.333946e+00	 9.210637e-01
4	 1.316290e-01	 1.334490e+00	 8.383371e-01
4	 1.127068e-01	 1.334854e+00	 7.659134e-01
4	 9.381700e-02	 1.335041e+00	 7.037628e-01
4	 2.004973e-01	 1.400295e+00	 1.738096e+00
4	 1.802944e-01	 1.401076e+00	 1.627765e+00
4	 1.601136e-01	 1.401673e+00	 1.528032e+00
4	 1.399594e-01	 1.402090e+00	 1.438994e+00
4	 1.198364e-01	 1.402325e+00	 1.360729e+00
4	 9.974909e-02	 1.402381e+00	 1.293291e+00
4	 2.124396e-01	 1.468225e+00	 2.282879e+00
4	 1.910286e-01	 1.468885e+00	 2.167679e+00
4	 1.696423e-01	 1.469361e+00	 2.063243e+00
4	 1.482855e-01	 1.469654e+00	 1.969743e+00
4	 1.269628e-01	 1.469765e+00	 1.887327e+00
4	 1.056788e-01	 1.469695e+00	 1.816122e+00
4	 2.243733e-01	 1.536107e+00	 2.771805e+00
4	 2.017557e-01	 1.536650e+00	 2.653829e+00
4	 1.791653e-01	 1.537008e+00	 2.546643e+00
4	 1.566071e-01	 1.537183e+00	 2.450477e+00
4	 1.340858e-01	 1.537174e+00	 2.365541e+00
4	 1.116063e-01	 1.536983e+00	 2.292026e+00
4	 2.362984e-01	 1.603939e+00	 3.220917e+00
4	 2.124757e-01	 1.604370e+00	 3.102224e+00
4	 1.886827e-01	 1.604615e+00	 2.994193e+00
4	 1.649243e-01	 1.604675e+00	 2.897108e+00
4	 1.412055e-01	 1.604551e+00	 2.811232e+00
4	 1.175314e-01	 1.604244e+00	 2.736810e+00
4	 2.482149e-01	 1.671723e+00	 3.643220e+00
4	 2.231887e-01	 1.672046e+00	 3.525833e+00
4	 1.981943e-01	 1.672182e+00	 3.418824e+00
4	 1.732370e-01	 1.672132e+00	 3.322522e+00
4	 1.483220e-01	 1.671898e+00	 3.237237e+00
4	 1.234542e-01	 1.671479e+00	 3.163261e+00
4	 9.381700e-02	 1.335041e+00	 7.037628e-01
4	 7.496378e-02	 1.335049e+00	 6.520074e-01
4	 5.615135e-02	 1.334882e+00	 6.107540e-01
4	 3.738387e-02	 1.334539e+00	 5.799148e-01
4	 1.866540e-02	 1.334023e+00	 5.593798e-01
4	 0.000000e+00	 1.333333e+00	 5.490166e-01
4	 9.974909e-02	 1.402381e+00	 1.293291e+00
4	 7.970180e-02	 1.402258e+00	 1.236852e+00
4	 5.969896e-02	 1.401957e+00	 1.191538e+00
4	 3.974489e-02	 1.401480e+00	 1.157304e+00
4	 1.984383e-02	 1.400827e+00	 1.134081e+00
4	 0.000000e+00	 1.400000e+00	 1.121781e+00
4	 1.056788e-01	 1.469695e+00	 1.816122e+00
4	 8.443832e-02	 1.469445e+00	 1.756333e+00
4	 6.324571e-02	 1.469016e+00	 1.708100e+00
4	 4.210552e-02	 1.468409e+00	 1.671417e+00
4	 2.102216e-02	 1.467625e+00	 1.646255e+00
4	 0.000000e+00	 1.466667e+00	 1.632564e+00
4	 1.116063e-01	 1.536983e+00	 2.292026e+00
4	 8.917332e-02	 1.536611e+00	 2.230162e+00
4	 6.679160e-02	 1.536058e+00	 2.180095e+00
4	 4.446576e-02	 1.535327e+00	 2.141857e+00
4	 2.220039e-02	 1.534418e+00	 2.115457e+00
4	 0.000000e+00	 1.533333e+00	 2.100884e+00
4	 1.175314e-01	 1.604244e+00	 2.736810e+00
4	 9.390682e-02	 1.603755e+00	 2.674090e+00
4	 7.033663e-02	 1.603085e+00	 2.623225e+00
4	 4.682562e-02	 1.602235e+00	 2.584282e+00
4	 2.337852e-02	 1.601206e+00	 2.557308e+00
4	 0.000000e+00	 1.600000e+00	 2.542326e+00
4	 1.234542e-01	 1.671479e+00	 3.163261e+00
4	 9.863881e-02	 1.670878e+00	 3.100858e+00
4	 7.388080e-02	 1.670095e+00	 3.050188e+00
4	 4.918509e-02	 1.669131e+00	 3.011351e+00
4	 2.455656e-02	 1.667988e+00	 2.984429e+00
4	 0.000000e+00	 1.666667e+00	 2.969483e+00
4	 1.422589e+00	 1.422589e+00	 1.186495e+01
4	 1.402591e+00	 1.431554e+00	 1.178973e+01
4	 1.382385e+00	 1.440390e+00	 1.170966e+01
4	 1.361973e+00	 1.449093e+00	 1.162481e+01
4	 1.341359e+00	 1.457661e+00	 1.153526e+01
4	 1.320546e+00	 1.466091e+00	 1.144111e+01
4	 1.494137e+00	 1.494137e+00	 1.178619e+01
4	 1.473016e+00	 1.503069e+00	 1.171691e+01
4	 1.451681e+00	 1.511868e+00	 1.164350e+01
4	 1.430136e+00	 1.520533e+00	 1.156597e+01
4	 1.408384e+00	 1.529060e+00	 1.148432e+01
4	 1.386428e+00	 1.537447e+00	 1.139855e+01
4	 1.565685e+00	 1.565685e+00	 1.171203e+01
4	 1.543435e+00	 1.574578e+00	 1.164993e+01
4	 1.520967e+00	 1.583335e+00	 1.158407e+01
4	 1.498283e+00	 1.591956e+00	 1.151441e+01
4	 1.475387e+00	 1.600436e+00	 1.144090e+01
4	 1.452283e+00	 1.608774e+00	 1.136353e+01
4	 1.637234e+00	 1.637234e+00	 1.163731e+01
4	 1.613849e+00	 1.646080e+00	 1.158310e+01
4	 1.590240e+00	 1.654790e+00	 1.152522e+01
4	 1.566413e+00	 1.663361e+00	 1.146361e+01
4	 1.542369e+00	 1.671790e+00	 1.139823e+01
4	 1.518113e+00	 1.680075e+00	 1.132905e+01
4	 1.708782e+00	 1.708782e+00	 1.155749e+01
4	 1.684256e+00	 1.717577e+00	 1.151141e+01
4	 1.659503e+00	 1.726234e+00	 1.146155e+01
4	 1.634526e+00	 1.734749e+00	 1.140787e+01
4	 1.609330e+00	 1.743121e+00	 1.135037e+01
4	 1.583918e+00	 1.751347e+00	 1.128903e+01
4	 1.780330e+00	 1.780330e+00	 1.146854e+01
4	 1.754658e+00	 1.789068e+00	 1.143042e+01
4	 1.728754e+00	 1.797665e+00	 1.138828e+01
4	 1.702623e+00	 1.806120e+00	 1.134216e+01
4	 1.676269e+00	 1.814429e+00	 1.129208e+01
4	 1.649696e+00	 1.822591e+00	 1.123808e+01
4	 1.320546e+00	 1.466091e+00	 1.144111e+01
4	 1.299538e+00	 1.474380e+00	 1.134177e+01
4	 1.278337e+00	 1.482527e+00	 1.123673e+01
4	 1.256948e+00	 1.490528e+00	 1.112620e+01
4	 1.235374e+00	 1.498382e+00	 1.101041e+01
4	 1.213618e+00	 1.506086e+00	 1.088959e+01
4	 1.386428e+00	 1.537447e+00	 1.139855e+01
4	 1.364271e+00	 1.545691e+00	 1.130811e+01
4	 1.341918e+00	 1.553790e+00	 1.121249e+01
4	 1.319372e+00	 1.561741e+00	 1.111185e+01
4	 1.296637e+00	 1.569543e+00	 1.100637e+01
4	 1.273717e+00	 1.577192e+00	 1.089622e+01
4	 1.452283e+00	 1.608774e+00	 1.136353e+01
4	 1.428975e+00	 1.616968e+00	 1.128176e+01
4	 1.405466e+00	 1.625014e+00	 1.119516e+01
4	 1.381760e+00	 1.632911e+00	 1.110386e+01
4	 1.357861e+00	 1.640656e+00	 1.100797e+01
4	 1.333773e+00	 1.648247e+00	 1.090764e+01
4	 1.518113e+00	 1.680075e+00	 1.132905e+01
4	 1.493649e+00	 1.688212e+00	 1.125562e+01
4	 1.468980e+00	 1.696201e+00	 1.117757e+01
4	 1.444110e+00	 1.704039e+00	 1.109499e+01
4	 1.419044e+00	 1.711723e+00	 1.100800e+01
4	 1.393785e+00	 1.719251e+00	 1.091670e+01
4	 1.583918e+00	 1.751347e+00	 1.128903e+01
4	 1.558293e+00	 1.759424e+00	 1.122348e+01
4	 1.532460e+00	 1.767351e+00	 1.115344e+01
4	 1.506423e+00	 1.775125e+00	 1.107898e+01
4	 1.480187e+00	 1.782743e+00	 1.100020e+01
4	 1.453755e+00	 1.790205e+00	 1.091722e+01
4	 1.649696e+00	 1.822591e+00	 1.123808e+01
4	 1.622907e+00	 1.830603e+00	 1.117990e+01
4	 1.595907e+00	 1.838463e+00	 1.111728e+01
4	 1.568700e+00	 1.846168e+00	 1.105031e+01
4	 1.541290e+00	 1.853717e+00	 1.097911e+01
4	 1.513682e+00	 1.861107e+00	 1.090377e+01
4	 1.213618e+00	 1.506086e+00	 1.088959e+01
4	 1.191686e+00	 1.513637e+00	 1.076311e+01
4	 1.169580e+00	 1.521033e+00	 1.063041e+01
4	 1.147305e+00	 1.528273e+00	 1.049188e+01
4	 1.124866e+00	 1.535353e+00	 1.034792e+01
4	 1.102265e+00	 1.542272e+00	 1.019893e+01
4	 1.273717e+00	 1.577192e+00	 1.089622e+01
4	 1.250616e+00	 1.584687e+00	 1.078078e+01
4	 1.227338e+00	 1.592025e+00	 1.065953e+01
4	 1.203887e+00	 1.599204e+00	 1.053279e+01
4	 1.180267e+00	 1.606222e+00	 1.040090e+01
4	 1.156484e+00	 1.613078e+00	 1.026422e+01
4	 1.333773e+00	 1.648247e+00	 1.090764e+01
4	 1.309500e+00	 1.655682e+00	 1.080228e+01
4	 1.285047e+00	 1.662958e+00	 1.069140e+01
4	 1.260418e+00	 1.670073e+00	 1.057529e+01
4	 1.235617e+00	 1.677026e+00	 1.045423e+01
4	 1.210650e+00	 1.683814e+00	 1.032854e+01
4	 1.393785e+00	 1.719251e+00	 1.091670e+01
4	 1.368339e+00	 1.726622e+00	 1.082056e+01
4	 1.342709e+00	 1.733832e+00	 1.071913e+01
4	 1.316900e+00	 1.740880e+00	 1.061264e+01
4	 1.290916e+00	 1.747763e+00	 1.050138e+01
4	 1.264763e+00	 1.754481e+00	 1.038560e+01
4	 1.453755e+00	 1.790205e+00	 1.091722e+01
4	 1.427132e+00	 1.797507e+00	 1.082953e+01
4	 1.400323e+00	 1.804647e+00	 1.073673e+01
4	 1.373332e+00	 1.811624e+00	 1.063905e+01
4	 1.346164e+00	 1.818436e+00	 1.053670e+01
4	 1.318823e+00	 1.825080e+00	 1.042995e+01
4	 1.513682e+00	 1.861107e+00	 1.090377e+01
4	 1.485880e+00	 1.868337e+00	 1.082387e+01
4	 1.457889e+00	 1.875404e+00	 1.073901e+01
4	 1.429714e+00	 1.882306e+00	 1.064941e+01
4	 1.401360e+00	 1.889042e+00	 1.055529e+01
4	 1.372831e+00	 1.895610e+00	 1.045687e+01
4	 1.102265e+00	 1.542272e+00	 1.019893e+01
4	 1.079508e+00	 1.549028e+00	 1.004433e+01
4	 1.056600e+00	 1.555619e+00	 9.883564e+00
4	 1.033544e+00	 1.562043e+00	 9.717203e+00
4	 1.010345e+00	 1.568297e+00	 9.545825e+00
4	 9.870080e-01	 1.574381e+00	 9.370033e+00
4	 1.156484e+00	 1.613078e+00	 1.026422e+01
4	 1.132541e+00	 1.619768e+00	 1.012214e+01
4	 1.108443e+00	 1.626291e+00	 9.974134e+00
4	 1.084195e+00	 1.632645e+00	 9.820705e+00
4	 1.059802e+00	 1.638829e+00	 9.662379e+00
4	 1.035268e+00	 1.644840e+00	 9.499699e+00
4	 1.210650e+00	 1.683814e+00	 1.032854e+01
4	 1.185520e+00	 1.690435e+00	 1.019762e+01
4	 1.160232e+00	 1.696888e+00	 1.006097e+01
4	 1.134791e+00	 1.703170e+00	 9.919027e+00
4	 1.109203e+00	 1.709281e+00	 9.772284e+00
4	 1.083472e+00	 1.715218e+00	 9.621230e+00
4	 1.264763e+00	 1.754481e+00	 1.038560e+01
4	 1.238444e+00	 1.761031e+00	 1.026473e+01
4	 1.211966e+00	 1.767411e+00	 1.013829e+01
4	 1.185332e+00	 1.773619e+00	 1.000669e+01
4	 1.158549e+00	 1.779654e+00	 9.870372e+00
4	 1.131620e+00	 1.785513e+00	 9.729783e+00
4	 1.318823e+00	 1.825080e+00	 1.042995e+01
4	 1.291315e+00	 1.831555e+00	 1.031825e+01
4	 1.263645e+00	 1.837859e+00	 1.020113e+01
4	 1.235818e+00	 1.843990e+00	 1.007897e+01
4	 1.207839e+00	 1.849947e+00	 9.952189e+00
4	 1.179712e+00	 1.855728e+00	 9.821189e+00
4	 1.372831e+00	 1.895610e+00	 1.045687e+01
4	 1.344133e+00	 1.902007e+00	 1.035364e+01
4	 1.315270e+00	 1.908232e+00	 1.024515e+01
4	 1.286249e+00	 1.914284e+00	 1.013177e+01
4	 1.257073e+00	 1.920161e+00	 1.001387e+01
4	 1.227749e+00	 1.925861e+00	 9.891834e+00
4	 9.870080e-01	 1.574381e+00	 9.370033e+00
4	 9.635379e-01	 1.580292e+00	 9.189313e+00
4	 9.399394e-01	 1.586030e+00	 9.003207e+00
4	 9.162173e-01	 1.591591e+00	 8.812441e+00
4	 8.923767e-01	 1.596976e+00	 8.617763e+00
4	 8.684225e-01	 1.602181e+00	 8.419939e+00
4	 1.035268e+00	 1.644840e+00	 9.499699e+00
4	 1.010598e+00	 1.650677e+00	 9.332124e+00
4	 9.857980e-01	 1.656339e+00	 9.159182e+00
4	 9.608720e-01	 1.661824e+00	 8.981552e+00
4	 9.358256e-01	 1.667129e+00	 8.799933e+00
4	 9.106639e-01	 1.672255e+00	 8.615044e+00
4	 1.083472e+00	 1.715218e+00	 9.621230e+00
4	 1.057603e+00	 1.720979e+00	 9.465313e+00
4	 1.031601e+00	 1.726563e+00	 9.304057e+00
4	 1.005472e+00	 1.731969e+00	 9.138101e+00
4	 9.792200e-01	 1.737195e+00	 8.968100e+00
4	 9.528515e-01	 1.742240e+00	 8.794728e+00
4	 1.131620e+00	 1.785513e+00	 9.729783e+00
4	 1.104551e+00	 1.791197e+00	 9.584374e+00
4	 1.077348e+00	 1.796702e+00	 9.433674e+00
4	 1.050016e+00	 1.802028e+00	 9.278284e+00
4	 1.022560e+00	 1.807173e+00	 9.118819e+00
4	 9.949856e-01	 1.812136e+00	 8.955913e+00
4	 1.179712e+00	 1.855728e+00	 9.821189e+00
4	 1.151444e+00	 1.861332e+00	 9.685432e+00
4	 1.123040e+00	 1.866756e+00	 9.544458e+00
4	 1.094506e+00	 1.872001e+00	 9.398831e+00
4	 1.065846e+00	 1.877063e+00	 9.249133e+00
4	 1.037066e+00	 1.881943e+00	 9.095958e+00
4	 1.227749e+00	 1.925861e+00	 9.891834e+00
4	 1.198282e+00	 1.931383e+00	 9.765131e+00
4	 1.168677e+00	 1.936726e+00	 9.633315e+00
4	 1.138940e+00	 1.941887e+00	 9.496917e+00
4	 1.109077e+00	 1.946866e+00	 9.356486e+00
4	 1.079093e+00	 1.951662e+00	 9.212582e+00
4	 8.684225e-01	 1.602181e+00	 8.419939e+00
4	 8.443598e-01	 1.607207e+00	 8.218639e+00
4	 8.201939e-01	 1.612051e+00	 8.013560e+00
4	 7.959299e-01	 1.616713e+00	 7.805548e+00
4	 7.715730e-01	 1.621192e+00	 7.595470e+00
4	 7.471286e-01	 1.625486e+00	 7.384209e+00
4	 9.106639e-01	 1.672255e+00	 8.615044e+00
4	 8.853920e-01	 1.677200e+00	 8.426504e+00
4	 8.600154e-01	 1.681962e+00	 8.233977e+00
4	 8.345394e-01	 1.686540e+00	 8.038279e+00
4	 8.089693e-01	 1.690933e+00	 7.840246e+00
4	 7.833106e-01	 1.695141e+00	 7.640732e+00
4	 9.528515e-01	 1.742240e+00	 8.794728e+00
4	 9.263715e-01	 1.747102e+00	 8.617573e+00
4	 8.997853e-01	 1.751781e+00	 8.436277e+00
4	 8.730986e-01	 1.756275e+00	 8.251630e+00
4	 8.463167e-01	 1.760584e+00	 8.064435e+00
4	 8.194454e-01	 1.764705e+00	 7.875515e+00
4	 9.949856e-01	 1.812136e+00	 8.955913e+00
4	 9.672984e-01	 1.816916e+00	 8.789135e+00
4	 9.395038e-01	 1.821511e+00	 8.618117e+00
4	 9.116076e-01	 1.825920e+00	 8.443617e+00
4	 8.836153e-01	 1.830143e+00	 8.266411e+00
4	 8.555328e-01	 1.834178e+00	 8.087288e+00
4	 1.037066e+00	 1.881943e+00	 9.095958e+00
4	 1.008173e+00	 1.886639e+00	 8.938866e+00
4	 9.791709e-01	 1.891150e+00	 8.777484e+00
4	 9.500665e-01	 1.895474e+00	 8.612541e+00
4	 9.208653e-01	 1.899612e+00	 8.444781e+00
4	 8.915731e-01	 1.903561e+00	 8.274963e+00
4	 1.079093e+00	 1.951662e+00	 9.212582e+00
4	 1.048995e+00	 1.956273e+00	 9.064758e+00
4	 1.018787e+00	 1.960699e+00	 8.912644e+00
4	 9.884754e-01	 1.964938e+00	 8.756935e+00
4	 9.580666e-01	 1.968990e+00	 8.598345e+00
4	 9.275664e-01	 1.972853e+00	 8.437599e+00
4	 7.471286e-01	 1.625486e+00	 7.384209e+00
4	 7.226019e-01	 1.629594e+00	 7.171678e+00
4	 6.979984e-01	 1.633516e+00	 6.957783e+00
4	 6.733233e-01	 1.637250e+00	 6.743421e+00
4	 6.485823e-01	 1.640797e+00	 6.529504e+00
4	 6.237806e-01	 1.644155e+00	 6.316954e+00
4	 7.833106e-01	 1.695141e+00	 7.640732e+00
4	 7.575689e-01	 1.699162e+00	 7.439588e+00
4	 7.317495e-01	 1.702995e+00	 7.236678e+00
4	 7.058580e-01	 1.706641e+00	 7.032891e+00
4	 6.799001e-01	 1.710097e+00	 6.829132e+00
4	 6.538812e-01	 1.713363e+00	 6.626317e+00
4	 8.194454e-01	 1.764705e+00	 7.875515e+00
4	 7.924901e-01	 1.768639e+00	 7.684678e+00
4	 7.654566e-01	 1.772385e+00	 7.491754e+00
4	 7.383506e-01	 1.775941e+00	 7.297625e+00
4	 7.111777e-01	 1.779308e+00	 7.103181e+00
4	 6.839437e-01	 1.782484e+00	 6.909328e+00
4	 8.555328e-01	 1.834178e+00	 8.087288e+00
4	 8.273657e-01	 1.838026e+00	 7.906024e+00
4	 7.991199e-01	 1.841684e+00	 7.722427e+00
4	 7.708011e-01	 1.845152e+00	 7.537362e+00
4	 7.424151e-01	 1.848430e+00	 7.351706e+00
4	 7.139679e-01	 1.851516e+00	 7.166347e+00
4	 8.915731e-01	 1.903561e+00	 8.274963e+00
4	 8.621958e-01	 1.907321e+00	 8.102835e+00
4	 8.327394e-01	 1.910892e+00	 7.928192e+00
4	 8.032096e-01	 1.914273e+00	 7.751877e+00
4	 7.736125e-01	 1.917463e+00	 7.574748e+00
4	 7.439540e-01	 1.920461e+00	 7.397674e+00
4	 9.275664e-01	 1.972853e+00	 8.437599e+00
4	 8.969805e-01	 1.976527e+00	 8.274427e+00
4	 8.663151e-01	 1.980011e+00	 8.108610e+00
4	 8.355762e-01	 1.983305e+00	 7.940969e+00
4	 8.047698e-01	 1.986407e+00	 7.772339e+00
4	 7.739021e-01	 1.989319e+00	 7.603563e+00
4	 6.237806e-01	 1.644155e+00	 6.316954e+00
4	 5.989238e-01	 1.647324e+00	 6.105943e+00
4	 5.740173e-01	 1.650303e+00	 5.896592e+00
4	 5.490667e-01	 1.653093e+00	 5.689766e+00
4	 5.240774e-01	 1.655692e+00	 5.486333e+00
4	 4.990550e-01	 1.658101e+00	 5.287163e+00
4	 6.538812e-01	 1.713363e+00	 6.626317e+00
4	 6.278071e-01	 1.716440e+00	 6.424560e+00
4	 6.016834e-01	 1.719326e+00	 6.223943e+00
4	 5.755156e-01	 1.722021e+00	 6.025344e+00
4	 5.493095e-01	 1.724525e+00	 5.829648e+00
4	 5.230707e-01	 1.726838e+00	 5.637744e+00
4	 6.839437e-01	 1.782484e+00	 6.909328e+00
4	 6.566543e-01	 1.785469e+00	 6.716134e+00
4	 6.293153e-01	 1.788263e+00	 6.523647e+00
4	 6.019325e-01	 1.790866e+00	 6.332754e+00
4	 5.745117e-01	 1.793276e+00	 6.144349e+00
4	 5.470587e-01	 1.795495e+00	 5.959330e+00
4	 7.139679e-01	 1.851516e+00	 7.166347e+00
4	 6.854653e-01	 1.854412e+00	 6.981315e+00
4	 6.569131e-01	 1.857115e+00	 6.796632e+00
4	 6.283174e-01	 1.859627e+00	 6.613187e+00
4	 5.996840e-01	 1.861946e+00	 6.431875e+00
4	 5.710188e-01	 1.864073e+00	 6.253595e+00
4	 7.439540e-01	 1.920461e+00	 7.397674e+00
4	 7.142401e-01	 1.923268e+00	 7.220653e+00
4	 6.844769e-01	 1.925883e+00	 7.043683e+00
4	 6.546703e-01	 1.928305e+00	 6.867649e+00
4	 6.248264e-01	 1.930535e+00	 6.693439e+00
4	 5.949512e-01	 1.932572e+00	 6.521949e+00
4	 7.739021e-01	 1.989319e+00	 7.603563e+00
4	 7.429790e-01	 1.992038e+00	 7.434612e+00
4	 7.120067e-01	 1.994565e+00	 7.265464e+00
4	 6.809914e-01	 1.996900e+00	 7.096991e+00
4	 6.499390e-01	 1.999042e+00	 6.930073e+00
4	 6.188559e-01	 2.000991e+00	 6.765593e+00
4	 4.990550e-01	 1.658101e+00	 5.287163e+00
4	 4.740049e-01	 1.660319e+00	 5.092636e+00
4	 4.489327e-01	 1.662346e+00	 4.903047e+00
4	 4.238439e-01	 1.664183e+00	 4.719141e+00
4	 3.987440e-01	 1.665829e+00	 4.541655e+00
4	 3.736384e-01	 1.667285e+00	 4.371324e+00
4	 5.230707e-01	 1.726838e+00	 5.637744e+00
4	 4.968049e-01	 1.728959e+00	 5.449971e+00
4	 4.705177e-01	 1.730889e+00	 5.266593e+00
4	 4.442147e-01	 1.732627e+00	 5.088387e+00
4	 4.179016e-01	 1.734174e+00	 4.916128e+00
4	 3.915839e-01	 1.735530e+00	 4.750582e+00
4	 5.470587e-01	 1.795495e+00	 5.959330e+00
4	 5.195792e-01	 1.797522e+00	 5.778001e+00
4	 4.920790e-01	 1.799356e+00	 5.600598e+00
4	 4.645639e-01	 1.800999e+00	 5.427923e+00
4	 4.370397e-01	 1.802450e+00	 5.260774e+00
4	 4.095120e-01	 1.803709e+00	 5.099945e+00
4	 5.710188e-01	 1.864073e+00	 6.253595e+00
4	 5.423277e-01	 1.866007e+00	 6.078619e+00
4	 5.136167e-01	 1.867749e+00	 5.907159e+00
4	 4.848916e-01	 1.869299e+00	 5.740032e+00
4	 4.561583e-01	 1.870656e+00	 5.578053e+00
4	 4.274227e-01	 1.871821e+00	 5.422032e+00
4	 5.949512e-01	 1.932572e+00	 6.521949e+00
4	 5.650507e-01	 1.934416e+00	 6.353420e+00
4	 5.351309e-01	 1.936067e+00	 6.188043e+00
4	 5.051979e-01	 1.937526e+00	 6.026641e+00
4	 4.752575e-01	 1.938793e+00	 5.870038e+00
4	 4.453159e-01	 1.939868e+00	 5.719054e+00
4	 6.188559e-01	 2.000991e+00	 6.765593e+00
4	 5.877481e-01	 2.002747e+00	 6.603762e+00
4	 5.566216e-01	 2.004311e+00	 6.444752e+00
4	 5.254827e-01	 2.005682e+00	 6.289386e+00
4	 4.943374e-01	 2.006861e+00	 6.138490e+00
4	 4.631918e-01	 2.007848e+00	 5.992886e+00
4	 3.736384e-01	 1.667285e+00	 4.371324e+00
4	 3.485325e-01	 1.668551e+00	 4.208620e+00
4	 3.234318e-01	 1.669627e+00	 4.053907e+00
4	 2.983418e-01	 1.670514e+00	 3.907742e+00
4	 2.732677e-01	 1.671213e+00	 3.770669e+00
4	 2.482149e-01	 1.671723e+00	 3.643220e+00
4	 3.915839e-01	 1.735530e+00	 4.750582e+00
4	 3.652674e-01	 1.736695e+00	 4.592206e+00
4	 3.389575e-01	 1.737670e+00	 4.441345e+00
4	 3.126598e-01	 1.738455e+00	 4.298597e+00
4	 2.863798e-01	 1.739051e+00	 4.164550e+00
4	 2.601229e-01	 1.739458e+00	 4.039778e+00
4	 4.095120e-01	 1.803709e+00	 5.099945e+00
4	 3.819868e-01	 1.804777e+00	 4.945871e+00
4	 3.544695e-01	 1.805654e+00	 4.798883e+00
4	 3.269659e-01	 1.806340e+00	 4.659611e+00
4	 2.994817e-01	 1.806837e+00	 4.528673e+00
4	 2.720224e-01	 1.807145e+00	 4.406677e+00
4	 4.274227e-01	 1.871821e+00	 5.422032e+00
4	 3.986906e-01	 1.872795e+00	 5.272386e+00
4	 3.699678e-01	 1.873578e+00	 5.129427e+00
4	 3.412602e-01	 1.874169e+00	 4.993810e+00
4	 3.125734e-01	 1.874571e+00	 4.866177e+00
4	 2.839133e-01	 1.874783e+00	 4.747161e+00
4	 4.453159e-01	 1.939868e+00	 5.719054e+00
4	 4.153790e-01	 1.940750e+00	 5.574084e+00
4	 3.854526e-01	 1.941442e+00	 5.435424e+00
4	 3.555427e-01	 1.941942e+00	 5.303745e+00
4	 3.256551e-01	 1.942252e+00	 5.179706e+00
4	 2.957957e-01	 1.942372e+00	 5.063958e+00
4	 4.631918e-01	 2.007848e+00	 5.992886e+00
4	 4.320519e-01	 2.008642e+00	 5.852945e+00
4	 4.009237e-01	 2.009246e+00	 5.718950e+00
4	 3.698133e-01	 2.009659e+00	 5.591579e+00
4	 3.387266e-01	 2.009881e+00	 5.471502e+00
4	 3.076696e-01	 2.009914e+00	 5.359382e+00
4	 2.482149e-01	 1.671723e+00	 3.643220e+00
4	 2.231887e-01	 1.672046e+00	 3.525833e+00
4	 1.981943e-01	 1.672182e+00	 3.418824e+00
4	 1.732370e-01	 1.672132e+00	 3.322522e+00
4	 1.483220e-01	 1.671898e+00	 3.237237e+00
4	 1.234542e-01	 1.671479e+00	 3.163261e+00
4	 2.601229e-01	 1.739458e+00	 4.039778e+00
4	 2.338946e-01	 1.739677e+00	 3.924717e+00
4	 2.077004e-01	 1.739708e+00	 3.819680e+00
4	 1.815454e-01	 1.739553e+00	 3.725032e+00
4	 1.554351e-01	 1.739213e+00	 3.641124e+00
4	 1.293747e-01	 1.738688e+00	 3.568286e+00
4	 2.720224e-01	 1.807145e+00	 4.406677e+00
4	 2.445935e-01	 1.807264e+00	 4.294057e+00
4	 2.172007e-01	 1.807195e+00	 4.191117e+00
4	 1.898494e-01	 1.806939e+00	 4.098252e+00
4	 1.625450e-01	 1.806497e+00	 4.015843e+00
4	 1.352928e-01	 1.805870e+00	 3.944253e+00
4	 2.839133e-01	 1.874783e+00	 4.747161e+00
4	 2.552854e-01	 1.874806e+00	 4.637189e+00
4	 2.266954e-01	 1.874641e+00	 4.536555e+00
4	 1.981490e-01	 1.874289e+00	 4.445677e+00
4	 1.696516e-01	 1.873750e+00	 4.364960e+00
4	 1.412087e-01	 1.873026e+00	 4.294791e+00
4	 2.957957e-01	 1.942372e+00	 5.063958e+00
4	 2.659703e-01	 1.942304e+00	 4.956919e+00
4	 2.361845e-01	 1.942047e+00	 4.858870e+00
4	 2.064442e-01	 1.941603e+00	 4.770247e+00
4	 1.767549e-01	 1.940972e+00	 4.691472e+00
4	 1.471222e-01	 1.940156e+00	 4.622951e+00
4	 3.076696e-01	 2.009914e+00	 5.359382e+00
4	 2.766481e-01	 2.009758e+00	 5.255623e+00
4	 2.456679e-01	 2.009413e+00	 5.160497e+00
4	 2.147350e-01	 2.008882e+00	 5.074450e+00
4	 1.838549e-01	 2.008163e+00	 4.997916e+00
4	 1.530334e-01	 2.007260e+00	 4.931314e+00
4	 1.234542e-01	 1.671479e+00	 3.163261e+00
4	 9.863881e-02	 1.670878e+00	 3.100858e+00
4	 7.388080e-02	 1.670095e+00	 3.050188e+00
4	 4.918509e-02	 1.669131e+00	 3.011351e+00
4	 2.455656e-02	 1.667988e+00	 2.984429e+00
4	 0.000000e+00	 1.666667e+00	 2.969483e+00
4	 1.293747e-01	 1.738688e+00	 3.568286e+00
4	 1.033693e-01	 1.737979e+00	 3.506796e+00
4	 7.742411e-02	 1.737088e+00	 3.456816e+00
4	 5.154417e-02	 1.736016e+00	 3.418477e+00
4	 2.573449e-02	 1.734764e+00	 3.391892e+00
4	 0.000000e+00	 1.733333e+00	 3.377153e+00
4	 1.352928e-01	 1.805870e+00	 3.944253e+00
4	 1.080983e-01	 1.805060e+00	 3.883767e+00
4	 8.096656e-02	 1.804066e+00	 3.834547e+00
4	 5.390287e-02	 1.802891e+00	 3.796745e+00
4	 2.691233e-02	 1.801535e+00	 3.770495e+00
4	 0.000000e+00	 1.800000e+00	 3.755912e+00
4	 1.412087e-01	 1.873026e+00	 4.294791e+00
4	 1.128258e-01	 1.872118e+00	 4.235460e+00
4	 8.450815e-02	 1.871027e+00	 4.187124e+00
4	 5.626118e-02	 1.869754e+00	 4.149947e+00
4	 2.809007e-02	 1.868300e+00	 4.124079e+00
4	 0.000000e+00	 1.866667e+00	 4.109650e+00
4	 1.471222e-01	 1.940156e+00	 4.622951e+00
4	 1.175517e-01	 1.939156e+00	 4.564975e+00
4	 8.804888e-02	 1.937972e+00	 4.517691e+00
4	 5.861910e-02	 1.936606e+00	 4.481271e+00
4	 2.926771e-02	 1.935060e+00	 4.455872e+00
4	 0.000000e+00	 1.933333e+00	 4.441633e+00
4	 1.530334e-01	 2.007260e+00	 4.931314e+00
4	 1.222762e-01	 2.006172e+00	 4.874933e+00
4	 9.158876e-02	 2.004901e+00	 4.828907e+00
4	 6.097663e-02	 2.003448e+00	 4.793410e+00
4	 3.044525e-02	 2.001814e+00	 4.768600e+00
4	 0.000000e+00	 2.000000e+00	 4.754620e+00
4	 1.780330e+00	 1.780330e+00	 1.146854e+01
4	 1.754658e+00	 1.789068e+00	 1.143042e+01
4	 1.728754e+00	 1.797665e+00	 1.138828e+01
4	 1.702623e+00	 1.806120e+00	 1.134216e+01
4	 1.676269e+00	 1.814429e+00	 1.129208e+01
4	 1.649696e+00	 1.822591e+00	 1.123808e+01
4	 1.851878e+00	 1.851878e+00	 1.138581e+01
4	 1.825053e+00	 1.860553e+00	 1.135401e+01
4	 1.797994e+00	 1.869085e+00	 1.131810e+01
4	 1.770704e+00	 1.877473e+00	 1.127816e+01
4	 1.743188e+00	 1.885715e+00	 1.123427e+01
4	 1.715449e+00	 1.893807e+00	 1.118651e+01
4	 1.923427e+00	 1.923427e+00	 1.132174e+01
4	 1.895443e+00	 1.932032e+00	 1.129382e+01
4	 1.867222e+00	 1.940494e+00	 1.126201e+01
4	 1.838768e+00	 1.948810e+00	 1.122639e+01
4	 1.810084e+00	 1.956978e+00	 1.118706e+01
4	 1.781176e+00	 1.964996e+00	 1.114412e+01
4	 1.994975e+00	 1.994975e+00	 1.126887e+01
4	 1.965827e+00	 2.003505e+00	 1.124301e+01
4	 1.936439e+00	 2.011890e+00	 1.121371e+01
4	 1.906815e+00	 2.020129e+00	 1.118103e+01
4	 1.876960e+00	 2.028218e+00	 1.114502e+01
4	 1.846877e+00	 2.036157e+00	 1.110578e+01
4	 2.066523e+00	 2.066523e+00	 1.122057e+01
4	 2.036205e+00	 2.074972e+00	 1.119550e+01
4	 2.005645e+00	 2.083275e+00	 1.116760e+01
4	 1.974847e+00	 2.091430e+00	 1.113687e+01
4	 1.943814e+00	 2.099436e+00	 1.110331e+01
4	 1.912553e+00	 2.107290e+00	 1.106694e+01
4	 2.138071e+00	 2.138071e+00	 1.117092e+01
4	 2.106577e+00	 2.146433e+00	 1.114587e+01
4	 2.074839e+00	 2.154648e+00	 1.111870e+01
4	 2.042861e+00	 2.162715e+00	 1.108930e+01
4	 2.010647e+00	 2.170631e+00	 1.105762e+01
4	 1.978203e+00	 2.178395e+00	 1.102355e+01
4	 1.649696e+00	 1.822591e+00	 1.123808e+01
4	 1.622907e+00	 1.830603e+00	 1.117990e+01
4	 1.595907e+00	 1.838463e+00	 1.111728e+01
4	 1.568700e+00	 1.846168e+00	 1.105031e+01
4	 1.541290e+00	 1.853717e+00	 1.097911e+01
4	 1.513682e+00	 1.861107e+00	 1.090377e+01
4	 1.715449e+00	 1.893807e+00	 1.118651e+01
4	 1.687491e+00	 1.901749e+00	 1.113466e+01
4	 1.659320e+00	 1.909537e+00	 1.107848e+01
4	 1.630939e+00	 1.917169e+00	 1.101807e+01
4	 1.602353e+00	 1.924644e+00	 1.095355e+01
4	 1.573566e+00	 1.931959e+00	 1.088502e+01
4	 1.781176e+00	 1.964996e+00	 1.114412e+01
4	 1.752046e+00	 1.972862e+00	 1.109731e+01
4	 1.722700e+00	 1.980573e+00	 1.104639e+01
4	 1.693141e+00	 1.988128e+00	 1.099145e+01
4	 1.663375e+00	 1.995524e+00	 1.093259e+01
4	 1.633406e+00	 2.002760e+00	 1.086993e+01
4	 1.846877e+00	 2.036157e+00	 1.110578e+01
4	 1.816571e+00	 2.043942e+00	 1.106300e+01
4	 1.786046e+00	 2.051572e+00	 1.101639e+01
4	 1.755307e+00	 2.059045e+00	 1.096603e+01
4	 1.724358e+00	 2.066358e+00	 1.091201e+01
4	 1.693205e+00	 2.073511e+00	 1.085443e+01
4	 1.912553e+00	 2.107290e+00	 1.106694e+01
4	 1.881066e+00	 2.114990e+00	 1.102741e+01
4	 1.849358e+00	 2.122534e+00	 1.098439e+01
4	 1.817435e+00	 2.129920e+00	 1.093792e+01
4	 1.785301e+00	 2.137146e+00	 1.088807e+01
4	 1.752960e+00	 2.144210e+00	 1.083491e+01
4	 1.978203e+00	 2.178395e+00	 1.102355e+01
4	 1.945531e+00	 2.186005e+00	 1.098670e+01
4	 1.912637e+00	 2.193458e+00	 1.094672e+01
4	 1.879527e+00	 2.200752e+00	 1.090363e+01
4	 1.846203e+00	 2.207887e+00	 1.085744e+01
4	 1.812673e+00	 2.214860e+00	 1.080818e+01
4	 1.513682e+00	 1.861107e+00	 1.090377e+01
4	 1.485880e+00	 1.868337e+00	 1.082387e+01
4	 1.457889e+00	 1.875404e+00	 1.073901e+01
4	 1.429714e+00	 1.882306e+00	 1.064941e+01
4	 1.401360e+00	 1.889042e+00	 1.055529e+01
4	 1.372831e+00	 1.895610e+00	 1.045687e+01
4	 1.573566e+00	 1.931959e+00	 1.088502e+01
4	 1.544582e+00	 1.939112e+00	 1.081209e+01
4	 1.515408e+00	 1.946102e+00	 1.073438e+01
4	 1.486047e+00	 1.952927e+00	 1.065209e+01
4	 1.456505e+00	 1.959583e+00	 1.056542e+01
4	 1.426787e+00	 1.966071e+00	 1.047459e+01
4	 1.633406e+00	 2.002760e+00	 1.086993e+01
4	 1.603240e+00	 2.009833e+00	 1.080306e+01
4	 1.572879e+00	 2.016742e+00	 1.073162e+01
4	 1.542331e+00	 2.023485e+00	 1.065578e+01
4	 1.511599e+00	 2.030059e+00	 1.057574e+01
4	 1.480690e+00	 2.036464e+00	 1.049169e+01
4	 1.693205e+00	 2.073511e+00	 1.085443e+01
4	 1.661851e+00	 2.080500e+00	 1.079286e+01
4	 1.630303e+00	 2.087324e+00	 1.072694e+01
4	 1.598565e+00	 2.093981e+00	 1.065683e+01
4	 1.566642e+00	 2.100470e+00	 1.058270e+01
4	 1.534540e+00	 2.106789e+00	 1.050474e+01
4	 1.752960e+00	 2.144210e+00	 1.083491e+01
4	 1.720418e+00	 2.151111e+00	 1.077801e+01
4	 1.687680e+00	 2.157847e+00	 1.071699e+01
4	 1.654750e+00	 2.164416e+00	 1.065198e+01
4	 1.621635e+00	 2.170816e+00	 1.058316e+01
4	 1.588339e+00	 2.177045e+00	 1.051068e+01
4	 1.812673e+00	 2.214860e+00	 1.080818e+01
4	 1.778939e+00	 2.221669e+00	 1.075541e+01
4	 1.745009e+00	 2.228312e+00	 1.069876e+01
4	 1.710886e+00	 2.234789e+00	 1.063836e+01
4	 1.676576e+00	 2.241096e+00	 1.057433e+01
4	 1.642085e+00	 2.247233e+00	 1.050681e+01
4	 1.372831e+00	 1.895610e+00	 1.045687e+01
4	 1.344133e+00	 1.902007e+00	 1.035364e+01
4	 1.315270e+00	 1.908232e+00	 1.024515e+01
4	 1.286249e+00	 1.914284e+00	 1.013177e+01
4	 1.257073e+00	 1.920161e+00	 1.001387e+01
4	 1.227749e+00	 1.925861e+00	 9.891834e+00
4	 1.426787e+00	 1.966071e+00	 1.047459e+01
4	 1.396897e+00	 1.972388e+00	 1.037911e+01
4	 1.366841e+00	 1.978532e+00	 1.027855e+01
4	 1.336624e+00	 1.984502e+00	 1.017324e+01
4	 1.306252e+00	 1.990296e+00	 1.006353e+01
4	 1.275730e+00	 1.995913e+00	 9.949788e+00
4	 1.480690e+00	 2.036464e+00	 1.049169e+01
4	 1.449607e+00	 2.042697e+00	 1.040316e+01
4	 1.418357e+00	 2.048758e+00	 1.030973e+01
4	 1.386945e+00	 2.054643e+00	 1.021169e+01
4	 1.355376e+00	 2.060353e+00	 1.010939e+01
4	 1.323656e+00	 2.065885e+00	 1.000316e+01
4	 1.534540e+00	 2.106789e+00	 1.050474e+01
4	 1.502264e+00	 2.112936e+00	 1.042246e+01
4	 1.469819e+00	 2.118909e+00	 1.033546e+01
4	 1.437210e+00	 2.124708e+00	 1.024402e+01
4	 1.404444e+00	 2.130330e+00	 1.014844e+01
4	 1.371526e+00	 2.135775e+00	 1.004905e+01
4	 1.588339e+00	 2.177045e+00	 1.051068e+01
4	 1.554868e+00	 2.183103e+00	 1.043406e+01
4	 1.521227e+00	 2.188987e+00	 1.035289e+01
4	 1.487421e+00	 2.194696e+00	 1.026746e+01
4	 1.453458e+00	 2.200229e+00	 1.017803e+01
4	 1.419341e+00	 2.205585e+00	 1.008490e+01
4	 1.642085e+00	 2.247233e+00	 1.050681e+01
4	 1.607418e+00	 2.253199e+00	 1.043534e+01
4	 1.572580e+00	 2.258991e+00	 1.035951e+01
4	 1.537578e+00	 2.264608e+00	 1.027957e+01
4	 1.502416e+00	 2.270050e+00	 1.019579e+01
4	 1.467101e+00	 2.275314e+00	 1.010844e+01
4	 1.227749e+00	 1.925861e+00	 9.891834e+00
4	 1.198282e+00	 1.931383e+00	 9.765131e+00
4	 1.168677e+00	 1.936726e+00	 9.633315e+00
4	 1.138940e+00	 1.941887e+00	 9.496917e+00
4	 1.109077e+00	 1.946866e+00	 9.356486e+00
4	 1.079093e+00	 1.951662e+00	 9.212582e+00
4	 1.275730e+00	 1.995913e+00	 9.949788e+00
4	 1.245064e+00	 2.001352e+00	 9.831490e+00
4	 1.214259e+00	 2.006610e+00	 9.708198e+00
4	 1.183320e+00	 2.011687e+00	 9.580415e+00
4	 1.152255e+00	 2.016582e+00	 9.448657e+00
4	 1.121067e+00	 2.021292e+00	 9.313455e+00
4	 1.323656e+00	 2.065885e+00	 1.000316e+01
4	 1.291790e+00	 2.071238e+00	 9.892490e+00
4	 1.259785e+00	 2.076410e+00	 9.776948e+00
4	 1.227646e+00	 2.081401e+00	 9.657008e+00
4	 1.195378e+00	 2.086210e+00	 9.533160e+00
4	 1.162988e+00	 2.090834e+00	 9.405905e+00
4	 1.371526e+00	 2.135775e+00	 1.004905e+01
4	 1.338462e+00	 2.141041e+00	 9.945340e+00
4	 1.305256e+00	 2.146126e+00	 9.836884e+00
4	 1.271917e+00	 2.151030e+00	 9.724134e+00
4	 1.238448e+00	 2.155751e+00	 9.607550e+00
4	 1.204856e+00	 2.160288e+00	 9.487605e+00
4	 1.419341e+00	 2.205585e+00	 1.008490e+01
4	 1.385078e+00	 2.210761e+00	 9.987579e+00
4	 1.350673e+00	 2.215758e+00	 9.885650e+00
4	 1.316133e+00	 2.220573e+00	 9.779536e+00
4	 1.281463e+00	 2.225205e+00	 9.669675e+00
4	 1.246671e+00	 2.229655e+00	 9.556514e+00
4	 1.467101e+00	 2.275314e+00	 1.010844e+01
4	 1.431639e+00	 2.280399e+00	 1.001703e+01
4	 1.396035e+00	 2.285305e+00	 9.921159e+00
4	 1.360295e+00	 2.290030e+00	 9.821223e+00
4	 1.324425e+00	 2.294573e+00	 9.717638e+00
4	 1.288432e+00	 2.298933e+00	 9.610827e+00
4	 1.079093e+00	 1.951662e+00	 9.212582e+00
4	 1.048995e+00	 1.956273e+00	 9.064758e+00
4	 1.018787e+00	 1.960699e+00	 8.912644e+00
4	 9.884754e-01	 1.964938e+00	 8.756935e+00
4	 9.580666e-01	 1.968990e+00	 8.598345e+00
4	 9.275664e-01	 1.972853e+00	 8.437599e+00
4	 1.121067e+00	 2.021292e+00	 9.313455e+00
4	 1.089764e+00	 2.025818e+00	 9.174359e+00
4	 1.058351e+00	 2.030158e+00	 9.030997e+00
4	 1.026834e+00	 2.034312e+00	 8.884037e+00
4	 9.952195e-01	 2.038277e+00	 8.734160e+00
4	 9.635126e-01	 2.042054e+00	 8.582061e+00
4	 1.162988e+00	 2.090834e+00	 9.405905e+00
4	 1.130482e+00	 2.095274e+00	 9.274791e+00
4	 1.097865e+00	 2.099528e+00	 9.139451e+00
4	 1.065144e+00	 2.103595e+00	 9.000522e+00
4	 1.032324e+00	 2.107474e+00	 8.858657e+00
4	 9.994120e-01	 2.111165e+00	 8.714519e+00
4	 1.204856e+00	 2.160288e+00	 9.487605e+00
4	 1.171147e+00	 2.164641e+00	 9.363853e+00
4	 1.137328e+00	 2.168808e+00	 9.235926e+00
4	 1.103403e+00	 2.172788e+00	 9.104435e+00
4	 1.069380e+00	 2.176581e+00	 8.970006e+00
4	 1.035265e+00	 2.180186e+00	 8.833272e+00
4	 1.246671e+00	 2.229655e+00	 9.556514e+00
4	 1.211760e+00	 2.233919e+00	 9.439609e+00
4	 1.176739e+00	 2.237999e+00	 9.318596e+00
4	 1.141613e+00	 2.241892e+00	 9.194061e+00
4	 1.106388e+00	 2.245599e+00	 9.066602e+00
4	 1.071070e+00	 2.249118e+00	 8.936826e+00
4	 1.288432e+00	 2.298933e+00	 9.610827e+00
4	 1.252322e+00	 2.303109e+00	 9.500351e+00
4	 1.216100e+00	 2.307101e+00	 9.385851e+00
4	 1.179773e+00	 2.310907e+00	 9.267888e+00
4	 1.143348e+00	 2.314526e+00	 9.147033e+00
4	 1.106830e+00	 2.317959e+00	 9.023868e+00
4	 9.275664e-01	 1.972853e+00	 8.437599e+00
4	 8.969805e-01	 1.976527e+00	 8.274427e+00
4	 8.663151e-01	 1.980011e+00	 8.108610e+00
4	 8.355762e-01	 1.983305e+00	 7.940969e+00
4	 8.047698e-01	 1.986407e+00	 7.772339e+00
4	 7.739021e-01	 1.989319e+00	 7.603563e+00
4	 9.635126e-01	 2.042054e+00	 8.582061e+00
4	 9.317198e-01	 2.045642e+00	 8.427453e+00
4	 8.998473e-01	 2.049040e+00	 8.270107e+00
4	 8.679011e-01	 2.052247e+00	 8.110821e+00
4	 8.358873e-01	 2.055264e+00	 7.950403e+00
4	 8.038122e-01	 2.058089e+00	 7.789672e+00
4	 9.994120e-01	 2.111165e+00	 8.714519e+00
4	 9.664139e-01	 2.114667e+00	 8.567813e+00
4	 9.333359e-01	 2.117979e+00	 8.418300e+00
4	 9.001842e-01	 2.121101e+00	 8.266755e+00
4	 8.669649e-01	 2.124032e+00	 8.113962e+00
4	 8.336844e-01	 2.126772e+00	 7.960713e+00
4	 1.035265e+00	 2.180186e+00	 8.833272e+00
4	 1.001063e+00	 2.183603e+00	 8.693929e+00
4	 9.667811e-01	 2.186829e+00	 8.551738e+00
4	 9.324256e-01	 2.189866e+00	 8.407446e+00
4	 8.980027e-01	 2.192712e+00	 8.261812e+00
4	 8.635187e-01	 2.195368e+00	 8.115604e+00
4	 1.071070e+00	 2.249118e+00	 8.936826e+00
4	 1.035667e+00	 2.252448e+00	 8.804423e+00
4	 1.000183e+00	 2.255590e+00	 8.669150e+00
4	 9.646255e-01	 2.258542e+00	 8.531732e+00
4	 9.290009e-01	 2.261305e+00	 8.392901e+00
4	 8.933154e-01	 2.263877e+00	 8.253401e+00
4	 1.106830e+00	 2.317959e+00	 9.023868e+00
4	 1.070225e+00	 2.321204e+00	 8.898079e+00
4	 1.033541e+00	 2.324261e+00	 8.769421e+00
4	 9.967839e-01	 2.327130e+00	 8.638593e+00
4	 9.599594e-01	 2.329809e+00	 8.506305e+00
4	 9.230743e-01	 2.332300e+00	 8.373272e+00
4	 7.739021e-01	 1.989319e+00	 7.603563e+00
4	 7.429790e-01	 1.992038e+00	 7.434612e+00
4	 7.120067e-01	 1.994565e+00	 7.265464e+00
4	 6.809914e-01	 1.996900e+00	 7.096991e+00
4	 6.499390e-01	 1.999042e+00	 6.930073e+00
4	 6.188559e-01	 2.000991e+00	 6.765593e+00
4	 8.038122e-01	 2.058089e+00	 7.789672e+00
4	 7.716819e-01	 2.060722e+00	 7.628573e+00
4	 7.395026e-01	 2.063163e+00	 7.467068e+00
4	 7.072805e-01	 2.065411e+00	 7.306015e+00
4	 6.750219e-01	 2.067468e+00	 7.146276e+00
4	 6.427330e-01	 2.069331e+00	 6.988722e+00
4	 8.336844e-01	 2.126772e+00	 7.960713e+00
4	 8.003488e-01	 2.129320e+00	 7.806934e+00
4	 7.669646e-01	 2.131676e+00	 7.652573e+00
4	 7.335379e-01	 2.133840e+00	 7.498471e+00
4	 7.000751e-01	 2.135812e+00	 7.345476e+00
4	 6.665824e-01	 2.137592e+00	 7.194440e+00
4	 8.635187e-01	 2.195368e+00	 8.115604e+00
4	 8.289800e-01	 2.197832e+00	 7.968731e+00
4	 7.943928e-01	 2.200105e+00	 7.821131e+00
4	 7.597636e-01	 2.202187e+00	 7.673627e+00
4	 7.250986e-01	 2.204076e+00	 7.527047e+00
4	 6.904044e-01	 2.205774e+00	 7.382226e+00
4	 8.933154e-01	 2.263877e+00	 8.253401e+00
4	 8.575754e-01	 2.266259e+00	 8.113125e+00
4	 8.217873e-01	 2.268450e+00	 7.972004e+00
4	 7.859576e-01	 2.270450e+00	 7.830841e+00
4	 7.500926e-01	 2.272260e+00	 7.690444e+00
4	 7.141988e-01	 2.273878e+00	 7.551629e+00
4	 9.230743e-01	 2.332300e+00	 8.373272e+00
4	 8.861351e-01	 2.334600e+00	 8.239378e+00
4	 8.491481e-01	 2.336711e+00	 8.104544e+00
4	 8.121199e-01	 2.338632e+00	 7.969551e+00
4	 7.750570e-01	 2.340363e+00	 7.835190e+00
4	 7.379658e-01	 2.341903e+00	 7.702252e+00
4	 6.188559e-01	 2.000991e+00	 6.765593e+00
4	 5.877481e-01	 2.002747e+00	 6.603762e+00
4	 5.566216e-01	 2.004311e+00	 6.444752e+00
4	 5.254827e-01	 2.005682e+00	 6.289386e+00
4	 4.943374e-01	 2.006861e+00	 6.138490e+00
4	 4.631918e-01	 2.007848e+00	 5.992886e+00
4	 6.427330e-01	 2.069331e+00	 6.988722e+00
4	 6.104199e-01	 2.071002e+00	 6.833537e+00
4	 5.780889e-01	 2.072480e+00	 6.680873e+00
4	 5.457462e-01	 2.073766e+00	 6.531552e+00
4	 5.133979e-01	 2.074860e+00	 6.386392e+00
4	 4.810502e-01	 2.075761e+00	 6.246215e+00
4	 6.665824e-01	 2.137592e+00	 7.194440e+00
4	 6.330662e-01	 2.139180e+00	 7.045525e+00
4	 5.995328e-01	 2.140575e+00	 6.898867e+00
4	 5.659883e-01	 2.141778e+00	 6.755280e+00
4	 5.324391e-01	 2.142790e+00	 6.615579e+00
4	 4.988913e-01	 2.143609e+00	 6.480577e+00
4	 6.904044e-01	 2.205774e+00	 7.382226e+00
4	 6.556871e-01	 2.207281e+00	 7.239307e+00
4	 6.209532e-01	 2.208595e+00	 7.098411e+00
4	 5.862091e-01	 2.209719e+00	 6.960343e+00
4	 5.514609e-01	 2.210650e+00	 6.825908e+00
4	 5.167151e-01	 2.211391e+00	 6.695910e+00
4	 7.141988e-01	 2.273878e+00	 7.551629e+00
4	 6.782826e-01	 2.275305e+00	 7.414520e+00
4	 6.423504e-01	 2.276542e+00	 7.279226e+00
4	 6.064086e-01	 2.277588e+00	 7.146540e+00
4	 5.704635e-01	 2.278443e+00	 7.017255e+00
4	 5.345216e-01	 2.279108e+00	 6.892162e+00
4	 7.379658e-01	 2.341903e+00	 7.702252e+00
4	 7.008527e-01	 2.343254e+00	 7.570845e+00
4	 6.637242e-01	 2.344414e+00	 7.441068e+00
4	 6.265868e-01	 2.345385e+00	 7.313696e+00
4	 5.894469e-01	 2.346166e+00	 7.189510e+00
4	 5.523108e-01	 2.346758e+00	 7.069287e+00
4	 4.631918e-01	 2.007848e+00	 5.992886e+00
4	 4.320519e-01	 2.008642e+00	 5.852945e+00
4	 4.009237e-01	 2.009246e+00	 5.718950e+00
4	 3.698133e-01	 2.009659e+00	 5.591579e+00
4	 3.387266e-01	 2.009881e+00	 5.471502e+00
4	 3.076696e-01	 2.009914e+00	 5.359382e+00
4	 4.810502e-01	 2.075761e+00	 6.246215e+00
4	 4.487093e-01	 2.076472e+00	 6.111371e+00
4	 4.163813e-01	 2.076991e+00	 5.982127e+00
4	 3.840722e-01	 2.077319e+00	 5.859165e+00
4	 3.517881e-01	 2.077458e+00	 5.743161e+00
4	 3.195350e-01	 2.077407e+00	 5.634784e+00
4	 4.988913e-01	 2.143609e+00	 6.480577e+00
4	 4.653513e-01	 2.144238e+00	 6.350605e+00
4	 4.318253e-01	 2.144676e+00	 6.225916e+00
4	 3.983192e-01	 2.144924e+00	 6.107194e+00
4	 3.648394e-01	 2.144982e+00	 5.995117e+00
4	 3.313919e-01	 2.144851e+00	 5.890356e+00
4	 5.167151e-01	 2.211391e+00	 6.695910e+00
4	 4.819780e-01	 2.211942e+00	 6.570663e+00
4	 4.472557e-01	 2.212302e+00	 6.450406e+00
4	 4.125545e-01	 2.212473e+00	 6.335822e+00
4	 3.778807e-01	 2.212454e+00	 6.227587e+00
4	 3.432403e-01	 2.212248e+00	 6.126371e+00
4	 5.345216e-01	 2.279108e+00	 6.892162e+00
4	 4.985892e-01	 2.279583e+00	 6.771560e+00
4	 4.626726e-01	 2.279869e+00	 6.655675e+00
4	 4.267781e-01	 2.279966e+00	 6.545183e+00
4	 3.909119e-01	 2.279875e+00	 6.440759e+00
4	 3.550803e-01	 2.279596e+00	 6.343067e+00
4	 5.523108e-01	 2.346758e+00	 7.069287e+00
4	 5.151851e-01	 2.347162e+00	 6.953309e+00
4	 4.780760e-01	 2.347376e+00	 6.841788e+00
4	 4.409899e-01	 2.347403e+00	 6.735396e+00
4	 4.039331e-01	 2.347243e+00	 6.634798e+00
4	 3.669118e-01	 2.346896e+00	 6.540653e+00
4	 3.076696e-01	 2.009914e+00	 5.359382e+00
4	 2.766481e-01	 2.009758e+00	 5.255623e+00
4	 2.456679e-01	 2.009413e+00	 5.160497e+00
4	 2.147350e-01	 2.008882e+00	 5.074450e+00
4	 1.838549e-01	 2.008163e+00	 4.997916e+00
4	 1.530334e-01	 2.007260e+00	 4.931314e+00
4	 3.195350e-01	 2.077407e+00	 5.634784e+00
4	 2.873189e-01	 2.077167e+00	 5.534427e+00
4	 2.551457e-01	 2.076739e+00	 5.442348e+00
4	 2.230214e-01	 2.076124e+00	 5.359003e+00
4	 1.909517e-01	 2.075324e+00	 5.284833e+00
4	 1.589423e-01	 2.074337e+00	 5.220267e+00
4	 3.313919e-01	 2.144851e+00	 5.890356e+00
4	 2.979827e-01	 2.144532e+00	 5.793292e+00
4	 2.646179e-01	 2.144025e+00	 5.704174e+00
4	 2.313034e-01	 2.143332e+00	 5.623461e+00
4	 1.980451e-01	 2.142453e+00	 5.551601e+00
4	 1.648489e-01	 2.141389e+00	 5.489028e+00
4	 3.432403e-01	 2.212248e+00	 6.126371e+00
4	 3.086396e-01	 2.211853e+00	 6.032544e+00
4	 2.740845e-01	 2.211271e+00	 5.946346e+00
4	 2.395811e-01	 2.210504e+00	 5.868237e+00
4	 2.051353e-01	 2.209551e+00	 5.798669e+00
4	 1.707532e-01	 2.208413e+00	 5.738081e+00
4	 3.550803e-01	 2.279596e+00	 6.343067e+00
4	 3.192894e-01	 2.279130e+00	 6.252467e+00
4	 2.835454e-01	 2.278478e+00	 6.169187e+00
4	 2.478543e-01	 2.277640e+00	 6.093691e+00
4	 2.122223e-01	 2.276618e+00	 6.026430e+00
4	 1.766552e-01	 2.275412e+00	 5.967843e+00
4	 3.669118e-01	 2.346896e+00	 6.540653e+00
4	 3.299323e-01	 2.346363e+00	 6.453307e+00
4	 2.930007e-01	 2.345644e+00	 6.372981e+00
4	 2.561232e-01	 2.344741e+00	 6.300136e+00
4	 2.193060e-01	 2.343654e+00	 6.235222e+00
4	 1.825549e-01	 2.342385e+00	 6.178679e+00
4	 1.530334e-01	 2.007260e+00	 4.931314e+00
4	 1.222762e-01	 2.006172e+00	 4.874933e+00
4	 9.158876e-02	 2.004901e+00	 4.828907e+00
4	 6.097663e-02	 2.003448e+00	 4.793410e+00
4	 3.044525e-02	 2.001814e+00	 4.768600e+00
4	 0.000000e+00	 2.000000e+00	 4.754620e+00
4	 1.589423e-01	 2.074337e+00	 5.220267e+00
4	 1.269992e-01	 2.073167e+00	 5.165587e+00
4	 9.512778e-02	 2.071814e+00	 5.120918e+00
4	 6.333378e-02	 2.070278e+00	 5.086435e+00
4	 3.162270e-02	 2.068562e+00	 5.062294e+00
4	 0.000000e+00	 2.066667e+00	 5.048641e+00
4	 1.648489e-01	 2.141389e+00	 5.489028e+00
4	 1.317206e-01	 2.140141e+00	 5.436022e+00
4	 9.866594e-02	 2.138710e+00	 5.392699e+00
4	 6.569054e-02	 2.137098e+00	 5.359235e+00
4	 3.280005e-02	 2.135305e+00	 5.335792e+00
4	 0.000000e+00	 2.133333e+00	 5.322517e+00
4	 1.707532e-01	 2.208413e+00	 5.738081e+00
4	 1.364406e-01	 2.207093e+00	 5.686746e+00
4	 1.022032e-01	 2.205590e+00	 5.644778e+00
4	 6.804691e-02	 2.203906e+00	 5.612356e+00
4	 3.397729e-02	 2.202042e+00	 5.589649e+00
4	 0.000000e+00	 2.200000e+00	 5.576811e+00
4	 1.766552e-01	 2.275412e+00	 5.967843e+00
4	 1.411591e-01	 2.274024e+00	 5.918201e+00
4	 1.057397e-01	 2.272454e+00	 5.877616e+00
4	 7.040290e-02	 2.270704e+00	 5.846274e+00
4	 3.515445e-02	 2.268774e+00	 5.824350e+00
4	 0.000000e+00	 2.266667e+00	 5.812007e+00
4	 1.825549e-01	 2.342385e+00	 6.178679e+00
4	 1.458760e-01	 2.340934e+00	 6.130772e+00
4	 1.092753e-01	 2.339302e+00	 6.091613e+00
4	 7.275850e-02	 2.337490e+00	 6.061399e+00
4	 3.633150e-02	 2.335501e+00	 6.040314e+00
4	 0.000000e+00	 2.333333e+00	 6.028531e+00
4	 2.138071e+00	 2.138071e+00	 1.117092e+01
4	 2.106577e+00	 2.146433e+00	 1.114587e+01
4	 2.074839e+00	 2.154648e+00	 1.111870e+01
4	 2.042861e+00	 2.162715e+00	 1.108930e+01
4	 2.010647e+00	 2.170631e+00	 1.105762e+01
4	 1.978203e+00	 2.178395e+00	 1.102355e+01
4	 2.209619e+00	 2.209619e+00	 1.111972e+01
4	 2.176944e+00	 2.217888e+00	 1.109529e+01
4	 2.144022e+00	 2.226009e+00	 1.106926e+01
4	 2.110859e+00	 2.233982e+00	 1.104147e+01
4	 2.077459e+00	 2.241804e+00	 1.101176e+01
4	 2.043827e+00	 2.249472e+00	 1.097995e+01
4	 2.281168e+00	 2.281168e+00	 1.107039e+01
4	 2.247304e+00	 2.289337e+00	 1.104791e+01
4	 2.213194e+00	 2.297359e+00	 1.102399e+01
4	 2.178841e+00	 2.305232e+00	 1.099847e+01
4	 2.144250e+00	 2.312953e+00	 1.097113e+01
4	 2.109426e+00	 2.320522e+00	 1.094178e+01
4	 2.352716e+00	 2.352716e+00	 1.102295e+01
4	 2.317659e+00	 2.360780e+00	 1.100322e+01
4	 2.282354e+00	 2.368697e+00	 1.098198e+01
4	 2.246806e+00	 2.376464e+00	 1.095905e+01
4	 2.211019e+00	 2.384081e+00	 1.093425e+01
4	 2.174999e+00	 2.391544e+00	 1.090738e+01
4	 2.424264e+00	 2.424264e+00	 1.097739e+01
4	 2.388007e+00	 2.432217e+00	 1.096078e+01
4	 2.351503e+00	 2.440023e+00	 1.094239e+01
4	 2.314755e+00	 2.447680e+00	 1.092211e+01
4	 2.277768e+00	 2.455185e+00	 1.089977e+01
4	 2.240546e+00	 2.462538e+00	 1.087526e+01
4	 2.495812e+00	 2.495812e+00	 1.093369e+01
4	 2.458350e+00	 2.503648e+00	 1.092016e+01
4	 2.420640e+00	 2.511338e+00	 1.090448e+01
4	 2.382687e+00	 2.518878e+00	 1.088661e+01
4	 2.344495e+00	 2.526267e+00	 1.086648e+01
4	 2.306068e+00	 2.533505e+00	 1.084406e+01
4	 1.978203e+00	 2.178395e+00	 1.102355e+01
4	 1.945531e+00	 2.186005e+00	 1.098670e+01
4	 1.912637e+00	 2.193458e+00	 1.094672e+01
4	 1.879527e+00	 2.200752e+00	 1.090363e+01
4	 1.846203e+00	 2.207887e+00	 1.085744e+01
4	 1.812673e+00	 2.214860e+00	 1.080818e+01
4	 2.043827e+00	 2.249472e+00	 1.097995e+01
4	 2.009967e+00	 2.256987e+00	 1.094564e+01
4	 1.975883e+00	 2.264344e+00	 1.090850e+01
4	 1.941581e+00	 2.271543e+00	 1.086851e+01
4	 1.907066e+00	 2.278582e+00	 1.082566e+01
4	 1.872343e+00	 2.285459e+00	 1.077993e+01
4	 2.109426e+00	 2.320522e+00	 1.094178e+01
4	 2.074373e+00	 2.327936e+00	 1.091005e+01
4	 2.039096e+00	 2.335193e+00	 1.087569e+01
4	 2.003599e+00	 2.342292e+00	 1.083866e+01
4	 1.967889e+00	 2.349230e+00	 1.079892e+01
4	 1.931970e+00	 2.356007e+00	 1.075643e+01
4	 2.174999e+00	 2.391544e+00	 1.090738e+01
4	 2.138749e+00	 2.398853e+00	 1.087817e+01
4	 2.102274e+00	 2.406005e+00	 1.084645e+01
4	 2.065581e+00	 2.412999e+00	 1.081217e+01
4	 2.028672e+00	 2.419833e+00	 1.077528e+01
4	 1.991555e+00	 2.426505e+00	 1.073573e+01
4	 2.240546e+00	 2.462538e+00	 1.087526e+01
4	 2.203095e+00	 2.469737e+00	 1.084840e+01
4	 2.165420e+00	 2.476779e+00	 1.081909e+01
4	 2.127525e+00	 2.483663e+00	 1.078730e+01
4	 2.089416e+00	 2.490388e+00	 1.075297e+01
4	 2.051097e+00	 2.496953e+00	 1.071606e+01
4	 2.306068e+00	 2.533505e+00	 1.084406e+01
4	 2.267412e+00	 2.540588e+00	 1.081929e+01
4	 2.228532e+00	 2.547516e+00	 1.079211e+01
4	 2.189433e+00	 2.554286e+00	 1.076249e+01
4	 2.150119e+00	 2.560898e+00	 1.073041e+01
4	 2.110597e+00	 2.567350e+00	 1.069583e+01
4	 1.812673e+00	 2.214860e+00	 1.080818e+01
4	 1.778939e+00	 2.221669e+00	 1.075541e+01
4	 1.745009e+00	 2.228312e+00	 1.069876e+01
4	 1.710886e+00	 2.234789e+00	 1.063836e+01
4	 1.676576e+00	 2.241096e+00	 1.057433e+01
4	 1.642085e+00	 2.247233e+00	 1.050681e+01
4	 1.872343e+00	 2.285459e+00	 1.077993e+01
4	 1.837416e+00	 2.292172e+00	 1.073090e+01
4	 1.802290e+00	 2.298719e+00	 1.067821e+01
4	 1.766972e+00	 2.305100e+00	 1.062198e+01
4	 1.731467e+00	 2.311312e+00	 1.056230e+01
4	 1.695779e+00	 2.317354e+00	 1.049929e+01
4	 1.931970e+00	 2.356007e+00	 1.075643e+01
4	 1.895847e+00	 2.362620e+00	 1.071080e+01
4	 1.859525e+00	 2.369068e+00	 1.066172e+01
4	 1.823010e+00	 2.375349e+00	 1.060926e+01
4	 1.786307e+00	 2.381462e+00	 1.055352e+01
4	 1.749421e+00	 2.387406e+00	 1.049459e+01
4	 1.991555e+00	 2.426505e+00	 1.073573e+01
4	 1.954233e+00	 2.433014e+00	 1.069318e+01
4	 1.916712e+00	 2.439359e+00	 1.064734e+01
4	 1.878998e+00	 2.445537e+00	 1.059830e+01
4	 1.841096e+00	 2.451548e+00	 1.054613e+01
4	 1.803011e+00	 2.457390e+00	 1.049090e+01
4	 2.051097e+00	 2.496953e+00	 1.071606e+01
4	 2.012574e+00	 2.503354e+00	 1.067627e+01
4	 1.973852e+00	 2.509592e+00	 1.063337e+01
4	 1.934937e+00	 2.515664e+00	 1.058741e+01
4	 1.895835e+00	 2.521570e+00	 1.053845e+01
4	 1.856550e+00	 2.527307e+00	 1.048657e+01
4	 2.110597e+00	 2.567350e+00	 1.069583e+01
4	 2.070870e+00	 2.573640e+00	 1.065851e+01
4	 2.030945e+00	 2.579767e+00	 1.061822e+01
4	 1.990828e+00	 2.585730e+00	 1.057503e+01
4	 1.950523e+00	 2.591526e+00	 1.052898e+01
4	 1.910036e+00	 2.597156e+00	 1.048014e+01
4	 1.642085e+00	 2.247233e+00	 1.050681e+01
4	 1.607418e+00	 2.253199e+00	 1.043534e+01
4	 1.572580e+00	 2.258991e+00	 1.035951e+01
4	 1.537578e+00	 2.264608e+00	 1.027957e+01
4	 1.502416e+00	 2.270050e+00	 1.019579e+01
4	 1.467101e+00	 2.275314e+00	 1.010844e+01
4	 1.695779e+00	 2.317354e+00	 1.049929e+01
4	 1.659915e+00	 2.323224e+00	 1.043250e+01
4	 1.623880e+00	 2.328921e+00	 1.036153e+01
4	 1.587679e+00	 2.334444e+00	 1.028664e+01
4	 1.551320e+00	 2.339792e+00	 1.020804e+01
4	 1.514806e+00	 2.344963e+00	 1.012600e+01
4	 1.749421e+00	 2.387406e+00	 1.049459e+01
4	 1.712359e+00	 2.393178e+00	 1.043205e+01
4	 1.675126e+00	 2.398778e+00	 1.036551e+01
4	 1.637727e+00	 2.404205e+00	 1.029519e+01
4	 1.600168e+00	 2.409456e+00	 1.022132e+01
4	 1.562456e+00	 2.414531e+00	 1.014413e+01
4	 1.803011e+00	 2.457390e+00	 1.049090e+01
4	 1.764750e+00	 2.463062e+00	 1.043220e+01
4	 1.726317e+00	 2.468562e+00	 1.036969e+01
4	 1.687720e+00	 2.473889e+00	 1.030355e+01
4	 1.648962e+00	 2.479042e+00	 1.023400e+01
4	 1.610051e+00	 2.484019e+00	 1.016125e+01
4	 1.856550e+00	 2.527307e+00	 1.048657e+01
4	 1.817088e+00	 2.532875e+00	 1.043137e+01
4	 1.777456e+00	 2.538272e+00	 1.037253e+01
4	 1.737658e+00	 2.543497e+00	 1.031021e+01
4	 1.697701e+00	 2.548550e+00	 1.024462e+01
4	 1.657591e+00	 2.553428e+00	 1.017594e+01
4	 1.910036e+00	 2.597156e+00	 1.048014e+01
4	 1.869373e+00	 2.602617e+00	 1.042812e+01
4	 1.828540e+00	 2.607909e+00	 1.037262e+01
4	 1.787542e+00	 2.613030e+00	 1.031380e+01
4	 1.746386e+00	 2.617980e+00	 1.025185e+01
4	 1.705077e+00	 2.622756e+00	 1.018692e+01
4	 1.467101e+00	 2.275314e+00	 1.010844e+01
4	 1.431639e+00	 2.280399e+00	 1.001703e+01
4	 1.396035e+00	 2.285305e+00	 9.921159e+00
4	 1.360295e+00	 2.290030e+00	 9.821223e+00
4	 1.324425e+00	 2.294573e+00	 9.717638e+00
4	 1.288432e+00	 2.298933e+00	 9.610827e+00
4	 1.514806e+00	 2.344963e+00	 1.012600e+01
4	 1.478145e+00	 2.349955e+00	 1.004004e+01
4	 1.441342e+00	 2.354769e+00	 9.949760e+00
4	 1.404403e+00	 2.359402e+00	 9.855548e+00
4	 1.367334e+00	 2.363854e+00	 9.757791e+00
4	 1.330141e+00	 2.368124e+00	 9.656890e+00
4	 1.562456e+00	 2.414531e+00	 1.014413e+01
4	 1.524596e+00	 2.419429e+00	 1.006315e+01
4	 1.486594e+00	 2.424149e+00	 9.978003e+00
4	 1.448456e+00	 2.428689e+00	 9.889046e+00
4	 1.410189e+00	 2.433049e+00	 9.796648e+00
4	 1.371798e+00	 2.437227e+00	 9.701189e+00
4	 1.610051e+00	 2.484019e+00	 1.016125e+01
4	 1.570992e+00	 2.488821e+00	 1.008484e+01
4	 1.531792e+00	 2.493445e+00	 1.000441e+01
4	 1.492456e+00	 2.497891e+00	 9.920294e+00
4	 1.452990e+00	 2.502157e+00	 9.832842e+00
4	 1.413402e+00	 2.506243e+00	 9.742412e+00
4	 1.657591e+00	 2.553428e+00	 1.017594e+01
4	 1.617334e+00	 2.558131e+00	 1.010374e+01
4	 1.576935e+00	 2.562658e+00	 1.002766e+01
4	 1.536401e+00	 2.567008e+00	 9.948017e+00
4	 1.495739e+00	 2.571180e+00	 9.865146e+00
4	 1.454953e+00	 2.575173e+00	 9.779380e+00
4	 1.705077e+00	 2.622756e+00	 1.018692e+01
4	 1.663621e+00	 2.627359e+00	 1.011861e+01
4	 1.622024e+00	 2.631787e+00	 1.004656e+01
4	 1.580293e+00	 2.636040e+00	 9.971071e+00
4	 1.538434e+00	 2.640116e+00	 9.892460e+00
4	 1.496452e+00	 2.644015e+00	 9.811040e+00
4	 1.288432e+00	 2.298933e+00	 9.610827e+00
4	 1.252322e+00	 2.303109e+00	 9.500351e+00
4	 1.216100e+00	 2.307101e+00	 9.385851e+00
4	 1.179773e+00	 2.310907e+00	 9.267888e+00
4	 1.143348e+00	 2.314526e+00	 9.147033e+00
4	 1.106830e+00	 2.317959e+00	 9.023868e+00
4	 1.330141e+00	 2.368124e+00	 9.656890e+00
4	 1.292832e+00	 2.372210e+00	 9.552411e+00
4	 1.255410e+00	 2.376113e+00	 9.444000e+00
4	 1.217884e+00	 2.379831e+00	 9.332194e+00
4	 1.180260e+00	 2.383364e+00	 9.217541e+00
4	 1.142542e+00	 2.386711e+00	 9.100596e+00
4	 1.371798e+00	 2.437227e+00	 9.701189e+00
4	 1.333290e+00	 2.441224e+00	 9.602240e+00
4	 1.294670e+00	 2.445037e+00	 9.499454e+00
4	 1.255946e+00	 2.448667e+00	 9.393343e+00
4	 1.217123e+00	 2.452113e+00	 9.284432e+00
4	 1.178209e+00	 2.455373e+00	 9.173253e+00
4	 1.413402e+00	 2.506243e+00	 9.742412e+00
4	 1.373696e+00	 2.510149e+00	 9.648581e+00
4	 1.333879e+00	 2.513873e+00	 9.551009e+00
4	 1.293958e+00	 2.517414e+00	 9.450186e+00
4	 1.253939e+00	 2.520772e+00	 9.346615e+00
4	 1.213829e+00	 2.523947e+00	 9.240804e+00
4	 1.454953e+00	 2.575173e+00	 9.779380e+00
4	 1.414051e+00	 2.578986e+00	 9.690306e+00
4	 1.373038e+00	 2.582619e+00	 9.597588e+00
4	 1.331922e+00	 2.586072e+00	 9.501698e+00
4	 1.290708e+00	 2.589342e+00	 9.403113e+00
4	 1.249403e+00	 2.592431e+00	 9.302322e+00
4	 1.496452e+00	 2.644015e+00	 9.811040e+00
4	 1.454354e+00	 2.647736e+00	 9.726405e+00
4	 1.412147e+00	 2.651278e+00	 9.638227e+00
4	 1.369836e+00	 2.654641e+00	 9.546957e+00
4	 1.327428e+00	 2.657824e+00	 9.453053e+00
4	 1.284930e+00	 2.660826e+00	 9.356980e+00
4	 1.106830e+00	 2.317959e+00	 9.023868e+00
4	 1.070225e+00	 2.321204e+00	 8.898079e+00
4	 1.033541e+00	 2.324261e+00	 8.769421e+00
4	 9.967839e-01	 2.327130e+00	 8.638593e+00
4	 9.599594e-01	 2.329809e+00	 8.506305e+00
4	 9.230743e-01	 2.332300e+00	 8.373272e+00
4	 1.142542e+00	 2.386711e+00	 9.100596e+00
4	 1.104739e+00	 2.389871e+00	 8.981043e+00
4	 1.066857e+00	 2.392844e+00	 8.858637e+00
4	 1.028901e+00	 2.395629e+00	 8.734051e+00
4	 9.908784e-01	 2.398227e+00	 8.607971e+00
4	 9.527956e-01	 2.400636e+00	 8.481088e+00
4	 1.178209e+00	 2.455373e+00	 9.173253e+00
4	 1.139209e+00	 2.458449e+00	 9.059489e+00
4	 1.100129e+00	 2.461338e+00	 8.942892e+00
4	 1.060977e+00	 2.464041e+00	 8.824115e+00
4	 1.021758e+00	 2.466557e+00	 8.703819e+00
4	 9.824794e-01	 2.468886e+00	 8.582669e+00
4	 1.213829e+00	 2.523947e+00	 9.240804e+00
4	 1.173633e+00	 2.526937e+00	 9.132435e+00
4	 1.133358e+00	 2.529743e+00	 9.021263e+00
4	 1.093011e+00	 2.532364e+00	 8.907917e+00
4	 1.052598e+00	 2.534799e+00	 8.793034e+00
4	 1.012126e+00	 2.537049e+00	 8.677259e+00
4	 1.249403e+00	 2.592431e+00	 9.302322e+00
4	 1.208013e+00	 2.595337e+00	 9.199008e+00
4	 1.166544e+00	 2.598060e+00	 9.092925e+00
4	 1.125004e+00	 2.600599e+00	 8.984683e+00
4	 1.083399e+00	 2.602955e+00	 8.874895e+00
4	 1.041735e+00	 2.605127e+00	 8.764183e+00
4	 1.284930e+00	 2.660826e+00	 9.356980e+00
4	 1.242348e+00	 2.663648e+00	 9.258424e+00
4	 1.199688e+00	 2.666289e+00	 9.157142e+00
4	 1.156956e+00	 2.668747e+00	 9.053720e+00
4	 1.114160e+00	 2.671024e+00	 8.948753e+00
4	 1.071306e+00	 2.673119e+00	 8.842839e+00
4	 9.230743e-01	 2.332300e+00	 8.373272e+00
4	 8.861351e-01	 2.334600e+00	 8.239378e+00
4	 8.491481e-01	 2.336711e+00	 8.104544e+00
4	 8.121199e-01	 2.338632e+00	 7.969551e+00
4	 7.750570e-01	 2.340363e+00	 7.835190e+00
4	 7.379658e-01	 2.341903e+00	 7.702252e+00
4	 9.527956e-01	 2.400636e+00	 8.481088e+00
4	 9.146591e-01	 2.402856e+00	 8.353274e+00
4	 8.764753e-01	 2.404888e+00	 8.224442e+00
4	 8.382508e-01	 2.406731e+00	 8.095354e+00
4	 7.999919e-01	 2.408385e+00	 7.966778e+00
4	 7.617053e-01	 2.409850e+00	 7.839484e+00
4	 9.824794e-01	 2.468886e+00	 8.582669e+00
4	 9.431476e-01	 2.471027e+00	 8.460531e+00
4	 9.037690e-01	 2.472981e+00	 8.337311e+00
4	 8.643501e-01	 2.474748e+00	 8.213751e+00
4	 8.248974e-01	 2.476327e+00	 8.090597e+00
4	 7.854175e-01	 2.477718e+00	 7.968598e+00
4	 1.012126e+00	 2.537049e+00	 8.677259e+00
4	 9.716006e-01	 2.539113e+00	 8.560448e+00
4	 9.310292e-01	 2.540991e+00	 8.442503e+00
4	 8.904180e-01	 2.542683e+00	 8.324146e+00
4	 8.497735e-01	 2.544189e+00	 8.206102e+00
4	 8.091024e-01	 2.545508e+00	 8.089099e+00
4	 1.041735e+00	 2.605127e+00	 8.764183e+00
4	 1.000018e+00	 2.607115e+00	 8.652399e+00
4	 9.582559e-01	 2.608918e+00	 8.539441e+00
4	 9.164544e-01	 2.610536e+00	 8.426009e+00
4	 8.746203e-01	 2.611971e+00	 8.312809e+00
4	 8.327601e-01	 2.613220e+00	 8.200548e+00
4	 1.071306e+00	 2.673119e+00	 8.842839e+00
4	 1.028400e+00	 2.675031e+00	 8.735825e+00
4	 9.854493e-01	 2.676761e+00	 8.627608e+00
4	 9.424596e-01	 2.678308e+00	 8.518867e+00
4	 8.994378e-01	 2.679673e+00	 8.410286e+00
4	 8.563905e-01	 2.680854e+00	 8.302555e+00
4	 7.379658e-01	 2.341903e+00	 7.702252e+00
4	 7.008527e-01	 2.343254e+00	 7.570845e+00
4	 6.637242e-01	 2.344414e+00	 7.441068e+00
4	 6.265868e-01	 2.345385e+00	 7.313696e+00
4	 5.894469e-01	 2.346166e+00	 7.189510e+00
4	 5.523108e-01	 2.346758e+00	 7.069287e+00
4	 7.617053e-01	 2.409850e+00	 7.839484e+00
4	 7.233974e-01	 2.411126e+00	 7.713566e+00
4	 6.850748e-01	 2.412213e+00	 7.589108e+00
4	 6.467438e-01	 2.413111e+00	 7.466873e+00
4	 6.084110e-01	 2.413821e+00	 7.347625e+00
4	 5.700828e-01	 2.414343e+00	 7.232125e+00
4	 7.854175e-01	 2.477718e+00	 7.968598e+00
4	 7.459169e-01	 2.478922e+00	 7.847834e+00
4	 7.064021e-01	 2.479938e+00	 7.728380e+00
4	 6.668797e-01	 2.480766e+00	 7.610983e+00
4	 6.273560e-01	 2.481408e+00	 7.496390e+00
4	 5.878376e-01	 2.481863e+00	 7.385348e+00
4	 8.091024e-01	 2.545508e+00	 8.089099e+00
4	 7.684112e-01	 2.546641e+00	 7.973205e+00
4	 7.277063e-01	 2.547589e+00	 7.858487e+00
4	 6.869944e-01	 2.548350e+00	 7.745674e+00
4	 6.462818e-01	 2.548926e+00	 7.635498e+00
4	 6.055751e-01	 2.549317e+00	 7.528691e+00
4	 8.327601e-01	 2.613220e+00	 8.200548e+00
4	 7.908802e-01	 2.614285e+00	 8.089284e+00
4	 7.489873e-01	 2.615166e+00	 7.979074e+00
4	 7.070879e-01	 2.615863e+00	 7.870634e+00
4	 6.651885e-01	 2.616376e+00	 7.764677e+00
4	 6.232955e-01	 2.616706e+00	 7.661918e+00
4	 8.563905e-01	 2.680854e+00	 8.302555e+00
4	 8.133241e-01	 2.681854e+00	 8.195719e+00
4	 7.702452e-01	 2.682671e+00	 8.089829e+00
4	 7.271604e-01	 2.683306e+00	 7.985584e+00
4	 6.840761e-01	 2.683758e+00	 7.883682e+00
4	 6.409988e-01	 2.684030e+00	 7.784819e+00
4	 5.523108e-01	 2.346758e+00	 7.069287e+00
4	 5.151851e-01	 2.347162e+00	 6.953309e+00
4	 4.780760e-01	 2.347376e+00	 6.841788e+00
4	 4.409899e-01	 2.347403e+00	 6.735396e+00
4	 4.039331e-01	 2.347243e+00	 6.634798e+00
4	 3.669118e-01	 2.346896e+00	 6.540653e+00
4	 5.700828e-01	 2.414343e+00	 7.232125e+00
4	 5.317657e-01	 2.414678e+00	 7.120639e+00
4	 4.934659e-01	 2.414825e+00	 7.013369e+00
4	 4.551900e-01	 2.414785e+00	 6.910976e+00
4	 4.169442e-01	 2.414559e+00	 6.814118e+00
4	 3.787348e-01	 2.414148e+00	 6.723444e+00
4	 5.878376e-01	 2.481863e+00	 7.385348e+00
4	 5.483309e-01	 2.482132e+00	 7.278108e+00
4	 5.088424e-01	 2.482214e+00	 7.174860e+00
4	 4.693784e-01	 2.482111e+00	 7.076257e+00
4	 4.299453e-01	 2.481824e+00	 6.982946e+00
4	 3.905494e-01	 2.481352e+00	 6.895568e+00
4	 6.055751e-01	 2.549317e+00	 7.528691e+00
4	 5.648808e-01	 2.549523e+00	 7.425489e+00
4	 5.242053e-01	 2.549545e+00	 7.326073e+00
4	 4.835550e-01	 2.549382e+00	 7.231086e+00
4	 4.429363e-01	 2.549036e+00	 7.141163e+00
4	 4.023556e-01	 2.548507e+00	 7.056937e+00
4	 6.232955e-01	 2.616706e+00	 7.661918e+00
4	 5.814155e-01	 2.616852e+00	 7.562582e+00
4	 5.395549e-01	 2.616816e+00	 7.466842e+00
4	 4.977200e-01	 2.616597e+00	 7.375328e+00
4	 4.559174e-01	 2.616197e+00	 7.288664e+00
4	 4.141533e-01	 2.615615e+00	 7.207473e+00
4	 6.409988e-01	 2.684030e+00	 7.784819e+00
4	 5.979349e-01	 2.684120e+00	 7.689211e+00
4	 5.548910e-01	 2.684029e+00	 7.597019e+00
4	 5.118734e-01	 2.683757e+00	 7.508863e+00
4	 4.688884e-01	 2.683306e+00	 7.425355e+00
4	 4.259426e-01	 2.682675e+00	 7.347106e+00
4	 3.669118e-01	 2.346896e+00	 6.540653e+00
4	 3.299323e-01	 2.346363e+00	 6.453307e+00
4	 2.930007e-01	 2.345644e+00	 6.372981e+00
4	 2.561232e-01	 2.344741e+00	 6.300136e+00
4	 2.193060e-01	 2.343654e+00	 6.235222e+00
4	 1.825549e-01	 2.342385e+00	 6.178679e+00
4	 3.787348e-01	 2.414148e+00	 6.723444e+00
4	 3.405682e-01	 2.413551e+00	 6.639289e+00
4	 3.024504e-01	 2.412770e+00	 6.561865e+00
4	 2.643878e-01	 2.411806e+00	 6.491629e+00
4	 2.263864e-01	 2.410660e+00	 6.429029e+00
4	 1.884523e-01	 2.409331e+00	 6.374503e+00
4	 3.905494e-01	 2.481352e+00	 6.895568e+00
4	 3.511971e-01	 2.480696e+00	 6.814446e+00
4	 3.118945e-01	 2.479857e+00	 6.739783e+00
4	 2.726479e-01	 2.478836e+00	 6.672032e+00
4	 2.334635e-01	 2.477634e+00	 6.611638e+00
4	 1.943473e-01	 2.476252e+00	 6.559036e+00
4	 4.023556e-01	 2.548507e+00	 7.056937e+00
4	 3.618190e-01	 2.547796e+00	 6.978718e+00
4	 3.213330e-01	 2.546904e+00	 6.906702e+00
4	 2.809038e-01	 2.545831e+00	 6.841337e+00
4	 2.405374e-01	 2.544578e+00	 6.783062e+00
4	 2.002401e-01	 2.543146e+00	 6.732310e+00
4	 4.141533e-01	 2.615615e+00	 7.207473e+00
4	 3.724340e-01	 2.614853e+00	 7.132053e+00
4	 3.307659e-01	 2.613911e+00	 7.062593e+00
4	 2.891552e-01	 2.612790e+00	 6.999535e+00
4	 2.476080e-01	 2.611491e+00	 6.943314e+00
4	 2.061306e-01	 2.610014e+00	 6.894355e+00
4	 4.259426e-01	 2.682675e+00	 7.347106e+00
4	 3.830421e-01	 2.681866e+00	 7.274405e+00
4	 3.401933e-01	 2.680879e+00	 7.207431e+00
4	 2.974023e-01	 2.679714e+00	 7.146621e+00
4	 2.546754e-01	 2.678373e+00	 7.092403e+00
4	 2.120187e-01	 2.676856e+00	 7.045197e+00
4	 1.825549e-01	 2.342385e+00	 6.178679e+00
4	 1.458760e-01	 2.340934e+00	 6.130772e+00
4	 1.092753e-01	 2.339302e+00	 6.091613e+00
4	 7.275850e-02	 2.337490e+00	 6.061399e+00
4	 3.633150e-02	 2.335501e+00	 6.040314e+00
4	 0.000000e+00	 2.333333e+00	 6.028531e+00
4	 1.884523e-01	 2.409331e+00	 6.374503e+00
4	 1.505915e-01	 2.407822e+00	 6.328311e+00
4	 1.128100e-01	 2.406133e+00	 6.290566e+00
4	 7.511371e-02	 2.404266e+00	 6.261472e+00
4	 3.750845e-02	 2.402221e+00	 6.241221e+00
4	 0.000000e+00	 2.400000e+00	 6.229995e+00
4	 1.943473e-01	 2.476252e+00	 6.559036e+00
4	 1.553055e-01	 2.474690e+00	 6.514479e+00
4	 1.163439e-01	 2.472949e+00	 6.478079e+00
4	 7.746854e-02	 2.471031e+00	 6.450044e+00
4	 3.868531e-02	 2.468936e+00	 6.430570e+00
4	 0.000000e+00	 2.466667e+00	 6.419841e+00
4	 2.002401e-01	 2.543146e+00	 6.732310e+00
4	 1.600179e-01	 2.541536e+00	 6.689326e+00
4	 1.198769e-01	 2.539748e+00	 6.654221e+00
4	 7.982298e-02	 2.537785e+00	 6.627199e+00
4	 3.986207e-02	 2.535646e+00	 6.608456e+00
4	 0.000000e+00	 2.533333e+00	 6.598179e+00
4	 2.061306e-01	 2.610014e+00	 6.894355e+00
4	 1.647289e-01	 2.608360e+00	 6.852900e+00
4	 1.234091e-01	 2.606531e+00	 6.819050e+00
4	 8.217704e-02	 2.604527e+00	 6.793008e+00
4	 4.103873e-02	 2.602350e+00	 6.774965e+00
4	 0.000000e+00	 2.600000e+00	 6.765105e+00
4	 2.120187e-01	 2.676856e+00	 7.045197e+00
4	 1.694384e-01	 2.675164e+00	 7.005239e+00
4	 1.269404e-01	 2.673298e+00	 6.972620e+00
4	 8.453071e-02	 2.671259e+00	 6.947537e+00
4	 4.221529e-02	 2.669048e+00	 6.930173e+00
4	 0.000000e+00	 2.666667e+00	 6.920706e+00
4	 2.495812e+00	 2.495812e+00	 1.093369e+01
4	 2.458350e+00	 2.503648e+00	 1.092016e+01
4	 2.420640e+00	 2.511338e+00	 1.090448e+01
4	 2.382687e+00	 2.518878e+00	 1.088661e+01
4	 2.344495e+00	 2.526267e+00	 1.086648e+01
4	 2.306068e+00	 2.533505e+00	 1.084406e+01
4	 2.567361e+00	 2.567361e+00	 1.089431e+01
4	 2.528687e+00	 2.575074e+00	 1.088304e+01
4	 2.489767e+00	 2.582640e+00	 1.086937e+01
4	 2.450603e+00	 2.590059e+00	 1.085334e+01
4	 2.411200e+00	 2.597327e+00	 1.083498e+01
4	 2.371564e+00	 2.604443e+00	 1.081433e+01
4	 2.638909e+00	 2.638909e+00	 1.086037e+01
4	 2.599019e+00	 2.646493e+00	 1.085024e+01
4	 2.558882e+00	 2.653932e+00	 1.083774e+01
4	 2.518502e+00	 2.661222e+00	 1.082296e+01
4	 2.477885e+00	 2.668364e+00	 1.080596e+01
4	 2.437035e+00	 2.675355e+00	 1.078683e+01
4	 2.710457e+00	 2.710457e+00	 1.082998e+01
4	 2.669344e+00	 2.717907e+00	 1.082021e+01
4	 2.627985e+00	 2.725211e+00	 1.080833e+01
4	 2.586385e+00	 2.732369e+00	 1.079441e+01
4	 2.544549e+00	 2.739378e+00	 1.077851e+01
4	 2.502481e+00	 2.746238e+00	 1.076072e+01
4	 2.782005e+00	 2.782005e+00	 1.080139e+01
4	 2.739663e+00	 2.789314e+00	 1.079154e+01
4	 2.697077e+00	 2.796479e+00	 1.077998e+01
4	 2.654252e+00	 2.803498e+00	 1.076671e+01
4	 2.611191e+00	 2.810370e+00	 1.075178e+01
4	 2.567900e+00	 2.817094e+00	 1.073521e+01
4	 2.853553e+00	 2.853553e+00	 1.077303e+01
4	 2.809977e+00	 2.860716e+00	 1.076295e+01
4	 2.766158e+00	 2.867735e+00	 1.075161e+01
4	 2.722102e+00	 2.874610e+00	 1.073897e+01
4	 2.677812e+00	 2.881339e+00	 1.072498e+01
4	 2.633294e+00	 2.887922e+00	 1.070958e+01
4	 2.306068e+00	 2.533505e+00	 1.084406e+01
4	 2.267412e+00	 2.540588e+00	 1.081929e+01
4	 2.228532e+00	 2.547516e+00	 1.079211e+01
4	 2.189433e+00	 2.554286e+00	 1.076249e+01
4	 2.150119e+00	 2.560898e+00	 1.073041e+01
4	 2.110597e+00	 2.567350e+00	 1.069583e+01
4	 2.371564e+00	 2.604443e+00	 1.081433e+01
4	 2.331700e+00	 2.611407e+00	 1.079138e+01
4	 2.291611e+00	 2.618215e+00	 1.076608e+01
4	 2.251304e+00	 2.624868e+00	 1.073841e+01
4	 2.210783e+00	 2.631362e+00	 1.070837e+01
4	 2.170054e+00	 2.637697e+00	 1.067594e+01
4	 2.437035e+00	 2.675355e+00	 1.078683e+01
4	 2.395957e+00	 2.682193e+00	 1.076553e+01
4	 2.354657e+00	 2.688878e+00	 1.074197e+01
4	 2.313138e+00	 2.695407e+00	 1.071614e+01
4	 2.271407e+00	 2.701780e+00	 1.068803e+01
4	 2.229469e+00	 2.707994e+00	 1.065765e+01
4	 2.502481e+00	 2.746238e+00	 1.076072e+01
4	 2.460186e+00	 2.752947e+00	 1.074093e+01
4	 2.417669e+00	 2.759503e+00	 1.071898e+01
4	 2.374936e+00	 2.765905e+00	 1.069487e+01
4	 2.331992e+00	 2.772151e+00	 1.066860e+01
4	 2.288841e+00	 2.778241e+00	 1.064018e+01
4	 2.567900e+00	 2.817094e+00	 1.073521e+01
4	 2.524384e+00	 2.823668e+00	 1.071682e+01
4	 2.480648e+00	 2.830090e+00	 1.069638e+01
4	 2.436697e+00	 2.836360e+00	 1.067389e+01
4	 2.392537e+00	 2.842477e+00	 1.064935e+01
4	 2.348171e+00	 2.848438e+00	 1.062277e+01
4	 2.633294e+00	 2.887922e+00	 1.070958e+01
4	 2.588554e+00	 2.894356e+00	 1.069250e+01
4	 2.543594e+00	 2.900641e+00	 1.067349e+01
4	 2.498422e+00	 2.906775e+00	 1.065253e+01
4	 2.453042e+00	 2.912756e+00	 1.062961e+01
4	 2.407459e+00	 2.918585e+00	 1.060474e+01
4	 2.110597e+00	 2.567350e+00	 1.069583e+01
4	 2.070870e+00	 2.573640e+00	 1.065851e+01
4	 2.030945e+00	 2.579767e+00	 1.061822e+01
4	 1.990828e+00	 2.585730e+00	 1.057503e+01
4	 1.950523e+00	 2.591526e+00	 1.052898e+01
4	 1.910036e+00	 2.597156e+00	 1.048014e+01
4	 2.170054e+00	 2.637697e+00	 1.067594e+01
4	 2.129122e+00	 2.643872e+00	 1.064088e+01
4	 2.087992e+00	 2.649884e+00	 1.060302e+01
4	 2.046669e+00	 2.655734e+00	 1.056238e+01
4	 2.005161e+00	 2.661418e+00	 1.051902e+01
4	 1.963471e+00	 2.666937e+00	 1.047298e+01
4	 2.229469e+00	 2.707994e+00	 1.065765e+01
4	 2.187328e+00	 2.714049e+00	 1.062478e+01
4	 2.144991e+00	 2.719944e+00	 1.058922e+01
4	 2.102462e+00	 2.725677e+00	 1.055101e+01
4	 2.059748e+00	 2.731246e+00	 1.051018e+01
4	 2.016854e+00	 2.736651e+00	 1.046678e+01
4	 2.288841e+00	 2.778241e+00	 1.064018e+01
4	 2.245490e+00	 2.784173e+00	 1.060937e+01
4	 2.201943e+00	 2.789946e+00	 1.057599e+01
4	 2.158206e+00	 2.795559e+00	 1.054005e+01
4	 2.114285e+00	 2.801010e+00	 1.050159e+01
4	 2.070185e+00	 2.806298e+00	 1.046066e+01
4	 2.348171e+00	 2.848438e+00	 1.062277e+01
4	 2.303607e+00	 2.854243e+00	 1.059390e+01
4	 2.258848e+00	 2.859890e+00	 1.056254e+01
4	 2.213902e+00	 2.865379e+00	 1.052872e+01
4	 2.168772e+00	 2.870709e+00	 1.049247e+01
4	 2.123465e+00	 2.875877e+00	 1.045383e+01
4	 2.407459e+00	 2.918585e+00	 1.060474e+01
4	 2.361679e+00	 2.924259e+00	 1.057767e+01
4	 2.315707e+00	 2.929777e+00	 1.054818e+01
4	 2.269549e+00	 2.935139e+00	 1.051631e+01
4	 2.223209e+00	 2.940344e+00	 1.048209e+01
4	 2.176694e+00	 2.945390e+00	 1.044556e+01
4	 1.910036e+00	 2.597156e+00	 1.048014e+01
4	 1.869373e+00	 2.602617e+00	 1.042812e+01
4	 1.828540e+00	 2.607909e+00	 1.037262e+01
4	 1.787542e+00	 2.613030e+00	 1.031380e+01
4	 1.746386e+00	 2.617980e+00	 1.025185e+01
4	 1.705077e+00	 2.622756e+00	 1.018692e+01
4	 1.963471e+00	 2.666937e+00	 1.047298e+01
4	 1.921606e+00	 2.672289e+00	 1.042390e+01
4	 1.879571e+00	 2.677473e+00	 1.037151e+01
4	 1.837372e+00	 2.682488e+00	 1.031594e+01
4	 1.795016e+00	 2.687332e+00	 1.025736e+01
4	 1.752508e+00	 2.692005e+00	 1.019592e+01
4	 2.016854e+00	 2.736651e+00	 1.046678e+01
4	 1.973785e+00	 2.741891e+00	 1.042047e+01
4	 1.930548e+00	 2.746964e+00	 1.037098e+01
4	 1.887148e+00	 2.751870e+00	 1.031844e+01
4	 1.843592e+00	 2.756607e+00	 1.026300e+01
4	 1.799884e+00	 2.761174e+00	 1.020481e+01
4	 2.070185e+00	 2.806298e+00	 1.046066e+01
4	 2.025913e+00	 2.811423e+00	 1.041693e+01
4	 1.981472e+00	 2.816383e+00	 1.037015e+01
4	 1.936871e+00	 2.821177e+00	 1.032043e+01
4	 1.892113e+00	 2.825804e+00	 1.026792e+01
4	 1.847206e+00	 2.830264e+00	 1.021274e+01
4	 2.123465e+00	 2.875877e+00	 1.045383e+01
4	 2.077987e+00	 2.880884e+00	 1.041250e+01
4	 2.032343e+00	 2.885728e+00	 1.036822e+01
4	 1.986539e+00	 2.890409e+00	 1.032112e+01
4	 1.940580e+00	 2.894924e+00	 1.027131e+01
4	 1.894474e+00	 2.899275e+00	 1.021893e+01
4	 2.176694e+00	 2.945390e+00	 1.044556e+01
4	 2.130009e+00	 2.950276e+00	 1.040644e+01
4	 2.083160e+00	 2.955001e+00	 1.036447e+01
4	 2.036153e+00	 2.959565e+00	 1.031978e+01
4	 1.988994e+00	 2.963967e+00	 1.027247e+01
4	 1.941687e+00	 2.968206e+00	 1.022268e+01
4	 1.705077e+00	 2.622756e+00	 1.018692e+01
4	 1.663621e+00	 2.627359e+00	 1.011861e+01
4	 1.622024e+00	 2.631787e+00	 1.004656e+01
4	 1.580293e+00	 2.636040e+00	 9.971071e+00
4	 1.538434e+00	 2.640116e+00	 9.892460e+00
4	 1.496452e+00	 2.644015e+00	 9.811040e+00
4	 1.752508e+00	 2.692005e+00	 1.019592e+01
4	 1.709853e+00	 2.696506e+00	 1.013121e+01
4	 1.667059e+00	 2.700834e+00	 1.006291e+01
4	 1.624131e+00	 2.704988e+00	 9.991290e+00
4	 1.581075e+00	 2.708967e+00	 9.916649e+00
4	 1.537898e+00	 2.712770e+00	 9.839283e+00
4	 1.799884e+00	 2.761174e+00	 1.020481e+01
4	 1.756031e+00	 2.765572e+00	 1.014346e+01
4	 1.712040e+00	 2.769797e+00	 1.007865e+01
4	 1.667915e+00	 2.773851e+00	 1.001063e+01
4	 1.623664e+00	 2.777732e+00	 9.939688e+00
4	 1.579293e+00	 2.781439e+00	 9.866099e+00
4	 1.847206e+00	 2.830264e+00	 1.021274e+01
4	 1.802155e+00	 2.834556e+00	 1.015452e+01
4	 1.756967e+00	 2.838678e+00	 1.009295e+01
4	 1.711646e+00	 2.842630e+00	 1.002829e+01
4	 1.666200e+00	 2.846412e+00	 9.960786e+00
4	 1.620635e+00	 2.850022e+00	 9.890716e+00
4	 1.894474e+00	 2.899275e+00	 1.021893e+01
4	 1.848225e+00	 2.903459e+00	 1.016361e+01
4	 1.801839e+00	 2.907476e+00	 1.010506e+01
4	 1.755324e+00	 2.911325e+00	 1.004352e+01
4	 1.708684e+00	 2.915006e+00	 9.979223e+00
4	 1.661926e+00	 2.918518e+00	 9.912436e+00
4	 1.941687e+00	 2.968206e+00	 1.022268e+01
4	 1.894240e+00	 2.972281e+00	 1.017005e+01
4	 1.846658e+00	 2.976192e+00	 1.011430e+01
4	 1.798948e+00	 2.979937e+00	 1.005565e+01
4	 1.751114e+00	 2.983516e+00	 9.994346e+00
4	 1.703164e+00	 2.986929e+00	 9.930623e+00
4	 1.496452e+00	 2.644015e+00	 9.811040e+00
4	 1.454354e+00	 2.647736e+00	 9.726405e+00
4	 1.412147e+00	 2.651278e+00	 9.638227e+00
4	 1.369836e+00	 2.654641e+00	 9.546957e+00
4	 1.327428e+00	 2.657824e+00	 9.453053e+00
4	 1.284930e+00	 2.660826e+00	 9.356980e+00
4	 1.537898e+00	 2.712770e+00	 9.839283e+00
4	 1.494606e+00	 2.716398e+00	 9.758794e+00
4	 1.451205e+00	 2.719848e+00	 9.674862e+00
4	 1.407701e+00	 2.723121e+00	 9.587920e+00
4	 1.364101e+00	 2.726217e+00	 9.498404e+00
4	 1.320412e+00	 2.729133e+00	 9.406761e+00
4	 1.579293e+00	 2.781439e+00	 9.866099e+00
4	 1.534807e+00	 2.784973e+00	 9.789474e+00
4	 1.490213e+00	 2.788331e+00	 9.709505e+00
4	 1.445518e+00	 2.791514e+00	 9.626604e+00
4	 1.400727e+00	 2.794521e+00	 9.541191e+00
4	 1.355847e+00	 2.797351e+00	 9.453690e+00
4	 1.620635e+00	 2.850022e+00	 9.890716e+00
4	 1.574957e+00	 2.853460e+00	 9.817698e+00
4	 1.529172e+00	 2.856726e+00	 9.741431e+00
4	 1.483286e+00	 2.859818e+00	 9.662311e+00
4	 1.437305e+00	 2.862737e+00	 9.580737e+00
4	 1.391237e+00	 2.865481e+00	 9.497119e+00
4	 1.661926e+00	 2.918518e+00	 9.912436e+00
4	 1.615056e+00	 2.921861e+00	 9.842787e+00
4	 1.568080e+00	 2.925033e+00	 9.769983e+00
4	 1.521005e+00	 2.928034e+00	 9.694404e+00
4	 1.473836e+00	 2.930864e+00	 9.616434e+00
4	 1.426581e+00	 2.933523e+00	 9.536463e+00
4	 1.703164e+00	 2.986929e+00	 9.930623e+00
4	 1.655104e+00	 2.990174e+00	 9.864124e+00
4	 1.606938e+00	 2.993252e+00	 9.794565e+00
4	 1.558675e+00	 2.996162e+00	 9.722310e+00
4	 1.510320e+00	 2.998904e+00	 9.647726e+00
4	 1.461879e+00	 3.001477e+00	 9.571187e+00
4	 1.284930e+00	 2.660826e+00	 9.356980e+00
4	 1.242348e+00	 2.663648e+00	 9.258424e+00
4	 1.199688e+00	 2.666289e+00	 9.157142e+00
4	 1.156956e+00	 2.668747e+00	 9.053720e+00
4	 1.114160e+00	 2.671024e+00	 8.948753e+00
4	 1.071306e+00	 2.673119e+00	 8.842839e+00
4	 1.320412e+00	 2.729133e+00	 9.406761e+00
4	 1.276639e+00	 2.731871e+00	 9.312677e+00
4	 1.232788e+00	 2.734429e+00	 9.215913e+00
4	 1.188868e+00	 2.736808e+00	 9.117035e+00
4	 1.144883e+00	 2.739007e+00	 9.016616e+00
4	 1.100841e+00	 2.741025e+00	 8.915235e+00
4	 1.355847e+00	 2.797351e+00	 9.453690e+00
4	 1.310885e+00	 2.800005e+00	 9.363793e+00
4	 1.265846e+00	 2.802482e+00	 9.271264e+00
4	 1.220738e+00	 2.804781e+00	 9.176650e+00
4	 1.175566e+00	 2.806902e+00	 9.080503e+00
4	 1.130338e+00	 2.808846e+00	 8.983382e+00
4	 1.391237e+00	 2.865481e+00	 9.497119e+00
4	 1.345087e+00	 2.868051e+00	 9.411151e+00
4	 1.298862e+00	 2.870447e+00	 9.322602e+00
4	 1.252567e+00	 2.872667e+00	 9.231998e+00
4	 1.206211e+00	 2.874712e+00	 9.139874e+00
4	 1.159798e+00	 2.876581e+00	 9.046768e+00
4	 1.426581e+00	 2.933523e+00	 9.536463e+00
4	 1.379245e+00	 2.936010e+00	 9.454190e+00
4	 1.331834e+00	 2.938324e+00	 9.369388e+00
4	 1.284356e+00	 2.940466e+00	 9.282568e+00
4	 1.236816e+00	 2.942435e+00	 9.194243e+00
4	 1.189221e+00	 2.944231e+00	 9.104932e+00
4	 1.461879e+00	 3.001477e+00	 9.571187e+00
4	 1.413358e+00	 3.003880e+00	 9.492398e+00
4	 1.364765e+00	 3.006114e+00	 9.411136e+00
4	 1.316104e+00	 3.008178e+00	 9.327893e+00
4	 1.267383e+00	 3.010072e+00	 9.243166e+00
4	 1.218607e+00	 3.011796e+00	 9.157454e+00
4	 1.071306e+00	 2.673119e+00	 8.842839e+00
4	 1.028400e+00	 2.675031e+00	 8.735825e+00
4	 9.854493e-01	 2.676761e+00	 8.627608e+00
4	 9.424596e-01	 2.678308e+00	 8.518867e+00
4	 8.994378e-01	 2.679673e+00	 8.410286e+00
4	 8.563905e-01	 2.680854e+00	 8.302555e+00
4	 1.100841e+00	 2.741025e+00	 8.915235e+00
4	 1.056747e+00	 2.742863e+00	 8.812734e+00
4	 1.012609e+00	 2.744521e+00	 8.709007e+00
4	 9.684335e-01	 2.745998e+00	 8.604715e+00
4	 9.242261e-01	 2.747295e+00	 8.500522e+00
4	 8.799937e-01	 2.748411e+00	 8.397095e+00
4	 1.130338e+00	 2.808846e+00	 8.983382e+00
4	 1.085059e+00	 2.810611e+00	 8.885126e+00
4	 1.039736e+00	 2.812198e+00	 8.785629e+00
4	 9.943762e-01	 2.813607e+00	 8.685530e+00
4	 9.489852e-01	 2.814837e+00	 8.585477e+00
4	 9.035698e-01	 2.815890e+00	 8.486115e+00
4	 1.159798e+00	 2.876581e+00	 9.046768e+00
4	 1.113335e+00	 2.878275e+00	 8.952519e+00
4	 1.066830e+00	 2.879793e+00	 8.857016e+00
4	 1.020288e+00	 2.881135e+00	 8.760884e+00
4	 9.737152e-01	 2.882301e+00	 8.664749e+00
4	 9.271189e-01	 2.883291e+00	 8.569239e+00
4	 1.189221e+00	 2.944231e+00	 9.104932e+00
4	 1.141577e+00	 2.945854e+00	 9.014474e+00
4	 1.093890e+00	 2.947304e+00	 8.922758e+00
4	 1.046168e+00	 2.948581e+00	 8.830389e+00
4	 9.984161e-01	 2.949685e+00	 8.737975e+00
4	 9.506409e-01	 2.950615e+00	 8.646127e+00
4	 1.218607e+00	 3.011796e+00	 9.157454e+00
4	 1.169783e+00	 3.013350e+00	 9.070595e+00
4	 1.120918e+00	 3.014734e+00	 8.982480e+00
4	 1.072017e+00	 3.015947e+00	 8.893694e+00
4	 1.023088e+00	 3.016989e+00	 8.804827e+00
4	 9.741360e-01	 3.017862e+00	 8.716472e+00
4	 8.563905e-01	 2.680854e+00	 8.302555e+00
4	 8.133241e-01	 2.681854e+00	 8.195719e+00
4	 7.702452e-01	 2.682671e+00	 8.089829e+00
4	 7.271604e-01	 2.683306e+00	 7.985584e+00
4	 6.840761e-01	 2.683758e+00	 7.883682e+00
4	 6.409988e-01	 2.684030e+00	 7.784819e+00
4	 8.799937e-01	 2.748411e+00	 8.397095e+00
4	 8.357429e-01	 2.749346e+00	 8.294474e+00
4	 7.914801e-01	 2.750102e+00	 8.192702e+00
4	 7.472118e-01	 2.750677e+00	 8.092461e+00
4	 7.029446e-01	 2.751072e+00	 7.994432e+00
4	 6.586849e-01	 2.751288e+00	 7.899296e+00
4	 9.035698e-01	 2.815890e+00	 8.486115e+00
4	 8.581366e-01	 2.816764e+00	 8.387477e+00
4	 8.126919e-01	 2.817460e+00	 8.289601e+00
4	 7.672422e-01	 2.817978e+00	 8.193152e+00
4	 7.217941e-01	 2.818318e+00	 8.098794e+00
4	 6.763539e-01	 2.818482e+00	 8.007191e+00
4	 9.271189e-01	 2.883291e+00	 8.569239e+00
4	 8.805053e-01	 2.884106e+00	 8.474379e+00
4	 8.338807e-01	 2.884745e+00	 8.380201e+00
4	 7.872517e-01	 2.885208e+00	 8.287355e+00
4	 7.406246e-01	 2.885497e+00	 8.196489e+00
4	 6.940059e-01	 2.885610e+00	 8.108249e+00
4	 9.506409e-01	 2.950615e+00	 8.646127e+00
4	 9.028489e-01	 2.951372e+00	 8.554862e+00
4	 8.550466e-01	 2.951956e+00	 8.464209e+00
4	 8.072401e-01	 2.952368e+00	 8.374800e+00
4	 7.594361e-01	 2.952607e+00	 8.287267e+00
4	 7.116408e-01	 2.952674e+00	 8.202240e+00
4	 9.741360e-01	 3.017862e+00	 8.716472e+00
4	 9.251677e-01	 3.018564e+00	 8.628641e+00
4	 8.761895e-01	 3.019096e+00	 8.541358e+00
4	 8.272077e-01	 3.019458e+00	 8.455240e+00
4	 7.782287e-01	 3.019650e+00	 8.370901e+00
4	 7.292586e-01	 3.019673e+00	 8.288957e+00
4	 6.409988e-01	 2.684030e+00	 7.784819e+00
4	 5.979349e-01	 2.684120e+00	 7.689211e+00
4	 5.548910e-01	 2.684029e+00	 7.597019e+00
4	 5.118734e-01	 2.683757e+00	 7.508863e+00
4	 4.688884e-01	 2.683306e+00	 7.425355e+00
4	 4.259426e-01	 2.682675e+00	 7.347106e+00
4	 6.586849e-01	 2.751288e+00	 7.899296e+00
4	 6.144391e-01	 2.751325e+00	 7.807255e+00
4	 5.702137e-01	 2.751182e+00	 7.718465e+00
4	 5.260150e-01	 2.750862e+00	 7.633532e+00
4	 4.818495e-01	 2.750363e+00	 7.553056e+00
4	 4.377235e-01	 2.749688e+00	 7.477636e+00
4	 6.763539e-01	 2.818482e+00	 8.007191e+00
4	 6.309281e-01	 2.818468e+00	 7.918536e+00
4	 5.855230e-01	 2.818278e+00	 7.832977e+00
4	 5.401451e-01	 2.817911e+00	 7.751107e+00
4	 4.948006e-01	 2.817369e+00	 7.673515e+00
4	 4.494960e-01	 2.816652e+00	 7.600787e+00
4	 6.940059e-01	 2.885610e+00	 8.108249e+00
4	 6.474019e-01	 2.885549e+00	 8.022820e+00
4	 6.008189e-01	 2.885314e+00	 7.940342e+00
4	 5.542635e-01	 2.884906e+00	 7.861396e+00
4	 5.077418e-01	 2.884323e+00	 7.786558e+00
4	 4.612601e-01	 2.883569e+00	 7.716402e+00
4	 7.116408e-01	 2.952674e+00	 8.202240e+00
4	 6.638605e-01	 2.952569e+00	 8.119896e+00
4	 6.161015e-01	 2.952292e+00	 8.040367e+00
4	 5.683703e-01	 2.951845e+00	 7.964222e+00
4	 5.206729e-01	 2.951226e+00	 7.892026e+00
4	 4.730158e-01	 2.950438e+00	 7.824338e+00
4	 7.292586e-01	 3.019673e+00	 8.288957e+00
4	 6.803039e-01	 3.019527e+00	 8.209574e+00
4	 6.313708e-01	 3.019212e+00	 8.132880e+00
4	 5.824655e-01	 3.018729e+00	 8.059430e+00
4	 5.335942e-01	 3.018078e+00	 7.989776e+00
4	 4.847631e-01	 3.017259e+00	 7.924466e+00
4	 4.259426e-01	 2.682675e+00	 7.347106e+00
4	 3.830421e-01	 2.681866e+00	 7.274405e+00
4	 3.401933e-01	 2.680879e+00	 7.207431e+00
4	 2.974023e-01	 2.679714e+00	 7.146621e+00
4	 2.546754e-01	 2.678373e+00	 7.092403e+00
4	 2.120187e-01	 2.676856e+00	 7.045197e+00
4	 4.377235e-01	 2.749688e+00	 7.477636e+00
4	 3.936432e-01	 2.748835e+00	 7.407550e+00
4	 3.496150e-01	 2.747807e+00	 7.342973e+00
4	 3.056450e-01	 2.746603e+00	 7.284332e+00
4	 2.617395e-01	 2.745224e+00	 7.232049e+00
4	 2.179046e-01	 2.743672e+00	 7.186538e+00
4	 4.494960e-01	 2.816652e+00	 7.600787e+00
4	 4.042374e-01	 2.815760e+00	 7.533193e+00
4	 3.590311e-01	 2.814695e+00	 7.470899e+00
4	 3.138834e-01	 2.813456e+00	 7.414326e+00
4	 2.688004e-01	 2.812045e+00	 7.363889e+00
4	 2.237882e-01	 2.810461e+00	 7.319994e+00
4	 4.612601e-01	 2.883569e+00	 7.716402e+00
4	 4.148247e-01	 2.882642e+00	 7.651190e+00
4	 3.684417e-01	 2.881543e+00	 7.591081e+00
4	 3.221175e-01	 2.880274e+00	 7.536488e+00
4	 2.758580e-01	 2.878834e+00	 7.487819e+00
4	 2.296695e-01	 2.877225e+00	 7.445472e+00
4	 4.730158e-01	 2.950438e+00	 7.824338e+00
4	 4.254050e-01	 2.949480e+00	 7.761413e+00
4	 3.778467e-01	 2.948352e+00	 7.703403e+00
4	 3.303472e-01	 2.947057e+00	 7.650715e+00
4	 2.829124e-01	 2.945593e+00	 7.603746e+00
4	 2.355485e-01	 2.943963e+00	 7.562888e+00
4	 4.847631e-01	 3.017259e+00	 7.924466e+00
4	 4.359784e-01	 3.016274e+00	 7.863746e+00
4	 3.872462e-01	 3.015122e+00	 7.807762e+00
4	 3.385726e-01	 3.013804e+00	 7.756913e+00
4	 2.899635e-01	 3.012322e+00	 7.711587e+00
4	 2.414252e-01	 3.010675e+00	 7.672168e+00
4	 2.120187e-01	 2.676856e+00	 7.045197e+00
4	 1.694384e-01	 2.675164e+00	 7.005239e+00
4	 1.269404e-01	 2.673298e+00	 6.972620e+00
4	 8.453071e-02	 2.671259e+00	 6.947537e+00
4	 4.221529e-02	 2.669048e+00	 6.930173e+00
4	 0.000000e+00	 2.666667e+00	 6.920706e+00
4	 2.179046e-01	 2.743672e+00	 7.186538e+00
4	 1.741464e-01	 2.741946e+00	 7.148028e+00
4	 1.304708e-01	 2.740049e+00	 7.116603e+00
4	 8.688399e-02	 2.737980e+00	 7.092451e+00
4	 4.339176e-02	 2.735741e+00	 7.075749e+00
4	 0.000000e+00	 2.733333e+00	 7.066666e+00
4	 2.237882e-01	 2.810461e+00	 7.319994e+00
4	 1.788529e-01	 2.808707e+00	 7.282865e+00
4	 1.340004e-01	 2.806783e+00	 7.252581e+00
4	 8.923689e-02	 2.804690e+00	 7.229324e+00
4	 4.456812e-02	 2.802429e+00	 7.213265e+00
4	 0.000000e+00	 2.800000e+00	 7.204569e+00
4	 2.296695e-01	 2.877225e+00	 7.445472e+00
4	 1.835579e-01	 2.875447e+00	 7.409666e+00
4	 1.375292e-01	 2.873502e+00	 7.380477e+00
4	 9.158940e-02	 2.871389e+00	 7.358082e+00
4	 4.574439e-02	 2.869110e+00	 7.342651e+00
4	 0.000000e+00	 2.866667e+00	 7.334343e+00
4	 2.355485e-01	 2.943963e+00	 7.562888e+00
4	 1.882614e-01	 2.942166e+00	 7.528355e+00
4	 1.410571e-01	 2.940204e+00	 7.500221e+00
4	 9.394153e-02	 2.938077e+00	 7.478661e+00
4	 4.692056e-02	 2.935787e+00	 7.463843e+00
4	 0.000000e+00	 2.933333e+00	 7.455926e+00
4	 2.414252e-01	 3.010675e+00	 7.672168e+00
4	 1.929634e-01	 3.008864e+00	 7.638864e+00
4	 1.445841e-01	 3.006890e+00	 7.611750e+00
4	 9.629327e-02	 3.004754e+00	 7.591001e+00
4	 4.809663e-02	 3.002457e+00	 7.576785e+00
4	 0.000000e+00	 3.000000e+00	 7.569261e+00
4	 2.853553e+00	 2.853553e+00	 1.077303e+01
4	 2.809977e+00	 2.860716e+00	 1.076295e+01
4	 2.766158e+00	 2.867735e+00	 1.075161e+01
4	 2.722102e+00	 2.874610e+00	 1.073897e+01
4	 2.677812e+00	 2.881339e+00	 1.072498e+01
4	 2.633294e+00	 2.887922e+00	 1.070958e+01
4	 2.925102e+00	 2.925102e+00	 1.074486e+01
4	 2.880285e+00	 2.932111e+00	 1.073494e+01
4	 2.835228e+00	 2.938979e+00	 1.072412e+01
4	 2.789935e+00	 2.945705e+00	 1.071229e+01
4	 2.744412e+00	 2.952286e+00	 1.069931e+01
4	 2.698663e+00	 2.958723e+00	 1.068504e+01
4	 2.996650e+00	 2.996650e+00	 1.071784e+01
4	 2.950587e+00	 3.003501e+00	 1.070868e+01
4	 2.904286e+00	 3.010212e+00	 1.069877e+01
4	 2.857753e+00	 3.016782e+00	 1.068793e+01
4	 2.810991e+00	 3.023211e+00	 1.067600e+01
4	 2.764006e+00	 3.029496e+00	 1.066278e+01
4	 3.068198e+00	 3.068198e+00	 1.069195e+01
4	 3.020883e+00	 3.074884e+00	 1.068394e+01
4	 2.973333e+00	 3.081433e+00	 1.067514e+01
4	 2.925554e+00	 3.087843e+00	 1.066536e+01
4	 2.877549e+00	 3.094113e+00	 1.065443e+01
4	 2.829324e+00	 3.100241e+00	 1.064218e+01
4	 3.139746e+00	 3.139746e+00	 1.066720e+01
4	 3.091173e+00	 3.146262e+00	 1.066050e+01
4	 3.042369e+00	 3.152643e+00	 1.065284e+01
4	 2.993338e+00	 3.158886e+00	 1.064407e+01
4	 2.944086e+00	 3.164992e+00	 1.063406e+01
4	 2.894617e+00	 3.170959e+00	 1.062264e+01
4	 3.211294e+00	 3.211294e+00	 1.064357e+01
4	 3.161457e+00	 3.217634e+00	 1.063813e+01
4	 3.111393e+00	 3.223840e+00	 1.063150e+01
4	 3.061106e+00	 3.229912e+00	 1.062360e+01
4	 3.010601e+00	 3.235849e+00	 1.061434e+01
4	 2.959883e+00	 3.241649e+00	 1.060363e+01
4	 2.633294e+00	 2.887922e+00	 1.070958e+01
4	 2.588554e+00	 2.894356e+00	 1.069250e+01
4	 2.543594e+00	 2.900641e+00	 1.067349e+01
4	 2.498422e+00	 2.906775e+00	 1.065253e+01
4	 2.453042e+00	 2.912756e+00	 1.062961e+01
4	 2.407459e+00	 2.918585e+00	 1.060474e+01
4	 2.698663e+00	 2.958723e+00	 1.068504e+01
4	 2.652693e+00	 2.965012e+00	 1.066918e+01
4	 2.606507e+00	 2.971154e+00	 1.065148e+01
4	 2.560110e+00	 2.977147e+00	 1.063192e+01
4	 2.513508e+00	 2.982990e+00	 1.061050e+01
4	 2.466705e+00	 2.988682e+00	 1.058720e+01
4	 2.764006e+00	 3.029496e+00	 1.066278e+01
4	 2.716803e+00	 3.035636e+00	 1.064801e+01
4	 2.669387e+00	 3.041630e+00	 1.063150e+01
4	 2.621762e+00	 3.047478e+00	 1.061322e+01
4	 2.573934e+00	 3.053178e+00	 1.059314e+01
4	 2.525909e+00	 3.058729e+00	 1.057125e+01
4	 2.829324e+00	 3.100241e+00	 1.064218e+01
4	 2.780884e+00	 3.106227e+00	 1.062838e+01
4	 2.732233e+00	 3.112069e+00	 1.061293e+01
4	 2.683378e+00	 3.117767e+00	 1.059579e+01
4	 2.634321e+00	 3.123320e+00	 1.057694e+01
4	 2.585070e+00	 3.128726e+00	 1.055633e+01
4	 2.894617e+00	 3.170959e+00	 1.062264e+01
4	 2.844935e+00	 3.176786e+00	 1.060971e+01
4	 2.795047e+00	 3.182471e+00	 1.059521e+01
4	 2.744956e+00	 3.188015e+00	 1.057910e+01
4	 2.694669e+00	 3.193416e+00	 1.056135e+01
4	 2.644189e+00	 3.198673e+00	 1.054192e+01
4	 2.959883e+00	 3.241649e+00	 1.060363e+01
4	 2.908957e+00	 3.247312e+00	 1.059146e+01
4	 2.857827e+00	 3.252836e+00	 1.057781e+01
4	 2.806499e+00	 3.258222e+00	 1.056263e+01
4	 2.754977e+00	 3.263467e+00	 1.054589e+01
4	 2.703267e+00	 3.268571e+00	 1.052753e+01
4	 2.407459e+00	 2.918585e+00	 1.060474e+01
4	 2.361679e+00	 2.924259e+00	 1.057767e+01
4	 2.315707e+00	 2.929777e+00	 1.054818e+01
4	 2.269549e+00	 2.935139e+00	 1.051631e+01
4	 2.223209e+00	 2.940344e+00	 1.048209e+01
4	 2.176694e+00	 2.945390e+00	 1.044556e+01
4	 2.466705e+00	 2.988682e+00	 1.058720e+01
4	 2.419707e+00	 2.994221e+00	 1.056176e+01
4	 2.372519e+00	 2.999607e+00	 1.053399e+01
4	 2.325147e+00	 3.004839e+00	 1.050391e+01
4	 2.277596e+00	 3.009915e+00	 1.047156e+01
4	 2.229871e+00	 3.014835e+00	 1.043699e+01
4	 2.525909e+00	 3.058729e+00	 1.057125e+01
4	 2.477690e+00	 3.064129e+00	 1.054731e+01
4	 2.429284e+00	 3.069379e+00	 1.052111e+01
4	 2.380697e+00	 3.074477e+00	 1.049269e+01
4	 2.331932e+00	 3.079422e+00	 1.046209e+01
4	 2.282997e+00	 3.084213e+00	 1.042936e+01
4	 2.585070e+00	 3.128726e+00	 1.055633e+01
4	 2.535629e+00	 3.133984e+00	 1.053375e+01
4	 2.486003e+00	 3.139094e+00	 1.050901e+01
4	 2.436198e+00	 3.144055e+00	 1.048214e+01
4	 2.386219e+00	 3.148865e+00	 1.045317e+01
4	 2.336072e+00	 3.153524e+00	 1.042215e+01
4	 2.644189e+00	 3.198673e+00	 1.054192e+01
4	 2.593523e+00	 3.203785e+00	 1.052059e+01
4	 2.542675e+00	 3.208752e+00	 1.049720e+01
4	 2.491651e+00	 3.213572e+00	 1.047177e+01
4	 2.440456e+00	 3.218244e+00	 1.044434e+01
4	 2.389095e+00	 3.222769e+00	 1.041492e+01
4	 2.703267e+00	 3.268571e+00	 1.052753e+01
4	 2.651373e+00	 3.273533e+00	 1.050737e+01
4	 2.599301e+00	 3.278352e+00	 1.048523e+01
4	 2.547056e+00	 3.283028e+00	 1.046116e+01
4	 2.494643e+00	 3.287560e+00	 1.043515e+01
4	 2.442068e+00	 3.291946e+00	 1.040724e+01
4	 2.176694e+00	 2.945390e+00	 1.044556e+01
4	 2.130009e+00	 2.950276e+00	 1.040644e+01
4	 2.083160e+00	 2.955001e+00	 1.036447e+01
4	 2.036153e+00	 2.959565e+00	 1.031978e+01
4	 1.988994e+00	 2.963967e+00	 1.027247e+01
4	 1.941687e+00	 2.968206e+00	 1.022268e+01
4	 2.229871e+00	 3.014835e+00	 1.043699e+01
4	 2.181979e+00	 3.019597e+00	 1.039992e+01
4	 2.133925e+00	 3.024202e+00	 1.036010e+01
4	 2.085714e+00	 3.028647e+00	 1.031764e+01
4	 2.037353e+00	 3.032933e+00	 1.027267e+01
4	 1.988847e+00	 3.037058e+00	 1.022529e+01
4	 2.282997e+00	 3.084213e+00	 1.042936e+01
4	 2.233896e+00	 3.088849e+00	 1.039420e+01
4	 2.184636e+00	 3.093330e+00	 1.035640e+01
4	 2.135221e+00	 3.097655e+00	 1.031605e+01
4	 2.085658e+00	 3.101822e+00	 1.027327e+01
4	 2.035952e+00	 3.105832e+00	 1.022817e+01
4	 2.336072e+00	 3.153524e+00	 1.042215e+01
4	 2.285762e+00	 3.158031e+00	 1.038880e+01
4	 2.235294e+00	 3.162386e+00	 1.035290e+01
4	 2.184675e+00	 3.166587e+00	 1.031453e+01
4	 2.133909e+00	 3.170634e+00	 1.027382e+01
4	 2.083003e+00	 3.174527e+00	 1.023086e+01
4	 2.389095e+00	 3.222769e+00	 1.041492e+01
4	 2.337575e+00	 3.227144e+00	 1.038326e+01
4	 2.285899e+00	 3.231370e+00	 1.034914e+01
4	 2.234075e+00	 3.235445e+00	 1.031264e+01
4	 2.182107e+00	 3.239370e+00	 1.027387e+01
4	 2.130001e+00	 3.243143e+00	 1.023293e+01
4	 2.442068e+00	 3.291946e+00	 1.040724e+01
4	 2.389336e+00	 3.296187e+00	 1.037717e+01
4	 2.336452e+00	 3.300282e+00	 1.034472e+01
4	 2.283422e+00	 3.304229e+00	 1.030997e+01
4	 2.230251e+00	 3.308029e+00	 1.027302e+01
4	 2.176944e+00	 3.311680e+00	 1.023397e+01
4	 1.941687e+00	 2.968206e+00	 1.022268e+01
4	 1.894240e+00	 2.972281e+00	 1.017005e+01
4	 1.846658e+00	 2.976192e+00	 1.011430e+01
4	 1.798948e+00	 2.979937e+00	 1.005565e+01
4	 1.751114e+00	 2.983516e+00	 9.994346e+00
4	 1.703164e+00	 2.986929e+00	 9.930623e+00
4	 1.988847e+00	 3.037058e+00	 1.022529e+01
4	 1.940202e+00	 3.041022e+00	 1.017517e+01
4	 1.891423e+00	 3.044825e+00	 1.012203e+01
4	 1.842518e+00	 3.048464e+00	 1.006610e+01
4	 1.793492e+00	 3.051940e+00	 1.000760e+01
4	 1.744351e+00	 3.055253e+00	 9.946750e+00
4	 2.035952e+00	 3.105832e+00	 1.022817e+01
4	 1.986109e+00	 3.109683e+00	 1.018042e+01
4	 1.936135e+00	 3.113375e+00	 1.012975e+01
4	 1.886036e+00	 3.116908e+00	 1.007638e+01
4	 1.835818e+00	 3.120280e+00	 1.002052e+01
4	 1.785486e+00	 3.123492e+00	 9.962376e+00
4	 2.083003e+00	 3.174527e+00	 1.023086e+01
4	 2.031963e+00	 3.178263e+00	 1.018534e+01
4	 1.980793e+00	 3.181844e+00	 1.013700e+01
4	 1.929500e+00	 3.185268e+00	 1.008603e+01
4	 1.878091e+00	 3.188535e+00	 1.003266e+01
4	 1.826569e+00	 3.191645e+00	 9.977066e+00
4	 2.130001e+00	 3.243143e+00	 1.023293e+01
4	 2.077762e+00	 3.246763e+00	 1.018950e+01
4	 2.025398e+00	 3.250231e+00	 1.014335e+01
4	 1.972912e+00	 3.253545e+00	 1.009465e+01
4	 1.920311e+00	 3.256706e+00	 1.004361e+01
4	 1.867601e+00	 3.259712e+00	 9.990423e+00
4	 2.176944e+00	 3.311680e+00	 1.023397e+01
4	 2.123509e+00	 3.315183e+00	 1.019252e+01
4	 2.069949e+00	 3.318536e+00	 1.014842e+01
4	 2.016271e+00	 3.321739e+00	 1.010185e+01
4	 1.962480e+00	 3.324792e+00	 1.005301e+01
4	 1.908582e+00	 3.327694e+00	 1.000208e+01
4	 1.703164e+00	 2.986929e+00	 9.930623e+00
4	 1.655104e+00	 2.990174e+00	 9.864124e+00
4	 1.606938e+00	 2.993252e+00	 9.794565e+00
4	 1.558675e+00	 2.996162e+00	 9.722310e+00
4	 1.510320e+00	 2.998904e+00	 9.647726e+00
4	 1.461879e+00	 3.001477e+00	 9.571187e+00
4	 1.744351e+00	 3.055253e+00	 9.946750e+00
4	 1.695101e+00	 3.058401e+00	 9.883209e+00
4	 1.645747e+00	 3.061385e+00	 9.816700e+00
4	 1.596297e+00	 3.064203e+00	 9.747572e+00
4	 1.546757e+00	 3.066856e+00	 9.676178e+00
4	 1.497131e+00	 3.069343e+00	 9.602875e+00
4	 1.785486e+00	 3.123492e+00	 9.962376e+00
4	 1.735047e+00	 3.126542e+00	 9.901622e+00
4	 1.684507e+00	 3.129430e+00	 9.837988e+00
4	 1.633871e+00	 3.132156e+00	 9.771808e+00
4	 1.583146e+00	 3.134720e+00	 9.703419e+00
4	 1.532338e+00	 3.137121e+00	 9.633167e+00
4	 1.826569e+00	 3.191645e+00	 9.977066e+00
4	 1.774942e+00	 3.194596e+00	 9.918939e+00
4	 1.723216e+00	 3.197388e+00	 9.858014e+00
4	 1.671396e+00	 3.200022e+00	 9.794611e+00
4	 1.619489e+00	 3.202497e+00	 9.729057e+00
4	 1.567500e+00	 3.204812e+00	 9.661681e+00
4	 1.867601e+00	 3.259712e+00	 9.990423e+00
4	 1.814788e+00	 3.262564e+00	 9.934769e+00
4	 1.761876e+00	 3.265260e+00	 9.876395e+00
4	 1.708874e+00	 3.267801e+00	 9.815611e+00
4	 1.655785e+00	 3.270186e+00	 9.752730e+00
4	 1.602616e+00	 3.272415e+00	 9.688070e+00
4	 1.908582e+00	 3.327694e+00	 1.000208e+01
4	 1.854582e+00	 3.330445e+00	 9.948753e+00
4	 1.800487e+00	 3.333045e+00	 9.892783e+00
4	 1.746303e+00	 3.335493e+00	 9.834467e+00
4	 1.692034e+00	 3.337788e+00	 9.774108e+00
4	 1.637687e+00	 3.339931e+00	 9.712011e+00
4	 1.461879e+00	 3.001477e+00	 9.571187e+00
4	 1.413358e+00	 3.003880e+00	 9.492398e+00
4	 1.364765e+00	 3.006114e+00	 9.411136e+00
4	 1.316104e+00	 3.008178e+00	 9.327893e+00
4	 1.267383e+00	 3.010072e+00	 9.243166e+00
4	 1.218607e+00	 3.011796e+00	 9.157454e+00
4	 1.497131e+00	 3.069343e+00	 9.602875e+00
4	 1.447428e+00	 3.071663e+00	 9.527373e+00
4	 1.397653e+00	 3.073817e+00	 9.449455e+00
4	 1.347811e+00	 3.075804e+00	 9.369594e+00
4	 1.297910e+00	 3.077624e+00	 9.288271e+00
4	 1.247956e+00	 3.079277e+00	 9.205968e+00
4	 1.532338e+00	 3.137121e+00	 9.633167e+00
4	 1.481454e+00	 3.139358e+00	 9.560765e+00
4	 1.430498e+00	 3.141433e+00	 9.486002e+00
4	 1.379478e+00	 3.143343e+00	 9.409334e+00
4	 1.328399e+00	 3.145090e+00	 9.331226e+00
4	 1.277268e+00	 3.146672e+00	 9.252142e+00
4	 1.567500e+00	 3.204812e+00	 9.661681e+00
4	 1.515436e+00	 3.206967e+00	 9.592206e+00
4	 1.463302e+00	 3.208961e+00	 9.520421e+00
4	 1.411104e+00	 3.210796e+00	 9.446771e+00
4	 1.358850e+00	 3.212470e+00	 9.371701e+00
4	 1.306544e+00	 3.213984e+00	 9.295664e+00
4	 1.602616e+00	 3.272415e+00	 9.688070e+00
4	 1.549374e+00	 3.274488e+00	 9.621357e+00
4	 1.496063e+00	 3.276404e+00	 9.552388e+00
4	 1.442690e+00	 3.278163e+00	 9.481591e+00
4	 1.389261e+00	 3.279765e+00	 9.409398e+00
4	 1.335783e+00	 3.281210e+00	 9.336245e+00
4	 1.637687e+00	 3.339931e+00	 9.712011e+00
4	 1.583268e+00	 3.341922e+00	 9.647909e+00
4	 1.528782e+00	 3.343759e+00	 9.581603e+00
4	 1.474236e+00	 3.345444e+00	 9.513508e+00
4	 1.419635e+00	 3.346975e+00	 9.444040e+00
4	 1.364985e+00	 3.348353e+00	 9.373623e+00
4	 1.218607e+00	 3.011796e+00	 9.157454e+00
4	 1.169783e+00	 3.013350e+00	 9.070595e+00
4	 1.120918e+00	 3.014734e+00	 8.982480e+00
4	 1.072017e+00	 3.015947e+00	 8.893694e+00
4	 1.023088e+00	 3.016989e+00	 8.804827e+00
4	 9.741360e-01	 3.017862e+00	 8.716472e+00
4	 1.247956e+00	 3.079277e+00	 9.205968e+00
4	 1.197955e+00	 3.080762e+00	 9.122521e+00
4	 1.147912e+00	 3.082081e+00	 9.037822e+00
4	 1.097836e+00	 3.083232e+00	 8.952439e+00
4	 1.047731e+00	 3.084215e+00	 8.866945e+00
4	 9.976041e-01	 3.085031e+00	 8.781913e+00
4	 1.277268e+00	 3.146672e+00	 9.252142e+00
4	 1.226091e+00	 3.148091e+00	 9.171922e+00
4	 1.174874e+00	 3.149345e+00	 9.090454e+00
4	 1.123623e+00	 3.150436e+00	 9.008292e+00
4	 1.072345e+00	 3.151362e+00	 8.925991e+00
4	 1.021045e+00	 3.152124e+00	 8.844108e+00
4	 1.306544e+00	 3.213984e+00	 9.295664e+00
4	 1.254193e+00	 3.215336e+00	 9.218496e+00
4	 1.201803e+00	 3.216528e+00	 9.140090e+00
4	 1.149380e+00	 3.217560e+00	 9.060981e+00
4	 1.096930e+00	 3.218430e+00	 8.981708e+00
4	 1.044460e+00	 3.219140e+00	 8.902813e+00
4	 1.335783e+00	 3.281210e+00	 9.336245e+00
4	 1.282260e+00	 3.282498e+00	 9.261971e+00
4	 1.228699e+00	 3.283629e+00	 9.186469e+00
4	 1.175106e+00	 3.284603e+00	 9.110258e+00
4	 1.121486e+00	 3.285419e+00	 9.033863e+00
4	 1.067847e+00	 3.286079e+00	 8.957809e+00
4	 1.364985e+00	 3.348353e+00	 9.373623e+00
4	 1.310292e+00	 3.349577e+00	 9.302096e+00
4	 1.255562e+00	 3.350648e+00	 9.229352e+00
4	 1.200801e+00	 3.351566e+00	 9.155898e+00
4	 1.146014e+00	 3.352330e+00	 9.082241e+00
4	 1.091208e+00	 3.352941e+00	 9.008892e+00
4	 9.741360e-01	 3.017862e+00	 8.716472e+00
4	 9.251677e-01	 3.018564e+00	 8.628641e+00
4	 8.761895e-01	 3.019096e+00	 8.541358e+00
4	 8.272077e-01	 3.019458e+00	 8.455240e+00
4	 7.782287e-01	 3.019650e+00	 8.370901e+00
4	 7.292586e-01	 3.019673e+00	 8.288957e+00
4	 9.976041e-01	 3.085031e+00	 8.781913e+00
4	 9.474615e-01	 3.085680e+00	 8.697352e+00
4	 8.973095e-01	 3.086162e+00	 8.613281e+00
4	 8.471544e-01	 3.086477e+00	 8.530302e+00
4	 7.970023e-01	 3.086625e+00	 8.449013e+00
4	 7.468595e-01	 3.086607e+00	 8.370013e+00
4	 1.021045e+00	 3.152124e+00	 8.844108e+00
4	 9.697305e-01	 3.152722e+00	 8.762646e+00
4	 9.184067e-01	 3.153156e+00	 8.681623e+00
4	 8.670802e-01	 3.153427e+00	 8.601622e+00
4	 8.157570e-01	 3.153534e+00	 8.523230e+00
4	 7.644434e-01	 3.153477e+00	 8.447027e+00
4	 1.044460e+00	 3.219140e+00	 8.902813e+00
4	 9.919746e-01	 3.219689e+00	 8.824295e+00
4	 9.394811e-01	 3.220078e+00	 8.746168e+00
4	 8.869852e-01	 3.220306e+00	 8.669001e+00
4	 8.344929e-01	 3.220374e+00	 8.593364e+00
4	 7.820104e-01	 3.220283e+00	 8.519824e+00
4	 1.067847e+00	 3.286079e+00	 8.957809e+00
4	 1.014194e+00	 3.286581e+00	 8.882091e+00
4	 9.605327e-01	 3.286927e+00	 8.806721e+00
4	 9.068694e-01	 3.287116e+00	 8.732254e+00
4	 8.532099e-01	 3.287148e+00	 8.659244e+00
4	 7.995604e-01	 3.287024e+00	 8.588245e+00
4	 1.091208e+00	 3.352941e+00	 9.008892e+00
4	 1.036389e+00	 3.353399e+00	 8.935842e+00
4	 9.815616e-01	 3.353704e+00	 8.863103e+00
4	 9.267328e-01	 3.353855e+00	 8.791214e+00
4	 8.719082e-01	 3.353854e+00	 8.720715e+00
4	 8.170936e-01	 3.353700e+00	 8.652145e+00
4	 7.292586e-01	 3.019673e+00	 8.288957e+00
4	 6.803039e-01	 3.019527e+00	 8.209574e+00
4	 6.313708e-01	 3.019212e+00	 8.132880e+00
4	 5.824655e-01	 3.018729e+00	 8.059430e+00
4	 5.335942e-01	 3.018078e+00	 7.989776e+00
4	 4.847631e-01	 3.017259e+00	 7.924466e+00
4	 7.468595e-01	 3.086607e+00	 8.370013e+00
4	 6.967323e-01	 3.086423e+00	 8.293461e+00
4	 6.466268e-01	 3.086073e+00	 8.219479e+00
4	 5.965491e-01	 3.085558e+00	 8.148609e+00
4	 5.465055e-01	 3.084878e+00	 8.081392e+00
4	 4.965021e-01	 3.084033e+00	 8.018361e+00
4	 7.644434e-01	 3.153477e+00	 8.447027e+00
4	 7.131455e-01	 3.153258e+00	 8.373166e+00
4	 6.618694e-01	 3.152876e+00	 8.301764e+00
4	 6.106212e-01	 3.152332e+00	 8.233350e+00
4	 5.594069e-01	 3.151626e+00	 8.168452e+00
4	 5.082327e-01	 3.150759e+00	 8.107593e+00
4	 7.820104e-01	 3.220283e+00	 8.519824e+00
4	 7.295437e-01	 3.220031e+00	 8.448527e+00
4	 6.770988e-01	 3.219621e+00	 8.379584e+00
4	 6.246817e-01	 3.219052e+00	 8.313513e+00
4	 5.722984e-01	 3.218324e+00	 8.250829e+00
4	 5.199550e-01	 3.217438e+00	 8.192042e+00
4	 7.995604e-01	 3.287024e+00	 8.588245e+00
4	 7.459267e-01	 3.286744e+00	 8.519396e+00
4	 6.923149e-01	 3.286308e+00	 8.452802e+00
4	 6.387307e-01	 3.285716e+00	 8.388970e+00
4	 5.851801e-01	 3.284970e+00	 8.328403e+00
4	 5.316689e-01	 3.284069e+00	 8.271600e+00
4	 8.170936e-01	 3.353700e+00	 8.652145e+00
4	 7.622948e-01	 3.353394e+00	 8.585636e+00
4	 7.075177e-01	 3.352936e+00	 8.521292e+00
4	 6.527681e-01	 3.352326e+00	 8.459606e+00
4	 5.980518e-01	 3.351565e+00	 8.401069e+00
4	 5.433745e-01	 3.350653e+00	 8.346168e+00
4	 4.847631e-01	 3.017259e+00	 7.924466e+00
4	 4.359784e-01	 3.016274e+00	 7.863746e+00
4	 3.872462e-01	 3.015122e+00	 7.807762e+00
4	 3.385726e-01	 3.013804e+00	 7.756913e+00
4	 2.899635e-01	 3.012322e+00	 7.711587e+00
4	 2.414252e-01	 3.010675e+00	 7.672168e+00
4	 4.965021e-01	 3.084033e+00	 8.018361e+00
4	 4.465449e-01	 3.083024e+00	 7.959756e+00
4	 3.966401e-01	 3.081852e+00	 7.905717e+00
4	 3.467936e-01	 3.080517e+00	 7.856633e+00
4	 2.970114e-01	 3.079019e+00	 7.812885e+00
4	 2.472996e-01	 3.077360e+00	 7.774849e+00
4	 5.082327e-01	 3.150759e+00	 8.107593e+00
4	 4.571046e-01	 3.149731e+00	 8.051002e+00
4	 4.060284e-01	 3.148542e+00	 7.998818e+00
4	 3.550103e-01	 3.147194e+00	 7.951418e+00
4	 3.040561e-01	 3.145686e+00	 7.909176e+00
4	 2.531717e-01	 3.144020e+00	 7.872460e+00
4	 5.199550e-01	 3.217438e+00	 8.192042e+00
4	 4.676573e-01	 3.216394e+00	 8.137376e+00
4	 4.154112e-01	 3.215193e+00	 8.086963e+00
4	 3.632227e-01	 3.213836e+00	 8.041173e+00
4	 3.110975e-01	 3.212323e+00	 8.000373e+00
4	 2.590415e-01	 3.210654e+00	 7.964921e+00
4	 5.316689e-01	 3.284069e+00	 8.271600e+00
4	 4.782031e-01	 3.283014e+00	 8.218776e+00
4	 4.247885e-01	 3.281805e+00	 8.170060e+00
4	 3.714307e-01	 3.280443e+00	 8.125814e+00
4	 3.181357e-01	 3.278928e+00	 8.086395e+00
4	 2.649090e-01	 3.277261e+00	 8.052157e+00
4	 5.433745e-01	 3.350653e+00	 8.346168e+00
4	 4.887421e-01	 3.349590e+00	 8.295112e+00
4	 4.341602e-01	 3.348378e+00	 8.248025e+00
4	 3.796344e-01	 3.347015e+00	 8.205261e+00
4	 3.251706e-01	 3.345504e+00	 8.167172e+00
4	 2.707743e-01	 3.343843e+00	 8.134100e+00
4	 2.414252e-01	 3.010675e+00	 7.672168e+00
4	 1.929634e-01	 3.008864e+00	 7.638864e+00
4	 1.445841e-01	 3.006890e+00	 7.611750e+00
4	 9.629327e-02	 3.004754e+00	 7.591001e+00
4	 4.809663e-02	 3.002457e+00	 7.576785e+00
4	 0.000000e+00	 3.000000e+00	 7.569261e+00
4	 2.472996e-01	 3.077360e+00	 7.774849e+00
4	 1.976639e-01	 3.075540e+00	 7.742727e+00
4	 1.481103e-01	 3.073560e+00	 7.716594e+00
4	 9.864462e-02	 3.071421e+00	 7.696626e+00
4	 4.927261e-02	 3.069123e+00	 7.682988e+00
4	 0.000000e+00	 3.066667e+00	 7.675842e+00
4	 2.531717e-01	 3.144020e+00	 7.872460e+00
4	 2.023629e-01	 3.142196e+00	 7.841468e+00
4	 1.516356e-01	 3.140214e+00	 7.816271e+00
4	 1.009956e-01	 3.138076e+00	 7.797044e+00
4	 5.044849e-02	 3.135782e+00	 7.783953e+00
4	 0.000000e+00	 3.133333e+00	 7.777155e+00
4	 2.590415e-01	 3.210654e+00	 7.964921e+00
4	 2.070605e-01	 3.208830e+00	 7.935009e+00
4	 1.551601e-01	 3.206852e+00	 7.910710e+00
4	 1.033462e-01	 3.204720e+00	 7.892192e+00
4	 5.162426e-02	 3.202436e+00	 7.879617e+00
4	 0.000000e+00	 3.200000e+00	 7.873143e+00
4	 2.649090e-01	 3.277261e+00	 8.052157e+00
4	 2.117565e-01	 3.275443e+00	 8.023284e+00
4	 1.586838e-01	 3.273474e+00	 7.999846e+00
4	 1.056964e-01	 3.271354e+00	 7.982007e+00
4	 5.279995e-02	 3.269085e+00	 7.969926e+00
4	 0.000000e+00	 3.266667e+00	 7.963754e+00
4	 2.707743e-01	 3.343843e+00	 8.134100e+00
4	 2.164511e-01	 3.342035e+00	 8.106229e+00
4	 1.622065e-01	 3.340079e+00	 8.083621e+00
4	 1.080462e-01	 3.337977e+00	 8.066436e+00
4	 5.397553e-02	 3.335728e+00	 8.054826e+00
4	 0.000000e+00	 3.333333e+00	 8.048940e+00
4	 3.211294e+00	 3.211294e+00	 1.064357e+01
4	 3.161457e+00	 3.217634e+00	 1.063813e+01
4	 3.111393e+00	 3.223840e+00	 1.063150e+01
4	 3.061106e+00	 3.229912e+00	 1.062360e+01
4	 3.010601e+00	 3.235849e+00	 1.061434e+01
4	 2.959883e+00	 3.241649e+00	 1.060363e+01
4	 3.282843e+00	 3.282843e+00	 1.062153e+01
4	 3.231736e+00	 3.289000e+00	 1.061704e+01
4	 3.180406e+00	 3.295026e+00	 1.061118e+01
4	 3.128858e+00	 3.300921e+00	 1.060394e+01
4	 3.077096e+00	 3.306683e+00	 1.059530e+01
4	 3.025125e+00	 3.312312e+00	 1.058526e+01
4	 3.354391e+00	 3.354391e+00	 1.060122e+01
4	 3.302009e+00	 3.360360e+00	 1.059726e+01
4	 3.249408e+00	 3.366201e+00	 1.059192e+01
4	 3.196593e+00	 3.371913e+00	 1.058521e+01
4	 3.143569e+00	 3.377495e+00	 1.057717e+01
4	 3.090341e+00	 3.382947e+00	 1.056781e+01
4	 3.425939e+00	 3.425939e+00	 1.058212e+01
4	 3.372275e+00	 3.431714e+00	 1.057843e+01
4	 3.318398e+00	 3.437364e+00	 1.057345e+01
4	 3.264312e+00	 3.442887e+00	 1.056721e+01
4	 3.210022e+00	 3.448285e+00	 1.055975e+01
4	 3.155532e+00	 3.453555e+00	 1.055109e+01
4	 3.497487e+00	 3.497487e+00	 1.056378e+01
4	 3.442536e+00	 3.503062e+00	 1.056021e+01
4	 3.387377e+00	 3.508515e+00	 1.055552e+01
4	 3.332015e+00	 3.513845e+00	 1.054973e+01
4	 3.276453e+00	 3.519052e+00	 1.054285e+01
4	 3.220697e+00	 3.524135e+00	 1.053489e+01
4	 3.569036e+00	 3.569036e+00	 1.054576e+01
4	 3.512791e+00	 3.574404e+00	 1.054228e+01
4	 3.456345e+00	 3.579654e+00	 1.053789e+01
4	 3.399701e+00	 3.584785e+00	 1.053258e+01
4	 3.342864e+00	 3.589797e+00	 1.052630e+01
4	 3.285837e+00	 3.594688e+00	 1.051905e+01
4	 2.959883e+00	 3.241649e+00	 1.060363e+01
4	 2.908957e+00	 3.247312e+00	 1.059146e+01
4	 2.857827e+00	 3.252836e+00	 1.057781e+01
4	 2.806499e+00	 3.258222e+00	 1.056263e+01
4	 2.754977e+00	 3.263467e+00	 1.054589e+01
4	 2.703267e+00	 3.268571e+00	 1.052753e+01
4	 3.025125e+00	 3.312312e+00	 1.058526e+01
4	 2.972950e+00	 3.317806e+00	 1.057382e+01
4	 2.920575e+00	 3.323164e+00	 1.056098e+01
4	 2.868005e+00	 3.328387e+00	 1.054669e+01
4	 2.815246e+00	 3.333472e+00	 1.053090e+01
4	 2.762302e+00	 3.338419e+00	 1.051357e+01
4	 3.090341e+00	 3.382947e+00	 1.056781e+01
4	 3.036913e+00	 3.388267e+00	 1.055714e+01
4	 2.983289e+00	 3.393455e+00	 1.054513e+01
4	 2.929475e+00	 3.398510e+00	 1.053172e+01
4	 2.875476e+00	 3.403431e+00	 1.051687e+01
4	 2.821295e+00	 3.408217e+00	 1.050053e+01
4	 3.155532e+00	 3.453555e+00	 1.055109e+01
4	 3.100846e+00	 3.458696e+00	 1.054120e+01
4	 3.045970e+00	 3.463709e+00	 1.053001e+01
4	 2.990909e+00	 3.468592e+00	 1.051746e+01
4	 2.935666e+00	 3.473344e+00	 1.050351e+01
4	 2.880247e+00	 3.477966e+00	 1.048811e+01
4	 3.220697e+00	 3.524135e+00	 1.053489e+01
4	 3.164751e+00	 3.529093e+00	 1.052578e+01
4	 3.108619e+00	 3.533926e+00	 1.051537e+01
4	 3.052306e+00	 3.538633e+00	 1.050364e+01
4	 2.995817e+00	 3.543213e+00	 1.049054e+01
4	 2.939156e+00	 3.547665e+00	 1.047603e+01
4	 3.285837e+00	 3.594688e+00	 1.051905e+01
4	 3.228626e+00	 3.599458e+00	 1.051066e+01
4	 3.171234e+00	 3.604106e+00	 1.050100e+01
4	 3.113667e+00	 3.608632e+00	 1.049002e+01
4	 3.055929e+00	 3.613035e+00	 1.047771e+01
4	 2.998024e+00	 3.617315e+00	 1.046403e+01
4	 2.703267e+00	 3.268571e+00	 1.052753e+01
4	 2.651373e+00	 3.273533e+00	 1.050737e+01
4	 2.599301e+00	 3.278352e+00	 1.048523e+01
4	 2.547056e+00	 3.283028e+00	 1.046116e+01
4	 2.494643e+00	 3.287560e+00	 1.043515e+01
4	 2.442068e+00	 3.291946e+00	 1.040724e+01
4	 2.762302e+00	 3.338419e+00	 1.051357e+01
4	 2.709178e+00	 3.343227e+00	 1.049451e+01
4	 2.655880e+00	 3.347896e+00	 1.047357e+01
4	 2.602412e+00	 3.352424e+00	 1.045076e+01
4	 2.548781e+00	 3.356812e+00	 1.042610e+01
4	 2.494990e+00	 3.361058e+00	 1.039961e+01
4	 2.821295e+00	 3.408217e+00	 1.050053e+01
4	 2.766940e+00	 3.412868e+00	 1.048253e+01
4	 2.712413e+00	 3.417382e+00	 1.046272e+01
4	 2.657721e+00	 3.421760e+00	 1.044112e+01
4	 2.602868e+00	 3.426000e+00	 1.041773e+01
4	 2.547860e+00	 3.430103e+00	 1.039257e+01
4	 2.880247e+00	 3.477966e+00	 1.048811e+01
4	 2.824656e+00	 3.482455e+00	 1.047111e+01
4	 2.768900e+00	 3.486812e+00	 1.045238e+01
4	 2.712981e+00	 3.491036e+00	 1.043191e+01
4	 2.656906e+00	 3.495125e+00	 1.040971e+01
4	 2.600680e+00	 3.499081e+00	 1.038580e+01
4	 2.939156e+00	 3.547665e+00	 1.047603e+01
4	 2.882329e+00	 3.551989e+00	 1.045997e+01
4	 2.825340e+00	 3.556185e+00	 1.044224e+01
4	 2.768194e+00	 3.560251e+00	 1.042283e+01
4	 2.710895e+00	 3.564187e+00	 1.040175e+01
4	 2.653449e+00	 3.567993e+00	 1.037900e+01
4	 2.998024e+00	 3.617315e+00	 1.046403e+01
4	 2.939958e+00	 3.621470e+00	 1.044885e+01
4	 2.881734e+00	 3.625501e+00	 1.043205e+01
4	 2.823358e+00	 3.629406e+00	 1.041362e+01
4	 2.764834e+00	 3.633186e+00	 1.039358e+01
4	 2.706167e+00	 3.636839e+00	 1.037191e+01
4	 2.442068e+00	 3.291946e+00	 1.040724e+01
4	 2.389336e+00	 3.296187e+00	 1.037717e+01
4	 2.336452e+00	 3.300282e+00	 1.034472e+01
4	 2.283422e+00	 3.304229e+00	 1.030997e+01
4	 2.230251e+00	 3.308029e+00	 1.027302e+01
4	 2.176944e+00	 3.311680e+00	 1.023397e+01
4	 2.494990e+00	 3.361058e+00	 1.039961e+01
4	 2.441045e+00	 3.365161e+00	 1.037103e+01
4	 2.386951e+00	 3.369122e+00	 1.034014e+01
4	 2.332715e+00	 3.372939e+00	 1.030704e+01
4	 2.278341e+00	 3.376611e+00	 1.027181e+01
4	 2.223835e+00	 3.380139e+00	 1.023454e+01
4	 2.547860e+00	 3.430103e+00	 1.039257e+01
4	 2.492702e+00	 3.434066e+00	 1.036538e+01
4	 2.437398e+00	 3.437890e+00	 1.033597e+01
4	 2.381955e+00	 3.441574e+00	 1.030442e+01
4	 2.326378e+00	 3.445118e+00	 1.027081e+01
4	 2.270671e+00	 3.448520e+00	 1.023522e+01
4	 2.600680e+00	 3.499081e+00	 1.038580e+01
4	 2.544307e+00	 3.502901e+00	 1.035992e+01
4	 2.487793e+00	 3.506586e+00	 1.033190e+01
4	 2.431143e+00	 3.510135e+00	 1.030181e+01
4	 2.374361e+00	 3.513548e+00	 1.026972e+01
4	 2.317454e+00	 3.516823e+00	 1.023572e+01
4	 2.653449e+00	 3.567993e+00	 1.037900e+01
4	 2.595861e+00	 3.571668e+00	 1.035436e+01
4	 2.538135e+00	 3.575211e+00	 1.032764e+01
4	 2.480277e+00	 3.578623e+00	 1.029892e+01
4	 2.422291e+00	 3.581902e+00	 1.026827e+01
4	 2.364184e+00	 3.585048e+00	 1.023576e+01
4	 2.706167e+00	 3.636839e+00	 1.037191e+01
4	 2.647363e+00	 3.640365e+00	 1.034842e+01
4	 2.588424e+00	 3.643765e+00	 1.032292e+01
4	 2.529358e+00	 3.647037e+00	 1.029549e+01
4	 2.470168e+00	 3.650180e+00	 1.026618e+01
4	 2.410860e+00	 3.653195e+00	 1.023508e+01
4	 2.176944e+00	 3.311680e+00	 1.023397e+01
4	 2.123509e+00	 3.315183e+00	 1.019252e+01
4	 2.069949e+00	 3.318536e+00	 1.014842e+01
4	 2.016271e+00	 3.321739e+00	 1.010185e+01
4	 1.962480e+00	 3.324792e+00	 1.005301e+01
4	 1.908582e+00	 3.327694e+00	 1.000208e+01
4	 2.223835e+00	 3.380139e+00	 1.023454e+01
4	 2.169201e+00	 3.383522e+00	 1.019494e+01
4	 2.114447e+00	 3.386759e+00	 1.015278e+01
4	 2.059577e+00	 3.389850e+00	 1.010822e+01
4	 2.004596e+00	 3.392794e+00	 1.006145e+01
4	 1.949511e+00	 3.395592e+00	 1.001265e+01
4	 2.270671e+00	 3.448520e+00	 1.023522e+01
4	 2.214841e+00	 3.451782e+00	 1.019738e+01
4	 2.158892e+00	 3.454901e+00	 1.015704e+01
4	 2.102830e+00	 3.457878e+00	 1.011438e+01
4	 2.046660e+00	 3.460713e+00	 1.006958e+01
4	 1.990389e+00	 3.463404e+00	 1.002280e+01
4	 2.317454e+00	 3.516823e+00	 1.023572e+01
4	 2.260426e+00	 3.519961e+00	 1.019953e+01
4	 2.203283e+00	 3.522962e+00	 1.016092e+01
4	 2.146030e+00	 3.525824e+00	 1.012006e+01
4	 2.088673e+00	 3.528547e+00	 1.007711e+01
4	 2.031216e+00	 3.531131e+00	 1.003225e+01
4	 2.364184e+00	 3.585048e+00	 1.023576e+01
4	 2.305959e+00	 3.588061e+00	 1.020113e+01
4	 2.247622e+00	 3.590941e+00	 1.016415e+01
4	 2.189179e+00	 3.593686e+00	 1.012499e+01
4	 2.130633e+00	 3.596298e+00	 1.008380e+01
4	 2.071992e+00	 3.598774e+00	 1.004075e+01
4	 2.410860e+00	 3.653195e+00	 1.023508e+01
4	 2.351438e+00	 3.656082e+00	 1.020192e+01
4	 2.291908e+00	 3.658839e+00	 1.016649e+01
4	 2.232274e+00	 3.661467e+00	 1.012893e+01
4	 2.172542e+00	 3.663965e+00	 1.008941e+01
4	 2.112717e+00	 3.666332e+00	 1.004807e+01
4	 1.908582e+00	 3.327694e+00	 1.000208e+01
4	 1.854582e+00	 3.330445e+00	 9.948753e+00
4	 1.800487e+00	 3.333045e+00	 9.892783e+00
4	 1.746303e+00	 3.335493e+00	 9.834467e+00
4	 1.692034e+00	 3.337788e+00	 9.774108e+00
4	 1.637687e+00	 3.339931e+00	 9.712011e+00
4	 1.949511e+00	 3.395592e+00	 1.001265e+01
4	 1.894327e+00	 3.398241e+00	 9.961524e+00
4	 1.839049e+00	 3.400744e+00	 9.907826e+00
4	 1.783684e+00	 3.403098e+00	 9.851844e+00
4	 1.728237e+00	 3.405303e+00	 9.793871e+00
4	 1.672713e+00	 3.407361e+00	 9.734201e+00
4	 1.990389e+00	 3.463404e+00	 1.002280e+01
4	 1.934021e+00	 3.465952e+00	 9.973754e+00
4	 1.877562e+00	 3.468356e+00	 9.922209e+00
4	 1.821017e+00	 3.470616e+00	 9.868441e+00
4	 1.764392e+00	 3.472732e+00	 9.812731e+00
4	 1.707694e+00	 3.474703e+00	 9.755365e+00
4	 2.031216e+00	 3.531131e+00	 1.003225e+01
4	 1.973665e+00	 3.533576e+00	 9.985176e+00
4	 1.916025e+00	 3.535882e+00	 9.935673e+00
4	 1.858302e+00	 3.538048e+00	 9.884005e+00
4	 1.800502e+00	 3.540073e+00	 9.830443e+00
4	 1.742629e+00	 3.541959e+00	 9.775264e+00
4	 2.071992e+00	 3.598774e+00	 1.004075e+01
4	 2.013259e+00	 3.601116e+00	 9.995547e+00
4	 1.954440e+00	 3.603322e+00	 9.947979e+00
4	 1.895540e+00	 3.605393e+00	 9.898303e+00
4	 1.836565e+00	 3.607329e+00	 9.846779e+00
4	 1.777520e+00	 3.609128e+00	 9.793676e+00
4	 2.112717e+00	 3.666332e+00	 1.004807e+01
4	 2.052803e+00	 3.668570e+00	 1.000464e+01
4	 1.992805e+00	 3.670677e+00	 9.958905e+00
4	 1.932730e+00	 3.672653e+00	 9.911117e+00
4	 1.872582e+00	 3.674498e+00	 9.861528e+00
4	 1.812366e+00	 3.676211e+00	 9.810396e+00
4	 1.637687e+00	 3.339931e+00	 9.712011e+00
4	 1.583268e+00	 3.341922e+00	 9.647909e+00
4	 1.528782e+00	 3.343759e+00	 9.581603e+00
4	 1.474236e+00	 3.345444e+00	 9.513508e+00
4	 1.419635e+00	 3.346975e+00	 9.444040e+00
4	 1.364985e+00	 3.348353e+00	 9.373623e+00
4	 1.672713e+00	 3.407361e+00	 9.734201e+00
4	 1.617119e+00	 3.409269e+00	 9.672572e+00
4	 1.561460e+00	 3.411028e+00	 9.608791e+00
4	 1.505741e+00	 3.412639e+00	 9.543258e+00
4	 1.449970e+00	 3.414100e+00	 9.476377e+00
4	 1.394150e+00	 3.415411e+00	 9.408557e+00
4	 1.707694e+00	 3.474703e+00	 9.755365e+00
4	 1.650926e+00	 3.476530e+00	 9.696085e+00
4	 1.594095e+00	 3.478211e+00	 9.634701e+00
4	 1.537207e+00	 3.479748e+00	 9.571603e+00
4	 1.480266e+00	 3.481139e+00	 9.507180e+00
4	 1.423280e+00	 3.482386e+00	 9.441830e+00
4	 1.742629e+00	 3.541959e+00	 9.775264e+00
4	 1.684690e+00	 3.543704e+00	 9.718214e+00
4	 1.626689e+00	 3.545308e+00	 9.659109e+00
4	 1.568632e+00	 3.546772e+00	 9.598324e+00
4	 1.510524e+00	 3.548095e+00	 9.536240e+00
4	 1.452372e+00	 3.549277e+00	 9.473239e+00
4	 1.777520e+00	 3.609128e+00	 9.793676e+00
4	 1.718410e+00	 3.610792e+00	 9.738745e+00
4	 1.659241e+00	 3.612319e+00	 9.681805e+00
4	 1.600017e+00	 3.613710e+00	 9.623221e+00
4	 1.540744e+00	 3.614965e+00	 9.563361e+00
4	 1.481429e+00	 3.616084e+00	 9.502596e+00
4	 1.812366e+00	 3.676211e+00	 9.810396e+00
4	 1.752087e+00	 3.677794e+00	 9.757479e+00
4	 1.691751e+00	 3.679245e+00	 9.702597e+00
4	 1.631362e+00	 3.680564e+00	 9.646107e+00
4	 1.570926e+00	 3.681752e+00	 9.588364e+00
4	 1.510449e+00	 3.682807e+00	 9.529728e+00
4	 1.364985e+00	 3.348353e+00	 9.373623e+00
4	 1.310292e+00	 3.349577e+00	 9.302096e+00
4	 1.255562e+00	 3.350648e+00	 9.229352e+00
4	 1.200801e+00	 3.351566e+00	 9.155898e+00
4	 1.146014e+00	 3.352330e+00	 9.082241e+00
4	 1.091208e+00	 3.352941e+00	 9.008892e+00
4	 1.394150e+00	 3.415411e+00	 9.408557e+00
4	 1.338289e+00	 3.416573e+00	 9.339640e+00
4	 1.282392e+00	 3.417586e+00	 9.269520e+00
4	 1.226465e+00	 3.418449e+00	 9.198689e+00
4	 1.170513e+00	 3.419163e+00	 9.127640e+00
4	 1.114542e+00	 3.419728e+00	 9.056868e+00
4	 1.423280e+00	 3.482386e+00	 9.441830e+00
4	 1.366252e+00	 3.483487e+00	 9.375395e+00
4	 1.309190e+00	 3.484442e+00	 9.307772e+00
4	 1.252098e+00	 3.485253e+00	 9.239437e+00
4	 1.194983e+00	 3.485918e+00	 9.170870e+00
4	 1.137850e+00	 3.486437e+00	 9.102552e+00
4	 1.452372e+00	 3.549277e+00	 9.473239e+00
4	 1.394181e+00	 3.550317e+00	 9.409166e+00
4	 1.335955e+00	 3.551217e+00	 9.343919e+00
4	 1.277701e+00	 3.551976e+00	 9.277962e+00
4	 1.219425e+00	 3.552594e+00	 9.211761e+00
4	 1.161130e+00	 3.553071e+00	 9.145784e+00
4	 1.481429e+00	 3.616084e+00	 9.502596e+00
4	 1.422075e+00	 3.617066e+00	 9.440773e+00
4	 1.362688e+00	 3.617911e+00	 9.377791e+00
4	 1.303274e+00	 3.618620e+00	 9.314102e+00
4	 1.243838e+00	 3.619193e+00	 9.250157e+00
4	 1.184385e+00	 3.619629e+00	 9.186413e+00
4	 1.510449e+00	 3.682807e+00	 9.529728e+00
4	 1.449934e+00	 3.683732e+00	 9.470049e+00
4	 1.389388e+00	 3.684524e+00	 9.409228e+00
4	 1.328816e+00	 3.685184e+00	 9.347702e+00
4	 1.268222e+00	 3.685713e+00	 9.285912e+00
4	 1.207612e+00	 3.686110e+00	 9.224302e+00
4	 1.091208e+00	 3.352941e+00	 9.008892e+00
4	 1.036389e+00	 3.353399e+00	 8.935842e+00
4	 9.815616e-01	 3.353704e+00	 8.863103e+00
4	 9.267328e-01	 3.353855e+00	 8.791214e+00
4	 8.719082e-01	 3.353854e+00	 8.720715e+00
4	 8.170936e-01	 3.353700e+00	 8.652145e+00
4	 1.114542e+00	 3.419728e+00	 9.056868e+00
4	 1.058559e+00	 3.420143e+00	 8.986362e+00
4	 1.002568e+00	 3.420409e+00	 8.916132e+00
4	 9.465755e-01	 3.420526e+00	 8.846703e+00
4	 8.905876e-01	 3.420494e+00	 8.778601e+00
4	 8.346098e-01	 3.420313e+00	 8.712352e+00
4	 1.137850e+00	 3.486437e+00	 9.102552e+00
4	 1.080704e+00	 3.486812e+00	 9.034471e+00
4	 1.023551e+00	 3.487042e+00	 8.966633e+00
4	 9.663975e-01	 3.487126e+00	 8.899550e+00
4	 9.092483e-01	 3.487066e+00	 8.833735e+00
4	 8.521092e-01	 3.486861e+00	 8.769700e+00
4	 1.161130e+00	 3.553071e+00	 9.145784e+00
4	 1.102824e+00	 3.553407e+00	 9.080015e+00
4	 1.044512e+00	 3.553603e+00	 9.014460e+00
4	 9.861989e-01	 3.553657e+00	 8.949617e+00
4	 9.278903e-01	 3.553572e+00	 8.885987e+00
4	 8.695918e-01	 3.553346e+00	 8.824068e+00
4	 1.184385e+00	 3.619629e+00	 9.186413e+00
4	 1.124921e+00	 3.619928e+00	 9.122852e+00
4	 1.065450e+00	 3.620092e+00	 9.059478e+00
4	 1.005980e+00	 3.620119e+00	 8.996776e+00
4	 9.465136e-01	 3.620011e+00	 8.935235e+00
4	 8.870576e-01	 3.619767e+00	 8.875340e+00
4	 1.207612e+00	 3.686110e+00	 9.224302e+00
4	 1.146992e+00	 3.686376e+00	 9.162851e+00
4	 1.086366e+00	 3.686510e+00	 9.101562e+00
4	 1.025740e+00	 3.686512e+00	 9.040911e+00
4	 9.651182e-01	 3.686383e+00	 8.981370e+00
4	 9.045066e-01	 3.686123e+00	 8.923414e+00
4	 8.170936e-01	 3.353700e+00	 8.652145e+00
4	 7.622948e-01	 3.353394e+00	 8.585636e+00
4	 7.075177e-01	 3.352936e+00	 8.521292e+00
4	 6.527681e-01	 3.352326e+00	 8.459606e+00
4	 5.980518e-01	 3.351565e+00	 8.401069e+00
4	 5.433745e-01	 3.350653e+00	 8.346168e+00
4	 8.346098e-01	 3.420313e+00	 8.712352e+00
4	 7.786478e-01	 3.419984e+00	 8.648082e+00
4	 7.227073e-01	 3.419507e+00	 8.585889e+00
4	 6.667940e-01	 3.418882e+00	 8.526257e+00
4	 6.109137e-01	 3.418109e+00	 8.469663e+00
4	 5.550718e-01	 3.417190e+00	 8.416584e+00
4	 8.521092e-01	 3.486861e+00	 8.769700e+00
4	 7.949858e-01	 3.486513e+00	 8.707567e+00
4	 7.378837e-01	 3.486020e+00	 8.647429e+00
4	 6.808085e-01	 3.485383e+00	 8.589759e+00
4	 6.237657e-01	 3.484603e+00	 8.535022e+00
4	 5.667608e-01	 3.483679e+00	 8.483684e+00
4	 8.695918e-01	 3.553346e+00	 8.824068e+00
4	 8.113089e-01	 3.552980e+00	 8.763976e+00
4	 7.530469e-01	 3.552474e+00	 8.705804e+00
4	 6.948114e-01	 3.551829e+00	 8.650010e+00
4	 6.366078e-01	 3.551045e+00	 8.597051e+00
4	 5.784415e-01	 3.550121e+00	 8.547380e+00
4	 8.870576e-01	 3.619767e+00	 8.875340e+00
4	 8.276169e-01	 3.619387e+00	 8.817203e+00
4	 7.681970e-01	 3.618871e+00	 8.760913e+00
4	 7.088029e-01	 3.618221e+00	 8.706916e+00
4	 6.494401e-01	 3.617436e+00	 8.655660e+00
4	 5.901138e-01	 3.616516e+00	 8.607588e+00
4	 9.045066e-01	 3.686123e+00	 8.923414e+00
4	 8.439101e-01	 3.685732e+00	 8.867150e+00
4	 7.833338e-01	 3.685211e+00	 8.812663e+00
4	 7.227830e-01	 3.684559e+00	 8.760392e+00
4	 6.622626e-01	 3.683776e+00	 8.710771e+00
4	 6.017779e-01	 3.682864e+00	 8.664232e+00
4	 5.433745e-01	 3.350653e+00	 8.346168e+00
4	 4.887421e-01	 3.349590e+00	 8.295112e+00
4	 4.341602e-01	 3.348378e+00	 8.248025e+00
4	 3.796344e-01	 3.347015e+00	 8.205261e+00
4	 3.251706e-01	 3.345504e+00	 8.167172e+00
4	 2.707743e-01	 3.343843e+00	 8.134100e+00
4	 5.550718e-01	 3.417190e+00	 8.416584e+00
4	 4.992742e-01	 3.416123e+00	 8.367221e+00
4	 4.435263e-01	 3.414911e+00	 8.321696e+00
4	 3.878339e-01	 3.413552e+00	 8.280355e+00
4	 3.322023e-01	 3.412048e+00	 8.243540e+00
4	 2.766373e-01	 3.410399e+00	 8.211589e+00
4	 5.667608e-01	 3.483679e+00	 8.483684e+00
4	 5.097994e-01	 3.482613e+00	 8.435941e+00
4	 4.528870e-01	 3.481405e+00	 8.391910e+00
4	 3.960290e-01	 3.480054e+00	 8.351929e+00
4	 3.392308e-01	 3.478562e+00	 8.316334e+00
4	 2.824979e-01	 3.476929e+00	 8.285454e+00
4	 5.784415e-01	 3.550121e+00	 8.547380e+00
4	 5.203178e-01	 3.549059e+00	 8.501188e+00
4	 4.622421e-01	 3.547859e+00	 8.458587e+00
4	 4.042197e-01	 3.546521e+00	 8.419910e+00
4	 3.462561e-01	 3.545046e+00	 8.385483e+00
4	 2.883563e-01	 3.543433e+00	 8.355628e+00
4	 5.901138e-01	 3.616516e+00	 8.607588e+00
4	 5.308293e-01	 3.615462e+00	 8.562883e+00
4	 4.715917e-01	 3.614274e+00	 8.521655e+00
4	 4.124062e-01	 3.612953e+00	 8.484229e+00
4	 3.532781e-01	 3.611499e+00	 8.450923e+00
4	 2.942125e-01	 3.609911e+00	 8.422052e+00
4	 6.017779e-01	 3.682864e+00	 8.664232e+00
4	 5.413340e-01	 3.681822e+00	 8.620956e+00
4	 4.809358e-01	 3.680651e+00	 8.581047e+00
4	 4.205884e-01	 3.679350e+00	 8.544823e+00
4	 3.602969e-01	 3.677921e+00	 8.512595e+00
4	 3.000663e-01	 3.676364e+00	 8.484669e+00
4	 2.707743e-01	 3.343843e+00	 8.134100e+00
4	 2.164511e-01	 3.342035e+00	 8.106229e+00
4	 1.622065e-01	 3.340079e+00	 8.083621e+00
4	 1.080462e-01	 3.337977e+00	 8.066436e+00
4	 5.397553e-02	 3.335728e+00	 8.054826e+00
4	 0.000000e+00	 3.333333e+00	 8.048940e+00
4	 2.766373e-01	 3.410399e+00	 8.211589e+00
4	 2.211441e-01	 3.408606e+00	 8.184678e+00
4	 1.657285e-01	 3.406669e+00	 8.162868e+00
4	 1.103956e-01	 3.404588e+00	 8.146311e+00
4	 5.515101e-02	 3.402365e+00	 8.135155e+00
4	 0.000000e+00	 3.400000e+00	 8.129543e+00
4	 2.824979e-01	 3.476929e+00	 8.285454e+00
4	 2.258357e-01	 3.475156e+00	 8.259461e+00
4	 1.692495e-01	 3.473242e+00	 8.238414e+00
4	 1.127447e-01	 3.471189e+00	 8.222459e+00
4	 5.632640e-02	 3.468997e+00	 8.211740e+00
4	 0.000000e+00	 3.466667e+00	 8.206394e+00
4	 2.883563e-01	 3.543433e+00	 8.355628e+00
4	 2.305258e-01	 3.541684e+00	 8.330515e+00
4	 1.727698e-01	 3.539799e+00	 8.310198e+00
4	 1.150933e-01	 3.537779e+00	 8.294821e+00
4	 5.750169e-02	 3.535623e+00	 8.284523e+00
4	 0.000000e+00	 3.533333e+00	 8.279437e+00
4	 2.942125e-01	 3.609911e+00	 8.422052e+00
4	 2.352144e-01	 3.608192e+00	 8.397782e+00
4	 1.762891e-01	 3.606340e+00	 8.378165e+00
4	 1.174416e-01	 3.604358e+00	 8.363342e+00
4	 5.867688e-02	 3.602244e+00	 8.353450e+00
4	 0.000000e+00	 3.600000e+00	 8.348618e+00
4	 3.000663e-01	 3.676364e+00	 8.484669e+00
4	 2.399016e-01	 3.674678e+00	 8.461208e+00
4	 1.798077e-01	 3.672865e+00	 8.442264e+00
4	 1.197895e-01	 3.670926e+00	 8.427974e+00
4	 5.985198e-02	 3.668859e+00	 8.418473e+00
4	 0.000000e+00	 3.666667e+00	 8.413887e+00
4	 3.569036e+00	 3.569036e+00	 1.054576e+01
4	 3.512791e+00	 3.574404e+00	 1.054228e+01
4	 3.456345e+00	 3.579654e+00	 1.053789e+01
4	 3.399701e+00	 3.584785e+00	 1.053258e+01
4	 3.342864e+00	 3.589797e+00	 1.052630e+01
4	 3.285837e+00	 3.594688e+00	 1.051905e+01
4	 3.640584e+00	 3.640584e+00	 1.052817e+01
4	 3.583041e+00	 3.645740e+00	 1.052490e+01
4	 3.525302e+00	 3.650782e+00	 1.052090e+01
4	 3.467371e+00	 3.655708e+00	 1.051610e+01
4	 3.409253e+00	 3.660519e+00	 1.051044e+01
4	 3.350952e+00	 3.665213e+00	 1.050383e+01
4	 3.712132e+00	 3.712132e+00	 1.051130e+01
4	 3.653284e+00	 3.717070e+00	 1.050842e+01
4	 3.594247e+00	 3.721898e+00	 1.050489e+01
4	 3.535025e+00	 3.726614e+00	 1.050062e+01
4	 3.475621e+00	 3.731219e+00	 1.049551e+01
4	 3.416041e+00	 3.735711e+00	 1.048946e+01
4	 3.783680e+00	 3.783680e+00	 1.049506e+01
4	 3.723522e+00	 3.788395e+00	 1.049267e+01
4	 3.663181e+00	 3.793002e+00	 1.048964e+01
4	 3.602662e+00	 3.797503e+00	 1.048588e+01
4	 3.541968e+00	 3.801896e+00	 1.048127e+01
4	 3.481105e+00	 3.806181e+00	 1.047572e+01
4	 3.855228e+00	 3.855228e+00	 1.047936e+01
4	 3.793753e+00	 3.859713e+00	 1.047750e+01
4	 3.732104e+00	 3.864095e+00	 1.047497e+01
4	 3.670283e+00	 3.868375e+00	 1.047167e+01
4	 3.608295e+00	 3.872552e+00	 1.046751e+01
4	 3.546144e+00	 3.876625e+00	 1.046239e+01
4	 3.926777e+00	 3.926777e+00	 1.046412e+01
4	 3.863979e+00	 3.931025e+00	 1.046277e+01
4	 3.801015e+00	 3.935177e+00	 1.046068e+01
4	 3.737887e+00	 3.939230e+00	 1.045778e+01
4	 3.674600e+00	 3.943184e+00	 1.045400e+01
4	 3.611157e+00	 3.947040e+00	 1.044927e+01
4	 3.285837e+00	 3.594688e+00	 1.051905e+01
4	 3.228626e+00	 3.599458e+00	 1.051066e+01
4	 3.171234e+00	 3.604106e+00	 1.050100e+01
4	 3.113667e+00	 3.608632e+00	 1.049002e+01
4	 3.055929e+00	 3.613035e+00	 1.047771e+01
4	 2.998024e+00	 3.617315e+00	 1.046403e+01
4	 3.350952e+00	 3.665213e+00	 1.050383e+01
4	 3.292471e+00	 3.669790e+00	 1.049610e+01
4	 3.233817e+00	 3.674249e+00	 1.048711e+01
4	 3.174992e+00	 3.678590e+00	 1.047683e+01
4	 3.116002e+00	 3.682812e+00	 1.046525e+01
4	 3.056850e+00	 3.686915e+00	 1.045234e+01
4	 3.416041e+00	 3.735711e+00	 1.048946e+01
4	 3.356288e+00	 3.740090e+00	 1.048231e+01
4	 3.296366e+00	 3.744356e+00	 1.047392e+01
4	 3.236281e+00	 3.748507e+00	 1.046429e+01
4	 3.176035e+00	 3.752544e+00	 1.045341e+01
4	 3.115634e+00	 3.756466e+00	 1.044125e+01
4	 3.481105e+00	 3.806181e+00	 1.047572e+01
4	 3.420075e+00	 3.810358e+00	 1.046908e+01
4	 3.358883e+00	 3.814425e+00	 1.046125e+01
4	 3.297534e+00	 3.818383e+00	 1.045224e+01
4	 3.236030e+00	 3.822230e+00	 1.044202e+01
4	 3.174377e+00	 3.825967e+00	 1.043057e+01
4	 3.546144e+00	 3.876625e+00	 1.046239e+01
4	 3.483833e+00	 3.880593e+00	 1.045621e+01
4	 3.421367e+00	 3.884458e+00	 1.044892e+01
4	 3.358750e+00	 3.888217e+00	 1.044049e+01
4	 3.295986e+00	 3.891871e+00	 1.043091e+01
4	 3.233078e+00	 3.895420e+00	 1.042015e+01
4	 3.611157e+00	 3.947040e+00	 1.044927e+01
4	 3.547562e+00	 3.950797e+00	 1.044353e+01
4	 3.483818e+00	 3.954454e+00	 1.043674e+01
4	 3.419931e+00	 3.958011e+00	 1.042888e+01
4	 3.355902e+00	 3.961467e+00	 1.041993e+01
4	 3.291737e+00	 3.964823e+00	 1.040984e+01
4	 2.998024e+00	 3.617315e+00	 1.046403e+01
4	 2.939958e+00	 3.621470e+00	 1.044885e+01
4	 2.881734e+00	 3.625501e+00	 1.043205e+01
4	 2.823358e+00	 3.629406e+00	 1.041362e+01
4	 2.764834e+00	 3.633186e+00	 1.039358e+01
4	 2.706167e+00	 3.636839e+00	 1.037191e+01
4	 3.056850e+00	 3.686915e+00	 1.045234e+01
4	 2.997542e+00	 3.690898e+00	 1.043799e+01
4	 2.938082e+00	 3.694760e+00	 1.042206e+01
4	 2.878474e+00	 3.698501e+00	 1.040456e+01
4	 2.818724e+00	 3.702121e+00	 1.038549e+01
4	 2.758835e+00	 3.705619e+00	 1.036486e+01
4	 3.115634e+00	 3.756466e+00	 1.044125e+01
4	 3.055082e+00	 3.760272e+00	 1.042769e+01
4	 2.994384e+00	 3.763962e+00	 1.041261e+01
4	 2.933543e+00	 3.767536e+00	 1.039600e+01
4	 2.872564e+00	 3.770993e+00	 1.037787e+01
4	 2.811452e+00	 3.774332e+00	 1.035822e+01
4	 3.174377e+00	 3.825967e+00	 1.043057e+01
4	 3.112579e+00	 3.829594e+00	 1.041778e+01
4	 3.050640e+00	 3.833108e+00	 1.040350e+01
4	 2.988564e+00	 3.836511e+00	 1.038775e+01
4	 2.926355e+00	 3.839802e+00	 1.037052e+01
4	 2.864019e+00	 3.842980e+00	 1.035182e+01
4	 3.233078e+00	 3.895420e+00	 1.042015e+01
4	 3.170031e+00	 3.898862e+00	 1.040809e+01
4	 3.106849e+00	 3.902198e+00	 1.039459e+01
4	 3.043537e+00	 3.905427e+00	 1.037965e+01
4	 2.980097e+00	 3.908548e+00	 1.036328e+01
4	 2.916535e+00	 3.911562e+00	 1.034548e+01
4	 3.291737e+00	 3.964823e+00	 1.040984e+01
4	 3.227440e+00	 3.968078e+00	 1.039847e+01
4	 3.163013e+00	 3.971231e+00	 1.038570e+01
4	 3.098462e+00	 3.974282e+00	 1.037154e+01
4	 3.033790e+00	 3.977232e+00	 1.035599e+01
4	 2.969001e+00	 3.980079e+00	 1.033905e+01
4	 2.706167e+00	 3.636839e+00	 1.037191e+01
4	 2.647363e+00	 3.640365e+00	 1.034842e+01
4	 2.588424e+00	 3.643765e+00	 1.032292e+01
4	 2.529358e+00	 3.647037e+00	 1.029549e+01
4	 2.470168e+00	 3.650180e+00	 1.026618e+01
4	 2.410860e+00	 3.653195e+00	 1.023508e+01
4	 2.758835e+00	 3.705619e+00	 1.036486e+01
4	 2.698813e+00	 3.708994e+00	 1.034246e+01
4	 2.638662e+00	 3.712247e+00	 1.031812e+01
4	 2.578387e+00	 3.715377e+00	 1.029190e+01
4	 2.517992e+00	 3.718383e+00	 1.026388e+01
4	 2.457483e+00	 3.721265e+00	 1.023411e+01
4	 2.811452e+00	 3.774332e+00	 1.035822e+01
4	 2.750212e+00	 3.777554e+00	 1.033687e+01
4	 2.688847e+00	 3.780658e+00	 1.031363e+01
4	 2.627362e+00	 3.783643e+00	 1.028859e+01
4	 2.565763e+00	 3.786510e+00	 1.026178e+01
4	 2.504053e+00	 3.789257e+00	 1.023328e+01
4	 2.864019e+00	 3.842980e+00	 1.035182e+01
4	 2.801559e+00	 3.846046e+00	 1.033146e+01
4	 2.738979e+00	 3.848998e+00	 1.030929e+01
4	 2.676285e+00	 3.851836e+00	 1.028535e+01
4	 2.613481e+00	 3.854561e+00	 1.025971e+01
4	 2.550570e+00	 3.857171e+00	 1.023242e+01
4	 2.916535e+00	 3.911562e+00	 1.034548e+01
4	 2.852855e+00	 3.914468e+00	 1.032608e+01
4	 2.789060e+00	 3.917266e+00	 1.030491e+01
4	 2.725156e+00	 3.919956e+00	 1.028203e+01
4	 2.661146e+00	 3.922537e+00	 1.025749e+01
4	 2.597034e+00	 3.925009e+00	 1.023135e+01
4	 2.969001e+00	 3.980079e+00	 1.033905e+01
4	 2.904099e+00	 3.982823e+00	 1.032055e+01
4	 2.839089e+00	 3.985464e+00	 1.030033e+01
4	 2.773974e+00	 3.988003e+00	 1.027845e+01
4	 2.708758e+00	 3.990437e+00	 1.025495e+01
4	 2.643446e+00	 3.992769e+00	 1.022990e+01
4	 2.410860e+00	 3.653195e+00	 1.023508e+01
4	 2.351438e+00	 3.656082e+00	 1.020192e+01
4	 2.291908e+00	 3.658839e+00	 1.016649e+01
4	 2.232274e+00	 3.661467e+00	 1.012893e+01
4	 2.172542e+00	 3.663965e+00	 1.008941e+01
4	 2.112717e+00	 3.666332e+00	 1.004807e+01
4	 2.457483e+00	 3.721265e+00	 1.023411e+01
4	 2.396865e+00	 3.724023e+00	 1.020234e+01
4	 2.336141e+00	 3.726656e+00	 1.016837e+01
4	 2.275318e+00	 3.729165e+00	 1.013234e+01
4	 2.214399e+00	 3.731548e+00	 1.009439e+01
4	 2.153391e+00	 3.733806e+00	 1.005468e+01
4	 2.504053e+00	 3.789257e+00	 1.023328e+01
4	 2.442238e+00	 3.791885e+00	 1.020284e+01
4	 2.380322e+00	 3.794393e+00	 1.017026e+01
4	 2.318309e+00	 3.796781e+00	 1.013568e+01
4	 2.256205e+00	 3.799049e+00	 1.009923e+01
4	 2.194014e+00	 3.801196e+00	 1.006107e+01
4	 2.550570e+00	 3.857171e+00	 1.023242e+01
4	 2.487558e+00	 3.859667e+00	 1.020324e+01
4	 2.424450e+00	 3.862049e+00	 1.017199e+01
4	 2.361248e+00	 3.864315e+00	 1.013878e+01
4	 2.297959e+00	 3.866466e+00	 1.010377e+01
4	 2.234587e+00	 3.868502e+00	 1.006708e+01
4	 2.597034e+00	 3.925009e+00	 1.023135e+01
4	 2.532826e+00	 3.927371e+00	 1.020337e+01
4	 2.468525e+00	 3.929624e+00	 1.017337e+01
4	 2.404135e+00	 3.931767e+00	 1.014148e+01
4	 2.339662e+00	 3.933801e+00	 1.010783e+01
4	 2.275109e+00	 3.935724e+00	 1.007254e+01
4	 2.643446e+00	 3.992769e+00	 1.022990e+01
4	 2.578041e+00	 3.994996e+00	 1.020306e+01
4	 2.512548e+00	 3.997119e+00	 1.017426e+01
4	 2.446971e+00	 3.999138e+00	 1.014362e+01
4	 2.381314e+00	 4.001053e+00	 1.011126e+01
4	 2.315581e+00	 4.002862e+00	 1.007731e+01
4	 2.112717e+00	 3.666332e+00	 1.004807e+01
4	 2.052803e+00	 3.668570e+00	 1.000464e+01
4	 1.992805e+00	 3.670677e+00	 9.958905e+00
4	 1.932730e+00	 3.672653e+00	 9.911117e+00
4	 1.872582e+00	 3.674498e+00	 9.861528e+00
4	 1.812366e+00	 3.676211e+00	 9.810396e+00
4	 2.153391e+00	 3.733806e+00	 1.005468e+01
4	 2.092297e+00	 3.735939e+00	 1.001293e+01
4	 2.031122e+00	 3.737945e+00	 9.968941e+00
4	 1.969873e+00	 3.739826e+00	 9.922949e+00
4	 1.908553e+00	 3.741580e+00	 9.875200e+00
4	 1.847167e+00	 3.743208e+00	 9.825943e+00
4	 2.194014e+00	 3.801196e+00	 1.006107e+01
4	 2.131741e+00	 3.803223e+00	 1.002093e+01
4	 2.069391e+00	 3.805129e+00	 9.978601e+00
4	 2.006968e+00	 3.806914e+00	 9.934321e+00
4	 1.944477e+00	 3.808577e+00	 9.888326e+00
4	 1.881923e+00	 3.810119e+00	 9.840858e+00
4	 2.234587e+00	 3.868502e+00	 1.006708e+01
4	 2.171136e+00	 3.870422e+00	 1.002847e+01
4	 2.107610e+00	 3.872227e+00	 9.987719e+00
4	 2.044015e+00	 3.873915e+00	 9.945070e+00
4	 1.980356e+00	 3.875488e+00	 9.900748e+00
4	 1.916635e+00	 3.876944e+00	 9.854985e+00
4	 2.275109e+00	 3.935724e+00	 1.007254e+01
4	 2.210481e+00	 3.937537e+00	 1.003538e+01
4	 2.145781e+00	 3.939240e+00	 9.996141e+00
4	 2.081016e+00	 3.940832e+00	 9.955046e+00
4	 2.016188e+00	 3.942313e+00	 9.912317e+00
4	 1.951303e+00	 3.943684e+00	 9.868180e+00
4	 2.315581e+00	 4.002862e+00	 1.007731e+01
4	 2.249776e+00	 4.004568e+00	 1.004153e+01
4	 2.183904e+00	 4.006168e+00	 1.000372e+01
4	 2.117969e+00	 4.007663e+00	 9.964106e+00
4	 2.051975e+00	 4.009053e+00	 9.922897e+00
4	 1.985926e+00	 4.010338e+00	 9.880310e+00
4	 1.812366e+00	 3.676211e+00	 9.810396e+00
4	 1.752087e+00	 3.677794e+00	 9.757479e+00
4	 1.691751e+00	 3.679245e+00	 9.702597e+00
4	 1.631362e+00	 3.680564e+00	 9.646107e+00
4	 1.570926e+00	 3.681752e+00	 9.588364e+00
4	 1.510449e+00	 3.682807e+00	 9.529728e+00
4	 1.847167e+00	 3.743208e+00	 9.825943e+00
4	 1.785721e+00	 3.744710e+00	 9.774942e+00
4	 1.724220e+00	 3.746084e+00	 9.722022e+00
4	 1.662668e+00	 3.747332e+00	 9.667526e+00
4	 1.601070e+00	 3.748454e+00	 9.611801e+00
4	 1.539433e+00	 3.749448e+00	 9.555197e+00
4	 1.881923e+00	 3.810119e+00	 9.840858e+00
4	 1.819312e+00	 3.811540e+00	 9.791685e+00
4	 1.756647e+00	 3.812839e+00	 9.740635e+00
4	 1.693933e+00	 3.814016e+00	 9.688043e+00
4	 1.631176e+00	 3.815072e+00	 9.634245e+00
4	 1.568380e+00	 3.816005e+00	 9.579580e+00
4	 1.916635e+00	 3.876944e+00	 9.854985e+00
4	 1.852860e+00	 3.878284e+00	 9.807555e+00
4	 1.789033e+00	 3.879508e+00	 9.758291e+00
4	 1.725159e+00	 3.880615e+00	 9.707516e+00
4	 1.661244e+00	 3.881606e+00	 9.655557e+00
4	 1.597292e+00	 3.882480e+00	 9.602744e+00
4	 1.951303e+00	 3.943684e+00	 9.868180e+00
4	 1.886364e+00	 3.944943e+00	 9.822413e+00
4	 1.821377e+00	 3.946092e+00	 9.774852e+00
4	 1.756346e+00	 3.947130e+00	 9.725812e+00
4	 1.691274e+00	 3.948056e+00	 9.675611e+00
4	 1.626167e+00	 3.948871e+00	 9.624567e+00
4	 1.985926e+00	 4.010338e+00	 9.880310e+00
4	 1.919826e+00	 4.011517e+00	 9.836129e+00
4	 1.853680e+00	 4.012591e+00	 9.790194e+00
4	 1.787492e+00	 4.013560e+00	 9.742810e+00
4	 1.721267e+00	 4.014423e+00	 9.694287e+00
4	 1.655007e+00	 4.015180e+00	 9.644934e+00
4	 1.510449e+00	 3.682807e+00	 9.529728e+00
4	 1.449934e+00	 3.683732e+00	 9.470049e+00
4	 1.389388e+00	 3.684524e+00	 9.409228e+00
4	 1.328816e+00	 3.685184e+00	 9.347702e+00
4	 1.268222e+00	 3.685713e+00	 9.285912e+00
4	 1.207612e+00	 3.686110e+00	 9.224302e+00
4	 1.539433e+00	 3.749448e+00	 9.555197e+00
4	 1.477759e+00	 3.750315e+00	 9.497564e+00
4	 1.416056e+00	 3.751056e+00	 9.438805e+00
4	 1.354327e+00	 3.751670e+00	 9.379345e+00
4	 1.292578e+00	 3.752156e+00	 9.319615e+00
4	 1.230814e+00	 3.752516e+00	 9.260043e+00
4	 1.568380e+00	 3.816005e+00	 9.579580e+00
4	 1.505550e+00	 3.816817e+00	 9.523901e+00
4	 1.442691e+00	 3.817507e+00	 9.467111e+00
4	 1.379808e+00	 3.818075e+00	 9.409627e+00
4	 1.316906e+00	 3.818522e+00	 9.351864e+00
4	 1.253989e+00	 3.818846e+00	 9.294242e+00
4	 1.597292e+00	 3.882480e+00	 9.602744e+00
4	 1.533307e+00	 3.883237e+00	 9.548932e+00
4	 1.469295e+00	 3.883878e+00	 9.494025e+00
4	 1.405259e+00	 3.884402e+00	 9.438429e+00
4	 1.341205e+00	 3.884810e+00	 9.382548e+00
4	 1.277137e+00	 3.885101e+00	 9.326791e+00
4	 1.626167e+00	 3.948871e+00	 9.624567e+00
4	 1.561030e+00	 3.949576e+00	 9.572539e+00
4	 1.495866e+00	 3.950168e+00	 9.519433e+00
4	 1.430680e+00	 3.950650e+00	 9.465642e+00
4	 1.365476e+00	 3.951021e+00	 9.411562e+00
4	 1.300259e+00	 3.951281e+00	 9.357590e+00
4	 1.655007e+00	 4.015180e+00	 9.644934e+00
4	 1.588718e+00	 4.015832e+00	 9.594612e+00
4	 1.522405e+00	 4.016379e+00	 9.543227e+00
4	 1.456070e+00	 4.016819e+00	 9.491165e+00
4	 1.389719e+00	 4.017155e+00	 9.438809e+00
4	 1.323355e+00	 4.017385e+00	 9.386546e+00
4	 1.207612e+00	 3.686110e+00	 9.224302e+00
4	 1.146992e+00	 3.686376e+00	 9.162851e+00
4	 1.086366e+00	 3.686510e+00	 9.101562e+00
4	 1.025740e+00	 3.686512e+00	 9.040911e+00
4	 9.651182e-01	 3.686383e+00	 8.981370e+00
4	 9.045066e-01	 3.686123e+00	 8.923414e+00
4	 1.230814e+00	 3.752516e+00	 9.260043e+00
4	 1.169039e+00	 3.752749e+00	 9.200610e+00
4	 1.107259e+00	 3.752856e+00	 9.141317e+00
4	 1.045479e+00	 3.752836e+00	 9.082627e+00
4	 9.837042e-01	 3.752689e+00	 9.025002e+00
4	 9.219388e-01	 3.752416e+00	 8.968903e+00
4	 1.253989e+00	 3.818846e+00	 9.294242e+00
4	 1.191062e+00	 3.819049e+00	 9.236739e+00
4	 1.128130e+00	 3.819131e+00	 9.179355e+00
4	 1.065198e+00	 3.819090e+00	 9.122542e+00
4	 1.002272e+00	 3.818929e+00	 9.066750e+00
4	 9.393543e-01	 3.818646e+00	 9.012429e+00
4	 1.277137e+00	 3.885101e+00	 9.326791e+00
4	 1.213060e+00	 3.885276e+00	 9.271135e+00
4	 1.148978e+00	 3.885334e+00	 9.215579e+00
4	 1.084897e+00	 3.885276e+00	 9.160563e+00
4	 1.020820e+00	 3.885102e+00	 9.106526e+00
4	 9.567532e-01	 3.884812e+00	 9.053909e+00
4	 1.300259e+00	 3.951281e+00	 9.357590e+00
4	 1.235034e+00	 3.951429e+00	 9.303702e+00
4	 1.169804e+00	 3.951467e+00	 9.249896e+00
4	 1.104575e+00	 3.951393e+00	 9.196603e+00
4	 1.039351e+00	 3.951209e+00	 9.144250e+00
4	 9.741353e-01	 3.950914e+00	 9.093265e+00
4	 1.323355e+00	 4.017385e+00	 9.386546e+00
4	 1.256983e+00	 4.017509e+00	 9.334352e+00
4	 1.190608e+00	 4.017528e+00	 9.282224e+00
4	 1.124233e+00	 4.017442e+00	 9.230582e+00
4	 1.057862e+00	 4.017250e+00	 9.179843e+00
4	 9.915008e-01	 4.016953e+00	 9.130425e+00
4	 9.045066e-01	 3.686123e+00	 8.923414e+00
4	 8.439101e-01	 3.685732e+00	 8.867150e+00
4	 7.833338e-01	 3.685211e+00	 8.812663e+00
4	 7.227830e-01	 3.684559e+00	 8.760392e+00
4	 6.622626e-01	 3.683776e+00	 8.710771e+00
4	 6.017779e-01	 3.682864e+00	 8.664232e+00
4	 9.219388e-01	 3.752416e+00	 8.968903e+00
4	 8.601883e-01	 3.752017e+00	 8.914434e+00
4	 7.984575e-01	 3.751493e+00	 8.861677e+00
4	 7.367516e-01	 3.750842e+00	 8.811059e+00
4	 6.750753e-01	 3.750066e+00	 8.763006e+00
4	 6.134338e-01	 3.749165e+00	 8.717939e+00
4	 9.393543e-01	 3.818646e+00	 9.012429e+00
4	 8.764516e-01	 3.818242e+00	 8.959678e+00
4	 8.135681e-01	 3.817717e+00	 8.908578e+00
4	 7.507087e-01	 3.817071e+00	 8.859545e+00
4	 6.878782e-01	 3.816305e+00	 8.812994e+00
4	 6.250813e-01	 3.815418e+00	 8.769338e+00
4	 9.567532e-01	 3.884812e+00	 9.053909e+00
4	 8.927000e-01	 3.884406e+00	 9.002805e+00
4	 8.286656e-01	 3.883884e+00	 8.953293e+00
4	 7.646545e-01	 3.883246e+00	 8.905780e+00
4	 7.006713e-01	 3.882493e+00	 8.860670e+00
4	 6.367206e-01	 3.881625e+00	 8.818367e+00
4	 9.741353e-01	 3.950914e+00	 9.093265e+00
4	 9.089336e-01	 3.950509e+00	 9.043741e+00
4	 8.437500e-01	 3.949993e+00	 8.995753e+00
4	 7.785889e-01	 3.949367e+00	 8.949698e+00
4	 7.134546e-01	 3.948631e+00	 8.905972e+00
4	 6.483516e-01	 3.947785e+00	 8.864968e+00
4	 9.915008e-01	 4.016953e+00	 9.130425e+00
4	 9.251524e-01	 4.016552e+00	 9.082418e+00
4	 8.588213e-01	 4.016045e+00	 9.035894e+00
4	 7.925119e-01	 4.015434e+00	 8.991240e+00
4	 7.262282e-01	 4.014718e+00	 8.948843e+00
4	 6.599744e-01	 4.013898e+00	 8.909088e+00
4	 6.017779e-01	 3.682864e+00	 8.664232e+00
4	 5.413340e-01	 3.681822e+00	 8.620956e+00
4	 4.809358e-01	 3.680651e+00	 8.581047e+00
4	 4.205884e-01	 3.679350e+00	 8.544823e+00
4	 3.602969e-01	 3.677921e+00	 8.512595e+00
4	 3.000663e-01	 3.676364e+00	 8.484669e+00
4	 6.134338e-01	 3.749165e+00	 8.717939e+00
4	 5.518318e-01	 3.748139e+00	 8.676033e+00
4	 4.902743e-01	 3.746988e+00	 8.637392e+00
4	 4.287663e-01	 3.745712e+00	 8.602322e+00
4	 3.673125e-01	 3.744313e+00	 8.571128e+00
4	 3.059179e-01	 3.742790e+00	 8.544110e+00
4	 6.250813e-01	 3.815418e+00	 8.769338e+00
4	 5.623228e-01	 3.814412e+00	 8.728747e+00
4	 4.996074e-01	 3.813286e+00	 8.691319e+00
4	 4.369399e-01	 3.812040e+00	 8.657356e+00
4	 3.743249e-01	 3.810675e+00	 8.627155e+00
4	 3.117672e-01	 3.809191e+00	 8.601009e+00
4	 6.367206e-01	 3.881625e+00	 8.818367e+00
4	 5.728070e-01	 3.880642e+00	 8.779036e+00
4	 5.089350e-01	 3.879544e+00	 8.742774e+00
4	 4.451091e-01	 3.878332e+00	 8.709873e+00
4	 3.813341e-01	 3.877006e+00	 8.680625e+00
4	 3.176142e-01	 3.875565e+00	 8.655316e+00
4	 6.483516e-01	 3.947785e+00	 8.864968e+00
4	 5.832843e-01	 3.946829e+00	 8.826848e+00
4	 5.182570e-01	 3.945764e+00	 8.791704e+00
4	 4.532741e-01	 3.944590e+00	 8.759825e+00
4	 3.883400e-01	 3.943306e+00	 8.731492e+00
4	 3.234589e-01	 3.941914e+00	 8.706987e+00
4	 6.599744e-01	 4.013898e+00	 8.909088e+00
4	 5.937548e-01	 4.012973e+00	 8.872130e+00
4	 5.275736e-01	 4.011945e+00	 8.838062e+00
4	 4.614348e-01	 4.010813e+00	 8.807164e+00
4	 3.953427e-01	 4.009577e+00	 8.779713e+00
4	 3.293014e-01	 4.008238e+00	 8.755981e+00
4	 3.000663e-01	 3.676364e+00	 8.484669e+00
4	 2.399016e-01	 3.674678e+00	 8.461208e+00
4	 1.798077e-01	 3.672865e+00	 8.442264e+00
4	 1.197895e-01	 3.670926e+00	 8.427974e+00
4	 5.985198e-02	 3.668859e+00	 8.418473e+00
4	 0.000000e+00	 3.666667e+00	 8.413887e+00
4	 3.059179e-01	 3.742790e+00	 8.544110e+00
4	 2.445872e-01	 3.741144e+00	 8.521426e+00
4	 1.833253e-01	 3.739375e+00	 8.503127e+00
4	 1.221370e-01	 3.737483e+00	 8.489349e+00
4	 6.102697e-02	 3.735469e+00	 8.480223e+00
4	 0.000000e+00	 3.733333e+00	 8.475873e+00
4	 3.117672e-01	 3.809191e+00	 8.601009e+00
4	 2.492714e-01	 3.807588e+00	 8.579070e+00
4	 1.868421e-01	 3.805867e+00	 8.561391e+00
4	 1.244841e-01	 3.804029e+00	 8.548102e+00
4	 6.220187e-02	 3.802073e+00	 8.539333e+00
4	 0.000000e+00	 3.800000e+00	 8.535206e+00
4	 3.176142e-01	 3.875565e+00	 8.655316e+00
4	 2.539541e-01	 3.874012e+00	 8.634094e+00
4	 1.903581e-01	 3.872344e+00	 8.617009e+00
4	 1.268309e-01	 3.870564e+00	 8.604190e+00
4	 6.337667e-02	 3.868672e+00	 8.595762e+00
4	 0.000000e+00	 3.866667e+00	 8.591846e+00
4	 3.234589e-01	 3.941914e+00	 8.706987e+00
4	 2.586352e-01	 3.940414e+00	 8.686454e+00
4	 1.938732e-01	 3.938805e+00	 8.669941e+00
4	 1.291772e-01	 3.937089e+00	 8.657573e+00
4	 6.455138e-02	 3.935265e+00	 8.649473e+00
4	 0.000000e+00	 3.933333e+00	 8.645756e+00
4	 3.293014e-01	 4.008238e+00	 8.755981e+00
4	 2.633150e-01	 4.006795e+00	 8.736111e+00
4	 1.973875e-01	 4.005250e+00	 8.720148e+00
4	 1.315232e-01	 4.003602e+00	 8.708215e+00
4	 6.572598e-02	 4.001852e+00	 8.700429e+00
4	 0.000000e+00	 4.000000e+00	 8.696902e+00
4	 3.926777e+00	 3.926777e+00	 1.046412e+01
4	 3.863979e+00	 3.931025e+00	 1.046277e+01
4	 3.801015e+00	 3.935177e+00	 1.046068e+01
4	 3.737887e+00	 3.939230e+00	 1.045778e+01
4	 3.674600e+00	 3.943184e+00	 1.045400e+01
4	 3.611157e+00	 3.947040e+00	 1.044927e+01
4	 3.998325e+00	 3.998325e+00	 1.044944e+01
4	 3.934199e+00	 4.002332e+00	 1.044852e+01
4	 3.869915e+00	 4.006246e+00	 1.044680e+01
4	 3.805476e+00	 4.010067e+00	 1.044426e+01
4	 3.740884e+00	 4.013795e+00	 1.044083e+01
4	 3.676145e+00	 4.017429e+00	 1.043649e+01
4	 4.069873e+00	 4.069873e+00	 1.043540e+01
4	 4.004414e+00	 4.073632e+00	 1.043481e+01
4	 3.938804e+00	 4.077304e+00	 1.043342e+01
4	 3.873047e+00	 4.080888e+00	 1.043122e+01
4	 3.807148e+00	 4.084383e+00	 1.042816e+01
4	 3.741108e+00	 4.087790e+00	 1.042422e+01
4	 4.141421e+00	 4.141421e+00	 1.042185e+01
4	 4.074622e+00	 4.144927e+00	 1.042154e+01
4	 4.007681e+00	 4.148350e+00	 1.042045e+01
4	 3.940603e+00	 4.151691e+00	 1.041857e+01
4	 3.873390e+00	 4.154949e+00	 1.041589e+01
4	 3.806045e+00	 4.158123e+00	 1.041238e+01
4	 4.212970e+00	 4.212970e+00	 1.040867e+01
4	 4.144824e+00	 4.216216e+00	 1.040859e+01
4	 4.076548e+00	 4.219385e+00	 1.040779e+01
4	 4.008142e+00	 4.222477e+00	 1.040625e+01
4	 3.939611e+00	 4.225492e+00	 1.040394e+01
4	 3.870958e+00	 4.228429e+00	 1.040086e+01
4	 4.284518e+00	 4.284518e+00	 1.039574e+01
4	 4.215021e+00	 4.287499e+00	 1.039589e+01
4	 4.145403e+00	 4.290408e+00	 1.039537e+01
4	 4.075665e+00	 4.293246e+00	 1.039416e+01
4	 4.005812e+00	 4.296013e+00	 1.039224e+01
4	 3.935845e+00	 4.298708e+00	 1.038956e+01
4	 3.611157e+00	 3.947040e+00	 1.044927e+01
4	 3.547562e+00	 3.950797e+00	 1.044353e+01
4	 3.483818e+00	 3.954454e+00	 1.043674e+01
4	 3.419931e+00	 3.958011e+00	 1.042888e+01
4	 3.355902e+00	 3.961467e+00	 1.041993e+01
4	 3.291737e+00	 3.964823e+00	 1.040984e+01
4	 3.676145e+00	 4.017429e+00	 1.043649e+01
4	 3.611261e+00	 4.020968e+00	 1.043119e+01
4	 3.546237e+00	 4.024413e+00	 1.042491e+01
4	 3.481075e+00	 4.027763e+00	 1.041761e+01
4	 3.415780e+00	 4.031018e+00	 1.040925e+01
4	 3.350355e+00	 4.034177e+00	 1.039979e+01
4	 3.741108e+00	 4.087790e+00	 1.042422e+01
4	 3.674932e+00	 4.091107e+00	 1.041939e+01
4	 3.608622e+00	 4.094335e+00	 1.041361e+01
4	 3.542184e+00	 4.097474e+00	 1.040685e+01
4	 3.475619e+00	 4.100523e+00	 1.039905e+01
4	 3.408932e+00	 4.103482e+00	 1.039018e+01
4	 3.806045e+00	 4.158123e+00	 1.041238e+01
4	 3.738573e+00	 4.161214e+00	 1.040801e+01
4	 3.670975e+00	 4.164221e+00	 1.040272e+01
4	 3.603256e+00	 4.167144e+00	 1.039646e+01
4	 3.535419e+00	 4.169983e+00	 1.038920e+01
4	 3.467466e+00	 4.172738e+00	 1.038089e+01
4	 3.870958e+00	 4.228429e+00	 1.040086e+01
4	 3.802185e+00	 4.231289e+00	 1.039693e+01
4	 3.733296e+00	 4.234070e+00	 1.039211e+01
4	 3.664293e+00	 4.236774e+00	 1.038633e+01
4	 3.595180e+00	 4.239398e+00	 1.037956e+01
4	 3.525960e+00	 4.241944e+00	 1.037177e+01
4	 3.935845e+00	 4.298708e+00	 1.038956e+01
4	 3.865768e+00	 4.301332e+00	 1.038606e+01
4	 3.795583e+00	 4.303883e+00	 1.038166e+01
4	 3.725294e+00	 4.306362e+00	 1.037632e+01
4	 3.654902e+00	 4.308768e+00	 1.037002e+01
4	 3.584412e+00	 4.311102e+00	 1.036271e+01
4	 3.291737e+00	 3.964823e+00	 1.040984e+01
4	 3.227440e+00	 3.968078e+00	 1.039847e+01
4	 3.163013e+00	 3.971231e+00	 1.038570e+01
4	 3.098462e+00	 3.974282e+00	 1.037154e+01
4	 3.033790e+00	 3.977232e+00	 1.035599e+01
4	 2.969001e+00	 3.980079e+00	 1.033905e+01
4	 3.350355e+00	 4.034177e+00	 1.039979e+01
4	 3.284804e+00	 4.037240e+00	 1.038908e+01
4	 3.219131e+00	 4.040207e+00	 1.037702e+01
4	 3.153340e+00	 4.043078e+00	 1.036359e+01
4	 3.087434e+00	 4.045852e+00	 1.034881e+01
4	 3.021417e+00	 4.048529e+00	 1.033269e+01
4	 3.408932e+00	 4.103482e+00	 1.039018e+01
4	 3.342125e+00	 4.106350e+00	 1.038010e+01
4	 3.275204e+00	 4.109128e+00	 1.036869e+01
4	 3.208170e+00	 4.111815e+00	 1.035597e+01
4	 3.141029e+00	 4.114410e+00	 1.034193e+01
4	 3.073782e+00	 4.116914e+00	 1.032659e+01
4	 3.467466e+00	 4.172738e+00	 1.038089e+01
4	 3.399402e+00	 4.175407e+00	 1.037139e+01
4	 3.331230e+00	 4.177992e+00	 1.036061e+01
4	 3.262953e+00	 4.180491e+00	 1.034856e+01
4	 3.194574e+00	 4.182906e+00	 1.033523e+01
4	 3.126098e+00	 4.185234e+00	 1.032064e+01
4	 3.525960e+00	 4.241944e+00	 1.037177e+01
4	 3.456636e+00	 4.244412e+00	 1.036283e+01
4	 3.387211e+00	 4.246800e+00	 1.035265e+01
4	 3.317688e+00	 4.249109e+00	 1.034124e+01
4	 3.248071e+00	 4.251338e+00	 1.032859e+01
4	 3.178363e+00	 4.253488e+00	 1.031472e+01
4	 3.584412e+00	 4.311102e+00	 1.036271e+01
4	 3.513826e+00	 4.313363e+00	 1.035430e+01
4	 3.443146e+00	 4.315552e+00	 1.034469e+01
4	 3.372377e+00	 4.317667e+00	 1.033389e+01
4	 3.301520e+00	 4.319709e+00	 1.032190e+01
4	 3.230579e+00	 4.321678e+00	 1.030871e+01
4	 2.969001e+00	 3.980079e+00	 1.033905e+01
4	 2.904099e+00	 3.982823e+00	 1.032055e+01
4	 2.839089e+00	 3.985464e+00	 1.030033e+01
4	 2.773974e+00	 3.988003e+00	 1.027845e+01
4	 2.708758e+00	 3.990437e+00	 1.025495e+01
4	 2.643446e+00	 3.992769e+00	 1.022990e+01
4	 3.021417e+00	 4.048529e+00	 1.033269e+01
4	 2.955293e+00	 4.051109e+00	 1.031505e+01
4	 2.889066e+00	 4.053592e+00	 1.029574e+01
4	 2.822739e+00	 4.055976e+00	 1.027481e+01
4	 2.756317e+00	 4.058263e+00	 1.025231e+01
4	 2.689804e+00	 4.060452e+00	 1.022830e+01
4	 3.073782e+00	 4.116914e+00	 1.032659e+01
4	 3.006435e+00	 4.119327e+00	 1.030978e+01
4	 2.938991e+00	 4.121648e+00	 1.029134e+01
4	 2.871452e+00	 4.123877e+00	 1.027132e+01
4	 2.803824e+00	 4.126014e+00	 1.024978e+01
4	 2.736110e+00	 4.128058e+00	 1.022676e+01
4	 3.126098e+00	 4.185234e+00	 1.032064e+01
4	 3.057526e+00	 4.187477e+00	 1.030461e+01
4	 2.988864e+00	 4.189634e+00	 1.028701e+01
4	 2.920113e+00	 4.191705e+00	 1.026787e+01
4	 2.851279e+00	 4.193689e+00	 1.024724e+01
4	 2.782363e+00	 4.195587e+00	 1.022518e+01
4	 3.178363e+00	 4.253488e+00	 1.031472e+01
4	 3.108567e+00	 4.255559e+00	 1.029944e+01
4	 3.038685e+00	 4.257549e+00	 1.028263e+01
4	 2.968722e+00	 4.259460e+00	 1.026433e+01
4	 2.898681e+00	 4.261290e+00	 1.024458e+01
4	 2.828564e+00	 4.263040e+00	 1.022343e+01
4	 3.230579e+00	 4.321678e+00	 1.030871e+01
4	 3.159556e+00	 4.323573e+00	 1.029416e+01
4	 3.088455e+00	 4.325394e+00	 1.027811e+01
4	 3.017279e+00	 4.327142e+00	 1.026060e+01
4	 2.946030e+00	 4.328816e+00	 1.024169e+01
4	 2.874712e+00	 4.330416e+00	 1.022141e+01
4	 2.643446e+00	 3.992769e+00	 1.022990e+01
4	 2.578041e+00	 3.994996e+00	 1.020306e+01
4	 2.512548e+00	 3.997119e+00	 1.017426e+01
4	 2.446971e+00	 3.999138e+00	 1.014362e+01
4	 2.381314e+00	 4.001053e+00	 1.011126e+01
4	 2.315581e+00	 4.002862e+00	 1.007731e+01
4	 2.689804e+00	 4.060452e+00	 1.022830e+01
4	 2.623203e+00	 4.062542e+00	 1.020255e+01
4	 2.556519e+00	 4.064534e+00	 1.017488e+01
4	 2.489754e+00	 4.066427e+00	 1.014543e+01
4	 2.422914e+00	 4.068222e+00	 1.011430e+01
4	 2.356002e+00	 4.069917e+00	 1.008163e+01
4	 2.736110e+00	 4.128058e+00	 1.022676e+01
4	 2.668313e+00	 4.130010e+00	 1.020205e+01
4	 2.600437e+00	 4.131869e+00	 1.017548e+01
4	 2.532486e+00	 4.133635e+00	 1.014717e+01
4	 2.464463e+00	 4.135308e+00	 1.011722e+01
4	 2.396373e+00	 4.136889e+00	 1.008577e+01
4	 2.782363e+00	 4.195587e+00	 1.022518e+01
4	 2.713370e+00	 4.197399e+00	 1.020147e+01
4	 2.644303e+00	 4.199124e+00	 1.017594e+01
4	 2.575166e+00	 4.200762e+00	 1.014872e+01
4	 2.505962e+00	 4.202313e+00	 1.011991e+01
4	 2.436694e+00	 4.203777e+00	 1.008962e+01
4	 2.828564e+00	 4.263040e+00	 1.022343e+01
4	 2.758375e+00	 4.264710e+00	 1.020067e+01
4	 2.688118e+00	 4.266299e+00	 1.017615e+01
4	 2.617794e+00	 4.267807e+00	 1.014997e+01
4	 2.547409e+00	 4.269235e+00	 1.012224e+01
4	 2.476965e+00	 4.270582e+00	 1.009307e+01
4	 2.874712e+00	 4.330416e+00	 1.022141e+01
4	 2.803328e+00	 4.331942e+00	 1.019957e+01
4	 2.731880e+00	 4.333394e+00	 1.017600e+01
4	 2.660372e+00	 4.334772e+00	 1.015082e+01
4	 2.588806e+00	 4.336075e+00	 1.012413e+01
4	 2.517186e+00	 4.337304e+00	 1.009603e+01
4	 2.315581e+00	 4.002862e+00	 1.007731e+01
4	 2.249776e+00	 4.004568e+00	 1.004153e+01
4	 2.183904e+00	 4.006168e+00	 1.000372e+01
4	 2.117969e+00	 4.007663e+00	 9.964106e+00
4	 2.051975e+00	 4.009053e+00	 9.922897e+00
4	 1.985926e+00	 4.010338e+00	 9.880310e+00
4	 2.356002e+00	 4.069917e+00	 1.008163e+01
4	 2.289022e+00	 4.071514e+00	 1.004716e+01
4	 2.221979e+00	 4.073011e+00	 1.001073e+01
4	 2.154875e+00	 4.074409e+00	 9.972528e+00
4	 2.087716e+00	 4.075707e+00	 9.932770e+00
4	 2.020504e+00	 4.076906e+00	 9.891665e+00
4	 2.396373e+00	 4.136889e+00	 1.008577e+01
4	 2.328219e+00	 4.138376e+00	 1.005257e+01
4	 2.260005e+00	 4.139769e+00	 1.001745e+01
4	 2.191734e+00	 4.141070e+00	 9.980601e+00
4	 2.123411e+00	 4.142277e+00	 9.942233e+00
4	 2.055039e+00	 4.143390e+00	 9.902548e+00
4	 2.436694e+00	 4.203777e+00	 1.008962e+01
4	 2.367367e+00	 4.205154e+00	 1.005763e+01
4	 2.297983e+00	 4.206443e+00	 1.002377e+01
4	 2.228547e+00	 4.207646e+00	 9.988217e+00
4	 2.159061e+00	 4.208761e+00	 9.951181e+00
4	 2.089529e+00	 4.209788e+00	 9.912856e+00
4	 2.476965e+00	 4.270582e+00	 1.009307e+01
4	 2.406465e+00	 4.271848e+00	 1.006224e+01
4	 2.335913e+00	 4.273033e+00	 1.002958e+01
4	 2.265312e+00	 4.274137e+00	 9.995275e+00
4	 2.194665e+00	 4.275160e+00	 9.959515e+00
4	 2.123976e+00	 4.276102e+00	 9.922493e+00
4	 2.517186e+00	 4.337304e+00	 1.009603e+01
4	 2.445515e+00	 4.338459e+00	 1.006631e+01
4	 2.373795e+00	 4.339539e+00	 1.003480e+01
4	 2.302031e+00	 4.340544e+00	 1.000168e+01
4	 2.230224e+00	 4.341475e+00	 9.967140e+00
4	 2.158378e+00	 4.342331e+00	 9.931367e+00
4	 1.985926e+00	 4.010338e+00	 9.880310e+00
4	 1.919826e+00	 4.011517e+00	 9.836129e+00
4	 1.853680e+00	 4.012591e+00	 9.790194e+00
4	 1.787492e+00	 4.013560e+00	 9.742810e+00
4	 1.721267e+00	 4.014423e+00	 9.694287e+00
4	 1.655007e+00	 4.015180e+00	 9.644934e+00
4	 2.020504e+00	 4.076906e+00	 9.891665e+00
4	 1.953245e+00	 4.078006e+00	 9.849001e+00
4	 1.885942e+00	 4.079006e+00	 9.804620e+00
4	 1.818600e+00	 4.079906e+00	 9.758821e+00
4	 1.751221e+00	 4.080706e+00	 9.711904e+00
4	 1.683811e+00	 4.081407e+00	 9.664170e+00
4	 2.055039e+00	 4.143390e+00	 9.902548e+00
4	 1.986622e+00	 4.144410e+00	 9.861337e+00
4	 1.918163e+00	 4.145335e+00	 9.818448e+00
4	 1.849668e+00	 4.146168e+00	 9.774168e+00
4	 1.781138e+00	 4.146906e+00	 9.728790e+00
4	 1.712579e+00	 4.147551e+00	 9.682608e+00
4	 2.089529e+00	 4.209788e+00	 9.912856e+00
4	 2.019956e+00	 4.210728e+00	 9.873039e+00
4	 1.950343e+00	 4.211581e+00	 9.831577e+00
4	 1.880696e+00	 4.212346e+00	 9.788754e+00
4	 1.811018e+00	 4.213023e+00	 9.744853e+00
4	 1.741311e+00	 4.213613e+00	 9.700160e+00
4	 2.123976e+00	 4.276102e+00	 9.922493e+00
4	 2.053247e+00	 4.276963e+00	 9.884010e+00
4	 1.982483e+00	 4.277742e+00	 9.843918e+00
4	 1.911686e+00	 4.278440e+00	 9.802491e+00
4	 1.840860e+00	 4.279057e+00	 9.760007e+00
4	 1.770008e+00	 4.279593e+00	 9.716741e+00
4	 2.158378e+00	 4.342331e+00	 9.931367e+00
4	 2.086496e+00	 4.343113e+00	 9.894162e+00
4	 2.014581e+00	 4.343819e+00	 9.855383e+00
4	 1.942636e+00	 4.344451e+00	 9.815295e+00
4	 1.870664e+00	 4.345008e+00	 9.774168e+00
4	 1.798669e+00	 4.345491e+00	 9.732273e+00
4	 1.655007e+00	 4.015180e+00	 9.644934e+00
4	 1.588718e+00	 4.015832e+00	 9.594612e+00
4	 1.522405e+00	 4.016379e+00	 9.543227e+00
4	 1.456070e+00	 4.016819e+00	 9.491165e+00
4	 1.389719e+00	 4.017155e+00	 9.438809e+00
4	 1.323355e+00	 4.017385e+00	 9.386546e+00
4	 1.683811e+00	 4.081407e+00	 9.664170e+00
4	 1.616373e+00	 4.082008e+00	 9.615481e+00
4	 1.548911e+00	 4.082509e+00	 9.565746e+00
4	 1.481430e+00	 4.082910e+00	 9.515339e+00
4	 1.413933e+00	 4.083212e+00	 9.464636e+00
4	 1.346425e+00	 4.083414e+00	 9.414012e+00
4	 1.712579e+00	 4.147551e+00	 9.682608e+00
4	 1.643994e+00	 4.148102e+00	 9.635486e+00
4	 1.575386e+00	 4.148559e+00	 9.587334e+00
4	 1.506760e+00	 4.148922e+00	 9.538516e+00
4	 1.438119e+00	 4.149192e+00	 9.489398e+00
4	 1.369468e+00	 4.149367e+00	 9.440347e+00
4	 1.741311e+00	 4.213613e+00	 9.700160e+00
4	 1.671580e+00	 4.214115e+00	 9.654541e+00
4	 1.601829e+00	 4.214529e+00	 9.607907e+00
4	 1.532060e+00	 4.214856e+00	 9.560614e+00
4	 1.462277e+00	 4.215095e+00	 9.513019e+00
4	 1.392485e+00	 4.215246e+00	 9.465479e+00
4	 1.770008e+00	 4.279593e+00	 9.716741e+00
4	 1.699133e+00	 4.280047e+00	 9.672564e+00
4	 1.628239e+00	 4.280420e+00	 9.627388e+00
4	 1.557330e+00	 4.280711e+00	 9.581559e+00
4	 1.486408e+00	 4.280922e+00	 9.535427e+00
4	 1.415476e+00	 4.281051e+00	 9.489337e+00
4	 1.798669e+00	 4.345491e+00	 9.732273e+00
4	 1.726652e+00	 4.345898e+00	 9.689480e+00
4	 1.654618e+00	 4.346231e+00	 9.645703e+00
4	 1.582570e+00	 4.346489e+00	 9.601281e+00
4	 1.510510e+00	 4.346672e+00	 9.556552e+00
4	 1.438441e+00	 4.346780e+00	 9.511857e+00
4	 1.323355e+00	 4.017385e+00	 9.386546e+00
4	 1.256983e+00	 4.017509e+00	 9.334352e+00
4	 1.190608e+00	 4.017528e+00	 9.282224e+00
4	 1.124233e+00	 4.017442e+00	 9.230582e+00
4	 1.057862e+00	 4.017250e+00	 9.179843e+00
4	 9.915008e-01	 4.016953e+00	 9.130425e+00
4	 1.346425e+00	 4.083414e+00	 9.414012e+00
4	 1.278908e+00	 4.083516e+00	 9.363442e+00
4	 1.211389e+00	 4.083518e+00	 9.312925e+00
4	 1.143870e+00	 4.083421e+00	 9.262868e+00
4	 1.076355e+00	 4.083225e+00	 9.213679e+00
4	 1.008850e+00	 4.082929e+00	 9.165765e+00
4	 1.369468e+00	 4.149367e+00	 9.440347e+00
4	 1.300809e+00	 4.149450e+00	 9.391338e+00
4	 1.232148e+00	 4.149438e+00	 9.342366e+00
4	 1.163487e+00	 4.149333e+00	 9.293831e+00
4	 1.094830e+00	 4.149134e+00	 9.246131e+00
4	 1.026182e+00	 4.148842e+00	 9.199664e+00
4	 1.392485e+00	 4.215246e+00	 9.465479e+00
4	 1.322686e+00	 4.215310e+00	 9.417968e+00
4	 1.252884e+00	 4.215287e+00	 9.370482e+00
4	 1.183083e+00	 4.215176e+00	 9.323409e+00
4	 1.113287e+00	 4.214977e+00	 9.277140e+00
4	 1.043497e+00	 4.214692e+00	 9.232062e+00
4	 1.415476e+00	 4.281051e+00	 9.489337e+00
4	 1.344539e+00	 4.281099e+00	 9.443265e+00
4	 1.273599e+00	 4.281065e+00	 9.397207e+00
4	 1.202660e+00	 4.280951e+00	 9.351541e+00
4	 1.131724e+00	 4.280755e+00	 9.306648e+00
4	 1.060797e+00	 4.280478e+00	 9.262906e+00
4	 1.438441e+00	 4.346780e+00	 9.511857e+00
4	 1.366367e+00	 4.346814e+00	 9.467169e+00
4	 1.294291e+00	 4.346773e+00	 9.422483e+00
4	 1.222216e+00	 4.346657e+00	 9.378170e+00
4	 1.150144e+00	 4.346467e+00	 9.334600e+00
4	 1.078079e+00	 4.346202e+00	 9.292144e+00
4	 9.915008e-01	 4.016953e+00	 9.130425e+00
4	 9.251524e-01	 4.016552e+00	 9.082418e+00
4	 8.588213e-01	 4.016045e+00	 9.035894e+00
4	 7.925119e-01	 4.015434e+00	 8.991240e+00
4	 7.262282e-01	 4.014718e+00	 8.948843e+00
4	 6.599744e-01	 4.013898e+00	 8.909088e+00
4	 1.008850e+00	 4.082929e+00	 9.165765e+00
4	 9.413563e-01	 4.082534e+00	 9.119215e+00
4	 8.738796e-01	 4.082040e+00	 9.074096e+00
4	 8.064235e-01	 4.081447e+00	 9.030788e+00
4	 7.389919e-01	 4.080755e+00	 8.989670e+00
4	 6.715890e-01	 4.079964e+00	 8.951114e+00
4	 1.026182e+00	 4.148842e+00	 9.199664e+00
4	 9.575454e-01	 4.148457e+00	 9.154512e+00
4	 8.889248e-01	 4.147978e+00	 9.110745e+00
4	 8.203237e-01	 4.147406e+00	 9.068732e+00
4	 7.517460e-01	 4.146741e+00	 9.028841e+00
4	 6.831953e-01	 4.145983e+00	 8.991440e+00
4	 1.043497e+00	 4.214692e+00	 9.232062e+00
4	 9.737198e-01	 4.214319e+00	 9.188256e+00
4	 9.039570e-01	 4.213858e+00	 9.145788e+00
4	 8.342126e-01	 4.213311e+00	 9.105020e+00
4	 7.644903e-01	 4.212677e+00	 9.066311e+00
4	 6.947935e-01	 4.211956e+00	 9.030020e+00
4	 1.060797e+00	 4.280478e+00	 9.262906e+00
4	 9.898794e-01	 4.280121e+00	 9.220394e+00
4	 9.189762e-01	 4.279682e+00	 9.179177e+00
4	 8.480902e-01	 4.279163e+00	 9.139606e+00
4	 7.772249e-01	 4.278563e+00	 9.102035e+00
4	 7.063834e-01	 4.277882e+00	 9.066813e+00
4	 1.078079e+00	 4.346202e+00	 9.292144e+00
4	 1.006024e+00	 4.345863e+00	 9.250878e+00
4	 9.339823e-01	 4.345449e+00	 9.210864e+00
4	 8.619565e-01	 4.344960e+00	 9.172448e+00
4	 7.899497e-01	 4.344398e+00	 9.135972e+00
4	 7.179651e-01	 4.343761e+00	 9.101779e+00
4	 6.599744e-01	 4.013898e+00	 8.909088e+00
4	 5.937548e-01	 4.012973e+00	 8.872130e+00
4	 5.275736e-01	 4.011945e+00	 8.838062e+00
4	 4.614348e-01	 4.010813e+00	 8.807164e+00
4	 3.953427e-01	 4.009577e+00	 8.779713e+00
4	 3.293014e-01	 4.008238e+00	 8.755981e+00
4	 6.715890e-01	 4.079964e+00	 8.951114e+00
4	 6.042186e-01	 4.079075e+00	 8.915275e+00
4	 5.368847e-01	 4.078087e+00	 8.882242e+00
4	 4.695913e-01	 4.077001e+00	 8.852288e+00
4	 4.023423e-01	 4.075817e+00	 8.825683e+00
4	 3.351416e-01	 4.074535e+00	 8.802695e+00
4	 6.831953e-01	 4.145983e+00	 8.991440e+00
4	 6.146755e-01	 4.145133e+00	 8.956677e+00
4	 5.461903e-01	 4.144190e+00	 8.924638e+00
4	 4.777434e-01	 4.143154e+00	 8.895592e+00
4	 4.093386e-01	 4.142026e+00	 8.869802e+00
4	 3.409795e-01	 4.140807e+00	 8.847530e+00
4	 6.947935e-01	 4.211956e+00	 9.030020e+00
4	 6.251257e-01	 4.211148e+00	 8.996292e+00
4	 5.554904e-01	 4.210254e+00	 8.965211e+00
4	 4.858913e-01	 4.209273e+00	 8.937039e+00
4	 4.163317e-01	 4.208206e+00	 8.912033e+00
4	 3.468152e-01	 4.207052e+00	 8.890448e+00
4	 7.063834e-01	 4.277882e+00	 9.066813e+00
4	 6.355690e-01	 4.277121e+00	 9.034082e+00
4	 5.647851e-01	 4.276279e+00	 9.003923e+00
4	 4.940349e-01	 4.275357e+00	 8.976592e+00
4	 4.233216e-01	 4.274355e+00	 8.952341e+00
4	 3.526486e-01	 4.273273e+00	 8.931419e+00
4	 7.179651e-01	 4.343761e+00	 9.101779e+00
4	 6.460056e-01	 4.343050e+00	 9.070008e+00
4	 5.740743e-01	 4.342265e+00	 9.040738e+00
4	 5.021742e-01	 4.341406e+00	 9.014218e+00
4	 4.303083e-01	 4.340474e+00	 8.990695e+00
4	 3.584797e-01	 4.339467e+00	 8.970411e+00
4	 3.293014e-01	 4.008238e+00	 8.755981e+00
4	 2.633150e-01	 4.006795e+00	 8.736111e+00
4	 1.973875e-01	 4.005250e+00	 8.720148e+00
4	 1.315232e-01	 4.003602e+00	 8.708215e+00
4	 6.572598e-02	 4.001852e+00	 8.700429e+00
4	 0.000000e+00	 4.000000e+00	 8.696902e+00
4	 3.351416e-01	 4.074535e+00	 8.802695e+00
4	 2.679932e-01	 4.073156e+00	 8.783463e+00
4	 2.009009e-01	 4.071679e+00	 8.768030e+00
4	 1.338688e-01	 4.070105e+00	 8.756515e+00
4	 6.690049e-02	 4.068434e+00	 8.749030e+00
4	 0.000000e+00	 4.066667e+00	 8.745686e+00
4	 3.409795e-01	 4.140807e+00	 8.847530e+00
4	 2.726699e-01	 4.139495e+00	 8.828910e+00
4	 2.044135e-01	 4.138091e+00	 8.813987e+00
4	 1.362140e-01	 4.136597e+00	 8.802873e+00
4	 6.807490e-02	 4.135010e+00	 8.795678e+00
4	 0.000000e+00	 4.133333e+00	 8.792511e+00
4	 3.468152e-01	 4.207052e+00	 8.890448e+00
4	 2.773452e-01	 4.205813e+00	 8.872419e+00
4	 2.079253e-01	 4.204488e+00	 8.857984e+00
4	 1.385588e-01	 4.203077e+00	 8.847256e+00
4	 6.924921e-02	 4.201581e+00	 8.840342e+00
4	 0.000000e+00	 4.200000e+00	 8.837344e+00
4	 3.526486e-01	 4.273273e+00	 8.931419e+00
4	 2.820190e-01	 4.272111e+00	 8.913956e+00
4	 2.114361e-01	 4.270869e+00	 8.899993e+00
4	 1.409032e-01	 4.269547e+00	 8.889636e+00
4	 7.042342e-02	 4.268147e+00	 8.882991e+00
4	 0.000000e+00	 4.266667e+00	 8.880157e+00
4	 3.584797e-01	 4.339467e+00	 8.970411e+00
4	 2.866913e-01	 4.338387e+00	 8.953494e+00
4	 2.149462e-01	 4.337233e+00	 8.939984e+00
4	 1.432473e-01	 4.336007e+00	 8.929985e+00
4	 7.159754e-02	 4.334706e+00	 8.923598e+00
4	 0.000000e+00	 4.333333e+00	 8.920922e+00
4	 4.284518e+00	 4.284518e+00	 1.039574e+01
4	 4.215021e+00	 4.287499e+00	 1.039589e+01
4	 4.145403e+00	 4.290408e+00	 1.039537e+01
4	 4.075665e+00	 4.293246e+00	 1.039416e+01
4	 4.005812e+00	 4.296013e+00	 1.039224e+01
4	 3.935845e+00	 4.298708e+00	 1.038956e+01
4	 4.356066e+00	 4.356066e+00	 1.038314e+01
4	 4.285212e+00	 4.358775e+00	 1.038352e+01
4	 4.214246e+00	 4.361420e+00	 1.038330e+01
4	 4.143172e+00	 4.363999e+00	 1.038242e+01
4	 4.071991e+00	 4.366512e+00	 1.038086e+01
4	 4.000707e+00	 4.368960e+00	 1.037856e+01
4	 4.427614e+00	 4.427614e+00	 1.037097e+01
4	 4.355397e+00	 4.430046e+00	 1.037160e+01
4	 4.283079e+00	 4.432419e+00	 1.037166e+01
4	 4.210662e+00	 4.434734e+00	 1.037110e+01
4	 4.138150e+00	 4.436989e+00	 1.036987e+01
4	 4.065544e+00	 4.439185e+00	 1.036793e+01
4	 4.499162e+00	 4.499162e+00	 1.035914e+01
4	 4.425576e+00	 4.501311e+00	 1.036004e+01
4	 4.351900e+00	 4.503408e+00	 1.036038e+01
4	 4.278137e+00	 4.505452e+00	 1.036012e+01
4	 4.204288e+00	 4.507443e+00	 1.035920e+01
4	 4.130355e+00	 4.509382e+00	 1.035758e+01
4	 4.570711e+00	 4.570711e+00	 1.034759e+01
4	 4.495749e+00	 4.572570e+00	 1.034874e+01
4	 4.420710e+00	 4.574384e+00	 1.034935e+01
4	 4.345594e+00	 4.576152e+00	 1.034937e+01
4	 4.270404e+00	 4.577875e+00	 1.034874e+01
4	 4.195142e+00	 4.579552e+00	 1.034743e+01
4	 4.642259e+00	 4.642259e+00	 1.033624e+01
4	 4.565917e+00	 4.643823e+00	 1.033764e+01
4	 4.489509e+00	 4.645349e+00	 1.033849e+01
4	 4.413036e+00	 4.646836e+00	 1.033877e+01
4	 4.336500e+00	 4.648285e+00	 1.033842e+01
4	 4.259903e+00	 4.649694e+00	 1.033740e+01
4	 3.935845e+00	 4.298708e+00	 1.038956e+01
4	 3.865768e+00	 4.301332e+00	 1.038606e+01
4	 3.795583e+00	 4.303883e+00	 1.038166e+01
4	 3.725294e+00	 4.306362e+00	 1.037632e+01
4	 3.654902e+00	 4.308768e+00	 1.037002e+01
4	 3.584412e+00	 4.311102e+00	 1.036271e+01
4	 4.000707e+00	 4.368960e+00	 1.037856e+01
4	 3.929322e+00	 4.371342e+00	 1.037545e+01
4	 3.857838e+00	 4.373659e+00	 1.037145e+01
4	 3.786258e+00	 4.375909e+00	 1.036653e+01
4	 3.714586e+00	 4.378093e+00	 1.036066e+01
4	 3.642823e+00	 4.380211e+00	 1.035382e+01
4	 4.065544e+00	 4.439185e+00	 1.036793e+01
4	 3.992846e+00	 4.441321e+00	 1.036518e+01
4	 3.920060e+00	 4.443398e+00	 1.036156e+01
4	 3.847187e+00	 4.445416e+00	 1.035704e+01
4	 3.774231e+00	 4.447373e+00	 1.035161e+01
4	 3.701192e+00	 4.449271e+00	 1.034524e+01
4	 4.130355e+00	 4.509382e+00	 1.035758e+01
4	 4.056342e+00	 4.511268e+00	 1.035517e+01
4	 3.982250e+00	 4.513101e+00	 1.035192e+01
4	 3.908081e+00	 4.514881e+00	 1.034780e+01
4	 3.833837e+00	 4.516609e+00	 1.034279e+01
4	 3.759520e+00	 4.518283e+00	 1.033689e+01
4	 4.195142e+00	 4.579552e+00	 1.034743e+01
4	 4.119809e+00	 4.581182e+00	 1.034535e+01
4	 4.044407e+00	 4.582767e+00	 1.034246e+01
4	 3.968938e+00	 4.584306e+00	 1.033873e+01
4	 3.893404e+00	 4.585799e+00	 1.033415e+01
4	 3.817807e+00	 4.587245e+00	 1.032870e+01
4	 4.259903e+00	 4.649694e+00	 1.033740e+01
4	 4.183246e+00	 4.651065e+00	 1.033564e+01
4	 4.106531e+00	 4.652397e+00	 1.033311e+01
4	 4.029760e+00	 4.653690e+00	 1.032977e+01
4	 3.952933e+00	 4.654944e+00	 1.032560e+01
4	 3.876053e+00	 4.656159e+00	 1.032059e+01
4	 3.584412e+00	 4.311102e+00	 1.036271e+01
4	 3.513826e+00	 4.313363e+00	 1.035430e+01
4	 3.443146e+00	 4.315552e+00	 1.034469e+01
4	 3.372377e+00	 4.317667e+00	 1.033389e+01
4	 3.301520e+00	 4.319709e+00	 1.032190e+01
4	 3.230579e+00	 4.321678e+00	 1.030871e+01
4	 3.642823e+00	 4.380211e+00	 1.035382e+01
4	 3.570972e+00	 4.382263e+00	 1.034592e+01
4	 3.499036e+00	 4.384248e+00	 1.033687e+01
4	 3.427017e+00	 4.386166e+00	 1.032667e+01
4	 3.354919e+00	 4.388017e+00	 1.031530e+01
4	 3.282744e+00	 4.389802e+00	 1.030277e+01
4	 3.701192e+00	 4.449271e+00	 1.034524e+01
4	 3.628074e+00	 4.451109e+00	 1.033785e+01
4	 3.554880e+00	 4.452887e+00	 1.032934e+01
4	 3.481611e+00	 4.454605e+00	 1.031970e+01
4	 3.408270e+00	 4.456263e+00	 1.030893e+01
4	 3.334860e+00	 4.457860e+00	 1.029703e+01
4	 3.759520e+00	 4.518283e+00	 1.033689e+01
4	 3.685133e+00	 4.519904e+00	 1.032999e+01
4	 3.610678e+00	 4.521471e+00	 1.032200e+01
4	 3.536157e+00	 4.522986e+00	 1.031291e+01
4	 3.461572e+00	 4.524447e+00	 1.030272e+01
4	 3.386926e+00	 4.525854e+00	 1.029141e+01
4	 3.817807e+00	 4.587245e+00	 1.032870e+01
4	 3.742149e+00	 4.588646e+00	 1.032227e+01
4	 3.666432e+00	 4.590000e+00	 1.031478e+01
4	 3.590657e+00	 4.591307e+00	 1.030621e+01
4	 3.514826e+00	 4.592568e+00	 1.029656e+01
4	 3.438942e+00	 4.593783e+00	 1.028583e+01
4	 3.876053e+00	 4.656159e+00	 1.032059e+01
4	 3.799121e+00	 4.657335e+00	 1.031461e+01
4	 3.722139e+00	 4.658472e+00	 1.030759e+01
4	 3.645109e+00	 4.659570e+00	 1.029952e+01
4	 3.568031e+00	 4.660628e+00	 1.029039e+01
4	 3.490909e+00	 4.661647e+00	 1.028021e+01
4	 3.230579e+00	 4.321678e+00	 1.030871e+01
4	 3.159556e+00	 4.323573e+00	 1.029416e+01
4	 3.088455e+00	 4.325394e+00	 1.027811e+01
4	 3.017279e+00	 4.327142e+00	 1.026060e+01
4	 2.946030e+00	 4.328816e+00	 1.024169e+01
4	 2.874712e+00	 4.330416e+00	 1.022141e+01
4	 3.282744e+00	 4.389802e+00	 1.030277e+01
4	 3.210495e+00	 4.391519e+00	 1.028890e+01
4	 3.138174e+00	 4.393169e+00	 1.027358e+01
4	 3.065784e+00	 4.394752e+00	 1.025684e+01
4	 2.993328e+00	 4.396268e+00	 1.023872e+01
4	 2.920808e+00	 4.397716e+00	 1.021928e+01
4	 3.334860e+00	 4.457860e+00	 1.029703e+01
4	 3.261382e+00	 4.459397e+00	 1.028382e+01
4	 3.187840e+00	 4.460874e+00	 1.026920e+01
4	 3.114236e+00	 4.462290e+00	 1.025320e+01
4	 3.040573e+00	 4.463645e+00	 1.023585e+01
4	 2.966852e+00	 4.464940e+00	 1.021722e+01
4	 3.386926e+00	 4.525854e+00	 1.029141e+01
4	 3.312219e+00	 4.527208e+00	 1.027884e+01
4	 3.237456e+00	 4.528509e+00	 1.026489e+01
4	 3.162637e+00	 4.529755e+00	 1.024959e+01
4	 3.087766e+00	 4.530948e+00	 1.023299e+01
4	 3.012844e+00	 4.532087e+00	 1.021513e+01
4	 3.438942e+00	 4.593783e+00	 1.028583e+01
4	 3.363006e+00	 4.594952e+00	 1.027387e+01
4	 3.287020e+00	 4.596073e+00	 1.026056e+01
4	 3.210987e+00	 4.597149e+00	 1.024595e+01
4	 3.134907e+00	 4.598177e+00	 1.023007e+01
4	 3.058783e+00	 4.599159e+00	 1.021295e+01
4	 3.490909e+00	 4.661647e+00	 1.028021e+01
4	 3.413742e+00	 4.662628e+00	 1.026883e+01
4	 3.336533e+00	 4.663568e+00	 1.025615e+01
4	 3.259284e+00	 4.664470e+00	 1.024219e+01
4	 3.181996e+00	 4.665332e+00	 1.022700e+01
4	 3.104671e+00	 4.666155e+00	 1.021060e+01
4	 2.874712e+00	 4.330416e+00	 1.022141e+01
4	 2.803328e+00	 4.331942e+00	 1.019957e+01
4	 2.731880e+00	 4.333394e+00	 1.017600e+01
4	 2.660372e+00	 4.334772e+00	 1.015082e+01
4	 2.588806e+00	 4.336075e+00	 1.012413e+01
4	 2.517186e+00	 4.337304e+00	 1.009603e+01
4	 2.920808e+00	 4.397716e+00	 1.021928e+01
4	 2.848228e+00	 4.399097e+00	 1.019831e+01
4	 2.775590e+00	 4.400410e+00	 1.017567e+01
4	 2.702897e+00	 4.401656e+00	 1.015145e+01
4	 2.630152e+00	 4.402834e+00	 1.012574e+01
4	 2.557357e+00	 4.403944e+00	 1.009867e+01
4	 2.966852e+00	 4.464940e+00	 1.021722e+01
4	 2.893077e+00	 4.466174e+00	 1.019709e+01
4	 2.819249e+00	 4.467347e+00	 1.017533e+01
4	 2.745372e+00	 4.468459e+00	 1.015203e+01
4	 2.671447e+00	 4.469510e+00	 1.012728e+01
4	 2.597478e+00	 4.470501e+00	 1.010120e+01
4	 3.012844e+00	 4.532087e+00	 1.021513e+01
4	 2.937873e+00	 4.533173e+00	 1.019582e+01
4	 2.862856e+00	 4.534204e+00	 1.017491e+01
4	 2.787795e+00	 4.535182e+00	 1.015249e+01
4	 2.712692e+00	 4.536105e+00	 1.012866e+01
4	 2.637550e+00	 4.536975e+00	 1.010353e+01
4	 3.058783e+00	 4.599159e+00	 1.021295e+01
4	 2.982618e+00	 4.600094e+00	 1.019442e+01
4	 2.906412e+00	 4.600983e+00	 1.017432e+01
4	 2.830167e+00	 4.601824e+00	 1.015275e+01
4	 2.753887e+00	 4.602619e+00	 1.012981e+01
4	 2.677572e+00	 4.603367e+00	 1.010559e+01
4	 3.104671e+00	 4.666155e+00	 1.021060e+01
4	 3.027310e+00	 4.666938e+00	 1.019281e+01
4	 2.949916e+00	 4.667682e+00	 1.017350e+01
4	 2.872489e+00	 4.668386e+00	 1.015275e+01
4	 2.795031e+00	 4.669051e+00	 1.013065e+01
4	 2.717544e+00	 4.669677e+00	 1.010731e+01
4	 2.517186e+00	 4.337304e+00	 1.009603e+01
4	 2.445515e+00	 4.338459e+00	 1.006631e+01
4	 2.373795e+00	 4.339539e+00	 1.003480e+01
4	 2.302031e+00	 4.340544e+00	 1.000168e+01
4	 2.230224e+00	 4.341475e+00	 9.967140e+00
4	 2.158378e+00	 4.342331e+00	 9.931367e+00
4	 2.557357e+00	 4.403944e+00	 1.009867e+01
4	 2.484515e+00	 4.404986e+00	 1.007001e+01
4	 2.411630e+00	 4.405960e+00	 1.003961e+01
4	 2.338703e+00	 4.406867e+00	 1.000763e+01
4	 2.265737e+00	 4.407705e+00	 9.974265e+00
4	 2.192736e+00	 4.408476e+00	 9.939689e+00
4	 2.597478e+00	 4.470501e+00	 1.010120e+01
4	 2.523467e+00	 4.471430e+00	 1.007356e+01
4	 2.449416e+00	 4.472298e+00	 1.004422e+01
4	 2.375328e+00	 4.473105e+00	 1.001334e+01
4	 2.301205e+00	 4.473851e+00	 9.981103e+00
4	 2.227051e+00	 4.474536e+00	 9.947680e+00
4	 2.637550e+00	 4.536975e+00	 1.010353e+01
4	 2.562370e+00	 4.537790e+00	 1.007688e+01
4	 2.487155e+00	 4.538552e+00	 1.004856e+01
4	 2.411907e+00	 4.539259e+00	 1.001874e+01
4	 2.336629e+00	 4.539913e+00	 9.987582e+00
4	 2.261322e+00	 4.540512e+00	 9.955268e+00
4	 2.677572e+00	 4.603367e+00	 1.010559e+01
4	 2.601224e+00	 4.604068e+00	 1.007988e+01
4	 2.524846e+00	 4.604722e+00	 1.005255e+01
4	 2.448440e+00	 4.605330e+00	 1.002374e+01
4	 2.372007e+00	 4.605890e+00	 9.993634e+00
4	 2.295549e+00	 4.606404e+00	 9.962388e+00
4	 2.717544e+00	 4.669677e+00	 1.010731e+01
4	 2.640030e+00	 4.670263e+00	 1.008252e+01
4	 2.562490e+00	 4.670810e+00	 1.005613e+01
4	 2.484926e+00	 4.671317e+00	 1.002830e+01
4	 2.407340e+00	 4.671784e+00	 9.999194e+00
4	 2.329732e+00	 4.672212e+00	 9.968975e+00
4	 2.158378e+00	 4.342331e+00	 9.931367e+00
4	 2.086496e+00	 4.343113e+00	 9.894162e+00
4	 2.014581e+00	 4.343819e+00	 9.855383e+00
4	 1.942636e+00	 4.344451e+00	 9.815295e+00
4	 1.870664e+00	 4.345008e+00	 9.774168e+00
4	 1.798669e+00	 4.345491e+00	 9.732273e+00
4	 2.192736e+00	 4.408476e+00	 9.939689e+00
4	 2.119702e+00	 4.409178e+00	 9.903712e+00
4	 2.046638e+00	 4.409812e+00	 9.866193e+00
4	 1.973547e+00	 4.410379e+00	 9.827392e+00
4	 1.900431e+00	 4.410877e+00	 9.787570e+00
4	 1.827294e+00	 4.411307e+00	 9.746991e+00
4	 2.227051e+00	 4.474536e+00	 9.947680e+00
4	 2.152866e+00	 4.475159e+00	 9.912885e+00
4	 2.078655e+00	 4.475722e+00	 9.876579e+00
4	 2.004419e+00	 4.476223e+00	 9.839015e+00
4	 1.930161e+00	 4.476663e+00	 9.800450e+00
4	 1.855884e+00	 4.477042e+00	 9.761138e+00
4	 2.261322e+00	 4.540512e+00	 9.955268e+00
4	 2.185988e+00	 4.541057e+00	 9.921610e+00
4	 2.110631e+00	 4.541548e+00	 9.886472e+00
4	 2.035252e+00	 4.541984e+00	 9.850100e+00
4	 1.959854e+00	 4.542367e+00	 9.812743e+00
4	 1.884438e+00	 4.542695e+00	 9.774652e+00
4	 2.295549e+00	 4.606404e+00	 9.962388e+00
4	 2.219068e+00	 4.606870e+00	 9.929824e+00
4	 2.142567e+00	 4.607290e+00	 9.895809e+00
4	 2.066047e+00	 4.607662e+00	 9.860583e+00
4	 1.989509e+00	 4.607988e+00	 9.824391e+00
4	 1.912957e+00	 4.608267e+00	 9.787474e+00
4	 2.329732e+00	 4.672212e+00	 9.968975e+00
4	 2.252106e+00	 4.672600e+00	 9.937463e+00
4	 2.174462e+00	 4.672949e+00	 9.904529e+00
4	 2.096802e+00	 4.673258e+00	 9.870408e+00
4	 2.019128e+00	 4.673528e+00	 9.835336e+00
4	 1.941441e+00	 4.673758e+00	 9.799550e+00
4	 1.798669e+00	 4.345491e+00	 9.732273e+00
4	 1.726652e+00	 4.345898e+00	 9.689480e+00
4	 1.654618e+00	 4.346231e+00	 9.645703e+00
4	 1.582570e+00	 4.346489e+00	 9.601281e+00
4	 1.510510e+00	 4.346672e+00	 9.556552e+00
4	 1.438441e+00	 4.346780e+00	 9.511857e+00
4	 1.827294e+00	 4.411307e+00	 9.746991e+00
4	 1.754138e+00	 4.411669e+00	 9.705528e+00
4	 1.680965e+00	 4.411963e+00	 9.663097e+00
4	 1.607780e+00	 4.412188e+00	 9.620027e+00
4	 1.534584e+00	 4.412346e+00	 9.576650e+00
4	 1.461380e+00	 4.412436e+00	 9.533296e+00
4	 1.855884e+00	 4.477042e+00	 9.761138e+00
4	 1.781589e+00	 4.477359e+00	 9.720956e+00
4	 1.707281e+00	 4.477615e+00	 9.679820e+00
4	 1.632960e+00	 4.477810e+00	 9.638053e+00
4	 1.558630e+00	 4.477944e+00	 9.595976e+00
4	 1.484293e+00	 4.478016e+00	 9.553914e+00
4	 1.884438e+00	 4.542695e+00	 9.774652e+00
4	 1.809008e+00	 4.542969e+00	 9.735703e+00
4	 1.733564e+00	 4.543189e+00	 9.695815e+00
4	 1.658110e+00	 4.543354e+00	 9.655302e+00
4	 1.582648e+00	 4.543466e+00	 9.614479e+00
4	 1.507180e+00	 4.543523e+00	 9.573662e+00
4	 1.912957e+00	 4.608267e+00	 9.787474e+00
4	 1.836392e+00	 4.608498e+00	 9.749713e+00
4	 1.759816e+00	 4.608683e+00	 9.711026e+00
4	 1.683231e+00	 4.608821e+00	 9.671722e+00
4	 1.606639e+00	 4.608911e+00	 9.632107e+00
4	 1.530041e+00	 4.608955e+00	 9.592489e+00
4	 1.941441e+00	 4.673758e+00	 9.799550e+00
4	 1.863744e+00	 4.673948e+00	 9.762933e+00
4	 1.786037e+00	 4.674099e+00	 9.725404e+00
4	 1.708322e+00	 4.674210e+00	 9.687264e+00
4	 1.630601e+00	 4.674282e+00	 9.648813e+00
4	 1.552877e+00	 4.674314e+00	 9.610351e+00
4	 1.438441e+00	 4.346780e+00	 9.511857e+00
4	 1.366367e+00	 4.346814e+00	 9.467169e+00
4	 1.294291e+00	 4.346773e+00	 9.422483e+00
4	 1.222216e+00	 4.346657e+00	 9.378170e+00
4	 1.150144e+00	 4.346467e+00	 9.334600e+00
4	 1.078079e+00	 4.346202e+00	 9.292144e+00
4	 1.461380e+00	 4.412436e+00	 9.533296e+00
4	 1.388172e+00	 4.412457e+00	 9.489939e+00
4	 1.314961e+00	 4.412410e+00	 9.446574e+00
4	 1.241751e+00	 4.412296e+00	 9.403563e+00
4	 1.168545e+00	 4.412113e+00	 9.361268e+00
4	 1.095345e+00	 4.411863e+00	 9.320050e+00
4	 1.484293e+00	 4.478016e+00	 9.553914e+00
4	 1.409952e+00	 4.478028e+00	 9.511840e+00
4	 1.335609e+00	 4.477978e+00	 9.469748e+00
4	 1.261267e+00	 4.477867e+00	 9.427992e+00
4	 1.186928e+00	 4.477694e+00	 9.386925e+00
4	 1.112595e+00	 4.477461e+00	 9.346901e+00
4	 1.507180e+00	 4.543523e+00	 9.573662e+00
4	 1.431708e+00	 4.543526e+00	 9.532823e+00
4	 1.356235e+00	 4.543475e+00	 9.491958e+00
4	 1.280762e+00	 4.543370e+00	 9.451411e+00
4	 1.205292e+00	 4.543210e+00	 9.411528e+00
4	 1.129828e+00	 4.542997e+00	 9.372655e+00
4	 1.530041e+00	 4.608955e+00	 9.592489e+00
4	 1.453441e+00	 4.608952e+00	 9.552842e+00
4	 1.376838e+00	 4.608902e+00	 9.513159e+00
4	 1.300237e+00	 4.608805e+00	 9.473778e+00
4	 1.223638e+00	 4.608661e+00	 9.435038e+00
4	 1.147044e+00	 4.608470e+00	 9.397274e+00
4	 1.552877e+00	 4.674314e+00	 9.610351e+00
4	 1.475149e+00	 4.674306e+00	 9.571852e+00
4	 1.397420e+00	 4.674259e+00	 9.533310e+00
4	 1.319692e+00	 4.674172e+00	 9.495054e+00
4	 1.241966e+00	 4.674046e+00	 9.457415e+00
4	 1.164245e+00	 4.673880e+00	 9.420722e+00
4	 1.078079e+00	 4.346202e+00	 9.292144e+00
4	 1.006024e+00	 4.345863e+00	 9.250878e+00
4	 9.339823e-01	 4.345449e+00	 9.210864e+00
4	 8.619565e-01	 4.344960e+00	 9.172448e+00
4	 7.899497e-01	 4.344398e+00	 9.135972e+00
4	 7.179651e-01	 4.343761e+00	 9.101779e+00
4	 1.095345e+00	 4.411863e+00	 9.320050e+00
4	 1.022154e+00	 4.411545e+00	 9.279984e+00
4	 9.489755e-01	 4.411159e+00	 9.241130e+00
4	 8.758115e-01	 4.410705e+00	 9.203825e+00
4	 8.026649e-01	 4.410183e+00	 9.168405e+00
4	 7.295386e-01	 4.409594e+00	 9.135204e+00
4	 1.112595e+00	 4.477461e+00	 9.346901e+00
4	 1.038270e+00	 4.477167e+00	 9.307992e+00
4	 9.639558e-01	 4.476812e+00	 9.270255e+00
4	 8.896552e-01	 4.476395e+00	 9.234022e+00
4	 8.153704e-01	 4.475918e+00	 9.199620e+00
4	 7.411040e-01	 4.475380e+00	 9.167376e+00
4	 1.129828e+00	 4.542997e+00	 9.372655e+00
4	 1.054371e+00	 4.542729e+00	 9.334861e+00
4	 9.789231e-01	 4.542408e+00	 9.298203e+00
4	 9.034876e-01	 4.542032e+00	 9.263004e+00
4	 8.280662e-01	 4.541603e+00	 9.229584e+00
4	 7.526612e-01	 4.541120e+00	 9.198263e+00
4	 1.147044e+00	 4.608470e+00	 9.397274e+00
4	 1.070457e+00	 4.608232e+00	 9.360556e+00
4	 9.938775e-01	 4.607947e+00	 9.324939e+00
4	 9.173087e-01	 4.607616e+00	 9.290737e+00
4	 8.407523e-01	 4.607238e+00	 9.258265e+00
4	 7.642102e-01	 4.606813e+00	 9.227835e+00
4	 1.164245e+00	 4.673880e+00	 9.420722e+00
4	 1.086528e+00	 4.673675e+00	 9.385043e+00
4	 1.008819e+00	 4.673431e+00	 9.350429e+00
4	 9.311186e-01	 4.673146e+00	 9.317190e+00
4	 8.534288e-01	 4.672823e+00	 9.285633e+00
4	 7.757510e-01	 4.672460e+00	 9.256063e+00
4	 7.179651e-01	 4.343761e+00	 9.101779e+00
4	 6.460056e-01	 4.343050e+00	 9.070008e+00
4	 5.740743e-01	 4.342265e+00	 9.040738e+00
4	 5.021742e-01	 4.341406e+00	 9.014218e+00
4	 4.303083e-01	 4.340474e+00	 8.990695e+00
4	 3.584797e-01	 4.339467e+00	 8.970411e+00
4	 7.295386e-01	 4.409594e+00	 9.135204e+00
4	 6.564354e-01	 4.408937e+00	 9.104359e+00
4	 5.833580e-01	 4.408213e+00	 9.075945e+00
4	 5.103093e-01	 4.407421e+00	 9.050208e+00
4	 4.372919e-01	 4.406562e+00	 9.027386e+00
4	 3.643086e-01	 4.405636e+00	 9.007717e+00
4	 7.411040e-01	 4.475380e+00	 9.167376e+00
4	 6.668585e-01	 4.474781e+00	 9.137423e+00
4	 5.926363e-01	 4.474121e+00	 9.109836e+00
4	 5.184401e-01	 4.473401e+00	 9.084852e+00
4	 4.442722e-01	 4.472620e+00	 9.062707e+00
4	 3.701352e-01	 4.471779e+00	 9.043631e+00
4	 7.526612e-01	 4.541120e+00	 9.198263e+00
4	 6.772747e-01	 4.540582e+00	 9.169170e+00
4	 6.019091e-01	 4.539991e+00	 9.142380e+00
4	 5.265666e-01	 4.539347e+00	 9.118124e+00
4	 4.512493e-01	 4.538648e+00	 9.096631e+00
4	 3.759595e-01	 4.537896e+00	 9.078129e+00
4	 7.642102e-01	 4.606813e+00	 9.227835e+00
4	 6.876843e-01	 4.606341e+00	 9.199573e+00
4	 6.111765e-01	 4.605823e+00	 9.173552e+00
4	 5.346889e-01	 4.605258e+00	 9.149998e+00
4	 4.582233e-01	 4.604646e+00	 9.129135e+00
4	 3.817816e-01	 4.603988e+00	 9.111185e+00
4	 7.757510e-01	 4.672460e+00	 9.256063e+00
4	 6.980870e-01	 4.672057e+00	 9.228603e+00
4	 6.204385e-01	 4.671615e+00	 9.203325e+00
4	 5.428069e-01	 4.671134e+00	 9.180449e+00
4	 4.651940e-01	 4.670614e+00	 9.160194e+00
4	 3.876014e-01	 4.670054e+00	 9.142778e+00
4	 3.584797e-01	 4.339467e+00	 8.970411e+00
4	 2.866913e-01	 4.338387e+00	 8.953494e+00
4	 2.149462e-01	 4.337233e+00	 8.939984e+00
4	 1.432473e-01	 4.336007e+00	 8.929985e+00
4	 7.159754e-02	 4.334706e+00	 8.923598e+00
4	 0.000000e+00	 4.333333e+00	 8.920922e+00
4	 3.643086e-01	 4.405636e+00	 9.007717e+00
4	 2.913622e-01	 4.404642e+00	 8.991327e+00
4	 2.184554e-01	 4.403582e+00	 8.978253e+00
4	 1.455909e-01	 4.402455e+00	 8.968597e+00
4	 7.277156e-02	 4.401261e+00	 8.962459e+00
4	 0.000000e+00	 4.400000e+00	 8.959935e+00
4	 3.701352e-01	 4.471779e+00	 9.043631e+00
4	 2.960315e-01	 4.470877e+00	 9.027749e+00
4	 2.219637e-01	 4.469915e+00	 9.015095e+00
4	 1.479342e-01	 4.468892e+00	 9.005771e+00
4	 7.394548e-02	 4.467809e+00	 8.999872e+00
4	 0.000000e+00	 4.466667e+00	 8.997492e+00
4	 3.759595e-01	 4.537896e+00	 9.078129e+00
4	 3.006994e-01	 4.537091e+00	 9.062736e+00
4	 2.254712e-01	 4.536231e+00	 9.050488e+00
4	 1.502771e-01	 4.535319e+00	 9.041483e+00
4	 7.511930e-02	 4.534353e+00	 9.035815e+00
4	 0.000000e+00	 4.533333e+00	 9.033573e+00
4	 3.817816e-01	 4.603988e+00	 9.111185e+00
4	 3.053658e-01	 4.603283e+00	 9.096265e+00
4	 2.289779e-01	 4.602532e+00	 9.084409e+00
4	 1.526196e-01	 4.601734e+00	 9.075712e+00
4	 7.629303e-02	 4.600890e+00	 9.070265e+00
4	 0.000000e+00	 4.600000e+00	 9.068155e+00
4	 3.876014e-01	 4.670054e+00	 9.142778e+00
4	 3.100308e-01	 4.669455e+00	 9.128314e+00
4	 2.324837e-01	 4.668817e+00	 9.116836e+00
4	 1.549617e-01	 4.668139e+00	 9.108436e+00
4	 7.746666e-02	 4.667422e+00	 9.103202e+00
4	 0.000000e+00	 4.666667e+00	 9.101220e+00
4	 4.642259e+00	 4.642259e+00	 1.033624e+01
4	 4.565917e+00	 4.643823e+00	 1.033764e+01
4	 4.489509e+00	 4.645349e+00	 1.033849e+01
4	 4.413036e+00	 4.646836e+00	 1.033877e+01
4	 4.336500e+00	 4.648285e+00	 1.033842e+01
4	 4.259903e+00	 4.649694e+00	 1.033740e+01
4	 4.713807e+00	 4.713807e+00	 1.032514e+01
4	 4.636078e+00	 4.715071e+00	 1.032677e+01
4	 4.558296e+00	 4.716303e+00	 1.032786e+01
4	 4.480461e+00	 4.717503e+00	 1.032839e+01
4	 4.402575e+00	 4.718672e+00	 1.032830e+01
4	 4.324639e+00	 4.719810e+00	 1.032757e+01
4	 4.785355e+00	 4.785355e+00	 1.031433e+01
4	 4.706234e+00	 4.786312e+00	 1.031619e+01
4	 4.627072e+00	 4.787244e+00	 1.031753e+01
4	 4.547870e+00	 4.788153e+00	 1.031830e+01
4	 4.468629e+00	 4.789038e+00	 1.031848e+01
4	 4.389351e+00	 4.789898e+00	 1.031804e+01
4	 4.856904e+00	 4.856904e+00	 1.030379e+01
4	 4.776384e+00	 4.857547e+00	 1.030587e+01
4	 4.695837e+00	 4.858174e+00	 1.030744e+01
4	 4.615263e+00	 4.858786e+00	 1.030845e+01
4	 4.534663e+00	 4.859381e+00	 1.030890e+01
4	 4.454037e+00	 4.859959e+00	 1.030873e+01
4	 4.928452e+00	 4.928452e+00	 1.029347e+01
4	 4.846528e+00	 4.928777e+00	 1.029576e+01
4	 4.764591e+00	 4.929093e+00	 1.029755e+01
4	 4.682640e+00	 4.929401e+00	 1.029880e+01
4	 4.600675e+00	 4.929701e+00	 1.029949e+01
4	 4.518697e+00	 4.929993e+00	 1.029959e+01
4	 5.000000e+00	 5.000000e+00	 1.028332e+01
4	 4.916667e+00	 5.000000e+00	 1.028581e+01
4	 4.833333e+00	 5.000000e+00	 1.028781e+01
4	 4.750000e+00	 5.000000e+00	 1.028929e+01
4	 4.666667e+00	 5.000000e+00	 1.029021e+01
4	 4.583333e+00	 5.000000e+00	 1.029056e+01
4	 4.259903e+00	 4.649694e+00	 1.033740e+01
4	 4.183246e+00	 4.651065e+00	 1.033564e+01
4	 4.106531e+00	 4.652397e+00	 1.033311e+01
4	 4.029760e+00	 4.653690e+00	 1.032977e+01
4	 3.952933e+00	 4.654944e+00	 1.032560e+01
4	 3.876053e+00	 4.656159e+00	 1.032059e+01
4	 4.324639e+00	 4.719810e+00	 1.032757e+01
4	 4.246655e+00	 4.720916e+00	 1.032614e+01
4	 4.168623e+00	 4.721990e+00	 1.032395e+01
4	 4.090546e+00	 4.723033e+00	 1.032099e+01
4	 4.012424e+00	 4.724045e+00	 1.031722e+01
4	 3.934258e+00	 4.725024e+00	 1.031262e+01
4	 4.389351e+00	 4.789898e+00	 1.031804e+01
4	 4.310035e+00	 4.790735e+00	 1.031692e+01
4	 4.230683e+00	 4.791547e+00	 1.031507e+01
4	 4.151296e+00	 4.792336e+00	 1.031246e+01
4	 4.071875e+00	 4.793101e+00	 1.030906e+01
4	 3.992422e+00	 4.793841e+00	 1.030485e+01
4	 4.454037e+00	 4.859959e+00	 1.030873e+01
4	 4.373385e+00	 4.860522e+00	 1.030791e+01
4	 4.292710e+00	 4.861068e+00	 1.030638e+01
4	 4.212011e+00	 4.861598e+00	 1.030410e+01
4	 4.131289e+00	 4.862112e+00	 1.030106e+01
4	 4.050544e+00	 4.862609e+00	 1.029722e+01
4	 4.518697e+00	 4.929993e+00	 1.029959e+01
4	 4.436707e+00	 4.930277e+00	 1.029905e+01
4	 4.354705e+00	 4.930552e+00	 1.029781e+01
4	 4.272690e+00	 4.930819e+00	 1.029585e+01
4	 4.190664e+00	 4.931078e+00	 1.029314e+01
4	 4.108626e+00	 4.931329e+00	 1.028966e+01
4	 4.583333e+00	 5.000000e+00	 1.029056e+01
4	 4.500000e+00	 5.000000e+00	 1.029028e+01
4	 4.416667e+00	 5.000000e+00	 1.028932e+01
4	 4.333333e+00	 5.000000e+00	 1.028765e+01
4	 4.250000e+00	 5.000000e+00	 1.028525e+01
4	 4.166667e+00	 5.000000e+00	 1.028212e+01
4	 3.876053e+00	 4.656159e+00	 1.032059e+01
4	 3.799121e+00	 4.657335e+00	 1.031461e+01
4	 3.722139e+00	 4.658472e+00	 1.030759e+01
4	 3.645109e+00	 4.659570e+00	 1.029952e+01
4	 3.568031e+00	 4.660628e+00	 1.029039e+01
4	 3.490909e+00	 4.661647e+00	 1.028021e+01
4	 3.934258e+00	 4.725024e+00	 1.031262e+01
4	 3.856050e+00	 4.725972e+00	 1.030707e+01
4	 3.777802e+00	 4.726889e+00	 1.030050e+01
4	 3.699514e+00	 4.727773e+00	 1.029291e+01
4	 3.621188e+00	 4.728626e+00	 1.028428e+01
4	 3.542826e+00	 4.729447e+00	 1.027463e+01
4	 3.992422e+00	 4.793841e+00	 1.030485e+01
4	 3.912936e+00	 4.794557e+00	 1.029972e+01
4	 3.833419e+00	 4.795250e+00	 1.029358e+01
4	 3.753873e+00	 4.795918e+00	 1.028645e+01
4	 3.674297e+00	 4.796562e+00	 1.027831e+01
4	 3.594693e+00	 4.797182e+00	 1.026918e+01
4	 4.050544e+00	 4.862609e+00	 1.029722e+01
4	 3.969778e+00	 4.863090e+00	 1.029248e+01
4	 3.888991e+00	 4.863555e+00	 1.028677e+01
4	 3.808184e+00	 4.864004e+00	 1.028009e+01
4	 3.727357e+00	 4.864436e+00	 1.027244e+01
4	 3.646511e+00	 4.864852e+00	 1.026381e+01
4	 4.108626e+00	 4.931329e+00	 1.028966e+01
4	 4.026577e+00	 4.931571e+00	 1.028531e+01
4	 3.944518e+00	 4.931805e+00	 1.028002e+01
4	 3.862449e+00	 4.932031e+00	 1.027378e+01
4	 3.780369e+00	 4.932249e+00	 1.026660e+01
4	 3.698280e+00	 4.932458e+00	 1.025847e+01
4	 4.166667e+00	 5.000000e+00	 1.028212e+01
4	 4.083333e+00	 5.000000e+00	 1.027815e+01
4	 4.000000e+00	 5.000000e+00	 1.027327e+01
4	 3.916667e+00	 5.000000e+00	 1.026747e+01
4	 3.833333e+00	 5.000000e+00	 1.026075e+01
4	 3.750000e+00	 5.000000e+00	 1.025309e+01
4	 3.490909e+00	 4.661647e+00	 1.028021e+01
4	 3.413742e+00	 4.662628e+00	 1.026883e+01
4	 3.336533e+00	 4.663568e+00	 1.025615e+01
4	 3.259284e+00	 4.664470e+00	 1.024219e+01
4	 3.181996e+00	 4.665332e+00	 1.022700e+01
4	 3.104671e+00	 4.666155e+00	 1.021060e+01
4	 3.542826e+00	 4.729447e+00	 1.027463e+01
4	 3.464428e+00	 4.730236e+00	 1.026382e+01
4	 3.385995e+00	 4.730994e+00	 1.025174e+01
4	 3.307530e+00	 4.731719e+00	 1.023841e+01
4	 3.229034e+00	 4.732413e+00	 1.022388e+01
4	 3.150507e+00	 4.733075e+00	 1.020817e+01
4	 3.594693e+00	 4.797182e+00	 1.026918e+01
4	 3.515063e+00	 4.797778e+00	 1.025893e+01
4	 3.435406e+00	 4.798349e+00	 1.024742e+01
4	 3.355725e+00	 4.798897e+00	 1.023471e+01
4	 3.276019e+00	 4.799420e+00	 1.022081e+01
4	 3.196291e+00	 4.799919e+00	 1.020576e+01
4	 3.646511e+00	 4.864852e+00	 1.026381e+01
4	 3.565648e+00	 4.865252e+00	 1.025409e+01
4	 3.484766e+00	 4.865636e+00	 1.024315e+01
4	 3.403868e+00	 4.866003e+00	 1.023102e+01
4	 3.322953e+00	 4.866354e+00	 1.021773e+01
4	 3.242023e+00	 4.866688e+00	 1.020332e+01
4	 3.698280e+00	 4.932458e+00	 1.025847e+01
4	 3.616182e+00	 4.932659e+00	 1.024925e+01
4	 3.534075e+00	 4.932852e+00	 1.023884e+01
4	 3.451960e+00	 4.933037e+00	 1.022727e+01
4	 3.369836e+00	 4.933213e+00	 1.021457e+01
4	 3.287704e+00	 4.933382e+00	 1.020078e+01
4	 3.750000e+00	 5.000000e+00	 1.025309e+01
4	 3.666667e+00	 5.000000e+00	 1.024436e+01
4	 3.583333e+00	 5.000000e+00	 1.023447e+01
4	 3.500000e+00	 5.000000e+00	 1.022343e+01
4	 3.416667e+00	 5.000000e+00	 1.021129e+01
4	 3.333333e+00	 5.000000e+00	 1.019809e+01
4	 3.104671e+00	 4.666155e+00	 1.021060e+01
4	 3.027310e+00	 4.666938e+00	 1.019281e+01
4	 2.949916e+00	 4.667682e+00	 1.017350e+01
4	 2.872489e+00	 4.668386e+00	 1.015275e+01
4	 2.795031e+00	 4.669051e+00	 1.013065e+01
4	 2.717544e+00	 4.669677e+00	 1.010731e+01
4	 3.150507e+00	 4.733075e+00	 1.020817e+01
4	 3.071951e+00	 4.733705e+00	 1.019110e+01
4	 2.993368e+00	 4.734303e+00	 1.017254e+01
4	 2.914759e+00	 4.734869e+00	 1.015258e+01
4	 2.836125e+00	 4.735403e+00	 1.013130e+01
4	 2.757467e+00	 4.735905e+00	 1.010880e+01
4	 3.196291e+00	 4.799919e+00	 1.020576e+01
4	 3.116541e+00	 4.800394e+00	 1.018939e+01
4	 3.036770e+00	 4.800845e+00	 1.017156e+01
4	 2.956979e+00	 4.801271e+00	 1.015236e+01
4	 2.877169e+00	 4.801673e+00	 1.013187e+01
4	 2.797341e+00	 4.802051e+00	 1.011019e+01
4	 3.242023e+00	 4.866688e+00	 1.020332e+01
4	 3.161079e+00	 4.867006e+00	 1.018762e+01
4	 3.080120e+00	 4.867308e+00	 1.017049e+01
4	 2.999147e+00	 4.867594e+00	 1.015202e+01
4	 2.918162e+00	 4.867863e+00	 1.013230e+01
4	 2.837165e+00	 4.868116e+00	 1.011141e+01
4	 3.287704e+00	 4.933382e+00	 1.020078e+01
4	 3.205565e+00	 4.933542e+00	 1.018572e+01
4	 3.123419e+00	 4.933693e+00	 1.016928e+01
4	 3.041266e+00	 4.933837e+00	 1.015152e+01
4	 2.959106e+00	 4.933972e+00	 1.013254e+01
4	 2.876940e+00	 4.934098e+00	 1.011241e+01
4	 3.333333e+00	 5.000000e+00	 1.019809e+01
4	 3.250000e+00	 5.000000e+00	 1.018366e+01
4	 3.166667e+00	 5.000000e+00	 1.016788e+01
4	 3.083333e+00	 5.000000e+00	 1.015081e+01
4	 3.000000e+00	 5.000000e+00	 1.013254e+01
4	 2.916667e+00	 5.000000e+00	 1.011315e+01
4	 2.717544e+00	 4.669677e+00	 1.010731e+01
4	 2.640030e+00	 4.670263e+00	 1.008252e+01
4	 2.562490e+00	 4.670810e+00	 1.005613e+01
4	 2.484926e+00	 4.671317e+00	 1.002830e+01
4	 2.407340e+00	 4.671784e+00	 9.999194e+00
4	 2.329732e+00	 4.672212e+00	 9.968975e+00
4	 2.757467e+00	 4.735905e+00	 1.010880e+01
4	 2.678787e+00	 4.736375e+00	 1.008489e+01
4	 2.600087e+00	 4.736813e+00	 1.005941e+01
4	 2.521366e+00	 4.737220e+00	 1.003252e+01
4	 2.442628e+00	 4.737594e+00	 1.000439e+01
4	 2.363873e+00	 4.737936e+00	 9.975157e+00
4	 2.797341e+00	 4.802051e+00	 1.011019e+01
4	 2.717496e+00	 4.802405e+00	 1.008712e+01
4	 2.637636e+00	 4.802734e+00	 1.006252e+01
4	 2.557760e+00	 4.803039e+00	 1.003655e+01
4	 2.477871e+00	 4.803320e+00	 1.000934e+01
4	 2.397969e+00	 4.803577e+00	 9.981069e+00
4	 2.837165e+00	 4.868116e+00	 1.011141e+01
4	 2.756157e+00	 4.868352e+00	 1.008916e+01
4	 2.675138e+00	 4.868572e+00	 1.006541e+01
4	 2.594108e+00	 4.868776e+00	 1.004031e+01
4	 2.513070e+00	 4.868963e+00	 1.001401e+01
4	 2.432023e+00	 4.869135e+00	 9.986657e+00
4	 2.876940e+00	 4.934098e+00	 1.011241e+01
4	 2.794769e+00	 4.934217e+00	 1.009095e+01
4	 2.712592e+00	 4.934327e+00	 1.006802e+01
4	 2.630410e+00	 4.934429e+00	 1.004377e+01
4	 2.548224e+00	 4.934523e+00	 1.001834e+01
4	 2.466033e+00	 4.934609e+00	 9.991876e+00
4	 2.916667e+00	 5.000000e+00	 1.011315e+01
4	 2.833333e+00	 5.000000e+00	 1.009245e+01
4	 2.750000e+00	 5.000000e+00	 1.007031e+01
4	 2.666667e+00	 5.000000e+00	 1.004687e+01
4	 2.583333e+00	 5.000000e+00	 1.002228e+01
4	 2.500000e+00	 5.000000e+00	 9.996679e+00
4	 2.329732e+00	 4.672212e+00	 9.968975e+00
4	 2.252106e+00	 4.672600e+00	 9.937463e+00
4	 2.174462e+00	 4.672949e+00	 9.904529e+00
4	 2.096802e+00	 4.673258e+00	 9.870408e+00
4	 2.019128e+00	 4.673528e+00	 9.835336e+00
4	 1.941441e+00	 4.673758e+00	 9.799550e+00
4	 2.363873e+00	 4.737936e+00	 9.975157e+00
4	 2.285102e+00	 4.738246e+00	 9.944661e+00
4	 2.206317e+00	 4.738525e+00	 9.912769e+00
4	 2.127519e+00	 4.738771e+00	 9.879712e+00
4	 2.048709e+00	 4.738985e+00	 9.845720e+00
4	 1.969890e+00	 4.739167e+00	 9.811025e+00
4	 2.397969e+00	 4.803577e+00	 9.981069e+00
4	 2.318056e+00	 4.803809e+00	 9.951552e+00
4	 2.238131e+00	 4.804018e+00	 9.920667e+00
4	 2.158197e+00	 4.804202e+00	 9.888638e+00
4	 2.078254e+00	 4.804361e+00	 9.855690e+00
4	 1.998303e+00	 4.804496e+00	 9.822049e+00
4	 2.432023e+00	 4.869135e+00	 9.986657e+00
4	 2.350968e+00	 4.869289e+00	 9.958087e+00
4	 2.269905e+00	 4.869428e+00	 9.928174e+00
4	 2.188836e+00	 4.869550e+00	 9.897139e+00
4	 2.107762e+00	 4.869655e+00	 9.865200e+00
4	 2.026682e+00	 4.869745e+00	 9.832577e+00
4	 2.466033e+00	 4.934609e+00	 9.991876e+00
4	 2.383838e+00	 4.934686e+00	 9.964220e+00
4	 2.301639e+00	 4.934755e+00	 9.935247e+00
4	 2.219437e+00	 4.934816e+00	 9.905171e+00
4	 2.137232e+00	 4.934868e+00	 9.874207e+00
4	 2.055025e+00	 4.934913e+00	 9.842568e+00
4	 2.500000e+00	 5.000000e+00	 9.996679e+00
4	 2.416667e+00	 5.000000e+00	 9.969906e+00
4	 2.333333e+00	 5.000000e+00	 9.941841e+00
4	 2.250000e+00	 5.000000e+00	 9.912693e+00
4	 2.166667e+00	 5.000000e+00	 9.882670e+00
4	 2.083333e+00	 5.000000e+00	 9.851983e+00
4	 1.941441e+00	 4.673758e+00	 9.799550e+00
4	 1.863744e+00	 4.673948e+00	 9.762933e+00
4	 1.786037e+00	 4.674099e+00	 9.725404e+00
4	 1.708322e+00	 4.674210e+00	 9.687264e+00
4	 1.630601e+00	 4.674282e+00	 9.648813e+00
4	 1.552877e+00	 4.674314e+00	 9.610351e+00
4	 1.969890e+00	 4.739167e+00	 9.811025e+00
4	 1.891061e+00	 4.739318e+00	 9.775511e+00
4	 1.812225e+00	 4.739436e+00	 9.739099e+00
4	 1.733383e+00	 4.739522e+00	 9.702082e+00
4	 1.654536e+00	 4.739576e+00	 9.664754e+00
4	 1.575686e+00	 4.739598e+00	 9.627409e+00
4	 1.998303e+00	 4.804496e+00	 9.822049e+00
4	 1.918346e+00	 4.804607e+00	 9.787600e+00
4	 1.838383e+00	 4.804694e+00	 9.752268e+00
4	 1.758415e+00	 4.804757e+00	 9.716337e+00
4	 1.678444e+00	 4.804795e+00	 9.680094e+00
4	 1.598470e+00	 4.804809e+00	 9.643827e+00
4	 2.026682e+00	 4.869745e+00	 9.832577e+00
4	 1.945597e+00	 4.869818e+00	 9.799159e+00
4	 1.864509e+00	 4.869874e+00	 9.764869e+00
4	 1.783417e+00	 4.869915e+00	 9.729987e+00
4	 1.702323e+00	 4.869939e+00	 9.694793e+00
4	 1.621228e+00	 4.869946e+00	 9.659568e+00
4	 2.055025e+00	 4.934913e+00	 9.842568e+00
4	 1.972815e+00	 4.934949e+00	 9.810145e+00
4	 1.890603e+00	 4.934976e+00	 9.776863e+00
4	 1.808390e+00	 4.934996e+00	 9.742995e+00
4	 1.726175e+00	 4.935007e+00	 9.708815e+00
4	 1.643960e+00	 4.935010e+00	 9.674598e+00
4	 2.083333e+00	 5.000000e+00	 9.851983e+00
4	 2.000000e+00	 5.000000e+00	 9.820522e+00
4	 1.916667e+00	 5.000000e+00	 9.788214e+00
4	 1.833333e+00	 5.000000e+00	 9.755326e+00
4	 1.750000e+00	 5.000000e+00	 9.722127e+00
4	 1.666667e+00	 5.000000e+00	 9.688883e+00
4	 1.552877e+00	 4.674314e+00	 9.610351e+00
4	 1.475149e+00	 4.674306e+00	 9.571852e+00
4	 1.397420e+00	 4.674259e+00	 9.533310e+00
4	 1.319692e+00	 4.674172e+00	 9.495054e+00
4	 1.241966e+00	 4.674046e+00	 9.457415e+00
4	 1.164245e+00	 4.673880e+00	 9.420722e+00
4	 1.575686e+00	 4.739598e+00	 9.627409e+00
4	 1.496833e+00	 4.739588e+00	 9.590018e+00
4	 1.417980e+00	 4.739546e+00	 9.552577e+00
4	 1.339127e+00	 4.739472e+00	 9.515407e+00
4	 1.260276e+00	 4.739367e+00	 9.478832e+00
4	 1.181428e+00	 4.739229e+00	 9.443174e+00
4	 1.598470e+00	 4.804809e+00	 9.643827e+00
4	 1.518494e+00	 4.804799e+00	 9.607508e+00
4	 1.438518e+00	 4.804764e+00	 9.571130e+00
4	 1.358542e+00	 4.804705e+00	 9.535011e+00
4	 1.278568e+00	 4.804622e+00	 9.499464e+00
4	 1.198596e+00	 4.804515e+00	 9.464806e+00
4	 1.621228e+00	 4.869946e+00	 9.659568e+00
4	 1.540131e+00	 4.869937e+00	 9.624285e+00
4	 1.459034e+00	 4.869912e+00	 9.588936e+00
4	 1.377937e+00	 4.869871e+00	 9.553832e+00
4	 1.296841e+00	 4.869813e+00	 9.519280e+00
4	 1.215747e+00	 4.869739e+00	 9.485588e+00
4	 1.643960e+00	 4.935010e+00	 9.674598e+00
4	 1.561744e+00	 4.935004e+00	 9.640316e+00
4	 1.479528e+00	 4.934991e+00	 9.605962e+00
4	 1.397312e+00	 4.934969e+00	 9.571840e+00
4	 1.315096e+00	 4.934939e+00	 9.538250e+00
4	 1.232882e+00	 4.934900e+00	 9.505494e+00
4	 1.666667e+00	 5.000000e+00	 9.688883e+00
4	 1.583333e+00	 5.000000e+00	 9.655570e+00
4	 1.500000e+00	 5.000000e+00	 9.622178e+00
4	 1.416667e+00	 5.000000e+00	 9.589006e+00
4	 1.333333e+00	 5.000000e+00	 9.556347e+00
4	 1.250000e+00	 5.000000e+00	 9.524496e+00
4	 1.164245e+00	 4.673880e+00	 9.420722e+00
4	 1.086528e+00	 4.673675e+00	 9.385043e+00
4	 1.008819e+00	 4.673431e+00	 9.350429e+00
4	 9.311186e-01	 4.673146e+00	 9.317190e+00
4	 8.534288e-01	 4.672823e+00	 9.285633e+00
4	 7.757510e-01	 4.672460e+00	 9.256063e+00
4	 1.181428e+00	 4.739229e+00	 9.443174e+00
4	 1.102585e+00	 4.739059e+00	 9.408497e+00
4	 1.023748e+00	 4.738857e+00	 9.374853e+00
4	 9.449173e-01	 4.738623e+00	 9.342545e+00
4	 8.660956e-01	 4.738358e+00	 9.311872e+00
4	 7.872838e-01	 4.738060e+00	 9.283133e+00
4	 1.198596e+00	 4.804515e+00	 9.464806e+00
4	 1.118627e+00	 4.804383e+00	 9.431098e+00
4	 1.038663e+00	 4.804227e+00	 9.398393e+00
4	 9.587048e-01	 4.804047e+00	 9.366984e+00
4	 8.787528e-01	 4.803843e+00	 9.337166e+00
4	 7.988083e-01	 4.803614e+00	 9.309231e+00
4	 1.215747e+00	 4.869739e+00	 9.485588e+00
4	 1.134655e+00	 4.869648e+00	 9.452819e+00
4	 1.053566e+00	 4.869541e+00	 9.421021e+00
4	 9.724810e-01	 4.869418e+00	 9.390483e+00
4	 8.914004e-01	 4.869278e+00	 9.361492e+00
4	 8.103248e-01	 4.869123e+00	 9.334334e+00
4	 1.232882e+00	 4.934900e+00	 9.505494e+00
4	 1.150668e+00	 4.934854e+00	 9.473632e+00
4	 1.068456e+00	 4.934799e+00	 9.442712e+00
4	 9.862461e-01	 4.934735e+00	 9.413016e+00
4	 9.040383e-01	 4.934664e+00	 9.384826e+00
4	 8.218331e-01	 4.934584e+00	 9.358420e+00
4	 1.250000e+00	 5.000000e+00	 9.524496e+00
4	 1.166667e+00	 5.000000e+00	 9.493513e+00
4	 1.083333e+00	 5.000000e+00	 9.463442e+00
4	 1.000000e+00	 5.000000e+00	 9.434562e+00
4	 9.166667e-01	 5.000000e+00	 9.407146e+00
4	 8.333333e-01	 5.000000e+00	 9.381468e+00
4	 7.757510e-01	 4.672460e+00	 9.256063e+00
4	 6.980870e-01	 4.672057e+00	 9.228603e+00
4	 6.204385e-01	 4.671615e+00	 9.203325e+00
4	 5.428069e-01	 4.671134e+00	 9.180449e+00
4	 4.651940e-01	 4.670614e+00	 9.160194e+00
4	 3.876014e-01	 4.670054e+00	 9.142778e+00
4	 7.872838e-01	 4.738060e+00	 9.283133e+00
4	 7.084831e-01	 4.737731e+00	 9.256448e+00
4	 6.296950e-01	 4.737369e+00	 9.231887e+00
4	 5.509207e-01	 4.736976e+00	 9.209666e+00
4	 4.721616e-01	 4.736551e+00	 9.190000e+00
4	 3.934190e-01	 4.736094e+00	 9.173099e+00
4	 7.988083e-01	 4.803614e+00	 9.309231e+00
4	 7.188724e-01	 4.803362e+00	 9.283296e+00
4	 6.389460e-01	 4.803085e+00	 9.259429e+00
4	 5.590302e-01	 4.802784e+00	 9.237842e+00
4	 4.791259e-01	 4.802459e+00	 9.218743e+00
4	 3.992343e-01	 4.802109e+00	 9.202341e+00
4	 8.103248e-01	 4.869123e+00	 9.334334e+00
4	 7.292550e-01	 4.868950e+00	 9.309124e+00
4	 6.481917e-01	 4.868762e+00	 9.285929e+00
4	 5.671355e-01	 4.868557e+00	 9.264955e+00
4	 4.860871e-01	 4.868336e+00	 9.246406e+00
4	 4.050473e-01	 4.868098e+00	 9.230485e+00
4	 8.218331e-01	 4.934584e+00	 9.358420e+00
4	 7.396308e-01	 4.934496e+00	 9.333912e+00
4	 6.574319e-01	 4.934400e+00	 9.311366e+00
4	 5.752365e-01	 4.934296e+00	 9.290986e+00
4	 4.930452e-01	 4.934183e+00	 9.272970e+00
4	 4.108581e-01	 4.934062e+00	 9.257515e+00
4	 8.333333e-01	 5.000000e+00	 9.381468e+00
4	 7.500000e-01	 5.000000e+00	 9.357639e+00
4	 6.666667e-01	 5.000000e+00	 9.335723e+00
4	 5.833333e-01	 5.000000e+00	 9.315917e+00
4	 5.000000e-01	 5.000000e+00	 9.298416e+00
4	 4.166667e-01	 5.000000e+00	 9.283414e+00
4	 3.876014e-01	 4.670054e+00	 9.142778e+00
4	 3.100308e-01	 4.669455e+00	 9.128314e+00
4	 2.324837e-01	 4.668817e+00	 9.116836e+00
4	 1.549617e-01	 4.668139e+00	 9.108436e+00
4	 7.746666e-02	 4.667422e+00	 9.103202e+00
4	 0.000000e+00	 4.666667e+00	 9.101220e+00
4	 3.934190e-01	 4.736094e+00	 9.173099e+00
4	 3.146942e-01	 4.735606e+00	 9.159075e+00
4	 2.359886e-01	 4.735085e+00	 9.147963e+00
4	 1.573035e-01	 4.734533e+00	 9.139850e+00
4	 7.864019e-02	 4.733949e+00	 9.134822e+00
4	 0.000000e+00	 4.733333e+00	 9.132962e+00
4	 3.992343e-01	 4.802109e+00	 9.202341e+00
4	 3.193562e-01	 4.801736e+00	 9.188744e+00
4	 2.394927e-01	 4.801338e+00	 9.177984e+00
4	 1.596449e-01	 4.800916e+00	 9.170148e+00
4	 7.981362e-02	 4.800470e+00	 9.165319e+00
4	 0.000000e+00	 4.800000e+00	 9.163576e+00
4	 4.050473e-01	 4.868098e+00	 9.230485e+00
4	 3.240167e-01	 4.867845e+00	 9.217300e+00
4	 2.429960e-01	 4.867575e+00	 9.206882e+00
4	 1.619858e-01	 4.867288e+00	 9.199313e+00
4	 8.098696e-02	 4.866986e+00	 9.194675e+00
4	 0.000000e+00	 4.866667e+00	 9.193045e+00
4	 4.108581e-01	 4.934062e+00	 9.257515e+00
4	 3.286758e-01	 4.933933e+00	 9.244728e+00
4	 2.464984e-01	 4.933795e+00	 9.234640e+00
4	 1.643264e-01	 4.933650e+00	 9.227329e+00
4	 8.216019e-02	 4.933496e+00	 9.222875e+00
4	 0.000000e+00	 4.933333e+00	 9.221353e+00
4	 4.166667e-01	 5.000000e+00	 9.283414e+00
4	 3.333333e-01	 5.000000e+00	 9.271012e+00
4	 2.500000e-01	 5.000000e+00	 9.261242e+00
4	 1.666667e-01	 5.000000e+00	 9.254181e+00
4	 8.333333e-02	 5.000000e+00	 9.249904e+00
4	 0.000000e+00	 5.000000e+00	 9.248485e+00
