x	y	stress_xx
 1.0000000000e+00	 0.0000000000e+00	 5.2552623509e-03
 9.9996527899e-01	 8.3331160240e-03	 7.7143606063e-03
 9.9986064260e-01	 1.6694172137e-02	 1.4257399965e-02
 9.9968538642e-01	 2.5082427705e-02	 2.4966318402e-02
 9.9943881383e-01	 3.3497125286e-02	 3.9907085951e-02
 9.9912023645e-01	 4.1937490654e-02	 5.9129389273e-02
 9.9872897451e-01	 5.0402732834e-02	 8.2666365175e-02
 9.9826435734e-01	 5.8892044155e-02	 1.1053438415e-01
 9.9772572376e-01	 6.7404600309e-02	 1.4273288478e-01
 9.9711242253e-01	 7.5939560420e-02	 1.7924425962e-01
 9.9642381276e-01	 8.4496067130e-02	 2.2003379301e-01
 1.0058823529e+00	 0.0000000000e+00	 1.7434076820e-01
 1.0058474277e+00	 8.3821343536e-03	 1.7661956535e-01
 1.0057421758e+00	 1.6792373149e-02	 1.8273410554e-01
 1.0055658887e+00	 2.5229971398e-02	 1.9276392799e-01
 1.0053178657e+00	 3.3694167200e-02	 2.0677216994e-01
 1.0049974143e+00	 4.2184181775e-02	 2.2480526061e-01
 1.0046038508e+00	 5.0699219497e-02	 2.4689266628e-01
 1.0041365006e+00	 5.9238467944e-02	 2.7304668737e-01
 1.0035946986e+00	 6.7801097958e-02	 3.0326230845e-01
 1.0029777897e+00	 7.6386263717e-02	 3.3751710179e-01
 1.0022851293e+00	 8.4993102819e-02	 3.7577118477e-01
 1.0117647059e+00	 0.0000000000e+00	 3.3862426354e-01
 1.0117295764e+00	 8.4311526831e-03	 3.4074295997e-01
 1.0116237090e+00	 1.6890574162e-02	 3.4645575817e-01
 1.0114463910e+00	 2.5377515090e-02	 3.5584044978e-01
 1.0111969175e+00	 3.3891209113e-02	 3.6895798893e-01
 1.0108745922e+00	 4.2430872897e-02	 3.8585219560e-01
 1.0104787271e+00	 5.0995706161e-02	 4.0654951211e-01
 1.0100086439e+00	 5.9584891733e-02	 4.3105881379e-01
 1.0094636735e+00	 6.8197595607e-02	 4.5937127461e-01
 1.0088431569e+00	 7.6832967013e-02	 4.9146028834e-01
 1.0081464459e+00	 8.5490138508e-02	 5.2728144567e-01
 1.0176470588e+00	 0.0000000000e+00	 4.9785183670e-01
 1.0176117251e+00	 8.4801710127e-03	 4.9982902562e-01
 1.0175052422e+00	 1.6988775174e-02	 5.0516554524e-01
 1.0173268932e+00	 2.5525058782e-02	 5.1393807345e-01
 1.0170759694e+00	 3.4088251027e-02	 5.2620601302e-01
 1.0167517700e+00	 4.2677564018e-02	 5.4201120435e-01
 1.0163536035e+00	 5.1292192825e-02	 5.6137769339e-01
 1.0158807872e+00	 5.9931315523e-02	 5.8431155583e-01
 1.0153326483e+00	 6.8594093256e-02	 6.1080077840e-01
 1.0147085241e+00	 7.7279670310e-02	 6.4081519772e-01
 1.0140077624e+00	 8.5987174197e-02	 6.7430649720e-01
 1.0235294118e+00	 0.0000000000e+00	 6.5177567740e-01
 1.0234938738e+00	 8.5291893422e-03	 6.5362835440e-01
 1.0233867754e+00	 1.7086976187e-02	 6.5861277336e-01
 1.0232073955e+00	 2.5672602475e-02	 6.6680511494e-01
 1.0229550212e+00	 3.4285292940e-02	 6.7826384452e-01
 1.0226289479e+00	 4.2924255140e-02	 6.9302943426e-01
 1.0222284798e+00	 5.1588679489e-02	 7.1112414241e-01
 1.0217529305e+00	 6.0277739312e-02	 7.3255185112e-01
 1.0212016231e+00	 6.8990590905e-02	 7.5729796337e-01
 1.0205738913e+00	 7.7726373607e-02	 7.8532935968e-01
 1.0198690789e+00	 8.6484209886e-02	 8.1659441487e-01
 1.0294117647e+00	 0.0000000000e+00	 8.0015390237e-01
 1.0293760225e+00	 8.5782076718e-03	 8.0189747473e-01
 1.0292683086e+00	 1.7185177200e-02	 8.0655269341e-01
 1.0290878978e+00	 2.5820146167e-02	 8.1419584129e-01
 1.0288340731e+00	 3.4482334854e-02	 8.2488504267e-01
 1.0285061258e+00	 4.3170946261e-02	 8.3865999460e-01
 1.0281033561e+00	 5.1885166152e-02	 8.5554175758e-01
 1.0276250737e+00	 6.0624163101e-02	 8.7553260701e-01
 1.0270705980e+00	 6.9387088554e-02	 8.9861594595e-01
 1.0264392585e+00	 7.8173076903e-02	 9.2475627971e-01
 1.0257303955e+00	 8.6981245575e-02	 9.5389925261e-01
 1.0352941176e+00	 0.0000000000e+00	 9.4275038704e-01
 1.0352581712e+00	 8.6272260013e-03	 9.4439868264e-01
 1.0351498417e+00	 1.7283378212e-02	 9.4874633159e-01
 1.0349684001e+00	 2.5967689860e-02	 9.5587030150e-01
 1.0347131249e+00	 3.4679376767e-02	 9.6582895438e-01
 1.0343833036e+00	 4.3417637383e-02	 9.7866178714e-01
 1.0339782324e+00	 5.2181652816e-02	 9.9438923389e-01
 1.0334972170e+00	 6.0970586890e-02	 1.0130125310e+00
 1.0329395728e+00	 6.9783586202e-02	 1.0345136459e+00
 1.0323046257e+00	 7.8619780200e-02	 1.0588552694e+00
 1.0315917120e+00	 8.7478281264e-02	 1.0859808731e+00
 1.0411764706e+00	 0.0000000000e+00	 1.0793346028e+00
 1.0411403199e+00	 8.6762443309e-03	 1.0808998787e+00
 1.0410313749e+00	 1.7381579225e-02	 1.0849603262e+00
 1.0408489023e+00	 2.6115233552e-02	 1.0915941631e+00
 1.0405921768e+00	 3.4876418681e-02	 1.1008605506e+00
 1.0402604815e+00	 4.3664328504e-02	 1.1127993425e+00
 1.0398531088e+00	 5.2478139480e-02	 1.1274308993e+00
 1.0393693603e+00	 6.1317010679e-02	 1.1447559671e+00
 1.0388085477e+00	 7.0180083851e-02	 1.1647556224e+00
 1.0381699929e+00	 7.9066483496e-02	 1.1873912827e+00
 1.0374530286e+00	 8.7975316953e-02	 1.2126047839e+00
 1.0470588235e+00	 0.0000000000e+00	 1.2096814598e+00
 1.0470224686e+00	 8.7252626604e-03	 1.2111744108e+00
 1.0469129081e+00	 1.7479780237e-02	 1.2149667699e+00
 1.0467294046e+00	 2.6262777244e-02	 1.2211385544e+00
 1.0464712286e+00	 3.5073460594e-02	 1.2297502684e+00
 1.0461376593e+00	 4.3911019626e-02	 1.2408426619e+00
 1.0457279851e+00	 5.2774626143e-02	 1.2544365563e+00
 1.0452415036e+00	 6.1663434468e-02	 1.2705327374e+00
 1.0446775225e+00	 7.0576581500e-02	 1.2891119160e+00
 1.0440353601e+00	 7.9513186793e-02	 1.3101347572e+00
 1.0433143451e+00	 8.8472352642e-02	 1.3335419789e+00
 1.0529411765e+00	 0.0000000000e+00	 1.3335711553e+00
 1.0529046173e+00	 8.7742809900e-03	 1.3350009215e+00
 1.0527944413e+00	 1.7577981250e-02	 1.3385430572e+00
 1.0526099069e+00	 2.6410320937e-02	 1.3442799115e+00
 1.0523502804e+00	 3.5270502508e-02	 1.3522738580e+00
 1.0520148372e+00	 4.4157710747e-02	 1.3625670644e+00
 1.0516028614e+00	 5.3071112807e-02	 1.3751813294e+00
 1.0511136468e+00	 6.2009858257e-02	 1.3901179891e+00
 1.0505464974e+00	 7.0973079149e-02	 1.4073578950e+00
 1.0499007273e+00	 7.9959890090e-02	 1.4268614616e+00
 1.0491756617e+00	 8.8969388331e-02	 1.4485687852e+00
 1.0588235294e+00	 0.0000000000e+00	 1.4507890261e+00
 1.0587867660e+00	 8.8232993196e-03	 1.4521632011e+00
 1.0586759745e+00	 1.7676182262e-02	 1.4554717374e+00
 1.0584904091e+00	 2.6557864629e-02	 1.4607998310e+00
 1.0582293323e+00	 3.5467544421e-02	 1.4682122353e+00
 1.0578920151e+00	 4.4404401869e-02	 1.4777530393e+00
 1.0574777377e+00	 5.3367599471e-02	 1.4894455166e+00
 1.0569857901e+00	 6.2356282047e-02	 1.5032920466e+00
 1.0564154722e+00	 7.1369576798e-02	 1.5192741082e+00
 1.0557660944e+00	 8.0406593386e-02	 1.5373523471e+00
 1.0550369782e+00	 8.9466424020e-02	 1.5574667154e+00
 9.9642381276e-01	 8.4496067130e-02	 2.2003379301e-01
 9.9565926438e-01	 9.3073246691e-02	 2.6517539825e-01
 9.9481815855e-01	 1.0167020908e-01	 3.1472479300e-01
 9.9389988811e-01	 1.1028604810e-01	 3.6859540559e-01
 9.9290385803e-01	 1.1891984155e-01	 4.2668522365e-01
 9.9182948581e-01	 1.2757065133e-01	 4.8887706950e-01
 9.9067620198e-01	 1.3623752361e-01	 5.5503892522e-01
 9.8944345048e-01	 1.4491948902e-01	 6.2502430640e-01
 9.8813068916e-01	 1.5361556282e-01	 6.9867268266e-01
 9.8673739016e-01	 1.6232474508e-01	 7.7580994321e-01
 9.8526304037e-01	 1.7104602093e-01	 8.5624890531e-01
 1.0022851293e+00	 8.4993102819e-02	 3.7577118477e-01
 1.0015160836e+00	 9.3620736378e-02	 4.1810960701e-01
 1.0006700301e+00	 1.0226826913e-01	 4.6460808367e-01
 9.9974635804e-01	 1.1093478956e-01	 5.1518769002e-01
 9.9874446896e-01	 1.1961937003e-01	 5.6975376116e-01
 9.9766377690e-01	 1.2832106693e-01	 6.2819617797e-01
 9.9650370905e-01	 1.3703892081e-01	 6.9038970433e-01
 9.9526370607e-01	 1.4577195661e-01	 7.5619437388e-01
 9.9394322263e-01	 1.5451918378e-01	 8.2545592474e-01
 9.9254172775e-01	 1.6327959652e-01	 8.9800628027e-01
 9.9105870532e-01	 1.7205217400e-01	 9.7366407343e-01
 1.0081464459e+00	 8.5490138508e-02	 5.2728144567e-01
 1.0073729028e+00	 9.4168226064e-02	 5.6692947359e-01
 1.0065219016e+00	 1.0286632918e-01	 6.1049731051e-01
 1.0055928280e+00	 1.1158353102e-01	 6.5791233811e-01
 1.0045850799e+00	 1.2031889851e-01	 7.0908589079e-01
 1.0034980680e+00	 1.2907148252e-01	 7.6391355488e-01
 1.0023312161e+00	 1.3784031801e-01	 8.2227552020e-01
 1.0010839617e+00	 1.4662442419e-01	 8.8403698255e-01
 9.9975575609e-01	 1.5542280473e-01	 9.4904859515e-01
 9.9834606534e-01	 1.6423444796e-01	 1.0171469672e+00
 9.9685437026e-01	 1.7305832706e-01	 1.0881552068e+00
 1.0140077624e+00	 8.5987174197e-02	 6.7430649720e-01
 1.0132297220e+00	 9.4715715750e-02	 7.1137774850e-01
 1.0123737731e+00	 1.0346438924e-01	 7.5213648834e-01
 1.0114392979e+00	 1.1223227248e-01	 7.9651507718e-01
 1.0104256908e+00	 1.2101842699e-01	 8.4442951358e-01
 1.0093323591e+00	 1.2982189812e-01	 8.9577974889e-01
 1.0081587232e+00	 1.3864171521e-01	 9.5045005577e-01
 1.0069042173e+00	 1.4747689177e-01	 1.0083094488e+00
 1.0055682896e+00	 1.5632642569e-01	 1.0692121553e+00
 1.0041504029e+00	 1.6518929941e-01	 1.1329981344e+00
 1.0026500352e+00	 1.7406448012e-01	 1.1994936414e+00
 1.0198690789e+00	 8.6484209886e-02	 8.1659441487e-01
 1.0190865412e+00	 9.5263205437e-02	 8.5120333565e-01
 1.0182256446e+00	 1.0406244929e-01	 8.8927577749e-01
 1.0172857678e+00	 1.1288101394e-01	 9.3074776450e-01
 1.0162663017e+00	 1.2171795547e-01	 9.7553863649e-01
 1.0151666502e+00	 1.3057231371e-01	 1.0235513816e+00
 1.0139862303e+00	 1.3944311240e-01	 1.0746730241e+00
 1.0127244728e+00	 1.4832935935e-01	 1.1287750659e+00
 1.0113808230e+00	 1.5723004665e-01	 1.1857139796e+00
 1.0099547405e+00	 1.6614415085e-01	 1.2453317500e+00
 1.0084457001e+00	 1.7507063319e-01	 1.3074564630e+00
 1.0257303955e+00	 8.6981245575e-02	 9.5389925261e-01
 1.0249433604e+00	 9.5810695123e-02	 9.8616111673e-01
 1.0240775162e+00	 1.0466050935e-01	 1.0216713085e+00
 1.0231322378e+00	 1.1352975540e-01	 1.0603682124e+00
 1.0221069127e+00	 1.2241748395e-01	 1.1021731981e+00
 1.0210009413e+00	 1.3132272931e-01	 1.1469909737e+00
 1.0198137373e+00	 1.4024450960e-01	 1.1947099957e+00
 1.0185447284e+00	 1.4918182694e-01	 1.2452029332e+00
 1.0171933565e+00	 1.5813366761e-01	 1.2983271858e+00
 1.0157590781e+00	 1.6709900229e-01	 1.3539254513e+00
 1.0142413651e+00	 1.7607678625e-01	 1.4118263409e+00
 1.0315917120e+00	 8.7478281264e-02	 1.0859808731e+00
 1.0308001796e+00	 9.6358184810e-02	 1.1160117816e+00
 1.0299293877e+00	 1.0525856940e-01	 1.1490850127e+00
 1.0289787077e+00	 1.1417849686e-01	 1.1851400190e+00
 1.0279475236e+00	 1.2311701243e-01	 1.2240988999e+00
 1.0268352324e+00	 1.3207314491e-01	 1.2658667778e+00
 1.0256412444e+00	 1.4104590680e-01	 1.3103322321e+00
 1.0243649840e+00	 1.5003429452e-01	 1.3573677899e+00
 1.0230058900e+00	 1.5903728857e-01	 1.4068304708e+00
 1.0215634157e+00	 1.6805385373e-01	 1.4585623829e+00
 1.0200370300e+00	 1.7708293932e-01	 1.5123913682e+00
 1.0374530286e+00	 8.7975316953e-02	 1.2126047839e+00
 1.0366569988e+00	 9.6905674496e-02	 1.2405216643e+00
 1.0357812592e+00	 1.0585662945e-01	 1.2712844584e+00
 1.0348251776e+00	 1.1482723832e-01	 1.3048324052e+00
 1.0337881345e+00	 1.2381654091e-01	 1.3410870440e+00
 1.0326695235e+00	 1.3282356050e-01	 1.3799526159e+00
 1.0314687515e+00	 1.4184730400e-01	 1.4213165247e+00
 1.0301852396e+00	 1.5088676210e-01	 1.4650498560e+00
 1.0288184234e+00	 1.5994090952e-01	 1.5110079523e+00
 1.0273677533e+00	 1.6900870517e-01	 1.5590310398e+00
 1.0258326950e+00	 1.7808909238e-01	 1.6089449064e+00
 1.0433143451e+00	 8.8472352642e-02	 1.3335419789e+00
 1.0425138180e+00	 9.7453164183e-02	 1.3594625848e+00
 1.0416331307e+00	 1.0645468951e-01	 1.3880426927e+00
 1.0406716476e+00	 1.1547597978e-01	 1.4192200563e+00
 1.0396287455e+00	 1.2451606939e-01	 1.4529143751e+00
 1.0385038146e+00	 1.3357397610e-01	 1.4890277228e+00
 1.0372962585e+00	 1.4264870119e-01	 1.5274450387e+00
 1.0360054952e+00	 1.5173922968e-01	 1.5680346772e+00
 1.0346309569e+00	 1.6084453048e-01	 1.6106490157e+00
 1.0331720909e+00	 1.6996355661e-01	 1.6551251159e+00
 1.0316283599e+00	 1.7909524545e-01	 1.7012854358e+00
 1.0491756617e+00	 8.8969388331e-02	 1.4485687852e+00
 1.0483706372e+00	 9.8000653869e-02	 1.4726116958e+00
 1.0474850022e+00	 1.0705274956e-01	 1.4991380885e+00
 1.0465181175e+00	 1.1612472124e-01	 1.5280829700e+00
 1.0454693564e+00	 1.2521559787e-01	 1.5593629288e+00
 1.0443381056e+00	 1.3432439169e-01	 1.5928765950e+00
 1.0431237656e+00	 1.4345009839e-01	 1.6285051629e+00
 1.0418257508e+00	 1.5259169727e-01	 1.6661129753e+00
 1.0404434904e+00	 1.6174815144e-01	 1.7055481657e+00
 1.0389764285e+00	 1.7091840806e-01	 1.7466433568e+00
 1.0374240249e+00	 1.8010139851e-01	 1.7892164108e+00
 1.0550369782e+00	 8.9466424020e-02	 1.5574667154e+00
 1.0542274564e+00	 9.8548143555e-02	 1.5797513344e+00
 1.0533368738e+00	 1.0765080961e-01	 1.6043541968e+00
 1.0523645874e+00	 1.1677346270e-01	 1.6312063081e+00
 1.0513099673e+00	 1.2591512635e-01	 1.6602198843e+00
 1.0501723967e+00	 1.3507480729e-01	 1.6912888435e+00
 1.0489512727e+00	 1.4425149559e-01	 1.7242893640e+00
 1.0476460064e+00	 1.5344416485e-01	 1.7590805039e+00
 1.0462560238e+00	 1.6265177240e-01	 1.7955048827e+00
 1.0447807660e+00	 1.7187325950e-01	 1.8333894185e+00
 1.0432196898e+00	 1.8110755158e-01	 1.8725461191e+00
 9.8526304037e-01	 1.7104602093e-01	 8.5624890531e-01
 9.8370714189e-01	 1.7977836075e-01	 9.4022230196e-01
 9.8206921241e-01	 1.8852072043e-01	 1.0279655536e+00
 9.8034878569e-01	 1.9727204159e-01	 1.1192770339e+00
 9.7854541195e-01	 2.0603125189e-01	 1.2139436430e+00
 9.7665865830e-01	 2.1479726526e-01	 1.3117414849e+00
 9.7468810918e-01	 2.2356898224e-01	 1.4124365712e+00
 9.7263336675e-01	 2.3234529023e-01	 1.5157855484e+00
 9.7049405128e-01	 2.4112506387e-01	 1.6215364451e+00
 9.6826980162e-01	 2.4990716530e-01	 1.7294294351e+00
 9.6596027552e-01	 2.5869044459e-01	 1.8391976130e+00
 9.9105870532e-01	 1.7205217400e-01	 9.7366407343e-01
 9.8949365449e-01	 1.8083588052e-01	 1.0526626709e+00
 9.8784609013e-01	 1.8962966584e-01	 1.1352383937e+00
 9.8611554325e-01	 1.9843246537e-01	 1.2211957244e+00
 9.8430156143e-01	 2.0724320043e-01	 1.3103277525e+00
 9.8240370923e-01	 2.1606077859e-01	 1.4024168731e+00
 9.8042156865e-01	 2.2488409390e-01	 1.4972355131e+00
 9.7835473949e-01	 2.3371202723e-01	 1.5945468799e+00
 9.7620283982e-01	 2.4254344659e-01	 1.6941057293e+00
 9.7396550634e-01	 2.5137720745e-01	 1.7956591495e+00
 9.7164239478e-01	 2.6021215309e-01	 1.8989473561e+00
 9.9685437026e-01	 1.7305832706e-01	 1.0881552068e+00
 9.9528016709e-01	 1.8189340029e-01	 1.1623081431e+00
 9.9362296785e-01	 1.9073861126e-01	 1.2398453128e+00
 9.9188230082e-01	 1.9959288914e-01	 1.3205781970e+00
 9.9005771091e-01	 2.0845514897e-01	 1.4043069539e+00
 9.8814876016e-01	 2.1732429191e-01	 1.4908211388e+00
 9.8615502811e-01	 2.2619920556e-01	 1.5799004516e+00
 9.8407611224e-01	 2.3507876424e-01	 1.6713155062e+00
 9.8191162836e-01	 2.4396182932e-01	 1.7648286189e+00
 9.7966121105e-01	 2.5284724960e-01	 1.8601946121e+00
 9.7732451405e-01	 2.6173386159e-01	 1.9571616278e+00
 1.0026500352e+00	 1.7406448012e-01	 1.1994936414e+00
 1.0010666797e+00	 1.8295092006e-01	 1.2689353579e+00
 9.9939984557e-01	 1.9184755667e-01	 1.3415678857e+00
 9.9764905838e-01	 2.0075331291e-01	 1.4172105656e+00
 9.9581386039e-01	 2.0966709751e-01	 1.4956714758e+00
 9.9389381110e-01	 2.1858780524e-01	 1.5767481731e+00
 9.9188848758e-01	 2.2751431722e-01	 1.6602284606e+00
 9.8979748498e-01	 2.3644550124e-01	 1.7458911772e+00
 9.8762041689e-01	 2.4538021205e-01	 1.8335070065e+00
 9.8535691577e-01	 2.5431729175e-01	 1.9228392983e+00
 9.8300663332e-01	 2.6325557008e-01	 2.0136449012e+00
 1.0084457001e+00	 1.7507063319e-01	 1.3074564630e+00
 1.0068531923e+00	 1.8400843983e-01	 1.3723266142e+00
 1.0051767233e+00	 1.9295650209e-01	 1.4401932645e+00
 1.0034158159e+00	 2.0191373669e-01	 1.5108844474e+00
 1.0015700099e+00	 2.1087904605e-01	 1.5842169850e+00
 9.9963886203e-01	 2.1985131856e-01	 1.6599972490e+00
 9.9762194704e-01	 2.2882942888e-01	 1.7380219487e+00
 9.9551885773e-01	 2.3781223824e-01	 1.8180789406e+00
 9.9332920543e-01	 2.4679859478e-01	 1.8999480551e+00
 9.9105262048e-01	 2.5578733390e-01	 1.9834019377e+00
 9.8868875259e-01	 2.6477727858e-01	 2.0682068981e+00
 1.0142413651e+00	 1.7607678625e-01	 1.4118263409e+00
 1.0126397049e+00	 1.8506595960e-01	 1.4722697064e+00
 1.0109536010e+00	 1.9406544750e-01	 1.5355140163e+00
 1.0091825735e+00	 2.0307416046e-01	 1.6013968023e+00
 1.0073261594e+00	 2.1209099459e-01	 1.6697444265e+00
 1.0053839130e+00	 2.2111483189e-01	 1.7403728623e+00
 1.0033554065e+00	 2.3014454054e-01	 1.8130885016e+00
 1.0012402305e+00	 2.3917897524e-01	 1.8876889835e+00
 9.9903799397e-01	 2.4821697751e-01	 1.9639640402e+00
 9.9674832520e-01	 2.5725737605e-01	 2.0416963549e+00
 9.9437087186e-01	 2.6629898708e-01	 2.1206624280e+00
 1.0200370300e+00	 1.7708293932e-01	 1.5123913682e+00
 1.0184262175e+00	 1.8612347937e-01	 1.5685577664e+00
 1.0167304787e+00	 1.9517439291e-01	 1.6273279669e+00
 1.0149493311e+00	 2.0423458424e-01	 1.6885497778e+00
 1.0130823088e+00	 2.1330294313e-01	 1.7520598702e+00
 1.0111289639e+00	 2.2237834521e-01	 1.8176845788e+00
 1.0090888660e+00	 2.3145965220e-01	 1.8852407281e+00
 1.0069616032e+00	 2.4054571224e-01	 1.9545364797e+00
 1.0047467825e+00	 2.4963536024e-01	 2.0253721958e+00
 1.0024440299e+00	 2.5872741820e-01	 2.0975413148e+00
 1.0000529911e+00	 2.6782069558e-01	 2.1708312330e+00
 1.0258326950e+00	 1.7808909238e-01	 1.6089449064e+00
 1.0242127301e+00	 1.8718099914e-01	 1.6609891104e+00
 1.0225073565e+00	 1.9628333833e-01	 1.7154380494e+00
 1.0207160886e+00	 2.0539500801e-01	 1.7721505588e+00
 1.0188384583e+00	 2.1451489167e-01	 1.8309743610e+00
 1.0168740148e+00	 2.2364185854e-01	 1.8917468855e+00
 1.0148223254e+00	 2.3277476386e-01	 1.9542961129e+00
 1.0126829760e+00	 2.4191244924e-01	 2.0184414412e+00
 1.0104555710e+00	 2.5105374297e-01	 2.0839945663e+00
 1.0081397346e+00	 2.6019746034e-01	 2.1507603738e+00
 1.0057351104e+00	 2.6934240408e-01	 2.2185378374e+00
 1.0316283599e+00	 1.7909524545e-01	 1.7012854358e+00
 1.0299992427e+00	 1.8823851891e-01	 1.7493670911e+00
 1.0282842342e+00	 1.9739228374e-01	 1.7996521576e+00
 1.0264828462e+00	 2.0655543178e-01	 1.8520112224e+00
 1.0245946078e+00	 2.1572684021e-01	 1.9063037753e+00
 1.0226190658e+00	 2.2490537186e-01	 1.9623790470e+00
 1.0205557849e+00	 2.3408987552e-01	 2.0200768729e+00
 1.0184043487e+00	 2.4327918624e-01	 2.0792285753e+00
 1.0161643596e+00	 2.5247212569e-01	 2.1396578623e+00
 1.0138354393e+00	 2.6166750249e-01	 2.2011817353e+00
 1.0114172297e+00	 2.7086411257e-01	 2.2636114019e+00
 1.0374240249e+00	 1.8010139851e-01	 1.7892164108e+00
 1.0357857553e+00	 1.8929603868e-01	 1.8334999542e+00
 1.0340611119e+00	 1.9850122916e-01	 1.8797830045e+00
 1.0322496038e+00	 2.0771585556e-01	 1.9279485979e+00
 1.0303507573e+00	 2.1693878875e-01	 1.9778686808e+00
 1.0283641167e+00	 2.2616888519e-01	 2.0294049670e+00
 1.0262892444e+00	 2.3540498718e-01	 2.0824098183e+00
 1.0241257215e+00	 2.4464592324e-01	 2.1367271454e+00
 1.0218731481e+00	 2.5389050842e-01	 2.1921933222e+00
 1.0195311441e+00	 2.6313754464e-01	 2.2486381095e+00
 1.0170993489e+00	 2.7238582107e-01	 2.3058855827e+00
 1.0432196898e+00	 1.8110755158e-01	 1.8725461191e+00
 1.0415722679e+00	 1.9035355845e-01	 1.9132007005e+00
 1.0398379896e+00	 1.9961017457e-01	 1.9556479852e+00
 1.0380163613e+00	 2.0887627933e-01	 1.9997841300e+00
 1.0361069068e+00	 2.1815073729e-01	 2.0454942019e+00
 1.0341091676e+00	 2.2743239851e-01	 2.0926530529e+00
 1.0320227038e+00	 2.3672009884e-01	 2.1411262189e+00
 1.0298470942e+00	 2.4601266025e-01	 2.1907708369e+00
 1.0275819367e+00	 2.5530889115e-01	 2.2414365764e+00
 1.0252268488e+00	 2.6460758679e-01	 2.2929665779e+00
 1.0227814682e+00	 2.7390752957e-01	 2.3451983944e+00
 9.6596027552e-01	 2.5869044459e-01	 1.8391976130e+00
 9.6356515005e-01	 2.6747374003e-01	 1.9511685433e+00
 9.6108412201e-01	 2.7625587852e-01	 2.0656200366e+00
 9.5851690826e-01	 2.8503567598e-01	 2.1822019112e+00
 9.5586324611e-01	 2.9381193771e-01	 2.3005596036e+00
 9.5312289367e-01	 3.0258345885e-01	 2.4203350271e+00
 9.5029563021e-01	 3.1134902473e-01	 2.5411674216e+00
 9.4738125650e-01	 3.2010741140e-01	 2.6626941892e+00
 9.4437959512e-01	 3.2885738599e-01	 2.7845517138e+00
 9.4129049080e-01	 3.3759770722e-01	 2.9063761594e+00
 9.3811381073e-01	 3.4632712587e-01	 3.0278042445e+00
 9.7164239478e-01	 2.6021215309e-01	 1.8989473561e+00
 9.6923318035e-01	 2.6904711497e-01	 2.0043062935e+00
 9.6673755802e-01	 2.7788091310e-01	 2.1120157354e+00
 9.6415524301e-01	 2.8671235642e-01	 2.2217230877e+00
 9.6148597108e-01	 2.9554024323e-01	 2.3330712925e+00
 9.5872949892e-01	 3.0436336155e-01	 2.4456997083e+00
 9.5588560451e-01	 3.1318048959e-01	 2.5592449798e+00
 9.5295408742e-01	 3.2199039618e-01	 2.6733418940e+00
 9.4993476921e-01	 3.3079184120e-01	 2.7876242164e+00
 9.4682749369e-01	 3.3958357609e-01	 2.9017255063e+00
 9.4363212727e-01	 3.4836434426e-01	 3.0152799054e+00
 9.7732451405e-01	 2.6173386159e-01	 1.9571616278e+00
 9.7490121064e-01	 2.7062048991e-01	 2.0560726058e+00
 9.7239099404e-01	 2.7950594768e-01	 2.1572083190e+00
 9.6979357777e-01	 2.8838903687e-01	 2.2602152021e+00
 9.6710869606e-01	 2.9726854874e-01	 2.3647351641e+00
 9.6433610418e-01	 3.0614326424e-01	 2.4704064892e+00
 9.6147557880e-01	 3.1501195444e-01	 2.5768647261e+00
 9.5852691834e-01	 3.2387338095e-01	 2.6837435608e+00
 9.5548994330e-01	 3.3272629641e-01	 2.7906756703e+00
 9.5236449658e-01	 3.4156944495e-01	 2.8972935516e+00
 9.4915044380e-01	 3.5040156264e-01	 3.0032303238e+00
 9.8300663332e-01	 2.6325557008e-01	 2.0136449012e+00
 9.8056924094e-01	 2.7219386485e-01	 2.1062726371e+00
 9.7804443005e-01	 2.8113098226e-01	 2.2010035792e+00
 9.7543191252e-01	 2.9006571732e-01	 2.2974845981e+00
 9.7273142104e-01	 2.9899685426e-01	 2.3953579973e+00
 9.6994270944e-01	 3.0792316694e-01	 2.4942624338e+00
 9.6706555310e-01	 3.1684341929e-01	 2.5938338251e+00
 9.6409974926e-01	 3.2575636572e-01	 2.6937062384e+00
 9.6104511739e-01	 3.3466075163e-01	 2.7935127588e+00
 9.5790149947e-01	 3.4355531382e-01	 2.8928863318e+00
 9.5466876033e-01	 3.5243878103e-01	 2.9914605757e+00
 9.8868875259e-01	 2.6477727858e-01	 2.0682068981e+00
 9.8623727123e-01	 2.7376723979e-01	 2.1547167915e+00
 9.8369786606e-01	 2.8275601684e-01	 2.2432125521e+00
 9.8107024728e-01	 2.9174239776e-01	 2.3333428593e+00
 9.7835414602e-01	 3.0072515978e-01	 2.4247518059e+00
 9.7554931469e-01	 3.0970306964e-01	 2.5170798356e+00
 9.7265552739e-01	 3.1867488414e-01	 2.6099646672e+00
 9.6967258018e-01	 3.2763935049e-01	 2.7030421985e+00
 9.6660029148e-01	 3.3659520684e-01	 2.7959473879e+00
 9.6343850235e-01	 3.4554118269e-01	 2.8883151078e+00
 9.6018707687e-01	 3.5447599942e-01	 2.9797809671e+00
 9.9437087186e-01	 2.6629898708e-01	 2.1206624280e+00
 9.9190530152e-01	 2.7534061473e-01	 2.2012205584e+00
 9.8935130207e-01	 2.8438105142e-01	 2.2836513539e+00
 9.8670858203e-01	 2.9341907821e-01	 2.3676066438e+00
 9.8397687099e-01	 3.0245346529e-01	 2.4527336716e+00
 9.8115591995e-01	 3.1148297234e-01	 2.5386760497e+00
 9.7824550169e-01	 3.2050634899e-01	 2.6250746982e+00
 9.7524541110e-01	 3.2952233527e-01	 2.7115687635e+00
 9.7215546556e-01	 3.3852966205e-01	 2.7977965108e+00
 9.6897550524e-01	 3.4752705155e-01	 2.8833961881e+00
 9.6570539340e-01	 3.5651321781e-01	 2.9680068549e+00
 1.0000529911e+00	 2.6782069558e-01	 2.1708312330e+00
 9.9757333182e-01	 2.7691398968e-01	 2.2456043555e+00
 9.9500473808e-01	 2.8600608600e-01	 2.3221410235e+00
 9.9234691679e-01	 2.9509575866e-01	 2.4000975247e+00
 9.8959959597e-01	 3.0418177081e-01	 2.4791255829e+00
 9.8676252521e-01	 3.1326287504e-01	 2.5588733289e+00
 9.8383547598e-01	 3.2233781384e-01	 2.6389862537e+00
 9.8081824202e-01	 3.3140532004e-01	 2.7191081388e+00
 9.7771063965e-01	 3.4046411726e-01	 2.7988819595e+00
 9.7451250813e-01	 3.4951292042e-01	 2.8779507567e+00
 9.7122370994e-01	 3.5855043619e-01	 2.9559584723e+00
 1.0057351104e+00	 2.6934240408e-01	 2.2185378374e+00
 1.0032413621e+00	 2.7848736462e-01	 2.2876933772e+00
 1.0006581741e+00	 2.8763112057e-01	 2.3585073688e+00
 9.9798525154e-01	 2.9677243910e-01	 2.4306418350e+00
 9.9522232095e-01	 3.0591007632e-01	 2.5037542782e+00
 9.9236913047e-01	 3.1504277774e-01	 2.5774986666e+00
 9.8942545028e-01	 3.2416927869e-01	 2.6515264000e+00
 9.8639107294e-01	 3.3328830481e-01	 2.7254872516e+00
 9.8326581374e-01	 3.4239857247e-01	 2.7990302799e+00
 9.8004951101e-01	 3.5149878928e-01	 2.8718047074e+00
 9.7674202647e-01	 3.6058765458e-01	 2.9434607597e+00
 1.0114172297e+00	 2.7086411257e-01	 2.2636114019e+00
 1.0089093924e+00	 2.8006073956e-01	 2.3273174473e+00
 1.0063116101e+00	 2.8925615515e-01	 2.3925808184e+00
 1.0036235863e+00	 2.9844911955e-01	 2.4590705180e+00
 1.0008450459e+00	 3.0763838184e-01	 2.5264510948e+00
 9.9797573572e-01	 3.1682268044e-01	 2.5943836427e+00
 9.9501542457e-01	 3.2600074355e-01	 2.6625267783e+00
 9.9196390386e-01	 3.3517128959e-01	 2.7305375933e+00
 9.8882098783e-01	 3.4433302768e-01	 2.7980725732e+00
 9.8558651390e-01	 3.5348465815e-01	 2.8647884813e+00
 9.8226034300e-01	 3.6262487297e-01	 2.9303432012e+00
 1.0170993489e+00	 2.7238582107e-01	 2.3058855827e+00
 1.0145774227e+00	 2.8163411450e-01	 2.3643108772e+00
 1.0119650461e+00	 2.9088118973e-01	 2.4241962774e+00
 1.0092619211e+00	 3.0012580000e-01	 2.4852189817e+00
 1.0064677709e+00	 3.0936668736e-01	 2.5470518218e+00
 1.0035823410e+00	 3.1860258314e-01	 2.6093642754e+00
 1.0006053989e+00	 3.2783220840e-01	 2.6718234549e+00
 9.9753673478e-01	 3.3705427436e-01	 2.7340950675e+00
 9.9437616192e-01	 3.4626748290e-01	 2.7958443411e+00
 9.9112351679e-01	 3.5547052702e-01	 2.8567369113e+00
 9.8777865954e-01	 3.6466209136e-01	 2.9164396649e+00
 1.0227814682e+00	 2.7390752957e-01	 2.3451983944e+00
 1.0202454530e+00	 2.8320748944e-01	 2.3985123268e+00
 1.0176184821e+00	 2.9250622431e-01	 2.4531929886e+00
 1.0149002558e+00	 3.0180248045e-01	 2.5089269580e+00
 1.0120904959e+00	 3.1109499287e-01	 2.5653965573e+00
 1.0091889462e+00	 3.2038248584e-01	 2.6222808770e+00
 1.0061953732e+00	 3.2966367325e-01	 2.6792567747e+00
 1.0031095657e+00	 3.3893725913e-01	 2.7359998421e+00
 9.9993133601e-01	 3.4820193811e-01	 2.7921853362e+00
 9.9666051967e-01	 3.5745639588e-01	 2.8474890688e+00
 9.9329697607e-01	 3.6669930974e-01	 2.9015882490e+00
 9.3811381073e-01	 3.4632712587e-01	 3.0278042445e+00
 9.3484944484e-01	 3.5504438523e-01	 3.1491820324e+00
 9.3149730609e-01	 3.6374822164e-01	 3.2708294489e+00
 9.2805733076e-01	 3.7243736497e-01	 3.3923478747e+00
 9.2452947869e-01	 3.8111053912e-01	 3.5133432440e+00
 9.2091373355e-01	 3.8976646259e-01	 3.6334266968e+00
 9.1721010304e-01	 3.9840384897e-01	 3.7522151899e+00
 9.1341861916e-01	 4.0702140752e-01	 3.8693320633e+00
 9.0953933834e-01	 4.1561784371e-01	 3.9844075611e+00
 9.0557234173e-01	 4.2419185976e-01	 4.0970793064e+00
 9.0151773529e-01	 4.3274215528e-01	 4.2069927278e+00
 9.4363212727e-01	 3.4836434426e-01	 3.0152799054e+00
 9.4034855922e-01	 3.5713288161e-01	 3.1286526390e+00
 9.3697670201e-01	 3.6588791706e-01	 3.2422098540e+00
 9.3351649153e-01	 3.7462817300e-01	 3.3555910147e+00
 9.2996788739e-01	 3.8335236582e-01	 3.4684401553e+00
 9.2633087316e-01	 3.9205920648e-01	 3.5804064816e+00
 9.2260545659e-01	 4.0074740102e-01	 3.6911449266e+00
 9.1879166986e-01	 4.0941565109e-01	 3.8003166603e+00
 9.1488956975e-01	 4.1806265455e-01	 3.9075895505e+00
 9.1089923786e-01	 4.2668710600e-01	 4.0126385744e+00
 9.0682078079e-01	 4.3528769737e-01	 4.1151461793e+00
 9.4915044380e-01	 3.5040156264e-01	 3.0032303238e+00
 9.4584767360e-01	 3.5922137800e-01	 3.1088688436e+00
 9.4245609793e-01	 3.6802761248e-01	 3.2146160979e+00
 9.3897565230e-01	 3.7681898102e-01	 3.3201454239e+00
 9.3540629609e-01	 3.8559419252e-01	 3.4251347556e+00
 9.3174801277e-01	 3.9435195038e-01	 3.5292671791e+00
 9.2800081014e-01	 4.0309095307e-01	 3.6322314394e+00
 9.2416472056e-01	 4.1180989467e-01	 3.7337223975e+00
 9.2023980115e-01	 4.2050746540e-01	 3.8334414369e+00
 9.1622613399e-01	 4.2918235223e-01	 3.9310968162e+00
 9.1212382629e-01	 4.3783323946e-01	 4.0264039705e+00
 9.5466876033e-01	 3.5243878103e-01	 2.9914605757e+00
 9.5134678798e-01	 3.6130987438e-01	 3.0896347682e+00
 9.4793549384e-01	 3.7016730791e-01	 3.1878517432e+00
 9.4443481307e-01	 3.7900978905e-01	 3.2858145716e+00
 9.4084470479e-01	 3.8783601922e-01	 3.3832309591e+00
 9.3716515238e-01	 3.9664469428e-01	 3.4798137594e+00
 9.3339616369e-01	 4.0543450513e-01	 3.5752814380e+00
 9.2953777126e-01	 4.1420413824e-01	 3.6693584816e+00
 9.2559003255e-01	 4.2295227624e-01	 3.7617757547e+00
 9.2155303012e-01	 4.3167759847e-01	 3.8522707997e+00
 9.1742687180e-01	 4.4037878155e-01	 3.9405880826e+00
 9.6018707687e-01	 3.5447599942e-01	 2.9797809671e+00
 9.5684590237e-01	 3.6339837077e-01	 3.0707597667e+00
 9.5341488976e-01	 3.7230700333e-01	 3.1617255739e+00
 9.4989397384e-01	 3.8120059708e-01	 3.2524071242e+00
 9.4628311349e-01	 3.9007784592e-01	 3.3425378365e+00
 9.4258229199e-01	 3.9893743818e-01	 3.4318562913e+00
 9.3879151723e-01	 4.0777805718e-01	 3.5201066541e+00
 9.3491082196e-01	 4.1659838181e-01	 3.6070390440e+00
 9.3094026395e-01	 4.2539708709e-01	 3.6924098445e+00
 9.2687992624e-01	 4.3417284470e-01	 3.7759819566e+00
 9.2272991730e-01	 4.4292432364e-01	 3.8575249928e+00
 9.6570539340e-01	 3.5651321781e-01	 2.9680068549e+00
 9.6234501675e-01	 3.6548686715e-01	 3.0520582434e+00
 9.5889428568e-01	 3.7444669875e-01	 3.1360514114e+00
 9.5535313461e-01	 3.8339140511e-01	 3.2197367580e+00
 9.5172152218e-01	 3.9231967262e-01	 3.3028694267e+00
 9.4799943160e-01	 4.0123018207e-01	 3.3852097522e+00
 9.4418687078e-01	 4.1012160923e-01	 3.4665236504e+00
 9.4028387266e-01	 4.1899262539e-01	 3.5465829497e+00
 9.3629049535e-01	 4.2784189793e-01	 3.6251656617e+00
 9.3220682237e-01	 4.3666809093e-01	 3.7020561917e+00
 9.2803296280e-01	 4.4546986573e-01	 3.7770454862e+00
 9.7122370994e-01	 3.5855043619e-01	 2.9559584723e+00
 9.6784413113e-01	 3.6757536353e-01	 3.0333494756e+00
 9.6437368160e-01	 3.7658639417e-01	 3.1106479348e+00
 9.6081229537e-01	 3.8558221314e-01	 3.1876219786e+00
 9.5715993088e-01	 3.9456149932e-01	 3.2640445533e+00
 9.5341657121e-01	 4.0352292597e-01	 3.3396938441e+00
 9.4958222433e-01	 4.1246516128e-01	 3.4143536358e+00
 9.4565692336e-01	 4.2138686896e-01	 3.4878136121e+00
 9.4164072676e-01	 4.3028670878e-01	 3.5598695914e+00
 9.3753371850e-01	 4.3916333717e-01	 3.6303236985e+00
 9.3333600830e-01	 4.4801540782e-01	 3.6989844719e+00
 9.7674202647e-01	 3.6058765458e-01	 2.9434607597e+00
 9.7334324551e-01	 3.6966385992e-01	 3.0144574423e+00
 9.6985307752e-01	 3.7872608959e-01	 3.0853385075e+00
 9.6627145614e-01	 3.8777302117e-01	 3.1558859446e+00
 9.6259833958e-01	 3.9680332602e-01	 3.2258866476e+00
 9.5883371082e-01	 4.0581566987e-01	 3.2951328146e+00
 9.5497757788e-01	 4.1480871334e-01	 3.3634222853e+00
 9.5102997406e-01	 4.2378111254e-01	 3.4305588124e+00
 9.4699095816e-01	 4.3273151962e-01	 3.4963522677e+00
 9.4286061463e-01	 4.4165858340e-01	 3.5606187797e+00
 9.3863905380e-01	 4.5056094991e-01	 3.6231808052e+00
 9.8226034300e-01	 3.6262487297e-01	 2.9303432012e+00
 9.7884235989e-01	 3.7175235630e-01	 2.9952106578e+00
 9.7533247344e-01	 3.8086578501e-01	 3.0599510079e+00
 9.7173061691e-01	 3.8996382920e-01	 3.1243562971e+00
 9.6803674828e-01	 3.9904515272e-01	 3.1882235757e+00
 9.6425085042e-01	 4.0810841377e-01	 3.2513552832e+00
 9.6037293142e-01	 4.1715226539e-01	 3.3135595654e+00
 9.5640302476e-01	 4.2617535611e-01	 3.3746505247e+00
 9.5234118956e-01	 4.3517633047e-01	 3.4344483991e+00
 9.4818751075e-01	 4.4415382964e-01	 3.4927796725e+00
 9.4394209931e-01	 4.5310649200e-01	 3.5494771135e+00
 9.8777865954e-01	 3.6466209136e-01	 2.9164396649e+00
 9.8434147427e-01	 3.7384085268e-01	 2.9754420098e+00
 9.8081186935e-01	 3.8300548043e-01	 3.0343176661e+00
 9.7718977768e-01	 3.9215463723e-01	 3.0928649934e+00
 9.7347515698e-01	 4.0128697942e-01	 3.1508874713e+00
 9.6966799003e-01	 4.1040115766e-01	 3.2081940722e+00
 9.6576828497e-01	 4.1949581744e-01	 3.2645995647e+00
 9.6177607546e-01	 4.2856959968e-01	 3.3199247454e+00
 9.5769142096e-01	 4.3762114131e-01	 3.3739965979e+00
 9.5351440688e-01	 4.4664907587e-01	 3.4266483785e+00
 9.4924514481e-01	 4.5565203409e-01	 3.4777196279e+00
 9.9329697607e-01	 3.6669930974e-01	 2.9015882490e+00
 9.8984058865e-01	 3.7592934907e-01	 2.9549886029e+00
 9.8629126527e-01	 3.8514517586e-01	 3.0082749046e+00
 9.8264893845e-01	 3.9434544526e-01	 3.0612481468e+00
 9.7891356568e-01	 4.0352880613e-01	 3.1137145730e+00
 9.7508512964e-01	 4.1269390156e-01	 3.1654860432e+00
 9.7116363852e-01	 4.2183936950e-01	 3.2163803282e+00
 9.6714912617e-01	 4.3096384326e-01	 3.2662213279e+00
 9.6304165236e-01	 4.4006595216e-01	 3.3148392147e+00
 9.5884130301e-01	 4.4914432210e-01	 3.3620704991e+00
 9.5454819031e-01	 4.5819757618e-01	 3.4077580188e+00
 9.0151773529e-01	 4.3274215528e-01	 4.2069927278e+00
 8.9737565000e-01	 4.4126742775e-01	 4.3142002722e+00
 8.9314624197e-01	 4.4976637320e-01	 4.4187718233e+00
 8.8882969260e-01	 4.5823768674e-01	 4.5203871317e+00
 8.8442620870e-01	 4.6668006318e-01	 4.6187287623e+00
 8.7993602252e-01	 4.7509219765e-01	 4.7134821109e+00
 8.7535939192e-01	 4.8347278617e-01	 4.8043353819e+00
 8.7069660036e-01	 4.9182052633e-01	 4.8909795310e+00
 8.6594795698e-01	 5.0013411782e-01	 4.9731081741e+00
 8.6111379660e-01	 5.0841226313e-01	 5.0504174659e+00
 8.5619447978e-01	 5.1665366814e-01	 5.1226059516e+00
 9.0682078079e-01	 4.3528769737e-01	 4.1151461793e+00
 9.0265433029e-01	 4.4386311850e-01	 4.2151477979e+00
 8.9840004339e-01	 4.5241205775e-01	 4.3126617179e+00
 8.9405810256e-01	 4.6093320254e-01	 4.4073524692e+00
 8.8962871581e-01	 4.6942524002e-01	 4.4988872955e+00
 8.8511211677e-01	 4.7788685763e-01	 4.5869361696e+00
 8.8050856482e-01	 4.8631674374e-01	 4.6711717670e+00
 8.7581834507e-01	 4.9471358825e-01	 4.7512694040e+00
 8.7104176849e-01	 5.0307608322e-01	 4.8269069398e+00
 8.6617917188e-01	 5.1140292350e-01	 4.8977646474e+00
 8.6123091789e-01	 5.1969280736e-01	 4.9635250568e+00
 9.1212382629e-01	 4.3783323946e-01	 4.0264039705e+00
 9.0793301058e-01	 4.4645880926e-01	 4.1193840781e+00
 9.0365384481e-01	 4.5505774230e-01	 4.2100114837e+00
 8.9928651252e-01	 4.6362871835e-01	 4.2979388734e+00
 8.9483122292e-01	 4.7217041686e-01	 4.3828215878e+00
 8.9028821102e-01	 4.8068151762e-01	 4.4643176295e+00
 8.8565773771e-01	 4.8916070131e-01	 4.5420876290e+00
 8.8094008978e-01	 4.9760665017e-01	 4.6157947720e+00
 8.7613558000e-01	 5.0601804862e-01	 4.6851046889e+00
 8.7124454715e-01	 5.1439358387e-01	 4.7496853129e+00
 8.6626735601e-01	 5.2273194659e-01	 4.8092067077e+00
 9.1742687180e-01	 4.4037878155e-01	 3.9405880826e+00
 9.1321169088e-01	 4.4905450001e-01	 4.0267369348e+00
 9.0890764624e-01	 4.5770342685e-01	 4.1106549761e+00
 9.0451492247e-01	 4.6632423415e-01	 4.1919863730e+00
 9.0003373003e-01	 4.7491559371e-01	 4.2703779276e+00
 8.9546430527e-01	 4.8347617760e-01	 4.3454790738e+00
 8.9080691060e-01	 4.9200465887e-01	 4.4169418284e+00
 8.8606183449e-01	 5.0049971209e-01	 4.4844207025e+00
 8.8122939151e-01	 5.0896001401e-01	 4.5475725737e+00
 8.7630992243e-01	 5.1738424424e-01	 4.6060565249e+00
 8.7130379413e-01	 5.2577108581e-01	 4.6595336504e+00
 9.2272991730e-01	 4.4292432364e-01	 3.8575249928e+00
 9.1849037117e-01	 4.5165019076e-01	 3.9370385031e+00
 9.1416144766e-01	 4.6034911139e-01	 4.0144301735e+00
 9.0974333243e-01	 4.6901974996e-01	 4.0893389244e+00
 9.0523623714e-01	 4.7766077055e-01	 4.1614063341e+00
 9.0064039952e-01	 4.8627083759e-01	 4.2302766171e+00
 8.9595608350e-01	 4.9484861644e-01	 4.2955965574e+00
 8.9118357920e-01	 5.0339277400e-01	 4.3570153969e+00
 8.8632320302e-01	 5.1190197941e-01	 4.4141846856e+00
 8.8137529770e-01	 5.2037490461e-01	 4.4667580943e+00
 8.7634023224e-01	 5.2881022504e-01	 4.5143911953e+00
 9.2803296280e-01	 4.4546986573e-01	 3.7770454862e+00
 9.2376905147e-01	 4.5424588151e-01	 3.8501250436e+00
 9.1941524908e-01	 4.6299479594e-01	 3.9211789922e+00
 9.1497174239e-01	 4.7171526576e-01	 3.9898442299e+00
 9.1043874425e-01	 4.8040594739e-01	 4.0557603759e+00
 9.0581649377e-01	 4.8906549758e-01	 4.1185697264e+00
 9.0110525639e-01	 4.9769257400e-01	 4.1779171631e+00
 8.9630532390e-01	 5.0628583592e-01	 4.2334500156e+00
 8.9141701454e-01	 5.1484394481e-01	 4.2848178816e+00
 8.8644067297e-01	 5.2336556499e-01	 4.3316724100e+00
 8.8137667036e-01	 5.3184936426e-01	 4.3736670482e+00
 9.3333600830e-01	 4.4801540782e-01	 3.6989844719e+00
 9.2904773176e-01	 4.5684157226e-01	 3.7658367613e+00
 9.2466905051e-01	 4.6564048049e-01	 3.8307471064e+00
 9.2020015234e-01	 4.7441078156e-01	 3.8933535590e+00
 9.1564125136e-01	 4.8315112423e-01	 3.9532969956e+00
 9.1099258802e-01	 4.9186015756e-01	 4.0102210470e+00
 9.0625442929e-01	 5.0053653157e-01	 4.0637719760e+00
 9.0142706861e-01	 5.0917889784e-01	 4.1135985081e+00
 8.9651082605e-01	 5.1778591021e-01	 4.1593516173e+00
 8.9150604825e-01	 5.2635622536e-01	 4.2006842721e+00
 8.8641310847e-01	 5.3488850348e-01	 4.2372511453e+00
 9.3863905380e-01	 4.5056094991e-01	 3.6231808052e+00
 9.3432641205e-01	 4.5943726301e-01	 3.6840176282e+00
 9.2992285193e-01	 4.6828616504e-01	 3.7429837734e+00
 9.2542856230e-01	 4.7710629737e-01	 3.7997215752e+00
 9.2084375847e-01	 4.8589630108e-01	 3.8538763381e+00
 9.1616868228e-01	 4.9465481755e-01	 3.9050962332e+00
 9.1140360218e-01	 5.0338048913e-01	 3.9530321417e+00
 9.0654881332e-01	 5.1207195976e-01	 3.9973374471e+00
 9.0160463756e-01	 5.2072787561e-01	 4.0376677813e+00
 8.9657142352e-01	 5.2934688573e-01	 4.0736807290e+00
 8.9144954659e-01	 5.3792764271e-01	 4.1050354920e+00
 9.4394209931e-01	 4.5310649200e-01	 3.5494771135e+00
 9.3960509235e-01	 4.6203295376e-01	 3.6045152119e+00
 9.3517665335e-01	 4.7093184959e-01	 3.6577416630e+00
 9.3065697226e-01	 4.7980181317e-01	 3.7088061677e+00
 9.2604626558e-01	 4.8864147792e-01	 3.7573615835e+00
 9.2134477653e-01	 4.9744947754e-01	 3.8030637832e+00
 9.1655277507e-01	 5.0622444670e-01	 3.8455714579e+00
 9.1167055803e-01	 5.1496502168e-01	 3.8845458665e+00
 9.0669844907e-01	 5.2366984101e-01	 3.9196505364e+00
 9.0163679880e-01	 5.3233754610e-01	 3.9505509190e+00
 8.9648598471e-01	 5.4096678193e-01	 3.9769140054e+00
 9.4924514481e-01	 4.5565203409e-01	 3.4777196279e+00
 9.4488377264e-01	 4.6462864452e-01	 3.5271805079e+00
 9.4043045478e-01	 4.7357753413e-01	 3.5748766918e+00
 9.3588538221e-01	 4.8249732898e-01	 3.6204682870e+00
 9.3124877269e-01	 4.9138665476e-01	 3.6636187850e+00
 9.2652087078e-01	 5.0024413752e-01	 3.7039948777e+00
 9.2170194797e-01	 5.0906840427e-01	 3.7412662146e+00
 9.1679230274e-01	 5.1785808360e-01	 3.7751051039e+00
 9.1179226058e-01	 5.2661180641e-01	 3.8051861621e+00
 9.0670217407e-01	 5.3532820647e-01	 3.8311859156e+00
 9.0152242282e-01	 5.4400592116e-01	 3.8527823607e+00
 9.5454819031e-01	 4.5819757618e-01	 3.4077580188e+00
 9.5016245294e-01	 4.6722433527e-01	 3.4518677768e+00
 9.4568425620e-01	 4.7622321868e-01	 3.4942478615e+00
 9.4111379217e-01	 4.8519284478e-01	 3.5345717844e+00
 9.3645127980e-01	 4.9413183160e-01	 3.5725167096e+00
 9.3169696503e-01	 5.0303879751e-01	 3.6077632232e+00
 9.2685112086e-01	 5.1191236183e-01	 3.6399950391e+00
 9.2191404744e-01	 5.2075114552e-01	 3.6688986464e+00
 9.1688607209e-01	 5.2955377181e-01	 3.6941629027e+00
 9.1176754934e-01	 5.3831886684e-01	 3.7154785756e+00
 9.0655886094e-01	 5.4704506038e-01	 3.7325378413e+00
 8.5619447978e-01	 5.1665366814e-01	 5.1226059516e+00
 8.5119039273e-01	 5.2485704275e-01	 5.1898314944e+00
 8.4610194737e-01	 5.3302110150e-01	 5.2523180522e+00
 8.4092958123e-01	 5.4114456425e-01	 5.3098764304e+00
 8.3567375738e-01	 5.4922615672e-01	 5.3623323890e+00
 8.3033496439e-01	 5.5726461122e-01	 5.4095262693e+00
 8.2491371619e-01	 5.6525866720e-01	 5.4513126001e+00
 8.1941055197e-01	 5.7320707193e-01	 5.4875596879e+00
 8.1382603605e-01	 5.8110858111e-01	 5.5181491955e+00
 8.0816075769e-01	 5.8896195950e-01	 5.5429601396e+00
 8.0241533094e-01	 5.9676598150e-01	 5.5598494404e+00
 8.6123091789e-01	 5.1969280736e-01	 4.9635250568e+00
 8.5619739504e-01	 5.2794443711e-01	 5.0244481591e+00
 8.5107901765e-01	 5.3615651975e-01	 5.0809003951e+00
 8.4587622582e-01	 5.4432776757e-01	 5.1327372657e+00
 8.4058948536e-01	 5.5245689882e-01	 5.1798295300e+00
 8.3521928771e-01	 5.6054263834e-01	 5.2220627351e+00
 8.2976614981e-01	 5.6858371818e-01	 5.2593367237e+00
 8.2423061405e-01	 5.7657887824e-01	 5.2915651233e+00
 8.1861324803e-01	 5.8452686689e-01	 5.3186748253e+00
 8.1291464450e-01	 5.9242644161e-01	 5.3400652868e+00
 8.0713542112e-01	 6.0027636963e-01	 5.3529486591e+00
 8.6626735601e-01	 5.2273194659e-01	 4.8092067077e+00
 8.6120439735e-01	 5.3103183148e-01	 4.8640362958e+00
 8.5605608793e-01	 5.3929193799e-01	 4.9146839110e+00
 8.5082287042e-01	 5.4751097088e-01	 4.9610466821e+00
 8.4550521335e-01	 5.5568764092e-01	 5.0030372611e+00
 8.4010361103e-01	 5.6382066547e-01	 5.0405832584e+00
 8.3461858344e-01	 5.7190876916e-01	 5.0736266528e+00
 8.2905067612e-01	 5.7995068454e-01	 5.1021231843e+00
 8.2340046000e-01	 5.8794515266e-01	 5.1260417338e+00
 8.1766853131e-01	 5.9589092373e-01	 5.1434881869e+00
 8.1185551130e-01	 6.0378675776e-01	 5.1525056210e+00
 8.7130379413e-01	 5.2577108581e-01	 4.6595336504e+00
 8.6621139966e-01	 5.3411922585e-01	 4.7084839877e+00
 8.6103315821e-01	 5.4242735624e-01	 4.7535616312e+00
 8.5576951502e-01	 5.5069417420e-01	 4.7947023323e+00
 8.5042094133e-01	 5.5891838302e-01	 4.8318575926e+00
 8.4498793435e-01	 5.6709869259e-01	 4.8649940057e+00
 8.3947101706e-01	 5.7523382015e-01	 4.8940925735e+00
 8.3387073819e-01	 5.8332249085e-01	 4.9191480027e+00
 8.2818767198e-01	 5.9136343843e-01	 4.9398365576e+00
 8.2242241812e-01	 5.9935540584e-01	 4.9530613800e+00
 8.1657560148e-01	 6.0729714588e-01	 4.9583546284e+00
 8.7634023224e-01	 5.2881022504e-01	 4.5143911953e+00
 8.7121840197e-01	 5.3720662022e-01	 4.5576817082e+00
 8.6601022849e-01	 5.4556277448e-01	 4.5974288133e+00
 8.6071615961e-01	 5.5387737752e-01	 4.6336039411e+00
 8.5533666932e-01	 5.6214912511e-01	 4.6661944610e+00
 8.4987225767e-01	 5.7037671971e-01	 4.6952029327e+00
 8.4432345069e-01	 5.7855887113e-01	 4.7206463297e+00
 8.3869080026e-01	 5.8669429715e-01	 4.7425552432e+00
 8.3297488396e-01	 5.9478172420e-01	 4.7594686350e+00
 8.2717630493e-01	 6.0281988796e-01	 4.7686193076e+00
 8.2129569166e-01	 6.1080753401e-01	 4.7703318278e+00
 8.8137667036e-01	 5.3184936426e-01	 4.3736670482e+00
 8.7622540428e-01	 5.4029401459e-01	 4.4115221526e+00
 8.7098729877e-01	 5.4869819272e-01	 4.4461827743e+00
 8.6566280421e-01	 5.5706058084e-01	 4.4776531395e+00
 8.6025239730e-01	 5.6537986721e-01	 4.5059535647e+00
 8.5475658099e-01	 5.7365474684e-01	 4.5311196195e+00
 8.4917588431e-01	 5.8188392211e-01	 4.5532012597e+00
 8.4351086233e-01	 5.9006610346e-01	 4.5721382448e+00
 8.3776209593e-01	 5.9820000997e-01	 4.5847698904e+00
 8.3193019174e-01	 6.0628437007e-01	 4.5899982532e+00
 8.2601578185e-01	 6.1431792213e-01	 4.5882751525e+00
 8.8641310847e-01	 5.3488850348e-01	 4.2372511453e+00
 8.8123240659e-01	 5.4338140896e-01	 4.2699000746e+00
 8.7596436905e-01	 5.5183361097e-01	 4.2997227279e+00
 8.7060944880e-01	 5.6024378416e-01	 4.3267533028e+00
 8.6516812529e-01	 5.6861060931e-01	 4.3510422025e+00
 8.5964090431e-01	 5.7693277396e-01	 4.3726551103e+00
 8.5402831794e-01	 5.8520897310e-01	 4.3916720350e+00
 8.4833092440e-01	 5.9343790976e-01	 4.4071545495e+00
 8.4254930791e-01	 6.0161829574e-01	 4.4155768335e+00
 8.3668407855e-01	 6.0974885219e-01	 4.4170362868e+00
 8.3073587203e-01	 6.1782831026e-01	 4.4120242696e+00
 8.9144954659e-01	 5.3792764271e-01	 4.1050354920e+00
 8.8623940890e-01	 5.4646880333e-01	 4.1327121265e+00
 8.8094143933e-01	 5.5496902921e-01	 4.1579496254e+00
 8.7555609340e-01	 5.6342698748e-01	 4.1808093927e+00
 8.7008385327e-01	 5.7184135141e-01	 4.2013691159e+00
 8.6452522763e-01	 5.8021080109e-01	 4.2197217556e+00
 8.5888075156e-01	 5.8853402408e-01	 4.2359709488e+00
 8.5315098647e-01	 5.9680971607e-01	 4.2473561909e+00
 8.4733651989e-01	 6.0503658151e-01	 4.2517277570e+00
 8.4143796536e-01	 6.1321333430e-01	 4.2495732122e+00
 8.3545596221e-01	 6.2133869839e-01	 4.2414205288e+00
 8.9648598471e-01	 5.4096678193e-01	 3.9769140054e+00
 8.9124641121e-01	 5.4955619770e-01	 3.9998567027e+00
 8.8591850960e-01	 5.5810444746e-01	 4.0207660009e+00
 8.8050273799e-01	 5.6661019080e-01	 4.0397278022e+00
 8.7499958126e-01	 5.7507209351e-01	 4.0568443349e+00
 8.6940955095e-01	 5.8348882821e-01	 4.0722330588e+00
 8.6373318519e-01	 5.9185907507e-01	 4.0854866438e+00
 8.5797104854e-01	 6.0018152238e-01	 4.0925817143e+00
 8.5212373187e-01	 6.0845486729e-01	 4.0930626859e+00
 8.4619185217e-01	 6.1667781641e-01	 4.0874505176e+00
 8.4017605239e-01	 6.2484908651e-01	 4.0763069156e+00
 9.0152242282e-01	 5.4400592116e-01	 3.8527823607e+00
 8.9625341352e-01	 5.5264359207e-01	 3.8712337874e+00
 8.9089557988e-01	 5.6123986570e-01	 3.8880758186e+00
 8.8544938259e-01	 5.6979339412e-01	 3.9034162045e+00
 8.7991530924e-01	 5.7830283561e-01	 3.9173790272e+00
 8.7429387427e-01	 5.8676685534e-01	 3.9301035254e+00
 8.6858561881e-01	 5.9518412605e-01	 3.9397039949e+00
 8.6279111061e-01	 6.0355332868e-01	 3.9426713941e+00
 8.5691094384e-01	 6.1187315306e-01	 3.9394233290e+00
 8.5094573898e-01	 6.2014229853e-01	 3.9305113293e+00
 8.4489614257e-01	 6.2835947464e-01	 3.9165280067e+00
 9.0655886094e-01	 5.4704506038e-01	 3.7325378413e+00
 9.0126041583e-01	 5.5573098644e-01	 3.7467448049e+00
 8.9587265016e-01	 5.6437528395e-01	 3.7597843252e+00
 8.9039602718e-01	 5.7297659744e-01	 3.7717834050e+00
 8.8483103723e-01	 5.8153357770e-01	 3.7828853508e+00
 8.7917819759e-01	 5.9004488246e-01	 3.7931049167e+00
 8.7343805244e-01	 5.9850917703e-01	 3.7984635033e+00
 8.6761117268e-01	 6.0692513499e-01	 3.7974671867e+00
 8.6169815582e-01	 6.1529143883e-01	 3.7906530335e+00
 8.5569962579e-01	 6.2360678064e-01	 3.7786003686e+00
 8.4961623276e-01	 6.3186986277e-01	 3.7619299284e+00
 8.0241533094e-01	 5.9676598150e-01	 5.5598494404e+00
 7.9659039444e-01	 6.0451943185e-01	 5.5682510367e+00
 7.9068661123e-01	 6.1222110615e-01	 5.5690846101e+00
 7.8470466848e-01	 6.1986981155e-01	 5.5625360057e+00
 7.7864527726e-01	 6.2746436728e-01	 5.5488135996e+00
 7.7250917228e-01	 6.3500360530e-01	 5.5281477996e+00
 7.6629711160e-01	 6.4248637087e-01	 5.5007905013e+00
 7.6000987634e-01	 6.4991152310e-01	 5.4670144974e+00
 7.5364827034e-01	 6.5727793559e-01	 5.4271128450e+00
 7.4721311983e-01	 6.6458449693e-01	 5.3813981900e+00
 7.4070527310e-01	 6.7183011127e-01	 5.3302020524e+00
 8.0713542112e-01	 6.0027636963e-01	 5.3529486591e+00
 8.0127622029e-01	 6.0807542850e-01	 5.3578008751e+00
 7.9533770895e-01	 6.1582240678e-01	 5.3554438528e+00
 7.8932057829e-01	 6.2351610455e-01	 5.3460576758e+00
 7.8322554360e-01	 6.3115533414e-01	 5.3298445593e+00
 7.7705334388e-01	 6.3873892063e-01	 5.3070283549e+00
 7.7080474167e-01	 6.4626570246e-01	 5.2778540081e+00
 7.6448052267e-01	 6.5373453206e-01	 5.2425869706e+00
 7.5808149546e-01	 6.6114427639e-01	 5.2015125686e+00
 7.5160849112e-01	 6.6849381750e-01	 5.1549353302e+00
 7.4506236294e-01	 6.7578205310e-01	 5.1031782717e+00
 8.1185551130e-01	 6.0378675776e-01	 5.1525056210e+00
 8.0596204614e-01	 6.1163142516e-01	 5.1539354805e+00
 7.9998880666e-01	 6.1942370740e-01	 5.1484988793e+00
 7.9393648811e-01	 6.2716239756e-01	 5.1363715428e+00
 7.8780580993e-01	 6.3484630101e-01	 5.1177509204e+00
 7.8159751548e-01	 6.4247423595e-01	 5.0928556893e+00
 7.7531237174e-01	 6.5004503405e-01	 5.0619252137e+00
 7.6895116900e-01	 6.5755754102e-01	 5.0252189564e+00
 7.6251472058e-01	 6.6501061719e-01	 4.9830158480e+00
 7.5600386242e-01	 6.7240313807e-01	 4.9356136136e+00
 7.4941945278e-01	 6.7973399493e-01	 4.8833280591e+00
 8.1657560148e-01	 6.0729714588e-01	 4.9583546284e+00
 8.1064787199e-01	 6.1518742182e-01	 4.9564908790e+00
 8.0463990437e-01	 6.2302500802e-01	 4.9480872679e+00
 7.9855239792e-01	 6.3080869057e-01	 4.9333165447e+00
 7.9238607627e-01	 6.3853726788e-01	 4.9123727639e+00
 7.8614168708e-01	 6.4620955128e-01	 4.8854707894e+00
 7.7982000181e-01	 6.5382436565e-01	 4.8528457503e+00
 7.7342181534e-01	 6.6138054998e-01	 4.8147524521e+00
 7.6694794570e-01	 6.6887695798e-01	 4.7714647437e+00
 7.6039923371e-01	 6.7631245864e-01	 4.7232748415e+00
 7.5377654262e-01	 6.8368593676e-01	 4.6704926142e+00
 8.2129569166e-01	 6.1080753401e-01	 4.7703318278e+00
 8.1533369784e-01	 6.1874341848e-01	 4.7653048836e+00
 8.0929100209e-01	 6.2662630865e-01	 4.7540483316e+00
 8.0316830774e-01	 6.3445498358e-01	 4.7367333042e+00
 7.9696634261e-01	 6.4222823474e-01	 4.7135518117e+00
 7.9068585869e-01	 6.4994486660e-01	 4.6847162428e+00
 7.8432763188e-01	 6.5760369724e-01	 4.6504588175e+00
 7.7789246167e-01	 6.6520355894e-01	 4.6110309945e+00
 7.7138117082e-01	 6.7274329878e-01	 4.5667028340e+00
 7.6479460500e-01	 6.8022177921e-01	 4.5177623184e+00
 7.5813363247e-01	 6.8763787859e-01	 4.4645146325e+00
 8.2601578185e-01	 6.1431792213e-01	 4.5882751525e+00
 8.2001952369e-01	 6.2229941514e-01	 4.5802170402e+00
 8.1394209980e-01	 6.3022760927e-01	 4.5662230645e+00
 8.0778421755e-01	 6.3810127659e-01	 4.5464640783e+00
 8.0154660894e-01	 6.4591920161e-01	 4.5211313763e+00
 7.9523003029e-01	 6.5368018193e-01	 4.4904361898e+00
 7.8883526194e-01	 6.6138302883e-01	 4.4546091346e+00
 7.8236310800e-01	 6.6902656790e-01	 4.4138996127e+00
 7.7581439594e-01	 6.7660963958e-01	 4.3685751690e+00
 7.6918997630e-01	 6.8413109978e-01	 4.3189208068e+00
 7.6249072231e-01	 6.9158982042e-01	 4.2652382611e+00
 8.3073587203e-01	 6.1782831026e-01	 4.4120242696e+00
 8.2470534954e-01	 6.2585541179e-01	 4.4010685755e+00
 8.1859319751e-01	 6.3382890990e-01	 4.3844540922e+00
 8.1240012737e-01	 6.4174756960e-01	 4.3623527098e+00
 8.0612687528e-01	 6.4961016848e-01	 4.3349563149e+00
 7.9977420189e-01	 6.5741549725e-01	 4.3024762786e+00
 7.9334289201e-01	 6.6516236043e-01	 4.2651428971e+00
 7.8683375433e-01	 6.7284957686e-01	 4.2232047857e+00
 7.8024762106e-01	 6.8047598038e-01	 4.1769282284e+00
 7.7358534759e-01	 6.8804042035e-01	 4.1265964848e+00
 7.6684781215e-01	 6.9554176225e-01	 4.0725090558e+00
 8.3545596221e-01	 6.2133869839e-01	 4.2414205288e+00
 8.2939117539e-01	 6.2941140845e-01	 4.2277023484e+00
 8.2324429523e-01	 6.3743021052e-01	 4.2085856253e+00
 8.1701603718e-01	 6.4539386261e-01	 4.1842445825e+00
 8.1070714162e-01	 6.5330113534e-01	 4.1548729856e+00
 8.0431837349e-01	 6.6115081258e-01	 4.1206836226e+00
 7.9785052208e-01	 6.6894169202e-01	 4.0819077347e+00
 7.9130440066e-01	 6.7667258582e-01	 4.0387944018e+00
 7.8468084618e-01	 6.8434232118e-01	 3.9916098816e+00
 7.7798071888e-01	 6.9194974092e-01	 3.9406369070e+00
 7.7120490199e-01	 6.9949370408e-01	 3.8861739422e+00
 8.4017605239e-01	 6.2484908651e-01	 4.0763069156e+00
 8.3407700124e-01	 6.3296740511e-01	 4.0599628050e+00
 8.2789539294e-01	 6.4103151115e-01	 4.0384634158e+00
 8.2163194700e-01	 6.4904015562e-01	 4.0119865791e+00
 8.1528740795e-01	 6.5699210221e-01	 3.9807292069e+00
 8.0886254509e-01	 6.6488612790e-01	 3.9449067611e+00
 8.0235815215e-01	 6.7272102361e-01	 3.9047526739e+00
 7.9577504699e-01	 6.8049559478e-01	 3.8605177211e+00
 7.8911407130e-01	 6.8820866197e-01	 3.8124693508e+00
 7.8237609017e-01	 6.9585906149e-01	 3.7608909680e+00
 7.7556199183e-01	 7.0344564591e-01	 3.7060811797e+00
 8.4489614257e-01	 6.2835947464e-01	 3.9165280067e+00
 8.3876282709e-01	 6.3652340177e-01	 3.8976959357e+00
 8.3254649065e-01	 6.4463281177e-01	 3.8739347160e+00
 8.2624785681e-01	 6.5268644863e-01	 3.8454270420e+00
 8.1986767429e-01	 6.6068306907e-01	 3.8123742198e+00
 8.1340671669e-01	 6.6862144323e-01	 3.7749956233e+00
 8.0686578222e-01	 6.7650035521e-01	 3.7335281019e+00
 8.0024569332e-01	 6.8431860374e-01	 3.6882253411e+00
 7.9354729641e-01	 6.9207500277e-01	 3.6393571771e+00
 7.8677146147e-01	 6.9976838206e-01	 3.5872088685e+00
 7.7991908167e-01	 7.0739758774e-01	 3.5320803270e+00
 8.4961623276e-01	 6.3186986277e-01	 3.7619299284e+00
 8.4344865294e-01	 6.4007939843e-01	 3.7407492359e+00
 8.3719758836e-01	 6.4823411239e-01	 3.7148482409e+00
 8.3086376663e-01	 6.5633274164e-01	 3.6844157370e+00
 8.2444794063e-01	 6.6437403594e-01	 3.6496586529e+00
 8.1795088830e-01	 6.7235675855e-01	 3.6108014936e+00
 8.1137341229e-01	 6.8027968680e-01	 3.5680857340e+00
 8.0471633966e-01	 6.8814161270e-01	 3.5217691642e+00
 7.9798052153e-01	 6.9594134357e-01	 3.4721251889e+00
 7.9116683276e-01	 7.0367770263e-01	 3.4194420842e+00
 7.8427617152e-01	 7.1134952958e-01	 3.3640222116e+00
 7.4070527310e-01	 6.7183011127e-01	 5.3302020524e+00
 7.3412560010e-01	 6.7901369889e-01	 5.2716342809e+00
 7.2747499208e-01	 6.8613419671e-01	 5.2038521654e+00
 7.2075436118e-01	 6.9319055883e-01	 5.1272820280e+00
 7.1396463999e-01	 7.0018175700e-01	 5.0423627595e+00
 7.0710678119e-01	 7.0710678119e-01	 4.9495449572e+00
 7.0018175700e-01	 7.1396463999e-01	 4.8492900440e+00
 6.9319055883e-01	 7.2075436118e-01	 4.7420693718e+00
 6.8613419671e-01	 7.2747499208e-01	 4.6283633119e+00
 6.7901369889e-01	 7.3412560010e-01	 4.5086603357e+00
 6.7183011127e-01	 7.4070527310e-01	 4.3834560892e+00
 7.4506236294e-01	 6.7578205310e-01	 5.1031782717e+00
 7.3844398598e-01	 6.8300789712e-01	 5.0443100569e+00
 7.3175425674e-01	 6.9017028022e-01	 4.9764689172e+00
 7.2499409271e-01	 6.9726815035e-01	 4.9001051963e+00
 7.1816443199e-01	 7.0430047322e-01	 4.8156812668e+00
 7.1126623284e-01	 7.1126623284e-01	 4.7236706225e+00
 7.0430047322e-01	 7.1816443199e-01	 4.6245569513e+00
 6.9726815035e-01	 7.2499409271e-01	 4.5188331927e+00
 6.9017028022e-01	 7.3175425674e-01	 4.4070005842e+00
 6.8300789712e-01	 7.3844398598e-01	 4.2895676972e+00
 6.7578205310e-01	 7.4506236294e-01	 4.1670494686e+00
 7.4941945278e-01	 6.7973399493e-01	 4.8833280591e+00
 7.4276237187e-01	 6.8700209534e-01	 4.8241868599e+00
 7.3603352140e-01	 6.9420636373e-01	 4.7563072088e+00
 7.2923382425e-01	 7.0134574187e-01	 4.6801615032e+00
 7.2236422399e-01	 7.0841918944e-01	 4.5962336610e+00
 7.1542568449e-01	 7.1542568449e-01	 4.5050181677e+00
 7.0841918944e-01	 7.2236422399e-01	 4.4070191070e+00
 7.0134574187e-01	 7.2923382425e-01	 4.3027491740e+00
 6.9420636373e-01	 7.3603352140e-01	 4.1927286791e+00
 6.8700209534e-01	 7.4276237187e-01	 4.0774845419e+00
 6.7973399493e-01	 7.4941945278e-01	 3.9575492810e+00
 7.5377654262e-01	 6.8368593676e-01	 4.6704926142e+00
 7.4708075775e-01	 6.9099629357e-01	 4.6111053545e+00
 7.4031278606e-01	 6.9824244724e-01	 4.5432076844e+00
 7.3347355579e-01	 7.0542333339e-01	 4.4672921244e+00
 7.2656401599e-01	 7.1253790565e-01	 4.3838622369e+00
 7.1958513615e-01	 7.1958513615e-01	 4.2934316321e+00
 7.1253790565e-01	 7.2656401599e-01	 4.1965229557e+00
 7.0542333339e-01	 7.3347355579e-01	 4.0936668626e+00
 6.9824244724e-01	 7.4031278606e-01	 3.9854009782e+00
 6.9099629357e-01	 7.4708075775e-01	 3.8722688535e+00
 6.8368593676e-01	 7.5377654262e-01	 3.7548189148e+00
 7.5813363247e-01	 6.8763787859e-01	 4.4645146325e+00
 7.5139914363e-01	 6.9499049180e-01	 4.4049076928e+00
 7.4459205072e-01	 7.0227853075e-01	 4.3370124549e+00
 7.3771328732e-01	 7.0950092492e-01	 4.2613396681e+00
 7.3076380799e-01	 7.1665662187e-01	 4.1784106752e+00
 7.2374458780e-01	 7.2374458780e-01	 4.0887563787e+00
 7.1665662187e-01	 7.3076380799e-01	 3.9929161892e+00
 7.0950092492e-01	 7.3771328732e-01	 3.8914369596e+00
 7.0227853075e-01	 7.4459205072e-01	 3.7848719083e+00
 6.9499049180e-01	 7.5139914363e-01	 3.6737795347e+00
 6.8763787859e-01	 7.5813363247e-01	 3.5587225324e+00
 7.6249072231e-01	 6.9158982042e-01	 4.2652382611e+00
 7.5571752952e-01	 6.9898469003e-01	 4.2054374694e+00
 7.4887131538e-01	 7.0631461426e-01	 4.1375650532e+00
 7.4195301886e-01	 7.1357851644e-01	 4.0621481317e+00
 7.3496359999e-01	 7.2077533809e-01	 3.9797239990e+00
 7.2790403946e-01	 7.2790403946e-01	 3.8908390529e+00
 7.2077533809e-01	 7.3496359999e-01	 3.7960477061e+00
 7.1357851644e-01	 7.4195301886e-01	 3.6959112831e+00
 7.0631461426e-01	 7.4887131538e-01	 3.5909969060e+00
 6.9898469003e-01	 7.5571752952e-01	 3.4818763743e+00
 6.9158982042e-01	 7.6249072231e-01	 3.3691250417e+00
 7.6684781215e-01	 6.9554176225e-01	 4.0725090558e+00
 7.6003591540e-01	 7.0297888826e-01	 4.0125396792e+00
 7.5315058004e-01	 7.1035069777e-01	 3.9447103926e+00
 7.4619275039e-01	 7.1765610796e-01	 3.8695628605e+00
 7.3916339199e-01	 7.2489405431e-01	 3.7876485339e+00
 7.3206349111e-01	 7.3206349111e-01	 3.6995275436e+00
 7.2489405431e-01	 7.3916339199e-01	 3.6057675755e+00
 7.1765610796e-01	 7.4619275039e-01	 3.5069427324e+00
 7.1035069777e-01	 7.5315058004e-01	 3.4036323852e+00
 7.0297888826e-01	 7.6003591540e-01	 3.2964200177e+00
 6.9554176225e-01	 7.6684781215e-01	 3.1858920691e+00
 7.7120490199e-01	 6.9949370408e-01	 3.8861739422e+00
 7.6435430128e-01	 7.0697308649e-01	 3.8260606787e+00
 7.5742984470e-01	 7.1438678128e-01	 3.7582947277e+00
 7.5043248193e-01	 7.2173369948e-01	 3.6834305095e+00
 7.4336318399e-01	 7.2901277052e-01	 3.6020318712e+00
 7.3622294276e-01	 7.3622294276e-01	 3.5146709473e+00
 7.2901277052e-01	 7.4336318399e-01	 3.4219270017e+00
 7.2173369948e-01	 7.5043248193e-01	 3.3243852558e+00
 7.1438678128e-01	 7.5742984470e-01	 3.2226357068e+00
 7.0697308649e-01	 7.6435430128e-01	 3.1172719394e+00
 6.9949370408e-01	 7.7120490199e-01	 3.0088899359e+00
 7.7556199183e-01	 7.0344564591e-01	 3.7060811797e+00
 7.6867268716e-01	 7.1096728472e-01	 3.6458481491e+00
 7.6170910936e-01	 7.1842286479e-01	 3.5781656191e+00
 7.5467221347e-01	 7.2581129101e-01	 3.5035990083e+00
 7.4756297599e-01	 7.3313148674e-01	 3.4227228328e+00
 7.4038239442e-01	 7.4038239442e-01	 3.3361195348e+00
 7.3313148674e-01	 7.4756297599e-01	 3.2443782934e+00
 7.2581129101e-01	 7.5467221347e-01	 3.1480938213e+00
 7.1842286479e-01	 7.6170910936e-01	 3.0478651515e+00
 7.1096728472e-01	 7.6867268716e-01	 2.9442944183e+00
 7.0344564591e-01	 7.7556199183e-01	 2.8379856362e+00
 7.7991908167e-01	 7.0739758774e-01	 3.5320803270e+00
 7.7299107305e-01	 7.1496148295e-01	 3.4717510633e+00
 7.6598837402e-01	 7.2245894830e-01	 3.4041718993e+00
 7.5891194500e-01	 7.2988888253e-01	 3.3299175281e+00
 7.5176276799e-01	 7.3725020296e-01	 3.2495714398e+00
 7.4454184607e-01	 7.4454184607e-01	 3.1637247205e+00
 7.3725020296e-01	 7.5176276799e-01	 3.0729748339e+00
 7.2988888253e-01	 7.5891194500e-01	 2.9779243884e+00
 7.2245894830e-01	 7.6598837402e-01	 2.8791798943e+00
 7.1496148295e-01	 7.7299107305e-01	 2.7773505150e+00
 7.0739758774e-01	 7.7991908167e-01	 2.6730468171e+00
 7.8427617152e-01	 7.1134952958e-01	 3.3640222116e+00
 7.7730945893e-01	 7.1895568117e-01	 3.3036196543e+00
 7.7026763867e-01	 7.2649503181e-01	 3.2361636425e+00
 7.6315167654e-01	 7.3396647405e-01	 3.1622364519e+00
 7.5596255999e-01	 7.4136891918e-01	 3.0824288830e+00
 7.4870129773e-01	 7.4870129773e-01	 2.9973390340e+00
 7.4136891918e-01	 7.5596255999e-01	 2.9075710542e+00
 7.3396647405e-01	 7.6315167654e-01	 2.8137338834e+00
 7.2649503181e-01	 7.7026763867e-01	 2.7164399813e+00
 7.1895568117e-01	 7.7730945893e-01	 2.6163040508e+00
 7.1134952958e-01	 7.8427617152e-01	 2.5139417610e+00
 6.7183011127e-01	 7.4070527310e-01	 4.3834560892e+00
 6.6458449693e-01	 7.4721311983e-01	 4.2512437474e+00
 6.5727793559e-01	 7.5364827034e-01	 4.1104705631e+00
 6.4991152310e-01	 7.6000987634e-01	 3.9615625717e+00
 6.4248637087e-01	 7.6629711160e-01	 3.8049378290e+00
 6.3500360530e-01	 7.7250917228e-01	 3.6410057109e+00
 6.2746436728e-01	 7.7864527726e-01	 3.4701662419e+00
 6.1986981155e-01	 7.8470466848e-01	 3.2928094573e+00
 6.1222110615e-01	 7.9068661123e-01	 3.1093148000e+00
 6.0451943185e-01	 7.9659039444e-01	 2.9200505544e+00
 5.9676598150e-01	 8.0241533094e-01	 2.7253733210e+00
 6.7578205310e-01	 7.4506236294e-01	 4.1670494686e+00
 6.6849381750e-01	 7.5160849112e-01	 4.0378546855e+00
 6.6114427639e-01	 7.5808149546e-01	 3.9003288210e+00
 6.5373453206e-01	 7.6448052267e-01	 3.7548908585e+00
 6.4626570246e-01	 7.7080474167e-01	 3.6019522998e+00
 6.3873892063e-01	 7.7705334388e-01	 3.4419164579e+00
 6.3115533414e-01	 7.8322554360e-01	 3.2751777797e+00
 6.2351610455e-01	 7.8932057829e-01	 3.1021212000e+00
 6.1582240678e-01	 7.9533770895e-01	 2.9231215309e+00
 6.0807542850e-01	 8.0127622029e-01	 2.7385428880e+00
 6.0027636963e-01	 8.0713542112e-01	 2.5487381566e+00
 6.7973399493e-01	 7.4941945278e-01	 3.9575492810e+00
 6.7240313807e-01	 7.5600386242e-01	 3.8312565208e+00
 6.6501061719e-01	 7.6251472058e-01	 3.6968613728e+00
 6.5755754102e-01	 7.6895116900e-01	 3.5547773620e+00
 6.5004503405e-01	 7.7531237174e-01	 3.4054109995e+00
 6.4247423595e-01	 7.8159751548e-01	 3.2491610675e+00
 6.3484630101e-01	 7.8780580993e-01	 3.0864179317e+00
 6.2716239756e-01	 7.9393648811e-01	 2.9175628863e+00
 6.1942370740e-01	 7.9998880666e-01	 2.7429675328e+00
 6.1163142516e-01	 8.0596204614e-01	 2.5629931966e+00
 6.0378675776e-01	 8.1185551130e-01	 2.3779903825e+00
 6.8368593676e-01	 7.5377654262e-01	 3.7548189148e+00
 6.7631245864e-01	 7.6039923371e-01	 3.6313182932e+00
 6.6887695798e-01	 7.6694794570e-01	 3.4999425644e+00
 6.6138054998e-01	 7.7342181534e-01	 3.3611013660e+00
 6.5382436565e-01	 7.7982000181e-01	 3.2151977609e+00
 6.4620955128e-01	 7.8614168708e-01	 3.0626275102e+00
 6.3853726788e-01	 7.9238607627e-01	 2.9037783743e+00
 6.3080869057e-01	 7.9855239792e-01	 2.7390294459e+00
 6.2302500802e-01	 8.0463990437e-01	 2.5687505163e+00
 6.1518742182e-01	 8.1064787199e-01	 2.3933014794e+00
 6.0729714588e-01	 8.1657560148e-01	 2.2130317751e+00
 6.8763787859e-01	 7.5813363247e-01	 3.5587225324e+00
 6.8022177921e-01	 7.6479460500e-01	 3.4379096673e+00
 6.7274329878e-01	 7.7138117082e-01	 3.3094472254e+00
 6.6520355894e-01	 7.7789246167e-01	 3.1737425070e+00
 6.5760369724e-01	 7.8432763188e-01	 3.0311966475e+00
 6.4994486660e-01	 7.9068585869e-01	 2.8822038763e+00
 6.4222823474e-01	 7.9696634261e-01	 2.7271508042e+00
 6.3445498358e-01	 8.0316830774e-01	 2.5664157415e+00
 6.2662630865e-01	 8.0929100209e-01	 2.4003680496e+00
 6.1874341848e-01	 8.1533369784e-01	 2.2293675310e+00
 6.1080753401e-01	 8.2129569166e-01	 2.0537638573e+00
 6.9158982042e-01	 7.6249072231e-01	 3.3691250417e+00
 6.8413109978e-01	 7.6918997630e-01	 3.2509009069e+00
 6.7660963958e-01	 7.7581439594e-01	 3.1252506472e+00
 6.6902656790e-01	 7.8236310800e-01	 2.9925807545e+00
 6.6138302883e-01	 7.8883526194e-01	 2.8532919370e+00
 6.5368018193e-01	 7.9523003029e-01	 2.7077783619e+00
 6.4591920161e-01	 8.0154660894e-01	 2.5564269260e+00
 6.3810127659e-01	 8.0778421755e-01	 2.3996165569e+00
 6.3022760927e-01	 8.1394209980e-01	 2.2377175484e+00
 6.2229941514e-01	 8.2001952369e-01	 2.0710909321e+00
 6.1431792213e-01	 8.2601578185e-01	 1.9000878900e+00
 6.9554176225e-01	 7.6684781215e-01	 3.1858920691e+00
 6.8804042035e-01	 7.7358534759e-01	 3.0701628520e+00
 6.8047598038e-01	 7.8024762106e-01	 2.9472285628e+00
 6.7284957686e-01	 7.8683375433e-01	 2.8174963940e+00
 6.6516236043e-01	 7.9334289201e-01	 2.6813681069e+00
 6.5741549725e-01	 7.9977420189e-01	 2.5392392563e+00
 6.4961016848e-01	 8.0612687528e-01	 2.3914984415e+00
 6.4174756960e-01	 8.1240012737e-01	 2.2385265890e+00
 6.3382890990e-01	 8.1859319751e-01	 2.0806962675e+00
 6.2585541179e-01	 8.2470534954e-01	 1.9183710417e+00
 6.1782831026e-01	 8.3073587203e-01	 1.7519048647e+00
 6.9949370408e-01	 7.7120490199e-01	 3.0088899359e+00
 6.9194974092e-01	 7.7798071888e-01	 2.8955668980e+00
 6.8434232118e-01	 7.8468084618e-01	 2.7752571294e+00
 6.7667258582e-01	 7.9130440066e-01	 2.6483700119e+00
 6.6894169202e-01	 7.9785052208e-01	 2.5153098214e+00
 6.6115081258e-01	 8.0431837349e-01	 2.3764749310e+00
 6.5330113534e-01	 8.1070714162e-01	 2.2322570410e+00
 6.4539386261e-01	 8.1701603718e-01	 2.0830404391e+00
 6.3743021052e-01	 8.2324429523e-01	 1.9292012950e+00
 6.2941140845e-01	 8.2939117539e-01	 1.7711069919e+00
 6.2133869839e-01	 8.3545596221e-01	 1.6091154978e+00
 7.0344564591e-01	 7.7556199183e-01	 2.8379856362e+00
 6.9585906149e-01	 7.8237609017e-01	 2.7269849769e+00
 6.8820866197e-01	 7.8911407130e-01	 2.6092129118e+00
 6.8049559478e-01	 7.9577504699e-01	 2.4850824821e+00
 6.7272102361e-01	 8.0235815215e-01	 2.3550019205e+00
 6.6488612790e-01	 8.0886254509e-01	 2.2193738313e+00
 6.5699210221e-01	 8.1528740795e-01	 2.0785943953e+00
 6.4904015562e-01	 8.2163194700e-01	 1.9330526075e+00
 6.4103151115e-01	 8.2789539294e-01	 1.7831295465e+00
 6.3296740511e-01	 8.3407700124e-01	 1.6291976828e+00
 6.2484908651e-01	 8.4017605239e-01	 1.4716202269e+00
 7.0739758774e-01	 7.7991908167e-01	 2.6730468171e+00
 6.9976838206e-01	 7.8677146147e-01	 2.5642895406e+00
 6.9207500277e-01	 7.9354729641e-01	 2.4489728692e+00
 6.8431860374e-01	 8.0024569332e-01	 2.3275149545e+00
 6.7650035521e-01	 8.0686578222e-01	 2.2003294110e+00
 6.6862144323e-01	 8.1340671669e-01	 2.0678244682e+00
 6.6068306907e-01	 8.1986767429e-01	 1.9304021508e+00
 6.5268644863e-01	 8.2624785681e-01	 1.7884574888e+00
 6.4463281177e-01	 8.3254649065e-01	 1.6423777616e+00
 6.3652340177e-01	 8.3876282709e-01	 1.4925417797e+00
 6.2835947464e-01	 8.4489614257e-01	 1.3393192071e+00
 7.1134952958e-01	 7.8427617152e-01	 2.5139417610e+00
 7.0367770263e-01	 7.9116683276e-01	 2.4073535463e+00
 6.9594134357e-01	 7.9798052153e-01	 2.2944143424e+00
 6.8814161270e-01	 8.0471633966e-01	 2.1755488457e+00
 6.8027968680e-01	 8.1137341229e-01	 2.0511774583e+00
 6.7235675855e-01	 8.1795088830e-01	 1.9217154131e+00
 6.6437403594e-01	 8.2444794063e-01	 1.7875719243e+00
 6.5633274164e-01	 8.3086376663e-01	 1.6491493688e+00
 6.4823411239e-01	 8.3719758836e-01	 1.5068425022e+00
 6.4007939843e-01	 8.4344865294e-01	 1.3610377115e+00
 6.3186986277e-01	 8.4961623276e-01	 1.2121123102e+00
 5.9676598150e-01	 8.0241533094e-01	 2.7253733210e+00
 5.8896195950e-01	 8.0816075769e-01	 2.5265458070e+00
 5.8110858111e-01	 8.1382603605e-01	 2.3237090655e+00
 5.7320707193e-01	 8.1941055197e-01	 2.1154420195e+00
 5.6525866720e-01	 8.2491371619e-01	 1.9017693677e+00
 5.5726461122e-01	 8.3033496439e-01	 1.6827255571e+00
 5.4922615672e-01	 8.3567375738e-01	 1.4583434191e+00
 5.4114456425e-01	 8.4092958123e-01	 1.2286539862e+00
 5.3302110150e-01	 8.4610194737e-01	 9.9368632933e-01
 5.2485704275e-01	 8.5119039273e-01	 7.5346741686e-01
 5.1665366814e-01	 8.5619447978e-01	 5.0802199587e-01
 6.0027636963e-01	 8.0713542112e-01	 2.5487381566e+00
 5.9242644161e-01	 8.1291464450e-01	 2.3549477441e+00
 5.8452686689e-01	 8.1861324803e-01	 2.1581018156e+00
 5.7657887824e-01	 8.2423061405e-01	 1.9563529560e+00
 5.6858371818e-01	 8.2976614981e-01	 1.7493646788e+00
 5.6054263834e-01	 8.3521928771e-01	 1.5371750209e+00
 5.5245689882e-01	 8.4058948536e-01	 1.3198189768e+00
 5.4432776757e-01	 8.4587622582e-01	 1.0973283079e+00
 5.3615651975e-01	 8.5107901765e-01	 8.6973137481e-01
 5.2794443711e-01	 8.5619739504e-01	 6.3705299352e-01
 5.1969280736e-01	 8.6123091789e-01	 3.9931431802e-01
 6.0378675776e-01	 8.1185551130e-01	 2.3779903825e+00
 5.9589092373e-01	 8.1766853131e-01	 2.1891620013e+00
 5.8794515266e-01	 8.2340046000e-01	 1.9977115300e+00
 5.7995068454e-01	 8.2905067612e-01	 1.8023984623e+00
 5.7190876916e-01	 8.3461858344e-01	 1.6019892965e+00
 5.6382066547e-01	 8.4010361103e-01	 1.3965250733e+00
 5.5568764092e-01	 8.4550521335e-01	 1.1860424205e+00
 5.4751097088e-01	 8.5082287042e-01	 9.7057335441e-01
 5.3929193799e-01	 8.5605608793e-01	 7.5014510692e-01
 5.3103183148e-01	 8.6120439735e-01	 5.2477997961e-01
 5.2273194659e-01	 8.6626735601e-01	 2.9449522666e-01
 6.0729714588e-01	 8.1657560148e-01	 2.2130317751e+00
 5.9935540584e-01	 8.2242241812e-01	 2.0290924043e+00
 5.9136343843e-01	 8.2818767198e-01	 1.8426444176e+00
 5.8332249085e-01	 8.3387073819e-01	 1.6534665060e+00
 5.7523382015e-01	 8.3947101706e-01	 1.4595364849e+00
 5.6709869259e-01	 8.4498793435e-01	 1.2606753559e+00
 5.5891838302e-01	 8.5042094133e-01	 1.0569208607e+00
 5.5069417420e-01	 8.5576951502e-01	 8.4830480608e-01
 5.4242735624e-01	 8.6103315821e-01	 6.3485288547e-01
 5.3411922585e-01	 8.6621139966e-01	 4.1658453130e-01
 5.2577108581e-01	 8.7130379413e-01	 1.9351279784e-01
 6.1080753401e-01	 8.2129569166e-01	 2.0537638573e+00
 6.0281988796e-01	 8.2717630493e-01	 1.8746424725e+00
 5.9478172420e-01	 8.3297488396e-01	 1.6931051725e+00
 5.8669429715e-01	 8.3869080026e-01	 1.5094456420e+00
 5.7855887113e-01	 8.4432345069e-01	 1.3218999832e+00
 5.7037671971e-01	 8.4987225767e-01	 1.1295258505e+00
 5.6214912511e-01	 8.5533666932e-01	 9.3236159025e-01
 5.5387737752e-01	 8.6071615961e-01	 7.3043834437e-01
 5.4556277448e-01	 8.6601022849e-01	 5.2377986693e-01
 5.3720662022e-01	 8.7121840197e-01	 3.1240237367e-01
 5.2881022504e-01	 8.7634023224e-01	 9.6314425275e-02
 6.1431792213e-01	 8.2601578185e-01	 1.9000878900e+00
 6.0628437007e-01	 8.3193019174e-01	 1.7257154111e+00
 5.9820000997e-01	 8.3776209593e-01	 1.5490018652e+00
 5.9006610346e-01	 8.4351086233e-01	 1.3703050661e+00
 5.8188392211e-01	 8.4917588431e-01	 1.1889739655e+00
 5.7365474684e-01	 8.5475658099e-01	 1.0029768420e+00
 5.6537986721e-01	 8.6025239730e-01	 8.1227205122e-01
 5.5706058084e-01	 8.6566280421e-01	 6.1688962421e-01
 5.4869819272e-01	 8.7098729877e-01	 4.1685098259e-01
 5.4029401459e-01	 8.7622540428e-01	 2.1216878530e-01
 5.3184936426e-01	 8.8137667036e-01	 2.8468120593e-03
 6.1782831026e-01	 8.3073587203e-01	 1.7519048647e+00
 6.0974885219e-01	 8.3668407855e-01	 1.5822141038e+00
 6.0161829574e-01	 8.4254930791e-01	 1.4102402846e+00
 5.9343790976e-01	 8.4833092440e-01	 1.2363486899e+00
 5.8520897310e-01	 8.5402831794e-01	 1.0606530018e+00
 5.7693277396e-01	 8.5964090431e-01	 8.8092888332e-01
 5.6861060931e-01	 8.6516812529e-01	 6.9655980412e-01
 5.6024378416e-01	 8.7060944880e-01	 5.0757424744e-01
 5.5183361097e-01	 8.7596436905e-01	 3.1399091744e-01
 5.4338140896e-01	 8.8123240659e-01	 1.1581858328e-01
 5.3488850348e-01	 8.8641310847e-01	-8.6944037548e-02
 6.2133869839e-01	 8.3545596221e-01	 1.6091154978e+00
 6.1321333430e-01	 8.4143796536e-01	 1.4440411077e+00
 6.0503658151e-01	 8.4733651989e-01	 1.2767258205e+00
 5.9680971607e-01	 8.5315098647e-01	 1.1075417858e+00
 5.8853402408e-01	 8.5888075156e-01	 9.3683424808e-01
 5.8021080109e-01	 8.6452522763e-01	 7.6328276066e-01
 5.7184135141e-01	 8.7008385327e-01	 5.8513249718e-01
 5.6342698748e-01	 8.7555609340e-01	 4.0240773692e-01
 5.5496902921e-01	 8.8094143933e-01	 2.1512408959e-01
 5.4646880333e-01	 8.8623940890e-01	 2.3286108545e-02
 5.3792764271e-01	 8.9144954659e-01	-1.7311282614e-01
 6.2484908651e-01	 8.4017605239e-01	 1.4716202269e+00
 6.1667781641e-01	 8.4619185217e-01	 1.3110986498e+00
 6.0845486729e-01	 8.5212373187e-01	 1.1483634612e+00
 6.0018152238e-01	 8.5797104854e-01	 9.8379308826e-01
 5.9185907507e-01	 8.6373318519e-01	 8.1773761788e-01
 5.8348882821e-01	 8.6940955095e-01	 6.4993946035e-01
 5.7507209351e-01	 8.7499958126e-01	 4.7789783685e-01
 5.6661019080e-01	 8.8050273799e-01	 3.0130551148e-01
 5.5810444746e-01	 8.8591850960e-01	 1.2017463028e-01
 5.4955619770e-01	 8.9124641121e-01	-6.5494788371e-02
 5.4096678193e-01	 8.9648598471e-01	-2.5571497104e-01
 6.2835947464e-01	 8.4489614257e-01	 1.3393192071e+00
 6.2014229853e-01	 8.5094573898e-01	 1.1832886237e+00
 6.1187315306e-01	 8.5691094384e-01	 1.0250577910e+00
 6.0355332868e-01	 8.6279111061e-01	 8.6501083772e-01
 5.9518412605e-01	 8.6858561881e-01	 7.0350216036e-01
 5.8676685534e-01	 8.7429387427e-01	 5.4080013642e-01
 5.7830283561e-01	 8.7991530924e-01	 3.7476355913e-01
 5.6979339412e-01	 8.8544938259e-01	 2.0418286153e-01
 5.6123986570e-01	 8.9089557988e-01	 2.9066364394e-02
 5.5264359207e-01	 8.9625341352e-01	-1.5059076127e-01
 5.4400592116e-01	 9.0152242282e-01	-3.3480661211e-01
 6.3186986277e-01	 8.4961623276e-01	 1.2121123102e+00
 6.2360678064e-01	 8.5569962579e-01	 1.0605125892e+00
 6.1529143883e-01	 8.6169815582e-01	 9.0671299033e-01
 6.0692513499e-01	 8.6761117268e-01	 7.5110278140e-01
 5.9850917703e-01	 8.7343805244e-01	 5.9404014770e-01
 5.9004488246e-01	 8.7917819759e-01	 4.3585185226e-01
 5.8153357770e-01	 8.8483103723e-01	 2.7563740178e-01
 5.7297659744e-01	 8.9039602718e-01	 1.1095492539e-01
 5.6437528395e-01	 8.9587265016e-01	-5.8277208435e-02
 5.5573098644e-01	 9.0126041583e-01	-2.3206898187e-01
 5.4704506038e-01	 9.0655886094e-01	-4.1044461932e-01
 5.1665366814e-01	 8.5619447978e-01	 5.0802199587e-01
 5.0841226313e-01	 8.6111379660e-01	 2.5860217249e-01
 5.0013411782e-01	 8.6594795698e-01	 6.5842456131e-03
 4.9182052633e-01	 8.7069660036e-01	-2.4782231976e-01
 4.8347278617e-01	 8.7535939192e-01	-5.0440809612e-01
 4.7509219765e-01	 8.7993602252e-01	-7.6296397672e-01
 4.6668006318e-01	 8.8442620870e-01	-1.0232814340e+00
 4.5823768674e-01	 8.8882969260e-01	-1.2851527530e+00
 4.4976637320e-01	 8.9314624197e-01	-1.5483712395e+00
 4.4126742775e-01	 8.9737565000e-01	-1.8127314028e+00
 4.3274215528e-01	 9.0151773529e-01	-2.0780291140e+00
 5.1969280736e-01	 8.6123091789e-01	 3.9931431802e-01
 5.1140292350e-01	 8.6617917188e-01	 1.5780327781e-01
 5.0307608322e-01	 8.7104176849e-01	-8.6074765850e-02
 4.9471358825e-01	 8.7581834507e-01	-3.3212536047e-01
 4.8631674374e-01	 8.8050856482e-01	-5.8015434837e-01
 4.7788685763e-01	 8.8511211677e-01	-8.2996813894e-01
 4.6942524002e-01	 8.8962871581e-01	-1.0813739550e+00
 4.6093320254e-01	 8.9405810256e-01	-1.3341800528e+00
 4.5241205775e-01	 8.9840004339e-01	-1.5881959163e+00
 4.4386311850e-01	 9.0265433029e-01	-1.8432324237e+00
 4.3528769737e-01	 9.0682078079e-01	-2.0991019900e+00
 5.2273194659e-01	 8.6626735601e-01	 2.9449522666e-01
 5.1439358387e-01	 8.7124454715e-01	 6.0623176531e-02
 5.0601804862e-01	 8.7613558000e-01	-1.7539278336e-01
 4.9760665017e-01	 8.8094008978e-01	-4.1337287786e-01
 4.8916070131e-01	 8.8565773771e-01	-6.5313786052e-01
 4.8068151762e-01	 8.9028821102e-01	-8.9450927554e-01
 4.7217041686e-01	 8.9483122292e-01	-1.1373096927e+00
 4.6362871835e-01	 8.9928651252e-01	-1.3813629147e+00
 4.5505774230e-01	 9.0365384481e-01	-1.6264941576e+00
 4.4645880926e-01	 9.0793301058e-01	-1.8725302031e+00
 4.3783323946e-01	 9.1212382629e-01	-2.1192995243e+00
 5.2577108581e-01	 8.7130379413e-01	 1.9351279784e-01
 5.1738424424e-01	 8.7630992243e-01	-3.2977279340e-02
 5.0896001401e-01	 8.8122939151e-01	-2.6139559701e-01
 5.0049971209e-01	 8.8606183449e-01	-4.9157672674e-01
 4.9200465887e-01	 8.9080691060e-01	-7.2335597987e-01
 4.8347617760e-01	 8.9546430527e-01	-9.5656965979e-01
 4.7491559371e-01	 9.0003373003e-01	-1.1910552860e+00
 4.6632423415e-01	 9.0451492247e-01	-1.4266517897e+00
 4.5770342685e-01	 9.0890764624e-01	-1.6631996806e+00
 4.4905450001e-01	 9.1321169088e-01	-1.9005411856e+00
 4.4037878155e-01	 9.1742687180e-01	-2.1385203591e+00
 5.2881022504e-01	 8.7634023224e-01	 9.6314425275e-02
 5.2037490461e-01	 8.8137529770e-01	-1.2303818873e-01
 5.1190197941e-01	 8.8632320302e-01	-3.4411022747e-01
 5.0339277400e-01	 8.9118357920e-01	-5.6675028311e-01
 4.9484861644e-01	 8.9595608350e-01	-7.9080787637e-01
 4.8627083759e-01	 9.0064039952e-01	-1.0161336998e+00
 4.7766077055e-01	 9.0523623714e-01	-1.2425798317e+00
 4.6901974996e-01	 9.0974333243e-01	-1.4699999201e+00
 4.6034911139e-01	 9.1416144766e-01	-1.6982493374e+00
 4.5165019076e-01	 9.1849037117e-01	-1.9271853052e+00
 4.4292432364e-01	 9.2272991730e-01	-2.1566669903e+00
 5.3184936426e-01	 8.8137667036e-01	 2.8468120593e-03
 5.2336556499e-01	 8.8644067297e-01	-2.0960060218e-01
 5.1484394481e-01	 8.9141701454e-01	-4.2356491870e-01
 5.0628583592e-01	 8.9630532390e-01	-6.3890842854e-01
 4.9769257400e-01	 9.0110525639e-01	-8.5549451834e-01
 4.8906549758e-01	 9.0581649377e-01	-1.0731879053e+00
 4.8040594739e-01	 9.1043874425e-01	-1.2918548413e+00
 4.7171526576e-01	 9.1497174239e-01	-1.5113632867e+00
 4.6299479594e-01	 9.1941524908e-01	-1.7315830521e+00
 4.5424588151e-01	 9.2376905147e-01	-1.9523859115e+00
 4.4546986573e-01	 9.2803296280e-01	-2.1736456829e+00
 5.3488850348e-01	 8.8641310847e-01	-8.6944037548e-02
 5.2635622536e-01	 8.9150604825e-01	-2.9270652267e-01
 5.1778591021e-01	 8.9651082605e-01	-4.9978913107e-01
 5.0917889784e-01	 9.0142706861e-01	-7.0806753521e-01
 5.0053653157e-01	 9.0625442929e-01	-9.1741864907e-01
 4.9186015756e-01	 9.1099258802e-01	-1.1277208553e+00
 4.8315112423e-01	 9.1564125136e-01	-1.3388542004e+00
 4.7441078156e-01	 9.2020015234e-01	-1.5507005583e+00
 4.6564048049e-01	 9.2466905051e-01	-1.7631437613e+00
 4.5684157226e-01	 9.2904773176e-01	-1.9760696999e+00
 4.4801540782e-01	 9.3333600830e-01	-2.1893663907e+00
 5.3792764271e-01	 8.9144954659e-01	-1.7311282614e-01
 5.2934688573e-01	 8.9657142352e-01	-3.7239890653e-01
 5.2072787561e-01	 9.0160463756e-01	-5.7281353483e-01
 5.1207195976e-01	 9.0654881332e-01	-7.7424545166e-01
 5.0338048913e-01	 9.1140360218e-01	-9.7658476448e-01
 4.9465481755e-01	 9.1616868228e-01	-1.1797231675e+00
 4.8589630108e-01	 9.2084375847e-01	-1.3835541287e+00
 4.7710629737e-01	 9.2542856230e-01	-1.5879730435e+00
 4.6828616504e-01	 9.2992285193e-01	-1.7928773553e+00
 4.5943726301e-01	 9.3432641205e-01	-1.9981666435e+00
 4.5056094991e-01	 9.3863905380e-01	-2.2037426785e+00
 5.4096678193e-01	 8.9648598471e-01	-2.5571497104e-01
 5.3233754610e-01	 9.0163679880e-01	-4.4872166449e-01
 5.2366984101e-01	 9.0669844907e-01	-6.4267000394e-01
 5.1496502168e-01	 9.1167055803e-01	-8.3746148908e-01
 5.0622444670e-01	 9.1655277507e-01	-1.0329990916e+00
 4.9744947754e-01	 9.2134477653e-01	-1.2291874686e+00
 4.8864147792e-01	 9.2604626558e-01	-1.4259331420e+00
 4.7980181317e-01	 9.3065697226e-01	-1.6231446429e+00
 4.7093184959e-01	 9.3517665335e-01	-1.8207326224e+00
 4.6203295376e-01	 9.3960509235e-01	-2.0186099282e+00
 4.5310649200e-01	 9.4394209931e-01	-2.2166916470e+00
 5.4400592116e-01	 9.0152242282e-01	-3.3480661211e-01
 5.3532820647e-01	 9.0670217407e-01	-5.2171966281e-01
 5.2661180641e-01	 9.1179226058e-01	-7.0939161032e-01
 5.1785808360e-01	 9.1679230274e-01	-8.9773640826e-01
 5.0906840427e-01	 9.2170194797e-01	-1.0866695679e+00
 5.0024413752e-01	 9.2652087078e-01	-1.2761083658e+00
 4.9138665476e-01	 9.3124877269e-01	-1.4659720156e+00
 4.8249732898e-01	 9.3588538221e-01	-1.6561818048e+00
 4.7357753413e-01	 9.4043045478e-01	-1.8466611952e+00
 4.6462864452e-01	 9.4488377264e-01	-2.0373358892e+00
 4.5565203409e-01	 9.4924514481e-01	-2.2281338604e+00
 5.4704506038e-01	 9.0655886094e-01	-4.1044461932e-01
 5.3831886684e-01	 9.1176754934e-01	-5.9143872453e-01
 5.2955377181e-01	 9.1688607209e-01	-7.7301261832e-01
 5.2075114552e-01	 9.2191404744e-01	-9.5509240713e-01
 5.1191236183e-01	 9.2685112086e-01	-1.1376058217e+00
 5.0303879751e-01	 9.3169696503e-01	-1.3204824193e+00
 4.9413183160e-01	 9.3645127980e-01	-1.5036537491e+00
 4.8519284478e-01	 9.4111379217e-01	-1.6870534813e+00
 4.7622321868e-01	 9.4568425620e-01	-1.8706174982e+00
 4.6722433527e-01	 9.5016245294e-01	-2.0542839505e+00
 4.5819757618e-01	 9.5454819031e-01	-2.2379932769e+00
 4.3274215528e-01	 9.0151773529e-01	-2.0780291140e+00
 4.2419185976e-01	 9.0557234173e-01	-2.3438007029e+00
 4.1561784371e-01	 9.0953933834e-01	-2.6095634461e+00
 4.0702140752e-01	 9.1341861916e-01	-2.8750894311e+00
 3.9840384897e-01	 9.1721010304e-01	-3.1401557131e+00
 3.8976646259e-01	 9.2091373355e-01	-3.4045443470e+00
 3.8111053912e-01	 9.2452947869e-01	-3.6680423950e+00
 3.7243736497e-01	 9.2805733076e-01	-3.9304419092e+00
 3.6374822164e-01	 9.3149730609e-01	-4.1915398929e+00
 3.5504438523e-01	 9.3484944484e-01	-4.4511382397e+00
 3.4632712587e-01	 9.3811381073e-01	-4.7090436534e+00
 4.3528769737e-01	 9.0682078079e-01	-2.0991019900e+00
 4.2668710600e-01	 9.1089923786e-01	-2.3553768142e+00
 4.1806265455e-01	 9.1488956975e-01	-2.6115978783e+00
 4.0941565109e-01	 9.1879166986e-01	-2.8675357172e+00
 4.0074740102e-01	 9.2260545659e-01	-3.1229658764e+00
 3.9205920648e-01	 9.2633087316e-01	-3.3776689498e+00
 3.8335236582e-01	 9.2996788739e-01	-3.6314305914e+00
 3.7462817300e-01	 9.3351649153e-01	-3.8840415027e+00
 3.6588791706e-01	 9.3697670201e-01	-4.1352973960e+00
 3.5713288161e-01	 9.4034855922e-01	-4.3849989358e+00
 3.4836434426e-01	 9.4363212727e-01	-4.6329516602e+00
 4.3783323946e-01	 9.1212382629e-01	-2.1192995243e+00
 4.2918235223e-01	 9.1622613399e-01	-2.3664082653e+00
 4.2050746540e-01	 9.2023980115e-01	-2.6134203406e+00
 4.1180989467e-01	 9.2416472056e-01	-2.8601059651e+00
 4.0309095307e-01	 9.2800081014e-01	-3.1062404145e+00
 3.9435195038e-01	 9.3174801277e-01	-3.3516040661e+00
 3.8559419252e-01	 9.3540629609e-01	-3.5959824140e+00
 3.7681898102e-01	 9.3897565230e-01	-3.8391660574e+00
 3.6802761248e-01	 9.4245609793e-01	-4.0809506657e+00
 3.5922137800e-01	 9.4584767360e-01	-4.3211369194e+00
 3.5040156264e-01	 9.4915044380e-01	-4.5595304307e+00
 4.4037878155e-01	 9.1742687180e-01	-2.1385203591e+00
 4.3167759847e-01	 9.2155303012e-01	-2.3767757036e+00
 4.2295227624e-01	 9.2559003255e-01	-2.6148936093e+00
 4.1420413824e-01	 9.2953777126e-01	-2.8526451825e+00
 4.0543450513e-01	 9.3339616369e-01	-3.0898066471e+00
 3.9664469428e-01	 9.3716515238e-01	-3.3261593876e+00
 3.8783601922e-01	 9.4084470479e-01	-3.5614899646e+00
 3.7900978905e-01	 9.4443481307e-01	-3.7955901032e+00
 3.7016730791e-01	 9.4793549384e-01	-4.0282566569e+00
 3.6130987438e-01	 9.5134678798e-01	-4.2592915469e+00
 3.5243878103e-01	 9.5466876033e-01	-4.4885016795e+00
 4.4292432364e-01	 9.2272991730e-01	-2.1566669903e+00
 4.3417284470e-01	 9.2687992624e-01	-2.3863639963e+00
 4.2539708709e-01	 9.3094026395e-01	-2.6158850425e+00
 4.1659838181e-01	 9.3491082196e-01	-2.8450033167e+00
 4.0777805718e-01	 9.3879151723e-01	-3.0734971881e+00
 3.9893743818e-01	 9.4258229199e-01	-3.3011502513e+00
 3.9007784592e-01	 9.4628311349e-01	-3.5277513395e+00
 3.8120059708e-01	 9.4989397384e-01	-3.7530945118e+00
 3.7230700333e-01	 9.5341488976e-01	-3.9769790127e+00
 3.6339837077e-01	 9.5684590237e-01	-4.1992092088e+00
 3.5447599942e-01	 9.6018707687e-01	-4.4195945008e+00
 4.4546986573e-01	 9.2803296280e-01	-2.1736456829e+00
 4.3666809093e-01	 9.3220682237e-01	-2.3950621359e+00
 4.2784189793e-01	 9.3629049535e-01	-2.6162664750e+00
 4.1899262539e-01	 9.4028387266e-01	-2.8370351386e+00
 4.1012160923e-01	 9.4418687078e-01	-3.0571498188e+00
 4.0123018207e-01	 9.4799943160e-01	-3.2763975025e+00
 3.9231967262e-01	 9.5172152218e-01	-3.4945704822e+00
 3.8339140511e-01	 9.5535313461e-01	-3.7114663385e+00
 3.7444669875e-01	 9.5889428568e-01	-3.9268878954e+00
 3.6548686715e-01	 9.6234501675e-01	-4.1406431499e+00
 3.5651321781e-01	 9.6570539340e-01	-4.3525451788e+00
 4.4801540782e-01	 9.3333600830e-01	-2.1893663907e+00
 4.3916333717e-01	 9.3753371850e-01	-2.4027631490e+00
 4.3028670878e-01	 9.4164072676e-01	-2.6159141163e+00
 4.2138686896e-01	 9.4565692336e-01	-2.8286001311e+00
 4.1246516128e-01	 9.4958222433e-01	-3.0406073657e+00
 4.0352292597e-01	 9.5341657121e-01	-3.2517273624e+00
 3.9456149932e-01	 9.5715993088e-01	-3.4617570401e+00
 3.8558221314e-01	 9.6081229537e-01	-3.6704986699e+00
 3.7658639417e-01	 9.6437368160e-01	-3.8777598238e+00
 3.6757536353e-01	 9.6784413113e-01	-4.0833532967e+00
 3.5855043619e-01	 9.7122370994e-01	-4.2870970038e+00
 4.5056094991e-01	 9.3863905380e-01	-2.2037426785e+00
 4.4165858340e-01	 9.4286061463e-01	-2.4093640085e+00
 4.3273151962e-01	 9.4699095816e-01	-2.6147084531e+00
 4.2378111254e-01	 9.5102997406e-01	-2.8195623811e+00
 4.1480871334e-01	 9.5497757788e-01	-3.0237175828e+00
 4.0581566987e-01	 9.5883371082e-01	-3.2269713006e+00
 3.9680332602e-01	 9.6259833958e-01	-3.4291262276e+00
 3.8777302117e-01	 9.6627145614e-01	-3.6299904760e+00
 3.7872608959e-01	 9.6985307752e-01	-3.8293775163e+00
 3.6966385992e-01	 9.7334324551e-01	-4.0271060900e+00
 3.6058765458e-01	 9.7674202647e-01	-4.2230000962e+00
 4.5310649200e-01	 9.4394209931e-01	-2.2166916470e+00
 4.4415382964e-01	 9.4818751075e-01	-2.4147655486e+00
 4.3517633047e-01	 9.5234118956e-01	-2.6125341545e+00
 4.2617535611e-01	 9.5640302476e-01	-2.8097904751e+00
 4.1715226539e-01	 9.6037293142e-01	-3.0063330382e+00
 4.0810841377e-01	 9.6425085042e-01	-3.2019659116e+00
 3.9904515272e-01	 9.6803674828e-01	-3.3964986931e+00
 3.8996382920e-01	 9.7173061691e-01	-3.5897464682e+00
 3.8086578501e-01	 9.7533247344e-01	-3.7815297389e+00
 3.7175235630e-01	 9.7884235989e-01	-3.9716743241e+00
 3.6262487297e-01	 9.8226034300e-01	-4.1600112350e+00
 4.5565203409e-01	 9.4924514481e-01	-2.2281338604e+00
 4.4664907587e-01	 9.5351440688e-01	-2.4188723831e+00
 4.3762114131e-01	 9.5769142096e-01	-2.6092799810e+00
 4.2856959968e-01	 9.6177607546e-01	-2.7991573989e+00
 4.1949581744e-01	 9.6576828497e-01	-2.9883110036e+00
 4.1040115766e-01	 9.6966799003e-01	-3.1765527962e+00
 4.0128697942e-01	 9.7347515698e-01	-3.3637003911e+00
 3.9215463723e-01	 9.7718977768e-01	-3.5495769622e+00
 3.8300548043e-01	 9.8081186935e-01	-3.7340111585e+00
 3.7384085268e-01	 9.8434147427e-01	-3.9168369911e+00
 3.6466209136e-01	 9.8777865954e-01	-4.0978936936e+00
 4.5819757618e-01	 9.5454819031e-01	-2.2379932769e+00
 4.4914432210e-01	 9.5884130301e-01	-2.4215928264e+00
 4.4006595216e-01	 9.6304165236e-01	-2.6048386962e+00
 4.3096384326e-01	 9.6714912617e-01	-2.7875404407e+00
 4.2183936950e-01	 9.7116363852e-01	-2.9695133490e+00
 4.1269390156e-01	 9.7508512964e-01	-3.1505784460e+00
 4.0352880613e-01	 9.7891356568e-01	-3.3305624580e+00
 3.9434544526e-01	 9.8264893845e-01	-3.5092977452e+00
 3.8514517586e-01	 9.8629126527e-01	-3.6866222022e+00
 3.7592934907e-01	 9.8984058865e-01	-3.8623791302e+00
 3.6669930974e-01	 9.9329697607e-01	-4.0364170802e+00
 3.4632712587e-01	 9.3811381073e-01	-4.7090436534e+00
 3.3759770722e-01	 9.4129049080e-01	-4.9644839813e+00
 3.2885738599e-01	 9.4437959512e-01	-5.2166218248e+00
 3.2010741140e-01	 9.4738125650e-01	-5.4651796728e+00
 3.1134902473e-01	 9.5029563021e-01	-5.7098933806e+00
 3.0258345885e-01	 9.5312289367e-01	-5.9505120177e+00
 2.9381193771e-01	 9.5586324611e-01	-6.1867976936e+00
 2.8503567598e-01	 9.5851690826e-01	-6.4185253637e+00
 2.7625587852e-01	 9.6108412201e-01	-6.6454826170e+00
 2.6747374003e-01	 9.6356515005e-01	-6.8674694474e+00
 2.5869044459e-01	 9.6596027552e-01	-7.0842980113e+00
 3.4836434426e-01	 9.4363212727e-01	-4.6329516602e+00
 3.3958357609e-01	 9.4682749369e-01	-4.8784464353e+00
 3.3079184120e-01	 9.4993476921e-01	-5.1207261419e+00
 3.2199039618e-01	 9.5295408742e-01	-5.3595369796e+00
 3.1318048959e-01	 9.5588560451e-01	-5.5946370884e+00
 3.0436336155e-01	 9.5872949892e-01	-5.8257963867e+00
 2.9554024323e-01	 9.6148597108e-01	-6.0527963885e+00
 2.8671235642e-01	 9.6415524301e-01	-6.2754300028e+00
 2.7788091310e-01	 9.6673755802e-01	-6.4935013164e+00
 2.6904711497e-01	 9.6923318035e-01	-6.7068253618e+00
 2.6021215309e-01	 9.7164239478e-01	-6.9152278733e+00
 3.5040156264e-01	 9.4915044380e-01	-4.5595304307e+00
 3.4156944495e-01	 9.5236449658e-01	-4.7954757275e+00
 3.3272629641e-01	 9.5548994330e-01	-5.0282840044e+00
 3.2387338095e-01	 9.5852691834e-01	-5.2577226222e+00
 3.1501195444e-01	 9.6147557880e-01	-5.4835696271e+00
 3.0614326424e-01	 9.6433610418e-01	-5.7056135791e+00
 2.9726854874e-01	 9.6710869606e-01	-5.9236533608e+00
 2.8838903687e-01	 9.6979357777e-01	-6.1374979696e+00
 2.7950594768e-01	 9.7239099404e-01	-6.3469662943e+00
 2.7062048991e-01	 9.7490121064e-01	-6.5518868799e+00
 2.6173386159e-01	 9.7732451405e-01	-6.7520976800e+00
 3.5243878103e-01	 9.5466876033e-01	-4.4885016795e+00
 3.4355531382e-01	 9.5790149947e-01	-4.7152771618e+00
 3.3466075163e-01	 9.6104511739e-01	-4.9389868542e+00
 3.2575636572e-01	 9.6409974926e-01	-5.1594167713e+00
 3.1684341929e-01	 9.6706555310e-01	-5.3763625279e+00
 3.0792316694e-01	 9.6994270944e-01	-5.5896291573e+00
 2.9899685426e-01	 9.7273142104e-01	-5.7990309110e+00
 2.9006571732e-01	 9.7543191252e-01	-6.0043910437e+00
 2.8113098226e-01	 9.7804443005e-01	-6.2055415834e+00
 2.7219386485e-01	 9.8056924094e-01	-6.4023230914e+00
 2.6325557008e-01	 9.8300663332e-01	-6.5945844110e+00
 3.5447599942e-01	 9.6018707687e-01	-4.4195945008e+00
 3.4554118269e-01	 9.6343850235e-01	-4.6375637386e+00
 3.3659520684e-01	 9.6660029148e-01	-4.8525340867e+00
 3.2763935049e-01	 9.6967258018e-01	-5.0643077486e+00
 3.1867488414e-01	 9.7265552739e-01	-5.2726956100e+00
 3.0970306964e-01	 9.7554931469e-01	-5.4775170464e+00
 3.0072515978e-01	 9.7835414602e-01	-5.6785997147e+00
 2.9174239776e-01	 9.8107024728e-01	-5.8757793299e+00
 2.8275601684e-01	 9.8369786606e-01	-6.0688994282e+00
 2.7376723979e-01	 9.8623727123e-01	-6.2578111207e+00
 2.6477727858e-01	 9.8868875259e-01	-6.4423728381e+00
 3.5651321781e-01	 9.6570539340e-01	-4.3525451788e+00
 3.4752705155e-01	 9.6897550524e-01	-4.5620559545e+00
 3.3852966205e-01	 9.7215546556e-01	-4.7686328432e+00
 3.2952233527e-01	 9.7524541110e-01	-4.9720918130e+00
 3.2050634899e-01	 9.7824550169e-01	-5.1722567611e+00
 3.1148297234e-01	 9.8115591995e-01	-5.3689593123e+00
 3.0245346529e-01	 9.8397687099e-01	-5.5620386003e+00
 2.9341907821e-01	 9.8670858203e-01	-5.7513410365e+00
 2.8438105142e-01	 9.8935130207e-01	-5.9367200652e+00
 2.7534061473e-01	 9.9190530152e-01	-6.1180359108e+00
 2.6629898708e-01	 9.9437087186e-01	-6.2951553161e+00
 3.5855043619e-01	 9.7122370994e-01	-4.2870970038e+00
 3.4951292042e-01	 9.7451250813e-01	-4.4884816106e+00
 3.4046411726e-01	 9.7771063965e-01	-4.6869978109e+00
 3.3140532004e-01	 9.8081824202e-01	-4.8824729535e+00
 3.2233781384e-01	 9.8383547598e-01	-5.0747417271e+00
 3.1326287504e-01	 9.8676252521e-01	-5.2636459482e+00
 3.0418177081e-01	 9.8959959597e-01	-5.4490343338e+00
 2.9509575866e-01	 9.9234691679e-01	-5.6307622603e+00
 2.8600608600e-01	 9.9500473808e-01	-5.8086915111e+00
 2.7691398968e-01	 9.9757333182e-01	-5.9826900156e+00
 2.6782069558e-01	 1.0000529911e+00	-6.1526315808e+00
 3.6058765458e-01	 9.7674202647e-01	-4.2230000962e+00
 3.5149878928e-01	 9.8004951101e-01	-4.4165756258e+00
 3.4239857247e-01	 9.8326581374e-01	-4.6073510289e+00
 3.3328830481e-01	 9.8639107294e-01	-4.7951626905e+00
 3.2416927869e-01	 9.8942545028e-01	-4.9798539078e+00
 3.1504277774e-01	 9.9236913047e-01	-5.1612746681e+00
 3.0591007632e-01	 9.9522232095e-01	-5.3392814113e+00
 2.9677243910e-01	 9.9798525154e-01	-5.5137367800e+00
 2.8763112057e-01	 1.0006581741e+00	-5.6845093578e+00
 2.7848736462e-01	 1.0032413621e+00	-5.8514733993e+00
 2.6934240408e-01	 1.0057351104e+00	-6.0145085539e+00
 3.6262487297e-01	 9.8226034300e-01	-4.1600112350e+00
 3.5348465815e-01	 9.8558651390e-01	-4.3460798577e+00
 3.4433302768e-01	 9.8882098783e-01	-4.5294217017e+00
 3.3517128959e-01	 9.9196390386e-01	-4.7098798826e+00
 3.2600074355e-01	 9.9501542457e-01	-4.8873041604e+00
 3.1682268044e-01	 9.9797573572e-01	-5.0615507067e+00
 3.0763838184e-01	 1.0008450459e+00	-5.2324818583e+00
 2.9844911955e-01	 1.0036235863e+00	-5.3999658563e+00
 2.8925615515e-01	 1.0063116101e+00	-5.5638765748e+00
 2.8006073956e-01	 1.0089093924e+00	-5.7240932421e+00
 2.7086411257e-01	 1.0114172297e+00	-5.8805001543e+00
 3.6466209136e-01	 9.8777865954e-01	-4.0978936936e+00
 3.5547052702e-01	 9.9112351679e-01	-4.2767429291e+00
 3.4626748290e-01	 9.9437616192e-01	-4.4529460187e+00
 3.3705427436e-01	 9.9753673478e-01	-4.6263505411e+00
 3.2783220840e-01	 1.0006053989e+00	-4.7968106092e+00
 3.1860258314e-01	 1.0035823410e+00	-4.9641866279e+00
 3.0936668736e-01	 1.0064677709e+00	-5.1283450366e+00
 3.0012580000e-01	 1.0092619211e+00	-5.2891580384e+00
 2.9088118973e-01	 1.0119650461e+00	-5.4465033184e+00
 2.8163411450e-01	 1.0145774227e+00	-5.6002637535e+00
 2.7238582107e-01	 1.0170993489e+00	-5.7503271166e+00
 3.6669930974e-01	 9.9329697607e-01	-4.0364170802e+00
 3.5745639588e-01	 9.9666051967e-01	-4.2083200606e+00
 3.4820193811e-01	 9.9993133601e-01	-4.3776669799e+00
 3.3893725913e-01	 1.0031095657e+00	-4.5443076498e+00
 3.2966367325e-01	 1.0061953732e+00	-4.7080984622e+00
 3.2038248584e-01	 1.0091889462e+00	-4.8689021376e+00
 3.1109499287e-01	 1.0120904959e+00	-5.0265874566e+00
 3.0180248045e-01	 1.0149002558e+00	-5.1810289781e+00
 2.9250622431e-01	 1.0176184821e+00	-5.3321067467e+00
 2.8320748944e-01	 1.0202454530e+00	-5.4797059907e+00
 2.7390752957e-01	 1.0227814682e+00	-5.6237168150e+00
 2.5869044459e-01	 9.6596027552e-01	-7.0842980113e+00
 2.4990716530e-01	 9.6826980162e-01	-7.2956941995e+00
 2.4112506387e-01	 9.7049405128e-01	-7.5013862771e+00
 2.3234529023e-01	 9.7263336675e-01	-7.7012046798e+00
 2.2356898224e-01	 9.7468810918e-01	-7.8949873653e+00
 2.1479726526e-01	 9.7665865830e-01	-8.0825796337e+00
 2.0603125189e-01	 9.7854541195e-01	-8.2638339468e+00
 1.9727204159e-01	 9.8034878569e-01	-8.4386097476e+00
 1.8852072043e-01	 9.8206921241e-01	-8.6067732811e+00
 1.7977836075e-01	 9.8370714189e-01	-8.7681974180e+00
 1.7104602093e-01	 9.8526304037e-01	-8.9227614814e+00
 2.6021215309e-01	 9.7164239478e-01	-6.9152278733e+00
 2.5137720745e-01	 9.7396550634e-01	-7.1184187929e+00
 2.4254344659e-01	 9.7620283982e-01	-7.3161047114e+00
 2.3371202723e-01	 9.7835473949e-01	-7.5081203229e+00
 2.2488409390e-01	 9.8042156865e-01	-7.6943083100e+00
 2.1606077859e-01	 9.8240370923e-01	-7.8745191427e+00
 2.0724320043e-01	 9.8430156143e-01	-8.0486108738e+00
 1.9843246537e-01	 9.8611554325e-01	-8.2164489363e+00
 1.8962966584e-01	 9.8784609013e-01	-8.3779059408e+00
 1.8083588052e-01	 9.8949365449e-01	-8.5328614770e+00
 1.7205217400e-01	 9.9105870532e-01	-8.6812019177e+00
 2.6173386159e-01	 9.7732451405e-01	-6.7520976800e+00
 2.5284724960e-01	 9.7966121105e-01	-6.9473070203e+00
 2.4396182932e-01	 9.8191162836e-01	-7.1372152667e+00
 2.3507876424e-01	 9.8407611224e-01	-7.3216616779e+00
 2.2619920556e-01	 9.8615502811e-01	-7.5004937892e+00
 2.1732429191e-01	 9.8814876016e-01	-7.6735671907e+00
 2.0845514897e-01	 9.9005771091e-01	-7.8407453045e+00
 1.9959288914e-01	 9.9188230082e-01	-8.0018991612e+00
 1.9073861126e-01	 9.9362296785e-01	-8.1569071787e+00
 1.8189340029e-01	 9.9528016709e-01	-8.3056549445e+00
 1.7305832706e-01	 9.9685437026e-01	-8.4480350010e+00
 2.6325557008e-01	 9.8300663332e-01	-6.5945844110e+00
 2.5431729175e-01	 9.8535691577e-01	-6.7820436064e+00
 2.4538021205e-01	 9.8762041689e-01	-6.9644072807e+00
 2.3644550124e-01	 9.8979748498e-01	-7.1415195759e+00
 2.2751431722e-01	 9.9188848758e-01	-7.3132330210e+00
 2.1858780524e-01	 9.9389381110e-01	-7.4794082939e+00
 2.0966709751e-01	 9.9581386039e-01	-7.6399139813e+00
 2.0075331291e-01	 9.9764905838e-01	-7.7946263394e+00
 1.9184755667e-01	 9.9939984557e-01	-7.9434290569e+00
 1.8295092006e-01	 1.0010666797e+00	-8.0862130207e+00
 1.7406448012e-01	 1.0026500352e+00	-8.2228760878e+00
 2.6477727858e-01	 9.8868875259e-01	-6.4423728381e+00
 2.5578733390e-01	 9.9105262048e-01	-6.6223208303e+00
 2.4679859478e-01	 9.9332920543e-01	-6.7973774806e+00
 2.3781223824e-01	 9.9551885773e-01	-6.9673921449e+00
 2.2882942888e-01	 9.9762194704e-01	-7.1322225018e+00
 2.1985131856e-01	 9.9963886203e-01	-7.2917342996e+00
 2.1087904605e-01	 1.0015700099e+00	-7.4458011035e+00
 2.0191373669e-01	 1.0034158159e+00	-7.5943040426e+00
 1.9295650209e-01	 1.0051767233e+00	-7.7371315604e+00
 1.8400843983e-01	 1.0068531923e+00	-7.8741791690e+00
 1.7507063319e-01	 1.0084457001e+00	-8.0053492088e+00
 2.6629898708e-01	 9.9437087186e-01	-6.2951553161e+00
 2.5725737605e-01	 9.9674832520e-01	-6.4678383222e+00
 2.4821697751e-01	 9.9903799397e-01	-6.6358297838e+00
 2.3917897524e-01	 1.0012402305e+00	-6.7989846135e+00
 2.3014454054e-01	 1.0033554065e+00	-6.9571658085e+00
 2.2111483189e-01	 1.0053839130e+00	-7.1102441869e+00
 2.1209099459e-01	 1.0073261594e+00	-7.2580981229e+00
 2.0307416046e-01	 1.0091825735e+00	-7.4006132854e+00
 1.9406544750e-01	 1.0109536010e+00	-7.5376823783e+00
 1.8506595960e-01	 1.0126397049e+00	-7.6692048863e+00
 1.7607678625e-01	 1.0142413651e+00	-7.7950868268e+00
 2.6782069558e-01	 1.0000529911e+00	-6.1526315808e+00
 2.5872741820e-01	 1.0024440299e+00	-6.3183028674e+00
 2.4963536024e-01	 1.0047467825e+00	-6.4794751053e+00
 2.4054571224e-01	 1.0069616032e+00	-6.6360091190e+00
 2.3145965220e-01	 1.0090888660e+00	-6.7877734075e+00
 2.2237834521e-01	 1.0111289639e+00	-6.9346438725e+00
 2.1330294313e-01	 1.0130823088e+00	-7.0765035462e+00
 2.0423458424e-01	 1.0149493311e+00	-7.2132423225e+00
 1.9517439291e-01	 1.0167304787e+00	-7.3447566918e+00
 1.8612347937e-01	 1.0184262175e+00	-7.4709494814e+00
 1.7708293932e-01	 1.0200370300e+00	-7.5917296028e+00
 2.6934240408e-01	 1.0057351104e+00	-6.0145085539e+00
 2.6019746034e-01	 1.0081397346e+00	-6.1734282161e+00
 2.5105374297e-01	 1.0104555710e+00	-6.3280311719e+00
 2.4191244924e-01	 1.0126829760e+00	-6.4781845240e+00
 2.3277476386e-01	 1.0148223254e+00	-6.6237624700e+00
 2.2364185854e-01	 1.0168740148e+00	-6.7646460249e+00
 2.1451489167e-01	 1.0188384583e+00	-6.9007227443e+00
 2.0539500801e-01	 1.0207160886e+00	-7.0318864516e+00
 1.9628333833e-01	 1.0225073565e+00	-7.1580369698e+00
 1.8718099914e-01	 1.0242127301e+00	-7.2790798605e+00
 1.7808909238e-01	 1.0258326950e+00	-7.3949261703e+00
 2.7086411257e-01	 1.0114172297e+00	-5.8805001543e+00
 2.6166750249e-01	 1.0138354393e+00	-6.0329349011e+00
 2.5247212569e-01	 1.0161643596e+00	-6.1812223428e+00
 2.4327918624e-01	 1.0184043487e+00	-6.3252362384e+00
 2.3408987552e-01	 1.0205557849e+00	-6.4648566945e+00
 2.2490537186e-01	 1.0226190658e+00	-6.5999698842e+00
 2.1572684021e-01	 1.0245946078e+00	-6.7304677687e+00
 2.0655543178e-01	 1.0264828462e+00	-6.8562478237e+00
 1.9739228374e-01	 1.0282842342e+00	-6.9772127714e+00
 1.8823851891e-01	 1.0299992427e+00	-7.0932703208e+00
 1.7909524545e-01	 1.0316283599e+00	-7.2043329171e+00
 2.7238582107e-01	 1.0170993489e+00	-5.7503271166e+00
 2.6313754464e-01	 1.0195311441e+00	-5.8965500608e+00
 2.5389050842e-01	 1.0218731481e+00	-6.0387794358e+00
 2.4464592324e-01	 1.0241257215e+00	-6.1768960472e+00
 2.3540498718e-01	 1.0262892444e+00	-6.3107861340e+00
 2.2616888519e-01	 1.0283641167e+00	-6.4403410873e+00
 2.1693878875e-01	 1.0303507573e+00	-6.5654571729e+00
 2.0771585556e-01	 1.0322496038e+00	-6.6860352596e+00
 1.9850122916e-01	 1.0340611119e+00	-6.8019805549e+00
 1.8929603868e-01	 1.0357857553e+00	-6.9132023499e+00
 1.8010139851e-01	 1.0374240249e+00	-7.0196137745e+00
 2.7390752957e-01	 1.0227814682e+00	-5.6237168150e+00
 2.6460758679e-01	 1.0252268488e+00	-5.7640072681e+00
 2.5530889115e-01	 1.0275819367e+00	-5.9004395604e+00
 2.4601266025e-01	 1.0298470942e+00	-6.0329019451e+00
 2.3672009884e-01	 1.0320227038e+00	-6.1612870306e+00
 2.2743239851e-01	 1.0341091676e+00	-6.2854915007e+00
 2.1815073729e-01	 1.0361069068e+00	-6.4054158411e+00
 2.0887627933e-01	 1.0380163613e+00	-6.5209640728e+00
 1.9961017457e-01	 1.0398379896e+00	-6.6320434939e+00
 1.9035355845e-01	 1.0415722679e+00	-6.7385644332e+00
 1.8110755158e-01	 1.0432196898e+00	-6.8404400136e+00
 1.7104602093e-01	 9.8526304037e-01	-8.9227614814e+00
 1.6232474508e-01	 9.8673739016e-01	-9.0702118021e+00
 1.5361556282e-01	 9.8813068916e-01	-9.2103142373e+00
 1.4491948902e-01	 9.8944345048e-01	-9.3429898874e+00
 1.3623752361e-01	 9.9067620198e-01	-9.4681699850e+00
 1.2757065133e-01	 9.9182948581e-01	-9.5857956497e+00
 1.1891984155e-01	 9.9290385803e-01	-9.6958176479e+00
 1.1028604810e-01	 9.9389988811e-01	-9.7981961580e+00
 1.0167020908e-01	 9.9481815855e-01	-9.8929005441e+00
 9.3073246691e-02	 9.9565926438e-01	-9.9799091354e+00
 8.4496067130e-02	 9.9642381276e-01	-1.0059209014e+01
 1.7205217400e-01	 9.9105870532e-01	-8.6812019177e+00
 1.6327959652e-01	 9.9254172775e-01	-8.8227159336e+00
 1.5451918378e-01	 9.9394322263e-01	-8.9572087867e+00
 1.4577195661e-01	 9.9526370607e-01	-9.0846036406e+00
 1.3703892081e-01	 9.9650370905e-01	-9.2048327103e+00
 1.2832106693e-01	 9.9766377690e-01	-9.3178370325e+00
 1.1961937003e-01	 9.9874446896e-01	-9.4235662426e+00
 1.1093478956e-01	 9.9974635804e-01	-9.5219783588e+00
 1.0226826913e-01	 1.0006700301e+00	-9.6130395746e+00
 9.3620736378e-02	 1.0015160836e+00	-9.6967240595e+00
 8.4993102819e-02	 1.0022851293e+00	-9.7730137691e+00
 1.7305832706e-01	 9.9685437026e-01	-8.4480350010e+00
 1.6423444796e-01	 9.9834606534e-01	-8.5838653891e+00
 1.5542280473e-01	 9.9975575609e-01	-8.7129790383e+00
 1.4662442419e-01	 1.0010839617e+00	-8.8353020751e+00
 1.3784031801e-01	 1.0023312161e+00	-8.9507686605e+00
 1.2907148252e-01	 1.0034980680e+00	-9.0593207732e+00
 1.2031889851e-01	 1.0045850799e+00	-9.1609080005e+00
 1.1158353102e-01	 1.0055928280e+00	-9.2554873381e+00
 1.0286632918e-01	 1.0065219016e+00	-9.3430229992e+00
 9.4168226064e-02	 1.0073729028e+00	-9.4234862330e+00
 8.5490138508e-02	 1.0081464459e+00	-9.4968551545e+00
 1.7406448012e-01	 1.0026500352e+00	-8.2228760878e+00
 1.6518929941e-01	 1.0041504029e+00	-8.3532550183e+00
 1.5632642569e-01	 1.0055682896e+00	-8.4772009602e+00
 1.4747689177e-01	 1.0069042173e+00	-8.5946438840e+00
 1.3864171521e-01	 1.0081587232e+00	-8.7055208406e+00
 1.2982189812e-01	 1.0093323591e+00	-8.8097757550e+00
 1.2101842699e-01	 1.0104256908e+00	-8.9073592275e+00
 1.1223227248e-01	 1.0114392979e+00	-8.9982283468e+00
 1.0346438924e-01	 1.0123737731e+00	-9.0823465129e+00
 9.4715715750e-02	 1.0132297220e+00	-9.1596832704e+00
 8.5987174197e-02	 1.0140077624e+00	-9.2302141544e+00
 1.7507063319e-01	 1.0084457001e+00	-8.0053492088e+00
 1.6614415085e-01	 1.0099547405e+00	-8.1304887735e+00
 1.5723004665e-01	 1.0113808230e+00	-8.2494600169e+00
 1.4832935935e-01	 1.0127244728e+00	-8.3621976161e+00
 1.3944311240e-01	 1.0139862303e+00	-8.4686424370e+00
 1.3057231371e-01	 1.0151666502e+00	-8.5687413346e+00
 1.2171795547e-01	 1.0162663017e+00	-8.6624469630e+00
 1.1288101394e-01	 1.0172857678e+00	-8.7497175976e+00
 1.0406244929e-01	 1.0182256446e+00	-8.8305169693e+00
 9.5263205437e-02	 1.0190865412e+00	-8.9048141105e+00
 8.6484209886e-02	 1.0198690789e+00	-8.9725832135e+00
 1.7607678625e-01	 1.0142413651e+00	-7.7950868268e+00
 1.6709900229e-01	 1.0157590781e+00	-7.9151794548e+00
 1.5813366761e-01	 1.0171933565e+00	-8.0293509023e+00
 1.4918182694e-01	 1.0185447284e+00	-8.1375413982e+00
 1.4024450960e-01	 1.0198137373e+00	-8.2396965298e+00
 1.3132272931e-01	 1.0210009413e+00	-8.3357670464e+00
 1.2241748395e-01	 1.0221069127e+00	-8.4257086759e+00
 1.1352975540e-01	 1.0231322378e+00	-8.5094819534e+00
 1.0466050935e-01	 1.0240775162e+00	-8.5870520632e+00
 9.5810695123e-02	 1.0249433604e+00	-8.6583886944e+00
 8.6981245575e-02	 1.0257303955e+00	-8.7234659106e+00
 1.7708293932e-01	 1.0200370300e+00	-7.5917296028e+00
 1.6805385373e-01	 1.0215634157e+00	-7.7069484635e+00
 1.5903728857e-01	 1.0230058900e+00	-7.8164772820e+00
 1.5003429452e-01	 1.0243649840e+00	-7.9202626668e+00
 1.4104590680e-01	 1.0256412444e+00	-8.0182558147e+00
 1.3207314491e-01	 1.0268352324e+00	-8.1104123153e+00
 1.2311701243e-01	 1.0279475236e+00	-8.1966919704e+00
 1.1417849686e-01	 1.0289787077e+00	-8.2770586268e+00
 1.0525856940e-01	 1.0299293877e+00	-8.3514800234e+00
 9.6358184810e-02	 1.0308001796e+00	-8.4199276536e+00
 8.7478281264e-02	 1.0315917120e+00	-8.4823766427e+00
 1.7808909238e-01	 1.0258326950e+00	-7.3949261703e+00
 1.6900870517e-01	 1.0273677533e+00	-7.5054255645e+00
 1.5994090952e-01	 1.0288184234e+00	-7.6104515442e+00
 1.5088676210e-01	 1.0301852396e+00	-7.7099579090e+00
 1.4184730400e-01	 1.0314687515e+00	-7.8039023352e+00
 1.3282356050e-01	 1.0326695235e+00	-7.8922461805e+00
 1.2381654091e-01	 1.0337881345e+00	-7.9749543017e+00
 1.1482723832e-01	 1.0348251776e+00	-8.0519948894e+00
 1.0585662945e-01	 1.0357812592e+00	-8.1233393174e+00
 9.6905674496e-02	 1.0366569988e+00	-8.1889620092e+00
 8.7975316953e-02	 1.0374530286e+00	-8.2488403203e+00
 1.7909524545e-01	 1.0316283599e+00	-7.2043329171e+00
 1.6996355661e-01	 1.0331720909e+00	-7.3102486565e+00
 1.6084453048e-01	 1.0346309569e+00	-7.4108945597e+00
 1.5173922968e-01	 1.0360054952e+00	-7.5062324118e+00
 1.4264870119e-01	 1.0372962585e+00	-7.5962272230e+00
 1.3357397610e-01	 1.0385038146e+00	-7.6808470281e+00
 1.2451606939e-01	 1.0396287455e+00	-7.7600627017e+00
 1.1547597978e-01	 1.0406716476e+00	-7.8338477907e+00
 1.0645468951e-01	 1.0416331307e+00	-7.9021783642e+00
 9.7453164183e-02	 1.0425138180e+00	-7.9650328806e+00
 8.8472352642e-02	 1.0433143451e+00	-8.0223920725e+00
 1.8010139851e-01	 1.0374240249e+00	-7.0196137745e+00
 1.7091840806e-01	 1.0389764285e+00	-7.1210635500e+00
 1.6174815144e-01	 1.0404434904e+00	-7.2174354487e+00
 1.5259169727e-01	 1.0418257508e+00	-7.3087000208e+00
 1.4345009839e-01	 1.0431237656e+00	-7.3948304476e+00
 1.3432439169e-01	 1.0443381056e+00	-7.4758023331e+00
 1.2521559787e-01	 1.0454693564e+00	-7.5515935140e+00
 1.1612472124e-01	 1.0465181175e+00	-7.6221838876e+00
 1.0705274956e-01	 1.0474850022e+00	-7.6875552587e+00
 9.8000653869e-02	 1.0483706372e+00	-7.7476912051e+00
 8.8969388331e-02	 1.0491756617e+00	-7.8025769623e+00
 1.8110755158e-01	 1.0432196898e+00	-6.8404400136e+00
 1.7187325950e-01	 1.0447807660e+00	-6.9375237524e+00
 1.6265177240e-01	 1.0462560238e+00	-7.0297113566e+00
 1.5344416485e-01	 1.0476460064e+00	-7.1169829061e+00
 1.4425149559e-01	 1.0489512727e+00	-7.1993205740e+00
 1.3507480729e-01	 1.0501723967e+00	-7.2767084091e+00
 1.2591512635e-01	 1.0513099673e+00	-7.3491321371e+00
 1.1677346270e-01	 1.0523645874e+00	-7.4165789813e+00
 1.0765080961e-01	 1.0533368738e+00	-7.4790375036e+00
 9.8548143555e-02	 1.0542274564e+00	-7.5364974658e+00
 8.9466424020e-02	 1.0550369782e+00	-7.5889497115e+00
 8.4496067130e-02	 9.9642381276e-01	-1.0059209014e+01
 7.5939560420e-02	 9.9711242253e-01	-1.0130873069e+01
 6.7404600309e-02	 9.9772572376e-01	-1.0194965600e+01
 5.8892044155e-02	 9.9826435734e-01	-1.0251471688e+01
 5.0402732834e-02	 9.9872897451e-01	-1.0300382269e+01
 4.1937490654e-02	 9.9912023645e-01	-1.0341694070e+01
 3.3497125286e-02	 9.9943881383e-01	-1.0375409547e+01
 2.5082427705e-02	 9.9968538642e-01	-1.0401536831e+01
 1.6694172137e-02	 9.9986064260e-01	-1.0420089686e+01
 8.3331160240e-03	 9.9996527899e-01	-1.0431087473e+01
 0.0000000000e+00	 1.0000000000e+00	-1.0434555117e+01
 8.4993102819e-02	 1.0022851293e+00	-9.7730137691e+00
 7.6386263717e-02	 1.0029777897e+00	-9.8419535414e+00
 6.7801097958e-02	 1.0035946986e+00	-9.9035889756e+00
 5.9238467944e-02	 1.0041365006e+00	-9.9579127757e+00
 5.0699219497e-02	 1.0046038508e+00	-1.0004922758e+01
 4.2184181775e-02	 1.0049974143e+00	-1.0044621789e+01
 3.3694167200e-02	 1.0053178657e+00	-1.0077017728e+01
 2.5229971398e-02	 1.0055658887e+00	-1.0102123388e+01
 1.6792373149e-02	 1.0057421758e+00	-1.0119956496e+01
 8.3821343536e-03	 1.0058474277e+00	-1.0130539670e+01
 0.0000000000e+00	 1.0058823529e+00	-1.0133900396e+01
 8.5490138508e-02	 1.0081464459e+00	-9.4968551545e+00
 7.6832967013e-02	 1.0088431569e+00	-9.5631508349e+00
 6.8197595607e-02	 1.0094636735e+00	-9.6224029414e+00
 5.9584891733e-02	 1.0100086439e+00	-9.6746108730e+00
 5.0995706161e-02	 1.0104787271e+00	-9.7197784274e+00
 4.2430872897e-02	 1.0108745922e+00	-9.7579137428e+00
 3.3891209113e-02	 1.0111969175e+00	-9.7890292514e+00
 2.5377515090e-02	 1.0114463910e+00	-9.8131416427e+00
 1.6890574162e-02	 1.0116237090e+00	-9.8302718378e+00
 8.4311526831e-03	 1.0117295764e+00	-9.8404449730e+00
 0.0000000000e+00	 1.0117647059e+00	-9.8436903926e+00
 8.5987174197e-02	 1.0140077624e+00	-9.2302141544e+00
 7.7279670310e-02	 1.0147085241e+00	-9.2939403426e+00
 6.8594093256e-02	 1.0153326483e+00	-9.3508779562e+00
 5.9931315523e-02	 1.0158807872e+00	-9.4010321752e+00
 5.1292192825e-02	 1.0163536035e+00	-9.4444118952e+00
 4.2677564018e-02	 1.0167517700e+00	-9.4810296752e+00
 3.4088251027e-02	 1.0170759694e+00	-9.5109016979e+00
 2.5525058782e-02	 1.0173268932e+00	-9.5340477409e+00
 1.6988775174e-02	 1.0175052422e+00	-9.5504911607e+00
 8.4801710127e-03	 1.0176117251e+00	-9.5602588860e+00
 0.0000000000e+00	 1.0176470588e+00	-9.5633814224e+00
 8.6484209886e-02	 1.0198690789e+00	-8.9725832135e+00
 7.7726373607e-02	 1.0205738913e+00	-9.0338090341e+00
 6.8990590905e-02	 1.0212016231e+00	-9.0884961590e+00
 6.0277739312e-02	 1.0217529305e+00	-9.1366546503e+00
 5.1588679489e-02	 1.0222284798e+00	-9.1782976330e+00
 4.2924255140e-02	 1.0226289479e+00	-9.2134412489e+00
 3.4285292940e-02	 1.0229550212e+00	-9.2421046232e+00
 2.5672602475e-02	 1.0232073955e+00	-9.2643098450e+00
 1.7086976187e-02	 1.0233867754e+00	-9.2800819595e+00
 8.5291893422e-03	 1.0234938738e+00	-9.2894489722e+00
 0.0000000000e+00	 1.0235294118e+00	-9.2924418653e+00
 8.6981245575e-02	 1.0257303955e+00	-8.7234659106e+00
 7.8173076903e-02	 1.0264392585e+00	-8.7822551251e+00
 6.9387088554e-02	 1.0270705980e+00	-8.8347510356e+00
 6.0624163101e-02	 1.0276250737e+00	-8.8809677026e+00
 5.1885166152e-02	 1.0281033561e+00	-8.9209216263e+00
 4.3170946261e-02	 1.0285061258e+00	-8.9546317065e+00
 3.4482334854e-02	 1.0288340731e+00	-8.9821192164e+00
 2.5820146167e-02	 1.0290878978e+00	-9.0034077914e+00
 1.7185177200e-02	 1.0292683086e+00	-9.0185234307e+00
 8.5782076718e-03	 1.0293760225e+00	-9.0274945122e+00
 0.0000000000e+00	 1.0294117647e+00	-9.0303518194e+00
 8.7478281264e-02	 1.0315917120e+00	-8.4823766427e+00
 7.8619780200e-02	 1.0323046257e+00	-8.5387877581e+00
 6.9783586202e-02	 1.0329395728e+00	-8.5891470966e+00
 6.0970586890e-02	 1.0334972170e+00	-8.6334718480e+00
 5.2181652816e-02	 1.0339782324e+00	-8.6717810473e+00
 4.3417637383e-02	 1.0343833036e+00	-8.7040955410e+00
 3.4679376767e-02	 1.0347131249e+00	-8.7304379683e+00
 2.5967689860e-02	 1.0349684001e+00	-8.7508327581e+00
 1.7283378212e-02	 1.0351498417e+00	-8.7653061401e+00
 8.6272260013e-03	 1.0352581712e+00	-8.7738861699e+00
 0.0000000000e+00	 1.0352941176e+00	-8.7766027680e+00
 8.7975316953e-02	 1.0374530286e+00	-8.2488403203e+00
 7.9066483496e-02	 1.0381699929e+00	-8.3029266943e+00
 7.0180083851e-02	 1.0388085477e+00	-8.3511995660e+00
 6.1317010679e-02	 1.0393693603e+00	-8.3936783996e+00
 5.2478139480e-02	 1.0398531088e+00	-8.4303839384e+00
 4.3664328504e-02	 1.0402604815e+00	-8.4613381776e+00
 3.4876418681e-02	 1.0405921768e+00	-8.4865643525e+00
 2.6115233552e-02	 1.0408489023e+00	-8.5060869443e+00
 1.7381579225e-02	 1.0410313749e+00	-8.5199317006e+00
 8.6762443309e-03	 1.0411403199e+00	-8.5281256713e+00
 0.0000000000e+00	 1.0411764706e+00	-8.5306972585e+00
 8.8472352642e-02	 1.0433143451e+00	-8.0223920725e+00
 7.9513186793e-02	 1.0440353601e+00	-8.0742020156e+00
 7.0576581500e-02	 1.0446775225e+00	-8.1204340803e+00
 6.1663434468e-02	 1.0452415036e+00	-8.1611091645e+00
 5.2774626143e-02	 1.0457279851e+00	-8.1962489071e+00
 4.3911019626e-02	 1.0461376593e+00	-8.2258756662e+00
 3.5073460594e-02	 1.0464712286e+00	-8.2500125159e+00
 2.6262777244e-02	 1.0467294046e+00	-8.2686832601e+00
 1.7479780237e-02	 1.0469129081e+00	-8.2819124624e+00
 8.7252626604e-03	 1.0470224686e+00	-8.2897254934e+00
 0.0000000000e+00	 1.0470588235e+00	-8.2921485914e+00
 8.8969388331e-02	 1.0491756617e+00	-7.8025769623e+00
 7.9959890090e-02	 1.0499007273e+00	-7.8521538366e+00
 7.0973079149e-02	 1.0505464974e+00	-7.8963863978e+00
 6.2009858257e-02	 1.0511136468e+00	-7.9352961509e+00
 5.3071112807e-02	 1.0516028614e+00	-7.9689048303e+00
 4.4157710747e-02	 1.0520148372e+00	-7.9972343846e+00
 3.5270502508e-02	 1.0523502804e+00	-8.0203069808e+00
 2.6410320937e-02	 1.0526099069e+00	-8.0381450270e+00
 1.7577981250e-02	 1.0527944413e+00	-8.0507712122e+00
 8.7742809900e-03	 1.0529046173e+00	-8.0582085636e+00
 0.0000000000e+00	 1.0529411765e+00	-8.0604805198e+00
 8.9466424020e-02	 1.0550369782e+00	-7.5889497115e+00
 8.0406593386e-02	 1.0557660944e+00	-7.6363320266e+00
 7.1369576798e-02	 1.0564154722e+00	-7.6786021177e+00
 6.2356282047e-02	 1.0569857901e+00	-7.7157812842e+00
 5.3367599471e-02	 1.0574777377e+00	-7.7478905690e+00
 4.4404401869e-02	 1.0578920151e+00	-7.7749507508e+00
 3.5467544421e-02	 1.0582293323e+00	-7.7969823557e+00
 2.6557864629e-02	 1.0584904091e+00	-7.8140056886e+00
 1.7676182262e-02	 1.0586759745e+00	-7.8260408832e+00
 8.8232993196e-03	 1.0587867660e+00	-7.8331079696e+00
 0.0000000000e+00	 1.0588235294e+00	-7.8352269592e+00
 1.0588235294e+00	 0.0000000000e+00	 1.4507890261e+00
 1.0587867660e+00	 8.8232993196e-03	 1.4521632011e+00
 1.0586759745e+00	 1.7676182262e-02	 1.4554717374e+00
 1.0584904091e+00	 2.6557864629e-02	 1.4607998310e+00
 1.0582293323e+00	 3.5467544421e-02	 1.4682122353e+00
 1.0578920151e+00	 4.4404401869e-02	 1.4777530393e+00
 1.0574777377e+00	 5.3367599471e-02	 1.4894455166e+00
 1.0569857901e+00	 6.2356282047e-02	 1.5032920466e+00
 1.0564154722e+00	 7.1369576798e-02	 1.5192741082e+00
 1.0557660944e+00	 8.0406593386e-02	 1.5373523471e+00
 1.0550369782e+00	 8.9466424020e-02	 1.5574667154e+00
 1.0647058824e+00	 0.0000000000e+00	 1.5629460975e+00
 1.0646689147e+00	 8.8723176491e-03	 1.5642659200e+00
 1.0645575077e+00	 1.7774383275e-02	 1.5673483031e+00
 1.0643709114e+00	 2.6705408321e-02	 1.5722813309e+00
 1.0641083841e+00	 3.5664586334e-02	 1.5791321645e+00
 1.0637691929e+00	 4.4651092990e-02	 1.5879468301e+00
 1.0633526140e+00	 5.3664086135e-02	 1.5987500805e+00
 1.0628579334e+00	 6.2702705836e-02	 1.6115453315e+00
 1.0622844471e+00	 7.1766074447e-02	 1.6263146725e+00
 1.0616314616e+00	 8.0853296683e-02	 1.6430189536e+00
 1.0608982948e+00	 8.9963459709e-02	 1.6615979476e+00
 1.0705882353e+00	 0.0000000000e+00	 1.6716844805e+00
 1.0705510634e+00	 8.9213359787e-03	 1.6729448696e+00
 1.0704390409e+00	 1.7872584288e-02	 1.6757993864e+00
 1.0702514137e+00	 2.6852952014e-02	 1.6803385787e+00
 1.0699874360e+00	 3.5861628248e-02	 1.6866315714e+00
 1.0696463708e+00	 4.4897784112e-02	 1.6947258662e+00
 1.0692274904e+00	 5.3960572798e-02	 1.7046472156e+00
 1.0687300767e+00	 6.3049129625e-02	 1.7163995758e+00
 1.0681534219e+00	 7.2162572096e-02	 1.7299651363e+00
 1.0674968288e+00	 8.1299999979e-02	 1.7453044268e+00
 1.0667596113e+00	 9.0460495398e-02	 1.7623565033e+00
 1.0764705882e+00	 0.0000000000e+00	 1.7768427919e+00
 1.0764332121e+00	 8.9703543082e-03	 1.7780371836e+00
 1.0763205741e+00	 1.7970785300e-02	 1.7806609157e+00
 1.0761319160e+00	 2.7000495706e-02	 1.7848065734e+00
 1.0758664878e+00	 3.6058670161e-02	 1.7905447999e+00
 1.0755235486e+00	 4.5144475233e-02	 1.7979241068e+00
 1.0751023667e+00	 5.4257059462e-02	 1.8069707640e+00
 1.0746022200e+00	 6.3395553414e-02	 1.8176887690e+00
 1.0740223968e+00	 7.2559069745e-02	 1.8300598961e+00
 1.0733621960e+00	 8.1746703276e-02	 1.8440438264e+00
 1.0726209279e+00	 9.0957531087e-02	 1.8595783573e+00
 1.0823529412e+00	 0.0000000000e+00	 1.8782634071e+00
 1.0823153608e+00	 9.0193726378e-03	 1.8793837594e+00
 1.0822021073e+00	 1.8068986313e-02	 1.8817725888e+00
 1.0820124182e+00	 2.7148039399e-02	 1.8855240894e+00
 1.0817455397e+00	 3.6255712075e-02	 1.8907099731e+00
 1.0814007265e+00	 4.5391166355e-02	 1.8973792939e+00
 1.0809772430e+00	 5.4553546126e-02	 1.9055583529e+00
 1.0804743632e+00	 6.3741977203e-02	 1.9152506858e+00
 1.0798913716e+00	 7.2955567393e-02	 1.9264371332e+00
 1.0792275632e+00	 8.2193406573e-02	 1.9390759938e+00
 1.0784822444e+00	 9.1454566776e-02	 1.9531032606e+00
 1.0882352941e+00	 0.0000000000e+00	 1.9757923580e+00
 1.0881975095e+00	 9.0683909673e-03	 1.9768291570e+00
 1.0880836405e+00	 1.8167187325e-02	 1.9789777716e+00
 1.0878929205e+00	 2.7295583091e-02	 1.9823335732e+00
 1.0876245915e+00	 3.6452753988e-02	 1.9869688909e+00
 1.0872779044e+00	 4.5637857476e-02	 1.9929328498e+00
 1.0868521193e+00	 5.4850032790e-02	 2.0002512921e+00
 1.0863465065e+00	 6.4088400992e-02	 2.0089267845e+00
 1.0857603464e+00	 7.3352065042e-02	 2.0189387107e+00
 1.0850929304e+00	 8.2640109869e-02	 2.0302434495e+00
 1.0843435609e+00	 9.1951602465e-02	 2.0427746380e+00
 1.0941176471e+00	 0.0000000000e+00	 2.0692792347e+00
 1.0940796582e+00	 9.1174092969e-03	 2.0702215000e+00
 1.0939651737e+00	 1.8265388338e-02	 2.0721233987e+00
 1.0937734228e+00	 2.7443126783e-02	 2.0750810455e+00
 1.0935036434e+00	 3.6649795902e-02	 2.0791669317e+00
 1.0931550822e+00	 4.5884548598e-02	 2.0844297782e+00
 1.0927269956e+00	 5.5146519453e-02	 2.0908944746e+00
 1.0922186498e+00	 6.4434824782e-02	 2.0985621074e+00
 1.0916293213e+00	 7.3748562691e-02	 2.1074100753e+00
 1.0909582976e+00	 8.3086813166e-02	 2.1173922943e+00
 1.0902048775e+00	 9.2448638154e-02	 2.1284394895e+00
 1.1000000000e+00	 0.0000000000e+00	 2.1585770910e+00
 1.0999618069e+00	 9.1664276264e-03	 2.1594123806e+00
 1.0998467069e+00	 1.8363589350e-02	 2.1610598785e+00
 1.0996539251e+00	 2.7590670476e-02	 2.1636160053e+00
 1.0993826952e+00	 3.6846837815e-02	 2.1671529560e+00
 1.0990322601e+00	 4.6131239719e-02	 2.1717185683e+00
 1.0986018720e+00	 5.5443006117e-02	 2.1773362814e+00
 1.0980907931e+00	 6.4781248571e-02	 2.1840051851e+00
 1.0974982961e+00	 7.4145060340e-02	 2.1917001609e+00
 1.0968236648e+00	 8.3533516462e-02	 2.2003721136e+00
 1.0960661940e+00	 9.2945673843e-02	 2.2099482945e+00
 1.1058823529e+00	 0.0000000000e+00	 2.2435423515e+00
 1.1058439556e+00	 9.2154459560e-03	 2.2442567670e+00
 1.1057282400e+00	 1.8461790363e-02	 2.2456410001e+00
 1.1055344273e+00	 2.7738214168e-02	 2.2477913370e+00
 1.1052617471e+00	 3.7043879729e-02	 2.2507792138e+00
 1.1049094380e+00	 4.6377930841e-02	 2.2546511022e+00
 1.1044767483e+00	 5.5739492781e-02	 2.2594284881e+00
 1.1039629364e+00	 6.5127672360e-02	 2.2651079441e+00
 1.1033672710e+00	 7.4541557989e-02	 2.2716612962e+00
 1.1026890320e+00	 8.3980219759e-02	 2.2790358848e+00
 1.1019275106e+00	 9.3442709532e-02	 2.2871549197e+00
 1.1117647059e+00	 0.0000000000e+00	 2.3240347230e+00
 1.1117261043e+00	 9.2644642855e-03	 2.3246129142e+00
 1.1116097732e+00	 1.8559991376e-02	 2.3257238445e+00
 1.1114149296e+00	 2.7885757861e-02	 2.3274632211e+00
 1.1111407989e+00	 3.7240921642e-02	 2.3299012551e+00
 1.1107866158e+00	 4.6624621962e-02	 2.3330825647e+00
 1.1103516246e+00	 5.6035979444e-02	 2.3370261753e+00
 1.1098350796e+00	 6.5474096149e-02	 2.3417256161e+00
 1.1092362458e+00	 7.4938055638e-02	 2.3471491145e+00
 1.1085543992e+00	 8.4426923055e-02	 2.3532398871e+00
 1.1077888271e+00	 9.3939745221e-02	 2.3599165286e+00
 1.1176470588e+00	 0.0000000000e+00	 2.3999171078e+00
 1.1176082530e+00	 9.3134826151e-03	 2.4003422776e+00
 1.1174913064e+00	 1.8658192388e-02	 2.4011686972e+00
 1.1172954319e+00	 2.8033301553e-02	 2.4024910472e+00
 1.1170198508e+00	 3.7437963555e-02	 2.4043778428e+00
 1.1166637937e+00	 4.6871313084e-02	 2.4068713568e+00
 1.1162265009e+00	 5.6332466108e-02	 2.4099876417e+00
 1.1157072229e+00	 6.5820519938e-02	 2.4137166519e+00
 1.1151052207e+00	 7.5334553287e-02	 2.4180224671e+00
 1.1144197664e+00	 8.4873626352e-02	 2.4228436150e+00
 1.1136501437e+00	 9.4436780910e-02	 2.4280934955e+00
 1.0550369782e+00	 8.9466424020e-02	 1.5574667154e+00
 1.0542274564e+00	 9.8548143555e-02	 1.5797513344e+00
 1.0533368738e+00	 1.0765080961e-01	 1.6043541968e+00
 1.0523645874e+00	 1.1677346270e-01	 1.6312063081e+00
 1.0513099673e+00	 1.2591512635e-01	 1.6602198843e+00
 1.0501723967e+00	 1.3507480729e-01	 1.6912888435e+00
 1.0489512727e+00	 1.4425149559e-01	 1.7242893640e+00
 1.0476460064e+00	 1.5344416485e-01	 1.7590805039e+00
 1.0462560238e+00	 1.6265177240e-01	 1.7955048827e+00
 1.0447807660e+00	 1.7187325950e-01	 1.8333894185e+00
 1.0432196898e+00	 1.8110755158e-01	 1.8725461191e+00
 1.0608982948e+00	 8.9963459709e-02	 1.6615979476e+00
 1.0600842756e+00	 9.9095633242e-02	 1.6821874922e+00
 1.0591887453e+00	 1.0824886967e-01	 1.7049354863e+00
 1.0582110573e+00	 1.1742220416e-01	 1.7297694729e+00
 1.0571505783e+00	 1.2661465483e-01	 1.7565978392e+00
 1.0560066878e+00	 1.3582522289e-01	 1.7853103413e+00
 1.0547787798e+00	 1.4505289279e-01	 1.8157786977e+00
 1.0534662620e+00	 1.5429663243e-01	 1.8478572464e+00
 1.0520685573e+00	 1.6355539335e-01	 1.8813836641e+00
 1.0505851036e+00	 1.7282811094e-01	 1.9161797443e+00
 1.0490153547e+00	 1.8211370464e-01	 1.9520522298e+00
 1.0667596113e+00	 9.0460495398e-02	 1.7623565033e+00
 1.0659410948e+00	 9.9643122928e-02	 1.7812582073e+00
 1.0650406168e+00	 1.0884692972e-01	 1.8021585109e+00
 1.0640575273e+00	 1.1807094562e-01	 1.8249837838e+00
 1.0629911892e+00	 1.2731418331e-01	 1.8496408930e+00
 1.0618409789e+00	 1.3657563848e-01	 1.8760177596e+00
 1.0606062868e+00	 1.4585428998e-01	 1.9039839857e+00
 1.0592865176e+00	 1.5514910001e-01	 1.9333915475e+00
 1.0578810907e+00	 1.6445901431e-01	 1.9640755511e+00
 1.0563894412e+00	 1.7378296238e-01	 1.9958550495e+00
 1.0548110197e+00	 1.8311985770e-01	 2.0285339140e+00
 1.0726209279e+00	 9.0957531087e-02	 1.8595783573e+00
 1.0717979140e+00	 1.0019061261e-01	 1.8768005790e+00
 1.0708924883e+00	 1.0944498977e-01	 1.8958616296e+00
 1.0699039972e+00	 1.1871968708e-01	 1.9166889433e+00
 1.0688318001e+00	 1.2801371179e-01	 1.9391901229e+00
 1.0676752700e+00	 1.3732605408e-01	 1.9632535282e+00
 1.0664337939e+00	 1.4665568718e-01	 1.9887489350e+00
 1.0651067732e+00	 1.5600156760e-01	 2.0155282619e+00
 1.0636936242e+00	 1.6536263527e-01	 2.0434263628e+00
 1.0621937788e+00	 1.7473781382e-01	 2.0722618791e+00
 1.0606066846e+00	 1.8412601077e-01	 2.1018381509e+00
 1.0784822444e+00	 9.1454566776e-02	 1.9531032606e+00
 1.0776547332e+00	 1.0073810230e-01	 1.9686554751e+00
 1.0767443598e+00	 1.1004304983e-01	 1.9858869628e+00
 1.0757504671e+00	 1.1936842854e-01	 2.0047284077e+00
 1.0746724110e+00	 1.2871324027e-01	 2.0250903533e+00
 1.0735095611e+00	 1.3807646968e-01	 2.0468638194e+00
 1.0722613010e+00	 1.4745708438e-01	 2.0699209926e+00
 1.0709270288e+00	 1.5685403518e-01	 2.0941159860e+00
 1.0695061577e+00	 1.6626625623e-01	 2.1192856649e+00
 1.0679981164e+00	 1.7569266526e-01	 2.1452505357e+00
 1.0664023496e+00	 1.8513216383e-01	 2.1718156928e+00
 1.0843435609e+00	 9.1951602465e-02	 2.0427746380e+00
 1.0835115524e+00	 1.0128559199e-01	 2.0566674308e+00
 1.0825962314e+00	 1.1064110988e-01	 2.0720802900e+00
 1.0815969371e+00	 1.2001717000e-01	 2.0889492854e+00
 1.0805130220e+00	 1.2941276875e-01	 2.1071900542e+00
 1.0793438522e+00	 1.3882688527e-01	 2.1266984464e+00
 1.0780888080e+00	 1.4825848158e-01	 2.1473512446e+00
 1.0767472843e+00	 1.5770650276e-01	 2.1690069552e+00
 1.0753186911e+00	 1.6716987719e-01	 2.1915066675e+00
 1.0738024540e+00	 1.7664751671e-01	 2.2146749757e+00
 1.0721980145e+00	 1.8613831690e-01	 2.2383209610e+00
 1.0902048775e+00	 9.2448638154e-02	 2.1284394895e+00
 1.0893683716e+00	 1.0183308167e-01	 2.1406845493e+00
 1.0884481029e+00	 1.1123916993e-01	 2.1542909518e+00
 1.0874434070e+00	 1.2066591145e-01	 2.1692022384e+00
 1.0863536329e+00	 1.3011229723e-01	 2.1853412430e+00
 1.0851781433e+00	 1.3957730087e-01	 2.2026107647e+00
 1.0839163151e+00	 1.4905987878e-01	 2.2208943162e+00
 1.0825675399e+00	 1.5855897034e-01	 2.2400569454e+00
 1.0811312246e+00	 1.6807349814e-01	 2.2599461252e+00
 1.0796067916e+00	 1.7760236815e-01	 2.2803927086e+00
 1.0779936795e+00	 1.8714446996e-01	 2.3012119443e+00
 1.0960661940e+00	 9.2945673843e-02	 2.2099482945e+00
 1.0952251908e+00	 1.0238057136e-01	 2.2205584066e+00
 1.0942999744e+00	 1.1183722999e-01	 2.2323717543e+00
 1.0932898769e+00	 1.2131465291e-01	 2.2453413869e+00
 1.0921942438e+00	 1.3081182571e-01	 2.2593993886e+00
 1.0910124344e+00	 1.4032771646e-01	 2.2744575766e+00
 1.0897438222e+00	 1.4986127597e-01	 2.2904082775e+00
 1.0883877955e+00	 1.5941143793e-01	 2.3071251770e+00
 1.0869437581e+00	 1.6897711910e-01	 2.3244642408e+00
 1.0854111292e+00	 1.7855721959e-01	 2.3422647004e+00
 1.0837893444e+00	 1.8815062303e-01	 2.3603501013e+00
 1.1019275106e+00	 9.3442709532e-02	 2.2871549197e+00
 1.1010820100e+00	 1.0292806105e-01	 2.2961439592e+00
 1.1001518459e+00	 1.1243529004e-01	 2.3061788766e+00
 1.0991363469e+00	 1.2196339437e-01	 2.3172242172e+00
 1.0980348548e+00	 1.3151135419e-01	 2.3292233198e+00
 1.0968467255e+00	 1.4107813206e-01	 2.3420990393e+00
 1.0955713292e+00	 1.5066267317e-01	 2.3557545497e+00
 1.0942080511e+00	 1.6026390551e-01	 2.3700742215e+00
 1.0927562915e+00	 1.6988074006e-01	 2.3849245716e+00
 1.0912154668e+00	 1.7951207103e-01	 2.4001552793e+00
 1.0895850094e+00	 1.8915677609e-01	 2.4156002646e+00
 1.1077888271e+00	 9.3939745221e-02	 2.3599165286e+00
 1.1069388292e+00	 1.0347555073e-01	 2.3672994542e+00
 1.1060037174e+00	 1.1303335009e-01	 2.3755717816e+00
 1.1049828168e+00	 1.2261213583e-01	 2.3847114922e+00
 1.1038754657e+00	 1.3221088267e-01	 2.3946751354e+00
 1.1026810166e+00	 1.4182854766e-01	 2.4053985747e+00
 1.1013988363e+00	 1.5146407037e-01	 2.4167978160e+00
 1.1000283067e+00	 1.6111637309e-01	 2.4287699120e+00
 1.0985688250e+00	 1.7078436102e-01	 2.4411939393e+00
 1.0970198044e+00	 1.8046692247e-01	 2.4539320440e+00
 1.0953806743e+00	 1.9016292915e-01	 2.4668305495e+00
 1.1136501437e+00	 9.4436780910e-02	 2.4280934955e+00
 1.1127956484e+00	 1.0402304042e-01	 2.4338863430e+00
 1.1118555890e+00	 1.1363141015e-01	 2.4404131291e+00
 1.1108292867e+00	 1.2326087729e-01	 2.4476671647e+00
 1.1097160766e+00	 1.3291041115e-01	 2.4556201178e+00
 1.1085153077e+00	 1.4257896325e-01	 2.4642227832e+00
 1.1072263434e+00	 1.5226546757e-01	 2.4734059347e+00
 1.1058485623e+00	 1.6196884067e-01	 2.4830812553e+00
 1.1043813585e+00	 1.7168798197e-01	 2.4931423416e+00
 1.1028241419e+00	 1.8142177391e-01	 2.5034657760e+00
 1.1011763392e+00	 1.9116908222e-01	 2.5139122640e+00
 1.0432196898e+00	 1.8110755158e-01	 1.8725461191e+00
 1.0415722679e+00	 1.9035355845e-01	 1.9132007005e+00
 1.0398379896e+00	 1.9961017457e-01	 1.9556479852e+00
 1.0380163613e+00	 2.0887627933e-01	 1.9997841300e+00
 1.0361069068e+00	 2.1815073729e-01	 2.0454942019e+00
 1.0341091676e+00	 2.2743239851e-01	 2.0926530529e+00
 1.0320227038e+00	 2.3672009884e-01	 2.1411262189e+00
 1.0298470942e+00	 2.4601266025e-01	 2.1907708369e+00
 1.0275819367e+00	 2.5530889115e-01	 2.2414365764e+00
 1.0252268488e+00	 2.6460758679e-01	 2.2929665779e+00
 1.0227814682e+00	 2.7390752957e-01	 2.3451983944e+00
 1.0490153547e+00	 1.8211370464e-01	 1.9520522298e+00
 1.0473587805e+00	 1.9141107821e-01	 1.9892185681e+00
 1.0456148673e+00	 2.0071911999e-01	 2.0279772388e+00
 1.0437831189e+00	 2.1003670311e-01	 2.0682369250e+00
 1.0418630563e+00	 2.1936268584e-01	 2.1098952134e+00
 1.0398542185e+00	 2.2869591184e-01	 2.1528394887e+00
 1.0377561633e+00	 2.3803521050e-01	 2.1969478519e+00
 1.0355684669e+00	 2.4737939725e-01	 2.2420900562e+00
 1.0332907252e+00	 2.5672727388e-01	 2.2881284556e+00
 1.0309225535e+00	 2.6607762894e-01	 2.3349189607e+00
 1.0284635875e+00	 2.7542923807e-01	 2.3823119954e+00
 1.0548110197e+00	 1.8311985770e-01	 2.0285339140e+00
 1.0531452931e+00	 1.9246859798e-01	 2.0623214275e+00
 1.0513917451e+00	 2.0182806540e-01	 2.0975170115e+00
 1.0495498764e+00	 2.1119712688e-01	 2.1340400429e+00
 1.0476192057e+00	 2.2057463438e-01	 2.1717987917e+00
 1.0455992695e+00	 2.2995942516e-01	 2.2106913373e+00
 1.0434896228e+00	 2.3935032216e-01	 2.2506065098e+00
 1.0412898397e+00	 2.4874613425e-01	 2.2914248473e+00
 1.0389995137e+00	 2.5814565661e-01	 2.3330195658e+00
 1.0366182582e+00	 2.6754767109e-01	 2.3752575348e+00
 1.0341457067e+00	 2.7695094656e-01	 2.4180002526e+00
 1.0606066846e+00	 1.8412601077e-01	 2.1018381509e+00
 1.0589318057e+00	 1.9352611775e-01	 2.1323566208e+00
 1.0571686228e+00	 2.0293701081e-01	 2.1641152061e+00
 1.0553166340e+00	 2.1235755065e-01	 2.1970421621e+00
 1.0533753552e+00	 2.2178658292e-01	 2.2310546215e+00
 1.0513443204e+00	 2.3122293849e-01	 2.2660595377e+00
 1.0492230822e+00	 2.4066543382e-01	 2.3019546506e+00
 1.0470112124e+00	 2.5011287125e-01	 2.3386294700e+00
 1.0447083023e+00	 2.5956403934e-01	 2.3759662689e+00
 1.0423139629e+00	 2.6901771324e-01	 2.4138410830e+00
 1.0398278260e+00	 2.7847265506e-01	 2.4521247077e+00
 1.0664023496e+00	 1.8513216383e-01	 2.1718156928e+00
 1.0647183183e+00	 1.9458363752e-01	 2.1991752800e+00
 1.0629455005e+00	 2.0404595623e-01	 2.2276235271e+00
 1.0610833916e+00	 2.1351797443e-01	 2.2570957672e+00
 1.0591315047e+00	 2.2299853146e-01	 2.2875161918e+00
 1.0570893713e+00	 2.3248645181e-01	 2.3187988231e+00
 1.0549565417e+00	 2.4198054548e-01	 2.3508485086e+00
 1.0527325852e+00	 2.5147960825e-01	 2.3835619331e+00
 1.0504170908e+00	 2.6098242207e-01	 2.4168286395e+00
 1.0480096676e+00	 2.7048775539e-01	 2.4505320542e+00
 1.0455099453e+00	 2.7999436356e-01	 2.4845505103e+00
 1.0721980145e+00	 1.8613831690e-01	 2.2383209610e+00
 1.0705048309e+00	 1.9564115729e-01	 2.2626322218e+00
 1.0687223782e+00	 2.0515490164e-01	 2.2878973733e+00
 1.0668501491e+00	 2.1467839820e-01	 2.3140570413e+00
 1.0648876542e+00	 2.2421048000e-01	 2.3410406870e+00
 1.0628344223e+00	 2.3374996514e-01	 2.3687676118e+00
 1.0606900012e+00	 2.4329565714e-01	 2.3971479847e+00
 1.0584539579e+00	 2.5284634525e-01	 2.4260838850e+00
 1.0561258793e+00	 2.6240080480e-01	 2.4554703544e+00
 1.0537053724e+00	 2.7195779754e-01	 2.4851964525e+00
 1.0511920645e+00	 2.8151607206e-01	 2.5151463080e+00
 1.0779936795e+00	 1.8714446996e-01	 2.3012119443e+00
 1.0762913435e+00	 1.9669867706e-01	 2.3225858450e+00
 1.0744992559e+00	 2.0626384706e-01	 2.3447957352e+00
 1.0726169067e+00	 2.1583882198e-01	 2.3677857620e+00
 1.0706438037e+00	 2.2542242854e-01	 2.3914888821e+00
 1.0685794732e+00	 2.3501347846e-01	 2.4158279018e+00
 1.0664234606e+00	 2.4461076880e-01	 2.4407165401e+00
 1.0641753307e+00	 2.5421308225e-01	 2.4660605061e+00
 1.0618346679e+00	 2.6381918752e-01	 2.4917585857e+00
 1.0594010771e+00	 2.7342783968e-01	 2.5177037300e+00
 1.0568741838e+00	 2.8303778055e-01	 2.5437841383e+00
 1.0837893444e+00	 1.8815062303e-01	 2.3603501013e+00
 1.0820778561e+00	 1.9775619683e-01	 2.3788980314e+00
 1.0802761337e+00	 2.0737279247e-01	 2.3981810941e+00
 1.0783836643e+00	 2.1699924575e-01	 2.4181452002e+00
 1.0763999531e+00	 2.2663437708e-01	 2.4387250412e+00
 1.0743245241e+00	 2.3627699179e-01	 2.4598451680e+00
 1.0721569201e+00	 2.4592588046e-01	 2.4814210930e+00
 1.0698967034e+00	 2.5557981926e-01	 2.5033604057e+00
 1.0675434564e+00	 2.6523757025e-01	 2.5255638966e+00
 1.0650967818e+00	 2.7489788183e-01	 2.5479266826e+00
 1.0625563031e+00	 2.8455948905e-01	 2.5703393249e+00
 1.0895850094e+00	 1.8915677609e-01	 2.4156002646e+00
 1.0878643687e+00	 1.9881371660e-01	 2.4314340501e+00
 1.0860530114e+00	 2.0848173789e-01	 2.4479193259e+00
 1.0841504218e+00	 2.1815966952e-01	 2.4650020223e+00
 1.0821561026e+00	 2.2784632562e-01	 2.4826168182e+00
 1.0800695751e+00	 2.3754050511e-01	 2.5006882628e+00
 1.0778903796e+00	 2.4724099212e-01	 2.5191319189e+00
 1.0756180762e+00	 2.5694655626e-01	 2.5378555212e+00
 1.0732522449e+00	 2.6665595298e-01	 2.5567601405e+00
 1.0707924865e+00	 2.7636792398e-01	 2.5757413489e+00
 1.0682384223e+00	 2.8608119755e-01	 2.5946903765e+00
 1.0953806743e+00	 1.9016292915e-01	 2.4668305495e+00
 1.0936508813e+00	 1.9987123637e-01	 2.4800624636e+00
 1.0918298891e+00	 2.0959068330e-01	 2.4938796064e+00
 1.0899171794e+00	 2.1932009330e-01	 2.5082261952e+00
 1.0879122521e+00	 2.2905827416e-01	 2.5230351616e+00
 1.0858146260e+00	 2.3880401844e-01	 2.5382293194e+00
 1.0836238390e+00	 2.4855610378e-01	 2.5537225531e+00
 1.0813394489e+00	 2.5831329326e-01	 2.5694210207e+00
 1.0789610335e+00	 2.6807433571e-01	 2.5852243632e+00
 1.0764881912e+00	 2.7783796613e-01	 2.6010269121e+00
 1.0739205416e+00	 2.8760290605e-01	 2.6167188885e+00
 1.1011763392e+00	 1.9116908222e-01	 2.5139122640e+00
 1.0994373939e+00	 2.0092875614e-01	 2.5246550383e+00
 1.0976067668e+00	 2.1069962871e-01	 2.5359343204e+00
 1.0956839369e+00	 2.2048051707e-01	 2.5476908940e+00
 1.0936684016e+00	 2.3027022270e-01	 2.5598542211e+00
 1.0915596769e+00	 2.4006753177e-01	 2.5723436588e+00
 1.0893572985e+00	 2.4987121544e-01	 2.5850696966e+00
 1.0870608217e+00	 2.5968003026e-01	 2.5979352081e+00
 1.0846698220e+00	 2.6949271844e-01	 2.6108367076e+00
 1.0821838959e+00	 2.7930800828e-01	 2.6236656043e+00
 1.0796026609e+00	 2.8912461454e-01	 2.6363094472e+00
 1.0227814682e+00	 2.7390752957e-01	 2.3451983944e+00
 1.0202454530e+00	 2.8320748944e-01	 2.3985123268e+00
 1.0176184821e+00	 2.9250622431e-01	 2.4531929886e+00
 1.0149002558e+00	 3.0180248045e-01	 2.5089269580e+00
 1.0120904959e+00	 3.1109499287e-01	 2.5653965573e+00
 1.0091889462e+00	 3.2038248584e-01	 2.6222808770e+00
 1.0061953732e+00	 3.2966367325e-01	 2.6792567747e+00
 1.0031095657e+00	 3.3893725913e-01	 2.7359998421e+00
 9.9993133601e-01	 3.4820193811e-01	 2.7921853362e+00
 9.9666051967e-01	 3.5745639588e-01	 2.8474890688e+00
 9.9329697607e-01	 3.6669930974e-01	 2.9015882490e+00
 1.0284635875e+00	 2.7542923807e-01	 2.3823119954e+00
 1.0259134833e+00	 2.8478086438e-01	 2.4306927031e+00
 1.0232719181e+00	 2.9413125889e-01	 2.4803483109e+00
 1.0205385906e+00	 3.0347916089e-01	 2.5309751054e+00
 1.0177132209e+00	 3.1282329839e-01	 2.5822652590e+00
 1.0147955515e+00	 3.2216238854e-01	 2.6339078658e+00
 1.0117853475e+00	 3.3149513810e-01	 2.6855899509e+00
 1.0086823966e+00	 3.4082024390e-01	 2.7369974451e+00
 1.0054865101e+00	 3.5013639332e-01	 2.7878161210e+00
 1.0021975226e+00	 3.5944226475e-01	 2.8377324842e+00
 9.9881529260e-01	 3.6873652813e-01	 2.8864346158e+00
 1.0341457067e+00	 2.7695094656e-01	 2.4180002526e+00
 1.0315815136e+00	 2.8635423932e-01	 2.4616363213e+00
 1.0289253542e+00	 2.9575629347e-01	 2.5064550286e+00
 1.0261769253e+00	 3.0515584134e-01	 2.5521618616e+00
 1.0233359458e+00	 3.1455160390e-01	 2.5984583740e+00
 1.0204021567e+00	 3.2394229124e-01	 2.6450432367e+00
 1.0173753218e+00	 3.3332660295e-01	 2.6916132576e+00
 1.0142552275e+00	 3.4270322868e-01	 2.7378643661e+00
 1.0110416842e+00	 3.5207084853e-01	 2.7834925553e+00
 1.0077345254e+00	 3.6142813362e-01	 2.8281947764e+00
 1.0043336091e+00	 3.7077374652e-01	 2.8716697819e+00
 1.0398278260e+00	 2.7847265506e-01	 2.4521247077e+00
 1.0372495439e+00	 2.8792761426e-01	 2.4912078577e+00
 1.0345787902e+00	 2.9738132805e-01	 2.5313813534e+00
 1.0318152601e+00	 3.0683252179e-01	 2.5723593752e+00
 1.0289586708e+00	 3.1627990942e-01	 2.6138523902e+00
 1.0260087620e+00	 3.2572219393e-01	 2.6555682189e+00
 1.0229652960e+00	 3.3515806780e-01	 2.6972130687e+00
 1.0198280585e+00	 3.4458621345e-01	 2.7384925282e+00
 1.0165968583e+00	 3.5400530374e-01	 2.7791125175e+00
 1.0132715283e+00	 3.6341400248e-01	 2.8187801874e+00
 1.0098519257e+00	 3.7281096490e-01	 2.8572047636e+00
 1.0455099453e+00	 2.7999436356e-01	 2.4845505103e+00
 1.0429175742e+00	 2.8950098921e-01	 2.5192755266e+00
 1.0402322262e+00	 2.9900636263e-01	 2.5549989535e+00
 1.0374535948e+00	 3.0850920223e-01	 2.5914431564e+00
 1.0345813958e+00	 3.1800821493e-01	 2.6283270483e+00
 1.0316153673e+00	 3.2750209663e-01	 2.6653671733e+00
 1.0285552703e+00	 3.3698953265e-01	 2.7022787553e+00
 1.0254008894e+00	 3.4646919822e-01	 2.7387767041e+00
 1.0221520324e+00	 3.5593975896e-01	 2.7745765750e+00
 1.0188085312e+00	 3.6539987135e-01	 2.8093954737e+00
 1.0153702422e+00	 3.7484818329e-01	 2.8429529031e+00
 1.0511920645e+00	 2.8151607206e-01	 2.5151463080e+00
 1.0485856045e+00	 2.9107436415e-01	 2.5457109709e+00
 1.0458856622e+00	 3.0063139721e-01	 2.5771828431e+00
 1.0430919296e+00	 3.1018588268e-01	 2.6092919672e+00
 1.0402041208e+00	 3.1973652045e-01	 2.6417652340e+00
 1.0372219725e+00	 3.2928199933e-01	 2.6743274857e+00
 1.0341452446e+00	 3.3882099751e-01	 2.7067025805e+00
 1.0309737203e+00	 3.4835218300e-01	 2.7386144125e+00
 1.0277072065e+00	 3.5787421417e-01	 2.7697878817e+00
 1.0243455341e+00	 3.6738574021e-01	 2.7999498060e+00
 1.0208885587e+00	 3.7688540168e-01	 2.8288297717e+00
 1.0568741838e+00	 2.8303778055e-01	 2.5437841383e+00
 1.0542536348e+00	 2.9264773909e-01	 2.5703891544e+00
 1.0515390982e+00	 3.0225643179e-01	 2.5978112763e+00
 1.0487302643e+00	 3.1186256313e-01	 2.6257877153e+00
 1.0458268457e+00	 3.2146482597e-01	 2.6540528724e+00
 1.0428285778e+00	 3.3106190203e-01	 2.6823394623e+00
 1.0397352189e+00	 3.4065246236e-01	 2.7103795959e+00
 1.0365465512e+00	 3.5023516777e-01	 2.7379058160e+00
 1.0332623805e+00	 3.5980866938e-01	 2.7646520780e+00
 1.0298825370e+00	 3.6937160908e-01	 2.7903546712e+00
 1.0264068753e+00	 3.7892262007e-01	 2.8147530735e+00
 1.0625563031e+00	 2.8455948905e-01	 2.5703393249e+00
 1.0599216651e+00	 2.9422111403e-01	 2.5931882580e+00
 1.0571925342e+00	 3.0388146637e-01	 2.6167656431e+00
 1.0543685991e+00	 3.1353924357e-01	 2.6408153512e+00
 1.0514495707e+00	 3.2319313148e-01	 2.6650788257e+00
 1.0484351830e+00	 3.3284180473e-01	 2.6892962283e+00
 1.0453251932e+00	 3.4248392721e-01	 2.7132075422e+00
 1.0421193821e+00	 3.5211815254e-01	 2.7365536231e+00
 1.0388175546e+00	 3.6174312459e-01	 2.7590771946e+00
 1.0354195399e+00	 3.7135747795e-01	 2.7805237778e+00
 1.0319251918e+00	 3.8095983845e-01	 2.8006425529e+00
 1.0682384223e+00	 2.8608119755e-01	 2.5946903765e+00
 1.0655896954e+00	 2.9579448897e-01	 2.6139895787e+00
 1.0628459702e+00	 3.0550650095e-01	 2.6339303687e+00
 1.0600069338e+00	 3.1521592402e-01	 2.6542627680e+00
 1.0570722957e+00	 3.2492143700e-01	 2.6747347939e+00
 1.0540417883e+00	 3.3462170743e-01	 2.6950936301e+00
 1.0509151675e+00	 3.4431539206e-01	 2.7150867511e+00
 1.0476922131e+00	 3.5400113732e-01	 2.7344629919e+00
 1.0443727287e+00	 3.6367757980e-01	 2.7529735573e+00
 1.0409565428e+00	 3.7334334681e-01	 2.7703729630e+00
 1.0374435083e+00	 3.8299705684e-01	 2.7864199040e+00
 1.0739205416e+00	 2.8760290605e-01	 2.6167188885e+00
 1.0712577256e+00	 2.9736786391e-01	 2.6326774310e+00
 1.0684994062e+00	 3.0713153553e-01	 2.6491928157e+00
 1.0656452686e+00	 3.1689260447e-01	 2.6660207039e+00
 1.0626950207e+00	 3.2664974251e-01	 2.6829152180e+00
 1.0596483935e+00	 3.3640161013e-01	 2.6996301384e+00
 1.0565051418e+00	 3.4614685691e-01	 2.7159200511e+00
 1.0532650440e+00	 3.5588412209e-01	 2.7315414367e+00
 1.0499279028e+00	 3.6561203501e-01	 2.7462536958e+00
 1.0464935457e+00	 3.7532921568e-01	 2.7598201029e+00
 1.0429618249e+00	 3.8503427523e-01	 2.7720086823e+00
 1.0796026609e+00	 2.8912461454e-01	 2.6363094472e+00
 1.0769257559e+00	 2.9894123885e-01	 2.6491390520e+00
 1.0741528422e+00	 3.0875657011e-01	 2.6624431888e+00
 1.0712836033e+00	 3.1856928491e-01	 2.6759826474e+00
 1.0683177456e+00	 3.2837804803e-01	 2.6895171859e+00
 1.0652549988e+00	 3.3818151283e-01	 2.7028067561e+00
 1.0620951161e+00	 3.4797832176e-01	 2.7156126752e+00
 1.0588378749e+00	 3.5776710686e-01	 2.7276987368e+00
 1.0554830769e+00	 3.6754649023e-01	 2.7388322534e+00
 1.0520305485e+00	 3.7731508454e-01	 2.7487850238e+00
 1.0484801414e+00	 3.8707149362e-01	 2.7573342184e+00
 9.9329697607e-01	 3.6669930974e-01	 2.9015882490e+00
 9.8984058865e-01	 3.7592934907e-01	 2.9549886029e+00
 9.8629126527e-01	 3.8514517586e-01	 3.0082749046e+00
 9.8264893845e-01	 3.9434544526e-01	 3.0612481468e+00
 9.7891356568e-01	 4.0352880613e-01	 3.1137145730e+00
 9.7508512964e-01	 4.1269390156e-01	 3.1654860432e+00
 9.7116363852e-01	 4.2183936950e-01	 3.2163803282e+00
 9.6714912617e-01	 4.3096384326e-01	 3.2662213279e+00
 9.6304165236e-01	 4.4006595216e-01	 3.3148392147e+00
 9.5884130301e-01	 4.4914432210e-01	 3.3620704991e+00
 9.5454819031e-01	 4.5819757618e-01	 3.4077580188e+00
 9.9881529260e-01	 3.6873652813e-01	 2.8864346158e+00
 9.9533970303e-01	 3.7801784545e-01	 2.9344451820e+00
 9.9177066119e-01	 3.8728487128e-01	 2.9823591054e+00
 9.8810809922e-01	 3.9653625329e-01	 3.0299782760e+00
 9.8435197437e-01	 4.0577063283e-01	 3.0771099413e+00
 9.8050226925e-01	 4.1498664546e-01	 3.1235670684e+00
 9.7655899207e-01	 4.2418292155e-01	 3.1691686291e+00
 9.7252217687e-01	 4.3335808683e-01	 3.2137398078e+00
 9.6839188377e-01	 4.4251076300e-01	 3.2571121294e+00
 9.6416819914e-01	 4.5163956834e-01	 3.2991235074e+00
 9.5985123581e-01	 4.6074311827e-01	 3.3396182118e+00
 1.0043336091e+00	 3.7077374652e-01	 2.8716697819e+00
 1.0008388174e+00	 3.8010634183e-01	 2.9144568152e+00
 9.9725005711e-01	 3.8942456670e-01	 2.9571608331e+00
 9.9356725999e-01	 3.9872706132e-01	 2.9995847874e+00
 9.8979038307e-01	 4.0801245953e-01	 3.0415370336e+00
 9.8591940886e-01	 4.1727938936e-01	 3.0828316866e+00
 9.8195434561e-01	 4.2652647360e-01	 3.1232888964e+00
 9.7789522757e-01	 4.3575233040e-01	 3.1627350431e+00
 9.7374211517e-01	 4.4495557385e-01	 3.2010028489e+00
 9.6949509527e-01	 4.5413481457e-01	 3.2379314063e+00
 9.6515428131e-01	 4.6328866036e-01	 3.2733661231e+00
 1.0098519257e+00	 3.7281096490e-01	 2.8572047636e+00
 1.0063379318e+00	 3.8219483822e-01	 2.8949408293e+00
 1.0027294530e+00	 3.9156426212e-01	 2.9326023823e+00
 9.9902642076e-01	 4.0091786935e-01	 2.9699935961e+00
 9.9522879177e-01	 4.1025428623e-01	 3.0069240344e+00
 9.9133654847e-01	 4.1957213325e-01	 3.0432089992e+00
 9.8734969916e-01	 4.2887002565e-01	 3.0786697953e+00
 9.8326827827e-01	 4.3814657398e-01	 3.1131339115e+00
 9.7909234657e-01	 4.4740038469e-01	 3.1464351144e+00
 9.7482199139e-01	 4.5663006081e-01	 3.1784134559e+00
 9.7045732681e-01	 4.6583420245e-01	 3.2089151933e+00
 1.0153702422e+00	 3.7484818329e-01	 2.8429529031e+00
 1.0118370462e+00	 3.8428333460e-01	 2.8758166949e+00
 1.0082088489e+00	 3.9370395754e-01	 2.9086080340e+00
 1.0044855815e+00	 4.0310867738e-01	 2.9411324710e+00
 1.0006672005e+00	 4.1249611293e-01	 2.9732008749e+00
 9.9675368808e-01	 4.2186487715e-01	 3.0046297721e+00
 9.9274505271e-01	 4.3121357771e-01	 3.0352415994e+00
 9.8864132897e-01	 4.4054081755e-01	 3.0648648682e+00
 9.8444257797e-01	 4.4984519554e-01	 3.0933342398e+00
 9.8014888752e-01	 4.5912530704e-01	 3.1204905103e+00
 9.7576037232e-01	 4.6837974454e-01	 3.1461805043e+00
 1.0208885587e+00	 3.7688540168e-01	 2.8288297717e+00
 1.0173361606e+00	 3.8637183099e-01	 2.8570059312e+00
 1.0136882449e+00	 3.9584365296e-01	 2.8851039616e+00
 1.0099447423e+00	 4.0529948540e-01	 2.9129309411e+00
 1.0061056092e+00	 4.1473793963e-01	 2.9402991385e+00
 1.0021708277e+00	 4.2415762105e-01	 2.9670263409e+00
 9.9814040625e-01	 4.3355712976e-01	 2.9929360934e+00
 9.9401437967e-01	 4.4293506112e-01	 3.0178578461e+00
 9.8979280937e-01	 4.5229000639e-01	 3.0416270086e+00
 9.8547578365e-01	 4.6162055327e-01	 3.0640849105e+00
 9.8106341782e-01	 4.7092528663e-01	 3.0850786678e+00
 1.0264068753e+00	 3.7892262007e-01	 2.8147530735e+00
 1.0228352749e+00	 3.8846032737e-01	 2.8384320121e+00
 1.0191676408e+00	 3.9798334838e-01	 2.8620181380e+00
 1.0154039031e+00	 4.0749029343e-01	 2.8853202039e+00
 1.0115440179e+00	 4.1697976633e-01	 2.9081519692e+00
 1.0075879673e+00	 4.2645036495e-01	 2.9303325171e+00
 1.0035357598e+00	 4.3590068181e-01	 2.9516864781e+00
 9.9938743037e-01	 4.4532930470e-01	 2.9720441587e+00
 9.9514304078e-01	 4.5473481723e-01	 2.9912415734e+00
 9.9080267978e-01	 4.6411579951e-01	 3.0091203797e+00
 9.8636646332e-01	 4.7347082872e-01	 3.0255277153e+00
 1.0319251918e+00	 3.8095983845e-01	 2.8006425529e+00
 1.0283343893e+00	 3.9054882375e-01	 2.8200202755e+00
 1.0246470367e+00	 4.0012304381e-01	 2.8392802466e+00
 1.0208630638e+00	 4.0968110146e-01	 2.8582330355e+00
 1.0169824266e+00	 4.1922159303e-01	 2.8766939817e+00
 1.0130051069e+00	 4.2874310884e-01	 2.8944834982e+00
 1.0089311133e+00	 4.3824423386e-01	 2.9114272784e+00
 1.0047604811e+00	 4.4772354827e-01	 2.9273564048e+00
 1.0004932722e+00	 4.5717962808e-01	 2.9421073574e+00
 9.9612957590e-01	 4.6661104574e-01	 2.9555219207e+00
 9.9166950882e-01	 4.7601637081e-01	 2.9674469909e+00
 1.0374435083e+00	 3.8299705684e-01	 2.7864199040e+00
 1.0338335037e+00	 3.9263732014e-01	 2.8016978344e+00
 1.0301264326e+00	 4.0226273923e-01	 2.8168215926e+00
 1.0263222246e+00	 4.1187190949e-01	 2.8316037037e+00
 1.0224208353e+00	 4.2146341973e-01	 2.8458611736e+00
 1.0184222465e+00	 4.3103585274e-01	 2.8594157781e+00
 1.0143264669e+00	 4.4058778592e-01	 2.8720942519e+00
 1.0101335318e+00	 4.5011779185e-01	 2.8837283754e+00
 1.0058435036e+00	 4.5962443892e-01	 2.8941549579e+00
 1.0014564720e+00	 4.6910629197e-01	 2.9032157158e+00
 9.9697255432e-01	 4.7856191290e-01	 2.9107570470e+00
 1.0429618249e+00	 3.8503427523e-01	 2.7720086823e+00
 1.0393326181e+00	 3.9472581652e-01	 2.7833934902e+00
 1.0356058285e+00	 4.0440243465e-01	 2.7945750184e+00
 1.0317813854e+00	 4.1406271752e-01	 2.8053678825e+00
 1.0278592440e+00	 4.2370524643e-01	 2.8155908396e+00
 1.0238393861e+00	 4.3332859664e-01	 2.8250670606e+00
 1.0197218204e+00	 4.4293133797e-01	 2.8336243008e+00
 1.0155065825e+00	 4.5251203542e-01	 2.8410949627e+00
 1.0111937350e+00	 4.6206924977e-01	 2.8473160526e+00
 1.0067833682e+00	 4.7160153821e-01	 2.8521290287e+00
 1.0022755998e+00	 4.8110745499e-01	 2.8553795409e+00
 1.0484801414e+00	 3.8707149362e-01	 2.7573342184e+00
 1.0448317325e+00	 3.9681431290e-01	 2.7650376480e+00
 1.0410852245e+00	 4.0654213007e-01	 2.7724748188e+00
 1.0372405461e+00	 4.1625352555e-01	 2.7794625687e+00
 1.0332976527e+00	 4.2594707313e-01	 2.7858214879e+00
 1.0292565257e+00	 4.3562134054e-01	 2.7913761749e+00
 1.0251171740e+00	 4.4527489002e-01	 2.7959553855e+00
 1.0208796332e+00	 4.5490627899e-01	 2.7993920711e+00
 1.0165439664e+00	 4.6451406061e-01	 2.8015233070e+00
 1.0121102643e+00	 4.7409678444e-01	 2.8021901086e+00
 1.0075786453e+00	 4.8365299708e-01	 2.8012371353e+00
 9.5454819031e-01	 4.5819757618e-01	 3.4077580188e+00
 9.5016245294e-01	 4.6722433527e-01	 3.4518677768e+00
 9.4568425620e-01	 4.7622321868e-01	 3.4942478615e+00
 9.4111379217e-01	 4.8519284478e-01	 3.5345717844e+00
 9.3645127980e-01	 4.9413183160e-01	 3.5725167096e+00
 9.3169696503e-01	 5.0303879751e-01	 3.6077632232e+00
 9.2685112086e-01	 5.1191236183e-01	 3.6399950391e+00
 9.2191404744e-01	 5.2075114552e-01	 3.6688986464e+00
 9.1688607209e-01	 5.2955377181e-01	 3.6941629027e+00
 9.1176754934e-01	 5.3831886684e-01	 3.7154785756e+00
 9.0655886094e-01	 5.4704506038e-01	 3.7325378413e+00
 9.5985123581e-01	 4.6074311827e-01	 3.3396182118e+00
 9.5544113323e-01	 4.6982002602e-01	 3.3785593753e+00
 9.5093805762e-01	 4.7886890323e-01	 3.4158013606e+00
 9.4634220212e-01	 4.8788836059e-01	 3.4510331346e+00
 9.4165378691e-01	 4.9687700844e-01	 3.4839476787e+00
 9.3687305928e-01	 5.0583345749e-01	 3.5142417066e+00
 9.3200029375e-01	 5.1475631940e-01	 3.5416153164e+00
 9.2703579215e-01	 5.2364420744e-01	 3.5657715804e+00
 9.2197988361e-01	 5.3249573721e-01	 3.5864160764e+00
 9.1683292462e-01	 5.4130952721e-01	 3.6032563675e+00
 9.1159529906e-01	 5.5008419961e-01	 3.6160014326e+00
 9.6515428131e-01	 4.6328866036e-01	 3.2733661231e+00
 9.6071981352e-01	 4.7241571677e-01	 3.3072709413e+00
 9.5619185905e-01	 4.8151458778e-01	 3.3395110876e+00
 9.5157061208e-01	 4.9058387639e-01	 3.3697921113e+00
 9.4685629402e-01	 4.9962218529e-01	 3.3978240815e+00
 9.4204915353e-01	 5.0862811748e-01	 3.4233212522e+00
 9.3714946665e-01	 5.1760027696e-01	 3.4460016578e+00
 9.3215753686e-01	 5.2653726936e-01	 3.4655866436e+00
 9.2707369512e-01	 5.3543770260e-01	 3.4818003335e+00
 9.2189829989e-01	 5.4430018758e-01	 3.4943690430e+00
 9.1663173717e-01	 5.5312333883e-01	 3.5030206412e+00
 9.7045732681e-01	 4.6583420245e-01	 3.2089151933e+00
 9.6599849382e-01	 4.7501140752e-01	 3.2379103430e+00
 9.6144566047e-01	 4.8416027233e-01	 3.2652811614e+00
 9.5679902204e-01	 4.9327939219e-01	 3.2907508981e+00
 9.5205880113e-01	 5.0236736213e-01	 3.3140479698e+00
 9.4722524778e-01	 5.1142277747e-01	 3.3349055717e+00
 9.4229863954e-01	 5.2044423453e-01	 3.3530612149e+00
 9.3727928157e-01	 5.2943033128e-01	 3.3682561940e+00
 9.3216750663e-01	 5.3837966800e-01	 3.3802349898e+00
 9.2696367517e-01	 5.4729084796e-01	 3.3887446124e+00
 9.2166817529e-01	 5.5616247805e-01	 3.3935338915e+00
 9.7576037232e-01	 4.6837974454e-01	 3.1461805043e+00
 9.7127717411e-01	 4.7760709827e-01	 3.1703871300e+00
 9.6669946189e-01	 4.8680595688e-01	 3.1930173805e+00
 9.6202743199e-01	 4.9597490800e-01	 3.2138133145e+00
 9.5726130824e-01	 5.0511253897e-01	 3.2325229470e+00
 9.5240134203e-01	 5.1421743745e-01	 3.2488998046e+00
 9.4744781244e-01	 5.2328819209e-01	 3.2627024032e+00
 9.4240102628e-01	 5.3232339320e-01	 3.2736936510e+00
 9.3726131814e-01	 5.4132163340e-01	 3.2816401826e+00
 9.3202905044e-01	 5.5028150833e-01	 3.2863116304e+00
 9.2670461341e-01	 5.5920161728e-01	 3.2874798389e+00
 9.8106341782e-01	 4.7092528663e-01	 3.0850786678e+00
 9.7655585441e-01	 4.8020278902e-01	 3.1046124161e+00
 9.7195326332e-01	 4.8945164142e-01	 3.1226271016e+00
 9.6725584195e-01	 4.9867042380e-01	 3.1388846926e+00
 9.6246381535e-01	 5.0785771581e-01	 3.1531540431e+00
 9.5757743628e-01	 5.1701209744e-01	 3.1652103919e+00
 9.5259698533e-01	 5.2613214966e-01	 3.1748347771e+00
 9.4752277098e-01	 5.3521645512e-01	 3.1818133722e+00
 9.4235512965e-01	 5.4426359880e-01	 3.1859367501e+00
 9.3709442572e-01	 5.5327216870e-01	 3.1869990788e+00
 9.3174105152e-01	 5.6224075650e-01	 3.1847972571e+00
 9.8636646332e-01	 4.7347082872e-01	 3.0255277153e+00
 9.8183453470e-01	 4.8279847978e-01	 3.0404987654e+00
 9.7720706474e-01	 4.9209732597e-01	 3.0540191222e+00
 9.7248425191e-01	 5.0136593961e-01	 3.0658717559e+00
 9.6766632246e-01	 5.1060289266e-01	 3.0758475928e+00
 9.6275353053e-01	 5.1980675742e-01	 3.0837449543e+00
 9.5774615822e-01	 5.2897610723e-01	 3.0893689076e+00
 9.5264451569e-01	 5.3810951704e-01	 3.0925305329e+00
 9.4744894116e-01	 5.4720556420e-01	 3.0930461130e+00
 9.4215980099e-01	 5.5626282907e-01	 3.0907362517e+00
 9.3677748964e-01	 5.6527989573e-01	 3.0854249273e+00
 9.9166950882e-01	 4.7601637081e-01	 2.9674469909e+00
 9.8711321499e-01	 4.8539417053e-01	 2.9779600803e+00
 9.8246086616e-01	 4.9474301052e-01	 2.9871035649e+00
 9.7771266186e-01	 5.0406145541e-01	 2.9946825022e+00
 9.7286882957e-01	 5.1334806950e-01	 3.0005111156e+00
 9.6792962478e-01	 5.2260141741e-01	 3.0044121711e+00
 9.6289533112e-01	 5.3182006479e-01	 3.0062162626e+00
 9.5776626040e-01	 5.4100257896e-01	 3.0057610070e+00
 9.5254275268e-01	 5.5014752960e-01	 3.0028901577e+00
 9.4722517626e-01	 5.5925348944e-01	 2.9974526420e+00
 9.4181392775e-01	 5.6831903495e-01	 2.9893015297e+00
 9.9697255432e-01	 4.7856191290e-01	 2.9107570470e+00
 9.9239189529e-01	 4.8798986128e-01	 2.9169114922e+00
 9.8771466759e-01	 4.9738869507e-01	 2.9217917645e+00
 9.8294107182e-01	 5.0675697122e-01	 2.9252260877e+00
 9.7807133668e-01	 5.1609324634e-01	 2.9270531990e+00
 9.7310571903e-01	 5.2539607740e-01	 2.9271216634e+00
 9.6804450401e-01	 5.3466402236e-01	 2.9252890895e+00
 9.6288800511e-01	 5.4389564088e-01	 2.9214212514e+00
 9.5763656419e-01	 5.5308949500e-01	 2.9153911230e+00
 9.5229055154e-01	 5.6224414981e-01	 2.9070778313e+00
 9.4685036587e-01	 5.7135817418e-01	 2.8963655362e+00
 1.0022755998e+00	 4.8110745499e-01	 2.8553795409e+00
 9.9767057558e-01	 4.9058555203e-01	 2.8572692546e+00
 9.9296846901e-01	 5.0003437962e-01	 2.8579961580e+00
 9.8816948178e-01	 5.0945248702e-01	 2.8574127140e+00
 9.8327384379e-01	 5.1883842318e-01	 2.8553833842e+00
 9.7828181328e-01	 5.2819073738e-01	 2.8517838785e+00
 9.7319367690e-01	 5.3750797992e-01	 2.8465003003e+00
 9.6800974982e-01	 5.4678870280e-01	 2.8394281923e+00
 9.6273037570e-01	 5.5603146040e-01	 2.8304714885e+00
 9.5735592681e-01	 5.6523481018e-01	 2.8195413805e+00
 9.5188680399e-01	 5.7439731340e-01	 2.8065551060e+00
 1.0075786453e+00	 4.8365299708e-01	 2.8012371353e+00
 1.0029492559e+00	 4.9318124278e-01	 2.7989506383e+00
 9.9822227043e-01	 5.0268006417e-01	 2.7956301763e+00
 9.9339789173e-01	 5.1214800282e-01	 2.7911535181e+00
 9.8847635090e-01	 5.2158360002e-01	 2.7854120536e+00
 9.8345790753e-01	 5.3098539737e-01	 2.7783099771e+00
 9.7834284980e-01	 5.4035193749e-01	 2.7697633591e+00
 9.7313149452e-01	 5.4968176472e-01	 2.7596991133e+00
 9.6782418721e-01	 5.5897342580e-01	 2.7480538642e+00
 9.6242130209e-01	 5.6822547056e-01	 2.7347727233e+00
 9.5692324210e-01	 5.7743645262e-01	 2.7198079819e+00
 9.0655886094e-01	 5.4704506038e-01	 3.7325378413e+00
 9.0126041583e-01	 5.5573098644e-01	 3.7467448049e+00
 8.9587265016e-01	 5.6437528395e-01	 3.7597843252e+00
 8.9039602718e-01	 5.7297659744e-01	 3.7717834050e+00
 8.8483103723e-01	 5.8153357770e-01	 3.7828853508e+00
 8.7917819759e-01	 5.9004488246e-01	 3.7931049167e+00
 8.7343805244e-01	 5.9850917703e-01	 3.7984635033e+00
 8.6761117268e-01	 6.0692513499e-01	 3.7974671867e+00
 8.6169815582e-01	 6.1529143883e-01	 3.7906530335e+00
 8.5569962579e-01	 6.2360678064e-01	 3.7786003686e+00
 8.4961623276e-01	 6.3186986277e-01	 3.7619299284e+00
 9.1159529906e-01	 5.5008419961e-01	 3.6160014326e+00
 9.0626741814e-01	 5.5881838081e-01	 3.6262048739e+00
 9.0084972044e-01	 5.6751070219e-01	 3.6357011499e+00
 8.9534267178e-01	 5.7615980076e-01	 3.6446341408e+00
 8.8974676521e-01	 5.8476431980e-01	 3.6531639075e+00
 8.8406252091e-01	 5.9332290959e-01	 3.6603002181e+00
 8.7829048606e-01	 6.0183422802e-01	 3.6614832472e+00
 8.7243123475e-01	 6.1029694129e-01	 3.6566841349e+00
 8.6648536780e-01	 6.1870972460e-01	 3.6464645149e+00
 8.6045351260e-01	 6.2707126276e-01	 3.6314285797e+00
 8.5433632294e-01	 6.3538025089e-01	 3.6122221958e+00
 9.1663173717e-01	 5.5312333883e-01	 3.5030206412e+00
 9.1127442045e-01	 5.6190577517e-01	 3.5094599374e+00
 9.0582679072e-01	 5.7064612043e-01	 3.5156698813e+00
 9.0028931637e-01	 5.7934300408e-01	 3.5218090705e+00
 8.9466249320e-01	 5.8799506190e-01	 3.5280520077e+00
 8.8894684423e-01	 5.9660093671e-01	 3.5313567336e+00
 8.8314291969e-01	 6.0515927900e-01	 3.5285172458e+00
 8.7725129682e-01	 6.1366874760e-01	 3.5200705530e+00
 8.7127257977e-01	 6.2212801037e-01	 3.5065999071e+00
 8.6520739941e-01	 6.3053574487e-01	 3.4887312880e+00
 8.5905641312e-01	 6.3889063902e-01	 3.4671324861e+00
 9.2166817529e-01	 5.5616247805e-01	 3.3935338915e+00
 9.1628142277e-01	 5.6499316954e-01	 3.3964586573e+00
 9.1080386100e-01	 5.7378153868e-01	 3.3996473894e+00
 9.0523596097e-01	 5.8252620739e-01	 3.4032712909e+00
 8.9957822118e-01	 5.9122580400e-01	 3.4070905434e+00
 8.9383116755e-01	 5.9987896384e-01	 3.4061711788e+00
 8.8799535331e-01	 6.0848432998e-01	 3.3994615254e+00
 8.8207135889e-01	 6.1704055390e-01	 3.3875199225e+00
 8.7605979175e-01	 6.2554629614e-01	 3.3709483359e+00
 8.6996128622e-01	 6.3400022699e-01	 3.3503915011e+00
 8.6377650330e-01	 6.4240102715e-01	 3.3265359738e+00
 9.2670461341e-01	 5.5920161728e-01	 3.2874798389e+00
 9.2128842508e-01	 5.6808056391e-01	 3.2871496186e+00
 9.1578093128e-01	 5.7691695692e-01	 3.2875902051e+00
 9.1018260557e-01	 5.8570941071e-01	 3.2889833439e+00
 9.0449394916e-01	 5.9445654610e-01	 3.2896364228e+00
 8.9871549087e-01	 6.0315699096e-01	 3.2846407184e+00
 8.9284778694e-01	 6.1180938097e-01	 3.2742125696e+00
 8.8689142096e-01	 6.2041236021e-01	 3.2589262295e+00
 8.8084700373e-01	 6.2896458191e-01	 3.2393995186e+00
 8.7471517303e-01	 6.3746470910e-01	 3.2162929411e+00
 8.6849659348e-01	 6.4591141527e-01	 3.1903087082e+00
 9.3174105152e-01	 5.6224075650e-01	 3.1847972571e+00
 9.2629542739e-01	 5.7116795828e-01	 3.1814812209e+00
 9.2075800156e-01	 5.8005237517e-01	 3.1794544157e+00
 9.1512925016e-01	 5.8889261403e-01	 3.1788854033e+00
 9.0940967715e-01	 5.9768728820e-01	 3.1755834205e+00
 9.0359981419e-01	 6.0643501809e-01	 3.1666629605e+00
 8.9770022056e-01	 6.1513443195e-01	 3.1526673134e+00
 8.9171148303e-01	 6.2378416651e-01	 3.1341839589e+00
 8.8563421570e-01	 6.3238286768e-01	 3.1118437556e+00
 8.7946905984e-01	 6.4092919122e-01	 3.0863200347e+00
 8.7321668367e-01	 6.4942180340e-01	 3.0583275995e+00
 9.3677748964e-01	 5.6527989573e-01	 3.0854249273e+00
 9.3130242970e-01	 5.7425535265e-01	 3.0794015721e+00
 9.2573507183e-01	 5.8318779341e-01	 3.0751955612e+00
 9.2007589476e-01	 5.9207581735e-01	 3.0722465179e+00
 9.1432540513e-01	 6.0091803029e-01	 3.0648284653e+00
 9.0848413751e-01	 6.0971304521e-01	 3.0521359505e+00
 9.0255265418e-01	 6.1845948293e-01	 3.0347231388e+00
 8.9653154510e-01	 6.2715597282e-01	 3.0131880890e+00
 8.9042142768e-01	 6.3580115346e-01	 2.9881719239e+00
 8.8422294665e-01	 6.4439367333e-01	 2.9603579041e+00
 8.7793677385e-01	 6.5293219153e-01	 2.9304704063e+00
 9.4181392775e-01	 5.6831903495e-01	 2.9893015297e+00
 9.3630943201e-01	 5.7734274702e-01	 2.9808583838e+00
 9.3071214211e-01	 5.8632321165e-01	 2.9747685326e+00
 9.2502253935e-01	 5.9525902067e-01	 2.9686476490e+00
 9.1924113312e-01	 6.0414877239e-01	 2.9572689479e+00
 9.1336846083e-01	 6.1299107234e-01	 2.9409581685e+00
 9.0740508781e-01	 6.2178453392e-01	 2.9202778718e+00
 9.0135160717e-01	 6.3052777912e-01	 2.8958340885e+00
 8.9520863966e-01	 6.3921943923e-01	 2.8682754728e+00
 8.8897683346e-01	 6.4785815545e-01	 2.8382923595e+00
 8.8265686403e-01	 6.5644257965e-01	 2.8066157249e+00
 9.4685036587e-01	 5.7135817418e-01	 2.8963655362e+00
 9.4131643432e-01	 5.8043014139e-01	 2.8857988679e+00
 9.3568921239e-01	 5.8945862990e-01	 2.8780470557e+00
 9.2996918395e-01	 5.9844222399e-01	 2.8679838380e+00
 9.2415686110e-01	 6.0737951449e-01	 2.8528027167e+00
 9.1825278415e-01	 6.1626909946e-01	 2.8330285260e+00
 9.1225752143e-01	 6.2510958490e-01	 2.8092297807e+00
 9.0617166924e-01	 6.3389958543e-01	 2.7820179144e+00
 8.9999585163e-01	 6.4263772500e-01	 2.7520464200e+00
 8.9373072027e-01	 6.5132263756e-01	 2.7200098934e+00
 8.8737695421e-01	 6.5995296778e-01	 2.6866429800e+00
 9.5188680399e-01	 5.7439731340e-01	 2.8065551060e+00
 9.4632343663e-01	 5.8351753576e-01	 2.7941696361e+00
 9.4066628267e-01	 5.9259404814e-01	 2.7841850180e+00
 9.3491582854e-01	 6.0162542731e-01	 2.7701506420e+00
 9.2907258909e-01	 6.1061025659e-01	 2.7513280753e+00
 9.2313710747e-01	 6.1954712659e-01	 2.7282463658e+00
 9.1710995506e-01	 6.2843463588e-01	 2.7014775760e+00
 9.1099173131e-01	 6.3727139174e-01	 2.6716360112e+00
 9.0478306361e-01	 6.4605601077e-01	 2.6393773499e+00
 8.9848460708e-01	 6.5478711968e-01	 2.6053976767e+00
 8.9209704439e-01	 6.6346335591e-01	 2.5704324179e+00
 9.5692324210e-01	 5.7743645262e-01	 2.7198079819e+00
 9.5133043894e-01	 5.8660493013e-01	 2.7059165992e+00
 9.4564335295e-01	 5.9572946639e-01	 2.6928814905e+00
 9.3986247314e-01	 6.0480863063e-01	 2.6750441299e+00
 9.3398831707e-01	 6.1384099869e-01	 2.6527437813e+00
 9.2802143079e-01	 6.2282515371e-01	 2.6265114620e+00
 9.2196238868e-01	 6.3175968687e-01	 2.5969204113e+00
 9.1581179338e-01	 6.4064319804e-01	 2.5645853120e+00
 9.0957027559e-01	 6.4947429654e-01	 2.5301614131e+00
 9.0323849389e-01	 6.5825160179e-01	 2.4943435556e+00
 8.9681713458e-01	 6.6697374403e-01	 2.4578650998e+00
 8.4961623276e-01	 6.3186986277e-01	 3.7619299284e+00
 8.4344865294e-01	 6.4007939843e-01	 3.7407492359e+00
 8.3719758836e-01	 6.4823411239e-01	 3.7148482409e+00
 8.3086376663e-01	 6.5633274164e-01	 3.6844157370e+00
 8.2444794063e-01	 6.6437403594e-01	 3.6496586529e+00
 8.1795088830e-01	 6.7235675855e-01	 3.6108014936e+00
 8.1137341229e-01	 6.8027968680e-01	 3.5680857340e+00
 8.0471633966e-01	 6.8814161270e-01	 3.5217691642e+00
 7.9798052153e-01	 6.9594134357e-01	 3.4721251889e+00
 7.9116683276e-01	 7.0367770263e-01	 3.4194420842e+00
 7.8427617152e-01	 7.1134952958e-01	 3.3640222116e+00
 8.5433632294e-01	 6.3538025089e-01	 3.6122221958e+00
 8.4813447879e-01	 6.4363539508e-01	 3.5888309957e+00
 8.4184868608e-01	 6.5183541302e-01	 3.5609109883e+00
 8.3547967644e-01	 6.5997903465e-01	 3.5286578775e+00
 8.2902820696e-01	 6.6806500281e-01	 3.4922850659e+00
 8.2249505990e-01	 6.7609207388e-01	 3.4520230810e+00
 8.1588104235e-01	 6.8405901839e-01	 3.4081189531e+00
 8.0918698599e-01	 6.9196462166e-01	 3.3608355438e+00
 8.0241374665e-01	 6.9980768437e-01	 3.3104508295e+00
 7.9556220405e-01	 7.0758702320e-01	 3.2572571405e+00
 7.8863326136e-01	 7.1530147141e-01	 3.2015603579e+00
 8.5905641312e-01	 6.3889063902e-01	 3.4671324861e+00
 8.5282030464e-01	 6.4719139174e-01	 3.4416613284e+00
 8.4649978379e-01	 6.5543671364e-01	 3.4118363856e+00
 8.4009558625e-01	 6.6362532765e-01	 3.3778606651e+00
 8.3360847330e-01	 6.7175596967e-01	 3.3399545251e+00
 8.2703923150e-01	 6.7982738920e-01	 3.2983550857e+00
 8.2038867242e-01	 6.8783834999e-01	 3.2533155895e+00
 8.1365763232e-01	 6.9578763062e-01	 3.2051047133e+00
 8.0684697177e-01	 7.0367402516e-01	 3.1540058345e+00
 7.9995757535e-01	 7.1149634377e-01	 3.1003162511e+00
 7.9299035120e-01	 7.1925341324e-01	 3.0443463613e+00
 8.6377650330e-01	 6.4240102715e-01	 3.3265359738e+00
 8.5750613049e-01	 6.5074738840e-01	 3.2991073616e+00
 8.5115088150e-01	 6.5903801427e-01	 3.2674847622e+00
 8.4471149607e-01	 6.6727162066e-01	 3.2318788721e+00
 8.3818873964e-01	 6.7544693654e-01	 3.1925174789e+00
 8.3158340310e-01	 6.8356270453e-01	 3.1496448555e+00
 8.2489630249e-01	 6.9161768158e-01	 3.1035211042e+00
 8.1812827865e-01	 6.9961063958e-01	 3.0544214506e+00
 8.1128019689e-01	 7.0754036596e-01	 3.0026354907e+00
 8.0435294664e-01	 7.1540566434e-01	 2.9484663927e+00
 7.9734744104e-01	 7.2320535507e-01	 2.8922300558e+00
 8.6849659348e-01	 6.4591141527e-01	 3.1903087082e+00
 8.6219195634e-01	 6.5430338506e-01	 3.1610372615e+00
 8.5580197922e-01	 6.6263931489e-01	 3.1277176221e+00
 8.4932740588e-01	 6.7091791367e-01	 3.0905685536e+00
 8.4276900597e-01	 6.7913790341e-01	 3.0498257379e+00
 8.3612757470e-01	 6.8729801985e-01	 3.0057411528e+00
 8.2940393256e-01	 6.9539701317e-01	 2.9585823979e+00
 8.2259892498e-01	 7.0343364854e-01	 2.9086319706e+00
 8.1571342201e-01	 7.1140670676e-01	 2.8561864928e+00
 8.0874831793e-01	 7.1931498491e-01	 2.8015558932e+00
 8.0170453088e-01	 7.2715729690e-01	 2.7450625445e+00
 8.7321668367e-01	 6.4942180340e-01	 3.0583275995e+00
 8.6687778219e-01	 6.5785938172e-01	 3.0273202155e+00
 8.6045307693e-01	 6.6624061552e-01	 2.9923976230e+00
 8.5394331570e-01	 6.7456420668e-01	 2.9537870233e+00
 8.4734927231e-01	 6.8282887027e-01	 2.9117324498e+00
 8.4067174630e-01	 6.9103333518e-01	 2.8664941280e+00
 8.3391156263e-01	 6.9917634477e-01	 2.8183477836e+00
 8.2706957131e-01	 7.0725665750e-01	 2.7675838982e+00
 8.2014664713e-01	 7.1527304756e-01	 2.7145069169e+00
 8.1314368923e-01	 7.2322430548e-01	 2.6594344075e+00
 8.0606162073e-01	 7.3110923873e-01	 2.6026961768e+00
 8.7793677385e-01	 6.5293219153e-01	 2.9304704063e+00
 8.7156360804e-01	 6.6141537837e-01	 2.8978264156e+00
 8.6510417464e-01	 6.6984191614e-01	 2.8613885568e+00
 8.5855922551e-01	 6.7821049969e-01	 2.8213928322e+00
 8.5192953865e-01	 6.8651983714e-01	 2.7780920758e+00
 8.4521591791e-01	 6.9476865051e-01	 2.7317552954e+00
 8.3841919270e-01	 7.0295567636e-01	 2.6826669617e+00
 8.3154021764e-01	 7.1107966645e-01	 2.6311262441e+00
 8.2457987225e-01	 7.1913938835e-01	 2.5774461966e+00
 8.1753906052e-01	 7.2713362605e-01	 2.5219528948e+00
 8.1041871057e-01	 7.3506118056e-01	 2.4649845284e+00
 8.8265686403e-01	 6.5644257965e-01	 2.8066157249e+00
 8.7624943389e-01	 6.6497137503e-01	 2.7724270441e+00
 8.6975527236e-01	 6.7344321677e-01	 2.7345553323e+00
 8.6317513533e-01	 6.8185679270e-01	 2.6932457489e+00
 8.5650980498e-01	 6.9021080401e-01	 2.6487603696e+00
 8.4976008951e-01	 6.9850396583e-01	 2.6013775105e+00
 8.4292682276e-01	 7.0673500795e-01	 2.5513909977e+00
 8.3601086398e-01	 7.1490267541e-01	 2.4991093819e+00
 8.2901309737e-01	 7.2300572915e-01	 2.4448551020e+00
 8.2193443181e-01	 7.3104294662e-01	 2.3889635991e+00
 8.1477580041e-01	 7.3901312239e-01	 2.3317823830e+00
 8.8737695421e-01	 6.5995296778e-01	 2.6866429800e+00
 8.8093525974e-01	 6.6852737169e-01	 2.6509942614e+00
 8.7440637007e-01	 6.7704451739e-01	 2.6117639602e+00
 8.6779104514e-01	 6.8550308571e-01	 2.5692067422e+00
 8.6109007132e-01	 6.9390177087e-01	 2.5235943581e+00
 8.5430426111e-01	 7.0223928116e-01	 2.4752149503e+00
 8.4743445283e-01	 7.1051433955e-01	 2.4243723014e+00
 8.4048151031e-01	 7.1872568437e-01	 2.3713850279e+00
 8.3344632249e-01	 7.2687206995e-01	 2.3165857198e+00
 8.2632980311e-01	 7.3495226719e-01	 2.2603200302e+00
 8.1913289025e-01	 7.4296506422e-01	 2.2029457162e+00
 8.9209704439e-01	 6.6346335591e-01	 2.5704324179e+00
 8.8562108559e-01	 6.7208336835e-01	 2.5334011948e+00
 8.7905746778e-01	 6.8064581801e-01	 2.4928815395e+00
 8.7240695496e-01	 6.8914937872e-01	 2.4491379653e+00
 8.6567033766e-01	 6.9759273774e-01	 2.4024523244e+00
 8.5884843271e-01	 7.0597459648e-01	 2.3531230948e+00
 8.5194208290e-01	 7.1429367114e-01	 2.3014646087e+00
 8.4495215664e-01	 7.2254869333e-01	 2.2478062230e+00
 8.3787954761e-01	 7.3073841075e-01	 2.1924914355e+00
 8.3072517440e-01	 7.3886158776e-01	 2.1358769483e+00
 8.2348998009e-01	 7.4691700605e-01	 2.0783316812e+00
 8.9681713458e-01	 6.6697374403e-01	 2.4578650998e+00
 8.9030691144e-01	 6.7563936501e-01	 2.4195219300e+00
 8.8370856550e-01	 6.8424711864e-01	 2.3777762453e+00
 8.7702286477e-01	 6.9279567173e-01	 2.3329027420e+00
 8.7025060399e-01	 7.0128370460e-01	 2.2851937920e+00
 8.6339260431e-01	 7.0970991181e-01	 2.2349587109e+00
 8.5644971297e-01	 7.1807300273e-01	 2.1825229644e+00
 8.4942280297e-01	 7.2637170229e-01	 2.1282273161e+00
 8.4231277273e-01	 7.3460475154e-01	 2.0724269184e+00
 8.3512054569e-01	 7.4277090833e-01	 2.0154903492e+00
 8.2784706993e-01	 7.5086894789e-01	 1.9577985963e+00
 7.8427617152e-01	 7.1134952958e-01	 3.3640222116e+00
 7.7730945893e-01	 7.1895568117e-01	 3.3036196543e+00
 7.7026763867e-01	 7.2649503181e-01	 3.2361636425e+00
 7.6315167654e-01	 7.3396647405e-01	 3.1622364519e+00
 7.5596255999e-01	 7.4136891918e-01	 3.0824288830e+00
 7.4870129773e-01	 7.4870129773e-01	 2.9973390340e+00
 7.4136891918e-01	 7.5596255999e-01	 2.9075710542e+00
 7.3396647405e-01	 7.6315167654e-01	 2.8137338834e+00
 7.2649503181e-01	 7.7026763867e-01	 2.7164399813e+00
 7.1895568117e-01	 7.7730945893e-01	 2.6163040508e+00
 7.1134952958e-01	 7.8427617152e-01	 2.5139417610e+00
 7.8863326136e-01	 7.1530147141e-01	 3.2015603579e+00
 7.8162784481e-01	 7.2294987940e-01	 3.1410926498e+00
 7.7454690333e-01	 7.3053111532e-01	 3.0737637015e+00
 7.6739140808e-01	 7.3804406557e-01	 3.0001622812e+00
 7.6016235199e-01	 7.4548763540e-01	 2.9208854337e+00
 7.5286074938e-01	 7.5286074938e-01	 2.8365372264e+00
 7.4548763540e-01	 7.6016235199e-01	 2.7477274766e+00
 7.3804406557e-01	 7.6739140808e-01	 2.6550704638e+00
 7.3053111532e-01	 7.7454690333e-01	 2.5591836325e+00
 7.2294987940e-01	 7.8162784481e-01	 2.4606862889e+00
 7.1530147141e-01	 7.8863326136e-01	 2.3601982963e+00
 7.9299035120e-01	 7.1925341324e-01	 3.0443463613e+00
 7.8594623070e-01	 7.2694407763e-01	 2.9838096660e+00
 7.7882616799e-01	 7.3456719883e-01	 2.9165985078e+00
 7.7163113961e-01	 7.4212165710e-01	 2.8433076492e+00
 7.6436214399e-01	 7.4960635161e-01	 2.7645398971e+00
 7.5702020104e-01	 7.5702020104e-01	 2.6809048229e+00
 7.4960635161e-01	 7.6436214399e-01	 2.5930174639e+00
 7.4212165710e-01	 7.7163113961e-01	 2.5014970091e+00
 7.3456719883e-01	 7.7882616799e-01	 2.4069654751e+00
 7.2694407763e-01	 7.8594623070e-01	 2.3100463764e+00
 7.1925341324e-01	 7.9299035120e-01	 2.2113633942e+00
 7.9734744104e-01	 7.2320535507e-01	 2.8922300558e+00
 7.9026461658e-01	 7.3093827586e-01	 2.8316240866e+00
 7.8310543265e-01	 7.3860328234e-01	 2.7645252286e+00
 7.7587087115e-01	 7.4619924862e-01	 2.6915337535e+00
 7.6856193599e-01	 7.5372506783e-01	 2.6132577615e+00
 7.6117965269e-01	 7.6117965269e-01	 2.5303118763e+00
 7.5372506783e-01	 7.6856193599e-01	 2.4433159209e+00
 7.4619924862e-01	 7.7587087115e-01	 2.3528935764e+00
 7.3860328234e-01	 7.8310543265e-01	 2.2596710326e+00
 7.3093827586e-01	 7.9026461658e-01	 2.1642756306e+00
 7.2320535507e-01	 7.9734744104e-01	 2.0673345059e+00
 8.0170453088e-01	 7.2715729690e-01	 2.7450625445e+00
 7.9458300246e-01	 7.3493247409e-01	 2.6843904657e+00
 7.8738469731e-01	 7.4263936585e-01	 2.6174020969e+00
 7.8011060269e-01	 7.5027684014e-01	 2.5447027466e+00
 7.7276172799e-01	 7.5784378405e-01	 2.4669053529e+00
 7.6533910434e-01	 7.6533910434e-01	 2.3846291536e+00
 7.5784378405e-01	 7.7276172799e-01	 2.2984983355e+00
 7.5027684014e-01	 7.8011060269e-01	 2.2091406686e+00
 7.4263936585e-01	 7.8738469731e-01	 2.1171861293e+00
 7.3493247409e-01	 7.9458300246e-01	 2.0232655173e+00
 7.2715729690e-01	 8.0170453088e-01	 1.9280090719e+00
 8.0606162073e-01	 7.3110923873e-01	 2.6026961768e+00
 7.9890138835e-01	 7.3892667232e-01	 2.5419645079e+00
 7.9166396197e-01	 7.4667544936e-01	 2.4750883940e+00
 7.8435033422e-01	 7.5435443166e-01	 2.4026777213e+00
 7.7696151999e-01	 7.6196250027e-01	 2.3253498235e+00
 7.6949855600e-01	 7.6949855600e-01	 2.2437281264e+00
 7.6196250027e-01	 7.7696151999e-01	 2.1584407731e+00
 7.5435443166e-01	 7.8435033422e-01	 2.0701192313e+00
 7.4667544936e-01	 7.9166396197e-01	 1.9793968910e+00
 7.3892667232e-01	 7.9890138835e-01	 1.8869076552e+00
 7.3110923873e-01	 8.0606162073e-01	 1.7932845292e+00
 8.1041871057e-01	 7.3506118056e-01	 2.4649845284e+00
 8.0321977423e-01	 7.4292087055e-01	 2.4042030501e+00
 7.9594322663e-01	 7.5071153287e-01	 2.3374444342e+00
 7.8859006576e-01	 7.5843202319e-01	 2.2653226981e+00
 7.8116131199e-01	 7.6608121648e-01	 2.1884591409e+00
 7.7365800765e-01	 7.7365800765e-01	 2.1074809644e+00
 7.6608121648e-01	 7.8116131199e-01	 2.0230198721e+00
 7.5843202319e-01	 7.8859006576e-01	 1.9357106518e+00
 7.5071153287e-01	 7.9594322663e-01	 1.8461897468e+00
 7.4292087055e-01	 8.0321977423e-01	 1.7550938206e+00
 7.3506118056e-01	 8.1041871057e-01	 1.6630583202e+00
 8.1477580041e-01	 7.3901312239e-01	 2.3317823830e+00
 8.0753816011e-01	 7.4691506878e-01	 2.2709640463e+00
 8.0022249129e-01	 7.5474761638e-01	 2.2043315517e+00
 7.9282979729e-01	 7.6250961471e-01	 2.1325026140e+00
 7.8536110399e-01	 7.7019993270e-01	 2.0561020808e+00
 7.7781745931e-01	 7.7781745931e-01	 1.9757605295e+00
 7.7019993270e-01	 7.8536110399e-01	 1.8921128415e+00
 7.6250961471e-01	 7.9282979729e-01	 1.8057967593e+00
 7.5474761638e-01	 8.0022249129e-01	 1.7174514322e+00
 7.4691506878e-01	 8.0753816011e-01	 1.6277159544e+00
 7.3901312239e-01	 8.1477580041e-01	 1.5372279022e+00
 8.1913289025e-01	 7.4296506422e-01	 2.2029457162e+00
 8.1185654599e-01	 7.5090926700e-01	 2.1421065530e+00
 8.0450175595e-01	 7.5878369989e-01	 2.0756120889e+00
 7.9706952883e-01	 7.6658720623e-01	 2.0040833141e+00
 7.8956089599e-01	 7.7431864892e-01	 1.9281482200e+00
 7.8197691096e-01	 7.8197691096e-01	 1.8484403720e+00
 7.7431864892e-01	 7.8956089599e-01	 1.7655974592e+00
 7.6658720623e-01	 7.9706952883e-01	 1.6802598266e+00
 7.5878369989e-01	 8.0450175595e-01	 1.5930689940e+00
 7.5090926700e-01	 8.1185654599e-01	 1.5046661693e+00
 7.4296506422e-01	 8.1913289025e-01	 1.4156907585e+00
 8.2348998009e-01	 7.4691700605e-01	 2.0783316812e+00
 8.1617493188e-01	 7.5490346523e-01	 2.0174907179e+00
 8.0878102061e-01	 7.6281978340e-01	 1.9511493865e+00
 8.0130926037e-01	 7.7066479775e-01	 1.8799315433e+00
 7.9376068799e-01	 7.7843736514e-01	 1.8044679311e+00
 7.8613636261e-01	 7.8613636261e-01	 1.7253947278e+00
 7.7843736514e-01	 7.9376068799e-01	 1.6433520728e+00
 7.7066479775e-01	 8.0130926037e-01	 1.5589825726e+00
 7.6281978340e-01	 8.0878102061e-01	 1.4729297958e+00
 7.5490346523e-01	 8.1617493188e-01	 1.3858367586e+00
 7.4691700605e-01	 8.2348998009e-01	 1.2983444096e+00
 8.2784706993e-01	 7.5086894789e-01	 1.9577985963e+00
 8.2049331776e-01	 7.5889766346e-01	 1.8969777687e+00
 8.1306028527e-01	 7.6685586691e-01	 1.8308077755e+00
 8.0554899190e-01	 7.7474238928e-01	 1.7599149413e+00
 7.9796047999e-01	 7.8255608135e-01	 1.6849323795e+00
 7.9029581427e-01	 7.9029581427e-01	 1.6064985180e+00
 7.8255608135e-01	 7.9796047999e-01	 1.5252556003e+00
 7.7474238928e-01	 8.0554899190e-01	 1.4418481671e+00
 7.6685586691e-01	 8.1306028527e-01	 1.3569215249e+00
 7.5889766346e-01	 8.2049331776e-01	 1.2711202060e+00
 7.5086894789e-01	 8.2784706993e-01	 1.1850864264e+00
 7.1134952958e-01	 7.8427617152e-01	 2.5139417610e+00
 7.0367770263e-01	 7.9116683276e-01	 2.4073535463e+00
 6.9594134357e-01	 7.9798052153e-01	 2.2944143424e+00
 6.8814161270e-01	 8.0471633966e-01	 2.1755488457e+00
 6.8027968680e-01	 8.1137341229e-01	 2.0511774583e+00
 6.7235675855e-01	 8.1795088830e-01	 1.9217154131e+00
 6.6437403594e-01	 8.2444794063e-01	 1.7875719243e+00
 6.5633274164e-01	 8.3086376663e-01	 1.6491493688e+00
 6.4823411239e-01	 8.3719758836e-01	 1.5068425022e+00
 6.4007939843e-01	 8.4344865294e-01	 1.3610377115e+00
 6.3186986277e-01	 8.4961623276e-01	 1.2121123102e+00
 7.1530147141e-01	 7.8863326136e-01	 2.3601982963e+00
 7.0758702320e-01	 7.9556220405e-01	 2.2557047288e+00
 6.9980768437e-01	 8.0241374665e-01	 2.1450674881e+00
 6.9196462166e-01	 8.0918698599e-01	 2.0287187843e+00
 6.8405901839e-01	 8.1588104235e-01	 1.9070867109e+00
 6.7609207388e-01	 8.2249505990e-01	 1.7805943397e+00
 6.6806500281e-01	 8.2902820696e-01	 1.6496588408e+00
 6.5997903465e-01	 8.3547967644e-01	 1.5146906341e+00
 6.5183541302e-01	 8.4184868608e-01	 1.3760925747e+00
 6.4363539508e-01	 8.4813447879e-01	 1.2342591764e+00
 6.3538025089e-01	 8.5433632294e-01	 1.0895758779e+00
 7.1925341324e-01	 7.9299035120e-01	 2.2113633942e+00
 7.1149634377e-01	 7.9995757535e-01	 2.1088907216e+00
 7.0367402516e-01	 8.0684697177e-01	 2.0004823439e+00
 6.9578763062e-01	 8.1365763232e-01	 1.8865785007e+00
 6.8783834999e-01	 8.2038867242e-01	 1.7676153881e+00
 6.7982738920e-01	 8.2703923150e-01	 1.6440242224e+00
 6.7175596967e-01	 8.3360847330e-01	 1.5162303292e+00
 6.6362532765e-01	 8.4009558625e-01	 1.3846522637e+00
 6.5543671364e-01	 8.4649978379e-01	 1.2497009656e+00
 6.4719139174e-01	 8.5282030464e-01	 1.1117789532e+00
 6.3889063902e-01	 8.5905641312e-01	 9.7127955946e-01
 7.2320535507e-01	 7.9734744104e-01	 2.0673345059e+00
 7.1540566434e-01	 8.0435294664e-01	 1.9668145750e+00
 7.0754036596e-01	 8.1128019689e-01	 1.8605661384e+00
 6.9961063958e-01	 8.1812827865e-01	 1.7490379793e+00
 6.9161768158e-01	 8.2489630249e-01	 1.6326748074e+00
 6.8356270453e-01	 8.3158340310e-01	 1.5119162901e+00
 6.7544693654e-01	 8.3818873964e-01	 1.3871961099e+00
 6.6727162066e-01	 8.4471149607e-01	 1.2589410528e+00
 6.5903801427e-01	 8.5115088150e-01	 1.1275701330e+00
 6.5074738840e-01	 8.5750613049e-01	 9.9349375549e-01
 6.4240102715e-01	 8.6377650330e-01	 8.5711292353e-01
 7.2715729690e-01	 8.0170453088e-01	 1.9280090719e+00
 7.1931498491e-01	 8.0874831793e-01	 1.8293791806e+00
 7.1140670676e-01	 8.1571342201e-01	 1.7252258246e+00
 7.0343364854e-01	 8.2259892498e-01	 1.6160068434e+00
 6.9539701317e-01	 8.2940393256e-01	 1.5021758713e+00
 6.8729801985e-01	 8.3612757470e-01	 1.3841813342e+00
 6.7913790341e-01	 8.4276900597e-01	 1.2624654750e+00
 6.7091791367e-01	 8.4932740588e-01	 1.1374634100e+00
 6.6263931489e-01	 8.5580197922e-01	 1.0096022208e+00
 6.5430338506e-01	 8.6219195634e-01	 8.7930008779e-01
 6.4591141527e-01	 8.6849659348e-01	 7.4696546674e-01
 7.3110923873e-01	 8.0606162073e-01	 1.7932845292e+00
 7.2322430548e-01	 8.1314368923e-01	 1.6964872821e+00
 7.1527304756e-01	 8.2014664713e-01	 1.5943680929e+00
 7.0725665750e-01	 8.2706957131e-01	 1.4873943698e+00
 6.9917634477e-01	 8.3391156263e-01	 1.3760290820e+00
 6.9103333518e-01	 8.4067174630e-01	 1.2607297230e+00
 6.8282887027e-01	 8.4734927231e-01	 1.1419473020e+00
 6.7456420668e-01	 8.5394331570e-01	 1.0201253674e+00
 6.6624061552e-01	 8.6045307693e-01	 8.9569906693e-01
 6.5785938172e-01	 8.6687778219e-01	 7.6909424965e-01
 6.4942180340e-01	 8.7321668367e-01	 6.4072661277e-01
 7.3506118056e-01	 8.1041871057e-01	 1.6630583202e+00
 7.2713362605e-01	 8.1753906052e-01	 1.5680414865e+00
 7.1913938835e-01	 8.2457987225e-01	 1.4678993852e+00
 7.1107966645e-01	 8.3154021764e-01	 1.3631095037e+00
 7.0295567636e-01	 8.3841919270e-01	 1.2541445573e+00
 6.9476865051e-01	 8.4521591791e-01	 1.1414714170e+00
 6.8651983714e-01	 8.5192953865e-01	 1.0255500668e+00
 6.7821049969e-01	 8.5855922551e-01	 9.0683259282e-01
 6.6984191614e-01	 8.6510417464e-01	 7.8576221172e-01
 6.6141537837e-01	 8.7156360804e-01	 6.6277234026e-01
 6.5293219153e-01	 8.7793677385e-01	 5.3828571242e-01
 7.3901312239e-01	 8.1477580041e-01	 1.5372279022e+00
 7.3104294662e-01	 8.2193443181e-01	 1.4439442774e+00
 7.2300572915e-01	 8.2901309737e-01	 1.3457259093e+00
 7.1490267541e-01	 8.3601086398e-01	 1.2430608749e+00
 7.0673500795e-01	 8.4292682276e-01	 1.1364320467e+00
 6.9850396583e-01	 8.4976008951e-01	 1.0263159851e+00
 6.9021080401e-01	 8.5650980498e-01	 9.1318185912e-01
 6.8185679270e-01	 8.6317513533e-01	 7.9749040255e-01
 6.7344321677e-01	 8.6975527236e-01	 6.7969290785e-01
 6.6497137503e-01	 8.7624943389e-01	 5.6023026440e-01
 6.5644257965e-01	 8.8265686403e-01	 4.3953204478e-01
 7.4296506422e-01	 8.1913289025e-01	 1.4156907585e+00
 7.3495226719e-01	 8.2632980311e-01	 1.3240980282e+00
 7.2687206995e-01	 8.3344632249e-01	 1.2277536549e+00
 7.1872568437e-01	 8.4048151031e-01	 1.1271568145e+00
 7.1051433955e-01	 8.4743445283e-01	 1.0228009490e+00
 7.0223928116e-01	 8.5430426111e-01	 9.1517262081e-01
 6.9390177087e-01	 8.6109007132e-01	 8.0475039794e-01
 6.8550308571e-01	 8.6779104514e-01	 6.9200377447e-01
 6.7704451739e-01	 8.7440637007e-01	 5.7739213080e-01
 6.6852737169e-01	 8.8093525974e-01	 4.6136373929e-01
 6.5995296778e-01	 8.8737695421e-01	 3.4435481965e-01
 7.4691700605e-01	 8.2348998009e-01	 1.2983444096e+00
 7.3886158776e-01	 8.3072517440e-01	 1.2084050167e+00
 7.3073841075e-01	 8.3787954761e-01	 1.1138884096e+00
 7.2254869333e-01	 8.4495215664e-01	 1.0153053729e+00
 7.1429367114e-01	 8.5194208290e-01	 9.1316032998e-01
 7.0597459648e-01	 8.5884843271e-01	 8.0795016049e-01
 6.9759273774e-01	 8.6567033766e-01	 7.0016304760e-01
 6.8914937872e-01	 8.7240695496e-01	 5.9027736252e-01
 6.8064581801e-01	 8.7905746778e-01	 4.7876059032e-01
 6.7208336835e-01	 8.8562108559e-01	 3.6606830248e-01
 6.6346335591e-01	 8.9209704439e-01	 2.5264318099e-01
 7.5086894789e-01	 8.2784706993e-01	 1.1850864264e+00
 7.4277090833e-01	 8.3512054569e-01	 1.0967674404e+00
 7.3460475154e-01	 8.4231277273e-01	 1.0040357767e+00
 7.2637170229e-01	 8.4942280297e-01	 9.0741433735e-01
 7.1807300273e-01	 8.5644971297e-01	 8.0741894103e-01
 7.0970991181e-01	 8.6339260431e-01	 7.0455710106e-01
 7.0128370460e-01	 8.7025060399e-01	 5.9932683492e-01
 6.9279567173e-01	 8.7702286477e-01	 4.9221551171e-01
 6.8424711864e-01	 8.8370856550e-01	 3.8369874276e-01
 6.7563936501e-01	 8.9030691144e-01	 2.7423932062e-01
 6.6697374403e-01	 8.9681713458e-01	 1.6428621147e-01
 6.3186986277e-01	 8.4961623276e-01	 1.2121123102e+00
 6.2360678064e-01	 8.5569962579e-01	 1.0605125892e+00
 6.1529143883e-01	 8.6169815582e-01	 9.0671299033e-01
 6.0692513499e-01	 8.6761117268e-01	 7.5110278140e-01
 5.9850917703e-01	 8.7343805244e-01	 5.9404014770e-01
 5.9004488246e-01	 8.7917819759e-01	 4.3585185226e-01
 5.8153357770e-01	 8.8483103723e-01	 2.7563740178e-01
 5.7297659744e-01	 8.9039602718e-01	 1.1095492539e-01
 5.6437528395e-01	 8.9587265016e-01	-5.8277208435e-02
 5.5573098644e-01	 9.0126041583e-01	-2.3206898187e-01
 5.4704506038e-01	 9.0655886094e-01	-4.1044461932e-01
 6.3538025089e-01	 8.5433632294e-01	 1.0895758779e+00
 6.2707126276e-01	 8.6045351260e-01	 9.4234758611e-01
 6.1870972460e-01	 8.6648536780e-01	 7.9290562361e-01
 6.1029694129e-01	 8.7243123475e-01	 6.4164384667e-01
 6.0183422802e-01	 8.7829048606e-01	 4.8892379931e-01
 5.9332290959e-01	 8.8406252091e-01	 3.3507436156e-01
 5.8476431980e-01	 8.8974676521e-01	 1.8006803836e-01
 5.7615980076e-01	 8.9534267178e-01	 2.1165710219e-02
 5.6751070219e-01	 9.0084972044e-01	-1.4231673650e-01
 5.5881838081e-01	 9.0626741814e-01	-3.1039427935e-01
 5.5008419961e-01	 9.1159529906e-01	-4.8309699280e-01
 6.3889063902e-01	 8.5905641312e-01	 9.7127955946e-01
 6.3053574487e-01	 8.6520739941e-01	 8.2835861126e-01
 6.2212801037e-01	 8.7127257977e-01	 6.8319636425e-01
 6.1366874760e-01	 8.7725129682e-01	 5.3619072338e-01
 6.0515927900e-01	 8.8314291969e-01	 3.8770624737e-01
 5.9660093671e-01	 8.8894684423e-01	 2.3807378382e-01
 5.8799506190e-01	 8.9466249320e-01	 8.7588632440e-02
 5.7934300408e-01	 9.0028931637e-01	-6.5652665667e-02
 5.7064612043e-01	 9.0582679072e-01	-2.2351966503e-01
 5.6190577517e-01	 9.1127442045e-01	-3.8603172672e-01
 5.5312333883e-01	 9.1663173717e-01	-5.5322397266e-01
 6.4240102715e-01	 8.6377650330e-01	 8.5711292353e-01
 6.3400022699e-01	 8.6996128622e-01	 7.1842894875e-01
 6.2554629614e-01	 8.7605979175e-01	 5.7746533609e-01
 6.1704055390e-01	 8.8207135889e-01	 4.3462350780e-01
 6.0848432998e-01	 8.8799535331e-01	 2.9027069941e-01
 5.9987896384e-01	 8.9383116755e-01	 1.4473958030e-01
 5.9122580400e-01	 8.9957822118e-01	-1.6720330667e-03
 5.8252620739e-01	 9.0523596097e-01	-1.4960290519e-01
 5.7378153868e-01	 9.1080386100e-01	-3.0197307352e-01
 5.6499316954e-01	 9.1628142277e-01	-4.5904968475e-01
 5.5616247805e-01	 9.2166817529e-01	-6.2087211548e-01
 6.4591141527e-01	 8.6849659348e-01	 7.4696546674e-01
 6.3746470910e-01	 8.7471517303e-01	 6.1244193099e-01
 6.2896458191e-01	 8.8084700373e-01	 4.7559276542e-01
 6.2041236021e-01	 8.8689142096e-01	 3.3682238672e-01
 6.1180938097e-01	 8.9284778694e-01	 1.9650037554e-01
 6.0315699096e-01	 8.9871549087e-01	 5.4961081055e-02
 5.9445654610e-01	 9.0449394916e-01	-8.7496679603e-02
 5.8570941071e-01	 9.1018260557e-01	-2.3078757659e-01
 5.7691695692e-01	 9.1578093128e-01	-3.7776423113e-01
 5.6808056391e-01	 9.2128842508e-01	-5.2951709294e-01
 5.5920161728e-01	 9.2670461341e-01	-6.8608901016e-01
 6.4942180340e-01	 8.7321668367e-01	 6.4072661277e-01
 6.4092919122e-01	 8.7946905984e-01	 5.1028093306e-01
 6.3238286768e-01	 8.8563421570e-01	 3.7745897255e-01
 6.2378416651e-01	 8.9171148303e-01	 2.4266762809e-01
 6.1513443195e-01	 8.9770022056e-01	 1.0627849998e-01
 6.0643501809e-01	 9.0359981419e-01	-3.1372520914e-02
 5.9768728820e-01	 9.0940967715e-01	-1.6998556922e-01
 5.8889261403e-01	 9.1512925016e-01	-3.0929702230e-01
 5.8005237517e-01	 9.2075800156e-01	-4.5098061888e-01
 5.7116795828e-01	 9.2629542739e-01	-5.9750348134e-01
 5.6224075650e-01	 9.3174105152e-01	-7.4892327761e-01
 6.5293219153e-01	 8.7793677385e-01	 5.3828571242e-01
 6.4439367333e-01	 8.8422294665e-01	 4.1182936838e-01
 6.3580115346e-01	 8.9042142768e-01	 2.8294436488e-01
 6.2715597282e-01	 8.9653154510e-01	 1.5203957320e-01
 6.1845948293e-01	 9.0255265418e-01	 1.9488294024e-02
 6.0971304521e-01	 9.0848413751e-01	-1.1437217425e-01
 6.0091803029e-01	 9.1432540513e-01	-2.4924086872e-01
 5.9207581735e-01	 9.2007589476e-01	-3.8485339464e-01
 5.8318779341e-01	 9.2573507183e-01	-5.2170995117e-01
 5.7425535265e-01	 9.3130242970e-01	-6.6307898218e-01
 5.6527989573e-01	 9.3677748964e-01	-8.0942457053e-01
 6.5644257965e-01	 8.8265686403e-01	 4.3953204478e-01
 6.4785815545e-01	 8.8897683346e-01	 3.1697068575e-01
 6.3921943923e-01	 8.9520863966e-01	 1.9192943136e-01
 6.3052777912e-01	 9.0135160717e-01	 6.4818630126e-02
 6.2178453392e-01	 9.0740508781e-01	-6.3987029797e-02
 6.1299107234e-01	 9.1336846083e-01	-1.9414897260e-01
 6.0414877239e-01	 9.1924113312e-01	-3.2536508683e-01
 5.9525902067e-01	 9.2502253935e-01	-4.5736997531e-01
 5.8632321165e-01	 9.3071214211e-01	-5.9004019677e-01
 5.7734274702e-01	 9.3630943201e-01	-7.2631434109e-01
 5.6831903495e-01	 9.4181392775e-01	-8.6764357343e-01
 6.5995296778e-01	 8.8737695421e-01	 3.4435481965e-01
 6.5132263756e-01	 8.9373072027e-01	 2.2558836758e-01
 6.4263772500e-01	 8.9999585163e-01	 1.0429473820e-01
 6.3389958543e-01	 9.0617166924e-01	-1.9114731384e-02
 6.2510958490e-01	 9.1225752143e-01	-1.4426427215e-01
 6.1626909946e-01	 9.1825278415e-01	-2.7081415682e-01
 6.0737951449e-01	 9.2415686110e-01	-3.9846107244e-01
 5.9844222399e-01	 9.2996918395e-01	-5.2693838942e-01
 5.8945862990e-01	 9.3568921239e-01	-6.5601632523e-01
 5.8043014139e-01	 9.4131643432e-01	-7.8728092825e-01
 5.7135817418e-01	 9.4685036587e-01	-9.2363200271e-01
 6.6346335591e-01	 8.9209704439e-01	 2.5264318099e-01
 6.5478711968e-01	 8.9848460708e-01	 1.3756592935e-01
 6.4605601077e-01	 9.0478306361e-01	 1.9920925884e-02
 6.3727139174e-01	 9.1099173131e-01	-9.9879983869e-02
 6.2843463588e-01	 9.1710995506e-01	-2.2146025017e-01
 6.1954712659e-01	 9.2313710747e-01	-3.4447911603e-01
 6.1061025659e-01	 9.2907258909e-01	-4.6863201194e-01
 6.0162542731e-01	 9.3491582854e-01	-5.9365084606e-01
 5.9259404814e-01	 9.4066628267e-01	-7.1930418769e-01
 5.8351753576e-01	 9.4632343663e-01	-8.4605074916e-01
 5.7439731340e-01	 9.5188680399e-01	-9.7744260686e-01
 6.6697374403e-01	 8.9681713458e-01	 1.6428621147e-01
 6.5825160179e-01	 9.0323849389e-01	 5.2786920297e-02
 6.4947429654e-01	 9.0957027559e-01	-6.1311292617e-02
 6.4064319804e-01	 9.1581179338e-01	-1.7759654481e-01
 6.3175968687e-01	 9.2196238868e-01	-2.9569179958e-01
 6.2282515371e-01	 9.2802143079e-01	-4.1525538759e-01
 6.1384099869e-01	 9.3398831707e-01	-5.3598142558e-01
 6.0480863063e-01	 9.3986247314e-01	-6.5760012954e-01
 5.9572946639e-01	 9.4564335295e-01	-7.7987802014e-01
 5.8660493013e-01	 9.5133043894e-01	-9.0269645534e-01
 5.7743645262e-01	 9.5692324210e-01	-1.0291291668e+00
 5.4704506038e-01	 9.0655886094e-01	-4.1044461932e-01
 5.3831886684e-01	 9.1176754934e-01	-5.9143872453e-01
 5.2955377181e-01	 9.1688607209e-01	-7.7301261832e-01
 5.2075114552e-01	 9.2191404744e-01	-9.5509240713e-01
 5.1191236183e-01	 9.2685112086e-01	-1.1376058217e+00
 5.0303879751e-01	 9.3169696503e-01	-1.3204824193e+00
 4.9413183160e-01	 9.3645127980e-01	-1.5036537491e+00
 4.8519284478e-01	 9.4111379217e-01	-1.6870534813e+00
 4.7622321868e-01	 9.4568425620e-01	-1.8706174982e+00
 4.6722433527e-01	 9.5016245294e-01	-2.0542839505e+00
 4.5819757618e-01	 9.5454819031e-01	-2.2379932769e+00
 5.5008419961e-01	 9.1159529906e-01	-4.8309699280e-01
 5.4130952721e-01	 9.1683292462e-01	-6.5834917752e-01
 5.3249573721e-01	 9.2197988361e-01	-8.3400530845e-01
 5.2364420744e-01	 9.2703579215e-01	-1.0100032927e+00
 5.1475631940e-01	 9.3200029375e-01	-1.1862828229e+00
 5.0583345749e-01	 9.3687305928e-01	-1.3627855737e+00
 4.9687700844e-01	 9.4165378691e-01	-1.5394553598e+00
 4.8788836059e-01	 9.4634220212e-01	-1.7162382558e+00
 4.7886890323e-01	 9.5093805762e-01	-1.8930826780e+00
 4.6982002602e-01	 9.5544113323e-01	-2.0699394289e+00
 4.6074311827e-01	 9.5985123581e-01	-2.2467617040e+00
 5.5312333883e-01	 9.1663173717e-01	-5.5322397266e-01
 5.4430018758e-01	 9.2189829989e-01	-7.2290599561e-01
 5.3543770260e-01	 9.2707369512e-01	-8.9282127395e-01
 5.2653726936e-01	 9.3215753686e-01	-1.0629191084e+00
 5.1760027696e-01	 9.3714946665e-01	-1.2331509531e+00
 5.0862811748e-01	 9.4204915353e-01	-1.4034706046e+00
 4.9962218529e-01	 9.4685629402e-01	-1.5738343497e+00
 4.9058387639e-01	 9.5157061208e-01	-1.7442010753e+00
 4.8151458778e-01	 9.5619185905e-01	-1.9145323365e+00
 4.7241571677e-01	 9.6071981352e-01	-2.0847923868e+00
 4.6328866036e-01	 9.6515428131e-01	-2.2549481693e+00
 5.5616247805e-01	 9.2166817529e-01	-6.2087211548e-01
 5.4729084796e-01	 9.2696367517e-01	-7.8513381118e-01
 5.3837966800e-01	 9.3216750663e-01	-9.4946606005e-01
 5.2943033128e-01	 9.3727928157e-01	-1.1138291472e+00
 5.2044423453e-01	 9.4229863954e-01	-1.2781860841e+00
 5.1142277747e-01	 9.4722524778e-01	-1.4425027874e+00
 5.0236736213e-01	 9.5205880113e-01	-1.6067482159e+00
 4.9327939219e-01	 9.5679902204e-01	-1.7708944661e+00
 4.8416027233e-01	 9.6144566047e-01	-1.9349168257e+00
 4.7501140752e-01	 9.6599849382e-01	-2.0987937857e+00
 4.6583420245e-01	 9.7045732681e-01	-2.2625070127e+00
 5.5920161728e-01	 9.2670461341e-01	-6.8608901016e-01
 5.5028150833e-01	 9.3202905044e-01	-8.4505874246e-01
 5.4132163340e-01	 9.3726131814e-01	-1.0039470871e+00
 5.3232339320e-01	 9.4240102628e-01	-1.1627249024e+00
 5.2328819209e-01	 9.4744781244e-01	-1.3213665486e+00
 5.1421743745e-01	 9.5240134203e-01	-1.4798500556e+00
 5.0511253897e-01	 9.5726130824e-01	-1.6381572460e+00
 4.9597490800e-01	 9.6202743199e-01	-1.7962738148e+00
 4.8680595688e-01	 9.6669946189e-01	-1.9541893645e+00
 4.7760709827e-01	 9.7127717411e-01	-2.1118973973e+00
 4.6837974454e-01	 9.7576037232e-01	-2.2693952647e+00
 5.6224075650e-01	 9.3174105152e-01	-7.4892327761e-01
 5.5327216870e-01	 9.3709442572e-01	-9.0270838106e-01
 5.4426359880e-01	 9.4235512965e-01	-1.0562736275e+00
 5.3521645512e-01	 9.4752277098e-01	-1.2096000353e+00
 5.2613214966e-01	 9.5259698533e-01	-1.3626731015e+00
 5.1701209744e-01	 9.5757743628e-01	-1.5154829563e+00
 5.0785771581e-01	 9.6246381535e-01	-1.6680244709e+00
 4.9867042380e-01	 9.6725584195e-01	-1.8202973183e+00
 4.8945164142e-01	 9.7195326332e-01	-1.9723059876e+00
 4.8020278902e-01	 9.7655585441e-01	-2.1240597537e+00
 4.7092528663e-01	 9.8106341782e-01	-2.2755726003e+00
 5.6527989573e-01	 9.3677748964e-01	-8.0942457053e-01
 5.5626282907e-01	 9.4215980099e-01	-9.5811178000e-01
 5.4720556420e-01	 9.4744894116e-01	-1.1064567838e+00
 5.3810951704e-01	 9.5264451569e-01	-1.2544503451e+00
 5.2897610723e-01	 9.5774615822e-01	-1.4020888821e+00
 5.1980675742e-01	 9.6275353053e-01	-1.5493746073e+00
 5.1060289266e-01	 9.6766632246e-01	-1.6963156178e+00
 5.0136593961e-01	 9.7248425191e-01	-1.8429259353e+00
 4.9209732597e-01	 9.7720706474e-01	-1.9892254976e+00
 4.8279847978e-01	 9.8183453470e-01	-2.1352401006e+00
 4.7347082872e-01	 9.8636646332e-01	-2.2810012946e+00
 5.6831903495e-01	 9.4181392775e-01	-8.6764357343e-01
 5.5925348944e-01	 9.4722517626e-01	-1.0112994423e+00
 5.5014752960e-01	 9.5254275268e-01	-1.1545094674e+00
 5.4100257896e-01	 9.5776626040e-01	-1.2972737395e+00
 5.3182006479e-01	 9.6289533112e-01	-1.4395993786e+00
 5.2260141741e-01	 9.6792962478e-01	-1.5815006562e+00
 5.1334806950e-01	 9.7286882957e-01	-1.7229990659e+00
 5.0406145541e-01	 9.7771266186e-01	-1.8641233405e+00
 4.9474301052e-01	 9.8246086616e-01	-2.0049094172e+00
 4.8539417053e-01	 9.8711321499e-01	-2.1454003512e+00
 4.7601637081e-01	 9.9166950882e-01	-2.2856461791e+00
 5.7135817418e-01	 9.4685036587e-01	-9.2363200271e-01
 5.6224414981e-01	 9.5229055154e-01	-1.0623033101e+00
 5.5308949500e-01	 9.5763656419e-01	-1.2004463780e+00
 5.4389564088e-01	 9.6288800511e-01	-1.3380702060e+00
 5.3466402236e-01	 9.6804450401e-01	-1.4751923928e+00
 5.2539607740e-01	 9.7310571903e-01	-1.6118392405e+00
 5.1609324634e-01	 9.7807133668e-01	-1.7480458032e+00
 5.0675697122e-01	 9.8294107182e-01	-1.8838558785e+00
 4.9738869507e-01	 9.8771466759e-01	-2.0193219447e+00
 4.8798986128e-01	 9.9239189529e-01	-2.1545050421e+00
 4.7856191290e-01	 9.9697255432e-01	-2.2894746012e+00
 5.7439731340e-01	 9.5188680399e-01	-9.7744260686e-01
 5.6523481018e-01	 9.5735592681e-01	-1.1111567542e+00
 5.5603146040e-01	 9.6273037570e-01	-1.2442839842e+00
 5.4678870280e-01	 9.6800974982e-01	-1.3768417847e+00
 5.3750797992e-01	 9.7319367690e-01	-1.5088580067e+00
 5.2819073738e-01	 9.7828181328e-01	-1.6403709497e+00
 5.1883842318e-01	 9.8327384379e-01	-1.7714293851e+00
 5.0945248702e-01	 9.8816948178e-01	-1.9020925216e+00
 5.0003437962e-01	 9.9296846901e-01	-2.0324299101e+00
 4.9058555203e-01	 9.9767057558e-01	-2.1625212908e+00
 4.8110745499e-01	 1.0022755998e+00	-2.2924563833e+00
 5.7743645262e-01	 9.5692324210e-01	-1.0291291668e+00
 5.6822547056e-01	 9.6242130209e-01	-1.1578945638e+00
 5.5897342580e-01	 9.6782418721e-01	-1.2860405044e+00
 5.4968176472e-01	 9.7313149452e-01	-1.4135925420e+00
 5.4035193749e-01	 9.7834284980e-01	-1.5405885505e+00
 5.3098539737e-01	 9.8345790753e-01	-1.6670787878e+00
 5.2158360002e-01	 9.8847635090e-01	-1.7931258941e+00
 5.1214800282e-01	 9.9339789173e-01	-1.9188048270e+00
 5.0268006417e-01	 9.9822227043e-01	-2.0442027324e+00
 4.9318124278e-01	 1.0029492559e+00	-2.1694187545e+00
 4.8365299708e-01	 1.0075786453e+00	-2.2945637846e+00
 4.5819757618e-01	 9.5454819031e-01	-2.2379932769e+00
 4.4914432210e-01	 9.5884130301e-01	-2.4215928264e+00
 4.4006595216e-01	 9.6304165236e-01	-2.6048386962e+00
 4.3096384326e-01	 9.6714912617e-01	-2.7875404407e+00
 4.2183936950e-01	 9.7116363852e-01	-2.9695133490e+00
 4.1269390156e-01	 9.7508512964e-01	-3.1505784460e+00
 4.0352880613e-01	 9.7891356568e-01	-3.3305624580e+00
 3.9434544526e-01	 9.8264893845e-01	-3.5092977452e+00
 3.8514517586e-01	 9.8629126527e-01	-3.6866222022e+00
 3.7592934907e-01	 9.8984058865e-01	-3.8623791302e+00
 3.6669930974e-01	 9.9329697607e-01	-4.0364170802e+00
 4.6074311827e-01	 9.5985123581e-01	-2.2467617040e+00
 4.5163956834e-01	 9.6416819914e-01	-2.4234277950e+00
 4.4251076300e-01	 9.6839188377e-01	-2.5997218695e+00
 4.3335808683e-01	 9.7252217687e-01	-2.7754620579e+00
 4.2418292155e-01	 9.7655899207e-01	-2.9504722940e+00
 4.1498664546e-01	 9.8050226925e-01	-3.1245823053e+00
 4.0577063283e-01	 9.8435197437e-01	-3.2976275659e+00
 3.9653625329e-01	 9.8810809922e-01	-3.4694492164e+00
 3.8728487128e-01	 9.9177066119e-01	-3.6398939503e+00
 3.7801784545e-01	 9.9533970303e-01	-3.8088138712e+00
 3.6873652813e-01	 9.9881529260e-01	-3.9760663212e+00
 4.6328866036e-01	 9.6515428131e-01	-2.2549481693e+00
 4.5413481457e-01	 9.6949509527e-01	-2.4249083240e+00
 4.4495557385e-01	 9.7374211517e-01	-2.5944827848e+00
 4.3575233040e-01	 9.7789522757e-01	-2.7634967515e+00
 4.2652647360e-01	 9.8195434561e-01	-2.9317812000e+00
 4.1727938936e-01	 9.8591940886e-01	-3.0991728641e+00
 4.0801245953e-01	 9.8979038307e-01	-3.2655141804e+00
 3.9872706132e-01	 9.9356725999e-01	-3.4306531982e+00
 3.8942456670e-01	 9.9725005711e-01	-3.5944434556e+00
 3.8010634183e-01	 1.0008388174e+00	-3.7567438257e+00
 3.7077374652e-01	 1.0043336091e+00	-3.9174183330e+00
 4.6583420245e-01	 9.7045732681e-01	-2.2625070127e+00
 4.5663006081e-01	 9.7482199139e-01	-2.4259925817e+00
 4.4740038469e-01	 9.7909234657e-01	-2.5890816036e+00
 4.3814657398e-01	 9.8326827827e-01	-2.7516048770e+00
 4.2887002565e-01	 9.8734969916e-01	-2.9133988531e+00
 4.1957213325e-01	 9.9133654847e-01	-3.0743056139e+00
 4.1025428623e-01	 9.9522879177e-01	-3.2341728115e+00
 4.0091786935e-01	 9.9902642076e-01	-3.3928535724e+00
 3.9156426212e-01	 1.0027294530e+00	-3.5502063662e+00
 3.8219483822e-01	 1.0063379318e+00	-3.7060948446e+00
 3.7281096490e-01	 1.0098519257e+00	-3.8603876494e+00
 4.6837974454e-01	 9.7576037232e-01	-2.2693952647e+00
 4.5912530704e-01	 9.8014888752e-01	-2.4266412956e+00
 4.4984519554e-01	 9.8444257797e-01	-2.5834809539e+00
 4.4054081755e-01	 9.8864132897e-01	-2.7397491998e+00
 4.3121357771e-01	 9.9274505271e-01	-2.8952864293e+00
 4.2186487715e-01	 9.9675368808e-01	-3.0499384513e+00
 4.1249611293e-01	 1.0006672005e+00	-3.2035564251e+00
 4.0310867738e-01	 1.0044855815e+00	-3.3559967616e+00
 3.9370395754e-01	 1.0082088489e+00	-3.5071209895e+00
 3.8428333460e-01	 1.0118370462e+00	-3.6567955893e+00
 3.7484818329e-01	 1.0153702422e+00	-3.8048917969e+00
 4.7092528663e-01	 9.8106341782e-01	-2.2755726003e+00
 4.6162055327e-01	 9.8547578365e-01	-2.4268177101e+00
 4.5229000639e-01	 9.8979280937e-01	-2.5776458885e+00
 4.4293506112e-01	 9.9401437967e-01	-2.7278948549e+00
 4.3355712976e-01	 9.9814040625e-01	-2.8774074544e+00
 4.2415762105e-01	 1.0021708277e+00	-3.0260316378e+00
 4.1473793963e-01	 1.0061056092e+00	-3.1736204004e+00
 4.0529948540e-01	 1.0099447423e+00	-3.3200316839e+00
 3.9584365296e-01	 1.0136882449e+00	-3.4651282427e+00
 3.8637183099e-01	 1.0173361606e+00	-3.6087774771e+00
 3.7688540168e-01	 1.0208885587e+00	-3.7508512361e+00
 4.7347082872e-01	 9.8636646332e-01	-2.2810012946e+00
 4.6411579951e-01	 9.9080267978e-01	-2.4264875442e+00
 4.5473481723e-01	 9.9514304078e-01	-2.5715438461e+00
 4.4532930470e-01	 9.9938743037e-01	-2.7160093088e+00
 4.3590068181e-01	 1.0035357598e+00	-2.8597277658e+00
 4.2645036495e-01	 1.0075879673e+00	-3.0025477603e+00
 4.1697976633e-01	 1.0115440179e+00	-3.1443224891e+00
 4.0749029343e-01	 1.0154039031e+00	-3.2849097089e+00
 3.9798334838e-01	 1.0191676408e+00	-3.4241716055e+00
 3.8846032737e-01	 1.0228352749e+00	-3.5619746299e+00
 3.7892262007e-01	 1.0264068753e+00	-3.6981893033e+00
 4.7601637081e-01	 9.9166950882e-01	-2.2856461791e+00
 4.6661104574e-01	 9.9612957590e-01	-2.4256189521e+00
 4.5717962808e-01	 1.0004932722e+00	-2.5651446129e+00
 4.4772354827e-01	 1.0047604811e+00	-2.7040623226e+00
 4.3824423386e-01	 1.0089311133e+00	-2.8422154757e+00
 4.2874310884e-01	 1.0130051069e+00	-2.9794516932e+00
 4.1922159303e-01	 1.0169824266e+00	-3.1156227757e+00
 4.0968110146e-01	 1.0208630638e+00	-3.2505846156e+00
 4.0012304381e-01	 1.0246470367e+00	-3.3841970741e+00
 3.9054882375e-01	 1.0283343893e+00	-3.5163238231e+00
 3.8095983845e-01	 1.0319251918e+00	-3.6468321555e+00
 4.7856191290e-01	 9.9697255432e-01	-2.2894746012e+00
 4.6910629197e-01	 1.0014564720e+00	-2.4241824841e+00
 4.5962443892e-01	 1.0058435036e+00	-2.5584202862e+00
 4.5011779185e-01	 1.0101335318e+00	-2.6920259161e+00
 4.4058778592e-01	 1.0143264669e+00	-2.8248409351e+00
 4.3103585274e-01	 1.0184222465e+00	-2.9567105623e+00
 4.2146341973e-01	 1.0224208353e+00	-3.0874836389e+00
 4.1187190949e-01	 1.0263222246e+00	-3.2170125512e+00
 4.0226273923e-01	 1.0301264326e+00	-3.3451531170e+00
 3.9263732014e-01	 1.0338335037e+00	-3.4717644377e+00
 3.8299705684e-01	 1.0374435083e+00	-3.5967087167e+00
 4.8110745499e-01	 1.0022755998e+00	-2.2924563833e+00
 4.7160153821e-01	 1.0067833682e+00	-2.4221510500e+00
 4.6206924977e-01	 1.0111937350e+00	-2.5513452391e+00
 4.5251203542e-01	 1.0155065825e+00	-2.6798743335e+00
 4.4293133797e-01	 1.0197218204e+00	-2.8075766999e+00
 4.3332859664e-01	 1.0238393861e+00	-2.9342937093e+00
 4.2370524643e-01	 1.0278592440e+00	-3.0598697156e+00
 4.1406271752e-01	 1.0317813854e+00	-3.1841519922e+00
 4.0440243465e-01	 1.0356058285e+00	-3.3069906325e+00
 3.9472581652e-01	 1.0393326181e+00	-3.4282384130e+00
 3.8503427523e-01	 1.0429618249e+00	-3.5477506259e+00
 4.8365299708e-01	 1.0075786453e+00	-2.2945637846e+00
 4.7409678444e-01	 1.0121102643e+00	-2.4194998824e+00
 4.6451406061e-01	 1.0165439664e+00	-2.5438960861e+00
 4.5490627899e-01	 1.0208796332e+00	-2.6675840103e+00
 4.4527489002e-01	 1.0251171740e+00	-2.7903974977e+00
 4.3562134054e-01	 1.0292565257e+00	-2.9121726582e+00
 4.2594707313e-01	 1.0332976527e+00	-3.0327478644e+00
 4.1625352555e-01	 1.0372405461e+00	-3.1519637064e+00
 4.0654213007e-01	 1.0410852245e+00	-3.2696629069e+00
 3.9681431290e-01	 1.0448317325e+00	-3.3856902018e+00
 3.8707149362e-01	 1.0484801414e+00	-3.4998921872e+00
 3.6669930974e-01	 9.9329697607e-01	-4.0364170802e+00
 3.5745639588e-01	 9.9666051967e-01	-4.2083200606e+00
 3.4820193811e-01	 9.9993133601e-01	-4.3776669799e+00
 3.3893725913e-01	 1.0031095657e+00	-4.5443076498e+00
 3.2966367325e-01	 1.0061953732e+00	-4.7080984622e+00
 3.2038248584e-01	 1.0091889462e+00	-4.8689021376e+00
 3.1109499287e-01	 1.0120904959e+00	-5.0265874566e+00
 3.0180248045e-01	 1.0149002558e+00	-5.1810289781e+00
 2.9250622431e-01	 1.0176184821e+00	-5.3321067467e+00
 2.8320748944e-01	 1.0202454530e+00	-5.4797059907e+00
 2.7390752957e-01	 1.0227814682e+00	-5.6237168150e+00
 3.6873652813e-01	 9.9881529260e-01	-3.9760663212e+00
 3.5944226475e-01	 1.0021975226e+00	-4.1412576908e+00
 3.5013639332e-01	 1.0054865101e+00	-4.3039848461e+00
 3.4082024390e-01	 1.0086823966e+00	-4.4640998084e+00
 3.3149513810e-01	 1.0117853475e+00	-4.6214612713e+00
 3.2216238854e-01	 1.0147955515e+00	-4.7759343368e+00
 3.1282329839e-01	 1.0177132209e+00	-4.9273902353e+00
 3.0347916089e-01	 1.0205385906e+00	-5.0757060316e+00
 2.9413125889e-01	 1.0232719181e+00	-5.2207643195e+00
 2.8478086438e-01	 1.0259134833e+00	-5.3624529075e+00
 2.7542923807e-01	 1.0284635875e+00	-5.5006644983e+00
 3.7077374652e-01	 1.0043336091e+00	-3.9174183330e+00
 3.6142813362e-01	 1.0077345254e+00	-4.0760952969e+00
 3.5207084853e-01	 1.0110416842e+00	-4.2323919876e+00
 3.4270322868e-01	 1.0142552275e+00	-4.3861647775e+00
 3.3332660295e-01	 1.0173753218e+00	-4.5372767376e+00
 3.2394229124e-01	 1.0204021567e+00	-4.6855973604e+00
 3.1455160390e-01	 1.0233359458e+00	-4.8310022662e+00
 3.0515584134e-01	 1.0261769253e+00	-4.9733728945e+00
 2.9575629347e-01	 1.0289253542e+00	-5.1125961843e+00
 2.8635423932e-01	 1.0315815136e+00	-5.2485642456e+00
 2.7695094656e-01	 1.0341457067e+00	-5.3811740241e+00
 3.7281096490e-01	 1.0098519257e+00	-3.8603876494e+00
 3.6341400248e-01	 1.0132715283e+00	-4.0127349486e+00
 3.5400530374e-01	 1.0165968583e+00	-4.1627771889e+00
 3.4458621345e-01	 1.0198280585e+00	-4.3103772060e+00
 3.3515806780e-01	 1.0229652960e+00	-4.4554044969e+00
 3.2572219393e-01	 1.0260087620e+00	-4.5977349271e+00
 3.1627990942e-01	 1.0289586708e+00	-4.7372504207e+00
 3.0683252179e-01	 1.0318152601e+00	-4.8738386357e+00
 2.9738132805e-01	 1.0345787902e+00	-5.0073926284e+00
 2.8792761426e-01	 1.0372495439e+00	-5.1378105085e+00
 2.7847265506e-01	 1.0398278260e+00	-5.2649950875e+00
 3.7484818329e-01	 1.0153702422e+00	-3.8048917969e+00
 3.6539987135e-01	 1.0188085312e+00	-3.9510819155e+00
 3.5593975896e-01	 1.0221520324e+00	-4.0950326582e+00
 3.4646919822e-01	 1.0254008894e+00	-4.2366154087e+00
 3.3698953265e-01	 1.0285552703e+00	-4.3757081115e+00
 3.2750209663e-01	 1.0316153673e+00	-4.5121949616e+00
 3.1800821493e-01	 1.0345813958e+00	-4.6459660756e+00
 3.0850920223e-01	 1.0374535948e+00	-4.7769171502e+00
 2.9900636263e-01	 1.0402322262e+00	-4.9049491073e+00
 2.8950098921e-01	 1.0429175742e+00	-5.0299677320e+00
 2.7999436356e-01	 1.0455099453e+00	-5.1518833030e+00
 3.7688540168e-01	 1.0208885587e+00	-3.7508512361e+00
 3.6738574021e-01	 1.0243455341e+00	-3.8910446016e+00
 3.5787421417e-01	 1.0277072065e+00	-4.0290539551e+00
 3.4835218300e-01	 1.0309737203e+00	-4.1647612860e+00
 3.3882099751e-01	 1.0341452446e+00	-4.2980549820e+00
 3.2928199933e-01	 1.0372219725e+00	-4.4288294982e+00
 3.1973652045e-01	 1.0402041208e+00	-4.5569850087e+00
 3.1018588268e-01	 1.0430919296e+00	-4.6824270449e+00
 3.0063139721e-01	 1.0458856622e+00	-4.8050661204e+00
 2.9107436415e-01	 1.0485856045e+00	-4.9248173495e+00
 2.8151607206e-01	 1.0511920645e+00	-5.0416000587e+00
 3.7892262007e-01	 1.0264068753e+00	-3.6981893033e+00
 3.6937160908e-01	 1.0298825370e+00	-3.8325344813e+00
 3.5980866938e-01	 1.0332623805e+00	-3.9647399205e+00
 3.5023516777e-01	 1.0365465512e+00	-4.0947002474e+00
 3.4065246236e-01	 1.0397352189e+00	-4.2223162627e+00
 3.3106190203e-01	 1.0428285778e+00	-4.3474945882e+00
 3.2146482597e-01	 1.0458268457e+00	-4.4701472970e+00
 3.1186256313e-01	 1.0487302643e+00	-4.5901915279e+00
 3.0225643179e-01	 1.0515390982e+00	-4.7075490906e+00
 2.9264773909e-01	 1.0542536348e+00	-4.8221460613e+00
 2.8303778055e-01	 1.0568741838e+00	-4.9339123743e+00
 3.8095983845e-01	 1.0319251918e+00	-3.6468321555e+00
 3.7135747795e-01	 1.0354195399e+00	-3.7754660385e+00
 3.6174312459e-01	 1.0388175546e+00	-3.9019926089e+00
 3.5211815254e-01	 1.0421193821e+00	-4.0263211361e+00
 3.4248392721e-01	 1.0453251932e+00	-4.1483667795e+00
 3.3284180473e-01	 1.0484351830e+00	-4.2680502105e+00
 3.2319313148e-01	 1.0514495707e+00	-4.3852972185e+00
 3.1353924357e-01	 1.0543685991e+00	-4.5000383017e+00
 3.0388146637e-01	 1.0571925342e+00	-4.6122082481e+00
 2.9422111403e-01	 1.0599216651e+00	-4.7217457084e+00
 2.8455948905e-01	 1.0625563031e+00	-4.8285927647e+00
 3.8299705684e-01	 1.0374435083e+00	-3.5967087167e+00
 3.7334334681e-01	 1.0409565428e+00	-3.7197567066e+00
 3.6367757980e-01	 1.0443727287e+00	-3.8407172224e+00
 3.5400113732e-01	 1.0476922131e+00	-3.9595161576e+00
 3.4431539206e-01	 1.0509151675e+00	-4.0760849513e+00
 3.3462170743e-01	 1.0540417883e+00	-4.1903601843e+00
 3.2492143700e-01	 1.0570722957e+00	-4.3022831581e+00
 3.1521592402e-01	 1.0600069338e+00	-4.4117994598e+00
 3.0550650095e-01	 1.0628459702e+00	-4.5188585179e+00
 2.9579448897e-01	 1.0655896954e+00	-4.6234131500e+00
 2.8608119755e-01	 1.0682384223e+00	-4.7254191073e+00
 3.8503427523e-01	 1.0429618249e+00	-3.5477506259e+00
 3.7532921568e-01	 1.0464935457e+00	-3.6653268118e+00
 3.6561203501e-01	 1.0499279028e+00	-3.7808220482e+00
 3.5588412209e-01	 1.0532650440e+00	-3.8941808095e+00
 3.4614685691e-01	 1.0565051418e+00	-4.0053527129e+00
 3.3640161013e-01	 1.0596483935e+00	-4.1142920856e+00
 3.2664974251e-01	 1.0626950207e+00	-4.2209575152e+00
 3.1689260447e-01	 1.0656452686e+00	-4.3253113868e+00
 3.0713153553e-01	 1.0684994062e+00	-4.4273194111e+00
 2.9736786391e-01	 1.0712577256e+00	-4.5269501458e+00
 2.8760290605e-01	 1.0739205416e+00	-4.6241745142e+00
 3.8707149362e-01	 1.0484801414e+00	-3.4998921872e+00
 3.7731508454e-01	 1.0520305485e+00	-3.6120995174e+00
 3.6754649023e-01	 1.0554830769e+00	-3.7222183970e+00
 3.5776710686e-01	 1.0588378749e+00	-3.8302138147e+00
 3.4797832176e-01	 1.0620951161e+00	-3.9360554415e+00
 3.3818151283e-01	 1.0652549988e+00	-4.0397171663e+00
 3.2837804803e-01	 1.0683177456e+00	-4.1411766158e+00
 3.1856928491e-01	 1.0712836033e+00	-4.2404146617e+00
 3.0875657011e-01	 1.0741528422e+00	-4.3374149194e+00
 2.9894123885e-01	 1.0769257559e+00	-4.4321632414e+00
 2.8912461454e-01	 1.0796026609e+00	-4.5246472079e+00
 2.7390752957e-01	 1.0227814682e+00	-5.6237168150e+00
 2.6460758679e-01	 1.0252268488e+00	-5.7640072681e+00
 2.5530889115e-01	 1.0275819367e+00	-5.9004395604e+00
 2.4601266025e-01	 1.0298470942e+00	-6.0329019451e+00
 2.3672009884e-01	 1.0320227038e+00	-6.1612870306e+00
 2.2743239851e-01	 1.0341091676e+00	-6.2854915007e+00
 2.1815073729e-01	 1.0361069068e+00	-6.4054158411e+00
 2.0887627933e-01	 1.0380163613e+00	-6.5209640728e+00
 1.9961017457e-01	 1.0398379896e+00	-6.6320434939e+00
 1.9035355845e-01	 1.0415722679e+00	-6.7385644332e+00
 1.8110755158e-01	 1.0432196898e+00	-6.8404400136e+00
 2.7542923807e-01	 1.0284635875e+00	-5.5006644983e+00
 2.6607762894e-01	 1.0309225535e+00	-5.6352700780e+00
 2.5672727388e-01	 1.0332907252e+00	-5.7661385510e+00
 2.4737939725e-01	 1.0355684669e+00	-5.8931655952e+00
 2.3803521050e-01	 1.0377561633e+00	-6.0162501594e+00
 2.2869591184e-01	 1.0398542185e+00	-6.1352941856e+00
 2.1936268584e-01	 1.0418630563e+00	-6.2502023393e+00
 2.1003670311e-01	 1.0437831189e+00	-6.3608817470e+00
 2.0071911999e-01	 1.0456148673e+00	-6.4672417451e+00
 1.9141107821e-01	 1.0473587805e+00	-6.5691936405e+00
 1.8211370464e-01	 1.0490153547e+00	-6.6666504840e+00
 2.7695094656e-01	 1.0341457067e+00	-5.3811740241e+00
 2.6754767109e-01	 1.0366182582e+00	-5.5102930744e+00
 2.5814565661e-01	 1.0389995137e+00	-5.6357891886e+00
 2.4874613425e-01	 1.0412898397e+00	-5.7575650169e+00
 2.3935032216e-01	 1.0434896228e+00	-5.8755255470e+00
 2.2995942516e-01	 1.0455992695e+00	-5.9895778268e+00
 2.2057463438e-01	 1.0476192057e+00	-6.0996306934e+00
 2.1119712688e-01	 1.0495498764e+00	-6.2055945138e+00
 2.0182806540e-01	 1.0513917451e+00	-6.3073809357e+00
 1.9246859798e-01	 1.0531452931e+00	-6.4049026528e+00
 1.8311985770e-01	 1.0548110197e+00	-6.4980731838e+00
 2.7847265506e-01	 1.0398278260e+00	-5.2649950875e+00
 2.6901771324e-01	 1.0423139629e+00	-5.3888059153e+00
 2.5956403934e-01	 1.0447083023e+00	-5.5091036807e+00
 2.5011287125e-01	 1.0470112124e+00	-5.6257975575e+00
 2.4066543382e-01	 1.0492230822e+00	-5.7387982741e+00
 2.3122293849e-01	 1.0513443204e+00	-5.8480178318e+00
 2.2178658292e-01	 1.0533753552e+00	-5.9533692317e+00
 2.1235755065e-01	 1.0553166340e+00	-6.0547662127e+00
 2.0293701081e-01	 1.0571686228e+00	-6.1521230031e+00
 1.9352611775e-01	 1.0589318057e+00	-6.2453540860e+00
 1.8412601077e-01	 1.0606066846e+00	-6.3343739805e+00
 2.7999436356e-01	 1.0455099453e+00	-5.1518833030e+00
 2.7048775539e-01	 1.0480096676e+00	-5.2705445498e+00
 2.6098242207e-01	 1.0504170908e+00	-5.3858008415e+00
 2.5147960825e-01	 1.0527325852e+00	-5.4975674318e+00
 2.4198054548e-01	 1.0549565417e+00	-5.6057604940e+00
 2.3248645181e-01	 1.0570893713e+00	-5.7102968321e+00
 2.2299853146e-01	 1.0591315047e+00	-5.8110936019e+00
 2.1351797443e-01	 1.0610833916e+00	-5.9080680444e+00
 2.0404595623e-01	 1.0629455005e+00	-6.0011372332e+00
 1.9458363752e-01	 1.0647183183e+00	-6.0902178377e+00
 1.8513216383e-01	 1.0664023496e+00	-6.1752259030e+00
 2.8151607206e-01	 1.0511920645e+00	-5.0416000587e+00
 2.7195779754e-01	 1.0537053724e+00	-5.1552510606e+00
 2.6240080480e-01	 1.0561258793e+00	-5.2656059254e+00
 2.5284634525e-01	 1.0584539579e+00	-5.3725855476e+00
 2.4329565714e-01	 1.0606900012e+00	-5.4761112525e+00
 2.3374996514e-01	 1.0628344223e+00	-5.5761044971e+00
 2.2421048000e-01	 1.0648876542e+00	-5.6724865828e+00
 2.1467839820e-01	 1.0668501491e+00	-5.7651783799e+00
 2.0515490164e-01	 1.0687223782e+00	-5.8541000691e+00
 1.9564115729e-01	 1.0705048309e+00	-5.9391708975e+00
 1.8613831690e-01	 1.0721980145e+00	-6.0203089546e+00
 2.8303778055e-01	 1.0568741838e+00	-4.9339123743e+00
 2.7342783968e-01	 1.0594010771e+00	-5.0426735119e+00
 2.6381918752e-01	 1.0618346679e+00	-5.1482504658e+00
 2.5421308225e-01	 1.0641753307e+00	-5.2505693369e+00
 2.4461076880e-01	 1.0664234606e+00	-5.3495563126e+00
 2.3501347846e-01	 1.0685794732e+00	-5.4451373549e+00
 2.2542242854e-01	 1.0706438037e+00	-5.5372379009e+00
 2.1583882198e-01	 1.0726169067e+00	-5.6257825763e+00
 2.0626384706e-01	 1.0744992559e+00	-5.7106949263e+00
 1.9669867706e-01	 1.0762913435e+00	-5.7918971626e+00
 1.8714446996e-01	 1.0779936795e+00	-5.8693099309e+00
 2.8455948905e-01	 1.0625563031e+00	-4.8285927647e+00
 2.7489788183e-01	 1.0650967818e+00	-4.9325658028e+00
 2.6523757025e-01	 1.0675434564e+00	-5.0334721197e+00
 2.5557981926e-01	 1.0698967034e+00	-5.1312425932e+00
 2.4592588046e-01	 1.0721569201e+00	-5.2258079860e+00
 2.3627699179e-01	 1.0743245241e+00	-5.3170986186e+00
 2.2663437708e-01	 1.0763999531e+00	-5.4050440541e+00
 2.1699924575e-01	 1.0783836643e+00	-5.4895727977e+00
 2.0737279247e-01	 1.0802761337e+00	-5.5706120137e+00
 1.9775619683e-01	 1.0820778561e+00	-5.6480872602e+00
 1.8815062303e-01	 1.0837893444e+00	-5.7219222445e+00
 2.8608119755e-01	 1.0682384223e+00	-4.7254191073e+00
 2.7636792398e-01	 1.0707924865e+00	-4.8246875246e+00
 2.6665595298e-01	 1.0732522449e+00	-4.9210145166e+00
 2.5694655626e-01	 1.0756180762e+00	-5.0143353131e+00
 2.4724099212e-01	 1.0778903796e+00	-5.1045849690e+00
 2.3754050511e-01	 1.0800695751e+00	-5.1916980182e+00
 2.2784632562e-01	 1.0821561026e+00	-5.2756081402e+00
 2.1815966952e-01	 1.0841504218e+00	-5.3562478425e+00
 2.0848173789e-01	 1.0860530114e+00	-5.4335481603e+00
 1.9881371660e-01	 1.0878643687e+00	-5.5074383750e+00
 1.8915677609e-01	 1.0895850094e+00	-5.5778457551e+00
 2.8760290605e-01	 1.0739205416e+00	-4.6241745142e+00
 2.7783796613e-01	 1.0764881912e+00	-4.7188038234e+00
 2.6807433571e-01	 1.0789610335e+00	-4.8106271126e+00
 2.5831329326e-01	 1.0813394489e+00	-4.8995835439e+00
 2.4855610378e-01	 1.0836238390e+00	-4.9856121843e+00
 2.3880401844e-01	 1.0858146260e+00	-5.0686516379e+00
 2.2905827416e-01	 1.0879122521e+00	-5.1486396915e+00
 2.1932009330e-01	 1.0899171794e+00	-5.2255129764e+00
 2.0959068330e-01	 1.0918298891e+00	-5.2992066473e+00
 1.9987123637e-01	 1.0936508813e+00	-5.3696540826e+00
 1.9016292915e-01	 1.0953806743e+00	-5.4367866049e+00
 2.8912461454e-01	 1.0796026609e+00	-4.5246472079e+00
 2.7930800828e-01	 1.0821838959e+00	-4.6146852669e+00
 2.6949271844e-01	 1.0846698220e+00	-4.7020650497e+00
 2.5968003026e-01	 1.0870608217e+00	-4.7867292358e+00
 2.4987121544e-01	 1.0893572985e+00	-4.8686206277e+00
 2.4006753177e-01	 1.0915596769e+00	-4.9476817588e+00
 2.3027022270e-01	 1.0936684016e+00	-5.0238545146e+00
 2.2048051707e-01	 1.0956839369e+00	-5.0970797702e+00
 2.1069962871e-01	 1.0976067668e+00	-5.1672970466e+00
 2.0092875614e-01	 1.0994373939e+00	-5.2344441878e+00
 1.9116908222e-01	 1.1011763392e+00	-5.2984570595e+00
 1.8110755158e-01	 1.0432196898e+00	-6.8404400136e+00
 1.7187325950e-01	 1.0447807660e+00	-6.9375237524e+00
 1.6265177240e-01	 1.0462560238e+00	-7.0297113566e+00
 1.5344416485e-01	 1.0476460064e+00	-7.1169829061e+00
 1.4425149559e-01	 1.0489512727e+00	-7.1993205740e+00
 1.3507480729e-01	 1.0501723967e+00	-7.2767084091e+00
 1.2591512635e-01	 1.0513099673e+00	-7.3491321371e+00
 1.1677346270e-01	 1.0523645874e+00	-7.4165789813e+00
 1.0765080961e-01	 1.0533368738e+00	-7.4790375036e+00
 9.8548143555e-02	 1.0542274564e+00	-7.5364974658e+00
 8.9466424020e-02	 1.0550369782e+00	-7.5889497115e+00
 1.8211370464e-01	 1.0490153547e+00	-6.6666504840e+00
 1.7282811094e-01	 1.0505851036e+00	-6.7594765305e+00
 1.6355539335e-01	 1.0520685573e+00	-6.8475851388e+00
 1.5429663243e-01	 1.0534662620e+00	-6.9309655226e+00
 1.4505289279e-01	 1.0547787798e+00	-7.0096084693e+00
 1.3582522289e-01	 1.0560066878e+00	-7.0835061124e+00
 1.2661465483e-01	 1.0571505783e+00	-7.1526517231e+00
 1.1742220416e-01	 1.0582110573e+00	-7.2170395244e+00
 1.0824886967e-01	 1.0591887453e+00	-7.2766645254e+00
 9.9095633242e-02	 1.0600842756e+00	-7.3315223785e+00
 8.9963459709e-02	 1.0608982948e+00	-7.3816092574e+00
 1.8311985770e-01	 1.0548110197e+00	-6.4980731838e+00
 1.7378296238e-01	 1.0563894412e+00	-6.5867728923e+00
 1.6445901431e-01	 1.0578810907e+00	-6.6709367318e+00
 1.5514910001e-01	 1.0592865176e+00	-6.7505615276e+00
 1.4585428998e-01	 1.0606062868e+00	-6.8256451385e+00
 1.3657563848e-01	 1.0618409789e+00	-6.8961862203e+00
 1.2731418331e-01	 1.0629911892e+00	-6.9621840113e+00
 1.1807094562e-01	 1.0640575273e+00	-7.0236381404e+00
 1.0884692972e-01	 1.0650406168e+00	-7.0805484579e+00
 9.9643122928e-02	 1.0659410948e+00	-7.1329148898e+00
 9.0460495398e-02	 1.0667596113e+00	-7.1807373149e+00
 1.8412601077e-01	 1.0606066846e+00	-6.3343739805e+00
 1.7473781382e-01	 1.0621937788e+00	-6.4190829850e+00
 1.6536263527e-01	 1.0636936242e+00	-6.4994400742e+00
 1.5600156760e-01	 1.0651067732e+00	-6.5754481977e+00
 1.4665568718e-01	 1.0664337939e+00	-6.6471107765e+00
 1.3732605408e-01	 1.0676752700e+00	-6.7144314608e+00
 1.2801371179e-01	 1.0688318001e+00	-6.7774139111e+00
 1.1871968708e-01	 1.0699039972e+00	-6.8360616023e+00
 1.0944498977e-01	 1.0708924883e+00	-6.8903776531e+00
 1.0019061261e-01	 1.0717979140e+00	-6.9403646794e+00
 9.0957531087e-02	 1.0726209279e+00	-6.9860246726e+00
 1.8513216383e-01	 1.0664023496e+00	-6.1752259030e+00
 1.7569266526e-01	 1.0679981164e+00	-6.2560839769e+00
 1.6626625623e-01	 1.0695061577e+00	-6.3327759993e+00
 1.5685403518e-01	 1.0709270288e+00	-6.4053095897e+00
 1.4745708438e-01	 1.0722613010e+00	-6.4736922563e+00
 1.3807646968e-01	 1.0735095611e+00	-6.5379311494e+00
 1.2871324027e-01	 1.0746724110e+00	-6.5980328395e+00
 1.1936842854e-01	 1.0757504671e+00	-6.6540031209e+00
 1.1004304983e-01	 1.0767443598e+00	-6.7058468406e+00
 1.0073810230e-01	 1.0776547332e+00	-6.7535677533e+00
 9.1454566776e-02	 1.0784822444e+00	-6.7971684026e+00
 1.8613831690e-01	 1.0721980145e+00	-6.0203089546e+00
 1.7664751671e-01	 1.0738024540e+00	-6.0974598738e+00
 1.6716987719e-01	 1.0753186911e+00	-6.1706320532e+00
 1.5770650276e-01	 1.0767472843e+00	-6.2398363618e+00
 1.4825848158e-01	 1.0780888080e+00	-6.3050829524e+00
 1.3882688527e-01	 1.0793438522e+00	-6.3663810137e+00
 1.2941276875e-01	 1.0805130220e+00	-6.4237385474e+00
 1.2001717000e-01	 1.0815969371e+00	-6.4771621726e+00
 1.1064110988e-01	 1.0825962314e+00	-6.5266569567e+00
 1.0128559199e-01	 1.0835115524e+00	-6.5722262740e+00
 9.1951602465e-02	 1.0843435609e+00	-6.6138716918e+00
 1.8714446996e-01	 1.0779936795e+00	-5.8693099309e+00
 1.7760236815e-01	 1.0796067916e+00	-5.9429013398e+00
 1.6807349814e-01	 1.0811312246e+00	-6.0127023196e+00
 1.5855897034e-01	 1.0825675399e+00	-6.0787256000e+00
 1.4905987878e-01	 1.0839163151e+00	-6.1409825692e+00
 1.3957730087e-01	 1.0851781433e+00	-6.1994830245e+00
 1.3011229723e-01	 1.0863536329e+00	-6.2542349521e+00
 1.2066591145e-01	 1.0874434070e+00	-6.3052443331e+00
 1.1123916993e-01	 1.0884481029e+00	-6.3525149792e+00
 1.0183308167e-01	 1.0893683716e+00	-6.3960483965e+00
 9.2448638154e-02	 1.0902048775e+00	-6.4358436779e+00
 1.8815062303e-01	 1.0837893444e+00	-5.7219222445e+00
 1.7855721959e-01	 1.0854111292e+00	-5.7921055251e+00
 1.6897711910e-01	 1.0869437581e+00	-5.8586872488e+00
 1.5941143793e-01	 1.0883877955e+00	-5.9216806504e+00
 1.4986127597e-01	 1.0897438222e+00	-5.9810969749e+00
 1.4032771646e-01	 1.0910124344e+00	-6.0369452314e+00
 1.3081182571e-01	 1.0921942438e+00	-6.0892319744e+00
 1.2131465291e-01	 1.0932898769e+00	-6.1379611162e+00
 1.1183722999e-01	 1.0942999744e+00	-6.1831337675e+00
 1.0238057136e-01	 1.0952251908e+00	-6.2247481086e+00
 9.2945673843e-02	 1.0960661940e+00	-6.2627992912e+00
 1.8915677609e-01	 1.0895850094e+00	-5.5778457551e+00
 1.7951207103e-01	 1.0912154668e+00	-5.6447758985e+00
 1.6988074006e-01	 1.0927562915e+00	-5.7082934939e+00
 1.6026390551e-01	 1.0942080511e+00	-5.7684109565e+00
 1.5066267317e-01	 1.0955713292e+00	-5.8251380420e+00
 1.4107813206e-01	 1.0968467255e+00	-5.8784816041e+00
 1.3151135419e-01	 1.0980348548e+00	-5.9284453819e+00
 1.2196339437e-01	 1.0991363469e+00	-5.9750298179e+00
 1.1243529004e-01	 1.1001518459e+00	-6.0182319071e+00
 1.0292806105e-01	 1.1010820100e+00	-6.0580450774e+00
 9.3442709532e-02	 1.1019275106e+00	-6.0944591014e+00
 1.9016292915e-01	 1.0953806743e+00	-5.4367866049e+00
 1.8046692247e-01	 1.0970198044e+00	-5.5006220858e+00
 1.7078436102e-01	 1.0985688250e+00	-5.5612337512e+00
 1.6111637309e-01	 1.1000283067e+00	-5.6186319026e+00
 1.5146407037e-01	 1.1013988363e+00	-5.6728234910e+00
 1.4182854766e-01	 1.1026810166e+00	-5.7238118790e+00
 1.3221088267e-01	 1.1038754657e+00	-5.7715966363e+00
 1.2261213583e-01	 1.1049828168e+00	-5.8161733652e+00
 1.1303335009e-01	 1.1060037174e+00	-5.8575335604e+00
 1.0347555073e-01	 1.1069388292e+00	-5.8956644997e+00
 9.3939745221e-02	 1.1077888271e+00	-5.9305491692e+00
 1.9116908222e-01	 1.1011763392e+00	-5.2984570595e+00
 1.8142177391e-01	 1.1028241419e+00	-5.3593597134e+00
 1.7168798197e-01	 1.1043813585e+00	-5.4172266055e+00
 1.6196884067e-01	 1.1058485623e+00	-5.4720646611e+00
 1.5226546757e-01	 1.1072263434e+00	-5.5238767406e+00
 1.4257896325e-01	 1.1085153077e+00	-5.5726614105e+00
 1.3291041115e-01	 1.1097160766e+00	-5.6184127464e+00
 1.2326087729e-01	 1.1108292867e+00	-5.6611201703e+00
 1.1363141015e-01	 1.1118555890e+00	-5.7007683209e+00
 1.0402304042e-01	 1.1127956484e+00	-5.7373369584e+00
 9.4436780910e-02	 1.1136501437e+00	-5.7708009025e+00
 8.9466424020e-02	 1.0550369782e+00	-7.5889497115e+00
 8.0406593386e-02	 1.0557660944e+00	-7.6363320266e+00
 7.1369576798e-02	 1.0564154722e+00	-7.6786021177e+00
 6.2356282047e-02	 1.0569857901e+00	-7.7157812842e+00
 5.3367599471e-02	 1.0574777377e+00	-7.7478905690e+00
 4.4404401869e-02	 1.0578920151e+00	-7.7749507508e+00
 3.5467544421e-02	 1.0582293323e+00	-7.7969823557e+00
 2.6557864629e-02	 1.0584904091e+00	-7.8140056886e+00
 1.7676182262e-02	 1.0586759745e+00	-7.8260408832e+00
 8.8232993196e-03	 1.0587867660e+00	-7.8331079696e+00
 0.0000000000e+00	 1.0588235294e+00	-7.8352269592e+00
 8.9963459709e-02	 1.0608982948e+00	-7.3816092574e+00
 8.0853296683e-02	 1.0616314616e+00	-7.4268593694e+00
 7.1766074447e-02	 1.0622844471e+00	-7.4672236614e+00
 6.2702705836e-02	 1.0628579334e+00	-7.5027231979e+00
 5.3664086135e-02	 1.0633526140e+00	-7.5333782963e+00
 4.4651092990e-02	 1.0637691929e+00	-7.5592085255e+00
 3.5664586334e-02	 1.0641083841e+00	-7.5802327258e+00
 2.6705408321e-02	 1.0643709114e+00	-7.5964690484e+00
 1.7774383275e-02	 1.0645575077e+00	-7.6079350160e+00
 8.8723176491e-03	 1.0646689147e+00	-7.6146476007e+00
 0.0000000000e+00	 1.0647058824e+00	-7.6166233210e+00
 9.0460495398e-02	 1.0667596113e+00	-7.1807373149e+00
 8.1299999979e-02	 1.0674968288e+00	-7.2239452358e+00
 7.2162572096e-02	 1.0681534219e+00	-7.2624833129e+00
 6.3049129625e-02	 1.0687300767e+00	-7.2963731174e+00
 5.3960572798e-02	 1.0692274904e+00	-7.3256349461e+00
 4.4897784112e-02	 1.0696463708e+00	-7.3502878260e+00
 3.5861628248e-02	 1.0699874360e+00	-7.3703495426e+00
 2.6852952014e-02	 1.0702514137e+00	-7.3858366882e+00
 1.7872584288e-02	 1.0704390409e+00	-7.3967647317e+00
 8.9213359787e-03	 1.0705510634e+00	-7.4031481085e+00
 0.0000000000e+00	 1.0705882353e+00	-7.4050003289e+00
 9.0957531087e-02	 1.0726209279e+00	-6.9860246726e+00
 8.1746703276e-02	 1.0733621960e+00	-7.0272813187e+00
 7.2559069745e-02	 1.0740223968e+00	-7.0640734528e+00
 6.3395553414e-02	 1.0746022200e+00	-7.0964238865e+00
 5.4257059462e-02	 1.0751023667e+00	-7.1243535935e+00
 4.5144475233e-02	 1.0755235486e+00	-7.1478817199e+00
 3.6058670161e-02	 1.0758664878e+00	-7.1670256204e+00
 2.7000495706e-02	 1.0761319160e+00	-7.1818009155e+00
 1.7970785300e-02	 1.0763205741e+00	-7.1922215713e+00
 8.9703543082e-03	 1.0764332121e+00	-7.1983000005e+00
 0.0000000000e+00	 1.0764705882e+00	-7.2000471828e+00
 9.1454566776e-02	 1.0784822444e+00	-6.7971684026e+00
 8.2193406573e-02	 1.0792275632e+00	-6.8365655602e+00
 7.2955567393e-02	 1.0798913716e+00	-6.8716926842e+00
 6.3741977203e-02	 1.0804743632e+00	-6.9025745541e+00
 5.4553546126e-02	 1.0809772430e+00	-6.9292335104e+00
 4.5391166355e-02	 1.0814007265e+00	-6.9516894724e+00
 3.6255712075e-02	 1.0817455397e+00	-6.9699599809e+00
 2.7148039399e-02	 1.0820124182e+00	-6.9840602652e+00
 1.8068986313e-02	 1.0822021073e+00	-6.9940033324e+00
 9.0193726378e-03	 1.0823153608e+00	-6.9998000798e+00
 0.0000000000e+00	 1.0823529412e+00	-7.0014594278e+00
 9.1951602465e-02	 1.0843435609e+00	-6.6138716918e+00
 8.2640109869e-02	 1.0850929304e+00	-6.6515019828e+00
 7.3352065042e-02	 1.0857603464e+00	-6.6850456654e+00
 6.4088400992e-02	 1.0863465065e+00	-6.7145302067e+00
 5.4850032790e-02	 1.0868521193e+00	-6.7399799979e+00
 4.5637857476e-02	 1.0872779044e+00	-6.7614163782e+00
 3.6452753988e-02	 1.0876245915e+00	-6.7788576851e+00
 2.7295583091e-02	 1.0878929205e+00	-6.7923193303e+00
 1.8167187325e-02	 1.0880836405e+00	-6.8018138993e+00
 9.0683909673e-03	 1.0881975095e+00	-6.8073512747e+00
 0.0000000000e+00	 1.0882352941e+00	-6.8089387821e+00
 9.2448638154e-02	 1.0902048775e+00	-6.4358436779e+00
 8.3086813166e-02	 1.0909582976e+00	-6.4718005266e+00
 7.3748562691e-02	 1.0916293213e+00	-6.5038429467e+00
 6.4434824782e-02	 1.0922186498e+00	-6.5320018062e+00
 5.5146519453e-02	 1.0927269956e+00	-6.5563042238e+00
 4.5884548598e-02	 1.0931550822e+00	-6.5767735993e+00
 3.6649795902e-02	 1.0935036434e+00	-6.5934296706e+00
 2.7443126783e-02	 1.0937734228e+00	-6.6062885992e+00
 1.8265388338e-02	 1.0939651737e+00	-6.6153630793e+00
 9.1174092969e-03	 1.0940796582e+00	-6.6206624737e+00
 0.0000000000e+00	 1.0941176471e+00	-6.6221929713e+00
 9.2945673843e-02	 1.0960661940e+00	-6.2627992912e+00
 8.3533516462e-02	 1.0968236648e+00	-6.2971768914e+00
 7.4145060340e-02	 1.0974982961e+00	-6.3278008132e+00
 6.4781248571e-02	 1.0980907931e+00	-6.3547060324e+00
 5.5443006117e-02	 1.0986018720e+00	-6.3779230660e+00
 4.6131239719e-02	 1.0990322601e+00	-6.3974780080e+00
 3.6846837815e-02	 1.0993826952e+00	-6.4133925944e+00
 2.7590670476e-02	 1.0996539251e+00	-6.4256842972e+00
 1.8363589350e-02	 1.0998467069e+00	-6.4343664443e+00
 9.1664276264e-03	 1.0999618069e+00	-6.4394483664e+00
 0.0000000000e+00	 1.1000000000e+00	-6.4409355677e+00
 9.3442709532e-02	 1.1019275106e+00	-6.0944591014e+00
 8.3980219759e-02	 1.1026890320e+00	-6.1273523841e+00
 7.4541557989e-02	 1.1033672710e+00	-6.1566411327e+00
 6.5127672360e-02	 1.1039629364e+00	-6.1823651317e+00
 5.5739492781e-02	 1.1044767483e+00	-6.2045589602e+00
 4.6377930841e-02	 1.1049094380e+00	-6.2232520344e+00
 3.7043879729e-02	 1.1052617471e+00	-6.2384686801e+00
 2.7738214168e-02	 1.1055344273e+00	-6.2502282343e+00
 1.8461790363e-02	 1.1057282400e+00	-6.2585451769e+00
 9.2154459560e-03	 1.1058439556e+00	-6.2634292885e+00
 0.0000000000e+00	 1.1058823529e+00	-6.2648858348e+00
 9.3939745221e-02	 1.1077888271e+00	-5.9305491692e+00
 8.4426923055e-02	 1.1085543992e+00	-5.9620537708e+00
 7.4938055638e-02	 1.1092362458e+00	-5.9900912083e+00
 6.5474096149e-02	 1.1098350796e+00	-6.0147067688e+00
 5.6035979444e-02	 1.1103516246e+00	-6.0359397526e+00
 4.6624621962e-02	 1.1107866158e+00	-6.0538235197e+00
 3.7240921642e-02	 1.1111407989e+00	-6.0683855705e+00
 2.7885757861e-02	 1.1114149296e+00	-6.0796476565e+00
 1.8559991376e-02	 1.1116097732e+00	-6.0876259217e+00
 9.2644642855e-03	 1.1117261043e+00	-6.0923310728e+00
 0.0000000000e+00	 1.1117647059e+00	-6.0937685769e+00
 9.4436780910e-02	 1.1136501437e+00	-5.7708009025e+00
 8.4873626352e-02	 1.1144197664e+00	-5.8010131337e+00
 7.5334553287e-02	 1.1151052207e+00	-5.8278836350e+00
 6.5820519938e-02	 1.1157072229e+00	-5.8514638853e+00
 5.6332466108e-02	 1.1162265009e+00	-5.8717985578e+00
 4.6871313084e-02	 1.1166637937e+00	-5.8889255729e+00
 3.7437963555e-02	 1.1170198508e+00	-5.9028761850e+00
 2.8033301553e-02	 1.1172954319e+00	-5.9136751030e+00
 1.8658192388e-02	 1.1174913064e+00	-5.9213406416e+00
 9.3134826151e-03	 1.1176082530e+00	-5.9258849040e+00
 0.0000000000e+00	 1.1176470588e+00	-5.9273139929e+00
 1.1176470588e+00	 0.0000000000e+00	 2.3999171078e+00
 1.1176082530e+00	 9.3134826151e-03	 2.4003422776e+00
 1.1174913064e+00	 1.8658192388e-02	 2.4011686972e+00
 1.1172954319e+00	 2.8033301553e-02	 2.4024910472e+00
 1.1170198508e+00	 3.7437963555e-02	 2.4043778428e+00
 1.1166637937e+00	 4.6871313084e-02	 2.4068713568e+00
 1.1162265009e+00	 5.6332466108e-02	 2.4099876417e+00
 1.1157072229e+00	 6.5820519938e-02	 2.4137166519e+00
 1.1151052207e+00	 7.5334553287e-02	 2.4180224671e+00
 1.1144197664e+00	 8.4873626352e-02	 2.4228436150e+00
 1.1136501437e+00	 9.4436780910e-02	 2.4280934955e+00
 1.1235294118e+00	 0.0000000000e+00	 2.4723541530e+00
 1.1234904017e+00	 9.3625009446e-03	 2.4726295258e+00
 1.1233728396e+00	 1.8756393401e-02	 2.4731837473e+00
 1.1231759342e+00	 2.8180845245e-02	 2.4741101497e+00
 1.1228989026e+00	 3.7635005469e-02	 2.4754752093e+00
 1.1225409715e+00	 4.7118004205e-02	 2.4773184894e+00
 1.1221013772e+00	 5.6628952772e-02	 2.4796526863e+00
 1.1215793662e+00	 6.6166943727e-02	 2.4824637781e+00
 1.1209741955e+00	 7.5731050936e-02	 2.4857112778e+00
 1.1202851335e+00	 8.5320329649e-02	 2.4893285904e+00
 1.1195114602e+00	 9.4933816599e-02	 2.4932234720e+00
 1.1294117647e+00	 0.0000000000e+00	 2.5425189612e+00
 1.1293725504e+00	 9.4115192742e-03	 2.5426673665e+00
 1.1292543728e+00	 1.8854594413e-02	 2.5429848104e+00
 1.1290564364e+00	 2.8328388938e-02	 2.5435630783e+00
 1.1287779544e+00	 3.7832047382e-02	 2.5444663886e+00
 1.1284181494e+00	 4.7364695327e-02	 2.5457313569e+00
 1.1279762536e+00	 5.6925439436e-02	 2.5473670659e+00
 1.1274515095e+00	 6.6513367516e-02	 2.5493552426e+00
 1.1268431704e+00	 7.6127548585e-02	 2.5516505426e+00
 1.1261505007e+00	 8.5767032945e-02	 2.5541809411e+00
 1.1253727768e+00	 9.5430852288e-02	 2.5568482305e+00
 1.1352941176e+00	 0.0000000000e+00	 2.6102915407e+00
 1.1352546991e+00	 9.4605376037e-03	 2.6103337529e+00
 1.1351359060e+00	 1.8952795426e-02	 2.6104480672e+00
 1.1349369387e+00	 2.8475932630e-02	 2.6107245158e+00
 1.1346570063e+00	 3.8029089296e-02	 2.6112248318e+00
 1.1342953273e+00	 4.7611386448e-02	 2.6119824353e+00
 1.1338511299e+00	 5.7221926099e-02	 2.6130025285e+00
 1.1333236527e+00	 6.6859791306e-02	 2.6142623026e+00
 1.1327121452e+00	 7.6524046233e-02	 2.6157112537e+00
 1.1320158679e+00	 8.6213736242e-02	 2.6172716106e+00
 1.1312340933e+00	 9.5927887977e-02	 2.6188388705e+00
 1.1411764706e+00	 0.0000000000e+00	 2.6755546106e+00
 1.1411368478e+00	 9.5095559333e-03	 2.6755093656e+00
 1.1410174392e+00	 1.9050996438e-02	 2.6754524427e+00
 1.1408174410e+00	 2.8623476322e-02	 2.6754719062e+00
 1.1405360581e+00	 3.8226131209e-02	 2.6756267673e+00
 1.1401725051e+00	 4.7858077570e-02	 2.6759469933e+00
 1.1397260062e+00	 5.7518412763e-02	 2.6764336296e+00
 1.1391957960e+00	 6.7206215095e-02	 2.6770590362e+00
 1.1385811201e+00	 7.6920543882e-02	 2.6777672379e+00
 1.1378812351e+00	 8.6660439538e-02	 2.6784743886e+00
 1.1370954099e+00	 9.6424923666e-02	 2.6790693478e+00
 1.1470588235e+00	 0.0000000000e+00	 2.7381935320e+00
 1.1470189965e+00	 9.5585742628e-03	 2.7380775432e+00
 1.1468989724e+00	 1.9149197451e-02	 2.7378795364e+00
 1.1466979432e+00	 2.8771020015e-02	 2.7376853838e+00
 1.1464151100e+00	 3.8423173123e-02	 2.7375511293e+00
 1.1460496830e+00	 4.8104768691e-02	 2.7375030208e+00
 1.1456008825e+00	 5.7814899427e-02	 2.7375376602e+00
 1.1450679393e+00	 6.7552638884e-02	 2.7376222711e+00
 1.1444500949e+00	 7.7317041531e-02	 2.7376950837e+00
 1.1437466023e+00	 8.7107142835e-02	 2.7376658377e+00
 1.1429567264e+00	 9.6921959355e-02	 2.7374164011e+00
 1.1529411765e+00	 0.0000000000e+00	 2.7980962397e+00
 1.1529011452e+00	 9.6075925924e-03	 2.7979242146e+00
 1.1527805056e+00	 1.9247398464e-02	 2.7976135532e+00
 1.1525784455e+00	 2.8918563707e-02	 2.7972477040e+00
 1.1522941618e+00	 3.8620215036e-02	 2.7968794886e+00
 1.1519268608e+00	 4.8351459812e-02	 2.7965311591e+00
 1.1514757588e+00	 5.8111386091e-02	 2.7961945772e+00
 1.1509400826e+00	 6.7899062673e-02	 2.7958315137e+00
 1.1503190697e+00	 7.7713539180e-02	 2.7953740705e+00
 1.1496119695e+00	 8.7553846132e-02	 2.7947252226e+00
 1.1488180429e+00	 9.7418995044e-02	 2.7937594807e+00
 1.1588235294e+00	 0.0000000000e+00	 2.8551531779e+00
 1.1587832939e+00	 9.6566109220e-03	 2.8549378324e+00
 1.1586620388e+00	 1.9345599476e-02	 2.8545412378e+00
 1.1584589478e+00	 2.9066107400e-02	 2.8540441773e+00
 1.1581732137e+00	 3.8817256950e-02	 2.8534959859e+00
 1.1578040387e+00	 4.8598150934e-02	 2.8529146339e+00
 1.1573506352e+00	 5.8407872754e-02	 2.8522869352e+00
 1.1568122259e+00	 6.8245486462e-02	 2.8515688814e+00
 1.1561880446e+00	 7.8110036829e-02	 2.8506861006e+00
 1.1554773367e+00	 8.8000549428e-02	 2.8495344414e+00
 1.1546793595e+00	 9.7916030733e-02	 2.8479806797e+00
 1.1647058824e+00	 0.0000000000e+00	 2.9092572361e+00
 1.1646654426e+00	 9.7056292515e-03	 2.9090093100e+00
 1.1645435720e+00	 1.9443800489e-02	 2.9085518102e+00
 1.1643394501e+00	 2.9213651092e-02	 2.9079626043e+00
 1.1640522655e+00	 3.9014298863e-02	 2.9072872667e+00
 1.1636812166e+00	 4.8844842055e-02	 2.9065391894e+00
 1.1632255115e+00	 5.8704359418e-02	 2.9056998210e+00
 1.1626843691e+00	 6.8591910251e-02	 2.9047190360e+00
 1.1620570194e+00	 7.8506534478e-02	 2.9035156326e+00
 1.1613427039e+00	 8.8447252725e-02	 2.9019779589e+00
 1.1605406760e+00	 9.8413066422e-02	 2.8999646665e+00
 1.1705882353e+00	 0.0000000000e+00	 2.9603036878e+00
 1.1705475913e+00	 9.7546475811e-03	 2.9600319594e+00
 1.1704251052e+00	 1.9542001501e-02	 2.9595369037e+00
 1.1702199523e+00	 2.9361194784e-02	 2.9588932132e+00
 1.1699313174e+00	 3.9211340777e-02	 2.9581424181e+00
 1.1695583944e+00	 4.9091533177e-02	 2.9572930252e+00
 1.1691003878e+00	 5.9000846082e-02	 2.9563207899e+00
 1.1685565124e+00	 6.8938334040e-02	 2.9551691204e+00
 1.1679259943e+00	 7.8903032127e-02	 2.9537496170e+00
 1.1672080711e+00	 8.8893956021e-02	 2.9519427417e+00
 1.1664019926e+00	 9.8910102111e-02	 2.9495986205e+00
 1.1764705882e+00	 0.0000000000e+00	 3.0081901312e+00
 1.1764297400e+00	 9.8036659106e-03	 3.0079014308e+00
 1.1763066384e+00	 1.9640202514e-02	 3.0073905039e+00
 1.1761004546e+00	 2.9508738477e-02	 3.0067285987e+00
 1.1758103692e+00	 3.9408382690e-02	 3.0059529075e+00
 1.1754355723e+00	 4.9338224298e-02	 3.0050667351e+00
 1.1749752641e+00	 5.9297332745e-02	 3.0040398038e+00
 1.1744286557e+00	 6.9284757830e-02	 3.0028086959e+00
 1.1737949691e+00	 7.9299529776e-02	 3.0012774337e+00
 1.1730734383e+00	 8.9340659318e-02	 2.9993181958e+00
 1.1722633091e+00	 9.9407137800e-02	 2.9967721685e+00
 1.1136501437e+00	 9.4436780910e-02	 2.4280934955e+00
 1.1127956484e+00	 1.0402304042e-01	 2.4338863430e+00
 1.1118555890e+00	 1.1363141015e-01	 2.4404131291e+00
 1.1108292867e+00	 1.2326087729e-01	 2.4476671647e+00
 1.1097160766e+00	 1.3291041115e-01	 2.4556201178e+00
 1.1085153077e+00	 1.4257896325e-01	 2.4642227832e+00
 1.1072263434e+00	 1.5226546757e-01	 2.4734059347e+00
 1.1058485623e+00	 1.6196884067e-01	 2.4830812553e+00
 1.1043813585e+00	 1.7168798197e-01	 2.4931423416e+00
 1.1028241419e+00	 1.8142177391e-01	 2.5034657760e+00
 1.1011763392e+00	 1.9116908222e-01	 2.5139122640e+00
 1.1195114602e+00	 9.4933816599e-02	 2.4932234720e+00
 1.1186524676e+00	 1.0457053011e-01	 2.4975026599e+00
 1.1177074605e+00	 1.1422947020e-01	 2.5023635842e+00
 1.1166757566e+00	 1.2390961875e-01	 2.5078143096e+00
 1.1155566875e+00	 1.3360993963e-01	 2.5138410515e+00
 1.1143495988e+00	 1.4332937885e-01	 2.5204089705e+00
 1.1130538505e+00	 1.5306686476e-01	 2.5274630512e+00
 1.1116688179e+00	 1.6282130826e-01	 2.5349290595e+00
 1.1101938919e+00	 1.7259160293e-01	 2.5427145762e+00
 1.1086284795e+00	 1.8237662536e-01	 2.5507100997e+00
 1.1069720042e+00	 1.9217523528e-01	 2.5587902126e+00
 1.1253727768e+00	 9.5430852288e-02	 2.5568482305e+00
 1.1245092868e+00	 1.0511801979e-01	 2.5597502404e+00
 1.1235593320e+00	 1.1482753025e-01	 2.5630876798e+00
 1.1225222266e+00	 1.2455836021e-01	 2.5668803761e+00
 1.1213972985e+00	 1.3430946811e-01	 2.5711260938e+00
 1.1201838899e+00	 1.4407979444e-01	 2.5758013588e+00
 1.1188813575e+00	 1.5386826196e-01	 2.5808623681e+00
 1.1174890735e+00	 1.6367377584e-01	 2.5862459808e+00
 1.1160064254e+00	 1.7349522389e-01	 2.5918707854e+00
 1.1144328171e+00	 1.8333147680e-01	 2.5976382372e+00
 1.1127676691e+00	 1.9318138835e-01	 2.6034338615e+00
 1.1312340933e+00	 9.5927887977e-02	 2.6188388705e+00
 1.1303661060e+00	 1.0566550948e-01	 2.6205007794e+00
 1.1294112035e+00	 1.1542559031e-01	 2.6224584085e+00
 1.1283686965e+00	 1.2520710167e-01	 2.6247403873e+00
 1.1272379094e+00	 1.3500899659e-01	 2.6273530619e+00
 1.1260181809e+00	 1.4483021004e-01	 2.6302813533e+00
 1.1247088646e+00	 1.5466965916e-01	 2.6334897040e+00
 1.1233093291e+00	 1.6452624342e-01	 2.6369231069e+00
 1.1218189589e+00	 1.7439884485e-01	 2.6405082113e+00
 1.1202371547e+00	 1.8428632824e-01	 2.6441545017e+00
 1.1185633341e+00	 1.9418754141e-01	 2.6477555420e+00
 1.1370954099e+00	 9.6424923666e-02	 2.6790693478e+00
 1.1362229252e+00	 1.0621299917e-01	 2.6796288315e+00
 1.1352630751e+00	 1.1602365036e-01	 2.6803516133e+00
 1.1342151664e+00	 1.2585584313e-01	 2.6812721944e+00
 1.1330785203e+00	 1.3570852507e-01	 2.6824025639e+00
 1.1318524720e+00	 1.4558062564e-01	 2.6837330979e+00
 1.1305363717e+00	 1.5547105636e-01	 2.6852335465e+00
 1.1291295847e+00	 1.6537871100e-01	 2.6868541064e+00
 1.1276314923e+00	 1.7530246580e-01	 2.6885265711e+00
 1.1260414923e+00	 1.8524117968e-01	 2.6901655558e+00
 1.1243589990e+00	 1.9519369448e-01	 2.6916697884e+00
 1.1429567264e+00	 9.6921959355e-02	 2.7374164011e+00
 1.1420797444e+00	 1.0676048885e-01	 2.7370117377e+00
 1.1411149466e+00	 1.1662171041e-01	 2.7366459150e+00
 1.1400616364e+00	 1.2650458459e-01	 2.7363564036e+00
 1.1389191313e+00	 1.3640805355e-01	 2.7361579267e+00
 1.1376867631e+00	 1.4633104123e-01	 2.7360434032e+00
 1.1363638787e+00	 1.5627245355e-01	 2.7359849819e+00
 1.1349498403e+00	 1.6623117859e-01	 2.7359351616e+00
 1.1334440258e+00	 1.7620608676e-01	 2.7358279919e+00
 1.1318458299e+00	 1.8619603112e-01	 2.7355803486e+00
 1.1301546640e+00	 1.9619984754e-01	 2.7350932773e+00
 1.1488180429e+00	 9.7418995044e-02	 2.7937594807e+00
 1.1479365636e+00	 1.0730797854e-01	 2.7925295536e+00
 1.1469668181e+00	 1.1721977047e-01	 2.7912226402e+00
 1.1459081063e+00	 1.2715332605e-01	 2.7898763057e+00
 1.1447597422e+00	 1.3710758203e-01	 2.7885051256e+00
 1.1435210542e+00	 1.4708145683e-01	 2.7871016777e+00
 1.1421913858e+00	 1.5707385075e-01	 2.7856376275e+00
 1.1407700958e+00	 1.6708364617e-01	 2.7840649022e+00
 1.1392565593e+00	 1.7710970772e-01	 2.7823169465e+00
 1.1376501675e+00	 1.8715088256e-01	 2.7803100542e+00
 1.1359503289e+00	 1.9720600060e-01	 2.7779447699e+00
 1.1546793595e+00	 9.7916030733e-02	 2.8479806797e+00
 1.1537933828e+00	 1.0785546822e-01	 2.8460649807e+00
 1.1528186896e+00	 1.1781783052e-01	 2.8439657523e+00
 1.1517545762e+00	 1.2780206751e-01	 2.8417178069e+00
 1.1506003531e+00	 1.3780711051e-01	 2.8393327168e+00
 1.1493553453e+00	 1.4783187242e-01	 2.8367998608e+00
 1.1480188929e+00	 1.5787524795e-01	 2.8340875664e+00
 1.1465903514e+00	 1.6793611375e-01	 2.8311443416e+00
 1.1450690927e+00	 1.7801332868e-01	 2.8279001916e+00
 1.1434545051e+00	 1.8810573401e-01	 2.8242680125e+00
 1.1417459938e+00	 1.9821215367e-01	 2.8201450557e+00
 1.1605406760e+00	 9.8413066422e-02	 2.8999646665e+00
 1.1596502020e+00	 1.0840295791e-01	 2.8975032988e+00
 1.1586705611e+00	 1.1841589057e-01	 2.8947617848e+00
 1.1576010462e+00	 1.2845080897e-01	 2.8917693621e+00
 1.1564409641e+00	 1.3850663899e-01	 2.8885317705e+00
 1.1551896364e+00	 1.4858228802e-01	 2.8850323577e+00
 1.1538463999e+00	 1.5867664515e-01	 2.8812332832e+00
 1.1524106070e+00	 1.6878858133e-01	 2.8770768142e+00
 1.1508816262e+00	 1.7891694964e-01	 2.8724867076e+00
 1.1492588427e+00	 1.8906058545e-01	 2.8673696713e+00
 1.1475416588e+00	 1.9921830673e-01	 2.8616168971e+00
 1.1664019926e+00	 9.8910102111e-02	 2.9495986205e+00
 1.1655070212e+00	 1.0895044760e-01	 2.9467323009e+00
 1.1645224327e+00	 1.1901395063e-01	 2.9434997759e+00
 1.1634475161e+00	 1.2909955043e-01	 2.9399219106e+00
 1.1622815750e+00	 1.3920616747e-01	 2.9359958076e+00
 1.1610239275e+00	 1.4933270362e-01	 2.9316959759e+00
 1.1596739070e+00	 1.5947804235e-01	 2.9269756022e+00
 1.1582308626e+00	 1.6964104892e-01	 2.9217679156e+00
 1.1566941597e+00	 1.7982057059e-01	 2.9159876404e+00
 1.1550631802e+00	 1.9001543689e-01	 2.9095325304e+00
 1.1533373237e+00	 2.0022445980e-01	 2.9022849762e+00
 1.1722633091e+00	 9.9407137800e-02	 2.9967721685e+00
 1.1713638404e+00	 1.0949793728e-01	 2.9936422304e+00
 1.1703743042e+00	 1.1961201068e-01	 2.9900712053e+00
 1.1692939860e+00	 1.2974829189e-01	 2.9860688129e+00
 1.1681221859e+00	 1.3990569595e-01	 2.9816207368e+00
 1.1668582186e+00	 1.5008311921e-01	 2.9766898642e+00
 1.1655014141e+00	 1.6027943954e-01	 2.9712176274e+00
 1.1640511182e+00	 1.7049351650e-01	 2.9651254437e+00
 1.1625066931e+00	 1.8072419155e-01	 2.9583162443e+00
 1.1608675178e+00	 1.9097028833e-01	 2.9506760871e+00
 1.1591329887e+00	 2.0123061286e-01	 2.9420758431e+00
 1.1011763392e+00	 1.9116908222e-01	 2.5139122640e+00
 1.0994373939e+00	 2.0092875614e-01	 2.5246550383e+00
 1.0976067668e+00	 2.1069962871e-01	 2.5359343204e+00
 1.0956839369e+00	 2.2048051707e-01	 2.5476908940e+00
 1.0936684016e+00	 2.3027022270e-01	 2.5598542211e+00
 1.0915596769e+00	 2.4006753177e-01	 2.5723436588e+00
 1.0893572985e+00	 2.4987121544e-01	 2.5850696966e+00
 1.0870608217e+00	 2.5968003026e-01	 2.5979352081e+00
 1.0846698220e+00	 2.6949271844e-01	 2.6108367076e+00
 1.0821838959e+00	 2.7930800828e-01	 2.6236656043e+00
 1.0796026609e+00	 2.8912461454e-01	 2.6363094472e+00
 1.1069720042e+00	 1.9217523528e-01	 2.5587902126e+00
 1.1052239065e+00	 2.0198627591e-01	 2.5671284221e+00
 1.1033836445e+00	 2.1180857413e-01	 2.5759537584e+00
 1.1014506945e+00	 2.2164094085e-01	 2.5852036198e+00
 1.0994245511e+00	 2.3148217124e-01	 2.5948040500e+00
 1.0973047279e+00	 2.4133104509e-01	 2.6046710056e+00
 1.0950907580e+00	 2.5118632710e-01	 2.6147116433e+00
 1.0927821944e+00	 2.6104676726e-01	 2.6248256211e+00
 1.0903786106e+00	 2.7091110117e-01	 2.6349064033e+00
 1.0878796006e+00	 2.8077805043e-01	 2.6448425632e+00
 1.0852847801e+00	 2.9064632304e-01	 2.6545190729e+00
 1.1127676691e+00	 1.9318138835e-01	 2.6034338615e+00
 1.1110104191e+00	 2.0304379567e-01	 2.6094292646e+00
 1.1091605223e+00	 2.1291751954e-01	 2.6158432336e+00
 1.1072174521e+00	 2.2280136462e-01	 2.6226115597e+00
 1.1051807006e+00	 2.3269411978e-01	 2.6296586562e+00
 1.1030497788e+00	 2.4259455842e-01	 2.6368988746e+00
 1.1008242174e+00	 2.5250143876e-01	 2.6442378412e+00
 1.0985035671e+00	 2.6241350426e-01	 2.6515738065e+00
 1.0960873991e+00	 2.7232948390e-01	 2.6587989975e+00
 1.0935753054e+00	 2.8224809258e-01	 2.6658009668e+00
 1.0909668994e+00	 2.9216803154e-01	 2.6724639275e+00
 1.1185633341e+00	 1.9418754141e-01	 2.6477555420e+00
 1.1167969317e+00	 2.0410131544e-01	 2.6514782546e+00
 1.1149374000e+00	 2.1402646496e-01	 2.6555314729e+00
 1.1129842096e+00	 2.2396178840e-01	 2.6598511145e+00
 1.1109368500e+00	 2.3390606832e-01	 2.6643617050e+00
 1.1087948297e+00	 2.4385807174e-01	 2.6689777422e+00
 1.1065576769e+00	 2.5381655042e-01	 2.6736050802e+00
 1.1042249399e+00	 2.6378024126e-01	 2.6781423261e+00
 1.1017961876e+00	 2.7374786662e-01	 2.6824822393e+00
 1.0992710101e+00	 2.8371813473e-01	 2.6865131246e+00
 1.0966490187e+00	 2.9368974004e-01	 2.6901202109e+00
 1.1243589990e+00	 1.9519369448e-01	 2.6916697884e+00
 1.1225834443e+00	 2.0515883521e-01	 2.6931981281e+00
 1.1207142777e+00	 2.1513541037e-01	 2.6949490991e+00
 1.1187509672e+00	 2.2512221217e-01	 2.6968604349e+00
 1.1166929995e+00	 2.3511801686e-01	 2.6988584720e+00
 1.1145398806e+00	 2.4512158507e-01	 2.7008595610e+00
 1.1122911364e+00	 2.5513166209e-01	 2.7027714989e+00
 1.1099463126e+00	 2.6514697827e-01	 2.7044949708e+00
 1.1075049762e+00	 2.7516624935e-01	 2.7059249950e+00
 1.1049667148e+00	 2.8518817687e-01	 2.7069523596e+00
 1.1023311379e+00	 2.9521144853e-01	 2.7074650433e+00
 1.1301546640e+00	 1.9619984754e-01	 2.7350932773e+00
 1.1283699569e+00	 2.0621635498e-01	 2.7345136113e+00
 1.1264911554e+00	 2.1624435579e-01	 2.7340285779e+00
 1.1245177248e+00	 2.2628263594e-01	 2.7335793715e+00
 1.1224491490e+00	 2.3632996540e-01	 2.7330957941e+00
 1.1202849316e+00	 2.4638509839e-01	 2.7324977134e+00
 1.1180245958e+00	 2.5644677375e-01	 2.7316965406e+00
 1.1156676854e+00	 2.6651371527e-01	 2.7305967180e+00
 1.1132137647e+00	 2.7658463208e-01	 2.7290972073e+00
 1.1106624195e+00	 2.8665821902e-01	 2.7270929695e+00
 1.1080132572e+00	 2.9673315703e-01	 2.7244764262e+00
 1.1359503289e+00	 1.9720600060e-01	 2.7779447699e+00
 1.1341564695e+00	 2.0727387475e-01	 2.7753513662e+00
 1.1322680331e+00	 2.1735330120e-01	 2.7727041655e+00
 1.1302844823e+00	 2.2744305972e-01	 2.7699494248e+00
 1.1282052985e+00	 2.3754191394e-01	 2.7670220235e+00
 1.1260299825e+00	 2.4764861172e-01	 2.7638469673e+00
 1.1237580553e+00	 2.5776188541e-01	 2.7603409111e+00
 1.1213890581e+00	 2.6788045227e-01	 2.7564136910e+00
 1.1189225532e+00	 2.7800301481e-01	 2.7519698555e+00
 1.1163581242e+00	 2.8812826117e-01	 2.7469101874e+00
 1.1136953765e+00	 2.9825486553e-01	 2.7411332042e+00
 1.1417459938e+00	 1.9821215367e-01	 2.8201450557e+00
 1.1399429821e+00	 2.0833139452e-01	 2.8156399366e+00
 1.1380449109e+00	 2.1846224661e-01	 2.8109118578e+00
 1.1360512399e+00	 2.2860348349e-01	 2.8059136975e+00
 1.1339614480e+00	 2.3875386248e-01	 2.8005869817e+00
 1.1317750334e+00	 2.4891212504e-01	 2.7948634327e+00
 1.1294915148e+00	 2.5907699707e-01	 2.7886665366e+00
 1.1271104309e+00	 2.6924718927e-01	 2.7819131187e+00
 1.1246313418e+00	 2.7942139754e-01	 2.7745149171e+00
 1.1220538289e+00	 2.8959830332e-01	 2.7663801445e+00
 1.1193774957e+00	 2.9977657403e-01	 2.7574150278e+00
 1.1475416588e+00	 1.9921830673e-01	 2.8616168971e+00
 1.1457294947e+00	 2.0938891429e-01	 2.8553096965e+00
 1.1438217886e+00	 2.1957119203e-01	 2.8485893413e+00
 1.1418179975e+00	 2.2976390727e-01	 2.8414168477e+00
 1.1397175974e+00	 2.3996581102e-01	 2.8337419150e+00
 1.1375200844e+00	 2.5017563837e-01	 2.8255045191e+00
 1.1352249742e+00	 2.6039210873e-01	 2.8166365233e+00
 1.1328318036e+00	 2.7061392627e-01	 2.8070632969e+00
 1.1303401303e+00	 2.8083978027e-01	 2.7967053296e+00
 1.1277495337e+00	 2.9106834547e-01	 2.7854798329e+00
 1.1250596150e+00	 3.0129828252e-01	 2.7733023172e+00
 1.1533373237e+00	 2.0022445980e-01	 2.9022849762e+00
 1.1515160073e+00	 2.1044643406e-01	 2.8942927993e+00
 1.1495986663e+00	 2.2068013744e-01	 2.8856759455e+00
 1.1475847550e+00	 2.3092433104e-01	 2.8764050436e+00
 1.1454737469e+00	 2.4117775956e-01	 2.8664394516e+00
 1.1432651353e+00	 2.5143915169e-01	 2.8557288943e+00
 1.1409584337e+00	 2.6170722039e-01	 2.8442151181e+00
 1.1385531764e+00	 2.7198066327e-01	 2.8318335499e+00
 1.1360489189e+00	 2.8225816300e-01	 2.8185149537e+00
 1.1334452384e+00	 2.9253838762e-01	 2.8041870696e+00
 1.1307417343e+00	 3.0281999102e-01	 2.7887762271e+00
 1.1591329887e+00	 2.0123061286e-01	 2.9420758431e+00
 1.1573025199e+00	 2.1150395383e-01	 2.9325231287e+00
 1.1553755440e+00	 2.2178908286e-01	 2.9221125960e+00
 1.1533515126e+00	 2.3208475481e-01	 2.9108259191e+00
 1.1512298964e+00	 2.4238970811e-01	 2.8986335590e+00
 1.1490101862e+00	 2.5270266502e-01	 2.8854964446e+00
 1.1466918932e+00	 2.6302233205e-01	 2.8713676696e+00
 1.1442745491e+00	 2.7334740027e-01	 2.8561941936e+00
 1.1417577074e+00	 2.8367654572e-01	 2.8399185376e+00
 1.1391409431e+00	 2.9400842977e-01	 2.8224804611e+00
 1.1364238535e+00	 3.0434169952e-01	 2.8038186111e+00
 1.0796026609e+00	 2.8912461454e-01	 2.6363094472e+00
 1.0769257559e+00	 2.9894123885e-01	 2.6491390520e+00
 1.0741528422e+00	 3.0875657011e-01	 2.6624431888e+00
 1.0712836033e+00	 3.1856928491e-01	 2.6759826474e+00
 1.0683177456e+00	 3.2837804803e-01	 2.6895171859e+00
 1.0652549988e+00	 3.3818151283e-01	 2.7028067561e+00
 1.0620951161e+00	 3.4797832176e-01	 2.7156126752e+00
 1.0588378749e+00	 3.5776710686e-01	 2.7276987368e+00
 1.0554830769e+00	 3.6754649023e-01	 2.7388322534e+00
 1.0520305485e+00	 3.7731508454e-01	 2.7487850238e+00
 1.0484801414e+00	 3.8707149362e-01	 2.7573342184e+00
 1.0852847801e+00	 2.9064632304e-01	 2.6545190729e+00
 1.0825937862e+00	 3.0051461380e-01	 2.6643011672e+00
 1.0798062783e+00	 3.1038160469e-01	 2.6744779645e+00
 1.0769219381e+00	 3.2024596536e-01	 2.6848171740e+00
 1.0739404706e+00	 3.3010635355e-01	 2.6950860016e+00
 1.0708616041e+00	 3.3996141553e-01	 2.7050524016e+00
 1.0676850904e+00	 3.4980978661e-01	 2.7144862718e+00
 1.0644107058e+00	 3.5965009163e-01	 2.7231605833e+00
 1.0610382510e+00	 3.6948094544e-01	 2.7308524392e+00
 1.0575675514e+00	 3.7930095341e-01	 2.7373440527e+00
 1.0539984579e+00	 3.8910871200e-01	 2.7424236390e+00
 1.0909668994e+00	 2.9216803154e-01	 2.6724639275e+00
 1.0882618165e+00	 3.0208798874e-01	 2.6791500125e+00
 1.0854597143e+00	 3.1200663927e-01	 2.6861526507e+00
 1.0825602729e+00	 3.2192264581e-01	 2.6932505138e+00
 1.0795631956e+00	 3.3183465906e-01	 2.7002222988e+00
 1.0764682093e+00	 3.4174131823e-01	 2.7068480015e+00
 1.0732750647e+00	 3.5164125147e-01	 2.7129101291e+00
 1.0699835368e+00	 3.6153307641e-01	 2.7181948442e+00
 1.0665934251e+00	 3.7141540065e-01	 2.7224930331e+00
 1.0631045543e+00	 3.8128682228e-01	 2.7256012894e+00
 1.0595167745e+00	 3.9114593039e-01	 2.7273228078e+00
 1.0966490187e+00	 2.9368974004e-01	 2.6901202109e+00
 1.0939298468e+00	 3.0366136368e-01	 2.6936648793e+00
 1.0911131503e+00	 3.1363167385e-01	 2.6974486778e+00
 1.0881986076e+00	 3.2359932626e-01	 2.7012652086e+00
 1.0851859206e+00	 3.3356296458e-01	 2.7049086298e+00
 1.0820748146e+00	 3.4352122093e-01	 2.7081749439e+00
 1.0788650390e+00	 3.5347271632e-01	 2.7108632241e+00
 1.0755563677e+00	 3.6341606118e-01	 2.7127767669e+00
 1.0721485992e+00	 3.7334985586e-01	 2.7137241644e+00
 1.0686415572e+00	 3.8327269114e-01	 2.7135202879e+00
 1.0650350910e+00	 3.9318314878e-01	 2.7119871768e+00
 1.1023311379e+00	 2.9521144853e-01	 2.7074650433e+00
 1.0995978771e+00	 3.0523473862e-01	 2.7078258971e+00
 1.0967665863e+00	 3.1525670843e-01	 2.7083482465e+00
 1.0938369424e+00	 3.2527600670e-01	 2.7088445198e+00
 1.0908086456e+00	 3.3529127009e-01	 2.7091282323e+00
 1.0876814198e+00	 3.4530112362e-01	 2.7090152873e+00
 1.0844550133e+00	 3.5530418117e-01	 2.7083252098e+00
 1.0811291986e+00	 3.6529904595e-01	 2.7068823022e+00
 1.0777037733e+00	 3.7528431107e-01	 2.7045167162e+00
 1.0741785601e+00	 3.8525856001e-01	 2.7010654302e+00
 1.0705534075e+00	 3.9522036717e-01	 2.6963731275e+00
 1.1080132572e+00	 2.9673315703e-01	 2.7244764262e+00
 1.1052659074e+00	 3.0680811356e-01	 2.7216139945e+00
 1.1024200223e+00	 3.1688174301e-01	 2.7188342896e+00
 1.0994752771e+00	 3.2695268715e-01	 2.7159723883e+00
 1.0964313705e+00	 3.3701957561e-01	 2.7128649888e+00
 1.0932880251e+00	 3.4708102632e-01	 2.7093517183e+00
 1.0900449876e+00	 3.5713564602e-01	 2.7052763697e+00
 1.0867020295e+00	 3.6718203073e-01	 2.7004880552e+00
 1.0832589473e+00	 3.7721876628e-01	 2.6948422722e+00
 1.0797155630e+00	 3.8724442887e-01	 2.6882018691e+00
 1.0760717241e+00	 3.9725758555e-01	 2.6804379073e+00
 1.1136953765e+00	 2.9825486553e-01	 2.7411332042e+00
 1.1109339377e+00	 3.0838148850e-01	 2.7350108621e+00
 1.1080734583e+00	 3.1850677759e-01	 2.7288904335e+00
 1.1051136119e+00	 3.2862936760e-01	 2.7226333962e+00
 1.1020540955e+00	 3.3874788113e-01	 2.7161033863e+00
 1.0988946303e+00	 3.4886092902e-01	 2.7091675092e+00
 1.0956349619e+00	 3.5896711087e-01	 2.7016975734e+00
 1.0922748604e+00	 3.6906501550e-01	 2.6935712378e+00
 1.0888141214e+00	 3.7915322150e-01	 2.6846730651e+00
 1.0852525659e+00	 3.8923029774e-01	 2.6748954720e+00
 1.0815900406e+00	 3.9929480394e-01	 2.6641395681e+00
 1.1193774957e+00	 2.9977657403e-01	 2.7574150278e+00
 1.1166019680e+00	 3.0995486344e-01	 2.7479989148e+00
 1.1137268943e+00	 3.2013181217e-01	 2.7385009614e+00
 1.1107519466e+00	 3.3030604804e-01	 2.7288127284e+00
 1.1076768205e+00	 3.4047618664e-01	 2.7188284769e+00
 1.1045012356e+00	 3.5064083172e-01	 2.7084464768e+00
 1.1012249362e+00	 3.6079857572e-01	 2.6975702330e+00
 1.0978476914e+00	 3.7094800027e-01	 2.6861096216e+00
 1.0943692955e+00	 3.8108767671e-01	 2.6739819261e+00
 1.0907895688e+00	 3.9121616661e-01	 2.6611127656e+00
 1.0871083571e+00	 4.0133202233e-01	 2.6474369058e+00
 1.1250596150e+00	 3.0129828252e-01	 2.7733023172e+00
 1.1222699983e+00	 3.1152823838e-01	 2.7605612563e+00
 1.1193803303e+00	 3.2175684674e-01	 2.7476507763e+00
 1.1163902814e+00	 3.3198272849e-01	 2.7344961356e+00
 1.1132995455e+00	 3.4220449216e-01	 2.7210258397e+00
 1.1101078409e+00	 3.5242073442e-01	 2.7071729422e+00
 1.1068149105e+00	 3.6263004057e-01	 2.6928762598e+00
 1.1034205223e+00	 3.7283098504e-01	 2.6780814921e+00
 1.0999244696e+00	 3.8302213192e-01	 2.6627422349e+00
 1.0963265716e+00	 3.9320203547e-01	 2.6468208816e+00
 1.0926266737e+00	 4.0336924072e-01	 2.6302894006e+00
 1.1307417343e+00	 3.0281999102e-01	 2.7887762271e+00
 1.1279380286e+00	 3.1310161333e-01	 2.7726816431e+00
 1.1250337664e+00	 3.2338188132e-01	 2.7563253658e+00
 1.1220286161e+00	 3.3365940894e-01	 2.7396698981e+00
 1.1189222704e+00	 3.4393279767e-01	 2.7226815425e+00
 1.1157144461e+00	 3.5420063712e-01	 2.7053316908e+00
 1.1124048848e+00	 3.6446150542e-01	 2.6875980228e+00
 1.1089933532e+00	 3.7471396982e-01	 2.6694656037e+00
 1.1054796437e+00	 3.8495658713e-01	 2.6509278714e+00
 1.1018635745e+00	 3.9518790434e-01	 2.6319875040e+00
 1.0981449902e+00	 4.0540645910e-01	 2.6126571599e+00
 1.1364238535e+00	 3.0434169952e-01	 2.8038186111e+00
 1.1336060589e+00	 3.1467498827e-01	 2.7843444507e+00
 1.1306872024e+00	 3.2500691590e-01	 2.7645107671e+00
 1.1276669509e+00	 3.3533608938e-01	 2.7443207894e+00
 1.1245449954e+00	 3.4566110319e-01	 2.7237821051e+00
 1.1213210514e+00	 3.5598053982e-01	 2.7029079343e+00
 1.1179948591e+00	 3.6629297028e-01	 2.6817183073e+00
 1.1145661841e+00	 3.7659695459e-01	 2.6602411357e+00
 1.1110348178e+00	 3.8689104234e-01	 2.6385131675e+00
 1.1074005774e+00	 3.9717377320e-01	 2.6165808172e+00
 1.1036633067e+00	 4.0744367749e-01	 2.5945008604e+00
 1.0484801414e+00	 3.8707149362e-01	 2.7573342184e+00
 1.0448317325e+00	 3.9681431290e-01	 2.7650376480e+00
 1.0410852245e+00	 4.0654213007e-01	 2.7724748188e+00
 1.0372405461e+00	 4.1625352555e-01	 2.7794625687e+00
 1.0332976527e+00	 4.2594707313e-01	 2.7858214879e+00
 1.0292565257e+00	 4.3562134054e-01	 2.7913761749e+00
 1.0251171740e+00	 4.4527489002e-01	 2.7959553855e+00
 1.0208796332e+00	 4.5490627899e-01	 2.7993920711e+00
 1.0165439664e+00	 4.6451406061e-01	 2.8015233070e+00
 1.0121102643e+00	 4.7409678444e-01	 2.8021901086e+00
 1.0075786453e+00	 4.8365299708e-01	 2.8012371353e+00
 1.0539984579e+00	 3.8910871200e-01	 2.7424236390e+00
 1.0503308468e+00	 3.9890280929e-01	 2.7466267199e+00
 1.0465646204e+00	 4.0868182549e-01	 2.7505024548e+00
 1.0426997069e+00	 4.1844433358e-01	 2.7538668459e+00
 1.0387360614e+00	 4.2818889983e-01	 2.7565392794e+00
 1.0346736653e+00	 4.3791408443e-01	 2.7583427686e+00
 1.0305125275e+00	 4.4761844208e-01	 2.7591040851e+00
 1.0262526839e+00	 4.5730052257e-01	 2.7586537773e+00
 1.0218941978e+00	 4.6695887146e-01	 2.7568260733e+00
 1.0174371604e+00	 4.7659203068e-01	 2.7534586684e+00
 1.0128816908e+00	 4.8619853917e-01	 2.7483923973e+00
 1.0595167745e+00	 3.9114593039e-01	 2.7273228078e+00
 1.0558299612e+00	 4.0099130567e-01	 2.7281670762e+00
 1.0520440163e+00	 4.1082152091e-01	 2.7286423993e+00
 1.0481588677e+00	 4.2063514161e-01	 2.7285577642e+00
 1.0441744701e+00	 4.3043072653e-01	 2.7277252638e+00
 1.0400908050e+00	 4.4020682833e-01	 2.7259603350e+00
 1.0359078811e+00	 4.4996199413e-01	 2.7230818827e+00
 1.0316257346e+00	 4.5969476614e-01	 2.7189122856e+00
 1.0272444292e+00	 4.6940368230e-01	 2.7132772832e+00
 1.0227640565e+00	 4.7908727691e-01	 2.7060057437e+00
 1.0181847363e+00	 4.8874408126e-01	 2.6969293123e+00
 1.0650350910e+00	 3.9318314878e-01	 2.7119871768e+00
 1.0613290756e+00	 4.0307980206e-01	 2.7096060243e+00
 1.0575234122e+00	 4.1296121633e-01	 2.7068353644e+00
 1.0536180285e+00	 4.2282594964e-01	 2.7034710883e+00
 1.0496128788e+00	 4.3267255323e-01	 2.6993120043e+00
 1.0455079446e+00	 4.4249957223e-01	 2.6941600808e+00
 1.0413032346e+00	 4.5230554618e-01	 2.6878205709e+00
 1.0369987853e+00	 4.6208900971e-01	 2.6801020155e+00
 1.0325946606e+00	 4.7184849315e-01	 2.6708161226e+00
 1.0280909527e+00	 4.8158252314e-01	 2.6597775240e+00
 1.0234877818e+00	 4.9128962335e-01	 2.6468034073e+00
 1.0705534075e+00	 3.9522036717e-01	 2.6963731275e+00
 1.0668281900e+00	 4.0516829844e-01	 2.6908918973e+00
 1.0630028081e+00	 4.1510091176e-01	 2.6850231471e+00
 1.0590771892e+00	 4.2501675767e-01	 2.6785436878e+00
 1.0550512874e+00	 4.3491437994e-01	 2.6712331482e+00
 1.0509250842e+00	 4.4479231613e-01	 2.6628742324e+00
 1.0466985882e+00	 4.5464909823e-01	 2.6532528538e+00
 1.0423718360e+00	 4.6448325329e-01	 2.6421581435e+00
 1.0379448920e+00	 4.7429330399e-01	 2.6293823315e+00
 1.0334178488e+00	 4.8407776938e-01	 2.6147204995e+00
 1.0287908273e+00	 4.9383516544e-01	 2.5979702060e+00
 1.0760717241e+00	 3.9725758555e-01	 2.6804379073e+00
 1.0723273044e+00	 4.0725679482e-01	 2.6719739851e+00
 1.0684822040e+00	 4.1724060718e-01	 2.6631485558e+00
 1.0645363500e+00	 4.2720756570e-01	 2.6537134598e+00
 1.0604896961e+00	 4.3715620664e-01	 2.6434233464e+00
 1.0563422238e+00	 4.4708506003e-01	 2.6320359544e+00
 1.0520939417e+00	 4.5699265029e-01	 2.6193122641e+00
 1.0477448867e+00	 4.6687749686e-01	 2.6050165201e+00
 1.0432951234e+00	 4.7673811484e-01	 2.5889161222e+00
 1.0387447449e+00	 4.8657301561e-01	 2.5707813829e+00
 1.0340938728e+00	 4.9638070753e-01	 2.5503851540e+00
 1.0815900406e+00	 3.9929480394e-01	 2.6641395681e+00
 1.0778264188e+00	 4.0934529121e-01	 2.6528024675e+00
 1.0739616000e+00	 4.1938030260e-01	 2.6411553384e+00
 1.0699955108e+00	 4.2939837373e-01	 2.6289192534e+00
 1.0659281048e+00	 4.3939803334e-01	 2.6158181753e+00
 1.0617593634e+00	 4.4937780392e-01	 2.6015792693e+00
 1.0574892953e+00	 4.5933620234e-01	 2.5859330827e+00
 1.0531179374e+00	 4.6927174043e-01	 2.5686135897e+00
 1.0486453548e+00	 4.7918292568e-01	 2.5493581005e+00
 1.0440716411e+00	 4.8906826185e-01	 2.5279070326e+00
 1.0393969183e+00	 4.9892624962e-01	 2.5040035456e+00
 1.0871083571e+00	 4.0133202233e-01	 2.6474369058e+00
 1.0833255331e+00	 4.1143378759e-01	 2.6333283481e+00
 1.0794409959e+00	 4.2151999802e-01	 2.6189881124e+00
 1.0754546715e+00	 4.3158918176e-01	 2.6041007962e+00
 1.0713665135e+00	 4.4163986004e-01	 2.5883540602e+00
 1.0671765030e+00	 4.5167054782e-01	 2.5714389793e+00
 1.0628846488e+00	 4.6167975439e-01	 2.5530502589e+00
 1.0584909881e+00	 4.7166598401e-01	 2.5328863107e+00
 1.0539955862e+00	 4.8162773653e-01	 2.5106491876e+00
 1.0493985372e+00	 4.9156350808e-01	 2.4860443771e+00
 1.0446999638e+00	 5.0147179171e-01	 2.4587804519e+00
 1.0926266737e+00	 4.0336924072e-01	 2.6302894006e+00
 1.0888246475e+00	 4.1352228397e-01	 2.6135033907e+00
 1.0849203918e+00	 4.2365969344e-01	 2.5965922957e+00
 1.0809138323e+00	 4.3377998978e-01	 2.5791986217e+00
 1.0768049222e+00	 4.4388168674e-01	 2.5609682000e+00
 1.0725936426e+00	 4.5396329172e-01	 2.5415505889e+00
 1.0682800024e+00	 4.6402330645e-01	 2.5205993328e+00
 1.0638640388e+00	 4.7406022758e-01	 2.4977720784e+00
 1.0593458176e+00	 4.8407254737e-01	 2.4727305437e+00
 1.0547254333e+00	 4.9405875431e-01	 2.4451403405e+00
 1.0500030093e+00	 5.0401733379e-01	 2.4146706503e+00
 1.0981449902e+00	 4.0540645910e-01	 2.6126571599e+00
 1.0943237619e+00	 4.1561078036e-01	 2.5932800551e+00
 1.0903997877e+00	 4.2579938886e-01	 2.5739140398e+00
 1.0863729931e+00	 4.3597079781e-01	 2.5541539980e+00
 1.0822433309e+00	 4.4612351344e-01	 2.5335984939e+00
 1.0780107822e+00	 4.5625603562e-01	 2.5118502298e+00
 1.0736753559e+00	 4.6636685850e-01	 2.4885163590e+00
 1.0692370895e+00	 4.7645447116e-01	 2.4632086488e+00
 1.0646960490e+00	 4.8651735822e-01	 2.4355434927e+00
 1.0600523294e+00	 4.9655400055e-01	 2.4051417701e+00
 1.0553060548e+00	 5.0656287588e-01	 2.3716285541e+00
 1.1036633067e+00	 4.0744367749e-01	 2.5945008604e+00
 1.0998228763e+00	 4.1769927674e-01	 2.5726114363e+00
 1.0958791836e+00	 4.2793908428e-01	 2.5509001631e+00
 1.0918321538e+00	 4.3816160584e-01	 2.5289088593e+00
 1.0876817396e+00	 4.4836534014e-01	 2.5061834692e+00
 1.0834279218e+00	 4.5854877951e-01	 2.4822745873e+00
 1.0790707095e+00	 4.6871041055e-01	 2.4567378318e+00
 1.0746101402e+00	 4.7884871473e-01	 2.4291340634e+00
 1.0700462804e+00	 4.8896216907e-01	 2.3990294487e+00
 1.0653792256e+00	 4.9904924678e-01	 2.3659953643e+00
 1.0606091003e+00	 5.0910841797e-01	 2.3296081447e+00
 1.0075786453e+00	 4.8365299708e-01	 2.8012371353e+00
 1.0029492559e+00	 4.9318124278e-01	 2.7989506383e+00
 9.9822227043e-01	 5.0268006417e-01	 2.7956301763e+00
 9.9339789173e-01	 5.1214800282e-01	 2.7911535181e+00
 9.8847635090e-01	 5.2158360002e-01	 2.7854120536e+00
 9.8345790753e-01	 5.3098539737e-01	 2.7783099771e+00
 9.7834284980e-01	 5.4035193749e-01	 2.7697633591e+00
 9.7313149452e-01	 5.4968176472e-01	 2.7596991133e+00
 9.6782418721e-01	 5.5897342580e-01	 2.7480538642e+00
 9.6242130209e-01	 5.6822547056e-01	 2.7347727233e+00
 9.5692324210e-01	 5.7743645262e-01	 2.7198079819e+00
 1.0128816908e+00	 4.8619853917e-01	 2.7483923973e+00
 1.0082279362e+00	 4.9577693353e-01	 2.7420126016e+00
 1.0034760719e+00	 5.0532574871e-01	 2.7347387962e+00
 9.9862630169e-01	 5.1484351863e-01	 2.7264771112e+00
 9.9367885801e-01	 5.2432877687e-01	 2.7171489615e+00
 9.8863400178e-01	 5.3378005736e-01	 2.7066901577e+00
 9.8349202269e-01	 5.4319589505e-01	 2.6950498996e+00
 9.7825323923e-01	 5.5257482664e-01	 2.6821896576e+00
 9.7291799872e-01	 5.6191539119e-01	 2.6680819502e+00
 9.6748667736e-01	 5.7121613093e-01	 2.6527090228e+00
 9.6195968022e-01	 5.8047559185e-01	 2.6360614400e+00
 1.0181847363e+00	 4.8874408126e-01	 2.6969293123e+00
 1.0135066165e+00	 4.9837262429e-01	 2.6865437939e+00
 1.0087298733e+00	 5.0797143326e-01	 2.6754068928e+00
 1.0038547116e+00	 5.1753903443e-01	 2.6634581035e+00
 9.9888136512e-01	 5.2707395371e-01	 2.6506538152e+00
 9.9381009603e-01	 5.3657471734e-01	 2.6369663415e+00
 9.8864119558e-01	 5.4603985262e-01	 2.6223828260e+00
 9.8337498394e-01	 5.5546788856e-01	 2.6069040292e+00
 9.7801181023e-01	 5.6485735659e-01	 2.5905430054e+00
 9.7255205263e-01	 5.7420679130e-01	 2.5733236762e+00
 9.6699611834e-01	 5.8351473107e-01	 2.5552793101e+00
 1.0234877818e+00	 4.9128962335e-01	 2.6468034073e+00
 1.0187852968e+00	 5.0096831504e-01	 2.6325095264e+00
 1.0139836747e+00	 5.1061711781e-01	 2.6176080113e+00
 1.0090831216e+00	 5.2023455024e-01	 2.6020766579e+00
 1.0040838722e+00	 5.2981913055e-01	 2.5859117149e+00
 9.9898619028e-01	 5.3936937733e-01	 2.5691268227e+00
 9.9379036848e-01	 5.4888381019e-01	 2.5517518220e+00
 9.8849672865e-01	 5.5836095048e-01	 2.5338314363e+00
 9.8310562175e-01	 5.6779932199e-01	 2.5154238396e+00
 9.7761742791e-01	 5.7719745167e-01	 2.4965991140e+00
 9.7203255645e-01	 5.8655387030e-01	 2.4774376081e+00
 1.0287908273e+00	 4.9383516544e-01	 2.5979702060e+00
 1.0240639771e+00	 5.0356400579e-01	 2.5798747902e+00
 1.0192374761e+00	 5.1326280236e-01	 2.5613150891e+00
 1.0143115316e+00	 5.2293006604e-01	 2.5423120733e+00
 1.0092863793e+00	 5.3256430739e-01	 2.5229066735e+00
 1.0041622845e+00	 5.4216403731e-01	 2.5031586197e+00
 9.9893954137e-01	 5.5172776775e-01	 2.4831451428e+00
 9.9361847336e-01	 5.6125401240e-01	 2.4629595446e+00
 9.8819943326e-01	 5.7074128739e-01	 2.4427096455e+00
 9.8268280318e-01	 5.8018811204e-01	 2.4225161169e+00
 9.7706899457e-01	 5.8959300952e-01	 2.4024000598e+00
 1.0340938728e+00	 4.9638070753e-01	 2.5503851540e+00
 1.0293426573e+00	 5.0615969654e-01	 2.5286041860e+00
 1.0244912775e+00	 5.1590848691e-01	 2.5065003894e+00
 1.0195399415e+00	 5.2562558185e-01	 2.4841427206e+00
 1.0144888864e+00	 5.3530948424e-01	 2.4616215540e+00
 1.0093383788e+00	 5.4495869730e-01	 2.4390474126e+00
 1.0040887143e+00	 5.5457172532e-01	 2.4165495530e+00
 9.9874021806e-01	 5.6414707432e-01	 2.3942744135e+00
 9.9329324477e-01	 5.7368325279e-01	 2.3723839324e+00
 9.8774817846e-01	 5.8317877241e-01	 2.3510537460e+00
 9.8210543268e-01	 5.9263214875e-01	 2.3292929654e+00
 1.0393969183e+00	 4.9892624962e-01	 2.5040035456e+00
 1.0346213376e+00	 5.0875538729e-01	 2.4786618547e+00
 1.0297450790e+00	 5.1855417145e-01	 2.4531354347e+00
 1.0247683515e+00	 5.2832109765e-01	 2.4275459786e+00
 1.0196913936e+00	 5.3805466108e-01	 2.4020380073e+00
 1.0145144730e+00	 5.4775335729e-01	 2.3767774820e+00
 1.0092378872e+00	 5.5741568288e-01	 2.3519502645e+00
 1.0038619628e+00	 5.6704013624e-01	 2.3277604327e+00
 9.9838705628e-01	 5.7662521819e-01	 2.3044284610e+00
 9.9281355373e-01	 5.8616943278e-01	 2.2821892738e+00
 9.8714187080e-01	 5.9567128797e-01	 2.2578697747e+00
 1.0446999638e+00	 5.0147179171e-01	 2.4587804519e+00
 1.0399000179e+00	 5.1135107804e-01	 2.4300114092e+00
 1.0349988804e+00	 5.2119985600e-01	 2.4011909419e+00
 1.0299967614e+00	 5.3101661345e-01	 2.3724981713e+00
 1.0248939007e+00	 5.4079983792e-01	 2.3441364102e+00
 1.0196905673e+00	 5.5054801727e-01	 2.3163316476e+00
 1.0143870601e+00	 5.6025964045e-01	 2.2893308747e+00
 1.0089837075e+00	 5.6993319816e-01	 2.2634002593e+00
 1.0034808678e+00	 5.7956718359e-01	 2.2388231781e+00
 9.9787892901e-01	 5.8916009315e-01	 2.2158444099e+00
 9.9217830892e-01	 5.9871042719e-01	 2.1880510353e+00
 1.0500030093e+00	 5.0401733379e-01	 2.4146706503e+00
 1.0451786982e+00	 5.1394676879e-01	 2.3826158674e+00
 1.0402526818e+00	 5.2384554055e-01	 2.3506367576e+00
 1.0352251714e+00	 5.3371212926e-01	 2.3189745055e+00
 1.0300964078e+00	 5.4354501476e-01	 2.2878958049e+00
 1.0248666615e+00	 5.5334267726e-01	 2.2576912078e+00
 1.0195362329e+00	 5.6310359801e-01	 2.2286733063e+00
 1.0141054522e+00	 5.7282626007e-01	 2.2011747562e+00
 1.0085746793e+00	 5.8250914899e-01	 2.1755461522e+00
 1.0029443043e+00	 5.9215075353e-01	 2.1511778872e+00
 9.9721474703e-01	 6.0174956642e-01	 2.1197573663e+00
 1.0553060548e+00	 5.0656287588e-01	 2.3716285541e+00
 1.0504573785e+00	 5.1654245955e-01	 2.3364375856e+00
 1.0455064832e+00	 5.2649122510e-01	 2.3014417951e+00
 1.0404535813e+00	 5.3640764506e-01	 2.2669490093e+00
 1.0352989149e+00	 5.4629019160e-01	 2.2332938387e+00
 1.0300427558e+00	 5.5613733724e-01	 2.2008358801e+00
 1.0246854058e+00	 5.6594755558e-01	 2.1699577463e+00
 1.0192271969e+00	 5.7571932199e-01	 2.1410629296e+00
 1.0136684908e+00	 5.8545111439e-01	 2.1145735101e+00
 1.0080096796e+00	 5.9514141390e-01	 2.0878516640e+00
 1.0022511852e+00	 6.0478870564e-01	 2.0529094716e+00
 1.0606091003e+00	 5.0910841797e-01	 2.3296081447e+00
 1.0557360588e+00	 5.1913815030e-01	 2.2914381938e+00
 1.0507602847e+00	 5.2913690965e-01	 2.2535739713e+00
 1.0456819913e+00	 5.3910316087e-01	 2.2163944717e+00
 1.0405014220e+00	 5.4903536845e-01	 2.1803067041e+00
 1.0352188500e+00	 5.5893199723e-01	 2.1457437414e+00
 1.0298345787e+00	 5.6879151315e-01	 2.1131625869e+00
 1.0243489416e+00	 5.7861238391e-01	 2.0830418690e+00
 1.0187623023e+00	 5.8839307979e-01	 2.0558777472e+00
 1.0130750548e+00	 5.9813207427e-01	 2.0257919302e+00
 1.0072876233e+00	 6.0782784487e-01	 1.9874281551e+00
 9.5692324210e-01	 5.7743645262e-01	 2.7198079819e+00
 9.5133043894e-01	 5.8660493013e-01	 2.7059165992e+00
 9.4564335295e-01	 5.9572946639e-01	 2.6928814905e+00
 9.3986247314e-01	 6.0480863063e-01	 2.6750441299e+00
 9.3398831707e-01	 6.1384099869e-01	 2.6527437813e+00
 9.2802143079e-01	 6.2282515371e-01	 2.6265114620e+00
 9.2196238868e-01	 6.3175968687e-01	 2.5969204113e+00
 9.1581179338e-01	 6.4064319804e-01	 2.5645853120e+00
 9.0957027559e-01	 6.4947429654e-01	 2.5301614131e+00
 9.0323849389e-01	 6.5825160179e-01	 2.4943435556e+00
 8.9681713458e-01	 6.6697374403e-01	 2.4578650998e+00
 9.6195968022e-01	 5.8047559185e-01	 2.6360614400e+00
 9.5633744125e-01	 5.8969232450e-01	 2.6208623685e+00
 9.5062042323e-01	 5.9886488463e-01	 2.6040314210e+00
 9.4480911773e-01	 6.0799183395e-01	 2.5825719308e+00
 9.3890404506e-01	 6.1707174079e-01	 2.5569712434e+00
 9.3290575411e-01	 6.2610318084e-01	 2.5277587697e+00
 9.2681482231e-01	 6.3508473785e-01	 2.4955053017e+00
 9.2063185545e-01	 6.4401500435e-01	 2.4608222317e+00
 9.1435748756e-01	 6.5289258231e-01	 2.4243606731e+00
 9.0799238070e-01	 6.6171608391e-01	 2.3868104833e+00
 9.0153722476e-01	 6.7048413216e-01	 2.3488991898e+00
 9.6699611834e-01	 5.8351473107e-01	 2.5552793101e+00
 9.6134444356e-01	 5.9277971887e-01	 2.5381324974e+00
 9.5559749351e-01	 6.0200030287e-01	 2.5175392331e+00
 9.4975576233e-01	 6.1117503727e-01	 2.4926441002e+00
 9.4381977304e-01	 6.2030248288e-01	 2.4639287758e+00
 9.3779007743e-01	 6.2938120796e-01	 2.4319161840e+00
 9.3166725593e-01	 6.3840978883e-01	 2.3971698172e+00
 9.2545191752e-01	 6.4738681065e-01	 2.3602929605e+00
 9.1914469954e-01	 6.5631086808e-01	 2.3219278177e+00
 9.1274626751e-01	 6.6518056602e-01	 2.2827545389e+00
 9.0625731494e-01	 6.7399452029e-01	 2.2434901513e+00
 9.7203255645e-01	 5.8655387030e-01	 2.4774376081e+00
 9.6635144587e-01	 5.9586711323e-01	 2.4574913887e+00
 9.6057456378e-01	 6.0513572112e-01	 2.4333115009e+00
 9.5470240693e-01	 6.1435824059e-01	 2.4051610650e+00
 9.4873550103e-01	 6.2353322498e-01	 2.3735112608e+00
 9.4267440075e-01	 6.3265923509e-01	 2.3388737174e+00
 9.3651968956e-01	 6.4173483982e-01	 2.3017998478e+00
 9.3027197959e-01	 6.5075861696e-01	 2.2628800849e+00
 9.2393191152e-01	 6.5972915385e-01	 2.2227430205e+00
 9.1750015432e-01	 6.6864504813e-01	 2.1820544452e+00
 9.1097740512e-01	 6.7750490841e-01	 2.1415162902e+00
 9.7706899457e-01	 5.8959300952e-01	 2.4024000598e+00
 9.7135844818e-01	 5.9895450760e-01	 2.3788524702e+00
 9.6555163406e-01	 6.0827113936e-01	 2.3512551171e+00
 9.5964905152e-01	 6.1754144390e-01	 2.3200237022e+00
 9.5365122901e-01	 6.2676396708e-01	 2.2856141494e+00
 9.4755872407e-01	 6.3593726221e-01	 2.2485220554e+00
 9.4137212318e-01	 6.4505989080e-01	 2.2092820436e+00
 9.3509204167e-01	 6.5413042326e-01	 2.1684670206e+00
 9.2871912349e-01	 6.6314743963e-01	 2.1266873342e+00
 9.2225404113e-01	 6.7210953025e-01	 2.0845898325e+00
 9.1569749530e-01	 6.8101529654e-01	 2.0428568258e+00
 9.8210543268e-01	 5.9263214875e-01	 2.3292929654e+00
 9.7636545049e-01	 6.0204190197e-01	 2.3021293531e+00
 9.7052870434e-01	 6.1140655761e-01	 2.2712772992e+00
 9.6459569612e-01	 6.2072464722e-01	 2.2371333431e+00
 9.5856695700e-01	 6.2999470918e-01	 2.2001334635e+00
 9.5244304739e-01	 6.3921528934e-01	 2.1607525560e+00
 9.4622455681e-01	 6.4838494179e-01	 2.1195038136e+00
 9.3991210374e-01	 6.5750222957e-01	 2.0769380107e+00
 9.3350633547e-01	 6.6656572540e-01	 2.0336426876e+00
 9.2700792794e-01	 6.7557401236e-01	 1.9902412364e+00
 9.2041758549e-01	 6.8452568466e-01	 1.9473918884e+00
 9.8714187080e-01	 5.9567128797e-01	 2.2578697747e+00
 9.8137245280e-01	 6.0512929634e-01	 2.2272358421e+00
 9.7550577462e-01	 6.1454197585e-01	 2.1932855959e+00
 9.6954234071e-01	 6.2390785054e-01	 2.1563917776e+00
 9.6348268498e-01	 6.3322545128e-01	 2.1169657986e+00
 9.5732737071e-01	 6.4249331646e-01	 2.0754572515e+00
 9.5107699043e-01	 6.5170999277e-01	 2.0323533258e+00
 9.4473216581e-01	 6.6087403587e-01	 1.9881781251e+00
 9.3829354745e-01	 6.6998401117e-01	 1.9434918857e+00
 9.3176181475e-01	 6.7903849448e-01	 1.8988900967e+00
 9.2513767567e-01	 6.8803607279e-01	 1.8550025197e+00
 9.9217830892e-01	 5.9871042719e-01	 2.1880510353e+00
 9.8637945511e-01	 6.0821669071e-01	 2.1540859450e+00
 9.8048284490e-01	 6.1767739410e-01	 2.1171878954e+00
 9.7448898531e-01	 6.2709105386e-01	 2.0777012604e+00
 9.6839841296e-01	 6.3645619338e-01	 2.0360083275e+00
 9.6221169403e-01	 6.4577134359e-01	 1.9925288511e+00
 9.5592942406e-01	 6.5503504375e-01	 1.9477195088e+00
 9.4955222788e-01	 6.6424584218e-01	 1.9020732608e+00
 9.4308075942e-01	 6.7340229694e-01	 1.8561186090e+00
 9.3651570156e-01	 6.8250297659e-01	 1.8104187576e+00
 9.2985776585e-01	 6.9154646092e-01	 1.7655706732e+00
 9.9721474703e-01	 6.0174956642e-01	 2.1197573663e+00
 9.9138645742e-01	 6.1130408508e-01	 2.0825938837e+00
 9.8545991518e-01	 6.2081281234e-01	 2.0428924340e+00
 9.7943562990e-01	 6.3027425718e-01	 2.0009645176e+00
 9.7331414095e-01	 6.3968693547e-01	 1.9571588061e+00
 9.6709601735e-01	 6.4904937071e-01	 1.9118607441e+00
 9.6078185768e-01	 6.5836009474e-01	 1.8654920543e+00
 9.5437228995e-01	 6.6761764848e-01	 1.8185101445e+00
 9.4786797140e-01	 6.7682058271e-01	 1.7714074158e+00
 9.4126958836e-01	 6.8596745871e-01	 1.7247104699e+00
 9.3457785603e-01	 6.9505684904e-01	 1.6789792168e+00
 1.0022511852e+00	 6.0478870564e-01	 2.0529094716e+00
 9.9639345973e-01	 6.1439147945e-01	 2.0126741060e+00
 9.9043698546e-01	 6.2394823058e-01	 1.9703078056e+00
 9.8438227450e-01	 6.3345746050e-01	 1.9260847544e+00
 9.7822986893e-01	 6.4291767757e-01	 1.8803155788e+00
 9.7198034067e-01	 6.5232739783e-01	 1.8333470052e+00
 9.6563429130e-01	 6.6168514572e-01	 1.7855614205e+00
 9.5919235202e-01	 6.7098945479e-01	 1.7373763347e+00
 9.5265518338e-01	 6.8023886848e-01	 1.6892437441e+00
 9.4602347517e-01	 6.8943194082e-01	 1.6416493931e+00
 9.3929794621e-01	 6.9856723717e-01	 1.5951119359e+00
 1.0072876233e+00	 6.0782784487e-01	 1.9874281551e+00
 1.0014004620e+00	 6.1747887382e-01	 1.9442412980e+00
 9.9541405574e-01	 6.2708364883e-01	 1.8993429723e+00
 9.8932891909e-01	 6.3664066382e-01	 1.8529656637e+00
 9.8314559692e-01	 6.4614841967e-01	 1.8053775859e+00
 9.7686466399e-01	 6.5560542496e-01	 1.7568823998e+00
 9.7048672493e-01	 6.6501019670e-01	 1.7078188373e+00
 9.6401241409e-01	 6.7436126110e-01	 1.6585602265e+00
 9.5744239535e-01	 6.8365715425e-01	 1.6095139162e+00
 9.5077736198e-01	 6.9289642294e-01	 1.5611206000e+00
 9.4401803640e-01	 7.0207762530e-01	 1.5138535382e+00
 8.9681713458e-01	 6.6697374403e-01	 2.4578650998e+00
 8.9030691144e-01	 6.7563936501e-01	 2.4195219300e+00
 8.8370856550e-01	 6.8424711864e-01	 2.3777762453e+00
 8.7702286477e-01	 6.9279567173e-01	 2.3329027420e+00
 8.7025060399e-01	 7.0128370460e-01	 2.2851937920e+00
 8.6339260431e-01	 7.0970991181e-01	 2.2349587109e+00
 8.5644971297e-01	 7.1807300273e-01	 2.1825229644e+00
 8.4942280297e-01	 7.2637170229e-01	 2.1282273161e+00
 8.4231277273e-01	 7.3460475154e-01	 2.0724269184e+00
 8.3512054569e-01	 7.4277090833e-01	 2.0154903492e+00
 8.2784706993e-01	 7.5086894789e-01	 1.9577985963e+00
 9.0153722476e-01	 6.7048413216e-01	 2.3488991898e+00
 8.9499273729e-01	 6.7919536166e-01	 2.3093045744e+00
 8.8835966321e-01	 6.8784841926e-01	 2.2663824821e+00
 8.8163877459e-01	 6.9644196474e-01	 2.2204190650e+00
 8.7483087033e-01	 7.0497467147e-01	 2.1717185445e+00
 8.6793677591e-01	 7.1344522713e-01	 2.1206024581e+00
 8.6095734304e-01	 7.2185233433e-01	 2.0674088424e+00
 8.5389344930e-01	 7.3019471125e-01	 2.0124913562e+00
 8.4674599785e-01	 7.3847109234e-01	 1.9562183435e+00
 8.3951591699e-01	 7.4668022890e-01	 1.8989718412e+00
 8.3220415978e-01	 7.5482088972e-01	 1.8411465329e+00
 9.0625731494e-01	 6.7399452029e-01	 2.2434901513e+00
 8.9967856314e-01	 6.8275135832e-01	 2.2026992878e+00
 8.9301076092e-01	 6.9144971989e-01	 2.1586409176e+00
 8.8625468440e-01	 7.0008825775e-01	 2.1116148416e+00
 8.7941113667e-01	 7.0866563834e-01	 2.0619393538e+00
 8.7248094751e-01	 7.1718054246e-01	 2.0099504632e+00
 8.6546497310e-01	 7.2563166592e-01	 1.9560010513e+00
 8.5836409563e-01	 7.3401772021e-01	 1.9004599656e+00
 8.5117922297e-01	 7.4233743314e-01	 1.8437110528e+00
 8.4391128828e-01	 7.5058954947e-01	 1.7861521334e+00
 8.3656124962e-01	 7.5877283155e-01	 1.7281939212e+00
 9.1097740512e-01	 6.7750490841e-01	 2.1415162902e+00
 9.0436438899e-01	 6.8630735498e-01	 2.0995846265e+00
 8.9766185864e-01	 6.9505102051e-01	 2.0544305893e+00
 8.9087059422e-01	 7.0373455075e-01	 2.0063697876e+00
 8.8399140301e-01	 7.1235660520e-01	 1.9557367773e+00
 8.7702511912e-01	 7.2091585778e-01	 1.9028842554e+00
 8.6997260317e-01	 7.2941099751e-01	 1.8481821882e+00
 8.6283474196e-01	 7.3784072917e-01	 1.7920168730e+00
 8.5561244809e-01	 7.4620377394e-01	 1.7347899370e+00
 8.4830665957e-01	 7.5449887004e-01	 1.6769172760e+00
 8.4091833946e-01	 7.6272477338e-01	 1.6188279360e+00
 9.1569749530e-01	 6.8101529654e-01	 2.0428568258e+00
 9.0905021484e-01	 6.8986335164e-01	 1.9998400501e+00
 9.0231295635e-01	 6.9865232114e-01	 1.9536314219e+00
 8.9548650403e-01	 7.0738084376e-01	 1.9045644843e+00
 8.8857166934e-01	 7.1604757207e-01	 1.8529922111e+00
 8.8156929072e-01	 7.2465117311e-01	 1.7992861711e+00
 8.7448023324e-01	 7.3319032911e-01	 1.7438356228e+00
 8.6730538830e-01	 7.4166373813e-01	 1.6870465414e+00
 8.6004567321e-01	 7.5007011473e-01	 1.6293405804e+00
 8.5270203086e-01	 7.5840819061e-01	 1.5711539706e+00
 8.4527542930e-01	 7.6667671521e-01	 1.5129363604e+00
 9.2041758549e-01	 6.8452568466e-01	 1.9473918884e+00
 9.1373604069e-01	 6.9341934829e-01	 1.9033459211e+00
 9.0696405406e-01	 7.0225362176e-01	 1.8561242280e+00
 9.0010241384e-01	 7.1102713677e-01	 1.8060803801e+00
 8.9315193568e-01	 7.1973853894e-01	 1.7535878929e+00
 8.8611346232e-01	 7.2838648843e-01	 1.6990393582e+00
 8.7898786331e-01	 7.3696966070e-01	 1.6428455020e+00
 8.7177603463e-01	 7.4548674709e-01	 1.5854341741e+00
 8.6447889833e-01	 7.5393645553e-01	 1.5272492682e+00
 8.5709740216e-01	 7.6231751118e-01	 1.4687495786e+00
 8.4963251914e-01	 7.7062865704e-01	 1.4104075950e+00
 9.2513767567e-01	 6.8803607279e-01	 1.8550025197e+00
 9.1842186653e-01	 6.9697534495e-01	 1.8099835051e+00
 9.1161515177e-01	 7.0585492239e-01	 1.7617907094e+00
 9.0471832366e-01	 7.1467342978e-01	 1.7107997928e+00
 8.9773220202e-01	 7.2342950580e-01	 1.6574069050e+00
 8.9065763392e-01	 7.3212180376e-01	 1.6020277800e+00
 8.8349549338e-01	 7.4074899229e-01	 1.5450967559e+00
 8.7624668096e-01	 7.4930975605e-01	 1.4870657216e+00
 8.6891212345e-01	 7.5780279633e-01	 1.4284029946e+00
 8.6149277345e-01	 7.6622683175e-01	 1.3695921301e+00
 8.5398960898e-01	 7.7458059887e-01	 1.3111306678e+00
 9.2985776585e-01	 6.9154646092e-01	 1.7655706732e+00
 9.2310769238e-01	 7.0053134161e-01	 1.7196349729e+00
 9.1626624949e-01	 7.0945622301e-01	 1.6705134598e+00
 9.0933423347e-01	 7.1831972279e-01	 1.6186059137e+00
 9.0231246835e-01	 7.2712047267e-01	 1.5643331795e+00
 8.9520180552e-01	 7.3585711908e-01	 1.5081362221e+00
 8.8800312345e-01	 7.4452832389e-01	 1.4504751045e+00
 8.8071732729e-01	 7.5313276501e-01	 1.3918278899e+00
 8.7334534857e-01	 7.6166913713e-01	 1.3326894719e+00
 8.6588814474e-01	 7.7013615232e-01	 1.2735703343e+00
 8.5834669883e-01	 7.7853254070e-01	 1.2149952460e+00
 9.3457785603e-01	 6.9505684904e-01	 1.6789792168e+00
 9.2779351823e-01	 7.0408733827e-01	 1.6321834033e+00
 9.2091734720e-01	 7.1305752363e-01	 1.5821759688e+00
 9.1395014329e-01	 7.2196601580e-01	 1.5293828125e+00
 9.0689273469e-01	 7.3081143954e-01	 1.4742515044e+00
 8.9974597712e-01	 7.3959243441e-01	 1.4172502988e+00
 8.9251075351e-01	 7.4830765548e-01	 1.3588670665e+00
 8.8518797362e-01	 7.5695577397e-01	 1.2996081497e+00
 8.7777857369e-01	 7.6553547792e-01	 1.2399971410e+00
 8.7028351604e-01	 7.7404547289e-01	 1.1805735912e+00
 8.6270378867e-01	 7.8248448253e-01	 1.1218916477e+00
 9.3929794621e-01	 6.9856723717e-01	 1.5951119359e+00
 9.3247934408e-01	 7.0764333493e-01	 1.5475127875e+00
 9.2556844491e-01	 7.1665882426e-01	 1.4966626274e+00
 9.1856605310e-01	 7.2561230881e-01	 1.4430154431e+00
 9.1147300103e-01	 7.3450240640e-01	 1.3870475305e+00
 9.0429014873e-01	 7.4332774973e-01	 1.3292564615e+00
 8.9701838358e-01	 7.5208698707e-01	 1.2701599681e+00
 8.8965861995e-01	 7.6077878293e-01	 1.2102947465e+00
 8.8221179881e-01	 7.6940181872e-01	 1.1502151825e+00
 8.7467888733e-01	 7.7795479346e-01	 1.0904920030e+00
 8.6706087851e-01	 7.8643642436e-01	 1.0317108556e+00
 9.4401803640e-01	 7.0207762530e-01	 1.5138535382e+00
 9.3716516993e-01	 7.1119933158e-01	 1.4655080346e+00
 9.3021954263e-01	 7.2026012488e-01	 1.4138587336e+00
 9.2318196292e-01	 7.2925860182e-01	 1.3593896513e+00
 9.1605326736e-01	 7.3819337327e-01	 1.3026077799e+00
 9.0883432033e-01	 7.4706306506e-01	 1.2440420080e+00
 9.0152601365e-01	 7.5586631867e-01	 1.1842419531e+00
 8.9412926628e-01	 7.6460179189e-01	 1.1237767120e+00
 8.8664502393e-01	 7.7326815952e-01	 1.0632335291e+00
 8.7907425862e-01	 7.8186411403e-01	 1.0032163883e+00
 8.7141796835e-01	 7.9038836620e-01	 9.4434453070e-01
 8.2784706993e-01	 7.5086894789e-01	 1.9577985963e+00
 8.2049331776e-01	 7.5889766346e-01	 1.8969777687e+00
 8.1306028527e-01	 7.6685586691e-01	 1.8308077755e+00
 8.0554899190e-01	 7.7474238928e-01	 1.7599149413e+00
 7.9796047999e-01	 7.8255608135e-01	 1.6849323795e+00
 7.9029581427e-01	 7.9029581427e-01	 1.6064985180e+00
 7.8255608135e-01	 7.9796047999e-01	 1.5252556003e+00
 7.7474238928e-01	 8.0554899190e-01	 1.4418481671e+00
 7.6685586691e-01	 8.1306028527e-01	 1.3569215249e+00
 7.5889766346e-01	 8.2049331776e-01	 1.2711202060e+00
 7.5086894789e-01	 8.2784706993e-01	 1.1850864264e+00
 8.3220415978e-01	 7.5482088972e-01	 1.8411465329e+00
 8.2481170364e-01	 7.6289186169e-01	 1.7803594542e+00
 8.1733954993e-01	 7.7089195042e-01	 1.7143734447e+00
 8.0978872344e-01	 7.7881998080e-01	 1.6438166275e+00
 8.0216027199e-01	 7.8667479757e-01	 1.5693238164e+00
 7.9445526592e-01	 7.9445526592e-01	 1.4915350186e+00
 7.8667479757e-01	 8.0216027199e-01	 1.4110939119e+00
 7.7881998080e-01	 8.0978872344e-01	 1.3286463023e+00
 7.7089195042e-01	 8.1733954993e-01	 1.2448385670e+00
 7.6289186169e-01	 8.2481170364e-01	 1.1603160889e+00
 7.5482088972e-01	 8.3220415978e-01	 1.0757216884e+00
 8.3656124962e-01	 7.5877283155e-01	 1.7281939212e+00
 8.2913008953e-01	 7.6688605992e-01	 1.6674446314e+00
 8.2161881459e-01	 7.7492803393e-01	 1.6016481121e+00
 8.1402845498e-01	 7.8289757232e-01	 1.5314333482e+00
 8.0636006399e-01	 7.9079351379e-01	 1.4574358986e+00
 7.9861471758e-01	 7.9861471758e-01	 1.3802963777e+00
 7.9079351379e-01	 8.0636006399e-01	 1.3006589093e+00
 7.8289757232e-01	 8.1402845498e-01	 1.2191695607e+00
 7.7492803393e-01	 8.2161881459e-01	 1.1364747619e+00
 7.6688605992e-01	 8.2913008953e-01	 1.0532197149e+00
 7.5877283155e-01	 8.3656124962e-01	 9.7004680052e-01
 8.4091833946e-01	 7.6272477338e-01	 1.6188279360e+00
 8.3344847541e-01	 7.7088025815e-01	 1.5581214153e+00
 8.2589807925e-01	 7.7896411744e-01	 1.4925205329e+00
 8.1826818651e-01	 7.8697516384e-01	 1.4226542177e+00
 8.1055985599e-01	 7.9491223001e-01	 1.3491578385e+00
 8.0277416923e-01	 8.0277416923e-01	 1.2726716646e+00
 7.9491223001e-01	 8.1055985599e-01	 1.1938392980e+00
 7.8697516384e-01	 8.1826818651e-01	 1.1133060850e+00
 7.7896411744e-01	 8.2589807925e-01	 1.0317175113e+00
 7.7088025815e-01	 8.3344847541e-01	 9.4971758827e-01
 7.6272477338e-01	 8.4091833946e-01	 8.6794723484e-01
 8.4527542930e-01	 7.6667671521e-01	 1.5129363604e+00
 8.3776686129e-01	 7.7487445638e-01	 1.4522784882e+00
 8.3017734391e-01	 7.8300020095e-01	 1.3868799929e+00
 8.2250791805e-01	 7.9105275537e-01	 1.3173688486e+00
 8.1475964799e-01	 7.9903094622e-01	 1.2443793182e+00
 8.0693362088e-01	 8.0693362088e-01	 1.1685503935e+00
 7.9903094622e-01	 8.1475964799e-01	 1.0905242074e+00
 7.9105275537e-01	 8.2250791805e-01	 1.0109444228e+00
 7.8300020095e-01	 8.3017734391e-01	 9.3045460585e-01
 7.7487445638e-01	 8.3776686129e-01	 8.4969658859e-01
 7.6667671521e-01	 8.4527542930e-01	 7.6930882783e-01
 8.4963251914e-01	 7.7062865704e-01	 1.4104075950e+00
 8.4208524717e-01	 7.7886865461e-01	 1.3498051092e+00
 8.3445660856e-01	 7.8703628446e-01	 1.2846163190e+00
 8.2674764959e-01	 7.9513034689e-01	 1.2154673630e+00
 8.1895943999e-01	 8.0314966244e-01	 1.1429905012e+00
 8.1109307254e-01	 8.1109307254e-01	 1.0678225356e+00
 8.0314966244e-01	 8.1895943999e-01	 9.9060320194e-01
 7.9513034689e-01	 8.2674764959e-01	 9.1197353844e-01
 7.8703628446e-01	 8.3445660856e-01	 8.3257423665e-01
 7.7886865461e-01	 8.4208524717e-01	 7.5304398214e-01
 7.7062865704e-01	 8.4963251914e-01	 6.7401779059e-01
 8.5398960898e-01	 7.7458059887e-01	 1.3111306678e+00
 8.4640363306e-01	 7.8286285283e-01	 1.2505911261e+00
 8.3873587322e-01	 7.9107236797e-01	 1.1856198913e+00
 8.3098738112e-01	 7.9920793841e-01	 1.1168404047e+00
 8.2315923199e-01	 8.0726837866e-01	 1.0448820452e+00
 8.1525252419e-01	 8.1525252419e-01	 9.7037853138e-01
 8.0726837866e-01	 8.2315923199e-01	 8.9396629423e-01
 7.9920793841e-01	 8.3098738112e-01	 8.1628282546e-01
 7.9107236797e-01	 8.3873587322e-01	 7.3796500776e-01
 7.8286285283e-01	 8.4640363306e-01	 6.5964743379e-01
 7.7458059887e-01	 8.5398960898e-01	 5.8196072032e-01
 8.5834669883e-01	 7.7853254070e-01	 1.2149952460e+00
 8.5072201894e-01	 7.8685705106e-01	 1.1545269868e+00
 8.4301513788e-01	 7.9510845148e-01	 1.0897816557e+00
 8.3522711266e-01	 8.0328552993e-01	 1.0213791526e+00
 8.2735902399e-01	 8.1138709488e-01	 9.4994511547e-01
 8.1941197585e-01	 8.1941197585e-01	 8.7610930492e-01
 8.1138709488e-01	 8.2735902399e-01	 8.0050395867e-01
 8.0328552993e-01	 8.3522711266e-01	 7.2376212027e-01
 7.9510845148e-01	 8.4301513788e-01	 6.4651594936e-01
 7.8685705106e-01	 8.5072201894e-01	 5.6939501983e-01
 7.7853254070e-01	 8.5834669883e-01	 4.9302461270e-01
 8.6270378867e-01	 7.8248448253e-01	 1.1218916477e+00
 8.5504040482e-01	 7.9085124929e-01	 1.0615037528e+00
 8.4729440254e-01	 7.9914453499e-01	 9.9699313780e-01
 8.3946684419e-01	 8.0736312146e-01	 9.2897533488e-01
 8.3155881599e-01	 8.1550581110e-01	 8.5807139932e-01
 8.2357142750e-01	 8.2357142750e-01	 7.8490627807e-01
 8.1550581110e-01	 8.3155881599e-01	 7.1010714609e-01
 8.0736312146e-01	 8.3946684419e-01	 6.3430171662e-01
 7.9914453499e-01	 8.4729440254e-01	 5.5811653201e-01
 7.9085124929e-01	 8.5504040482e-01	 4.8217524180e-01
 7.8248448253e-01	 8.6270378867e-01	 4.0709687510e-01
 8.6706087851e-01	 7.8643642436e-01	 1.0317108556e+00
 8.5935879071e-01	 7.9484544752e-01	 9.7141311315e-01
 8.5157366720e-01	 8.0318061850e-01	 9.0714645749e-01
 8.4370657573e-01	 8.1144071298e-01	 8.3952124394e-01
 8.3575860799e-01	 8.1962452731e-01	 7.6915312161e-01
 8.2773087915e-01	 8.2773087915e-01	 6.9666138616e-01
 8.1962452731e-01	 8.3575860799e-01	 6.2266729925e-01
 8.1144071298e-01	 8.4370657573e-01	 5.4779238090e-01
 8.0318061850e-01	 8.5157366720e-01	 4.7265668161e-01
 7.9484544752e-01	 8.5935879071e-01	 3.9787704111e-01
 7.8643642436e-01	 8.6706087851e-01	 3.2406534072e-01
 8.7141796835e-01	 7.9038836620e-01	 9.4434453070e-01
 8.6367717659e-01	 7.9883964575e-01	 8.8414739916e-01
 8.5585293186e-01	 8.0721670201e-01	 8.2013434429e-01
 8.4794630727e-01	 8.1551830450e-01	 7.5290975256e-01
 8.3995839999e-01	 8.2374324353e-01	 6.8308306088e-01
 8.3189033081e-01	 8.3189033081e-01	 6.1126709429e-01
 8.2374324353e-01	 8.3995839999e-01	 5.3807636913e-01
 8.1551830450e-01	 8.4794630727e-01	 4.6412536830e-01
 8.0721670201e-01	 8.5585293186e-01	 3.9002679537e-01
 7.9883964575e-01	 8.6367717659e-01	 3.1638981450e-01
 7.9038836620e-01	 8.7141796835e-01	 2.4381828356e-01
 7.5086894789e-01	 8.2784706993e-01	 1.1850864264e+00
 7.4277090833e-01	 8.3512054569e-01	 1.0967674404e+00
 7.3460475154e-01	 8.4231277273e-01	 1.0040357767e+00
 7.2637170229e-01	 8.4942280297e-01	 9.0741433735e-01
 7.1807300273e-01	 8.5644971297e-01	 8.0741894103e-01
 7.0970991181e-01	 8.6339260431e-01	 7.0455710106e-01
 7.0128370460e-01	 8.7025060399e-01	 5.9932683492e-01
 6.9279567173e-01	 8.7702286477e-01	 4.9221551171e-01
 6.8424711864e-01	 8.8370856550e-01	 3.8369874276e-01
 6.7563936501e-01	 8.9030691144e-01	 2.7423932062e-01
 6.6697374403e-01	 8.9681713458e-01	 1.6428621147e-01
 7.5482088972e-01	 8.3220415978e-01	 1.0757216884e+00
 7.4668022890e-01	 8.3951591699e-01	 9.8899468212e-01
 7.3847109234e-01	 8.4674599785e-01	 8.9800804565e-01
 7.3019471125e-01	 8.5389344930e-01	 8.0329713420e-01
 7.2185233433e-01	 8.6095734304e-01	 7.0538948282e-01
 7.1344522713e-01	 8.6793677591e-01	 6.0480354341e-01
 7.0497467147e-01	 8.7483087033e-01	 5.0204745501e-01
 6.9644196474e-01	 8.8163877459e-01	 3.9761785342e-01
 6.8784841926e-01	 8.8835966321e-01	 2.9199872529e-01
 6.7919536166e-01	 8.9499273729e-01	 1.8566031250e-01
 6.7048413216e-01	 9.0153722476e-01	 7.9058071789e-02
 7.5877283155e-01	 8.3656124962e-01	 9.7004680052e-01
 7.5058954947e-01	 8.4391128828e-01	 8.8488444095e-01
 7.4233743314e-01	 8.5117922297e-01	 7.9560388257e-01
 7.3401772021e-01	 8.5836409563e-01	 7.0275309965e-01
 7.2563166592e-01	 8.6546497310e-01	 6.0687157356e-01
 7.1718054246e-01	 8.7248094751e-01	 5.0848898786e-01
 7.0866563834e-01	 8.7941113667e-01	 4.0812395799e-01
 7.0008825775e-01	 8.8625468440e-01	 3.0628280133e-01
 6.9144971989e-01	 8.9301076092e-01	 2.0345835341e-01
 6.8275135832e-01	 8.9967856314e-01	 1.0012883591e-01
 6.7399452029e-01	 9.0625731494e-01	-3.2432181629e-03
 7.6272477338e-01	 8.4091833946e-01	 8.6794723484e-01
 7.5449887004e-01	 8.4830665957e-01	 7.8432158978e-01
 7.4620377394e-01	 8.5561244809e-01	 6.9670854865e-01
 7.3784072917e-01	 8.6283474196e-01	 6.0566887438e-01
 7.2941099751e-01	 8.6997260317e-01	 5.1175422789e-01
 7.2091585778e-01	 8.7702511912e-01	 4.1550582013e-01
 7.1235660520e-01	 8.8399140301e-01	 3.1745309962e-01
 7.0373455075e-01	 8.9087059422e-01	 2.1811248154e-01
 6.9505102051e-01	 8.9766185864e-01	 1.1798612442e-01
 6.8630735498e-01	 9.0436438899e-01	 1.7560760091e-02
 6.7750490841e-01	 9.1097740512e-01	-8.2693417312e-02
 7.6667671521e-01	 8.4527542930e-01	 7.6930882783e-01
 7.5840819061e-01	 8.5270203086e-01	 6.8719134492e-01
 7.5007011473e-01	 8.6004567321e-01	 6.0120760684e-01
 7.4166373813e-01	 8.6730538830e-01	 5.1193133860e-01
 7.3319032911e-01	 8.7448023324e-01	 4.1992661729e-01
 7.2465117311e-01	 8.8156929072e-01	 3.2574647966e-01
 7.1604757207e-01	 8.8857166934e-01	 2.2993156609e-01
 7.0738084376e-01	 8.9548650403e-01	 1.3300880723e-01
 6.9865232114e-01	 9.0231295635e-01	 3.5490159473e-02
 6.8986335164e-01	 9.0905021484e-01	-6.2128604737e-02
 6.8101529654e-01	 9.1569749530e-01	-1.5936904591e-01
 7.7062865704e-01	 8.4963251914e-01	 6.7401779059e-01
 7.6231751118e-01	 8.5709740216e-01	 5.9337927615e-01
 7.5393645553e-01	 8.6447889833e-01	 5.0898693206e-01
 7.4548674709e-01	 8.7177603463e-01	 4.2142762289e-01
 7.3696966070e-01	 8.7898786331e-01	 3.3127808192e-01
 7.2838648843e-01	 8.8611346232e-01	 2.3910347299e-01
 7.1973853894e-01	 8.9315193568e-01	 1.4545598936e-01
 7.1102713677e-01	 9.0010241384e-01	 5.0873496405e-02
 7.0225362176e-01	 9.0696405406e-01	-4.4121775751e-02
 6.9341934829e-01	 9.1373604069e-01	-1.3902448332e-01
 6.8452568466e-01	 9.2041758549e-01	-2.3334735761e-01
 7.7458059887e-01	 8.5398960898e-01	 5.8196072032e-01
 7.6622683175e-01	 8.6149277345e-01	 5.0277131775e-01
 7.5780279633e-01	 8.6891212345e-01	 4.1993272237e-01
 7.4930975605e-01	 8.7624668096e-01	 3.3404511986e-01
 7.4074899229e-01	 8.8349549338e-01	 2.4569814332e-01
 7.3212180376e-01	 8.9065763392e-01	 1.5546938788e-01
 7.2342950580e-01	 8.9773220202e-01	 6.3922963167e-02
 7.1467342978e-01	 9.0471832366e-01	-2.8391909685e-02
 7.0585492239e-01	 9.1161515177e-01	-1.2094224982e-01
 6.9697534495e-01	 9.1842186653e-01	-2.1321261086e-01
 6.8803607279e-01	 9.2513767567e-01	-3.0470631127e-01
 7.7853254070e-01	 8.5834669883e-01	 4.9302461270e-01
 7.7013615232e-01	 8.6588814474e-01	 4.1525378055e-01
 7.6166913713e-01	 8.7334534857e-01	 3.3393151105e-01
 7.5313276501e-01	 8.8071732729e-01	 2.4967149677e-01
 7.4452832389e-01	 8.8800312345e-01	 1.6307651790e-01
 7.3585711908e-01	 8.9520180552e-01	 7.4736908269e-02
 7.2712047267e-01	 9.0231246835e-01	-1.4770940171e-02
 7.1831972279e-01	 9.0933423347e-01	-1.0488602751e-01
 7.0945622301e-01	 9.1626624949e-01	-1.9506414380e-01
 7.0053134161e-01	 9.2310769238e-01	-2.8477920815e-01
 6.9154646092e-01	 9.2985776585e-01	-3.7352454250e-01
 7.8248448253e-01	 8.6270378867e-01	 4.0709687510e-01
 7.7404547289e-01	 8.7028351604e-01	 3.3071336475e-01
 7.6553547792e-01	 8.7777857369e-01	 2.5087017951e-01
 7.5695577397e-01	 8.8518797362e-01	 1.6819470892e-01
 7.4830765548e-01	 8.9251075351e-01	 8.3303131325e-02
 7.3959243441e-01	 8.9974597712e-01	-3.2011700838e-03
 7.3081143954e-01	 9.0689273469e-01	-9.0729152343e-02
 7.2196601580e-01	 9.1395014329e-01	-1.7870761163e-01
 7.1305752363e-01	 9.2091734720e-01	-2.6658062904e-01
 7.0408733827e-01	 9.2779351823e-01	-3.5381095632e-01
 6.9505684904e-01	 9.3457785603e-01	-4.3988133490e-01
 7.8643642436e-01	 8.6706087851e-01	 3.2406534072e-01
 7.7795479346e-01	 8.7467888733e-01	 2.4903717375e-01
 7.6940181872e-01	 8.8221179881e-01	 1.7063597115e-01
 7.6077878293e-01	 8.8965861995e-01	 8.9503013939e-02
 7.5208698707e-01	 8.9701838358e-01	 6.2681336450e-03
 7.4332774973e-01	 9.0429014873e-01	-7.8451923161e-02
 7.3450240640e-01	 9.1147300103e-01	-1.6405509093e-01
 7.2561230881e-01	 9.1856605310e-01	-2.4995553451e-01
 7.1665882426e-01	 9.2556844491e-01	-3.3558514443e-01
 7.0764333493e-01	 9.3247934408e-01	-4.2039497115e-01
 6.9856723717e-01	 9.3929794621e-01	-5.0385659115e-01
 7.9038836620e-01	 8.7141796835e-01	 2.4381828356e-01
 7.8186411403e-01	 8.7907425862e-01	 1.7011272866e-01
 7.7326815952e-01	 8.8664502393e-01	 9.3116505911e-02
 7.6460179189e-01	 8.9412926628e-01	 1.3484986839e-02
 7.5586631867e-01	 9.0152601365e-01	-6.8138084846e-02
 7.4706306506e-01	 9.0883432033e-01	-1.5112228159e-01
 7.3819337327e-01	 9.1605326736e-01	-2.3485214069e-01
 7.2925860182e-01	 9.2318196292e-01	-3.1872876574e-01
 7.2026012488e-01	 9.3021954263e-01	-4.0217137326e-01
 7.1119933158e-01	 9.3716516993e-01	-4.8461877713e-01
 7.0207762530e-01	 9.4401803640e-01	-5.6553080376e-01
 6.6697374403e-01	 8.9681713458e-01	 1.6428621147e-01
 6.5825160179e-01	 9.0323849389e-01	 5.2786920297e-02
 6.4947429654e-01	 9.0957027559e-01	-6.1311292617e-02
 6.4064319804e-01	 9.1581179338e-01	-1.7759654481e-01
 6.3175968687e-01	 9.2196238868e-01	-2.9569179958e-01
 6.2282515371e-01	 9.2802143079e-01	-4.1525538759e-01
 6.1384099869e-01	 9.3398831707e-01	-5.3598142558e-01
 6.0480863063e-01	 9.3986247314e-01	-6.5760012954e-01
 5.9572946639e-01	 9.4564335295e-01	-7.7987802014e-01
 5.8660493013e-01	 9.5133043894e-01	-9.0269645534e-01
 5.7743645262e-01	 9.5692324210e-01	-1.0291291668e+00
 6.7048413216e-01	 9.0153722476e-01	 7.9058071789e-02
 6.6171608391e-01	 9.0799238070e-01	-2.8982822721e-02
 6.5289258231e-01	 9.1435748756e-01	-1.3964167059e-01
 6.4401500435e-01	 9.2063185545e-01	-2.5250681970e-01
 6.3508473785e-01	 9.2681482231e-01	-3.6720100393e-01
 6.2610318084e-01	 9.3290575411e-01	-4.8338189001e-01
 6.1707174079e-01	 9.3890404506e-01	-6.0074252057e-01
 6.0799183395e-01	 9.4480911773e-01	-7.1901165078e-01
 5.9886488463e-01	 9.5062042323e-01	-8.3795397625e-01
 5.8969232450e-01	 9.5633744125e-01	-9.5737025024e-01
 5.8047559185e-01	 9.6195968022e-01	-1.0788971568e+00
 6.7399452029e-01	 9.0625731494e-01	-3.2432181629e-03
 6.6518056602e-01	 9.1274626751e-01	-1.0794461269e-01
 6.5631086808e-01	 9.1914469954e-01	-2.1527123480e-01
 6.4738681065e-01	 9.2545191752e-01	-3.2481172484e-01
 6.3840978883e-01	 9.3166725593e-01	-4.3618880559e-01
 6.2938120796e-01	 9.3779007743e-01	-5.4905985375e-01
 6.2030248288e-01	 9.4381977304e-01	-6.6311736661e-01
 6.1117503727e-01	 9.4975576233e-01	-7.7808932119e-01
 6.0200030287e-01	 9.5559749351e-01	-8.9373942330e-01
 5.9277971887e-01	 9.6134444356e-01	-1.0098672445e+00
 5.8351473107e-01	 9.6699611834e-01	-1.1269773239e+00
 6.7750490841e-01	 9.1097740512e-01	-8.2693417312e-02
 6.6864504813e-01	 9.1750015432e-01	-1.8416633180e-01
 6.5972915385e-01	 9.2393191152e-01	-2.8826197402e-01
 6.5075861696e-01	 9.3027197959e-01	-3.9456932917e-01
 6.4173483982e-01	 9.3651968956e-01	-5.0271131608e-01
 6.3265923509e-01	 9.4267440075e-01	-6.1234538280e-01
 6.2353322498e-01	 9.4873550103e-01	-7.2316399622e-01
 6.1435824059e-01	 9.5470240693e-01	-8.3489502272e-01
 6.0513572112e-01	 9.6057456378e-01	-9.4730199719e-01
 5.9586711323e-01	 9.6635144587e-01	-1.0601842784e+00
 5.8655387030e-01	 9.7203255645e-01	-1.1734623432e+00
 6.8101529654e-01	 9.1569749530e-01	-1.5936904591e-01
 6.7210953025e-01	 9.2225404113e-01	-2.5771681425e-01
 6.6314743963e-01	 9.2871912349e-01	-3.5867697723e-01
 6.5413042326e-01	 9.3509204167e-01	-4.6183890754e-01
 6.4505989080e-01	 9.4137212318e-01	-5.6682591605e-01
 6.3593726221e-01	 9.4755872407e-01	-6.7329587109e-01
 6.2676396708e-01	 9.5365122901e-01	-7.8094171034e-01
 6.1754144390e-01	 9.5964905152e-01	-8.8949184200e-01
 6.0827113936e-01	 9.6555163406e-01	-9.9871043275e-01
 5.9895450760e-01	 9.7135844818e-01	-1.1083975800e+00
 5.8959300952e-01	 9.7706899457e-01	-1.2183893669e+00
 6.8452568466e-01	 9.2041758549e-01	-2.3334735761e-01
 6.7557401236e-01	 9.2700792794e-01	-3.2866581480e-01
 6.6656572540e-01	 9.3350633547e-01	-4.2658039978e-01
 6.5750222957e-01	 9.3991210374e-01	-5.2668090556e-01
 6.4838494179e-01	 9.4622455681e-01	-6.2859121994e-01
 6.3921528934e-01	 9.5244304739e-01	-7.3196996806e-01
 6.2999470918e-01	 9.5856695700e-01	-8.3651104585e-01
 6.2072464722e-01	 9.6459569612e-01	-9.4194404099e-01
 6.1140655761e-01	 9.7052870434e-01	-1.0480345385e+00
 6.0204190197e-01	 9.7636545049e-01	-1.1545843088e+00
 5.9263214875e-01	 9.8210543268e-01	-1.2614313757e+00
 6.8803607279e-01	 9.2513767567e-01	-3.0470631127e-01
 6.7903849448e-01	 9.3176181475e-01	-3.9708397720e-01
 6.6998401117e-01	 9.3829354745e-01	-4.9203742947e-01
 6.6087403587e-01	 9.4473216581e-01	-5.8915690444e-01
 6.5170999277e-01	 9.5107699043e-01	-6.8806704064e-01
 6.4249331646e-01	 9.5732737071e-01	-7.8842754419e-01
 6.3322545128e-01	 9.6348268498e-01	-8.8993374319e-01
 6.2390785054e-01	 9.6954234071e-01	-9.9231702755e-01
 6.1454197585e-01	 9.7550577462e-01	-1.0953451713e+00
 6.0512929634e-01	 9.8137245280e-01	-1.1988225350e+00
 5.9567128797e-01	 9.8714187080e-01	-1.3025901458e+00
 6.9154646092e-01	 9.2985776585e-01	-3.7352454250e-01
 6.8250297659e-01	 9.3651570156e-01	-4.6304280244e-01
 6.7340229694e-01	 9.4308075942e-01	-5.5511425256e-01
 6.6424584218e-01	 9.4955222788e-01	-6.4932958585e-01
 6.5503504375e-01	 9.5592942406e-01	-7.4531435426e-01
 6.4577134359e-01	 9.6221169403e-01	-8.4272965670e-01
 6.3645619338e-01	 9.6839841296e-01	-9.4127271380e-01
 6.2709105386e-01	 9.7448898531e-01	-1.0406773259e+00
 6.1767739410e-01	 9.8048284490e-01	-1.1407142109e+00
 6.0821669071e-01	 9.8637945511e-01	-1.2411912197e+00
 5.9871042719e-01	 9.9217830892e-01	-1.3419534268e+00
 6.9505684904e-01	 9.3457785603e-01	-4.3988133490e-01
 6.8596745871e-01	 9.4126958836e-01	-5.2661461688e-01
 6.7682058271e-01	 9.4786797140e-01	-6.1587801984e-01
 6.6761764848e-01	 9.5437228995e-01	-7.0726269681e-01
 6.5836009474e-01	 9.6078185768e-01	-8.0039526481e-01
 6.4904937071e-01	 9.6709601735e-01	-8.9493851510e-01
 6.3968693547e-01	 9.7331414095e-01	-9.9059200777e-01
 6.3027425718e-01	 9.7943562990e-01	-1.0870925470e+00
 6.2081281234e-01	 9.8545991518e-01	-1.1842145338e+00
 6.1130408508e-01	 9.9138645742e-01	-1.2817701931e+00
 6.0174956642e-01	 9.9721474703e-01	-1.3796096732e+00
 6.9856723717e-01	 9.3929794621e-01	-5.0385659115e-01
 6.8943194082e-01	 9.4602347517e-01	-5.8787254024e-01
 6.8023886848e-01	 9.5265518338e-01	-6.7439681249e-01
 6.7098945479e-01	 9.5919235202e-01	-7.6302101455e-01
 6.6168514572e-01	 9.6563429130e-01	-8.5337296909e-01
 6.5232739783e-01	 9.7198034067e-01	-9.4511744699e-01
 6.4291767757e-01	 9.7822986893e-01	-1.0379567813e+00
 6.3345746050e-01	 9.8438227450e-01	-1.1316313591e+00
 6.2394823058e-01	 9.9043698546e-01	-1.2259199880e+00
 6.1439147945e-01	 9.9639345973e-01	-1.3206401339e+00
 6.0478870564e-01	 1.0022511852e+00	-1.4156480280e+00
 7.0207762530e-01	 9.4401803640e-01	-5.6553080376e-01
 6.9289642294e-01	 9.5077736198e-01	-6.4689045346e-01
 6.8365715425e-01	 9.5744239535e-01	-7.3073960802e-01
 6.7436126110e-01	 9.6401241409e-01	-8.1667031141e-01
 6.6501019670e-01	 9.7048672493e-01	-9.0431172144e-01
 6.5560542496e-01	 9.7686466399e-01	-9.9333086365e-01
 6.4614841967e-01	 9.8314559692e-01	-1.0834332642e+00
 6.3664066382e-01	 9.8932891909e-01	-1.1743634577e+00
 6.2708364883e-01	 9.9541405574e-01	-1.2659053665e+00
 6.1747887382e-01	 1.0014004620e+00	-1.3578825477e+00
 6.0782784487e-01	 1.0072876233e+00	-1.4501583072e+00
 5.7743645262e-01	 9.5692324210e-01	-1.0291291668e+00
 5.6822547056e-01	 9.6242130209e-01	-1.1578945638e+00
 5.5897342580e-01	 9.6782418721e-01	-1.2860405044e+00
 5.4968176472e-01	 9.7313149452e-01	-1.4135925420e+00
 5.4035193749e-01	 9.7834284980e-01	-1.5405885505e+00
 5.3098539737e-01	 9.8345790753e-01	-1.6670787878e+00
 5.2158360002e-01	 9.8847635090e-01	-1.7931258941e+00
 5.1214800282e-01	 9.9339789173e-01	-1.9188048270e+00
 5.0268006417e-01	 9.9822227043e-01	-2.0442027324e+00
 4.9318124278e-01	 1.0029492559e+00	-2.1694187545e+00
 4.8365299708e-01	 1.0075786453e+00	-2.2945637846e+00
 5.8047559185e-01	 9.6195968022e-01	-1.0788971568e+00
 5.7121613093e-01	 9.6748667736e-01	-1.2027152445e+00
 5.6191539119e-01	 9.7291799872e-01	-1.3259115859e+00
 5.5257482664e-01	 9.7825323923e-01	-1.4485187392e+00
 5.4319589505e-01	 9.8349202269e-01	-1.5705835131e+00
 5.3378005736e-01	 9.8863400178e-01	-1.6921670098e+00
 5.2432877687e-01	 9.9367885801e-01	-1.8133445995e+00
 5.1484351863e-01	 9.9862630169e-01	-1.9342058272e+00
 5.0532574871e-01	 1.0034760719e+00	-2.0548542520e+00
 4.9577693353e-01	 1.0082279362e+00	-2.1754072208e+00
 4.8619853917e-01	 1.0128816908e+00	-2.2959955775e+00
 5.8351473107e-01	 9.6699611834e-01	-1.1269773239e+00
 5.7420679130e-01	 9.7255205263e-01	-1.2458607410e+00
 5.6485735659e-01	 9.7801181023e-01	-1.3641502060e+00
 5.5546788856e-01	 9.8337498394e-01	-1.4818836081e+00
 5.4603985262e-01	 9.8864119558e-01	-1.5991147705e+00
 5.3657471734e-01	 9.9381009603e-01	-1.7159134795e+00
 5.2707395371e-01	 9.9888136512e-01	-1.8323654400e+00
 5.1753903443e-01	 1.0038547116e+00	-1.9485721602e+00
 5.0797143326e-01	 1.0087298733e+00	-2.0646507643e+00
 4.9837262429e-01	 1.0135066165e+00	-2.1807337366e+00
 4.8874408126e-01	 1.0181847363e+00	-2.2969685977e+00
 5.8655387030e-01	 9.7203255645e-01	-1.1734623432e+00
 5.7719745167e-01	 9.7761742791e-01	-1.2874321213e+00
 5.6779932199e-01	 9.8310562175e-01	-1.4008618541e+00
 5.5836095048e-01	 9.8849672865e-01	-1.5137931208e+00
 5.4888381019e-01	 9.9379036848e-01	-1.6262848764e+00
 5.3936937733e-01	 9.9898619028e-01	-1.7384134705e+00
 5.2981913055e-01	 1.0040838722e+00	-1.8502725902e+00
 5.2023455024e-01	 1.0090831216e+00	-1.9619731275e+00
 5.1061711781e-01	 1.0139836747e+00	-2.0736429721e+00
 5.0096831504e-01	 1.0187852968e+00	-2.1854267318e+00
 4.9128962335e-01	 1.0234877818e+00	-2.2974853805e+00
 5.8959300952e-01	 9.7706899457e-01	-1.2183893669e+00
 5.8018811204e-01	 9.8268280318e-01	-1.3275305566e+00
 5.7074128739e-01	 9.8819943326e-01	-1.4361520073e+00
 5.6125401240e-01	 9.9361847336e-01	-1.5443532009e+00
 5.5172776775e-01	 9.9893954137e-01	-1.6521963768e+00
 5.4216403731e-01	 1.0041622845e+00	-1.7597623663e+00
 5.3256430739e-01	 1.0092863793e+00	-1.8671505277e+00
 5.2293006604e-01	 1.0143115316e+00	-1.9744786023e+00
 5.1326280236e-01	 1.0192374761e+00	-2.0818824927e+00
 5.0356400579e-01	 1.0240639771e+00	-2.1895159655e+00
 4.9383516544e-01	 1.0287908273e+00	-2.2975502782e+00
 5.9263214875e-01	 9.8210543268e-01	-1.2614313757e+00
 5.8317877241e-01	 9.8774817846e-01	-1.3662573456e+00
 5.7368325279e-01	 9.9329324477e-01	-1.4701261587e+00
 5.6414707432e-01	 9.9874021806e-01	-1.5736697521e+00
 5.5457172532e-01	 1.0040887143e+00	-1.6769518379e+00
 5.4495869730e-01	 1.0093383788e+00	-1.7800556852e+00
 5.3530948424e-01	 1.0144888864e+00	-1.8830840534e+00
 5.2562558185e-01	 1.0195399415e+00	-1.9861590421e+00
 5.1590848691e-01	 1.0244912775e+00	-2.0894218610e+00
 5.0615969654e-01	 1.0293426573e+00	-2.1930325197e+00
 4.9638070753e-01	 1.0340938728e+00	-2.2971694407e+00
 5.9567128797e-01	 9.8714187080e-01	-1.3025901458e+00
 5.8616943278e-01	 9.9281355373e-01	-1.4037139392e+00
 5.7662521819e-01	 9.9838705628e-01	-1.5028898445e+00
 5.6704013624e-01	 1.0038619628e+00	-1.6018486867e+00
 5.5741568288e-01	 1.0092378872e+00	-1.7006538727e+00
 5.4775335729e-01	 1.0145144730e+00	-1.7993891036e+00
 5.3805466108e-01	 1.0196913936e+00	-1.8981583099e+00
 5.2832109765e-01	 1.0247683515e+00	-1.9970855012e+00
 5.1855417145e-01	 1.0297450790e+00	-2.0963145334e+00
 5.0875538729e-01	 1.0346213376e+00	-2.1960087919e+00
 4.9892624962e-01	 1.0393969183e+00	-2.2963507960e+00
 5.9871042719e-01	 9.9217830892e-01	-1.3419534268e+00
 5.8916009315e-01	 9.9787892901e-01	-1.4399756245e+00
 5.7956718359e-01	 1.0034808678e+00	-1.5345486706e+00
 5.6993319816e-01	 1.0089837075e+00	-1.6289959523e+00
 5.6025964045e-01	 1.0143870601e+00	-1.7234051680e+00
 5.5054801727e-01	 1.0196905673e+00	-1.8178584806e+00
 5.4079983792e-01	 1.0248939007e+00	-1.9124588010e+00
 5.3101661345e-01	 1.0299967614e+00	-2.0073296429e+00
 5.2119985600e-01	 1.0349988804e+00	-2.1026148919e+00
 5.1135107804e-01	 1.0399000179e+00	-2.1984784889e+00
 5.0147179171e-01	 1.0446999638e+00	-2.2951040314e+00
 6.0174956642e-01	 9.9721474703e-01	-1.3796096732e+00
 5.9215075353e-01	 1.0029443043e+00	-1.4747495122e+00
 5.8250914899e-01	 1.0085746793e+00	-1.5652083380e+00
 5.7282626007e-01	 1.0141054522e+00	-1.6552175594e+00
 5.6310359801e-01	 1.0195362329e+00	-1.7453085096e+00
 5.5334267726e-01	 1.0248666615e+00	-1.8355598800e+00
 5.4354501476e-01	 1.0300964078e+00	-1.9260714095e+00
 5.3371212926e-01	 1.0352251714e+00	-2.0169637509e+00
 5.2384554055e-01	 1.0402526818e+00	-2.1083782471e+00
 5.1394676879e-01	 1.0451786982e+00	-2.2004766204e+00
 5.0401733379e-01	 1.0500030093e+00	-2.2934405762e+00
 6.0478870564e-01	 1.0022511852e+00	-1.4156480280e+00
 5.9514141390e-01	 1.0080096796e+00	-1.5080012470e+00
 5.8545111439e-01	 1.0136684908e+00	-1.5949746682e+00
 5.7571932199e-01	 1.0192271969e+00	-1.6806196065e+00
 5.6594755558e-01	 1.0246854058e+00	-1.7664668078e+00
 5.5613733724e-01	 1.0300427558e+00	-1.8525895932e+00
 5.4629019160e-01	 1.0352989149e+00	-1.9390824156e+00
 5.3640764506e-01	 1.0404535813e+00	-2.0260607419e+00
 5.2649122510e-01	 1.0455064832e+00	-2.1136608427e+00
 5.1654245955e-01	 1.0504573785e+00	-2.2020394930e+00
 5.0656287588e-01	 1.0553060548e+00	-2.2913735841e+00
 6.0782784487e-01	 1.0072876233e+00	-1.4501583072e+00
 5.9813207427e-01	 1.0130750548e+00	-1.5398279913e+00
 5.8839307979e-01	 1.0187623023e+00	-1.6239528511e+00
 5.7861238391e-01	 1.0243489416e+00	-1.7053083062e+00
 5.6879151315e-01	 1.0298345787e+00	-1.7869831217e+00
 5.5893199723e-01	 1.0352188500e+00	-1.8690441611e+00
 5.4903536845e-01	 1.0405014220e+00	-1.9515785140e+00
 5.3910316087e-01	 1.0456819913e+00	-2.0346941762e+00
 5.2913690965e-01	 1.0507602847e+00	-2.1185198588e+00
 5.1913815030e-01	 1.0557360588e+00	-2.2032047050e+00
 5.0910841797e-01	 1.0606091003e+00	-2.2889179169e+00
 4.8365299708e-01	 1.0075786453e+00	-2.2945637846e+00
 4.7409678444e-01	 1.0121102643e+00	-2.4194998824e+00
 4.6451406061e-01	 1.0165439664e+00	-2.5438960861e+00
 4.5490627899e-01	 1.0208796332e+00	-2.6675840103e+00
 4.4527489002e-01	 1.0251171740e+00	-2.7903974977e+00
 4.3562134054e-01	 1.0292565257e+00	-2.9121726582e+00
 4.2594707313e-01	 1.0332976527e+00	-3.0327478644e+00
 4.1625352555e-01	 1.0372405461e+00	-3.1519637064e+00
 4.0654213007e-01	 1.0410852245e+00	-3.2696629069e+00
 3.9681431290e-01	 1.0448317325e+00	-3.3856902018e+00
 3.8707149362e-01	 1.0484801414e+00	-3.4998921872e+00
 4.8619853917e-01	 1.0128816908e+00	-2.2959955775e+00
 4.7659203068e-01	 1.0174371604e+00	-2.4164073202e+00
 4.6695887146e-01	 1.0218941978e+00	-2.5362222733e+00
 4.5730052257e-01	 1.0262526839e+00	-2.6552700289e+00
 4.4761844208e-01	 1.0305125275e+00	-2.7733817084e+00
 4.3791408443e-01	 1.0346736653e+00	-2.8903900162e+00
 4.2818889983e-01	 1.0387360614e+00	-3.0061292496e+00
 4.1844433358e-01	 1.0426997069e+00	-3.1204352668e+00
 4.0868182549e-01	 1.0465646204e+00	-3.2331454157e+00
 3.9890280929e-01	 1.0503308468e+00	-3.3440984267e+00
 3.8910871200e-01	 1.0539984579e+00	-3.4531342706e+00
 4.8874408126e-01	 1.0181847363e+00	-2.2969685977e+00
 4.7908727691e-01	 1.0227640565e+00	-2.4130502327e+00
 4.6940368230e-01	 1.0272444292e+00	-2.5284554924e+00
 4.5969476614e-01	 1.0316257346e+00	-2.6430166075e+00
 4.4996199413e-01	 1.0359078811e+00	-2.7565668367e+00
 4.4020682833e-01	 1.0400908050e+00	-2.8689405260e+00
 4.3043072653e-01	 1.0441744701e+00	-2.9799731234e+00
 4.2063514161e-01	 1.0481588677e+00	-3.0895011504e+00
 4.1082152091e-01	 1.0520440163e+00	-3.1973621341e+00
 4.0099130567e-01	 1.0558299612e+00	-3.3033945017e+00
 3.9114593039e-01	 1.0595167745e+00	-3.4074374417e+00
 4.9128962335e-01	 1.0234877818e+00	-2.2974853805e+00
 4.8158252314e-01	 1.0280909527e+00	-2.4094051195e+00
 4.7184849315e-01	 1.0325946606e+00	-2.5205494583e+00
 4.6208900971e-01	 1.0369987853e+00	-2.6307578481e+00
 4.5230554618e-01	 1.0413032346e+00	-2.7398704634e+00
 4.4249957223e-01	 1.0455079446e+00	-2.8477282575e+00
 4.3267255323e-01	 1.0496128788e+00	-2.9541729714e+00
 4.2282594964e-01	 1.0536180285e+00	-3.0590471005e+00
 4.1296121633e-01	 1.0575234122e+00	-3.1621938189e+00
 4.0307980206e-01	 1.0613290756e+00	-3.2634568671e+00
 3.9318314878e-01	 1.0650350910e+00	-3.3626804039e+00
 4.9383516544e-01	 1.0287908273e+00	-2.2975502782e+00
 4.8407776938e-01	 1.0334178488e+00	-2.4054507857e+00
 4.7429330399e-01	 1.0379448920e+00	-2.5124606098e+00
 4.6448325329e-01	 1.0423718360e+00	-2.6184309274e+00
 4.5464909823e-01	 1.0466985882e+00	-2.7232135291e+00
 4.4479231613e-01	 1.0509250842e+00	-2.8266608605e+00
 4.3491437994e-01	 1.0550512874e+00	-2.9286260176e+00
 4.2501675767e-01	 1.0590771892e+00	-3.0289626967e+00
 4.1510091176e-01	 1.0630028081e+00	-3.1275251032e+00
 4.0516829844e-01	 1.0668281900e+00	-3.2241678213e+00
 3.9522036717e-01	 1.0705534075e+00	-3.3187456479e+00
 4.9638070753e-01	 1.0340938728e+00	-2.2971694407e+00
 4.8657301561e-01	 1.0387447449e+00	-2.4011683088e+00
 4.7673811484e-01	 1.0432951234e+00	-2.5041480654e+00
 4.6687749686e-01	 1.0477448867e+00	-2.6059760434e+00
 4.5699265029e-01	 1.0520939417e+00	-2.7065202724e+00
 4.4708506003e-01	 1.0563422238e+00	-2.8056494979e+00
 4.3715620664e-01	 1.0604896961e+00	-2.9032331523e+00
 4.2720756570e-01	 1.0645363500e+00	-2.9991412799e+00
 4.1724060718e-01	 1.0684822040e+00	-3.0932444191e+00
 4.0725679482e-01	 1.0723273044e+00	-3.1854134451e+00
 3.9725758555e-01	 1.0760717241e+00	-3.2755193755e+00
 4.9892624962e-01	 1.0393969183e+00	-2.2963507960e+00
 4.8906826185e-01	 1.0440716411e+00	-2.3965410070e+00
 4.7918292568e-01	 1.0486453548e+00	-2.4955735812e+00
 4.6927174043e-01	 1.0531179374e+00	-2.5933363637e+00
 4.5933620234e-01	 1.0574892953e+00	-2.6897181714e+00
 4.4937780392e-01	 1.0617593634e+00	-2.7846087803e+00
 4.3939803334e-01	 1.0659281048e+00	-2.8778988632e+00
 4.2939837373e-01	 1.0699955108e+00	-2.9694798800e+00
 4.1938030260e-01	 1.0739616000e+00	-3.0592439238e+00
 4.0934529121e-01	 1.0778264188e+00	-3.1470835265e+00
 3.9929480394e-01	 1.0815900406e+00	-3.2328914271e+00
 5.0147179171e-01	 1.0446999638e+00	-2.2951040314e+00
 4.9156350808e-01	 1.0493985372e+00	-2.3915544087e+00
 4.8162773653e-01	 1.0539955862e+00	-2.4867015096e+00
 4.7166598401e-01	 1.0584909881e+00	-2.5804579757e+00
 4.6167975439e-01	 1.0628846488e+00	-2.6727378860e+00
 4.5167054782e-01	 1.0671765030e+00	-2.7634567029e+00
 4.4163986004e-01	 1.0713665135e+00	-2.8525311676e+00
 4.3158918176e-01	 1.0754546715e+00	-2.9398791457e+00
 4.2151999802e-01	 1.0794409959e+00	-3.0254194281e+00
 4.1143378759e-01	 1.0833255331e+00	-3.1090714898e+00
 4.0133202233e-01	 1.0871083571e+00	-3.1907552103e+00
 5.0401733379e-01	 1.0500030093e+00	-2.2934405762e+00
 4.9405875431e-01	 1.0547254333e+00	-2.3861962231e+00
 4.8407254737e-01	 1.0593458176e+00	-2.4774987597e+00
 4.7406022758e-01	 1.0638640388e+00	-2.5672898384e+00
 4.6402330645e-01	 1.0682800024e+00	-2.6555132029e+00
 4.5396329172e-01	 1.0725936426e+00	-2.7421145851e+00
 4.4388168674e-01	 1.0768049222e+00	-2.8270415476e+00
 4.3377998978e-01	 1.0809138323e+00	-2.9102432766e+00
 4.2365969344e-01	 1.0849203918e+00	-2.9916703270e+00
 4.1352228397e-01	 1.0888246475e+00	-3.0712743253e+00
 4.0336924072e-01	 1.0926266737e+00	-3.1490076322e+00
 5.0656287588e-01	 1.0553060548e+00	-2.2913735841e+00
 4.9655400055e-01	 1.0600523294e+00	-2.3804563112e+00
 4.8651735822e-01	 1.0646960490e+00	-2.4679347592e+00
 4.7645447116e-01	 1.0692370895e+00	-2.5537837357e+00
 4.6636685850e-01	 1.0736753559e+00	-2.6379809821e+00
 4.5625603562e-01	 1.0780107822e+00	-2.7205070109e+00
 4.4612351344e-01	 1.0822433309e+00	-2.8013448869e+00
 4.3597079781e-01	 1.0863729931e+00	-2.8804799573e+00
 4.2579938886e-01	 1.0903997877e+00	-2.9578995324e+00
 4.1561078036e-01	 1.0943237619e+00	-3.0335925223e+00
 4.0540645910e-01	 1.0981449902e+00	-3.1075490326e+00
 5.0910841797e-01	 1.0606091003e+00	-2.2889179169e+00
 4.9904924678e-01	 1.0653792256e+00	-2.3743266589e+00
 4.8896216907e-01	 1.0700462804e+00	-2.4579814168e+00
 4.7884871473e-01	 1.0746101402e+00	-2.5398942312e+00
 4.6871041055e-01	 1.0790707095e+00	-2.6200811051e+00
 4.5854877951e-01	 1.0834279218e+00	-2.6985617725e+00
 4.4836534014e-01	 1.0876817396e+00	-2.7753594101e+00
 4.3816160584e-01	 1.0918321538e+00	-2.8505002942e+00
 4.2793908428e-01	 1.0958791836e+00	-2.9240134084e+00
 4.1769927674e-01	 1.0998228763e+00	-2.9959300040e+00
 4.0744367749e-01	 1.1036633067e+00	-3.0662831198e+00
 3.8707149362e-01	 1.0484801414e+00	-3.4998921872e+00
 3.7731508454e-01	 1.0520305485e+00	-3.6120995174e+00
 3.6754649023e-01	 1.0554830769e+00	-3.7222183970e+00
 3.5776710686e-01	 1.0588378749e+00	-3.8302138147e+00
 3.4797832176e-01	 1.0620951161e+00	-3.9360554415e+00
 3.3818151283e-01	 1.0652549988e+00	-4.0397171663e+00
 3.2837804803e-01	 1.0683177456e+00	-4.1411766158e+00
 3.1856928491e-01	 1.0712836033e+00	-4.2404146617e+00
 3.0875657011e-01	 1.0741528422e+00	-4.3374149194e+00
 2.9894123885e-01	 1.0769257559e+00	-4.4321632414e+00
 2.8912461454e-01	 1.0796026609e+00	-4.5246472079e+00
 3.8910871200e-01	 1.0539984579e+00	-3.4531342706e+00
 3.7930095341e-01	 1.0575675514e+00	-3.5601197162e+00
 3.6948094544e-01	 1.0610382510e+00	-3.6650144798e+00
 3.5965009163e-01	 1.0644107058e+00	-3.7678022396e+00
 3.4980978661e-01	 1.0676850904e+00	-3.8684708981e+00
 3.3996141553e-01	 1.0708616041e+00	-3.9670120883e+00
 3.3010635355e-01	 1.0739404706e+00	-4.0634206652e+00
 3.2024596536e-01	 1.0769219381e+00	-4.1576941846e+00
 3.1038160469e-01	 1.0798062783e+00	-4.2498323744e+00
 3.0051461380e-01	 1.0825937862e+00	-4.3398366008e+00
 2.9064632304e-01	 1.0852847801e+00	-4.4277093334e+00
 3.9114593039e-01	 1.0595167745e+00	-3.4074374417e+00
 3.8128682228e-01	 1.0631045543e+00	-3.5094004283e+00
 3.7141540065e-01	 1.0665934251e+00	-3.6092956230e+00
 3.6153307641e-01	 1.0699835368e+00	-3.7071198886e+00
 3.5164125147e-01	 1.0732750647e+00	-3.8028739171e+00
 3.4174131823e-01	 1.0764682093e+00	-3.8965617129e+00
 3.3183465906e-01	 1.0795631956e+00	-3.9881900604e+00
 3.2192264581e-01	 1.0825602729e+00	-4.0777679809e+00
 3.1200663927e-01	 1.0854597143e+00	-4.1653061807e+00
 3.0208798874e-01	 1.0882618165e+00	-4.2508164963e+00
 2.9216803154e-01	 1.0909668994e+00	-4.3343113378e+00
 3.9318314878e-01	 1.0650350910e+00	-3.3626804039e+00
 3.8327269114e-01	 1.0686415572e+00	-3.4598219145e+00
 3.7334985586e-01	 1.0721485992e+00	-3.5549437740e+00
 3.6341606118e-01	 1.0755563677e+00	-3.6480506199e+00
 3.5347271632e-01	 1.0788650390e+00	-3.7391505856e+00
 3.4352122093e-01	 1.0820748146e+00	-3.8282547666e+00
 3.3356296458e-01	 1.0851859206e+00	-3.9153766706e+00
 3.2359932626e-01	 1.0881986076e+00	-4.0005316564e+00
 3.1363167385e-01	 1.0911131503e+00	-4.0837363656e+00
 3.0366136368e-01	 1.0939298468e+00	-4.1650081501e+00
 2.9368974004e-01	 1.0966490187e+00	-4.2443644998e+00
 3.9522036717e-01	 1.0705534075e+00	-3.3187456479e+00
 3.8525856001e-01	 1.0741785601e+00	-3.4112681231e+00
 3.7528431107e-01	 1.0777037733e+00	-3.5018444647e+00
 3.6529904595e-01	 1.0811291986e+00	-3.5904817673e+00
 3.5530418117e-01	 1.0844550133e+00	-3.6771903501e+00
 3.4530112362e-01	 1.0876814198e+00	-3.7619832108e+00
 3.3529127009e-01	 1.0908086456e+00	-3.8448754642e+00
 3.2527600670e-01	 1.0938369424e+00	-3.9258837688e+00
 3.1525670843e-01	 1.0967665863e+00	-4.0050257463e+00
 3.0523473862e-01	 1.0995978771e+00	-4.0823193970e+00
 2.9521144853e-01	 1.1023311379e+00	-4.1577825161e+00
 3.9725758555e-01	 1.0760717241e+00	-3.2755193755e+00
 3.8724442887e-01	 1.0797155630e+00	-3.3636266159e+00
 3.7721876628e-01	 1.0832589473e+00	-3.4498867392e+00
 3.6718203073e-01	 1.0867020295e+00	-3.5343040706e+00
 3.5713564602e-01	 1.0900449876e+00	-3.6168859493e+00
 3.4708102632e-01	 1.0932880251e+00	-3.6976421765e+00
 3.3701957561e-01	 1.0964313705e+00	-3.7765844466e+00
 3.2695268715e-01	 1.0994752771e+00	-3.8537257678e+00
 3.1688174301e-01	 1.1024200223e+00	-3.9290798735e+00
 3.0680811356e-01	 1.1052659074e+00	-4.0026606316e+00
 2.9673315703e-01	 1.1080132572e+00	-4.0744814528e+00
 3.9929480394e-01	 1.0815900406e+00	-3.2328914271e+00
 3.8923029774e-01	 1.0852525659e+00	-3.3167884975e+00
 3.7915322150e-01	 1.0888141214e+00	-3.3989630847e+00
 3.6906501550e-01	 1.0922748604e+00	-3.4794116076e+00
 3.5896711087e-01	 1.0956349619e+00	-3.5581333489e+00
 3.4886092902e-01	 1.0988946303e+00	-3.6351299016e+00
 3.3874788113e-01	 1.1020540955e+00	-3.7104046000e+00
 3.2862936760e-01	 1.1051136119e+00	-3.7839619377e+00
 3.1850677759e-01	 1.1080734583e+00	-3.8558069777e+00
 3.0838148850e-01	 1.1109339377e+00	-3.9259447582e+00
 2.9825486553e-01	 1.1136953765e+00	-3.9943796993e+00
 4.0133202233e-01	 1.0871083571e+00	-3.1907552103e+00
 3.9121616661e-01	 1.0907895688e+00	-3.2706483456e+00
 3.8108767671e-01	 1.0943692955e+00	-3.3489693642e+00
 3.7094800027e-01	 1.0978476914e+00	-3.4257017296e+00
 3.6079857572e-01	 1.1012249362e+00	-3.5008316781e+00
 3.5064083172e-01	 1.1045012356e+00	-3.5743476700e+00
 3.4047618664e-01	 1.1076768205e+00	-3.6462398248e+00
 3.3030604804e-01	 1.1107519466e+00	-3.7164993426e+00
 3.2013181217e-01	 1.1137268943e+00	-3.7851179167e+00
 3.0995486344e-01	 1.1166019680e+00	-3.8520871421e+00
 2.9977657403e-01	 1.1193774957e+00	-3.9173979232e+00
 4.0336924072e-01	 1.0926266737e+00	-3.1490076322e+00
 3.9320203547e-01	 1.0963265716e+00	-3.2251041448e+00
 3.8302213192e-01	 1.0999244696e+00	-3.2998047516e+00
 3.7283098504e-01	 1.1034205223e+00	-3.3730749978e+00
 3.6263004057e-01	 1.1068149105e+00	-3.4448831689e+00
 3.5242073442e-01	 1.1101078409e+00	-3.5151997527e+00
 3.4220449216e-01	 1.1132995455e+00	-3.5839968835e+00
 3.3198272849e-01	 1.1163902814e+00	-3.6512477718e+00
 3.2175684674e-01	 1.1193803303e+00	-3.7169261248e+00
 3.1152823838e-01	 1.1222699983e+00	-3.7810055615e+00
 3.0129828252e-01	 1.1250596150e+00	-3.8434590269e+00
 4.0540645910e-01	 1.0981449902e+00	-3.1075490326e+00
 3.9518790434e-01	 1.1018635745e+00	-3.1800572217e+00
 3.8495658713e-01	 1.1054796437e+00	-3.2513716687e+00
 3.7471396982e-01	 1.1089933532e+00	-3.3214351222e+00
 3.6446150542e-01	 1.1124048848e+00	-3.3901930967e+00
 3.5420063712e-01	 1.1157144461e+00	-3.4575933508e+00
 3.4393279767e-01	 1.1189222704e+00	-3.5235853456e+00
 3.3365940894e-01	 1.1220286161e+00	-3.5881196881e+00
 3.2338188132e-01	 1.1250337664e+00	-3.6511475637e+00
 3.1310161333e-01	 1.1279380286e+00	-3.7126201627e+00
 3.0281999102e-01	 1.1307417343e+00	-3.7724881052e+00
 4.0744367749e-01	 1.1036633067e+00	-3.0662831198e+00
 3.9717377320e-01	 1.1074005774e+00	-3.1354121824e+00
 3.8689104234e-01	 1.1110348178e+00	-3.2035757246e+00
 3.7659695459e-01	 1.1145661841e+00	-3.2706889028e+00
 3.6629297028e-01	 1.1179948591e+00	-3.3366697231e+00
 3.5598053982e-01	 1.1213210514e+00	-3.4014385402e+00
 3.4566110319e-01	 1.1245449954e+00	-3.4649175353e+00
 3.3533608938e-01	 1.1276669509e+00	-3.5270301778e+00
 3.2500691590e-01	 1.1306872024e+00	-3.5877006752e+00
 3.1467498827e-01	 1.1336060589e+00	-3.6468534152e+00
 3.0434169952e-01	 1.1364238535e+00	-3.7044124051e+00
 2.8912461454e-01	 1.0796026609e+00	-4.5246472079e+00
 2.7930800828e-01	 1.0821838959e+00	-4.6146852669e+00
 2.6949271844e-01	 1.0846698220e+00	-4.7020650497e+00
 2.5968003026e-01	 1.0870608217e+00	-4.7867292358e+00
 2.4987121544e-01	 1.0893572985e+00	-4.8686206277e+00
 2.4006753177e-01	 1.0915596769e+00	-4.9476817588e+00
 2.3027022270e-01	 1.0936684016e+00	-5.0238545146e+00
 2.2048051707e-01	 1.0956839369e+00	-5.0970797702e+00
 2.1069962871e-01	 1.0976067668e+00	-5.1672970466e+00
 2.0092875614e-01	 1.0994373939e+00	-5.2344441878e+00
 1.9116908222e-01	 1.1011763392e+00	-5.2984570595e+00
 2.9064632304e-01	 1.0852847801e+00	-4.4277093334e+00
 2.8077805043e-01	 1.0878796006e+00	-4.5132815294e+00
 2.7091110117e-01	 1.0903786106e+00	-4.5963457661e+00
 2.6104676726e-01	 1.0927821944e+00	-4.6768479612e+00
 2.5118632710e-01	 1.0950907580e+00	-4.7547343699e+00
 2.4133104509e-01	 1.0973047279e+00	-4.8299511686e+00
 2.3148217124e-01	 1.0994245511e+00	-4.9024440514e+00
 2.2164094085e-01	 1.1014506945e+00	-4.9721578440e+00
 2.1180857413e-01	 1.1033836445e+00	-5.0390361367e+00
 2.0198627591e-01	 1.1052239065e+00	-5.1030209379e+00
 1.9217523528e-01	 1.1069720042e+00	-5.1640523520e+00
 2.9216803154e-01	 1.0909668994e+00	-4.3343113378e+00
 2.8224809258e-01	 1.0935753054e+00	-4.4156358714e+00
 2.7232948390e-01	 1.0960873991e+00	-4.4945925541e+00
 2.6241350426e-01	 1.0985035671e+00	-4.5711304073e+00
 2.5250143876e-01	 1.1008242174e+00	-4.6451988619e+00
 2.4259455842e-01	 1.1030497788e+00	-4.7167473193e+00
 2.3269411978e-01	 1.1051807006e+00	-4.7857247270e+00
 2.2280136462e-01	 1.1072174521e+00	-4.8520791718e+00
 2.1291751954e-01	 1.1091605223e+00	-4.9157574914e+00
 2.0304379567e-01	 1.1110104191e+00	-4.9767049097e+00
 1.9318138835e-01	 1.1127676691e+00	-5.0348646945e+00
 2.9368974004e-01	 1.0966490187e+00	-4.2443644998e+00
 2.8371813473e-01	 1.0992710101e+00	-4.3216649349e+00
 2.7374786662e-01	 1.1017961876e+00	-4.3967251246e+00
 2.6378024126e-01	 1.1042249399e+00	-4.4694970797e+00
 2.5381655042e-01	 1.1065576769e+00	-4.5399331507e+00
 2.4385807174e-01	 1.1087948297e+00	-4.6079855692e+00
 2.3390606832e-01	 1.1109368500e+00	-4.6736060052e+00
 2.2396178840e-01	 1.1129842096e+00	-4.7367451411e+00
 2.1402646496e-01	 1.1149374000e+00	-4.7973522679e+00
 2.0410131544e-01	 1.1167969317e+00	-4.8553749022e+00
 1.9418754141e-01	 1.1185633341e+00	-4.9107584297e+00
 2.9521144853e-01	 1.1023311379e+00	-4.1577825161e+00
 2.8518817687e-01	 1.1049667148e+00	-4.2312875999e+00
 2.7516624935e-01	 1.1075049762e+00	-4.3026652948e+00
 2.6514697827e-01	 1.1099463126e+00	-4.3718705067e+00
 2.5513166209e-01	 1.1122911364e+00	-4.4388582709e+00
 2.4512158507e-01	 1.1145398806e+00	-4.5035832765e+00
 2.3511801686e-01	 1.1166929995e+00	-4.5659994079e+00
 2.2512221217e-01	 1.1187509672e+00	-4.6260593043e+00
 2.1513541037e-01	 1.1207142777e+00	-4.6837139401e+00
 2.0515883521e-01	 1.1225834443e+00	-4.7389122302e+00
 1.9519369448e-01	 1.1243589990e+00	-4.7916006600e+00
 2.9673315703e-01	 1.1080132572e+00	-4.0744814528e+00
 2.8665821902e-01	 1.1106624195e+00	-4.1444249401e+00
 2.7658463208e-01	 1.1132137647e+00	-4.2123369471e+00
 2.6651371527e-01	 1.1156676854e+00	-4.2781752000e+00
 2.5644677375e-01	 1.1180245958e+00	-4.3418972045e+00
 2.4638509839e-01	 1.1202849316e+00	-4.4034597571e+00
 2.3632996540e-01	 1.1224491490e+00	-4.4628184724e+00
 2.2628263594e-01	 1.1245177248e+00	-4.5199273306e+00
 2.1624435579e-01	 1.1264911554e+00	-4.5747382469e+00
 2.0621635498e-01	 1.1283699569e+00	-4.6272006659e+00
 1.9619984754e-01	 1.1301546640e+00	-4.6772611827e+00
 2.9825486553e-01	 1.1136953765e+00	-3.9943796993e+00
 2.8812826117e-01	 1.1163581242e+00	-4.0610001803e+00
 2.7800301481e-01	 1.1189225532e+00	-4.1256659886e+00
 2.6788045227e-01	 1.1213890581e+00	-4.1883376148e+00
 2.5776188541e-01	 1.1237580553e+00	-4.2489748421e+00
 2.4764861172e-01	 1.1260299825e+00	-4.3075362453e+00
 2.3754191394e-01	 1.1282052985e+00	-4.3639787083e+00
 2.2744305972e-01	 1.1302844823e+00	-4.4182569613e+00
 2.1735330120e-01	 1.1322680331e+00	-4.4703231422e+00
 2.0727387475e-01	 1.1341564695e+00	-4.5201263835e+00
 1.9720600060e-01	 1.1359503289e+00	-4.5676124275e+00
 2.9977657403e-01	 1.1193774957e+00	-3.9173979232e+00
 2.8959830332e-01	 1.1220538289e+00	-3.9809386549e+00
 2.7942139754e-01	 1.1246313418e+00	-4.0425803118e+00
 2.6924718927e-01	 1.1271104309e+00	-4.1022861126e+00
 2.5907699707e-01	 1.1294915148e+00	-4.1600179448e+00
 2.4891212504e-01	 1.1317750334e+00	-4.2157358548e+00
 2.3875386248e-01	 1.1339614480e+00	-4.2693975570e+00
 2.2860348349e-01	 1.1360512399e+00	-4.3209579649e+00
 2.1846224661e-01	 1.1380449109e+00	-4.3703687462e+00
 2.0833139452e-01	 1.1399429821e+00	-4.4175779053e+00
 1.9821215367e-01	 1.1417459938e+00	-4.4625293960e+00
 3.0129828252e-01	 1.1250596150e+00	-3.8434590269e+00
 2.9106834547e-01	 1.1277495337e+00	-3.9041677679e+00
 2.8083978027e-01	 1.1303401303e+00	-3.9630097573e+00
 2.7061392627e-01	 1.1328318036e+00	-4.0199509244e+00
 2.6039210873e-01	 1.1352249742e+00	-4.0749551081e+00
 2.5017563837e-01	 1.1375200844e+00	-4.1279835409e+00
 2.3996581102e-01	 1.1397175974e+00	-4.1789943522e+00
 2.2976390727e-01	 1.1418179975e+00	-4.2279420949e+00
 2.1957119203e-01	 1.1438217886e+00	-4.2747772983e+00
 2.0938891429e-01	 1.1457294947e+00	-4.3194460489e+00
 1.9921830673e-01	 1.1475416588e+00	-4.3618896029e+00
 3.0281999102e-01	 1.1307417343e+00	-3.7724881052e+00
 2.9253838762e-01	 1.1334452384e+00	-3.8306169539e+00
 2.8225816300e-01	 1.1360489189e+00	-3.8868860769e+00
 2.7198066327e-01	 1.1385531764e+00	-3.9412641153e+00
 2.6170722039e-01	 1.1409584337e+00	-3.9937167267e+00
 2.5143915169e-01	 1.1432651353e+00	-4.0442060651e+00
 2.4117775956e-01	 1.1454737469e+00	-4.0926902814e+00
 2.3092433104e-01	 1.1475847550e+00	-4.1391230481e+00
 2.2068013744e-01	 1.1495986663e+00	-4.1834531121e+00
 2.1044643406e-01	 1.1515160073e+00	-4.2256238771e+00
 2.0022445980e-01	 1.1533373237e+00	-4.2655730192e+00
 3.0434169952e-01	 1.1364238535e+00	-3.7044124051e+00
 2.9400842977e-01	 1.1391409431e+00	-3.7602176411e+00
 2.8367654572e-01	 1.1417577074e+00	-3.8141428986e+00
 2.7334740027e-01	 1.1442745491e+00	-3.8661595503e+00
 2.6302233205e-01	 1.1466918932e+00	-3.9162349598e+00
 2.5270266502e-01	 1.1490101862e+00	-3.9643319591e+00
 2.4238970811e-01	 1.1512298964e+00	-4.0104083490e+00
 2.3208475481e-01	 1.1533515126e+00	-4.0544164244e+00
 2.2178908286e-01	 1.1553755440e+00	-4.0963025305e+00
 2.1150395383e-01	 1.1573025199e+00	-4.1360066484e+00
 2.0123061286e-01	 1.1591329887e+00	-4.1734620172e+00
 1.9116908222e-01	 1.1011763392e+00	-5.2984570595e+00
 1.8142177391e-01	 1.1028241419e+00	-5.3593597134e+00
 1.7168798197e-01	 1.1043813585e+00	-5.4172266055e+00
 1.6196884067e-01	 1.1058485623e+00	-5.4720646611e+00
 1.5226546757e-01	 1.1072263434e+00	-5.5238767406e+00
 1.4257896325e-01	 1.1085153077e+00	-5.5726614105e+00
 1.3291041115e-01	 1.1097160766e+00	-5.6184127464e+00
 1.2326087729e-01	 1.1108292867e+00	-5.6611201703e+00
 1.1363141015e-01	 1.1118555890e+00	-5.7007683209e+00
 1.0402304042e-01	 1.1127956484e+00	-5.7373369584e+00
 9.4436780910e-02	 1.1136501437e+00	-5.7708009025e+00
 1.9217523528e-01	 1.1069720042e+00	-5.1640523520e+00
 1.8237662536e-01	 1.1086284795e+00	-5.2221533211e+00
 1.7259160293e-01	 1.1101938919e+00	-5.2773930493e+00
 1.6282130826e-01	 1.1116688179e+00	-5.3297759894e+00
 1.5306686476e-01	 1.1130538505e+00	-5.3793018133e+00
 1.4332937885e-01	 1.1143495988e+00	-5.4259651893e+00
 1.3360993963e-01	 1.1155566875e+00	-5.4697555934e+00
 1.2390961875e-01	 1.1166757566e+00	-5.5106571548e+00
 1.1422947020e-01	 1.1177074605e+00	-5.5486485372e+00
 1.0457053011e-01	 1.1186524676e+00	-5.5837028547e+00
 9.4933816599e-02	 1.1195114602e+00	-5.6157876237e+00
 1.9318138835e-01	 1.1127676691e+00	-5.0348646945e+00
 1.8333147680e-01	 1.1144328171e+00	-5.0902521762e+00
 1.7349522389e-01	 1.1160064254e+00	-5.1429275847e+00
 1.6367377584e-01	 1.1174890735e+00	-5.1928959197e+00
 1.5386826196e-01	 1.1188813575e+00	-5.2401567031e+00
 1.4407979444e-01	 1.1201838899e+00	-5.2847037572e+00
 1.3430946811e-01	 1.1213972985e+00	-5.3265250187e+00
 1.2455836021e-01	 1.1225222266e+00	-5.3656023898e+00
 1.1482753025e-01	 1.1235593320e+00	-5.4019116244e+00
 1.0511801979e-01	 1.1245092868e+00	-5.4354222529e+00
 9.5430852288e-02	 1.1253727768e+00	-5.4660975419e+00
 1.9418754141e-01	 1.1185633341e+00	-4.9107584297e+00
 1.8428632824e-01	 1.1202371547e+00	-4.9635057110e+00
 1.7439884485e-01	 1.1218189589e+00	-5.0136658740e+00
 1.6452624342e-01	 1.1233093291e+00	-5.0612474409e+00
 1.5466965916e-01	 1.1247088646e+00	-5.1062527762e+00
 1.4483021004e-01	 1.1260181809e+00	-5.1486778623e+00
 1.3500899659e-01	 1.1272379094e+00	-5.1885121120e+00
 1.2520710167e-01	 1.1283686965e+00	-5.2257382194e+00
 1.1542559031e-01	 1.1294112035e+00	-5.2603320486e+00
 1.0566550948e-01	 1.1303661060e+00	-5.2922625607e+00
 9.5927887977e-02	 1.1312340933e+00	-5.3214917799e+00
 1.9519369448e-01	 1.1243589990e+00	-4.7916006600e+00
 1.8524117968e-01	 1.1260414923e+00	-4.8417663732e+00
 1.7530246580e-01	 1.1276314923e+00	-4.8894468309e+00
 1.6537871100e-01	 1.1291295847e+00	-4.9346570086e+00
 1.5547105636e-01	 1.1305363717e+00	-4.9774050623e+00
 1.4558062564e-01	 1.1318524720e+00	-5.0176920964e+00
 1.3570852507e-01	 1.1330785203e+00	-5.0555119698e+00
 1.2585584313e-01	 1.1342151664e+00	-5.0908511429e+00
 1.1602365036e-01	 1.1352630751e+00	-5.1236885639e+00
 1.0621299917e-01	 1.1362229252e+00	-5.1539955947e+00
 9.6424923666e-02	 1.1370954099e+00	-5.1817359780e+00
 1.9619984754e-01	 1.1301546640e+00	-4.6772611827e+00
 1.8619603112e-01	 1.1318458299e+00	-4.7248895548e+00
 1.7620608676e-01	 1.1334440258e+00	-4.7701125417e+00
 1.6623117859e-01	 1.1349498403e+00	-4.8129544608e+00
 1.5627245355e-01	 1.1363638787e+00	-4.8534321653e+00
 1.4633104123e-01	 1.1376867631e+00	-4.8915547995e+00
 1.3640805355e-01	 1.1389191313e+00	-4.9273235954e+00
 1.2650458459e-01	 1.1400616364e+00	-4.9607317100e+00
 1.1662171041e-01	 1.1411149466e+00	-4.9917641051e+00
 1.0676048885e-01	 1.1420797444e+00	-5.0203974687e+00
 9.6921959355e-02	 1.1429567264e+00	-5.0466001789e+00
 1.9720600060e-01	 1.1359503289e+00	-4.5676124275e+00
 1.8715088256e-01	 1.1376501675e+00	-4.6127335218e+00
 1.7710970772e-01	 1.1392565593e+00	-4.6555081892e+00
 1.6708364617e-01	 1.1407700958e+00	-4.6959729356e+00
 1.5707385075e-01	 1.1421913858e+00	-4.7341561748e+00
 1.4708145683e-01	 1.1435210542e+00	-4.7700779675e+00
 1.3710758203e-01	 1.1447597422e+00	-4.8037498020e+00
 1.2715332605e-01	 1.1459081063e+00	-4.8351744193e+00
 1.1721977047e-01	 1.1469668181e+00	-4.8643456818e+00
 1.0730797854e-01	 1.1479365636e+00	-4.8912484854e+00
 9.7418995044e-02	 1.1488180429e+00	-4.9158587164e+00
 1.9821215367e-01	 1.1417459938e+00	-4.4625293960e+00
 1.8810573401e-01	 1.1434545051e+00	-4.5051593472e+00
 1.7801332868e-01	 1.1450690927e+00	-4.5454819790e+00
 1.6793611375e-01	 1.1465903514e+00	-4.5835487917e+00
 1.5787524795e-01	 1.1480188929e+00	-4.6194025823e+00
 1.4783187242e-01	 1.1493553453e+00	-4.6530771620e+00
 1.3780711051e-01	 1.1506003531e+00	-4.6845971180e+00
 1.2780206751e-01	 1.1517545762e+00	-4.7139776206e+00
 1.1781783052e-01	 1.1528186896e+00	-4.7412242772e+00
 1.0785546822e-01	 1.1537933828e+00	-4.7663330310e+00
 9.7916030733e-02	 1.1546793595e+00	-4.7892901071e+00
 1.9921830673e-01	 1.1475416588e+00	-4.3618896029e+00
 1.8906058545e-01	 1.1492588427e+00	-4.4020308457e+00
 1.7891694964e-01	 1.1508816262e+00	-4.4398850683e+00
 1.6878858133e-01	 1.1524106070e+00	-4.4755215315e+00
 1.5867664515e-01	 1.1538463999e+00	-4.5090001981e+00
 1.4858228802e-01	 1.1551896364e+00	-4.5403714240e+00
 1.3850663899e-01	 1.1564409641e+00	-4.5696756964e+00
 1.2845080897e-01	 1.1576010462e+00	-4.5969434196e+00
 1.1841589057e-01	 1.1586705611e+00	-4.6221947491e+00
 1.0840295791e-01	 1.1596502020e+00	-4.6454394737e+00
 9.8413066422e-02	 1.1605406760e+00	-4.6666769461e+00
 2.0022445980e-01	 1.1533373237e+00	-4.2655730192e+00
 1.9001543689e-01	 1.1550631802e+00	-4.3032145102e+00
 1.7982057059e-01	 1.1566941597e+00	-4.3385714965e+00
 1.6964104892e-01	 1.1582308626e+00	-4.3717337265e+00
 1.5947804235e-01	 1.1596739070e+00	-4.4027810722e+00
 1.4933270362e-01	 1.1610239275e+00	-4.4317831890e+00
 1.3920616747e-01	 1.1622815750e+00	-4.4587992258e+00
 1.2909955043e-01	 1.1634475161e+00	-4.4838775855e+00
 1.1901395063e-01	 1.1645224327e+00	-4.5070557345e+00
 1.0895044760e-01	 1.1655070212e+00	-4.5283600648e+00
 9.8910102111e-02	 1.1664019926e+00	-4.5478058048e+00
 2.0123061286e-01	 1.1591329887e+00	-4.1734620172e+00
 1.9097028833e-01	 1.1608675178e+00	-4.2085794507e+00
 1.8072419155e-01	 1.1625066931e+00	-4.2413981178e+00
 1.7049351650e-01	 1.1640511182e+00	-4.2720309446e+00
 1.6027943954e-01	 1.1655014141e+00	-4.3005804169e+00
 1.5008311921e-01	 1.1668582186e+00	-4.3271382058e+00
 1.3990569595e-01	 1.1681221859e+00	-4.3517848453e+00
 1.2974829189e-01	 1.1692939860e+00	-4.3745894617e+00
 1.1961201068e-01	 1.1703743042e+00	-4.3956095566e+00
 1.0949793728e-01	 1.1713638404e+00	-4.4148908428e+00
 9.9407137800e-02	 1.1722633091e+00	-4.4324671332e+00
 9.4436780910e-02	 1.1136501437e+00	-5.7708009025e+00
 8.4873626352e-02	 1.1144197664e+00	-5.8010131337e+00
 7.5334553287e-02	 1.1151052207e+00	-5.8278836350e+00
 6.5820519938e-02	 1.1157072229e+00	-5.8514638853e+00
 5.6332466108e-02	 1.1162265009e+00	-5.8717985578e+00
 4.6871313084e-02	 1.1166637937e+00	-5.8889255729e+00
 3.7437963555e-02	 1.1170198508e+00	-5.9028761850e+00
 2.8033301553e-02	 1.1172954319e+00	-5.9136751030e+00
 1.8658192388e-02	 1.1174913064e+00	-5.9213406416e+00
 9.3134826151e-03	 1.1176082530e+00	-5.9258849040e+00
 0.0000000000e+00	 1.1176470588e+00	-5.9273139929e+00
 9.4933816599e-02	 1.1195114602e+00	-5.6157876237e+00
 8.5320329649e-02	 1.1202851335e+00	-5.6447433574e+00
 7.5731050936e-02	 1.1209741955e+00	-5.6704773392e+00
 6.6166943727e-02	 1.1215793662e+00	-5.6930473007e+00
 5.6628952772e-02	 1.1221013772e+00	-5.7125033541e+00
 4.7118004205e-02	 1.1225409715e+00	-5.7288880506e+00
 3.7635005469e-02	 1.1228989026e+00	-5.7422364740e+00
 2.8180845245e-02	 1.1231759342e+00	-5.7525763694e+00
 1.8756393401e-02	 1.1233728396e+00	-5.7599283053e+00
 9.3625009446e-03	 1.1234904017e+00	-5.7643058670e+00
 0.0000000000e+00	 1.1235294118e+00	-5.7657158818e+00
 9.5430852288e-02	 1.1253727768e+00	-5.4660975419e+00
 8.5767032945e-02	 1.1261505007e+00	-5.4937681364e+00
 7.6127548585e-02	 1.1268431704e+00	-5.5183387941e+00
 6.6513367516e-02	 1.1274515095e+00	-5.5398729403e+00
 5.6925439436e-02	 1.1279762536e+00	-5.5584256142e+00
 4.7364695327e-02	 1.1284181494e+00	-5.5740435309e+00
 3.7832047382e-02	 1.1287779544e+00	-5.5867651816e+00
 2.8328388938e-02	 1.1290564364e+00	-5.5966209693e+00
 1.8854594413e-02	 1.1292543728e+00	-5.6036333808e+00
 9.4115192742e-03	 1.1293725504e+00	-5.6078171907e+00
 0.0000000000e+00	 1.1294117647e+00	-5.6091796988e+00
 9.5927887977e-02	 1.1312340933e+00	-5.3214917799e+00
 8.6213736242e-02	 1.1320158679e+00	-5.3478432024e+00
 7.6524046233e-02	 1.1327121452e+00	-5.3712193903e+00
 6.6859791306e-02	 1.1333236527e+00	-5.3916889121e+00
 5.7221926099e-02	 1.1338511299e+00	-5.4093112281e+00
 4.7611386448e-02	 1.1342953273e+00	-5.4241367566e+00
 3.8029089296e-02	 1.1346570063e+00	-5.4362069787e+00
 2.8475932630e-02	 1.1349369387e+00	-5.4455545817e+00
 1.8952795426e-02	 1.1351359060e+00	-5.4522036384e+00
 9.4605376037e-03	 1.1352546991e+00	-5.4561698220e+00
 0.0000000000e+00	 1.1352941176e+00	-5.4574606549e+00
 9.6424923666e-02	 1.1370954099e+00	-5.1817359780e+00
 8.6660439538e-02	 1.1378812351e+00	-5.2067288984e+00
 7.6920543882e-02	 1.1385811201e+00	-5.2288752066e+00
 6.7206215095e-02	 1.1391957960e+00	-5.2482480705e+00
 5.7518412763e-02	 1.1397260062e+00	-5.2649108729e+00
 4.7858077570e-02	 1.1401725051e+00	-5.2789172804e+00
 3.8226131209e-02	 1.1405360581e+00	-5.2903113519e+00
 2.8623476322e-02	 1.1408174410e+00	-5.2991276884e+00
 1.9050996438e-02	 1.1410174392e+00	-5.3053916203e+00
 9.5095559333e-03	 1.1411368478e+00	-5.3091194313e+00
 0.0000000000e+00	 1.1411764706e+00	-5.3103186176e+00
 9.6921959355e-02	 1.1429567264e+00	-5.0466001789e+00
 8.7107142835e-02	 1.1437466023e+00	-5.0701900612e+00
 7.7317041531e-02	 1.1444500949e+00	-5.0910668891e+00
 6.7552638884e-02	 1.1450679393e+00	-5.1093078943e+00
 5.7814899427e-02	 1.1456008825e+00	-5.1249798902e+00
 4.8104768691e-02	 1.1460496830e+00	-5.1381393417e+00
 3.8423173123e-02	 1.1464151100e+00	-5.1488324787e+00
 2.8771020015e-02	 1.1466979432e+00	-5.1570954500e+00
 1.9149197451e-02	 1.1468989724e+00	-5.1629545180e+00
 9.5585742628e-03	 1.1470189965e+00	-5.1664262908e+00
 0.0000000000e+00	 1.1470588235e+00	-5.1675179917e+00
 9.7418995044e-02	 1.1488180429e+00	-4.9158587164e+00
 8.7553846132e-02	 1.1496119695e+00	-4.9379959069e+00
 7.7713539180e-02	 1.1503190697e+00	-4.9575595354e+00
 6.7899062673e-02	 1.1509400826e+00	-4.9746303692e+00
 5.8111386091e-02	 1.1514757588e+00	-4.9892781662e+00
 4.8351459812e-02	 1.1519268608e+00	-5.0015617467e+00
 3.8620215036e-02	 1.1522941618e+00	-5.0115291086e+00
 2.8918563707e-02	 1.1525784455e+00	-5.0192175869e+00
 1.9247398464e-02	 1.1527805056e+00	-5.0246540534e+00
 9.6075925924e-03	 1.1529011452e+00	-5.0278551574e+00
 0.0000000000e+00	 1.1529411765e+00	-5.0288276035e+00
 9.7916030733e-02	 1.1546793595e+00	-4.7892901071e+00
 8.8000549428e-02	 1.1554773367e+00	-4.8099199207e+00
 7.8110036829e-02	 1.1561880446e+00	-4.8281225821e+00
 6.8245486462e-02	 1.1568122259e+00	-4.8439818730e+00
 5.8407872754e-02	 1.1573506352e+00	-4.8575700173e+00
 4.8598150934e-02	 1.1578040387e+00	-4.8689477521e+00
 3.8817256950e-02	 1.1581732137e+00	-4.8781644463e+00
 2.9066107400e-02	 1.1584589478e+00	-4.8852582626e+00
 1.9345599476e-02	 1.1586620388e+00	-4.8902563635e+00
 9.6566109220e-03	 1.1587832939e+00	-4.8931751582e+00
 0.0000000000e+00	 1.1588235294e+00	-4.8940205887e+00
 9.8413066422e-02	 1.1605406760e+00	-4.6666769461e+00
 8.8447252725e-02	 1.1613427039e+00	-4.6857397495e+00
 7.8506534478e-02	 1.1620570194e+00	-4.7025296951e+00
 6.8591910251e-02	 1.1626843691e+00	-4.7171330654e+00
 5.8704359418e-02	 1.1632255115e+00	-4.7296240772e+00
 4.8844842055e-02	 1.1636812166e+00	-4.7400649527e+00
 3.9014298863e-02	 1.1640522655e+00	-4.7485060386e+00
 2.9213651092e-02	 1.1643394501e+00	-4.7549859717e+00
 1.9443800489e-02	 1.1645435720e+00	-4.7595318889e+00
 9.7056292515e-03	 1.1646654426e+00	-4.7621596803e+00
 0.0000000000e+00	 1.1647058824e+00	-4.7628742834e+00
 9.8910102111e-02	 1.1664019926e+00	-4.5478058048e+00
 8.8893956021e-02	 1.1672080711e+00	-4.5652370980e+00
 7.8903032127e-02	 1.1679259943e+00	-4.5805586640e+00
 6.8938334040e-02	 1.1685565124e+00	-4.5938587799e+00
 5.9000846082e-02	 1.1691003878e+00	-4.6052131891e+00
 4.9091533177e-02	 1.1695583944e+00	-4.6146851722e+00
 3.9211340777e-02	 1.1699313174e+00	-4.6223256658e+00
 2.9361194784e-02	 1.1702199523e+00	-4.6281734306e+00
 1.9542001501e-02	 1.1704251052e+00	-4.6322552649e+00
 9.7546475811e-03	 1.1705475913e+00	-4.6345862637e+00
 0.0000000000e+00	 1.1705882353e+00	-4.6351701187e+00
 9.9407137800e-02	 1.1722633091e+00	-4.4324671332e+00
 8.9340659318e-02	 1.1730734383e+00	-4.4481976277e+00
 7.9299529776e-02	 1.1737949691e+00	-4.4619912992e+00
 6.9284757830e-02	 1.1744286557e+00	-4.4739379198e+00
 5.9297332745e-02	 1.1749752641e+00	-4.4841143000e+00
 4.9338224298e-02	 1.1754355723e+00	-4.4925843573e+00
 3.9408382690e-02	 1.1758103692e+00	-4.4993992350e+00
 2.9508738477e-02	 1.1761004546e+00	-4.5045974716e+00
 1.9640202514e-02	 1.1763066384e+00	-4.5082052172e+00
 9.8036659106e-03	 1.1764297400e+00	-4.5102364972e+00
 0.0000000000e+00	 1.1764705882e+00	-4.5106935184e+00
 1.1764705882e+00	 0.0000000000e+00	 3.0081901312e+00
 1.1764297400e+00	 9.8036659106e-03	 3.0079014308e+00
 1.1763066384e+00	 1.9640202514e-02	 3.0073905039e+00
 1.1761004546e+00	 2.9508738477e-02	 3.0067285987e+00
 1.1758103692e+00	 3.9408382690e-02	 3.0059529075e+00
 1.1754355723e+00	 4.9338224298e-02	 3.0050667351e+00
 1.1749752641e+00	 5.9297332745e-02	 3.0040398038e+00
 1.1744286557e+00	 6.9284757830e-02	 3.0028086959e+00
 1.1737949691e+00	 7.9299529776e-02	 3.0012774337e+00
 1.1730734383e+00	 8.9340659318e-02	 2.9993181958e+00
 1.1722633091e+00	 9.9407137800e-02	 2.9967721685e+00
 1.1823529412e+00	 0.0000000000e+00	 3.0536973495e+00
 1.1823118887e+00	 9.8526842402e-03	 3.0533112326e+00
 1.1821881715e+00	 1.9738403526e-02	 3.0525677240e+00
 1.1819809569e+00	 2.9656282169e-02	 3.0515369521e+00
 1.1816894211e+00	 3.9605424603e-02	 3.0502627189e+00
 1.1813127502e+00	 4.9584915420e-02	 3.0487631856e+00
 1.1808501404e+00	 5.9593819409e-02	 3.0470315855e+00
 1.1803007990e+00	 6.9631181619e-02	 3.0450369641e+00
 1.1796639440e+00	 7.9696027424e-02	 3.0427249442e+00
 1.1789388055e+00	 8.9787362615e-02	 3.0400185153e+00
 1.1781246257e+00	 9.9904173489e-02	 3.0368188452e+00
 1.1882352941e+00	 0.0000000000e+00	 3.0976231693e+00
 1.1881940374e+00	 9.9017025697e-03	 3.0971260258e+00
 1.1880697047e+00	 1.9836604539e-02	 3.0961533517e+00
 1.1878614592e+00	 2.9803825862e-02	 3.0947636531e+00
 1.1875684729e+00	 3.9802466517e-02	 3.0929893484e+00
 1.1871899280e+00	 4.9831606541e-02	 3.0908374845e+00
 1.1867250168e+00	 5.9890306073e-02	 3.0882904810e+00
 1.1861729423e+00	 6.9977605408e-02	 3.0853069004e+00
 1.1855329188e+00	 8.0092525073e-02	 3.0818222427e+00
 1.1848041727e+00	 9.0234065911e-02	 3.0777497647e+00
 1.1839859422e+00	 1.0040120918e-01	 3.0729813204e+00
 1.1941176471e+00	 0.0000000000e+00	 3.1398934267e+00
 1.1940761861e+00	 9.9507208993e-03	 3.1392734985e+00
 1.1939512379e+00	 1.9934805552e-02	 3.1380803043e+00
 1.1937419614e+00	 2.9951369554e-02	 3.1363604016e+00
 1.1934475248e+00	 3.9999508430e-02	 3.1341344909e+00
 1.1930671059e+00	 5.0078297663e-02	 3.1313981631e+00
 1.1925998931e+00	 6.0186792737e-02	 3.1281226742e+00
 1.1920450855e+00	 7.0324029197e-02	 3.1242557456e+00
 1.1914018937e+00	 8.0489022722e-02	 3.1197223895e+00
 1.1906695398e+00	 9.0680769208e-02	 3.1144257569e+00
 1.1898472588e+00	 1.0089824487e-01	 3.1082480072e+00
 1.2000000000e+00	 0.0000000000e+00	 3.1804352184e+00
 1.1999583348e+00	 9.9997392288e-03	 3.1796823015e+00
 1.1998327711e+00	 2.0033006564e-02	 3.1782783682e+00
 1.1996224637e+00	 3.0098913246e-02	 3.1762577046e+00
 1.1993265766e+00	 4.0196550344e-02	 3.1736289626e+00
 1.1989442837e+00	 5.0324988784e-02	 3.1703759389e+00
 1.1984747694e+00	 6.0483279400e-02	 3.1664583804e+00
 1.1979172288e+00	 7.0670452986e-02	 3.1618128149e+00
 1.1972708685e+00	 8.0885520371e-02	 3.1563534061e+00
 1.1965349070e+00	 9.1127472504e-02	 3.1499728316e+00
 1.1957085753e+00	 1.0139528056e-01	 3.1425431812e+00
 1.2058823529e+00	 0.0000000000e+00	 3.2191768713e+00
 1.2058404835e+00	 1.0048757558e-02	 3.2182822835e+00
 1.2057143043e+00	 2.0131207577e-02	 3.2166784999e+00
 1.2055029660e+00	 3.0246456939e-02	 3.2143872154e+00
 1.2052056284e+00	 4.0393592257e-02	 3.2114047068e+00
 1.2048214616e+00	 5.0571679906e-02	 3.2077026425e+00
 1.2043496457e+00	 6.0779766064e-02	 3.2032289192e+00
 1.2037893721e+00	 7.1016876775e-02	 3.1979085228e+00
 1.2031398434e+00	 8.1282018020e-02	 3.1916444135e+00
 1.2024002742e+00	 9.1574175801e-02	 3.1843184327e+00
 1.2015698919e+00	 1.0189231624e-01	 3.1757922313e+00
 1.2117647059e+00	 0.0000000000e+00	 3.2560479126e+00
 1.2117226322e+00	 1.0097775888e-02	 3.2550044611e+00
 1.2115958375e+00	 2.0229408589e-02	 3.2532127960e+00
 1.2113834682e+00	 3.0394000631e-02	 3.2506817046e+00
 1.2110846803e+00	 4.0590634171e-02	 3.2473947655e+00
 1.2106986395e+00	 5.0818371027e-02	 3.2433111891e+00
 1.2102245221e+00	 6.1076252728e-02	 3.2383666851e+00
 1.2096615154e+00	 7.1363300564e-02	 3.2324743540e+00
 1.2090088182e+00	 8.1678515669e-02	 3.2255256021e+00
 1.2082656414e+00	 9.2020879097e-02	 3.2173910780e+00
 1.2074312084e+00	 1.0238935193e-01	 3.2079216295e+00
 1.2176470588e+00	 0.0000000000e+00	 3.2909790404e+00
 1.2176047809e+00	 1.0146794217e-02	 3.2897809904e+00
 1.2174773707e+00	 2.0327609602e-02	 3.2878144651e+00
 1.2172639705e+00	 3.0541544323e-02	 3.2850750318e+00
 1.2169637321e+00	 4.0787676084e-02	 3.2815332514e+00
 1.2165758173e+00	 5.1065062149e-02	 3.2771355504e+00
 1.2160993984e+00	 6.1372739392e-02	 3.2718051193e+00
 1.2155336586e+00	 7.1709724354e-02	 3.2654428346e+00
 1.2148777931e+00	 8.2075013318e-02	 3.2579282035e+00
 1.2141310086e+00	 9.2467582394e-02	 3.2491203301e+00
 1.2132925250e+00	 1.0288638762e-01	 3.2388589012e+00
 1.2235294118e+00	 0.0000000000e+00	 3.3239020961e+00
 1.2234869296e+00	 1.0195812547e-02	 3.3225451391e+00
 1.2233589039e+00	 2.0425810614e-02	 3.3204178007e+00
 1.2231444728e+00	 3.0689088016e-02	 3.3175021185e+00
 1.2228427840e+00	 4.0984717998e-02	 3.3137553202e+00
 1.2224529952e+00	 5.1311753270e-02	 3.3091107270e+00
 1.2219742747e+00	 6.1669226055e-02	 3.3034786824e+00
 1.2214058019e+00	 7.2056148143e-02	 3.2967475048e+00
 1.2207467679e+00	 8.2471510967e-02	 3.2887844624e+00
 1.2199963758e+00	 9.2914285691e-02	 3.2794367686e+00
 1.2191538415e+00	 1.0338342331e-01	 3.2685325965e+00
 1.2294117647e+00	 0.0000000000e+00	 3.3547500368e+00
 1.2293690783e+00	 1.0244830877e-02	 3.3532312598e+00
 1.2292404371e+00	 2.0524011627e-02	 3.3509581539e+00
 1.2290249751e+00	 3.0836631708e-02	 3.3478989212e+00
 1.2287218358e+00	 4.1181759911e-02	 3.3439971446e+00
 1.2283301730e+00	 5.1558444392e-02	 3.3391727224e+00
 1.2278491510e+00	 6.1965712719e-02	 3.3333228278e+00
 1.2272779452e+00	 7.2402571932e-02	 3.3263228922e+00
 1.2266157427e+00	 8.2868008615e-02	 3.3180276097e+00
 1.2258617430e+00	 9.3360988987e-02	 3.3082719622e+00
 1.2250151580e+00	 1.0388045900e-01	 3.2968722625e+00
 1.2352941176e+00	 0.0000000000e+00	 3.3834569086e+00
 1.2352512270e+00	 1.0293849206e-02	 3.3817747636e+00
 1.2351219703e+00	 2.0622212639e-02	 3.3793719080e+00
 1.2349054773e+00	 3.0984175401e-02	 3.3762024062e+00
 1.2346008877e+00	 4.1378801824e-02	 3.3721958885e+00
 1.2342073509e+00	 5.1805135513e-02	 3.3672585170e+00
 1.2337240273e+00	 6.2262199383e-02	 3.3612739760e+00
 1.2331500885e+00	 7.2748995721e-02	 3.3541044856e+00
 1.2324847176e+00	 8.3264506264e-02	 3.3455918361e+00
 1.2317271102e+00	 9.3807692284e-02	 3.3355584423e+00
 1.2308764746e+00	 1.0437749469e-01	 3.3238084160e+00
 1.1722633091e+00	 9.9407137800e-02	 2.9967721685e+00
 1.1713638404e+00	 1.0949793728e-01	 2.9936422304e+00
 1.1703743042e+00	 1.1961201068e-01	 2.9900712053e+00
 1.1692939860e+00	 1.2974829189e-01	 2.9860688129e+00
 1.1681221859e+00	 1.3990569595e-01	 2.9816207368e+00
 1.1668582186e+00	 1.5008311921e-01	 2.9766898642e+00
 1.1655014141e+00	 1.6027943954e-01	 2.9712176274e+00
 1.1640511182e+00	 1.7049351650e-01	 2.9651254437e+00
 1.1625066931e+00	 1.8072419155e-01	 2.9583162443e+00
 1.1608675178e+00	 1.9097028833e-01	 2.9506760871e+00
 1.1591329887e+00	 2.0123061286e-01	 2.9420758431e+00
 1.1781246257e+00	 9.9904173489e-02	 3.0368188452e+00
 1.1772206597e+00	 1.1004542697e-01	 3.0331964841e+00
 1.1762261757e+00	 1.2021007073e-01	 3.0293599183e+00
 1.1751404559e+00	 1.3039703335e-01	 3.0251269646e+00
 1.1739627968e+00	 1.4060522443e-01	 3.0203736179e+00
 1.1726925097e+00	 1.5083353481e-01	 3.0150506078e+00
 1.1713289212e+00	 1.6108083674e-01	 3.0090870598e+00
 1.1698713738e+00	 1.7134598408e-01	 3.0023920104e+00
 1.1683192266e+00	 1.8162781251e-01	 2.9948560157e+00
 1.1666718554e+00	 1.9192513977e-01	 2.9863528431e+00
 1.1649286536e+00	 2.0223676593e-01	 2.9767412406e+00
 1.1839859422e+00	 1.0040120918e-01	 3.0729813204e+00
 1.1830774789e+00	 1.1059291666e-01	 3.0675787956e+00
 1.1820780472e+00	 1.2080813079e-01	 3.0617542389e+00
 1.1809869259e+00	 1.3104577481e-01	 3.0555973306e+00
 1.1798034078e+00	 1.4130475290e-01	 3.0491824599e+00
 1.1785268008e+00	 1.5158395040e-01	 3.0425694170e+00
 1.1771564282e+00	 1.6188223394e-01	 3.0358040918e+00
 1.1756916294e+00	 1.7219845166e-01	 3.0288135680e+00
 1.1741317601e+00	 1.8253143347e-01	 3.0209855451e+00
 1.1724761930e+00	 1.9287999121e-01	 3.0121009777e+00
 1.1707243186e+00	 2.0324291899e-01	 3.0020079547e+00
 1.1898472588e+00	 1.0089824487e-01	 3.1082480072e+00
 1.1889342981e+00	 1.1114040634e-01	 3.1012432664e+00
 1.1879299187e+00	 1.2140619084e-01	 3.0936193097e+00
 1.1868333958e+00	 1.3169451627e-01	 3.0854621645e+00
 1.1856440187e+00	 1.4200428138e-01	 3.0768432335e+00
 1.1843610919e+00	 1.5233436600e-01	 3.0678200092e+00
 1.1829839353e+00	 1.6268363114e-01	 3.0584367926e+00
 1.1815118850e+00	 1.7305091925e-01	 3.0487254148e+00
 1.1799442935e+00	 1.8343505442e-01	 3.0387059604e+00
 1.1782805306e+00	 1.9383484266e-01	 3.0283874907e+00
 1.1765199835e+00	 2.0424907205e-01	 3.0177687662e+00
 1.1957085753e+00	 1.0139528056e-01	 3.1425431812e+00
 1.1947911173e+00	 1.1168789603e-01	 3.1341114962e+00
 1.1937817903e+00	 1.2200425089e-01	 3.1248835972e+00
 1.1926798657e+00	 1.3234325772e-01	 3.1149439383e+00
 1.1914846296e+00	 1.4270380986e-01	 3.1043630063e+00
 1.1901953830e+00	 1.5308478160e-01	 3.0931980538e+00
 1.1888114424e+00	 1.6348502833e-01	 3.0814938357e+00
 1.1873321406e+00	 1.7390338683e-01	 3.0692833467e+00
 1.1857568270e+00	 1.8433867538e-01	 3.0565885602e+00
 1.1840848682e+00	 1.9478969410e-01	 3.0434211663e+00
 1.1823156484e+00	 2.0525522512e-01	 3.0297833069e+00
 1.2015698919e+00	 1.0189231624e-01	 3.1757922313e+00
 1.2006479365e+00	 1.1223538572e-01	 3.1661062167e+00
 1.1996336618e+00	 1.2260231095e-01	 3.1554663241e+00
 1.1985263357e+00	 1.3299199918e-01	 3.1439574825e+00
 1.1973252406e+00	 1.4340333834e-01	 3.1316513023e+00
 1.1960296741e+00	 1.5383519719e-01	 3.1186068236e+00
 1.1946389494e+00	 1.6428642553e-01	 3.1048712667e+00
 1.1931523962e+00	 1.7475585441e-01	 3.0904807830e+00
 1.1915693605e+00	 1.8524229634e-01	 3.0754612059e+00
 1.1898892058e+00	 1.9574454554e-01	 3.0598287993e+00
 1.1881113134e+00	 2.0626137818e-01	 3.0435910031e+00
 1.2074312084e+00	 1.0238935193e-01	 3.2079216295e+00
 1.2065047557e+00	 1.1278287540e-01	 3.1971512608e+00
 1.2054855333e+00	 1.2320037100e-01	 3.1852878464e+00
 1.2043728056e+00	 1.3364074064e-01	 3.1724188079e+00
 1.2031658515e+00	 1.4410286682e-01	 3.1586188885e+00
 1.2018639652e+00	 1.5458561279e-01	 3.1439509127e+00
 1.2004664565e+00	 1.6508782273e-01	 3.1284665482e+00
 1.1989726518e+00	 1.7560832199e-01	 3.1122070665e+00
 1.1973818939e+00	 1.8614591730e-01	 3.0952041024e+00
 1.1956935434e+00	 1.9669939698e-01	 3.0774804097e+00
 1.1939069783e+00	 2.0726753125e-01	 3.0590506133e+00
 1.2132925250e+00	 1.0288638762e-01	 3.2388589012e+00
 1.2123615749e+00	 1.1333036509e-01	 3.2271715322e+00
 1.2113374048e+00	 1.2379843105e-01	 3.2142696219e+00
 1.2102192755e+00	 1.3428948210e-01	 3.2002450728e+00
 1.2090064624e+00	 1.4480239530e-01	 3.1851777400e+00
 1.2076982562e+00	 1.5533602838e-01	 3.1691362004e+00
 1.2062939636e+00	 1.6588921993e-01	 3.1521785216e+00
 1.2047929074e+00	 1.7646078958e-01	 3.1343530296e+00
 1.2031944274e+00	 1.8704953826e-01	 3.1156990727e+00
 1.2014978810e+00	 1.9765424842e-01	 3.0962477825e+00
 1.1997026433e+00	 2.0827368431e-01	 3.0760228277e+00
 1.2191538415e+00	 1.0338342331e-01	 3.2685325965e+00
 1.2182183941e+00	 1.1387785478e-01	 3.2560929760e+00
 1.2171892763e+00	 1.2439649111e-01	 3.2423341804e+00
 1.2160657455e+00	 1.3493822356e-01	 3.2273545518e+00
 1.2148470734e+00	 1.4550192378e-01	 3.2112410079e+00
 1.2135325473e+00	 1.5608644398e-01	 3.1940698167e+00
 1.2121214707e+00	 1.6669061713e-01	 3.1759073700e+00
 1.2106131629e+00	 1.7731325716e-01	 3.1568109539e+00
 1.2090069609e+00	 1.8795315921e-01	 3.1368295152e+00
 1.2073022185e+00	 1.9860909986e-01	 3.1160044222e+00
 1.2054983082e+00	 2.0927983738e-01	 3.0943702188e+00
 1.2250151580e+00	 1.0388045900e-01	 3.2968722625e+00
 1.2240752133e+00	 1.1442534446e-01	 3.2838425506e+00
 1.2230411479e+00	 1.2499455116e-01	 3.2694050939e+00
 1.2219122154e+00	 1.3558696502e-01	 3.2536666051e+00
 1.2206876843e+00	 1.4620145226e-01	 3.2367229865e+00
 1.2193668384e+00	 1.5683685958e-01	 3.2186601080e+00
 1.2179489777e+00	 1.6749201432e-01	 3.1995545817e+00
 1.2164334185e+00	 1.7816572474e-01	 3.1794745322e+00
 1.2148194943e+00	 1.8885678017e-01	 3.1584803615e+00
 1.2131065561e+00	 1.9956395131e-01	 3.1366255070e+00
 1.2112939732e+00	 2.1028599044e-01	 3.1139571918e+00
 1.2308764746e+00	 1.0437749469e-01	 3.3238084160e+00
 1.2299320325e+00	 1.1497283415e-01	 3.3103481996e+00
 1.2288930194e+00	 1.2559261121e-01	 3.2954069487e+00
 1.2277586853e+00	 1.3623570648e-01	 3.2791016491e+00
 1.2265282952e+00	 1.4690098074e-01	 3.2615390825e+00
 1.2252011295e+00	 1.5758727517e-01	 3.2428166042e+00
 1.2237764848e+00	 1.6829341152e-01	 3.2230229155e+00
 1.2222536741e+00	 1.7901819232e-01	 3.2022388307e+00
 1.2206320278e+00	 1.8976040113e-01	 3.1805380368e+00
 1.2189108937e+00	 2.0051880275e-01	 3.1579878461e+00
 1.2170896381e+00	 2.1129214350e-01	 3.1346499385e+00
 1.1591329887e+00	 2.0123061286e-01	 2.9420758431e+00
 1.1573025199e+00	 2.1150395383e-01	 2.9325231287e+00
 1.1553755440e+00	 2.2178908286e-01	 2.9221125960e+00
 1.1533515126e+00	 2.3208475481e-01	 2.9108259191e+00
 1.1512298964e+00	 2.4238970811e-01	 2.8986335590e+00
 1.1490101862e+00	 2.5270266502e-01	 2.8854964446e+00
 1.1466918932e+00	 2.6302233205e-01	 2.8713676696e+00
 1.1442745491e+00	 2.7334740027e-01	 2.8561941936e+00
 1.1417577074e+00	 2.8367654572e-01	 2.8399185376e+00
 1.1391409431e+00	 2.9400842977e-01	 2.8224804611e+00
 1.1364238535e+00	 3.0434169952e-01	 2.8038186111e+00
 1.1649286536e+00	 2.0223676593e-01	 2.9767412406e+00
 1.1630890325e+00	 2.1256147360e-01	 2.9659826762e+00
 1.1611524217e+00	 2.2289802827e-01	 2.9541390801e+00
 1.1591182701e+00	 2.3324517859e-01	 2.9412003441e+00
 1.1569860459e+00	 2.4360165665e-01	 2.9271452203e+00
 1.1547552372e+00	 2.5396617834e-01	 2.9119430513e+00
 1.1524253526e+00	 2.6433744371e-01	 2.8955555144e+00
 1.1499959219e+00	 2.7471413727e-01	 2.8779383698e+00
 1.1474664959e+00	 2.8509492845e-01	 2.8590432007e+00
 1.1448366478e+00	 2.9547847192e-01	 2.8388191334e+00
 1.1421059728e+00	 3.0586340802e-01	 2.8172145267e+00
 1.1707243186e+00	 2.0324291899e-01	 3.0020079547e+00
 1.1688755451e+00	 2.1361899337e-01	 2.9906177083e+00
 1.1669292995e+00	 2.2400697369e-01	 2.9779497301e+00
 1.1648850277e+00	 2.3440560236e-01	 2.9639951257e+00
 1.1627421954e+00	 2.4481360519e-01	 2.9487339562e+00
 1.1605002881e+00	 2.5522969167e-01	 2.9321370273e+00
 1.1581588121e+00	 2.6565255537e-01	 2.9141676927e+00
 1.1557172946e+00	 2.7608087428e-01	 2.8947836595e+00
 1.1531752845e+00	 2.8651331118e-01	 2.8739387848e+00
 1.1505323525e+00	 2.9694851407e-01	 2.8515848498e+00
 1.1477880921e+00	 3.0738511652e-01	 2.8276733010e+00
 1.1765199835e+00	 2.0424907205e-01	 3.0177687662e+00
 1.1746620577e+00	 2.1467651314e-01	 3.0063118054e+00
 1.1727061772e+00	 2.2511591910e-01	 2.9934205911e+00
 1.1706517853e+00	 2.3556602614e-01	 2.9790801053e+00
 1.1684983449e+00	 2.4602555373e-01	 2.9632648207e+00
 1.1662453390e+00	 2.5649320499e-01	 2.9459401417e+00
 1.1638922716e+00	 2.6696766703e-01	 2.9270642768e+00
 1.1614386673e+00	 2.7744761128e-01	 2.9065901132e+00
 1.1588840730e+00	 2.8793169391e-01	 2.8844670799e+00
 1.1562280572e+00	 2.9841855621e-01	 2.8606429879e+00
 1.1534702114e+00	 3.0890682501e-01	 2.8350658340e+00
 1.1823156484e+00	 2.0525522512e-01	 3.0297833069e+00
 1.1804485703e+00	 2.1573403290e-01	 3.0156528525e+00
 1.1784830549e+00	 2.2622486451e-01	 3.0011174540e+00
 1.1764185428e+00	 2.3672644991e-01	 2.9863280310e+00
 1.1742544943e+00	 2.4723750227e-01	 2.9706058670e+00
 1.1719903900e+00	 2.5775671832e-01	 2.9532172216e+00
 1.1696257310e+00	 2.6828277869e-01	 2.9341084209e+00
 1.1671600401e+00	 2.7881434828e-01	 2.9132208490e+00
 1.1645928615e+00	 2.8935007664e-01	 2.8904928899e+00
 1.1619237619e+00	 2.9988859836e-01	 2.8658618440e+00
 1.1591523306e+00	 3.1042853351e-01	 2.8392658060e+00
 1.1881113134e+00	 2.0626137818e-01	 3.0435910031e+00
 1.1862350829e+00	 2.1679155267e-01	 3.0266821250e+00
 1.1842599326e+00	 2.2733380993e-01	 3.0091382628e+00
 1.1821853004e+00	 2.3788687368e-01	 2.9911050894e+00
 1.1800106438e+00	 2.4844945081e-01	 2.9727175737e+00
 1.1777354409e+00	 2.5902023164e-01	 2.9541003926e+00
 1.1753591905e+00	 2.6959789035e-01	 2.9351662750e+00
 1.1728814128e+00	 2.8018108528e-01	 2.9145419658e+00
 1.1703016501e+00	 2.9076845937e-01	 2.8918839457e+00
 1.1676194667e+00	 3.0135864051e-01	 2.8671125469e+00
 1.1648344499e+00	 3.1195024201e-01	 2.8401495929e+00
 1.1939069783e+00	 2.0726753125e-01	 3.0590506133e+00
 1.1920215955e+00	 2.1784907244e-01	 3.0398062081e+00
 1.1900368103e+00	 2.2844275534e-01	 3.0197272057e+00
 1.1879520580e+00	 2.3904729746e-01	 2.9989475283e+00
 1.1857667933e+00	 2.4966139935e-01	 2.9775910154e+00
 1.1834804918e+00	 2.6028374497e-01	 2.9557718604e+00
 1.1810926499e+00	 2.7091300201e-01	 2.9335950353e+00
 1.1786027856e+00	 2.8154782228e-01	 2.9111567036e+00
 1.1760104386e+00	 2.9218684210e-01	 2.8885108198e+00
 1.1733151714e+00	 3.0282868266e-01	 2.8642689730e+00
 1.1705165692e+00	 3.1347195051e-01	 2.8375961824e+00
 1.1997026433e+00	 2.0827368431e-01	 3.0760228277e+00
 1.1978081081e+00	 2.1890659221e-01	 3.0548746601e+00
 1.1958136881e+00	 2.2955170076e-01	 3.0327237716e+00
 1.1937188155e+00	 2.4020772123e-01	 3.0096863784e+00
 1.1915229428e+00	 2.5087334789e-01	 2.9858692595e+00
 1.1892255428e+00	 2.6154725829e-01	 2.9613702262e+00
 1.1868261094e+00	 2.7222811367e-01	 2.9362785801e+00
 1.1843241583e+00	 2.8291455928e-01	 2.9106755576e+00
 1.1817192272e+00	 2.9360522482e-01	 2.8846347613e+00
 1.1790108761e+00	 3.0429872481e-01	 2.8582225753e+00
 1.1761986884e+00	 3.1499365900e-01	 2.8314870939e+00
 1.2054983082e+00	 2.0927983738e-01	 3.0943702188e+00
 1.2035946207e+00	 2.1996411198e-01	 3.0717390834e+00
 1.2015905658e+00	 2.3066064617e-01	 3.0479696339e+00
 1.1994855731e+00	 2.4136814501e-01	 3.0231545159e+00
 1.1972790923e+00	 2.5208529643e-01	 2.9973776076e+00
 1.1949705937e+00	 2.6281077162e-01	 2.9707145302e+00
 1.1925595689e+00	 2.7354322533e-01	 2.9432331469e+00
 1.1900455311e+00	 2.8428129628e-01	 2.9149940486e+00
 1.1874280157e+00	 2.9502360755e-01	 2.8860510256e+00
 1.1847065808e+00	 3.0576876696e-01	 2.8564515237e+00
 1.1818808077e+00	 3.1651536750e-01	 2.8262370844e+00
 1.2112939732e+00	 2.1028599044e-01	 3.1139571918e+00
 1.2093811333e+00	 2.2102163175e-01	 3.0902530717e+00
 1.2073674435e+00	 2.3176959159e-01	 3.0653085949e+00
 1.2052523306e+00	 2.4252856878e-01	 3.0391870609e+00
 1.2030352417e+00	 2.5329724497e-01	 3.0119436954e+00
 1.2007156446e+00	 2.6407428494e-01	 2.9836262106e+00
 1.1982930283e+00	 2.7485833699e-01	 2.9542753524e+00
 1.1957669038e+00	 2.8564803329e-01	 2.9239254356e+00
 1.1931368042e+00	 2.9644199028e-01	 2.8926048646e+00
 1.1904022855e+00	 3.0723880911e-01	 2.8603366383e+00
 1.1875629270e+00	 3.1803707600e-01	 2.8271388394e+00
 1.2170896381e+00	 2.1129214350e-01	 3.1346499385e+00
 1.2151676459e+00	 2.2207915152e-01	 3.1102721604e+00
 1.2131443212e+00	 2.3287853700e-01	 3.0845865328e+00
 1.2110190882e+00	 2.4368899255e-01	 3.0576213210e+00
 1.2087913912e+00	 2.5450919351e-01	 3.0293974349e+00
 1.2064606955e+00	 2.6533779827e-01	 2.9999290452e+00
 1.2040264878e+00	 2.7617344865e-01	 2.9692241889e+00
 1.2014882766e+00	 2.8701477029e-01	 2.9372853609e+00
 1.1988455928e+00	 2.9786037301e-01	 2.9041100921e+00
 1.1960979902e+00	 3.0870885126e-01	 2.8696915125e+00
 1.1932450462e+00	 3.1955878450e-01	 2.8340188966e+00
 1.1364238535e+00	 3.0434169952e-01	 2.8038186111e+00
 1.1336060589e+00	 3.1467498827e-01	 2.7843444507e+00
 1.1306872024e+00	 3.2500691590e-01	 2.7645107671e+00
 1.1276669509e+00	 3.3533608938e-01	 2.7443207894e+00
 1.1245449954e+00	 3.4566110319e-01	 2.7237821051e+00
 1.1213210514e+00	 3.5598053982e-01	 2.7029079343e+00
 1.1179948591e+00	 3.6629297028e-01	 2.6817183073e+00
 1.1145661841e+00	 3.7659695459e-01	 2.6602411357e+00
 1.1110348178e+00	 3.8689104234e-01	 2.6385131675e+00
 1.1074005774e+00	 3.9717377320e-01	 2.6165808172e+00
 1.1036633067e+00	 4.0744367749e-01	 2.5945008604e+00
 1.1421059728e+00	 3.0586340802e-01	 2.8172145267e+00
 1.1392740892e+00	 3.1624836321e-01	 2.7946502815e+00
 1.1363406384e+00	 3.2663195048e-01	 2.7716081311e+00
 1.1333052856e+00	 3.3701276983e-01	 2.7481310066e+00
 1.1301677204e+00	 3.4738940871e-01	 2.7242667843e+00
 1.1269276566e+00	 3.5776044252e-01	 2.7000695452e+00
 1.1235848334e+00	 3.6812443513e-01	 2.6756007342e+00
 1.1201390150e+00	 3.7847993936e-01	 2.6509302060e+00
 1.1165899919e+00	 3.8882549755e-01	 2.6261371501e+00
 1.1129375803e+00	 3.9915964207e-01	 2.6013108838e+00
 1.1091816233e+00	 4.0948089588e-01	 2.5765515050e+00
 1.1477880921e+00	 3.0738511652e-01	 2.8276733010e+00
 1.1449421195e+00	 3.1782173815e-01	 2.8026270431e+00
 1.1419940744e+00	 3.2825698506e-01	 2.7769500437e+00
 1.1389436204e+00	 3.3868945028e-01	 2.7507194988e+00
 1.1357904454e+00	 3.4911771422e-01	 2.7240181835e+00
 1.1325342619e+00	 3.5954034522e-01	 2.6969357066e+00
 1.1291748077e+00	 3.6995589998e-01	 2.6695696583e+00
 1.1257118460e+00	 3.8036292414e-01	 2.6420266404e+00
 1.1221451660e+00	 3.9075995277e-01	 2.6144231682e+00
 1.1184745832e+00	 4.0114551094e-01	 2.5868864351e+00
 1.1146999398e+00	 4.1151811427e-01	 2.5595549310e+00
 1.1534702114e+00	 3.0890682501e-01	 2.8350658340e+00
 1.1506101498e+00	 3.1939511309e-01	 2.8081525191e+00
 1.1476475104e+00	 3.2988201964e-01	 2.7804219488e+00
 1.1445819552e+00	 3.4036613072e-01	 2.7519802165e+00
 1.1414131704e+00	 3.5084601974e-01	 2.7229396781e+00
 1.1381408671e+00	 3.6132024792e-01	 2.6934202090e+00
 1.1347647820e+00	 3.7178736483e-01	 2.6635503490e+00
 1.1312846769e+00	 3.8224590891e-01	 2.6334683239e+00
 1.1277003401e+00	 3.9269440798e-01	 2.6033229337e+00
 1.1240115861e+00	 4.0313137980e-01	 2.5732742961e+00
 1.1202182563e+00	 4.1355533265e-01	 2.5434944381e+00
 1.1591523306e+00	 3.1042853351e-01	 2.8392658060e+00
 1.1562781801e+00	 3.2096848803e-01	 2.8111071029e+00
 1.1533009464e+00	 3.3150705422e-01	 2.7819117073e+00
 1.1502202899e+00	 3.4204281117e-01	 2.7518093125e+00
 1.1470358953e+00	 3.5257432525e-01	 2.7209366069e+00
 1.1437474724e+00	 3.6310015062e-01	 2.6894385418e+00
 1.1403547563e+00	 3.7361882968e-01	 2.6574694820e+00
 1.1368575078e+00	 3.8412889368e-01	 2.6251942272e+00
 1.1332555141e+00	 3.9462886319e-01	 2.5927888932e+00
 1.1295485890e+00	 4.0511724867e-01	 2.5604416439e+00
 1.1257365729e+00	 4.1559255104e-01	 2.5283532628e+00
 1.1648344499e+00	 3.1195024201e-01	 2.8401495929e+00
 1.1619462104e+00	 3.2254186297e-01	 2.8113737142e+00
 1.1589543824e+00	 3.3313208880e-01	 2.7813095172e+00
 1.1558586247e+00	 3.4371949162e-01	 2.7501050648e+00
 1.1526586203e+00	 3.5430263077e-01	 2.7179161981e+00
 1.1493540777e+00	 3.6488005331e-01	 2.6849078229e+00
 1.1459447305e+00	 3.7545029453e-01	 2.6512550745e+00
 1.1424303387e+00	 3.8601187846e-01	 2.6171443463e+00
 1.1388106882e+00	 3.9656331840e-01	 2.5827741734e+00
 1.1350855919e+00	 4.0710311753e-01	 2.5483559593e+00
 1.1312548894e+00	 4.1762976943e-01	 2.5141145360e+00
 1.1705165692e+00	 3.1347195051e-01	 2.8375961824e+00
 1.1676142407e+00	 3.2411523792e-01	 2.8088377183e+00
 1.1646078184e+00	 3.3475712338e-01	 2.7785078351e+00
 1.1614969594e+00	 3.4539617207e-01	 2.7467678012e+00
 1.1582813453e+00	 3.5603093629e-01	 2.7137874973e+00
 1.1549606829e+00	 3.6665995601e-01	 2.6797467305e+00
 1.1515347048e+00	 3.7728175938e-01	 2.6448364203e+00
 1.1480031696e+00	 3.8789486323e-01	 2.6092596434e+00
 1.1443658623e+00	 3.9849777361e-01	 2.5732325273e+00
 1.1406225947e+00	 4.0908898640e-01	 2.5369849791e+00
 1.1367732059e+00	 4.1966698782e-01	 2.5007612432e+00
 1.1761986884e+00	 3.1499365900e-01	 2.8314870939e+00
 1.1732822709e+00	 3.2568861286e-01	 2.8033868472e+00
 1.1702612545e+00	 3.3638215796e-01	 2.7734012995e+00
 1.1671352942e+00	 3.4707285251e-01	 2.7416998252e+00
 1.1639040703e+00	 3.5775924180e-01	 2.7084612971e+00
 1.1605672882e+00	 3.6843985871e-01	 2.6738754364e+00
 1.1571246791e+00	 3.7911322424e-01	 2.6381440278e+00
 1.1535760006e+00	 3.8977784800e-01	 2.6014819892e+00
 1.1499210364e+00	 4.0043222882e-01	 2.5641182813e+00
 1.1461595976e+00	 4.1107485527e-01	 2.5262966494e+00
 1.1422915225e+00	 4.2170420620e-01	 2.4882761831e+00
 1.1818808077e+00	 3.1651536750e-01	 2.8262370844e+00
 1.1789503012e+00	 3.2726198780e-01	 2.7958492746e+00
 1.1759146905e+00	 3.3800719254e-01	 2.7658866563e+00
 1.1727736289e+00	 3.4874953296e-01	 2.7348053440e+00
 1.1695267952e+00	 3.5948754732e-01	 2.7018500678e+00
 1.1661738934e+00	 3.7021976141e-01	 2.6672155402e+00
 1.1627146534e+00	 3.8094468909e-01	 2.6311095586e+00
 1.1591488315e+00	 3.9166083277e-01	 2.5937541054e+00
 1.1554762105e+00	 4.0236668404e-01	 2.5553862842e+00
 1.1516966005e+00	 4.1306072413e-01	 2.5162590795e+00
 1.1478098390e+00	 4.2374142459e-01	 2.4766419288e+00
 1.1875629270e+00	 3.1803707600e-01	 2.8271388394e+00
 1.1846183315e+00	 3.2883536274e-01	 2.7934048876e+00
 1.1815681265e+00	 3.3963222712e-01	 2.7597563945e+00
 1.1784119637e+00	 3.5042621341e-01	 2.7265460634e+00
 1.1751495202e+00	 3.6121585283e-01	 2.6938678904e+00
 1.1717804987e+00	 3.7199966411e-01	 2.6596900063e+00
 1.1683046277e+00	 3.8277615394e-01	 2.6236657672e+00
 1.1647216624e+00	 3.9354381755e-01	 2.5860195098e+00
 1.1610313846e+00	 4.0430113925e-01	 2.5469918555e+00
 1.1572336034e+00	 4.1504659300e-01	 2.5068404966e+00
 1.1533281555e+00	 4.2577864298e-01	 2.4658407883e+00
 1.1932450462e+00	 3.1955878450e-01	 2.8340188966e+00
 1.1902863618e+00	 3.3040873768e-01	 2.7974264002e+00
 1.1872215625e+00	 3.4125726170e-01	 2.7605017510e+00
 1.1840502984e+00	 3.5210289385e-01	 2.7236082471e+00
 1.1807722452e+00	 3.6294415835e-01	 2.6871040968e+00
 1.1773871039e+00	 3.7377956681e-01	 2.6513423042e+00
 1.1738946020e+00	 3.8460761879e-01	 2.6157464427e+00
 1.1702944933e+00	 3.9542680232e-01	 2.5782224618e+00
 1.1665865587e+00	 4.0623559446e-01	 2.5388907366e+00
 1.1627706063e+00	 4.1703246186e-01	 2.4980092018e+00
 1.1588464721e+00	 4.2781586137e-01	 2.4558547658e+00
 1.1036633067e+00	 4.0744367749e-01	 2.5945008604e+00
 1.0998228763e+00	 4.1769927674e-01	 2.5726114363e+00
 1.0958791836e+00	 4.2793908428e-01	 2.5509001631e+00
 1.0918321538e+00	 4.3816160584e-01	 2.5289088593e+00
 1.0876817396e+00	 4.4836534014e-01	 2.5061834692e+00
 1.0834279218e+00	 4.5854877951e-01	 2.4822745873e+00
 1.0790707095e+00	 4.6871041055e-01	 2.4567378318e+00
 1.0746101402e+00	 4.7884871473e-01	 2.4291340634e+00
 1.0700462804e+00	 4.8896216907e-01	 2.3990294487e+00
 1.0653792256e+00	 4.9904924678e-01	 2.3659953643e+00
 1.0606091003e+00	 5.0910841797e-01	 2.3296081447e+00
 1.1091816233e+00	 4.0948089588e-01	 2.5765515050e+00
 1.1053219907e+00	 4.1978777313e-01	 2.5521983875e+00
 1.1013585796e+00	 4.3007877971e-01	 2.5281788176e+00
 1.0972913146e+00	 4.4035241387e-01	 2.5039861992e+00
 1.0931201483e+00	 4.5060716684e-01	 2.4791185499e+00
 1.0888450614e+00	 4.6084152341e-01	 2.4530790856e+00
 1.0844660630e+00	 4.7105396260e-01	 2.4253766490e+00
 1.0799831909e+00	 4.8124295830e-01	 2.3955259778e+00
 1.0753965118e+00	 4.9140697991e-01	 2.3630478113e+00
 1.0707061217e+00	 5.0154449302e-01	 2.3274688339e+00
 1.0659121458e+00	 5.1165396006e-01	 2.2883214541e+00
 1.1146999398e+00	 4.1151811427e-01	 2.5595549310e+00
 1.1108211050e+00	 4.2187626951e-01	 2.5327726091e+00
 1.1068379755e+00	 4.3221847513e-01	 2.5064226957e+00
 1.1027504754e+00	 4.4254322190e-01	 2.4799647236e+00
 1.0985585570e+00	 4.5284899354e-01	 2.4528633212e+00
 1.0942622010e+00	 4.6313426731e-01	 2.4245888370e+00
 1.0898614166e+00	 4.7339751466e-01	 2.3946178016e+00
 1.0853562416e+00	 4.8363720188e-01	 2.3624332253e+00
 1.0807467432e+00	 4.9385179076e-01	 2.3275247263e+00
 1.0760330178e+00	 5.0403973925e-01	 2.2893884911e+00
 1.0712151913e+00	 5.1419950215e-01	 2.2475270637e+00
 1.1202182563e+00	 4.1355533265e-01	 2.5434944381e+00
 1.1163202194e+00	 4.2396476589e-01	 2.5143335684e+00
 1.1123173714e+00	 4.3435817055e-01	 2.4856452613e+00
 1.1082096361e+00	 4.4473402993e-01	 2.4568695086e+00
 1.1039969657e+00	 4.5509082024e-01	 2.4274518744e+00
 1.0996793407e+00	 4.6542701121e-01	 2.3968441388e+00
 1.0952567701e+00	 4.7574106671e-01	 2.3645047748e+00
 1.0907292923e+00	 4.8603144545e-01	 2.3298992519e+00
 1.0860969746e+00	 4.9629660160e-01	 2.2925001670e+00
 1.0813599140e+00	 5.0653498548e-01	 2.2517871987e+00
 1.0765182368e+00	 5.1674504424e-01	 2.2072468857e+00
 1.1257365729e+00	 4.1559255104e-01	 2.5283532628e+00
 1.1218193338e+00	 4.2605326228e-01	 2.4968802531e+00
 1.1177967673e+00	 4.3649786597e-01	 2.4658591193e+00
 1.1136687969e+00	 4.4692483796e-01	 2.4347244326e+00
 1.1094353744e+00	 4.5733264694e-01	 2.4029168088e+00
 1.1050964803e+00	 4.6771975510e-01	 2.3698835527e+00
 1.1006521237e+00	 4.7808461876e-01	 2.3350791272e+00
 1.0961023430e+00	 4.8842568902e-01	 2.2979654449e+00
 1.0914472060e+00	 4.9874141245e-01	 2.2580119787e+00
 1.0866868101e+00	 5.0903023172e-01	 2.2146956892e+00
 1.0818212823e+00	 5.1929058633e-01	 2.1675007709e+00
 1.1312548894e+00	 4.1762976943e-01	 2.5141145360e+00
 1.1273184482e+00	 4.2814175866e-01	 2.4804111363e+00
 1.1232761632e+00	 4.3863756139e-01	 2.4470759864e+00
 1.1191279577e+00	 4.4911564599e-01	 2.4135521515e+00
 1.1148737831e+00	 4.5957447364e-01	 2.3792892118e+00
 1.1105136199e+00	 4.7001249900e-01	 2.3437438858e+00
 1.1060474772e+00	 4.8042817081e-01	 2.3063804738e+00
 1.1014753937e+00	 4.9081993260e-01	 2.2666711152e+00
 1.0967974374e+00	 5.0118622329e-01	 2.2240958581e+00
 1.0920137062e+00	 5.1152547795e-01	 2.1781425398e+00
 1.0871243279e+00	 5.2183612842e-01	 2.1283064775e+00
 1.1367732059e+00	 4.1966698782e-01	 2.5007612432e+00
 1.1328175626e+00	 4.3023025504e-01	 2.4649241432e+00
 1.1287555591e+00	 4.4077725681e-01	 2.4293066629e+00
 1.1245871184e+00	 4.5130645402e-01	 2.3933740756e+00
 1.1203121918e+00	 4.6181630034e-01	 2.3565986376e+00
 1.1159307595e+00	 4.7230524290e-01	 2.3184601727e+00
 1.1114428307e+00	 4.8277172287e-01	 2.2784464681e+00
 1.1068484444e+00	 4.9321417617e-01	 2.2360534782e+00
 1.1021476688e+00	 5.0363103414e-01	 2.1907853327e+00
 1.0973406023e+00	 5.1402072419e-01	 2.1421541480e+00
 1.0924273734e+00	 5.2438167051e-01	 2.0896796417e+00
 1.1422915225e+00	 4.2170420620e-01	 2.4882761831e+00
 1.1383166770e+00	 4.3231875143e-01	 2.4504166163e+00
 1.1342349551e+00	 4.4291695223e-01	 2.4125610041e+00
 1.1300462792e+00	 4.5349726205e-01	 2.3742103448e+00
 1.1257506005e+00	 4.6405812704e-01	 2.3348730870e+00
 1.1213478991e+00	 4.7459798680e-01	 2.2940656562e+00
 1.1168381843e+00	 4.8511527492e-01	 2.2513127837e+00
 1.1122214951e+00	 4.9560841974e-01	 2.2061476357e+00
 1.1074979002e+00	 5.0607584498e-01	 2.1581117400e+00
 1.1026674985e+00	 5.1651597042e-01	 2.1067547067e+00
 1.0977304189e+00	 5.2692721260e-01	 2.0516337461e+00
 1.1478098390e+00	 4.2374142459e-01	 2.4766419288e+00
 1.1438157913e+00	 4.3440724781e-01	 2.4368852823e+00
 1.1397143510e+00	 4.4505664766e-01	 2.3968478922e+00
 1.1355054400e+00	 4.5568807008e-01	 2.3560798050e+00
 1.1311890092e+00	 4.6629995375e-01	 2.3141389863e+00
 1.1267650387e+00	 4.7689073069e-01	 2.2705917692e+00
 1.1222335378e+00	 4.8745882697e-01	 2.2250130965e+00
 1.1175945458e+00	 4.9800266332e-01	 2.1769865565e+00
 1.1128481316e+00	 5.0852065583e-01	 2.1261042054e+00
 1.1079943946e+00	 5.1901121665e-01	 2.0719661788e+00
 1.1030334644e+00	 5.2947275469e-01	 2.0141800902e+00
 1.1533281555e+00	 4.2577864298e-01	 2.4658407883e+00
 1.1493149057e+00	 4.3649574419e-01	 2.4243262190e+00
 1.1451937469e+00	 4.4719634308e-01	 2.3821752080e+00
 1.1409646008e+00	 4.5787887811e-01	 2.3389999841e+00
 1.1366274179e+00	 4.6854178045e-01	 2.2944211664e+00
 1.1321821783e+00	 4.7918347459e-01	 2.2480681145e+00
 1.1276288914e+00	 4.8980237903e-01	 2.1995790662e+00
 1.1229675965e+00	 5.0039690689e-01	 2.1486010571e+00
 1.1181983630e+00	 5.1096546667e-01	 2.0947896216e+00
 1.1133212907e+00	 5.2150646289e-01	 2.0378082723e+00
 1.1083365099e+00	 5.3201829678e-01	 1.9773277586e+00
 1.1588464721e+00	 4.2781586137e-01	 2.4558547658e+00
 1.1548140201e+00	 4.3858424058e-01	 2.4127348224e+00
 1.1506731428e+00	 4.4933603850e-01	 2.3685498032e+00
 1.1464237615e+00	 4.6006968614e-01	 2.3229870681e+00
 1.1420658266e+00	 4.7078360715e-01	 2.2757428416e+00
 1.1375993179e+00	 4.8147621849e-01	 2.2265224465e+00
 1.1330242449e+00	 4.9214593108e-01	 2.1750403166e+00
 1.1283406472e+00	 5.0279115047e-01	 2.1210197819e+00
 1.1235485944e+00	 5.1341027752e-01	 2.0641926261e+00
 1.1186481868e+00	 5.2400170912e-01	 2.0042984143e+00
 1.1136395554e+00	 5.3456383887e-01	 1.9410835912e+00
 1.0606091003e+00	 5.0910841797e-01	 2.3296081447e+00
 1.0557360588e+00	 5.1913815030e-01	 2.2914381938e+00
 1.0507602847e+00	 5.2913690965e-01	 2.2535739713e+00
 1.0456819913e+00	 5.3910316087e-01	 2.2163944717e+00
 1.0405014220e+00	 5.4903536845e-01	 2.1803067041e+00
 1.0352188500e+00	 5.5893199723e-01	 2.1457437414e+00
 1.0298345787e+00	 5.6879151315e-01	 2.1131625869e+00
 1.0243489416e+00	 5.7861238391e-01	 2.0830418690e+00
 1.0187623023e+00	 5.8839307979e-01	 2.0558777472e+00
 1.0130750548e+00	 5.9813207427e-01	 2.0257919302e+00
 1.0072876233e+00	 6.0782784487e-01	 1.9874281551e+00
 1.0659121458e+00	 5.1165396006e-01	 2.2883214541e+00
 1.0610147391e+00	 5.2173384105e-01	 2.2473155622e+00
 1.0560140861e+00	 5.3178259420e-01	 2.2067527945e+00
 1.0509104013e+00	 5.4179867667e-01	 2.1670803493e+00
 1.0457039291e+00	 5.5178054529e-01	 2.1287746609e+00
 1.0403949443e+00	 5.6172665722e-01	 2.0923392958e+00
 1.0349837516e+00	 5.7163547071e-01	 2.0583026583e+00
 1.0294706863e+00	 5.8150544583e-01	 2.0272155172e+00
 1.0238561138e+00	 5.9133504518e-01	 1.9990134123e+00
 1.0181404301e+00	 6.0112273464e-01	 1.9652072822e+00
 1.0123240614e+00	 6.1086698409e-01	 1.9235657092e+00
 1.0712151913e+00	 5.1419950215e-01	 2.2475270637e+00
 1.0662934194e+00	 5.2432953180e-01	 2.2038006588e+00
 1.0612678875e+00	 5.3442827874e-01	 2.1607187524e+00
 1.0561388112e+00	 5.4449419248e-01	 2.1187864426e+00
 1.0509064362e+00	 5.5452572213e-01	 2.0785393064e+00
 1.0455710385e+00	 5.6452131720e-01	 2.0405411547e+00
 1.0401329245e+00	 5.7447942828e-01	 2.0053815900e+00
 1.0345924310e+00	 5.8439850775e-01	 1.9736733760e+00
 1.0289499254e+00	 5.9427701058e-01	 1.9436094737e+00
 1.0232058054e+00	 6.0411339501e-01	 1.9062943761e+00
 1.0173604995e+00	 6.1390612332e-01	 1.8615664574e+00
 1.0765182368e+00	 5.1674504424e-01	 2.2072468857e+00
 1.0715720997e+00	 5.2692522255e-01	 2.1609027259e+00
 1.0665216889e+00	 5.3707396329e-01	 2.1154690638e+00
 1.0613672212e+00	 5.4718970828e-01	 2.0714987595e+00
 1.0561089433e+00	 5.5727089897e-01	 2.0295764173e+00
 1.0507471328e+00	 5.6731597719e-01	 1.9903160121e+00
 1.0452820974e+00	 5.7732338584e-01	 1.9543583096e+00
 1.0397141757e+00	 5.8729156967e-01	 1.9223680921e+00
 1.0340437369e+00	 5.9721897598e-01	 1.8895757918e+00
 1.0282711806e+00	 6.0710405538e-01	 1.8489617718e+00
 1.0223969376e+00	 6.1694526254e-01	 1.8013396267e+00
 1.0818212823e+00	 5.1929058633e-01	 2.1675007709e+00
 1.0768507800e+00	 5.2952091330e-01	 2.1186290433e+00
 1.0717754904e+00	 5.3971964784e-01	 2.0709990679e+00
 1.0665956311e+00	 5.4988522409e-01	 2.0252014928e+00
 1.0613114504e+00	 5.6001607582e-01	 1.9818599991e+00
 1.0559232270e+00	 5.7011063718e-01	 1.9416288097e+00
 1.0504312703e+00	 5.8016734341e-01	 1.9051899847e+00
 1.0448359204e+00	 5.9018463159e-01	 1.8729912870e+00
 1.0391375484e+00	 6.0016094138e-01	 1.8368225752e+00
 1.0333365559e+00	 6.1009471575e-01	 1.7931184224e+00
 1.0274333757e+00	 6.1998440177e-01	 1.7427948434e+00
 1.0871243279e+00	 5.2183612842e-01	 2.1283064775e+00
 1.0821294603e+00	 5.3211660405e-01	 2.0769848909e+00
 1.0770292918e+00	 5.4236533239e-01	 2.0273021812e+00
 1.0718240411e+00	 5.5258073989e-01	 1.9798769714e+00
 1.0665139575e+00	 5.6276125266e-01	 1.9353622307e+00
 1.0610993213e+00	 5.7290529716e-01	 1.8944426771e+00
 1.0555804432e+00	 5.8301130097e-01	 1.8578319593e+00
 1.0499576651e+00	 5.9307769351e-01	 1.8246538296e+00
 1.0442313599e+00	 6.0310290678e-01	 1.7852603910e+00
 1.0384019312e+00	 6.1308537613e-01	 1.7386736851e+00
 1.0324698138e+00	 6.2302354099e-01	 1.6858421453e+00
 1.0924273734e+00	 5.2438167051e-01	 2.0896796417e+00
 1.0874081406e+00	 5.3471229481e-01	 2.0359735120e+00
 1.0822830932e+00	 5.4501101694e-01	 1.9843698538e+00
 1.0770524510e+00	 5.5527625569e-01	 1.9355056108e+00
 1.0717164647e+00	 5.6550642950e-01	 1.8900534106e+00
 1.0662754155e+00	 5.7569995715e-01	 1.8487188731e+00
 1.0607296161e+00	 5.8585525854e-01	 1.8122376899e+00
 1.0550794099e+00	 5.9597075543e-01	 1.7772094097e+00
 1.0493251714e+00	 6.0604487218e-01	 1.7348001759e+00
 1.0434673065e+00	 6.1607603650e-01	 1.6855373327e+00
 1.0375062520e+00	 6.2606268021e-01	 1.6303919944e+00
 1.0977304189e+00	 5.2692721260e-01	 2.0516337461e+00
 1.0926868209e+00	 5.3730798556e-01	 1.9955960762e+00
 1.0875368946e+00	 5.4765670149e-01	 1.9421915274e+00
 1.0822808610e+00	 5.5797177150e-01	 1.8920658652e+00
 1.0769189718e+00	 5.6825160634e-01	 1.8459019030e+00
 1.0714515098e+00	 5.7849461713e-01	 1.8044167267e+00
 1.0658787890e+00	 5.8869921611e-01	 1.7683436066e+00
 1.0602011546e+00	 5.9886381735e-01	 1.7305721436e+00
 1.0544189829e+00	 6.0898683758e-01	 1.6853532479e+00
 1.0485326817e+00	 6.1906669687e-01	 1.6336195652e+00
 1.0425426901e+00	 6.2910181944e-01	 1.5763552897e+00
 1.1030334644e+00	 5.2947275469e-01	 2.0141800902e+00
 1.0979655012e+00	 5.3990367631e-01	 1.9558516428e+00
 1.0927906961e+00	 5.5030238603e-01	 1.9007545914e+00
 1.0875092709e+00	 5.6066728730e-01	 1.8495341784e+00
 1.0821214789e+00	 5.7099678318e-01	 1.8028740840e+00
 1.0766276040e+00	 5.8128927712e-01	 1.7614935794e+00
 1.0710279619e+00	 5.9154317367e-01	 1.7253713146e+00
 1.0653228993e+00	 6.0175687927e-01	 1.6846564619e+00
 1.0595127944e+00	 6.1192880298e-01	 1.6368313188e+00
 1.0535980570e+00	 6.2205735724e-01	 1.5828310230e+00
 1.0475791282e+00	 6.3214095866e-01	 1.5236433820e+00
 1.1083365099e+00	 5.3201829678e-01	 1.9773277586e+00
 1.1032441815e+00	 5.4249936706e-01	 1.9167371238e+00
 1.0980444975e+00	 5.5294807058e-01	 1.8600443414e+00
 1.0927376809e+00	 5.6336280311e-01	 1.8078849363e+00
 1.0873239860e+00	 5.7374196003e-01	 1.7609342890e+00
 1.0818036983e+00	 5.8408393711e-01	 1.7199047272e+00
 1.0761771348e+00	 5.9438713124e-01	 1.6828464395e+00
 1.0704446440e+00	 6.0464994119e-01	 1.6393771228e+00
 1.0646066059e+00	 6.1487076838e-01	 1.5891465067e+00
 1.0586634323e+00	 6.2504801761e-01	 1.5330828004e+00
 1.0526155663e+00	 6.3518009789e-01	 1.4721680879e+00
 1.1136395554e+00	 5.3456383887e-01	 1.9410835912e+00
 1.1085228618e+00	 5.4509505781e-01	 1.8782472472e+00
 1.1032982989e+00	 5.5559375513e-01	 1.8200439359e+00
 1.0979660909e+00	 5.6605831891e-01	 1.7670904191e+00
 1.0925264931e+00	 5.7648713687e-01	 1.7200447598e+00
 1.0869797925e+00	 5.8687859709e-01	 1.6796033641e+00
 1.0813263077e+00	 5.9723108880e-01	 1.6406880987e+00
 1.0755663887e+00	 6.0754300311e-01	 1.5946492264e+00
 1.0697004174e+00	 6.1781273377e-01	 1.5422113504e+00
 1.0637288076e+00	 6.2803867798e-01	 1.4842864593e+00
 1.0576520044e+00	 6.3821923711e-01	 1.4218417055e+00
 1.0072876233e+00	 6.0782784487e-01	 1.9874281551e+00
 1.0014004620e+00	 6.1747887382e-01	 1.9442412980e+00
 9.9541405574e-01	 6.2708364883e-01	 1.8993429723e+00
 9.8932891909e-01	 6.3664066382e-01	 1.8529656637e+00
 9.8314559692e-01	 6.4614841967e-01	 1.8053775859e+00
 9.7686466399e-01	 6.5560542496e-01	 1.7568823998e+00
 9.7048672493e-01	 6.6501019670e-01	 1.7078188373e+00
 9.6401241409e-01	 6.7436126110e-01	 1.6585602265e+00
 9.5744239535e-01	 6.8365715425e-01	 1.6095139162e+00
 9.5077736198e-01	 6.9289642294e-01	 1.5611206000e+00
 9.4401803640e-01	 7.0207762530e-01	 1.5138535382e+00
 1.0123240614e+00	 6.1086698409e-01	 1.9235657092e+00
 1.0064074643e+00	 6.2056626819e-01	 1.8775644765e+00
 1.0003911260e+00	 6.3021906707e-01	 1.8302600536e+00
 9.9427556369e-01	 6.3982386714e-01	 1.7818434131e+00
 9.8806132490e-01	 6.4937916177e-01	 1.7325405498e+00
 9.8174898731e-01	 6.5888345208e-01	 1.6826122647e+00
 9.7533915855e-01	 6.6833524769e-01	 1.6323538510e+00
 9.6883247616e-01	 6.7773306740e-01	 1.5820946828e+00
 9.6222960733e-01	 6.8707544002e-01	 1.5321977022e+00
 9.5553124879e-01	 6.9636090505e-01	 1.4830588051e+00
 9.4873812658e-01	 7.0558801342e-01	 1.4351061246e+00
 1.0173604995e+00	 6.1390612332e-01	 1.8615664574e+00
 1.0114144667e+00	 6.2365366256e-01	 1.8129098011e+00
 1.0053681963e+00	 6.3335448532e-01	 1.7633230540e+00
 9.9922220828e-01	 6.4300707046e-01	 1.7129603359e+00
 9.9297705289e-01	 6.5260990387e-01	 1.6620100902e+00
 9.8663331063e-01	 6.6216147921e-01	 1.6106949251e+00
 9.8019159218e-01	 6.7166029867e-01	 1.5592713580e+00
 9.7365253823e-01	 6.8110487371e-01	 1.5080294602e+00
 9.6701681931e-01	 6.9049372580e-01	 1.4572924017e+00
 9.6028513560e-01	 6.9982538717e-01	 1.4074158928e+00
 9.5345821676e-01	 7.0909840155e-01	 1.3587875223e+00
 1.0223969376e+00	 6.1694526254e-01	 1.8013396267e+00
 1.0164214690e+00	 6.2674105693e-01	 1.7501881406e+00
 1.0103452666e+00	 6.3648990356e-01	 1.6984443174e+00
 1.0041688529e+00	 6.4619027378e-01	 1.6462300112e+00
 9.9789278087e-01	 6.5584064597e-01	 1.5937007074e+00
 9.9151763395e-01	 6.6543950633e-01	 1.5410454162e+00
 9.8504402580e-01	 6.7498534965e-01	 1.4884864681e+00
 9.7847260030e-01	 6.8447668001e-01	 1.4362792114e+00
 9.7180403128e-01	 6.9391201157e-01	 1.3847116064e+00
 9.6503902241e-01	 7.0328986928e-01	 1.3341037181e+00
 9.5817830694e-01	 7.1260878968e-01	 1.2848071031e+00
 1.0274333757e+00	 6.1998440177e-01	 1.7427948434e+00
 1.0214284713e+00	 6.2982845129e-01	 1.6893107493e+00
 1.0153223368e+00	 6.3962532180e-01	 1.6355365620e+00
 1.0091154975e+00	 6.4937347710e-01	 1.5815663846e+00
 1.0028085089e+00	 6.5907138806e-01	 1.5275272660e+00
 9.9640195727e-01	 6.6871753346e-01	 1.4735791404e+00
 9.8989645943e-01	 6.7831040064e-01	 1.4199146702e+00
 9.8329266237e-01	 6.8784848632e-01	 1.3667589877e+00
 9.7659124326e-01	 6.9733029734e-01	 1.3143693359e+00
 9.6979290922e-01	 7.0675435140e-01	 1.2630346046e+00
 9.6289839712e-01	 7.1611917780e-01	 1.2130747612e+00
 1.0324698138e+00	 6.2302354099e-01	 1.6858421453e+00
 1.0264354736e+00	 6.3291584566e-01	 1.6301892811e+00
 1.0202994071e+00	 6.4276074005e-01	 1.5745128960e+00
 1.0140621421e+00	 6.5255668041e-01	 1.5188837857e+00
 1.0077242368e+00	 6.6230213016e-01	 1.4634050127e+00
 1.0012862806e+00	 6.7199556058e-01	 1.4082118875e+00
 9.9474889305e-01	 6.8163545162e-01	 1.3534718514e+00
 9.8811272444e-01	 6.9122029262e-01	 1.2993842592e+00
 9.8137845524e-01	 7.0074858311e-01	 1.2461800586e+00
 9.7454679603e-01	 7.1021883351e-01	 1.1941213659e+00
 9.6761848731e-01	 7.1962956593e-01	 1.1435009334e+00
 1.0375062520e+00	 6.2606268021e-01	 1.6303919944e+00
 1.0314424759e+00	 6.3600324003e-01	 1.5727358037e+00
 1.0252764774e+00	 6.4589615829e-01	 1.5152868332e+00
 1.0190087867e+00	 6.5573988373e-01	 1.4580969448e+00
 1.0126399648e+00	 6.6553287226e-01	 1.4012495954e+00
 1.0061706039e+00	 6.7527358771e-01	 1.3448598536e+00
 9.9960132668e-01	 6.8496050260e-01	 1.2890743184e+00
 9.9293278651e-01	 6.9459209893e-01	 1.2340709358e+00
 9.8616566721e-01	 7.0416686888e-01	 1.1800587131e+00
 9.7930068284e-01	 7.1368331563e-01	 1.1272773260e+00
 9.7233857749e-01	 7.2313995406e-01	 1.0759966196e+00
 1.0425426901e+00	 6.2910181944e-01	 1.5763552897e+00
 1.0364494782e+00	 6.3909063440e-01	 1.5168628133e+00
 1.0302535477e+00	 6.4903157654e-01	 1.4577723097e+00
 1.0239554313e+00	 6.5892308705e-01	 1.3991210115e+00
 1.0175556928e+00	 6.6876361436e-01	 1.3409770819e+00
 1.0110549272e+00	 6.7855161483e-01	 1.2834396619e+00
 1.0044537603e+00	 6.8828555359e-01	 1.2266388180e+00
 9.9775284858e-01	 6.9796390523e-01	 1.1707353895e+00
 9.9095287919e-01	 7.0758515465e-01	 1.1159207298e+00
 9.8405456965e-01	 7.1714779774e-01	 1.0624163419e+00
 9.7705866767e-01	 7.2665034218e-01	 1.0104734045e+00
 1.0475791282e+00	 6.3214095866e-01	 1.5236433820e+00
 1.0414564805e+00	 6.4217802877e-01	 1.4624832509e+00
 1.0352306180e+00	 6.5216699478e-01	 1.4018837010e+00
 1.0289020759e+00	 6.6210629037e-01	 1.3418715729e+00
 1.0224714208e+00	 6.7199435646e-01	 1.2825039803e+00
 1.0159392505e+00	 6.8182964196e-01	 1.2238683830e+00
 1.0093061939e+00	 6.9161060457e-01	 1.1660825591e+00
 1.0025729107e+00	 7.0133571154e-01	 1.1092944758e+00
 9.9574009117e-01	 7.1100344042e-01	 1.0536820541e+00
 9.8880845646e-01	 7.2061227986e-01	 9.9945282559e-01
 9.8177875785e-01	 7.3016073031e-01	 9.4684347961e-01
 1.0526155663e+00	 6.3518009789e-01	 1.4721680879e+00
 1.0464634828e+00	 6.4526542314e-01	 1.4095105179e+00
 1.0402076882e+00	 6.5530241303e-01	 1.3475358400e+00
 1.0338487205e+00	 6.6528949369e-01	 1.2862646728e+00
 1.0273871488e+00	 6.7522509856e-01	 1.2257472589e+00
 1.0208235739e+00	 6.8510766908e-01	 1.1660635570e+00
 1.0141586276e+00	 6.9493565555e-01	 1.1073232347e+00
 1.0073929727e+00	 7.0470751785e-01	 1.0496655569e+00
 1.0005273031e+00	 7.1442172619e-01	 9.9325916841e-01
 9.9356234327e-01	 7.2407676197e-01	 9.3830176702e-01
 9.8649884803e-01	 7.3367111844e-01	 8.8501966548e-01
 1.0576520044e+00	 6.3821923711e-01	 1.4218417055e+00
 1.0514704851e+00	 6.4835281751e-01	 1.3578584933e+00
 1.0451847585e+00	 6.5843783127e-01	 1.2946440350e+00
 1.0387953650e+00	 6.6847269701e-01	 1.2322168317e+00
 1.0323028768e+00	 6.7845584065e-01	 1.1706243672e+00
 1.0257078972e+00	 6.8838569621e-01	 1.1099432149e+00
 1.0190110612e+00	 6.9826070654e-01	 1.0502790447e+00
 1.0122130348e+00	 7.0807932415e-01	 9.9176652491e-01
 1.0053145151e+00	 7.1784001197e-01	 9.3456911654e-01
 9.9831623008e-01	 7.2754124408e-01	 8.7887875771e-01
 9.9121893822e-01	 7.3718150656e-01	 8.2491543513e-01
 9.4401803640e-01	 7.0207762530e-01	 1.5138535382e+00
 9.3716516993e-01	 7.1119933158e-01	 1.4655080346e+00
 9.3021954263e-01	 7.2026012488e-01	 1.4138587336e+00
 9.2318196292e-01	 7.2925860182e-01	 1.3593896513e+00
 9.1605326736e-01	 7.3819337327e-01	 1.3026077799e+00
 9.0883432033e-01	 7.4706306506e-01	 1.2440420080e+00
 9.0152601365e-01	 7.5586631867e-01	 1.1842419531e+00
 8.9412926628e-01	 7.6460179189e-01	 1.1237767120e+00
 8.8664502393e-01	 7.7326815952e-01	 1.0632335291e+00
 8.7907425862e-01	 7.8186411403e-01	 1.0032163883e+00
 8.7141796835e-01	 7.9038836620e-01	 9.4434453070e-01
 9.4873812658e-01	 7.0558801342e-01	 1.4351061246e+00
 9.4185099578e-01	 7.1475532824e-01	 1.3860540518e+00
 9.3487064034e-01	 7.2386142551e-01	 1.3336457924e+00
 9.2779787273e-01	 7.3290489483e-01	 1.2783947765e+00
 9.2063353370e-01	 7.4188434013e-01	 1.2208380975e+00
 9.1337849193e-01	 7.5079838039e-01	 1.1615353837e+00
 9.0603364372e-01	 7.5964565026e-01	 1.1010675814e+00
 8.9859991262e-01	 7.6842480085e-01	 1.0400356509e+00
 8.9107824905e-01	 7.7713450032e-01	 9.7905917927e-01
 8.8346962992e-01	 7.8577343460e-01	 9.1877491201e-01
 8.7577505819e-01	 7.9434030803e-01	 8.5983520949e-01
 9.5345821676e-01	 7.0909840155e-01	 1.3587875223e+00
 9.4653682163e-01	 7.1831132490e-01	 1.3090493656e+00
 9.3952173805e-01	 7.2746272613e-01	 1.2559166684e+00
 9.3241378255e-01	 7.3655118784e-01	 1.1999291570e+00
 9.2521380004e-01	 7.4557530700e-01	 1.1416509132e+00
 9.1792266353e-01	 7.5453369571e-01	 1.0816692031e+00
 9.1054127379e-01	 7.6342498185e-01	 1.0205932135e+00
 9.0307055895e-01	 7.7224780981e-01	 9.5905269876e-01
 8.9551147417e-01	 7.8100084112e-01	 8.9769654027e-01
 8.8786500121e-01	 7.8968275517e-01	 8.3719122390e-01
 8.8013214804e-01	 7.9829224986e-01	 7.7821923754e-01
 9.5817830694e-01	 7.1260878968e-01	 1.2848071031e+00
 9.5122264748e-01	 7.2186732156e-01	 1.2344004309e+00
 9.4417283577e-01	 7.3106402676e-01	 1.1805748541e+00
 9.3702969236e-01	 7.4019748085e-01	 1.1238933217e+00
 9.2979406637e-01	 7.4926627387e-01	 1.0649438370e+00
 9.2246683513e-01	 7.5826901104e-01	 1.0043382469e+00
 9.1504890386e-01	 7.6720431345e-01	 9.4271093654e-01
 9.0754120528e-01	 7.7607081876e-01	 8.8071743006e-01
 8.9994469929e-01	 7.8486718191e-01	 8.1903290240e-01
 8.9226037250e-01	 7.9359207574e-01	 7.5835060458e-01
 8.8448923788e-01	 8.0224419169e-01	 6.9938020729e-01
 9.6289839712e-01	 7.1611917780e-01	 1.2130747612e+00
 9.5590847333e-01	 7.2542331822e-01	 1.1620142844e+00
 9.4882393348e-01	 7.3466532738e-01	 1.1075244822e+00
 9.4164560218e-01	 7.4384377385e-01	 1.0501884962e+00
 9.3437433271e-01	 7.5295724073e-01	 9.9061522803e-01
 9.2701100673e-01	 7.6200432636e-01	 9.2943809331e-01
 9.1955653392e-01	 7.7098364504e-01	 8.6731367779e-01
 9.1201185161e-01	 7.7989382772e-01	 8.0492029709e-01
 9.0437792441e-01	 7.8873352271e-01	 7.4295646369e-01
 8.9665574380e-01	 7.9750139631e-01	 6.8213926466e-01
 8.8884632772e-01	 8.0619613352e-01	 6.2320265466e-01
 9.6761848731e-01	 7.1962956593e-01	 1.1435009334e+00
 9.6059429918e-01	 7.2897931487e-01	 1.0917985646e+00
 9.5347503119e-01	 7.3826662801e-01	 1.0366703443e+00
 9.4626151199e-01	 7.4749006686e-01	 9.7871661993e-01
 9.3895459905e-01	 7.5664820760e-01	 9.1856421133e-01
 9.3155517834e-01	 7.6573964169e-01	 8.5686513396e-01
 9.2406416399e-01	 7.7476297663e-01	 7.9429522080e-01
 9.1648249794e-01	 7.8371683668e-01	 7.3155264462e-01
 9.0881114953e-01	 7.9259986351e-01	 6.6935634423e-01
 9.0105111509e-01	 8.0141071688e-01	 6.0844435849e-01
 8.9320341756e-01	 8.1014807535e-01	 5.4957207233e-01
 9.7233857749e-01	 7.2313995406e-01	 1.0759966196e+00
 9.6528012503e-01	 7.3253531153e-01	 1.0236615313e+00
 9.5812612891e-01	 7.4186792863e-01	 9.6791791054e-01
 9.5087742181e-01	 7.5113635987e-01	 9.0938036528e-01
 9.4353486538e-01	 7.6033917447e-01	 8.4869069575e-01
 9.3609934994e-01	 7.6947495701e-01	 7.8651659124e-01
 9.2857179406e-01	 7.7854230823e-01	 7.2355022150e-01
 9.2095314427e-01	 7.8753984564e-01	 6.6050672557e-01
 9.1324437465e-01	 7.9646620431e-01	 5.9812260121e-01
 9.0544648638e-01	 8.0532003745e-01	 5.3715399876e-01
 8.9756050740e-01	 8.1410001718e-01	 4.7837492406e-01
 9.7705866767e-01	 7.2665034218e-01	 1.0104734045e+00
 9.6996595088e-01	 7.3609130819e-01	 9.5751208693e-01
 9.6277722662e-01	 7.4546922925e-01	 9.0117334960e-01
 9.5549333162e-01	 7.5478265288e-01	 8.4208315667e-01
 9.4811513172e-01	 7.6403014133e-01	 7.8089539255e-01
 9.4064352154e-01	 7.7321027234e-01	 7.1829053601e-01
 9.3307942413e-01	 7.8232163982e-01	 6.5497422535e-01
 9.2542379060e-01	 7.9136285460e-01	 5.9167571759e-01
 9.1767759976e-01	 8.0033254510e-01	 5.2914624487e-01
 9.0984185768e-01	 8.0922935802e-01	 4.6815727198e-01
 9.0191759724e-01	 8.1805195901e-01	 4.0949865975e-01
 9.8177875785e-01	 7.3016073031e-01	 9.4684347961e-01
 9.7465177673e-01	 7.3964730485e-01	 8.9325979741e-01
 9.6742832433e-01	 7.4907052988e-01	 8.3634354908e-01
 9.6010924143e-01	 7.5842894589e-01	 7.7672919056e-01
 9.5269539806e-01	 7.6772110820e-01	 7.1507983462e-01
 9.4518769314e-01	 7.7694558766e-01	 6.5208590620e-01
 9.3758705420e-01	 7.8610097141e-01	 5.8846368527e-01
 9.2989443694e-01	 7.9518586356e-01	 5.2495374026e-01
 9.2211082488e-01	 8.0419888590e-01	 4.6231925523e-01
 9.1423722897e-01	 8.1313867859e-01	 4.0134425476e-01
 9.0627468709e-01	 8.2200390084e-01	 3.4283173138e-01
 9.8649884803e-01	 7.3367111844e-01	 8.8501966548e-01
 9.7933760258e-01	 7.4320330151e-01	 8.3081491441e-01
 9.7207942205e-01	 7.5267183050e-01	 7.7333613706e-01
 9.6472515125e-01	 7.6207523890e-01	 7.1322345606e-01
 9.5727566439e-01	 7.7141207506e-01	 6.5114639643e-01
 9.4973186474e-01	 7.8068090299e-01	 5.8780252605e-01
 9.4209468426e-01	 7.8988030301e-01	 5.2391598023e-01
 9.3436508327e-01	 7.9900887252e-01	 4.6023587315e-01
 9.2654405000e-01	 8.0806522670e-01	 3.9753459958e-01
 9.1863260026e-01	 8.1704799916e-01	 3.3660603084e-01
 9.1063177693e-01	 8.2595584267e-01	 2.7826360975e-01
 9.9121893822e-01	 7.3718150656e-01	 8.2491543513e-01
 9.8402342843e-01	 7.4675929816e-01	 7.7008839777e-01
 9.7673051976e-01	 7.5627313113e-01	 7.1205950390e-01
 9.6934106106e-01	 7.6572153191e-01	 6.5147175620e-01
 9.6185593073e-01	 7.7510304193e-01	 5.8899831462e-01
 9.5427603634e-01	 7.8441621831e-01	 5.2534112609e-01
 9.4660231433e-01	 7.9365963460e-01	 4.6122943459e-01
 9.3883572960e-01	 8.0283188148e-01	 3.9741817456e-01
 9.3097727512e-01	 8.1193156750e-01	 3.3468625076e-01
 9.2302797155e-01	 8.2095731973e-01	 2.7383470894e-01
 9.1498886677e-01	 8.2990778450e-01	 2.1568480197e-01
 8.7141796835e-01	 7.9038836620e-01	 9.4434453070e-01
 8.6367717659e-01	 7.9883964575e-01	 8.8414739916e-01
 8.5585293186e-01	 8.0721670201e-01	 8.2013434429e-01
 8.4794630727e-01	 8.1551830450e-01	 7.5290975256e-01
 8.3995839999e-01	 8.2374324353e-01	 6.8308306088e-01
 8.3189033081e-01	 8.3189033081e-01	 6.1126709429e-01
 8.2374324353e-01	 8.3995839999e-01	 5.3807636913e-01
 8.1551830450e-01	 8.4794630727e-01	 4.6412536830e-01
 8.0721670201e-01	 8.5585293186e-01	 3.9002679537e-01
 7.9883964575e-01	 8.6367717659e-01	 3.1638981450e-01
 7.9038836620e-01	 8.7141796835e-01	 2.4381828356e-01
 8.7577505819e-01	 7.9434030803e-01	 8.5983520949e-01
 8.6799556247e-01	 8.0283384398e-01	 7.9975478060e-01
 8.6013219652e-01	 8.1125278552e-01	 7.3600252111e-01
 8.5218603880e-01	 8.1959589602e-01	 6.6917743915e-01
 8.4415819199e-01	 8.2786195975e-01	 5.9988338629e-01
 8.3604978246e-01	 8.3604978246e-01	 5.2872737886e-01
 8.2786195975e-01	 8.4415819199e-01	 4.5631788370e-01
 8.1959589602e-01	 8.5218603880e-01	 3.8326307478e-01
 8.1125278552e-01	 8.6013219652e-01	 3.1016906776e-01
 8.0283384398e-01	 8.6799556247e-01	 2.3763813953e-01
 7.9434030803e-01	 8.7577505819e-01	 1.6626694047e-01
 8.8013214804e-01	 7.9829224986e-01	 7.7821923754e-01
 8.7231394836e-01	 8.0682804221e-01	 7.1827614605e-01
 8.6441146118e-01	 8.1528886903e-01	 6.5478921116e-01
 8.5642577034e-01	 8.2367348755e-01	 5.8835400830e-01
 8.4835798399e-01	 8.3198067597e-01	 5.1957083545e-01
 8.4020923412e-01	 8.4020923412e-01	 4.4904301507e-01
 8.3198067597e-01	 8.4835798399e-01	 3.7737515897e-01
 8.2367348755e-01	 8.5642577034e-01	 3.0517140273e-01
 8.1528886903e-01	 8.6441146118e-01	 2.3303361710e-01
 8.0682804221e-01	 8.7231394836e-01	 1.6155960338e-01
 7.9829224986e-01	 8.8013214804e-01	 9.1341280650e-02
 8.8448923788e-01	 8.0224419169e-01	 6.9938020729e-01
 8.7663233424e-01	 8.1082224044e-01	 6.3959409441e-01
 8.6869072584e-01	 8.1932495254e-01	 5.7637704061e-01
 8.6066550188e-01	 8.2775107907e-01	 5.1032311060e-01
 8.5255777599e-01	 8.3609939218e-01	 4.4203105664e-01
 8.4436868577e-01	 8.4436868577e-01	 3.7210259773e-01
 8.3609939218e-01	 8.5255777599e-01	 3.0114066026e-01
 8.2775107907e-01	 8.6066550188e-01	 2.2974758685e-01
 8.1932495254e-01	 8.6869072584e-01	 1.5852332076e-01
 8.1082224044e-01	 8.7663233424e-01	 8.8063573334e-02
 8.0224419169e-01	 8.8448923788e-01	 1.8957982295e-02
 8.8884632772e-01	 8.0619613352e-01	 6.2320265466e-01
 8.8095072012e-01	 8.1481643866e-01	 5.6359216543e-01
 8.7296999050e-01	 8.2336103605e-01	 5.0064955141e-01
 8.6490523341e-01	 8.3182867059e-01	 4.3496926563e-01
 8.5675756799e-01	 8.4021810840e-01	 3.6715049897e-01
 8.4852813742e-01	 8.4852813742e-01	 2.9779543360e-01
 8.4021810840e-01	 8.5675756799e-01	 2.2750745597e-01
 8.3182867059e-01	 8.6490523341e-01	 1.5688933652e-01
 8.2336103605e-01	 8.7296999050e-01	 8.6541383553e-02
 8.1481643866e-01	 8.8095072012e-01	 1.7059578800e-02
 8.0619613352e-01	 8.8884632772e-01	-5.0966297092e-02
 8.9320341756e-01	 8.1014807535e-01	 5.4957207233e-01
 8.8526910600e-01	 8.1881063689e-01	 4.9015485293e-01
 8.7724925516e-01	 8.2739711956e-01	 4.2749121502e-01
 8.6914496495e-01	 8.3590626211e-01	 3.6217787642e-01
 8.6095735999e-01	 8.4433682462e-01	 2.9481642817e-01
 8.5268758908e-01	 8.5268758908e-01	 2.2601155894e-01
 8.4433682462e-01	 8.6095735999e-01	 1.5636923711e-01
 8.3590626211e-01	 8.6914496495e-01	 8.6494857841e-02
 8.2739711956e-01	 8.7724925516e-01	 1.6991362644e-02
 8.1881063689e-01	 8.8526910600e-01	-5.1542660607e-02
 8.1014807535e-01	 8.9320341756e-01	-1.1851488907e-01
 8.9756050740e-01	 8.1410001718e-01	 4.7837492406e-01
 8.8958749189e-01	 8.2280483512e-01	 4.1916761905e-01
 8.8152851982e-01	 8.3143320307e-01	 3.5678744693e-01
 8.7338469648e-01	 8.3998385364e-01	 2.9183524481e-01
 8.6515715199e-01	 8.4845554084e-01	 2.2491694308e-01
 8.5684704073e-01	 8.5684704073e-01	 1.5664175757e-01
 8.4845554084e-01	 8.6515715199e-01	 8.7620337470e-02
 8.3998385364e-01	 8.7338469648e-01	 1.8462876150e-02
 8.3143320307e-01	 8.8152851982e-01	-5.0222807119e-02
 8.2280483512e-01	 8.8958749189e-01	-1.1783320661e-01
 8.1410001718e-01	 8.9756050740e-01	-1.8377108231e-01
 9.0191759724e-01	 8.1805195901e-01	 4.0949865975e-01
 8.9390587777e-01	 8.2679903335e-01	 3.5051690922e-01
 8.8580778448e-01	 8.3546928658e-01	 2.8842462204e-01
 8.7762442802e-01	 8.4406144516e-01	 2.2382858763e-01
 8.6935694399e-01	 8.5257425705e-01	 1.5734099306e-01
 8.6100649239e-01	 8.6100649239e-01	 8.9577579898e-02
 8.5257425705e-01	 8.6935694399e-01	 2.1155754513e-02
 8.4406144516e-01	 8.7762442802e-01	-4.7307340729e-02
 8.3546928658e-01	 8.8580778448e-01	-1.1519678734e-01
 8.2679903335e-01	 8.9390587777e-01	-1.8190187339e-01
 8.1805195901e-01	 9.0191759724e-01	-2.4681809042e-01
 9.0627468709e-01	 8.2200390084e-01	 3.4283173138e-01
 8.9822426365e-01	 8.3079323158e-01	 2.8409016806e-01
 8.9008704914e-01	 8.3950537009e-01	 2.2229009088e-01
 8.8186415956e-01	 8.4813903668e-01	 1.5804605361e-01
 8.7355673599e-01	 8.5669297327e-01	 9.1978396048e-02
 8.6516594404e-01	 8.6516594404e-01	 2.4711362443e-02
 8.5669297327e-01	 8.7355673599e-01	-4.3128829137e-02
 8.4813903668e-01	 8.8186415956e-01	-1.1091595876e-01
 8.3950537009e-01	 8.9008704914e-01	-1.7802580973e-01
 8.3079323158e-01	 8.9822426365e-01	-2.4383819833e-01
 8.2200390084e-01	 9.0627468709e-01	-3.0773901938e-01
 9.1063177693e-01	 8.2595584267e-01	 2.7826360975e-01
 9.0254264954e-01	 8.3478742981e-01	 2.1977585602e-01
 8.9436631379e-01	 8.4354145360e-01	 1.5827219662e-01
 8.8610389109e-01	 8.5221662820e-01	 9.4376741145e-02
 8.7775652799e-01	 8.6081168949e-01	 2.8719857404e-02
 8.6932539569e-01	 8.6932539569e-01	-3.8063751807e-02
 8.6081168949e-01	 8.7775652799e-01	-1.0533702356e-01
 8.5221662820e-01	 8.8610389109e-01	-1.7246255339e-01
 8.4354145360e-01	 8.9436631379e-01	-2.3880464930e-01
 8.3478742981e-01	 9.0254264954e-01	-3.0373141234e-01
 8.2595584267e-01	 9.1063177693e-01	-3.6661683481e-01
 9.1498886677e-01	 8.2990778450e-01	 2.1568480197e-01
 9.0686103542e-01	 8.3878162804e-01	 1.5746346683e-01
 8.9864557845e-01	 8.4757753711e-01	 9.6260292774e-02
 8.9034362263e-01	 8.5629421973e-01	 3.2710716721e-02
 8.8195631999e-01	 8.6493040571e-01	-3.2543010578e-02
 8.7348484735e-01	 8.7348484735e-01	-9.8853792465e-02
 8.6493040571e-01	 8.8195631999e-01	-1.6557170880e-01
 8.5629421973e-01	 8.9034362263e-01	-2.3204608471e-01
 8.4757753711e-01	 8.9864557845e-01	-2.9762759709e-01
 8.3878162804e-01	 9.0686103542e-01	-3.6167040990e-01
 8.2990778450e-01	 9.1498886677e-01	-4.2353432893e-01
 7.9038836620e-01	 8.7141796835e-01	 2.4381828356e-01
 7.8186411403e-01	 8.7907425862e-01	 1.7011272866e-01
 7.7326815952e-01	 8.8664502393e-01	 9.3116505911e-02
 7.6460179189e-01	 8.9412926628e-01	 1.3484986839e-02
 7.5586631867e-01	 9.0152601365e-01	-6.8138084846e-02
 7.4706306506e-01	 9.0883432033e-01	-1.5112228159e-01
 7.3819337327e-01	 9.1605326736e-01	-2.3485214069e-01
 7.2925860182e-01	 9.2318196292e-01	-3.1872876574e-01
 7.2026012488e-01	 9.3021954263e-01	-4.0217137326e-01
 7.1119933158e-01	 9.3716516993e-01	-4.8461877713e-01
 7.0207762530e-01	 9.4401803640e-01	-5.6553080376e-01
 7.9434030803e-01	 8.7577505819e-01	 1.6626694047e-01
 7.8577343460e-01	 8.8346962992e-01	 9.3843695841e-02
 7.7713450032e-01	 8.9107824905e-01	 1.8213627499e-02
 7.6842480085e-01	 8.9859991262e-01	-5.9954243524e-02
 7.5964565026e-01	 9.0603364372e-01	-1.4000275278e-01
 7.5079838039e-01	 9.1337849193e-01	-2.2128833375e-01
 7.4188434013e-01	 9.2063353370e-01	-3.0318271925e-01
 7.3290489483e-01	 9.2779787273e-01	-3.8507459486e-01
 7.2386142551e-01	 9.3487064034e-01	-4.6637119689e-01
 7.1475532824e-01	 9.4185099578e-01	-5.4649984690e-01
 7.0558801342e-01	 9.4873812658e-01	-6.2490941572e-01
 7.9829224986e-01	 8.8013214804e-01	 9.1341280650e-02
 7.8968275517e-01	 8.8786500121e-01	 2.0157524406e-02
 7.8100084112e-01	 8.9551147417e-01	-5.4143938895e-02
 7.7224780981e-01	 9.0307055895e-01	-1.3088150494e-01
 7.6342498185e-01	 9.1054127379e-01	-2.0938581427e-01
 7.5453369571e-01	 9.1792266353e-01	-2.8900154543e-01
 7.4557530700e-01	 9.2521380004e-01	-3.6908916751e-01
 7.3655118784e-01	 9.3241378255e-01	-4.4902664411e-01
 7.2746272613e-01	 9.3952173805e-01	-5.2821108058e-01
 7.1831132490e-01	 9.4653682163e-01	-6.0606030675e-01
 7.0909840155e-01	 9.5345821676e-01	-6.8201438743e-01
 8.0224419169e-01	 8.8448923788e-01	 1.8957982295e-02
 7.9359207574e-01	 8.9226037250e-01	-5.1022432845e-02
 7.8486718191e-01	 8.9994469929e-01	-1.2402822486e-01
 7.7607081876e-01	 9.0754120528e-01	-1.9936624589e-01
 7.6720431345e-01	 9.1504890386e-01	-2.7635613905e-01
 7.5826901104e-01	 9.2246683513e-01	-3.5433218209e-01
 7.4926627387e-01	 9.2979406637e-01	-4.3264508981e-01
 7.4019748085e-01	 9.3702969236e-01	-5.1066376684e-01
 7.3106402676e-01	 9.4417283577e-01	-5.8777700246e-01
 7.2186732156e-01	 9.5122264748e-01	-6.6339509950e-01
 7.1260878968e-01	 9.5817830694e-01	-7.3695142915e-01
 8.0619613352e-01	 8.8884632772e-01	-5.0966297092e-02
 7.9750139631e-01	 8.9665574380e-01	-1.1977301533e-01
 7.8873352271e-01	 9.0437792441e-01	-1.9151158636e-01
 7.7989382772e-01	 9.1201185161e-01	-2.6547833234e-01
 7.7098364504e-01	 9.1955653392e-01	-3.4098306868e-01
 7.6200432636e-01	 9.2701100673e-01	-4.1735099707e-01
 7.5295724073e-01	 9.3437433271e-01	-4.9392455642e-01
 7.4384377385e-01	 9.4164560218e-01	-5.7006522291e-01
 7.3466532738e-01	 9.4882393348e-01	-6.4515525067e-01
 7.2542331822e-01	 9.5590847333e-01	-7.1859934483e-01
 7.1611917780e-01	 9.6289839712e-01	-7.8982625867e-01
 8.1014807535e-01	 8.9320341756e-01	-1.1851488907e-01
 8.0141071688e-01	 9.0105111509e-01	-1.8617121982e-01
 7.9259986351e-01	 9.0881114953e-01	-2.5666666667e-01
 7.8371683668e-01	 9.1648249794e-01	-3.2928800949e-01
 7.7476297663e-01	 9.2406416399e-01	-4.0333637817e-01
 7.6573964169e-01	 9.3155517834e-01	-4.7812919403e-01
 7.5664820760e-01	 9.3895459905e-01	-5.5300206786e-01
 7.4749006686e-01	 9.4626151199e-01	-6.2731064575e-01
 7.3826662801e-01	 9.5347503119e-01	-7.0043239407e-01
 7.2897931487e-01	 9.6059429918e-01	-7.7176831470e-01
 7.1962956593e-01	 9.6761848731e-01	-8.4074458237e-01
 8.1410001718e-01	 8.9756050740e-01	-1.8377108231e-01
 8.0532003745e-01	 9.0544648638e-01	-2.5029416543e-01
 7.9646620431e-01	 9.1324437465e-01	-3.1956635925e-01
 7.8753984564e-01	 9.2095314427e-01	-3.9086586348e-01
 7.7854230823e-01	 9.2857179406e-01	-4.6348623758e-01
 7.6947495701e-01	 9.3609934994e-01	-5.3673838937e-01
 7.6033917447e-01	 9.4353486538e-01	-6.0995251900e-01
 7.5113635987e-01	 9.5087742181e-01	-6.8248000923e-01
 7.4186792863e-01	 9.5812612891e-01	-7.5369525283e-01
 7.3253531153e-01	 9.6528012503e-01	-8.2299740836e-01
 7.2313995406e-01	 9.7233857749e-01	-8.8981207572e-01
 8.1805195901e-01	 9.0191759724e-01	-2.4681809042e-01
 8.0922935802e-01	 9.0984185768e-01	-3.1221905833e-01
 8.0033254510e-01	 9.1767759976e-01	-3.8028377043e-01
 7.9136285460e-01	 9.2542379060e-01	-4.5028278309e-01
 7.8232163982e-01	 9.3307942413e-01	-5.2150317351e-01
 7.7321027234e-01	 9.4064352154e-01	-5.9325057449e-01
 7.6403014133e-01	 9.4811513172e-01	-6.6485116320e-01
 7.5478265288e-01	 9.5549333162e-01	-7.3565359434e-01
 7.4546922925e-01	 9.6277722662e-01	-8.0503086860e-01
 7.3609130819e-01	 9.6996595088e-01	-8.7238212712e-01
 7.2665034218e-01	 9.7705866767e-01	-9.3713436322e-01
 8.2200390084e-01	 9.0627468709e-01	-3.0773901938e-01
 8.1313867859e-01	 9.1423722897e-01	-3.7202315637e-01
 8.0419888590e-01	 9.2211082488e-01	-4.3889218202e-01
 7.9518586356e-01	 9.2989443694e-01	-5.0760992123e-01
 7.8610097141e-01	 9.3758705420e-01	-5.7745803053e-01
 7.7694558766e-01	 9.4518769314e-01	-6.4773807811e-01
 7.6772110820e-01	 9.5269539806e-01	-7.1777357618e-01
 7.5842894589e-01	 9.6010924143e-01	-7.8691195576e-01
 7.4907052988e-01	 9.6742832433e-01	-8.5452647460e-01
 7.3964730485e-01	 9.7465177673e-01	-9.2001804862e-01
 7.3016073031e-01	 9.8177875785e-01	-9.8281699799e-01
 8.2595584267e-01	 9.1063177693e-01	-3.6661683481e-01
 8.1704799916e-01	 9.1863260026e-01	-4.2978373346e-01
 8.0806522670e-01	 9.2654405000e-01	-4.9546501384e-01
 7.9900887252e-01	 9.3436508327e-01	-5.6291865651e-01
 7.8988030301e-01	 9.4209468426e-01	-6.3142193264e-01
 7.8068090299e-01	 9.4973186474e-01	-7.0027352844e-01
 7.7141207506e-01	 9.5727566439e-01	-7.6879561996e-01
 7.6207523890e-01	 9.6472515125e-01	-8.3633588827e-01
 7.5267183050e-01	 9.7207942205e-01	-9.0226946535e-01
 7.4320330151e-01	 9.7933760258e-01	-9.6600080087e-01
 7.3367111844e-01	 9.8649884803e-01	-1.0269654407e+00
 8.2990778450e-01	 9.1498886677e-01	-4.2353432893e-01
 8.2095731973e-01	 9.2302797155e-01	-4.8557804378e-01
 8.1193156750e-01	 9.3097727512e-01	-5.5007578608e-01
 8.0283188148e-01	 9.3883572960e-01	-6.1628055464e-01
 7.9365963460e-01	 9.4660231433e-01	-6.8346624460e-01
 7.8441621831e-01	 9.5427603634e-01	-7.5092981532e-01
 7.7510304193e-01	 9.6185593073e-01	-8.1799340660e-01
 7.6572153191e-01	 9.6934106106e-01	-8.8400639300e-01
 7.5627313113e-01	 9.7673051976e-01	-9.4834736625e-01
 7.4675929816e-01	 9.8402342843e-01	-1.0104260359e+00
 7.3718150656e-01	 9.9121893822e-01	-1.0696850383e+00
 7.0207762530e-01	 9.4401803640e-01	-5.6553080376e-01
 6.9289642294e-01	 9.5077736198e-01	-6.4689045346e-01
 6.8365715425e-01	 9.5744239535e-01	-7.3073960802e-01
 6.7436126110e-01	 9.6401241409e-01	-8.1667031141e-01
 6.6501019670e-01	 9.7048672493e-01	-9.0431172144e-01
 6.5560542496e-01	 9.7686466399e-01	-9.9333086365e-01
 6.4614841967e-01	 9.8314559692e-01	-1.0834332642e+00
 6.3664066382e-01	 9.8932891909e-01	-1.1743634577e+00
 6.2708364883e-01	 9.9541405574e-01	-1.2659053665e+00
 6.1747887382e-01	 1.0014004620e+00	-1.3578825477e+00
 6.0782784487e-01	 1.0072876233e+00	-1.4501583072e+00
 7.0558801342e-01	 9.4873812658e-01	-6.2490941572e-01
 6.9636090505e-01	 9.5553124879e-01	-7.0366592645e-01
 6.8707544002e-01	 9.6222960733e-01	-7.8490076885e-01
 6.7773306740e-01	 9.6883247616e-01	-8.6820581321e-01
 6.6833524769e-01	 9.7533915855e-01	-9.5321089543e-01
 6.5888345208e-01	 9.8174898731e-01	-1.0395845948e+00
 6.4937916177e-01	 9.8806132490e-01	-1.1270348879e+00
 6.3982386714e-01	 9.9427556369e-01	-1.2153096749e+00
 6.3021906707e-01	 1.0003911260e+00	-1.3041971732e+00
 6.2056626819e-01	 1.0064074643e+00	-1.3935261770e+00
 6.1086698409e-01	 1.0123240614e+00	-1.4831661791e+00
 7.0909840155e-01	 9.5345821676e-01	-6.8201438743e-01
 6.9982538717e-01	 9.6028513560e-01	-7.5822407707e-01
 6.9049372580e-01	 9.6701681931e-01	-8.3690980233e-01
 6.8110487371e-01	 9.7365253823e-01	-9.1766207143e-01
 6.7166029867e-01	 9.8019159218e-01	-1.0001099745e+00
 6.6216147921e-01	 9.8663331063e-01	-1.0839219901e+00
 6.5260990387e-01	 9.9297705289e-01	-1.1688066645e+00
 6.4300707046e-01	 9.9922220828e-01	-1.2545131614e+00
 6.3335448532e-01	 1.0053681963e+00	-1.3408316761e+00
 6.2365366256e-01	 1.0114144667e+00	-1.4275937122e+00
 6.1390612332e-01	 1.0173604995e+00	-1.5146722175e+00
 7.1260878968e-01	 9.5817830694e-01	-7.3695142915e-01
 7.0328986928e-01	 9.6503902241e-01	-8.1068055776e-01
 6.9391201157e-01	 9.7180403128e-01	-8.8688888464e-01
 6.8447668001e-01	 9.7847260030e-01	-9.6516438303e-01
 6.7498534965e-01	 9.8504402580e-01	-1.0451339918e+00
 6.6543950633e-01	 9.9151763395e-01	-1.1264644544e+00
 6.5584064597e-01	 9.9789278087e-01	-1.2088630297e+00
 6.4619027378e-01	 1.0041688529e+00	-1.2920780689e+00
 6.3648990356e-01	 1.0103452666e+00	-1.3758994561e+00
 6.2674105693e-01	 1.0164214690e+00	-1.4601589074e+00
 6.1694526254e-01	 1.0223969376e+00	-1.5447301266e+00
 7.1611917780e-01	 9.6289839712e-01	-7.8982625867e-01
 7.0675435140e-01	 9.6979290922e-01	-8.6115087443e-01
 6.9733029734e-01	 9.7659124326e-01	-9.3495995701e-01
 6.8784848632e-01	 9.8329266237e-01	-1.0108377869e+00
 6.7831040064e-01	 9.8989645943e-01	-1.0884077636e+00
 6.6871753346e-01	 9.9640195727e-01	-1.1673332817e+00
 6.5907138806e-01	 1.0028085089e+00	-1.2473184774e+00
 6.4937347710e-01	 1.0091154975e+00	-1.3281088387e+00
 6.3962532180e-01	 1.0153223368e+00	-1.4094916766e+00
 6.2982845129e-01	 1.0214284713e+00	-1.4912964530e+00
 6.1998440177e-01	 1.0274333757e+00	-1.5733949615e+00
 7.1962956593e-01	 9.6761848731e-01	-8.4074458237e-01
 7.1021883351e-01	 9.7454679603e-01	-9.0975037268e-01
 7.0074858311e-01	 9.8137845524e-01	-9.8124471576e-01
 6.9122029262e-01	 9.8811272444e-01	-1.0548070561e+00
 6.8163545162e-01	 9.9474889305e-01	-1.1300558825e+00
 6.7199556058e-01	 1.0012862806e+00	-1.2066496464e+00
 6.6230213016e-01	 1.0077242368e+00	-1.2842875481e+00
 6.5255668041e-01	 1.0140621421e+00	-1.3627101859e+00
 6.4276074005e-01	 1.0202994071e+00	-1.4417000628e+00
 6.3291584566e-01	 1.0264354736e+00	-1.5210819486e+00
 6.2302354099e-01	 1.0324698138e+00	-1.6007230921e+00
 7.2313995406e-01	 9.7233857749e-01	-8.8981207572e-01
 7.1368331563e-01	 9.7930068284e-01	-9.5659422344e-01
 7.0416686888e-01	 9.8616566721e-01	-1.0258646014e+00
 6.9459209893e-01	 9.9293278651e-01	-1.0971966889e+00
 6.8496050260e-01	 9.9960132668e-01	-1.1702027091e+00
 6.7527358771e-01	 1.0061706039e+00	-1.2445345946e+00
 6.6553287226e-01	 1.0126399648e+00	-1.3198848180e+00
 6.5573988373e-01	 1.0190087867e+00	-1.3959870847e+00
 6.4589615829e-01	 1.0252764774e+00	-1.4726168810e+00
 6.3600324003e-01	 1.0314424759e+00	-1.5495918753e+00
 6.2606268021e-01	 1.0375062520e+00	-1.6267721675e+00
 7.2665034218e-01	 9.7705866767e-01	-9.3713436322e-01
 7.1714779774e-01	 9.8405456965e-01	-1.0017974080e+00
 7.0758515465e-01	 9.9095287919e-01	-1.0689407873e+00
 6.9796390523e-01	 9.9775284858e-01	-1.1381308992e+00
 6.8828555359e-01	 1.0044537603e+00	-1.2089723628e+00
 6.7855161483e-01	 1.0110549272e+00	-1.2811090339e+00
 6.6876361436e-01	 1.0175556928e+00	-1.3542248863e+00
 6.5892308705e-01	 1.0239554313e+00	-1.4280447522e+00
 6.4903157654e-01	 1.0302535477e+00	-1.5023349177e+00
 6.3909063440e-01	 1.0364494782e+00	-1.5769035681e+00
 6.2910181944e-01	 1.0425426901e+00	-1.6516010802e+00
 7.3016073031e-01	 9.8177875785e-01	-9.8281699799e-01
 7.2061227986e-01	 9.8880845646e-01	-1.0454747021e+00
 7.1100344042e-01	 9.9574009117e-01	-1.1105941671e+00
 7.0133571154e-01	 1.0025729107e+00	-1.1777336069e+00
 6.9161060457e-01	 1.0093061939e+00	-1.2464887125e+00
 6.8182964196e-01	 1.0159392505e+00	-1.3164937233e+00
 6.7199435646e-01	 1.0224714208e+00	-1.3874223627e+00
 6.6210629037e-01	 1.0289020759e+00	-1.4589886321e+00
 6.5216699478e-01	 1.0352306180e+00	-1.5309474579e+00
 6.4217802877e-01	 1.0414564805e+00	-1.6030951878e+00
 6.3214095866e-01	 1.0475791282e+00	-1.6752699305e+00
 7.3367111844e-01	 9.8649884803e-01	-1.0269654407e+00
 7.2407676197e-01	 9.9356234327e-01	-1.0877406603e+00
 7.1442172619e-01	 1.0005273031e+00	-1.1509453424e+00
 7.0470751785e-01	 1.0073929727e+00	-1.2161284263e+00
 6.9493565555e-01	 1.0141586276e+00	-1.2828753661e+00
 6.8510766908e-01	 1.0208235739e+00	-1.3508092618e+00
 6.7522509856e-01	 1.0273871488e+00	-1.4195918543e+00
 6.6528949369e-01	 1.0338487205e+00	-1.4889243777e+00
 6.5530241303e-01	 1.0402076882e+00	-1.5585482638e+00
 6.4526542314e-01	 1.0464634828e+00	-1.6282456935e+00
 6.3518009789e-01	 1.0526155663e+00	-1.6978399914e+00
 7.3718150656e-01	 9.9121893822e-01	-1.0696850383e+00
 7.2754124408e-01	 9.9831623008e-01	-1.1287095986e+00
 7.1784001197e-01	 1.0053145151e+00	-1.1901146086e+00
 7.0807932415e-01	 1.0122130348e+00	-1.2534386548e+00
 6.9826070654e-01	 1.0190110612e+00	-1.3182556595e+00
 6.8838569621e-01	 1.0257078972e+00	-1.3841760767e+00
 6.7845584065e-01	 1.0323028768e+00	-1.4508479513e+00
 6.6847269701e-01	 1.0387953650e+00	-1.5179578349e+00
 6.5843783127e-01	 1.0451847585e+00	-1.5852315523e+00
 6.4835281751e-01	 1.0514704851e+00	-1.6524348148e+00
 6.3821923711e-01	 1.0576520044e+00	-1.7193736733e+00
 6.0782784487e-01	 1.0072876233e+00	-1.4501583072e+00
 5.9813207427e-01	 1.0130750548e+00	-1.5398279913e+00
 5.8839307979e-01	 1.0187623023e+00	-1.6239528511e+00
 5.7861238391e-01	 1.0243489416e+00	-1.7053083062e+00
 5.6879151315e-01	 1.0298345787e+00	-1.7869831217e+00
 5.5893199723e-01	 1.0352188500e+00	-1.8690441611e+00
 5.4903536845e-01	 1.0405014220e+00	-1.9515785140e+00
 5.3910316087e-01	 1.0456819913e+00	-2.0346941762e+00
 5.2913690965e-01	 1.0507602847e+00	-2.1185198588e+00
 5.1913815030e-01	 1.0557360588e+00	-2.2032047050e+00
 5.0910841797e-01	 1.0606091003e+00	-2.2889179169e+00
 6.1086698409e-01	 1.0123240614e+00	-1.4831661791e+00
 6.0112273464e-01	 1.0181404301e+00	-1.5702442981e+00
 5.9133504518e-01	 1.0238561138e+00	-1.6518448711e+00
 5.8150544583e-01	 1.0294706863e+00	-1.7292600375e+00
 5.7163547071e-01	 1.0349837516e+00	-1.8068079290e+00
 5.6172665722e-01	 1.0403949443e+00	-1.8848495445e+00
 5.5178054529e-01	 1.0457039291e+00	-1.9634660861e+00
 5.4179867667e-01	 1.0509104013e+00	-2.0427595968e+00
 5.3178259420e-01	 1.0560140861e+00	-2.1228527865e+00
 5.2173384105e-01	 1.0610147391e+00	-2.2038887628e+00
 5.1165396006e-01	 1.0659121458e+00	-2.2860306701e+00
 6.1390612332e-01	 1.0173604995e+00	-1.5146722175e+00
 6.0411339501e-01	 1.0232058054e+00	-1.5992216098e+00
 5.9427701058e-01	 1.0289499254e+00	-1.6783492708e+00
 5.8439850775e-01	 1.0345924310e+00	-1.7523873271e+00
 5.7447942828e-01	 1.0401329245e+00	-1.8258252493e+00
 5.6452131720e-01	 1.0455710385e+00	-1.8998676456e+00
 5.5452572213e-01	 1.0509064362e+00	-1.9745947827e+00
 5.4449419248e-01	 1.0561388112e+00	-2.0501079931e+00
 5.3442827874e-01	 1.0612678875e+00	-2.1265295070e+00
 5.2432953180e-01	 1.0662934194e+00	-2.2040021876e+00
 5.1419950215e-01	 1.0712151913e+00	-2.2826891712e+00
 6.1694526254e-01	 1.0223969376e+00	-1.5447301266e+00
 6.0710405538e-01	 1.0282711806e+00	-1.6267941581e+00
 5.9721897598e-01	 1.0340437369e+00	-1.7034851154e+00
 5.8729156967e-01	 1.0397141757e+00	-1.7747022715e+00
 5.7732338584e-01	 1.0452820974e+00	-1.8440402254e+00
 5.6731597719e-01	 1.0507471328e+00	-1.9141007801e+00
 5.5727089897e-01	 1.0561089433e+00	-1.9849681425e+00
 5.4718970828e-01	 1.0613672212e+00	-2.0567480973e+00
 5.3707396329e-01	 1.0665216889e+00	-2.1295678356e+00
 5.2692522255e-01	 1.0715720997e+00	-2.2035756838e+00
 5.1674504424e-01	 1.0765182368e+00	-2.2789407343e+00
 6.1998440177e-01	 1.0274333757e+00	-1.5733949615e+00
 6.1009471575e-01	 1.0333365559e+00	-1.6529979249e+00
 6.0016094138e-01	 1.0391375484e+00	-1.7272735325e+00
 5.9018463159e-01	 1.0448359204e+00	-1.7960989601e+00
 5.8016734341e-01	 1.0504312703e+00	-1.8614601727e+00
 5.7011063718e-01	 1.0559232270e+00	-1.9275534603e+00
 5.6001607582e-01	 1.0613114504e+00	-1.9945918418e+00
 5.4988522409e-01	 1.0665956311e+00	-2.0626906398e+00
 5.3971964784e-01	 1.0717754904e+00	-2.1319873670e+00
 5.2952091330e-01	 1.0768507800e+00	-2.2026414388e+00
 5.1929058633e-01	 1.0818212823e+00	-2.2748337839e+00
 6.2302354099e-01	 1.0324698138e+00	-1.6007230921e+00
 6.1308537613e-01	 1.0384019312e+00	-1.6778705990e+00
 6.0310290678e-01	 1.0442313599e+00	-1.7497376624e+00
 5.9307769351e-01	 1.0499576651e+00	-1.8162112400e+00
 5.8301130097e-01	 1.0555804432e+00	-1.8780945533e+00
 5.7290529716e-01	 1.0610993213e+00	-1.9402323686e+00
 5.6276125266e-01	 1.0665139575e+00	-2.0034736702e+00
 5.5258073989e-01	 1.0718240411e+00	-2.0679483280e+00
 5.4236533239e-01	 1.0770292918e+00	-2.1338094592e+00
 5.3211660405e-01	 1.0821294603e+00	-2.2012331136e+00
 5.2183612842e-01	 1.0871243279e+00	-2.2704178547e+00
 6.2606268021e-01	 1.0375062520e+00	-1.6267721675e+00
 6.1607603650e-01	 1.0434673065e+00	-1.7014515317e+00
 6.0604487218e-01	 1.0493251714e+00	-1.7709026077e+00
 5.9597075543e-01	 1.0550794099e+00	-1.8350258666e+00
 5.8585525854e-01	 1.0607296161e+00	-1.8939549518e+00
 5.7569995715e-01	 1.0662754155e+00	-1.9521463328e+00
 5.6550642950e-01	 1.0717164647e+00	-2.0116235066e+00
 5.5527625569e-01	 1.0770524510e+00	-2.0725358256e+00
 5.4501101694e-01	 1.0822830932e+00	-2.1350572175e+00
 5.3471229481e-01	 1.0874081406e+00	-2.1993858341e+00
 5.2438167051e-01	 1.0924273734e+00	-2.2657435912e+00
 6.2910181944e-01	 1.0425426901e+00	-1.6516010802e+00
 6.1906669687e-01	 1.0485326817e+00	-1.7237816937e+00
 6.0898683758e-01	 1.0544189829e+00	-1.7907953851e+00
 5.9886381735e-01	 1.0602011546e+00	-1.8525598023e+00
 5.8869921611e-01	 1.0658787890e+00	-1.9090482050e+00
 5.7849461713e-01	 1.0714515098e+00	-1.9633063017e+00
 5.6825160634e-01	 1.0769189718e+00	-2.0190532962e+00
 5.5797177150e-01	 1.0822808610e+00	-2.0764697324e+00
 5.4765670149e-01	 1.0875368946e+00	-2.1357554799e+00
 5.3730798556e-01	 1.0926868209e+00	-2.1971361825e+00
 5.2692721260e-01	 1.0977304189e+00	-2.2608627475e+00
 6.3214095866e-01	 1.0475791282e+00	-1.6752699305e+00
 6.2205735724e-01	 1.0535980570e+00	-1.7449036325e+00
 6.1192880298e-01	 1.0595127944e+00	-1.8094448764e+00
 6.0175687927e-01	 1.0653228993e+00	-1.8688320849e+00
 5.9154317367e-01	 1.0710279619e+00	-1.9230619133e+00
 5.8128927712e-01	 1.0766276040e+00	-1.9737253213e+00
 5.7099678318e-01	 1.0821214789e+00	-2.0257770282e+00
 5.6066728730e-01	 1.0875092709e+00	-2.0797685654e+00
 5.5030238603e-01	 1.0927906961e+00	-2.1359308021e+00
 5.3990367631e-01	 1.0979655012e+00	-2.1945221893e+00
 5.2947275469e-01	 1.1030334644e+00	-2.2558281873e+00
 6.3518009789e-01	 1.0526155663e+00	-1.6978399914e+00
 6.2504801761e-01	 1.0586634323e+00	-1.7648614293e+00
 6.1487076838e-01	 1.0646066059e+00	-1.8268817815e+00
 6.0464994119e-01	 1.0704446440e+00	-1.8838637766e+00
 5.9438713124e-01	 1.0761771348e+00	-1.9358313073e+00
 5.8408393711e-01	 1.0818036983e+00	-1.9834185125e+00
 5.7374196003e-01	 1.0873239860e+00	-2.0318107146e+00
 5.6336280311e-01	 1.0927376809e+00	-2.0824527401e+00
 5.5294807058e-01	 1.0980444975e+00	-2.1356114441e+00
 5.4249936706e-01	 1.1032441815e+00	-2.1915833256e+00
 5.3201829678e-01	 1.1083365099e+00	-2.2506938842e+00
 6.3821923711e-01	 1.0576520044e+00	-1.7193736733e+00
 6.2803867798e-01	 1.0637288076e+00	-1.7837006576e+00
 6.1781273377e-01	 1.0697004174e+00	-1.8431385703e+00
 6.0754300311e-01	 1.0755663887e+00	-1.8976779140e+00
 5.9723108880e-01	 1.0813263077e+00	-1.9473735925e+00
 5.8687859709e-01	 1.0869797925e+00	-1.9924030489e+00
 5.7648713687e-01	 1.0925264931e+00	-2.0371723689e+00
 5.6605831891e-01	 1.0979660909e+00	-2.0845445526e+00
 5.5559375513e-01	 1.1032982989e+00	-2.1348273563e+00
 5.4509505781e-01	 1.1085228618e+00	-2.1883604957e+00
 5.3456383887e-01	 1.1136395554e+00	-2.2455149219e+00
 5.0910841797e-01	 1.0606091003e+00	-2.2889179169e+00
 4.9904924678e-01	 1.0653792256e+00	-2.3743266589e+00
 4.8896216907e-01	 1.0700462804e+00	-2.4579814168e+00
 4.7884871473e-01	 1.0746101402e+00	-2.5398942312e+00
 4.6871041055e-01	 1.0790707095e+00	-2.6200811051e+00
 4.5854877951e-01	 1.0834279218e+00	-2.6985617725e+00
 4.4836534014e-01	 1.0876817396e+00	-2.7753594101e+00
 4.3816160584e-01	 1.0918321538e+00	-2.8505002942e+00
 4.2793908428e-01	 1.0958791836e+00	-2.9240134084e+00
 4.1769927674e-01	 1.0998228763e+00	-2.9959300040e+00
 4.0744367749e-01	 1.1036633067e+00	-3.0662831198e+00
 5.1165396006e-01	 1.0659121458e+00	-2.2860306701e+00
 5.0154449302e-01	 1.0707061217e+00	-2.3678309192e+00
 4.9140697991e-01	 1.0753965118e+00	-2.4477510981e+00
 4.8124295830e-01	 1.0799831909e+00	-2.5258367601e+00
 4.7105396260e-01	 1.0844660630e+00	-2.6021384351e+00
 4.6084152341e-01	 1.0888450614e+00	-2.6767113347e+00
 4.5060716684e-01	 1.0931201483e+00	-2.7496149977e+00
 4.4035241387e-01	 1.0972913146e+00	-2.8209128806e+00
 4.3007877971e-01	 1.1013585796e+00	-2.8906718941e+00
 4.1978777313e-01	 1.1053219907e+00	-2.9589618939e+00
 4.0948089588e-01	 1.1091816233e+00	-3.0258551274e+00
 5.1419950215e-01	 1.0712151913e+00	-2.2826891712e+00
 5.0403973925e-01	 1.0760330178e+00	-2.3610389742e+00
 4.9385179076e-01	 1.0807467432e+00	-2.4374235358e+00
 4.8363720188e-01	 1.0853562416e+00	-2.5119105741e+00
 4.7339751466e-01	 1.0898614166e+00	-2.5845735847e+00
 4.6313426731e-01	 1.0942622010e+00	-2.6554915011e+00
 4.5284899354e-01	 1.0985585570e+00	-2.7247482933e+00
 4.4254322190e-01	 1.1027504754e+00	-2.7924325080e+00
 4.3221847513e-01	 1.1068379755e+00	-2.8586367546e+00
 4.2187626951e-01	 1.1108211050e+00	-2.9234571427e+00
 4.1151811427e-01	 1.1146999398e+00	-2.9869926739e+00
 5.1674504424e-01	 1.0765182368e+00	-2.2789407343e+00
 5.0653498548e-01	 1.0813599140e+00	-2.3540142834e+00
 4.9629660160e-01	 1.0860969746e+00	-2.4270738674e+00
 4.8603144545e-01	 1.0907292923e+00	-2.4981982059e+00
 4.7574106671e-01	 1.0952567701e+00	-2.5674723872e+00
 4.6542701121e-01	 1.0996793407e+00	-2.6349875011e+00
 4.5509082024e-01	 1.1039969657e+00	-2.7008402089e+00
 4.4473402993e-01	 1.1082096361e+00	-2.7651322516e+00
 4.3435817055e-01	 1.1123173714e+00	-2.8279699036e+00
 4.2396476589e-01	 1.1163202194e+00	-2.8894633742e+00
 4.1355533265e-01	 1.1202182563e+00	-2.9497261627e+00
 5.1929058633e-01	 1.0818212823e+00	-2.2748337839e+00
 5.0903023172e-01	 1.0866868101e+00	-2.3468210511e+00
 4.9874141245e-01	 1.0914472060e+00	-2.4167776934e+00
 4.8842568902e-01	 1.0961023430e+00	-2.4847824516e+00
 4.7808461876e-01	 1.1006521237e+00	-2.5509208171e+00
 4.6771975510e-01	 1.1050964803e+00	-2.6152846570e+00
 4.5733264694e-01	 1.1094353744e+00	-2.6779717719e+00
 4.4692483796e-01	 1.1136687969e+00	-2.7390853916e+00
 4.3649786597e-01	 1.1177967673e+00	-2.7987336126e+00
 4.2605326228e-01	 1.1218193338e+00	-2.8570287824e+00
 4.1559255104e-01	 1.1257365729e+00	-2.9140868360e+00
 5.2183612842e-01	 1.0871243279e+00	-2.2704178547e+00
 5.1152547795e-01	 1.0920137062e+00	-2.3395242338e+00
 5.0118622329e-01	 1.0967974374e+00	-2.4066110922e+00
 4.9081993260e-01	 1.1014753937e+00	-2.4717463894e+00
 4.8042817081e-01	 1.1060474772e+00	-2.5350050116e+00
 4.7001249900e-01	 1.1105136199e+00	-2.5964684065e+00
 4.5957447364e-01	 1.1148737831e+00	-2.6562241470e+00
 4.4911564599e-01	 1.1191279577e+00	-2.7143654319e+00
 4.3863756139e-01	 1.1232761632e+00	-2.7709905252e+00
 4.2814175866e-01	 1.1273184482e+00	-2.8262021405e+00
 4.1762976943e-01	 1.1312548894e+00	-2.8801067757e+00
 5.2438167051e-01	 1.0924273734e+00	-2.2657435912e+00
 5.1402072419e-01	 1.0973406023e+00	-2.3321895489e+00
 5.0363103414e-01	 1.1021476688e+00	-2.3966506343e+00
 4.9321417617e-01	 1.1068484444e+00	-2.4591733984e+00
 4.8277172287e-01	 1.1114428307e+00	-2.5198112916e+00
 4.7230524290e-01	 1.1159307595e+00	-2.5786243245e+00
 4.6181630034e-01	 1.1203121918e+00	-2.6356786566e+00
 4.5130645402e-01	 1.1245871184e+00	-2.6910461186e+00
 4.4077725681e-01	 1.1287555591e+00	-2.7448036715e+00
 4.3023025504e-01	 1.1328175626e+00	-2.7970328086e+00
 4.1966698782e-01	 1.1367732059e+00	-2.8478189054e+00
 5.2692721260e-01	 1.0977304189e+00	-2.2608627475e+00
 5.1651597042e-01	 1.1026674985e+00	-2.3248834822e+00
 5.0607584498e-01	 1.1074979002e+00	-2.3869733964e+00
 4.9560841974e-01	 1.1122214951e+00	-2.4471471775e+00
 4.8511527492e-01	 1.1168381843e+00	-2.5054261828e+00
 4.7459798680e-01	 1.1213478991e+00	-2.5618381447e+00
 4.6405812704e-01	 1.1257506005e+00	-2.6164168012e+00
 4.5349726205e-01	 1.1300462792e+00	-2.6692014574e+00
 4.4291695223e-01	 1.1342349551e+00	-2.7202364818e+00
 4.3231875143e-01	 1.1383166770e+00	-2.7695707428e+00
 4.2170420620e-01	 1.1422915225e+00	-2.8172569915e+00
 5.2947275469e-01	 1.1030334644e+00	-2.2558281873e+00
 5.1901121665e-01	 1.1079943946e+00	-2.3176732961e+00
 5.0852065583e-01	 1.1128481316e+00	-2.3776569755e+00
 4.9800266332e-01	 1.1175945458e+00	-2.4357517627e+00
 4.8745882697e-01	 1.1222335378e+00	-2.4919364359e+00
 4.7689073069e-01	 1.1267650387e+00	-2.5461957806e+00
 4.6629995375e-01	 1.1311890092e+00	-2.5985202797e+00
 4.5568807008e-01	 1.1355054400e+00	-2.6489057314e+00
 4.4505664766e-01	 1.1397143510e+00	-2.6973527995e+00
 4.3440724781e-01	 1.1438157913e+00	-2.7438665025e+00
 4.2374142459e-01	 1.1478098390e+00	-2.7884556447e+00
 5.3201829678e-01	 1.1083365099e+00	-2.2506938842e+00
 5.2150646289e-01	 1.1133212907e+00	-2.3106270373e+00
 5.1096546667e-01	 1.1181983630e+00	-2.3687795021e+00
 5.0039690689e-01	 1.1229675965e+00	-2.4250715450e+00
 4.8980237903e-01	 1.1276288914e+00	-2.4794290461e+00
 4.7918347459e-01	 1.1321821783e+00	-2.5317833455e+00
 4.6854178045e-01	 1.1366274179e+00	-2.5820710084e+00
 4.5787887811e-01	 1.1409646008e+00	-2.6302335177e+00
 4.4719634308e-01	 1.1451937469e+00	-2.6762168953e+00
 4.3649574419e-01	 1.1493149057e+00	-2.7199712593e+00
 4.2577864298e-01	 1.1533281555e+00	-2.7614503222e+00
 5.3456383887e-01	 1.1136395554e+00	-2.2455149219e+00
 5.2400170912e-01	 1.1186481868e+00	-2.3038135447e+00
 5.1341027752e-01	 1.1235485944e+00	-2.3604196542e+00
 5.0279115047e-01	 1.1283406472e+00	-2.4151912875e+00
 4.9214593108e-01	 1.1330242449e+00	-2.4679912732e+00
 4.8147621849e-01	 1.1375993179e+00	-2.5186871729e+00
 4.7078360715e-01	 1.1420658266e+00	-2.5671511405e+00
 4.6006968614e-01	 1.1464237615e+00	-2.6132597048e+00
 4.4933603850e-01	 1.1506731428e+00	-2.6568934792e+00
 4.3858424058e-01	 1.1548140201e+00	-2.6979368043e+00
 4.2781586137e-01	 1.1588464721e+00	-2.7362773288e+00
 4.0744367749e-01	 1.1036633067e+00	-3.0662831198e+00
 3.9717377320e-01	 1.1074005774e+00	-3.1354121824e+00
 3.8689104234e-01	 1.1110348178e+00	-3.2035757246e+00
 3.7659695459e-01	 1.1145661841e+00	-3.2706889028e+00
 3.6629297028e-01	 1.1179948591e+00	-3.3366697231e+00
 3.5598053982e-01	 1.1213210514e+00	-3.4014385402e+00
 3.4566110319e-01	 1.1245449954e+00	-3.4649175353e+00
 3.3533608938e-01	 1.1276669509e+00	-3.5270301778e+00
 3.2500691590e-01	 1.1306872024e+00	-3.5877006752e+00
 3.1467498827e-01	 1.1336060589e+00	-3.6468534152e+00
 3.0434169952e-01	 1.1364238535e+00	-3.7044124051e+00
 4.0948089588e-01	 1.1091816233e+00	-3.0258551274e+00
 3.9915964207e-01	 1.1129375803e+00	-3.0917321301e+00
 3.8882549755e-01	 1.1165899919e+00	-3.1568482328e+00
 3.7847993936e-01	 1.1201390150e+00	-3.2210918058e+00
 3.6812443513e-01	 1.1235848334e+00	-3.2843541698e+00
 3.5776044252e-01	 1.1269276566e+00	-3.3465291143e+00
 3.4738940871e-01	 1.1301677204e+00	-3.4075123938e+00
 3.3701276983e-01	 1.1333052856e+00	-3.4672012062e+00
 3.2663195048e-01	 1.1363406384e+00	-3.5254936578e+00
 3.1624836321e-01	 1.1392740892e+00	-3.5822882197e+00
 3.0586340802e-01	 1.1421059728e+00	-3.6374831815e+00
 4.1151811427e-01	 1.1146999398e+00	-2.9869926739e+00
 4.0114551094e-01	 1.1184745832e+00	-3.0496495612e+00
 3.9075995277e-01	 1.1221451660e+00	-3.1116770534e+00
 3.8036292414e-01	 1.1257118460e+00	-3.1729430296e+00
 3.6995589998e-01	 1.1291748077e+00	-3.2333183974e+00
 3.5954034522e-01	 1.1325342619e+00	-3.2926766235e+00
 3.4911771422e-01	 1.1357904454e+00	-3.3508932390e+00
 3.3868945028e-01	 1.1389436204e+00	-3.4078453269e+00
 3.2825698506e-01	 1.1419940744e+00	-3.4634109950e+00
 3.1782173815e-01	 1.1449421195e+00	-3.5174688391e+00
 3.0738511652e-01	 1.1477880921e+00	-3.5698974025e+00
 4.1355533265e-01	 1.1202182563e+00	-2.9497261627e+00
 4.0313137980e-01	 1.1240115861e+00	-3.0091764455e+00
 3.9269440798e-01	 1.1277003401e+00	-3.0680560375e+00
 3.8224590891e-01	 1.1312846769e+00	-3.1262185359e+00
 3.7178736483e-01	 1.1347647820e+00	-3.1835206241e+00
 3.6132024792e-01	 1.1381408671e+00	-3.2398216037e+00
 3.5084601974e-01	 1.1414131704e+00	-3.2949829031e+00
 3.4036613072e-01	 1.1445819552e+00	-3.3488675654e+00
 3.2988201964e-01	 1.1476475104e+00	-3.4013397212e+00
 3.1939511309e-01	 1.1506101498e+00	-3.4522640517e+00
 3.0890682501e-01	 1.1534702114e+00	-3.5015052460e+00
 4.1559255104e-01	 1.1257365729e+00	-2.9140868360e+00
 4.0511724867e-01	 1.1295485890e+00	-2.9703258823e+00
 3.9462886319e-01	 1.1332555141e+00	-3.0259804486e+00
 3.8412889368e-01	 1.1368575078e+00	-3.0808959773e+00
 3.7361882968e-01	 1.1403547563e+00	-3.1349210324e+00
 3.6310015062e-01	 1.1437474724e+00	-3.1879068275e+00
 3.5257432525e-01	 1.1470358953e+00	-3.2397067277e+00
 3.4204281117e-01	 1.1502202899e+00	-3.2901757306e+00
 3.3150705422e-01	 1.1533009464e+00	-3.3391699319e+00
 3.2096848803e-01	 1.1562781801e+00	-3.3865459798e+00
 3.1042853351e-01	 1.1591523306e+00	-3.4321605247e+00
 4.1762976943e-01	 1.1312548894e+00	-2.8801067757e+00
 4.0710311753e-01	 1.1350855919e+00	-2.9331120935e+00
 3.9656331840e-01	 1.1388106882e+00	-2.9854469491e+00
 3.8601187846e-01	 1.1424303387e+00	-3.0369546749e+00
 3.7545029453e-01	 1.1459447305e+00	-3.0874817406e+00
 3.6488005331e-01	 1.1493540777e+00	-3.1368772683e+00
 3.5430263077e-01	 1.1526586203e+00	-3.1849925198e+00
 3.4371949162e-01	 1.1558586247e+00	-3.2316803636e+00
 3.3313208880e-01	 1.1589543824e+00	-3.2767947246e+00
 3.2254186297e-01	 1.1619462104e+00	-3.3201900240e+00
 3.1195024201e-01	 1.1648344499e+00	-3.3617206117e+00
 4.1966698782e-01	 1.1367732059e+00	-2.8478189054e+00
 4.0908898640e-01	 1.1406225947e+00	-2.8975504181e+00
 3.9849777361e-01	 1.1443658623e+00	-2.9464535865e+00
 3.8789486323e-01	 1.1480031696e+00	-2.9943755982e+00
 3.7728175938e-01	 1.1515347048e+00	-3.0411667746e+00
 3.6665995601e-01	 1.1549606829e+00	-3.0866800644e+00
 3.5603093629e-01	 1.1582813453e+00	-3.1307705093e+00
 3.4539617207e-01	 1.1614969594e+00	-3.1732946877e+00
 3.3475712338e-01	 1.1646078184e+00	-3.2141101426e+00
 3.2411523792e-01	 1.1676142407e+00	-3.2530747979e+00
 3.1347195051e-01	 1.1705165692e+00	-3.2900463684e+00
 4.2170420620e-01	 1.1422915225e+00	-2.8172569915e+00
 4.1107485527e-01	 1.1461595976e+00	-2.8636573059e+00
 4.0043222882e-01	 1.1499210364e+00	-2.9089997801e+00
 3.8977784800e-01	 1.1535760006e+00	-2.9531413444e+00
 3.7911322424e-01	 1.1571246791e+00	-2.9959420406e+00
 3.6843985871e-01	 1.1605672882e+00	-3.0372644858e+00
 3.5775924180e-01	 1.1639040703e+00	-3.0769733081e+00
 3.4707285251e-01	 1.1671352942e+00	-3.1149345607e+00
 3.3638215796e-01	 1.1702612545e+00	-3.1510151188e+00
 3.2568861286e-01	 1.1732822709e+00	-3.1850820660e+00
 3.1499365900e-01	 1.1761986884e+00	-3.2170020740e+00
 4.2374142459e-01	 1.1478098390e+00	-2.7884556447e+00
 4.1306072413e-01	 1.1516966005e+00	-2.8314503123e+00
 4.0236668404e-01	 1.1554762105e+00	-2.8730863092e+00
 3.9166083277e-01	 1.1591488315e+00	-2.9132361198e+00
 3.8094468909e-01	 1.1627146534e+00	-2.9517752995e+00
 3.7021976141e-01	 1.1661738934e+00	-2.9885819004e+00
 3.5948754732e-01	 1.1695267952e+00	-3.0235358704e+00
 3.4874953296e-01	 1.1727736289e+00	-3.0565184281e+00
 3.3800719254e-01	 1.1759146905e+00	-3.0874114229e+00
 3.2726198780e-01	 1.1789503012e+00	-3.1170742142e+00
 3.1651536750e-01	 1.1818808077e+00	-3.1471494744e+00
 4.2577864298e-01	 1.1533281555e+00	-2.7614503222e+00
 4.1504659300e-01	 1.1572336034e+00	-2.8009480927e+00
 4.0430113925e-01	 1.1610313846e+00	-2.8387153003e+00
 3.9354381755e-01	 1.1647216624e+00	-2.8746457204e+00
 3.8277615394e-01	 1.1683046277e+00	-2.9086361407e+00
 3.7199966411e-01	 1.1717804987e+00	-2.9405857428e+00
 3.6121585283e-01	 1.1751495202e+00	-2.9703954539e+00
 3.5042621341e-01	 1.1784119637e+00	-2.9985547266e+00
 3.3963222712e-01	 1.1815681265e+00	-3.0272941385e+00
 3.2883536274e-01	 1.1846183315e+00	-3.0565555309e+00
 3.1803707600e-01	 1.1875629270e+00	-3.0860028913e+00
 4.2781586137e-01	 1.1588464721e+00	-2.7362773288e+00
 4.1703246186e-01	 1.1627706063e+00	-2.7721703977e+00
 4.0623559446e-01	 1.1665865587e+00	-2.8058902162e+00
 3.9542680232e-01	 1.1702944933e+00	-2.8373575140e+00
 3.8460761879e-01	 1.1738946020e+00	-2.8664959587e+00
 3.7377956681e-01	 1.1773871039e+00	-2.8933594988e+00
 3.6294415835e-01	 1.1807722452e+00	-2.9203432606e+00
 3.5210289385e-01	 1.1840502984e+00	-2.9481528633e+00
 3.4125726170e-01	 1.1872215625e+00	-2.9764833316e+00
 3.3040873768e-01	 1.1902863618e+00	-3.0050196724e+00
 3.1955878450e-01	 1.1932450462e+00	-3.0334379191e+00
 3.0434169952e-01	 1.1364238535e+00	-3.7044124051e+00
 2.9400842977e-01	 1.1391409431e+00	-3.7602176411e+00
 2.8367654572e-01	 1.1417577074e+00	-3.8141428986e+00
 2.7334740027e-01	 1.1442745491e+00	-3.8661595503e+00
 2.6302233205e-01	 1.1466918932e+00	-3.9162349598e+00
 2.5270266502e-01	 1.1490101862e+00	-3.9643319591e+00
 2.4238970811e-01	 1.1512298964e+00	-4.0104083490e+00
 2.3208475481e-01	 1.1533515126e+00	-4.0544164244e+00
 2.2178908286e-01	 1.1553755440e+00	-4.0963025305e+00
 2.1150395383e-01	 1.1573025199e+00	-4.1360066484e+00
 2.0123061286e-01	 1.1591329887e+00	-4.1734620172e+00
 3.0586340802e-01	 1.1421059728e+00	-3.6374831815e+00
 2.9547847192e-01	 1.1448366478e+00	-3.6908869319e+00
 2.8509492845e-01	 1.1474664959e+00	-3.7423629409e+00
 2.7471413727e-01	 1.1499959219e+00	-3.7918882037e+00
 2.6433744371e-01	 1.1524253526e+00	-3.8394346759e+00
 2.5396617834e-01	 1.1547552372e+00	-3.8849687447e+00
 2.4360165665e-01	 1.1569860459e+00	-3.9284507243e+00
 2.3324517859e-01	 1.1591182701e+00	-3.9698343797e+00
 2.2289802827e-01	 1.1611524217e+00	-4.0090664796e+00
 2.1256147360e-01	 1.1630890325e+00	-4.0460863848e+00
 2.0223676593e-01	 1.1649286536e+00	-4.0808256711e+00
 3.0738511652e-01	 1.1477880921e+00	-3.5698974025e+00
 2.9694851407e-01	 1.1505323525e+00	-3.6204732394e+00
 2.8651331118e-01	 1.1531752845e+00	-3.6690490751e+00
 2.7608087428e-01	 1.1557172946e+00	-3.7156132211e+00
 2.6565255537e-01	 1.1581588121e+00	-3.7601480403e+00
 2.5522969167e-01	 1.1605002881e+00	-3.8026294013e+00
 2.4481360519e-01	 1.1627421954e+00	-3.8430261592e+00
 2.3440560236e-01	 1.1648850277e+00	-3.8812996652e+00
 2.2400697369e-01	 1.1669292995e+00	-3.9174033093e+00
 2.1361899337e-01	 1.1688755451e+00	-3.9512820985e+00
 2.0324291899e-01	 1.1707243186e+00	-3.9828722717e+00
 3.0890682501e-01	 1.1534702114e+00	-3.5015052460e+00
 2.9841855621e-01	 1.1562280572e+00	-3.5488094069e+00
 2.8793169391e-01	 1.1588840730e+00	-3.5940196827e+00
 2.7744761128e-01	 1.1614386673e+00	-3.6371413134e+00
 2.6696766703e-01	 1.1638922716e+00	-3.6781728011e+00
 2.5649320499e-01	 1.1662453390e+00	-3.7171053378e+00
 2.4602555373e-01	 1.1684983449e+00	-3.7539222607e+00
 2.3556602614e-01	 1.1706517853e+00	-3.7885985383e+00
 2.2511591910e-01	 1.1727061772e+00	-3.8211002915e+00
 2.1467651314e-01	 1.1746620577e+00	-3.8513843520e+00
 2.0424907205e-01	 1.1765199835e+00	-3.8793982744e+00
 3.1042853351e-01	 1.1591523306e+00	-3.4321605247e+00
 2.9988859836e-01	 1.1619237619e+00	-3.4757321785e+00
 2.8935007664e-01	 1.1645928615e+00	-3.5170972573e+00
 2.7881434828e-01	 1.1671600401e+00	-3.5562834607e+00
 2.6828277869e-01	 1.1696257310e+00	-3.5933110809e+00
 2.5775671832e-01	 1.1719903900e+00	-3.6281923928e+00
 2.4723750227e-01	 1.1742544943e+00	-3.6609310735e+00
 2.3672644991e-01	 1.1764185428e+00	-3.6915216550e+00
 2.2622486451e-01	 1.1784830549e+00	-3.7206318001e+00
 2.1573403290e-01	 1.1804485703e+00	-3.7488664330e+00
 2.0525522512e-01	 1.1823156484e+00	-3.7760060762e+00
 3.1195024201e-01	 1.1648344499e+00	-3.3617206117e+00
 3.0135864051e-01	 1.1676194667e+00	-3.4010821177e+00
 2.9076845937e-01	 1.1703016501e+00	-3.4381083163e+00
 2.8018108528e-01	 1.1728814128e+00	-3.4728548197e+00
 2.6959789035e-01	 1.1753591905e+00	-3.5053692812e+00
 2.5902023164e-01	 1.1777354409e+00	-3.5359565586e+00
 2.4844945081e-01	 1.1800106438e+00	-3.5659426722e+00
 2.3788687368e-01	 1.1821853004e+00	-3.5953475008e+00
 2.2733380993e-01	 1.1842599326e+00	-3.6239793901e+00
 2.1679155267e-01	 1.1862350829e+00	-3.6516397573e+00
 2.0626137818e-01	 1.1881113134e+00	-3.6781236566e+00
 3.1347195051e-01	 1.1705165692e+00	-3.2900463684e+00
 3.0282868266e-01	 1.1733151714e+00	-3.3247035280e+00
 2.9218684210e-01	 1.1760104386e+00	-3.3568833164e+00
 2.8154782228e-01	 1.1786027856e+00	-3.3874207576e+00
 2.7091300201e-01	 1.1810926499e+00	-3.4176870840e+00
 2.6028374497e-01	 1.1834804918e+00	-3.4475714207e+00
 2.4966139935e-01	 1.1857667933e+00	-3.4769194102e+00
 2.3904729746e-01	 1.1879520580e+00	-3.5055683409e+00
 2.2844275534e-01	 1.1900368103e+00	-3.5333477456e+00
 2.1784907244e-01	 1.1920215955e+00	-3.5600799770e+00
 2.0726753125e-01	 1.1939069783e+00	-3.5855807586e+00
 3.1499365900e-01	 1.1761986884e+00	-3.2170020740e+00
 3.0429872481e-01	 1.1790108761e+00	-3.2474879993e+00
 2.9360522482e-01	 1.1817192272e+00	-3.2777458626e+00
 2.8291455928e-01	 1.1843241583e+00	-3.3076891845e+00
 2.7222811367e-01	 1.1868261094e+00	-3.3372092843e+00
 2.6154725829e-01	 1.1892255428e+00	-3.3661877834e+00
 2.5087334789e-01	 1.1915229428e+00	-3.3944972261e+00
 2.4020772123e-01	 1.1937188155e+00	-3.4220016778e+00
 2.2955170076e-01	 1.1958136881e+00	-3.4485573007e+00
 2.1890659221e-01	 1.1978081081e+00	-3.4740129055e+00
 2.0827368431e-01	 1.1997026433e+00	-3.4982104799e+00
 3.1651536750e-01	 1.1818808077e+00	-3.1471494744e+00
 3.0576876696e-01	 1.1847065808e+00	-3.1771242972e+00
 2.9502360755e-01	 1.1874280157e+00	-3.2066307862e+00
 2.8428129628e-01	 1.1900455311e+00	-3.2356025600e+00
 2.7354322533e-01	 1.1925595689e+00	-3.2639629659e+00
 2.6281077162e-01	 1.1949705937e+00	-3.2916256907e+00
 2.5208529643e-01	 1.1972790923e+00	-3.3184953495e+00
 2.4136814501e-01	 1.1994855731e+00	-3.3444680522e+00
 2.3066064617e-01	 1.2015905658e+00	-3.3694319466e+00
 2.1996411198e-01	 1.2035946207e+00	-3.3932677383e+00
 2.0927983738e-01	 1.2054983082e+00	-3.4158491871e+00
 3.1803707600e-01	 1.1875629270e+00	-3.0860028913e+00
 3.0723880911e-01	 1.1904022855e+00	-3.1150718905e+00
 2.9644199028e-01	 1.1931368042e+00	-3.1434116190e+00
 2.8564803329e-01	 1.1957669038e+00	-3.1709923942e+00
 2.7485833699e-01	 1.1982930283e+00	-3.1977744558e+00
 2.6407428494e-01	 1.2007156446e+00	-3.2237085360e+00
 2.5329724497e-01	 1.2030352417e+00	-3.2487364073e+00
 2.4252856878e-01	 1.2052523306e+00	-3.2727914078e+00
 2.3176959159e-01	 1.2073674435e+00	-3.2957989433e+00
 2.2102163175e-01	 1.2093811333e+00	-3.3176769666e+00
 2.1028599044e-01	 1.2112939732e+00	-3.3383364331e+00
 3.1955878450e-01	 1.1932450462e+00	-3.0334379191e+00
 3.0870885126e-01	 1.1960979902e+00	-3.0611823666e+00
 2.9786037301e-01	 1.1988455928e+00	-3.0879302465e+00
 2.8701477029e-01	 1.2014882766e+00	-3.1136932364e+00
 2.7617344865e-01	 1.2040264878e+00	-3.1384732535e+00
 2.6533779827e-01	 1.2064606955e+00	-3.1622629749e+00
 2.5450919351e-01	 1.2087913912e+00	-3.1850463357e+00
 2.4368899255e-01	 1.2110190882e+00	-3.2067990040e+00
 2.3287853700e-01	 1.2131443212e+00	-3.2274888337e+00
 2.2207915152e-01	 1.2151676459e+00	-3.2470762939e+00
 2.1129214350e-01	 1.2170896381e+00	-3.2655148758e+00
 2.0123061286e-01	 1.1591329887e+00	-4.1734620172e+00
 1.9097028833e-01	 1.1608675178e+00	-4.2085794507e+00
 1.8072419155e-01	 1.1625066931e+00	-4.2413981178e+00
 1.7049351650e-01	 1.1640511182e+00	-4.2720309446e+00
 1.6027943954e-01	 1.1655014141e+00	-4.3005804169e+00
 1.5008311921e-01	 1.1668582186e+00	-4.3271382058e+00
 1.3990569595e-01	 1.1681221859e+00	-4.3517848453e+00
 1.2974829189e-01	 1.1692939860e+00	-4.3745894617e+00
 1.1961201068e-01	 1.1703743042e+00	-4.3956095566e+00
 1.0949793728e-01	 1.1713638404e+00	-4.4148908428e+00
 9.9407137800e-02	 1.1722633091e+00	-4.4324671332e+00
 2.0223676593e-01	 1.1649286536e+00	-4.0808256711e+00
 1.9192513977e-01	 1.1666718554e+00	-4.1132013156e+00
 1.8162781251e-01	 1.1683192266e+00	-4.1432760220e+00
 1.7134598408e-01	 1.1698713738e+00	-4.1711859267e+00
 1.6108083674e-01	 1.1713289212e+00	-4.1970561573e+00
 1.5083353481e-01	 1.1726925097e+00	-4.2210004229e+00
 1.4060522443e-01	 1.1739627968e+00	-4.2431206580e+00
 1.3039703335e-01	 1.1751404559e+00	-4.2635067217e+00
 1.2021007073e-01	 1.1762261757e+00	-4.2822361524e+00
 1.1004542697e-01	 1.1772206597e+00	-4.2994703641e+00
 9.9904173489e-02	 1.1781246257e+00	-4.3154408055e+00
 2.0324291899e-01	 1.1707243186e+00	-3.9828722717e+00
 1.9287999121e-01	 1.1724761930e+00	-4.0121079446e+00
 1.8253143347e-01	 1.1741317601e+00	-4.0390803901e+00
 1.7219845166e-01	 1.1756916294e+00	-4.0639463887e+00
 1.6188223394e-01	 1.1771564282e+00	-4.0869316585e+00
 1.5158395040e-01	 1.1785268008e+00	-4.1086525300e+00
 1.4130475290e-01	 1.1798034078e+00	-4.1292025497e+00
 1.3104577481e-01	 1.1809869259e+00	-4.1485671152e+00
 1.2080813079e-01	 1.1820780472e+00	-4.1667273205e+00
 1.1059291666e-01	 1.1830774789e+00	-4.1836600644e+00
 1.0040120918e-01	 1.1839859422e+00	-4.1993381476e+00
 2.0424907205e-01	 1.1765199835e+00	-3.8793982744e+00
 1.9383484266e-01	 1.1782805306e+00	-3.9056594088e+00
 1.8343505442e-01	 1.1799442935e+00	-3.9306791013e+00
 1.7305091925e-01	 1.1815118850e+00	-3.9544733509e+00
 1.6268363114e-01	 1.1829839353e+00	-3.9770532082e+00
 1.5233436600e-01	 1.1843610919e+00	-3.9984249250e+00
 1.4200428138e-01	 1.1856440187e+00	-4.0185900891e+00
 1.3169451627e-01	 1.1868333958e+00	-4.0375457469e+00
 1.2140619084e-01	 1.1879299187e+00	-4.0552845117e+00
 1.1114040634e-01	 1.1889342981e+00	-4.0717946617e+00
 1.0089824487e-01	 1.1898472588e+00	-4.0870602254e+00
 2.0525522512e-01	 1.1823156484e+00	-3.7760060762e+00
 1.9478969410e-01	 1.1840848682e+00	-3.8018676412e+00
 1.8433867538e-01	 1.1857568270e+00	-3.8264369292e+00
 1.7390338683e-01	 1.1873321406e+00	-3.8497392825e+00
 1.6348502833e-01	 1.1888114424e+00	-3.8717950030e+00
 1.5308478160e-01	 1.1901953830e+00	-3.8926194938e+00
 1.4270380986e-01	 1.1914846296e+00	-3.9122233864e+00
 1.3234325772e-01	 1.1926798657e+00	-3.9306126551e+00
 1.2200425089e-01	 1.1937817903e+00	-3.9477887181e+00
 1.1168789603e-01	 1.1947911173e+00	-3.9637485257e+00
 1.0139528056e-01	 1.1957085753e+00	-3.9784846386e+00
 2.0626137818e-01	 1.1881113134e+00	-3.6781236566e+00
 1.9574454554e-01	 1.1898892058e+00	-3.7032818831e+00
 1.8524229634e-01	 1.1915693605e+00	-3.7271288030e+00
 1.7475585441e-01	 1.1931523962e+00	-3.7496964370e+00
 1.6428642553e-01	 1.1946389494e+00	-3.7710116644e+00
 1.5383519719e-01	 1.1960296741e+00	-3.7910963608e+00
 1.4340333834e-01	 1.1973252406e+00	-3.8099675211e+00
 1.3299199918e-01	 1.1985263357e+00	-3.8276373692e+00
 1.2260231095e-01	 1.1996336618e+00	-3.8441134538e+00
 1.1223538572e-01	 1.2006479365e+00	-3.8593987326e+00
 1.0189231624e-01	 1.2015698919e+00	-3.8734916443e+00
 2.0726753125e-01	 1.1939069783e+00	-3.5855807586e+00
 1.9669939698e-01	 1.1956935434e+00	-3.6097398554e+00
 1.8614591730e-01	 1.1973818939e+00	-3.6325997200e+00
 1.7560832199e-01	 1.1989726518e+00	-3.6541964271e+00
 1.6508782273e-01	 1.2004664565e+00	-3.6745608005e+00
 1.5458561279e-01	 1.2018639652e+00	-3.6937185504e+00
 1.4410286682e-01	 1.2031658515e+00	-3.7116903958e+00
 1.3364074064e-01	 1.2043728056e+00	-3.7284921721e+00
 1.2320037100e-01	 1.2054855333e+00	-3.7441349261e+00
 1.1278287540e-01	 1.2065047557e+00	-3.7586249977e+00
 1.0238935193e-01	 1.2074312084e+00	-3.7719640899e+00
 2.0827368431e-01	 1.1997026433e+00	-3.4982104799e+00
 1.9765424842e-01	 1.2014978810e+00	-3.5210825050e+00
 1.8704953826e-01	 1.2031944274e+00	-3.5426977871e+00
 1.7646078958e-01	 1.2047929074e+00	-3.5630938702e+00
 1.6588921993e-01	 1.2062939636e+00	-3.5823029301e+00
 1.5533602838e-01	 1.2076982562e+00	-3.6003519138e+00
 1.4480239530e-01	 1.2090064624e+00	-3.6172626645e+00
 1.3428948210e-01	 1.2102192755e+00	-3.6330520318e+00
 1.2379843105e-01	 1.2113374048e+00	-3.6477319674e+00
 1.1333036509e-01	 1.2123615749e+00	-3.6613096088e+00
 1.0288638762e-01	 1.2132925250e+00	-3.6737873496e+00
 2.0927983738e-01	 1.2054983082e+00	-3.4158491871e+00
 1.9860909986e-01	 1.2073022185e+00	-3.4371539230e+00
 1.8795315921e-01	 1.2090069609e+00	-3.4572741421e+00
 1.7731325716e-01	 1.2106131629e+00	-3.4762463131e+00
 1.6669061713e-01	 1.2121214707e+00	-3.4941014098e+00
 1.5608644398e-01	 1.2135325473e+00	-3.5108650575e+00
 1.4550192378e-01	 1.2148470734e+00	-3.5265576638e+00
 1.3493822356e-01	 1.2160657455e+00	-3.5411945337e+00
 1.2439649111e-01	 1.2171892763e+00	-3.5547859703e+00
 1.1387785478e-01	 1.2182183941e+00	-3.5673373629e+00
 1.0338342331e-01	 1.2191538415e+00	-3.5788492611e+00
 2.1028599044e-01	 1.2112939732e+00	-3.3383364331e+00
 1.9956395131e-01	 1.2131065561e+00	-3.3578012645e+00
 1.8885678017e-01	 1.2148194943e+00	-3.3761828771e+00
 1.7816572474e-01	 1.2164334185e+00	-3.3935141573e+00
 1.6749201432e-01	 1.2179489777e+00	-3.4098223620e+00
 1.5683685958e-01	 1.2193668384e+00	-3.4251292748e+00
 1.4620145226e-01	 1.2206876843e+00	-3.4394513459e+00
 1.3558696502e-01	 1.2219122154e+00	-3.4527998157e+00
 1.2499455116e-01	 1.2230411479e+00	-3.4651808239e+00
 1.1442534446e-01	 1.2240752133e+00	-3.4765955041e+00
 1.0388045900e-01	 1.2250151580e+00	-3.4870400653e+00
 2.1129214350e-01	 1.2170896381e+00	-3.2655148758e+00
 2.0051880275e-01	 1.2189108937e+00	-3.2828746715e+00
 1.8976040113e-01	 1.2206320278e+00	-3.2992809638e+00
 1.7901819232e-01	 1.2222536741e+00	-3.3147605877e+00
 1.6829341152e-01	 1.2237764848e+00	-3.3293346059e+00
 1.5758727517e-01	 1.2252011295e+00	-3.3430184780e+00
 1.4690098074e-01	 1.2265282952e+00	-3.3558222131e+00
 1.3623570648e-01	 1.2277586853e+00	-3.3677505048e+00
 1.2559261121e-01	 1.2288930194e+00	-3.3788028519e+00
 1.1497283415e-01	 1.2299320325e+00	-3.3889736628e+00
 1.0437749469e-01	 1.2308764746e+00	-3.3982523470e+00
 9.9407137800e-02	 1.1722633091e+00	-4.4324671332e+00
 8.9340659318e-02	 1.1730734383e+00	-4.4481976277e+00
 7.9299529776e-02	 1.1737949691e+00	-4.4619912992e+00
 6.9284757830e-02	 1.1744286557e+00	-4.4739379198e+00
 5.9297332745e-02	 1.1749752641e+00	-4.4841143000e+00
 4.9338224298e-02	 1.1754355723e+00	-4.4925843573e+00
 3.9408382690e-02	 1.1758103692e+00	-4.4993992350e+00
 2.9508738477e-02	 1.1761004546e+00	-4.5045974716e+00
 1.9640202514e-02	 1.1763066384e+00	-4.5082052172e+00
 9.8036659106e-03	 1.1764297400e+00	-4.5102364972e+00
 0.0000000000e+00	 1.1764705882e+00	-4.5106935184e+00
 9.9904173489e-02	 1.1781246257e+00	-4.3154408055e+00
 8.9787362615e-02	 1.1789388055e+00	-4.3299487725e+00
 7.9696027424e-02	 1.1796639440e+00	-4.3428335546e+00
 6.9631181619e-02	 1.1803007990e+00	-4.3541201760e+00
 5.9593819409e-02	 1.1808501404e+00	-4.3638292983e+00
 4.9584915420e-02	 1.1813127502e+00	-4.3719772169e+00
 3.9605424603e-02	 1.1816894211e+00	-4.3785758533e+00
 2.9656282169e-02	 1.1819809569e+00	-4.3836327440e+00
 1.9738403526e-02	 1.1821881715e+00	-4.3871510266e+00
 9.8526842402e-03	 1.1823118887e+00	-4.3891294233e+00
 0.0000000000e+00	 1.1823529412e+00	-4.3895622242e+00
 1.0040120918e-01	 1.1839859422e+00	-4.1993381476e+00
 9.0234065911e-02	 1.1848041727e+00	-4.2135670222e+00
 8.0092525073e-02	 1.1855329188e+00	-4.2261930475e+00
 6.9977605408e-02	 1.1861729423e+00	-4.2372441424e+00
 5.9890306073e-02	 1.1867250168e+00	-4.2467439247e+00
 4.9831606541e-02	 1.1871899280e+00	-4.2547116997e+00
 3.9802466517e-02	 1.1875684729e+00	-4.2611624447e+00
 2.9803825862e-02	 1.1878614592e+00	-4.2661067892e+00
 1.9836604539e-02	 1.1880697047e+00	-4.2695509931e+00
 9.9017025697e-03	 1.1881940374e+00	-4.2714969223e+00
 0.0000000000e+00	 1.1882352941e+00	-4.2719420231e+00
 1.0089824487e-01	 1.1898472588e+00	-4.0870602254e+00
 9.0680769208e-02	 1.1906695398e+00	-4.1008999849e+00
 8.0489022722e-02	 1.1914018937e+00	-4.1131689072e+00
 7.0324029197e-02	 1.1920450855e+00	-4.1238989418e+00
 6.0186792737e-02	 1.1925998931e+00	-4.1331177394e+00
 5.0078297663e-02	 1.1930671059e+00	-4.1408486326e+00
 3.9999508430e-02	 1.1934475248e+00	-4.1471106127e+00
 2.9951369554e-02	 1.1937419614e+00	-4.1519183016e+00
 1.9934805552e-02	 1.1939512379e+00	-4.1552819224e+00
 9.9507208993e-03	 1.1940761861e+00	-4.1572072663e+00
 0.0000000000e+00	 1.1941176471e+00	-4.1576956590e+00
 1.0139528056e-01	 1.1957085753e+00	-3.9784846386e+00
 9.1127472504e-02	 1.1965349070e+00	-3.9918279062e+00
 8.0885520371e-02	 1.1972708685e+00	-4.0036432080e+00
 7.0670452986e-02	 1.1979172288e+00	-4.0139676458e+00
 6.0483279400e-02	 1.1984747694e+00	-4.0228339669e+00
 5.0324988784e-02	 1.1989442837e+00	-4.0302705365e+00
 4.0196550344e-02	 1.1993265766e+00	-4.0363013068e+00
 3.0098913246e-02	 1.1996224637e+00	-4.0409457806e+00
 2.0033006564e-02	 1.1998327711e+00	-4.0442189742e+00
 9.9997392288e-03	 1.1999583348e+00	-4.0461313762e+00
 0.0000000000e+00	 1.2000000000e+00	-4.0466889066e+00
 1.0189231624e-01	 1.2015698919e+00	-3.8734916443e+00
 9.1574175801e-02	 1.2024002742e+00	-3.8862336500e+00
 8.1282018020e-02	 1.2031398434e+00	-3.8975006173e+00
 7.1016876775e-02	 1.2037893721e+00	-3.9073359092e+00
 6.0779766064e-02	 1.2043496457e+00	-3.9157784207e+00
 5.0571679906e-02	 1.2048214616e+00	-3.9228625428e+00
 4.0393592257e-02	 1.2052056284e+00	-3.9286181238e+00
 3.0246456939e-02	 1.2055029660e+00	-3.9330704254e+00
 2.0131207577e-02	 1.2057143043e+00	-3.9362400770e+00
 1.0048757558e-02	 1.2058404835e+00	-3.9381430278e+00
 0.0000000000e+00	 1.2058823529e+00	-3.9387904977e+00
 1.0238935193e-01	 1.2074312084e+00	-3.7719640899e+00
 9.2020879097e-02	 1.2082656414e+00	-3.7840026324e+00
 8.1678515669e-02	 1.2090088182e+00	-3.7946283313e+00
 7.1363300564e-02	 1.2096615154e+00	-3.8038919068e+00
 6.1076252728e-02	 1.2102245221e+00	-3.8118394398e+00
 5.0818371027e-02	 1.2106986395e+00	-3.8185123289e+00
 4.0590634171e-02	 1.2110846803e+00	-3.8239472428e+00
 3.0394000631e-02	 1.2113834682e+00	-3.8281760693e+00
 2.0229408589e-02	 1.2115958375e+00	-3.8312258614e+00
 1.0097775888e-02	 1.2117226322e+00	-3.8331187823e+00
 0.0000000000e+00	 1.2117647059e+00	-3.8338720487e+00
 1.0288638762e-01	 1.2132925250e+00	-3.6737873496e+00
 9.2467582394e-02	 1.2141310086e+00	-3.6850227591e+00
 8.2075013318e-02	 1.2148777931e+00	-3.6949160128e+00
 7.1709724354e-02	 1.2155336586e+00	-3.7035262708e+00
 6.1372739392e-02	 1.2160993984e+00	-3.7109078267e+00
 5.1065062149e-02	 1.2165758173e+00	-3.7171100563e+00
 4.0787676084e-02	 1.2169637321e+00	-3.7221773624e+00
 3.0541544323e-02	 1.2172639705e+00	-3.7261491157e+00
 2.0327609602e-02	 1.2174773707e+00	-3.7290595939e+00
 1.0146794217e-02	 1.2176047809e+00	-3.7309379185e+00
 0.0000000000e+00	 1.2176470588e+00	-3.7318079919e+00
 1.0338342331e-01	 1.2191538415e+00	-3.5788492611e+00
 9.2914285691e-02	 1.2199963758e+00	-3.5891843637e+00
 8.2471510967e-02	 1.2207467679e+00	-3.5982557302e+00
 7.2056148143e-02	 1.2214058019e+00	-3.6061320309e+00
 6.1669226055e-02	 1.2219742747e+00	-3.6128767868e+00
 5.1311753270e-02	 1.2224529952e+00	-3.6185483097e+00
 4.0984717998e-02	 1.2228427840e+00	-3.6231996391e+00
 3.0689088016e-02	 1.2231444728e+00	-3.6268784760e+00
 2.0425810614e-02	 1.2233589039e+00	-3.6296271135e+00
 1.0195812547e-02	 1.2234869296e+00	-3.6314823677e+00
 0.0000000000e+00	 1.2235294118e+00	-3.6324755070e+00
 1.0388045900e-01	 1.2250151580e+00	-3.4870400653e+00
 9.3360988987e-02	 1.2258617430e+00	-3.4963801481e+00
 8.2868008615e-02	 1.2266157427e+00	-3.5045418987e+00
 7.2402571932e-02	 1.2272779452e+00	-3.5116045559e+00
 6.1965712719e-02	 1.2278491510e+00	-3.5176418706e+00
 5.1558444392e-02	 1.2283301730e+00	-3.5227220386e+00
 4.1181759911e-02	 1.2287218358e+00	-3.5269076286e+00
 3.0836631708e-02	 1.2290249751e+00	-3.5302555088e+00
 2.0524011627e-02	 1.2292404371e+00	-3.5328167701e+00
 1.0244830877e-02	 1.2293690783e+00	-3.5346366501e+00
 0.0000000000e+00	 1.2294117647e+00	-3.5357544558e+00
 1.0437749469e-01	 1.2308764746e+00	-3.3982523470e+00
 9.3807692284e-02	 1.2317271102e+00	-3.4065051246e+00
 8.3264506264e-02	 1.2324847176e+00	-3.4136712232e+00
 7.2748995721e-02	 1.2331500885e+00	-3.4198414963e+00
 6.2262199383e-02	 1.2337240273e+00	-3.4251009166e+00
 5.1805135513e-02	 1.2342073509e+00	-3.4295285002e+00
 4.1378801824e-02	 1.2346008877e+00	-3.4331972276e+00
 3.0984175401e-02	 1.2349054773e+00	-3.4361739615e+00
 2.0622212639e-02	 1.2351219703e+00	-3.4385193641e+00
 1.0293849206e-02	 1.2352512270e+00	-3.4402878129e+00
 0.0000000000e+00	 1.2352941176e+00	-3.4415273182e+00
 1.2352941176e+00	 0.0000000000e+00	 3.3834569086e+00
 1.2352512270e+00	 1.0293849206e-02	 3.3817747636e+00
 1.2351219703e+00	 2.0622212639e-02	 3.3793719080e+00
 1.2349054773e+00	 3.0984175401e-02	 3.3762024062e+00
 1.2346008877e+00	 4.1378801824e-02	 3.3721958885e+00
 1.2342073509e+00	 5.1805135513e-02	 3.3672585170e+00
 1.2337240273e+00	 6.2262199383e-02	 3.3612739760e+00
 1.2331500885e+00	 7.2748995721e-02	 3.3541044856e+00
 1.2324847176e+00	 8.3264506264e-02	 3.3455918361e+00
 1.2317271102e+00	 9.3807692284e-02	 3.3355584423e+00
 1.2308764746e+00	 1.0437749469e-01	 3.3238084160e+00
 1.2411764706e+00	 0.0000000000e+00	 3.4105416201e+00
 1.2411333757e+00	 1.0342867536e-02	 3.4087064139e+00
 1.2410035035e+00	 2.0720413652e-02	 3.4061854551e+00
 1.2407859796e+00	 3.1131719093e-02	 3.4029196607e+00
 1.2404799395e+00	 4.1575843738e-02	 3.3988257243e+00
 1.2400845288e+00	 5.2051826635e-02	 3.3937971124e+00
 1.2395989037e+00	 6.2558686046e-02	 3.3877050849e+00
 1.2390222318e+00	 7.3095419510e-02	 3.3803997378e+00
 1.2383536924e+00	 8.3661003913e-02	 3.3717110663e+00
 1.2375924774e+00	 9.4254395580e-02	 3.3614500473e+00
 1.2367377911e+00	 1.0487453038e-01	 3.3494097392e+00
 1.2470588235e+00	 0.0000000000e+00	 3.4365267381e+00
 1.2470155244e+00	 1.0391885865e-02	 3.4345606570e+00
 1.2468850367e+00	 2.0818614665e-02	 3.4319291831e+00
 1.2466664819e+00	 3.1279262785e-02	 3.4285623436e+00
 1.2463589914e+00	 4.1772885651e-02	 3.4243662095e+00
 1.2459617066e+00	 5.2298517756e-02	 3.4192239210e+00
 1.2454737800e+00	 6.2855172710e-02	 3.4129967351e+00
 1.2448943750e+00	 7.3441843299e-02	 3.4055250959e+00
 1.2442226673e+00	 8.4057501562e-02	 3.3966297237e+00
 1.2434578446e+00	 9.4701098877e-02	 3.3861127237e+00
 1.2425991077e+00	 1.0537156607e-01	 3.3737587106e+00
 1.2529411765e+00	 0.0000000000e+00	 3.4613532989e+00
 1.2528976731e+00	 1.0440904195e-02	 3.4592798853e+00
 1.2527665698e+00	 2.0916815677e-02	 3.4565468792e+00
 1.2525469842e+00	 3.1426806478e-02	 3.4530756425e+00
 1.2522380432e+00	 4.1969927565e-02	 3.4487639050e+00
 1.2518388845e+00	 5.2545208878e-02	 3.4434868157e+00
 1.2513486563e+00	 6.3151659374e-02	 3.4370980164e+00
 1.2507665183e+00	 7.3788267089e-02	 3.4294307369e+00
 1.2500916421e+00	 8.4453999211e-02	 3.4202989090e+00
 1.2493232118e+00	 9.5147802174e-02	 3.4094982974e+00
 1.2484604242e+00	 1.0586860176e-01	 3.3968076480e+00
 1.2588235294e+00	 0.0000000000e+00	 3.4849632567e+00
 1.2587798218e+00	 1.0489922524e-02	 3.4828073779e+00
 1.2586481030e+00	 2.1015016690e-02	 3.4799831822e+00
 1.2584274864e+00	 3.1574350170e-02	 3.4764055590e+00
 1.2581170951e+00	 4.2166969478e-02	 3.4719661446e+00
 1.2577160624e+00	 5.2791899999e-02	 3.4665343993e+00
 1.2572235326e+00	 6.3448146038e-02	 3.4599587041e+00
 1.2566386616e+00	 7.4134690878e-02	 3.4520674795e+00
 1.2559606170e+00	 8.4850496860e-02	 3.4426703204e+00
 1.2551885789e+00	 9.5594505470e-02	 3.4315591492e+00
 1.2543217408e+00	 1.0636563745e-01	 3.4185093829e+00
 1.2647058824e+00	 0.0000000000e+00	 3.5072994620e+00
 1.2646619705e+00	 1.0538940854e-02	 3.5050872799e+00
 1.2645296362e+00	 2.1113217702e-02	 3.5021835629e+00
 1.2643079887e+00	 3.1721893862e-02	 3.4984988881e+00
 1.2639961469e+00	 4.2364011392e-02	 3.4939210152e+00
 1.2635932402e+00	 5.3038591121e-02	 3.4883159854e+00
 1.2630984089e+00	 6.3744632701e-02	 3.4815292415e+00
 1.2625108049e+00	 7.4481114667e-02	 3.4733867661e+00
 1.2618295918e+00	 8.5246994509e-02	 3.4636962369e+00
 1.2610539461e+00	 9.6041208767e-02	 3.4522481983e+00
 1.2601830573e+00	 1.0686267313e-01	 3.4388172458e+00
 1.2705882353e+00	 0.0000000000e+00	 3.5283056410e+00
 1.2705441192e+00	 1.0587959183e-02	 3.5260645820e+00
 1.2704111694e+00	 2.1211418715e-02	 3.5230943033e+00
 1.2701884910e+00	 3.1869437555e-02	 3.5193031993e+00
 1.2698751988e+00	 4.2561053305e-02	 3.5145773379e+00
 1.2694704181e+00	 5.3285282242e-02	 3.5087815806e+00
 1.2689732853e+00	 6.4041119365e-02	 3.5017607219e+00
 1.2683829481e+00	 7.4827538456e-02	 3.4933406465e+00
 1.2676985667e+00	 8.5643492158e-02	 3.4833295024e+00
 1.2669193133e+00	 9.6487912063e-02	 3.4715188878e+00
 1.2660443739e+00	 1.0735970882e-01	 3.4576850511e+00
 1.2764705882e+00	 0.0000000000e+00	 3.5479263755e+00
 1.2764262679e+00	 1.0636977513e-02	 3.5456851006e+00
 1.2762927026e+00	 2.1309619727e-02	 3.5426624774e+00
 1.2760689933e+00	 3.2016981247e-02	 3.5387668170e+00
 1.2757542506e+00	 4.2758095219e-02	 3.5338846502e+00
 1.2753475959e+00	 5.3531973364e-02	 3.5278818665e+00
 1.2748481616e+00	 6.4337606029e-02	 3.5206048717e+00
 1.2742550914e+00	 7.5173962245e-02	 3.5118817616e+00
 1.2735675415e+00	 8.6039989806e-02	 3.5015235099e+00
 1.2727846805e+00	 9.6934615360e-02	 3.4893251693e+00
 1.2719056904e+00	 1.0785674451e-01	 3.4750670837e+00
 1.2823529412e+00	 0.0000000000e+00	 3.5661070831e+00
 1.2823084166e+00	 1.0685995843e-02	 3.5638954585e+00
 1.2821742358e+00	 2.1407820740e-02	 3.5608359325e+00
 1.2819494955e+00	 3.2164524940e-02	 3.5568388027e+00
 1.2816333024e+00	 4.2955137132e-02	 3.5517931876e+00
 1.2812247738e+00	 5.3778664485e-02	 3.5455681827e+00
 1.2807230379e+00	 6.4634092693e-02	 3.5380140343e+00
 1.2801272347e+00	 7.5520386034e-02	 3.5289633274e+00
 1.2794365164e+00	 8.6436487455e-02	 3.5182321867e+00
 1.2786500477e+00	 9.7381318657e-02	 3.5056214889e+00
 1.2777670070e+00	 1.0835378020e-01	 3.4909180851e+00
 1.2882352941e+00	 0.0000000000e+00	 3.5827939980e+00
 1.2881905653e+00	 1.0735014172e-02	 3.5806430660e+00
 1.2880557690e+00	 2.1506021753e-02	 3.5775632707e+00
 1.2878299978e+00	 3.2312068632e-02	 3.5734689370e+00
 1.2875123543e+00	 4.3152179046e-02	 3.5682538666e+00
 1.2871019517e+00	 5.4025355607e-02	 3.5617925100e+00
 1.2865979142e+00	 6.4930579356e-02	 3.5539411535e+00
 1.2859993780e+00	 7.5866809823e-02	 3.5445391198e+00
 1.2853054912e+00	 8.6832985104e-02	 3.5334099796e+00
 1.2845154149e+00	 9.7828021953e-02	 3.5203627733e+00
 1.2836283235e+00	 1.0885081589e-01	 3.5051932398e+00
 1.2941176471e+00	 0.0000000000e+00	 3.5979341531e+00
 1.2940727140e+00	 1.0784032502e-02	 3.5958761030e+00
 1.2939373022e+00	 2.1604222765e-02	 3.5927938309e+00
 1.2937105001e+00	 3.2459612324e-02	 3.5886077018e+00
 1.2933914061e+00	 4.3349220959e-02	 3.5832182679e+00
 1.2929791295e+00	 5.4272046728e-02	 3.5765074542e+00
 1.2924727905e+00	 6.5227066020e-02	 3.5683397581e+00
 1.2918715213e+00	 7.6213233613e-02	 3.5585634594e+00
 1.2911744660e+00	 8.7229482753e-02	 3.5470118408e+00
 1.2903807821e+00	 9.8274725250e-02	 3.5335044158e+00
 1.2894896400e+00	 1.0934785158e-01	 3.5178481632e+00
 1.2308764746e+00	 1.0437749469e-01	 3.3238084160e+00
 1.2299320325e+00	 1.1497283415e-01	 3.3103481996e+00
 1.2288930194e+00	 1.2559261121e-01	 3.2954069487e+00
 1.2277586853e+00	 1.3623570648e-01	 3.2791016491e+00
 1.2265282952e+00	 1.4690098074e-01	 3.2615390825e+00
 1.2252011295e+00	 1.5758727517e-01	 3.2428166042e+00
 1.2237764848e+00	 1.6829341152e-01	 3.2230229155e+00
 1.2222536741e+00	 1.7901819232e-01	 3.2022388307e+00
 1.2206320278e+00	 1.8976040113e-01	 3.1805380368e+00
 1.2189108937e+00	 2.0051880275e-01	 3.1579878461e+00
 1.2170896381e+00	 2.1129214350e-01	 3.1346499385e+00
 1.2367377911e+00	 1.0487453038e-01	 3.3494097392e+00
 1.2357888517e+00	 1.1552032383e-01	 3.3355891424e+00
 1.2347448909e+00	 1.2619067127e-01	 3.3202235359e+00
 1.2336051552e+00	 1.3688444794e-01	 3.3034399561e+00
 1.2323689061e+00	 1.4760050922e-01	 3.2853558382e+00
 1.2310354206e+00	 1.5833769077e-01	 3.2660797924e+00
 1.2296039919e+00	 1.6909480872e-01	 3.2457123735e+00
 1.2280739297e+00	 1.7987065991e-01	 3.2243468447e+00
 1.2264445613e+00	 1.9066402209e-01	 3.2020699323e+00
 1.2247152313e+00	 2.0147365419e-01	 3.1789625711e+00
 1.2228853031e+00	 2.1229829657e-01	 3.1551006393e+00
 1.2425991077e+00	 1.0537156607e-01	 3.3737587106e+00
 1.2416456709e+00	 1.1606781352e-01	 3.3595603850e+00
 1.2405967624e+00	 1.2678873132e-01	 3.3437569953e+00
 1.2394516252e+00	 1.3753318940e-01	 3.3264833245e+00
 1.2382095171e+00	 1.4830003770e-01	 3.3078651568e+00
 1.2368697117e+00	 1.5908810636e-01	 3.2880200550e+00
 1.2354314989e+00	 1.6989620592e-01	 3.2670581304e+00
 1.2338941853e+00	 1.8072312749e-01	 3.2450828053e+00
 1.2322570947e+00	 1.9156764304e-01	 3.2221915651e+00
 1.2305195689e+00	 2.0242850563e-01	 3.1984767001e+00
 1.2286809680e+00	 2.1330444963e-01	 3.1740260346e+00
 1.2484604242e+00	 1.0586860176e-01	 3.3968076480e+00
 1.2475024901e+00	 1.1661530321e-01	 3.3822146368e+00
 1.2464486340e+00	 1.2738679137e-01	 3.3659605092e+00
 1.2452980951e+00	 1.3818193086e-01	 3.3481855264e+00
 1.2440501280e+00	 1.4899956618e-01	 3.3290215533e+00
 1.2427040028e+00	 1.5983852196e-01	 3.3085928398e+00
 1.2412590060e+00	 1.7069760311e-01	 3.2870167933e+00
 1.2397144409e+00	 1.8157559507e-01	 3.2644047424e+00
 1.2380696282e+00	 1.9247126400e-01	 3.2408626886e+00
 1.2363239065e+00	 2.0338335707e-01	 3.2164920471e+00
 1.2344766329e+00	 2.1431060270e-01	 3.1913903737e+00
 1.2543217408e+00	 1.0636563745e-01	 3.4185093829e+00
 1.2533593093e+00	 1.1716279289e-01	 3.4035050801e+00
 1.2523005055e+00	 1.2798485143e-01	 3.3867876879e+00
 1.2511445650e+00	 1.3883067232e-01	 3.3685007127e+00
 1.2498907389e+00	 1.4969909466e-01	 3.3487798680e+00
 1.2485382939e+00	 1.6058893756e-01	 3.3277538612e+00
 1.2470865131e+00	 1.7149900031e-01	 3.3055451716e+00
 1.2455346965e+00	 1.8242806265e-01	 3.2822708171e+00
 1.2438821616e+00	 1.9337488496e-01	 3.2580431091e+00
 1.2421282441e+00	 2.0433820851e-01	 3.2329703938e+00
 1.2402722979e+00	 2.1531675576e-01	 3.2071577801e+00
 1.2601830573e+00	 1.0686267313e-01	 3.4388172458e+00
 1.2592161285e+00	 1.1771028258e-01	 3.4233853556e+00
 1.2581523770e+00	 1.2858291148e-01	 3.4061925561e+00
 1.2569910350e+00	 1.3947941378e-01	 3.3873834012e+00
 1.2557313499e+00	 1.5039862314e-01	 3.3670952557e+00
 1.2543725850e+00	 1.6133935315e-01	 3.3454590906e+00
 1.2529140201e+00	 1.7230039751e-01	 3.3226002683e+00
 1.2513549521e+00	 1.8328053024e-01	 3.2986393153e+00
 1.2496946951e+00	 1.9427850592e-01	 3.2736926820e+00
 1.2479325817e+00	 2.0529305996e-01	 3.2478734881e+00
 1.2460679628e+00	 2.1632290883e-01	 3.2212922525e+00
 1.2660443739e+00	 1.0735970882e-01	 3.4576850511e+00
 1.2650729477e+00	 1.1825777227e-01	 3.4418095488e+00
 1.2640042485e+00	 1.2918097153e-01	 3.4241295406e+00
 1.2628375049e+00	 1.4012815524e-01	 3.4047884648e+00
 1.2615719608e+00	 1.5109815162e-01	 3.3839231752e+00
 1.2602068761e+00	 1.6208976875e-01	 3.3616647473e+00
 1.2587415272e+00	 1.7310179471e-01	 3.3381392730e+00
 1.2571752077e+00	 1.8413299782e-01	 3.3134686418e+00
 1.2555072286e+00	 1.9518212688e-01	 3.2877713077e+00
 1.2537369193e+00	 2.0624791140e-01	 3.2611630412e+00
 1.2518636278e+00	 2.1732906189e-01	 3.2337576645e+00
 1.2719056904e+00	 1.0785674451e-01	 3.4750670837e+00
 1.2709297669e+00	 1.1880526195e-01	 3.4587321764e+00
 1.2698561200e+00	 1.2977903159e-01	 3.4405534574e+00
 1.2686839748e+00	 1.4077689670e-01	 3.4206711200e+00
 1.2674125717e+00	 1.5179768010e-01	 3.3992193788e+00
 1.2660411672e+00	 1.6284018435e-01	 3.3763272895e+00
 1.2645690343e+00	 1.7390319190e-01	 3.3521195542e+00
 1.2629954633e+00	 1.8498546540e-01	 3.3267173144e+00
 1.2613197620e+00	 1.9608574783e-01	 3.3002389275e+00
 1.2595412568e+00	 2.0720276284e-01	 3.2728007270e+00
 1.2576592927e+00	 2.1833521495e-01	 3.2445177658e+00
 1.2777670070e+00	 1.0835378020e-01	 3.4909180851e+00
 1.2767865861e+00	 1.1935275164e-01	 3.4741081738e+00
 1.2757079916e+00	 1.3037709164e-01	 3.4554194998e+00
 1.2745304448e+00	 1.4142563816e-01	 3.4349869157e+00
 1.2732531826e+00	 1.5249720858e-01	 3.4129399027e+00
 1.2718754583e+00	 1.6359059994e-01	 3.3894034054e+00
 1.2703965414e+00	 1.7470458910e-01	 3.3644986518e+00
 1.2688157189e+00	 1.8583793298e-01	 3.3383439587e+00
 1.2671322955e+00	 1.9698936879e-01	 3.3110555201e+00
 1.2653455944e+00	 2.0815761428e-01	 3.2827481794e+00
 1.2634549577e+00	 2.1934136802e-01	 3.2535361826e+00
 1.2836283235e+00	 1.0885081589e-01	 3.5051932398e+00
 1.2826434053e+00	 1.1990024133e-01	 3.4878928824e+00
 1.2815598631e+00	 1.3097515169e-01	 3.4686832271e+00
 1.2803769147e+00	 1.4207437962e-01	 3.4476917229e+00
 1.2790937936e+00	 1.5319673706e-01	 3.4250410569e+00
 1.2777097494e+00	 1.6434101554e-01	 3.4008500055e+00
 1.2762240484e+00	 1.7550598630e-01	 3.3752342710e+00
 1.2746359744e+00	 1.8669040057e-01	 3.3483073023e+00
 1.2729448290e+00	 1.9789298975e-01	 3.3201810981e+00
 1.2711499320e+00	 2.0911246572e-01	 3.2909669919e+00
 1.2692506226e+00	 2.2034752108e-01	 3.2607764183e+00
 1.2894896400e+00	 1.0934785158e-01	 3.5178481632e+00
 1.2885002245e+00	 1.2044773101e-01	 3.5000420375e+00
 1.2874117346e+00	 1.3157321175e-01	 3.4803005527e+00
 1.2862233846e+00	 1.4272312108e-01	 3.4587417243e+00
 1.2849344045e+00	 1.5389626554e-01	 3.4354794168e+00
 1.2835440405e+00	 1.6509143113e-01	 3.4106242141e+00
 1.2820515555e+00	 1.7630738350e-01	 3.3842842749e+00
 1.2804562300e+00	 1.8754286815e-01	 3.3565661706e+00
 1.2787573624e+00	 1.9879661071e-01	 3.3275757049e+00
 1.2769542696e+00	 2.1006731716e-01	 3.2974187155e+00
 1.2750462875e+00	 2.2135367415e-01	 3.2662018548e+00
 1.2170896381e+00	 2.1129214350e-01	 3.1346499385e+00
 1.2151676459e+00	 2.2207915152e-01	 3.1102721604e+00
 1.2131443212e+00	 2.3287853700e-01	 3.0845865328e+00
 1.2110190882e+00	 2.4368899255e-01	 3.0576213210e+00
 1.2087913912e+00	 2.5450919351e-01	 3.0293974349e+00
 1.2064606955e+00	 2.6533779827e-01	 2.9999290452e+00
 1.2040264878e+00	 2.7617344865e-01	 2.9692241889e+00
 1.2014882766e+00	 2.8701477029e-01	 2.9372853609e+00
 1.1988455928e+00	 2.9786037301e-01	 2.9041100921e+00
 1.1960979902e+00	 3.0870885126e-01	 2.8696915125e+00
 1.1932450462e+00	 3.1955878450e-01	 2.8340188966e+00
 1.2228853031e+00	 2.1229829657e-01	 3.1551006393e+00
 1.2209541585e+00	 2.2313667129e-01	 3.1302070096e+00
 1.2189211989e+00	 2.3398748241e-01	 3.1039560994e+00
 1.2167858458e+00	 2.4484941633e-01	 3.0763423690e+00
 1.2145475407e+00	 2.5572114205e-01	 3.0473536541e+00
 1.2122057465e+00	 2.6660131159e-01	 3.0169718379e+00
 1.2097599473e+00	 2.7748856031e-01	 2.9851735116e+00
 1.2072096493e+00	 2.8838150729e-01	 2.9519306226e+00
 1.2045543813e+00	 2.9927875574e-01	 2.9172111081e+00
 1.2017936950e+00	 3.1017889340e-01	 2.8809795137e+00
 1.1989271655e+00	 3.2108049299e-01	 2.8431975961e+00
 1.2286809680e+00	 2.1330444963e-01	 3.1740260346e+00
 1.2267406711e+00	 2.2419419106e-01	 3.1485412202e+00
 1.2246980767e+00	 2.3509642783e-01	 3.1216496527e+00
 1.2225526033e+00	 2.4600984010e-01	 3.0933200008e+00
 1.2203036902e+00	 2.5693309059e-01	 3.0635150405e+00
 1.2179507974e+00	 2.6786482492e-01	 3.0321923731e+00
 1.2154934067e+00	 2.7880367197e-01	 2.9993051302e+00
 1.2129310221e+00	 2.8974824429e-01	 2.9648026669e+00
 1.2102631698e+00	 3.0069713847e-01	 2.9286312401e+00
 1.2074893997e+00	 3.1164893555e-01	 2.8907346725e+00
 1.2046092848e+00	 3.2260220149e-01	 2.8510549988e+00
 1.2344766329e+00	 2.1431060270e-01	 3.1913903737e+00
 1.2325271837e+00	 2.2525171083e-01	 3.1652410040e+00
 1.2304749544e+00	 2.3620537324e-01	 3.1376339489e+00
 1.2283193609e+00	 2.4717026388e-01	 3.1085199865e+00
 1.2260598397e+00	 2.5814503913e-01	 3.0778447361e+00
 1.2236958483e+00	 2.6912833824e-01	 3.0455494105e+00
 1.2212268662e+00	 2.8011878363e-01	 3.0115715554e+00
 1.2186523948e+00	 2.9111498129e-01	 2.9758457768e+00
 1.2159719584e+00	 3.0211552120e-01	 2.9383044532e+00
 1.2131851044e+00	 3.1311897770e-01	 2.8988784329e+00
 1.2102914040e+00	 3.2412390999e-01	 2.8574977142e+00
 1.2402722979e+00	 2.1531675576e-01	 3.2071577801e+00
 1.2383136963e+00	 2.2630923060e-01	 3.1802723621e+00
 1.2362518321e+00	 2.3731431866e-01	 3.1518754734e+00
 1.2340861185e+00	 2.4833068765e-01	 3.1219077935e+00
 1.2318159892e+00	 2.5935698767e-01	 3.0903055779e+00
 1.2294408993e+00	 2.7039185157e-01	 3.0570014345e+00
 1.2269603257e+00	 2.8143389529e-01	 3.0219250871e+00
 1.2243737676e+00	 2.9248171829e-01	 2.9850041257e+00
 1.2216807469e+00	 3.0353390393e-01	 2.9461647421e+00
 1.2188808091e+00	 3.1458901985e-01	 2.9053324496e+00
 1.2159735233e+00	 3.2564561849e-01	 2.8624327852e+00
 1.2460679628e+00	 2.1632290883e-01	 3.2212922525e+00
 1.2441002089e+00	 2.2736675036e-01	 3.1936010870e+00
 1.2420287098e+00	 2.3842326407e-01	 3.1643404449e+00
 1.2398528760e+00	 2.4949111142e-01	 3.1334485915e+00
 1.2375721386e+00	 2.6056893621e-01	 3.1008601038e+00
 1.2351859502e+00	 2.7165536489e-01	 3.0665066606e+00
 1.2326937851e+00	 2.8274900695e-01	 3.0303178197e+00
 1.2300951403e+00	 2.9384845529e-01	 2.9922217806e+00
 1.2273895354e+00	 3.0495228665e-01	 2.9521461323e+00
 1.2245765138e+00	 3.1605906200e-01	 2.9100185846e+00
 1.2216556426e+00	 3.2716732698e-01	 2.8657676816e+00
 1.2518636278e+00	 2.1732906189e-01	 3.2337576645e+00
 1.2498867215e+00	 2.2842427013e-01	 3.2051927654e+00
 1.2478055875e+00	 2.3953220949e-01	 3.1749948200e+00
 1.2456196336e+00	 2.5065153520e-01	 3.1431072583e+00
 1.2433282881e+00	 2.6178088475e-01	 3.1094705587e+00
 1.2409310011e+00	 2.7291887822e-01	 3.0740230411e+00
 1.2384272446e+00	 2.8406411861e-01	 3.0367016474e+00
 1.2358165130e+00	 2.9521519230e-01	 2.9974427060e+00
 1.2330983240e+00	 3.0637066938e-01	 2.9561826813e+00
 1.2302722185e+00	 3.1752910415e-01	 2.9128589058e+00
 1.2273377618e+00	 3.2868903548e-01	 2.8674102933e+00
 1.2576592927e+00	 2.1833521495e-01	 3.2445177658e+00
 1.2556732341e+00	 2.2948178990e-01	 3.2150127812e+00
 1.2535824653e+00	 2.4064115490e-01	 3.1838042976e+00
 1.2513863911e+00	 2.5181195897e-01	 3.1508483857e+00
 1.2490844376e+00	 2.6299283329e-01	 3.1160989011e+00
 1.2466760521e+00	 2.7418239154e-01	 3.0795082715e+00
 1.2441607041e+00	 2.8537923027e-01	 3.0410282691e+00
 1.2415378858e+00	 2.9658192930e-01	 3.0006107672e+00
 1.2388071125e+00	 3.0778905211e-01	 2.9582084802e+00
 1.2359679232e+00	 3.1899914630e-01	 2.9137756851e+00
 1.2330198811e+00	 3.3021074398e-01	 2.8672689248e+00
 1.2634549577e+00	 2.1934136802e-01	 3.2535361826e+00
 1.2614597467e+00	 2.3053930967e-01	 3.2230263182e+00
 1.2593593430e+00	 2.4175010031e-01	 3.1907343238e+00
 1.2571531487e+00	 2.5297238275e-01	 3.1566362848e+00
 1.2548405871e+00	 2.6420478183e-01	 3.1207068090e+00
 1.2524211030e+00	 2.7544590487e-01	 3.0829197964e+00
 1.2498941635e+00	 2.8669434193e-01	 3.0432491944e+00
 1.2472592585e+00	 2.9794866630e-01	 3.0016697350e+00
 1.2445159011e+00	 3.0920743484e-01	 2.9581576548e+00
 1.2416636280e+00	 3.2046918845e-01	 2.9126913967e+00
 1.2387020004e+00	 3.3173245248e-01	 2.8652522901e+00
 1.2692506226e+00	 2.2034752108e-01	 3.2607764183e+00
 1.2672462593e+00	 2.3159682944e-01	 3.2291983631e+00
 1.2651362207e+00	 2.4285904573e-01	 3.1957500958e+00
 1.2629199063e+00	 2.5413280652e-01	 3.1604349919e+00
 1.2605967366e+00	 2.6541673038e-01	 3.1232556861e+00
 1.2581661539e+00	 2.7670941819e-01	 3.0842148161e+00
 1.2556276230e+00	 2.8800945359e-01	 3.0433157488e+00
 1.2529806313e+00	 2.9931540330e-01	 3.0005632890e+00
 1.2502246896e+00	 3.1062581757e-01	 2.9559643686e+00
 1.2473593327e+00	 3.2193923060e-01	 2.9095287168e+00
 1.2443841196e+00	 3.3325416097e-01	 2.8612695078e+00
 1.2750462875e+00	 2.2135367415e-01	 3.2662018548e+00
 1.2730327719e+00	 2.3265434921e-01	 3.2334937086e+00
 1.2709130984e+00	 2.4396799114e-01	 3.1988165674e+00
 1.2686866638e+00	 2.5529323030e-01	 3.1622082744e+00
 1.2663528861e+00	 2.6662867892e-01	 3.1237066687e+00
 1.2639112049e+00	 2.7797293152e-01	 3.0833502926e+00
 1.2613610825e+00	 2.8932456525e-01	 3.0411790794e+00
 1.2587020040e+00	 3.0068214030e-01	 2.9972350226e+00
 1.2559334781e+00	 3.1204420030e-01	 2.9515628242e+00
 1.2530550374e+00	 3.2340927274e-01	 2.9042105224e+00
 1.2500662389e+00	 3.3477586947e-01	 2.8552300968e+00
 1.1932450462e+00	 3.1955878450e-01	 2.8340188966e+00
 1.1902863618e+00	 3.3040873768e-01	 2.7974264002e+00
 1.1872215625e+00	 3.4125726170e-01	 2.7605017510e+00
 1.1840502984e+00	 3.5210289385e-01	 2.7236082471e+00
 1.1807722452e+00	 3.6294415835e-01	 2.6871040968e+00
 1.1773871039e+00	 3.7377956681e-01	 2.6513423042e+00
 1.1738946020e+00	 3.8460761879e-01	 2.6157464427e+00
 1.1702944933e+00	 3.9542680232e-01	 2.5782224618e+00
 1.1665865587e+00	 4.0623559446e-01	 2.5388907366e+00
 1.1627706063e+00	 4.1703246186e-01	 2.4980092018e+00
 1.1588464721e+00	 4.2781586137e-01	 2.4558547658e+00
 1.1989271655e+00	 3.2108049299e-01	 2.8431975961e+00
 1.1959543921e+00	 3.3198211262e-01	 2.8041342746e+00
 1.1928749985e+00	 3.4288229628e-01	 2.7643334423e+00
 1.1896886332e+00	 3.5377957430e-01	 2.7241643042e+00
 1.1863949702e+00	 3.6467246387e-01	 2.6839916318e+00
 1.1829937092e+00	 3.7555946951e-01	 2.6441756479e+00
 1.1794845763e+00	 3.8643908364e-01	 2.6050718809e+00
 1.1758673242e+00	 3.9730978709e-01	 2.5669814729e+00
 1.1721417328e+00	 4.0817004967e-01	 2.5279012889e+00
 1.1683076092e+00	 4.1901833073e-01	 2.4868237876e+00
 1.1643647886e+00	 4.2985307975e-01	 2.4440224519e+00
 1.2046092848e+00	 3.2260220149e-01	 2.8510549988e+00
 1.2016224224e+00	 3.3355548756e-01	 2.8097960856e+00
 1.1985284345e+00	 3.4450733086e-01	 2.7674496883e+00
 1.1953269679e+00	 3.5545625475e-01	 2.7243858931e+00
 1.1920176951e+00	 3.6640076938e-01	 2.6809709609e+00
 1.1886003145e+00	 3.7733937221e-01	 2.6375672195e+00
 1.1850745506e+00	 3.8827054849e-01	 2.5945329225e+00
 1.1814401552e+00	 3.9919277187e-01	 2.5522220768e+00
 1.1776969069e+00	 4.1010450488e-01	 2.5109842337e+00
 1.1738446121e+00	 4.2100419960e-01	 2.4702684521e+00
 1.1698831051e+00	 4.3189029814e-01	 2.4275904003e+00
 1.2102914040e+00	 3.2412390999e-01	 2.8574977142e+00
 1.2072904527e+00	 3.3512886250e-01	 2.8143023105e+00
 1.2041818705e+00	 3.4613236544e-01	 2.7697246754e+00
 1.2009653027e+00	 3.5713293519e-01	 2.7241308225e+00
 1.1976404201e+00	 3.6812907490e-01	 2.6778835021e+00
 1.1942069197e+00	 3.7911927491e-01	 2.6313421050e+00
 1.1906645249e+00	 3.9010201334e-01	 2.5848625344e+00
 1.1870129861e+00	 4.0107575664e-01	 2.5387970450e+00
 1.1832520809e+00	 4.1203896009e-01	 2.4934940464e+00
 1.1793816149e+00	 4.2299006846e-01	 2.4492978714e+00
 1.1754014217e+00	 4.3392751653e-01	 2.4064039282e+00
 1.2159735233e+00	 3.2564561849e-01	 2.8624327852e+00
 1.2129584830e+00	 3.3670223745e-01	 2.8175441070e+00
 1.2098353065e+00	 3.4775740002e-01	 2.7710335202e+00
 1.2066036375e+00	 3.5880961564e-01	 2.7232580832e+00
 1.2032631451e+00	 3.6985738041e-01	 2.6745721059e+00
 1.1998135250e+00	 3.8089917761e-01	 2.6253270725e+00
 1.1962544992e+00	 3.9193347820e-01	 2.5758715318e+00
 1.1925858170e+00	 4.0295874141e-01	 2.5265509538e+00
 1.1888072550e+00	 4.1397341531e-01	 2.4777075521e+00
 1.1849186178e+00	 4.2497593733e-01	 2.4296800704e+00
 1.1809197382e+00	 4.3596473492e-01	 2.3828035307e+00
 1.2216556426e+00	 3.2716732698e-01	 2.8657676816e+00
 1.2186265133e+00	 3.3827561239e-01	 2.8194133020e+00
 1.2154887425e+00	 3.4938243460e-01	 2.7712522535e+00
 1.2122419722e+00	 3.6048629609e-01	 2.7216278256e+00
 1.2088858701e+00	 3.7158568593e-01	 2.6708810290e+00
 1.2054201302e+00	 3.8267908031e-01	 2.6193505416e+00
 1.2018444735e+00	 3.9376494305e-01	 2.5673726237e+00
 1.1981586479e+00	 4.0484172618e-01	 2.5152809988e+00
 1.1943624291e+00	 4.1590787052e-01	 2.4634067014e+00
 1.1904556207e+00	 4.2696180619e-01	 2.4120778874e+00
 1.1864380548e+00	 4.3800195330e-01	 2.3616196085e+00
 1.2273377618e+00	 3.2868903548e-01	 2.8674102933e+00
 1.2242945436e+00	 3.3984898733e-01	 2.8198023804e+00
 1.2211421786e+00	 3.5100746918e-01	 2.7702578042e+00
 1.2178803070e+00	 3.6216297653e-01	 2.7191013406e+00
 1.2145085951e+00	 3.7331399145e-01	 2.6666559100e+00
 1.2110267355e+00	 3.8445898300e-01	 2.6132425537e+00
 1.2074344478e+00	 3.9559640790e-01	 2.5591803785e+00
 1.2037314788e+00	 4.0672471096e-01	 2.5047864691e+00
 1.1999176032e+00	 4.1784232573e-01	 2.4503757665e+00
 1.1959926236e+00	 4.2894767506e-01	 2.3962609104e+00
 1.1919563713e+00	 4.4003917169e-01	 2.3427520447e+00
 1.2330198811e+00	 3.3021074398e-01	 2.8672689248e+00
 1.2299625739e+00	 3.4142236227e-01	 2.8186044748e+00
 1.2267956146e+00	 3.5263250376e-01	 2.7679279847e+00
 1.2235186417e+00	 3.6383965698e-01	 2.7155410392e+00
 1.2201313200e+00	 3.7504229696e-01	 2.6617437453e+00
 1.2166333407e+00	 3.8623888570e-01	 2.6068347440e+00
 1.2130244221e+00	 3.9742787275e-01	 2.5511111921e+00
 1.2093043098e+00	 4.0860769573e-01	 2.4948687107e+00
 1.2054727773e+00	 4.1977678094e-01	 2.4384013015e+00
 1.2015296265e+00	 4.3093354393e-01	 2.3820012268e+00
 1.1974746878e+00	 4.4207639008e-01	 2.3259588541e+00
 1.2387020004e+00	 3.3173245248e-01	 2.8652522901e+00
 1.2356306042e+00	 3.4299573721e-01	 2.8157133558e+00
 1.2324490506e+00	 3.5425753833e-01	 2.7641414770e+00
 1.2291569765e+00	 3.6551633743e-01	 2.7108104351e+00
 1.2257540450e+00	 3.7677060248e-01	 2.6559928663e+00
 1.2222399460e+00	 3.8801878840e-01	 2.5999603149e+00
 1.2186143964e+00	 3.9925933760e-01	 2.5429832570e+00
 1.2148771407e+00	 4.1049068050e-01	 2.4853310920e+00
 1.2110279514e+00	 4.2171123615e-01	 2.4272721030e+00
 1.2070666294e+00	 4.3291941279e-01	 2.3690733813e+00
 1.2029930044e+00	 4.4411360847e-01	 2.3110007154e+00
 1.2443841196e+00	 3.3325416097e-01	 2.8612695078e+00
 1.2412986345e+00	 3.4456911215e-01	 2.8110234234e+00
 1.2381024866e+00	 3.5588257291e-01	 2.7587778194e+00
 1.2347953112e+00	 3.6719301787e-01	 2.7047741267e+00
 1.2313767700e+00	 3.7849890799e-01	 2.6492529184e+00
 1.2278465513e+00	 3.8979869110e-01	 2.5924540102e+00
 1.2242043707e+00	 4.0109080245e-01	 2.5346165322e+00
 1.2204499716e+00	 4.1237366528e-01	 2.4759789699e+00
 1.2165831255e+00	 4.2364569137e-01	 2.4167791738e+00
 1.2126036323e+00	 4.3490528166e-01	 2.3572543352e+00
 1.2085113209e+00	 4.4615082685e-01	 2.2976409275e+00
 1.2500662389e+00	 3.3477586947e-01	 2.8552300968e+00
 1.2469666648e+00	 3.4614248709e-01	 2.8044296982e+00
 1.2437559226e+00	 3.5750760749e-01	 2.7517173941e+00
 1.2404336460e+00	 3.6886969832e-01	 2.6972977809e+00
 1.2369994950e+00	 3.8022721351e-01	 2.6413748399e+00
 1.2334531565e+00	 3.9157859380e-01	 2.5841520906e+00
 1.2297943450e+00	 4.0292226730e-01	 2.5258327159e+00
 1.2260228025e+00	 4.1425665005e-01	 2.4666196584e+00
 1.2221382996e+00	 4.2558014658e-01	 2.4067156865e+00
 1.2181406352e+00	 4.3689115052e-01	 2.3463234278e+00
 1.2140296374e+00	 4.4818804524e-01	 2.2856453676e+00
 1.1588464721e+00	 4.2781586137e-01	 2.4558547658e+00
 1.1548140201e+00	 4.3858424058e-01	 2.4127348224e+00
 1.1506731428e+00	 4.4933603850e-01	 2.3685498032e+00
 1.1464237615e+00	 4.6006968614e-01	 2.3229870681e+00
 1.1420658266e+00	 4.7078360715e-01	 2.2757428416e+00
 1.1375993179e+00	 4.8147621849e-01	 2.2265224465e+00
 1.1330242449e+00	 4.9214593108e-01	 2.1750403166e+00
 1.1283406472e+00	 5.0279115047e-01	 2.1210197819e+00
 1.1235485944e+00	 5.1341027752e-01	 2.0641926261e+00
 1.1186481868e+00	 5.2400170912e-01	 2.0042984143e+00
 1.1136395554e+00	 5.3456383887e-01	 1.9410835912e+00
 1.1643647886e+00	 4.2985307975e-01	 2.4440224519e+00
 1.1603131345e+00	 4.4067273696e-01	 2.3997660968e+00
 1.1561525387e+00	 4.5147573392e-01	 2.3539690455e+00
 1.1518829223e+00	 4.6226049416e-01	 2.3063955203e+00
 1.1475042353e+00	 4.7302543385e-01	 2.2568192309e+00
 1.1430164575e+00	 4.8376896239e-01	 2.2050234908e+00
 1.1384195985e+00	 4.9448948313e-01	 2.1508011014e+00
 1.1337136979e+00	 5.0518539404e-01	 2.0939540011e+00
 1.1288988258e+00	 5.1585508836e-01	 2.0342926761e+00
 1.1239750830e+00	 5.2649695535e-01	 1.9716353322e+00
 1.1189426009e+00	 5.3710938096e-01	 1.9058068300e+00
 1.1698831051e+00	 4.3189029814e-01	 2.4275904003e+00
 1.1658122489e+00	 4.4276123335e-01	 2.3829670291e+00
 1.1616319347e+00	 4.5361542934e-01	 2.3363103013e+00
 1.1573420831e+00	 4.6445130219e-01	 2.2874520310e+00
 1.1529426440e+00	 4.7526726055e-01	 2.2362344354e+00
 1.1484335971e+00	 4.8606170628e-01	 2.1825101488e+00
 1.1438149520e+00	 4.9683303518e-01	 2.1261419933e+00
 1.1390867486e+00	 5.0757963761e-01	 2.0670025056e+00
 1.1342490572e+00	 5.1829989921e-01	 2.0049732148e+00
 1.1293019791e+00	 5.2899220159e-01	 1.9399436728e+00
 1.1242456464e+00	 5.3965492305e-01	 1.8718102375e+00
 1.1754014217e+00	 4.3392751653e-01	 2.4064039282e+00
 1.1713113632e+00	 4.4484972973e-01	 2.3621721361e+00
 1.1671113306e+00	 4.5575512476e-01	 2.3154013059e+00
 1.1628012438e+00	 4.6664211022e-01	 2.2659817116e+00
 1.1583810527e+00	 4.7750908725e-01	 2.2138152386e+00
 1.1538507367e+00	 4.8835445018e-01	 2.1588153090e+00
 1.1492103056e+00	 4.9917658724e-01	 2.1009065541e+00
 1.1444597993e+00	 5.0997388119e-01	 2.0400242326e+00
 1.1395992886e+00	 5.2074471005e-01	 1.9761133898e+00
 1.1346288752e+00	 5.3148744782e-01	 1.9091277592e+00
 1.1295486919e+00	 5.4220046514e-01	 1.8390284073e+00
 1.1809197382e+00	 4.3596473492e-01	 2.3828035307e+00
 1.1768104776e+00	 4.4693822611e-01	 2.3372322987e+00
 1.1725907265e+00	 4.5789482018e-01	 2.2910719425e+00
 1.1682604046e+00	 4.6883291825e-01	 2.2418117295e+00
 1.1638194614e+00	 4.7975091395e-01	 2.1893903010e+00
 1.1592678764e+00	 4.9064719408e-01	 2.1337734684e+00
 1.1546056591e+00	 5.0152013929e-01	 2.0749395941e+00
 1.1498328500e+00	 5.1236812476e-01	 2.0128789144e+00
 1.1449495200e+00	 5.2318952090e-01	 1.9475925944e+00
 1.1399557714e+00	 5.3398269406e-01	 1.8790915138e+00
 1.1348517374e+00	 5.4474600723e-01	 1.8073947851e+00
 1.1864380548e+00	 4.3800195330e-01	 2.3616196085e+00
 1.1823095920e+00	 4.4902672250e-01	 2.3121184068e+00
 1.1780701224e+00	 4.6003451561e-01	 2.2634597514e+00
 1.1737195654e+00	 4.7102372628e-01	 2.2147712029e+00
 1.1692578701e+00	 4.8199274065e-01	 2.1627900549e+00
 1.1646850160e+00	 4.9293993798e-01	 2.1072206299e+00
 1.1600010127e+00	 5.0386369134e-01	 2.0480870738e+00
 1.1552059007e+00	 5.1476236833e-01	 1.9854269866e+00
 1.1502997514e+00	 5.2563433175e-01	 1.9192903849e+00
 1.1452826675e+00	 5.3647794029e-01	 1.8497383851e+00
 1.1401547829e+00	 5.4729154932e-01	 1.7768416092e+00
 1.1919563713e+00	 4.4003917169e-01	 2.3427520447e+00
 1.1878087064e+00	 4.5111521888e-01	 2.2898616950e+00
 1.1835495183e+00	 4.6217421103e-01	 2.2374401830e+00
 1.1791787261e+00	 4.7321453431e-01	 2.1855408844e+00
 1.1746962788e+00	 4.8423456735e-01	 2.1338466022e+00
 1.1701021556e+00	 4.9523268187e-01	 2.0789942019e+00
 1.1653963662e+00	 5.0620724339e-01	 2.0201960084e+00
 1.1605789514e+00	 5.1715661191e-01	 1.9575294985e+00
 1.1556499828e+00	 5.2807914259e-01	 1.8910863982e+00
 1.1506095636e+00	 5.3897318652e-01	 1.8209712771e+00
 1.1454578284e+00	 5.4983709141e-01	 1.7472998519e+00
 1.1974746878e+00	 4.4207639008e-01	 2.3259588541e+00
 1.1933078208e+00	 4.5320371526e-01	 2.2702081970e+00
 1.1890289142e+00	 4.6431390645e-01	 2.2145574905e+00
 1.1846378869e+00	 4.7540534234e-01	 2.1590964595e+00
 1.1801346875e+00	 4.8647639405e-01	 2.1039007502e+00
 1.1755192952e+00	 4.9752542577e-01	 2.0489329001e+00
 1.1707917198e+00	 5.0855079545e-01	 1.9911143727e+00
 1.1659520021e+00	 5.1955085548e-01	 1.9290480240e+00
 1.1610002142e+00	 5.3052395344e-01	 1.8628602722e+00
 1.1559364597e+00	 5.4146843276e-01	 1.7926924784e+00
 1.1507608739e+00	 5.5238263350e-01	 1.7186991613e+00
 1.2029930044e+00	 4.4411360847e-01	 2.3110007154e+00
 1.1988069351e+00	 4.5529221165e-01	 2.2529067783e+00
 1.1945083102e+00	 4.6645360187e-01	 2.1945524841e+00
 1.1900970477e+00	 4.7759615037e-01	 2.1360556688e+00
 1.1855730962e+00	 4.8871822075e-01	 2.0775216666e+00
 1.1809364348e+00	 4.9981816967e-01	 2.0190430763e+00
 1.1761870733e+00	 5.1089434750e-01	 1.9606910092e+00
 1.1713250528e+00	 5.2194509905e-01	 1.8998445758e+00
 1.1663504456e+00	 5.3296876428e-01	 1.8344915665e+00
 1.1612633559e+00	 5.4396367899e-01	 1.7648035935e+00
 1.1560639194e+00	 5.5492817559e-01	 1.6909678043e+00
 1.2085113209e+00	 4.4615082685e-01	 2.2976409275e+00
 1.2043060495e+00	 4.5738070803e-01	 2.2377090900e+00
 1.1999877061e+00	 4.6859329729e-01	 2.1771688558e+00
 1.1955562084e+00	 4.7978695840e-01	 2.1161580544e+00
 1.1910115049e+00	 4.9096004745e-01	 2.0548038330e+00
 1.1863535744e+00	 5.0211091357e-01	 1.9932224261e+00
 1.1815824269e+00	 5.1323789955e-01	 1.9315188896e+00
 1.1766981035e+00	 5.2433934263e-01	 1.8697867944e+00
 1.1717006770e+00	 5.3541357513e-01	 1.8058596847e+00
 1.1665902520e+00	 5.4645892523e-01	 1.7372054744e+00
 1.1613669649e+00	 5.5747371768e-01	 1.6640326093e+00
 1.2140296374e+00	 4.4818804524e-01	 2.2856453676e+00
 1.2098051639e+00	 4.5946920442e-01	 2.2243695248e+00
 1.2054671020e+00	 4.7073299271e-01	 2.1621531345e+00
 1.2010153692e+00	 4.8197776643e-01	 2.0991460212e+00
 1.1964499136e+00	 4.9320187415e-01	 2.0354893860e+00
 1.1917707140e+00	 5.0440365746e-01	 1.9713155951e+00
 1.1869777804e+00	 5.1558145161e-01	 1.9067479305e+00
 1.1820711542e+00	 5.2673358620e-01	 1.8419002980e+00
 1.1770509084e+00	 5.3785838597e-01	 1.7768768901e+00
 1.1719171481e+00	 5.4895417146e-01	 1.7097981534e+00
 1.1666700104e+00	 5.6001925977e-01	 1.6378189106e+00
 1.1136395554e+00	 5.3456383887e-01	 1.9410835912e+00
 1.1085228618e+00	 5.4509505781e-01	 1.8782472472e+00
 1.1032982989e+00	 5.5559375513e-01	 1.8200439359e+00
 1.0979660909e+00	 5.6605831891e-01	 1.7670904191e+00
 1.0925264931e+00	 5.7648713687e-01	 1.7200447598e+00
 1.0869797925e+00	 5.8687859709e-01	 1.6796033641e+00
 1.0813263077e+00	 5.9723108880e-01	 1.6406880987e+00
 1.0755663887e+00	 6.0754300311e-01	 1.5946492264e+00
 1.0697004174e+00	 6.1781273377e-01	 1.5422113504e+00
 1.0637288076e+00	 6.2803867798e-01	 1.4842864593e+00
 1.0576520044e+00	 6.3821923711e-01	 1.4218417055e+00
 1.1189426009e+00	 5.3710938096e-01	 1.9058068300e+00
 1.1138015421e+00	 5.4769074856e-01	 1.8408374711e+00
 1.1085521003e+00	 5.5823943968e-01	 1.7812485955e+00
 1.1031945008e+00	 5.6875383472e-01	 1.7276394732e+00
 1.0977290002e+00	 5.7923231371e-01	 1.6806519752e+00
 1.0921558868e+00	 5.8967325708e-01	 1.6408185129e+00
 1.0864754806e+00	 6.0007504637e-01	 1.5991659314e+00
 1.0806881334e+00	 6.1043606503e-01	 1.5506536981e+00
 1.0747942290e+00	 6.2075469917e-01	 1.4961205863e+00
 1.0687941828e+00	 6.3102933835e-01	 1.4364620811e+00
 1.0626884425e+00	 6.4125837634e-01	 1.3726299355e+00
 1.1242456464e+00	 5.3965492305e-01	 1.8718102375e+00
 1.1190802223e+00	 5.5028643931e-01	 1.8049453181e+00
 1.1138059017e+00	 5.6088512423e-01	 1.7441601028e+00
 1.1084229108e+00	 5.7144935052e-01	 1.6900477662e+00
 1.1029315073e+00	 5.8197749055e-01	 1.6432450641e+00
 1.0973319810e+00	 5.9246791707e-01	 1.6031291232e+00
 1.0916246535e+00	 6.0291900393e-01	 1.5586123628e+00
 1.0858098781e+00	 6.1332912695e-01	 1.5076358359e+00
 1.0798880405e+00	 6.2369666457e-01	 1.4510297407e+00
 1.0738595581e+00	 6.3401999872e-01	 1.3896816070e+00
 1.0677248807e+00	 6.4429751556e-01	 1.3245358866e+00
 1.1295486919e+00	 5.4220046514e-01	 1.8390284073e+00
 1.1243589026e+00	 5.5288213007e-01	 1.7705355584e+00
 1.1190597032e+00	 5.6353080877e-01	 1.7087679434e+00
 1.1136513207e+00	 5.7414486632e-01	 1.6543238968e+00
 1.1081340144e+00	 5.8472266740e-01	 1.6078459996e+00
 1.1025080753e+00	 5.9526257705e-01	 1.5664112648e+00
 1.0967738264e+00	 6.0576296150e-01	 1.5190397675e+00
 1.0909316228e+00	 6.1622218887e-01	 1.4656065038e+00
 1.0849818520e+00	 6.2663862997e-01	 1.4069419368e+00
 1.0789249334e+00	 6.3701065910e-01	 1.3439340507e+00
 1.0727613188e+00	 6.4733665478e-01	 1.2775279599e+00
 1.1348517374e+00	 5.4474600723e-01	 1.8073947851e+00
 1.1296375829e+00	 5.5547782082e-01	 1.7375710656e+00
 1.1243135046e+00	 5.6617649332e-01	 1.6750590556e+00
 1.1188797307e+00	 5.7684038213e-01	 1.6204733674e+00
 1.1133365215e+00	 5.8746784424e-01	 1.5744732145e+00
 1.1076841695e+00	 5.9805723704e-01	 1.5306713574e+00
 1.1019229992e+00	 6.0860691907e-01	 1.4804590910e+00
 1.0960533675e+00	 6.1911525079e-01	 1.4245751994e+00
 1.0900756635e+00	 6.2958059537e-01	 1.3638591104e+00
 1.0839903087e+00	 6.4000131947e-01	 1.2992075360e+00
 1.0777977569e+00	 6.5037579401e-01	 1.2315740849e+00
 1.1401547829e+00	 5.4729154932e-01	 1.7768416092e+00
 1.1349162632e+00	 5.5807351157e-01	 1.7060127697e+00
 1.1295673060e+00	 5.6882217787e-01	 1.6430177940e+00
 1.1241081406e+00	 5.7953589793e-01	 1.5884985565e+00
 1.1185390286e+00	 5.9021302108e-01	 1.5428538242e+00
 1.1128602638e+00	 6.0085189702e-01	 1.4959144974e+00
 1.1070721721e+00	 6.1145087663e-01	 1.4428799074e+00
 1.1011751122e+00	 6.2200831271e-01	 1.3845501119e+00
 1.0951694750e+00	 6.3252256077e-01	 1.3217820655e+00
 1.0890556839e+00	 6.4299197984e-01	 1.2554893469e+00
 1.0828341950e+00	 6.5341493323e-01	 1.1866417610e+00
 1.1454578284e+00	 5.4983709141e-01	 1.7472998519e+00
 1.1401949435e+00	 5.6066920232e-01	 1.6758196111e+00
 1.1348211074e+00	 5.7146786242e-01	 1.6126258945e+00
 1.1293365506e+00	 5.8223141374e-01	 1.5583986906e+00
 1.1237415358e+00	 5.9295819792e-01	 1.5122132240e+00
 1.1180363580e+00	 6.0364655701e-01	 1.4621445117e+00
 1.1122213450e+00	 6.1429483420e-01	 1.4063104761e+00
 1.1062968569e+00	 6.2490137463e-01	 1.3455381795e+00
 1.1002632865e+00	 6.3546452617e-01	 1.2807105288e+00
 1.0941210592e+00	 6.4598264021e-01	 1.2127659773e+00
 1.0878706331e+00	 6.5645407246e-01	 1.1426980998e+00
 1.1507608739e+00	 5.5238263350e-01	 1.7186991613e+00
 1.1454736238e+00	 5.6326489307e-01	 1.6469484948e+00
 1.1400749089e+00	 5.7411354697e-01	 1.5838624374e+00
 1.1345649606e+00	 5.8492692954e-01	 1.5301698162e+00
 1.1289440429e+00	 5.9570337476e-01	 1.4825010254e+00
 1.1232124523e+00	 6.0644121700e-01	 1.4293640113e+00
 1.1173705179e+00	 6.1713879176e-01	 1.3707577983e+00
 1.1114186016e+00	 6.2779443655e-01	 1.3075451452e+00
 1.1053570980e+00	 6.3840649157e-01	 1.2406432038e+00
 1.0991864345e+00	 6.4897330058e-01	 1.1710231796e+00
 1.0929070712e+00	 6.5949321168e-01	 1.0997098659e+00
 1.1560639194e+00	 5.5492817559e-01	 1.6909678043e+00
 1.1507523041e+00	 5.6586058382e-01	 1.6193542448e+00
 1.1453287103e+00	 5.7675923152e-01	 1.5567038121e+00
 1.1397933705e+00	 5.8762244535e-01	 1.5038047706e+00
 1.1341465500e+00	 5.9844855161e-01	 1.4537089158e+00
 1.1283885465e+00	 6.0923587698e-01	 1.3975744442e+00
 1.1225196908e+00	 6.1998274933e-01	 1.3362276724e+00
 1.1165403463e+00	 6.3068749847e-01	 1.2705756133e+00
 1.1104509095e+00	 6.4134845697e-01	 1.2015778246e+00
 1.1042518098e+00	 6.5196396095e-01	 1.1302460141e+00
 1.0979435094e+00	 6.6253235091e-01	 1.0576435185e+00
 1.1613669649e+00	 5.5747371768e-01	 1.6640326093e+00
 1.1560309844e+00	 5.6845627458e-01	 1.5929895587e+00
 1.1505825117e+00	 5.7940491606e-01	 1.5311236808e+00
 1.1450217805e+00	 5.9031796115e-01	 1.4789700938e+00
 1.1393490571e+00	 6.0119372845e-01	 1.4258276083e+00
 1.1335646408e+00	 6.1203053697e-01	 1.3667761473e+00
 1.1276688637e+00	 6.2282670689e-01	 1.3027247491e+00
 1.1216620911e+00	 6.3358056039e-01	 1.2346331044e+00
 1.1155447210e+00	 6.4429042236e-01	 1.1635112090e+00
 1.1093171850e+00	 6.5495462132e-01	 1.0904188973e+00
 1.1029799475e+00	 6.6557149013e-01	 1.0164652526e+00
 1.1666700104e+00	 5.6001925977e-01	 1.6378189106e+00
 1.1613096647e+00	 5.7105196533e-01	 1.5678049628e+00
 1.1558363131e+00	 5.8205060061e-01	 1.5070929427e+00
 1.1502501904e+00	 5.9301347695e-01	 1.4549154989e+00
 1.1445515642e+00	 6.0393890529e-01	 1.3988468874e+00
 1.1387407350e+00	 6.1482519695e-01	 1.3369683990e+00
 1.1328180366e+00	 6.2567066446e-01	 1.2702525858e+00
 1.1267838358e+00	 6.3647362231e-01	 1.1997201103e+00
 1.1206385326e+00	 6.4723238776e-01	 1.1264393108e+00
 1.1143825603e+00	 6.5794528170e-01	 1.0515256498e+00
 1.1080163856e+00	 6.6861062935e-01	 9.7614104032e-01
 1.0576520044e+00	 6.3821923711e-01	 1.4218417055e+00
 1.0514704851e+00	 6.4835281751e-01	 1.3578584933e+00
 1.0451847585e+00	 6.5843783127e-01	 1.2946440350e+00
 1.0387953650e+00	 6.6847269701e-01	 1.2322168317e+00
 1.0323028768e+00	 6.7845584065e-01	 1.1706243672e+00
 1.0257078972e+00	 6.8838569621e-01	 1.1099432149e+00
 1.0190110612e+00	 6.9826070654e-01	 1.0502790447e+00
 1.0122130348e+00	 7.0807932415e-01	 9.9176652491e-01
 1.0053145151e+00	 7.1784001197e-01	 9.3456911654e-01
 9.9831623008e-01	 7.2754124408e-01	 8.7887875771e-01
 9.9121893822e-01	 7.3718150656e-01	 8.2491543513e-01
 1.0626884425e+00	 6.4125837634e-01	 1.3726299355e+00
 1.0564774875e+00	 6.5144021188e-01	 1.3074650418e+00
 1.0501618288e+00	 6.6157324951e-01	 1.2431421262e+00
 1.0437420096e+00	 6.7165590033e-01	 1.1796767806e+00
 1.0372186047e+00	 6.8168658275e-01	 1.1171130517e+00
 1.0305922205e+00	 6.9166372333e-01	 1.0555235652e+00
 1.0238634948e+00	 7.0158575752e-01	 9.9500954962e-01
 1.0170330969e+00	 7.1145113046e-01	 9.3570075268e-01
 1.0101017271e+00	 7.2125829774e-01	 8.7775525019e-01
 1.0030701169e+00	 7.3100572620e-01	 8.2135914234e-01
 9.9593902840e-01	 7.4069189469e-01	 7.6672613626e-01
 1.0677248807e+00	 6.4429751556e-01	 1.3245358866e+00
 1.0614844898e+00	 6.5452760625e-01	 1.2582891811e+00
 1.0551388991e+00	 6.6470866776e-01	 1.1929709464e+00
 1.0486886542e+00	 6.7483910365e-01	 1.1285882649e+00
 1.0421343327e+00	 6.8491732485e-01	 1.0651763648e+00
 1.0354765438e+00	 6.9494175046e-01	 1.0027987714e+00
 1.0287159284e+00	 7.0491080850e-01	 9.4154735553e-01
 1.0218531589e+00	 7.1482293676e-01	 8.8154227565e-01
 1.0148889391e+00	 7.2467658351e-01	 8.2293180815e-01
 1.0078240037e+00	 7.3447020831e-01	 7.6589206485e-01
 1.0006591186e+00	 7.4420228281e-01	 7.1062659430e-01
 1.0727613188e+00	 6.4733665478e-01	 1.2775279599e+00
 1.0664914921e+00	 6.5761500062e-01	 1.2102768547e+00
 1.0601159694e+00	 6.6784408600e-01	 1.1440569271e+00
 1.0536352988e+00	 6.7802230697e-01	 1.0788612186e+00
 1.0470500607e+00	 6.8814806695e-01	 1.0147108237e+00
 1.0403608671e+00	 6.9821977758e-01	 9.5165507833e-01
 1.0335683620e+00	 7.0823585949e-01	 8.8977164327e-01
 1.0266732210e+00	 7.1819474307e-01	 8.2916647891e-01
 1.0196761511e+00	 7.2809486928e-01	 7.6997370726e-01
 1.0125778905e+00	 7.3793469043e-01	 7.1235535828e-01
 1.0053792088e+00	 7.4771267094e-01	 6.5650099785e-01
 1.0777977569e+00	 6.5037579401e-01	 1.2315740849e+00
 1.0714984944e+00	 6.6070239499e-01	 1.1633739857e+00
 1.0650930396e+00	 6.7097950425e-01	 1.0963268751e+00
 1.0585819434e+00	 6.8120551029e-01	 1.0304062881e+00
 1.0519657887e+00	 6.9137880905e-01	 9.6561393571e-01
 1.0452451905e+00	 7.0149780471e-01	 9.0197993882e-01
 1.0384207957e+00	 7.1156091047e-01	 8.3956295636e-01
 1.0314932831e+00	 7.2156654937e-01	 7.7845020197e-01
 1.0244633630e+00	 7.3151315505e-01	 7.1875734581e-01
 1.0173317773e+00	 7.4139917254e-01	 6.6062829816e-01
 1.0100992989e+00	 7.5122305907e-01	 6.0423487202e-01
 1.0828341950e+00	 6.5341493323e-01	 1.1866417610e+00
 1.0765054967e+00	 6.6378978935e-01	 1.1175265100e+00
 1.0700701099e+00	 6.7411492249e-01	 1.0497079971e+00
 1.0635285880e+00	 6.8438871361e-01	 9.8313485102e-01
 1.0568815167e+00	 6.9460955115e-01	 9.1778421215e-01
 1.0501295138e+00	 7.0477583183e-01	 8.5366202280e-01
 1.0432732293e+00	 7.1488596146e-01	 7.9080320837e-01
 1.0363133451e+00	 7.2493835568e-01	 7.2927174508e-01
 1.0292505750e+00	 7.3493144082e-01	 6.6916061020e-01
 1.0220856641e+00	 7.4486365466e-01	 6.1059161113e-01
 1.0148193891e+00	 7.5473344719e-01	 5.5371509038e-01
 1.0878706331e+00	 6.5645407246e-01	 1.1426980998e+00
 1.0815124990e+00	 6.6687718372e-01	 1.0726804092e+00
 1.0750471802e+00	 6.7725034073e-01	 1.0041279257e+00
 1.0684752326e+00	 6.8757191692e-01	 9.3695903495e-01
 1.0617972447e+00	 6.9784029324e-01	 8.7112118238e-01
 1.0550138371e+00	 7.0805385896e-01	 8.0659122814e-01
 1.0481256629e+00	 7.1821101244e-01	 7.4337569110e-01
 1.0411334072e+00	 7.2831016198e-01	 6.8151087642e-01
 1.0340377870e+00	 7.3834972659e-01	 6.2106288265e-01
 1.0268395509e+00	 7.4832813677e-01	 5.6212748441e-01
 1.0195394793e+00	 7.5824383532e-01	 5.0482988767e-01
 1.0929070712e+00	 6.5949321168e-01	 1.0997098659e+00
 1.0865195013e+00	 6.6996457809e-01	 1.0287817434e+00
 1.0800242505e+00	 6.8038575898e-01	 9.5951474449e-01
 1.0734218772e+00	 6.9075512024e-01	 8.9179173751e-01
 1.0667129727e+00	 7.0107103534e-01	 8.2552540873e-01
 1.0598981604e+00	 7.1133188608e-01	 7.6065869186e-01
 1.0529780965e+00	 7.2153606342e-01	 6.9716508367e-01
 1.0459534693e+00	 7.3168196829e-01	 6.3504884032e-01
 1.0388249990e+00	 7.4176801236e-01	 5.7434504973e-01
 1.0315934378e+00	 7.5179261889e-01	 5.1511957618e-01
 1.0242595695e+00	 7.6175422345e-01	 4.5746887343e-01
 1.0979435094e+00	 6.6253235091e-01	 1.0576435185e+00
 1.0915265036e+00	 6.7305197246e-01	 9.8577668470e-01
 1.0850013208e+00	 6.8352117722e-01	 9.1579701472e-01
 1.0783685218e+00	 6.9393832356e-01	 8.4754664634e-01
 1.0716287006e+00	 7.0430177744e-01	 7.8089850198e-01
 1.0647824837e+00	 7.1460991321e-01	 7.1575680227e-01
 1.0578305302e+00	 7.2486111441e-01	 6.5205746247e-01
 1.0507735314e+00	 7.3505377459e-01	 5.8976836624e-01
 1.0436122109e+00	 7.4518629814e-01	 5.2888951190e-01
 1.0363473246e+00	 7.5525710100e-01	 4.6945302682e-01
 1.0289796597e+00	 7.6526461157e-01	 4.1152304630e-01
 1.1029799475e+00	 6.6557149013e-01	 1.0164652526e+00
 1.0965335059e+00	 6.7613936683e-01	 9.4361155002e-01
 1.0899783910e+00	 6.8665659547e-01	 8.7290380134e-01
 1.0833151664e+00	 6.9712152688e-01	 8.0413825988e-01
 1.0765444286e+00	 7.0753251954e-01	 7.3714313757e-01
 1.0696668071e+00	 7.1788794033e-01	 6.7177921183e-01
 1.0626829638e+00	 7.2818616539e-01	 6.0794031188e-01
 1.0555935934e+00	 7.3842558090e-01	 5.4555367873e-01
 1.0483994229e+00	 7.4860458391e-01	 4.8458019375e-01
 1.0411012114e+00	 7.5872158312e-01	 4.2501447092e-01
 1.0336997499e+00	 7.6877499970e-01	 3.6688480912e-01
 1.1080163856e+00	 6.6861062935e-01	 9.7614104032e-01
 1.1015405082e+00	 6.7922676120e-01	 9.0223283478e-01
 1.0949554613e+00	 6.8979201371e-01	 8.3076469980e-01
 1.0882618110e+00	 7.0030473020e-01	 7.6148190851e-01
 1.0814601566e+00	 7.1076326164e-01	 6.9416307239e-01
 1.0745511304e+00	 7.2116596746e-01	 6.2862085070e-01
 1.0675353974e+00	 7.3151121637e-01	 5.6470253581e-01
 1.0604136555e+00	 7.4179738721e-01	 5.0229050814e-01
 1.0531866349e+00	 7.5202286968e-01	 4.4130255525e-01
 1.0458550982e+00	 7.6218606523e-01	 3.8169205018e-01
 1.0384198400e+00	 7.7228538783e-01	 3.2344798473e-01
 9.9121893822e-01	 7.3718150656e-01	 8.2491543513e-01
 9.8402342843e-01	 7.4675929816e-01	 7.7008839777e-01
 9.7673051976e-01	 7.5627313113e-01	 7.1205950390e-01
 9.6934106106e-01	 7.6572153191e-01	 6.5147175620e-01
 9.6185593073e-01	 7.7510304193e-01	 5.8899831462e-01
 9.5427603634e-01	 7.8441621831e-01	 5.2534112609e-01
 9.4660231433e-01	 7.9365963460e-01	 4.6122943459e-01
 9.3883572960e-01	 8.0283188148e-01	 3.9741817456e-01
 9.3097727512e-01	 8.1193156750e-01	 3.3468625076e-01
 9.2302797155e-01	 8.2095731973e-01	 2.7383470894e-01
 9.1498886677e-01	 8.2990778450e-01	 2.1568480197e-01
 9.9593902840e-01	 7.4069189469e-01	 7.6672613626e-01
 9.8870925428e-01	 7.5031529482e-01	 7.1128075378e-01
 9.8138161747e-01	 7.5987443175e-01	 6.5270604771e-01
 9.7395697088e-01	 7.6936782492e-01	 5.9164786278e-01
 9.6643619707e-01	 7.7879400880e-01	 5.2878294788e-01
 9.5882020795e-01	 7.8815153364e-01	 4.6481757511e-01
 9.5110994440e-01	 7.9743896619e-01	 4.0048603545e-01
 9.4330637593e-01	 8.0665489044e-01	 3.3654901410e-01
 9.3541050024e-01	 8.1579790829e-01	 2.7379184853e-01
 9.2742334285e-01	 8.2486664030e-01	 2.1302267375e-01
 9.1934595661e-01	 8.3385972634e-01	 1.5507045938e-01
 1.0006591186e+00	 7.4420228281e-01	 7.1062659430e-01
 9.9339508013e-01	 7.5387129148e-01	 6.5457887961e-01
 9.8603271519e-01	 7.6347573238e-01	 5.9546108904e-01
 9.7857288069e-01	 7.7301411793e-01	 5.3392457050e-01
 9.7101646340e-01	 7.8248497566e-01	 4.7065229767e-01
 9.6336437955e-01	 7.9188684896e-01	 4.0635747482e-01
 9.5561757447e-01	 8.0121829779e-01	 3.4178201441e-01
 9.4777702226e-01	 8.1047789940e-01	 2.7769489055e-01
 9.3984372536e-01	 8.1966424909e-01	 2.1489037158e-01
 9.3181871414e-01	 8.2877596087e-01	 1.5418613610e-01
 9.2370304645e-01	 8.3781166817e-01	 9.6421277118e-02
 1.0053792088e+00	 7.4771267094e-01	 6.5650099785e-01
 9.9808090598e-01	 7.5742728814e-01	 5.9987475766e-01
 9.9068381290e-01	 7.6707703300e-01	 5.4022378091e-01
 9.8318879051e-01	 7.7666041094e-01	 4.7820754348e-01
 9.7559672974e-01	 7.8617594253e-01	 4.1451784433e-01
 9.6790855115e-01	 7.9562216429e-01	 3.4987739233e-01
 9.6012520454e-01	 8.0499762938e-01	 2.8503826226e-01
 9.5224766859e-01	 8.1430090836e-01	 2.2078022267e-01
 9.4427695048e-01	 8.2353058989e-01	 1.5790893928e-01
 9.3621408543e-01	 8.3268528144e-01	 9.7254057895e-02
 9.2806013629e-01	 8.4176361000e-01	 3.9667172005e-02
 1.0100992989e+00	 7.5122305907e-01	 6.0423487202e-01
 1.0027667318e+00	 7.6098328480e-01	 5.4706157102e-01
 9.9533491061e-01	 7.7067833362e-01	 4.8689434984e-01
 9.8780470032e-01	 7.8030670395e-01	 4.2440340142e-01
 9.8017699608e-01	 7.8986690940e-01	 3.6029191559e-01
 9.7245272275e-01	 7.9935747961e-01	 2.9529464435e-01
 9.6463283461e-01	 8.0877696097e-01	 2.3017633261e-01
 9.5671831492e-01	 8.1812391732e-01	 1.6573001684e-01
 9.4871017560e-01	 8.2739693069e-01	 1.0277519549e-01
 9.4060945673e-01	 8.3659460201e-01	 4.2155875205e-02
 9.3241722614e-01	 8.4571555183e-01	-1.5261502022e-02
 1.0148193891e+00	 7.5473344719e-01	 5.5371509038e-01
 1.0074525577e+00	 7.6453928145e-01	 4.9603371940e-01
 9.9998600832e-01	 7.7427963425e-01	 4.3537411544e-01
 9.9242061014e-01	 7.8395299695e-01	 3.7241974250e-01
 9.8475726241e-01	 7.9355787626e-01	 3.0788771257e-01
 9.7699689435e-01	 8.0309279494e-01	 2.4252732593e-01
 9.6914046467e-01	 8.1255629257e-01	 1.7711847296e-01
 9.6118896126e-01	 8.2194692628e-01	 1.1246990003e-01
 9.5314340072e-01	 8.3126327148e-01	 4.9417343234e-02
 9.4500482802e-01	 8.4050392258e-01	-1.1178465863e-02
 9.3677431598e-01	 8.4966749366e-01	-6.8433917192e-02
 1.0195394793e+00	 7.5824383532e-01	 5.0482988767e-01
 1.0121383835e+00	 7.6809527811e-01	 4.4668683572e-01
 1.0046371060e+00	 7.7788093487e-01	 3.8556551064e-01
 9.9703651995e-01	 7.8759928996e-01	 3.2216516690e-01
 9.8933752875e-01	 7.9724884313e-01	 2.5721933624e-01
 9.8154106595e-01	 8.0682811026e-01	 1.9149433952e-01
 9.7364809474e-01	 8.1633562416e-01	 1.2578765608e-01
 9.6565960759e-01	 8.2576993524e-01	 6.0926153229e-02
 9.5757662584e-01	 8.3512961228e-01	-2.2358203628e-03
 9.4940019931e-01	 8.4441324315e-01	-6.2818473032e-02
 9.4113140582e-01	 8.5361943549e-01	-1.1991873498e-01
 1.0242595695e+00	 7.6175422345e-01	 4.5746887343e-01
 1.0168242094e+00	 7.7165127477e-01	 3.9891780345e-01
 1.0092882038e+00	 7.8148223550e-01	 3.3737210247e-01
 1.0016524298e+00	 7.9124558297e-01	 2.7354930077e-01
 9.9391779509e-01	 8.0093981000e-01	 2.0820181427e-01
 9.8608523756e-01	 8.1056342559e-01	 1.4211542446e-01
 9.7815572481e-01	 8.2011495575e-01	 7.6107611745e-02
 9.7013025392e-01	 8.2959294420e-01	 1.1025745022e-02
 9.6200985096e-01	 8.3899595308e-01	-5.2254868918e-02
 9.5379557061e-01	 8.4832256372e-01	-1.1283307153e-01
 9.4548849566e-01	 8.5757137732e-01	-1.6978406900e-01
 1.0289796597e+00	 7.6526461157e-01	 4.1152304630e-01
 1.0215100352e+00	 7.7520727143e-01	 3.5262477463e-01
 1.0139393015e+00	 7.8508353612e-01	 2.9069861348e-01
 1.0062683396e+00	 7.9489187598e-01	 2.2648282080e-01
 9.9849806143e-01	 8.0463077686e-01	 1.6075112845e-01
 9.9062940916e-01	 8.1429874092e-01	 9.4311186845e-02
 9.8266335488e-01	 8.2389428735e-01	 2.8002858779e-02
 9.7460090025e-01	 8.3341595316e-01	-3.7303634500e-02
 9.6644307608e-01	 8.4286229388e-01	-1.0070971139e-01
 9.5819094190e-01	 8.5223188429e-01	-1.6129056758e-01
 9.4984558550e-01	 8.6152331915e-01	-2.1809744771e-01
 1.0336997499e+00	 7.6877499970e-01	 3.6688480912e-01
 1.0261958611e+00	 7.7876326809e-01	 3.0770718851e-01
 1.0185903992e+00	 7.8868483675e-01	 2.4545094372e-01
 1.0108842494e+00	 7.9853816899e-01	 1.8087747920e-01
 1.0030783278e+00	 8.0832174373e-01	 1.1478424244e-01
 9.9517358076e-01	 8.1803405624e-01	 4.8003129771e-02
 9.8717098495e-01	 8.2767361894e-01	-1.8601262585e-02
 9.7907154658e-01	 8.3723896212e-01	-8.4133539576e-02
 9.7087630120e-01	 8.4672863467e-01	-1.4766955648e-01
 9.6258631319e-01	 8.5614120486e-01	-2.0825861161e-01
 9.5420267535e-01	 8.6547526098e-01	-2.6492577696e-01
 1.0384198400e+00	 7.7228538783e-01	 3.2344798473e-01
 1.0308816869e+00	 7.8231926474e-01	 2.6406579089e-01
 1.0232414969e+00	 7.9228613737e-01	 2.0153619330e-01
 1.0155001592e+00	 8.0218446200e-01	 1.3664612927e-01
 1.0076585941e+00	 8.1201271059e-01	 7.0219129922e-02
 9.9971775236e-01	 8.2176937157e-01	 3.1136838757e-03
 9.9167861502e-01	 8.3145295053e-01	-6.3778558047e-02
 9.8354219291e-01	 8.4106197108e-01	-1.2953473436e-01
 9.7530952632e-01	 8.5059497547e-01	-1.9320287675e-01
 9.6698168449e-01	 8.6005052543e-01	-2.5380416142e-01
 9.5855976519e-01	 8.6942720281e-01	-3.1033530234e-01
 9.1498886677e-01	 8.2990778450e-01	 2.1568480197e-01
 9.0686103542e-01	 8.3878162804e-01	 1.5746346683e-01
 8.9864557845e-01	 8.4757753711e-01	 9.6260292774e-02
 8.9034362263e-01	 8.5629421973e-01	 3.2710716721e-02
 8.8195631999e-01	 8.6493040571e-01	-3.2543010578e-02
 8.7348484735e-01	 8.7348484735e-01	-9.8853792465e-02
 8.6493040571e-01	 8.8195631999e-01	-1.6557170880e-01
 8.5629421973e-01	 8.9034362263e-01	-2.3204608471e-01
 8.4757753711e-01	 8.9864557845e-01	-2.9762759709e-01
 8.3878162804e-01	 9.0686103542e-01	-3.6167040990e-01
 8.2990778450e-01	 9.1498886677e-01	-4.2353432893e-01
 9.1934595661e-01	 8.3385972634e-01	 1.5507045938e-01
 9.1117942130e-01	 8.4277582627e-01	 9.7121003687e-02
 9.0292484311e-01	 8.5161362062e-01	 3.6224662965e-02
 8.9458335417e-01	 8.6037181125e-01	-2.6971652028e-02
 8.8615611199e-01	 8.6904912193e-01	-9.1813655060e-02
 8.7764429900e-01	 8.7764429900e-01	-1.5764169796e-01
 8.6904912193e-01	 8.8615611199e-01	-2.2379284152e-01
 8.6037181125e-01	 8.9458335417e-01	-2.8960297532e-01
 8.5161362062e-01	 9.0292484311e-01	-3.5440897788e-01
 8.4277582627e-01	 9.1117942130e-01	-4.1755090768e-01
 8.3385972634e-01	 9.1934595661e-01	-4.7837421574e-01
 9.2370304645e-01	 8.3781166817e-01	 9.6421277118e-02
 9.1549780718e-01	 8.4677002449e-01	 3.8742671753e-02
 9.0720410777e-01	 8.5564970413e-01	-2.1838847748e-02
 8.9882308570e-01	 8.6444940277e-01	-8.4666344845e-02
 8.9035590399e-01	 8.7316783814e-01	-1.4907501647e-01
 8.8180375066e-01	 8.8180375066e-01	-2.1439425074e-01
 8.7316783814e-01	 8.9035590399e-01	-2.7994974481e-01
 8.6444940277e-01	 8.9882308570e-01	-3.4506567442e-01
 8.5564970413e-01	 9.0720410777e-01	-4.0906690600e-01
 8.4677002449e-01	 9.1549780718e-01	-4.7128124196e-01
 8.3781166817e-01	 9.2370304645e-01	-5.3104168945e-01
 9.2806013629e-01	 8.4176361000e-01	 3.9667172005e-02
 9.1981619307e-01	 8.5076422272e-01	-1.7741657054e-02
 9.1148337243e-01	 8.5968578764e-01	-7.8001488744e-02
 9.0306281724e-01	 8.6852699429e-01	-1.4044678335e-01
 8.9455569599e-01	 8.7728655436e-01	-2.0440371296e-01
 8.8596320231e-01	 8.8596320231e-01	-2.6919226193e-01
 8.7728655436e-01	 8.9455569599e-01	-3.3412839032e-01
 8.6852699429e-01	 9.0306281724e-01	-3.9852625158e-01
 8.5968578764e-01	 9.1148337243e-01	-4.6170045526e-01
 8.5076422272e-01	 9.1981619307e-01	-5.2296836500e-01
 8.4176361000e-01	 9.2806013629e-01	-5.8165242186e-01
 9.3241722614e-01	 8.4571555183e-01	-1.5261502022e-02
 9.2413457895e-01	 8.5475842095e-01	-7.2401695273e-02
 9.1576263709e-01	 8.6372187115e-01	-1.3233409847e-01
 9.0730254878e-01	 8.7260458582e-01	-1.9438596628e-01
 8.9875548799e-01	 8.8140527058e-01	-2.5787591168e-01
 8.9012265396e-01	 8.9012265396e-01	-3.2211604780e-01
 8.8140527058e-01	 8.9875548799e-01	-3.8641419556e-01
 8.7260458582e-01	 9.0730254878e-01	-4.5007614809e-01
 8.6372187115e-01	 9.1576263709e-01	-5.1240798256e-01
 8.5475842095e-01	 9.2413457895e-01	-5.7271840940e-01
 8.4571555183e-01	 9.3241722614e-01	-6.3032114873e-01
 9.3677431598e-01	 8.4966749366e-01	-6.8433917192e-02
 9.2845296483e-01	 8.5875261918e-01	-1.2530670281e-01
 9.2004190175e-01	 8.6775795466e-01	-1.8490706749e-01
 9.1154228031e-01	 8.7668217734e-01	-2.4655643313e-01
 9.0295527999e-01	 8.8552398680e-01	-3.0956729348e-01
 8.9428210562e-01	 8.9428210562e-01	-3.7324539596e-01
 8.8552398680e-01	 9.0295527999e-01	-4.3689199217e-01
 8.7668217734e-01	 9.1154228031e-01	-4.9980614763e-01
 8.6775795466e-01	 9.2004190175e-01	-5.6128710134e-01
 8.5875261918e-01	 9.2845296483e-01	-6.2063666481e-01
 8.4966749366e-01	 9.3677431598e-01	-6.7716165008e-01
 9.4113140582e-01	 8.5361943549e-01	-1.1991873498e-01
 9.3277135072e-01	 8.6274681741e-01	-1.7652544967e-01
 9.2432116641e-01	 8.7179403817e-01	-2.3579030129e-01
 9.1578201185e-01	 8.8075976886e-01	-2.9703022759e-01
 9.0715507199e-01	 8.8964270301e-01	-3.5955301742e-01
 8.9844155727e-01	 8.9844155727e-01	-4.2265953140e-01
 8.8964270301e-01	 9.0715507199e-01	-4.8564599383e-01
 8.8075976886e-01	 9.1578201185e-01	-5.4780634652e-01
 8.7179403817e-01	 9.2432116641e-01	-6.0843465461e-01
 8.6274681741e-01	 9.3277135072e-01	-6.6682755409e-01
 8.5361943549e-01	 9.4113140582e-01	-7.2228672999e-01
 9.4548849566e-01	 8.5757137732e-01	-1.6978406900e-01
 9.3708973660e-01	 8.6674101564e-01	-2.2612617849e-01
 9.2860043107e-01	 8.7583012168e-01	-2.8505318301e-01
 9.2002174338e-01	 8.8483736038e-01	-3.4587886077e-01
 9.1135486399e-01	 8.9376141923e-01	-4.0790768500e-01
 9.0260100893e-01	 9.0260100893e-01	-4.7043708213e-01
 8.9376141923e-01	 9.1135486399e-01	-5.3275976383e-01
 8.8483736038e-01	 9.2002174338e-01	-5.9416612359e-01
 8.7583012168e-01	 9.2860043107e-01	-6.5394668755e-01
 8.6674101564e-01	 9.3708973660e-01	-7.1139460905e-01
 8.5757137732e-01	 9.4548849566e-01	-7.6580819572e-01
 9.4984558550e-01	 8.6152331915e-01	-2.1809744771e-01
 9.4140812248e-01	 8.7073521387e-01	-2.7417656692e-01
 9.3287969573e-01	 8.7986620519e-01	-3.3276453587e-01
 9.2426147492e-01	 8.8891495191e-01	-3.9317327426e-01
 9.1555465599e-01	 8.9788013545e-01	-4.5470530424e-01
 9.0676046058e-01	 9.0676046058e-01	-5.1665604470e-01
 8.9788013545e-01	 9.1555465599e-01	-5.7831618238e-01
 8.8891495191e-01	 9.2426147492e-01	-6.3897410976e-01
 8.7986620519e-01	 9.3287969573e-01	-6.9791841968e-01
 8.7073521387e-01	 9.4140812248e-01	-7.5444044561e-01
 8.6152331915e-01	 9.4984558550e-01	-8.0783683629e-01
 9.5420267535e-01	 8.6547526098e-01	-2.6492577696e-01
 9.4572650837e-01	 8.7472941210e-01	-3.2074368986e-01
 9.3715896039e-01	 8.8390228870e-01	-3.7899258553e-01
 9.2850120646e-01	 8.9299254343e-01	-4.3898380302e-01
 9.1975444799e-01	 9.0199885167e-01	-5.0001925346e-01
 9.1091991223e-01	 9.1091991223e-01	-5.6139374942e-01
 9.0199885167e-01	 9.1975444799e-01	-6.2239741365e-01
 8.9299254343e-01	 9.2850120646e-01	-6.8231815722e-01
 8.8390228870e-01	 9.3715896039e-01	-7.4044421663e-01
 8.7472941210e-01	 9.4572650837e-01	-7.9606673849e-01
 8.6547526098e-01	 9.5420267535e-01	-8.4848240050e-01
 9.5855976519e-01	 8.6942720281e-01	-3.1033530234e-01
 9.5004489425e-01	 8.7872361032e-01	-3.6589398143e-01
 9.4143822505e-01	 8.8793837221e-01	-4.2380492223e-01
 9.3274093799e-01	 8.9707013495e-01	-4.8338013804e-01
 9.2395423999e-01	 9.0611756788e-01	-5.4392224502e-01
 9.1507936389e-01	 9.1507936389e-01	-6.0472682534e-01
 9.0611756788e-01	 9.2395423999e-01	-6.6508487247e-01
 8.9707013495e-01	 9.3274093799e-01	-7.2428530831e-01
 8.8793837221e-01	 9.4143822505e-01	-7.8161756151e-01
 8.7872361032e-01	 9.5004489425e-01	-8.3637419549e-01
 8.6942720281e-01	 9.5855976519e-01	-8.8785357437e-01
 8.2990778450e-01	 9.1498886677e-01	-4.2353432893e-01
 8.2095731973e-01	 9.2302797155e-01	-4.8557804378e-01
 8.1193156750e-01	 9.3097727512e-01	-5.5007578608e-01
 8.0283188148e-01	 9.3883572960e-01	-6.1628055464e-01
 7.9365963460e-01	 9.4660231433e-01	-6.8346624460e-01
 7.8441621831e-01	 9.5427603634e-01	-7.5092981532e-01
 7.7510304193e-01	 9.6185593073e-01	-8.1799340660e-01
 7.6572153191e-01	 9.6934106106e-01	-8.8400639300e-01
 7.5627313113e-01	 9.7673051976e-01	-9.4834736625e-01
 7.4675929816e-01	 9.8402342843e-01	-1.0104260359e+00
 7.3718150656e-01	 9.9121893822e-01	-1.0696850383e+00
 8.3385972634e-01	 9.1934595661e-01	-4.7837421574e-01
 8.2486664030e-01	 9.2742334285e-01	-5.3928371369e-01
 8.1579790829e-01	 9.3541050024e-01	-6.0260501511e-01
 8.0665489044e-01	 9.4330637593e-01	-6.6758564056e-01
 7.9743896619e-01	 9.5110994440e-01	-7.3349556189e-01
 7.8815153364e-01	 9.5882020795e-01	-7.9962941552e-01
 7.7879400880e-01	 9.6643619707e-01	-8.6530866206e-01
 7.6936782492e-01	 9.7395697088e-01	-9.2988368190e-01
 7.5987443175e-01	 9.8138161747e-01	-9.9273579631e-01
 7.5031529482e-01	 9.8870925428e-01	-1.0532792040e+00
 7.4069189469e-01	 9.9593902840e-01	-1.1109628233e+00
 8.3781166817e-01	 9.2370304645e-01	-5.3104168945e-01
 8.2877596087e-01	 9.3181871414e-01	-5.9080954100e-01
 8.1966424909e-01	 9.3984372536e-01	-6.5296975359e-01
 8.1047789940e-01	 9.4777702226e-01	-7.1676254248e-01
 8.0121829779e-01	 9.5561757447e-01	-7.8145188344e-01
 7.9188684896e-01	 9.6336437955e-01	-8.4632777609e-01
 7.8248497566e-01	 9.7101646340e-01	-9.1070845201e-01
 7.7301411793e-01	 9.7857288069e-01	-9.7394251688e-01
 7.6347573238e-01	 9.8603271519e-01	-1.0354110160e+00
 7.5387129148e-01	 9.9339508013e-01	-1.0945294129e+00
 7.4420228281e-01	 1.0006591186e+00	-1.1507494705e+00
 8.4176361000e-01	 9.2806013629e-01	-5.8165242186e-01
 8.3268528144e-01	 9.3621408543e-01	-6.4027873885e-01
 8.2353058989e-01	 9.4427695048e-01	-7.0129759199e-01
 8.1430090836e-01	 9.5224766859e-01	-7.6394008241e-01
 8.0499762938e-01	 9.6012520454e-01	-8.2746213735e-01
 7.9562216429e-01	 9.6790855115e-01	-8.9114682826e-01
 7.8617594253e-01	 9.7559672974e-01	-9.5430663240e-01
 7.7666041094e-01	 9.8318879051e-01	-1.0162856270e+00
 7.6707703300e-01	 9.9068381290e-01	-1.0764616046e+00
 7.5742728814e-01	 9.9808090598e-01	-1.1342481002e+00
 7.4771267094e-01	 1.0053792088e+00	-1.1890963174e+00
 8.4571555183e-01	 9.3241722614e-01	-6.3032114873e-01
 8.3659460201e-01	 9.4060945673e-01	-6.8781349175e-01
 8.2739693069e-01	 9.4871017560e-01	-7.4771506044e-01
 8.1812391732e-01	 9.5671831492e-01	-8.0924605055e-01
 8.0877696097e-01	 9.6463283461e-01	-8.7165230806e-01
 7.9935747961e-01	 9.7245272275e-01	-9.3420770667e-01
 7.8986690940e-01	 9.8017699608e-01	-9.9621646797e-01
 7.8030670395e-01	 9.8780470032e-01	-1.0570154128e+00
 7.7067833362e-01	 9.9533491061e-01	-1.1159761327e+00
 7.6098328480e-01	 1.0027667318e+00	-1.1725070704e+00
 7.5122305907e-01	 1.0100992989e+00	-1.2260554987e+00
 8.4966749366e-01	 9.3677431598e-01	-6.7716165008e-01
 8.4050392258e-01	 9.4500482802e-01	-7.3353493921e-01
 8.3126327148e-01	 9.5314340072e-01	-7.9234761415e-01
 8.2194692628e-01	 9.6118896126e-01	-8.5280719119e-01
 8.1255629257e-01	 9.6914046467e-01	-9.1414742141e-01
 8.0309279494e-01	 9.7699689435e-01	-9.7563073237e-01
 7.9355787626e-01	 9.8475726241e-01	-1.0365506118e+00
 7.8395299695e-01	 9.9242061014e-01	-1.0962339215e+00
 7.7427963425e-01	 9.9998600832e-01	-1.1540431307e+00
 7.6453928145e-01	 1.0074525577e+00	-1.2093784561e+00
 7.5473344719e-01	 1.0148193891e+00	-1.2616798989e+00
 8.5361943549e-01	 9.4113140582e-01	-7.2228672999e-01
 8.4441324315e-01	 9.4940019931e-01	-7.7756315848e-01
 8.3512961228e-01	 9.5757662584e-01	-8.3531961802e-01
 8.2576993524e-01	 9.6565960759e-01	-8.9474918782e-01
 8.1633562416e-01	 9.7364809474e-01	-9.5507152903e-01
 8.0682811026e-01	 9.8154106595e-01	-1.0155353951e+00
 7.9724884313e-01	 9.8933752875e-01	-1.0754210841e+00
 7.8759928996e-01	 9.9703651995e-01	-1.1340428211e+00
 7.7788093487e-01	 1.0046371060e+00	-1.1907510579e+00
 7.6809527811e-01	 1.0121383835e+00	-1.2449346797e+00
 7.5824383532e-01	 1.0195394793e+00	-1.2960231064e+00
 8.5757137732e-01	 9.4548849566e-01	-7.6580819572e-01
 8.4832256372e-01	 9.5379557061e-01	-8.2001714681e-01
 8.3899595308e-01	 9.6200985096e-01	-8.7675433058e-01
 8.2959294420e-01	 9.7013025392e-01	-9.3519664763e-01
 8.2011495575e-01	 9.7815572481e-01	-9.9454769197e-01
 8.1056342559e-01	 9.8608523756e-01	-1.0540403350e+00
 8.0093981000e-01	 9.9391779509e-01	-1.1129392514e+00
 7.9124558297e-01	 1.0016524298e+00	-1.1705433747e+00
 7.8148223550e-01	 1.0092882038e+00	-1.2261882708e+00
 7.7165127477e-01	 1.0168242094e+00	-1.2792484155e+00
 7.6175422345e-01	 1.0242595695e+00	-1.3291393671e+00
 8.6152331915e-01	 9.4984558550e-01	-8.0783683629e-01
 8.5223188429e-01	 9.5819094190e-01	-8.6101480292e-01
 8.4286229388e-01	 9.6644307608e-01	-9.1677388723e-01
 8.3341595316e-01	 9.7460090025e-01	-9.7427308515e-01
 8.2389428735e-01	 9.8266335488e-01	-1.0326979638e+00
 8.1429874092e-01	 9.9062940916e-01	-1.0912633237e+00
 8.0463077686e-01	 9.9849806143e-01	-1.1492158035e+00
 7.9489187598e-01	 1.0062683396e+00	-1.2058364143e+00
 7.8508353612e-01	 1.0139393015e+00	-1.2604429916e+00
 7.7520727143e-01	 1.0215100352e+00	-1.3123925511e+00
 7.6526461157e-01	 1.0289796597e+00	-1.3610835381e+00
 8.6547526098e-01	 9.5420267535e-01	-8.4848240050e-01
 8.5614120486e-01	 9.6258631319e-01	-9.0067290788e-01
 8.4672863467e-01	 9.7087630120e-01	-9.5549928281e-01
 8.3723896212e-01	 9.7907154658e-01	-1.0121009054e+00
 8.2767361894e-01	 9.8717098495e-01	-1.0696433730e+00
 8.1803405624e-01	 9.9517358076e-01	-1.1273212451e+00
 8.0832174373e-01	 1.0030783278e+00	-1.1843607322e+00
 7.9853816899e-01	 1.0108842494e+00	-1.2400223141e+00
 7.8868483675e-01	 1.0185903992e+00	-1.2936032760e+00
 7.7876326809e-01	 1.0261958611e+00	-1.3444401492e+00
 7.6877499970e-01	 1.0336997499e+00	-1.3919110425e+00
 8.6942720281e-01	 9.5855976519e-01	-8.8785357437e-01
 8.6005052543e-01	 9.6698168449e-01	-9.3910710540e-01
 8.5059497547e-01	 9.7530952632e-01	-9.9305035347e-01
 8.4106197108e-01	 9.8354219291e-01	-1.0488013863e+00
 8.3145295053e-01	 9.9167861502e-01	-1.1055039046e+00
 8.2176937157e-01	 9.9971775236e-01	-1.1623300750e+00
 8.1201271059e-01	 1.0076585941e+00	-1.2184833075e+00
 8.0218446200e-01	 1.0155001592e+00	-1.2732009633e+00
 7.9228613737e-01	 1.0232414969e+00	-1.3257569818e+00
 7.8231926474e-01	 1.0308816869e+00	-1.3754644098e+00
 7.7228538783e-01	 1.0384198400e+00	-1.4216778237e+00
 7.3718150656e-01	 9.9121893822e-01	-1.0696850383e+00
 7.2754124408e-01	 9.9831623008e-01	-1.1287095986e+00
 7.1784001197e-01	 1.0053145151e+00	-1.1901146086e+00
 7.0807932415e-01	 1.0122130348e+00	-1.2534386548e+00
 6.9826070654e-01	 1.0190110612e+00	-1.3182556595e+00
 6.8838569621e-01	 1.0257078972e+00	-1.3841760767e+00
 6.7845584065e-01	 1.0323028768e+00	-1.4508479513e+00
 6.6847269701e-01	 1.0387953650e+00	-1.5179578349e+00
 6.5843783127e-01	 1.0451847585e+00	-1.5852315523e+00
 6.4835281751e-01	 1.0514704851e+00	-1.6524348148e+00
 6.3821923711e-01	 1.0576520044e+00	-1.7193736733e+00
 7.4069189469e-01	 9.9593902840e-01	-1.1109628233e+00
 7.3100572620e-01	 1.0030701169e+00	-1.1683588326e+00
 7.2125829774e-01	 1.0101017271e+00	-1.2280588160e+00
 7.1145113046e-01	 1.0170330969e+00	-1.2895927841e+00
 7.0158575752e-01	 1.0238634948e+00	-1.3525250277e+00
 6.9166372333e-01	 1.0305922205e+00	-1.4164553765e+00
 6.8168658275e-01	 1.0372186047e+00	-1.4810203198e+00
 6.7165590033e-01	 1.0437420096e+00	-1.5458939836e+00
 6.6157324951e-01	 1.0501618288e+00	-1.6107889566e+00
 6.5144021188e-01	 1.0564774875e+00	-1.6754569613e+00
 6.4125837634e-01	 1.0626884425e+00	-1.7396893652e+00
 7.4420228281e-01	 1.0006591186e+00	-1.1507494705e+00
 7.3447020831e-01	 1.0078240037e+00	-1.2066107845e+00
 7.2467658351e-01	 1.0148889391e+00	-1.2646673036e+00
 7.1482293676e-01	 1.0218531589e+00	-1.3244450310e+00
 7.0491080850e-01	 1.0287159284e+00	-1.3855036534e+00
 6.9494175046e-01	 1.0354765438e+00	-1.4474378538e+00
 6.8491732485e-01	 1.0421343327e+00	-1.5098784845e+00
 6.7483910365e-01	 1.0486886542e+00	-1.5724935947e+00
 6.6470866776e-01	 1.0551388991e+00	-1.6349893062e+00
 6.5452760625e-01	 1.0614844898e+00	-1.6971105318e+00
 6.4429751556e-01	 1.0677248807e+00	-1.7586415310e+00
 7.4771267094e-01	 1.0053792088e+00	-1.1890963174e+00
 7.3793469043e-01	 1.0125778905e+00	-1.2434981732e+00
 7.2809486928e-01	 1.0196761511e+00	-1.2999600166e+00
 7.1819474307e-01	 1.0266732210e+00	-1.3580083287e+00
 7.0823585949e-01	 1.0335683620e+00	-1.4172031328e+00
 6.9821977758e-01	 1.0403608671e+00	-1.4771393518e+00
 6.8814806695e-01	 1.0470500607e+00	-1.5374480240e+00
 6.7802230697e-01	 1.0536352988e+00	-1.5977973726e+00
 6.6784408600e-01	 1.0601159694e+00	-1.6578937197e+00
 6.5761500062e-01	 1.0664914921e+00	-1.7174822412e+00
 6.4733665478e-01	 1.0727613188e+00	-1.7763475558e+00
 7.5122305907e-01	 1.0100992989e+00	-1.2260554987e+00
 7.4139917254e-01	 1.0173317773e+00	-1.2790549165e+00
 7.3151315505e-01	 1.0244633630e+00	-1.3339583908e+00
 7.2156654937e-01	 1.0314932831e+00	-1.3902972844e+00
 7.1156091047e-01	 1.0384207957e+00	-1.4476368117e+00
 7.0149780471e-01	 1.0452451905e+00	-1.5055774322e+00
 6.9137880905e-01	 1.0519657887e+00	-1.5637561006e+00
 6.8120551029e-01	 1.0585819434e+00	-1.6218473674e+00
 6.7097950425e-01	 1.0650930396e+00	-1.6795643218e+00
 6.6070239499e-01	 1.0714984944e+00	-1.7366593717e+00
 6.5037579401e-01	 1.0777977569e+00	-1.7929248555e+00
 7.5473344719e-01	 1.0148193891e+00	-1.2616798989e+00
 7.4486365466e-01	 1.0220856641e+00	-1.3133160768e+00
 7.3493144082e-01	 1.0292505750e+00	-1.3666852936e+00
 7.2493835568e-01	 1.0363133451e+00	-1.4213281171e+00
 7.1488596146e-01	 1.0432732293e+00	-1.4768197231e+00
 7.0477583183e-01	 1.0501295138e+00	-1.5327713162e+00
 6.9460955115e-01	 1.0568815167e+00	-1.5888314058e+00
 6.8438871361e-01	 1.0635285880e+00	-1.6446869276e+00
 6.7411492249e-01	 1.0700701099e+00	-1.7000642057e+00
 6.6378978935e-01	 1.0765054967e+00	-1.7547297472e+00
 6.5341493323e-01	 1.0828341950e+00	-1.8084908647e+00
 7.5824383532e-01	 1.0195394793e+00	-1.2960231064e+00
 7.4832813677e-01	 1.0268395509e+00	-1.3463178066e+00
 7.3834972659e-01	 1.0340377870e+00	-1.3981649642e+00
 7.2831016198e-01	 1.0411334072e+00	-1.4511185959e+00
 7.1821101244e-01	 1.0481256629e+00	-1.5047685255e+00
 7.0805385896e-01	 1.0550138371e+00	-1.5587418248e+00
 6.9784029324e-01	 1.0617972447e+00	-1.6127041053e+00
 6.8757191692e-01	 1.0684752326e+00	-1.6663606523e+00
 6.7725034073e-01	 1.0750471802e+00	-1.7194573953e+00
 6.6687718372e-01	 1.0815124990e+00	-1.7717817066e+00
 6.5645407246e-01	 1.0878706331e+00	-1.8231630246e+00
 7.6175422345e-01	 1.0242595695e+00	-1.3291393671e+00
 7.5179261889e-01	 1.0315934378e+00	-1.3780972958e+00
 7.4176801236e-01	 1.0388249990e+00	-1.4284229561e+00
 7.3168196829e-01	 1.0459534693e+00	-1.4796879793e+00
 7.2153606342e-01	 1.0529780965e+00	-1.5315014423e+00
 7.1133188608e-01	 1.0598981604e+00	-1.5835113204e+00
 7.0107103534e-01	 1.0667129727e+00	-1.6354057858e+00
 6.9075512024e-01	 1.0734218772e+00	-1.6869143448e+00
 6.8038575898e-01	 1.0800242505e+00	-1.7378088070e+00
 6.6996457809e-01	 1.0865195013e+00	-1.7879040778e+00
 6.5949321168e-01	 1.0929070712e+00	-1.8370587700e+00
 7.6526461157e-01	 1.0289796597e+00	-1.3610835381e+00
 7.5525710100e-01	 1.0363473246e+00	-1.4086927178e+00
 7.4518629814e-01	 1.0436122109e+00	-1.4574860788e+00
 7.3505377459e-01	 1.0507735314e+00	-1.5070569553e+00
 7.2486111441e-01	 1.0578305302e+00	-1.5570382021e+00
 7.1460991321e-01	 1.0647824837e+00	-1.6071036495e+00
 7.0430177744e-01	 1.0716287006e+00	-1.6569694014e+00
 6.9393832356e-01	 1.0783685218e+00	-1.7063949659e+00
 6.8352117722e-01	 1.0850013208e+00	-1.7551842129e+00
 6.7305197246e-01	 1.0915265036e+00	-1.8031861507e+00
 6.6253235091e-01	 1.0979435094e+00	-1.8502955160e+00
 7.6877499970e-01	 1.0336997499e+00	-1.3919110425e+00
 7.5872158312e-01	 1.0411012114e+00	-1.4381431777e+00
 7.4860458391e-01	 1.0483994229e+00	-1.4853823409e+00
 7.3842558090e-01	 1.0555935934e+00	-1.5332475822e+00
 7.2818616539e-01	 1.0626829638e+00	-1.5813999788e+00
 7.1788794033e-01	 1.0696668071e+00	-1.6295440852e+00
 7.0753251954e-01	 1.0765444286e+00	-1.6774292213e+00
 6.9712152688e-01	 1.0833151664e+00	-1.7248505877e+00
 6.8665659547e-01	 1.0899783910e+00	-1.7716502027e+00
 6.7613936683e-01	 1.0965335059e+00	-1.8177176514e+00
 6.6557149013e-01	 1.1029799475e+00	-1.8629906440e+00
 7.7228538783e-01	 1.0384198400e+00	-1.4216778237e+00
 7.6218606523e-01	 1.0458550982e+00	-1.4664886597e+00
 7.5202286968e-01	 1.0531866349e+00	-1.5121408936e+00
 7.4179738721e-01	 1.0604136555e+00	-1.5582832294e+00
 7.3151121637e-01	 1.0675353974e+00	-1.6046093332e+00
 7.2116596746e-01	 1.0745511304e+00	-1.6508592707e+00
 7.1076326164e-01	 1.0814601566e+00	-1.6968207773e+00
 7.0030473020e-01	 1.0882618110e+00	-1.7423303487e+00
 6.8979201371e-01	 1.0949554613e+00	-1.7872741471e+00
 6.7922676120e-01	 1.1015405082e+00	-1.8315887148e+00
 6.6861062935e-01	 1.1080163856e+00	-1.8752614882e+00
 6.3821923711e-01	 1.0576520044e+00	-1.7193736733e+00
 6.2803867798e-01	 1.0637288076e+00	-1.7837006576e+00
 6.1781273377e-01	 1.0697004174e+00	-1.8431385703e+00
 6.0754300311e-01	 1.0755663887e+00	-1.8976779140e+00
 5.9723108880e-01	 1.0813263077e+00	-1.9473735925e+00
 5.8687859709e-01	 1.0869797925e+00	-1.9924030489e+00
 5.7648713687e-01	 1.0925264931e+00	-2.0371723689e+00
 5.6605831891e-01	 1.0979660909e+00	-2.0845445526e+00
 5.5559375513e-01	 1.1032982989e+00	-2.1348273563e+00
 5.4509505781e-01	 1.1085228618e+00	-2.1883604957e+00
 5.3456383887e-01	 1.1136395554e+00	-2.2455149219e+00
 6.4125837634e-01	 1.0626884425e+00	-1.7396893652e+00
 6.3102933835e-01	 1.0687941828e+00	-1.8012894350e+00
 6.2075469917e-01	 1.0747942290e+00	-1.8581540338e+00
 6.1043606503e-01	 1.0806881334e+00	-1.9102958404e+00
 6.0007504637e-01	 1.0864754806e+00	-1.9577950555e+00
 5.8967325708e-01	 1.0921558868e+00	-2.0007987002e+00
 5.7923231371e-01	 1.0977290002e+00	-2.0421071849e+00
 5.6875383472e-01	 1.1031945008e+00	-2.0863200859e+00
 5.5823943968e-01	 1.1085521003e+00	-2.1338461137e+00
 5.4769074856e-01	 1.1138015421e+00	-2.1850620333e+00
 5.3710938096e-01	 1.1189426009e+00	-2.2403780088e+00
 6.4429751556e-01	 1.0677248807e+00	-1.7586415310e+00
 6.3401999872e-01	 1.0738595581e+00	-1.8175624721e+00
 6.2369666457e-01	 1.0798880405e+00	-1.8719558282e+00
 6.1332912695e-01	 1.0858098781e+00	-1.9218419816e+00
 6.0291900393e-01	 1.0916246535e+00	-1.9673114203e+00
 5.9246791707e-01	 1.0973319810e+00	-2.0085240172e+00
 5.8197749055e-01	 1.1029315073e+00	-2.0469596356e+00
 5.7144935052e-01	 1.1084229108e+00	-2.0881386492e+00
 5.6088512423e-01	 1.1138059017e+00	-2.1329954282e+00
 5.5028643931e-01	 1.1190802223e+00	-2.1819265000e+00
 5.3965492305e-01	 1.1242456464e+00	-2.2353635742e+00
 6.4733665478e-01	 1.0727613188e+00	-1.7763475558e+00
 6.3701065910e-01	 1.0789249334e+00	-1.8326659681e+00
 6.2663862997e-01	 1.0849818520e+00	-1.8847103970e+00
 6.1622218887e-01	 1.0909316228e+00	-1.9324946723e+00
 6.0576296150e-01	 1.0967738264e+00	-1.9761047824e+00
 5.9526257705e-01	 1.1025080753e+00	-2.0156981615e+00
 5.8472266740e-01	 1.1081340144e+00	-2.0518975424e+00
 5.7414486632e-01	 1.1136513207e+00	-2.0901484300e+00
 5.6353080877e-01	 1.1190597032e+00	-2.1323967189e+00
 5.5288213007e-01	 1.1243589026e+00	-2.1790416632e+00
 5.4220046514e-01	 1.1295486919e+00	-2.2305191052e+00
 6.5037579401e-01	 1.0777977569e+00	-1.7929248555e+00
 6.4000131947e-01	 1.0839903087e+00	-1.8467456476e+00
 6.2958059537e-01	 1.0900756635e+00	-1.8965833605e+00
 6.1911525079e-01	 1.0960533675e+00	-1.9424312280e+00
 6.0860691907e-01	 1.1019229992e+00	-1.9843561706e+00
 5.9805723704e-01	 1.1076841695e+00	-2.0224981157e+00
 5.8746784424e-01	 1.1133365215e+00	-2.0570879624e+00
 5.7684038213e-01	 1.1188797307e+00	-2.0924971815e+00
 5.6617649332e-01	 1.1243135046e+00	-2.1321714306e+00
 5.5547782082e-01	 1.1296375829e+00	-2.1764959011e+00
 5.4474600723e-01	 1.1348517374e+00	-2.2258934058e+00
 6.5341493323e-01	 1.0828341950e+00	-1.8084908647e+00
 6.4299197984e-01	 1.0890556839e+00	-1.8599467624e+00
 6.3252256077e-01	 1.0951694750e+00	-1.9077395274e+00
 6.2200831271e-01	 1.1011751122e+00	-1.9518279632e+00
 6.1145087663e-01	 1.1070721721e+00	-1.9922455670e+00
 6.0085189702e-01	 1.1128602638e+00	-2.0290999113e+00
 5.9021302108e-01	 1.1185390286e+00	-2.0625717964e+00
 5.7953589793e-01	 1.1241081406e+00	-2.0953322600e+00
 5.6882217787e-01	 1.1295673060e+00	-2.1324410602e+00
 5.5807351157e-01	 1.1349162632e+00	-2.1743782155e+00
 5.4729154932e-01	 1.1401547829e+00	-2.2215365926e+00
 6.5645407246e-01	 1.0878706331e+00	-1.8231630246e+00
 6.4598264021e-01	 1.0941210592e+00	-1.8724140920e+00
 6.3546452617e-01	 1.1002632865e+00	-1.9183429051e+00
 6.2490137463e-01	 1.1062968569e+00	-1.9608602069e+00
 6.1429483420e-01	 1.1122213450e+00	-1.9999519265e+00
 6.0364655701e-01	 1.1180363580e+00	-2.0356786472e+00
 5.9295819792e-01	 1.1237415358e+00	-2.0681748415e+00
 5.8223141374e-01	 1.1293365506e+00	-2.0988006615e+00
 5.7146786242e-01	 1.1348211074e+00	-2.1333271829e+00
 5.6066920232e-01	 1.1401949435e+00	-2.1727782441e+00
 5.4983709141e-01	 1.1454578284e+00	-2.2175000915e+00
 6.5949321168e-01	 1.0929070712e+00	-1.8370587700e+00
 6.4897330058e-01	 1.0991864345e+00	-1.8842919436e+00
 6.3840649157e-01	 1.1053570980e+00	-1.9285567091e+00
 6.2779443655e-01	 1.1114186016e+00	-1.9697023189e+00
 6.1713879176e-01	 1.1173705179e+00	-2.0076531944e+00
 6.0644121700e-01	 1.1232124523e+00	-2.0424085070e+00
 5.9570337476e-01	 1.1289440429e+00	-2.0740415205e+00
 5.8492692954e-01	 1.1345649606e+00	-2.1030490576e+00
 5.7411354697e-01	 1.1400749089e+00	-2.1349514772e+00
 5.6326489307e-01	 1.1454736238e+00	-2.1717862735e+00
 5.5238263350e-01	 1.1507608739e+00	-2.2138366339e+00
 6.6253235091e-01	 1.0979435094e+00	-1.8502955160e+00
 6.5196396095e-01	 1.1042518098e+00	-1.8957241514e+00
 6.4134845697e-01	 1.1104509095e+00	-1.9385433708e+00
 6.3068749847e-01	 1.1165403463e+00	-1.9785277030e+00
 6.1998274933e-01	 1.1225196908e+00	-2.0155263237e+00
 6.0923587698e-01	 1.1283885465e+00	-2.0494627754e+00
 5.9844855161e-01	 1.1341465500e+00	-2.0803344445e+00
 5.8762244535e-01	 1.1397933705e+00	-2.1082238297e+00
 5.7675923152e-01	 1.1453287103e+00	-2.1374357503e+00
 5.6586058382e-01	 1.1507523041e+00	-2.1714932506e+00
 5.5492817559e-01	 1.1560639194e+00	-2.2106002538e+00
 6.6557149013e-01	 1.1029799475e+00	-1.8629906440e+00
 6.5495462132e-01	 1.1093171850e+00	-1.9068540748e+00
 6.4429042236e-01	 1.1155447210e+00	-1.9484645453e+00
 6.3358056039e-01	 1.1216620911e+00	-1.9875088204e+00
 6.2282670689e-01	 1.1276688637e+00	-2.0237472899e+00
 6.1203053697e-01	 1.1335646408e+00	-2.0570138533e+00
 6.0119372845e-01	 1.1393490571e+00	-2.0872155575e+00
 5.9031796115e-01	 1.1450217805e+00	-2.1143319870e+00
 5.7940491606e-01	 1.1505825117e+00	-2.1409019617e+00
 5.6845627458e-01	 1.1560309844e+00	-2.1719907946e+00
 5.5747371768e-01	 1.1613669649e+00	-2.2078462846e+00
 6.6861062935e-01	 1.1080163856e+00	-1.8752614882e+00
 6.5794528170e-01	 1.1143825603e+00	-1.9178245963e+00
 6.4723238776e-01	 1.1206385326e+00	-1.9584811176e+00
 6.3647362231e-01	 1.1267838358e+00	-1.9968172016e+00
 6.2567066446e-01	 1.1328180366e+00	-2.0324911060e+00
 6.1482519695e-01	 1.1387407350e+00	-2.0652332719e+00
 6.0393890529e-01	 1.1445515642e+00	-2.0948461478e+00
 5.9301347695e-01	 1.1502501904e+00	-2.1212037624e+00
 5.8205060061e-01	 1.1558363131e+00	-2.1454722474e+00
 5.7105196533e-01	 1.1613096647e+00	-2.1733712094e+00
 5.6001925977e-01	 1.1666700104e+00	-2.2056313567e+00
 5.3456383887e-01	 1.1136395554e+00	-2.2455149219e+00
 5.2400170912e-01	 1.1186481868e+00	-2.3038135447e+00
 5.1341027752e-01	 1.1235485944e+00	-2.3604196542e+00
 5.0279115047e-01	 1.1283406472e+00	-2.4151912875e+00
 4.9214593108e-01	 1.1330242449e+00	-2.4679912732e+00
 4.8147621849e-01	 1.1375993179e+00	-2.5186871729e+00
 4.7078360715e-01	 1.1420658266e+00	-2.5671511405e+00
 4.6006968614e-01	 1.1464237615e+00	-2.6132597048e+00
 4.4933603850e-01	 1.1506731428e+00	-2.6568934792e+00
 4.3858424058e-01	 1.1548140201e+00	-2.6979368043e+00
 4.2781586137e-01	 1.1588464721e+00	-2.7362773288e+00
 5.3710938096e-01	 1.1189426009e+00	-2.2403780088e+00
 5.2649695535e-01	 1.1239750830e+00	-2.2971256427e+00
 5.1585508836e-01	 1.1288988258e+00	-2.3522099464e+00
 5.0518539404e-01	 1.1337136979e+00	-2.4054286895e+00
 4.9448948313e-01	 1.1384195985e+00	-2.4565837066e+00
 4.8376896239e-01	 1.1430164575e+00	-2.5054809314e+00
 4.7302543385e-01	 1.1475042353e+00	-2.5519303455e+00
 4.6226049416e-01	 1.1518829223e+00	-2.5957458481e+00
 4.5147573392e-01	 1.1561525387e+00	-2.6367450499e+00
 4.4067273696e-01	 1.1603131345e+00	-2.6747489969e+00
 4.2985307975e-01	 1.1643647886e+00	-2.7095818300e+00
 5.3965492305e-01	 1.1242456464e+00	-2.2353635742e+00
 5.2899220159e-01	 1.1293019791e+00	-2.2904135912e+00
 5.1829989921e-01	 1.1342490572e+00	-2.3437107773e+00
 5.0757963761e-01	 1.1390867486e+00	-2.3950062716e+00
 4.9683303518e-01	 1.1438149520e+00	-2.4440549369e+00
 4.8606170628e-01	 1.1484335971e+00	-2.4906154620e+00
 4.7526726055e-01	 1.1529426440e+00	-2.5344503764e+00
 4.6445130219e-01	 1.1573420831e+00	-2.5753259821e+00
 4.5361542934e-01	 1.1616319347e+00	-2.6130122071e+00
 4.4276123335e-01	 1.1658122489e+00	-2.6472823866e+00
 4.3189029814e-01	 1.1698831051e+00	-2.6779129761e+00
 5.4220046514e-01	 1.1295486919e+00	-2.2305191052e+00
 5.3148744782e-01	 1.1346288752e+00	-2.2836845099e+00
 5.2074471005e-01	 1.1395992886e+00	-2.3348950458e+00
 5.0997388119e-01	 1.1444597993e+00	-2.3838686565e+00
 4.9917658724e-01	 1.1492103056e+00	-2.4303270500e+00
 4.8835445018e-01	 1.1538507367e+00	-2.4739958457e+00
 4.7750908725e-01	 1.1583810527e+00	-2.5146046308e+00
 4.6664211022e-01	 1.1628012438e+00	-2.5518869301e+00
 4.5575512476e-01	 1.1671113306e+00	-2.5855800951e+00
 4.4484972973e-01	 1.1713113632e+00	-2.6154251178e+00
 4.3392751653e-01	 1.1754014217e+00	-2.6411663732e+00
 5.4474600723e-01	 1.1348517374e+00	-2.2258934058e+00
 5.3398269406e-01	 1.1399557714e+00	-2.2769475389e+00
 5.2318952090e-01	 1.1449495200e+00	-2.3257382580e+00
 5.1236812476e-01	 1.1498328500e+00	-2.3719635467e+00
 5.0152013929e-01	 1.1546056591e+00	-2.4153255739e+00
 4.9064719408e-01	 1.1592678764e+00	-2.4555308617e+00
 4.7975091395e-01	 1.1638194614e+00	-2.4922903585e+00
 4.6883291825e-01	 1.1682604046e+00	-2.5253194242e+00
 4.5789482018e-01	 1.1725907265e+00	-2.5543377299e+00
 4.4693822611e-01	 1.1768104776e+00	-2.5790852041e+00
 4.3596473492e-01	 1.1809197382e+00	-2.6020471959e+00
 5.4729154932e-01	 1.1401547829e+00	-2.2215365926e+00
 5.3647794029e-01	 1.1452826675e+00	-2.2702138192e+00
 5.2563433175e-01	 1.1502997514e+00	-2.3162184927e+00
 5.1476236833e-01	 1.1552059007e+00	-2.3592416783e+00
 5.0386369134e-01	 1.1600010127e+00	-2.3989794240e+00
 4.9293993798e-01	 1.1646850160e+00	-2.4351329262e+00
 4.8199274065e-01	 1.1692578701e+00	-2.4674085969e+00
 4.7102372628e-01	 1.1737195654e+00	-2.4955180386e+00
 4.6003451561e-01	 1.1780701224e+00	-2.5195284034e+00
 4.4902672250e-01	 1.1823095920e+00	-2.5428574289e+00
 4.3800195330e-01	 1.1864380548e+00	-2.5660939649e+00
 5.4983709141e-01	 1.1454578284e+00	-2.2175000915e+00
 5.3897318652e-01	 1.1506095636e+00	-2.2634964721e+00
 5.2807914259e-01	 1.1556499828e+00	-2.3063163684e+00
 5.1715661191e-01	 1.1605789514e+00	-2.3456567769e+00
 5.0620724339e-01	 1.1653963662e+00	-2.3812208496e+00
 4.9523268187e-01	 1.1701021556e+00	-2.4127180333e+00
 4.8423456735e-01	 1.1746962788e+00	-2.4398641070e+00
 4.7321453431e-01	 1.1791787261e+00	-2.4633659171e+00
 4.6217421103e-01	 1.1835495183e+00	-2.4868439232e+00
 4.5111521888e-01	 1.1878087064e+00	-2.5103056384e+00
 4.4003917169e-01	 1.1919563713e+00	-2.5333200702e+00
 5.5238263350e-01	 1.1507608739e+00	-2.2138366339e+00
 5.4146843276e-01	 1.1559364597e+00	-2.2568105805e+00
 5.3052395344e-01	 1.1610002142e+00	-2.2960150104e+00
 5.1955085548e-01	 1.1659520021e+00	-2.3311655143e+00
 5.0855079545e-01	 1.1707917198e+00	-2.3619853830e+00
 4.9752542577e-01	 1.1755192952e+00	-2.3882056973e+00
 4.8647639405e-01	 1.1801346875e+00	-2.4113302141e+00
 4.7540534234e-01	 1.1846378869e+00	-2.4347420200e+00
 4.6431390645e-01	 1.1890289142e+00	-2.4581875937e+00
 4.5320371526e-01	 1.1933078208e+00	-2.4812722331e+00
 4.4207639008e-01	 1.1974746878e+00	-2.5035784884e+00
 5.5492817559e-01	 1.1560639194e+00	-2.2106002538e+00
 5.4396367899e-01	 1.1612633559e+00	-2.2501731698e+00
 5.3296876428e-01	 1.1663504456e+00	-2.2853000197e+00
 5.2194509905e-01	 1.1713250528e+00	-2.3157274668e+00
 5.1089434750e-01	 1.1761870733e+00	-2.3412117891e+00
 4.9981816967e-01	 1.1809364348e+00	-2.3640821329e+00
 4.8871822075e-01	 1.1855730962e+00	-2.3872816708e+00
 4.7759615037e-01	 1.1900970477e+00	-2.4105015708e+00
 4.6645360187e-01	 1.1945083102e+00	-2.4333975410e+00
 4.5529221165e-01	 1.1988069351e+00	-2.4556016640e+00
 4.4411360847e-01	 1.2029930044e+00	-2.4767241001e+00
 5.5747371768e-01	 1.1613669649e+00	-2.2078462846e+00
 5.4645892523e-01	 1.1665902520e+00	-2.2436031908e+00
 5.3541357513e-01	 1.1717006770e+00	-2.2741594426e+00
 5.2433934263e-01	 1.1766981035e+00	-2.2993114323e+00
 5.1323789955e-01	 1.1815824269e+00	-2.3221207635e+00
 5.0211091357e-01	 1.1863535744e+00	-2.3450932983e+00
 4.9096004745e-01	 1.1910115049e+00	-2.3679741956e+00
 4.7978695840e-01	 1.1955562084e+00	-2.3904827259e+00
 4.6859329729e-01	 1.1999877061e+00	-2.4123139457e+00
 4.5738070803e-01	 1.2043060495e+00	-2.4331403695e+00
 4.4615082685e-01	 1.2085113209e+00	-2.4526136319e+00
 5.6001925977e-01	 1.1666700104e+00	-2.2056313567e+00
 5.4895417146e-01	 1.1719171481e+00	-2.2371215017e+00
 5.3785838597e-01	 1.1770509084e+00	-2.2626240135e+00
 5.2673358620e-01	 1.1820711542e+00	-2.2857000434e+00
 5.1558145161e-01	 1.1869777804e+00	-2.3086201273e+00
 5.0440365746e-01	 1.1917707140e+00	-2.3312052275e+00
 4.9320187415e-01	 1.1964499136e+00	-2.3532502423e+00
 4.8197776643e-01	 1.2010153692e+00	-2.3745256213e+00
 4.7073299271e-01	 1.2054671020e+00	-2.3947789810e+00
 4.5946920442e-01	 1.2098051639e+00	-2.4137367161e+00
 4.4818804524e-01	 1.2140296374e+00	-2.4311056003e+00
 4.2781586137e-01	 1.1588464721e+00	-2.7362773288e+00
 4.1703246186e-01	 1.1627706063e+00	-2.7721703977e+00
 4.0623559446e-01	 1.1665865587e+00	-2.8058902162e+00
 3.9542680232e-01	 1.1702944933e+00	-2.8373575140e+00
 3.8460761879e-01	 1.1738946020e+00	-2.8664959587e+00
 3.7377956681e-01	 1.1773871039e+00	-2.8933594988e+00
 3.6294415835e-01	 1.1807722452e+00	-2.9203432606e+00
 3.5210289385e-01	 1.1840502984e+00	-2.9481528633e+00
 3.4125726170e-01	 1.1872215625e+00	-2.9764833316e+00
 3.3040873768e-01	 1.1902863618e+00	-3.0050196724e+00
 3.1955878450e-01	 1.1932450462e+00	-3.0334379191e+00
 4.2985307975e-01	 1.1643647886e+00	-2.7095818300e+00
 4.1901833073e-01	 1.1683076092e+00	-2.7414695607e+00
 4.0817004967e-01	 1.1721417328e+00	-2.7707204897e+00
 3.9730978709e-01	 1.1758673242e+00	-2.7972868202e+00
 3.8643908364e-01	 1.1794845763e+00	-2.8224902119e+00
 3.7555946951e-01	 1.1829937092e+00	-2.8486658481e+00
 3.6467246387e-01	 1.1863949702e+00	-2.8756033527e+00
 3.5377957430e-01	 1.1896886332e+00	-2.9030257056e+00
 3.4288229628e-01	 1.1928749985e+00	-2.9306444156e+00
 3.3198211262e-01	 1.1959543921e+00	-2.9581605953e+00
 3.2108049299e-01	 1.1989271655e+00	-2.9852660072e+00
 4.3189029814e-01	 1.1698831051e+00	-2.6779129761e+00
 4.2100419960e-01	 1.1738446121e+00	-2.7051192168e+00
 4.1010450488e-01	 1.1776969069e+00	-2.7294738977e+00
 3.9919277187e-01	 1.1814401552e+00	-2.7539677228e+00
 3.8827054849e-01	 1.1850745506e+00	-2.7793814770e+00
 3.7733937221e-01	 1.1886003145e+00	-2.8054848484e+00
 3.6640076938e-01	 1.1920176951e+00	-2.8320333767e+00
 3.5545625475e-01	 1.1953269679e+00	-2.8587695790e+00
 3.4450733086e-01	 1.1985284345e+00	-2.8854240502e+00
 3.3355548756e-01	 1.2016224224e+00	-2.9117165391e+00
 3.2260220149e-01	 1.2046092848e+00	-2.9373569936e+00
 4.3392751653e-01	 1.1754014217e+00	-2.6411663732e+00
 4.2299006846e-01	 1.1793816149e+00	-2.6642458791e+00
 4.1203896009e-01	 1.1832520809e+00	-2.6881265338e+00
 4.0107575664e-01	 1.1870129861e+00	-2.7127963893e+00
 3.9010201334e-01	 1.1906645249e+00	-2.7380641475e+00
 3.7911927491e-01	 1.1942069197e+00	-2.7637227008e+00
 3.6812907490e-01	 1.1976404201e+00	-2.7895502775e+00
 3.5713293519e-01	 1.2009653027e+00	-2.8153115652e+00
 3.4613236544e-01	 1.2041818705e+00	-2.8407588100e+00
 3.3512886250e-01	 1.2072904527e+00	-2.8656328898e+00
 3.2412390999e-01	 1.2102914040e+00	-2.8896643586e+00
 4.3596473492e-01	 1.1809197382e+00	-2.6020471959e+00
 4.2497593733e-01	 1.1849186178e+00	-2.6253618362e+00
 4.1397341531e-01	 1.1888072550e+00	-2.6492990251e+00
 4.0295874141e-01	 1.1925858170e+00	-2.6737115141e+00
 3.9193347820e-01	 1.1962544992e+00	-2.6984345106e+00
 3.8089917761e-01	 1.1998135250e+00	-2.7232868374e+00
 3.6985738041e-01	 1.2032631451e+00	-2.7480720736e+00
 3.5880961564e-01	 1.2066036375e+00	-2.7725796732e+00
 3.4775740002e-01	 1.2098353065e+00	-2.7965860611e+00
 3.3670223745e-01	 1.2129584830e+00	-2.8198557017e+00
 3.2564561849e-01	 1.2159735233e+00	-2.8421421396e+00
 4.3800195330e-01	 1.1864380548e+00	-2.5660939649e+00
 4.2696180619e-01	 1.1904556207e+00	-2.5893246713e+00
 4.1590787052e-01	 1.1943624291e+00	-2.6128655529e+00
 4.0484172618e-01	 1.1981586479e+00	-2.6365992442e+00
 3.9376494305e-01	 1.2018444735e+00	-2.6603902065e+00
 3.8267908031e-01	 1.2054201302e+00	-2.6840858808e+00
 3.7158568593e-01	 1.2088858701e+00	-2.7075178210e+00
 3.6048629609e-01	 1.2122419722e+00	-2.7305028068e+00
 3.4938243460e-01	 1.2154887425e+00	-2.7528439330e+00
 3.3827561239e-01	 1.2186265133e+00	-2.7743316722e+00
 3.2716732698e-01	 1.2216556426e+00	-2.7947449094e+00
 4.4003917169e-01	 1.1919563713e+00	-2.5333200702e+00
 4.2894767506e-01	 1.1959926236e+00	-2.5559980013e+00
 4.1784232573e-01	 1.1999176032e+00	-2.5787019507e+00
 4.0672471096e-01	 1.2037314788e+00	-2.6013472035e+00
 3.9559640790e-01	 1.2074344478e+00	-2.6238301853e+00
 3.8445898300e-01	 1.2110267355e+00	-2.6460296047e+00
 3.7331399145e-01	 1.2145085951e+00	-2.6678075781e+00
 3.6216297653e-01	 1.2178803070e+00	-2.6890107333e+00
 3.5100746918e-01	 1.2211421786e+00	-2.7094712905e+00
 3.3984898733e-01	 1.2242945436e+00	-2.7290081170e+00
 3.2868903548e-01	 1.2273377618e+00	-2.7474277539e+00
 4.4207639008e-01	 1.1974746878e+00	-2.5035784884e+00
 4.3093354393e-01	 1.2015296265e+00	-2.5252472216e+00
 4.1977678094e-01	 1.2054727773e+00	-2.5466856523e+00
 4.0860769573e-01	 1.2093043098e+00	-2.5678444458e+00
 3.9742787275e-01	 1.2130244221e+00	-2.5886546640e+00
 3.8623888570e-01	 1.2166333407e+00	-2.6090288960e+00
 3.7504229696e-01	 1.2201313200e+00	-2.6288623713e+00
 3.6383965698e-01	 1.2235186417e+00	-2.6480340529e+00
 3.5263250376e-01	 1.2267956146e+00	-2.6664077068e+00
 3.4142236227e-01	 1.2299625739e+00	-2.6838329468e+00
 3.3021074398e-01	 1.2330198811e+00	-2.7001462522e+00
 4.4411360847e-01	 1.2029930044e+00	-2.4767241001e+00
 4.3291941279e-01	 1.2070666294e+00	-2.4969394517e+00
 4.2171123615e-01	 1.2110279514e+00	-2.5166956424e+00
 4.1049068050e-01	 1.2148771407e+00	-2.5359814091e+00
 3.9925933760e-01	 1.2186143964e+00	-2.5547650854e+00
 3.8801878840e-01	 1.2222399460e+00	-2.5729957170e+00
 3.7677060248e-01	 1.2257540450e+00	-2.5906041619e+00
 3.6551633743e-01	 1.2291569765e+00	-2.6075041693e+00
 3.5425753833e-01	 1.2324490506e+00	-2.6235934370e+00
 3.4299573721e-01	 1.2356306042e+00	-2.6387546439e+00
 3.3173245248e-01	 1.2387020004e+00	-2.6528564556e+00
 4.4615082685e-01	 1.2085113209e+00	-2.4526136319e+00
 4.3490528166e-01	 1.2126036323e+00	-2.4709434820e+00
 4.2364569137e-01	 1.2165831255e+00	-2.4886124073e+00
 4.1237366528e-01	 1.2204499716e+00	-2.5056498714e+00
 4.0109080245e-01	 1.2242043707e+00	-2.5220640779e+00
 3.8979869110e-01	 1.2278465513e+00	-2.5378430700e+00
 3.7849890799e-01	 1.2313767700e+00	-2.5529558134e+00
 3.6719301787e-01	 1.2347953112e+00	-2.5673532606e+00
 3.5588257291e-01	 1.2381024866e+00	-2.5809693930e+00
 3.4456911215e-01	 1.2412986345e+00	-2.5937222395e+00
 3.3325416097e-01	 1.2443841196e+00	-2.6055148680e+00
 4.4818804524e-01	 1.2140296374e+00	-2.4311056003e+00
 4.3689115052e-01	 1.2181406352e+00	-2.4471297216e+00
 4.2558014658e-01	 1.2221382996e+00	-2.4623178879e+00
 4.1425665005e-01	 1.2260228025e+00	-2.4767429074e+00
 4.0292226730e-01	 1.2297943450e+00	-2.4904554169e+00
 3.9157859380e-01	 1.2334531565e+00	-2.5034849616e+00
 3.8022721351e-01	 1.2369994950e+00	-2.5158410602e+00
 3.6886969832e-01	 1.2404336460e+00	-2.5275142513e+00
 3.5750760749e-01	 1.2437559226e+00	-2.5384771183e+00
 3.4614248709e-01	 1.2469666648e+00	-2.5486852920e+00
 3.3477586947e-01	 1.2500662389e+00	-2.5580784270e+00
 3.1955878450e-01	 1.1932450462e+00	-3.0334379191e+00
 3.0870885126e-01	 1.1960979902e+00	-3.0611823666e+00
 2.9786037301e-01	 1.1988455928e+00	-3.0879302465e+00
 2.8701477029e-01	 1.2014882766e+00	-3.1136932364e+00
 2.7617344865e-01	 1.2040264878e+00	-3.1384732535e+00
 2.6533779827e-01	 1.2064606955e+00	-3.1622629749e+00
 2.5450919351e-01	 1.2087913912e+00	-3.1850463357e+00
 2.4368899255e-01	 1.2110190882e+00	-3.2067990040e+00
 2.3287853700e-01	 1.2131443212e+00	-3.2274888337e+00
 2.2207915152e-01	 1.2151676459e+00	-3.2470762939e+00
 2.1129214350e-01	 1.2170896381e+00	-3.2655148758e+00
 3.2108049299e-01	 1.1989271655e+00	-2.9852660072e+00
 3.1017889340e-01	 1.2017936950e+00	-3.0114239659e+00
 2.9927875574e-01	 1.2045543813e+00	-3.0363467702e+00
 2.8838150729e-01	 1.2072096493e+00	-3.0600859086e+00
 2.7748856031e-01	 1.2097599473e+00	-3.0826834608e+00
 2.6660131159e-01	 1.2122057465e+00	-3.1041725688e+00
 2.5572114205e-01	 1.2145475407e+00	-3.1245778854e+00
 2.4484941633e-01	 1.2167858458e+00	-3.1439160013e+00
 2.3398748241e-01	 1.2189211989e+00	-3.1621958478e+00
 2.2313667129e-01	 1.2209541585e+00	-3.1794190781e+00
 2.1229829657e-01	 1.2228853031e+00	-3.1955804251e+00
 3.2260220149e-01	 1.2046092848e+00	-2.9373569936e+00
 3.1164893555e-01	 1.2074893997e+00	-2.9618357645e+00
 3.0069713847e-01	 1.2102631698e+00	-2.9849015759e+00
 2.8974824429e-01	 1.2129310221e+00	-3.0066380932e+00
 2.7880367197e-01	 1.2154934067e+00	-3.0271198691e+00
 2.6786482492e-01	 1.2179507974e+00	-3.0464127768e+00
 2.5693309059e-01	 1.2203036902e+00	-3.0645744205e+00
 2.4600984010e-01	 1.2225526033e+00	-3.0816545227e+00
 2.3509642783e-01	 1.2246980767e+00	-3.0976952897e+00
 2.2419419106e-01	 1.2267406711e+00	-3.1127317526e+00
 2.1330444963e-01	 1.2286809680e+00	-3.1267920866e+00
 3.2412390999e-01	 1.2102914040e+00	-2.8896643586e+00
 3.1311897770e-01	 1.2131851044e+00	-2.9123779014e+00
 3.0211552120e-01	 1.2159719584e+00	-2.9335594037e+00
 2.9111498129e-01	 1.2186523948e+00	-2.9533171807e+00
 2.8011878363e-01	 1.2212268662e+00	-2.9717506772e+00
 2.6912833824e-01	 1.2236958483e+00	-2.9889508730e+00
 2.5814503913e-01	 1.2260598397e+00	-3.0050006650e+00
 2.4717026388e-01	 1.2283193609e+00	-3.0199752272e+00
 2.3620537324e-01	 1.2304749544e+00	-3.0339423464e+00
 2.2525171083e-01	 1.2325271837e+00	-3.0469627346e+00
 2.1431060270e-01	 1.2344766329e+00	-3.0590903193e+00
 3.2564561849e-01	 1.2159735233e+00	-2.8421421396e+00
 3.1458901985e-01	 1.2188808091e+00	-2.8630109879e+00
 3.0353390393e-01	 1.2216807469e+00	-2.8822854176e+00
 2.9248171829e-01	 1.2243737676e+00	-2.9000909733e+00
 2.8143389529e-01	 1.2269603257e+00	-2.9165445168e+00
 2.7039185157e-01	 1.2294408993e+00	-2.9317546160e+00
 2.5935698767e-01	 1.2318159892e+00	-2.9458219095e+00
 2.4833068765e-01	 1.2340861185e+00	-2.9588394483e+00
 2.3731431866e-01	 1.2362518321e+00	-2.9708930126e+00
 2.2630923060e-01	 1.2383136963e+00	-2.9820614059e+00
 2.1531675576e-01	 1.2402722979e+00	-2.9924167244e+00
 3.2716732698e-01	 1.2216556426e+00	-2.7947449094e+00
 3.1605906200e-01	 1.2245765138e+00	-2.8136960874e+00
 3.0495228665e-01	 1.2273895354e+00	-2.8310451880e+00
 2.9384845529e-01	 1.2300951403e+00	-2.8469276678e+00
 2.8274900695e-01	 1.2326937851e+00	-2.8614704350e+00
 2.7165536489e-01	 1.2351859502e+00	-2.8747922315e+00
 2.6056893621e-01	 1.2375721386e+00	-2.8870039911e+00
 2.4949111142e-01	 1.2398528760e+00	-2.8982091724e+00
 2.3842326407e-01	 1.2420287098e+00	-2.9085040673e+00
 2.2736675036e-01	 1.2441002089e+00	-2.9179780854e+00
 2.1632290883e-01	 1.2460679628e+00	-2.9267140133e+00
 3.2868903548e-01	 1.2273377618e+00	-2.7474277539e+00
 3.1752910415e-01	 1.2302722185e+00	-2.7643946967e+00
 3.0637066938e-01	 1.2330983240e+00	-2.7798046740e+00
 2.9521519230e-01	 1.2358165130e+00	-2.7937958390e+00
 2.8406411861e-01	 1.2384272446e+00	-2.8064978775e+00
 2.7291887822e-01	 1.2409310011e+00	-2.8180323944e+00
 2.6178088475e-01	 1.2433282881e+00	-2.8285132747e+00
 2.5065153520e-01	 1.2456196336e+00	-2.8380470181e+00
 2.3953220949e-01	 1.2478055875e+00	-2.8467330494e+00
 2.2842427013e-01	 1.2498867215e+00	-2.8546640022e+00
 2.1732906189e-01	 1.2518636278e+00	-2.8619259782e+00
 3.3021074398e-01	 1.2330198811e+00	-2.7001462522e+00
 3.1899914630e-01	 1.2359679232e+00	-2.7150687276e+00
 3.0778905211e-01	 1.2388071125e+00	-2.7285302063e+00
 2.9658192930e-01	 1.2415378858e+00	-2.7406644228e+00
 2.8537923027e-01	 1.2441607041e+00	-2.7515966723e+00
 2.7418239154e-01	 1.2466760521e+00	-2.7614442119e+00
 2.6299283329e-01	 1.2490844376e+00	-2.7703166345e+00
 2.5181195897e-01	 1.2513863911e+00	-2.7783162157e+00
 2.4064115490e-01	 1.2535824653e+00	-2.7855382352e+00
 2.2948178990e-01	 1.2556732341e+00	-2.7920712696e+00
 2.1833521495e-01	 1.2576592927e+00	-2.7979974613e+00
 3.3173245248e-01	 1.2387020004e+00	-2.6528564556e+00
 3.2046918845e-01	 1.2416636280e+00	-2.6656804882e+00
 3.0920743484e-01	 1.2445159011e+00	-2.6771884707e+00
 2.9794866630e-01	 1.2472592585e+00	-2.6875027011e+00
 2.8669434193e-01	 1.2498941635e+00	-2.6967370141e+00
 2.7544590487e-01	 1.2524211030e+00	-2.7049972069e+00
 2.6420478183e-01	 1.2548405871e+00	-2.7123814361e+00
 2.5297238275e-01	 1.2571531487e+00	-2.7189805872e+00
 2.4175010031e-01	 1.2593593430e+00	-2.7248786156e+00
 2.3053930967e-01	 1.2614597467e+00	-2.7301528597e+00
 2.1934136802e-01	 1.2634549577e+00	-2.7348743272e+00
 3.3325416097e-01	 1.2443841196e+00	-2.6055148680e+00
 3.2193923060e-01	 1.2473593327e+00	-2.6161926661e+00
 3.1062581757e-01	 1.2502246896e+00	-2.6257464920e+00
 2.9931540330e-01	 1.2529806313e+00	-2.6342802857e+00
 2.8800945359e-01	 1.2556276230e+00	-2.6418894483e+00
 2.7670941819e-01	 1.2581661539e+00	-2.6486613016e+00
 2.6541673038e-01	 1.2605967366e+00	-2.6546755191e+00
 2.5413280652e-01	 1.2629199063e+00	-2.6600045268e+00
 2.4285904573e-01	 1.2651362207e+00	-2.6647138748e+00
 2.3159682944e-01	 1.2672462593e+00	-2.6688625789e+00
 2.2034752108e-01	 1.2692506226e+00	-2.6725034339e+00
 3.3477586947e-01	 1.2500662389e+00	-2.5580784270e+00
 3.2340927274e-01	 1.2530550374e+00	-2.5665683110e+00
 3.1204420030e-01	 1.2559334781e+00	-2.5741716182e+00
 3.0068214030e-01	 1.2587020040e+00	-2.5809671038e+00
 2.8932456525e-01	 1.2613610825e+00	-2.5870248563e+00
 2.7797293152e-01	 1.2639112049e+00	-2.5924068022e+00
 2.6662867892e-01	 1.2663528861e+00	-2.5971671800e+00
 2.5529323030e-01	 1.2686866638e+00	-2.6013529827e+00
 2.4396799114e-01	 1.2709130984e+00	-2.6050043691e+00
 2.3265434921e-01	 1.2730327719e+00	-2.6081550437e+00
 2.2135367415e-01	 1.2750462875e+00	-2.6108326062e+00
 2.1129214350e-01	 1.2170896381e+00	-3.2655148758e+00
 2.0051880275e-01	 1.2189108937e+00	-3.2828746715e+00
 1.8976040113e-01	 1.2206320278e+00	-3.2992809638e+00
 1.7901819232e-01	 1.2222536741e+00	-3.3147605877e+00
 1.6829341152e-01	 1.2237764848e+00	-3.3293346059e+00
 1.5758727517e-01	 1.2252011295e+00	-3.3430184780e+00
 1.4690098074e-01	 1.2265282952e+00	-3.3558222131e+00
 1.3623570648e-01	 1.2277586853e+00	-3.3677505048e+00
 1.2559261121e-01	 1.2288930194e+00	-3.3788028519e+00
 1.1497283415e-01	 1.2299320325e+00	-3.3889736628e+00
 1.0437749469e-01	 1.2308764746e+00	-3.3982523470e+00
 2.1229829657e-01	 1.2228853031e+00	-3.1955804251e+00
 2.0147365419e-01	 1.2247152313e+00	-3.2107899962e+00
 1.9066402209e-01	 1.2264445613e+00	-3.2251813992e+00
 1.7987065991e-01	 1.2280739297e+00	-3.2387750806e+00
 1.6909480872e-01	 1.2296039919e+00	-3.2515855801e+00
 1.5833769077e-01	 1.2310354206e+00	-3.2636217136e+00
 1.4760050922e-01	 1.2323689061e+00	-3.2748867385e+00
 1.3688444794e-01	 1.2336051552e+00	-3.2853785005e+00
 1.2619067127e-01	 1.2347448909e+00	-3.2950895656e+00
 1.1552032383e-01	 1.2357888517e+00	-3.3040073349e+00
 1.0487453038e-01	 1.2367377911e+00	-3.3121141465e+00
 2.1330444963e-01	 1.2286809680e+00	-3.1267920866e+00
 2.0242850563e-01	 1.2305195689e+00	-3.1400156888e+00
 1.9156764304e-01	 1.2322570947e+00	-3.1525401114e+00
 1.8072312749e-01	 1.2338941853e+00	-3.1643811620e+00
 1.6989620592e-01	 1.2354314989e+00	-3.1755486332e+00
 1.5908810636e-01	 1.2368697117e+00	-3.1860464954e+00
 1.4830003770e-01	 1.2382095171e+00	-3.1958730721e+00
 1.3753318940e-01	 1.2394516252e+00	-3.2050211965e+00
 1.2678873132e-01	 1.2405967624e+00	-3.2134783512e+00
 1.1606781352e-01	 1.2416456709e+00	-3.2212267918e+00
 1.0537156607e-01	 1.2425991077e+00	-3.2282436550e+00
 2.1431060270e-01	 1.2344766329e+00	-3.0590903193e+00
 2.0338335707e-01	 1.2363239065e+00	-3.0704839971e+00
 1.9247126400e-01	 1.2380696282e+00	-3.0812817269e+00
 1.8157559507e-01	 1.2397144409e+00	-3.0914963988e+00
 1.7069760311e-01	 1.2412590060e+00	-3.1011348042e+00
 1.5983852196e-01	 1.2427040028e+00	-3.1101978371e+00
 1.4899956618e-01	 1.2440501280e+00	-3.1186806762e+00
 1.3818193086e-01	 1.2452980951e+00	-3.1265729484e+00
 1.2738679137e-01	 1.2464486340e+00	-3.1338588737e+00
 1.1661530321e-01	 1.2475024901e+00	-3.1405173943e+00
 1.0586860176e-01	 1.2484604242e+00	-3.1465222876e+00
 2.1531675576e-01	 1.2402722979e+00	-2.9924167244e+00
 2.0433820851e-01	 1.2421282441e+00	-3.0021284915e+00
 1.9337488496e-01	 1.2438821616e+00	-3.0113323638e+00
 1.8242806265e-01	 1.2455346965e+00	-3.0200400057e+00
 1.7149900031e-01	 1.2470865131e+00	-3.0282569251e+00
 1.6058893756e-01	 1.2485382939e+00	-3.0359826801e+00
 1.4969909466e-01	 1.2498907389e+00	-3.0432110652e+00
 1.3883067232e-01	 1.2511445650e+00	-3.0499302784e+00
 1.2798485143e-01	 1.2523005055e+00	-3.0561230697e+00
 1.1716279289e-01	 1.2533593093e+00	-3.0617668723e+00
 1.0636563745e-01	 1.2543217408e+00	-3.0668339174e+00
 2.1632290883e-01	 1.2460679628e+00	-2.9267140133e+00
 2.0529305996e-01	 1.2479325817e+00	-2.9348840301e+00
 1.9427850592e-01	 1.2496946951e+00	-2.9426195924e+00
 1.8328053024e-01	 1.2513549521e+00	-2.9499328030e+00
 1.7230039751e-01	 1.2529140201e+00	-2.9568295759e+00
 1.6133935315e-01	 1.2543725850e+00	-2.9633098455e+00
 1.5039862314e-01	 1.2557313499e+00	-2.9693677547e+00
 1.3947941378e-01	 1.2569910350e+00	-2.9749918225e+00
 1.2858291148e-01	 1.2581523770e+00	-2.9801650932e+00
 1.1771028258e-01	 1.2592161285e+00	-2.9848652675e+00
 1.0686267313e-01	 1.2601830573e+00	-2.9890648167e+00
 2.1732906189e-01	 1.2518636278e+00	-2.8619259782e+00
 2.0624791140e-01	 1.2537369193e+00	-2.8686867246e+00
 1.9518212688e-01	 1.2555072286e+00	-2.8750723980e+00
 1.8413299782e-01	 1.2571752077e+00	-2.8810971759e+00
 1.7310179471e-01	 1.2587415272e+00	-2.8867690406e+00
 1.6208976875e-01	 1.2602068761e+00	-2.8920899876e+00
 1.5109815162e-01	 1.2615719608e+00	-2.8970562129e+00
 1.4012815524e-01	 1.2628375049e+00	-2.9016582790e+00
 1.2918097153e-01	 1.2640042485e+00	-2.9058812617e+00
 1.1825777227e-01	 1.2650729477e+00	-2.9097048785e+00
 1.0735970882e-01	 1.2660443739e+00	-2.9131035997e+00
 2.1833521495e-01	 1.2576592927e+00	-2.7979974613e+00
 2.0720276284e-01	 1.2595412568e+00	-2.8034739065e+00
 1.9608574783e-01	 1.2613197620e+00	-2.8086211439e+00
 1.8498546540e-01	 1.2629954633e+00	-2.8134570349e+00
 1.7390319190e-01	 1.2645690343e+00	-2.8179932649e+00
 1.6284018435e-01	 1.2660411672e+00	-2.8222355484e+00
 1.5179768010e-01	 1.2674125717e+00	-2.8261838124e+00
 1.4077689670e-01	 1.2686839748e+00	-2.8298323584e+00
 1.2977903159e-01	 1.2698561200e+00	-2.8331700041e+00
 1.1880526195e-01	 1.2709297669e+00	-2.8361802065e+00
 1.0785674451e-01	 1.2719056904e+00	-2.8388411668e+00
 2.1934136802e-01	 1.2634549577e+00	-2.7348743272e+00
 2.0815761428e-01	 1.2653455944e+00	-2.7391840955e+00
 1.9698936879e-01	 1.2671322955e+00	-2.7431975361e+00
 1.8583793298e-01	 1.2688157189e+00	-2.7469377769e+00
 1.7470458910e-01	 1.2703965414e+00	-2.7504218145e+00
 1.6359059994e-01	 1.2718754583e+00	-2.7536607136e+00
 1.5249720858e-01	 1.2732531826e+00	-2.7566597840e+00
 1.4142563816e-01	 1.2745304448e+00	-2.7594187350e+00
 1.3037709164e-01	 1.2757079916e+00	-2.7619318102e+00
 1.1935275164e-01	 1.2767865861e+00	-2.7641879024e+00
 1.0835378020e-01	 1.2777670070e+00	-2.7661706504e+00
 2.2034752108e-01	 1.2692506226e+00	-2.6725034339e+00
 2.0911246572e-01	 1.2711499320e+00	-2.6757569676e+00
 1.9789298975e-01	 1.2729448290e+00	-2.6787345886e+00
 1.8669040057e-01	 1.2746359744e+00	-2.6814662476e+00
 1.7550598630e-01	 1.2762240484e+00	-2.6839758348e+00
 1.6434101554e-01	 1.2777097494e+00	-2.6862813702e+00
 1.5319673706e-01	 1.2790937936e+00	-2.6883951716e+00
 1.4207437962e-01	 1.2803769147e+00	-2.6903239993e+00
 1.3097515169e-01	 1.2815598631e+00	-2.6920691812e+00
 1.1990024133e-01	 1.2826434053e+00	-2.6936267165e+00
 1.0885081589e-01	 1.2836283235e+00	-2.6949873622e+00
 2.2135367415e-01	 1.2750462875e+00	-2.6108326062e+00
 2.1006731716e-01	 1.2769542696e+00	-2.6131333248e+00
 1.9879661071e-01	 1.2787573624e+00	-2.6151665896e+00
 1.8754286815e-01	 1.2804562300e+00	-2.6169707053e+00
 1.7630738350e-01	 1.2820515555e+00	-2.6185780118e+00
 1.6509143113e-01	 1.2835440405e+00	-2.6200150641e+00
 1.5389626554e-01	 1.2849344045e+00	-2.6213027879e+00
 1.4272312108e-01	 1.2862233846e+00	-2.6224566123e+00
 1.3157321175e-01	 1.2874117346e+00	-2.6234865821e+00
 1.2044773101e-01	 1.2885002245e+00	-2.6243974485e+00
 1.0934785158e-01	 1.2894896400e+00	-2.6251887420e+00
 1.0437749469e-01	 1.2308764746e+00	-3.3982523470e+00
 9.3807692284e-02	 1.2317271102e+00	-3.4065051246e+00
 8.3264506264e-02	 1.2324847176e+00	-3.4136712232e+00
 7.2748995721e-02	 1.2331500885e+00	-3.4198414963e+00
 6.2262199383e-02	 1.2337240273e+00	-3.4251009166e+00
 5.1805135513e-02	 1.2342073509e+00	-3.4295285002e+00
 4.1378801824e-02	 1.2346008877e+00	-3.4331972276e+00
 3.0984175401e-02	 1.2349054773e+00	-3.4361739615e+00
 2.0622212639e-02	 1.2351219703e+00	-3.4385193641e+00
 1.0293849206e-02	 1.2352512270e+00	-3.4402878129e+00
 0.0000000000e+00	 1.2352941176e+00	-3.4415273182e+00
 1.0487453038e-01	 1.2367377911e+00	-3.3121141465e+00
 9.4254395580e-02	 1.2375924774e+00	-3.3192757888e+00
 8.3661003913e-02	 1.2383536924e+00	-3.3254431767e+00
 7.3095419510e-02	 1.2390222318e+00	-3.3307179476e+00
 6.2558686046e-02	 1.2395989037e+00	-3.3351954808e+00
 5.2051826635e-02	 1.2400845288e+00	-3.3389648130e+00
 4.1575843738e-02	 1.2404799395e+00	-3.3421085522e+00
 3.1131719093e-02	 1.2407859796e+00	-3.3447027881e+00
 2.0720413652e-02	 1.2410035035e+00	-3.3468170023e+00
 1.0342867536e-02	 1.2411333757e+00	-3.3485139786e+00
 0.0000000000e+00	 1.2411764706e+00	-3.3498497133e+00
 1.0537156607e-01	 1.2425991077e+00	-3.2282436550e+00
 9.4701098877e-02	 1.2434578446e+00	-3.2343948432e+00
 8.4057501562e-02	 1.2442226673e+00	-3.2396404286e+00
 7.3441843299e-02	 1.2448943750e+00	-3.2440901587e+00
 6.2855172710e-02	 1.2454737800e+00	-3.2478472279e+00
 5.2298517756e-02	 1.2459617066e+00	-3.2510081871e+00
 4.1772885651e-02	 1.2463589914e+00	-3.2536628501e+00
 3.1279262785e-02	 1.2466664819e+00	-3.2558941986e+00
 2.0818614665e-02	 1.2468850367e+00	-3.2577782856e+00
 1.0391885865e-02	 1.2470155244e+00	-3.2593841398e+00
 0.0000000000e+00	 1.2470588235e+00	-3.2607736708e+00
 1.0586860176e-01	 1.2484604242e+00	-3.1465222876e+00
 9.5147802174e-02	 1.2493232118e+00	-3.1517402479e+00
 8.4453999211e-02	 1.2500916421e+00	-3.1561381515e+00
 7.3788267089e-02	 1.2507665183e+00	-3.1598312166e+00
 6.3151659374e-02	 1.2513486563e+00	-3.1629278964e+00
 5.2545208878e-02	 1.2518388845e+00	-3.1655297829e+00
 4.1969927565e-02	 1.2522380432e+00	-3.1677315081e+00
 3.1426806478e-02	 1.2525469842e+00	-3.1696206427e+00
 2.0916815677e-02	 1.2527665698e+00	-3.1712775943e+00
 1.0440904195e-02	 1.2528976731e+00	-3.1727755068e+00
 0.0000000000e+00	 1.2529411765e+00	-3.1741801600e+00
 1.0636563745e-01	 1.2543217408e+00	-3.0668339174e+00
 9.5594505470e-02	 1.2551885789e+00	-3.0711925000e+00
 8.4850496860e-02	 1.2559606170e+00	-3.0748141192e+00
 7.4134690878e-02	 1.2566386616e+00	-3.0778168597e+00
 6.3448146038e-02	 1.2572235326e+00	-3.0803119111e+00
 5.2791899999e-02	 1.2577160624e+00	-3.0824034673e+00
 4.2166969478e-02	 1.2581170951e+00	-3.0841886225e+00
 3.1574350170e-02	 1.2584274864e+00	-3.0857572657e+00
 2.1015016690e-02	 1.2586481030e+00	-3.0871919739e+00
 1.0489922524e-02	 1.2587798218e+00	-3.0885679061e+00
 0.0000000000e+00	 1.2588235294e+00	-3.0899526987e+00
 1.0686267313e-01	 1.2601830573e+00	-2.9890648167e+00
 9.6041208767e-02	 1.2610539461e+00	-2.9926345724e+00
 8.5246994509e-02	 1.2618295918e+00	-2.9955486449e+00
 7.4481114667e-02	 1.2625108049e+00	-2.9979254151e+00
 6.3744632701e-02	 1.2630984089e+00	-2.9998763202e+00
 5.3038591121e-02	 1.2635932402e+00	-3.0015057492e+00
 4.2364011392e-02	 1.2639961469e+00	-3.0029109353e+00
 3.1721893862e-02	 1.2643079887e+00	-3.0041818459e+00
 2.1113217702e-02	 1.2645296362e+00	-3.0054010723e+00
 1.0538940854e-02	 1.2646619705e+00	-3.0066437188e+00
 0.0000000000e+00	 1.2647058824e+00	-3.0079772941e+00
 1.0735970882e-01	 1.2660443739e+00	-2.9131035997e+00
 9.6487912063e-02	 1.2669193133e+00	-2.9159518551e+00
 8.5643492158e-02	 1.2676985667e+00	-2.9182245209e+00
 7.4827538456e-02	 1.2683829481e+00	-2.9200377375e+00
 6.4041119365e-02	 1.2689732853e+00	-2.9215007335e+00
 5.3285282242e-02	 1.2694704181e+00	-2.9227157186e+00
 4.2561053305e-02	 1.2698751988e+00	-2.9237777726e+00
 3.1869437555e-02	 1.2701884910e+00	-2.9247747329e+00
 2.1211418715e-02	 1.2704111694e+00	-2.9257870796e+00
 1.0587959183e-02	 1.2705441192e+00	-2.9268878219e+00
 0.0000000000e+00	 1.2705882353e+00	-2.9281423848e+00
 1.0785674451e-01	 1.2719056904e+00	-2.8388411668e+00
 9.6934615360e-02	 1.2727846805e+00	-2.8410320984e+00
 8.6039989806e-02	 1.2735675415e+00	-2.8427269606e+00
 7.5173962245e-02	 1.2742550914e+00	-2.8440371499e+00
 6.4337606029e-02	 1.2748481616e+00	-2.8450672625e+00
 5.3531973364e-02	 1.2753475959e+00	-2.8459149855e+00
 4.2758095219e-02	 1.2757542506e+00	-2.8466709846e+00
 3.2016981247e-02	 1.2760689933e+00	-2.8474187879e+00
 2.1309619727e-02	 1.2762927026e+00	-2.8482346692e+00
 1.0636977513e-02	 1.2764262679e+00	-2.8491875306e+00
 0.0000000000e+00	 1.2764705882e+00	-2.8503387851e+00
 1.0835378020e-01	 1.2777670070e+00	-2.7661706504e+00
 9.7381318657e-02	 1.2786500477e+00	-2.7677653565e+00
 8.6436487455e-02	 1.2794365164e+00	-2.7689435414e+00
 7.5520386034e-02	 1.2801272347e+00	-2.7698093860e+00
 6.4634092693e-02	 1.2807230379e+00	-2.7704604619e+00
 5.3778664485e-02	 1.2812247738e+00	-2.7709876221e+00
 4.2955137132e-02	 1.2816333024e+00	-2.7714748867e+00
 3.2164524940e-02	 1.2819494955e+00	-2.7719993260e+00
 2.1407820740e-02	 1.2821742358e+00	-2.7726309407e+00
 1.0685995843e-02	 1.2823084166e+00	-2.7734325418e+00
 0.0000000000e+00	 1.2823529412e+00	-2.7744596303e+00
 1.0885081589e-01	 1.2836283235e+00	-2.6949873622e+00
 9.7828021953e-02	 1.2845154149e+00	-2.6960439342e+00
 8.6832985104e-02	 1.2853054912e+00	-2.6967641494e+00
 7.5866809823e-02	 1.2859993780e+00	-2.6972425338e+00
 6.4930579356e-02	 1.2865979142e+00	-2.6975672733e+00
 5.4025355607e-02	 1.2871019517e+00	-2.6978201052e+00
 4.3152179046e-02	 1.2875123543e+00	-2.6980762032e+00
 3.2312068632e-02	 1.2878299978e+00	-2.6984040596e+00
 2.1506021753e-02	 1.2880557690e+00	-2.6988653639e+00
 1.0735014172e-02	 1.2881905653e+00	-2.6995148801e+00
 0.0000000000e+00	 1.2882352941e+00	-2.7004003239e+00
 1.0934785158e-01	 1.2894896400e+00	-2.6251887420e+00
 9.8274725250e-02	 1.2903807821e+00	-2.6257623337e+00
 8.7229482753e-02	 1.2911744660e+00	-2.6260809258e+00
 7.6213233613e-02	 1.2918715213e+00	-2.6262269813e+00
 6.5227066020e-02	 1.2924727905e+00	-2.6262769698e+00
 5.4272046728e-02	 1.2929791295e+00	-2.6263012614e+00
 4.3349220959e-02	 1.2933914061e+00	-2.6263640116e+00
 3.2459612324e-02	 1.2937105001e+00	-2.6265230435e+00
 2.1604222765e-02	 1.2939373022e+00	-2.6268297250e+00
 1.0784032502e-02	 1.2940727140e+00	-2.6273288445e+00
 0.0000000000e+00	 1.2941176471e+00	-2.6280584858e+00
 1.2941176471e+00	 0.0000000000e+00	 3.5979341531e+00
 1.2940727140e+00	 1.0784032502e-02	 3.5958761030e+00
 1.2939373022e+00	 2.1604222765e-02	 3.5927938309e+00
 1.2937105001e+00	 3.2459612324e-02	 3.5886077018e+00
 1.2933914061e+00	 4.3349220959e-02	 3.5832182679e+00
 1.2929791295e+00	 5.4272046728e-02	 3.5765074542e+00
 1.2924727905e+00	 6.5227066020e-02	 3.5683397581e+00
 1.2918715213e+00	 7.6213233613e-02	 3.5585634594e+00
 1.2911744660e+00	 8.7229482753e-02	 3.5470118408e+00
 1.2903807821e+00	 9.8274725250e-02	 3.5335044158e+00
 1.2894896400e+00	 1.0934785158e-01	 3.5178481632e+00
 1.3000000000e+00	 0.0000000000e+00	 3.6119368058e+00
 1.2999548627e+00	 1.0833050831e-02	 3.6099723727e+00
 1.2998188354e+00	 2.1702423778e-02	 3.6068889205e+00
 1.2995910023e+00	 3.2607156017e-02	 3.6026128041e+00
 1.2992704580e+00	 4.3546262872e-02	 3.5970512972e+00
 1.2988563074e+00	 5.4518737850e-02	 3.5900937918e+00
 1.2983476669e+00	 6.5523552684e-02	 3.5816130094e+00
 1.2977436645e+00	 7.6559657402e-02	 3.5714662209e+00
 1.2970434409e+00	 8.7625980402e-02	 3.5594964755e+00
 1.2962461493e+00	 9.8721428546e-02	 3.5455338350e+00
 1.2953509566e+00	 1.0984488727e-01	 3.5293966127e+00
 1.3058823529e+00	 0.0000000000e+00	 3.6252216737e+00
 1.3058370114e+00	 1.0882069161e-02	 3.6233199790e+00
 1.3057003686e+00	 2.1800624790e-02	 3.6202198601e+00
 1.3054715046e+00	 3.2754699709e-02	 3.6158515873e+00
 1.3051495098e+00	 4.3743304786e-02	 3.6101270697e+00
 1.3047334852e+00	 5.4765428971e-02	 3.6029410700e+00
 1.3042225432e+00	 6.5820039347e-02	 3.5941724288e+00
 1.3036158078e+00	 7.6906081191e-02	 3.5836852967e+00
 1.3029124157e+00	 8.8022478051e-02	 3.5713303734e+00
 1.3021115165e+00	 9.9168131843e-02	 3.5569461498e+00
 1.3012122731e+00	 1.1034192296e-01	 3.5403601533e+00
 1.3117647059e+00	 0.0000000000e+00	 3.6377524277e+00
 1.3117191601e+00	 1.0931087490e-02	 3.6358834612e+00
 1.3115819018e+00	 2.1898825803e-02	 3.6327518751e+00
 1.3113520069e+00	 3.2902243402e-02	 3.6282898104e+00
 1.3110285617e+00	 4.3940346699e-02	 3.6224117551e+00
 1.3106106631e+00	 5.5012120093e-02	 3.6150157766e+00
 1.3100974195e+00	 6.6116526011e-02	 3.6059847607e+00
 1.3094879511e+00	 7.7252504980e-02	 3.5951876579e+00
 1.3087813906e+00	 8.8418975700e-02	 3.5824807333e+00
 1.3079768837e+00	 9.9614835140e-02	 3.5677088197e+00
 1.3070735897e+00	 1.1083895865e-01	 3.5507065711e+00
 1.3176470588e+00	 0.0000000000e+00	 3.6494932114e+00
 1.3176013088e+00	 1.0980105820e-02	 3.6476278069e+00
 1.3174634350e+00	 2.1997026815e-02	 3.6444506152e+00
 1.3172325092e+00	 3.3049787094e-02	 3.6398936319e+00
 1.3169076135e+00	 4.4137388613e-02	 3.6338718974e+00
 1.3164878410e+00	 5.5258811214e-02	 3.6262847477e+00
 1.3159722958e+00	 6.6413012675e-02	 3.6170170703e+00
 1.3153600944e+00	 7.7598928769e-02	 3.6059405662e+00
 1.3146503654e+00	 8.8815473349e-02	 3.5929150128e+00
 1.3138422509e+00	 1.0006153844e-01	 3.5777895290e+00
 1.3129349062e+00	 1.1133599434e-01	 3.5604038392e+00
 1.3235294118e+00	 0.0000000000e+00	 3.6604086303e+00
 1.3234834575e+00	 1.1029124149e-02	 3.6585184417e+00
 1.3233449681e+00	 2.2095227828e-02	 3.6552821440e+00
 1.3231130114e+00	 3.3197330786e-02	 3.6506296001e+00
 1.3227866654e+00	 4.4334430526e-02	 3.6444744055e+00
 1.3223650188e+00	 5.5505502336e-02	 3.6367151581e+00
 1.3218471721e+00	 6.6709499339e-02	 3.6272367343e+00
 1.3212322377e+00	 7.7945352558e-02	 3.6159115661e+00
 1.3205193403e+00	 8.9211970997e-02	 3.6026009209e+00
 1.3197076181e+00	 1.0050824173e-01	 3.5871561793e+00
 1.3187962228e+00	 1.1183303002e-01	 3.5694201114e+00
 1.3294117647e+00	 0.0000000000e+00	 3.6704637421e+00
 1.3293656062e+00	 1.1078142479e-02	 3.6685212194e+00
 1.3292265013e+00	 2.2193428841e-02	 3.6652129294e+00
 1.3289935137e+00	 3.3344874479e-02	 3.6604646436e+00
 1.3286657172e+00	 4.4531472440e-02	 3.6541865437e+00
 1.3282421967e+00	 5.5752193457e-02	 3.6462745129e+00
 1.3277220485e+00	 6.7005986002e-02	 3.6366114320e+00
 1.3271043809e+00	 7.8291776347e-02	 3.6250684760e+00
 1.3263883151e+00	 8.9608468646e-02	 3.6115064098e+00
 1.3255729852e+00	 1.0095494503e-01	 3.5957768821e+00
 1.3246575393e+00	 1.1233006571e-01	 3.5777237150e+00
 1.3352941176e+00	 0.0000000000e+00	 3.6796240462e+00
 1.3352477549e+00	 1.1127160809e-02	 3.6776024117e+00
 1.3351080345e+00	 2.2291629853e-02	 3.6742098337e+00
 1.3348740160e+00	 3.3492418171e-02	 3.6693660616e+00
 1.3345447691e+00	 4.4728514353e-02	 3.6629759228e+00
 1.3341193745e+00	 5.5998884579e-02	 3.6549306377e+00
 1.3335969248e+00	 6.7302472666e-02	 3.6451091375e+00
 1.3329765242e+00	 7.8638200137e-02	 3.6333793806e+00
 1.3322572900e+00	 9.0004966295e-02	 3.6195996677e+00
 1.3314383524e+00	 1.0140164833e-01	 3.6036199521e+00
 1.3305188559e+00	 1.1282710140e-01	 3.5852831451e+00
 1.3411764706e+00	 0.0000000000e+00	 3.6878554743e+00
 1.3411299036e+00	 1.1176179138e-02	 3.6857286992e+00
 1.3409895677e+00	 2.2389830866e-02	 3.6822401046e+00
 1.3407545183e+00	 3.3639961863e-02	 3.6773015149e+00
 1.3404238209e+00	 4.4925556267e-02	 3.6708104909e+00
 1.3399965524e+00	 5.6245575700e-02	 3.6626516709e+00
 1.3394718011e+00	 6.7598959330e-02	 3.6526981106e+00
 1.3388486675e+00	 7.8984623926e-02	 3.6408126226e+00
 1.3381262648e+00	 9.0401463944e-02	 3.6268491109e+00
 1.3373037196e+00	 1.0184835162e-01	 3.6106539001e+00
 1.3363801724e+00	 1.1332413709e-01	 3.5920670583e+00
 1.3470588235e+00	 0.0000000000e+00	 3.6951243810e+00
 1.3470120523e+00	 1.1225197468e-02	 3.6928671617e+00
 1.3468711009e+00	 2.2488031878e-02	 3.6892713660e+00
 1.3466350205e+00	 3.3787505556e-02	 3.6842390170e+00
 1.3463028728e+00	 4.5122598180e-02	 3.6776585251e+00
 1.3458737303e+00	 5.6492266822e-02	 3.6694060545e+00
 1.3453466774e+00	 6.7895445994e-02	 3.6593468894e+00
 1.3447208108e+00	 7.9331047715e-02	 3.6473367955e+00
 1.3439952397e+00	 9.0797961593e-02	 3.6332233771e+00
 1.3431690868e+00	 1.0229505492e-01	 3.6168474268e+00
 1.3422414890e+00	 1.1382117278e-01	 3.5980442665e+00
 1.3529411765e+00	 0.0000000000e+00	 3.7013975344e+00
 1.3528942010e+00	 1.1274215797e-02	 3.6989852697e+00
 1.3527526341e+00	 2.2586232891e-02	 3.6952716091e+00
 1.3525155228e+00	 3.3935049248e-02	 3.6901469258e+00
 1.3521819246e+00	 4.5319640093e-02	 3.6834886226e+00
 1.3517509081e+00	 5.6738957943e-02	 3.6751625268e+00
 1.3512215537e+00	 6.8191932657e-02	 3.6650242822e+00
 1.3505929540e+00	 7.9677471504e-02	 3.6529207358e+00
 1.3498642145e+00	 9.1194459242e-02	 3.6386913183e+00
 1.3490344540e+00	 1.0274175822e-01	 3.6221694160e+00
 1.3481028055e+00	 1.1431820847e-01	 3.6031837318e+00
 1.2894896400e+00	 1.0934785158e-01	 3.5178481632e+00
 1.2885002245e+00	 1.2044773101e-01	 3.5000420375e+00
 1.2874117346e+00	 1.3157321175e-01	 3.4803005527e+00
 1.2862233846e+00	 1.4272312108e-01	 3.4587417243e+00
 1.2849344045e+00	 1.5389626554e-01	 3.4354794168e+00
 1.2835440405e+00	 1.6509143113e-01	 3.4106242141e+00
 1.2820515555e+00	 1.7630738350e-01	 3.3842842749e+00
 1.2804562300e+00	 1.8754286815e-01	 3.3565661706e+00
 1.2787573624e+00	 1.9879661071e-01	 3.3275757049e+00
 1.2769542696e+00	 2.1006731716e-01	 3.2974187155e+00
 1.2750462875e+00	 2.2135367415e-01	 3.2662018548e+00
 1.2953509566e+00	 1.0984488727e-01	 3.5293966127e+00
 1.2943570437e+00	 1.2099522070e-01	 3.5110918397e+00
 1.2932636061e+00	 1.3217127180e-01	 3.4908274580e+00
 1.2920698545e+00	 1.4337186254e-01	 3.4687118851e+00
 1.2907750154e+00	 1.5459579402e-01	 3.4448500021e+00
 1.2893783316e+00	 1.6584184673e-01	 3.4193440433e+00
 1.2878790626e+00	 1.7710878070e-01	 3.3922944695e+00
 1.2862764856e+00	 1.8839533573e-01	 3.3638008231e+00
 1.2845698959e+00	 1.9970023166e-01	 3.3339625650e+00
 1.2827586072e+00	 2.1102216861e-01	 3.3028798906e+00
 1.2808419525e+00	 2.2235982721e-01	 3.2706545264e+00
 1.3012122731e+00	 1.1034192296e-01	 3.5403601533e+00
 1.3002138629e+00	 1.2154271038e-01	 3.5215863308e+00
 1.2991154776e+00	 1.3276933186e-01	 3.5008274114e+00
 1.2979163245e+00	 1.4402060399e-01	 3.4781838807e+00
 1.2966156264e+00	 1.5529532250e-01	 3.4537533081e+00
 1.2952126226e+00	 1.6659226233e-01	 3.4276312523e+00
 1.2937065696e+00	 1.7791017789e-01	 3.3999121510e+00
 1.2920967412e+00	 1.8924780331e-01	 3.3706901900e+00
 1.2903824294e+00	 2.0060385262e-01	 3.3400601538e+00
 1.2885629448e+00	 2.1197702005e-01	 3.3081182546e+00
 1.2866376174e+00	 2.2336598028e-01	 3.2749629410e+00
 1.3070735897e+00	 1.1083895865e-01	 3.5507065711e+00
 1.3060706821e+00	 1.2209020007e-01	 3.5314934137e+00
 1.3049673492e+00	 1.3336739191e-01	 3.5102679126e+00
 1.3037627944e+00	 1.4466934545e-01	 3.4871242680e+00
 1.3024562373e+00	 1.5599485098e-01	 3.4621543889e+00
 1.3010469137e+00	 1.6734267792e-01	 3.4354488135e+00
 1.2995340767e+00	 1.7871157509e-01	 3.4070976109e+00
 1.2979169968e+00	 1.9010027090e-01	 3.3771912630e+00
 1.2961949628e+00	 2.0150747358e-01	 3.3458215250e+00
 1.2943672824e+00	 2.1293187149e-01	 3.3130822654e+00
 1.2924332824e+00	 2.2437213334e-01	 3.2790702833e+00
 1.3129349062e+00	 1.1133599434e-01	 3.5604038392e+00
 1.3119275013e+00	 1.2263768976e-01	 3.5407811426e+00
 1.3108192207e+00	 1.3396545196e-01	 3.5191165849e+00
 1.3096092643e+00	 1.4531808691e-01	 3.4954997075e+00
 1.3082968482e+00	 1.5669437946e-01	 3.4700183916e+00
 1.3068812048e+00	 1.6809309352e-01	 3.4427597901e+00
 1.3053615838e+00	 1.7951297229e-01	 3.4138112396e+00
 1.3037372524e+00	 1.9095273848e-01	 3.3832611509e+00
 1.3020074963e+00	 2.0241109454e-01	 3.3511998784e+00
 1.3001716200e+00	 2.1388672293e-01	 3.3177205669e+00
 1.2982289473e+00	 2.2537828640e-01	 3.2829199752e+00
 1.3187962228e+00	 1.1183303002e-01	 3.5694201114e+00
 1.3177843205e+00	 1.2318517944e-01	 3.5494177175e+00
 1.3166710922e+00	 1.3456351202e-01	 3.5273411698e+00
 1.3154557343e+00	 1.4596682837e-01	 3.5032769587e+00
 1.3141374592e+00	 1.5739390794e-01	 3.4773105515e+00
 1.3127154959e+00	 1.6884350911e-01	 3.4495273323e+00
 1.3111890908e+00	 1.8031436949e-01	 3.4200135220e+00
 1.3095575080e+00	 1.9180520606e-01	 3.3888570751e+00
 1.3078200298e+00	 2.0331471550e-01	 3.3561485545e+00
 1.3059759576e+00	 2.1484157437e-01	 3.3219819830e+00
 1.3040246123e+00	 2.2638443947e-01	 3.2864556700e+00
 1.3246575393e+00	 1.1233006571e-01	 3.5777237150e+00
 1.3236411397e+00	 1.2373266913e-01	 3.5573714780e+00
 1.3225229637e+00	 1.3516157207e-01	 3.5349095217e+00
 1.3213022042e+00	 1.4661556983e-01	 3.5104228754e+00
 1.3199780701e+00	 1.5809343642e-01	 3.4839961877e+00
 1.3185497870e+00	 1.6959392471e-01	 3.4557146724e+00
 1.3170165979e+00	 1.8111576668e-01	 3.4256650332e+00
 1.3153777636e+00	 1.9265767364e-01	 3.3939363648e+00
 1.3136325632e+00	 2.0421833645e-01	 3.3606210301e+00
 1.3117802952e+00	 2.1579642581e-01	 3.3258155129e+00
 1.3098202772e+00	 2.2739059253e-01	 3.2896212459e+00
 1.3305188559e+00	 1.1282710140e-01	 3.5852831451e+00
 1.3294979589e+00	 1.2428015882e-01	 3.5646108978e+00
 1.3283748352e+00	 1.3575963212e-01	 3.5417896029e+00
 1.3271486741e+00	 1.4726431129e-01	 3.5169044009e+00
 1.3258186810e+00	 1.5879296490e-01	 3.4900406987e+00
 1.3243840781e+00	 1.7034434031e-01	 3.4612851206e+00
 1.3228441050e+00	 1.8191716388e-01	 3.4307264343e+00
 1.3211980192e+00	 1.9351014123e-01	 3.3984564531e+00
 1.3194450967e+00	 2.0512195741e-01	 3.3645709134e+00
 1.3175846327e+00	 2.1675127726e-01	 3.3291703257e+00
 1.3156159421e+00	 2.2839674560e-01	 3.2923608008e+00
 1.3363801724e+00	 1.1332413709e-01	 3.5920670583e+00
 1.3353547781e+00	 1.2482764850e-01	 3.5711045791e+00
 1.3342267068e+00	 1.3635769218e-01	 3.5479494789e+00
 1.3329951441e+00	 1.4791305275e-01	 3.5226885633e+00
 1.3316592919e+00	 1.5949249338e-01	 3.4954095584e+00
 1.3302183692e+00	 1.7109475590e-01	 3.4662020617e+00
 1.3286716121e+00	 1.8271856108e-01	 3.4351584686e+00
 1.3270182748e+00	 1.9436260881e-01	 3.4023748725e+00
 1.3252576302e+00	 2.0602557837e-01	 3.3679519395e+00
 1.3233889703e+00	 2.1770612870e-01	 3.3319957552e+00
 1.3214116071e+00	 2.2940289866e-01	 3.2946186462e+00
 1.3422414890e+00	 1.1382117278e-01	 3.5980442665e+00
 1.3412115973e+00	 1.2537513819e-01	 3.5768212477e+00
 1.3400785783e+00	 1.3695575223e-01	 3.5533573134e+00
 1.3388416140e+00	 1.4856179421e-01	 3.5277424720e+00
 1.3374999029e+00	 1.6019202186e-01	 3.5000683119e+00
 1.3360526603e+00	 1.7184517150e-01	 3.4704289505e+00
 1.3344991191e+00	 1.8351995828e-01	 3.4389219577e+00
 1.3328385304e+00	 1.9521507639e-01	 3.4056492514e+00
 1.3310701636e+00	 2.0692919933e-01	 3.3707179667e+00
 1.3291933079e+00	 2.1866098014e-01	 3.3342412960e+00
 1.3272072720e+00	 2.3040905173e-01	 3.2963393024e+00
 1.3481028055e+00	 1.1431820847e-01	 3.6031837318e+00
 1.3470684165e+00	 1.2592262788e-01	 3.5817297475e+00
 1.3459304498e+00	 1.3755381228e-01	 3.5579813638e+00
 1.3446880839e+00	 1.4921053567e-01	 3.5320333128e+00
 1.3433405138e+00	 1.6089155034e-01	 3.5039825721e+00
 1.3418869514e+00	 1.7259558709e-01	 3.4739293089e+00
 1.3403266262e+00	 1.8432135548e-01	 3.4419777980e+00
 1.3386587859e+00	 1.9606754397e-01	 3.4082373102e+00
 1.3368826971e+00	 2.0783282028e-01	 3.3728229723e+00
 1.3349976455e+00	 2.1961583158e-01	 3.3358565988e+00
 1.3330029370e+00	 2.3141520479e-01	 3.2974674937e+00
 1.2750462875e+00	 2.2135367415e-01	 3.2662018548e+00
 1.2730327719e+00	 2.3265434921e-01	 3.2334937086e+00
 1.2709130984e+00	 2.4396799114e-01	 3.1988165674e+00
 1.2686866638e+00	 2.5529323030e-01	 3.1622082744e+00
 1.2663528861e+00	 2.6662867892e-01	 3.1237066687e+00
 1.2639112049e+00	 2.7797293152e-01	 3.0833502926e+00
 1.2613610825e+00	 2.8932456525e-01	 3.0411790794e+00
 1.2587020040e+00	 3.0068214030e-01	 2.9972350226e+00
 1.2559334781e+00	 3.1204420030e-01	 2.9515628242e+00
 1.2530550374e+00	 3.2340927274e-01	 2.9042105224e+00
 1.2500662389e+00	 3.3477586947e-01	 2.8552300968e+00
 1.2808419525e+00	 2.2235982721e-01	 3.2706545264e+00
 1.2788192845e+00	 2.3371186898e-01	 3.2368321081e+00
 1.2766899761e+00	 2.4507693656e-01	 3.2009383796e+00
 1.2744534214e+00	 2.5645365407e-01	 3.1630469951e+00
 1.2721090355e+00	 2.6784062746e-01	 3.1232323581e+00
 1.2696562558e+00	 2.7923644484e-01	 3.0815702885e+00
 1.2670945419e+00	 2.9063967691e-01	 3.0381386712e+00
 1.2644233768e+00	 3.0204887730e-01	 2.9930180827e+00
 1.2616422667e+00	 3.1346258303e-01	 2.9462923970e+00
 1.2587507421e+00	 3.2487931489e-01	 2.8980493681e+00
 1.2557483582e+00	 3.3629757797e-01	 2.8483811908e+00
 1.2866376174e+00	 2.2336598028e-01	 3.2749629410e+00
 1.2846057971e+00	 2.3476938875e-01	 3.2401153913e+00
 1.2824668539e+00	 2.4618588197e-01	 3.2030992677e+00
 1.2802201790e+00	 2.5761407784e-01	 3.1640196542e+00
 1.2778651850e+00	 2.6905257600e-01	 3.1229831682e+00
 1.2754013067e+00	 2.8049995817e-01	 3.0800985957e+00
 1.2728280014e+00	 2.9195478857e-01	 3.0354775042e+00
 1.2701447495e+00	 3.0341561430e-01	 2.9892348344e+00
 1.2673510552e+00	 3.1488096575e-01	 2.9414894680e+00
 1.2644464468e+00	 3.2634935704e-01	 2.8923647735e+00
 1.2614304774e+00	 3.3781928647e-01	 2.8419891262e+00
 1.2924332824e+00	 2.2437213334e-01	 3.2790702833e+00
 1.2903923097e+00	 2.3582690852e-01	 3.2432815414e+00
 1.2882437316e+00	 2.4729482739e-01	 3.2052328927e+00
 1.2859869365e+00	 2.5877450162e-01	 3.1650565345e+00
 1.2836213345e+00	 2.7026452454e-01	 3.1228870141e+00
 1.2811463577e+00	 2.8176347149e-01	 3.0788618363e+00
 1.2785614609e+00	 2.9326990023e-01	 3.0331220475e+00
 1.2758661223e+00	 3.0478235131e-01	 2.9858127975e+00
 1.2730598437e+00	 3.1629934848e-01	 2.9370838763e+00
 1.2701421515e+00	 3.2781939919e-01	 2.8870902278e+00
 1.2671125967e+00	 3.3934099496e-01	 2.8359924367e+00
 1.2982289473e+00	 2.2537828640e-01	 3.2829199752e+00
 1.2961788223e+00	 2.3688442829e-01	 3.2462688294e+00
 1.2940206093e+00	 2.4840377280e-01	 3.2072732371e+00
 1.2917536941e+00	 2.5993492539e-01	 3.1660882577e+00
 1.2893774840e+00	 2.7147647308e-01	 3.1228721485e+00
 1.2868914086e+00	 2.8302698482e-01	 3.0777869498e+00
 1.2842949203e+00	 2.9458501189e-01	 3.0309990470e+00
 1.2815874950e+00	 3.0614908831e-01	 2.9826797072e+00
 1.2787686323e+00	 3.1771773121e-01	 2.9330055918e+00
 1.2758378563e+00	 3.2928944134e-01	 2.8821592434e+00
 1.2727947160e+00	 3.4086270346e-01	 2.8303295465e+00
 1.3040246123e+00	 2.2638443947e-01	 3.2864556700e+00
 1.3019653349e+00	 2.3794194806e-01	 3.2490158065e+00
 1.2997974870e+00	 2.4951271821e-01	 3.2091545978e+00
 1.2975204517e+00	 2.6109534917e-01	 3.1670457773e+00
 1.2951336335e+00	 2.7268842162e-01	 3.1228671554e+00
 1.2926364595e+00	 2.8429049814e-01	 3.0768011881e+00
 1.2900283798e+00	 2.9590012355e-01	 3.0290355221e+00
 1.2873088678e+00	 3.0751582531e-01	 2.9797635125e+00
 1.2844774208e+00	 3.1913611394e-01	 2.9291847168e+00
 1.2815335610e+00	 3.3075948349e-01	 2.8775053610e+00
 1.2784768352e+00	 3.4238441196e-01	 2.8249387797e+00
 1.3098202772e+00	 2.2739059253e-01	 3.2896212459e+00
 1.3077518475e+00	 2.3899946783e-01	 3.2514612980e+00
 1.3055743647e+00	 2.5062166363e-01	 3.2108115791e+00
 1.3032872092e+00	 2.6225577294e-01	 3.1678603715e+00
 1.3008897829e+00	 2.7390037016e-01	 3.1228009439e+00
 1.2983815104e+00	 2.8555401147e-01	 3.0758321104e+00
 1.2957618393e+00	 2.9721523521e-01	 3.0271587625e+00
 1.2930302405e+00	 3.0888256231e-01	 2.9769923756e+00
 1.2901862094e+00	 3.2055449667e-01	 2.9255514880e+00
 1.2872292657e+00	 3.3222952564e-01	 2.8730621541e+00
 1.2841589545e+00	 3.4390612046e-01	 2.8197583691e+00
 1.3156159421e+00	 2.2839674560e-01	 3.2923608008e+00
 1.3135383601e+00	 2.4005698759e-01	 3.2535443966e+00
 1.3113512425e+00	 2.5173060904e-01	 3.2121790864e+00
 1.3090539668e+00	 2.6341619671e-01	 3.1684636371e+00
 1.3066459324e+00	 2.7511231870e-01	 3.1226027430e+00
 1.3041265614e+00	 2.8681752479e-01	 3.0748075787e+00
 1.3014952987e+00	 2.9853034687e-01	 3.0252963257e+00
 1.2987516132e+00	 3.1024929931e-01	 2.9742946708e+00
 1.2958949979e+00	 3.2197287940e-01	 2.9220362785e+00
 1.2929249704e+00	 3.3369956779e-01	 2.8687632351e+00
 1.2898410738e+00	 3.4542782896e-01	 2.8147264652e+00
 1.3214116071e+00	 2.2940289866e-01	 3.2946186462e+00
 1.3193248727e+00	 2.4111450736e-01	 3.2552044566e+00
 1.3171281202e+00	 2.5283955446e-01	 3.2131923197e+00
 1.3148207243e+00	 2.6457662049e-01	 3.1687874840e+00
 1.3124020819e+00	 2.7632426724e-01	 3.1222020961e+00
 1.3098716123e+00	 2.8808103812e-01	 3.0736557544e+00
 1.3072287582e+00	 2.9984545853e-01	 3.0233760339e+00
 1.3044729860e+00	 3.1161603631e-01	 2.9715989844e+00
 1.3016037864e+00	 3.2339126213e-01	 2.9185695998e+00
 1.2986206751e+00	 3.3516960994e-01	 2.8645422604e+00
 1.2955231930e+00	 3.4694953745e-01	 2.8097811460e+00
 1.3272072720e+00	 2.3040905173e-01	 3.2963393024e+00
 1.3251113853e+00	 2.4217202713e-01	 3.2563810879e+00
 1.3229049979e+00	 2.5394849987e-01	 3.2137867681e+00
 1.3205874819e+00	 2.6573704426e-01	 3.1687641289e+00
 1.3181582314e+00	 2.7753621578e-01	 3.1215288562e+00
 1.3156166632e+00	 2.8934455144e-01	 3.0723050935e+00
 1.3129622177e+00	 3.0116057019e-01	 3.0213259725e+00
 1.3101943587e+00	 3.1298277331e-01	 2.9688341147e+00
 1.3073125750e+00	 3.2480964485e-01	 2.9150821048e+00
 1.3043163798e+00	 3.3663965208e-01	 2.8603329358e+00
 1.3012053123e+00	 3.4847124595e-01	 2.8048604257e+00
 1.3330029370e+00	 2.3141520479e-01	 3.2974674937e+00
 1.3308978979e+00	 2.4322954690e-01	 3.2570141510e+00
 1.3286818756e+00	 2.5505744529e-01	 3.2138982038e+00
 1.3263542395e+00	 2.6689746804e-01	 3.1683260908e+00
 1.3239143809e+00	 2.7874816432e-01	 3.1205131812e+00
 1.3213617142e+00	 2.9060806477e-01	 3.0706843441e+00
 1.3186956771e+00	 3.0247568185e-01	 3.0190744878e+00
 1.3159157315e+00	 3.1434951031e-01	 2.9659290721e+00
 1.3130213635e+00	 3.2622802758e-01	 2.9115045901e+00
 1.3100120845e+00	 3.3810969423e-01	 2.8560690230e+00
 1.3068874316e+00	 3.4999295445e-01	 2.7999022644e+00
 1.2500662389e+00	 3.3477586947e-01	 2.8552300968e+00
 1.2469666648e+00	 3.4614248709e-01	 2.8044296982e+00
 1.2437559226e+00	 3.5750760749e-01	 2.7517173941e+00
 1.2404336460e+00	 3.6886969832e-01	 2.6972977809e+00
 1.2369994950e+00	 3.8022721351e-01	 2.6413748399e+00
 1.2334531565e+00	 3.9157859380e-01	 2.5841520906e+00
 1.2297943450e+00	 4.0292226730e-01	 2.5258327159e+00
 1.2260228025e+00	 4.1425665005e-01	 2.4666196584e+00
 1.2221382996e+00	 4.2558014658e-01	 2.4067156865e+00
 1.2181406352e+00	 4.3689115052e-01	 2.3463234278e+00
 1.2140296374e+00	 4.4818804524e-01	 2.2856453676e+00
 1.2557483582e+00	 3.3629757797e-01	 2.8483811908e+00
 1.2526346951e+00	 3.4771586204e-01	 2.7970721845e+00
 1.2494093586e+00	 3.5913264207e-01	 2.7439555207e+00
 1.2460719807e+00	 3.7054637877e-01	 2.6891998835e+00
 1.2426222199e+00	 3.8195551903e-01	 2.6329735477e+00
 1.2390597618e+00	 3.9335849650e-01	 2.5754445827e+00
 1.2353843193e+00	 4.0475373216e-01	 2.5167810305e+00
 1.2315956334e+00	 4.1613963482e-01	 2.4571510562e+00
 1.2276934737e+00	 4.2751460179e-01	 2.3967230684e+00
 1.2236776380e+00	 4.3887701939e-01	 2.3356658096e+00
 1.2195479540e+00	 4.5022526363e-01	 2.2741484115e+00
 1.2614304774e+00	 3.3781928647e-01	 2.8419891262e+00
 1.2583027254e+00	 3.4928923698e-01	 2.7901231601e+00
 1.2550627946e+00	 3.6075767665e-01	 2.7365321147e+00
 1.2517103155e+00	 3.7222305922e-01	 2.6813549940e+00
 1.2482449449e+00	 3.8368382454e-01	 2.6247305676e+00
 1.2446663670e+00	 3.9513839920e-01	 2.5667976186e+00
 1.2409742936e+00	 4.0658519701e-01	 2.5076951649e+00
 1.2371684644e+00	 4.1802261960e-01	 2.4475626552e+00
 1.2332486477e+00	 4.2944905700e-01	 2.3865401364e+00
 1.2292146409e+00	 4.4086288826e-01	 2.3247683911e+00
 1.2250662705e+00	 4.5226248202e-01	 2.2623890423e+00
 1.2671125967e+00	 3.3934099496e-01	 2.8359924367e+00
 1.2639707557e+00	 3.5086261192e-01	 2.7835263260e+00
 1.2607162306e+00	 3.6238271123e-01	 2.7293948016e+00
 1.2573486502e+00	 3.7389973966e-01	 2.6737133369e+00
 1.2538676699e+00	 3.8541213006e-01	 2.6165973169e+00
 1.2502729723e+00	 3.9691830190e-01	 2.5581623201e+00
 1.2465642679e+00	 4.0841666186e-01	 2.4985243755e+00
 1.2427412953e+00	 4.1990560437e-01	 2.4378001958e+00
 1.2388038218e+00	 4.3138351221e-01	 2.3761073827e+00
 1.2347516438e+00	 4.4284875712e-01	 2.3135646039e+00
 1.2305845870e+00	 4.5429970040e-01	 2.2502917378e+00
 1.2727947160e+00	 3.4086270346e-01	 2.8303295465e+00
 1.2696387860e+00	 3.5243598686e-01	 2.7772251399e+00
 1.2663696667e+00	 3.6400774581e-01	 2.7224908513e+00
 1.2629869850e+00	 3.7557642011e-01	 2.6662246935e+00
 1.2594903949e+00	 3.8714043557e-01	 2.6085247070e+00
 1.2558795775e+00	 3.9869820460e-01	 2.5494892670e+00
 1.2521542422e+00	 4.1024812671e-01	 2.4892173693e+00
 1.2483141262e+00	 4.2178858914e-01	 2.4278088907e+00
 1.2443589959e+00	 4.3331796742e-01	 2.3653648250e+00
 1.2402886467e+00	 4.4483462599e-01	 2.3019874900e+00
 1.2361029036e+00	 4.5633691879e-01	 2.2377807054e+00
 1.2784768352e+00	 3.4238441196e-01	 2.8249387797e+00
 1.2753068162e+00	 3.5400936180e-01	 2.7711628287e+00
 1.2720231027e+00	 3.6563278039e-01	 2.7157671950e+00
 1.2686253198e+00	 3.7725310056e-01	 2.6588384217e+00
 1.2651131198e+00	 3.8886874109e-01	 2.6004631658e+00
 1.2614861828e+00	 4.0047810730e-01	 2.5407285225e+00
 1.2577442165e+00	 4.1207959156e-01	 2.4797223304e+00
 1.2538869571e+00	 4.2367157391e-01	 2.4175334527e+00
 1.2499141700e+00	 4.3525242264e-01	 2.3542520338e+00
 1.2458256496e+00	 4.4682049485e-01	 2.2899697295e+00
 1.2416212201e+00	 4.5837413718e-01	 2.2247799080e+00
 1.2841589545e+00	 3.4390612046e-01	 2.8197583691e+00
 1.2809748465e+00	 3.5558273674e-01	 2.7652824022e+00
 1.2776765387e+00	 3.6725781497e-01	 2.7091704419e+00
 1.2742636545e+00	 3.7892978100e-01	 2.6515034757e+00
 1.2707358448e+00	 3.9059704660e-01	 2.5923626604e+00
 1.2670927881e+00	 4.0225801000e-01	 2.5318296569e+00
 1.2633341908e+00	 4.1391105641e-01	 2.4699869461e+00
 1.2594597881e+00	 4.2555455869e-01	 2.4069181217e+00
 1.2554693441e+00	 4.3718687785e-01	 2.3427081606e+00
 1.2513626525e+00	 4.4880636372e-01	 2.2774436675e+00
 1.2471395366e+00	 4.6041135557e-01	 2.2112130908e+00
 1.2898410738e+00	 3.4542782896e-01	 2.8147264652e+00
 1.2866428768e+00	 3.5715611168e-01	 2.7595266654e+00
 1.2833299747e+00	 3.6888284955e-01	 2.7026468958e+00
 1.2799019893e+00	 3.8060646145e-01	 2.6441684257e+00
 1.2763585698e+00	 3.9232535212e-01	 2.5841727194e+00
 1.2726993933e+00	 4.0403791269e-01	 2.5227417731e+00
 1.2689241650e+00	 4.1574252126e-01	 2.4599584327e+00
 1.2650326190e+00	 4.2743754346e-01	 2.3959066914e+00
 1.2610245182e+00	 4.3912133306e-01	 2.3306719649e+00
 1.2568996554e+00	 4.5079223259e-01	 2.2643413417e+00
 1.2526578532e+00	 4.6244857395e-01	 2.1970038069e+00
 1.2955231930e+00	 3.4694953745e-01	 2.8097811460e+00
 1.2923109071e+00	 3.5872948662e-01	 2.7538382324e+00
 1.2889834107e+00	 3.7050788413e-01	 2.6961425716e+00
 1.2855403240e+00	 3.8228314190e-01	 2.6367814777e+00
 1.2819812948e+00	 3.9405365764e-01	 2.5758424552e+00
 1.2783059986e+00	 4.0581781539e-01	 2.5134135299e+00
 1.2745141393e+00	 4.1757398611e-01	 2.4495835615e+00
 1.2706054499e+00	 4.2932052823e-01	 2.3844425367e+00
 1.2665796923e+00	 4.4105578827e-01	 2.3180818413e+00
 1.2624366583e+00	 4.5277810145e-01	 2.2505945089e+00
 1.2581761697e+00	 4.6448579234e-01	 2.1820754439e+00
 1.3012053123e+00	 3.4847124595e-01	 2.8048604257e+00
 1.2979789374e+00	 3.6030286157e-01	 2.7481595390e+00
 1.2946368467e+00	 3.7213291871e-01	 2.6896032121e+00
 1.2911786588e+00	 3.8395982234e-01	 2.6292904929e+00
 1.2876040198e+00	 3.9578196315e-01	 2.5673205857e+00
 1.2839126038e+00	 4.0759771809e-01	 2.5037931669e+00
 1.2801041136e+00	 4.1940545097e-01	 2.4388086846e+00
 1.2761782808e+00	 4.3120351301e-01	 2.3724686397e+00
 1.2721348664e+00	 4.4299024348e-01	 2.3048758466e+00
 1.2679736611e+00	 4.5476397032e-01	 2.2361346722e+00
 1.2636944862e+00	 4.6652301073e-01	 2.1663512498e+00
 1.3068874316e+00	 3.4999295445e-01	 2.7999022644e+00
 1.3036469677e+00	 3.6187623651e-01	 2.7424328562e+00
 1.3002902827e+00	 3.7375795329e-01	 2.6829743040e+00
 1.2968169935e+00	 3.8563650279e-01	 2.6216430072e+00
 1.2932267447e+00	 3.9751026867e-01	 2.5585554564e+00
 1.2895192091e+00	 4.0937762079e-01	 2.4938285275e+00
 1.2856940879e+00	 4.2123691582e-01	 2.4275797598e+00
 1.2817511117e+00	 4.3308649778e-01	 2.3599276166e+00
 1.2776900405e+00	 4.4492469869e-01	 2.2909917271e+00
 1.2735106640e+00	 4.5674983918e-01	 2.2208931077e+00
 1.2692128028e+00	 4.6856022912e-01	 2.1497543590e+00
 1.2140296374e+00	 4.4818804524e-01	 2.2856453676e+00
 1.2098051639e+00	 4.5946920442e-01	 2.2243695248e+00
 1.2054671020e+00	 4.7073299271e-01	 2.1621531345e+00
 1.2010153692e+00	 4.8197776643e-01	 2.0991460212e+00
 1.1964499136e+00	 4.9320187415e-01	 2.0354893860e+00
 1.1917707140e+00	 5.0440365746e-01	 1.9713155951e+00
 1.1869777804e+00	 5.1558145161e-01	 1.9067479305e+00
 1.1820711542e+00	 5.2673358620e-01	 1.8419002980e+00
 1.1770509084e+00	 5.3785838597e-01	 1.7768768901e+00
 1.1719171481e+00	 5.4895417146e-01	 1.7097981534e+00
 1.1666700104e+00	 5.6001925977e-01	 1.6378189106e+00
 1.2195479540e+00	 4.5022526363e-01	 2.2741484115e+00
 1.2153042783e+00	 4.6155770080e-01	 2.2117838712e+00
 1.2109464979e+00	 4.7287268813e-01	 2.1481815399e+00
 1.2064745300e+00	 4.8416857446e-01	 2.0835006388e+00
 1.2018883223e+00	 4.9544370085e-01	 2.0178939321e+00
 1.1971878536e+00	 5.0669640136e-01	 1.9515075409e+00
 1.1923731340e+00	 5.1792500366e-01	 1.8844807151e+00
 1.1874442049e+00	 5.2912782978e-01	 1.8169455623e+00
 1.1824011398e+00	 5.4030319682e-01	 1.7490267271e+00
 1.1772440443e+00	 5.5144941769e-01	 1.6808410200e+00
 1.1719730559e+00	 5.6256480186e-01	 1.6106441979e+00
 1.2250662705e+00	 4.5226248202e-01	 2.2623890423e+00
 1.2208033927e+00	 4.6364619718e-01	 2.1989531817e+00
 1.2164258938e+00	 4.7501238356e-01	 2.1340333506e+00
 1.2119336908e+00	 4.8635938249e-01	 2.0678008667e+00
 1.2073267310e+00	 4.9768552755e-01	 2.0004227342e+00
 1.2026049932e+00	 5.0898914526e-01	 1.9320614790e+00
 1.1977684875e+00	 5.2026855571e-01	 1.8628749405e+00
 1.1928172556e+00	 5.3152207335e-01	 1.7930160158e+00
 1.1877513712e+00	 5.4274800766e-01	 1.7226323536e+00
 1.1825709404e+00	 5.5394466393e-01	 1.6518659942e+00
 1.1772761014e+00	 5.6511034395e-01	 1.5808529504e+00
 1.2305845870e+00	 4.5429970040e-01	 2.2502917378e+00
 1.2263025071e+00	 4.6573469357e-01	 2.1857916635e+00
 1.2219052898e+00	 4.7715207898e-01	 2.1196117915e+00
 1.2173928515e+00	 4.8855019051e-01	 2.0519381988e+00
 1.2127651397e+00	 4.9992735426e-01	 1.9829547703e+00
 1.2080221328e+00	 5.1128188916e-01	 1.9128430514e+00
 1.2031638411e+00	 5.2261210776e-01	 1.8417820555e+00
 1.1981903063e+00	 5.3391631692e-01	 1.7699480215e+00
 1.1931016026e+00	 5.4519281851e-01	 1.6975141186e+00
 1.1878978365e+00	 5.5643991016e-01	 1.6246500941e+00
 1.1825791469e+00	 5.6765588604e-01	 1.5515218591e+00
 1.2361029036e+00	 4.5633691879e-01	 2.2377807054e+00
 1.2318016214e+00	 4.6782318995e-01	 2.1722133956e+00
 1.2273846857e+00	 4.7929177440e-01	 2.1048201131e+00
 1.2228520123e+00	 4.9074099854e-01	 2.0358043219e+00
 1.2182035484e+00	 5.0216918096e-01	 1.9653693922e+00
 1.2134392724e+00	 5.1357463305e-01	 1.8937184677e+00
 1.2085591946e+00	 5.2495565982e-01	 1.8210542851e+00
 1.2035633570e+00	 5.3631056050e-01	 1.7475789421e+00
 1.1984518341e+00	 5.4763762935e-01	 1.6734936098e+00
 1.1932247326e+00	 5.5893515640e-01	 1.5989981845e+00
 1.1878821924e+00	 5.7020142813e-01	 1.5242908763e+00
 1.2416212201e+00	 4.5837413718e-01	 2.2247799080e+00
 1.2373007358e+00	 4.6991168633e-01	 2.1581323530e+00
 1.2328640816e+00	 4.8143146982e-01	 2.0895616147e+00
 1.2283111731e+00	 4.9293180657e-01	 2.0192911367e+00
 1.2236419571e+00	 5.0441100766e-01	 1.9475463438e+00
 1.2188564121e+00	 5.1586737695e-01	 1.8745545214e+00
 1.2139545481e+00	 5.2729921187e-01	 1.8005446442e+00
 1.2089364077e+00	 5.3870480407e-01	 1.7257471507e+00
 1.2038020655e+00	 5.5008244020e-01	 1.6503936602e+00
 1.1985516288e+00	 5.6143040263e-01	 1.5747166263e+00
 1.1931852379e+00	 5.7274697022e-01	 1.4989489241e+00
 1.2471395366e+00	 4.6041135557e-01	 2.2112130908e+00
 1.2427998502e+00	 4.7200018272e-01	 2.1434624317e+00
 1.2383434775e+00	 4.8357116524e-01	 2.0737396678e+00
 1.2337703338e+00	 4.9512261460e-01	 2.0022907791e+00
 1.2290803658e+00	 5.0665283436e-01	 1.9293657802e+00
 1.2242735517e+00	 5.1816012085e-01	 1.8552186069e+00
 1.2193499017e+00	 5.2964276392e-01	 1.7801069514e+00
 1.2143094584e+00	 5.4109904764e-01	 1.7042920410e+00
 1.2091522969e+00	 5.5252725104e-01	 1.6280383554e+00
 1.2038785249e+00	 5.6392564886e-01	 1.5516132798e+00
 1.1984882834e+00	 5.7529251231e-01	 1.4752866870e+00
 1.2526578532e+00	 4.6244857395e-01	 2.1970038069e+00
 1.2482989646e+00	 4.7408867910e-01	 2.1281174739e+00
 1.2438228734e+00	 4.8571086066e-01	 2.0572577389e+00
 1.2392294946e+00	 4.9731342263e-01	 1.9846956419e+00
 1.2345187745e+00	 5.0889466106e-01	 1.9107082872e+00
 1.2296906913e+00	 5.2045286475e-01	 1.8355787359e+00
 1.2247452552e+00	 5.3198631598e-01	 1.7595958434e+00
 1.2196825091e+00	 5.4349329122e-01	 1.6830540392e+00
 1.2145025283e+00	 5.5497206189e-01	 1.6062530423e+00
 1.2092054210e+00	 5.6642089510e-01	 1.5294975097e+00
 1.2037913289e+00	 5.7783805440e-01	 1.4530966118e+00
 1.2581761697e+00	 4.6448579234e-01	 2.1820754439e+00
 1.2537980790e+00	 4.7617717549e-01	 2.1120112922e+00
 1.2493022693e+00	 4.8785055608e-01	 2.0400194133e+00
 1.2446886554e+00	 4.9950423066e-01	 1.9663983959e+00
 1.2399571832e+00	 5.1113648776e-01	 1.8914549009e+00
 1.2351078309e+00	 5.2274560864e-01	 1.8155035552e+00
 1.2301406088e+00	 5.3432986803e-01	 1.7388667896e+00
 1.2250555598e+00	 5.4588753479e-01	 1.6618746157e+00
 1.2198527597e+00	 5.5741687273e-01	 1.5848643371e+00
 1.2145323171e+00	 5.6891614133e-01	 1.5081801902e+00
 1.2090943744e+00	 5.8038359649e-01	 1.4321729093e+00
 1.2636944862e+00	 4.6652301073e-01	 2.1663512498e+00
 1.2592971933e+00	 4.7826567187e-01	 2.0950576952e+00
 1.2547816653e+00	 4.8999025151e-01	 2.0219284180e+00
 1.2501478161e+00	 5.0169503869e-01	 1.9472920119e+00
 1.2453955919e+00	 5.1337831446e-01	 1.8714871273e+00
 1.2405249705e+00	 5.2503835254e-01	 1.7948623643e+00
 1.2355359623e+00	 5.3667342008e-01	 1.7177761075e+00
 1.2304286105e+00	 5.4828177836e-01	 1.6405962977e+00
 1.2252029911e+00	 5.5986168358e-01	 1.5637001354e+00
 1.2198592133e+00	 5.7141138757e-01	 1.4874737109e+00
 1.2143974199e+00	 5.8292913858e-01	 1.4123115573e+00
 1.2692128028e+00	 4.6856022912e-01	 2.1497543590e+00
 1.2647963077e+00	 4.8035416825e-01	 2.0771705115e+00
 1.2602610612e+00	 4.9212994693e-01	 2.0028886457e+00
 1.2556069769e+00	 5.0388584672e-01	 1.9272697827e+00
 1.2508340006e+00	 5.1562014116e-01	 1.8506869625e+00
 1.2459421101e+00	 5.2733109644e-01	 1.7735251329e+00
 1.2409313159e+00	 5.3901697213e-01	 1.6961809781e+00
 1.2358016612e+00	 5.5067602194e-01	 1.6190626821e+00
 1.2305532225e+00	 5.6230649443e-01	 1.5425896219e+00
 1.2251861094e+00	 5.7390663380e-01	 1.4671919843e+00
 1.2197004654e+00	 5.8547468067e-01	 1.3933103031e+00
 1.1666700104e+00	 5.6001925977e-01	 1.6378189106e+00
 1.1613096647e+00	 5.7105196533e-01	 1.5678049628e+00
 1.1558363131e+00	 5.8205060061e-01	 1.5070929427e+00
 1.1502501904e+00	 5.9301347695e-01	 1.4549154989e+00
 1.1445515642e+00	 6.0393890529e-01	 1.3988468874e+00
 1.1387407350e+00	 6.1482519695e-01	 1.3369683990e+00
 1.1328180366e+00	 6.2567066446e-01	 1.2702525858e+00
 1.1267838358e+00	 6.3647362231e-01	 1.1997201103e+00
 1.1206385326e+00	 6.4723238776e-01	 1.1264393108e+00
 1.1143825603e+00	 6.5794528170e-01	 1.0515256498e+00
 1.1080163856e+00	 6.6861062935e-01	 9.7614104032e-01
 1.1719730559e+00	 5.6256480186e-01	 1.6106441979e+00
 1.1665883450e+00	 5.7364765608e-01	 1.5422883897e+00
 1.1610901146e+00	 5.8469628516e-01	 1.4833120149e+00
 1.1554786004e+00	 5.9570899276e-01	 1.4305467082e+00
 1.1497540713e+00	 6.0668408213e-01	 1.3719629653e+00
 1.1439168293e+00	 6.1761985694e-01	 1.3076143046e+00
 1.1379672095e+00	 6.2851462203e-01	 1.2385333354e+00
 1.1319055805e+00	 6.3936668422e-01	 1.1657981528e+00
 1.1257323441e+00	 6.5017435316e-01	 1.0905318205e+00
 1.1194479356e+00	 6.6093594207e-01	 1.0139017391e+00
 1.1130528237e+00	 6.7164976858e-01	 9.3711889279e-01
 1.1772761014e+00	 5.6511034395e-01	 1.5808529504e+00
 1.1718670253e+00	 5.7624334683e-01	 1.5148674415e+00
 1.1663439160e+00	 5.8734196971e-01	 1.4583977600e+00
 1.1607070103e+00	 5.9840450856e-01	 1.4046984830e+00
 1.1549565784e+00	 6.0942925898e-01	 1.3442608967e+00
 1.1490929235e+00	 6.2041451693e-01	 1.2780591882e+00
 1.1431163824e+00	 6.3135857959e-01	 1.2071706659e+00
 1.1370273252e+00	 6.4225974614e-01	 1.1327157052e+00
 1.1308261556e+00	 6.5311631856e-01	 1.0558571730e+00
 1.1245133109e+00	 6.6392660244e-01	 9.7779973862e-01
 1.1180892618e+00	 6.7468890780e-01	 8.9978906611e-01
 1.1825791469e+00	 5.6765588604e-01	 1.5515218591e+00
 1.1771457056e+00	 5.7883903758e-01	 1.4854398237e+00
 1.1715977174e+00	 5.8998765426e-01	 1.4319634563e+00
 1.1659354203e+00	 6.0110002437e-01	 1.3771988262e+00
 1.1601590855e+00	 6.1217443582e-01	 1.3155647029e+00
 1.1542690178e+00	 6.2320917691e-01	 1.2481265773e+00
 1.1482655553e+00	 6.3420253716e-01	 1.1759912982e+00
 1.1421490699e+00	 6.4515280806e-01	 1.1003065666e+00
 1.1359199671e+00	 6.5605828396e-01	 1.0222603257e+00
 1.1295786861e+00	 6.6691726281e-01	 9.4308003893e-01
 1.1231256999e+00	 6.7772804703e-01	 8.6403185008e-01
 1.1878821924e+00	 5.7020142813e-01	 1.5242908763e+00
 1.1824243859e+00	 5.8143472833e-01	 1.4568275580e+00
 1.1768515188e+00	 5.9263333881e-01	 1.4031040020e+00
 1.1711638303e+00	 6.0379554017e-01	 1.3478777902e+00
 1.1653615926e+00	 6.1491961266e-01	 1.2857005759e+00
 1.1594451120e+00	 6.2600383690e-01	 1.2176422298e+00
 1.1534147282e+00	 6.3704649472e-01	 1.1448241770e+00
 1.1472708146e+00	 6.4804586998e-01	 1.0684066834e+00
 1.1410137786e+00	 6.5900024936e-01	 9.8958823394e-01
 1.1346440614e+00	 6.6990792318e-01	 9.0960480110e-01
 1.1281621381e+00	 6.8076718625e-01	 8.2972899690e-01
 1.1931852379e+00	 5.7274697022e-01	 1.4989489241e+00
 1.1877030662e+00	 5.8403041908e-01	 1.4306687971e+00
 1.1821053202e+00	 5.9527902335e-01	 1.3742152330e+00
 1.1763922402e+00	 6.0649105598e-01	 1.3165674580e+00
 1.1705640997e+00	 6.1766478950e-01	 1.2544968592e+00
 1.1646212063e+00	 6.2879849689e-01	 1.1864341145e+00
 1.1585639011e+00	 6.3989045229e-01	 1.1135004537e+00
 1.1523925593e+00	 6.5093893190e-01	 1.0368541360e+00
 1.1461075901e+00	 6.6194221476e-01	 9.5768984197e-01
 1.1397094367e+00	 6.7289858355e-01	 8.7723795484e-01
 1.1331985762e+00	 6.8380632548e-01	 7.9676372782e-01
 1.1984882834e+00	 5.7529251231e-01	 1.4752866870e+00
 1.1929817465e+00	 5.8662610984e-01	 1.4067377987e+00
 1.1873591217e+00	 5.9792470790e-01	 1.3470654362e+00
 1.1816206502e+00	 6.0918657178e-01	 1.2852280256e+00
 1.1757666069e+00	 6.2040996634e-01	 1.2217840287e+00
 1.1697973005e+00	 6.3159315687e-01	 1.1543323937e+00
 1.1637130740e+00	 6.4273440985e-01	 1.0818534700e+00
 1.1575143040e+00	 6.5383199382e-01	 1.0054891259e+00
 1.1512014016e+00	 6.6488418016e-01	 9.2641607555e-01
 1.1447748120e+00	 6.7588924392e-01	 8.4584519766e-01
 1.1382350143e+00	 6.8684546470e-01	 7.6502074056e-01
 1.2037913289e+00	 5.7783805440e-01	 1.4530966118e+00
 1.1982604268e+00	 5.8922180059e-01	 1.3847383427e+00
 1.1926129231e+00	 6.0057039245e-01	 1.3214201787e+00
 1.1868490601e+00	 6.1188208759e-01	 1.2559018765e+00
 1.1809691140e+00	 6.2315514319e-01	 1.1889493476e+00
 1.1749733948e+00	 6.3438781686e-01	 1.1211694060e+00
 1.1688622469e+00	 6.4557836742e-01	 1.0497187437e+00
 1.1626360487e+00	 6.5672505574e-01	 9.7415396450e-01
 1.1562952131e+00	 6.6782614556e-01	 8.9561983553e-01
 1.1498401872e+00	 6.7887990429e-01	 8.1529399487e-01
 1.1432714524e+00	 6.8988460393e-01	 7.3438621750e-01
 1.2090943744e+00	 5.8038359649e-01	 1.4321729093e+00
 1.2035391071e+00	 5.9181749134e-01	 1.3637110149e+00
 1.1978667245e+00	 6.0321607700e-01	 1.2970497531e+00
 1.1920774701e+00	 6.1457760339e-01	 1.2283540646e+00
 1.1861716211e+00	 6.2590032003e-01	 1.1583516882e+00
 1.1801494890e+00	 6.3718247684e-01	 1.0877751034e+00
 1.1740114198e+00	 6.4842232499e-01	 1.0169339552e+00
 1.1677577934e+00	 6.5961811766e-01	 9.4269306322e-01
 1.1613890247e+00	 6.7076811095e-01	 8.6515599259e-01
 1.1549055625e+00	 6.8187056467e-01	 7.8545358063e-01
 1.1483078905e+00	 6.9292374315e-01	 7.0474783458e-01
 1.2143974199e+00	 5.8292913858e-01	 1.4123115573e+00
 1.2088177873e+00	 5.9441318209e-01	 1.3432461612e+00
 1.2031205259e+00	 6.0586176155e-01	 1.2737291065e+00
 1.1973058800e+00	 6.1727311919e-01	 1.2023539403e+00
 1.1913741282e+00	 6.2864549687e-01	 1.1297959982e+00
 1.1853255833e+00	 6.3997713683e-01	 1.0567334905e+00
 1.1791605927e+00	 6.5126628255e-01	 9.8384790639e-01
 1.1728795381e+00	 6.6251117958e-01	 9.1095292446e-01
 1.1664828362e+00	 6.7371007635e-01	 8.3488138299e-01
 1.1599709378e+00	 6.8486122504e-01	 7.5619495986e-01
 1.1533443286e+00	 6.9596288237e-01	 6.7599477098e-01
 1.2197004654e+00	 5.8547468067e-01	 1.3933103031e+00
 1.2140964676e+00	 5.9700887284e-01	 1.3231314383e+00
 1.2083743274e+00	 6.0850744609e-01	 1.2512377706e+00
 1.2025342900e+00	 6.1996863500e-01	 1.1776755719e+00
 1.1965766353e+00	 6.3139067371e-01	 1.1030537291e+00
 1.1905016775e+00	 6.4277179682e-01	 1.0279822749e+00
 1.1843097655e+00	 6.5411024012e-01	 9.5307289883e-01
 1.1780012828e+00	 6.6540424150e-01	 8.7893955102e-01
 1.1715766477e+00	 6.7665204175e-01	 8.0465480530e-01
 1.1650363131e+00	 6.8785188541e-01	 7.2739091101e-01
 1.1583807668e+00	 6.9900202160e-01	 6.4801771944e-01
 1.1080163856e+00	 6.6861062935e-01	 9.7614104032e-01
 1.1015405082e+00	 6.7922676120e-01	 9.0223283478e-01
 1.0949554613e+00	 6.8979201371e-01	 8.3076469980e-01
 1.0882618110e+00	 7.0030473020e-01	 7.6148190851e-01
 1.0814601566e+00	 7.1076326164e-01	 6.9416307239e-01
 1.0745511304e+00	 7.2116596746e-01	 6.2862085070e-01
 1.0675353974e+00	 7.3151121637e-01	 5.6470253581e-01
 1.0604136555e+00	 7.4179738721e-01	 5.0229050814e-01
 1.0531866349e+00	 7.5202286968e-01	 4.4130255525e-01
 1.0458550982e+00	 7.6218606523e-01	 3.8169205018e-01
 1.0384198400e+00	 7.7228538783e-01	 3.2344798473e-01
 1.1130528237e+00	 6.7164976858e-01	 9.3711889279e-01
 1.1065475106e+00	 6.8231415557e-01	 8.6214354761e-01
 1.0999325316e+00	 6.9292743196e-01	 7.8988941500e-01
 1.0932084556e+00	 7.0348793352e-01	 7.2005533600e-01
 1.0863758846e+00	 7.1399400374e-01	 6.5237489865e-01
 1.0794354537e+00	 7.2444399458e-01	 5.8661724496e-01
 1.0723878310e+00	 7.3483626736e-01	 5.2258774996e-01
 1.0652337176e+00	 7.4516919351e-01	 4.6012856621e-01
 1.0579738469e+00	 7.5544115545e-01	 3.9911902810e-01
 1.0506089850e+00	 7.6565054735e-01	 3.3947591052e-01
 1.0431399302e+00	 7.7579577595e-01	 2.8115353747e-01
 1.1180892618e+00	 6.7468890780e-01	 8.9978906611e-01
 1.1115545129e+00	 6.8540154994e-01	 8.2381586744e-01
 1.1049096019e+00	 6.9606285020e-01	 7.5078029106e-01
 1.0981551002e+00	 7.0667113684e-01	 6.8034876807e-01
 1.0912916126e+00	 7.1722474583e-01	 6.1222373956e-01
 1.0843197770e+00	 7.2772202171e-01	 5.4614454167e-01
 1.0772402647e+00	 7.3816131834e-01	 4.8188815911e-01
 1.0700537796e+00	 7.4854099982e-01	 4.1926983996e-01
 1.0627610588e+00	 7.5885944122e-01	 3.5814356596e-01
 1.0553628718e+00	 7.6911502946e-01	 2.9840237244e-01
 1.0478600204e+00	 7.7930616408e-01	 2.3997851332e-01
 1.1231256999e+00	 6.7772804703e-01	 8.6403185008e-01
 1.1165615152e+00	 6.8848894431e-01	 7.8715104026e-01
 1.1098866721e+00	 6.9919826844e-01	 7.1335692004e-01
 1.1031017448e+00	 7.0985434016e-01	 6.4229733782e-01
 1.0962073406e+00	 7.2045548793e-01	 5.7365727100e-01
 1.0892041003e+00	 7.3100004883e-01	 5.0715977014e-01
 1.0820926983e+00	 7.4148636932e-01	 4.4256676762e-01
 1.0748738417e+00	 7.5191280612e-01	 3.7967974385e-01
 1.0675482708e+00	 7.6227772699e-01	 3.1834024435e-01
 1.0601167586e+00	 7.7257951158e-01	 2.5843024212e-01
 1.0525801106e+00	 7.8281655221e-01	 1.9987234019e-01
 1.1281621381e+00	 6.8076718625e-01	 8.2972899690e-01
 1.1215685175e+00	 6.9157633868e-01	 7.5205144595e-01
 1.1148637424e+00	 7.0233368669e-01	 6.7753974419e-01
 1.1080483894e+00	 7.1303754348e-01	 6.0583679279e-01
 1.1011230685e+00	 7.2368623003e-01	 5.3662359884e-01
 1.0940884237e+00	 7.3427807595e-01	 4.6962025955e-01
 1.0869451319e+00	 7.4481142031e-01	 4.0458680728e-01
 1.0796939038e+00	 7.5528461243e-01	 3.4132390795e-01
 1.0723354828e+00	 7.6569601276e-01	 2.7967340636e-01
 1.0648706454e+00	 7.7604399369e-01	 2.1951871208e-01
 1.0573002008e+00	 7.8632694033e-01	 1.6078502100e-01
 1.1331985762e+00	 6.8380632548e-01	 7.9676372782e-01
 1.1265755198e+00	 6.9466373305e-01	 7.1842061381e-01
 1.1198408127e+00	 7.0546910493e-01	 6.4325007929e-01
 1.1129950340e+00	 7.1622074680e-01	 5.7090352510e-01
 1.1060387965e+00	 7.2691697213e-01	 5.0107129457e-01
 1.0989727470e+00	 7.3755610308e-01	 4.3348367898e-01
 1.0917975655e+00	 7.4813647129e-01	 3.6791178009e-01
 1.0845139658e+00	 7.5865641873e-01	 3.0416822223e-01
 1.0771226948e+00	 7.6911429853e-01	 2.4210770691e-01
 1.0696245322e+00	 7.7950847580e-01	 1.8162740389e-01
 1.0620202909e+00	 7.8983732846e-01	 1.2266717318e-01
 1.1382350143e+00	 6.8684546470e-01	 7.6502074056e-01
 1.1315825221e+00	 6.9775112741e-01	 6.8616323868e-01
 1.1248178830e+00	 7.0860452318e-01	 6.1041013849e-01
 1.1179416786e+00	 7.1940395012e-01	 5.3743460187e-01
 1.1109545245e+00	 7.3014771423e-01	 4.6694943117e-01
 1.1038570703e+00	 7.4083413020e-01	 3.9870807727e-01
 1.0966499992e+00	 7.5146152227e-01	 3.3250550112e-01
 1.0893340279e+00	 7.6202822504e-01	 2.6817888077e-01
 1.0819099068e+00	 7.7253258431e-01	 2.0560815697e-01
 1.0743784190e+00	 7.8297295792e-01	 1.4471641085e-01
 1.0667403811e+00	 7.9334771659e-01	 8.5470068148e-02
 1.1432714524e+00	 6.8988460393e-01	 7.3438621750e-01
 1.1365895244e+00	 7.0083852178e-01	 6.5518519767e-01
 1.1297949533e+00	 7.1173994142e-01	 5.7894305651e-01
 1.1228883232e+00	 7.2258715344e-01	 5.0536779581e-01
 1.1158702525e+00	 7.3337845633e-01	 4.3420761890e-01
 1.1087413936e+00	 7.4411215733e-01	 3.6525192299e-01
 1.1015024328e+00	 7.5478657326e-01	 2.9833214111e-01
 1.0941540900e+00	 7.6540003134e-01	 2.3332242590e-01
 1.0866971187e+00	 7.7595087008e-01	 1.7014016767e-01
 1.0791323059e+00	 7.8643744003e-01	 1.0874634058e-01
 1.0714604713e+00	 7.9685810471e-01	 4.9145670918e-02
 1.1483078905e+00	 6.9292374315e-01	 7.0474783458e-01
 1.1415965267e+00	 7.0392591615e-01	 6.2539356730e-01
 1.1347720235e+00	 7.1487535966e-01	 5.4877291412e-01
 1.1278349678e+00	 7.2577035675e-01	 4.7464161596e-01
 1.1207859805e+00	 7.3660919842e-01	 4.0279604129e-01
 1.1136257169e+00	 7.4739018445e-01	 3.3307414430e-01
 1.1063548664e+00	 7.5811162424e-01	 2.6535626919e-01
 1.0989741521e+00	 7.6877183765e-01	 1.9956579221e-01
 1.0914843307e+00	 7.7936915585e-01	 1.3566959433e-01
 1.0838861927e+00	 7.8990192215e-01	 7.3678357622e-02
 1.0761805615e+00	 8.0036849284e-01	 1.3646679697e-02
 1.1533443286e+00	 6.9596288237e-01	 6.7599477098e-01
 1.1466035290e+00	 7.0701331052e-01	 5.9669664130e-01
 1.1397490938e+00	 7.1801077791e-01	 5.1982476300e-01
 1.1327816124e+00	 7.2895356007e-01	 4.4519533871e-01
 1.1257017085e+00	 7.3983994052e-01	 3.7266549111e-01
 1.1185100403e+00	 7.5066821158e-01	 3.0213416892e-01
 1.1112073000e+00	 7.6143667522e-01	 2.3354289534e-01
 1.1037942141e+00	 7.7214364395e-01	 1.6687635048e-01
 1.0962715427e+00	 7.8278744162e-01	 1.0216278041e-01
 1.0886400795e+00	 7.9336640426e-01	 3.9474225985e-02
 1.0809006517e+00	 8.0387888097e-01	-2.1073434415e-02
 1.1583807668e+00	 6.9900202160e-01	 6.4801771944e-01
 1.1516105313e+00	 7.1010070489e-01	 5.6900394880e-01
 1.1447261641e+00	 7.2114619615e-01	 4.9202465098e-01
 1.1377282570e+00	 7.3213676339e-01	 4.1696903898e-01
 1.1306174365e+00	 7.4307068262e-01	 3.4376740650e-01
 1.1233943636e+00	 7.5394623870e-01	 2.7239196393e-01
 1.1160597337e+00	 7.6476172621e-01	 2.0285751294e-01
 1.1086142762e+00	 7.7551545026e-01	 1.3522195150e-01
 1.1010587547e+00	 7.8620572739e-01	 6.9586601370e-02
 1.0933939663e+00	 7.9683088638e-01	 6.0963516778e-03
 1.0856207419e+00	 8.0738926909e-01	-5.5060387692e-02
 1.0384198400e+00	 7.7228538783e-01	 3.2344798473e-01
 1.0308816869e+00	 7.8231926474e-01	 2.6406579089e-01
 1.0232414969e+00	 7.9228613737e-01	 2.0153619330e-01
 1.0155001592e+00	 8.0218446200e-01	 1.3664612927e-01
 1.0076585941e+00	 8.1201271059e-01	 7.0219129922e-02
 9.9971775236e-01	 8.2176937157e-01	 3.1136838757e-03
 9.9167861502e-01	 8.3145295053e-01	-6.3778558047e-02
 9.8354219291e-01	 8.4106197108e-01	-1.2953473436e-01
 9.7530952632e-01	 8.5059497547e-01	-1.9320287675e-01
 9.6698168449e-01	 8.6005052543e-01	-2.5380416142e-01
 9.5855976519e-01	 8.6942720281e-01	-3.1033530234e-01
 1.0431399302e+00	 7.7579577595e-01	 2.8115353747e-01
 1.0355675128e+00	 7.8587526140e-01	 2.2162017016e-01
 1.0278925946e+00	 7.9588743800e-01	 1.5887648556e-01
 1.0201160690e+00	 8.0583075501e-01	 9.3732390722e-02
 1.0122388604e+00	 8.1570367746e-01	 2.7034975522e-02
 1.0042619240e+00	 8.2550468689e-01	-4.0333162078e-02
 9.9618624508e-01	 8.3523228213e-01	-1.0745575416e-01
 9.8801283924e-01	 8.4488498003e-01	-1.7338486152e-01
 9.7974275144e-01	 8.5446131627e-01	-2.3714302886e-01
 9.7137705578e-01	 8.6395984600e-01	-2.9772559179e-01
 9.6291685503e-01	 8.7337914465e-01	-3.5410312964e-01
 1.0478600204e+00	 7.7930616408e-01	 2.3997851332e-01
 1.0402533386e+00	 7.8943125806e-01	 1.8031396865e-01
 1.0325436923e+00	 7.9948873862e-01	 1.1740700270e-01
 1.0247319788e+00	 8.0947704802e-01	 5.2083065270e-02
 1.0168191268e+00	 8.1939464433e-01	-1.4794527894e-02
 1.0088060956e+00	 8.2924000222e-01	-8.2326297649e-02
 1.0006938752e+00	 8.3901161372e-01	-1.4957847200e-01
 9.9248348558e-01	 8.4870798899e-01	-2.1558502168e-01
 9.8417597656e-01	 8.5832765707e-01	-2.7934985685e-01
 9.7577242707e-01	 8.6786916657e-01	-3.3984917988e-01
 9.6727394487e-01	 8.7733108648e-01	-3.9603398846e-01
 1.0525801106e+00	 7.8281655221e-01	 1.9987234019e-01
 1.0449391645e+00	 7.9298725472e-01	 1.4008557588e-01
 1.0371947900e+00	 8.0309003924e-01	 7.7056065338e-02
 1.0293478887e+00	 8.1312334103e-01	 1.1617468903e-02
 1.0213993931e+00	 8.2308561119e-01	-5.5357910039e-02
 1.0133502672e+00	 8.3297531754e-01	-1.2296084490e-01
 1.0052015052e+00	 8.4279094531e-01	-1.9024707851e-01
 9.9695413191e-01	 8.5253099795e-01	-2.5623938554e-01
 9.8860920168e-01	 8.6219399786e-01	-3.1992980070e-01
 9.8016779837e-01	 8.7177848714e-01	-3.8028200780e-01
 9.7163103471e-01	 8.8128302831e-01	-4.3623388370e-01
 1.0573002008e+00	 7.8632694033e-01	 1.6078502100e-01
 1.0496249903e+00	 7.9654325137e-01	 1.0087417108e-01
 1.0418458877e+00	 8.0669133987e-01	 3.7752977386e-02
 1.0339637985e+00	 8.1676963404e-01	-2.7743928388e-02
 1.0259796594e+00	 8.2677657806e-01	-9.4742400575e-02
 1.0178944388e+00	 8.3671063287e-01	-1.6233050623e-01
 1.0097091353e+00	 8.4657027691e-01	-2.2956042955e-01
 1.0014247782e+00	 8.5635400691e-01	-2.9545055105e-01
 9.9304242680e-01	 8.6606033866e-01	-3.5898769755e-01
 9.8456316966e-01	 8.7568780771e-01	-4.1912955790e-01
 9.7598812455e-01	 8.8523497014e-01	-4.7480725841e-01
 1.0620202909e+00	 7.8983732846e-01	 1.2266717318e-01
 1.0543108162e+00	 8.0009924803e-01	 6.2619758744e-02
 1.0464969855e+00	 8.1029264049e-01	-5.7194192653e-04
 1.0385797083e+00	 8.2041592705e-01	-6.6079473709e-02
 1.0305599258e+00	 8.3046754493e-01	-1.3303390290e-01
 1.0224386104e+00	 8.4044594819e-01	-2.0052754032e-01
 1.0142167654e+00	 8.5034960850e-01	-2.6761584741e-01
 1.0058954246e+00	 8.6017701587e-01	-3.3331952212e-01
 9.9747565192e-01	 8.6992667946e-01	-3.9662676095e-01
 9.8895854095e-01	 8.7959712828e-01	-4.5649569186e-01
 9.8034521440e-01	 8.8918691197e-01	-5.1185697206e-01
 1.0667403811e+00	 7.9334771659e-01	 8.5470068148e-02
 1.0589966420e+00	 8.0365524469e-01	 2.5263204334e-02
 1.0511480832e+00	 8.1389394112e-01	-3.7987325766e-02
 1.0431956181e+00	 8.2406222006e-01	-1.0346630201e-01
 1.0351401921e+00	 8.3415851179e-01	-1.7031696745e-01
 1.0269827820e+00	 8.4418126352e-01	-2.3764273760e-01
 1.0187243954e+00	 8.5412894009e-01	-3.0450909792e-01
 1.0103660709e+00	 8.6400002483e-01	-3.6994568671e-01
 1.0019088770e+00	 8.7379302026e-01	-4.3294855937e-01
 9.9335391224e-01	 8.8350644885e-01	-4.9248262917e-01
 9.8470230424e-01	 8.9313885380e-01	-5.4748427817e-01
 1.0714604713e+00	 7.9685810471e-01	 4.9145670918e-02
 1.0636824679e+00	 8.0721124135e-01	-1.1253729813e-02
 1.0557991809e+00	 8.1749524174e-01	-7.4560727137e-02
 1.0478115279e+00	 8.2770851306e-01	-1.3998030645e-01
 1.0397204585e+00	 8.3784947866e-01	-2.0667476464e-01
 1.0315269536e+00	 8.4791657884e-01	-2.7376539516e-01
 1.0232320255e+00	 8.5790827169e-01	-3.4033436696e-01
 1.0148367172e+00	 8.6782303379e-01	-4.0542679439e-01
 1.0063421022e+00	 8.7765936106e-01	-4.6805299425e-01
 9.9774928354e-01	 8.8741576942e-01	-5.2719092492e-01
 9.8905939408e-01	 8.9709079563e-01	-5.8178880145e-01
 1.0761805615e+00	 8.0036849284e-01	 1.3646679697e-02
 1.0683682937e+00	 8.1076723801e-01	-4.6988348449e-02
 1.0604502786e+00	 8.2109654237e-01	-1.1035858607e-01
 1.0524274377e+00	 8.3135480607e-01	-1.7569610848e-01
 1.0443007248e+00	 8.4154044553e-01	-2.4218905733e-01
 1.0360711252e+00	 8.5165189417e-01	-3.0898329130e-01
 1.0277396556e+00	 8.6168760328e-01	-3.7518423643e-01
 1.0193073636e+00	 8.7164604275e-01	-4.3985893334e-01
 1.0107753273e+00	 8.8152570185e-01	-5.0203827742e-01
 1.0021446548e+00	 8.9132508999e-01	-5.6071944714e-01
 9.9341648392e-01	 9.0104273746e-01	-6.1486851430e-01
 1.0809006517e+00	 8.0387888097e-01	-2.1073434415e-02
 1.0730541196e+00	 8.1432323466e-01	-8.1996987202e-02
 1.0651013763e+00	 8.2469784299e-01	-1.4544619654e-01
 1.0570433475e+00	 8.3500109908e-01	-2.1068702749e-01
 1.0488809911e+00	 8.4523141239e-01	-2.7694017287e-01
 1.0406152968e+00	 8.5538720949e-01	-3.4338265945e-01
 1.0322472856e+00	 8.6546693487e-01	-4.0914965974e-01
 1.0237780099e+00	 8.7546905171e-01	-4.7333650676e-01
 1.0152085524e+00	 8.8539204265e-01	-5.3500090798e-01
 1.0065400261e+00	 8.9523441056e-01	-5.9316535356e-01
 9.9777357376e-01	 9.0499467929e-01	-6.4681971282e-01
 1.0856207419e+00	 8.0738926909e-01	-5.5060387692e-02
 1.0777399454e+00	 8.1787923132e-01	-1.1633497621e-01
 1.0697524740e+00	 8.2829914362e-01	-1.7988767317e-01
 1.0616592574e+00	 8.3864739209e-01	-2.4502505024e-01
 1.0534612575e+00	 8.4892237926e-01	-3.1100697484e-01
 1.0451594684e+00	 8.5912252482e-01	-3.7704816183e-01
 1.0367549157e+00	 8.6924626647e-01	-4.4231993681e-01
 1.0282486562e+00	 8.7929206067e-01	-5.0595220883e-01
 1.0196417775e+00	 8.8925838345e-01	-5.6703564864e-01
 1.0109353974e+00	 8.9914373113e-01	-6.2462406778e-01
 1.0021306636e+00	 9.0894662112e-01	-6.7773699233e-01
 9.5855976519e-01	 8.6942720281e-01	-3.1033530234e-01
 9.5004489425e-01	 8.7872361032e-01	-3.6589398143e-01
 9.4143822505e-01	 8.8793837221e-01	-4.2380492223e-01
 9.3274093799e-01	 8.9707013495e-01	-4.8338013804e-01
 9.2395423999e-01	 9.0611756788e-01	-5.4392224502e-01
 9.1507936389e-01	 9.1507936389e-01	-6.0472682534e-01
 9.0611756788e-01	 9.2395423999e-01	-6.6508487247e-01
 8.9707013495e-01	 9.3274093799e-01	-7.2428530831e-01
 8.8793837221e-01	 9.4143822505e-01	-7.8161756151e-01
 8.7872361032e-01	 9.5004489425e-01	-8.3637419549e-01
 8.6942720281e-01	 9.5855976519e-01	-8.8785357437e-01
 9.6291685503e-01	 8.7337914465e-01	-3.5410312964e-01
 9.5436328013e-01	 8.8271780855e-01	-4.0940020564e-01
 9.4571748971e-01	 8.9197445572e-01	-4.6698506037e-01
 9.3698066953e-01	 9.0114772647e-01	-5.2616833536e-01
 9.2815403199e-01	 9.1023628410e-01	-5.8625129234e-01
 9.1923881554e-01	 9.1923881554e-01	-6.4652821369e-01
 9.1023628410e-01	 9.2815403199e-01	-7.0628888772e-01
 9.0114772647e-01	 9.3698066953e-01	-7.6482116859e-01
 8.9197445572e-01	 9.4571748971e-01	-8.2141359949e-01
 8.8271780855e-01	 9.5436328013e-01	-8.7535808780e-01
 8.7337914465e-01	 9.6291685503e-01	-9.2595261991e-01
 9.6727394487e-01	 8.7733108648e-01	-3.9603398846e-01
 9.5868166601e-01	 8.8671200678e-01	-4.5106098880e-01
 9.4999675437e-01	 8.9601053923e-01	-5.0833943316e-01
 9.4122040107e-01	 9.0522531800e-01	-5.6717330238e-01
 9.3235382399e-01	 9.1435500032e-01	-6.2685712767e-01
 9.2339826720e-01	 9.2339826720e-01	-6.8667843638e-01
 9.1435500032e-01	 9.3235382399e-01	-7.4592028574e-01
 9.0522531800e-01	 9.4122040107e-01	-8.0386387382e-01
 8.9601053923e-01	 9.4999675437e-01	-8.5979121640e-01
 8.8671200678e-01	 9.5868166601e-01	-9.1298787791e-01
 8.7733108648e-01	 9.6727394487e-01	-9.6274574403e-01
 9.7163103471e-01	 8.8128302831e-01	-4.3623388370e-01
 9.6300005190e-01	 8.9070620501e-01	-4.9097994634e-01
 9.5427601902e-01	 9.0004662274e-01	-5.4796846474e-01
 9.4546013260e-01	 9.0930290952e-01	-6.0649153350e-01
 9.3655361599e-01	 9.1847371654e-01	-6.6583164062e-01
 9.2755771885e-01	 9.2755771885e-01	-7.2526416682e-01
 9.1847371654e-01	 9.3655361599e-01	-7.8405997582e-01
 9.0930290952e-01	 9.4546013260e-01	-8.4148808486e-01
 9.0004662274e-01	 9.5427601902e-01	-8.9681840379e-01
 8.9070620501e-01	 9.6300005190e-01	-9.4932453059e-01
 8.8128302831e-01	 9.7163103471e-01	-9.9828659063e-01
 9.7598812455e-01	 8.8523497014e-01	-4.7480725841e-01
 9.6731843778e-01	 8.9470040324e-01	-5.2925919727e-01
 9.5855528368e-01	 9.0408270625e-01	-5.8597116651e-01
 9.4969986414e-01	 9.1338050104e-01	-6.4421821108e-01
 9.4075340799e-01	 9.2259243275e-01	-7.0326552543e-01
 9.3171717050e-01	 9.3171717050e-01	-7.6237101425e-01
 9.2259243275e-01	 9.4075340799e-01	-8.2078794762e-01
 9.1338050104e-01	 9.4969986414e-01	-8.7776769943e-01
 9.0408270625e-01	 9.5855528368e-01	-9.3256255730e-01
 8.9470040324e-01	 9.6731843778e-01	-9.8442859137e-01
 8.8523497014e-01	 9.7598812455e-01	-1.0326285690e+00
 9.8034521440e-01	 8.8918691197e-01	-5.1185697206e-01
 9.7163682366e-01	 8.9869460147e-01	-5.6599934105e-01
 9.6283454834e-01	 9.0811878976e-01	-6.2244511237e-01
 9.5393959568e-01	 9.1745809256e-01	-6.8044717890e-01
 9.4495319999e-01	 9.2671114897e-01	-7.3924825217e-01
 9.3587662216e-01	 9.3587662216e-01	-7.9808349254e-01
 9.2671114897e-01	 9.4495319999e-01	-8.5618323732e-01
 9.1745809256e-01	 9.5393959568e-01	-9.1277581557e-01
 9.0811878976e-01	 9.6283454834e-01	-9.6709043725e-01
 8.9869460147e-01	 9.7163682366e-01	-1.0183601441e+00
 8.8918691197e-01	 9.8034521440e-01	-1.0658248084e+00
 9.8470230424e-01	 8.9313885380e-01	-5.4748427817e-01
 9.7595520955e-01	 9.0268879970e-01	-6.0129943399e-01
 9.6711381300e-01	 9.1215487327e-01	-6.5748641355e-01
 9.5817932721e-01	 9.2153568409e-01	-7.1527091504e-01
 9.4915299199e-01	 9.3082986519e-01	-7.7386803759e-01
 9.4003607381e-01	 9.4003607381e-01	-8.3248498873e-01
 9.3082986519e-01	 9.4915299199e-01	-8.9032389373e-01
 9.2153568409e-01	 9.5817932721e-01	-9.4658469503e-01
 9.1215487327e-01	 9.6711381300e-01	-1.0004681292e+00
 9.0268879970e-01	 9.7595520955e-01	-1.0511787683e+00
 8.9313885380e-01	 9.8470230424e-01	-1.0979281123e+00
 9.8905939408e-01	 8.9709079563e-01	-5.8178880145e-01
 9.8027359543e-01	 9.0668299793e-01	-6.3525696510e-01
 9.7139307766e-01	 9.1619095678e-01	-6.9118969287e-01
 9.6241905875e-01	 9.2561327561e-01	-7.4878050440e-01
 9.5335278399e-01	 9.3494858141e-01	-8.0721181554e-01
 9.4419552547e-01	 9.4419552547e-01	-8.6565773123e-01
 9.3494858141e-01	 9.5335278399e-01	-9.2328694399e-01
 9.2561327561e-01	 9.6241905875e-01	-9.7926572637e-01
 9.1619095678e-01	 9.7139307766e-01	-1.0327610042e+00
 9.0668299793e-01	 9.8027359543e-01	-1.0829434973e+00
 8.9709079563e-01	 9.8905939408e-01	-1.1289909135e+00
 9.9341648392e-01	 9.0104273746e-01	-6.1486851430e-01
 9.8459198131e-01	 9.1067719615e-01	-6.6796783134e-01
 9.7567234232e-01	 9.2022704029e-01	-7.2364805861e-01
 9.6665879028e-01	 9.2969086713e-01	-7.8106561075e-01
 9.5755257599e-01	 9.3906729763e-01	-8.3936520712e-01
 9.4835497712e-01	 9.4835497712e-01	-8.9768275771e-01
 9.3906729763e-01	 9.5755257599e-01	-9.5514835910e-01
 9.2969086713e-01	 9.6665879028e-01	-1.0108893880e+00
 9.2022704029e-01	 9.7567234232e-01	-1.0640336794e+00
 9.1067719615e-01	 9.8459198131e-01	-1.1137127751e+00
 9.0104273746e-01	 9.9341648392e-01	-1.1590652283e+00
 9.9777357376e-01	 9.0499467929e-01	-6.4681971282e-01
 9.8891036719e-01	 9.1467139438e-01	-6.9952631256e-01
 9.7995160698e-01	 9.2426312380e-01	-7.5495307782e-01
 9.7089852182e-01	 9.3376845865e-01	-8.1221444842e-01
 9.6175236799e-01	 9.4318601384e-01	-8.7041249035e-01
 9.5251442877e-01	 9.5251442877e-01	-9.2863988274e-01
 9.4318601384e-01	 9.6175236799e-01	-9.8598301923e-01
 9.3376845865e-01	 9.7089852182e-01	-1.0415252110e+00
 9.2426312380e-01	 9.7995160698e-01	-1.0943499782e+00
 9.1467139438e-01	 9.8891036719e-01	-1.1435444145e+00
 9.0499467929e-01	 9.9777357376e-01	-1.1882026118e+00
 1.0021306636e+00	 9.0894662112e-01	-6.7773699233e-01
 9.9322875308e-01	 9.1866559261e-01	-7.3002504571e-01
 9.8423087164e-01	 9.2829920731e-01	-7.8519474930e-01
 9.7513825336e-01	 9.3784605018e-01	-8.4231375354e-01
 9.6595215999e-01	 9.4730473006e-01	-9.0043656959e-01
 9.5667388043e-01	 9.5667388043e-01	-9.5860766505e-01
 9.4730473006e-01	 9.6595215999e-01	-1.0158646788e+00
 9.3784605018e-01	 9.7513825336e-01	-1.0712417419e+00
 9.2829920731e-01	 9.8423087164e-01	-1.1237728902e+00
 9.1866559261e-01	 9.9322875308e-01	-1.1724955545e+00
 9.0894662112e-01	 1.0021306636e+00	-1.2164541126e+00
 8.6942720281e-01	 9.5855976519e-01	-8.8785357437e-01
 8.6005052543e-01	 9.6698168449e-01	-9.3910710540e-01
 8.5059497547e-01	 9.7530952632e-01	-9.9305035347e-01
 8.4106197108e-01	 9.8354219291e-01	-1.0488013863e+00
 8.3145295053e-01	 9.9167861502e-01	-1.1055039046e+00
 8.2176937157e-01	 9.9971775236e-01	-1.1623300750e+00
 8.1201271059e-01	 1.0076585941e+00	-1.2184833075e+00
 8.0218446200e-01	 1.0155001592e+00	-1.2732009633e+00
 7.9228613737e-01	 1.0232414969e+00	-1.3257569818e+00
 7.8231926474e-01	 1.0308816869e+00	-1.3754644098e+00
 7.7228538783e-01	 1.0384198400e+00	-1.4216778237e+00
 8.7337914465e-01	 9.6291685503e-01	-9.2595261991e-01
 8.6395984600e-01	 9.7137705578e-01	-9.7630982223e-01
 8.5446131627e-01	 9.7974275144e-01	-1.0293941701e+00
 8.4488498003e-01	 9.8801283924e-01	-1.0843046375e+00
 8.3523228213e-01	 9.9618624508e-01	-1.1401652444e+00
 8.2550468689e-01	 1.0042619240e+00	-1.1961279744e+00
 8.1570367746e-01	 1.0122388604e+00	-1.2513756402e+00
 8.0583075501e-01	 1.0201160690e+00	-1.3051246797e+00
 7.9588743800e-01	 1.0278925946e+00	-1.3566278701e+00
 7.8587526140e-01	 1.0355675128e+00	-1.4051769473e+00
 7.7579577595e-01	 1.0431399302e+00	-1.4501051148e+00
 8.7733108648e-01	 9.6727394487e-01	-9.6274574403e-01
 8.6786916657e-01	 9.7577242707e-01	-1.0122287544e+00
 8.5832765707e-01	 9.8417597656e-01	-1.0644481455e+00
 8.4870798899e-01	 9.9248348558e-01	-1.1184898587e+00
 8.3901161372e-01	 1.0006938752e+00	-1.1734645133e+00
 8.2924000222e-01	 1.0088060956e+00	-1.2285104039e+00
 8.1939464433e-01	 1.0168191268e+00	-1.2827964429e+00
 8.0947704802e-01	 1.0247319788e+00	-1.3355250368e+00
 7.9948873862e-01	 1.0325436923e+00	-1.3859348799e+00
 7.8943125806e-01	 1.0402533386e+00	-1.4333036528e+00
 7.7930616408e-01	 1.0478600204e+00	-1.4769506104e+00
 8.8128302831e-01	 9.7163103471e-01	-9.9828659063e-01
 8.7177848714e-01	 9.8016779837e-01	-1.0469115600e+00
 8.6219399786e-01	 9.8860920168e-01	-1.0982568117e+00
 8.5253099795e-01	 9.9695413191e-01	-1.1514012191e+00
 8.4279094531e-01	 1.0052015052e+00	-1.2054481847e+00
 8.3297531754e-01	 1.0133502672e+00	-1.2595287069e+00
 8.2308561119e-01	 1.0213993931e+00	-1.3128043930e+00
 8.1312334103e-01	 1.0293478887e+00	-1.3644704066e+00
 8.0309003924e-01	 1.0371947900e+00	-1.4137583324e+00
 7.9298725472e-01	 1.0449391645e+00	-1.4599389442e+00
 7.8281655221e-01	 1.0525801106e+00	-1.5023248637e+00
 8.8523497014e-01	 9.7598812455e-01	-1.0326285690e+00
 8.7568780771e-01	 9.8456316966e-01	-1.0804058259e+00
 8.6606033866e-01	 9.9304242680e-01	-1.1308647439e+00
 8.5635400691e-01	 1.0014247782e+00	-1.1830829991e+00
 8.4657027691e-01	 1.0097091353e+00	-1.2361628644e+00
 8.3671063287e-01	 1.0178944388e+00	-1.2892343365e+00
 8.2677657806e-01	 1.0259796594e+00	-1.3414582127e+00
 8.1676963404e-01	 1.0339637985e+00	-1.3920290998e+00
 8.0669133987e-01	 1.0418458877e+00	-1.4401783415e+00
 7.9654325137e-01	 1.0496249903e+00	-1.4851768483e+00
 7.8632694033e-01	 1.0573002008e+00	-1.5263378166e+00
 8.8918691197e-01	 9.8034521440e-01	-1.0658248084e+00
 8.7959712828e-01	 9.8895854095e-01	-1.1127590198e+00
 8.6992667946e-01	 9.9747565192e-01	-1.1623165113e+00
 8.6017701587e-01	 1.0058954246e+00	-1.2135795405e+00
 8.5034960850e-01	 1.0142167654e+00	-1.2656552419e+00
 8.4044594819e-01	 1.0224386104e+00	-1.3176788092e+00
 8.3046754493e-01	 1.0305599258e+00	-1.3688166250e+00
 8.2041592705e-01	 1.0385797083e+00	-1.4182693249e+00
 8.1029264049e-01	 1.0464969855e+00	-1.4652747781e+00
 8.0009924803e-01	 1.0543108162e+00	-1.5091109707e+00
 7.8983732846e-01	 1.0620202909e+00	-1.5490987763e+00
 8.9313885380e-01	 9.8470230424e-01	-1.0979281123e+00
 8.8350644885e-01	 9.9335391224e-01	-1.1440184421e+00
 8.7379302026e-01	 1.0019088770e+00	-1.1926566281e+00
 8.6400002483e-01	 1.0103660709e+00	-1.2429351964e+00
 8.5412894009e-01	 1.0187243954e+00	-1.2939720420e+00
 8.4418126352e-01	 1.0269827820e+00	-1.3449136575e+00
 8.3415851179e-01	 1.0351401921e+00	-1.3949383096e+00
 8.2406222006e-01	 1.0431956181e+00	-1.4432591485e+00
 8.1389394112e-01	 1.0511480832e+00	-1.4891272346e+00
 8.0365524469e-01	 1.0589966420e+00	-1.5318344659e+00
 7.9334771659e-01	 1.0667403811e+00	-1.5707163916e+00
 8.9709079563e-01	 9.8905939408e-01	-1.1289909135e+00
 8.8741576942e-01	 9.9774928354e-01	-1.1742311782e+00
 8.7765936106e-01	 1.0063421022e+00	-1.2219295041e+00
 8.6782303379e-01	 1.0148367172e+00	-1.2711942826e+00
 8.5790827169e-01	 1.0232320255e+00	-1.3211599757e+00
 8.4791657884e-01	 1.0315269536e+00	-1.3709903834e+00
 8.3784947866e-01	 1.0397204585e+00	-1.4198818586e+00
 8.2770851306e-01	 1.0478115279e+00	-1.4670664548e+00
 8.1749524174e-01	 1.0557991809e+00	-1.5118149893e+00
 8.0721124135e-01	 1.0636824679e+00	-1.5534400071e+00
 7.9685810471e-01	 1.0714604713e+00	-1.5912986292e+00
 9.0104273746e-01	 9.9341648392e-01	-1.1590652283e+00
 8.9132508999e-01	 1.0021446548e+00	-1.2034440510e+00
 8.8152570185e-01	 1.0107753273e+00	-1.2501793960e+00
 8.7164604275e-01	 1.0193073636e+00	-1.2984010282e+00
 8.6168760328e-01	 1.0277396556e+00	-1.3472656925e+00
 8.5165189417e-01	 1.0360711252e+00	-1.3959604120e+00
 8.4154044553e-01	 1.0443007248e+00	-1.4437057336e+00
 8.3135480607e-01	 1.0524274377e+00	-1.4897589056e+00
 8.2109654237e-01	 1.0604502786e+00	-1.5334169704e+00
 8.1076723801e-01	 1.0683682937e+00	-1.5740197559e+00
 8.0036849284e-01	 1.0761805615e+00	-1.6109527493e+00
 9.0499467929e-01	 9.9777357376e-01	-1.1882026118e+00
 8.9523441056e-01	 1.0065400261e+00	-1.2317035735e+00
 8.8539204265e-01	 1.0152085524e+00	-1.2774503586e+00
 8.7546905171e-01	 1.0237780099e+00	-1.3245995268e+00
 8.6546693487e-01	 1.0322472856e+00	-1.3723357322e+00
 8.5538720949e-01	 1.0406152968e+00	-1.4198750452e+00
 8.4523141239e-01	 1.0488809911e+00	-1.4664682211e+00
 8.3500109908e-01	 1.0570433475e+00	-1.5114039000e+00
 8.2469784299e-01	 1.0651013763e+00	-1.5540117209e+00
 8.1432323466e-01	 1.0730541196e+00	-1.5936653316e+00
 8.0387888097e-01	 1.0809006517e+00	-1.6297852810e+00
 9.0894662112e-01	 1.0021306636e+00	-1.2164541126e+00
 8.9914373113e-01	 1.0109353974e+00	-1.2590559013e+00
 8.8925838345e-01	 1.0196417775e+00	-1.3037861965e+00
 8.7929206067e-01	 1.0282486562e+00	-1.3498336878e+00
 8.6924626647e-01	 1.0367549157e+00	-1.3964164768e+00
 8.5912252482e-01	 1.0451594684e+00	-1.4427854152e+00
 8.4892237926e-01	 1.0534612575e+00	-1.4882273894e+00
 8.3864739209e-01	 1.0616592574e+00	-1.5320685346e+00
 8.2829914362e-01	 1.0697524740e+00	-1.5736773621e+00
 8.1787923132e-01	 1.0777399454e+00	-1.6124677805e+00
 8.0738926909e-01	 1.0856207419e+00	-1.6479019972e+00
 7.7228538783e-01	 1.0384198400e+00	-1.4216778237e+00
 7.6218606523e-01	 1.0458550982e+00	-1.4664886597e+00
 7.5202286968e-01	 1.0531866349e+00	-1.5121408936e+00
 7.4179738721e-01	 1.0604136555e+00	-1.5582832294e+00
 7.3151121637e-01	 1.0675353974e+00	-1.6046093332e+00
 7.2116596746e-01	 1.0745511304e+00	-1.6508592707e+00
 7.1076326164e-01	 1.0814601566e+00	-1.6968207773e+00
 7.0030473020e-01	 1.0882618110e+00	-1.7423303487e+00
 6.8979201371e-01	 1.0949554613e+00	-1.7872741471e+00
 6.7922676120e-01	 1.1015405082e+00	-1.8315887148e+00
 6.6861062935e-01	 1.1080163856e+00	-1.8752614882e+00
 7.7579577595e-01	 1.0431399302e+00	-1.4501051148e+00
 7.6565054735e-01	 1.0506089850e+00	-1.4934875642e+00
 7.5544115545e-01	 1.0579738469e+00	-1.5375813314e+00
 7.4516919351e-01	 1.0652337176e+00	-1.5820599437e+00
 7.3483626736e-01	 1.0723878310e+00	-1.6266448678e+00
 7.2444399458e-01	 1.0794354537e+00	-1.6711069426e+00
 7.1399400374e-01	 1.0863758846e+00	-1.7152676374e+00
 7.0348793352e-01	 1.0932084556e+00	-1.7590001263e+00
 6.9292743196e-01	 1.0999325316e+00	-1.8022301706e+00
 6.8231415557e-01	 1.1065475106e+00	-1.8449368021e+00
 6.7164976858e-01	 1.1130528237e+00	-1.8871528016e+00
 7.7930616408e-01	 1.0478600204e+00	-1.4769506104e+00
 7.6911502946e-01	 1.0553628718e+00	-1.5189549882e+00
 7.5885944122e-01	 1.0627610588e+00	-1.5615933654e+00
 7.4854099982e-01	 1.0700537796e+00	-1.6045506619e+00
 7.3816131834e-01	 1.0772402647e+00	-1.6475623746e+00
 7.2772202171e-01	 1.0843197770e+00	-1.6904160283e+00
 7.1722474583e-01	 1.0912916126e+00	-1.7329524457e+00
 7.0667113684e-01	 1.0981551002e+00	-1.7750668281e+00
 6.9606285020e-01	 1.1049096019e+00	-1.8167096377e+00
 6.8540154994e-01	 1.1115545129e+00	-1.8578872748e+00
 6.7468890780e-01	 1.1180892618e+00	-1.8986625435e+00
 7.8281655221e-01	 1.0525801106e+00	-1.5023248637e+00
 7.7257951158e-01	 1.0601167586e+00	-1.5430159966e+00
 7.6227772699e-01	 1.0675482708e+00	-1.5843114753e+00
 7.5191280612e-01	 1.0748738417e+00	-1.6258943564e+00
 7.4148636932e-01	 1.0820926983e+00	-1.6675005752e+00
 7.3100004883e-01	 1.0892041003e+00	-1.7089204366e+00
 7.2045548793e-01	 1.0962073406e+00	-1.7499999206e+00
 7.0985434016e-01	 1.1031017448e+00	-1.7906417920e+00
 6.9919826844e-01	 1.1098866721e+00	-1.8308065060e+00
 6.8848894431e-01	 1.1165615152e+00	-1.8705129028e+00
 6.7772804703e-01	 1.1231256999e+00	-1.9098386839e+00
 7.8632694033e-01	 1.0573002008e+00	-1.5263378166e+00
 7.7604399369e-01	 1.0648706454e+00	-1.5657948517e+00
 7.6569601276e-01	 1.0723354828e+00	-1.6058692371e+00
 7.5528461243e-01	 1.0796939038e+00	-1.6462290822e+00
 7.4481142031e-01	 1.0869451319e+00	-1.6865973435e+00
 7.3427807595e-01	 1.0940884237e+00	-1.7267533787e+00
 7.2368623003e-01	 1.1011230685e+00	-1.7665343096e+00
 7.1303754348e-01	 1.1080483894e+00	-1.8058361845e+00
 7.0233368669e-01	 1.1148637424e+00	-1.8446149301e+00
 6.9157633868e-01	 1.1215685175e+00	-1.8828870867e+00
 6.8076718625e-01	 1.1281621381e+00	-1.9207303187e+00
 7.8983732846e-01	 1.0620202909e+00	-1.5490987763e+00
 7.7950847580e-01	 1.0696245322e+00	-1.5874149957e+00
 7.6911429853e-01	 1.0771226948e+00	-1.6263993100e+00
 7.5865641873e-01	 1.0845139658e+00	-1.6656919659e+00
 7.4813647129e-01	 1.0917975655e+00	-1.7049896955e+00
 7.3755610308e-01	 1.0989727470e+00	-1.7440473562e+00
 7.2691697213e-01	 1.1060387965e+00	-1.7826793738e+00
 7.1622074680e-01	 1.1129950340e+00	-1.8207609800e+00
 7.0546910493e-01	 1.1198408127e+00	-1.8582292345e+00
 6.9466373305e-01	 1.1265755198e+00	-1.8950838232e+00
 6.8380632548e-01	 1.1331985762e+00	-1.9313876265e+00
 7.9334771659e-01	 1.0667403811e+00	-1.5707163916e+00
 7.8297295792e-01	 1.0743784190e+00	-1.6079990330e+00
 7.7253258431e-01	 1.0819099068e+00	-1.6460334226e+00
 7.6202822504e-01	 1.0893340279e+00	-1.6844191938e+00
 7.5146152227e-01	 1.0966499992e+00	-1.7228137772e+00
 7.4083413020e-01	 1.1038570703e+00	-1.7609341478e+00
 7.3014771423e-01	 1.1109545245e+00	-1.7985583716e+00
 7.1940395012e-01	 1.1179416786e+00	-1.8355269404e+00
 7.0860452318e-01	 1.1248178830e+00	-1.8717438872e+00
 6.9775112741e-01	 1.1315825221e+00	-1.9071776709e+00
 6.8684546470e-01	 1.1382350143e+00	-1.9418618249e+00
 7.9685810471e-01	 1.0714604713e+00	-1.5912986292e+00
 7.8643744003e-01	 1.0791323059e+00	-1.6276687119e+00
 7.7595087008e-01	 1.0866971187e+00	-1.6649023581e+00
 7.6540003134e-01	 1.0941540900e+00	-1.7025459995e+00
 7.5478657326e-01	 1.1015024328e+00	-1.7402048527e+00
 7.4411215733e-01	 1.1087413936e+00	-1.7775447963e+00
 7.3337845633e-01	 1.1158702525e+00	-1.8142940425e+00
 7.2258715344e-01	 1.1228883232e+00	-1.8502445938e+00
 7.1173994142e-01	 1.1297949533e+00	-1.8852534724e+00
 7.0083852178e-01	 1.1365895244e+00	-1.9192437158e+00
 6.8988460393e-01	 1.1432714524e+00	-1.9522051283e+00
 8.0036849284e-01	 1.0761805615e+00	-1.6109527493e+00
 7.8990192215e-01	 1.0838861927e+00	-1.6465449060e+00
 7.7936915585e-01	 1.0914843307e+00	-1.6831359398e+00
 7.6877183765e-01	 1.0989741521e+00	-1.7202066511e+00
 7.5811162424e-01	 1.1063548664e+00	-1.7572972917e+00
 7.4739018445e-01	 1.1136257169e+00	-1.7940095937e+00
 7.3660919842e-01	 1.1207859805e+00	-1.8300085901e+00
 7.2577035675e-01	 1.1278349678e+00	-1.8650242133e+00
 7.1487535966e-01	 1.1347720235e+00	-1.8988526638e+00
 7.0392591615e-01	 1.1415965267e+00	-1.9313575376e+00
 6.9292374315e-01	 1.1483078905e+00	-1.9624707047e+00
 8.0387888097e-01	 1.0809006517e+00	-1.6297852810e+00
 7.9336640426e-01	 1.0886400795e+00	-1.6647475947e+00
 7.8278744162e-01	 1.0962715427e+00	-1.7008630153e+00
 7.7214364395e-01	 1.1037942141e+00	-1.7375344373e+00
 7.6143667522e-01	 1.1112073000e+00	-1.7742245555e+00
 7.5066821158e-01	 1.1185100403e+00	-1.8104580676e+00
 7.3983994052e-01	 1.1257017085e+00	-1.8458236646e+00
 7.2895356007e-01	 1.1327816124e+00	-1.8799757957e+00
 7.1801077791e-01	 1.1397490938e+00	-1.9126361972e+00
 7.0701331052e-01	 1.1466035290e+00	-1.9435951752e+00
 6.9596288237e-01	 1.1533443286e+00	-1.9727126340e+00
 8.0738926909e-01	 1.0856207419e+00	-1.6479019972e+00
 7.9683088638e-01	 1.0933939663e+00	-1.6823958441e+00
 7.8620572739e-01	 1.1010587547e+00	-1.7182114404e+00
 7.7551545026e-01	 1.1086142762e+00	-1.7546616535e+00
 7.6476172621e-01	 1.1160597337e+00	-1.7911191841e+00
 7.5394623870e-01	 1.1233943636e+00	-1.8270189654e+00
 7.4307068262e-01	 1.1306174365e+00	-1.8618603453e+00
 7.3213676339e-01	 1.1377282570e+00	-1.8952090394e+00
 7.2114619615e-01	 1.1447261641e+00	-1.9266988433e+00
 7.1010070489e-01	 1.1516105313e+00	-1.9560330932e+00
 6.9900202160e-01	 1.1583807668e+00	-1.9829858662e+00
 6.6861062935e-01	 1.1080163856e+00	-1.8752614882e+00
 6.5794528170e-01	 1.1143825603e+00	-1.9178245963e+00
 6.4723238776e-01	 1.1206385326e+00	-1.9584811176e+00
 6.3647362231e-01	 1.1267838358e+00	-1.9968172016e+00
 6.2567066446e-01	 1.1328180366e+00	-2.0324911060e+00
 6.1482519695e-01	 1.1387407350e+00	-2.0652332719e+00
 6.0393890529e-01	 1.1445515642e+00	-2.0948461478e+00
 5.9301347695e-01	 1.1502501904e+00	-2.1212037624e+00
 5.8205060061e-01	 1.1558363131e+00	-2.1454722474e+00
 5.7105196533e-01	 1.1613096647e+00	-2.1733712094e+00
 5.6001925977e-01	 1.1666700104e+00	-2.2056313567e+00
 6.7164976858e-01	 1.1130528237e+00	-1.8871528016e+00
 6.6093594207e-01	 1.1194479356e+00	-1.9285202067e+00
 6.5017435316e-01	 1.1257323441e+00	-1.9682544792e+00
 6.3936668422e-01	 1.1319055805e+00	-2.0058416560e+00
 6.2851462203e-01	 1.1379672095e+00	-2.0408383263e+00
 6.1761985694e-01	 1.1439168293e+00	-2.0728718985e+00
 6.0668408213e-01	 1.1497540713e+00	-2.1016406135e+00
 5.9570899276e-01	 1.1554786004e+00	-2.1269133005e+00
 5.8469628516e-01	 1.1610901146e+00	-2.1489290758e+00
 5.7364765608e-01	 1.1665883450e+00	-2.1731511371e+00
 5.6256480186e-01	 1.1719730559e+00	-2.2012617518e+00
 6.7468890780e-01	 1.1180892618e+00	-1.8986625435e+00
 6.6392660244e-01	 1.1245133109e+00	-1.9387457649e+00
 6.5311631856e-01	 1.1308261556e+00	-1.9773423151e+00
 6.4225974614e-01	 1.1370273252e+00	-2.0138517168e+00
 6.3135857959e-01	 1.1431163824e+00	-2.0477428995e+00
 6.2041451693e-01	 1.1490929235e+00	-2.0785546382e+00
 6.0942925898e-01	 1.1549565784e+00	-2.1058957316e+00
 5.9840450856e-01	 1.1607070103e+00	-2.1294449211e+00
 5.8734196971e-01	 1.1663439160e+00	-2.1489760717e+00
 5.7624334683e-01	 1.1718670253e+00	-2.1687980865e+00
 5.6511034395e-01	 1.1772761014e+00	-2.1921040600e+00
 6.7772804703e-01	 1.1231256999e+00	-1.9098386839e+00
 6.6691726281e-01	 1.1295786861e+00	-1.9485255765e+00
 6.5605828396e-01	 1.1359199671e+00	-1.9857508866e+00
 6.4515280806e-01	 1.1421490699e+00	-2.0208410219e+00
 6.3420253716e-01	 1.1482655553e+00	-2.0531910594e+00
 6.2320917691e-01	 1.1542690178e+00	-2.0822653342e+00
 6.1217443582e-01	 1.1601590855e+00	-2.1075977622e+00
 6.0110002437e-01	 1.1659354203e+00	-2.1287918992e+00
 5.8998765426e-01	 1.1715977174e+00	-2.1455207345e+00
 5.7883903758e-01	 1.1771457056e+00	-2.1603824936e+00
 5.6765588604e-01	 1.1825791469e+00	-2.1821629118e+00
 6.8076718625e-01	 1.1281621381e+00	-1.9207303187e+00
 6.6990792318e-01	 1.1346440614e+00	-1.9578855447e+00
 6.5900024936e-01	 1.1410137786e+00	-1.9934884213e+00
 6.4804586998e-01	 1.1472708146e+00	-2.0268054436e+00
 6.3704649472e-01	 1.1534147282e+00	-2.0571714447e+00
 6.2600383690e-01	 1.1594451120e+00	-2.0839903120e+00
 6.1491961266e-01	 1.1653615926e+00	-2.1067354345e+00
 6.0379554017e-01	 1.1711638303e+00	-2.1249498791e+00
 5.9263333881e-01	 1.1768515188e+00	-2.1382616066e+00
 5.8143472833e-01	 1.1824243859e+00	-2.1516249436e+00
 5.7020142813e-01	 1.1878821924e+00	-2.1736675149e+00
 6.8380632548e-01	 1.1331985762e+00	-1.9313876265e+00
 6.7289858355e-01	 1.1397094367e+00	-1.9668531192e+00
 6.6194221476e-01	 1.1461075901e+00	-2.0005650548e+00
 6.5093893190e-01	 1.1523925593e+00	-2.0317430260e+00
 6.3989045229e-01	 1.1585639011e+00	-2.0596750344e+00
 6.2879849689e-01	 1.1646212063e+00	-2.0837183149e+00
 6.1766478950e-01	 1.1705640997e+00	-2.1032998846e+00
 6.0649105598e-01	 1.1763922402e+00	-2.1179168163e+00
 5.9527902335e-01	 1.1821053202e+00	-2.1304639345e+00
 5.8403041908e-01	 1.1877030662e+00	-2.1447673651e+00
 5.7274697022e-01	 1.1931852379e+00	-2.1665534068e+00
 6.8684546470e-01	 1.1382350143e+00	-1.9418618249e+00
 6.7588924392e-01	 1.1447748120e+00	-1.9754572435e+00
 6.6488418016e-01	 1.1512014016e+00	-2.0069927728e+00
 6.5383199382e-01	 1.1575143040e+00	-2.0356539229e+00
 6.4273440985e-01	 1.1637130740e+00	-2.0606950847e+00
 6.3159315687e-01	 1.1697973005e+00	-2.0814404403e+00
 6.2040996634e-01	 1.1757666069e+00	-2.0972845940e+00
 6.0918657178e-01	 1.1816206502e+00	-2.1103712626e+00
 5.9792470790e-01	 1.1873591217e+00	-2.1245446017e+00
 5.8662610984e-01	 1.1929817465e+00	-2.1397239135e+00
 5.7529251231e-01	 1.1984882834e+00	-2.1607558747e+00
 6.8988460393e-01	 1.1432714524e+00	-1.9522051283e+00
 6.7887990429e-01	 1.1498401872e+00	-1.9837283048e+00
 6.6782614556e-01	 1.1562952131e+00	-2.0127853542e+00
 6.5672505574e-01	 1.1626360487e+00	-2.0385403375e+00
 6.4557836742e-01	 1.1688622469e+00	-2.0602270659e+00
 6.3438781686e-01	 1.1749733948e+00	-2.0771500776e+00
 6.2315514319e-01	 1.1809691140e+00	-2.0906494185e+00
 6.1188208759e-01	 1.1868490601e+00	-2.1050780705e+00
 6.0057039245e-01	 1.1926129231e+00	-2.1203990588e+00
 5.8922180059e-01	 1.1982604268e+00	-2.1363777583e+00
 5.7783805440e-01	 1.2037913289e+00	-2.1562099404e+00
 6.9292374315e-01	 1.1483078905e+00	-1.9624707047e+00
 6.8187056467e-01	 1.1549055625e+00	-1.9916980833e+00
 6.7076811095e-01	 1.1613890247e+00	-2.0179583151e+00
 6.5961811766e-01	 1.1677577934e+00	-2.0404064622e+00
 6.4842232499e-01	 1.1740114198e+00	-2.0582686011e+00
 6.3718247684e-01	 1.1801494890e+00	-2.0721020641e+00
 6.2590032003e-01	 1.1861716211e+00	-2.0865611892e+00
 6.1457760339e-01	 1.1920774701e+00	-2.1019200140e+00
 6.0321607700e-01	 1.1978667245e+00	-2.1179228834e+00
 5.9181749134e-01	 1.2035391071e+00	-2.1343265364e+00
 5.8038359649e-01	 1.2090943744e+00	-2.1528503459e+00
 6.9596288237e-01	 1.1533443286e+00	-1.9727126340e+00
 6.8486122504e-01	 1.1599709378e+00	-1.9993997022e+00
 6.7371007635e-01	 1.1664828362e+00	-2.0225288535e+00
 6.6251117958e-01	 1.1728795381e+00	-2.0412584199e+00
 6.5126628255e-01	 1.1791605927e+00	-2.0554629763e+00
 6.3997713683e-01	 1.1853255833e+00	-2.0697484472e+00
 6.2864549687e-01	 1.1913741282e+00	-2.0849417377e+00
 6.1727311919e-01	 1.1973058800e+00	-2.1007795517e+00
 6.0586176155e-01	 1.2031205259e+00	-2.1170117681e+00
 5.9441318209e-01	 1.2088177873e+00	-2.1334005921e+00
 5.8292913858e-01	 1.2143974199e+00	-2.1506115395e+00
 6.9900202160e-01	 1.1583807668e+00	-1.9829858662e+00
 6.8785188541e-01	 1.1650363131e+00	-2.0068675788e+00
 6.7665204175e-01	 1.1715766477e+00	-2.0265157942e+00
 6.6540424150e-01	 1.1780012828e+00	-2.0413028061e+00
 6.5411024012e-01	 1.1843097655e+00	-2.0552950495e+00
 6.4277179682e-01	 1.1905016775e+00	-2.0701685998e+00
 6.3139067371e-01	 1.1965766353e+00	-2.0856648297e+00
 6.1996863500e-01	 1.2025342900e+00	-2.1015394368e+00
 6.0850744609e-01	 1.2083743274e+00	-2.1175615090e+00
 5.9700887284e-01	 1.2140964676e+00	-2.1335126342e+00
 5.8547468067e-01	 1.2197004654e+00	-2.1494276623e+00
 5.6001925977e-01	 1.1666700104e+00	-2.2056313567e+00
 5.4895417146e-01	 1.1719171481e+00	-2.2371215017e+00
 5.3785838597e-01	 1.1770509084e+00	-2.2626240135e+00
 5.2673358620e-01	 1.1820711542e+00	-2.2857000434e+00
 5.1558145161e-01	 1.1869777804e+00	-2.3086201273e+00
 5.0440365746e-01	 1.1917707140e+00	-2.3312052275e+00
 4.9320187415e-01	 1.1964499136e+00	-2.3532502423e+00
 4.8197776643e-01	 1.2010153692e+00	-2.3745256213e+00
 4.7073299271e-01	 1.2054671020e+00	-2.3947789810e+00
 4.5946920442e-01	 1.2098051639e+00	-2.4137367161e+00
 4.4818804524e-01	 1.2140296374e+00	-2.4311056003e+00
 5.6256480186e-01	 1.1719730559e+00	-2.2012617518e+00
 5.5144941769e-01	 1.1772440443e+00	-2.2279656299e+00
 5.4030319682e-01	 1.1824011398e+00	-2.2518633678e+00
 5.2912782978e-01	 1.1874442049e+00	-2.2751772860e+00
 5.1792500366e-01	 1.1923731340e+00	-2.2978086328e+00
 5.0669640136e-01	 1.1971878536e+00	-2.3196325538e+00
 4.9544370085e-01	 1.2018883223e+00	-2.3404996376e+00
 4.8416857446e-01	 1.2064745300e+00	-2.3602374657e+00
 4.7287268813e-01	 1.2109464979e+00	-2.3786521608e+00
 4.6155770080e-01	 1.2153042783e+00	-2.3955299291e+00
 4.5022526363e-01	 1.2195479540e+00	-2.4106385912e+00
 5.6511034395e-01	 1.1772761014e+00	-2.1921040600e+00
 5.5394466393e-01	 1.1825709404e+00	-2.2174221452e+00
 5.4274800766e-01	 1.1877513712e+00	-2.2416735209e+00
 5.3152207335e-01	 1.1928172556e+00	-2.2648382629e+00
 5.2026855571e-01	 1.1977684875e+00	-2.2868701561e+00
 5.0898914526e-01	 1.2026049932e+00	-2.3076981713e+00
 4.9768552755e-01	 1.2073267310e+00	-2.3272279511e+00
 4.8635938249e-01	 1.2119336908e+00	-2.3453432980e+00
 4.7501238356e-01	 1.2164258938e+00	-2.3619076605e+00
 4.6364619718e-01	 1.2208033927e+00	-2.3767656116e+00
 4.5226248202e-01	 1.2250662705e+00	-2.3897443152e+00
 5.6765588604e-01	 1.1825791469e+00	-2.1821629118e+00
 5.5643991016e-01	 1.1878978365e+00	-2.2078713059e+00
 5.4519281851e-01	 1.1931016026e+00	-2.2320316084e+00
 5.3391631692e-01	 1.1981903063e+00	-2.2546752985e+00
 5.2261210776e-01	 1.2031638411e+00	-2.2758086275e+00
 5.1128188916e-01	 1.2080221328e+00	-2.2954140405e+00
 4.9992735426e-01	 1.2127651397e+00	-2.3134516065e+00
 4.8855019051e-01	 1.2173928515e+00	-2.3298604501e+00
 4.7715207898e-01	 1.2219052898e+00	-2.3445601794e+00
 4.6573469357e-01	 1.2263025071e+00	-2.3574523064e+00
 4.5429970040e-01	 1.2305845870e+00	-2.3684216536e+00
 5.7020142813e-01	 1.1878821924e+00	-2.1736675149e+00
 5.5893515640e-01	 1.1932247326e+00	-2.1992709011e+00
 5.4763762935e-01	 1.1984518341e+00	-2.2229139104e+00
 5.3631056050e-01	 1.2035633570e+00	-2.2446796413e+00
 5.2495565982e-01	 1.2085591946e+00	-2.2646267449e+00
 5.1357463305e-01	 1.2134392724e+00	-2.2827907965e+00
 5.0216918096e-01	 1.2182035484e+00	-2.2991856735e+00
 4.9074099854e-01	 1.2228520123e+00	-2.3138049347e+00
 4.7929177440e-01	 1.2273846857e+00	-2.3266231958e+00
 4.6782318995e-01	 1.2318016214e+00	-2.3375974958e+00
 4.5633691879e-01	 1.2361029036e+00	-2.3466686500e+00
 5.7274697022e-01	 1.1931852379e+00	-2.1665534068e+00
 5.6143040263e-01	 1.1985516288e+00	-2.1915781428e+00
 5.5008244020e-01	 1.2038020655e+00	-2.2142958517e+00
 5.3870480407e-01	 1.2089364077e+00	-2.2348414686e+00
 5.2729921187e-01	 1.2139545481e+00	-2.2533259827e+00
 5.1586737695e-01	 1.2188564121e+00	-2.2698377614e+00
 5.0441100766e-01	 1.2236419571e+00	-2.2844438810e+00
 4.9293180657e-01	 1.2283111731e+00	-2.2971914584e+00
 4.8143146982e-01	 1.2328640816e+00	-2.3081089781e+00
 4.6991168633e-01	 1.2373007358e+00	-2.3172076104e+00
 4.5837413718e-01	 1.2416212201e+00	-2.3244825150e+00
 5.7529251231e-01	 1.1984882834e+00	-2.1607558747e+00
 5.6392564886e-01	 1.2038785249e+00	-2.1847496589e+00
 5.5252725104e-01	 1.2091522969e+00	-2.2061520014e+00
 5.4109904764e-01	 1.2143094584e+00	-2.2251498927e+00
 5.2964276392e-01	 1.2193499017e+00	-2.2419066016e+00
 5.1816012085e-01	 1.2242735517e+00	-2.2565629561e+00
 5.0665283436e-01	 1.2290803658e+00	-2.2692386308e+00
 4.9512261460e-01	 1.2337703338e+00	-2.2800334352e+00
 4.8357116524e-01	 1.2383434775e+00	-2.2890285971e+00
 4.7200018272e-01	 1.2427998502e+00	-2.2962880373e+00
 4.6041135557e-01	 1.2471395366e+00	-2.3018596302e+00
 5.7783805440e-01	 1.2037913289e+00	-2.1562099404e+00
 5.6642089510e-01	 1.2092054210e+00	-2.1787414868e+00
 5.5497206189e-01	 1.2145025283e+00	-2.1984560731e+00
 5.4349329122e-01	 1.2196825091e+00	-2.2155929653e+00
 5.3198631598e-01	 1.2247452552e+00	-2.2303676572e+00
 5.2045286475e-01	 1.2296906913e+00	-2.2429731120e+00
 5.0889466106e-01	 1.2345187745e+00	-2.2535810101e+00
 4.9731342263e-01	 1.2392294946e+00	-2.2623429986e+00
 4.8571086066e-01	 1.2438228734e+00	-2.2693919362e+00
 4.7408867910e-01	 1.2482989646e+00	-2.2748431290e+00
 4.6244857395e-01	 1.2526578532e+00	-2.2787955526e+00
 5.8038359649e-01	 1.2090943744e+00	-2.1528503459e+00
 5.6891614133e-01	 1.2145323171e+00	-2.1735090665e+00
 5.5741687273e-01	 1.2198527597e+00	-2.1911809243e+00
 5.4588753479e-01	 1.2250555598e+00	-2.2061576825e+00
 5.3432986803e-01	 1.2301406088e+00	-2.2187070091e+00
 5.2274560864e-01	 1.2351078309e+00	-2.2290736822e+00
 5.1113648776e-01	 1.2399571832e+00	-2.2374808038e+00
 4.9950423066e-01	 1.2446886554e+00	-2.2441310144e+00
 4.8785055608e-01	 1.2493022693e+00	-2.2492077032e+00
 4.7617717549e-01	 1.2537980790e+00	-2.2528762110e+00
 4.6448579234e-01	 1.2581761697e+00	-2.2552850186e+00
 5.8292913858e-01	 1.2143974199e+00	-2.1506115395e+00
 5.7141138757e-01	 1.2198592133e+00	-2.1690072340e+00
 5.5986168358e-01	 1.2252029911e+00	-2.1842985567e+00
 5.4828177836e-01	 1.2304286105e+00	-2.1968299903e+00
 5.3667342008e-01	 1.2355359623e+00	-2.2069213290e+00
 5.2503835254e-01	 1.2405249705e+00	-2.2148688521e+00
 5.1337831446e-01	 1.2453955919e+00	-2.2209465068e+00
 5.0169503869e-01	 1.2501478161e+00	-2.2254070920e+00
 4.8999025151e-01	 1.2547816653e+00	-2.2284834400e+00
 4.7826567187e-01	 1.2592971933e+00	-2.2303895899e+00
 4.6652301073e-01	 1.2636944862e+00	-2.2313219480e+00
 5.8547468067e-01	 1.2197004654e+00	-2.1494276623e+00
 5.7390663380e-01	 1.2251861094e+00	-2.1651902158e+00
 5.6230649443e-01	 1.2305532225e+00	-2.1777801158e+00
 5.5067602194e-01	 1.2358016612e+00	-2.1875947885e+00
 5.3901697213e-01	 1.2409313159e+00	-2.1950061096e+00
 5.2733109644e-01	 1.2459421101e+00	-2.2003615509e+00
 5.1562014116e-01	 1.2508340006e+00	-2.2039853356e+00
 5.0388584672e-01	 1.2556069769e+00	-2.2061795967e+00
 4.9212994693e-01	 1.2602610612e+00	-2.2072255334e+00
 4.8035416825e-01	 1.2647963077e+00	-2.2073845610e+00
 4.6856022912e-01	 1.2692128028e+00	-2.2068994480e+00
 4.4818804524e-01	 1.2140296374e+00	-2.4311056003e+00
 4.3689115052e-01	 1.2181406352e+00	-2.4471297216e+00
 4.2558014658e-01	 1.2221382996e+00	-2.4623178879e+00
 4.1425665005e-01	 1.2260228025e+00	-2.4767429074e+00
 4.0292226730e-01	 1.2297943450e+00	-2.4904554169e+00
 3.9157859380e-01	 1.2334531565e+00	-2.5034849616e+00
 3.8022721351e-01	 1.2369994950e+00	-2.5158410602e+00
 3.6886969832e-01	 1.2404336460e+00	-2.5275142513e+00
 3.5750760749e-01	 1.2437559226e+00	-2.5384771183e+00
 3.4614248709e-01	 1.2469666648e+00	-2.5486852920e+00
 3.3477586947e-01	 1.2500662389e+00	-2.5580784270e+00
 4.5022526363e-01	 1.2195479540e+00	-2.4106385912e+00
 4.3887701939e-01	 1.2236776380e+00	-2.4242467659e+00
 4.2751460179e-01	 1.2276934737e+00	-2.4368736052e+00
 4.1613963482e-01	 1.2315956334e+00	-2.4486319116e+00
 4.0475373216e-01	 1.2353843193e+00	-2.4596114283e+00
 3.9335849650e-01	 1.2390597618e+00	-2.4698799044e+00
 3.8195551903e-01	 1.2426222199e+00	-2.4794841450e+00
 3.7054637877e-01	 1.2460719807e+00	-2.4884510432e+00
 3.5913264207e-01	 1.2494093586e+00	-2.4967885926e+00
 3.4771586204e-01	 1.2526346951e+00	-2.5044868763e+00
 3.3629757797e-01	 1.2557483582e+00	-2.5115190315e+00
 4.5226248202e-01	 1.2250662705e+00	-2.3897443152e+00
 4.4086288826e-01	 1.2292146409e+00	-2.4011208067e+00
 4.2944905700e-01	 1.2332486477e+00	-2.4114035378e+00
 4.1802261960e-01	 1.2371684644e+00	-2.4207360863e+00
 4.0658519701e-01	 1.2409742936e+00	-2.4292381854e+00
 3.9513839920e-01	 1.2446663670e+00	-2.4370067838e+00
 3.8368382454e-01	 1.2482449449e+00	-2.4441170910e+00
 3.7222305922e-01	 1.2517103155e+00	-2.4506236050e+00
 3.6075767665e-01	 1.2550627946e+00	-2.4565611209e+00
 3.4928923698e-01	 1.2583027254e+00	-2.4619457157e+00
 3.3781928647e-01	 1.2614304774e+00	-2.4667757095e+00
 4.5429970040e-01	 1.2305845870e+00	-2.3684216536e+00
 4.4284875712e-01	 1.2347516438e+00	-2.3777393925e+00
 4.3138351221e-01	 1.2388038218e+00	-2.3858841259e+00
 4.1990560437e-01	 1.2427412953e+00	-2.3930211003e+00
 4.0841666186e-01	 1.2465642679e+00	-2.3992910333e+00
 3.9691830190e-01	 1.2502729723e+00	-2.4048111791e+00
 3.8541213006e-01	 1.2538676699e+00	-2.4096763790e+00
 3.7389973966e-01	 1.2573486502e+00	-2.4139600941e+00
 3.6238271123e-01	 1.2607162306e+00	-2.4177154190e+00
 3.5086261192e-01	 1.2639707557e+00	-2.4209760714e+00
 3.3934099496e-01	 1.2671125967e+00	-2.4237573585e+00
 4.5633691879e-01	 1.2361029036e+00	-2.3466686500e+00
 4.4483462599e-01	 1.2402886467e+00	-2.3540894868e+00
 4.3331796742e-01	 1.2443589959e+00	-2.3602914727e+00
 4.2178858914e-01	 1.2483141262e+00	-2.3654525264e+00
 4.1024812671e-01	 1.2521542422e+00	-2.3697254540e+00
 3.9869820460e-01	 1.2558795775e+00	-2.3732390290e+00
 3.8714043557e-01	 1.2594903949e+00	-2.3760990589e+00
 3.7557642011e-01	 1.2629869850e+00	-2.3783894319e+00
 3.6400774581e-01	 1.2663696667e+00	-2.3801731447e+00
 3.5243598686e-01	 1.2696387860e+00	-2.3814933063e+00
 3.4086270346e-01	 1.2727947160e+00	-2.3823741165e+00
 4.5837413718e-01	 1.2416212201e+00	-2.3244825150e+00
 4.4682049485e-01	 1.2458256496e+00	-2.3301574672e+00
 4.3525242264e-01	 1.2499141700e+00	-2.3346013387e+00
 4.2367157391e-01	 1.2538869571e+00	-2.3379958318e+00
 4.1207959156e-01	 1.2577442165e+00	-2.3404970518e+00
 4.0047810730e-01	 1.2614861828e+00	-2.3422366123e+00
 3.8886874109e-01	 1.2651131198e+00	-2.3433227259e+00
 3.7725310056e-01	 1.2686253198e+00	-2.3438412761e+00
 3.6563278039e-01	 1.2720231027e+00	-2.3438568672e+00
 3.5400936180e-01	 1.2753068162e+00	-2.3434138508e+00
 3.4238441196e-01	 1.2784768352e+00	-2.3425373261e+00
 4.6041135557e-01	 1.2471395366e+00	-2.3018596302e+00
 4.4880636372e-01	 1.2513626525e+00	-2.3059291252e+00
 4.3718687785e-01	 1.2554693441e+00	-2.3087891363e+00
 4.2555455869e-01	 1.2594597881e+00	-2.3106163674e+00
 4.1391105641e-01	 1.2633341908e+00	-2.3115615389e+00
 4.0225801000e-01	 1.2670927881e+00	-2.3117505288e+00
 3.9059704660e-01	 1.2707358448e+00	-2.3112854979e+00
 3.7892978100e-01	 1.2742636545e+00	-2.3102459944e+00
 3.6725781497e-01	 1.2776765387e+00	-2.3086900367e+00
 3.5558273674e-01	 1.2809748465e+00	-2.3066551706e+00
 3.4390612046e-01	 1.2841589545e+00	-2.3041594990e+00
 4.6244857395e-01	 1.2526578532e+00	-2.2787955526e+00
 4.5079223259e-01	 1.2568996554e+00	-2.2813896652e+00
 4.3912133306e-01	 1.2610245182e+00	-2.2828299247e+00
 4.2743754346e-01	 1.2650326190e+00	-2.2832793583e+00
 4.1574252126e-01	 1.2689241650e+00	-2.2828747208e+00
 4.0403791269e-01	 1.2726993933e+00	-2.2817276817e+00
 3.9232535212e-01	 1.2763585698e+00	-2.2799259932e+00
 3.8060646145e-01	 1.2799019893e+00	-2.2775346389e+00
 3.6888284955e-01	 1.2833299747e+00	-2.2745969563e+00
 3.5715611168e-01	 1.2866428768e+00	-2.2711357344e+00
 3.4542782896e-01	 1.2898410738e+00	-2.2671542815e+00
 4.6448579234e-01	 1.2581761697e+00	-2.2552850186e+00
 4.5277810145e-01	 1.2624366583e+00	-2.2565237045e+00
 4.4105578827e-01	 1.2665796923e+00	-2.2566984047e+00
 4.2932052823e-01	 1.2706054499e+00	-2.2559498942e+00
 4.1757398611e-01	 1.2745141393e+00	-2.2543924831e+00
 4.0581781539e-01	 1.2783059986e+00	-2.2521152588e+00
 3.9405365764e-01	 1.2819812948e+00	-2.2491833090e+00
 3.8228314190e-01	 1.2855403240e+00	-2.2456389204e+00
 3.7050788413e-01	 1.2889834107e+00	-2.2415027527e+00
 3.5872948662e-01	 1.2923109071e+00	-2.2367749832e+00
 3.4694953745e-01	 1.2955231930e+00	-2.2314364210e+00
 4.6652301073e-01	 1.2636944862e+00	-2.2313219480e+00
 4.5476397032e-01	 1.2679736611e+00	-2.2313152721e+00
 4.4299024348e-01	 1.2721348664e+00	-2.2303689140e+00
 4.3120351301e-01	 1.2761782808e+00	-2.2285929205e+00
 4.1940545097e-01	 1.2801041136e+00	-2.2260707773e+00
 4.0759771809e-01	 1.2839126038e+00	-2.2228607162e+00
 3.9578196315e-01	 1.2876040198e+00	-2.2189970002e+00
 3.8395982234e-01	 1.2911786588e+00	-2.2144911848e+00
 3.7213291871e-01	 1.2946368467e+00	-2.2093333494e+00
 3.6030286157e-01	 1.2979789374e+00	-2.2034932993e+00
 3.4847124595e-01	 1.3012053123e+00	-2.1969217336e+00
 4.6856022912e-01	 1.2692128028e+00	-2.2068994480e+00
 4.5674983918e-01	 1.2735106640e+00	-2.2057478088e+00
 4.4492469869e-01	 1.2776900405e+00	-2.2038154217e+00
 4.3308649778e-01	 1.2817511117e+00	-2.2011732287e+00
 4.2123691582e-01	 1.2856940879e+00	-2.1978656088e+00
 4.0937762079e-01	 1.2895192091e+00	-2.1939117604e+00
 3.9751026867e-01	 1.2932267447e+00	-2.1893070590e+00
 3.8563650279e-01	 1.2968169935e+00	-2.1840243883e+00
 3.7375795329e-01	 1.3002902827e+00	-2.1780154394e+00
 3.6187623651e-01	 1.3036469677e+00	-2.1712119774e+00
 3.4999295445e-01	 1.3068874316e+00	-2.1635270719e+00
 3.3477586947e-01	 1.2500662389e+00	-2.5580784270e+00
 3.2340927274e-01	 1.2530550374e+00	-2.5665683110e+00
 3.1204420030e-01	 1.2559334781e+00	-2.5741716182e+00
 3.0068214030e-01	 1.2587020040e+00	-2.5809671038e+00
 2.8932456525e-01	 1.2613610825e+00	-2.5870248563e+00
 2.7797293152e-01	 1.2639112049e+00	-2.5924068022e+00
 2.6662867892e-01	 1.2663528861e+00	-2.5971671800e+00
 2.5529323030e-01	 1.2686866638e+00	-2.6013529827e+00
 2.4396799114e-01	 1.2709130984e+00	-2.6050043691e+00
 2.3265434921e-01	 1.2730327719e+00	-2.6081550437e+00
 2.2135367415e-01	 1.2750462875e+00	-2.6108326062e+00
 3.3629757797e-01	 1.2557483582e+00	-2.5115190315e+00
 3.2487931489e-01	 1.2587507421e+00	-2.5178620471e+00
 3.1346258303e-01	 1.2616422667e+00	-2.5235587164e+00
 3.0204887730e-01	 1.2644233768e+00	-2.5286617943e+00
 2.9063967691e-01	 1.2670945419e+00	-2.5332152380e+00
 2.7923644484e-01	 1.2696562558e+00	-2.5372547587e+00
 2.6784062746e-01	 1.2721090355e+00	-2.5408083401e+00
 2.5645365407e-01	 1.2744534214e+00	-2.5438967237e+00
 2.4507693656e-01	 1.2766899761e+00	-2.5465338610e+00
 2.3371186898e-01	 1.2788192845e+00	-2.5487273331e+00
 2.2235982721e-01	 1.2808419525e+00	-2.5504787375e+00
 3.3781928647e-01	 1.2614304774e+00	-2.4667757095e+00
 3.2634935704e-01	 1.2644464468e+00	-2.4710887792e+00
 3.1488096575e-01	 1.2673510552e+00	-2.4749581380e+00
 3.0341561430e-01	 1.2701447495e+00	-2.4784156236e+00
 2.9195478857e-01	 1.2728280014e+00	-2.4814841912e+00
 2.8049995817e-01	 1.2754013067e+00	-2.4841785042e+00
 2.6905257600e-01	 1.2778651850e+00	-2.4865054907e+00
 2.5761407784e-01	 1.2802201790e+00	-2.4884648642e+00
 2.4618588197e-01	 1.2824668539e+00	-2.4900496100e+00
 2.3476938875e-01	 1.2846057971e+00	-2.4912464378e+00
 2.2336598028e-01	 1.2866376174e+00	-2.4920361984e+00
 3.3934099496e-01	 1.2671125967e+00	-2.4237573585e+00
 3.2781939919e-01	 1.2701421515e+00	-2.4261532804e+00
 3.1629934848e-01	 1.2730598437e+00	-2.4282718018e+00
 3.0478235131e-01	 1.2758661223e+00	-2.4301288519e+00
 2.9326990023e-01	 1.2785614609e+00	-2.4317314385e+00
 2.8176347149e-01	 1.2811463577e+00	-2.4330782707e+00
 2.7026452454e-01	 1.2836213345e+00	-2.4341603455e+00
 2.5877450162e-01	 1.2859869365e+00	-2.4349614980e+00
 2.4729482739e-01	 1.2882437316e+00	-2.4354589146e+00
 2.3582690852e-01	 1.2903923097e+00	-2.4356236112e+00
 2.2437213334e-01	 1.2924332824e+00	-2.4354208748e+00
 3.4086270346e-01	 1.2727947160e+00	-2.3823741165e+00
 3.2928944134e-01	 1.2758378563e+00	-2.3829616806e+00
 3.1771773121e-01	 1.2787686323e+00	-2.3834030756e+00
 3.0614908831e-01	 1.2815874950e+00	-2.3837032578e+00
 2.9458501189e-01	 1.2842949203e+00	-2.3838582694e+00
 2.8302698482e-01	 1.2868914086e+00	-2.3838558852e+00
 2.7147647308e-01	 1.2893774840e+00	-2.3836762233e+00
 2.5993492539e-01	 1.2917536941e+00	-2.3832923166e+00
 2.4840377280e-01	 1.2940206093e+00	-2.3826706471e+00
 2.3688442829e-01	 1.2961788223e+00	-2.3817716429e+00
 2.2537828640e-01	 1.2982289473e+00	-2.3805501370e+00
 3.4238441196e-01	 1.2784768352e+00	-2.3425373261e+00
 3.3075948349e-01	 1.2815335610e+00	-2.3414214280e+00
 3.1913611394e-01	 1.2844774208e+00	-2.3402567358e+00
 3.0751582531e-01	 1.2873088678e+00	-2.3390420974e+00
 2.9590012355e-01	 1.2900283798e+00	-2.3377674987e+00
 2.8429049814e-01	 1.2926364595e+00	-2.3364147287e+00
 2.7268842162e-01	 1.2951336335e+00	-2.3349580066e+00
 2.6109534917e-01	 1.2975204517e+00	-2.3333645683e+00
 2.4951271821e-01	 1.2997974870e+00	-2.3315952143e+00
 2.3794194806e-01	 1.3019653349e+00	-2.3296048192e+00
 2.2638443947e-01	 1.3040246123e+00	-2.3273428017e+00
 3.4390612046e-01	 1.2841589545e+00	-2.3041594990e+00
 3.3222952564e-01	 1.2872292657e+00	-2.3014412516e+00
 3.2055449667e-01	 1.2901862094e+00	-2.2987389291e+00
 3.0888256231e-01	 1.2930302405e+00	-2.2960500641e+00
 2.9721523521e-01	 1.2957618393e+00	-2.2933634256e+00
 2.8555401147e-01	 1.2983815104e+00	-2.2906596946e+00
 2.7390037016e-01	 1.3008897829e+00	-2.2879121008e+00
 2.6225577294e-01	 1.3032872092e+00	-2.2850870177e+00
 2.5062166363e-01	 1.3055743647e+00	-2.2821445175e+00
 2.3899946783e-01	 1.3077518475e+00	-2.2790388856e+00
 2.2739059253e-01	 1.3098202772e+00	-2.2757190958e+00
 3.4542782896e-01	 1.2898410738e+00	-2.2671542815e+00
 3.3369956779e-01	 1.2929249704e+00	-2.2629311249e+00
 3.2197287940e-01	 1.2958949979e+00	-2.2587571339e+00
 3.1024929931e-01	 1.2987516132e+00	-2.2546332500e+00
 2.9853034687e-01	 1.3014952987e+00	-2.2505517945e+00
 2.8681752479e-01	 1.3041265614e+00	-2.2464971492e+00
 2.7511231870e-01	 1.3066459324e+00	-2.2424463946e+00
 2.6341619671e-01	 1.3090539668e+00	-2.2383699073e+00
 2.5173060904e-01	 1.3113512425e+00	-2.2342319147e+00
 2.4005698759e-01	 1.3135383601e+00	-2.2299910092e+00
 2.2839674560e-01	 1.3156159421e+00	-2.2256006207e+00
 3.4694953745e-01	 1.2955231930e+00	-2.2314364210e+00
 3.3516960994e-01	 1.2986206751e+00	-2.2258022305e+00
 3.2339126213e-01	 1.3016037864e+00	-2.2202201240e+00
 3.1161603631e-01	 1.3044729860e+00	-2.2146991075e+00
 2.9984545853e-01	 1.3072287582e+00	-2.2092397565e+00
 2.8808103812e-01	 1.3098716123e+00	-2.2038348933e+00
 2.7632426724e-01	 1.3124020819e+00	-2.1984702217e+00
 2.6457662049e-01	 1.3148207243e+00	-2.1931249189e+00
 2.5283955446e-01	 1.3171281202e+00	-2.1877721836e+00
 2.4111450736e-01	 1.3193248727e+00	-2.1823797432e+00
 2.2940289866e-01	 1.3214116071e+00	-2.1769103180e+00
 3.4847124595e-01	 1.3012053123e+00	-2.1969217336e+00
 3.3663965208e-01	 1.3043163798e+00	-2.1899669255e+00
 3.2480964485e-01	 1.3073125750e+00	-2.1830379322e+00
 3.1298277331e-01	 1.3101943587e+00	-2.1761564129e+00
 3.0116057019e-01	 1.3129622177e+00	-2.1693358314e+00
 2.8934455144e-01	 1.3156166632e+00	-2.1625821241e+00
 2.7753621578e-01	 1.3181582314e+00	-2.1558943231e+00
 2.6573704426e-01	 1.3205874819e+00	-2.1492651368e+00
 2.5394849987e-01	 1.3229049979e+00	-2.1426814850e+00
 2.4217202713e-01	 1.3251113853e+00	-2.1361249917e+00
 2.3040905173e-01	 1.3272072720e+00	-2.1295724352e+00
 3.4999295445e-01	 1.3068874316e+00	-2.1635270719e+00
 3.3810969423e-01	 1.3100120845e+00	-2.1553387080e+00
 3.2622802758e-01	 1.3130213635e+00	-2.1471218157e+00
 3.1434951031e-01	 1.3159157315e+00	-2.1389152301e+00
 3.0247568185e-01	 1.3186956771e+00	-2.1307498720e+00
 2.9060806477e-01	 1.3213617142e+00	-2.1226493988e+00
 2.7874816432e-01	 1.3239143809e+00	-2.1146308108e+00
 2.6689746804e-01	 1.3263542395e+00	-2.1067050122e+00
 2.5505744529e-01	 1.3286818756e+00	-2.0988773279e+00
 2.4322954690e-01	 1.3308978979e+00	-2.0911479754e+00
 2.3141520479e-01	 1.3330029370e+00	-2.0835124934e+00
 2.2135367415e-01	 1.2750462875e+00	-2.6108326062e+00
 2.1006731716e-01	 1.2769542696e+00	-2.6131333248e+00
 1.9879661071e-01	 1.2787573624e+00	-2.6151665896e+00
 1.8754286815e-01	 1.2804562300e+00	-2.6169707053e+00
 1.7630738350e-01	 1.2820515555e+00	-2.6185780118e+00
 1.6509143113e-01	 1.2835440405e+00	-2.6200150641e+00
 1.5389626554e-01	 1.2849344045e+00	-2.6213027879e+00
 1.4272312108e-01	 1.2862233846e+00	-2.6224566123e+00
 1.3157321175e-01	 1.2874117346e+00	-2.6234865821e+00
 1.2044773101e-01	 1.2885002245e+00	-2.6243974485e+00
 1.0934785158e-01	 1.2894896400e+00	-2.6251887420e+00
 2.2235982721e-01	 1.2808419525e+00	-2.5504787375e+00
 2.1102216861e-01	 1.2827586072e+00	-2.5518617124e+00
 1.9970023166e-01	 1.2845698959e+00	-2.5529855563e+00
 1.8839533573e-01	 1.2862764856e+00	-2.5538965784e+00
 1.7710878070e-01	 1.2878790626e+00	-2.5546352302e+00
 1.6584184673e-01	 1.2893783316e+00	-2.5552362741e+00
 1.5459579402e-01	 1.2907750154e+00	-2.5557289272e+00
 1.4337186254e-01	 1.2920698545e+00	-2.5561369824e+00
 1.3217127180e-01	 1.2932636061e+00	-2.5564789068e+00
 1.2099522070e-01	 1.2943570437e+00	-2.5567679205e+00
 1.0984488727e-01	 1.2953509566e+00	-2.5570120556e+00
 2.2336598028e-01	 1.2866376174e+00	-2.4920361984e+00
 2.1197702005e-01	 1.2885629448e+00	-2.4924758838e+00
 2.0060385262e-01	 1.2903824294e+00	-2.4926757233e+00
 1.8924780331e-01	 1.2920967412e+00	-2.4926878388e+00
 1.7791017789e-01	 1.2937065696e+00	-2.4925585976e+00
 1.6659226233e-01	 1.2952126226e+00	-2.4923287727e+00
 1.5529532250e-01	 1.2966156264e+00	-2.4920336779e+00
 1.4402060399e-01	 1.2979163245e+00	-2.4917032785e+00
 1.3276933186e-01	 1.2991154776e+00	-2.4913622808e+00
 1.2154271038e-01	 1.3002138629e+00	-2.4910301993e+00
 1.1034192296e-01	 1.3012122731e+00	-2.4907214048e+00
 2.2437213334e-01	 1.2924332824e+00	-2.4354208748e+00
 2.1293187149e-01	 1.2943672824e+00	-2.4348963747e+00
 2.0150747358e-01	 1.2961949628e+00	-2.4341617020e+00
 1.9010027090e-01	 1.2979169968e+00	-2.4332726301e+00
 1.7871157509e-01	 1.2995340767e+00	-2.4322792773e+00
 1.6734267792e-01	 1.3010469137e+00	-2.4312262611e+00
 1.5599485098e-01	 1.3024562373e+00	-2.4301528274e+00
 1.4466934545e-01	 1.3037627944e+00	-2.4290929547e+00
 1.3336739191e-01	 1.3049673492e+00	-2.4280754349e+00
 1.2209020007e-01	 1.3060706821e+00	-2.4271239336e+00
 1.1083895865e-01	 1.3070735897e+00	-2.4262570290e+00
 2.2537828640e-01	 1.2982289473e+00	-2.3805501370e+00
 2.1388672293e-01	 1.3001716200e+00	-2.3790451512e+00
 2.0241109454e-01	 1.3020074963e+00	-2.3773694896e+00
 1.9095273848e-01	 1.3037372524e+00	-2.3755804457e+00
 1.7951297229e-01	 1.3053615838e+00	-2.3737297537e+00
 1.6809309352e-01	 1.3068812048e+00	-2.3718637399e+00
 1.5669437946e-01	 1.3082968482e+00	-2.3700234483e+00
 1.4531808691e-01	 1.3096092643e+00	-2.3682447406e+00
 1.3396545196e-01	 1.3108192207e+00	-2.3665583724e+00
 1.2263768976e-01	 1.3119275013e+00	-2.3649900470e+00
 1.1133599434e-01	 1.3129349062e+00	-2.3635604487e+00
 2.2638443947e-01	 1.3040246123e+00	-2.3273428017e+00
 2.1484157437e-01	 1.3059759576e+00	-2.3248455743e+00
 2.0331471550e-01	 1.3078200298e+00	-2.3222264349e+00
 1.9180520606e-01	 1.3095575080e+00	-2.3195420953e+00
 1.8031436949e-01	 1.3111890908e+00	-2.3168437999e+00
 1.6884350911e-01	 1.3127154959e+00	-2.3141774777e+00
 1.5739390794e-01	 1.3141374592e+00	-2.3115838666e+00
 1.4596682837e-01	 1.3154557343e+00	-2.3090986118e+00
 1.3456351202e-01	 1.3166710922e+00	-2.3067523395e+00
 1.2318517944e-01	 1.3177843205e+00	-2.3045707075e+00
 1.1183303002e-01	 1.3187962228e+00	-2.3025744351e+00
 2.2739059253e-01	 1.3098202772e+00	-2.2757190958e+00
 2.1579642581e-01	 1.3117802952e+00	-2.2722223647e+00
 2.0421833645e-01	 1.3136325632e+00	-2.2686612043e+00
 1.9265767364e-01	 1.3153777636e+00	-2.2650896718e+00
 1.8111576668e-01	 1.3170165979e+00	-2.2615564456e+00
 1.6959392471e-01	 1.3185497870e+00	-2.2581049800e+00
 1.5809343642e-01	 1.3199780701e+00	-2.2547736318e+00
 1.4661556983e-01	 1.3213022042e+00	-2.2515957591e+00
 1.3516157207e-01	 1.3225229637e+00	-2.2485997951e+00
 1.2373266913e-01	 1.3236411397e+00	-2.2458092986e+00
 1.1233006571e-01	 1.3246575393e+00	-2.2432429813e+00
 2.2839674560e-01	 1.3156159421e+00	-2.2256006207e+00
 2.1675127726e-01	 1.3175846327e+00	-2.2211015684e+00
 2.0512195741e-01	 1.3194450967e+00	-2.2166037491e+00
 1.9351014123e-01	 1.3211980192e+00	-2.2121565203e+00
 1.8191716388e-01	 1.3228441050e+00	-2.2078039465e+00
 1.7034434031e-01	 1.3243840781e+00	-2.2035849590e+00
 1.5879296490e-01	 1.3258186810e+00	-2.1995334869e+00
 1.4726431129e-01	 1.3271486741e+00	-2.1956785594e+00
 1.3575963212e-01	 1.3283748352e+00	-2.1920443824e+00
 1.2428015882e-01	 1.3294979589e+00	-2.1886503900e+00
 1.1282710140e-01	 1.3305188559e+00	-2.1855112731e+00
 2.2940289866e-01	 1.3214116071e+00	-2.1769103180e+00
 2.1770612870e-01	 1.3233889703e+00	-2.1714105241e+00
 2.0602557837e-01	 1.3252576302e+00	-2.1659852731e+00
 1.9436260881e-01	 1.3270182748e+00	-2.1606772063e+00
 1.8271856108e-01	 1.3286716121e+00	-2.1555237540e+00
 1.7109475590e-01	 1.3302183692e+00	-2.1505573042e+00
 1.5949249338e-01	 1.3316592919e+00	-2.1458053399e+00
 1.4791305275e-01	 1.3329951441e+00	-2.1412905480e+00
 1.3635769218e-01	 1.3342267068e+00	-2.1370309004e+00
 1.2482764850e-01	 1.3353547781e+00	-2.1330397099e+00
 1.1332413709e-01	 1.3363801724e+00	-2.1293256618e+00
 2.3040905173e-01	 1.3272072720e+00	-2.1295724352e+00
 2.1866098014e-01	 1.3291933079e+00	-2.1230778303e+00
 2.0692919933e-01	 1.3310701636e+00	-2.1167382022e+00
 1.9521507639e-01	 1.3328385304e+00	-2.1105874862e+00
 1.8351995828e-01	 1.3344991191e+00	-2.1046544862e+00
 1.7184517150e-01	 1.3360526603e+00	-2.0989630538e+00
 1.6019202186e-01	 1.3374999029e+00	-2.0935322356e+00
 1.4856179421e-01	 1.3388416140e+00	-2.0883763901e+00
 1.3695575223e-01	 1.3400785783e+00	-2.0835052768e+00
 1.2537513819e-01	 1.3412115973e+00	-2.0789241182e+00
 1.1382117278e-01	 1.3422414890e+00	-2.0746336365e+00
 2.3141520479e-01	 1.3330029370e+00	-2.0835124934e+00
 2.1961583158e-01	 1.3349976455e+00	-2.0760333141e+00
 2.0783282028e-01	 1.3368826971e+00	-2.0687961533e+00
 1.9606754397e-01	 1.3386587859e+00	-2.0618242776e+00
 1.8432135548e-01	 1.3403266262e+00	-2.0551358990e+00
 1.7259558709e-01	 1.3418869514e+00	-2.0487443670e+00
 1.6089155034e-01	 1.3433405138e+00	-2.0426583282e+00
 1.4921053567e-01	 1.3446880839e+00	-2.0368818545e+00
 1.3755381228e-01	 1.3459304498e+00	-2.0314145415e+00
 1.2592262788e-01	 1.3470684165e+00	-2.0262515796e+00
 1.1431820847e-01	 1.3481028055e+00	-2.0213837983e+00
 1.0934785158e-01	 1.2894896400e+00	-2.6251887420e+00
 9.8274725250e-02	 1.2903807821e+00	-2.6257623337e+00
 8.7229482753e-02	 1.2911744660e+00	-2.6260809258e+00
 7.6213233613e-02	 1.2918715213e+00	-2.6262269813e+00
 6.5227066020e-02	 1.2924727905e+00	-2.6262769698e+00
 5.4272046728e-02	 1.2929791295e+00	-2.6263012614e+00
 4.3349220959e-02	 1.2933914061e+00	-2.6263640116e+00
 3.2459612324e-02	 1.2937105001e+00	-2.6265230435e+00
 2.1604222765e-02	 1.2939373022e+00	-2.6268297250e+00
 1.0784032502e-02	 1.2940727140e+00	-2.6273288445e+00
 0.0000000000e+00	 1.2941176471e+00	-2.6280584858e+00
 1.0984488727e-01	 1.2953509566e+00	-2.5570120556e+00
 9.8721428546e-02	 1.2962461493e+00	-2.5571227489e+00
 8.7625980402e-02	 1.2970434409e+00	-2.5570585092e+00
 7.6559657402e-02	 1.2977436645e+00	-2.5568899519e+00
 6.5523552684e-02	 1.2983476669e+00	-2.5566820664e+00
 5.4518737850e-02	 1.2988563074e+00	-2.5564941097e+00
 4.3546262872e-02	 1.2992704580e+00	-2.5563794919e+00
 3.2607156017e-02	 1.2995910023e+00	-2.5563856566e+00
 2.1702423778e-02	 1.2998188354e+00	-2.5565539565e+00
 1.0833050831e-02	 1.2999548627e+00	-2.5569195264e+00
 0.0000000000e+00	 1.3000000000e+00	-2.5575111546e+00
 1.1034192296e-01	 1.3012122731e+00	-2.4907214048e+00
 9.9168131843e-02	 1.3021115165e+00	-2.4903563824e+00
 8.8022478051e-02	 1.3029124157e+00	-2.4898922457e+00
 7.6906081191e-02	 1.3036158078e+00	-2.4893905578e+00
 6.5820039347e-02	 1.3042225432e+00	-2.4889075854e+00
 5.4765428971e-02	 1.3047334852e+00	-2.4884941896e+00
 4.3743304786e-02	 1.3051495098e+00	-2.4881957094e+00
 3.2754699709e-02	 1.3054715046e+00	-2.4880518380e+00
 2.1800624790e-02	 1.3057003686e+00	-2.4880964950e+00
 1.0882069161e-02	 1.3058370114e+00	-2.4883576940e+00
 0.0000000000e+00	 1.3058823529e+00	-2.4888574095e+00
 1.1083895865e-01	 1.3070735897e+00	-2.4262570290e+00
 9.9614835140e-02	 1.3079768837e+00	-2.4254038523e+00
 8.8418975700e-02	 1.3087813906e+00	-2.4245229906e+00
 7.7252504980e-02	 1.3094879511e+00	-2.4236697146e+00
 6.6116526011e-02	 1.3100974195e+00	-2.4228942896e+00
 5.5012120093e-02	 1.3106106631e+00	-2.4222418634e+00
 4.3940346699e-02	 1.3110285617e+00	-2.4217523433e+00
 3.2902243402e-02	 1.3113520069e+00	-2.4214602679e+00
 2.1898825803e-02	 1.3115819018e+00	-2.4213946720e+00
 1.0931087490e-02	 1.3117191601e+00	-2.4215789484e+00
 0.0000000000e+00	 1.3117647059e+00	-2.4220307065e+00
 1.1133599434e-01	 1.3129349062e+00	-2.3635604487e+00
 1.0006153844e-01	 1.3138422509e+00	-2.3622070662e+00
 8.8815473349e-02	 1.3146503654e+00	-2.3608928992e+00
 7.7598928769e-02	 1.3153600944e+00	-2.3596696491e+00
 6.6413012675e-02	 1.3159722958e+00	-2.3585842675e+00
 5.5258811214e-02	 1.3164878410e+00	-2.3576788359e+00
 4.4137388613e-02	 1.3169076135e+00	-2.3569904365e+00
 3.3049787094e-02	 1.3172325092e+00	-2.3565510152e+00
 2.1997026815e-02	 1.3174634350e+00	-2.3563872384e+00
 1.0980105820e-02	 1.3176013088e+00	-2.3565203456e+00
 0.0000000000e+00	 1.3176470588e+00	-2.3569659993e+00
 1.1183303002e-01	 1.3187962228e+00	-2.3025744351e+00
 1.0050824173e-01	 1.3197076181e+00	-2.3007091915e+00
 8.9211970997e-02	 1.3205193403e+00	-2.2989453958e+00
 7.7945352558e-02	 1.3212322377e+00	-2.2973338692e+00
 6.6709499339e-02	 1.3218471721e+00	-2.2959209020e+00
 5.5505502336e-02	 1.3223650188e+00	-2.2947481238e+00
 4.4334430526e-02	 1.3227866654e+00	-2.2938523645e+00
 3.3197330786e-02	 1.3231130114e+00	-2.2932655067e+00
 2.2095227828e-02	 1.3233449681e+00	-2.2930143324e+00
 1.1029124149e-02	 1.3234834575e+00	-2.2931203647e+00
 0.0000000000e+00	 1.3235294118e+00	-2.2935997056e+00
 1.1233006571e-01	 1.3246575393e+00	-2.2432429813e+00
 1.0095494503e-01	 1.3255729852e+00	-2.2408546259e+00
 8.9608468646e-02	 1.3263883151e+00	-2.2386251450e+00
 7.8291776347e-02	 1.3271043809e+00	-2.2366071344e+00
 6.7005986002e-02	 1.3277220485e+00	-2.2348488420e+00
 5.5752193457e-02	 1.3282421967e+00	-2.2333940264e+00
 4.4531472440e-02	 1.3286657172e+00	-2.2322818053e+00
 3.3344874479e-02	 1.3289935137e+00	-2.2315464961e+00
 2.2193428841e-02	 1.3292265013e+00	-2.2312174489e+00
 1.1078142479e-02	 1.3293656062e+00	-2.2313188756e+00
 0.0000000000e+00	 1.3294117647e+00	-2.2318696752e+00
 1.1282710140e-01	 1.3305188559e+00	-2.1855112731e+00
 1.0140164833e-01	 1.3314383524e+00	-2.1825889688e+00
 9.0004966295e-02	 1.3322572900e+00	-2.1798780229e+00
 7.8638200137e-02	 1.3329765242e+00	-2.1774354270e+00
 6.7302472666e-02	 1.3335969248e+00	-2.1753139727e+00
 5.5998884579e-02	 1.3341193745e+00	-2.1735620958e+00
 4.4728514353e-02	 1.3345447691e+00	-2.1722237105e+00
 3.3492418171e-02	 1.3348740160e+00	-2.1713380348e+00
 2.2291629853e-02	 1.3351080345e+00	-2.1709394089e+00
 1.1127160809e-02	 1.3352477549e+00	-2.1710571090e+00
 0.0000000000e+00	 1.3352941176e+00	-2.1717151578e+00
 1.1332413709e-01	 1.3363801724e+00	-2.1293256618e+00
 1.0184835162e-01	 1.3373037196e+00	-2.1258589935e+00
 9.0401463944e-02	 1.3381262648e+00	-2.1226510893e+00
 7.8984623926e-02	 1.3388486675e+00	-2.1197659246e+00
 6.7598959330e-02	 1.3394718011e+00	-2.1172633882e+00
 5.6245575700e-02	 1.3399965524e+00	-2.1151991096e+00
 4.4925556267e-02	 1.3404238209e+00	-2.1136242766e+00
 3.3639961863e-02	 1.3407545183e+00	-2.1125854430e+00
 2.2389830866e-02	 1.3409895677e+00	-2.1121243306e+00
 1.1176179138e-02	 1.3411299036e+00	-2.1122776258e+00
 0.0000000000e+00	 1.3411764706e+00	-2.1130767727e+00
 1.1382117278e-01	 1.3422414890e+00	-2.0746336365e+00
 1.0229505492e-01	 1.3431690868e+00	-2.0706126204e+00
 9.0797961593e-02	 1.3439952397e+00	-2.0668925607e+00
 7.9331047715e-02	 1.3447208108e+00	-2.0635469727e+00
 6.7895445994e-02	 1.3453466774e+00	-2.0606453639e+00
 5.6492266822e-02	 1.3458737303e+00	-2.0582530430e+00
 4.5122598180e-02	 1.3463028728e+00	-2.0564309170e+00
 3.3787505556e-02	 1.3466350205e+00	-2.0552352812e+00
 2.2488031878e-02	 1.3468711009e+00	-2.0547176006e+00
 1.1225197468e-02	 1.3470120523e+00	-2.0549242882e+00
 0.0000000000e+00	 1.3470588235e+00	-2.0558964789e+00
 1.1431820847e-01	 1.3481028055e+00	-2.0213837983e+00
 1.0274175822e-01	 1.3490344540e+00	-2.0167988901e+00
 9.1194459242e-02	 1.3498642145e+00	-2.0125517839e+00
 7.9677471504e-02	 1.3505929540e+00	-2.0087280583e+00
 6.8191932657e-02	 1.3512215537e+00	-2.0054093304e+00
 5.6738957943e-02	 1.3517509081e+00	-2.0026730420e+00
 4.5319640093e-02	 1.3521819246e+00	-2.0005922358e+00
 3.3935049248e-02	 1.3525155228e+00	-1.9992353235e+00
 2.2586232891e-02	 1.3527526341e+00	-1.9986658463e+00
 1.1274215797e-02	 1.3528942010e+00	-1.9989422314e+00
 0.0000000000e+00	 1.3529411765e+00	-2.0001175460e+00
 1.3529411765e+00	 0.0000000000e+00	 3.7013975344e+00
 1.3528942010e+00	 1.1274215797e-02	 3.6989852697e+00
 1.3527526341e+00	 2.2586232891e-02	 3.6952716091e+00
 1.3525155228e+00	 3.3935049248e-02	 3.6901469258e+00
 1.3521819246e+00	 4.5319640093e-02	 3.6834886226e+00
 1.3517509081e+00	 5.6738957943e-02	 3.6751625268e+00
 1.3512215537e+00	 6.8191932657e-02	 3.6650242822e+00
 1.3505929540e+00	 7.9677471504e-02	 3.6529207358e+00
 1.3498642145e+00	 9.1194459242e-02	 3.6386913183e+00
 1.3490344540e+00	 1.0274175822e-01	 3.6221694160e+00
 1.3481028055e+00	 1.1431820847e-01	 3.6031837318e+00
 1.3588235294e+00	 0.0000000000e+00	 3.7069057461e+00
 1.3587763497e+00	 1.1323234127e-02	 3.7043379294e+00
 1.3586341673e+00	 2.2684433903e-02	 3.7005058518e+00
 1.3583960251e+00	 3.4082592941e-02	 3.6952887990e+00
 1.3580609764e+00	 4.5516682007e-02	 3.6885537505e+00
 1.3576280860e+00	 5.6985649065e-02	 3.6801568014e+00
 1.3570964301e+00	 6.8488419321e-02	 3.6699445800e+00
 1.3564650973e+00	 8.0023895293e-02	 3.6577556584e+00
 1.3557331893e+00	 9.1590956891e-02	 3.6434219557e+00
 1.3548998212e+00	 1.0318846151e-01	 3.6267701300e+00
 1.3539641220e+00	 1.1481524416e-01	 3.6076229592e+00
 1.3647058824e+00	 0.0000000000e+00	 3.7118805498e+00
 1.3646584984e+00	 1.1372252456e-02	 3.7091818435e+00
 1.3645157005e+00	 2.2782634916e-02	 3.7052419323e+00
 1.3642765273e+00	 3.4230136633e-02	 3.6999319456e+00
 1.3639400283e+00	 4.5713723920e-02	 3.6931114218e+00
 1.3635052639e+00	 5.7232340186e-02	 3.6846297536e+00
 1.3629713064e+00	 6.8784905985e-02	 3.6743276282e+00
 1.3623372406e+00	 8.0370319082e-02	 3.6620384586e+00
 1.3616021642e+00	 9.1987454540e-02	 3.6475898047e+00
 1.3607651884e+00	 1.0363516481e-01	 3.6308047830e+00
 1.3598254386e+00	 1.1531227985e-01	 3.6115034629e+00
 1.3705882353e+00	 0.0000000000e+00	 3.7162903848e+00
 1.3705406471e+00	 1.1421270786e-02	 3.7134877091e+00
 1.3703972337e+00	 2.2880835929e-02	 3.7094525500e+00
 1.3701570296e+00	 3.4377680325e-02	 3.7040507752e+00
 1.3698190801e+00	 4.5910765834e-02	 3.6971374274e+00
 1.3693824417e+00	 5.7479031308e-02	 3.6885581902e+00
 1.3688461827e+00	 6.9081392648e-02	 3.6781508475e+00
 1.3682093839e+00	 8.0716742871e-02	 3.6657467311e+00
 1.3674711390e+00	 9.2383952188e-02	 3.6511721577e+00
 1.3666305556e+00	 1.0408186811e-01	 3.6342498514e+00
 1.3656867551e+00	 1.1580931554e-01	 3.6148003514e+00
 1.3764705882e+00	 0.0000000000e+00	 3.7201040612e+00
 1.3764227958e+00	 1.1470289115e-02	 3.7172265438e+00
 1.3762787669e+00	 2.2979036941e-02	 3.7131106758e+00
 1.3760375319e+00	 3.4525224018e-02	 3.7076199223e+00
 1.3756981320e+00	 4.6107807747e-02	 3.7006077398e+00
 1.3752596196e+00	 5.7725722429e-02	 3.6919190603e+00
 1.3747210590e+00	 6.9377879312e-02	 3.6813917654e+00
 1.3740815272e+00	 8.1063166661e-02	 3.6688581483e+00
 1.3733401139e+00	 9.2780449837e-02	 3.6541463618e+00
 1.3724959228e+00	 1.0452857140e-01	 3.6370818501e+00
 1.3715480717e+00	 1.1630635123e-01	 3.6174887641e+00
 1.3823529412e+00	 0.0000000000e+00	 3.7232907522e+00
 1.3823049445e+00	 1.1519307445e-02	 3.7203696787e+00
 1.3821603001e+00	 2.3077237954e-02	 3.7161895461e+00
 1.3819180342e+00	 3.4672767710e-02	 3.7106142408e+00
 1.3815771838e+00	 4.6304849661e-02	 3.7034985080e+00
 1.3811367974e+00	 5.7972413551e-02	 3.6946894500e+00
 1.3805959354e+00	 6.9674365976e-02	 3.6840280125e+00
 1.3799536704e+00	 8.1409590450e-02	 3.6713504569e+00
 1.3792090887e+00	 9.3176947486e-02	 3.6564898154e+00
 1.3783612900e+00	 1.0497527470e-01	 3.6392773297e+00
 1.3774093882e+00	 1.1680338691e-01	 3.6195438684e+00
 1.3882352941e+00	 0.0000000000e+00	 3.7258199861e+00
 1.3881870932e+00	 1.1568325775e-02	 3.7228887514e+00
 1.3880418333e+00	 2.3175438966e-02	 3.7186626562e+00
 1.3877985364e+00	 3.4820311403e-02	 3.7130087984e+00
 1.3874562357e+00	 4.6501891574e-02	 3.7057860524e+00
 1.3870139753e+00	 5.8219104672e-02	 3.6968465786e+00
 1.3864708117e+00	 6.9970852640e-02	 3.6860373186e+00
 1.3858258137e+00	 8.1756014239e-02	 3.6732014738e+00
 1.3850780636e+00	 9.3573445135e-02	 3.6581799652e+00
 1.3842266572e+00	 1.0542197800e-01	 3.6408128736e+00
 1.3832707048e+00	 1.1730042260e-01	 3.6209408565e+00
 1.3941176471e+00	 0.0000000000e+00	 3.7276616393e+00
 1.3940692419e+00	 1.1617344104e-02	 3.7247556990e+00
 1.3939233664e+00	 2.3273639979e-02	 3.7205037540e+00
 1.3936790387e+00	 3.4967855095e-02	 3.7147788710e+00
 1.3933352875e+00	 4.6698933488e-02	 3.7074468602e+00
 1.3928911532e+00	 5.8465795794e-02	 3.6983677944e+00
 1.3923456880e+00	 7.0267339303e-02	 3.6873975089e+00
 1.3916979570e+00	 8.2102438028e-02	 3.6743890835e+00
 1.3909470384e+00	 9.3969942784e-02	 3.6591943031e+00
 1.3900920244e+00	 1.0586868129e-01	 3.6416650952e+00
 1.3891320213e+00	 1.1779745829e-01	 3.6216549434e+00
 1.4000000000e+00	 0.0000000000e+00	 3.7287859286e+00
 1.3999513906e+00	 1.1666362434e-02	 3.7259427515e+00
 1.3998048996e+00	 2.3371840991e-02	 3.7216868348e+00
 1.3995595410e+00	 3.5115398787e-02	 3.7158999375e+00
 1.3992143394e+00	 4.6895975401e-02	 3.7084575805e+00
 1.3987683310e+00	 5.8712486915e-02	 3.6992305701e+00
 1.3982205643e+00	 7.0563825967e-02	 3.6880865003e+00
 1.3975701003e+00	 8.2448861817e-02	 3.6748912347e+00
 1.3968160133e+00	 9.4366440433e-02	 3.6595103635e+00
 1.3959573915e+00	 1.0631538459e-01	 3.6418106356e+00
 1.3949933379e+00	 1.1829449398e-01	 3.6216613639e+00
 1.4058823529e+00	 0.0000000000e+00	 3.7291634041e+00
 1.4058335393e+00	 1.1715380763e-02	 3.7264224256e+00
 1.4056864328e+00	 2.3470042004e-02	 3.7221861345e+00
 1.4054400433e+00	 3.5262942480e-02	 3.7163476746e+00
 1.4050933912e+00	 4.7093017315e-02	 3.7087950199e+00
 1.4046455089e+00	 5.8959178037e-02	 3.6994124991e+00
 1.4040954406e+00	 7.0860312631e-02	 3.6880822981e+00
 1.4034422436e+00	 8.2795285606e-02	 3.6746859369e+00
 1.4026849881e+00	 9.4762938082e-02	 3.6591057203e+00
 1.4018227587e+00	 1.0676208788e-01	 3.6412261607e+00
 1.4008546544e+00	 1.1879152967e-01	 3.6209353706e+00
 1.4117647059e+00	 0.0000000000e+00	 3.7287649424e+00
 1.4117156880e+00	 1.1764399093e-02	 3.7261675182e+00
 1.4115679660e+00	 2.3568243017e-02	 3.7219761247e+00
 1.4113205455e+00	 3.5410486172e-02	 3.7160979519e+00
 1.4109724431e+00	 4.7290059228e-02	 3.7084361377e+00
 1.4105226867e+00	 5.9205869158e-02	 3.6988912917e+00
 1.4099703170e+00	 7.1156799295e-02	 3.6873629924e+00
 1.4093143868e+00	 8.3141709395e-02	 3.6737512577e+00
 1.4085539630e+00	 9.5159435731e-02	 3.6579579846e+00
 1.4076881259e+00	 1.0720879118e-01	 3.6398883589e+00
 1.4067159710e+00	 1.1928856536e-01	 3.6194522313e+00
 1.3481028055e+00	 1.1431820847e-01	 3.6031837318e+00
 1.3470684165e+00	 1.2592262788e-01	 3.5817297475e+00
 1.3459304498e+00	 1.3755381228e-01	 3.5579813638e+00
 1.3446880839e+00	 1.4921053567e-01	 3.5320333128e+00
 1.3433405138e+00	 1.6089155034e-01	 3.5039825721e+00
 1.3418869514e+00	 1.7259558709e-01	 3.4739293089e+00
 1.3403266262e+00	 1.8432135548e-01	 3.4419777980e+00
 1.3386587859e+00	 1.9606754397e-01	 3.4082373102e+00
 1.3368826971e+00	 2.0783282028e-01	 3.3728229723e+00
 1.3349976455e+00	 2.1961583158e-01	 3.3358565988e+00
 1.3330029370e+00	 2.3141520479e-01	 3.2974674937e+00
 1.3539641220e+00	 1.1481524416e-01	 3.6076229592e+00
 1.3529252357e+00	 1.2647011756e-01	 3.5859624773e+00
 1.3517823213e+00	 1.3815187234e-01	 3.5619551537e+00
 1.3505345538e+00	 1.4985927713e-01	 3.5356999366e+00
 1.3491811247e+00	 1.6159107882e-01	 3.5072986855e+00
 1.3477212425e+00	 1.7334600269e-01	 3.4768571115e+00
 1.3461541333e+00	 1.8512275267e-01	 3.4444856892e+00
 1.3444790415e+00	 1.9692001156e-01	 3.4103005378e+00
 1.3426952306e+00	 2.0873644124e-01	 3.3744242728e+00
 1.3408019831e+00	 2.2057068302e-01	 3.3369868276e+00
 1.3387986019e+00	 2.3242135785e-01	 3.2981262449e+00
 1.3598254386e+00	 1.1531227985e-01	 3.6115034629e+00
 1.3587820549e+00	 1.2701760725e-01	 3.5896548576e+00
 1.3576341928e+00	 1.3874993239e-01	 3.5654146117e+00
 1.3563810238e+00	 1.5050801859e-01	 3.5388833878e+00
 1.3550217357e+00	 1.6229060730e-01	 3.5101654231e+00
 1.3535555336e+00	 1.7409641829e-01	 3.4793694677e+00
 1.3519816403e+00	 1.8592414987e-01	 3.4466096923e+00
 1.3502992971e+00	 1.9777247914e-01	 3.4120065649e+00
 1.3485077640e+00	 2.0964006220e-01	 3.3756876967e+00
 1.3466063207e+00	 2.2152553446e-01	 3.3377886562e+00
 1.3445942669e+00	 2.3342751092e-01	 3.2984537528e+00
 1.3656867551e+00	 1.1580931554e-01	 3.6148003514e+00
 1.3646388741e+00	 1.2756509694e-01	 3.5927803729e+00
 1.3634860644e+00	 1.3934799244e-01	 3.5683316857e+00
 1.3622274937e+00	 1.5115676005e-01	 3.5415542048e+00
 1.3608623466e+00	 1.6299013578e-01	 3.5125520796e+00
 1.3593898247e+00	 1.7484683388e-01	 3.4814346325e+00
 1.3578091474e+00	 1.8672554707e-01	 3.4483172658e+00
 1.3561195527e+00	 1.9862494672e-01	 3.4133223358e+00
 1.3543202975e+00	 2.1054368316e-01	 3.3765799952e+00
 1.3524106583e+00	 2.2248038591e-01	 3.3382290027e+00
 1.3503899318e+00	 2.3443366398e-01	 3.2984175015e+00
 1.3715480717e+00	 1.1630635123e-01	 3.6174887641e+00
 1.3704956933e+00	 1.2811258662e-01	 3.5953125330e+00
 1.3693379359e+00	 1.3994605250e-01	 3.5706783423e+00
 1.3680739636e+00	 1.5180550151e-01	 3.5436829344e+00
 1.3667029575e+00	 1.6368966426e-01	 3.5144279436e+00
 1.3652241158e+00	 1.7559724948e-01	 3.4830208369e+00
 1.3636366545e+00	 1.8752694427e-01	 3.4495758218e+00
 1.3619398083e+00	 1.9947741430e-01	 3.4142147206e+00
 1.3601328310e+00	 2.1144730412e-01	 3.3770678121e+00
 1.3582149959e+00	 2.2343523735e-01	 3.3382746389e+00
 1.3561855967e+00	 2.3543981705e-01	 3.2979847830e+00
 1.3774093882e+00	 1.1680338691e-01	 3.6195438684e+00
 1.3763525125e+00	 1.2866007631e-01	 3.5972248714e+00
 1.3751898074e+00	 1.4054411255e-01	 3.5724265639e+00
 1.3739204336e+00	 1.5245424297e-01	 3.5452401291e+00
 1.3725435684e+00	 1.6438919274e-01	 3.5157622963e+00
 1.3710584069e+00	 1.7634766507e-01	 3.4840962869e+00
 1.3694641616e+00	 1.8832834146e-01	 3.4503527253e+00
 1.3677600639e+00	 2.0032988188e-01	 3.4146505160e+00
 1.3659453644e+00	 2.1235092507e-01	 3.3771176859e+00
 1.3640193335e+00	 2.2439008879e-01	 3.3378921930e+00
 1.3619812617e+00	 2.3644597011e-01	 3.2971227015e+00
 1.3832707048e+00	 1.1730042260e-01	 3.6209408565e+00
 1.3822093317e+00	 1.2920756599e-01	 3.5984909418e+00
 1.3810416789e+00	 1.4114217260e-01	 3.5735483468e+00
 1.3797669035e+00	 1.5310298443e-01	 3.5461963452e+00
 1.3783841794e+00	 1.6508872122e-01	 3.5165244095e+00
 1.3768926979e+00	 1.7709808067e-01	 3.4846291624e+00
 1.3752916686e+00	 1.8912973866e-01	 3.4506152945e+00
 1.3735803195e+00	 2.0118234947e-01	 3.4145964456e+00
 1.3717578979e+00	 2.1325454603e-01	 3.3766960508e+00
 1.3698236710e+00	 2.2534494023e-01	 3.3370481524e+00
 1.3677769266e+00	 2.3745212318e-01	 3.2957981772e+00
 1.3891320213e+00	 1.1779745829e-01	 3.6216549434e+00
 1.3880661509e+00	 1.2975505568e-01	 3.5990843161e+00
 1.3868935505e+00	 1.4174023266e-01	 3.5740156982e+00
 1.3856133734e+00	 1.5375172589e-01	 3.5465221411e+00
 1.3842247903e+00	 1.6578824970e-01	 3.5166835442e+00
 1.3827269890e+00	 1.7784849627e-01	 3.4845876163e+00
 1.3811191757e+00	 1.8993113586e-01	 3.4503308000e+00
 1.3794005751e+00	 2.0203481705e-01	 3.4140191609e+00
 1.3775704314e+00	 2.1415816699e-01	 3.3757692391e+00
 1.3756280086e+00	 2.2629979167e-01	 3.3357088672e+00
 1.3735725916e+00	 2.3845827624e-01	 3.2939779516e+00
 1.3949933379e+00	 1.1829449398e-01	 3.6216613639e+00
 1.3939229701e+00	 1.3030254537e-01	 3.5989785818e+00
 1.3927454220e+00	 1.4233829271e-01	 3.5738006348e+00
 1.3914598434e+00	 1.5440046735e-01	 3.5461880748e+00
 1.3900654012e+00	 1.6648777818e-01	 3.5162089493e+00
 1.3885612801e+00	 1.7859891186e-01	 3.4839397735e+00
 1.3869466828e+00	 1.9073253306e-01	 3.4494664650e+00
 1.3852208307e+00	 2.0288728463e-01	 3.4128852417e+00
 1.3833829648e+00	 2.1506178795e-01	 3.3743034826e+00
 1.3814323462e+00	 2.2725464311e-01	 3.3338405525e+00
 1.3793682565e+00	 2.3946442930e-01	 3.2916285914e+00
 1.4008546544e+00	 1.1879152967e-01	 3.6209353706e+00
 1.3997797893e+00	 1.3085003505e-01	 3.5981473397e+00
 1.3985972935e+00	 1.4293635276e-01	 3.5728751800e+00
 1.3973063133e+00	 1.5504920880e-01	 3.5451647026e+00
 1.3959060122e+00	 1.6718730665e-01	 3.5150698599e+00
 1.3943955712e+00	 1.7934932746e-01	 3.4826537302e+00
 1.3927741898e+00	 1.9153393025e-01	 3.4479894647e+00
 1.3910410863e+00	 2.0373975221e-01	 3.4111611971e+00
 1.3891954983e+00	 2.1596540890e-01	 3.3722649144e+00
 1.3872366838e+00	 2.2820949456e-01	 3.3314092920e+00
 1.3851639215e+00	 2.4047058237e-01	 3.2887164931e+00
 1.4067159710e+00	 1.1928856536e-01	 3.6194522313e+00
 1.4056366085e+00	 1.3139752474e-01	 3.5965642018e+00
 1.4044491650e+00	 1.4353441282e-01	 3.5712113622e+00
 1.4031527832e+00	 1.5569795026e-01	 3.5434225773e+00
 1.4017466231e+00	 1.6788683513e-01	 3.5132354964e+00
 1.4002298623e+00	 1.8009974305e-01	 3.4806975532e+00
 1.3986016969e+00	 1.9233532745e-01	 3.4458669273e+00
 1.3968613419e+00	 2.0459221980e-01	 3.4088134664e+00
 1.3950080318e+00	 2.1686902986e-01	 3.3696195710e+00
 1.3930410214e+00	 2.2916434600e-01	 3.3283810411e+00
 1.3909595864e+00	 2.4147673543e-01	 3.2852078876e+00
 1.3330029370e+00	 2.3141520479e-01	 3.2974674937e+00
 1.3308978979e+00	 2.4322954690e-01	 3.2570141510e+00
 1.3286818756e+00	 2.5505744529e-01	 3.2138982038e+00
 1.3263542395e+00	 2.6689746804e-01	 3.1683260908e+00
 1.3239143809e+00	 2.7874816432e-01	 3.1205131812e+00
 1.3213617142e+00	 2.9060806477e-01	 3.0706843441e+00
 1.3186956771e+00	 3.0247568185e-01	 3.0190744878e+00
 1.3159157315e+00	 3.1434951031e-01	 2.9659290721e+00
 1.3130213635e+00	 3.2622802758e-01	 2.9115045901e+00
 1.3100120845e+00	 3.3810969423e-01	 2.8560690230e+00
 1.3068874316e+00	 3.4999295445e-01	 2.7999022644e+00
 1.3387986019e+00	 2.3242135785e-01	 3.2981262449e+00
 1.3366844105e+00	 2.4428706667e-01	 3.2571939743e+00
 1.3344587533e+00	 2.5616639070e-01	 3.2135770465e+00
 1.3321209970e+00	 2.6805789181e-01	 3.1674805336e+00
 1.3296705304e+00	 2.7996011286e-01	 3.1191194795e+00
 1.3271067651e+00	 2.9187157809e-01	 3.0687194785e+00
 1.3244291366e+00	 3.0379079351e-01	 3.0165172255e+00
 1.3216371042e+00	 3.1571624732e-01	 2.9627610368e+00
 1.3187301520e+00	 3.2764641031e-01	 2.9077113421e+00
 1.3157077893e+00	 3.3957973638e-01	 2.8516411473e+00
 1.3125695508e+00	 3.5151466295e-01	 2.7948364677e+00
 1.3445942669e+00	 2.3342751092e-01	 3.2984537528e+00
 1.3424709230e+00	 2.4534458644e-01	 3.2570295543e+00
 1.3402356311e+00	 2.5727533612e-01	 3.2128948143e+00
 1.3378877546e+00	 2.6921831558e-01	 3.1662570167e+00
 1.3354266798e+00	 2.8117206140e-01	 3.1173346474e+00
 1.3328518160e+00	 2.9313509142e-01	 3.0663577778e+00
 1.3301625961e+00	 3.0510590517e-01	 3.0135686193e+00
 1.3273584770e+00	 3.1708298432e-01	 2.9592220477e+00
 1.3244389406e+00	 3.2906479304e-01	 2.9035860987e+00
 1.3214034940e+00	 3.4104977853e-01	 2.8469424337e+00
 1.3182516701e+00	 3.5303637144e-01	 2.7895867766e+00
 1.3503899318e+00	 2.3443366398e-01	 3.2984175015e+00
 1.3482574356e+00	 2.4640210621e-01	 3.2564887579e+00
 1.3460125088e+00	 2.5838428153e-01	 3.2118189357e+00
 1.3436545122e+00	 2.7037873936e-01	 3.1646216635e+00
 1.3411828293e+00	 2.8238400994e-01	 3.1151225918e+00
 1.3385968670e+00	 2.9439860474e-01	 3.0635599756e+00
 1.3358960555e+00	 3.0642101683e-01	 3.0101852275e+00
 1.3330798497e+00	 3.1844972132e-01	 2.9552634401e+00
 1.3301477291e+00	 3.3048317577e-01	 2.8990738795e+00
 1.3270991987e+00	 3.4251982068e-01	 2.8419104482e+00
 1.3239337894e+00	 3.5455807994e-01	 2.7840821190e+00
 1.3561855967e+00	 2.3543981705e-01	 3.2979847830e+00
 1.3540439482e+00	 2.4745962598e-01	 3.2555392176e+00
 1.3517893865e+00	 2.5949322694e-01	 3.2103165764e+00
 1.3494212697e+00	 2.7153916313e-01	 3.1625403220e+00
 1.3469389788e+00	 2.8359595848e-01	 3.1124469477e+00
 1.3443419179e+00	 2.9566211807e-01	 3.0602865543e+00
 1.3416295150e+00	 3.0773612849e-01	 3.0063233957e+00
 1.3388012225e+00	 3.1981645832e-01	 2.9508363943e+00
 1.3358565176e+00	 3.3190155850e-01	 2.8941196259e+00
 1.3327949034e+00	 3.4398986283e-01	 2.8364827750e+00
 1.3296159087e+00	 3.5607978844e-01	 2.7782515597e+00
 1.3619812617e+00	 2.3644597011e-01	 3.2971227015e+00
 1.3598304608e+00	 2.4851714575e-01	 3.2541483367e+00
 1.3575662642e+00	 2.6060217236e-01	 3.2083546465e+00
 1.3551880273e+00	 2.7269958691e-01	 3.1599785730e+00
 1.3526951283e+00	 2.8480790702e-01	 3.1092710872e+00
 1.3500869688e+00	 2.9692563139e-01	 3.0564977543e+00
 1.3473629745e+00	 3.0905124015e-01	 3.0019392663e+00
 1.3445225952e+00	 3.2118319532e-01	 2.9458919442e+00
 1.3415653062e+00	 3.3331994123e-01	 2.8886682095e+00
 1.3384906081e+00	 3.4545990498e-01	 2.8305970253e+00
 1.3352980279e+00	 3.5760149694e-01	 2.7720243076e+00
 1.3677769266e+00	 2.3745212318e-01	 3.2957981772e+00
 1.3656169734e+00	 2.4957466552e-01	 3.2522832957e+00
 1.3633431419e+00	 2.6171111777e-01	 3.2058998077e+00
 1.3609547848e+00	 2.7386001068e-01	 3.1569017381e+00
 1.3584512778e+00	 2.8601985556e-01	 3.1055581284e+00
 1.3558320198e+00	 2.9818914472e-01	 3.0521535839e+00
 1.3530964339e+00	 3.1036635181e-01	 2.9969887883e+00
 1.3502439680e+00	 3.2254993232e-01	 2.9403809873e+00
 1.3472740947e+00	 3.3473832395e-01	 2.8826644409e+00
 1.3441863128e+00	 3.4692994713e-01	 2.8241908449e+00
 1.3409801472e+00	 3.5912320543e-01	 2.7653297219e+00
 1.3735725916e+00	 2.3845827624e-01	 3.2939779516e+00
 1.3714034860e+00	 2.5063218529e-01	 3.2499110579e+00
 1.3691200197e+00	 2.6282006319e-01	 3.2029184801e+00
 1.3667215424e+00	 2.7502043445e-01	 3.1532748881e+00
 1.3642074272e+00	 2.8723180410e-01	 3.1012709443e+00
 1.3615770707e+00	 2.9945265804e-01	 3.0472138279e+00
 1.3588298934e+00	 3.1168146348e-01	 2.9914277263e+00
 1.3559653407e+00	 3.2391666932e-01	 2.9342542937e+00
 1.3529828833e+00	 3.3615670668e-01	 2.8760530790e+00
 1.3498820176e+00	 3.4839998927e-01	 2.8172019220e+00
 1.3466622665e+00	 3.6064491393e-01	 2.7580973190e+00
 1.3793682565e+00	 2.3946442930e-01	 3.2916285914e+00
 1.3771899986e+00	 2.5168970506e-01	 3.2469983752e+00
 1.3748968974e+00	 2.6392900860e-01	 3.1993768498e+00
 1.3724883000e+00	 2.7618085823e-01	 3.1490628509e+00
 1.3699635767e+00	 2.8844375265e-01	 3.0963721715e+00
 1.3673221216e+00	 3.0071617137e-01	 3.0416380575e+00
 1.3645633529e+00	 3.1299657514e-01	 2.9852116703e+00
 1.3616867134e+00	 3.2528340633e-01	 2.9274625154e+00
 1.3586916718e+00	 3.3757508941e-01	 2.8687788394e+00
 1.3555777223e+00	 3.4987003142e-01	 2.8095679960e+00
 1.3523443857e+00	 3.6216662243e-01	 2.7502567801e+00
 1.3851639215e+00	 2.4047058237e-01	 3.2887164931e+00
 1.3829765112e+00	 2.5274722482e-01	 3.2435117945e+00
 1.3806737751e+00	 2.6503795402e-01	 3.1952408758e+00
 1.3782550575e+00	 2.7734128200e-01	 3.1442302196e+00
 1.3757197262e+00	 2.8965570119e-01	 3.0908242188e+00
 1.3730671726e+00	 3.0197968469e-01	 3.0353856390e+00
 1.3702968123e+00	 3.1431168680e-01	 2.9782960452e+00
 1.3674080862e+00	 3.2665014333e-01	 2.9199561959e+00
 1.3644004603e+00	 3.3899347214e-01	 2.8607864038e+00
 1.3612734270e+00	 3.5134007357e-01	 2.8012268651e+00
 1.3580265050e+00	 3.6368833093e-01	 2.7417379578e+00
 1.3909595864e+00	 2.4147673543e-01	 3.2852078876e+00
 1.3887630238e+00	 2.5380474459e-01	 3.2394176629e+00
 1.3864506528e+00	 2.6614689943e-01	 3.1904762968e+00
 1.3840218151e+00	 2.7850170578e-01	 3.1387413603e+00
 1.3814758757e+00	 2.9086764973e-01	 3.0845892767e+00
 1.3788122235e+00	 3.0324319802e-01	 3.0284157435e+00
 1.3760302718e+00	 3.1562679846e-01	 2.9706361201e+00
 1.3731294589e+00	 3.2801688033e-01	 2.9116857795e+00
 1.3701092489e+00	 3.4041185487e-01	 2.8520204286e+00
 1.3669691317e+00	 3.5281011572e-01	 2.7921163952e+00
 1.3637086243e+00	 3.6521003942e-01	 2.7324708839e+00
 1.3068874316e+00	 3.4999295445e-01	 2.7999022644e+00
 1.3036469677e+00	 3.6187623651e-01	 2.7424328562e+00
 1.3002902827e+00	 3.7375795329e-01	 2.6829743040e+00
 1.2968169935e+00	 3.8563650279e-01	 2.6216430072e+00
 1.2932267447e+00	 3.9751026867e-01	 2.5585554564e+00
 1.2895192091e+00	 4.0937762079e-01	 2.4938285275e+00
 1.2856940879e+00	 4.2123691582e-01	 2.4275797598e+00
 1.2817511117e+00	 4.3308649778e-01	 2.3599276166e+00
 1.2776900405e+00	 4.4492469869e-01	 2.2909917271e+00
 1.2735106640e+00	 4.5674983918e-01	 2.2208931077e+00
 1.2692128028e+00	 4.6856022912e-01	 2.1497543590e+00
 1.3125695508e+00	 3.5151466295e-01	 2.7948364677e+00
 1.3093149980e+00	 3.6344961145e-01	 2.7366513155e+00
 1.3059437187e+00	 3.7538298787e-01	 2.6763317315e+00
 1.3024553283e+00	 3.8731318324e-01	 2.6140116371e+00
 1.2988494697e+00	 3.9923857418e-01	 2.5498249922e+00
 1.2951258143e+00	 4.1115752349e-01	 2.4839060675e+00
 1.2912840622e+00	 4.2306838067e-01	 2.4163897010e+00
 1.2873239427e+00	 4.3496948255e-01	 2.3474115389e+00
 1.2832452145e+00	 4.4685915391e-01	 2.2771082585e+00
 1.2790476669e+00	 4.5873570805e-01	 2.2056177717e+00
 1.2747311193e+00	 4.7059744750e-01	 2.1330794056e+00
 1.3182516701e+00	 3.5303637144e-01	 2.7895867766e+00
 1.3149830283e+00	 3.6502298639e-01	 2.7307933398e+00
 1.3115971547e+00	 3.7700802245e-01	 2.6697295861e+00
 1.3080936630e+00	 3.8898986368e-01	 2.6065417786e+00
 1.3044721947e+00	 4.0096687970e-01	 2.5413762214e+00
 1.3007324196e+00	 4.1293742619e-01	 2.4743795170e+00
 1.2968740365e+00	 4.2489984552e-01	 2.4056988096e+00
 1.2928967736e+00	 4.3685246733e-01	 2.3354820144e+00
 1.2888003886e+00	 4.4879360912e-01	 2.2638780301e+00
 1.2845846698e+00	 4.6072157692e-01	 2.1910369326e+00
 1.2802494358e+00	 4.7263466589e-01	 2.1171101484e+00
 1.3239337894e+00	 3.5455807994e-01	 2.7840821190e+00
 1.3206510586e+00	 3.6659636133e-01	 2.7247792104e+00
 1.3172505908e+00	 3.7863305703e-01	 2.6630807471e+00
 1.3137319978e+00	 3.9066654413e-01	 2.5991402262e+00
 1.3100949197e+00	 4.0269518522e-01	 2.5331112414e+00
 1.3063390248e+00	 4.1471732889e-01	 2.4651477341e+00
 1.3024640108e+00	 4.2673131037e-01	 2.3954042322e+00
 1.2984696045e+00	 4.3873545210e-01	 2.3240360748e+00
 1.2943555627e+00	 4.5072806433e-01	 2.2511996226e+00
 1.2901216727e+00	 4.6270744578e-01	 2.1770524512e+00
 1.2857677524e+00	 4.7467188428e-01	 2.1017535245e+00
 1.3296159087e+00	 3.5607978844e-01	 2.7782515597e+00
 1.3263190889e+00	 3.6816973627e-01	 2.7185294650e+00
 1.3229040268e+00	 3.8025809161e-01	 2.6562984499e+00
 1.3193703325e+00	 3.9234322458e-01	 2.5917142076e+00
 1.3157176446e+00	 4.0442349073e-01	 2.5249326370e+00
 1.3119456301e+00	 4.1649723159e-01	 2.4561100952e+00
 1.3080539851e+00	 4.2856277522e-01	 2.3854036388e+00
 1.3040424354e+00	 4.4061843687e-01	 2.3129712530e+00
 1.2999107368e+00	 4.5266251954e-01	 2.2389720685e+00
 1.2956586756e+00	 4.6469331465e-01	 2.1635665610e+00
 1.2912860689e+00	 4.7670910267e-01	 2.0869167345e+00
 1.3352980279e+00	 3.5760149694e-01	 2.7720243076e+00
 1.3319871192e+00	 3.6974311121e-01	 2.7119649036e+00
 1.3285574628e+00	 3.8188312619e-01	 2.6492962899e+00
 1.3250086673e+00	 3.9401990503e-01	 2.5841713878e+00
 1.3213403696e+00	 4.0615179625e-01	 2.5167434856e+00
 1.3175522354e+00	 4.1827713429e-01	 2.4471665002e+00
 1.3136439594e+00	 4.3039424007e-01	 2.3755952293e+00
 1.3096152663e+00	 4.4250142164e-01	 2.3021855929e+00
 1.3054659109e+00	 4.5459697475e-01	 2.2270948640e+00
 1.3011956785e+00	 4.6667918351e-01	 2.1504818839e+00
 1.2968043854e+00	 4.7874632105e-01	 2.0725072626e+00
 1.3409801472e+00	 3.5912320543e-01	 2.7653297219e+00
 1.3376551495e+00	 3.7131648616e-01	 2.7050065933e+00
 1.3342108988e+00	 3.8350816077e-01	 2.6419882279e+00
 1.3306470021e+00	 3.9569658547e-01	 2.5764198743e+00
 1.3269630946e+00	 4.0788010176e-01	 2.5084473620e+00
 1.3231588406e+00	 4.2005703699e-01	 2.4382173788e+00
 1.3192339337e+00	 4.3222570493e-01	 2.3658777415e+00
 1.3151880973e+00	 4.4438440642e-01	 2.2915776585e+00
 1.3110210850e+00	 4.5653142996e-01	 2.2154679816e+00
 1.3067326814e+00	 4.6866505238e-01	 2.1377014462e+00
 1.3023227020e+00	 4.8078353944e-01	 2.0584328963e+00
 1.3466622665e+00	 3.6064491393e-01	 2.7580973190e+00
 1.3433231798e+00	 3.7288986110e-01	 2.6975758749e+00
 1.3398643348e+00	 3.8513319535e-01	 2.6342885947e+00
 1.3362853368e+00	 3.9737326592e-01	 2.5683682218e+00
 1.3325858196e+00	 4.0960840728e-01	 2.4999483441e+00
 1.3287654459e+00	 4.2183693969e-01	 2.4291636968e+00
 1.3248239080e+00	 4.3405716978e-01	 2.3561504589e+00
 1.3207609282e+00	 4.4626739119e-01	 2.2810465442e+00
 1.3165762591e+00	 4.5846588518e-01	 2.2039918830e+00
 1.3122696842e+00	 4.7065092125e-01	 2.1251286947e+00
 1.3078410185e+00	 4.8282075783e-01	 2.0446017464e+00
 1.3523443857e+00	 3.6216662243e-01	 2.7502567801e+00
 1.3489912101e+00	 3.7446323604e-01	 2.6895943681e+00
 1.3455177708e+00	 3.8675822993e-01	 2.6261120971e+00
 1.3419236716e+00	 3.9904994637e-01	 2.5599254373e+00
 1.3382085445e+00	 4.1133671280e-01	 2.4911510182e+00
 1.3343720511e+00	 4.2361684238e-01	 2.4199069628e+00
 1.3304138823e+00	 4.3588863463e-01	 2.3463132187e+00
 1.3263337591e+00	 4.4815037596e-01	 2.2704918849e+00
 1.3221314332e+00	 4.6040034039e-01	 2.1925675316e+00
 1.3178066871e+00	 4.7263679011e-01	 2.1126675129e+00
 1.3133593350e+00	 4.8485797622e-01	 2.0309222676e+00
 1.3580265050e+00	 3.6368833093e-01	 2.7417379578e+00
 1.3546592404e+00	 3.7603661098e-01	 2.6809839786e+00
 1.3511712068e+00	 3.8838326450e-01	 2.6173738233e+00
 1.3475620063e+00	 4.0072662681e-01	 2.5510009862e+00
 1.3438312695e+00	 4.1306501831e-01	 2.4819604852e+00
 1.3399786564e+00	 4.2539674508e-01	 2.4103492350e+00
 1.3360038566e+00	 4.3772009948e-01	 2.3362664204e+00
 1.3319065900e+00	 4.5003336074e-01	 2.2598138667e+00
 1.3276866073e+00	 4.6233479560e-01	 2.1810964058e+00
 1.3233436900e+00	 4.7462265898e-01	 2.1002222370e+00
 1.3188776516e+00	 4.8689519460e-01	 2.0173032781e+00
 1.3637086243e+00	 3.6521003942e-01	 2.7324708839e+00
 1.3603272707e+00	 3.7760998592e-01	 2.6716669036e+00
 1.3568246428e+00	 3.9000829908e-01	 2.6079892484e+00
 1.3532003411e+00	 4.0240330726e-01	 2.5415047977e+00
 1.3494539945e+00	 4.1479332383e-01	 2.4722823669e+00
 1.3455852616e+00	 4.2717664778e-01	 2.4003931285e+00
 1.3415938309e+00	 4.3955156433e-01	 2.3259110343e+00
 1.3374794209e+00	 4.5191634551e-01	 2.2489132373e+00
 1.3332417813e+00	 4.6426925081e-01	 2.1694805124e+00
 1.3288806929e+00	 4.7660852784e-01	 2.0876976730e+00
 1.3243959681e+00	 4.8893241299e-01	 2.0036539804e+00
 1.2692128028e+00	 4.6856022912e-01	 2.1497543590e+00
 1.2647963077e+00	 4.8035416825e-01	 2.0771705115e+00
 1.2602610612e+00	 4.9212994693e-01	 2.0028886457e+00
 1.2556069769e+00	 5.0388584672e-01	 1.9272697827e+00
 1.2508340006e+00	 5.1562014116e-01	 1.8506869625e+00
 1.2459421101e+00	 5.2733109644e-01	 1.7735251329e+00
 1.2409313159e+00	 5.3901697213e-01	 1.6961809781e+00
 1.2358016612e+00	 5.5067602194e-01	 1.6190626821e+00
 1.2305532225e+00	 5.6230649443e-01	 1.5425896219e+00
 1.2251861094e+00	 5.7390663380e-01	 1.4671919843e+00
 1.2197004654e+00	 5.8547468067e-01	 1.3933103031e+00
 1.2747311193e+00	 4.7059744750e-01	 2.1330794056e+00
 1.2702954221e+00	 4.8244266464e-01	 2.0591649608e+00
 1.2657404571e+00	 4.9426964235e-01	 1.9837106755e+00
 1.2610661377e+00	 5.0607665475e-01	 1.9071141876e+00
 1.2562724093e+00	 5.1786196786e-01	 1.8297870709e+00
 1.2513592497e+00	 5.2962384034e-01	 1.7521547144e+00
 1.2463266694e+00	 5.4136052419e-01	 1.6746561396e+00
 1.2411747119e+00	 5.5307026551e-01	 1.5977437501e+00
 1.2359034539e+00	 5.6475130527e-01	 1.5218830081e+00
 1.2305130055e+00	 5.7640188003e-01	 1.4475520336e+00
 1.2250035109e+00	 5.8802022276e-01	 1.3752411196e+00
 1.2802494358e+00	 4.7263466589e-01	 2.1171101484e+00
 1.2757945365e+00	 4.8453116102e-01	 2.0418550965e+00
 1.2712198530e+00	 4.9640933777e-01	 1.9652130324e+00
 1.2665252984e+00	 5.0826746278e-01	 1.8876241359e+00
 1.2617108180e+00	 5.2010379456e-01	 1.8095443733e+00
 1.2567763893e+00	 5.3191658424e-01	 1.7314453592e+00
 1.2517220230e+00	 5.4370407624e-01	 1.6538141531e+00
 1.2465477626e+00	 5.5546450909e-01	 1.5771529879e+00
 1.2412536853e+00	 5.6719611612e-01	 1.5019789217e+00
 1.2358399017e+00	 5.7889712627e-01	 1.4288234106e+00
 1.2303065564e+00	 5.9056576485e-01	 1.3578331418e+00
 1.2857677524e+00	 4.7467188428e-01	 2.1017535245e+00
 1.2812936509e+00	 4.8661965740e-01	 2.0251531277e+00
 1.2766992489e+00	 4.9854903319e-01	 1.9473116971e+00
 1.2719844592e+00	 5.1045827081e-01	 1.8687178035e+00
 1.2671492267e+00	 5.2234562126e-01	 1.7898775887e+00
 1.2621935289e+00	 5.3420932813e-01	 1.7113146012e+00
 1.2571173765e+00	 5.4604762829e-01	 1.6335695650e+00
 1.2519208133e+00	 5.5785875266e-01	 1.5572000774e+00
 1.2466039167e+00	 5.6964092696e-01	 1.4827802296e+00
 1.2411667978e+00	 5.8139237250e-01	 1.4109001442e+00
 1.2356096019e+00	 5.9311130694e-01	 1.3404251429e+00
 1.2912860689e+00	 4.7670910267e-01	 2.0869167345e+00
 1.2867927652e+00	 4.8870815379e-01	 2.0089714146e+00
 1.2821786449e+00	 5.0068872861e-01	 1.9299227146e+00
 1.2774436200e+00	 5.1264907884e-01	 1.8503133705e+00
 1.2725876354e+00	 5.2458744796e-01	 1.7707054078e+00
 1.2676106685e+00	 5.3650207203e-01	 1.6916799430e+00
 1.2625127301e+00	 5.4839118034e-01	 1.6138369169e+00
 1.2572938640e+00	 5.6025299623e-01	 1.5377947538e+00
 1.2519541481e+00	 5.7208573781e-01	 1.4641899422e+00
 1.2464936939e+00	 5.8388761873e-01	 1.3936765300e+00
 1.2409126474e+00	 5.9565684903e-01	 1.3229067421e+00
 1.2968043854e+00	 4.7874632105e-01	 2.0725072626e+00
 1.2922918796e+00	 4.9079665017e-01	 1.9932224924e+00
 1.2876580408e+00	 5.0282842403e-01	 1.9129622220e+00
 1.2829027808e+00	 5.1483988687e-01	 1.8323290523e+00
 1.2780260441e+00	 5.2682927466e-01	 1.7519465269e+00
 1.2730278081e+00	 5.3879481593e-01	 1.6724588917e+00
 1.2679080836e+00	 5.5073473240e-01	 1.5945307834e+00
 1.2626669147e+00	 5.6264723981e-01	 1.5188468437e+00
 1.2573043795e+00	 5.7453054865e-01	 1.4461112515e+00
 1.2518205900e+00	 5.8638286497e-01	 1.3770471679e+00
 1.2462156929e+00	 5.9820239112e-01	 1.3051735103e+00
 1.3023227020e+00	 4.8078353944e-01	 2.0584328963e+00
 1.2977909940e+00	 4.9288514655e-01	 1.9778190958e+00
 1.2931374367e+00	 5.0496811946e-01	 1.8963464762e+00
 1.2883619415e+00	 5.1703069489e-01	 1.8146831304e+00
 1.2834644528e+00	 5.2907110136e-01	 1.7335196820e+00
 1.2784449478e+00	 5.4108755983e-01	 1.6535689946e+00
 1.2733034372e+00	 5.5307828445e-01	 1.5755658091e+00
 1.2680399654e+00	 5.6504148338e-01	 1.5002663034e+00
 1.2626546109e+00	 5.7697535950e-01	 1.4284475694e+00
 1.2571474862e+00	 5.8887811120e-01	 1.3608773143e+00
 1.2515187384e+00	 6.0074793321e-01	 1.2871235397e+00
 1.3078410185e+00	 4.8282075783e-01	 2.0446017464e+00
 1.3032901084e+00	 4.9497364294e-01	 1.9626741831e+00
 1.2986168326e+00	 5.0710781488e-01	 1.8799918823e+00
 1.2938211023e+00	 5.1922150292e-01	 1.7972939840e+00
 1.2889028615e+00	 5.3131292807e-01	 1.7153436819e+00
 1.2838620874e+00	 5.4338030372e-01	 1.6349278751e+00
 1.2786987907e+00	 5.5542183650e-01	 1.5568567455e+00
 1.2734130161e+00	 5.6743572695e-01	 1.4819632565e+00
 1.2680048423e+00	 5.7942017034e-01	 1.4111025660e+00
 1.2624743823e+00	 5.9137335744e-01	 1.3444470804e+00
 1.2568217839e+00	 6.0329347530e-01	 1.2686574156e+00
 1.3133593350e+00	 4.8485797622e-01	 2.0309222676e+00
 1.3087892228e+00	 4.9706213932e-01	 1.9477009604e+00
 1.3040962285e+00	 5.0924751030e-01	 1.8638150209e+00
 1.2992802631e+00	 5.2141231095e-01	 1.7800801201e+00
 1.2943412702e+00	 5.3355475477e-01	 1.6973374418e+00
 1.2892792270e+00	 5.4567304762e-01	 1.6164532678e+00
 1.2840941443e+00	 5.5776538856e-01	 1.5383184885e+00
 1.2787860668e+00	 5.6982997053e-01	 1.4638480321e+00
 1.2733550737e+00	 5.8186498119e-01	 1.3939802074e+00
 1.2678012784e+00	 5.9386860367e-01	 1.3274174559e+00
 1.2621248294e+00	 6.0583901739e-01	 1.2496781897e+00
 1.3188776516e+00	 4.8689519460e-01	 2.0173032781e+00
 1.3142883372e+00	 4.9915063571e-01	 1.9328129057e+00
 1.3095756244e+00	 5.1138720572e-01	 1.8477326757e+00
 1.3047394238e+00	 5.2360311898e-01	 1.7629602050e+00
 1.2997796789e+00	 5.3579658147e-01	 1.6794200169e+00
 1.2946963666e+00	 5.4796579152e-01	 1.5980630543e+00
 1.2894894978e+00	 5.6010894061e-01	 1.5198661144e+00
 1.2841591175e+00	 5.7222421410e-01	 1.4458312022e+00
 1.2787053051e+00	 5.8430979203e-01	 1.3769847937e+00
 1.2731281746e+00	 5.9636384990e-01	 1.3096992879e+00
 1.2674278749e+00	 6.0838455948e-01	 1.2300913517e+00
 1.3243959681e+00	 4.8893241299e-01	 2.0036539804e+00
 1.3197874515e+00	 5.0123913209e-01	 1.9179237933e+00
 1.3150550204e+00	 5.1352690114e-01	 1.8316618621e+00
 1.3101985846e+00	 5.2579392701e-01	 1.7458530944e+00
 1.3052180876e+00	 5.3803840817e-01	 1.6615106352e+00
 1.3001135062e+00	 5.5025853542e-01	 1.5796752978e+00
 1.2948848514e+00	 5.6245249266e-01	 1.5014149173e+00
 1.2895321682e+00	 5.7461845767e-01	 1.4278236191e+00
 1.2840555365e+00	 5.8675460288e-01	 1.3600209969e+00
 1.2784550707e+00	 5.9885909614e-01	 1.2912057127e+00
 1.2727309204e+00	 6.1093010157e-01	 1.2098048027e+00
 1.2197004654e+00	 5.8547468067e-01	 1.3933103031e+00
 1.2140964676e+00	 5.9700887284e-01	 1.3231314383e+00
 1.2083743274e+00	 6.0850744609e-01	 1.2512377706e+00
 1.2025342900e+00	 6.1996863500e-01	 1.1776755719e+00
 1.1965766353e+00	 6.3139067371e-01	 1.1030537291e+00
 1.1905016775e+00	 6.4277179682e-01	 1.0279822749e+00
 1.1843097655e+00	 6.5411024012e-01	 9.5307289883e-01
 1.1780012828e+00	 6.6540424150e-01	 8.7893955102e-01
 1.1715766477e+00	 6.7665204175e-01	 8.0465480530e-01
 1.1650363131e+00	 6.8785188541e-01	 7.2739091101e-01
 1.1583807668e+00	 6.9900202160e-01	 6.4801771944e-01
 1.2250035109e+00	 5.8802022276e-01	 1.3752411196e+00
 1.2193751479e+00	 5.9960456359e-01	 1.3032933290e+00
 1.2136281288e+00	 6.1115313064e-01	 1.2293522200e+00
 1.2077626999e+00	 6.2266415080e-01	 1.1539493436e+00
 1.2017791424e+00	 6.3413585056e-01	 1.0776186094e+00
 1.1956777718e+00	 6.4556645680e-01	 1.0008934111e+00
 1.1894589384e+00	 6.5695419768e-01	 9.2430725584e-01
 1.1831230276e+00	 6.6829730342e-01	 8.4839449389e-01
 1.1766704592e+00	 6.7959400715e-01	 7.7369114476e-01
 1.1701016883e+00	 6.9084254578e-01	 6.9824394230e-01
 1.1634172049e+00	 7.0204116082e-01	 6.2005014039e-01
 1.2303065564e+00	 5.9056576485e-01	 1.3578331418e+00
 1.2246538282e+00	 6.0220025434e-01	 1.2837185731e+00
 1.2188819302e+00	 6.1379881519e-01	 1.2079099030e+00
 1.2129911099e+00	 6.2535966661e-01	 1.1308657857e+00
 1.2069816495e+00	 6.3688102740e-01	 1.0530420459e+00
 1.2008538660e+00	 6.4836111679e-01	 9.7489232565e-01
 1.1946081113e+00	 6.5979815525e-01	 8.9686883863e-01
 1.1882447723e+00	 6.7119036534e-01	 8.1942322949e-01
 1.1817642707e+00	 6.8253597255e-01	 7.4300753651e-01
 1.1751670636e+00	 6.9383320615e-01	 6.6797150042e-01
 1.1684536430e+00	 7.0508030005e-01	 5.9132615099e-01
 1.2356096019e+00	 5.9311130694e-01	 1.3404251429e+00
 1.2299325085e+00	 6.0479594510e-01	 1.2642905440e+00
 1.2241357316e+00	 6.1644449974e-01	 1.1867873913e+00
 1.2182195199e+00	 6.2805518241e-01	 1.1082949754e+00
 1.2121841566e+00	 6.3962620424e-01	 1.0291879637e+00
 1.2060299603e+00	 6.5115577677e-01	 9.4983717023e-01
 1.1997572842e+00	 6.6264211281e-01	 8.7061043842e-01
 1.1933665170e+00	 6.7408342726e-01	 7.9187363624e-01
 1.1868580822e+00	 6.8547793795e-01	 7.1399175992e-01
 1.1802324389e+00	 6.9682386652e-01	 6.3733014342e-01
 1.1734900811e+00	 7.0811943927e-01	 5.6173975113e-01
 1.2409126474e+00	 5.9565684903e-01	 1.3229067421e+00
 1.2352111888e+00	 6.0739163585e-01	 1.2448953475e+00
 1.2293895331e+00	 6.1909018429e-01	 1.1658641398e+00
 1.2234479298e+00	 6.3075069822e-01	 1.0861100186e+00
 1.2173866637e+00	 6.4237138108e-01	 1.0059234567e+00
 1.2112060545e+00	 6.5395043676e-01	 9.2558939793e-01
 1.2049064571e+00	 6.6548607038e-01	 8.4538827352e-01
 1.1984882617e+00	 6.7697648918e-01	 7.6559713755e-01
 1.1919518937e+00	 6.8841990335e-01	 6.8649091704e-01
 1.1852978141e+00	 6.9981452689e-01	 6.0834377376e-01
 1.1785265192e+00	 7.1115857850e-01	 5.3143057322e-01
 1.2462156929e+00	 5.9820239112e-01	 1.3051735103e+00
 1.2404898691e+00	 6.0998732660e-01	 1.2254217901e+00
 1.2346433345e+00	 6.2173586884e-01	 1.1450224522e+00
 1.2286763398e+00	 6.3344621402e-01	 1.0641870122e+00
 1.2225891708e+00	 6.4511655792e-01	 9.8311874587e-01
 1.2163821488e+00	 6.5674509675e-01	 9.0201371881e-01
 1.2100556300e+00	 6.6833002795e-01	 8.2106194198e-01
 1.2036100064e+00	 6.7986955110e-01	 7.4044865183e-01
 1.1970457052e+00	 6.9136186875e-01	 6.6035571198e-01
 1.1903631894e+00	 7.0280518727e-01	 5.8096313249e-01
 1.1835629573e+00	 7.1419771772e-01	 5.0245070226e-01
 1.2515187384e+00	 6.0074793321e-01	 1.2871235397e+00
 1.2457685494e+00	 6.1258301735e-01	 1.2057613484e+00
 1.2398971359e+00	 6.2438155338e-01	 1.1241474462e+00
 1.2339047497e+00	 6.3614172982e-01	 1.0424050061e+00
 1.2277916780e+00	 6.4786173477e-01	 9.6064713818e-01
 1.2215582430e+00	 6.5953975673e-01	 8.7897805579e-01
 1.2152048029e+00	 6.7117398551e-01	 7.9749437465e-01
 1.2087317511e+00	 6.8276261302e-01	 7.1628654286e-01
 1.2021395167e+00	 6.9430383415e-01	 6.3544039894e-01
 1.1954285647e+00	 7.0579584764e-01	 5.5503885371e-01
 1.1885993955e+00	 7.1723685694e-01	 4.7516369127e-01
 1.2568217839e+00	 6.0329347530e-01	 1.2686574156e+00
 1.2510472297e+00	 6.1517870810e-01	 1.1858081378e+00
 1.2451509373e+00	 6.2702723793e-01	 1.1031270192e+00
 1.2391331597e+00	 6.3883724563e-01	 1.0206459655e+00
 1.2329941851e+00	 6.5060691161e-01	 9.3838498597e-01
 1.2267343373e+00	 6.6233441672e-01	 8.5635350090e-01
 1.2203539758e+00	 6.7401794308e-01	 7.7455178865e-01
 1.2138534958e+00	 6.8565567494e-01	 6.9297257064e-01
 1.2072333283e+00	 6.9724579955e-01	 6.1160273061e-01
 1.2004939400e+00	 7.0878650801e-01	 5.3042516408e-01
 1.1936358336e+00	 7.2027599617e-01	 4.4942075318e-01
 1.2621248294e+00	 6.0583901739e-01	 1.2496781897e+00
 1.2563259100e+00	 6.1777439885e-01	 1.1654588816e+00
 1.2504047388e+00	 6.2967292248e-01	 1.0818518138e+00
 1.2443615696e+00	 6.4153276143e-01	 9.9879473331e-01
 1.2381966922e+00	 6.5335208845e-01	 9.1621164635e-01
 1.2319104315e+00	 6.6512907671e-01	 8.3401427185e-01
 1.2255031487e+00	 6.7686190064e-01	 7.5210364119e-01
 1.2189752405e+00	 6.8854873686e-01	 6.7037184271e-01
 1.2123271398e+00	 7.0018776494e-01	 5.8870390711e-01
 1.2055593152e+00	 7.1177716838e-01	 5.0697982961e-01
 1.1986722717e+00	 7.2331513539e-01	 4.2507672369e-01
 1.2674278749e+00	 6.0838455948e-01	 1.2300913517e+00
 1.2616045903e+00	 6.2037008961e-01	 1.1446128804e+00
 1.2556585402e+00	 6.3231860703e-01	 1.0602151844e+00
 1.2495899796e+00	 6.4422827724e-01	 9.7673899323e-01
 1.2433991993e+00	 6.5609726529e-01	 8.9400944092e-01
 1.2370865258e+00	 6.6792373669e-01	 8.1183766894e-01
 1.2306523216e+00	 6.7970585821e-01	 7.3002258382e-01
 1.2240969852e+00	 6.9144179878e-01	 6.4835276580e-01
 1.2174209513e+00	 7.0312973034e-01	 5.6660852536e-01
 1.2106246905e+00	 7.1476782875e-01	 4.8456410293e-01
 1.2037087098e+00	 7.2635427462e-01	 4.0199000662e-01
 1.2727309204e+00	 6.1093010157e-01	 1.2098048027e+00
 1.2668832706e+00	 6.2296578036e-01	 1.1231719810e+00
 1.2609123416e+00	 6.3496429158e-01	 1.0381131621e+00
 1.2548183896e+00	 6.4692379304e-01	 9.5436923235e-01
 1.2486017064e+00	 6.5884244214e-01	 8.7166361578e-01
 1.2422626200e+00	 6.7071839668e-01	 7.8970403224e-01
 1.2358014945e+00	 6.8254981578e-01	 7.0818441691e-01
 1.2292187299e+00	 6.9433486070e-01	 6.2678699798e-01
 1.2225147628e+00	 7.0607169574e-01	 5.4518452897e-01
 1.2156900658e+00	 7.1775848912e-01	 4.6304267107e-01
 1.2087451479e+00	 7.2939341384e-01	 3.8002251983e-01
 1.1583807668e+00	 6.9900202160e-01	 6.4801771944e-01
 1.1516105313e+00	 7.1010070489e-01	 5.6900394880e-01
 1.1447261641e+00	 7.2114619615e-01	 4.9202465098e-01
 1.1377282570e+00	 7.3213676339e-01	 4.1696903898e-01
 1.1306174365e+00	 7.4307068262e-01	 3.4376740650e-01
 1.1233943636e+00	 7.5394623870e-01	 2.7239196393e-01
 1.1160597337e+00	 7.6476172621e-01	 2.0285751294e-01
 1.1086142762e+00	 7.7551545026e-01	 1.3522195150e-01
 1.1010587547e+00	 7.8620572739e-01	 6.9586601370e-02
 1.0933939663e+00	 7.9683088638e-01	 6.0963516778e-03
 1.0856207419e+00	 8.0738926909e-01	-5.5060387692e-02
 1.1634172049e+00	 7.0204116082e-01	 6.2005014039e-01
 1.1566175337e+00	 7.1318809926e-01	 5.4162072096e-01
 1.1497032344e+00	 7.2428161440e-01	 4.6478139726e-01
 1.1426749016e+00	 7.3531996671e-01	 3.8949830789e-01
 1.1355331644e+00	 7.4630142472e-01	 3.1577880838e-01
 1.1282786869e+00	 7.5722426583e-01	 2.4367223176e-01
 1.1209121673e+00	 7.6808677719e-01	 1.7327048415e-01
 1.1134343383e+00	 7.7888725657e-01	 1.0470846672e-01
 1.1058459666e+00	 7.8962401316e-01	 3.8164316407e-02
 1.0981478531e+00	 8.0029536849e-01	-2.6140541467e-02
 1.0903408320e+00	 8.1089965722e-01	-8.7941534617e-02
 1.1684536430e+00	 7.0508030005e-01	 5.9132615099e-01
 1.1616245360e+00	 7.1627549363e-01	 5.1383844717e-01
 1.1546803047e+00	 7.2741703264e-01	 4.3747781493e-01
 1.1476215461e+00	 7.3850317003e-01	 3.6228274701e-01
 1.1404488924e+00	 7.4953216682e-01	 2.8833317090e-01
 1.1331630102e+00	 7.6050229295e-01	 2.1575114132e-01
 1.1257646009e+00	 7.7141182818e-01	 1.4470136375e-01
 1.1182544003e+00	 7.8225906287e-01	 7.5391540474e-02
 1.1106331786e+00	 7.9304229893e-01	 8.0725311994e-03
 1.1029017399e+00	 8.0375985061e-01	-5.6961678581e-02
 1.0950609222e+00	 8.1441004534e-01	-1.1937420751e-01
 1.1734900811e+00	 7.0811943927e-01	 5.6173975113e-01
 1.1666315383e+00	 7.1936288800e-01	 4.8554824436e-01
 1.1596573749e+00	 7.3055245088e-01	 4.1000303672e-01
 1.1525681907e+00	 7.4168637335e-01	 3.3521045094e-01
 1.1453646204e+00	 7.5276290892e-01	 2.6131854370e-01
 1.1380473335e+00	 7.6378032008e-01	 1.8851773733e-01
 1.1306170345e+00	 7.7473687916e-01	 1.1704127844e-01
 1.1230744624e+00	 7.8563086918e-01	 4.7165514867e-02
 1.1154203906e+00	 7.9646058470e-01	-2.0790016908e-02
 1.1076556267e+00	 8.0722433272e-01	-8.6462701126e-02
 1.0997810124e+00	 8.1792043347e-01	-1.4944715475e-01
 1.1785265192e+00	 7.1115857850e-01	 5.3143057322e-01
 1.1716385406e+00	 7.2245028237e-01	 4.5664292252e-01
 1.1646344452e+00	 7.3368786913e-01	 3.8224798017e-01
 1.1575148353e+00	 7.4486957667e-01	 3.0817137199e-01
 1.1502803484e+00	 7.5599365101e-01	 2.3462488717e-01
 1.1429316569e+00	 7.6705834720e-01	 1.6186300744e-01
 1.1354694682e+00	 7.7806193014e-01	 9.0183307947e-02
 1.1278945245e+00	 7.8900267548e-01	 1.9926672167e-02
 1.1202076026e+00	 7.9987887048e-01	-4.8522687325e-02
 1.1124095135e+00	 8.1068881484e-01	-1.1473740924e-01
 1.1045011026e+00	 8.2143082160e-01	-1.7824737132e-01
 1.1835629573e+00	 7.1419771772e-01	 5.0245070226e-01
 1.1766455429e+00	 7.2553767674e-01	 4.2701867574e-01
 1.1696115155e+00	 7.3682328737e-01	 3.5410535976e-01
 1.1624614799e+00	 7.4805277999e-01	 2.8105733241e-01
 1.1551960764e+00	 7.5922439311e-01	 2.0814408506e-01
 1.1478159802e+00	 7.7033637433e-01	 1.3567989549e-01
 1.1403219018e+00	 7.8138698113e-01	 6.4022499547e-02
 1.1327145866e+00	 7.9237448179e-01	-6.4267491492e-03
 1.1249948145e+00	 8.0329715625e-01	-7.5222918177e-02
 1.1171634003e+00	 8.1415329695e-01	-1.4187774126e-01
 1.1092211928e+00	 8.2494120972e-01	-2.0586007540e-01
 1.1885993955e+00	 7.1723685694e-01	 4.7516369127e-01
 1.1816525452e+00	 7.2862507111e-01	 3.9803036483e-01
 1.1745885858e+00	 7.3995870562e-01	 3.2546969974e-01
 1.1674081245e+00	 7.5123598331e-01	 2.5376203721e-01
 1.1601118044e+00	 7.6245513521e-01	 1.8176995776e-01
 1.1527003035e+00	 7.7361440145e-01	 1.0986331563e-01
 1.1451743354e+00	 7.8471203211e-01	 3.8455883177e-02
 1.1375346486e+00	 7.9574628809e-01	-3.1994537718e-02
 1.1297820265e+00	 8.0671544202e-01	-1.0098620767e-01
 1.1219172871e+00	 8.1761777907e-01	-1.6797375274e-01
 1.1139412829e+00	 8.2845159785e-01	-2.3236868459e-01
 1.1936358336e+00	 7.2027599617e-01	 4.4942075318e-01
 1.1866595475e+00	 7.3171246547e-01	 3.7081509046e-01
 1.1795656560e+00	 7.4309412386e-01	 2.9673238706e-01
 1.1723547691e+00	 7.5441918663e-01	 2.2618108767e-01
 1.1650275323e+00	 7.6568587731e-01	 1.5539827613e-01
 1.1575846268e+00	 7.7689242858e-01	 8.4310166879e-02
 1.1500267690e+00	 7.8803708309e-01	 1.3382487234e-02
 1.1423547107e+00	 7.9911809440e-01	-5.6874492002e-02
 1.1345692385e+00	 8.1013372779e-01	-1.2590609492e-01
 1.1266711740e+00	 8.2108226118e-01	-1.9311359492e-01
 1.1186613731e+00	 8.3196198598e-01	-2.5785479159e-01
 1.1986722717e+00	 7.2331513539e-01	 4.2507672369e-01
 1.1916665498e+00	 7.3479985984e-01	 3.4522541657e-01
 1.1845427263e+00	 7.4622954211e-01	 2.6965347513e-01
 1.1773014137e+00	 7.5760238995e-01	 1.9824575327e-01
 1.1699432603e+00	 7.6891661941e-01	 1.2892677613e-01
 1.1624689501e+00	 7.8017045570e-01	 5.8919348469e-02
 1.1548792027e+00	 7.9136213408e-01	-1.1296645043e-02
 1.1471747728e+00	 8.0248990070e-01	-8.1162402427e-02
 1.1393564505e+00	 8.1355201356e-01	-1.5007414020e-01
 1.1314250608e+00	 8.2454674330e-01	-2.1738349271e-01
 1.1233814633e+00	 8.3547237410e-01	-2.8239813953e-01
 1.2037087098e+00	 7.2635427462e-01	 4.0199000662e-01
 1.1966735521e+00	 7.3788725421e-01	 3.2111754587e-01
 1.1895197966e+00	 7.4936496035e-01	 2.4427193918e-01
 1.1822480583e+00	 7.6078559326e-01	 1.7137661227e-01
 1.1748589883e+00	 7.7214736151e-01	 1.0225517387e-01
 1.1673532735e+00	 7.8344848283e-01	 3.3591775700e-02
 1.1597316363e+00	 7.9468718506e-01	-3.5678438602e-02
 1.1519948348e+00	 8.0586170701e-01	-1.0495203295e-01
 1.1441436624e+00	 8.1697029933e-01	-1.7357990466e-01
 1.1361789476e+00	 8.2801122541e-01	-2.4086772221e-01
 1.1281015535e+00	 8.3898276223e-01	-3.0607659680e-01
 1.2087451479e+00	 7.2939341384e-01	 3.8002251983e-01
 1.2016805544e+00	 7.4097464858e-01	 2.9835126420e-01
 1.1944968669e+00	 7.5250037859e-01	 2.2044623164e-01
 1.1871947029e+00	 7.6396879658e-01	 1.4626525580e-01
 1.1797747163e+00	 7.7537810361e-01	 7.5786310466e-02
 1.1722375968e+00	 7.8672650995e-01	 8.2303964150e-03
 1.1645840699e+00	 7.9801223604e-01	-5.9857769022e-02
 1.1568148969e+00	 8.0923351332e-01	-1.2833510208e-01
 1.1489308744e+00	 8.2038858510e-01	-1.9651092958e-01
 1.1409328344e+00	 8.3147570753e-01	-2.6364858772e-01
 1.1328216437e+00	 8.4249315036e-01	-3.2896613150e-01
 1.0856207419e+00	 8.0738926909e-01	-5.5060387692e-02
 1.0777399454e+00	 8.1787923132e-01	-1.1633497621e-01
 1.0697524740e+00	 8.2829914362e-01	-1.7988767317e-01
 1.0616592574e+00	 8.3864739209e-01	-2.4502505024e-01
 1.0534612575e+00	 8.4892237926e-01	-3.1100697484e-01
 1.0451594684e+00	 8.5912252482e-01	-3.7704816183e-01
 1.0367549157e+00	 8.6924626647e-01	-4.4231993681e-01
 1.0282486562e+00	 8.7929206067e-01	-5.0595220883e-01
 1.0196417775e+00	 8.8925838345e-01	-5.6703564864e-01
 1.0109353974e+00	 8.9914373113e-01	-6.2462406778e-01
 1.0021306636e+00	 9.0894662112e-01	-6.7773699233e-01
 1.0903408320e+00	 8.1089965722e-01	-8.7941534617e-02
 1.0824257713e+00	 8.2143522798e-01	-1.4960868485e-01
 1.0744035717e+00	 8.3190044424e-01	-2.1329932274e-01
 1.0662751672e+00	 8.4229368510e-01	-2.7836074086e-01
 1.0580415238e+00	 8.5261334612e-01	-3.4409205322e-01
 1.0497036400e+00	 8.6285784014e-01	-4.0974569149e-01
 1.0412625458e+00	 8.7302559806e-01	-4.7452911936e-01
 1.0327193026e+00	 8.8311506963e-01	-5.3760676270e-01
 1.0240750026e+00	 8.9312472425e-01	-5.9810215185e-01
 1.0153307687e+00	 9.0305305170e-01	-6.5510027142e-01
 1.0064877534e+00	 9.1289856296e-01	-7.0765011150e-01
 1.0950609222e+00	 8.1441004534e-01	-1.1937420751e-01
 1.0871115971e+00	 8.2499122464e-01	-1.8144325861e-01
 1.0790546694e+00	 8.3550174486e-01	-2.4530599539e-01
 1.0708910770e+00	 8.4593997811e-01	-3.1034405400e-01
 1.0626217901e+00	 8.5630431299e-01	-3.7588942556e-01
 1.0542478116e+00	 8.6659315547e-01	-4.4122590560e-01
 1.0457701758e+00	 8.7680492965e-01	-5.0559076788e-01
 1.0371899489e+00	 8.8693807859e-01	-5.6817666071e-01
 1.0285082278e+00	 8.9699106504e-01	-6.2813372213e-01
 1.0197261400e+00	 9.0696237227e-01	-6.8457190923e-01
 1.0108448433e+00	 9.1685050479e-01	-7.3656353577e-01
 1.0997810124e+00	 8.1792043347e-01	-1.4944715475e-01
 1.0917974230e+00	 8.2854722130e-01	-2.1192019023e-01
 1.0837057672e+00	 8.3910304549e-01	-2.7598256153e-01
 1.0755069868e+00	 8.4958627112e-01	-3.4104395443e-01
 1.0672020565e+00	 8.5999527986e-01	-4.0646295029e-01
 1.0587919832e+00	 8.7032847079e-01	-4.7154843689e-01
 1.0502778059e+00	 8.8058426125e-01	-5.3556125038e-01
 1.0416605952e+00	 8.9076108755e-01	-5.9771604632e-01
 1.0329414529e+00	 9.0085740584e-01	-6.5718339639e-01
 1.0241215113e+00	 9.1087169285e-01	-7.1309210617e-01
 1.0152019331e+00	 9.2080244662e-01	-7.6453174786e-01
 1.1045011026e+00	 8.2143082160e-01	-1.7824737132e-01
 1.0964832488e+00	 8.3210321795e-01	-2.4111931754e-01
 1.0883568649e+00	 8.4270434611e-01	-3.0540232885e-01
 1.0801228966e+00	 8.5323256413e-01	-3.7052792890e-01
 1.0717823228e+00	 8.6368624672e-01	-4.3587508353e-01
 1.0633361548e+00	 8.7406378612e-01	-5.0077158137e-01
 1.0547854360e+00	 8.8436359284e-01	-5.6449565224e-01
 1.0461312416e+00	 8.9458409651e-01	-6.2627782156e-01
 1.0373746780e+00	 9.0472374664e-01	-6.8530299723e-01
 1.0285168826e+00	 9.1478101342e-01	-7.4071278449e-01
 1.0195590230e+00	 9.2475438845e-01	-7.9160802270e-01
 1.1092211928e+00	 8.2494120972e-01	-2.0586007540e-01
 1.1011690747e+00	 8.3565921461e-01	-2.6911879708e-01
 1.0930079626e+00	 8.4630564674e-01	-3.3363701320e-01
 1.0847388064e+00	 8.5687885714e-01	-3.9886195443e-01
 1.0763625892e+00	 8.6737721359e-01	-4.6418684524e-01
 1.0678803264e+00	 8.7779910145e-01	-5.2895226249e-01
 1.0592930660e+00	 8.8814292443e-01	-5.9244773877e-01
 1.0506018879e+00	 8.9840710547e-01	-6.5391360848e-01
 1.0418079031e+00	 9.0859008744e-01	-7.1254309355e-01
 1.0329122539e+00	 9.1869033399e-01	-7.6748462410e-01
 1.0239161128e+00	 9.2870633028e-01	-8.1784438792e-01
 1.1139412829e+00	 8.2845159785e-01	-2.3236868459e-01
 1.1058549005e+00	 8.3921521127e-01	-2.9599507732e-01
 1.0976590603e+00	 8.4990694736e-01	-3.6075670911e-01
 1.0893547162e+00	 8.6052515015e-01	-4.2611046637e-01
 1.0809428555e+00	 8.7106818046e-01	-4.9145778500e-01
 1.0724244980e+00	 8.8153441677e-01	-5.5614599517e-01
 1.0638006961e+00	 8.9192225603e-01	-6.1946991771e-01
 1.0550725342e+00	 9.0223011443e-01	-6.8067371044e-01
 1.0462411282e+00	 9.1245642823e-01	-7.3895296119e-01
 1.0373076252e+00	 9.2259965456e-01	-7.9345702282e-01
 1.0282732027e+00	 9.3265827211e-01	-8.4329158418e-01
 1.1186613731e+00	 8.3196198598e-01	-2.5785479159e-01
 1.1105407264e+00	 8.4277120793e-01	-3.2182287153e-01
 1.1023101580e+00	 8.5350824799e-01	-3.8682985993e-01
 1.0939706261e+00	 8.6417144316e-01	-4.5233632614e-01
 1.0855231218e+00	 8.7475914732e-01	-5.1774594776e-01
 1.0769686696e+00	 8.8526973210e-01	-5.8240684962e-01
 1.0683083262e+00	 8.9570158762e-01	-6.4561320157e-01
 1.0595431805e+00	 9.0605312339e-01	-7.0660707336e-01
 1.0506743534e+00	 9.1632276903e-01	-7.6458054334e-01
 1.0417029965e+00	 9.2650897513e-01	-8.1867805647e-01
 1.0326302925e+00	 9.3661021394e-01	-8.6799902542e-01
 1.1233814633e+00	 8.3547237410e-01	-2.8239813953e-01
 1.1152265522e+00	 8.4632720459e-01	-3.4667513021e-01
 1.1069612557e+00	 8.5710954861e-01	-4.1192322772e-01
 1.0985865359e+00	 8.6781773616e-01	-4.7760078878e-01
 1.0901033882e+00	 8.7845011419e-01	-5.4310783915e-01
 1.0815128412e+00	 8.8900504742e-01	-6.0778741493e-01
 1.0728159562e+00	 8.9948091921e-01	-6.7092716980e-01
 1.0640138269e+00	 9.0987613234e-01	-7.3176124674e-01
 1.0551075785e+00	 9.2018910983e-01	-7.8947241089e-01
 1.0460983678e+00	 9.3041829570e-01	-8.4319443897e-01
 1.0369873823e+00	 9.4056215577e-01	-8.9201475904e-01
 1.1281015535e+00	 8.3898276223e-01	-3.0607659680e-01
 1.1199123781e+00	 8.4988320124e-01	-3.7062301322e-01
 1.1116123534e+00	 8.6071084924e-01	-4.3610186283e-01
 1.1032024457e+00	 8.7146402917e-01	-5.0196347018e-01
 1.0946836545e+00	 8.8214108106e-01	-5.6759839079e-01
 1.0860570128e+00	 8.9274036275e-01	-6.3233876260e-01
 1.0773235863e+00	 9.0326025081e-01	-6.9545993082e-01
 1.0684844732e+00	 9.1369914130e-01	-7.5618234468e-01
 1.0595408036e+00	 9.2405545063e-01	-8.1367372274e-01
 1.0504937391e+00	 9.3432761627e-01	-8.6705148222e-01
 1.0413444722e+00	 9.4451409760e-01	-9.1538542595e-01
 1.1328216437e+00	 8.4249315036e-01	-3.2896613150e-01
 1.1245982039e+00	 8.5343919790e-01	-3.9373586150e-01
 1.1162634512e+00	 8.6431214986e-01	-4.5942907308e-01
 1.1078183555e+00	 8.7511032218e-01	-5.2548231407e-01
 1.0992639208e+00	 8.8583204792e-01	-5.9127092524e-01
 1.0906011844e+00	 8.9647567807e-01	-6.5611040981e-01
 1.0818312164e+00	 9.0703958240e-01	-7.1925808395e-01
 1.0729551195e+00	 9.1752215026e-01	-7.7991500667e-01
 1.0639740287e+00	 9.2792179142e-01	-8.3722818589e-01
 1.0548891103e+00	 9.3823693684e-01	-8.9029305600e-01
 1.0457015620e+00	 9.4846603943e-01	-9.3815622052e-01
 1.0021306636e+00	 9.0894662112e-01	-6.7773699233e-01
 9.9322875308e-01	 9.1866559261e-01	-7.3002504571e-01
 9.8423087164e-01	 9.2829920731e-01	-7.8519474930e-01
 9.7513825336e-01	 9.3784605018e-01	-8.4231375354e-01
 9.6595215999e-01	 9.4730473006e-01	-9.0043656959e-01
 9.5667388043e-01	 9.5667388043e-01	-9.5860766505e-01
 9.4730473006e-01	 9.6595215999e-01	-1.0158646788e+00
 9.3784605018e-01	 9.7513825336e-01	-1.0712417419e+00
 9.2829920731e-01	 9.8423087164e-01	-1.1237728902e+00
 9.1866559261e-01	 9.9322875308e-01	-1.1724955545e+00
 9.0894662112e-01	 1.0021306636e+00	-1.2164541126e+00
 1.0064877534e+00	 9.1289856296e-01	-7.0765011150e-01
 9.9754713896e-01	 9.2265979084e-01	-7.5949503525e-01
 9.8851013630e-01	 9.3233529082e-01	-8.1438490010e-01
 9.7937798489e-01	 9.4192364170e-01	-8.7134075099e-01
 9.7015195199e-01	 9.5142344628e-01	-9.2936968180e-01
 9.6083333208e-01	 9.6083333208e-01	-9.8746804075e-01
 9.5142344628e-01	 9.7015195199e-01	-1.0446247597e+00
 9.4192364170e-01	 9.7937798489e-01	-1.0998247935e+00
 9.3233529082e-01	 9.8851013630e-01	-1.1520526562e+00
 9.2265979084e-01	 9.9754713896e-01	-1.2002960370e+00
 9.1289856296e-01	 1.0064877534e+00	-1.2435494820e+00
 1.0108448433e+00	 9.1685050479e-01	-7.3656353577e-01
 1.0018655248e+00	 9.2665398907e-01	-7.8794474032e-01
 9.9278940096e-01	 9.3637137433e-01	-8.4251621078e-01
 9.8361771643e-01	 9.4600123322e-01	-8.9925748396e-01
 9.7435174399e-01	 9.5554216250e-01	-9.5713332791e-01
 9.6499278374e-01	 9.6499278374e-01	-1.0150970508e+00
 9.5554216250e-01	 9.7435174399e-01	-1.0720939383e+00
 9.4600123322e-01	 9.8361771643e-01	-1.1270648067e+00
 9.3637137433e-01	 9.9278940096e-01	-1.1789496549e+00
 9.2665398907e-01	 1.0018655248e+00	-1.2266914022e+00
 9.1685050479e-01	 1.0108448433e+00	-1.2692396938e+00
 1.0152019331e+00	 9.2080244662e-01	-7.6453174786e-01
 1.0061839107e+00	 9.3064818730e-01	-8.1543083888e-01
 9.9706866562e-01	 9.4040745784e-01	-8.6964786279e-01
 9.8785744797e-01	 9.5007882474e-01	-9.2612587399e-01
 9.7855153599e-01	 9.5966087871e-01	-9.8379233368e-01
 9.6915223539e-01	 9.6915223539e-01	-1.0415625161e+00
 9.5966087871e-01	 9.7855153599e-01	-1.0983430485e+00
 9.5007882474e-01	 9.8785744797e-01	-1.1530355707e+00
 9.4040745784e-01	 9.9706866562e-01	-1.2045404996e+00
 9.3064818730e-01	 1.0061839107e+00	-1.2517608810e+00
 9.2080244662e-01	 1.0152019331e+00	-1.2936063145e+00
 1.0195590230e+00	 9.2475438845e-01	-7.9160802270e-01
 1.0105022966e+00	 9.3464238553e-01	-8.4200878656e-01
 1.0013479303e+00	 9.4444354135e-01	-8.9583780031e-01
 9.9209717950e-01	 9.5415641627e-01	-9.5200659110e-01
 9.8275132799e-01	 9.6377959493e-01	-1.0094102609e+00
 9.7331168705e-01	 9.7331168705e-01	-1.0669309843e+00
 9.6377959493e-01	 9.8275132799e-01	-1.1234416446e+00
 9.5415641627e-01	 9.9209717950e-01	-1.1778095956e+00
 9.4444354135e-01	 1.0013479303e+00	-1.2289005303e+00
 9.3464238553e-01	 1.0105022966e+00	-1.2755824442e+00
 9.2475438845e-01	 1.0195590230e+00	-1.3167296721e+00
 1.0239161128e+00	 9.2870633028e-01	-8.1784438792e-01
 1.0148206825e+00	 9.3863658376e-01	-8.6773277759e-01
 1.0056271949e+00	 9.4847962486e-01	-9.2114269173e-01
 9.9633691104e-01	 9.5823400779e-01	-9.7695901587e-01
 9.8695111999e-01	 9.6789831115e-01	-1.0340493702e+00
 9.7747113870e-01	 9.7747113870e-01	-1.0912676929e+00
 9.6789831115e-01	 9.8695111999e-01	-1.1474579670e+00
 9.5823400779e-01	 9.9633691104e-01	-1.2014580771e+00
 9.4847962486e-01	 1.0056271949e+00	-1.2521037797e+00
 9.3863658376e-01	 1.0148206825e+00	-1.2982327691e+00
 9.2870633028e-01	 1.0239161128e+00	-1.3386888235e+00
 1.0282732027e+00	 9.3265827211e-01	-8.4329158418e-01
 1.0191390684e+00	 9.4263078198e-01	-8.9265570559e-01
 1.0099064596e+00	 9.5251570837e-01	-9.4561789093e-01
 1.0005766426e+00	 9.6231159931e-01	-1.0010412014e+00
 9.9115091199e-01	 9.7201702737e-01	-1.0577705838e+00
 9.8163059035e-01	 9.8163059035e-01	-1.1146365332e+00
 9.7201702737e-01	 9.9115091199e-01	-1.1704589051e+00
 9.6231159931e-01	 1.0005766426e+00	-1.2240508620e+00
 9.5251570837e-01	 1.0099064596e+00	-1.2742229383e+00
 9.4263078198e-01	 1.0191390684e+00	-1.3197872056e+00
 9.3265827211e-01	 1.0282732027e+00	-1.3595615209e+00
 1.0326302925e+00	 9.3661021394e-01	-8.6799902542e-01
 1.0234574543e+00	 9.4662498021e-01	-9.1682912421e-01
 1.0141857243e+00	 9.5655179188e-01	-9.6931739849e-01
 1.0048163741e+00	 9.6638919083e-01	-1.0243098351e+00
 9.9535070399e-01	 9.7613574358e-01	-1.0806334476e+00
 9.8579004201e-01	 9.8579004201e-01	-1.1371000128e+00
 9.7613574358e-01	 9.9535070399e-01	-1.1925099620e+00
 9.6638919083e-01	 1.0048163741e+00	-1.2456564123e+00
 9.5655179188e-01	 1.0141857243e+00	-1.2953293205e+00
 9.4662498021e-01	 1.0234574543e+00	-1.3403197423e+00
 9.3661021394e-01	 1.0326302925e+00	-1.3794241785e+00
 1.0369873823e+00	 9.4056215577e-01	-8.9201475904e-01
 1.0277758401e+00	 9.5061917844e-01	-9.4030320772e-01
 1.0184649889e+00	 9.6058787539e-01	-9.9229382279e-01
 1.0090561056e+00	 9.7046678236e-01	-1.0468202004e+00
 9.9955049599e-01	 9.8025445980e-01	-1.1026960942e+00
 9.8994949366e-01	 9.8994949366e-01	-1.1587192194e+00
 9.8025445980e-01	 9.9955049599e-01	-1.2136752182e+00
 9.7046678236e-01	 1.0090561056e+00	-1.2663417700e+00
 9.6058787539e-01	 1.0184649889e+00	-1.3154928291e+00
 9.5061917844e-01	 1.0277758401e+00	-1.3599029726e+00
 9.4056215577e-01	 1.0369873823e+00	-1.3983518390e+00
 1.0413444722e+00	 9.4451409760e-01	-9.1538542595e-01
 1.0320942260e+00	 9.5461337667e-01	-9.6312671144e-01
 1.0227442536e+00	 9.6462395890e-01	-1.0145983409e+00
 1.0132958372e+00	 9.7454437388e-01	-1.0686261384e+00
 1.0037502880e+00	 9.8437317602e-01	-1.1240152044e+00
 9.9410894532e-01	 9.9410894532e-01	-1.1795537830e+00
 9.8437317602e-01	 1.0037502880e+00	-1.2340172949e+00
 9.7454437388e-01	 1.0132958372e+00	-1.2861725213e+00
 9.6462395890e-01	 1.0227442536e+00	-1.3347819207e+00
 9.5461337667e-01	 1.0320942260e+00	-1.3786080596e+00
 9.4451409760e-01	 1.0413444722e+00	-1.4164181397e+00
 1.0457015620e+00	 9.4846603943e-01	-9.3815622052e-01
 1.0364126119e+00	 9.5860757490e-01	-9.8534693208e-01
 1.0270235182e+00	 9.6866004241e-01	-1.0362806595e+00
 1.0175355687e+00	 9.7862196540e-01	-1.0897800088e+00
 1.0079500800e+00	 9.8849189224e-01	-1.1446459697e+00
 9.9826839697e-01	 9.9826839697e-01	-1.1996618391e+00
 9.8849189224e-01	 1.0079500800e+00	-1.2535973175e+00
 9.7862196540e-01	 1.0175355687e+00	-1.3052127608e+00
 9.6866004241e-01	 1.0270235182e+00	-1.3532635701e+00
 9.5860757490e-01	 1.0364126119e+00	-1.3965047023e+00
 9.4846603943e-01	 1.0457015620e+00	-1.4336952783e+00
 9.0894662112e-01	 1.0021306636e+00	-1.2164541126e+00
 8.9914373113e-01	 1.0109353974e+00	-1.2590559013e+00
 8.8925838345e-01	 1.0196417775e+00	-1.3037861965e+00
 8.7929206067e-01	 1.0282486562e+00	-1.3498336878e+00
 8.6924626647e-01	 1.0367549157e+00	-1.3964164768e+00
 8.5912252482e-01	 1.0451594684e+00	-1.4427854152e+00
 8.4892237926e-01	 1.0534612575e+00	-1.4882273894e+00
 8.3864739209e-01	 1.0616592574e+00	-1.5320685346e+00
 8.2829914362e-01	 1.0697524740e+00	-1.5736773621e+00
 8.1787923132e-01	 1.0777399454e+00	-1.6124677805e+00
 8.0738926909e-01	 1.0856207419e+00	-1.6479019972e+00
 9.1289856296e-01	 1.0064877534e+00	-1.2435494820e+00
 9.0305305170e-01	 1.0153307687e+00	-1.2852552731e+00
 8.9312472425e-01	 1.0240750026e+00	-1.3289866805e+00
 8.8311506963e-01	 1.0327193026e+00	-1.3739631670e+00
 8.7302559806e-01	 1.0412625458e+00	-1.4194349821e+00
 8.6285784014e-01	 1.0497036400e+00	-1.4646865198e+00
 8.5261334612e-01	 1.0580415238e+00	-1.5090396207e+00
 8.4229368510e-01	 1.0662751672e+00	-1.5518568040e+00
 8.3190044424e-01	 1.0744035717e+00	-1.5925444100e+00
 8.2143522798e-01	 1.0824257713e+00	-1.6305556354e+00
 8.1089965722e-01	 1.0903408320e+00	-1.6653934463e+00
 9.1685050479e-01	 1.0108448433e+00	-1.2692396938e+00
 9.0696237227e-01	 1.0197261400e+00	-1.3100813646e+00
 8.9699106504e-01	 1.0285082278e+00	-1.3528787832e+00
 8.8693807859e-01	 1.0371899489e+00	-1.3968742536e+00
 8.7680492965e-01	 1.0457701758e+00	-1.4413421543e+00
 8.6659315547e-01	 1.0542478116e+00	-1.4855923280e+00
 8.5630431299e-01	 1.0626217901e+00	-1.5289734146e+00
 8.4593997811e-01	 1.0708910770e+00	-1.5708761138e+00
 8.3550174486e-01	 1.0790546694e+00	-1.6107363556e+00
 8.2499122464e-01	 1.0871115971e+00	-1.6480383634e+00
 8.1441004534e-01	 1.0950609222e+00	-1.6823175902e+00
 9.2080244662e-01	 1.0152019331e+00	-1.2936063145e+00
 9.1087169285e-01	 1.0241215113e+00	-1.3336173096e+00
 9.0085740584e-01	 1.0329414529e+00	-1.3755460600e+00
 8.9076108755e-01	 1.0416605952e+00	-1.4186498667e+00
 8.8058426125e-01	 1.0502778059e+00	-1.4622193066e+00
 8.7032847079e-01	 1.0587919832e+00	-1.5055816660e+00
 8.5999527986e-01	 1.0672020565e+00	-1.5481043183e+00
 8.4958627112e-01	 1.0755069868e+00	-1.5891980293e+00
 8.3910304549e-01	 1.0837057672e+00	-1.6283201691e+00
 8.2854722130e-01	 1.0917974230e+00	-1.6649778149e+00
 8.1792043347e-01	 1.0997810124e+00	-1.6987307259e+00
 9.2475438845e-01	 1.0195590230e+00	-1.3167296721e+00
 9.1478101342e-01	 1.0285168826e+00	-1.3559450417e+00
 9.0472374664e-01	 1.0373746780e+00	-1.3970709267e+00
 8.9458409651e-01	 1.0461312416e+00	-1.4393718674e+00
 8.8436359284e-01	 1.0547854360e+00	-1.4821467948e+00
 8.7406378612e-01	 1.0633361548e+00	-1.5247325208e+00
 8.6368624672e-01	 1.0717823228e+00	-1.5665071735e+00
 8.5323256413e-01	 1.0801228966e+00	-1.6068935574e+00
 8.4270434611e-01	 1.0883568649e+00	-1.6453624205e+00
 8.3210321795e-01	 1.0964832488e+00	-1.6814356096e+00
 8.2143082160e-01	 1.1045011026e+00	-1.7146890957e+00
 9.2870633028e-01	 1.0239161128e+00	-1.3386888235e+00
 9.1869033399e-01	 1.0329122539e+00	-1.3771452616e+00
 9.0859008744e-01	 1.0418079031e+00	-1.4175346270e+00
 8.9840710547e-01	 1.0506018879e+00	-1.4591210259e+00
 8.8814292443e-01	 1.0592930660e+00	-1.5012039837e+00
 8.7779910145e-01	 1.0678803264e+00	-1.5431220053e+00
 8.6737721359e-01	 1.0763625892e+00	-1.5842560795e+00
 8.5687885714e-01	 1.0847388064e+00	-1.6240331082e+00
 8.4630564674e-01	 1.0930079626e+00	-1.6619292404e+00
 8.3565921461e-01	 1.1011690747e+00	-1.6974730942e+00
 8.2494120972e-01	 1.1092211928e+00	-1.7302488441e+00
 9.3265827211e-01	 1.0282732027e+00	-1.3595615209e+00
 9.2259965456e-01	 1.0373076252e+00	-1.3972974041e+00
 9.1245642823e-01	 1.0462411282e+00	-1.4370171992e+00
 9.0223011443e-01	 1.0550725342e+00	-1.4779769876e+00
 8.9192225603e-01	 1.0638006961e+00	-1.5194692128e+00
 8.8153441677e-01	 1.0724244980e+00	-1.5608263228e+00
 8.7106818046e-01	 1.0809428555e+00	-1.6014243572e+00
 8.6052515015e-01	 1.0893547162e+00	-1.6406864571e+00
 8.4990694736e-01	 1.0976590603e+00	-1.6780862805e+00
 8.3921521127e-01	 1.1058549005e+00	-1.7131513012e+00
 8.2845159785e-01	 1.1139412829e+00	-1.7454659744e+00
 9.3661021394e-01	 1.0326302925e+00	-1.3794241785e+00
 9.2650897513e-01	 1.0417029965e+00	-1.4164796052e+00
 9.1632276903e-01	 1.0506743534e+00	-1.4555974434e+00
 9.0605312339e-01	 1.0595431805e+00	-1.4960182402e+00
 8.9570158762e-01	 1.0683083262e+00	-1.5370197619e+00
 8.8526973210e-01	 1.0769686696e+00	-1.5779207320e+00
 8.7475914732e-01	 1.0855231218e+00	-1.6180845122e+00
 8.6417144316e-01	 1.0939706261e+00	-1.6569227074e+00
 8.5350824799e-01	 1.1023101580e+00	-1.6938986734e+00
 8.4277120793e-01	 1.1105407264e+00	-1.7285309081e+00
 8.3196198598e-01	 1.1186613731e+00	-1.7603963053e+00
 9.4056215577e-01	 1.0369873823e+00	-1.3983518390e+00
 9.3041829570e-01	 1.0460983678e+00	-1.4347686684e+00
 9.2018910983e-01	 1.0551075785e+00	-1.4733528877e+00
 9.0987613234e-01	 1.0640138269e+00	-1.5133220792e+00
 8.9948091921e-01	 1.0728159562e+00	-1.5539318171e+00
 8.8900504742e-01	 1.0815128412e+00	-1.5944795117e+00
 8.7845011419e-01	 1.0901033882e+00	-1.6343081989e+00
 8.6781773616e-01	 1.0985865359e+00	-1.6728102517e+00
 8.5710954861e-01	 1.1069612557e+00	-1.7094309940e+00
 8.4632720459e-01	 1.1152265522e+00	-1.7436721955e+00
 8.3547237410e-01	 1.1233814633e+00	-1.7750954283e+00
 9.4451409760e-01	 1.0413444722e+00	-1.4164181397e+00
 9.3432761627e-01	 1.0504937391e+00	-1.4522400318e+00
 9.2405545063e-01	 1.0595408036e+00	-1.4903597550e+00
 9.1369914130e-01	 1.0684844732e+00	-1.5299645749e+00
 9.0326025081e-01	 1.0773235863e+00	-1.5702804357e+00
 8.9274036275e-01	 1.0860570128e+00	-1.6105759250e+00
 8.8214108106e-01	 1.0946836545e+00	-1.6501661832e+00
 8.7146402917e-01	 1.1032024457e+00	-1.6884167344e+00
 8.6071084924e-01	 1.1116123534e+00	-1.7247472191e+00
 8.4988320124e-01	 1.1199123781e+00	-1.7586350062e+00
 8.3898276223e-01	 1.1281015535e+00	-1.7896186641e+00
 9.4846603943e-01	 1.0457015620e+00	-1.4336952783e+00
 9.3823693684e-01	 1.0548891103e+00	-1.4689677338e+00
 9.2792179142e-01	 1.0639740287e+00	-1.5066929292e+00
 9.1752215026e-01	 1.0729551195e+00	-1.5460205374e+00
 9.0703958240e-01	 1.0818312164e+00	-1.5861395117e+00
 8.9647567807e-01	 1.0906011844e+00	-1.6262821841e+00
 8.8583204792e-01	 1.0992639208e+00	-1.6657283061e+00
 8.7511032218e-01	 1.1078183555e+00	-1.7038090134e+00
 8.6431214986e-01	 1.1162634512e+00	-1.7399106887e+00
 8.5343919790e-01	 1.1245982039e+00	-1.7734787045e+00
 8.4249315036e-01	 1.1328216437e+00	-1.8040210209e+00
 8.0738926909e-01	 1.0856207419e+00	-1.6479019972e+00
 7.9683088638e-01	 1.0933939663e+00	-1.6823958441e+00
 7.8620572739e-01	 1.1010587547e+00	-1.7182114404e+00
 7.7551545026e-01	 1.1086142762e+00	-1.7546616535e+00
 7.6476172621e-01	 1.1160597337e+00	-1.7911191841e+00
 7.5394623870e-01	 1.1233943636e+00	-1.8270189654e+00
 7.4307068262e-01	 1.1306174365e+00	-1.8618603453e+00
 7.3213676339e-01	 1.1377282570e+00	-1.8952090394e+00
 7.2114619615e-01	 1.1447261641e+00	-1.9266988433e+00
 7.1010070489e-01	 1.1516105313e+00	-1.9560330932e+00
 6.9900202160e-01	 1.1583807668e+00	-1.9829858662e+00
 8.1089965722e-01	 1.0903408320e+00	-1.6653934463e+00
 8.0029536849e-01	 1.0981478531e+00	-1.6994988788e+00
 7.8962401316e-01	 1.1058459666e+00	-1.7350690522e+00
 7.7888725657e-01	 1.1134343383e+00	-1.7713232401e+00
 7.6808677719e-01	 1.1209121673e+00	-1.8075405093e+00
 7.5722426583e-01	 1.1282786869e+00	-1.8430623221e+00
 7.4630142472e-01	 1.1355331644e+00	-1.8772949195e+00
 7.3531996671e-01	 1.1426749016e+00	-1.9097114706e+00
 7.2428161440e-01	 1.1497032344e+00	-1.9398539755e+00
 7.1318809926e-01	 1.1566175337e+00	-1.9673349127e+00
 7.0204116082e-01	 1.1634172049e+00	-1.9918386188e+00
 8.1441004534e-01	 1.0950609222e+00	-1.6823175902e+00
 8.0375985061e-01	 1.1029017399e+00	-1.7160212964e+00
 7.9304229893e-01	 1.1106331786e+00	-1.7512712732e+00
 7.8225906287e-01	 1.1182544003e+00	-1.7871980363e+00
 7.7141182818e-01	 1.1257646009e+00	-1.8229920183e+00
 7.6050229295e-01	 1.1331630102e+00	-1.8579063708e+00
 7.4953216682e-01	 1.1404488924e+00	-1.8912595411e+00
 7.3850317003e-01	 1.1476215461e+00	-1.9224376123e+00
 7.2741703264e-01	 1.1546803047e+00	-1.9508963920e+00
 7.1627549363e-01	 1.1616245360e+00	-1.9761632381e+00
 7.0508030005e-01	 1.1684536430e+00	-1.9978386129e+00
 8.1792043347e-01	 1.0997810124e+00	-1.6987307259e+00
 8.0722433272e-01	 1.1076556267e+00	-1.7320146339e+00
 7.9646058470e-01	 1.1154203906e+00	-1.7668667915e+00
 7.8563086918e-01	 1.1230744624e+00	-1.8023337128e+00
 7.7473687916e-01	 1.1306170345e+00	-1.8375221170e+00
 7.6378032008e-01	 1.1380473335e+00	-1.8716019234e+00
 7.5276290892e-01	 1.1453646204e+00	-1.9038090174e+00
 7.4168637335e-01	 1.1525681907e+00	-1.9334477747e+00
 7.3055245088e-01	 1.1596573749e+00	-1.9598933291e+00
 7.1936288800e-01	 1.1666315383e+00	-1.9825935720e+00
 7.0811943927e-01	 1.1734900811e+00	-2.0010708733e+00
 8.2143082160e-01	 1.1045011026e+00	-1.7146890957e+00
 8.1068881484e-01	 1.1124095135e+00	-1.7475305375e+00
 7.9987887048e-01	 1.1202076026e+00	-1.7819045349e+00
 7.8900267548e-01	 1.1278945245e+00	-1.8167782794e+00
 7.7806193014e-01	 1.1354694682e+00	-1.8511796183e+00
 7.6705834720e-01	 1.1429316569e+00	-1.8842002377e+00
 7.5599365101e-01	 1.1502803484e+00	-1.9149986119e+00
 7.4486957667e-01	 1.1575148353e+00	-1.9428027062e+00
 7.3368786913e-01	 1.1646344452e+00	-1.9669124176e+00
 7.2245028237e-01	 1.1716385406e+00	-1.9867017423e+00
 7.1115857850e-01	 1.1785265192e+00	-2.0019203332e+00
 8.2494120972e-01	 1.1092211928e+00	-1.7302488441e+00
 8.1415329695e-01	 1.1171634003e+00	-1.7626207171e+00
 8.0329715625e-01	 1.1249948145e+00	-1.7964336249e+00
 7.9237448179e-01	 1.1327145866e+00	-1.8305800383e+00
 7.8138698113e-01	 1.1403219018e+00	-1.8640136965e+00
 7.7033637433e-01	 1.1478159802e+00	-1.8957529727e+00
 7.5922439311e-01	 1.1551960764e+00	-1.9248840011e+00
 7.4805277999e-01	 1.1624614799e+00	-1.9505635531e+00
 7.3682328737e-01	 1.1696115155e+00	-1.9720216454e+00
 7.2553767674e-01	 1.1766455429e+00	-1.9885659030e+00
 7.1419771772e-01	 1.1835629573e+00	-2.0030912578e+00
 8.2845159785e-01	 1.1139412829e+00	-1.7454659744e+00
 8.1761777907e-01	 1.1219172871e+00	-1.7773369017e+00
 8.0671544202e-01	 1.1297820265e+00	-1.8105033310e+00
 7.9574628809e-01	 1.1375346486e+00	-1.8437875382e+00
 7.8471203211e-01	 1.1451743354e+00	-1.8760738417e+00
 7.7361440145e-01	 1.1527003035e+00	-1.9063121438e+00
 7.6245513521e-01	 1.1601118044e+00	-1.9335212315e+00
 7.5123598331e-01	 1.1674081245e+00	-1.9567918193e+00
 7.3995870562e-01	 1.1745885858e+00	-1.9752893197e+00
 7.2862507111e-01	 1.1816525452e+00	-1.9900147579e+00
 7.1723685694e-01	 1.1885993955e+00	-2.0051604963e+00
 8.3196198598e-01	 1.1186613731e+00	-1.7603963053e+00
 8.2108226118e-01	 1.1266711740e+00	-1.7917307945e+00
 8.1013372779e-01	 1.1345692385e+00	-1.8241630246e+00
 7.9911809440e-01	 1.1423547107e+00	-1.8564495286e+00
 7.8803708309e-01	 1.1500267690e+00	-1.8874098143e+00
 7.7689242858e-01	 1.1575846268e+00	-1.9159300791e+00
 7.6568587731e-01	 1.1650275323e+00	-1.9409666774e+00
 7.5441918663e-01	 1.1723547691e+00	-1.9615493260e+00
 7.4309412386e-01	 1.1795656560e+00	-1.9773684022e+00
 7.3171246547e-01	 1.1866595475e+00	-1.9925509930e+00
 7.2027599617e-01	 1.1936358336e+00	-2.0080656495e+00
 8.3547237410e-01	 1.1233814633e+00	-1.7750954283e+00
 8.2454674330e-01	 1.1314250608e+00	-1.8058540283e+00
 8.1355201356e-01	 1.1393564505e+00	-1.8374621345e+00
 8.0248990070e-01	 1.1471747728e+00	-1.8686149140e+00
 7.9136213408e-01	 1.1548792027e+00	-1.8980716003e+00
 7.8017045570e-01	 1.1624689501e+00	-1.9246593752e+00
 7.6891661941e-01	 1.1699432603e+00	-1.9472769988e+00
 7.5760238995e-01	 1.1773014137e+00	-1.9649371705e+00
 7.4622954211e-01	 1.1845427263e+00	-1.9804833744e+00
 7.3479985984e-01	 1.1916665498e+00	-1.9961014839e+00
 7.2331513539e-01	 1.1986722717e+00	-2.0117434362e+00
 8.3898276223e-01	 1.1281015535e+00	-1.7896186641e+00
 8.2801122541e-01	 1.1361789476e+00	-1.8197581211e+00
 8.1697029933e-01	 1.1441436624e+00	-1.8504501011e+00
 8.0586170701e-01	 1.1519948348e+00	-1.8803327092e+00
 7.9468718506e-01	 1.1597316363e+00	-1.9081093664e+00
 7.8344848283e-01	 1.1673532735e+00	-1.9325528536e+00
 7.7214736151e-01	 1.1748589883e+00	-1.9525090989e+00
 7.6078559326e-01	 1.1822480583e+00	-1.9687519787e+00
 7.4936496035e-01	 1.1895197966e+00	-1.9847716316e+00
 7.3788725421e-01	 1.1966735521e+00	-2.0005923869e+00
 7.2635427462e-01	 1.2037087098e+00	-2.0161297124e+00
 8.4249315036e-01	 1.1328216437e+00	-1.8040210209e+00
 8.3147570753e-01	 1.1409328344e+00	-1.8334944323e+00
 8.2038858510e-01	 1.1489308744e+00	-1.8631763316e+00
 8.0923351332e-01	 1.1568148969e+00	-1.8916519936e+00
 7.9801223604e-01	 1.1645840699e+00	-1.9175734154e+00
 7.8672650995e-01	 1.1722375968e+00	-1.9396635173e+00
 7.7537810361e-01	 1.1797747163e+00	-1.9572760490e+00
 7.6396879658e-01	 1.1871947029e+00	-1.9738785423e+00
 7.5250037859e-01	 1.1944968669e+00	-1.9901503341e+00
 7.4097464858e-01	 1.2016805544e+00	-2.0059491561e+00
 7.2939341384e-01	 1.2087451479e+00	-2.0211594914e+00
 6.9900202160e-01	 1.1583807668e+00	-1.9829858662e+00
 6.8785188541e-01	 1.1650363131e+00	-2.0068675788e+00
 6.7665204175e-01	 1.1715766477e+00	-2.0265157942e+00
 6.6540424150e-01	 1.1780012828e+00	-2.0413028061e+00
 6.5411024012e-01	 1.1843097655e+00	-2.0552950495e+00
 6.4277179682e-01	 1.1905016775e+00	-2.0701685998e+00
 6.3139067371e-01	 1.1965766353e+00	-2.0856648297e+00
 6.1996863500e-01	 1.2025342900e+00	-2.1015394368e+00
 6.0850744609e-01	 1.2083743274e+00	-2.1175615090e+00
 5.9700887284e-01	 1.2140964676e+00	-2.1335126342e+00
 5.8547468067e-01	 1.2197004654e+00	-2.1494276623e+00
 7.0204116082e-01	 1.1634172049e+00	-1.9918386188e+00
 6.9084254578e-01	 1.1701016883e+00	-2.0125798581e+00
 6.7959400715e-01	 1.1766704592e+00	-2.0283779105e+00
 6.6829730342e-01	 1.1831230276e+00	-2.0421333993e+00
 6.5695419768e-01	 1.1894589384e+00	-2.0567121248e+00
 6.4556645680e-01	 1.1956777718e+00	-2.0718674969e+00
 6.3413585056e-01	 1.2017791424e+00	-2.0873685882e+00
 6.2266415080e-01	 1.2077626999e+00	-2.1029990988e+00
 6.1115313064e-01	 1.2136281288e+00	-2.1185563633e+00
 5.9960456359e-01	 1.2193751479e+00	-2.1338504051e+00
 5.8802022276e-01	 1.2250035109e+00	-2.1487045112e+00
 7.0508030005e-01	 1.1684536430e+00	-1.9978386129e+00
 6.9383320615e-01	 1.1751670636e+00	-2.0150538774e+00
 6.8253597255e-01	 1.1817642707e+00	-2.0288465719e+00
 6.7119036534e-01	 1.1882447723e+00	-2.0432587671e+00
 6.5979815525e-01	 1.1946081113e+00	-2.0581888101e+00
 6.4836111679e-01	 1.2008538660e+00	-2.0734225227e+00
 6.3688102740e-01	 1.2069816495e+00	-2.0887615607e+00
 6.2535966661e-01	 1.2129911099e+00	-2.1040223121e+00
 6.1379881519e-01	 1.2188819302e+00	-2.1190348400e+00
 6.0220025434e-01	 1.2246538282e+00	-2.1336418771e+00
 5.9056576485e-01	 1.2303065564e+00	-2.1476978744e+00
 7.0811943927e-01	 1.1734900811e+00	-2.0010708733e+00
 6.9682386652e-01	 1.1802324389e+00	-2.0154492534e+00
 6.8547793795e-01	 1.1868580822e+00	-2.0298324568e+00
 6.7408342726e-01	 1.1933665170e+00	-2.0446467606e+00
 6.6264211281e-01	 1.1997572842e+00	-2.0596983804e+00
 6.5115577677e-01	 1.2060299603e+00	-2.0748105639e+00
 6.3962620424e-01	 1.2121841566e+00	-2.0898223732e+00
 6.2805518241e-01	 1.2182195199e+00	-2.1045875103e+00
 6.1644449974e-01	 1.2241357316e+00	-2.1189731916e+00
 6.0479594510e-01	 1.2299325085e+00	-2.1328590762e+00
 5.9311130694e-01	 1.2356096019e+00	-2.1461362530e+00
 7.1115857850e-01	 1.1785265192e+00	-2.0019203332e+00
 6.9981452689e-01	 1.1852978141e+00	-2.0164573094e+00
 6.8841990335e-01	 1.1919518937e+00	-2.0312950055e+00
 6.7697648918e-01	 1.1984882617e+00	-2.0462639013e+00
 6.6548607038e-01	 1.2049064571e+00	-2.0612127193e+00
 6.5395043676e-01	 1.2112060545e+00	-2.0760070861e+00
 6.4237138108e-01	 1.2173866637e+00	-2.0905282339e+00
 6.3075069822e-01	 1.2234479298e+00	-2.1046717476e+00
 6.1909018429e-01	 1.2293895331e+00	-2.1183463647e+00
 6.0739163585e-01	 1.2352111888e+00	-2.1314728328e+00
 5.9565684903e-01	 1.2409126474e+00	-2.1439828307e+00
 7.1419771772e-01	 1.1835629573e+00	-2.0030912578e+00
 7.0280518727e-01	 1.1903631894e+00	-2.0181571562e+00
 6.9136186875e-01	 1.1970457052e+00	-2.0331924458e+00
 6.7986955110e-01	 1.2036100064e+00	-2.0480754069e+00
 6.6833002795e-01	 1.2100556300e+00	-2.0627023446e+00
 6.5674509675e-01	 1.2163821488e+00	-2.0769861591e+00
 6.4511655792e-01	 1.2225891708e+00	-2.0908549584e+00
 6.3344621402e-01	 1.2286763398e+00	-2.1042507220e+00
 6.2173586884e-01	 1.2346433345e+00	-2.1171280208e+00
 6.0998732660e-01	 1.2404898691e+00	-2.1294527993e+00
 5.9820239112e-01	 1.2462156929e+00	-2.1412012250e+00
 7.1723685694e-01	 1.1885993955e+00	-2.0051604963e+00
 7.0579584764e-01	 1.1954285647e+00	-2.0204973348e+00
 6.9430383415e-01	 1.2021395167e+00	-2.0354818171e+00
 6.8276261302e-01	 1.2087317511e+00	-2.0500452153e+00
 6.7117398551e-01	 1.2152048029e+00	-2.0641364341e+00
 6.5953975673e-01	 1.2215582430e+00	-2.0777204827e+00
 6.4786173477e-01	 1.2277916780e+00	-2.0907769939e+00
 6.3614172982e-01	 1.2339047497e+00	-2.1032987982e+00
 6.2438155338e-01	 1.2398971359e+00	-2.1152905576e+00
 6.1258301735e-01	 1.2457685494e+00	-2.1267674683e+00
 6.0074793321e-01	 1.2515187384e+00	-2.1377540342e+00
 7.2027599617e-01	 1.1936358336e+00	-2.0080656495e+00
 7.0878650801e-01	 1.2004939400e+00	-2.0234253392e+00
 6.9724579955e-01	 1.2072333283e+00	-2.0381189944e+00
 6.8565567494e-01	 1.2138534958e+00	-2.0521360106e+00
 6.7401794308e-01	 1.2203539758e+00	-2.0654828505e+00
 6.6233441672e-01	 1.2267343373e+00	-2.0781814113e+00
 6.5060691161e-01	 1.2329941851e+00	-2.0902674438e+00
 6.3883724563e-01	 1.2391331597e+00	-2.1017890304e+00
 6.2702723793e-01	 1.2451509373e+00	-2.1128051293e+00
 6.1517870810e-01	 1.2510472297e+00	-2.1233841907e+00
 6.0329347530e-01	 1.2568217839e+00	-2.1336028508e+00
 7.2331513539e-01	 1.1986722717e+00	-2.0117434362e+00
 7.1177716838e-01	 1.2055593152e+00	-2.0268876385e+00
 7.0018776494e-01	 1.2123271398e+00	-2.0410587112e+00
 6.8854873686e-01	 1.2189752405e+00	-2.0543092467e+00
 6.7686190064e-01	 1.2255031487e+00	-2.0667081668e+00
 6.6512907671e-01	 1.2319104315e+00	-2.0783389796e+00
 6.5335208845e-01	 1.2381966922e+00	-2.0892980917e+00
 6.4153276143e-01	 1.2443615696e+00	-2.0996931856e+00
 6.2967292248e-01	 1.2504047388e+00	-2.1096416674e+00
 6.1777439885e-01	 1.2563259100e+00	-2.1192691928e+00
 6.0583901739e-01	 1.2621248294e+00	-2.1287082765e+00
 7.2635427462e-01	 1.2037087098e+00	-2.0161297124e+00
 7.1476782875e-01	 1.2106246905e+00	-2.0308296988e+00
 7.0312973034e-01	 1.2174209513e+00	-2.0442545837e+00
 6.9144179878e-01	 1.2240969852e+00	-2.0565251723e+00
 6.7970585821e-01	 1.2306523216e+00	-2.0677776911e+00
 6.6792373669e-01	 1.2370865258e+00	-2.0781619265e+00
 6.5609726529e-01	 1.2433991993e+00	-2.0878394256e+00
 6.4422827724e-01	 1.2495899796e+00	-2.0969817657e+00
 6.3231860703e-01	 1.2556585402e+00	-2.1057689013e+00
 6.2037008961e-01	 1.2616045903e+00	-2.1143875948e+00
 6.0838455948e-01	 1.2674278749e+00	-2.1230299363e+00
 7.2939341384e-01	 1.2087451479e+00	-2.0211594914e+00
 7.1775848912e-01	 1.2156900658e+00	-2.0351960049e+00
 7.0607169574e-01	 1.2225147628e+00	-2.0476591336e+00
 6.9433486070e-01	 1.2292187299e+00	-2.0587428554e+00
 6.8254981578e-01	 1.2358014945e+00	-2.0686554913e+00
 6.7071839668e-01	 1.2422626200e+00	-2.0776177203e+00
 6.5884244214e-01	 1.2486017064e+00	-2.0858606613e+00
 6.4692379304e-01	 1.2548183896e+00	-2.0936240297e+00
 6.3496429158e-01	 1.2609123416e+00	-2.1011543785e+00
 6.2296578036e-01	 1.2668832706e+00	-2.1087034281e+00
 6.1093010157e-01	 1.2727309204e+00	-2.1165264926e+00
 5.8547468067e-01	 1.2197004654e+00	-2.1494276623e+00
 5.7390663380e-01	 1.2251861094e+00	-2.1651902158e+00
 5.6230649443e-01	 1.2305532225e+00	-2.1777801158e+00
 5.5067602194e-01	 1.2358016612e+00	-2.1875947885e+00
 5.3901697213e-01	 1.2409313159e+00	-2.1950061096e+00
 5.2733109644e-01	 1.2459421101e+00	-2.2003615509e+00
 5.1562014116e-01	 1.2508340006e+00	-2.2039853356e+00
 5.0388584672e-01	 1.2556069769e+00	-2.2061795967e+00
 4.9212994693e-01	 1.2602610612e+00	-2.2072255334e+00
 4.8035416825e-01	 1.2647963077e+00	-2.2073845610e+00
 4.6856022912e-01	 1.2692128028e+00	-2.2068994480e+00
 5.8802022276e-01	 1.2250035109e+00	-2.1487045112e+00
 5.7640188003e-01	 1.2305130055e+00	-2.1616858440e+00
 5.6475130527e-01	 1.2359034539e+00	-2.1714727021e+00
 5.5307026551e-01	 1.2411747119e+00	-2.1785098300e+00
 5.4136052419e-01	 1.2463266694e+00	-2.1832154835e+00
 5.2962384034e-01	 1.2513592497e+00	-2.1859825574e+00
 5.1786196786e-01	 1.2562724093e+00	-2.1871797224e+00
 5.0607665475e-01	 1.2610661377e+00	-2.1871525662e+00
 4.9426964235e-01	 1.2657404571e+00	-2.1862247345e+00
 4.8244266464e-01	 1.2702954221e+00	-2.1846990645e+00
 4.7059744750e-01	 1.2747311193e+00	-2.1828587081e+00
 5.9056576485e-01	 1.2303065564e+00	-2.1476978744e+00
 5.7889712627e-01	 1.2358399017e+00	-2.1581258697e+00
 5.6719611612e-01	 1.2412536853e+00	-2.1652111019e+00
 5.5546450909e-01	 1.2465477626e+00	-2.1696067645e+00
 5.4370407624e-01	 1.2517220230e+00	-2.1717662228e+00
 5.3191658424e-01	 1.2567763893e+00	-2.1721166496e+00
 5.2010379456e-01	 1.2617108180e+00	-2.1710601576e+00
 5.0826746278e-01	 1.2665252984e+00	-2.1689749371e+00
 4.9640933777e-01	 1.2712198530e+00	-2.1662163924e+00
 4.8453116102e-01	 1.2757945365e+00	-2.1631182727e+00
 4.7263466589e-01	 1.2802494358e+00	-2.1599937927e+00
 5.9311130694e-01	 1.2356096019e+00	-2.1461362530e+00
 5.8139237250e-01	 1.2411667978e+00	-2.1544693761e+00
 5.6964092696e-01	 1.2466039167e+00	-2.1589469257e+00
 5.5785875266e-01	 1.2519208133e+00	-2.1608302657e+00
 5.4604762829e-01	 1.2571173765e+00	-2.1605967326e+00
 5.3420932813e-01	 1.2621935289e+00	-2.1586967640e+00
 5.2234562126e-01	 1.2671492267e+00	-2.1555550401e+00
 5.1045827081e-01	 1.2719844592e+00	-2.1515716294e+00
 4.9854903319e-01	 1.2766992489e+00	-2.1471231349e+00
 4.8661965740e-01	 1.2812936509e+00	-2.1425638339e+00
 4.7467188428e-01	 1.2857677524e+00	-2.1382268073e+00
 5.9565684903e-01	 1.2409126474e+00	-2.1439828307e+00
 5.8388761873e-01	 1.2464936939e+00	-2.1506746977e+00
 5.7208573781e-01	 1.2519541481e+00	-2.1526312170e+00
 5.6025299623e-01	 1.2572938640e+00	-2.1521246130e+00
 5.4839118034e-01	 1.2625127301e+00	-2.1496451858e+00
 5.3650207203e-01	 1.2676106685e+00	-2.1456557537e+00
 5.2458744796e-01	 1.2725876354e+00	-2.1405928172e+00
 5.1264907884e-01	 1.2774436200e+00	-2.1348677259e+00
 5.0068872861e-01	 1.2821786449e+00	-2.1288678468e+00
 4.8870815379e-01	 1.2867927652e+00	-2.1229577244e+00
 4.7670910267e-01	 1.2912860689e+00	-2.1174802316e+00
 5.9820239112e-01	 1.2462156929e+00	-2.1412012250e+00
 5.8638286497e-01	 1.2518205900e+00	-2.1466994172e+00
 5.7453054865e-01	 1.2573043795e+00	-2.1462144463e+00
 5.6264723981e-01	 1.2626669147e+00	-2.1434336828e+00
 5.5073473240e-01	 1.2679080836e+00	-2.1388495108e+00
 5.3879481593e-01	 1.2730278081e+00	-2.1329263728e+00
 5.2682927466e-01	 1.2780260441e+00	-2.1261019676e+00
 5.1483988687e-01	 1.2829027808e+00	-2.1187884534e+00
 5.0282842403e-01	 1.2876580408e+00	-2.1113736489e+00
 4.9079665017e-01	 1.2922918796e+00	-2.1042222270e+00
 4.7874632105e-01	 1.2968043854e+00	-2.0976768975e+00
 6.0074793321e-01	 1.2515187384e+00	-2.1377540342e+00
 5.8887811120e-01	 1.2571474862e+00	-2.1424873292e+00
 5.7697535950e-01	 1.2626546109e+00	-2.1396465042e+00
 5.6504148338e-01	 1.2680399654e+00	-2.1347009385e+00
 5.5307828445e-01	 1.2733034372e+00	-2.1281473799e+00
 5.4108755983e-01	 1.2784449478e+00	-2.1204412622e+00
 5.2907110136e-01	 1.2834644528e+00	-2.1120109851e+00
 5.1703069489e-01	 1.2883619415e+00	-2.1032591643e+00
 5.0496811946e-01	 1.2931374367e+00	-2.0945638789e+00
 4.9288514655e-01	 1.2977909940e+00	-2.0862799103e+00
 4.8078353944e-01	 1.3023227020e+00	-2.0787399687e+00
 6.0329347530e-01	 1.2568217839e+00	-2.1336028508e+00
 5.9137335744e-01	 1.2624743823e+00	-2.1377227035e+00
 5.7942017034e-01	 1.2680048423e+00	-2.1328766958e+00
 5.6743572695e-01	 1.2734130161e+00	-2.1258694219e+00
 5.5542183650e-01	 1.2786987907e+00	-2.1174761968e+00
 5.4338030372e-01	 1.2838620874e+00	-2.1081329356e+00
 5.3131292807e-01	 1.2889028615e+00	-2.0982483621e+00
 5.1922150292e-01	 1.2938211023e+00	-2.0882053186e+00
 5.0710781488e-01	 1.2986168326e+00	-2.0783620717e+00
 4.9497364294e-01	 1.3032901084e+00	-2.0690536090e+00
 4.8282075783e-01	 1.3078410185e+00	-2.0605929194e+00
 6.0583901739e-01	 1.2621248294e+00	-2.1287082765e+00
 5.9386860367e-01	 1.2678012784e+00	-2.1322515542e+00
 5.8186498119e-01	 1.2733550737e+00	-2.1258537347e+00
 5.6982997053e-01	 1.2787860668e+00	-2.1168817446e+00
 5.5776538856e-01	 1.2840941443e+00	-2.1067730860e+00
 5.4567304762e-01	 1.2892792270e+00	-2.0959337657e+00
 5.3355475477e-01	 1.2943412702e+00	-2.0847425739e+00
 5.2141231095e-01	 1.2992802631e+00	-2.0735524662e+00
 5.0924751030e-01	 1.3040962285e+00	-2.0626919410e+00
 4.9706213932e-01	 1.3087892228e+00	-2.0524664037e+00
 4.8485797622e-01	 1.3133593350e+00	-2.0431595149e+00
 6.0838455948e-01	 1.2674278749e+00	-2.1230299363e+00
 5.9636384990e-01	 1.2731281746e+00	-2.1260271977e+00
 5.8430979203e-01	 1.2787053051e+00	-2.1185257367e+00
 5.7222421410e-01	 1.2841591175e+00	-2.1076800790e+00
 5.6010894061e-01	 1.2894894978e+00	-2.0959748813e+00
 5.4796579152e-01	 1.2946963666e+00	-2.0837759708e+00
 5.3579658147e-01	 1.2997796789e+00	-2.0714220632e+00
 5.2360311898e-01	 1.3047394238e+00	-2.0592262304e+00
 5.1138720572e-01	 1.3095756244e+00	-2.0474773604e+00
 4.9915063571e-01	 1.3142883372e+00	-2.0364416023e+00
 4.8689519460e-01	 1.3188776516e+00	-2.0263637918e+00
 6.1093010157e-01	 1.2727309204e+00	-2.1165264926e+00
 5.9885909614e-01	 1.2784550707e+00	-2.1190021295e+00
 5.8675460288e-01	 1.2840555365e+00	-2.1108402148e+00
 5.7461845767e-01	 1.2895321682e+00	-2.0982061501e+00
 5.6245249266e-01	 1.2948848514e+00	-2.0850181149e+00
 5.5025853542e-01	 1.3001135062e+00	-2.0715916014e+00
 5.3803840817e-01	 1.3052180876e+00	-2.0582152252e+00
 5.2579392701e-01	 1.3101985846e+00	-2.0451522908e+00
 5.1352690114e-01	 1.3150550204e+00	-2.0326423463e+00
 5.0123913209e-01	 1.3197874515e+00	-2.0209027209e+00
 4.8893241299e-01	 1.3243959681e+00	-2.0101300392e+00
 4.6856022912e-01	 1.2692128028e+00	-2.2068994480e+00
 4.5674983918e-01	 1.2735106640e+00	-2.2057478088e+00
 4.4492469869e-01	 1.2776900405e+00	-2.2038154217e+00
 4.3308649778e-01	 1.2817511117e+00	-2.2011732287e+00
 4.2123691582e-01	 1.2856940879e+00	-2.1978656088e+00
 4.0937762079e-01	 1.2895192091e+00	-2.1939117604e+00
 3.9751026867e-01	 1.2932267447e+00	-2.1893070590e+00
 3.8563650279e-01	 1.2968169935e+00	-2.1840243883e+00
 3.7375795329e-01	 1.3002902827e+00	-2.1780154394e+00
 3.6187623651e-01	 1.3036469677e+00	-2.1712119774e+00
 3.4999295445e-01	 1.3068874316e+00	-2.1635270719e+00
 4.7059744750e-01	 1.2747311193e+00	-2.1828587081e+00
 4.5873570805e-01	 1.2790476669e+00	-2.1806209096e+00
 4.4685915391e-01	 1.2832452145e+00	-2.1777584464e+00
 4.3496948255e-01	 1.2873239427e+00	-2.1743029014e+00
 4.2306838067e-01	 1.2912840622e+00	-2.1702593434e+00
 4.1115752349e-01	 1.2951258143e+00	-2.1656077847e+00
 3.9923857418e-01	 1.2988494697e+00	-2.1603046109e+00
 3.8731318324e-01	 1.3024553283e+00	-2.1542839818e+00
 3.7538298787e-01	 1.3059437187e+00	-2.1474591982e+00
 3.6344961145e-01	 1.3093149980e+00	-2.1397240330e+00
 3.5151466295e-01	 1.3125695508e+00	-2.1309540234e+00
 4.7263466589e-01	 1.2802494358e+00	-2.1599937927e+00
 4.6072157692e-01	 1.2845846698e+00	-2.1566945104e+00
 4.4879360912e-01	 1.2888003886e+00	-2.1528868152e+00
 4.3685246733e-01	 1.2928967736e+00	-2.1485706631e+00
 4.2489984552e-01	 1.2968740365e+00	-2.1437195526e+00
 4.1293742619e-01	 1.3007324196e+00	-2.1382820473e+00
 4.0096687970e-01	 1.3044721947e+00	-2.1321832683e+00
 3.8898986368e-01	 1.3080936630e+00	-2.1253263560e+00
 3.7700802245e-01	 1.3115971547e+00	-2.1175938942e+00
 3.6502298639e-01	 1.3149830283e+00	-2.1088492972e+00
 3.5303637144e-01	 1.3182516701e+00	-2.0989381544e+00
 4.7467188428e-01	 1.2857677524e+00	-2.1382268073e+00
 4.6270744578e-01	 1.2901216727e+00	-2.1338924343e+00
 4.5072806433e-01	 1.2943555627e+00	-2.1291269996e+00
 4.3873545210e-01	 1.2984696045e+00	-2.1239064598e+00
 4.2673131037e-01	 1.3024640108e+00	-2.1181803781e+00
 4.1471732889e-01	 1.3063390248e+00	-2.1118735023e+00
 4.0269518522e-01	 1.3100949197e+00	-2.1048873108e+00
 3.9066654413e-01	 1.3137319978e+00	-2.0971015250e+00
 3.7863305703e-01	 1.3172505908e+00	-2.0883755824e+00
 3.6659636133e-01	 1.3206510586e+00	-2.0785500701e+00
 3.5455807994e-01	 1.3239337894e+00	-2.0674481131e+00
 4.7670910267e-01	 1.2912860689e+00	-2.1174802316e+00
 4.6469331465e-01	 1.2956586756e+00	-2.1121389023e+00
 4.5266251954e-01	 1.2999107368e+00	-2.1064058771e+00
 4.4061843687e-01	 1.3040424354e+00	-2.1002406368e+00
 4.2856277522e-01	 1.3080539851e+00	-2.0935763411e+00
 4.1649723159e-01	 1.3119456301e+00	-2.0863214524e+00
 4.0442349073e-01	 1.3157176446e+00	-2.0783613256e+00
 3.9234322458e-01	 1.3193703325e+00	-2.0695597618e+00
 3.8025809161e-01	 1.3229040268e+00	-2.0597605218e+00
 3.6816973627e-01	 1.3263190889e+00	-2.0487887962e+00
 3.5607978844e-01	 1.3296159087e+00	-2.0364526298e+00
 4.7874632105e-01	 1.2968043854e+00	-2.0976768975e+00
 4.6667918351e-01	 1.3011956785e+00	-2.0913585124e+00
 4.5459697475e-01	 1.3054659109e+00	-2.0846507103e+00
 4.4250142164e-01	 1.3096152663e+00	-2.0775039182e+00
 4.3039424007e-01	 1.3136439594e+00	-2.0698423229e+00
 4.1827713429e-01	 1.3175522354e+00	-2.0615655302e+00
 4.0615179625e-01	 1.3213403696e+00	-2.0525501902e+00
 3.9401990503e-01	 1.3250086673e+00	-2.0426515827e+00
 3.8188312619e-01	 1.3285574628e+00	-2.0317051615e+00
 3.6974311121e-01	 1.3319871192e+00	-2.0195280529e+00
 3.5760149694e-01	 1.3352980279e+00	-2.0059205069e+00
 4.8078353944e-01	 1.3023227020e+00	-2.0787399687e+00
 4.6866505238e-01	 1.3067326814e+00	-2.0714762184e+00
 4.5653142996e-01	 1.3110210850e+00	-2.0637891263e+00
 4.4438440642e-01	 1.3151880973e+00	-2.0556273873e+00
 4.3222570493e-01	 1.3192339337e+00	-2.0469135455e+00
 4.2005703699e-01	 1.3231588406e+00	-2.0375456804e+00
 4.0788010176e-01	 1.3269630946e+00	-2.0273990565e+00
 3.9569658547e-01	 1.3306470021e+00	-2.0163277327e+00
 3.8350816077e-01	 1.3342108988e+00	-2.0041661276e+00
 3.7131648616e-01	 1.3376551495e+00	-1.9907305384e+00
 3.5912320543e-01	 1.3409801472e+00	-1.9758206094e+00
 4.8282075783e-01	 1.3078410185e+00	-2.0605929194e+00
 4.7065092125e-01	 1.3122696842e+00	-2.0524173094e+00
 4.5846588518e-01	 1.3165762591e+00	-2.0437490964e+00
 4.4626739119e-01	 1.3207609282e+00	-2.0345424666e+00
 4.3405716978e-01	 1.3248239080e+00	-2.0247255538e+00
 4.2183693969e-01	 1.3287654459e+00	-2.0142021426e+00
 4.0960840728e-01	 1.3325858196e+00	-2.0028533344e+00
 3.9737326592e-01	 1.3362853368e+00	-1.9905391705e+00
 3.8513319535e-01	 1.3398643348e+00	-1.9771002102e+00
 3.7288986110e-01	 1.3433231798e+00	-1.9623590606e+00
 3.6064491393e-01	 1.3466622665e+00	-1.9461218545e+00
 4.8485797622e-01	 1.3133593350e+00	-2.0431595149e+00
 4.7263679011e-01	 1.3178066871e+00	-2.0341073899e+00
 4.6040034039e-01	 1.3221314332e+00	-2.0244589168e+00
 4.4815037596e-01	 1.3263337591e+00	-2.0141808994e+00
 4.3588863463e-01	 1.3304138823e+00	-2.0032141967e+00
 4.2361684238e-01	 1.3343720511e+00	-1.9914754341e+00
 4.1133671280e-01	 1.3382085445e+00	-1.9788586762e+00
 3.9904994637e-01	 1.3419236716e+00	-1.9652370547e+00
 3.8675822993e-01	 1.3455177708e+00	-1.9504643506e+00
 3.7446323604e-01	 1.3489912101e+00	-1.9343765259e+00
 3.6216662243e-01	 1.3523443857e+00	-1.9167932029e+00
 4.8689519460e-01	 1.3188776516e+00	-2.0263637918e+00
 4.7462265898e-01	 1.3233436900e+00	-2.0164723605e+00
 4.6233479560e-01	 1.3276866073e+00	-2.0058471895e+00
 4.5003336074e-01	 1.3319065900e+00	-1.9944747312e+00
 4.3772009948e-01	 1.3360038566e+00	-1.9823156102e+00
 4.2539674508e-01	 1.3399786564e+00	-1.9693063338e+00
 4.1306501831e-01	 1.3438312695e+00	-1.9553609614e+00
 4.0072662681e-01	 1.3475620063e+00	-1.9403727296e+00
 3.8838326450e-01	 1.3511712068e+00	-1.9242156288e+00
 3.7603661098e-01	 1.3546592404e+00	-1.9067459286e+00
 3.6368833093e-01	 1.3580265050e+00	-1.8878036496e+00
 4.8893241299e-01	 1.3243959681e+00	-2.0101300392e+00
 4.7660852784e-01	 1.3288806929e+00	-1.9994383984e+00
 4.6426925081e-01	 1.3332417813e+00	-1.9878428032e+00
 4.5191634551e-01	 1.3374794209e+00	-1.9753562914e+00
 4.3955156433e-01	 1.3415938309e+00	-1.9619662001e+00
 4.2717664778e-01	 1.3455852616e+00	-1.9476358656e+00
 4.1479332383e-01	 1.3494539945e+00	-1.9323062818e+00
 4.0240330726e-01	 1.3532003411e+00	-1.9158977120e+00
 3.9000829908e-01	 1.3568246428e+00	-1.8983112519e+00
 3.7760998592e-01	 1.3603272707e+00	-1.8794303403e+00
 3.6521003942e-01	 1.3637086243e+00	-1.8591222143e+00
 3.4999295445e-01	 1.3068874316e+00	-2.1635270719e+00
 3.3810969423e-01	 1.3100120845e+00	-2.1553387080e+00
 3.2622802758e-01	 1.3130213635e+00	-2.1471218157e+00
 3.1434951031e-01	 1.3159157315e+00	-2.1389152301e+00
 3.0247568185e-01	 1.3186956771e+00	-2.1307498720e+00
 2.9060806477e-01	 1.3213617142e+00	-2.1226493988e+00
 2.7874816432e-01	 1.3239143809e+00	-2.1146308108e+00
 2.6689746804e-01	 1.3263542395e+00	-2.1067050122e+00
 2.5505744529e-01	 1.3286818756e+00	-2.0988773279e+00
 2.4322954690e-01	 1.3308978979e+00	-2.0911479754e+00
 2.3141520479e-01	 1.3330029370e+00	-2.0835124934e+00
 3.5151466295e-01	 1.3125695508e+00	-2.1309540234e+00
 3.3957973638e-01	 1.3157077893e+00	-2.1215589462e+00
 3.2764641031e-01	 1.3187301520e+00	-2.1120817139e+00
 3.1571624732e-01	 1.3216371042e+00	-2.1025785086e+00
 3.0379079351e-01	 1.3244291366e+00	-2.0930978687e+00
 2.9187157809e-01	 1.3271067651e+00	-2.0836813243e+00
 2.7996011286e-01	 1.3296705304e+00	-2.0743639853e+00
 2.6805789181e-01	 1.3321209970e+00	-2.0651750840e+00
 2.5616639070e-01	 1.3344587533e+00	-2.0561384723e+00
 2.4428706667e-01	 1.3366844105e+00	-2.0472730732e+00
 2.3242135785e-01	 1.3387986019e+00	-2.0385932880e+00
 3.5303637144e-01	 1.3182516701e+00	-2.0989381544e+00
 3.4104977853e-01	 1.3214034940e+00	-2.0883089134e+00
 3.2906479304e-01	 1.3244389406e+00	-2.0775716192e+00
 3.1708298432e-01	 1.3273584770e+00	-2.0667956980e+00
 3.0510590517e-01	 1.3301625961e+00	-2.0560431394e+00
 2.9313509142e-01	 1.3328518160e+00	-2.0453691214e+00
 2.8117206140e-01	 1.3354266798e+00	-2.0348225874e+00
 2.6921831558e-01	 1.3378877546e+00	-2.0244467771e+00
 2.5727533612e-01	 1.3402356311e+00	-2.0142797099e+00
 2.4534458644e-01	 1.3424709230e+00	-2.0043546226e+00
 2.3342751092e-01	 1.3445942669e+00	-1.9947003613e+00
 3.5455807994e-01	 1.3239337894e+00	-2.0674481131e+00
 3.4251982068e-01	 1.3270991987e+00	-2.0555628310e+00
 3.3048317577e-01	 1.3301477291e+00	-2.0435697753e+00
 3.1844972132e-01	 1.3330798497e+00	-2.0315475668e+00
 3.0642101683e-01	 1.3358960555e+00	-2.0195675325e+00
 2.9439860474e-01	 1.3385968670e+00	-2.0076943275e+00
 2.8238400994e-01	 1.3411828293e+00	-1.9959865074e+00
 2.7037873936e-01	 1.3436545122e+00	-1.9844970531e+00
 2.5838428153e-01	 1.3460125088e+00	-1.9732738474e+00
 2.4640210621e-01	 1.3482574356e+00	-1.9623601048e+00
 2.3443366398e-01	 1.3503899318e+00	-1.9517947544e+00
 3.5607978844e-01	 1.3296159087e+00	-2.0364526298e+00
 3.4398986283e-01	 1.3327949034e+00	-2.0232949521e+00
 3.3190155850e-01	 1.3358565176e+00	-2.0100544332e+00
 3.1981645832e-01	 1.3388012225e+00	-1.9968148900e+00
 3.0773612849e-01	 1.3416295150e+00	-1.9836529261e+00
 2.9566211807e-01	 1.3443419179e+00	-1.9706385556e+00
 2.8359595848e-01	 1.3469389788e+00	-1.9578357780e+00
 2.7153916313e-01	 1.3494212697e+00	-1.9453031033e+00
 2.5949322694e-01	 1.3517893865e+00	-1.9330940280e+00
 2.4745962598e-01	 1.3540439482e+00	-1.9212574631e+00
 2.3543981705e-01	 1.3561855967e+00	-1.9098381139e+00
 3.5760149694e-01	 1.3352980279e+00	-2.0059205069e+00
 3.4545990498e-01	 1.3384906081e+00	-1.9914795536e+00
 3.3331994123e-01	 1.3415653062e+00	-1.9770038435e+00
 3.2118319532e-01	 1.3445225952e+00	-1.9625784427e+00
 3.0905124015e-01	 1.3473629745e+00	-1.9482812210e+00
 2.9692563139e-01	 1.3500869688e+00	-1.9341834858e+00
 2.8480790702e-01	 1.3526951283e+00	-1.9203505648e+00
 2.7269958691e-01	 1.3551880273e+00	-1.9068423380e+00
 2.6060217236e-01	 1.3575662642e+00	-1.8937137192e+00
 2.4851714575e-01	 1.3598304608e+00	-1.8810150883e+00
 2.3644597011e-01	 1.3619812617e+00	-1.8687926743e+00
 3.5912320543e-01	 1.3409801472e+00	-1.9758206094e+00
 3.4692994713e-01	 1.3441863128e+00	-1.9600909275e+00
 3.3473832395e-01	 1.3472740947e+00	-1.9443962492e+00
 3.2254993232e-01	 1.3502439680e+00	-1.9288189922e+00
 3.1036635181e-01	 1.3530964339e+00	-1.9134343333e+00
 2.9818914472e-01	 1.3558320198e+00	-1.8983108581e+00
 2.8601985556e-01	 1.3584512778e+00	-1.8835111583e+00
 2.7386001068e-01	 1.3609547848e+00	-1.8690923768e+00
 2.6171111777e-01	 1.3633431419e+00	-1.8551067010e+00
 2.4957466552e-01	 1.3656169734e+00	-1.8416018048e+00
 2.3745212318e-01	 1.3677769266e+00	-1.8286212413e+00
 3.6064491393e-01	 1.3466622665e+00	-1.9461218545e+00
 3.4839998927e-01	 1.3498820176e+00	-1.9291033726e+00
 3.3615670668e-01	 1.3529828833e+00	-1.9122098782e+00
 3.2391666932e-01	 1.3559653407e+00	-1.8955172921e+00
 3.1168146348e-01	 1.3588298934e+00	-1.8790941879e+00
 2.9945265804e-01	 1.3615770707e+00	-1.8630024649e+00
 2.8723180410e-01	 1.3642074272e+00	-1.8472979653e+00
 2.7502043445e-01	 1.3667215424e+00	-1.8320310390e+00
 2.6282006319e-01	 1.3691200197e+00	-1.8172470542e+00
 2.5063218529e-01	 1.3714034860e+00	-1.8029868565e+00
 2.3845827624e-01	 1.3735725916e+00	-1.7892871757e+00
 3.6216662243e-01	 1.3523443857e+00	-1.9167932029e+00
 3.4987003142e-01	 1.3555777223e+00	-1.8984911870e+00
 3.3757508941e-01	 1.3586916718e+00	-1.8804229365e+00
 3.2528340633e-01	 1.3616867134e+00	-1.8626540747e+00
 3.1299657514e-01	 1.3645633529e+00	-1.8452427115e+00
 3.0071617137e-01	 1.3673221216e+00	-1.8282401439e+00
 2.8844375265e-01	 1.3699635767e+00	-1.8116915008e+00
 2.7618085823e-01	 1.3724883000e+00	-1.7956363333e+00
 2.6392900860e-01	 1.3748968974e+00	-1.7801091490e+00
 2.5168970506e-01	 1.3771899986e+00	-1.7651398933e+00
 2.3946442930e-01	 1.3793682565e+00	-1.7507543770e+00
 3.6368833093e-01	 1.3580265050e+00	-1.8878036496e+00
 3.5134007357e-01	 1.3612734270e+00	-1.8682286599e+00
 3.3899347214e-01	 1.3644004603e+00	-1.8490136009e+00
 3.2665014333e-01	 1.3674080862e+00	-1.8302100456e+00
 3.1431168680e-01	 1.3702968123e+00	-1.8118618263e+00
 3.0197968469e-01	 1.3730671726e+00	-1.7940057706e+00
 2.8965570119e-01	 1.3757197262e+00	-1.7766723797e+00
 2.7734128200e-01	 1.3782550575e+00	-1.7598864493e+00
 2.6503795402e-01	 1.3806737751e+00	-1.7436676344e+00
 2.5274722482e-01	 1.3829765112e+00	-1.7280309586e+00
 2.4047058237e-01	 1.3851639215e+00	-1.7129872683e+00
 3.6521003942e-01	 1.3637086243e+00	-1.8591222143e+00
 3.5281011572e-01	 1.3669691317e+00	-1.8382900641e+00
 3.4041185487e-01	 1.3701092489e+00	-1.8179600128e+00
 3.2801688033e-01	 1.3731294589e+00	-1.7981658763e+00
 3.1562679846e-01	 1.3760302718e+00	-1.7789334432e+00
 3.0324319802e-01	 1.3788122235e+00	-1.7602812523e+00
 2.9086764973e-01	 1.3814758757e+00	-1.7422213098e+00
 2.7850170578e-01	 1.3840218151e+00	-1.7247597482e+00
 2.6614689943e-01	 1.3864506528e+00	-1.7078974270e+00
 2.5380474459e-01	 1.3887630238e+00	-1.6916304758e+00
 2.4147673543e-01	 1.3909595864e+00	-1.6759507810e+00
 2.3141520479e-01	 1.3330029370e+00	-2.0835124934e+00
 2.1961583158e-01	 1.3349976455e+00	-2.0760333141e+00
 2.0783282028e-01	 1.3368826971e+00	-2.0687961533e+00
 1.9606754397e-01	 1.3386587859e+00	-2.0618242776e+00
 1.8432135548e-01	 1.3403266262e+00	-2.0551358990e+00
 1.7259558709e-01	 1.3418869514e+00	-2.0487443670e+00
 1.6089155034e-01	 1.3433405138e+00	-2.0426583282e+00
 1.4921053567e-01	 1.3446880839e+00	-2.0368818545e+00
 1.3755381228e-01	 1.3459304498e+00	-2.0314145415e+00
 1.2592262788e-01	 1.3470684165e+00	-2.0262515796e+00
 1.1431820847e-01	 1.3481028055e+00	-2.0213837983e+00
 2.3242135785e-01	 1.3387986019e+00	-2.0385932880e+00
 2.2057068302e-01	 1.3408019831e+00	-2.0301672133e+00
 2.0873644124e-01	 1.3426952306e+00	-2.0220664294e+00
 1.9692001156e-01	 1.3444790415e+00	-2.0143035454e+00
 1.8512275267e-01	 1.3461541333e+00	-2.0068862238e+00
 1.7334600269e-01	 1.3477212425e+00	-1.9998173866e+00
 1.6159107882e-01	 1.3491811247e+00	-1.9930953860e+00
 1.4985927713e-01	 1.3505345538e+00	-1.9867141426e+00
 1.3815187234e-01	 1.3517823213e+00	-1.9806632529e+00
 1.2647011756e-01	 1.3529252357e+00	-1.9749280684e+00
 1.1481524416e-01	 1.3539641220e+00	-1.9694897468e+00
 2.3342751092e-01	 1.3445942669e+00	-1.9947003613e+00
 2.2152553446e-01	 1.3466063207e+00	-1.9853853147e+00
 2.0964006220e-01	 1.3485077640e+00	-1.9764657740e+00
 1.9777247914e-01	 1.3502992971e+00	-1.9679456352e+00
 1.8592414987e-01	 1.3519816403e+00	-1.9598240246e+00
 1.7409641829e-01	 1.3535555336e+00	-1.9520955121e+00
 1.6229060730e-01	 1.3550217357e+00	-1.9447502902e+00
 1.5050801859e-01	 1.3563810238e+00	-1.9377743181e+00
 1.3874993239e-01	 1.3576341928e+00	-1.9311494348e+00
 1.2701760725e-01	 1.3587820549e+00	-1.9248534409e+00
 1.1531227985e-01	 1.3598254386e+00	-1.9188601540e+00
 2.3443366398e-01	 1.3503899318e+00	-1.9517947544e+00
 2.2248038591e-01	 1.3524106583e+00	-1.9416422447e+00
 2.1054368316e-01	 1.3543202975e+00	-1.9319435044e+00
 1.9862494672e-01	 1.3561195527e+00	-1.9226956315e+00
 1.8672554707e-01	 1.3578091474e+00	-1.9138911969e+00
 1.7484683388e-01	 1.3593898247e+00	-1.9055184628e+00
 1.6299013578e-01	 1.3608623466e+00	-1.8975615652e+00
 1.5115676005e-01	 1.3622274937e+00	-1.8900006602e+00
 1.3934799244e-01	 1.3634860644e+00	-1.8828120379e+00
 1.2756509694e-01	 1.3646388741e+00	-1.8759682048e+00
 1.1580931554e-01	 1.3656867551e+00	-1.8694379373e+00
 2.3543981705e-01	 1.3561855967e+00	-1.9098381139e+00
 2.2343523735e-01	 1.3582149959e+00	-1.8988933759e+00
 2.1144730412e-01	 1.3601328310e+00	-1.8884498057e+00
 1.9947741430e-01	 1.3619398083e+00	-1.8784995871e+00
 1.8752694427e-01	 1.3636366545e+00	-1.8690306862e+00
 1.7559724948e-01	 1.3652241158e+00	-1.8600270711e+00
 1.6368966426e-01	 1.3667029575e+00	-1.8514688931e+00
 1.5180550151e-01	 1.3680739636e+00	-1.8433326322e+00
 1.3994605250e-01	 1.3693379359e+00	-1.8355912072e+00
 1.2811258662e-01	 1.3704956933e+00	-1.8282140551e+00
 1.1630635123e-01	 1.3715480717e+00	-1.8211671784e+00
 2.3644597011e-01	 1.3619812617e+00	-1.8687926743e+00
 2.2439008879e-01	 1.3640193335e+00	-1.8570948077e+00
 2.1235092507e-01	 1.3659453644e+00	-1.8459357081e+00
 2.0032988188e-01	 1.3677600639e+00	-1.8353044991e+00
 1.8832834146e-01	 1.3694641616e+00	-1.8251864628e+00
 1.7634766507e-01	 1.3710584069e+00	-1.8155632557e+00
 1.6438919274e-01	 1.3725435684e+00	-1.8064130865e+00
 1.5245424297e-01	 1.3739204336e+00	-1.7977108545e+00
 1.4054411255e-01	 1.3751898074e+00	-1.7894282546e+00
 1.2866007631e-01	 1.3763525125e+00	-1.7815338471e+00
 1.1680338691e-01	 1.3774093882e+00	-1.7739930973e+00
 2.3745212318e-01	 1.3677769266e+00	-1.8286212413e+00
 2.2534494023e-01	 1.3698236710e+00	-1.8162033468e+00
 2.1325454603e-01	 1.3717578979e+00	-1.8043530655e+00
 2.0118234947e-01	 1.3735803195e+00	-1.7930582858e+00
 1.8912973866e-01	 1.3752916686e+00	-1.7823034966e+00
 1.7709808067e-01	 1.3768926979e+00	-1.7720699962e+00
 1.6508872122e-01	 1.3783841794e+00	-1.7623360616e+00
 1.5310298443e-01	 1.3797669035e+00	-1.7530770780e+00
 1.4114217260e-01	 1.3810416789e+00	-1.7442656317e+00
 1.2920756599e-01	 1.3822093317e+00	-1.7358715699e+00
 1.1730042260e-01	 1.3832707048e+00	-1.7278620263e+00
 2.3845827624e-01	 1.3735725916e+00	-1.7892871757e+00
 2.2629979167e-01	 1.3756280086e+00	-1.7761764881e+00
 2.1415816699e-01	 1.3775704314e+00	-1.7636545345e+00
 2.0203481705e-01	 1.3794005751e+00	-1.7517097638e+00
 1.8993113586e-01	 1.3811191757e+00	-1.7403277334e+00
 1.7784849627e-01	 1.3827269890e+00	-1.7294913075e+00
 1.6578824970e-01	 1.3842247903e+00	-1.7191808132e+00
 1.5375172589e-01	 1.3856133734e+00	-1.7093741571e+00
 1.4174023266e-01	 1.3868935505e+00	-1.7000469043e+00
 1.2975505568e-01	 1.3880661509e+00	-1.6911723210e+00
 1.1779745829e-01	 1.3891320213e+00	-1.6827213848e+00
 2.3946442930e-01	 1.3793682565e+00	-1.7507543770e+00
 2.2725464311e-01	 1.3814323462e+00	-1.7369723966e+00
 2.1506178795e-01	 1.3833829648e+00	-1.7237935536e+00
 2.0288728463e-01	 1.3852208307e+00	-1.7112086255e+00
 1.9073253306e-01	 1.3869466828e+00	-1.6992060713e+00
 1.7859891186e-01	 1.3885612801e+00	-1.6877722155e+00
 1.6648777818e-01	 1.3900654012e+00	-1.6768913885e+00
 1.5440046735e-01	 1.3914598434e+00	-1.6665460254e+00
 1.4233829271e-01	 1.3927454220e+00	-1.6567167265e+00
 1.3030254537e-01	 1.3939229701e+00	-1.6473822806e+00
 1.1829449398e-01	 1.3949933379e+00	-1.6385196555e+00
 2.4047058237e-01	 1.3851639215e+00	-1.7129872683e+00
 2.2820949456e-01	 1.3872366838e+00	-1.6985498890e+00
 2.1596540890e-01	 1.3891954983e+00	-1.6847243239e+00
 2.0373975221e-01	 1.3910410863e+00	-1.6715054180e+00
 1.9153393025e-01	 1.3927741898e+00	-1.6588863373e+00
 1.7934932746e-01	 1.3943955712e+00	-1.6468587332e+00
 1.6718730665e-01	 1.3959060122e+00	-1.6354128636e+00
 1.5504920880e-01	 1.3973063133e+00	-1.6245376700e+00
 1.4293635276e-01	 1.3985972935e+00	-1.6142208161e+00
 1.3085003505e-01	 1.3997797893e+00	-1.6044486880e+00
 1.1879152967e-01	 1.4008546544e+00	-1.5952063597e+00
 2.4147673543e-01	 1.3909595864e+00	-1.6759507810e+00
 2.2916434600e-01	 1.3930410214e+00	-1.6608684168e+00
 2.1686902986e-01	 1.3950080318e+00	-1.6464017887e+00
 2.0459221980e-01	 1.3968613419e+00	-1.6325515216e+00
 1.9233532745e-01	 1.3986016969e+00	-1.6193172654e+00
 1.8009974305e-01	 1.4002298623e+00	-1.6066978374e+00
 1.6788683513e-01	 1.4017466231e+00	-1.5946913188e+00
 1.5569795026e-01	 1.4031527832e+00	-1.5832951075e+00
 1.4353441282e-01	 1.4044491650e+00	-1.5725059306e+00
 1.3139752474e-01	 1.4056366085e+00	-1.5623198168e+00
 1.1928856536e-01	 1.4067159710e+00	-1.5527320350e+00
 1.1431820847e-01	 1.3481028055e+00	-2.0213837983e+00
 1.0274175822e-01	 1.3490344540e+00	-2.0167988901e+00
 9.1194459242e-02	 1.3498642145e+00	-2.0125517839e+00
 7.9677471504e-02	 1.3505929540e+00	-2.0087280583e+00
 6.8191932657e-02	 1.3512215537e+00	-2.0054093304e+00
 5.6738957943e-02	 1.3517509081e+00	-2.0026730420e+00
 4.5319640093e-02	 1.3521819246e+00	-2.0005922358e+00
 3.3935049248e-02	 1.3525155228e+00	-1.9992353235e+00
 2.2586232891e-02	 1.3527526341e+00	-1.9986658463e+00
 1.1274215797e-02	 1.3528942010e+00	-1.9989422314e+00
 0.0000000000e+00	 1.3529411765e+00	-2.0001175460e+00
 1.1481524416e-01	 1.3539641220e+00	-1.9694897468e+00
 1.0318846151e-01	 1.3548998212e+00	-1.9643465189e+00
 9.1590956891e-02	 1.3557331893e+00	-1.9595781556e+00
 8.0023895293e-02	 1.3564650973e+00	-1.9552821778e+00
 6.8488419321e-02	 1.3570964301e+00	-1.9515521670e+00
 5.6985649065e-02	 1.3576280860e+00	-1.9484775313e+00
 4.5516682007e-02	 1.3580609764e+00	-1.9461432603e+00
 3.4082592941e-02	 1.3583960251e+00	-1.9446296718e+00
 2.2684433903e-02	 1.3586341673e+00	-1.9440121526e+00
 1.1323234127e-02	 1.3587763497e+00	-1.9443608932e+00
 0.0000000000e+00	 1.3588235294e+00	-1.9457406225e+00
 1.1531227985e-01	 1.3598254386e+00	-1.9188601540e+00
 1.0363516481e-01	 1.3607651884e+00	-1.9131805955e+00
 9.1987454540e-02	 1.3616021642e+00	-1.9079182504e+00
 8.0370319082e-02	 1.3623372406e+00	-1.9031798609e+00
 6.8784905985e-02	 1.3629713064e+00	-1.8990682401e+00
 5.7232340186e-02	 1.3635052639e+00	-1.8956820205e+00
 4.5713723920e-02	 1.3639400283e+00	-1.8931153910e+00
 3.4230136633e-02	 1.3642765273e+00	-1.8914578262e+00
 2.2782634916e-02	 1.3645157005e+00	-1.8907938092e+00
 1.1372252456e-02	 1.3646584984e+00	-1.8912025498e+00
 0.0000000000e+00	 1.3647058824e+00	-1.8927577008e+00
 1.1580931554e-01	 1.3656867551e+00	-1.8694379373e+00
 1.0408186811e-01	 1.3666305556e+00	-1.8632464165e+00
 9.2383952188e-02	 1.3674711390e+00	-1.8575188769e+00
 8.0716742871e-02	 1.3682093839e+00	-1.8523686003e+00
 6.9081392648e-02	 1.3688461827e+00	-1.8479049371e+00
 5.7479031308e-02	 1.3693824417e+00	-1.8442330412e+00
 4.5910765834e-02	 1.3698190801e+00	-1.8414535921e+00
 3.4377680325e-02	 1.3701570296e+00	-1.8396625106e+00
 2.2880835929e-02	 1.3703972337e+00	-1.8389506666e+00
 1.1421270786e-02	 1.3705406471e+00	-1.8394035835e+00
 0.0000000000e+00	 1.3705882353e+00	-1.8411011398e+00
 1.1630635123e-01	 1.3715480717e+00	-1.8211671784e+00
 1.0452857140e-01	 1.3724959228e+00	-1.8144904188e+00
 9.2780449837e-02	 1.3733401139e+00	-1.8083279740e+00
 8.1063166661e-02	 1.3740815272e+00	-1.8027970212e+00
 6.9377879312e-02	 1.3747210590e+00	-1.7980107924e+00
 5.7725722429e-02	 1.3752596196e+00	-1.7940782977e+00
 4.6107807747e-02	 1.3756981320e+00	-1.7911040374e+00
 3.4525224018e-02	 1.3760375319e+00	-1.7891877059e+00
 2.2979036941e-02	 1.3762787669e+00	-1.7884238887e+00
 1.1470289115e-02	 1.3764227958e+00	-1.7889017555e+00
 0.0000000000e+00	 1.3764705882e+00	-1.7907047507e+00
 1.1680338691e-01	 1.3774093882e+00	-1.7739930973e+00
 1.0497527470e-01	 1.3783612900e+00	-1.7668601544e+00
 9.3176947486e-02	 1.3792090887e+00	-1.7602945853e+00
 8.1409590450e-02	 1.3799536704e+00	-1.7544148564e+00
 6.9674365976e-02	 1.3805959354e+00	-1.7493354621e+00
 5.7972413551e-02	 1.3811367974e+00	-1.7451666418e+00
 4.6304849661e-02	 1.3815771838e+00	-1.7420140839e+00
 3.4672767710e-02	 1.3819180342e+00	-1.7399786220e+00
 2.3077237954e-02	 1.3821603001e+00	-1.7391559238e+00
 1.1519307445e-02	 1.3823049445e+00	-1.7396361758e+00
 0.0000000000e+00	 1.3823529412e+00	-1.7415037660e+00
 1.1730042260e-01	 1.3832707048e+00	-1.7278620263e+00
 1.0542197800e-01	 1.3842266572e+00	-1.7203042653e+00
 9.3573445135e-02	 1.3850780636e+00	-1.7133688353e+00
 8.1756014239e-02	 1.3858258137e+00	-1.7071729214e+00
 6.9970852640e-02	 1.3864708117e+00	-1.7018296994e+00
 5.8219104672e-02	 1.3870139753e+00	-1.6974480474e+00
 4.6501891574e-02	 1.3874562357e+00	-1.6941322467e+00
 3.4820311403e-02	 1.3877985364e+00	-1.6919816724e+00
 2.3175438966e-02	 1.3880418333e+00	-1.6910904781e+00
 1.1568325775e-02	 1.3881870932e+00	-1.6915472749e+00
 0.0000000000e+00	 1.3882352941e+00	-1.6934348094e+00
 1.1779745829e-01	 1.3891320213e+00	-1.6827213848e+00
 1.0586868129e-01	 1.3900920244e+00	-1.6747724590e+00
 9.3969942784e-02	 1.3909470384e+00	-1.6675019043e+00
 8.2102438028e-02	 1.3916979570e+00	-1.6610230912e+00
 7.0267339303e-02	 1.3923456880e+00	-1.6554453308e+00
 5.8465795794e-02	 1.3928911532e+00	-1.6508735866e+00
 4.6698933488e-02	 1.3933352875e+00	-1.6474081735e+00
 3.4967855095e-02	 1.3936790387e+00	-1.6451444475e+00
 2.3273639979e-02	 1.3939233664e+00	-1.6441724881e+00
 1.1617344104e-02	 1.3940692419e+00	-1.6445767757e+00
 0.0000000000e+00	 1.3941176471e+00	-1.6464358664e+00
 1.1829449398e-01	 1.3949933379e+00	-1.6385196555e+00
 1.0631538459e-01	 1.3959573915e+00	-1.6302154849e+00
 9.4366440433e-02	 1.3968160133e+00	-1.6226460060e+00
 8.2448861817e-02	 1.3975701003e+00	-1.6159182762e+00
 7.0563825967e-02	 1.3982205643e+00	-1.6101352325e+00
 5.8712486915e-02	 1.3987683310e+00	-1.6053954055e+00
 4.6895975401e-02	 1.3992143394e+00	-1.6017926208e+00
 3.5115398787e-02	 1.3995595410e+00	-1.5994156901e+00
 2.3371840991e-02	 1.3998048996e+00	-1.5983480953e+00
 1.1666362434e-02	 1.3999513906e+00	-1.5986676662e+00
 0.0000000000e+00	 1.4000000000e+00	-1.6004462558e+00
 1.1879152967e-01	 1.4008546544e+00	-1.5952063597e+00
 1.0676208788e-01	 1.4018227587e+00	-1.5865851111e+00
 9.4762938082e-02	 1.4026849881e+00	-1.5787543643e+00
 8.2795285606e-02	 1.4034422436e+00	-1.5718124004e+00
 7.0860312631e-02	 1.4040954406e+00	-1.5658533078e+00
 5.8959178037e-02	 1.4046455089e+00	-1.5609667014e+00
 4.7093017315e-02	 1.4050933912e+00	-1.5572374296e+00
 3.5262942480e-02	 1.4054400433e+00	-1.5547452707e+00
 2.3470042004e-02	 1.4056864328e+00	-1.5535646201e+00
 1.1715380763e-02	 1.4058335393e+00	-1.5537641728e+00
 0.0000000000e+00	 1.4058823529e+00	-1.5554066018e+00
 1.1928856536e-01	 1.4067159710e+00	-1.5527320350e+00
 1.0720879118e-01	 1.4076881259e+00	-1.5438341017e+00
 9.5159435731e-02	 1.4085539630e+00	-1.5357811908e+00
 8.3141709395e-02	 1.4093143868e+00	-1.5286603788e+00
 7.1156799295e-02	 1.4099703170e+00	-1.5225544648e+00
 5.9205869158e-02	 1.4105226867e+00	-1.5175417000e+00
 4.7290059228e-02	 1.4109724431e+00	-1.5136955030e+00
 3.5410486172e-02	 1.4113205455e+00	-1.5110841635e+00
 2.3568243017e-02	 1.4115679660e+00	-1.5097705371e+00
 1.1764399093e-02	 1.4117156880e+00	-1.5098117347e+00
 0.0000000000e+00	 1.4117647059e+00	-1.5112588065e+00
 1.4117647059e+00	 0.0000000000e+00	 3.7287649424e+00
 1.4117156880e+00	 1.1764399093e-02	 3.7261675182e+00
 1.4115679660e+00	 2.3568243017e-02	 3.7219761247e+00
 1.4113205455e+00	 3.5410486172e-02	 3.7160979519e+00
 1.4109724431e+00	 4.7290059228e-02	 3.7084361377e+00
 1.4105226867e+00	 5.9205869158e-02	 3.6988912917e+00
 1.4099703170e+00	 7.1156799295e-02	 3.6873629924e+00
 1.4093143868e+00	 8.3141709395e-02	 3.6737512577e+00
 1.4085539630e+00	 9.5159435731e-02	 3.6579579846e+00
 1.4076881259e+00	 1.0720879118e-01	 3.6398883589e+00
 1.4067159710e+00	 1.1928856536e-01	 3.6194522313e+00
 1.4176470588e+00	 0.0000000000e+00	 3.7278129283e+00
 1.4175978367e+00	 1.1813417422e-02	 3.7253650832e+00
 1.4174494992e+00	 2.3666444029e-02	 3.7212240329e+00
 1.4172010478e+00	 3.5558029864e-02	 3.7153110904e+00
 1.4168514949e+00	 4.7487101141e-02	 3.7075446524e+00
 1.4163998646e+00	 5.9452560280e-02	 3.6978417206e+00
 1.4158451933e+00	 7.1453285958e-02	 3.6861193943e+00
 1.4151865301e+00	 8.3488133185e-02	 3.6722963322e+00
 1.4144229378e+00	 9.5555933380e-02	 3.6562941812e+00
 1.4135534931e+00	 1.0765549448e-01	 3.6380389717e+00
 1.4125772875e+00	 1.1978560105e-01	 3.6174624764e+00
 1.4235294118e+00	 0.0000000000e+00	 3.7265368333e+00
 1.4234799854e+00	 1.1862435752e-02	 3.7242083150e+00
 1.4233310324e+00	 2.3764645042e-02	 3.7201023205e+00
 1.4230815501e+00	 3.5705573557e-02	 3.7141518228e+00
 1.4227305468e+00	 4.7684143055e-02	 3.7062879999e+00
 1.4222770425e+00	 5.9699251401e-02	 3.6964417564e+00
 1.4217200696e+00	 7.1749772622e-02	 3.6845452118e+00
 1.4210586734e+00	 8.3834556974e-02	 3.6705331569e+00
 1.4202919126e+00	 9.5952431028e-02	 3.6543444723e+00
 1.4194188603e+00	 1.0810219777e-01	 3.6359235116e+00
 1.4184386040e+00	 1.2028263674e-01	 3.6152214451e+00
 1.4294117647e+00	 0.0000000000e+00	 3.7249185092e+00
 1.4293621341e+00	 1.1911454081e-02	 3.7226795152e+00
 1.4292125656e+00	 2.3862846054e-02	 3.7185935543e+00
 1.4289620524e+00	 3.5853117249e-02	 3.7126028321e+00
 1.4286095986e+00	 4.7881184968e-02	 3.7046488669e+00
 1.4281542203e+00	 5.9945942523e-02	 3.6946740126e+00
 1.4275949459e+00	 7.2046259286e-02	 3.6826229462e+00
 1.4269308167e+00	 8.4180980763e-02	 3.6684441183e+00
 1.4261608875e+00	 9.6348928677e-02	 3.6520911651e+00
 1.4252842275e+00	 1.0854890107e-01	 3.6335242804e+00
 1.4242999206e+00	 1.2077967243e-01	 3.6127115461e+00
 1.4352941176e+00	 0.0000000000e+00	 3.7229399432e+00
 1.4352442828e+00	 1.1960472411e-02	 3.7207610990e+00
 1.4350940988e+00	 2.3961047067e-02	 3.7166803937e+00
 1.4348425546e+00	 3.6000660942e-02	 3.7106468728e+00
 1.4344886504e+00	 4.8078226882e-02	 3.7026099894e+00
 1.4340313982e+00	 6.0192633644e-02	 3.6925211299e+00
 1.4334698222e+00	 7.2342745949e-02	 3.6803351018e+00
 1.4328029599e+00	 8.4527404552e-02	 3.6660115811e+00
 1.4320298623e+00	 9.6745426326e-02	 3.6495165184e+00
 1.4311495947e+00	 1.0899560437e-01	 3.6308235023e+00
 1.4301612371e+00	 1.2127670812e-01	 3.6099150782e+00
 1.4411764706e+00	 0.0000000000e+00	 3.7205832558e+00
 1.4411264315e+00	 1.2009490741e-02	 3.7184355932e+00
 1.4409756320e+00	 2.4059248079e-02	 3.7143455882e+00
 1.4407230569e+00	 3.6148204634e-02	 3.7082667683e+00
 1.4403677023e+00	 4.8275268795e-02	 3.7001541510e+00
 1.4399085761e+00	 6.0439324766e-02	 3.6899657743e+00
 1.4393446986e+00	 7.2639232613e-02	 3.6776641854e+00
 1.4386751032e+00	 8.4873828341e-02	 3.6632178875e+00
 1.4378988372e+00	 9.7141923975e-02	 3.6466027419e+00
 1.4370149619e+00	 1.0944230766e-01	 3.6278033235e+00
 1.4360225537e+00	 1.2177374380e-01	 3.6068142310e+00
 1.4470588235e+00	 0.0000000000e+00	 3.7178306978e+00
 1.4470085802e+00	 1.2058509070e-02	 3.7156856332e+00
 1.4468571652e+00	 2.4157449092e-02	 3.7115719746e+00
 1.4466035592e+00	 3.6295748326e-02	 3.7054454082e+00
 1.4462467541e+00	 4.8472310709e-02	 3.6972641805e+00
 1.4457857539e+00	 6.0686015887e-02	 3.6869906349e+00
 1.4452195749e+00	 7.2935719277e-02	 3.6745927039e+00
 1.4445472465e+00	 8.5220252130e-02	 3.6600453561e+00
 1.4437678120e+00	 9.7538421624e-02	 3.6433319955e+00
 1.4428803291e+00	 1.0988901096e-01	 3.6244458124e+00
 1.4418838702e+00	 1.2227077949e-01	 3.6033910852e+00
 1.4529411765e+00	 0.0000000000e+00	 3.7146646477e+00
 1.4528907289e+00	 1.2107527400e-02	 3.7124939609e+00
 1.4527386984e+00	 2.4255650105e-02	 3.7083424754e+00
 1.4524840614e+00	 3.6443292019e-02	 3.7021657468e+00
 1.4521258060e+00	 4.8669352622e-02	 3.6939229500e+00
 1.4516629318e+00	 6.0932707009e-02	 3.6835784227e+00
 1.4510944512e+00	 7.3232205941e-02	 3.6711031634e+00
 1.4504193898e+00	 8.5566675920e-02	 3.6564762801e+00
 1.4496367869e+00	 9.7934919273e-02	 3.6396863883e+00
 1.4487456963e+00	 1.1033571426e-01	 3.6207329590e+00
 1.4477451868e+00	 1.2276781518e-01	 3.5996276134e+00
 1.4588235294e+00	 0.0000000000e+00	 3.7110676092e+00
 1.4587728776e+00	 1.2156545729e-02	 3.7088434215e+00
 1.4586202316e+00	 2.4353851117e-02	 3.7046400955e+00
 1.4583645637e+00	 3.6590835711e-02	 3.6984108005e+00
 1.4580048578e+00	 4.8866394536e-02	 3.6901133726e+00
 1.4575401096e+00	 6.1179398130e-02	 3.6797118682e+00
 1.4569693275e+00	 7.3528692604e-02	 3.6671780676e+00
 1.4562915331e+00	 8.5913099709e-02	 3.6524929271e+00
 1.4555057617e+00	 9.8331416922e-02	 3.6356479786e+00
 1.4546110635e+00	 1.1078241755e-01	 3.6166466750e+00
 1.4536065033e+00	 1.2326485087e-01	 3.5955056802e+00
 1.4647058824e+00	 0.0000000000e+00	 3.7070222085e+00
 1.4646550263e+00	 1.2205564059e-02	 3.7047169620e+00
 1.4645017647e+00	 2.4452052130e-02	 3.7004479208e+00
 1.4642450660e+00	 3.6738379404e-02	 3.6941636455e+00
 1.4638839097e+00	 4.9063436449e-02	 3.6858184011e+00
 1.4634172875e+00	 6.1426089252e-02	 3.6753737204e+00
 1.4628442038e+00	 7.3825179268e-02	 3.6627999159e+00
 1.4621636763e+00	 8.6259523498e-02	 3.6480775373e+00
 1.4613747366e+00	 9.8727914571e-02	 3.6311987727e+00
 1.4604764306e+00	 1.1122912085e-01	 3.6121687938e+00
 1.4594678199e+00	 1.2376188656e-01	 3.5910070432e+00
 1.4705882353e+00	 0.0000000000e+00	 3.7025111922e+00
 1.4705371750e+00	 1.2254582388e-02	 3.7000976283e+00
 1.4703832979e+00	 2.4550253142e-02	 3.6957491154e+00
 1.4701255683e+00	 3.6885923096e-02	 3.6894074165e+00
 1.4697629615e+00	 4.9260478362e-02	 3.6810210257e+00
 1.4692944654e+00	 6.1672780373e-02	 3.6705467446e+00
 1.4687190802e+00	 7.4121665932e-02	 3.6579512030e+00
 1.4680358196e+00	 8.6605947287e-02	 3.6432123232e+00
 1.4672437114e+00	 9.9124412219e-02	 3.6263207245e+00
 1.4663417978e+00	 1.1167582415e-01	 3.6072810702e+00
 1.4653291364e+00	 1.2425892225e-01	 3.5861133530e+00
 1.4067159710e+00	 1.1928856536e-01	 3.6194522313e+00
 1.4056366085e+00	 1.3139752474e-01	 3.5965642018e+00
 1.4044491650e+00	 1.4353441282e-01	 3.5712113622e+00
 1.4031527832e+00	 1.5569795026e-01	 3.5434225773e+00
 1.4017466231e+00	 1.6788683513e-01	 3.5132354964e+00
 1.4002298623e+00	 1.8009974305e-01	 3.4806975532e+00
 1.3986016969e+00	 1.9233532745e-01	 3.4458669273e+00
 1.3968613419e+00	 2.0459221980e-01	 3.4088134664e+00
 1.3950080318e+00	 2.1686902986e-01	 3.3696195710e+00
 1.3930410214e+00	 2.2916434600e-01	 3.3283810411e+00
 1.3909595864e+00	 2.4147673543e-01	 3.2852078876e+00
 1.4125772875e+00	 1.1978560105e-01	 3.6174624764e+00
 1.4114934277e+00	 1.3194501443e-01	 3.5944807948e+00
 1.4103010365e+00	 1.4413247287e-01	 3.5690556923e+00
 1.4089992532e+00	 1.5634669172e-01	 3.5411989918e+00
 1.4075872340e+00	 1.6858636361e-01	 3.5109319506e+00
 1.4060641534e+00	 1.8085015865e-01	 3.4782862754e+00
 1.4044292040e+00	 1.9313672465e-01	 3.4433050972e+00
 1.4026815974e+00	 2.0544468738e-01	 3.4060439060e+00
 1.4008205652e+00	 2.1777265082e-01	 3.3665714484e+00
 1.3988453590e+00	 2.3011919744e-01	 3.3249705859e+00
 1.3967552514e+00	 2.4248288850e-01	 3.2813391178e+00
 1.4184386040e+00	 1.2028263674e-01	 3.6152214451e+00
 1.4173502469e+00	 1.3249250411e-01	 3.5921546776e+00
 1.4161529081e+00	 1.4473053292e-01	 3.5666614476e+00
 1.4148457231e+00	 1.5699543318e-01	 3.5387385150e+00
 1.4134278450e+00	 1.6928589209e-01	 3.5083927394e+00
 1.4118984445e+00	 1.8160057425e-01	 3.4756421070e+00
 1.4102567110e+00	 1.9393812185e-01	 3.4405167153e+00
 1.4085018530e+00	 2.0629715496e-01	 3.4030597185e+00
 1.4066330987e+00	 2.1867627178e-01	 3.3633282329e+00
 1.4046496966e+00	 2.3107404888e-01	 3.3213942051e+00
 1.4025509163e+00	 2.4348904156e-01	 3.2773452423e+00
 1.4242999206e+00	 1.2077967243e-01	 3.6127115461e+00
 1.4232070661e+00	 1.3303999380e-01	 3.5895682611e+00
 1.4220047796e+00	 1.4532859298e-01	 3.5640106830e+00
 1.4206921930e+00	 1.5764417464e-01	 3.5360224691e+00
 1.4192684559e+00	 1.6998542057e-01	 3.5055980576e+00
 1.4177327356e+00	 1.8235098984e-01	 3.4727437015e+00
 1.4160842181e+00	 1.9473951905e-01	 3.4374784622e+00
 1.4143221086e+00	 2.0714962254e-01	 3.3998351603e+00
 1.4124456322e+00	 2.1957989274e-01	 3.3598612874e+00
 1.4104540342e+00	 2.3202890032e-01	 3.3176198795e+00
 1.4083465812e+00	 2.4449519463e-01	 3.2731903517e+00
 1.4301612371e+00	 1.2127670812e-01	 3.6099150782e+00
 1.4290638853e+00	 1.3358748349e-01	 3.5867038157e+00
 1.4278566511e+00	 1.4592665303e-01	 3.5610852870e+00
 1.4265386629e+00	 1.5829291610e-01	 3.5330319903e+00
 1.4251090668e+00	 1.7068494905e-01	 3.5025278998e+00
 1.4235670267e+00	 1.8310140544e-01	 3.4695695060e+00
 1.4219117252e+00	 1.9554091624e-01	 3.4341668126e+00
 1.4201423642e+00	 2.0800209013e-01	 3.3963442909e+00
 1.4182581656e+00	 2.2048351369e-01	 3.3561417948e+00
 1.4162583718e+00	 2.3298375176e-01	 3.3136154351e+00
 1.4141422462e+00	 2.4550134769e-01	 3.2688384166e+00
 1.4360225537e+00	 1.2177374380e-01	 3.6068142310e+00
 1.4349207046e+00	 1.3413497317e-01	 3.5835434719e+00
 1.4337085226e+00	 1.4652471308e-01	 3.5578669835e+00
 1.4323851329e+00	 1.5894165756e-01	 3.5297480304e+00
 1.4309496777e+00	 1.7138447753e-01	 3.4991620640e+00
 1.4294013178e+00	 1.8385182103e-01	 3.4660977645e+00
 1.4277392323e+00	 1.9634231344e-01	 3.4305580390e+00
 1.4259626198e+00	 2.0885455771e-01	 3.3925609765e+00
 1.4240706991e+00	 2.2138713465e-01	 3.3521407615e+00
 1.4220627093e+00	 2.3393860321e-01	 3.3093485472e+00
 1.4199379111e+00	 2.4650750075e-01	 3.2642532913e+00
 1.4418838702e+00	 1.2227077949e-01	 3.6033910852e+00
 1.4407775238e+00	 1.3468246286e-01	 3.5800692218e+00
 1.4395603941e+00	 1.4712277314e-01	 3.5543373333e+00
 1.4382316028e+00	 1.5959039902e-01	 3.5261513600e+00
 1.4367902887e+00	 1.7208400601e-01	 3.4954801541e+00
 1.4352356089e+00	 1.8460223663e-01	 3.4623065212e+00
 1.4335667393e+00	 1.9714371064e-01	 3.4266282159e+00
 1.4317828754e+00	 2.0970702529e-01	 3.3884588938e+00
 1.4298832325e+00	 2.2229075561e-01	 3.3478290214e+00
 1.4278670469e+00	 2.3489345465e-01	 3.3047867445e+00
 1.4257335761e+00	 2.4751365382e-01	 3.2593987185e+00
 1.4477451868e+00	 1.2276781518e-01	 3.5996276134e+00
 1.4466343430e+00	 1.3522995255e-01	 3.5762629203e+00
 1.4454122657e+00	 1.4772083319e-01	 3.5504777363e+00
 1.4440780727e+00	 1.6023914048e-01	 3.5222225703e+00
 1.4426308996e+00	 1.7278353449e-01	 3.4914615829e+00
 1.4410699000e+00	 1.8535265223e-01	 3.4581736239e+00
 1.4393942464e+00	 1.9794510784e-01	 3.4223532227e+00
 1.4376031310e+00	 2.1055949287e-01	 3.3840115341e+00
 1.4356957660e+00	 2.2319437657e-01	 3.3431772406e+00
 1.4336713845e+00	 2.3584830609e-01	 3.2998974132e+00
 1.4315292410e+00	 2.4851980688e-01	 3.2542383328e+00
 1.4536065033e+00	 1.2326485087e-01	 3.5955056802e+00
 1.4524911622e+00	 1.3577744223e-01	 3.5721062860e+00
 1.4512641372e+00	 1.4831889324e-01	 3.5462694330e+00
 1.4499245427e+00	 1.6088788194e-01	 3.5179420757e+00
 1.4484715105e+00	 1.7348306297e-01	 3.4870855748e+00
 1.4469041911e+00	 1.8610306782e-01	 3.4536767270e+00
 1.4452217535e+00	 1.9874650503e-01	 3.4177087478e+00
 1.4434233866e+00	 2.1141196046e-01	 3.3791922070e+00
 1.4415082995e+00	 2.2409799752e-01	 3.3381559208e+00
 1.4394757221e+00	 2.3680315753e-01	 3.2946478012e+00
 1.4373249060e+00	 2.4952595995e-01	 3.2487356650e+00
 1.4594678199e+00	 1.2376188656e-01	 3.5910070432e+00
 1.4583479814e+00	 1.3632493192e-01	 3.5675809027e+00
 1.4571160087e+00	 1.4891695330e-01	 3.5416935063e+00
 1.4557710126e+00	 1.6153662340e-01	 3.5132901161e+00
 1.4543121215e+00	 1.7418259145e-01	 3.4823311685e+00
 1.4527384822e+00	 1.8685348342e-01	 3.4487932950e+00
 1.4510492605e+00	 1.9954790223e-01	 3.4126702920e+00
 1.4492436422e+00	 2.1226442804e-01	 3.3739740445e+00
 1.4473208329e+00	 2.2500161848e-01	 3.3327354038e+00
 1.4452800597e+00	 2.3775800897e-01	 3.2890050220e+00
 1.4431205709e+00	 2.5053211301e-01	 3.2428541464e+00
 1.4653291364e+00	 1.2425892225e-01	 3.5861133530e+00
 1.4642048006e+00	 1.3687242160e-01	 3.5626682203e+00
 1.4629678802e+00	 1.4951501335e-01	 3.5367308835e+00
 1.4616174825e+00	 1.6218536486e-01	 3.5082467589e+00
 1.4601527324e+00	 1.7488211993e-01	 3.4771772203e+00
 1.4585727732e+00	 1.8760389902e-01	 3.4435006055e+00
 1.4568767676e+00	 2.0034929943e-01	 3.4072131721e+00
 1.4550638978e+00	 2.1311689562e-01	 3.3683300047e+00
 1.4531333664e+00	 2.2590523944e-01	 3.3268858752e+00
 1.4510843973e+00	 2.3871286041e-01	 3.2829360594e+00
 1.4489162358e+00	 2.5153826608e-01	 3.2365571128e+00
 1.3909595864e+00	 2.4147673543e-01	 3.2852078876e+00
 1.3887630238e+00	 2.5380474459e-01	 3.2394176629e+00
 1.3864506528e+00	 2.6614689943e-01	 3.1904762968e+00
 1.3840218151e+00	 2.7850170578e-01	 3.1387413603e+00
 1.3814758757e+00	 2.9086764973e-01	 3.0845892767e+00
 1.3788122235e+00	 3.0324319802e-01	 3.0284157435e+00
 1.3760302718e+00	 3.1562679846e-01	 2.9706361201e+00
 1.3731294589e+00	 3.2801688033e-01	 2.9116857795e+00
 1.3701092489e+00	 3.4041185487e-01	 2.8520204286e+00
 1.3669691317e+00	 3.5281011572e-01	 2.7921163952e+00
 1.3637086243e+00	 3.6521003942e-01	 2.7324708839e+00
 1.3967552514e+00	 2.4248288850e-01	 3.2813391178e+00
 1.3945495364e+00	 2.5486226436e-01	 3.2349854344e+00
 1.3922275305e+00	 2.6725584484e-01	 3.1853942968e+00
 1.3897885727e+00	 2.7966212955e-01	 3.1329543259e+00
 1.3872320252e+00	 2.9207959827e-01	 3.0780739216e+00
 1.3845572744e+00	 3.0450671134e-01	 3.0211816451e+00
 1.3817637313e+00	 3.1694191012e-01	 2.9627265646e+00
 1.3788508317e+00	 3.2938361733e-01	 2.9031785658e+00
 1.3758180374e+00	 3.4183023760e-01	 2.8430286299e+00
 1.3726648364e+00	 3.5428015787e-01	 2.7827890772e+00
 1.3693907435e+00	 3.6673174792e-01	 2.7229937815e+00
 1.4025509163e+00	 2.4348904156e-01	 3.2773452423e+00
 1.4003360490e+00	 2.5591978413e-01	 3.2304804700e+00
 1.3980044083e+00	 2.6836479026e-01	 3.1802997378e+00
 1.3955553302e+00	 2.8082255332e-01	 3.1272192553e+00
 1.3929881747e+00	 2.9329154681e-01	 3.0716759215e+00
 1.3903023253e+00	 3.0577022467e-01	 3.0141276699e+00
 1.3874971907e+00	 3.1825702178e-01	 2.9550537766e+00
 1.3845722044e+00	 3.3075035433e-01	 2.8949551332e+00
 1.3815268259e+00	 3.4324862033e-01	 2.8343544858e+00
 1.3783605411e+00	 3.5575020002e-01	 2.7737966406e+00
 1.3750728628e+00	 3.6825345642e-01	 2.7138486398e+00
 1.4083465812e+00	 2.4449519463e-01	 3.2731903517e+00
 1.4061225616e+00	 2.5697730390e-01	 3.2258627693e+00
 1.4037812860e+00	 2.6947373567e-01	 3.1751486800e+00
 1.4013220878e+00	 2.8198297710e-01	 3.1214884707e+00
 1.3987443241e+00	 2.9450349535e-01	 3.0653441110e+00
 1.3960473763e+00	 3.0703373799e-01	 3.0071994645e+00
 1.3932306502e+00	 3.1957213344e-01	 2.9475605633e+00
 1.3902935772e+00	 3.3211709133e-01	 2.8869558466e+00
 1.3872356145e+00	 3.4466700306e-01	 2.8259363648e+00
 1.3840562458e+00	 3.5722024217e-01	 2.7650759517e+00
 1.3807549821e+00	 3.6977516492e-01	 2.7049713647e+00
 1.4141422462e+00	 2.4550134769e-01	 3.2688384166e+00
 1.4119090742e+00	 2.5803482367e-01	 3.2210922507e+00
 1.4095581637e+00	 2.7058268109e-01	 3.1698971403e+00
 1.4070888453e+00	 2.8314340087e-01	 3.1157142867e+00
 1.4045004736e+00	 2.9571544389e-01	 3.0590273499e+00
 1.4017924272e+00	 3.0829725132e-01	 3.0003427299e+00
 1.3989641096e+00	 3.2088724510e-01	 2.9401898114e+00
 1.3960149499e+00	 3.3348382833e-01	 2.8791211706e+00
 1.3929444030e+00	 3.4608538578e-01	 2.8177127499e+00
 1.3897519506e+00	 3.5869028432e-01	 2.7565639988e+00
 1.3864371013e+00	 3.7129687341e-01	 2.6962979848e+00
 1.4199379111e+00	 2.4650750075e-01	 3.2642532913e+00
 1.4176955868e+00	 2.5909234344e-01	 3.2161287555e+00
 1.4153350414e+00	 2.7169162650e-01	 3.1645010962e+00
 1.4128556029e+00	 2.8430382465e-01	 3.1098490142e+00
 1.4102566231e+00	 2.9692739243e-01	 3.0526745275e+00
 1.4075374781e+00	 3.0956076464e-01	 2.9935032269e+00
 1.4046975691e+00	 3.2220235676e-01	 2.9328844928e+00
 1.4017363227e+00	 3.3485056534e-01	 2.8713916761e+00
 1.3986531916e+00	 3.4750376851e-01	 2.8096222452e+00
 1.3954476553e+00	 3.6016032647e-01	 2.7481979010e+00
 1.3921192206e+00	 3.7281858191e-01	 2.6877646616e+00
 1.4257335761e+00	 2.4751365382e-01	 3.2593987185e+00
 1.4234820994e+00	 2.6014986321e-01	 3.2109320520e+00
 1.4211119191e+00	 2.7280057192e-01	 3.1589164901e+00
 1.4186223605e+00	 2.8546424842e-01	 3.1038449648e+00
 1.4160127726e+00	 2.9813934097e-01	 3.0462345674e+00
 1.4132825291e+00	 3.1082427797e-01	 2.9866267802e+00
 1.4104310286e+00	 3.2351746842e-01	 2.9255876703e+00
 1.4074576954e+00	 3.3621730234e-01	 2.8637080465e+00
 1.4043619801e+00	 3.4892215124e-01	 2.8016035840e+00
 1.4011433600e+00	 3.6163036861e-01	 2.7399149165e+00
 1.3978013399e+00	 3.7434029041e-01	 2.6793076991e+00
 1.4315292410e+00	 2.4851980688e-01	 3.2542383328e+00
 1.4292686120e+00	 2.6120738298e-01	 3.2054618396e+00
 1.4268887969e+00	 2.7390951733e-01	 3.1530992330e+00
 1.4243891180e+00	 2.8662467219e-01	 3.0976544550e+00
 1.4217689221e+00	 2.9935128951e-01	 3.0396564317e+00
 1.4190275800e+00	 3.1208779129e-01	 2.9796592842e+00
 1.4161644880e+00	 3.2483258008e-01	 2.9182425026e+00
 1.4131790682e+00	 3.3758403934e-01	 2.8560110837e+00
 1.4100707686e+00	 3.5034053397e-01	 2.7935956354e+00
 1.4068390647e+00	 3.6310041076e-01	 2.7316524510e+00
 1.4034834591e+00	 3.7586199891e-01	 2.6708635538e+00
 1.4373249060e+00	 2.4952595995e-01	 3.2487356650e+00
 1.4350551246e+00	 2.6226490275e-01	 3.1996777525e+00
 1.4326656746e+00	 2.7501846274e-01	 3.1470052088e+00
 1.4301558756e+00	 2.8778509597e-01	 3.0912298107e+00
 1.4275250715e+00	 3.0056323805e-01	 3.0328891258e+00
 1.4247726309e+00	 3.1335130462e-01	 2.9725467074e+00
 1.4218979475e+00	 3.2614769174e-01	 2.9107922508e+00
 1.4189004409e+00	 3.3895077634e-01	 2.8482417151e+00
 1.4157795572e+00	 3.5175891670e-01	 2.7855374123e+00
 1.4125347694e+00	 3.6457045291e-01	 2.7233480664e+00
 1.4091655784e+00	 3.7738370740e-01	 2.6623688445e+00
 1.4431205709e+00	 2.5053211301e-01	 3.2428541464e+00
 1.4408416372e+00	 2.6332242252e-01	 3.1935393644e+00
 1.4384425523e+00	 2.7612740816e-01	 3.1405902789e+00
 1.4359226332e+00	 2.8894551974e-01	 3.0845233713e+00
 1.4332812210e+00	 3.0177518659e-01	 3.0258817033e+00
 1.4305176819e+00	 3.1461481794e-01	 2.9652350982e+00
 1.4276314070e+00	 3.2746280340e-01	 2.9031802835e+00
 1.4246218136e+00	 3.4031751334e-01	 2.8403409999e+00
 1.4214883457e+00	 3.5317729943e-01	 2.7773680787e+00
 1.4182304741e+00	 3.6604049506e-01	 2.7149394897e+00
 1.4148476977e+00	 3.7890541590e-01	 2.6537603624e+00
 1.4489162358e+00	 2.5153826608e-01	 3.2365571128e+00
 1.4466281498e+00	 2.6437994228e-01	 3.1870061922e+00
 1.4442194300e+00	 2.7723635357e-01	 3.1338102858e+00
 1.4416893907e+00	 2.9010594352e-01	 3.0774874943e+00
 1.4390373705e+00	 3.0298713513e-01	 3.0185832706e+00
 1.4362627328e+00	 3.1587833127e-01	 2.9576705899e+00
 1.4333648664e+00	 3.2877791506e-01	 2.8953500831e+00
 1.4303431864e+00	 3.4168425034e-01	 2.8322501359e+00
 1.4271971342e+00	 3.5459568216e-01	 2.7690269573e+00
 1.4239261789e+00	 3.6751053721e-01	 2.7063646212e+00
 1.4205298169e+00	 3.8042712440e-01	 2.6449750813e+00
 1.3637086243e+00	 3.6521003942e-01	 2.7324708839e+00
 1.3603272707e+00	 3.7760998592e-01	 2.6716669036e+00
 1.3568246428e+00	 3.9000829908e-01	 2.6079892484e+00
 1.3532003411e+00	 4.0240330726e-01	 2.5415047977e+00
 1.3494539945e+00	 4.1479332383e-01	 2.4722823669e+00
 1.3455852616e+00	 4.2717664778e-01	 2.4003931285e+00
 1.3415938309e+00	 4.3955156433e-01	 2.3259110343e+00
 1.3374794209e+00	 4.5191634551e-01	 2.2489132373e+00
 1.3332417813e+00	 4.6426925081e-01	 2.1694805124e+00
 1.3288806929e+00	 4.7660852784e-01	 2.0876976730e+00
 1.3243959681e+00	 4.8893241299e-01	 2.0036539804e+00
 1.3693907435e+00	 3.6673174792e-01	 2.7229937815e+00
 1.3659953010e+00	 3.7918336086e-01	 2.6621469324e+00
 1.3624780789e+00	 3.9163333366e-01	 2.5984121632e+00
 1.3588386758e+00	 4.0407998771e-01	 2.5318303072e+00
 1.3550767195e+00	 4.1652162934e-01	 2.4624445919e+00
 1.3511918669e+00	 4.2895655048e-01	 2.3903011079e+00
 1.3471838052e+00	 4.4138302918e-01	 2.3154492803e+00
 1.3430522519e+00	 4.5379933028e-01	 2.2379423433e+00
 1.3387969554e+00	 4.6620370602e-01	 2.1578378152e+00
 1.3344176958e+00	 4.7859439671e-01	 2.0751979719e+00
 1.3299142846e+00	 4.9096963138e-01	 1.9900903151e+00
 1.3750728628e+00	 3.6825345642e-01	 2.7138486398e+00
 1.3716633313e+00	 3.8075673580e-01	 2.6529363221e+00
 1.3681315149e+00	 3.9325836824e-01	 2.5891087269e+00
 1.3644770106e+00	 4.0575666815e-01	 2.5223863319e+00
 1.3606994445e+00	 4.1824993486e-01	 2.4527925088e+00
 1.3567984722e+00	 4.3073645318e-01	 2.3803540329e+00
 1.3527737795e+00	 4.4321449403e-01	 2.3051015983e+00
 1.3486250828e+00	 4.5568231505e-01	 2.2270703379e+00
 1.3443521295e+00	 4.6813816123e-01	 2.1463003461e+00
 1.3399546987e+00	 4.8058026558e-01	 2.0628372021e+00
 1.3354326012e+00	 4.9300684976e-01	 1.9767324912e+00
 1.3807549821e+00	 3.6977516492e-01	 2.7049713647e+00
 1.3773313615e+00	 3.8233011074e-01	 2.6439702779e+00
 1.3737849509e+00	 3.9488340282e-01	 2.5800133458e+00
 1.3701153453e+00	 4.0743334860e-01	 2.5131063128e+00
 1.3663221694e+00	 4.1997824038e-01	 2.4432583582e+00
 1.3624050774e+00	 4.3251635588e-01	 2.3704826395e+00
 1.3583637538e+00	 4.4504595889e-01	 2.2947968455e+00
 1.3541979137e+00	 4.5756529983e-01	 2.2162237542e+00
 1.3499073036e+00	 4.7007261645e-01	 2.1347917972e+00
 1.3454917016e+00	 4.8256613444e-01	 2.0505356265e+00
 1.3409509177e+00	 4.9504406815e-01	 1.9634966804e+00
 1.3864371013e+00	 3.7129687341e-01	 2.6962979848e+00
 1.3829993918e+00	 3.8390348569e-01	 2.6351841261e+00
 1.3794383869e+00	 3.9650843740e-01	 2.5710605483e+00
 1.3757536801e+00	 4.0911002905e-01	 2.5039238185e+00
 1.3719448944e+00	 4.2170654589e-01	 2.4337745188e+00
 1.3680116827e+00	 4.3429625858e-01	 2.3606178191e+00
 1.3639537281e+00	 4.4687742374e-01	 2.2844640587e+00
 1.3597707446e+00	 4.5944828460e-01	 2.2053293377e+00
 1.3554624777e+00	 4.7200707166e-01	 2.1232361160e+00
 1.3510287044e+00	 4.8455200331e-01	 2.0382138158e+00
 1.3464692342e+00	 4.9708128654e-01	 1.9502994274e+00
 1.3921192206e+00	 3.7281858191e-01	 2.6877646616e+00
 1.3886674221e+00	 3.8547686063e-01	 2.6265133253e+00
 1.3850918229e+00	 3.9813347198e-01	 2.5621849979e+00
 1.3813920148e+00	 4.1078670949e-01	 2.4947725591e+00
 1.3775676194e+00	 4.2343485141e-01	 2.4242735238e+00
 1.3736182879e+00	 4.3607616128e-01	 2.3506906357e+00
 1.3695437024e+00	 4.4870888859e-01	 2.2740324733e+00
 1.3653435755e+00	 4.6133126937e-01	 2.1943140670e+00
 1.3610176518e+00	 4.7394152687e-01	 2.1115575259e+00
 1.3565657073e+00	 4.8653787217e-01	 2.0257926710e+00
 1.3519875508e+00	 4.9911850493e-01	 1.9370576722e+00
 1.3978013399e+00	 3.7434029041e-01	 2.6793076991e+00
 1.3943354524e+00	 3.8705023557e-01	 2.6178934777e+00
 1.3907452589e+00	 3.9975850656e-01	 2.5533215056e+00
 1.3870303496e+00	 4.1246338994e-01	 2.4855864012e+00
 1.3831903444e+00	 4.2516315692e-01	 2.4146880759e+00
 1.3792248932e+00	 4.3785606398e-01	 2.3406323431e+00
 1.3751336767e+00	 4.5054035344e-01	 2.2634315416e+00
 1.3709164065e+00	 4.6321425415e-01	 2.1831051726e+00
 1.3665728259e+00	 4.7587598208e-01	 2.0996805476e+00
 1.3621027102e+00	 4.8852374104e-01	 2.0131934451e+00
 1.3575058673e+00	 5.0115572331e-01	 1.9236887732e+00
 1.4034834591e+00	 3.7586199891e-01	 2.6708635538e+00
 1.4000034827e+00	 3.8862361051e-01	 2.6092603402e+00
 1.3963986949e+00	 4.0138354114e-01	 2.5444050434e+00
 1.3926686844e+00	 4.1414007039e-01	 2.4762993822e+00
 1.3888130693e+00	 4.2689146244e-01	 2.4049510639e+00
 1.3848314984e+00	 4.3963596668e-01	 2.3303744022e+00
 1.3807236510e+00	 4.5237181829e-01	 2.2525909517e+00
 1.3764892374e+00	 4.6509723892e-01	 2.1716301579e+00
 1.3721280000e+00	 4.7781043729e-01	 2.0875300200e+00
 1.3676397131e+00	 4.9050960991e-01	 2.0003377650e+00
 1.3630241838e+00	 5.0319294170e-01	 1.9101105292e+00
 1.4091655784e+00	 3.7738370740e-01	 2.6623688445e+00
 1.4056715130e+00	 3.9019698545e-01	 2.6005498365e+00
 1.4020521309e+00	 4.0300857572e-01	 2.5353707568e+00
 1.3983070191e+00	 4.1581675084e-01	 2.4668457244e+00
 1.3944357943e+00	 4.2861976796e-01	 2.3949955782e+00
 1.3904381037e+00	 4.4141586938e-01	 2.3198484985e+00
 1.3863136252e+00	 4.5420328314e-01	 2.2414406459e+00
 1.3820620683e+00	 4.6698022369e-01	 2.1598168179e+00
 1.3776831741e+00	 4.7974489250e-01	 2.0750311206e+00
 1.3731767160e+00	 4.9249547877e-01	 1.9871476533e+00
 1.3685425004e+00	 5.0523016009e-01	 1.8962412025e+00
 1.4148476977e+00	 3.7890541590e-01	 2.6537603624e+00
 1.4113395433e+00	 3.9177036039e-01	 2.5916980680e+00
 1.4077055669e+00	 4.0463361030e-01	 2.5261539783e+00
 1.4039453539e+00	 4.1749343128e-01	 2.4571598499e+00
 1.4000585193e+00	 4.3034807347e-01	 2.3847549270e+00
 1.3960447090e+00	 4.4319577207e-01	 2.3089865593e+00
 1.3919035995e+00	 4.5603474799e-01	 2.2299108394e+00
 1.3876348992e+00	 4.6886320847e-01	 2.1475932599e+00
 1.3832383481e+00	 4.8167934772e-01	 2.0621093871e+00
 1.3787137189e+00	 4.9448134764e-01	 1.9735455503e+00
 1.3740608169e+00	 5.0726737848e-01	 1.8819995418e+00
 1.4205298169e+00	 3.8042712440e-01	 2.6449750813e+00
 1.4170075736e+00	 3.9334373533e-01	 2.5826413257e+00
 1.4133590030e+00	 4.0625864488e-01	 2.5166902397e+00
 1.4095836886e+00	 4.1917011173e-01	 2.4471763947e+00
 1.4056812443e+00	 4.3207637899e-01	 2.3741626520e+00
 1.4016513142e+00	 4.4497567477e-01	 2.2977207710e+00
 1.3974935738e+00	 4.5786621285e-01	 2.2179320392e+00
 1.3932077301e+00	 4.7074619324e-01	 2.1348879231e+00
 1.3887935222e+00	 4.8361380293e-01	 2.0486907382e+00
 1.3842507218e+00	 4.9646721650e-01	 1.9594543360e+00
 1.3795791334e+00	 5.0930459686e-01	 1.8673048041e+00
 1.3243959681e+00	 4.8893241299e-01	 2.0036539804e+00
 1.3197874515e+00	 5.0123913209e-01	 1.9179237933e+00
 1.3150550204e+00	 5.1352690114e-01	 1.8316618621e+00
 1.3101985846e+00	 5.2579392701e-01	 1.7458530944e+00
 1.3052180876e+00	 5.3803840817e-01	 1.6615106352e+00
 1.3001135062e+00	 5.5025853542e-01	 1.5796752978e+00
 1.2948848514e+00	 5.6245249266e-01	 1.5014149173e+00
 1.2895321682e+00	 5.7461845767e-01	 1.4278236191e+00
 1.2840555365e+00	 5.8675460288e-01	 1.3600209969e+00
 1.2784550707e+00	 5.9885909614e-01	 1.2912057127e+00
 1.2727309204e+00	 6.1093010157e-01	 1.2098048027e+00
 1.3299142846e+00	 4.9096963138e-01	 1.9900903151e+00
 1.3252865659e+00	 5.0332762847e-01	 1.9031888379e+00
 1.3205344163e+00	 5.1566659656e-01	 1.8158186599e+00
 1.3156577454e+00	 5.2798473504e-01	 1.7290506471e+00
 1.3106564963e+00	 5.4028023487e-01	 1.6439851670e+00
 1.3055306458e+00	 5.5255127931e-01	 1.5617514406e+00
 1.3002802049e+00	 5.6479604471e-01	 1.4835068150e+00
 1.2949052189e+00	 5.7701270125e-01	 1.4104359499e+00
 1.2894057679e+00	 5.8919941372e-01	 1.3436854297e+00
 1.2837819668e+00	 6.0135434237e-01	 1.2726415642e+00
 1.2780339659e+00	 6.1347564366e-01	 1.1895221529e+00
 1.3354326012e+00	 4.9300684976e-01	 1.9767324912e+00
 1.3307856803e+00	 5.0541612486e-01	 1.8887614214e+00
 1.3260138122e+00	 5.1780629198e-01	 1.8004119409e+00
 1.3211169061e+00	 5.3017554307e-01	 1.7128329734e+00
 1.3160949050e+00	 5.4252206157e-01	 1.6272041410e+00
 1.3109477854e+00	 5.5484402321e-01	 1.5447350474e+00
 1.3056755585e+00	 5.6713959677e-01	 1.4666644803e+00
 1.3002782696e+00	 5.7940694482e-01	 1.3942595269e+00
 1.2947559993e+00	 5.9164422457e-01	 1.3280137305e+00
 1.2891088629e+00	 6.0384958861e-01	 1.2546981108e+00
 1.2833370114e+00	 6.1602118575e-01	 1.1699378189e+00
 1.3409509177e+00	 4.9504406815e-01	 1.9634966804e+00
 1.3362847947e+00	 5.0750462124e-01	 1.8745531265e+00
 1.3314932081e+00	 5.1994598741e-01	 1.7853484754e+00
 1.3265760669e+00	 5.3236635110e-01	 1.6971019051e+00
 1.3215333137e+00	 5.4476388827e-01	 1.6110644205e+00
 1.3163649250e+00	 5.5713676711e-01	 1.5285180797e+00
 1.3110709120e+00	 5.6948314882e-01	 1.4507751369e+00
 1.3056513203e+00	 5.8180118840e-01	 1.3791770978e+00
 1.3001062307e+00	 5.9408903541e-01	 1.3127484988e+00
 1.2944357591e+00	 6.0634483484e-01	 1.2372717934e+00
 1.2886400569e+00	 6.1856672784e-01	 1.1509496594e+00
 1.3464692342e+00	 4.9708128654e-01	 1.9502994274e+00
 1.3417839091e+00	 5.0959311762e-01	 1.8604759818e+00
 1.3369726040e+00	 5.2208568283e-01	 1.7705355577e+00
 1.3320352277e+00	 5.3455715913e-01	 1.6817598771e+00
 1.3269717224e+00	 5.4700571497e-01	 1.5954635516e+00
 1.3217820646e+00	 5.5942951101e-01	 1.5129932605e+00
 1.3164662655e+00	 5.7182670087e-01	 1.4357268457e+00
 1.3110243710e+00	 5.8419543197e-01	 1.3650723181e+00
 1.3054564621e+00	 5.9653384626e-01	 1.2977879268e+00
 1.2997626552e+00	 6.0884008107e-01	 1.2202616277e+00
 1.2939431024e+00	 6.2111226993e-01	 1.1324581147e+00
 1.3519875508e+00	 4.9911850493e-01	 1.9370576722e+00
 1.3472830234e+00	 5.1168161401e-01	 1.8464424855e+00
 1.3424520000e+00	 5.2422537825e-01	 1.7558810290e+00
 1.3374943884e+00	 5.3674796716e-01	 1.6667099518e+00
 1.3324101311e+00	 5.4924754167e-01	 1.5802997886e+00
 1.3271992042e+00	 5.6172225490e-01	 1.4980541002e+00
 1.3218616191e+00	 5.7417025292e-01	 1.4214085310e+00
 1.3163974217e+00	 5.8658967554e-01	 1.3518297778e+00
 1.3108066935e+00	 5.9897865711e-01	 1.2830327327e+00
 1.3050895513e+00	 6.1133532731e-01	 1.2035691715e+00
 1.2992461479e+00	 6.2365781202e-01	 1.1143661733e+00
 1.3575058673e+00	 5.0115572331e-01	 1.9236887732e+00
 1.3527821378e+00	 5.1377011039e-01	 1.8323656286e+00
 1.3479313959e+00	 5.2636507367e-01	 1.7412933020e+00
 1.3429535492e+00	 5.3893877519e-01	 1.6518558436e+00
 1.3378485398e+00	 5.5148936837e-01	 1.5654721190e+00
 1.3326163438e+00	 5.6401499880e-01	 1.4835949224e+00
 1.3272569726e+00	 5.7651380498e-01	 1.4077100073e+00
 1.3217704724e+00	 5.8898391912e-01	 1.3392978966e+00
 1.3161569249e+00	 6.0142346795e-01	 1.2683861289e+00
 1.3104164474e+00	 6.1383057354e-01	 1.1870984923e+00
 1.3045491934e+00	 6.2620335411e-01	 1.0965793392e+00
 1.3630241838e+00	 5.0319294170e-01	 1.9101105292e+00
 1.3582812522e+00	 5.1585860678e-01	 1.8181589178e+00
 1.3534107918e+00	 5.2850476909e-01	 1.7266813842e+00
 1.3484127100e+00	 5.4112958322e-01	 1.6371019431e+00
 1.3432869485e+00	 5.5373119507e-01	 1.5508802884e+00
 1.3380334835e+00	 5.6630774270e-01	 1.4695108892e+00
 1.3326523262e+00	 5.7885735703e-01	 1.3945220054e+00
 1.3271435231e+00	 5.9137816269e-01	 1.3268257843e+00
 1.3215071563e+00	 6.0386827880e-01	 1.2537537906e+00
 1.3157433436e+00	 6.1632581978e-01	 1.1707561352e+00
 1.3098522389e+00	 6.2874889620e-01	 1.0790055982e+00
 1.3685425004e+00	 5.0523016009e-01	 1.8962412025e+00
 1.3637803666e+00	 5.1794710316e-01	 1.8037363991e+00
 1.3588901877e+00	 5.3064446451e-01	 1.7119549022e+00
 1.3538718708e+00	 5.4332039125e-01	 1.6223533420e+00
 1.3487253572e+00	 5.5597302177e-01	 1.5364248258e+00
 1.3434506231e+00	 5.6860048660e-01	 1.4556980278e+00
 1.3380476797e+00	 5.8120090908e-01	 1.3817361993e+00
 1.3325165738e+00	 5.9377240626e-01	 1.3141402185e+00
 1.3268573877e+00	 6.0631308964e-01	 1.2390438245e+00
 1.3210702397e+00	 6.1882106601e-01	 1.1544510903e+00
 1.3151552844e+00	 6.3129443829e-01	 1.0615553862e+00
 1.3740608169e+00	 5.0726737848e-01	 1.8819995418e+00
 1.3692794810e+00	 5.2003559954e-01	 1.7890126813e+00
 1.3643695836e+00	 5.3278415993e-01	 1.6970241257e+00
 1.3593310315e+00	 5.4551119927e-01	 1.6075158575e+00
 1.3541637659e+00	 5.5821484847e-01	 1.5220070690e+00
 1.3488677627e+00	 5.7089323049e-01	 1.4420532561e+00
 1.3434430333e+00	 5.8354446114e-01	 1.3692452330e+00
 1.3378896245e+00	 5.9616664984e-01	 1.3011512678e+00
 1.3322076191e+00	 6.0875790049e-01	 1.2241667378e+00
 1.3263971358e+00	 6.2131631224e-01	 1.1380947612e+00
 1.3204583299e+00	 6.3383998038e-01	 1.0441415553e+00
 1.3795791334e+00	 5.0930459686e-01	 1.8673048041e+00
 1.3747785954e+00	 5.2212409593e-01	 1.7739029591e+00
 1.3698489795e+00	 5.3492385536e-01	 1.6817999913e+00
 1.3647901923e+00	 5.4770200730e-01	 1.5924960571e+00
 1.3596021745e+00	 5.6045667517e-01	 1.5075291899e+00
 1.3542849023e+00	 5.7318597439e-01	 1.4284744084e+00
 1.3488383868e+00	 5.8588801319e-01	 1.3569427473e+00
 1.3432626752e+00	 5.9856089341e-01	 1.2877713503e+00
 1.3375578505e+00	 6.1120271133e-01	 1.2090354069e+00
 1.3317240320e+00	 6.2381155848e-01	 1.1216009326e+00
 1.3257613754e+00	 6.3638552247e-01	 1.0266793422e+00
 1.2727309204e+00	 6.1093010157e-01	 1.2098048027e+00
 1.2668832706e+00	 6.2296578036e-01	 1.1231719810e+00
 1.2609123416e+00	 6.3496429158e-01	 1.0381131621e+00
 1.2548183896e+00	 6.4692379304e-01	 9.5436923235e-01
 1.2486017064e+00	 6.5884244214e-01	 8.7166361578e-01
 1.2422626200e+00	 6.7071839668e-01	 7.8970403224e-01
 1.2358014945e+00	 6.8254981578e-01	 7.0818441691e-01
 1.2292187299e+00	 6.9433486070e-01	 6.2678699798e-01
 1.2225147628e+00	 7.0607169574e-01	 5.4518452897e-01
 1.2156900658e+00	 7.1775848912e-01	 4.6304267107e-01
 1.2087451479e+00	 7.2939341384e-01	 3.8002251983e-01
 1.2780339659e+00	 6.1347564366e-01	 1.1895221529e+00
 1.2721619509e+00	 6.2556147111e-01	 1.1018037182e+00
 1.2661661430e+00	 6.3760997613e-01	 1.0161471588e+00
 1.2600467995e+00	 6.4961930885e-01	 9.3219678854e-01
 1.2538042135e+00	 6.6158761898e-01	 8.4957761119e-01
 1.2474387143e+00	 6.7351305666e-01	 7.6789722990e-01
 1.2409506674e+00	 6.8539377334e-01	 6.8674792489e-01
 1.2343404746e+00	 6.9722792262e-01	 6.0570889638e-01
 1.2276085743e+00	 7.0901366114e-01	 5.2434866912e-01
 1.2207554411e+00	 7.2074914949e-01	 4.4222765366e-01
 1.2137815860e+00	 7.3243255307e-01	 3.5890085841e-01
 1.2833370114e+00	 6.1602118575e-01	 1.1699378189e+00
 1.2774406312e+00	 6.2815716186e-01	 1.0811716554e+00
 1.2714199444e+00	 6.4025566067e-01	 9.9491978901e-01
 1.2652752095e+00	 6.5231482465e-01	 9.1073922908e-01
 1.2590067206e+00	 6.6433279582e-01	 8.2816587597e-01
 1.2526148085e+00	 6.7630771665e-01	 7.4671656977e-01
 1.2460998403e+00	 6.8823773091e-01	 6.6589131423e-01
 1.2394622193e+00	 7.0012098454e-01	 5.8517567304e-01
 1.2327023858e+00	 7.1195562654e-01	 5.0404333441e-01
 1.2258208163e+00	 7.2373980987e-01	 4.2195883907e-01
 1.2188180242e+00	 7.3547169229e-01	 3.3838046548e-01
 1.2886400569e+00	 6.1856672784e-01	 1.1509496594e+00
 1.2827193115e+00	 6.3075285261e-01	 1.0611755289e+00
 1.2766737459e+00	 6.4290134522e-01	 9.7433282866e-01
 1.2705036194e+00	 6.5501034045e-01	 8.8990041540e-01
 1.2642092277e+00	 6.6707797266e-01	 8.0733428591e-01
 1.2577909028e+00	 6.7910237664e-01	 7.2606975306e-01
 1.2512490132e+00	 6.9108168847e-01	 6.4552380427e-01
 1.2445839640e+00	 7.0301404646e-01	 5.6509763909e-01
 1.2377961973e+00	 7.1489759194e-01	 4.8417938183e-01
 1.2308861916e+00	 7.2673047024e-01	 4.0214696413e-01
 1.2238544623e+00	 7.3851083151e-01	 3.1837117137e-01
 1.2939431024e+00	 6.2111226993e-01	 1.1324581147e+00
 1.2879979918e+00	 6.3334854336e-01	 1.0417176558e+00
 1.2819275473e+00	 6.4554702977e-01	 9.5429063046e-01
 1.2757320294e+00	 6.5770585626e-01	 8.6958678100e-01
 1.2694117348e+00	 6.6982314950e-01	 7.8699128530e-01
 1.2629669970e+00	 6.8189703662e-01	 7.0586704919e-01
 1.2563981861e+00	 6.9392564604e-01	 6.2555718746e-01
 1.2497057088e+00	 7.0590710837e-01	 5.4538769085e-01
 1.2428900088e+00	 7.1783955734e-01	 4.6467027483e-01
 1.2359515669e+00	 7.2972113061e-01	 3.8270540474e-01
 1.2288909004e+00	 7.4154997074e-01	 2.9878549125e-01
 1.2992461479e+00	 6.2365781202e-01	 1.1143661733e+00
 1.2932766721e+00	 6.3594423411e-01	 1.0227028996e+00
 1.2871813487e+00	 6.4819271432e-01	 9.3470008971e-01
 1.2809604393e+00	 6.6040137206e-01	 8.4970729695e-01
 1.2746142419e+00	 6.7256832635e-01	 7.6704785221e-01
 1.2681430913e+00	 6.8469169661e-01	 6.8602126065e-01
 1.2615473589e+00	 6.9676960360e-01	 6.0590579368e-01
 1.2548274535e+00	 7.0880017029e-01	 5.2596127358e-01
 1.2479838204e+00	 7.2078152274e-01	 4.4543204641e-01
 1.2410169422e+00	 7.3271179098e-01	 3.6355013790e-01
 1.2339273385e+00	 7.4458910996e-01	 2.7953858599e-01
 1.3045491934e+00	 6.2620335411e-01	 1.0965793392e+00
 1.2985553523e+00	 6.3853992487e-01	 1.0040386374e+00
 1.2924351501e+00	 6.5083839887e-01	 9.1547061036e-01
 1.2861888493e+00	 6.6309688787e-01	 8.3017343757e-01
 1.2798167491e+00	 6.7531350319e-01	 7.4741746369e-01
 1.2733191855e+00	 6.8748635659e-01	 6.6644768779e-01
 1.2666965318e+00	 6.9961356117e-01	 5.8648645468e-01
 1.2599491982e+00	 7.1169323221e-01	 5.0673634532e-01
 1.2530776319e+00	 7.2372348814e-01	 4.2638326216e-01
 1.2460823174e+00	 7.3570245135e-01	 3.4459970394e-01
 1.2389637766e+00	 7.4762824919e-01	 2.6054822327e-01
 1.3098522389e+00	 6.2874889620e-01	 1.0790055982e+00
 1.3038340326e+00	 6.4113561562e-01	 9.8563472609e-01
 1.2976889516e+00	 6.5348408342e-01	 8.9651407115e-01
 1.2914172593e+00	 6.6579240367e-01	 8.1089914619e-01
 1.2850192562e+00	 6.7805868003e-01	 7.2801606123e-01
 1.2784952798e+00	 6.9028101658e-01	 6.4706409392e-01
 1.2718457047e+00	 7.0245751874e-01	 5.6721846857e-01
 1.2650709429e+00	 7.1458629413e-01	 4.8763334080e-01
 1.2581714434e+00	 7.2666545353e-01	 4.0744498354e-01
 1.2511476927e+00	 7.3869311172e-01	 3.2577516881e-01
 1.2440002147e+00	 7.5066738841e-01	 2.4173473876e-01
 1.3151552844e+00	 6.3129443829e-01	 1.0615553862e+00
 1.3091127129e+00	 6.4373130637e-01	 9.6740346910e-01
 1.3029427530e+00	 6.5612976796e-01	 8.7774479187e-01
 1.2966456692e+00	 6.6848791948e-01	 7.9180080106e-01
 1.2902217633e+00	 6.8080385687e-01	 7.0876201627e-01
 1.2836713740e+00	 6.9307567657e-01	 6.2779067032e-01
 1.2769948776e+00	 7.0530147630e-01	 5.4802356445e-01
 1.2701926876e+00	 7.1747935605e-01	 4.6857513555e-01
 1.2632652549e+00	 7.2960741893e-01	 3.8854073114e-01
 1.2562130680e+00	 7.4168377209e-01	 3.0700008651e-01
 1.2490366529e+00	 7.5370652764e-01	 2.2302099743e-01
 1.3204583299e+00	 6.3383998038e-01	 1.0441415553e+00
 1.3143913932e+00	 6.4632699712e-01	 9.4925958316e-01
 1.3081965544e+00	 6.5877545251e-01	 8.5907949976e-01
 1.3018740792e+00	 6.7118343528e-01	 7.7279718132e-01
 1.2954242704e+00	 6.8354903372e-01	 6.8957609578e-01
 1.2888474683e+00	 6.9587033655e-01	 6.0855000150e-01
 1.2821440505e+00	 7.0814543387e-01	 5.2882586713e-01
 1.2753144323e+00	 7.2037241797e-01	 4.4948700995e-01
 1.2683590664e+00	 7.3254938433e-01	 3.6959644813e-01
 1.2612784433e+00	 7.4467443246e-01	 2.8820046165e-01
 1.2540730910e+00	 7.5674566686e-01	 2.0433235500e-01
 1.3257613754e+00	 6.3638552247e-01	 1.0266793422e+00
 1.3196700735e+00	 6.4892268787e-01	 9.3112016529e-01
 1.3134503558e+00	 6.6142113706e-01	 8.4043729602e-01
 1.3071024891e+00	 6.7387895108e-01	 7.5380943312e-01
 1.3006267775e+00	 6.8629421056e-01	 6.7038142799e-01
 1.2940235625e+00	 6.9866499654e-01	 5.8926703044e-01
 1.2872932234e+00	 7.1098939143e-01	 5.0955186195e-01
 1.2804361770e+00	 7.2326547989e-01	 4.3029661351e-01
 1.2734528779e+00	 7.3549134973e-01	 3.5054046376e-01
 1.2663438185e+00	 7.4766509284e-01	 2.6930471204e-01
 1.2591095291e+00	 7.5978480608e-01	 1.8559661952e-01
 1.2087451479e+00	 7.2939341384e-01	 3.8002251983e-01
 1.2016805544e+00	 7.4097464858e-01	 2.9835126420e-01
 1.1944968669e+00	 7.5250037859e-01	 2.2044623164e-01
 1.1871947029e+00	 7.6396879658e-01	 1.4626525580e-01
 1.1797747163e+00	 7.7537810361e-01	 7.5786310466e-02
 1.1722375968e+00	 7.8672650995e-01	 8.2303964150e-03
 1.1645840699e+00	 7.9801223604e-01	-5.9857769022e-02
 1.1568148969e+00	 8.0923351332e-01	-1.2833510208e-01
 1.1489308744e+00	 8.2038858510e-01	-1.9651092958e-01
 1.1409328344e+00	 8.3147570753e-01	-2.6364858772e-01
 1.1328216437e+00	 8.4249315036e-01	-3.2896613150e-01
 1.2137815860e+00	 7.3243255307e-01	 3.5890085841e-01
 1.2066875568e+00	 7.4406204295e-01	 2.7659159171e-01
 1.1994739372e+00	 7.5563579684e-01	 1.9780289760e-01
 1.1921413475e+00	 7.6715199990e-01	 1.2252038585e-01
 1.1846904443e+00	 7.7860884570e-01	 5.0749795697e-02
 1.1771219201e+00	 7.9000453708e-01	-1.7480023983e-02
 1.1694365035e+00	 8.0133728703e-01	-8.4139602445e-02
 1.1616349590e+00	 8.1260531962e-01	-1.5157773380e-01
 1.1537180864e+00	 8.2380687087e-01	-2.1908697404e-01
 1.1456867212e+00	 8.3494018964e-01	-2.8589469523e-01
 1.1375417339e+00	 8.4600353848e-01	-3.5118217395e-01
 1.2188180242e+00	 7.3547169229e-01	 3.3838046548e-01
 1.2116945591e+00	 7.4714943732e-01	 2.5553278841e-01
 1.2044510074e+00	 7.5877121508e-01	 1.7599748474e-01
 1.1970879921e+00	 7.7033520322e-01	 9.9778881388e-02
 1.1896061723e+00	 7.8183958780e-01	 2.6901374162e-02
 1.1820062434e+00	 7.9328256420e-01	-4.2587557262e-02
 1.1742889372e+00	 8.0466233801e-01	-1.0880783063e-01
 1.1664550210e+00	 8.1597712593e-01	-1.7492771830e-01
 1.1585052984e+00	 8.2722515665e-01	-2.4151258469e-01
 1.1504406080e+00	 8.3840467175e-01	-3.0776289709e-01
 1.1422618240e+00	 8.4951392661e-01	-3.7283215327e-01
 1.2238544623e+00	 7.3851083151e-01	 3.1837117137e-01
 1.2167015614e+00	 7.5023683169e-01	 2.3508323327e-01
 1.2094280777e+00	 7.6190663333e-01	 1.5493676802e-01
 1.2020346367e+00	 7.7351840654e-01	 7.7945866293e-02
 1.1945219003e+00	 7.8507032990e-01	 4.1445772302e-03
 1.1868905667e+00	 7.9656059133e-01	-6.6410028969e-02
 1.1791413708e+00	 8.0798738899e-01	-1.3363472027e-01
 1.1712750831e+00	 8.1934893223e-01	-1.9844644629e-01
 1.1632925104e+00	 8.3064344242e-01	-2.6384963282e-01
 1.1551944948e+00	 8.4186915387e-01	-3.2931501839e-01
 1.1469819142e+00	 8.5302431474e-01	-3.9397721844e-01
 1.2288909004e+00	 7.4154997074e-01	 2.9878549125e-01
 1.2217085637e+00	 7.5332422606e-01	 2.1515404510e-01
 1.2144051480e+00	 7.6504205157e-01	 1.3453032017e-01
 1.2069812813e+00	 7.7670160986e-01	 5.6929321265e-02
 1.1994376282e+00	 7.8830107200e-01	-1.7614148485e-02
 1.1917748901e+00	 7.9983861845e-01	-8.9042364817e-02
 1.1839938044e+00	 8.1131243998e-01	-1.5727147741e-01
 1.1760951452e+00	 8.2272073854e-01	-2.2219357655e-01
 1.1680797223e+00	 8.3406172819e-01	-2.8615820122e-01
 1.1599483816e+00	 8.4533363598e-01	-3.5061105251e-01
 1.1517020044e+00	 8.5653470286e-01	-4.1467665892e-01
 1.2339273385e+00	 7.4458910996e-01	 2.7953858599e-01
 1.2267155660e+00	 7.5641162043e-01	 1.9565904222e-01
 1.2193822183e+00	 7.6817746981e-01	 1.1469046999e-01
 1.2119279259e+00	 7.7988481318e-01	 3.6640040862e-02
 1.2043533562e+00	 7.9153181410e-01	-3.8465485303e-02
 1.1966592134e+00	 8.0311664558e-01	-1.1057656453e-01
 1.1888462380e+00	 8.1463749096e-01	-1.7961758680e-01
 1.1809152073e+00	 8.2609254484e-01	-2.4548352154e-01
 1.1728669343e+00	 8.3748001396e-01	-3.0849655444e-01
 1.1647022684e+00	 8.4879811810e-01	-3.7170913120e-01
 1.1564220946e+00	 8.6004509099e-01	-4.3498787421e-01
 1.2389637766e+00	 7.4762824919e-01	 2.6054822327e-01
 1.2317225683e+00	 7.5949901480e-01	 1.7651470220e-01
 1.2243592886e+00	 7.7131288806e-01	 9.5332260908e-02
 1.2168745705e+00	 7.8306801650e-01	 1.6991590738e-02
 1.2092690842e+00	 7.9476255620e-01	-5.8497288443e-02
 1.2015435367e+00	 8.0639467270e-01	-1.3110174690e-01
 1.1936986717e+00	 8.1796254194e-01	-2.0076317330e-01
 1.1857352693e+00	 8.2946435115e-01	-2.6739352621e-01
 1.1776541463e+00	 8.4089829973e-01	-3.3087182373e-01
 1.1694561552e+00	 8.5226260021e-01	-3.9266549434e-01
 1.1611421848e+00	 8.6355547912e-01	-4.5496634306e-01
 1.2440002147e+00	 7.5066738841e-01	 2.4173473876e-01
 1.2367295706e+00	 7.6258640917e-01	 1.5764012184e-01
 1.2293363588e+00	 7.7444830630e-01	 7.6373409603e-02
 1.2218212151e+00	 7.8625121982e-01	-2.0997349281e-03
 1.2141848122e+00	 7.9799329829e-01	-7.7794629781e-02
 1.2064278600e+00	 8.0967269983e-01	-1.5070419467e-01
 1.1985511053e+00	 8.2128759293e-01	-2.2079547667e-01
 1.1905553314e+00	 8.3283615745e-01	-2.8800609489e-01
 1.1824413583e+00	 8.4431658550e-01	-3.5224061917e-01
 1.1742100421e+00	 8.5572708233e-01	-4.1353445945e-01
 1.1658622749e+00	 8.6706586724e-01	-4.7466559254e-01
 1.2490366529e+00	 7.5370652764e-01	 2.2302099743e-01
 1.2417365729e+00	 7.6567380353e-01	 1.3895697723e-01
 1.2343134291e+00	 7.7758372455e-01	 5.7734264858e-02
 1.2267678597e+00	 7.8943442314e-01	-2.0714955821e-02
 1.2191005402e+00	 8.0122404039e-01	-9.6439841395e-02
 1.2113121833e+00	 8.1295072695e-01	-1.6946739909e-01
 1.2034035389e+00	 8.2461264391e-01	-2.3979889720e-01
 1.1953753935e+00	 8.3620796376e-01	-3.0740619001e-01
 1.1872285702e+00	 8.4773487127e-01	-3.7222797240e-01
 1.1789639289e+00	 8.5919156444e-01	-4.3416598086e-01
 1.1705823651e+00	 8.7057625537e-01	-4.9413716675e-01
 1.2540730910e+00	 7.5674566686e-01	 2.0433235500e-01
 1.2467435752e+00	 7.6876119790e-01	 1.2038948398e-01
 1.2392904994e+00	 7.8071914279e-01	 3.9337766554e-02
 1.2317145043e+00	 7.9261762646e-01	-3.8932447697e-02
 1.2240162682e+00	 8.0445478249e-01	-1.1451255892e-01
 1.2161965067e+00	 8.1622875407e-01	-1.8747210438e-01
 1.2082559725e+00	 8.2793769489e-01	-2.5785504102e-01
 1.2001954555e+00	 8.3957977006e-01	-3.2567593777e-01
 1.1920157822e+00	 8.5115315704e-01	-3.9091609320e-01
 1.1837178157e+00	 8.6265604656e-01	-4.5351959528e-01
 1.1753024553e+00	 8.7408664349e-01	-5.1343059532e-01
 1.2591095291e+00	 7.5978480608e-01	 1.8559661952e-01
 1.2517505775e+00	 7.7184859227e-01	 1.0186435757e-01
 1.2442675697e+00	 7.8385456104e-01	 2.1109404820e-02
 1.2366611489e+00	 7.9580082977e-01	-5.6827984413e-02
 1.2289319961e+00	 8.0768552459e-01	-1.3208976472e-01
 1.2210808300e+00	 8.1950678120e-01	-2.0479635190e-01
 1.2131084062e+00	 8.3126274588e-01	-2.7504276517e-01
 1.2050155176e+00	 8.4295157637e-01	-3.4289467410e-01
 1.1968029942e+00	 8.5457144282e-01	-4.0838436626e-01
 1.1884717025e+00	 8.6612052867e-01	-4.7150665270e-01
 1.1800225455e+00	 8.7759703162e-01	-5.3221472969e-01
 1.1328216437e+00	 8.4249315036e-01	-3.2896613150e-01
 1.1245982039e+00	 8.5343919790e-01	-3.9373586150e-01
 1.1162634512e+00	 8.6431214986e-01	-4.5942907308e-01
 1.1078183555e+00	 8.7511032218e-01	-5.2548231407e-01
 1.0992639208e+00	 8.8583204792e-01	-5.9127092524e-01
 1.0906011844e+00	 8.9647567807e-01	-6.5611040981e-01
 1.0818312164e+00	 9.0703958240e-01	-7.1925808395e-01
 1.0729551195e+00	 9.1752215026e-01	-7.7991500667e-01
 1.0639740287e+00	 9.2792179142e-01	-8.3722818589e-01
 1.0548891103e+00	 9.3823693684e-01	-8.9029305600e-01
 1.0457015620e+00	 9.4846603943e-01	-9.3815622052e-01
 1.1375417339e+00	 8.4600353848e-01	-3.5118217395e-01
 1.1292840298e+00	 8.5699519456e-01	-4.1607710912e-01
 1.1209145489e+00	 8.6791345048e-01	-4.8191940821e-01
 1.1124342653e+00	 8.7875661519e-01	-5.4812695649e-01
 1.1038441872e+00	 8.8952301479e-01	-6.1405496156e-01
 1.0951453560e+00	 9.0021099340e-01	-6.7899734757e-01
 1.0863388464e+00	 9.1081891399e-01	-7.4218843818e-01
 1.0774257659e+00	 9.2134515922e-01	-8.0280492662e-01
 1.0684072538e+00	 9.3178813222e-01	-8.5996812977e-01
 1.0592844816e+00	 9.4214625741e-01	-9.1274652127e-01
 1.0500586519e+00	 9.5241798127e-01	-9.6015853739e-01
 1.1422618240e+00	 8.4951392661e-01	-3.7283215327e-01
 1.1339698556e+00	 8.6055119122e-01	-4.3770583832e-01
 1.1255656466e+00	 8.7151475111e-01	-5.0358623646e-01
 1.1170501751e+00	 8.8240290820e-01	-5.6986853048e-01
 1.1084244535e+00	 8.9321398165e-01	-6.3588368988e-01
 1.0996895276e+00	 9.0394630872e-01	-7.0089989532e-01
 1.0908464765e+00	 9.1459824559e-01	-7.6412425969e-01
 1.0818964122e+00	 9.2516816818e-01	-8.2470484435e-01
 1.0728404790e+00	 9.3565447302e-01	-8.8173296725e-01
 1.0636798529e+00	 9.4605557798e-01	-9.3424579799e-01
 1.0544157417e+00	 9.5636992310e-01	-9.8122923347e-01
 1.1469819142e+00	 8.5302431474e-01	-3.9397721844e-01
 1.1386556815e+00	 8.6410718788e-01	-4.5868209313e-01
 1.1302167443e+00	 8.7511605173e-01	-5.2448837443e-01
 1.1216660849e+00	 8.8604920121e-01	-5.9076455688e-01
 1.1130047198e+00	 8.9690494852e-01	-6.5681332063e-01
 1.1042336992e+00	 9.0768162405e-01	-7.2187299153e-01
 1.0953541066e+00	 9.1837757718e-01	-7.8511930596e-01
 1.0863670585e+00	 9.2899117714e-01	-8.4566747907e-01
 1.0772737041e+00	 9.3952081382e-01	-9.0257457310e-01
 1.0680752242e+00	 9.4996489855e-01	-9.5484216068e-01
 1.0587728315e+00	 9.6032186493e-01	-1.0014192767e+00
 1.1517020044e+00	 8.5653470286e-01	-4.1467665892e-01
 1.1433415073e+00	 8.6766318453e-01	-4.7906404246e-01
 1.1348678420e+00	 8.7871735236e-01	-5.4468275531e-01
 1.1262819948e+00	 8.8969549422e-01	-6.1087067144e-01
 1.1175849862e+00	 9.0059591539e-01	-6.7689818335e-01
 1.1087778708e+00	 9.1141693937e-01	-7.4196970304e-01
 1.0998617367e+00	 9.2215690877e-01	-8.0522547635e-01
 1.0908377049e+00	 9.3281418610e-01	-8.6574370891e-01
 1.0817069292e+00	 9.4338715461e-01	-9.2254300072e-01
 1.0724705955e+00	 9.5387421912e-01	-9.7458508399e-01
 1.0631299214e+00	 9.6427380676e-01	-1.0207778577e+00
 1.1564220946e+00	 8.6004509099e-01	-4.3498787421e-01
 1.1480273332e+00	 8.7121918119e-01	-4.9890794896e-01
 1.1395189397e+00	 8.8231865298e-01	-5.6422439706e-01
 1.1308979046e+00	 8.9334178723e-01	-6.3024059231e-01
 1.1221652525e+00	 9.0428688225e-01	-6.9619069339e-01
 1.1133220424e+00	 9.1515225470e-01	-7.6124119106e-01
 1.1043693667e+00	 9.2593624037e-01	-8.2449277743e-01
 1.0953083512e+00	 9.3663719506e-01	-8.8498253553e-01
 1.0861401543e+00	 9.4725349541e-01	-9.4168644608e-01
 1.0768659668e+00	 9.5778353969e-01	-9.9352220616e-01
 1.0674870112e+00	 9.6822574859e-01	-1.0393523528e+00
 1.1611421848e+00	 8.6355547912e-01	-4.5496634306e-01
 1.1527131590e+00	 8.7477517785e-01	-5.1826813765e-01
 1.1441700374e+00	 8.8591995361e-01	-5.8316637035e-01
 1.1355138144e+00	 8.9698808024e-01	-6.4892608724e-01
 1.1267455189e+00	 9.0797784912e-01	-7.1474131844e-01
 1.1178662140e+00	 9.1888757002e-01	-7.7973667690e-01
 1.1088769968e+00	 9.2971557196e-01	-8.4296928799e-01
 1.0997789975e+00	 9.4046020402e-01	-9.0343104850e-01
 1.0905733794e+00	 9.5111983621e-01	-9.6005121157e-01
 1.0812613381e+00	 9.6169286026e-01	-1.0116992923e+00
 1.0718441011e+00	 9.7217769042e-01	-1.0571882868e+00
 1.1658622749e+00	 8.6706586724e-01	-4.7466559254e-01
 1.1573989849e+00	 8.7833117451e-01	-5.3719696427e-01
 1.1488211351e+00	 8.8952125423e-01	-6.0155976624e-01
 1.1401297242e+00	 9.0063437325e-01	-6.6697694054e-01
 1.1313257852e+00	 9.1166881599e-01	-7.3259854477e-01
 1.1224103856e+00	 9.2262288535e-01	-7.9750340752e-01
 1.1133846269e+00	 9.3349490355e-01	-8.6070112391e-01
 1.1042496439e+00	 9.4428321298e-01	-9.2113438954e-01
 1.0950066046e+00	 9.5498617701e-01	-9.7768166956e-01
 1.0856567094e+00	 9.6560218083e-01	-1.0291601974e+00
 1.0762011909e+00	 9.7612963225e-01	-1.0743292956e+00
 1.1705823651e+00	 8.7057625537e-01	-4.9413716675e-01
 1.1620848107e+00	 8.8188717116e-01	-5.5574478341e-01
 1.1534722329e+00	 8.9312255486e-01	-6.1945366364e-01
 1.1447456340e+00	 9.0428066626e-01	-6.8444091986e-01
 1.1359060515e+00	 9.1535978285e-01	-7.4980884322e-01
 1.1269545572e+00	 9.2635820067e-01	-8.1458662089e-01
 1.1178922569e+00	 9.3727423515e-01	-8.7773240282e-01
 1.1087202902e+00	 9.4810622194e-01	-9.3813571650e-01
 1.0994398297e+00	 9.5885251780e-01	-9.9462022589e-01
 1.0900520807e+00	 9.6951150140e-01	-1.0459468293e+00
 1.0805582808e+00	 9.8008157408e-01	-1.0908170888e+00
 1.1753024553e+00	 8.7408664349e-01	-5.1343059532e-01
 1.1667706366e+00	 8.8544316782e-01	-5.7395991638e-01
 1.1581233306e+00	 8.9672385548e-01	-6.3689509646e-01
 1.1493615438e+00	 9.0792695926e-01	-7.0136374268e-01
 1.1404863179e+00	 9.1905074972e-01	-7.6641663510e-01
 1.1314987288e+00	 9.3009351600e-01	-8.3102951107e-01
 1.1223998870e+00	 9.4105356674e-01	-8.9410520859e-01
 1.1131909365e+00	 9.5192923090e-01	-9.5447616725e-01
 1.1038730548e+00	 9.6271885860e-01	-1.0109072831e+00
 1.0944474520e+00	 9.7342082197e-01	-1.0620991118e+00
 1.0849153706e+00	 9.8403351591e-01	-1.1066914122e+00
 1.1800225455e+00	 8.7759703162e-01	-5.3221472969e-01
 1.1714564624e+00	 8.8899916448e-01	-5.9188861884e-01
 1.1627744283e+00	 9.0032515610e-01	-6.5392902066e-01
 1.1539774536e+00	 9.1157325227e-01	-7.1778904257e-01
 1.1450665842e+00	 9.2274171658e-01	-7.8246425771e-01
 1.1360429004e+00	 9.3382883132e-01	-8.4687319321e-01
 1.1269075171e+00	 9.4483289833e-01	-9.0985955555e-01
 1.1176615829e+00	 9.5575223986e-01	-9.7019482329e-01
 1.1083062799e+00	 9.6658519940e-01	-1.0265812036e+00
 1.0988428233e+00	 9.7733014254e-01	-1.0776549465e+00
 1.0892724604e+00	 9.8798545774e-01	-1.1219900098e+00
 1.0457015620e+00	 9.4846603943e-01	-9.3815622052e-01
 1.0364126119e+00	 9.5860757490e-01	-9.8534693208e-01
 1.0270235182e+00	 9.6866004241e-01	-1.0362806595e+00
 1.0175355687e+00	 9.7862196540e-01	-1.0897800088e+00
 1.0079500800e+00	 9.8849189224e-01	-1.1446459697e+00
 9.9826839697e-01	 9.9826839697e-01	-1.1996618391e+00
 9.8849189224e-01	 1.0079500800e+00	-1.2535973175e+00
 9.7862196540e-01	 1.0175355687e+00	-1.3052127608e+00
 9.6866004241e-01	 1.0270235182e+00	-1.3532635701e+00
 9.5860757490e-01	 1.0364126119e+00	-1.3965047023e+00
 9.4846603943e-01	 1.0457015620e+00	-1.4336952783e+00
 1.0500586519e+00	 9.5241798127e-01	-9.6015853739e-01
 1.0407309978e+00	 9.6260177313e-01	-1.0068080431e+00
 1.0313027829e+00	 9.7269612592e-01	-1.0572043739e+00
 1.0217753003e+00	 9.8269955692e-01	-1.1101692722e+00
 1.0121498720e+00	 9.9261060845e-01	-1.1645019501e+00
 1.0024278486e+00	 1.0024278486e+00	-1.2189830677e+00
 9.9261060845e-01	 1.0121498720e+00	-1.2723788893e+00
 9.8269955692e-01	 1.0217753003e+00	-1.3234456012e+00
 9.7269612592e-01	 1.0313027829e+00	-1.3709337737e+00
 9.6260177313e-01	 1.0407309978e+00	-1.4135929473e+00
 9.5241798127e-01	 1.0500586519e+00	-1.4501763227e+00
 1.0544157417e+00	 9.5636992310e-01	-9.8122923347e-01
 1.0450493837e+00	 9.6659597136e-01	-1.0273582189e+00
 1.0355820476e+00	 9.7673220943e-01	-1.0772354927e+00
 1.0260150318e+00	 9.8677714845e-01	-1.1296821237e+00
 1.0163496640e+00	 9.9672932467e-01	-1.1834957070e+00
 1.0065873003e+00	 1.0065873003e+00	-1.2374543969e+00
 9.9672932467e-01	 1.0163496640e+00	-1.2903211243e+00
 9.8677714845e-01	 1.0260150318e+00	-1.3408479814e+00
 9.7673220943e-01	 1.0355820476e+00	-1.3877807560e+00
 9.6659597136e-01	 1.0450493837e+00	-1.4298635950e+00
 9.5636992310e-01	 1.0544157417e+00	-1.4658437778e+00
 1.0587728315e+00	 9.6032186493e-01	-1.0014192767e+00
 1.0493677696e+00	 9.7059016959e-01	-1.0470483478e+00
 1.0398613122e+00	 9.8076829295e-01	-1.0964249456e+00
 1.0302547633e+00	 9.9085473997e-01	-1.1483696452e+00
 1.0205494560e+00	 1.0008480409e+00	-1.2016785744e+00
 1.0107467519e+00	 1.0107467519e+00	-1.2551275016e+00
 1.0008480409e+00	 1.0205494560e+00	-1.3074761148e+00
 9.9085473997e-01	 1.0302547633e+00	-1.3574724742e+00
 9.8076829295e-01	 1.0398613122e+00	-1.4038576203e+00
 9.7059016959e-01	 1.0493677696e+00	-1.4453703157e+00
 9.6032186493e-01	 1.0587728315e+00	-1.4807519025e+00
 1.0631299214e+00	 9.6427380676e-01	-1.0207778577e+00
 1.0536861554e+00	 9.7458436781e-01	-1.0659275652e+00
 1.0441405769e+00	 9.8480437646e-01	-1.1148219376e+00
 1.0344944949e+00	 9.9493233149e-01	-1.1662812262e+00
 1.0247492480e+00	 1.0049667571e+00	-1.2191002303e+00
 1.0149062036e+00	 1.0149062036e+00	-1.2720524404e+00
 1.0049667571e+00	 1.0247492480e+00	-1.3238943801e+00
 9.9493233149e-01	 1.0344944949e+00	-1.3733701275e+00
 9.8480437646e-01	 1.0441405769e+00	-1.4192159970e+00
 9.7458436781e-01	 1.0536861554e+00	-1.4601653624e+00
 9.6427380676e-01	 1.0631299214e+00	-1.4949535980e+00
 1.0674870112e+00	 9.6822574859e-01	-1.0393523528e+00
 1.0580045413e+00	 9.7857856604e-01	-1.0840432166e+00
 1.0484198415e+00	 9.8884045997e-01	-1.1324739118e+00
 1.0387342264e+00	 9.9900992301e-01	-1.1834645259e+00
 1.0289490400e+00	 1.0090854733e+00	-1.2358086576e+00
 1.0190656552e+00	 1.0190656552e+00	-1.2882776165e+00
 1.0090854733e+00	 1.0289490400e+00	-1.3396248281e+00
 9.9900992301e-01	 1.0387342264e+00	-1.3885904250e+00
 9.8884045997e-01	 1.0484198415e+00	-1.4339060042e+00
 9.7857856604e-01	 1.0580045413e+00	-1.4742995312e+00
 9.6822574859e-01	 1.0674870112e+00	-1.5085003682e+00
 1.0718441011e+00	 9.7217769042e-01	-1.0571882868e+00
 1.0623229272e+00	 9.8257276427e-01	-1.1014408198e+00
 1.0526991062e+00	 9.9287654348e-01	-1.1494265112e+00
 1.0429739579e+00	 1.0030875145e+00	-1.1999654349e+00
 1.0331488320e+00	 1.0132041895e+00	-1.2518501063e+00
 1.0232251069e+00	 1.0232251069e+00	-1.3038497396e+00
 1.0132041895e+00	 1.0331488320e+00	-1.3547147165e+00
 1.0030875145e+00	 1.0429739579e+00	-1.4031812478e+00
 9.9287654348e-01	 1.0526991062e+00	-1.4479762082e+00
 9.8257276427e-01	 1.0623229272e+00	-1.4878221222e+00
 9.7217769042e-01	 1.0718441011e+00	-1.5214422804e+00
 1.0762011909e+00	 9.7612963225e-01	-1.0743292956e+00
 1.0666413131e+00	 9.8656696250e-01	-1.1181640271e+00
 1.0569783708e+00	 9.9691262699e-01	-1.1657235409e+00
 1.0472136895e+00	 1.0071651061e+00	-1.2158280371e+00
 1.0373486240e+00	 1.0173229058e+00	-1.2672690549e+00
 1.0273845585e+00	 1.0273845585e+00	-1.3188137869e+00
 1.0173229058e+00	 1.0373486240e+00	-1.3692096132e+00
 1.0071651061e+00	 1.0472136895e+00	-1.4171888346e+00
 9.9691262699e-01	 1.0569783708e+00	-1.4614735845e+00
 9.8656696250e-01	 1.0666413131e+00	-1.5007808999e+00
 9.7612963225e-01	 1.0762011909e+00	-1.5338279257e+00
 1.0805582808e+00	 9.8008157408e-01	-1.0908170888e+00
 1.0709596990e+00	 9.9056116073e-01	-1.1342545877e+00
 1.0612576355e+00	 1.0009487105e+00	-1.1814069295e+00
 1.0514534210e+00	 1.0112426976e+00	-1.2310945710e+00
 1.0415484160e+00	 1.0214416220e+00	-1.2821081712e+00
 1.0315440102e+00	 1.0315440102e+00	-1.3332129639e+00
 1.0214416220e+00	 1.0415484160e+00	-1.3831533581e+00
 1.0112426976e+00	 1.0514534210e+00	-1.4306577426e+00
 1.0009487105e+00	 1.0612576355e+00	-1.4744434783e+00
 9.9056116073e-01	 1.0709596990e+00	-1.5132220533e+00
 9.8008157408e-01	 1.0805582808e+00	-1.5457043790e+00
 1.0849153706e+00	 9.8403351591e-01	-1.1066914122e+00
 1.0752780849e+00	 9.9455535896e-01	-1.1497523098e+00
 1.0655369002e+00	 1.0049847940e+00	-1.1965166914e+00
 1.0556931525e+00	 1.0153202891e+00	-1.2458053914e+00
 1.0457482080e+00	 1.0255603382e+00	-1.2964082740e+00
 1.0357034619e+00	 1.0357034619e+00	-1.3470886661e+00
 1.0255603382e+00	 1.0457482080e+00	-1.3965880231e+00
 1.0153202891e+00	 1.0556931525e+00	-1.4436308084e+00
 1.0049847940e+00	 1.0655369002e+00	-1.4869295648e+00
 9.9455535896e-01	 1.0752780849e+00	-1.5251901570e+00
 9.8403351591e-01	 1.0849153706e+00	-1.5571171597e+00
 1.0892724604e+00	 9.8798545774e-01	-1.1219900098e+00
 1.0795964707e+00	 9.9854955719e-01	-1.1646950220e+00
 1.0698161648e+00	 1.0090208775e+00	-1.2110908881e+00
 1.0599328841e+00	 1.0193978806e+00	-1.2599989305e+00
 1.0499480000e+00	 1.0296790544e+00	-1.3102082940e+00
 1.0398629135e+00	 1.0398629135e+00	-1.3604804389e+00
 1.0296790544e+00	 1.0499480000e+00	-1.4095538734e+00
 1.0193978806e+00	 1.0599328841e+00	-1.4561491082e+00
 1.0090208775e+00	 1.0698161648e+00	-1.4989738100e+00
 9.9854955719e-01	 1.0795964707e+00	-1.5367281310e+00
 9.8798545774e-01	 1.0892724604e+00	-1.5681101918e+00
 9.4846603943e-01	 1.0457015620e+00	-1.4336952783e+00
 9.3823693684e-01	 1.0548891103e+00	-1.4689677338e+00
 9.2792179142e-01	 1.0639740287e+00	-1.5066929292e+00
 9.1752215026e-01	 1.0729551195e+00	-1.5460205374e+00
 9.0703958240e-01	 1.0818312164e+00	-1.5861395117e+00
 8.9647567807e-01	 1.0906011844e+00	-1.6262821841e+00
 8.8583204792e-01	 1.0992639208e+00	-1.6657283061e+00
 8.7511032218e-01	 1.1078183555e+00	-1.7038090134e+00
 8.6431214986e-01	 1.1162634512e+00	-1.7399106887e+00
 8.5343919790e-01	 1.1245982039e+00	-1.7734787045e+00
 8.4249315036e-01	 1.1328216437e+00	-1.8040210209e+00
 9.5241798127e-01	 1.0500586519e+00	-1.4501763227e+00
 9.4214625741e-01	 1.0592844816e+00	-1.4849250233e+00
 9.3178813222e-01	 1.0684072538e+00	-1.5222939216e+00
 9.2134515922e-01	 1.0774257659e+00	-1.5613897703e+00
 9.1081891399e-01	 1.0863388464e+00	-1.6013591714e+00
 9.0021099340e-01	 1.0951453560e+00	-1.6413928158e+00
 8.8952301479e-01	 1.1038441872e+00	-1.6807296672e+00
 8.7875661519e-01	 1.1124342653e+00	-1.7186610680e+00
 8.6791345048e-01	 1.1209145489e+00	-1.7545347439e+00
 8.5699519456e-01	 1.1292840298e+00	-1.7877586859e+00
 8.4600353848e-01	 1.1375417339e+00	-1.8178048854e+00
 9.5636992310e-01	 1.0544157417e+00	-1.4658437778e+00
 9.4605557798e-01	 1.0636798529e+00	-1.5000737777e+00
 9.3565447302e-01	 1.0728404790e+00	-1.5370928744e+00
 9.2516816818e-01	 1.0818964122e+00	-1.5759614898e+00
 9.1459824559e-01	 1.0908464765e+00	-1.6157804806e+00
 9.0394630872e-01	 1.0996895276e+00	-1.6556955263e+00
 8.9321398165e-01	 1.1084244535e+00	-1.6949014622e+00
 8.8240290820e-01	 1.1170501751e+00	-1.7326465342e+00
 8.7151475111e-01	 1.1255656466e+00	-1.7682365512e+00
 8.6055119122e-01	 1.1339698556e+00	-1.8010389131e+00
 8.4951392661e-01	 1.1422618240e+00	-1.8304864903e+00
 9.6032186493e-01	 1.0587728315e+00	-1.4807519025e+00
 9.4996489855e-01	 1.0680752242e+00	-1.5144689601e+00
 9.3952081382e-01	 1.0772737041e+00	-1.5511456917e+00
 9.2899117714e-01	 1.0863670585e+00	-1.5897928036e+00
 9.1837757718e-01	 1.0953541066e+00	-1.6294620384e+00
 9.0768162405e-01	 1.1042336992e+00	-1.6692507179e+00
 8.9690494852e-01	 1.1130047198e+00	-1.7083062327e+00
 8.8604920121e-01	 1.1216660849e+00	-1.7458304520e+00
 8.7511605173e-01	 1.1302167443e+00	-1.7810840310e+00
 8.6410718788e-01	 1.1386556815e+00	-1.8133905914e+00
 8.5302431474e-01	 1.1469819142e+00	-1.8421407517e+00
 9.6427380676e-01	 1.0631299214e+00	-1.4949535980e+00
 9.5387421912e-01	 1.0724705955e+00	-1.5281642377e+00
 9.4338715461e-01	 1.0817069292e+00	-1.5645070436e+00
 9.3281418610e-01	 1.0908377049e+00	-1.6029396467e+00
 9.2215690877e-01	 1.0998617367e+00	-1.6424613304e+00
 9.1141693937e-01	 1.1087778708e+00	-1.6821177369e+00
 9.0059591539e-01	 1.1175849862e+00	-1.7210055184e+00
 8.8969549422e-01	 1.1262819948e+00	-1.7582769102e+00
 8.7871735236e-01	 1.1348678420e+00	-1.7931441988e+00
 8.6766318453e-01	 1.1433415073e+00	-1.8248840621e+00
 8.5653470286e-01	 1.1517020044e+00	-1.8528417570e+00
 9.6822574859e-01	 1.0674870112e+00	-1.5085003682e+00
 9.5778353969e-01	 1.0768659668e+00	-1.5412119422e+00
 9.4725349541e-01	 1.0861401543e+00	-1.5772303267e+00
 9.3663719506e-01	 1.0953083512e+00	-1.6154567413e+00
 9.2593624037e-01	 1.1043693667e+00	-1.6548346896e+00
 9.1515225470e-01	 1.1133220424e+00	-1.6943548343e+00
 9.0428688225e-01	 1.1221652525e+00	-1.7330598189e+00
 8.9334178723e-01	 1.1308979046e+00	-1.7700490087e+00
 8.8231865298e-01	 1.1395189397e+00	-1.8044831282e+00
 8.7121918119e-01	 1.1480273332e+00	-1.8355887668e+00
 8.6004509099e-01	 1.1564220946e+00	-1.8626627304e+00
 9.7217769042e-01	 1.0718441011e+00	-1.5214422804e+00
 9.6169286026e-01	 1.0812613381e+00	-1.5536630306e+00
 9.5111983621e-01	 1.0905733794e+00	-1.5893676246e+00
 9.4046020402e-01	 1.0997789975e+00	-1.6273975581e+00
 9.2971557196e-01	 1.1088769968e+00	-1.6666372569e+00
 9.1888757002e-01	 1.1178662140e+00	-1.7060191274e+00
 9.0797784912e-01	 1.1267455189e+00	-1.7445285550e+00
 8.9698808024e-01	 1.1355138144e+00	-1.7812088208e+00
 8.8591995361e-01	 1.1441700374e+00	-1.8151659140e+00
 8.7477517785e-01	 1.1527131590e+00	-1.8455732111e+00
 8.6355547912e-01	 1.1611421848e+00	-1.8716759974e+00
 9.7612963225e-01	 1.0762011909e+00	-1.5338279257e+00
 9.6560218083e-01	 1.0856567094e+00	-1.5655670451e+00
 9.5498617701e-01	 1.0950066046e+00	-1.6009696677e+00
 9.4428321298e-01	 1.1042496439e+00	-1.6388142762e+00
 9.3349490355e-01	 1.1133846269e+00	-1.6779229422e+00
 9.2262288535e-01	 1.1224103856e+00	-1.7171665607e+00
 9.1166881599e-01	 1.1313257852e+00	-1.7554700305e+00
 9.0063437325e-01	 1.1401297242e+00	-1.7918173549e+00
 8.8952125423e-01	 1.1488211351e+00	-1.8252566349e+00
 8.7833117451e-01	 1.1573989849e+00	-1.8549049285e+00
 8.6706586724e-01	 1.1658622749e+00	-1.8799529502e+00
 9.8008157408e-01	 1.0805582808e+00	-1.5457043790e+00
 9.6951150140e-01	 1.0900520807e+00	-1.5769720735e+00
 9.5885251780e-01	 1.0994398297e+00	-1.6120857944e+00
 9.4810622194e-01	 1.1087202902e+00	-1.6497577436e+00
 9.3727423515e-01	 1.1178922569e+00	-1.6887443847e+00
 9.2635820067e-01	 1.1269545572e+00	-1.7278518665e+00
 9.1535978285e-01	 1.1359060515e+00	-1.7659413937e+00
 9.0428066626e-01	 1.1447456340e+00	-1.8019345172e+00
 8.9312255486e-01	 1.1534722329e+00	-1.8348183162e+00
 8.8188717116e-01	 1.1620848107e+00	-1.8636504442e+00
 8.7057625537e-01	 1.1705823651e+00	-1.8875640121e+00
 9.8403351591e-01	 1.0849153706e+00	-1.5571171597e+00
 9.7342082197e-01	 1.0944474520e+00	-1.5879247097e+00
 9.6271885860e-01	 1.1038730548e+00	-1.6227639106e+00
 9.5192923090e-01	 1.1131909365e+00	-1.6602774380e+00
 9.4105356674e-01	 1.1223998870e+00	-1.6991529139e+00
 9.3009351600e-01	 1.1314987288e+00	-1.7381285265e+00
 9.1905074972e-01	 1.1404863179e+00	-1.7759985984e+00
 9.0792695926e-01	 1.1493615438e+00	-1.8116190733e+00
 8.9672385548e-01	 1.1581233306e+00	-1.8439128933e+00
 8.8544316782e-01	 1.1667706366e+00	-1.8718752389e+00
 8.7408664349e-01	 1.1753024553e+00	-1.8945786029e+00
 9.8798545774e-01	 1.0892724604e+00	-1.5681101918e+00
 9.7733014254e-01	 1.0988428233e+00	-1.5984700135e+00
 9.6658519940e-01	 1.1083062799e+00	-1.6330504504e+00
 9.5575223986e-01	 1.1176615829e+00	-1.6704214267e+00
 9.4483289833e-01	 1.1269075171e+00	-1.7091985096e+00
 9.3382883132e-01	 1.1360429004e+00	-1.7480487323e+00
 9.2274171658e-01	 1.1450665842e+00	-1.7856963660e+00
 9.1157325227e-01	 1.1539774536e+00	-1.8209286105e+00
 9.0032515610e-01	 1.1627744283e+00	-1.8526011737e+00
 8.8899916448e-01	 1.1714564624e+00	-1.8796437124e+00
 8.7759703162e-01	 1.1800225455e+00	-1.9013111204e+00
 8.4249315036e-01	 1.1328216437e+00	-1.8040210209e+00
 8.3147570753e-01	 1.1409328344e+00	-1.8334944323e+00
 8.2038858510e-01	 1.1489308744e+00	-1.8631763316e+00
 8.0923351332e-01	 1.1568148969e+00	-1.8916519936e+00
 7.9801223604e-01	 1.1645840699e+00	-1.9175734154e+00
 7.8672650995e-01	 1.1722375968e+00	-1.9396635173e+00
 7.7537810361e-01	 1.1797747163e+00	-1.9572760490e+00
 7.6396879658e-01	 1.1871947029e+00	-1.9738785423e+00
 7.5250037859e-01	 1.1944968669e+00	-1.9901503341e+00
 7.4097464858e-01	 1.2016805544e+00	-2.0059491561e+00
 7.2939341384e-01	 1.2087451479e+00	-2.0211594914e+00
 8.4600353848e-01	 1.1375417339e+00	-1.8178048854e+00
 8.3494018964e-01	 1.1456867212e+00	-1.8465202795e+00
 8.2380687087e-01	 1.1537180864e+00	-1.8750637095e+00
 8.1260531962e-01	 1.1616349590e+00	-1.9019735888e+00
 8.0133728703e-01	 1.1694365035e+00	-1.9258565210e+00
 7.9000453708e-01	 1.1771219201e+00	-1.9454113310e+00
 7.7860884570e-01	 1.1846904443e+00	-1.9627041699e+00
 7.6715199990e-01	 1.1921413475e+00	-1.9796315850e+00
 7.5563579684e-01	 1.1994739372e+00	-1.9959969052e+00
 7.4406204295e-01	 1.2066875568e+00	-2.0116328257e+00
 7.3243255307e-01	 1.2137815860e+00	-2.0263993865e+00
 8.4951392661e-01	 1.1422618240e+00	-1.8304864903e+00
 8.3840467175e-01	 1.1504406080e+00	-1.8583117348e+00
 8.2722515665e-01	 1.1585052984e+00	-1.8855575104e+00
 8.1597712593e-01	 1.1664550210e+00	-1.9107230477e+00
 8.0466233801e-01	 1.1742889372e+00	-1.9323772042e+00
 7.9328256420e-01	 1.1820062434e+00	-1.9505514910e+00
 7.8183958780e-01	 1.1896061723e+00	-1.9682234546e+00
 7.7033520322e-01	 1.1970879921e+00	-1.9853458690e+00
 7.5877121508e-01	 1.2044510074e+00	-2.0017042171e+00
 7.4714943732e-01	 1.2116945591e+00	-2.0171138527e+00
 7.3547169229e-01	 1.2188180242e+00	-2.0314179528e+00
 8.5302431474e-01	 1.1469819142e+00	-1.8421407517e+00
 8.4186915387e-01	 1.1551944948e+00	-1.8689475681e+00
 8.3064344242e-01	 1.1632925104e+00	-1.8947401300e+00
 8.1934893223e-01	 1.1712750831e+00	-1.9179860529e+00
 8.0798738899e-01	 1.1791413708e+00	-1.9375147676e+00
 7.9656059133e-01	 1.1868905667e+00	-1.9558713972e+00
 7.8507032990e-01	 1.1945219003e+00	-1.9737723410e+00
 7.7351840654e-01	 1.2020346367e+00	-1.9909605889e+00
 7.6190663333e-01	 1.2094280777e+00	-2.0072114834e+00
 7.5023683169e-01	 1.2167015614e+00	-2.0223306399e+00
 7.3851083151e-01	 1.2238544623e+00	-2.0361518612e+00
 8.5653470286e-01	 1.1517020044e+00	-1.8528417570e+00
 8.4533363598e-01	 1.1599483816e+00	-1.8785057546e+00
 8.3406172819e-01	 1.1680797223e+00	-1.9026932071e+00
 8.2272073854e-01	 1.1760951452e+00	-1.9238475734e+00
 8.1131243998e-01	 1.1839938044e+00	-1.9427303835e+00
 7.9983861845e-01	 1.1917748901e+00	-1.9613071700e+00
 7.8830107200e-01	 1.1994376282e+00	-1.9792883437e+00
 7.7670160986e-01	 1.2069812813e+00	-1.9964140193e+00
 7.6504205157e-01	 1.2144051480e+00	-2.0124570131e+00
 7.5332422606e-01	 1.2217085637e+00	-2.0272207146e+00
 7.4154997074e-01	 1.2288909004e+00	-2.0405369524e+00
 8.6004509099e-01	 1.1564220946e+00	-1.8626627304e+00
 8.4879811810e-01	 1.1647022684e+00	-1.8870634410e+00
 8.3748001396e-01	 1.1728669343e+00	-1.9094975908e+00
 8.2609254484e-01	 1.1809152073e+00	-1.9290859409e+00
 8.1463749096e-01	 1.1888462380e+00	-1.9481565693e+00
 8.0311664558e-01	 1.1966592134e+00	-1.9667940429e+00
 7.9153181410e-01	 1.2043533562e+00	-1.9847080820e+00
 7.7988481318e-01	 1.2119279259e+00	-2.0016435409e+00
 7.6817746981e-01	 1.2193822183e+00	-2.0173782351e+00
 7.5641162043e-01	 1.2267155660e+00	-2.0317207521e+00
 7.4458910996e-01	 1.2339273385e+00	-2.0445082581e+00
 8.6355547912e-01	 1.1611421848e+00	-1.8716759974e+00
 8.5226260021e-01	 1.1694561552e+00	-1.8946969113e+00
 8.4089829973e-01	 1.1776541463e+00	-1.9152762092e+00
 8.2946435115e-01	 1.1857352693e+00	-1.9346237876e+00
 8.1796254194e-01	 1.1936986717e+00	-1.9537257978e+00
 8.0639467270e-01	 1.2015435367e+00	-1.9722663901e+00
 7.9476255620e-01	 1.2092690842e+00	-1.9899673062e+00
 7.8306801650e-01	 1.2168745705e+00	-2.0065856662e+00
 7.7131288806e-01	 1.2243592886e+00	-2.0219117227e+00
 7.5949901480e-01	 1.2317225683e+00	-2.0357665983e+00
 7.4762824919e-01	 1.2389637766e+00	-2.0480000227e+00
 8.6706586724e-01	 1.1658622749e+00	-1.8799529502e+00
 8.5572708233e-01	 1.1742100421e+00	-1.9014815537e+00
 8.4431658550e-01	 1.1824413583e+00	-1.9210318402e+00
 8.3283615745e-01	 1.1905553314e+00	-1.9403955688e+00
 8.2128759293e-01	 1.1985511053e+00	-1.9593697290e+00
 8.0967269983e-01	 1.2064278600e+00	-1.9776577543e+00
 7.9799329829e-01	 1.2141848122e+00	-1.9950009244e+00
 7.8625121982e-01	 1.2218212151e+00	-2.0111760655e+00
 7.7444830630e-01	 1.2293363588e+00	-2.0259932185e+00
 7.6258640917e-01	 1.2367295706e+00	-2.0392932933e+00
 7.5066738841e-01	 1.2440002147e+00	-2.0509457238e+00
 8.7057625537e-01	 1.1705823651e+00	-1.8875640121e+00
 8.5919156444e-01	 1.1789639289e+00	-1.9076474979e+00
 8.4773487127e-01	 1.1872285702e+00	-1.9271025686e+00
 8.3620796376e-01	 1.1953753935e+00	-1.9463298739e+00
 8.2461264391e-01	 1.2034035389e+00	-1.9650192382e+00
 8.1295072695e-01	 1.2113121833e+00	-1.9829008738e+00
 8.0122404039e-01	 1.2191005402e+00	-1.9997430294e+00
 7.8943442314e-01	 1.2267678597e+00	-2.0153495922e+00
 7.7758372455e-01	 1.2343134291e+00	-2.0295576586e+00
 7.6567380353e-01	 1.2417365729e+00	-2.0422350937e+00
 7.5370652764e-01	 1.2490366529e+00	-2.0532780940e+00
 8.7408664349e-01	 1.1753024553e+00	-1.8945786029e+00
 8.6265604656e-01	 1.1837178157e+00	-1.9140579704e+00
 8.5115315704e-01	 1.1920157822e+00	-1.9334136628e+00
 8.3957977006e-01	 1.2001954555e+00	-1.9523545621e+00
 8.2793769489e-01	 1.2082559725e+00	-1.9706044440e+00
 8.1622875407e-01	 1.2161965067e+00	-1.9879277102e+00
 8.0445478249e-01	 1.2240162682e+00	-2.0041269253e+00
 7.9261762646e-01	 1.2317145043e+00	-2.0190403087e+00
 7.8071914279e-01	 1.2392904994e+00	-2.0325391969e+00
 7.6876119790e-01	 1.2467435752e+00	-2.0445254962e+00
 7.5674566686e-01	 1.2540730910e+00	-2.0549291417e+00
 8.7759703162e-01	 1.1800225455e+00	-1.9013111204e+00
 8.6612052867e-01	 1.1884717025e+00	-1.9207684211e+00
 8.5457144282e-01	 1.1968029942e+00	-1.9398897212e+00
 8.4295157637e-01	 1.2050155176e+00	-1.9583967912e+00
 8.3126274588e-01	 1.2131084062e+00	-1.9760547365e+00
 8.1950678120e-01	 1.2210808300e+00	-1.9926694756e+00
 8.0768552459e-01	 1.2289319961e+00	-2.0080851538e+00
 7.9580082977e-01	 1.2366611489e+00	-2.0221815120e+00
 7.8385456104e-01	 1.2442675697e+00	-2.0348712298e+00
 7.7184859227e-01	 1.2517505775e+00	-2.0460972597e+00
 7.5978480608e-01	 1.2591095291e+00	-2.0558301721e+00
 7.2939341384e-01	 1.2087451479e+00	-2.0211594914e+00
 7.1775848912e-01	 1.2156900658e+00	-2.0351960049e+00
 7.0607169574e-01	 1.2225147628e+00	-2.0476591336e+00
 6.9433486070e-01	 1.2292187299e+00	-2.0587428554e+00
 6.8254981578e-01	 1.2358014945e+00	-2.0686554913e+00
 6.7071839668e-01	 1.2422626200e+00	-2.0776177203e+00
 6.5884244214e-01	 1.2486017064e+00	-2.0858606613e+00
 6.4692379304e-01	 1.2548183896e+00	-2.0936240297e+00
 6.3496429158e-01	 1.2609123416e+00	-2.1011543785e+00
 6.2296578036e-01	 1.2668832706e+00	-2.1087034281e+00
 6.1093010157e-01	 1.2727309204e+00	-2.1165264926e+00
 7.3243255307e-01	 1.2137815860e+00	-2.0263993865e+00
 7.2074914949e-01	 1.2207554411e+00	-2.0396793857e+00
 7.0901366114e-01	 1.2276085743e+00	-2.0511054088e+00
 6.9722792262e-01	 1.2343404746e+00	-2.0609426732e+00
 6.8539377334e-01	 1.2409506674e+00	-2.0694696009e+00
 6.7351305666e-01	 1.2474387143e+00	-2.0769757113e+00
 6.6158761898e-01	 1.2538042135e+00	-2.0837595860e+00
 6.4961930885e-01	 1.2600467995e+00	-2.0901269156e+00
 6.3760997613e-01	 1.2661661430e+00	-2.0963886354e+00
 6.2556147111e-01	 1.2721619509e+00	-2.1028591574e+00
 6.1347564366e-01	 1.2780339659e+00	-2.1098547060e+00
 7.3547169229e-01	 1.2188180242e+00	-2.0314179528e+00
 7.2373980987e-01	 1.2258208163e+00	-2.0439668786e+00
 7.1195562654e-01	 1.2327023858e+00	-2.0544139708e+00
 7.0012098454e-01	 1.2394622193e+00	-2.0630869686e+00
 6.8823773091e-01	 1.2460998403e+00	-2.0703257254e+00
 6.7630771665e-01	 1.2526148085e+00	-2.0764799895e+00
 6.6433279582e-01	 1.2590067206e+00	-2.0819072616e+00
 6.5231482465e-01	 1.2652752095e+00	-2.0869707408e+00
 6.4025566067e-01	 1.2714199444e+00	-2.0920373646e+00
 6.2815716186e-01	 1.2774406312e+00	-2.0974759535e+00
 6.1602118575e-01	 1.2833370114e+00	-2.1036554633e+00
 7.3851083151e-01	 1.2238544623e+00	-2.0361518612e+00
 7.2673047024e-01	 1.2308861916e+00	-2.0479929657e+00
 7.1489759194e-01	 1.2377961973e+00	-2.0575172522e+00
 7.0301404646e-01	 1.2445839640e+00	-2.0651063712e+00
 6.9108168847e-01	 1.2512490132e+00	-2.0711530451e+00
 6.7910237664e-01	 1.2577909028e+00	-2.0760587447e+00
 6.6707797266e-01	 1.2642092277e+00	-2.0802314505e+00
 6.5501034045e-01	 1.2705036194e+00	-2.0840835062e+00
 6.4290134522e-01	 1.2766737459e+00	-2.0880295743e+00
 6.3075285261e-01	 1.2827193115e+00	-2.0924847001e+00
 6.1856672784e-01	 1.2886400569e+00	-2.0978624914e+00
 7.4154997074e-01	 1.2288909004e+00	-2.0405369524e+00
 7.2972113061e-01	 1.2359515669e+00	-2.0516913524e+00
 7.1783955734e-01	 1.2428900088e+00	-2.0603469611e+00
 7.0590710837e-01	 1.2497057088e+00	-2.0669308363e+00
 6.9392564604e-01	 1.2563981861e+00	-2.0718801108e+00
 6.8189703662e-01	 1.2629669970e+00	-2.0756395761e+00
 6.6982314950e-01	 1.2694117348e+00	-2.0786593554e+00
 6.5770585626e-01	 1.2757320294e+00	-2.0813926757e+00
 6.4554702977e-01	 1.2819275473e+00	-2.0842937463e+00
 6.3334854336e-01	 1.2879979918e+00	-2.0878157532e+00
 6.2111226993e-01	 1.2939431024e+00	-2.0924089745e+00
 7.4458910996e-01	 1.2339273385e+00	-2.0445082581e+00
 7.3271179098e-01	 1.2410169422e+00	-2.0549949868e+00
 7.2078152274e-01	 1.2479838204e+00	-2.0628340990e+00
 7.0880017029e-01	 1.2548274535e+00	-2.0684896596e+00
 6.9676960360e-01	 1.2615473589e+00	-2.0724348571e+00
 6.8469169661e-01	 1.2681430913e+00	-2.0751495037e+00
 6.7256832635e-01	 1.2746142419e+00	-2.0771176300e+00
 6.6040137206e-01	 1.2809604393e+00	-2.0788251842e+00
 6.4819271432e-01	 1.2871813487e+00	-2.0807578439e+00
 6.3594423411e-01	 1.2932766721e+00	-2.0833989484e+00
 6.2365781202e-01	 1.2992461479e+00	-2.0872275603e+00
 7.4762824919e-01	 1.2389637766e+00	-2.0480000227e+00
 7.3570245135e-01	 1.2460823174e+00	-2.0578360790e+00
 7.2372348814e-01	 1.2530776319e+00	-2.0649089775e+00
 7.1169323221e-01	 1.2599491982e+00	-2.0697114928e+00
 6.9961356117e-01	 1.2666965318e+00	-2.0727446159e+00
 6.8748635659e-01	 1.2733191855e+00	-2.0745149806e+00
 6.7531350319e-01	 1.2798167491e+00	-2.0755323891e+00
 6.6309688787e-01	 1.2861888493e+00	-2.0763074477e+00
 6.5083839887e-01	 1.2924351501e+00	-2.0773493200e+00
 6.3853992487e-01	 1.2985553523e+00	-2.0791636083e+00
 6.2620335411e-01	 1.3045491934e+00	-2.0822503675e+00
 7.5066738841e-01	 1.2440002147e+00	-2.0509457238e+00
 7.3869311172e-01	 1.2511476927e+00	-2.0601461202e+00
 7.2666545353e-01	 1.2581714434e+00	-2.0665012359e+00
 7.1458629413e-01	 1.2650709429e+00	-2.0705243589e+00
 7.0245751874e-01	 1.2718457047e+00	-2.0727361300e+00
 6.9028101658e-01	 1.2784952798e+00	-2.0736619048e+00
 6.7805868003e-01	 1.2850192562e+00	-2.0738292194e+00
 6.6579240367e-01	 1.2914172593e+00	-2.0737653716e+00
 6.5348408342e-01	 1.2976889516e+00	-2.0739951256e+00
 6.4113561562e-01	 1.3038340326e+00	-2.0750385495e+00
 6.2874889620e-01	 1.3098522389e+00	-2.0774089924e+00
 7.5370652764e-01	 1.2490366529e+00	-2.0532780940e+00
 7.4168377209e-01	 1.2562130680e+00	-2.0618559018e+00
 7.2960741893e-01	 1.2632652549e+00	-2.0675398582e+00
 7.1747935605e-01	 1.2701926876e+00	-2.0708556677e+00
 7.0530147630e-01	 1.2769948776e+00	-2.0723355670e+00
 6.9307567657e-01	 1.2836713740e+00	-2.0725156312e+00
 6.8080385687e-01	 1.2902217633e+00	-2.0719331897e+00
 6.6848791948e-01	 1.2966456692e+00	-2.0711243610e+00
 6.5612976796e-01	 1.3029427530e+00	-2.0706217180e+00
 6.4373130637e-01	 1.3091127129e+00	-2.0709520911e+00
 6.3129443829e-01	 1.3151552844e+00	-2.0726345164e+00
 7.5674566686e-01	 1.2540730910e+00	-2.0549291417e+00
 7.4467443246e-01	 1.2612784433e+00	-2.0628955351e+00
 7.3254938433e-01	 1.2683590664e+00	-2.0679531908e+00
 7.2037241797e-01	 1.2753144323e+00	-2.0706322314e+00
 7.0814543387e-01	 1.2821440505e+00	-2.0714685327e+00
 6.9587033655e-01	 1.2888474683e+00	-2.0710009841e+00
 6.8354903372e-01	 1.2954242704e+00	-2.0697688621e+00
 6.7118343528e-01	 1.3018740792e+00	-2.0683093294e+00
 6.5877545251e-01	 1.3081965544e+00	-2.0671550691e+00
 6.4632699712e-01	 1.3143913932e+00	-2.0668320617e+00
 6.3383998038e-01	 1.3204583299e+00	-2.0678575133e+00
 7.5978480608e-01	 1.2591095291e+00	-2.0558301721e+00
 7.4766509284e-01	 1.2663438185e+00	-2.0631944699e+00
 7.3549134973e-01	 1.2734528779e+00	-2.0676689595e+00
 7.2326547989e-01	 1.2804361770e+00	-2.0697802798e+00
 7.1098939143e-01	 1.2872932234e+00	-2.0700600855e+00
 6.9866499654e-01	 1.2940235625e+00	-2.0690422690e+00
 6.8629421056e-01	 1.3006267775e+00	-2.0672603026e+00
 6.7387895108e-01	 1.3071024891e+00	-2.0652447092e+00
 6.6142113706e-01	 1.3134503558e+00	-2.0635206748e+00
 6.4892268787e-01	 1.3196700735e+00	-2.0626058079e+00
 6.3638552247e-01	 1.3257613754e+00	-2.0630080567e+00
 6.1093010157e-01	 1.2727309204e+00	-2.1165264926e+00
 5.9885909614e-01	 1.2784550707e+00	-2.1190021295e+00
 5.8675460288e-01	 1.2840555365e+00	-2.1108402148e+00
 5.7461845767e-01	 1.2895321682e+00	-2.0982061501e+00
 5.6245249266e-01	 1.2948848514e+00	-2.0850181149e+00
 5.5025853542e-01	 1.3001135062e+00	-2.0715916014e+00
 5.3803840817e-01	 1.3052180876e+00	-2.0582152252e+00
 5.2579392701e-01	 1.3101985846e+00	-2.0451522908e+00
 5.1352690114e-01	 1.3150550204e+00	-2.0326423463e+00
 5.0123913209e-01	 1.3197874515e+00	-2.0209027209e+00
 4.8893241299e-01	 1.3243959681e+00	-2.0101300392e+00
 6.1347564366e-01	 1.2780339659e+00	-2.1098547060e+00
 6.0135434237e-01	 1.2837819668e+00	-2.1118070781e+00
 5.8919941372e-01	 1.2894057679e+00	-2.1033398764e+00
 5.7701270125e-01	 1.2949052189e+00	-2.0889456426e+00
 5.6479604471e-01	 1.3002802049e+00	-2.0742844250e+00
 5.5255127931e-01	 1.3055306458e+00	-2.0596481321e+00
 5.4028023487e-01	 1.3106564963e+00	-2.0452729961e+00
 5.2798473504e-01	 1.3156577454e+00	-2.0313703214e+00
 5.1566659656e-01	 1.3205344163e+00	-2.0181281373e+00
 5.0332762847e-01	 1.3252865659e+00	-2.0057128304e+00
 4.9096963138e-01	 1.3299142846e+00	-1.9942707509e+00
 6.1602118575e-01	 1.2833370114e+00	-2.1036554633e+00
 6.0384958861e-01	 1.2891088629e+00	-2.1050633036e+00
 5.9164422457e-01	 1.2947559993e+00	-2.0963168089e+00
 5.7940694482e-01	 1.3002782696e+00	-2.0803873806e+00
 5.6713959677e-01	 1.3056755585e+00	-2.0641644824e+00
 5.5484402321e-01	 1.3109477854e+00	-2.0482275300e+00
 5.4252206157e-01	 1.3160949050e+00	-2.0327657075e+00
 5.3017554307e-01	 1.3211169061e+00	-2.0179436143e+00
 5.1780629198e-01	 1.3260138122e+00	-2.0039030099e+00
 5.0541612486e-01	 1.3307856803e+00	-1.9907645357e+00
 4.9300684976e-01	 1.3354326012e+00	-1.9786294079e+00
 6.1856672784e-01	 1.2886400569e+00	-2.0978624914e+00
 6.0634483484e-01	 1.2944357591e+00	-2.0987080593e+00
 5.9408903541e-01	 1.3001062307e+00	-2.0896435430e+00
 5.8180118840e-01	 1.3056513203e+00	-2.0724770365e+00
 5.6948314882e-01	 1.3110709120e+00	-2.0546077111e+00
 5.5713676711e-01	 1.3163649250e+00	-2.0372830239e+00
 5.4476388827e-01	 1.3215333137e+00	-2.0206503732e+00
 5.3236635110e-01	 1.3265760669e+00	-2.0048328762e+00
 5.1994598741e-01	 1.3314932081e+00	-1.9899312003e+00
 5.0750462124e-01	 1.3362847947e+00	-1.9760253688e+00
 4.9504406815e-01	 1.3409509177e+00	-1.9631765341e+00
 6.2111226993e-01	 1.2939431024e+00	-2.0924089745e+00
 6.0884008107e-01	 1.2997626552e+00	-2.0926780312e+00
 5.9653384626e-01	 1.3054564621e+00	-2.0832605506e+00
 5.8419543197e-01	 1.3110243710e+00	-2.0651597161e+00
 5.7182670087e-01	 1.3164662655e+00	-2.0455629659e+00
 5.5942951101e-01	 1.3217820646e+00	-2.0267672692e+00
 5.4700571497e-01	 1.3269717224e+00	-2.0088834296e+00
 5.3455715913e-01	 1.3320352277e+00	-1.9919982343e+00
 5.2208568283e-01	 1.3369726040e+00	-1.9761763660e+00
 5.0959311762e-01	 1.3417839091e+00	-1.9614622869e+00
 4.9708128654e-01	 1.3464692342e+00	-1.9478820870e+00
 6.2365781202e-01	 1.2992461479e+00	-2.0872275603e+00
 6.1133532731e-01	 1.3050895513e+00	-2.0869093445e+00
 5.9897865711e-01	 1.3108066935e+00	-2.0771077154e+00
 5.8658967554e-01	 1.3163974217e+00	-2.0583799530e+00
 5.7417025292e-01	 1.3218616191e+00	-2.0369785267e+00
 5.6172225490e-01	 1.3271992042e+00	-2.0166323432e+00
 5.4924754167e-01	 1.3324101311e+00	-1.9974207324e+00
 5.3674796716e-01	 1.3374943884e+00	-1.9793992336e+00
 5.2422537825e-01	 1.3424520000e+00	-1.9626015830e+00
 5.1168161401e-01	 1.3472830234e+00	-1.9470416699e+00
 4.9911850493e-01	 1.3519875508e+00	-1.9327154556e+00
 6.2620335411e-01	 1.3045491934e+00	-2.0822503675e+00
 6.1383057354e-01	 1.3104164474e+00	-2.0813375700e+00
 6.0142346795e-01	 1.3161569249e+00	-2.0711243395e+00
 5.8898391912e-01	 1.3217704724e+00	-2.0520643508e+00
 5.7651380498e-01	 1.3272569726e+00	-2.0288020939e+00
 5.6401499880e-01	 1.3326163438e+00	-2.0068297415e+00
 5.5148936837e-01	 1.3378485398e+00	-1.9862175533e+00
 5.3893877519e-01	 1.3429535492e+00	-1.9669948341e+00
 5.2636507367e-01	 1.3479313959e+00	-1.9491693436e+00
 5.1377011039e-01	 1.3527821378e+00	-1.9327293191e+00
 5.0115572331e-01	 1.3575058673e+00	-1.9176454593e+00
 6.2874889620e-01	 1.3098522389e+00	-2.0774089924e+00
 6.1632581978e-01	 1.3157433436e+00	-2.0758977310e+00
 6.0386827880e-01	 1.3215071563e+00	-2.0652491496e+00
 5.9137816269e-01	 1.3271435231e+00	-2.0459022964e+00
 5.7885735703e-01	 1.3326523262e+00	-2.0209807835e+00
 5.6630774270e-01	 1.3380334835e+00	-1.9973103731e+00
 5.5373119507e-01	 1.3432869485e+00	-1.9752285757e+00
 5.4112958322e-01	 1.3484127100e+00	-1.9547434075e+00
 5.2850476909e-01	 1.3534107918e+00	-1.9358415540e+00
 5.1585860678e-01	 1.3582812522e+00	-1.9184904547e+00
 5.0319294170e-01	 1.3630241838e+00	-1.9026403464e+00
 6.3129443829e-01	 1.3151552844e+00	-2.0726345164e+00
 6.1882106601e-01	 1.3210702397e+00	-2.0705243107e+00
 6.0631308964e-01	 1.3268573877e+00	-2.0594203047e+00
 5.9377240626e-01	 1.3325165738e+00	-2.0397520445e+00
 5.8120090908e-01	 1.3380476797e+00	-2.0134611227e+00
 5.6860048660e-01	 1.3434506231e+00	-1.9880245570e+00
 5.5597302177e-01	 1.3487253572e+00	-1.9644078922e+00
 5.4332039125e-01	 1.3538718708e+00	-1.9426027346e+00
 5.3064446451e-01	 1.3588901877e+00	-1.9225795318e+00
 5.1794710316e-01	 1.3637803666e+00	-1.9042897143e+00
 5.0523016009e-01	 1.3685425004e+00	-1.8876677921e+00
 6.3383998038e-01	 1.3204583299e+00	-2.0678575133e+00
 6.2131631224e-01	 1.3263971358e+00	-2.0651512587e+00
 6.0875790049e-01	 1.3322076191e+00	-2.0535754022e+00
 5.9616664984e-01	 1.3378896245e+00	-2.0335550489e+00
 5.8354446114e-01	 1.3434430333e+00	-2.0061890448e+00
 5.7089323049e-01	 1.3488677627e+00	-1.9789220177e+00
 5.5821484847e-01	 1.3541637659e+00	-1.9537090005e+00
 5.4551119927e-01	 1.3593310315e+00	-1.9305300023e+00
 5.3278415993e-01	 1.3643695836e+00	-1.9093440042e+00
 5.2003559954e-01	 1.3692794810e+00	-1.8900911511e+00
 5.0726737848e-01	 1.3740608169e+00	-1.8726948979e+00
 6.3638552247e-01	 1.3257613754e+00	-2.0630080567e+00
 6.2381155848e-01	 1.3317240320e+00	-2.0597119987e+00
 6.1120271133e-01	 1.3375578505e+00	-2.0476514855e+00
 5.9856089341e-01	 1.3432626752e+00	-2.0272521795e+00
 5.8588801319e-01	 1.3488383868e+00	-1.9991098853e+00
 5.7318597439e-01	 1.3542849023e+00	-1.9699518818e+00
 5.6045667517e-01	 1.3596021745e+00	-1.9430848004e+00
 5.4770200730e-01	 1.3647901923e+00	-1.9184818012e+00
 5.3492385536e-01	 1.3698489795e+00	-1.8960951051e+00
 5.2212409593e-01	 1.3747785954e+00	-1.8758582319e+00
 5.0930459686e-01	 1.3795791334e+00	-1.8576881892e+00
 4.8893241299e-01	 1.3243959681e+00	-2.0101300392e+00
 4.7660852784e-01	 1.3288806929e+00	-1.9994383984e+00
 4.6426925081e-01	 1.3332417813e+00	-1.9878428032e+00
 4.5191634551e-01	 1.3374794209e+00	-1.9753562914e+00
 4.3955156433e-01	 1.3415938309e+00	-1.9619662001e+00
 4.2717664778e-01	 1.3455852616e+00	-1.9476358656e+00
 4.1479332383e-01	 1.3494539945e+00	-1.9323062818e+00
 4.0240330726e-01	 1.3532003411e+00	-1.9158977120e+00
 3.9000829908e-01	 1.3568246428e+00	-1.8983112519e+00
 3.7760998592e-01	 1.3603272707e+00	-1.8794303403e+00
 3.6521003942e-01	 1.3637086243e+00	-1.8591222143e+00
 4.9096963138e-01	 1.3299142846e+00	-1.9942707509e+00
 4.7859439671e-01	 1.3344176958e+00	-1.9827998818e+00
 4.6620370602e-01	 1.3387969554e+00	-1.9702509826e+00
 4.5379933028e-01	 1.3430522519e+00	-1.9566652590e+00
 4.4138302918e-01	 1.3471838052e+00	-1.9420583207e+00
 4.2895655048e-01	 1.3511918669e+00	-1.9264218687e+00
 4.1652162934e-01	 1.3550767195e+00	-1.9097253408e+00
 4.0407998771e-01	 1.3588386758e+00	-1.8919175094e+00
 3.9163333366e-01	 1.3624780789e+00	-1.8729280288e+00
 3.7918336086e-01	 1.3659953010e+00	-1.8526689298e+00
 3.6673174792e-01	 1.3693907435e+00	-1.8310360575e+00
 4.9300684976e-01	 1.3354326012e+00	-1.9786294079e+00
 4.8058026558e-01	 1.3399546987e+00	-1.9663823830e+00
 4.6813816123e-01	 1.3443521295e+00	-1.9529070413e+00
 4.5568231505e-01	 1.3486250828e+00	-1.9382690741e+00
 4.4321449403e-01	 1.3527737795e+00	-1.9225086257e+00
 4.3073645318e-01	 1.3567984722e+00	-1.9056419751e+00
 4.1824993486e-01	 1.3606994445e+00	-1.8876631737e+00
 4.0575666815e-01	 1.3644770106e+00	-1.8685456347e+00
 3.9325836824e-01	 1.3681315149e+00	-1.8482436709e+00
 3.8075673580e-01	 1.3716633313e+00	-1.8266939787e+00
 3.6825345642e-01	 1.3750728628e+00	-1.8038170639e+00
 4.9504406815e-01	 1.3409509177e+00	-1.9631765341e+00
 4.8256613444e-01	 1.3454917016e+00	-1.9501586583e+00
 4.7007261645e-01	 1.3499073036e+00	-1.9357848262e+00
 4.5756529983e-01	 1.3541979137e+00	-1.9201415724e+00
 4.4504595889e-01	 1.3583637538e+00	-1.9032898792e+00
 4.3251635588e-01	 1.3624050774e+00	-1.8852668576e+00
 4.1997824038e-01	 1.3663221694e+00	-1.8660873841e+00
 4.0743334860e-01	 1.3701153453e+00	-1.8457456869e+00
 3.9488340282e-01	 1.3737849509e+00	-1.8242168802e+00
 3.8233011074e-01	 1.3773313615e+00	-1.8014584421e+00
 3.6977516492e-01	 1.3807549821e+00	-1.7774116353e+00
 4.9708128654e-01	 1.3464692342e+00	-1.9478820870e+00
 4.8455200331e-01	 1.3510287044e+00	-1.9341009180e+00
 4.7200707166e-01	 1.3554624777e+00	-1.9188576766e+00
 4.5944828460e-01	 1.3597707446e+00	-1.9022561381e+00
 4.4687742374e-01	 1.3639537281e+00	-1.8843744658e+00
 4.3429625858e-01	 1.3680116827e+00	-1.8652668979e+00
 4.2170654589e-01	 1.3719448944e+00	-1.8449653883e+00
 4.0911002905e-01	 1.3757536801e+00	-1.8234811959e+00
 3.9650843740e-01	 1.3794383869e+00	-1.8008064205e+00
 3.8390348569e-01	 1.3829993918e+00	-1.7769154815e+00
 3.7129687341e-01	 1.3864371013e+00	-1.7517665367e+00
 4.9911850493e-01	 1.3519875508e+00	-1.9327154556e+00
 4.8653787217e-01	 1.3565657073e+00	-1.9181808245e+00
 4.7394152687e-01	 1.3610176518e+00	-1.9020984224e+00
 4.6133126937e-01	 1.3653435755e+00	-1.8845857012e+00
 4.4870888859e-01	 1.3695437024e+00	-1.8657343878e+00
 4.3607616128e-01	 1.3736182879e+00	-1.8456121825e+00
 4.2343485141e-01	 1.3775676194e+00	-1.8242644091e+00
 4.1078670949e-01	 1.3813920148e+00	-1.8017156139e+00
 3.9813347198e-01	 1.3850918229e+00	-1.7779711080e+00
 3.8547686063e-01	 1.3886674221e+00	-1.7530184520e+00
 3.7281858191e-01	 1.3921192206e+00	-1.7268288801e+00
 5.0115572331e-01	 1.3575058673e+00	-1.9176454593e+00
 4.8852374104e-01	 1.3621027102e+00	-1.9023694911e+00
 4.7587598208e-01	 1.3665728259e+00	-1.8854793823e+00
 4.6321425415e-01	 1.3709164065e+00	-1.8671027354e+00
 4.5054035344e-01	 1.3751336767e+00	-1.8473412619e+00
 4.3785606398e-01	 1.3792248932e+00	-1.8262724980e+00
 4.2516315692e-01	 1.3831903444e+00	-1.8039514702e+00
 4.1246338994e-01	 1.3870303496e+00	-1.7804123081e+00
 3.9975850656e-01	 1.3907452589e+00	-1.7556698003e+00
 3.8705023557e-01	 1.3943354524e+00	-1.7297208904e+00
 3.7434029041e-01	 1.3978013399e+00	-1.7025461103e+00
 5.0319294170e-01	 1.3630241838e+00	-1.9026403464e+00
 4.9050960991e-01	 1.3676397131e+00	-1.8866374810e+00
 4.7781043729e-01	 1.3721280000e+00	-1.8689723626e+00
 4.6509723892e-01	 1.3764892374e+00	-1.8497792558e+00
 4.5237181829e-01	 1.3807236510e+00	-1.8291663160e+00
 4.3963596668e-01	 1.3848314984e+00	-1.8072173272e+00
 4.2689146244e-01	 1.3888130693e+00	-1.7839933897e+00
 4.1414007039e-01	 1.3926686844e+00	-1.7595345525e+00
 4.0138354114e-01	 1.3963986949e+00	-1.7338613876e+00
 3.8862361051e-01	 1.4000034827e+00	-1.7069765025e+00
 3.7586199891e-01	 1.4034834591e+00	-1.6788659892e+00
 5.0523016009e-01	 1.3685425004e+00	-1.8876677921e+00
 4.9249547877e-01	 1.3731767160e+00	-1.8709548052e+00
 4.7974489250e-01	 1.3776831741e+00	-1.8525486552e+00
 4.6698022369e-01	 1.3820620683e+00	-1.8325868171e+00
 4.5420328314e-01	 1.3863136252e+00	-1.8111803861e+00
 4.4141586938e-01	 1.3904381037e+00	-1.7884158443e+00
 4.2861976796e-01	 1.3944357943e+00	-1.7643567750e+00
 4.1581675084e-01	 1.3983070191e+00	-1.7390455210e+00
 4.0300857572e-01	 1.4020521309e+00	-1.7125047824e+00
 3.9019698545e-01	 1.4056715130e+00	-1.6847391515e+00
 3.7738370740e-01	 1.4091655784e+00	-1.6557365824e+00
 5.0726737848e-01	 1.3740608169e+00	-1.8726948979e+00
 4.9448134764e-01	 1.3787137189e+00	-1.8552909218e+00
 4.8167934772e-01	 1.3832383481e+00	-1.8361790365e+00
 4.6886320847e-01	 1.3876348992e+00	-1.8154965112e+00
 4.5603474799e-01	 1.3919035995e+00	-1.7933539138e+00
 4.4319577207e-01	 1.3960447090e+00	-1.7698369112e+00
 4.3034807347e-01	 1.4000585193e+00	-1.7450080169e+00
 4.1749343128e-01	 1.4039453539e+00	-1.7189082796e+00
 4.0463361030e-01	 1.4077055669e+00	-1.6915589106e+00
 3.9177036039e-01	 1.4113395433e+00	-1.6629628466e+00
 3.7890541590e-01	 1.4148476977e+00	-1.6331062445e+00
 5.0930459686e-01	 1.3795791334e+00	-1.8576881892e+00
 4.9646721650e-01	 1.3842507218e+00	-1.8396147345e+00
 4.8361380293e-01	 1.3887935222e+00	-1.8198337654e+00
 4.7074619324e-01	 1.3932077301e+00	-1.7984789653e+00
 4.5786621285e-01	 1.3974935738e+00	-1.7756569429e+00
 4.4497567477e-01	 1.4016513142e+00	-1.7514490736e+00
 4.3207637899e-01	 1.4056812443e+00	-1.7259132845e+00
 4.1917011173e-01	 1.4095836886e+00	-1.6990857796e+00
 4.0625864488e-01	 1.4133590030e+00	-1.6709827025e+00
 3.9334373533e-01	 1.4170075736e+00	-1.6416017314e+00
 3.8042712440e-01	 1.4205298169e+00	-1.6109236057e+00
 3.6521003942e-01	 1.3637086243e+00	-1.8591222143e+00
 3.5281011572e-01	 1.3669691317e+00	-1.8382900641e+00
 3.4041185487e-01	 1.3701092489e+00	-1.8179600128e+00
 3.2801688033e-01	 1.3731294589e+00	-1.7981658763e+00
 3.1562679846e-01	 1.3760302718e+00	-1.7789334432e+00
 3.0324319802e-01	 1.3788122235e+00	-1.7602812523e+00
 2.9086764973e-01	 1.3814758757e+00	-1.7422213098e+00
 2.7850170578e-01	 1.3840218151e+00	-1.7247597482e+00
 2.6614689943e-01	 1.3864506528e+00	-1.7078974270e+00
 2.5380474459e-01	 1.3887630238e+00	-1.6916304758e+00
 2.4147673543e-01	 1.3909595864e+00	-1.6759507810e+00
 3.6673174792e-01	 1.3693907435e+00	-1.8310360575e+00
 3.5428015787e-01	 1.3726648364e+00	-1.8089917155e+00
 3.4183023760e-01	 1.3758180374e+00	-1.7875896677e+00
 3.2938361733e-01	 1.3788508317e+00	-1.7668449134e+00
 3.1694191012e-01	 1.3817637313e+00	-1.7467641713e+00
 3.0450671134e-01	 1.3845572744e+00	-1.7273466986e+00
 2.9207959827e-01	 1.3872320252e+00	-1.7085850486e+00
 2.7966212955e-01	 1.3897885727e+00	-1.6904657680e+00
 2.6725584484e-01	 1.3922275305e+00	-1.6729700340e+00
 2.5486226436e-01	 1.3945495364e+00	-1.6560742322e+00
 2.4248288850e-01	 1.3967552514e+00	-1.6397504761e+00
 3.6825345642e-01	 1.3750728628e+00	-1.8038170639e+00
 3.5575020002e-01	 1.3783605411e+00	-1.7806270272e+00
 3.4324862033e-01	 1.3815268259e+00	-1.7582015593e+00
 3.3075035433e-01	 1.3845722044e+00	-1.7365383816e+00
 3.1825702178e-01	 1.3874971907e+00	-1.7156268057e+00
 3.0577022467e-01	 1.3903023253e+00	-1.6954485900e+00
 2.9329154681e-01	 1.3929881747e+00	-1.6759787335e+00
 2.8082255332e-01	 1.3955553302e+00	-1.6571862065e+00
 2.6836479026e-01	 1.3980044083e+00	-1.6390346201e+00
 2.5591978413e-01	 1.4003360490e+00	-1.6214828338e+00
 2.4348904156e-01	 1.4025509163e+00	-1.6044855037e+00
 3.6977516492e-01	 1.3807549821e+00	-1.7774116353e+00
 3.5722024217e-01	 1.3840562458e+00	-1.7531362955e+00
 3.4466700306e-01	 1.3872356145e+00	-1.7297315311e+00
 3.3211709133e-01	 1.3902935772e+00	-1.7071792958e+00
 3.1957213344e-01	 1.3932306502e+00	-1.6854531278e+00
 3.0703373799e-01	 1.3960473763e+00	-1.6645190399e+00
 2.9450349535e-01	 1.3987443241e+00	-1.6443363444e+00
 2.8198297710e-01	 1.4013220878e+00	-1.6248584138e+00
 2.6947373567e-01	 1.4037812860e+00	-1.6060333774e+00
 2.5697730390e-01	 1.4061225616e+00	-1.5878047542e+00
 2.4449519463e-01	 1.4083465812e+00	-1.5701120250e+00
 3.7129687341e-01	 1.3864371013e+00	-1.7517665367e+00
 3.5869028432e-01	 1.3897519506e+00	-1.7264603271e+00
 3.4608538578e-01	 1.3929444030e+00	-1.7021160563e+00
 3.3348382833e-01	 1.3960149499e+00	-1.6787013924e+00
 3.2088724510e-01	 1.3989641096e+00	-1.6561757049e+00
 3.0829725132e-01	 1.4017924272e+00	-1.6344909844e+00
 2.9571544389e-01	 1.4045004736e+00	-1.6135926946e+00
 2.8314340087e-01	 1.4070888453e+00	-1.5934205576e+00
 2.7058268109e-01	 1.4095581637e+00	-1.5739092739e+00
 2.5803482367e-01	 1.4119090742e+00	-1.5549891762e+00
 2.4550134769e-01	 1.4141422462e+00	-1.5365868199e+00
 3.7281858191e-01	 1.3921192206e+00	-1.7268288801e+00
 3.6016032647e-01	 1.3954476553e+00	-1.7005404214e+00
 3.4750376851e-01	 1.3986531916e+00	-1.6752922186e+00
 3.3485056534e-01	 1.4017363227e+00	-1.6510391081e+00
 3.2220235676e-01	 1.4046975691e+00	-1.6277278675e+00
 3.0956076464e-01	 1.4075374781e+00	-1.6052981597e+00
 2.9692739243e-01	 1.4102566231e+00	-1.5836834077e+00
 2.8430382465e-01	 1.4128556029e+00	-1.5628116010e+00
 2.7169162650e-01	 1.4153350414e+00	-1.5426060333e+00
 2.5909234344e-01	 1.4176955868e+00	-1.5229859736e+00
 2.4650750075e-01	 1.4199379111e+00	-1.5038672703e+00
 3.7434029041e-01	 1.3978013399e+00	-1.7025461103e+00
 3.6163036861e-01	 1.4011433600e+00	-1.6753183532e+00
 3.4892215124e-01	 1.4043619801e+00	-1.6491976920e+00
 3.3621730234e-01	 1.4074576954e+00	-1.6241275588e+00
 3.2351746842e-01	 1.4104310286e+00	-1.6000436876e+00
 3.1082427797e-01	 1.4132825291e+00	-1.5768750795e+00
 2.9813934097e-01	 1.4160127726e+00	-1.5545448960e+00
 2.8546424842e-01	 1.4186223605e+00	-1.5329712812e+00
 2.7280057192e-01	 1.4211119191e+00	-1.5120681144e+00
 2.6014986321e-01	 1.4234820994e+00	-1.4917456923e+00
 2.4751365382e-01	 1.4257335761e+00	-1.4719113436e+00
 3.7586199891e-01	 1.4034834591e+00	-1.6788659892e+00
 3.6310041076e-01	 1.4068390647e+00	-1.6507363547e+00
 3.5034053397e-01	 1.4100707686e+00	-1.6237707222e+00
 3.3758403934e-01	 1.4131790682e+00	-1.5979025193e+00
 3.2483258008e-01	 1.4161644880e+00	-1.5730579576e+00
 3.1208779129e-01	 1.4190275800e+00	-1.5491570141e+00
 2.9935128951e-01	 1.4217689221e+00	-1.5261143387e+00
 2.8662467219e-01	 1.4243891180e+00	-1.5038400889e+00
 2.7390951733e-01	 1.4268887969e+00	-1.4822406915e+00
 2.6120738298e-01	 1.4292686120e+00	-1.4612195324e+00
 2.4851980688e-01	 1.4315292410e+00	-1.4406775767e+00
 3.7738370740e-01	 1.4091655784e+00	-1.6557365824e+00
 3.6457045291e-01	 1.4125347694e+00	-1.6267370998e+00
 3.5175891670e-01	 1.4157795572e+00	-1.5989501078e+00
 3.3895077634e-01	 1.4189004409e+00	-1.5723004033e+00
 3.2614769174e-01	 1.4218979475e+00	-1.5467061693e+00
 3.1335130462e-01	 1.4247726309e+00	-1.5220799684e+00
 3.0056323805e-01	 1.4275250715e+00	-1.4983296611e+00
 2.8778509597e-01	 1.4301558756e+00	-1.4753592478e+00
 2.7501846274e-01	 1.4326656746e+00	-1.4530696354e+00
 2.6226490275e-01	 1.4350551246e+00	-1.4313593305e+00
 2.4952595995e-01	 1.4373249060e+00	-1.4101250603e+00
 3.7890541590e-01	 1.4148476977e+00	-1.6331062445e+00
 3.6604049506e-01	 1.4182304741e+00	-1.6032636868e+00
 3.5317729943e-01	 1.4214883457e+00	-1.5746751821e+00
 3.4031751334e-01	 1.4246218136e+00	-1.5472582439e+00
 3.2746280340e-01	 1.4276314070e+00	-1.5209244934e+00
 3.1461481794e-01	 1.4305176819e+00	-1.4955806619e+00
 3.0177518659e-01	 1.4332812210e+00	-1.4711295144e+00
 2.8894551974e-01	 1.4359226332e+00	-1.4474706950e+00
 2.7612740816e-01	 1.4384425523e+00	-1.4245014945e+00
 2.6332242252e-01	 1.4408416372e+00	-1.4021175426e+00
 2.5053211301e-01	 1.4431205709e+00	-1.3802134244e+00
 3.8042712440e-01	 1.4205298169e+00	-1.6109236057e+00
 3.6751053721e-01	 1.4239261789e+00	-1.5802596234e+00
 3.5459568216e-01	 1.4271971342e+00	-1.5508857957e+00
 3.4168425034e-01	 1.4303431864e+00	-1.5227136746e+00
 3.2877791506e-01	 1.4333648664e+00	-1.4956497604e+00
 3.1587833127e-01	 1.4362627328e+00	-1.4695965087e+00
 3.0298713513e-01	 1.4390373705e+00	-1.4444532553e+00
 2.9010594352e-01	 1.4416893907e+00	-1.4201170611e+00
 2.7723635357e-01	 1.4442194300e+00	-1.3964834765e+00
 2.6437994228e-01	 1.4466281498e+00	-1.3734472269e+00
 2.5153826608e-01	 1.4489162358e+00	-1.3509028223e+00
 2.4147673543e-01	 1.3909595864e+00	-1.6759507810e+00
 2.2916434600e-01	 1.3930410214e+00	-1.6608684168e+00
 2.1686902986e-01	 1.3950080318e+00	-1.6464017887e+00
 2.0459221980e-01	 1.3968613419e+00	-1.6325515216e+00
 1.9233532745e-01	 1.3986016969e+00	-1.6193172654e+00
 1.8009974305e-01	 1.4002298623e+00	-1.6066978374e+00
 1.6788683513e-01	 1.4017466231e+00	-1.5946913188e+00
 1.5569795026e-01	 1.4031527832e+00	-1.5832951075e+00
 1.4353441282e-01	 1.4044491650e+00	-1.5725059306e+00
 1.3139752474e-01	 1.4056366085e+00	-1.5623198168e+00
 1.1928856536e-01	 1.4067159710e+00	-1.5527320350e+00
 2.4248288850e-01	 1.3967552514e+00	-1.6397504761e+00
 2.3011919744e-01	 1.3988453590e+00	-1.6240118386e+00
 2.1777265082e-01	 1.4008205652e+00	-1.6088966163e+00
 2.0544468738e-01	 1.4026815974e+00	-1.5944115293e+00
 1.9313672465e-01	 1.4044292040e+00	-1.5805630165e+00
 1.8085015865e-01	 1.4060641534e+00	-1.5673573545e+00
 1.6858636361e-01	 1.4075872340e+00	-1.5548007303e+00
 1.5634669172e-01	 1.4089992532e+00	-1.5428992692e+00
 1.4413247287e-01	 1.4103010365e+00	-1.5316590204e+00
 1.3194501443e-01	 1.4114934277e+00	-1.5210859026e+00
 1.1978560105e-01	 1.4125772875e+00	-1.5111856135e+00
 2.4348904156e-01	 1.4025509163e+00	-1.6044855037e+00
 2.3107404888e-01	 1.4046496966e+00	-1.5880663208e+00
 2.1867627178e-01	 1.4066330987e+00	-1.5722888452e+00
 2.0629715496e-01	 1.4085018530e+00	-1.5571648415e+00
 1.9393812185e-01	 1.4102567110e+00	-1.5427063997e+00
 1.8160057425e-01	 1.4118984445e+00	-1.5289260358e+00
 1.6928589209e-01	 1.4134278450e+00	-1.5158367434e+00
 1.5699543318e-01	 1.4148457231e+00	-1.5034519992e+00
 1.4473053292e-01	 1.4161529081e+00	-1.4917857255e+00
 1.3249250411e-01	 1.4173502469e+00	-1.4808522125e+00
 1.2028263674e-01	 1.4184386040e+00	-1.4706660022e+00
 2.4449519463e-01	 1.4083465812e+00	-1.5701120250e+00
 2.3202890032e-01	 1.4104540342e+00	-1.5529956455e+00
 2.1957989274e-01	 1.4124456322e+00	-1.5365483720e+00
 2.0714962254e-01	 1.4143221086e+00	-1.5207859789e+00
 1.9473951905e-01	 1.4160842181e+00	-1.5057250883e+00
 1.8235098984e-01	 1.4177327356e+00	-1.4913832545e+00
 1.6998542057e-01	 1.4192684559e+00	-1.4777789973e+00
 1.5764417464e-01	 1.4206921930e+00	-1.4649317896e+00
 1.4532859298e-01	 1.4220047796e+00	-1.4528619997e+00
 1.3303999380e-01	 1.4232070661e+00	-1.4415907922e+00
 1.2077967243e-01	 1.4242999206e+00	-1.4311399912e+00
 2.4550134769e-01	 1.4141422462e+00	-1.5365868199e+00
 2.3298375176e-01	 1.4162583718e+00	-1.5187641226e+00
 2.2048351369e-01	 1.4182581656e+00	-1.5016455523e+00
 2.0800209013e-01	 1.4201423642e+00	-1.4852498761e+00
 1.9554091624e-01	 1.4219117252e+00	-1.4695971466e+00
 1.8310140544e-01	 1.4235670267e+00	-1.4547087735e+00
 1.7068494905e-01	 1.4251090668e+00	-1.4406075426e+00
 1.5829291610e-01	 1.4265386629e+00	-1.4273175875e+00
 1.4592665303e-01	 1.4278566511e+00	-1.4148643157e+00
 1.3358748349e-01	 1.4290638853e+00	-1.4032742915e+00
 1.2127670812e-01	 1.4301612371e+00	-1.3925750807e+00
 2.4650750075e-01	 1.4199379111e+00	-1.5038672703e+00
 2.3393860321e-01	 1.4220627093e+00	-1.4853365742e+00
 2.2138713465e-01	 1.4240706991e+00	-1.4675511877e+00
 2.0885455771e-01	 1.4259626198e+00	-1.4505318694e+00
 1.9634231344e-01	 1.4277392323e+00	-1.4343010186e+00
 1.8385182103e-01	 1.4294013178e+00	-1.4188827356e+00
 1.7138447753e-01	 1.4309496777e+00	-1.4043028308e+00
 1.5894165756e-01	 1.4323851329e+00	-1.3905887831e+00
 1.4652471308e-01	 1.4337085226e+00	-1.3777696527e+00
 1.3413497317e-01	 1.4349207046e+00	-1.3658759501e+00
 1.2177374380e-01	 1.4360225537e+00	-1.3549394648e+00
 2.4751365382e-01	 1.4257335761e+00	-1.4719113436e+00
 2.3489345465e-01	 1.4278670469e+00	-1.4526783211e+00
 2.2229075561e-01	 1.4298832325e+00	-1.4342365133e+00
 2.0970702529e-01	 1.4317828754e+00	-1.4166076860e+00
 1.9714371064e-01	 1.4335667393e+00	-1.3998155175e+00
 1.8460223663e-01	 1.4352356089e+00	-1.3838856528e+00
 1.7208400601e-01	 1.4367902887e+00	-1.3688457036e+00
 1.5959039902e-01	 1.4382316028e+00	-1.3547251983e+00
 1.4712277314e-01	 1.4395603941e+00	-1.3415554841e+00
 1.3468246286e-01	 1.4407775238e+00	-1.3293695845e+00
 1.2227077949e-01	 1.4418838702e+00	-1.3182020159e+00
 2.4851980688e-01	 1.4315292410e+00	-1.4406775767e+00
 2.3584830609e-01	 1.4336713845e+00	-1.4207551686e+00
 2.2319437657e-01	 1.4356957660e+00	-1.4016731857e+00
 2.1055949287e-01	 1.4376031310e+00	-1.3834534321e+00
 1.9794510784e-01	 1.4393942464e+00	-1.3661198154e+00
 1.8535265223e-01	 1.4410699000e+00	-1.3496983960e+00
 1.7278353449e-01	 1.4426308996e+00	-1.3342173827e+00
 1.6023914048e-01	 1.4440780727e+00	-1.3197070765e+00
 1.4772083319e-01	 1.4454122657e+00	-1.3061997654e+00
 1.3522995255e-01	 1.4466343430e+00	-1.2937295738e+00
 1.2276781518e-01	 1.4477451868e+00	-1.2823322696e+00
 2.4952595995e-01	 1.4373249060e+00	-1.4101250603e+00
 2.3680315753e-01	 1.4394757221e+00	-1.3895333930e+00
 2.2409799752e-01	 1.4415082995e+00	-1.3698332704e+00
 2.1141196046e-01	 1.4434233866e+00	-1.3510455828e+00
 1.9874650503e-01	 1.4452217535e+00	-1.3331934329e+00
 1.8610306782e-01	 1.4469041911e+00	-1.3163021853e+00
 1.7348306297e-01	 1.4484715105e+00	-1.3003994596e+00
 1.6088788194e-01	 1.4499245427e+00	-1.2855150714e+00
 1.4831889324e-01	 1.4512641372e+00	-1.2716809229e+00
 1.3577744223e-01	 1.4524911622e+00	-1.2589308472e+00
 1.2326485087e-01	 1.4536065033e+00	-1.2473004097e+00
 2.5053211301e-01	 1.4431205709e+00	-1.3802134244e+00
 2.3775800897e-01	 1.4452800597e+00	-1.3589797281e+00
 2.2500161848e-01	 1.4473208329e+00	-1.3386892307e+00
 2.1226442804e-01	 1.4492436422e+00	-1.3193609710e+00
 1.9954790223e-01	 1.4510492605e+00	-1.3010162295e+00
 1.8685348342e-01	 1.4527384822e+00	-1.2836785804e+00
 1.7418259145e-01	 1.4543121215e+00	-1.2673738858e+00
 1.6153662340e-01	 1.4557710126e+00	-1.2521302365e+00
 1.4891695330e-01	 1.4571160087e+00	-1.2379778417e+00
 1.3632493192e-01	 1.4583479814e+00	-1.2249488711e+00
 1.2376188656e-01	 1.4594678199e+00	-1.2130772535e+00
 2.5153826608e-01	 1.4489162358e+00	-1.3509028223e+00
 2.3871286041e-01	 1.4510843973e+00	-1.3290613528e+00
 2.2590523944e-01	 1.4531333664e+00	-1.3082139160e+00
 2.1311689562e-01	 1.4550638978e+00	-1.2883767772e+00
 2.0034929943e-01	 1.4568767676e+00	-1.2695683935e+00
 1.8760389902e-01	 1.4585727732e+00	-1.2518094710e+00
 1.7488211993e-01	 1.4601527324e+00	-1.2351229634e+00
 1.6218536486e-01	 1.4616174825e+00	-1.2195340156e+00
 1.4951501335e-01	 1.4629678802e+00	-1.2050698554e+00
 1.3687242160e-01	 1.4642048006e+00	-1.1917596367e+00
 1.2425892225e-01	 1.4653291364e+00	-1.1796342381e+00
 1.1928856536e-01	 1.4067159710e+00	-1.5527320350e+00
 1.0720879118e-01	 1.4076881259e+00	-1.5438341017e+00
 9.5159435731e-02	 1.4085539630e+00	-1.5357811908e+00
 8.3141709395e-02	 1.4093143868e+00	-1.5286603788e+00
 7.1156799295e-02	 1.4099703170e+00	-1.5225544648e+00
 5.9205869158e-02	 1.4105226867e+00	-1.5175417000e+00
 4.7290059228e-02	 1.4109724431e+00	-1.5136955030e+00
 3.5410486172e-02	 1.4113205455e+00	-1.5110841635e+00
 2.3568243017e-02	 1.4115679660e+00	-1.5097705371e+00
 1.1764399093e-02	 1.4117156880e+00	-1.5098117347e+00
 0.0000000000e+00	 1.4117647059e+00	-1.5112588065e+00
 1.1978560105e-01	 1.4125772875e+00	-1.5111856135e+00
 1.0765549448e-01	 1.4135534931e+00	-1.5020438704e+00
 9.5555933380e-02	 1.4144229378e+00	-1.4937951788e+00
 8.3488133185e-02	 1.4151865301e+00	-1.4865150903e+00
 7.1453285958e-02	 1.4158451933e+00	-1.4802748366e+00
 5.9452560280e-02	 1.4163998646e+00	-1.4751410673e+00
 4.7487101141e-02	 1.4168514949e+00	-1.4711755725e+00
 3.5558029864e-02	 1.4172010478e+00	-1.4684349941e+00
 2.3666444029e-02	 1.4174494992e+00	-1.4669705273e+00
 1.1813417422e-02	 1.4175978367e+00	-1.4668276149e+00
 0.0000000000e+00	 1.4176470588e+00	-1.4680456374e+00
 1.2028263674e-01	 1.4184386040e+00	-1.4706660022e+00
 1.0810219777e-01	 1.4194188603e+00	-1.4613008416e+00
 9.5952431028e-02	 1.4202919126e+00	-1.4528666031e+00
 8.3834556974e-02	 1.4210586734e+00	-1.4454290627e+00
 7.1749772622e-02	 1.4217200696e+00	-1.4390497266e+00
 5.9699251401e-02	 1.4222770425e+00	-1.4337855731e+00
 4.7684143055e-02	 1.4227305468e+00	-1.4296887790e+00
 3.5705573557e-02	 1.4230815501e+00	-1.4268064327e+00
 2.3764645042e-02	 1.4233310324e+00	-1.4251802376e+00
 1.1862435752e-02	 1.4234799854e+00	-1.4248462085e+00
 0.0000000000e+00	 1.4235294118e+00	-1.4258343616e+00
 1.2077967243e-01	 1.4242999206e+00	-1.4311399912e+00
 1.0854890107e-01	 1.4252842275e+00	-1.4215666494e+00
 9.6348928677e-02	 1.4261608875e+00	-1.4129534552e+00
 8.4180980763e-02	 1.4269308167e+00	-1.4053581315e+00
 7.2046259286e-02	 1.4275949459e+00	-1.3988342743e+00
 5.9945942523e-02	 1.4281542203e+00	-1.3934310941e+00
 4.7881184968e-02	 1.4286095986e+00	-1.3891931409e+00
 3.5853117249e-02	 1.4289620524e+00	-1.3861600155e+00
 2.3862846054e-02	 1.4292125656e+00	-1.3843660703e+00
 1.1911454081e-02	 1.4293621341e+00	-1.3838401021e+00
 0.0000000000e+00	 1.4294117647e+00	-1.3846050392e+00
 1.2127670812e-01	 1.4301612371e+00	-1.3925750807e+00
 1.0899560437e-01	 1.4311495947e+00	-1.3828037405e+00
 9.6745426326e-02	 1.4320298623e+00	-1.3740146155e+00
 8.4527404552e-02	 1.4328029599e+00	-1.3662590720e+00
 7.2342745949e-02	 1.4334698222e+00	-1.3595845844e+00
 6.0192633644e-02	 1.4340313982e+00	-1.3540344720e+00
 4.8078226882e-02	 1.4344886504e+00	-1.3496476174e+00
 3.6000660942e-02	 1.4348425546e+00	-1.3464581720e+00
 2.3961047067e-02	 1.4350940988e+00	-1.3444952491e+00
 1.1960472411e-02	 1.4352442828e+00	-1.3437826097e+00
 0.0000000000e+00	 1.4352941176e+00	-1.3443383410e+00
 1.2177374380e-01	 1.4360225537e+00	-1.3549394648e+00
 1.0944230766e-01	 1.4370149619e+00	-1.3449753566e+00
 9.7141923975e-02	 1.4378988372e+00	-1.3360098342e+00
 8.4873828341e-02	 1.4386751032e+00	-1.3280895786e+00
 7.2639232613e-02	 1.4393446986e+00	-1.3212577057e+00
 6.0439324766e-02	 1.4399085761e+00	-1.3155534932e+00
 4.8275268795e-02	 1.4403677023e+00	-1.3110120891e+00
 3.6148204634e-02	 1.4407230569e+00	-1.3076642060e+00
 2.4059248079e-02	 1.4409756320e+00	-1.3055358027e+00
 1.2009490741e-02	 1.4411264315e+00	-1.3046477579e+00
 0.0000000000e+00	 1.4411764706e+00	-1.3050155359e+00
 1.2227077949e-01	 1.4418838702e+00	-1.3182020159e+00
 1.0988901096e-01	 1.4428803291e+00	-1.3080455164e+00
 9.7538421624e-02	 1.4437678120e+00	-1.2988997125e+00
 8.5220252130e-02	 1.4445472465e+00	-1.2908082459e+00
 7.2935719277e-02	 1.4452195749e+00	-1.2838116115e+00
 6.0686015887e-02	 1.4457857539e+00	-1.2779468693e+00
 4.8472310709e-02	 1.4462467541e+00	-1.2732473389e+00
 3.6295748326e-02	 1.4466035592e+00	-1.2697422778e+00
 2.4157449092e-02	 1.4468571652e+00	-1.2674565477e+00
 1.2058509070e-02	 1.4470085802e+00	-1.2664102707e+00
 0.0000000000e+00	 1.4470588235e+00	-1.2666184790e+00
 1.2276781518e-01	 1.4477451868e+00	-1.2823322696e+00
 1.1033571426e-01	 1.4487456963e+00	-1.2719789990e+00
 9.7934919273e-02	 1.4496367869e+00	-1.2626456840e+00
 8.5566675920e-02	 1.4504193898e+00	-1.2543745490e+00
 7.3232205941e-02	 1.4510944512e+00	-1.2472051798e+00
 6.0932707009e-02	 1.4516629318e+00	-1.2411742173e+00
 4.8669352622e-02	 1.4521258060e+00	-1.2363150328e+00
 3.6443292019e-02	 1.4524840614e+00	-1.2326573864e+00
 2.4255650105e-02	 1.4527386984e+00	-1.2302270726e+00
 1.2107527400e-02	 1.4528907289e+00	-1.2290455561e+00
 0.0000000000e+00	 1.4529411765e+00	-1.2291295998e+00
 1.2326485087e-01	 1.4536065033e+00	-1.2473004097e+00
 1.1078241755e-01	 1.4546110635e+00	-1.2367413269e+00
 9.8331416922e-02	 1.4555057617e+00	-1.2272099972e+00
 8.5913099709e-02	 1.4562915331e+00	-1.2187488250e+00
 7.3528692604e-02	 1.4569693275e+00	-1.2113981745e+00
 6.1179398130e-02	 1.4575401096e+00	-1.2051960410e+00
 4.8866394536e-02	 1.4580048578e+00	-1.2001777021e+00
 3.6590835711e-02	 1.4583645637e+00	-1.1963753520e+00
 2.4353851117e-02	 1.4586202316e+00	-1.1938177221e+00
 1.2156545729e-02	 1.4587728776e+00	-1.1925296916e+00
 0.0000000000e+00	 1.4588235294e+00	-1.1925318902e+00
 1.2376188656e-01	 1.4594678199e+00	-1.2130772535e+00
 1.1122912085e-01	 1.4604764306e+00	-1.2022987502e+00
 9.8727914571e-02	 1.4613747366e+00	-1.1925556978e+00
 8.6259523498e-02	 1.4621636763e+00	-1.1838922546e+00
 7.3825179268e-02	 1.4628442038e+00	-1.1763512267e+00
 6.1426089252e-02	 1.4634172875e+00	-1.1699737125e+00
 4.9063436449e-02	 1.4638839097e+00	-1.1647987254e+00
 3.6738379404e-02	 1.4642450660e+00	-1.1608627995e+00
 2.4452052130e-02	 1.4645017647e+00	-1.1581995814e+00
 1.2205564059e-02	 1.4646550263e+00	-1.1568394109e+00
 0.0000000000e+00	 1.4647058824e+00	-1.1568088934e+00
 1.2425892225e-01	 1.4653291364e+00	-1.1796342381e+00
 1.1167582415e-01	 1.4663417978e+00	-1.1686182301e+00
 9.9124412219e-02	 1.4672437114e+00	-1.1586466115e+00
 8.6605947287e-02	 1.4680358196e+00	-1.1497668444e+00
 7.4121665932e-02	 1.4687190802e+00	-1.1420258168e+00
 6.1672780373e-02	 1.4692944654e+00	-1.1354694542e+00
 4.9260478362e-02	 1.4697629615e+00	-1.1301423108e+00
 3.6885923096e-02	 1.4701255683e+00	-1.1260871418e+00
 2.4550253142e-02	 1.4703832979e+00	-1.1233444617e+00
 1.2254582388e-02	 1.4705371750e+00	-1.1219520907e+00
 0.0000000000e+00	 1.4705882353e+00	-1.1219446932e+00
 1.4705882353e+00	 0.0000000000e+00	 3.7025111922e+00
 1.4705371750e+00	 1.2254582388e-02	 3.7000976283e+00
 1.4703832979e+00	 2.4550253142e-02	 3.6957491154e+00
 1.4701255683e+00	 3.6885923096e-02	 3.6894074165e+00
 1.4697629615e+00	 4.9260478362e-02	 3.6810210257e+00
 1.4692944654e+00	 6.1672780373e-02	 3.6705467446e+00
 1.4687190802e+00	 7.4121665932e-02	 3.6579512030e+00
 1.4680358196e+00	 8.6605947287e-02	 3.6432123232e+00
 1.4672437114e+00	 9.9124412219e-02	 3.6263207245e+00
 1.4663417978e+00	 1.1167582415e-01	 3.6072810702e+00
 1.4653291364e+00	 1.2425892225e-01	 3.5861133530e+00
 1.4764705882e+00	 0.0000000000e+00	 3.6976404096e+00
 1.4764193237e+00	 1.2303600718e-02	 3.6951045723e+00
 1.4762648311e+00	 2.4648454155e-02	 3.6906686270e+00
 1.4760060705e+00	 3.7033466788e-02	 3.6842667852e+00
 1.4756420134e+00	 4.9457520276e-02	 3.6758410111e+00
 1.4751716432e+00	 6.1919471495e-02	 3.6653426098e+00
 1.4745939565e+00	 7.4418152596e-02	 3.6527337574e+00
 1.4739079629e+00	 8.6952371076e-02	 3.6379889703e+00
 1.4731126863e+00	 9.9520909868e-02	 3.6210965149e+00
 1.4722071650e+00	 1.1212252744e-01	 3.6020597539e+00
 1.4711904530e+00	 1.2475595794e-01	 3.5808984309e+00
 1.4823529412e+00	 0.0000000000e+00	 3.6925147734e+00
 1.4823014724e+00	 1.2352619047e-02	 3.6898579650e+00
 1.4821463643e+00	 2.4746655167e-02	 3.6853341026e+00
 1.4818865728e+00	 3.7181010481e-02	 3.6788705046e+00
 1.4815210652e+00	 4.9654562189e-02	 3.6704032624e+00
 1.4810488211e+00	 6.2166162616e-02	 3.6598788385e+00
 1.4804688328e+00	 7.4714639259e-02	 3.6472556032e+00
 1.4797801062e+00	 8.7298794865e-02	 3.6325053090e+00
 1.4789816611e+00	 9.9917407517e-02	 3.6156145003e+00
 1.4780725322e+00	 1.1256923074e-01	 3.5965858593e+00
 1.4770517695e+00	 1.2525299363e-01	 3.5754394861e+00
 1.4882352941e+00	 0.0000000000e+00	 3.6871158167e+00
 1.4881836211e+00	 1.2401637377e-02	 3.6843425060e+00
 1.4880278975e+00	 2.4844856180e-02	 3.6797328202e+00
 1.4877670751e+00	 3.7328554173e-02	 3.6732078404e+00
 1.4874001171e+00	 4.9851604103e-02	 3.6646984404e+00
 1.4869259989e+00	 6.2412853738e-02	 3.6541468918e+00
 1.4863437091e+00	 7.5011125923e-02	 3.6415084069e+00
 1.4856522495e+00	 8.7645218654e-02	 3.6267526137e+00
 1.4848506360e+00	 1.0031390517e-01	 3.6098649658e+00
 1.4839378994e+00	 1.1301593404e-01	 3.5908480841e+00
 1.4829130861e+00	 1.2575002932e-01	 3.5697230306e+00
 1.4941176471e+00	 0.0000000000e+00	 3.6814252081e+00
 1.4940657698e+00	 1.2450655706e-02	 3.6785429637e+00
 1.4939094307e+00	 2.4943057193e-02	 3.6738520666e+00
 1.4936475774e+00	 3.7476097865e-02	 3.6672680146e+00
 1.4932791689e+00	 5.0048646016e-02	 3.6587171168e+00
 1.4928031768e+00	 6.2659544859e-02	 3.6481381052e+00
 1.4922185854e+00	 7.5307612587e-02	 3.6354836795e+00
 1.4915243927e+00	 8.7991642444e-02	 3.6207219829e+00
 1.4907196108e+00	 1.0071040281e-01	 3.6038380084e+00
 1.4898032666e+00	 1.1346263733e-01	 3.5848349344e+00
 1.4887744026e+00	 1.2624706501e-01	 3.5637353906e+00
 1.5000000000e+00	 0.0000000000e+00	 3.6754247490e+00
 1.4999479185e+00	 1.2499674036e-02	 3.6724441734e+00
 1.4997909639e+00	 2.5041258205e-02	 3.6676791368e+00
 1.4995280796e+00	 3.7623641558e-02	 3.6610402054e+00
 1.4991582208e+00	 5.0245687930e-02	 3.6524497756e+00
 1.4986803547e+00	 6.2906235981e-02	 3.6418436893e+00
 1.4980934618e+00	 7.5604099250e-02	 3.6291727789e+00
 1.4973965360e+00	 8.8338066233e-02	 3.6144043414e+00
 1.4965885856e+00	 1.0110690046e-01	 3.5975235391e+00
 1.4956686338e+00	 1.1390934063e-01	 3.5785347273e+00
 1.4946357191e+00	 1.2674410069e-01	 3.5574627086e+00
 1.5058823529e+00	 0.0000000000e+00	 3.6690963709e+00
 1.5058300672e+00	 1.2548692366e-02	 3.6660310359e+00
 1.5056724971e+00	 2.5139459218e-02	 3.6612013328e+00
 1.5054085819e+00	 3.7771185250e-02	 3.6545135473e+00
 1.5050372726e+00	 5.0442729843e-02	 3.6458868135e+00
 1.5045575325e+00	 6.3152927102e-02	 3.6352547314e+00
 1.5039683381e+00	 7.5900585914e-02	 3.6225669113e+00
 1.5032686793e+00	 8.8684490022e-02	 3.6077904421e+00
 1.5024575605e+00	 1.0150339811e-01	 3.5909112854e+00
 1.5015340010e+00	 1.1435604393e-01	 3.5719355926e+00
 1.5004970357e+00	 1.2724113638e-01	 3.5508909455e+00
 1.5117647059e+00	 0.0000000000e+00	 3.6624221332e+00
 1.5117122159e+00	 1.2597710695e-02	 3.6592885157e+00
 1.5115540303e+00	 2.5237660230e-02	 3.6544059637e+00
 1.5112890842e+00	 3.7918728943e-02	 3.6476771314e+00
 1.5109163244e+00	 5.0639771757e-02	 3.6390185401e+00
 1.5104347104e+00	 6.3399618224e-02	 3.6283621966e+00
 1.5098432144e+00	 7.6197072578e-02	 3.6156571325e+00
 1.5091408226e+00	 8.9030913811e-02	 3.6008708676e+00
 1.5083265353e+00	 1.0189989576e-01	 3.5839907929e+00
 1.5073993682e+00	 1.1480274722e-01	 3.5650254753e+00
 1.5063583522e+00	 1.2773817207e-01	 3.5440058826e+00
 1.5176470588e+00	 0.0000000000e+00	 3.6553842205e+00
 1.5175943646e+00	 1.2646729025e-02	 3.6522016396e+00
 1.5174355635e+00	 2.5335861243e-02	 3.6472803442e+00
 1.5171695864e+00	 3.8066272635e-02	 3.6405200049e+00
 1.5167953763e+00	 5.0836813670e-02	 3.6318351796e+00
 1.5163118883e+00	 6.3646309345e-02	 3.6211569287e+00
 1.5157180907e+00	 7.6493559242e-02	 3.6084343502e+00
 1.5150129658e+00	 8.9377337600e-02	 3.5936360328e+00
 1.5141955102e+00	 1.0229639341e-01	 3.5767514277e+00
 1.5132647354e+00	 1.1524945052e-01	 3.5577921378e+00
 1.5122196688e+00	 1.2823520776e-01	 3.5367931245e+00
 1.5235294118e+00	 0.0000000000e+00	 3.6479649403e+00
 1.5234765133e+00	 1.2695747354e-02	 3.6447554953e+00
 1.5233170967e+00	 2.5434062255e-02	 3.6398117944e+00
 1.5230500887e+00	 3.8213816327e-02	 3.6330311718e+00
 1.5226744281e+00	 5.1033855584e-02	 3.6243268703e+00
 1.5221890661e+00	 6.3893000466e-02	 3.6136296519e+00
 1.5215929670e+00	 7.6790045905e-02	 3.6008893249e+00
 1.5208851091e+00	 8.9723761389e-02	 3.5860761863e+00
 1.5200644850e+00	 1.0269289106e-01	 3.5691823786e+00
 1.5191301026e+00	 1.1569615382e-01	 3.5502231618e+00
 1.5180809853e+00	 1.2873224345e-01	 3.5292381002e+00
 1.5294117647e+00	 0.0000000000e+00	 3.6401467204e+00
 1.5293586620e+00	 1.2744765684e-02	 3.6369352297e+00
 1.5291986299e+00	 2.5532263268e-02	 3.6319876387e+00
 1.5289305910e+00	 3.8361360020e-02	 3.6251995923e+00
 1.5285534800e+00	 5.1230897497e-02	 3.6164836662e+00
 1.5280662440e+00	 6.4139691588e-02	 3.6057709716e+00
 1.5274678434e+00	 7.7086532569e-02	 3.5930126720e+00
 1.5267572524e+00	 9.0070185178e-02	 3.5781814122e+00
 1.5259334599e+00	 1.0308938871e-01	 3.5612726586e+00
 1.5249954698e+00	 1.1614285711e-01	 3.5423059509e+00
 1.5239423019e+00	 1.2922927914e-01	 3.5213260658e+00
 1.4653291364e+00	 1.2425892225e-01	 3.5861133530e+00
 1.4642048006e+00	 1.3687242160e-01	 3.5626682203e+00
 1.4629678802e+00	 1.4951501335e-01	 3.5367308835e+00
 1.4616174825e+00	 1.6218536486e-01	 3.5082467589e+00
 1.4601527324e+00	 1.7488211993e-01	 3.4771772203e+00
 1.4585727732e+00	 1.8760389902e-01	 3.4435006055e+00
 1.4568767676e+00	 2.0034929943e-01	 3.4072131721e+00
 1.4550638978e+00	 2.1311689562e-01	 3.3683300047e+00
 1.4531333664e+00	 2.2590523944e-01	 3.3268858752e+00
 1.4510843973e+00	 2.3871286041e-01	 3.2829360594e+00
 1.4489162358e+00	 2.5153826608e-01	 3.2365571128e+00
 1.4711904530e+00	 1.2475595794e-01	 3.5808984309e+00
 1.4700616198e+00	 1.3741991129e-01	 3.5574445289e+00
 1.4688197517e+00	 1.5011307340e-01	 3.5314644887e+00
 1.4674639525e+00	 1.6283410632e-01	 3.5029047129e+00
 1.4659933433e+00	 1.7558164841e-01	 3.4717283624e+00
 1.4644070643e+00	 1.8835431461e-01	 3.4379163484e+00
 1.4627042747e+00	 2.0115069663e-01	 3.4014682708e+00
 1.4608841534e+00	 2.1396936320e-01	 3.3624033073e+00
 1.4589458999e+00	 2.2680886040e-01	 3.3207610553e+00
 1.4568887349e+00	 2.3966771186e-01	 3.2766023279e+00
 1.4547119008e+00	 2.5254441914e-01	 3.2300099091e+00
 1.4770517695e+00	 1.2525299363e-01	 3.5754394861e+00
 1.4759184390e+00	 1.3796740098e-01	 3.5519880269e+00
 1.4746716233e+00	 1.5071113346e-01	 3.5259779617e+00
 1.4733104224e+00	 1.6348284778e-01	 3.4973565133e+00
 1.4718339543e+00	 1.7628117689e-01	 3.4660884867e+00
 1.4702413554e+00	 1.8910473021e-01	 3.4321572440e+00
 1.4685317818e+00	 2.0195209382e-01	 3.3955656268e+00
 1.4667044089e+00	 2.1482183079e-01	 3.3563368266e+00
 1.4647584333e+00	 2.2771248135e-01	 3.3145152064e+00
 1.4626930725e+00	 2.4062256330e-01	 3.2701670774e+00
 1.4605075657e+00	 2.5355057221e-01	 3.2233814319e+00
 1.4829130861e+00	 1.2575002932e-01	 3.5697230306e+00
 1.4817752582e+00	 1.3851489066e-01	 3.5462827932e+00
 1.4805234948e+00	 1.5130919351e-01	 3.5202530590e+00
 1.4791568923e+00	 1.6413158924e-01	 3.4915817168e+00
 1.4776745652e+00	 1.7698070537e-01	 3.4602350825e+00
 1.4760756465e+00	 1.8985514580e-01	 3.4261988584e+00
 1.4743592888e+00	 2.0275349102e-01	 3.3894790378e+00
 1.4725246645e+00	 2.1567429837e-01	 3.3501027562e+00
 1.4705709668e+00	 2.2861610231e-01	 3.3081190932e+00
 1.4684974101e+00	 2.4157741474e-01	 3.2635998277e+00
 1.4663032307e+00	 2.5455672527e-01	 3.2166401497e+00
 1.4887744026e+00	 1.2624706501e-01	 3.5637353906e+00
 1.4876320774e+00	 1.3906238035e-01	 3.5403127301e+00
 1.4863753663e+00	 1.5190725356e-01	 3.5142713686e+00
 1.4850033622e+00	 1.6478033070e-01	 3.4855597170e+00
 1.4835151761e+00	 1.7768023385e-01	 3.4541454809e+00
 1.4819099376e+00	 1.9060556140e-01	 3.4200166026e+00
 1.4801867959e+00	 2.0355488822e-01	 3.3831821475e+00
 1.4783449201e+00	 2.1652676595e-01	 3.3436731359e+00
 1.4763835003e+00	 2.2951972327e-01	 3.3015433246e+00
 1.4743017476e+00	 2.4253226618e-01	 3.2568699398e+00
 1.4720988956e+00	 2.5556287833e-01	 3.2097543674e+00
 1.4946357191e+00	 1.2674410069e-01	 3.5574627086e+00
 1.4934888966e+00	 1.3960987004e-01	 3.5340615657e+00
 1.4922272378e+00	 1.5250531362e-01	 3.5080143113e+00
 1.4908498322e+00	 1.6542907216e-01	 3.4792697470e+00
 1.4893557870e+00	 1.7837976233e-01	 3.4477968571e+00
 1.4877442287e+00	 1.9135597700e-01	 3.4135857347e+00
 1.4860143030e+00	 2.0435628542e-01	 3.3766484484e+00
 1.4841651757e+00	 2.1737923353e-01	 3.3370198549e+00
 1.4821960337e+00	 2.3042334423e-01	 3.2947583580e+00
 1.4801060852e+00	 2.4348711762e-01	 3.2499466209e+00
 1.4778945606e+00	 2.5656903140e-01	 3.2026922327e+00
 1.5004970357e+00	 1.2724113638e-01	 3.5508909455e+00
 1.4993457158e+00	 1.4015735972e-01	 3.5275128554e+00
 1.4980791093e+00	 1.5310337367e-01	 3.5014631438e+00
 1.4966963021e+00	 1.6607781362e-01	 3.4726908816e+00
 1.4951963980e+00	 1.7907929081e-01	 3.4411662329e+00
 1.4935785198e+00	 1.9210639259e-01	 3.4068813630e+00
 1.4918418100e+00	 2.0515768262e-01	 3.3698512859e+00
 1.4899854313e+00	 2.1823170112e-01	 3.3301146554e+00
 1.4880085672e+00	 2.3132696519e-01	 3.2877345036e+00
 1.4859104228e+00	 2.4444196906e-01	 3.2427989293e+00
 1.4836902255e+00	 2.5757518446e-01	 3.1954217416e+00
 1.5063583522e+00	 1.2773817207e-01	 3.5440058826e+00
 1.5052025350e+00	 1.4070484941e-01	 3.5206499847e+00
 1.5039309809e+00	 1.5370143372e-01	 3.4945989599e+00
 1.5025427720e+00	 1.6672655507e-01	 3.4658020395e+00
 1.5010370089e+00	 1.7977881929e-01	 3.4342304793e+00
 1.4994128109e+00	 1.9285680819e-01	 3.3998784491e+00
 1.4976693171e+00	 2.0595907981e-01	 3.3627638606e+00
 1.4958056869e+00	 2.1908416870e-01	 3.3229291372e+00
 1.4938211007e+00	 2.3223058614e-01	 3.2804419293e+00
 1.4917147604e+00	 2.4539682051e-01	 3.2353957801e+00
 1.4894858904e+00	 2.5858133753e-01	 3.1879107447e+00
 1.5122196688e+00	 1.2823520776e-01	 3.5367931245e+00
 1.5110593542e+00	 1.4125233910e-01	 3.5134561708e+00
 1.5097828524e+00	 1.5429949378e-01	 3.4874026936e+00
 1.5083892420e+00	 1.6737529653e-01	 3.4585819860e+00
 1.5068776198e+00	 1.8047834777e-01	 3.4269663187e+00
 1.5052471020e+00	 1.9360722378e-01	 3.3925518099e+00
 1.5034968242e+00	 2.0676047701e-01	 3.3553592322e+00
 1.5016259425e+00	 2.1993663628e-01	 3.3154347606e+00
 1.4996336341e+00	 2.3313420710e-01	 3.2728506646e+00
 1.4975190980e+00	 2.4635167195e-01	 3.2277059498e+00
 1.4952815554e+00	 2.5958749059e-01	 3.1801269527e+00
 1.5180809853e+00	 1.2873224345e-01	 3.5292381002e+00
 1.5169161734e+00	 1.4179982878e-01	 3.5059144651e+00
 1.5156347239e+00	 1.5489755383e-01	 3.4798551203e+00
 1.5142357119e+00	 1.6802403799e-01	 3.4510093346e+00
 1.5127182308e+00	 1.8117787625e-01	 3.4193503280e+00
 1.5110813931e+00	 1.9435763938e-01	 3.3848761214e+00
 1.5093243312e+00	 2.0756187421e-01	 3.3476103224e+00
 1.5074461981e+00	 2.2078910386e-01	 3.3076028505e+00
 1.5054461676e+00	 2.3403782806e-01	 3.2649306049e+00
 1.5033234356e+00	 2.4730652339e-01	 3.2196980816e+00
 1.5010772203e+00	 2.6059364366e-01	 3.1720379430e+00
 1.5239423019e+00	 1.2922927914e-01	 3.5213260658e+00
 1.5227729926e+00	 1.4234731847e-01	 3.4980077549e+00
 1.5214865954e+00	 1.5549561388e-01	 3.4719368597e+00
 1.5200821818e+00	 1.6867277945e-01	 3.4430625499e+00
 1.5185588417e+00	 1.8187740473e-01	 3.4113589405e+00
 1.5169156842e+00	 1.9510805498e-01	 3.3768259208e+00
 1.5151518383e+00	 2.0836327141e-01	 3.3394899185e+00
 1.5132664537e+00	 2.2164157145e-01	 3.2994046003e+00
 1.5112587011e+00	 2.3494144902e-01	 3.2566515162e+00
 1.5091277732e+00	 2.4826137483e-01	 3.2113406904e+00
 1.5068728853e+00	 2.6159979672e-01	 3.1636111648e+00
 1.4489162358e+00	 2.5153826608e-01	 3.2365571128e+00
 1.4466281498e+00	 2.6437994228e-01	 3.1870061922e+00
 1.4442194300e+00	 2.7723635357e-01	 3.1338102858e+00
 1.4416893907e+00	 2.9010594352e-01	 3.0774874943e+00
 1.4390373705e+00	 3.0298713513e-01	 3.0185832706e+00
 1.4362627328e+00	 3.1587833127e-01	 2.9576705899e+00
 1.4333648664e+00	 3.2877791506e-01	 2.8953500831e+00
 1.4303431864e+00	 3.4168425034e-01	 2.8322501359e+00
 1.4271971342e+00	 3.5459568216e-01	 2.7690269573e+00
 1.4239261789e+00	 3.6751053721e-01	 2.7063646212e+00
 1.4205298169e+00	 3.8042712440e-01	 2.6449750813e+00
 1.4547119008e+00	 2.5254441914e-01	 3.2300099091e+00
 1.4524146624e+00	 2.6543746205e-01	 3.1802433544e+00
 1.4499963077e+00	 2.7834529899e-01	 3.1268270969e+00
 1.4474561483e+00	 2.9126636729e-01	 3.0702791030e+00
 1.4447935200e+00	 3.0419908367e-01	 3.0111454322e+00
 1.4420077837e+00	 3.1714184459e-01	 2.9500003983e+00
 1.4390983259e+00	 3.3009302672e-01	 2.8874466931e+00
 1.4360645591e+00	 3.4305098734e-01	 2.8241154777e+00
 1.4329059228e+00	 3.5601406488e-01	 2.7606664448e+00
 1.4296218836e+00	 3.6898057936e-01	 2.6977878536e+00
 1.4262119362e+00	 3.8194883290e-01	 2.6361965420e+00
 1.4605075657e+00	 2.5355057221e-01	 3.2233814319e+00
 1.4582011750e+00	 2.6649498182e-01	 3.1734212460e+00
 1.4557731855e+00	 2.7945424440e-01	 3.1198091494e+00
 1.4532229058e+00	 2.9242679107e-01	 3.0630625300e+00
 1.4505496695e+00	 3.0541103221e-01	 3.0037275670e+00
 1.4477528347e+00	 3.1840535792e-01	 2.9423793807e+00
 1.4448317854e+00	 3.3140813838e-01	 2.8796221464e+00
 1.4417859319e+00	 3.4441772434e-01	 2.8160891781e+00
 1.4386147113e+00	 3.5743244761e-01	 2.7524429821e+00
 1.4353175883e+00	 3.7045062151e-01	 2.6893752875e+00
 1.4318940555e+00	 3.8347054140e-01	 2.6276070529e+00
 1.4663032307e+00	 2.5455672527e-01	 3.2166401497e+00
 1.4639876876e+00	 2.6755250159e-01	 3.1665071322e+00
 1.4615500632e+00	 2.8056318982e-01	 3.1127220088e+00
 1.4589896634e+00	 2.9358721484e-01	 3.0558011571e+00
 1.4563058190e+00	 3.0662298075e-01	 2.9962903994e+00
 1.4534978856e+00	 3.1966887125e-01	 2.9347651415e+00
 1.4505652448e+00	 3.3272325004e-01	 2.8718304768e+00
 1.4475073046e+00	 3.4578446135e-01	 2.8081212594e+00
 1.4443234999e+00	 3.5885083034e-01	 2.7443021513e+00
 1.4410132930e+00	 3.7192066366e-01	 2.6810676457e+00
 1.4375761747e+00	 3.8499224989e-01	 2.6191420697e+00
 1.4720988956e+00	 2.5556287833e-01	 3.2097543674e+00
 1.4697742002e+00	 2.6861002136e-01	 3.1594681142e+00
 1.4673269409e+00	 2.8167213523e-01	 3.1055310866e+00
 1.4647564210e+00	 2.9474763861e-01	 3.0484582305e+00
 1.4620619684e+00	 3.0783492929e-01	 2.9887945464e+00
 1.4592429365e+00	 3.2093238457e-01	 2.9271152162e+00
 1.4562987043e+00	 3.3403836170e-01	 2.8640256956e+00
 1.4532286774e+00	 3.4715119835e-01	 2.8001617782e+00
 1.4500322884e+00	 3.6026921307e-01	 2.7361896338e+00
 1.4467089977e+00	 3.7339070581e-01	 2.6728058248e+00
 1.4432582940e+00	 3.8651395839e-01	 2.6107373051e+00
 1.4778945606e+00	 2.5656903140e-01	 3.2026922327e+00
 1.4755607128e+00	 2.6966754113e-01	 3.1522711361e+00
 1.4731038186e+00	 2.8278108064e-01	 3.0982016469e+00
 1.4705231785e+00	 2.9590806239e-01	 3.0409968688e+00
 1.4678181179e+00	 3.0904687783e-01	 2.9812005267e+00
 1.4649879875e+00	 3.2219589790e-01	 2.9193870795e+00
 1.4620321638e+00	 3.3535347336e-01	 2.8561618016e+00
 1.4589500501e+00	 3.4851793535e-01	 2.7921608352e+00
 1.4557410769e+00	 3.6168759580e-01	 2.7280512206e+00
 1.4524047024e+00	 3.7486074795e-01	 2.6645309055e+00
 1.4489404133e+00	 3.8803566689e-01	 2.6023287385e+00
 1.4836902255e+00	 2.5757518446e-01	 3.1954217416e+00
 1.4813472254e+00	 2.7072506090e-01	 3.1448829921e+00
 1.4788806963e+00	 2.8389002606e-01	 3.0906988146e+00
 1.4762899361e+00	 2.9706848616e-01	 3.0333800715e+00
 1.4735742674e+00	 3.1025882637e-01	 2.9734687690e+00
 1.4707330384e+00	 3.2345941122e-01	 2.9115381555e+00
 1.4677656232e+00	 3.3666858502e-01	 2.8481927901e+00
 1.4646714229e+00	 3.4988467235e-01	 2.7840685843e+00
 1.4614498655e+00	 3.6310597853e-01	 2.7198328220e+00
 1.4581004071e+00	 3.7633079010e-01	 2.6561841620e+00
 1.4546225325e+00	 3.8955737539e-01	 2.5938526263e+00
 1.4894858904e+00	 2.5858133753e-01	 3.1879107447e+00
 1.4871337380e+00	 2.7178258067e-01	 3.1372703326e+00
 1.4846575741e+00	 2.8499897147e-01	 3.0829875823e+00
 1.4820566937e+00	 2.9822890994e-01	 3.0255707266e+00
 1.4793304169e+00	 3.1147077492e-01	 2.9655596208e+00
 1.4764780893e+00	 3.2472292455e-01	 2.9035258258e+00
 1.4734990827e+00	 3.3798369668e-01	 2.8400726627e+00
 1.4703927956e+00	 3.5125140935e-01	 2.7758352426e+00
 1.4671586540e+00	 3.6452436126e-01	 2.7114804771e+00
 1.4637961119e+00	 3.7780083225e-01	 2.6477070720e+00
 1.4603046518e+00	 3.9107908388e-01	 2.5852455112e+00
 1.4952815554e+00	 2.5958749059e-01	 3.1801269527e+00
 1.4929202506e+00	 2.7284010044e-01	 3.1293996717e+00
 1.4904344518e+00	 2.8610791689e-01	 3.0750328184e+00
 1.4878234512e+00	 2.9938933371e-01	 3.0175316193e+00
 1.4850865664e+00	 3.1268272346e-01	 2.9574333571e+00
 1.4822231402e+00	 3.2598643787e-01	 2.8953074392e+00
 1.4792325422e+00	 3.3929880834e-01	 2.8317554362e+00
 1.4761141684e+00	 3.5261814635e-01	 2.7674111003e+00
 1.4728674425e+00	 3.6594274398e-01	 2.7029403641e+00
 1.4694918166e+00	 3.7927087440e-01	 2.6390413270e+00
 1.4659867711e+00	 3.9260079238e-01	 2.5764442326e+00
 1.5010772203e+00	 2.6059364366e-01	 3.1720379430e+00
 1.4987067632e+00	 2.7389762021e-01	 3.1212373933e+00
 1.4962113295e+00	 2.8721686230e-01	 3.0667992742e+00
 1.4935902088e+00	 3.0054975748e-01	 3.0092254393e+00
 1.4908427159e+00	 3.1389467200e-01	 2.9490501889e+00
 1.4879681912e+00	 3.2724995120e-01	 2.8868403204e+00
 1.4849660016e+00	 3.4061392000e-01	 2.8231951527e+00
 1.4818355411e+00	 3.5398488335e-01	 2.7587465300e+00
 1.4785762311e+00	 3.6736112671e-01	 2.6941588102e+00
 1.4751875213e+00	 3.8074091655e-01	 2.6301288419e+00
 1.4716688903e+00	 3.9412250088e-01	 2.5673859365e+00
 1.5068728853e+00	 2.6159979672e-01	 3.1636111648e+00
 1.5044932758e+00	 2.7495513998e-01	 3.1127497579e+00
 1.5019882072e+00	 2.8832580772e-01	 3.0582515912e+00
 1.4993569664e+00	 3.0171018126e-01	 3.0006147899e+00
 1.4965988653e+00	 3.1510662054e-01	 2.9403702717e+00
 1.4937132421e+00	 3.2851346452e-01	 2.8780817793e+00
 1.4906994611e+00	 3.4192903166e-01	 2.8143458883e+00
 1.4875569138e+00	 3.5535162036e-01	 2.7497919966e+00
 1.4842850196e+00	 3.6877950944e-01	 2.6850823009e+00
 1.4808832260e+00	 3.8221095870e-01	 2.6209117651e+00
 1.4773510096e+00	 3.9564420938e-01	 2.5580080854e+00
 1.4205298169e+00	 3.8042712440e-01	 2.6449750813e+00
 1.4170075736e+00	 3.9334373533e-01	 2.5826413257e+00
 1.4133590030e+00	 4.0625864488e-01	 2.5166902397e+00
 1.4095836886e+00	 4.1917011173e-01	 2.4471763947e+00
 1.4056812443e+00	 4.3207637899e-01	 2.3741626520e+00
 1.4016513142e+00	 4.4497567477e-01	 2.2977207710e+00
 1.3974935738e+00	 4.5786621285e-01	 2.2179320392e+00
 1.3932077301e+00	 4.7074619324e-01	 2.1348879231e+00
 1.3887935222e+00	 4.8361380293e-01	 2.0486907382e+00
 1.3842507218e+00	 4.9646721650e-01	 1.9594543360e+00
 1.3795791334e+00	 5.0930459686e-01	 1.8673048041e+00
 1.4262119362e+00	 3.8194883290e-01	 2.6361965420e+00
 1.4226756039e+00	 3.9491711028e-01	 2.5735899417e+00
 1.4190124390e+00	 4.0788367946e-01	 2.5072226004e+00
 1.4152220234e+00	 4.2084679218e-01	 2.4371749701e+00
 1.4113039693e+00	 4.3380468450e-01	 2.3635366436e+00
 1.4072579195e+00	 4.4675557747e-01	 2.2864069502e+00
 1.4030835481e+00	 4.5969767770e-01	 2.2058955745e+00
 1.3987805611e+00	 4.7262917801e-01	 2.1221231983e+00
 1.3943486963e+00	 4.8554825814e-01	 2.0352221640e+00
 1.3897877247e+00	 4.9845308537e-01	 1.9453371556e+00
 1.3850974500e+00	 5.1134181525e-01	 1.8526258960e+00
 1.4318940555e+00	 3.8347054140e-01	 2.6276070529e+00
 1.4283436342e+00	 3.9649048522e-01	 2.5647500142e+00
 1.4246658750e+00	 4.0950871404e-01	 2.4979874015e+00
 1.4208603581e+00	 4.2252347262e-01	 2.4274265363e+00
 1.4169266942e+00	 4.3553299002e-01	 2.3531847939e+00
 1.4128645247e+00	 4.4853548017e-01	 2.2753901868e+00
 1.4086735224e+00	 4.6152914255e-01	 2.1941819721e+00
 1.4043533920e+00	 4.7451216278e-01	 2.1097112846e+00
 1.3999038704e+00	 4.8748271335e-01	 2.0221417925e+00
 1.3953247275e+00	 5.0043895424e-01	 1.9316503736e+00
 1.3906157665e+00	 5.1337903364e-01	 1.8384278090e+00
 1.4375761747e+00	 3.8499224989e-01	 2.6191420697e+00
 1.4340116645e+00	 3.9806386016e-01	 2.5560518817e+00
 1.4303193110e+00	 4.1113374862e-01	 2.4889105603e+00
 1.4264986929e+00	 4.2420015307e-01	 2.4178532761e+00
 1.4225494192e+00	 4.3726129554e-01	 2.3430262281e+00
 1.4184711300e+00	 4.5031538287e-01	 2.2645872140e+00
 1.4142634967e+00	 4.6336060740e-01	 2.1827062268e+00
 1.4099262229e+00	 4.7639514756e-01	 2.0975660784e+00
 1.4054590445e+00	 4.8941716856e-01	 2.0093630480e+00
 1.4008617304e+00	 5.0242482310e-01	 1.9183075531e+00
 1.3961340830e+00	 5.1541625203e-01	 1.8246248395e+00
 1.4432582940e+00	 3.8651395839e-01	 2.6107373051e+00
 1.4396796948e+00	 3.9963723510e-01	 2.5474262229e+00
 1.4359727470e+00	 4.1275878320e-01	 2.4799184087e+00
 1.4321370276e+00	 4.2587683352e-01	 2.4083778526e+00
 1.4281721442e+00	 4.3898960105e-01	 2.3329806086e+00
 1.4240777352e+00	 4.5209528557e-01	 2.2539153508e+00
 1.4198534710e+00	 4.6519207225e-01	 2.1713839592e+00
 1.4154990538e+00	 4.7827813233e-01	 2.0856021340e+00
 1.4110142186e+00	 4.9135162378e-01	 1.9968000364e+00
 1.4063987333e+00	 5.0441069197e-01	 1.9052229540e+00
 1.4016523996e+00	 5.1745347041e-01	 1.8111319881e+00
 1.4489404133e+00	 3.8803566689e-01	 2.6023287385e+00
 1.4453477251e+00	 4.0121061004e-01	 2.5388040664e+00
 1.4416261830e+00	 4.1438381778e-01	 2.4709377028e+00
 1.4377753624e+00	 4.2755351396e-01	 2.3989234194e+00
 1.4337948692e+00	 4.4071790657e-01	 2.3229681463e+00
 1.4296843405e+00	 4.5387518827e-01	 2.2432925143e+00
 1.4254434453e+00	 4.6702353710e-01	 2.1601314297e+00
 1.4210718847e+00	 4.8016111710e-01	 2.0737346789e+00
 1.4165693927e+00	 4.9328607899e-01	 1.9843675617e+00
 1.4119357362e+00	 5.0639656083e-01	 1.8923115518e+00
 1.4071707161e+00	 5.1949068880e-01	 1.7978649802e+00
 1.4546225325e+00	 3.8955737539e-01	 2.5938526263e+00
 1.4510157554e+00	 4.0278398498e-01	 2.5301168007e+00
 1.4472796190e+00	 4.1600885236e-01	 2.4618956335e+00
 1.4434136971e+00	 4.2923019441e-01	 2.3894136316e+00
 1.4394175941e+00	 4.4244621208e-01	 2.3129096122e+00
 1.4352909458e+00	 4.5565509097e-01	 2.2326372324e+00
 1.4310334196e+00	 4.6885500195e-01	 2.1488655520e+00
 1.4266447157e+00	 4.8204410188e-01	 2.0618796285e+00
 1.4221245668e+00	 4.9522053420e-01	 1.9719811433e+00
 1.4174727391e+00	 5.0838242970e-01	 1.8794890565e+00
 1.4126890326e+00	 5.2152790719e-01	 1.7847402870e+00
 1.4603046518e+00	 3.9107908388e-01	 2.5852455112e+00
 1.4566837857e+00	 4.0435735992e-01	 2.5212961838e+00
 1.4529330550e+00	 4.1763388694e-01	 2.4527198366e+00
 1.4490520319e+00	 4.3090687486e-01	 2.3797726562e+00
 1.4450403191e+00	 4.4417451760e-01	 2.3027263488e+00
 1.4408975510e+00	 4.5743499367e-01	 2.2218686561e+00
 1.4366233939e+00	 4.7068646680e-01	 2.1375039068e+00
 1.4322175466e+00	 4.8392708665e-01	 2.0499536017e+00
 1.4276797409e+00	 4.9715498941e-01	 1.9595570324e+00
 1.4230097420e+00	 5.1036829857e-01	 1.8666719309e+00
 1.4182073492e+00	 5.2356512558e-01	 1.7716751464e+00
 1.4659867711e+00	 3.9260079238e-01	 2.5764442326e+00
 1.4623518160e+00	 4.0593073486e-01	 2.5122743535e+00
 1.4585864911e+00	 4.1925892152e-01	 2.4433384032e+00
 1.4546903667e+00	 4.3258355530e-01	 2.3699251837e+00
 1.4506630441e+00	 4.4590282312e-01	 2.2923402820e+00
 1.4465041563e+00	 4.5921489637e-01	 2.2109065725e+00
 1.4422133682e+00	 4.7251793166e-01	 2.1259647561e+00
 1.4377903775e+00	 4.8581007142e-01	 2.0378739360e+00
 1.4332349149e+00	 4.9908944462e-01	 1.9470122292e+00
 1.4285467449e+00	 5.1235416743e-01	 1.8537774100e+00
 1.4237256657e+00	 5.2560234396e-01	 1.7585875838e+00
 1.4716688903e+00	 3.9412250088e-01	 2.5673859365e+00
 1.4680198463e+00	 4.0750410981e-01	 2.5029838379e+00
 1.4642399271e+00	 4.2088395610e-01	 2.4336798902e+00
 1.4603287014e+00	 4.3426023575e-01	 2.3597964385e+00
 1.4562857691e+00	 4.4763112863e-01	 2.2816739329e+00
 1.4521107615e+00	 4.6099479907e-01	 2.1996714173e+00
 1.4478033425e+00	 4.7434939651e-01	 2.1141670568e+00
 1.4433632084e+00	 4.8769305619e-01	 2.0255587035e+00
 1.4387900890e+00	 5.0102389983e-01	 1.9342645004e+00
 1.4340837478e+00	 5.1434003630e-01	 1.8407235196e+00
 1.4292439822e+00	 5.2763956235e-01	 1.7453964333e+00
 1.4773510096e+00	 3.9564420938e-01	 2.5580080854e+00
 1.4736878766e+00	 4.0907748475e-01	 2.4933575648e+00
 1.4698933631e+00	 4.2250899067e-01	 2.4236733308e+00
 1.4659670362e+00	 4.3593691620e-01	 2.3493121903e+00
 1.4619084940e+00	 4.4935943415e-01	 2.2706504294e+00
 1.4577173668e+00	 4.6277470176e-01	 2.1880842880e+00
 1.4533933168e+00	 4.7618086136e-01	 2.1020304753e+00
 1.4489360394e+00	 4.8957604097e-01	 2.0129267259e+00
 1.4443452631e+00	 5.0295835505e-01	 1.9212323958e+00
 1.4396207506e+00	 5.1632590516e-01	 1.8274290957e+00
 1.4347622988e+00	 5.2967678074e-01	 1.7320213586e+00
 1.3795791334e+00	 5.0930459686e-01	 1.8673048041e+00
 1.3747785954e+00	 5.2212409593e-01	 1.7739029591e+00
 1.3698489795e+00	 5.3492385536e-01	 1.6817999913e+00
 1.3647901923e+00	 5.4770200730e-01	 1.5924960571e+00
 1.3596021745e+00	 5.6045667517e-01	 1.5075291899e+00
 1.3542849023e+00	 5.7318597439e-01	 1.4284744084e+00
 1.3488383868e+00	 5.8588801319e-01	 1.3569427473e+00
 1.3432626752e+00	 5.9856089341e-01	 1.2877713503e+00
 1.3375578505e+00	 6.1120271133e-01	 1.2090354069e+00
 1.3317240320e+00	 6.2381155848e-01	 1.1216009326e+00
 1.3257613754e+00	 6.3638552247e-01	 1.0266793422e+00
 1.3850974500e+00	 5.1134181525e-01	 1.8526258960e+00
 1.3802777097e+00	 5.2421259231e-01	 1.7588703353e+00
 1.3753283755e+00	 5.3706355078e-01	 1.6667300083e+00
 1.3702493531e+00	 5.4989281533e-01	 1.5777185474e+00
 1.3650405832e+00	 5.6269850188e-01	 1.4933880429e+00
 1.3597020419e+00	 5.7547871829e-01	 1.4153281719e+00
 1.3542337404e+00	 5.8823156524e-01	 1.3451652517e+00
 1.3486357259e+00	 6.0095513698e-01	 1.2743331235e+00
 1.3429080819e+00	 6.1364752218e-01	 1.1939634341e+00
 1.3370509281e+00	 6.2630680471e-01	 1.1052712006e+00
 1.3310644209e+00	 6.3893106456e-01	 1.0094676477e+00
 1.3906157665e+00	 5.1337903364e-01	 1.8384278090e+00
 1.3857768241e+00	 5.2630108869e-01	 1.7443769895e+00
 1.3808077714e+00	 5.3920324620e-01	 1.6522631718e+00
 1.3757085138e+00	 5.5208362336e-01	 1.5636112073e+00
 1.3704789919e+00	 5.6494032858e-01	 1.4799848778e+00
 1.3651191815e+00	 5.7777146219e-01	 1.4029860491e+00
 1.3596290939e+00	 5.9057511729e-01	 1.3339147626e+00
 1.3540087766e+00	 6.0334938056e-01	 1.2611737960e+00
 1.3482583133e+00	 6.1609233302e-01	 1.1792669933e+00
 1.3423778242e+00	 6.2880205095e-01	 1.0894068937e+00
 1.3363674664e+00	 6.4147660665e-01	 9.9280136910e-01
 1.3961340830e+00	 5.1541625203e-01	 1.8246248395e+00
 1.3912759385e+00	 5.2838958508e-01	 1.7303377089e+00
 1.3862871673e+00	 5.4134294162e-01	 1.6383137067e+00
 1.3811676746e+00	 5.5427443139e-01	 1.5500866684e+00
 1.3759174006e+00	 5.6718215528e-01	 1.4672297248e+00
 1.3705363211e+00	 5.8006420608e-01	 1.3913544835e+00
 1.3650244475e+00	 5.9291866935e-01	 1.3227670744e+00
 1.3593818273e+00	 6.0574362413e-01	 1.2482160068e+00
 1.3536085447e+00	 6.1853714387e-01	 1.1648662752e+00
 1.3477047203e+00	 6.3129729718e-01	 1.0739249190e+00
 1.3416705119e+00	 6.4402214874e-01	 9.7659332886e-01
 1.4016523996e+00	 5.1745347041e-01	 1.8111319881e+00
 1.3967750529e+00	 5.3047808146e-01	 1.7166679972e+00
 1.3917665632e+00	 5.4348263704e-01	 1.6247965838e+00
 1.3866268354e+00	 5.5646523942e-01	 1.5370583540e+00
 1.3813558093e+00	 5.6942398198e-01	 1.4550334681e+00
 1.3759534607e+00	 5.8235694998e-01	 1.3803408511e+00
 1.3704198010e+00	 5.9526222140e-01	 1.3116485321e+00
 1.3647548780e+00	 6.0813786771e-01	 1.2353845727e+00
 1.3589587761e+00	 6.2098195471e-01	 1.1506837109e+00
 1.3530316165e+00	 6.3379254341e-01	 1.0587444987e+00
 1.3469735574e+00	 6.4656769083e-01	 9.6075875240e-01
 1.4071707161e+00	 5.1949068880e-01	 1.7978649802e+00
 1.4022741673e+00	 5.3256657785e-01	 1.7032840968e+00
 1.3972459591e+00	 5.4562233246e-01	 1.6116275438e+00
 1.3920859961e+00	 5.5865604745e-01	 1.5244405058e+00
 1.3867942180e+00	 5.7166580868e-01	 1.4433078737e+00
 1.3813706003e+00	 5.8464969388e-01	 1.3698534881e+00
 1.3758151546e+00	 5.9760577345e-01	 1.3004875837e+00
 1.3701279287e+00	 6.1053211128e-01	 1.2226064598e+00
 1.3643090075e+00	 6.2342676556e-01	 1.1366439410e+00
 1.3583585126e+00	 6.3628778965e-01	 1.0437871379e+00
 1.3522766029e+00	 6.4911323292e-01	 9.4521523292e-01
 1.4126890326e+00	 5.2152790719e-01	 1.7847402870e+00
 1.4077732816e+00	 5.3465507423e-01	 1.6901030125e+00
 1.4027253551e+00	 5.4776202788e-01	 1.5987231227e+00
 1.3975451569e+00	 5.6084685548e-01	 1.5121482095e+00
 1.3922326267e+00	 5.7390763538e-01	 1.4319656164e+00
 1.3867877399e+00	 5.8694243778e-01	 1.3598017194e+00
 1.3812105081e+00	 5.9994932550e-01	 1.2892147522e+00
 1.3755009794e+00	 6.1292635485e-01	 1.2098107553e+00
 1.3696592389e+00	 6.2587157640e-01	 1.1226737858e+00
 1.3636854087e+00	 6.3878303588e-01	 1.0289765920e+00
 1.3575796484e+00	 6.5165877501e-01	 9.2988269679e-01
 1.4182073492e+00	 5.2356512558e-01	 1.7716751464e+00
 1.4132723960e+00	 5.3674357061e-01	 1.6770425336e+00
 1.4082047510e+00	 5.4990172331e-01	 1.5860006760e+00
 1.4030043177e+00	 5.6303766351e-01	 1.5000974210e+00
 1.3976710354e+00	 5.7614946208e-01	 1.4209203077e+00
 1.3922048795e+00	 5.8923518167e-01	 1.3500382006e+00
 1.3866058617e+00	 6.0229287756e-01	 1.2777626091e+00
 1.3808740301e+00	 6.1532059843e-01	 1.1969286393e+00
 1.3750094703e+00	 6.2831638725e-01	 1.1087022150e+00
 1.3690123049e+00	 6.4127828211e-01	 1.0142388346e+00
 1.3628826939e+00	 6.5420431710e-01	 9.1468336894e-01
 1.4237256657e+00	 5.2560234396e-01	 1.7585875838e+00
 1.4187715104e+00	 5.3883206700e-01	 1.6640212575e+00
 1.4136841469e+00	 5.5204141873e-01	 1.5733784036e+00
 1.4084634784e+00	 5.6522847154e-01	 1.4882049929e+00
 1.4031094441e+00	 5.7839128878e-01	 1.4100865224e+00
 1.3976220192e+00	 5.9152792557e-01	 1.3400301536e+00
 1.3920012152e+00	 6.0463642961e-01	 1.2660657476e+00
 1.3862470808e+00	 6.1771484200e-01	 1.1838933560e+00
 1.3803597017e+00	 6.3076119809e-01	 1.0946603176e+00
 1.3743392010e+00	 6.4377352835e-01	 9.9950202509e-01
 1.3681857394e+00	 6.5674985919e-01	 8.9954173853e-01
 1.4292439822e+00	 5.2763956235e-01	 1.7453964333e+00
 1.4242706248e+00	 5.4092056338e-01	 1.6509586125e+00
 1.4191635428e+00	 5.5418111415e-01	 1.5607753746e+00
 1.4139226392e+00	 5.6741927957e-01	 1.4763887004e+00
 1.4085478528e+00	 5.8063311548e-01	 1.3993798267e+00
 1.4030391588e+00	 5.9382066947e-01	 1.3296169466e+00
 1.3973965688e+00	 6.0697998166e-01	 1.2540607564e+00
 1.3916201315e+00	 6.2010908557e-01	 1.1706401861e+00
 1.3857099331e+00	 6.3320600894e-01	 1.0804812718e+00
 1.3796660971e+00	 6.4626877458e-01	 9.8469647714e-01
 1.3734887849e+00	 6.5929540128e-01	 8.8438452466e-01
 1.4347622988e+00	 5.2967678074e-01	 1.7320213586e+00
 1.4297697392e+00	 5.4300905976e-01	 1.6377748807e+00
 1.4246429387e+00	 5.5632080957e-01	 1.5481115519e+00
 1.4193818000e+00	 5.6961008760e-01	 1.4645672679e+00
 1.4139862615e+00	 5.8287494218e-01	 1.3887168057e+00
 1.4084562984e+00	 5.9611341337e-01	 1.3187375913e+00
 1.4027919223e+00	 6.0932353372e-01	 1.2416861926e+00
 1.3969931822e+00	 6.2250332915e-01	 1.1571064186e+00
 1.3910601645e+00	 6.3565081979e-01	 1.0661003153e+00
 1.3849929932e+00	 6.4876402082e-01	 9.6975462640e-01
 1.3787918304e+00	 6.6184094337e-01	 8.6914064236e-01
 1.3257613754e+00	 6.3638552247e-01	 1.0266793422e+00
 1.3196700735e+00	 6.4892268787e-01	 9.3112016529e-01
 1.3134503558e+00	 6.6142113706e-01	 8.4043729602e-01
 1.3071024891e+00	 6.7387895108e-01	 7.5380943312e-01
 1.3006267775e+00	 6.8629421056e-01	 6.7038142799e-01
 1.2940235625e+00	 6.9866499654e-01	 5.8926703044e-01
 1.2872932234e+00	 7.1098939143e-01	 5.0955186195e-01
 1.2804361770e+00	 7.2326547989e-01	 4.3029661351e-01
 1.2734528779e+00	 7.3549134973e-01	 3.5054046376e-01
 1.2663438185e+00	 7.4766509284e-01	 2.6930471204e-01
 1.2591095291e+00	 7.5978480608e-01	 1.8559661952e-01
 1.3310644209e+00	 6.3893106456e-01	 1.0094676477e+00
 1.3249487538e+00	 6.5151837862e-01	 9.1329201649e-01
 1.3187041573e+00	 6.6406682161e-01	 8.2214096552e-01
 1.3123308991e+00	 6.7657446689e-01	 7.3518096591e-01
 1.3058292846e+00	 6.8903938740e-01	 6.5154327692e-01
 1.2991996568e+00	 7.0145965653e-01	 5.7032673262e-01
 1.2924423963e+00	 7.1383334900e-01	 4.9060076211e-01
 1.2855579217e+00	 7.2615854181e-01	 4.1140864046e-01
 1.2785466894e+00	 7.3843331513e-01	 3.3177096620e-01
 1.2714091938e+00	 7.5065575321e-01	 2.5068935989e-01
 1.2641459672e+00	 7.6282394531e-01	 1.6715037712e-01
 1.3363674664e+00	 6.4147660665e-01	 9.9280136910e-01
 1.3302274341e+00	 6.5411406937e-01	 8.9607408613e-01
 1.3239579587e+00	 6.6671250616e-01	 8.0450233114e-01
 1.3175593090e+00	 6.7926998269e-01	 7.1724190901e-01
 1.3110317917e+00	 6.9178456424e-01	 6.3341215521e-01
 1.3043757510e+00	 7.0425431651e-01	 5.5209876199e-01
 1.2975915692e+00	 7.1667730656e-01	 4.7235684415e-01
 1.2906796664e+00	 7.2905160373e-01	 3.9321424162e-01
 1.2836405009e+00	 7.4137528053e-01	 3.1367505472e-01
 1.2764745691e+00	 7.5364641358e-01	 2.3272340671e-01
 1.2691824053e+00	 7.6586308453e-01	 1.4932742691e-01
 1.3416705119e+00	 6.4402214874e-01	 9.7659332886e-01
 1.3355061144e+00	 6.5670976013e-01	 8.7937534653e-01
 1.3292117601e+00	 6.6935819070e-01	 7.8742774811e-01
 1.3227877190e+00	 6.8196549850e-01	 6.9989721488e-01
 1.3162342988e+00	 6.9452974108e-01	 6.1589280673e-01
 1.3095518453e+00	 7.0704897650e-01	 5.3448882662e-01
 1.3027407421e+00	 7.1952126413e-01	 4.5472793047e-01
 1.2958014111e+00	 7.3194466565e-01	 3.7562447989e-01
 1.2887343124e+00	 7.4431724593e-01	 2.9616813373e-01
 1.2815399444e+00	 7.5663707395e-01	 2.1532767290e-01
 1.2742188434e+00	 7.6890222376e-01	 1.3205505197e-01
 1.3469735574e+00	 6.4656769083e-01	 9.6075875240e-01
 1.3407847947e+00	 6.5930545088e-01	 8.6310725644e-01
 1.3344655615e+00	 6.7200387525e-01	 7.7082612238e-01
 1.3280161289e+00	 6.8466101430e-01	 6.8305443203e-01
 1.3214368059e+00	 6.9727491793e-01	 5.9889259823e-01
 1.3147279395e+00	 7.0984363648e-01	 5.1740526620e-01
 1.3078899150e+00	 7.2236522170e-01	 4.3762446618e-01
 1.3009231558e+00	 7.3483772757e-01	 3.5855301486e-01
 1.2938281240e+00	 7.4725921133e-01	 2.7916816154e-01
 1.2866053196e+00	 7.5962773432e-01	 1.9842547374e-01
 1.2792552815e+00	 7.7194136298e-01	 1.1526295560e-01
 1.3522766029e+00	 6.4911323292e-01	 9.4521523292e-01
 1.3460634750e+00	 6.6190114163e-01	 8.4718372385e-01
 1.3397193629e+00	 6.7464955980e-01	 7.5460887158e-01
 1.3332445389e+00	 6.8735653011e-01	 6.6662366453e-01
 1.3266393130e+00	 7.0002009477e-01	 5.8232147773e-01
 1.3199040338e+00	 7.1263829647e-01	 5.0075900970e-01
 1.3130390879e+00	 7.2520917926e-01	 4.2095947648e-01
 1.3060449005e+00	 7.3773078949e-01	 3.4191606014e-01
 1.2989219355e+00	 7.5020117673e-01	 2.6259560814e-01
 1.2916706949e+00	 7.6261839469e-01	 1.8194257805e-01
 1.2842917197e+00	 7.7498050221e-01	 9.8883221013e-02
 1.3575796484e+00	 6.5165877501e-01	 9.2988269679e-01
 1.3513421553e+00	 6.6449683238e-01	 8.3152106907e-01
 1.3449731644e+00	 6.7729524435e-01	 7.3868988623e-01
 1.3384729489e+00	 6.9005204591e-01	 6.5051753172e-01
 1.3318418202e+00	 7.0276527161e-01	 5.6609193314e-01
 1.3250801280e+00	 7.1543295646e-01	 4.8446353333e-01
 1.3181882608e+00	 7.2805313683e-01	 4.0464852420e-01
 1.3111666453e+00	 7.4062385141e-01	 3.2563234102e-01
 1.3040157470e+00	 7.5314314212e-01	 2.4637341328e-01
 1.2967360702e+00	 7.6560905506e-01	 1.6580716692e-01
 1.2893281578e+00	 7.7801964143e-01	 8.2850271254e-02
 1.3628826939e+00	 6.5420431710e-01	 9.1468336894e-01
 1.3566208356e+00	 6.6709252313e-01	 8.1603798793e-01
 1.3502269658e+00	 6.7994092890e-01	 7.2298549109e-01
 1.3437013588e+00	 6.9274756172e-01	 6.3465112813e-01
 1.3370443273e+00	 7.0551044845e-01	 5.5011895118e-01
 1.3302562223e+00	 7.1822761644e-01	 4.6843481869e-01
 1.3233374337e+00	 7.3089709439e-01	 3.8860966772e-01
 1.3162883900e+00	 7.4351691333e-01	 3.0962305238e-01
 1.3091095585e+00	 7.5608510752e-01	 2.3042694471e-01
 1.3018014455e+00	 7.6859971544e-01	 1.4994979275e-01
 1.2943645959e+00	 7.8105878066e-01	 6.7100829266e-02
 1.3681857394e+00	 6.5674985919e-01	 8.9954173853e-01
 1.3618995159e+00	 6.6968821388e-01	 8.0065551524e-01
 1.3554807672e+00	 6.8258661345e-01	 7.0741440687e-01
 1.3489297688e+00	 6.9544307752e-01	 6.1894198376e-01
 1.3422468344e+00	 7.0825562530e-01	 5.3431997650e-01
 1.3354323165e+00	 7.2102227643e-01	 4.5259131127e-01
 1.3284866066e+00	 7.3374105196e-01	 3.7276341905e-01
 1.3214101347e+00	 7.4640997525e-01	 2.9381181680e-01
 1.3142033700e+00	 7.5902707292e-01	 2.1468395667e-01
 1.3068668207e+00	 7.7159037581e-01	 1.3430333839e-01
 1.2994010340e+00	 7.8409791988e-01	 5.1573878075e-02
 1.3734887849e+00	 6.5929540128e-01	 8.8438452466e-01
 1.3671781962e+00	 6.7228390463e-01	 7.8529698840e-01
 1.3607345686e+00	 6.8523229799e-01	 6.9189771201e-01
 1.3541581787e+00	 6.9813859332e-01	 6.0331002445e-01
 1.3474493415e+00	 7.1100080214e-01	 5.1861487110e-01
 1.3406084108e+00	 7.2381693641e-01	 4.3685387911e-01
 1.3336357795e+00	 7.3658500952e-01	 3.5703270220e-01
 1.3265318794e+00	 7.4930303717e-01	 2.7812464288e-01
 1.3192971815e+00	 7.6196903832e-01	 1.9907454855e-01
 1.3119321960e+00	 7.7458103618e-01	 1.1880297650e-01
 1.3044374721e+00	 7.8713705910e-01	 3.6210621139e-02
 1.3787918304e+00	 6.6184094337e-01	 8.6914064236e-01
 1.3724568765e+00	 6.7487959539e-01	 7.6988801124e-01
 1.3659883701e+00	 6.8787798254e-01	 6.7635880483e-01
 1.3593865887e+00	 7.0083410913e-01	 5.8767753263e-01
 1.3526518486e+00	 7.1374597898e-01	 5.0292587394e-01
 1.3457845050e+00	 7.2661159640e-01	 4.2114577178e-01
 1.3387849524e+00	 7.3942896709e-01	 3.4134281176e-01
 1.3316536241e+00	 7.5219609909e-01	 2.6248988387e-01
 1.3243909930e+00	 7.6491100372e-01	 1.8353112382e-01
 1.3169975713e+00	 7.7757169655e-01	 1.0338612909e-01
 1.3094739102e+00	 7.9017619833e-01	 2.0954442827e-02
 1.2591095291e+00	 7.5978480608e-01	 1.8559661952e-01
 1.2517505775e+00	 7.7184859227e-01	 1.0186435757e-01
 1.2442675697e+00	 7.8385456104e-01	 2.1109404820e-02
 1.2366611489e+00	 7.9580082977e-01	-5.6827984413e-02
 1.2289319961e+00	 8.0768552459e-01	-1.3208976472e-01
 1.2210808300e+00	 8.1950678120e-01	-2.0479635190e-01
 1.2131084062e+00	 8.3126274588e-01	-2.7504276517e-01
 1.2050155176e+00	 8.4295157637e-01	-3.4289467410e-01
 1.1968029942e+00	 8.5457144282e-01	-4.0838436626e-01
 1.1884717025e+00	 8.6612052867e-01	-4.7150665270e-01
 1.1800225455e+00	 8.7759703162e-01	-5.3221472969e-01
 1.2641459672e+00	 7.6282394531e-01	 1.6715037712e-01
 1.2567575799e+00	 7.7493598664e-01	 8.3658366005e-02
 1.2492446399e+00	 7.8698997928e-01	 3.2500059132e-03
 1.2416077935e+00	 7.9898403309e-01	-7.4287810644e-02
 1.2338477241e+00	 8.1091626669e-01	-1.4915091592e-01
 1.2259651533e+00	 8.2278480832e-01	-2.2151397880e-01
 1.2179608398e+00	 8.3458779686e-01	-2.9152650114e-01
 1.2098355797e+00	 8.4632338268e-01	-3.5930871354e-01
 1.2015902062e+00	 8.5798972859e-01	-4.2494738708e-01
 1.1932255893e+00	 8.6958501079e-01	-4.8849157842e-01
 1.1847426357e+00	 8.8110741975e-01	-5.4994832700e-01
 1.2691824053e+00	 7.6586308453e-01	 1.4932742691e-01
 1.2617645822e+00	 7.7802338101e-01	 6.6050682054e-02
 1.2542217102e+00	 7.9012539752e-01	-1.4032342699e-02
 1.2465544381e+00	 8.0216723641e-01	-9.1186466698e-02
 1.2387634521e+00	 8.1414700879e-01	-1.6565981327e-01
 1.2308494766e+00	 8.2606283545e-01	-2.3767978274e-01
 1.2228132734e+00	 8.3791284785e-01	-3.0744890427e-01
 1.2146556418e+00	 8.4969518898e-01	-3.7514058170e-01
 1.2063774181e+00	 8.6140801436e-01	-4.4089475042e-01
 1.1979794761e+00	 8.7304949290e-01	-5.0481346280e-01
 1.1894627259e+00	 8.8461780787e-01	-5.6695642167e-01
 1.2742188434e+00	 7.6890222376e-01	 1.3205505197e-01
 1.2667715845e+00	 7.8111077538e-01	 4.8975260280e-02
 1.2591987805e+00	 7.9326081577e-01	-3.0797640658e-02
 1.2515010827e+00	 8.0535043973e-01	-1.0757855560e-01
 1.2436791801e+00	 8.1737775088e-01	-1.8166633589e-01
 1.2357337999e+00	 8.2934086257e-01	-2.5333961514e-01
 1.2276657070e+00	 8.4123789883e-01	-3.2285251796e-01
 1.2194757038e+00	 8.5306699529e-01	-3.9043025711e-01
 1.2111646301e+00	 8.6482630013e-01	-4.5626463634e-01
 1.2027333629e+00	 8.7651397502e-01	-5.2050947715e-01
 1.1941828160e+00	 8.8812819600e-01	-5.8327598903e-01
 1.2792552815e+00	 7.7194136298e-01	 1.1526295560e-01
 1.2717785868e+00	 7.8419816975e-01	 3.2368398236e-02
 1.2641758508e+00	 7.9639623401e-01	-4.7103611141e-02
 1.2564477272e+00	 8.0853364305e-01	-1.2351645939e-01
 1.2485949081e+00	 8.2060849298e-01	-1.9721818593e-01
 1.2406181233e+00	 8.3261888970e-01	-2.6853718272e-01
 1.2325181407e+00	 8.4456294981e-01	-3.3777776109e-01
 1.2242957659e+00	 8.5643880159e-01	-4.0521560142e-01
 1.2159518421e+00	 8.6824458590e-01	-4.7109310299e-01
 1.2074872497e+00	 8.7997845713e-01	-5.3561465278e-01
 1.1989029062e+00	 8.9163858413e-01	-5.9894183300e-01
 1.2842917197e+00	 7.7498050221e-01	 9.8883221013e-02
 1.2767855891e+00	 7.8728556412e-01	 1.6168697446e-02
 1.2691529211e+00	 7.9953165226e-01	-6.3005738795e-02
 1.2613943718e+00	 8.1171684637e-01	-1.3905037612e-01
 1.2535106361e+00	 8.2383923508e-01	-2.1236092490e-01
 1.2455024466e+00	 8.3589691682e-01	-2.8331408323e-01
 1.2373705743e+00	 8.4788800080e-01	-3.5226296327e-01
 1.2291158280e+00	 8.5981060790e-01	-4.1953239455e-01
 1.2207390541e+00	 8.7166287167e-01	-4.8541412176e-01
 1.2122411365e+00	 8.8344293925e-01	-5.5016191629e-01
 1.2036229964e+00	 8.9514897225e-01	-6.1398662178e-01
 1.2893281578e+00	 7.7801964143e-01	 8.2850271254e-02
 1.2817925914e+00	 7.9037295849e-01	 3.1702450694e-04
 1.2741299913e+00	 8.0266707050e-01	-7.8557307599e-02
 1.2663410164e+00	 8.1490004969e-01	-1.5422835684e-01
 1.2584263641e+00	 8.2706997718e-01	-2.2713800985e-01
 1.2503867699e+00	 8.3917494395e-01	-2.9770984113e-01
 1.2422230079e+00	 8.5121305178e-01	-3.6634440026e-01
 1.2339358900e+00	 8.6318241420e-01	-4.3341436988e-01
 1.2255262661e+00	 8.7508115744e-01	-4.9925961238e-01
 1.2169950233e+00	 8.8690742136e-01	-5.6418212494e-01
 1.2083430866e+00	 8.9865936038e-01	-6.2844092354e-01
 1.2943645959e+00	 7.8105878066e-01	 6.7100829266e-02
 1.2867995937e+00	 7.9346035286e-01	-1.5243527704e-02
 1.2791070616e+00	 8.0580248874e-01	-9.3809438645e-02
 1.2712876610e+00	 8.1808325301e-01	-1.6909634254e-01
 1.2633420920e+00	 8.3030071928e-01	-2.4159082966e-01
 1.2552710932e+00	 8.4245297107e-01	-3.1176194333e-01
 1.2470754415e+00	 8.5453810276e-01	-3.8005632927e-01
 1.2387559521e+00	 8.6655422051e-01	-4.4689324935e-01
 1.2303134780e+00	 8.7849944321e-01	-5.1265947811e-01
 1.2217489102e+00	 8.9037190348e-01	-5.7770410198e-01
 1.2130631768e+00	 9.0216974851e-01	-6.4233324220e-01
 1.2994010340e+00	 7.8409791988e-01	 5.1573878075e-02
 1.2918065960e+00	 7.9654774723e-01	-3.0567678706e-02
 1.2840841319e+00	 8.0893790699e-01	-1.0881112784e-01
 1.2762343056e+00	 8.2126645633e-01	-1.8369820101e-01
 1.2682578200e+00	 8.3353146138e-01	-2.5575874123e-01
 1.2601554165e+00	 8.4573099820e-01	-3.2550587487e-01
 1.2519278752e+00	 8.5786315375e-01	-3.9343102433e-01
 1.2435760142e+00	 8.6992602681e-01	-4.5999877869e-01
 1.2351006900e+00	 8.8191772899e-01	-5.2564164095e-01
 1.2265027970e+00	 8.9383638559e-01	-5.9075467204e-01
 1.2177832670e+00	 9.0568013663e-01	-6.5569005320e-01
 1.3044374721e+00	 7.8713705910e-01	 3.6210621139e-02
 1.2968135983e+00	 7.9963514159e-01	-4.5707998992e-02
 1.2890612022e+00	 8.1207332523e-01	-1.2360928354e-01
 1.2811809502e+00	 8.2444965965e-01	-1.9807576369e-01
 1.2731735480e+00	 8.3676220347e-01	-2.6967910571e-01
 1.2650397399e+00	 8.4900902532e-01	-3.3897515466e-01
 1.2567803088e+00	 8.6118820473e-01	-4.0649881169e-01
 1.2483960762e+00	 8.7329783312e-01	-4.7275876266e-01
 1.2398879020e+00	 8.8533601476e-01	-5.3823207687e-01
 1.2312566838e+00	 8.9730086770e-01	-6.0335869657e-01
 1.2225033571e+00	 9.0919052476e-01	-6.6853583923e-01
 1.3094739102e+00	 7.9017619833e-01	 2.0954442827e-02
 1.3018206006e+00	 8.0272253596e-01	-6.0714948494e-02
 1.2940382725e+00	 8.1520874348e-01	-1.3824876411e-01
 1.2861275948e+00	 8.2763286297e-01	-2.1226886245e-01
 1.2780892760e+00	 8.3999294557e-01	-2.8338732461e-01
 1.2699240632e+00	 8.5228705245e-01	-3.5220137112e-01
 1.2616327424e+00	 8.6451325571e-01	-4.1928810520e-01
 1.2532161383e+00	 8.7666963942e-01	-4.8519910027e-01
 1.2446751140e+00	 8.8875430053e-01	-5.5045485107e-01
 1.2360105706e+00	 9.0076534982e-01	-6.1553910930e-01
 1.2272234473e+00	 9.1270091289e-01	-6.8089312615e-01
 1.1800225455e+00	 8.7759703162e-01	-5.3221472969e-01
 1.1714564624e+00	 8.8899916448e-01	-5.9188861884e-01
 1.1627744283e+00	 9.0032515610e-01	-6.5392902066e-01
 1.1539774536e+00	 9.1157325227e-01	-7.1778904257e-01
 1.1450665842e+00	 9.2274171658e-01	-7.8246425771e-01
 1.1360429004e+00	 9.3382883132e-01	-8.4687319321e-01
 1.1269075171e+00	 9.4483289833e-01	-9.0985955555e-01
 1.1176615829e+00	 9.5575223986e-01	-9.7019482329e-01
 1.1083062799e+00	 9.6658519940e-01	-1.0265812036e+00
 1.0988428233e+00	 9.7733014254e-01	-1.0776549465e+00
 1.0892724604e+00	 9.8798545774e-01	-1.1219900098e+00
 1.1847426357e+00	 8.8110741975e-01	-5.4994832700e-01
 1.1761422883e+00	 8.9255516114e-01	-6.0989287388e-01
 1.1674255260e+00	 9.0392645673e-01	-6.7089499171e-01
 1.1585933635e+00	 9.1521954528e-01	-7.3401556520e-01
 1.1496468505e+00	 9.2643268345e-01	-7.9819591016e-01
 1.1405870720e+00	 9.3756414665e-01	-8.6229824857e-01
 1.1314151471e+00	 9.4861222993e-01	-9.2510801464e-01
 1.1221322292e+00	 9.5957524882e-01	-9.8533653842e-01
 1.1127395050e+00	 9.7045154020e-01	-1.0416241031e+00
 1.1032381946e+00	 9.8123946311e-01	-1.0925433701e+00
 1.0936295503e+00	 9.9193739957e-01	-1.1366031643e+00
 1.1894627259e+00	 8.8461780787e-01	-5.6695642167e-01
 1.1808281141e+00	 8.9611115780e-01	-6.2778897709e-01
 1.1720766237e+00	 9.0752775735e-01	-6.8811132869e-01
 1.1632092733e+00	 9.1886583829e-01	-7.5032256359e-01
 1.1542271169e+00	 9.3012365032e-01	-8.1383817028e-01
 1.1451312436e+00	 9.4129946198e-01	-8.7746956287e-01
 1.1359227772e+00	 9.5239156152e-01	-9.3994936806e-01
 1.1266028755e+00	 9.6339825778e-01	-9.9993419216e-01
 1.1171727301e+00	 9.7431788100e-01	-1.0560077719e+00
 1.1076335659e+00	 9.8514878368e-01	-1.1066845030e+00
 1.0979866401e+00	 9.9588934141e-01	-1.1504133392e+00
 1.1941828160e+00	 8.8812819600e-01	-5.8327598903e-01
 1.1855139400e+00	 8.9966715445e-01	-6.4492005696e-01
 1.1767277214e+00	 9.1112905798e-01	-7.0558657923e-01
 1.1678251831e+00	 9.2251213130e-01	-7.6672151272e-01
 1.1588073832e+00	 9.3381461718e-01	-8.2940398832e-01
 1.1496754152e+00	 9.4503477730e-01	-8.9240172411e-01
 1.1404304073e+00	 9.5617089311e-01	-9.5439994174e-01
 1.1310735218e+00	 9.6722126674e-01	-1.0140058852e+00
 1.1216059553e+00	 9.7818422179e-01	-1.0697520579e+00
 1.1120289372e+00	 9.8905810425e-01	-1.1200998483e+00
 1.1023437300e+00	 9.9984128324e-01	-1.1634435345e+00
 1.1989029062e+00	 8.9163858413e-01	-5.9894183300e-01
 1.1901997658e+00	 9.0322315111e-01	-6.6131824344e-01
 1.1813788191e+00	 9.1473035860e-01	-7.2272856515e-01
 1.1724410929e+00	 9.2615842431e-01	-7.8322207153e-01
 1.1633876496e+00	 9.3750558405e-01	-8.4490445201e-01
 1.1542195868e+00	 9.4877009263e-01	-9.0710741537e-01
 1.1449380373e+00	 9.5995022471e-01	-9.6847411926e-01
 1.1355441682e+00	 9.7104427570e-01	-1.0275677446e+00
 1.1260391804e+00	 9.8205056259e-01	-1.0828748118e+00
 1.1164243085e+00	 9.9296742482e-01	-1.1328088957e+00
 1.1067008198e+00	 1.0037932251e+00	-1.1757147304e+00
 1.2036229964e+00	 8.9514897225e-01	-6.1398662178e-01
 1.1948855917e+00	 9.0677914777e-01	-6.7701648190e-01
 1.1860299169e+00	 9.1833165923e-01	-7.3907731288e-01
 1.1770570027e+00	 9.2980471732e-01	-7.9982412454e-01
 1.1679679159e+00	 9.4119655092e-01	-8.6034874418e-01
 1.1587637584e+00	 9.5250540795e-01	-9.2159737259e-01
 1.1494456674e+00	 9.6372955630e-01	-9.8218430001e-01
 1.1400148145e+00	 9.7486728466e-01	-1.0406338823e+00
 1.1304724055e+00	 9.8591690339e-01	-1.0953918449e+00
 1.1208196797e+00	 9.9687674539e-01	-1.1448290801e+00
 1.1110579096e+00	 1.0077451669e+00	-1.1872458452e+00
 1.2083430866e+00	 8.9865936038e-01	-6.2844092354e-01
 1.1995714175e+00	 9.1033514443e-01	-6.9204557815e-01
 1.1906810146e+00	 9.2193295985e-01	-7.5466409429e-01
 1.1816729125e+00	 9.3345101033e-01	-8.1593980447e-01
 1.1725481822e+00	 9.4488751778e-01	-8.7574410022e-01
 1.1633079300e+00	 9.5624072328e-01	-9.3588034235e-01
 1.1539532975e+00	 9.6750888789e-01	-9.9554085716e-01
 1.1444854608e+00	 9.7869029361e-01	-1.0532163533e+00
 1.1349056306e+00	 9.8978324419e-01	-1.1073168881e+00
 1.1252150510e+00	 1.0007860660e+00	-1.1561757403e+00
 1.1154149995e+00	 1.0116971087e+00	-1.1980536952e+00
 1.2130631768e+00	 9.0216974851e-01	-6.4233324220e-01
 1.2042572434e+00	 9.1389114109e-01	-7.0643423469e-01
 1.1953321123e+00	 9.2553426047e-01	-7.6951803484e-01
 1.1862888223e+00	 9.3709730334e-01	-8.3122178422e-01
 1.1771284486e+00	 9.4857848465e-01	-8.9108677962e-01
 1.1678521016e+00	 9.5997603860e-01	-9.4996303967e-01
 1.1584609275e+00	 9.7128821949e-01	-1.0085520957e+00
 1.1489561072e+00	 9.8251330257e-01	-1.0653251139e+00
 1.1393388557e+00	 9.9364958498e-01	-1.1186615501e+00
 1.1296104223e+00	 1.0046953865e+00	-1.1668620779e+00
 1.1197720893e+00	 1.0156490506e+00	-1.2081529529e+00
 1.2177832670e+00	 9.0568013663e-01	-6.5569005320e-01
 1.2089430692e+00	 9.1744713774e-01	-7.2020908695e-01
 1.1999832100e+00	 9.2913556110e-01	-7.8366615032e-01
 1.1909047322e+00	 9.4074359635e-01	-8.4569762721e-01
 1.1817087149e+00	 9.5226945152e-01	-9.0584267849e-01
 1.1723962732e+00	 9.6371135393e-01	-9.6385010569e-01
 1.1629685576e+00	 9.7506755108e-01	-1.0212242104e+00
 1.1534267535e+00	 9.8633631153e-01	-1.0769679798e+00
 1.1437720809e+00	 9.9751592578e-01	-1.1294352761e+00
 1.1340057936e+00	 1.0086047071e+00	-1.1768991154e+00
 1.1241291792e+00	 1.0196009924e+00	-1.2175561057e+00
 1.2225033571e+00	 9.0919052476e-01	-6.6853583923e-01
 1.2136288951e+00	 9.2100313440e-01	-7.3339473954e-01
 1.2046343077e+00	 9.3273686172e-01	-7.9713338362e-01
 1.1955206420e+00	 9.4438988936e-01	-8.5939277880e-01
 1.1862889812e+00	 9.5596041838e-01	-9.1971535021e-01
 1.1769404448e+00	 9.6744666925e-01	-9.7753996302e-01
 1.1674761877e+00	 9.7884688267e-01	-1.0335612437e+00
 1.1578973998e+00	 9.9015932049e-01	-1.0881505846e+00
 1.1482053060e+00	 1.0013822666e+00	-1.1396453060e+00
 1.1384011649e+00	 1.0125140277e+00	-1.1862956555e+00
 1.1284862690e+00	 1.0235529342e+00	-1.2262734149e+00
 1.2272234473e+00	 9.1270091289e-01	-6.8089312615e-01
 1.2183147209e+00	 9.2455913106e-01	-7.4601380258e-01
 1.2092854054e+00	 9.3633816235e-01	-8.0994264153e-01
 1.2001365518e+00	 9.4803618236e-01	-8.7233060359e-01
 1.1908692476e+00	 9.5965138525e-01	-9.3272872723e-01
 1.1814846164e+00	 9.7118198458e-01	-9.9058301790e-01
 1.1719838177e+00	 9.8262621427e-01	-1.0455650440e+00
 1.1623680462e+00	 9.9398232945e-01	-1.0988763379e+00
 1.1526385311e+00	 1.0052486074e+00	-1.1492966329e+00
 1.1427965362e+00	 1.0164233482e+00	-1.1950582388e+00
 1.1328433589e+00	 1.0275048761e+00	-1.2343128742e+00
 1.0892724604e+00	 9.8798545774e-01	-1.1219900098e+00
 1.0795964707e+00	 9.9854955719e-01	-1.1646950220e+00
 1.0698161648e+00	 1.0090208775e+00	-1.2110908881e+00
 1.0599328841e+00	 1.0193978806e+00	-1.2599989305e+00
 1.0499480000e+00	 1.0296790544e+00	-1.3102082940e+00
 1.0398629135e+00	 1.0398629135e+00	-1.3604804389e+00
 1.0296790544e+00	 1.0499480000e+00	-1.4095538734e+00
 1.0193978806e+00	 1.0599328841e+00	-1.4561491082e+00
 1.0090208775e+00	 1.0698161648e+00	-1.4989738100e+00
 9.9854955719e-01	 1.0795964707e+00	-1.5367281310e+00
 9.8798545774e-01	 1.0892724604e+00	-1.5681101918e+00
 1.0936295503e+00	 9.9193739957e-01	-1.1366031643e+00
 1.0839148566e+00	 1.0025437554e+00	-1.1789518294e+00
 1.0740954295e+00	 1.0130569610e+00	-1.2249929040e+00
 1.0641726156e+00	 1.0234754721e+00	-1.2735449033e+00
 1.0541477920e+00	 1.0337977706e+00	-1.3233929166e+00
 1.0440223652e+00	 1.0440223652e+00	-1.3732931664e+00
 1.0337977706e+00	 1.0541477920e+00	-1.4219778135e+00
 1.0234754721e+00	 1.0641726156e+00	-1.4681599931e+00
 1.0130569610e+00	 1.0740954295e+00	-1.5105390548e+00
 1.0025437554e+00	 1.0839148566e+00	-1.5478059879e+00
 9.9193739957e-01	 1.0936295503e+00	-1.5786490033e+00
 1.0979866401e+00	 9.9588934141e-01	-1.1504133392e+00
 1.0882332425e+00	 1.0065379536e+00	-1.1923848831e+00
 1.0783746941e+00	 1.0170930445e+00	-1.2380799718e+00
 1.0684123472e+00	 1.0275530637e+00	-1.2863076649e+00
 1.0583475840e+00	 1.0379164868e+00	-1.3358423037e+00
 1.0481818168e+00	 1.0481818168e+00	-1.3854281446e+00
 1.0379164868e+00	 1.0583475840e+00	-1.4337842490e+00
 1.0275530637e+00	 1.0684123472e+00	-1.4796096106e+00
 1.0170930445e+00	 1.0783746941e+00	-1.5215884942e+00
 1.0065379536e+00	 1.0882332425e+00	-1.5583959664e+00
 9.9588934141e-01	 1.0979866401e+00	-1.5887035889e+00
 1.1023437300e+00	 9.9984128324e-01	-1.1634435345e+00
 1.0925516284e+00	 1.0105321519e+00	-1.2050185848e+00
 1.0826539588e+00	 1.0211291280e+00	-1.2503779529e+00
 1.0726520787e+00	 1.0316306552e+00	-1.2983146669e+00
 1.0625473760e+00	 1.0420352031e+00	-1.3475856968e+00
 1.0523412685e+00	 1.0523412685e+00	-1.3969166744e+00
 1.0420352031e+00	 1.0625473760e+00	-1.4450068780e+00
 1.0316306552e+00	 1.0726520787e+00	-1.4905344614e+00
 1.0211291280e+00	 1.0826539588e+00	-1.5321619034e+00
 1.0105321519e+00	 1.0925516284e+00	-1.5685416539e+00
 9.9984128324e-01	 1.1023437300e+00	-1.5983219507e+00
 1.1067008198e+00	 1.0037932251e+00	-1.1757147304e+00
 1.0968700143e+00	 1.0145263501e+00	-1.2168753171e+00
 1.0869332235e+00	 1.0251652116e+00	-1.2619106974e+00
 1.0768918102e+00	 1.0357082467e+00	-1.3095913610e+00
 1.0667471680e+00	 1.0461539193e+00	-1.3586503524e+00
 1.0565007201e+00	 1.0565007201e+00	-1.4077880885e+00
 1.0461539193e+00	 1.0667471680e+00	-1.4556774478e+00
 1.0357082467e+00	 1.0768918102e+00	-1.5009691127e+00
 1.0251652116e+00	 1.0869332235e+00	-1.5422971394e+00
 1.0145263501e+00	 1.0968700143e+00	-1.5782847318e+00
 1.0037932251e+00	 1.1067008198e+00	-1.6075501922e+00
 1.1110579096e+00	 1.0077451669e+00	-1.1872458452e+00
 1.1011884002e+00	 1.0185205483e+00	-1.2279754029e+00
 1.0912124881e+00	 1.0292012951e+00	-1.2727000030e+00
 1.0811315418e+00	 1.0397858382e+00	-1.3201611579e+00
 1.0709469600e+00	 1.0502726355e+00	-1.3690615012e+00
 1.0606601718e+00	 1.0606601718e+00	-1.4180697109e+00
 1.0502726355e+00	 1.0709469600e+00	-1.4658257152e+00
 1.0397858382e+00	 1.0811315418e+00	-1.5109461582e+00
 1.0292012951e+00	 1.0912124881e+00	-1.5520301017e+00
 1.0185205483e+00	 1.1011884002e+00	-1.5876649371e+00
 1.0077451669e+00	 1.1110579096e+00	-1.6164324817e+00
 1.1154149995e+00	 1.0116971087e+00	-1.1980536952e+00
 1.1055067860e+00	 1.0225147466e+00	-1.2383370646e+00
 1.0954917528e+00	 1.0332373786e+00	-1.2827655736e+00
 1.0853712733e+00	 1.0438634298e+00	-1.3300453871e+00
 1.0751467520e+00	 1.0543913517e+00	-1.3788423076e+00
 1.0648196234e+00	 1.0648196234e+00	-1.4277868166e+00
 1.0543913517e+00	 1.0751467520e+00	-1.4754794061e+00
 1.0438634298e+00	 1.0853712733e+00	-1.5204961791e+00
 1.0332373786e+00	 1.0954917528e+00	-1.5613946935e+00
 1.0225147466e+00	 1.1055067860e+00	-1.5967200240e+00
 1.0116971087e+00	 1.1154149995e+00	-1.6250110143e+00
 1.1197720893e+00	 1.0156490506e+00	-1.2081529529e+00
 1.1098251719e+00	 1.0265089448e+00	-1.2479763823e+00
 1.0997710174e+00	 1.0372734621e+00	-1.2921249789e+00
 1.0896110048e+00	 1.0479410213e+00	-1.3392632553e+00
 1.0793465440e+00	 1.0585100679e+00	-1.3880138289e+00
 1.0689790751e+00	 1.0689790751e+00	-1.4369625911e+00
 1.0585100679e+00	 1.0793465440e+00	-1.4846641756e+00
 1.0479410213e+00	 1.0896110048e+00	-1.5296477040e+00
 1.0372734621e+00	 1.0997710174e+00	-1.5704227827e+00
 1.0265089448e+00	 1.1098251719e+00	-1.6054857260e+00
 1.0156490506e+00	 1.1197720893e+00	-1.6333259750e+00
 1.1241291792e+00	 1.0196009924e+00	-1.2175561057e+00
 1.1141435578e+00	 1.0305031430e+00	-1.2569072532e+00
 1.1040502821e+00	 1.0413095456e+00	-1.3007936131e+00
 1.0938507364e+00	 1.0520186128e+00	-1.3478318059e+00
 1.0835463360e+00	 1.0626287842e+00	-1.3965949744e+00
 1.0731385267e+00	 1.0731385267e+00	-1.4456180897e+00
 1.0626287842e+00	 1.0835463360e+00	-1.4934035675e+00
 1.0520186128e+00	 1.0938507364e+00	-1.5384271690e+00
 1.0413095456e+00	 1.1040502821e+00	-1.5791441623e+00
 1.0305031430e+00	 1.1141435578e+00	-1.6139957168e+00
 1.0196009924e+00	 1.1241291792e+00	-1.6414155007e+00
 1.1284862690e+00	 1.0235529342e+00	-1.2262734149e+00
 1.1184619437e+00	 1.0344973412e+00	-1.2651413503e+00
 1.1083295468e+00	 1.0453456291e+00	-1.3087846535e+00
 1.0980904679e+00	 1.0560962043e+00	-1.3557658779e+00
 1.0877461280e+00	 1.0667475004e+00	-1.4046024647e+00
 1.0772979784e+00	 1.0772979784e+00	-1.4537721971e+00
 1.0667475004e+00	 1.0877461280e+00	-1.5017189741e+00
 1.0560962043e+00	 1.0980904679e+00	-1.5468588782e+00
 1.0453456291e+00	 1.1083295468e+00	-1.5875865116e+00
 1.0344973412e+00	 1.1184619437e+00	-1.6222815725e+00
 1.0235529342e+00	 1.1284862690e+00	-1.6493156433e+00
 1.1328433589e+00	 1.0275048761e+00	-1.2343128742e+00
 1.1227803296e+00	 1.0384915395e+00	-1.2726880806e+00
 1.1126088114e+00	 1.0493817126e+00	-1.3161090195e+00
 1.1023301994e+00	 1.0601737959e+00	-1.3630780647e+00
 1.0919459200e+00	 1.0708662166e+00	-1.4120507908e+00
 1.0814574301e+00	 1.0814574301e+00	-1.4614415866e+00
 1.0708662166e+00	 1.0919459200e+00	-1.5096295962e+00
 1.0601737959e+00	 1.1023301994e+00	-1.5549649640e+00
 1.0493817126e+00	 1.1126088114e+00	-1.5957753564e+00
 1.0384915395e+00	 1.1227803296e+00	-1.6303727324e+00
 1.0275048761e+00	 1.1328433589e+00	-1.6570603310e+00
 9.8798545774e-01	 1.0892724604e+00	-1.5681101918e+00
 9.7733014254e-01	 1.0988428233e+00	-1.5984700135e+00
 9.6658519940e-01	 1.1083062799e+00	-1.6330504504e+00
 9.5575223986e-01	 1.1176615829e+00	-1.6704214267e+00
 9.4483289833e-01	 1.1269075171e+00	-1.7091985096e+00
 9.3382883132e-01	 1.1360429004e+00	-1.7480487323e+00
 9.2274171658e-01	 1.1450665842e+00	-1.7856963660e+00
 9.1157325227e-01	 1.1539774536e+00	-1.8209286105e+00
 9.0032515610e-01	 1.1627744283e+00	-1.8526011737e+00
 8.8899916448e-01	 1.1714564624e+00	-1.8796437124e+00
 8.7759703162e-01	 1.1800225455e+00	-1.9013111204e+00
 9.9193739957e-01	 1.0936295503e+00	-1.5786490033e+00
 9.8123946311e-01	 1.1032381946e+00	-1.6085553622e+00
 9.7045154020e-01	 1.1127395050e+00	-1.6428640799e+00
 9.5957524882e-01	 1.1221322292e+00	-1.6800734480e+00
 9.4861222993e-01	 1.1314151471e+00	-1.7187280861e+00
 9.3756414665e-01	 1.1405870720e+00	-1.7574249691e+00
 9.2643268345e-01	 1.1496468505e+00	-1.7948194046e+00
 9.1521954528e-01	 1.1585933635e+00	-1.8296309277e+00
 9.0392645673e-01	 1.1674255260e+00	-1.8606490845e+00
 8.9255516114e-01	 1.1761422883e+00	-1.8867390739e+00
 8.8110741975e-01	 1.1847426357e+00	-1.9081053377e+00
 9.9588934141e-01	 1.0979866401e+00	-1.5887035889e+00
 9.8514878368e-01	 1.1076335659e+00	-1.6181349794e+00
 9.7431788100e-01	 1.1171727301e+00	-1.6521325202e+00
 9.6339825778e-01	 1.1266028755e+00	-1.6891282642e+00
 9.5239156152e-01	 1.1359227772e+00	-1.7276012431e+00
 9.4129946198e-01	 1.1451312436e+00	-1.7660836946e+00
 9.3012365032e-01	 1.1542271169e+00	-1.8031672398e+00
 9.1886583829e-01	 1.1632092733e+00	-1.8375089774e+00
 9.0752775735e-01	 1.1720766237e+00	-1.8678374668e+00
 8.9611115780e-01	 1.1808281141e+00	-1.8932248304e+00
 8.8461780787e-01	 1.1894627259e+00	-1.9146770701e+00
 9.9984128324e-01	 1.1023437300e+00	-1.5983219507e+00
 9.8905810425e-01	 1.1120289372e+00	-1.6272616239e+00
 9.7818422179e-01	 1.1216059553e+00	-1.6609132719e+00
 9.6722126674e-01	 1.1310735218e+00	-1.6976480217e+00
 9.5617089311e-01	 1.1404304073e+00	-1.7358845960e+00
 9.4503477730e-01	 1.1496754152e+00	-1.7740957347e+00
 9.3381461718e-01	 1.1588073832e+00	-1.8108145674e+00
 9.2251213130e-01	 1.1678251831e+00	-1.8446409037e+00
 9.1112905798e-01	 1.1767277214e+00	-1.8742480540e+00
 8.9966715445e-01	 1.1855139400e+00	-1.8994416850e+00
 8.8812819600e-01	 1.1941828160e+00	-1.9209636314e+00
 1.0037932251e+00	 1.1067008198e+00	-1.6075501922e+00
 9.9296742482e-01	 1.1164243085e+00	-1.6359861630e+00
 9.8205056259e-01	 1.1260391804e+00	-1.6692619563e+00
 9.7104427570e-01	 1.1355441682e+00	-1.7056930060e+00
 9.5995022471e-01	 1.1449380373e+00	-1.7436429238e+00
 9.4877009263e-01	 1.1542195868e+00	-1.7815301107e+00
 9.3750558405e-01	 1.1633876496e+00	-1.8178343198e+00
 9.2615842431e-01	 1.1724410929e+00	-1.8511031379e+00
 9.1473035860e-01	 1.1813788191e+00	-1.8801662444e+00
 9.0322315111e-01	 1.1901997658e+00	-1.9053274962e+00
 8.9163858413e-01	 1.1989029062e+00	-1.9269015384e+00
 1.0077451669e+00	 1.1110579096e+00	-1.6164324817e+00
 9.9687674539e-01	 1.1208196797e+00	-1.6443575371e+00
 9.8591690339e-01	 1.1304724055e+00	-1.6772322810e+00
 9.7486728466e-01	 1.1400148145e+00	-1.7133216075e+00
 9.6372955630e-01	 1.1494456674e+00	-1.7509391361e+00
 9.5250540795e-01	 1.1587637584e+00	-1.7884540079e+00
 9.4119655092e-01	 1.1679679159e+00	-1.8242976349e+00
 9.2980471732e-01	 1.1770570027e+00	-1.8569718924e+00
 9.1833165923e-01	 1.1860299169e+00	-1.8857359302e+00
 9.0677914777e-01	 1.1948855917e+00	-1.9108177266e+00
 8.9514897225e-01	 1.2036229964e+00	-1.9324265458e+00
 1.0116971087e+00	 1.1154149995e+00	-1.6250110143e+00
 1.0007860660e+00	 1.1252150510e+00	-1.6524227232e+00
 9.8978324419e-01	 1.1349056306e+00	-1.6848760043e+00
 9.7869029361e-01	 1.1444854608e+00	-1.7205902874e+00
 9.6750888789e-01	 1.1539532975e+00	-1.7578342397e+00
 9.5624072328e-01	 1.1633079300e+00	-1.7949327430e+00
 9.4488751778e-01	 1.1725481822e+00	-1.8302738241e+00
 9.3345101033e-01	 1.1816729125e+00	-1.8624059225e+00
 9.2193295985e-01	 1.1906810146e+00	-1.8908909124e+00
 9.1033514443e-01	 1.1995714175e+00	-1.9158471102e+00
 8.9865936038e-01	 1.2083430866e+00	-1.9374736809e+00
 1.0156490506e+00	 1.1197720893e+00	-1.6333259750e+00
 1.0046953865e+00	 1.1296104223e+00	-1.6602266983e+00
 9.9364958498e-01	 1.1393388557e+00	-1.6922429000e+00
 9.8251330257e-01	 1.1489561072e+00	-1.7275535432e+00
 9.7128821949e-01	 1.1584609275e+00	-1.7643873054e+00
 9.5997603860e-01	 1.1678521016e+00	-1.8010297315e+00
 9.4857848465e-01	 1.1771284486e+00	-1.8358300191e+00
 9.3709730334e-01	 1.1862888223e+00	-1.8674266906e+00
 9.2553426047e-01	 1.1953321123e+00	-1.8955643072e+00
 9.1389114109e-01	 1.2042572434e+00	-1.9203496885e+00
 9.0216974851e-01	 1.2130631768e+00	-1.9419772790e+00
 1.0196009924e+00	 1.1241291792e+00	-1.6414155007e+00
 1.0086047071e+00	 1.1340057936e+00	-1.6678124033e+00
 9.9751592578e-01	 1.1437720809e+00	-1.6993807219e+00
 9.8633631153e-01	 1.1534267535e+00	-1.7342638745e+00
 9.7506755108e-01	 1.1629685576e+00	-1.7706554345e+00
 9.6371135393e-01	 1.1723962732e+00	-1.8068064553e+00
 9.5226945152e-01	 1.1817087149e+00	-1.8409827460e+00
 9.4074359635e-01	 1.1909047322e+00	-1.8719651829e+00
 9.2913556110e-01	 1.1999832100e+00	-1.8996885825e+00
 9.1744713774e-01	 1.2089430692e+00	-1.9242588453e+00
 9.0568013663e-01	 1.2177832670e+00	-1.9458710174e+00
 1.0235529342e+00	 1.1284862690e+00	-1.6493156433e+00
 1.0125140277e+00	 1.1384011649e+00	-1.6752207058e+00
 1.0013822666e+00	 1.1482053060e+00	-1.7063351679e+00
 9.9015932049e-01	 1.1578973998e+00	-1.7407717481e+00
 9.7884688267e-01	 1.1674761877e+00	-1.7766937250e+00
 9.6744666925e-01	 1.1769404448e+00	-1.8123211534e+00
 9.5596041838e-01	 1.1862889812e+00	-1.8456656365e+00
 9.4438988936e-01	 1.1955206420e+00	-1.8759517899e+00
 9.3273686172e-01	 1.2046343077e+00	-1.9031955940e+00
 9.2100313440e-01	 1.2136288951e+00	-1.9275073430e+00
 9.0919052476e-01	 1.2225033571e+00	-1.9490879503e+00
 1.0275048761e+00	 1.1328433589e+00	-1.6570603310e+00
 1.0164233482e+00	 1.1427965362e+00	-1.6824903640e+00
 1.0052486074e+00	 1.1526385311e+00	-1.7131498449e+00
 9.9398232945e-01	 1.1623680462e+00	-1.7471255633e+00
 9.8262621427e-01	 1.1719838177e+00	-1.7825552380e+00
 9.7118198458e-01	 1.1814846164e+00	-1.8174632300e+00
 9.5965138525e-01	 1.1908692476e+00	-1.8498065790e+00
 9.4803618236e-01	 1.2001365518e+00	-1.8793163439e+00
 9.3633816235e-01	 1.2092854054e+00	-1.9060166214e+00
 9.2455913106e-01	 1.2183147209e+00	-1.9300273574e+00
 9.1270091289e-01	 1.2272234473e+00	-1.9515605427e+00
 8.7759703162e-01	 1.1800225455e+00	-1.9013111204e+00
 8.6612052867e-01	 1.1884717025e+00	-1.9207684211e+00
 8.5457144282e-01	 1.1968029942e+00	-1.9398897212e+00
 8.4295157637e-01	 1.2050155176e+00	-1.9583967912e+00
 8.3126274588e-01	 1.2131084062e+00	-1.9760547365e+00
 8.1950678120e-01	 1.2210808300e+00	-1.9926694756e+00
 8.0768552459e-01	 1.2289319961e+00	-2.0080851538e+00
 7.9580082977e-01	 1.2366611489e+00	-2.0221815120e+00
 7.8385456104e-01	 1.2442675697e+00	-2.0348712298e+00
 7.7184859227e-01	 1.2517505775e+00	-2.0460972597e+00
 7.5978480608e-01	 1.2591095291e+00	-2.0558301721e+00
 8.8110741975e-01	 1.1847426357e+00	-1.9081053377e+00
 8.6958501079e-01	 1.1932255893e+00	-1.9275181478e+00
 8.5798972859e-01	 1.2015902062e+00	-1.9463555997e+00
 8.4632338268e-01	 1.2098355797e+00	-1.9643819777e+00
 8.3458779686e-01	 1.2179608398e+00	-1.9814051795e+00
 8.2278480832e-01	 1.2259651533e+00	-1.9972740663e+00
 8.1091626669e-01	 1.2338477241e+00	-2.0118757489e+00
 7.9898403309e-01	 1.2416077935e+00	-2.0251328309e+00
 7.8698997928e-01	 1.2492446399e+00	-2.0370006273e+00
 7.7493598664e-01	 1.2567575799e+00	-2.0474643781e+00
 7.6282394531e-01	 1.2641459672e+00	-2.0565364748e+00
 8.8461780787e-01	 1.1894627259e+00	-1.9146770701e+00
 8.7304949290e-01	 1.1979794761e+00	-1.9340572713e+00
 8.6140801436e-01	 1.2063774181e+00	-1.9526445305e+00
 8.4969518898e-01	 1.2146556418e+00	-1.9702413105e+00
 8.3791284785e-01	 1.2228132734e+00	-1.9866939403e+00
 8.2606283545e-01	 1.2308494766e+00	-2.0018898399e+00
 8.1414700879e-01	 1.2387634521e+00	-2.0157546840e+00
 8.0216723641e-01	 1.2465544381e+00	-2.0282495223e+00
 7.9012539752e-01	 1.2542217102e+00	-2.0393678792e+00
 7.7802338101e-01	 1.2617645822e+00	-2.0491328500e+00
 7.6586308453e-01	 1.2691824053e+00	-2.0575942126e+00
 8.8812819600e-01	 1.1941828160e+00	-1.9209636314e+00
 8.7651397502e-01	 1.2027333629e+00	-1.9403227551e+00
 8.6482630013e-01	 1.2111646301e+00	-1.9586925984e+00
 8.5306699529e-01	 1.2194757038e+00	-1.9759095240e+00
 8.4123789883e-01	 1.2276657070e+00	-1.9918539865e+00
 8.2934086257e-01	 1.2357337999e+00	-2.0064476375e+00
 8.1737775088e-01	 1.2436791801e+00	-2.0196503696e+00
 8.0535043973e-01	 1.2515010827e+00	-2.0314573190e+00
 7.9326081577e-01	 1.2591987805e+00	-2.0418958492e+00
 7.8111077538e-01	 1.2667715845e+00	-2.0510225341e+00
 7.6890222376e-01	 1.2742188434e+00	-2.0589201604e+00
 8.9163858413e-01	 1.1989029062e+00	-1.9269015384e+00
 8.7997845713e-01	 1.2074872497e+00	-1.9462507778e+00
 8.6824458590e-01	 1.2159518421e+00	-1.9644351236e+00
 8.5643880159e-01	 1.2242957659e+00	-1.9813206142e+00
 8.4456294981e-01	 1.2325181407e+00	-1.9968175799e+00
 8.3261888970e-01	 1.2406181233e+00	-2.0108776322e+00
 8.2060849298e-01	 1.2485949081e+00	-2.0234905912e+00
 8.0853364305e-01	 1.2564477272e+00	-2.0346813751e+00
 7.9639623401e-01	 1.2641758508e+00	-2.0445068720e+00
 7.8419816975e-01	 1.2717785868e+00	-2.0530528136e+00
 7.7194136298e-01	 1.2792552815e+00	-2.0604306717e+00
 8.9514897225e-01	 1.2036229964e+00	-1.9324265458e+00
 8.8344293925e-01	 1.2122411365e+00	-1.9517767669e+00
 8.7166287167e-01	 1.2207390541e+00	-1.9698066934e+00
 8.5981060790e-01	 1.2291158280e+00	-1.9864078693e+00
 8.4788800080e-01	 1.2373705743e+00	-2.0015163058e+00
 8.3589691682e-01	 1.2455024466e+00	-2.0151093565e+00
 8.2383923508e-01	 1.2535106361e+00	-2.0272025342e+00
 8.1171684637e-01	 1.2613943718e+00	-2.0378462897e+00
 7.9953165226e-01	 1.2691529211e+00	-2.0471227757e+00
 7.8728556412e-01	 1.2767855891e+00	-2.0551426152e+00
 7.7498050221e-01	 1.2842917197e+00	-2.0620416965e+00
 8.9865936038e-01	 1.2083430866e+00	-1.9374736809e+00
 8.8690742136e-01	 1.2169950233e+00	-1.9568354331e+00
 8.7508115744e-01	 1.2255262661e+00	-1.9747411949e+00
 8.6318241420e-01	 1.2339358900e+00	-1.9911039009e+00
 8.5121305178e-01	 1.2422230079e+00	-2.0058811015e+00
 8.3917494395e-01	 1.2503867699e+00	-2.0190717297e+00
 8.2706997718e-01	 1.2584263641e+00	-2.0307128100e+00
 8.1490004969e-01	 1.2663410164e+00	-2.0408761303e+00
 8.0266707050e-01	 1.2741299913e+00	-2.0496649024e+00
 7.9037295849e-01	 1.2817925914e+00	-2.0572104284e+00
 7.7801964143e-01	 1.2893281578e+00	-2.0636687978e+00
 9.0216974851e-01	 1.2130631768e+00	-1.9419772790e+00
 8.9037190348e-01	 1.2217489102e+00	-1.9613608031e+00
 8.7849944321e-01	 1.2303134780e+00	-1.9791718475e+00
 8.6655422051e-01	 1.2387559521e+00	-1.9953406746e+00
 8.5453810276e-01	 1.2470754415e+00	-2.0098422862e+00
 8.4245297107e-01	 1.2552710932e+00	-2.0226930855e+00
 8.3030071928e-01	 1.2633420920e+00	-2.0339474809e+00
 8.1808325301e-01	 1.2712876610e+00	-2.0436944564e+00
 8.0580248874e-01	 1.2791070616e+00	-2.0520541304e+00
 7.9346035286e-01	 1.2867995937e+00	-2.0591743254e+00
 7.8105878066e-01	 1.2943645959e+00	-2.0652271699e+00
 9.0568013663e-01	 1.2177832670e+00	-1.9458710174e+00
 8.9383638559e-01	 1.2265027970e+00	-1.9652862535e+00
 8.8191772899e-01	 1.2351006900e+00	-1.9830312346e+00
 8.6992602681e-01	 1.2435760142e+00	-1.9990495405e+00
 8.5786315375e-01	 1.2519278752e+00	-2.0133295895e+00
 8.4573099820e-01	 1.2601554165e+00	-2.0259011986e+00
 8.3353146138e-01	 1.2682578200e+00	-2.0368320860e+00
 8.2126645633e-01	 1.2762343056e+00	-2.0462243429e+00
 8.0893790699e-01	 1.2840841319e+00	-2.0542108954e+00
 7.9654774723e-01	 1.2918065960e+00	-2.0609519799e+00
 7.8409791988e-01	 1.2994010340e+00	-2.0666316546e+00
 9.0919052476e-01	 1.2225033571e+00	-1.9490879503e+00
 8.9730086770e-01	 1.2312566838e+00	-1.9685445443e+00
 8.8533601476e-01	 1.2398879020e+00	-1.9862513356e+00
 8.7329783312e-01	 1.2483960762e+00	-2.0021612636e+00
 8.6118820473e-01	 1.2567803088e+00	-2.0162721804e+00
 8.4900902532e-01	 1.2650397399e+00	-2.0286233124e+00
 8.3676220347e-01	 1.2731735480e+00	-2.0392916661e+00
 8.2444965965e-01	 1.2811809502e+00	-2.0483884037e+00
 8.1207332523e-01	 1.2890612022e+00	-2.0560552119e+00
 7.9963514159e-01	 1.2968135983e+00	-2.0624606872e+00
 7.8713705910e-01	 1.3044374721e+00	-2.0677967599e+00
 9.1270091289e-01	 1.2272234473e+00	-1.9515605427e+00
 9.0076534982e-01	 1.2360105706e+00	-1.9710678514e+00
 8.8875430053e-01	 1.2446751140e+00	-1.9887635578e+00
 8.7666963942e-01	 1.2532161383e+00	-2.0046060545e+00
 8.6451325571e-01	 1.2616327424e+00	-2.0185986960e+00
 8.5228705245e-01	 1.2699240632e+00	-2.0307861661e+00
 8.3999294557e-01	 1.2780892760e+00	-2.0412507894e+00
 8.2763286297e-01	 1.2861275948e+00	-2.0501088148e+00
 8.1520874348e-01	 1.2940382725e+00	-2.0575066948e+00
 8.0272253596e-01	 1.3018206006e+00	-2.0636173833e+00
 7.9017619833e-01	 1.3094739102e+00	-2.0686366765e+00
 7.5978480608e-01	 1.2591095291e+00	-2.0558301721e+00
 7.4766509284e-01	 1.2663438185e+00	-2.0631944699e+00
 7.3549134973e-01	 1.2734528779e+00	-2.0676689595e+00
 7.2326547989e-01	 1.2804361770e+00	-2.0697802798e+00
 7.1098939143e-01	 1.2872932234e+00	-2.0700600855e+00
 6.9866499654e-01	 1.2940235625e+00	-2.0690422690e+00
 6.8629421056e-01	 1.3006267775e+00	-2.0672603026e+00
 6.7387895108e-01	 1.3071024891e+00	-2.0652447092e+00
 6.6142113706e-01	 1.3134503558e+00	-2.0635206748e+00
 6.4892268787e-01	 1.3196700735e+00	-2.0626058079e+00
 6.3638552247e-01	 1.3257613754e+00	-2.0630080567e+00
 7.6282394531e-01	 1.2641459672e+00	-2.0565364748e+00
 7.5065575321e-01	 1.2714091938e+00	-2.0633200612e+00
 7.3843331513e-01	 1.2785466894e+00	-2.0672410978e+00
 7.2615854181e-01	 1.2855579217e+00	-2.0688199052e+00
 7.1383334900e-01	 1.2924423963e+00	-2.0685811351e+00
 7.0145965653e-01	 1.2991996568e+00	-2.0670509573e+00
 6.8903938740e-01	 1.3058292846e+00	-2.0647543706e+00
 6.7657446689e-01	 1.3123308991e+00	-2.0622126487e+00
 6.6406682161e-01	 1.3187041573e+00	-2.0599409315e+00
 6.5151837862e-01	 1.3249487538e+00	-2.0584459702e+00
 6.3893106456e-01	 1.3310644209e+00	-2.0582240341e+00
 7.6586308453e-01	 1.2691824053e+00	-2.0575942126e+00
 7.5364641358e-01	 1.2764745691e+00	-2.0638300048e+00
 7.4137528053e-01	 1.2836405009e+00	-2.0672139481e+00
 7.2905160373e-01	 1.2906796664e+00	-2.0682621973e+00
 7.1667730656e-01	 1.2975915692e+00	-2.0674946188e+00
 7.0425431651e-01	 1.3043757510e+00	-2.0654319380e+00
 6.9178456424e-01	 1.3110317917e+00	-2.0625930143e+00
 6.7926998269e-01	 1.3175593090e+00	-2.0594922568e+00
 6.6671250616e-01	 1.3239579587e+00	-2.0566371894e+00
 6.5411406937e-01	 1.3302274341e+00	-2.0545261772e+00
 6.4147660665e-01	 1.3363674664e+00	-2.0536463181e+00
 7.6890222376e-01	 1.2742188434e+00	-2.0589201604e+00
 7.5663707395e-01	 1.2815399444e+00	-2.0646384879e+00
 7.4431724593e-01	 1.2887343124e+00	-2.0675001315e+00
 7.3194466565e-01	 1.2958014111e+00	-2.0680192073e+00
 7.1952126413e-01	 1.3027407421e+00	-2.0667129896e+00
 7.0704897650e-01	 1.3095518453e+00	-2.0640990119e+00
 6.9452974108e-01	 1.3162342988e+00	-2.0606923016e+00
 6.8196549850e-01	 1.3227877190e+00	-2.0570027598e+00
 6.6935819070e-01	 1.3292117601e+00	-2.0535326967e+00
 6.5670976013e-01	 1.3355061144e+00	-2.0507745328e+00
 6.4402214874e-01	 1.3416705119e+00	-2.0492086719e+00
 7.7194136298e-01	 1.2792552815e+00	-2.0604306717e+00
 7.5962773432e-01	 1.2866053196e+00	-2.0656593250e+00
 7.4725921133e-01	 1.2938281240e+00	-2.0680119284e+00
 7.3483772757e-01	 1.3009231558e+00	-2.0680026643e+00
 7.2236522170e-01	 1.3078899150e+00	-2.0661483831e+00
 7.0984363648e-01	 1.3147279395e+00	-2.0629656538e+00
 6.9727491793e-01	 1.3214368059e+00	-2.0589679528e+00
 6.8466101430e-01	 1.3280161289e+00	-2.0546630031e+00
 6.7200387525e-01	 1.3344655615e+00	-2.0505502753e+00
 6.5930545088e-01	 1.3407847947e+00	-2.0471186582e+00
 6.4656769083e-01	 1.3469735574e+00	-2.0448443088e+00
 7.7498050221e-01	 1.2842917197e+00	-2.0620416965e+00
 7.6261839469e-01	 1.2916706949e+00	-2.0668059722e+00
 7.5020117673e-01	 1.2989219355e+00	-2.0686612925e+00
 7.3773078949e-01	 1.3060449005e+00	-2.0681239877e+00
 7.2520917926e-01	 1.3130390879e+00	-2.0657126287e+00
 7.1263829647e-01	 1.3199040338e+00	-2.0619450226e+00
 7.0002009477e-01	 1.3266393130e+00	-2.0573353503e+00
 6.8735653011e-01	 1.3332445389e+00	-2.0523914603e+00
 6.7464955980e-01	 1.3397193629e+00	-2.0476123297e+00
 6.6190114163e-01	 1.3460634750e+00	-2.0434857007e+00
 6.4911323292e-01	 1.3522766029e+00	-2.0404859024e+00
 7.7801964143e-01	 1.2893281578e+00	-2.0636687978e+00
 7.6560905506e-01	 1.2967360702e+00	-2.0679915431e+00
 7.5314314212e-01	 1.3040157470e+00	-2.0693598645e+00
 7.4062385141e-01	 1.3111666453e+00	-2.0682942992e+00
 7.2805313683e-01	 1.3181882608e+00	-2.0653172604e+00
 7.1543295646e-01	 1.3250801280e+00	-2.0609499714e+00
 7.0276527161e-01	 1.3318418202e+00	-2.0557095479e+00
 6.9005204591e-01	 1.3384729489e+00	-2.0501062418e+00
 6.7729524435e-01	 1.3449731644e+00	-2.0446408563e+00
 6.6449683238e-01	 1.3513421553e+00	-2.0398023442e+00
 6.5165877501e-01	 1.3575796484e+00	-2.0360655960e+00
 7.8105878066e-01	 1.2943645959e+00	-2.0652271699e+00
 7.6859971544e-01	 1.3018014455e+00	-2.0691288236e+00
 7.5608510752e-01	 1.3091095585e+00	-2.0700189850e+00
 7.4351691333e-01	 1.3162883900e+00	-2.0684244352e+00
 7.3089709439e-01	 1.3233374337e+00	-2.0648735280e+00
 7.1822761644e-01	 1.3302562223e+00	-2.0598930578e+00
 7.0551044845e-01	 1.3370443273e+00	-2.0540052813e+00
 6.9274756172e-01	 1.3437013588e+00	-2.0477251053e+00
 6.7994092890e-01	 1.3502269658e+00	-2.0415574529e+00
 6.6709252313e-01	 1.3566208356e+00	-2.0359948175e+00
 6.5420431710e-01	 1.3628826939e+00	-2.0315150130e+00
 7.8409791988e-01	 1.2994010340e+00	-2.0666316546e+00
 7.7159037581e-01	 1.3068668207e+00	-2.0701302880e+00
 7.5902707292e-01	 1.3142033700e+00	-2.0705497092e+00
 7.4640997525e-01	 1.3214101347e+00	-2.0684249591e+00
 7.3374105196e-01	 1.3284866066e+00	-2.0642924086e+00
 7.2102227643e-01	 1.3354323165e+00	-2.0586865548e+00
 7.0825562530e-01	 1.3422468344e+00	-2.0521369771e+00
 6.9544307752e-01	 1.3489297688e+00	-2.0451654647e+00
 6.8258661345e-01	 1.3554807672e+00	-2.0382833283e+00
 6.6968821388e-01	 1.3618995159e+00	-2.0319889050e+00
 6.5674985919e-01	 1.3681857394e+00	-2.0267652667e+00
 7.8713705910e-01	 1.3044374721e+00	-2.0677967599e+00
 7.7458103618e-01	 1.3119321960e+00	-2.0709081142e+00
 7.6196903832e-01	 1.3192971815e+00	-2.0708628203e+00
 7.4930303717e-01	 1.3265318794e+00	-2.0682061742e+00
 7.3658500952e-01	 1.3336357795e+00	-2.0634846181e+00
 7.2381693641e-01	 1.3406084108e+00	-2.0572424610e+00
 7.1100080214e-01	 1.3474493415e+00	-2.0500187635e+00
 6.9813859332e-01	 1.3541581787e+00	-2.0423444001e+00
 6.8523229799e-01	 1.3607345686e+00	-2.0347393114e+00
 6.7228390463e-01	 1.3671781962e+00	-2.0277099557e+00
 6.5929540128e-01	 1.3734887849e+00	-2.0217469703e+00
 7.9017619833e-01	 1.3094739102e+00	-2.0686366765e+00
 7.7757169655e-01	 1.3169975713e+00	-2.0713741991e+00
 7.6491100372e-01	 1.3243909930e+00	-2.0708688438e+00
 7.5219609909e-01	 1.3316536241e+00	-2.0676781360e+00
 7.3942896709e-01	 1.3387849524e+00	-2.0623606227e+00
 7.2661159640e-01	 1.3457845050e+00	-2.0554725117e+00
 7.1374597898e-01	 1.3526518486e+00	-2.0475644803e+00
 7.0083410913e-01	 1.3593865887e+00	-2.0391786677e+00
 6.8787798254e-01	 1.3659883701e+00	-2.0308458617e+00
 6.7487959539e-01	 1.3724568765e+00	-2.0230828937e+00
 6.6184094337e-01	 1.3787918304e+00	-2.0163902473e+00
 6.3638552247e-01	 1.3257613754e+00	-2.0630080567e+00
 6.2381155848e-01	 1.3317240320e+00	-2.0597119987e+00
 6.1120271133e-01	 1.3375578505e+00	-2.0476514855e+00
 5.9856089341e-01	 1.3432626752e+00	-2.0272521795e+00
 5.8588801319e-01	 1.3488383868e+00	-1.9991098853e+00
 5.7318597439e-01	 1.3542849023e+00	-1.9699518818e+00
 5.6045667517e-01	 1.3596021745e+00	-1.9430848004e+00
 5.4770200730e-01	 1.3647901923e+00	-1.9184818012e+00
 5.3492385536e-01	 1.3698489795e+00	-1.8960951051e+00
 5.2212409593e-01	 1.3747785954e+00	-1.8758582319e+00
 5.0930459686e-01	 1.3795791334e+00	-1.8576881892e+00
 6.3893106456e-01	 1.3310644209e+00	-2.0582240341e+00
 6.2630680471e-01	 1.3370509281e+00	-2.0543278917e+00
 6.1364752218e-01	 1.3429080819e+00	-2.0417694423e+00
 6.0095513698e-01	 1.3486357259e+00	-2.0209767623e+00
 5.8823156524e-01	 1.3542337404e+00	-1.9923796423e+00
 5.7547871829e-01	 1.3597020419e+00	-1.9612986237e+00
 5.6269850188e-01	 1.3650405832e+00	-1.9327515121e+00
 5.4989281533e-01	 1.3702493531e+00	-1.9067061193e+00
 5.3706355078e-01	 1.3753283755e+00	-1.8831093517e+00
 5.2421259231e-01	 1.3802777097e+00	-1.8618894939e+00
 5.1134181525e-01	 1.3850974500e+00	-1.8429584398e+00
 6.4147660665e-01	 1.3363674664e+00	-2.0536463181e+00
 6.2880205095e-01	 1.3423778242e+00	-2.0491248048e+00
 6.1609233302e-01	 1.3482583133e+00	-2.0360553575e+00
 6.0334938056e-01	 1.3540087766e+00	-2.0148672328e+00
 5.9057511729e-01	 1.3596290939e+00	-1.9859911894e+00
 5.7777146219e-01	 1.3651191815e+00	-1.9531495416e+00
 5.6494032858e-01	 1.3704789919e+00	-1.9229260907e+00
 5.5208362336e-01	 1.3757085138e+00	-1.8954490157e+00
 5.3920324620e-01	 1.3808077714e+00	-1.8706581454e+00
 5.2630108869e-01	 1.3857768241e+00	-1.8484747000e+00
 5.1337903364e-01	 1.3906157665e+00	-1.8288035703e+00
 6.4402214874e-01	 1.3416705119e+00	-2.0492086719e+00
 6.3129729718e-01	 1.3477047203e+00	-2.0440420651e+00
 6.1853714387e-01	 1.3536085447e+00	-2.0304531592e+00
 6.0574362413e-01	 1.3593818273e+00	-2.0088711710e+00
 5.9291866935e-01	 1.3650244475e+00	-1.9797265073e+00
 5.8006420608e-01	 1.3705363211e+00	-1.9454570283e+00
 5.6718215528e-01	 1.3759174006e+00	-1.9135616085e+00
 5.5427443139e-01	 1.3811676746e+00	-1.8846633092e+00
 5.4134294162e-01	 1.3862871673e+00	-1.8586931312e+00
 5.2838958508e-01	 1.3912759385e+00	-1.8355634165e+00
 5.1541625203e-01	 1.3961340830e+00	-1.8151701778e+00
 6.4656769083e-01	 1.3469735574e+00	-2.0448443088e+00
 6.3379254341e-01	 1.3530316165e+00	-2.0390183872e+00
 6.2098195471e-01	 1.3589587761e+00	-2.0249061171e+00
 6.0813786771e-01	 1.3647548780e+00	-2.0029354699e+00
 5.9526222140e-01	 1.3704198010e+00	-1.9735351950e+00
 5.8235694998e-01	 1.3759534607e+00	-1.9381727837e+00
 5.6942398198e-01	 1.3813558093e+00	-1.9046104961e+00
 5.5646523942e-01	 1.3866268354e+00	-1.8743012423e+00
 5.4348263704e-01	 1.3917665632e+00	-1.8471654584e+00
 5.3047808146e-01	 1.3967750529e+00	-1.8231048078e+00
 5.1745347041e-01	 1.4016523996e+00	-1.8020045646e+00
 6.4911323292e-01	 1.3522766029e+00	-2.0404859024e+00
 6.3628778965e-01	 1.3583585126e+00	-2.0339918829e+00
 6.2342676556e-01	 1.3643090075e+00	-2.0193568523e+00
 6.1053211128e-01	 1.3701279287e+00	-1.9970063457e+00
 5.9760577345e-01	 1.3758151546e+00	-1.9673661630e+00
 5.8464969388e-01	 1.3813706003e+00	-1.9312478129e+00
 5.7166580868e-01	 1.3867942180e+00	-1.8960245402e+00
 5.5865604745e-01	 1.3920859961e+00	-1.8643144788e+00
 5.4562233246e-01	 1.3972459591e+00	-1.8360257764e+00
 5.3256657785e-01	 1.4022741673e+00	-1.8110476308e+00
 5.1949068880e-01	 1.4071707161e+00	-1.7892527316e+00
 6.5165877501e-01	 1.3575796484e+00	-2.0360655960e+00
 6.3878303588e-01	 1.3636854087e+00	-2.0289000714e+00
 6.2587157640e-01	 1.3696592389e+00	-2.0137473483e+00
 6.1292635485e-01	 1.3755009794e+00	-1.9910293479e+00
 5.9994932550e-01	 1.3812105081e+00	-1.9611676431e+00
 5.8694243778e-01	 1.3867877399e+00	-1.9246324242e+00
 5.7390763538e-01	 1.3922326267e+00	-1.8877548810e+00
 5.6084685548e-01	 1.3975451569e+00	-1.8546541005e+00
 5.4776202788e-01	 1.4027253551e+00	-1.8252242306e+00
 5.3465507423e-01	 1.4077732816e+00	-1.7993402300e+00
 5.2152790719e-01	 1.4126890326e+00	-1.7768603716e+00
 6.5420431710e-01	 1.3628826939e+00	-2.0315150130e+00
 6.4127828211e-01	 1.3690123049e+00	-2.0236798902e+00
 6.2831638725e-01	 1.3750094703e+00	-2.0080189611e+00
 6.1532059843e-01	 1.3808740301e+00	-1.9849493695e+00
 6.0229287756e-01	 1.3866058617e+00	-1.9548871975e+00
 5.8923518167e-01	 1.3922048795e+00	-1.9182461376e+00
 5.7614946208e-01	 1.3976710354e+00	-1.8797520101e+00
 5.6303766351e-01	 1.4030043177e+00	-1.8452706041e+00
 5.4990172331e-01	 1.4082047510e+00	-1.8147104584e+00
 5.3674357061e-01	 1.4132723960e+00	-1.7879305321e+00
 5.2356512558e-01	 1.4182073492e+00	-1.7647728624e+00
 6.5674985919e-01	 1.3681857394e+00	-2.0267652667e+00
 6.4377352835e-01	 1.3743392010e+00	-2.0182677047e+00
 6.3076119809e-01	 1.3803597017e+00	-2.0021124294e+00
 6.1771484200e-01	 1.3862470808e+00	-1.9787106570e+00
 6.0463642961e-01	 1.3920012152e+00	-1.9484717287e+00
 5.9152792557e-01	 1.3976220192e+00	-1.9118017869e+00
 5.7839128878e-01	 1.4031094441e+00	-1.8719657686e+00
 5.6522847154e-01	 1.4084634784e+00	-1.8361138987e+00
 5.5204141873e-01	 1.4136841469e+00	-1.8044335858e+00
 5.3883206700e-01	 1.4187715104e+00	-1.7767660410e+00
 5.2560234396e-01	 1.4237256657e+00	-1.7529352606e+00
 6.5929540128e-01	 1.3734887849e+00	-2.0217469703e+00
 6.4626877458e-01	 1.3796660971e+00	-2.0125993193e+00
 6.3320600894e-01	 1.3857099331e+00	-1.9959678853e+00
 6.2010908557e-01	 1.3916201315e+00	-1.9722568208e+00
 6.0697998166e-01	 1.3973965688e+00	-1.9418674894e+00
 5.9382066947e-01	 1.4030391588e+00	-1.9051971489e+00
 5.8063311548e-01	 1.4085478528e+00	-1.8643453443e+00
 5.6741927957e-01	 1.4139226392e+00	-1.8271333029e+00
 5.5418111415e-01	 1.4191635428e+00	-1.7943422232e+00
 5.4092056338e-01	 1.4242706248e+00	-1.7657938331e+00
 5.2763956235e-01	 1.4292439822e+00	-1.7412922953e+00
 6.6184094337e-01	 1.3787918304e+00	-2.0163902473e+00
 6.4876402082e-01	 1.3849929932e+00	-2.0066099872e+00
 6.3565081979e-01	 1.3910601645e+00	-1.9895248649e+00
 6.2250332915e-01	 1.3969931822e+00	-1.9655308457e+00
 6.0932353372e-01	 1.4027919223e+00	-1.9350200920e+00
 5.9611341337e-01	 1.4084562984e+00	-1.8983796564e+00
 5.8287494218e-01	 1.4139862615e+00	-1.8568392700e+00
 5.6961008760e-01	 1.4193818000e+00	-1.8182775416e+00
 5.5632080957e-01	 1.4246429387e+00	-1.7843844621e+00
 5.4300905976e-01	 1.4297697392e+00	-1.7549605523e+00
 5.2967678074e-01	 1.4347622988e+00	-1.7297883617e+00
 5.0930459686e-01	 1.3795791334e+00	-1.8576881892e+00
 4.9646721650e-01	 1.3842507218e+00	-1.8396147345e+00
 4.8361380293e-01	 1.3887935222e+00	-1.8198337654e+00
 4.7074619324e-01	 1.3932077301e+00	-1.7984789653e+00
 4.5786621285e-01	 1.3974935738e+00	-1.7756569429e+00
 4.4497567477e-01	 1.4016513142e+00	-1.7514490736e+00
 4.3207637899e-01	 1.4056812443e+00	-1.7259132845e+00
 4.1917011173e-01	 1.4095836886e+00	-1.6990857796e+00
 4.0625864488e-01	 1.4133590030e+00	-1.6709827025e+00
 3.9334373533e-01	 1.4170075736e+00	-1.6416017314e+00
 3.8042712440e-01	 1.4205298169e+00	-1.6109236057e+00
 5.1134181525e-01	 1.3850974500e+00	-1.8429584398e+00
 4.9845308537e-01	 1.3897877247e+00	-1.8242368924e+00
 4.8554825814e-01	 1.3943486963e+00	-1.8038117791e+00
 4.7262917801e-01	 1.3987805611e+00	-1.7818116228e+00
 4.5969767770e-01	 1.4030835481e+00	-1.7583375204e+00
 4.4675557747e-01	 1.4072579195e+00	-1.7334650263e+00
 4.3380468450e-01	 1.4113039693e+00	-1.7072459772e+00
 4.2084679218e-01	 1.4152220234e+00	-1.6797102560e+00
 4.0788367946e-01	 1.4190124390e+00	-1.6508674905e+00
 3.9491711028e-01	 1.4226756039e+00	-1.6207086835e+00
 3.8194883290e-01	 1.4262119362e+00	-1.5892077719e+00
 5.1337903364e-01	 1.3906157665e+00	-1.8288035703e+00
 5.0043895424e-01	 1.3953247275e+00	-1.8094516177e+00
 4.8748271335e-01	 1.3999038704e+00	-1.7883933871e+00
 4.7451216278e-01	 1.4043533920e+00	-1.7657524407e+00
 4.6152914255e-01	 1.4086735224e+00	-1.7416246570e+00
 4.4853548017e-01	 1.4128645247e+00	-1.7160801540e+00
 4.3553299002e-01	 1.4169266942e+00	-1.6891651527e+00
 4.2252347262e-01	 1.4208603581e+00	-1.6609037776e+00
 4.0950871404e-01	 1.4246658750e+00	-1.6312997896e+00
 3.9649048522e-01	 1.4283436342e+00	-1.6003382489e+00
 3.8347054140e-01	 1.4318940555e+00	-1.5679871049e+00
 5.1541625203e-01	 1.3961340830e+00	-1.8151701778e+00
 5.0242482310e-01	 1.4008617304e+00	-1.7952026204e+00
 4.8941716856e-01	 1.4054590445e+00	-1.7735204486e+00
 4.7639514756e-01	 1.4099262229e+00	-1.7502424515e+00
 4.6336060740e-01	 1.4142634967e+00	-1.7254595687e+00
 4.5031538287e-01	 1.4184711300e+00	-1.6992368528e+00
 4.3726129554e-01	 1.4225494192e+00	-1.6716153695e+00
 4.2420015307e-01	 1.4264986929e+00	-1.6426140326e+00
 4.1113374862e-01	 1.4303193110e+00	-1.6122313700e+00
 3.9806386016e-01	 1.4340116645e+00	-1.5804472167e+00
 3.8499224989e-01	 1.4375761747e+00	-1.5472243331e+00
 5.1745347041e-01	 1.4016523996e+00	-1.8020045646e+00
 5.0441069197e-01	 1.4063987333e+00	-1.7814334211e+00
 4.9135162378e-01	 1.4110142186e+00	-1.7591347227e+00
 4.7827813233e-01	 1.4154990538e+00	-1.7352226591e+00
 4.6519207225e-01	 1.4198534710e+00	-1.7097834981e+00
 4.5209528557e-01	 1.4240777352e+00	-1.6828775839e+00
 4.3898960105e-01	 1.4281721442e+00	-1.6545412730e+00
 4.2587683352e-01	 1.4321370276e+00	-1.6247888020e+00
 4.1275878320e-01	 1.4359727470e+00	-1.5936140843e+00
 3.9963723510e-01	 1.4396796948e+00	-1.5609924315e+00
 3.8651395839e-01	 1.4432582940e+00	-1.5268821984e+00
 5.1949068880e-01	 1.4071707161e+00	-1.7892527316e+00
 5.0639656083e-01	 1.4119357362e+00	-1.7680873434e+00
 4.9328607899e-01	 1.4165693927e+00	-1.7451778582e+00
 4.8016111710e-01	 1.4210718847e+00	-1.7206340285e+00
 4.6702353710e-01	 1.4254434453e+00	-1.6945377031e+00
 4.5387518827e-01	 1.4296843405e+00	-1.6669448619e+00
 4.4071790657e-01	 1.4337948692e+00	-1.6378875841e+00
 4.2755351396e-01	 1.4377753624e+00	-1.6073759482e+00
 4.1438381778e-01	 1.4416261830e+00	-1.5753998567e+00
 4.0121061004e-01	 1.4453477251e+00	-1.5419307847e+00
 3.8803566689e-01	 1.4489404133e+00	-1.5069234488e+00
 5.2152790719e-01	 1.4126890326e+00	-1.7768603716e+00
 5.0838242970e-01	 1.4174727391e+00	-1.7551075051e+00
 4.9522053420e-01	 1.4221245668e+00	-1.7315913848e+00
 4.8204410188e-01	 1.4266447157e+00	-1.7064174749e+00
 4.6885500195e-01	 1.4310334196e+00	-1.6796634462e+00
 4.5565509097e-01	 1.4352909458e+00	-1.6513812438e+00
 4.4244621208e-01	 1.4394175941e+00	-1.6215990884e+00
 4.2923019441e-01	 1.4434136971e+00	-1.5903234046e+00
 4.1600885236e-01	 1.4472796190e+00	-1.5575406734e+00
 4.0278398498e-01	 1.4510157554e+00	-1.5232192050e+00
 3.8955737539e-01	 1.4546225325e+00	-1.4873108301e+00
 5.2356512558e-01	 1.4182073492e+00	-1.7647728624e+00
 5.1036829857e-01	 1.4230097420e+00	-1.7424368103e+00
 4.9715498941e-01	 1.4276797409e+00	-1.7183167034e+00
 4.8392708665e-01	 1.4322175466e+00	-1.6925138546e+00
 4.7068646680e-01	 1.4366233939e+00	-1.6651019837e+00
 4.5743499367e-01	 1.4408975510e+00	-1.6361293184e+00
 4.4417451760e-01	 1.4450403191e+00	-1.6056206251e+00
 4.3090687486e-01	 1.4490520319e+00	-1.5735791653e+00
 4.1763388694e-01	 1.4529330550e+00	-1.5399885728e+00
 4.0435735992e-01	 1.4566837857e+00	-1.5048146500e+00
 3.9107908388e-01	 1.4603046518e+00	-1.4680070784e+00
 5.2560234396e-01	 1.4237256657e+00	-1.7529352606e+00
 5.1235416743e-01	 1.4285467449e+00	-1.7300179416e+00
 4.9908944462e-01	 1.4332349149e+00	-1.7052950774e+00
 4.8581007142e-01	 1.4377903775e+00	-1.6788639540e+00
 4.7251793166e-01	 1.4422133682e+00	-1.6507945554e+00
 4.5921489637e-01	 1.4465041563e+00	-1.6211316953e+00
 4.4590282312e-01	 1.4506630441e+00	-1.5898970768e+00
 4.3258355530e-01	 1.4546903667e+00	-1.5570912746e+00
 4.1925892152e-01	 1.4585864911e+00	-1.5226956360e+00
 4.0593073486e-01	 1.4623518160e+00	-1.4866740972e+00
 3.9260079238e-01	 1.4659867711e+00	-1.4489749127e+00
 5.2763956235e-01	 1.4292439822e+00	-1.7412922953e+00
 5.1434003630e-01	 1.4340837478e+00	-1.7177933521e+00
 5.0102389983e-01	 1.4387900890e+00	-1.6924676236e+00
 4.8769305619e-01	 1.4433632084e+00	-1.6654084812e+00
 4.7434939651e-01	 1.4478033425e+00	-1.6366823748e+00
 4.6099479907e-01	 1.4521107615e+00	-1.6063309950e+00
 4.4763112863e-01	 1.4562857691e+00	-1.5743733590e+00
 4.3426023575e-01	 1.4603287014e+00	-1.5408078175e+00
 4.2088395610e-01	 1.4642399271e+00	-1.5056139771e+00
 4.0750410981e-01	 1.4680198463e+00	-1.4687545356e+00
 3.9412250088e-01	 1.4716688903e+00	-1.4301770276e+00
 5.2967678074e-01	 1.4347622988e+00	-1.7297883617e+00
 5.1632590516e-01	 1.4396207506e+00	-1.7057052582e+00
 5.0295835505e-01	 1.4443452631e+00	-1.6797753039e+00
 4.8957604097e-01	 1.4489360394e+00	-1.6520880555e+00
 4.7618086136e-01	 1.4533933168e+00	-1.6227066188e+00
 4.6277470176e-01	 1.4577173668e+00	-1.5916698384e+00
 4.4935943415e-01	 1.4619084940e+00	-1.5589944101e+00
 4.3593691620e-01	 1.4659670362e+00	-1.5246769094e+00
 4.2250899067e-01	 1.4698933631e+00	-1.4886957344e+00
 4.0907748475e-01	 1.4736878766e+00	-1.4510129577e+00
 3.9564420938e-01	 1.4773510096e+00	-1.4115760860e+00
 3.8042712440e-01	 1.4205298169e+00	-1.6109236057e+00
 3.6751053721e-01	 1.4239261789e+00	-1.5802596234e+00
 3.5459568216e-01	 1.4271971342e+00	-1.5508857957e+00
 3.4168425034e-01	 1.4303431864e+00	-1.5227136746e+00
 3.2877791506e-01	 1.4333648664e+00	-1.4956497604e+00
 3.1587833127e-01	 1.4362627328e+00	-1.4695965087e+00
 3.0298713513e-01	 1.4390373705e+00	-1.4444532553e+00
 2.9010594352e-01	 1.4416893907e+00	-1.4201170611e+00
 2.7723635357e-01	 1.4442194300e+00	-1.3964834765e+00
 2.6437994228e-01	 1.4466281498e+00	-1.3734472269e+00
 2.5153826608e-01	 1.4489162358e+00	-1.3509028223e+00
 3.8194883290e-01	 1.4262119362e+00	-1.5892077719e+00
 3.6898057936e-01	 1.4296218836e+00	-1.5577174397e+00
 3.5601406488e-01	 1.4329059228e+00	-1.5275556580e+00
 3.4305098734e-01	 1.4360645591e+00	-1.4986286011e+00
 3.3009302672e-01	 1.4390983259e+00	-1.4708382506e+00
 3.1714184459e-01	 1.4420077837e+00	-1.4440834055e+00
 3.0419908367e-01	 1.4447935200e+00	-1.4182606079e+00
 2.9126636729e-01	 1.4474561483e+00	-1.3932649859e+00
 2.7834529899e-01	 1.4499963077e+00	-1.3689910128e+00
 2.6543746205e-01	 1.4524146624e+00	-1.3453331872e+00
 2.5254441914e-01	 1.4547119008e+00	-1.3221866315e+00
 3.8347054140e-01	 1.4318940555e+00	-1.5679871049e+00
 3.7045062151e-01	 1.4353175883e+00	-1.5356461587e+00
 3.5743244761e-01	 1.4386147113e+00	-1.5046804401e+00
 3.4441772434e-01	 1.4417859319e+00	-1.4749906098e+00
 3.3140813838e-01	 1.4448317854e+00	-1.4464739129e+00
 3.1840535792e-01	 1.4477528347e+00	-1.4190251942e+00
 3.0541103221e-01	 1.4505496695e+00	-1.3925378267e+00
 2.9242679107e-01	 1.4532229058e+00	-1.3669045542e+00
 2.7945424440e-01	 1.4557731855e+00	-1.3420182487e+00
 2.6649498182e-01	 1.4582011750e+00	-1.3177725845e+00
 2.5355057221e-01	 1.4605075657e+00	-1.2940626310e+00
 3.8499224989e-01	 1.4375761747e+00	-1.5472243331e+00
 3.7192066366e-01	 1.4410132930e+00	-1.5140143077e+00
 3.5885083034e-01	 1.4443234999e+00	-1.4822332777e+00
 3.4578446135e-01	 1.4475073046e+00	-1.4517762549e+00
 3.3272325004e-01	 1.4505652448e+00	-1.4225355319e+00
 3.1966887125e-01	 1.4534978856e+00	-1.3944017045e+00
 3.0662298075e-01	 1.4563058190e+00	-1.3672646047e+00
 2.9358721484e-01	 1.4589896634e+00	-1.3410141454e+00
 2.8056318982e-01	 1.4615500632e+00	-1.3155410771e+00
 2.6755250159e-01	 1.4639876876e+00	-1.2907376600e+00
 2.5455672527e-01	 1.4663032307e+00	-1.2664982506e+00
 3.8651395839e-01	 1.4432582940e+00	-1.5268821984e+00
 3.7339070581e-01	 1.4467089977e+00	-1.4927903864e+00
 3.6026921307e-01	 1.4500322884e+00	-1.4601872550e+00
 3.4715119835e-01	 1.4532286774e+00	-1.4289620327e+00
 3.3403836170e-01	 1.4562987043e+00	-1.3990018454e+00
 3.2093238457e-01	 1.4592429365e+00	-1.3701927475e+00
 3.0783492929e-01	 1.4620619684e+00	-1.3424206618e+00
 2.9474763861e-01	 1.4647564210e+00	-1.3155722274e+00
 2.8167213523e-01	 1.4673269409e+00	-1.2895355594e+00
 2.6861002136e-01	 1.4697742002e+00	-1.2642009188e+00
 2.5556287833e-01	 1.4720988956e+00	-1.2394612970e+00
 3.8803566689e-01	 1.4489404133e+00	-1.5069234488e+00
 3.7486074795e-01	 1.4524047024e+00	-1.4719428608e+00
 3.6168759580e-01	 1.4557410769e+00	-1.4385153995e+00
 3.4851793535e-01	 1.4589500501e+00	-1.4065243770e+00
 3.3535347336e-01	 1.4620321638e+00	-1.3758515397e+00
 3.2219589790e-01	 1.4649879875e+00	-1.3463781109e+00
 3.0904687783e-01	 1.4678181179e+00	-1.3179857388e+00
 2.9590806239e-01	 1.4705231785e+00	-1.2905573511e+00
 2.8278108064e-01	 1.4731038186e+00	-1.2639779173e+00
 2.6966754113e-01	 1.4755607128e+00	-1.2381351209e+00
 2.5656903140e-01	 1.4778945606e+00	-1.2129199424e+00
 3.8955737539e-01	 1.4546225325e+00	-1.4873108301e+00
 3.7633079010e-01	 1.4581004071e+00	-1.4514401557e+00
 3.6310597853e-01	 1.4614498655e+00	-1.4171906761e+00
 3.4988467235e-01	 1.4646714229e+00	-1.3844396537e+00
 3.3666858502e-01	 1.4677656232e+00	-1.3530632444e+00
 3.2345941122e-01	 1.4707330384e+00	-1.3229375530e+00
 3.1025882637e-01	 1.4735742674e+00	-1.2939395918e+00
 2.9706848616e-01	 1.4762899361e+00	-1.2659481425e+00
 2.8389002606e-01	 1.4788806963e+00	-1.2388445249e+00
 2.7072506090e-01	 1.4813472254e+00	-1.2125132717e+00
 2.5757518446e-01	 1.4836902255e+00	-1.1868427132e+00
 3.9107908388e-01	 1.4603046518e+00	-1.4680070784e+00
 3.7780083225e-01	 1.4637961119e+00	-1.4312506492e+00
 3.6452436126e-01	 1.4671586540e+00	-1.3961859812e+00
 3.5125140935e-01	 1.4703927956e+00	-1.3626841552e+00
 3.3798369668e-01	 1.4734990827e+00	-1.3306155272e+00
 3.2472292455e-01	 1.4764780893e+00	-1.2998507984e+00
 3.1147077492e-01	 1.4793304169e+00	-1.2702619866e+00
 2.9822890994e-01	 1.4820566937e+00	-1.2417232976e+00
 2.8499897147e-01	 1.4846575741e+00	-1.2141119015e+00
 2.7178258067e-01	 1.4871337380e+00	-1.1873086130e+00
 2.5858133753e-01	 1.4894858904e+00	-1.1611984793e+00
 3.9260079238e-01	 1.4659867711e+00	-1.4489749127e+00
 3.7927087440e-01	 1.4694918166e+00	-1.4113426654e+00
 3.6594274398e-01	 1.4728674425e+00	-1.3754741375e+00
 3.5261814635e-01	 1.4761141684e+00	-1.3412340961e+00
 3.3929880834e-01	 1.4792325422e+00	-1.3084868894e+00
 3.2598643787e-01	 1.4822231402e+00	-1.2770975325e+00
 3.1268272346e-01	 1.4850865664e+00	-1.2469326931e+00
 2.9938933371e-01	 1.4878234512e+00	-1.2178615750e+00
 2.8610791689e-01	 1.4904344518e+00	-1.1897567037e+00
 2.7284010044e-01	 1.4929202506e+00	-1.1624946142e+00
 2.5958749059e-01	 1.4952815554e+00	-1.1359564437e+00
 3.9412250088e-01	 1.4716688903e+00	-1.4301770276e+00
 3.8074091655e-01	 1.4751875213e+00	-1.3916844692e+00
 3.6736112671e-01	 1.4785762311e+00	-1.3550278883e+00
 3.5398488335e-01	 1.4818355411e+00	-1.3200656079e+00
 3.4061392000e-01	 1.4849660016e+00	-1.2866557610e+00
 3.2724995120e-01	 1.4879681912e+00	-1.2546573967e+00
 3.1389467200e-01	 1.4908427159e+00	-1.2239314800e+00
 3.0054975748e-01	 1.4935902088e+00	-1.1943417906e+00
 2.8721686230e-01	 1.4962113295e+00	-1.1657557188e+00
 2.7389762021e-01	 1.4987067632e+00	-1.1380449636e+00
 2.6059364366e-01	 1.5010772203e+00	-1.1110861318e+00
 3.9564420938e-01	 1.4773510096e+00	-1.4115760860e+00
 3.8221095870e-01	 1.4808832260e+00	-1.3722442595e+00
 3.6877950944e-01	 1.4842850196e+00	-1.3348198929e+00
 3.5535162036e-01	 1.4875569138e+00	-1.2991547341e+00
 3.4192903166e-01	 1.4906994611e+00	-1.2651004965e+00
 3.2851346452e-01	 1.4937132421e+00	-1.2325099839e+00
 3.1510662054e-01	 1.4965988653e+00	-1.2012381099e+00
 3.0171018126e-01	 1.4993569664e+00	-1.1711428111e+00
 2.8832580772e-01	 1.5019882072e+00	-1.1420858574e+00
 2.7495513998e-01	 1.5044932758e+00	-1.1139335601e+00
 2.6159979672e-01	 1.5068728853e+00	-1.0865573814e+00
 2.5153826608e-01	 1.4489162358e+00	-1.3509028223e+00
 2.3871286041e-01	 1.4510843973e+00	-1.3290613528e+00
 2.2590523944e-01	 1.4531333664e+00	-1.3082139160e+00
 2.1311689562e-01	 1.4550638978e+00	-1.2883767772e+00
 2.0034929943e-01	 1.4568767676e+00	-1.2695683935e+00
 1.8760389902e-01	 1.4585727732e+00	-1.2518094710e+00
 1.7488211993e-01	 1.4601527324e+00	-1.2351229634e+00
 1.6218536486e-01	 1.4616174825e+00	-1.2195340156e+00
 1.4951501335e-01	 1.4629678802e+00	-1.2050698554e+00
 1.3687242160e-01	 1.4642048006e+00	-1.1917596367e+00
 1.2425892225e-01	 1.4653291364e+00	-1.1796342381e+00
 2.5254441914e-01	 1.4547119008e+00	-1.3221866315e+00
 2.3966771186e-01	 1.4568887349e+00	-1.2997774084e+00
 2.2680886040e-01	 1.4589458999e+00	-1.2784086217e+00
 2.1396936320e-01	 1.4608841534e+00	-1.2580932933e+00
 2.0115069663e-01	 1.4627042747e+00	-1.2388466011e+00
 1.8835431461e-01	 1.4644070643e+00	-1.2206859420e+00
 1.7558164841e-01	 1.4659933433e+00	-1.2036309347e+00
 1.6283410632e-01	 1.4674639525e+00	-1.1877033667e+00
 1.5011307340e-01	 1.4688197517e+00	-1.1729270881e+00
 1.3741991129e-01	 1.4700616198e+00	-1.1593278558e+00
 1.2475595794e-01	 1.4711904530e+00	-1.1469331319e+00
 2.5355057221e-01	 1.4605075657e+00	-1.2940626310e+00
 2.4062256330e-01	 1.4626930725e+00	-1.2711235424e+00
 2.2771248135e-01	 1.4647584333e+00	-1.2492649509e+00
 2.1482183079e-01	 1.4667044089e+00	-1.2284966026e+00
 2.0195209382e-01	 1.4685317818e+00	-1.2088304714e+00
 1.8910473021e-01	 1.4702413554e+00	-1.1902808245e+00
 1.7628117689e-01	 1.4718339543e+00	-1.1728642269e+00
 1.6348284778e-01	 1.4733104224e+00	-1.1565994896e+00
 1.5071113346e-01	 1.4746716233e+00	-1.1415075616e+00
 1.3796740098e-01	 1.4759184390e+00	-1.1276113737e+00
 1.2525299363e-01	 1.4770517695e+00	-1.1149356335e+00
 2.5455672527e-01	 1.4663032307e+00	-1.2664982506e+00
 2.4157741474e-01	 1.4684974101e+00	-1.2430623933e+00
 2.2861610231e-01	 1.4705709668e+00	-1.2207419398e+00
 2.1567429837e-01	 1.4725246645e+00	-1.1995433234e+00
 2.0275349102e-01	 1.4743592888e+00	-1.1794753823e+00
 1.8985514580e-01	 1.4760756465e+00	-1.1605494263e+00
 1.7698070537e-01	 1.4776745652e+00	-1.1427792410e+00
 1.6413158924e-01	 1.4791568923e+00	-1.1261810326e+00
 1.5130919351e-01	 1.4805234948e+00	-1.1107733184e+00
 1.3851489066e-01	 1.4817752582e+00	-1.0965767641e+00
 1.2575002932e-01	 1.4829130861e+00	-1.0836139749e+00
 2.5556287833e-01	 1.4720988956e+00	-1.2394612970e+00
 2.4253226618e-01	 1.4743017476e+00	-1.2155570866e+00
 2.2951972327e-01	 1.4763835003e+00	-1.1927992028e+00
 2.1652676595e-01	 1.4783449201e+00	-1.1711907222e+00
 2.0355488822e-01	 1.4801867959e+00	-1.1507374096e+00
 1.9060556140e-01	 1.4819099376e+00	-1.1314477834e+00
 1.7768023385e-01	 1.4835151761e+00	-1.1133331155e+00
 1.6478033070e-01	 1.4850033622e+00	-1.0964073727e+00
 1.5190725356e-01	 1.4863753663e+00	-1.0806870997e+00
 1.3906238035e-01	 1.4876320774e+00	-1.0661912505e+00
 1.2624706501e-01	 1.4887744026e+00	-1.0529409699e+00
 2.5656903140e-01	 1.4778945606e+00	-1.2129199424e+00
 2.4348711762e-01	 1.4801060852e+00	-1.1885712226e+00
 2.3042334423e-01	 1.4821960337e+00	-1.1653969174e+00
 2.1737923353e-01	 1.4841651757e+00	-1.1433966975e+00
 2.0435628542e-01	 1.4860143030e+00	-1.1225733108e+00
 1.9135597700e-01	 1.4877442287e+00	-1.1029326424e+00
 1.7837976233e-01	 1.4893557870e+00	-1.0844837103e+00
 1.6542907216e-01	 1.4908498322e+00	-1.0672385981e+00
 1.5250531362e-01	 1.4922272378e+00	-1.0512123300e+00
 1.3960987004e-01	 1.4934888966e+00	-1.0364226917e+00
 1.2674410069e-01	 1.4946357191e+00	-1.0228900011e+00
 2.5757518446e-01	 1.4836902255e+00	-1.1868427132e+00
 2.4444196906e-01	 1.4859104228e+00	-1.1620688627e+00
 2.3132696519e-01	 1.4880085672e+00	-1.1384958099e+00
 2.1823170112e-01	 1.4899854313e+00	-1.1161197650e+00
 2.0515768262e-01	 1.4918418100e+00	-1.0949405084e+00
 1.9210639259e-01	 1.4935785198e+00	-1.0749614450e+00
 1.7907929081e-01	 1.4951963980e+00	-1.0561895900e+00
 1.6607781362e-01	 1.4966963021e+00	-1.0386354932e+00
 1.5310337367e-01	 1.4980791093e+00	-1.0223131017e+00
 1.4015735972e-01	 1.4993457158e+00	-1.0072395680e+00
 1.2724113638e-01	 1.5004970357e+00	-9.9343500704e-01
 2.5858133753e-01	 1.4894858904e+00	-1.1611984793e+00
 2.4539682051e-01	 1.4917147604e+00	-1.1360145171e+00
 2.3223058614e-01	 1.4938211007e+00	-1.1120571415e+00
 2.1908416870e-01	 1.4958056869e+00	-1.0893190417e+00
 2.0595907981e-01	 1.4976693171e+00	-1.0677970750e+00
 1.9285680819e-01	 1.4994128109e+00	-1.0474923111e+00
 1.7977881929e-01	 1.5010370089e+00	-1.0284100080e+00
 1.6672655507e-01	 1.5025427720e+00	-1.0105595225e+00
 1.5370143372e-01	 1.5039309809e+00	-9.9395416016e-01
 1.4070484941e-01	 1.5052025350e+00	-9.7861096717e-01
 1.2773817207e-01	 1.5063583522e+00	-9.6455047034e-01
 2.5958749059e-01	 1.4952815554e+00	-1.1359564437e+00
 2.4635167195e-01	 1.4975190980e+00	-1.1103731326e+00
 2.3313420710e-01	 1.4996336341e+00	-1.0860426943e+00
 2.1993663628e-01	 1.5016259425e+00	-1.0629542319e+00
 2.0676047701e-01	 1.5034968242e+00	-1.0411017171e+00
 1.9360722378e-01	 1.5052471020e+00	-1.0204840238e+00
 1.8047834777e-01	 1.5068776198e+00	-1.0011048904e+00
 1.6737529653e-01	 1.5083892420e+00	-9.8297281529e-01
 1.5429949378e-01	 1.5097828524e+00	-9.6610088954e-01
 1.4125233910e-01	 1.5110593542e+00	-9.5050657128e-01
 1.2823520776e-01	 1.5122196688e+00	-9.3621140544e-01
 2.6059364366e-01	 1.5010772203e+00	-1.1110861318e+00
 2.4730652339e-01	 1.5033234356e+00	-1.0851100801e+00
 2.3403782806e-01	 1.5054461676e+00	-1.0604147585e+00
 2.2078910386e-01	 1.5074461981e+00	-1.0369856124e+00
 2.0756187421e-01	 1.5093243312e+00	-1.0148137605e+00
 1.9435763938e-01	 1.5110813931e+00	-9.9389601362e-01
 1.8117787625e-01	 1.5127182308e+00	-9.7423482159e-01
 1.6802403799e-01	 1.5142357119e+00	-9.5583815094e-01
 1.5489755383e-01	 1.5156347239e+00	-9.3871929826e-01
 1.4179982878e-01	 1.5169161734e+00	-9.2289664341e-01
 1.2873224345e-01	 1.5180809853e+00	-9.0839334696e-01
 2.6159979672e-01	 1.5068728853e+00	-1.0865573814e+00
 2.4826137483e-01	 1.5091277732e+00	-1.0601911433e+00
 2.3494144902e-01	 1.5112587011e+00	-1.0351361184e+00
 2.2164157145e-01	 1.5132664537e+00	-1.0113740186e+00
 2.0836327141e-01	 1.5151518383e+00	-9.8889313543e-01
 1.9510805498e-01	 1.5169156842e+00	-9.6768834351e-01
 1.8187740473e-01	 1.5185588417e+00	-9.4776102841e-01
 1.6867277945e-01	 1.5200821818e+00	-9.2911894432e-01
 1.5549561388e-01	 1.5214865954e+00	-9.1177600532e-01
 1.4234731847e-01	 1.5227729926e+00	-8.9575201493e-01
 1.2922927914e-01	 1.5239423019e+00	-8.8107233830e-01
 1.2425892225e-01	 1.4653291364e+00	-1.1796342381e+00
 1.1167582415e-01	 1.4663417978e+00	-1.1686182301e+00
 9.9124412219e-02	 1.4672437114e+00	-1.1586466115e+00
 8.6605947287e-02	 1.4680358196e+00	-1.1497668444e+00
 7.4121665932e-02	 1.4687190802e+00	-1.1420258168e+00
 6.1672780373e-02	 1.4692944654e+00	-1.1354694542e+00
 4.9260478362e-02	 1.4697629615e+00	-1.1301423108e+00
 3.6885923096e-02	 1.4701255683e+00	-1.1260871418e+00
 2.4550253142e-02	 1.4703832979e+00	-1.1233444617e+00
 1.2254582388e-02	 1.4705371750e+00	-1.1219520907e+00
 0.0000000000e+00	 1.4705882353e+00	-1.1219446932e+00
 1.2475595794e-01	 1.4711904530e+00	-1.1469331319e+00
 1.1212252744e-01	 1.4722071650e+00	-1.1356626282e+00
 9.9520909868e-02	 1.4731126863e+00	-1.1254508049e+00
 8.6952371076e-02	 1.4739079629e+00	-1.1163487769e+00
 7.4418152596e-02	 1.4745939565e+00	-1.1084078628e+00
 6.1919471495e-02	 1.4751716432e+00	-1.1016791650e+00
 4.9457520276e-02	 1.4756420134e+00	-1.0962131272e+00
 3.7033466788e-02	 1.4760060705e+00	-1.0920590734e+00
 2.4648454155e-02	 1.4762648311e+00	-1.0892647318e+00
 1.2303600718e-02	 1.4764193237e+00	-1.0878757466e+00
 0.0000000000e+00	 1.4764705882e+00	-1.0879351819e+00
 1.2525299363e-01	 1.4770517695e+00	-1.1149356335e+00
 1.1256923074e-01	 1.4780725322e+00	-1.1034013396e+00
 9.9917407517e-02	 1.4789816611e+00	-1.0929475681e+00
 8.7298794865e-02	 1.4797801062e+00	-1.0836282592e+00
 7.4714639259e-02	 1.4804688328e+00	-1.0754982484e+00
 6.2166162616e-02	 1.4810488211e+00	-1.0686128173e+00
 4.9654562189e-02	 1.4815210652e+00	-1.0630272208e+00
 3.7181010481e-02	 1.4818865728e+00	-1.0587961957e+00
 2.4746655167e-02	 1.4821463643e+00	-1.0559734534e+00
 1.2352619047e-02	 1.4823014724e+00	-1.0546111603e+00
 0.0000000000e+00	 1.4823529412e+00	-1.0547594094e+00
 1.2575002932e-01	 1.4829130861e+00	-1.0836139749e+00
 1.1301593404e-01	 1.4839378994e+00	-1.0718120443e+00
 1.0031390517e-01	 1.4848506360e+00	-1.0611184969e+00
 8.7645218654e-02	 1.4856522495e+00	-1.0515892875e+00
 7.5011125923e-02	 1.4863437091e+00	-1.0432818721e+00
 6.2412853738e-02	 1.4869259989e+00	-1.0362547316e+00
 4.9851604103e-02	 1.4874001171e+00	-1.0305668727e+00
 3.7328554173e-02	 1.4877670751e+00	-1.0262773083e+00
 2.4844856180e-02	 1.4880278975e+00	-1.0234445228e+00
 1.2401637377e-02	 1.4881836211e+00	-1.0221259232e+00
 0.0000000000e+00	 1.4882352941e+00	-1.0223772827e+00
 1.2624706501e-01	 1.4887744026e+00	-1.0529409699e+00
 1.1346263733e-01	 1.4898032666e+00	-1.0408729373e+00
 1.0071040281e-01	 1.4907196108e+00	-1.0299456582e+00
 8.7991642444e-02	 1.4915243927e+00	-1.0202163080e+00
 7.5307612587e-02	 1.4922185854e+00	-1.0117440829e+00
 6.2659544859e-02	 1.4928031768e+00	-1.0045897015e+00
 5.0048646016e-02	 1.4932791689e+00	-9.9881488091e-01
 3.7476097865e-02	 1.4936475774e+00	-9.9448179328e-01
 2.4943057193e-02	 1.4939094307e+00	-9.9165250497e-01
 1.2450655706e-02	 1.4940657698e+00	-9.9038840322e-01
 0.0000000000e+00	 1.4941176471e+00	-9.9074961325e-01
 1.2674410069e-01	 1.4946357191e+00	-1.0228900011e+00
 1.1390934063e-01	 1.4956686338e+00	-1.0105627174e+00
 1.0110690046e-01	 1.4965885856e+00	-9.9941158031e-01
 8.8338066233e-02	 1.4973965360e+00	-9.8949420670e-01
 7.5604099250e-02	 1.4980934618e+00	-9.8087067052e-01
 6.2906235981e-02	 1.4986803547e+00	-9.7360298339e-01
 5.0245687930e-02	 1.4991582208e+00	-9.6775455020e-01
 3.7623641558e-02	 1.4995280796e+00	-9.6338960349e-01
 2.5041258205e-02	 1.4997909639e+00	-9.6057262093e-01
 1.2499674036e-02	 1.4999479185e+00	-9.5936772925e-01
 0.0000000000e+00	 1.5000000000e+00	-9.5983809856e-01
 1.2724113638e-01	 1.5004970357e+00	-9.9343500704e-01
 1.1435604393e-01	 1.5015340010e+00	-9.8086057603e-01
 1.0150339811e-01	 1.5024575605e+00	-9.6949924196e-01
 8.8684490022e-02	 1.5032686793e+00	-9.5940830037e-01
 7.5900585914e-02	 1.5039683381e+00	-9.5064785633e-01
 6.3152927102e-02	 1.5045575325e+00	-9.4328028746e-01
 5.0442729843e-02	 1.5050372726e+00	-9.3736968131e-01
 3.7771185250e-02	 1.5054085819e+00	-9.3298125118e-01
 2.5139459218e-02	 1.5056724971e+00	-9.3018073427e-01
 1.2548692366e-02	 1.5058300672e+00	-9.2903377615e-01
 0.0000000000e+00	 1.5058823529e+00	-9.2960530522e-01
 1.2773817207e-01	 1.5063583522e+00	-9.6455047034e-01
 1.1480274722e-01	 1.5073993682e+00	-9.5174618659e-01
 1.0189989576e-01	 1.5083265353e+00	-9.4019206313e-01
 8.9030913811e-02	 1.5091408226e+00	-9.2994432695e-01
 7.6197072578e-02	 1.5098432144e+00	-9.2106228401e-01
 6.3399618224e-02	 1.5104347104e+00	-9.1360776771e-01
 5.0639771757e-02	 1.5109163244e+00	-9.0764456106e-01
 3.7918728943e-02	 1.5112890842e+00	-9.0323779665e-01
 2.5237660230e-02	 1.5115540303e+00	-9.0045333856e-01
 1.2597710695e-02	 1.5117122159e+00	-8.9935715021e-01
 0.0000000000e+00	 1.5117647059e+00	-9.0001465187e-01
 1.2823520776e-01	 1.5122196688e+00	-9.3621140544e-01
 1.1524945052e-01	 1.5132647354e+00	-9.2319969353e-01
 1.0229639341e-01	 1.5141955102e+00	-9.1147389515e-01
 8.9377337600e-02	 1.5150129658e+00	-9.0108843663e-01
 7.6493559242e-02	 1.5157180907e+00	-8.9210101066e-01
 6.3646309345e-02	 1.5163118883e+00	-8.8457201303e-01
 5.0836813670e-02	 1.5167953763e+00	-8.7856395240e-01
 3.8066272635e-02	 1.5171695864e+00	-8.7414083735e-01
 2.5335861243e-02	 1.5174355635e+00	-8.7136754496e-01
 1.2646729025e-02	 1.5175943646e+00	-8.7030917488e-01
 0.0000000000e+00	 1.5176470588e+00	-8.7103039276e-01
 1.2873224345e-01	 1.5180809853e+00	-9.0839334696e-01
 1.1569615382e-01	 1.5191301026e+00	-8.9520170224e-01
 1.0269289106e-01	 1.5200644850e+00	-8.8332901132e-01
 8.9723761389e-02	 1.5208851091e+00	-8.7282718288e-01
 7.6790045905e-02	 1.5215929670e+00	-8.6375149804e-01
 6.3893000467e-02	 1.5221890661e+00	-8.5616003807e-01
 5.1033855584e-02	 1.5226744281e+00	-8.5011308471e-01
 3.8213816327e-02	 1.5230500887e+00	-8.4567249714e-01
 2.5434062255e-02	 1.5233170967e+00	-8.4290107004e-01
 1.2695747354e-02	 1.5234765133e+00	-8.4186187674e-01
 0.0000000000e+00	 1.5235294118e+00	-8.4261760156e-01
 1.2922927914e-01	 1.5239423019e+00	-8.8107233830e-01
 1.1614285711e-01	 1.5249954698e+00	-8.6773326885e-01
 1.0308938871e-01	 1.5259334599e+00	-8.5574209772e-01
 9.0070185178e-02	 1.5267572524e+00	-8.4514751387e-01
 7.7086532569e-02	 1.5274678434e+00	-8.3600160406e-01
 6.4139691588e-02	 1.5280662440e+00	-8.2835927450e-01
 5.1230897497e-02	 1.5285534800e+00	-8.2227764444e-01
 3.8361360020e-02	 1.5289305910e+00	-8.1781541587e-01
 2.5532263268e-02	 1.5291986299e+00	-8.1503222391e-01
 1.2744765684e-02	 1.5293586620e+00	-8.1398797196e-01
 0.0000000000e+00	 1.5294117647e+00	-8.1474215564e-01
 1.5294117647e+00	 0.0000000000e+00	 3.6401467204e+00
 1.5293586620e+00	 1.2744765684e-02	 3.6369352297e+00
 1.5291986299e+00	 2.5532263268e-02	 3.6319876387e+00
 1.5289305910e+00	 3.8361360020e-02	 3.6251995923e+00
 1.5285534800e+00	 5.1230897497e-02	 3.6164836662e+00
 1.5280662440e+00	 6.4139691588e-02	 3.6057709716e+00
 1.5274678434e+00	 7.7086532569e-02	 3.5930126720e+00
 1.5267572524e+00	 9.0070185178e-02	 3.5781814122e+00
 1.5259334599e+00	 1.0308938871e-01	 3.5612726586e+00
 1.5249954698e+00	 1.1614285711e-01	 3.5423059509e+00
 1.5239423019e+00	 1.2922927914e-01	 3.5213260658e+00
 1.5352941176e+00	 0.0000000000e+00	 3.6320516837e+00
 1.5352408107e+00	 1.2793784013e-02	 3.6288423034e+00
 1.5350801630e+00	 2.5630464281e-02	 3.6238972549e+00
 1.5348110933e+00	 3.8508903712e-02	 3.6171099180e+00
 1.5344325318e+00	 5.1427939410e-02	 3.6083916202e+00
 1.5339434218e+00	 6.4386382709e-02	 3.5976732332e+00
 1.5333427197e+00	 7.7383019233e-02	 3.5849066796e+00
 1.5326293957e+00	 9.0416608968e-02	 3.5700663471e+00
 1.5318024347e+00	 1.0348588636e-01	 3.5531504113e+00
 1.5308608369e+00	 1.1658956041e-01	 3.5341820668e+00
 1.5298036184e+00	 1.2972631483e-01	 3.5132106666e+00
 1.5411764706e+00	 0.0000000000e+00	 3.6238057781e+00
 1.5411229594e+00	 1.2842802343e-02	 3.6205809287e+00
 1.5409616962e+00	 2.5728665293e-02	 3.6156318573e+00
 1.5406915955e+00	 3.8656447405e-02	 3.6088479016e+00
 1.5403115837e+00	 5.1624981324e-02	 3.6001373494e+00
 1.5398205997e+00	 6.4633073831e-02	 3.5894290285e+00
 1.5392175960e+00	 7.7679505897e-02	 3.5766738032e+00
 1.5385015390e+00	 9.0763032757e-02	 3.5618459749e+00
 1.5376714096e+00	 1.0388238401e-01	 3.5449445877e+00
 1.5367262041e+00	 1.1703626371e-01	 3.5259946393e+00
 1.5356649350e+00	 1.3022335052e-01	 3.5050481973e+00
 1.5470588235e+00	 0.0000000000e+00	 3.6153972791e+00
 1.5470051081e+00	 1.2891820672e-02	 3.6121404182e+00
 1.5468432294e+00	 2.5826866306e-02	 3.6071814996e+00
 1.5465720978e+00	 3.8803991097e-02	 3.6004040706e+00
 1.5461906355e+00	 5.1822023237e-02	 3.5917116175e+00
 1.5456977776e+00	 6.4879764952e-02	 3.5810291506e+00
 1.5450924723e+00	 7.7975992560e-02	 3.5683046893e+00
 1.5443736822e+00	 9.1109456546e-02	 3.5535106507e+00
 1.5435403844e+00	 1.0427888165e-01	 3.5366451382e+00
 1.5425915713e+00	 1.1748296700e-01	 3.5177331327e+00
 1.5415262515e+00	 1.3072038621e-01	 3.4968275861e+00
 1.5529411765e+00	 0.0000000000e+00	 3.6068144902e+00
 1.5528872568e+00	 1.2940839002e-02	 3.6035100782e+00
 1.5527247626e+00	 2.5925067318e-02	 3.5985361965e+00
 1.5524526001e+00	 3.8951534789e-02	 3.5917688829e+00
 1.5520696874e+00	 5.2019065151e-02	 3.5831050913e+00
 1.5515749554e+00	 6.5126456074e-02	 3.5724642699e+00
 1.5509673486e+00	 7.8272479224e-02	 3.5597898380e+00
 1.5502458255e+00	 9.1455880335e-02	 3.5450505610e+00
 1.5494093593e+00	 1.0467537930e-01	 3.5282418237e+00
 1.5484569385e+00	 1.1792967030e-01	 3.5093868017e+00
 1.5473875681e+00	 1.3121742190e-01	 3.4885375335e+00
 1.5588235294e+00	 0.0000000000e+00	 3.5980457429e+00
 1.5587694055e+00	 1.2989857332e-02	 3.5946792080e+00
 1.5586062958e+00	 2.6023268331e-02	 3.5896859235e+00
 1.5583331024e+00	 3.9099078482e-02	 3.5829327283e+00
 1.5579487392e+00	 5.2216107064e-02	 3.5743083417e+00
 1.5574521333e+00	 6.5373147195e-02	 3.5637249358e+00
 1.5568422250e+00	 7.8568965888e-02	 3.5511196045e+00
 1.5561179688e+00	 9.1802304124e-02	 3.5364557254e+00
 1.5552783341e+00	 1.0507187695e-01	 3.5197242176e+00
 1.5543223057e+00	 1.1837637360e-01	 3.5009446947e+00
 1.5532488846e+00	 1.3171445758e-01	 3.4801665148e+00
 1.5647058824e+00	 0.0000000000e+00	 3.5890793956e+00
 1.5646515542e+00	 1.3038875661e-02	 3.5856370995e+00
 1.5644878290e+00	 2.6121469343e-02	 3.5806206175e+00
 1.5642136046e+00	 3.9246622174e-02	 3.5738859285e+00
 1.5638277911e+00	 5.2413148978e-02	 3.5653118443e+00
 1.5633293111e+00	 6.5619838317e-02	 3.5548015774e+00
 1.5627171013e+00	 7.8865452551e-02	 3.5422842008e+00
 1.5619901121e+00	 9.2148727913e-02	 3.5277159986e+00
 1.5611473089e+00	 1.0546837460e-01	 3.5110817084e+00
 1.5601876729e+00	 1.1882307689e-01	 3.4923956558e+00
 1.5591102011e+00	 1.3221149327e-01	 3.4717027834e+00
 1.5705882353e+00	 0.0000000000e+00	 3.5799038335e+00
 1.5705337029e+00	 1.3087893991e-02	 3.5763730377e+00
 1.5703693622e+00	 2.6219670356e-02	 3.5713301768e+00
 1.5700941069e+00	 3.9394165866e-02	 3.5646187374e+00
 1.5697068429e+00	 5.2610190891e-02	 3.5561059806e+00
 1.5692064890e+00	 6.5866529438e-02	 3.5456845047e+00
 1.5685919776e+00	 7.9161939215e-02	 3.5332736968e+00
 1.5678622554e+00	 9.2495151702e-02	 3.5188210722e+00
 1.5670162838e+00	 1.0586487225e-01	 3.5023035016e+00
 1.5660530401e+00	 1.1926978019e-01	 3.4837283280e+00
 1.5649715177e+00	 1.3270852896e-01	 3.4631343743e+00
 1.5764705882e+00	 0.0000000000e+00	 3.5705074678e+00
 1.5764158516e+00	 1.3136912320e-02	 3.5668763002e+00
 1.5762508954e+00	 2.6317871368e-02	 3.5618044613e+00
 1.5759746092e+00	 3.9541709559e-02	 3.5551213423e+00
 1.5755858947e+00	 5.2807232805e-02	 3.5466810387e+00
 1.5750836669e+00	 6.6113220560e-02	 3.5363639100e+00
 1.5744668539e+00	 7.9458425879e-02	 3.5240780222e+00
 1.5737343986e+00	 9.2841575492e-02	 3.5097604766e+00
 1.5728852586e+00	 1.0626136990e-01	 3.4933786224e+00
 1.5719184073e+00	 1.1971648349e-01	 3.4749311555e+00
 1.5708328342e+00	 1.3320556465e-01	 3.4544491065e+00
 1.5823529412e+00	 0.0000000000e+00	 3.5608787355e+00
 1.5822980003e+00	 1.3185930650e-02	 3.5571361569e+00
 1.5821324286e+00	 2.6416072381e-02	 3.5520332928e+00
 1.5818551115e+00	 3.9689253251e-02	 3.5453838635e+00
 1.5814649466e+00	 5.3004274718e-02	 3.5370272140e+00
 1.5809608447e+00	 6.6359911681e-02	 3.5268298687e+00
 1.5803417303e+00	 7.9754912543e-02	 3.5146869676e+00
 1.5796065419e+00	 9.3187999281e-02	 3.5005235827e+00
 1.5787542335e+00	 1.0665786755e-01	 3.4842959171e+00
 1.5777837745e+00	 1.2016318678e-01	 3.4659923866e+00
 1.5766941508e+00	 1.3370260034e-01	 3.4456345866e+00
 1.5882352941e+00	 0.0000000000e+00	 3.5510060987e+00
 1.5881801490e+00	 1.3234948979e-02	 3.5471418701e+00
 1.5880139618e+00	 2.6514273394e-02	 3.5420064548e+00
 1.5877356137e+00	 3.9836796944e-02	 3.5353963556e+00
 1.5873439984e+00	 5.3201316631e-02	 3.5271346099e+00
 1.5868380226e+00	 6.6606602803e-02	 3.5170723409e+00
 1.5862166066e+00	 8.0051399206e-02	 3.5050901862e+00
 1.5854786852e+00	 9.3534423070e-02	 3.4910996036e+00
 1.5846232083e+00	 1.0705436520e-01	 3.4750440561e+00
 1.5836491417e+00	 1.2060989008e-01	 3.4569000757e+00
 1.5825554673e+00	 1.3419963603e-01	 3.4366782115e+00
 1.5239423019e+00	 1.2922927914e-01	 3.5213260658e+00
 1.5227729926e+00	 1.4234731847e-01	 3.4980077549e+00
 1.5214865954e+00	 1.5549561388e-01	 3.4719368597e+00
 1.5200821818e+00	 1.6867277945e-01	 3.4430625499e+00
 1.5185588417e+00	 1.8187740473e-01	 3.4113589405e+00
 1.5169156842e+00	 1.9510805498e-01	 3.3768259208e+00
 1.5151518383e+00	 2.0836327141e-01	 3.3394899185e+00
 1.5132664537e+00	 2.2164157145e-01	 3.2994046003e+00
 1.5112587011e+00	 2.3494144902e-01	 3.2566515162e+00
 1.5091277732e+00	 2.4826137483e-01	 3.2113406904e+00
 1.5068728853e+00	 2.6159979672e-01	 3.1636111648e+00
 1.5298036184e+00	 1.2972631483e-01	 3.5132106666e+00
 1.5286298118e+00	 1.4289480816e-01	 3.4898996940e+00
 1.5273384670e+00	 1.5609367394e-01	 3.4638198347e+00
 1.5259286518e+00	 1.6932152091e-01	 3.4349204455e+00
 1.5243994526e+00	 1.8257693321e-01	 3.4031768317e+00
 1.5227499753e+00	 1.9585847057e-01	 3.3685910547e+00
 1.5209793454e+00	 2.0916466860e-01	 3.3311926720e+00
 1.5190867093e+00	 2.2249403903e-01	 3.2910394130e+00
 1.5170712345e+00	 2.3584506997e-01	 3.2482177970e+00
 1.5149321108e+00	 2.4921622627e-01	 3.2028436969e+00
 1.5126685502e+00	 2.6260594978e-01	 3.1550628556e+00
 1.5356649350e+00	 1.3022335052e-01	 3.5050481973e+00
 1.5344866310e+00	 1.4344229784e-01	 3.4817577078e+00
 1.5331903385e+00	 1.5669173399e-01	 3.4556806064e+00
 1.5317751217e+00	 1.6997026237e-01	 3.4267670776e+00
 1.5302400635e+00	 1.8327646169e-01	 3.3949942564e+00
 1.5285842664e+00	 1.9660888617e-01	 3.3603670118e+00
 1.5268068525e+00	 2.0996606580e-01	 3.3229186609e+00
 1.5249069649e+00	 2.2334650661e-01	 3.2827116171e+00
 1.5228837680e+00	 2.3674869093e-01	 3.2398379803e+00
 1.5207364484e+00	 2.5017107771e-01	 3.1944200707e+00
 1.5184642152e+00	 2.6361210285e-01	 3.1466109159e+00
 1.5415262515e+00	 1.3072038621e-01	 3.4968275861e+00
 1.5403434502e+00	 1.4398978753e-01	 3.4735700340e+00
 1.5390422100e+00	 1.5728979404e-01	 3.4475064418e+00
 1.5376215916e+00	 1.7061900383e-01	 3.4185884652e+00
 1.5360806745e+00	 1.8397599017e-01	 3.3867957111e+00
 1.5344185575e+00	 1.9735930176e-01	 3.3521364946e+00
 1.5326343595e+00	 2.1076746300e-01	 3.3146485243e+00
 1.5307272205e+00	 2.2419897419e-01	 3.2743995219e+00
 1.5286963015e+00	 2.3765231189e-01	 3.2314877807e+00
 1.5265407859e+00	 2.5112592916e-01	 3.1860426689e+00
 1.5242598801e+00	 2.6461825591e-01	 3.1382250842e+00
 1.5473875681e+00	 1.3121742190e-01	 3.4885375335e+00
 1.5462002694e+00	 1.4453727721e-01	 3.4653246663e+00
 1.5448940815e+00	 1.5788785410e-01	 3.4392843525e+00
 1.5434680615e+00	 1.7126774529e-01	 3.4103703660e+00
 1.5419212854e+00	 1.8467551865e-01	 3.3785654307e+00
 1.5402528485e+00	 1.9810971736e-01	 3.3438819487e+00
 1.5384618666e+00	 2.1156886020e-01	 3.3063626552e+00
 1.5365474760e+00	 2.2505144178e-01	 3.2660812064e+00
 1.5345088349e+00	 2.3855593285e-01	 3.2231427049e+00
 1.5323451235e+00	 2.5208078060e-01	 3.1776841694e+00
 1.5300555450e+00	 2.6562440898e-01	 3.1298749552e+00
 1.5532488846e+00	 1.3171445758e-01	 3.4801665148e+00
 1.5520570886e+00	 1.4508476690e-01	 3.4570093577e+00
 1.5507459530e+00	 1.5848591415e-01	 3.4310010991e+00
 1.5493145315e+00	 1.7191648675e-01	 3.4020982812e+00
 1.5477618963e+00	 1.8537504713e-01	 3.3702873931e+00
 1.5460871396e+00	 1.9886013296e-01	 3.3355855679e+00
 1.5442893737e+00	 2.1237025740e-01	 3.2980412055e+00
 1.5423677316e+00	 2.2590390936e-01	 3.2577345256e+00
 1.5403213684e+00	 2.3945955381e-01	 3.2147780581e+00
 1.5381494611e+00	 2.5303563204e-01	 3.1693170774e+00
 1.5358512100e+00	 2.6663056204e-01	 3.1215299852e+00
 1.5591102011e+00	 1.3221149327e-01	 3.4717027834e+00
 1.5579139078e+00	 1.4563225659e-01	 3.4486116244e+00
 1.5565978246e+00	 1.5908397420e-01	 3.4226431953e+00
 1.5551610014e+00	 1.7256522821e-01	 3.3937574599e+00
 1.5536025073e+00	 1.8607457561e-01	 3.3619453241e+00
 1.5519214307e+00	 1.9961054855e-01	 3.3272292998e+00
 1.5501168807e+00	 2.1317165459e-01	 3.2896640920e+00
 1.5481879872e+00	 2.2675637694e-01	 3.2493371161e+00
 1.5461339019e+00	 2.4036317476e-01	 3.2063689503e+00
 1.5439537987e+00	 2.5399048348e-01	 3.1609137315e+00
 1.5416468749e+00	 2.6763671511e-01	 3.1131594999e+00
 1.5649715177e+00	 1.3270852896e-01	 3.4631343743e+00
 1.5637707270e+00	 1.4617974627e-01	 3.4401187493e+00
 1.5624496961e+00	 1.5968203426e-01	 3.4141969114e+00
 1.5610074713e+00	 1.7321396967e-01	 3.3853329031e+00
 1.5594431182e+00	 1.8677410409e-01	 3.3535227024e+00
 1.5577557218e+00	 2.0036096415e-01	 3.3187948503e+00
 1.5559443878e+00	 2.1397305179e-01	 3.2812110016e+00
 1.5540082428e+00	 2.2760884452e-01	 3.2408664020e+00
 1.5519464353e+00	 2.4126679572e-01	 3.1978903018e+00
 1.5497581363e+00	 2.5494533492e-01	 3.1524463103e+00
 1.5474425399e+00	 2.6864286817e-01	 3.1047326996e+00
 1.5708328342e+00	 1.3320556465e-01	 3.4544491065e+00
 1.5696275462e+00	 1.4672723596e-01	 3.4315177855e+00
 1.5683015676e+00	 1.6028009431e-01	 3.4056482788e+00
 1.5668539413e+00	 1.7386271113e-01	 3.3768093688e+00
 1.5652837291e+00	 1.8747363257e-01	 3.3450027640e+00
 1.5635900129e+00	 2.0111137974e-01	 3.3102636895e+00
 1.5617718949e+00	 2.1477444899e-01	 3.2726613968e+00
 1.5598284984e+00	 2.2846131211e-01	 3.2322996007e+00
 1.5577589688e+00	 2.4217041668e-01	 3.1893168499e+00
 1.5555624739e+00	 2.5590018636e-01	 3.1438868386e+00
 1.5532382048e+00	 2.6964902123e-01	 3.0962186670e+00
 1.5766941508e+00	 1.3370260034e-01	 3.4456345866e+00
 1.5754843654e+00	 1.4727472565e-01	 3.4227955597e+00
 1.5741534391e+00	 1.6087815436e-01	 3.3969830938e+00
 1.5727004112e+00	 1.7451145259e-01	 3.3681713756e+00
 1.5711243401e+00	 1.8817316105e-01	 3.3363685074e+00
 1.5694243040e+00	 2.0186179534e-01	 3.3016170561e+00
 1.5675994019e+00	 2.1557584619e-01	 3.2639945213e+00
 1.5656487540e+00	 2.2931377969e-01	 3.2236137285e+00
 1.5635715023e+00	 2.4307403764e-01	 3.1806231543e+00
 1.5613668115e+00	 2.5685503781e-01	 3.1352071933e+00
 1.5590338698e+00	 2.7065517430e-01	 3.0875863725e+00
 1.5825554673e+00	 1.3419963603e-01	 3.4366782115e+00
 1.5813411846e+00	 1.4782221533e-01	 3.4139386758e+00
 1.5800053106e+00	 1.6147621442e-01	 3.3881869210e+00
 1.5785468811e+00	 1.7516019405e-01	 3.3594032075e+00
 1.5769649510e+00	 1.8887268953e-01	 3.3276026977e+00
 1.5752585951e+00	 2.0261221094e-01	 3.2928359628e+00
 1.5734269090e+00	 2.1637724338e-01	 3.2551894053e+00
 1.5714690096e+00	 2.3016624727e-01	 3.2147856062e+00
 1.5693840357e+00	 2.4397765859e-01	 3.1717836035e+00
 1.5671711491e+00	 2.5780988925e-01	 3.1263791102e+00
 1.5648295347e+00	 2.7166132736e-01	 3.0788046814e+00
 1.5068728853e+00	 2.6159979672e-01	 3.1636111648e+00
 1.5044932758e+00	 2.7495513998e-01	 3.1127497579e+00
 1.5019882072e+00	 2.8832580772e-01	 3.0582515912e+00
 1.4993569664e+00	 3.0171018126e-01	 3.0006147899e+00
 1.4965988653e+00	 3.1510662054e-01	 2.9403702717e+00
 1.4937132421e+00	 3.2851346452e-01	 2.8780817793e+00
 1.4906994611e+00	 3.4192903166e-01	 2.8143458883e+00
 1.4875569138e+00	 3.5535162036e-01	 2.7497919966e+00
 1.4842850196e+00	 3.6877950944e-01	 2.6850823009e+00
 1.4808832260e+00	 3.8221095870e-01	 2.6209117651e+00
 1.4773510096e+00	 3.9564420938e-01	 2.5580080854e+00
 1.5126685502e+00	 2.6260594978e-01	 3.1550628556e+00
 1.5102797884e+00	 2.7601265975e-01	 3.1041600558e+00
 1.5077650849e+00	 2.8943475313e-01	 3.0496205050e+00
 1.5051237239e+00	 3.0287060503e-01	 2.9919380842e+00
 1.5023550148e+00	 3.1631856908e-01	 2.9316397839e+00
 1.4994582930e+00	 3.2977697785e-01	 2.8692857176e+00
 1.4964329206e+00	 3.4324414332e-01	 2.8054691128e+00
 1.4932782866e+00	 3.5671835736e-01	 2.7408162859e+00
 1.4899938081e+00	 3.7019789217e-01	 2.6759866068e+00
 1.4865789307e+00	 3.8368100085e-01	 2.6116724578e+00
 1.4830331289e+00	 3.9716591787e-01	 2.5485991926e+00
 1.5184642152e+00	 2.6361210285e-01	 3.1466109159e+00
 1.5160663010e+00	 2.7707017951e-01	 3.0956918417e+00
 1.5135419627e+00	 2.9054369854e-01	 3.0411358984e+00
 1.5108904815e+00	 3.0403102881e-01	 2.9834320502e+00
 1.5081111643e+00	 3.1753051762e-01	 2.9231026735e+00
 1.5052033440e+00	 3.3104049117e-01	 2.8607035511e+00
 1.5021663800e+00	 3.4455925498e-01	 2.7968238469e+00
 1.4989996593e+00	 3.5808509436e-01	 2.7320860662e+00
 1.4957025967e+00	 3.7161627490e-01	 2.6671460083e+00
 1.4922746354e+00	 3.8515104300e-01	 2.6026927170e+00
 1.4887152481e+00	 3.9868762637e-01	 2.5394484338e+00
 1.5242598801e+00	 2.6461825591e-01	 3.1382250842e+00
 1.5218528136e+00	 2.7812769928e-01	 3.0873116010e+00
 1.5193188404e+00	 2.9165264396e-01	 3.0327610045e+00
 1.5166572390e+00	 3.0519145258e-01	 2.9750566843e+00
 1.5138673138e+00	 3.1874246616e-01	 2.9147157303e+00
 1.5109483949e+00	 3.3230400450e-01	 2.8522889079e+00
 1.5078998395e+00	 3.4587436664e-01	 2.7883606155e+00
 1.5047210321e+00	 3.5945183136e-01	 2.7235488310e+00
 1.5014113852e+00	 3.7303465763e-01	 2.6585050524e+00
 1.4979703402e+00	 3.8662108514e-01	 2.5939142403e+00
 1.4943973674e+00	 4.0020933487e-01	 2.5304947654e+00
 1.5300555450e+00	 2.6562440898e-01	 3.1298749552e+00
 1.5276393262e+00	 2.7918521905e-01	 3.0789857146e+00
 1.5250957181e+00	 2.9276158937e-01	 3.0244589933e+00
 1.5224239966e+00	 3.0635187635e-01	 2.9667719640e+00
 1.5196234633e+00	 3.1995441470e-01	 2.9064357723e+00
 1.5166934458e+00	 3.3356751782e-01	 2.8439954932e+00
 1.5136332990e+00	 3.4718947830e-01	 2.7800300718e+00
 1.5104424048e+00	 3.6081856836e-01	 2.7151522553e+00
 1.5071201738e+00	 3.7445304036e-01	 2.6500085224e+00
 1.5036660449e+00	 3.8809112729e-01	 2.5852790175e+00
 1.5000794867e+00	 4.0173104337e-01	 2.5216774943e+00
 1.5358512100e+00	 2.6663056204e-01	 3.1215299852e+00
 1.5334258388e+00	 2.8024273882e-01	 3.0706804646e+00
 1.5308725958e+00	 2.9387053479e-01	 3.0161929788e+00
 1.5281907542e+00	 3.0751230013e-01	 2.9585378555e+00
 1.5253796127e+00	 3.2116636324e-01	 2.8982196530e+00
 1.5224384968e+00	 3.3483103115e-01	 2.8357770973e+00
 1.5193667584e+00	 3.4850458996e-01	 2.7717830056e+00
 1.5161637776e+00	 3.6218530536e-01	 2.7068442042e+00
 1.5128289623e+00	 3.7587142308e-01	 2.6416014468e+00
 1.5093617496e+00	 3.8956116944e-01	 2.5767293411e+00
 1.5057616060e+00	 4.0325275186e-01	 2.5129362881e+00
 1.5416468749e+00	 2.6763671511e-01	 3.1131594999e+00
 1.5392123514e+00	 2.8130025859e-01	 3.0623620419e+00
 1.5366494735e+00	 2.9497948020e-01	 3.0079260256e+00
 1.5339575117e+00	 3.0867272390e-01	 2.9503143206e+00
 1.5311357622e+00	 3.2237831178e-01	 2.8900242694e+00
 1.5281835477e+00	 3.3609454447e-01	 2.8275876037e+00
 1.5251002179e+00	 3.4981970162e-01	 2.7635703517e+00
 1.5218851503e+00	 3.6355204236e-01	 2.6985727416e+00
 1.5185377508e+00	 3.7728980581e-01	 2.6332291091e+00
 1.5150574543e+00	 3.9103121159e-01	 2.5682078159e+00
 1.5114437252e+00	 4.0477446036e-01	 2.5042111860e+00
 1.5474425399e+00	 2.6864286817e-01	 3.1047326996e+00
 1.5449988640e+00	 2.8235777836e-01	 3.0539965525e+00
 1.5424263513e+00	 2.9608842562e-01	 2.9996211562e+00
 1.5397242693e+00	 3.0983314768e-01	 2.9420613245e+00
 1.5368919117e+00	 3.2359026032e-01	 2.8818065691e+00
 1.5339285986e+00	 3.3735805780e-01	 2.8193809965e+00
 1.5308336774e+00	 3.5113481328e-01	 2.7553431981e+00
 1.5276065231e+00	 3.6491877937e-01	 2.6902861395e+00
 1.5242465394e+00	 3.7870818854e-01	 2.6248370568e+00
 1.5207531590e+00	 3.9250125374e-01	 2.5596573688e+00
 1.5171258445e+00	 4.0629616886e-01	 2.4954426091e+00
 1.5532382048e+00	 2.6964902123e-01	 3.0962186670e+00
 1.5507853766e+00	 2.8341529813e-01	 3.0455500242e+00
 1.5482032290e+00	 2.9719737103e-01	 2.9912413580e+00
 1.5454910269e+00	 3.1099357145e-01	 2.9337388426e+00
 1.5426480612e+00	 3.2480220886e-01	 2.8735235583e+00
 1.5396736496e+00	 3.3862157112e-01	 2.8111113690e+00
 1.5365671368e+00	 3.5244992494e-01	 2.7470527947e+00
 1.5333278958e+00	 3.6628551637e-01	 2.6819328862e+00
 1.5299553279e+00	 3.8012657127e-01	 2.6163711113e+00
 1.5264488637e+00	 3.9397129589e-01	 2.5510212594e+00
 1.5228079638e+00	 4.0781787736e-01	 2.4865713714e+00
 1.5590338698e+00	 2.7065517430e-01	 3.0875863725e+00
 1.5565718892e+00	 2.8447281790e-01	 3.0369884135e+00
 1.5539801067e+00	 2.9830631644e-01	 2.9827495902e+00
 1.5512577844e+00	 3.1215399522e-01	 2.9253068678e+00
 1.5484042107e+00	 3.2601415740e-01	 2.8651323091e+00
 1.5454187005e+00	 3.3988508445e-01	 2.8027329315e+00
 1.5423005963e+00	 3.5376503660e-01	 2.7386505616e+00
 1.5390492686e+00	 3.6765225337e-01	 2.6734616960e+00
 1.5356641164e+00	 3.8154495400e-01	 2.6077773768e+00
 1.5321445684e+00	 3.9544133804e-01	 2.5422430895e+00
 1.5284900830e+00	 4.0933958585e-01	 2.4775386901e+00
 1.5648295347e+00	 2.7166132736e-01	 3.0788046814e+00
 1.5623584018e+00	 2.8553033767e-01	 3.0282776122e+00
 1.5597569844e+00	 2.9941526186e-01	 2.9741087906e+00
 1.5570245420e+00	 3.1331441900e-01	 2.9167254181e+00
 1.5541603602e+00	 3.2722610594e-01	 2.8565899675e+00
 1.5511637514e+00	 3.4114859777e-01	 2.7942000191e+00
 1.5480340558e+00	 3.5508014826e-01	 2.7300880974e+00
 1.5447706413e+00	 3.6901899037e-01	 2.6648215176e+00
 1.5413729050e+00	 3.8296333673e-01	 2.5990022504e+00
 1.5378402732e+00	 3.9691138019e-01	 2.5332668136e+00
 1.5341722023e+00	 4.1086129435e-01	 2.4682861970e+00
 1.4773510096e+00	 3.9564420938e-01	 2.5580080854e+00
 1.4736878766e+00	 4.0907748475e-01	 2.4933575648e+00
 1.4698933631e+00	 4.2250899067e-01	 2.4236733308e+00
 1.4659670362e+00	 4.3593691620e-01	 2.3493121903e+00
 1.4619084940e+00	 4.4935943415e-01	 2.2706504294e+00
 1.4577173668e+00	 4.6277470176e-01	 2.1880842880e+00
 1.4533933168e+00	 4.7618086136e-01	 2.1020304753e+00
 1.4489360394e+00	 4.8957604097e-01	 2.0129267259e+00
 1.4443452631e+00	 5.0295835505e-01	 1.9212323958e+00
 1.4396207506e+00	 5.1632590516e-01	 1.8274290957e+00
 1.4347622988e+00	 5.2967678074e-01	 1.7320213586e+00
 1.4830331289e+00	 3.9716591787e-01	 2.5485991926e+00
 1.4793559068e+00	 4.1065085969e-01	 2.4836901273e+00
 1.4755467991e+00	 4.2413402525e-01	 2.4136196783e+00
 1.4716053709e+00	 4.3761359665e-01	 2.3387799605e+00
 1.4675312190e+00	 4.5108773966e-01	 2.2595839673e+00
 1.4633239720e+00	 4.6455460446e-01	 2.1764660297e+00
 1.4589832911e+00	 4.7801232621e-01	 2.0898823201e+00
 1.4545088703e+00	 4.9145902574e-01	 2.0003113980e+00
 1.4499004372e+00	 5.0489281026e-01	 1.9082547981e+00
 1.4451577535e+00	 5.1831177403e-01	 1.8142376585e+00
 1.4402806153e+00	 5.3171399913e-01	 1.7188093843e+00
 1.4887152481e+00	 3.9868762637e-01	 2.5394484338e+00
 1.4850239371e+00	 4.1222423463e-01	 2.4742779461e+00
 1.4812002351e+00	 4.2575905983e-01	 2.4038224553e+00
 1.4772437057e+00	 4.3929027709e-01	 2.3285101585e+00
 1.4731539440e+00	 4.5281604518e-01	 2.2487915259e+00
 1.4689305773e+00	 4.6633450716e-01	 2.1651397449e+00
 1.4645732654e+00	 4.7984379106e-01	 2.0780512103e+00
 1.4600817012e+00	 4.9334201051e-01	 1.9880460592e+00
 1.4554556113e+00	 5.0682726547e-01	 1.8956687511e+00
 1.4506947564e+00	 5.2029764290e-01	 1.8014886895e+00
 1.4457989318e+00	 5.3375121751e-01	 1.7061008831e+00
 1.4943973674e+00	 4.0020933487e-01	 2.5304947654e+00
 1.4906919674e+00	 4.1379760957e-01	 2.4650572982e+00
 1.4868536711e+00	 4.2738409441e-01	 2.3942152607e+00
 1.4828820404e+00	 4.4096695754e-01	 2.3184336983e+00
 1.4787766690e+00	 4.5454435069e-01	 2.2382013194e+00
 1.4745371826e+00	 4.6811440986e-01	 2.1540309232e+00
 1.4701632397e+00	 4.8167525591e-01	 2.0664598762e+00
 1.4656545321e+00	 4.9522499529e-01	 1.9760506353e+00
 1.4610107854e+00	 5.0876172068e-01	 1.8833913189e+00
 1.4562317593e+00	 5.2228351176e-01	 1.7890963231e+00
 1.4513172484e+00	 5.3578843590e-01	 1.6938069781e+00
 1.5000794867e+00	 4.0173104337e-01	 2.5216774943e+00
 1.4963599977e+00	 4.1537098451e-01	 2.4559648706e+00
 1.4925071071e+00	 4.2900912899e-01	 2.3847321663e+00
 1.4885203752e+00	 4.4264363799e-01	 2.3084820328e+00
 1.4843993940e+00	 4.5627265621e-01	 2.2277421694e+00
 1.4801437878e+00	 4.6989431256e-01	 2.1430657335e+00
 1.4757532140e+00	 4.8350672076e-01	 2.0550318022e+00
 1.4712273630e+00	 4.9710798006e-01	 1.9642458836e+00
 1.4665659595e+00	 5.1069617589e-01	 1.8713404787e+00
 1.4617687622e+00	 5.2426938063e-01	 1.7769756902e+00
 1.4568355649e+00	 5.3782565429e-01	 1.6818398762e+00
 1.5057616060e+00	 4.0325275186e-01	 2.5129362881e+00
 1.5020280280e+00	 4.1694435945e-01	 2.4469377718e+00
 1.4981605431e+00	 4.3063416357e-01	 2.3753077286e+00
 1.4941587099e+00	 4.4432031843e-01	 2.2985871662e+00
 1.4900221189e+00	 4.5800096173e-01	 2.2173435186e+00
 1.4857503931e+00	 4.7167421526e-01	 2.1321710382e+00
 1.4813431883e+00	 4.8533818562e-01	 2.0436912418e+00
 1.4768001940e+00	 4.9899096483e-01	 1.9525534096e+00
 1.4721211336e+00	 5.1263063110e-01	 1.8594351369e+00
 1.4673057651e+00	 5.2625524949e-01	 1.7650429360e+00
 1.4623538814e+00	 5.3986287268e-01	 1.6701128857e+00
 1.5114437252e+00	 4.0477446036e-01	 2.5042111860e+00
 1.5076960583e+00	 4.1851773440e-01	 2.4379135431e+00
 1.5038139791e+00	 4.3225919815e-01	 2.3658770014e+00
 1.4997970447e+00	 4.4599699888e-01	 2.2886816671e+00
 1.4956448439e+00	 4.5972926724e-01	 2.2069354440e+00
 1.4913569983e+00	 4.7345411796e-01	 2.1212744073e+00
 1.4869331626e+00	 4.8716965047e-01	 2.0323632326e+00
 1.4823730249e+00	 5.0087394961e-01	 1.9408956823e+00
 1.4776763077e+00	 5.1456508632e-01	 1.8475951462e+00
 1.4728427680e+00	 5.2824111836e-01	 1.7532152370e+00
 1.4678721980e+00	 5.4190009106e-01	 1.6585404350e+00
 1.5171258445e+00	 4.0629616886e-01	 2.4954426091e+00
 1.5133640886e+00	 4.2009110934e-01	 2.4288301696e+00
 1.5094674152e+00	 4.3388423273e-01	 2.3563755472e+00
 1.5054353794e+00	 4.4767367933e-01	 2.2786986807e+00
 1.5012675689e+00	 4.6145757276e-01	 2.1964486706e+00
 1.4969636036e+00	 4.7523402066e-01	 2.1103041331e+00
 1.4925231369e+00	 4.8900111532e-01	 2.0209736117e+00
 1.4879458558e+00	 5.0275693438e-01	 1.9291960501e+00
 1.4832314817e+00	 5.1649954153e-01	 1.8357413220e+00
 1.4783797709e+00	 5.3022698723e-01	 1.7414108191e+00
 1.4733905145e+00	 5.4393730945e-01	 1.6470380909e+00
 1.5228079638e+00	 4.0781787736e-01	 2.4865713714e+00
 1.5190321189e+00	 4.2166448428e-01	 2.4196260918e+00
 1.5151208512e+00	 4.3550926731e-01	 2.3467394495e+00
 1.5110737142e+00	 4.4935035977e-01	 2.2685719421e+00
 1.5068902939e+00	 4.6318587827e-01	 2.1858145851e+00
 1.5025702088e+00	 4.7701392336e-01	 2.0991892442e+00
 1.4981131112e+00	 4.9083258017e-01	 2.0094490304e+00
 1.4935186867e+00	 5.0463991915e-01	 1.9173787570e+00
 1.4887866558e+00	 5.1843399674e-01	 1.8237954595e+00
 1.4839167737e+00	 5.3221285609e-01	 1.7295489747e+00
 1.4789088310e+00	 5.4597452784e-01	 1.6355225770e+00
 1.5284900830e+00	 4.0933958585e-01	 2.4775386901e+00
 1.5247001492e+00	 4.2323785922e-01	 2.4102402172e+00
 1.5207742872e+00	 4.3713430189e-01	 2.3369053250e+00
 1.5167120490e+00	 4.5102704022e-01	 2.2582357891e+00
 1.5125130188e+00	 4.6491418379e-01	 2.1749652491e+00
 1.5081768141e+00	 4.7879382606e-01	 2.0878595203e+00
 1.5037030855e+00	 4.9266404502e-01	 1.9977169697e+00
 1.4990915176e+00	 5.0652290392e-01	 1.9053689586e+00
 1.4943418299e+00	 5.2036845195e-01	 1.8116803502e+00
 1.4894537766e+00	 5.3419872496e-01	 1.7175500810e+00
 1.4844271476e+00	 5.4801174623e-01	 1.6239117925e+00
 1.5341722023e+00	 4.1086129435e-01	 2.4682861970e+00
 1.5303681795e+00	 4.2481123416e-01	 2.4006119312e+00
 1.5264277232e+00	 4.3875933647e-01	 2.3268103359e+00
 1.5223503837e+00	 4.5270372067e-01	 2.2476251749e+00
 1.5181357438e+00	 4.6664248931e-01	 2.1638334134e+00
 1.5137834194e+00	 4.8057372876e-01	 2.0762455064e+00
 1.5092930597e+00	 4.9449550987e-01	 1.9857057561e+00
 1.5046643486e+00	 5.0840588870e-01	 1.8930927384e+00
 1.4998970040e+00	 5.2230290716e-01	 1.7993197994e+00
 1.4949907795e+00	 5.3618459382e-01	 1.7053356175e+00
 1.4899454641e+00	 5.5004896461e-01	 1.6121248308e+00
 1.4347622988e+00	 5.2967678074e-01	 1.7320213586e+00
 1.4297697392e+00	 5.4300905976e-01	 1.6377748807e+00
 1.4246429387e+00	 5.5632080957e-01	 1.5481115519e+00
 1.4193818000e+00	 5.6961008760e-01	 1.4645672679e+00
 1.4139862615e+00	 5.8287494218e-01	 1.3887168057e+00
 1.4084562984e+00	 5.9611341337e-01	 1.3187375913e+00
 1.4027919223e+00	 6.0932353372e-01	 1.2416861926e+00
 1.3969931822e+00	 6.2250332915e-01	 1.1571064186e+00
 1.3910601645e+00	 6.3565081979e-01	 1.0661003153e+00
 1.3849929932e+00	 6.4876402082e-01	 9.6975462640e-01
 1.3787918304e+00	 6.6184094337e-01	 8.6914064236e-01
 1.4402806153e+00	 5.3171399913e-01	 1.7188093843e+00
 1.4352688535e+00	 5.4509755615e-01	 1.6248186033e+00
 1.4301223346e+00	 5.5846050499e-01	 1.5357343891e+00
 1.4248409608e+00	 5.7180089563e-01	 1.4530845390e+00
 1.4194246702e+00	 5.8511676888e-01	 1.3784352947e+00
 1.4138734380e+00	 5.9840615726e-01	 1.3077479182e+00
 1.4081872759e+00	 6.1166708577e-01	 1.2292909876e+00
 1.4023662329e+00	 6.2489757272e-01	 1.1436323500e+00
 1.3964103959e+00	 6.3809563063e-01	 1.0518476860e+00
 1.3903198894e+00	 6.5125926705e-01	 9.5499558350e-01
 1.3840948759e+00	 6.6438648546e-01	 8.5411740771e-01
 1.4457989318e+00	 5.3375121751e-01	 1.7061008831e+00
 1.4407679679e+00	 5.4718605253e-01	 1.6124291633e+00
 1.4356017306e+00	 5.6060020041e-01	 1.5239802989e+00
 1.4303001215e+00	 5.7399170365e-01	 1.4422720562e+00
 1.4248630789e+00	 5.8735859558e-01	 1.3688601895e+00
 1.4192905776e+00	 6.0069890116e-01	 1.2969915297e+00
 1.4135826294e+00	 6.1401063782e-01	 1.2172123671e+00
 1.4077392836e+00	 6.2729181629e-01	 1.1305477069e+00
 1.4017606273e+00	 6.4054044148e-01	 1.0380447970e+00
 1.3956467855e+00	 6.5375451328e-01	 9.4073198639e-01
 1.3893979214e+00	 6.6693202755e-01	 8.3961861792e-01
 1.4513172484e+00	 5.3578843590e-01	 1.6938069781e+00
 1.4462670823e+00	 5.4927454892e-01	 1.6005146277e+00
 1.4410811265e+00	 5.6273989583e-01	 1.5127543031e+00
 1.4357592823e+00	 5.7618251168e-01	 1.4320318223e+00
 1.4303014876e+00	 5.8960042228e-01	 1.3597930737e+00
 1.4247077172e+00	 6.0299164506e-01	 1.2863921731e+00
 1.4189779829e+00	 6.1635418987e-01	 1.2053744372e+00
 1.4131123343e+00	 6.2968605987e-01	 1.1177770665e+00
 1.4071108587e+00	 6.4298525232e-01	 1.0246168351e+00
 1.4009736816e+00	 6.5624975952e-01	 9.2688979598e-01
 1.3947009670e+00	 6.6947756964e-01	 8.2557119873e-01
 1.4568355649e+00	 5.3782565429e-01	 1.6818398762e+00
 1.4517661967e+00	 5.5136304530e-01	 1.5889842364e+00
 1.4465605224e+00	 5.6487959126e-01	 1.5019626859e+00
 1.4412184431e+00	 5.7837331971e-01	 1.4222671929e+00
 1.4357398963e+00	 5.9184224898e-01	 1.3507574559e+00
 1.4301248568e+00	 6.0528438896e-01	 1.2758757538e+00
 1.4243733365e+00	 6.1869774193e-01	 1.1937034728e+00
 1.4184853850e+00	 6.3208030344e-01	 1.1052471835e+00
 1.4124610901e+00	 6.4543006317e-01	 1.0114911708e+00
 1.4063005777e+00	 6.5874500575e-01	 9.1339716059e-01
 1.4000040125e+00	 6.7202311173e-01	 8.1190426386e-01
 1.4623538814e+00	 5.3986287268e-01	 1.6701128857e+00
 1.4572653111e+00	 5.5345154168e-01	 1.5777484204e+00
 1.4520399183e+00	 5.6701928668e-01	 1.4915130140e+00
 1.4466776038e+00	 5.8056412774e-01	 1.4128828974e+00
 1.4411783050e+00	 5.9408407568e-01	 1.3416402419e+00
 1.4355419964e+00	 6.0757713285e-01	 1.2653703041e+00
 1.4297686900e+00	 6.2104129398e-01	 1.1821278861e+00
 1.4238584357e+00	 6.3447454702e-01	 1.0928869573e+00
 1.4178113215e+00	 6.4787487401e-01	 9.9859732465e-01
 1.4116274739e+00	 6.6124025199e-01	 9.0018438104e-01
 1.4053070580e+00	 6.7456865382e-01	 7.9854907921e-01
 1.4678721980e+00	 5.4190009106e-01	 1.6585404350e+00
 1.4627644255e+00	 5.5554003807e-01	 1.5667188215e+00
 1.4575193142e+00	 5.6915898210e-01	 1.4813141563e+00
 1.4521367646e+00	 5.8275493577e-01	 1.4037850599e+00
 1.4466167137e+00	 5.9632590239e-01	 1.3323712514e+00
 1.4409591360e+00	 6.0986987675e-01	 1.2548059523e+00
 1.4351640436e+00	 6.2338484603e-01	 1.1705781938e+00
 1.4292314864e+00	 6.3686879059e-01	 1.0806273991e+00
 1.4231615529e+00	 6.5031968486e-01	 9.8586693310e-01
 1.4169543700e+00	 6.6373549822e-01	 8.8718387590e-01
 1.4106101035e+00	 6.7711419591e-01	 7.8543902732e-01
 1.4733905145e+00	 5.4393730945e-01	 1.6470380909e+00
 1.4682635398e+00	 5.5762853445e-01	 1.5558083112e+00
 1.4629987102e+00	 5.7129867752e-01	 1.4712763039e+00
 1.4575959254e+00	 5.8494574380e-01	 1.3948812200e+00
 1.4520551224e+00	 5.9856772909e-01	 1.3228823593e+00
 1.4463762756e+00	 6.1216262065e-01	 1.2441148920e+00
 1.4405593971e+00	 6.2572839809e-01	 1.1589869863e+00
 1.4346045371e+00	 6.3926303416e-01	 1.0684015990e+00
 1.4285117843e+00	 6.5276449570e-01	 9.7323371502e-01
 1.4222812661e+00	 6.6623074445e-01	 8.7433014687e-01
 1.4159131490e+00	 6.7965973800e-01	 7.7250957198e-01
 1.4789088310e+00	 5.4597452784e-01	 1.6355225770e+00
 1.4737626542e+00	 5.5971703083e-01	 1.5449310103e+00
 1.4684781061e+00	 5.7343837294e-01	 1.4613109910e+00
 1.4630550861e+00	 5.8713655183e-01	 1.3860803541e+00
 1.4574935311e+00	 6.0080955579e-01	 1.3131074666e+00
 1.4517934152e+00	 6.1445536455e-01	 1.2332313519e+00
 1.4459547507e+00	 6.2807195014e-01	 1.1472888954e+00
 1.4399775878e+00	 6.4165727774e-01	 1.0561446935e+00
 1.4338620157e+00	 6.5520930655e-01	 9.6063343805e-01
 1.4276081623e+00	 6.6872599069e-01	 8.6155974440e-01
 1.4212161945e+00	 6.8220528009e-01	 7.5969822299e-01
 1.4844271476e+00	 5.4801174623e-01	 1.6239117925e+00
 1.4792617686e+00	 5.6180552722e-01	 1.5340023082e+00
 1.4739575020e+00	 5.7557806836e-01	 1.4513311145e+00
 1.4685142469e+00	 5.8932735986e-01	 1.3772374460e+00
 1.4629319398e+00	 6.0305138249e-01	 1.3029824710e+00
 1.4572105549e+00	 6.1674810845e-01	 1.2220915646e+00
 1.4513501042e+00	 6.3041550219e-01	 1.1354205632e+00
 1.4453506385e+00	 6.4405152131e-01	 1.0437938329e+00
 1.4392122471e+00	 6.5765411739e-01	 9.4800388526e-01
 1.4329350584e+00	 6.7122123692e-01	 8.4881123344e-01
 1.4265192400e+00	 6.8475082218e-01	 7.4694450116e-01
 1.4899454641e+00	 5.5004896461e-01	 1.6121248308e+00
 1.4847608830e+00	 5.6389402360e-01	 1.5229388826e+00
 1.4794368979e+00	 5.7771776378e-01	 1.4412509547e+00
 1.4739734077e+00	 5.9151816789e-01	 1.3679393545e+00
 1.4683703485e+00	 6.0529320919e-01	 1.2924452374e+00
 1.4626276945e+00	 6.1904085234e-01	 1.2106337373e+00
 1.4567454578e+00	 6.3275905424e-01	 1.1233206105e+00
 1.4507236892e+00	 6.4644576488e-01	 1.0312881494e+00
 1.4445624785e+00	 6.6009892824e-01	 9.3528482193e-01
 1.4382619545e+00	 6.7371648316e-01	 8.3602515939e-01
 1.4318222855e+00	 6.8729636427e-01	 7.3418990339e-01
 1.3787918304e+00	 6.6184094337e-01	 8.6914064236e-01
 1.3724568765e+00	 6.7487959539e-01	 7.6988801124e-01
 1.3659883701e+00	 6.8787798254e-01	 6.7635880483e-01
 1.3593865887e+00	 7.0083410913e-01	 5.8767753263e-01
 1.3526518486e+00	 7.1374597898e-01	 5.0292587394e-01
 1.3457845050e+00	 7.2661159640e-01	 4.2114577178e-01
 1.3387849524e+00	 7.3942896709e-01	 3.4134281176e-01
 1.3316536241e+00	 7.5219609909e-01	 2.6248988387e-01
 1.3243909930e+00	 7.6491100372e-01	 1.8353112382e-01
 1.3169975713e+00	 7.7757169655e-01	 1.0338612909e-01
 1.3094739102e+00	 7.9017619833e-01	 2.0954442827e-02
 1.3840948759e+00	 6.6438648546e-01	 8.5411740771e-01
 1.3777355568e+00	 6.7747528614e-01	 7.5472451785e-01
 1.3712421715e+00	 6.9052366709e-01	 6.6108335463e-01
 1.3646149986e+00	 7.0352962493e-01	 5.7232086476e-01
 1.3578543557e+00	 7.1649115582e-01	 4.8752076624e-01
 1.3509605993e+00	 7.2940625639e-01	 4.0572666928e-01
 1.3439341252e+00	 7.4227292466e-01	 3.2594548755e-01
 1.3367753688e+00	 7.5508916101e-01	 2.4715113789e-01
 1.3294848045e+00	 7.6785296912e-01	 1.6828852528e-01
 1.3220629465e+00	 7.8056235692e-01	 8.8277808240e-02
 1.3145103484e+00	 7.9321533755e-01	 6.0189379964e-03
 1.3893979214e+00	 6.6693202755e-01	 8.3961861792e-01
 1.3830142371e+00	 6.8007097689e-01	 7.4010183668e-01
 1.3764959729e+00	 6.9316935164e-01	 6.4635865950e-01
 1.3698434086e+00	 7.0622514074e-01	 5.5751956415e-01
 1.3630568628e+00	 7.1923633266e-01	 4.7267140093e-01
 1.3561366935e+00	 7.3220091637e-01	 3.9086053856e-01
 1.3490832981e+00	 7.4511688222e-01	 3.1109630598e-01
 1.3418971135e+00	 7.5798222293e-01	 2.3235472822e-01
 1.3345786160e+00	 7.7079493452e-01	 1.5358255340e-01
 1.3271283218e+00	 7.8355301729e-01	 7.3701565851e-02
 1.3195467865e+00	 7.9625447678e-01	-8.3868209271e-03
 1.3947009670e+00	 6.6947756964e-01	 8.2557119873e-01
 1.3882929173e+00	 6.8266666764e-01	 7.2594800306e-01
 1.3817497743e+00	 6.9581503619e-01	 6.3211393844e-01
 1.3750718186e+00	 7.0892065654e-01	 5.4320409603e-01
 1.3682593699e+00	 7.2198150951e-01	 4.5830953987e-01
 1.3613127878e+00	 7.3499557636e-01	 3.7648047600e-01
 1.3542324710e+00	 7.4796083979e-01	 2.9672972286e-01
 1.3470188582e+00	 7.6087528485e-01	 2.1803648167e-01
 1.3396724276e+00	 7.7373689992e-01	 1.3935040360e-01
 1.3321936971e+00	 7.8654367766e-01	 5.9595949231e-02
 1.3245832246e+00	 7.9929361600e-01	-2.2322966322e-02
 1.4000040125e+00	 6.7202311173e-01	 8.1190426386e-01
 1.3935715976e+00	 6.8526235839e-01	 7.1219323869e-01
 1.3870035758e+00	 6.9846072074e-01	 6.1828059448e-01
 1.3803002285e+00	 7.1161617235e-01	 5.2930710666e-01
 1.3734618770e+00	 7.2472668635e-01	 4.4436912281e-01
 1.3664888820e+00	 7.3779023635e-01	 3.6252175287e-01
 1.3593816439e+00	 7.5080479735e-01	 2.8278236641e-01
 1.3521406029e+00	 7.6376834677e-01	 2.0413439565e-01
 1.3447662391e+00	 7.7667886532e-01	 1.2553144124e-01
 1.3372590724e+00	 7.8953433803e-01	 4.5901676313e-02
 1.3296196627e+00	 8.0233275523e-01	-3.5847457555e-02
 1.4053070580e+00	 6.7456865382e-01	 7.9854907921e-01
 1.3988502779e+00	 6.8785804914e-01	 6.9876991518e-01
 1.3922573772e+00	 7.0110640528e-01	 6.0479217736e-01
 1.3855286385e+00	 7.1431168815e-01	 5.1576338546e-01
 1.3786643841e+00	 7.2747186319e-01	 4.3078622889e-01
 1.3716649763e+00	 7.4058489633e-01	 3.4892177624e-01
 1.3645308168e+00	 7.5364875492e-01	 2.6919299751e-01
 1.3572623476e+00	 7.6666140869e-01	 1.9058859798e-01
 1.3498600506e+00	 7.7962083072e-01	 1.1206716086e-01
 1.3423244476e+00	 7.9252499841e-01	 3.2561594441e-02
 1.3346561008e+00	 8.0537189445e-01	-4.9016122661e-02
 1.4106101035e+00	 6.7711419591e-01	 7.8543902732e-01
 1.4041289582e+00	 6.9045373990e-01	 6.8561251767e-01
 1.3975111786e+00	 7.0375208983e-01	 5.9158434658e-01
 1.3907570484e+00	 7.1700720395e-01	 5.0250982731e-01
 1.3838668913e+00	 7.3021704003e-01	 4.1749903833e-01
 1.3768410705e+00	 7.4337955632e-01	 3.3562005009e-01
 1.3696799897e+00	 7.5649271248e-01	 2.5590247030e-01
 1.3623840923e+00	 7.6955447061e-01	 1.7734130684e-01
 1.3549538621e+00	 7.8256279611e-01	 9.8901145664e-02
 1.3473898229e+00	 7.9551565878e-01	 1.9520639349e-02
 1.3396925389e+00	 8.0841103367e-01	-6.1882699845e-02
 1.4159131490e+00	 6.7965973800e-01	 7.7250957198e-01
 1.4094076385e+00	 6.9304943065e-01	 6.7265760877e-01
 1.4027649800e+00	 7.0639777438e-01	 5.7859483454e-01
 1.3959854584e+00	 7.1970271976e-01	 4.8948539505e-01
 1.3890693984e+00	 7.3296221688e-01	 4.0444779429e-01
 1.3820171648e+00	 7.4617421630e-01	 3.2255813653e-01
 1.3748291626e+00	 7.5933667005e-01	 2.4285369278e-01
 1.3675058370e+00	 7.7244753252e-01	 1.6433679095e-01
 1.3600476736e+00	 7.8550476151e-01	 8.5979027178e-02
 1.3524551982e+00	 7.9850631915e-01	 6.7257943038e-03
 1.3447289771e+00	 8.1145017290e-01	-7.4498878801e-02
 1.4212161945e+00	 6.8220528009e-01	 7.5969822299e-01
 1.4146863188e+00	 6.9564512140e-01	 6.5984379253e-01
 1.4080187815e+00	 7.0904345893e-01	 5.6576340985e-01
 1.4012138683e+00	 7.2239823556e-01	 4.7663108214e-01
 1.3942719055e+00	 7.3570739372e-01	 3.9157476490e-01
 1.3871932590e+00	 7.4896887629e-01	 3.0967961727e-01
 1.3799783355e+00	 7.6218062762e-01	 2.2999158779e-01
 1.3726275817e+00	 7.7534059444e-01	 1.5152132988e-01
 1.3651414851e+00	 7.8844672691e-01	 7.3248445034e-02
 1.3575205735e+00	 8.0149697952e-01	-5.8739505694e-03
 1.3497654152e+00	 8.1448931212e-01	-8.6914341863e-02
 1.4265192400e+00	 6.8475082218e-01	 7.4694450116e-01
 1.4199649991e+00	 6.9824081215e-01	 6.4711167873e-01
 1.4132725829e+00	 7.1168914348e-01	 5.5303184090e-01
 1.4064422783e+00	 7.2509375137e-01	 4.6388987551e-01
 1.3994744126e+00	 7.3845257056e-01	 3.7882420545e-01
 1.3923693533e+00	 7.5176353628e-01	 2.9693005520e-01
 1.3851275084e+00	 7.6502458518e-01	 2.1726305393e-01
 1.3777493265e+00	 7.7823365636e-01	 1.3884317457e-01
 1.3702352966e+00	 7.9138869231e-01	 6.0659006975e-02
 1.3625859487e+00	 8.0448763989e-01	-1.8327638793e-02
 1.3548018533e+00	 8.1752845135e-01	-9.9176804985e-02
 1.4318222855e+00	 6.8729636427e-01	 7.3418990339e-01
 1.4252436794e+00	 7.0083650290e-01	 6.3440384719e-01
 1.4185263843e+00	 7.1433482802e-01	 5.4034385945e-01
 1.4116706883e+00	 7.2778926717e-01	 4.5120671856e-01
 1.4046769197e+00	 7.4119774740e-01	 3.6614232081e-01
 1.3975454475e+00	 7.5455819626e-01	 2.8425695621e-01
 1.3902766813e+00	 7.6786854275e-01	 2.0461692689e-01
 1.3828710712e+00	 7.8112671828e-01	 1.2625250797e-01
 1.3753291081e+00	 7.9433065771e-01	 4.8162248997e-02
 1.3676513240e+00	 8.0747830026e-01	-3.0682387881e-02
 1.3598382914e+00	 8.2056759057e-01	-1.1133205856e-01
 1.3094739102e+00	 7.9017619833e-01	 2.0954442827e-02
 1.3018206006e+00	 8.0272253596e-01	-6.0714948494e-02
 1.2940382725e+00	 8.1520874348e-01	-1.3824876411e-01
 1.2861275948e+00	 8.2763286297e-01	-2.1226886245e-01
 1.2780892760e+00	 8.3999294557e-01	-2.8338732461e-01
 1.2699240632e+00	 8.5228705245e-01	-3.5220137112e-01
 1.2616327424e+00	 8.6451325571e-01	-4.1928810520e-01
 1.2532161383e+00	 8.7666963942e-01	-4.8519910027e-01
 1.2446751140e+00	 8.8875430053e-01	-5.5045485107e-01
 1.2360105706e+00	 9.0076534982e-01	-6.1553910930e-01
 1.2272234473e+00	 9.1270091289e-01	-6.8089312615e-01
 1.3145103484e+00	 7.9321533755e-01	 6.0189379964e-03
 1.3068276030e+00	 8.0580993033e-01	-7.5388950669e-02
 1.2990153427e+00	 8.1834416172e-01	-1.5254732555e-01
 1.2910742394e+00	 8.3081606628e-01	-2.2611595136e-01
 1.2830050040e+00	 8.4322368767e-01	-2.9674590698e-01
 1.2748083865e+00	 8.5556507957e-01	-3.6507437624e-01
 1.2664851760e+00	 8.6783830670e-01	-4.3171925799e-01
 1.2580362004e+00	 8.8004144573e-01	-4.9727361338e-01
 1.2494623259e+00	 8.9217258630e-01	-5.6229996996e-01
 1.2407644574e+00	 9.0422983193e-01	-6.2732450397e-01
 1.2319435375e+00	 9.1621130101e-01	-6.9283112359e-01
 1.3195467865e+00	 7.9625447678e-01	-8.3868209271e-03
 1.3118346053e+00	 8.0889732470e-01	-8.9537919465e-02
 1.3039924130e+00	 8.2147957996e-01	-1.6633235308e-01
 1.2960208840e+00	 8.3399926960e-01	-2.3946642242e-01
 1.2879207320e+00	 8.4645442977e-01	-3.0962877820e-01
 1.2796927098e+00	 8.5884310670e-01	-3.7749508681e-01
 1.2713376097e+00	 8.7116335768e-01	-4.4372250772e-01
 1.2628562625e+00	 8.8341325204e-01	-5.0894400097e-01
 1.2542495379e+00	 8.9559087207e-01	-5.7376248483e-01
 1.2455183442e+00	 9.0769431405e-01	-6.3874486514e-01
 1.2366636277e+00	 9.1972168914e-01	-7.0441595966e-01
 1.3245832246e+00	 7.9929361600e-01	-2.2322966322e-02
 1.3168416076e+00	 8.1198471907e-01	-1.0322033661e-01
 1.3089694833e+00	 8.2461499821e-01	-1.7965998773e-01
 1.3009675286e+00	 8.3718247292e-01	-2.5237340504e-01
 1.2928364599e+00	 8.4968517187e-01	-3.2208540556e-01
 1.2845770331e+00	 8.6212113382e-01	-3.8950867877e-01
 1.2761900433e+00	 8.7448840866e-01	-4.5533813203e-01
 1.2676763245e+00	 8.8678505834e-01	-5.2024505879e-01
 1.2590367499e+00	 8.9900915784e-01	-5.8487115024e-01
 1.2502722310e+00	 9.1115879616e-01	-6.4982237212e-01
 1.2413837179e+00	 9.2323207727e-01	-7.1566273060e-01
 1.3296196627e+00	 8.0233275523e-01	-3.5847457555e-02
 1.3218486099e+00	 8.1507211344e-01	-1.1649251216e-01
 1.3139465536e+00	 8.2775041645e-01	-1.9258420931e-01
 1.3059141732e+00	 8.4036567624e-01	-2.6488788683e-01
 1.2977521879e+00	 8.5291591397e-01	-3.3416314236e-01
 1.2894613565e+00	 8.6539916095e-01	-4.0115825006e-01
 1.2810424769e+00	 8.7781345965e-01	-4.6660437442e-01
 1.2724963866e+00	 8.9015686465e-01	-5.3120959984e-01
 1.2638239619e+00	 9.0242744361e-01	-5.9565279660e-01
 1.2550261178e+00	 9.1462327828e-01	-6.6057734563e-01
 1.2461038080e+00	 9.2674246539e-01	-7.2658474615e-01
 1.3346561008e+00	 8.0537189445e-01	-4.9016122661e-02
 1.3268556122e+00	 8.1815950781e-01	-1.2940862656e-01
 1.3189236238e+00	 8.3088583470e-01	-2.0515687863e-01
 1.3108608178e+00	 8.4354887956e-01	-2.7705875557e-01
 1.3026679159e+00	 8.5614665606e-01	-3.4590726959e-01
 1.2943456798e+00	 8.6867718807e-01	-4.1248486174e-01
 1.2858949105e+00	 8.8113851063e-01	-4.7755748465e-01
 1.2773164487e+00	 8.9352867095e-01	-5.4186849384e-01
 1.2686111738e+00	 9.0584572939e-01	-6.0613236854e-01
 1.2597800046e+00	 9.1808776039e-01	-6.7102828475e-01
 1.2508238982e+00	 9.3025285352e-01	-7.3719356502e-01
 1.3396925389e+00	 8.0841103367e-01	-6.1882699845e-02
 1.3318626145e+00	 8.2124690218e-01	-1.4202077245e-01
 1.3239006941e+00	 8.3402125294e-01	-2.1742777948e-01
 1.3158074624e+00	 8.4673208288e-01	-2.8893284110e-01
 1.3075836439e+00	 8.5937739816e-01	-3.5736103749e-01
 1.2992300031e+00	 8.7195521520e-01	-4.2352757912e-01
 1.2907473442e+00	 8.8446356161e-01	-4.8823175909e-01
 1.2821365107e+00	 8.9690047726e-01	-5.5225070661e-01
 1.2733983858e+00	 9.0926401516e-01	-6.1633296311e-01
 1.2645338914e+00	 9.2155224251e-01	-6.8119190389e-01
 1.2555439884e+00	 9.3376324164e-01	-7.4749903030e-01
 1.3447289771e+00	 8.1145017290e-01	-7.4498878801e-02
 1.3368696168e+00	 8.2433429655e-01	-1.5437899636e-01
 1.3288777644e+00	 8.3715667119e-01	-2.2944466037e-01
 1.3207541070e+00	 8.4991528620e-01	-3.0055495711e-01
 1.3124993719e+00	 8.6260814026e-01	-3.6856570701e-01
 1.3041143264e+00	 8.7523324232e-01	-4.3432351263e-01
 1.2955997778e+00	 8.8778861260e-01	-4.9865958091e-01
 1.2869565728e+00	 9.0027228356e-01	-5.6238333944e-01
 1.2781855978e+00	 9.1268230093e-01	-6.2627586810e-01
 1.2692877782e+00	 9.2501672462e-01	-6.9108316973e-01
 1.2602640786e+00	 9.3727362977e-01	-7.5750930502e-01
 1.3497654152e+00	 8.1448931212e-01	-8.6914341863e-02
 1.3418766191e+00	 8.2742169092e-01	-1.6653134023e-01
 1.3338548347e+00	 8.4029208943e-01	-2.4125327625e-01
 1.3257007516e+00	 8.5309848952e-01	-3.1196794261e-01
 1.3174150999e+00	 8.6583888236e-01	-3.7956059108e-01
 1.3089986497e+00	 8.7851126945e-01	-4.4490785863e-01
 1.3004522114e+00	 8.9111366358e-01	-5.0887146025e-01
 1.2917766349e+00	 9.0364408987e-01	-5.7229166830e-01
 1.2829728098e+00	 9.1610058670e-01	-6.3598060017e-01
 1.2740416651e+00	 9.2848120674e-01	-7.0071533822e-01
 1.2649841688e+00	 9.4078401790e-01	-7.6723090761e-01
 1.3548018533e+00	 8.1752845135e-01	-9.9176804985e-02
 1.3468836214e+00	 8.3050908529e-01	-1.7852388273e-01
 1.3388319050e+00	 8.4342750767e-01	-2.5289742995e-01
 1.3306473962e+00	 8.5628169284e-01	-3.2321270346e-01
 1.3223308279e+00	 8.6906962446e-01	-3.9038309579e-01
 1.3138829731e+00	 8.8178929657e-01	-4.5531394016e-01
 1.3053046450e+00	 8.9443871457e-01	-5.1889607424e-01
 1.2965966969e+00	 9.0701589617e-01	-5.8199918306e-01
 1.2877600218e+00	 9.1951887247e-01	-6.4546494303e-01
 1.2787955519e+00	 9.3194568885e-01	-7.1009999144e-01
 1.2697042590e+00	 9.4429440602e-01	-7.7666874748e-01
 1.3598382914e+00	 8.2056759057e-01	-1.1133205856e-01
 1.3518906238e+00	 8.3359647965e-01	-1.9040078041e-01
 1.3438089752e+00	 8.4656292592e-01	-2.6441901351e-01
 1.3355940408e+00	 8.5946489616e-01	-3.3432825354e-01
 1.3272465558e+00	 8.7230036656e-01	-4.0106876140e-01
 1.3187672964e+00	 8.8506732370e-01	-4.6557324748e-01
 1.3101570787e+00	 8.9776376555e-01	-5.2876030696e-01
 1.3014167590e+00	 9.1038770248e-01	-5.9152762662e-01
 1.2925472337e+00	 9.2293715824e-01	-6.5474498558e-01
 1.2835494387e+00	 9.3541017097e-01	-7.1924707463e-01
 1.2744243491e+00	 9.4780479415e-01	-7.8582616063e-01
 1.2272234473e+00	 9.1270091289e-01	-6.8089312615e-01
 1.2183147209e+00	 9.2455913106e-01	-7.4601380258e-01
 1.2092854054e+00	 9.3633816235e-01	-8.0994264153e-01
 1.2001365518e+00	 9.4803618236e-01	-8.7233060359e-01
 1.1908692476e+00	 9.5965138525e-01	-9.3272872723e-01
 1.1814846164e+00	 9.7118198458e-01	-9.9058301790e-01
 1.1719838177e+00	 9.8262621427e-01	-1.0455650440e+00
 1.1623680462e+00	 9.9398232945e-01	-1.0988763379e+00
 1.1526385311e+00	 1.0052486074e+00	-1.1492966329e+00
 1.1427965362e+00	 1.0164233482e+00	-1.1950582388e+00
 1.1328433589e+00	 1.0275048761e+00	-1.2343128742e+00
 1.2319435375e+00	 9.1621130101e-01	-6.9283112359e-01
 1.2230005468e+00	 9.2811512772e-01	-7.5817740823e-01
 1.2139365031e+00	 9.3993946297e-01	-8.2224668223e-01
 1.2047524616e+00	 9.5168247537e-01	-8.8470347337e-01
 1.1954495139e+00	 9.6334235211e-01	-9.4511110294e-01
 1.1860287880e+00	 9.7491729990e-01	-1.0029264350e+00
 1.1764914478e+00	 9.8640554586e-01	-1.0574947445e+00
 1.1668386925e+00	 9.9780533841e-01	-1.1094205332e+00
 1.1570717562e+00	 1.0091149482e+00	-1.1586708245e+00
 1.1471919075e+00	 1.0203326688e+00	-1.2034633575e+00
 1.1372004487e+00	 1.0314568179e+00	-1.2419331279e+00
 1.2366636277e+00	 9.1972168914e-01	-7.0441595966e-01
 1.2276863726e+00	 9.3167112438e-01	-7.6998897509e-01
 1.2185876008e+00	 9.4354076360e-01	-8.3418643133e-01
 1.2093683714e+00	 9.5532876838e-01	-8.9668834615e-01
 1.2000297802e+00	 9.6703331898e-01	-9.5707233809e-01
 1.1905729596e+00	 9.7865261523e-01	-1.0148082313e+00
 1.1809990779e+00	 9.9018487745e-01	-1.0692527781e+00
 1.1713093388e+00	 1.0016283474e+00	-1.1200344736e+00
 1.1615049813e+00	 1.0129812890e+00	-1.1680249484e+00
 1.1515872788e+00	 1.0242419894e+00	-1.2117631777e+00
 1.1415575385e+00	 1.0354087597e+00	-1.2493693751e+00
 1.2413837179e+00	 9.2323207727e-01	-7.1566273060e-01
 1.2323721985e+00	 9.3522712103e-01	-7.8145675919e-01
 1.2232386986e+00	 9.4714206422e-01	-8.4576427180e-01
 1.2139842812e+00	 9.5897506139e-01	-9.0828268587e-01
 1.2046100466e+00	 9.7072428585e-01	-9.6860591820e-01
 1.1951171312e+00	 9.8238793055e-01	-1.0262188409e+00
 1.1855067080e+00	 9.9396420905e-01	-1.0804918533e+00
 1.1757799852e+00	 1.0054513563e+00	-1.1306824913e+00
 1.1659382065e+00	 1.0168476298e+00	-1.1773241307e+00
 1.1559826501e+00	 1.0281513099e+00	-1.2199246101e+00
 1.1459146284e+00	 1.0393607015e+00	-1.2565912764e+00
 1.2461038080e+00	 9.2674246539e-01	-7.2658474615e-01
 1.2370580243e+00	 9.3878311769e-01	-7.9258729750e-01
 1.2278897963e+00	 9.5074336485e-01	-8.5698091941e-01
 1.2186001911e+00	 9.6262135440e-01	-9.1948232594e-01
 1.2091903129e+00	 9.7441525271e-01	-9.7970372004e-01
 1.1996613028e+00	 9.8612324588e-01	-1.0371470961e+00
 1.1900143380e+00	 9.9774354064e-01	-1.0911986569e+00
 1.1802506315e+00	 1.0092743653e+00	-1.1411233762e+00
 1.1703714316e+00	 1.0207139706e+00	-1.1865315815e+00
 1.1603780214e+00	 1.0320606305e+00	-1.2279126309e+00
 1.1502717182e+00	 1.0433126434e+00	-1.2635665326e+00
 1.2508238982e+00	 9.3025285352e-01	-7.3719356502e-01
 1.2417438502e+00	 9.4233911435e-01	-8.0338544188e-01
 1.2325408940e+00	 9.5434466547e-01	-8.6783545540e-01
 1.2232161009e+00	 9.6626764741e-01	-9.3028150080e-01
 1.2137705793e+00	 9.7810621958e-01	-9.9035604233e-01
 1.2042054744e+00	 9.8985856120e-01	-1.0475802581e+00
 1.1945219681e+00	 1.0015228722e+00	-1.1013582967e+00
 1.1847212778e+00	 1.0130973742e+00	-1.1509716790e+00
 1.1748046567e+00	 1.0245803114e+00	-1.1956085440e+00
 1.1647733927e+00	 1.0359699511e+00	-1.2356902312e+00
 1.1546288081e+00	 1.0472645852e+00	-1.2702608341e+00
 1.2555439884e+00	 9.3376324164e-01	-7.4749903030e-01
 1.2464296760e+00	 9.4589511101e-01	-8.1385439300e-01
 1.2371919917e+00	 9.5794596609e-01	-8.7832535919e-01
 1.2278320107e+00	 9.6991394042e-01	-9.4067287764e-01
 1.2183508456e+00	 9.8179718645e-01	-1.0005516367e+00
 1.2087496460e+00	 9.9359387653e-01	-1.0575040466e+00
 1.1990295982e+00	 1.0053022038e+00	-1.1109543320e+00
 1.1891919242e+00	 1.0169203832e+00	-1.1602027661e+00
 1.1792378818e+00	 1.0284466522e+00	-1.2044200841e+00
 1.1691687640e+00	 1.0398792717e+00	-1.2432183656e+00
 1.1589858979e+00	 1.0512165270e+00	-1.2766378109e+00
 1.2602640786e+00	 9.3727362977e-01	-7.5750930502e-01
 1.2511155019e+00	 9.4945110767e-01	-8.2399573445e-01
 1.2418430894e+00	 9.6154726672e-01	-8.8844654123e-01
 1.2324479205e+00	 9.7356023343e-01	-9.5064758820e-01
 1.2229311119e+00	 9.8548815331e-01	-1.0102777385e+00
 1.2132938176e+00	 9.9732919185e-01	-1.0669026709e+00
 1.2035372282e+00	 1.0090815354e+00	-1.1199688028e+00
 1.1936625705e+00	 1.0207433922e+00	-1.1687973532e+00
 1.1836711069e+00	 1.0323129930e+00	-1.2125785827e+00
 1.1735641353e+00	 1.0437885922e+00	-1.2504559021e+00
 1.1633429877e+00	 1.0551684689e+00	-1.2826589818e+00
 1.2649841688e+00	 9.4078401790e-01	-7.6723090761e-01
 1.2558013277e+00	 9.5300710432e-01	-8.3380946684e-01
 1.2464941871e+00	 9.6514856734e-01	-8.9819337589e-01
 1.2370638303e+00	 9.7720652644e-01	-9.6019526075e-01
 1.2275113783e+00	 9.8917912018e-01	-1.0195200982e+00
 1.2178379892e+00	 1.0010645072e+00	-1.0757588600e+00
 1.2080448583e+00	 1.0128608670e+00	-1.1283822609e+00
 1.1981332168e+00	 1.0245664011e+00	-1.1767346459e+00
 1.1881043321e+00	 1.0361793338e+00	-1.2200280517e+00
 1.1779595066e+00	 1.0476979128e+00	-1.2573364799e+00
 1.1677000776e+00	 1.0591204107e+00	-1.2882837043e+00
 1.2697042590e+00	 9.4429440602e-01	-7.7666874748e-01
 1.2604871536e+00	 9.5656310098e-01	-8.4329404198e-01
 1.2511452848e+00	 9.6874986797e-01	-9.0755873451e-01
 1.2416797401e+00	 9.8085281945e-01	-9.6930405208e-01
 1.2320916446e+00	 9.9287008705e-01	-1.0282630127e+00
 1.2223821608e+00	 1.0047998225e+00	-1.0840538933e+00
 1.2125524884e+00	 1.0166401986e+00	-1.1361737993e+00
 1.2026038632e+00	 1.0283894101e+00	-1.1839923695e+00
 1.1925375572e+00	 1.0400456746e+00	-1.2267456549e+00
 1.1823548778e+00	 1.0516072334e+00	-1.2635302074e+00
 1.1720571674e+00	 1.0630723525e+00	-1.2934691252e+00
 1.2744243491e+00	 9.4780479415e-01	-7.8582616063e-01
 1.2651729794e+00	 9.6011909764e-01	-8.5244639713e-01
 1.2557963825e+00	 9.7235116859e-01	-9.1653401853e-01
 1.2462956499e+00	 9.8449911246e-01	-9.7796067975e-01
 1.2366719109e+00	 9.9656105391e-01	-1.0364893563e+00
 1.2269263324e+00	 1.0085351378e+00	-1.0917676319e+00
 1.2170601184e+00	 1.0204195302e+00	-1.1433210834e+00
 1.2070745095e+00	 1.0322124190e+00	-1.1905467999e+00
 1.1969707823e+00	 1.0439120154e+00	-1.2327070724e+00
 1.1867502491e+00	 1.0555165539e+00	-1.2689232932e+00
 1.1764142573e+00	 1.0670242944e+00	-1.2981701299e+00
 1.1328433589e+00	 1.0275048761e+00	-1.2343128742e+00
 1.1227803296e+00	 1.0384915395e+00	-1.2726880806e+00
 1.1126088114e+00	 1.0493817126e+00	-1.3161090195e+00
 1.1023301994e+00	 1.0601737959e+00	-1.3630780647e+00
 1.0919459200e+00	 1.0708662166e+00	-1.4120507908e+00
 1.0814574301e+00	 1.0814574301e+00	-1.4614415866e+00
 1.0708662166e+00	 1.0919459200e+00	-1.5096295962e+00
 1.0601737959e+00	 1.1023301994e+00	-1.5549649640e+00
 1.0493817126e+00	 1.1126088114e+00	-1.5957753564e+00
 1.0384915395e+00	 1.1227803296e+00	-1.6303727324e+00
 1.0275048761e+00	 1.1328433589e+00	-1.6570603310e+00
 1.1372004487e+00	 1.0314568179e+00	-1.2419331279e+00
 1.1270987154e+00	 1.0424857377e+00	-1.2797749992e+00
 1.1168880761e+00	 1.0534177961e+00	-1.3229527636e+00
 1.1065699310e+00	 1.0642513874e+00	-1.3699061036e+00
 1.0961457120e+00	 1.0749849328e+00	-1.4190262092e+00
 1.0856168817e+00	 1.0856168817e+00	-1.4686615543e+00
 1.0749849328e+00	 1.0961457120e+00	-1.5171240115e+00
 1.0642513874e+00	 1.1065699310e+00	-1.5626952796e+00
 1.0534177961e+00	 1.1168880761e+00	-1.6036335967e+00
 1.0424857377e+00	 1.1270987154e+00	-1.6381807094e+00
 1.0314568179e+00	 1.1372004487e+00	-1.6645690676e+00
 1.1415575385e+00	 1.0354087597e+00	-1.2493693751e+00
 1.1314171013e+00	 1.0464799359e+00	-1.2866077942e+00
 1.1211673407e+00	 1.0574538796e+00	-1.3294822900e+00
 1.1108096625e+00	 1.0683289789e+00	-1.3763708889e+00
 1.1003455040e+00	 1.0791036490e+00	-1.4256014694e+00
 1.0897763334e+00	 1.0897763334e+00	-1.4754577023e+00
 1.0791036490e+00	 1.1003455040e+00	-1.5241853385e+00
 1.0683289789e+00	 1.1108096625e+00	-1.5699988196e+00
 1.0574538796e+00	 1.1211673407e+00	-1.6110881833e+00
 1.0464799359e+00	 1.1314171013e+00	-1.6456262320e+00
 1.0354087597e+00	 1.1415575385e+00	-1.6717759344e+00
 1.1459146284e+00	 1.0393607015e+00	-1.2565912764e+00
 1.1357354872e+00	 1.0504741342e+00	-1.2931598840e+00
 1.1254466054e+00	 1.0614899631e+00	-1.3356758312e+00
 1.1150493941e+00	 1.0724065704e+00	-1.3824565051e+00
 1.1045452960e+00	 1.0832223652e+00	-1.4317675257e+00
 1.0939357850e+00	 1.0939357850e+00	-1.4818288501e+00
 1.0832223652e+00	 1.1045452960e+00	-1.5308212338e+00
 1.0724065704e+00	 1.1150493941e+00	-1.5768930255e+00
 1.0614899631e+00	 1.1254466054e+00	-1.6181672637e+00
 1.0504741342e+00	 1.1357354872e+00	-1.6527490466e+00
 1.0393607015e+00	 1.1459146284e+00	-1.6787331410e+00
 1.1502717182e+00	 1.0433126434e+00	-1.2635665326e+00
 1.1400538731e+00	 1.0544683324e+00	-1.2994026942e+00
 1.1297258701e+00	 1.0655260467e+00	-1.3415095856e+00
 1.1192891256e+00	 1.0764841619e+00	-1.3881449526e+00
 1.1087450880e+00	 1.0873410815e+00	-1.4375131899e+00
 1.0980952367e+00	 1.0980952367e+00	-1.4877716085e+00
 1.0873410815e+00	 1.1087450880e+00	-1.5370370721e+00
 1.0764841619e+00	 1.1192891256e+00	-1.5833929750e+00
 1.0655260467e+00	 1.1297258701e+00	-1.6248965324e+00
 1.0544683324e+00	 1.1400538731e+00	-1.6595863505e+00
 1.0433126434e+00	 1.1502717182e+00	-1.6854902446e+00
 1.1546288081e+00	 1.0472645852e+00	-1.2702608341e+00
 1.1443722590e+00	 1.0584625306e+00	-1.3053056076e+00
 1.1340051347e+00	 1.0695621302e+00	-1.3469576680e+00
 1.1235288571e+00	 1.0805617535e+00	-1.3934160999e+00
 1.1129448800e+00	 1.0914597977e+00	-1.4428250854e+00
 1.1022546883e+00	 1.1022546883e+00	-1.4932803359e+00
 1.0914597977e+00	 1.1129448800e+00	-1.5428359034e+00
 1.0805617535e+00	 1.1235288571e+00	-1.5895113426e+00
 1.0695621302e+00	 1.1340051347e+00	-1.6312991944e+00
 1.0584625306e+00	 1.1443722590e+00	-1.6661727583e+00
 1.0472645852e+00	 1.1546288081e+00	-1.6920941197e+00
 1.1589858979e+00	 1.0512165270e+00	-1.2766378109e+00
 1.1486906449e+00	 1.0624567288e+00	-1.3108359148e+00
 1.1382843994e+00	 1.0735982137e+00	-1.3519920615e+00
 1.1277685887e+00	 1.0846393450e+00	-1.3982476361e+00
 1.1171446720e+00	 1.0955785139e+00	-1.4476876014e+00
 1.1064141400e+00	 1.1064141400e+00	-1.4983470942e+00
 1.0955785139e+00	 1.1171446720e+00	-1.5482184120e+00
 1.0846393450e+00	 1.1277685887e+00	-1.5952583599e+00
 1.0735982137e+00	 1.1382843994e+00	-1.6373959282e+00
 1.0624567288e+00	 1.1486906449e+00	-1.6725402674e+00
 1.0512165270e+00	 1.1589858979e+00	-1.6985889259e+00
 1.1633429877e+00	 1.0551684689e+00	-1.2826589818e+00
 1.1530090307e+00	 1.0664509271e+00	-1.3159587642e+00
 1.1425636640e+00	 1.0776342972e+00	-1.3565825685e+00
 1.1320083202e+00	 1.0887169365e+00	-1.4026150238e+00
 1.1213444640e+00	 1.0996972301e+00	-1.4520828470e+00
 1.1105735916e+00	 1.1105735916e+00	-1.5029616043e+00
 1.0996972301e+00	 1.1213444640e+00	-1.5531828733e+00
 1.0887169365e+00	 1.1320083202e+00	-1.6006417753e+00
 1.0776342972e+00	 1.1425636640e+00	-1.6432048478e+00
 1.0664509271e+00	 1.1530090307e+00	-1.6787182232e+00
 1.0551684689e+00	 1.1633429877e+00	-1.7050160771e+00
 1.1677000776e+00	 1.0591204107e+00	-1.2882837043e+00
 1.1573274166e+00	 1.0704451253e+00	-1.3206371133e+00
 1.1468429287e+00	 1.0816703807e+00	-1.3606967627e+00
 1.1362480517e+00	 1.0927945280e+00	-1.4064914516e+00
 1.1255442560e+00	 1.1038159463e+00	-1.4559906055e+00
 1.1147330433e+00	 1.1147330433e+00	-1.5071112028e+00
 1.1038159463e+00	 1.1255442560e+00	-1.5577251128e+00
 1.0927945280e+00	 1.1362480517e+00	-1.6056668149e+00
 1.0816703807e+00	 1.1468429287e+00	-1.6487414663e+00
 1.0704451253e+00	 1.1573274166e+00	-1.6847332847e+00
 1.0591204107e+00	 1.1677000776e+00	-1.7114142091e+00
 1.1720571674e+00	 1.0630723525e+00	-1.2934691252e+00
 1.1616458025e+00	 1.0744393235e+00	-1.3248316783e+00
 1.1511221934e+00	 1.0857064642e+00	-1.3642999399e+00
 1.1404877833e+00	 1.0968721196e+00	-1.4098477871e+00
 1.1297440480e+00	 1.1079346625e+00	-1.4593882886e+00
 1.1188924949e+00	 1.1188924949e+00	-1.5107807970e+00
 1.1079346625e+00	 1.1297440480e+00	-1.5618384631e+00
 1.0968721196e+00	 1.1404877833e+00	-1.6103361420e+00
 1.0857064642e+00	 1.1511221934e+00	-1.6540186573e+00
 1.0744393235e+00	 1.1616458025e+00	-1.6906093892e+00
 1.0630723525e+00	 1.1720571674e+00	-1.7178191479e+00
 1.1764142573e+00	 1.0670242944e+00	-1.2981701299e+00
 1.1659641884e+00	 1.0784335218e+00	-1.3285008862e+00
 1.1554014580e+00	 1.0897425477e+00	-1.3673550707e+00
 1.1447275148e+00	 1.1009497111e+00	-1.4126525297e+00
 1.1339438400e+00	 1.1120533788e+00	-1.4622508908e+00
 1.1230519466e+00	 1.1230519466e+00	-1.5139528218e+00
 1.1120533788e+00	 1.1339438400e+00	-1.5655137223e+00
 1.1009497111e+00	 1.1447275148e+00	-1.6146498172e+00
 1.0897425477e+00	 1.1554014580e+00	-1.6590466181e+00
 1.0784335218e+00	 1.1659641884e+00	-1.6963677177e+00
 1.0670242944e+00	 1.1764142573e+00	-1.7242638776e+00
 1.0275048761e+00	 1.1328433589e+00	-1.6570603310e+00
 1.0164233482e+00	 1.1427965362e+00	-1.6824903640e+00
 1.0052486074e+00	 1.1526385311e+00	-1.7131498449e+00
 9.9398232945e-01	 1.1623680462e+00	-1.7471255633e+00
 9.8262621427e-01	 1.1719838177e+00	-1.7825552380e+00
 9.7118198458e-01	 1.1814846164e+00	-1.8174632300e+00
 9.5965138525e-01	 1.1908692476e+00	-1.8498065790e+00
 9.4803618236e-01	 1.2001365518e+00	-1.8793163439e+00
 9.3633816235e-01	 1.2092854054e+00	-1.9060166214e+00
 9.2455913106e-01	 1.2183147209e+00	-1.9300273574e+00
 9.1270091289e-01	 1.2272234473e+00	-1.9515605427e+00
 1.0314568179e+00	 1.1372004487e+00	-1.6645690676e+00
 1.0203326688e+00	 1.1471919075e+00	-1.6895703395e+00
 1.0091149482e+00	 1.1570717562e+00	-1.7198217214e+00
 9.9780533841e-01	 1.1668386925e+00	-1.7533850673e+00
 9.8640554586e-01	 1.1764914478e+00	-1.7883733782e+00
 9.7491729990e-01	 1.1860287880e+00	-1.8222378600e+00
 9.6334235211e-01	 1.1954495139e+00	-1.8535705837e+00
 9.5168247537e-01	 1.2047524616e+00	-1.8823038856e+00
 9.3993946297e-01	 1.2139365031e+00	-1.9084710269e+00
 9.2811512772e-01	 1.2230005468e+00	-1.9322025360e+00
 9.1621130101e-01	 1.2319435375e+00	-1.9537222941e+00
 1.0354087597e+00	 1.1415575385e+00	-1.6717759344e+00
 1.0242419894e+00	 1.1515872788e+00	-1.6964288116e+00
 1.0129812890e+00	 1.1615049813e+00	-1.7263700595e+00
 1.0016283474e+00	 1.1713093388e+00	-1.7596338704e+00
 9.9018487745e-01	 1.1809990779e+00	-1.7940658715e+00
 9.7865261523e-01	 1.1905729596e+00	-1.8267529182e+00
 9.6703331898e-01	 1.2000297802e+00	-1.8571443595e+00
 9.5532876838e-01	 1.2093683714e+00	-1.8851772312e+00
 9.4354076360e-01	 1.2185876008e+00	-1.9108908228e+00
 9.3167112438e-01	 1.2276863726e+00	-1.9344229164e+00
 9.1972168914e-01	 1.2366636277e+00	-1.9560057628e+00
 1.0393607015e+00	 1.1459146284e+00	-1.6787331410e+00
 1.0281513099e+00	 1.1559826501e+00	-1.7031297239e+00
 1.0168476298e+00	 1.1659382065e+00	-1.7328682428e+00
 1.0054513563e+00	 1.1757799852e+00	-1.7659525161e+00
 9.9396420905e-01	 1.1855067080e+00	-1.7993993071e+00
 9.8238793055e-01	 1.1951171312e+00	-1.8309693739e+00
 9.7072428585e-01	 1.2046100466e+00	-1.8604872716e+00
 9.5897506139e-01	 1.2139842812e+00	-1.8878918338e+00
 9.4714206422e-01	 1.2232386986e+00	-1.9132252828e+00
 9.3522712103e-01	 1.2323721985e+00	-1.9366293663e+00
 9.2323207727e-01	 1.2413837179e+00	-1.9583412285e+00
 1.0433126434e+00	 1.1502717182e+00	-1.6854902446e+00
 1.0320606305e+00	 1.1603780214e+00	-1.7097342813e+00
 1.0207139706e+00	 1.1703714316e+00	-1.7393868697e+00
 1.0092743653e+00	 1.1802506315e+00	-1.7721851857e+00
 9.9774354064e-01	 1.1900143380e+00	-1.8043329993e+00
 9.8612324588e-01	 1.1996613028e+00	-1.8348472797e+00
 9.7441525271e-01	 1.2091903129e+00	-1.8635577982e+00
 9.6262135440e-01	 1.2186001911e+00	-1.8904023225e+00
 9.5074336485e-01	 1.2278897963e+00	-1.9154229513e+00
 9.3878311769e-01	 1.2370580243e+00	-1.9387621512e+00
 9.2674246539e-01	 1.2461038080e+00	-1.9606585268e+00
 1.0472645852e+00	 1.1546288081e+00	-1.6920941197e+00
 1.0359699511e+00	 1.1647733927e+00	-1.7163009217e+00
 1.0245803114e+00	 1.1748046567e+00	-1.7459937275e+00
 1.0130973742e+00	 1.1847212778e+00	-1.7779272768e+00
 1.0015228722e+00	 1.1945219681e+00	-1.8088253963e+00
 9.8985856120e-01	 1.2042054744e+00	-1.8383458181e+00
 9.7810621958e-01	 1.2137705793e+00	-1.8663135763e+00
 9.6626764741e-01	 1.2232161009e+00	-1.8926625459e+00
 9.5434466547e-01	 1.2325408940e+00	-1.9174316842e+00
 9.4233911435e-01	 1.2417438502e+00	-1.9407609719e+00
 9.3025285352e-01	 1.2508238982e+00	-1.9628870826e+00
 1.0512165270e+00	 1.1589858979e+00	-1.6985889259e+00
 1.0398792717e+00	 1.1691687640e+00	-1.7228852878e+00
 1.0284466522e+00	 1.1792378818e+00	-1.7525945351e+00
 1.0169203832e+00	 1.1891919242e+00	-1.7831260867e+00
 1.0053022038e+00	 1.1990295982e+00	-1.8128341280e+00
 9.9359387653e-01	 1.2087496460e+00	-1.8414233488e+00
 9.8179718645e-01	 1.2183508456e+00	-1.8687114472e+00
 9.6991394042e-01	 1.2278320107e+00	-1.8946256152e+00
 9.5794596609e-01	 1.2371919917e+00	-1.9191986900e+00
 9.4589511101e-01	 1.2464296760e+00	-1.9425650013e+00
 9.3376324164e-01	 1.2555439884e+00	-1.9649559434e+00
 1.0551684689e+00	 1.1633429877e+00	-1.7050160771e+00
 1.0437885922e+00	 1.1735641353e+00	-1.7295401979e+00
 1.0323129930e+00	 1.1836711069e+00	-1.7586015497e+00
 1.0207433922e+00	 1.1936625705e+00	-1.7877354978e+00
 1.0090815354e+00	 1.2035372282e+00	-1.8163160527e+00
 9.9732919185e-01	 1.2132938176e+00	-1.8440374550e+00
 9.8548815331e-01	 1.2229311119e+00	-1.8707075015e+00
 9.7356023343e-01	 1.2324479205e+00	-1.8962439474e+00
 9.6154726672e-01	 1.2418430894e+00	-1.9206705695e+00
 9.4945110767e-01	 1.2511155019e+00	-1.9441129218e+00
 9.3727362977e-01	 1.2602640786e+00	-1.9667938126e+00
 1.0591204107e+00	 1.1677000776e+00	-1.7114142091e+00
 1.0476979128e+00	 1.1779595066e+00	-1.7362601840e+00
 1.0361793338e+00	 1.1881043321e+00	-1.7639077395e+00
 1.0245664011e+00	 1.1981332168e+00	-1.7917087042e+00
 1.0128608670e+00	 1.2080448583e+00	-1.8192273044e+00
 1.0010645072e+00	 1.2178379892e+00	-1.8461449893e+00
 9.8917912018e-01	 1.2275113783e+00	-1.8722571235e+00
 9.7720652644e-01	 1.2370638303e+00	-1.8974693078e+00
 9.6514856734e-01	 1.2464941871e+00	-1.9217933561e+00
 9.5300710432e-01	 1.2558013277e+00	-1.9453429617e+00
 9.4078401790e-01	 1.2649841688e+00	-1.9683290821e+00
 1.0630723525e+00	 1.1720571674e+00	-1.7178191479e+00
 1.0516072334e+00	 1.1823548778e+00	-1.7423612825e+00
 1.0400456746e+00	 1.1925375572e+00	-1.7684605324e+00
 1.0283894101e+00	 1.2026038632e+00	-1.7949982592e+00
 1.0166401986e+00	 1.2125524884e+00	-1.8215233393e+00
 1.0047998225e+00	 1.2223821608e+00	-1.8477021196e+00
 9.9287008705e-01	 1.2320916446e+00	-1.8733150358e+00
 9.8085281945e-01	 1.2416797401e+00	-1.8982528524e+00
 9.6874986797e-01	 1.2511452848e+00	-1.9225125556e+00
 9.5656310098e-01	 1.2604871536e+00	-1.9461929321e+00
 9.4429440602e-01	 1.2697042590e+00	-1.9694898654e+00
 1.0670242944e+00	 1.1764142573e+00	-1.7242638776e+00
 1.0555165539e+00	 1.1867502491e+00	-1.7475796678e+00
 1.0439120154e+00	 1.1969707823e+00	-1.7722068278e+00
 1.0322124190e+00	 1.2070745095e+00	-1.7975561211e+00
 1.0204195302e+00	 1.2170601184e+00	-1.8231589811e+00
 1.0085351378e+00	 1.2269263324e+00	-1.8486643742e+00
 9.9656105391e-01	 1.2366719109e+00	-1.8738353433e+00
 9.8449911246e-01	 1.2462956499e+00	-1.8985451700e+00
 9.7235116859e-01	 1.2557963825e+00	-1.9227731854e+00
 9.6011909764e-01	 1.2651729794e+00	-1.9466002634e+00
 9.4780479415e-01	 1.2744243491e+00	-1.9702040301e+00
 9.1270091289e-01	 1.2272234473e+00	-1.9515605427e+00
 9.0076534982e-01	 1.2360105706e+00	-1.9710678514e+00
 8.8875430053e-01	 1.2446751140e+00	-1.9887635578e+00
 8.7666963942e-01	 1.2532161383e+00	-2.0046060545e+00
 8.6451325571e-01	 1.2616327424e+00	-2.0185986960e+00
 8.5228705245e-01	 1.2699240632e+00	-2.0307861661e+00
 8.3999294557e-01	 1.2780892760e+00	-2.0412507894e+00
 8.2763286297e-01	 1.2861275948e+00	-2.0501088148e+00
 8.1520874348e-01	 1.2940382725e+00	-2.0575066948e+00
 8.0272253596e-01	 1.3018206006e+00	-2.0636173833e+00
 7.9017619833e-01	 1.3094739102e+00	-2.0686366765e+00
 9.1621130101e-01	 1.2319435375e+00	-1.9537222941e+00
 9.0422983193e-01	 1.2407644574e+00	-1.9733221280e+00
 8.9217258630e-01	 1.2494623259e+00	-1.9910503877e+00
 8.8004144573e-01	 1.2580362004e+00	-2.0068693063e+00
 8.6783830670e-01	 1.2664851760e+00	-2.0207862079e+00
 8.5556507957e-01	 1.2748083865e+00	-2.0328497792e+00
 8.4322368767e-01	 1.2830050040e+00	-2.0431462864e+00
 8.3081606628e-01	 1.2910742394e+00	-2.0517957659e+00
 8.1834416172e-01	 1.2990153427e+00	-2.0589482121e+00
 8.0580993033e-01	 1.3068276030e+00	-2.0647797881e+00
 7.9321533755e-01	 1.3145103484e+00	-2.0694890813e+00
 9.1972168914e-01	 1.2366636277e+00	-1.9560057628e+00
 9.0769431405e-01	 1.2455183442e+00	-1.9757653198e+00
 8.9559087207e-01	 1.2542495379e+00	-1.9935807676e+00
 8.8341325204e-01	 1.2628562625e+00	-2.0094188232e+00
 8.7116335768e-01	 1.2713376097e+00	-2.0232916066e+00
 8.5884310670e-01	 1.2796927098e+00	-2.0352528109e+00
 8.4645442977e-01	 1.2879207320e+00	-2.0453938202e+00
 8.3399926960e-01	 1.2960208840e+00	-2.0538398015e+00
 8.2147957996e-01	 1.3039924130e+00	-2.0607457971e+00
 8.0889732470e-01	 1.3118346053e+00	-2.0662928408e+00
 7.9625447678e-01	 1.3195467865e+00	-2.0706841242e+00
 9.2323207727e-01	 1.2413837179e+00	-1.9583412285e+00
 9.1115879616e-01	 1.2502722310e+00	-1.9783169428e+00
 8.9900915784e-01	 1.2590367499e+00	-1.9962652480e+00
 8.8678505834e-01	 1.2676763245e+00	-2.0121579833e+00
 8.7448840866e-01	 1.2761900433e+00	-2.0260128830e+00
 8.6212113382e-01	 1.2845770331e+00	-2.0378896421e+00
 8.4968517187e-01	 1.2928364599e+00	-2.0478859289e+00
 8.3718247292e-01	 1.3009675286e+00	-2.0561333738e+00
 8.2461499821e-01	 1.3089694833e+00	-2.0627935597e+00
 8.1198471907e-01	 1.3168416076e+00	-2.0680540395e+00
 7.9929361600e-01	 1.3245832246e+00	-2.0721244068e+00
 9.2674246539e-01	 1.2461038080e+00	-1.9606585268e+00
 9.1462327828e-01	 1.2550261178e+00	-1.9808962284e+00
 9.0242744361e-01	 1.2638239619e+00	-1.9990142264e+00
 8.9015686465e-01	 1.2724963866e+00	-2.0149901142e+00
 8.7781345965e-01	 1.2810424769e+00	-2.0288480530e+00
 8.6539916095e-01	 1.2894613565e+00	-2.0406547266e+00
 8.5291591397e-01	 1.2977521879e+00	-2.0505152448e+00
 8.4036567624e-01	 1.3059141732e+00	-2.0585690232e+00
 8.2775041645e-01	 1.3139465536e+00	-2.0649856665e+00
 8.1507211344e-01	 1.3218486099e+00	-2.0699608819e+00
 8.0233275523e-01	 1.3296196627e+00	-2.0737124477e+00
 9.3025285352e-01	 1.2508238982e+00	-1.9628870826e+00
 9.1808776039e-01	 1.2597800046e+00	-1.9834221529e+00
 9.0584572939e-01	 1.2686111738e+00	-2.0017379725e+00
 8.9352867095e-01	 1.2773164487e+00	-2.0178185161e+00
 8.8113851063e-01	 1.2858949105e+00	-2.0316951774e+00
 8.6867718807e-01	 1.2943456798e+00	-2.0434426090e+00
 8.5614665606e-01	 1.3026679159e+00	-2.0531745102e+00
 8.4354887956e-01	 1.3108608178e+00	-2.0610393937e+00
 8.3088583470e-01	 1.3189236238e+00	-2.0672163557e+00
 8.1815950781e-01	 1.3268556122e+00	-2.0719108795e+00
 8.0537189445e-01	 1.3346561008e+00	-2.0753506970e+00
 9.3376324164e-01	 1.2555439884e+00	-1.9649559434e+00
 9.2155224251e-01	 1.2645338914e+00	-1.9858134666e+00
 9.0926401516e-01	 1.2733983858e+00	-2.0043466541e+00
 8.9690047726e-01	 1.2821365107e+00	-2.0205464840e+00
 8.8446356161e-01	 1.2907473442e+00	-2.0344523825e+00
 8.7195521520e-01	 1.2992300031e+00	-2.0461479430e+00
 8.5937739816e-01	 1.3075836439e+00	-2.0557565946e+00
 8.4673208288e-01	 1.3158074624e+00	-2.0634372486e+00
 8.3402125294e-01	 1.3239006941e+00	-2.0693799513e+00
 8.2124690218e-01	 1.3318626145e+00	-2.0738015720e+00
 8.0841103367e-01	 1.3396925389e+00	-2.0769415510e+00
 9.3727362977e-01	 1.2602640786e+00	-1.9667938126e+00
 9.2501672462e-01	 1.2692877782e+00	-1.9879887230e+00
 9.1268230093e-01	 1.2781855978e+00	-2.0067503626e+00
 9.0027228356e-01	 1.2869565728e+00	-2.0230773306e+00
 8.8778861260e-01	 1.2955997778e+00	-2.0370178795e+00
 8.7523324232e-01	 1.3041143264e+00	-2.0486655094e+00
 8.6260814026e-01	 1.3124993719e+00	-2.0581545105e+00
 8.4991528620e-01	 1.3207541070e+00	-2.0656554854e+00
 8.3715667119e-01	 1.3288777644e+00	-2.0713708784e+00
 8.2433429655e-01	 1.3368696168e+00	-2.0755305423e+00
 8.1145017290e-01	 1.3447289771e+00	-2.0783873677e+00
 9.4078401790e-01	 1.2649841688e+00	-1.9683290821e+00
 9.2848120674e-01	 1.2740416651e+00	-1.9898663079e+00
 9.1610058670e-01	 1.2829728098e+00	-2.0088591388e+00
 9.0364408987e-01	 1.2917766349e+00	-2.0253144088e+00
 8.9111366358e-01	 1.3004522114e+00	-2.0392899855e+00
 8.7851126945e-01	 1.3089986497e+00	-2.0508902343e+00
 8.6583888236e-01	 1.3174150999e+00	-2.0602614306e+00
 8.5309848952e-01	 1.3257007516e+00	-2.0675871519e+00
 8.4029208943e-01	 1.3338548347e+00	-2.0730836782e+00
 8.2742169092e-01	 1.3418766191e+00	-2.0769954315e+00
 8.1448931212e-01	 1.3497654152e+00	-2.0795904816e+00
 9.4429440602e-01	 1.2697042590e+00	-1.9694898654e+00
 9.3194568885e-01	 1.2787955519e+00	-1.9913644683e+00
 9.1951887247e-01	 1.2877600218e+00	-2.0105829987e+00
 9.0701589617e-01	 1.2965966969e+00	-2.0271611349e+00
 8.9443871457e-01	 1.3053046450e+00	-2.0411671434e+00
 8.8178929657e-01	 1.3138829731e+00	-2.0527172076e+00
 8.6906962446e-01	 1.3223308279e+00	-2.0619707048e+00
 8.5628169284e-01	 1.3306473962e+00	-2.0691254620e+00
 8.4342750767e-01	 1.3388319050e+00	-2.0744130227e+00
 8.3050908529e-01	 1.3468836214e+00	-2.0780939534e+00
 8.1752845135e-01	 1.3548018533e+00	-2.0804532190e+00
 9.4780479415e-01	 1.2744243491e+00	-1.9702040301e+00
 9.3541017097e-01	 1.2835494387e+00	-1.9924013415e+00
 9.2293715824e-01	 1.2925472337e+00	-2.0118319590e+00
 9.1038770248e-01	 1.3014167590e+00	-2.0285210113e+00
 8.9776376555e-01	 1.3101570787e+00	-2.0425479426e+00
 8.8506732370e-01	 1.3187672964e+00	-2.0540417016e+00
 8.7230036656e-01	 1.3272465558e+00	-2.0631758767e+00
 8.5946489616e-01	 1.3355940408e+00	-2.0701638114e+00
 8.4656292592e-01	 1.3438089752e+00	-2.0752537309e+00
 8.3359647965e-01	 1.3518906238e+00	-2.0787239102e+00
 8.2056759057e-01	 1.3598382914e+00	-2.0808779135e+00
 7.9017619833e-01	 1.3094739102e+00	-2.0686366765e+00
 7.7757169655e-01	 1.3169975713e+00	-2.0713741991e+00
 7.6491100372e-01	 1.3243909930e+00	-2.0708688438e+00
 7.5219609909e-01	 1.3316536241e+00	-2.0676781360e+00
 7.3942896709e-01	 1.3387849524e+00	-2.0623606227e+00
 7.2661159640e-01	 1.3457845050e+00	-2.0554725117e+00
 7.1374597898e-01	 1.3526518486e+00	-2.0475644803e+00
 7.0083410913e-01	 1.3593865887e+00	-2.0391786677e+00
 6.8787798254e-01	 1.3659883701e+00	-2.0308458617e+00
 6.7487959539e-01	 1.3724568765e+00	-2.0230828937e+00
 6.6184094337e-01	 1.3787918304e+00	-2.0163902473e+00
 7.9321533755e-01	 1.3145103484e+00	-2.0694890813e+00
 7.8056235692e-01	 1.3220629465e+00	-2.0718537634e+00
 7.6785296912e-01	 1.3294848045e+00	-2.0708877865e+00
 7.5508916101e-01	 1.3367753688e+00	-2.0671615751e+00
 7.4227292466e-01	 1.3439341252e+00	-2.0612464389e+00
 7.2940625639e-01	 1.3509605993e+00	-2.0537111279e+00
 7.1649115582e-01	 1.3578543557e+00	-2.0451185635e+00
 7.0352962493e-01	 1.3646149986e+00	-2.0360227572e+00
 6.9052366709e-01	 1.3712421715e+00	-2.0269659321e+00
 6.7747528614e-01	 1.3777355568e+00	-2.0184758569e+00
 6.6438648546e-01	 1.3840948759e+00	-2.0110634016e+00
 7.9625447678e-01	 1.3195467865e+00	-2.0706841242e+00
 7.8355301729e-01	 1.3271283218e+00	-2.0726697909e+00
 7.7079493452e-01	 1.3345786160e+00	-2.0712416285e+00
 7.5798222293e-01	 1.3418971135e+00	-2.0669823476e+00
 7.4511688222e-01	 1.3490832981e+00	-2.0604753263e+00
 7.3220091637e-01	 1.3561366935e+00	-2.0523010818e+00
 7.1923633266e-01	 1.3630568628e+00	-2.0430339227e+00
 7.0622514074e-01	 1.3698434086e+00	-2.0332387960e+00
 6.9316935164e-01	 1.3764959729e+00	-2.0234683433e+00
 6.8007097689e-01	 1.3830142371e+00	-2.0142601746e+00
 6.6693202755e-01	 1.3893979214e+00	-2.0061343727e+00
 7.9929361600e-01	 1.3245832246e+00	-2.0721244068e+00
 7.8654367766e-01	 1.3321936971e+00	-2.0737304844e+00
 7.7373689992e-01	 1.3396724276e+00	-2.0718434735e+00
 7.6087528485e-01	 1.3470188582e+00	-2.0670577726e+00
 7.4796083979e-01	 1.3542324710e+00	-2.0599681489e+00
 7.3499557636e-01	 1.3613127878e+00	-2.0511661259e+00
 7.2198150951e-01	 1.3682593699e+00	-2.0412365578e+00
 7.0892065654e-01	 1.3750718186e+00	-2.0307544050e+00
 6.9581503619e-01	 1.3817497743e+00	-2.0202817251e+00
 6.8266666764e-01	 1.3882929173e+00	-2.0103648886e+00
 6.6947756964e-01	 1.3947009670e+00	-2.0015320320e+00
 8.0233275523e-01	 1.3296196627e+00	-2.0737124477e+00
 7.8953433803e-01	 1.3372590724e+00	-2.0749438743e+00
 7.7667886532e-01	 1.3447662391e+00	-2.0726061754e+00
 7.6376834677e-01	 1.3521406029e+00	-2.0673048539e+00
 7.5080479735e-01	 1.3593816439e+00	-2.0596454012e+00
 7.3779023635e-01	 1.3664888820e+00	-2.0502296010e+00
 7.2472668635e-01	 1.3734618770e+00	-2.0396520263e+00
 7.1161617235e-01	 1.3803002285e+00	-2.0284967433e+00
 6.9846072074e-01	 1.3870035758e+00	-2.0173342380e+00
 6.8526235839e-01	 1.3935715976e+00	-2.0067185751e+00
 6.7202311173e-01	 1.4000040125e+00	-1.9971848002e+00
 8.0537189445e-01	 1.3346561008e+00	-2.0753506970e+00
 7.9252499841e-01	 1.3423244476e+00	-2.0762178336e+00
 7.7962083072e-01	 1.3498600506e+00	-2.0734423536e+00
 7.6666140869e-01	 1.3572623476e+00	-2.0676402952e+00
 7.5364875492e-01	 1.3645308168e+00	-2.0594272234e+00
 7.4058489633e-01	 1.3716649763e+00	-2.0494144511e+00
 7.2747186319e-01	 1.3786643841e+00	-2.0382054575e+00
 7.1431168815e-01	 1.3855286385e+00	-2.0263925220e+00
 7.0110640528e-01	 1.3922573772e+00	-2.0145535862e+00
 6.8785804914e-01	 1.3988502779e+00	-2.0032493567e+00
 6.7456865382e-01	 1.4053070580e+00	-1.9930206580e+00
 8.0841103367e-01	 1.3396925389e+00	-2.0769415510e+00
 7.9551565878e-01	 1.3473898229e+00	-2.0774600934e+00
 7.8256279611e-01	 1.3549538621e+00	-2.0742644088e+00
 7.6955447061e-01	 1.3623840923e+00	-2.0679805156e+00
 7.5649271248e-01	 1.3696799897e+00	-2.0592334172e+00
 7.4337955632e-01	 1.3768410705e+00	-2.0486432386e+00
 7.3021704003e-01	 1.3838668913e+00	-2.0368215677e+00
 7.1700720395e-01	 1.3907570484e+00	-2.0243680186e+00
 7.0375208983e-01	 1.3975111786e+00	-2.0118670303e+00
 6.9045373990e-01	 1.4041289582e+00	-1.9998849137e+00
 6.7711419591e-01	 1.4106101035e+00	-1.9889671564e+00
 8.1145017290e-01	 1.3447289771e+00	-2.0783873677e+00
 7.9850631915e-01	 1.3524551982e+00	-2.0785782585e+00
 7.8550476151e-01	 1.3600476736e+00	-2.0749845385e+00
 7.7244753252e-01	 1.3675058370e+00	-2.0682416658e+00
 7.5933667005e-01	 1.3748291626e+00	-2.0589834611e+00
 7.4617421630e-01	 1.3820171648e+00	-2.0478381593e+00
 7.3296221688e-01	 1.3890693984e+00	-2.0354246741e+00
 7.1970271976e-01	 1.3959854584e+00	-2.0223490903e+00
 7.0639777438e-01	 1.4027649800e+00	-2.0092014006e+00
 6.9304943065e-01	 1.4094076385e+00	-1.9965524968e+00
 6.7965973800e-01	 1.4159131490e+00	-1.9849514278e+00
 8.1448931212e-01	 1.3497654152e+00	-2.0795904816e+00
 8.0149697952e-01	 1.3575205735e+00	-2.0794798229e+00
 7.8844672691e-01	 1.3651414851e+00	-2.0755147528e+00
 7.7534059444e-01	 1.3726275817e+00	-2.0683396435e+00
 7.6218062762e-01	 1.3799783355e+00	-2.0585965261e+00
 7.4896887629e-01	 1.3871932590e+00	-2.0469210581e+00
 7.3570739372e-01	 1.3942719055e+00	-2.0339387100e+00
 7.2239823556e-01	 1.4012138683e+00	-2.0202611885e+00
 7.0904345893e-01	 1.4080187815e+00	-2.0064831101e+00
 6.9564512140e-01	 1.4146863188e+00	-1.9931789387e+00
 6.8220528009e-01	 1.4212161945e+00	-1.9809001967e+00
 8.1752845135e-01	 1.3548018533e+00	-2.0804532190e+00
 8.0448763989e-01	 1.3625859487e+00	-2.0800721852e+00
 7.9138869231e-01	 1.3702352966e+00	-2.0757668903e+00
 7.7823365636e-01	 1.3777493265e+00	-2.0681901092e+00
 7.6502458518e-01	 1.3851275084e+00	-2.0579914914e+00
 7.5176353628e-01	 1.3923693533e+00	-2.0458134435e+00
 7.3845257056e-01	 1.3994744126e+00	-2.0322872393e+00
 7.2509375137e-01	 1.4064422783e+00	-2.0180293722e+00
 7.1168914348e-01	 1.4132725829e+00	-2.0036381675e+00
 6.9824081215e-01	 1.4199649991e+00	-1.9896906660e+00
 6.8475082218e-01	 1.4265192400e+00	-1.9767397901e+00
 8.2056759057e-01	 1.3598382914e+00	-2.0808779135e+00
 8.0747830026e-01	 1.3676513240e+00	-2.0802626645e+00
 7.9433065771e-01	 1.3753291081e+00	-2.0756526339e+00
 7.8112671828e-01	 1.3828710712e+00	-2.0677085023e+00
 7.6786854275e-01	 1.3902766813e+00	-2.0570869598e+00
 7.5455819626e-01	 1.3975454475e+00	-2.0444365039e+00
 7.4119774740e-01	 1.4046769197e+00	-2.0303934715e+00
 7.2778926717e-01	 1.4116706883e+00	-2.0155783227e+00
 7.1433482802e-01	 1.4185263843e+00	-2.0005921904e+00
 7.0083650290e-01	 1.4252436794e+00	-1.9860137116e+00
 6.8729636427e-01	 1.4318222855e+00	-1.9723961492e+00
 6.6184094337e-01	 1.3787918304e+00	-2.0163902473e+00
 6.4876402082e-01	 1.3849929932e+00	-2.0066099872e+00
 6.3565081979e-01	 1.3910601645e+00	-1.9895248649e+00
 6.2250332915e-01	 1.3969931822e+00	-1.9655308457e+00
 6.0932353372e-01	 1.4027919223e+00	-1.9350200920e+00
 5.9611341337e-01	 1.4084562984e+00	-1.8983796564e+00
 5.8287494218e-01	 1.4139862615e+00	-1.8568392700e+00
 5.6961008760e-01	 1.4193818000e+00	-1.8182775416e+00
 5.5632080957e-01	 1.4246429387e+00	-1.7843844621e+00
 5.4300905976e-01	 1.4297697392e+00	-1.7549605523e+00
 5.2967678074e-01	 1.4347622988e+00	-1.7297883617e+00
 6.6438648546e-01	 1.3840948759e+00	-2.0110634016e+00
 6.5125926705e-01	 1.3903198894e+00	-2.0006612925e+00
 6.3809563063e-01	 1.3964103959e+00	-1.9831314089e+00
 6.2489757272e-01	 1.4023662329e+00	-1.9588615584e+00
 6.1166708577e-01	 1.4081872759e+00	-1.9282346795e+00
 5.9840615726e-01	 1.4138734380e+00	-1.8916275449e+00
 5.8511676888e-01	 1.4194246702e+00	-1.8496969714e+00
 5.7180089563e-01	 1.4248409608e+00	-1.8097665749e+00
 5.5846050499e-01	 1.4301223346e+00	-1.7747515041e+00
 5.4509755615e-01	 1.4352688535e+00	-1.7444307544e+00
 5.3171399913e-01	 1.4402806153e+00	-1.7185649219e+00
 6.6693202755e-01	 1.3893979214e+00	-2.0061343727e+00
 6.5375451328e-01	 1.3956467855e+00	-1.9951108873e+00
 6.4054044148e-01	 1.4017606273e+00	-1.9771288840e+00
 6.2729181629e-01	 1.4077392836e+00	-1.9525691747e+00
 6.1401063782e-01	 1.4135826294e+00	-1.9218066320e+00
 6.0069890116e-01	 1.4192905776e+00	-1.8852088994e+00
 5.8735859558e-01	 1.4248630789e+00	-1.8431580280e+00
 5.7399170365e-01	 1.4303001215e+00	-1.8018116273e+00
 5.6060020041e-01	 1.4356017306e+00	-1.7656276242e+00
 5.4718605253e-01	 1.4407679679e+00	-1.7343645531e+00
 5.3375121751e-01	 1.4457989318e+00	-1.7077621346e+00
 6.6947756964e-01	 1.3947009670e+00	-2.0015320320e+00
 6.5624975952e-01	 1.4009736816e+00	-1.9898873909e+00
 6.4298525232e-01	 1.4071108587e+00	-1.9714460567e+00
 6.2968605987e-01	 1.4131123343e+00	-1.9465829918e+00
 6.1635418987e-01	 1.4189779829e+00	-1.9156661431e+00
 6.0299164506e-01	 1.4247077172e+00	-1.8790551590e+00
 5.8960042228e-01	 1.4303014876e+00	-1.8371003361e+00
 5.7618251168e-01	 1.4357592823e+00	-1.7943475617e+00
 5.6273989583e-01	 1.4410811265e+00	-1.7569498440e+00
 5.4927454892e-01	 1.4462670823e+00	-1.7247013356e+00
 5.3578843590e-01	 1.4513172484e+00	-1.6973219375e+00
 6.7202311173e-01	 1.4000040125e+00	-1.9971848002e+00
 6.5874500575e-01	 1.4063005777e+00	-1.9849189907e+00
 6.4543006317e-01	 1.4124610901e+00	-1.9660112771e+00
 6.3208030344e-01	 1.4184853850e+00	-1.9408319017e+00
 6.1869774193e-01	 1.4243733365e+00	-1.9097430107e+00
 6.0528438896e-01	 1.4301248568e+00	-1.8730973738e+00
 5.9184224898e-01	 1.4357398963e+00	-1.8312373417e+00
 5.7837331971e-01	 1.4412184431e+00	-1.7873088196e+00
 5.6487959126e-01	 1.4465605224e+00	-1.7486547959e+00
 5.5136304530e-01	 1.4517661967e+00	-1.7153801281e+00
 5.3782565429e-01	 1.4568355649e+00	-1.6871859329e+00
 6.7456865382e-01	 1.4053070580e+00	-1.9930206580e+00
 6.6124025199e-01	 1.4116274739e+00	-1.9801334516e+00
 6.4787487401e-01	 1.4178113215e+00	-1.9607524862e+00
 6.3447454702e-01	 1.4238584357e+00	-1.9352443992e+00
 6.2104129398e-01	 1.4297686900e+00	-1.9039666437e+00
 6.0757713285e-01	 1.4355419964e+00	-1.8672662102e+00
 5.9408407568e-01	 1.4411783050e+00	-1.8254785927e+00
 5.8056412774e-01	 1.4466776038e+00	-1.7806294157e+00
 5.6701928668e-01	 1.4520399183e+00	-1.7406787172e+00
 5.5345154168e-01	 1.4572653111e+00	-1.7063395902e+00
 5.3986287268e-01	 1.4623538814e+00	-1.6772953814e+00
 6.7711419591e-01	 1.4106101035e+00	-1.9889671564e+00
 6.6373549822e-01	 1.4169543700e+00	-1.9754581246e+00
 6.5031968486e-01	 1.4231615529e+00	-1.9555972247e+00
 6.3686879059e-01	 1.4292314864e+00	-1.9297485881e+00
 6.2338484603e-01	 1.4351640436e+00	-1.8982660673e+00
 6.0986987675e-01	 1.4409591360e+00	-1.8614919561e+00
 5.9632590239e-01	 1.4466167137e+00	-1.8197559636e+00
 5.8275493577e-01	 1.4521367646e+00	-1.7742429317e+00
 5.6915898210e-01	 1.4575193142e+00	-1.7329574443e+00
 5.5554003807e-01	 1.4627644255e+00	-1.6975180089e+00
 5.4190009106e-01	 1.4678721980e+00	-1.6675911963e+00
 6.7965973800e-01	 1.4159131490e+00	-1.9849514278e+00
 6.6623074445e-01	 1.4222812661e+00	-1.9708199574e+00
 6.5276449570e-01	 1.4285117843e+00	-1.9504726411e+00
 6.3926303416e-01	 1.4346045371e+00	-1.9242721892e+00
 6.2572839809e-01	 1.4405593971e+00	-1.8925699297e+00
 6.1216262065e-01	 1.4463762756e+00	-1.8557045264e+00
 5.9856772909e-01	 1.4520551224e+00	-1.8140009581e+00
 5.8494574380e-01	 1.4575959254e+00	-1.7680825108e+00
 5.7129867752e-01	 1.4629987102e+00	-1.7254264067e+00
 5.5762853445e-01	 1.4682635398e+00	-1.6888532928e+00
 5.4393730945e-01	 1.4733905145e+00	-1.6580139376e+00
 6.8220528009e-01	 1.4212161945e+00	-1.9809001967e+00
 6.6872599069e-01	 1.4276081623e+00	-1.9661455028e+00
 6.5520930655e-01	 1.4338620157e+00	-1.9453055001e+00
 6.4165727774e-01	 1.4399775878e+00	-1.9187425470e+00
 6.2807195014e-01	 1.4459547507e+00	-1.8868065084e+00
 6.1445536455e-01	 1.4517934152e+00	-1.8498334683e+00
 6.0080955579e-01	 1.4574935311e+00	-1.8081447129e+00
 5.8713655183e-01	 1.4630550861e+00	-1.7620808517e+00
 5.7343837294e-01	 1.4684781061e+00	-1.7180206213e+00
 5.5971703083e-01	 1.4737626542e+00	-1.6802829666e+00
 5.4597452784e-01	 1.4789088310e+00	-1.6485038069e+00
 6.8475082218e-01	 1.4265192400e+00	-1.9767397901e+00
 6.7122123692e-01	 1.4329350584e+00	-1.9613609291e+00
 6.5765411739e-01	 1.4392122471e+00	-1.9400221907e+00
 6.4405152131e-01	 1.4453506385e+00	-1.9130866373e+00
 6.3041550219e-01	 1.4513501042e+00	-1.8809037164e+00
 6.1674810845e-01	 1.4572105549e+00	-1.8438079669e+00
 6.0305138249e-01	 1.4629319398e+00	-1.8021180035e+00
 5.8932735986e-01	 1.4685142469e+00	-1.7561357751e+00
 5.7557806836e-01	 1.4739575020e+00	-1.7106746873e+00
 5.6180552722e-01	 1.4792617686e+00	-1.6717441655e+00
 5.4801174623e-01	 1.4844271476e+00	-1.6390006416e+00
 6.8729636427e-01	 1.4318222855e+00	-1.9723961492e+00
 6.7371648316e-01	 1.4382619545e+00	-1.9563920293e+00
 6.6009892824e-01	 1.4445624785e+00	-1.9345487353e+00
 6.4644576488e-01	 1.4507236892e+00	-1.9072310748e+00
 6.3275905424e-01	 1.4567454578e+00	-1.8747891091e+00
 6.1904085234e-01	 1.4626276945e+00	-1.8375568509e+00
 6.0529320919e-01	 1.4683703485e+00	-1.7958512482e+00
 5.9151816789e-01	 1.4739734077e+00	-1.7499714511e+00
 5.7771776378e-01	 1.4794368979e+00	-1.7033227805e+00
 5.6389402360e-01	 1.4847608830e+00	-1.6631736297e+00
 5.5004896461e-01	 1.4899454641e+00	-1.6294439097e+00
 5.2967678074e-01	 1.4347622988e+00	-1.7297883617e+00
 5.1632590516e-01	 1.4396207506e+00	-1.7057052582e+00
 5.0295835505e-01	 1.4443452631e+00	-1.6797753039e+00
 4.8957604097e-01	 1.4489360394e+00	-1.6520880555e+00
 4.7618086136e-01	 1.4533933168e+00	-1.6227066188e+00
 4.6277470176e-01	 1.4577173668e+00	-1.5916698384e+00
 4.4935943415e-01	 1.4619084940e+00	-1.5589944101e+00
 4.3593691620e-01	 1.4659670362e+00	-1.5246769094e+00
 4.2250899067e-01	 1.4698933631e+00	-1.4886957344e+00
 4.0907748475e-01	 1.4736878766e+00	-1.4510129577e+00
 3.9564420938e-01	 1.4773510096e+00	-1.4115760860e+00
 5.3171399913e-01	 1.4402806153e+00	-1.7185649219e+00
 5.1831177403e-01	 1.4451577535e+00	-1.6938773839e+00
 5.0489281026e-01	 1.4499004372e+00	-1.6673299141e+00
 4.9145902574e-01	 1.4545088703e+00	-1.6390077593e+00
 4.7801232621e-01	 1.4589832911e+00	-1.6089702260e+00
 4.6455460446e-01	 1.4633239720e+00	-1.5772528987e+00
 4.5108773966e-01	 1.4675312190e+00	-1.5438697776e+00
 4.3761359665e-01	 1.4716053709e+00	-1.5088153305e+00
 4.2413402525e-01	 1.4755467991e+00	-1.4720664546e+00
 4.1065085969e-01	 1.4793559068e+00	-1.4335843457e+00
 3.9716591787e-01	 1.4830331289e+00	-1.3933162717e+00
 5.3375121751e-01	 1.4457989318e+00	-1.7077621346e+00
 5.2029764290e-01	 1.4506947564e+00	-1.6824351956e+00
 5.0682726547e-01	 1.4554556113e+00	-1.6552472233e+00
 4.9334201051e-01	 1.4600817012e+00	-1.6262780749e+00
 4.7984379106e-01	 1.4645732654e+00	-1.5955821696e+00
 4.6633450716e-01	 1.4689305773e+00	-1.5631907375e+00
 4.5281604518e-01	 1.4731539440e+00	-1.5291139846e+00
 4.3929027709e-01	 1.4772437057e+00	-1.4933431687e+00
 4.2575905983e-01	 1.4812002351e+00	-1.4558525833e+00
 4.1222423463e-01	 1.4850239371e+00	-1.4166014451e+00
 3.9868762637e-01	 1.4887152481e+00	-1.3755356829e+00
 5.3578843590e-01	 1.4513172484e+00	-1.6973219375e+00
 5.2228351176e-01	 1.4562317593e+00	-1.6713231125e+00
 5.0876172068e-01	 1.4610107854e+00	-1.6434738253e+00
 4.9522499529e-01	 1.4656545321e+00	-1.6138474684e+00
 4.8167525591e-01	 1.4701632397e+00	-1.5824924909e+00
 4.6811440986e-01	 1.4745371826e+00	-1.5494346795e+00
 4.5454435069e-01	 1.4787766690e+00	-1.5146793526e+00
 4.4096695754e-01	 1.4828820404e+00	-1.4782134623e+00
 4.2738409441e-01	 1.4868536711e+00	-1.4400076017e+00
 4.1379760957e-01	 1.4906919674e+00	-1.4000179121e+00
 4.0020933487e-01	 1.4943973674e+00	-1.3581878896e+00
 5.3782565429e-01	 1.4568355649e+00	-1.6871859329e+00
 5.2426938063e-01	 1.4617687622e+00	-1.6604852441e+00
 5.1069617589e-01	 1.4665659595e+00	-1.6319560332e+00
 4.9710798006e-01	 1.4712273630e+00	-1.6016641584e+00
 4.8350672076e-01	 1.4757532140e+00	-1.5696510205e+00
 4.6989431256e-01	 1.4801437878e+00	-1.5359358789e+00
 4.5627265621e-01	 1.4843993940e+00	-1.5005180765e+00
 4.4264363799e-01	 1.4885203752e+00	-1.4633791698e+00
 4.2900912899e-01	 1.4925071071e+00	-1.4244849604e+00
 4.1537098451e-01	 1.4963599977e+00	-1.3837874248e+00
 4.0173104337e-01	 1.5000794867e+00	-1.3412265391e+00
 5.3986287268e-01	 1.4623538814e+00	-1.6772953814e+00
 5.2625524949e-01	 1.4673057651e+00	-1.6498653832e+00
 5.1263063110e-01	 1.4721211336e+00	-1.6206398737e+00
 4.9899096483e-01	 1.4768001940e+00	-1.5896761100e+00
 4.8533818562e-01	 1.4813431883e+00	-1.5570073720e+00
 4.7167421526e-01	 1.4857503931e+00	-1.5226453130e+00
 4.5800096173e-01	 1.4900221189e+00	-1.4865822177e+00
 4.4432031843e-01	 1.4941587099e+00	-1.4487931621e+00
 4.3063416357e-01	 1.4981605431e+00	-1.4092380720e+00
 4.1694435945e-01	 1.5020280280e+00	-1.3678636752e+00
 4.0325275186e-01	 1.5057616060e+00	-1.3246053470e+00
 5.4190009106e-01	 1.4678721980e+00	-1.6675911963e+00
 5.2824111836e-01	 1.4728427680e+00	-1.6394070014e+00
 5.1456508632e-01	 1.4776763077e+00	-1.6094710806e+00
 5.0087394961e-01	 1.4823730249e+00	-1.5778310290e+00
 4.8716965047e-01	 1.4869331626e+00	-1.5445109364e+00
 4.7345411796e-01	 1.4913569983e+00	-1.5095137759e+00
 4.5972926724e-01	 1.4956448439e+00	-1.4728236969e+00
 4.4599699888e-01	 1.4997970447e+00	-1.4344082160e+00
 4.3225919815e-01	 1.5038139791e+00	-1.3942203033e+00
 4.1851773440e-01	 1.5076960583e+00	-1.3522003607e+00
 4.0477446036e-01	 1.5114437252e+00	-1.3082780884e+00
 5.4393730945e-01	 1.4733905145e+00	-1.6580139376e+00
 5.3022698723e-01	 1.4783797709e+00	-1.6290532426e+00
 5.1649954153e-01	 1.4832314817e+00	-1.5983950901e+00
 5.0275693438e-01	 1.4879458558e+00	-1.5660763558e+00
 4.8900111532e-01	 1.4925231369e+00	-1.5321108751e+00
 4.7523402066e-01	 1.4969636036e+00	-1.4964918722e+00
 4.6145757276e-01	 1.5012675689e+00	-1.4591942882e+00
 4.4767367933e-01	 1.5054353794e+00	-1.4201770063e+00
 4.3388423273e-01	 1.5094674152e+00	-1.3793849680e+00
 4.2009110934e-01	 1.5133640886e+00	-1.3367511768e+00
 4.0629616886e-01	 1.5171258445e+00	-1.2921985895e+00
 5.4597452784e-01	 1.4789088310e+00	-1.6485038069e+00
 5.3221285609e-01	 1.4839167737e+00	-1.6187469176e+00
 5.1843399674e-01	 1.4887866558e+00	-1.5873570344e+00
 5.0463991915e-01	 1.4935186867e+00	-1.5543592598e+00
 4.9083258017e-01	 1.4981131112e+00	-1.5197561153e+00
 4.7701392336e-01	 1.5025702088e+00	-1.4835300108e+00
 4.6318587827e-01	 1.5068902939e+00	-1.4456456120e+00
 4.4935035977e-01	 1.5110737142e+00	-1.4060521002e+00
 4.3550926731e-01	 1.5151208512e+00	-1.3646853192e+00
 4.2166448428e-01	 1.5190321189e+00	-1.3214698087e+00
 4.0781787736e-01	 1.5228079638e+00	-1.2763207192e+00
 5.4801174623e-01	 1.4844271476e+00	-1.6390006416e+00
 5.3419872496e-01	 1.4894537766e+00	-1.6084304991e+00
 5.2036845195e-01	 1.4943418299e+00	-1.5763017367e+00
 5.0652290392e-01	 1.4990915176e+00	-1.5426266343e+00
 4.9266404502e-01	 1.5037030855e+00	-1.5073953432e+00
 4.7879382606e-01	 1.5081768141e+00	-1.4705783992e+00
 4.6491418379e-01	 1.5125130188e+00	-1.4321291295e+00
 4.5102704022e-01	 1.5167120490e+00	-1.3919859494e+00
 4.3713430189e-01	 1.5207742872e+00	-1.3500745426e+00
 4.2323785922e-01	 1.5247001492e+00	-1.3063099239e+00
 4.0933958585e-01	 1.5284900830e+00	-1.2605983809e+00
 5.5004896461e-01	 1.4899454641e+00	-1.6294439097e+00
 5.3618459382e-01	 1.4949907795e+00	-1.5980461161e+00
 5.2230290716e-01	 1.4998970040e+00	-1.5651737059e+00
 5.0840588870e-01	 1.5046643486e+00	-1.5308250905e+00
 4.9449550987e-01	 1.5092930597e+00	-1.4949769992e+00
 4.8057372876e-01	 1.5137834194e+00	-1.4575870374e+00
 4.6664248931e-01	 1.5181357438e+00	-1.4185961359e+00
 4.5270372067e-01	 1.5223503837e+00	-1.3779308847e+00
 4.3875933647e-01	 1.5264277232e+00	-1.3355057493e+00
 4.2481123416e-01	 1.5303681795e+00	-1.2912251648e+00
 4.1086129435e-01	 1.5341722023e+00	-1.2449855049e+00
 3.9564420938e-01	 1.4773510096e+00	-1.4115760860e+00
 3.8221095870e-01	 1.4808832260e+00	-1.3722442595e+00
 3.6877950944e-01	 1.4842850196e+00	-1.3348198929e+00
 3.5535162036e-01	 1.4875569138e+00	-1.2991547341e+00
 3.4192903166e-01	 1.4906994611e+00	-1.2651004965e+00
 3.2851346452e-01	 1.4937132421e+00	-1.2325099839e+00
 3.1510662054e-01	 1.4965988653e+00	-1.2012381099e+00
 3.0171018126e-01	 1.4993569664e+00	-1.1711428111e+00
 2.8832580772e-01	 1.5019882072e+00	-1.1420858574e+00
 2.7495513998e-01	 1.5044932758e+00	-1.1139335601e+00
 2.6159979672e-01	 1.5068728853e+00	-1.0865573814e+00
 3.9716591787e-01	 1.4830331289e+00	-1.3933162717e+00
 3.8368100085e-01	 1.4865789307e+00	-1.3531736908e+00
 3.7019789217e-01	 1.4899938081e+00	-1.3150066300e+00
 3.5671835736e-01	 1.4932782866e+00	-1.2786601245e+00
 3.4324414332e-01	 1.4964329206e+00	-1.2439793259e+00
 3.2977697785e-01	 1.4994582930e+00	-1.2108106478e+00
 3.1631856908e-01	 1.5023550148e+00	-1.1790028033e+00
 3.0287060503e-01	 1.5051237239e+00	-1.1484077346e+00
 2.8943475313e-01	 1.5077650849e+00	-1.1188814363e+00
 2.7601265975e-01	 1.5102797884e+00	-1.0902846762e+00
 2.6260594978e-01	 1.5126685502e+00	-1.0624836128e+00
 3.9868762637e-01	 1.4887152481e+00	-1.3755356829e+00
 3.8515104300e-01	 1.4922746354e+00	-1.3346146837e+00
 3.7161627490e-01	 1.4957025967e+00	-1.2957322974e+00
 3.5808509436e-01	 1.4989996593e+00	-1.2587266983e+00
 3.4455925498e-01	 1.5021663800e+00	-1.2234363938e+00
 3.3104049117e-01	 1.5052033440e+00	-1.1897013898e+00
 3.1753051762e-01	 1.5081111643e+00	-1.1573642454e+00
 3.0403102881e-01	 1.5108904815e+00	-1.1262710172e+00
 2.9054369854e-01	 1.5135419627e+00	-1.0962720956e+00
 2.7707017951e-01	 1.5160663010e+00	-1.0672229346e+00
 2.6361210285e-01	 1.5184642152e+00	-1.0389846788e+00
 4.0020933487e-01	 1.4943973674e+00	-1.3581878896e+00
 3.8662108514e-01	 1.4979703402e+00	-1.3165208853e+00
 3.7303465763e-01	 1.5014113852e+00	-1.2769511992e+00
 3.5945183136e-01	 1.5047210321e+00	-1.2393099916e+00
 3.4587436664e-01	 1.5078998395e+00	-1.2034290383e+00
 3.3230400450e-01	 1.5109483949e+00	-1.1691419150e+00
 3.1874246616e-01	 1.5138673138e+00	-1.1362850679e+00
 3.0519145258e-01	 1.5166572390e+00	-1.1046987716e+00
 2.9165264396e-01	 1.5193188404e+00	-1.0742279768e+00
 2.7812769928e-01	 1.5218528136e+00	-1.0447230488e+00
 2.6461825591e-01	 1.5242598801e+00	-1.0160404011e+00
 4.0173104337e-01	 1.5000794867e+00	-1.3412265391e+00
 3.8809112729e-01	 1.5036660449e+00	-1.2988460715e+00
 3.7445304036e-01	 1.5071201738e+00	-1.2586178093e+00
 3.6081856836e-01	 1.5104424048e+00	-1.2203657411e+00
 3.4718947830e-01	 1.5136332990e+00	-1.1839148190e+00
 3.3356751782e-01	 1.5166934458e+00	-1.1490921608e+00
 3.1995441470e-01	 1.5196234633e+00	-1.1157281354e+00
 3.0635187635e-01	 1.5224239966e+00	-1.0836573337e+00
 2.9276158937e-01	 1.5250957181e+00	-1.0527194258e+00
 2.7918521905e-01	 1.5276393262e+00	-1.0227599072e+00
 2.6562440898e-01	 1.5300555450e+00	-9.9363073760e-01
 4.0325275186e-01	 1.5057616060e+00	-1.3246053470e+00
 3.8956116944e-01	 1.5093617496e+00	-1.2815441370e+00
 3.7587142308e-01	 1.5128289623e+00	-1.2406867612e+00
 3.6218530536e-01	 1.5161637776e+00	-1.2018498741e+00
 3.4850458996e-01	 1.5193667584e+00	-1.1648515068e+00
 3.3483103115e-01	 1.5224384968e+00	-1.1295122865e+00
 3.2116636324e-01	 1.5253796127e+00	-1.0956565357e+00
 3.0751230013e-01	 1.5281907542e+00	-1.0631132540e+00
 2.9387053479e-01	 1.5308725958e+00	-1.0317169845e+00
 2.8024273882e-01	 1.5334258388e+00	-1.0013085663e+00
 2.6663056204e-01	 1.5358512100e+00	-9.7173577624e-01
 4.0477446036e-01	 1.5114437252e+00	-1.3082780884e+00
 3.9103121159e-01	 1.5150574543e+00	-1.2645690863e+00
 3.7728980581e-01	 1.5185377508e+00	-1.2231128387e+00
 3.6355204236e-01	 1.5218851503e+00	-1.1837184984e+00
 3.4981970162e-01	 1.5251002179e+00	-1.1461970741e+00
 3.3609454447e-01	 1.5281835477e+00	-1.1103626643e+00
 3.2237831178e-01	 1.5311357622e+00	-1.0760335705e+00
 3.0867272390e-01	 1.5339575117e+00	-1.0430332886e+00
 2.9497948020e-01	 1.5366494735e+00	-1.0111913827e+00
 2.8130025859e-01	 1.5392123514e+00	-9.8034424270e-01
 2.6763671511e-01	 1.5416468749e+00	-9.5033572860e-01
 4.0629616886e-01	 1.5171258445e+00	-1.2921985895e+00
 3.9250125374e-01	 1.5207531590e+00	-1.2478750249e+00
 3.7870818854e-01	 1.5242465394e+00	-1.2058509662e+00
 3.6491877937e-01	 1.5276065231e+00	-1.1659278933e+00
 3.5113481328e-01	 1.5308336774e+00	-1.1279096852e+00
 3.3735805780e-01	 1.5339285986e+00	-1.0916038695e+00
 3.2359026032e-01	 1.5368919117e+00	-1.0568227466e+00
 3.0983314768e-01	 1.5397242693e+00	-1.0233843907e+00
 2.9608842562e-01	 1.5424263513e+00	-9.9111352989e-01
 2.8235777836e-01	 1.5449988640e+00	-9.5984230667e-01
 2.6864286817e-01	 1.5474425399e+00	-9.2941092384e-01
 4.0781787736e-01	 1.5228079638e+00	-1.2763207192e+00
 3.9397129589e-01	 1.5264488637e+00	-1.2314161499e+00
 3.8012657127e-01	 1.5299553279e+00	-1.1888561999e+00
 3.6628551637e-01	 1.5333278958e+00	-1.1484344996e+00
 3.5244992494e-01	 1.5365671368e+00	-1.1099476871e+00
 3.3862157112e-01	 1.5396736496e+00	-1.0731966711e+00
 3.2480220886e-01	 1.5426480612e+00	-1.0379877664e+00
 3.1099357145e-01	 1.5454910269e+00	-1.0041337023e+00
 2.9719737103e-01	 1.5482032290e+00	-9.7145450786e-01
 2.8341529813e-01	 1.5507853766e+00	-9.3977827476e-01
 2.6964902123e-01	 1.5532382048e+00	-9.0894180272e-01
 4.0933958585e-01	 1.5284900830e+00	-1.2605983809e+00
 3.9544133804e-01	 1.5321445684e+00	-1.2151467419e+00
 3.8154495400e-01	 1.5356641164e+00	-1.1720837185e+00
 3.6765225337e-01	 1.5390492686e+00	-1.1311949110e+00
 3.5376503660e-01	 1.5423005963e+00	-1.0922696001e+00
 3.3988508445e-01	 1.5454187005e+00	-1.0551020234e+00
 3.2601415740e-01	 1.5484042107e+00	-1.0194925199e+00
 3.1215399522e-01	 1.5512577844e+00	-9.8524854578e-01
 2.9830631644e-01	 1.5539801067e+00	-9.5218556291e-01
 2.8447281790e-01	 1.5565718892e+00	-9.2012780318e-01
 2.7065517430e-01	 1.5590338698e+00	-8.8890891175e-01
 4.1086129435e-01	 1.5341722023e+00	-1.2449855049e+00
 3.9691138019e-01	 1.5378402732e+00	-1.1990211560e+00
 3.8296333673e-01	 1.5413729050e+00	-1.1554888145e+00
 3.6901899037e-01	 1.5447706413e+00	-1.1141658646e+00
 3.5508014826e-01	 1.5480340558e+00	-1.0748341090e+00
 3.4114859777e-01	 1.5511637514e+00	-1.0372810566e+00
 3.2722610594e-01	 1.5541603602e+00	-1.0013010757e+00
 3.1331441900e-01	 1.5570245420e+00	-9.6669641584e-01
 2.9941526186e-01	 1.5597569844e+00	-9.3327809849e-01
 2.8553033767e-01	 1.5623584018e+00	-9.0086668116e-01
 2.7166132736e-01	 1.5648295347e+00	-8.6929289748e-01
 2.6159979672e-01	 1.5068728853e+00	-1.0865573814e+00
 2.4826137483e-01	 1.5091277732e+00	-1.0601911433e+00
 2.3494144902e-01	 1.5112587011e+00	-1.0351361184e+00
 2.2164157145e-01	 1.5132664537e+00	-1.0113740186e+00
 2.0836327141e-01	 1.5151518383e+00	-9.8889313543e-01
 1.9510805498e-01	 1.5169156842e+00	-9.6768834351e-01
 1.8187740473e-01	 1.5185588417e+00	-9.4776102841e-01
 1.6867277945e-01	 1.5200821818e+00	-9.2911894432e-01
 1.5549561388e-01	 1.5214865954e+00	-9.1177600532e-01
 1.4234731847e-01	 1.5227729926e+00	-8.9575201493e-01
 1.2922927914e-01	 1.5239423019e+00	-8.8107233830e-01
 2.6260594978e-01	 1.5126685502e+00	-1.0624836128e+00
 2.4921622627e-01	 1.5149321108e+00	-1.0357192621e+00
 2.3584506997e-01	 1.5170712345e+00	-1.0103005376e+00
 2.2249403903e-01	 1.5190867093e+00	-9.8620540482e-01
 2.0916466860e-01	 1.5209793454e+00	-9.6341933212e-01
 1.9585847057e-01	 1.5227499753e+00	-9.4193527707e-01
 1.8257693321e-01	 1.5243994526e+00	-9.2175359582e-01
 1.6932152091e-01	 1.5259286518e+00	-9.0288187989e-01
 1.5609367394e-01	 1.5273384670e+00	-8.8533472481e-01
 1.4289480816e-01	 1.5286298118e+00	-8.6913343546e-01
 1.2972631483e-01	 1.5298036184e+00	-8.5430567241e-01
 2.6361210285e-01	 1.5184642152e+00	-1.0389846788e+00
 2.5017107771e-01	 1.5207364484e+00	-1.0118097067e+00
 2.3674869093e-01	 1.5228837680e+00	-9.8601859216e-01
 2.2334650661e-01	 1.5249069649e+00	-9.6158560954e-01
 2.0996606580e-01	 1.5268068525e+00	-9.3849339011e-01
 1.9660888617e-01	 1.5285842664e+00	-9.1673289303e-01
 1.8327646169e-01	 1.5302400635e+00	-8.9630329736e-01
 1.6997026237e-01	 1.5317751217e+00	-8.7721181953e-01
 1.5669173399e-01	 1.5331903385e+00	-8.5947346102e-01
 1.4344229784e-01	 1.5344866310e+00	-8.4311069093e-01
 1.3022335052e-01	 1.5356649350e+00	-8.2815306812e-01
 2.6461825591e-01	 1.5242598801e+00	-1.0160404011e+00
 2.5112592916e-01	 1.5265407859e+00	-9.8844713766e-01
 2.3765231189e-01	 1.5286963015e+00	-9.6227871067e-01
 2.2419897419e-01	 1.5307272205e+00	-9.3750576031e-01
 2.1076746300e-01	 1.5326343595e+00	-9.1410806932e-01
 1.9735930176e-01	 1.5344185575e+00	-8.9207452010e-01
 1.8397599017e-01	 1.5360806745e+00	-8.7140297077e-01
 1.7061900383e-01	 1.5376215916e+00	-8.5210005494e-01
 1.5728979404e-01	 1.5390422100e+00	-8.3418090980e-01
 1.4398978753e-01	 1.5403434502e+00	-8.1766883749e-01
 1.3072038621e-01	 1.5415262515e+00	-8.0259490469e-01
 2.6562440898e-01	 1.5300555450e+00	-9.9363073760e-01
 2.5208078060e-01	 1.5323451235e+00	-9.6561631528e-01
 2.3855593285e-01	 1.5345088349e+00	-9.3906939973e-01
 2.2505144178e-01	 1.5365474760e+00	-9.1395705543e-01
 2.1156886020e-01	 1.5384618666e+00	-8.9025620753e-01
 1.9810971736e-01	 1.5402528485e+00	-8.6795358637e-01
 1.8467551865e-01	 1.5419212854e+00	-8.4704558921e-01
 1.7126774529e-01	 1.5434680615e+00	-8.2753806356e-01
 1.5788785410e-01	 1.5448940815e+00	-8.0944601730e-01
 1.4453727721e-01	 1.5462002694e+00	-7.9279326038e-01
 1.3121742190e-01	 1.5473875681e+00	-7.7761198336e-01
 2.6663056204e-01	 1.5358512100e+00	-9.7173577624e-01
 2.5303563204e-01	 1.5381494611e+00	-9.4330209439e-01
 2.3945955381e-01	 1.5403213684e+00	-9.1637923922e-01
 2.2590390936e-01	 1.5423677316e+00	-8.9093075956e-01
 2.1237025740e-01	 1.5442893737e+00	-8.6693071613e-01
 1.9886013296e-01	 1.5460871396e+00	-8.4436361507e-01
 1.8537504713e-01	 1.5477618963e+00	-8.2322425650e-01
 1.7191648675e-01	 1.5493145315e+00	-8.0351750306e-01
 1.5848591415e-01	 1.5507459530e+00	-7.8525797349e-01
 1.4508476690e-01	 1.5520570886e+00	-7.6846966616e-01
 1.3171445758e-01	 1.5532488846e+00	-7.5318551802e-01
 2.6763671511e-01	 1.5416468749e+00	-9.5033572860e-01
 2.5399048348e-01	 1.5439537987e+00	-9.2148941903e-01
 2.4036317476e-01	 1.5461339019e+00	-8.9419687776e-01
 2.2675637694e-01	 1.5481879872e+00	-8.6841819953e-01
 2.1317165459e-01	 1.5501168807e+00	-8.4412457612e-01
 1.9961054855e-01	 1.5519214307e+00	-8.2129822023e-01
 1.8607457561e-01	 1.5536025073e+00	-7.9993220235e-01
 1.7256522821e-01	 1.5551610014e+00	-7.8003020594e-01
 1.5908397420e-01	 1.5565978246e+00	-7.6160620579e-01
 1.4563225659e-01	 1.5579139078e+00	-7.4468407505e-01
 1.3221149327e-01	 1.5591102011e+00	-7.2929712601e-01
 2.6864286817e-01	 1.5474425399e+00	-9.2941092384e-01
 2.5494533492e-01	 1.5497581363e+00	-9.0016331726e-01
 2.4126679572e-01	 1.5519464353e+00	-8.7251102816e-01
 2.2760884452e-01	 1.5540082428e+00	-8.4641076021e-01
 2.1397305179e-01	 1.5559443878e+00	-8.2183083402e-01
 2.0036096415e-01	 1.5577557218e+00	-7.9875110256e-01
 1.8677410409e-01	 1.5594431182e+00	-7.7716277789e-01
 1.7321396967e-01	 1.5610074713e+00	-7.5706817424e-01
 1.5968203426e-01	 1.5624496961e+00	-7.3848037280e-01
 1.4617974627e-01	 1.5637707270e+00	-7.2142281348e-01
 1.3270852896e-01	 1.5649715177e+00	-7.0592881920e-01
 2.6964902123e-01	 1.5532382048e+00	-9.0894180272e-01
 2.5590018636e-01	 1.5555624739e+00	-8.7930889610e-01
 2.4217041668e-01	 1.5577589688e+00	-8.5131046299e-01
 2.2846131211e-01	 1.5598284984e+00	-8.2489988053e-01
 2.1477444899e-01	 1.5617718949e+00	-8.0004259802e-01
 2.0111137974e-01	 1.5635900129e+00	-7.7671604541e-01
 1.8747363257e-01	 1.5652837291e+00	-7.5490945111e-01
 1.7386271113e-01	 1.5668539413e+00	-7.3462357443e-01
 1.6028009431e-01	 1.5683015676e+00	-7.1587035821e-01
 1.4672723596e-01	 1.5696275462e+00	-6.9867250680e-01
 1.3320556465e-01	 1.5708328342e+00	-6.8306299524e-01
 2.7065517430e-01	 1.5590338698e+00	-8.8890891175e-01
 2.5685503781e-01	 1.5613668115e+00	-8.5891133659e-01
 2.4307403764e-01	 1.5635715023e+00	-8.3058401032e-01
 2.2931377969e-01	 1.5656487540e+00	-8.0387704945e-01
 2.1557584619e-01	 1.5675994019e+00	-7.7875303411e-01
 2.0186179534e-01	 1.5694243040e+00	-7.5518691077e-01
 1.8817316105e-01	 1.5711243401e+00	-7.3316580252e-01
 1.7451145259e-01	 1.5727004112e+00	-7.1268873236e-01
 1.6087815436e-01	 1.5741534391e+00	-6.9376626491e-01
 1.4727472565e-01	 1.5754843654e+00	-6.7642007215e-01
 1.3370260034e-01	 1.5766941508e+00	-6.6068242899e-01
 2.7166132736e-01	 1.5648295347e+00	-8.6929289748e-01
 2.5780988925e-01	 1.5671711491e+00	-8.3895588898e-01
 2.4397765859e-01	 1.5693840357e+00	-8.1032054946e-01
 2.3016624727e-01	 1.5714690096e+00	-7.8333380221e-01
 2.1637724338e-01	 1.5734269090e+00	-7.5795536240e-01
 2.0261221094e-01	 1.5752585951e+00	-7.3415763539e-01
 1.8887268953e-01	 1.5769649510e+00	-7.1192552088e-01
 1.7516019405e-01	 1.5785468811e+00	-6.9125612830e-01
 1.6147621442e-01	 1.5800053106e+00	-6.7215840907e-01
 1.4782221533e-01	 1.5813411846e+00	-6.5465271151e-01
 1.3419963603e-01	 1.5825554673e+00	-6.3877026416e-01
 1.2922927914e-01	 1.5239423019e+00	-8.8107233830e-01
 1.1614285711e-01	 1.5249954698e+00	-8.6773326885e-01
 1.0308938871e-01	 1.5259334599e+00	-8.5574209772e-01
 9.0070185178e-02	 1.5267572524e+00	-8.4514751387e-01
 7.7086532569e-02	 1.5274678434e+00	-8.3600160406e-01
 6.4139691588e-02	 1.5280662440e+00	-8.2835927450e-01
 5.1230897497e-02	 1.5285534800e+00	-8.2227764444e-01
 3.8361360020e-02	 1.5289305910e+00	-8.1781541587e-01
 2.5532263268e-02	 1.5291986299e+00	-8.1503222391e-01
 1.2744765684e-02	 1.5293586620e+00	-8.1398797196e-01
 0.0000000000e+00	 1.5294117647e+00	-8.1474215564e-01
 1.2972631483e-01	 1.5298036184e+00	-8.5430567241e-01
 1.1658956041e-01	 1.5308608369e+00	-8.4084658161e-01
 1.0348588636e-01	 1.5318024347e+00	-8.2875821080e-01
 9.0416608968e-02	 1.5326293957e+00	-8.1808601123e-01
 7.7383019233e-02	 1.5333427197e+00	-8.0887886891e-01
 6.4386382709e-02	 1.5339434218e+00	-8.0118851976e-01
 5.1427939410e-02	 1.5344325318e+00	-7.9506893605e-01
 3.8508903712e-02	 1.5348110933e+00	-7.9057568848e-01
 2.5630464281e-02	 1.5350801630e+00	-7.8776528845e-01
 1.2793784013e-02	 1.5352408107e+00	-7.8669451468e-01
 0.0000000000e+00	 1.5352941176e+00	-7.8741972848e-01
 1.3022335052e-01	 1.5356649350e+00	-8.2815306812e-01
 1.1703626371e-01	 1.5367262041e+00	-8.1458986611e-01
 1.0388238401e-01	 1.5376714096e+00	-8.0241383803e-01
 9.0763032757e-02	 1.5385015390e+00	-7.9166784606e-01
 7.7679505897e-02	 1.5392175960e+00	-7.8239832702e-01
 6.4633073831e-02	 1.5398205997e+00	-7.7465469743e-01
 5.1624981324e-02	 1.5403115837e+00	-7.6848872925e-01
 3.8656447405e-02	 1.5406915955e+00	-7.6395390067e-01
 2.5728665293e-02	 1.5409616962e+00	-7.6110472658e-01
 1.2842802343e-02	 1.5411229594e+00	-7.5999607306e-01
 0.0000000000e+00	 1.5411764706e+00	-7.6068246016e-01
 1.3072038621e-01	 1.5415262515e+00	-8.0259490469e-01
 1.1748296700e-01	 1.5425915713e+00	-7.8893895678e-01
 1.0427888165e-01	 1.5435403844e+00	-7.7668155825e-01
 9.1109456546e-02	 1.5443736822e+00	-7.6586361950e-01
 7.7975992560e-02	 1.5450924723e+00	-7.5652986777e-01
 6.4879764952e-02	 1.5456977776e+00	-7.4872823864e-01
 5.1822023237e-02	 1.5461906355e+00	-7.4250923740e-01
 3.8803991097e-02	 1.5465720978e+00	-7.3792527497e-01
 2.5826866306e-02	 1.5468432294e+00	-7.3502998292e-01
 1.2891820672e-02	 1.5470051081e+00	-7.3387751219e-01
 0.0000000000e+00	 1.5470588235e+00	-7.3452181969e-01
 1.3121742190e-01	 1.5473875681e+00	-7.7761198336e-01
 1.1792967030e-01	 1.5484569385e+00	-7.6387019934e-01
 1.0467537930e-01	 1.5494093593e+00	-7.5153452980e-01
 9.1455880335e-02	 1.5502458255e+00	-7.4064455948e-01
 7.8272479224e-02	 1.5509673486e+00	-7.3124403398e-01
 6.5126456074e-02	 1.5515749554e+00	-7.2338023409e-01
 5.2019065151e-02	 1.5520696874e+00	-7.1710331933e-01
 3.8951534789e-02	 1.5524526001e+00	-7.1246564527e-01
 2.5925067318e-02	 1.5527247626e+00	-7.0952105960e-01
 1.2940839002e-02	 1.5528872568e+00	-7.0832418133e-01
 0.0000000000e+00	 1.5529411765e+00	-7.0892966762e-01
 1.3171445758e-01	 1.5532488846e+00	-7.5318551802e-01
 1.1837637360e-01	 1.5543223057e+00	-7.3936043992e-01
 1.0507187695e-01	 1.5552783341e+00	-7.2694647852e-01
 9.1802304124e-02	 1.5561179688e+00	-7.1598250803e-01
 7.8568965888e-02	 1.5568422250e+00	-7.0651200882e-01
 6.5373147195e-02	 1.5574521333e+00	-6.9858242103e-01
 5.2216107064e-02	 1.5579487392e+00	-6.9224446670e-01
 3.9099078482e-02	 1.5583331024e+00	-6.8755144498e-01
 2.6023268331e-02	 1.5586062958e+00	-6.8455850554e-01
 1.2989857332e-02	 1.5587694055e+00	-6.8332190468e-01
 0.0000000000e+00	 1.5588235294e+00	-6.8389824870e-01
 1.3221149327e-01	 1.5591102011e+00	-7.2929712601e-01
 1.1882307689e-01	 1.5601876729e+00	-7.1538701447e-01
 1.0546837460e-01	 1.5611473089e+00	-7.0289168605e-01
 9.2148727913e-02	 1.5619901121e+00	-6.9184990884e-01
 7.8865452551e-02	 1.5627171013e+00	-6.8230560304e-01
 6.5619838317e-02	 1.5633293111e+00	-6.7430717048e-01
 5.2413148978e-02	 1.5638277911e+00	-6.6790679166e-01
 3.9246622174e-02	 1.5642136046e+00	-6.6315969540e-01
 2.6121469343e-02	 1.5644878290e+00	-6.6012340594e-01
 1.3038875661e-02	 1.5646515542e+00	-6.5885697231e-01
 0.0000000000e+00	 1.5647058824e+00	-6.5942018467e-01
 1.3270852896e-01	 1.5649715177e+00	-7.0592881920e-01
 1.1926978019e-01	 1.5660530401e+00	-6.9192773833e-01
 1.0586487225e-01	 1.5670162838e+00	-6.7934497840e-01
 9.2495151702e-02	 1.5678622554e+00	-6.6821979512e-01
 7.9161939215e-02	 1.5685919776e+00	-6.5859724252e-01
 6.5866529438e-02	 1.5692064890e+00	-6.5052747478e-01
 5.2610190891e-02	 1.5697068429e+00	-6.4406501476e-01
 3.9394165866e-02	 1.5700941069e+00	-6.3926799442e-01
 2.6219670356e-02	 1.5703693622e+00	-6.3619737206e-01
 1.3087893991e-02	 1.5705337029e+00	-6.3491613138e-01
 0.0000000000e+00	 1.5705882353e+00	-6.3548846715e-01
 1.3320556465e-01	 1.5708328342e+00	-6.8306299524e-01
 1.1971648349e-01	 1.5719184073e+00	-6.6896089613e-01
 1.0626136990e-01	 1.5728852586e+00	-6.5628171470e-01
 9.2841575492e-02	 1.5737343986e+00	-6.4506577768e-01
 7.9458425879e-02	 1.5744668539e+00	-6.3535995600e-01
 6.6113220560e-02	 1.5750836669e+00	-6.2721693544e-01
 5.2807232805e-02	 1.5755858947e+00	-6.2069445318e-01
 3.9541709559e-02	 1.5759746092e+00	-6.1585450541e-01
 2.6317871368e-02	 1.5762508954e+00	-6.1276253116e-01
 1.3136912320e-02	 1.5764158516e+00	-6.1148657749e-01
 0.0000000000e+00	 1.5764705882e+00	-6.1209645079e-01
 1.3370260034e-01	 1.5766941508e+00	-6.6068242899e-01
 1.2016318678e-01	 1.5777837745e+00	-6.4646523181e-01
 1.0665786755e-01	 1.5787542335e+00	-6.3367777631e-01
 9.3187999281e-02	 1.5796065419e+00	-6.2236203340e-01
 7.9754912543e-02	 1.5803417303e+00	-6.1256736322e-01
 6.6359911681e-02	 1.5809608447e+00	-6.0434975121e-01
 5.3004274718e-02	 1.5814649466e+00	-5.9777100914e-01
 3.9689253251e-02	 1.5818551115e+00	-5.9289794637e-01
 2.6416072381e-02	 1.5821324286e+00	-5.8980151674e-01
 1.3185930650e-02	 1.5822980003e+00	-5.8855594625e-01
 0.0000000000e+00	 1.5823529412e+00	-5.8923784651e-01
 1.3419963603e-01	 1.5825554673e+00	-6.3877026416e-01
 1.2060989008e-01	 1.5836491417e+00	-6.2441993895e-01
 1.0705436520e-01	 1.5846232083e+00	-6.1150955609e-01
 9.3534423070e-02	 1.5854786852e+00	-6.0008329380e-01
 8.0051399206e-02	 1.5862166066e+00	-5.9019366320e-01
 6.6606602803e-02	 1.5868380226e+00	-5.8190070645e-01
 5.3201316631e-02	 1.5873439984e+00	-5.7527115864e-01
 3.9836796944e-02	 1.5877356137e+00	-5.7037757935e-01
 2.6514273394e-02	 1.5880139618e+00	-5.6729745889e-01
 1.3234948979e-02	 1.5881801490e+00	-5.6611230501e-01
 0.0000000000e+00	 1.5882352941e+00	-5.6690671486e-01
 1.5882352941e+00	 0.0000000000e+00	 3.5510060987e+00
 1.5881801490e+00	 1.3234948979e-02	 3.5471418701e+00
 1.5880139618e+00	 2.6514273394e-02	 3.5420064548e+00
 1.5877356137e+00	 3.9836796944e-02	 3.5353963556e+00
 1.5873439984e+00	 5.3201316631e-02	 3.5271346099e+00
 1.5868380226e+00	 6.6606602803e-02	 3.5170723409e+00
 1.5862166066e+00	 8.0051399206e-02	 3.5050901862e+00
 1.5854786852e+00	 9.3534423070e-02	 3.4910996036e+00
 1.5846232083e+00	 1.0705436520e-01	 3.4750440561e+00
 1.5836491417e+00	 1.2060989008e-01	 3.4569000757e+00
 1.5825554673e+00	 1.3419963603e-01	 3.4366782115e+00
 1.5941176471e+00	 0.0000000000e+00	 3.5409384529e+00
 1.5940622977e+00	 1.3283967309e-02	 3.5369479192e+00
 1.5938954950e+00	 2.6612474406e-02	 3.5317781243e+00
 1.5936161160e+00	 3.9984340636e-02	 3.5252078499e+00
 1.5932230503e+00	 5.3398358545e-02	 3.5170433198e+00
 1.5927152005e+00	 6.6853293924e-02	 3.5071197460e+00
 1.5920914829e+00	 8.0347885870e-02	 3.4953027491e+00
 1.5913508285e+00	 9.3880846859e-02	 3.4814896525e+00
 1.5904921832e+00	 1.0745086285e-01	 3.4656106513e+00
 1.5895145089e+00	 1.2105659338e-01	 3.4476298594e+00
 1.5884167839e+00	 1.3469667172e-01	 3.4275462351e+00
 1.6000000000e+00	 0.0000000000e+00	 3.5307264213e+00
 1.5999444464e+00	 1.3332985638e-02	 3.5266114617e+00
 1.5997770282e+00	 2.6710675419e-02	 3.5214059905e+00
 1.5994966183e+00	 4.0131884328e-02	 3.5148715928e+00
 1.5991021021e+00	 5.3595400458e-02	 3.5067982071e+00
 1.5985923783e+00	 6.7099985046e-02	 3.4970056650e+00
 1.5979663592e+00	 8.0644372534e-02	 3.4853451009e+00
 1.5972229717e+00	 9.4227270648e-02	 3.4717002320e+00
 1.5963611580e+00	 1.0784736049e-01	 3.4559885101e+00
 1.5953798760e+00	 1.2150329667e-01	 3.4381621474e+00
 1.5942781004e+00	 1.3519370741e-01	 3.4182090193e+00
 1.6058823529e+00	 0.0000000000e+00	 3.5203610660e+00
 1.6058265951e+00	 1.3382003968e-02	 3.5161257211e+00
 1.6056585613e+00	 2.6808876431e-02	 3.5108849910e+00
 1.6053771205e+00	 4.0279428021e-02	 3.5043837930e+00
 1.6049811540e+00	 5.3792442372e-02	 3.4963963142e+00
 1.6044695562e+00	 6.7346676167e-02	 3.4867275422e+00
 1.6038412355e+00	 8.0940859198e-02	 3.4752146616e+00
 1.6030951150e+00	 9.4573694437e-02	 3.4617283177e+00
 1.6022301329e+00	 1.0824385814e-01	 3.4461737490e+00
 1.6012452432e+00	 1.2194999997e-01	 3.4284917894e+00
 1.6001394170e+00	 1.3569074310e-01	 3.4086597456e+00
 1.6117647059e+00	 0.0000000000e+00	 3.5098334356e+00
 1.6117087438e+00	 1.3431022298e-02	 3.5054838547e+00
 1.6115400945e+00	 2.6907077444e-02	 3.5002099490e+00
 1.6112576228e+00	 4.0426971713e-02	 3.4937405023e+00
 1.6108602058e+00	 5.3989484285e-02	 3.4858344898e+00
 1.6103467340e+00	 6.7593367289e-02	 3.4762825965e+00
 1.6097161119e+00	 8.1237345861e-02	 3.4649085998e+00
 1.6089672583e+00	 9.4920118227e-02	 3.4515706138e+00
 1.6080991077e+00	 1.0864035579e-01	 3.4361622001e+00
 1.6071106104e+00	 1.2239670327e-01	 3.4186133440e+00
 1.6060007335e+00	 1.3618777879e-01	 3.3988913039e+00
 1.6176470588e+00	 0.0000000000e+00	 3.4991345654e+00
 1.6175908925e+00	 1.3480040627e-02	 3.4946789542e+00
 1.6174216277e+00	 2.7005278456e-02	 3.4893755749e+00
 1.6171381251e+00	 4.0574515406e-02	 3.4829376179e+00
 1.6167392577e+00	 5.4186526199e-02	 3.4751093907e+00
 1.6162239119e+00	 6.7840058410e-02	 3.4656678240e+00
 1.6155909882e+00	 8.1533832525e-02	 3.4544238363e+00
 1.6148394016e+00	 9.5266542016e-02	 3.4412235576e+00
 1.6139680826e+00	 1.0903685344e-01	 3.4259494152e+00
 1.6129759776e+00	 1.2284340656e-01	 3.4085210827e+00
 1.6118620501e+00	 1.3668481447e-01	 3.3888962973e+00
 1.6235294118e+00	 0.0000000000e+00	 3.4882554778e+00
 1.6234730412e+00	 1.3529058957e-02	 3.4837040467e+00
 1.6233031609e+00	 2.7103479469e-02	 3.4783764682e+00
 1.6230186274e+00	 4.0722059098e-02	 3.4719708841e+00
 1.6226183095e+00	 5.4383568112e-02	 3.4642174852e+00
 1.6221010898e+00	 6.8086749532e-02	 3.4548800015e+00
 1.6214658645e+00	 8.1830319189e-02	 3.4437570476e+00
 1.6207115449e+00	 9.5612965805e-02	 3.4306833229e+00
 1.6198370574e+00	 1.0943335109e-01	 3.4155306702e+00
 1.6188413448e+00	 1.2329010986e-01	 3.3982089943e+00
 1.6177233666e+00	 1.3718185016e-01	 3.3786670459e+00
 1.6294117647e+00	 0.0000000000e+00	 3.4771871822e+00
 1.6293551899e+00	 1.3578077286e-02	 3.4725520957e+00
 1.6291846941e+00	 2.7201680482e-02	 3.4672071185e+00
 1.6288991296e+00	 4.0869602790e-02	 3.4608358947e+00
 1.6284973614e+00	 5.4580610026e-02	 3.4531550550e+00
 1.6279782676e+00	 6.8333440653e-02	 3.4439156890e+00
 1.6273407408e+00	 8.2126805852e-02	 3.4329046689e+00
 1.6265836881e+00	 9.5959389594e-02	 3.4199458238e+00
 1.6257060322e+00	 1.0982984874e-01	 3.4049009684e+00
 1.6247067120e+00	 1.2373681316e-01	 3.3876707892e+00
 1.6235846831e+00	 1.3767888585e-01	 3.3681955918e+00
 1.6352941176e+00	 0.0000000000e+00	 3.4659206757e+00
 1.6352373386e+00	 1.3627095616e-02	 3.4612160019e+00
 1.6350662273e+00	 2.7299881494e-02	 3.4558619073e+00
 1.6347796319e+00	 4.1017146483e-02	 3.4495280948e+00
 1.6343764132e+00	 5.4777651939e-02	 3.4419181980e+00
 1.6338554455e+00	 6.8580131775e-02	 3.4327712331e+00
 1.6332156171e+00	 8.2423292516e-02	 3.4218628978e+00
 1.6324558314e+00	 9.6305813383e-02	 3.4090067182e+00
 1.6315750071e+00	 1.1022634639e-01	 3.3940550448e+00
 1.6305720792e+00	 1.2418351645e-01	 3.3768999033e+00
 1.6294459997e+00	 1.3817592154e-01	 3.3574737030e+00
 1.6411764706e+00	 0.0000000000e+00	 3.4544469428e+00
 1.6411194873e+00	 1.3676113945e-02	 3.4496886042e+00
 1.6409477605e+00	 2.7398082507e-02	 3.4443351091e+00
 1.6406601342e+00	 4.1164690175e-02	 3.4380427827e+00
 1.6402554651e+00	 5.4974693853e-02	 3.4305028307e+00
 1.6397326233e+00	 6.8826822896e-02	 3.4214427693e+00
 1.6390904935e+00	 8.2719779180e-02	 3.4106276972e+00
 1.6383279747e+00	 9.6652237172e-02	 3.3978614116e+00
 1.6374439819e+00	 1.1062284404e-01	 3.3829873700e+00
 1.6364374464e+00	 1.2463021975e-01	 3.3658895023e+00
 1.6353073162e+00	 1.3867295723e-01	 3.3464928777e+00
 1.6470588235e+00	 0.0000000000e+00	 3.4427569562e+00
 1.6470016360e+00	 1.3725132275e-02	 3.4379626803e+00
 1.6468292937e+00	 2.7496283519e-02	 3.4326208933e+00
 1.6465406365e+00	 4.1312233867e-02	 3.4263751121e+00
 1.6461345169e+00	 5.5171735766e-02	 3.4189046906e+00
 1.6456098012e+00	 6.9073514018e-02	 3.4099262254e+00
 1.6449653698e+00	 8.3016265844e-02	 3.3991947986e+00
 1.6442001180e+00	 9.6998660961e-02	 3.3865050604e+00
 1.6433129568e+00	 1.1101934169e-01	 3.3716921537e+00
 1.6423028136e+00	 1.2507692305e-01	 3.3546324852e+00
 1.6411686328e+00	 1.3916999292e-01	 3.3352443484e+00
 1.5825554673e+00	 1.3419963603e-01	 3.4366782115e+00
 1.5813411846e+00	 1.4782221533e-01	 3.4139386758e+00
 1.5800053106e+00	 1.6147621442e-01	 3.3881869210e+00
 1.5785468811e+00	 1.7516019405e-01	 3.3594032075e+00
 1.5769649510e+00	 1.8887268953e-01	 3.3276026977e+00
 1.5752585951e+00	 2.0261221094e-01	 3.2928359628e+00
 1.5734269090e+00	 2.1637724338e-01	 3.2551894053e+00
 1.5714690096e+00	 2.3016624727e-01	 3.2147856062e+00
 1.5693840357e+00	 2.4397765859e-01	 3.1717836035e+00
 1.5671711491e+00	 2.5780988925e-01	 3.1263791102e+00
 1.5648295347e+00	 2.7166132736e-01	 3.0788046814e+00
 1.5884167839e+00	 1.3469667172e-01	 3.4275462351e+00
 1.5871980038e+00	 1.4836970502e-01	 3.4049073697e+00
 1.5858571822e+00	 1.6207427447e-01	 3.3792172692e+00
 1.5843933511e+00	 1.7580893551e-01	 3.3504627349e+00
 1.5828055619e+00	 1.8957221801e-01	 3.3186664525e+00
 1.5810928862e+00	 2.0336262653e-01	 3.2838874524e+00
 1.5792544161e+00	 2.1717864058e-01	 3.2462214860e+00
 1.5772892652e+00	 2.3101871485e-01	 3.2058013242e+00
 1.5751965692e+00	 2.4488127955e-01	 3.1627969863e+00
 1.5729754867e+00	 2.5876474069e-01	 3.1174159081e+00
 1.5706251997e+00	 2.7266748043e-01	 3.0699030580e+00
 1.5942781004e+00	 1.3519370741e-01	 3.4182090193e+00
 1.5930548230e+00	 1.4891719471e-01	 3.3956651961e+00
 1.5917090537e+00	 1.6267233453e-01	 3.3700341872e+00
 1.5902398210e+00	 1.7645767697e-01	 3.3413096040e+00
 1.5886461728e+00	 1.9027174649e-01	 3.3095219164e+00
 1.5869271773e+00	 2.0411304213e-01	 3.2747388663e+00
 1.5850819232e+00	 2.1798003778e-01	 3.2370657943e+00
 1.5831095208e+00	 2.3187118244e-01	 3.1966458878e+00
 1.5810091027e+00	 2.4578490051e-01	 3.1536603581e+00
 1.5787798243e+00	 2.5971959213e-01	 3.1083285566e+00
 1.5764208646e+00	 2.7367363349e-01	 3.0609080382e+00
 1.6001394170e+00	 1.3569074310e-01	 3.4086597456e+00
 1.5989116422e+00	 1.4946468439e-01	 3.3862033549e+00
 1.5975609252e+00	 1.6327039458e-01	 3.3606266694e+00
 1.5960862909e+00	 1.7710641843e-01	 3.3319303889e+00
 1.5944867838e+00	 1.9097127497e-01	 3.3001530384e+00
 1.5927614684e+00	 2.0486345772e-01	 3.2653713322e+00
 1.5909094302e+00	 2.1878143498e-01	 3.2277004493e+00
 1.5889297764e+00	 2.3272365002e-01	 3.1872942287e+00
 1.5868216361e+00	 2.4668852147e-01	 3.1443452931e+00
 1.5845841618e+00	 2.6067444357e-01	 3.0990851104e+00
 1.5822165295e+00	 2.7467978656e-01	 3.0517840030e+00
 1.6060007335e+00	 1.3618777879e-01	 3.3988913039e+00
 1.6047684614e+00	 1.5001217408e-01	 3.3765127594e+00
 1.6034127967e+00	 1.6386845463e-01	 3.3509834336e+00
 1.6019327608e+00	 1.7775515989e-01	 3.3223114022e+00
 1.6003273947e+00	 1.9167080345e-01	 3.2905435254e+00
 1.5985957595e+00	 2.0561387332e-01	 3.2557657601e+00
 1.5967369373e+00	 2.1958283217e-01	 3.2181033818e+00
 1.5947500320e+00	 2.3357611760e-01	 3.1777211253e+00
 1.5926341696e+00	 2.4759214243e-01	 3.1348232520e+00
 1.5903884994e+00	 2.6162929501e-01	 3.0896535557e+00
 1.5880121945e+00	 2.7568593962e-01	 3.0424953147e+00
 1.6118620501e+00	 1.3668481447e-01	 3.3888962973e+00
 1.6106252806e+00	 1.5055966377e-01	 3.3665840417e+00
 1.6092646682e+00	 1.6446651469e-01	 3.3410929262e+00
 1.6077792308e+00	 1.7840390134e-01	 3.3124386998e+00
 1.6061680056e+00	 1.9237033193e-01	 3.2806768471e+00
 1.6044300506e+00	 2.0636428892e-01	 3.2459028471e+00
 1.6025644444e+00	 2.2038422937e-01	 3.2082523394e+00
 1.6005702875e+00	 2.3442858518e-01	 3.1679012069e+00
 1.5984467031e+00	 2.4849576338e-01	 3.1250655864e+00
 1.5961928370e+00	 2.6258414646e-01	 3.0800018147e+00
 1.5938078594e+00	 2.7669209268e-01	 3.0330063228e+00
 1.6177233666e+00	 1.3718185016e-01	 3.3786670459e+00
 1.6164820998e+00	 1.5110715345e-01	 3.3564075567e+00
 1.6151165398e+00	 1.6506457474e-01	 3.3309433269e+00
 1.6136257007e+00	 1.7905264280e-01	 3.3022980855e+00
 1.6120086166e+00	 1.9306986040e-01	 3.2705362408e+00
 1.6102643417e+00	 2.0711470451e-01	 3.2357630829e+00
 1.6083919514e+00	 2.2118562657e-01	 3.1981248914e+00
 1.6063905431e+00	 2.3528105277e-01	 3.1578089598e+00
 1.6042592365e+00	 2.4939938434e-01	 3.1150435445e+00
 1.6019971746e+00	 2.6353899790e-01	 3.0700977513e+00
 1.5996035244e+00	 2.7769824575e-01	 3.0232813683e+00
 1.6235846831e+00	 1.3767888585e-01	 3.3681955918e+00
 1.6223389190e+00	 1.5165464314e-01	 3.3459733868e+00
 1.6209684113e+00	 1.6566263479e-01	 3.3205225528e+00
 1.6194721706e+00	 1.7970138426e-01	 3.2918751157e+00
 1.6178492275e+00	 1.9376938888e-01	 3.2601047163e+00
 1.6160986328e+00	 2.0786512011e-01	 3.2253267539e+00
 1.6142194585e+00	 2.2198702377e-01	 3.1876984342e+00
 1.6122107987e+00	 2.3613352035e-01	 3.1474187315e+00
 1.6100717700e+00	 2.5030300530e-01	 3.1047282759e+00
 1.6078015122e+00	 2.6449384934e-01	 3.0599091760e+00
 1.6053991893e+00	 2.7870439881e-01	 3.0132847898e+00
 1.6294459997e+00	 1.3817592154e-01	 3.3574737030e+00
 1.6281957382e+00	 1.5220213282e-01	 3.3352713463e+00
 1.6268202828e+00	 1.6626069485e-01	 3.3098182637e+00
 1.6253186406e+00	 1.8035012572e-01	 3.2811551045e+00
 1.6236898384e+00	 1.9446891736e-01	 3.2493650607e+00
 1.6219329239e+00	 2.0861553570e-01	 3.2145739487e+00
 1.6200469656e+00	 2.2278842097e-01	 3.1769501954e+00
 1.6180310543e+00	 2.3698598793e-01	 3.1367047361e+00
 1.6158843034e+00	 2.5120662626e-01	 3.0940908366e+00
 1.6136058498e+00	 2.6544870078e-01	 3.0494038512e+00
 1.6111948543e+00	 2.7971055188e-01	 3.0029809279e+00
 1.6353073162e+00	 1.3867295723e-01	 3.3464928777e+00
 1.6340525574e+00	 1.5274962251e-01	 3.3242909856e+00
 1.6326721543e+00	 1.6685875490e-01	 3.2988178657e+00
 1.6311651105e+00	 1.8099886718e-01	 3.2701231277e+00
 1.6295304494e+00	 1.9516844584e-01	 3.2382998428e+00
 1.6277672149e+00	 2.0936595130e-01	 3.2034845626e+00
 1.6258744727e+00	 2.2358981816e-01	 3.1658572396e+00
 1.6238513099e+00	 2.3783845551e-01	 3.1256410592e+00
 1.6216968369e+00	 2.5211024721e-01	 3.0831021944e+00
 1.6194101874e+00	 2.6640355222e-01	 3.0385494961e+00
 1.6169905192e+00	 2.8071670494e-01	 2.9923341312e+00
 1.6411686328e+00	 1.3916999292e-01	 3.3352443484e+00
 1.6399093766e+00	 1.5329711220e-01	 3.3130215956e+00
 1.6385240259e+00	 1.6745681495e-01	 3.2875085163e+00
 1.6370115804e+00	 1.8164760864e-01	 3.2587640275e+00
 1.6353710603e+00	 1.9586797432e-01	 3.2268914180e+00
 1.6336015060e+00	 2.1011636690e-01	 3.1920383023e+00
 1.6317019797e+00	 2.2439121536e-01	 3.1543964728e+00
 1.6296715655e+00	 2.3869092310e-01	 3.1142016631e+00
 1.6275093704e+00	 2.5301386817e-01	 3.0717332338e+00
 1.6252145250e+00	 2.6735840366e-01	 3.0273137921e+00
 1.6227861841e+00	 2.8172285801e-01	 2.9813087608e+00
 1.5648295347e+00	 2.7166132736e-01	 3.0788046814e+00
 1.5623584018e+00	 2.8553033767e-01	 3.0282776122e+00
 1.5597569844e+00	 2.9941526186e-01	 2.9741087906e+00
 1.5570245420e+00	 3.1331441900e-01	 2.9167254181e+00
 1.5541603602e+00	 3.2722610594e-01	 2.8565899675e+00
 1.5511637514e+00	 3.4114859777e-01	 2.7942000191e+00
 1.5480340558e+00	 3.5508014826e-01	 2.7300880974e+00
 1.5447706413e+00	 3.6901899037e-01	 2.6648215176e+00
 1.5413729050e+00	 3.8296333673e-01	 2.5990022504e+00
 1.5378402732e+00	 3.9691138019e-01	 2.5332668136e+00
 1.5341722023e+00	 4.1086129435e-01	 2.4682861970e+00
 1.5706251997e+00	 2.7266748043e-01	 3.0699030580e+00
 1.5681449144e+00	 2.8658785744e-01	 3.0194647453e+00
 1.5655338621e+00	 3.0052420727e-01	 2.9653851533e+00
 1.5627912995e+00	 3.1447484277e-01	 2.9080809412e+00
 1.5599165096e+00	 3.2843805448e-01	 2.8480042003e+00
 1.5569088024e+00	 3.4241211110e-01	 2.7856422691e+00
 1.5537675152e+00	 3.5639525992e-01	 2.7215175529e+00
 1.5504920140e+00	 3.7038572737e-01	 2.6561873558e+00
 1.5470816935e+00	 3.8438171946e-01	 2.5902437354e+00
 1.5435359779e+00	 3.9838142234e-01	 2.5243133886e+00
 1.5398543216e+00	 4.1238300285e-01	 2.4590575751e+00
 1.5764208646e+00	 2.7367363349e-01	 3.0609080382e+00
 1.5739314270e+00	 2.8764537721e-01	 3.0105935100e+00
 1.5713107399e+00	 3.0163315269e-01	 2.9566410677e+00
 1.5685580571e+00	 3.1563526655e-01	 2.8994558292e+00
 1.5656726591e+00	 3.2965000302e-01	 2.8394784971e+00
 1.5626538533e+00	 3.4367562442e-01	 2.7771851536e+00
 1.5595009747e+00	 3.5771037158e-01	 2.7130870625e+00
 1.5562133868e+00	 3.7175246437e-01	 2.6477304879e+00
 1.5527904821e+00	 3.8580010219e-01	 2.5816965400e+00
 1.5492316826e+00	 3.9985146448e-01	 2.5156010551e+00
 1.5455364408e+00	 4.1390471135e-01	 2.4500945198e+00
 1.5822165295e+00	 2.7467978656e-01	 3.0517840030e+00
 1.5797179396e+00	 2.8870289698e-01	 3.0016246348e+00
 1.5770876176e+00	 3.0274209810e-01	 2.9478338155e+00
 1.5743248147e+00	 3.1679569032e-01	 2.8908041425e+00
 1.5714288086e+00	 3.3086195156e-01	 2.8309639419e+00
 1.5683989042e+00	 3.4493913775e-01	 2.7687770429e+00
 1.5652344342e+00	 3.5902548324e-01	 2.7047425634e+00
 1.5619347595e+00	 3.7311920137e-01	 2.6393947161e+00
 1.5584992706e+00	 3.8721848491e-01	 2.5733026454e+00
 1.5549273873e+00	 4.0132150663e-01	 2.5070703035e+00
 1.5512185601e+00	 4.1542641984e-01	 2.4413363755e+00
 1.5880121945e+00	 2.7568593962e-01	 3.0424953147e+00
 1.5855044522e+00	 2.8976041674e-01	 2.9925188831e+00
 1.5828644953e+00	 3.0385104352e-01	 2.9389207672e+00
 1.5800915722e+00	 3.1795611409e-01	 2.8820800845e+00
 1.5771849581e+00	 3.3207390010e-01	 2.8224118152e+00
 1.5741439551e+00	 3.4620265107e-01	 2.7603665575e+00
 1.5709678936e+00	 3.6034059490e-01	 2.6964302968e+00
 1.5676561323e+00	 3.7448593837e-01	 2.6311241996e+00
 1.5642080591e+00	 3.8863686764e-01	 2.5650044423e+00
 1.5606230920e+00	 4.0279154878e-01	 2.4986620846e+00
 1.5569006794e+00	 4.1694812834e-01	 2.4327229966e+00
 1.5938078594e+00	 2.7669209268e-01	 3.0330063228e+00
 1.5912909648e+00	 2.9081793651e-01	 2.9832370585e+00
 1.5886413730e+00	 3.0495998893e-01	 2.9298593874e+00
 1.5858583298e+00	 3.1911653787e-01	 2.8732380065e+00
 1.5829411076e+00	 3.3328584864e-01	 2.8137735999e+00
 1.5798890061e+00	 3.4746616440e-01	 2.7519025748e+00
 1.5767013531e+00	 3.6165570656e-01	 2.6880968147e+00
 1.5733775050e+00	 3.7585267538e-01	 2.6228634617e+00
 1.5699168477e+00	 3.9005525037e-01	 2.5567447383e+00
 1.5663187967e+00	 4.0426159093e-01	 2.4903178185e+00
 1.5625827986e+00	 4.1846983684e-01	 2.4241947579e+00
 1.5996035244e+00	 2.7769824575e-01	 3.0232813683e+00
 1.5970774774e+00	 2.9187545628e-01	 2.9737400100e+00
 1.5944182507e+00	 3.0606893434e-01	 2.9206072400e+00
 1.5916250874e+00	 3.2027696164e-01	 2.8642324138e+00
 1.5886972570e+00	 3.3449779719e-01	 2.8050009877e+00
 1.5856340570e+00	 3.4872967772e-01	 2.7433342356e+00
 1.5824348126e+00	 3.6297081822e-01	 2.6796889870e+00
 1.5790988778e+00	 3.7721941238e-01	 2.6145573981e+00
 1.5756256362e+00	 3.9147363310e-01	 2.5484667670e+00
 1.5720145015e+00	 4.0573163308e-01	 2.4819794038e+00
 1.5682649179e+00	 4.1999154534e-01	 2.4156925644e+00
 1.6053991893e+00	 2.7870439881e-01	 3.0132847898e+00
 1.6028639900e+00	 2.9293297605e-01	 2.9639886373e+00
 1.6001951285e+00	 3.0717787976e-01	 2.9111219940e+00
 1.5973918449e+00	 3.2143738542e-01	 2.8550179714e+00
 1.5944534065e+00	 3.3570974573e-01	 2.7960458846e+00
 1.5913791079e+00	 3.4999319105e-01	 2.7346109501e+00
 1.5881682720e+00	 3.6428592988e-01	 2.6711540082e+00
 1.5848202505e+00	 3.7858614938e-01	 2.6061512838e+00
 1.5813344247e+00	 3.9289201583e-01	 2.5401141959e+00
 1.5777102062e+00	 4.0720167523e-01	 2.4735892269e+00
 1.5739470372e+00	 4.2151325384e-01	 2.4071578618e+00
 1.6111948543e+00	 2.7971055188e-01	 3.0029809279e+00
 1.6086505026e+00	 2.9399049582e-01	 2.9539438963e+00
 1.6059720062e+00	 3.0828682517e-01	 2.9013614287e+00
 1.6031586025e+00	 3.2259780919e-01	 2.8455495095e+00
 1.6002095560e+00	 3.3692169427e-01	 2.7868604176e+00
 1.5971241589e+00	 3.5125670437e-01	 2.7256824050e+00
 1.5939017315e+00	 3.6560104154e-01	 2.6624394047e+00
 1.5905416233e+00	 3.7995288638e-01	 2.5975907811e+00
 1.5870432133e+00	 3.9431039856e-01	 2.5316311347e+00
 1.5834059109e+00	 4.0867171738e-01	 2.4650901710e+00
 1.5796291564e+00	 4.2303496233e-01	 2.3985326463e+00
 1.6169905192e+00	 2.8071670494e-01	 2.9923341312e+00
 1.6144370152e+00	 2.9504801559e-01	 2.9435668041e+00
 1.6117488839e+00	 3.0939577059e-01	 2.8912834393e+00
 1.6089253600e+00	 3.2375823297e-01	 2.8357820295e+00
 1.6059657055e+00	 3.3813364281e-01	 2.7773969402e+00
 1.6028692098e+00	 3.5252021770e-01	 2.7164985696e+00
 1.5996351910e+00	 3.6691615320e-01	 2.6534930419e+00
 1.5962629960e+00	 3.8131962338e-01	 2.5888219477e+00
 1.5927520018e+00	 3.9572878129e-01	 2.5229621443e+00
 1.5891016156e+00	 4.1014175953e-01	 2.4564256257e+00
 1.5853112757e+00	 4.2455667083e-01	 2.3897594754e+00
 1.6227861841e+00	 2.8172285801e-01	 2.9813087608e+00
 1.6202235278e+00	 2.9610553536e-01	 2.9328184446e+00
 1.6175257616e+00	 3.1050471600e-01	 2.8808460425e+00
 1.6146921176e+00	 3.2491865674e-01	 2.8256707096e+00
 1.6117218550e+00	 3.3934559135e-01	 2.7676080390e+00
 1.6086142607e+00	 3.5378373102e-01	 2.7070097028e+00
 1.6053686504e+00	 3.6823126487e-01	 2.6442631312e+00
 1.6019843688e+00	 3.8268636038e-01	 2.5797912438e+00
 1.5984607903e+00	 3.9714716401e-01	 2.5140522449e+00
 1.5947973203e+00	 4.1161180167e-01	 2.4475394963e+00
 1.5909933950e+00	 4.2607837933e-01	 2.3807814775e+00
 1.5341722023e+00	 4.1086129435e-01	 2.4682861970e+00
 1.5303681795e+00	 4.2481123416e-01	 2.4006119312e+00
 1.5264277232e+00	 4.3875933647e-01	 2.3268103359e+00
 1.5223503837e+00	 4.5270372067e-01	 2.2476251749e+00
 1.5181357438e+00	 4.6664248931e-01	 2.1638334134e+00
 1.5137834194e+00	 4.8057372876e-01	 2.0762455064e+00
 1.5092930597e+00	 4.9449550987e-01	 1.9857057561e+00
 1.5046643486e+00	 5.0840588870e-01	 1.8930927384e+00
 1.4998970040e+00	 5.2230290716e-01	 1.7993197994e+00
 1.4949907795e+00	 5.3618459382e-01	 1.7053356175e+00
 1.4899454641e+00	 5.5004896461e-01	 1.6121248308e+00
 1.5398543216e+00	 4.1238300285e-01	 2.4590575751e+00
 1.5360362098e+00	 4.2638460910e-01	 2.3910071036e+00
 1.5320811592e+00	 4.4038437105e-01	 2.3167415442e+00
 1.5279887185e+00	 4.5438040111e-01	 2.2370469527e+00
 1.5237584688e+00	 4.6837079482e-01	 2.1527438911e+00
 1.5193900246e+00	 4.8235363145e-01	 2.0646876931e+00
 1.5148830340e+00	 4.9632697472e-01	 1.9737688014e+00
 1.5102371795e+00	 5.1028887347e-01	 1.8809131792e+00
 1.5054521781e+00	 5.2423736237e-01	 1.7870827935e+00
 1.5005277824e+00	 5.3817046269e-01	 1.6932761698e+00
 1.4954637806e+00	 5.5208618300e-01	 1.6005290145e+00
 1.5455364408e+00	 4.1390471135e-01	 2.4500945198e+00
 1.5417042401e+00	 4.2795798404e-01	 2.3816902882e+00
 1.5377345952e+00	 4.4200940563e-01	 2.3069851054e+00
 1.5336270532e+00	 4.5605708156e-01	 2.2268072207e+00
 1.5293811938e+00	 4.7009910034e-01	 2.1420206405e+00
 1.5249966299e+00	 4.8413353415e-01	 2.0535253700e+00
 1.5204730083e+00	 4.9815843958e-01	 1.9622577310e+00
 1.5158100104e+00	 5.1217185824e-01	 1.8691907567e+00
 1.5110073522e+00	 5.2617181759e-01	 1.7753346638e+00
 1.5060647853e+00	 5.4015633156e-01	 1.6817373992e+00
 1.5009820972e+00	 5.5412340139e-01	 1.5894852584e+00
 1.5512185601e+00	 4.1542641984e-01	 2.4413363755e+00
 1.5473722704e+00	 4.2953135898e-01	 2.3725996789e+00
 1.5433880312e+00	 4.4363444021e-01	 2.2974777007e+00
 1.5392653880e+00	 4.5773376201e-01	 2.2168407854e+00
 1.5350039187e+00	 4.7182740585e-01	 2.1315962310e+00
 1.5306032351e+00	 4.8591343685e-01	 2.0426885062e+00
 1.5260629826e+00	 4.9998990443e-01	 1.9510995486e+00
 1.5213828413e+00	 5.1405484302e-01	 1.8578491431e+00
 1.5165625263e+00	 5.2810627280e-01	 1.7639953826e+00
 1.5116017882e+00	 5.4214220042e-01	 1.6706352068e+00
 1.5065004137e+00	 5.5616061978e-01	 1.5789050179e+00
 1.5569006794e+00	 4.1694812834e-01	 2.4327229966e+00
 1.5530403007e+00	 4.3110473393e-01	 2.3636740335e+00
 1.5490414672e+00	 4.4525947479e-01	 2.2881566381e+00
 1.5449037227e+00	 4.5941044246e-01	 2.2070831518e+00
 1.5406266437e+00	 4.7355571137e-01	 2.1214040106e+00
 1.5362098404e+00	 4.8769333955e-01	 2.0321079382e+00
 1.5316529569e+00	 5.0182136928e-01	 1.9402222230e+00
 1.5269556722e+00	 5.1593782779e-01	 1.8468130815e+00
 1.5221177004e+00	 5.3004072801e-01	 1.7529861065e+00
 1.5171387911e+00	 5.4412806929e-01	 1.6598867996e+00
 1.5120187302e+00	 5.5819783816e-01	 1.5687011844e+00
 1.5625827986e+00	 4.1846983684e-01	 2.4241947579e+00
 1.5587083310e+00	 4.3267810887e-01	 2.3548526849e+00
 1.5546949033e+00	 4.4688450937e-01	 2.2789598642e+00
 1.5505420575e+00	 4.6108712290e-01	 2.1974705358e+00
 1.5462493687e+00	 4.7528401689e-01	 2.1113781197e+00
 1.5418164456e+00	 4.8947324225e-01	 2.0217153842e+00
 1.5372429312e+00	 5.0365283413e-01	 1.9295547028e+00
 1.5325285032e+00	 5.1782081256e-01	 1.8360084007e+00
 1.5276728745e+00	 5.3197518322e-01	 1.7422291922e+00
 1.5226757939e+00	 5.4611393815e-01	 1.6494107069e+00
 1.5175370468e+00	 5.6023505655e-01	 1.5587881007e+00
 1.5682649179e+00	 4.1999154534e-01	 2.4156925644e+00
 1.5643763613e+00	 4.3425148381e-01	 2.3460755519e+00
 1.5603483393e+00	 4.4850954395e-01	 2.2698259763e+00
 1.5561803922e+00	 4.6276380335e-01	 2.1879398771e+00
 1.5518720937e+00	 4.7701232240e-01	 2.1014535038e+00
 1.5474230509e+00	 4.9125314495e-01	 2.0114434582e+00
 1.5428329055e+00	 5.0548429898e-01	 1.9190269307e+00
 1.5381013341e+00	 5.1970379734e-01	 1.8253620305e+00
 1.5332280485e+00	 5.3390963843e-01	 1.7316482124e+00
 1.5282127968e+00	 5.4809980702e-01	 1.6391267964e+00
 1.5230553633e+00	 5.6227227494e-01	 1.5490815782e+00
 1.5739470372e+00	 4.2151325384e-01	 2.4071578618e+00
 1.5700443916e+00	 4.3582485875e-01	 2.3372831507e+00
 1.5660017753e+00	 4.5013457853e-01	 2.2606942341e+00
 1.5618187270e+00	 4.6444048380e-01	 2.1784288521e+00
 1.5574948187e+00	 4.7874062792e-01	 2.0915659279e+00
 1.5530296562e+00	 4.9303304765e-01	 2.0012256844e+00
 1.5484228798e+00	 5.0731576383e-01	 1.9085698588e+00
 1.5436741650e+00	 5.2158678211e-01	 1.8148020175e+00
 1.5387832226e+00	 5.3584409364e-01	 1.7211679713e+00
 1.5337497997e+00	 5.5008567589e-01	 1.6289562900e+00
 1.5285736798e+00	 5.6430949333e-01	 1.5394989128e+00
 1.5796291564e+00	 4.2303496233e-01	 2.3985326463e+00
 1.5757124219e+00	 4.3739823369e-01	 2.3284166056e+00
 1.5716552113e+00	 4.5175961311e-01	 2.2515045720e+00
 1.5674570617e+00	 4.6611716424e-01	 2.1688758865e+00
 1.5631175436e+00	 4.8046893343e-01	 2.0816519896e+00
 1.5586362614e+00	 4.9481295035e-01	 1.9909965112e+00
 1.5540128541e+00	 5.0914722868e-01	 1.8981154635e+00
 1.5492469959e+00	 5.2346976688e-01	 1.8042575401e+00
 1.5443383967e+00	 5.3777854886e-01	 1.7107145207e+00
 1.5392868026e+00	 5.5207154475e-01	 1.6188217807e+00
 1.5340919964e+00	 5.6634671171e-01	 1.5299589022e+00
 1.5853112757e+00	 4.2455667083e-01	 2.3897594754e+00
 1.5813804521e+00	 4.3897160863e-01	 2.3194176608e+00
 1.5773086473e+00	 4.5338464769e-01	 2.2421976110e+00
 1.5730953965e+00	 4.6779384469e-01	 2.1592201685e+00
 1.5687402686e+00	 4.8219723895e-01	 2.0716491332e+00
 1.5642428667e+00	 4.9659285305e-01	 1.9806913261e+00
 1.5596028284e+00	 5.1097869354e-01	 1.8875967604e+00
 1.5548198268e+00	 5.2535275165e-01	 1.7936589244e+00
 1.5498935708e+00	 5.3971300407e-01	 1.7002151762e+00
 1.5448238055e+00	 5.5405741362e-01	 1.6086472488e+00
 1.5396103129e+00	 5.6838393010e-01	 1.5203818622e+00
 1.5909933950e+00	 4.2607837933e-01	 2.3807814775e+00
 1.5870484824e+00	 4.4054498357e-01	 2.3102286909e+00
 1.5829620833e+00	 4.5500968227e-01	 2.2327146713e+00
 1.5787337313e+00	 4.6947052514e-01	 2.1494016618e+00
 1.5743629936e+00	 4.8392554447e-01	 2.0614956632e+00
 1.5698494719e+00	 4.9837275575e-01	 1.9702464699e+00
 1.5651928027e+00	 5.1281015839e-01	 1.8769478195e+00
 1.5603926578e+00	 5.2723573643e-01	 1.7829376598e+00
 1.5554487449e+00	 5.4164745928e-01	 1.6895985333e+00
 1.5503608084e+00	 5.5604328248e-01	 1.5983580783e+00
 1.5451286294e+00	 5.7042114849e-01	 1.5106896439e+00
 1.4899454641e+00	 5.5004896461e-01	 1.6121248308e+00
 1.4847608830e+00	 5.6389402360e-01	 1.5229388826e+00
 1.4794368979e+00	 5.7771776378e-01	 1.4412509547e+00
 1.4739734077e+00	 5.9151816789e-01	 1.3679393545e+00
 1.4683703485e+00	 6.0529320919e-01	 1.2924452374e+00
 1.4626276945e+00	 6.1904085234e-01	 1.2106337373e+00
 1.4567454578e+00	 6.3275905424e-01	 1.1233206105e+00
 1.4507236892e+00	 6.4644576488e-01	 1.0312881494e+00
 1.4445624785e+00	 6.6009892824e-01	 9.3528482193e-01
 1.4382619545e+00	 6.7371648316e-01	 8.3602515939e-01
 1.4318222855e+00	 6.8729636427e-01	 7.3418990339e-01
 1.4954637806e+00	 5.5208618300e-01	 1.6005290145e+00
 1.4902599974e+00	 5.6598251998e-01	 1.5120996916e+00
 1.4849162938e+00	 5.7985745921e-01	 1.4314166567e+00
 1.4794325684e+00	 5.9370897592e-01	 1.3584846312e+00
 1.4738087572e+00	 6.0753503589e-01	 1.2818347418e+00
 1.4680448341e+00	 6.2133359624e-01	 1.1991780707e+00
 1.4621408113e+00	 6.3510260630e-01	 1.1112893698e+00
 1.4560967399e+00	 6.4884000846e-01	 1.0189079433e+00
 1.4499127099e+00	 6.6254373908e-01	 9.2273731279e-01
 1.4435888506e+00	 6.7621172939e-01	 8.2344513642e-01
 1.4371253310e+00	 6.8984190636e-01	 7.2166339516e-01
 1.5009820972e+00	 5.5412340139e-01	 1.5894852584e+00
 1.4957591117e+00	 5.6807101637e-01	 1.5018358926e+00
 1.4903956897e+00	 5.8199715463e-01	 1.4221655540e+00
 1.4848917292e+00	 5.9589978395e-01	 1.3492199646e+00
 1.4792471659e+00	 6.0977686259e-01	 1.2714805189e+00
 1.4734619737e+00	 6.2362634014e-01	 1.1880352982e+00
 1.4675361649e+00	 6.3744615835e-01	 1.0996180120e+00
 1.4614697906e+00	 6.5123425203e-01	 1.0069249800e+00
 1.4552629413e+00	 6.6498854993e-01	 9.1061482090e-01
 1.4489157468e+00	 6.7870697562e-01	 8.1130840409e-01
 1.4424283765e+00	 6.9238744845e-01	 7.0958907432e-01
 1.5065004137e+00	 5.5616061978e-01	 1.5789050179e+00
 1.5012582261e+00	 5.7015951275e-01	 1.4920546036e+00
 1.4958750857e+00	 5.8413685005e-01	 1.4134010162e+00
 1.4903508900e+00	 5.9809059198e-01	 1.3400723561e+00
 1.4846855746e+00	 6.1201868929e-01	 1.2613093230e+00
 1.4788791133e+00	 6.2591908404e-01	 1.1771324835e+00
 1.4729315184e+00	 6.3978971040e-01	 1.0882344737e+00
 1.4668428414e+00	 6.5362849560e-01	 9.9526863761e-01
 1.4606131728e+00	 6.6743336077e-01	 8.9884874042e-01
 1.4542426429e+00	 6.8120222186e-01	 7.9954895168e-01
 1.4477314220e+00	 6.9493299054e-01	 6.9790410849e-01
 1.5120187302e+00	 5.5819783816e-01	 1.5687011844e+00
 1.5067573405e+00	 5.7224800914e-01	 1.4826645081e+00
 1.5013544816e+00	 5.8627654547e-01	 1.4050281010e+00
 1.4958100508e+00	 6.0028140000e-01	 1.3309708928e+00
 1.4901239833e+00	 6.1426051599e-01	 1.2512500065e+00
 1.4842962529e+00	 6.2821182793e-01	 1.1663987915e+00
 1.4783268720e+00	 6.4213326245e-01	 1.0770687866e+00
 1.4722158921e+00	 6.5602273918e-01	 9.8387037473e-01
 1.4659634042e+00	 6.6987817162e-01	 8.8737252260e-01
 1.4595695390e+00	 6.8369746809e-01	 7.8810279371e-01
 1.4530344675e+00	 6.9747853263e-01	 6.8654765025e-01
 1.5175370468e+00	 5.6023505655e-01	 1.5587881007e+00
 1.5122564549e+00	 5.7433650552e-01	 1.4735758718e+00
 1.5068338775e+00	 5.8841624089e-01	 1.3969522465e+00
 1.5012692115e+00	 6.0247220803e-01	 1.3218467157e+00
 1.4955623920e+00	 6.1650234269e-01	 1.2412334862e+00
 1.4897133925e+00	 6.3050457183e-01	 1.1557654541e+00
 1.4837222255e+00	 6.4447681451e-01	 1.0660530422e+00
 1.4775889428e+00	 6.5841698275e-01	 9.7266369471e-01
 1.4713136356e+00	 6.7232298246e-01	 8.7612163955e-01
 1.4648964352e+00	 6.8619271432e-01	 7.7690793326e-01
 1.4583375130e+00	 7.0002407472e-01	 6.7546080027e-01
 1.5230553633e+00	 5.6227227494e-01	 1.5490815782e+00
 1.5177555693e+00	 5.7642500190e-01	 1.4647005589e+00
 1.5123132734e+00	 5.9055593631e-01	 1.3888729942e+00
 1.5067283723e+00	 6.0466301606e-01	 1.3126329877e+00
 1.5010008007e+00	 6.1874416939e-01	 1.2311927112e+00
 1.4951305321e+00	 6.3279731573e-01	 1.1451657359e+00
 1.4891175791e+00	 6.4682036656e-01	 1.0551213580e+00
 1.4829619935e+00	 6.6081122633e-01	 9.6158411019e-01
 1.4766638670e+00	 6.7476779331e-01	 8.6503354827e-01
 1.4702233313e+00	 6.8868796056e-01	 7.6590432569e-01
 1.4636405585e+00	 7.0256961681e-01	 6.6458657084e-01
 1.5285736798e+00	 5.6430949333e-01	 1.5394989128e+00
 1.5232546837e+00	 5.7851349829e-01	 1.4559520492e+00
 1.5177926693e+00	 5.9269563173e-01	 1.3805673956e+00
 1.5121875331e+00	 6.0685382409e-01	 1.3032648626e+00
 1.5064392094e+00	 6.2098599609e-01	 1.2210626298e+00
 1.5005476717e+00	 6.3509005963e-01	 1.1345349010e+00
 1.4945129326e+00	 6.4916391861e-01	 1.0442098418e+00
 1.4883350442e+00	 6.6320546990e-01	 9.5056910794e-01
 1.4820140984e+00	 6.7721260416e-01	 8.5404765484e-01
 1.4755502274e+00	 6.9118320679e-01	 7.5503384244e-01
 1.4689436040e+00	 7.0511515889e-01	 6.5386984945e-01
 1.5340919964e+00	 5.6634671171e-01	 1.5299589022e+00
 1.5287537980e+00	 5.8060199467e-01	 1.4472454553e+00
 1.5232720653e+00	 5.9483532716e-01	 1.3719732671e+00
 1.5176466938e+00	 6.0904463212e-01	 1.2936794538e+00
 1.5118776181e+00	 6.2322782279e-01	 1.2107801574e+00
 1.5059648113e+00	 6.3738280352e-01	 1.1238101796e+00
 1.4999082862e+00	 6.5150747067e-01	 1.0332565585e+00
 1.4937080949e+00	 6.6559971347e-01	 9.3955811379e-01
 1.4873643298e+00	 6.7965741500e-01	 8.4310527891e-01
 1.4808771235e+00	 6.9367845303e-01	 7.4424023510e-01
 1.4742466495e+00	 7.0766070098e-01	 6.4325736259e-01
 1.5396103129e+00	 5.6838393010e-01	 1.5203818622e+00
 1.5342529124e+00	 5.8269049105e-01	 1.4384975396e+00
 1.5287514612e+00	 5.9697502258e-01	 1.3630303389e+00
 1.5231058546e+00	 6.1123544015e-01	 1.2838158031e+00
 1.5173160268e+00	 6.2546964949e-01	 1.2002841442e+00
 1.5113819509e+00	 6.3967554742e-01	 1.1129307344e+00
 1.5053036397e+00	 6.5385102272e-01	 1.0222014951e+00
 1.4990811456e+00	 6.6799395705e-01	 9.2849245788e-01
 1.4927145612e+00	 6.8210222585e-01	 8.3214961832e-01
 1.4862040197e+00	 6.9617369926e-01	 7.3346909962e-01
 1.4795496950e+00	 7.1020624307e-01	 6.3269763979e-01
 1.5451286294e+00	 5.7042114849e-01	 1.5106896439e+00
 1.5397520268e+00	 5.8477898744e-01	 1.4296267317e+00
 1.5342308571e+00	 5.9911471800e-01	 1.3536802256e+00
 1.5285650154e+00	 6.1342624818e-01	 1.2736148502e+00
 1.5227544355e+00	 6.2771147620e-01	 1.1895153430e+00
 1.5167990906e+00	 6.4196829132e-01	 1.1018376279e+00
 1.5106989933e+00	 6.5619457477e-01	 1.0109865276e+00
 1.5044541963e+00	 6.7038820062e-01	 9.1731534004e-01
 1.4980647926e+00	 6.8454703669e-01	 8.2112571393e-01
 1.4915309158e+00	 6.9866894549e-01	 7.2266784080e-01
 1.4848527405e+00	 7.1275178516e-01	 6.2214097781e-01
 1.4318222855e+00	 6.8729636427e-01	 7.3418990339e-01
 1.4252436794e+00	 7.0083650290e-01	 6.3440384719e-01
 1.4185263843e+00	 7.1433482802e-01	 5.4034385945e-01
 1.4116706883e+00	 7.2778926717e-01	 4.5120671856e-01
 1.4046769197e+00	 7.4119774740e-01	 3.6614232081e-01
 1.3975454475e+00	 7.5455819626e-01	 2.8425695621e-01
 1.3902766813e+00	 7.6786854275e-01	 2.0461692689e-01
 1.3828710712e+00	 7.8112671828e-01	 1.2625250797e-01
 1.3753291081e+00	 7.9433065771e-01	 4.8162248997e-02
 1.3676513240e+00	 8.0747830026e-01	-3.0682387881e-02
 1.3598382914e+00	 8.2056759057e-01	-1.1133205856e-01
 1.4371253310e+00	 6.8984190636e-01	 7.2166339516e-01
 1.4305223597e+00	 7.0343219365e-01	 6.2193805965e-01
 1.4237801857e+00	 7.1698051257e-01	 5.2790904290e-01
 1.4168990982e+00	 7.3048478298e-01	 4.3878543770e-01
 1.4098794268e+00	 7.4394292424e-01	 3.5372900781e-01
 1.4027215418e+00	 7.5735285625e-01	 2.7185747161e-01
 1.3954258542e+00	 7.7071250031e-01	 1.9224813455e-01
 1.3879928159e+00	 7.8401978020e-01	 1.1394187049e-01
 1.3804229197e+00	 7.9727262311e-01	 3.5947450366e-02
 1.3727166993e+00	 8.1046896063e-01	-4.2753785525e-02
 1.3648747295e+00	 8.2360672980e-01	-1.2320291714e-01
 1.4424283765e+00	 6.9238744845e-01	 7.0958907432e-01
 1.4358010400e+00	 7.0602788440e-01	 6.0992869801e-01
 1.4290339871e+00	 7.1962619712e-01	 5.1593477305e-01
 1.4221275082e+00	 7.3318029878e-01	 4.2682855333e-01
 1.4150819339e+00	 7.4668810109e-01	 3.4178346143e-01
 1.4078976360e+00	 7.6014751623e-01	 2.5992837913e-01
 1.4005750271e+00	 7.7355645788e-01	 1.8035129311e-01
 1.3931145606e+00	 7.8691284212e-01	 1.0210329629e-01
 1.3855167312e+00	 8.0021458851e-01	 2.4202943348e-02
 1.3777820746e+00	 8.1345962101e-01	-5.4359043112e-02
 1.3699111676e+00	 8.2664586902e-01	-1.3461472104e-01
 1.4477314220e+00	 6.9493299054e-01	 6.9790410849e-01
 1.4410797203e+00	 7.0862357516e-01	 5.9831620852e-01
 1.4342877886e+00	 7.2227188167e-01	 5.0436439266e-01
 1.4273559181e+00	 7.3587581458e-01	 4.1528192703e-01
 1.4202844410e+00	 7.4943327793e-01	 3.3025368865e-01
 1.4130737303e+00	 7.6294217622e-01	 2.4841946185e-01
 1.4057242000e+00	 7.7640041544e-01	 1.6887759652e-01
 1.3982363053e+00	 7.8980590404e-01	 9.0689028838e-02
 1.3906105427e+00	 8.0315655391e-01	 1.2881663243e-02
 1.3828474498e+00	 8.1645028138e-01	-6.5544887661e-02
 1.3749476058e+00	 8.2968500824e-01	-1.4561421049e-01
 1.4530344675e+00	 6.9747853263e-01	 6.8654765025e-01
 1.4463584006e+00	 7.1121926591e-01	 5.8704298094e-01
 1.4395415900e+00	 7.2491756622e-01	 4.9314315274e-01
 1.4325843281e+00	 7.3857133039e-01	 4.0409329958e-01
 1.4254869481e+00	 7.5217845477e-01	 3.1908955290e-01
 1.4182498245e+00	 7.6573683621e-01	 2.3728234303e-01
 1.4108733729e+00	 7.7924437301e-01	 1.5778006919e-01
 1.4033580500e+00	 7.9269896596e-01	 7.9653138955e-02
 1.3957043542e+00	 8.0609851931e-01	 1.9383763292e-03
 1.3879128251e+00	 8.1944094175e-01	-7.6356204857e-02
 1.3799840439e+00	 8.3272414747e-01	-1.5624626721e-01
 1.4583375130e+00	 7.0002407472e-01	 6.7546080027e-01
 1.4516370809e+00	 7.1381495666e-01	 5.7605331164e-01
 1.4447953914e+00	 7.2756325077e-01	 4.8221817538e-01
 1.4378127380e+00	 7.4126684619e-01	 3.9321225345e-01
 1.4306894552e+00	 7.5492363161e-01	 3.0824273622e-01
 1.4234259188e+00	 7.6853149619e-01	 2.2647044783e-01
 1.4160225458e+00	 7.8208833058e-01	 1.4701352715e-01
 1.4084797947e+00	 7.9559202788e-01	 6.8951485366e-02
 1.4007981657e+00	 8.0904048470e-01	-8.6703603216e-03
 1.3929782004e+00	 8.2243160212e-01	-8.6836079998e-02
 1.3850204820e+00	 8.3576328669e-01	-1.6655395620e-01
 1.4636405585e+00	 7.0256961681e-01	 6.6458657084e-01
 1.4569157612e+00	 7.1641064741e-01	 5.6529336684e-01
 1.4500491928e+00	 7.3020893531e-01	 4.7153841677e-01
 1.4430411480e+00	 7.4396236200e-01	 3.8259017553e-01
 1.4358919624e+00	 7.5766880846e-01	 2.9766670155e-01
 1.4286020130e+00	 7.7132615618e-01	 2.1593896510e-01
 1.4211717187e+00	 7.8493228814e-01	 1.3653453932e-01
 1.4136015394e+00	 7.9848508980e-01	 5.8541675344e-02
 1.4058919772e+00	 8.1198245010e-01	-1.8986238865e-02
 1.3980435757e+00	 8.2542226249e-01	-9.7025838771e-02
 1.3900569201e+00	 8.3880242592e-01	-1.7657856737e-01
 1.4689436040e+00	 7.0511515889e-01	 6.5386984945e-01
 1.4621944415e+00	 7.1900633816e-01	 5.5471114610e-01
 1.4553029943e+00	 7.3285461986e-01	 4.6105463042e-01
 1.4482695579e+00	 7.4665787780e-01	 3.7218022002e-01
 1.4410944695e+00	 7.6041398530e-01	 2.8731665525e-01
 1.4337781073e+00	 7.7412081617e-01	 2.0564480940e-01
 1.4263208915e+00	 7.8777624571e-01	 1.2630138895e-01
 1.4187232841e+00	 8.0137815172e-01	 4.8383025543e-02
 1.4109857887e+00	 8.1492441550e-01	-2.9049240544e-02
 1.4031089509e+00	 8.2841292286e-01	-1.0696508787e-01
 1.3950933582e+00	 8.4184156514e-01	-1.8635965691e-01
 1.4742466495e+00	 7.0766070098e-01	 6.4325736259e-01
 1.4674731218e+00	 7.2160202891e-01	 5.4425644594e-01
 1.4605567957e+00	 7.3550030441e-01	 4.5071933051e-01
 1.4534979679e+00	 7.4935339361e-01	 3.6193727142e-01
 1.4462969766e+00	 7.6315916214e-01	 2.7714950964e-01
 1.4389542015e+00	 7.7691547615e-01	 1.9554658310e-01
 1.4314700644e+00	 7.9062020327e-01	 1.1627403522e-01
 1.4238450288e+00	 8.0427121364e-01	 3.8436522977e-02
 1.4160796002e+00	 8.1786638090e-01	-3.8897675394e-02
 1.4081743262e+00	 8.3140358323e-01	-1.1669175543e-01
 1.4001297963e+00	 8.4488070437e-01	-1.9593508860e-01
 1.4795496950e+00	 7.1020624307e-01	 6.3269763979e-01
 1.4727518021e+00	 7.2419771966e-01	 5.3388082362e-01
 1.4658105971e+00	 7.3814598896e-01	 4.4048675544e-01
 1.4587263779e+00	 7.5204890941e-01	 3.5181790774e-01
 1.4514994837e+00	 7.6590433898e-01	 2.6712384585e-01
 1.4441302958e+00	 7.7971013614e-01	 1.8560453875e-01
 1.4366192373e+00	 7.9346416084e-01	 1.0641407499e-01
 1.4289667735e+00	 8.0716427556e-01	 2.8664786150e-02
 1.4211734117e+00	 8.2080834630e-01	-4.8568221787e-02
 1.4132397015e+00	 8.3439424360e-01	-1.2624213135e-01
 1.4051662345e+00	 8.4791984359e-01	-2.0534107488e-01
 1.4848527405e+00	 7.1275178516e-01	 6.2214097781e-01
 1.4780304823e+00	 7.2679341042e-01	 5.2353756115e-01
 1.4710643985e+00	 7.4079167351e-01	 4.3031283151e-01
 1.4639547878e+00	 7.5474442522e-01	 3.4178036387e-01
 1.4567019908e+00	 7.6864951583e-01	 2.5719987674e-01
 1.4493063900e+00	 7.8250479612e-01	 1.7578054147e-01
 1.4417684102e+00	 7.9630811840e-01	 9.6684704678e-02
 1.4340885182e+00	 8.1005733748e-01	 1.9032026333e-02
 1.4262672233e+00	 8.2375031170e-01	-5.8095965839e-02
 1.4183050768e+00	 8.3738490398e-01	-1.3565090740e-01
 1.4102026726e+00	 8.5095898282e-01	-2.1461221779e-01
 1.3598382914e+00	 8.2056759057e-01	-1.1133205856e-01
 1.3518906238e+00	 8.3359647965e-01	-1.9040078041e-01
 1.3438089752e+00	 8.4656292592e-01	-2.6441901351e-01
 1.3355940408e+00	 8.5946489616e-01	-3.3432825354e-01
 1.3272465558e+00	 8.7230036656e-01	-4.0106876140e-01
 1.3187672964e+00	 8.8506732370e-01	-4.6557324748e-01
 1.3101570787e+00	 8.9776376555e-01	-5.2876030696e-01
 1.3014167590e+00	 9.1038770248e-01	-5.9152762662e-01
 1.2925472337e+00	 9.2293715824e-01	-6.5474498558e-01
 1.2835494387e+00	 9.3541017097e-01	-7.1924707463e-01
 1.2744243491e+00	 9.4780479415e-01	-7.8582616063e-01
 1.3648747295e+00	 8.2360672980e-01	-1.2320291714e-01
 1.3568976261e+00	 8.3668387402e-01	-2.0199467585e-01
 1.3487860455e+00	 8.4969834416e-01	-2.7566280732e-01
 1.3405406854e+00	 8.6264809948e-01	-3.4517377567e-01
 1.3321622838e+00	 8.7553110865e-01	-4.1149337083e-01
 1.3236516197e+00	 8.8834535082e-01	-4.7558027258e-01
 1.3150095123e+00	 9.0108881653e-01	-5.3837935776e-01
 1.3062368211e+00	 9.1375950879e-01	-6.0081477147e-01
 1.2973344457e+00	 9.2635544401e-01	-6.6378278490e-01
 1.2883033255e+00	 9.3887465308e-01	-7.2814446481e-01
 1.2791444393e+00	 9.5131518228e-01	-7.9471818155e-01
 1.3699111676e+00	 8.2664586902e-01	-1.3461472104e-01
 1.3619046284e+00	 8.3977126839e-01	-2.1314160492e-01
 1.3537631158e+00	 8.5283376241e-01	-2.8647756565e-01
 1.3454873300e+00	 8.6583130279e-01	-3.5561272084e-01
 1.3370780118e+00	 8.7876185075e-01	-4.2153698397e-01
 1.3285359430e+00	 8.9162337795e-01	-4.8523350862e-01
 1.3198619459e+00	 9.0441386752e-01	-5.4767186809e-01
 1.3110568832e+00	 9.1713131509e-01	-6.0980099136e-01
 1.3021216577e+00	 9.2977372978e-01	-6.7254187837e-01
 1.2930572123e+00	 9.4233913520e-01	-7.3678012009e-01
 1.2838645295e+00	 9.5482557040e-01	-8.0335825052e-01
 1.3749476058e+00	 8.2968500824e-01	-1.4561421049e-01
 1.3669116307e+00	 8.4285866276e-01	-2.2388796742e-01
 1.3587401861e+00	 8.5596918065e-01	-2.9690830281e-01
 1.3504339746e+00	 8.6901450611e-01	-3.6568769029e-01
 1.3419937398e+00	 8.8199259285e-01	-4.3123878028e-01
 1.3334202663e+00	 8.9490140507e-01	-4.9456772482e-01
 1.3247143795e+00	 9.0773891850e-01	-5.5666723005e-01
 1.3158769452e+00	 9.2050312140e-01	-6.1850935728e-01
 1.3069088697e+00	 9.3319201556e-01	-6.8103809617e-01
 1.2978110991e+00	 9.4580361731e-01	-7.4516173565e-01
 1.2885846197e+00	 9.5833595853e-01	-8.1174506041e-01
 1.3799840439e+00	 8.3272414747e-01	-1.5624626721e-01
 1.3719186330e+00	 8.4594605713e-01	-2.3427829090e-01
 1.3637172564e+00	 8.5910459889e-01	-3.0699816050e-01
 1.3553806192e+00	 8.7219770943e-01	-3.7543942544e-01
 1.3469094678e+00	 8.8522333495e-01	-4.4063610500e-01
 1.3383045897e+00	 8.9817943219e-01	-5.0361589430e-01
 1.3295668132e+00	 9.1106396948e-01	-5.6539308994e-01
 1.3206970073e+00	 9.2387492770e-01	-6.2696125663e-01
 1.3116960816e+00	 9.3661030133e-01	-6.8928565865e-01
 1.3025649859e+00	 9.4926809942e-01	-7.5329548193e-01
 1.2933047099e+00	 9.6184634666e-01	-8.1987587531e-01
 1.3850204820e+00	 8.3576328669e-01	-1.6655395620e-01
 1.3769256353e+00	 8.4903345150e-01	-2.4435527313e-01
 1.3686943266e+00	 8.6224001714e-01	-3.1678845073e-01
 1.3603272638e+00	 8.7538091275e-01	-3.8490685090e-01
 1.3518251958e+00	 8.8845407705e-01	-4.4976451200e-01
 1.3431889130e+00	 9.0145745932e-01	-5.1240923642e-01
 1.3344192468e+00	 9.1438902047e-01	-5.7387538984e-01
 1.3255170694e+00	 9.2724673401e-01	-6.3517643376e-01
 1.3164832936e+00	 9.4002858710e-01	-6.9729721554e-01
 1.3073188727e+00	 9.5273258154e-01	-7.6118604212e-01
 1.2980248000e+00	 9.6535673478e-01	-8.2774656615e-01
 1.3900569201e+00	 8.3880242592e-01	-1.7657856737e-01
 1.3819326376e+00	 8.5212084587e-01	-2.5415982440e-01
 1.3736713969e+00	 8.6537543538e-01	-3.2631869852e-01
 1.3652739083e+00	 8.7856411607e-01	-3.9412711731e-01
 1.3567409237e+00	 8.9168481915e-01	-4.5865780640e-01
 1.3480732363e+00	 9.0473548644e-01	-5.2097725899e-01
 1.3392716804e+00	 9.1771407145e-01	-5.8213840907e-01
 1.3303371314e+00	 9.3061854031e-01	-6.4317303033e-01
 1.3212705056e+00	 9.4344687287e-01	-7.0508388506e-01
 1.3120727595e+00	 9.5619706365e-01	-7.6883664973e-01
 1.3027448902e+00	 9.6886712291e-01	-8.3535164645e-01
 1.3950933582e+00	 8.4184156514e-01	-1.8635965691e-01
 1.3869396399e+00	 8.5520824024e-01	-2.6373110970e-01
 1.3786484672e+00	 8.6851085363e-01	-3.3562668445e-01
 1.3702205529e+00	 8.8174731939e-01	-4.0313564399e-01
 1.3616566517e+00	 8.9491556124e-01	-4.6734808708e-01
 1.3529575596e+00	 9.0801351357e-01	-5.2934780026e-01
 1.3441241140e+00	 9.2103912243e-01	-5.9020480549e-01
 1.3351571935e+00	 9.3399034662e-01	-6.5096762570e-01
 1.3260577176e+00	 9.4686515864e-01	-7.1265529294e-01
 1.3168266463e+00	 9.5966154577e-01	-7.7624912614e-01
 1.3074649804e+00	 9.7237751104e-01	-8.4268430805e-01
 1.4001297963e+00	 8.4488070437e-01	-1.9593508860e-01
 1.3919466422e+00	 8.5829563461e-01	-2.7310659063e-01
 1.3836255375e+00	 8.7164627187e-01	-3.4474848701e-01
 1.3751671975e+00	 8.8493052271e-01	-4.1196616145e-01
 1.3665723797e+00	 8.9814630334e-01	-4.7586578903e-01
 1.3578418829e+00	 9.1129154069e-01	-5.3754707090e-01
 1.3489765477e+00	 9.2436417342e-01	-5.9809565670e-01
 1.3399772556e+00	 9.3736215292e-01	-6.5857527709e-01
 1.3308449295e+00	 9.5028344441e-01	-7.2001961145e-01
 1.3215805332e+00	 9.6312602788e-01	-7.8342391808e-01
 1.3121850706e+00	 9.7588789916e-01	-8.4973645687e-01
 1.4051662345e+00	 8.4791984359e-01	-2.0534107488e-01
 1.3969536445e+00	 8.6138302898e-01	-2.8232206718e-01
 1.3886026078e+00	 8.7478169012e-01	-3.5371852482e-01
 1.3801138421e+00	 8.8811372603e-01	-4.2065075368e-01
 1.3714881077e+00	 9.0137704544e-01	-4.8423972549e-01
 1.3627262063e+00	 9.1456956782e-01	-5.4559969572e-01
 1.3538289813e+00	 9.2768922440e-01	-6.0583050116e-01
 1.3447973177e+00	 9.4073395923e-01	-6.6600955979e-01
 1.3356321415e+00	 9.5370173018e-01	-7.2718359834e-01
 1.3263344200e+00	 9.6659051000e-01	-7.9036013512e-01
 1.3169051608e+00	 9.7939828729e-01	-8.5649874869e-01
 1.4102026726e+00	 8.5095898282e-01	-2.1461221779e-01
 1.4019606469e+00	 8.6447042335e-01	-2.9141171939e-01
 1.3935796780e+00	 8.7791710836e-01	-3.6256959863e-01
 1.3850604867e+00	 8.9129692935e-01	-4.2921990035e-01
 1.3764038357e+00	 9.0460778754e-01	-4.9249713003e-01
 1.3676105296e+00	 9.1784759494e-01	-5.5352875532e-01
 1.3586814149e+00	 9.3101427538e-01	-6.1342737912e-01
 1.3496173797e+00	 9.4410576553e-01	-6.7328260720e-01
 1.3404193535e+00	 9.5712001595e-01	-7.3415263573e-01
 1.3310883068e+00	 9.7005499211e-01	-7.9705558717e-01
 1.3216252510e+00	 9.8290867542e-01	-8.6296062497e-01
 1.2744243491e+00	 9.4780479415e-01	-7.8582616063e-01
 1.2651729794e+00	 9.6011909764e-01	-8.5244639713e-01
 1.2557963825e+00	 9.7235116859e-01	-9.1653401853e-01
 1.2462956499e+00	 9.8449911246e-01	-9.7796067975e-01
 1.2366719109e+00	 9.9656105391e-01	-1.0364893563e+00
 1.2269263324e+00	 1.0085351378e+00	-1.0917676319e+00
 1.2170601184e+00	 1.0204195302e+00	-1.1433210834e+00
 1.2070745095e+00	 1.0322124190e+00	-1.1905467999e+00
 1.1969707823e+00	 1.0439120154e+00	-1.2327070724e+00
 1.1867502491e+00	 1.0555165539e+00	-1.2689232932e+00
 1.1764142573e+00	 1.0670242944e+00	-1.2981701299e+00
 1.2791444393e+00	 9.5131518228e-01	-7.9471818155e-01
 1.2698588053e+00	 9.6367509430e-01	-8.6131047565e-01
 1.2604474803e+00	 9.7595246922e-01	-9.2519383226e-01
 1.2509115598e+00	 9.8814540546e-01	-9.8627135075e-01
 1.2412521773e+00	 1.0002520208e+00	-1.0443371021e+00
 1.2314705040e+00	 1.0122704532e+00	-1.0990692327e+00
 1.2215677485e+00	 1.0241988618e+00	-1.1500231615e+00
 1.2115451558e+00	 1.0360354280e+00	-1.1966249085e+00
 1.2014040074e+00	 1.0477783561e+00	-1.2381645918e+00
 1.1911456204e+00	 1.0594258745e+00	-1.2737901327e+00
 1.1807713471e+00	 1.0709762362e+00	-1.3025012077e+00
 1.2838645295e+00	 9.5482557040e-01	-8.0335825052e-01
 1.2745446311e+00	 9.6723109095e-01	-8.6992701915e-01
 1.2650985780e+00	 9.7955376984e-01	-9.3360838888e-01
 1.2555274696e+00	 9.9179169847e-01	-9.9433712139e-01
 1.2458324436e+00	 1.0039429876e+00	-1.0519387542e+00
 1.2360146756e+00	 1.0160057685e+00	-1.1061225182e+00
 1.2260753786e+00	 1.0279781934e+00	-1.1564743448e+00
 1.2160158021e+00	 1.0398584370e+00	-1.2024500010e+00
 1.2058372325e+00	 1.0516446969e+00	-1.2433683900e+00
 1.1955409917e+00	 1.0633351951e+00	-1.2784050594e+00
 1.1851284370e+00	 1.0749281780e+00	-1.3065859541e+00
 1.2885846197e+00	 9.5833595853e-01	-8.1174506041e-01
 1.2792304570e+00	 9.7078708761e-01	-8.7828602240e-01
 1.2697496757e+00	 9.8315507047e-01	-9.4176044724e-01
 1.2601433794e+00	 9.9543799148e-01	-1.0021349837e+00
 1.2504127100e+00	 1.0076339545e+00	-1.0592670130e+00
 1.2405588472e+00	 1.0197410838e+00	-1.1128973783e+00
 1.2305830086e+00	 1.0317575250e+00	-1.1626431989e+00
 1.2204864485e+00	 1.0436814459e+00	-1.2079908087e+00
 1.2102704577e+00	 1.0555110377e+00	-1.2482888583e+00
 1.1999363630e+00	 1.0672445157e+00	-1.2827416208e+00
 1.1894855268e+00	 1.0788801199e+00	-1.3104025438e+00
 1.2933047099e+00	 9.6184634666e-01	-8.1987587531e-01
 1.2839162828e+00	 9.7434308427e-01	-8.8637614129e-01
 1.2744007734e+00	 9.8675637109e-01	-9.4963149431e-01
 1.2647592892e+00	 9.9908428449e-01	-1.0096407019e+00
 1.2549929763e+00	 1.0113249214e+00	-1.0662933727e+00
 1.2451030188e+00	 1.0234763991e+00	-1.1193624956e+00
 1.2350906387e+00	 1.0355368566e+00	-1.1684970579e+00
 1.2249570948e+00	 1.0475044549e+00	-1.2132147853e+00
 1.2147036828e+00	 1.0593773785e+00	-1.2528950408e+00
 1.2043317343e+00	 1.0711538362e+00	-1.2867719265e+00
 1.1938426166e+00	 1.0828320617e+00	-1.3139276283e+00
 1.2980248000e+00	 9.6535673478e-01	-8.2774656615e-01
 1.2886021087e+00	 9.7789908093e-01	-8.9418472662e-01
 1.2790518711e+00	 9.9035767171e-01	-9.5720177751e-01
 1.2693751990e+00	 1.0027305775e+00	-1.0168288438e+00
 1.2595732426e+00	 1.0150158882e+00	-1.0729881517e+00
 1.2496471905e+00	 1.0272117145e+00	-1.1254853747e+00
 1.2395982688e+00	 1.0393161882e+00	-1.1740020541e+00
 1.2294277411e+00	 1.0513274638e+00	-1.2180881363e+00
 1.2191369079e+00	 1.0632437193e+00	-1.2571546663e+00
 1.2087271056e+00	 1.0750631568e+00	-1.2904666805e+00
 1.1981997065e+00	 1.0867840035e+00	-1.3171363420e+00
 1.3027448902e+00	 9.6886712291e-01	-8.3535164645e-01
 1.2932879345e+00	 9.8145507759e-01	-9.0169785802e-01
 1.2837029688e+00	 9.9395897234e-01	-9.6445033720e-01
 1.2739911088e+00	 1.0063768705e+00	-1.0236728121e+00
 1.2641535090e+00	 1.0187068551e+00	-1.0793205229e+00
 1.2541913621e+00	 1.0309470298e+00	-1.1312323729e+00
 1.2441058988e+00	 1.0430955198e+00	-1.1791231483e+00
 1.2338983875e+00	 1.0551504728e+00	-1.2225758499e+00
 1.2235701330e+00	 1.0671100601e+00	-1.2610341779e+00
 1.2131224769e+00	 1.0789724774e+00	-1.2937952124e+00
 1.2025567963e+00	 1.0907359453e+00	-1.3200023345e+00
 1.3074649804e+00	 9.7237751104e-01	-8.4268430805e-01
 1.2979737604e+00	 9.8501107424e-01	-9.0890037798e-01
 1.2883540665e+00	 9.9756027296e-01	-9.7135503924e-01
 1.2786070186e+00	 1.0100231635e+00	-1.0301448757e+00
 1.2687337753e+00	 1.0223978220e+00	-1.0852585448e+00
 1.2587355337e+00	 1.0346823451e+00	-1.1365687303e+00
 1.2486135289e+00	 1.0468748514e+00	-1.1838241597e+00
 1.2383690338e+00	 1.0589734818e+00	-1.2266417270e+00
 1.2280033581e+00	 1.0709764009e+00	-1.2644987649e+00
 1.2175178482e+00	 1.0828817979e+00	-1.2967255095e+00
 1.2069138862e+00	 1.0946878872e+00	-1.3224978040e+00
 1.3121850706e+00	 9.7588789916e-01	-8.4973645687e-01
 1.3026595862e+00	 9.8856707090e-01	-9.1577592586e-01
 1.2930051643e+00	 1.0011615736e+00	-9.7789260764e-01
 1.2832229285e+00	 1.0136694565e+00	-1.0362162016e+00
 1.2733140416e+00	 1.0260887888e+00	-1.0907691919e+00
 1.2632797053e+00	 1.0384176604e+00	-1.1414586001e+00
 1.2531211590e+00	 1.0506541829e+00	-1.1880677966e+00
 1.2428396801e+00	 1.0627964907e+00	-1.2302484120e+00
 1.2324365833e+00	 1.0748427417e+00	-1.2675123931e+00
 1.2219132195e+00	 1.0867911185e+00	-1.2992242487e+00
 1.2112709760e+00	 1.0986398290e+00	-1.3245935301e+00
 1.3169051608e+00	 9.7939828729e-01	-8.5649874869e-01
 1.3073454121e+00	 9.9212306756e-01	-9.2230697201e-01
 1.2976562620e+00	 1.0047628742e+00	-9.8403865734e-01
 1.2878388383e+00	 1.0173157495e+00	-1.0418568864e+00
 1.2778943080e+00	 1.0297797557e+00	-1.0958183862e+00
 1.2678238769e+00	 1.0421529758e+00	-1.1458650793e+00
 1.2576287890e+00	 1.0544335145e+00	-1.1918156864e+00
 1.2473103265e+00	 1.0666194997e+00	-1.2333574232e+00
 1.2368698084e+00	 1.0787090825e+00	-1.2700378369e+00
 1.2263085908e+00	 1.0907004391e+00	-1.3012568285e+00
 1.2156280659e+00	 1.1025917708e+00	-1.3262589074e+00
 1.3216252510e+00	 9.8290867542e-01	-8.6296062497e-01
 1.3120312379e+00	 9.9567906422e-01	-9.2847485197e-01
 1.3023073597e+00	 1.0083641748e+00	-9.8976772704e-01
 1.2924547481e+00	 1.0209620425e+00	-1.0470359882e+00
 1.2824745743e+00	 1.0334707226e+00	-1.1003710279e+00
 1.2723680485e+00	 1.0458882911e+00	-1.1497502394e+00
 1.2621364191e+00	 1.0582128461e+00	-1.1950284066e+00
 1.2517809728e+00	 1.0704425086e+00	-1.2359291840e+00
 1.2413030335e+00	 1.0825754233e+00	-1.2720367097e+00
 1.2307039621e+00	 1.0946097596e+00	-1.3027874011e+00
 1.2199851557e+00	 1.1065437127e+00	-1.3274619786e+00
 1.1764142573e+00	 1.0670242944e+00	-1.2981701299e+00
 1.1659641884e+00	 1.0784335218e+00	-1.3285008862e+00
 1.1554014580e+00	 1.0897425477e+00	-1.3673550707e+00
 1.1447275148e+00	 1.1009497111e+00	-1.4126525297e+00
 1.1339438400e+00	 1.1120533788e+00	-1.4622508908e+00
 1.1230519466e+00	 1.1230519466e+00	-1.5139528218e+00
 1.1120533788e+00	 1.1339438400e+00	-1.5655137223e+00
 1.1009497111e+00	 1.1447275148e+00	-1.6146498172e+00
 1.0897425477e+00	 1.1554014580e+00	-1.6590466181e+00
 1.0784335218e+00	 1.1659641884e+00	-1.6963677177e+00
 1.0670242944e+00	 1.1764142573e+00	-1.7242638776e+00
 1.1807713471e+00	 1.0709762362e+00	-1.3025012077e+00
 1.1702825743e+00	 1.0824277200e+00	-1.3319308078e+00
 1.1596807227e+00	 1.0937786312e+00	-1.3701610401e+00
 1.1489672463e+00	 1.1050273026e+00	-1.4152152431e+00
 1.1381436320e+00	 1.1161720950e+00	-1.4648975384e+00
 1.1272113982e+00	 1.1272113982e+00	-1.5169558080e+00
 1.1161720950e+00	 1.1381436320e+00	-1.5690895621e+00
 1.1050273026e+00	 1.1489672463e+00	-1.6189582198e+00
 1.0937786312e+00	 1.1596807227e+00	-1.6641897675e+00
 1.0824277200e+00	 1.1702825743e+00	-1.7023897589e+00
 1.0709762362e+00	 1.1807713471e+00	-1.7305989924e+00
 1.1851284370e+00	 1.0749281780e+00	-1.3065859541e+00
 1.1746009602e+00	 1.0864219182e+00	-1.3354116426e+00
 1.1639599873e+00	 1.0978147147e+00	-1.3730225780e+00
 1.1532069779e+00	 1.1091048941e+00	-1.4178522817e+00
 1.1423434240e+00	 1.1202908112e+00	-1.4676543084e+00
 1.1313708499e+00	 1.1313708499e+00	-1.5201245967e+00
 1.1202908112e+00	 1.1423434240e+00	-1.5729095104e+00
 1.1091048941e+00	 1.1532069779e+00	-1.6236143048e+00
 1.0978147147e+00	 1.1639599873e+00	-1.6698119800e+00
 1.0864219182e+00	 1.1746009602e+00	-1.7090524867e+00
 1.0749281780e+00	 1.1851284370e+00	-1.7365729782e+00
 1.1894855268e+00	 1.0788801199e+00	-1.3104025438e+00
 1.1789193460e+00	 1.0904161164e+00	-1.3388642417e+00
 1.1682392520e+00	 1.1018507982e+00	-1.3759076534e+00
 1.1574467094e+00	 1.1131824856e+00	-1.4205384851e+00
 1.1465432160e+00	 1.1244095274e+00	-1.4705027024e+00
 1.1355303016e+00	 1.1355303016e+00	-1.5234471006e+00
 1.1244095274e+00	 1.1465432160e+00	-1.5769675982e+00
 1.1131824856e+00	 1.1574467094e+00	-1.6286178855e+00
 1.1018507982e+00	 1.1682392520e+00	-1.6759184725e+00
 1.0904161164e+00	 1.1789193460e+00	-1.7161655477e+00
 1.0788801199e+00	 1.1894855268e+00	-1.7421056197e+00
 1.1938426166e+00	 1.0828320617e+00	-1.3139276283e+00
 1.1832377319e+00	 1.0944103147e+00	-1.3420708750e+00
 1.1725185166e+00	 1.1058868818e+00	-1.3787815382e+00
 1.1616864410e+00	 1.1172600772e+00	-1.4232459367e+00
 1.1507430080e+00	 1.1285282436e+00	-1.4734214172e+00
 1.1396897532e+00	 1.1396897532e+00	-1.5269083915e+00
 1.1285282436e+00	 1.1507430080e+00	-1.5812549912e+00
 1.1172600772e+00	 1.1616864410e+00	-1.6339658983e+00
 1.1058868818e+00	 1.1725185166e+00	-1.6825115853e+00
 1.0944103147e+00	 1.1832377319e+00	-1.7227699129e+00
 1.0828320617e+00	 1.1938426166e+00	-1.7471167976e+00
 1.1981997065e+00	 1.0867840035e+00	-1.3171363420e+00
 1.1875561178e+00	 1.0984045129e+00	-1.3449876145e+00
 1.1767977813e+00	 1.1099229653e+00	-1.3816062238e+00
 1.1659261725e+00	 1.1213376687e+00	-1.4259439208e+00
 1.1549428000e+00	 1.1326469599e+00	-1.4763863038e+00
 1.1438492049e+00	 1.1438492049e+00	-1.5304906596e+00
 1.1326469599e+00	 1.1549428000e+00	-1.5857599504e+00
 1.1213376687e+00	 1.1659261725e+00	-1.6396523641e+00
 1.1099229653e+00	 1.1767977813e+00	-1.6895868104e+00
 1.0984045129e+00	 1.1875561178e+00	-1.7286685382e+00
 1.0867840035e+00	 1.1981997065e+00	-1.7515264364e+00
 1.2025567963e+00	 1.0907359453e+00	-1.3200023345e+00
 1.1918745037e+00	 1.1023987111e+00	-1.3475930248e+00
 1.1810770460e+00	 1.1139590488e+00	-1.3842408151e+00
 1.1701659040e+00	 1.1254152602e+00	-1.4285988790e+00
 1.1591425920e+00	 1.1367656761e+00	-1.4793703253e+00
 1.1480086565e+00	 1.1480086565e+00	-1.5341731736e+00
 1.1367656761e+00	 1.1591425920e+00	-1.5904677931e+00
 1.1254152602e+00	 1.1701659040e+00	-1.6456683501e+00
 1.1139590488e+00	 1.1810770460e+00	-1.6963568453e+00
 1.1023987111e+00	 1.1918745037e+00	-1.7337785689e+00
 1.0907359453e+00	 1.2025567963e+00	-1.7552545432e+00
 1.2069138862e+00	 1.0946878872e+00	-1.3224978040e+00
 1.1961928896e+00	 1.1063929094e+00	-1.3498641012e+00
 1.1853563106e+00	 1.1179951323e+00	-1.3865847587e+00
 1.1744056356e+00	 1.1294928517e+00	-1.4311743675e+00
 1.1633423840e+00	 1.1408843923e+00	-1.4823435150e+00
 1.1521681082e+00	 1.1521681082e+00	-1.5379322396e+00
 1.1408843923e+00	 1.1633423840e+00	-1.5953608531e+00
 1.1294928517e+00	 1.1744056356e+00	-1.6520019316e+00
 1.1179951323e+00	 1.1853563106e+00	-1.7021729925e+00
 1.1063929094e+00	 1.1961928896e+00	-1.7380172980e+00
 1.0946878872e+00	 1.2069138862e+00	-1.7582212471e+00
 1.2112709760e+00	 1.0986398290e+00	-1.3245935301e+00
 1.2005112755e+00	 1.1103871076e+00	-1.3517763042e+00
 1.1896355753e+00	 1.1220312158e+00	-1.3886179425e+00
 1.1786453671e+00	 1.1335704433e+00	-1.4336156272e+00
 1.1675421760e+00	 1.1450031085e+00	-1.4852729349e+00
 1.1563275598e+00	 1.1563275598e+00	-1.5417411607e+00
 1.1450031085e+00	 1.1675421760e+00	-1.6004184412e+00
 1.1335704433e+00	 1.1786453671e+00	-1.6584470312e+00
 1.1220312158e+00	 1.1896355753e+00	-1.7069492126e+00
 1.1103871076e+00	 1.2005112755e+00	-1.7413022054e+00
 1.0986398290e+00	 1.2112709760e+00	-1.7603468378e+00
 1.2156280659e+00	 1.1025917708e+00	-1.3262589074e+00
 1.2048296613e+00	 1.1143813058e+00	-1.3533035938e+00
 1.1939148399e+00	 1.1260672993e+00	-1.3903186424e+00
 1.1828850986e+00	 1.1376480348e+00	-1.4358022688e+00
 1.1717419680e+00	 1.1491218247e+00	-1.4881226333e+00
 1.1604870115e+00	 1.1604870115e+00	-1.5455701960e+00
 1.1491218247e+00	 1.1717419680e+00	-1.6056168059e+00
 1.1376480348e+00	 1.1828850986e+00	-1.6638695204e+00
 1.1260672993e+00	 1.1939148399e+00	-1.7105997240e+00
 1.1143813058e+00	 1.2048296613e+00	-1.7435509969e+00
 1.1025917708e+00	 1.2156280659e+00	-1.7615518045e+00
 1.2199851557e+00	 1.1065437127e+00	-1.3274619786e+00
 1.2091480472e+00	 1.1183755040e+00	-1.3544184641e+00
 1.1981941046e+00	 1.1301033828e+00	-1.3916635581e+00
 1.1871248302e+00	 1.1417256263e+00	-1.4377000833e+00
 1.1759417600e+00	 1.1532405409e+00	-1.4908536034e+00
 1.1646464631e+00	 1.1646464631e+00	-1.5493865202e+00
 1.1532405409e+00	 1.1759417600e+00	-1.6109290934e+00
 1.1417256263e+00	 1.1871248302e+00	-1.6680103265e+00
 1.1301033828e+00	 1.1981941046e+00	-1.7130390418e+00
 1.1183755040e+00	 1.2091480472e+00	-1.7446816429e+00
 1.1065437127e+00	 1.2199851557e+00	-1.7617568749e+00
 1.0670242944e+00	 1.1764142573e+00	-1.7242638776e+00
 1.0555165539e+00	 1.1867502491e+00	-1.7475796678e+00
 1.0439120154e+00	 1.1969707823e+00	-1.7722068278e+00
 1.0322124190e+00	 1.2070745095e+00	-1.7975561211e+00
 1.0204195302e+00	 1.2170601184e+00	-1.8231589811e+00
 1.0085351378e+00	 1.2269263324e+00	-1.8486643742e+00
 9.9656105391e-01	 1.2366719109e+00	-1.8738353433e+00
 9.8449911246e-01	 1.2462956499e+00	-1.8985451700e+00
 9.7235116859e-01	 1.2557963825e+00	-1.9227731854e+00
 9.6011909764e-01	 1.2651729794e+00	-1.9466002634e+00
 9.4780479415e-01	 1.2744243491e+00	-1.9702040301e+00
 1.0709762362e+00	 1.1807713471e+00	-1.7305989924e+00
 1.0594258745e+00	 1.1911456204e+00	-1.7522390936e+00
 1.0477783561e+00	 1.2014040074e+00	-1.7754928019e+00
 1.0360354280e+00	 1.2115451558e+00	-1.7997505001e+00
 1.0241988618e+00	 1.2215677485e+00	-1.8245231768e+00
 1.0122704532e+00	 1.2314705040e+00	-1.8494393150e+00
 1.0002520208e+00	 1.2412521773e+00	-1.8742413645e+00
 9.8814540546e-01	 1.2509115598e+00	-1.8987818279e+00
 9.7595246922e-01	 1.2604474803e+00	-1.9230189916e+00
 9.6367509430e-01	 1.2698588053e+00	-1.9470123372e+00
 9.5131518228e-01	 1.2791444393e+00	-1.9709176654e+00
 1.0749281780e+00	 1.1851284370e+00	-1.7365729782e+00
 1.0633351951e+00	 1.1955409917e+00	-1.7566518610e+00
 1.0516446969e+00	 1.2058372325e+00	-1.7786494523e+00
 1.0398584370e+00	 1.2160158021e+00	-1.8019317816e+00
 1.0279781934e+00	 1.2260753786e+00	-1.8259854935e+00
 1.0160057685e+00	 1.2360146756e+00	-1.8504146729e+00
 1.0039429876e+00	 1.2458324436e+00	-1.8749372493e+00
 9.9179169847e-01	 1.2555274696e+00	-1.8993810097e+00
 9.7955376984e-01	 1.2650985780e+00	-1.9236792535e+00
 9.6723109095e-01	 1.2745446311e+00	-1.9478661244e+00
 9.5482557040e-01	 1.2838645295e+00	-1.9720716525e+00
 1.0788801199e+00	 1.1894855268e+00	-1.7421056197e+00
 1.0672445157e+00	 1.1999363630e+00	-1.7607400787e+00
 1.0555110377e+00	 1.2102704577e+00	-1.7816004969e+00
 1.0436814459e+00	 1.2204864485e+00	-1.8040247165e+00
 1.0317575250e+00	 1.2305830086e+00	-1.8274711854e+00
 1.0197410838e+00	 1.2405588472e+00	-1.8515157234e+00
 1.0076339545e+00	 1.2504127100e+00	-1.8758478606e+00
 9.9543799148e-01	 1.2601433794e+00	-1.9002667813e+00
 9.8315507047e-01	 1.2697496757e+00	-1.9246769052e+00
 9.7078708761e-01	 1.2792304570e+00	-1.9490831428e+00
 9.5833595853e-01	 1.2885846197e+00	-1.9735858583e+00
 1.0828320617e+00	 1.1938426166e+00	-1.7471167976e+00
 1.0711538362e+00	 1.2043317343e+00	-1.7644258404e+00
 1.0593773785e+00	 1.2147036828e+00	-1.7842696253e+00
 1.0475044549e+00	 1.2249570948e+00	-1.8059540181e+00
 1.0355368566e+00	 1.2350906387e+00	-1.8289054643e+00
 1.0234763991e+00	 1.2451030188e+00	-1.8526676982e+00
 1.0113249214e+00	 1.2549929763e+00	-1.8768980202e+00
 9.9908428449e-01	 1.2647592892e+00	-1.9013631730e+00
 9.8675637109e-01	 1.2744007734e+00	-1.9259348530e+00
 9.7434308427e-01	 1.2839162828e+00	-1.9505848917e+00
 9.6184634666e-01	 1.2933047099e+00	-1.9753801430e+00
 1.0867840035e+00	 1.1981997065e+00	-1.7515264364e+00
 1.0750631568e+00	 1.2087271056e+00	-1.7676312639e+00
 1.0632437193e+00	 1.2191369079e+00	-1.7865805364e+00
 1.0513274638e+00	 1.2294277411e+00	-1.8076443995e+00
 1.0393161882e+00	 1.2395982688e+00	-1.8302135360e+00
 1.0272117145e+00	 1.2496471905e+00	-1.8537958218e+00
 1.0150158882e+00	 1.2595732426e+00	-1.8780125439e+00
 1.0027305775e+00	 1.2693751990e+00	-1.9025942131e+00
 9.9035767171e-01	 1.2790518711e+00	-1.9273760077e+00
 9.7789908093e-01	 1.2886021087e+00	-1.9522928837e+00
 9.6535673478e-01	 1.2980248000e+00	-1.9773743895e+00
 1.0907359453e+00	 1.2025567963e+00	-1.7552545432e+00
 1.0789724774e+00	 1.2131224769e+00	-1.7702785298e+00
 1.0671100601e+00	 1.2235701330e+00	-1.7884569773e+00
 1.0551504728e+00	 1.2338983875e+00	-1.8090206115e+00
 1.0430955198e+00	 1.2441058988e+00	-1.8313206379e+00
 1.0309470298e+00	 1.2541913621e+00	-1.8548253472e+00
 1.0187068551e+00	 1.2641535090e+00	-1.8791162767e+00
 1.0063768705e+00	 1.2739911088e+00	-1.9038839624e+00
 9.9395897234e-01	 1.2837029688e+00	-1.9289233179e+00
 9.8145507759e-01	 1.2932879345e+00	-1.9541286763e+00
 9.6886712291e-01	 1.3027448902e+00	-1.9794885339e+00
 1.0946878872e+00	 1.2069138862e+00	-1.7582212471e+00
 1.0828817979e+00	 1.2175178482e+00	-1.7722899205e+00
 1.0709764009e+00	 1.2280033581e+00	-1.7898227814e+00
 1.0589734818e+00	 1.2383690338e+00	-1.8100074803e+00
 1.0468748514e+00	 1.2486135289e+00	-1.8321520759e+00
 1.0346823451e+00	 1.2587355337e+00	-1.8556815924e+00
 1.0223978220e+00	 1.2687337753e+00	-1.8801341277e+00
 1.0100231635e+00	 1.2786070186e+00	-1.9051565479e+00
 9.9756027296e-01	 1.2883540665e+00	-1.9304998027e+00
 9.8501107424e-01	 1.2979737604e+00	-1.9560139029e+00
 9.7237751104e-01	 1.3074649804e+00	-1.9816425957e+00
 1.0986398290e+00	 1.2112709760e+00	-1.7603468378e+00
 1.0867911185e+00	 1.2219132195e+00	-1.7735878587e+00
 1.0748427417e+00	 1.2324365833e+00	-1.7906019065e+00
 1.0627964907e+00	 1.2428396801e+00	-1.8105299449e+00
 1.0506541829e+00	 1.2531211590e+00	-1.8326332606e+00
 1.0384176604e+00	 1.2632797053e+00	-1.8562899756e+00
 1.0260887888e+00	 1.2733140416e+00	-1.8809911052e+00
 1.0136694565e+00	 1.2832229285e+00	-1.9063361962e+00
 1.0011615736e+00	 1.2930051643e+00	-1.9320285836e+00
 9.8856707090e-01	 1.3026595862e+00	-1.9578703044e+00
 9.7588789916e-01	 1.3121850706e+00	-1.9837567075e+00
 1.1025917708e+00	 1.2156280659e+00	-1.7615518045e+00
 1.0907004391e+00	 1.2263085908e+00	-1.7740949458e+00
 1.0787090825e+00	 1.2368698084e+00	-1.7907184730e+00
 1.0666194997e+00	 1.2473103265e+00	-1.8105130946e+00
 1.0544335145e+00	 1.2576287890e+00	-1.8326897445e+00
 1.0421529758e+00	 1.2678238769e+00	-1.8565760517e+00
 1.0297797557e+00	 1.2778943080e+00	-1.8816123510e+00
 1.0173157495e+00	 1.2878388383e+00	-1.9073472678e+00
 1.0047628742e+00	 1.2976562620e+00	-1.9334329179e+00
 9.9212306756e-01	 1.3073454121e+00	-1.9596197605e+00
 9.7939828729e-01	 1.3169051608e+00	-1.9857511451e+00
 1.1065437127e+00	 1.2199851557e+00	-1.7617568749e+00
 1.0946097596e+00	 1.2307039621e+00	-1.7737340003e+00
 1.0825754233e+00	 1.2413030335e+00	-1.7900968014e+00
 1.0704425086e+00	 1.2517809728e+00	-1.8098822061e+00
 1.0582128461e+00	 1.2621364191e+00	-1.8322472580e+00
 1.0458882911e+00	 1.2723680485e+00	-1.8564655472e+00
 1.0334707226e+00	 1.2824745743e+00	-1.8819231753e+00
 1.0209620425e+00	 1.2924547481e+00	-1.9081142901e+00
 1.0083641748e+00	 1.3023073597e+00	-1.9346362304e+00
 9.9567906422e-01	 1.3120312379e+00	-1.9611843208e+00
 9.8290867542e-01	 1.3216252510e+00	-1.9875463575e+00
 9.4780479415e-01	 1.2744243491e+00	-1.9702040301e+00
 9.3541017097e-01	 1.2835494387e+00	-1.9924013415e+00
 9.2293715824e-01	 1.2925472337e+00	-2.0118319590e+00
 9.1038770248e-01	 1.3014167590e+00	-2.0285210113e+00
 8.9776376555e-01	 1.3101570787e+00	-2.0425479426e+00
 8.8506732370e-01	 1.3187672964e+00	-2.0540417016e+00
 8.7230036656e-01	 1.3272465558e+00	-2.0631758767e+00
 8.5946489616e-01	 1.3355940408e+00	-2.0701638114e+00
 8.4656292592e-01	 1.3438089752e+00	-2.0752537309e+00
 8.3359647965e-01	 1.3518906238e+00	-2.0787239102e+00
 8.2056759057e-01	 1.3598382914e+00	-2.0808779135e+00
 9.5131518228e-01	 1.2791444393e+00	-1.9709176654e+00
 9.3887465308e-01	 1.2883033255e+00	-1.9934181447e+00
 9.2635544401e-01	 1.2973344457e+00	-2.0130407885e+00
 9.1375950879e-01	 1.3062368211e+00	-2.0298213904e+00
 9.0108881653e-01	 1.3150095123e+00	-2.0438518863e+00
 8.8834535082e-01	 1.3236516197e+00	-2.0552753970e+00
 8.7553110865e-01	 1.3321622838e+00	-2.0642812176e+00
 8.6264809948e-01	 1.3405406854e+00	-2.0710997861e+00
 8.4969834416e-01	 1.3487860455e+00	-2.0759976643e+00
 8.3668387402e-01	 1.3568976261e+00	-2.0792725626e+00
 8.2360672980e-01	 1.3648747295e+00	-2.0812484376e+00
 9.5482557040e-01	 1.2838645295e+00	-1.9720716525e+00
 9.4233913520e-01	 1.2930572123e+00	-1.9948561925e+00
 9.2977372978e-01	 1.3021216577e+00	-2.0146487098e+00
 9.1713131509e-01	 1.3110568832e+00	-2.0314974803e+00
 9.0441386752e-01	 1.3198619459e+00	-2.0455087742e+00
 8.9162337795e-01	 1.3285359430e+00	-2.0568417475e+00
 8.7876185075e-01	 1.3370780118e+00	-2.0657032792e+00
 8.6583130279e-01	 1.3454873300e+00	-2.0723427877e+00
 8.5283376241e-01	 1.3537631158e+00	-2.0770470615e+00
 8.3977126839e-01	 1.3619046284e+00	-2.0801351336e+00
 8.2664586902e-01	 1.3699111676e+00	-2.0819532332e+00
 9.5833595853e-01	 1.2885846197e+00	-1.9735858583e+00
 9.4580361731e-01	 1.2978110991e+00	-1.9966336877e+00
 9.3319201556e-01	 1.3069088697e+00	-2.0165724263e+00
 9.2050312140e-01	 1.3158769452e+00	-2.0334646372e+00
 9.0773891850e-01	 1.3247143795e+00	-2.0474327559e+00
 8.9490140507e-01	 1.3334202663e+00	-2.0586538243e+00
 8.8199259285e-01	 1.3419937398e+00	-2.0673541703e+00
 8.6901450611e-01	 1.3504339746e+00	-2.0738040667e+00
 8.5596918065e-01	 1.3587401861e+00	-2.0783124054e+00
 8.4285866276e-01	 1.3669116307e+00	-2.0812214172e+00
 8.2968500824e-01	 1.3749476058e+00	-2.0829014716e+00
 9.6184634666e-01	 1.2933047099e+00	-1.9753801430e+00
 9.4926809942e-01	 1.3025649859e+00	-1.9986688358e+00
 9.3661030133e-01	 1.3116960816e+00	-2.0187286494e+00
 9.2387492770e-01	 1.3206970073e+00	-2.0356382281e+00
 9.1106396948e-01	 1.3295668132e+00	-2.0495379914e+00
 8.9817943219e-01	 1.3383045897e+00	-2.0606247061e+00
 8.8522333495e-01	 1.3469094678e+00	-2.0691460023e+00
 8.7219770943e-01	 1.3553806192e+00	-2.0753948693e+00
 8.5910459889e-01	 1.3637172564e+00	-2.0797041673e+00
 8.4594605713e-01	 1.3719186330e+00	-2.0824411878e+00
 8.3272414747e-01	 1.3799840439e+00	-2.0840022955e+00
 9.6535673478e-01	 1.2980248000e+00	-1.9773743895e+00
 9.5273258154e-01	 1.3073188727e+00	-2.0008798732e+00
 9.4002858710e-01	 1.3164832936e+00	-2.0210341267e+00
 9.2724673401e-01	 1.3255170694e+00	-2.0379336570e+00
 9.1438902047e-01	 1.3344192468e+00	-2.0517386758e+00
 9.0145745932e-01	 1.3431889130e+00	-2.0626675027e+00
 8.8845407705e-01	 1.3518251958e+00	-2.0709909116e+00
 8.7538091275e-01	 1.3603272638e+00	-2.0770264590e+00
 8.6224001714e-01	 1.3686943266e+00	-2.0811328271e+00
 8.4903345150e-01	 1.3769256353e+00	-2.0837042188e+00
 8.3576328669e-01	 1.3850204820e+00	-2.0851648372e+00
 9.6886712291e-01	 1.3027448902e+00	-1.9794885339e+00
 9.5619706365e-01	 1.3120727595e+00	-2.0031850968e+00
 9.4344687287e-01	 1.3212705056e+00	-2.0234056687e+00
 9.3061854031e-01	 1.3303371314e+00	-2.0402663910e+00
 9.1771407145e-01	 1.3392716804e+00	-2.0539490645e+00
 9.0473548644e-01	 1.3480732363e+00	-2.0646953784e+00
 8.9168481915e-01	 1.3567409237e+00	-2.0728010820e+00
 8.7856411607e-01	 1.3652739083e+00	-2.0786101380e+00
 8.6537543538e-01	 1.3736713969e+00	-2.0825088930e+00
 8.5212084587e-01	 1.3819326376e+00	-2.0849203014e+00
 8.3880242592e-01	 1.3900569201e+00	-2.0862982364e+00
 9.7237751104e-01	 1.3074649804e+00	-1.9816425957e+00
 9.5966154577e-01	 1.3168266463e+00	-2.0055028922e+00
 9.4686515864e-01	 1.3260577176e+00	-2.0257601768e+00
 9.3399034662e-01	 1.3351571935e+00	-2.0425519864e+00
 9.2103912243e-01	 1.3441241140e+00	-2.0560834979e+00
 9.0801351357e-01	 1.3529575596e+00	-2.0666215763e+00
 8.9491556124e-01	 1.3616566517e+00	-2.0744887669e+00
 8.8174731939e-01	 1.3702205529e+00	-2.0800572680e+00
 8.6851085363e-01	 1.3786484672e+00	-2.0837429222e+00
 8.5520824024e-01	 1.3869396399e+00	-2.0859992641e+00
 8.4184156514e-01	 1.3950933582e+00	-2.0873116573e+00
 9.7588789916e-01	 1.3121850706e+00	-1.9837567075e+00
 9.6312602788e-01	 1.3215805332e+00	-2.0077517623e+00
 9.5028344441e-01	 1.3308449295e+00	-2.0280146704e+00
 9.3736215292e-01	 1.3399772556e+00	-2.0447061152e+00
 9.2436417342e-01	 1.3489765477e+00	-2.0580564262e+00
 9.1129154069e-01	 1.3578418829e+00	-2.0683594413e+00
 8.9814630334e-01	 1.3665723797e+00	-2.0759663124e+00
 8.8493052271e-01	 1.3751671975e+00	-2.0812792921e+00
 8.7164627187e-01	 1.3836255375e+00	-2.0847455406e+00
 8.5829563461e-01	 1.3919466422e+00	-2.0868509910e+00
 8.4488070437e-01	 1.4001297963e+00	-2.0881143075e+00
 9.7939828729e-01	 1.3169051608e+00	-1.9857511451e+00
 9.6659051000e-01	 1.3263344200e+00	-2.0098503564e+00
 9.5370173018e-01	 1.3356321415e+00	-2.0300863143e+00
 9.4073395923e-01	 1.3447973177e+00	-2.0466445906e+00
 9.2768922440e-01	 1.3538289813e+00	-2.0597824345e+00
 9.1456956782e-01	 1.3627262063e+00	-2.0698224442e+00
 9.0137704544e-01	 1.3714881077e+00	-2.0771461792e+00
 8.8811372603e-01	 1.3801138421e+00	-2.0821877557e+00
 8.7478169012e-01	 1.3886026078e+00	-2.0854274631e+00
 8.6138302898e-01	 1.3969536445e+00	-2.0873854414e+00
 8.4791984359e-01	 1.4051662345e+00	-2.0886154551e+00
 9.8290867542e-01	 1.3216252510e+00	-1.9875463575e+00
 9.7005499211e-01	 1.3310883068e+00	-2.0117174984e+00
 9.5712001595e-01	 1.3404193535e+00	-2.0318924462e+00
 9.4410576553e-01	 1.3496173797e+00	-2.0482833935e+00
 9.3101427538e-01	 1.3586814149e+00	-2.0611762678e+00
 9.1784759494e-01	 1.3676105296e+00	-2.0709242054e+00
 9.0460778754e-01	 1.3764038357e+00	-2.0779409656e+00
 8.9129692935e-01	 1.3850604867e+00	-2.0826943281e+00
 8.7791710836e-01	 1.3935796780e+00	-2.0856995139e+00
 8.6447042335e-01	 1.4019606469e+00	-2.0875126687e+00
 8.5095898282e-01	 1.4102026726e+00	-2.0887244469e+00
 8.2056759057e-01	 1.3598382914e+00	-2.0808779135e+00
 8.0747830026e-01	 1.3676513240e+00	-2.0802626645e+00
 7.9433065771e-01	 1.3753291081e+00	-2.0756526339e+00
 7.8112671828e-01	 1.3828710712e+00	-2.0677085023e+00
 7.6786854275e-01	 1.3902766813e+00	-2.0570869598e+00
 7.5455819626e-01	 1.3975454475e+00	-2.0444365039e+00
 7.4119774740e-01	 1.4046769197e+00	-2.0303934715e+00
 7.2778926717e-01	 1.4116706883e+00	-2.0155783227e+00
 7.1433482802e-01	 1.4185263843e+00	-2.0005921904e+00
 7.0083650290e-01	 1.4252436794e+00	-1.9860137116e+00
 6.8729636427e-01	 1.4318222855e+00	-1.9723961492e+00
 8.2360672980e-01	 1.3648747295e+00	-2.0812484376e+00
 8.1046896063e-01	 1.3727166993e+00	-2.0804320728e+00
 7.9727262311e-01	 1.3804229197e+00	-2.0755490945e+00
 7.8401978020e-01	 1.3879928159e+00	-2.0672675272e+00
 7.7071250031e-01	 1.3954258542e+00	-2.0562504965e+00
 7.5735285625e-01	 1.4027215418e+00	-2.0431519415e+00
 7.4394292424e-01	 1.4098794268e+00	-2.0286125691e+00
 7.3048478298e-01	 1.4168990982e+00	-2.0132560669e+00
 7.1698051257e-01	 1.4237801857e+00	-1.9976855924e+00
 7.0343219365e-01	 1.4305223597e+00	-1.9824805503e+00
 6.8984190636e-01	 1.4371253310e+00	-1.9681936705e+00
 8.2664586902e-01	 1.3699111676e+00	-2.0819532332e+00
 8.1345962101e-01	 1.3777820746e+00	-2.0809621620e+00
 8.0021458851e-01	 1.3855167312e+00	-2.0758311961e+00
 7.8691284212e-01	 1.3931145606e+00	-2.0672350764e+00
 7.7355645788e-01	 1.4005750271e+00	-2.0558427305e+00
 7.6014751623e-01	 1.4078976360e+00	-2.0423128981e+00
 7.4668810109e-01	 1.4150819339e+00	-2.0272900063e+00
 7.3318029878e-01	 1.4221275082e+00	-2.0114003120e+00
 7.1962619712e-01	 1.4290339871e+00	-1.9952483284e+00
 7.0602788440e-01	 1.4358010400e+00	-1.9794135490e+00
 6.9238744845e-01	 1.4424283765e+00	-1.9644474810e+00
 8.2968500824e-01	 1.3749476058e+00	-2.0829014716e+00
 8.1645028138e-01	 1.3828474498e+00	-2.0817615737e+00
 8.0315655391e-01	 1.3906105427e+00	-2.0764071900e+00
 7.8980590404e-01	 1.3982363053e+00	-2.0675191637e+00
 7.7640041544e-01	 1.4057242000e+00	-2.0557716037e+00
 7.6294217622e-01	 1.4130737303e+00	-2.0418274215e+00
 7.4943327793e-01	 1.4202844410e+00	-2.0263341269e+00
 7.3587581458e-01	 1.4273559181e+00	-2.0099198985e+00
 7.2227188167e-01	 1.4342877886e+00	-1.9931899470e+00
 7.0862357516e-01	 1.4410797203e+00	-1.9767231857e+00
 6.9493299054e-01	 1.4477314220e+00	-1.9610692181e+00
 8.3272414747e-01	 1.3799840439e+00	-2.0840022955e+00
 8.1944094175e-01	 1.3879128251e+00	-2.0827389126e+00
 8.0609851931e-01	 1.3957043542e+00	-2.0771852810e+00
 7.9269896596e-01	 1.4033580500e+00	-2.0680277460e+00
 7.7924437301e-01	 1.4108733729e+00	-2.0559449899e+00
 7.6573683621e-01	 1.4182498245e+00	-2.0416034798e+00
 7.5217845477e-01	 1.4254869481e+00	-2.0256531822e+00
 7.3857133039e-01	 1.4325843281e+00	-2.0087235610e+00
 7.2491756622e-01	 1.4395415900e+00	-1.9914198771e+00
 7.1121926591e-01	 1.4463584006e+00	-1.9743198038e+00
 6.9747853263e-01	 1.4530344675e+00	-1.9579703694e+00
 8.3576328669e-01	 1.3850204820e+00	-2.0851648372e+00
 8.2243160212e-01	 1.3929782004e+00	-2.0838027626e+00
 8.0904048470e-01	 1.4007981657e+00	-2.0780736425e+00
 7.9559202788e-01	 1.4084797947e+00	-2.0686687374e+00
 7.8208833058e-01	 1.4160225458e+00	-2.0562707079e+00
 7.6853149619e-01	 1.4234259188e+00	-2.0415489731e+00
 7.5492363161e-01	 1.4306894552e+00	-2.0251553421e+00
 7.4126684619e-01	 1.4378127380e+00	-2.0077199390e+00
 7.2756325077e-01	 1.4447953914e+00	-1.9898474375e+00
 7.1381495666e-01	 1.4516370809e+00	-1.9721136214e+00
 7.0002407472e-01	 1.4583375130e+00	-1.9550622812e+00
 8.3880242592e-01	 1.3900569201e+00	-2.0862982364e+00
 8.2542226249e-01	 1.3980435757e+00	-2.0848617040e+00
 8.1198245010e-01	 1.4058919772e+00	-2.0789804322e+00
 7.9848508980e-01	 1.4136015394e+00	-2.0693500233e+00
 7.8493228814e-01	 1.4211717187e+00	-2.0566565347e+00
 7.7132615618e-01	 1.4286020130e+00	-2.0415717459e+00
 7.5766880846e-01	 1.4358919624e+00	-2.0247487065e+00
 7.4396236200e-01	 1.4430411480e+00	-2.0068175865e+00
 7.3020893531e-01	 1.4500491928e+00	-1.9883818460e+00
 7.1641064741e-01	 1.4569157612e+00	-1.9700147394e+00
 7.0256961681e-01	 1.4636405585e+00	-1.9522561657e+00
 8.4184156514e-01	 1.3950933582e+00	-2.0873116573e+00
 8.2841292286e-01	 1.4031089509e+00	-2.0858243296e+00
 8.1492441550e-01	 1.4109857887e+00	-2.0798138075e+00
 8.0137815172e-01	 1.4187232841e+00	-2.0699794756e+00
 7.8777624571e-01	 1.4263208915e+00	-2.0570102194e+00
 7.7412081617e-01	 1.4337781073e+00	-2.0415795998e+00
 7.6041398530e-01	 1.4410944695e+00	-2.0243413165e+00
 7.4665787780e-01	 1.4482695579e+00	-2.0059249829e+00
 7.3285461986e-01	 1.4553029943e+00	-1.9869322294e+00
 7.1900633816e-01	 1.4621944415e+00	-1.9679331505e+00
 7.0511515889e-01	 1.4689436040e+00	-1.9494631093e+00
 8.4488070437e-01	 1.4001297963e+00	-2.0881143075e+00
 8.3140358323e-01	 1.4081743262e+00	-2.0865992616e+00
 8.1786638090e-01	 1.4160796002e+00	-2.0804819412e+00
 8.0427121364e-01	 1.4238450288e+00	-2.0704649665e+00
 7.9062020327e-01	 1.4314700644e+00	-2.0572394961e+00
 7.7691547615e-01	 1.4389542015e+00	-2.0414803056e+00
 7.6315916214e-01	 1.4462969766e+00	-2.0238411664e+00
 7.4935339361e-01	 1.4534979679e+00	-2.0049505438e+00
 7.3550030441e-01	 1.4605567957e+00	-1.9854076325e+00
 7.2160202891e-01	 1.4674731218e+00	-1.9657787476e+00
 7.0766070098e-01	 1.4742466495e+00	-1.9465940802e+00
 8.4791984359e-01	 1.4051662345e+00	-2.0886154551e+00
 8.3439424360e-01	 1.4132397015e+00	-2.0870951687e+00
 8.2080834630e-01	 1.4211734117e+00	-2.0808930370e+00
 8.0716427556e-01	 1.4289667735e+00	-2.0707143839e+00
 7.9346416084e-01	 1.4366192373e+00	-2.0572520979e+00
 7.7971013614e-01	 1.4441302958e+00	-2.0411816160e+00
 7.6590433898e-01	 1.4514994837e+00	-2.0231562148e+00
 7.5204890941e-01	 1.4587263779e+00	-2.0038026309e+00
 7.3814598896e-01	 1.4658105971e+00	-1.9837170288e+00
 7.2419771966e-01	 1.4727518021e+00	-1.9634613331e+00
 7.1020624307e-01	 1.4795496950e+00	-1.9435599369e+00
 8.5095898282e-01	 1.4102026726e+00	-2.0887244469e+00
 8.3738490398e-01	 1.4183050768e+00	-2.0872207826e+00
 8.2375031170e-01	 1.4262672233e+00	-2.0809553459e+00
 8.1005733748e-01	 1.4340885182e+00	-2.0706356452e+00
 7.9630811840e-01	 1.4417684102e+00	-2.0569557704e+00
 7.8250479612e-01	 1.4493063900e+00	-2.0405912785e+00
 7.6864951583e-01	 1.4567019908e+00	-2.0221943966e+00
 7.5474442522e-01	 1.4639547878e+00	-2.0023895637e+00
 7.4079167351e-01	 1.4710643985e+00	-1.9817693296e+00
 7.2679341042e-01	 1.4780304823e+00	-1.9608906280e+00
 7.1275178516e-01	 1.4848527405e+00	-1.9402714364e+00
 6.8729636427e-01	 1.4318222855e+00	-1.9723961492e+00
 6.7371648316e-01	 1.4382619545e+00	-1.9563920293e+00
 6.6009892824e-01	 1.4445624785e+00	-1.9345487353e+00
 6.4644576488e-01	 1.4507236892e+00	-1.9072310748e+00
 6.3275905424e-01	 1.4567454578e+00	-1.8747891091e+00
 6.1904085234e-01	 1.4626276945e+00	-1.8375568509e+00
 6.0529320919e-01	 1.4683703485e+00	-1.7958512482e+00
 5.9151816789e-01	 1.4739734077e+00	-1.7499714511e+00
 5.7771776378e-01	 1.4794368979e+00	-1.7033227805e+00
 5.6389402360e-01	 1.4847608830e+00	-1.6631736297e+00
 5.5004896461e-01	 1.4899454641e+00	-1.6294439097e+00
 6.8984190636e-01	 1.4371253310e+00	-1.9681936705e+00
 6.7621172939e-01	 1.4435888506e+00	-1.9515555072e+00
 6.6254373908e-01	 1.4499127099e+00	-1.9291948046e+00
 6.4884000846e-01	 1.4560967399e+00	-1.9014789917e+00
 6.3510260630e-01	 1.4621408113e+00	-1.8687596086e+00
 6.2133359624e-01	 1.4680448341e+00	-1.8313709928e+00
 6.0753503589e-01	 1.4738087572e+00	-1.7896292620e+00
 5.9370897592e-01	 1.4794325684e+00	-1.7438315868e+00
 5.7985745921e-01	 1.4849162938e+00	-1.6962365241e+00
 5.6598251998e-01	 1.4902599974e+00	-1.6548360445e+00
 5.5208618300e-01	 1.4954637806e+00	-1.6200905861e+00
 6.9238744845e-01	 1.4424283765e+00	-1.9644474810e+00
 6.7870697562e-01	 1.4489157468e+00	-1.9471598618e+00
 6.6498854993e-01	 1.4552629413e+00	-1.9242628988e+00
 6.5123425203e-01	 1.4614697906e+00	-1.8961273572e+00
 6.3744615835e-01	 1.4675361649e+00	-1.8631069571e+00
 6.2362634014e-01	 1.4734619737e+00	-1.8255370476e+00
 6.0977686259e-01	 1.4792471659e+00	-1.7837335862e+00
 5.9589978395e-01	 1.4848917292e+00	-1.7379924170e+00
 5.8199715463e-01	 1.4903956897e+00	-1.6896860332e+00
 5.6807101637e-01	 1.4957591117e+00	-1.6469955277e+00
 5.5412340139e-01	 1.5009820972e+00	-1.6111980106e+00
 6.9493299054e-01	 1.4477314220e+00	-1.9610692181e+00
 6.8120222186e-01	 1.4542426429e+00	-1.9431181747e+00
 6.6743336077e-01	 1.4606131728e+00	-1.9196678725e+00
 6.5362849560e-01	 1.4668428414e+00	-1.8910931182e+00
 6.3978971040e-01	 1.4729315184e+00	-1.8577505033e+00
 6.2591908404e-01	 1.4788791133e+00	-1.8199770642e+00
 6.1201868929e-01	 1.4846855746e+00	-1.7780892568e+00
 5.9809059198e-01	 1.4903508900e+00	-1.7323822398e+00
 5.8413685005e-01	 1.4958750857e+00	-1.6836025885e+00
 5.7015951275e-01	 1.5012582261e+00	-1.6395873635e+00
 5.5616061978e-01	 1.5065004137e+00	-1.6027056160e+00
 6.9747853263e-01	 1.4530344675e+00	-1.9579703694e+00
 6.8369746809e-01	 1.4595695390e+00	-1.9393433617e+00
 6.6987817162e-01	 1.4659634042e+00	-1.9153243961e+00
 6.5602273918e-01	 1.4722158921e+00	-1.8862930174e+00
 6.4213326245e-01	 1.4783268720e+00	-1.8526093700e+00
 6.2821182793e-01	 1.4842962529e+00	-1.8146128427e+00
 6.1426051599e-01	 1.4901239833e+00	-1.7726210374e+00
 6.0028140000e-01	 1.4958100508e+00	-1.7269290556e+00
 5.8627654547e-01	 1.5013544816e+00	-1.6779170502e+00
 5.7224800914e-01	 1.5067573405e+00	-1.6325464239e+00
 5.5819783816e-01	 1.5120187302e+00	-1.5945524297e+00
 7.0002407472e-01	 1.4583375130e+00	-1.9550622812e+00
 6.8619271432e-01	 1.4648964352e+00	-1.9357481794e+00
 6.7232298246e-01	 1.4713136356e+00	-1.9111469618e+00
 6.5841698275e-01	 1.4775889428e+00	-1.8816435986e+00
 6.4447681451e-01	 1.4837222255e+00	-1.8476024589e+00
 6.3050457183e-01	 1.4897133925e+00	-1.8093659388e+00
 6.1650234269e-01	 1.4955623920e+00	-1.7672534226e+00
 6.0247220803e-01	 1.5012692115e+00	-1.7215605711e+00
 5.8841624089e-01	 1.5068338775e+00	-1.6725589324e+00
 5.7433650552e-01	 1.5122564549e+00	-1.6258071647e+00
 5.6023505655e-01	 1.5175370468e+00	-1.5866770686e+00
 7.0256961681e-01	 1.4636405585e+00	-1.9522561657e+00
 6.8868796056e-01	 1.4702233313e+00	-1.9322452329e+00
 6.7476779331e-01	 1.4766638670e+00	-1.9070498902e+00
 6.6081122633e-01	 1.4829619935e+00	-1.8770612125e+00
 6.4682036656e-01	 1.4891175791e+00	-1.8426484561e+00
 6.3279731573e-01	 1.4951305321e+00	-1.8041576691e+00
 6.1874416939e-01	 1.5010008007e+00	-1.7619106431e+00
 6.0466301606e-01	 1.5067283723e+00	-1.7162042034e+00
 5.9055593631e-01	 1.5123132734e+00	-1.6673098297e+00
 5.7642500190e-01	 1.5177555693e+00	-1.6193036196e+00
 5.6227227494e-01	 1.5230553633e+00	-1.5790177351e+00
 7.0511515889e-01	 1.4689436040e+00	-1.9494631093e+00
 6.9118320679e-01	 1.4755502274e+00	-1.9287469820e+00
 6.7721260416e-01	 1.4820140984e+00	-1.9029473367e+00
 6.6320546990e-01	 1.4883350442e+00	-1.8724620229e+00
 6.4916391861e-01	 1.4945129326e+00	-1.8376658376e+00
 6.3509005963e-01	 1.5005476717e+00	-1.7989091153e+00
 6.2098599609e-01	 1.5064392094e+00	-1.7565166698e+00
 6.0685382409e-01	 1.5121875331e+00	-1.7107870840e+00
 5.9269563173e-01	 1.5177926693e+00	-1.6619923404e+00
 5.7851349829e-01	 1.5232546837e+00	-1.6129693962e+00
 5.6430949333e-01	 1.5285736798e+00	-1.5715122122e+00
 7.0766070098e-01	 1.4742466495e+00	-1.9465940802e+00
 6.9367845303e-01	 1.4808771235e+00	-1.9251657496e+00
 6.7965741500e-01	 1.4873643298e+00	-1.8987532979e+00
 6.6559971347e-01	 1.4937080949e+00	-1.8677620122e+00
 6.5150747067e-01	 1.4999082862e+00	-1.8325728742e+00
 6.3738280352e-01	 1.5059648113e+00	-1.7935411297e+00
 6.2322782279e-01	 1.5118776181e+00	-1.7509952184e+00
 6.0904463212e-01	 1.5176466938e+00	-1.7052360631e+00
 5.9483532716e-01	 1.5232720653e+00	-1.6565367080e+00
 5.8060199467e-01	 1.5287537980e+00	-1.6067376713e+00
 5.6634671171e-01	 1.5340919964e+00	-1.5640978600e+00
 7.1020624307e-01	 1.4795496950e+00	-1.9435599369e+00
 6.9617369926e-01	 1.4862040197e+00	-1.9214137279e+00
 6.8210222585e-01	 1.4927145612e+00	-1.8943816187e+00
 6.6799395705e-01	 1.4990811456e+00	-1.8628769878e+00
 6.5385102272e-01	 1.5053036397e+00	-1.8272876377e+00
 6.3967554742e-01	 1.5113819509e+00	-1.7879743400e+00
 6.2546964949e-01	 1.5173160268e+00	-1.7452697544e+00
 6.1123544015e-01	 1.5231058546e+00	-1.6994777139e+00
 5.9697502258e-01	 1.5287514612e+00	-1.6508728719e+00
 5.8269049105e-01	 1.5342529124e+00	-1.6005411862e+00
 5.6838393010e-01	 1.5396103129e+00	-1.5567116109e+00
 7.1275178516e-01	 1.4848527405e+00	-1.9402714364e+00
 6.9866894549e-01	 1.4915309158e+00	-1.9174029868e+00
 6.8454703669e-01	 1.4980647926e+00	-1.8897459987e+00
 6.7038820062e-01	 1.5044541963e+00	-1.8577225886e+00
 6.5619457477e-01	 1.5106989933e+00	-1.8217280060e+00
 6.4196829132e-01	 1.5167990906e+00	-1.7821291549e+00
 6.2771147620e-01	 1.5227544355e+00	-1.7392634976e+00
 6.1342624818e-01	 1.5285650154e+00	-1.6934383375e+00
 5.9911471800e-01	 1.5342308571e+00	-1.6449304720e+00
 5.8477898744e-01	 1.5397520268e+00	-1.5943122420e+00
 5.7042114849e-01	 1.5451286294e+00	-1.5492899660e+00
 5.5004896461e-01	 1.4899454641e+00	-1.6294439097e+00
 5.3618459382e-01	 1.4949907795e+00	-1.5980461161e+00
 5.2230290716e-01	 1.4998970040e+00	-1.5651737059e+00
 5.0840588870e-01	 1.5046643486e+00	-1.5308250905e+00
 4.9449550987e-01	 1.5092930597e+00	-1.4949769992e+00
 4.8057372876e-01	 1.5137834194e+00	-1.4575870374e+00
 4.6664248931e-01	 1.5181357438e+00	-1.4185961359e+00
 4.5270372067e-01	 1.5223503837e+00	-1.3779308847e+00
 4.3875933647e-01	 1.5264277232e+00	-1.3355057493e+00
 4.2481123416e-01	 1.5303681795e+00	-1.2912251648e+00
 4.1086129435e-01	 1.5341722023e+00	-1.2449855049e+00
 5.5208618300e-01	 1.4954637806e+00	-1.6200905861e+00
 5.3817046269e-01	 1.5005277824e+00	-1.5878418900e+00
 5.2423736237e-01	 1.5054521781e+00	-1.5542107651e+00
 5.1028887347e-01	 1.5102371795e+00	-1.5191806401e+00
 4.9632697472e-01	 1.5148830340e+00	-1.4827136989e+00
 4.8235363145e-01	 1.5193900246e+00	-1.4447534860e+00
 4.6837079482e-01	 1.5237584688e+00	-1.4052273993e+00
 4.5438040111e-01	 1.5279887185e+00	-1.3640490648e+00
 4.4038437105e-01	 1.5320811592e+00	-1.3211205891e+00
 4.2638460910e-01	 1.5360362098e+00	-1.2763346866e+00
 4.1238300285e-01	 1.5398543216e+00	-1.2295766789e+00
 5.5412340139e-01	 1.5009820972e+00	-1.6111980106e+00
 5.4015633156e-01	 1.5060647853e+00	-1.5780672053e+00
 5.2617181759e-01	 1.5110073522e+00	-1.5436528406e+00
 5.1217185824e-01	 1.5158100104e+00	-1.5079221810e+00
 4.9815843958e-01	 1.5204730083e+00	-1.4708216713e+00
 4.8413353415e-01	 1.5249966299e+00	-1.4322795912e+00
 4.7009910034e-01	 1.5293811938e+00	-1.3922085942e+00
 4.5605708156e-01	 1.5336270532e+00	-1.3505081239e+00
 4.4200940563e-01	 1.5377345952e+00	-1.3070667061e+00
 4.2795798404e-01	 1.5417042401e+00	-1.2617641108e+00
 4.1390471135e-01	 1.5455364408e+00	-1.2144733829e+00
 5.5616061978e-01	 1.5065004137e+00	-1.6027056160e+00
 5.4214220042e-01	 1.5116017882e+00	-1.5686655287e+00
 5.2810627280e-01	 1.5165625263e+00	-1.5334470692e+00
 5.1405484302e-01	 1.5213828413e+00	-1.4970001627e+00
 4.9998990443e-01	 1.5260629826e+00	-1.4592543272e+00
 4.8591343685e-01	 1.5306032351e+00	-1.4201213801e+00
 4.7182740585e-01	 1.5350039187e+00	-1.3794980249e+00
 4.5773376201e-01	 1.5392653880e+00	-1.3372683122e+00
 4.4363444021e-01	 1.5433880312e+00	-1.2933059719e+00
 4.2953135898e-01	 1.5473722704e+00	-1.2474766132e+00
 4.1542641984e-01	 1.5512185601e+00	-1.1996397883e+00
 5.5819783816e-01	 1.5120187302e+00	-1.5945524297e+00
 5.4412806929e-01	 1.5171387911e+00	-1.5595799277e+00
 5.3004072801e-01	 1.5221177004e+00	-1.5235402004e+00
 5.1593782779e-01	 1.5269556722e+00	-1.4863646634e+00
 5.0182136928e-01	 1.5316529569e+00	-1.4479647262e+00
 4.8769333955e-01	 1.5362098404e+00	-1.4082345525e+00
 4.7355571137e-01	 1.5406266437e+00	-1.3670536968e+00
 4.5941044246e-01	 1.5449037227e+00	-1.3242896121e+00
 4.4525947479e-01	 1.5490414672e+00	-1.2798000254e+00
 4.3110473393e-01	 1.5530403007e+00	-1.2334351758e+00
 4.1694812834e-01	 1.5569006794e+00	-1.1850399141e+00
 5.6023505655e-01	 1.5175370468e+00	-1.5866770686e+00
 5.4611393815e-01	 1.5226757939e+00	-1.5507530673e+00
 5.3197518322e-01	 1.5276728745e+00	-1.5138785928e+00
 5.1782081256e-01	 1.5325285032e+00	-1.4759653867e+00
 5.0365283413e-01	 1.5372429312e+00	-1.4369055735e+00
 4.8947324225e-01	 1.5418164456e+00	-1.3965744777e+00
 4.7528401689e-01	 1.5462493687e+00	-1.3548333123e+00
 4.6108712290e-01	 1.5505420575e+00	-1.3115317352e+00
 4.4688450937e-01	 1.5546949033e+00	-1.2665102694e+00
 4.3267810887e-01	 1.5587083310e+00	-1.2196025822e+00
 4.1846983684e-01	 1.5625827986e+00	-1.1706376221e+00
 5.6227227494e-01	 1.5230553633e+00	-1.5790177351e+00
 5.4809980702e-01	 1.5282127968e+00	-1.5421272052e+00
 5.3390963843e-01	 1.5332280485e+00	-1.5044082102e+00
 5.1970379734e-01	 1.5381013341e+00	-1.4657516574e+00
 5.0548429898e-01	 1.5428329055e+00	-1.4260292159e+00
 4.9125314495e-01	 1.5474230509e+00	-1.3850961911e+00
 4.7701232240e-01	 1.5518720937e+00	-1.3427942680e+00
 4.6276380335e-01	 1.5561803922e+00	-1.2989541181e+00
 4.4850954395e-01	 1.5603483393e+00	-1.2533978665e+00
 4.3425148381e-01	 1.5643763613e+00	-1.2059414140e+00
 4.1999154534e-01	 1.5682649179e+00	-1.1563966130e+00
 5.6430949333e-01	 1.5285736798e+00	-1.5715122122e+00
 5.5008567589e-01	 1.5337497997e+00	-1.5336441887e+00
 5.3584409364e-01	 1.5387832226e+00	-1.4950746181e+00
 5.2158678211e-01	 1.5436741650e+00	-1.4556724189e+00
 5.0731576383e-01	 1.5484228798e+00	-1.4152876391e+00
 4.9303304765e-01	 1.5530296562e+00	-1.3737543909e+00
 4.7874062792e-01	 1.5574948187e+00	-1.3308936509e+00
 4.6444048380e-01	 1.5618187270e+00	-1.2865159193e+00
 4.5013457853e-01	 1.5660017753e+00	-1.2404237357e+00
 4.3582485875e-01	 1.5700443916e+00	-1.1924140465e+00
 4.2151325384e-01	 1.5739470372e+00	-1.1422804217e+00
 5.6634671171e-01	 1.5340919964e+00	-1.5640978600e+00
 5.5207154475e-01	 1.5392868026e+00	-1.5252454501e+00
 5.3777854886e-01	 1.5443383967e+00	-1.4858229798e+00
 5.2346976688e-01	 1.5492469959e+00	-1.4456762289e+00
 5.0914722868e-01	 1.5540128541e+00	-1.4046324637e+00
 4.9481295035e-01	 1.5586362614e+00	-1.3625034349e+00
 4.8046893343e-01	 1.5631175436e+00	-1.3190882355e+00
 4.6611716424e-01	 1.5674570617e+00	-1.2741760157e+00
 4.5175961311e-01	 1.5716552113e+00	-1.2275485486e+00
 4.3739823369e-01	 1.5757124219e+00	-1.1789826452e+00
 4.2303496233e-01	 1.5796291564e+00	-1.1282524135e+00
 5.6838393010e-01	 1.5396103129e+00	-1.5567116109e+00
 5.5405741362e-01	 1.5448238055e+00	-1.5168720033e+00
 5.3971300407e-01	 1.5498935708e+00	-1.4765980533e+00
 5.2535275165e-01	 1.5548198268e+00	-1.4357112566e+00
 5.1097869354e-01	 1.5596028284e+00	-1.3940149427e+00
 4.9659285305e-01	 1.5642428667e+00	-1.3512973371e+00
 4.8219723895e-01	 1.5687402686e+00	-1.3073344803e+00
 4.6779384469e-01	 1.5730953965e+00	-1.2618929992e+00
 4.5338464769e-01	 1.5773086473e+00	-1.2147327262e+00
 4.3897160863e-01	 1.5813804521e+00	-1.1656091620e+00
 4.2455667083e-01	 1.5853112757e+00	-1.1142757800e+00
 5.7042114849e-01	 1.5451286294e+00	-1.5492899660e+00
 5.5604328248e-01	 1.5503608084e+00	-1.5084644398e+00
 5.4164745928e-01	 1.5554487449e+00	-1.4673441874e+00
 5.2723573643e-01	 1.5603926578e+00	-1.4257252793e+00
 5.1281015839e-01	 1.5651928027e+00	-1.3833859578e+00
 4.9837275575e-01	 1.5698494719e+00	-1.3400897647e+00
 4.8392554447e-01	 1.5743629936e+00	-1.2955885245e+00
 4.6947052514e-01	 1.5787337313e+00	-1.2496251737e+00
 4.5500968227e-01	 1.5829620833e+00	-1.2019364352e+00
 4.4054498357e-01	 1.5870484824e+00	-1.1522553312e+00
 4.2607837933e-01	 1.5909933950e+00	-1.1003135349e+00
 4.1086129435e-01	 1.5341722023e+00	-1.2449855049e+00
 3.9691138019e-01	 1.5378402732e+00	-1.1990211560e+00
 3.8296333673e-01	 1.5413729050e+00	-1.1554888145e+00
 3.6901899037e-01	 1.5447706413e+00	-1.1141658646e+00
 3.5508014826e-01	 1.5480340558e+00	-1.0748341090e+00
 3.4114859777e-01	 1.5511637514e+00	-1.0372810566e+00
 3.2722610594e-01	 1.5541603602e+00	-1.0013010757e+00
 3.1331441900e-01	 1.5570245420e+00	-9.6669641584e-01
 2.9941526186e-01	 1.5597569844e+00	-9.3327809849e-01
 2.8553033767e-01	 1.5623584018e+00	-9.0086668116e-01
 2.7166132736e-01	 1.5648295347e+00	-8.6929289748e-01
 4.1238300285e-01	 1.5398543216e+00	-1.2295766789e+00
 3.9838142234e-01	 1.5435359779e+00	-1.1831077242e+00
 3.8438171946e-01	 1.5470816935e+00	-1.1391128662e+00
 3.7038572737e-01	 1.5504920140e+00	-1.0973618800e+00
 3.5639525992e-01	 1.5537675152e+00	-1.0576297201e+00
 3.4241211110e-01	 1.5569088024e+00	-1.0196978184e+00
 3.2843805448e-01	 1.5599165096e+00	-9.8335524563e-01
 3.1447484277e-01	 1.5627912995e+00	-9.4839973670e-01
 3.0052420727e-01	 1.5655338621e+00	-9.1463858320e-01
 2.8658785744e-01	 1.5681449144e+00	-8.8188939575e-01
 2.7266748043e-01	 1.5706251997e+00	-8.4998073966e-01
 4.1390471135e-01	 1.5455364408e+00	-1.2144733829e+00
 3.9985146448e-01	 1.5492316826e+00	-1.1674818275e+00
 3.8580010219e-01	 1.5527904821e+00	-1.1230039600e+00
 3.7175246437e-01	 1.5562133868e+00	-1.0808033348e+00
 3.5771037158e-01	 1.5595009747e+00	-1.0406494288e+00
 3.4367562442e-01	 1.5626538533e+00	-1.0023189486e+00
 3.2965000302e-01	 1.5656726591e+00	-9.6559699834e-01
 3.1563526655e-01	 1.5685580571e+00	-9.3027810743e-01
 3.0163315269e-01	 1.5713107399e+00	-8.9616712360e-01
 2.8764537721e-01	 1.5739314270e+00	-8.6307997213e-01
 2.7367363349e-01	 1.5764208646e+00	-8.3084428575e-01
 4.1542641984e-01	 1.5512185601e+00	-1.1996397883e+00
 4.0132150663e-01	 1.5549273873e+00	-1.1521083676e+00
 3.8721848491e-01	 1.5584992706e+00	-1.1071274871e+00
 3.7311920137e-01	 1.5619347595e+00	-1.0644558490e+00
 3.5902548324e-01	 1.5652344342e+00	-1.0238588034e+00
 3.4493913775e-01	 1.5683989042e+00	-9.8510966437e-01
 3.3086195156e-01	 1.5714288086e+00	-9.4799088140e-01
 3.1679569032e-01	 1.5743248147e+00	-9.1229506978e-01
 3.0274209810e-01	 1.5770876176e+00	-8.7782590170e-01
 2.8870289698e-01	 1.5797179396e+00	-8.4439886145e-01
 2.7467978656e-01	 1.5822165295e+00	-8.1184186839e-01
 4.1694812834e-01	 1.5569006794e+00	-1.1850399141e+00
 4.0279154878e-01	 1.5606230920e+00	-1.1369521377e+00
 3.8863686764e-01	 1.5642080591e+00	-1.0914487763e+00
 3.7448593837e-01	 1.5676561323e+00	-1.0482850282e+00
 3.6034059490e-01	 1.5709678936e+00	-1.0072234488e+00
 3.4620265107e-01	 1.5741439551e+00	-9.6803527271e-01
 3.3207390010e-01	 1.5771849581e+00	-9.3050158909e-01
 3.1795611409e-01	 1.5800915722e+00	-8.9441437213e-01
 3.0385104352e-01	 1.5828644953e+00	-8.5957736945e-01
 2.8976041674e-01	 1.5855044522e+00	-8.2580685191e-01
 2.7568593962e-01	 1.5880121945e+00	-7.9293222830e-01
 4.1846983684e-01	 1.5625827986e+00	-1.1706376221e+00
 4.0426159093e-01	 1.5663187967e+00	-1.1219778173e+00
 3.9005525037e-01	 1.5699168477e+00	-1.0759330883e+00
 3.7585267538e-01	 1.5733775050e+00	-1.0322564581e+00
 3.6165570656e-01	 1.5767013531e+00	-9.9070899996e-01
 3.4746616440e-01	 1.5798890061e+00	-9.5106116396e-01
 3.3328584864e-01	 1.5829411076e+00	-9.1309395481e-01
 3.1911653787e-01	 1.5858583298e+00	-8.7659996103e-01
 3.0495998893e-01	 1.5886413730e+00	-8.4138423954e-01
 2.9081793651e-01	 1.5912909648e+00	-8.0726505862e-01
 2.7669209268e-01	 1.5938078594e+00	-7.7407450320e-01
 4.1999154534e-01	 1.5682649179e+00	-1.1563966130e+00
 4.0573163308e-01	 1.5720145015e+00	-1.1071499680e+00
 3.9147363310e-01	 1.5756256362e+00	-1.0605456107e+00
 3.7721941238e-01	 1.5790988778e+00	-1.0163356986e+00
 3.6297081822e-01	 1.5824348126e+00	-9.7428111583e-01
 3.4872967772e-01	 1.5856340570e+00	-9.3415280483e-01
 3.3449779719e-01	 1.5886972570e+00	-8.9573294361e-01
 3.2027696164e-01	 1.5916250874e+00	-8.5881597313e-01
 3.0606893434e-01	 1.5944182507e+00	-8.2320947645e-01
 2.9187545628e-01	 1.5970774774e+00	-7.8873491377e-01
 2.7769824575e-01	 1.5996035244e+00	-7.5522821689e-01
 4.2151325384e-01	 1.5739470372e+00	-1.1422804217e+00
 4.0720167523e-01	 1.5777102062e+00	-1.0924330286e+00
 3.9289201583e-01	 1.5813344247e+00	-1.0452514534e+00
 3.7858614938e-01	 1.5848202505e+00	-1.0004882782e+00
 3.6428592988e-01	 1.5881682720e+00	-9.5790547344e-01
 3.4999319105e-01	 1.5913791079e+00	-9.1727573180e-01
 3.3570974573e-01	 1.5944534065e+00	-8.7838364494e-01
 3.2143738542e-01	 1.5973918449e+00	-8.4102672706e-01
 3.0717787976e-01	 1.6001951285e+00	-8.0501628762e-01
 2.9293297605e-01	 1.6028639900e+00	-7.7017815691e-01
 2.7870439881e-01	 1.6053991893e+00	-7.3635326871e-01
 4.2303496233e-01	 1.5796291564e+00	-1.1282524135e+00
 4.0867171738e-01	 1.5834059109e+00	-1.0777913105e+00
 3.9431039856e-01	 1.5870432133e+00	-1.0300156430e+00
 3.7995288638e-01	 1.5905416233e+00	-9.8467968900e-01
 3.6560104154e-01	 1.5939017315e+00	-9.4154776183e-01
 3.5125670437e-01	 1.5971241589e+00	-9.0039554464e-01
 3.3692169427e-01	 1.6002095560e+00	-8.6101126548e-01
 3.2259780919e-01	 1.6031586025e+00	-8.2319671571e-01
 3.0828682517e-01	 1.6059720062e+00	-7.8676811482e-01
 2.9399049582e-01	 1.6086505026e+00	-7.5155682551e-01
 2.7971055188e-01	 1.6111948543e+00	-7.1740992310e-01
 4.2455667083e-01	 1.5853112757e+00	-1.1142757800e+00
 4.1014175953e-01	 1.5891016156e+00	-1.0631889936e+00
 3.9572878129e-01	 1.5927520018e+00	-1.0148031185e+00
 3.8131962338e-01	 1.5962629960e+00	-9.6887538126e-01
 3.6691615320e-01	 1.5996351910e+00	-9.2517367635e-01
 3.5252021770e-01	 1.6028692098e+00	-8.8347790004e-01
 3.3813364281e-01	 1.6059657055e+00	-8.4358112222e-01
 3.2375823297e-01	 1.6089253600e+00	-8.0529059847e-01
 3.0939577059e-01	 1.6117488839e+00	-7.6842862578e-01
 2.9504801559e-01	 1.6144370152e+00	-7.3283324572e-01
 2.8071670494e-01	 1.6169905192e+00	-6.9835879941e-01
 4.2607837933e-01	 1.5909933950e+00	-1.1003135349e+00
 4.1161180167e-01	 1.5947973203e+00	-1.0485901217e+00
 3.9714716401e-01	 1.5984607903e+00	-9.9957872621e-01
 3.8268636038e-01	 1.6019843688e+00	-9.5304075806e-01
 3.6823126487e-01	 1.6053686504e+00	-9.0874891300e-01
 3.5378373102e-01	 1.6086142607e+00	-8.6648850544e-01
 3.3934559135e-01	 1.6117218550e+00	-8.2605863559e-01
 3.2491865674e-01	 1.6146921176e+00	-7.8727319381e-01
 3.1050471600e-01	 1.6175257616e+00	-7.4996170591e-01
 2.9610553536e-01	 1.6202235278e+00	-7.1397002325e-01
 2.8172285801e-01	 1.6227861841e+00	-6.7916086198e-01
 2.7166132736e-01	 1.5648295347e+00	-8.6929289748e-01
 2.5780988925e-01	 1.5671711491e+00	-8.3895588898e-01
 2.4397765859e-01	 1.5693840357e+00	-8.1032054946e-01
 2.3016624727e-01	 1.5714690096e+00	-7.8333380221e-01
 2.1637724338e-01	 1.5734269090e+00	-7.5795536240e-01
 2.0261221094e-01	 1.5752585951e+00	-7.3415763539e-01
 1.8887268953e-01	 1.5769649510e+00	-7.1192552088e-01
 1.7516019405e-01	 1.5785468811e+00	-6.9125612830e-01
 1.6147621442e-01	 1.5800053106e+00	-6.7215840907e-01
 1.4782221533e-01	 1.5813411846e+00	-6.5465271151e-01
 1.3419963603e-01	 1.5825554673e+00	-6.3877026416e-01
 2.7266748043e-01	 1.5706251997e+00	-8.4998073966e-01
 2.5876474069e-01	 1.5729754867e+00	-8.1932626962e-01
 2.4488127955e-01	 1.5751965692e+00	-7.9040368729e-01
 2.3101871485e-01	 1.5772892652e+00	-7.6315603968e-01
 2.1717864058e-01	 1.5792544161e+00	-7.3753952363e-01
 2.0336262653e-01	 1.5810928862e+00	-7.1352337992e-01
 1.8957221801e-01	 1.5828055619e+00	-6.9108969123e-01
 1.7580893551e-01	 1.5843933511e+00	-6.7023308968e-01
 1.6207427447e-01	 1.5858571822e+00	-6.5096037965e-01
 1.4836970502e-01	 1.5871980038e+00	-6.3329008162e-01
 1.3469667172e-01	 1.5884167839e+00	-6.1725190316e-01
 2.7367363349e-01	 1.5764208646e+00	-8.3084428575e-01
 2.5971959213e-01	 1.5787798243e+00	-7.9988676914e-01
 2.4578490051e-01	 1.5810091027e+00	-7.7069464524e-01
 2.3187118244e-01	 1.5831095208e+00	-7.4320565720e-01
 2.1798003778e-01	 1.5850819232e+00	-7.1737117767e-01
 2.0411304213e-01	 1.5869271773e+00	-6.9315609761e-01
 1.9027174649e-01	 1.5886461728e+00	-6.7053861688e-01
 1.7645767697e-01	 1.5902398210e+00	-6.4950994256e-01
 1.6267233453e-01	 1.5917090537e+00	-6.3007390071e-01
 1.4891719471e-01	 1.5930548230e+00	-6.1224646773e-01
 1.3519370741e-01	 1.5942781004e+00	-5.9605522706e-01
 2.7467978656e-01	 1.5822165295e+00	-8.1184186839e-01
 2.6067444357e-01	 1.5845841618e+00	-7.8059391027e-01
 2.4668852147e-01	 1.5868216361e+00	-7.5114915893e-01
 2.3272365002e-01	 1.5889297764e+00	-7.2343863630e-01
 2.1878143498e-01	 1.5909094302e+00	-6.9740759462e-01
 2.0486345772e-01	 1.5927614684e+00	-6.7301539878e-01
 1.9097127497e-01	 1.5944867838e+00	-6.5023530834e-01
 1.7710641843e-01	 1.5960862909e+00	-6.2905416527e-01
 1.6327039458e-01	 1.5975609252e+00	-6.0947199326e-01
 1.4946468439e-01	 1.5989116422e+00	-5.9150151473e-01
 1.3569074310e-01	 1.6001394170e+00	-5.7516759177e-01
 2.7568593962e-01	 1.5880121945e+00	-7.9293222830e-01
 2.6162929501e-01	 1.5903884994e+00	-7.6140468864e-01
 2.4759214243e-01	 1.5926341696e+00	-7.3172348501e-01
 2.3357611760e-01	 1.5947500320e+00	-7.0381151092e-01
 2.1958283217e-01	 1.5967369373e+00	-6.7760661141e-01
 2.0561387332e-01	 1.5985957595e+00	-6.5306145787e-01
 1.9167080345e-01	 1.6003273947e+00	-6.3014332037e-01
 1.7775515989e-01	 1.6019327608e+00	-6.0883374334e-01
 1.6386845463e-01	 1.6034127967e+00	-5.8912813094e-01
 1.5001217408e-01	 1.6047684614e+00	-5.7103524820e-01
 1.3618777879e-01	 1.6060007335e+00	-5.5457664438e-01
 2.7669209268e-01	 1.5938078594e+00	-7.7407450320e-01
 2.6258414646e-01	 1.5961928370e+00	-7.4227656078e-01
 2.4849576338e-01	 1.5984467031e+00	-7.1237438863e-01
 2.3442858518e-01	 1.6005702875e+00	-6.8428135452e-01
 2.2038422937e-01	 1.6025644444e+00	-6.5792661885e-01
 2.0636428892e-01	 1.6044300506e+00	-6.3325500088e-01
 1.9237033193e-01	 1.6061680056e+00	-6.1022674002e-01
 1.7840390134e-01	 1.6077792308e+00	-5.8881715828e-01
 1.6446651469e-01	 1.6092646682e+00	-5.6901623008e-01
 1.5055966377e-01	 1.6106252806e+00	-5.5082806594e-01
 1.3668481447e-01	 1.6118620501e+00	-5.3427031649e-01
 2.7769824575e-01	 1.5996035244e+00	-7.5522821689e-01
 2.6353899790e-01	 1.6019971746e+00	-7.2316743240e-01
 2.4939938434e-01	 1.6042592365e+00	-6.9305913105e-01
 2.3528105277e-01	 1.6063905431e+00	-6.6480576743e-01
 2.2118562657e-01	 1.6083919514e+00	-6.3832654904e-01
 2.0711470451e-01	 1.6102643417e+00	-6.1355729293e-01
 1.9306986040e-01	 1.6120086166e+00	-5.9045017480e-01
 1.7905264280e-01	 1.6136257007e+00	-5.6897337669e-01
 1.6506457474e-01	 1.6151165398e+00	-5.4911063993e-01
 1.5110715345e-01	 1.6164820998e+00	-5.3086072965e-01
 1.3718185016e-01	 1.6177233666e+00	-5.1423681775e-01
 2.7870439881e-01	 1.6053991893e+00	-7.3635326871e-01
 2.6449384934e-01	 1.6078015122e+00	-7.0403564687e-01
 2.5030300530e-01	 1.6100717700e+00	-6.7373545763e-01
 2.3613352035e-01	 1.6122107987e+00	-6.4534286451e-01
 2.2198702377e-01	 1.6142194585e+00	-6.1876586296e-01
 2.0786512011e-01	 1.6160986328e+00	-5.9393012626e-01
 1.9376938888e-01	 1.6178492275e+00	-5.7077874115e-01
 1.7970138426e-01	 1.6194721706e+00	-5.4927183960e-01
 1.6566263479e-01	 1.6209684113e+00	-5.2938613316e-01
 1.5165464314e-01	 1.6223389190e+00	-5.1111435691e-01
 1.3767888585e-01	 1.6235846831e+00	-4.9446462946e-01
 2.7971055188e-01	 1.6111948543e+00	-7.1740992310e-01
 2.6544870078e-01	 1.6136058498e+00	-6.8483997406e-01
 2.5120662626e-01	 1.6158843034e+00	-6.5436158600e-01
 2.3698598793e-01	 1.6180310543e+00	-6.2585126307e-01
 2.2278842097e-01	 1.6200469656e+00	-5.9920453840e-01
 2.0861553570e-01	 1.6219329239e+00	-5.7433580830e-01
 1.9446891736e-01	 1.6236898384e+00	-5.5117805320e-01
 1.8035012572e-01	 1.6253186406e+00	-5.2968245199e-01
 1.6626069485e-01	 1.6268202828e+00	-5.0981789654e-01
 1.5220213282e-01	 1.6281957382e+00	-4.9157041322e-01
 1.3817592154e-01	 1.6294459997e+00	-4.7494249837e-01
 2.8071670494e-01	 1.6169905192e+00	-6.9835879941e-01
 2.6640355222e-01	 1.6194101874e+00	-6.6553959928e-01
 2.5211024721e-01	 1.6216968369e+00	-6.3489619454e-01
 2.3783845551e-01	 1.6238513099e+00	-6.0629007101e-01
 2.2358981816e-01	 1.6258744727e+00	-5.7960305811e-01
 2.0936595130e-01	 1.6277672149e+00	-5.5473715020e-01
 1.9516844584e-01	 1.6295304494e+00	-5.3161421168e-01
 1.8099886718e-01	 1.6311651105e+00	-5.1017557261e-01
 1.6685875490e-01	 1.6326721543e+00	-4.9038152178e-01
 1.5274962251e-01	 1.6340525574e+00	-4.7221070425e-01
 1.3867295723e-01	 1.6353073162e+00	-4.5565943063e-01
 2.8172285801e-01	 1.6227861841e+00	-6.7916086198e-01
 2.6735840366e-01	 1.6252145250e+00	-6.4609411258e-01
 2.5301386817e-01	 1.6275093704e+00	-6.1529841110e-01
 2.3869092310e-01	 1.6296715655e+00	-5.8661887533e-01
 2.2439121536e-01	 1.6317019797e+00	-5.5992239822e-01
 2.1011636690e-01	 1.6336015060e+00	-5.3509745541e-01
 1.9586797432e-01	 1.6353710603e+00	-5.1205379317e-01
 1.8164760864e-01	 1.6370115804e+00	-4.9072200397e-01
 1.6745681495e-01	 1.6385240259e+00	-4.7105299662e-01
 1.5329711220e-01	 1.6399093766e+00	-4.5301736830e-01
 1.3916999292e-01	 1.6411686328e+00	-4.3660468574e-01
 1.3419963603e-01	 1.5825554673e+00	-6.3877026416e-01
 1.2060989008e-01	 1.5836491417e+00	-6.2441993895e-01
 1.0705436520e-01	 1.5846232083e+00	-6.1150955609e-01
 9.3534423070e-02	 1.5854786852e+00	-6.0008329380e-01
 8.0051399206e-02	 1.5862166066e+00	-5.9019366320e-01
 6.6606602803e-02	 1.5868380226e+00	-5.8190070645e-01
 5.3201316631e-02	 1.5873439984e+00	-5.7527115864e-01
 3.9836796944e-02	 1.5877356137e+00	-5.7037757935e-01
 2.6514273394e-02	 1.5880139618e+00	-5.6729745889e-01
 1.3234948979e-02	 1.5881801490e+00	-5.6611230501e-01
 0.0000000000e+00	 1.5882352941e+00	-5.6690671486e-01
 1.3469667172e-01	 1.5884167839e+00	-6.1725190316e-01
 1.2105659338e-01	 1.5895145089e+00	-6.0275642760e-01
 1.0745086285e-01	 1.5904921832e+00	-5.8971535688e-01
 9.3880846859e-02	 1.5913508285e+00	-5.7817554650e-01
 8.0347885870e-02	 1.5920914829e+00	-5.6819311576e-01
 6.6853293924e-02	 1.5927152005e+00	-5.5983260734e-01
 5.3398358545e-02	 1.5932230503e+00	-5.5316610976e-01
 3.9984340636e-02	 1.5936161160e+00	-5.4827234851e-01
 2.6612474406e-02	 1.5938954950e+00	-5.4523575153e-01
 1.3283967309e-02	 1.5940622977e+00	-5.4414549432e-01
 0.0000000000e+00	 1.5941176471e+00	-5.4509453010e-01
 1.3519370741e-01	 1.5942781004e+00	-5.9605522706e-01
 1.2150329667e-01	 1.5953798760e+00	-5.8141615624e-01
 1.0784736049e-01	 1.5963611580e+00	-5.6824918800e-01
 9.4227270648e-02	 1.5972229717e+00	-5.5660424135e-01
 8.0644372534e-02	 1.5979663592e+00	-5.4654130665e-01
 6.7099985046e-02	 1.5985923783e+00	-5.3812956908e-01
 5.3595400458e-02	 1.5991021021e+00	-5.3144649417e-01
 4.0131884328e-02	 1.5994966183e+00	-5.2657688123e-01
 2.6710675419e-02	 1.5997770282e+00	-5.2361189049e-01
 1.3332985638e-02	 1.5999444464e+00	-5.2264804953e-01
 0.0000000000e+00	 1.6000000000e+00	-5.2378624435e-01
 1.3569074310e-01	 1.6001394170e+00	-5.7516759177e-01
 1.2194999997e-01	 1.6012452432e+00	-5.6039387898e-01
 1.0824385814e-01	 1.6022301329e+00	-5.4711148764e-01
 9.4573694437e-02	 1.6030951150e+00	-5.3537379047e-01
 8.0940859198e-02	 1.6038412355e+00	-5.2524491679e-01
 6.7346676167e-02	 1.6044695562e+00	-5.1679884238e-01
 5.3792442372e-02	 1.6049811540e+00	-5.1011844046e-01
 4.0279428021e-02	 1.6053771205e+00	-5.0529450004e-01
 2.6808876431e-02	 1.6056585613e+00	-5.0242471741e-01
 1.3382003968e-02	 1.6058265951e+00	-5.0161266648e-01
 0.0000000000e+00	 1.6058823529e+00	-5.0296675355e-01
 1.3618777879e-01	 1.6060007335e+00	-5.5457664438e-01
 1.2239670327e-01	 1.6071106104e+00	-5.3968455457e-01
 1.0864035579e-01	 1.6080991077e+00	-5.2630283549e-01
 9.4920118227e-02	 1.6089672583e+00	-5.1448870771e-01
 8.1237345861e-02	 1.6097161119e+00	-5.0431071248e-01
 6.7593367289e-02	 1.6103467340e+00	-4.9584777022e-01
 5.3989484285e-02	 1.6108602058e+00	-4.8918819956e-01
 4.0426971713e-02	 1.6112576228e+00	-4.8442870313e-01
 2.6907077444e-02	 1.6115400945e+00	-4.8167332590e-01
 1.3431022298e-02	 1.6117087438e+00	-4.8103239219e-01
 0.0000000000e+00	 1.6117647059e+00	-4.8262142687e-01
 1.3668481447e-01	 1.6118620501e+00	-5.3427031649e-01
 1.2284340656e-01	 1.6129759776e+00	-5.1928334148e-01
 1.0903685344e-01	 1.6139680826e+00	-5.0582394914e-01
 9.5266542016e-02	 1.6148394016e+00	-4.9395360600e-01
 8.1533832525e-02	 1.6155909882e+00	-4.8374554309e-01
 6.7840058410e-02	 1.6162239119e+00	-4.7528378556e-01
 5.4186526199e-02	 1.6167392577e+00	-4.6866214213e-01
 4.0574515406e-02	 1.6171381251e+00	-4.6398316078e-01
 2.7005278456e-02	 1.6174216277e+00	-4.6135705668e-01
 1.3480040627e-02	 1.6175908925e+00	-4.6090061839e-01
 0.0000000000e+00	 1.6176470588e+00	-4.6273609812e-01
 1.3718185016e-01	 1.6177233666e+00	-5.1423681775e-01
 1.2329010986e-01	 1.6188413448e+00	-4.9918559311e-01
 1.0943335109e-01	 1.6198370574e+00	-4.8567568057e-01
 9.5612965805e-02	 1.6207115449e+00	-4.7377319462e-01
 8.1830319189e-02	 1.6214658645e+00	-4.6355633889e-01
 6.8086749532e-02	 1.6221010898e+00	-4.5511440920e-01
 5.4383568112e-02	 1.6226183095e+00	-4.4854675591e-01
 4.0722059098e-02	 1.6230186274e+00	-4.4396171199e-01
 2.7103479469e-02	 1.6233031609e+00	-4.4147549299e-01
 1.3529058957e-02	 1.6234730412e+00	-4.4121107514e-01
 0.0000000000e+00	 1.6235294118e+00	-4.4329705735e-01
 1.3767888585e-01	 1.6235846831e+00	-4.9446462946e-01
 1.2373681316e-01	 1.6247067120e+00	-4.7938685309e-01
 1.0982984874e-01	 1.6257060322e+00	-4.6585901273e-01
 9.5959389594e-02	 1.6265836881e+00	-4.5395227668e-01
 8.2126805852e-02	 1.6273407408e+00	-4.4375010884e-01
 6.8333440653e-02	 1.6279782676e+00	-4.3534724756e-01
 5.4580610026e-02	 1.6284973614e+00	-4.2884864320e-01
 4.0869602790e-02	 1.6288991296e+00	-4.2436836104e-01
 2.7201680482e-02	 1.6291846941e+00	-4.2202845592e-01
 1.3578077286e-02	 1.6293551899e+00	-4.2195782468e-01
 0.0000000000e+00	 1.6294117647e+00	-4.2429104259e-01
 1.3817592154e-01	 1.6294459997e+00	-4.7494249837e-01
 1.2418351645e-01	 1.6305720792e+00	-4.5988285073e-01
 1.1022634639e-01	 1.6315750071e+00	-4.4637505619e-01
 9.6305813383e-02	 1.6324558314e+00	-4.3449574655e-01
 8.2423292516e-02	 1.6332156171e+00	-4.2433393854e-01
 6.8580131775e-02	 1.6338554455e+00	-4.1598999064e-01
 5.4777651939e-02	 1.6343764132e+00	-4.0957451833e-01
 4.1017146483e-02	 1.6347796319e+00	-4.0520727428e-01
 2.7299881494e-02	 1.6350662273e+00	-4.0301599998e-01
 1.3627095616e-02	 1.6352373386e+00	-4.0313525529e-01
 0.0000000000e+00	 1.6352941176e+00	-4.0570523180e-01
 1.3867295723e-01	 1.6353073162e+00	-4.5565943063e-01
 1.2463021975e-01	 1.6364374464e+00	-4.4066949653e-01
 1.1062284404e-01	 1.6374439819e+00	-4.2722504585e-01
 9.6652237172e-02	 1.6383279747e+00	-4.1540858742e-01
 8.2719779180e-02	 1.6390904935e+00	-4.0531498808e-01
 6.8826822896e-02	 1.6397326233e+00	-3.9705040990e-01
 5.4974693853e-02	 1.6402554651e+00	-3.9073120528e-01
 4.1164690175e-02	 1.6406601342e+00	-3.8648277684e-01
 2.7398082507e-02	 1.6409477605e+00	-3.8443840870e-01
 1.3676113945e-02	 1.6411194873e+00	-3.8473807541e-01
 0.0000000000e+00	 1.6411764706e+00	-3.8752723498e-01
 1.3916999292e-01	 1.6411686328e+00	-4.3660468574e-01
 1.2507692305e-01	 1.6423028136e+00	-4.2174287777e-01
 1.1101934169e-01	 1.6433129568e+00	-4.0841033774e-01
 9.6998660961e-02	 1.6442001180e+00	-3.9669586882e-01
 8.3016265844e-02	 1.6449653698e+00	-3.8670049010e-01
 6.9073514018e-02	 1.6456098012e+00	-3.7853635630e-01
 5.5171735766e-02	 1.6461345169e+00	-3.7232563520e-01
 4.1312233867e-02	 1.6465406365e+00	-3.6819934955e-01
 2.7496283519e-02	 1.6468292937e+00	-3.6629619033e-01
 1.3725132275e-02	 1.6470016360e+00	-3.6676130778e-01
 0.0000000000e+00	 1.6470588235e+00	-3.6974508647e-01
 1.6470588235e+00	 0.0000000000e+00	 3.4427569562e+00
 1.6470016360e+00	 1.3725132275e-02	 3.4379626803e+00
 1.6468292937e+00	 2.7496283519e-02	 3.4326208933e+00
 1.6465406365e+00	 4.1312233867e-02	 3.4263751121e+00
 1.6461345169e+00	 5.5171735766e-02	 3.4189046906e+00
 1.6456098012e+00	 6.9073514018e-02	 3.4099262254e+00
 1.6449653698e+00	 8.3016265844e-02	 3.3991947986e+00
 1.6442001180e+00	 9.6998660961e-02	 3.3865050604e+00
 1.6433129568e+00	 1.1101934169e-01	 3.3716921537e+00
 1.6423028136e+00	 1.2507692305e-01	 3.3546324852e+00
 1.6411686328e+00	 1.3916999292e-01	 3.3352443484e+00
 1.6529411765e+00	 0.0000000000e+00	 3.4309277615e+00
 1.6528837847e+00	 1.3774150604e-02	 3.4261058508e+00
 1.6527108269e+00	 2.7594484532e-02	 3.4207855058e+00
 1.6524211387e+00	 4.1459777560e-02	 3.4145972576e+00
 1.6520135687e+00	 5.5368777679e-02	 3.4072084331e+00
 1.6514869791e+00	 6.9320205139e-02	 3.3983245342e+00
 1.6508402461e+00	 8.3312752507e-02	 3.3876904503e+00
 1.6500722613e+00	 9.7345084751e-02	 3.3750915055e+00
 1.6491819316e+00	 1.1141583933e-01	 3.3603543445e+00
 1.6481681808e+00	 1.2552362634e-01	 3.3433476611e+00
 1.6470299493e+00	 1.3966702861e-01	 3.3239827750e+00
 1.6588235294e+00	 0.0000000000e+00	 3.4190353335e+00
 1.6587659334e+00	 1.3823168934e-02	 3.4141840840e+00
 1.6585923601e+00	 2.7692685544e-02	 3.4088930534e+00
 1.6583016410e+00	 4.1607321252e-02	 3.4027788745e+00
 1.6578926206e+00	 5.5565819593e-02	 3.3954959321e+00
 1.6573641569e+00	 6.9566896261e-02	 3.3867377152e+00
 1.6567151224e+00	 8.3609239171e-02	 3.3762379973e+00
 1.6559444045e+00	 9.7691508540e-02	 3.3637718487e+00
 1.6550509065e+00	 1.1181233698e-01	 3.3491564823e+00
 1.6540335480e+00	 1.2597032964e-01	 3.3322519385e+00
 1.6528912659e+00	 1.4016406430e-01	 3.3129616152e+00
 1.6647058824e+00	 0.0000000000e+00	 3.4070690378e+00
 1.6646480821e+00	 1.3872187264e-02	 3.4021876149e+00
 1.6644738933e+00	 2.7790886557e-02	 3.3969343745e+00
 1.6641821433e+00	 4.1754864945e-02	 3.3909111630e+00
 1.6637716724e+00	 5.5762861506e-02	 3.3837585326e+00
 1.6632413348e+00	 6.9813587382e-02	 3.3751570652e+00
 1.6625899987e+00	 8.3905725835e-02	 3.3648285211e+00
 1.6618165478e+00	 9.8037932329e-02	 3.3525368143e+00
 1.6609198813e+00	 1.1220883463e-01	 3.3380888177e+00
 1.6598989152e+00	 1.2641703293e-01	 3.3213350037e+00
 1.6587525824e+00	 1.4066109999e-01	 3.3021699262e+00
 1.6705882353e+00	 0.0000000000e+00	 3.3950182507e+00
 1.6705302308e+00	 1.3921205593e-02	 3.3901066540e+00
 1.6703554265e+00	 2.7889087570e-02	 3.3849002503e+00
 1.6700626455e+00	 4.1902408637e-02	 3.3789852359e+00
 1.6696507243e+00	 5.5959903420e-02	 3.3719874638e+00
 1.6691185127e+00	 7.0060278504e-02	 3.3635737403e+00
 1.6684648751e+00	 8.4202212499e-02	 3.3534529398e+00
 1.6676886911e+00	 9.8384356118e-02	 3.3413769430e+00
 1.6667888562e+00	 1.1260533228e-01	 3.3271413999e+00
 1.6657642823e+00	 1.2686373623e-01	 3.3105863262e+00
 1.6646138990e+00	 1.4115813568e-01	 3.2915965352e+00
 1.6764705882e+00	 0.0000000000e+00	 3.3828723592e+00
 1.6764123795e+00	 1.3970223923e-02	 3.3779313871e+00
 1.6762369596e+00	 2.7987288582e-02	 3.3727814051e+00
 1.6759431478e+00	 4.2049952329e-02	 3.3669921187e+00
 1.6755297761e+00	 5.6156945333e-02	 3.3601738407e+00
 1.6749956905e+00	 7.0306969625e-02	 3.3519787574e+00
 1.6743397514e+00	 8.4498699162e-02	 3.3421020101e+00
 1.6735608344e+00	 9.8730779907e-02	 3.3302825940e+00
 1.6726578310e+00	 1.1300182993e-01	 3.3163040796e+00
 1.6716296495e+00	 1.2731043953e-01	 3.2999951618e+00
 1.6704752155e+00	 1.4165517136e-01	 3.2812300432e+00
 1.6823529412e+00	 0.0000000000e+00	 3.3706207608e+00
 1.6822945282e+00	 1.4019242252e-02	 3.3656519760e+00
 1.6821184928e+00	 2.8085489595e-02	 3.3605685063e+00
 1.6818236501e+00	 4.2197496022e-02	 3.3549227510e+00
 1.6814088280e+00	 5.6353987247e-02	 3.3483086652e+00
 1.6808728684e+00	 7.0553660747e-02	 3.3403629961e+00
 1.6802146277e+00	 8.4795185826e-02	 3.3307663291e+00
 1.6794329776e+00	 9.9077203696e-02	 3.3192439477e+00
 1.6785268059e+00	 1.1339832758e-01	 3.3055665110e+00
 1.6774950167e+00	 1.2775714282e-01	 3.2895505557e+00
 1.6763365321e+00	 1.4215220705e-01	 3.2710588280e+00
 1.6882352941e+00	 0.0000000000e+00	 3.3582528635e+00
 1.6881766769e+00	 1.4068260582e-02	 3.3532585582e+00
 1.6880000260e+00	 2.8183690607e-02	 3.3482521658e+00
 1.6877041524e+00	 4.2345039714e-02	 3.3427679872e+00
 1.6872878798e+00	 5.6551029160e-02	 3.3363828273e+00
 1.6867500462e+00	 7.0800351868e-02	 3.3287171995e+00
 1.6860895040e+00	 8.5091672490e-02	 3.3194363361e+00
 1.6853051209e+00	 9.9423627485e-02	 3.3082510075e+00
 1.6843957807e+00	 1.1379482523e-01	 3.2949181552e+00
 1.6833603839e+00	 1.2820384612e-01	 3.2792413450e+00
 1.6821978486e+00	 1.4264924274e-01	 3.2610710476e+00
 1.6941176471e+00	 0.0000000000e+00	 3.3457580851e+00
 1.6940588256e+00	 1.4117278911e-02	 3.3407412472e+00
 1.6938815592e+00	 2.8281891620e-02	 3.3358229396e+00
 1.6935846546e+00	 4.2492583407e-02	 3.3305185972e+00
 1.6931669317e+00	 5.6748071074e-02	 3.3243871062e+00
 1.6926272241e+00	 7.1047042990e-02	 3.3170319764e+00
 1.6919643803e+00	 8.5388159153e-02	 3.3081023147e+00
 1.6911772642e+00	 9.9770051275e-02	 3.2972936022e+00
 1.6902647556e+00	 1.1419132288e-01	 3.2843482820e+00
 1.6892257511e+00	 1.2865054942e-01	 3.2690561623e+00
 1.6880591652e+00	 1.4314627843e-01	 3.2512546440e+00
 1.7000000000e+00	 0.0000000000e+00	 3.3331258535e+00
 1.6999409743e+00	 1.4166297241e-02	 3.3280901328e+00
 1.6997630924e+00	 2.8380092632e-02	 3.3232713290e+00
 1.6994651569e+00	 4.2640127099e-02	 3.3181652672e+00
 1.6990459835e+00	 5.6945112987e-02	 3.3123121712e+00
 1.6985044020e+00	 7.1293734111e-02	 3.3052978022e+00
 1.6978392567e+00	 8.5684645817e-02	 3.2967543940e+00
 1.6970494075e+00	 1.0011647506e-01	 3.2863613879e+00
 1.6961337304e+00	 1.1458782053e-01	 3.2738459728e+00
 1.6950911183e+00	 1.2909725271e-01	 3.2589834380e+00
 1.6939204817e+00	 1.4364331412e-01	 3.2415973461e+00
 1.7058823529e+00	 0.0000000000e+00	 3.3203456065e+00
 1.7058231230e+00	 1.4215315570e-02	 3.3152952810e+00
 1.7056446256e+00	 2.8478293645e-02	 3.3105877805e+00
 1.7053456592e+00	 4.2787670791e-02	 3.3056986006e+00
 1.7049250354e+00	 5.7142154900e-02	 3.3001485832e+00
 1.7043815798e+00	 7.1540425233e-02	 3.2935050206e+00
 1.7037141330e+00	 8.5981132481e-02	 3.2853825511e+00
 1.7029215508e+00	 1.0046289885e-01	 3.2754438504e+00
 1.7020027052e+00	 1.1498431817e-01	 3.2634001231e+00
 1.7009564855e+00	 1.2954395601e-01	 3.2490114035e+00
 1.6997817982e+00	 1.4414034981e-01	 3.2320866732e+00
 1.6411686328e+00	 1.3916999292e-01	 3.3352443484e+00
 1.6399093766e+00	 1.5329711220e-01	 3.3130215956e+00
 1.6385240259e+00	 1.6745681495e-01	 3.2875085163e+00
 1.6370115804e+00	 1.8164760864e-01	 3.2587640275e+00
 1.6353710603e+00	 1.9586797432e-01	 3.2268914180e+00
 1.6336015060e+00	 2.1011636690e-01	 3.1920383023e+00
 1.6317019797e+00	 2.2439121536e-01	 3.1543964728e+00
 1.6296715655e+00	 2.3869092310e-01	 3.1142016631e+00
 1.6275093704e+00	 2.5301386817e-01	 3.0717332338e+00
 1.6252145250e+00	 2.6735840366e-01	 3.0273137921e+00
 1.6227861841e+00	 2.8172285801e-01	 2.9813087608e+00
 1.6470299493e+00	 1.3966702861e-01	 3.3239827750e+00
 1.6457661958e+00	 1.5384460188e-01	 3.3017548813e+00
 1.6443758974e+00	 1.6805487501e-01	 3.2762190512e+00
 1.6428580504e+00	 1.8229635010e-01	 3.2474426155e+00
 1.6412116712e+00	 1.9656750280e-01	 3.2155381617e+00
 1.6394357971e+00	 2.1086678249e-01	 3.1806634207e+00
 1.6375294868e+00	 2.2519261256e-01	 3.1430210513e+00
 1.6354918211e+00	 2.3954339068e-01	 3.1028583329e+00
 1.6333219038e+00	 2.5391748913e-01	 3.0604667805e+00
 1.6310188626e+00	 2.6831325511e-01	 3.0161816941e+00
 1.6285818491e+00	 2.8272901107e-01	 2.9703816567e+00
 1.6528912659e+00	 1.4016406430e-01	 3.3129616152e+00
 1.6516230150e+00	 1.5439209157e-01	 3.2907821180e+00
 1.6502277689e+00	 1.6865293506e-01	 3.2652786143e+00
 1.6487045203e+00	 1.8294509156e-01	 3.2365247314e+00
 1.6470522821e+00	 1.9726703128e-01	 3.2046401969e+00
 1.6452700882e+00	 2.1161719809e-01	 3.1697906573e+00
 1.6433569939e+00	 2.2599400976e-01	 3.1321873945e+00
 1.6413120767e+00	 2.4039585826e-01	 3.0920869481e+00
 1.6391344373e+00	 2.5482111009e-01	 3.0497906610e+00
 1.6368232001e+00	 2.6926810655e-01	 3.0056441573e+00
 1.6343775140e+00	 2.8373516413e-01	 2.9600367713e+00
 1.6587525824e+00	 1.4066109999e-01	 3.3021699262e+00
 1.6574798342e+00	 1.5493958126e-01	 3.2800915789e+00
 1.6560796404e+00	 1.6925099511e-01	 3.2546744561e+00
 1.6545509902e+00	 1.8359383302e-01	 3.2259964024e+00
 1.6528928931e+00	 1.9796655976e-01	 3.1941821634e+00
 1.6511043793e+00	 2.1236761369e-01	 3.1594031378e+00
 1.6491845009e+00	 2.2679540695e-01	 3.1218770241e+00
 1.6471323323e+00	 2.4124832584e-01	 3.0818673746e+00
 1.6449469708e+00	 2.5572473105e-01	 3.0396830694e+00
 1.6426275377e+00	 2.7022295799e-01	 2.9956777257e+00
 1.6401731790e+00	 2.8474131720e-01	 2.9502490564e+00
 1.6646138990e+00	 1.4115813568e-01	 3.2915965352e+00
 1.6633366534e+00	 1.5548707094e-01	 3.2696712977e+00
 1.6619315119e+00	 1.6984905517e-01	 3.2443935841e+00
 1.6603974601e+00	 1.8424257448e-01	 3.2158434136e+00
 1.6587335040e+00	 1.9866608824e-01	 3.1841484651e+00
 1.6569386704e+00	 2.1311802928e-01	 3.1494837623e+00
 1.6550120080e+00	 2.2759680415e-01	 3.1120712516e+00
 1.6529525879e+00	 2.4210079343e-01	 3.0721792862e+00
 1.6507595042e+00	 2.5662835200e-01	 3.0301220307e+00
 1.6484318753e+00	 2.7117780943e-01	 2.9862588000e+00
 1.6459688439e+00	 2.8574747026e-01	 2.9409933494e+00
 1.6704752155e+00	 1.4165517136e-01	 3.2812300432e+00
 1.6691934726e+00	 1.5603456063e-01	 3.2595090728e+00
 1.6677833835e+00	 1.7044711522e-01	 3.2344227668e+00
 1.6662439301e+00	 1.8489131594e-01	 3.2060513127e+00
 1.6645741149e+00	 1.9936561672e-01	 3.1745232746e+00
 1.6627729615e+00	 2.1386844488e-01	 3.1400152109e+00
 1.6608395151e+00	 2.2839820135e-01	 3.1027511833e+00
 1.6587728435e+00	 2.4295326101e-01	 3.0630021714e+00
 1.6565720377e+00	 2.5753197296e-01	 3.0210854071e+00
 1.6542362129e+00	 2.7213266087e-01	 2.9773636444e+00
 1.6517645089e+00	 2.8675362333e-01	 2.9322443808e+00
 1.6763365321e+00	 1.4215220705e-01	 3.2710588280e+00
 1.6750502918e+00	 1.5658205032e-01	 3.2495924712e+00
 1.6736352550e+00	 1.7104517527e-01	 3.2247485384e+00
 1.6720904000e+00	 1.8554005740e-01	 3.1966054150e+00
 1.6704147259e+00	 2.0006514520e-01	 3.1652905388e+00
 1.6686072526e+00	 2.1461886047e-01	 3.1309799491e+00
 1.6666670221e+00	 2.2919959855e-01	 3.0938977269e+00
 1.6645930990e+00	 2.4380572859e-01	 3.0543153394e+00
 1.6623845712e+00	 2.5843559392e-01	 3.0125509052e+00
 1.6600405505e+00	 2.7308751231e-01	 2.9689683946e+00
 1.6575601738e+00	 2.8775977639e-01	 2.9239767823e+00
 1.6821978486e+00	 1.4264924274e-01	 3.2610710476e+00
 1.6809071110e+00	 1.5712954000e-01	 3.2399088323e+00
 1.6794871265e+00	 1.7164323533e-01	 3.2153572024e+00
 1.6779368699e+00	 1.8618879886e-01	 3.1874908077e+00
 1.6762553368e+00	 2.0076467368e-01	 3.1564339838e+00
 1.6744415437e+00	 2.1536927607e-01	 3.1223602334e+00
 1.6724945292e+00	 2.3000099574e-01	 3.0854915966e+00
 1.6704133546e+00	 2.4465819617e-01	 3.0460979262e+00
 1.6681971046e+00	 2.5933921488e-01	 3.0044960823e+00
 1.6658448881e+00	 2.7404236376e-01	 2.9610490640e+00
 1.6633558387e+00	 2.8876592946e-01	 2.9161650942e+00
 1.6880591652e+00	 1.4314627843e-01	 3.2512546440e+00
 1.6867639302e+00	 1.5767702969e-01	 3.2304452717e+00
 1.6853389980e+00	 1.7224129538e-01	 3.2062348365e+00
 1.6837833399e+00	 1.8683754032e-01	 3.1786923545e+00
 1.6820959477e+00	 2.0146420216e-01	 3.1479371197e+00
 1.6802758348e+00	 2.1611969167e-01	 3.1141381163e+00
 1.6783220363e+00	 2.3080239294e-01	 3.0775133197e+00
 1.6762336102e+00	 2.4551066376e-01	 3.0383289012e+00
 1.6740096381e+00	 2.6024283583e-01	 2.9968983533e+00
 1.6716492257e+00	 2.7499721520e-01	 2.9535815519e+00
 1.6691515037e+00	 2.8977208252e-01	 2.9087837734e+00
 1.6939204817e+00	 1.4364331412e-01	 3.2415973461e+00
 1.6926207494e+00	 1.5822451938e-01	 3.2211886847e+00
 1.6911908695e+00	 1.7283935543e-01	 3.1973672960e+00
 1.6896298098e+00	 1.8748628178e-01	 3.1701947001e+00
 1.6879365586e+00	 2.0216373064e-01	 3.1397832455e+00
 1.6861101259e+00	 2.1687010726e-01	 3.1062954520e+00
 1.6841495434e+00	 2.3160379014e-01	 3.0699432417e+00
 1.6820538658e+00	 2.4636313134e-01	 3.0309870731e+00
 1.6798221716e+00	 2.6114645679e-01	 2.9897349972e+00
 1.6774535633e+00	 2.7595206664e-01	 2.9465416495e+00
 1.6749471686e+00	 2.9077823558e-01	 2.9018072005e+00
 1.6997817982e+00	 1.4414034981e-01	 3.2320866732e+00
 1.6984775687e+00	 1.5877200906e-01	 3.2121257504e+00
 1.6970427411e+00	 1.7343741549e-01	 3.1887402185e+00
 1.6954762797e+00	 1.8813502324e-01	 3.1619822750e+00
 1.6937771696e+00	 2.0286325912e-01	 3.1319554545e+00
 1.6919444170e+00	 2.1762052286e-01	 3.0988139016e+00
 1.6899770504e+00	 2.3240518734e-01	 3.0627615322e+00
 1.6878741214e+00	 2.4721559892e-01	 3.0240510963e+00
 1.6856347050e+00	 2.6205007775e-01	 2.9829831638e+00
 1.6832579009e+00	 2.7690691808e-01	 2.9399050480e+00
 1.6807428336e+00	 2.9178438865e-01	 2.8952096881e+00
 1.6227861841e+00	 2.8172285801e-01	 2.9813087608e+00
 1.6202235278e+00	 2.9610553536e-01	 2.9328184446e+00
 1.6175257616e+00	 3.1050471600e-01	 2.8808460425e+00
 1.6146921176e+00	 3.2491865674e-01	 2.8256707096e+00
 1.6117218550e+00	 3.3934559135e-01	 2.7676080390e+00
 1.6086142607e+00	 3.5378373102e-01	 2.7070097028e+00
 1.6053686504e+00	 3.6823126487e-01	 2.6442631312e+00
 1.6019843688e+00	 3.8268636038e-01	 2.5797912438e+00
 1.5984607903e+00	 3.9714716401e-01	 2.5140522449e+00
 1.5947973203e+00	 4.1161180167e-01	 2.4475394963e+00
 1.5909933950e+00	 4.2607837933e-01	 2.3807814775e+00
 1.6285818491e+00	 2.8272901107e-01	 2.9703816567e+00
 1.6260100404e+00	 2.9716305513e-01	 2.9221566837e+00
 1.6233026393e+00	 3.1161366142e-01	 2.8704791517e+00
 1.6204588752e+00	 3.2607908051e-01	 2.8156109426e+00
 1.6174780045e+00	 3.4055753989e-01	 2.7578504331e+00
 1.6143593117e+00	 3.5504724435e-01	 2.6975321142e+00
 1.6111021099e+00	 3.6954637653e-01	 2.6350262527e+00
 1.6077057415e+00	 3.8405309738e-01	 2.5707386103e+00
 1.6041695789e+00	 3.9856554674e-01	 2.5051102324e+00
 1.6004930250e+00	 4.1308184382e-01	 2.4386173194e+00
 1.5966755142e+00	 4.2760008783e-01	 2.3717711927e+00
 1.6343775140e+00	 2.8373516413e-01	 2.9600367713e+00
 1.6317965530e+00	 2.9822057490e-01	 2.9120475453e+00
 1.6290795171e+00	 3.1272260683e-01	 2.8606216018e+00
 1.6262256327e+00	 3.2723950429e-01	 2.8060074887e+00
 1.6232341539e+00	 3.4176948843e-01	 2.7484903029e+00
 1.6201043626e+00	 3.5631075767e-01	 2.6883912807e+00
 1.6168355693e+00	 3.7086148819e-01	 2.6260674363e+00
 1.6134271142e+00	 3.8541983439e-01	 2.5619112626e+00
 1.6098783674e+00	 3.9998392947e-01	 2.4963505072e+00
 1.6061887297e+00	 4.1455188597e-01	 2.4298480368e+00
 1.6023576335e+00	 4.2912179632e-01	 2.3629018024e+00
 1.6401731790e+00	 2.8474131720e-01	 2.9502490564e+00
 1.6375830656e+00	 2.9927809467e-01	 2.9024643378e+00
 1.6348563948e+00	 3.1383155224e-01	 2.8512448503e+00
 1.6319923903e+00	 3.2839992806e-01	 2.7968297145e+00
 1.6289903034e+00	 3.4298143697e-01	 2.7394946485e+00
 1.6258494135e+00	 3.5757427100e-01	 2.6795515251e+00
 1.6225690288e+00	 3.7217659985e-01	 2.6173479807e+00
 1.6191484870e+00	 3.8678657139e-01	 2.5532670914e+00
 1.6155871560e+00	 4.0140231220e-01	 2.4877271299e+00
 1.6118844345e+00	 4.1602192812e-01	 2.4211814178e+00
 1.6080397528e+00	 4.3064350482e-01	 2.3541182841e+00
 1.6459688439e+00	 2.8574747026e-01	 2.9409933494e+00
 1.6433695782e+00	 3.0033561444e-01	 2.8933802886e+00
 1.6406332725e+00	 3.1494049766e-01	 2.8423203152e+00
 1.6377591479e+00	 3.2956035184e-01	 2.7880469949e+00
 1.6347464529e+00	 3.4419338551e-01	 2.7308305351e+00
 1.6315944645e+00	 3.5883778432e-01	 2.6709773014e+00
 1.6283024883e+00	 3.7349171151e-01	 2.6088293910e+00
 1.6248698597e+00	 3.8815330839e-01	 2.5447642784e+00
 1.6212959445e+00	 4.0282069493e-01	 2.4791945478e+00
 1.6175801392e+00	 4.1749197027e-01	 2.4125677256e+00
 1.6137218720e+00	 4.3216521332e-01	 2.3453662277e+00
 1.6517645089e+00	 2.8675362333e-01	 2.9322443808e+00
 1.6491560908e+00	 3.0139313420e-01	 2.8847685525e+00
 1.6464101502e+00	 3.1604944307e-01	 2.8338193828e+00
 1.6435259054e+00	 3.3072077561e-01	 2.7796287228e+00
 1.6405026024e+00	 3.4540533405e-01	 2.7224651031e+00
 1.6373395154e+00	 3.6010129765e-01	 2.6626332043e+00
 1.6340359477e+00	 3.7480682317e-01	 2.6004733884e+00
 1.6305912325e+00	 3.8952004539e-01	 2.5363613075e+00
 1.6270047330e+00	 4.0423907766e-01	 2.4707076058e+00
 1.6232758439e+00	 4.1896201242e-01	 2.4039577275e+00
 1.6194039913e+00	 4.3368692182e-01	 2.3365918455e+00
 1.6575601738e+00	 2.8775977639e-01	 2.9239767823e+00
 1.6549426034e+00	 3.0245065397e-01	 2.8766022205e+00
 1.6521870279e+00	 3.1715838849e-01	 2.8257134174e+00
 1.6492926630e+00	 3.3188119938e-01	 2.7715443179e+00
 1.6462587519e+00	 3.4661728259e-01	 2.7143655775e+00
 1.6430845663e+00	 3.6136481097e-01	 2.6544839800e+00
 1.6397694072e+00	 3.7612193483e-01	 2.5922419210e+00
 1.6363126052e+00	 3.9088678239e-01	 2.5280169746e+00
 1.6327135216e+00	 4.0565746039e-01	 2.4622215572e+00
 1.6289715486e+00	 4.2043205457e-01	 2.3953027061e+00
 1.6250861106e+00	 4.3520863031e-01	 2.3277419833e+00
 1.6633558387e+00	 2.8876592946e-01	 2.9161650942e+00
 1.6607291160e+00	 3.0350817374e-01	 2.8688543273e+00
 1.6579639057e+00	 3.1826733390e-01	 2.8179737695e+00
 1.6550594205e+00	 3.3304162316e-01	 2.7637632364e+00
 1.6520149013e+00	 3.4782923113e-01	 2.7064992776e+00
 1.6488296173e+00	 3.6262832430e-01	 2.6464945353e+00
 1.6455028667e+00	 3.7743704649e-01	 2.5840971741e+00
 1.6420339780e+00	 3.9225351939e-01	 2.5196903984e+00
 1.6384223101e+00	 4.0707584311e-01	 2.4536920741e+00
 1.6346672533e+00	 4.2190209672e-01	 2.3865544695e+00
 1.6307682298e+00	 4.3673033881e-01	 2.3187641307e+00
 1.6691515037e+00	 2.8977208252e-01	 2.9087837734e+00
 1.6665156286e+00	 3.0456569351e-01	 2.8614978601e+00
 1.6637407834e+00	 3.1937627932e-01	 2.8105717847e+00
 1.6608261781e+00	 3.3420204693e-01	 2.7562549799e+00
 1.6577710508e+00	 3.4904117967e-01	 2.6988336268e+00
 1.6545746682e+00	 3.6389183762e-01	 2.6386299486e+00
 1.6512363261e+00	 3.7875215815e-01	 2.5760015803e+00
 1.6477553507e+00	 3.9362025639e-01	 2.5113410314e+00
 1.6441310986e+00	 4.0849422584e-01	 2.4450752582e+00
 1.6403629580e+00	 4.2337213887e-01	 2.3776653626e+00
 1.6364503491e+00	 4.3825204731e-01	 2.3096064318e+00
 1.6749471686e+00	 2.9077823558e-01	 2.9018072005e+00
 1.6723021412e+00	 3.0562321328e-01	 2.8545057662e+00
 1.6695176611e+00	 3.2048522473e-01	 2.8034788123e+00
 1.6665929357e+00	 3.3536247071e-01	 2.7489891045e+00
 1.6635272003e+00	 3.5025312821e-01	 2.6913361617e+00
 1.6603197191e+00	 3.6515535095e-01	 2.6308554788e+00
 1.6569697856e+00	 3.8006726981e-01	 2.5679178297e+00
 1.6534767235e+00	 3.9498699340e-01	 2.5029286695e+00
 1.6498398872e+00	 4.0991260857e-01	 2.4363276515e+00
 1.6460586628e+00	 4.2484218101e-01	 2.3685882776e+00
 1.6421324684e+00	 4.3977375581e-01	 2.3002176966e+00
 1.6807428336e+00	 2.9178438865e-01	 2.8952096881e+00
 1.6780886538e+00	 3.0668073305e-01	 2.8478509615e+00
 1.6752945388e+00	 3.2159417014e-01	 2.7966662139e+00
 1.6723596932e+00	 3.3652289448e-01	 2.7419352300e+00
 1.6692833498e+00	 3.5146507675e-01	 2.6839745422e+00
 1.6660647700e+00	 3.6641886427e-01	 2.6231365759e+00
 1.6627032451e+00	 3.8138238147e-01	 2.5598088805e+00
 1.6591980962e+00	 3.9635373040e-01	 2.4944134634e+00
 1.6555486757e+00	 4.1133099130e-01	 2.4274062471e+00
 1.6517543675e+00	 4.2631222316e-01	 2.3592766646e+00
 1.6478145876e+00	 4.4129546430e-01	 2.2905474110e+00
 1.5909933950e+00	 4.2607837933e-01	 2.3807814775e+00
 1.5870484824e+00	 4.4054498357e-01	 2.3102286909e+00
 1.5829620833e+00	 4.5500968227e-01	 2.2327146713e+00
 1.5787337313e+00	 4.6947052514e-01	 2.1494016618e+00
 1.5743629936e+00	 4.8392554447e-01	 2.0614956632e+00
 1.5698494719e+00	 4.9837275575e-01	 1.9702464699e+00
 1.5651928027e+00	 5.1281015839e-01	 1.8769478195e+00
 1.5603926578e+00	 5.2723573643e-01	 1.7829376598e+00
 1.5554487449e+00	 5.4164745928e-01	 1.6895985333e+00
 1.5503608084e+00	 5.5604328248e-01	 1.5983580783e+00
 1.5451286294e+00	 5.7042114849e-01	 1.5106896439e+00
 1.5966755142e+00	 4.2760008783e-01	 2.3717711927e+00
 1.5927165127e+00	 4.4211835852e-01	 2.3010208851e+00
 1.5886155193e+00	 4.5663471684e-01	 2.2232355536e+00
 1.5843720660e+00	 4.7114720558e-01	 2.1396165046e+00
 1.5799857186e+00	 4.8565384998e-01	 2.0514095445e+00
 1.5754560772e+00	 5.0015265845e-01	 1.9599049895e+00
 1.5707827770e+00	 5.1464162324e-01	 1.8664377972e+00
 1.5659654887e+00	 5.2911872120e-01	 1.7723878204e+00
 1.5610039190e+00	 5.4358191449e-01	 1.6791801849e+00
 1.5558978113e+00	 5.5802915135e-01	 1.5882857909e+00
 1.5506469460e+00	 5.7245836688e-01	 1.5012219339e+00
 1.6023576335e+00	 4.2912179632e-01	 2.3629018024e+00
 1.5983845430e+00	 4.4369173346e-01	 2.2919631522e+00
 1.5942689553e+00	 4.5825975142e-01	 2.2139351516e+00
 1.5900104008e+00	 4.7282388603e-01	 2.1300536286e+00
 1.5856084435e+00	 4.8738215550e-01	 2.0415995942e+00
 1.5810626824e+00	 5.0193256114e-01	 1.9498992333e+00
 1.5763727513e+00	 5.1647308809e-01	 1.8563240225e+00
 1.5715383196e+00	 5.3100170597e-01	 1.7622909776e+00
 1.5665590931e+00	 5.4551636970e-01	 1.6692630318e+00
 1.5614348142e+00	 5.6001502022e-01	 1.5787495432e+00
 1.5561652625e+00	 5.7449558526e-01	 1.4923069298e+00
 1.6080397528e+00	 4.3064350482e-01	 2.3541182841e+00
 1.6040525733e+00	 4.4526510840e-01	 2.2829954738e+00
 1.5999223913e+00	 4.5988478600e-01	 2.2047486001e+00
 1.5956487355e+00	 4.7450056648e-01	 2.1206435175e+00
 1.5912311685e+00	 4.8911046101e-01	 2.0319918870e+00
 1.5866692877e+00	 5.0371246384e-01	 1.9401511537e+00
 1.5819627256e+00	 5.1830455294e-01	 1.8465246570e+00
 1.5771111505e+00	 5.3288469075e-01	 1.7525618778e+00
 1.5721142672e+00	 5.4745082491e-01	 1.6597588233e+00
 1.5669718170e+00	 5.6200088908e-01	 1.5696585485e+00
 1.5616835790e+00	 5.7653280365e-01	 1.4838518116e+00
 1.6137218720e+00	 4.3216521332e-01	 2.3453662277e+00
 1.6097206036e+00	 4.4683848334e-01	 2.2740585689e+00
 1.6055758274e+00	 4.6150982058e-01	 2.1956118996e+00
 1.6012870703e+00	 4.7617724692e-01	 2.1113176504e+00
 1.5968538935e+00	 4.9083876653e-01	 2.0225136232e+00
 1.5922758930e+00	 5.0549236654e-01	 1.9305839591e+00
 1.5875526999e+00	 5.2013601779e-01	 1.8369592477e+00
 1.5826839814e+00	 5.3476767552e-01	 1.7431167803e+00
 1.5776694413e+00	 5.4938528013e-01	 1.6505809472e+00
 1.5725088199e+00	 5.6398675795e-01	 1.5609237803e+00
 1.5672018956e+00	 5.7857002204e-01	 1.4757656367e+00
 1.6194039913e+00	 4.3368692182e-01	 2.3365918455e+00
 1.6153886339e+00	 4.4841185828e-01	 2.2650939053e+00
 1.6112292634e+00	 4.6313485516e-01	 2.1864619267e+00
 1.6069254050e+00	 4.7785392737e-01	 2.1020085125e+00
 1.6024766185e+00	 4.9256707205e-01	 2.0130931394e+00
 1.5978824982e+00	 5.0727226924e-01	 1.9211221246e+00
 1.5931426742e+00	 5.2196748264e-01	 1.8275487382e+00
 1.5882568124e+00	 5.3665066029e-01	 1.7338734689e+00
 1.5832246153e+00	 5.5131973534e-01	 1.6416444409e+00
 1.5780458228e+00	 5.6597262681e-01	 1.5524579842e+00
 1.5727202121e+00	 5.8060724043e-01	 1.4679593529e+00
 1.6250861106e+00	 4.3520863031e-01	 2.3277419833e+00
 1.6210566642e+00	 4.4998523322e-01	 2.2560437090e+00
 1.6168826994e+00	 4.6475988974e-01	 2.1772364451e+00
 1.6125637398e+00	 4.7953060782e-01	 2.0926496050e+00
 1.6080993435e+00	 4.9429537756e-01	 2.0036599191e+00
 1.6034891035e+00	 5.0905217194e-01	 1.9116914027e+00
 1.5987326485e+00	 5.2379894749e-01	 1.8182154791e+00
 1.5938296433e+00	 5.3853364506e-01	 1.7247512630e+00
 1.5887797894e+00	 5.5325419055e-01	 1.6328660040e+00
 1.5835828257e+00	 5.6795849568e-01	 1.5441756905e+00
 1.5782385286e+00	 5.8264445881e-01	 1.4603458115e+00
 1.6307682298e+00	 4.3673033881e-01	 2.3187641307e+00
 1.6267246945e+00	 4.5155860816e-01	 2.2468509759e+00
 1.6225361354e+00	 4.6638492432e-01	 2.1678741153e+00
 1.6182020745e+00	 4.8120728827e-01	 2.0831754561e+00
 1.6137220684e+00	 4.9602368308e-01	 1.9941446030e+00
 1.6090957087e+00	 5.1083207464e-01	 1.9022188341e+00
 1.6043226228e+00	 5.2563041235e-01	 1.8088832395e+00
 1.5994024742e+00	 5.4041662984e-01	 1.7156710294e+00
 1.5943349635e+00	 5.5518864576e-01	 1.6241640094e+00
 1.5891198286e+00	 5.6994436455e-01	 1.5359932268e+00
 1.5837568452e+00	 5.8468167720e-01	 1.4528397809e+00
 1.6364503491e+00	 4.3825204731e-01	 2.3096064318e+00
 1.6323927248e+00	 4.5313198310e-01	 2.2374594816e+00
 1.6281895714e+00	 4.6800995890e-01	 2.1583145061e+00
 1.6238404093e+00	 4.8288396871e-01	 2.0735216316e+00
 1.6193447934e+00	 4.9775198859e-01	 1.9844790003e+00
 1.6147023140e+00	 5.1261197734e-01	 1.8926327586e+00
 1.6099125971e+00	 5.2746187720e-01	 1.7994772182e+00
 1.6049753051e+00	 5.4229961461e-01	 1.7065551933e+00
 1.5998901376e+00	 5.5712310097e-01	 1.6154585162e+00
 1.5946568315e+00	 5.7193023341e-01	 1.5278287305e+00
 1.5892751617e+00	 5.8671889559e-01	 1.4453579593e+00
 1.6421324684e+00	 4.3977375581e-01	 2.3002176966e+00
 1.6380607551e+00	 4.5470535805e-01	 2.2278137927e+00
 1.6338430074e+00	 4.6963499348e-01	 2.1484981047e+00
 1.6294787440e+00	 4.8456064916e-01	 2.0636247456e+00
 1.6249675184e+00	 4.9948029411e-01	 1.9745960990e+00
 1.6203089192e+00	 5.1439188004e-01	 1.8828628264e+00
 1.6155025714e+00	 5.2929334205e-01	 1.7899240548e+00
 1.6105481360e+00	 5.4418259938e-01	 1.6973277508e+00
 1.6054453117e+00	 5.5905755618e-01	 1.6066712813e+00
 1.6001938344e+00	 5.7391610228e-01	 1.5196021620e+00
 1.5947934782e+00	 5.8875611398e-01	 1.4378118226e+00
 1.6478145876e+00	 4.4129546430e-01	 2.2905474110e+00
 1.6437287854e+00	 4.5627873299e-01	 2.2178592771e+00
 1.6394964434e+00	 4.7126002806e-01	 2.1383663278e+00
 1.6351170788e+00	 4.8623732961e-01	 2.0534224713e+00
 1.6305902434e+00	 5.0120859963e-01	 1.9644300777e+00
 1.6259155245e+00	 5.1617178274e-01	 1.8728400093e+00
 1.6210925457e+00	 5.3112480690e-01	 1.7801518419e+00
 1.6161209670e+00	 5.4606558416e-01	 1.6879142805e+00
 1.6110004858e+00	 5.6099201140e-01	 1.5977257727e+00
 1.6057308373e+00	 5.7590197114e-01	 1.5112353180e+00
 1.6003117948e+00	 5.9079333236e-01	 1.4299766309e+00
 1.5451286294e+00	 5.7042114849e-01	 1.5106896439e+00
 1.5397520268e+00	 5.8477898744e-01	 1.4296267317e+00
 1.5342308571e+00	 5.9911471800e-01	 1.3536802256e+00
 1.5285650154e+00	 6.1342624818e-01	 1.2736148502e+00
 1.5227544355e+00	 6.2771147620e-01	 1.1895153430e+00
 1.5167990906e+00	 6.4196829132e-01	 1.1018376279e+00
 1.5106989933e+00	 6.5619457477e-01	 1.0109865276e+00
 1.5044541963e+00	 6.7038820062e-01	 9.1731534004e-01
 1.4980647926e+00	 6.8454703669e-01	 8.2112571393e-01
 1.4915309158e+00	 6.9866894549e-01	 7.2266784080e-01
 1.4848527405e+00	 7.1275178516e-01	 6.2214097781e-01
 1.5506469460e+00	 5.7245836688e-01	 1.5012219339e+00
 1.5452511412e+00	 5.8686748382e-01	 1.4209719210e+00
 1.5397102530e+00	 6.0125441342e-01	 1.3442793515e+00
 1.5340241761e+00	 6.1561705621e-01	 1.2634196659e+00
 1.5281928442e+00	 6.2995330290e-01	 1.1787985300e+00
 1.5222162302e+00	 6.4426103522e-01	 1.0908338640e+00
 1.5160943468e+00	 6.5853812682e-01	 9.9989087863e-01
 1.5098272470e+00	 6.7278244419e-01	 9.0628166360e-01
 1.5034150240e+00	 6.8699184754e-01	 8.1026508288e-01
 1.4968578119e+00	 7.0116419173e-01	 7.1204699216e-01
 1.4901557860e+00	 7.1529732725e-01	 6.1178079492e-01
 1.5561652625e+00	 5.7449558526e-01	 1.4923069298e+00
 1.5507502556e+00	 5.8895598021e-01	 1.4128443073e+00
 1.5451896489e+00	 6.0339410884e-01	 1.3351749175e+00
 1.5394833369e+00	 6.1780786424e-01	 1.2535650524e+00
 1.5336312529e+00	 6.3219512960e-01	 1.1684510914e+00
 1.5276333698e+00	 6.4655377911e-01	 1.0802158396e+00
 1.5214897003e+00	 6.6088167888e-01	 9.8918782981e-01
 1.5152002977e+00	 6.7517668777e-01	 8.9564091958e-01
 1.5087652554e+00	 6.8943665838e-01	 7.9979420057e-01
 1.5021847080e+00	 7.0365943796e-01	 7.0181223747e-01
 1.4954588315e+00	 7.1784286934e-01	 6.0180565241e-01
 1.5616835790e+00	 5.7653280365e-01	 1.4838518116e+00
 1.5562493699e+00	 5.9104447659e-01	 1.4049454219e+00
 1.5506690448e+00	 6.0553380426e-01	 1.3262976170e+00
 1.5449424977e+00	 6.1999867227e-01	 1.2439824617e+00
 1.5390696616e+00	 6.3443695630e-01	 1.1584056016e+00
 1.5330505094e+00	 6.4884652301e-01	 1.0699175926e+00
 1.5268850539e+00	 6.6322523093e-01	 9.7881320143e-01
 1.5205733484e+00	 6.7757093134e-01	 8.8533100582e-01
 1.5141154868e+00	 6.9188146923e-01	 7.8965331379e-01
 1.5075116042e+00	 7.0615468420e-01	 6.9190641921e-01
 1.5007618770e+00	 7.2038841143e-01	 5.9216121002e-01
 1.5672018956e+00	 5.7857002204e-01	 1.4757656367e+00
 1.5617484843e+00	 5.9313297297e-01	 1.3971433252e+00
 1.5561484408e+00	 6.0767349968e-01	 1.3175801428e+00
 1.5504016584e+00	 6.2218948030e-01	 1.2346053336e+00
 1.5445080703e+00	 6.3667878300e-01	 1.1485966044e+00
 1.5384676490e+00	 6.5113926691e-01	 1.0598751070e+00
 1.5322804074e+00	 6.6556878298e-01	 9.6870473109e-01
 1.5259463991e+00	 6.7996517492e-01	 8.7529170422e-01
 1.5194657182e+00	 6.9432628007e-01	 7.7978451605e-01
 1.5128385003e+00	 7.0864993043e-01	 6.8227418595e-01
 1.5060649225e+00	 7.2293395352e-01	 5.8279489016e-01
 1.5727202121e+00	 5.8060724043e-01	 1.4679593529e+00
 1.5672475987e+00	 5.9522146936e-01	 1.3893723133e+00
 1.5616278367e+00	 6.0981319510e-01	 1.3089571537e+00
 1.5558608192e+00	 6.2438028833e-01	 1.2253690612e+00
 1.5499464790e+00	 6.3892060970e-01	 1.1389605790e+00
 1.5438847886e+00	 6.5343201081e-01	 1.0500262777e+00
 1.5376757610e+00	 6.6791233503e-01	 9.5880203792e-01
 1.5313194498e+00	 6.8235941849e-01	 8.6546464437e-01
 1.5248159496e+00	 6.9677109092e-01	 7.7013171091e-01
 1.5181653964e+00	 7.1114517666e-01	 6.7286195524e-01
 1.5113679680e+00	 7.2547949561e-01	 5.7365584050e-01
 1.5782385286e+00	 5.8264445881e-01	 1.4603458115e+00
 1.5727467131e+00	 5.9730996574e-01	 1.3815686226e+00
 1.5671072326e+00	 6.1195289053e-01	 1.3003652420e+00
 1.5613199800e+00	 6.2657109636e-01	 1.2162109585e+00
 1.5553848877e+00	 6.4116243640e-01	 1.1294359055e+00
 1.5493019282e+00	 6.5572475470e-01	 1.0403108756e+00
 1.5430711145e+00	 6.7025588709e-01	 9.4904658706e-01
 1.5366925005e+00	 6.8475366206e-01	 8.5579326752e-01
 1.5301661810e+00	 6.9921590176e-01	 7.6064057537e-01
 1.5234922926e+00	 7.1364042290e-01	 6.6361787677e-01
 1.5166710135e+00	 7.2802503770e-01	 5.6469489681e-01
 1.5837568452e+00	 5.8468167720e-01	 1.4528397809e+00
 1.5782458275e+00	 5.9939846212e-01	 1.3736703983e+00
 1.5725866285e+00	 6.1409258595e-01	 1.2917429019e+00
 1.5667791408e+00	 6.2876190438e-01	 1.2070702262e+00
 1.5608232964e+00	 6.4340426310e-01	 1.1199628308e+00
 1.5547190678e+00	 6.5801749860e-01	 1.0306705128e+00
 1.5484664681e+00	 6.7259943914e-01	 9.3938165430e-01
 1.5420655512e+00	 6.8714790564e-01	 8.4622279071e-01
 1.5355164124e+00	 7.0166071261e-01	 7.5125852367e-01
 1.5288191887e+00	 7.1613566913e-01	 6.5449179565e-01
 1.5219740590e+00	 7.3057057979e-01	 5.5586454603e-01
 1.5892751617e+00	 5.8671889559e-01	 1.4453579593e+00
 1.5837449418e+00	 6.0148695851e-01	 1.3656176640e+00
 1.5780660244e+00	 6.1623228137e-01	 1.2830304964e+00
 1.5722383015e+00	 6.3095271241e-01	 1.1978879197e+00
 1.5662617051e+00	 6.4564608980e-01	 1.1104834351e+00
 1.5601362074e+00	 6.6031024250e-01	 1.0210486082e+00
 1.5538618216e+00	 6.7494299119e-01	 9.2975229102e-01
 1.5474386019e+00	 6.8954214921e-01	 8.3670017117e-01
 1.5408666438e+00	 7.0410552345e-01	 7.4193467114e-01
 1.5341460848e+00	 7.1863091537e-01	 6.4543521601e-01
 1.5272771045e+00	 7.3311612188e-01	 5.4711888942e-01
 1.5947934782e+00	 5.8875611398e-01	 1.4378118226e+00
 1.5892440562e+00	 6.0357545489e-01	 1.3573522905e+00
 1.5835454204e+00	 6.1837197679e-01	 1.2741702266e+00
 1.5776974623e+00	 6.3314352044e-01	 1.1886069155e+00
 1.5717001138e+00	 6.4788791650e-01	 1.1009415981e+00
 1.5655533470e+00	 6.6260298640e-01	 1.0113903532e+00
 1.5592571752e+00	 6.7728654325e-01	 9.2010528932e-01
 1.5528116526e+00	 6.9193639278e-01	 8.2717407087e-01
 1.5462168752e+00	 7.0655033430e-01	 7.3261979838e-01
 1.5394729809e+00	 7.2112616160e-01	 6.3640126468e-01
 1.5325801500e+00	 7.3566166397e-01	 5.3841360605e-01
 1.6003117948e+00	 5.9079333236e-01	 1.4299766309e+00
 1.5947431706e+00	 6.0566395128e-01	 1.3488179650e+00
 1.5890248163e+00	 6.2051167221e-01	 1.2651060991e+00
 1.5831566231e+00	 6.3533432847e-01	 1.1791718793e+00
 1.5771385225e+00	 6.5012974320e-01	 1.0912829661e+00
 1.5709704866e+00	 6.6489573029e-01	 1.0016426776e+00
 1.5646525287e+00	 6.7963009530e-01	 9.1038914732e-01
 1.5581847033e+00	 6.9433063636e-01	 8.1759482134e-01
 1.5515671066e+00	 7.0899514514e-01	 7.2326631553e-01
 1.5447998771e+00	 7.2362140783e-01	 6.2734465516e-01
 1.5378831955e+00	 7.3820720606e-01	 5.2970591636e-01
 1.4848527405e+00	 7.1275178516e-01	 6.2214097781e-01
 1.4780304823e+00	 7.2679341042e-01	 5.2353756115e-01
 1.4710643985e+00	 7.4079167351e-01	 4.3031283151e-01
 1.4639547878e+00	 7.5474442522e-01	 3.4178036387e-01
 1.4567019908e+00	 7.6864951583e-01	 2.5719987674e-01
 1.4493063900e+00	 7.8250479612e-01	 1.7578054147e-01
 1.4417684102e+00	 7.9630811840e-01	 9.6684704678e-02
 1.4340885182e+00	 8.1005733748e-01	 1.9032026333e-02
 1.4262672233e+00	 8.2375031170e-01	-5.8095965839e-02
 1.4183050768e+00	 8.3738490398e-01	-1.3565090740e-01
 1.4102026726e+00	 8.5095898282e-01	-2.1461221779e-01
 1.4901557860e+00	 7.1529732725e-01	 6.1178079492e-01
 1.4833091626e+00	 7.2938910117e-01	 5.1340751437e-01
 1.4763182000e+00	 7.4343735806e-01	 4.2036955841e-01
 1.4691831978e+00	 7.5743994102e-01	 3.3199065740e-01
 1.4619044979e+00	 7.7139469267e-01	 2.4753968347e-01
 1.4544824843e+00	 7.8529945611e-01	 1.6623395852e-01
 1.4469175831e+00	 7.9915207597e-01	 8.7242983301e-02
 1.4392102630e+00	 8.1295039940e-01	 9.6925905884e-03
 1.4313610348e+00	 8.2669227710e-01	-6.7330476632e-02
 1.4233704520e+00	 8.4037556435e-01	-1.4477356354e-01
 1.4152391107e+00	 8.5399812204e-01	-2.2361268225e-01
 1.4954588315e+00	 7.1784286934e-01	 6.0180565241e-01
 1.4885878429e+00	 7.3198479192e-01	 5.0366662276e-01
 1.4815720014e+00	 7.4608304260e-01	 4.1082407738e-01
 1.4744116077e+00	 7.6013545682e-01	 3.2261013494e-01
 1.4671070050e+00	 7.7413986951e-01	 2.3830100569e-01
 1.4596585785e+00	 7.8809411610e-01	 1.5712029928e-01
 1.4520667560e+00	 8.0199603354e-01	 7.8242762051e-02
 1.4443320077e+00	 8.1584346132e-01	 7.9844689656e-04
 1.4364548463e+00	 8.2963424250e-01	-7.6122682906e-02
 1.4284358273e+00	 8.4336622472e-01	-1.5346571730e-01
 1.4202755488e+00	 8.5703726126e-01	-2.3220533407e-01
 1.5007618770e+00	 7.2038841143e-01	 5.9216121002e-01
 1.4938665232e+00	 7.3458048267e-01	 4.9426337824e-01
 1.4868258028e+00	 7.4872872715e-01	 4.0162755381e-01
 1.4796400177e+00	 7.6283097263e-01	 3.1359250054e-01
 1.4723095121e+00	 7.7688504635e-01	 2.2943997485e-01
 1.4648346728e+00	 7.9088877608e-01	 1.4839803476e-01
 1.4572159289e+00	 8.0483999110e-01	 6.9644786673e-02
 1.4494537524e+00	 8.1873652324e-01	-7.6874264092e-03
 1.4415486578e+00	 8.3257620790e-01	-8.4507393594e-02
 1.4335012026e+00	 8.4635688509e-01	-1.6175996287e-01
 1.4253119869e+00	 8.6007640049e-01	-2.4042052934e-01
 1.5060649225e+00	 7.2293395352e-01	 5.8279489016e-01
 1.4991452035e+00	 7.3717617342e-01	 4.8514799231e-01
 1.4920796042e+00	 7.5137441170e-01	 3.9273283268e-01
 1.4848684276e+00	 7.6552648843e-01	 3.0489310070e-01
 1.4775120192e+00	 7.7963022319e-01	 2.2091433058e-01
 1.4700107670e+00	 7.9368343607e-01	 1.4002721252e-01
 1.4623651018e+00	 8.0768394867e-01	 6.1411350340e-02
 1.4545754971e+00	 8.2162958516e-01	-1.5800530315e-02
 1.4466424693e+00	 8.3551817329e-01	-9.2517921486e-02
 1.4385665779e+00	 8.4934754546e-01	-1.6968742082e-01
 1.4303484250e+00	 8.6311553971e-01	-2.4828717115e-01
 1.5113679680e+00	 7.2547949561e-01	 5.7365584050e-01
 1.5044238838e+00	 7.3977186417e-01	 4.7627235843e-01
 1.4973334056e+00	 7.5402009625e-01	 3.8409440058e-01
 1.4900968376e+00	 7.6822200424e-01	 2.9646888618e-01
 1.4827145263e+00	 7.8237540004e-01	 2.1268338217e-01
 1.4751868613e+00	 7.9647809605e-01	 1.3196941780e-01
 1.4675142747e+00	 8.1052790623e-01	 5.3506254481e-02
 1.4596972418e+00	 8.2452264708e-01	-2.3574884598e-02
 1.4517362808e+00	 8.3846013869e-01	-1.0018612299e-01
 1.4436319531e+00	 8.5233820583e-01	-1.7727777810e-01
 1.4353848632e+00	 8.6615467894e-01	-2.5583274988e-01
 1.5166710135e+00	 7.2802503770e-01	 5.6469489681e-01
 1.5097025641e+00	 7.4236755492e-01	 4.6759001454e-01
 1.5025872071e+00	 7.5666578080e-01	 3.7566834803e-01
 1.4953252476e+00	 7.7091752004e-01	 2.8827837392e-01
 1.4879170335e+00	 7.8512057688e-01	 2.0470797014e-01
 1.4803629555e+00	 7.9927275604e-01	 1.2418773484e-01
 1.4726634476e+00	 8.1337186380e-01	 4.5894769780e-02
 1.4648189865e+00	 8.2741570900e-01	-3.1043067141e-02
 1.4568300923e+00	 8.4140210409e-01	-1.0754243775e-01
 1.4486973284e+00	 8.5532886620e-01	-1.8455932793e-01
 1.4404213013e+00	 8.6919381816e-01	-2.6308338332e-01
 1.5219740590e+00	 7.3057057979e-01	 5.5586454603e-01
 1.5149812444e+00	 7.4496324568e-01	 4.5905610584e-01
 1.5078410085e+00	 7.5931146534e-01	 3.6741233188e-01
 1.5005536575e+00	 7.7361303585e-01	 2.8028160921e-01
 1.4931195406e+00	 7.8786575372e-01	 1.9695042810e-01
 1.4855390498e+00	 8.0206741603e-01	 1.1664670834e-01
 1.4778126205e+00	 8.1621582136e-01	 3.8543597327e-02
 1.4699407312e+00	 8.3030877092e-01	-3.8236253098e-02
 1.4619239038e+00	 8.4434406949e-01	-1.1461592809e-01
 1.4537627037e+00	 8.5831952658e-01	-1.9155900956e-01
 1.4454577394e+00	 8.7223295739e-01	-2.7006385667e-01
 1.5272771045e+00	 7.3311612188e-01	 5.4711888942e-01
 1.5202599247e+00	 7.4755893643e-01	 4.5062734775e-01
 1.5130948099e+00	 7.6195714989e-01	 3.5928553797e-01
 1.5057820675e+00	 7.7630855165e-01	 2.7244012796e-01
 1.4983220477e+00	 7.9061093056e-01	 1.8937454472e-01
 1.4907151440e+00	 8.0486207601e-01	 1.0931230515e-01
 1.4829617934e+00	 8.1905977893e-01	 3.1420829920e-02
 1.4750624759e+00	 8.3320183284e-01	-4.5184253905e-02
 1.4670177154e+00	 8.4728603489e-01	-1.2143431836e-01
 1.4588280790e+00	 8.6131018695e-01	-1.9830244785e-01
 1.4504941775e+00	 8.7527209661e-01	-2.7679766242e-01
 1.5325801500e+00	 7.3566166397e-01	 5.3841360605e-01
 1.5255386050e+00	 7.5015462718e-01	 4.4226198897e-01
 1.5183486113e+00	 7.6460283444e-01	 3.5124864392e-01
 1.5110104774e+00	 7.7900406745e-01	 2.6471691916e-01
 1.5035245548e+00	 7.9335610741e-01	 1.8194552582e-01
 1.4958912383e+00	 8.0765673600e-01	 1.0215187599e-01
 1.4881109663e+00	 8.2190373650e-01	 2.4495913530e-02
 1.4801842206e+00	 8.3609489476e-01	-5.1915556152e-02
 1.4721115269e+00	 8.5022800029e-01	-1.2802403411e-01
 1.4638934542e+00	 8.6430084732e-01	-2.0481399279e-01
 1.4555306156e+00	 8.7831123583e-01	-2.8330704004e-01
 1.5378831955e+00	 7.3820720606e-01	 5.2970591636e-01
 1.5308172853e+00	 7.5275031793e-01	 4.3391977481e-01
 1.5236024128e+00	 7.6724851899e-01	 3.4326378210e-01
 1.5162388874e+00	 7.8169958326e-01	 2.5707638757e-01
 1.5087270619e+00	 7.9610128425e-01	 1.7462995672e-01
 1.5010673325e+00	 8.1045139599e-01	 9.5134117438e-02
 1.4932601392e+00	 8.2474769406e-01	 1.7739608897e-02
 1.4853059653e+00	 8.3898795667e-01	-5.8457360313e-02
 1.4772053384e+00	 8.5316996569e-01	-1.3441024110e-01
 1.4689588295e+00	 8.6729150769e-01	-2.1111675876e-01
 1.4605670537e+00	 8.8135037506e-01	-2.8961301566e-01
 1.4102026726e+00	 8.5095898282e-01	-2.1461221779e-01
 1.4019606469e+00	 8.6447042335e-01	-2.9141171939e-01
 1.3935796780e+00	 8.7791710836e-01	-3.6256959863e-01
 1.3850604867e+00	 8.9129692935e-01	-4.2921990035e-01
 1.3764038357e+00	 9.0460778754e-01	-4.9249713003e-01
 1.3676105296e+00	 9.1784759494e-01	-5.5352875532e-01
 1.3586814149e+00	 9.3101427538e-01	-6.1342737912e-01
 1.3496173797e+00	 9.4410576553e-01	-6.7328260720e-01
 1.3404193535e+00	 9.5712001595e-01	-7.3415263573e-01
 1.3310883068e+00	 9.7005499211e-01	-7.9705558717e-01
 1.3216252510e+00	 9.8290867542e-01	-8.6296062497e-01
 1.4152391107e+00	 8.5399812204e-01	-2.2361268225e-01
 1.4069676492e+00	 8.6755781771e-01	-3.0025117824e-01
 1.3985567483e+00	 8.8105252660e-01	-3.7119077415e-01
 1.3900071313e+00	 8.9448013267e-01	-4.3757763207e-01
 1.3813195637e+00	 9.0783852964e-01	-5.0055811790e-01
 1.3724948529e+00	 9.2112562207e-01	-5.6127118773e-01
 1.3635338485e+00	 9.3433932637e-01	-6.2084043762e-01
 1.3544374418e+00	 9.4747757184e-01	-6.8036583991e-01
 1.3452065655e+00	 9.6053830173e-01	-7.4091519185e-01
 1.3358421936e+00	 9.7351947423e-01	-8.0351530525e-01
 1.3263453411e+00	 9.8641906354e-01	-8.6914296811e-01
 1.4202755488e+00	 8.5703726126e-01	-2.3220533407e-01
 1.4119746515e+00	 8.7064521208e-01	-3.0871341196e-01
 1.4035338186e+00	 8.8418794485e-01	-3.7946746348e-01
 1.3949537759e+00	 8.9766333599e-01	-4.4562371388e-01
 1.3862352917e+00	 9.1106927174e-01	-5.0833831162e-01
 1.3773791762e+00	 9.2440364919e-01	-5.6875960161e-01
 1.3683862822e+00	 9.3766437735e-01	-6.2802005355e-01
 1.3592575039e+00	 9.5084937815e-01	-6.8722786869e-01
 1.3499937774e+00	 9.6395658750e-01	-7.4745829126e-01
 1.3405960804e+00	 9.7698395634e-01	-8.0974465332e-01
 1.3310654313e+00	 9.8992945167e-01	-8.7506918476e-01
 1.4253119869e+00	 8.6007640049e-01	-2.4042052934e-01
 1.4169816538e+00	 8.7373260645e-01	-3.1682631845e-01
 1.4085108889e+00	 8.8732336309e-01	-3.8742471908e-01
 1.3999004205e+00	 9.0084653930e-01	-4.5337998985e-01
 1.3911510196e+00	 9.1430001383e-01	-5.1585600909e-01
 1.3822634995e+00	 9.2768167632e-01	-5.7600843702e-01
 1.3732387158e+00	 9.4098942833e-01	-6.3497652452e-01
 1.3640775659e+00	 9.5422118445e-01	-6.9387459214e-01
 1.3547809894e+00	 9.6737487327e-01	-7.5378320587e-01
 1.3453499672e+00	 9.8044843846e-01	-8.1574007876e-01
 1.3357855215e+00	 9.9343983980e-01	-8.8073073059e-01
 1.4303484250e+00	 8.6311553971e-01	-2.4828717115e-01
 1.4219886561e+00	 8.7682000082e-01	-3.2461636402e-01
 1.4134879591e+00	 8.9045878134e-01	-3.9508618644e-01
 1.4048470651e+00	 9.0402974262e-01	-4.6086692429e-01
 1.3960667476e+00	 9.1753075593e-01	-5.2312815791e-01
 1.3871478229e+00	 9.3095970344e-01	-5.8303081505e-01
 1.3780911494e+00	 9.4431447932e-01	-6.4171886201e-01
 1.3688976280e+00	 9.5759299076e-01	-7.0031065666e-01
 1.3595682014e+00	 9.7079315904e-01	-7.5988999007e-01
 1.3501038540e+00	 9.8391292057e-01	-8.2149684643e-01
 1.3405056117e+00	 9.9695022792e-01	-8.8611791370e-01
 1.4353848632e+00	 8.6615467894e-01	-2.5583274988e-01
 1.4269956584e+00	 8.7990739519e-01	-3.3210862393e-01
 1.4184650294e+00	 8.9359419958e-01	-4.0247414453e-01
 1.4097937097e+00	 9.0721294594e-01	-4.6810364217e-01
 1.4009824756e+00	 9.2076149803e-01	-5.3017039565e-01
 1.3920321462e+00	 9.3423773057e-01	-5.8983857785e-01
 1.3829435830e+00	 9.4763953030e-01	-6.4825483105e-01
 1.3737176901e+00	 9.6096479706e-01	-7.0653949566e-01
 1.3643554134e+00	 9.7421144481e-01	-7.6577751934e-01
 1.3548577408e+00	 9.8737740269e-01	-8.2700907667e-01
 1.3452257019e+00	 1.0004606160e+00	-8.9121993199e-01
 1.4404213013e+00	 8.6919381816e-01	-2.6308338332e-01
 1.4320026607e+00	 8.8299478956e-01	-3.3932682264e-01
 1.4234420997e+00	 8.9672961782e-01	-4.0960954618e-01
 1.4147403543e+00	 9.1039614926e-01	-4.7510796940e-01
 1.4058982036e+00	 9.2399224013e-01	-5.3699708999e-01
 1.3969164695e+00	 9.3751575769e-01	-5.9644232850e-01
 1.3877960166e+00	 9.5096458128e-01	-6.5459098969e-01
 1.3785377521e+00	 9.6433660337e-01	-7.1256336860e-01
 1.3691426254e+00	 9.7762973058e-01	-7.7144352882e-01
 1.3596116276e+00	 9.9084188480e-01	-8.3226978322e-01
 1.3499457920e+00	 1.0039710042e+00	-8.9602491034e-01
 1.4454577394e+00	 8.7223295739e-01	-2.7006385667e-01
 1.4370096630e+00	 8.8608218393e-01	-3.4629337400e-01
 1.4284191700e+00	 8.9986503607e-01	-4.1651205834e-01
 1.4196869989e+00	 9.1357935258e-01	-4.8189647305e-01
 1.4108139316e+00	 9.2722298223e-01	-5.4362137876e-01
 1.4018007928e+00	 9.4079378482e-01	-6.0285147082e-01
 1.3926484503e+00	 9.5428963227e-01	-6.6073272848e-01
 1.3833578142e+00	 9.6770840967e-01	-7.1838340003e-01
 1.3739298373e+00	 9.8104801635e-01	-7.7688465177e-01
 1.3643655144e+00	 9.9430636692e-01	-8.3727091114e-01
 1.3546658822e+00	 1.0074813923e+00	-9.0051993790e-01
 1.4504941775e+00	 8.7527209661e-01	-2.7679766242e-01
 1.4420166653e+00	 8.8916957830e-01	-3.5302942131e-01
 1.4333962403e+00	 9.0300045431e-01	-4.2320010218e-01
 1.4246336435e+00	 9.1676255590e-01	-4.8848450143e-01
 1.4157296596e+00	 9.3045372433e-01	-5.5005520990e-01
 1.4066851161e+00	 9.4407181194e-01	-6.0907424907e-01
 1.3975008839e+00	 9.5761468325e-01	-6.6668430984e-01
 1.3881778763e+00	 9.7108021598e-01	-7.2399961858e-01
 1.3787170493e+00	 9.8446630212e-01	-7.8209645809e-01
 1.3691194013e+00	 9.9777084903e-01	-8.4200337470e-01
 1.3593859724e+00	 1.0109917804e+00	-9.0469110532e-01
 1.4555306156e+00	 8.7831123583e-01	-2.8330704004e-01
 1.4470236676e+00	 8.9225697267e-01	-3.5955487723e-01
 1.4383733105e+00	 9.0613587256e-01	-4.2969089310e-01
 1.4295802881e+00	 9.1994575922e-01	-4.9488622410e-01
 1.4206453875e+00	 9.3368446642e-01	-5.5630938134e-01
 1.4115694395e+00	 9.4734983907e-01	-6.1511778758e-01
 1.4023533175e+00	 9.6093973424e-01	-6.7244890743e-01
 1.3929979384e+00	 9.7445202228e-01	-7.2941099584e-01
 1.3835042613e+00	 9.8788458790e-01	-7.8707349273e-01
 1.3738732881e+00	 1.0012353311e+00	-8.4645709524e-01
 1.3641060626e+00	 1.0145021686e+00	-9.0852354197e-01
 1.4605670537e+00	 8.8135037506e-01	-2.8961301566e-01
 1.4520306700e+00	 8.9534436704e-01	-3.6588846361e-01
 1.4433503808e+00	 9.0927129080e-01	-4.3600048064e-01
 1.4345269327e+00	 9.2312896254e-01	-5.0111467169e-01
 1.4255611155e+00	 9.3691520852e-01	-5.6239358071e-01
 1.4164537628e+00	 9.5062786619e-01	-6.2098813030e-01
 1.4072057511e+00	 9.6426478522e-01	-6.7802864530e-01
 1.3978180004e+00	 9.7782382859e-01	-7.3461548521e-01
 1.3882914733e+00	 9.9130287367e-01	-7.9180931404e-01
 1.3786271749e+00	 1.0046998133e+00	-8.5062103903e-01
 1.3688261528e+00	 1.0180125567e+00	-9.1200145320e-01
 1.3216252510e+00	 9.8290867542e-01	-8.6296062497e-01
 1.3120312379e+00	 9.9567906422e-01	-9.2847485197e-01
 1.3023073597e+00	 1.0083641748e+00	-9.8976772704e-01
 1.2924547481e+00	 1.0209620425e+00	-1.0470359882e+00
 1.2824745743e+00	 1.0334707226e+00	-1.1003710279e+00
 1.2723680485e+00	 1.0458882911e+00	-1.1497502394e+00
 1.2621364191e+00	 1.0582128461e+00	-1.1950284066e+00
 1.2517809728e+00	 1.0704425086e+00	-1.2359291840e+00
 1.2413030335e+00	 1.0825754233e+00	-1.2720367097e+00
 1.2307039621e+00	 1.0946097596e+00	-1.3027874011e+00
 1.2199851557e+00	 1.1065437127e+00	-1.3274619786e+00
 1.3263453411e+00	 9.8641906354e-01	-8.6914296811e-01
 1.3167170638e+00	 9.9923506088e-01	-9.3431644856e-01
 1.3069584574e+00	 1.0119654755e+00	-9.9513420967e-01
 1.2970706579e+00	 1.0246083356e+00	-1.0518274505e+00
 1.2870548406e+00	 1.0371616894e+00	-1.1045231594e+00
 1.2769122201e+00	 1.0496236064e+00	-1.1532352521e+00
 1.2666440492e+00	 1.0619921777e+00	-1.1978557469e+00
 1.2562516191e+00	 1.0742655176e+00	-1.2381460220e+00
 1.2457362586e+00	 1.0864417641e+00	-1.2737282025e+00
 1.2350993334e+00	 1.0985190802e+00	-1.3040767237e+00
 1.2243422455e+00	 1.1104956545e+00	-1.3285101196e+00
 1.3310654313e+00	 9.8992945167e-01	-8.7506918476e-01
 1.3214028896e+00	 1.0027910575e+00	-9.3987341165e-01
 1.3116095551e+00	 1.0155667761e+00	-1.0001991886e+00
 1.3016865677e+00	 1.0282546286e+00	-1.0563135048e+00
 1.2916351070e+00	 1.0408526563e+00	-1.1083803753e+00
 1.2814563917e+00	 1.0533589217e+00	-1.1564517671e+00
 1.2711516792e+00	 1.0657715093e+00	-1.2004585550e+00
 1.2607222655e+00	 1.0780885266e+00	-1.2402015525e+00
 1.2501694837e+00	 1.0903081049e+00	-1.2753426665e+00
 1.2394947047e+00	 1.1024284008e+00	-1.3053962241e+00
 1.2286993354e+00	 1.1144475963e+00	-1.3297205207e+00
 1.3357855215e+00	 9.9343983980e-01	-8.8073073059e-01
 1.3260887155e+00	 1.0063470542e+00	-9.4513253515e-01
 1.3162606528e+00	 1.0191680767e+00	-1.0049456006e+00
 1.3063024775e+00	 1.0319009216e+00	-1.0604740319e+00
 1.2962153733e+00	 1.0445436232e+00	-1.1119202988e+00
 1.2860005633e+00	 1.0570942371e+00	-1.1593759453e+00
 1.2756593093e+00	 1.0695508409e+00	-1.2028123216e+00
 1.2651929118e+00	 1.0819115355e+00	-1.2420713842e+00
 1.2546027089e+00	 1.0941744457e+00	-1.2768566139e+00
 1.2438900760e+00	 1.1063377214e+00	-1.3067240997e+00
 1.2330564252e+00	 1.1183995382e+00	-1.3310738414e+00
 1.3405056117e+00	 9.9695022792e-01	-8.8611791370e-01
 1.3307745413e+00	 1.0099030509e+00	-9.5007949358e-01
 1.3209117505e+00	 1.0227693773e+00	-1.0093552774e+00
 1.3109183873e+00	 1.0355472146e+00	-1.0642878090e+00
 1.3007956397e+00	 1.0482345900e+00	-1.1151194377e+00
 1.2905447349e+00	 1.0608295524e+00	-1.1619828072e+00
 1.2801669394e+00	 1.0733301725e+00	-1.2048913593e+00
 1.2696635581e+00	 1.0857345445e+00	-1.2437298983e+00
 1.2590359340e+00	 1.0980407865e+00	-1.2782452669e+00
 1.2482854472e+00	 1.1102470419e+00	-1.3080371833e+00
 1.2374135151e+00	 1.1223514800e+00	-1.3325492913e+00
 1.3452257019e+00	 1.0004606160e+00	-8.9121993199e-01
 1.3354603672e+00	 1.0134590475e+00	-9.5469887857e-01
 1.3255628482e+00	 1.0263706780e+00	-1.0134089819e+00
 1.3155342972e+00	 1.0391935076e+00	-1.0677325454e+00
 1.3053759060e+00	 1.0519255569e+00	-1.1179532198e+00
 1.2950889065e+00	 1.0645648677e+00	-1.1642462686e+00
 1.2846745695e+00	 1.0771095041e+00	-1.2066688386e+00
 1.2741342045e+00	 1.0895575534e+00	-1.2451502836e+00
 1.2634691591e+00	 1.1019071273e+00	-1.2794825939e+00
 1.2526808185e+00	 1.1141563625e+00	-1.3093109803e+00
 1.2417706049e+00	 1.1263034218e+00	-1.3341246673e+00
 1.3499457920e+00	 1.0039710042e+00	-8.9602491034e-01
 1.3401461930e+00	 1.0170150442e+00	-9.5897423557e-01
 1.3302139460e+00	 1.0299719786e+00	-1.0170864446e+00
 1.3201502070e+00	 1.0428398006e+00	-1.0707849182e+00
 1.3099561723e+00	 1.0556165238e+00	-1.1203960284e+00
 1.2996330781e+00	 1.0683001830e+00	-1.1661391760e+00
 1.2891821995e+00	 1.0808888357e+00	-1.2081168232e+00
 1.2786048508e+00	 1.0933805624e+00	-1.2463045731e+00
 1.2679023842e+00	 1.1057734681e+00	-1.2805413458e+00
 1.2570761898e+00	 1.1180656831e+00	-1.3105197057e+00
 1.2461276947e+00	 1.1302553637e+00	-1.3357763917e+00
 1.3546658822e+00	 1.0074813923e+00	-9.0051993790e-01
 1.3448320189e+00	 1.0205710408e+00	-9.6288810041e-01
 1.3348650437e+00	 1.0335732792e+00	-1.0203663995e+00
 1.3247661168e+00	 1.0464860936e+00	-1.0734206084e+00
 1.3145364387e+00	 1.0593074906e+00	-1.1224212384e+00
 1.3041772497e+00	 1.0720354984e+00	-1.1676333423e+00
 1.2936898296e+00	 1.0846681673e+00	-1.2092063065e+00
 1.2830754971e+00	 1.0972035714e+00	-1.2471636796e+00
 1.2723356093e+00	 1.1096398089e+00	-1.2813930925e+00
 1.2614715611e+00	 1.1219750036e+00	-1.3116363212e+00
 1.2504847846e+00	 1.1342073055e+00	-1.3374795494e+00
 1.3593859724e+00	 1.0109917804e+00	-9.0469110532e-01
 1.3495178447e+00	 1.0241270375e+00	-9.6642203596e-01
 1.3395161414e+00	 1.0371745798e+00	-1.0232266199e+00
 1.3293820266e+00	 1.0501323866e+00	-1.0756143367e+00
 1.3191167050e+00	 1.0629984575e+00	-1.1240012515e+00
 1.3087214213e+00	 1.0757708137e+00	-1.1686995826e+00
 1.2981974597e+00	 1.0884474989e+00	-1.2099072464e+00
 1.2875461434e+00	 1.1010265803e+00	-1.2476974324e+00
 1.2767688345e+00	 1.1135061497e+00	-1.2820082596e+00
 1.2658669324e+00	 1.1258843242e+00	-1.3126325719e+00
 1.2548418744e+00	 1.1381592473e+00	-1.3392079259e+00
 1.3641060626e+00	 1.0145021686e+00	-9.0852354197e-01
 1.3542036706e+00	 1.0276830341e+00	-9.6955666876e-01
 1.3441672391e+00	 1.0407758805e+00	-1.0256439556e+00
 1.3339979364e+00	 1.0537786796e+00	-1.0773398992e+00
 1.3236969713e+00	 1.0666894244e+00	-1.1251075324e+00
 1.3132655929e+00	 1.0795061290e+00	-1.1693077496e+00
 1.3027050897e+00	 1.0922268305e+00	-1.2101886022e+00
 1.2920167898e+00	 1.1048495893e+00	-1.2478746125e+00
 1.2812020596e+00	 1.1173724905e+00	-1.2823561644e+00
 1.2702623037e+00	 1.1297936448e+00	-1.3134790232e+00
 1.2591989643e+00	 1.1421111892e+00	-1.3409340447e+00
 1.3688261528e+00	 1.0180125567e+00	-9.1200145320e-01
 1.3588894964e+00	 1.0312390308e+00	-9.7227172569e-01
 1.3488183368e+00	 1.0443771811e+00	-1.0275943679e+00
 1.3386138462e+00	 1.0574249726e+00	-1.0785702036e+00
 1.3282772377e+00	 1.0703803912e+00	-1.1257106441e+00
 1.3178097645e+00	 1.0832414443e+00	-1.1694267699e+00
 1.3072127198e+00	 1.0960061621e+00	-1.2100183694e+00
 1.2964874361e+00	 1.1086725982e+00	-1.2476629896e+00
 1.2856352847e+00	 1.1212388313e+00	-1.2824050529e+00
 1.2746576750e+00	 1.1337029653e+00	-1.3141450984e+00
 1.2635560541e+00	 1.1460631310e+00	-1.3426292051e+00
 1.2199851557e+00	 1.1065437127e+00	-1.3274619786e+00
 1.2091480472e+00	 1.1183755040e+00	-1.3544184641e+00
 1.1981941046e+00	 1.1301033828e+00	-1.3916635581e+00
 1.1871248302e+00	 1.1417256263e+00	-1.4377000833e+00
 1.1759417600e+00	 1.1532405409e+00	-1.4908536034e+00
 1.1646464631e+00	 1.1646464631e+00	-1.5493865202e+00
 1.1532405409e+00	 1.1759417600e+00	-1.6109290934e+00
 1.1417256263e+00	 1.1871248302e+00	-1.6680103265e+00
 1.1301033828e+00	 1.1981941046e+00	-1.7130390418e+00
 1.1183755040e+00	 1.2091480472e+00	-1.7446816429e+00
 1.1065437127e+00	 1.2199851557e+00	-1.7617568749e+00
 1.2243422455e+00	 1.1104956545e+00	-1.3285101196e+00
 1.2134664331e+00	 1.1223697023e+00	-1.3554791759e+00
 1.2024733693e+00	 1.1341394663e+00	-1.3930639914e+00
 1.1913645617e+00	 1.1458032178e+00	-1.4397738891e+00
 1.1801415520e+00	 1.1573592572e+00	-1.4939376518e+00
 1.1688059148e+00	 1.1688059148e+00	-1.5537348097e+00
 1.1573592572e+00	 1.1801415520e+00	-1.6163608201e+00
 1.1458032178e+00	 1.1913645617e+00	-1.6714379801e+00
 1.1341394663e+00	 1.2024733693e+00	-1.7148673134e+00
 1.1223697023e+00	 1.2134664331e+00	-1.7453154812e+00
 1.1104956545e+00	 1.2243422455e+00	-1.7615923062e+00
 1.2286993354e+00	 1.1144475963e+00	-1.3297205207e+00
 1.2177848190e+00	 1.1263639005e+00	-1.3568525671e+00
 1.2067526339e+00	 1.1381755498e+00	-1.3949382072e+00
 1.1956042932e+00	 1.1498808093e+00	-1.4424935011e+00
 1.1843413440e+00	 1.1614779734e+00	-1.4978510595e+00
 1.1729653664e+00	 1.1729653664e+00	-1.5591584775e+00
 1.1614779734e+00	 1.1843413440e+00	-1.6215284900e+00
 1.1498808093e+00	 1.1956042932e+00	-1.6747174740e+00
 1.1381755498e+00	 1.2067526339e+00	-1.7166778152e+00
 1.1263639005e+00	 1.2177848190e+00	-1.7460634344e+00
 1.1144475963e+00	 1.2286993354e+00	-1.7616742112e+00
 1.2330564252e+00	 1.1183995382e+00	-1.3310738414e+00
 1.2221032049e+00	 1.1303580987e+00	-1.3585217429e+00
 1.2110318986e+00	 1.1422116333e+00	-1.3972709575e+00
 1.1998440248e+00	 1.1539584009e+00	-1.4458445324e+00
 1.1885411360e+00	 1.1655966896e+00	-1.5025790338e+00
 1.1771248181e+00	 1.1771248181e+00	-1.5655984323e+00
 1.1655966896e+00	 1.1885411360e+00	-1.6263257387e+00
 1.1539584009e+00	 1.1998440248e+00	-1.6777545691e+00
 1.1422116333e+00	 1.2110318986e+00	-1.7183754318e+00
 1.1303580987e+00	 1.2221032049e+00	-1.7468285343e+00
 1.1183995382e+00	 1.2330564252e+00	-1.7619028031e+00
 1.2374135151e+00	 1.1223514800e+00	-1.3325492913e+00
 1.2264215908e+00	 1.1343522970e+00	-1.3604682726e+00
 1.2153111632e+00	 1.1462477169e+00	-1.4000453832e+00
 1.2040837563e+00	 1.1580359924e+00	-1.4498109215e+00
 1.1927409280e+00	 1.1697154058e+00	-1.5081055510e+00
 1.1812842697e+00	 1.1812842697e+00	-1.5720050213e+00
 1.1697154058e+00	 1.1927409280e+00	-1.6306587633e+00
 1.1580359924e+00	 1.2040837563e+00	-1.6804555957e+00
 1.1462477169e+00	 1.2153111632e+00	-1.7198656498e+00
 1.1343522970e+00	 1.2264215908e+00	-1.7475144564e+00
 1.1223514800e+00	 1.2374135151e+00	-1.7621789890e+00
 1.2417706049e+00	 1.1263034218e+00	-1.3341246673e+00
 1.2307399766e+00	 1.1383464952e+00	-1.3626722277e+00
 1.2195904279e+00	 1.1502838004e+00	-1.4032430531e+00
 1.2083234879e+00	 1.1621135839e+00	-1.4543749711e+00
 1.1969407200e+00	 1.1738341220e+00	-1.5144128995e+00
 1.1854437214e+00	 1.1854437214e+00	-1.5777520863e+00
 1.1738341220e+00	 1.1969407200e+00	-1.6344343447e+00
 1.1621135839e+00	 1.2083234879e+00	-1.6827274908e+00
 1.1502838004e+00	 1.2195904279e+00	-1.7210545940e+00
 1.1383464952e+00	 1.2307399766e+00	-1.7480255539e+00
 1.1263034218e+00	 1.2417706049e+00	-1.7624044026e+00
 1.2461276947e+00	 1.1302553637e+00	-1.3357763917e+00
 1.2350583625e+00	 1.1423406934e+00	-1.3651122202e+00
 1.2238696926e+00	 1.1543198839e+00	-1.4068440021e+00
 1.2125632194e+00	 1.1661911754e+00	-1.4595173867e+00
 1.2011405120e+00	 1.1779528382e+00	-1.5213768793e+00
 1.1896031731e+00	 1.1896031731e+00	-1.5827750096e+00
 1.1779528382e+00	 1.2011405120e+00	-1.6375630251e+00
 1.1661911754e+00	 1.2125632194e+00	-1.6844778344e+00
 1.1543198839e+00	 1.2238696926e+00	-1.7218490626e+00
 1.1423406934e+00	 1.2350583625e+00	-1.7482668927e+00
 1.1302553637e+00	 1.2461276947e+00	-1.7624814376e+00
 1.2504847846e+00	 1.1342073055e+00	-1.3374795494e+00
 1.2393767484e+00	 1.1463348917e+00	-1.3677654408e+00
 1.2281489572e+00	 1.1583559674e+00	-1.4108267704e+00
 1.2168029509e+00	 1.1702687670e+00	-1.4652173158e+00
 1.2053403040e+00	 1.1820715545e+00	-1.5277822908e+00
 1.1937626247e+00	 1.1937626247e+00	-1.5870112756e+00
 1.1820715545e+00	 1.2053403040e+00	-1.6399969714e+00
 1.1702687670e+00	 1.2168029509e+00	-1.6856148862e+00
 1.1583559674e+00	 1.2281489572e+00	-1.7221565628e+00
 1.1463348917e+00	 1.2393767484e+00	-1.7481442853e+00
 1.1342073055e+00	 1.2504847846e+00	-1.7623132798e+00
 1.2548418744e+00	 1.1381592473e+00	-1.3392079259e+00
 1.2436951343e+00	 1.1503290899e+00	-1.3706076972e+00
 1.2324282219e+00	 1.1623920509e+00	-1.4151684417e+00
 1.2210426825e+00	 1.1743463585e+00	-1.4714523862e+00
 1.2095400960e+00	 1.1861902707e+00	-1.5332409059e+00
 1.1979220764e+00	 1.1979220764e+00	-1.5904004490e+00
 1.1861902707e+00	 1.2095400960e+00	-1.6416817784e+00
 1.1743463585e+00	 1.2210426825e+00	-1.6860476223e+00
 1.1623920509e+00	 1.2324282219e+00	-1.7218853465e+00
 1.1503290899e+00	 1.2436951343e+00	-1.7475643249e+00
 1.1381592473e+00	 1.2548418744e+00	-1.7618039404e+00
 1.2591989643e+00	 1.1421111892e+00	-1.3409340447e+00
 1.2480135202e+00	 1.1543232881e+00	-1.3736134523e+00
 1.2367074865e+00	 1.1664281344e+00	-1.4198446820e+00
 1.2252824140e+00	 1.1784239500e+00	-1.4780109110e+00
 1.2137398880e+00	 1.1903089869e+00	-1.5376954994e+00
 1.2020815280e+00	 1.2020815280e+00	-1.5928841523e+00
 1.1903089869e+00	 1.2137398880e+00	-1.6425570506e+00
 1.1784239500e+00	 1.2252824140e+00	-1.6856969043e+00
 1.1664281344e+00	 1.2367074865e+00	-1.7209444459e+00
 1.1543232881e+00	 1.2480135202e+00	-1.7464344202e+00
 1.1421111892e+00	 1.2591989643e+00	-1.7608582885e+00
 1.2635560541e+00	 1.1460631310e+00	-1.3426292051e+00
 1.2523319061e+00	 1.1583174863e+00	-1.3767558622e+00
 1.2409867512e+00	 1.1704642179e+00	-1.4248297778e+00
 1.2295221455e+00	 1.1825015415e+00	-1.4836304239e+00
 1.2179396800e+00	 1.1944277031e+00	-1.5410908849e+00
 1.2062409797e+00	 1.2062409797e+00	-1.5944060436e+00
 1.1944277031e+00	 1.2179396800e+00	-1.6425644368e+00
 1.1825015415e+00	 1.2295221455e+00	-1.6845565146e+00
 1.1704642179e+00	 1.2409867512e+00	-1.7192437087e+00
 1.1583174863e+00	 1.2523319061e+00	-1.7446628292e+00
 1.1460631310e+00	 1.2635560541e+00	-1.7593820844e+00
 1.1065437127e+00	 1.2199851557e+00	-1.7617568749e+00
 1.0946097596e+00	 1.2307039621e+00	-1.7737340003e+00
 1.0825754233e+00	 1.2413030335e+00	-1.7900968014e+00
 1.0704425086e+00	 1.2517809728e+00	-1.8098822061e+00
 1.0582128461e+00	 1.2621364191e+00	-1.8322472580e+00
 1.0458882911e+00	 1.2723680485e+00	-1.8564655472e+00
 1.0334707226e+00	 1.2824745743e+00	-1.8819231753e+00
 1.0209620425e+00	 1.2924547481e+00	-1.9081142901e+00
 1.0083641748e+00	 1.3023073597e+00	-1.9346362304e+00
 9.9567906422e-01	 1.3120312379e+00	-1.9611843208e+00
 9.8290867542e-01	 1.3216252510e+00	-1.9875463575e+00
 1.1104956545e+00	 1.2243422455e+00	-1.7615923062e+00
 1.0985190802e+00	 1.2350993334e+00	-1.7731309266e+00
 1.0864417641e+00	 1.2457362586e+00	-1.7893467923e+00
 1.0742655176e+00	 1.2562516191e+00	-1.8092216694e+00
 1.0619921777e+00	 1.2666440492e+00	-1.8318573996e+00
 1.0496236064e+00	 1.2769122201e+00	-1.8564722918e+00
 1.0371616894e+00	 1.2870548406e+00	-1.8823970400e+00
 1.0246083356e+00	 1.2970706579e+00	-1.9090702067e+00
 1.0119654755e+00	 1.3069584574e+00	-1.9360333119e+00
 9.9923506088e-01	 1.3167170638e+00	-1.9629255675e+00
 9.8641906354e-01	 1.3263453411e+00	-1.9894783013e+00
 1.1144475963e+00	 1.2286993354e+00	-1.7616742112e+00
 1.1024284008e+00	 1.2394947047e+00	-1.7728942106e+00
 1.0903081049e+00	 1.2501694837e+00	-1.7890587133e+00
 1.0780885266e+00	 1.2607222655e+00	-1.8090950552e+00
 1.0657715093e+00	 1.2711516792e+00	-1.8320507588e+00
 1.0533589217e+00	 1.2814563917e+00	-1.8570898800e+00
 1.0408526563e+00	 1.2916351070e+00	-1.8834888753e+00
 1.0282546286e+00	 1.3016865677e+00	-1.9106320292e+00
 1.0155667761e+00	 1.3116095551e+00	-1.9380064816e+00
 1.0027910575e+00	 1.3214028896e+00	-1.9651968981e+00
 9.8992945167e-01	 1.3310654313e+00	-1.9918798253e+00
 1.1183995382e+00	 1.2330564252e+00	-1.7619028031e+00
 1.1063377214e+00	 1.2438900760e+00	-1.7729212644e+00
 1.0941744457e+00	 1.2546027089e+00	-1.7891281652e+00
 1.0819115355e+00	 1.2651929118e+00	-1.8093971391e+00
 1.0695508409e+00	 1.2756593093e+00	-1.8327222670e+00
 1.0570942371e+00	 1.2860005633e+00	-1.8582143754e+00
 1.0445436232e+00	 1.2962153733e+00	-1.8850968486e+00
 1.0319009216e+00	 1.3063024775e+00	-1.9127009950e+00
 1.0191680767e+00	 1.3162606528e+00	-1.9404610083e+00
 1.0063470542e+00	 1.3260887155e+00	-1.9679085675e+00
 9.9343983980e-01	 1.3357855215e+00	-1.9946671187e+00
 1.1223514800e+00	 1.2374135151e+00	-1.7621789890e+00
 1.1102470419e+00	 1.2482854472e+00	-1.7731102394e+00
 1.0980407865e+00	 1.2590359340e+00	-1.7894515158e+00
 1.0857345445e+00	 1.2696635581e+00	-1.8100234727e+00
 1.0733301725e+00	 1.2801669394e+00	-1.8337676229e+00
 1.0608295524e+00	 1.2905447349e+00	-1.8597425829e+00
 1.0482345900e+00	 1.3007956397e+00	-1.8871198257e+00
 1.0355472146e+00	 1.3109183873e+00	-1.9151789803e+00
 1.0227693773e+00	 1.3209117505e+00	-1.9433027228e+00
 1.0099030509e+00	 1.3307745413e+00	-1.9709712999e+00
 9.9695022792e-01	 1.3405056117e+00	-1.9977567326e+00
 1.1263034218e+00	 1.2417706049e+00	-1.7624044026e+00
 1.1141563625e+00	 1.2526808185e+00	-1.7733600580e+00
 1.1019071273e+00	 1.2634691591e+00	-1.7899259295e+00
 1.0895575534e+00	 1.2741342045e+00	-1.8108704122e+00
 1.0771095041e+00	 1.2846745695e+00	-1.8350833206e+00
 1.0645648677e+00	 1.2950889065e+00	-1.8615720766e+00
 1.0519255569e+00	 1.3053759060e+00	-1.8894573979e+00
 1.0391935076e+00	 1.3155342972e+00	-1.9179685270e+00
 1.0263706780e+00	 1.3255628482e+00	-1.9464380456e+00
 1.0134590475e+00	 1.3354603672e+00	-1.9742963177e+00
 1.0004606160e+00	 1.3452257019e+00	-2.0010656086e+00
 1.1302553637e+00	 1.2461276947e+00	-1.7624814376e+00
 1.1180656831e+00	 1.2570761898e+00	-1.7735704445e+00
 1.1057734681e+00	 1.2679023842e+00	-1.7904493974e+00
 1.0933805624e+00	 1.2786048508e+00	-1.8118351480e+00
 1.0808888357e+00	 1.2891821995e+00	-1.8365666784e+00
 1.0683001830e+00	 1.2996330781e+00	-1.8636012273e+00
 1.0556165238e+00	 1.3099561723e+00	-1.8920099096e+00
 1.0428398006e+00	 1.3201502070e+00	-1.9209728697e+00
 1.0299719786e+00	 1.3302139460e+00	-1.9497740141e+00
 1.0170150442e+00	 1.3401461930e+00	-1.9777953686e+00
 1.0039710042e+00	 1.3499457920e+00	-2.0045111072e+00
 1.1342073055e+00	 1.2504847846e+00	-1.7623132798e+00
 1.1219750036e+00	 1.2614715611e+00	-1.7736419567e+00
 1.1096398089e+00	 1.2723356093e+00	-1.7909207673e+00
 1.0972035714e+00	 1.2830754971e+00	-1.8128157331e+00
 1.0846681673e+00	 1.2936898296e+00	-1.8381158660e+00
 1.0720354984e+00	 1.3041772497e+00	-1.8657292300e+00
 1.0593074906e+00	 1.3145364387e+00	-1.8946784856e+00
 1.0464860936e+00	 1.3247661168e+00	-1.9240959635e+00
 1.0335732792e+00	 1.3348650437e+00	-1.9532183103e+00
 1.0205710408e+00	 1.3448320189e+00	-1.9813807538e+00
 1.0074813923e+00	 1.3546658822e+00	-2.0080110359e+00
 1.1381592473e+00	 1.2548418744e+00	-1.7618039404e+00
 1.1258843242e+00	 1.2658669324e+00	-1.7734760171e+00
 1.1135061497e+00	 1.2767688345e+00	-1.7912397743e+00
 1.1010265803e+00	 1.2875461434e+00	-1.8137111127e+00
 1.0884474989e+00	 1.2981974597e+00	-1.8396299341e+00
 1.0757708137e+00	 1.3087214213e+00	-1.8678561319e+00
 1.0629984575e+00	 1.3191167050e+00	-1.8973650583e+00
 1.0501323866e+00	 1.3293820266e+00	-1.9272425111e+00
 1.0371745798e+00	 1.3395161414e+00	-1.9566792882e+00
 1.0241270375e+00	 1.3495178447e+00	-1.9849653554e+00
 1.0109917804e+00	 1.3593859724e+00	-2.0114836779e+00
 1.1421111892e+00	 1.2591989643e+00	-1.7608582885e+00
 1.1297936448e+00	 1.2702623037e+00	-1.7729749444e+00
 1.1173724905e+00	 1.2812020596e+00	-1.7913070702e+00
 1.1048495893e+00	 1.2920167898e+00	-1.8144211532e+00
 1.0922268305e+00	 1.3027050897e+00	-1.8410088415e+00
 1.0795061290e+00	 1.3132655929e+00	-1.8698828604e+00
 1.0666894244e+00	 1.3236969713e+00	-1.8999723955e+00
 1.0537786796e+00	 1.3339979364e+00	-1.9303179902e+00
 1.0407758805e+00	 1.3441672391e+00	-1.9600660011e+00
 1.0276830341e+00	 1.3542036706e+00	-1.9884626645e+00
 1.0145021686e+00	 1.3641060626e+00	-2.0148478202e+00
 1.1460631310e+00	 1.2635560541e+00	-1.7593820844e+00
 1.1337029653e+00	 1.2746576750e+00	-1.7720419847e+00
 1.1212388313e+00	 1.2856352847e+00	-1.7910242544e+00
 1.1086725982e+00	 1.2964874361e+00	-1.8148466715e+00
 1.0960061621e+00	 1.3072127198e+00	-1.8421534847e+00
 1.0832414443e+00	 1.3178097645e+00	-1.8717112505e+00
 1.0703803912e+00	 1.3282772377e+00	-1.9024041281e+00
 1.0574249726e+00	 1.3386138462e+00	-1.9332286808e+00
 1.0443771811e+00	 1.3488183368e+00	-1.9632882293e+00
 1.0312390308e+00	 1.3588894964e+00	-1.9917868092e+00
 1.0180125567e+00	 1.3688261528e+00	-2.0180227820e+00
 9.8290867542e-01	 1.3216252510e+00	-1.9875463575e+00
 9.7005499211e-01	 1.3310883068e+00	-2.0117174984e+00
 9.5712001595e-01	 1.3404193535e+00	-2.0318924462e+00
 9.4410576553e-01	 1.3496173797e+00	-2.0482833935e+00
 9.3101427538e-01	 1.3586814149e+00	-2.0611762678e+00
 9.1784759494e-01	 1.3676105296e+00	-2.0709242054e+00
 9.0460778754e-01	 1.3764038357e+00	-2.0779409656e+00
 8.9129692935e-01	 1.3850604867e+00	-2.0826943281e+00
 8.7791710836e-01	 1.3935796780e+00	-2.0856995139e+00
 8.6447042335e-01	 1.4019606469e+00	-2.0875126687e+00
 8.5095898282e-01	 1.4102026726e+00	-2.0887244469e+00
 9.8641906354e-01	 1.3263453411e+00	-1.9894783013e+00
 9.7351947423e-01	 1.3358421936e+00	-2.0136730773e+00
 9.6053830173e-01	 1.3452065655e+00	-2.0337458244e+00
 9.4747757184e-01	 1.3544374418e+00	-2.0499358155e+00
 9.3433932637e-01	 1.3635338485e+00	-2.0625580648e+00
 9.2112562207e-01	 1.3724948529e+00	-2.0719965989e+00
 9.0783852964e-01	 1.3813195637e+00	-2.0786976707e+00
 8.9448013267e-01	 1.3900071313e+00	-2.0831629548e+00
 8.8105252660e-01	 1.3985567483e+00	-2.0859427702e+00
 8.6755781771e-01	 1.4069676492e+00	-2.0876293663e+00
 8.5399812204e-01	 1.4152391107e+00	-2.0888503146e+00
 9.8992945167e-01	 1.3310654313e+00	-1.9918798253e+00
 9.7698395634e-01	 1.3405960804e+00	-2.0160388051e+00
 9.6395658750e-01	 1.3499937774e+00	-2.0359649171e+00
 9.5084937815e-01	 1.3592575039e+00	-2.0519237226e+00
 9.3766437735e-01	 1.3683862822e+00	-2.0642584006e+00
 9.2440364919e-01	 1.3773791762e+00	-2.0733828177e+00
 9.1106927174e-01	 1.3862352917e+00	-2.0797745379e+00
 8.9766333599e-01	 1.3949537759e+00	-2.0839678176e+00
 8.8418794485e-01	 1.4035338186e+00	-2.0865466276e+00
 8.7064521208e-01	 1.4119746515e+00	-2.0881377428e+00
 8.5703726126e-01	 1.4202755488e+00	-2.0894039415e+00
 9.9343983980e-01	 1.3357855215e+00	-1.9946671187e+00
 9.8044843846e-01	 1.3453499672e+00	-2.0187365627e+00
 9.6737487327e-01	 1.3547809894e+00	-2.0384758812e+00
 9.5422118445e-01	 1.3640775659e+00	-2.0541761536e+00
 9.4098942833e-01	 1.3732387158e+00	-2.0662078264e+00
 9.2768167632e-01	 1.3822634995e+00	-2.0750135790e+00
 9.1430001383e-01	 1.3911510196e+00	-2.0811011301e+00
 9.0084653930e-01	 1.3999004205e+00	-2.0850360301e+00
 8.8732336309e-01	 1.4085108889e+00	-2.0874344826e+00
 8.7373260645e-01	 1.4169816538e+00	-2.0889562378e+00
 8.6007640049e-01	 1.4253119869e+00	-2.0902975976e+00
 9.9695022792e-01	 1.3405056117e+00	-1.9977567326e+00
 9.8391292057e-01	 1.3501038540e+00	-2.0216884864e+00
 9.7079315904e-01	 1.3595682014e+00	-2.0412050405e+00
 9.5759299076e-01	 1.3688976280e+00	-2.0566222447e+00
 9.4431447932e-01	 1.3780911494e+00	-2.0683369386e+00
 9.3095970344e-01	 1.3871478229e+00	-2.0768196118e+00
 9.1753075593e-01	 1.3960667476e+00	-2.0826070064e+00
 9.0402974262e-01	 1.4048470651e+00	-2.0862947049e+00
 8.9045878134e-01	 1.4134879591e+00	-2.0885297520e+00
 8.7682000082e-01	 1.4219886561e+00	-2.0900033490e+00
 8.6311553971e-01	 1.4303484250e+00	-2.0914436676e+00
 1.0004606160e+00	 1.3452257019e+00	-2.0010656086e+00
 9.8737740269e-01	 1.3548577408e+00	-2.0248169969e+00
 9.7421144481e-01	 1.3643554134e+00	-2.0440789152e+00
 9.6096479706e-01	 1.3737176901e+00	-2.0591912584e+00
 9.4763953030e-01	 1.3829435830e+00	-2.0705764077e+00
 9.3423773057e-01	 1.3920321462e+00	-2.0787316850e+00
 9.2076149803e-01	 1.4009824756e+00	-2.0842217491e+00
 9.0721294594e-01	 1.4097937097e+00	-2.0876709793e+00
 8.9359419958e-01	 1.4184650294e+00	-2.0897558952e+00
 8.7990739519e-01	 1.4269956584e+00	-2.0911976541e+00
 8.6615467894e-01	 1.4353848632e+00	-2.0927546700e+00
 1.0039710042e+00	 1.3499457920e+00	-2.0045111072e+00
 9.9084188480e-01	 1.3596116276e+00	-2.0280448284e+00
 9.7762973058e-01	 1.3691426254e+00	-2.0470242514e+00
 9.6433660337e-01	 1.3785377521e+00	-2.0618126124e+00
 9.5096458128e-01	 1.3877960166e+00	-2.0728570067e+00
 9.3751575769e-01	 1.3969164695e+00	-2.0806806347e+00
 9.2399224013e-01	 1.4058982036e+00	-2.0858749901e+00
 9.1039614926e-01	 1.4147403543e+00	-2.0890920396e+00
 8.9672961782e-01	 1.4234420997e+00	-2.0910364387e+00
 8.8299478956e-01	 1.4320026607e+00	-2.0924578315e+00
 8.6919381816e-01	 1.4404213013e+00	-2.0941432761e+00
 1.0074813923e+00	 1.3546658822e+00	-2.0080110359e+00
 9.9430636692e-01	 1.3643655144e+00	-2.0312950574e+00
 9.8104801635e-01	 1.3739298373e+00	-2.0499680494e+00
 9.6770840967e-01	 1.3833578142e+00	-2.0644159087e+00
 9.5428963227e-01	 1.3926484503e+00	-2.0751096399e+00
 9.4079378482e-01	 1.4018007928e+00	-2.0825973918e+00
 9.2722298223e-01	 1.4108139316e+00	-2.0874964376e+00
 9.1357935258e-01	 1.4196869989e+00	-2.0904851467e+00
 8.9986503607e-01	 1.4284191700e+00	-2.0922949985e+00
 8.8608218393e-01	 1.4370096630e+00	-2.0937026821e+00
 8.7223295739e-01	 1.4454577394e+00	-2.0955223285e+00
 1.0109917804e+00	 1.3593859724e+00	-2.0114836779e+00
 9.9777084903e-01	 1.3691194013e+00	-2.0344911317e+00
 9.8446630212e-01	 1.3787170493e+00	-2.0528375935e+00
 9.7108021598e-01	 1.3881778763e+00	-2.0669309622e+00
 9.5761468325e-01	 1.3975008839e+00	-2.0772653705e+00
 9.4407181194e-01	 1.4066851161e+00	-2.0844130102e+00
 9.3045372433e-01	 1.4157296596e+00	-2.0890159022e+00
 9.1676255590e-01	 1.4246336435e+00	-2.0917776611e+00
 9.0300045431e-01	 1.4333962403e+00	-2.0934553039e+00
 8.8916957830e-01	 1.4420166653e+00	-2.0948511504e+00
 8.7527209661e-01	 1.4504941775e+00	-2.0968048605e+00
 1.0145021686e+00	 1.3641060626e+00	-2.0148478202e+00
 1.0012353311e+00	 1.3738732881e+00	-2.0375568988e+00
 9.8788458790e-01	 1.3835042613e+00	-2.0555604806e+00
 9.7445202228e-01	 1.3929979384e+00	-2.0692878300e+00
 9.6093973424e-01	 1.4023533175e+00	-2.0792554498e+00
 9.4734983907e-01	 1.4115694395e+00	-2.0860586935e+00
 9.3368446642e-01	 1.4206453875e+00	-2.0903633238e+00
 9.1994575922e-01	 1.4295802881e+00	-2.0928970678e+00
 9.0613587256e-01	 1.4383733105e+00	-2.0944412207e+00
 8.9225697267e-01	 1.4470236676e+00	-2.0958223454e+00
 8.7831123583e-01	 1.4555306156e+00	-2.0979041149e+00
 1.0180125567e+00	 1.3688261528e+00	-2.0180227820e+00
 1.0046998133e+00	 1.3786271749e+00	-2.0404166352e+00
 9.9130287367e-01	 1.3882914733e+00	-2.0580646490e+00
 9.7782382859e-01	 1.3978180004e+00	-2.0714168395e+00
 9.6426478522e-01	 1.4072057511e+00	-2.0810113448e+00
 9.5062786619e-01	 1.4164537628e+00	-2.0874658231e+00
 9.3691520852e-01	 1.4255611155e+00	-2.0914687975e+00
 9.2312896254e-01	 1.4345269327e+00	-2.0937710012e+00
 9.0927129080e-01	 1.4433503808e+00	-2.0951767744e+00
 8.9534436704e-01	 1.4520306700e+00	-2.0965355625e+00
 8.8135037506e-01	 1.4605670537e+00	-2.0987335631e+00
 8.5095898282e-01	 1.4102026726e+00	-2.0887244469e+00
 8.3738490398e-01	 1.4183050768e+00	-2.0872207826e+00
 8.2375031170e-01	 1.4262672233e+00	-2.0809553459e+00
 8.1005733748e-01	 1.4340885182e+00	-2.0706356452e+00
 7.9630811840e-01	 1.4417684102e+00	-2.0569557704e+00
 7.8250479612e-01	 1.4493063900e+00	-2.0405912785e+00
 7.6864951583e-01	 1.4567019908e+00	-2.0221943966e+00
 7.5474442522e-01	 1.4639547878e+00	-2.0023895637e+00
 7.4079167351e-01	 1.4710643985e+00	-1.9817693296e+00
 7.2679341042e-01	 1.4780304823e+00	-1.9608906280e+00
 7.1275178516e-01	 1.4848527405e+00	-1.9402714364e+00
 8.5399812204e-01	 1.4152391107e+00	-2.0888503146e+00
 8.4037556435e-01	 1.4233704520e+00	-2.0873929692e+00
 8.2669227710e-01	 1.4313610348e+00	-2.0810892377e+00
 8.1295039940e-01	 1.4392102630e+00	-2.0706486333e+00
 7.9915207597e-01	 1.4469175831e+00	-2.0567663181e+00
 7.8529945611e-01	 1.4544824843e+00	-2.0401178892e+00
 7.7139469267e-01	 1.4619044979e+00	-2.0213544906e+00
 7.5743994102e-01	 1.4691831978e+00	-2.0010982740e+00
 7.4343735806e-01	 1.4763182000e+00	-1.9799382256e+00
 7.2938910117e-01	 1.4833091626e+00	-1.9584263787e+00
 7.1529732725e-01	 1.4901557860e+00	-1.9370744227e+00
 8.5703726126e-01	 1.4202755488e+00	-2.0894039415e+00
 8.4336622472e-01	 1.4284358273e+00	-2.0880267774e+00
 8.2963424250e-01	 1.4364548463e+00	-2.0817104246e+00
 8.1584346132e-01	 1.4443320077e+00	-2.0711665526e+00
 8.0199603354e-01	 1.4520667560e+00	-2.0570916604e+00
 7.8809411610e-01	 1.4596585785e+00	-2.0401617587e+00
 7.7413986951e-01	 1.4671070050e+00	-2.0210273876e+00
 7.6013545682e-01	 1.4744116077e+00	-2.0003089913e+00
 7.4608304260e-01	 1.4815720014e+00	-1.9785926706e+00
 7.3198479192e-01	 1.4885878429e+00	-1.9564263299e+00
 7.1784286934e-01	 1.4954588315e+00	-1.9343162322e+00
 8.6007640049e-01	 1.4253119869e+00	-2.0902975976e+00
 8.4635688509e-01	 1.4335012026e+00	-2.0890283899e+00
 8.3257620790e-01	 1.4415486578e+00	-2.0827203637e+00
 8.1873652324e-01	 1.4494537524e+00	-2.0720875001e+00
 8.0483999110e-01	 1.4572159289e+00	-2.0578279020e+00
 7.9088877608e-01	 1.4648346728e+00	-2.0406183690e+00
 7.7688504635e-01	 1.4723095121e+00	-2.0211093155e+00
 7.6283097263e-01	 1.4796400177e+00	-1.9999200569e+00
 7.4872872715e-01	 1.4868258028e+00	-1.9776344830e+00
 7.3458048267e-01	 1.4938665232e+00	-1.9547971361e+00
 7.2038841143e-01	 1.5007618770e+00	-1.9319097084e+00
 8.6311553971e-01	 1.4303484250e+00	-2.0914436676e+00
 8.4934754546e-01	 1.4385665779e+00	-2.0903041608e+00
 8.3551817329e-01	 1.4466424693e+00	-2.0840207217e+00
 8.2162958516e-01	 1.4545754971e+00	-2.0733098030e+00
 8.0768394867e-01	 1.4623651018e+00	-2.0588713816e+00
 7.9368343607e-01	 1.4700107670e+00	-2.0413834219e+00
 7.7963022319e-01	 1.4775120192e+00	-2.0214966913e+00
 7.6552648843e-01	 1.4848684276e+00	-1.9998299533e+00
 7.5137441170e-01	 1.4920796042e+00	-1.9769655580e+00
 7.3717617342e-01	 1.4991452035e+00	-1.9534454481e+00
 7.2293395352e-01	 1.5060649225e+00	-1.9297675940e+00
 8.6615467894e-01	 1.4353848632e+00	-2.0927546700e+00
 8.5233820583e-01	 1.4436319531e+00	-2.0917606317e+00
 8.3846013869e-01	 1.4517362808e+00	-2.0855133894e+00
 8.2452264708e-01	 1.4596972418e+00	-2.0747320317e+00
 8.1052790623e-01	 1.4675142747e+00	-2.0601186826e+00
 7.9647809605e-01	 1.4751868613e+00	-2.0423528490e+00
 7.8237540004e-01	 1.4827145263e+00	-2.0220861301e+00
 7.6822200424e-01	 1.4900968376e+00	-1.9999373128e+00
 7.5402009625e-01	 1.4973334056e+00	-1.9764878765e+00
 7.3977186417e-01	 1.5044238838e+00	-1.9522779218e+00
 7.2547949561e-01	 1.5113679680e+00	-1.9278025409e+00
 8.6919381816e-01	 1.4404213013e+00	-2.0941432761e+00
 8.5532886620e-01	 1.4486973284e+00	-2.0933045483e+00
 8.4140210409e-01	 1.4568300923e+00	-2.0871004961e+00
 8.2741570900e-01	 1.4648189865e+00	-2.0762530124e+00
 8.1337186380e-01	 1.4726634476e+00	-2.0614666447e+00
 7.9927275604e-01	 1.4803629555e+00	-2.0434228221e+00
 7.8512057688e-01	 1.4879170335e+00	-2.0227744543e+00
 7.7091752004e-01	 1.4953252476e+00	-2.0001409267e+00
 7.5666578080e-01	 1.5025872071e+00	-1.9761035134e+00
 7.4236755492e-01	 1.5097025641e+00	-1.9512012270e+00
 7.2802503770e-01	 1.5166710135e+00	-1.9259271193e+00
 8.7223295739e-01	 1.4454577394e+00	-2.0955223285e+00
 8.5831952658e-01	 1.4537627037e+00	-2.0948428773e+00
 8.4434406949e-01	 1.4619239038e+00	-2.0886844241e+00
 8.3030877092e-01	 1.4699407312e+00	-2.0777718399e+00
 8.1621582136e-01	 1.4778126205e+00	-2.0628123753e+00
 8.0206741603e-01	 1.4855390498e+00	-2.0444897633e+00
 7.8786575372e-01	 1.4931195406e+00	-2.0234587040e+00
 7.7361303585e-01	 1.5005536575e+00	-2.0003397543e+00
 7.5931146534e-01	 1.5078410085e+00	-1.9757146472e+00
 7.4496324568e-01	 1.5149812444e+00	-1.9501220568e+00
 7.3057057979e-01	 1.5219740590e+00	-1.9240538272e+00
 8.7527209661e-01	 1.4504941775e+00	-2.0968048605e+00
 8.6131018695e-01	 1.4588280790e+00	-2.0962828226e+00
 8.4728603489e-01	 1.4670177154e+00	-2.0901678234e+00
 8.3320183284e-01	 1.4750624759e+00	-2.0791878905e+00
 8.1905977893e-01	 1.4829617934e+00	-2.0640532610e+00
 8.0486207601e-01	 1.4907151440e+00	-2.0454503558e+00
 7.9061093056e-01	 1.4983220477e+00	-2.0240361456e+00
 7.7630855165e-01	 1.5057820675e+00	-2.0004329321e+00
 7.6195714989e-01	 1.5130948099e+00	-1.9752235683e+00
 7.4755893643e-01	 1.5202599247e+00	-1.9489471366e+00
 7.3311612188e-01	 1.5272771045e+00	-1.9220950999e+00
 8.7831123583e-01	 1.4555306156e+00	-2.0979041149e+00
 8.6430084732e-01	 1.4638934542e+00	-2.0975318425e+00
 8.5022800029e-01	 1.4721115269e+00	-2.0914536264e+00
 8.3609489476e-01	 1.4801842206e+00	-2.0804008352e+00
 8.2190373650e-01	 1.4881109663e+00	-2.0650869794e+00
 8.0765673600e-01	 1.4958912383e+00	-2.0462015542e+00
 7.9335610741e-01	 1.5035245548e+00	-2.0244042825e+00
 7.7900406745e-01	 1.5110104774e+00	-2.0003197831e+00
 7.6460283444e-01	 1.5183486113e+00	-1.9745326890e+00
 7.5015462718e-01	 1.5255386050e+00	-1.9475832331e+00
 7.3566166397e-01	 1.5325801500e+00	-1.9199633200e+00
 8.8135037506e-01	 1.4605670537e+00	-2.0987335631e+00
 8.6729150769e-01	 1.4689588295e+00	-2.0984976660e+00
 8.5316996569e-01	 1.4772053384e+00	-2.0924450630e+00
 8.3898795667e-01	 1.4853059653e+00	-2.0813106528e+00
 8.2474769406e-01	 1.4932601392e+00	-2.0658115107e+00
 8.1045139599e-01	 1.5010673325e+00	-2.0466405954e+00
 7.9610128425e-01	 1.5087270619e+00	-2.0244608645e+00
 7.8169958326e-01	 1.5162388874e+00	-1.9998998265e+00
 7.6724851899e-01	 1.5236024128e+00	-1.9735445519e+00
 7.5275031793e-01	 1.5308172853e+00	-1.9459371642e+00
 7.3820720606e-01	 1.5378831955e+00	-1.9175708271e+00
 7.1275178516e-01	 1.4848527405e+00	-1.9402714364e+00
 6.9866894549e-01	 1.4915309158e+00	-1.9174029868e+00
 6.8454703669e-01	 1.4980647926e+00	-1.8897459987e+00
 6.7038820062e-01	 1.5044541963e+00	-1.8577225886e+00
 6.5619457477e-01	 1.5106989933e+00	-1.8217280060e+00
 6.4196829132e-01	 1.5167990906e+00	-1.7821291549e+00
 6.2771147620e-01	 1.5227544355e+00	-1.7392634976e+00
 6.1342624818e-01	 1.5285650154e+00	-1.6934383375e+00
 5.9911471800e-01	 1.5342308571e+00	-1.6449304720e+00
 5.8477898744e-01	 1.5397520268e+00	-1.5943122420e+00
 5.7042114849e-01	 1.5451286294e+00	-1.5492899660e+00
 7.1529732725e-01	 1.4901557860e+00	-1.9370744227e+00
 7.0116419173e-01	 1.4968578119e+00	-1.9134660046e+00
 6.8699184754e-01	 1.5034150240e+00	-1.8851661183e+00
 6.7278244419e-01	 1.5098272470e+00	-1.8526062924e+00
 6.5853812682e-01	 1.5160943468e+00	-1.8161897971e+00
 6.4426103522e-01	 1.5222162302e+00	-1.7762901403e+00
 6.2995330290e-01	 1.5281928442e+00	-1.7332499579e+00
 6.1561705621e-01	 1.5340241761e+00	-1.6873802926e+00
 6.0125441342e-01	 1.5397102530e+00	-1.6389602548e+00
 5.8686748382e-01	 1.5452511412e+00	-1.5882880263e+00
 5.7245836688e-01	 1.5506469460e+00	-1.5420566006e+00
 7.1784286934e-01	 1.4954588315e+00	-1.9343162322e+00
 7.0365943796e-01	 1.5021847080e+00	-1.9099400872e+00
 6.8943665838e-01	 1.5087652554e+00	-1.8809687531e+00
 6.7517668777e-01	 1.5152002977e+00	-1.8478438748e+00
 6.6088167888e-01	 1.5214897003e+00	-1.8109772660e+00
 6.4655377911e-01	 1.5276333698e+00	-1.7707493808e+00
 6.3219512960e-01	 1.5336312529e+00	-1.7275081907e+00
 6.1780786424e-01	 1.5394833369e+00	-1.6815684625e+00
 6.0339410884e-01	 1.5451896489e+00	-1.6332114276e+00
 5.8895598021e-01	 1.5507502556e+00	-1.5826848342e+00
 5.7449558526e-01	 1.5561652625e+00	-1.5352223307e+00
 7.2038841143e-01	 1.5007618770e+00	-1.9319097084e+00
 7.0615468420e-01	 1.5075116042e+00	-1.9067443071e+00
 6.9188146923e-01	 1.5141154868e+00	-1.8770779345e+00
 6.7757093134e-01	 1.5205733484e+00	-1.8433630523e+00
 6.6322523093e-01	 1.5268850539e+00	-1.8060205367e+00
 6.4884652301e-01	 1.5330505094e+00	-1.7654381267e+00
 6.3443695630e-01	 1.5390696616e+00	-1.7219692890e+00
 6.1999867227e-01	 1.5449424977e+00	-1.6759324957e+00
 6.0553380426e-01	 1.5506690448e+00	-1.6276109048e+00
 5.9104447659e-01	 1.5562493699e+00	-1.5772524345e+00
 5.7653280365e-01	 1.5616835790e+00	-1.5287039073e+00
 7.2293395352e-01	 1.5060649225e+00	-1.9297675940e+00
 7.0864993043e-01	 1.5128385003e+00	-1.9037975420e+00
 6.9432628007e-01	 1.5194657182e+00	-1.8734174262e+00
 6.7996517492e-01	 1.5259463991e+00	-1.8390912218e+00
 6.6556878298e-01	 1.5322804074e+00	-1.8012493832e+00
 6.5113926691e-01	 1.5384676490e+00	-1.7602872697e+00
 6.3667878300e-01	 1.5445080703e+00	-1.7165639996e+00
 6.2218948030e-01	 1.5504016584e+00	-1.6704017289e+00
 6.0767349968e-01	 1.5561484408e+00	-1.6220853452e+00
 5.9313297297e-01	 1.5617484843e+00	-1.5718625658e+00
 5.7857002204e-01	 1.5672018956e+00	-1.5224178942e+00
 7.2547949561e-01	 1.5113679680e+00	-1.9278025409e+00
 7.1114517666e-01	 1.5181653964e+00	-1.9010184849e+00
 6.9677109092e-01	 1.5248159496e+00	-1.8699107344e+00
 6.8235941849e-01	 1.5313194498e+00	-1.8349554707e+00
 6.6791233503e-01	 1.5376757610e+00	-1.7965932390e+00
 6.5343201081e-01	 1.5438847886e+00	-1.7552273512e+00
 6.3892060970e-01	 1.5499464790e+00	-1.7112227306e+00
 6.2438028833e-01	 1.5558608192e+00	-1.6649051930e+00
 6.0981319510e-01	 1.5616278367e+00	-1.6165611555e+00
 5.9522146936e-01	 1.5672475987e+00	-1.5664377620e+00
 5.8060724043e-01	 1.5727202121e+00	-1.5162806593e+00
 7.2802503770e-01	 1.5166710135e+00	-1.9259271193e+00
 7.1364042290e-01	 1.5234922926e+00	-1.8983256541e+00
 6.9921590176e-01	 1.5301661810e+00	-1.8664811173e+00
 6.8475366206e-01	 1.5366925005e+00	-1.8308825865e+00
 6.7025588709e-01	 1.5430711145e+00	-1.7919812066e+00
 6.5572475470e-01	 1.5493019282e+00	-1.7501885712e+00
 6.4116243640e-01	 1.5553848877e+00	-1.7058755589e+00
 6.2657109636e-01	 1.5613199800e+00	-1.6593716187e+00
 6.1195289053e-01	 1.5671072326e+00	-1.6109644953e+00
 5.9730996574e-01	 1.5727467131e+00	-1.5609003832e+00
 5.8264445881e-01	 1.5782385286e+00	-1.5102083669e+00
 7.3057057979e-01	 1.5219740590e+00	-1.9240538272e+00
 7.1613566913e-01	 1.5288191887e+00	-1.8956374027e+00
 7.0166071261e-01	 1.5355164124e+00	-1.8630515962e+00
 6.8714790564e-01	 1.5420655512e+00	-1.8267990673e+00
 6.7259943914e-01	 1.5484664681e+00	-1.7873420668e+00
 6.5801749860e-01	 1.5547190678e+00	-1.7451007964e+00
 6.4340426310e-01	 1.5608232964e+00	-1.7004522378e+00
 6.2876190438e-01	 1.5667791408e+00	-1.6537294435e+00
 6.1409258595e-01	 1.5725866285e+00	-1.6052212807e+00
 5.9939846212e-01	 1.5782458275e+00	-1.5551726174e+00
 5.8468167720e-01	 1.5837568452e+00	-1.5041169699e+00
 7.3311612188e-01	 1.5272771045e+00	-1.9220950999e+00
 7.1863091537e-01	 1.5341460848e+00	-1.8928719292e+00
 7.0410552345e-01	 1.5408666438e+00	-1.8595449645e+00
 6.8954214921e-01	 1.5474386019e+00	-1.8226311311e+00
 6.7494299119e-01	 1.5538618216e+00	-1.7826042882e+00
 6.6031024250e-01	 1.5601362074e+00	-1.7398935694e+00
 6.4564608980e-01	 1.5662617051e+00	-1.6948822043e+00
 6.3095271241e-01	 1.5722383015e+00	-1.6479068167e+00
 6.1623228137e-01	 1.5780660244e+00	-1.5992571895e+00
 6.0148695851e-01	 1.5837449418e+00	-1.5491764835e+00
 5.8671889559e-01	 1.5892751617e+00	-1.4979222016e+00
 7.3566166397e-01	 1.5325801500e+00	-1.9199633200e+00
 7.2112616160e-01	 1.5394729809e+00	-1.8899472871e+00
 7.0655033430e-01	 1.5462168752e+00	-1.8558837990e+00
 6.9193639278e-01	 1.5528116526e+00	-1.8183047262e+00
 6.7728654325e-01	 1.5592571752e+00	-1.7776960371e+00
 6.6260298640e-01	 1.5655533470e+00	-1.7344961174e+00
 6.4788791650e-01	 1.5717001138e+00	-1.6890945871e+00
 6.3314352044e-01	 1.5776974623e+00	-1.6418316068e+00
 6.1837197679e-01	 1.5835454204e+00	-1.5929976652e+00
 6.0357545489e-01	 1.5892440562e+00	-1.5428338336e+00
 5.8875611398e-01	 1.5947934782e+00	-1.4915324739e+00
 7.3820720606e-01	 1.5378831955e+00	-1.9175708271e+00
 7.2362140783e-01	 1.5447998771e+00	-1.8867813957e+00
 7.0899514514e-01	 1.5515671066e+00	-1.8519904692e+00
 6.9433063636e-01	 1.5581847033e+00	-1.8137455412e+00
 6.7963009530e-01	 1.5646525287e+00	-1.7725451863e+00
 6.6489573029e-01	 1.5709704866e+00	-1.7288373605e+00
 6.5012974320e-01	 1.5771385225e+00	-1.6830182140e+00
 6.3533432847e-01	 1.5831566231e+00	-1.6354314070e+00
 6.2051167221e-01	 1.5890248163e+00	-1.5863679219e+00
 6.0566395128e-01	 1.5947431706e+00	-1.5360663556e+00
 5.9079333236e-01	 1.6003117948e+00	-1.4847136793e+00
 5.7042114849e-01	 1.5451286294e+00	-1.5492899660e+00
 5.5604328248e-01	 1.5503608084e+00	-1.5084644398e+00
 5.4164745928e-01	 1.5554487449e+00	-1.4673441874e+00
 5.2723573643e-01	 1.5603926578e+00	-1.4257252793e+00
 5.1281015839e-01	 1.5651928027e+00	-1.3833859578e+00
 4.9837275575e-01	 1.5698494719e+00	-1.3400897647e+00
 4.8392554447e-01	 1.5743629936e+00	-1.2955885245e+00
 4.6947052514e-01	 1.5787337313e+00	-1.2496251737e+00
 4.5500968227e-01	 1.5829620833e+00	-1.2019364352e+00
 4.4054498357e-01	 1.5870484824e+00	-1.1522553312e+00
 4.2607837933e-01	 1.5909933950e+00	-1.1003135349e+00
 5.7245836688e-01	 1.5506469460e+00	-1.5420566006e+00
 5.5802915135e-01	 1.5558978113e+00	-1.5002311247e+00
 5.4358191449e-01	 1.5610039190e+00	-1.4582532964e+00
 5.2911872120e-01	 1.5659654887e+00	-1.4158935168e+00
 5.1464162324e-01	 1.5707827770e+00	-1.3729047738e+00
 5.0015265845e-01	 1.5754560772e+00	-1.3290258369e+00
 4.8565384998e-01	 1.5799857186e+00	-1.2839843017e+00
 4.7114720558e-01	 1.5843720660e+00	-1.2374994781e+00
 4.5663471684e-01	 1.5886155193e+00	-1.1892851175e+00
 4.4211835852e-01	 1.5927165127e+00	-1.1390519760e+00
 4.2760008783e-01	 1.5966755142e+00	-1.0865102108e+00
 5.7449558526e-01	 1.5561652625e+00	-1.5352223307e+00
 5.6001502022e-01	 1.5614348142e+00	-1.4923616306e+00
 5.4551636970e-01	 1.5665590931e+00	-1.4494938993e+00
 5.3100170597e-01	 1.5715383196e+00	-1.4063645025e+00
 5.1647308809e-01	 1.5763727513e+00	-1.3627019731e+00
 5.0193256114e-01	 1.5810626824e+00	-1.3182212694e+00
 4.8738215550e-01	 1.5856084435e+00	-1.2726268776e+00
 4.7282388603e-01	 1.5900104008e+00	-1.2256157544e+00
 4.5825975142e-01	 1.5942689553e+00	-1.1768801040e+00
 4.4369173346e-01	 1.5983845430e+00	-1.1261099871e+00
 4.2912179632e-01	 1.6023576335e+00	-1.0729957576e+00
 5.7653280365e-01	 1.5616835790e+00	-1.5287039073e+00
 5.6200088908e-01	 1.5669718170e+00	-1.4847680088e+00
 5.4745082491e-01	 1.5721142672e+00	-1.4409749937e+00
 5.3288469075e-01	 1.5771111505e+00	-1.3970458050e+00
 5.1830455294e-01	 1.5819627256e+00	-1.3526852979e+00
 5.0371246384e-01	 1.5866692877e+00	-1.3075855573e+00
 4.8911046101e-01	 1.5912311685e+00	-1.2614290556e+00
 4.7450056648e-01	 1.5956487355e+00	-1.2138916455e+00
 4.5988478600e-01	 1.5999223913e+00	-1.1646453829e+00
 4.4526510840e-01	 1.6040525733e+00	-1.1133611775e+00
 4.3064350482e-01	 1.6080397528e+00	-1.0597112660e+00
 5.7857002204e-01	 1.5672018956e+00	-1.5224178942e+00
 5.6398675795e-01	 1.5725088199e+00	-1.4773622581e+00
 5.4938528013e-01	 1.5776694413e+00	-1.4326056355e+00
 5.3476767552e-01	 1.5826839814e+00	-1.3878451384e+00
 5.2013601779e-01	 1.5875526999e+00	-1.3427626991e+00
 5.0549236654e-01	 1.5922758930e+00	-1.2970284445e+00
 4.9083876653e-01	 1.5968538935e+00	-1.2503039050e+00
 4.7617724692e-01	 1.6012870703e+00	-1.2022450540e+00
 4.6150982058e-01	 1.6055758274e+00	-1.1525051734e+00
 4.4683848334e-01	 1.6097206036e+00	-1.1007375406e+00
 4.3216521332e-01	 1.6137218720e+00	-1.0465979351e+00
 5.8060724043e-01	 1.5727202121e+00	-1.5162806593e+00
 5.6597262681e-01	 1.5780458228e+00	-1.4700563145e+00
 5.5131973534e-01	 1.5832246153e+00	-1.4242949273e+00
 5.3665066029e-01	 1.5882568124e+00	-1.3786703490e+00
 5.2196748264e-01	 1.5931426742e+00	-1.3328423228e+00
 5.0727226924e-01	 1.5978824982e+00	-1.2864599098e+00
 4.9256707205e-01	 1.6024766185e+00	-1.2391647470e+00
 4.7785392737e-01	 1.6069254050e+00	-1.1905941295e+00
 4.6313485516e-01	 1.6112292634e+00	-1.1403839142e+00
 4.4841185828e-01	 1.6153886339e+00	-1.0881712399e+00
 4.3368692182e-01	 1.6194039913e+00	-1.0335970630e+00
 5.8264445881e-01	 1.5782385286e+00	-1.5102083669e+00
 5.6795849568e-01	 1.5835828257e+00	-1.4627620415e+00
 5.5325419055e-01	 1.5887797894e+00	-1.4159520070e+00
 5.3853364506e-01	 1.5938296433e+00	-1.3694294039e+00
 5.2379894749e-01	 1.5987326485e+00	-1.3228324975e+00
 5.0905217194e-01	 1.6034891035e+00	-1.2757901538e+00
 4.9429537756e-01	 1.6080993435e+00	-1.2279251420e+00
 4.7953060782e-01	 1.6125637398e+00	-1.1788572558e+00
 4.6475988974e-01	 1.6168826994e+00	-1.1282062517e+00
 4.4998523322e-01	 1.6210566642e+00	-1.0755945989e+00
 4.3520863031e-01	 1.6250861106e+00	-1.0206500385e+00
 5.8468167720e-01	 1.5837568452e+00	-1.5041169699e+00
 5.6994436455e-01	 1.5891198286e+00	-1.4553912203e+00
 5.5518864576e-01	 1.5943349635e+00	-1.4074860367e+00
 5.4041662984e-01	 1.5994024742e+00	-1.3600303778e+00
 5.2563041235e-01	 1.6043226228e+00	-1.3126417214e+00
 5.1083207464e-01	 1.6090957087e+00	-1.2649295866e+00
 4.9602368308e-01	 1.6137220684e+00	-1.2164988771e+00
 4.8120728827e-01	 1.6182020745e+00	-1.1669530389e+00
 4.6638492432e-01	 1.6225361354e+00	-1.1158970291e+00
 4.5155860816e-01	 1.6267246945e+00	-1.0629400907e+00
 4.3673033881e-01	 1.6307682298e+00	-1.0076983324e+00
 5.8671889559e-01	 1.5892751617e+00	-1.4979222016e+00
 5.7193023341e-01	 1.5946568315e+00	-1.4478555405e+00
 5.5712310097e-01	 1.5998901376e+00	-1.3988061921e+00
 5.4229961461e-01	 1.6049753051e+00	-1.3503814423e+00
 5.2746187720e-01	 1.6099125971e+00	-1.3021786502e+00
 5.1261197734e-01	 1.6147023140e+00	-1.2537888143e+00
 4.9775198859e-01	 1.6193447934e+00	-1.2047999531e+00
 4.8288396871e-01	 1.6238404093e+00	-1.1548002952e+00
 4.6800995890e-01	 1.6281895714e+00	-1.1033812748e+00
 4.5313198310e-01	 1.6323927248e+00	-1.0501403282e+00
 4.3825204731e-01	 1.6364503491e+00	-9.9468348947e-01
 5.8875611398e-01	 1.5947934782e+00	-1.4915324739e+00
 5.7391610228e-01	 1.6001938344e+00	-1.4400665904e+00
 5.5905755618e-01	 1.6054453117e+00	-1.3898216516e+00
 5.4418259938e-01	 1.6105481360e+00	-1.3403908533e+00
 5.2929334205e-01	 1.6155025714e+00	-1.2913520843e+00
 5.1439188004e-01	 1.6203089192e+00	-1.2422786271e+00
 4.9948029411e-01	 1.6249675184e+00	-1.1927425725e+00
 4.8456064916e-01	 1.6294787440e+00	-1.1423180392e+00
 4.6963499348e-01	 1.6338430074e+00	-1.0905841916e+00
 4.5470535805e-01	 1.6380607551e+00	-1.0371280545e+00
 4.3977375581e-01	 1.6421324684e+00	-9.8154712004e-01
 5.9079333236e-01	 1.6003117948e+00	-1.4847136793e+00
 5.7590197114e-01	 1.6057308373e+00	-1.4319358485e+00
 5.6099201140e-01	 1.6110004858e+00	-1.3804415861e+00
 5.4606558416e-01	 1.6161209670e+00	-1.3299669405e+00
 5.3112480690e-01	 1.6210925457e+00	-1.2800709577e+00
 5.1617178274e-01	 1.6259155245e+00	-1.2303099870e+00
 5.0120859963e-01	 1.6305902434e+00	-1.1802411276e+00
 4.8623732961e-01	 1.6351170788e+00	-1.1294254725e+00
 4.7126002806e-01	 1.6394964434e+00	-1.0774311463e+00
 4.5627873299e-01	 1.6437287854e+00	-1.0238361331e+00
 4.4129546430e-01	 1.6478145876e+00	-9.6823089214e-01
 4.2607837933e-01	 1.5909933950e+00	-1.1003135349e+00
 4.1161180167e-01	 1.5947973203e+00	-1.0485901217e+00
 3.9714716401e-01	 1.5984607903e+00	-9.9957872621e-01
 3.8268636038e-01	 1.6019843688e+00	-9.5304075806e-01
 3.6823126487e-01	 1.6053686504e+00	-9.0874891300e-01
 3.5378373102e-01	 1.6086142607e+00	-8.6648850544e-01
 3.3934559135e-01	 1.6117218550e+00	-8.2605863559e-01
 3.2491865674e-01	 1.6146921176e+00	-7.8727319381e-01
 3.1050471600e-01	 1.6175257616e+00	-7.4996170591e-01
 2.9610553536e-01	 1.6202235278e+00	-7.1397002325e-01
 2.8172285801e-01	 1.6227861841e+00	-6.7916086198e-01
 4.2760008783e-01	 1.5966755142e+00	-1.0865102108e+00
 4.1308184382e-01	 1.6004930250e+00	-1.0341619891e+00
 3.9856554674e-01	 1.6041695789e+00	-9.8453981650e-01
 3.8405309738e-01	 1.6077057415e+00	-9.3740829255e-01
 3.6954637653e-01	 1.6111021099e+00	-8.9254390399e-01
 3.5504724435e-01	 1.6143593117e+00	-8.4973635739e-01
 3.4055753989e-01	 1.6174780045e+00	-8.0878974315e-01
 3.2607908051e-01	 1.6204588752e+00	-7.6952353389e-01
 3.1161366142e-01	 1.6233026393e+00	-7.3177342093e-01
 2.9716305513e-01	 1.6260100404e+00	-6.9539199272e-01
 2.8272901107e-01	 1.6285818491e+00	-6.6024925993e-01
 4.2912179632e-01	 1.6023576335e+00	-1.0729957576e+00
 4.1455188597e-01	 1.6061887297e+00	-1.0200630256e+00
 3.9998392947e-01	 1.6098783674e+00	-9.6988019656e-01
 3.8541983439e-01	 1.6134271142e+00	-9.2221187387e-01
 3.7086148819e-01	 1.6168355693e+00	-8.7683512839e-01
 3.5631075767e-01	 1.6201043626e+00	-8.3354083562e-01
 3.4176948843e-01	 1.6232341539e+00	-7.9213484136e-01
 3.2723950429e-01	 1.6262256327e+00	-7.5243895870e-01
 3.1272260683e-01	 1.6290795171e+00	-7.1429179992e-01
 2.9822057490e-01	 1.6317965530e+00	-6.7754944771e-01
 2.8373516413e-01	 1.6343775140e+00	-6.4208597027e-01
 4.3064350482e-01	 1.6080397528e+00	-1.0597112660e+00
 4.1602192812e-01	 1.6118844345e+00	-1.0062439003e+00
 4.0140231220e-01	 1.6155871560e+00	-9.5555930048e-01
 3.8678657139e-01	 1.6191484870e+00	-9.0741892038e-01
 3.7217659985e-01	 1.6225690288e+00	-8.6159724077e-01
 3.5757427100e-01	 1.6258494135e+00	-8.1788311605e-01
 3.4298143697e-01	 1.6289903034e+00	-7.7608094614e-01
 3.2839992806e-01	 1.6319923903e+00	-7.3601167651e-01
 3.1383155224e-01	 1.6348563948e+00	-6.9751363001e-01
 2.9927809467e-01	 1.6375830656e+00	-6.6044317505e-01
 2.8474131720e-01	 1.6401731790e+00	-6.2467523483e-01
 4.3216521332e-01	 1.6137218720e+00	-1.0465979351e+00
 4.1749197027e-01	 1.6175801392e+00	-9.9265531212e-01
 4.0282069493e-01	 1.6212959445e+00	-9.4153652387e-01
 3.8815330839e-01	 1.6248698597e+00	-8.9299675300e-01
 3.7349171151e-01	 1.6283024883e+00	-8.4680474826e-01
 3.5883778432e-01	 1.6315944645e+00	-8.0274418556e-01
 3.4419338551e-01	 1.6347464529e+00	-7.6061485064e-01
 3.2956035184e-01	 1.6377591479e+00	-7.2023364657e-01
 3.1494049766e-01	 1.6406332725e+00	-6.8143542992e-01
 3.0033561444e-01	 1.6433695782e+00	-6.4407368010e-01
 2.8574747026e-01	 1.6459688439e+00	-6.0802100688e-01
 4.3368692182e-01	 1.6194039913e+00	-1.0335970630e+00
 4.1896201242e-01	 1.6232758439e+00	-9.7924798268e-01
 4.0423907766e-01	 1.6270047330e+00	-9.2777121837e-01
 3.8952004539e-01	 1.6305912325e+00	-8.7891259116e-01
 3.7480682317e-01	 1.6340359477e+00	-8.3243200771e-01
 3.6010129765e-01	 1.6373395154e+00	-7.8810484022e-01
 3.4540533405e-01	 1.6405026024e+00	-7.4572312441e-01
 3.3072077561e-01	 1.6435259054e+00	-7.0509657900e-01
 3.1604944307e-01	 1.6464101502e+00	-6.6605345049e-01
 3.0139313420e-01	 1.6491560908e+00	-6.2844118792e-01
 2.8675362333e-01	 1.6517645089e+00	-5.9212695272e-01
 4.3520863031e-01	 1.6250861106e+00	-1.0206500385e+00
 4.2043205457e-01	 1.6289715486e+00	-9.6597264952e-01
 4.0565746039e-01	 1.6327135216e+00	-9.1422268624e-01
 3.9088678239e-01	 1.6363126052e+00	-8.6513354877e-01
 3.7612193483e-01	 1.6397694072e+00	-8.1845322290e-01
 3.6136481097e-01	 1.6430845663e+00	-7.7394568352e-01
 3.4661728259e-01	 1.6462587519e+00	-7.3139211257e-01
 3.3188119938e-01	 1.6492926630e+00	-6.9059193474e-01
 3.1715838849e-01	 1.6521870279e+00	-6.5136367528e-01
 3.0245065397e-01	 1.6549426034e+00	-6.1354564432e-01
 2.8775977639e-01	 1.6575601738e+00	-5.7699645311e-01
 4.3673033881e-01	 1.6307682298e+00	-1.0076983324e+00
 4.2190209672e-01	 1.6346672533e+00	-9.5278005923e-01
 4.0707584311e-01	 1.6384223101e+00	-9.0085017512e-01
 3.9225351939e-01	 1.6420339780e+00	-8.5162663030e-01
 3.7743704649e-01	 1.6455028667e+00	-8.0484244174e-01
 3.6262832430e-01	 1.6488296173e+00	-7.6024712469e-01
 3.4782923113e-01	 1.6520149013e+00	-7.1760793496e-01
 3.3304162316e-01	 1.6550594205e+00	-6.7671092545e-01
 3.1826733390e-01	 1.6579639057e+00	-6.3736182108e-01
 3.0350817374e-01	 1.6607291160e+00	-5.9938671691e-01
 2.8876592946e-01	 1.6633558387e+00	-5.6263260475e-01
 4.3825204731e-01	 1.6364503491e+00	-9.9468348947e-01
 4.2337213887e-01	 1.6403629580e+00	-9.3962096081e-01
 4.0849422584e-01	 1.6441310986e+00	-8.8761287283e-01
 3.9362025639e-01	 1.6477553507e+00	-8.3835872693e-01
 3.7875215815e-01	 1.6512363261e+00	-7.9157355367e-01
 3.6389183762e-01	 1.6545746682e+00	-7.4698937699e-01
 3.4904117967e-01	 1.6577710508e+00	-7.0435648538e-01
 3.3420204693e-01	 1.6608261781e+00	-6.6344451349e-01
 3.1937627932e-01	 1.6637407834e+00	-6.2404333852e-01
 3.0456569351e-01	 1.6665156286e+00	-5.8596379617e-01
 2.8977208252e-01	 1.6691515037e+00	-5.4903822168e-01
 4.3977375581e-01	 1.6421324684e+00	-9.8154712004e-01
 4.2484218101e-01	 1.6460586628e+00	-9.2644609911e-01
 4.0991260857e-01	 1.6498398872e+00	-8.7446990232e-01
 3.9498699340e-01	 1.6534767235e+00	-8.2529661280e-01
 3.8006726981e-01	 1.6569697856e+00	-7.7862028696e-01
 3.6515535095e-01	 1.6603197191e+00	-7.3415245609e-01
 3.5025312821e-01	 1.6635272003e+00	-6.9162343075e-01
 3.3536247071e-01	 1.6665929357e+00	-6.5078341182e-01
 3.2048522473e-01	 1.6695176611e+00	-6.1140341254e-01
 3.0562321328e-01	 1.6723021412e+00	-5.7327599643e-01
 2.9077823558e-01	 1.6749471686e+00	-5.3621583673e-01
 4.4129546430e-01	 1.6478145876e+00	-9.6823089214e-01
 4.2631222316e-01	 1.6517543675e+00	-9.1320620851e-01
 4.1133099130e-01	 1.6555486757e+00	-8.6138031675e-01
 3.9635373040e-01	 1.6591980962e+00	-8.1240694127e-01
 3.8138238147e-01	 1.6627032451e+00	-7.6595620616e-01
 3.6641886427e-01	 1.6660647700e+00	-7.2171617848e-01
 3.5146507675e-01	 1.6692833498e+00	-6.7939421038e-01
 3.3652289448e-01	 1.6723596932e+00	-6.3871808393e-01
 3.2159417014e-01	 1.6752945388e+00	-5.9943696293e-01
 3.0668073305e-01	 1.6780886538e+00	-5.6132215690e-01
 2.9178438865e-01	 1.6807428336e+00	-5.2416770283e-01
 2.8172285801e-01	 1.6227861841e+00	-6.7916086198e-01
 2.6735840366e-01	 1.6252145250e+00	-6.4609411258e-01
 2.5301386817e-01	 1.6275093704e+00	-6.1529841110e-01
 2.3869092310e-01	 1.6296715655e+00	-5.8661887533e-01
 2.2439121536e-01	 1.6317019797e+00	-5.5992239822e-01
 2.1011636690e-01	 1.6336015060e+00	-5.3509745541e-01
 1.9586797432e-01	 1.6353710603e+00	-5.1205379317e-01
 1.8164760864e-01	 1.6370115804e+00	-4.9072200397e-01
 1.6745681495e-01	 1.6385240259e+00	-4.7105299662e-01
 1.5329711220e-01	 1.6399093766e+00	-4.5301736830e-01
 1.3916999292e-01	 1.6411686328e+00	-4.3660468574e-01
 2.8272901107e-01	 1.6285818491e+00	-6.6024925993e-01
 2.6831325511e-01	 1.6310188626e+00	-6.2693354203e-01
 2.5391748913e-01	 1.6333219038e+00	-5.9598550354e-01
 2.3954339068e-01	 1.6354918211e+00	-5.6723445613e-01
 2.2519261256e-01	 1.6375294868e+00	-5.4053293274e-01
 2.1086678249e-01	 1.6394357971e+00	-5.1575648004e-01
 1.9656750280e-01	 1.6412116712e+00	-4.9280332816e-01
 1.8229635010e-01	 1.6428580504e+00	-4.7159394501e-01
 1.6805487501e-01	 1.6443758974e+00	-4.5207048237e-01
 1.5384460188e-01	 1.6457661958e+00	-4.3419612118e-01
 1.3966702861e-01	 1.6470299493e+00	-4.1795432355e-01
 2.8373516413e-01	 1.6343775140e+00	-6.4208597027e-01
 2.6926810655e-01	 1.6368232001e+00	-6.0851945266e-01
 2.5482111009e-01	 1.6391344373e+00	-5.7740775498e-01
 2.4039585826e-01	 1.6413120767e+00	-5.4856683394e-01
 2.2599400976e-01	 1.6433569939e+00	-5.2183722660e-01
 2.1161719809e-01	 1.6452700882e+00	-4.9708382655e-01
 1.9726703128e-01	 1.6470522821e+00	-4.7419553445e-01
 1.8294509156e-01	 1.6487045203e+00	-4.5308479005e-01
 1.6865293506e-01	 1.6502277689e+00	-4.3368699343e-01
 1.5439209157e-01	 1.6516230150e+00	-4.1595982282e-01
 1.4016406430e-01	 1.6528912659e+00	-3.9988245685e-01
 2.8474131720e-01	 1.6401731790e+00	-6.2467523483e-01
 2.7022295799e-01	 1.6426275377e+00	-5.9085882065e-01
 2.5572473105e-01	 1.6449469708e+00	-5.5957393960e-01
 2.4124832584e-01	 1.6471323323e+00	-5.3062562025e-01
 2.2679540695e-01	 1.6491845009e+00	-5.0384474457e-01
 2.1236761369e-01	 1.6511043793e+00	-4.7908780668e-01
 1.9796655976e-01	 1.6528928931e+00	-4.5623654298e-01
 1.8359383302e-01	 1.6545509902e+00	-4.3519744111e-01
 1.6925099511e-01	 1.6560796404e+00	-4.1590113532e-01
 1.5493958126e-01	 1.6574798342e+00	-3.9830169618e-01
 1.4066109999e-01	 1.6587525824e+00	-3.8237582241e-01
 2.8574747026e-01	 1.6459688439e+00	-6.0802100688e-01
 2.7117780943e-01	 1.6484318753e+00	-5.7395833496e-01
 2.5662835200e-01	 1.6507595042e+00	-5.4249255703e-01
 2.4210079343e-01	 1.6529525879e+00	-5.1342017645e-01
 2.2759680415e-01	 1.6550120080e+00	-4.8656473788e-01
 2.1311802928e-01	 1.6569386704e+00	-4.6177656751e-01
 1.9866608824e-01	 1.6587335040e+00	-4.3893238173e-01
 1.8424257448e-01	 1.6603974601e+00	-4.1793477191e-01
 1.6984905517e-01	 1.6619315119e+00	-3.9871157322e-01
 1.5548707094e-01	 1.6633366534e+00	-3.8121512540e-01
 1.4115813568e-01	 1.6646138990e+00	-3.6542143355e-01
 2.8675362333e-01	 1.6517645089e+00	-5.9212695272e-01
 2.7213266087e-01	 1.6542362129e+00	-5.5782439906e-01
 2.5753197296e-01	 1.6565720377e+00	-5.2617183420e-01
 2.4295326101e-01	 1.6587728435e+00	-4.9695961548e-01
 2.2839820135e-01	 1.6608395151e+00	-4.7000624542e-01
 2.1386844488e-01	 1.6627729615e+00	-4.4515809214e-01
 1.9936561672e-01	 1.6645741149e+00	-4.2228897543e-01
 1.8489131594e-01	 1.6662439301e+00	-4.0129962648e-01
 1.7044711522e-01	 1.6677833835e+00	-3.8211702925e-01
 1.5603456063e-01	 1.6691934726e+00	-3.6469365152e-01
 1.4165517136e-01	 1.6704752155e+00	-3.4900657406e-01
 2.8775977639e-01	 1.6575601738e+00	-5.7699645311e-01
 2.7308751231e-01	 1.6600405505e+00	-5.4246313273e-01
 2.5843559392e-01	 1.6623845712e+00	-5.1061972705e-01
 2.4380572859e-01	 1.6645930990e+00	-4.8125280341e-01
 2.2919959855e-01	 1.6666670221e+00	-4.5417809497e-01
 2.1461886047e-01	 1.6686072526e+00	-4.2924020019e-01
 2.0006514520e-01	 1.6704147259e+00	-4.0631214528e-01
 1.8554005740e-01	 1.6720904000e+00	-3.8529481781e-01
 1.7104517527e-01	 1.6736352550e+00	-3.6611627977e-01
 1.5658205032e-01	 1.6750502918e+00	-3.4873096821e-01
 1.4215220705e-01	 1.6763365321e+00	-3.3311879211e-01
 2.8876592946e-01	 1.6633558387e+00	-5.6263260475e-01
 2.7404236376e-01	 1.6658448881e+00	-5.2788037366e-01
 2.5933921488e-01	 1.6681971046e+00	-4.9584392233e-01
 2.4465819617e-01	 1.6704133546e+00	-4.6630836101e-01
 2.3000099574e-01	 1.6724945292e+00	-4.3908890434e-01
 2.1536927607e-01	 1.6744415437e+00	-4.1403054845e-01
 2.0076467368e-01	 1.6762553368e+00	-3.9100760876e-01
 1.8618879886e-01	 1.6779368699e+00	-3.6992312657e-01
 1.7164323533e-01	 1.6794871265e+00	-3.5070815284e-01
 1.5712954000e-01	 1.6809071110e+00	-3.3332091772e-01
 1.4264924274e-01	 1.6821978486e+00	-3.1774589442e-01
 2.8977208252e-01	 1.6691515037e+00	-5.4903822168e-01
 2.7499721520e-01	 1.6716492257e+00	-5.1408167921e-01
 2.6024283583e-01	 1.6740096381e+00	-4.8185183923e-01
 2.4551066376e-01	 1.6762336102e+00	-4.5213466532e-01
 2.3080239294e-01	 1.6783220363e+00	-4.2474708257e-01
 2.1611969167e-01	 1.6802758348e+00	-3.9953663137e-01
 2.0146420216e-01	 1.6820959477e+00	-3.7638097934e-01
 1.8683754032e-01	 1.6837833399e+00	-3.5518729982e-01
 1.7224129538e-01	 1.6853389980e+00	-3.3589152567e-01
 1.5767702969e-01	 1.6867639302e+00	-3.1845748679e-01
 1.4314627843e-01	 1.6880591652e+00	-3.0287594042e-01
 2.9077823558e-01	 1.6749471686e+00	-5.3621583673e-01
 2.7595206664e-01	 1.6774535633e+00	-5.0107232797e-01
 2.6114645679e-01	 1.6798221716e+00	-4.6865063112e-01
 2.4636313134e-01	 1.6820538658e+00	-4.3873985107e-01
 2.3160379014e-01	 1.6841495434e+00	-4.1116083104e-01
 2.1687010726e-01	 1.6861101259e+00	-3.8576578172e-01
 2.0216373064e-01	 1.6879365586e+00	-3.6243776625e-01
 1.8748628178e-01	 1.6896298098e+00	-3.4109004976e-01
 1.7283935543e-01	 1.6911908695e+00	-3.2166532209e-01
 1.5822451938e-01	 1.6926207494e+00	-3.0413480270e-01
 1.4364331412e-01	 1.6939204817e+00	-2.8849723666e-01
 2.9178438865e-01	 1.6807428336e+00	-5.2416770283e-01
 2.7690691808e-01	 1.6832579009e+00	-4.8885732136e-01
 2.6205007775e-01	 1.6856347050e+00	-4.5624718710e-01
 2.4721559892e-01	 1.6878741214e+00	-4.2613181223e-01
 2.3240518734e-01	 1.6899770504e+00	-3.9833814459e-01
 2.1762052286e-01	 1.6919444170e+00	-3.7272517102e-01
 2.0286325912e-01	 1.6937771696e+00	-3.4918337427e-01
 1.8813502324e-01	 1.6954762797e+00	-3.2763405249e-01
 1.7343741549e-01	 1.6970427411e+00	-3.0802851016e-01
 1.5877200906e-01	 1.6984775687e+00	-2.9034712944e-01
 1.4414034981e-01	 1.6997817982e+00	-2.7459833125e-01
 1.3916999292e-01	 1.6411686328e+00	-4.3660468574e-01
 1.2507692305e-01	 1.6423028136e+00	-4.2174287777e-01
 1.1101934169e-01	 1.6433129568e+00	-4.0841033774e-01
 9.6998660961e-02	 1.6442001180e+00	-3.9669586882e-01
 8.3016265844e-02	 1.6449653698e+00	-3.8670049010e-01
 6.9073514018e-02	 1.6456098012e+00	-3.7853635630e-01
 5.5171735766e-02	 1.6461345169e+00	-3.7232563520e-01
 4.1312233867e-02	 1.6465406365e+00	-3.6819934955e-01
 2.7496283519e-02	 1.6468292937e+00	-3.6629619033e-01
 1.3725132275e-02	 1.6470016360e+00	-3.6676130778e-01
 0.0000000000e+00	 1.6470588235e+00	-3.6974508647e-01
 1.3966702861e-01	 1.6470299493e+00	-4.1795432355e-01
 1.2552362634e-01	 1.6481681808e+00	-4.0325223983e-01
 1.1141583933e-01	 1.6491819316e+00	-3.9005528258e-01
 9.7345084751e-02	 1.6500722613e+00	-3.7845873135e-01
 8.3312752507e-02	 1.6508402461e+00	-3.6856995980e-01
 6.9320205139e-02	 1.6514869791e+00	-3.6050733702e-01
 5.5368777679e-02	 1.6520135687e+00	-3.5439908620e-01
 4.1459777560e-02	 1.6524211387e+00	-3.5038210770e-01
 2.7594484532e-02	 1.6527108269e+00	-3.4860077330e-01
 1.3774150604e-02	 1.6528837847e+00	-3.4920569825e-01
 0.0000000000e+00	 1.6529411765e+00	-3.5235249755e-01
 1.4016406430e-01	 1.6528912659e+00	-3.9988245685e-01
 1.2597032964e-01	 1.6540335480e+00	-3.8533617698e-01
 1.1181233698e-01	 1.6550509065e+00	-3.7226703859e-01
 9.7691508540e-02	 1.6559444045e+00	-3.6077673858e-01
 8.3609239171e-02	 1.6567151224e+00	-3.5097910075e-01
 6.9566896261e-02	 1.6573641569e+00	-3.4299895455e-01
 5.5565819593e-02	 1.6578926206e+00	-3.3697097088e-01
 4.1607321252e-02	 1.6583016410e+00	-3.3303846191e-01
 2.7692685544e-02	 1.6585923601e+00	-3.3135215207e-01
 1.3823168934e-02	 1.6587659334e+00	-3.3206892664e-01
 0.0000000000e+00	 1.6588235294e+00	-3.3535056476e-01
 1.4066109999e-01	 1.6587525824e+00	-3.8237582241e-01
 1.2641703293e-01	 1.6598989152e+00	-3.6797522439e-01
 1.1220883463e-01	 1.6609198813e+00	-3.5502162064e-01
 9.8037932329e-02	 1.6618165478e+00	-3.4362306151e-01
 8.3905725835e-02	 1.6625899987e+00	-3.3389991073e-01
 6.9813587382e-02	 1.6632413348e+00	-3.2598369756e-01
 5.5762861506e-02	 1.6637716724e+00	-3.2001592540e-01
 4.1754864945e-02	 1.6641821433e+00	-3.1614684426e-01
 2.7790886557e-02	 1.6644738933e+00	-3.1453419393e-01
 1.3872187264e-02	 1.6646480821e+00	-3.1534192493e-01
 0.0000000000e+00	 1.6647058824e+00	-3.1873890365e-01
 1.4115813568e-01	 1.6646138990e+00	-3.6542143355e-01
 1.2686373623e-01	 1.6657642823e+00	-3.5115030354e-01
 1.1260533228e-01	 1.6667888562e+00	-3.3829551431e-01
 9.8384356118e-02	 1.6676886911e+00	-3.2697140103e-01
 8.4202212499e-02	 1.6684648751e+00	-3.1730495152e-01
 7.0060278504e-02	 1.6691185127e+00	-3.0943462778e-01
 5.5959903420e-02	 1.6696507243e+00	-3.0350914328e-01
 4.1902408637e-02	 1.6700626455e+00	-2.9968620372e-01
 2.7889087570e-02	 1.6703554265e+00	-2.9813121815e-01
 1.3921205593e-02	 1.6705302308e+00	-2.9901598780e-01
 0.0000000000e+00	 1.6705882353e+00	-3.0251737903e-01
 1.4165517136e-01	 1.6704752155e+00	-3.4900657406e-01
 1.2731043953e-01	 1.6716296495e+00	-3.3484271430e-01
 1.1300182993e-01	 1.6726578310e+00	-3.2206566670e-01
 9.8730779907e-02	 1.6735608344e+00	-3.1079597783e-01
 8.4498699162e-02	 1.6743397514e+00	-3.0116733831e-01
 7.0306969625e-02	 1.6749956905e+00	-2.9332536945e-01
 5.6156945333e-02	 1.6755297761e+00	-2.8742636520e-01
 4.2049952329e-02	 1.6759431478e+00	-2.8363599683e-01
 2.7987288582e-02	 1.6762369596e+00	-2.8212798785e-01
 1.3970223923e-02	 1.6764123795e+00	-2.8308276619e-01
 0.0000000000e+00	 1.6764705882e+00	-2.8668610061e-01
 1.4215220705e-01	 1.6763365321e+00	-3.3311879211e-01
 1.2775714282e-01	 1.6774950167e+00	-3.1903412721e-01
 1.1339832758e-01	 1.6785268059e+00	-3.0630947733e-01
 9.9077203696e-02	 1.6794329776e+00	-2.9507152249e-01
 8.4795185826e-02	 1.6802146277e+00	-2.8546072934e-01
 7.0553660747e-02	 1.6808728684e+00	-2.7763009892e-01
 5.6353987247e-02	 1.6814088280e+00	-2.7174386898e-01
 4.2197496022e-02	 1.6818236501e+00	-2.6797617852e-01
 2.8085489595e-02	 1.6821184928e+00	-2.6650970205e-01
 1.4019242252e-02	 1.6822945282e+00	-2.6753426093e-01
 0.0000000000e+00	 1.6823529412e+00	-2.7124541871e-01
 1.4264924274e-01	 1.6821978486e+00	-3.1774589442e-01
 1.2820384612e-01	 1.6833603839e+00	-3.0370657592e-01
 1.1379482523e-01	 1.6843957807e+00	-2.9100478935e-01
 9.9423627485e-02	 1.6853051209e+00	-2.7977326577e-01
 8.5091672490e-02	 1.6860895040e+00	-2.7015931579e-01
 7.0800351868e-02	 1.6867500462e+00	-2.6232353447e-01
 5.6551029160e-02	 1.6872878798e+00	-2.5643845983e-01
 4.2345039714e-02	 1.6877041524e+00	-2.5268719306e-01
 2.8183690607e-02	 1.6880000260e+00	-2.5126198787e-01
 1.4068260582e-02	 1.6881766769e+00	-2.5236281657e-01
 0.0000000000e+00	 1.6882352941e+00	-2.5619592004e-01
 1.4314627843e-01	 1.6880591652e+00	-3.0287594042e-01
 1.2865054942e-01	 1.6892257511e+00	-2.8884244970e-01
 1.1419132288e-01	 1.6902647556e+00	-2.7612988083e-01
 9.9770051275e-02	 1.6911772642e+00	-2.6487692910e-01
 8.5388159153e-02	 1.6919643803e+00	-2.5523781184e-01
 7.1047042990e-02	 1.6926272241e+00	-2.4738092638e-01
 5.6748071074e-02	 1.6931669317e+00	-2.4148746077e-01
 4.2492583407e-02	 1.6935846546e+00	-2.3774996534e-01
 2.8281891620e-02	 1.6938815592e+00	-2.3637089292e-01
 1.4117278911e-02	 1.6940588256e+00	-2.3756111534e-01
 0.0000000000e+00	 1.6941176471e+00	-2.4153842367e-01
 1.4364331412e-01	 1.6939204817e+00	-2.8849723666e-01
 1.2909725271e-01	 1.6950911183e+00	-2.7442448623e-01
 1.1458782053e-01	 1.6961337304e+00	-2.6166345634e-01
 1.0011647506e-01	 1.6970494075e+00	-2.5035871533e-01
 8.5684645817e-02	 1.6978392567e+00	-2.4067144491e-01
 7.1293734111e-02	 1.6985044020e+00	-2.3277804716e-01
 5.6945112987e-02	 1.6990459835e+00	-2.2686870324e-01
 4.2640127099e-02	 1.6994651569e+00	-2.2314589220e-01
 2.8380092632e-02	 1.6997630924e+00	-2.2182287780e-01
 1.4166297241e-02	 1.6999409743e+00	-2.2312217118e-01
 0.0000000000e+00	 1.7000000000e+00	-2.2727397692e-01
 1.4414034981e-01	 1.6997817982e+00	-2.7459833125e-01
 1.2954395601e-01	 1.7009564855e+00	-2.6043576449e-01
 1.1498431817e-01	 1.7020027052e+00	-2.4758463857e-01
 1.0046289885e-01	 1.7029215508e+00	-2.3619529956e-01
 8.5981132481e-02	 1.7037141330e+00	-2.2643594623e-01
 7.1540425233e-02	 1.7043815798e+00	-2.1849118206e-01
 5.7142154900e-02	 1.7049250354e+00	-2.1256051793e-01
 4.2787670791e-02	 1.7053456592e+00	-2.0885683399e-01
 2.8478293645e-02	 1.7056446256e+00	-2.0760480881e-01
 1.4215315570e-02	 1.7058231230e+00	-2.0903932396e-01
 0.0000000000e+00	 1.7058823529e+00	-2.1340385149e-01
 1.7058823529e+00	 0.0000000000e+00	 3.3203456065e+00
 1.7058231230e+00	 1.4215315570e-02	 3.3152952810e+00
 1.7056446256e+00	 2.8478293645e-02	 3.3105877805e+00
 1.7053456592e+00	 4.2787670791e-02	 3.3056986006e+00
 1.7049250354e+00	 5.7142154900e-02	 3.3001485832e+00
 1.7043815798e+00	 7.1540425233e-02	 3.2935050206e+00
 1.7037141330e+00	 8.5981132481e-02	 3.2853825511e+00
 1.7029215508e+00	 1.0046289885e-01	 3.2754438504e+00
 1.7020027052e+00	 1.1498431817e-01	 3.2634001231e+00
 1.7009564855e+00	 1.2954395601e-01	 3.2490114035e+00
 1.6997817982e+00	 1.4414034981e-01	 3.2320866732e+00
 1.7117647059e+00	 0.0000000000e+00	 3.3074567166e+00
 1.7117052717e+00	 1.4264333900e-02	 3.3023947729e+00
 1.7115261588e+00	 2.8576494658e-02	 3.2977944215e+00
 1.7112261615e+00	 4.2935214484e-02	 3.2931117037e+00
 1.7108040872e+00	 5.7339196814e-02	 3.2878489868e+00
 1.7102587577e+00	 7.1787116354e-02	 3.2815560317e+00
 1.7095890093e+00	 8.6277619145e-02	 3.2738308467e+00
 1.7087936940e+00	 1.0080932264e-01	 3.2643203317e+00
 1.7078716801e+00	 1.1538081582e-01	 3.2527207196e+00
 1.7068218527e+00	 1.2999065931e-01	 3.2387778217e+00
 1.7056431148e+00	 1.4463738550e-01	 3.2222870865e+00
 1.7176470588e+00	 0.0000000000e+00	 3.2945027028e+00
 1.7175874204e+00	 1.4313352229e-02	 3.2894309167e+00
 1.7174076920e+00	 2.8674695670e-02	 3.2849178594e+00
 1.7171066637e+00	 4.3082758176e-02	 3.2804025654e+00
 1.7166831391e+00	 5.7536238727e-02	 3.2753714395e+00
 1.7161359355e+00	 7.2033807476e-02	 3.2693592843e+00
 1.7154638856e+00	 8.6574105808e-02	 3.2619501078e+00
 1.7146658373e+00	 1.0115574643e-01	 3.2527777174e+00
 1.7137406549e+00	 1.1577731347e-01	 3.2415261057e+00
 1.7126872199e+00	 1.3043736260e-01	 3.2279296369e+00
 1.7115044313e+00	 1.4513442119e-01	 3.2117730419e+00
 1.7235294118e+00	 0.0000000000e+00	 3.2814791731e+00
 1.7234695691e+00	 1.4362370559e-02	 3.2764000189e+00
 1.7232892252e+00	 2.8772896683e-02	 3.2719551105e+00
 1.7229871660e+00	 4.3230301868e-02	 3.2675689145e+00
 1.7225621909e+00	 5.7733280641e-02	 3.2627143770e+00
 1.7220131134e+00	 7.2280498597e-02	 3.2569139063e+00
 1.7213387619e+00	 8.6870592472e-02	 3.2497401313e+00
 1.7205379806e+00	 1.0150217022e-01	 3.2408164405e+00
 1.7196096298e+00	 1.1617381112e-01	 3.2298173085e+00
 1.7185525871e+00	 1.3088406590e-01	 3.2164684181e+00
 1.7173657479e+00	 1.4563145688e-01	 3.2005465888e+00
 1.7294117647e+00	 0.0000000000e+00	 3.2683816609e+00
 1.7293517178e+00	 1.4411388889e-02	 3.2632982771e+00
 1.7291707584e+00	 2.8871097695e-02	 3.2589030467e+00
 1.7288676683e+00	 4.3377845561e-02	 3.2546082998e+00
 1.7284412427e+00	 5.7930322554e-02	 3.2498760191e+00
 1.7278902913e+00	 7.2527189719e-02	 3.2442187747e+00
 1.7272136383e+00	 8.7167079136e-02	 3.2372004287e+00
 1.7264101239e+00	 1.0184859401e-01	 3.2284366159e+00
 1.7254786046e+00	 1.1657030877e-01	 3.2175950059e+00
 1.7244179543e+00	 1.3133076920e-01	 3.2043953574e+00
 1.7232270644e+00	 1.4612849257e-01	 3.1886093735e+00
 1.7352941176e+00	 0.0000000000e+00	 3.2552056266e+00
 1.7352338665e+00	 1.4460407218e-02	 3.2501217816e+00
 1.7350522916e+00	 2.8969298708e-02	 3.2457583979e+00
 1.7347481706e+00	 4.3525389253e-02	 3.2415180926e+00
 1.7343202946e+00	 5.8127364468e-02	 3.2368543728e+00
 1.7337674691e+00	 7.2773880840e-02	 3.2312725187e+00
 1.7330885146e+00	 8.7463565800e-02	 3.2243302302e+00
 1.7322822671e+00	 1.0219501780e-01	 3.2156380451e+00
 1.7313475795e+00	 1.1696680642e-01	 3.2048595324e+00
 1.7302833214e+00	 1.3177747249e-01	 3.1917112748e+00
 1.7290883810e+00	 1.4662552825e-01	 3.1759626459e+00
 1.7411764706e+00	 0.0000000000e+00	 3.2419464586e+00
 1.7411160152e+00	 1.4509425548e-02	 3.2368665168e+00
 1.7409338248e+00	 2.9067499720e-02	 3.2325177531e+00
 1.7406286728e+00	 4.3672932946e-02	 3.2282954884e+00
 1.7401993464e+00	 5.8324406381e-02	 3.2236472349e+00
 1.7396446470e+00	 7.3020571962e-02	 3.2180735232e+00
 1.7389633909e+00	 8.7760052463e-02	 3.2111284885e+00
 1.7381544104e+00	 1.0254144159e-01	 3.2024202202e+00
 1.7372165543e+00	 1.1736330407e-01	 3.1916108837e+00
 1.7361486886e+00	 1.3222417579e-01	 3.1784166248e+00
 1.7349496975e+00	 1.4712256394e-01	 3.1626072656e+00
 1.7470588235e+00	 0.0000000000e+00	 3.2285994746e+00
 1.7469981639e+00	 1.4558443877e-02	 3.2235283627e+00
 1.7468153580e+00	 2.9165700733e-02	 3.2191775631e+00
 1.7465091751e+00	 4.3820476638e-02	 3.2149375101e+00
 1.7460783983e+00	 5.8521448295e-02	 3.2102521947e+00
 1.7455218249e+00	 7.3267263083e-02	 3.2046199323e+00
 1.7448382672e+00	 8.8056539127e-02	 3.1975938828e+00
 1.7440265537e+00	 1.0288786538e-01	 3.1887823290e+00
 1.7430855292e+00	 1.1775980172e-01	 3.1778487218e+00
 1.7420140558e+00	 1.3267087909e-01	 3.1645115016e+00
 1.7408110141e+00	 1.4761959963e-01	 3.1485437085e+00
 1.7529411765e+00	 0.0000000000e+00	 3.2151599229e+00
 1.7528803126e+00	 1.4607462207e-02	 3.2101030970e+00
 1.7526968911e+00	 2.9263901746e-02	 3.2057341420e+00
 1.7523896774e+00	 4.3968020330e-02	 3.2014410096e+00
 1.7519574501e+00	 5.8718490208e-02	 3.1966666370e+00
 1.7513990027e+00	 7.3513954205e-02	 3.1909096519e+00
 1.7507131436e+00	 8.8353025791e-02	 3.1837248223e+00
 1.7498986970e+00	 1.0323428917e-01	 3.1747232591e+00
 1.7489545040e+00	 1.1815629937e-01	 3.1635723802e+00
 1.7478794230e+00	 1.3311758238e-01	 3.1499956450e+00
 1.7466723306e+00	 1.4811663532e-01	 3.1337720731e+00
 1.7588235294e+00	 0.0000000000e+00	 3.2016229830e+00
 1.7587624613e+00	 1.4656480536e-02	 3.1965863955e+00
 1.7585784243e+00	 2.9362102758e-02	 3.1921836689e+00
 1.7582701796e+00	 4.4115564023e-02	 3.1878026702e+00
 1.7578365020e+00	 5.8915532122e-02	 3.1828877448e+00
 1.7572761806e+00	 7.3760645326e-02	 3.1769403538e+00
 1.7565880199e+00	 8.8649512454e-02	 3.1695194502e+00
 1.7557708403e+00	 1.0358071296e-01	 3.1602416019e+00
 1.7548234789e+00	 1.1855279701e-01	 3.1487808684e+00
 1.7537447902e+00	 1.3356428568e-01	 3.1348684454e+00
 1.7525336472e+00	 1.4861367101e-01	 3.1182920864e+00
 1.7647058824e+00	 0.0000000000e+00	 3.1879837676e+00
 1.7646446100e+00	 1.4705498866e-02	 3.1829738346e+00
 1.7644599575e+00	 2.9460303771e-02	 3.1785221901e+00
 1.7641506819e+00	 4.4263107715e-02	 3.1740190092e+00
 1.7637155538e+00	 5.9112574035e-02	 3.1689125016e+00
 1.7631533584e+00	 7.4007336448e-02	 3.1627094778e+00
 1.7624628962e+00	 8.8945999118e-02	 3.1549756474e+00
 1.7616429835e+00	 1.0392713674e-01	 3.1453356570e+00
 1.7606924537e+00	 1.1894929466e-01	 3.1334728771e+00
 1.7596101574e+00	 1.3401098898e-01	 3.1191289499e+00
 1.7583949637e+00	 1.4911070670e-01	 3.1021031100e+00
 1.6997817982e+00	 1.4414034981e-01	 3.2320866732e+00
 1.6984775687e+00	 1.5877200906e-01	 3.2121257504e+00
 1.6970427411e+00	 1.7343741549e-01	 3.1887402185e+00
 1.6954762797e+00	 1.8813502324e-01	 3.1619822750e+00
 1.6937771696e+00	 2.0286325912e-01	 3.1319554545e+00
 1.6919444170e+00	 2.1762052286e-01	 3.0988139016e+00
 1.6899770504e+00	 2.3240518734e-01	 3.0627615322e+00
 1.6878741214e+00	 2.4721559892e-01	 3.0240510963e+00
 1.6856347050e+00	 2.6205007775e-01	 2.9829831638e+00
 1.6832579009e+00	 2.7690691808e-01	 2.9399050480e+00
 1.6807428336e+00	 2.9178438865e-01	 2.8952096881e+00
 1.7056431148e+00	 1.4463738550e-01	 3.2222870865e+00
 1.7043343879e+00	 1.5931949875e-01	 3.2027483401e+00
 1.7028946126e+00	 1.7403547554e-01	 3.1797759282e+00
 1.7013227497e+00	 1.8878376470e-01	 3.1534135194e+00
 1.6996177805e+00	 2.0356278760e-01	 3.1237565844e+00
 1.6977787081e+00	 2.1837093845e-01	 3.0909515952e+00
 1.6958045575e+00	 2.3320658454e-01	 3.0551951115e+00
 1.6936943770e+00	 2.4806806650e-01	 3.0167327695e+00
 1.6914472385e+00	 2.6295369871e-01	 2.9758581933e+00
 1.6890622384e+00	 2.7786176952e-01	 2.9329118458e+00
 1.6865384985e+00	 2.9279054171e-01	 2.8882798399e+00
 1.7115044313e+00	 1.4513442119e-01	 3.2117730419e+00
 1.7101912071e+00	 1.5986698843e-01	 3.1925588961e+00
 1.7087464841e+00	 1.7463353559e-01	 3.1699074257e+00
 1.7071692196e+00	 1.8943250615e-01	 3.1438571489e+00
 1.7054583914e+00	 2.0426231608e-01	 3.1144988040e+00
 1.7036129992e+00	 2.1912135405e-01	 3.0819744687e+00
 1.7016320646e+00	 2.3400798173e-01	 3.0464765631e+00
 1.6995146326e+00	 2.4892053409e-01	 3.0082467583e+00
 1.6972597720e+00	 2.6385731967e-01	 2.9675748051e+00
 1.6948665760e+00	 2.7881662096e-01	 2.9247973053e+00
 1.6923341635e+00	 2.9379669478e-01	 2.8802964441e+00
 1.7173657479e+00	 1.4563145688e-01	 3.2005465888e+00
 1.7160480263e+00	 1.6041447812e-01	 3.1815594741e+00
 1.7145983556e+00	 1.7523159565e-01	 3.1591358815e+00
 1.7130156895e+00	 1.9008124761e-01	 3.1333125378e+00
 1.7112990024e+00	 2.0496184456e-01	 3.1041787617e+00
 1.7094472902e+00	 2.1987176965e-01	 3.0718754946e+00
 1.7074595716e+00	 2.3480937893e-01	 3.0365942150e+00
 1.7053348882e+00	 2.4977300167e-01	 2.9985757570e+00
 1.7030723054e+00	 2.6476094062e-01	 2.9581090509e+00
 1.7006709136e+00	 2.7977147241e-01	 2.9155298063e+00
 1.6981298284e+00	 2.9480284784e-01	 2.8712191592e+00
 1.7232270644e+00	 1.4612849257e-01	 3.1886093735e+00
 1.7219048455e+00	 1.6096196781e-01	 3.1697517098e+00
 1.7204502271e+00	 1.7582965570e-01	 3.1474620440e+00
 1.7188621594e+00	 1.9072998907e-01	 3.1217786518e+00
 1.7171396133e+00	 2.0566137304e-01	 3.0927927261e+00
 1.7152815813e+00	 2.2062218524e-01	 3.0606473116e+00
 1.7132870787e+00	 2.3561077613e-01	 3.0255361235e+00
 1.7111551438e+00	 2.5062546925e-01	 2.9877022684e+00
 1.7088848389e+00	 2.6566456158e-01	 2.9474368890e+00
 1.7064752512e+00	 2.8072632385e-01	 2.9050777520e+00
 1.7039254933e+00	 2.9580900091e-01	 2.8610078024e+00
 1.7290883810e+00	 1.4662552825e-01	 3.1759626459e+00
 1.7277616647e+00	 1.6150945749e-01	 3.1571368261e+00
 1.7263020987e+00	 1.7642771575e-01	 3.1348862471e+00
 1.7247086294e+00	 1.9137873053e-01	 3.1092540557e+00
 1.7229802242e+00	 2.0636090152e-01	 3.0803365942e+00
 1.7211158724e+00	 2.2137260084e-01	 3.0482822323e+00
 1.7191145858e+00	 2.3641217333e-01	 3.0132900812e+00
 1.7169753994e+00	 2.5147793683e-01	 2.9756086109e+00
 1.7146973724e+00	 2.6656818254e-01	 2.9355341903e+00
 1.7122795888e+00	 2.8168117529e-01	 2.8934095737e+00
 1.7097211583e+00	 2.9681515397e-01	 2.8496223532e+00
 1.7349496975e+00	 1.4712256394e-01	 3.1626072656e+00
 1.7336184839e+00	 1.6205694718e-01	 3.1437156402e+00
 1.7321539702e+00	 1.7702577581e-01	 3.1214084179e+00
 1.7305550993e+00	 1.9202747199e-01	 3.0957369210e+00
 1.7288208352e+00	 2.0706043000e-01	 3.0668058992e+00
 1.7269501635e+00	 2.2212301643e-01	 3.0347722506e+00
 1.7249420929e+00	 2.3721357052e-01	 2.9998436241e+00
 1.7227956550e+00	 2.5233040442e-01	 2.9622769252e+00
 1.7205099058e+00	 2.6747180350e-01	 2.9223767449e+00
 1.7180839264e+00	 2.8263602673e-01	 2.8804937361e+00
 1.7155168232e+00	 2.9782130703e-01	 2.8370229579e+00
 1.7408110141e+00	 1.4761959963e-01	 3.1485437085e+00
 1.7394753031e+00	 1.6260443687e-01	 3.1294885707e+00
 1.7380058417e+00	 1.7762383586e-01	 3.1070280838e+00
 1.7364015692e+00	 1.9267621345e-01	 3.0812250337e+00
 1.7346614461e+00	 2.0775995848e-01	 3.0521958181e+00
 1.7327844546e+00	 2.2287343203e-01	 3.0201090494e+00
 1.7307695999e+00	 2.3801496772e-01	 2.9851840385e+00
 1.7286159105e+00	 2.5318287200e-01	 2.9476891811e+00
 1.7263224393e+00	 2.6837542445e-01	 2.9079402677e+00
 1.7238882640e+00	 2.8359087817e-01	 2.8662987427e+00
 1.7213124882e+00	 2.9882746010e-01	 2.8231699331e+00
 1.7466723306e+00	 1.4811663532e-01	 3.1337720731e+00
 1.7453321223e+00	 1.6315192655e-01	 3.1144556438e+00
 1.7438577132e+00	 1.7822189591e-01	 3.0917443798e+00
 1.7422480392e+00	 1.9332495491e-01	 3.0657158017e+00
 1.7405020570e+00	 2.0845948696e-01	 3.0365011791e+00
 1.7386187457e+00	 2.2362384763e-01	 3.0042840082e+00
 1.7365971070e+00	 2.3881636492e-01	 2.9692983689e+00
 1.7344361661e+00	 2.5403533958e-01	 2.9318271843e+00
 1.7321349728e+00	 2.6927904541e-01	 2.8922004047e+00
 1.7296926016e+00	 2.8454572961e-01	 2.8507931407e+00
 1.7271081531e+00	 2.9983361316e-01	 2.8080237705e+00
 1.7525336472e+00	 1.4861367101e-01	 3.1182920864e+00
 1.7511889415e+00	 1.6369941624e-01	 3.0986165008e+00
 1.7497095847e+00	 1.7881995597e-01	 3.0755560559e+00
 1.7480945091e+00	 1.9397369637e-01	 3.0492062622e+00
 1.7463426679e+00	 2.0915901544e-01	 3.0197164693e+00
 1.7444530368e+00	 2.2437426322e-01	 2.9872882101e+00
 1.7424246141e+00	 2.3961776212e-01	 2.9521734243e+00
 1.7402564217e+00	 2.5488780716e-01	 2.9146725829e+00
 1.7379475062e+00	 2.7018266637e-01	 2.8751327385e+00
 1.7354969392e+00	 2.8550058105e-01	 2.8339455264e+00
 1.7329038181e+00	 3.0083976623e-01	 2.7915451402e+00
 1.7583949637e+00	 1.4911070670e-01	 3.1021031100e+00
 1.7570457607e+00	 1.6424690593e-01	 3.0819704040e+00
 1.7555614563e+00	 1.7941801602e-01	 3.0584614835e+00
 1.7539409790e+00	 1.9462243783e-01	 3.0316930889e+00
 1.7521832789e+00	 2.0985854392e-01	 3.0018358420e+00
 1.7502873279e+00	 2.2512467882e-01	 2.9691124498e+00
 1.7482521211e+00	 2.4041915932e-01	 2.9337957861e+00
 1.7460766773e+00	 2.5574027475e-01	 2.8962068740e+00
 1.7437600397e+00	 2.7108628733e-01	 2.8567127953e+00
 1.7413012767e+00	 2.8645543250e-01	 2.8157245499e+00
 1.7386994830e+00	 3.0184591929e-01	 2.7736948953e+00
 1.6807428336e+00	 2.9178438865e-01	 2.8952096881e+00
 1.6780886538e+00	 3.0668073305e-01	 2.8478509615e+00
 1.6752945388e+00	 3.2159417014e-01	 2.7966662139e+00
 1.6723596932e+00	 3.3652289448e-01	 2.7419352300e+00
 1.6692833498e+00	 3.5146507675e-01	 2.6839745422e+00
 1.6660647700e+00	 3.6641886427e-01	 2.6231365759e+00
 1.6627032451e+00	 3.8138238147e-01	 2.5598088805e+00
 1.6591980962e+00	 3.9635373040e-01	 2.4944134634e+00
 1.6555486757e+00	 4.1133099130e-01	 2.4274062471e+00
 1.6517543675e+00	 4.2631222316e-01	 2.3592766646e+00
 1.6478145876e+00	 4.4129546430e-01	 2.2905474110e+00
 1.6865384985e+00	 2.9279054171e-01	 2.8882798399e+00
 1.6838751664e+00	 3.0773825282e-01	 2.8408955854e+00
 1.6810714165e+00	 3.2270311556e-01	 2.7895907808e+00
 1.6781264508e+00	 3.3768331825e-01	 2.7346606291e+00
 1.6750394993e+00	 3.5267702529e-01	 2.6764370654e+00
 1.6718098210e+00	 3.6768237760e-01	 2.6152878257e+00
 1.6684367045e+00	 3.8269749313e-01	 2.5516156061e+00
 1.6649194690e+00	 3.9772046740e-01	 2.4858573314e+00
 1.6612574643e+00	 4.1274937403e-01	 2.4184835520e+00
 1.6574500722e+00	 4.2778226531e-01	 2.3499979868e+00
 1.6534967069e+00	 4.4281717280e-01	 2.2809372289e+00
 1.6923341635e+00	 2.9379669478e-01	 2.8802964441e+00
 1.6896616790e+00	 3.0879577259e-01	 2.8329869679e+00
 1.6868482943e+00	 3.2381206097e-01	 2.7816903131e+00
 1.6838932084e+00	 3.3884374203e-01	 2.7267102869e+00
 1.6807956488e+00	 3.5388897383e-01	 2.6683874039e+00
 1.6775548719e+00	 3.6894589092e-01	 2.6070978862e+00
 1.6741701640e+00	 3.8401260479e-01	 2.5432527586e+00
 1.6706408417e+00	 3.9908720440e-01	 2.4772970598e+00
 1.6669662528e+00	 4.1416775676e-01	 2.4097091878e+00
 1.6631457769e+00	 4.2925230746e-01	 2.3410003993e+00
 1.6591788262e+00	 4.4433888130e-01	 2.2717144792e+00
 1.6981298284e+00	 2.9480284784e-01	 2.8712191592e+00
 1.6954481916e+00	 3.0985329236e-01	 2.8240760156e+00
 1.6926251720e+00	 3.2492100639e-01	 2.7729080221e+00
 1.6896599659e+00	 3.4000416580e-01	 2.7180208575e+00
 1.6865517982e+00	 3.5510092237e-01	 2.6597568738e+00
 1.6832999228e+00	 3.7020940425e-01	 2.5984940340e+00
 1.6799036235e+00	 3.8532771645e-01	 2.5346449526e+00
 1.6763622144e+00	 4.0045394140e-01	 2.4686560560e+00
 1.6726750413e+00	 4.1558613949e-01	 2.4010068865e+00
 1.6688414816e+00	 4.3072234961e-01	 2.3322095657e+00
 1.6648609454e+00	 4.4586058980e-01	 2.2628084377e+00
 1.7039254933e+00	 2.9580900091e-01	 2.8610078024e+00
 1.7012347042e+00	 3.1091081213e-01	 2.8141139342e+00
 1.6984020497e+00	 3.2602995180e-01	 2.7631875494e+00
 1.6954267235e+00	 3.4116458958e-01	 2.7085295465e+00
 1.6923079477e+00	 3.5631287091e-01	 2.6504774520e+00
 1.6890449738e+00	 3.7147291757e-01	 2.5894043041e+00
 1.6856370829e+00	 3.8664282811e-01	 2.5257176447e+00
 1.6820835872e+00	 4.0182067840e-01	 2.4598586393e+00
 1.6783838299e+00	 4.1700452221e-01	 2.3923013459e+00
 1.6745371863e+00	 4.3219239176e-01	 2.3235521528e+00
 1.6705430647e+00	 4.4738229829e-01	 2.2541494034e+00
 1.7097211583e+00	 2.9681515397e-01	 2.8496223532e+00
 1.7070212168e+00	 3.1196833190e-01	 2.8030522315e+00
 1.7041789274e+00	 3.2713889722e-01	 2.7524729692e+00
 1.7011934811e+00	 3.4232501335e-01	 2.6981741123e+00
 1.6980640972e+00	 3.5752481946e-01	 2.6404817776e+00
 1.6947900247e+00	 3.7273643090e-01	 2.5797574902e+00
 1.6913705424e+00	 3.8795793977e-01	 2.5163971348e+00
 1.6878049599e+00	 4.0318741540e-01	 2.4508300421e+00
 1.6840926184e+00	 4.1842290494e-01	 2.3835182323e+00
 1.6802328910e+00	 4.3366243391e-01	 2.3149558349e+00
 1.6762251840e+00	 4.4890400679e-01	 2.2456687049e+00
 1.7155168232e+00	 2.9782130703e-01	 2.8370229579e+00
 1.7128077294e+00	 3.1302585167e-01	 2.7908427201e+00
 1.7099558051e+00	 3.2824784263e-01	 2.7407087901e+00
 1.7069602386e+00	 3.4348543712e-01	 2.6868928673e+00
 1.7038202467e+00	 3.5873676800e-01	 2.6297031526e+00
 1.7005350756e+00	 3.7399994422e-01	 2.5694831465e+00
 1.6971040019e+00	 3.8927305143e-01	 2.5066105673e+00
 1.6935263327e+00	 4.0455415240e-01	 2.4414964123e+00
 1.6898014069e+00	 4.1984128767e-01	 2.3745841833e+00
 1.6859285958e+00	 4.3513247606e-01	 2.3063492979e+00
 1.6819073033e+00	 4.5042571529e-01	 2.2372987055e+00
 1.7213124882e+00	 2.9882746010e-01	 2.8231699331e+00
 1.7185942420e+00	 3.1408337143e-01	 2.7774375206e+00
 1.7157326829e+00	 3.2935678804e-01	 2.7278399571e+00
 1.7127269962e+00	 3.4464586090e-01	 2.6746246795e+00
 1.7095763962e+00	 3.5994871654e-01	 2.6180755431e+00
 1.7062801266e+00	 3.7526345755e-01	 2.5585115883e+00
 1.7028374613e+00	 3.9058816309e-01	 2.4962859327e+00
 1.6992477054e+00	 4.0592088941e-01	 2.4317848149e+00
 1.6955101955e+00	 4.2125967040e-01	 2.3654268107e+00
 1.6916243005e+00	 4.3660251821e-01	 2.2976622436e+00
 1.6875894225e+00	 4.5194742379e-01	 2.2289728103e+00
 1.7271081531e+00	 2.9983361316e-01	 2.8080237705e+00
 1.7243807546e+00	 3.1514089120e-01	 2.7627890645e+00
 1.7215095606e+00	 3.3046573346e-01	 2.7138118540e+00
 1.7184937537e+00	 3.4580628467e-01	 2.6613089739e+00
 1.7153325457e+00	 3.6116066508e-01	 2.6055335807e+00
 1.7120251775e+00	 3.7652697087e-01	 2.5467738937e+00
 1.7085709208e+00	 3.9190327475e-01	 2.4853520693e+00
 1.7049690782e+00	 4.0728762641e-01	 2.4216232351e+00
 1.7012189840e+00	 4.2267805313e-01	 2.3559747042e+00
 1.6973200052e+00	 4.3807256035e-01	 2.2888253947e+00
 1.6932715418e+00	 4.5346913228e-01	 2.2206254718e+00
 1.7329038181e+00	 3.0083976623e-01	 2.7915451402e+00
 1.7301672672e+00	 3.1619841097e-01	 2.7468500969e+00
 1.7272864383e+00	 3.3157467887e-01	 2.6985703052e+00
 1.7242605113e+00	 3.4696670845e-01	 2.6468857345e+00
 1.7210886951e+00	 3.6237261362e-01	 2.5920125639e+00
 1.7177702284e+00	 3.7779048420e-01	 2.5342019046e+00
 1.7143043803e+00	 3.9321838641e-01	 2.4737386645e+00
 1.7106904509e+00	 4.0865436341e-01	 2.4109405795e+00
 1.7069277726e+00	 4.2409643586e-01	 2.3461574345e+00
 1.7030157099e+00	 4.3954260250e-01	 2.2797704990e+00
 1.6989536611e+00	 4.5499084078e-01	 2.2121921964e+00
 1.7386994830e+00	 3.0184591929e-01	 2.7736948953e+00
 1.7359537798e+00	 3.1725593074e-01	 2.7295736801e+00
 1.7330633160e+00	 3.3268362429e-01	 2.6820615787e+00
 1.7300272689e+00	 3.4812713222e-01	 2.6312955061e+00
 1.7268448446e+00	 3.6358456216e-01	 2.5774484594e+00
 1.7235152794e+00	 3.7905399752e-01	 2.5207282285e+00
 1.7200378397e+00	 3.9453349807e-01	 2.4613762573e+00
 1.7164118237e+00	 4.1002110041e-01	 2.3996666798e+00
 1.7126365611e+00	 4.2551481859e-01	 2.3359055566e+00
 1.7087114146e+00	 4.4101264465e-01	 2.2704303345e+00
 1.7046357803e+00	 4.5651254928e-01	 2.2036095514e+00
 1.6478145876e+00	 4.4129546430e-01	 2.2905474110e+00
 1.6437287854e+00	 4.5627873299e-01	 2.2178592771e+00
 1.6394964434e+00	 4.7126002806e-01	 2.1383663278e+00
 1.6351170788e+00	 4.8623732961e-01	 2.0534224713e+00
 1.6305902434e+00	 5.0120859963e-01	 1.9644300777e+00
 1.6259155245e+00	 5.1617178274e-01	 1.8728400093e+00
 1.6210925457e+00	 5.3112480690e-01	 1.7801518419e+00
 1.6161209670e+00	 5.4606558416e-01	 1.6879142805e+00
 1.6110004858e+00	 5.6099201140e-01	 1.5977257727e+00
 1.6057308373e+00	 5.7590197114e-01	 1.5112353180e+00
 1.6003117948e+00	 5.9079333236e-01	 1.4299766309e+00
 1.6534967069e+00	 4.4281717280e-01	 2.2809372289e+00
 1.6493968157e+00	 4.5785210793e-01	 2.2079873824e+00
 1.6451498794e+00	 4.7288506264e-01	 2.1283381379e+00
 1.6407554136e+00	 4.8791401005e-01	 2.0433425257e+00
 1.6362129683e+00	 5.0293690514e-01	 1.9544021437e+00
 1.6315221297e+00	 5.1795168544e-01	 1.8629672108e+00
 1.6266825199e+00	 5.3295627175e-01	 1.7705368218e+00
 1.6216937979e+00	 5.4794856893e-01	 1.6786594066e+00
 1.6165556599e+00	 5.6292646661e-01	 1.5889333962e+00
 1.6112678401e+00	 5.7788784001e-01	 1.5030080959e+00
 1.6058301113e+00	 5.9283055075e-01	 1.4220657946e+00
 1.6591788262e+00	 4.4433888130e-01	 2.2717144792e+00
 1.6550648460e+00	 4.5942548287e-01	 2.1985805990e+00
 1.6508033155e+00	 4.7451009722e-01	 2.1188281912e+00
 1.6463937483e+00	 4.8959069050e-01	 2.0338122048e+00
 1.6418356933e+00	 5.0466521066e-01	 1.9449361532e+00
 1.6371287350e+00	 5.1973158814e-01	 1.8536521880e+00
 1.6322724942e+00	 5.3478773660e-01	 1.7614613817e+00
 1.6272666288e+00	 5.4983155370e-01	 1.6699142262e+00
 1.6221108340e+00	 5.6486092182e-01	 1.5806113483e+00
 1.6168048430e+00	 5.7987370888e-01	 1.4952044424e+00
 1.6113484278e+00	 5.9486776914e-01	 1.4143565889e+00
 1.6648609454e+00	 4.4586058980e-01	 2.2628084377e+00
 1.6607328763e+00	 4.6099885781e-01	 2.1895722438e+00
 1.6564567515e+00	 4.7613513180e-01	 2.1097729532e+00
 1.6520320831e+00	 4.9126737095e-01	 2.0247701956e+00
 1.6474584183e+00	 5.0639351617e-01	 1.9359720549e+00
 1.6427353403e+00	 5.2151149083e-01	 1.8448351562e+00
 1.6378624685e+00	 5.3661920145e-01	 1.7528649738e+00
 1.6328394597e+00	 5.5171453848e-01	 1.6616163638e+00
 1.6276660081e+00	 5.6679537703e-01	 1.5726943251e+00
 1.6223418459e+00	 5.8185957774e-01	 1.4877549884e+00
 1.6168667444e+00	 5.9690498753e-01	 1.4067968580e+00
 1.6705430647e+00	 4.4738229829e-01	 2.2541494034e+00
 1.6664009066e+00	 4.6257223275e-01	 2.1808966770e+00
 1.6621101875e+00	 4.7776016638e-01	 2.1011099688e+00
 1.6576704178e+00	 4.9294405139e-01	 2.0161563194e+00
 1.6530811433e+00	 5.0812182169e-01	 1.9274510036e+00
 1.6483419455e+00	 5.2329139353e-01	 1.8364576277e+00
 1.6434524428e+00	 5.3845066631e-01	 1.7446884566e+00
 1.6384122907e+00	 5.5359752325e-01	 1.6537049777e+00
 1.6332211821e+00	 5.6872983224e-01	 1.5651187032e+00
 1.6278788488e+00	 5.8384544661e-01	 1.4805922112e+00
 1.6223850609e+00	 5.9894220591e-01	 1.3993361664e+00
 1.6762251840e+00	 4.4890400679e-01	 2.2456687049e+00
 1.6720689369e+00	 4.6414560769e-01	 2.1724893090e+00
 1.6677636235e+00	 4.7938520096e-01	 2.0927778722e+00
 1.6633087526e+00	 4.9462073184e-01	 2.0079115423e+00
 1.6587038682e+00	 5.0985012721e-01	 1.9193153730e+00
 1.6539485508e+00	 5.2507129623e-01	 1.8284624249e+00
 1.6490424171e+00	 5.4028213116e-01	 1.7368741086e+00
 1.6439851216e+00	 5.5548050802e-01	 1.6461207749e+00
 1.6387763562e+00	 5.7066428746e-01	 1.5578225547e+00
 1.6334158517e+00	 5.8583131547e-01	 1.4736504494e+00
 1.6279033774e+00	 6.0097942430e-01	 1.3919257702e+00
 1.6819073033e+00	 4.5042571529e-01	 2.2372987055e+00
 1.6777369672e+00	 4.6571898264e-01	 2.1642866087e+00
 1.6734170595e+00	 4.8101023554e-01	 2.0847163957e+00
 1.6689470873e+00	 4.9629741229e-01	 1.9999779864e+00
 1.6643265932e+00	 5.1157843272e-01	 1.9115087674e+00
 1.6595551560e+00	 5.2685119893e-01	 1.8207936937e+00
 1.6546323914e+00	 5.4211359601e-01	 1.7293656423e+00
 1.6495579525e+00	 5.5736349279e-01	 1.6388060248e+00
 1.6443315303e+00	 5.7259874267e-01	 1.5507456618e+00
 1.6389528546e+00	 5.8781718434e-01	 1.4668659178e+00
 1.6334216940e+00	 6.0301664269e-01	 1.3845185884e+00
 1.6875894225e+00	 4.5194742379e-01	 2.2289728103e+00
 1.6834049974e+00	 4.6729235758e-01	 2.1562261116e+00
 1.6790704955e+00	 4.8263527012e-01	 2.0768663803e+00
 1.6745854221e+00	 4.9797409273e-01	 1.9922989406e+00
 1.6699493182e+00	 5.1330673824e-01	 1.9039760342e+00
 1.6651617613e+00	 5.2863110163e-01	 1.8133969167e+00
 1.6602223657e+00	 5.4394506086e-01	 1.7221082184e+00
 1.6551307834e+00	 5.5924647757e-01	 1.6317045751e+00
 1.6498867044e+00	 5.7453319788e-01	 1.5438295321e+00
 1.6444898575e+00	 5.8980305321e-01	 1.4601303840e+00
 1.6389400105e+00	 6.0505386108e-01	 1.3770691743e+00
 1.6932715418e+00	 4.5346913228e-01	 2.2206254718e+00
 1.6890730277e+00	 4.6886573252e-01	 2.1482464273e+00
 1.6847239315e+00	 4.8426030470e-01	 2.0691697844e+00
 1.6802237568e+00	 4.9965077318e-01	 1.9848188720e+00
 1.6755720432e+00	 5.1503504375e-01	 1.8966632761e+00
 1.6707683665e+00	 5.3041100433e-01	 1.8062189266e+00
 1.6658123400e+00	 5.4577652571e-01	 1.7150484601e+00
 1.6607036143e+00	 5.6112946234e-01	 1.6247618653e+00
 1.6554418785e+00	 5.7646765309e-01	 1.5370174137e+00
 1.6500268604e+00	 5.9178892207e-01	 1.4532957675e+00
 1.6444583270e+00	 6.0709107946e-01	 1.3695336876e+00
 1.6989536611e+00	 4.5499084078e-01	 2.2121921964e+00
 1.6947410580e+00	 4.7043910746e-01	 2.1402872484e+00
 1.6903773675e+00	 4.8588533928e-01	 2.0615696942e+00
 1.6858620916e+00	 5.0132745363e-01	 1.9774834370e+00
 1.6811947682e+00	 5.1676334927e-01	 1.8895178639e+00
 1.6763749718e+00	 5.3219090703e-01	 1.7992079196e+00
 1.6714023143e+00	 5.4760799056e-01	 1.7081344670e+00
 1.6662764453e+00	 5.6301244711e-01	 1.6179249426e+00
 1.6609970526e+00	 5.7840210830e-01	 1.5302543103e+00
 1.6555638632e+00	 5.9377479094e-01	 1.4463208550e+00
 1.6499766436e+00	 6.0912829785e-01	 1.3618698657e+00
 1.7046357803e+00	 4.5651254928e-01	 2.2036095514e+00
 1.7004090883e+00	 4.7201248240e-01	 2.1322893581e+00
 1.6960308036e+00	 4.8751037386e-01	 2.0540103336e+00
 1.6915004263e+00	 5.0300413408e-01	 1.9702394925e+00
 1.6868174931e+00	 5.1849165479e-01	 1.8824884486e+00
 1.6819815771e+00	 5.3397080973e-01	 1.7923134693e+00
 1.6769922886e+00	 5.4943945541e-01	 1.7013158300e+00
 1.6718492762e+00	 5.6489543189e-01	 1.6111424763e+00
 1.6665522267e+00	 5.8033656351e-01	 1.5234869967e+00
 1.6611008661e+00	 5.9576065981e-01	 1.4391693867e+00
 1.6554949601e+00	 6.1116551624e-01	 1.3540369963e+00
 1.6003117948e+00	 5.9079333236e-01	 1.4299766309e+00
 1.5947431706e+00	 6.0566395128e-01	 1.3488179650e+00
 1.5890248163e+00	 6.2051167221e-01	 1.2651060991e+00
 1.5831566231e+00	 6.3533432847e-01	 1.1791718793e+00
 1.5771385225e+00	 6.5012974320e-01	 1.0912829661e+00
 1.5709704866e+00	 6.6489573029e-01	 1.0016426776e+00
 1.5646525287e+00	 6.7963009530e-01	 9.1038914732e-01
 1.5581847033e+00	 6.9433063636e-01	 8.1759482134e-01
 1.5515671066e+00	 7.0899514514e-01	 7.2326631553e-01
 1.5447998771e+00	 7.2362140783e-01	 6.2734465516e-01
 1.5378831955e+00	 7.3820720606e-01	 5.2970591636e-01
 1.6058301113e+00	 5.9283055075e-01	 1.4220657946e+00
 1.6002422850e+00	 6.0775244766e-01	 1.3402725681e+00
 1.5945042122e+00	 6.2265136763e-01	 1.2560845333e+00
 1.5886157838e+00	 6.3752513650e-01	 1.1698232811e+00
 1.5825769312e+00	 6.5237156990e-01	 1.0817461476e+00
 1.5763876263e+00	 6.6718847419e-01	 9.9204501582e-01
 1.5700478823e+00	 6.8197364735e-01	 9.0084543694e-01
 1.5635577540e+00	 6.9672487993e-01	 8.0820609612e-01
 1.5569173380e+00	 7.1143995599e-01	 7.1411864422e-01
 1.5501267732e+00	 7.2611665407e-01	 6.1850791798e-01
 1.5431862410e+00	 7.4075274815e-01	 5.2123256915e-01
 1.6113484278e+00	 5.9486776914e-01	 1.4143565889e+00
 1.6057413994e+00	 6.0984094404e-01	 1.3319716129e+00
 1.5999836081e+00	 6.2479106305e-01	 1.2473466483e+00
 1.5940749446e+00	 6.3971594453e-01	 1.1607937893e+00
 1.5880153399e+00	 6.5461339660e-01	 1.0725598989e+00
 1.5818047659e+00	 6.6948121809e-01	 9.8282536931e-01
 1.5754432358e+00	 6.8431719940e-01	 8.9170320642e-01
 1.5689308047e+00	 6.9911912350e-01	 7.9923846366e-01
 1.5622675694e+00	 7.1388476684e-01	 7.0540804774e-01
 1.5554536693e+00	 7.2861190030e-01	 6.1012091896e-01
 1.5484892865e+00	 7.4329829024e-01	 5.1321870741e-01
 1.6168667444e+00	 5.9690498753e-01	 1.4067968580e+00
 1.6112405138e+00	 6.1192944043e-01	 1.3238579333e+00
 1.6054630040e+00	 6.2693075848e-01	 1.2388312244e+00
 1.5995341054e+00	 6.4190675256e-01	 1.1520191003e+00
 1.5934537486e+00	 6.5685522330e-01	 1.0636578152e+00
 1.5872219055e+00	 6.7177396199e-01	 9.7391622626e-01
 1.5808385894e+00	 6.8666075146e-01	 8.8289484208e-01
 1.5743038554e+00	 7.0151336708e-01	 7.9062522356e-01
 1.5676178008e+00	 7.1632957768e-01	 6.9706976321e-01
 1.5607805655e+00	 7.3110714654e-01	 6.0212186515e-01
 1.5537923320e+00	 7.4584383233e-01	 5.0560654766e-01
 1.6223850609e+00	 5.9894220591e-01	 1.3993361664e+00
 1.6167396281e+00	 6.1401793681e-01	 1.3158761426e+00
 1.6109423999e+00	 6.2907045390e-01	 1.2304788655e+00
 1.6049932661e+00	 6.4409756059e-01	 1.1434367642e+00
 1.5988921573e+00	 6.5909705001e-01	 1.0549753602e+00
 1.5926390451e+00	 6.7406670588e-01	 9.6525194402e-01
 1.5862339429e+00	 6.8900430351e-01	 8.7435458574e-01
 1.5796769061e+00	 7.0390761065e-01	 7.8230150313e-01
 1.5729680322e+00	 7.1877438853e-01	 6.8904081385e-01
 1.5661074616e+00	 7.3360239277e-01	 5.9445069432e-01
 1.5590953775e+00	 7.4838937442e-01	 4.9833996810e-01
 1.6279033774e+00	 6.0097942430e-01	 1.3919257702e+00
 1.6222387425e+00	 6.1610643319e-01	 1.3079726024e+00
 1.6164217959e+00	 6.3121014932e-01	 1.2222319664e+00
 1.6104524269e+00	 6.4628836862e-01	 1.1349861495e+00
 1.6043305660e+00	 6.6133887671e-01	 1.0464498298e+00
 1.5980561847e+00	 6.7635944978e-01	 9.5676871148e-01
 1.5916292965e+00	 6.9134785556e-01	 8.6601849612e-01
 1.5850499568e+00	 7.0630185423e-01	 7.7420421819e-01
 1.5783182636e+00	 7.2121919937e-01	 6.8125996919e-01
 1.5714343577e+00	 7.3609763900e-01	 5.8704903486e-01
 1.5643984230e+00	 7.5093491651e-01	 4.9136446864e-01
 1.6334216940e+00	 6.0301664269e-01	 1.3845185884e+00
 1.6277378569e+00	 6.1819492958e-01	 1.3000953921e+00
 1.6219011918e+00	 6.3334984474e-01	 1.2140346798e+00
 1.6159115877e+00	 6.4847917665e-01	 1.1266084086e+00
 1.6097689747e+00	 6.6358070341e-01	 1.0380203161e+00
 1.6034733243e+00	 6.7865219368e-01	 9.4840451184e-01
 1.5970246500e+00	 6.9369140762e-01	 8.5782441068e-01
 1.5904230075e+00	 7.0869609780e-01	 7.6627203402e-01
 1.5836684950e+00	 7.2366401022e-01	 6.7366770559e-01
 1.5767612538e+00	 7.3859288524e-01	 5.7986016613e-01
 1.5697014685e+00	 7.5348045860e-01	 4.8462713113e-01
 1.6389400105e+00	 6.0505386108e-01	 1.3770691743e+00
 1.6332369713e+00	 6.2028342596e-01	 1.2921942779e+00
 1.6273805877e+00	 6.3548954016e-01	 1.2058328836e+00
 1.6213707484e+00	 6.5066998468e-01	 1.1182464441e+00
 1.6152073834e+00	 6.6582253011e-01	 1.0296276716e+00
 1.6088904639e+00	 6.8094493758e-01	 9.4009908569e-01
 1.6024200036e+00	 6.9603495967e-01	 8.4971190759e-01
 1.5957960582e+00	 7.1109034137e-01	 7.5844532668e-01
 1.5890187264e+00	 7.2610882106e-01	 6.6620616702e-01
 1.5820881500e+00	 7.4108813147e-01	 5.7282897892e-01
 1.5750045140e+00	 7.5602600069e-01	 4.7807657990e-01
 1.6444583270e+00	 6.0709107946e-01	 1.3695336876e+00
 1.6387360857e+00	 6.2237192234e-01	 1.2842206827e+00
 1.6328599836e+00	 6.3762923558e-01	 1.1975741489e+00
 1.6268299092e+00	 6.5286079271e-01	 1.1098448742e+00
 1.6206457921e+00	 6.6806435681e-01	 1.0212144737e+00
 1.6143076035e+00	 6.8323768147e-01	 9.3179389423e-01
 1.6078153571e+00	 6.9837851172e-01	 8.4162226810e-01
 1.6011691089e+00	 7.1348458495e-01	 7.5066614454e-01
 1.5943689578e+00	 7.2855363191e-01	 6.5881912614e-01
 1.5874150461e+00	 7.4358337770e-01	 5.6590193623e-01
 1.5803075595e+00	 7.5857154278e-01	 4.7166294245e-01
 1.6499766436e+00	 6.0912829785e-01	 1.3618698657e+00
 1.6442352000e+00	 6.2446041873e-01	 1.2761276556e+00
 1.6383393795e+00	 6.3976893100e-01	 1.1892077078e+00
 1.6322890700e+00	 6.5505160074e-01	 1.1013499991e+00
 1.6260842008e+00	 6.7030618351e-01	 1.0127249896e+00
 1.6197247431e+00	 6.8553042537e-01	 9.2343208289e-01
 1.6132107106e+00	 7.0072206377e-01	 8.3349843907e-01
 1.6065421596e+00	 7.1587882852e-01	 7.4287817015e-01
 1.5997191892e+00	 7.3099844275e-01	 6.5145194552e-01
 1.5927419422e+00	 7.4607862394e-01	 5.5902703430e-01
 1.5856106050e+00	 7.6111708487e-01	 4.6533781045e-01
 1.6554949601e+00	 6.1116551624e-01	 1.3540369963e+00
 1.6497343144e+00	 6.2654891511e-01	 1.2678698419e+00
 1.6438187755e+00	 6.4190862643e-01	 1.1806844213e+00
 1.6377482308e+00	 6.5724240876e-01	 1.0927097675e+00
 1.6315226095e+00	 6.7254801021e-01	 1.0041051412e+00
 1.6251418827e+00	 6.8782316927e-01	 9.1495844508e-01
 1.6186060642e+00	 7.0306561583e-01	 8.2528499580e-01
 1.6119152103e+00	 7.1827307209e-01	 7.3502668227e-01
 1.6050694206e+00	 7.3344325360e-01	 6.4405153927e-01
 1.5980688384e+00	 7.4857387017e-01	 5.5215376387e-01
 1.5909136505e+00	 7.6366262696e-01	 4.5905420098e-01
 1.5378831955e+00	 7.3820720606e-01	 5.2970591636e-01
 1.5308172853e+00	 7.5275031793e-01	 4.3391977481e-01
 1.5236024128e+00	 7.6724851899e-01	 3.4326378210e-01
 1.5162388874e+00	 7.8169958326e-01	 2.5707638757e-01
 1.5087270619e+00	 7.9610128425e-01	 1.7462995672e-01
 1.5010673325e+00	 8.1045139599e-01	 9.5134117438e-02
 1.4932601392e+00	 8.2474769406e-01	 1.7739608897e-02
 1.4853059653e+00	 8.3898795667e-01	-5.8457360313e-02
 1.4772053384e+00	 8.5316996569e-01	-1.3441024110e-01
 1.4689588295e+00	 8.6729150769e-01	-2.1111675876e-01
 1.4605670537e+00	 8.8135037506e-01	-2.8961301566e-01
 1.5431862410e+00	 7.4075274815e-01	 5.2123256915e-01
 1.5360959656e+00	 7.5534600868e-01	 4.2582670444e-01
 1.5288562142e+00	 7.6989420354e-01	 3.3554164175e-01
 1.5214672973e+00	 7.8439509906e-01	 2.4971036689e-01
 1.5139295690e+00	 7.9884646109e-01	 1.6759829979e-01
 1.5062434268e+00	 8.1324605597e-01	 8.8406648445e-02
 1.4984093121e+00	 8.2759165163e-01	 1.1276275693e-02
 1.4904277100e+00	 8.4188101859e-01	-6.4707914282e-02
 1.4822991499e+00	 8.5611193109e-01	-1.4051206560e-01
 1.4740242048e+00	 8.7028216806e-01	-2.1714793510e-01
 1.4656034919e+00	 8.8438951428e-01	-2.9566693309e-01
 1.5484892865e+00	 7.4329829024e-01	 5.1321870741e-01
 1.5413746459e+00	 7.5794169943e-01	 4.1819858670e-01
 1.5341100156e+00	 7.7253988809e-01	 3.2828426418e-01
 1.5266957073e+00	 7.8709061487e-01	 2.4280369933e-01
 1.5191320761e+00	 8.0159163793e-01	 1.6101578330e-01
 1.5114195210e+00	 8.1604071596e-01	 8.2113698944e-02
 1.5035584850e+00	 8.3043560919e-01	 5.2288040254e-03
 1.4955494547e+00	 8.4477408051e-01	-7.0564955208e-02
 1.4873929614e+00	 8.5905389649e-01	-1.4624609554e-01
 1.4790895800e+00	 8.7327282843e-01	-2.2284011170e-01
 1.4706399300e+00	 8.8742865351e-01	-3.0141345588e-01
 1.5537923320e+00	 7.4584383233e-01	 5.0560654766e-01
 1.5466533262e+00	 7.6053739019e-01	 4.1098219551e-01
 1.5393638170e+00	 7.7518557263e-01	 3.2144303582e-01
 1.5319241173e+00	 7.8978613067e-01	 2.3631244275e-01
 1.5243345832e+00	 8.0433681477e-01	 1.5484319872e-01
 1.5165956153e+00	 8.1883537594e-01	 7.6220858968e-02
 1.5087076578e+00	 8.3327956676e-01	-4.3235037571e-04
 1.5006711994e+00	 8.4766714243e-01	-7.6053092977e-02
 1.4924867729e+00	 8.6199586189e-01	-1.5163193684e-01
 1.4841549553e+00	 8.7626348880e-01	-2.2820782067e-01
 1.4756763681e+00	 8.9046779273e-01	-3.0686197298e-01
 1.5590953775e+00	 7.4838937442e-01	 4.9833996810e-01
 1.5519320065e+00	 7.6313308094e-01	 4.0412589092e-01
 1.5446176185e+00	 7.7783125718e-01	 3.1497085399e-01
 1.5371525272e+00	 7.9248164648e-01	 2.3019409117e-01
 1.5295370903e+00	 8.0708199162e-01	 1.4904269972e-01
 1.5217717095e+00	 8.2163003593e-01	 7.0695007739e-02
 1.5138568307e+00	 8.3612352432e-01	-5.7355144970e-03
 1.5057929442e+00	 8.5056020435e-01	-8.1195790814e-02
 1.4975805844e+00	 8.6493782728e-01	-1.5668811792e-01
 1.4892203306e+00	 8.7925414918e-01	-2.3326458420e-01
 1.4807128062e+00	 8.9350693196e-01	-3.1202092922e-01
 1.5643984230e+00	 7.5093491651e-01	 4.9136446864e-01
 1.5572106868e+00	 7.6572877169e-01	 3.9757957921e-01
 1.5498714199e+00	 7.8047694173e-01	 3.0882208719e-01
 1.5423809372e+00	 7.9517716228e-01	 2.2440753530e-01
 1.5347395974e+00	 8.0982716846e-01	 1.4357776298e-01
 1.5269478038e+00	 8.2442469592e-01	 6.5504274728e-02
 1.5190060036e+00	 8.3896748189e-01	-1.0707836684e-02
 1.5109146889e+00	 8.5345326627e-01	-8.6015403595e-02
 1.5026743959e+00	 8.6787979268e-01	-1.6143212765e-01
 1.4942857059e+00	 8.8224480955e-01	-2.3802295207e-01
 1.4857492443e+00	 8.9654607118e-01	-3.1689786239e-01
 1.5697014685e+00	 7.5348045860e-01	 4.8462713113e-01
 1.5624893671e+00	 7.6832446244e-01	 3.9129467334e-01
 1.5551252213e+00	 7.8312262628e-01	 3.0295253564e-01
 1.5476093471e+00	 7.9787267808e-01	 2.1891302333e-01
 1.5399421046e+00	 8.1257234530e-01	 1.3841314914e-01
 1.5321238980e+00	 8.2721935590e-01	 6.0618000879e-02
 1.5241551765e+00	 8.4181143946e-01	-1.5375325139e-02
 1.5160364336e+00	 8.5634632819e-01	-9.0533216026e-02
 1.5077682074e+00	 8.7082175808e-01	-1.6588045319e-01
 1.4993510811e+00	 8.8523546992e-01	-2.4249453915e-01
 1.4907856824e+00	 8.9958521040e-01	-3.2149944031e-01
 1.5750045140e+00	 7.5602600069e-01	 4.7807657990e-01
 1.5677680473e+00	 7.7092015319e-01	 3.8522405350e-01
 1.5603790227e+00	 7.8576831083e-01	 2.9731939213e-01
 1.5528377571e+00	 8.0056819389e-01	 2.1367212186e-01
 1.5451446117e+00	 8.1531752214e-01	 1.3351486395e-01
 1.5372999923e+00	 8.3001401589e-01	 5.6006699985e-02
 1.5293043494e+00	 8.4465539702e-01	-1.9762886270e-02
 1.5211581783e+00	 8.5923939011e-01	-9.4769480703e-02
 1.5128620190e+00	 8.7376372348e-01	-1.7004861774e-01
 1.5044164564e+00	 8.8822613029e-01	-2.4669006275e-01
 1.4958221206e+00	 9.0262434963e-01	-3.2583149781e-01
 1.5803075595e+00	 7.5857154278e-01	 4.7166294245e-01
 1.5730467276e+00	 7.7351584394e-01	 3.7932202803e-01
 1.5656328242e+00	 7.8841399538e-01	 2.9188120290e-01
 1.5580661670e+00	 8.0326370969e-01	 2.0864767698e-01
 1.5503471188e+00	 8.1806269899e-01	 1.2885011961e-01
 1.5424760865e+00	 8.3280867587e-01	 5.1642020229e-02
 1.5344535223e+00	 8.4749935459e-01	-2.3894362908e-02
 1.5262799230e+00	 8.6213245203e-01	-9.8743456046e-02
 1.5179558305e+00	 8.7670568888e-01	-1.7395121812e-01
 1.5094818317e+00	 8.9121679066e-01	-2.5061937991e-01
 1.5008585587e+00	 9.0566348885e-01	-3.2989907364e-01
 1.5856106050e+00	 7.6111708487e-01	 4.6533781045e-01
 1.5783254079e+00	 7.7611153469e-01	 3.7354429441e-01
 1.5708866256e+00	 7.9105967992e-01	 2.8659782886e-01
 1.5632945770e+00	 8.0595922550e-01	 2.0380377569e-01
 1.5555496259e+00	 8.2080787583e-01	 1.2438729625e-01
 1.5476521808e+00	 8.3560333586e-01	 4.7496705878e-02
 1.5396026952e+00	 8.5034331215e-01	-2.7792572389e-02
 1.5314016677e+00	 8.6502551395e-01	-1.0247344412e-01
 1.5230496420e+00	 8.7964765428e-01	-1.7760196233e-01
 1.5145472070e+00	 8.9420745103e-01	-2.5429152460e-01
 1.5058949968e+00	 9.0870262808e-01	-3.3370644731e-01
 1.5909136505e+00	 7.6366262696e-01	 4.5905420098e-01
 1.5836040882e+00	 7.7870722545e-01	 3.6784790060e-01
 1.5761404270e+00	 7.9370536447e-01	 2.8143040700e-01
 1.5685229869e+00	 8.0865474130e-01	 1.9910570729e-01
 1.5607521330e+00	 8.2355305267e-01	 1.2009590357e-01
 1.5528282750e+00	 8.3839799585e-01	 4.3544559114e-02
 1.5447518681e+00	 8.5318726972e-01	-3.1479344492e-02
 1.5365234124e+00	 8.6791857587e-01	-1.0597682832e-01
 1.5281434535e+00	 8.8258961968e-01	-1.8101370699e-01
 1.5196125822e+00	 8.9719811140e-01	-2.5771474482e-01
 1.5109314349e+00	 9.1174176730e-01	-3.3725717586e-01
 1.4605670537e+00	 8.8135037506e-01	-2.8961301566e-01
 1.4520306700e+00	 8.9534436704e-01	-3.6588846361e-01
 1.4433503808e+00	 9.0927129080e-01	-4.3600048064e-01
 1.4345269327e+00	 9.2312896254e-01	-5.0111467169e-01
 1.4255611155e+00	 9.3691520852e-01	-5.6239358071e-01
 1.4164537628e+00	 9.5062786619e-01	-6.2098813030e-01
 1.4072057511e+00	 9.6426478522e-01	-6.7802864530e-01
 1.3978180004e+00	 9.7782382859e-01	-7.3461548521e-01
 1.3882914733e+00	 9.9130287367e-01	-7.9180931404e-01
 1.3786271749e+00	 1.0046998133e+00	-8.5062103903e-01
 1.3688261528e+00	 1.0180125567e+00	-9.1200145320e-01
 1.4656034919e+00	 8.8438951428e-01	-2.9566693309e-01
 1.4570376723e+00	 8.9843176141e-01	-3.7199093935e-01
 1.4483274511e+00	 9.1240670904e-01	-4.4209484970e-01
 1.4394735773e+00	 9.2631216586e-01	-5.0713788695e-01
 1.4304768435e+00	 9.4014595062e-01	-5.6827582352e-01
 1.4213380861e+00	 9.5390589332e-01	-6.2665232469e-01
 1.4120581848e+00	 9.6758983620e-01	-6.8338986604e-01
 1.4026380625e+00	 9.8119563489e-01	-7.3958025044e-01
 1.3930786852e+00	 9.9472115944e-01	-7.9627475312e-01
 1.3833810617e+00	 1.0081642954e+00	-8.5447392685e-01
 1.3735462430e+00	 1.0215229448e+00	-9.1511710241e-01
 1.4706399300e+00	 8.8742865351e-01	-3.0141345588e-01
 1.4620446746e+00	 9.0151915577e-01	-3.7781465618e-01
 1.4533045214e+00	 9.1554212729e-01	-4.4793056044e-01
 1.4444202219e+00	 9.2949536918e-01	-5.1291416589e-01
 1.4353925715e+00	 9.4337669272e-01	-5.7391473780e-01
 1.4262224094e+00	 9.5718392044e-01	-6.3206905608e-01
 1.4169106184e+00	 9.7091488719e-01	-6.8849222627e-01
 1.4074581246e+00	 9.8456744120e-01	-7.4426808019e-01
 1.3978658972e+00	 9.9813944521e-01	-8.0043919515e-01
 1.3881349485e+00	 1.0116287775e+00	-8.5799656396e-01
 1.3782663331e+00	 1.0250333329e+00	-9.1786895155e-01
 1.4756763681e+00	 8.9046779273e-01	-3.0686197298e-01
 1.4670516769e+00	 9.0460655014e-01	-3.8336416974e-01
 1.4582815917e+00	 9.1867754553e-01	-4.5350802363e-01
 1.4493668665e+00	 9.3267857250e-01	-5.1844046326e-01
 1.4403082995e+00	 9.4660743482e-01	-5.7930451159e-01
 1.4311067327e+00	 9.6046194757e-01	-6.3723043592e-01
 1.4217630520e+00	 9.7423993817e-01	-6.9332645192e-01
 1.4122781866e+00	 9.8793924751e-01	-7.4866900710e-01
 1.4026531092e+00	 1.0015577310e+00	-8.0429267300e-01
 1.3928888353e+00	 1.0150932596e+00	-8.6117967858e-01
 1.3829864233e+00	 1.0285437211e+00	-9.2024912105e-01
 1.4807128062e+00	 8.9350693196e-01	-3.1202092922e-01
 1.4720586792e+00	 9.0769394451e-01	-3.8864315024e-01
 1.4632586619e+00	 9.2181296378e-01	-4.5882681109e-01
 1.4543135111e+00	 9.3586177581e-01	-5.2371292889e-01
 1.4452240275e+00	 9.4983817692e-01	-5.8443854962e-01
 1.4359910561e+00	 9.6373997469e-01	-6.4212780143e-01
 1.4266154856e+00	 9.7756498915e-01	-6.9788249115e-01
 1.4170982487e+00	 9.9131105381e-01	-7.5277226989e-01
 1.4074403212e+00	 1.0049760168e+00	-8.0782439695e-01
 1.3976427221e+00	 1.0185577417e+00	-8.6401313511e-01
 1.3877065135e+00	 1.0320541092e+00	-9.2224881378e-01
 1.4857492443e+00	 8.9654607118e-01	-3.1689786239e-01
 1.4770656815e+00	 9.1078133888e-01	-3.9365441929e-01
 1.4682357322e+00	 9.2494838202e-01	-4.6388569222e-01
 1.4592601557e+00	 9.3904497913e-01	-5.2872694410e-01
 1.4501397555e+00	 9.5306891901e-01	-5.8930950973e-01
 1.4408753794e+00	 9.6701800182e-01	-6.4675175212e-01
 1.4314679193e+00	 9.8089004014e-01	-7.0214955125e-01
 1.4219183108e+00	 9.9468286012e-01	-7.5656635080e-01
 1.4122275331e+00	 1.0083943025e+00	-8.1102279272e-01
 1.4023966089e+00	 1.0220222238e+00	-8.6648597290e-01
 1.3924266037e+00	 1.0355644973e+00	-9.2385835465e-01
 1.4907856824e+00	 8.9958521040e-01	-3.2149944031e-01
 1.4820726838e+00	 9.1386873325e-01	-3.9839998650e-01
 1.4732128025e+00	 9.2808380027e-01	-4.6868267040e-01
 1.4642068003e+00	 9.4222818245e-01	-5.3347715813e-01
 1.4550554834e+00	 9.5629966111e-01	-5.9390933932e-01
 1.4457597027e+00	 9.7029602894e-01	-6.5109218654e-01
 1.4363203529e+00	 9.8421509112e-01	-7.0611613564e-01
 1.4267383729e+00	 9.9805466642e-01	-7.6003901298e-01
 1.4170147451e+00	 1.0118125883e+00	-8.1387553946e-01
 1.4071504957e+00	 1.0254867059e+00	-8.6858644490e-01
 1.3971466939e+00	 1.0390748854e+00	-9.2506723011e-01
 1.4958221206e+00	 9.0262434963e-01	-3.2583149781e-01
 1.4870796861e+00	 9.1695612762e-01	-4.0288108618e-01
 1.4781898728e+00	 9.3121921851e-01	-4.7321501950e-01
 1.4691534449e+00	 9.4541138577e-01	-5.3795752445e-01
 1.4599712114e+00	 9.5953040321e-01	-5.9822931179e-01
 1.4506440260e+00	 9.7357405607e-01	-6.5513833878e-01
 1.4411727865e+00	 9.8754014210e-01	-7.0977008074e-01
 1.4315584349e+00	 1.0014264727e+00	-7.6317733790e-01
 1.4218019571e+00	 1.0152308741e+00	-8.1636960769e-01
 1.4119043825e+00	 1.0289511881e+00	-8.7030205638e-01
 1.4018667840e+00	 1.0425852736e+00	-9.2586412774e-01
 1.5008585587e+00	 9.0566348885e-01	-3.2989907364e-01
 1.4920866884e+00	 9.2004352199e-01	-4.0709821391e-01
 1.4831669430e+00	 9.3435463675e-01	-4.7747932023e-01
 1.4741000894e+00	 9.4859458909e-01	-5.4216133710e-01
 1.4648869394e+00	 9.6276114531e-01	-6.0226006287e-01
 1.4555283493e+00	 9.7685208319e-01	-6.5887881511e-01
 1.4460252201e+00	 9.9086519309e-01	-7.1309859294e-01
 1.4363784970e+00	 1.0047982790e+00	-7.6596776267e-01
 1.4265891691e+00	 1.0186491598e+00	-8.1849129725e-01
 1.4166582694e+00	 1.0324156702e+00	-8.7161960351e-01
 1.4065868742e+00	 1.0460956617e+00	-9.2623697562e-01
 1.5058949968e+00	 9.0870262808e-01	-3.3370644731e-01
 1.4970936907e+00	 9.2313091636e-01	-4.1105116304e-01
 1.4881440133e+00	 9.3749005500e-01	-4.8147149650e-01
 1.4790467340e+00	 9.5177779241e-01	-5.4608126701e-01
 1.4698026674e+00	 9.6599188741e-01	-6.0599162706e-01
 1.4604126727e+00	 9.8013011031e-01	-6.6230163055e-01
 1.4508776538e+00	 9.9419024407e-01	-7.1608828542e-01
 1.4411985591e+00	 1.0081700853e+00	-7.6839611738e-01
 1.4313763811e+00	 1.0220674456e+00	-8.2022627515e-01
 1.4214121562e+00	 1.0358801523e+00	-8.7252521198e-01
 1.4113069644e+00	 1.0496060498e+00	-9.2617298173e-01
 1.5109314349e+00	 9.1174176730e-01	-3.3725717586e-01
 1.5021006931e+00	 9.2621831073e-01	-4.1473906123e-01
 1.4931210836e+00	 9.4062547324e-01	-4.8518685174e-01
 1.4839933786e+00	 9.5496099573e-01	-5.4970939824e-01
 1.4747183954e+00	 9.6922262951e-01	-6.0941347393e-01
 1.4652969960e+00	 9.8340813744e-01	-6.6539424538e-01
 1.4557300874e+00	 9.9751529505e-01	-7.1872521510e-01
 1.4460186211e+00	 1.0115418916e+00	-7.7044766241e-01
 1.4361635930e+00	 1.0254857314e+00	-8.2155961353e-01
 1.4261660430e+00	 1.0393446344e+00	-8.7300437553e-01
 1.4160270546e+00	 1.0531164379e+00	-9.2565867335e-01
 1.3688261528e+00	 1.0180125567e+00	-9.1200145320e-01
 1.3588894964e+00	 1.0312390308e+00	-9.7227172569e-01
 1.3488183368e+00	 1.0443771811e+00	-1.0275943679e+00
 1.3386138462e+00	 1.0574249726e+00	-1.0785702036e+00
 1.3282772377e+00	 1.0703803912e+00	-1.1257106441e+00
 1.3178097645e+00	 1.0832414443e+00	-1.1694267699e+00
 1.3072127198e+00	 1.0960061621e+00	-1.2100183694e+00
 1.2964874361e+00	 1.1086725982e+00	-1.2476629896e+00
 1.2856352847e+00	 1.1212388313e+00	-1.2824050529e+00
 1.2746576750e+00	 1.1337029653e+00	-1.3141450984e+00
 1.2635560541e+00	 1.1460631310e+00	-1.3426292051e+00
 1.3735462430e+00	 1.0215229448e+00	-9.1511710241e-01
 1.3635753223e+00	 1.0347950275e+00	-9.7458001630e-01
 1.3534694345e+00	 1.0479784817e+00	-1.0291181375e+00
 1.3432297560e+00	 1.0610712656e+00	-1.0793791904e+00
 1.3328575040e+00	 1.0740713581e+00	-1.1259235592e+00
 1.3223539361e+00	 1.0869767597e+00	-1.1692131204e+00
 1.3117203499e+00	 1.0997854937e+00	-1.2096000233e+00
 1.3009580824e+00	 1.1124956072e+00	-1.2473154714e+00
 1.2900685098e+00	 1.1251051721e+00	-1.2824585638e+00
 1.2790530463e+00	 1.1376122859e+00	-1.3149852519e+00
 1.2679131440e+00	 1.1500150728e+00	-1.3446974730e+00
 1.3782663331e+00	 1.0250333329e+00	-9.1786895155e-01
 1.3682611481e+00	 1.0383510241e+00	-9.7650445084e-01
 1.3581205322e+00	 1.0515797823e+00	-1.0302685591e+00
 1.3478456659e+00	 1.0647175587e+00	-1.0798557504e+00
 1.3374377703e+00	 1.0777623250e+00	-1.1258751698e+00
 1.3268981077e+00	 1.0907120750e+00	-1.1688392138e+00
 1.3162279799e+00	 1.1035648253e+00	-1.2091520494e+00
 1.3054287288e+00	 1.1163186162e+00	-1.2470981249e+00
 1.2945017349e+00	 1.1289715129e+00	-1.2828307312e+00
 1.2834484176e+00	 1.1415216065e+00	-1.3163606725e+00
 1.2722702338e+00	 1.1539670146e+00	-1.3475451066e+00
 1.3829864233e+00	 1.0285437211e+00	-9.2024912105e-01
 1.3729469740e+00	 1.0419070208e+00	-9.7803849993e-01
 1.3627716299e+00	 1.0551810830e+00	-1.0310396801e+00
 1.3524615757e+00	 1.0683638517e+00	-1.0799937494e+00
 1.3420180367e+00	 1.0814532918e+00	-1.1255584169e+00
 1.3314422793e+00	 1.0944473903e+00	-1.1682963399e+00
 1.3207356100e+00	 1.1073441568e+00	-1.2086633785e+00
 1.3098993751e+00	 1.1201416251e+00	-1.2469968326e+00
 1.2989349601e+00	 1.1328378537e+00	-1.2835037210e+00
 1.2878437889e+00	 1.1454309271e+00	-1.3182491619e+00
 1.2766273236e+00	 1.1579189565e+00	-1.3511449184e+00
 1.3877065135e+00	 1.0320541092e+00	-9.2224881378e-01
 1.3776327998e+00	 1.0454630174e+00	-9.7917466045e-01
 1.3674227277e+00	 1.0587823836e+00	-1.0314245260e+00
 1.3570774855e+00	 1.0720101447e+00	-1.0797859901e+00
 1.3465983030e+00	 1.0851442587e+00	-1.1249651448e+00
 1.3359864509e+00	 1.0981827056e+00	-1.1675746661e+00
 1.3252432401e+00	 1.1111234884e+00	-1.2081218004e+00
 1.3143700214e+00	 1.1239646341e+00	-1.2469963253e+00
 1.3033681852e+00	 1.1367041945e+00	-1.2844585432e+00
 1.2922391602e+00	 1.1493402476e+00	-1.3206273696e+00
 1.2809844135e+00	 1.1618708983e+00	-1.3554685796e+00
 1.3924266037e+00	 1.0355644973e+00	-9.2385835465e-01
 1.3823186257e+00	 1.0490190141e+00	-9.7990449600e-01
 1.3720738254e+00	 1.0623836842e+00	-1.0314151410e+00
 1.3616933953e+00	 1.0756564377e+00	-1.0792242534e+00
 1.3511785694e+00	 1.0888352256e+00	-1.1240861434e+00
 1.3405306225e+00	 1.1019180210e+00	-1.1666632795e+00
 1.3297508701e+00	 1.1149028200e+00	-1.2075140058e+00
 1.3188406678e+00	 1.1277876430e+00	-1.2470802227e+00
 1.3078014103e+00	 1.1405705353e+00	-1.2856750927e+00
 1.2966345315e+00	 1.1532495682e+00	-1.3234708326e+00
 1.2853415033e+00	 1.1658228401e+00	-1.3604866580e+00
 1.3971466939e+00	 1.0390748854e+00	-9.2506723011e-01
 1.3870044515e+00	 1.0525750107e+00	-9.8021867725e-01
 1.3767249231e+00	 1.0659849848e+00	-1.0310026291e+00
 1.3663093051e+00	 1.0793027307e+00	-1.0782993402e+00
 1.3557588357e+00	 1.0925261924e+00	-1.1229111890e+00
 1.3450747941e+00	 1.1056533363e+00	-1.1655502277e+00
 1.3342585002e+00	 1.1186821516e+00	-1.2068256272e+00
 1.3233113141e+00	 1.1316106520e+00	-1.2472310750e+00
 1.3122346354e+00	 1.1444368761e+00	-1.2871321897e+00
 1.3010299028e+00	 1.1571588888e+00	-1.3267540146e+00
 1.2896985932e+00	 1.1697747820e+00	-1.3661686573e+00
 1.4018667840e+00	 1.0425852736e+00	-9.2586412774e-01
 1.3916902774e+00	 1.0561310074e+00	-9.8010702223e-01
 1.3813760208e+00	 1.0695862855e+00	-1.0301771951e+00
 1.3709252149e+00	 1.0829490237e+00	-1.0770011124e+00
 1.3603391020e+00	 1.0962171593e+00	-1.1214290864e+00
 1.3496189657e+00	 1.1093886516e+00	-1.1642225610e+00
 1.3387661303e+00	 1.1224614832e+00	-1.2060412806e+00
 1.3277819604e+00	 1.1354336610e+00	-1.2474304030e+00
 1.3166678605e+00	 1.1483032169e+00	-1.2888076195e+00
 1.3054252741e+00	 1.1610682093e+00	-1.3304503462e+00
 1.2940556830e+00	 1.1737267238e+00	-1.3724830556e+00
 1.4065868742e+00	 1.0460956617e+00	-9.2623697562e-01
 1.3963761032e+00	 1.0596870041e+00	-9.7955853658e-01
 1.3860271185e+00	 1.0731875861e+00	-1.0289281852e+00
 1.3755411247e+00	 1.0865953167e+00	-1.0753185340e+00
 1.3649193684e+00	 1.0999081262e+00	-1.1196277101e+00
 1.3541631373e+00	 1.1131239669e+00	-1.1626663732e+00
 1.3432737603e+00	 1.1262408148e+00	-1.2051446064e+00
 1.3322526068e+00	 1.1392566699e+00	-1.2476587396e+00
 1.3211010857e+00	 1.1521695577e+00	-1.2906781732e+00
 1.3098206453e+00	 1.1649775299e+00	-1.3345322635e+00
 1.2984127728e+00	 1.1776786656e+00	-1.3793234969e+00
 1.4113069644e+00	 1.0496060498e+00	-9.2617298173e-01
 1.4010619291e+00	 1.0632430007e+00	-9.7856145366e-01
 1.3906782162e+00	 1.0767888867e+00	-1.0272441279e+00
 1.3801570346e+00	 1.0902416097e+00	-1.0732397123e+00
 1.3694996347e+00	 1.1035990930e+00	-1.1174940454e+00
 1.3587073089e+00	 1.1168592823e+00	-1.1608668435e+00
 1.3477813904e+00	 1.1300201464e+00	-1.2041183106e+00
 1.3367232531e+00	 1.1430796789e+00	-1.2478956702e+00
 1.3255343108e+00	 1.1560358985e+00	-1.2927196877e+00
 1.3142160166e+00	 1.1688868505e+00	-1.3389712485e+00
 1.3027698627e+00	 1.1816306075e+00	-1.3855305140e+00
 1.4160270546e+00	 1.0531164379e+00	-9.2565867335e-01
 1.4057477549e+00	 1.0667989974e+00	-9.7710327469e-01
 1.3953293139e+00	 1.0803901873e+00	-1.0251127746e+00
 1.3847729444e+00	 1.0938879027e+00	-1.0707519392e+00
 1.3740799010e+00	 1.1072900599e+00	-1.1150142299e+00
 1.3632514805e+00	 1.1205945976e+00	-1.1588082772e+00
 1.3522890205e+00	 1.1337994780e+00	-1.2029442060e+00
 1.3411938994e+00	 1.1469026878e+00	-1.2481198733e+00
 1.3299675359e+00	 1.1599022393e+00	-1.2949070859e+00
 1.3186113879e+00	 1.1727961710e+00	-1.3437378676e+00
 1.3071269525e+00	 1.1855825493e+00	-1.3906889826e+00
 1.2635560541e+00	 1.1460631310e+00	-1.3426292051e+00
 1.2523319061e+00	 1.1583174863e+00	-1.3767558622e+00
 1.2409867512e+00	 1.1704642179e+00	-1.4248297778e+00
 1.2295221455e+00	 1.1825015415e+00	-1.4836304239e+00
 1.2179396800e+00	 1.1944277031e+00	-1.5410908849e+00
 1.2062409797e+00	 1.2062409797e+00	-1.5944060436e+00
 1.1944277031e+00	 1.2179396800e+00	-1.6425644368e+00
 1.1825015415e+00	 1.2295221455e+00	-1.6845565146e+00
 1.1704642179e+00	 1.2409867512e+00	-1.7192437087e+00
 1.1583174863e+00	 1.2523319061e+00	-1.7446628292e+00
 1.1460631310e+00	 1.2635560541e+00	-1.7593820844e+00
 1.2679131440e+00	 1.1500150728e+00	-1.3446974730e+00
 1.2566502919e+00	 1.1623116846e+00	-1.3804856391e+00
 1.2452660159e+00	 1.1745003014e+00	-1.4306167835e+00
 1.2337618771e+00	 1.1865791330e+00	-1.4885943982e+00
 1.2221394720e+00	 1.1985464193e+00	-1.5439631556e+00
 1.2104004313e+00	 1.2104004313e+00	-1.5955277545e+00
 1.1985464193e+00	 1.2221394720e+00	-1.6422843316e+00
 1.1865791330e+00	 1.2337618771e+00	-1.6832302963e+00
 1.1745003014e+00	 1.2452660159e+00	-1.7173526320e+00
 1.1623116846e+00	 1.2566502919e+00	-1.7428181368e+00
 1.1500150728e+00	 1.2679131440e+00	-1.7579348338e+00
 1.2722702338e+00	 1.1539670146e+00	-1.3475451066e+00
 1.2609686778e+00	 1.1663058828e+00	-1.3852510755e+00
 1.2495452805e+00	 1.1785363849e+00	-1.4374782635e+00
 1.2380016086e+00	 1.1906567246e+00	-1.4934010483e+00
 1.2263392640e+00	 1.2026651356e+00	-1.5468400090e+00
 1.2145598830e+00	 1.2145598830e+00	-1.5968009389e+00
 1.2026651356e+00	 1.2263392640e+00	-1.6422863350e+00
 1.1906567246e+00	 1.2380016086e+00	-1.6822993662e+00
 1.1785363849e+00	 1.2495452805e+00	-1.7158478678e+00
 1.1663058828e+00	 1.2609686778e+00	-1.7414591526e+00
 1.1539670146e+00	 1.2722702338e+00	-1.7570685473e+00
 1.2766273236e+00	 1.1579189565e+00	-1.3511449184e+00
 1.2652870637e+00	 1.1703000810e+00	-1.3910198713e+00
 1.2538245452e+00	 1.1825724684e+00	-1.4441440643e+00
 1.2422413401e+00	 1.1947343161e+00	-1.4979895378e+00
 1.2305390560e+00	 1.2067838518e+00	-1.5496568148e+00
 1.2187193346e+00	 1.2187193346e+00	-1.5981574587e+00
 1.2067838518e+00	 1.2305390560e+00	-1.6424991011e+00
 1.1947343161e+00	 1.2422413401e+00	-1.6816894816e+00
 1.1825724684e+00	 1.2538245452e+00	-1.7147405181e+00
 1.1703000810e+00	 1.2652870637e+00	-1.7404810139e+00
 1.1579189565e+00	 1.2766273236e+00	-1.7566793063e+00
 1.2809844135e+00	 1.1618708983e+00	-1.3554685796e+00
 1.2696054496e+00	 1.1742942793e+00	-1.3977585959e+00
 1.2581038098e+00	 1.1866085520e+00	-1.4503654407e+00
 1.2464810717e+00	 1.1988119076e+00	-1.5023011548e+00
 1.2347388480e+00	 1.2109025680e+00	-1.5523511009e+00
 1.2228787863e+00	 1.2228787863e+00	-1.5995313645e+00
 1.2109025680e+00	 1.2347388480e+00	-1.6428534977e+00
 1.1988119076e+00	 1.2464810717e+00	-1.6813286349e+00
 1.1866085520e+00	 1.2581038098e+00	-1.7139716417e+00
 1.1742942793e+00	 1.2696054496e+00	-1.7397800599e+00
 1.1618708983e+00	 1.2809844135e+00	-1.7566643854e+00
 1.2853415033e+00	 1.1658228401e+00	-1.3604866580e+00
 1.2739238355e+00	 1.1782884775e+00	-1.4052653777e+00
 1.2623830745e+00	 1.1906446355e+00	-1.4560897711e+00
 1.2507208032e+00	 1.2028894991e+00	-1.5062792855e+00
 1.2389386400e+00	 1.2150212842e+00	-1.5548625272e+00
 1.2270382379e+00	 1.2270382379e+00	-1.6008588683e+00
 1.2150212842e+00	 1.2389386400e+00	-1.6432825799e+00
 1.2028894991e+00	 1.2507208032e+00	-1.6811470267e+00
 1.1906446355e+00	 1.2623830745e+00	-1.7134688988e+00
 1.1782884775e+00	 1.2739238355e+00	-1.7392724486e+00
 1.1658228401e+00	 1.2853415033e+00	-1.7569222821e+00
 1.2896985932e+00	 1.1697747820e+00	-1.3661686573e+00
 1.2782422214e+00	 1.1822826757e+00	-1.4122928173e+00
 1.2666623392e+00	 1.1946807190e+00	-1.4612664693e+00
 1.2549605348e+00	 1.2069670907e+00	-1.5098693886e+00
 1.2431384320e+00	 1.2191400004e+00	-1.5571328594e+00
 1.2311976896e+00	 1.2311976896e+00	-1.6020783176e+00
 1.2191400004e+00	 1.2431384320e+00	-1.6437215632e+00
 1.2069670907e+00	 1.2549605348e+00	-1.6810770390e+00
 1.1946807190e+00	 1.2666623392e+00	-1.7131621470e+00
 1.1822826757e+00	 1.2782422214e+00	-1.7390015734e+00
 1.1697747820e+00	 1.2896985932e+00	-1.7573527469e+00
 1.2940556830e+00	 1.1737267238e+00	-1.3724830556e+00
 1.2825606072e+00	 1.1862768739e+00	-1.4185571910e+00
 1.2709416038e+00	 1.1987168025e+00	-1.4658469594e+00
 1.2592002663e+00	 1.2110446822e+00	-1.5130189694e+00
 1.2473382240e+00	 1.2232587166e+00	-1.5591059429e+00
 1.2353571412e+00	 1.2353571412e+00	-1.6031301684e+00
 1.2232587166e+00	 1.2473382240e+00	-1.6441077972e+00
 1.2110446822e+00	 1.2592002663e+00	-1.6810532086e+00
 1.1987168025e+00	 1.2709416038e+00	-1.7129834156e+00
 1.1862768739e+00	 1.2825606072e+00	-1.7389224801e+00
 1.1737267238e+00	 1.2940556830e+00	-1.7578568137e+00
 1.2984127728e+00	 1.1776786656e+00	-1.3793234969e+00
 1.2868789931e+00	 1.1902710722e+00	-1.4240160329e+00
 1.2752208685e+00	 1.2027528860e+00	-1.4697846501e+00
 1.2634399978e+00	 1.2151222737e+00	-1.5156775539e+00
 1.2515380160e+00	 1.2273774329e+00	-1.5607276762e+00
 1.2395165929e+00	 1.2395165929e+00	-1.6039569590e+00
 1.2273774329e+00	 1.2515380160e+00	-1.6443807386e+00
 1.2151222737e+00	 1.2634399978e+00	-1.6810122005e+00
 1.2027528860e+00	 1.2752208685e+00	-1.7128668780e+00
 1.1902710722e+00	 1.2868789931e+00	-1.7389671618e+00
 1.1776786656e+00	 1.2984127728e+00	-1.7583467932e+00
 1.3027698627e+00	 1.1816306075e+00	-1.3855305140e+00
 1.2911973790e+00	 1.1942652704e+00	-1.4286287977e+00
 1.2795001331e+00	 1.2067889695e+00	-1.4730349094e+00
 1.2676797294e+00	 1.2191998652e+00	-1.5177966632e+00
 1.2557378080e+00	 1.2314961491e+00	-1.5619459851e+00
 1.2436760446e+00	 1.2436760446e+00	-1.6045032838e+00
 1.2314961491e+00	 1.2557378080e+00	-1.6444819249e+00
 1.2191998652e+00	 1.2676797294e+00	-1.6808927812e+00
 1.2067889695e+00	 1.2795001331e+00	-1.7127488258e+00
 1.1942652704e+00	 1.2911973790e+00	-1.7390697415e+00
 1.1816306075e+00	 1.3027698627e+00	-1.7588865109e+00
 1.3071269525e+00	 1.1855825493e+00	-1.3906889826e+00
 1.2955157649e+00	 1.1982594686e+00	-1.4323568357e+00
 1.2837793978e+00	 1.2108250530e+00	-1.4755550392e+00
 1.2719194609e+00	 1.2232774568e+00	-1.5193297874e+00
 1.2599376000e+00	 1.2356148653e+00	-1.5627107967e+00
 1.2478354962e+00	 1.2478354962e+00	-1.6047157664e+00
 1.2356148653e+00	 1.2599376000e+00	-1.6443549480e+00
 1.2232774568e+00	 1.2719194609e+00	-1.6806357920e+00
 1.2108250530e+00	 1.2837793978e+00	-1.7125676423e+00
 1.1982594686e+00	 1.2955157649e+00	-1.7391664456e+00
 1.1855825493e+00	 1.3071269525e+00	-1.7594594455e+00
 1.1460631310e+00	 1.2635560541e+00	-1.7593820844e+00
 1.1337029653e+00	 1.2746576750e+00	-1.7720419847e+00
 1.1212388313e+00	 1.2856352847e+00	-1.7910242544e+00
 1.1086725982e+00	 1.2964874361e+00	-1.8148466715e+00
 1.0960061621e+00	 1.3072127198e+00	-1.8421534847e+00
 1.0832414443e+00	 1.3178097645e+00	-1.8717112505e+00
 1.0703803912e+00	 1.3282772377e+00	-1.9024041281e+00
 1.0574249726e+00	 1.3386138462e+00	-1.9332286808e+00
 1.0443771811e+00	 1.3488183368e+00	-1.9632882293e+00
 1.0312390308e+00	 1.3588894964e+00	-1.9917868092e+00
 1.0180125567e+00	 1.3688261528e+00	-2.0180227820e+00
 1.1500150728e+00	 1.2679131440e+00	-1.7579348338e+00
 1.1376122859e+00	 1.2790530463e+00	-1.7712202621e+00
 1.1251051721e+00	 1.2900685098e+00	-1.7909128373e+00
 1.1124956072e+00	 1.3009580824e+00	-1.8154839457e+00
 1.0997854937e+00	 1.3117203499e+00	-1.8435328685e+00
 1.0869767597e+00	 1.3223539361e+00	-1.8737825335e+00
 1.0740713581e+00	 1.3328575040e+00	-1.9050747146e+00
 1.0610712656e+00	 1.3432297560e+00	-1.9363647303e+00
 1.0479784817e+00	 1.3534694345e+00	-1.9667156871e+00
 1.0347950275e+00	 1.3635753223e+00	-1.9952923208e+00
 1.0215229448e+00	 1.3735462430e+00	-2.0213544873e+00
 1.1539670146e+00	 1.2722702338e+00	-1.7570685473e+00
 1.1415216065e+00	 1.2834484176e+00	-1.7710478845e+00
 1.1289715129e+00	 1.2945017349e+00	-1.7914913972e+00
 1.1163186162e+00	 1.3054287288e+00	-1.8168279889e+00
 1.1035648253e+00	 1.3162279799e+00	-1.8456159631e+00
 1.0907120750e+00	 1.3268981077e+00	-1.8765386791e+00
 1.0777623250e+00	 1.3374377703e+00	-1.9083996488e+00
 1.0647175587e+00	 1.3478456659e+00	-1.9401171217e+00
 1.0515797823e+00	 1.3581205322e+00	-1.9707182103e+00
 1.0383510241e+00	 1.3682611481e+00	-1.9993326050e+00
 1.0250333329e+00	 1.3782663331e+00	-2.0251859354e+00
 1.1579189565e+00	 1.2766273236e+00	-1.7566793063e+00
 1.1454309271e+00	 1.2878437889e+00	-1.7714221519e+00
 1.1328378537e+00	 1.2989349601e+00	-1.7926587070e+00
 1.1201416251e+00	 1.3098993751e+00	-1.8187792688e+00
 1.1073441568e+00	 1.3207356100e+00	-1.8483051198e+00
 1.0944473903e+00	 1.3314422793e+00	-1.8798840796e+00
 1.0814532918e+00	 1.3420180367e+00	-1.9122854895e+00
 1.0683638517e+00	 1.3524615757e+00	-1.9443946756e+00
 1.0551810830e+00	 1.3627716299e+00	-1.9752069452e+00
 1.0419070208e+00	 1.3729469740e+00	-2.0038211678e+00
 1.0285437211e+00	 1.3829864233e+00	-2.0294329959e+00
 1.1618708983e+00	 1.2809844135e+00	-1.7566643854e+00
 1.1493402476e+00	 1.2922391602e+00	-1.7722415390e+00
 1.1367041945e+00	 1.3033681852e+00	-1.7943146879e+00
 1.1239646341e+00	 1.3143700214e+00	-1.8212393668e+00
 1.1111234884e+00	 1.3252432401e+00	-1.8515037621e+00
 1.0981827056e+00	 1.3359864509e+00	-1.8837241518e+00
 1.0851442587e+00	 1.3465983030e+00	-1.9166397671e+00
 1.0720101447e+00	 1.3570774855e+00	-1.9491071254e+00
 1.0587823836e+00	 1.3674227277e+00	-1.9800938885e+00
 1.0454630174e+00	 1.3776327998e+00	-2.0086722997e+00
 1.0320541092e+00	 1.3877065135e+00	-2.0340122551e+00
 1.1658228401e+00	 1.2853415033e+00	-1.7569222821e+00
 1.1532495682e+00	 1.2966345315e+00	-1.7734057250e+00
 1.1405705353e+00	 1.3078014103e+00	-1.7963604381e+00
 1.1277876430e+00	 1.3188406678e+00	-1.8241110064e+00
 1.1149028200e+00	 1.3297508701e+00	-1.8551164143e+00
 1.1019180210e+00	 1.3405306225e+00	-1.8879653650e+00
 1.0888352256e+00	 1.3511785694e+00	-1.9213710105e+00
 1.0756564377e+00	 1.3616933953e+00	-1.9541651449e+00
 1.0623836842e+00	 1.3720738254e+00	-1.9852919149e+00
 1.0490190141e+00	 1.3823186257e+00	-2.0138011034e+00
 1.0355644973e+00	 1.3924266037e+00	-2.0388410421e+00
 1.1697747820e+00	 1.2896985932e+00	-1.7573527469e+00
 1.1571588888e+00	 1.3010299028e+00	-1.7748156225e+00
 1.1444368761e+00	 1.3122346354e+00	-1.7986982623e+00
 1.1316106520e+00	 1.3233113141e+00	-1.8272980824e+00
 1.1186821516e+00	 1.3342585002e+00	-1.8590487296e+00
 1.1056533363e+00	 1.3450747941e+00	-1.8925152694e+00
 1.0925261924e+00	 1.3557588357e+00	-1.9263887760e+00
 1.0793027307e+00	 1.3663093051e+00	-1.9594803765e+00
 1.0659849848e+00	 1.3767249231e+00	-1.9907148047e+00
 1.0525750107e+00	 1.3870044515e+00	-2.0191235209e+00
 1.0390748854e+00	 1.3971466939e+00	-2.0438374569e+00
 1.1737267238e+00	 1.2940556830e+00	-1.7578568137e+00
 1.1610682093e+00	 1.3054252741e+00	-1.7763734078e+00
 1.1483032169e+00	 1.3166678605e+00	-1.8012317001e+00
 1.1354336610e+00	 1.3277819604e+00	-1.8307056895e+00
 1.1224614832e+00	 1.3387661303e+00	-1.8632075188e+00
 1.1093886516e+00	 1.3496189657e+00	-1.8972825239e+00
 1.0962171593e+00	 1.3603391020e+00	-1.9316036742e+00
 1.0829490237e+00	 1.3709252149e+00	-1.9649654582e+00
 1.0695862855e+00	 1.3813760208e+00	-1.9962772708e+00
 1.0561310074e+00	 1.3916902774e+00	-2.0245563606e+00
 1.0425852736e+00	 1.4018667840e+00	-2.0489203963e+00
 1.1776786656e+00	 1.2984127728e+00	-1.7583467932e+00
 1.1649775299e+00	 1.3098206453e+00	-1.7779825501e+00
 1.1521695577e+00	 1.3211010857e+00	-1.8038655563e+00
 1.1392566699e+00	 1.3322526068e+00	-1.8342401511e+00
 1.1262408148e+00	 1.3432737603e+00	-1.8675007785e+00
 1.1131239669e+00	 1.3541631373e+00	-1.9021769246e+00
 1.0999081262e+00	 1.3649193684e+00	-1.9369273988e+00
 1.0865953167e+00	 1.3755411247e+00	-1.9705340517e+00
 1.0731875861e+00	 1.3860271185e+00	-2.0018949867e+00
 1.0596870041e+00	 1.3963761032e+00	-2.0300173244e+00
 1.0460956617e+00	 1.4065868742e+00	-2.0540095821e+00
 1.1816306075e+00	 1.3027698627e+00	-1.7588865109e+00
 1.1688868505e+00	 1.3142160166e+00	-1.7795478413e+00
 1.1560358985e+00	 1.3255343108e+00	-1.8065059292e+00
 1.1430796789e+00	 1.3367232531e+00	-1.8378090481e+00
 1.1300201464e+00	 1.3477813904e+00	-1.8718377201e+00
 1.1168592823e+00	 1.3587073089e+00	-1.9071094330e+00
 1.1035990930e+00	 1.3694996347e+00	-1.9422727541e+00
 1.0902416097e+00	 1.3801570346e+00	-1.9761008701e+00
 1.0767888867e+00	 1.3906782162e+00	-2.0074846136e+00
 1.0632430007e+00	 1.4010619291e+00	-2.0354250357e+00
 1.0496060498e+00	 1.4113069644e+00	-2.0590255873e+00
 1.1855825493e+00	 1.3071269525e+00	-1.7594594455e+00
 1.1727961710e+00	 1.3186113879e+00	-1.7809754259e+00
 1.1599022393e+00	 1.3299675359e+00	-1.8090602405e+00
 1.1469026878e+00	 1.3411938994e+00	-1.8413212481e+00
 1.1337994780e+00	 1.3522890205e+00	-1.8761287979e+00
 1.1205945976e+00	 1.3632514805e+00	-1.9119922043e+00
 1.1072900599e+00	 1.3740799010e+00	-1.9475536832e+00
 1.0938879027e+00	 1.3847729444e+00	-1.9815817056e+00
 1.0803901873e+00	 1.3953293139e+00	-2.0129638284e+00
 1.0667989974e+00	 1.4057477549e+00	-2.0406990659e+00
 1.0531164379e+00	 1.4160270546e+00	-2.0638898635e+00
 1.0180125567e+00	 1.3688261528e+00	-2.0180227820e+00
 1.0046998133e+00	 1.3786271749e+00	-2.0404166352e+00
 9.9130287367e-01	 1.3882914733e+00	-2.0580646490e+00
 9.7782382859e-01	 1.3978180004e+00	-2.0714168395e+00
 9.6426478522e-01	 1.4072057511e+00	-2.0810113448e+00
 9.5062786619e-01	 1.4164537628e+00	-2.0874658231e+00
 9.3691520852e-01	 1.4255611155e+00	-2.0914687975e+00
 9.2312896254e-01	 1.4345269327e+00	-2.0937710012e+00
 9.0927129080e-01	 1.4433503808e+00	-2.0951767744e+00
 8.9534436704e-01	 1.4520306700e+00	-2.0965355625e+00
 8.8135037506e-01	 1.4605670537e+00	-2.0987335631e+00
 1.0215229448e+00	 1.3735462430e+00	-2.0213544873e+00
 1.0081642954e+00	 1.3833810617e+00	-2.0434141482e+00
 9.9472115944e-01	 1.3930786852e+00	-2.0606964161e+00
 9.8119563489e-01	 1.4026380625e+00	-2.0736701037e+00
 9.6758983620e-01	 1.4120581848e+00	-2.0828929657e+00
 9.5390589332e-01	 1.4213380861e+00	-2.0890028812e+00
 9.4014595062e-01	 1.4304768435e+00	-2.0927089851e+00
 9.2631216586e-01	 1.4394735773e+00	-2.0947828031e+00
 9.1240670904e-01	 1.4483274511e+00	-2.0960494416e+00
 8.9843176141e-01	 1.4570376723e+00	-2.0973788849e+00
 8.8438951428e-01	 1.4656034919e+00	-2.0996774471e+00
 1.0250333329e+00	 1.3782663331e+00	-2.0251859354e+00
 1.0116287775e+00	 1.3881349485e+00	-2.0468885470e+00
 9.9813944521e-01	 1.3978658972e+00	-2.0637962524e+00
 9.8456744120e-01	 1.4074581246e+00	-2.0763933832e+00
 9.7091488719e-01	 1.4169106184e+00	-2.0852540244e+00
 9.5718392044e-01	 1.4262224094e+00	-2.0910329823e+00
 9.4337669272e-01	 1.4353925715e+00	-2.0944567040e+00
 9.2949536918e-01	 1.4444202219e+00	-2.0963142023e+00
 9.1554212729e-01	 1.4533045214e+00	-2.0974480404e+00
 9.0151915577e-01	 1.4620446746e+00	-2.0987454292e+00
 8.8742865351e-01	 1.4706399300e+00	-2.1011294850e+00
 1.0285437211e+00	 1.3829864233e+00	-2.0294329959e+00
 1.0150932596e+00	 1.3928888353e+00	-2.0507578695e+00
 1.0015577310e+00	 1.4026531092e+00	-2.0672840207e+00
 9.8793924751e-01	 1.4122781866e+00	-2.0795080708e+00
 9.7423993817e-01	 1.4217630520e+00	-2.0880171976e+00
 9.6046194757e-01	 1.4311067327e+00	-2.0934798903e+00
 9.4660743482e-01	 1.4403082995e+00	-2.0966366567e+00
 9.3267857250e-01	 1.4493668665e+00	-2.0982907403e+00
 9.1867754553e-01	 1.4582815917e+00	-2.0992989002e+00
 9.0460655014e-01	 1.4670516769e+00	-2.1005623096e+00
 8.9046779273e-01	 1.4756763681e+00	-2.1030176207e+00
 1.0320541092e+00	 1.3877065135e+00	-2.0340122551e+00
 1.0185577417e+00	 1.3976427221e+00	-2.0549408018e+00
 1.0049760168e+00	 1.4074403212e+00	-2.0710801664e+00
 9.9131105381e-01	 1.4170982487e+00	-2.0829360789e+00
 9.7756498915e-01	 1.4266154856e+00	-2.0911056211e+00
 9.6373997469e-01	 1.4359910561e+00	-2.0962677686e+00
 9.4983817692e-01	 1.4452240275e+00	-2.0991738876e+00
 9.3586177581e-01	 1.4543135111e+00	-2.1006382438e+00
 9.2181296378e-01	 1.4632586619e+00	-2.1015285798e+00
 9.0769394451e-01	 1.4720586792e+00	-2.1027568144e+00
 8.9350693196e-01	 1.4807128062e+00	-2.1052699168e+00
 1.0355644973e+00	 1.3924266037e+00	-2.0388410421e+00
 1.0220222238e+00	 1.4023966089e+00	-2.0593567052e+00
 1.0083943025e+00	 1.4122275331e+00	-2.0751057444e+00
 9.9468286012e-01	 1.4219183108e+00	-2.0865998660e+00
 9.8089004014e-01	 1.4314679193e+00	-2.0944429149e+00
 9.6701800182e-01	 1.4408753794e+00	-2.0993212054e+00
 9.5306891901e-01	 1.4501397555e+00	-2.1019938074e+00
 9.3904497913e-01	 1.4592601557e+00	-2.1032828490e+00
 9.2494838202e-01	 1.4682357322e+00	-2.1040638910e+00
 9.1078133888e-01	 1.4770656815e+00	-2.1052564289e+00
 8.9654607118e-01	 1.4857492443e+00	-2.1078145771e+00
 1.0390748854e+00	 1.3971466939e+00	-2.0438374569e+00
 1.0254867059e+00	 1.4071504957e+00	-2.0639256422e+00
 1.0118125883e+00	 1.4170147451e+00	-2.0792824451e+00
 9.9805466642e-01	 1.4267383729e+00	-2.0904224623e+00
 9.8421509112e-01	 1.4363203529e+00	-2.0979532093e+00
 9.7029602894e-01	 1.4457597027e+00	-2.1025652388e+00
 9.5629966111e-01	 1.4550554834e+00	-2.1050222181e+00
 9.4222818245e-01	 1.4642068003e+00	-2.1061510253e+00
 9.2808380027e-01	 1.4732128025e+00	-2.1068319218e+00
 9.1386873325e-01	 1.4820726838e+00	-2.1079888583e+00
 8.9958521040e-01	 1.4907856824e+00	-2.1105799691e+00
 1.0425852736e+00	 1.4018667840e+00	-2.0489203963e+00
 1.0289511881e+00	 1.4119043825e+00	-2.0685684045e+00
 1.0152308741e+00	 1.4218019571e+00	-2.0835326211e+00
 1.0014264727e+00	 1.4315584349e+00	-2.0943274962e+00
 9.8754014210e-01	 1.4411727865e+00	-2.1015611702e+00
 9.7357405607e-01	 1.4506440260e+00	-2.1059253820e+00
 9.5953040321e-01	 1.4599712114e+00	-2.1081853374e+00
 9.4541138577e-01	 1.4691534449e+00	-2.1091695995e+00
 9.3121921851e-01	 1.4781898728e+00	-2.1097600601e+00
 9.1695612762e-01	 1.4870796861e+00	-2.1108820504e+00
 9.0262434963e-01	 1.4958221206e+00	-2.1134946457e+00
 1.0460956617e+00	 1.4065868742e+00	-2.0540095821e+00
 1.0324156702e+00	 1.4166582694e+00	-2.0732065386e+00
 1.0186491598e+00	 1.4265891691e+00	-2.0877793136e+00
 1.0047982790e+00	 1.4363784970e+00	-2.0982392198e+00
 9.9086519309e-01	 1.4460252201e+00	-2.1051920247e+00
 9.7685208319e-01	 1.4555283493e+00	-2.1093276483e+00
 9.6276114531e-01	 1.4648869394e+00	-2.1114098233e+00
 9.4859458909e-01	 1.4741000894e+00	-2.1122657799e+00
 9.3435463675e-01	 1.4831669430e+00	-2.1127760173e+00
 9.2004352199e-01	 1.4920866884e+00	-2.1138642184e+00
 9.0566348885e-01	 1.5008585587e+00	-2.1164873678e+00
 1.0496060498e+00	 1.4113069644e+00	-2.0590255873e+00
 1.0358801523e+00	 1.4214121562e+00	-2.0777623734e+00
 1.0220674456e+00	 1.4313763811e+00	-2.0919462789e+00
 1.0081700853e+00	 1.4411985591e+00	-2.1020825356e+00
 9.9419024407e-01	 1.4508776538e+00	-2.1087715870e+00
 9.8013011031e-01	 1.4604126727e+00	-2.1126985762e+00
 9.6599188741e-01	 1.4698026674e+00	-2.1146227983e+00
 9.5177779241e-01	 1.4790467340e+00	-2.1153671800e+00
 9.3749005500e-01	 1.4881440133e+00	-2.1158078509e+00
 9.2313091636e-01	 1.4970936907e+00	-2.1168638641e+00
 9.0870262808e-01	 1.5058949968e+00	-2.1194871264e+00
 1.0531164379e+00	 1.4160270546e+00	-2.0638898635e+00
 1.0393446344e+00	 1.4261660430e+00	-2.0821590466e+00
 1.0254857314e+00	 1.4361635930e+00	-2.0959580151e+00
 1.0115418916e+00	 1.4460186211e+00	-2.1057830222e+00
 9.9751529505e-01	 1.4557300874e+00	-2.1122262836e+00
 9.8340813744e-01	 1.4652969960e+00	-2.1159652546e+00
 9.6922262951e-01	 1.4747183954e+00	-2.1177518746e+00
 9.5496099573e-01	 1.4839933786e+00	-2.1184018427e+00
 9.4062547324e-01	 1.4931210836e+00	-2.1187839886e+00
 9.2621831073e-01	 1.5021006931e+00	-2.1198097998e+00
 9.1174176730e-01	 1.5109314349e+00	-2.1224231647e+00
 8.8135037506e-01	 1.4605670537e+00	-2.0987335631e+00
 8.6729150769e-01	 1.4689588295e+00	-2.0984976660e+00
 8.5316996569e-01	 1.4772053384e+00	-2.0924450630e+00
 8.3898795667e-01	 1.4853059653e+00	-2.0813106528e+00
 8.2474769406e-01	 1.4932601392e+00	-2.0658115107e+00
 8.1045139599e-01	 1.5010673325e+00	-2.0466405954e+00
 7.9610128425e-01	 1.5087270619e+00	-2.0244608645e+00
 7.8169958326e-01	 1.5162388874e+00	-1.9998998265e+00
 7.6724851899e-01	 1.5236024128e+00	-1.9735445519e+00
 7.5275031793e-01	 1.5308172853e+00	-1.9459371642e+00
 7.3820720606e-01	 1.5378831955e+00	-1.9175708271e+00
 8.8438951428e-01	 1.4656034919e+00	-2.0996774471e+00
 8.7028216806e-01	 1.4740242048e+00	-2.0995566092e+00
 8.5611193109e-01	 1.4822991499e+00	-2.0935082167e+00
 8.4188101859e-01	 1.4904277100e+00	-2.0822720474e+00
 8.2759165163e-01	 1.4984093121e+00	-2.0665700719e+00
 8.1324605597e-01	 1.5062434268e+00	-2.0471000186e+00
 7.9884646109e-01	 1.5139295690e+00	-2.0245293583e+00
 7.8439509906e-01	 1.5214672973e+00	-1.9994897351e+00
 7.6989420354e-01	 1.5288562142e+00	-1.9725718675e+00
 7.5534600868e-01	 1.5360959656e+00	-1.9443209406e+00
 7.4075274815e-01	 1.5431862410e+00	-1.9152325054e+00
 8.8742865351e-01	 1.4706399300e+00	-2.1011294850e+00
 8.7327282843e-01	 1.4790895800e+00	-2.1010985790e+00
 8.5905389649e-01	 1.4873929614e+00	-2.0950254507e+00
 8.4477408051e-01	 1.4955494547e+00	-2.0836572547e+00
 8.3043560919e-01	 1.5035584850e+00	-2.0677232139e+00
 8.1604071596e-01	 1.5114195210e+00	-2.0479280397e+00
 8.0159163793e-01	 1.5191320761e+00	-2.0249457805e+00
 7.8709061487e-01	 1.5266957073e+00	-1.9994141279e+00
 7.7253988809e-01	 1.5341100156e+00	-1.9719292040e+00
 7.5794169943e-01	 1.5413746459e+00	-1.9430408516e+00
 7.4329829024e-01	 1.5484892865e+00	-1.9132484440e+00
 8.9046779273e-01	 1.4756763681e+00	-2.1030176207e+00
 8.7626348880e-01	 1.4841549553e+00	-2.1030519431e+00
 8.6199586189e-01	 1.4924867729e+00	-2.0969246606e+00
 8.4766714243e-01	 1.5006711994e+00	-2.0853927884e+00
 8.3327956676e-01	 1.5087076578e+00	-2.0691951468e+00
 8.1883537594e-01	 1.5165956153e+00	-2.0490456305e+00
 8.0433681477e-01	 1.5243345832e+00	-2.0256269177e+00
 7.8978613067e-01	 1.5319241173e+00	-1.9995846473e+00
 7.7518557263e-01	 1.5393638170e+00	-1.9715220888e+00
 7.6053739019e-01	 1.5466533262e+00	-1.9419953273e+00
 7.4584383233e-01	 1.5537923320e+00	-1.9115089807e+00
 8.9350693196e-01	 1.4807128062e+00	-2.1052699168e+00
 8.7925414918e-01	 1.4892203306e+00	-2.1053451396e+00
 8.6493782728e-01	 1.4975805844e+00	-2.0991337771e+00
 8.5056020435e-01	 1.5057929442e+00	-2.0874051767e+00
 8.3612352432e-01	 1.5138568307e+00	-2.0709100883e+00
 8.2163003593e-01	 1.5217717095e+00	-2.0503737786e+00
 8.0708199162e-01	 1.5295370903e+00	-2.0264895962e+00
 7.9248164648e-01	 1.5371525272e+00	-1.9999130149e+00
 7.7783125718e-01	 1.5446176185e+00	-1.9712561840e+00
 7.6313308094e-01	 1.5519320065e+00	-1.9410830040e+00
 7.4838937442e-01	 1.5590953775e+00	-1.9099047490e+00
 8.9654607118e-01	 1.4857492443e+00	-2.1078145771e+00
 8.8224480955e-01	 1.4942857059e+00	-2.1079066983e+00
 8.6787979268e-01	 1.5026743959e+00	-2.1015807868e+00
 8.5345326627e-01	 1.5109146889e+00	-2.0896209813e+00
 8.3896748189e-01	 1.5190060036e+00	-2.0727922818e+00
 8.2442469592e-01	 1.5269478038e+00	-2.0518335044e+00
 8.0982716846e-01	 1.5347395974e+00	-2.0274506965e+00
 7.9517716228e-01	 1.5423809372e+00	-2.0003110439e+00
 7.8047694173e-01	 1.5498714199e+00	-1.9710372965e+00
 7.6572877169e-01	 1.5572106868e+00	-1.9402027324e+00
 7.5093491651e-01	 1.5643984230e+00	-1.9083266821e+00
 8.9958521040e-01	 1.4907856824e+00	-2.1105799691e+00
 8.8523546992e-01	 1.4993510811e+00	-2.1106652627e+00
 8.7082175808e-01	 1.5077682074e+00	-2.1041937528e+00
 8.5634632819e-01	 1.5160364336e+00	-2.0919668170e+00
 8.4181143946e-01	 1.5241551765e+00	-2.0747660150e+00
 8.2721935590e-01	 1.5321238980e+00	-2.0533458773e+00
 8.1257234530e-01	 1.5399421046e+00	-2.0284271684e+00
 7.9787267808e-01	 1.5476093471e+00	-2.0006906520e+00
 7.8312262628e-01	 1.5551252213e+00	-1.9707713886e+00
 7.6832446244e-01	 1.5624893671e+00	-1.9392535854e+00
 7.5348045860e-01	 1.5697014685e+00	-1.9066660190e+00
 9.0262434963e-01	 1.4958221206e+00	-2.1134946457e+00
 8.8822613029e-01	 1.5044164564e+00	-2.1135496110e+00
 8.7376372348e-01	 1.5128620190e+00	-2.1069008354e+00
 8.5923939011e-01	 1.5211581783e+00	-2.0943693717e+00
 8.4465539702e-01	 1.5293043494e+00	-2.0767556372e+00
 8.3001401589e-01	 1.5372999923e+00	-2.0548320324e+00
 8.1531752214e-01	 1.5451446117e+00	-2.0293360457e+00
 8.0056819389e-01	 1.5528377571e+00	-2.0009638741e+00
 7.8576831083e-01	 1.5603790227e+00	-1.9703645885e+00
 7.7092015319e-01	 1.5677680473e+00	-1.9381348660e+00
 7.5602600069e-01	 1.5750045140e+00	-1.9048143090e+00
 9.0566348885e-01	 1.5008585587e+00	-2.1164873678e+00
 8.9121679066e-01	 1.5094818317e+00	-2.1164886782e+00
 8.7670568888e-01	 1.5179558305e+00	-2.1096303126e+00
 8.6213245203e-01	 1.5262799230e+00	-2.0967554253e+00
 8.4749935459e-01	 1.5344535223e+00	-2.0786855785e+00
 8.3280867587e-01	 1.5424760865e+00	-2.0562131873e+00
 8.1806269899e-01	 1.5503471188e+00	-2.0300944611e+00
 8.0326370969e-01	 1.5580661670e+00	-2.0010428753e+00
 7.8841399538e-01	 1.5656328242e+00	-1.9697232010e+00
 7.7351584394e-01	 1.5730467276e+00	-1.9367461162e+00
 7.5857154278e-01	 1.5803075595e+00	-1.9026634182e+00
 9.0870262808e-01	 1.5058949968e+00	-2.1194871264e+00
 8.9420745103e-01	 1.5145472070e+00	-2.1194115768e+00
 8.7964765428e-01	 1.5230496420e+00	-2.1123106009e+00
 8.6502551395e-01	 1.5314016677e+00	-2.0990518693e+00
 8.5034331215e-01	 1.5396026952e+00	-2.0804803671e+00
 8.3560333586e-01	 1.5476521808e+00	-2.0574106585e+00
 8.2080787583e-01	 1.5555496259e+00	-2.0306196610e+00
 8.0595922550e-01	 1.5632945770e+00	-2.0008399639e+00
 7.9105967992e-01	 1.5708866256e+00	-1.9687537184e+00
 7.7611153469e-01	 1.5783254079e+00	-1.9349871247e+00
 7.6111708487e-01	 1.5856106050e+00	-1.9001055347e+00
 9.1174176730e-01	 1.5109314349e+00	-2.1224231647e+00
 8.9719811140e-01	 1.5196125822e+00	-2.1222476191e+00
 8.8258961968e-01	 1.5281434535e+00	-2.1148702756e+00
 8.6791857587e-01	 1.5365234124e+00	-2.1011857266e+00
 8.5318726972e-01	 1.5447518681e+00	-2.0820646480e+00
 8.3839799585e-01	 1.5528282750e+00	-2.0583458782e+00
 8.2355305267e-01	 1.5607521330e+00	-2.0308290204e+00
 8.0865474130e-01	 1.5685229869e+00	-2.0002676040e+00
 7.9370536447e-01	 1.5761404270e+00	-1.9673628310e+00
 7.7870722545e-01	 1.5836040882e+00	-1.9327579355e+00
 7.6366262696e-01	 1.5909136505e+00	-1.8970331744e+00
 7.3820720606e-01	 1.5378831955e+00	-1.9175708271e+00
 7.2362140783e-01	 1.5447998771e+00	-1.8867813957e+00
 7.0899514514e-01	 1.5515671066e+00	-1.8519904692e+00
 6.9433063636e-01	 1.5581847033e+00	-1.8137455412e+00
 6.7963009530e-01	 1.5646525287e+00	-1.7725451863e+00
 6.6489573029e-01	 1.5709704866e+00	-1.7288373605e+00
 6.5012974320e-01	 1.5771385225e+00	-1.6830182140e+00
 6.3533432847e-01	 1.5831566231e+00	-1.6354314070e+00
 6.2051167221e-01	 1.5890248163e+00	-1.5863679219e+00
 6.0566395128e-01	 1.5947431706e+00	-1.5360663556e+00
 5.9079333236e-01	 1.6003117948e+00	-1.4847136793e+00
 7.4075274815e-01	 1.5431862410e+00	-1.9152325054e+00
 7.2611665407e-01	 1.5501267732e+00	-1.8836948922e+00
 7.1143995599e-01	 1.5569173380e+00	-1.8481927314e+00
 6.9672487993e-01	 1.5635577540e+00	-1.8092889518e+00
 6.8197364735e-01	 1.5700478823e+00	-1.7674945570e+00
 6.6718847419e-01	 1.5763876263e+00	-1.7232669054e+00
 6.5237156990e-01	 1.5825769312e+00	-1.6770085172e+00
 6.3752513650e-01	 1.5886157838e+00	-1.6290664007e+00
 6.2265136763e-01	 1.5945042122e+00	-1.5797318868e+00
 6.0775244766e-01	 1.6002422850e+00	-1.5292409603e+00
 5.9283055075e-01	 1.6058301113e+00	-1.4777750707e+00
 7.4329829024e-01	 1.5484892865e+00	-1.9132484440e+00
 7.2861190030e-01	 1.5554536693e+00	-1.8809849805e+00
 7.1388476684e-01	 1.5622675694e+00	-1.8447886449e+00
 6.9911912350e-01	 1.5689308047e+00	-1.8052367543e+00
 6.8431719940e-01	 1.5754432358e+00	-1.7628518927e+00
 6.6948121809e-01	 1.5818047659e+00	-1.7181001684e+00
 6.5461339660e-01	 1.5880153399e+00	-1.6713900130e+00
 6.3971594453e-01	 1.5940749446e+00	-1.6230715138e+00
 6.2479106305e-01	 1.5999836081e+00	-1.5734362702e+00
 6.0984094404e-01	 1.6057413994e+00	-1.5227177591e+00
 5.9486776914e-01	 1.6113484278e+00	-1.4710921950e+00
 7.4584383233e-01	 1.5537923320e+00	-1.9115089807e+00
 7.3110714654e-01	 1.5607805655e+00	-1.8785346162e+00
 7.1632957768e-01	 1.5676178008e+00	-1.8416562084e+00
 7.0151336708e-01	 1.5743038554e+00	-1.8014644210e+00
 6.8666075146e-01	 1.5808385894e+00	-1.7584925731e+00
 6.7177396199e-01	 1.5872219055e+00	-1.7132148712e+00
 6.5685522330e-01	 1.5934537486e+00	-1.6660451969e+00
 6.4190675256e-01	 1.5995341054e+00	-1.6173364439e+00
 6.2693075848e-01	 1.6054630040e+00	-1.5673803919e+00
 6.1192944043e-01	 1.6112405138e+00	-1.5164081052e+00
 5.9690498753e-01	 1.6168667444e+00	-1.4645908379e+00
 7.4838937442e-01	 1.5590953775e+00	-1.9099047490e+00
 7.3360239277e-01	 1.5661074616e+00	-1.8762271323e+00
 7.1877438853e-01	 1.5729680322e+00	-1.8386738506e+00
 7.0390761065e-01	 1.5796769061e+00	-1.7978478781e+00
 6.8900430351e-01	 1.5862339429e+00	-1.7542924265e+00
 6.7406670588e-01	 1.5926390451e+00	-1.7084891488e+00
 6.5909705001e-01	 1.5988921573e+00	-1.6608569139e+00
 6.4409756059e-01	 1.6049932661e+00	-1.6117511439e+00
 6.2907045390e-01	 1.6109423999e+00	-1.5614637047e+00
 6.1401793681e-01	 1.6167396281e+00	-1.5102233334e+00
 5.9894220591e-01	 1.6223850609e+00	-1.4581965872e+00
 7.5093491651e-01	 1.5643984230e+00	-1.9083266821e+00
 7.3609763900e-01	 1.5714343577e+00	-1.8739462420e+00
 7.2121919937e-01	 1.5783182636e+00	-1.8357204316e+00
 7.0630185423e-01	 1.5850499568e+00	-1.7942635050e+00
 6.9134785556e-01	 1.5916292965e+00	-1.7501277272e+00
 6.7635944978e-01	 1.5980561847e+00	-1.7038015470e+00
 6.6133887671e-01	 1.6043305660e+00	-1.6557083551e+00
 6.4628836862e-01	 1.6104524269e+00	-1.6062058206e+00
 6.3121014932e-01	 1.6164217959e+00	-1.5555857939e+00
 6.1610643319e-01	 1.6222387425e+00	-1.5040747615e+00
 6.0097942430e-01	 1.6279033774e+00	-1.4518348352e+00
 7.5348045860e-01	 1.5697014685e+00	-1.9066660190e+00
 7.3859288524e-01	 1.5767612538e+00	-1.8715760409e+00
 7.2366401022e-01	 1.5836684950e+00	-1.8326752427e+00
 7.0869609780e-01	 1.5904230075e+00	-1.7905881330e+00
 6.9369140762e-01	 1.5970246500e+00	-1.7458751939e+00
 6.7865219368e-01	 1.6034733243e+00	-1.6990310194e+00
 6.6358070341e-01	 1.6097689747e+00	-1.6504830556e+00
 6.4847917665e-01	 1.6159115877e+00	-1.6005909322e+00
 6.3334984474e-01	 1.6219011918e+00	-1.5496463763e+00
 6.1819492958e-01	 1.6277378569e+00	-1.4978736909e+00
 6.0301664269e-01	 1.6334216940e+00	-1.4454307825e+00
 7.5602600069e-01	 1.5750045140e+00	-1.9048143090e+00
 7.4108813147e-01	 1.5820881500e+00	-1.8690010102e+00
 7.2610882106e-01	 1.5890187264e+00	-1.8294180074e+00
 7.1109034137e-01	 1.5957960582e+00	-1.7866990445e+00
 6.9603495967e-01	 1.6024200036e+00	-1.7414119873e+00
 6.8094493758e-01	 1.6088904639e+00	-1.6940569258e+00
 6.6582253011e-01	 1.6152073834e+00	-1.6450648925e+00
 6.5066998468e-01	 1.6213707484e+00	-1.5947971876e+00
 6.3548954016e-01	 1.6273805877e+00	-1.5435453000e+00
 6.2028342596e-01	 1.6332369713e+00	-1.4915314078e+00
 6.0505386108e-01	 1.6389400105e+00	-1.4389094409e+00
 7.5857154278e-01	 1.5803075595e+00	-1.9026634182e+00
 7.4358337770e-01	 1.5874150461e+00	-1.8661060196e+00
 7.2855363191e-01	 1.5943689578e+00	-1.8258288825e+00
 7.1348458495e-01	 1.6011691089e+00	-1.7824739726e+00
 6.9837851172e-01	 1.6078153571e+00	-1.7366157094e+00
 6.8323768147e-01	 1.6143076035e+00	-1.6887590300e+00
 6.6806435681e-01	 1.6206457921e+00	-1.6393380830e+00
 6.5286079271e-01	 1.6268299092e+00	-1.5887155446e+00
 6.3762923558e-01	 1.6328599836e+00	-1.5371825443e+00
 6.2237192234e-01	 1.6387360857e+00	-1.4849591850e+00
 6.0709107946e-01	 1.6444583270e+00	-1.4321956374e+00
 7.6111708487e-01	 1.5856106050e+00	-1.9001055347e+00
 7.4607862394e-01	 1.5927419422e+00	-1.8627763302e+00
 7.3099844275e-01	 1.5997191892e+00	-1.8217884593e+00
 7.1587882852e-01	 1.6065421596e+00	-1.7777911010e+00
 7.0072206377e-01	 1.6132107106e+00	-1.7313644019e+00
 6.8553042537e-01	 1.6197247431e+00	-1.6830174981e+00
 6.7030618351e-01	 1.6260842008e+00	-1.6331871823e+00
 6.5505160074e-01	 1.6322890700e+00	-1.5822372085e+00
 6.3976893100e-01	 1.6383393795e+00	-1.5304582194e+00
 6.2446041873e-01	 1.6442352000e+00	-1.4780682828e+00
 6.0912829785e-01	 1.6499766436e+00	-1.4252140172e+00
 7.6366262696e-01	 1.5909136505e+00	-1.8970331744e+00
 7.4857387017e-01	 1.5980688384e+00	-1.8588975988e+00
 7.3344325360e-01	 1.6050694206e+00	-1.8171777653e+00
 7.1827307209e-01	 1.6119152103e+00	-1.7725290641e+00
 7.0306561583e-01	 1.6186060642e+00	-1.7255365453e+00
 6.8782316927e-01	 1.6251418827e+00	-1.6767128970e+00
 6.7254801021e-01	 1.6315226095e+00	-1.6264970830e+00
 6.5724240876e-01	 1.6377482308e+00	-1.5752536321e+00
 6.4190862643e-01	 1.6438187755e+00	-1.5232725664e+00
 6.2654891511e-01	 1.6497343144e+00	-1.4707699512e+00
 6.1116551624e-01	 1.6554949601e+00	-1.4178890477e+00
 5.9079333236e-01	 1.6003117948e+00	-1.4847136793e+00
 5.7590197114e-01	 1.6057308373e+00	-1.4319358485e+00
 5.6099201140e-01	 1.6110004858e+00	-1.3804415861e+00
 5.4606558416e-01	 1.6161209670e+00	-1.3299669405e+00
 5.3112480690e-01	 1.6210925457e+00	-1.2800709577e+00
 5.1617178274e-01	 1.6259155245e+00	-1.2303099870e+00
 5.0120859963e-01	 1.6305902434e+00	-1.1802411276e+00
 4.8623732961e-01	 1.6351170788e+00	-1.1294254725e+00
 4.7126002806e-01	 1.6394964434e+00	-1.0774311463e+00
 4.5627873299e-01	 1.6437287854e+00	-1.0238361331e+00
 4.4129546430e-01	 1.6478145876e+00	-9.6823089214e-01
 5.9283055075e-01	 1.6058301113e+00	-1.4777750707e+00
 5.7788784001e-01	 1.6112678401e+00	-1.4238349339e+00
 5.6292646661e-01	 1.6165556599e+00	-1.3710416736e+00
 5.4794856893e-01	 1.6216937979e+00	-1.3194878717e+00
 5.3295627175e-01	 1.6266825199e+00	-1.2687125061e+00
 5.1795168544e-01	 1.6315221297e+00	-1.2182537401e+00
 5.0293690514e-01	 1.6362129683e+00	-1.1676524029e+00
 4.8791401005e-01	 1.6407554136e+00	-1.1164552607e+00
 4.7288506264e-01	 1.6451498794e+00	-1.0642180766e+00
 4.5785210793e-01	 1.6493968157e+00	-1.0105084544e+00
 4.4281717280e-01	 1.6534967069e+00	-9.5490846445e-01
 5.9486776914e-01	 1.6113484278e+00	-1.4710921950e+00
 5.7987370888e-01	 1.6168048430e+00	-1.4161539097e+00
 5.6486092182e-01	 1.6221108340e+00	-1.3620259129e+00
 5.4983155370e-01	 1.6272666288e+00	-1.3093672944e+00
 5.3478773660e-01	 1.6322724942e+00	-1.2576939202e+00
 5.1973158814e-01	 1.6371287350e+00	-1.2065225144e+00
 5.0466521066e-01	 1.6418356933e+00	-1.1553741808e+00
 4.8959069050e-01	 1.6463937483e+00	-1.1037777108e+00
 4.7451009722e-01	 1.6508033155e+00	-1.0512726730e+00
 4.5942548287e-01	 1.6550648460e+00	-9.9741228171e-01
 4.4433888130e-01	 1.6591788262e+00	-9.4176604142e-01
 5.9690498753e-01	 1.6168667444e+00	-1.4645908379e+00
 5.8185957774e-01	 1.6223418459e+00	-1.4088314434e+00
 5.6679537703e-01	 1.6276660081e+00	-1.3533454787e+00
 5.5171453848e-01	 1.6328394597e+00	-1.2995662906e+00
 5.3661920145e-01	 1.6378624685e+00	-1.2469836194e+00
 5.2151149083e-01	 1.6427353403e+00	-1.1950895279e+00
 5.0639351617e-01	 1.6474584183e+00	-1.1433819731e+00
 4.9126737095e-01	 1.6520320831e+00	-1.0913681581e+00
 4.7613513180e-01	 1.6564567515e+00	-1.0385676608e+00
 4.6099885781e-01	 1.6607328763e+00	-9.8451533469e-01
 4.4586058980e-01	 1.6648609454e+00	-9.2876398118e-01
 5.9894220591e-01	 1.6223850609e+00	-1.4581965872e+00
 5.8384544661e-01	 1.6278788488e+00	-1.4018056824e+00
 5.6872983224e-01	 1.6332211821e+00	-1.3449509259e+00
 5.5359752325e-01	 1.6384122907e+00	-1.2900452570e+00
 5.3845066631e-01	 1.6434524428e+00	-1.2365493060e+00
 5.2329139353e-01	 1.6483419455e+00	-1.1839272835e+00
 5.0812182169e-01	 1.6530811433e+00	-1.1316506108e+00
 4.9294405139e-01	 1.6576704178e+00	-1.0792013241e+00
 4.7776016638e-01	 1.6621101875e+00	-1.0260752499e+00
 4.6257223275e-01	 1.6664009066e+00	-9.7178494750e-01
 4.4738229829e-01	 1.6705430647e+00	-9.1586241671e-01
 6.0097942430e-01	 1.6279033774e+00	-1.4518348352e+00
 5.8583131547e-01	 1.6334158517e+00	-1.3950142523e+00
 5.7066428746e-01	 1.6387763562e+00	-1.3367921898e+00
 5.5548050802e-01	 1.6439851216e+00	-1.2807639068e+00
 5.4028213116e-01	 1.6490424171e+00	-1.2263579680e+00
 5.2507129623e-01	 1.6539485508e+00	-1.1730075720e+00
 5.0985012721e-01	 1.6587038682e+00	-1.1201542475e+00
 4.9462073184e-01	 1.6633087526e+00	-1.0672513189e+00
 4.7938520096e-01	 1.6677636235e+00	-1.0137671363e+00
 4.6414560769e-01	 1.6720689369e+00	-9.5918806824e-01
 4.4890400679e-01	 1.6762251840e+00	-9.0302125286e-01
 6.0301664269e-01	 1.6334216940e+00	-1.4454307825e+00
 5.8781718434e-01	 1.6389528546e+00	-1.3883942552e+00
 5.7259874267e-01	 1.6443315303e+00	-1.3288185865e+00
 5.5736349279e-01	 1.6495579525e+00	-1.2716812716e+00
 5.4211359601e-01	 1.6546323914e+00	-1.2163758824e+00
 5.2685119893e-01	 1.6595551560e+00	-1.1623014756e+00
 5.1157843272e-01	 1.6643265932e+00	-1.1088663624e+00
 4.9629741229e-01	 1.6689470873e+00	-1.0554916437e+00
 4.8101023554e-01	 1.6734170595e+00	-1.0016145033e+00
 4.6571898264e-01	 1.6777369672e+00	-9.4669125837e-01
 4.5042571529e-01	 1.6819073033e+00	-8.9020016358e-01
 6.0505386108e-01	 1.6389400105e+00	-1.4389094409e+00
 5.8980305321e-01	 1.6444898575e+00	-1.3818210710e+00
 5.7453319788e-01	 1.6498867044e+00	-1.3209788131e+00
 5.5924647757e-01	 1.6551307834e+00	-1.2627557030e+00
 5.4394506086e-01	 1.6602223657e+00	-1.2065686176e+00
 5.2863110163e-01	 1.6651617613e+00	-1.1517793709e+00
 5.1330673824e-01	 1.6699493182e+00	-1.0977597633e+00
 4.9797409273e-01	 1.6745854221e+00	-1.0438951931e+00
 4.8263527012e-01	 1.6790704955e+00	-9.8958802221e-01
 4.6729235758e-01	 1.6834049974e+00	-9.3426069215e-01
 4.5194742379e-01	 1.6875894225e+00	-8.7735858905e-01
 6.0709107946e-01	 1.6444583270e+00	-1.4321956374e+00
 5.9178892207e-01	 1.6500268604e+00	-1.3751011771e+00
 5.7646765309e-01	 1.6554418785e+00	-1.3132209477e+00
 5.6112946234e-01	 1.6607036143e+00	-1.2539448746e+00
 5.4577652571e-01	 1.6658123400e+00	-1.1969010359e+00
 5.3041100433e-01	 1.6707683665e+00	-1.1414109320e+00
 5.1503504375e-01	 1.6755720432e+00	-1.0868065894e+00
 4.9965077318e-01	 1.6802237568e+00	-1.0324342574e+00
 4.8426030470e-01	 1.6847239315e+00	-9.7765785407e-01
 4.6886573252e-01	 1.6890730277e+00	-9.2186215608e-01
 4.5346913228e-01	 1.6932715418e+00	-8.6445573297e-01
 6.0912829785e-01	 1.6499766436e+00	-1.4252140172e+00
 5.9377479094e-01	 1.6555638632e+00	-1.3681682027e+00
 5.7840210830e-01	 1.6609970526e+00	-1.3054924503e+00
 5.6301244711e-01	 1.6662764453e+00	-1.2452057836e+00
 5.4760799056e-01	 1.6714023143e+00	-1.1873372967e+00
 5.3219090703e-01	 1.6763749718e+00	-1.1311651337e+00
 5.1676334927e-01	 1.6811947682e+00	-1.0759783144e+00
 5.0132745363e-01	 1.6858620916e+00	-1.0210805249e+00
 4.8588533928e-01	 1.6903773675e+00	-9.6579365032e-01
 4.7043910746e-01	 1.6947410580e+00	-9.0946104832e-01
 4.5499084078e-01	 1.6989536611e+00	-8.5145055985e-01
 6.1116551624e-01	 1.6554949601e+00	-1.4178890477e+00
 5.9576065981e-01	 1.6611008661e+00	-1.3609598059e+00
 5.8033656351e-01	 1.6665522267e+00	-1.2977401624e+00
 5.6489543189e-01	 1.6718492762e+00	-1.2364947525e+00
 5.4943945541e-01	 1.6769922886e+00	-1.1778408586e+00
 5.3397080973e-01	 1.6819815771e+00	-1.1210102541e+00
 5.1849165479e-01	 1.6868174931e+00	-1.0652457495e+00
 5.0300413408e-01	 1.6915004263e+00	-1.0098050839e+00
 4.8751037386e-01	 1.6960308036e+00	-9.5396455401e-01
 4.7201248240e-01	 1.7004090883e+00	-8.9702237816e-01
 4.5651254928e-01	 1.7046357803e+00	-8.3830179240e-01
 4.4129546430e-01	 1.6478145876e+00	-9.6823089214e-01
 4.2631222316e-01	 1.6517543675e+00	-9.1320620851e-01
 4.1133099130e-01	 1.6555486757e+00	-8.6138031675e-01
 3.9635373040e-01	 1.6591980962e+00	-8.1240694127e-01
 3.8138238147e-01	 1.6627032451e+00	-7.6595620616e-01
 3.6641886427e-01	 1.6660647700e+00	-7.2171617848e-01
 3.5146507675e-01	 1.6692833498e+00	-6.7939421038e-01
 3.3652289448e-01	 1.6723596932e+00	-6.3871808393e-01
 3.2159417014e-01	 1.6752945388e+00	-5.9943696293e-01
 3.0668073305e-01	 1.6780886538e+00	-5.6132215690e-01
 2.9178438865e-01	 1.6807428336e+00	-5.2416770283e-01
 4.4281717280e-01	 1.6534967069e+00	-9.5490846445e-01
 4.2778226531e-01	 1.6574500722e+00	-8.9998437440e-01
 4.1274937403e-01	 1.6612574643e+00	-8.4831952605e-01
 3.9772046740e-01	 1.6649194690e+00	-7.9954551071e-01
 3.8269749313e-01	 1.6684367045e+00	-7.5331078174e-01
 3.6768237760e-01	 1.6718098210e+00	-7.0928223611e-01
 3.5267702529e-01	 1.6750394993e+00	-6.6714659086e-01
 3.3768331825e-01	 1.6781264508e+00	-6.2661155818e-01
 3.2270311556e-01	 1.6810714165e+00	-5.8740682363e-01
 3.0773825282e-01	 1.6838751664e+00	-5.4928483270e-01
 2.9279054171e-01	 1.6865384985e+00	-5.1202139158e-01
 4.4433888130e-01	 1.6591788262e+00	-9.4176604142e-01
 4.2925230746e-01	 1.6631457769e+00	-8.8686497982e-01
 4.1416775676e-01	 1.6669662528e+00	-8.3525451566e-01
 3.9908720440e-01	 1.6706408417e+00	-7.8655142166e-01
 3.8401260479e-01	 1.6741701640e+00	-7.4038988443e-01
 3.6894589092e-01	 1.6775548719e+00	-6.9642311307e-01
 3.5388897383e-01	 1.6807956488e+00	-6.5432473866e-01
 3.3884374203e-01	 1.6838932084e+00	-6.1379000847e-01
 3.2381206097e-01	 1.6868482943e+00	-5.7453677965e-01
 3.0879577259e-01	 1.6896616790e+00	-5.3630631747e-01
 2.9379669478e-01	 1.6923341635e+00	-4.9886390432e-01
 4.4586058980e-01	 1.6648609454e+00	-9.2876398118e-01
 4.3072234961e-01	 1.6688414816e+00	-8.7380065115e-01
 4.1558613949e-01	 1.6726750413e+00	-8.2213171107e-01
 4.0045394140e-01	 1.6763622144e+00	-7.7336634347e-01
 3.8532771645e-01	 1.6799036235e+00	-7.2713178605e-01
 3.7020940425e-01	 1.6832999228e+00	-6.8307495609e-01
 3.5510092237e-01	 1.6865517982e+00	-6.4086386175e-01
 3.4000416580e-01	 1.6896599659e+00	-6.0018880445e-01
 3.2492100639e-01	 1.6926251720e+00	-5.6076337692e-01
 3.0985329236e-01	 1.6954481916e+00	-5.2232526245e-01
 2.9480284784e-01	 1.6981298284e+00	-4.8463684147e-01
 4.4738229829e-01	 1.6705430647e+00	-9.1586241671e-01
 4.3219239176e-01	 1.6745371863e+00	-8.6074395335e-01
 4.1700452221e-01	 1.6783838299e+00	-8.0889761768e-01
 4.0182067840e-01	 1.6820835872e+00	-7.5993214542e-01
 3.8664282811e-01	 1.6856370829e+00	-7.1347505820e-01
 3.7147291757e-01	 1.6890449738e+00	-6.6917429249e-01
 3.5631287091e-01	 1.6923079477e+00	-6.2669961167e-01
 3.4116458958e-01	 1.6954267235e+00	-5.8574380547e-01
 3.2602995180e-01	 1.6984020497e+00	-5.4602368162e-01
 3.1091081213e-01	 1.7012347042e+00	-5.0728085531e-01
 2.9580900091e-01	 1.7039254933e+00	-4.6928234267e-01
 4.4890400679e-01	 1.6762251840e+00	-9.0302125286e-01
 4.3366243391e-01	 1.6802328910e+00	-8.4764738467e-01
 4.1842290494e-01	 1.6840926184e+00	-7.9549881348e-01
 4.0318741540e-01	 1.6878049599e+00	-7.4619088774e-01
 3.8795793977e-01	 1.6913705424e+00	-6.9935856193e-01
 3.7273643090e-01	 1.6947900247e+00	-6.5465801883e-01
 3.5752481946e-01	 1.6980640972e+00	-6.1176807133e-01
 3.4232501335e-01	 1.7011934811e+00	-5.7039134798e-01
 3.2713889722e-01	 1.7041789274e+00	-5.3025526741e-01
 3.1196833190e-01	 1.7070212168e+00	-4.9111280728e-01
 2.9681515397e-01	 1.7097211583e+00	-4.5274307422e-01
 4.5042571529e-01	 1.6819073033e+00	-8.9020016358e-01
 4.3513247606e-01	 1.6859285958e+00	-8.3446337145e-01
 4.1984128767e-01	 1.6898014069e+00	-7.8188194186e-01
 4.0455415240e-01	 1.6935263327e+00	-7.3208481278e-01
 3.8927305143e-01	 1.6971040019e+00	-6.8472143759e-01
 3.7399994422e-01	 1.7005350756e+00	-6.3946338973e-01
 3.5873676800e-01	 1.7038202467e+00	-5.9600574317e-01
 3.4348543712e-01	 1.7069602386e+00	-5.5406823320e-01
 3.2824784263e-01	 1.7099558051e+00	-5.1339620284e-01
 3.1302585167e-01	 1.7128077294e+00	-4.7376134067e-01
 2.9782130703e-01	 1.7155168232e+00	-4.3496221673e-01
 4.5194742379e-01	 1.6875894225e+00	-8.7735858905e-01
 4.3660251821e-01	 1.6916243005e+00	-8.2114426302e-01
 4.2125967040e-01	 1.6955101955e+00	-7.6799370461e-01
 4.0592088941e-01	 1.6992477054e+00	-7.1755633635e-01
 3.9058816309e-01	 1.7028374613e+00	-6.6950309490e-01
 3.7526345755e-01	 1.7062801266e+00	-6.2352800698e-01
 3.5994871654e-01	 1.7095763962e+00	-5.7934953753e-01
 3.4464586090e-01	 1.7127269962e+00	-5.3671171503e-01
 3.2935678804e-01	 1.7157326829e+00	-4.9538503910e-01
 3.1408337143e-01	 1.7185942420e+00	-4.5516717661e-01
 2.9882746010e-01	 1.7213124882e+00	-4.1588345312e-01
 4.5346913228e-01	 1.6932715418e+00	-8.6445573297e-01
 4.3807256035e-01	 1.6973200052e+00	-8.0764232670e-01
 4.2267805313e-01	 1.7012189840e+00	-7.5378085497e-01
 4.0728762641e-01	 1.7049690782e+00	-7.0254803928e-01
 3.9190327475e-01	 1.7085709208e+00	-6.5364320325e-01
 3.7652697087e-01	 1.7120251775e+00	-6.0678980880e-01
 3.6116066508e-01	 1.7153325457e+00	-5.6173676126e-01
 3.4580628467e-01	 1.7184937537e+00	-5.1825948826e-01
 3.3046573346e-01	 1.7215095606e+00	-4.7616079796e-01
 3.1514089120e-01	 1.7243807546e+00	-4.3527152295e-01
 2.9983361316e-01	 1.7271081531e+00	-3.9545095677e-01
 4.5499084078e-01	 1.6989536611e+00	-8.5145055985e-01
 4.3954260250e-01	 1.7030157099e+00	-7.9390974295e-01
 4.2409643586e-01	 1.7069277726e+00	-7.3919019093e-01
 4.0865436341e-01	 1.7106904509e+00	-6.8700265913e-01
 3.9321838641e-01	 1.7143043803e+00	-6.3708168212e-01
 3.7779048420e-01	 1.7177702284e+00	-5.8918705940e-01
 3.6237261362e-01	 1.7210886951e+00	-5.4310510652e-01
 3.4696670845e-01	 1.7242605113e+00	-4.9864967687e-01
 3.3157467887e-01	 1.7272864383e+00	-4.5566295997e-01
 3.1619841097e-01	 1.7301672672e+00	-4.1401606255e-01
 3.0083976623e-01	 1.7329038181e+00	-3.7360937997e-01
 4.5651254928e-01	 1.7046357803e+00	-8.3830179240e-01
 4.4101264465e-01	 1.7087114146e+00	-7.7989860050e-01
 4.2551481859e-01	 1.7126365611e+00	-7.2416854859e-01
 4.1002110041e-01	 1.7164118237e+00	-6.7086308202e-01
 3.9453349807e-01	 1.7200378397e+00	-6.1975869178e-01
 3.7905399752e-01	 1.7235152794e+00	-5.7065833868e-01
 3.6358456216e-01	 1.7268448446e+00	-5.2339263986e-01
 3.4812713222e-01	 1.7300272689e+00	-4.7782082277e-01
 3.3268362429e-01	 1.7330633160e+00	-4.3383145288e-01
 3.1725593074e-01	 1.7359537798e+00	-3.9134294169e-01
 3.0184591929e-01	 1.7386994830e+00	-3.5030384256e-01
 2.9178438865e-01	 1.6807428336e+00	-5.2416770283e-01
 2.7690691808e-01	 1.6832579009e+00	-4.8885732136e-01
 2.6205007775e-01	 1.6856347050e+00	-4.5624718710e-01
 2.4721559892e-01	 1.6878741214e+00	-4.2613181223e-01
 2.3240518734e-01	 1.6899770504e+00	-3.9833814459e-01
 2.1762052286e-01	 1.6919444170e+00	-3.7272517102e-01
 2.0286325912e-01	 1.6937771696e+00	-3.4918337427e-01
 1.8813502324e-01	 1.6954762797e+00	-3.2763405249e-01
 1.7343741549e-01	 1.6970427411e+00	-3.0802851016e-01
 1.5877200906e-01	 1.6984775687e+00	-2.9034712944e-01
 1.4414034981e-01	 1.6997817982e+00	-2.7459833125e-01
 2.9279054171e-01	 1.6865384985e+00	-5.1202139158e-01
 2.7786176952e-01	 1.6890622384e+00	-4.7653812885e-01
 2.6295369871e-01	 1.6914472385e+00	-4.4374296305e-01
 2.4806806650e-01	 1.6936943770e+00	-4.1343396659e-01
 2.3320658454e-01	 1.6958045575e+00	-3.8544236666e-01
 2.1837093845e-01	 1.6977787081e+00	-3.5963212424e-01
 2.0356278760e-01	 1.6996177805e+00	-3.3589936466e-01
 1.8878376470e-01	 1.7013227497e+00	-3.1417166849e-01
 1.7403547554e-01	 1.7028946126e+00	-2.9440723190e-01
 1.5931949875e-01	 1.7043343879e+00	-2.7659390596e-01
 1.4463738550e-01	 1.7056431148e+00	-2.6074812381e-01
 2.9379669478e-01	 1.6923341635e+00	-4.9886390432e-01
 2.7881662096e-01	 1.6948665760e+00	-4.6317614040e-01
 2.6385731967e-01	 1.6972597720e+00	-4.3020060933e-01
 2.4892053409e-01	 1.6995146326e+00	-3.9973303656e-01
 2.3400798173e-01	 1.7016320646e+00	-3.7160314329e-01
 2.1912135405e-01	 1.7036129992e+00	-3.4567420572e-01
 2.0426231608e-01	 1.7054583914e+00	-3.2184246330e-01
 1.8943250615e-01	 1.7071692196e+00	-3.0003638498e-01
 1.7463353559e-01	 1.7087464841e+00	-2.8021580275e-01
 1.5986698843e-01	 1.7101912071e+00	-2.6237092194e-01
 1.4513442119e-01	 1.7115044313e+00	-2.4652121792e-01
 2.9480284784e-01	 1.6981298284e+00	-4.8463684147e-01
 2.7977147241e-01	 1.7006709136e+00	-4.4871643847e-01
 2.6476094062e-01	 1.7030723054e+00	-4.1556900717e-01
 2.4977300167e-01	 1.7053348882e+00	-3.8498207597e-01
 2.3480937893e-01	 1.7074595716e+00	-3.5677813106e-01
 2.1987176965e-01	 1.7094472902e+00	-3.3081416050e-01
 2.0496184456e-01	 1.7112990024e+00	-3.0698104429e-01
 1.9008124761e-01	 1.7130156895e+00	-2.8520279986e-01
 1.7523159565e-01	 1.7145983556e+00	-2.6543569234e-01
 1.6041447812e-01	 1.7160480263e+00	-2.4766721935e-01
 1.4563145688e-01	 1.7173657479e+00	-2.3191497996e-01
 2.9580900091e-01	 1.7039254933e+00	-4.6928234267e-01
 2.8072632385e-01	 1.7064752512e+00	-4.3310463842e-01
 2.6566456158e-01	 1.7088848389e+00	-3.9979755838e-01
 2.5062546925e-01	 1.7111551438e+00	-3.6913463990e-01
 2.3561077613e-01	 1.7132870787e+00	-3.4092546078e-01
 2.2062218524e-01	 1.7152815813e+00	-3.1501517241e-01
 2.0566137304e-01	 1.7171396133e+00	-2.9128387592e-01
 1.9072998907e-01	 1.7188621594e+00	-2.6964585071e-01
 1.7582965570e-01	 1.7204502271e+00	-2.5004864501e-01
 1.6096196781e-01	 1.7219048455e+00	-2.3247203842e-01
 1.4612849257e-01	 1.7232270644e+00	-2.1692688626e-01
 2.9681515397e-01	 1.7097211583e+00	-4.5274307422e-01
 2.8168117529e-01	 1.7122795888e+00	-4.1628687640e-01
 2.6656818254e-01	 1.7146973724e+00	-3.8283617353e-01
 2.5147793683e-01	 1.7169753994e+00	-3.5214477347e-01
 2.3641217333e-01	 1.7191145858e+00	-3.2400372697e-01
 2.2137260084e-01	 1.7211158724e+00	-2.9824085441e-01
 2.0636090152e-01	 1.7229802242e+00	-2.7472011201e-01
 1.9137873053e-01	 1.7247086294e+00	-2.5334080729e-01
 1.7642771575e-01	 1.7263020987e+00	-2.3403667345e-01
 1.6150945749e-01	 1.7277616647e+00	-2.1677481293e-01
 1.4662552825e-01	 1.7290883810e+00	-2.0155452005e-01
 2.9782130703e-01	 1.7155168232e+00	-4.3496221673e-01
 2.8263602673e-01	 1.7180839264e+00	-3.9820979735e-01
 2.6747180350e-01	 1.7205099058e+00	-3.6463526056e-01
 2.5233040442e-01	 1.7227956550e+00	-3.3396700096e-01
 2.3721357052e-01	 1.7249420929e+00	-3.0597197770e-01
 2.2212301643e-01	 1.7269501635e+00	-2.8045523917e-01
 2.0706043000e-01	 1.7288208352e+00	-2.5725928340e-01
 1.9202747199e-01	 1.7305550993e+00	-2.3626326413e-01
 1.7702577581e-01	 1.7321539702e+00	-2.1738205264e-01
 1.6205694718e-01	 1.7336184839e+00	-2.0056516545e-01
 1.4712256394e-01	 1.7349496975e+00	-1.8579556837e-01
 2.9882746010e-01	 1.7213124882e+00	-4.1588345312e-01
 2.8359087817e-01	 1.7238882640e+00	-3.7882054334e-01
 2.6837542445e-01	 1.7263224393e+00	-3.4514571347e-01
 2.5318287200e-01	 1.7286159105e+00	-3.1455631505e-01
 2.3801496772e-01	 1.7307695999e+00	-2.8678970446e-01
 2.2287343203e-01	 1.7327844546e+00	-2.6162276981e-01
 2.0775995848e-01	 1.7346614461e+00	-2.3887128961e-01
 1.9267621345e-01	 1.7364015692e+00	-2.1838913328e-01
 1.7762383586e-01	 1.7380058417e+00	-2.0006731379e-01
 1.6260443687e-01	 1.7394753031e+00	-1.8383290285e-01
 1.4761959963e-01	 1.7408110141e+00	-1.6964781910e-01
 2.9983361316e-01	 1.7271081531e+00	-3.9545095677e-01
 2.8454572961e-01	 1.7296926016e+00	-3.5806674210e-01
 2.6927904541e-01	 1.7321349728e+00	-3.2431890133e-01
 2.5403533958e-01	 1.7344361661e+00	-2.9386816641e-01
 2.3881636492e-01	 1.7365971070e+00	-2.6641683239e-01
 2.2362384763e-01	 1.7386187457e+00	-2.4170829081e-01
 2.0845948696e-01	 1.7405020570e+00	-2.1952639071e-01
 1.9332495491e-01	 1.7422480392e+00	-1.9969463721e-01
 1.7822189591e-01	 1.7438577132e+00	-1.8207523852e-01
 1.6315192655e-01	 1.7453321223e+00	-1.6656801169e-01
 1.4811663532e-01	 1.7466723306e+00	-1.5310915802e-01
 3.0083976623e-01	 1.7329038181e+00	-3.7360937997e-01
 2.8550058105e-01	 1.7354969392e+00	-3.3589649578e-01
 2.7018266637e-01	 1.7379475062e+00	-3.0210665745e-01
 2.5488780716e-01	 1.7402564217e+00	-2.7185845336e-01
 2.3961776212e-01	 1.7424246141e+00	-2.4481371058e-01
 2.2437426322e-01	 1.7444530368e+00	-2.2067703918e-01
 2.0915901544e-01	 1.7463426679e+00	-1.9919519933e-01
 1.9397369637e-01	 1.7480945091e+00	-1.8015630188e-01
 1.7881995597e-01	 1.7497095847e+00	-1.6338885303e-01
 1.6369941624e-01	 1.7511889415e+00	-1.4876065389e-01
 1.4861367101e-01	 1.7525336472e+00	-1.3617756594e-01
 3.0184591929e-01	 1.7386994830e+00	-3.5030384256e-01
 2.8645543250e-01	 1.7413012767e+00	-3.1225836995e-01
 2.7108628733e-01	 1.7437600397e+00	-2.7846126881e-01
 2.5574027475e-01	 1.7460766773e+00	-2.4848351180e-01
 2.4041915932e-01	 1.7482521211e+00	-2.2194110270e-01
 2.2512467882e-01	 1.7502873279e+00	-1.9849463570e-01
 2.0985854392e-01	 1.7521832789e+00	-1.7784867279e-01
 1.9462243783e-01	 1.7539409790e+00	-1.5975094986e-01
 1.7941801602e-01	 1.7555614563e+00	-1.4399142249e-01
 1.6424690593e-01	 1.7570457607e+00	-1.3040116242e-01
 1.4911070670e-01	 1.7583949637e+00	-1.1885111590e-01
 1.4414034981e-01	 1.6997817982e+00	-2.7459833125e-01
 1.2954395601e-01	 1.7009564855e+00	-2.6043576449e-01
 1.1498431817e-01	 1.7020027052e+00	-2.4758463857e-01
 1.0046289885e-01	 1.7029215508e+00	-2.3619529956e-01
 8.5981132481e-02	 1.7037141330e+00	-2.2643594623e-01
 7.1540425233e-02	 1.7043815798e+00	-2.1849118206e-01
 5.7142154900e-02	 1.7049250354e+00	-2.1256051793e-01
 4.2787670791e-02	 1.7053456592e+00	-2.0885683399e-01
 2.8478293645e-02	 1.7056446256e+00	-2.0760480881e-01
 1.4215315570e-02	 1.7058231230e+00	-2.0903932396e-01
 0.0000000000e+00	 1.7058823529e+00	-2.1340385149e-01
 1.4463738550e-01	 1.7056431148e+00	-2.6074812381e-01
 1.2999065931e-01	 1.7068218527e+00	-2.4650902342e-01
 1.1538081582e-01	 1.7078716801e+00	-2.3358502416e-01
 1.0080932264e-01	 1.7087936940e+00	-2.2213242814e-01
 8.6277619145e-02	 1.7095890093e+00	-2.1232664730e-01
 7.1787116354e-02	 1.7102587577e+00	-2.0436069953e-01
 5.7339196814e-02	 1.7108040872e+00	-1.9844365432e-01
 4.2935214484e-02	 1.7112261615e+00	-1.9479903670e-01
 2.8576494658e-02	 1.7115261588e+00	-1.9366319776e-01
 1.4264333900e-02	 1.7117052717e+00	-1.9528366005e-01
 0.0000000000e+00	 1.7117647059e+00	-1.9991744569e-01
 1.4513442119e-01	 1.7115044313e+00	-2.4652121792e-01
 1.3043736260e-01	 1.7126872199e+00	-2.3229165731e-01
 1.1577731347e-01	 1.7137406549e+00	-2.1937781026e-01
 1.0115574643e-01	 1.7146658373e+00	-2.0794239207e-01
 8.6574105808e-02	 1.7154638856e+00	-1.9816837387e-01
 7.2033807476e-02	 1.7161359355e+00	-1.9025742481e-01
 5.7536238727e-02	 1.7166831391e+00	-1.8442830275e-01
 4.3082758176e-02	 1.7171066637e+00	-1.8091520248e-01
 2.8674695670e-02	 1.7174076920e+00	-1.7996606982e-01
 1.4313352229e-02	 1.7175874204e+00	-1.8184089017e-01
 0.0000000000e+00	 1.7176470588e+00	-1.8680995953e-01
 1.4563145688e-01	 1.7173657479e+00	-2.3191497996e-01
 1.3088406590e-01	 1.7185525871e+00	-2.1778899945e-01
 1.1617381112e-01	 1.7196096298e+00	-2.0497479795e-01
 1.0150217022e-01	 1.7205379806e+00	-1.9364196486e-01
 8.6870592472e-02	 1.7213387619e+00	-1.8398138114e-01
 7.2280498597e-02	 1.7220131134e+00	-1.7620360960e-01
 5.7733280641e-02	 1.7225621909e+00	-1.7053723274e-01
 4.3230301868e-02	 1.7229871660e+00	-1.6722714735e-01
 2.8772896683e-02	 1.7232892252e+00	-1.6653282439e-01
 1.4362370559e-02	 1.7234695691e+00	-1.6872654299e-01
 0.0000000000e+00	 1.7235294118e+00	-1.7409160662e-01
 1.4612849257e-01	 1.7232270644e+00	-2.1692688626e-01
 1.3133076920e-01	 1.7244179543e+00	-2.0300640796e-01
 1.1657030877e-01	 1.7254786046e+00	-1.9038774676e-01
 1.0184859401e-01	 1.7264101239e+00	-1.7924783072e-01
 8.7167079136e-02	 1.7272136383e+00	-1.6978580594e-01
 7.2527189719e-02	 1.7278902913e+00	-1.6222137683e-01
 5.7930322554e-02	 1.7284412427e+00	-1.5679309324e-01
 4.3377845561e-02	 1.7288676683e+00	-1.5375659345e-01
 2.8871097695e-02	 1.7291707584e+00	-1.5338281213e-01
 1.4411388889e-02	 1.7293517178e+00	-1.5595616193e-01
 0.0000000000e+00	 1.7294117647e+00	-1.6177269716e-01
 1.4662552825e-01	 1.7290883810e+00	-2.0155452005e-01
 1.3177747249e-01	 1.7302833214e+00	-1.8794926430e-01
 1.1696680642e-01	 1.7313475795e+00	-1.7562837437e-01
 1.0219501780e-01	 1.7322822671e+00	-1.6477658528e-01
 8.7463565800e-02	 1.7330885146e+00	-1.5560166809e-01
 7.2773880840e-02	 1.7337674691e+00	-1.4833272233e-01
 5.8127364468e-02	 1.7343202946e+00	-1.4321841421e-01
 4.3525389253e-02	 1.7347481706e+00	-1.4052517031e-01
 2.8969298708e-02	 1.7350522916e+00	-1.4053533559e-01
 1.4460407218e-02	 1.7352338665e+00	-1.4354530489e-01
 0.0000000000e+00	 1.7352941176e+00	-1.4986363634e-01
 1.4712256394e-01	 1.7349496975e+00	-1.8579556837e-01
 1.3222417579e-01	 1.7361486886e+00	-1.7262297176e-01
 1.1736330407e-01	 1.7372165543e+00	-1.6070835644e-01
 1.0254144159e-01	 1.7381544104e+00	-1.5024473626e-01
 8.7760052463e-02	 1.7389633909e+00	-1.4144887175e-01
 7.3020571962e-02	 1.7396446470e+00	-1.3455951642e-01
 5.8324406381e-02	 1.7401993464e+00	-1.2983560829e-01
 4.3672932946e-02	 1.7406286728e+00	-1.2755441614e-01
 2.9067499720e-02	 1.7409338248e+00	-1.2800964984e-01
 1.4509425548e-02	 1.7411160152e+00	-1.3150954385e-01
 0.0000000000e+00	 1.7411764706e+00	-1.3837492266e-01
 1.4761959963e-01	 1.7408110141e+00	-1.6964781910e-01
 1.3267087909e-01	 1.7420140558e+00	-1.5703295405e-01
 1.1775980172e-01	 1.7430855292e+00	-1.4563932634e-01
 1.0288786538e-01	 1.7440265537e+00	-1.3566870422e-01
 8.8056539127e-02	 1.7448382672e+00	-1.2734720666e-01
 7.3267263083e-02	 1.7455218249e+00	-1.2092350553e-01
 5.8521448295e-02	 1.7460783983e+00	-1.1666697231e-01
 4.3820476638e-02	 1.7465091751e+00	-1.1486577905e-01
 2.9165700733e-02	 1.7468153580e+00	-1.1582496305e-01
 1.4558443877e-02	 1.7469981639e+00	-1.1986446457e-01
 0.0000000000e+00	 1.7470588235e+00	-1.2731714643e-01
 1.4811663532e-01	 1.7466723306e+00	-1.5310915802e-01
 1.3311758238e-01	 1.7478794230e+00	-1.4118465384e-01
 1.1815629937e-01	 1.7489545040e+00	-1.3043287496e-01
 1.0323428917e-01	 1.7498986970e+00	-1.2106482320e-01
 8.8353025791e-02	 1.7507131436e+00	-1.1331634946e-01
 7.3513954205e-02	 1.7513990027e+00	-1.0744631371e-01
 5.8718490208e-02	 1.7519574501e+00	-1.0373468884e-01
 4.3968020330e-02	 1.7523896774e+00	-1.0248061828e-01
 2.9263901746e-02	 1.7526968911e+00	-1.0400043715e-01
 1.4607462207e-02	 1.7528803126e+00	-1.0862566627e-01
 0.0000000000e+00	 1.7529411765e+00	-1.1670098818e-01
 1.4861367101e-01	 1.7525336472e+00	-1.3617756594e-01
 1.3356428568e-01	 1.7537447902e+00	-1.2508353140e-01
 1.1855279701e-01	 1.7548234789e+00	-1.1510055051e-01
 1.0358071296e-01	 1.7557708403e+00	-1.0644934139e-01
 8.8649512454e-02	 1.7565880199e+00	-9.9375864897e-02
 7.3760645326e-02	 1.7572761806e+00	-9.4149444214e-02
 5.8915532122e-02	 1.7578365020e+00	-9.1060827733e-02
 4.4115564023e-02	 1.7582701796e+00	-9.0420205399e-02
 2.9362102758e-02	 1.7585784243e+00	-9.2555188330e-02
 1.4656480536e-02	 1.7587624613e+00	-9.7808761280e-02
 0.0000000000e+00	 1.7588235294e+00	-1.0653721719e-01
 1.4911070670e-01	 1.7583949637e+00	-1.1885111590e-01
 1.3401098898e-01	 1.7596101574e+00	-1.0873506325e-01
 1.1894929466e-01	 1.7606924537e+00	-9.9653858281e-02
 1.0392713674e-01	 1.7616429835e+00	-9.1838421794e-02
 8.8945999118e-02	 1.7624628962e+00	-8.5545207079e-02
 7.4007336448e-02	 1.7631533584e+00	-8.1054280940e-02
 5.9112574035e-02	 1.7637155538e+00	-7.8667347553e-02
 4.4263107715e-02	 1.7641506819e+00	-7.8705725459e-02
 2.9460303771e-02	 1.7644599575e+00	-8.1508287697e-02
 1.4705498866e-02	 1.7646446100e+00	-8.7429374791e-02
 0.0000000000e+00	 1.7647058824e+00	-9.6836689990e-02
 1.7647058824e+00	 0.0000000000e+00	 3.1879837676e+00
 1.7646446100e+00	 1.4705498866e-02	 3.1829738346e+00
 1.7644599575e+00	 2.9460303771e-02	 3.1785221901e+00
 1.7641506819e+00	 4.4263107715e-02	 3.1740190092e+00
 1.7637155538e+00	 5.9112574035e-02	 3.1689125016e+00
 1.7631533584e+00	 7.4007336448e-02	 3.1627094778e+00
 1.7624628962e+00	 8.8945999118e-02	 3.1549756474e+00
 1.7616429835e+00	 1.0392713674e-01	 3.1453356570e+00
 1.7606924537e+00	 1.1894929466e-01	 3.1334728771e+00
 1.7596101574e+00	 1.3401098898e-01	 3.1191289499e+00
 1.7583949637e+00	 1.4911070670e-01	 3.1021031100e+00
 1.7705882353e+00	 0.0000000000e+00	 3.1742876050e+00
 1.7705267587e+00	 1.4754517195e-02	 3.1694332905e+00
 1.7703414907e+00	 2.9558504783e-02	 3.1652541415e+00
 1.7700311842e+00	 4.4410651407e-02	 3.1611299395e+00
 1.7695946057e+00	 5.9309615948e-02	 3.1564826206e+00
 1.7690305363e+00	 7.4254027569e-02	 3.1507761824e+00
 1.7683377725e+00	 8.9242485782e-02	 3.1435166052e+00
 1.7675151268e+00	 1.0427356053e-01	 3.1342517943e+00
 1.7665614285e+00	 1.1934579231e-01	 3.1225715429e+00
 1.7654755246e+00	 1.3445769227e-01	 3.1081075250e+00
 1.7642562802e+00	 1.4960774239e-01	 3.0905653956e+00
 1.7764705882e+00	 0.0000000000e+00	 3.1605711768e+00
 1.7764089074e+00	 1.4803535525e-02	 3.1559057425e+00
 1.7762230239e+00	 2.9656705796e-02	 3.1520127960e+00
 1.7759116865e+00	 4.4558195100e-02	 3.1482835475e+00
 1.7754736575e+00	 5.9506657862e-02	 3.1441510427e+00
 1.7749077142e+00	 7.4500718691e-02	 3.1390900370e+00
 1.7742126488e+00	 8.9538972446e-02	 3.1326168859e+00
 1.7733872701e+00	 1.0461998432e-01	 3.1242894540e+00
 1.7724304034e+00	 1.1974228996e-01	 3.1137070480e+00
 1.7713408918e+00	 1.3490439557e-01	 3.1005103771e+00
 1.7701175968e+00	 1.5010477808e-01	 3.0843815459e+00
 1.7823529412e+00	 0.0000000000e+00	 3.1468167857e+00
 1.7822910561e+00	 1.4852553855e-02	 3.1423724718e+00
 1.7821045571e+00	 2.9754906808e-02	 3.1387709111e+00
 1.7817921887e+00	 4.4705738792e-02	 3.1354149266e+00
 1.7813527094e+00	 5.9703699775e-02	 3.1317489049e+00
 1.7807848920e+00	 7.4747409812e-02	 3.1272586401e+00
 1.7800875252e+00	 8.9835459109e-02	 3.1214711926e+00
 1.7792594134e+00	 1.0496640811e-01	 3.1139547678e+00
 1.7782993782e+00	 1.2013878761e-01	 3.1043186178e+00
 1.7772062590e+00	 1.3535109887e-01	 3.0922129723e+00
 1.7759789133e+00	 1.5060181377e-01	 3.0773290005e+00
 1.7882352941e+00	 0.0000000000e+00	 3.1330070115e+00
 1.7881732048e+00	 1.4901572184e-02	 3.1288156293e+00
 1.7879860903e+00	 2.9853107821e-02	 3.1255108563e+00
 1.7876726910e+00	 4.4853282485e-02	 3.1225073107e+00
 1.7872317612e+00	 5.9900741689e-02	 3.1192609506e+00
 1.7866620699e+00	 7.4994100934e-02	 3.1152688877e+00
 1.7859624015e+00	 9.0131945773e-02	 3.1100692161e+00
 1.7851315567e+00	 1.0531283190e-01	 3.1032408605e+00
 1.7841683531e+00	 1.2053528526e-01	 3.0944034492e+00
 1.7830716262e+00	 1.3579780216e-01	 3.0832172138e+00
 1.7818402299e+00	 1.5109884946e-01	 3.0693829232e+00
 1.7941176471e+00	 0.0000000000e+00	 3.1191247059e+00
 1.7940553535e+00	 1.4950590514e-02	 3.1152176602e+00
 1.7938676235e+00	 2.9951308834e-02	 3.1122153087e+00
 1.7935531933e+00	 4.5000826177e-02	 3.1095442465e+00
 1.7931108131e+00	 6.0097783602e-02	 3.1066722327e+00
 1.7925392477e+00	 7.5240792055e-02	 3.1031079741e+00
 1.7918372778e+00	 9.0428432437e-02	 3.0984009251e+00
 1.7910036999e+00	 1.0565925569e-01	 3.0921411071e+00
 1.7900373279e+00	 1.2093178291e-01	 3.0839589517e+00
 1.7889369934e+00	 1.3624450546e-01	 3.0735251724e+00
 1.7877015464e+00	 1.5159588514e-01	 3.0605506693e+00
 1.8000000000e+00	 0.0000000000e+00	 3.1051529884e+00
 1.7999375022e+00	 1.4999608843e-02	 3.1015612991e+00
 1.7997491567e+00	 3.0049509846e-02	 3.0988672484e+00
 1.7994336956e+00	 4.5148369869e-02	 3.0965095893e+00
 1.7989898649e+00	 6.0294825516e-02	 3.0939681096e+00
 1.7984164256e+00	 7.5487483177e-02	 3.0907633876e+00
 1.7977121541e+00	 9.0724919101e-02	 3.0864565632e+00
 1.7968758432e+00	 1.0600567948e-01	 3.0806491289e+00
 1.7959063028e+00	 1.2132828056e-01	 3.0729827456e+00
 1.7948023606e+00	 1.3669120876e-01	 3.0631390852e+00
 1.7935628630e+00	 1.5209292083e-01	 3.0508397078e+00
 1.8058823529e+00	 0.0000000000e+00	 3.0910752417e+00
 1.8058196509e+00	 1.5048627173e-02	 3.0878295658e+00
 1.8056306899e+00	 3.0147710859e-02	 3.0854499542e+00
 1.8053141978e+00	 4.5295913562e-02	 3.0833874981e+00
 1.8048689167e+00	 6.0491867429e-02	 3.0811342410e+00
 1.8042936035e+00	 7.5734174298e-02	 3.0782229071e+00
 1.8035870304e+00	 9.1021405764e-02	 3.0742266450e+00
 1.8027479865e+00	 1.0635210327e-01	 3.0687587915e+00
 1.8017752776e+00	 1.2172477821e-01	 3.0614726594e+00
 1.8006677277e+00	 1.3713791205e-01	 3.0520613536e+00
 1.7994241795e+00	 1.5258995652e-01	 3.0402576204e+00
 1.8117647059e+00	 0.0000000000e+00	 3.0768751079e+00
 1.8117017996e+00	 1.5097645502e-02	 3.0740057604e+00
 1.8115122231e+00	 3.0245911871e-02	 3.0719469989e+00
 1.8111947001e+00	 4.5443457254e-02	 3.0701624316e+00
 1.8107479686e+00	 6.0688909343e-02	 3.0681565835e+00
 1.8101707813e+00	 7.5980865420e-02	 3.0654745976e+00
 1.8094619068e+00	 9.1317892428e-02	 3.0617019528e+00
 1.8086201298e+00	 1.0669852706e-01	 3.0564642009e+00
 1.8076442525e+00	 1.2212127585e-01	 3.0494267276e+00
 1.8065330949e+00	 1.3758461535e-01	 3.0402945422e+00
 1.8052854961e+00	 1.5308699221e-01	 3.0288121005e+00
 1.8176470588e+00	 0.0000000000e+00	 3.0625364836e+00
 1.8175839483e+00	 1.5146663832e-02	 3.0600734596e+00
 1.8173937563e+00	 3.0344112884e-02	 3.0583422452e+00
 1.8170752024e+00	 4.5591000947e-02	 3.0568191440e+00
 1.8166270204e+00	 6.0885951256e-02	 3.0550213866e+00
 1.8160479592e+00	 7.6227556541e-02	 3.0525068067e+00
 1.8153367831e+00	 9.1614379092e-02	 3.0488735331e+00
 1.8144922730e+00	 1.0704495085e-01	 3.0437597013e+00
 1.8135132273e+00	 1.2251777350e-01	 3.0368431882e+00
 1.8123984621e+00	 1.3803131865e-01	 3.0278413769e+00
 1.8111468126e+00	 1.5358402790e-01	 3.0165109527e+00
 1.8235294118e+00	 0.0000000000e+00	 3.0480435165e+00
 1.8234660970e+00	 1.5195682161e-02	 3.0460165118e+00
 1.8232752894e+00	 3.0442313896e-02	 3.0446198411e+00
 1.8229557046e+00	 4.5738544639e-02	 3.0433426804e+00
 1.8225060723e+00	 6.1082993169e-02	 3.0417151889e+00
 1.8219251371e+00	 7.6474247663e-02	 3.0393081610e+00
 1.8212116594e+00	 9.1910865755e-02	 3.0357326934e+00
 1.8203644163e+00	 1.0739137464e-01	 3.0306398716e+00
 1.8193822022e+00	 1.2291427115e-01	 3.0237204806e+00
 1.8182638293e+00	 1.3847802194e-01	 3.0147047432e+00
 1.8170081292e+00	 1.5408106359e-01	 3.0033620919e+00
 1.7583949637e+00	 1.4911070670e-01	 3.1021031100e+00
 1.7570457607e+00	 1.6424690593e-01	 3.0819704040e+00
 1.7555614563e+00	 1.7941801602e-01	 3.0584614835e+00
 1.7539409790e+00	 1.9462243783e-01	 3.0316930889e+00
 1.7521832789e+00	 2.0985854392e-01	 3.0018358420e+00
 1.7502873279e+00	 2.2512467882e-01	 2.9691124498e+00
 1.7482521211e+00	 2.4041915932e-01	 2.9337957861e+00
 1.7460766773e+00	 2.5574027475e-01	 2.8962068740e+00
 1.7437600397e+00	 2.7108628733e-01	 2.8567127953e+00
 1.7413012767e+00	 2.8645543250e-01	 2.8157245499e+00
 1.7386994830e+00	 3.0184591929e-01	 2.7736948953e+00
 1.7642562802e+00	 1.4960774239e-01	 3.0905653956e+00
 1.7629025799e+00	 1.6479439561e-01	 3.0697930444e+00
 1.7614133278e+00	 1.8001607607e-01	 3.0456296692e+00
 1.7597874490e+00	 1.9527117929e-01	 3.0182149773e+00
 1.7580238898e+00	 2.1055807240e-01	 2.9877425940e+00
 1.7561216190e+00	 2.2587509441e-01	 2.9544581210e+00
 1.7540796282e+00	 2.4122055651e-01	 2.9186570711e+00
 1.7518969329e+00	 2.5659274233e-01	 2.8806827041e+00
 1.7495725732e+00	 2.7198990829e-01	 2.8409237895e+00
 1.7471056143e+00	 2.8741028394e-01	 2.7998123219e+00
 1.7444951480e+00	 3.0285207236e-01	 2.7578212164e+00
 1.7701175968e+00	 1.5010477808e-01	 3.0843815459e+00
 1.7687593991e+00	 1.6534188530e-01	 3.0647479740e+00
 1.7672651993e+00	 1.8061413613e-01	 3.0411877751e+00
 1.7656339189e+00	 1.9591992075e-01	 3.0136713545e+00
 1.7638645007e+00	 2.1125760088e-01	 2.9823213198e+00
 1.7619559101e+00	 2.2662551001e-01	 2.9480340249e+00
 1.7599071353e+00	 2.4202195371e-01	 2.9112633314e+00
 1.7577171885e+00	 2.5744520991e-01	 2.8723751218e+00
 1.7553851066e+00	 2.7289352924e-01	 2.8317802669e+00
 1.7529099519e+00	 2.8836513538e-01	 2.7899321934e+00
 1.7502908129e+00	 3.0385822542e-01	 2.7473244357e+00
 1.7759789133e+00	 1.5060181377e-01	 3.0773290005e+00
 1.7746162183e+00	 1.6588937498e-01	 3.0590892338e+00
 1.7731170708e+00	 1.8121219618e-01	 3.0370699847e+00
 1.7714803888e+00	 1.9656866221e-01	 3.0112541113e+00
 1.7697051117e+00	 2.1195712936e-01	 2.9816647729e+00
 1.7677902012e+00	 2.2737592561e-01	 2.9483653189e+00
 1.7657346423e+00	 2.4282335091e-01	 2.9114592346e+00
 1.7635374441e+00	 2.5829767749e-01	 2.8712986864e+00
 1.7611976401e+00	 2.7379715020e-01	 2.8293042155e+00
 1.7587142895e+00	 2.8931998682e-01	 2.7861141605e+00
 1.7560864778e+00	 3.0486437848e-01	 2.7422431494e+00
 1.7818402299e+00	 1.5109884946e-01	 3.0693829232e+00
 1.7804730375e+00	 1.6643686467e-01	 3.0523148047e+00
 1.7789689424e+00	 1.8181025623e-01	 3.0315833473e+00
 1.7773268587e+00	 1.9721740367e-01	 3.0071835474e+00
 1.7755457226e+00	 2.1265665784e-01	 2.9791495128e+00
 1.7736244923e+00	 2.2812634120e-01	 2.9475543030e+00
 1.7715621494e+00	 2.4362474811e-01	 2.9125098264e+00
 1.7693576997e+00	 2.5915014508e-01	 2.8741667998e+00
 1.7670101736e+00	 2.7470077116e-01	 2.8327147763e+00
 1.7645186271e+00	 2.9027483826e-01	 2.7883874890e+00
 1.7618821428e+00	 3.0587053155e-01	 2.7426151379e+00
 1.7877015464e+00	 1.5159588514e-01	 3.0605506693e+00
 1.7863298567e+00	 1.6698435436e-01	 3.0444378744e+00
 1.7848208139e+00	 1.8240831629e-01	 3.0247473608e+00
 1.7831733287e+00	 1.9786614513e-01	 3.0014859537e+00
 1.7813863335e+00	 2.1335618632e-01	 2.9746984283e+00
 1.7794587834e+00	 2.2887675680e-01	 2.9444673021e+00
 1.7773896565e+00	 2.4442614530e-01	 2.9109126852e+00
 1.7751779553e+00	 2.6000261266e-01	 2.8741921933e+00
 1.7728227070e+00	 2.7560439212e-01	 2.8345009303e+00
 1.7703229647e+00	 2.9122968970e-01	 2.7920715471e+00
 1.7676778077e+00	 3.0687668461e-01	 2.7471743825e+00
 1.7935628630e+00	 1.5209292083e-01	 3.0508397078e+00
 1.7921866759e+00	 1.6753184404e-01	 3.0354716843e+00
 1.7906726854e+00	 1.8300637634e-01	 3.0165815102e+00
 1.7890197986e+00	 1.9851488659e-01	 2.9941875354e+00
 1.7872269444e+00	 2.1405571480e-01	 2.9683449265e+00
 1.7852930745e+00	 2.2962717239e-01	 2.9391454122e+00
 1.7832171636e+00	 2.4522754250e-01	 2.9067170874e+00
 1.7809982109e+00	 2.6085508024e-01	 2.8712242809e+00
 1.7786352405e+00	 2.7650801307e-01	 2.8328674939e+00
 1.7761273023e+00	 2.9218454115e-01	 2.7918834160e+00
 1.7734734727e+00	 3.0788283768e-01	 2.7485450241e+00
 1.7994241795e+00	 1.5258995652e-01	 3.0402576204e+00
 1.7980434951e+00	 1.6807933373e-01	 3.0254295292e+00
 1.7965245569e+00	 1.8360443639e-01	 3.0071052687e+00
 1.7948662685e+00	 1.9916362805e-01	 2.9853144142e+00
 1.7930675554e+00	 2.1475524328e-01	 2.9601222527e+00
 1.7911273655e+00	 2.3037758799e-01	 2.9316294824e+00
 1.7890446706e+00	 2.4602893970e-01	 2.8999719711e+00
 1.7868184665e+00	 2.6170754782e-01	 2.8653205795e+00
 1.7844477740e+00	 2.7741163403e-01	 2.8278810572e+00
 1.7819316399e+00	 2.9313939259e-01	 2.7878940157e+00
 1.7792691376e+00	 3.0888899074e-01	 2.7456349873e+00
 1.8052854961e+00	 1.5308699221e-01	 3.0288121005e+00
 1.8039003143e+00	 1.6862682342e-01	 3.0143247578e+00
 1.8023764284e+00	 1.8420249645e-01	 2.9963380987e+00
 1.8007127385e+00	 1.9981236951e-01	 2.9748926300e+00
 1.7989081663e+00	 2.1545477176e-01	 2.9500634935e+00
 1.7969616566e+00	 2.3112800359e-01	 2.9219601197e+00
 1.7948721777e+00	 2.4683033690e-01	 2.8907259420e+00
 1.7926387220e+00	 2.6256001541e-01	 2.8565381772e+00
 1.7902603074e+00	 2.7831525499e-01	 2.8196076781e+00
 1.7877359775e+00	 2.9409424403e-01	 2.7801788664e+00
 1.7850648026e+00	 3.0989514381e-01	 2.7385297506e+00
 1.8111468126e+00	 1.5358402790e-01	 3.0165109527e+00
 1.8097571335e+00	 1.6917431310e-01	 3.0021707724e+00
 1.8082283000e+00	 1.8480055650e-01	 2.9842994529e+00
 1.8065592084e+00	 2.0046111097e-01	 2.9629481439e+00
 1.8047487772e+00	 2.1615430024e-01	 2.9382015806e+00
 1.8027959477e+00	 2.3187841918e-01	 2.9101776936e+00
 1.8006996848e+00	 2.4763173409e-01	 2.8790272798e+00
 1.7984589776e+00	 2.6341248299e-01	 2.8449337402e+00
 1.7960728409e+00	 2.7921887595e-01	 2.8081128910e+00
 1.7935403151e+00	 2.9504909547e-01	 2.7688128560e+00
 1.7908604675e+00	 3.1090129687e-01	 2.7273140459e+00
 1.8170081292e+00	 1.5408106359e-01	 3.0033620919e+00
 1.8156139527e+00	 1.6972180279e-01	 2.9889810294e+00
 1.8140801715e+00	 1.8539861655e-01	 2.9710087758e+00
 1.8124056783e+00	 2.0110985242e-01	 2.9495068395e+00
 1.8105893882e+00	 2.1685382872e-01	 2.9245692931e+00
 1.8086302388e+00	 2.3262883478e-01	 2.8963223401e+00
 1.8065271918e+00	 2.4843313129e-01	 2.8649239430e+00
 1.8042792332e+00	 2.6426495057e-01	 2.8305635199e+00
 1.8018853744e+00	 2.8012249690e-01	 2.7934617148e+00
 1.7993446526e+00	 2.9600394691e-01	 2.7538702504e+00
 1.7966561324e+00	 3.1190744993e-01	 2.7120718691e+00
 1.7386994830e+00	 3.0184591929e-01	 2.7736948953e+00
 1.7359537798e+00	 3.1725593074e-01	 2.7295736801e+00
 1.7330633160e+00	 3.3268362429e-01	 2.6820615787e+00
 1.7300272689e+00	 3.4812713222e-01	 2.6312955061e+00
 1.7268448446e+00	 3.6358456216e-01	 2.5774484594e+00
 1.7235152794e+00	 3.7905399752e-01	 2.5207282285e+00
 1.7200378397e+00	 3.9453349807e-01	 2.4613762573e+00
 1.7164118237e+00	 4.1002110041e-01	 2.3996666798e+00
 1.7126365611e+00	 4.2551481859e-01	 2.3359055566e+00
 1.7087114146e+00	 4.4101264465e-01	 2.2704303345e+00
 1.7046357803e+00	 4.5651254928e-01	 2.2036095514e+00
 1.7444951480e+00	 3.0285207236e-01	 2.7578212164e+00
 1.7417402924e+00	 3.1831345051e-01	 2.7139426144e+00
 1.7388401937e+00	 3.3379256970e-01	 2.6668808700e+00
 1.7357940264e+00	 3.4928755599e-01	 2.6167342847e+00
 1.7326009941e+00	 3.6479651070e-01	 2.5636370336e+00
 1.7292603303e+00	 3.8031751085e-01	 2.5077578569e+00
 1.7257712992e+00	 3.9584860973e-01	 2.4492989093e+00
 1.7221331964e+00	 4.1138783741e-01	 2.3884947940e+00
 1.7183453496e+00	 4.2693320132e-01	 2.3256118054e+00
 1.7144071193e+00	 4.4248268680e-01	 2.2609474060e+00
 1.7103178996e+00	 4.5803425778e-01	 2.1948299589e+00
 1.7502908129e+00	 3.0385822542e-01	 2.7473244357e+00
 1.7475268050e+00	 3.1937097028e-01	 2.7030021336e+00
 1.7446170715e+00	 3.3490151512e-01	 2.6556937207e+00
 1.7415607840e+00	 3.5044797977e-01	 2.6054738091e+00
 1.7383571436e+00	 3.6600845924e-01	 2.5524525322e+00
 1.7350053812e+00	 3.8158102417e-01	 2.4967741931e+00
 1.7315047587e+00	 3.9716372139e-01	 2.4386160797e+00
 1.7278545692e+00	 4.1275457441e-01	 2.3781874718e+00
 1.7240541382e+00	 4.2835158404e-01	 2.3157288683e+00
 1.7201028241e+00	 4.4395272895e-01	 2.2515114567e+00
 1.7160000189e+00	 4.5955596628e-01	 2.1858368509e+00
 1.7560864778e+00	 3.0486437848e-01	 2.7422431494e+00
 1.7533133176e+00	 3.2042849005e-01	 2.6967985139e+00
 1.7503939492e+00	 3.3601046053e-01	 2.6485515518e+00
 1.7473275416e+00	 3.5160840354e-01	 2.5975679685e+00
 1.7441132931e+00	 3.6722040778e-01	 2.5439484939e+00
 1.7407504321e+00	 3.8284453750e-01	 2.4878274643e+00
 1.7372382181e+00	 3.9847883305e-01	 2.4293715798e+00
 1.7335759419e+00	 4.1412131141e-01	 2.3687788621e+00
 1.7297629267e+00	 4.2976996677e-01	 2.3062778414e+00
 1.7257985288e+00	 4.4542277110e-01	 2.2421269968e+00
 1.7216821381e+00	 4.6107767477e-01	 2.1766144751e+00
 1.7618821428e+00	 3.0587053155e-01	 2.7426151379e+00
 1.7590998302e+00	 3.2148600982e-01	 2.6953771476e+00
 1.7561708269e+00	 3.3711940594e-01	 2.6455048717e+00
 1.7530942991e+00	 3.5276882732e-01	 2.5930697521e+00
 1.7498694425e+00	 3.6843235632e-01	 2.5381776128e+00
 1.7464954831e+00	 3.8410805082e-01	 2.4809671537e+00
 1.7429716776e+00	 3.9979394471e-01	 2.4216086251e+00
 1.7392973147e+00	 4.1548804842e-01	 2.3603027143e+00
 1.7354717152e+00	 4.3118834950e-01	 2.2972796690e+00
 1.7314942335e+00	 4.4689281325e-01	 2.2327986848e+00
 1.7273642574e+00	 4.6259938327e-01	 2.1671475822e+00
 1.7676778077e+00	 3.0687668461e-01	 2.7471743825e+00
 1.7648863428e+00	 3.2254352959e-01	 2.6987778225e+00
 1.7619477046e+00	 3.3822835136e-01	 2.6466033013e+00
 1.7588610567e+00	 3.5392925109e-01	 2.5920312750e+00
 1.7556255920e+00	 3.6964430486e-01	 2.5351917657e+00
 1.7522405340e+00	 3.8537156415e-01	 2.4762420275e+00
 1.7487051371e+00	 4.0110905637e-01	 2.4153698610e+00
 1.7450186874e+00	 4.1685478542e-01	 2.3527924035e+00
 1.7411805038e+00	 4.3260673223e-01	 2.2887551666e+00
 1.7371899382e+00	 4.4836285540e-01	 2.2235313478e+00
 1.7330463767e+00	 4.6412109177e-01	 2.1574214426e+00
 1.7734734727e+00	 3.0788283768e-01	 2.7485450241e+00
 1.7706728554e+00	 3.2360104936e-01	 2.7018810809e+00
 1.7677245823e+00	 3.3933729677e-01	 2.6505885663e+00
 1.7646278142e+00	 3.5508967486e-01	 2.5945038049e+00
 1.7613817415e+00	 3.7085625340e-01	 2.5350420383e+00
 1.7579855849e+00	 3.8663507747e-01	 2.4737001622e+00
 1.7544385965e+00	 4.0242416803e-01	 2.4106973897e+00
 1.7507400601e+00	 4.1822152242e-01	 2.3462809554e+00
 1.7468892923e+00	 4.3402511496e-01	 2.2807250436e+00
 1.7428856429e+00	 4.4983289754e-01	 2.2143300015e+00
 1.7387284959e+00	 4.6564280027e-01	 2.1474218628e+00
 1.7792691376e+00	 3.0888899074e-01	 2.7456349873e+00
 1.7764593680e+00	 3.2465856913e-01	 2.7001958589e+00
 1.7735014601e+00	 3.4044624219e-01	 2.6503543426e+00
 1.7703945718e+00	 3.5625009864e-01	 2.5959728782e+00
 1.7671378910e+00	 3.7206820194e-01	 2.5369574718e+00
 1.7637306359e+00	 3.8789859080e-01	 2.4733889705e+00
 1.7601720560e+00	 4.0373927969e-01	 2.4076327955e+00
 1.7564614329e+00	 4.1958825942e-01	 2.3408010707e+00
 1.7525980808e+00	 4.3544349769e-01	 2.2732099261e+00
 1.7485813476e+00	 4.5130293969e-01	 2.2051998701e+00
 1.7444106152e+00	 4.6716450876e-01	 2.1371352025e+00
 1.7850648026e+00	 3.0989514381e-01	 2.7385297506e+00
 1.7822458806e+00	 3.2571608889e-01	 2.6938166669e+00
 1.7792783378e+00	 3.4155518760e-01	 2.6449085039e+00
 1.7761613294e+00	 3.5741052241e-01	 2.5917082275e+00
 1.7728940405e+00	 3.7328015048e-01	 2.5341609442e+00
 1.7694756868e+00	 3.8916210412e-01	 2.4722552208e+00
 1.7659055155e+00	 4.0505439135e-01	 2.4060245392e+00
 1.7621828056e+00	 4.2095499642e-01	 2.3363851498e+00
 1.7583068694e+00	 4.3686188042e-01	 2.2662303795e+00
 1.7542770523e+00	 4.5277298184e-01	 2.1961464067e+00
 1.7500927345e+00	 4.6868621726e-01	 2.1265483903e+00
 1.7908604675e+00	 3.1090129687e-01	 2.7273140459e+00
 1.7880323932e+00	 3.2677360866e-01	 2.6828371651e+00
 1.7850552155e+00	 3.4266413302e-01	 2.6343512251e+00
 1.7819280869e+00	 3.5857094619e-01	 2.5818131302e+00
 1.7786501900e+00	 3.7449209902e-01	 2.5252203812e+00
 1.7752207377e+00	 3.9042561745e-01	 2.4646122908e+00
 1.7716389749e+00	 4.0636950301e-01	 2.4000713371e+00
 1.7679041784e+00	 4.2232173342e-01	 2.3317246611e+00
 1.7640156579e+00	 4.3828026314e-01	 2.2598069303e+00
 1.7599727571e+00	 4.5424302399e-01	 2.1871753124e+00
 1.7557748537e+00	 4.7020792576e-01	 2.1156489410e+00
 1.7966561324e+00	 3.1190744993e-01	 2.7120718691e+00
 1.7938189058e+00	 3.2783112843e-01	 2.6673501764e+00
 1.7908320932e+00	 3.4377307843e-01	 2.6187817724e+00
 1.7876948445e+00	 3.5973136996e-01	 2.5663907788e+00
 1.7844063394e+00	 3.7570404756e-01	 2.5102402494e+00
 1.7809657887e+00	 3.9168913077e-01	 2.4504332632e+00
 1.7773724344e+00	 4.0768461467e-01	 2.3871141546e+00
 1.7736255511e+00	 4.2368847042e-01	 2.3204698892e+00
 1.7697244465e+00	 4.3969864587e-01	 2.2507315924e+00
 1.7656684618e+00	 4.5571306614e-01	 2.1781762372e+00
 1.7614569730e+00	 4.7172963426e-01	 2.1044249712e+00
 1.7046357803e+00	 4.5651254928e-01	 2.2036095514e+00
 1.7004090883e+00	 4.7201248240e-01	 2.1322893581e+00
 1.6960308036e+00	 4.8751037386e-01	 2.0540103336e+00
 1.6915004263e+00	 5.0300413408e-01	 1.9702394925e+00
 1.6868174931e+00	 5.1849165479e-01	 1.8824884486e+00
 1.6819815771e+00	 5.3397080973e-01	 1.7923134693e+00
 1.6769922886e+00	 5.4943945541e-01	 1.7013158300e+00
 1.6718492762e+00	 5.6489543189e-01	 1.6111424763e+00
 1.6665522267e+00	 5.8033656351e-01	 1.5234869967e+00
 1.6611008661e+00	 5.9576065981e-01	 1.4391693867e+00
 1.6554949601e+00	 6.1116551624e-01	 1.3540369963e+00
 1.7103178996e+00	 4.5803425778e-01	 2.1948299589e+00
 1.7060771186e+00	 4.7358585734e-01	 2.1240812553e+00
 1.7016842396e+00	 4.8913540844e-01	 2.0462555126e+00
 1.6971387611e+00	 5.0468081452e-01	 1.9628357669e+00
 1.6924402181e+00	 5.2021996030e-01	 1.8753487299e+00
 1.6875881823e+00	 5.3575071243e-01	 1.7853648341e+00
 1.6825822629e+00	 5.5127092027e-01	 1.6944985914e+00
 1.6774221071e+00	 5.6677841666e-01	 1.6044092711e+00
 1.6721074008e+00	 5.8227101873e-01	 1.5168019035e+00
 1.6666378690e+00	 5.9774652867e-01	 1.4320327078e+00
 1.6610132767e+00	 6.1320273462e-01	 1.3462963858e+00
 1.7160000189e+00	 4.5955596628e-01	 2.1858368509e+00
 1.7117451489e+00	 4.7515923228e-01	 2.1155054463e+00
 1.7073376756e+00	 4.9076044301e-01	 2.0380681968e+00
 1.7027770959e+00	 5.0635749497e-01	 1.9550075716e+00
 1.6980629431e+00	 5.2194826582e-01	 1.8678488272e+00
 1.6931947876e+00	 5.3753061513e-01	 1.7781600672e+00
 1.6881722372e+00	 5.5310238512e-01	 1.6875526277e+00
 1.6829949380e+00	 5.6866140143e-01	 1.5976817980e+00
 1.6776625749e+00	 5.8420547394e-01	 1.5102478790e+00
 1.6721748719e+00	 5.9973239754e-01	 1.4250678592e+00
 1.6665315932e+00	 6.1523995301e-01	 1.3388818552e+00
 1.7216821381e+00	 4.6107767477e-01	 2.1766144751e+00
 1.7174131792e+00	 4.7673260722e-01	 2.1065251964e+00
 1.7129911116e+00	 4.9238547759e-01	 2.0293931095e+00
 1.7084154306e+00	 5.0803417542e-01	 1.9466836909e+00
 1.7036856681e+00	 5.2367657133e-01	 1.8599043496e+00
 1.6988013928e+00	 5.3931051783e-01	 1.7706045241e+00
 1.6937622115e+00	 5.5493384997e-01	 1.6803761206e+00
 1.6885677689e+00	 5.7054438620e-01	 1.5908542991e+00
 1.6832177489e+00	 5.8613992915e-01	 1.5037186125e+00
 1.6777118748e+00	 6.0171826640e-01	 1.4181898349e+00
 1.6720499097e+00	 6.1727717140e-01	 1.3317141362e+00
 1.7273642574e+00	 4.6259938327e-01	 2.1671475822e+00
 1.7230812095e+00	 4.7830598217e-01	 2.0971046439e+00
 1.7186445476e+00	 4.9401051217e-01	 2.0201761914e+00
 1.7140537654e+00	 5.0971085586e-01	 1.9377944424e+00
 1.7093083930e+00	 5.2540487685e-01	 1.8514327237e+00
 1.7044079981e+00	 5.4109042052e-01	 1.7626056301e+00
 1.6993521858e+00	 5.5676531482e-01	 1.6728695377e+00
 1.6941405999e+00	 5.7242737098e-01	 1.5838234809e+00
 1.6887729230e+00	 5.8807438436e-01	 1.4971103968e+00
 1.6832488777e+00	 6.0370413527e-01	 1.4113157301e+00
 1.6775682263e+00	 6.1931438979e-01	 1.3247159667e+00
 1.7330463767e+00	 4.6412109177e-01	 2.1574214426e+00
 1.7287492398e+00	 4.7987935711e-01	 2.0872088134e+00
 1.7242979836e+00	 4.9563554675e-01	 2.0103646103e+00
 1.7196921001e+00	 5.1138753631e-01	 1.9282716833e+00
 1.7149311180e+00	 5.2713318236e-01	 1.8423531989e+00
 1.7100146033e+00	 5.4287032322e-01	 1.7540728835e+00
 1.7049421601e+00	 5.5859677967e-01	 1.6649356355e+00
 1.6997134308e+00	 5.7431035575e-01	 1.5764885175e+00
 1.6943280971e+00	 5.9000883957e-01	 1.4902845121e+00
 1.6887858806e+00	 6.0569000414e-01	 1.4043647037e+00
 1.6830865428e+00	 6.2135160817e-01	 1.3178120542e+00
 1.7387284959e+00	 4.6564280027e-01	 2.1474218628e+00
 1.7344172701e+00	 4.8145273205e-01	 2.0768036285e+00
 1.7299514196e+00	 4.9726058133e-01	 1.9999067705e+00
 1.7253304349e+00	 5.1306421676e-01	 1.9180488178e+00
 1.7205538430e+00	 5.2886148788e-01	 1.8325868525e+00
 1.7156212086e+00	 5.4465022592e-01	 1.7449178593e+00
 1.7105321344e+00	 5.6042824452e-01	 1.6564794618e+00
 1.7052862617e+00	 5.7619334052e-01	 1.5687510529e+00
 1.6998832712e+00	 5.9194329478e-01	 1.4831015530e+00
 1.6943228834e+00	 6.0767587300e-01	 1.3972579424e+00
 1.6886048593e+00	 6.2338882656e-01	 1.3109290400e+00
 1.7444106152e+00	 4.6716450876e-01	 2.1371352025e+00
 1.7400853004e+00	 4.8302610699e-01	 2.0658559252e+00
 1.7356048556e+00	 4.9888561591e-01	 1.9887523231e+00
 1.7309687696e+00	 5.1474089720e-01	 1.9070608049e+00
 1.7261765680e+00	 5.3058979340e-01	 1.8220565949e+00
 1.7212278139e+00	 5.4643012862e-01	 1.7350542135e+00
 1.7161221087e+00	 5.6225970937e-01	 1.6474083597e+00
 1.7108590926e+00	 5.7807632530e-01	 1.5605152051e+00
 1.7054384453e+00	 5.9387775000e-01	 1.4754823171e+00
 1.6998598863e+00	 6.0966174187e-01	 1.3899186246e+00
 1.6941231759e+00	 6.2542604495e-01	 1.3039954627e+00
 1.7500927345e+00	 4.6868621726e-01	 2.1265483903e+00
 1.7457533307e+00	 4.8459948193e-01	 2.0543334641e+00
 1.7412582916e+00	 5.0051065049e-01	 1.9768521761e+00
 1.7366071044e+00	 5.1641757765e-01	 1.8952441655e+00
 1.7317992929e+00	 5.3231809891e-01	 1.8106871756e+00
 1.7268344191e+00	 5.4821003132e-01	 1.7243976873e+00
 1.7217120830e+00	 5.6409117423e-01	 1.6376319712e+00
 1.7164319235e+00	 5.7995931007e-01	 1.5516875692e+00
 1.7109936194e+00	 5.9581220521e-01	 1.4673499364e+00
 1.7053968892e+00	 6.1164761073e-01	 1.3822718848e+00
 1.6996414924e+00	 6.2746326334e-01	 1.2969417232e+00
 1.7557748537e+00	 4.7020792576e-01	 2.1156489410e+00
 1.7514213610e+00	 4.8617285687e-01	 2.0422049442e+00
 1.7469117277e+00	 5.0213568507e-01	 1.9641585041e+00
 1.7422454391e+00	 5.1809425810e-01	 1.8825369903e+00
 1.7374220179e+00	 5.3404640443e-01	 1.7984051891e+00
 1.7324410244e+00	 5.4998993402e-01	 1.7128661118e+00
 1.7273020573e+00	 5.6592263908e-01	 1.6270622408e+00
 1.7220047545e+00	 5.8184229484e-01	 1.5421772216e+00
 1.7165487935e+00	 5.9774666042e-01	 1.4586295122e+00
 1.7109338921e+00	 6.1363347960e-01	 1.3742447778e+00
 1.7051598089e+00	 6.2950048172e-01	 1.2897000494e+00
 1.7614569730e+00	 4.7172963426e-01	 2.1044249712e+00
 1.7570893913e+00	 4.8774623181e-01	 2.0294400158e+00
 1.7525651637e+00	 5.0376071965e-01	 1.9506247588e+00
 1.7478837739e+00	 5.1977093854e-01	 1.8688789476e+00
 1.7430447429e+00	 5.3577470994e-01	 1.7851390804e+00
 1.7380476296e+00	 5.5176983672e-01	 1.7003794127e+00
 1.7328920316e+00	 5.6775410393e-01	 1.6156134199e+00
 1.7275775854e+00	 5.8372527962e-01	 1.5318957243e+00
 1.7221039676e+00	 5.9968111563e-01	 1.4492480812e+00
 1.7164708950e+00	 6.1561934847e-01	 1.3657662444e+00
 1.7106781255e+00	 6.3153770011e-01	 1.2822044612e+00
 1.6554949601e+00	 6.1116551624e-01	 1.3540369963e+00
 1.6497343144e+00	 6.2654891511e-01	 1.2678698419e+00
 1.6438187755e+00	 6.4190862643e-01	 1.1806844213e+00
 1.6377482308e+00	 6.5724240876e-01	 1.0927097675e+00
 1.6315226095e+00	 6.7254801021e-01	 1.0041051412e+00
 1.6251418827e+00	 6.8782316927e-01	 9.1495844508e-01
 1.6186060642e+00	 7.0306561583e-01	 8.2528499580e-01
 1.6119152103e+00	 7.1827307209e-01	 7.3502668227e-01
 1.6050694206e+00	 7.3344325360e-01	 6.4405153927e-01
 1.5980688384e+00	 7.4857387017e-01	 5.5215376387e-01
 1.5909136505e+00	 7.6366262696e-01	 4.5905420098e-01
 1.6610132767e+00	 6.1320273462e-01	 1.3462963858e+00
 1.6552334288e+00	 6.2863741150e-01	 1.2597572151e+00
 1.6492981714e+00	 6.4404832185e-01	 1.1723432390e+00
 1.6432073915e+00	 6.5943321679e-01	 1.0842754233e+00
 1.6369610182e+00	 6.7478983691e-01	 9.9570472979e-01
 1.6305590223e+00	 6.9011591317e-01	 9.0671048079e-01
 1.6240014177e+00	 7.0540916788e-01	 8.1729908343e-01
 1.6172882610e+00	 7.2066731567e-01	 7.2740314544e-01
 1.6104196520e+00	 7.3588806444e-01	 6.3688101109e-01
 1.6033957345e+00	 7.5106911641e-01	 5.4551674583e-01
 1.5962166960e+00	 7.6620816905e-01	 4.5302059669e-01
 1.6665315932e+00	 6.1523995301e-01	 1.3388818552e+00
 1.6607325432e+00	 6.3072590788e-01	 1.2520801771e+00
 1.6547775673e+00	 6.4618801727e-01	 1.1645103727e+00
 1.6486665523e+00	 6.6162402482e-01	 1.0763911843e+00
 1.6423994269e+00	 6.7703166361e-01	 9.8787108270e-01
 1.6359761620e+00	 6.9240865706e-01	 8.9902656898e-01
 1.6293967713e+00	 7.0775271993e-01	 8.0986084199e-01
 1.6226613117e+00	 7.2306155924e-01	 7.2030286048e-01
 1.6157698834e+00	 7.3833287529e-01	 6.3020683097e-01
 1.6087226306e+00	 7.5356436264e-01	 5.3935215008e-01
 1.6015197415e+00	 7.6875371114e-01	 4.4744382927e-01
 1.6720499097e+00	 6.1727717140e-01	 1.3317141362e+00
 1.6662316576e+00	 6.3281440426e-01	 1.2447666350e+00
 1.6602569632e+00	 6.4832771269e-01	 1.1571201371e+00
 1.6541257131e+00	 6.6381483285e-01	 1.0689969613e+00
 1.6478378356e+00	 6.7927349031e-01	 9.8054884944e-01
 1.6413933016e+00	 6.9470140096e-01	 8.9185519668e-01
 1.6347921248e+00	 7.1009627198e-01	 8.0292165028e-01
 1.6280343624e+00	 7.2545580281e-01	 7.1367910811e-01
 1.6211201148e+00	 7.4077768613e-01	 6.2398314769e-01
 1.6140495267e+00	 7.5605960887e-01	 5.3361391574e-01
 1.6068227870e+00	 7.7129925323e-01	 4.4227650677e-01
 1.6775682263e+00	 6.1931438979e-01	 1.3247159667e+00
 1.6717307719e+00	 6.3490290065e-01	 1.2377463863e+00
 1.6657363591e+00	 6.5046740811e-01	 1.1501086302e+00
 1.6595848738e+00	 6.6600564088e-01	 1.0620343495e+00
 1.6532762443e+00	 6.8151531701e-01	 9.7368427599e-01
 1.6468104412e+00	 6.9699414486e-01	 8.8514637016e-01
 1.6401874784e+00	 7.1243982404e-01	 7.9643434116e-01
 1.6334074131e+00	 7.2785004639e-01	 7.0748657079e-01
 1.6264703462e+00	 7.4322249698e-01	 6.1816547323e-01
 1.6193764229e+00	 7.5855485511e-01	 5.2825732127e-01
 1.6121258325e+00	 7.7384479532e-01	 4.3747256823e-01
 1.6830865428e+00	 6.2135160817e-01	 1.3178120542e+00
 1.6772298863e+00	 6.3699139703e-01	 1.2309510829e+00
 1.6712157550e+00	 6.5260710353e-01	 1.1434136973e+00
 1.6650440346e+00	 6.6819644891e-01	 1.0554465936e+00
 1.6587146529e+00	 6.8375714371e-01	 9.6722516957e-01
 1.6522275808e+00	 6.9928688876e-01	 8.7885157975e-01
 1.6455828319e+00	 7.1478337609e-01	 7.9035316607e-01
 1.6387804638e+00	 7.3024428996e-01	 7.0168129674e-01
 1.6318205776e+00	 7.4566730782e-01	 6.1271064610e-01
 1.6247033190e+00	 7.6105010134e-01	 5.2323894685e-01
 1.6174288780e+00	 7.7639033741e-01	 4.3298724504e-01
 1.6886048593e+00	 6.2338882656e-01	 1.3109290400e+00
 1.6827290007e+00	 6.3907989341e-01	 1.2243141954e+00
 1.6766951510e+00	 6.5474679895e-01	 1.1369748958e+00
 1.6705031954e+00	 6.7038725694e-01	 1.0491785527e+00
 1.6641530616e+00	 6.8599897041e-01	 9.6112086379e-01
 1.6576447204e+00	 7.0157963265e-01	 8.7292376477e-01
 1.6509781855e+00	 7.1712692814e-01	 7.8463375967e-01
 1.6441535145e+00	 7.3263853354e-01	 6.9622066416e-01
 1.6371708090e+00	 7.4811211867e-01	 6.0757679485e-01
 1.6300302151e+00	 7.6354534758e-01	 5.1851663711e-01
 1.6227319235e+00	 7.7893587950e-01	 4.2877702243e-01
 1.6941231759e+00	 6.2542604495e-01	 1.3039954627e+00
 1.6882281151e+00	 6.4116838980e-01	 1.2177709784e+00
 1.6821745469e+00	 6.5688649438e-01	 1.1307334605e+00
 1.6759623561e+00	 6.7257806497e-01	 1.0431766654e+00
 1.6695914703e+00	 6.8824079711e-01	 9.5532218390e-01
 1.6630618600e+00	 7.0387237655e-01	 8.6731727878e-01
 1.6563735390e+00	 7.1947048020e-01	 7.7923310484e-01
 1.6495265652e+00	 7.3503277711e-01	 6.9106334567e-01
 1.6425210404e+00	 7.5055692952e-01	 6.0272330188e-01
 1.6353571112e+00	 7.6604059381e-01	 5.1404946391e-01
 1.6280349690e+00	 7.8148142159e-01	 4.2479960126e-01
 1.6996414924e+00	 6.2746326334e-01	 1.2969417232e+00
 1.6937272295e+00	 6.4325688618e-01	 1.2112584345e+00
 1.6876539428e+00	 6.5902618980e-01	 1.1246322686e+00
 1.6814215169e+00	 6.7476887300e-01	 1.0373889157e+00
 1.6750298790e+00	 6.9048262381e-01	 9.4978141238e-01
 1.6684789996e+00	 7.0616512045e-01	 8.6198785497e-01
 1.6617688926e+00	 7.2181403225e-01	 7.7410949771e-01
 1.6548996159e+00	 7.3742702068e-01	 6.8616927292e-01
 1.6478712718e+00	 7.5300174036e-01	 5.9811076736e-01
 1.6406840074e+00	 7.6853584004e-01	 5.0979768945e-01
 1.6333380145e+00	 7.8402696368e-01	 4.2101385993e-01
 1.7051598089e+00	 6.2950048172e-01	 1.2897000494e+00
 1.6992263439e+00	 6.4534538257e-01	 1.2047152804e+00
 1.6931333387e+00	 6.6116588522e-01	 1.1186158054e+00
 1.6868806777e+00	 6.7695968103e-01	 1.0317647981e+00
 1.6804682877e+00	 6.9272445052e-01	 9.4445225470e-01
 1.6738961392e+00	 7.0845786435e-01	 8.5689257178e-01
 1.6671642461e+00	 7.2415758430e-01	 7.6922251303e-01
 1.6602726666e+00	 7.3982126426e-01	 6.8149960142e-01
 1.6532215032e+00	 7.5544655121e-01	 5.9370097335e-01
 1.6460109035e+00	 7.7103108628e-01	 5.0572272952e-01
 1.6386410600e+00	 7.8657250577e-01	 4.1737981658e-01
 1.7106781255e+00	 6.3153770011e-01	 1.2822044612e+00
 1.7047254582e+00	 6.4743387895e-01	 1.1980819119e+00
 1.6986127346e+00	 6.6330558064e-01	 1.1126301303e+00
 1.6923398384e+00	 6.7915048906e-01	 1.0262552844e+00
 1.6859066964e+00	 6.9496627722e-01	 9.3928980529e-01
 1.6793132788e+00	 7.1075060825e-01	 8.5198981877e-01
 1.6725595997e+00	 7.2650113635e-01	 7.6453296964e-01
 1.6656457173e+00	 7.4221550783e-01	 6.7701667557e-01
 1.6585717346e+00	 7.5789136205e-01	 5.8945684814e-01
 1.6513377996e+00	 7.7352633251e-01	 5.0178711692e-01
 1.6439441055e+00	 7.8911804786e-01	 4.1385859144e-01
 1.5909136505e+00	 7.6366262696e-01	 4.5905420098e-01
 1.5836040882e+00	 7.7870722545e-01	 3.6784790060e-01
 1.5761404270e+00	 7.9370536447e-01	 2.8143040700e-01
 1.5685229869e+00	 8.0865474130e-01	 1.9910570729e-01
 1.5607521330e+00	 8.2355305267e-01	 1.2009590357e-01
 1.5528282750e+00	 8.3839799585e-01	 4.3544559114e-02
 1.5447518681e+00	 8.5318726972e-01	-3.1479344492e-02
 1.5365234124e+00	 8.6791857587e-01	-1.0597682832e-01
 1.5281434535e+00	 8.8258961968e-01	-1.8101370699e-01
 1.5196125822e+00	 8.9719811140e-01	-2.5771474482e-01
 1.5109314349e+00	 9.1174176730e-01	-3.3725717586e-01
 1.5962166960e+00	 7.6620816905e-01	 4.5302059669e-01
 1.5888827685e+00	 7.8130291620e-01	 3.6241922564e-01
 1.5813942284e+00	 7.9635104902e-01	 2.7654686125e-01
 1.5737513969e+00	 8.1135025711e-01	 1.9470591344e-01
 1.5659546401e+00	 8.2629822951e-01	 1.1611525756e-01
 1.5580043693e+00	 8.4119265583e-01	 3.9913571892e-02
 1.5499010410e+00	 8.5603122728e-01	-3.4836702296e-02
 1.5416451571e+00	 8.7081163779e-01	-1.0914476656e-01
 1.5332372650e+00	 8.8553158508e-01	-1.8408622838e-01
 1.5246779575e+00	 9.0018877177e-01	-2.6079721634e-01
 1.5159678730e+00	 9.1478090653e-01	-3.4046784577e-01
 1.6015197415e+00	 7.6875371114e-01	 4.4744382927e-01
 1.5941614488e+00	 7.8389860695e-01	 3.5743948106e-01
 1.5866480298e+00	 7.9899673357e-01	 2.7210721063e-01
 1.5789798069e+00	 8.1404577291e-01	 1.9074698210e-01
 1.5711571472e+00	 8.2904340635e-01	 1.1257366945e-01
 1.5631804635e+00	 8.4398731582e-01	 3.6720386357e-02
 1.5550502139e+00	 8.5887518485e-01	-3.7757549828e-02
 1.5467669018e+00	 8.7370469971e-01	-1.1187800765e-01
 1.5383310765e+00	 8.8847355048e-01	-1.8672677573e-01
 1.5297433328e+00	 9.0317943215e-01	-2.6345163583e-01
 1.5210043111e+00	 9.1782004575e-01	-3.4325577289e-01
 1.6068227870e+00	 7.7129925323e-01	 4.4227650677e-01
 1.5994401291e+00	 7.8649429770e-01	 3.5285996979e-01
 1.5919018313e+00	 8.0164241812e-01	 2.6806266914e-01
 1.5842082168e+00	 8.1674128871e-01	 1.8718127416e-01
 1.5763596543e+00	 8.3178858320e-01	 1.0942590111e-01
 1.5683565578e+00	 8.4678197581e-01	 3.3923436313e-02
 1.5601993868e+00	 8.6171914242e-01	-4.0278494957e-02
 1.5518886465e+00	 8.7659776163e-01	-1.1420690086e-01
 1.5434248880e+00	 8.9141551587e-01	-1.8895812714e-01
 1.5348087081e+00	 9.0617009252e-01	-2.6569188700e-01
 1.5260407492e+00	 9.2085918497e-01	-3.4562461421e-01
 1.6121258325e+00	 7.7384479532e-01	 4.3747256823e-01
 1.6047188094e+00	 7.8908998845e-01	 3.4863331823e-01
 1.5971556327e+00	 8.0428810266e-01	 2.6436575214e-01
 1.5894366268e+00	 8.1943680452e-01	 1.8396241514e-01
 1.5815621614e+00	 8.3453376004e-01	 1.0662792780e-01
 1.5735326520e+00	 8.4957663579e-01	 3.1482303247e-02
 1.5653485597e+00	 8.6456309998e-01	-4.2435078073e-02
 1.5570103912e+00	 8.7949082355e-01	-1.1616082262e-01
 1.5485186995e+00	 8.9435748127e-01	-1.9080219690e-01
 1.5398740833e+00	 9.0916075289e-01	-2.6753111302e-01
 1.5310771874e+00	 9.2389832420e-01	-3.4757742380e-01
 1.6174288780e+00	 7.7639033741e-01	 4.3298724504e-01
 1.6099974897e+00	 7.9168567920e-01	 3.4471343647e-01
 1.6024094341e+00	 8.0693378721e-01	 2.6097023569e-01
 1.5946650367e+00	 8.2213232032e-01	 1.8104525406e-01
 1.5867646685e+00	 8.3727893688e-01	 1.0413689679e-01
 1.5787087463e+00	 8.5237129578e-01	 2.9357674917e-02
 1.5704977326e+00	 8.6740705755e-01	-4.4261813187e-02
 1.5621321359e+00	 8.8238388547e-01	-1.1776821700e-01
 1.5536125110e+00	 8.9729944667e-01	-1.9228007503e-01
 1.5449394586e+00	 9.1215141326e-01	-2.6898175497e-01
 1.5361136255e+00	 9.2693746342e-01	-3.4911668975e-01
 1.6227319235e+00	 7.7893587950e-01	 4.2877702243e-01
 1.6152761700e+00	 7.9428136995e-01	 3.4105547874e-01
 1.6076632355e+00	 8.0957947176e-01	 2.5783111621e-01
 1.5998934467e+00	 8.2482783613e-01	 1.7838582249e-01
 1.5919671757e+00	 8.4002411372e-01	 1.0191108611e-01
 1.5838848405e+00	 8.5516595576e-01	 2.7511304140e-02
 1.5756469055e+00	 8.7025101511e-01	-4.5792228853e-02
 1.5672538807e+00	 8.8527694739e-01	-1.1905663607e-01
 1.5587063226e+00	 9.0024141207e-01	-1.9341206677e-01
 1.5500048339e+00	 9.1514207363e-01	-2.7005559013e-01
 1.5411500636e+00	 9.2997660265e-01	-3.5024437105e-01
 1.6280349690e+00	 7.8148142159e-01	 4.2479960126e-01
 1.6205548503e+00	 7.9687706071e-01	 3.3761580402e-01
 1.6129170370e+00	 8.1222515631e-01	 2.5490457029e-01
 1.6051218566e+00	 8.2752335193e-01	 1.7594129380e-01
 1.5971696828e+00	 8.4276929057e-01	 9.9909863557e-02
 1.5890609348e+00	 8.5796061575e-01	 2.5905967789e-02
 1.5807960784e+00	 8.7309497268e-01	-4.7058908894e-02
 1.5723756254e+00	 8.8817000931e-01	-1.2005278005e-01
 1.5638001341e+00	 9.0318337747e-01	-1.9421773196e-01
 1.5550702092e+00	 9.1813273400e-01	-2.7076377021e-01
 1.5461865017e+00	 9.3301574187e-01	-3.5096193431e-01
 1.6333380145e+00	 7.8402696368e-01	 4.2101385993e-01
 1.6258335306e+00	 7.9947275146e-01	 3.3435193696e-01
 1.6181708384e+00	 8.1487084086e-01	 2.5214791474e-01
 1.6103502666e+00	 8.3021886774e-01	 1.7366994271e-01
 1.6023721899e+00	 8.4551446741e-01	 9.8093645919e-02
 1.5942370290e+00	 8.6075527574e-01	 2.4505425982e-02
 1.5859452513e+00	 8.7593893024e-01	-4.8093532963e-02
 1.5774973701e+00	 8.9106307123e-01	-1.2078253734e-01
 1.5688939456e+00	 9.0612534287e-01	-1.9471592416e-01
 1.5601355844e+00	 9.2112339437e-01	-2.7111685942e-01
 1.5512229398e+00	 9.3605488110e-01	-3.5127039058e-01
 1.6386410600e+00	 7.8657250577e-01	 4.1737981658e-01
 1.6311122109e+00	 8.0206844221e-01	 3.3122252898e-01
 1.6234246398e+00	 8.1751652541e-01	 2.4951956690e-01
 1.6155786766e+00	 8.3291438354e-01	 1.7153110494e-01
 1.6075746970e+00	 8.4825964425e-01	 9.6423858366e-02
 1.5994131233e+00	 8.6354993572e-01	 2.3274381470e-02
 1.5910944241e+00	 8.7878288781e-01	-4.8926916908e-02
 1.5826191148e+00	 8.9395613315e-01	-1.2127102440e-01
 1.5739877571e+00	 9.0906730827e-01	-1.9492482980e-01
 1.5652009597e+00	 9.2411405475e-01	-2.7112487252e-01
 1.5562593779e+00	 9.3909402032e-01	-3.5117033194e-01
 1.6439441055e+00	 7.8911804786e-01	 4.1385859144e-01
 1.6363908912e+00	 8.0466413296e-01	 3.2818731950e-01
 1.6286784412e+00	 8.2016220995e-01	 2.4697900506e-01
 1.6208070865e+00	 8.3560989935e-01	 1.6948513721e-01
 1.6127772041e+00	 8.5100482109e-01	 9.4862894080e-02
 1.6045892175e+00	 8.6634459571e-01	 2.2178439206e-02
 1.5962435970e+00	 8.8162684538e-01	-4.9589052981e-02
 1.5877408595e+00	 8.9684919507e-01	-1.2154262541e-01
 1.5790815686e+00	 9.1200927367e-01	-1.9486200708e-01
 1.5702663350e+00	 9.2710471512e-01	-2.7079731273e-01
 1.5612958161e+00	 9.4213315955e-01	-3.5066196816e-01
 1.5109314349e+00	 9.1174176730e-01	-3.3725717586e-01
 1.5021006931e+00	 9.2621831073e-01	-4.1473906123e-01
 1.4931210836e+00	 9.4062547324e-01	-4.8518685174e-01
 1.4839933786e+00	 9.5496099573e-01	-5.4970939824e-01
 1.4747183954e+00	 9.6922262951e-01	-6.0941347393e-01
 1.4652969960e+00	 9.8340813744e-01	-6.6539424538e-01
 1.4557300874e+00	 9.9751529505e-01	-7.1872521510e-01
 1.4460186211e+00	 1.0115418916e+00	-7.7044766241e-01
 1.4361635930e+00	 1.0254857314e+00	-8.2155961353e-01
 1.4261660430e+00	 1.0393446344e+00	-8.7300437553e-01
 1.4160270546e+00	 1.0531164379e+00	-9.2565867335e-01
 1.5159678730e+00	 9.1478090653e-01	-3.4046784577e-01
 1.5071076954e+00	 9.2930570510e-01	-4.1808759638e-01
 1.4980981539e+00	 9.4376089149e-01	-4.8856143226e-01
 1.4889400232e+00	 9.5814419905e-01	-5.5299344900e-01
 1.4796341234e+00	 9.7245337160e-01	-6.1248642692e-01
 1.4701813193e+00	 9.8668616456e-01	-6.6813220499e-01
 1.4605825210e+00	 1.0008403460e+00	-7.2100151315e-01
 1.4508386832e+00	 1.0149136979e+00	-7.7213328966e-01
 1.4409508050e+00	 1.0289040172e+00	-8.2252351464e-01
 1.4309199298e+00	 1.0428091165e+00	-8.7311359506e-01
 1.4207471448e+00	 1.0566268261e+00	-9.2477834032e-01
 1.5210043111e+00	 9.1782004575e-01	-3.4325577289e-01
 1.5121146977e+00	 9.3239309947e-01	-4.2101934154e-01
 1.5030752242e+00	 9.4689630973e-01	-4.9152506206e-01
 1.4938866678e+00	 9.6132740237e-01	-5.5587254321e-01
 1.4845498513e+00	 9.7568411370e-01	-6.1516107671e-01
 1.4750656426e+00	 9.8996419169e-01	-6.7047991469e-01
 1.4654349546e+00	 1.0041653970e+00	-7.2289799154e-01
 1.4556587453e+00	 1.0182855043e+00	-7.7345311714e-01
 1.4457380170e+00	 1.0323223029e+00	-8.2314067279e-01
 1.4356738166e+00	 1.0462735986e+00	-8.7290184522e-01
 1.4254672350e+00	 1.0601372142e+00	-9.2361143864e-01
 1.5260407492e+00	 9.2085918497e-01	-3.4562461421e-01
 1.5171217000e+00	 9.3548049383e-01	-4.2352790011e-01
 1.5080522944e+00	 9.5003172797e-01	-4.9406297338e-01
 1.4988333124e+00	 9.6451060569e-01	-5.5832522184e-01
 1.4894655793e+00	 9.7891485580e-01	-6.1741095001e-01
 1.4799499659e+00	 9.9324221881e-01	-6.7240756047e-01
 1.4702873883e+00	 1.0074904480e+00	-7.2438316527e-01
 1.4604788073e+00	 1.0216573106e+00	-7.7437565436e-01
 1.4505252290e+00	 1.0357405887e+00	-8.2338125264e-01
 1.4404277034e+00	 1.0497380808e+00	-8.7234260141e-01
 1.4301873251e+00	 1.0636476023e+00	-9.2213640429e-01
 1.5310771874e+00	 9.2389832420e-01	-3.4757742380e-01
 1.5221287023e+00	 9.3856788820e-01	-4.2560640457e-01
 1.5130293647e+00	 9.5316714622e-01	-4.9616003380e-01
 1.5037799570e+00	 9.6769380901e-01	-5.6032974176e-01
 1.4943813073e+00	 9.8214559790e-01	-6.1920934414e-01
 1.4848342893e+00	 9.9652024594e-01	-6.7388512790e-01
 1.4751398219e+00	 1.0108154990e+00	-7.2542535211e-01
 1.4652988694e+00	 1.0250291169e+00	-7.7486919097e-01
 1.4553124409e+00	 1.0391588745e+00	-8.2321515081e-01
 1.4451815902e+00	 1.0532025629e+00	-8.7140899711e-01
 1.4349074153e+00	 1.0671579905e+00	-9.2033123210e-01
 1.5361136255e+00	 9.2693746342e-01	-3.4911668975e-01
 1.5271357046e+00	 9.4165528257e-01	-4.2724755186e-01
 1.5180064350e+00	 9.5630256446e-01	-4.9780078055e-01
 1.5087266016e+00	 9.7087701232e-01	-5.6186410925e-01
 1.4992970353e+00	 9.8537634000e-01	-6.2052936019e-01
 1.4897186126e+00	 9.9979827306e-01	-6.7488243520e-01
 1.4799922555e+00	 1.0141405500e+00	-7.2599270589e-01
 1.4701189315e+00	 1.0284009232e+00	-7.7490183074e-01
 1.4600996529e+00	 1.0425771602e+00	-8.2261203071e-01
 1.4499354770e+00	 1.0566670450e+00	-8.7007386010e-01
 1.4396275055e+00	 1.0706683786e+00	-9.1817351348e-01
 1.5411500636e+00	 9.2997660265e-01	-3.5024437105e-01
 1.5321427069e+00	 9.4474267694e-01	-4.2844363887e-01
 1.5229835053e+00	 9.5943798271e-01	-4.9896945483e-01
 1.5136732462e+00	 9.7406021564e-01	-5.6290611357e-01
 1.5042127633e+00	 9.8860708210e-01	-6.2134393615e-01
 1.4946029359e+00	 1.0030763002e+00	-6.7536916628e-01
 1.4848446891e+00	 1.0174656010e+00	-7.2605324990e-01
 1.4749389936e+00	 1.0317727295e+00	-7.7444152552e-01
 1.4648868649e+00	 1.0459954460e+00	-8.2154135742e-01
 1.4546893638e+00	 1.0601315271e+00	-8.6830974852e-01
 1.4443475957e+00	 1.0741787667e+00	-9.1564047418e-01
 1.5461865017e+00	 9.3301574187e-01	-3.5096193431e-01
 1.5371497092e+00	 9.4783007131e-01	-4.2918659777e-01
 1.5279605756e+00	 9.6257340095e-01	-4.9965003617e-01
 1.5186198908e+00	 9.7724341896e-01	-5.6343336062e-01
 1.5091284913e+00	 9.9183782419e-01	-6.2162588016e-01
 1.4994872592e+00	 1.0063543273e+00	-6.7531490397e-01
 1.4896971228e+00	 1.0207906519e+00	-7.2557491023e-01
 1.4797590556e+00	 1.0351445358e+00	-7.7345610919e-01
 1.4696740769e+00	 1.0494137318e+00	-8.1997243265e-01
 1.4594432506e+00	 1.0635960092e+00	-8.6608898709e-01
 1.4490676859e+00	 1.0776891548e+00	-9.1270901201e-01
 1.5512229398e+00	 9.3605488110e-01	-3.5127039058e-01
 1.5421567115e+00	 9.5091746568e-01	-4.2946803140e-01
 1.5329376458e+00	 9.6570881920e-01	-4.9982627673e-01
 1.5235665354e+00	 9.8042662228e-01	-5.6342330652e-01
 1.5140442193e+00	 9.9506856629e-01	-6.2134790376e-01
 1.5043715825e+00	 1.0096323544e+00	-6.7468916317e-01
 1.4945495564e+00	 1.0241157029e+00	-7.2452554932e-01
 1.4845791177e+00	 1.0385163421e+00	-7.7191333177e-01
 1.4744612888e+00	 1.0528320175e+00	-8.1787442967e-01
 1.4641971375e+00	 1.0670604913e+00	-8.6338370327e-01
 1.4537877760e+00	 1.0811995430e+00	-9.0935573452e-01
 1.5562593779e+00	 9.3909402032e-01	-3.5117033194e-01
 1.5471637138e+00	 9.5400486005e-01	-4.2927924866e-01
 1.5379147161e+00	 9.6884423744e-01	-4.9948173569e-01
 1.5285131800e+00	 9.8360982560e-01	-5.6285329130e-01
 1.5189599472e+00	 9.9829930839e-01	-6.2048265515e-01
 1.5092559059e+00	 1.0129103816e+00	-6.7346142409e-01
 1.4994019900e+00	 1.0274407539e+00	-7.2287299942e-01
 1.4893991798e+00	 1.0418881484e+00	-7.6978089349e-01
 1.4792485008e+00	 1.0562503033e+00	-8.1521642827e-01
 1.4689510243e+00	 1.0705249734e+00	-8.6016586343e-01
 1.4585078662e+00	 1.0847099311e+00	-9.0555699671e-01
 1.5612958161e+00	 9.4213315955e-01	-3.5066196816e-01
 1.5521707162e+00	 9.5709225442e-01	-4.2861129977e-01
 1.5428917864e+00	 9.7197965568e-01	-4.9859981357e-01
 1.5334598246e+00	 9.8679302892e-01	-5.6170057257e-01
 1.5238756752e+00	 1.0015300505e+00	-6.1900275258e-01
 1.5141402292e+00	 1.0161884087e+00	-6.7160116558e-01
 1.5042544236e+00	 1.0307658049e+00	-7.2058509614e-01
 1.4942192418e+00	 1.0452599547e+00	-7.6702647892e-01
 1.4840357128e+00	 1.0596685891e+00	-8.1196744983e-01
 1.4737049111e+00	 1.0739894556e+00	-8.5640730904e-01
 1.4632279564e+00	 1.0882203192e+00	-9.0128893870e-01
 1.4160270546e+00	 1.0531164379e+00	-9.2565867335e-01
 1.4057477549e+00	 1.0667989974e+00	-9.7710327469e-01
 1.3953293139e+00	 1.0803901873e+00	-1.0251127746e+00
 1.3847729444e+00	 1.0938879027e+00	-1.0707519392e+00
 1.3740799010e+00	 1.1072900599e+00	-1.1150142299e+00
 1.3632514805e+00	 1.1205945976e+00	-1.1588082772e+00
 1.3522890205e+00	 1.1337994780e+00	-1.2029442060e+00
 1.3411938994e+00	 1.1469026878e+00	-1.2481198733e+00
 1.3299675359e+00	 1.1599022393e+00	-1.2949070859e+00
 1.3186113879e+00	 1.1727961710e+00	-1.3437378676e+00
 1.3071269525e+00	 1.1855825493e+00	-1.3906889826e+00
 1.4207471448e+00	 1.0566268261e+00	-9.2477834032e-01
 1.4104335807e+00	 1.0703549940e+00	-9.7529910060e-01
 1.3999804117e+00	 1.0839914879e+00	-1.0226817852e+00
 1.3893888542e+00	 1.0975341957e+00	-1.0680364876e+00
 1.3786601674e+00	 1.1109810268e+00	-1.1124034635e+00
 1.3677956521e+00	 1.1243299129e+00	-1.1567393303e+00
 1.3567966505e+00	 1.1375788096e+00	-1.2019031055e+00
 1.3456645458e+00	 1.1507256968e+00	-1.2486421474e+00
 1.3344007610e+00	 1.1637685801e+00	-1.2975780676e+00
 1.3230067592e+00	 1.1767054916e+00	-1.3491899187e+00
 1.3114840424e+00	 1.1895344911e+00	-1.3951799886e+00
 1.4254672350e+00	 1.0601372142e+00	-9.2361143864e-01
 1.4151194066e+00	 1.0739109907e+00	-9.7326197527e-01
 1.4046315094e+00	 1.0875927886e+00	-1.0200990079e+00
 1.3940047640e+00	 1.1011804887e+00	-1.0652765418e+00
 1.3832404337e+00	 1.1146719936e+00	-1.1098800694e+00
 1.3723398237e+00	 1.1280652282e+00	-1.1549124935e+00
 1.3613042806e+00	 1.1413581412e+00	-1.2012798781e+00
 1.3501351921e+00	 1.1545487057e+00	-1.2497770914e+00
 1.3388339861e+00	 1.1676349209e+00	-1.3010734106e+00
 1.3274021305e+00	 1.1806148122e+00	-1.3548388396e+00
 1.3158411322e+00	 1.1934864330e+00	-1.3993875423e+00
 1.4301873251e+00	 1.0636476023e+00	-9.2213640429e-01
 1.4198052324e+00	 1.0774669874e+00	-9.7097535704e-01
 1.4092826071e+00	 1.0911940892e+00	-1.0173514190e+00
 1.3986206738e+00	 1.1048267818e+00	-1.0624611208e+00
 1.3878207001e+00	 1.1183629605e+00	-1.1074336640e+00
 1.3768839953e+00	 1.1318005436e+00	-1.1533165681e+00
 1.3658119107e+00	 1.1451374728e+00	-1.2010611315e+00
 1.3546058384e+00	 1.1583717147e+00	-1.2515077764e+00
 1.3432672112e+00	 1.1715012617e+00	-1.3053713450e+00
 1.3317975018e+00	 1.1845241328e+00	-1.3599865003e+00
 1.3201982221e+00	 1.1974383748e+00	-1.4032843453e+00
 1.4349074153e+00	 1.0671579905e+00	-9.2033123210e-01
 1.4244910583e+00	 1.0810229840e+00	-9.6842215932e-01
 1.4139337048e+00	 1.0947953898e+00	-1.0144253627e+00
 1.4032365836e+00	 1.1084730748e+00	-1.0595785396e+00
 1.3924009664e+00	 1.1220539274e+00	-1.1050531041e+00
 1.3814281669e+00	 1.1355358589e+00	-1.1519395551e+00
 1.3703195407e+00	 1.1489168044e+00	-1.2012326480e+00
 1.3590764848e+00	 1.1621947237e+00	-1.2538164386e+00
 1.3477004364e+00	 1.1753676025e+00	-1.3104492705e+00
 1.3361928731e+00	 1.1884334533e+00	-1.3646136160e+00
 1.3245553119e+00	 1.2013903166e+00	-1.4068448342e+00
 1.4396275055e+00	 1.0706683786e+00	-9.1817351348e-01
 1.4291768841e+00	 1.0845789807e+00	-9.6558479000e-01
 1.4185848025e+00	 1.0983966904e+00	-1.0113065911e+00
 1.4078524934e+00	 1.1121193678e+00	-1.0566164508e+00
 1.3969812327e+00	 1.1257448942e+00	-1.1027265285e+00
 1.3859723385e+00	 1.1392711742e+00	-1.1507686980e+00
 1.3748271708e+00	 1.1526961360e+00	-1.2017794270e+00
 1.3635471311e+00	 1.1660177326e+00	-1.2566845206e+00
 1.3521336615e+00	 1.1792339433e+00	-1.3159093226e+00
 1.3405882444e+00	 1.1923427739e+00	-1.3687025467e+00
 1.3289124017e+00	 1.2053422584e+00	-1.4100451567e+00
 1.4443475957e+00	 1.0741787667e+00	-9.1564047418e-01
 1.4338627100e+00	 1.0881349773e+00	-9.6244519073e-01
 1.4232359002e+00	 1.1019979911e+00	-1.0079803053e+00
 1.4124684033e+00	 1.1157656608e+00	-1.0535618860e+00
 1.4015614991e+00	 1.1294358611e+00	-1.1004414009e+00
 1.3905165101e+00	 1.1430064895e+00	-1.1497905248e+00
 1.3793348009e+00	 1.1564754676e+00	-1.2026857274e+00
 1.3680177774e+00	 1.1698407416e+00	-1.2600927134e+00
 1.3565668866e+00	 1.1831002841e+00	-1.3207021640e+00
 1.3449836157e+00	 1.1962520945e+00	-1.3722372738e+00
 1.3332694916e+00	 1.2092942003e+00	-1.4128631474e+00
 1.4490676859e+00	 1.0776891548e+00	-9.1270901201e-01
 1.4385485358e+00	 1.0916909740e+00	-9.5898487621e-01
 1.4278869979e+00	 1.1055992917e+00	-1.0044311954e+00
 1.4170843131e+00	 1.1194119538e+00	-1.0504012975e+00
 1.4061417654e+00	 1.1331268280e+00	-1.0981845510e+00
 1.3950606817e+00	 1.1467418049e+00	-1.1489908902e+00
 1.3838424310e+00	 1.1602547992e+00	-1.2039351093e+00
 1.3724884237e+00	 1.1736637505e+00	-1.2640209978e+00
 1.3610001117e+00	 1.1869666249e+00	-1.3247583877e+00
 1.3493789870e+00	 1.2001614150e+00	-1.3752033775e+00
 1.3376265814e+00	 1.2132461421e+00	-1.4152783036e+00
 1.4537877760e+00	 1.0811995430e+00	-9.0935573452e-01
 1.4432343617e+00	 1.0952469706e+00	-9.5518497341e-01
 1.4325380956e+00	 1.1092005923e+00	-1.0006434814e+00
 1.4217002229e+00	 1.1230582468e+00	-1.0471205988e+00
 1.4107220317e+00	 1.1368177948e+00	-1.0959422165e+00
 1.3996048533e+00	 1.1504771202e+00	-1.1483550176e+00
 1.3883500610e+00	 1.1640341307e+00	-1.2055104759e+00
 1.3769590701e+00	 1.1774867595e+00	-1.2683994711e+00
 1.3654333368e+00	 1.1908329657e+00	-1.3280699491e+00
 1.3537743583e+00	 1.2040707356e+00	-1.3775880130e+00
 1.3419836713e+00	 1.2171980839e+00	-1.4172717610e+00
 1.4585078662e+00	 1.0847099311e+00	-9.0555699671e-01
 1.4479201875e+00	 1.0988029673e+00	-9.5102626073e-01
 1.4371891934e+00	 1.1128018929e+00	-9.9660095313e-01
 1.4263161327e+00	 1.1267045398e+00	-1.0437052066e+00
 1.4153022981e+00	 1.1405087617e+00	-1.0937000853e+00
 1.4041490249e+00	 1.1542124355e+00	-1.1478675410e+00
 1.3928576911e+00	 1.1678134623e+00	-1.2073941157e+00
 1.3814297164e+00	 1.1813097685e+00	-1.2722435780e+00
 1.3698665620e+00	 1.1946993065e+00	-1.3306303097e+00
 1.3581697296e+00	 1.2079800562e+00	-1.3793798872e+00
 1.3463407611e+00	 1.2211500258e+00	-1.4188262696e+00
 1.4632279564e+00	 1.0882203192e+00	-9.0128893870e-01
 1.4526060134e+00	 1.1023589640e+00	-9.4648920717e-01
 1.4418402911e+00	 1.1164031936e+00	-9.9228701076e-01
 1.4309320425e+00	 1.1303508328e+00	-1.0401400815e+00
 1.4198825644e+00	 1.1441997286e+00	-1.0914433364e+00
 1.4086931965e+00	 1.1579477508e+00	-1.1475125470e+00
 1.3973653212e+00	 1.1715927939e+00	-1.2095677439e+00
 1.3859003627e+00	 1.1851327774e+00	-1.2751746023e+00
 1.3742997871e+00	 1.1985656473e+00	-1.3324344143e+00
 1.3625651009e+00	 1.2118893767e+00	-1.3805692356e+00
 1.3506978509e+00	 1.2251019676e+00	-1.4199261691e+00
 1.3071269525e+00	 1.1855825493e+00	-1.3906889826e+00
 1.2955157649e+00	 1.1982594686e+00	-1.4323568357e+00
 1.2837793978e+00	 1.2108250530e+00	-1.4755550392e+00
 1.2719194609e+00	 1.2232774568e+00	-1.5193297874e+00
 1.2599376000e+00	 1.2356148653e+00	-1.5627107967e+00
 1.2478354962e+00	 1.2478354962e+00	-1.6047157664e+00
 1.2356148653e+00	 1.2599376000e+00	-1.6443549480e+00
 1.2232774568e+00	 1.2719194609e+00	-1.6806357920e+00
 1.2108250530e+00	 1.2837793978e+00	-1.7125676423e+00
 1.1982594686e+00	 1.2955157649e+00	-1.7391664456e+00
 1.1855825493e+00	 1.3071269525e+00	-1.7594594455e+00
 1.3114840424e+00	 1.1895344911e+00	-1.3951799886e+00
 1.2998341508e+00	 1.2022536669e+00	-1.4355946190e+00
 1.2880586625e+00	 1.2148611365e+00	-1.4777484284e+00
 1.2761591924e+00	 1.2273550483e+00	-1.5206854483e+00
 1.2641373920e+00	 1.2397335815e+00	-1.5634326844e+00
 1.2519949479e+00	 1.2519949479e+00	-1.6050046714e+00
 1.2397335815e+00	 1.2641373920e+00	-1.6444081385e+00
 1.2273550483e+00	 1.2761591924e+00	-1.6806467572e+00
 1.2148611365e+00	 1.2880586625e+00	-1.7127259371e+00
 1.2022536669e+00	 1.2998341508e+00	-1.7396576403e+00
 1.1895344911e+00	 1.3114840424e+00	-1.7604651800e+00
 1.3158411322e+00	 1.1934864330e+00	-1.3993875423e+00
 1.3041525366e+00	 1.2062478651e+00	-1.4387378561e+00
 1.2923379271e+00	 1.2188972200e+00	-1.4800182290e+00
 1.2803989240e+00	 1.2314326398e+00	-1.5222706613e+00
 1.2683371840e+00	 1.2438522977e+00	-1.5645196407e+00
 1.2561543995e+00	 1.2561543995e+00	-1.6057767914e+00
 1.2438522977e+00	 1.2683371840e+00	-1.6450456392e+00
 1.2314326398e+00	 1.2803989240e+00	-1.6813264597e+00
 1.2188972200e+00	 1.2923379271e+00	-1.7136211789e+00
 1.2062478651e+00	 1.3041525366e+00	-1.7409382932e+00
 1.1934864330e+00	 1.3158411322e+00	-1.7622977742e+00
 1.3201982221e+00	 1.1974383748e+00	-1.4032843453e+00
 1.3084709225e+00	 1.2102420633e+00	-1.4417525301e+00
 1.2966171918e+00	 1.2229333035e+00	-1.4823242436e+00
 1.2846386555e+00	 1.2355102313e+00	-1.5240395845e+00
 1.2725369760e+00	 1.2479710139e+00	-1.5659207113e+00
 1.2603138512e+00	 1.2603138512e+00	-1.6069765889e+00
 1.2479710139e+00	 1.2725369760e+00	-1.6462078532e+00
 1.2355102313e+00	 1.2846386555e+00	-1.6826117625e+00
 1.2229333035e+00	 1.2966171918e+00	-1.7151872043e+00
 1.2102420633e+00	 1.3084709225e+00	-1.7429397215e+00
 1.1974383748e+00	 1.3201982221e+00	-1.7648865257e+00
 1.3245553119e+00	 1.2013903166e+00	-1.4068448342e+00
 1.3127893084e+00	 1.2142362615e+00	-1.4446064315e+00
 1.3008964564e+00	 1.2269693871e+00	-1.4846281484e+00
 1.2888783870e+00	 1.2395878228e+00	-1.5259483083e+00
 1.2767367680e+00	 1.2520897302e+00	-1.5675869271e+00
 1.2644733028e+00	 1.2644733028e+00	-1.6085505570e+00
 1.2520897302e+00	 1.2767367680e+00	-1.6478372532e+00
 1.2395878228e+00	 1.2888783870e+00	-1.6844416304e+00
 1.2269693871e+00	 1.3008964564e+00	-1.7173599762e+00
 1.2142362615e+00	 1.3127893084e+00	-1.7455953863e+00
 1.2013903166e+00	 1.3245553119e+00	-1.7681628876e+00
 1.3289124017e+00	 1.2053422584e+00	-1.4100451567e+00
 1.3171076943e+00	 1.2182304598e+00	-1.4472691336e+00
 1.3051757211e+00	 1.2310054706e+00	-1.4868934670e+00
 1.2931181186e+00	 1.2436654144e+00	-1.5279548294e+00
 1.2809365600e+00	 1.2562084464e+00	-1.5694712768e+00
 1.2686327545e+00	 1.2686327545e+00	-1.6104471916e+00
 1.2562084464e+00	 1.2809365600e+00	-1.6498783533e+00
 1.2436654144e+00	 1.2931181186e+00	-1.6867571009e+00
 1.2310054706e+00	 1.3051757211e+00	-1.7200775553e+00
 1.2182304598e+00	 1.3171076943e+00	-1.7488408652e+00
 1.2053422584e+00	 1.3289124017e+00	-1.7720604406e+00
 1.3332694916e+00	 1.2092942003e+00	-1.4128631474e+00
 1.3214260802e+00	 1.2222246580e+00	-1.4497119671e+00
 1.3094549857e+00	 1.2350415541e+00	-1.4890855445e+00
 1.2973578501e+00	 1.2477430059e+00	-1.5300190233e+00
 1.2851363520e+00	 1.2603271626e+00	-1.5715286790e+00
 1.2727922061e+00	 1.2727922061e+00	-1.6126169635e+00
 1.2603271626e+00	 1.2851363520e+00	-1.6522776803e+00
 1.2477430059e+00	 1.2973578501e+00	-1.6895012559e+00
 1.2350415541e+00	 1.3094549857e+00	-1.7232800719e+00
 1.2222246580e+00	 1.3214260802e+00	-1.7526138232e+00
 1.2092942003e+00	 1.3332694916e+00	-1.7765148646e+00
 1.3376265814e+00	 1.2132461421e+00	-1.4152783036e+00
 1.3257444661e+00	 1.2262188562e+00	-1.4519079947e+00
 1.3137342504e+00	 1.2390776376e+00	-1.4911715213e+00
 1.3015975817e+00	 1.2518205974e+00	-1.5321026177e+00
 1.2893361440e+00	 1.2644458788e+00	-1.5737159553e+00
 1.2769516578e+00	 1.2769516578e+00	-1.6150122902e+00
 1.2644458788e+00	 1.2893361440e+00	-1.6549837459e+00
 1.2518205974e+00	 1.3015975817e+00	-1.6926191935e+00
 1.2390776376e+00	 1.3137342504e+00	-1.7269096970e+00
 1.2262188562e+00	 1.3257444661e+00	-1.7568539848e+00
 1.2132461421e+00	 1.3376265814e+00	-1.7814639105e+00
 1.3419836713e+00	 1.2171980839e+00	-1.4172717610e+00
 1.3300628519e+00	 1.2302130545e+00	-1.4538319860e+00
 1.3180135151e+00	 1.2431137211e+00	-1.4931203071e+00
 1.3058373132e+00	 1.2558981889e+00	-1.5341691659e+00
 1.2935359360e+00	 1.2685645950e+00	-1.5759918026e+00
 1.2811111094e+00	 1.2811111094e+00	-1.6175875089e+00
 1.2685645950e+00	 1.2935359360e+00	-1.6579470184e+00
 1.2558981889e+00	 1.3058373132e+00	-1.6960579997e+00
 1.2431137211e+00	 1.3180135151e+00	-1.7309106147e+00
 1.2302130545e+00	 1.3300628519e+00	-1.7615031058e+00
 1.2171980839e+00	 1.3419836713e+00	-1.7868473729e+00
 1.3463407611e+00	 1.2211500258e+00	-1.4188262696e+00
 1.3343812378e+00	 1.2342072527e+00	-1.4554603923e+00
 1.3222927797e+00	 1.2471498046e+00	-1.4949025548e+00
 1.3100770447e+00	 1.2599757805e+00	-1.5361840198e+00
 1.2977357280e+00	 1.2726833113e+00	-1.5783167660e+00
 1.2852705611e+00	 1.2852705611e+00	-1.6202988476e+00
 1.2726833113e+00	 1.2977357280e+00	-1.6611198947e+00
 1.2599757805e+00	 1.3100770447e+00	-1.6997667201e+00
 1.2471498046e+00	 1.3222927797e+00	-1.7352289933e+00
 1.2342072527e+00	 1.3343812378e+00	-1.7665049450e+00
 1.2211500258e+00	 1.3463407611e+00	-1.7926070616e+00
 1.3506978509e+00	 1.2251019676e+00	-1.4199261691e+00
 1.3386996237e+00	 1.2382014509e+00	-1.4567713214e+00
 1.3265720444e+00	 1.2511858881e+00	-1.4964906342e+00
 1.3143167763e+00	 1.2640533720e+00	-1.5381143030e+00
 1.3019355200e+00	 1.2768020275e+00	-1.5806532113e+00
 1.2894300128e+00	 1.2894300128e+00	-1.6231043985e+00
 1.2768020275e+00	 1.3019355200e+00	-1.6644566725e+00
 1.2640533720e+00	 1.3143167763e+00	-1.7036963319e+00
 1.2511858881e+00	 1.3265720444e+00	-1.7398129577e+00
 1.2382014509e+00	 1.3386996237e+00	-1.7718052364e+00
 1.2251019676e+00	 1.3506978509e+00	-1.7986867744e+00
 1.1855825493e+00	 1.3071269525e+00	-1.7594594455e+00
 1.1727961710e+00	 1.3186113879e+00	-1.7809754259e+00
 1.1599022393e+00	 1.3299675359e+00	-1.8090602405e+00
 1.1469026878e+00	 1.3411938994e+00	-1.8413212481e+00
 1.1337994780e+00	 1.3522890205e+00	-1.8761287979e+00
 1.1205945976e+00	 1.3632514805e+00	-1.9119922043e+00
 1.1072900599e+00	 1.3740799010e+00	-1.9475536832e+00
 1.0938879027e+00	 1.3847729444e+00	-1.9815817056e+00
 1.0803901873e+00	 1.3953293139e+00	-2.0129638284e+00
 1.0667989974e+00	 1.4057477549e+00	-2.0406990659e+00
 1.0531164379e+00	 1.4160270546e+00	-2.0638898635e+00
 1.1895344911e+00	 1.3114840424e+00	-1.7604651800e+00
 1.1767054916e+00	 1.3230067592e+00	-1.7826391541e+00
 1.1637685801e+00	 1.3344007610e+00	-1.8119071702e+00
 1.1507256968e+00	 1.3456645458e+00	-1.8451613864e+00
 1.1375788096e+00	 1.3567966505e+00	-1.8807645736e+00
 1.1243299129e+00	 1.3677956521e+00	-1.9172210145e+00
 1.1109810268e+00	 1.3786601674e+00	-1.9531698177e+00
 1.0975341957e+00	 1.3893888542e+00	-1.9873780748e+00
 1.0839914879e+00	 1.3999804117e+00	-2.0187334888e+00
 1.0703549940e+00	 1.4104335807e+00	-2.0462365330e+00
 1.0566268261e+00	 1.4207471448e+00	-2.0689922094e+00
 1.1934864330e+00	 1.3158411322e+00	-1.7622977742e+00
 1.1806148122e+00	 1.3274021305e+00	-1.7850464754e+00
 1.1676349209e+00	 1.3388339861e+00	-1.8154197829e+00
 1.1545487057e+00	 1.3501351921e+00	-1.8497092947e+00
 1.1413581412e+00	 1.3613042806e+00	-1.8861319937e+00
 1.1280652282e+00	 1.3723398237e+00	-1.9231896001e+00
 1.1146719936e+00	 1.3832404337e+00	-1.9595207207e+00
 1.1011804887e+00	 1.3940047640e+00	-1.9938938032e+00
 1.0875927886e+00	 1.4046315094e+00	-2.0251995515e+00
 1.0739109907e+00	 1.4151194066e+00	-2.0524428665e+00
 1.0601372142e+00	 1.4254672350e+00	-2.0747343789e+00
 1.1974383748e+00	 1.3201982221e+00	-1.7648865257e+00
 1.1845241328e+00	 1.3317975018e+00	-1.7882281478e+00
 1.1715012617e+00	 1.3432672112e+00	-1.8194992548e+00
 1.1583717147e+00	 1.3546058384e+00	-1.8548687436e+00
 1.1451374728e+00	 1.3658119107e+00	-1.8921381141e+00
 1.1318005436e+00	 1.3768839953e+00	-1.9298089813e+00
 1.1183629605e+00	 1.3878207001e+00	-1.9665220443e+00
 1.1048267818e+00	 1.3986206738e+00	-2.0010498299e+00
 1.0911940892e+00	 1.4092826071e+00	-2.0322888875e+00
 1.0774669874e+00	 1.4198052324e+00	-2.0592515017e+00
 1.0636476023e+00	 1.4301873251e+00	-2.0810569919e+00
 1.2013903166e+00	 1.3245553119e+00	-1.7681628876e+00
 1.1884334533e+00	 1.3361928731e+00	-1.7921142722e+00
 1.1753676025e+00	 1.3477004364e+00	-1.8240483396e+00
 1.1621947237e+00	 1.3590764848e+00	-1.8605450269e+00
 1.1489168044e+00	 1.3703195407e+00	-1.8986914452e+00
 1.1355358589e+00	 1.3814281669e+00	-1.9369915500e+00
 1.1220539274e+00	 1.3924009664e+00	-1.9740907163e+00
 1.1084730748e+00	 1.4032365836e+00	-2.0087682621e+00
 1.0947953898e+00	 1.4139337048e+00	-2.0399294147e+00
 1.0810229840e+00	 1.4244910583e+00	-2.0665967883e+00
 1.0671579905e+00	 1.4349074153e+00	-2.0879014397e+00
 1.2053422584e+00	 1.3289124017e+00	-1.7720604406e+00
 1.1923427739e+00	 1.3405882444e+00	-1.7966370796e+00
 1.1792339433e+00	 1.3521336615e+00	-1.8290417672e+00
 1.1660177326e+00	 1.3635471311e+00	-1.8666449885e+00
 1.1526961360e+00	 1.3748271708e+00	-1.9057019783e+00
 1.1392711742e+00	 1.3859723385e+00	-1.9446510974e+00
 1.1257448942e+00	 1.3969812327e+00	-1.9821449686e+00
 1.1121193678e+00	 1.4078524934e+00	-2.0169724024e+00
 1.0983966904e+00	 1.4185848025e+00	-2.0480501273e+00
 1.0845789807e+00	 1.4291768841e+00	-2.0744140208e+00
 1.0706683786e+00	 1.4396275055e+00	-2.0952099158e+00
 1.2092942003e+00	 1.3332694916e+00	-1.7765148646e+00
 1.1962520945e+00	 1.3449836157e+00	-1.8017309029e+00
 1.1831002841e+00	 1.3565668866e+00	-1.8345931619e+00
 1.1698407416e+00	 1.3680177774e+00	-1.8730770501e+00
 1.1564754676e+00	 1.3793348009e+00	-1.9130812140e+00
 1.1430064895e+00	 1.3905165101e+00	-1.9527028411e+00
 1.1294358611e+00	 1.4015614991e+00	-1.9906043642e+00
 1.1157656608e+00	 1.4124684033e+00	-2.0255867781e+00
 1.1019979911e+00	 1.4232359002e+00	-2.0565811241e+00
 1.0881349773e+00	 1.4338627100e+00	-2.0826394680e+00
 1.0741787667e+00	 1.4443475957e+00	-2.1029254465e+00
 1.2132461421e+00	 1.3376265814e+00	-1.7814639105e+00
 1.2001614150e+00	 1.3493789870e+00	-1.8073321491e+00
 1.1869666249e+00	 1.3610001117e+00	-1.8406491983e+00
 1.1736637505e+00	 1.3724884237e+00	-1.8797512386e+00
 1.1602547992e+00	 1.3838424310e+00	-1.9207421889e+00
 1.1467418049e+00	 1.3950606817e+00	-1.9610634529e+00
 1.1331268280e+00	 1.4061417654e+00	-1.9993898259e+00
 1.1194119538e+00	 1.4170843131e+00	-2.0345371687e+00
 1.1055992917e+00	 1.4278869979e+00	-2.0654536378e+00
 1.0916909740e+00	 1.4385485358e+00	-2.0912104024e+00
 1.0776891548e+00	 1.4490676859e+00	-2.1109919213e+00
 1.2171980839e+00	 1.3419836713e+00	-1.7868473729e+00
 1.2040707356e+00	 1.3537743583e+00	-1.8133792723e+00
 1.1908329657e+00	 1.3654333368e+00	-1.8471477556e+00
 1.1774867595e+00	 1.3769590701e+00	-1.8865896215e+00
 1.1640341307e+00	 1.3883500610e+00	-1.9285995031e+00
 1.1504771202e+00	 1.3996048533e+00	-1.9696510864e+00
 1.1368177948e+00	 1.4107220317e+00	-2.0084236639e+00
 1.1230582468e+00	 1.4217002229e+00	-2.0437506346e+00
 1.1092005923e+00	 1.4325380956e+00	-2.0746000640e+00
 1.0952469706e+00	 1.4432343617e+00	-2.1000651303e+00
 1.0811995430e+00	 1.4537877760e+00	-2.1193541233e+00
 1.2211500258e+00	 1.3463407611e+00	-1.7926070616e+00
 1.2079800562e+00	 1.3581697296e+00	-1.8198127460e+00
 1.1946993065e+00	 1.3698665620e+00	-1.8540287260e+00
 1.1813097685e+00	 1.3814297164e+00	-1.8937175187e+00
 1.1678134623e+00	 1.3928576911e+00	-1.9365693484e+00
 1.1542124355e+00	 1.4041490249e+00	-1.9783854050e+00
 1.1405087617e+00	 1.4153022981e+00	-2.0176296037e+00
 1.1267045398e+00	 1.4263161327e+00	-2.0531555456e+00
 1.1128018929e+00	 1.4371891934e+00	-2.0839539899e+00
 1.0988029673e+00	 1.4479201875e+00	-2.1091430208e+00
 1.0847099311e+00	 1.4585078662e+00	-2.1279577596e+00
 1.2251019676e+00	 1.3506978509e+00	-1.7986867744e+00
 1.2118893767e+00	 1.3625651009e+00	-1.8265750357e+00
 1.1985656473e+00	 1.3742997871e+00	-1.8612339882e+00
 1.1851327774e+00	 1.3859003627e+00	-1.9011539506e+00
 1.1715927939e+00	 1.3973653212e+00	-1.9445695351e+00
 1.1579477508e+00	 1.4086931965e+00	-1.9871876091e+00
 1.1441997286e+00	 1.4198825644e+00	-2.0269328142e+00
 1.1303508328e+00	 1.4309320425e+00	-2.0626816090e+00
 1.1164031936e+00	 1.4418402911e+00	-2.0934502233e+00
 1.1023589640e+00	 1.4526060134e+00	-2.1183845360e+00
 1.0882203192e+00	 1.4632279564e+00	-2.1367494920e+00
 1.0531164379e+00	 1.4160270546e+00	-2.0638898635e+00
 1.0393446344e+00	 1.4261660430e+00	-2.0821590466e+00
 1.0254857314e+00	 1.4361635930e+00	-2.0959580151e+00
 1.0115418916e+00	 1.4460186211e+00	-2.1057830222e+00
 9.9751529505e-01	 1.4557300874e+00	-2.1122262836e+00
 9.8340813744e-01	 1.4652969960e+00	-2.1159652546e+00
 9.6922262951e-01	 1.4747183954e+00	-2.1177518746e+00
 9.5496099573e-01	 1.4839933786e+00	-2.1184018427e+00
 9.4062547324e-01	 1.4931210836e+00	-2.1187839886e+00
 9.2621831073e-01	 1.5021006931e+00	-2.1198097998e+00
 9.1174176730e-01	 1.5109314349e+00	-2.1224231647e+00
 1.0566268261e+00	 1.4207471448e+00	-2.0689922094e+00
 1.0428091165e+00	 1.4309199298e+00	-2.0867749773e+00
 1.0289040172e+00	 1.4409508050e+00	-2.1001783504e+00
 1.0149136979e+00	 1.4508386832e+00	-2.1096881606e+00
 1.0008403460e+00	 1.4605825210e+00	-2.1158868461e+00
 9.8668616456e-01	 1.4701813193e+00	-2.1194425177e+00
 9.7245337160e-01	 1.4796341234e+00	-2.1210979947e+00
 9.5814419905e-01	 1.4889400232e+00	-2.1216598748e+00
 9.4376089149e-01	 1.4980981539e+00	-2.1219877052e+00
 9.2930570510e-01	 1.5071076954e+00	-2.1229833155e+00
 9.1478090653e-01	 1.5159678730e+00	-2.1255803732e+00
 1.0601372142e+00	 1.4254672350e+00	-2.0747343789e+00
 1.0462735986e+00	 1.4356738166e+00	-2.0920038584e+00
 1.0323223029e+00	 1.4457380170e+00	-2.1049886101e+00
 1.0182855043e+00	 1.4556587453e+00	-2.1141640379e+00
 1.0041653970e+00	 1.4654349546e+00	-2.1201025917e+00
 9.8996419169e-01	 1.4750656426e+00	-2.1234626207e+00
 9.7568411370e-01	 1.4845498513e+00	-2.1249771980e+00
 9.6132740237e-01	 1.4938866678e+00	-2.1254429837e+00
 9.4689630973e-01	 1.5030752242e+00	-2.1257091946e+00
 9.3239309947e-01	 1.5121146977e+00	-2.1266667417e+00
 9.1782004575e-01	 1.5210043111e+00	-2.1292375983e+00
 1.0636476023e+00	 1.4301873251e+00	-2.0810569919e+00
 1.0497380808e+00	 1.4404277034e+00	-2.0977928190e+00
 1.0357405887e+00	 1.4505252290e+00	-2.1103404811e+00
 1.0216573106e+00	 1.4604788073e+00	-2.1191649685e+00
 1.0074904480e+00	 1.4702873883e+00	-2.1248285549e+00
 9.9324221881e-01	 1.4799499659e+00	-2.1279794343e+00
 9.7891485580e-01	 1.4894655793e+00	-2.1293403326e+00
 9.6451060569e-01	 1.4988333124e+00	-2.1296971628e+00
 9.5003172797e-01	 1.5080522944e+00	-2.1298877906e+00
 9.3548049383e-01	 1.5171217000e+00	-2.1307909763e+00
 9.2085918497e-01	 1.5260407492e+00	-2.1333155549e+00
 1.0671579905e+00	 1.4349074153e+00	-2.0879014397e+00
 1.0532025629e+00	 1.4451815902e+00	-2.1040896222e+00
 1.0391588745e+00	 1.4553124409e+00	-2.1161861707e+00
 1.0250291169e+00	 1.4652988694e+00	-2.1246456977e+00
 1.0108154990e+00	 1.4751398219e+00	-2.1300201345e+00
 9.9652024594e-01	 1.4848342893e+00	-2.1329471506e+00
 9.8214559790e-01	 1.4943813073e+00	-2.1341385495e+00
 9.6769380901e-01	 1.5037799570e+00	-2.1343687131e+00
 9.5316714622e-01	 1.5130293647e+00	-2.1344631630e+00
 9.3856788820e-01	 1.5221287023e+00	-2.1352873055e+00
 9.2389832420e-01	 1.5310771874e+00	-2.1377354223e+00
 1.0706683786e+00	 1.4396275055e+00	-2.0952099158e+00
 1.0566670450e+00	 1.4499354770e+00	-2.1108426973e+00
 1.0425771602e+00	 1.4600996529e+00	-2.1224784393e+00
 1.0284009232e+00	 1.4701189315e+00	-2.1305614329e+00
 1.0141405500e+00	 1.4799922555e+00	-2.1356331247e+00
 9.9979827306e-01	 1.4897186126e+00	-2.1383203139e+00
 9.8537634000e-01	 1.4992970353e+00	-2.1393233310e+00
 9.7087701232e-01	 1.5087266016e+00	-2.1394042699e+00
 9.5630256446e-01	 1.5180064350e+00	-2.1393753429e+00
 9.4165528257e-01	 1.5271357046e+00	-2.1400874265e+00
 9.2693746342e-01	 1.5361136255e+00	-2.1424188638e+00
 1.0741787667e+00	 1.4443475957e+00	-2.1029254465e+00
 1.0601315271e+00	 1.4546893638e+00	-2.1180011707e+00
 1.0459954460e+00	 1.4648868649e+00	-2.1291706311e+00
 1.0317727295e+00	 1.4749389936e+00	-2.1368678760e+00
 1.0174656010e+00	 1.4848446891e+00	-2.1416237466e+00
 1.0030763002e+00	 1.4946029359e+00	-2.1440538504e+00
 9.8860708210e-01	 1.5042127633e+00	-2.1448465202e+00
 9.7406021564e-01	 1.5136732462e+00	-2.1447508310e+00
 9.5943798271e-01	 1.5229835053e+00	-2.1445647475e+00
 9.4474267694e-01	 1.5321427069e+00	-2.1451234701e+00
 9.2997660265e-01	 1.5411500636e+00	-2.1472880471e+00
 1.0776891548e+00	 1.4490676859e+00	-2.1109919213e+00
 1.0635960092e+00	 1.4594432506e+00	-2.1255148972e+00
 1.0494137318e+00	 1.4696740769e+00	-2.1362167066e+00
 1.0351445358e+00	 1.4797590556e+00	-2.1435212543e+00
 1.0207906519e+00	 1.4896971228e+00	-2.1479486787e+00
 1.0063543273e+00	 1.4994872592e+00	-2.1501030988e+00
 9.9183782419e-01	 1.5091284913e+00	-2.1506603495e+00
 9.7724341896e-01	 1.5186198908e+00	-2.1503557830e+00
 9.6257340095e-01	 1.5279605756e+00	-2.1499722057e+00
 9.4783007131e-01	 1.5371497092e+00	-2.1503280239e+00
 9.3301574187e-01	 1.5461865017e+00	-2.1522656637e+00
 1.0811995430e+00	 1.4537877760e+00	-2.1193541233e+00
 1.0670604913e+00	 1.4641971375e+00	-2.1333344911e+00
 1.0528320175e+00	 1.4744612888e+00	-2.1435712730e+00
 1.0385163421e+00	 1.4845791177e+00	-2.1504783516e+00
 1.0241157029e+00	 1.4945495564e+00	-2.1545650882e+00
 1.0096323544e+00	 1.5043715825e+00	-2.1564238398e+00
 9.9506856629e-01	 1.5140442193e+00	-2.1567174695e+00
 9.8042662228e-01	 1.5235665354e+00	-2.1561669288e+00
 9.6570881920e-01	 1.5329376458e+00	-2.1555389831e+00
 9.5091746568e-01	 1.5421567115e+00	-2.1556341546e+00
 9.3605488110e-01	 1.5512229398e+00	-2.1572749495e+00
 1.0847099311e+00	 1.4585078662e+00	-2.1279577596e+00
 1.0705249734e+00	 1.4689510243e+00	-2.1414113574e+00
 1.0562503033e+00	 1.4792485008e+00	-2.1511896165e+00
 1.0418881484e+00	 1.4893991798e+00	-2.1576965403e+00
 1.0274407539e+00	 1.4994019900e+00	-2.1614306614e+00
 1.0129103816e+00	 1.5092559059e+00	-2.1629723262e+00
 9.9829930839e-01	 1.5189599472e+00	-2.1629709775e+00
 9.8360982560e-01	 1.5285131800e+00	-2.1621325147e+00
 9.6884423744e-01	 1.5379147161e+00	-2.1612068068e+00
 9.5400486005e-01	 1.5471637138e+00	-2.1609754305e+00
 9.3909402032e-01	 1.5562593779e+00	-2.1622397042e+00
 1.0882203192e+00	 1.4632279564e+00	-2.1367494920e+00
 1.0739894556e+00	 1.4737049111e+00	-2.1496977226e+00
 1.0596685891e+00	 1.4840357128e+00	-2.1590277329e+00
 1.0452599547e+00	 1.4942192418e+00	-2.1651338115e+00
 1.0307658049e+00	 1.5042544236e+00	-2.1685036345e+00
 1.0161884087e+00	 1.5141402292e+00	-2.1697053129e+00
 1.0015300505e+00	 1.5238756752e+00	-2.1693744460e+00
 9.8679302892e-01	 1.5334598246e+00	-2.1682012570e+00
 9.7197965568e-01	 1.5428917864e+00	-2.1669178905e+00
 9.5709225442e-01	 1.5521707162e+00	-2.1662859448e+00
 9.4213315955e-01	 1.5612958161e+00	-2.1670843113e+00
 9.1174176730e-01	 1.5109314349e+00	-2.1224231647e+00
 8.9719811140e-01	 1.5196125822e+00	-2.1222476191e+00
 8.8258961968e-01	 1.5281434535e+00	-2.1148702756e+00
 8.6791857587e-01	 1.5365234124e+00	-2.1011857266e+00
 8.5318726972e-01	 1.5447518681e+00	-2.0820646480e+00
 8.3839799585e-01	 1.5528282750e+00	-2.0583458782e+00
 8.2355305267e-01	 1.5607521330e+00	-2.0308290204e+00
 8.0865474130e-01	 1.5685229869e+00	-2.0002676040e+00
 7.9370536447e-01	 1.5761404270e+00	-1.9673628310e+00
 7.7870722545e-01	 1.5836040882e+00	-1.9327579355e+00
 7.6366262696e-01	 1.5909136505e+00	-1.8970331744e+00
 9.1478090653e-01	 1.5159678730e+00	-2.1255803732e+00
 9.0018877177e-01	 1.5246779575e+00	-2.1252910632e+00
 8.8553158508e-01	 1.5332372650e+00	-2.1176172676e+00
 8.7081163779e-01	 1.5416451571e+00	-2.1034812298e+00
 8.5603122728e-01	 1.5499010410e+00	-2.0837800764e+00
 8.4119265583e-01	 1.5580043693e+00	-2.0593777056e+00
 8.2629822951e-01	 1.5659546401e+00	-2.0310972142e+00
 8.1135025711e-01	 1.5737513969e+00	-1.9997138959e+00
 7.9635104902e-01	 1.5813942284e+00	-1.9659488412e+00
 7.8130291620e-01	 1.5888827685e+00	-1.9304631650e+00
 7.6620816905e-01	 1.5962166960e+00	-1.8938528812e+00
 9.1782004575e-01	 1.5210043111e+00	-2.1292375983e+00
 9.0317943215e-01	 1.5297433328e+00	-2.1288233846e+00
 8.8847355048e-01	 1.5383310765e+00	-2.1208419075e+00
 8.7370469971e-01	 1.5467669018e+00	-2.1062421322e+00
 8.5887518485e-01	 1.5550502139e+00	-2.0859469041e+00
 8.4398731582e-01	 1.5631804635e+00	-2.0608446432e+00
 8.2904340635e-01	 1.5711571472e+00	-2.0317815903e+00
 8.1404577291e-01	 1.5789798069e+00	-1.9995546386e+00
 7.9899673357e-01	 1.5866480298e+00	-1.9649047822e+00
 7.8389860695e-01	 1.5941614488e+00	-1.9285112072e+00
 7.6875371114e-01	 1.6015197415e+00	-1.8909860464e+00
 9.2085918497e-01	 1.5260407492e+00	-2.1333155549e+00
 9.0617009252e-01	 1.5348087081e+00	-2.1327552777e+00
 8.9141551587e-01	 1.5434248880e+00	-2.1244469341e+00
 8.7659776163e-01	 1.5518886465e+00	-2.1093652991e+00
 8.6171914242e-01	 1.5601993868e+00	-2.0884582207e+00
 8.4678197581e-01	 1.5683565578e+00	-2.0626381159e+00
 8.3178858320e-01	 1.5763596543e+00	-2.0327740313e+00
 8.1674128871e-01	 1.5842082168e+00	-1.9996843036e+00
 8.0164241812e-01	 1.5919018313e+00	-1.9641298523e+00
 7.8649429770e-01	 1.5994401291e+00	-1.9268081298e+00
 7.7129925323e-01	 1.6068227870e+00	-1.8883477513e+00
 9.2389832420e-01	 1.5310771874e+00	-2.1377354223e+00
 9.0916075289e-01	 1.5398740833e+00	-2.1369979763e+00
 8.9435748127e-01	 1.5485186995e+00	-2.1283356745e+00
 8.7949082355e-01	 1.5570103912e+00	-2.1127482076e+00
 8.6456309998e-01	 1.5653485597e+00	-2.0912077257e+00
 8.4957663579e-01	 1.5735326520e+00	-2.0646501313e+00
 8.3453376004e-01	 1.5815621614e+00	-2.0339669497e+00
 8.1943680452e-01	 1.5894366268e+00	-1.9999978145e+00
 8.0428810266e-01	 1.5971556327e+00	-1.9635235993e+00
 7.8908998845e-01	 1.6047188094e+00	-1.9252602222e+00
 7.7384479532e-01	 1.6121258325e+00	-1.8858531470e+00
 9.2693746342e-01	 1.5361136255e+00	-2.1424188638e+00
 9.1215141326e-01	 1.5449394586e+00	-2.1414632705e+00
 8.9729944667e-01	 1.5536125110e+00	-2.1324120593e+00
 8.8238388547e-01	 1.5621321359e+00	-2.1162889601e+00
 8.6740705755e-01	 1.5704977326e+00	-2.0940897403e+00
 8.5237129578e-01	 1.5787087463e+00	-2.0667732899e+00
 8.3727893688e-01	 1.5867646685e+00	-2.0352532978e+00
 8.2213232032e-01	 1.5946650367e+00	-2.0003905568e+00
 8.0693378721e-01	 1.6024094341e+00	-1.9629859299e+00
 7.9168567920e-01	 1.6099974897e+00	-1.9237740058e+00
 7.7639033741e-01	 1.6174288780e+00	-1.8834174653e+00
 9.2997660265e-01	 1.5411500636e+00	-2.1472880471e+00
 9.1514207363e-01	 1.5500048339e+00	-2.1460635240e+00
 9.0024141207e-01	 1.5587063226e+00	-2.1365806369e+00
 8.8527694739e-01	 1.5672538807e+00	-2.1198862963e+00
 8.7025101511e-01	 1.5756469055e+00	-2.0969992181e+00
 8.5516595576e-01	 1.5838848405e+00	-2.0689007956e+00
 8.4002411372e-01	 1.5919671757e+00	-2.0365265771e+00
 8.2482783613e-01	 1.5998934467e+00	-2.0007583866e+00
 8.0957947176e-01	 1.6076632355e+00	-1.9624171196e+00
 7.9428136995e-01	 1.6152761700e+00	-1.9222562443e+00
 7.7893587950e-01	 1.6227319235e+00	-1.8809560300e+00
 9.3301574187e-01	 1.5461865017e+00	-2.1522656637e+00
 9.1813273400e-01	 1.5550702092e+00	-2.1507116910e+00
 9.0318337747e-01	 1.5638001341e+00	-2.1407465885e+00
 8.8817000931e-01	 1.5723756254e+00	-2.1234396069e+00
 8.7309497268e-01	 1.5807960784e+00	-2.0998317571e+00
 8.5796061575e-01	 1.5890609348e+00	-2.0709264655e+00
 8.4276929057e-01	 1.5971696828e+00	-2.0376808480e+00
 8.2752335193e-01	 1.6051218566e+00	-2.0009976406e+00
 8.1222515631e-01	 1.6129170370e+00	-1.9617178218e+00
 7.9687706071e-01	 1.6205548503e+00	-1.9206139537e+00
 7.8148142159e-01	 1.6280349690e+00	-1.8783842682e+00
 9.3605488110e-01	 1.5512229398e+00	-2.1572749495e+00
 9.2112339437e-01	 1.5601355844e+00	-2.1553213339e+00
 9.0612534287e-01	 1.5688939456e+00	-2.1448157432e+00
 8.9106307123e-01	 1.5774973701e+00	-2.1268489458e+00
 8.7593893024e-01	 1.5859452513e+00	-2.1024836107e+00
 8.6075527574e-01	 1.5942370290e+00	-2.0727447410e+00
 8.4551446741e-01	 1.6023721899e+00	-2.0386107394e+00
 8.3021886774e-01	 1.6103502666e+00	-2.0010051456e+00
 8.1487084086e-01	 1.6181708384e+00	-1.9607890780e+00
 7.9947275146e-01	 1.6258335306e+00	-1.9187544129e+00
 7.8402696368e-01	 1.6333380145e+00	-1.8756177217e+00
 9.3909402032e-01	 1.5562593779e+00	-2.1622397042e+00
 9.2411405475e-01	 1.5652009597e+00	-2.1598066401e+00
 9.0906730827e-01	 1.5739877571e+00	-2.1486945928e+00
 8.9395613315e-01	 1.5826191148e+00	-2.1300150441e+00
 8.7878288781e-01	 1.5910944241e+00	-2.1048516999e+00
 8.6354993572e-01	 1.5994131233e+00	-2.0742506977e+00
 8.4825964425e-01	 1.6075746970e+00	-2.0392114591e+00
 8.3291438354e-01	 1.6155786766e+00	-2.0006782277e+00
 8.1751652541e-01	 1.6234246398e+00	-1.9595323277e+00
 8.0206844221e-01	 1.6311122109e+00	-1.9165851741e+00
 7.8657250577e-01	 1.6386410600e+00	-1.8725720583e+00
 9.4213315955e-01	 1.5612958161e+00	-2.1670843113e+00
 9.2710471512e-01	 1.5702663350e+00	-2.1640824396e+00
 9.1200927367e-01	 1.5790815686e+00	-2.1522903070e+00
 8.9684919507e-01	 1.5877408595e+00	-2.1328393226e+00
 8.8162684538e-01	 1.5962435970e+00	-2.1068336246e+00
 8.6634459571e-01	 1.6045892175e+00	-2.0753400569e+00
 8.5100482109e-01	 1.6127772041e+00	-2.0393788035e+00
 8.3560989935e-01	 1.6208070865e+00	-1.9999147227e+00
 8.2016220995e-01	 1.6286784412e+00	-1.9578494177e+00
 8.0466413296e-01	 1.6363908912e+00	-1.9140140730e+00
 7.8911804786e-01	 1.6439441055e+00	-1.8691630838e+00
 7.6366262696e-01	 1.5909136505e+00	-1.8970331744e+00
 7.4857387017e-01	 1.5980688384e+00	-1.8588975988e+00
 7.3344325360e-01	 1.6050694206e+00	-1.8171777653e+00
 7.1827307209e-01	 1.6119152103e+00	-1.7725290641e+00
 7.0306561583e-01	 1.6186060642e+00	-1.7255365453e+00
 6.8782316927e-01	 1.6251418827e+00	-1.6767128970e+00
 6.7254801021e-01	 1.6315226095e+00	-1.6264970830e+00
 6.5724240876e-01	 1.6377482308e+00	-1.5752536321e+00
 6.4190862643e-01	 1.6438187755e+00	-1.5232725664e+00
 6.2654891511e-01	 1.6497343144e+00	-1.4707699512e+00
 6.1116551624e-01	 1.6554949601e+00	-1.4178890477e+00
 7.6620816905e-01	 1.5962166960e+00	-1.8938528812e+00
 7.5106911641e-01	 1.6033957345e+00	-1.8548744893e+00
 7.3588806444e-01	 1.6104196520e+00	-1.8123965881e+00
 7.2066731567e-01	 1.6172882610e+00	-1.7670795455e+00
 7.0540916788e-01	 1.6240014177e+00	-1.7195119895e+00
 6.9011591317e-01	 1.6305590223e+00	-1.6702087433e+00
 6.7478983691e-01	 1.6369610182e+00	-1.6196094362e+00
 6.5943321679e-01	 1.6432073915e+00	-1.5680777805e+00
 6.4404832185e-01	 1.6492981714e+00	-1.5159015013e+00
 6.2863741150e-01	 1.6552334288e+00	-1.4632929043e+00
 6.1320273462e-01	 1.6610132767e+00	-1.4103900586e+00
 7.6875371114e-01	 1.6015197415e+00	-1.8909860464e+00
 7.5356436264e-01	 1.6087226306e+00	-1.8511368943e+00
 7.3833287529e-01	 1.6157698834e+00	-1.8078769291e+00
 7.2306155924e-01	 1.6226613117e+00	-1.7618700435e+00
 7.0775271993e-01	 1.6293967713e+00	-1.7137066291e+00
 6.9240865706e-01	 1.6359761620e+00	-1.6639014750e+00
 6.7703166361e-01	 1.6423994269e+00	-1.6128923572e+00
 6.6162402482e-01	 1.6486665523e+00	-1.5610393106e+00
 6.4618801727e-01	 1.6547775673e+00	-1.5086245691e+00
 6.3072590788e-01	 1.6607325432e+00	-1.4558531578e+00
 6.1523995301e-01	 1.6665315932e+00	-1.4028541159e+00
 7.7129925323e-01	 1.6068227870e+00	-1.8883477513e+00
 7.5605960887e-01	 1.6140495267e+00	-1.8476085483e+00
 7.4077768613e-01	 1.6211201148e+00	-1.8035483236e+00
 7.2545580281e-01	 1.6280343624e+00	-1.7568330656e+00
 7.1009627198e-01	 1.6347921248e+00	-1.7080531399e+00
 6.9470140096e-01	 1.6413933016e+00	-1.6577211571e+00
 6.7927349031e-01	 1.6478378356e+00	-1.6062705481e+00
 6.6381483285e-01	 1.6541257131e+00	-1.5540548373e+00
 6.4832771269e-01	 1.6602569632e+00	-1.5013476009e+00
 6.3281440426e-01	 1.6662316576e+00	-1.4483430918e+00
 6.1727717140e-01	 1.6720499097e+00	-1.3951575118e+00
 7.7384479532e-01	 1.6121258325e+00	-1.8858531470e+00
 7.5855485511e-01	 1.6193764229e+00	-1.8442131111e+00
 7.4322249698e-01	 1.6264703462e+00	-1.7993401299e+00
 7.2785004639e-01	 1.6334074131e+00	-1.7519008810e+00
 7.1243982404e-01	 1.6401874784e+00	-1.7024839387e+00
 6.9699414486e-01	 1.6468104412e+00	-1.6515976165e+00
 6.8151531701e-01	 1.6532762443e+00	-1.5996685341e+00
 6.6600564088e-01	 1.6595848738e+00	-1.5470408994e+00
 6.5046740811e-01	 1.6657363591e+00	-1.4939764925e+00
 6.3490290065e-01	 1.6717307719e+00	-1.4406553319e+00
 6.1931438979e-01	 1.6775682263e+00	-1.3871770032e+00
 7.7639033741e-01	 1.6174288780e+00	-1.8834174653e+00
 7.6105010134e-01	 1.6247033190e+00	-1.8408741808e+00
 7.4566730782e-01	 1.6318205776e+00	-1.7951815420e+00
 7.3024428996e-01	 1.6387804638e+00	-1.7470055330e+00
 7.1478337609e-01	 1.6455828319e+00	-1.6969311955e+00
 6.9928688876e-01	 1.6522275808e+00	-1.6454604520e+00
 6.8375714371e-01	 1.6587146529e+00	-1.5930106709e+00
 6.6819644891e-01	 1.6650440346e+00	-1.5399139648e+00
 6.5260710353e-01	 1.6712157550e+00	-1.4864172069e+00
 6.3699139703e-01	 1.6772298863e+00	-1.4326827467e+00
 6.2135160817e-01	 1.6830865428e+00	-1.3787898051e+00
 7.7893587950e-01	 1.6227319235e+00	-1.8809560300e+00
 7.6354534758e-01	 1.6300302151e+00	-1.8375153051e+00
 7.4811211867e-01	 1.6371708090e+00	-1.7910016022e+00
 7.3263853354e-01	 1.6441535145e+00	-1.7420788516e+00
 7.1712692814e-01	 1.6509781855e+00	-1.6913268449e+00
 7.0157963265e-01	 1.6576447204e+00	-1.6392390444e+00
 6.8599897041e-01	 1.6641530616e+00	-1.5862211534e+00
 6.7038725694e-01	 1.6705031954e+00	-1.5325904362e+00
 6.5474679895e-01	 1.6766951510e+00	-1.4785757757e+00
 6.3907989341e-01	 1.6827290007e+00	-1.4243184465e+00
 6.2338882656e-01	 1.6886048593e+00	-1.3698735845e+00
 7.8148142159e-01	 1.6280349690e+00	-1.8783842682e+00
 7.6604059381e-01	 1.6353571112e+00	-1.8340599944e+00
 7.5055692952e-01	 1.6425210404e+00	-1.7867292140e+00
 7.3503277711e-01	 1.6495265652e+00	-1.7370524657e+00
 7.1947048020e-01	 1.6563735390e+00	-1.6856025973e+00
 7.0387237655e-01	 1.6630618600e+00	-1.6328625669e+00
 6.8824079711e-01	 1.6695914703e+00	-1.5792240233e+00
 6.7257806497e-01	 1.6759623561e+00	-1.5249866564e+00
 6.5688649438e-01	 1.6821745469e+00	-1.4703583021e+00
 6.4116838980e-01	 1.6882281151e+00	-1.4154557820e+00
 6.2542604495e-01	 1.6941231759e+00	-1.3603064550e+00
 7.8402696368e-01	 1.6333380145e+00	-1.8756177217e+00
 7.6853584004e-01	 1.6406840074e+00	-1.8304317338e+00
 7.5300174036e-01	 1.6478712718e+00	-1.7822931542e+00
 7.3742702068e-01	 1.6548996159e+00	-1.7318578154e+00
 7.2181403225e-01	 1.6617688926e+00	-1.6796899512e+00
 7.0616512045e-01	 1.6684789996e+00	-1.6262599949e+00
 6.9048262381e-01	 1.6750298790e+00	-1.5719431774e+00
 6.7476887300e-01	 1.6814215169e+00	-1.5170189137e+00
 6.5902618980e-01	 1.6876539428e+00	-1.4616709631e+00
 6.4325688618e-01	 1.6937272295e+00	-1.4059883426e+00
 6.2746326334e-01	 1.6996414924e+00	-1.3499669708e+00
 7.8657250577e-01	 1.6386410600e+00	-1.8725720583e+00
 7.7103108628e-01	 1.6460109035e+00	-1.8265539952e+00
 7.5544655121e-01	 1.6532215032e+00	-1.7776220861e+00
 7.3982126426e-01	 1.6602726666e+00	-1.7264261648e+00
 7.2415758430e-01	 1.6671642461e+00	-1.6735202039e+00
 7.0845786435e-01	 1.6738961392e+00	-1.6193601162e+00
 6.9272445052e-01	 1.6804682877e+00	-1.5643023759e+00
 6.7695968103e-01	 1.6868806777e+00	-1.5086034480e+00
 6.6116588522e-01	 1.6931333387e+00	-1.4524200117e+00
 6.4534538257e-01	 1.6992263439e+00	-1.3958099557e+00
 6.2950048172e-01	 1.7051598089e+00	-1.3387341220e+00
 7.8911804786e-01	 1.6439441055e+00	-1.8691630838e+00
 7.7352633251e-01	 1.6513377996e+00	-1.8223502502e+00
 7.5789136205e-01	 1.6585717346e+00	-1.7726445719e+00
 7.4221550783e-01	 1.6656457173e+00	-1.7206886137e+00
 7.2650113635e-01	 1.6725595997e+00	-1.6670244635e+00
 7.1075060825e-01	 1.6793132788e+00	-1.6120915413e+00
 6.9496627722e-01	 1.6859066964e+00	-1.5562252501e+00
 6.7915048906e-01	 1.6923398384e+00	-1.4996564559e+00
 6.6330558064e-01	 1.6986127346e+00	-1.4425117801e+00
 6.4743387895e-01	 1.7047254582e+00	-1.3848146857e+00
 6.3153770011e-01	 1.7106781255e+00	-1.3264873292e+00
 6.1116551624e-01	 1.6554949601e+00	-1.4178890477e+00
 5.9576065981e-01	 1.6611008661e+00	-1.3609598059e+00
 5.8033656351e-01	 1.6665522267e+00	-1.2977401624e+00
 5.6489543189e-01	 1.6718492762e+00	-1.2364947525e+00
 5.4943945541e-01	 1.6769922886e+00	-1.1778408586e+00
 5.3397080973e-01	 1.6819815771e+00	-1.1210102541e+00
 5.1849165479e-01	 1.6868174931e+00	-1.0652457495e+00
 5.0300413408e-01	 1.6915004263e+00	-1.0098050839e+00
 4.8751037386e-01	 1.6960308036e+00	-9.5396455401e-01
 4.7201248240e-01	 1.7004090883e+00	-8.9702237816e-01
 4.5651254928e-01	 1.7046357803e+00	-8.3830179240e-01
 6.1320273462e-01	 1.6610132767e+00	-1.4103900586e+00
 5.9774652867e-01	 1.6666378690e+00	-1.3535719751e+00
 5.8227101873e-01	 1.6721074008e+00	-1.2899756929e+00
 5.6677841666e-01	 1.6774221071e+00	-1.2277405540e+00
 5.5127092027e-01	 1.6825822629e+00	-1.1682645902e+00
 5.3575071243e-01	 1.6875881823e+00	-1.1107387303e+00
 5.2021996030e-01	 1.6924402181e+00	-1.0543651822e+00
 5.0468081452e-01	 1.6971387611e+00	-9.9836141751e-01
 4.8913540844e-01	 1.7016842396e+00	-9.4196388835e-01
 4.7358585734e-01	 1.7060771186e+00	-8.8443147374e-01
 4.5803425778e-01	 1.7103178996e+00	-8.2504865282e-01
 6.1523995301e-01	 1.6665315932e+00	-1.4028541159e+00
 5.9973239754e-01	 1.6721748719e+00	-1.3460497400e+00
 5.8420547394e-01	 1.6776625749e+00	-1.2821457136e+00
 5.6866140143e-01	 1.6829949380e+00	-1.2187980071e+00
 5.5310238512e-01	 1.6881722372e+00	-1.1583830234e+00
 5.3753061513e-01	 1.6931947876e+00	-1.1000647877e+00
 5.2194826582e-01	 1.6980629431e+00	-1.0430191944e+00
 5.0635749497e-01	 1.7027770959e+00	-9.8643806055e-01
 4.9076044301e-01	 1.7073376756e+00	-9.2953290568e-01
 4.7515923228e-01	 1.7117451489e+00	-8.7153845644e-01
 4.5955596628e-01	 1.7160000189e+00	-8.1171587226e-01
 6.1727717140e-01	 1.6720499097e+00	-1.3951575118e+00
 6.0171826640e-01	 1.6777118748e+00	-1.3382545774e+00
 5.8613992915e-01	 1.6832177489e+00	-1.2740996891e+00
 5.7054438620e-01	 1.6885677689e+00	-1.2095125847e+00
 5.5493384997e-01	 1.6937622115e+00	-1.1480422210e+00
 5.3931051783e-01	 1.6988013928e+00	-1.0888395020e+00
 5.2367657133e-01	 1.7036856681e+00	-1.0310681377e+00
 5.0803417542e-01	 1.7084154306e+00	-9.7390874141e-01
 4.9238547759e-01	 1.7129911116e+00	-9.1656264917e-01
 4.7673260722e-01	 1.7174131792e+00	-8.5825545760e-01
 4.6107767477e-01	 1.7216821381e+00	-7.9824027806e-01
 6.1931438979e-01	 1.6775682263e+00	-1.3871770032e+00
 6.0370413527e-01	 1.6832488777e+00	-1.3300486353e+00
 5.8807438436e-01	 1.6887729230e+00	-1.2656877237e+00
 5.7242737098e-01	 1.6941405999e+00	-1.1997305235e+00
 5.5676531482e-01	 1.6993521858e+00	-1.1370890722e+00
 5.4109042052e-01	 1.7044079981e+00	-1.0769147787e+00
 5.2540487685e-01	 1.7093083930e+00	-1.0183731391e+00
 5.0971085586e-01	 1.7140537654e+00	-9.6064785453e-01
 4.9401051217e-01	 1.7186445476e+00	-9.0294466531e-01
 4.7830598217e-01	 1.7230812095e+00	-8.4449489803e-01
 4.6259938327e-01	 1.7273642574e+00	-7.8455872406e-01
 6.2135160817e-01	 1.6830865428e+00	-1.3787898051e+00
 6.0569000414e-01	 1.6887858806e+00	-1.3212947226e+00
 5.9000883957e-01	 1.6943280971e+00	-1.2566866876e+00
 5.7431035575e-01	 1.6997134308e+00	-1.1892988019e+00
 5.5859677967e-01	 1.7049421601e+00	-1.1253712702e+00
 5.4287032322e-01	 1.7100146033e+00	-1.0641433306e+00
 5.2713318236e-01	 1.7149311180e+00	-1.0047960803e+00
 5.1138753631e-01	 1.7196921001e+00	-9.4653044179e-01
 4.9563554675e-01	 1.7242979836e+00	-8.8857098833e-01
 4.7987935711e-01	 1.7287492398e+00	-8.3016947628e-01
 4.6412109177e-01	 1.7330463767e+00	-7.7060808367e-01
 6.2338882656e-01	 1.6886048593e+00	-1.3698735845e+00
 6.0767587300e-01	 1.6943228834e+00	-1.3118562987e+00
 5.9194329478e-01	 1.6998832712e+00	-1.2468483919e+00
 5.7619334052e-01	 1.7052862617e+00	-1.1780651183e+00
 5.6042824452e-01	 1.7105321344e+00	-1.1127372896e+00
 5.4465022592e-01	 1.7156212086e+00	-1.0503786565e+00
 5.2886148788e-01	 1.7205538430e+00	-9.9019957730e-01
 5.1306421676e-01	 1.7253304349e+00	-9.3143217422e-01
 4.9726058133e-01	 1.7299514196e+00	-8.7333412504e-01
 4.8145273205e-01	 1.7344172701e+00	-8.1519215729e-01
 4.6564280027e-01	 1.7387284959e+00	-7.5632524298e-01
 6.2542604495e-01	 1.6941231759e+00	-1.3603064550e+00
 6.0966174187e-01	 1.6998598863e+00	-1.3015974639e+00
 5.9387775000e-01	 1.7054384453e+00	-1.2360271286e+00
 5.7807632530e-01	 1.7108590926e+00	-1.1658778702e+00
 5.6225970937e-01	 1.7161221087e+00	-1.0990363652e+00
 5.4643012862e-01	 1.7212278139e+00	-1.0354750193e+00
 5.3058979340e-01	 1.7261765680e+00	-9.7444696028e-01
 5.1474089720e-01	 1.7309687696e+00	-9.1522933408e-01
 4.9888561591e-01	 1.7356048556e+00	-8.5712703976e-01
 4.8302610699e-01	 1.7400853004e+00	-7.9947616116e-01
 4.6716450876e-01	 1.7444106152e+00	-7.4164709414e-01
 6.2746326334e-01	 1.6996414924e+00	-1.3499669708e+00
 6.1164761073e-01	 1.7053968892e+00	-1.2903829498e+00
 5.9581220521e-01	 1.7109936194e+00	-1.2240785641e+00
 5.7995931007e-01	 1.7164319235e+00	-1.1525861334e+00
 5.6409117423e-01	 1.7217120830e+00	-1.0841184706e+00
 5.4821003132e-01	 1.7268344191e+00	-1.0192874258e+00
 5.3231809891e-01	 1.7317992929e+00	-9.5740225391e-01
 5.1641757765e-01	 1.7366071044e+00	-8.9779879733e-01
 5.0051065049e-01	 1.7412582916e+00	-8.3984313974e-01
 4.8459948193e-01	 1.7457533307e+00	-7.8293495213e-01
 4.6868621726e-01	 1.7500927345e+00	-7.2651052881e-01
 6.2950048172e-01	 1.7051598089e+00	-1.3387341220e+00
 6.1363347960e-01	 1.7109338921e+00	-1.2780781102e+00
 5.9774666042e-01	 1.7165487935e+00	-1.2108591164e+00
 5.8184229484e-01	 1.7220047545e+00	-1.1380396414e+00
 5.6592263908e-01	 1.7273020573e+00	-1.0678342971e+00
 5.4998993402e-01	 1.7324410244e+00	-1.0016716054e+00
 5.3404640443e-01	 1.7374220179e+00	-9.3893015815e-01
 5.1809425810e-01	 1.7422454391e+00	-8.7901801638e-01
 5.0213568507e-01	 1.7469117277e+00	-8.2137626076e-01
 4.8617285687e-01	 1.7514213610e+00	-7.6548222789e-01
 4.7020792576e-01	 1.7557748537e+00	-7.1085243165e-01
 6.3153770011e-01	 1.7106781255e+00	-1.3264873292e+00
 6.1561934847e-01	 1.7164708950e+00	-1.2645489124e+00
 5.9968111563e-01	 1.7221039676e+00	-1.1962259436e+00
 5.8372527962e-01	 1.7275775854e+00	-1.1220887660e+00
 5.6775410393e-01	 1.7328920316e+00	-1.0500352335e+00
 5.5176983672e-01	 1.7380476296e+00	-9.8248399091e-01
 5.3577470994e-01	 1.7430447429e+00	-9.1889602935e-01
 5.1977093854e-01	 1.7478837739e+00	-8.5876500319e-01
 5.0376071965e-01	 1.7525651637e+00	-8.0162065299e-01
 4.8774623181e-01	 1.7570893913e+00	-7.4703190893e-01
 4.7172963426e-01	 1.7614569730e+00	-6.9460967412e-01
 4.5651254928e-01	 1.7046357803e+00	-8.3830179240e-01
 4.4101264465e-01	 1.7087114146e+00	-7.7989860050e-01
 4.2551481859e-01	 1.7126365611e+00	-7.2416854859e-01
 4.1002110041e-01	 1.7164118237e+00	-6.7086308202e-01
 3.9453349807e-01	 1.7200378397e+00	-6.1975869178e-01
 3.7905399752e-01	 1.7235152794e+00	-5.7065833868e-01
 3.6358456216e-01	 1.7268448446e+00	-5.2339263986e-01
 3.4812713222e-01	 1.7300272689e+00	-4.7782082277e-01
 3.3268362429e-01	 1.7330633160e+00	-4.3383145288e-01
 3.1725593074e-01	 1.7359537798e+00	-3.9134294169e-01
 3.0184591929e-01	 1.7386994830e+00	-3.5030384256e-01
 4.5803425778e-01	 1.7103178996e+00	-8.2504865282e-01
 4.4248268680e-01	 1.7144071193e+00	-7.6587111142e-01
 4.2693320132e-01	 1.7183453496e+00	-7.0926318187e-01
 4.1138783741e-01	 1.7221331964e+00	-6.5501204948e-01
 3.9584860973e-01	 1.7257712992e+00	-6.0293118430e-01
 3.8031751085e-01	 1.7292603303e+00	-5.5286171059e-01
 3.6479651070e-01	 1.7326009941e+00	-5.0467353522e-01
 3.4928755599e-01	 1.7357940264e+00	-4.5826624038e-01
 3.3379256970e-01	 1.7388401937e+00	-4.1356974691e-01
 3.1831345051e-01	 1.7417402924e+00	-3.7054475536e-01
 3.0285207236e-01	 1.7444951480e+00	-3.2918297223e-01
 4.5955596628e-01	 1.7160000189e+00	-8.1171587226e-01
 4.4395272895e-01	 1.7201028241e+00	-7.5209592113e-01
 4.2835158404e-01	 1.7240541382e+00	-6.9504546831e-01
 4.1275457441e-01	 1.7278545692e+00	-6.4037104723e-01
 3.9716372139e-01	 1.7315047587e+00	-5.8790657203e-01
 3.8158102417e-01	 1.7350053812e+00	-5.3751467653e-01
 3.6600845924e-01	 1.7383571436e+00	-4.8908780826e-01
 3.5044797977e-01	 1.7415607840e+00	-4.4254908334e-01
 3.3490151512e-01	 1.7446170715e+00	-3.9785290849e-01
 3.1937097028e-01	 1.7475268050e+00	-3.5498537754e-01
 3.0385822542e-01	 1.7502908129e+00	-3.1396445019e-01
 4.6107767477e-01	 1.7216821381e+00	-7.9824027806e-01
 4.4542277110e-01	 1.7257985288e+00	-7.3853452000e-01
 4.2976996677e-01	 1.7297629267e+00	-6.8149810949e-01
 4.1412131141e-01	 1.7335759419e+00	-6.2694070358e-01
 3.9847883305e-01	 1.7372382181e+00	-5.7470029367e-01
 3.8284453750e-01	 1.7407504321e+00	-5.2464453807e-01
 3.6722040778e-01	 1.7441132931e+00	-4.7667184544e-01
 3.5160840354e-01	 1.7473275416e+00	-4.3071221500e-01
 3.3601046053e-01	 1.7503939492e+00	-3.8672784011e-01
 3.2042849005e-01	 1.7533133176e+00	-3.4471348263e-01
 3.0486437848e-01	 1.7560864778e+00	-3.0469662614e-01
 4.6259938327e-01	 1.7273642574e+00	-7.8455872406e-01
 4.4689281325e-01	 1.7314942335e+00	-7.2514816076e-01
 4.3118834950e-01	 1.7354717152e+00	-6.6860334900e-01
 4.1548804842e-01	 1.7392973147e+00	-6.1472100995e-01
 3.9979394471e-01	 1.7429716776e+00	-5.6332701138e-01
 3.8410805082e-01	 1.7464954831e+00	-5.1427771767e-01
 3.6843235632e-01	 1.7498694425e+00	-4.6746108624e-01
 3.5276882732e-01	 1.7530942991e+00	-4.2279751630e-01
 3.3711940594e-01	 1.7561708269e+00	-3.8024045665e-01
 3.2148600982e-01	 1.7590998302e+00	-3.3977678023e-01
 3.0587053155e-01	 1.7618821428e+00	-3.0142693346e-01
 4.6412109177e-01	 1.7330463767e+00	-7.7060808367e-01
 4.4836285540e-01	 1.7371899382e+00	-7.1189785627e-01
 4.3260673223e-01	 1.7411805038e+00	-6.5634297413e-01
 4.1685478542e-01	 1.7450186874e+00	-6.0371132592e-01
 4.0110905637e-01	 1.7487051371e+00	-5.5380061848e-01
 3.8537156415e-01	 1.7522405340e+00	-5.0643976829e-01
 3.6964430486e-01	 1.7556255920e+00	-4.6149003420e-01
 3.5392925109e-01	 1.7588610567e+00	-4.1884589773e-01
 3.3822835136e-01	 1.7619477046e+00	-3.7843569779e-01
 3.2254352959e-01	 1.7648863428e+00	-3.4021700275e-01
 3.0687668461e-01	 1.7676778077e+00	-3.0283086747e-01
 4.6564280027e-01	 1.7387284959e+00	-7.5632524298e-01
 4.4983289754e-01	 1.7428856429e+00	-6.9874437727e-01
 4.3402511496e-01	 1.7468892923e+00	-6.4469831762e-01
 4.1822152242e-01	 1.7507400601e+00	-5.9391038409e-01
 4.0242416803e-01	 1.7544385965e+00	-5.4613424692e-01
 3.8663507747e-01	 1.7579855849e+00	-5.0115538290e-01
 3.7085625340e-01	 1.7613817415e+00	-4.5879226779e-01
 3.5508967486e-01	 1.7646278142e+00	-4.1889731109e-01
 3.3933729677e-01	 1.7677245823e+00	-3.7996104566e-01
 3.2360104936e-01	 1.7706728554e+00	-3.4060164635e-01
 3.0788283768e-01	 1.7734734727e+00	-3.0113394515e-01
 4.6716450876e-01	 1.7444106152e+00	-7.4164709414e-01
 4.5130293969e-01	 1.7485813476e+00	-6.8564825031e-01
 4.3544349769e-01	 1.7525980808e+00	-6.3365025923e-01
 4.1958825942e-01	 1.7564614329e+00	-5.8531629492e-01
 4.0373927969e-01	 1.7601720560e+00	-5.4034027461e-01
 3.8789859080e-01	 1.7637306359e+00	-4.9844840371e-01
 3.7206820194e-01	 1.7671378910e+00	-4.5850822511e-01
 3.5625009864e-01	 1.7703945718e+00	-4.1806900019e-01
 3.4044624219e-01	 1.7735014601e+00	-3.7719462234e-01
 3.2465856913e-01	 1.7764593680e+00	-3.3612724095e-01
 3.0888899074e-01	 1.7792691376e+00	-2.9514165336e-01
 4.6868621726e-01	 1.7500927345e+00	-7.2651052881e-01
 4.5277298184e-01	 1.7542770523e+00	-6.7256975555e-01
 4.3686188042e-01	 1.7583068694e+00	-6.2317922747e-01
 4.2095499642e-01	 1.7621828056e+00	-5.7792655145e-01
 4.0505439135e-01	 1.7659055155e+00	-5.3621734260e-01
 3.8916210412e-01	 1.7694756868e+00	-4.9494164996e-01
 3.7328015048e-01	 1.7728940405e+00	-4.5323561971e-01
 3.5741052241e-01	 1.7761613294e+00	-4.1121038778e-01
 3.4155518760e-01	 1.7792783378e+00	-3.6901618880e-01
 3.2571608889e-01	 1.7822458806e+00	-3.2683887390e-01
 3.0989514381e-01	 1.7850648026e+00	-2.8489657197e-01
 4.7020792576e-01	 1.7557748537e+00	-7.1085243165e-01
 4.5424302399e-01	 1.7599727571e+00	-6.5946892467e-01
 4.3828026314e-01	 1.7640156579e+00	-6.1326520111e-01
 4.2232173342e-01	 1.7679041784e+00	-5.7024101748e-01
 4.0636950301e-01	 1.7716389749e+00	-5.2730511549e-01
 3.9042561745e-01	 1.7752207377e+00	-4.8434114830e-01
 3.7449209902e-01	 1.7786501900e+00	-4.4134744637e-01
 3.5857094619e-01	 1.7819280869e+00	-3.9836440363e-01
 3.4266413302e-01	 1.7850552155e+00	-3.5547093453e-01
 3.2677360866e-01	 1.7880323932e+00	-3.1278107772e-01
 3.1090129687e-01	 1.7908604675e+00	-2.7044074476e-01
 4.7172963426e-01	 1.7614569730e+00	-6.9460967412e-01
 4.5571306614e-01	 1.7656684618e+00	-6.4617327242e-01
 4.3969864587e-01	 1.7697244465e+00	-6.0024695984e-01
 4.2368847042e-01	 1.7736255511e+00	-5.5511128176e-01
 4.0768461467e-01	 1.7773724344e+00	-5.1058585920e-01
 3.9168913077e-01	 1.7809657887e+00	-4.6653893535e-01
 3.7570404756e-01	 1.7844063394e+00	-4.2288363945e-01
 3.5973136996e-01	 1.7876948445e+00	-3.7957440077e-01
 3.4377307843e-01	 1.7908320932e+00	-3.3660351214e-01
 3.2783112843e-01	 1.7938189058e+00	-2.9399784164e-01
 3.1190744993e-01	 1.7966561324e+00	-2.5181569045e-01
 3.0184591929e-01	 1.7386994830e+00	-3.5030384256e-01
 2.8645543250e-01	 1.7413012767e+00	-3.1225836995e-01
 2.7108628733e-01	 1.7437600397e+00	-2.7846126881e-01
 2.5574027475e-01	 1.7460766773e+00	-2.4848351180e-01
 2.4041915932e-01	 1.7482521211e+00	-2.2194110270e-01
 2.2512467882e-01	 1.7502873279e+00	-1.9849463570e-01
 2.0985854392e-01	 1.7521832789e+00	-1.7784867279e-01
 1.9462243783e-01	 1.7539409790e+00	-1.5975094986e-01
 1.7941801602e-01	 1.7555614563e+00	-1.4399142249e-01
 1.6424690593e-01	 1.7570457607e+00	-1.3040116242e-01
 1.4911070670e-01	 1.7583949637e+00	-1.1885111590e-01
 3.0285207236e-01	 1.7444951480e+00	-3.2918297223e-01
 2.8741028394e-01	 1.7471056143e+00	-2.9111446642e-01
 2.7198990829e-01	 1.7495725732e+00	-2.5761688320e-01
 2.5659274233e-01	 1.7518969329e+00	-2.2821188551e-01
 2.4122055651e-01	 1.7540796282e+00	-2.0246800141e-01
 2.2587509441e-01	 1.7561216190e+00	-1.8000019973e-01
 2.1055807240e-01	 1.7580238898e+00	-1.6046927868e-01
 1.9527117929e-01	 1.7597874490e+00	-1.4358107863e-01
 1.8001607607e-01	 1.7614133278e+00	-1.2908552986e-01
 1.6479439561e-01	 1.7629025799e+00	-1.1677554683e-01
 1.4960774239e-01	 1.7642562802e+00	-1.0648578007e-01
 3.0385822542e-01	 1.7502908129e+00	-3.1396445019e-01
 2.8836513538e-01	 1.7529099519e+00	-2.7649259438e-01
 2.7289352924e-01	 1.7553851066e+00	-2.4386953345e-01
 2.5744520991e-01	 1.7577171885e+00	-2.1556965683e-01
 2.4202195371e-01	 1.7599071353e+00	-1.9111602039e-01
 2.2662551001e-01	 1.7619559101e+00	-1.7007993654e-01
 2.1125760088e-01	 1.7638645007e+00	-1.5208037262e-01
 1.9591992075e-01	 1.7656339189e+00	-1.3664597678e-01
 1.8061413613e-01	 1.7672651993e+00	-1.2285474139e-01
 1.6534188530e-01	 1.7687593991e+00	-1.1056159048e-01
 1.5010477808e-01	 1.7701175968e+00	-9.9760299140e-02
 3.0486437848e-01	 1.7560864778e+00	-3.0469662614e-01
 2.8931998682e-01	 1.7587142895e+00	-2.6843957443e-01
 2.7379715020e-01	 1.7611976401e+00	-2.3726407131e-01
 2.5829767749e-01	 1.7635374441e+00	-2.1059924856e-01
 2.4282335091e-01	 1.7657346423e+00	-1.8775741240e-01
 2.2737592561e-01	 1.7677902012e+00	-1.6726161602e-01
 2.1195712936e-01	 1.7697051117e+00	-1.4874042278e-01
 1.9656866221e-01	 1.7714803888e+00	-1.3207080574e-01
 1.8121219618e-01	 1.7731170708e+00	-1.1716102653e-01
 1.6588937498e-01	 1.7746162183e+00	-1.0394854668e-01
 1.5060181377e-01	 1.7759789133e+00	-9.2398008951e-02
 3.0587053155e-01	 1.7618821428e+00	-3.0142693346e-01
 2.9027483826e-01	 1.7645186271e+00	-2.6700137335e-01
 2.7470077116e-01	 1.7670101736e+00	-2.3701190520e-01
 2.5915014508e-01	 1.7693576997e+00	-2.0993431154e-01
 2.4362474811e-01	 1.7715621494e+00	-1.8550118015e-01
 2.2812634120e-01	 1.7736244923e+00	-1.6348924467e-01
 2.1265665784e-01	 1.7755457226e+00	-1.4371161619e-01
 1.9721740367e-01	 1.7773268587e+00	-1.2601556727e-01
 1.8181025623e-01	 1.7789689424e+00	-1.1028039274e-01
 1.6643686467e-01	 1.7804730375e+00	-9.6415343683e-02
 1.5109884946e-01	 1.7818402299e+00	-8.4357631096e-02
 3.0687668461e-01	 1.7676778077e+00	-3.0283086747e-01
 2.9122968970e-01	 1.7703229647e+00	-2.6729853432e-01
 2.7560439212e-01	 1.7728227070e+00	-2.3532069339e-01
 2.6000261266e-01	 1.7751779553e+00	-2.0656404109e-01
 2.4442614530e-01	 1.7773896565e+00	-1.8073691147e-01
 2.2887675680e-01	 1.7794587834e+00	-1.5758691869e-01
 2.1335618632e-01	 1.7813863335e+00	-1.3689868331e-01
 1.9786614513e-01	 1.7831733287e+00	-1.1849163896e-01
 1.8240831629e-01	 1.7848208139e+00	-1.0221791578e-01
 1.6698435436e-01	 1.7863298567e+00	-8.7960296840e-02
 1.5159588514e-01	 1.7877015464e+00	-7.5630243717e-02
 3.0788283768e-01	 1.7734734727e+00	-3.0113394515e-01
 2.9218454115e-01	 1.7761273023e+00	-2.6378595628e-01
 2.7650801307e-01	 1.7786352405e+00	-2.3029695626e-01
 2.6085508024e-01	 1.7809982109e+00	-2.0030540485e-01
 2.4522754250e-01	 1.7832171636e+00	-1.7349192692e-01
 2.2962717239e-01	 1.7852930745e+00	-1.4957697638e-01
 2.1405571480e-01	 1.7872269444e+00	-1.2831858432e-01
 1.9851488659e-01	 1.7890197986e+00	-1.0951018790e-01
 1.8300637634e-01	 1.7906726854e+00	-9.2978535926e-02
 1.6753184404e-01	 1.7921866759e+00	-7.8581667391e-02
 1.5209292083e-01	 1.7935628630e+00	-6.6206958868e-02
 3.0888899074e-01	 1.7792691376e+00	-2.9514165336e-01
 2.9313939259e-01	 1.7819316399e+00	-2.5649773168e-01
 2.7741163403e-01	 1.7844477740e+00	-2.2197638477e-01
 2.6170754782e-01	 1.7868184665e+00	-1.9118988897e-01
 2.4602893970e-01	 1.7890446706e+00	-1.6379315674e-01
 2.3037758799e-01	 1.7911273655e+00	-1.3948142130e-01
 2.1475524328e-01	 1.7930675554e+00	-1.1798800611e-01
 1.9916362805e-01	 1.7948662685e+00	-9.9082175298e-02
 1.8360443639e-01	 1.7965245569e+00	-8.2567061110e-02
 1.6807933373e-01	 1.7980434951e+00	-6.8277664222e-02
 1.5258995652e-01	 1.7994241795e+00	-5.6078922743e-02
 3.0989514381e-01	 1.7850648026e+00	-2.8489657197e-01
 2.9409424403e-01	 1.7877359775e+00	-2.4547291141e-01
 2.7831525499e-01	 1.7902603074e+00	-2.1039419478e-01
 2.6256001541e-01	 1.7926387220e+00	-1.7924854819e-01
 2.4683033690e-01	 1.7948721777e+00	-1.5166714874e-01
 2.3112800359e-01	 1.7969616566e+00	-1.2732192918e-01
 2.1545477176e-01	 1.7989081663e+00	-1.0592336797e-01
 1.9981236951e-01	 1.8007127385e+00	-8.7218360939e-02
 1.8420249645e-01	 1.8023764284e+00	-7.0988170127e-02
 1.6862682342e-01	 1.8039003143e+00	-5.7046445600e-02
 1.5308699221e-01	 1.8052854961e+00	-4.5237315896e-02
 3.1090129687e-01	 1.7908604675e+00	-2.7044074476e-01
 2.9504909547e-01	 1.7935403151e+00	-2.3075004321e-01
 2.7921887595e-01	 1.7960728409e+00	-1.9558513671e-01
 2.6341248299e-01	 1.7984589776e+00	-1.6451201458e-01
 2.4763173409e-01	 1.8006996848e+00	-1.3714007613e-01
 2.3187841918e-01	 1.8027959477e+00	-1.1311985457e-01
 2.1615430024e-01	 1.8047487772e+00	-9.2140827161e-02
 2.0046111097e-01	 1.8065592084e+00	-7.3929307560e-02
 1.8480055650e-01	 1.8082283000e+00	-5.8246415698e-02
 1.6917431310e-01	 1.8097571335e+00	-4.4886120874e-02
 1.5358402790e-01	 1.8111468126e+00	-3.3673353456e-02
 3.1190744993e-01	 1.7966561324e+00	-2.5181569045e-01
 2.9600394691e-01	 1.7993446526e+00	-2.1236718187e-01
 2.8012249690e-01	 1.8018853744e+00	-1.7758350498e-01
 2.6426495057e-01	 1.8042792332e+00	-1.4701050614e-01
 2.4843313129e-01	 1.8065271918e+00	-1.2023774511e-01
 2.3262883478e-01	 1.8086302388e+00	-9.6896237497e-02
 2.1685382872e-01	 1.8105893882e+00	-7.6656284451e-02
 2.0110985242e-01	 1.8124056783e+00	-5.9225385162e-02
 1.8539861655e-01	 1.8140801715e+00	-4.4346227506e-02
 1.6972180279e-01	 1.8156139527e+00	-3.1794752146e-02
 1.5408106359e-01	 1.8170081292e+00	-2.1378285338e-02
 1.4911070670e-01	 1.7583949637e+00	-1.1885111590e-01
 1.3401098898e-01	 1.7596101574e+00	-1.0873506325e-01
 1.1894929466e-01	 1.7606924537e+00	-9.9653858281e-02
 1.0392713674e-01	 1.7616429835e+00	-9.1838421794e-02
 8.8945999118e-02	 1.7624628962e+00	-8.5545207079e-02
 7.4007336448e-02	 1.7631533584e+00	-8.1054280940e-02
 5.9112574035e-02	 1.7637155538e+00	-7.8667347553e-02
 4.4263107715e-02	 1.7641506819e+00	-7.8705725459e-02
 2.9460303771e-02	 1.7644599575e+00	-8.1508287697e-02
 1.4705498866e-02	 1.7646446100e+00	-8.7429374791e-02
 0.0000000000e+00	 1.7647058824e+00	-9.6836689990e-02
 1.4960774239e-01	 1.7642562802e+00	-1.0648578007e-01
 1.3445769227e-01	 1.7654755246e+00	-9.7458844355e-02
 1.1934579231e-01	 1.7665614285e+00	-8.9002692724e-02
 1.0427356053e-01	 1.7675151268e+00	-8.1464753883e-02
 8.9242485782e-02	 1.7683377725e+00	-7.5232922148e-02
 7.4254027569e-02	 1.7690305363e+00	-7.0701309651e-02
 5.9309615948e-02	 1.7695946057e+00	-6.8268391191e-02
 4.4410651407e-02	 1.7700311842e+00	-6.8335215758e-02
 2.9558504783e-02	 1.7703414907e+00	-7.1303681785e-02
 1.4754517195e-02	 1.7705267587e+00	-7.7574873302e-02
 0.0000000000e+00	 1.7705882353e+00	-8.7547454323e-02
 1.5010477808e-01	 1.7701175968e+00	-9.9760299140e-02
 1.3490439557e-01	 1.7713408918e+00	-8.9904853786e-02
 1.1974228996e-01	 1.7724304034e+00	-8.0697697657e-02
 1.0461998432e-01	 1.7733872701e+00	-7.2530947598e-02
 8.9538972446e-02	 1.7742126488e+00	-6.5804582948e-02
 7.4500718691e-02	 1.7749077142e+00	-6.0924517046e-02
 5.9506657862e-02	 1.7754736575e+00	-5.8300739200e-02
 4.4558195100e-02	 1.7759116865e+00	-5.8345523875e-02
 2.9656705796e-02	 1.7762230239e+00	-6.1471704031e-02
 1.4803535525e-02	 1.7764089074e+00	-6.8091005679e-02
 0.0000000000e+00	 1.7764705882e+00	-7.8612440887e-02
 1.5060181377e-01	 1.7759789133e+00	-9.2398008951e-02
 1.3535109887e-01	 1.7772062590e+00	-8.1905142122e-02
 1.2013878761e-01	 1.7782993782e+00	-7.2141715597e-02
 1.0496640811e-01	 1.7792594134e+00	-6.3512641571e-02
 8.9835459109e-02	 1.7800875252e+00	-5.6430567778e-02
 7.4747409812e-02	 1.7807848920e+00	-5.1313941583e-02
 5.9703699775e-02	 1.7813527094e+00	-4.8585145118e-02
 4.4705738792e-02	 1.7817921887e+00	-4.8668698107e-02
 2.9754906808e-02	 1.7821045571e+00	-5.1989525211e-02
 1.4852553855e-02	 1.7822910561e+00	-5.8971284817e-02
 0.0000000000e+00	 1.7823529412e+00	-7.0034756447e-02
 1.5109884946e-01	 1.7818402299e+00	-8.4357631096e-02
 1.3579780216e-01	 1.7830716262e+00	-7.3444075236e-02
 1.2053528526e-01	 1.7841683531e+00	-6.3314218331e-02
 1.0531283190e-01	 1.7851315567e+00	-5.4386185935e-02
 9.0131945773e-02	 1.7859624015e+00	-4.7085864545e-02
 7.4994100934e-02	 1.7866620699e+00	-4.1844954456e-02
 5.9900741689e-02	 1.7872317612e+00	-3.9099094145e-02
 4.4853282485e-02	 1.7876726910e+00	-3.9286052769e-02
 2.9853107821e-02	 1.7879860903e+00	-4.2843987427e-02
 1.4901572184e-02	 1.7881732048e+00	-5.0209762092e-02
 0.0000000000e+00	 1.7882352941e+00	-6.1817325223e-02
 1.5159588514e-01	 1.7877015464e+00	-7.5630243717e-02
 1.3624450546e-01	 1.7889369934e+00	-6.4506134126e-02
 1.2093178291e-01	 1.7900373279e+00	-5.4194851064e-02
 1.0565925569e-01	 1.7910036999e+00	-4.5128139488e-02
 9.0428432437e-02	 1.7918372778e+00	-3.7745682130e-02
 7.5240792055e-02	 1.7925392477e+00	-3.2493137315e-02
 6.0097783602e-02	 1.7931108131e+00	-2.9820248740e-02
 4.5000826177e-02	 1.7935531933e+00	-3.0179023666e-02
 2.9951308834e-02	 1.7938676235e+00	-3.4021976109e-02
 1.4950590514e-02	 1.7940553535e+00	-4.1800431800e-02
 0.0000000000e+00	 1.7941176471e+00	-5.3962891878e-02
 1.5209292083e-01	 1.7935628630e+00	-6.6206958868e-02
 1.3669120876e-01	 1.7948023606e+00	-5.5075913705e-02
 1.2132828056e-01	 1.7959063028e+00	-4.4763430169e-02
 1.0600567948e-01	 1.7968758432e+00	-3.5715266785e-02
 9.0724919101e-02	 1.7977121541e+00	-2.8385447196e-02
 7.5487483177e-02	 1.7984164256e+00	-2.3234279179e-02
 6.0294825516e-02	 1.7989898649e+00	-2.0726445983e-02
 4.5148369869e-02	 1.7994336956e+00	-2.1329166310e-02
 3.0049509846e-02	 1.7997491567e+00	-2.5510419434e-02
 1.4999608843e-02	 1.7999375022e+00	-3.3737232155e-02
 0.0000000000e+00	 1.8000000000e+00	-4.6474024454e-02
 1.5258995652e-01	 1.7994241795e+00	-5.6078922743e-02
 1.3713791205e-01	 1.8006677277e+00	-4.5138121626e-02
 1.2172477821e-01	 1.8017752776e+00	-3.4999940978e-02
 1.0635210327e-01	 1.8027479865e+00	-2.6124535278e-02
 9.1021405764e-02	 1.8035870304e+00	-1.8980801054e-02
 7.5734174298e-02	 1.8042936035e+00	-1.4044373389e-02
 6.0491867429e-02	 1.8048689167e+00	-1.1795695007e-02
 4.5295913562e-02	 1.8053141978e+00	-1.2718154166e-02
 3.0147710859e-02	 1.8056306899e+00	-1.7296287764e-02
 1.5048627173e-02	 1.8058196509e+00	-2.6014046268e-02
 0.0000000000e+00	 1.8058823529e+00	-3.9353117248e-02
 1.5308699221e-01	 1.8052854961e+00	-4.5237315896e-02
 1.3758461535e-01	 1.8065330949e+00	-3.4677577121e-02
 1.2212127585e-01	 1.8076442525e+00	-2.4884535623e-02
 1.0669852706e-01	 1.8086201298e+00	-1.6333112518e-02
 9.1317892428e-02	 1.8094619068e+00	-9.5075965964e-03
 7.5980865420e-02	 1.8101707813e+00	-4.8996146345e-03
 6.0688909343e-02	 1.8107479686e+00	-3.0061744642e-03
 4.5443457254e-02	 1.8111947001e+00	-4.3277769351e-03
 3.0245911871e-02	 1.8115122231e+00	-9.3665930947e-03
 1.5097645502e-02	 1.8117017996e+00	-1.8624703104e-02
 0.0000000000e+00	 1.8117647059e+00	-3.2602393629e-02
 1.5358402790e-01	 1.8111468126e+00	-3.3673353456e-02
 1.3803131865e-01	 1.8123984621e+00	-2.3679209871e-02
 1.2251777350e-01	 1.8135132273e+00	-1.4397530915e-02
 1.0704495085e-01	 1.8144922730e+00	-6.3183634099e-03
 9.1614379092e-02	 1.8153367831e+00	 5.8104718883e-05
 7.6227556541e-02	 1.8160479592e+00	 4.2236039705e-03
 6.0885951256e-02	 1.8166270204e+00	 5.6637699470e-03
 4.5591000947e-02	 1.8170752024e+00	 3.8600611273e-03
 3.0344112884e-02	 1.8173937563e+00	-1.7083885050e-03
 1.5146663832e-02	 1.8175839483e+00	-1.1562978428e-02
 0.0000000000e+00	 1.8176470588e+00	-2.6223908812e-02
 1.5408106359e-01	 1.8170081292e+00	-2.1378285338e-02
 1.3847802194e-01	 1.8182638293e+00	-1.2128058892e-02
 1.2291427115e-01	 1.8193822022e+00	-3.5194062660e-03
 1.0739137464e-01	 1.8203644163e+00	 3.9421524785e-03
 9.1910865755e-02	 1.8212116594e+00	 9.7400358180e-03
 7.6474247663e-02	 1.8219251371e+00	 1.3348693750e-02
 6.1082993169e-02	 1.8225060723e+00	 1.4235627913e-02
 4.5738544639e-02	 1.8229557046e+00	 1.1863342866e-02
 3.0442313896e-02	 1.8232752894e+00	 5.6912323692e-03
 1.5195682161e-02	 1.8234660970e+00	-4.8225957234e-03
 0.0000000000e+00	 1.8235294118e+00	-2.0219552563e-02
 1.8235294118e+00	 0.0000000000e+00	 3.0480435165e+00
 1.8234660970e+00	 1.5195682161e-02	 3.0460165118e+00
 1.8232752894e+00	 3.0442313896e-02	 3.0446198411e+00
 1.8229557046e+00	 4.5738544639e-02	 3.0433426804e+00
 1.8225060723e+00	 6.1082993169e-02	 3.0417151889e+00
 1.8219251371e+00	 7.6474247663e-02	 3.0393081610e+00
 1.8212116594e+00	 9.1910865755e-02	 3.0357326934e+00
 1.8203644163e+00	 1.0739137464e-01	 3.0306398716e+00
 1.8193822022e+00	 1.2291427115e-01	 3.0237204806e+00
 1.8182638293e+00	 1.3847802194e-01	 3.0147047432e+00
 1.8170081292e+00	 1.5408106359e-01	 3.0033620919e+00
 1.8294117647e+00	 0.0000000000e+00	 3.0335016891e+00
 1.8293482457e+00	 1.5244700491e-02	 3.0319593982e+00
 1.8291568226e+00	 3.0540514909e-02	 3.0309260193e+00
 1.8288362069e+00	 4.5886088331e-02	 3.0299053735e+00
 1.8283851241e+00	 6.1280035083e-02	 3.0284423693e+00
 1.8278023149e+00	 7.6720938784e-02	 3.0261226280e+00
 1.8270865357e+00	 9.2207352419e-02	 3.0225721260e+00
 1.8262365596e+00	 1.0773779843e-01	 3.0174568547e+00
 1.8252511770e+00	 1.2331076880e-01	 3.0104825050e+00
 1.8241291965e+00	 1.3892472524e-01	 3.0013941795e+00
 1.8228694457e+00	 1.5457809928e-01	 2.9899761378e+00
 1.8352941176e+00	 0.0000000000e+00	 3.0190086774e+00
 1.8352303944e+00	 1.5293718821e-02	 3.0180202669e+00
 1.8350383558e+00	 3.0638715922e-02	 3.0174018620e+00
 1.8347167092e+00	 4.6033632024e-02	 3.0166752775e+00
 1.8342641760e+00	 6.1477076996e-02	 3.0154035673e+00
 1.8336794928e+00	 7.6967629906e-02	 3.0131906220e+00
 1.8329614120e+00	 9.2503839083e-02	 3.0096807815e+00
 1.8321087029e+00	 1.0808422221e-01	 3.0045584667e+00
 1.8311201518e+00	 1.2370726645e-01	 2.9975478341e+00
 1.8299945637e+00	 1.3937142854e-01	 2.9884124582e+00
 1.8287307622e+00	 1.5507513497e-01	 2.9769550466e+00
 1.8411764706e+00	 0.0000000000e+00	 3.0045373991e+00
 1.8411125431e+00	 1.5342737150e-02	 3.0041739571e+00
 1.8409198890e+00	 3.0736916934e-02	 3.0040242857e+00
 1.8405972115e+00	 4.6181175716e-02	 3.0036315096e+00
 1.8401432278e+00	 6.1674118910e-02	 3.0025801920e+00
 1.8395566706e+00	 7.7214321027e-02	 3.0004959015e+00
 1.8388362884e+00	 9.2800325747e-02	 2.9970447931e+00
 1.8379808462e+00	 1.0843064600e-01	 2.9919332071e+00
 1.8369891267e+00	 1.2410376410e-01	 2.9849072915e+00
 1.8358599309e+00	 1.3981813183e-01	 2.9757526506e+00
 1.8345920788e+00	 1.5557217066e-01	 2.9642940268e+00
 1.8470588235e+00	 0.0000000000e+00	 2.9900611593e+00
 1.8469946918e+00	 1.5391755480e-02	 2.9903956887e+00
 1.8468014222e+00	 3.0835117947e-02	 2.9907705790e+00
 1.8464777137e+00	 4.6328719408e-02	 2.9907535485e+00
 1.8460222797e+00	 6.1871160823e-02	 2.9899540019e+00
 1.8454338485e+00	 7.7461012149e-02	 2.9880225622e+00
 1.8447111647e+00	 9.3096812410e-02	 2.9846506179e+00
 1.8438529894e+00	 1.0877706979e-01	 2.9795698858e+00
 1.8428581015e+00	 1.2450026175e-01	 2.9725519977e+00
 1.8417252981e+00	 1.4026483513e-01	 2.9634081126e+00
 1.8404533953e+00	 1.5606920635e-01	 2.9519885606e+00
 1.8529411765e+00	 0.0000000000e+00	 2.9755536445e+00
 1.8528768405e+00	 1.5440773809e-02	 2.9766610568e+00
 1.8526829554e+00	 3.0933318959e-02	 2.9776183968e+00
 1.8523582160e+00	 4.6476263101e-02	 2.9780212295e+00
 1.8519013315e+00	 6.2068202737e-02	 2.9775071006e+00
 1.8513110264e+00	 7.7707703270e-02	 2.9757550324e+00
 1.8505860410e+00	 9.3393299074e-02	 2.9724850325e+00
 1.8497251327e+00	 1.0912349358e-01	 2.9674576189e+00
 1.8487270764e+00	 1.2489675940e-01	 2.9604733668e+00
 1.8475906653e+00	 1.4071153843e-01	 2.9513724812e+00
 1.8463147119e+00	 1.5656624203e-01	 2.9400343998e+00
 1.8588235294e+00	 0.0000000000e+00	 2.9609889162e+00
 1.8587589892e+00	 1.5489792139e-02	 2.9629460252e+00
 1.8585644886e+00	 3.1031519972e-02	 2.9645457550e+00
 1.8582387183e+00	 4.6623806793e-02	 2.9654147386e+00
 1.8577803834e+00	 6.2265244650e-02	 2.9652219316e+00
 1.8571882042e+00	 7.7954394392e-02	 2.9636780682e+00
 1.8564609173e+00	 9.3689785738e-02	 2.9605351290e+00
 1.8555972760e+00	 1.0946991737e-01	 2.9555858252e+00
 1.8545960512e+00	 1.2529325705e-01	 2.9486631028e+00
 1.8534560325e+00	 1.4115824172e-01	 2.9396396713e+00
 1.8521760284e+00	 1.5706327772e-01	 2.9284275631e+00
 1.8647058824e+00	 0.0000000000e+00	 2.9463414056e+00
 1.8646411379e+00	 1.5538810468e-02	 2.9492269217e+00
 1.8644460218e+00	 3.1129720984e-02	 2.9515310252e+00
 1.8641192206e+00	 4.6771350486e-02	 2.9529146085e+00
 1.8636594352e+00	 6.2462286564e-02	 2.9530812741e+00
 1.8630653821e+00	 7.8201085513e-02	 2.9517767494e+00
 1.8623357936e+00	 9.3986272401e-02	 2.9487883105e+00
 1.8614694193e+00	 1.0981634116e-01	 2.9439442220e+00
 1.8604650261e+00	 1.2568975469e-01	 2.9371131956e+00
 1.8593213997e+00	 1.4160494502e-01	 2.9282038719e+00
 1.8580373450e+00	 1.5756031341e-01	 2.9171643320e+00
 1.8705882353e+00	 0.0000000000e+00	 2.9315859071e+00
 1.8705232866e+00	 1.5587828798e-02	 2.9354804318e+00
 1.8703275550e+00	 3.1227921997e-02	 2.9385529298e+00
 1.8699997228e+00	 4.6918894178e-02	 2.9405017129e+00
 1.8695384871e+00	 6.2659328477e-02	 2.9410682378e+00
 1.8689425599e+00	 7.8447776635e-02	 2.9400364750e+00
 1.8682106700e+00	 9.4282759065e-02	 2.9372322874e+00
 1.8673415626e+00	 1.1016276495e-01	 2.9325228215e+00
 1.8663340009e+00	 1.2608625234e-01	 2.9258159179e+00
 1.8651867668e+00	 1.4205164832e-01	 2.9170595428e+00
 1.8638986615e+00	 1.5805734910e-01	 2.9062412483e+00
 1.8764705882e+00	 0.0000000000e+00	 2.9166975732e+00
 1.8764054353e+00	 1.5636847127e-02	 2.9216835938e+00
 1.8762090882e+00	 3.1326123010e-02	 2.9255905363e+00
 1.8758802251e+00	 4.7066437870e-02	 2.9281572623e+00
 1.8754175389e+00	 6.2856370391e-02	 2.9291662588e+00
 1.8748197378e+00	 7.8694467756e-02	 2.9284429593e+00
 1.8740855463e+00	 9.4579245729e-02	 2.9258550733e+00
 1.8732137058e+00	 1.1050918874e-01	 2.9213119270e+00
 1.8722029758e+00	 1.2648274999e-01	 2.9147638215e+00
 1.8710521340e+00	 1.4249835161e-01	 2.9062014115e+00
 1.8697599781e+00	 1.5855438479e-01	 2.8956551105e+00
 1.8823529412e+00	 0.0000000000e+00	 2.9016519084e+00
 1.8822875840e+00	 1.5685865457e-02	 2.9078137932e+00
 1.8820906214e+00	 3.1424324022e-02	 2.9126232527e+00
 1.8817607274e+00	 4.7213981563e-02	 2.9158627988e+00
 1.8812965907e+00	 6.3053412304e-02	 2.9173590951e+00
 1.8806969157e+00	 7.8941158878e-02	 2.9169822275e+00
 1.8799604226e+00	 9.4875732393e-02	 2.9146449813e+00
 1.8790858491e+00	 1.1085561253e-01	 2.9103021292e+00
 1.8780719506e+00	 1.2687924764e-01	 2.9039497336e+00
 1.8769175012e+00	 1.4294505491e-01	 2.8956244695e+00
 1.8756212946e+00	 1.5905142048e-01	 2.8854029708e+00
 1.8170081292e+00	 1.5408106359e-01	 3.0033620919e+00
 1.8156139527e+00	 1.6972180279e-01	 2.9889810294e+00
 1.8140801715e+00	 1.8539861655e-01	 2.9710087758e+00
 1.8124056783e+00	 2.0110985242e-01	 2.9495068395e+00
 1.8105893882e+00	 2.1685382872e-01	 2.9245692931e+00
 1.8086302388e+00	 2.3262883478e-01	 2.8963223401e+00
 1.8065271918e+00	 2.4843313129e-01	 2.8649239430e+00
 1.8042792332e+00	 2.6426495057e-01	 2.8305635199e+00
 1.8018853744e+00	 2.8012249690e-01	 2.7934617148e+00
 1.7993446526e+00	 2.9600394691e-01	 2.7538702504e+00
 1.7966561324e+00	 3.1190744993e-01	 2.7120718691e+00
 1.8228694457e+00	 1.5457809928e-01	 2.9899761378e+00
 1.8214707719e+00	 1.7026929248e-01	 2.9754838596e+00
 1.8199320430e+00	 1.8599667661e-01	 2.9573287441e+00
 1.8182521483e+00	 2.0175859388e-01	 2.9355821249e+00
 1.8164299991e+00	 2.1755335720e-01	 2.9103468656e+00
 1.8144645299e+00	 2.3337925037e-01	 2.8817568830e+00
 1.8123546989e+00	 2.4923452849e-01	 2.8499767342e+00
 1.8100994888e+00	 2.6511741815e-01	 2.8152012707e+00
 1.8076979078e+00	 2.8102611786e-01	 2.7776553697e+00
 1.8051489902e+00	 2.9695879835e-01	 2.7375937472e+00
 1.8024517974e+00	 3.1291360300e-01	 2.6953008611e+00
 1.8287307622e+00	 1.5507513497e-01	 2.9769550466e+00
 1.8273275911e+00	 1.7081678216e-01	 2.9623965395e+00
 1.8257839145e+00	 1.8659473666e-01	 2.9441080783e+00
 1.8240986182e+00	 2.0240733534e-01	 2.9221700401e+00
 1.8222706100e+00	 2.1825288567e-01	 2.8966932439e+00
 1.8202988210e+00	 2.3412966597e-01	 2.8678184313e+00
 1.8181822060e+00	 2.5003592569e-01	 2.8357158107e+00
 1.8159197444e+00	 2.6596988574e-01	 2.8005846707e+00
 1.8135104413e+00	 2.8192973882e-01	 2.7626530711e+00
 1.8109533278e+00	 2.9791364980e-01	 2.7221776164e+00
 1.8082474623e+00	 3.1391975606e-01	 2.6794433217e+00
 1.8345920788e+00	 1.5557217066e-01	 2.9642940268e+00
 1.8331844103e+00	 1.7136427185e-01	 2.9497161853e+00
 1.8316357860e+00	 1.8719279671e-01	 2.9313454794e+00
 1.8299450881e+00	 2.0305607680e-01	 2.9092705552e+00
 1.8281112210e+00	 2.1895241415e-01	 2.8836093596e+00
 1.8261331121e+00	 2.3488008157e-01	 2.8545085775e+00
 1.8240097130e+00	 2.5083732289e-01	 2.8221431343e+00
 1.8217400000e+00	 2.6682235332e-01	 2.7867157679e+00
 1.8193229747e+00	 2.8283335978e-01	 2.7484566787e+00
 1.8167576654e+00	 2.9886850124e-01	 2.7076232651e+00
 1.8140431273e+00	 3.1492590913e-01	 2.6644999504e+00
 1.8404533953e+00	 1.5606920635e-01	 2.9519885606e+00
 1.8390412295e+00	 1.7191176154e-01	 2.9374401776e+00
 1.8374876576e+00	 1.8779085677e-01	 2.9190399077e+00
 1.8357915580e+00	 2.0370481826e-01	 2.8968838984e+00
 1.8339518319e+00	 2.1965194263e-01	 2.8710964039e+00
 1.8319674032e+00	 2.3563049716e-01	 2.8418291795e+00
 1.8298372201e+00	 2.5163872008e-01	 2.8092609412e+00
 1.8275602556e+00	 2.6767482090e-01	 2.7735968964e+00
 1.8251355082e+00	 2.8373698074e-01	 2.7350683539e+00
 1.8225620030e+00	 2.9982335268e-01	 2.6939324199e+00
 1.8198387922e+00	 3.1593206219e-01	 2.6504717876e+00
 1.8463147119e+00	 1.5656624203e-01	 2.9400343998e+00
 1.8448980487e+00	 1.7245925122e-01	 2.9255661580e+00
 1.8433395291e+00	 1.8838891682e-01	 2.9071905794e+00
 1.8416380280e+00	 2.0435355972e-01	 2.8850105521e+00
 1.8397924428e+00	 2.2035147111e-01	 2.8591558246e+00
 1.8378016943e+00	 2.3638091276e-01	 2.8297823569e+00
 1.8356647272e+00	 2.5244011728e-01	 2.7970717374e+00
 1.8333805112e+00	 2.6852728848e-01	 2.7612306721e+00
 1.8309480417e+00	 2.8464060169e-01	 2.7224905544e+00
 1.8283663406e+00	 3.0077820412e-01	 2.6811071219e+00
 1.8256344572e+00	 3.1693821526e-01	 2.6373602082e+00
 1.8521760284e+00	 1.5706327772e-01	 2.9284275631e+00
 1.8507548679e+00	 1.7300674091e-01	 2.9140920263e+00
 1.8491914006e+00	 1.8898697687e-01	 2.8957969635e+00
 1.8474844979e+00	 2.0500230118e-01	 2.8736512498e+00
 1.8456330537e+00	 2.2105099959e-01	 2.8477893220e+00
 1.8436359854e+00	 2.3713132836e-01	 2.8183704869e+00
 1.8414922343e+00	 2.5324151448e-01	 2.7855782948e+00
 1.8392007668e+00	 2.6937975607e-01	 2.7496199879e+00
 1.8367605751e+00	 2.8554422265e-01	 2.7107260292e+00
 1.8341706782e+00	 3.0173305556e-01	 2.6691497203e+00
 1.8314301221e+00	 3.1794436832e-01	 2.6251669155e+00
 1.8580373450e+00	 1.5756031341e-01	 2.9171643320e+00
 1.8566116871e+00	 1.7355423059e-01	 2.9030159364e+00
 1.8550432721e+00	 1.8958503693e-01	 2.8848587784e+00
 1.8533309678e+00	 2.0565104264e-01	 2.8628069726e+00
 1.8514736647e+00	 2.2175052807e-01	 2.8369988458e+00
 1.8494702765e+00	 2.3788174395e-01	 2.8075962005e+00
 1.8473197413e+00	 2.5404291168e-01	 2.7747836471e+00
 1.8450210224e+00	 2.7023222365e-01	 2.7387680093e+00
 1.8425731086e+00	 2.8644784361e-01	 2.6997778135e+00
 1.8399750158e+00	 3.0268790700e-01	 2.6580628670e+00
 1.8372257870e+00	 3.1895052139e-01	 2.6138939350e+00
 1.8638986615e+00	 1.5805734910e-01	 2.9062412483e+00
 1.8624685063e+00	 1.7410172028e-01	 2.8923362940e+00
 1.8608951436e+00	 1.9018309698e-01	 2.8743759888e+00
 1.8591774378e+00	 2.0629978410e-01	 2.8524789463e+00
 1.8573142756e+00	 2.2245005655e-01	 2.8267865912e+00
 1.8553045676e+00	 2.3863215955e-01	 2.7974623792e+00
 1.8531472484e+00	 2.5484430887e-01	 2.7646910856e+00
 1.8508412780e+00	 2.7108469123e-01	 2.7286781698e+00
 1.8483856421e+00	 2.8735146457e-01	 2.6896492239e+00
 1.8457793534e+00	 3.0364275845e-01	 2.6478495116e+00
 1.8430214520e+00	 3.1995667445e-01	 2.6035436079e+00
 1.8697599781e+00	 1.5855438479e-01	 2.8956551105e+00
 1.8683253255e+00	 1.7464920997e-01	 2.8820517531e+00
 1.8667470152e+00	 1.9078115703e-01	 2.8643488026e+00
 1.8650239077e+00	 2.0694852556e-01	 2.8426686376e+00
 1.8631548865e+00	 2.2314958503e-01	 2.8171549961e+00
 1.8611388587e+00	 2.3938257514e-01	 2.7879721508e+00
 1.8589747555e+00	 2.5564570607e-01	 2.7553041554e+00
 1.8566615336e+00	 2.7193715881e-01	 2.7193541668e+00
 1.8541981755e+00	 2.8825508552e-01	 2.6803438535e+00
 1.8515836909e+00	 3.0459760989e-01	 2.6385128952e+00
 1.8488171169e+00	 3.2096282751e-01	 2.5941185853e+00
 1.8756212946e+00	 1.5905142048e-01	 2.8854029708e+00
 1.8741821447e+00	 1.7519669965e-01	 2.8721612128e+00
 1.8725988867e+00	 1.9137921709e-01	 2.8547776675e+00
 1.8708703776e+00	 2.0759726702e-01	 2.8333777512e+00
 1.8689954975e+00	 2.2384911351e-01	 2.8081067370e+00
 1.8669731498e+00	 2.4013299074e-01	 2.7791288862e+00
 1.8648022625e+00	 2.5644710327e-01	 2.7466266513e+00
 1.8624817891e+00	 2.7278962640e-01	 2.7107999568e+00
 1.8600107090e+00	 2.8915870648e-01	 2.6718655667e+00
 1.8573880285e+00	 3.0555246133e-01	 2.6300565455e+00
 1.8546127819e+00	 3.2196898058e-01	 2.5856218221e+00
 1.7966561324e+00	 3.1190744993e-01	 2.7120718691e+00
 1.7938189058e+00	 3.2783112843e-01	 2.6673501764e+00
 1.7908320932e+00	 3.4377307843e-01	 2.6187817724e+00
 1.7876948445e+00	 3.5973136996e-01	 2.5663907788e+00
 1.7844063394e+00	 3.7570404756e-01	 2.5102402494e+00
 1.7809657887e+00	 3.9168913077e-01	 2.4504332632e+00
 1.7773724344e+00	 4.0768461467e-01	 2.3871141546e+00
 1.7736255511e+00	 4.2368847042e-01	 2.3204698892e+00
 1.7697244465e+00	 4.3969864587e-01	 2.2507315924e+00
 1.7656684618e+00	 4.5571306614e-01	 2.1781762372e+00
 1.7614569730e+00	 4.7172963426e-01	 2.1044249712e+00
 1.8024517974e+00	 3.1291360300e-01	 2.6953008611e+00
 1.7996054184e+00	 3.2888864820e-01	 2.6501183728e+00
 1.7966089709e+00	 3.4488202384e-01	 2.6012272375e+00
 1.7934616021e+00	 3.6089179374e-01	 2.5487205721e+00
 1.7901624889e+00	 3.7691599610e-01	 2.4927287388e+00
 1.7867108396e+00	 3.9295264410e-01	 2.4334203115e+00
 1.7831058939e+00	 4.0899972633e-01	 2.3710031798e+00
 1.7793469239e+00	 4.2505520743e-01	 2.3057257995e+00
 1.7754332350e+00	 4.4111702860e-01	 2.2378785964e+00
 1.7713641665e+00	 4.5718310829e-01	 2.1677955310e+00
 1.7671390923e+00	 4.7325134275e-01	 2.0958558321e+00
 1.8082474623e+00	 3.1391975606e-01	 2.6794433217e+00
 1.8053919310e+00	 3.2994616797e-01	 2.6338432856e+00
 1.8023858487e+00	 3.4599096926e-01	 2.5846505887e+00
 1.7992283596e+00	 3.6205221751e-01	 2.5320177742e+00
 1.7959186384e+00	 3.7812794464e-01	 2.4761330166e+00
 1.7924558905e+00	 3.9421615742e-01	 2.4172209750e+00
 1.7888393533e+00	 4.1031483799e-01	 2.3555437835e+00
 1.7850682966e+00	 4.2642194443e-01	 2.2914021905e+00
 1.7811420235e+00	 4.4253541133e-01	 2.2251368509e+00
 1.7770598712e+00	 4.5865315044e-01	 2.1571297820e+00
 1.7728212115e+00	 4.7477305125e-01	 2.0878059895e+00
 1.8140431273e+00	 3.1492590913e-01	 2.6644999504e+00
 1.8111784436e+00	 3.3100368774e-01	 2.6185256744e+00
 1.8081627264e+00	 3.4709991467e-01	 2.5690544933e+00
 1.8049951172e+00	 3.6321264128e-01	 2.5162889039e+00
 1.8016747879e+00	 3.7933989318e-01	 2.4604654936e+00
 1.7982009415e+00	 3.9547967075e-01	 2.4018556917e+00
 1.7945728128e+00	 4.1162994965e-01	 2.3407666621e+00
 1.7907896694e+00	 4.2778868143e-01	 2.2775423423e+00
 1.7868508121e+00	 4.4395379406e-01	 2.2125646399e+00
 1.7827555759e+00	 4.6012319259e-01	 2.1462547917e+00
 1.7785033308e+00	 4.7629475975e-01	 2.0790748963e+00
 1.8198387922e+00	 3.1593206219e-01	 2.6504717876e+00
 1.8169649562e+00	 3.3206120751e-01	 2.6041666508e+00
 1.8139396041e+00	 3.4820886009e-01	 2.5544419579e+00
 1.8107618747e+00	 3.6437306506e-01	 2.5015407823e+00
 1.8074309374e+00	 3.8055184173e-01	 2.4457388185e+00
 1.8039459924e+00	 3.9674318407e-01	 2.3873450467e+00
 1.8003062723e+00	 4.1294506131e-01	 2.3267025391e+00
 1.7965110421e+00	 4.2915541843e-01	 2.2641894135e+00
 1.7925596006e+00	 4.4537217679e-01	 2.2002199460e+00
 1.7884512806e+00	 4.6159323474e-01	 2.1352458482e+00
 1.7841854501e+00	 4.7781646825e-01	 2.0697577198e+00
 1.8256344572e+00	 3.1693821526e-01	 2.6373602082e+00
 1.8227514688e+00	 3.3311872728e-01	 2.5907676716e+00
 1.8197164818e+00	 3.4931780550e-01	 2.5408163219e+00
 1.8165286323e+00	 3.6553348883e-01	 2.4877805253e+00
 1.8131870868e+00	 3.8176379027e-01	 2.4319658720e+00
 1.8096910433e+00	 3.9800669740e-01	 2.3737097670e+00
 1.8060397317e+00	 4.1426017297e-01	 2.3133821622e+00
 1.8022324149e+00	 4.3052215543e-01	 2.2513864392e+00
 1.7982683891e+00	 4.4679055952e-01	 2.1881604506e+00
 1.7941469854e+00	 4.6306327688e-01	 2.1241777298e+00
 1.7898675693e+00	 4.7933817674e-01	 2.0599488758e+00
 1.8314301221e+00	 3.1794436832e-01	 2.6251669155e+00
 1.8285379814e+00	 3.3417624705e-01	 2.5783305320e+00
 1.8254933595e+00	 3.5042675092e-01	 2.5281812497e+00
 1.8222953899e+00	 3.6669391261e-01	 2.4750155368e+00
 1.8189432363e+00	 3.8297573881e-01	 2.4191597604e+00
 1.8154360943e+00	 3.9927021072e-01	 2.3609707159e+00
 1.8117731912e+00	 4.1557528463e-01	 2.3008362987e+00
 1.8079537876e+00	 4.3188889243e-01	 2.2391763288e+00
 1.8039771777e+00	 4.4820894224e-01	 2.1764435347e+00
 1.7998426901e+00	 4.6453331903e-01	 2.1131247079e+00
 1.7955496886e+00	 4.8085988524e-01	 2.0497420351e+00
 1.8372257870e+00	 3.1895052139e-01	 2.6138939350e+00
 1.8343244940e+00	 3.3523376682e-01	 2.5668573590e+00
 1.8312702373e+00	 3.5153569633e-01	 2.5165407245e+00
 1.8280621474e+00	 3.6785433638e-01	 2.4632535025e+00
 1.8246993858e+00	 3.8418768735e-01	 2.4073338096e+00
 1.8211811452e+00	 4.0053372405e-01	 2.3491488882e+00
 1.8175066507e+00	 4.1689039629e-01	 2.2890957321e+00
 1.8136751603e+00	 4.3325562943e-01	 2.2276018643e+00
 1.8096859662e+00	 4.4962732497e-01	 2.1651262783e+00
 1.8055383948e+00	 4.6600336118e-01	 2.1021605497e+00
 1.8012318079e+00	 4.8238159374e-01	 2.0392301296e+00
 1.8430214520e+00	 3.1995667445e-01	 2.6035436079e+00
 1.8401110066e+00	 3.3629128659e-01	 2.5563506045e+00
 1.8370471150e+00	 3.5264464174e-01	 2.5058990411e+00
 1.8338289050e+00	 3.6901476015e-01	 2.4525023829e+00
 1.8304555353e+00	 3.8539963589e-01	 2.3965015586e+00
 1.8269261961e+00	 4.0179723738e-01	 2.3382654050e+00
 1.8232401101e+00	 4.1820550795e-01	 2.2781912578e+00
 1.8193965331e+00	 4.3462236643e-01	 2.2167056980e+00
 1.8153947548e+00	 4.5104570770e-01	 2.1542654611e+00
 1.8112340995e+00	 4.6747340333e-01	 2.0913585214e+00
 1.8069139271e+00	 4.8390330224e-01	 2.0285053581e+00
 1.8488171169e+00	 3.2096282751e-01	 2.5941185853e+00
 1.8458975192e+00	 3.3734880636e-01	 2.5468130388e+00
 1.8428239927e+00	 3.5375358716e-01	 2.4962607991e+00
 1.8395956626e+00	 3.7017518393e-01	 2.4427704065e+00
 1.8362116848e+00	 3.8661158443e-01	 2.3866767538e+00
 1.8326712470e+00	 4.0306075070e-01	 2.3283415080e+00
 1.8289735696e+00	 4.1952061961e-01	 2.2681536798e+00
 1.8251179058e+00	 4.3598910344e-01	 2.2065303502e+00
 1.8211035433e+00	 4.5246409043e-01	 2.1439175623e+00
 1.8169298042e+00	 4.6894344548e-01	 2.0807913903e+00
 1.8125960464e+00	 4.8542501073e-01	 2.0176591920e+00
 1.8546127819e+00	 3.2196898058e-01	 2.5856218221e+00
 1.8516840318e+00	 3.3840632612e-01	 2.5382477441e+00
 1.8486008704e+00	 3.5486253257e-01	 2.4876308963e+00
 1.8453624201e+00	 3.7133560770e-01	 2.4340660636e+00
 1.8419678343e+00	 3.8782353297e-01	 2.3778733428e+00
 1.8384162980e+00	 4.0432426403e-01	 2.3193985550e+00
 1.8347070290e+00	 4.2083573127e-01	 2.2590138062e+00
 1.8308392786e+00	 4.3735584044e-01	 2.1971182070e+00
 1.8268123318e+00	 4.5388247316e-01	 2.1341387604e+00
 1.8226255089e+00	 4.7041348763e-01	 2.0705314273e+00
 1.8182781657e+00	 4.8694671923e-01	 2.0067823806e+00
 1.7614569730e+00	 4.7172963426e-01	 2.1044249712e+00
 1.7570893913e+00	 4.8774623181e-01	 2.0294400158e+00
 1.7525651637e+00	 5.0376071965e-01	 1.9506247588e+00
 1.7478837739e+00	 5.1977093854e-01	 1.8688789476e+00
 1.7430447429e+00	 5.3577470994e-01	 1.7851390804e+00
 1.7380476296e+00	 5.5176983672e-01	 1.7003794127e+00
 1.7328920316e+00	 5.6775410393e-01	 1.6156134199e+00
 1.7275775854e+00	 5.8372527962e-01	 1.5318957243e+00
 1.7221039676e+00	 5.9968111563e-01	 1.4492480812e+00
 1.7164708950e+00	 6.1561934847e-01	 1.3657662444e+00
 1.7106781255e+00	 6.3153770011e-01	 1.2822044612e+00
 1.7671390923e+00	 4.7325134275e-01	 2.0958558321e+00
 1.7627574216e+00	 4.8931960676e-01	 2.0195063459e+00
 1.7582185997e+00	 5.0538575423e-01	 1.9394052578e+00
 1.7535221086e+00	 5.2144761899e-01	 1.8570539529e+00
 1.7486674679e+00	 5.3750301546e-01	 1.7732643821e+00
 1.7436542349e+00	 5.5354973942e-01	 1.6888856371e+00
 1.7384820059e+00	 5.6958556878e-01	 1.6048056240e+00
 1.7331504163e+00	 5.8560826439e-01	 1.5219532200e+00
 1.7276591417e+00	 6.0161557084e-01	 1.4399562070e+00
 1.7220078979e+00	 6.1760521733e-01	 1.3572649190e+00
 1.7161964420e+00	 6.3357491850e-01	 1.2746328233e+00
 1.7728212115e+00	 4.7477305125e-01	 2.0878059895e+00
 1.7684254519e+00	 4.9089298170e-01	 2.0142767511e+00
 1.7638720357e+00	 5.0701078881e-01	 1.9337328739e+00
 1.7591604434e+00	 5.2312429944e-01	 1.8499408642e+00
 1.7542901929e+00	 5.3923132098e-01	 1.7652632004e+00
 1.7492608401e+00	 5.5532964212e-01	 1.6804460311e+00
 1.7440719802e+00	 5.7141703363e-01	 1.5962735383e+00
 1.7387232472e+00	 5.8749124916e-01	 1.5135702911e+00
 1.7332143157e+00	 6.0355002605e-01	 1.4316042447e+00
 1.7275449008e+00	 6.1959108620e-01	 1.3492532046e+00
 1.7217147585e+00	 6.3561213689e-01	 1.2672245135e+00
 1.7785033308e+00	 4.7629475975e-01	 2.0790748963e+00
 1.7740934822e+00	 4.9246635664e-01	 2.0082660301e+00
 1.7695254717e+00	 5.0863582339e-01	 1.9309778103e+00
 1.7647987781e+00	 5.2480097989e-01	 1.8476218334e+00
 1.7599129178e+00	 5.4095962649e-01	 1.7612251318e+00
 1.7548674454e+00	 5.5710954482e-01	 1.6751518799e+00
 1.7496619544e+00	 5.7324849848e-01	 1.5901051300e+00
 1.7442960781e+00	 5.8937423393e-01	 1.5068184961e+00
 1.7387694898e+00	 6.0548448127e-01	 1.4242703103e+00
 1.7330819037e+00	 6.2157695506e-01	 1.3417872412e+00
 1.7272330751e+00	 6.3764935527e-01	 1.2600075468e+00
 1.7841854501e+00	 4.7781646825e-01	 2.0697577198e+00
 1.7797615125e+00	 4.9403973158e-01	 2.0011339194e+00
 1.7751789077e+00	 5.1026085797e-01	 1.9265920338e+00
 1.7704371129e+00	 5.2647766033e-01	 1.8464658162e+00
 1.7655356428e+00	 5.4268793201e-01	 1.7611637528e+00
 1.7604740507e+00	 5.5888944752e-01	 1.6730944828e+00
 1.7552519287e+00	 5.7507996333e-01	 1.5863885685e+00
 1.7498689091e+00	 5.9125721871e-01	 1.5017518708e+00
 1.7443246639e+00	 6.0741893648e-01	 1.4180324667e+00
 1.7386189065e+00	 6.2356282393e-01	 1.3349233662e+00
 1.7327513916e+00	 6.3968657366e-01	 1.2530104619e+00
 1.7898675693e+00	 4.7933817674e-01	 2.0599488758e+00
 1.7854295427e+00	 4.9561310652e-01	 1.9929937908e+00
 1.7808323437e+00	 5.1188589255e-01	 1.9206226755e+00
 1.7760754477e+00	 5.2815434078e-01	 1.8431134616e+00
 1.7711583678e+00	 5.4441623752e-01	 1.7608174948e+00
 1.7660806559e+00	 5.6066935021e-01	 1.6741628652e+00
 1.7608419030e+00	 5.7691142818e-01	 1.5852122650e+00
 1.7554417400e+00	 5.9314020348e-01	 1.4984603799e+00
 1.7498798380e+00	 6.0935339169e-01	 1.4129687204e+00
 1.7441559094e+00	 6.2554869280e-01	 1.3287181055e+00
 1.7382697081e+00	 6.4172379205e-01	 1.2462623053e+00
 1.7955496886e+00	 4.8085988524e-01	 2.0497420351e+00
 1.7910975730e+00	 4.9718648146e-01	 1.9839580417e+00
 1.7864857797e+00	 5.1351092713e-01	 1.9131968014e+00
 1.7817137824e+00	 5.2983102123e-01	 1.8377022294e+00
 1.7767810928e+00	 5.4614454304e-01	 1.7577900790e+00
 1.7716872612e+00	 5.6244925291e-01	 1.6738512950e+00
 1.7664318773e+00	 5.7874289304e-01	 1.5863555779e+00
 1.7610145709e+00	 5.9502318825e-01	 1.4970374760e+00
 1.7554350121e+00	 6.1128784690e-01	 1.4091570169e+00
 1.7496929123e+00	 6.2753456166e-01	 1.3232281642e+00
 1.7437880247e+00	 6.4376101044e-01	 1.2397926163e+00
 1.8012318079e+00	 4.8238159374e-01	 2.0392301296e+00
 1.7967656033e+00	 4.9875985640e-01	 1.9741381047e+00
 1.7921392158e+00	 5.1513596171e-01	 1.9044403375e+00
 1.7873521172e+00	 5.3150770167e-01	 1.8303683197e+00
 1.7824038177e+00	 5.4787284856e-01	 1.7522235475e+00
 1.7772938664e+00	 5.6422915561e-01	 1.6703808661e+00
 1.7720218516e+00	 5.8057435789e-01	 1.5852920280e+00
 1.7665874018e+00	 5.9690617303e-01	 1.4972201562e+00
 1.7609901862e+00	 6.1322230211e-01	 1.4066752377e+00
 1.7552299152e+00	 6.2952043053e-01	 1.3185104177e+00
 1.7493063412e+00	 6.4579822882e-01	 1.2336314107e+00
 1.8069139271e+00	 4.8390330224e-01	 2.0285053581e+00
 1.8024336336e+00	 5.0033323134e-01	 1.9636444556e+00
 1.7977926518e+00	 5.1676099629e-01	 1.8944780811e+00
 1.7929904519e+00	 5.3318438212e-01	 1.8212466845e+00
 1.7880265427e+00	 5.4960115407e-01	 1.7442586317e+00
 1.7829004717e+00	 5.6600905831e-01	 1.6638935061e+00
 1.7776118259e+00	 5.8240582274e-01	 1.5806056273e+00
 1.7721602327e+00	 5.9878915780e-01	 1.4945925314e+00
 1.7665453603e+00	 6.1515675732e-01	 1.4052715394e+00
 1.7607669181e+00	 6.3150629939e-01	 1.3146219015e+00
 1.7548246577e+00	 6.4783544721e-01	 1.2278091652e+00
 1.8125960464e+00	 4.8542501073e-01	 2.0176591920e+00
 1.8081016639e+00	 5.0190660629e-01	 1.9525866230e+00
 1.8034460878e+00	 5.1838603087e-01	 1.8834337114e+00
 1.7986287867e+00	 5.3486106257e-01	 1.8104710400e+00
 1.7936492677e+00	 5.5132945959e-01	 1.7340347648e+00
 1.7885070769e+00	 5.6778896101e-01	 1.6545298400e+00
 1.7832018002e+00	 5.8423728759e-01	 1.5724334641e+00
 1.7777330637e+00	 6.0067214257e-01	 1.4879188205e+00
 1.7721005344e+00	 6.1709121254e-01	 1.4006983249e+00
 1.7663039210e+00	 6.3349216826e-01	 1.3113791516e+00
 1.7603429743e+00	 6.4987266560e-01	 1.2223568016e+00
 1.8182781657e+00	 4.8694671923e-01	 2.0067823806e+00
 1.8137696942e+00	 5.0347998123e-01	 1.9410731955e+00
 1.8090995238e+00	 5.2001106545e-01	 1.8714297998e+00
 1.8042671214e+00	 5.3653774301e-01	 1.7981738782e+00
 1.7992719927e+00	 5.5305776510e-01	 1.7216900936e+00
 1.7941136822e+00	 5.6956886371e-01	 1.6424292016e+00
 1.7887917745e+00	 5.8606875244e-01	 1.5609113902e+00
 1.7833058946e+00	 6.0255512735e-01	 1.4773359528e+00
 1.7776557085e+00	 6.1902566775e-01	 1.3917281593e+00
 1.7718409239e+00	 6.3547803713e-01	 1.3047755333e+00
 1.7658612908e+00	 6.5190988399e-01	 1.2171841147e+00
 1.7106781255e+00	 6.3153770011e-01	 1.2822044612e+00
 1.7047254582e+00	 6.4743387895e-01	 1.1980819119e+00
 1.6986127346e+00	 6.6330558064e-01	 1.1126301303e+00
 1.6923398384e+00	 6.7915048906e-01	 1.0262552844e+00
 1.6859066964e+00	 6.9496627722e-01	 9.3928980529e-01
 1.6793132788e+00	 7.1075060825e-01	 8.5198981877e-01
 1.6725595997e+00	 7.2650113635e-01	 7.6453296964e-01
 1.6656457173e+00	 7.4221550783e-01	 6.7701667557e-01
 1.6585717346e+00	 7.5789136205e-01	 5.8945684814e-01
 1.6513377996e+00	 7.7352633251e-01	 5.0178711692e-01
 1.6439441055e+00	 7.8911804786e-01	 4.1385859144e-01
 1.7161964420e+00	 6.3357491850e-01	 1.2746328233e+00
 1.7102245726e+00	 6.4952237533e-01	 1.1913679687e+00
 1.7040921306e+00	 6.6544527606e-01	 1.1065906452e+00
 1.6977989992e+00	 6.8134129709e-01	 1.0207429446e+00
 1.6913451051e+00	 6.9720810392e-01	 9.3419277358e-01
 1.6847304184e+00	 7.1304335214e-01	 8.4723114802e-01
 1.6779549532e+00	 7.2884468841e-01	 7.6006988288e-01
 1.6710187680e+00	 7.4460975140e-01	 6.7283971620e-01
 1.6639219660e+00	 7.6033617290e-01	 5.8558890539e-01
 1.6566646958e+00	 7.7602157875e-01	 4.9828233279e-01
 1.6492471510e+00	 7.9166358995e-01	 4.1080115645e-01
 1.7217147585e+00	 6.3561213689e-01	 1.2672245135e+00
 1.7157236870e+00	 6.5161087172e-01	 1.1846205672e+00
 1.7095715265e+00	 6.6758497148e-01	 1.1004291298e+00
 1.7032581600e+00	 6.8353210512e-01	 1.0151087268e+00
 1.6967835138e+00	 6.9944993062e-01	 9.2904350842e-01
 1.6901475580e+00	 7.1533609604e-01	 8.4254043326e-01
 1.6833503068e+00	 7.3118824046e-01	 7.5582685121e-01
 1.6763918187e+00	 7.4700399498e-01	 6.6904852474e-01
 1.6692721974e+00	 7.6278098374e-01	 5.8226812773e-01
 1.6619915919e+00	 7.7851682498e-01	 4.9546425981e-01
 1.6545501965e+00	 7.9420913204e-01	 4.0853101286e-01
 1.7272330751e+00	 6.3764935527e-01	 1.2600075468e+00
 1.7212228014e+00	 6.5369936810e-01	 1.1778382194e+00
 1.7150509224e+00	 6.6972466690e-01	 1.0941182551e+00
 1.7087173208e+00	 6.8572291314e-01	 1.0093033274e+00
 1.7022219225e+00	 7.0169175732e-01	 9.2377480007e-01
 1.6955646977e+00	 7.1762883994e-01	 8.3783682757e-01
 1.6887456603e+00	 7.3353179251e-01	 7.5171385800e-01
 1.6817648694e+00	 7.4939823855e-01	 6.6554857861e-01
 1.6746224288e+00	 7.6522579459e-01	 5.7940034412e-01
 1.6673184880e+00	 7.8101207121e-01	 4.9324412681e-01
 1.6598532420e+00	 7.9675467413e-01	 4.0697002588e-01
 1.7327513916e+00	 6.3968657366e-01	 1.2530104619e+00
 1.7267219158e+00	 6.5578786448e-01	 1.1710203025e+00
 1.7205303183e+00	 6.7186436233e-01	 1.0876318506e+00
 1.7141764815e+00	 6.8791372117e-01	 1.0032788434e+00
 1.7076603312e+00	 7.0393358402e-01	 9.1832102841e-01
 1.7009818373e+00	 7.1992158384e-01	 8.3304120773e-01
 1.6941410139e+00	 7.3587534456e-01	 7.4764268720e-01
 1.6871379201e+00	 7.5179248212e-01	 6.6224717320e-01
 1.6799726602e+00	 7.6767060543e-01	 5.7689315730e-01
 1.6726453841e+00	 7.8350731745e-01	 4.9153482878e-01
 1.6651562875e+00	 7.9930021622e-01	 4.0604155349e-01
 1.7382697081e+00	 6.4172379205e-01	 1.2462623053e+00
 1.7322210301e+00	 6.5787636087e-01	 1.1641670363e+00
 1.7260097142e+00	 6.7400405775e-01	 1.0809448752e+00
 1.7196356423e+00	 6.9010452920e-01	 9.9698873798e-01
 1.7130987399e+00	 7.0617541072e-01	 9.1261812458e-01
 1.7063989769e+00	 7.2221432773e-01	 8.2807613235e-01
 1.6995363674e+00	 7.3821889662e-01	 7.4352687872e-01
 1.6925109708e+00	 7.5418672570e-01	 6.5905337559e-01
 1.6853228916e+00	 7.7011541628e-01	 5.7465589690e-01
 1.6779722803e+00	 7.8600256368e-01	 4.9025088012e-01
 1.6704593330e+00	 8.0184575831e-01	 4.0567040117e-01
 1.7437880247e+00	 6.4376101044e-01	 1.2397926163e+00
 1.7377201445e+00	 6.5996485725e-01	 1.1572794613e+00
 1.7314891101e+00	 6.7614375317e-01	 1.0740333890e+00
 1.7250948031e+00	 6.9229533723e-01	 9.9038780746e-01
 1.7185371486e+00	 7.0841723742e-01	 9.0660353301e-01
 1.7118161165e+00	 7.2450707163e-01	 8.2286580028e-01
 1.7049317210e+00	 7.4056244867e-01	 7.3928168424e-01
 1.6978840215e+00	 7.5658096927e-01	 6.5587797865e-01
 1.6906731230e+00	 7.7256022712e-01	 5.7259957279e-01
 1.6832991764e+00	 7.8849780992e-01	 4.8930836845e-01
 1.6757623785e+00	 8.0439130040e-01	 4.0578277696e-01
 1.7493063412e+00	 6.4579822882e-01	 1.2336314107e+00
 1.7432192589e+00	 6.6205335364e-01	 1.1503594155e+00
 1.7369685061e+00	 6.7828344859e-01	 1.0668745251e+00
 1.7305539638e+00	 6.9448614526e-01	 9.8343214746e-01
 1.7239755573e+00	 7.1065906412e-01	 9.0021617362e-01
 1.7172332561e+00	 7.2679981553e-01	 8.1733600941e-01
 1.7103270745e+00	 7.4290600072e-01	 7.3482402345e-01
 1.7032570722e+00	 7.5897521285e-01	 6.5263345553e-01
 1.6960233544e+00	 7.7500503797e-01	 5.7063682892e-01
 1.6886260725e+00	 7.9099305615e-01	 4.8862490864e-01
 1.6810654240e+00	 8.0693684249e-01	 4.0630624687e-01
 1.7548246577e+00	 6.4783544721e-01	 1.2278091652e+00
 1.7487183733e+00	 6.6414185002e-01	 1.1434095127e+00
 1.7424479020e+00	 6.8042314401e-01	 1.0594464612e+00
 1.7360131246e+00	 6.9667695329e-01	 9.7607911989e-01
 1.7294139660e+00	 7.1290089082e-01	 8.9339640437e-01
 1.7226503957e+00	 7.2909255943e-01	 8.1141411579e-01
 1.7157224280e+00	 7.4524955278e-01	 7.3007244052e-01
 1.7086301229e+00	 7.6136945642e-01	 6.4923391464e-01
 1.7013735858e+00	 7.7744984881e-01	 5.6868189747e-01
 1.6939529687e+00	 7.9348830238e-01	 4.8811959723e-01
 1.6863684695e+00	 8.0948238458e-01	 4.0716969062e-01
 1.7603429743e+00	 6.4987266560e-01	 1.2223568016e+00
 1.7542174877e+00	 6.6623034640e-01	 1.1364331201e+00
 1.7479272979e+00	 6.8256283943e-01	 1.0517283917e+00
 1.7414722854e+00	 6.9886776132e-01	 9.6828731988e-01
 1.7348523747e+00	 7.1514271752e-01	 8.8608598409e-01
 1.7280675353e+00	 7.3138530332e-01	 8.0502899300e-01
 1.7211177816e+00	 7.4759310483e-01	 7.2494706107e-01
 1.7140031736e+00	 7.6376369999e-01	 6.4559505482e-01
 1.7067238172e+00	 7.7989465966e-01	 5.6665055341e-01
 1.6992798648e+00	 7.9598354862e-01	 4.8771296731e-01
 1.6916715150e+00	 8.1202792667e-01	 4.0830325763e-01
 1.7658612908e+00	 6.5190988399e-01	 1.2171841147e+00
 1.7597166021e+00	 6.6831884279e-01	 1.1294343358e+00
 1.7534066938e+00	 6.8470253485e-01	 1.0437005001e+00
 1.7469314461e+00	 7.0105856935e-01	 9.6001654301e-01
 1.7402907834e+00	 7.1738454422e-01	 8.7822803552e-01
 1.7334846749e+00	 7.3367804722e-01	 7.9811099197e-01
 1.7265131351e+00	 7.4993665688e-01	 7.1936954937e-01
 1.7193762243e+00	 7.6615794357e-01	 6.4163412101e-01
 1.7120740486e+00	 7.8233947050e-01	 5.6446006941e-01
 1.7046067609e+00	 7.9847879485e-01	 4.8732694356e-01
 1.6969745605e+00	 8.1457346876e-01	 4.0963832340e-01
 1.6439441055e+00	 7.8911804786e-01	 4.1385859144e-01
 1.6363908912e+00	 8.0466413296e-01	 3.2818731950e-01
 1.6286784412e+00	 8.2016220995e-01	 2.4697900506e-01
 1.6208070865e+00	 8.3560989935e-01	 1.6948513721e-01
 1.6127772041e+00	 8.5100482109e-01	 9.4862894080e-02
 1.6045892175e+00	 8.6634459571e-01	 2.2178439206e-02
 1.5962435970e+00	 8.8162684538e-01	-4.9589052981e-02
 1.5877408595e+00	 8.9684919507e-01	-1.2154262541e-01
 1.5790815686e+00	 9.1200927367e-01	-1.9486200708e-01
 1.5702663350e+00	 9.2710471512e-01	-2.7079731273e-01
 1.5612958161e+00	 9.4213315955e-01	-3.5066196816e-01
 1.6492471510e+00	 7.9166358995e-01	 4.1080115645e-01
 1.6416695715e+00	 8.0725982371e-01	 3.2562739868e-01
 1.6339322427e+00	 8.2280789450e-01	 2.4491074444e-01
 1.6260354965e+00	 8.3830541515e-01	 1.6789815319e-01
 1.6179797112e+00	 8.5374999793e-01	 9.3741429354e-02
 1.6097653118e+00	 8.6913925569e-01	 2.1500509715e-02
 1.6013927699e+00	 8.8447080294e-01	-4.9852507932e-02
 1.5928626042e+00	 8.9974225699e-01	-1.2142857705e-01
 1.5841753801e+00	 9.1495123907e-01	-1.9441614167e-01
 1.5753317103e+00	 9.3009537549e-01	-2.7007479271e-01
 1.5663322542e+00	 9.4517229877e-01	-3.4972813561e-01
 1.6545501965e+00	 7.9420913204e-01	 4.0853101286e-01
 1.6469482518e+00	 8.0985551446e-01	 3.2390607569e-01
 1.6391860441e+00	 8.2545357905e-01	 2.4368999672e-01
 1.6312639064e+00	 8.4100093095e-01	 1.6713416680e-01
 1.6231822183e+00	 8.5649517478e-01	 9.3393910101e-02
 1.6149414060e+00	 8.7193391568e-01	 2.1531748121e-02
 1.6065419428e+00	 8.8731476051e-01	-4.9478582652e-02
 1.5979843489e+00	 9.0263531891e-01	-1.2074734109e-01
 1.5892691916e+00	 9.1789320446e-01	-1.9346320519e-01
 1.5803970855e+00	 9.3308603586e-01	-2.6888689869e-01
 1.5713686923e+00	 9.4821143799e-01	-3.4834401426e-01
 1.6598532420e+00	 7.9675467413e-01	 4.0697002588e-01
 1.6522269321e+00	 8.1245120522e-01	 3.2295820571e-01
 1.6444398455e+00	 8.2809926360e-01	 2.4326390674e-01
 1.6364923164e+00	 8.4369644676e-01	 1.6715184106e-01
 1.6283847254e+00	 8.5924035162e-01	 9.3789674422e-02
 1.6201175003e+00	 8.7472857567e-01	 2.2251252598e-02
 1.6116911157e+00	 8.9015871807e-01	-4.8479406172e-02
 1.6031060936e+00	 9.0552838083e-01	-1.1950333364e-01
 1.5943630031e+00	 9.2083516986e-01	-1.9200103359e-01
 1.5854624608e+00	 9.3607669623e-01	-2.6722609233e-01
 1.5764051304e+00	 9.5125057722e-01	-3.4649797084e-01
 1.6651562875e+00	 7.9930021622e-01	 4.0604155349e-01
 1.6575056123e+00	 8.1504689597e-01	 3.2271993476e-01
 1.6496936469e+00	 8.3074494815e-01	 2.4358071893e-01
 1.6417207263e+00	 8.4639196256e-01	 1.6791075915e-01
 1.6335872325e+00	 8.6198552846e-01	 9.4898814264e-02
 1.6252935945e+00	 8.7752323565e-01	 2.3638723151e-02
 1.6168402886e+00	 8.9300267564e-01	-4.6866642220e-02
 1.6082278383e+00	 9.0842144274e-01	-1.1770062535e-01
 1.5994568147e+00	 9.2377713526e-01	-1.9002721937e-01
 1.5905278361e+00	 9.3906735660e-01	-2.6508467495e-01
 1.5814415685e+00	 9.5428971644e-01	-3.4417827468e-01
 1.6704593330e+00	 8.0184575831e-01	 4.0567040117e-01
 1.6627842926e+00	 8.1764258672e-01	 3.2312865631e-01
 1.6549474483e+00	 8.3339063270e-01	 2.4458973561e-01
 1.6469491363e+00	 8.4908747837e-01	 1.6937138437e-01
 1.6387897396e+00	 8.6473070530e-01	 9.6692136836e-02
 1.6304696888e+00	 8.8031789564e-01	 2.5674424302e-02
 1.6219894615e+00	 8.9584663320e-01	-4.4651525450e-02
 1.6133495830e+00	 9.1131450466e-01	-1.1534297681e-01
 1.6045506262e+00	 9.2671910066e-01	-1.8753914636e-01
 1.5955932114e+00	 9.4205801697e-01	-2.6245482180e-01
 1.5864780066e+00	 9.5732885567e-01	-3.4137313182e-01
 1.6757623785e+00	 8.0439130040e-01	 4.0578277696e-01
 1.6680629729e+00	 8.2023827747e-01	 3.2412296819e-01
 1.6602012498e+00	 8.3603631724e-01	 2.4624127565e-01
 1.6521775463e+00	 8.5178299417e-01	 1.7149502031e-01
 1.6439922468e+00	 8.6747588215e-01	 9.9141126183e-02
 1.6356457830e+00	 8.8311255563e-01	 2.8339147905e-02
 1.6271386344e+00	 8.9869059077e-01	-4.1844897588e-02
 1.6184713277e+00	 9.1420756658e-01	-1.1243387379e-01
 1.6096444377e+00	 9.2966106606e-01	-1.8453402432e-01
 1.6006585866e+00	 9.4504867734e-01	-2.5932861632e-01
 1.5915144448e+00	 9.6036799489e-01	-3.3807071912e-01
 1.6810654240e+00	 8.0693684249e-01	 4.0630624687e-01
 1.6733416532e+00	 8.2283396822e-01	 3.2564262974e-01
 1.6654550512e+00	 8.3868200179e-01	 2.4848663328e-01
 1.6574059562e+00	 8.5447850998e-01	 1.7424377123e-01
 1.6491947539e+00	 8.7022105899e-01	 1.0221790492e-01
 1.6408218773e+00	 8.8590721561e-01	 3.1614176067e-02
 1.6322878073e+00	 9.0153454834e-01	-3.8457243488e-02
 1.6235930724e+00	 9.1710062850e-01	-1.0897656254e-01
 1.6147382492e+00	 9.3260303146e-01	-1.8100892360e-01
 1.6057239619e+00	 9.4803933772e-01	-2.5569808438e-01
 1.5965508829e+00	 9.6340713412e-01	-3.3425921835e-01
 1.6863684695e+00	 8.0948238458e-01	 4.0716969062e-01
 1.6786203335e+00	 8.2542965897e-01	 3.2762851932e-01
 1.6707088526e+00	 8.4132768634e-01	 2.5127803719e-01
 1.6626343662e+00	 8.5717402578e-01	 1.7758050260e-01
 1.6543972610e+00	 8.7296623583e-01	 1.0589519612e-01
 1.6459979715e+00	 8.8870187560e-01	 3.5481244200e-02
 1.6374369802e+00	 9.0437850590e-01	-3.4498727099e-02
 1.6287148171e+00	 9.1999369042e-01	-1.0497408490e-01
 1.6198320607e+00	 9.3554499686e-01	-1.7696080975e-01
 1.6107893372e+00	 9.5102999809e-01	-2.5155522854e-01
 1.6015873210e+00	 9.6644627334e-01	-3.2992685033e-01
 1.6916715150e+00	 8.1202792667e-01	 4.0830325763e-01
 1.6838990138e+00	 8.2802534972e-01	 3.3002259200e-01
 1.6759626540e+00	 8.4397337089e-01	 2.5456860982e-01
 1.6678627761e+00	 8.5986954158e-01	 1.8146880185e-01
 1.6595997681e+00	 8.7571141267e-01	 1.1014628532e-01
 1.6511740658e+00	 8.9149653558e-01	 3.9922504183e-02
 1.6425861531e+00	 9.0722246347e-01	-2.9979227346e-02
 1.6338365619e+00	 9.2288675234e-01	-1.0042931349e-01
 1.6249258722e+00	 9.3848696226e-01	-1.7238657802e-01
 1.6158547124e+00	 9.5402065846e-01	-2.4689206223e-01
 1.6066237591e+00	 9.6948541256e-01	-3.2506190897e-01
 1.6969745605e+00	 8.1457346876e-01	 4.0963832340e-01
 1.6891776941e+00	 8.3062104048e-01	 3.3276783757e-01
 1.6812164555e+00	 8.4661905544e-01	 2.5831232686e-01
 1.6730911861e+00	 8.6256505739e-01	 1.8587293928e-01
 1.6648022752e+00	 8.7845658951e-01	 1.1494498275e-01
 1.6563501600e+00	 8.9429119557e-01	 4.4920487633e-02
 1.6477353260e+00	 9.1006642103e-01	-2.4908373934e-02
 1.6389583066e+00	 9.2577981426e-01	-9.5344986691e-02
 1.6300196837e+00	 9.4142892766e-01	-1.6728308794e-01
 1.6209200877e+00	 9.5701131883e-01	-2.4170064392e-01
 1.6116601972e+00	 9.7252455179e-01	-3.1965279536e-01
 1.5612958161e+00	 9.4213315955e-01	-3.5066196816e-01
 1.5521707162e+00	 9.5709225442e-01	-4.2861129977e-01
 1.5428917864e+00	 9.7197965568e-01	-4.9859981357e-01
 1.5334598246e+00	 9.8679302892e-01	-5.6170057257e-01
 1.5238756752e+00	 1.0015300505e+00	-6.1900275258e-01
 1.5141402292e+00	 1.0161884087e+00	-6.7160116558e-01
 1.5042544236e+00	 1.0307658049e+00	-7.2058509614e-01
 1.4942192418e+00	 1.0452599547e+00	-7.6702647892e-01
 1.4840357128e+00	 1.0596685891e+00	-8.1196744983e-01
 1.4737049111e+00	 1.0739894556e+00	-8.5640730904e-01
 1.4632279564e+00	 1.0882203192e+00	-9.0128893870e-01
 1.5663322542e+00	 9.4517229877e-01	-3.4972813561e-01
 1.5571777185e+00	 9.6017964879e-01	-4.2747757251e-01
 1.5478688567e+00	 9.7511507393e-01	-4.9721497757e-01
 1.5384064692e+00	 9.8997623224e-01	-5.6001335419e-01
 1.5287914032e+00	 1.0047607926e+00	-6.1696487058e-01
 1.5190245525e+00	 1.0194664358e+00	-6.6917028793e-01
 1.5091068573e+00	 1.0340908559e+00	-7.1772768279e-01
 1.4990393039e+00	 1.0486317610e+00	-7.6372049149e-01
 1.4888229248e+00	 1.0630868749e+00	-8.0820490977e-01
 1.4784587979e+00	 1.0774539377e+00	-8.5219668567e-01
 1.4679480466e+00	 1.0917307073e+00	-8.9665734927e-01
 1.5713686923e+00	 9.4821143799e-01	-3.4834401426e-01
 1.5621847208e+00	 9.6326704316e-01	-4.2588768060e-01
 1.5528459269e+00	 9.7825049217e-01	-4.9536109016e-01
 1.5433531138e+00	 9.9315943556e-01	-5.5784166443e-01
 1.5337071312e+00	 1.0079915347e+00	-6.1442917035e-01
 1.5239088758e+00	 1.0227444629e+00	-6.6623504730e-01
 1.5139592909e+00	 1.0374159069e+00	-7.1437100885e-01
 1.5038593660e+00	 1.0520035673e+00	-7.5993694726e-01
 1.4936101368e+00	 1.0665051606e+00	-8.0400817398e-01
 1.4832126847e+00	 1.0809184198e+00	-8.4762203464e-01
 1.4726681368e+00	 1.0952410955e+00	-8.9176394238e-01
 1.5764051304e+00	 9.5125057722e-01	-3.4649797084e-01
 1.5671917231e+00	 9.6635443753e-01	-4.2382678247e-01
 1.5578229972e+00	 9.8138591042e-01	-4.9302051716e-01
 1.5482997584e+00	 9.9634263888e-01	-5.5516544863e-01
 1.5386228592e+00	 1.0112222768e+00	-6.1137350581e-01
 1.5287931991e+00	 1.0260224901e+00	-6.6277149269e-01
 1.5188117245e+00	 1.0407409578e+00	-7.1048956295e-01
 1.5086794280e+00	 1.0553753736e+00	-7.5564897766e-01
 1.4983973487e+00	 1.0699234464e+00	-7.9934917917e-01
 1.4879665715e+00	 1.0843829019e+00	-8.4265422034e-01
 1.4773882270e+00	 1.0987514836e+00	-8.8657859312e-01
 1.5814415685e+00	 9.5428971644e-01	-3.4417827468e-01
 1.5721987254e+00	 9.6944183189e-01	-4.2127998684e-01
 1.5628000675e+00	 9.8452132866e-01	-4.9017561292e-01
 1.5532464030e+00	 9.9952584220e-01	-5.5196466988e-01
 1.5435385872e+00	 1.0144530189e+00	-6.0777576930e-01
 1.5336775225e+00	 1.0293005172e+00	-6.5875572410e-01
 1.5236641581e+00	 1.0440660088e+00	-7.0605788974e-01
 1.5134994901e+00	 1.0587471799e+00	-7.5082976804e-01
 1.5031845607e+00	 1.0733417322e+00	-7.9419990724e-01
 1.4927204583e+00	 1.0878473840e+00	-8.3726413756e-01
 1.4821083171e+00	 1.1022618717e+00	-8.8107118670e-01
 1.5864780066e+00	 9.5732885567e-01	-3.4137313182e-01
 1.5772057277e+00	 9.7252922626e-01	-4.1823238679e-01
 1.5677771378e+00	 9.8765674690e-01	-4.8680875446e-01
 1.5581930476e+00	 1.0027090455e+00	-5.4821934335e-01
 1.5484543151e+00	 1.0176837610e+00	-6.0361392614e-01
 1.5385618458e+00	 1.0325785443e+00	-6.5416392741e-01
 1.5285165918e+00	 1.0473910598e+00	-7.0105062498e-01
 1.5183195522e+00	 1.0621189862e+00	-7.4545259304e-01
 1.5079717727e+00	 1.0767600179e+00	-7.8853242102e-01
 1.4974743451e+00	 1.0913118661e+00	-8.3142274758e-01
 1.4868284073e+00	 1.1057722598e+00	-8.7521165488e-01
 1.5915144448e+00	 9.6036799489e-01	-3.3807071912e-01
 1.5822127300e+00	 9.7561662063e-01	-4.1466909393e-01
 1.5727542081e+00	 9.9079216515e-01	-4.8290237574e-01
 1.5631396922e+00	 1.0058922488e+00	-5.4390957065e-01
 1.5533700431e+00	 1.0209145031e+00	-5.9886604918e-01
 1.5434461691e+00	 1.0358565714e+00	-6.4897240911e-01
 1.5333690254e+00	 1.0507161108e+00	-6.9544253063e-01
 1.5231396143e+00	 1.0654907925e+00	-7.3949085204e-01
 1.5127589847e+00	 1.0801783037e+00	-7.8231890000e-01
 1.5022282319e+00	 1.0947763482e+00	-8.2510111426e-01
 1.4915484975e+00	 1.1092826480e+00	-8.6897001239e-01
 1.5965508829e+00	 9.6340713412e-01	-3.3425921835e-01
 1.5872197323e+00	 9.7870401500e-01	-4.1057527249e-01
 1.5777312783e+00	 9.9392758339e-01	-4.7843900184e-01
 1.5680863368e+00	 1.0090754522e+00	-5.3901557426e-01
 1.5582857711e+00	 1.0241452452e+00	-5.9351035345e-01
 1.5483304924e+00	 1.0391345986e+00	-6.4315763118e-01
 1.5382214590e+00	 1.0540411618e+00	-6.8920852999e-01
 1.5279596763e+00	 1.0688625988e+00	-7.3291810454e-01
 1.5175461966e+00	 1.0835965895e+00	-7.7553167609e-01
 1.5069821187e+00	 1.0982408304e+00	-8.1827044015e-01
 1.4962685877e+00	 1.1127930361e+00	-8.6231639338e-01
 1.6015873210e+00	 9.6644627334e-01	-3.2992685033e-01
 1.5922267346e+00	 9.8179140937e-01	-4.0593617345e-01
 1.5827083486e+00	 9.9706300164e-01	-4.7340128319e-01
 1.5730329814e+00	 1.0122586555e+00	-5.3351773182e-01
 1.5632014991e+00	 1.0273759873e+00	-5.8752523064e-01
 1.5532148157e+00	 1.0424126257e+00	-6.3669624593e-01
 1.5430738926e+00	 1.0573662128e+00	-6.8232374281e-01
 1.5327797384e+00	 1.0722344051e+00	-7.2570810566e-01
 1.5223334086e+00	 1.0870148753e+00	-7.6814326944e-01
 1.5117360056e+00	 1.1017053125e+00	-8.1090210257e-01
 1.5009886779e+00	 1.1163034242e+00	-8.5522108784e-01
 1.6066237591e+00	 9.6948541256e-01	-3.2506190897e-01
 1.5972337370e+00	 9.8487880374e-01	-4.0073716868e-01
 1.5876854189e+00	 1.0001984199e+00	-4.6777202983e-01
 1.5779796260e+00	 1.0154418588e+00	-5.2739661058e-01
 1.5681172271e+00	 1.0306067294e+00	-5.8088928380e-01
 1.5580991391e+00	 1.0456906528e+00	-6.2956513083e-01
 1.5479263263e+00	 1.0606912637e+00	-6.7476352046e-01
 1.5375998005e+00	 1.0756062114e+00	-7.1783484156e-01
 1.5271206206e+00	 1.0904331610e+00	-7.6012642414e-01
 1.5164898924e+00	 1.1051697946e+00	-8.0296768974e-01
 1.5057087681e+00	 1.1198138123e+00	-8.4765457808e-01
 1.6116601972e+00	 9.7252455179e-01	-3.1965279536e-01
 1.6022407393e+00	 9.8796619811e-01	-3.9496378507e-01
 1.5926624892e+00	 1.0033338381e+00	-4.6153424559e-01
 1.5829262705e+00	 1.0186250621e+00	-5.2063300183e-01
 1.5730329551e+00	 1.0338374715e+00	-5.7358136194e-01
 1.5629834624e+00	 1.0489686799e+00	-6.2174142345e-01
 1.5527787599e+00	 1.0640163147e+00	-6.6650348108e-01
 1.5424198625e+00	 1.0789780178e+00	-7.0927256492e-01
 1.5319078326e+00	 1.0938514468e+00	-7.5145414411e-01
 1.5212437792e+00	 1.1086342767e+00	-7.9443903693e-01
 1.5104288582e+00	 1.1233242005e+00	-8.3958757514e-01
 1.4632279564e+00	 1.0882203192e+00	-9.0128893870e-01
 1.4526060134e+00	 1.1023589640e+00	-9.4648920717e-01
 1.4418402911e+00	 1.1164031936e+00	-9.9228701076e-01
 1.4309320425e+00	 1.1303508328e+00	-1.0401400815e+00
 1.4198825644e+00	 1.1441997286e+00	-1.0914433364e+00
 1.4086931965e+00	 1.1579477508e+00	-1.1475125470e+00
 1.3973653212e+00	 1.1715927939e+00	-1.2095677439e+00
 1.3859003627e+00	 1.1851327774e+00	-1.2751746023e+00
 1.3742997871e+00	 1.1985656473e+00	-1.3324344143e+00
 1.3625651009e+00	 1.2118893767e+00	-1.3805692356e+00
 1.3506978509e+00	 1.2251019676e+00	-1.4199261691e+00
 1.4679480466e+00	 1.0917307073e+00	-8.9665734927e-01
 1.4572918392e+00	 1.1059149606e+00	-9.4170250695e-01
 1.4464913888e+00	 1.1200044942e+00	-9.8785676893e-01
 1.4355479523e+00	 1.1339971258e+00	-1.0366087983e+00
 1.4244628307e+00	 1.1478906954e+00	-1.0893846106e+00
 1.4132373681e+00	 1.1616830662e+00	-1.1475309580e+00
 1.4018729512e+00	 1.1753721255e+00	-1.2122984356e+00
 1.3903710091e+00	 1.1889557864e+00	-1.2775046639e+00
 1.3787330122e+00	 1.2024319881e+00	-1.3338137922e+00
 1.3669604722e+00	 1.2157986973e+00	-1.3815010899e+00
 1.3550549408e+00	 1.2290539094e+00	-1.4209229311e+00
 1.4726681368e+00	 1.0952410955e+00	-8.9176394238e-01
 1.4619776651e+00	 1.1094709573e+00	-9.3678708142e-01
 1.4511424865e+00	 1.1236057948e+00	-9.8345435963e-01
 1.4401638622e+00	 1.1376434188e+00	-1.0332812456e+00
 1.4290430971e+00	 1.1515816623e+00	-1.0877206833e+00
 1.4177815397e+00	 1.1654183815e+00	-1.1481461931e+00
 1.4063805813e+00	 1.1791514571e+00	-1.2155066053e+00
 1.3948416554e+00	 1.1927787953e+00	-1.2795287086e+00
 1.3831662373e+00	 1.2062983289e+00	-1.3350829141e+00
 1.3713558435e+00	 1.2197080179e+00	-1.3825041495e+00
 1.3594120306e+00	 1.2330058513e+00	-1.4221530470e+00
 1.4773882270e+00	 1.0987514836e+00	-8.8657859312e-01
 1.4666634909e+00	 1.1130269539e+00	-9.3171150171e-01
 1.4557935842e+00	 1.1272070954e+00	-9.7904639848e-01
 1.4447797720e+00	 1.1412897118e+00	-1.0301214855e+00
 1.4336233634e+00	 1.1552726292e+00	-1.0864125196e+00
 1.4223257113e+00	 1.1691536968e+00	-1.1493156330e+00
 1.4108882114e+00	 1.1829307887e+00	-1.2182371027e+00
 1.3993123017e+00	 1.1966018043e+00	-1.2812217985e+00
 1.3875994624e+00	 1.2101646696e+00	-1.3362135587e+00
 1.3757512147e+00	 1.2236173385e+00	-1.3835466292e+00
 1.3637691205e+00	 1.2369577931e+00	-1.4235809357e+00
 1.4821083171e+00	 1.1022618717e+00	-8.8107118670e-01
 1.4713493168e+00	 1.1165829506e+00	-9.2644432842e-01
 1.4604446819e+00	 1.1308083961e+00	-9.7459947394e-01
 1.4493956818e+00	 1.1449360049e+00	-1.0270935395e+00
 1.4382036298e+00	 1.1589635960e+00	-1.0854210336e+00
 1.4268698829e+00	 1.1728890121e+00	-1.1509965999e+00
 1.4153958414e+00	 1.1867101203e+00	-1.2204142155e+00
 1.4037829481e+00	 1.2004248133e+00	-1.2825607121e+00
 1.3920326876e+00	 1.2140310104e+00	-1.3371792467e+00
 1.3801465860e+00	 1.2275266590e+00	-1.3845985155e+00
 1.3681262103e+00	 1.2409097349e+00	-1.4251728211e+00
 1.4868284073e+00	 1.1057722598e+00	-8.7521165488e-01
 1.4760351426e+00	 1.1201389472e+00	-9.2095414833e-01
 1.4650957796e+00	 1.1344096967e+00	-9.7008018407e-01
 1.4540115916e+00	 1.1485822979e+00	-1.0241614257e+00
 1.4427838961e+00	 1.1626545629e+00	-1.0847071256e+00
 1.4314140545e+00	 1.1766243275e+00	-1.1531453643e+00
 1.4199034715e+00	 1.1904894519e+00	-1.2220193248e+00
 1.4082535944e+00	 1.2042478222e+00	-1.2835239166e+00
 1.3964659127e+00	 1.2178973512e+00	-1.3379552120e+00
 1.3845419573e+00	 1.2314359796e+00	-1.3856315373e+00
 1.3724833002e+00	 1.2448616768e+00	-1.4268967025e+00
 1.4915484975e+00	 1.1092826480e+00	-8.6897001239e-01
 1.4807209685e+00	 1.1236949439e+00	-9.1520961101e-01
 1.4697468774e+00	 1.1380109973e+00	-9.6545517336e-01
 1.4586275014e+00	 1.1522285909e+00	-1.0212891951e+00
 1.4473641624e+00	 1.1663455298e+00	-1.0842317186e+00
 1.4359582261e+00	 1.1803596428e+00	-1.1550689096e+00
 1.4244111016e+00	 1.1942687835e+00	-1.2230354529e+00
 1.4127242407e+00	 1.2080708312e+00	-1.2840915392e+00
 1.4008991378e+00	 1.2217636920e+00	-1.3385183730e+00
 1.3889373286e+00	 1.2353453002e+00	-1.3866191370e+00
 1.3768403900e+00	 1.2488136186e+00	-1.4287223258e+00
 1.4962685877e+00	 1.1127930361e+00	-8.6231639338e-01
 1.4854067943e+00	 1.1272509406e+00	-9.0917946559e-01
 1.4743979751e+00	 1.1416122979e+00	-9.6069116951e-01
 1.4632434112e+00	 1.1558748839e+00	-1.0184409691e+00
 1.4519444288e+00	 1.1700364966e+00	-1.0839557947e+00
 1.4405023977e+00	 1.1840949581e+00	-1.1561913236e+00
 1.4289187316e+00	 1.1980481151e+00	-1.2234472349e+00
 1.4171948871e+00	 1.2118938401e+00	-1.2842453395e+00
 1.4053323629e+00	 1.2256300328e+00	-1.3388473044e+00
 1.3933326999e+00	 1.2392546207e+00	-1.3875364419e+00
 1.3811974798e+00	 1.2527655604e+00	-1.4306211535e+00
 1.5009886779e+00	 1.1163034242e+00	-8.5522108784e-01
 1.4900926202e+00	 1.1308069372e+00	-9.0283259742e-01
 1.4790490728e+00	 1.1452135986e+00	-9.5575502025e-01
 1.4678593210e+00	 1.1595211769e+00	-1.0155809753e+00
 1.4565246951e+00	 1.1737274635e+00	-1.0838404316e+00
 1.4450465693e+00	 1.1878302734e+00	-1.1565013343e+00
 1.4334263617e+00	 1.2018274467e+00	-1.2232408914e+00
 1.4216655334e+00	 1.2157168491e+00	-1.2839686808e+00
 1.4097655880e+00	 1.2294963736e+00	-1.3389222088e+00
 1.3977280712e+00	 1.2431639413e+00	-1.3883602349e+00
 1.3855545697e+00	 1.2567175023e+00	-1.4325663361e+00
 1.5057087681e+00	 1.1198138123e+00	-8.4765457808e-01
 1.4947784460e+00	 1.1343629339e+00	-8.9613806476e-01
 1.4837001705e+00	 1.1488148992e+00	-9.5061373017e-01
 1.4724752309e+00	 1.1631674699e+00	-1.0126735854e+00
 1.4611049614e+00	 1.1774184304e+00	-1.0838101940e+00
 1.4495907409e+00	 1.1915655888e+00	-1.1559892143e+00
 1.4379339918e+00	 1.2056067783e+00	-1.2224042006e+00
 1.4261361797e+00	 1.2195398581e+00	-1.2832465026e+00
 1.4141988132e+00	 1.2333627144e+00	-1.3387248877e+00
 1.4021234425e+00	 1.2470732619e+00	-1.3890689260e+00
 1.3899116595e+00	 1.2606694441e+00	-1.4345326824e+00
 1.5104288582e+00	 1.1233242005e+00	-8.3958757514e-01
 1.4994642719e+00	 1.1379189305e+00	-8.8906513555e-01
 1.4883512682e+00	 1.1524161998e+00	-9.4523449751e-01
 1.4770911407e+00	 1.1668137629e+00	-1.0096833509e+00
 1.4656852278e+00	 1.1811093972e+00	-1.0830674289e+00
 1.4541349125e+00	 1.1953009041e+00	-1.1546467538e+00
 1.4424416218e+00	 1.2093861099e+00	-1.2209264704e+00
 1.4306068261e+00	 1.2233628670e+00	-1.2820652922e+00
 1.4186320383e+00	 1.2372290552e+00	-1.3382387139e+00
 1.4065188138e+00	 1.2509825824e+00	-1.3896425236e+00
 1.3942687494e+00	 1.2646213859e+00	-1.4364966309e+00
 1.3506978509e+00	 1.2251019676e+00	-1.4199261691e+00
 1.3386996237e+00	 1.2382014509e+00	-1.4567713214e+00
 1.3265720444e+00	 1.2511858881e+00	-1.4964906342e+00
 1.3143167763e+00	 1.2640533720e+00	-1.5381143030e+00
 1.3019355200e+00	 1.2768020275e+00	-1.5806532113e+00
 1.2894300128e+00	 1.2894300128e+00	-1.6231043985e+00
 1.2768020275e+00	 1.3019355200e+00	-1.6644566725e+00
 1.2640533720e+00	 1.3143167763e+00	-1.7036963319e+00
 1.2511858881e+00	 1.3265720444e+00	-1.7398129577e+00
 1.2382014509e+00	 1.3386996237e+00	-1.7718052364e+00
 1.2251019676e+00	 1.3506978509e+00	-1.7986867744e+00
 1.3550549408e+00	 1.2290539094e+00	-1.4209229311e+00
 1.3430180096e+00	 1.2421956491e+00	-1.4581156652e+00
 1.3308513090e+00	 1.2552219716e+00	-1.4982293808e+00
 1.3185565078e+00	 1.2681309635e+00	-1.5402944738e+00
 1.3061353120e+00	 1.2809207437e+00	-1.5833220833e+00
 1.2935894644e+00	 1.2935894644e+00	-1.6263096680e+00
 1.2809207437e+00	 1.3061353120e+00	-1.6682467315e+00
 1.2681309635e+00	 1.3185565078e+00	-1.7081206596e+00
 1.2552219716e+00	 1.3308513090e+00	-1.7449226304e+00
 1.2421956491e+00	 1.3430180096e+00	-1.7776535559e+00
 1.2290539094e+00	 1.3550549408e+00	-1.8053300166e+00
 1.3594120306e+00	 1.2330058513e+00	-1.4221530470e+00
 1.3473363955e+00	 1.2461898474e+00	-1.4598311713e+00
 1.3351305737e+00	 1.2592580551e+00	-1.5004526432e+00
 1.3227962393e+00	 1.2722085550e+00	-1.5430504688e+00
 1.3103351040e+00	 1.2850394599e+00	-1.5866385638e+00
 1.2977489161e+00	 1.2977489161e+00	-1.6302174371e+00
 1.2850394599e+00	 1.3103351040e+00	-1.6727800276e+00
 1.2722085550e+00	 1.3227962393e+00	-1.7133176553e+00
 1.2592580551e+00	 1.3351305737e+00	-1.7508260474e+00
 1.2461898474e+00	 1.3473363955e+00	-1.7843113984e+00
 1.2330058513e+00	 1.3594120306e+00	-1.8127964218e+00
 1.3637691205e+00	 1.2369577931e+00	-1.4235809357e+00
 1.3516547814e+00	 1.2501840456e+00	-1.4618788518e+00
 1.3394098384e+00	 1.2632941386e+00	-1.5031189903e+00
 1.3270359709e+00	 1.2762861465e+00	-1.5463393539e+00
 1.3145348960e+00	 1.2891581761e+00	-1.5905591314e+00
 1.3019083677e+00	 1.3019083677e+00	-1.6347844875e+00
 1.2891581761e+00	 1.3145348960e+00	-1.6780145089e+00
 1.2762861465e+00	 1.3270359709e+00	-1.7192472692e+00
 1.2632941386e+00	 1.3394098384e+00	-1.7574859691e+00
 1.2501840456e+00	 1.3516547814e+00	-1.7917451125e+00
 1.2369577931e+00	 1.3637691205e+00	-1.8210566753e+00
 1.3681262103e+00	 1.2409097349e+00	-1.4251728211e+00
 1.3559731672e+00	 1.2541782438e+00	-1.4642215532e+00
 1.3436891030e+00	 1.2673302222e+00	-1.5061888434e+00
 1.3312757024e+00	 1.2803637381e+00	-1.5501200542e+00
 1.3187346880e+00	 1.2932768923e+00	-1.5950421196e+00
 1.3060678194e+00	 1.3060678194e+00	-1.6399694399e+00
 1.2932768923e+00	 1.3187346880e+00	-1.6839099367e+00
 1.2803637381e+00	 1.3312757024e+00	-1.7258712288e+00
 1.2673302222e+00	 1.3436891030e+00	-1.7648668864e+00
 1.2541782438e+00	 1.3559731672e+00	-1.7999227213e+00
 1.2409097349e+00	 1.3681262103e+00	-1.8300830713e+00
 1.3724833002e+00	 1.2448616768e+00	-1.4268967025e+00
 1.3602915531e+00	 1.2581724421e+00	-1.4668239267e+00
 1.3479683677e+00	 1.2713663057e+00	-1.5096244464e+00
 1.3355154339e+00	 1.2844413296e+00	-1.5543533241e+00
 1.3229344800e+00	 1.2973956086e+00	-1.6000476869e+00
 1.3102272710e+00	 1.3102272710e+00	-1.6457327259e+00
 1.2973956086e+00	 1.3229344800e+00	-1.6904278579e+00
 1.2844413296e+00	 1.3355154339e+00	-1.7331530119e+00
 1.2713663057e+00	 1.3479683677e+00	-1.7729349954e+00
 1.2581724421e+00	 1.3602915531e+00	-1.8088138983e+00
 1.2448616768e+00	 1.3724833002e+00	-1.8398494897e+00
 1.3768403900e+00	 1.2488136186e+00	-1.4287223258e+00
 1.3646099390e+00	 1.2621666403e+00	-1.4696523985e+00
 1.3522476323e+00	 1.2754023892e+00	-1.5133898359e+00
 1.3397551655e+00	 1.2885189211e+00	-1.5590017173e+00
 1.3271342720e+00	 1.3015143248e+00	-1.6055377878e+00
 1.3143867227e+00	 1.3143867227e+00	-1.6520365586e+00
 1.3015143248e+00	 1.3271342720e+00	-1.6975315766e+00
 1.2885189211e+00	 1.3397551655e+00	-1.7410578193e+00
 1.2754023892e+00	 1.3522476323e+00	-1.7816581716e+00
 1.2621666403e+00	 1.3646099390e+00	-1.8183899425e+00
 1.2488136186e+00	 1.3768403900e+00	-1.8503313736e+00
 1.3811974798e+00	 1.2527655604e+00	-1.4306211535e+00
 1.3689283249e+00	 1.2661608385e+00	-1.4726751403e+00
 1.3565268970e+00	 1.2794384727e+00	-1.5174508114e+00
 1.3439948970e+00	 1.2925965126e+00	-1.5640295581e+00
 1.3313340640e+00	 1.3056330410e+00	-1.6114761433e+00
 1.3185461743e+00	 1.3185461743e+00	-1.6588449043e+00
 1.3056330410e+00	 1.3313340640e+00	-1.7051861268e+00
 1.2925965126e+00	 1.3439948970e+00	-1.7495525480e+00
 1.2794384727e+00	 1.3565268970e+00	-1.7910059434e+00
 1.2661608385e+00	 1.3689283249e+00	-1.8286237540e+00
 1.2527655604e+00	 1.3811974798e+00	-1.8615057056e+00
 1.3855545697e+00	 1.2567175023e+00	-1.4325663361e+00
 1.3732467108e+00	 1.2701550367e+00	-1.4758620397e+00
 1.3608061617e+00	 1.2834745562e+00	-1.5217749061e+00
 1.3482346286e+00	 1.2966741042e+00	-1.5694029109e+00
 1.3355338560e+00	 1.3097517572e+00	-1.6178282122e+00
 1.3227056260e+00	 1.3227056260e+00	-1.6661234539e+00
 1.3097517572e+00	 1.3355338560e+00	-1.7133582440e+00
 1.2966741042e+00	 1.3482346286e+00	-1.7586057644e+00
 1.2834745562e+00	 1.3608061617e+00	-1.8009494671e+00
 1.2701550367e+00	 1.3732467108e+00	-1.8394898097e+00
 1.2567175023e+00	 1.3855545697e+00	-1.8733509852e+00
 1.3899116595e+00	 1.2606694441e+00	-1.4345326824e+00
 1.3775650967e+00	 1.2741492350e+00	-1.4791846707e+00
 1.3650854263e+00	 1.2875106397e+00	-1.5263313571e+00
 1.3524743601e+00	 1.3007516957e+00	-1.5750895519e+00
 1.3397336480e+00	 1.3138704734e+00	-1.6245611619e+00
 1.3268650776e+00	 1.3268650776e+00	-1.6738395943e+00
 1.3138704734e+00	 1.3397336480e+00	-1.7220163375e+00
 1.3007516957e+00	 1.3524743601e+00	-1.7681876774e+00
 1.2875106397e+00	 1.3650854263e+00	-1.8114615003e+00
 1.2741492350e+00	 1.3775650967e+00	-1.8509641382e+00
 1.2606694441e+00	 1.3899116595e+00	-1.8858472055e+00
 1.3942687494e+00	 1.2646213859e+00	-1.4364966309e+00
 1.3818834825e+00	 1.2781434332e+00	-1.4826162644e+00
 1.3693646910e+00	 1.2915467232e+00	-1.5310910761e+00
 1.3567140916e+00	 1.3048292872e+00	-1.5810589389e+00
 1.3439334400e+00	 1.3179891896e+00	-1.6316438393e+00
 1.3310245293e+00	 1.3310245293e+00	-1.6819623800e+00
 1.3179891896e+00	 1.3439334400e+00	-1.7311304631e+00
 1.3048292872e+00	 1.3567140916e+00	-1.7782701112e+00
 1.2915467232e+00	 1.3693646910e+00	-1.8225163770e+00
 1.2781434332e+00	 1.3818834825e+00	-1.8630242959e+00
 1.2646213859e+00	 1.3942687494e+00	-1.8989758301e+00
 1.2251019676e+00	 1.3506978509e+00	-1.7986867744e+00
 1.2118893767e+00	 1.3625651009e+00	-1.8265750357e+00
 1.1985656473e+00	 1.3742997871e+00	-1.8612339882e+00
 1.1851327774e+00	 1.3859003627e+00	-1.9011539506e+00
 1.1715927939e+00	 1.3973653212e+00	-1.9445695351e+00
 1.1579477508e+00	 1.4086931965e+00	-1.9871876091e+00
 1.1441997286e+00	 1.4198825644e+00	-2.0269328142e+00
 1.1303508328e+00	 1.4309320425e+00	-2.0626816090e+00
 1.1164031936e+00	 1.4418402911e+00	-2.0934502233e+00
 1.1023589640e+00	 1.4526060134e+00	-2.1183845360e+00
 1.0882203192e+00	 1.4632279564e+00	-2.1367494920e+00
 1.2290539094e+00	 1.3550549408e+00	-1.8053300166e+00
 1.2157986973e+00	 1.3669604722e+00	-1.8339090416e+00
 1.2024319881e+00	 1.3787330122e+00	-1.8690109739e+00
 1.1889557864e+00	 1.3903710091e+00	-1.9091552914e+00
 1.1753721255e+00	 1.4018729512e+00	-1.9528436387e+00
 1.1616830662e+00	 1.4132373681e+00	-1.9963182459e+00
 1.1478906954e+00	 1.4244628307e+00	-2.0366123120e+00
 1.1339971258e+00	 1.4355479523e+00	-2.0726266679e+00
 1.1200044942e+00	 1.4464913888e+00	-2.1034045470e+00
 1.1059149606e+00	 1.4572918392e+00	-2.1281211681e+00
 1.0917307073e+00	 1.4679480466e+00	-2.1460728499e+00
 1.2330058513e+00	 1.3594120306e+00	-1.8127964218e+00
 1.2197080179e+00	 1.3713558435e+00	-1.8420774661e+00
 1.2062983289e+00	 1.3831662373e+00	-1.8776293337e+00
 1.1927787953e+00	 1.3948416554e+00	-1.9180013034e+00
 1.1791514571e+00	 1.4063805813e+00	-1.9617382812e+00
 1.1654183815e+00	 1.4177815397e+00	-2.0060596262e+00
 1.1515816623e+00	 1.4290430971e+00	-2.0469663271e+00
 1.1376434188e+00	 1.4401638622e+00	-2.0833040298e+00
 1.1236057948e+00	 1.4511424865e+00	-2.1141432769e+00
 1.1094709573e+00	 1.4619776651e+00	-2.1386888449e+00
 1.0952410955e+00	 1.4726681368e+00	-2.1562685513e+00
 1.2369577931e+00	 1.3637691205e+00	-1.8210566753e+00
 1.2236173385e+00	 1.3757512147e+00	-1.8510551281e+00
 1.2101646696e+00	 1.3875994624e+00	-1.8870668819e+00
 1.1966018043e+00	 1.3993123017e+00	-1.9276716524e+00
 1.1829307887e+00	 1.4108882114e+00	-1.9714450674e+00
 1.1691536968e+00	 1.4223257113e+00	-2.0163676947e+00
 1.1552726292e+00	 1.4336233634e+00	-2.0579508423e+00
 1.1412897118e+00	 1.4447797720e+00	-2.0946684883e+00
 1.1272070954e+00	 1.4557935842e+00	-2.1256188053e+00
 1.1130269539e+00	 1.4666634909e+00	-2.1500363619e+00
 1.0987514836e+00	 1.4773882270e+00	-2.1672806174e+00
 1.2409097349e+00	 1.3681262103e+00	-1.8300830713e+00
 1.2275266590e+00	 1.3801465860e+00	-1.8608183920e+00
 1.2140310104e+00	 1.3920326876e+00	-1.8973029289e+00
 1.2004248133e+00	 1.4037829481e+00	-1.9381474652e+00
 1.1867101203e+00	 1.4153958414e+00	-1.9819588664e+00
 1.1728890121e+00	 1.4268698829e+00	-2.0271996637e+00
 1.1589635960e+00	 1.4382036298e+00	-2.0695230612e+00
 1.1449360049e+00	 1.4493956818e+00	-2.1066760221e+00
 1.1308083961e+00	 1.4604446819e+00	-2.1377846855e+00
 1.1165829506e+00	 1.4713493168e+00	-2.1621136630e+00
 1.1022618717e+00	 1.4821083171e+00	-2.1790542169e+00
 1.2448616768e+00	 1.3724833002e+00	-1.8398494897e+00
 1.2314359796e+00	 1.3845419573e+00	-1.8713451462e+00
 1.2178973512e+00	 1.3964659127e+00	-1.9083182611e+00
 1.2042478222e+00	 1.4082535944e+00	-1.9494113106e+00
 1.1904894519e+00	 1.4199034715e+00	-1.9932629082e+00
 1.1766243275e+00	 1.4314140545e+00	-2.0385143237e+00
 1.1626545629e+00	 1.4427838961e+00	-2.0816414414e+00
 1.1485822979e+00	 1.4540115916e+00	-2.1192838280e+00
 1.1344096967e+00	 1.4650957796e+00	-2.1505956635e+00
 1.1201389472e+00	 1.4760351426e+00	-2.1748718710e+00
 1.1057722598e+00	 1.4868284073e+00	-2.1915356953e+00
 1.2488136186e+00	 1.3768403900e+00	-1.8503313736e+00
 1.2353453002e+00	 1.3889373286e+00	-1.8826147813e+00
 1.2217636920e+00	 1.4008991378e+00	-1.9200951206e+00
 1.2080708312e+00	 1.4127242407e+00	-1.9614471794e+00
 1.1942687835e+00	 1.4244111016e+00	-2.0053418260e+00
 1.1803596428e+00	 1.4359582261e+00	-2.0504526206e+00
 1.1663455298e+00	 1.4473641624e+00	-2.0942657279e+00
 1.1522285909e+00	 1.4586275014e+00	-2.1324503530e+00
 1.1380109973e+00	 1.4697468774e+00	-2.1640077096e+00
 1.1236949439e+00	 1.4807209685e+00	-2.1882633181e+00
 1.1092826480e+00	 1.4915484975e+00	-2.2046726032e+00
 1.2527655604e+00	 1.3811974798e+00	-1.8615057056e+00
 1.2392546207e+00	 1.3933326999e+00	-1.8946081690e+00
 1.2256300328e+00	 1.4053323629e+00	-1.9326171848e+00
 1.2118938401e+00	 1.4171948871e+00	-1.9742404663e+00
 1.1980481151e+00	 1.4289187316e+00	-2.0181816376e+00
 1.1840949581e+00	 1.4405023977e+00	-2.0631469407e+00
 1.1700364966e+00	 1.4519444288e+00	-2.1073569867e+00
 1.1558748839e+00	 1.4632434112e+00	-2.1461353273e+00
 1.1416122979e+00	 1.4743979751e+00	-2.1779780502e+00
 1.1272509406e+00	 1.4854067943e+00	-2.2022415759e+00
 1.1127930361e+00	 1.4962685877e+00	-2.2184137256e+00
 1.2567175023e+00	 1.3855545697e+00	-1.8733509852e+00
 1.2431639413e+00	 1.3977280712e+00	-1.9073076399e+00
 1.2294963736e+00	 1.4097655880e+00	-1.9458695458e+00
 1.2157168491e+00	 1.4216655334e+00	-1.9877779495e+00
 1.2018274467e+00	 1.4334263617e+00	-2.0317697268e+00
 1.1878302734e+00	 1.4450465693e+00	-2.0765841886e+00
 1.1737274635e+00	 1.4565246951e+00	-2.1208776378e+00
 1.1595211769e+00	 1.4678593210e+00	-2.1602997966e+00
 1.1452135986e+00	 1.4790490728e+00	-2.1924651990e+00
 1.1308069372e+00	 1.4900926202e+00	-2.2167614859e+00
 1.1163034242e+00	 1.5009886779e+00	-2.2327091105e+00
 1.2606694441e+00	 1.3899116595e+00	-1.8858472055e+00
 1.2470732619e+00	 1.4021234425e+00	-1.9206969623e+00
 1.2333627144e+00	 1.4141988132e+00	-1.9598386908e+00
 1.2195398581e+00	 1.4261361797e+00	-2.0020477723e+00
 1.2056067783e+00	 1.4379339918e+00	-2.0460948254e+00
 1.1915655888e+00	 1.4495907409e+00	-2.0907526128e+00
 1.1774184304e+00	 1.4611049614e+00	-2.1348027269e+00
 1.1631674699e+00	 1.4724752309e+00	-2.1749061547e+00
 1.1488148992e+00	 1.4837001705e+00	-2.2074289886e+00
 1.1343629339e+00	 1.4947784460e+00	-2.2317791898e+00
 1.1198138123e+00	 1.5057087681e+00	-2.2475100977e+00
 1.2646213859e+00	 1.3942687494e+00	-1.8989758301e+00
 1.2509825824e+00	 1.4065188138e+00	-1.9347613204e+00
 1.2372290552e+00	 1.4186320383e+00	-1.9745124806e+00
 1.2233628670e+00	 1.4306068261e+00	-2.0170394229e+00
 1.2093861099e+00	 1.4424416218e+00	-2.0611469943e+00
 1.1953009041e+00	 1.4541349125e+00	-2.1056417874e+00
 1.1811093972e+00	 1.4656852278e+00	-2.1493389279e+00
 1.1668137629e+00	 1.4770911407e+00	-2.1899181758e+00
 1.1524161998e+00	 1.4883512682e+00	-2.2228306018e+00
 1.1379189305e+00	 1.4994642719e+00	-2.2472521595e+00
 1.1233242005e+00	 1.5104288582e+00	-2.2627693478e+00
 1.0882203192e+00	 1.4632279564e+00	-2.1367494920e+00
 1.0739894556e+00	 1.4737049111e+00	-2.1496977226e+00
 1.0596685891e+00	 1.4840357128e+00	-2.1590277329e+00
 1.0452599547e+00	 1.4942192418e+00	-2.1651338115e+00
 1.0307658049e+00	 1.5042544236e+00	-2.1685036345e+00
 1.0161884087e+00	 1.5141402292e+00	-2.1697053129e+00
 1.0015300505e+00	 1.5238756752e+00	-2.1693744460e+00
 9.8679302892e-01	 1.5334598246e+00	-2.1682012570e+00
 9.7197965568e-01	 1.5428917864e+00	-2.1669178905e+00
 9.5709225442e-01	 1.5521707162e+00	-2.1662859448e+00
 9.4213315955e-01	 1.5612958161e+00	-2.1670843113e+00
 1.0917307073e+00	 1.4679480466e+00	-2.1460728499e+00
 1.0774539377e+00	 1.4784587979e+00	-2.1585435327e+00
 1.0630868749e+00	 1.4888229248e+00	-2.1674357502e+00
 1.0486317610e+00	 1.4990393039e+00	-2.1731348738e+00
 1.0340908559e+00	 1.5091068573e+00	-2.1761185177e+00
 1.0194664358e+00	 1.5190245525e+00	-2.1769433455e+00
 1.0047607926e+00	 1.5287914032e+00	-2.1762318867e+00
 9.8997623224e-01	 1.5384064692e+00	-2.1746594434e+00
 9.7511507393e-01	 1.5478688567e+00	-2.1729411674e+00
 9.6017964879e-01	 1.5571777185e+00	-2.1718193810e+00
 9.4517229877e-01	 1.5663322542e+00	-2.1720512171e+00
 1.0952410955e+00	 1.4726681368e+00	-2.1562685513e+00
 1.0809184198e+00	 1.4832126847e+00	-2.1682892130e+00
 1.0665051606e+00	 1.4936101368e+00	-2.1767497744e+00
 1.0520035673e+00	 1.5038593660e+00	-2.1820281085e+00
 1.0374159069e+00	 1.5139592909e+00	-2.1845933735e+00
 1.0227444629e+00	 1.5239088758e+00	-2.1849925699e+00
 1.0079915347e+00	 1.5337071312e+00	-2.1838371127e+00
 9.9315943556e-01	 1.5433531138e+00	-2.1817895006e+00
 9.7825049217e-01	 1.5528459269e+00	-2.1795501638e+00
 9.6326704316e-01	 1.5621847208e+00	-2.1778445657e+00
 9.4821143799e-01	 1.5713686923e+00	-2.1774106347e+00
 1.0987514836e+00	 1.4773882270e+00	-2.1672806174e+00
 1.0843829019e+00	 1.4879665715e+00	-2.1788741835e+00
 1.0699234464e+00	 1.4983973487e+00	-2.1869061391e+00
 1.0553753736e+00	 1.5086794280e+00	-2.1917482829e+00
 1.0407409578e+00	 1.5188117245e+00	-2.1938629274e+00
 1.0260224901e+00	 1.5287931991e+00	-2.1937891976e+00
 1.0112222768e+00	 1.5386228592e+00	-2.1921293511e+00
 9.9634263888e-01	 1.5482997584e+00	-2.1895352016e+00
 9.8138591042e-01	 1.5578229972e+00	-2.1866947284e+00
 9.6635443753e-01	 1.5671917231e+00	-2.1843189512e+00
 9.5125057722e-01	 1.5764051304e+00	-2.1831291445e+00
 1.1022618717e+00	 1.4821083171e+00	-2.1790542169e+00
 1.0878473840e+00	 1.4927204583e+00	-2.1902390057e+00
 1.0733417322e+00	 1.5031845607e+00	-2.1978422914e+00
 1.0587471799e+00	 1.5134994901e+00	-2.2022312287e+00
 1.0440660088e+00	 1.5236641581e+00	-2.2038628988e+00
 1.0293005172e+00	 1.5336775225e+00	-2.2032703428e+00
 1.0144530189e+00	 1.5435385872e+00	-2.2010486204e+00
 9.9952584220e-01	 1.5532464030e+00	-2.1978409794e+00
 9.8452132866e-01	 1.5628000675e+00	-2.1943252193e+00
 9.6944183189e-01	 1.5721987254e+00	-2.1912003290e+00
 9.5428971644e-01	 1.5814415685e+00	-2.1891734768e+00
 1.1057722598e+00	 1.4868284073e+00	-2.1915356953e+00
 1.0913118661e+00	 1.4974743451e+00	-2.2023254100e+00
 1.0767600179e+00	 1.5079717727e+00	-2.2094968185e+00
 1.0621189862e+00	 1.5183195522e+00	-2.2134138673e+00
 1.0473910598e+00	 1.5285165918e+00	-2.2145300263e+00
 1.0325785443e+00	 1.5385618458e+00	-2.2133740475e+00
 1.0176837610e+00	 1.5484543151e+00	-2.2105357553e+00
 1.0027090455e+00	 1.5581930476e+00	-2.2066519525e+00
 9.8765674690e-01	 1.5677771378e+00	-2.2023925292e+00
 9.7252922626e-01	 1.5772057277e+00	-2.1984468563e+00
 9.5732885567e-01	 1.5864780066e+00	-2.1955105406e+00
 1.1092826480e+00	 1.4915484975e+00	-2.2046726032e+00
 1.0947763482e+00	 1.5022282319e+00	-2.2150763235e+00
 1.0801783037e+00	 1.5127589847e+00	-2.2218094740e+00
 1.0654907925e+00	 1.5231396143e+00	-2.2252342357e+00
 1.0507161108e+00	 1.5333690254e+00	-2.2258020921e+00
 1.0358565714e+00	 1.5434461691e+00	-2.2240393060e+00
 1.0209145031e+00	 1.5533700431e+00	-2.2205324316e+00
 1.0058922488e+00	 1.5631396922e+00	-2.2159139493e+00
 9.9079216515e-01	 1.5727542081e+00	-2.2108481119e+00
 9.7561662063e-01	 1.5822127300e+00	-2.2060170832e+00
 9.6036799489e-01	 1.5915144448e+00	-2.2021074515e+00
 1.1127930361e+00	 1.4962685877e+00	-2.2184137256e+00
 1.0982408304e+00	 1.5069821187e+00	-2.2284358970e+00
 1.0835965895e+00	 1.5175461966e+00	-2.2347212041e+00
 1.0688625988e+00	 1.5279596763e+00	-2.2376315115e+00
 1.0540411618e+00	 1.5382214590e+00	-2.2376179474e+00
 1.0391345986e+00	 1.5483304924e+00	-2.2352060894e+00
 1.0241452452e+00	 1.5582857711e+00	-2.2309811906e+00
 1.0090754522e+00	 1.5680863368e+00	-2.2255735341e+00
 9.9392758339e-01	 1.5777312783e+00	-2.2196440074e+00
 9.7870401500e-01	 1.5872197323e+00	-2.2138699789e+00
 9.6340713412e-01	 1.5965508829e+00	-2.2089315592e+00
 1.1163034242e+00	 1.5009886779e+00	-2.2327091105e+00
 1.1017053125e+00	 1.5117360056e+00	-2.2423495326e+00
 1.0870148753e+00	 1.5223334086e+00	-2.2481741739e+00
 1.0722344051e+00	 1.5327797384e+00	-2.2505460388e+00
 1.0573662128e+00	 1.5430738926e+00	-2.2499175372e+00
 1.0424126257e+00	 1.5532148157e+00	-2.2468153708e+00
 1.0273759873e+00	 1.5632014991e+00	-2.2418254641e+00
 1.0122586555e+00	 1.5730329814e+00	-2.2355780312e+00
 9.9706300164e-01	 1.5827083486e+00	-2.2287328681e+00
 9.8179140937e-01	 1.5922267346e+00	-2.2219649586e+00
 9.6644627334e-01	 1.6015873210e+00	-2.2159504757e+00
 1.1198138123e+00	 1.5057087681e+00	-2.2475100977e+00
 1.1051697946e+00	 1.5164898924e+00	-2.2567639113e+00
 1.0904331610e+00	 1.5271206206e+00	-2.2621117937e+00
 1.0756062114e+00	 1.5375998005e+00	-2.2639193533e+00
 1.0606912637e+00	 1.5479263263e+00	-2.2626419250e+00
 1.0456906528e+00	 1.5580991391e+00	-2.2588091492e+00
 1.0306067294e+00	 1.5681172271e+00	-2.2530095994e+00
 1.0154418588e+00	 1.5779796260e+00	-2.2458755508e+00
 1.0001984199e+00	 1.5876854189e+00	-2.2380679839e+00
 9.8487880374e-01	 1.5972337370e+00	-2.2302619098e+00
 9.6948541256e-01	 1.6066237591e+00	-2.2231321027e+00
 1.1233242005e+00	 1.5104288582e+00	-2.2627693478e+00
 1.1086342767e+00	 1.5212437792e+00	-2.2716270199e+00
 1.0938514468e+00	 1.5319078326e+00	-2.2764787455e+00
 1.0789780178e+00	 1.5424198625e+00	-2.2776942081e+00
 1.0640163147e+00	 1.5527787599e+00	-2.2757333181e+00
 1.0489686799e+00	 1.5629834624e+00	-2.2711304751e+00
 1.0338374715e+00	 1.5730329551e+00	-2.2644788832e+00
 1.0186250621e+00	 1.5829262705e+00	-2.2564150133e+00
 1.0033338381e+00	 1.5926624892e+00	-2.2476033082e+00
 9.8796619811e-01	 1.6022407393e+00	-2.2387212189e+00
 9.7252455179e-01	 1.6116601972e+00	-2.2304446591e+00
 9.4213315955e-01	 1.5612958161e+00	-2.1670843113e+00
 9.2710471512e-01	 1.5702663350e+00	-2.1640824396e+00
 9.1200927367e-01	 1.5790815686e+00	-2.1522903070e+00
 8.9684919507e-01	 1.5877408595e+00	-2.1328393226e+00
 8.8162684538e-01	 1.5962435970e+00	-2.1068336246e+00
 8.6634459571e-01	 1.6045892175e+00	-2.0753400569e+00
 8.5100482109e-01	 1.6127772041e+00	-2.0393788035e+00
 8.3560989935e-01	 1.6208070865e+00	-1.9999147227e+00
 8.2016220995e-01	 1.6286784412e+00	-1.9578494177e+00
 8.0466413296e-01	 1.6363908912e+00	-1.9140140730e+00
 7.8911804786e-01	 1.6439441055e+00	-1.8691630838e+00
 9.4517229877e-01	 1.5663322542e+00	-2.1720512171e+00
 9.3009537549e-01	 1.5753317103e+00	-2.1683864447e+00
 9.1495123907e-01	 1.5841753801e+00	-2.1558428358e+00
 8.9974225699e-01	 1.5928626042e+00	-2.1355696775e+00
 8.8447080294e-01	 1.6013927699e+00	-2.1086893259e+00
 8.6913925569e-01	 1.6097653118e+00	-2.0762869519e+00
 8.5374999793e-01	 1.6179797112e+00	-2.0394009596e+00
 8.3830541515e-01	 1.6260354965e+00	-1.9990141184e+00
 8.2280789450e-01	 1.6339322427e+00	-1.9560454466e+00
 8.0725982371e-01	 1.6416695715e+00	-1.9113428779e+00
 7.9166358995e-01	 1.6492471510e+00	-1.8656767365e+00
 9.4821143799e-01	 1.5713686923e+00	-2.1774106347e+00
 9.3308603586e-01	 1.5803970855e+00	-2.1729957158e+00
 9.1789320446e-01	 1.5892691916e+00	-2.1596389288e+00
 9.0263531891e-01	 1.5979843489e+00	-2.1385041508e+00
 8.8731476051e-01	 1.6065419428e+00	-2.1107281584e+00
 8.7193391568e-01	 1.6149414060e+00	-2.0774101499e+00
 8.5649517478e-01	 1.6231822183e+00	-2.0396019541e+00
 8.4100093095e-01	 1.6312639064e+00	-1.9982989687e+00
 8.2545357905e-01	 1.6391860441e+00	-1.9544318658e+00
 8.0985551446e-01	 1.6469482518e+00	-1.9088590979e+00
 7.9420913204e-01	 1.6545501965e+00	-1.8623602294e+00
 9.5125057722e-01	 1.5764051304e+00	-2.1831291445e+00
 9.3607669623e-01	 1.5854624608e+00	-2.1778845657e+00
 9.2083516986e-01	 1.5943630031e+00	-2.1636563549e+00
 9.0552838083e-01	 1.6031060936e+00	-2.1416197461e+00
 8.9015871807e-01	 1.6116911157e+00	-2.1129221963e+00
 8.7472857567e-01	 1.6201175003e+00	-2.0786726909e+00
 8.5924035162e-01	 1.6283847254e+00	-2.0399317495e+00
 8.4369644676e-01	 1.6364923164e+00	-1.9977021787e+00
 8.2809926360e-01	 1.6444398455e+00	-1.9529206087e+00
 8.1245120522e-01	 1.6522269321e+00	-1.9064498474e+00
 7.9675467413e-01	 1.6598532420e+00	-1.8590720794e+00
 9.5428971644e-01	 1.5814415685e+00	-2.1891734768e+00
 9.3906735660e-01	 1.5905278361e+00	-2.1830272877e+00
 9.2377713526e-01	 1.5994568147e+00	-2.1678727499e+00
 9.0842144274e-01	 1.6082278383e+00	-2.1448932756e+00
 8.9300267564e-01	 1.6168402886e+00	-2.1152433195e+00
 8.7752323565e-01	 1.6252935945e+00	-2.0800374722e+00
 8.6198552846e-01	 1.6335872325e+00	-2.0403402717e+00
 8.4639196256e-01	 1.6417207263e+00	-1.9971567770e+00
 8.3074494815e-01	 1.6496936469e+00	-1.9514239452e+00
 8.1504689597e-01	 1.6575056123e+00	-1.9040028431e+00
 7.9930021622e-01	 1.6651562875e+00	-1.8556717232e+00
 9.5732885567e-01	 1.5864780066e+00	-2.1955105406e+00
 9.4205801697e-01	 1.5955932114e+00	-2.1883981846e+00
 9.2671910066e-01	 1.6045506262e+00	-2.1722656453e+00
 9.1131450466e-01	 1.6133495830e+00	-2.1483013886e+00
 8.9584663320e-01	 1.6219894615e+00	-2.1176632400e+00
 8.8031789564e-01	 1.6304696888e+00	-2.0814672729e+00
 8.6473070530e-01	 1.6387897396e+00	-2.0407774310e+00
 8.4908747837e-01	 1.6469491363e+00	-1.9965959323e+00
 8.3339063270e-01	 1.6549474483e+00	-1.9498544936e+00
 8.1764258672e-01	 1.6627842926e+00	-1.9014064098e+00
 8.0184575831e-01	 1.6704593330e+00	-1.8520195169e+00
 9.6036799489e-01	 1.5915144448e+00	-2.2021074515e+00
 9.4504867734e-01	 1.6006585866e+00	-2.1939715980e+00
 9.2966106606e-01	 1.6096444377e+00	-2.1768124977e+00
 9.1420756658e-01	 1.6184713277e+00	-2.1518205995e+00
 8.9869059077e-01	 1.6271386344e+00	-2.1201535292e+00
 8.8311255563e-01	 1.6356457830e+00	-2.0829247779e+00
 8.6747588215e-01	 1.6439922468e+00	-2.0411931435e+00
 8.5178299417e-01	 1.6521775463e+00	-1.9959529707e+00
 8.3603631724e-01	 1.6602012498e+00	-1.9481252329e+00
 8.2023827747e-01	 1.6680629729e+00	-1.8985494875e+00
 8.0439130040e-01	 1.6757623785e+00	-1.8479767368e+00
 9.6340713412e-01	 1.5965508829e+00	-2.2089315592e+00
 9.4803933772e-01	 1.6057239619e+00	-2.1997219369e+00
 9.3260303146e-01	 1.6147382492e+00	-2.1814907176e+00
 9.1710062850e-01	 1.6235930724e+00	-2.1554273162e+00
 9.0153454834e-01	 1.6322878073e+00	-2.1226856438e+00
 8.8590721561e-01	 1.6408218773e+00	-2.0843726027e+00
 8.7022105899e-01	 1.6491947539e+00	-2.0415373518e+00
 8.5447850998e-01	 1.6574059562e+00	-1.9951613927e+00
 8.3868200179e-01	 1.6654550512e+00	-1.9461495149e+00
 8.2283396822e-01	 1.6733416532e+00	-1.8953216382e+00
 8.0693684249e-01	 1.6810654240e+00	-1.8434055792e+00
 9.6644627334e-01	 1.6015873210e+00	-2.2159504757e+00
 9.5102999809e-01	 1.6107893372e+00	-2.2056237064e+00
 9.3554499686e-01	 1.6198320607e+00	-2.1862776981e+00
 9.1999369042e-01	 1.6287148171e+00	-2.1590978680e+00
 9.0437850590e-01	 1.6374369802e+00	-2.1252309531e+00
 8.8870187560e-01	 1.6459979715e+00	-2.0857733167e+00
 8.7296623583e-01	 1.6543972610e+00	-2.0417600462e+00
 8.5717402578e-01	 1.6626343662e+00	-1.9941548900e+00
 8.4132768634e-01	 1.6707088526e+00	-1.9438410771e+00
 8.2542965897e-01	 1.6786203335e+00	-1.8916130525e+00
 8.0948238458e-01	 1.6863684695e+00	-1.8381691617e+00
 9.6948541256e-01	 1.6066237591e+00	-2.2231321027e+00
 9.5402065846e-01	 1.6158547124e+00	-2.2116515362e+00
 9.3848696226e-01	 1.6249258722e+00	-2.1911508436e+00
 9.2288675234e-01	 1.6338365619e+00	-2.1628085336e+00
 9.0722246347e-01	 1.6425861531e+00	-2.1277607644e+00
 8.9149653558e-01	 1.6511740658e+00	-2.0870894679e+00
 8.7571141267e-01	 1.6595997681e+00	-2.0418112851e+00
 8.5986954158e-01	 1.6678627761e+00	-1.9928673631e+00
 8.4397337089e-01	 1.6759626540e+00	-1.9411140542e+00
 8.2802534972e-01	 1.6838990138e+00	-1.8873145565e+00
 8.1202792667e-01	 1.6916715150e+00	-1.8321315236e+00
 9.7252455179e-01	 1.6116601972e+00	-2.2304446591e+00
 9.5701131883e-01	 1.6209200877e+00	-2.2177802090e+00
 9.4142892766e-01	 1.6300196837e+00	-2.1960875981e+00
 9.2577981426e-01	 1.6389583066e+00	-2.1665355685e+00
 9.1006642103e-01	 1.6477353260e+00	-2.1302463497e+00
 8.9429119557e-01	 1.6563501600e+00	-2.0882836060e+00
 8.7845658951e-01	 1.6648022752e+00	-2.0416412165e+00
 8.6256505739e-01	 1.6730911861e+00	-1.9912329374e+00
 8.4661905544e-01	 1.6812164555e+00	-1.9378829914e+00
 8.3062104048e-01	 1.6891776941e+00	-1.8823176195e+00
 8.1457346876e-01	 1.6969745605e+00	-1.8251576276e+00
 7.8911804786e-01	 1.6439441055e+00	-1.8691630838e+00
 7.7352633251e-01	 1.6513377996e+00	-1.8223502502e+00
 7.5789136205e-01	 1.6585717346e+00	-1.7726445719e+00
 7.4221550783e-01	 1.6656457173e+00	-1.7206886137e+00
 7.2650113635e-01	 1.6725595997e+00	-1.6670244635e+00
 7.1075060825e-01	 1.6793132788e+00	-1.6120915413e+00
 6.9496627722e-01	 1.6859066964e+00	-1.5562252501e+00
 6.7915048906e-01	 1.6923398384e+00	-1.4996564559e+00
 6.6330558064e-01	 1.6986127346e+00	-1.4425117801e+00
 6.4743387895e-01	 1.7047254582e+00	-1.3848146857e+00
 6.3153770011e-01	 1.7106781255e+00	-1.3264873292e+00
 7.9166358995e-01	 1.6492471510e+00	-1.8656767365e+00
 7.7602157875e-01	 1.6566646958e+00	-1.8180753155e+00
 7.6033617290e-01	 1.6639219660e+00	-1.7675740021e+00
 7.4460975140e-01	 1.6710187680e+00	-1.7148151110e+00
 7.2884468841e-01	 1.6779549532e+00	-1.6603360302e+00
 7.1304335214e-01	 1.6847304184e+00	-1.6045670256e+00
 6.9720810392e-01	 1.6913451051e+00	-1.5478299074e+00
 6.8134129709e-01	 1.6977989992e+00	-1.4903375472e+00
 6.6544527606e-01	 1.7040921306e+00	-1.4321942281e+00
 6.4952237533e-01	 1.7102245726e+00	-1.3733968076e+00
 6.3357491850e-01	 1.7161964420e+00	-1.3138366670e+00
 7.9420913204e-01	 1.6545501965e+00	-1.8623602294e+00
 7.7851682498e-01	 1.6619915919e+00	-1.8139224761e+00
 7.6278098374e-01	 1.6692721974e+00	-1.7625464951e+00
 7.4700399498e-01	 1.6763918187e+00	-1.7088895339e+00
 7.3118824046e-01	 1.6833503068e+00	-1.6535001473e+00
 7.1533609604e-01	 1.6901475580e+00	-1.5968159635e+00
 6.9944993062e-01	 1.6967835138e+00	-1.5391623343e+00
 6.8353210512e-01	 1.7032581600e+00	-1.4807518565e+00
 6.6758497148e-01	 1.7095715265e+00	-1.4216847463e+00
 6.5161087172e-01	 1.7157236870e+00	-1.3619500472e+00
 6.3561213689e-01	 1.7217147585e+00	-1.3014276427e+00
 7.9675467413e-01	 1.6598532420e+00	-1.8590720794e+00
 7.8101207121e-01	 1.6673184880e+00	-1.8097238266e+00
 7.6522579459e-01	 1.6746224288e+00	-1.7573757000e+00
 7.4939823855e-01	 1.6817648694e+00	-1.7027149018e+00
 7.3353179251e-01	 1.6887456603e+00	-1.6463168517e+00
 7.1762883994e-01	 1.6955646977e+00	-1.5886428840e+00
 7.0169175732e-01	 1.7022219225e+00	-1.5300388485e+00
 6.8572291314e-01	 1.7087173208e+00	-1.4707346031e+00
 6.6972466690e-01	 1.7150509224e+00	-1.4108443810e+00
 6.5369936810e-01	 1.7212228014e+00	-1.3503680098e+00
 6.3764935527e-01	 1.7272330751e+00	-1.2891929561e+00
 7.9930021622e-01	 1.6651562875e+00	-1.8556717232e+00
 7.8350731745e-01	 1.6726453841e+00	-1.8053126754e+00
 7.6767060543e-01	 1.6799726602e+00	-1.7518766767e+00
 7.5179248212e-01	 1.6871379201e+00	-1.6960957454e+00
 7.3587534456e-01	 1.6941410139e+00	-1.6385877000e+00
 7.1992158384e-01	 1.7009818373e+00	-1.5798537537e+00
 7.0393358402e-01	 1.7076603312e+00	-1.5202770346e+00
 6.8791372117e-01	 1.7141764815e+00	-1.4601220171e+00
 6.7186436233e-01	 1.7205303183e+00	-1.3995348492e+00
 6.5578786448e-01	 1.7267219158e+00	-1.3385445509e+00
 6.3968657366e-01	 1.7327513916e+00	-1.2770650571e+00
 8.0184575831e-01	 1.6704593330e+00	-1.8520195169e+00
 7.8600256368e-01	 1.6779722803e+00	-1.8005235382e+00
 7.7011541628e-01	 1.6853228916e+00	-1.7458658842e+00
 7.5418672570e-01	 1.6925109708e+00	-1.6888380937e+00
 7.3821889662e-01	 1.6995363674e+00	-1.6301157540e+00
 7.2221432773e-01	 1.7063989769e+00	-1.5702559621e+00
 7.0617541072e-01	 1.7130987399e+00	-1.5096957311e+00
 6.9010452920e-01	 1.7196356423e+00	-1.4487513290e+00
 6.7400405775e-01	 1.7260097142e+00	-1.3876185330e+00
 6.5787636087e-01	 1.7322210301e+00	-1.3263737754e+00
 6.4172379205e-01	 1.7382697081e+00	-1.2649761529e+00
 8.0439130040e-01	 1.6757623785e+00	-1.8479767368e+00
 7.8849780992e-01	 1.6832991764e+00	-1.7951921325e+00
 7.7256022712e-01	 1.6906731230e+00	-1.7391611712e+00
 7.5658096927e-01	 1.6978840215e+00	-1.6807494603e+00
 7.4056244867e-01	 1.7049317210e+00	-1.6207055659e+00
 7.2450707163e-01	 1.7118161165e+00	-1.5596583071e+00
 7.0841723742e-01	 1.7185371486e+00	-1.4981150176e+00
 6.9229533723e-01	 1.7250948031e+00	-1.4364607596e+00
 6.7614375317e-01	 1.7314891101e+00	-1.3749584733e+00
 6.5996485725e-01	 1.7377201445e+00	-1.3137500375e+00
 6.4376101044e-01	 1.7437880247e+00	-1.2528582144e+00
 8.0693684249e-01	 1.6810654240e+00	-1.8434055792e+00
 7.9099305615e-01	 1.6886260725e+00	-1.7891553725e+00
 7.7500503797e-01	 1.6960233544e+00	-1.7315817659e+00
 7.5897521285e-01	 1.7032570722e+00	-1.6716388315e+00
 7.4290600072e-01	 1.7103270745e+00	-1.6101631645e+00
 7.2679981553e-01	 1.7172332561e+00	-1.5478709810e+00
 7.1065906412e-01	 1.7239755573e+00	-1.4853562020e+00
 6.9448614526e-01	 1.7305539638e+00	-1.4230895106e+00
 6.7828344859e-01	 1.7369685061e+00	-1.3614183647e+00
 6.6205335364e-01	 1.7432192589e+00	-1.3005679412e+00
 6.4579822882e-01	 1.7493063412e+00	-1.2406429833e+00
 8.0948238458e-01	 1.6863684695e+00	-1.8381691617e+00
 7.9348830238e-01	 1.6939529687e+00	-1.7822513631e+00
 7.7744984881e-01	 1.7013735858e+00	-1.7229482668e+00
 7.6136945642e-01	 1.7086301229e+00	-1.6613166534e+00
 7.4524955278e-01	 1.7157224280e+00	-1.5982960417e+00
 7.2909255943e-01	 1.7226503957e+00	-1.5347055576e+00
 7.1290089082e-01	 1.7294139660e+00	-1.4712418090e+00
 6.9667695329e-01	 1.7360131246e+00	-1.4084777552e+00
 6.8042314401e-01	 1.7424479020e+00	-1.3468625504e+00
 6.6414185002e-01	 1.7487183733e+00	-1.2867223399e+00
 6.4783544721e-01	 1.7548246577e+00	-1.2282619785e+00
 8.1202792667e-01	 1.6916715150e+00	-1.8321315236e+00
 7.9598354862e-01	 1.6992798648e+00	-1.7743193963e+00
 7.7989465966e-01	 1.7067238172e+00	-1.7130826339e+00
 7.6376369999e-01	 1.7140031736e+00	-1.6495948208e+00
 7.4759310483e-01	 1.7211177816e+00	-1.5849131393e+00
 7.3138530332e-01	 1.7280675353e+00	-1.5199749783e+00
 7.1514271752e-01	 1.7348523747e+00	-1.4555955680e+00
 6.9886776132e-01	 1.7414722854e+00	-1.3924666291e+00
 6.8256283943e-01	 1.7479272979e+00	-1.3311560169e+00
 6.6623034640e-01	 1.7542174877e+00	-1.2721083369e+00
 6.4987266560e-01	 1.7603429743e+00	-1.2156465029e+00
 8.1457346876e-01	 1.6969745605e+00	-1.8251576276e+00
 7.9847879485e-01	 1.7046067609e+00	-1.7651999459e+00
 7.8233947050e-01	 1.7120740486e+00	-1.7018081798e+00
 7.6615794357e-01	 1.7193762243e+00	-1.6362866657e+00
 7.4993665688e-01	 1.7265131351e+00	-1.5698248367e+00
 7.3367804722e-01	 1.7334846749e+00	-1.5034935403e+00
 7.1738454422e-01	 1.7402907834e+00	-1.4382424019e+00
 7.0105856935e-01	 1.7469314461e+00	-1.3748982221e+00
 6.8470253485e-01	 1.7534066938e+00	-1.3141643898e+00
 6.6831884279e-01	 1.7597166021e+00	-1.2566212859e+00
 6.5190988399e-01	 1.7658612908e+00	-1.2025795669e+00
 6.3153770011e-01	 1.7106781255e+00	-1.3264873292e+00
 6.1561934847e-01	 1.7164708950e+00	-1.2645489124e+00
 5.9968111563e-01	 1.7221039676e+00	-1.1962259436e+00
 5.8372527962e-01	 1.7275775854e+00	-1.1220887660e+00
 5.6775410393e-01	 1.7328920316e+00	-1.0500352335e+00
 5.5176983672e-01	 1.7380476296e+00	-9.8248399091e-01
 5.3577470994e-01	 1.7430447429e+00	-9.1889602935e-01
 5.1977093854e-01	 1.7478837739e+00	-8.5876500319e-01
 5.0376071965e-01	 1.7525651637e+00	-8.0162065299e-01
 4.8774623181e-01	 1.7570893913e+00	-7.4703190893e-01
 4.7172963426e-01	 1.7614569730e+00	-6.9460967412e-01
 6.3357491850e-01	 1.7161964420e+00	-1.3138366670e+00
 6.1760521733e-01	 1.7220078979e+00	-1.2506995096e+00
 6.0161557084e-01	 1.7276591417e+00	-1.1814451804e+00
 5.8560826439e-01	 1.7331504163e+00	-1.1064095078e+00
 5.6958556878e-01	 1.7384820059e+00	-1.0328434791e+00
 5.5354973942e-01	 1.7436542349e+00	-9.6430709675e-01
 5.3750301546e-01	 1.7486674679e+00	-9.0033800088e-01
 5.2144761899e-01	 1.7535221086e+00	-8.4050958090e-01
 5.0538575423e-01	 1.7582185997e+00	-7.8443428019e-01
 4.8931960676e-01	 1.7627574216e+00	-7.3176657568e-01
 4.7325134275e-01	 1.7671390923e+00	-6.8137275564e-01
 6.3561213689e-01	 1.7217147585e+00	-1.3014276427e+00
 6.1959108620e-01	 1.7275449008e+00	-1.2375040818e+00
 6.0355002605e-01	 1.7332143157e+00	-1.1678791061e+00
 5.8749124916e-01	 1.7387232472e+00	-1.0927917134e+00
 5.7141703363e-01	 1.7440719802e+00	-1.0185050298e+00
 5.5532964212e-01	 1.7492608401e+00	-9.4984945802e-01
 5.3923132098e-01	 1.7542901929e+00	-8.8641498134e-01
 5.2312429944e-01	 1.7591604434e+00	-8.2782989425e-01
 5.0701078881e-01	 1.7638720357e+00	-7.7376402986e-01
 4.9089298170e-01	 1.7684254519e+00	-7.2201624214e-01
 4.7477305125e-01	 1.7728212115e+00	-6.6883982494e-01
 6.3764935527e-01	 1.7272330751e+00	-1.2891929561e+00
 6.2157695506e-01	 1.7330819037e+00	-1.2249335333e+00
 6.0548448127e-01	 1.7387694898e+00	-1.1555287993e+00
 5.8937423393e-01	 1.7442960781e+00	-1.0812273725e+00
 5.7324849848e-01	 1.7496619544e+00	-1.0070561863e+00
 5.5710954482e-01	 1.7548674454e+00	-9.3915573214e-01
 5.4095962649e-01	 1.7599129178e+00	-8.7717269215e-01
 5.2480097989e-01	 1.7647987781e+00	-8.2076452429e-01
 5.0863582339e-01	 1.7695254717e+00	-7.6647660317e-01
 4.9246635664e-01	 1.7740934822e+00	-7.1135013280e-01
 4.7629475975e-01	 1.7785033308e+00	-6.5553753811e-01
 6.3968657366e-01	 1.7327513916e+00	-1.2770650571e+00
 6.2356282393e-01	 1.7386189065e+00	-1.2129580356e+00
 6.0741893648e-01	 1.7443246639e+00	-1.1443942295e+00
 5.9125721871e-01	 1.7498689091e+00	-1.0716219232e+00
 5.7507996333e-01	 1.7552519287e+00	-9.9853153811e-01
 5.5888944752e-01	 1.7604740507e+00	-9.3226883045e-01
 5.4268793201e-01	 1.7655356428e+00	-8.7256496541e-01
 5.2647766033e-01	 1.7704371129e+00	-8.1497045942e-01
 5.1026085797e-01	 1.7751789077e+00	-7.5717851954e-01
 4.9403973158e-01	 1.7797615125e+00	-6.9928425107e-01
 4.7781646825e-01	 1.7841854501e+00	-6.4147917274e-01
 6.4172379205e-01	 1.7382697081e+00	-1.2649761529e+00
 6.2554869280e-01	 1.7441559094e+00	-1.2015470404e+00
 6.0935339169e-01	 1.7498798380e+00	-1.1344742752e+00
 5.9314020348e-01	 1.7554417400e+00	-1.0639838599e+00
 5.7691142818e-01	 1.7608419030e+00	-9.9296398213e-01
 5.6066935021e-01	 1.7660806559e+00	-9.2898779068e-01
 5.4441623752e-01	 1.7711583678e+00	-8.6746102993e-01
 5.2815434078e-01	 1.7760754477e+00	-8.0640952717e-01
 5.1188589255e-01	 1.7808323437e+00	-7.4583968529e-01
 4.9561310652e-01	 1.7854295427e+00	-6.8586061155e-01
 4.7933817674e-01	 1.7898675693e+00	-6.2667806516e-01
 6.4376101044e-01	 1.7437880247e+00	-1.2528582144e+00
 6.2753456166e-01	 1.7496929123e+00	-1.1906692936e+00
 6.1128784690e-01	 1.7554350121e+00	-1.1257667428e+00
 5.9502318825e-01	 1.7610145709e+00	-1.0583325526e+00
 5.7874289304e-01	 1.7664318773e+00	-9.9001221715e-01
 5.6244925291e-01	 1.7716872612e+00	-9.2384797560e-01
 5.4614454304e-01	 1.7767810928e+00	-8.5893537376e-01
 5.2983102123e-01	 1.7817137824e+00	-7.9516199583e-01
 5.1351092713e-01	 1.7864857797e+00	-7.3252421375e-01
 4.9718648146e-01	 1.7910975730e+00	-6.7112095577e-01
 4.8085988524e-01	 1.7955496886e+00	-6.1114761525e-01
 6.4579822882e-01	 1.7493063412e+00	-1.2406429833e+00
 6.2952043053e-01	 1.7552299152e+00	-1.1802928483e+00
 6.1322230211e-01	 1.7609901862e+00	-1.1182683842e+00
 5.9690617303e-01	 1.7665874018e+00	-1.0542549193e+00
 5.8057435789e-01	 1.7720218516e+00	-9.8414733881e-01
 5.6422915561e-01	 1.7772938664e+00	-9.1464203417e-01
 5.4787284856e-01	 1.7824038177e+00	-8.4707717439e-01
 5.3150770167e-01	 1.7873521172e+00	-7.8130744196e-01
 5.1513596171e-01	 1.7921392158e+00	-7.1729570131e-01
 4.9875985640e-01	 1.7967656033e+00	-6.5510676264e-01
 4.8238159374e-01	 1.8012318079e+00	-5.9490129100e-01
 6.4783544721e-01	 1.7548246577e+00	-1.2282619785e+00
 6.3150629939e-01	 1.7607669181e+00	-1.1703850775e+00
 6.1515675732e-01	 1.7665453603e+00	-1.1115744986e+00
 5.9878915780e-01	 1.7721602327e+00	-1.0463130965e+00
 5.8240582274e-01	 1.7776118259e+00	-9.7358526008e-01
 5.6600905831e-01	 1.7829004717e+00	-9.0146135608e-01
 5.4960115407e-01	 1.7880265427e+00	-8.3197484539e-01
 5.3318438212e-01	 1.7929904519e+00	-7.6492476835e-01
 5.1676099629e-01	 1.7977926518e+00	-7.0021724211e-01
 5.0033323134e-01	 1.8024336336e+00	-6.3785925866e-01
 4.8390330224e-01	 1.8069139271e+00	-5.7795263320e-01
 6.4987266560e-01	 1.7603429743e+00	-1.2156465029e+00
 6.3349216826e-01	 1.7663039210e+00	-1.1606197397e+00
 6.1709121254e-01	 1.7721005344e+00	-1.1004308755e+00
 6.0067214257e-01	 1.7777330637e+00	-1.0329235236e+00
 5.8423728759e-01	 1.7832018002e+00	-9.5841290876e-01
 5.6778896101e-01	 1.7885070769e+00	-8.8439658137e-01
 5.5132945959e-01	 1.7936492677e+00	-8.1371605591e-01
 5.3486106257e-01	 1.7986287867e+00	-7.4609222163e-01
 5.1838603087e-01	 1.8034460878e+00	-6.8135144248e-01
 5.0190660629e-01	 1.8081016639e+00	-6.1941942804e-01
 4.8542501073e-01	 1.8125960464e+00	-5.6031525996e-01
 6.5190988399e-01	 1.7658612908e+00	-1.2025795669e+00
 6.3547803713e-01	 1.7718409239e+00	-1.1460225300e+00
 6.1902566775e-01	 1.7776557085e+00	-1.0832625276e+00
 6.0255512735e-01	 1.7833058946e+00	-1.0141664605e+00
 5.8606875244e-01	 1.7887917745e+00	-9.3871656278e-01
 5.6956886371e-01	 1.7941136822e+00	-8.6353762023e-01
 5.5305776510e-01	 1.7992719927e+00	-7.9238774989e-01
 5.3653774301e-01	 1.8042671214e+00	-7.2488740965e-01
 5.2001106545e-01	 1.8090995238e+00	-6.6076043521e-01
 5.0347998123e-01	 1.8137696942e+00	-5.9982802259e-01
 4.8694671923e-01	 1.8182781657e+00	-5.4200287119e-01
 4.7172963426e-01	 1.7614569730e+00	-6.9460967412e-01
 4.5571306614e-01	 1.7656684618e+00	-6.4617327242e-01
 4.3969864587e-01	 1.7697244465e+00	-6.0024695984e-01
 4.2368847042e-01	 1.7736255511e+00	-5.5511128176e-01
 4.0768461467e-01	 1.7773724344e+00	-5.1058585920e-01
 3.9168913077e-01	 1.7809657887e+00	-4.6653893535e-01
 3.7570404756e-01	 1.7844063394e+00	-4.2288363945e-01
 3.5973136996e-01	 1.7876948445e+00	-3.7957440077e-01
 3.4377307843e-01	 1.7908320932e+00	-3.3660351214e-01
 3.2783112843e-01	 1.7938189058e+00	-2.9399784164e-01
 3.1190744993e-01	 1.7966561324e+00	-2.5181569045e-01
 4.7325134275e-01	 1.7671390923e+00	-6.8137275564e-01
 4.5718310829e-01	 1.7713641665e+00	-6.3132054993e-01
 4.4111702860e-01	 1.7754332350e+00	-5.8303196908e-01
 4.2505520743e-01	 1.7793469239e+00	-5.3618820066e-01
 4.0899972633e-01	 1.7831058939e+00	-4.9052204388e-01
 3.9295264410e-01	 1.7867108396e+00	-4.4581412562e-01
 3.7691599610e-01	 1.7901624889e+00	-4.0188926843e-01
 3.6089179374e-01	 1.7934616021e+00	-3.5861301064e-01
 3.4488202384e-01	 1.7966089709e+00	-3.1588827747e-01
 3.2888864820e-01	 1.7996054184e+00	-2.7365220168e-01
 3.1291360300e-01	 1.8024517974e+00	-2.3187309128e-01
 4.7477305125e-01	 1.7728212115e+00	-6.6883982494e-01
 4.5865315044e-01	 1.7770598712e+00	-6.1629795466e-01
 4.4253541133e-01	 1.7811420235e+00	-5.6615250069e-01
 4.2642194443e-01	 1.7850682966e+00	-5.1800597677e-01
 4.1031483799e-01	 1.7888393533e+00	-4.7151212840e-01
 3.9421615742e-01	 1.7924558905e+00	-4.2637223127e-01
 3.7812794464e-01	 1.7959186384e+00	-3.8233154377e-01
 3.6205221751e-01	 1.7992283596e+00	-3.3917591325e-01
 3.4599096926e-01	 1.8023858487e+00	-2.9672853490e-01
 3.2994616797e-01	 1.8053919310e+00	-2.5484686120e-01
 3.1391975606e-01	 1.8082474623e+00	-2.1341965929e-01
 4.7629475975e-01	 1.7785033308e+00	-6.5553753811e-01
 4.6012319259e-01	 1.7827555759e+00	-6.0108930580e-01
 4.4395379406e-01	 1.7868508121e+00	-5.4956887709e-01
 4.2778868143e-01	 1.7907896694e+00	-5.0050725659e-01
 4.1162994965e-01	 1.7945728128e+00	-4.5348681411e-01
 3.9547967075e-01	 1.7982009415e+00	-4.0813764603e-01
 3.7933989318e-01	 1.8016747879e+00	-3.6413409277e-01
 3.6321264128e-01	 1.8049951172e+00	-3.2119141146e-01
 3.4709991467e-01	 1.8081627264e+00	-2.7906260272e-01
 3.3100368774e-01	 1.8111784436e+00	-2.3753538897e-01
 3.1492590913e-01	 1.8140431273e+00	-1.9642934157e-01
 4.7781646825e-01	 1.7841854501e+00	-6.4147917274e-01
 4.6159323474e-01	 1.7884512806e+00	-5.8567882647e-01
 4.4537217679e-01	 1.7925596006e+00	-5.3324210042e-01
 4.2915541843e-01	 1.7965110421e+00	-4.8363556917e-01
 4.1294506131e-01	 1.8003062723e+00	-4.3637781586e-01
 3.9674318407e-01	 1.8039459924e+00	-3.9103583743e-01
 3.8055184173e-01	 1.8074309374e+00	-3.4722160736e-01
 3.6437306506e-01	 1.8107618747e+00	-3.0458879532e-01
 3.4820886009e-01	 1.8139396041e+00	-2.6282964202e-01
 3.3206120751e-01	 1.8169649562e+00	-2.2167198667e-01
 3.1593206219e-01	 1.8198387922e+00	-1.8087644386e-01
 4.7933817674e-01	 1.7898675693e+00	-6.2667806516e-01
 4.6306327688e-01	 1.7941469854e+00	-5.7005114250e-01
 4.4679055952e-01	 1.7982683891e+00	-5.1713384662e-01
 4.3052215543e-01	 1.8022324149e+00	-4.6733531654e-01
 4.1426017297e-01	 1.8060397317e+00	-4.2011785005e-01
 3.9800669740e-01	 1.8096910433e+00	-3.7499333350e-01
 3.8176379027e-01	 1.8131870868e+00	-3.3151983060e-01
 3.6553348883e-01	 1.8165286323e+00	-2.8929832956e-01
 3.4931780550e-01	 1.8197164818e+00	-2.4796964632e-01
 3.3311872728e-01	 1.8227514688e+00	-2.0721148145e-01
 3.1693821526e-01	 1.8256344572e+00	-1.6673562717e-01
 4.8085988524e-01	 1.7955496886e+00	-6.1114761525e-01
 4.6453331903e-01	 1.7998426901e+00	-5.5419128136e-01
 4.4820894224e-01	 1.8039771777e+00	-5.0120645960e-01
 4.3188889243e-01	 1.8079537876e+00	-4.5155176442e-01
 4.1557528463e-01	 1.8117731912e+00	-4.0464062286e-01
 3.9927021072e-01	 1.8154360943e+00	-3.5993770977e-01
 3.8297573881e-01	 1.8189432363e+00	-3.1695554359e-01
 3.6669391261e-01	 1.8222953899e+00	-2.7525124139e-01
 3.5042675092e-01	 1.8254933595e+00	-2.3442343120e-01
 3.3417624705e-01	 1.8285379814e+00	-1.9410931869e-01
 3.1794436832e-01	 1.8314301221e+00	-1.5398190463e-01
 4.8238159374e-01	 1.8012318079e+00	-5.9490129100e-01
 4.6600336118e-01	 1.8055383948e+00	-5.3808467101e-01
 4.4962732497e-01	 1.8096859662e+00	-4.8542294555e-01
 4.3325562943e-01	 1.8136751603e+00	-4.3623103306e-01
 4.1689039629e-01	 1.8175066507e+00	-3.8988081878e-01
 4.0053372405e-01	 1.8211811452e+00	-3.4579757659e-01
 3.8418768735e-01	 1.8246993858e+00	-3.0345655250e-01
 3.6785433638e-01	 1.8280621474e+00	-2.6237970845e-01
 3.5153569633e-01	 1.8312702373e+00	-2.2213262428e-01
 3.3523376682e-01	 1.8343244940e+00	-1.8232155483e-01
 3.1895052139e-01	 1.8372257870e+00	-1.4259063828e-01
 4.8390330224e-01	 1.8069139271e+00	-5.7795263320e-01
 4.6747340333e-01	 1.8112340995e+00	-5.2171713893e-01
 4.5104570770e-01	 1.8153947548e+00	-4.6974696743e-01
 4.3462236643e-01	 1.8193965331e+00	-4.2132008826e-01
 4.1820550795e-01	 1.8232401101e+00	-3.7577408937e-01
 4.0179723738e-01	 1.8269261961e+00	-3.3250256661e-01
 3.8539963589e-01	 1.8304555353e+00	-2.9095167597e-01
 3.6901476015e-01	 1.8338289050e+00	-2.5061684703e-01
 3.5264464174e-01	 1.8370471150e+00	-2.1103965534e-01
 3.3629128659e-01	 1.8401110066e+00	-1.7180485047e-01
 3.1995667445e-01	 1.8430214520e+00	-1.3253753597e-01
 4.8542501073e-01	 1.8125960464e+00	-5.6031525996e-01
 4.6894344548e-01	 1.8169298042e+00	-5.0507491111e-01
 4.5246409043e-01	 1.8211035433e+00	-4.5414283950e-01
 4.3598910344e-01	 1.8251179058e+00	-4.0676673267e-01
 4.1952061961e-01	 1.8289735696e+00	-3.6225704224e-01
 4.0306075070e-01	 1.8326712470e+00	-3.1998332255e-01
 3.8661158443e-01	 1.8362116848e+00	-2.7937073270e-01
 3.7017518393e-01	 1.8395956626e+00	-2.3989670061e-01
 3.5375358716e-01	 1.8428239927e+00	-2.0108774663e-01
 3.3734880636e-01	 1.8458975192e+00	-1.6251646349e-01
 3.2096282751e-01	 1.8488171169e+00	-1.2379864838e-01
 4.8694671923e-01	 1.8182781657e+00	-5.4200287119e-01
 4.7041348763e-01	 1.8226255089e+00	-4.8814461104e-01
 4.5388247316e-01	 1.8268123318e+00	-4.3857552205e-01
 4.3735584044e-01	 1.8308392786e+00	-3.9251959715e-01
 4.2083573127e-01	 1.8347070290e+00	-3.4926723023e-01
 4.0432426403e-01	 1.8384162980e+00	-3.0817148526e-01
 3.8782353297e-01	 1.8419678343e+00	-2.6864452933e-01
 3.7133560770e-01	 1.8453624201e+00	-2.3015422847e-01
 3.5486253257e-01	 1.8486008704e+00	-1.9222090343e-01
 3.3840632612e-01	 1.8516840318e+00	-1.5441424236e-01
 3.2196898058e-01	 1.8546127819e+00	-1.1635036602e-01
 3.1190744993e-01	 1.7966561324e+00	-2.5181569045e-01
 2.9600394691e-01	 1.7993446526e+00	-2.1236718187e-01
 2.8012249690e-01	 1.8018853744e+00	-1.7758350498e-01
 2.6426495057e-01	 1.8042792332e+00	-1.4701050614e-01
 2.4843313129e-01	 1.8065271918e+00	-1.2023774511e-01
 2.3262883478e-01	 1.8086302388e+00	-9.6896237497e-02
 2.1685382872e-01	 1.8105893882e+00	-7.6656284451e-02
 2.0110985242e-01	 1.8124056783e+00	-5.9225385162e-02
 1.8539861655e-01	 1.8140801715e+00	-4.4346227506e-02
 1.6972180279e-01	 1.8156139527e+00	-3.1794752146e-02
 1.5408106359e-01	 1.8170081292e+00	-2.1378285338e-02
 3.1291360300e-01	 1.8024517974e+00	-2.3187309128e-01
 2.9695879835e-01	 1.8051489902e+00	-1.9287567499e-01
 2.8102611786e-01	 1.8076979078e+00	-1.5865457179e-01
 2.6511741815e-01	 1.8100994888e+00	-1.2873877264e-01
 2.4923452849e-01	 1.8123546989e+00	-1.0270103539e-01
 2.3337925037e-01	 1.8144645299e+00	-8.0155648085e-02
 2.1755335720e-01	 1.8164299991e+00	-6.0756280668e-02
 2.0175859388e-01	 1.8182521483e+00	-4.4193920568e-02
 1.8599667661e-01	 1.8199320430e+00	-3.0194887135e-02
 1.7026929248e-01	 1.8214707719e+00	-1.8518920093e-02
 1.5457809928e-01	 1.8228694457e+00	-8.9573370344e-03
 3.1391975606e-01	 1.8082474623e+00	-2.1341965929e-01
 2.9791364980e-01	 1.8109533278e+00	-1.7479831168e-01
 2.8192973882e-01	 1.8135104413e+00	-1.4104903059e-01
 2.6596988574e-01	 1.8159197444e+00	-1.1168852761e-01
 2.5003592569e-01	 1.8181822060e+00	-8.6276892140e-02
 2.3412966597e-01	 1.8202988210e+00	-6.4415380638e-02
 2.1825288567e-01	 1.8222706100e+00	-4.5744296142e-02
 2.0240733534e-01	 1.8240986182e+00	-2.9940952905e-02
 1.8659473666e-01	 1.8257839145e+00	-1.6717721165e-02
 1.7081678216e-01	 1.8273275911e+00	-5.8201468342e-03
 1.5507513497e-01	 1.8287307622e+00	 2.9748590607e-03
 3.1492590913e-01	 1.8140431273e+00	-1.9642934157e-01
 2.9886850124e-01	 1.8167576654e+00	-1.5813000324e-01
 2.8283335978e-01	 1.8193229747e+00	-1.2477885440e-01
 2.6682235332e-01	 1.8217400000e+00	-9.5884876330e-02
 2.5083732289e-01	 1.8240097130e+00	-7.0999598990e-02
 2.3488008157e-01	 1.8261331121e+00	-4.9714921501e-02
 2.1895241415e-01	 1.8281112210e+00	-3.1661024969e-02
 2.0305607680e-01	 1.8299450881e+00	-1.6504372330e-02
 1.8719279671e-01	 1.8316357860e+00	-3.9457898978e-03
 1.7136427185e-01	 1.8331844103e+00	 6.2813748398e-03
 1.5557217066e-01	 1.8345920788e+00	 1.4413024605e-02
 3.1593206219e-01	 1.8198387922e+00	-1.8087644386e-01
 2.9982335268e-01	 1.8225620030e+00	-1.4286573884e-01
 2.8373698074e-01	 1.8251355082e+00	-1.0985586400e-01
 2.6767482090e-01	 1.8275602556e+00	-8.1352592651e-02
 2.5163872008e-01	 1.8298372201e+00	-5.6902980239e-02
 2.3563049716e-01	 1.8319674032e+00	-3.6093221145e-02
 2.1965194263e-01	 1.8339518319e+00	-1.8546600463e-02
 2.0370481826e-01	 1.8357915580e+00	-3.9215350770e-03
 1.8779085677e-01	 1.8374876576e+00	 8.0903015461e-03
 1.7191176154e-01	 1.8390412295e+00	 1.7765776612e-02
 1.5606920635e-01	 1.8404533953e+00	 2.5352022999e-02
 3.1693821526e-01	 1.8256344572e+00	-1.6673562717e-01
 3.0077820412e-01	 1.8283663406e+00	-1.2900058645e-01
 2.8464060169e-01	 1.8309480417e+00	-9.6291732295e-02
 2.6852728848e-01	 1.8333805112e+00	-6.8116126064e-02
 2.5244011728e-01	 1.8356647272e+00	-4.4020409705e-02
 2.3638091276e-01	 1.8378016943e+00	-2.3588704093e-02
 2.2035147111e-01	 1.8397924428e+00	-6.4406053209e-03
 2.0435355972e-01	 1.8416380280e+00	 7.7707269459e-03
 1.8838891682e-01	 1.8433395291e+00	 1.9360395009e-02
 1.7245925122e-01	 1.8448980487e+00	 2.8613508611e-02
 1.5656624203e-01	 1.8463147119e+00	 3.5786856374e-02
 3.1794436832e-01	 1.8314301221e+00	-1.5398190463e-01
 3.0173305556e-01	 1.8341706782e+00	-1.1652969374e-01
 2.8554422265e-01	 1.8367605751e+00	-8.4097988631e-02
 2.6937975607e-01	 1.8392007668e+00	-5.6199608573e-02
 2.5324151448e-01	 1.8414922343e+00	-3.2384819438e-02
 2.3713132836e-01	 1.8436359854e+00	-1.2239278651e-02
 2.2105099959e-01	 1.8456330537e+00	 4.6179184018e-03
 2.0500230118e-01	 1.8474844979e+00	 1.8536096739e-02
 1.8898697687e-01	 1.8491914006e+00	 2.9834771230e-02
 1.7300674091e-01	 1.8507548679e+00	 3.8805333500e-02
 1.5706327772e-01	 1.8521760284e+00	 4.5712662632e-02
 3.1895052139e-01	 1.8372257870e+00	-1.4259063828e-01
 3.0268790700e-01	 1.8399750158e+00	-1.0544828900e-01
 2.8644784361e-01	 1.8425731086e+00	-7.3286022983e-02
 2.7023222365e-01	 1.8450210224e+00	-4.5626861467e-02
 2.5404291168e-01	 1.8473197413e+00	-2.2028708269e-02
 2.3788174395e-01	 1.8494702765e+00	-2.0823464679e-03
 2.2175052807e-01	 1.8514736647e+00	 1.4590459505e-02
 2.0565104264e-01	 1.8533309678e+00	 2.8338762967e-02
 1.8958503693e-01	 1.8550432721e+00	 3.9484141937e-02
 1.7355423059e-01	 1.8566116871e+00	 4.8322320677e-02
 1.5756031341e-01	 1.8580373450e+00	 5.5124712536e-02
 3.1995667445e-01	 1.8430214520e+00	-1.3253753597e-01
 3.0364275845e-01	 1.8457793534e+00	-9.5751682035e-02
 2.8735146457e-01	 1.8483856421e+00	-6.3867090125e-02
 2.7108469123e-01	 1.8508412780e+00	-3.6421401964e-02
 2.5484430887e-01	 1.8531472484e+00	-1.2984150197e-02
 2.3863215955e-01	 1.8553045676e+00	 6.8451880862e-03
 2.2245005655e-01	 1.8573142756e+00	 2.3439028037e-02
 2.0629978410e-01	 1.8591774378e+00	 3.7143410895e-02
 1.9018309698e-01	 1.8608951436e+00	 4.8279642072e-02
 1.7410172028e-01	 1.8624685063e+00	 5.7145840577e-02
 1.5805734910e-01	 1.8638986615e+00	 6.4018406868e-02
 3.2096282751e-01	 1.8488171169e+00	-1.2379864838e-01
 3.0459760989e-01	 1.8515836909e+00	-8.7435265051e-02
 2.8825508552e-01	 1.8541981755e+00	-5.5852313691e-02
 2.7193715881e-01	 1.8566615336e+00	-2.8606449736e-02
 2.5564570607e-01	 1.8589747555e+00	-5.2828026337e-03
 2.3938257514e-01	 1.8611388587e+00	 1.4506908713e-02
 2.2314958503e-01	 1.8631548865e+00	 3.1126145862e-02
 2.0694852556e-01	 1.8650239077e+00	 4.4915213479e-02
 1.9078115703e-01	 1.8667470152e+00	 5.6192822176e-02
 1.7464920997e-01	 1.8683253255e+00	 6.5257559086e-02
 1.5855438479e-01	 1.8697599781e+00	 7.2389273623e-02
 3.2196898058e-01	 1.8546127819e+00	-1.1635036602e-01
 3.0555246133e-01	 1.8573880285e+00	-8.0494513543e-02
 2.8915870648e-01	 1.8600107090e+00	-4.9252690191e-02
 2.7278962640e-01	 1.8624817891e+00	-2.2204933322e-02
 2.5644710327e-01	 1.8648022625e+00	 1.0440855142e-03
 2.4013299074e-01	 1.8669731498e+00	 2.0866878147e-02
 2.2384911351e-01	 1.8689954975e+00	 3.7614837410e-02
 2.0759726702e-01	 1.8708703776e+00	 5.1619822633e-02
 1.9137921709e-01	 1.8725988867e+00	 6.3195640905e-02
 1.7519669965e-01	 1.8741821447e+00	 7.2639432057e-02
 1.5905142048e-01	 1.8756212946e+00	 8.0232965265e-02
 1.5408106359e-01	 1.8170081292e+00	-2.1378285338e-02
 1.3847802194e-01	 1.8182638293e+00	-1.2128058892e-02
 1.2291427115e-01	 1.8193822022e+00	-3.5194062660e-03
 1.0739137464e-01	 1.8203644163e+00	 3.9421524785e-03
 9.1910865755e-02	 1.8212116594e+00	 9.7400358180e-03
 7.6474247663e-02	 1.8219251371e+00	 1.3348693750e-02
 6.1082993169e-02	 1.8225060723e+00	 1.4235627913e-02
 4.5738544639e-02	 1.8229557046e+00	 1.1863342866e-02
 3.0442313896e-02	 1.8232752894e+00	 5.6912323692e-03
 1.5195682161e-02	 1.8234660970e+00	-4.8225957234e-03
 0.0000000000e+00	 1.8235294118e+00	-2.0219552563e-02
 1.5457809928e-01	 1.8228694457e+00	-8.9573370344e-03
 1.3892472524e-01	 1.8241291965e+00	-5.0823040313e-04
 1.2331076880e-01	 1.8252511770e+00	 7.3680010327e-03
 1.0773779843e-01	 1.8262365596e+00	 1.4153416242e-02
 9.2207352419e-02	 1.8270865357e+00	 1.9317758023e-02
 7.6720938784e-02	 1.8278023149e+00	 2.2320583657e-02
 6.1280035083e-02	 1.8283851241e+00	 2.2613322975e-02
 4.5886088331e-02	 1.8288362069e+00	 1.9641267945e-02
 3.0540514909e-02	 1.8291568226e+00	 1.2845497660e-02
 1.5244700491e-02	 1.8293482457e+00	 1.6647424305e-03
 0.0000000000e+00	 1.8294117647e+00	-1.4462809621e-02
 1.5507513497e-01	 1.8287307622e+00	 2.9748590607e-03
 1.3937142854e-01	 1.8299945637e+00	 1.0692473722e-02
 1.2370726645e-01	 1.8311201518e+00	 1.7882772050e-02
 1.0808422221e-01	 1.8321087029e+00	 2.4021809537e-02
 9.2503839083e-02	 1.8329614120e+00	 2.8571550690e-02
 7.6967629906e-02	 1.8336794928e+00	 3.0982042148e-02
 6.1477076996e-02	 1.8342641760e+00	 3.0693514016e-02
 4.6033632024e-02	 1.8347167092e+00	 2.7138413553e-02
 3.0638715922e-02	 1.8350383558e+00	 1.9743375165e-02
 1.5293718821e-02	 1.8352303944e+00	 7.9311304086e-03
 0.0000000000e+00	 1.8352941176e+00	-8.8776385450e-03
 1.5557217066e-01	 1.8345920788e+00	 1.4413024605e-02
 1.3981813183e-01	 1.8358599309e+00	 2.1483361786e-02
 1.2410376410e-01	 1.8369891267e+00	 2.8044065918e-02
 1.0843064600e-01	 1.8379808462e+00	 3.3571566573e-02
 9.2800325747e-02	 1.8388362884e+00	 3.7525910725e-02
 7.7214321027e-02	 1.8395566706e+00	 3.9352983092e-02
 6.1674118910e-02	 1.8401432278e+00	 3.8486655993e-02
 4.6181175716e-02	 1.8405972115e+00	 3.4350872907e-02
 3.0736916934e-02	 1.8409198890e+00	 2.6361669680e-02
 1.5342737150e-02	 1.8411125431e+00	 1.3929137124e-02
 0.0000000000e+00	 1.8411764706e+00	-3.5406715474e-03
 1.5606920635e-01	 1.8404533953e+00	 2.5352022999e-02
 1.4026483513e-01	 1.8417252981e+00	 3.1873704886e-02
 1.2450026175e-01	 1.8428581015e+00	 3.7870885626e-02
 1.0877706979e-01	 1.8438529894e+00	 4.2826707059e-02
 9.3096812410e-02	 1.8447111647e+00	 4.6205123296e-02
 7.7461012149e-02	 1.8454338485e+00	 4.7453172996e-02
 6.1871160823e-02	 1.8460222797e+00	 4.6003182964e-02
 4.6328719408e-02	 1.8464777137e+00	 4.1274907270e-02
 3.0835117947e-02	 1.8468014222e+00	 3.2677605858e-02
 1.5391755480e-02	 1.8469946918e+00	 1.9612066354e-02
 0.0000000000e+00	 1.8470588235e+00	 1.4725725248e-03
 1.5656624203e-01	 1.8463147119e+00	 3.5786856374e-02
 1.4071153843e-01	 1.8475906653e+00	 4.1872736844e-02
 1.2489675940e-01	 1.8487270764e+00	 4.7382079924e-02
 1.0912349358e-01	 1.8497251327e+00	 5.1811039116e-02
 9.3393299074e-02	 1.8505860410e+00	 5.4633264784e-02
 7.7707703270e-02	 1.8513110264e+00	 5.5302233023e-02
 6.2068202737e-02	 1.8519013315e+00	 5.3253508161e-02
 4.6476263101e-02	 1.8523582160e+00	 4.7906943096e-02
 3.0933318959e-02	 1.8526829554e+00	 3.8668821421e-02
 1.5440773809e-02	 1.8528768405e+00	 2.4933945013e-02
 0.0000000000e+00	 1.8529411765e+00	 6.0876705163e-03
 1.5706327772e-01	 1.8521760284e+00	 4.5712662632e-02
 1.4115824172e-01	 1.8534560325e+00	 5.1489654133e-02
 1.2529325705e-01	 1.8545960512e+00	 5.6596345193e-02
 1.0946991737e-01	 1.8555972760e+00	 6.0548162144e-02
 9.3689785738e-02	 1.8564609173e+00	 6.2834205686e-02
 7.7954394392e-02	 1.8571882042e+00	 6.2919640955e-02
 6.2265244650e-02	 1.8577803834e+00	 6.0248024055e-02
 4.6623806793e-02	 1.8582387183e+00	 5.4243569214e-02
 3.1031519972e-02	 1.8585644886e+00	 4.4313360487e-02
 1.5489792139e-02	 1.8587589892e+00	 2.9849511648e-02
 0.0000000000e+00	 1.8588235294e+00	 1.0231277627e-02
 1.5756031341e-01	 1.8580373450e+00	 5.5124712536e-02
 1.4160494502e-01	 1.8593213997e+00	 6.0733615799e-02
 1.2568975469e-01	 1.8604650261e+00	 6.5532227280e-02
 1.0981634116e-01	 1.8614694193e+00	 6.9061469630e-02
 9.3986272401e-02	 1.8623357936e+00	 7.0831613451e-02
 7.8201085513e-02	 1.8630653821e+00	 7.0324733122e-02
 6.2462286564e-02	 1.8636594352e+00	 6.6997102428e-02
 4.6771350486e-02	 1.8641192206e+00	 6.0281534085e-02
 3.1129720984e-02	 1.8644460218e+00	 4.9589667045e-02
 1.5538810468e-02	 1.8646411379e+00	 3.4314205148e-02
 0.0000000000e+00	 1.8647058824e+00	 1.3831110404e-02
 1.5805734910e-01	 1.8638986615e+00	 6.4018406868e-02
 1.4205164832e-01	 1.8651867668e+00	 6.9613743394e-02
 1.2608625234e-01	 1.8663340009e+00	 7.4208123290e-02
 1.1016276495e-01	 1.8673415626e+00	 7.7374151899e-02
 9.4282759065e-02	 1.8682106700e+00	 7.8648955275e-02
 7.8447776635e-02	 1.8689425599e+00	 7.7536706304e-02
 6.2659328477e-02	 1.8695384871e+00	 7.3511094436e-02
 4.6918894178e-02	 1.8699997228e+00	 6.6017743093e-02
 3.1227921997e-02	 1.8703275550e+00	 5.4476578531e-02
 1.5587828798e-02	 1.8705232866e+00	 3.8284153670e-02
 0.0000000000e+00	 1.8705882353e+00	 1.6815930051e-02
 1.5855438479e-01	 1.8697599781e+00	 7.2389273623e-02
 1.4249835161e-01	 1.8710521340e+00	 7.8139120896e-02
 1.2648274999e-01	 1.8722029758e+00	 8.2642283355e-02
 1.1050918874e-01	 1.8732137058e+00	 8.5509198816e-02
 9.4579245729e-02	 1.8740855463e+00	 8.6309500834e-02
 7.8694467756e-02	 1.8748197378e+00	 8.4574619583e-02
 6.2856370391e-02	 1.8754175389e+00	 7.9800330676e-02
 4.7066437870e-02	 1.8758802251e+00	 7.1449255895e-02
 3.1326123010e-02	 1.8762090882e+00	 5.8953319539e-02
 1.5636847127e-02	 1.8764054353e+00	 4.1716163774e-02
 0.0000000000e+00	 1.8764705882e+00	 1.9115526059e-02
 1.5905142048e-01	 1.8756212946e+00	 8.0232965265e-02
 1.4294505491e-01	 1.8769175012e+00	 8.6318794643e-02
 1.2687924764e-01	 1.8780719506e+00	 9.0852812361e-02
 1.1085561253e-01	 1.8790858491e+00	 9.3489402438e-02
 9.4875732393e-02	 1.8799604226e+00	 9.3836324964e-02
 7.8941158878e-02	 1.8806969157e+00	 9.1457396169e-02
 6.3053412304e-02	 1.8812965907e+00	 8.5875121246e-02
 4.7213981563e-02	 1.8817607274e+00	 7.6573283823e-02
 3.1424324022e-02	 1.8820906214e+00	 6.2999495644e-02
 1.5685865457e-02	 1.8822875840e+00	 4.4567709759e-02
 0.0000000000e+00	 1.8823529412e+00	 2.0660700134e-02
 1.8823529412e+00	 0.0000000000e+00	 2.9016519084e+00
 1.8822875840e+00	 1.5685865457e-02	 2.9078137932e+00
 1.8820906214e+00	 3.1424324022e-02	 2.9126232527e+00
 1.8817607274e+00	 4.7213981563e-02	 2.9158627988e+00
 1.8812965907e+00	 6.3053412304e-02	 2.9173590951e+00
 1.8806969157e+00	 7.8941158878e-02	 2.9169822275e+00
 1.8799604226e+00	 9.4875732393e-02	 2.9146449813e+00
 1.8790858491e+00	 1.1085561253e-01	 2.9103021292e+00
 1.8780719506e+00	 1.2687924764e-01	 2.9039497336e+00
 1.8769175012e+00	 1.4294505491e-01	 2.8956244695e+00
 1.8756212946e+00	 1.5905142048e-01	 2.8854029708e+00
 1.8882352941e+00	 0.0000000000e+00	 2.8866215263e+00
 1.8881697327e+00	 1.5734883787e-02	 2.8941024202e+00
 1.8879721546e+00	 3.1522525035e-02	 2.8999087452e+00
 1.8876412297e+00	 4.7361525255e-02	 2.9038738455e+00
 1.8871756426e+00	 6.3250454217e-02	 2.9058757425e+00
 1.8865740935e+00	 7.9187849999e-02	 2.9058363457e+00
 1.8858352989e+00	 9.5172219056e-02	 2.9037206694e+00
 1.8849579924e+00	 1.1120203632e-01	 2.8995360570e+00
 1.8839409255e+00	 1.2727574529e-01	 2.8933314195e+00
 1.8827828684e+00	 1.4339175821e-01	 2.8851964914e+00
 1.8814826112e+00	 1.5954845617e-01	 2.8752611095e+00
 1.8941176471e+00	 0.0000000000e+00	 2.8717167077e+00
 1.8940518814e+00	 1.5783902116e-02	 2.8807340393e+00
 1.8938536877e+00	 3.1620726047e-02	 2.8876718470e+00
 1.8935217319e+00	 4.7509068948e-02	 2.8924255170e+00
 1.8930546944e+00	 6.3447496131e-02	 2.8949355911e+00
 1.8924512714e+00	 7.9434541121e-02	 2.8951869033e+00
 1.8917101752e+00	 9.5468705720e-02	 2.8932077198e+00
 1.8908301357e+00	 1.1154846011e-01	 2.8890688854e+00
 1.8898099003e+00	 1.2767224294e-01	 2.8828829809e+00
 1.8886482356e+00	 1.4383846150e-01	 2.8748034972e+00
 1.8873439277e+00	 1.6004549186e-01	 2.8650240287e+00
 1.9000000000e+00	 0.0000000000e+00	 2.8568208436e+00
 1.8999340301e+00	 1.5832920446e-02	 2.8676169606e+00
 1.8997352209e+00	 3.1718927060e-02	 2.8758436748e+00
 1.8994022342e+00	 4.7656612640e-02	 2.8814695156e+00
 1.8989337463e+00	 6.3644538044e-02	 2.8845085987e+00
 1.8983284492e+00	 7.9681232242e-02	 2.8850196747e+00
 1.8975850516e+00	 9.5765192384e-02	 2.8831051768e+00
 1.8967022789e+00	 1.1189488389e-01	 2.8789102735e+00
 1.8956788751e+00	 1.2806874059e-01	 2.8726219299e+00
 1.8945136028e+00	 1.4428516480e-01	 2.8644679827e+00
 1.8932052442e+00	 1.6054252755e-01	 2.8547162334e+00
 1.9058823529e+00	 0.0000000000e+00	 2.8418188058e+00
 1.9058161788e+00	 1.5881938775e-02	 2.8546606863e+00
 1.9056167541e+00	 3.1817128072e-02	 2.8643562754e+00
 1.9052827365e+00	 4.7804156332e-02	 2.8709582380e+00
 1.9048127981e+00	 6.3841579958e-02	 2.8745652105e+00
 1.9042056271e+00	 7.9927923363e-02	 2.8753207442e+00
 1.9034599279e+00	 9.6061679048e-02	 2.8734122476e+00
 1.9025744222e+00	 1.1224130768e-01	 2.8690699290e+00
 1.9015478500e+00	 1.2846523824e-01	 2.8625657461e+00
 1.9003789700e+00	 1.4473186810e-01	 2.8542123658e+00
 1.8990665608e+00	 1.6103956324e-01	 2.8443621408e+00
 1.9117647059e+00	 0.0000000000e+00	 2.8265969240e+00
 1.9116983275e+00	 1.5930957105e-02	 2.8417758930e+00
 1.9114982873e+00	 3.1915329085e-02	 2.8531426108e+00
 1.9111632387e+00	 4.7951700025e-02	 2.8608447647e+00
 1.9106918500e+00	 6.4038621871e-02	 2.8650763512e+00
 1.9100828050e+00	 8.0174614485e-02	 2.8660765012e+00
 1.9093348042e+00	 9.6358165711e-02	 2.8641283006e+00
 1.9084465655e+00	 1.1258773147e-01	 2.8595576084e+00
 1.9074168248e+00	 1.2886173589e-01	 2.8527318781e+00
 1.9062443372e+00	 1.4517857139e-01	 2.8440589876e+00
 1.9049278773e+00	 1.6153659892e-01	 2.8339860818e+00
 1.9176470588e+00	 0.0000000000e+00	 2.8110429636e+00
 1.9175804762e+00	 1.5979975434e-02	 2.8288744135e+00
 1.9173798205e+00	 3.2013530097e-02	 2.8421365457e+00
 1.9170437410e+00	 4.8099243717e-02	 2.8510828505e+00
 1.9165709018e+00	 6.4235663785e-02	 2.8560134193e+00
 1.9159599828e+00	 8.0421305606e-02	 2.8572736366e+00
 1.9152096805e+00	 9.6654652375e-02	 2.8552528636e+00
 1.9143187088e+00	 1.1293415526e-01	 2.8503831164e+00
 1.9132857997e+00	 1.2925823353e-01	 2.8431377449e+00
 1.9121097044e+00	 1.4562527469e-01	 2.8340301152e+00
 1.9107891939e+00	 1.6203363461e-01	 2.8236123031e+00
 1.9235294118e+00	 0.0000000000e+00	 2.7950461034e+00
 1.9234626249e+00	 1.6028993764e-02	 2.8158692198e+00
 1.9232613537e+00	 3.2111731110e-02	 2.8312728330e+00
 1.9229242433e+00	 4.8246787409e-02	 2.8416269140e+00
 1.9224499537e+00	 6.4432705698e-02	 2.8473482799e+00
 1.9218371607e+00	 8.0667996728e-02	 2.8488991388e+00
 1.9210845568e+00	 9.6951139039e-02	 2.8467856219e+00
 1.9201908521e+00	 1.1328057905e-01	 2.8415563068e+00
 1.9191547745e+00	 1.2965473118e-01	 2.8338007370e+00
 1.9179750716e+00	 1.4607197798e-01	 2.8241479431e+00
 1.9166505104e+00	 1.6253067030e-01	 2.8132649697e+00
 1.9294117647e+00	 0.0000000000e+00	 2.7784969147e+00
 1.9293447736e+00	 1.6078012093e-02	 2.8026744054e+00
 1.9291428869e+00	 3.2209932123e-02	 2.8204871017e+00
 1.9288047456e+00	 4.8394331102e-02	 2.8324320290e+00
 1.9283290055e+00	 6.4629747612e-02	 2.8390532587e+00
 1.9277143386e+00	 8.0914687849e-02	 2.8409402902e+00
 1.9269594332e+00	 9.7247625702e-02	 2.8387264176e+00
 1.9260629953e+00	 1.1362700284e-01	 2.8330870820e+00
 1.9250237494e+00	 1.3005122883e-01	 2.8247382179e+00
 1.9238404388e+00	 1.4651868128e-01	 2.8144345955e+00
 1.9225118270e+00	 1.6302770599e-01	 2.8029681664e+00
 1.9352941176e+00	 0.0000000000e+00	 2.7612873395e+00
 1.9352269223e+00	 1.6127030423e-02	 2.7892051688e+00
 1.9350244201e+00	 3.2308133135e-02	 2.8097158428e+00
 1.9346852478e+00	 4.8541874794e-02	 2.8234539142e+00
 1.9342080574e+00	 6.4826789525e-02	 2.8311011350e+00
 1.9335915164e+00	 8.1161378971e-02	 2.8333846630e+00
 1.9328343095e+00	 9.7544112366e-02	 2.8310752468e+00
 1.9319351386e+00	 1.1397342663e-01	 2.8249853934e+00
 1.9308927242e+00	 1.3044772648e-01	 2.8159675251e+00
 1.9297058060e+00	 1.4696538458e-01	 2.8049121279e+00
 1.9283731435e+00	 1.6352474168e-01	 2.7927459002e+00
 1.9411764706e+00	 0.0000000000e+00	 2.7433106700e+00
 1.9411090710e+00	 1.6176048753e-02	 2.7753777969e+00
 1.9409059533e+00	 3.2406334148e-02	 2.7988963977e+00
 1.9405657501e+00	 4.8689418487e-02	 2.8146489242e+00
 1.9400871092e+00	 6.5023831438e-02	 2.8234651360e+00
 1.9394686943e+00	 8.1408070092e-02	 2.8262201158e+00
 1.9387091858e+00	 9.7840599030e-02	 2.8238322590e+00
 1.9378072819e+00	 1.1431985042e-01	 2.8172612415e+00
 1.9367616991e+00	 1.3084422413e-01	 2.8075059713e+00
 1.9355711731e+00	 1.4741208787e-01	 2.7956025288e+00
 1.9342344601e+00	 1.6402177737e-01	 2.7826221015e+00
 1.8756212946e+00	 1.5905142048e-01	 2.8854029708e+00
 1.8741821447e+00	 1.7519669965e-01	 2.8721612128e+00
 1.8725988867e+00	 1.9137921709e-01	 2.8547776675e+00
 1.8708703776e+00	 2.0759726702e-01	 2.8333777512e+00
 1.8689954975e+00	 2.2384911351e-01	 2.8081067370e+00
 1.8669731498e+00	 2.4013299074e-01	 2.7791288862e+00
 1.8648022625e+00	 2.5644710327e-01	 2.7466266513e+00
 1.8624817891e+00	 2.7278962640e-01	 2.7107999568e+00
 1.8600107090e+00	 2.8915870648e-01	 2.6718655667e+00
 1.8573880285e+00	 3.0555246133e-01	 2.6300565455e+00
 1.8546127819e+00	 3.2196898058e-01	 2.5856218221e+00
 1.8814826112e+00	 1.5954845617e-01	 2.8752611095e+00
 1.8800389639e+00	 1.7574418934e-01	 2.8623512045e+00
 1.8784507582e+00	 1.9197727714e-01	 2.8452624207e+00
 1.8767168476e+00	 2.0824600848e-01	 2.8241231458e+00
 1.8748361084e+00	 2.2454864199e-01	 2.7990800907e+00
 1.8728074409e+00	 2.4088340634e-01	 2.7702973761e+00
 1.8706297696e+00	 2.5724850047e-01	 2.7379556923e+00
 1.8683020447e+00	 2.7364209398e-01	 2.7022515373e+00
 1.8658232425e+00	 2.9006232744e-01	 2.6633965430e+00
 1.8631923661e+00	 3.0650731277e-01	 2.6216168973e+00
 1.8604084468e+00	 3.2297513364e-01	 2.5771528693e+00
 1.8873439277e+00	 1.6004549186e-01	 2.8650240287e+00
 1.8858957831e+00	 1.7629167903e-01	 2.8523255595e+00
 1.8843026297e+00	 1.9257533720e-01	 2.8354194429e+00
 1.8825633175e+00	 2.0889474994e-01	 2.8144376255e+00
 1.8806767193e+00	 2.2524817047e-01	 2.7895288314e+00
 1.8786417319e+00	 2.4163382193e-01	 2.7608576034e+00
 1.8764572767e+00	 2.5804989767e-01	 2.7286034178e+00
 1.8741223003e+00	 2.7449456156e-01	 2.6929598796e+00
 1.8716357759e+00	 2.9096594840e-01	 2.6541340067e+00
 1.8689967037e+00	 3.0746216421e-01	 2.6123456103e+00
 1.8662041118e+00	 3.2398128671e-01	 2.5678267823e+00
 1.8932052442e+00	 1.6054252755e-01	 2.8547162334e+00
 1.8917526023e+00	 1.7683916871e-01	 2.8421092478e+00
 1.8901545012e+00	 1.9317339725e-01	 2.8252741213e+00
 1.8884097874e+00	 2.0954349140e-01	 2.8043469420e+00
 1.8865173303e+00	 2.2594769895e-01	 2.7794790179e+00
 1.8844760230e+00	 2.4238423753e-01	 2.7508358714e+00
 1.8822847838e+00	 2.5885129486e-01	 2.7185963091e+00
 1.8799425559e+00	 2.7534702914e-01	 2.6829515720e+00
 1.8774483094e+00	 2.9186956936e-01	 2.6441045768e+00
 1.8748010413e+00	 3.0841701565e-01	 2.6022692549e+00
 1.8719997767e+00	 3.2498743977e-01	 2.5576699988e+00
 1.8990665608e+00	 1.6103956324e-01	 2.8443621408e+00
 1.8976094215e+00	 1.7738665840e-01	 2.8317271596e+00
 1.8960063728e+00	 1.9377145730e-01	 2.8148517717e+00
 1.8942562573e+00	 2.1019223286e-01	 2.7938767841e+00
 1.8923579412e+00	 2.2664722743e-01	 2.7689566544e+00
 1.8903103141e+00	 2.4313465312e-01	 2.7402584380e+00
 1.8881122908e+00	 2.5965269206e-01	 2.7079608107e+00
 1.8857628115e+00	 2.7619949673e-01	 2.6722531745e+00
 1.8832608429e+00	 2.9277319031e-01	 2.6333348539e+00
 1.8806053789e+00	 3.0937186710e-01	 2.5914143925e+00
 1.8777954417e+00	 3.2599359284e-01	 2.5467089575e+00
 1.9049278773e+00	 1.6153659892e-01	 2.8339860818e+00
 1.9034662407e+00	 1.7793414809e-01	 2.8212041075e+00
 1.9018582443e+00	 1.9436951736e-01	 2.8041776403e+00
 1.9001027273e+00	 2.1084097432e-01	 2.7830527793e+00
 1.8981985521e+00	 2.2734675591e-01	 2.7579876923e+00
 1.8961446052e+00	 2.4388506872e-01	 2.7291515161e+00
 1.8939397979e+00	 2.6045408926e-01	 2.6967233307e+00
 1.8915830671e+00	 2.7705196431e-01	 2.6608912193e+00
 1.8890733763e+00	 2.9367681127e-01	 2.6218514193e+00
 1.8864097165e+00	 3.1032671854e-01	 2.5798075743e+00
 1.8835911066e+00	 3.2699974590e-01	 2.5349700971e+00
 1.9107891939e+00	 1.6203363461e-01	 2.8236123031e+00
 1.9093230599e+00	 1.7848163777e-01	 2.8105648279e+00
 1.9077101158e+00	 1.9496757741e-01	 2.7932769057e+00
 1.9059491972e+00	 2.1148971578e-01	 2.7719004949e+00
 1.9040391630e+00	 2.2804628439e-01	 2.7465980306e+00
 1.9019788963e+00	 2.4463548432e-01	 2.7175412742e+00
 1.8997673050e+00	 2.6125548646e-01	 2.6849102408e+00
 1.8974033227e+00	 2.7790443189e-01	 2.6488922108e+00
 1.8948859098e+00	 2.9458043223e-01	 2.6096808347e+00
 1.8922140541e+00	 3.1128156998e-01	 2.5674753410e+00
 1.8893867715e+00	 3.2800589896e-01	 2.5224798542e+00
 1.9166505104e+00	 1.6253067030e-01	 2.8132649697e+00
 1.9151798791e+00	 1.7902912746e-01	 2.7998339832e+00
 1.9135619873e+00	 1.9556563746e-01	 2.7821746797e+00
 1.9117956671e+00	 2.1213845724e-01	 2.7604454398e+00
 1.9098797740e+00	 2.2874581287e-01	 2.7348135172e+00
 1.9078131874e+00	 2.4538589991e-01	 2.7054538376e+00
 1.9055948120e+00	 2.6205688365e-01	 2.6725478770e+00
 1.9032235783e+00	 2.7875689947e-01	 2.6362826249e+00
 1.9006984433e+00	 2.9548405319e-01	 2.5968496418e+00
 1.8980183917e+00	 3.1223642142e-01	 2.5544442211e+00
 1.8951824365e+00	 3.2901205203e-01	 2.5092646623e+00
 1.9225118270e+00	 1.6302770599e-01	 2.8029681664e+00
 1.9210366983e+00	 1.7957661715e-01	 2.7890361637e+00
 1.9194138589e+00	 1.9616369752e-01	 2.7708960095e+00
 1.9176421371e+00	 2.1278719869e-01	 2.7487130652e+00
 1.9157203849e+00	 2.2944534135e-01	 2.7226599498e+00
 1.9136474785e+00	 2.4613631551e-01	 2.6929152884e+00
 1.9114223191e+00	 2.6285828085e-01	 2.6596625395e+00
 1.9090438339e+00	 2.7960936706e-01	 2.6230889094e+00
 1.9065109767e+00	 2.9638767414e-01	 2.5833843615e+00
 1.9038227292e+00	 3.1319127286e-01	 2.5407407305e+00
 1.9009781014e+00	 3.3001820509e-01	 2.4953509502e+00
 1.9283731435e+00	 1.6352474168e-01	 2.7927459002e+00
 1.9268935175e+00	 1.8012410683e-01	 2.7781958890e+00
 1.9252657304e+00	 1.9676175757e-01	 2.7594658790e+00
 1.9234886070e+00	 2.1343594015e-01	 2.7367287661e+00
 1.9215609958e+00	 2.3014486983e-01	 2.7101630770e+00
 1.9194817696e+00	 2.4688673110e-01	 2.6799516664e+00
 1.9172498262e+00	 2.6365967805e-01	 2.6462804932e+00
 1.9148640895e+00	 2.8046183464e-01	 2.6093374839e+00
 1.9123235102e+00	 2.9729129510e-01	 2.5693114935e+00
 1.9096270668e+00	 3.1414612430e-01	 2.5263913710e+00
 1.9067737664e+00	 3.3102435816e-01	 2.4807651401e+00
 1.9342344601e+00	 1.6402177737e-01	 2.7826221015e+00
 1.9327503367e+00	 1.8067159652e-01	 2.7673376095e+00
 1.9311176019e+00	 1.9735981762e-01	 2.7479092103e+00
 1.9293350769e+00	 2.1408468161e-01	 2.7245178826e+00
 1.9274016068e+00	 2.3084439831e-01	 2.6973485990e+00
 1.9253160607e+00	 2.4763714670e-01	 2.6665889699e+00
 1.9230773332e+00	 2.6446107525e-01	 2.6324279677e+00
 1.9206843451e+00	 2.8131430222e-01	 2.5950547392e+00
 1.9181360437e+00	 2.9819491606e-01	 2.5546575156e+00
 1.9154314044e+00	 3.1510097575e-01	 2.5114226293e+00
 1.9125694313e+00	 3.3203051122e-01	 2.4655336464e+00
 1.8546127819e+00	 3.2196898058e-01	 2.5856218221e+00
 1.8516840318e+00	 3.3840632612e-01	 2.5382477441e+00
 1.8486008704e+00	 3.5486253257e-01	 2.4876308963e+00
 1.8453624201e+00	 3.7133560770e-01	 2.4340660636e+00
 1.8419678343e+00	 3.8782353297e-01	 2.3778733428e+00
 1.8384162980e+00	 4.0432426403e-01	 2.3193985550e+00
 1.8347070290e+00	 4.2083573127e-01	 2.2590138062e+00
 1.8308392786e+00	 4.3735584044e-01	 2.1971182070e+00
 1.8268123318e+00	 4.5388247316e-01	 2.1341387604e+00
 1.8226255089e+00	 4.7041348763e-01	 2.0705314273e+00
 1.8182781657e+00	 4.8694671923e-01	 2.0067823806e+00
 1.8604084468e+00	 3.2297513364e-01	 2.5771528693e+00
 1.8574705444e+00	 3.3946384589e-01	 2.5297283196e+00
 1.8543777481e+00	 3.5597147799e-01	 2.4790722020e+00
 1.8511291777e+00	 3.7249603148e-01	 2.4254607854e+00
 1.8477239837e+00	 3.8903548151e-01	 2.3691946064e+00
 1.8441613489e+00	 4.0558777735e-01	 2.3105988758e+00
 1.8404404885e+00	 4.2215084293e-01	 2.2500240377e+00
 1.8365606513e+00	 4.3872257744e-01	 2.1878464876e+00
 1.8325211204e+00	 4.5530085589e-01	 2.1244694626e+00
 1.8283212136e+00	 4.7188352978e-01	 2.0603241102e+00
 1.8239602849e+00	 4.8846842773e-01	 1.9958707488e+00
 1.8662041118e+00	 3.2398128671e-01	 2.5678267823e+00
 1.8632570570e+00	 3.4052136566e-01	 2.5203434678e+00
 1.8601546259e+00	 3.5708042340e-01	 2.4696607936e+00
 1.8568959353e+00	 3.7365645525e-01	 2.4160357701e+00
 1.8534801332e+00	 3.9024743005e-01	 2.3597485493e+00
 1.8499063998e+00	 4.0685129068e-01	 2.3011028267e+00
 1.8461739480e+00	 4.2346595459e-01	 2.2404263964e+00
 1.8422820241e+00	 4.4008931444e-01	 2.1780718682e+00
 1.8382299089e+00	 4.5671923862e-01	 2.1144175580e+00
 1.8340169184e+00	 4.7335357193e-01	 2.0498685610e+00
 1.8296424042e+00	 4.8999013623e-01	 1.9848580167e+00
 1.8719997767e+00	 3.2498743977e-01	 2.5576699988e+00
 1.8690435696e+00	 3.4157888543e-01	 2.5101191674e+00
 1.8659315036e+00	 3.5818936882e-01	 2.4594216292e+00
 1.8626626928e+00	 3.7481687902e-01	 2.4058143985e+00
 1.8592362827e+00	 3.9145937859e-01	 2.3495564256e+00
 1.8556514508e+00	 4.0811480400e-01	 2.2909289922e+00
 1.8519074074e+00	 4.2478106626e-01	 2.2302362622e+00
 1.8480033968e+00	 4.4145605144e-01	 2.1678059966e+00
 1.8439386974e+00	 4.5813762134e-01	 2.1039904446e+00
 1.8397126231e+00	 4.7482361407e-01	 2.0391674181e+00
 1.8353245235e+00	 4.9151184472e-01	 1.9737415636e+00
 1.8777954417e+00	 3.2599359284e-01	 2.5467089575e+00
 1.8748300822e+00	 3.4263640520e-01	 2.4990814123e+00
 1.8717083813e+00	 3.5929831423e-01	 2.4483797016e+00
 1.8684294504e+00	 3.7597730280e-01	 2.3948201128e+00
 1.8649924322e+00	 3.9267132713e-01	 2.3386395834e+00
 1.8613965017e+00	 4.0937831733e-01	 2.2800960901e+00
 1.8576408669e+00	 4.2609617792e-01	 2.2194691936e+00
 1.8537247696e+00	 4.4282278844e-01	 2.1570607518e+00
 1.8496474860e+00	 4.5955600407e-01	 2.0931958088e+00
 1.8454083278e+00	 4.7629365622e-01	 2.0282236731e+00
 1.8410066428e+00	 4.9303355322e-01	 1.9625191925e+00
 1.8835911066e+00	 3.2699974590e-01	 2.5349700971e+00
 1.8806165948e+00	 3.4369392497e-01	 2.4872562087e+00
 1.8774852590e+00	 3.6040725964e-01	 2.4365600357e+00
 1.8741962079e+00	 3.7713772657e-01	 2.3830764128e+00
 1.8707485817e+00	 3.9388327567e-01	 2.3270194606e+00
 1.8671415526e+00	 4.1064183065e-01	 2.2686229660e+00
 1.8633743264e+00	 4.2741128958e-01	 2.2081409215e+00
 1.8594461423e+00	 4.4418952544e-01	 2.1458482349e+00
 1.8553562745e+00	 4.6097438680e-01	 2.0820416168e+00
 1.8511040325e+00	 4.7776369837e-01	 2.0170406596e+00
 1.8466887620e+00	 4.9455526172e-01	 1.9511891173e+00
 1.8893867715e+00	 3.2800589896e-01	 2.5224798542e+00
 1.8864031074e+00	 3.4475144474e-01	 2.4746695737e+00
 1.8832621367e+00	 3.6151620506e-01	 2.4239876856e+00
 1.8799629655e+00	 3.7829815035e-01	 2.3706068526e+00
 1.8765047311e+00	 3.9509522421e-01	 2.3147175799e+00
 1.8728866036e+00	 4.1190534398e-01	 2.2565285873e+00
 1.8691077858e+00	 4.2872640124e-01	 2.1962673417e+00
 1.8651675151e+00	 4.4555626245e-01	 2.1341807617e+00
 1.8610650630e+00	 4.6239276953e-01	 2.0705361038e+00
 1.8567997372e+00	 4.7923374052e-01	 2.0056220418e+00
 1.8523708813e+00	 4.9607697022e-01	 1.9397499499e+00
 1.8951824365e+00	 3.2901205203e-01	 2.5092646623e+00
 1.8921896200e+00	 3.4580896451e-01	 2.4613475330e+00
 1.8890390145e+00	 3.6262515047e-01	 2.4106877320e+00
 1.8857297231e+00	 3.7945857412e-01	 2.3574350363e+00
 1.8822608806e+00	 3.9630717275e-01	 2.3017555444e+00
 1.8786316545e+00	 4.1316885730e-01	 2.2438320380e+00
 1.8748412453e+00	 4.3004151290e-01	 2.1838645083e+00
 1.8708888878e+00	 4.4692299945e-01	 2.1220708539e+00
 1.8667738516e+00	 4.6381115226e-01	 2.0586877653e+00
 1.8624954419e+00	 4.8070378267e-01	 1.9939718039e+00
 1.8580530006e+00	 4.9759867872e-01	 1.9282006875e+00
 1.9009781014e+00	 3.3001820509e-01	 2.4953509502e+00
 1.8979761326e+00	 3.4686648428e-01	 2.4473161186e+00
 1.8948158922e+00	 3.6373409589e-01	 2.3966852792e+00
 1.8914964806e+00	 3.8061899789e-01	 2.3435846153e+00
 1.8880170301e+00	 3.9751912129e-01	 2.2881550330e+00
 1.8843767054e+00	 4.1443237063e-01	 2.2305525129e+00
 1.8805747048e+00	 4.3135662456e-01	 2.1709486269e+00
 1.8766102605e+00	 4.4828973645e-01	 2.1095312314e+00
 1.8724826401e+00	 4.6522953499e-01	 2.0465053473e+00
 1.8681911467e+00	 4.8217382482e-01	 1.9820942385e+00
 1.8637351198e+00	 4.9912038721e-01	 1.9165406998e+00
 1.9067737664e+00	 3.3102435816e-01	 2.4807651401e+00
 1.9037626452e+00	 3.4792400405e-01	 2.4326013670e+00
 1.9005927699e+00	 3.6484304130e-01	 2.3820054525e+00
 1.8972632382e+00	 3.8177942167e-01	 2.3290792839e+00
 1.8937731796e+00	 3.9873106983e-01	 2.2739377961e+00
 1.8901217564e+00	 4.1569588395e-01	 2.2167093117e+00
 1.8863081642e+00	 4.3267173622e-01	 2.1575360481e+00
 1.8823316333e+00	 4.4965647345e-01	 2.0965748044e+00
 1.8781914287e+00	 4.6664791772e-01	 2.0339978369e+00
 1.8738868514e+00	 4.8364386697e-01	 1.9699939362e+00
 1.8694172391e+00	 5.0064209571e-01	 1.9047697168e+00
 1.9125694313e+00	 3.3203051122e-01	 2.4655336464e+00
 1.9095491578e+00	 3.4898152382e-01	 2.4172293169e+00
 1.9063696476e+00	 3.6595198672e-01	 2.3666733949e+00
 1.9030299958e+00	 3.8293984544e-01	 2.3139427759e+00
 1.8995293291e+00	 3.9994301837e-01	 2.2591256508e+00
 1.8958668073e+00	 4.1695939728e-01	 2.2023218339e+00
 1.8920416237e+00	 4.3398684788e-01	 2.1436432604e+00
 1.8880530060e+00	 4.5102321045e-01	 2.0832146651e+00
 1.8839002172e+00	 4.6806630045e-01	 2.0211744530e+00
 1.8795825561e+00	 4.8511390912e-01	 1.9576757747e+00
 1.8750993584e+00	 5.0216380421e-01	 1.8928878163e+00
 1.8182781657e+00	 4.8694671923e-01	 2.0067823806e+00
 1.8137696942e+00	 5.0347998123e-01	 1.9410731955e+00
 1.8090995238e+00	 5.2001106545e-01	 1.8714297998e+00
 1.8042671214e+00	 5.3653774301e-01	 1.7981738782e+00
 1.7992719927e+00	 5.5305776510e-01	 1.7216900936e+00
 1.7941136822e+00	 5.6956886371e-01	 1.6424292016e+00
 1.7887917745e+00	 5.8606875244e-01	 1.5609113902e+00
 1.7833058946e+00	 6.0255512735e-01	 1.4773359528e+00
 1.7776557085e+00	 6.1902566775e-01	 1.3917281593e+00
 1.7718409239e+00	 6.3547803713e-01	 1.3047755333e+00
 1.7658612908e+00	 6.5190988399e-01	 1.2171841147e+00
 1.8239602849e+00	 4.8846842773e-01	 1.9958707488e+00
 1.8194377245e+00	 5.0505335617e-01	 1.9293934304e+00
 1.8147529598e+00	 5.2163610003e-01	 1.8590772528e+00
 1.8099054562e+00	 5.3821442346e-01	 1.7853003928e+00
 1.8048947176e+00	 5.5478607062e-01	 1.7085013500e+00
 1.7997202875e+00	 5.7134876641e-01	 1.6291819426e+00
 1.7943817488e+00	 5.8790021729e-01	 1.5479105310e+00
 1.7888787255e+00	 6.0443811212e-01	 1.4649570111e+00
 1.7832108826e+00	 6.2096012296e-01	 1.3806429982e+00
 1.7773779268e+00	 6.3746390599e-01	 1.2957202173e+00
 1.7713796073e+00	 6.5394710237e-01	 1.2109477002e+00
 1.8296424042e+00	 4.8999013623e-01	 1.9848580167e+00
 1.8251057548e+00	 5.0662673111e-01	 1.9177597141e+00
 1.8204063958e+00	 5.2326113460e-01	 1.8468993862e+00
 1.8155437909e+00	 5.3989110391e-01	 1.7727017116e+00
 1.8105174426e+00	 5.5651437614e-01	 1.6956491693e+00
 1.8053268927e+00	 5.7312866911e-01	 1.6162849288e+00
 1.7999717231e+00	 5.8973168214e-01	 1.5352138639e+00
 1.7944515564e+00	 6.0632109689e-01	 1.4528208002e+00
 1.7887660566e+00	 6.2289457817e-01	 1.3696682293e+00
 1.7829149296e+00	 6.3944977486e-01	 1.2865545897e+00
 1.7768979239e+00	 6.5598432076e-01	 1.2042834297e+00
 1.8353245235e+00	 4.9151184472e-01	 1.9737415636e+00
 1.8307737851e+00	 5.0820010605e-01	 1.9061650013e+00
 1.8260598318e+00	 5.2488616918e-01	 1.8348869571e+00
 1.8211821257e+00	 5.4156778435e-01	 1.7603687175e+00
 1.8161401676e+00	 5.5824268165e-01	 1.6831269781e+00
 1.8109334980e+00	 5.7490857181e-01	 1.6037366442e+00
 1.8055616974e+00	 5.9156314700e-01	 1.5228286444e+00
 1.8000243873e+00	 6.0820408166e-01	 1.4409511051e+00
 1.7943212307e+00	 6.2482903338e-01	 1.3588383015e+00
 1.7884519325e+00	 6.4143564372e-01	 1.2773265899e+00
 1.7824162404e+00	 6.5802153915e-01	 1.1972556442e+00
 1.8410066428e+00	 4.9303355322e-01	 1.9625191925e+00
 1.8364418154e+00	 5.0977348099e-01	 1.8946027311e+00
 1.8317132678e+00	 5.2651120376e-01	 1.8230312400e+00
 1.8268204604e+00	 5.4324446480e-01	 1.7482928149e+00
 1.8217628926e+00	 5.5997098717e-01	 1.6709287006e+00
 1.8165401032e+00	 5.7668847451e-01	 1.5915360149e+00
 1.8111516717e+00	 5.9339461185e-01	 1.5107702306e+00
 1.8055972183e+00	 6.1008706644e-01	 1.4293712597e+00
 1.7998764048e+00	 6.2676348859e-01	 1.3481870705e+00
 1.7939889354e+00	 6.4342151259e-01	 1.2680833866e+00
 1.7879345569e+00	 6.6005875754e-01	 1.1899277016e+00
 1.8466887620e+00	 4.9455526172e-01	 1.9511891173e+00
 1.8421098457e+00	 5.1134685593e-01	 1.8830668122e+00
 1.8373667038e+00	 5.2813623834e-01	 1.8113240111e+00
 1.8324587952e+00	 5.4492114525e-01	 1.7364659142e+00
 1.8273856176e+00	 5.6169929268e-01	 1.6590487412e+00
 1.8221467085e+00	 5.7846837721e-01	 1.5796823926e+00
 1.8167416460e+00	 5.9522607670e-01	 1.4990537990e+00
 1.8111700492e+00	 6.1197005121e-01	 1.4181041485e+00
 1.8054315789e+00	 6.2869794381e-01	 1.3377478020e+00
 1.7995259383e+00	 6.4540738146e-01	 1.2588713846e+00
 1.7934528735e+00	 6.6209597592e-01	 1.1823619865e+00
 1.8523708813e+00	 4.9607697022e-01	 1.9397499499e+00
 1.8477778760e+00	 5.1292023088e-01	 1.8715516085e+00
 1.8430201399e+00	 5.2976127292e-01	 1.7997575325e+00
 1.8380971300e+00	 5.4659782570e-01	 1.7248804150e+00
 1.8330083425e+00	 5.6342759820e-01	 1.6474819686e+00
 1.8277533137e+00	 5.8024827990e-01	 1.5681755380e+00
 1.8223316203e+00	 5.9705754155e-01	 1.4876941830e+00
 1.8167428801e+00	 6.1385303598e-01	 1.4071722075e+00
 1.8109867530e+00	 6.3063239902e-01	 1.3275531755e+00
 1.8050629412e+00	 6.4739325032e-01	 1.2497362312e+00
 1.7989711900e+00	 6.6413319431e-01	 1.1746199203e+00
 1.8580530006e+00	 4.9759867872e-01	 1.9282006875e+00
 1.8534459063e+00	 5.1449360582e-01	 1.8600519251e+00
 1.8486735759e+00	 5.3138630750e-01	 1.7883245371e+00
 1.8437354647e+00	 5.4827450614e-01	 1.7135291902e+00
 1.8386310675e+00	 5.6515590372e-01	 1.6362236992e+00
 1.8333599190e+00	 5.8202818260e-01	 1.5570156049e+00
 1.8279215946e+00	 5.9888900640e-01	 1.4767058723e+00
 1.8223157110e+00	 6.1573602076e-01	 1.3965974252e+00
 1.8165419271e+00	 6.3256685423e-01	 1.3176352877e+00
 1.8105999441e+00	 6.4937911919e-01	 1.2407228224e+00
 1.8044895065e+00	 6.6617041270e-01	 1.1667619705e+00
 1.8637351198e+00	 4.9912038721e-01	 1.9165406998e+00
 1.8591139366e+00	 5.1606698076e-01	 1.8485629939e+00
 1.8543270119e+00	 5.3301134208e-01	 1.7770182134e+00
 1.8493737995e+00	 5.4995118659e-01	 1.7024055703e+00
 1.8442537925e+00	 5.6688420923e-01	 1.6252696811e+00
 1.8389665243e+00	 5.8380808530e-01	 1.5462031241e+00
 1.8335115689e+00	 6.0072047125e-01	 1.4661030129e+00
 1.8278885420e+00	 6.1761900553e-01	 1.3864013447e+00
 1.8220971012e+00	 6.3450130944e-01	 1.3080256565e+00
 1.8161369470e+00	 6.5136498805e-01	 1.2318753097e+00
 1.8100078231e+00	 6.6820763109e-01	 1.1588476609e+00
 1.8694172391e+00	 5.0064209571e-01	 1.9047697168e+00
 1.8647819669e+00	 5.1764035570e-01	 1.8370804598e+00
 1.8599804479e+00	 5.3463637666e-01	 1.7658321904e+00
 1.8550121342e+00	 5.5162786704e-01	 1.6915033273e+00
 1.8498765175e+00	 5.6861251475e-01	 1.6146160776e+00
 1.8445731295e+00	 5.8558798800e-01	 1.5357389875e+00
 1.8391015432e+00	 6.0255193610e-01	 1.4558994066e+00
 1.8334613729e+00	 6.1950199030e-01	 1.3766050645e+00
 1.8276522753e+00	 6.3643576465e-01	 1.2987552241e+00
 1.8216739498e+00	 6.5335085692e-01	 1.2232371061e+00
 1.8155261396e+00	 6.7024484947e-01	 1.1509355811e+00
 1.8750993584e+00	 5.0216380421e-01	 1.8928878163e+00
 1.8704499972e+00	 5.1921373064e-01	 1.8256003671e+00
 1.8656338839e+00	 5.3626141124e-01	 1.7547605228e+00
 1.8606504690e+00	 5.5330454748e-01	 1.6808166593e+00
 1.8554992424e+00	 5.7034082026e-01	 1.6042594518e+00
 1.8501797348e+00	 5.8736789070e-01	 1.5256244320e+00
 1.8446915175e+00	 6.0438340096e-01	 1.4461085107e+00
 1.8390342038e+00	 6.2138497507e-01	 1.3672292405e+00
 1.8332074494e+00	 6.3837021987e-01	 1.2898543616e+00
 1.8272109527e+00	 6.5533672579e-01	 1.2148508931e+00
 1.8210444561e+00	 6.7228206786e-01	 1.1430833961e+00
 1.7658612908e+00	 6.5190988399e-01	 1.2171841147e+00
 1.7597166021e+00	 6.6831884279e-01	 1.1294343358e+00
 1.7534066938e+00	 6.8470253485e-01	 1.0437005001e+00
 1.7469314461e+00	 7.0105856935e-01	 9.6001654301e-01
 1.7402907834e+00	 7.1738454422e-01	 8.7822803552e-01
 1.7334846749e+00	 7.3367804722e-01	 7.9811099197e-01
 1.7265131351e+00	 7.4993665688e-01	 7.1936954937e-01
 1.7193762243e+00	 7.6615794357e-01	 6.4163412101e-01
 1.7120740486e+00	 7.8233947050e-01	 5.6446006941e-01
 1.7046067609e+00	 7.9847879485e-01	 4.8732694356e-01
 1.6969745605e+00	 8.1457346876e-01	 4.0963832340e-01
 1.7713796073e+00	 6.5394710237e-01	 1.2109477002e+00
 1.7652157164e+00	 6.7040733917e-01	 1.1246372893e+00
 1.7588860897e+00	 6.8684223028e-01	 1.0374404982e+00
 1.7523906069e+00	 7.0324937738e-01	 9.5311519986e-01
 1.7457291921e+00	 7.1962637092e-01	 8.7139969757e-01
 1.7389018145e+00	 7.3597079112e-01	 7.9194177325e-01
 1.7319084887e+00	 7.5228020893e-01	 7.1431931094e-01
 1.7247492750e+00	 7.6855218714e-01	 6.3803855452e-01
 1.7174242800e+00	 7.8478428135e-01	 5.6253289025e-01
 1.7099336570e+00	 8.0097404108e-01	 4.8716219971e-01
 1.7022776061e+00	 8.1711901085e-01	 4.1121282671e-01
 1.7768979239e+00	 6.5598432076e-01	 1.2042834297e+00
 1.7707148308e+00	 6.7249583555e-01	 1.1212174569e+00
 1.7643654857e+00	 6.8898192570e-01	 1.0350763826e+00
 1.7578497677e+00	 7.0544018541e-01	 9.4950125308e-01
 1.7511676008e+00	 7.2186819762e-01	 8.6726162159e-01
 1.7443189541e+00	 7.3826353502e-01	 7.8789493751e-01
 1.7373038422e+00	 7.5462376099e-01	 7.1087036284e-01
 1.7301223257e+00	 7.7094643071e-01	 6.3558710283e-01
 1.7227745114e+00	 7.8722909220e-01	 5.6137326702e-01
 1.7152605532e+00	 8.0346928732e-01	 4.8748530685e-01
 1.7075806516e+00	 8.1966455294e-01	 4.1310807452e-01
 1.7824162404e+00	 6.5802153915e-01	 1.1972556442e+00
 1.7762139452e+00	 6.7458433194e-01	 1.1170622773e+00
 1.7698448816e+00	 6.9112162112e-01	 1.0344320069e+00
 1.7633089284e+00	 7.0763099344e-01	 9.4923957649e-01
 1.7566060095e+00	 7.2411002433e-01	 8.6588299005e-01
 1.7497360937e+00	 7.4055627891e-01	 7.8603958123e-01
 1.7426991958e+00	 7.5696731304e-01	 7.0908717037e-01
 1.7354953764e+00	 7.7334067429e-01	 6.3433490634e-01
 1.7281247429e+00	 7.8967390304e-01	 5.6102217497e-01
 1.7205874493e+00	 8.0596453355e-01	 4.8831809055e-01
 1.7128836971e+00	 8.2221009503e-01	 4.1532161605e-01
 1.7879345569e+00	 6.6005875754e-01	 1.1899277016e+00
 1.7817130596e+00	 6.7667282832e-01	 1.1122509296e+00
 1.7753242775e+00	 6.9326131654e-01	 1.0327515333e+00
 1.7687680892e+00	 7.0982180147e-01	 9.5105169357e-01
 1.7620444182e+00	 7.2635185103e-01	 8.6733269569e-01
 1.7551532334e+00	 7.4284902281e-01	 7.8644445903e-01
 1.7480945493e+00	 7.5931086509e-01	 7.0903386070e-01
 1.7408684271e+00	 7.7573491786e-01	 6.3433682914e-01
 1.7334749743e+00	 7.9211871389e-01	 5.6152043517e-01
 1.7259143454e+00	 8.0845977979e-01	 4.8968240677e-01
 1.7181867426e+00	 8.2475563712e-01	 4.1785128014e-01
 1.7934528735e+00	 6.6209597592e-01	 1.1823619865e+00
 1.7872121740e+00	 6.7876132470e-01	 1.1068614154e+00
 1.7808036734e+00	 6.9540101196e-01	 1.0301150278e+00
 1.7742272500e+00	 7.1201260949e-01	 9.5166916131e-01
 1.7674828269e+00	 7.2859367773e-01	 8.7107573763e-01
 1.7605703730e+00	 7.4514176671e-01	 7.8917797044e-01
 1.7534899029e+00	 7.6165441714e-01	 7.1077420806e-01
 1.7462414778e+00	 7.7812916143e-01	 6.3564744168e-01
 1.7388252057e+00	 7.9456352473e-01	 5.6290869383e-01
 1.7312412415e+00	 8.1095502602e-01	 4.9160011692e-01
 1.7234897881e+00	 8.2730117921e-01	 4.2069514501e-01
 1.7989711900e+00	 6.6413319431e-01	 1.1746199203e+00
 1.7927112883e+00	 6.8084982109e-01	 1.1009705715e+00
 1.7862830693e+00	 6.9754070738e-01	 1.0266110545e+00
 1.7796864108e+00	 7.1420341752e-01	 9.5102920608e-01
 1.7729212356e+00	 7.3083550443e-01	 8.7372036162e-01
 1.7659875126e+00	 7.4743451061e-01	 7.9418468598e-01
 1.7588852564e+00	 7.6399796920e-01	 7.1437161867e-01
 1.7516145285e+00	 7.8052340501e-01	 6.3832100337e-01
 1.7441754371e+00	 7.9700833558e-01	 5.6522740145e-01
 1.7365681377e+00	 8.1345027225e-01	 4.9409306274e-01
 1.7287928336e+00	 8.2984672130e-01	 4.2385150796e-01
 1.8044895065e+00	 6.6617041270e-01	 1.1667619705e+00
 1.7982104027e+00	 6.8293831747e-01	 1.0946540836e+00
 1.7917624652e+00	 6.9968040280e-01	 1.0223268729e+00
 1.7851455715e+00	 7.1639422555e-01	 9.4922685419e-01
 1.7783596443e+00	 7.3307733113e-01	 8.7480967842e-01
 1.7714046522e+00	 7.4972725450e-01	 7.9853750818e-01
 1.7642806100e+00	 7.6634152125e-01	 7.1988911561e-01
 1.7569875792e+00	 7.8291764858e-01	 6.4241144489e-01
 1.7495256685e+00	 7.9945314642e-01	 5.6851679199e-01
 1.7418950338e+00	 8.1594551849e-01	 4.9718304125e-01
 1.7340958791e+00	 8.3239226339e-01	 4.2731885520e-01
 1.8100078231e+00	 6.6820763109e-01	 1.1588476609e+00
 1.8037095171e+00	 6.8502681386e-01	 1.0879864983e+00
 1.7972418612e+00	 7.0182009823e-01	 1.0173484542e+00
 1.7906047323e+00	 7.1858503358e-01	 9.4635573973e-01
 1.7837980530e+00	 7.3531915783e-01	 8.7444106333e-01
 1.7768217918e+00	 7.5201999840e-01	 8.0104502588e-01
 1.7696759635e+00	 7.6868507330e-01	 7.2561319647e-01
 1.7623606299e+00	 7.8531189216e-01	 6.4797235054e-01
 1.7548758999e+00	 8.0189795727e-01	 5.7281686186e-01
 1.7472219299e+00	 8.1844076472e-01	 5.0089177966e-01
 1.7393989246e+00	 8.3493780548e-01	 4.3109583172e-01
 1.8155261396e+00	 6.7024484947e-01	 1.1509355811e+00
 1.8092086315e+00	 6.8711531024e-01	 1.0810412371e+00
 1.8027212571e+00	 7.0395979365e-01	 1.0117604964e+00
 1.7960638931e+00	 7.2077584161e-01	 9.4250812177e-01
 1.7892364617e+00	 7.3756098453e-01	 8.7271046240e-01
 1.7822389314e+00	 7.5431274230e-01	 8.0180284132e-01
 1.7750713171e+00	 7.7102862536e-01	 7.2922661704e-01
 1.7677336806e+00	 7.8770613573e-01	 6.5442591592e-01
 1.7602261313e+00	 8.0434276811e-01	 5.7816734883e-01
 1.7525488261e+00	 8.2093601096e-01	 5.0524091018e-01
 1.7447019701e+00	 8.3748334757e-01	 4.3518121117e-01
 1.8210444561e+00	 6.7228206786e-01	 1.1430833961e+00
 1.8147077459e+00	 6.8920380662e-01	 1.0738906083e+00
 1.8082006530e+00	 7.0609948907e-01	 1.0056464393e+00
 1.8015230538e+00	 7.2296664964e-01	 9.3777490128e-01
 1.7946748704e+00	 7.3980281123e-01	 8.6971241053e-01
 1.7876560710e+00	 7.5660548620e-01	 8.0090514119e-01
 1.7804666706e+00	 7.7337217741e-01	 7.3080604666e-01
 1.7731067313e+00	 7.9010037930e-01	 6.5887154492e-01
 1.7655763627e+00	 8.0678757896e-01	 5.8455786561e-01
 1.7578757222e+00	 8.2343125719e-01	 5.1025194490e-01
 1.7500050156e+00	 8.4002888966e-01	 4.3957386581e-01
 1.6969745605e+00	 8.1457346876e-01	 4.0963832340e-01
 1.6891776941e+00	 8.3062104048e-01	 3.3276783757e-01
 1.6812164555e+00	 8.4661905544e-01	 2.5831232686e-01
 1.6730911861e+00	 8.6256505739e-01	 1.8587293928e-01
 1.6648022752e+00	 8.7845658951e-01	 1.1494498275e-01
 1.6563501600e+00	 8.9429119557e-01	 4.4920487633e-02
 1.6477353260e+00	 9.1006642103e-01	-2.4908373934e-02
 1.6389583066e+00	 9.2577981426e-01	-9.5344986691e-02
 1.6300196837e+00	 9.4142892766e-01	-1.6728308794e-01
 1.6209200877e+00	 9.5701131883e-01	-2.4170064392e-01
 1.6116601972e+00	 9.7252455179e-01	-3.1965279536e-01
 1.7022776061e+00	 8.1711901085e-01	 4.1121282671e-01
 1.6944563744e+00	 8.3321673123e-01	 3.3580782350e-01
 1.6864702569e+00	 8.4926473998e-01	 2.6241764434e-01
 1.6783195960e+00	 8.6526057319e-01	 1.9071349717e-01
 1.6700047823e+00	 8.8120176636e-01	 1.2025944902e-01
 1.6615262543e+00	 8.9708585556e-01	 5.0514855328e-02
 1.6528844989e+00	 9.1291037860e-01	-1.9162340574e-02
 1.6440800513e+00	 9.2867287618e-01	-8.9511411515e-02
 1.6351134952e+00	 9.4437089306e-01	-1.6136373227e-01
 1.6259854630e+00	 9.6000197920e-01	-2.3563672983e-01
 1.6166966353e+00	 9.7556369101e-01	-3.1332688596e-01
 1.7075806516e+00	 8.1966455294e-01	 4.1310807452e-01
 1.6997350547e+00	 8.3581242198e-01	 3.3910526378e-01
 1.6917240583e+00	 8.5191042453e-01	 2.6679141755e-01
 1.6835480060e+00	 8.6795608900e-01	 1.9589233278e-01
 1.6752072894e+00	 8.8394694320e-01	 1.2602576512e-01
 1.6667023485e+00	 8.9988051554e-01	 5.6703747936e-02
 1.6580336718e+00	 9.1575433616e-01	-1.2664205013e-02
 1.6492017960e+00	 9.3156593810e-01	-8.2766986352e-02
 1.6402073067e+00	 9.4731285845e-01	-1.5438684838e-01
 1.6310508383e+00	 9.6299263957e-01	-2.2839340492e-01
 1.6217330735e+00	 9.7860283024e-01	-3.0573666866e-01
 1.7128836971e+00	 8.2221009503e-01	 4.1532161605e-01
 1.7050137350e+00	 8.3840811273e-01	 3.4263304193e-01
 1.6969778597e+00	 8.5455610908e-01	 2.7138641379e-01
 1.6887764159e+00	 8.7065160480e-01	 2.0134680627e-01
 1.6804097965e+00	 8.8669212004e-01	 1.3217074926e-01
 1.6718784428e+00	 9.0267517553e-01	 6.3408459651e-02
 1.6631828447e+00	 9.1859829373e-01	-5.4930302017e-03
 1.6543235407e+00	 9.3445900002e-01	-7.5185819364e-02
 1.6453011183e+00	 9.5025482385e-01	-1.4641613675e-01
 1.6361162135e+00	 9.6598329994e-01	-2.2001837232e-01
 1.6267695116e+00	 9.8164196946e-01	-2.9690812735e-01
 1.7181867426e+00	 8.2475563712e-01	 4.1785128014e-01
 1.7102924153e+00	 8.4100380348e-01	 3.4636457683e-01
 1.7022316612e+00	 8.5720179363e-01	 2.7615613741e-01
 1.6940048259e+00	 8.7334712061e-01	 2.0701516071e-01
 1.6856123036e+00	 8.8943729688e-01	 1.3862219119e-01
 1.6770545370e+00	 9.0546983551e-01	 7.0551285948e-02
 1.6683320175e+00	 9.2144225130e-01	 2.2730915154e-03
 1.6594452854e+00	 9.3735206194e-01	-6.6841140705e-02
 1.6503949298e+00	 9.5319678925e-01	-1.3751457581e-01
 1.6411815888e+00	 9.6897396032e-01	-2.1055883398e-01
 1.6318059497e+00	 9.8468110869e-01	-2.8686703182e-01
 1.7234897881e+00	 8.2730117921e-01	 4.2069514501e-01
 1.7155710956e+00	 8.4359949423e-01	 3.5027378712e-01
 1.7074854626e+00	 8.5984747818e-01	 2.8105478962e-01
 1.6992332359e+00	 8.7604263641e-01	 2.1283647844e-01
 1.6908148107e+00	 8.9218247373e-01	 1.4530880591e-01
 1.6822306313e+00	 9.0826449550e-01	 7.8055475580e-02
 1.6734811904e+00	 9.2428620886e-01	 1.0556989697e-02
 1.6645670301e+00	 9.4024512386e-01	-5.7805350901e-02
 1.6554887413e+00	 9.5613875465e-01	-1.2774446903e-01
 1.6462469641e+00	 9.7196462069e-01	-2.0006153528e-01
 1.6368423878e+00	 9.8772024791e-01	-2.7563897884e-01
 1.7287928336e+00	 8.2984672130e-01	 4.2385150796e-01
 1.7208497759e+00	 8.4619518498e-01	 3.5433505567e-01
 1.7127392640e+00	 8.6249316273e-01	 2.8603722866e-01
 1.7044616458e+00	 8.7873815221e-01	 2.1875063761e-01
 1.6960173179e+00	 8.9492765057e-01	 1.5216018757e-01
 1.6874067255e+00	 9.1105915549e-01	 8.5845182883e-02
 1.6786303633e+00	 9.2713016643e-01	 1.9282367423e-02
 1.6696887748e+00	 9.4313818578e-01	-4.8150068932e-02
 1.6605825528e+00	 9.5908072005e-01	-1.1716749163e-01
 1.6513123394e+00	 9.7495528106e-01	-1.8857280940e-01
 1.6418788259e+00	 9.9075938713e-01	-2.6324943312e-01
 1.7340958791e+00	 8.3239226339e-01	 4.2731885520e-01
 1.7261284562e+00	 8.4879087574e-01	 3.5852319419e-01
 1.7179930654e+00	 8.6513884727e-01	 2.9105893004e-01
 1.7096900558e+00	 8.8143366802e-01	 2.2469826904e-01
 1.7012198250e+00	 8.9767282741e-01	 1.5910676382e-01
 1.6925828198e+00	 9.1385381547e-01	 9.3845420396e-02
 1.6837795362e+00	 9.2997412399e-01	 2.8373753224e-02
 1.6748105195e+00	 9.4603124770e-01	-3.7946180011e-02
 1.6656763643e+00	 9.6202268545e-01	-1.0584473706e-01
 1.6563777146e+00	 9.7794594143e-01	-1.7613862145e-01
 1.6469152640e+00	 9.9379852636e-01	-2.4972376810e-01
 1.7393989246e+00	 8.3493780548e-01	 4.3109583172e-01
 1.7314071365e+00	 8.5138656649e-01	 3.6281340805e-01
 1.7232468669e+00	 8.6778453182e-01	 2.9607594706e-01
 1.7149184657e+00	 8.8412918382e-01	 2.3062071326e-01
 1.7064223321e+00	 9.0041800425e-01	 1.6607975027e-01
 1.6977589140e+00	 9.1664847546e-01	 1.0198201178e-01
 1.6889287091e+00	 9.3281808156e-01	 3.7756453309e-02
 1.6799322642e+00	 9.4892430962e-01	-2.7263883087e-02
 1.6707701758e+00	 9.6496465085e-01	-9.3836763298e-02
 1.6614430899e+00	 9.8093660180e-01	-1.6280461253e-01
 1.6519517022e+00	 9.9683766558e-01	-2.3508730659e-01
 1.7447019701e+00	 8.3748334757e-01	 4.3518121117e-01
 1.7366858168e+00	 8.5398225724e-01	 3.6718126109e-01
 1.7285006683e+00	 8.7043021637e-01	 3.0104487145e-01
 1.7201468757e+00	 8.8682469963e-01	 2.3645997787e-01
 1.7116248392e+00	 9.0316318109e-01	 1.7301110535e-01
 1.7029350083e+00	 9.1944313545e-01	 1.1018154504e-01
 1.6940778820e+00	 9.3566203912e-01	 4.7356504099e-02
 1.6850540089e+00	 9.5181737154e-01	-1.6172738052e-02
 1.6758639873e+00	 9.6790661625e-01	-8.1203638768e-02
 1.6665084652e+00	 9.8392726217e-01	-1.4861614343e-01
 1.6569881403e+00	 9.9987680481e-01	-2.1936536137e-01
 1.7500050156e+00	 8.4002888966e-01	 4.3957386581e-01
 1.7419644970e+00	 8.5657794799e-01	 3.7160264070e-01
 1.7337544697e+00	 8.7307590092e-01	 3.0592279432e-01
 1.7253752856e+00	 8.8952021543e-01	 2.4215869507e-01
 1.7168273463e+00	 9.0590835794e-01	 1.7983348543e-01
 1.7081111025e+00	 9.2223779543e-01	 1.1837132602e-01
 1.6992270549e+00	 9.3850599669e-01	 5.7100625044e-02
 1.6901757536e+00	 9.5471043346e-01	-4.7417126857e-03
 1.6809577988e+00	 9.7084858165e-01	-6.8004988142e-02
 1.6715738405e+00	 9.8691792254e-01	-1.3361833822e-01
 1.6620245784e+00	 1.0029159440e+00	-2.0258327556e-01
 1.6116601972e+00	 9.7252455179e-01	-3.1965279536e-01
 1.6022407393e+00	 9.8796619811e-01	-3.9496378507e-01
 1.5926624892e+00	 1.0033338381e+00	-4.6153424559e-01
 1.5829262705e+00	 1.0186250621e+00	-5.2063300183e-01
 1.5730329551e+00	 1.0338374715e+00	-5.7358136194e-01
 1.5629834624e+00	 1.0489686799e+00	-6.2174142345e-01
 1.5527787599e+00	 1.0640163147e+00	-6.6650348108e-01
 1.5424198625e+00	 1.0789780178e+00	-7.0927256492e-01
 1.5319078326e+00	 1.0938514468e+00	-7.5145414411e-01
 1.5212437792e+00	 1.1086342767e+00	-7.9443903693e-01
 1.5104288582e+00	 1.1233242005e+00	-8.3958757514e-01
 1.6166966353e+00	 9.7556369101e-01	-3.1332688596e-01
 1.6072477416e+00	 9.9105359248e-01	-3.8825151779e-01
 1.5976395595e+00	 1.0064692564e+00	-4.5436409657e-01
 1.5878729151e+00	 1.0218082654e+00	-5.1296929844e-01
 1.5779486831e+00	 1.0370682136e+00	-5.6542875516e-01
 1.5678677857e+00	 1.0522467071e+00	-6.1314921716e-01
 1.5576311935e+00	 1.0673413657e+00	-6.5756979428e-01
 1.5472399246e+00	 1.0823498241e+00	-7.0014830301e-01
 1.5366950445e+00	 1.0972697326e+00	-7.4234675536e-01
 1.5259976660e+00	 1.1120987588e+00	-7.8561603109e-01
 1.5151489484e+00	 1.1268345886e+00	-8.3137978098e-01
 1.6217330735e+00	 9.7860283024e-01	-3.0573666866e-01
 1.6122547439e+00	 9.9414098685e-01	-3.8024713564e-01
 1.6026166297e+00	 1.0096046746e+00	-4.4593668795e-01
 1.5928195597e+00	 1.0249914687e+00	-5.0413608505e-01
 1.5828644110e+00	 1.0402989557e+00	-5.5623786812e-01
 1.5727521090e+00	 1.0555247342e+00	-6.0368439485e-01
 1.5624836271e+00	 1.0706664167e+00	-6.4795492734e-01
 1.5520599867e+00	 1.0857216304e+00	-6.9055180178e-01
 1.5414822565e+00	 1.1006880183e+00	-7.3298571541e-01
 1.5307515528e+00	 1.1155632409e+00	-7.7676017250e-01
 1.5198690386e+00	 1.1303449767e+00	-8.2335513794e-01
 1.6267695116e+00	 9.8164196946e-01	-2.9690812735e-01
 1.6172617462e+00	 9.9722838122e-01	-3.7095325687e-01
 1.6075937000e+00	 1.0127400929e+00	-4.3623384408e-01
 1.5977662043e+00	 1.0281746721e+00	-4.9409704837e-01
 1.5877801390e+00	 1.0435296978e+00	-5.4595698982e-01
 1.5776364323e+00	 1.0588027613e+00	-5.9328267075e-01
 1.5673360608e+00	 1.0739914677e+00	-6.3758492478e-01
 1.5568800488e+00	 1.0890934367e+00	-6.8040242242e-01
 1.5462694685e+00	 1.1041063041e+00	-7.2328676866e-01
 1.5355054396e+00	 1.1190277230e+00	-7.6778673467e-01
 1.5245891288e+00	 1.1338553649e+00	-8.1543167256e-01
 1.6318059497e+00	 9.8468110869e-01	-2.8686703182e-01
 1.6222687485e+00	 1.0003157756e+00	-3.6037258848e-01
 1.6125707703e+00	 1.0158755111e+00	-4.2523774444e-01
 1.6027128489e+00	 1.0313578754e+00	-4.8281645883e-01
 1.5926958670e+00	 1.0467604399e+00	-5.3453518279e-01
 1.5825207557e+00	 1.0620807884e+00	-5.8188068243e-01
 1.5721884944e+00	 1.0773165187e+00	-6.2638686323e-01
 1.5617001108e+00	 1.0924652430e+00	-6.6962062484e-01
 1.5510566805e+00	 1.1075245899e+00	-7.1316678183e-01
 1.5402593264e+00	 1.1224922052e+00	-7.5861209288e-01
 1.5293092190e+00	 1.1373657530e+00	-8.0752844771e-01
 1.6368423878e+00	 9.8772024791e-01	-2.7563897884e-01
 1.6272757508e+00	 1.0034031700e+00	-3.4850796346e-01
 1.6175478406e+00	 1.0190109293e+00	-4.1293095745e-01
 1.6076594935e+00	 1.0345410787e+00	-4.7025920161e-01
 1.5976115950e+00	 1.0499911820e+00	-5.2192231173e-01
 1.5874050790e+00	 1.0653588156e+00	-5.6941601764e-01
 1.5770409280e+00	 1.0806415696e+00	-6.1428887703e-01
 1.5665201729e+00	 1.0958370493e+00	-6.5812799264e-01
 1.5558438925e+00	 1.1109428757e+00	-7.0254376874e-01
 1.5450132132e+00	 1.1259566873e+00	-7.4915374948e-01
 1.5340293091e+00	 1.1408761411e+00	-7.9956558885e-01
 1.6418788259e+00	 9.9075938713e-01	-2.6324943312e-01
 1.6322827531e+00	 1.0064905643e+00	-3.3536237796e-01
 1.6225249108e+00	 1.0221463476e+00	-3.9929647440e-01
 1.6126061381e+00	 1.0377242820e+00	-4.5639080777e-01
 1.6025273230e+00	 1.0532219241e+00	-5.0806907238e-01
 1.5922894023e+00	 1.0686368427e+00	-5.5582724143e-01
 1.5818933616e+00	 1.0839666206e+00	-6.0122018404e-01
 1.5713402350e+00	 1.0992088556e+00	-6.4584725820e-01
 1.5606311044e+00	 1.1143611614e+00	-6.9133691530e-01
 1.5497671000e+00	 1.1294211694e+00	-7.3933035932e-01
 1.5387493993e+00	 1.1443865292e+00	-7.9146431052e-01
 1.6469152640e+00	 9.9379852636e-01	-2.4972376810e-01
 1.6372897554e+00	 1.0095779587e+00	-3.2093902844e-01
 1.6275019811e+00	 1.0252817658e+00	-3.8431774337e-01
 1.6175527827e+00	 1.0409074853e+00	-4.4117748539e-01
 1.6074430510e+00	 1.0564526662e+00	-4.9292702045e-01
 1.5971737256e+00	 1.0719148698e+00	-5.4105392329e-01
 1.5867457953e+00	 1.0872916716e+00	-5.8711111166e-01
 1.5761602970e+00	 1.1025806619e+00	-6.3270232806e-01
 1.5654183164e+00	 1.1177794472e+00	-6.7946660480e-01
 1.5545209868e+00	 1.1328856515e+00	-7.2906175545e-01
 1.5434694895e+00	 1.1478969174e+00	-7.8314694313e-01
 1.6519517022e+00	 9.9683766558e-01	-2.3508730659e-01
 1.6422967577e+00	 1.0126653531e+00	-3.0524134871e-01
 1.6324790514e+00	 1.0284171841e+00	-3.6797870312e-01
 1.6224994273e+00	 1.0440906887e+00	-4.2458615083e-01
 1.6123587789e+00	 1.0596834083e+00	-4.7644860065e-01
 1.6020580489e+00	 1.0751928969e+00	-5.2503666457e-01
 1.5915982289e+00	 1.0906167226e+00	-5.7189312301e-01
 1.5809803591e+00	 1.1059524682e+00	-6.1861830845e-01
 1.5702055284e+00	 1.1211977330e+00	-6.6685444325e-01
 1.5592748737e+00	 1.1363501336e+00	-7.1826897497e-01
 1.5481895797e+00	 1.1514073055e+00	-7.7453695977e-01
 1.6569881403e+00	 9.9987680481e-01	-2.1936536137e-01
 1.6473037601e+00	 1.0157527474e+00	-2.8827304695e-01
 1.6374561217e+00	 1.0315526023e+00	-3.5026381706e-01
 1.6274460719e+00	 1.0472738920e+00	-4.0658446006e-01
 1.6172745069e+00	 1.0629141504e+00	-4.5858717587e-01
 1.6069423723e+00	 1.0784709241e+00	-5.0771712596e-01
 1.5964506625e+00	 1.0939417736e+00	-5.5549884330e-01
 1.5858004212e+00	 1.1093242745e+00	-6.0352153099e-01
 1.5749927404e+00	 1.1246160187e+00	-6.5342328510e-01
 1.5640287605e+00	 1.1398146157e+00	-7.0687428515e-01
 1.5529096699e+00	 1.1549176936e+00	-7.6555900332e-01
 1.6620245784e+00	 1.0029159440e+00	-2.0258327556e-01
 1.6523107624e+00	 1.0188401418e+00	-2.7003814267e-01
 1.6424331920e+00	 1.0346880206e+00	-3.3115810715e-01
 1.6323927165e+00	 1.0504570953e+00	-3.8714083998e-01
 1.6221902349e+00	 1.0661448925e+00	-4.3929705647e-01
 1.6118266956e+00	 1.0817489512e+00	-4.8903805515e-01
 1.6013030961e+00	 1.0972668246e+00	-5.3786208635e-01
 1.5906204832e+00	 1.1126960808e+00	-5.8733957867e-01
 1.5797799523e+00	 1.1280343045e+00	-6.3909725900e-01
 1.5687826473e+00	 1.1432790978e+00	-6.9480120964e-01
 1.5576297601e+00	 1.1584280817e+00	-7.5613891369e-01
 1.5104288582e+00	 1.1233242005e+00	-8.3958757514e-01
 1.4994642719e+00	 1.1379189305e+00	-8.8906513555e-01
 1.4883512682e+00	 1.1524161998e+00	-9.4523449751e-01
 1.4770911407e+00	 1.1668137629e+00	-1.0096833509e+00
 1.4656852278e+00	 1.1811093972e+00	-1.0830674289e+00
 1.4541349125e+00	 1.1953009041e+00	-1.1546467538e+00
 1.4424416218e+00	 1.2093861099e+00	-1.2209264704e+00
 1.4306068261e+00	 1.2233628670e+00	-1.2820652922e+00
 1.4186320383e+00	 1.2372290552e+00	-1.3382387139e+00
 1.4065188138e+00	 1.2509825824e+00	-1.3896425236e+00
 1.3942687494e+00	 1.2646213859e+00	-1.4364966309e+00
 1.5151489484e+00	 1.1268345886e+00	-8.3137978098e-01
 1.5041500977e+00	 1.1414749272e+00	-8.8200872761e-01
 1.4930023659e+00	 1.1560175004e+00	-9.4002442417e-01
 1.4817070505e+00	 1.1704600559e+00	-1.0070103003e+00
 1.4702654941e+00	 1.1848003641e+00	-1.0817134726e+00
 1.4586790841e+00	 1.1990362194e+00	-1.1528526001e+00
 1.4469492519e+00	 1.2131654415e+00	-1.2191459194e+00
 1.4350774724e+00	 1.2271858760e+00	-1.2807188506e+00
 1.4230652634e+00	 1.2410953960e+00	-1.3377128894e+00
 1.4109141851e+00	 1.2548919030e+00	-1.3902892482e+00
 1.3986258392e+00	 1.2685733277e+00	-1.4386328231e+00
 1.5198690386e+00	 1.1303449767e+00	-8.2335513794e-01
 1.5088359236e+00	 1.1450309239e+00	-8.7533179960e-01
 1.4976534636e+00	 1.1596188011e+00	-9.3536257491e-01
 1.4863229603e+00	 1.1741063489e+00	-1.0050304232e+00
 1.4748457605e+00	 1.1884913310e+00	-1.0801408070e+00
 1.4632232557e+00	 1.2027715347e+00	-1.1509706348e+00
 1.4514568820e+00	 1.2169447731e+00	-1.2173899746e+00
 1.4395481187e+00	 1.2310088849e+00	-1.2794940613e+00
 1.4274984885e+00	 1.2449617368e+00	-1.3373934263e+00
 1.4153095564e+00	 1.2588012236e+00	-1.3912176654e+00
 1.4029829290e+00	 1.2725252696e+00	-1.4411195425e+00
 1.5245891288e+00	 1.1338553649e+00	-8.1543167256e-01
 1.5135217494e+00	 1.1485869205e+00	-8.6895655455e-01
 1.5023045613e+00	 1.1632201017e+00	-9.3117488755e-01
 1.4909388701e+00	 1.1777526419e+00	-1.0036109540e+00
 1.4794260268e+00	 1.1921822978e+00	-1.0783175934e+00
 1.4677674273e+00	 1.2065068501e+00	-1.1489729188e+00
 1.4559645120e+00	 1.2207241046e+00	-1.2156341399e+00
 1.4440187650e+00	 1.2348318939e+00	-1.2783693908e+00
 1.4319317136e+00	 1.2488280776e+00	-1.3372612490e+00
 1.4197049277e+00	 1.2627105442e+00	-1.3924106288e+00
 1.4073400189e+00	 1.2764772114e+00	-1.4439410188e+00
 1.5293092190e+00	 1.1373657530e+00	-8.0752844771e-01
 1.5182075753e+00	 1.1521429172e+00	-8.6280614354e-01
 1.5069556591e+00	 1.1668214023e+00	-9.2738816021e-01
 1.4955547799e+00	 1.1813989349e+00	-1.0019630023e+00
 1.4840062931e+00	 1.1958732647e+00	-1.0762137667e+00
 1.4723115989e+00	 1.2102421654e+00	-1.1468332182e+00
 1.4604721421e+00	 1.2245034362e+00	-1.2138555634e+00
 1.4484894114e+00	 1.2386549029e+00	-1.2773248957e+00
 1.4363649388e+00	 1.2526944184e+00	-1.3372988260e+00
 1.4241002990e+00	 1.2666198647e+00	-1.3938524978e+00
 1.4116971087e+00	 1.2804291532e+00	-1.4470829571e+00
 1.5340293091e+00	 1.1408761411e+00	-7.9956558885e-01
 1.5228934011e+00	 1.1556989138e+00	-8.5680469338e-01
 1.5116067568e+00	 1.1704227029e+00	-9.2393008018e-01
 1.5001706897e+00	 1.1850452280e+00	-9.9984078353e-01
 1.4885865595e+00	 1.1995642316e+00	-1.0738010026e+00
 1.4768557705e+00	 1.2139774807e+00	-1.1445269730e+00
 1.4649797722e+00	 1.2282827678e+00	-1.2120330063e+00
 1.4529600577e+00	 1.2424779118e+00	-1.2763421927e+00
 1.4407981639e+00	 1.2565607592e+00	-1.3374901403e+00
 1.4284956703e+00	 1.2705291853e+00	-1.3955291086e+00
 1.4160541986e+00	 1.2843810951e+00	-1.4505325098e+00
 1.5387493993e+00	 1.1443865292e+00	-7.9146431052e-01
 1.5275792270e+00	 1.1592549105e+00	-8.5087733440e-01
 1.5162578545e+00	 1.1740240036e+00	-9.2072925292e-01
 1.5047865996e+00	 1.1886915210e+00	-9.9721357058e-01
 1.4931668258e+00	 1.2032551984e+00	-1.0710526850e+00
 1.4813999421e+00	 1.2177127960e+00	-1.1420312644e+00
 1.4694874023e+00	 1.2320620994e+00	-1.2101468118e+00
 1.4574307040e+00	 1.2463009208e+00	-1.2754044287e+00
 1.4452313890e+00	 1.2604271000e+00	-1.3378206601e+00
 1.4328910416e+00	 1.2744385059e+00	-1.3974277457e+00
 1.4204112884e+00	 1.2883330369e+00	-1.4542782485e+00
 1.5434694895e+00	 1.1478969174e+00	-7.8314694313e-01
 1.5322650528e+00	 1.1628109071e+00	-8.4495022847e-01
 1.5209089522e+00	 1.1776253042e+00	-9.1766940366e-01
 1.5094025094e+00	 1.1923378140e+00	-9.9405238403e-01
 1.4977470921e+00	 1.2069461653e+00	-1.0679438729e+00
 1.4859441137e+00	 1.2214481114e+00	-1.1393247837e+00
 1.4739950323e+00	 1.2358414310e+00	-1.2081788744e+00
 1.4619013504e+00	 1.2501239297e+00	-1.2744962498e+00
 1.4496646141e+00	 1.2642934408e+00	-1.3382773092e+00
 1.4372864128e+00	 1.2783478264e+00	-1.3995371126e+00
 1.4247683783e+00	 1.2922849787e+00	-1.4583101355e+00
 1.5481895797e+00	 1.1514073055e+00	-7.7453695977e-01
 1.5369508787e+00	 1.1663669038e+00	-8.3895059708e-01
 1.5255600499e+00	 1.1812266048e+00	-9.1405224870e-01
 1.5140184192e+00	 1.1959841070e+00	-9.9032995841e-01
 1.5023273585e+00	 1.2106371322e+00	-1.0644512682e+00
 1.4904882853e+00	 1.2251834267e+00	-1.1363878002e+00
 1.4785026624e+00	 1.2396207626e+00	-1.2061126090e+00
 1.4663719967e+00	 1.2539469387e+00	-1.2736037721e+00
 1.4540978392e+00	 1.2681597816e+00	-1.3388484377e+00
 1.4416817841e+00	 1.2822571470e+00	-1.4018473036e+00
 1.4291254681e+00	 1.2962369206e+00	-1.4626194959e+00
 1.5529096699e+00	 1.1549176936e+00	-7.6555900332e-01
 1.5416367045e+00	 1.1699229005e+00	-8.3280674971e-01
 1.5302111476e+00	 1.1848279054e+00	-9.0963928598e-01
 1.5186343290e+00	 1.1996304000e+00	-9.8602070890e-01
 1.5069076248e+00	 1.2143280990e+00	-1.0605531834e+00
 1.4950324569e+00	 1.2289187420e+00	-1.1332021300e+00
 1.4830102925e+00	 1.2434000942e+00	-1.2039329201e+00
 1.4708426430e+00	 1.2577699477e+00	-1.2727145512e+00
 1.4585310644e+00	 1.2720261224e+00	-1.3395237928e+00
 1.4460771554e+00	 1.2861664676e+00	-1.4043497750e+00
 1.4334825579e+00	 1.3001888624e+00	-1.4671989896e+00
 1.5576297601e+00	 1.1584280817e+00	-7.5613891369e-01
 1.5463225304e+00	 1.1734788971e+00	-8.2644811226e-01
 1.5348622453e+00	 1.1884292061e+00	-9.0440238429e-01
 1.5232502388e+00	 1.2032766930e+00	-9.8110069811e-01
 1.5114878911e+00	 1.2180190659e+00	-1.0562295088e+00
 1.4995766285e+00	 1.2326540573e+00	-1.1297511042e+00
 1.4875179225e+00	 1.2471794258e+00	-1.2016261711e+00
 1.4753132894e+00	 1.2615929566e+00	-1.2718175527e+00
 1.4629642895e+00	 1.2758924632e+00	-1.3402944895e+00
 1.4504725267e+00	 1.2900757881e+00	-1.4070373163e+00
 1.4378396478e+00	 1.3041408042e+00	-1.4720425829e+00
 1.3942687494e+00	 1.2646213859e+00	-1.4364966309e+00
 1.3818834825e+00	 1.2781434332e+00	-1.4826162644e+00
 1.3693646910e+00	 1.2915467232e+00	-1.5310910761e+00
 1.3567140916e+00	 1.3048292872e+00	-1.5810589389e+00
 1.3439334400e+00	 1.3179891896e+00	-1.6316438393e+00
 1.3310245293e+00	 1.3310245293e+00	-1.6819623800e+00
 1.3179891896e+00	 1.3439334400e+00	-1.7311304631e+00
 1.3048292872e+00	 1.3567140916e+00	-1.7782701112e+00
 1.2915467232e+00	 1.3693646910e+00	-1.8225163770e+00
 1.2781434332e+00	 1.3818834825e+00	-1.8630242959e+00
 1.2646213859e+00	 1.3942687494e+00	-1.8989758301e+00
 1.3986258392e+00	 1.2685733277e+00	-1.4386328231e+00
 1.3862018684e+00	 1.2821376314e+00	-1.4863086550e+00
 1.3736439556e+00	 1.2955828067e+00	-1.5361938107e+00
 1.3609538232e+00	 1.3089068787e+00	-1.5874480303e+00
 1.3481332320e+00	 1.3221079059e+00	-1.6392182018e+00
 1.3351839809e+00	 1.3351839809e+00	-1.6906449637e+00
 1.3221079059e+00	 1.3481332320e+00	-1.7408694922e+00
 1.3089068787e+00	 1.3609538232e+00	-1.7890404278e+00
 1.2955828067e+00	 1.3736439556e+00	-1.8343208939e+00
 1.2821376314e+00	 1.3862018684e+00	-1.8758955576e+00
 1.2685733277e+00	 1.3986258392e+00	-1.9129776831e+00
 1.4029829290e+00	 1.2725252696e+00	-1.4411195425e+00
 1.3905202543e+00	 1.2861318297e+00	-1.4904200125e+00
 1.3779232203e+00	 1.2996188902e+00	-1.5417874114e+00
 1.3651935547e+00	 1.3129844702e+00	-1.5944027458e+00
 1.3523330240e+00	 1.3262266221e+00	-1.6474351371e+00
 1.3393434326e+00	 1.3393434326e+00	-1.7000485274e+00
 1.3262266221e+00	 1.3523330240e+00	-1.7514085742e+00
 1.3129844702e+00	 1.3651935547e+00	-1.8006896870e+00
 1.2996188902e+00	 1.3779232203e+00	-1.8470821580e+00
 1.2861318297e+00	 1.3905202543e+00	-1.8897993357e+00
 1.2725252696e+00	 1.4029829290e+00	-1.9280847912e+00
 1.4073400189e+00	 1.2764772114e+00	-1.4439410188e+00
 1.3948386402e+00	 1.2901260279e+00	-1.4949354035e+00
 1.3822024850e+00	 1.3036549737e+00	-1.5478572777e+00
 1.3694332862e+00	 1.3170620618e+00	-1.6019083185e+00
 1.3565328160e+00	 1.3303453383e+00	-1.6562792182e+00
 1.3435028843e+00	 1.3435028843e+00	-1.7101564957e+00
 1.3303453383e+00	 1.3565328160e+00	-1.7627295025e+00
 1.3170620618e+00	 1.3694332862e+00	-1.8131975735e+00
 1.3036549737e+00	 1.3822024850e+00	-1.8607772728e+00
 1.2901260279e+00	 1.3948386402e+00	-1.9047096855e+00
 1.2764772114e+00	 1.4073400189e+00	-1.9442677004e+00
 1.4116971087e+00	 1.2804291532e+00	-1.4470829571e+00
 1.3991570261e+00	 1.2941202261e+00	-1.4998413482e+00
 1.3864817496e+00	 1.3076910573e+00	-1.5543902471e+00
 1.3736730178e+00	 1.3211396533e+00	-1.6099514123e+00
 1.3607326080e+00	 1.3344640545e+00	-1.6657364485e+00
 1.3476623359e+00	 1.3476623359e+00	-1.7209537302e+00
 1.3344640545e+00	 1.3607326080e+00	-1.7748155207e+00
 1.3211396533e+00	 1.3736730178e+00	-1.8265452413e+00
 1.3076910573e+00	 1.3864817496e+00	-1.8753848373e+00
 1.2941202261e+00	 1.3991570261e+00	-1.9206021901e+00
 1.2804291532e+00	 1.4116971087e+00	-1.9614985228e+00
 1.4160541986e+00	 1.2843810951e+00	-1.4505325098e+00
 1.4034754120e+00	 1.2981144243e+00	-1.5051257918e+00
 1.3907610143e+00	 1.3117271408e+00	-1.5613745688e+00
 1.3779127493e+00	 1.3252172448e+00	-1.6185200948e+00
 1.3649324000e+00	 1.3385827707e+00	-1.6757942353e+00
 1.3518217876e+00	 1.3518217876e+00	-1.7324265029e+00
 1.3385827707e+00	 1.3649324000e+00	-1.7876512960e+00
 1.3252172448e+00	 1.3779127493e+00	-1.8407152884e+00
 1.3117271408e+00	 1.3907610143e+00	-1.8908849200e+00
 1.2981144243e+00	 1.4034754120e+00	-1.9374539345e+00
 1.2843810951e+00	 1.4160541986e+00	-1.9797509102e+00
 1.4204112884e+00	 1.2883330369e+00	-1.4542782485e+00
 1.4077937978e+00	 1.3021086226e+00	-1.5107780777e+00
 1.3950402789e+00	 1.3157632243e+00	-1.5687998753e+00
 1.3821524808e+00	 1.3292948363e+00	-1.6276038110e+00
 1.3691321920e+00	 1.3427014870e+00	-1.6864413628e+00
 1.3559812392e+00	 1.3559812392e+00	-1.7445624700e+00
 1.3427014870e+00	 1.3691321920e+00	-1.8012228933e+00
 1.3292948363e+00	 1.3821524808e+00	-1.8556917301e+00
 1.3157632243e+00	 1.3950402789e+00	-1.9072590336e+00
 1.3021086226e+00	 1.4077937978e+00	-1.9552434796e+00
 1.2883330369e+00	 1.4204112884e+00	-1.9990000285e+00
 1.4247683783e+00	 1.2922849787e+00	-1.4583101355e+00
 1.4121121837e+00	 1.3061028208e+00	-1.5167889195e+00
 1.3993195436e+00	 1.3197993078e+00	-1.5766571561e+00
 1.3863922124e+00	 1.3333724279e+00	-1.6371933559e+00
 1.3733319840e+00	 1.3468202032e+00	-1.6976679661e+00
 1.3601406909e+00	 1.3601406909e+00	-1.7573506455e+00
 1.3468202032e+00	 1.3733319840e+00	-1.8155177491e+00
 1.3333724279e+00	 1.3863922124e+00	-1.8714599736e+00
 1.3197993078e+00	 1.3993195436e+00	-1.9244901084e+00
 1.3061028208e+00	 1.4121121837e+00	-1.9739508366e+00
 1.2922849787e+00	 1.4247683783e+00	-2.0192225313e+00
 1.4291254681e+00	 1.2962369206e+00	-1.4626194959e+00
 1.4164305696e+00	 1.3100970190e+00	-1.5231503729e+00
 1.4035988083e+00	 1.3238353913e+00	-1.5849387301e+00
 1.3906319439e+00	 1.3374500194e+00	-1.6472808478e+00
 1.3775317760e+00	 1.3509389194e+00	-1.7094655044e+00
 1.3643001425e+00	 1.3643001425e+00	-1.7707813749e+00
 1.3509389194e+00	 1.3775317760e+00	-1.8305246455e+00
 1.3374500194e+00	 1.3906319439e+00	-1.8880067920e+00
 1.3238353913e+00	 1.4035988083e+00	-1.9425624672e+00
 1.3100970190e+00	 1.4164305696e+00	-1.9935574409e+00
 1.2962369206e+00	 1.4291254681e+00	-2.0403965347e+00
 1.4334825579e+00	 1.3001888624e+00	-1.4671989896e+00
 1.4207489555e+00	 1.3140912173e+00	-1.5298558091e+00
 1.4078780729e+00	 1.3278714748e+00	-1.5936382184e+00
 1.3948716755e+00	 1.3415276109e+00	-1.6578597018e+00
 1.3817315680e+00	 1.3550576356e+00	-1.7218267346e+00
 1.3684595942e+00	 1.3684595942e+00	-1.7848463095e+00
 1.3550576356e+00	 1.3817315680e+00	-1.8462336843e+00
 1.3415276109e+00	 1.3948716755e+00	-1.9053202982e+00
 1.3278714748e+00	 1.4078780729e+00	-1.9614617990e+00
 1.3140912173e+00	 1.4207489555e+00	-2.0140461266e+00
 1.3001888624e+00	 1.4334825579e+00	-2.0625015912e+00
 1.4378396478e+00	 1.3041408042e+00	-1.4720425829e+00
 1.4250673414e+00	 1.3180854155e+00	-1.5368998861e+00
 1.4121573376e+00	 1.3319075583e+00	-1.6027505173e+00
 1.3991114070e+00	 1.3456052024e+00	-1.6689246028e+00
 1.3859313600e+00	 1.3591763518e+00	-1.7347456849e+00
 1.3726190458e+00	 1.3726190458e+00	-1.7995383795e+00
 1.3591763518e+00	 1.3859313600e+00	-1.8626362608e+00
 1.3456052024e+00	 1.3991114070e+00	-1.9233899192e+00
 1.3319075583e+00	 1.4121573376e+00	-1.9811751335e+00
 1.3180854155e+00	 1.4250673414e+00	-2.0354011008e+00
 1.3041408042e+00	 1.4378396478e+00	-2.0855186640e+00
 1.2646213859e+00	 1.3942687494e+00	-1.8989758301e+00
 1.2509825824e+00	 1.4065188138e+00	-1.9347613204e+00
 1.2372290552e+00	 1.4186320383e+00	-1.9745124806e+00
 1.2233628670e+00	 1.4306068261e+00	-2.0170394229e+00
 1.2093861099e+00	 1.4424416218e+00	-2.0611469943e+00
 1.1953009041e+00	 1.4541349125e+00	-2.1056417874e+00
 1.1811093972e+00	 1.4656852278e+00	-2.1493389279e+00
 1.1668137629e+00	 1.4770911407e+00	-2.1899181758e+00
 1.1524161998e+00	 1.4883512682e+00	-2.2228306018e+00
 1.1379189305e+00	 1.4994642719e+00	-2.2472521595e+00
 1.1233242005e+00	 1.5104288582e+00	-2.2627693478e+00
 1.2685733277e+00	 1.3986258392e+00	-1.9129776831e+00
 1.2548919030e+00	 1.4109141851e+00	-1.9497520339e+00
 1.2410953960e+00	 1.4230652634e+00	-1.9901471451e+00
 1.2271858760e+00	 1.4350774724e+00	-2.0330089676e+00
 1.2131654415e+00	 1.4469492519e+00	-2.0771777665e+00
 1.1990362194e+00	 1.4586790841e+00	-2.1214952380e+00
 1.1848003641e+00	 1.4702654941e+00	-2.1648113985e+00
 1.1704600559e+00	 1.4817070505e+00	-2.2055359075e+00
 1.1560175004e+00	 1.4930023659e+00	-2.2388599308e+00
 1.1414749272e+00	 1.5041500977e+00	-2.2633620524e+00
 1.1268345886e+00	 1.5151489484e+00	-2.2786640411e+00
 1.2725252696e+00	 1.4029829290e+00	-1.9280847912e+00
 1.2588012236e+00	 1.4153095564e+00	-1.9659073751e+00
 1.2449617368e+00	 1.4274984885e+00	-2.0069837305e+00
 1.2310088849e+00	 1.4395481187e+00	-2.0501972581e+00
 1.2169447731e+00	 1.4514568820e+00	-2.0944255261e+00
 1.2027715347e+00	 1.4632232557e+00	-2.1385474909e+00
 1.1884913310e+00	 1.4748457605e+00	-2.1814504890e+00
 1.1741063489e+00	 1.4863229603e+00	-2.2219650233e+00
 1.1596188011e+00	 1.4976534636e+00	-2.2557227487e+00
 1.1450309239e+00	 1.5088359236e+00	-2.2803186849e+00
 1.1303449767e+00	 1.5198690386e+00	-2.2954137989e+00
 1.2764772114e+00	 1.4073400189e+00	-1.9442677004e+00
 1.2627105442e+00	 1.4197049277e+00	-1.9831952163e+00
 1.2488280776e+00	 1.4319317136e+00	-2.0249895516e+00
 1.2348318939e+00	 1.4440187650e+00	-2.0685731508e+00
 1.2207241046e+00	 1.4559645120e+00	-2.1128627492e+00
 1.2065068501e+00	 1.4677674273e+00	-2.1567766997e+00
 1.1921822978e+00	 1.4794260268e+00	-2.1992420651e+00
 1.1777526419e+00	 1.4909388701e+00	-2.2392014286e+00
 1.1632201017e+00	 1.5023045613e+00	-2.2734059778e+00
 1.1485869205e+00	 1.5135217494e+00	-2.2981234804e+00
 1.1338553649e+00	 1.5245891288e+00	-2.3130364384e+00
 1.2804291532e+00	 1.4116971087e+00	-1.9614985228e+00
 1.2666198647e+00	 1.4241002990e+00	-2.0015850235e+00
 1.2526944184e+00	 1.4363649388e+00	-2.0441335187e+00
 1.2386549029e+00	 1.4484894114e+00	-2.0881070720e+00
 1.2245034362e+00	 1.4604721421e+00	-2.1324634314e+00
 1.2102421654e+00	 1.4723115989e+00	-2.1761624605e+00
 1.1958732647e+00	 1.4840062931e+00	-2.2181733324e+00
 1.1813989349e+00	 1.4955547799e+00	-2.2574814362e+00
 1.1668214023e+00	 1.5069556591e+00	-2.2918977504e+00
 1.1521429172e+00	 1.5182075753e+00	-2.3167788219e+00
 1.1373657530e+00	 1.5293092190e+00	-2.3315504591e+00
 1.2843810951e+00	 1.4160541986e+00	-1.9797509102e+00
 1.2705291853e+00	 1.4284956703e+00	-2.0210478301e+00
 1.2565607592e+00	 1.4407981639e+00	-2.0643861116e+00
 1.2424779118e+00	 1.4529600577e+00	-2.1087709944e+00
 1.2282827678e+00	 1.4649797722e+00	-2.1532030648e+00
 1.2139774807e+00	 1.4768557705e+00	-2.1966857909e+00
 1.1995642316e+00	 1.4885865595e+00	-2.2382328172e+00
 1.1850452280e+00	 1.5001706897e+00	-2.2768749670e+00
 1.1704227029e+00	 1.5116067568e+00	-2.3111874439e+00
 1.1556989138e+00	 1.5228934011e+00	-2.3362880895e+00
 1.1408761411e+00	 1.5340293091e+00	-2.3509750826e+00
 1.2883330369e+00	 1.4204112884e+00	-1.9990000285e+00
 1.2744385059e+00	 1.4328910416e+00	-2.0415562119e+00
 1.2604271000e+00	 1.4452313890e+00	-2.0857193546e+00
 1.2463009208e+00	 1.4574307040e+00	-2.1305384123e+00
 1.2320620994e+00	 1.4694874023e+00	-2.1750586153e+00
 1.2177127960e+00	 1.4813999421e+00	-2.2183291087e+00
 1.2032551984e+00	 1.4931668258e+00	-2.2594103478e+00
 1.1886915210e+00	 1.5047865996e+00	-2.2973811941e+00
 1.1740240036e+00	 1.5162578545e+00	-2.3312657161e+00
 1.1592549105e+00	 1.5275792270e+00	-2.3566556977e+00
 1.1443865292e+00	 1.5387493993e+00	-2.3713302933e+00
 1.2922849787e+00	 1.4247683783e+00	-2.0192225313e+00
 1.2783478264e+00	 1.4372864128e+00	-2.0630842605e+00
 1.2642934408e+00	 1.4496646141e+00	-2.1081067915e+00
 1.2501239297e+00	 1.4619013504e+00	-2.1533843175e+00
 1.2358414310e+00	 1.4739950323e+00	-2.1980084994e+00
 1.2214481114e+00	 1.4859441137e+00	-2.2410762114e+00
 1.2069461653e+00	 1.4977470921e+00	-2.2816970356e+00
 1.1923378140e+00	 1.5094025094e+00	-2.3190004530e+00
 1.1776253042e+00	 1.5209089522e+00	-2.3521426758e+00
 1.1628109071e+00	 1.5322650528e+00	-2.3778871332e+00
 1.1478969174e+00	 1.5434694895e+00	-2.3926368774e+00
 1.2962369206e+00	 1.4291254681e+00	-2.0403965347e+00
 1.2822571470e+00	 1.4416817841e+00	-2.0856075582e+00
 1.2681597816e+00	 1.4540978392e+00	-2.1315234603e+00
 1.2539469387e+00	 1.4663719967e+00	-2.1772851752e+00
 1.2396207626e+00	 1.4785026624e+00	-2.2220325621e+00
 1.2251834267e+00	 1.4904882853e+00	-2.2649122545e+00
 1.2106371322e+00	 1.5023273585e+00	-2.3050852562e+00
 1.1959841070e+00	 1.5140184192e+00	-2.3417342247e+00
 1.1812266048e+00	 1.5255600499e+00	-2.3740703903e+00
 1.1663669038e+00	 1.5369508787e+00	-2.3999889910e+00
 1.1514073055e+00	 1.5481895797e+00	-2.4149164630e+00
 1.3001888624e+00	 1.4334825579e+00	-2.0625015912e+00
 1.2861664676e+00	 1.4460771554e+00	-2.1091031522e+00
 1.2720261224e+00	 1.4585310644e+00	-2.1559458681e+00
 1.2577699477e+00	 1.4708426430e+00	-2.2022189001e+00
 1.2434000942e+00	 1.4830102925e+00	-2.2471120531e+00
 1.2289187420e+00	 1.4950324569e+00	-2.2898237307e+00
 1.2143280990e+00	 1.5069076248e+00	-2.3295686303e+00
 1.1996304000e+00	 1.5186343290e+00	-2.3655851199e+00
 1.1848279054e+00	 1.5302111476e+00	-2.3971422424e+00
 1.1699229005e+00	 1.5416367045e+00	-2.4229690120e+00
 1.1549176936e+00	 1.5529096699e+00	-2.4381915593e+00
 1.3041408042e+00	 1.4378396478e+00	-2.0855186640e+00
 1.2900757881e+00	 1.4504725267e+00	-2.1335495289e+00
 1.2758924632e+00	 1.4629642895e+00	-2.1813519661e+00
 1.2615929566e+00	 1.4753132894e+00	-2.2281648318e+00
 1.2471794258e+00	 1.4875179225e+00	-2.2732296052e+00
 1.2326540573e+00	 1.4995766285e+00	-2.3157984491e+00
 1.2180190659e+00	 1.5114878911e+00	-2.3551420049e+00
 1.2032766930e+00	 1.5232502388e+00	-2.3905568619e+00
 1.1884292061e+00	 1.5348622453e+00	-2.4213726455e+00
 1.1734788971e+00	 1.5463225304e+00	-2.4468361195e+00
 1.1584280817e+00	 1.5576297601e+00	-2.4624855956e+00
 1.1233242005e+00	 1.5104288582e+00	-2.2627693478e+00
 1.1086342767e+00	 1.5212437792e+00	-2.2716270199e+00
 1.0938514468e+00	 1.5319078326e+00	-2.2764787455e+00
 1.0789780178e+00	 1.5424198625e+00	-2.2776942081e+00
 1.0640163147e+00	 1.5527787599e+00	-2.2757333181e+00
 1.0489686799e+00	 1.5629834624e+00	-2.2711304751e+00
 1.0338374715e+00	 1.5730329551e+00	-2.2644788832e+00
 1.0186250621e+00	 1.5829262705e+00	-2.2564150133e+00
 1.0033338381e+00	 1.5926624892e+00	-2.2476033082e+00
 9.8796619811e-01	 1.6022407393e+00	-2.2387212189e+00
 9.7252455179e-01	 1.6116601972e+00	-2.2304446591e+00
 1.1268345886e+00	 1.5151489484e+00	-2.2786640411e+00
 1.1120987588e+00	 1.5259976660e+00	-2.2871172870e+00
 1.0972697326e+00	 1.5366950445e+00	-2.2914605771e+00
 1.0823498241e+00	 1.5472399246e+00	-2.2920680838e+00
 1.0673413657e+00	 1.5576311935e+00	-2.2894044933e+00
 1.0522467071e+00	 1.5678677857e+00	-2.2840089486e+00
 1.0370682136e+00	 1.5779486831e+00	-2.2764790477e+00
 1.0218082654e+00	 1.5878729151e+00	-2.2674549973e+00
 1.0064692564e+00	 1.5976395595e+00	-2.2576040158e+00
 9.9105359248e-01	 1.6072477416e+00	-2.2476050784e+00
 9.7556369101e-01	 1.6166966353e+00	-2.2381340917e+00
 1.1303449767e+00	 1.5198690386e+00	-2.2954137989e+00
 1.1155632409e+00	 1.5307515528e+00	-2.3034686618e+00
 1.1006880183e+00	 1.5414822565e+00	-2.3073070544e+00
 1.0857216304e+00	 1.5520599867e+00	-2.3073070128e+00
 1.0706664167e+00	 1.5624836271e+00	-2.3039367745e+00
 1.0555247342e+00	 1.5727521090e+00	-2.2977384001e+00
 1.0402989557e+00	 1.5828644110e+00	-2.2893114572e+00
 1.0249914687e+00	 1.5928195597e+00	-2.2792968668e+00
 1.0096046746e+00	 1.6026166297e+00	-2.2683610079e+00
 9.9414098685e-01	 1.6122547439e+00	-2.2571801750e+00
 9.7860283024e-01	 1.6217330735e+00	-2.2464254781e+00
 1.1338553649e+00	 1.5245891288e+00	-2.3130364384e+00
 1.1190277230e+00	 1.5355054396e+00	-2.3207136996e+00
 1.1041063041e+00	 1.5462694685e+00	-2.3240602955e+00
 1.0890934367e+00	 1.5568800488e+00	-2.3234575408e+00
 1.0739914677e+00	 1.5673360608e+00	-2.3193760414e+00
 1.0588027613e+00	 1.5776364323e+00	-2.3123589965e+00
 1.0435296978e+00	 1.5877801390e+00	-2.3030055691e+00
 1.0281746721e+00	 1.5977662043e+00	-2.2919544263e+00
 1.0127400929e+00	 1.6075937000e+00	-2.2798675495e+00
 9.9722838122e-01	 1.6172617462e+00	-2.2674144076e+00
 9.8164196946e-01	 1.6267695116e+00	-2.2552565869e+00
 1.1373657530e+00	 1.5293092190e+00	-2.3315504591e+00
 1.1224922052e+00	 1.5402593264e+00	-2.3388853774e+00
 1.1075245899e+00	 1.5510566805e+00	-2.3417626415e+00
 1.0924652430e+00	 1.5617001108e+00	-2.3405662979e+00
 1.0773165187e+00	 1.5721884944e+00	-2.3357681811e+00
 1.0620807884e+00	 1.5825207557e+00	-2.3279108962e+00
 1.0467604399e+00	 1.5926958670e+00	-2.3175908766e+00
 1.0313578754e+00	 1.6027128489e+00	-2.3054416212e+00
 1.0158755111e+00	 1.6125707703e+00	-2.2921172116e+00
 1.0003157756e+00	 1.6222687485e+00	-2.2782762058e+00
 9.8468110869e-01	 1.6318059497e+00	-2.2645660025e+00
 1.1408761411e+00	 1.5340293091e+00	-2.3509750826e+00
 1.1259566873e+00	 1.5450132132e+00	-2.3580171368e+00
 1.1109428757e+00	 1.5558438925e+00	-2.3604567002e+00
 1.0958370493e+00	 1.5665201729e+00	-2.3586800434e+00
 1.0806415696e+00	 1.5770409280e+00	-2.3531591323e+00
 1.0653588156e+00	 1.5874050790e+00	-2.3444342911e+00
 1.0499911820e+00	 1.5976115950e+00	-2.3330969487e+00
 1.0345410787e+00	 1.6076594935e+00	-2.3197725740e+00
 1.0190109293e+00	 1.6175478406e+00	-2.3051039032e+00
 1.0034031700e+00	 1.6272757508e+00	-2.2897345571e+00
 9.8772024791e-01	 1.6368423878e+00	-2.2742931451e+00
 1.1443865292e+00	 1.5387493993e+00	-2.3713302933e+00
 1.1294211694e+00	 1.5497671000e+00	-2.3781429262e+00
 1.1143611614e+00	 1.5606311044e+00	-2.3801853900e+00
 1.0992088556e+00	 1.5713402350e+00	-2.3778457098e+00
 1.0839666206e+00	 1.5818933616e+00	-2.3715949284e+00
 1.0686368427e+00	 1.5922894023e+00	-2.3619694488e+00
 1.0532219241e+00	 1.6025273230e+00	-2.3495534696e+00
 1.0377242820e+00	 1.6126061381e+00	-2.3349616208e+00
 1.0221463476e+00	 1.6225249108e+00	-2.3188219033e+00
 1.0064905643e+00	 1.6322827531e+00	-2.3017590340e+00
 9.9075938713e-01	 1.6418788259e+00	-2.2843782925e+00
 1.1478969174e+00	 1.5434694895e+00	-2.3926368774e+00
 1.1328856515e+00	 1.5545209868e+00	-2.3992972430e+00
 1.1177794472e+00	 1.5654183164e+00	-2.4009919828e+00
 1.1025806619e+00	 1.5761602970e+00	-2.3981104466e+00
 1.0872916716e+00	 1.5867457953e+00	-2.3911217415e+00
 1.0719148698e+00	 1.5971737256e+00	-2.3805567546e+00
 1.0564526662e+00	 1.6074430510e+00	-2.3669902783e+00
 1.0409074853e+00	 1.6175527827e+00	-2.3510233473e+00
 1.0252817658e+00	 1.6275019811e+00	-2.3332658932e+00
 1.0095779587e+00	 1.6372897554e+00	-2.3143198204e+00
 9.9379852636e-01	 1.6469152640e+00	-2.2947626002e+00
 1.1514073055e+00	 1.5481895797e+00	-2.4149164630e+00
 1.1363501336e+00	 1.5592748737e+00	-2.4215151751e+00
 1.1211977330e+00	 1.5702055284e+00	-2.4229201478e+00
 1.1059524682e+00	 1.5809803591e+00	-2.4195216637e+00
 1.0906167226e+00	 1.5915982289e+00	-2.4117859245e+00
 1.0751928969e+00	 1.6020580489e+00	-2.4002367527e+00
 1.0596834083e+00	 1.6123587789e+00	-2.3854374077e+00
 1.0440906887e+00	 1.6224994273e+00	-2.3679726246e+00
 1.0284171841e+00	 1.6324790514e+00	-2.3484309875e+00
 1.0126653531e+00	 1.6422967577e+00	-2.3273877383e+00
 9.9683766558e-01	 1.6519517022e+00	-2.3053881227e+00
 1.1549176936e+00	 1.5529096699e+00	-2.4381915593e+00
 1.1398146157e+00	 1.5640287605e+00	-2.4448324428e+00
 1.1246160187e+00	 1.5749927404e+00	-2.4460139935e+00
 1.1093242745e+00	 1.5858004212e+00	-2.4421270745e+00
 1.0939417736e+00	 1.5964506625e+00	-2.4336340540e+00
 1.0784709241e+00	 1.6069423723e+00	-2.4210501876e+00
 1.0629141504e+00	 1.6172745069e+00	-2.4049251231e+00
 1.0472738920e+00	 1.6274460719e+00	-2.3858246450e+00
 1.0315526023e+00	 1.6374561217e+00	-2.3643127664e+00
 1.0157527474e+00	 1.6473037601e+00	-2.3409342746e+00
 9.9987680481e-01	 1.6569881403e+00	-2.3161978338e+00
 1.1584280817e+00	 1.5576297601e+00	-2.4624855956e+00
 1.1432790978e+00	 1.5687826473e+00	-2.4692854395e+00
 1.1280343045e+00	 1.5797799523e+00	-2.4703181107e+00
 1.1126960808e+00	 1.5906204832e+00	-2.4659747384e+00
 1.0972668246e+00	 1.6013030961e+00	-2.4567129726e+00
 1.0817489512e+00	 1.6118266956e+00	-2.4430380442e+00
 1.0661448925e+00	 1.6221902349e+00	-2.4254839610e+00
 1.0504570953e+00	 1.6323927165e+00	-2.4045949571e+00
 1.0346880206e+00	 1.6424331920e+00	-2.3809073063e+00
 1.0188401418e+00	 1.6523107624e+00	-2.3549316078e+00
 1.0029159440e+00	 1.6620245784e+00	-2.3271356480e+00
 9.7252455179e-01	 1.6116601972e+00	-2.2304446591e+00
 9.5701131883e-01	 1.6209200877e+00	-2.2177802090e+00
 9.4142892766e-01	 1.6300196837e+00	-2.1960875981e+00
 9.2577981426e-01	 1.6389583066e+00	-2.1665355685e+00
 9.1006642103e-01	 1.6477353260e+00	-2.1302463497e+00
 8.9429119557e-01	 1.6563501600e+00	-2.0882836060e+00
 8.7845658951e-01	 1.6648022752e+00	-2.0416412165e+00
 8.6256505739e-01	 1.6730911861e+00	-1.9912329374e+00
 8.4661905544e-01	 1.6812164555e+00	-1.9378829914e+00
 8.3062104048e-01	 1.6891776941e+00	-1.8823176195e+00
 8.1457346876e-01	 1.6969745605e+00	-1.8251576276e+00
 9.7556369101e-01	 1.6166966353e+00	-2.2381340917e+00
 9.6000197920e-01	 1.6259854630e+00	-2.2242226256e+00
 9.4437089306e-01	 1.6351134952e+00	-2.2012544633e+00
 9.2867287618e-01	 1.6440800513e+00	-2.1703926827e+00
 9.1291037860e-01	 1.6528844989e+00	-2.1327497620e+00
 8.9708585556e-01	 1.6615262543e+00	-2.0893753389e+00
 8.8120176636e-01	 1.6700047823e+00	-2.0412448247e+00
 8.6526057319e-01	 1.6783195960e+00	-1.9892489227e+00
 8.4926473998e-01	 1.6864702569e+00	-1.9341840964e+00
 8.3321673123e-01	 1.6944563744e+00	-1.8767440244e+00
 8.1711901085e-01	 1.7022776061e+00	-1.8175120731e+00
 9.7860283024e-01	 1.6217330735e+00	-2.2464254781e+00
 9.6299263957e-01	 1.6310508383e+00	-2.2311468883e+00
 9.4731285845e-01	 1.6402073067e+00	-2.2067561164e+00
 9.3156593810e-01	 1.6492017960e+00	-2.1744215380e+00
 9.1575433616e-01	 1.6580336718e+00	-2.1352574779e+00
 8.9988051554e-01	 1.6667023485e+00	-2.0903117555e+00
 8.8394694320e-01	 1.6752072894e+00	-2.0405541045e+00
 8.6795608900e-01	 1.6835480060e+00	-1.9868655202e+00
 8.5191042453e-01	 1.6917240583e+00	-1.9300285793e+00
 8.3581242198e-01	 1.6997350547e+00	-1.8707187690e+00
 8.1966455294e-01	 1.7075806516e+00	-1.8094968585e+00
 9.8164196946e-01	 1.6267695116e+00	-2.2552565869e+00
 9.6598329994e-01	 1.6361162135e+00	-2.2384615226e+00
 9.5025482385e-01	 1.6453011183e+00	-2.2124782707e+00
 9.3445900002e-01	 1.6543235407e+00	-2.1784913680e+00
 9.1859829373e-01	 1.6631828447e+00	-2.1376284816e+00
 9.0267517553e-01	 1.6718784428e+00	-2.0909477122e+00
 8.8669212004e-01	 1.6804097965e+00	-2.0394257936e+00
 8.7065160480e-01	 1.6887764159e+00	-1.9839472412e+00
 8.5455610908e-01	 1.6969778597e+00	-1.9252944948e+00
 8.3840811273e-01	 1.7050137350e+00	-1.8641390952e+00
 8.2221009503e-01	 1.7128836971e+00	-1.8010339265e+00
 9.8468110869e-01	 1.6318059497e+00	-2.2645660025e+00
 9.6897396032e-01	 1.6411815888e+00	-2.2460761442e+00
 9.5319678925e-01	 1.6503949298e+00	-2.2183079265e+00
 9.3735206194e-01	 1.6594452854e+00	-2.1824728145e+00
 9.2144225130e-01	 1.6683320175e+00	-2.1397232112e+00
 9.0546983551e-01	 1.6770545370e+00	-2.0911394924e+00
 8.8943729688e-01	 1.6856123036e+00	-2.0377179590e+00
 8.7334712061e-01	 1.6940048259e+00	-1.9803597585e+00
 8.5720179363e-01	 1.7022316612e+00	-1.9198608243e+00
 8.4100380348e-01	 1.7102924153e+00	-1.8569028712e+00
 8.2475563712e-01	 1.7181867426e+00	-1.7920454808e+00
 9.8772024791e-01	 1.6368423878e+00	-2.2742931451e+00
 9.7196462069e-01	 1.6462469641e+00	-2.2539014737e+00
 9.5613875465e-01	 1.6554887413e+00	-2.2241333815e+00
 9.4024512386e-01	 1.6645670301e+00	-2.1862379337e+00
 9.2428620886e-01	 1.6734811904e+00	-2.1414035629e+00
 9.0826449550e-01	 1.6822306313e+00	-2.0907448098e+00
 8.9218247373e-01	 1.6908148107e+00	-2.0352899996e+00
 8.7604263641e-01	 1.6992332359e+00	-1.9759699105e+00
 8.5984747818e-01	 1.7074854626e+00	-1.9136074814e+00
 8.4359949423e-01	 1.7155710956e+00	-1.8489085992e+00
 8.2730117921e-01	 1.7234897881e+00	-1.7824539985e+00
 9.9075938713e-01	 1.6418788259e+00	-2.2843782925e+00
 9.7495528106e-01	 1.6513123394e+00	-2.2618493520e+00
 9.5908072005e-01	 1.6605825528e+00	-2.2298442409e+00
 9.4313818578e-01	 1.6696887748e+00	-2.1896602026e+00
 9.2713016643e-01	 1.6786303633e+00	-2.1425328955e+00
 9.1105915549e-01	 1.6874067255e+00	-2.0896228109e+00
 8.9492765057e-01	 1.6960173179e+00	-2.0320026487e+00
 8.7873815221e-01	 1.7044616458e+00	-1.9706457044e+00
 8.6249316273e-01	 1.7127392640e+00	-1.9064153178e+00
 8.4619518498e-01	 1.7208497759e+00	-1.8400554243e+00
 8.2984672130e-01	 1.7287928336e+00	-1.7721822428e+00
 9.9379852636e-01	 1.6469152640e+00	-2.2947626002e+00
 9.7794594143e-01	 1.6563777146e+00	-2.2698327550e+00
 9.6202268545e-01	 1.6656763643e+00	-2.2353314276e+00
 9.4603124770e-01	 1.6748105195e+00	-2.1926145265e+00
 9.2997412399e-01	 1.6837795362e+00	-2.1429760342e+00
 9.1385381547e-01	 1.6925828198e+00	-2.0876340784e+00
 8.9767282741e-01	 1.7012198250e+00	-2.0277179775e+00
 8.8143366802e-01	 1.7096900558e+00	-1.9642563203e+00
 8.6513884727e-01	 1.7179930654e+00	-1.8981661284e+00
 8.4879087574e-01	 1.7261284562e+00	-1.8302431436e+00
 8.3239226339e-01	 1.7340958791e+00	-1.7611532758e+00
 9.9683766558e-01	 1.6519517022e+00	-2.3053881227e+00
 9.8093660180e-01	 1.6614430899e+00	-2.2777658086e+00
 9.6496465085e-01	 1.6707701758e+00	-2.2404871932e+00
 9.4892430962e-01	 1.6799322642e+00	-2.1949772454e+00
 9.3281808156e-01	 1.6889287091e+00	-2.1425992761e+00
 9.1664847546e-01	 1.6977589140e+00	-2.0846406345e+00
 9.0041800425e-01	 1.7064223321e+00	-2.0222993976e+00
 8.8412918382e-01	 1.7149184657e+00	-1.9566721151e+00
 8.6778453182e-01	 1.7232468669e+00	-1.8887426578e+00
 8.5138656649e-01	 1.7314071365e+00	-1.8193722142e+00
 8.3493780548e-01	 1.7393989246e+00	-1.7492904708e+00
 9.9987680481e-01	 1.6569881403e+00	-2.3161978338e+00
 9.8392726217e-01	 1.6665084652e+00	-2.2855638043e+00
 9.6790661625e-01	 1.6758639873e+00	-2.2452051282e+00
 9.5181737154e-01	 1.6850540089e+00	-2.1966261416e+00
 9.3566203912e-01	 1.6940778820e+00	-2.1412703946e+00
 9.1944313545e-01	 1.7029350083e+00	-2.0805059447e+00
 9.0316318109e-01	 1.7116248392e+00	-2.0156116653e+00
 8.8682469963e-01	 1.7201468757e+00	-1.9477646271e+00
 8.7043021637e-01	 1.7285006683e+00	-1.8780286063e+00
 8.5398225724e-01	 1.7366858168e+00	-1.8073437627e+00
 8.3748334757e-01	 1.7447019701e+00	-1.7365175251e+00
 1.0029159440e+00	 1.6620245784e+00	-2.3271356480e+00
 9.8691792254e-01	 1.6715738405e+00	-2.2931432140e+00
 9.7084858165e-01	 1.6809577988e+00	-2.2493801727e+00
 9.5471043346e-01	 1.6901757536e+00	-2.1974404472e+00
 9.3850599669e-01	 1.6992270549e+00	-2.1388586446e+00
 9.2223779543e-01	 1.7081111025e+00	-2.0750949219e+00
 9.0590835794e-01	 1.7168273463e+00	-2.0075208848e+00
 8.8952021543e-01	 1.7253752856e+00	-1.9374065801e+00
 8.7307590092e-01	 1.7337544697e+00	-1.8659086359e+00
 8.5657794799e-01	 1.7419644970e+00	-1.7940595940e+00
 8.4002888966e-01	 1.7500050156e+00	-1.7227584727e+00
 8.1457346876e-01	 1.6969745605e+00	-1.8251576276e+00
 7.9847879485e-01	 1.7046067609e+00	-1.7651999459e+00
 7.8233947050e-01	 1.7120740486e+00	-1.7018081798e+00
 7.6615794357e-01	 1.7193762243e+00	-1.6362866657e+00
 7.4993665688e-01	 1.7265131351e+00	-1.5698248367e+00
 7.3367804722e-01	 1.7334846749e+00	-1.5034935403e+00
 7.1738454422e-01	 1.7402907834e+00	-1.4382424019e+00
 7.0105856935e-01	 1.7469314461e+00	-1.3748982221e+00
 6.8470253485e-01	 1.7534066938e+00	-1.3141643898e+00
 6.6831884279e-01	 1.7597166021e+00	-1.2566212859e+00
 6.5190988399e-01	 1.7658612908e+00	-1.2025795669e+00
 8.1711901085e-01	 1.7022776061e+00	-1.8175120731e+00
 8.0097404108e-01	 1.7099336570e+00	-1.7553677443e+00
 7.8478428135e-01	 1.7174242800e+00	-1.6898696827e+00
 7.6855218714e-01	 1.7247492750e+00	-1.6224510858e+00
 7.5228020893e-01	 1.7319084887e+00	-1.5544317205e+00
 7.3597079112e-01	 1.7389018145e+00	-1.4870139494e+00
 7.1962637092e-01	 1.7457291921e+00	-1.4212798235e+00
 7.0324937738e-01	 1.7523906069e+00	-1.3581892287e+00
 6.8684223028e-01	 1.7588860897e+00	-1.2985790681e+00
 6.7040733917e-01	 1.7652157164e+00	-1.2431356470e+00
 6.5394710237e-01	 1.7713796073e+00	-1.1876138342e+00
 8.1966455294e-01	 1.7075806516e+00	-1.8094968585e+00
 8.0346928732e-01	 1.7152605532e+00	-1.7453673884e+00
 7.8722909220e-01	 1.7227745114e+00	-1.6781050727e+00
 7.7094643071e-01	 1.7301223257e+00	-1.6092544603e+00
 7.5462376099e-01	 1.7373038422e+00	-1.5402474548e+00
 7.3826353502e-01	 1.7443189541e+00	-1.4723990803e+00
 7.2186819762e-01	 1.7511676008e+00	-1.4069043356e+00
 7.0544018541e-01	 1.7578497677e+00	-1.3448361218e+00
 6.8898192570e-01	 1.7643654857e+00	-1.2871442285e+00
 6.7249583555e-01	 1.7707148308e+00	-1.2308090842e+00
 6.5598432076e-01	 1.7768979239e+00	-1.1717155353e+00
 8.2221009503e-01	 1.7128836971e+00	-1.8010339265e+00
 8.0596453355e-01	 1.7205874493e+00	-1.7351449532e+00
 7.8967390304e-01	 1.7281247429e+00	-1.6664781171e+00
 7.7334067429e-01	 1.7354953764e+00	-1.5966719905e+00
 7.5696731304e-01	 1.7426991958e+00	-1.5272526004e+00
 7.4055627891e-01	 1.7497360937e+00	-1.4596289653e+00
 7.2411002433e-01	 1.7566060095e+00	-1.3950897420e+00
 7.0763099344e-01	 1.7633089284e+00	-1.3348009677e+00
 6.9112162112e-01	 1.7698448816e+00	-1.2771000913e+00
 6.7458433194e-01	 1.7762139452e+00	-1.2169742982e+00
 6.5802153915e-01	 1.7824162404e+00	-1.1548613495e+00
 8.2475563712e-01	 1.7181867426e+00	-1.7920454808e+00
 8.0845977979e-01	 1.7259143454e+00	-1.7246464214e+00
 7.9211871389e-01	 1.7334749743e+00	-1.6549522212e+00
 7.7573491786e-01	 1.7408684271e+00	-1.5846783279e+00
 7.5931086509e-01	 1.7480945493e+00	-1.5154270607e+00
 7.4284902281e-01	 1.7551532334e+00	-1.4486829493e+00
 7.2635185103e-01	 1.7620444182e+00	-1.3858092049e+00
 7.0982180147e-01	 1.7687680892e+00	-1.3264250436e+00
 6.9326131654e-01	 1.7753242775e+00	-1.2650137955e+00
 6.7667282832e-01	 1.7817130596e+00	-1.2016394750e+00
 6.6005875754e-01	 1.7879345569e+00	-1.1370290330e+00
 8.2730117921e-01	 1.7234897881e+00	-1.7824539985e+00
 8.1095502602e-01	 1.7312412415e+00	-1.7138176992e+00
 7.9456352473e-01	 1.7388252057e+00	-1.6434904475e+00
 7.7812916143e-01	 1.7462414778e+00	-1.5732475953e+00
 7.6165441714e-01	 1.7534899029e+00	-1.5047501028e+00
 7.4514176671e-01	 1.7605703730e+00	-1.4395397100e+00
 7.2859367773e-01	 1.7674828269e+00	-1.3783115561e+00
 7.1201260949e-01	 1.7742272500e+00	-1.3156759212e+00
 6.9540101196e-01	 1.7808036734e+00	-1.2509073911e+00
 6.7876132470e-01	 1.7872121740e+00	-1.1848135127e+00
 6.6209597592e-01	 1.7934528735e+00	-1.1181974048e+00
 8.2984672130e-01	 1.7287928336e+00	-1.7721822428e+00
 8.1345027225e-01	 1.7365681377e+00	-1.7026046336e+00
 7.9700833558e-01	 1.7441754371e+00	-1.6320555345e+00
 7.8052340501e-01	 1.7516145285e+00	-1.5623534069e+00
 7.6399796920e-01	 1.7588852564e+00	-1.4952003784e+00
 7.4743451061e-01	 1.7659875126e+00	-1.4320304128e+00
 7.3083550443e-01	 1.7729212356e+00	-1.3684426124e+00
 7.1420341752e-01	 1.7796864108e+00	-1.3024150223e+00
 6.9754070738e-01	 1.7862830693e+00	-1.2348152684e+00
 6.8084982109e-01	 1.7927112883e+00	-1.1665060108e+00
 6.6413319431e-01	 1.7989711900e+00	-1.0983463315e+00
 8.3239226339e-01	 1.7340958791e+00	-1.7611532758e+00
 8.1594551849e-01	 1.7418950338e+00	-1.6909530282e+00
 7.9945314642e-01	 1.7495256685e+00	-1.6206099162e+00
 7.8291764858e-01	 1.7569875792e+00	-1.5519688891e+00
 7.6634152125e-01	 1.7642806100e+00	-1.4867559444e+00
 7.4972725450e-01	 1.7714046522e+00	-1.4225863648e+00
 7.3307733113e-01	 1.7783596443e+00	-1.3556021741e+00
 7.1639422555e-01	 1.7851455715e+00	-1.2866965848e+00
 6.9968040280e-01	 1.7917624652e+00	-1.2167722283e+00
 6.8293831747e-01	 1.7982104027e+00	-1.1467272613e+00
 6.6617041270e-01	 1.8044895065e+00	-1.0774567132e+00
 8.3493780548e-01	 1.7393989246e+00	-1.7492904708e+00
 8.1844076472e-01	 1.7472219299e+00	-1.6788086598e+00
 8.0189795727e-01	 1.7548758999e+00	-1.6091157405e+00
 7.8531189216e-01	 1.7623606299e+00	-1.5420667004e+00
 7.6868507330e-01	 1.7696759635e+00	-1.4773119044e+00
 7.5201999840e-01	 1.7768217918e+00	-1.4097458161e+00
 7.3531915783e-01	 1.7837980530e+00	-1.3398586918e+00
 7.1858503358e-01	 1.7906047323e+00	-1.2685750341e+00
 7.0182009823e-01	 1.7972418612e+00	-1.1968134763e+00
 6.8502681386e-01	 1.8037095171e+00	-1.1254882388e+00
 6.6820763109e-01	 1.8100078231e+00	-1.0555104690e+00
 8.3748334757e-01	 1.7447019701e+00	-1.7365175251e+00
 8.2093601096e-01	 1.7525488261e+00	-1.6661172943e+00
 8.0434276811e-01	 1.7602261313e+00	-1.5975348880e+00
 7.8770613573e-01	 1.7677336806e+00	-1.5318884657e+00
 7.7102862536e-01	 1.7750713171e+00	-1.4640983953e+00
 7.5431274230e-01	 1.7822389314e+00	-1.3935858110e+00
 7.3756098453e-01	 1.7892364617e+00	-1.3212806484e+00
 7.2077584161e-01	 1.7960638931e+00	-1.2481049804e+00
 7.0395979365e-01	 1.8027212571e+00	-1.1749746171e+00
 6.8711531024e-01	 1.8092086315e+00	-1.1028005911e+00
 6.7024484947e-01	 1.8155261396e+00	-1.0324905229e+00
 8.4002888966e-01	 1.7500050156e+00	-1.7227584727e+00
 8.2343125719e-01	 1.7578757222e+00	-1.6528247035e+00
 8.0678757896e-01	 1.7655763627e+00	-1.5857721361e+00
 7.9010037930e-01	 1.7731067313e+00	-1.5180166317e+00
 7.7337217741e-01	 1.7804666706e+00	-1.4471801046e+00
 7.5660548620e-01	 1.7876560710e+00	-1.3741833375e+00
 7.3980281123e-01	 1.7946748704e+00	-1.2999365579e+00
 7.2296664964e-01	 1.8015230538e+00	-1.2253412154e+00
 7.0609948907e-01	 1.8082006530e+00	-1.1512916482e+00
 6.8920380662e-01	 1.8147077459e+00	-1.0786766297e+00
 6.7228206786e-01	 1.8210444561e+00	-1.0083807898e+00
 6.5190988399e-01	 1.7658612908e+00	-1.2025795669e+00
 6.3547803713e-01	 1.7718409239e+00	-1.1460225300e+00
 6.1902566775e-01	 1.7776557085e+00	-1.0832625276e+00
 6.0255512735e-01	 1.7833058946e+00	-1.0141664605e+00
 5.8606875244e-01	 1.7887917745e+00	-9.3871656278e-01
 5.6956886371e-01	 1.7941136822e+00	-8.6353762023e-01
 5.5305776510e-01	 1.7992719927e+00	-7.9238774989e-01
 5.3653774301e-01	 1.8042671214e+00	-7.2488740965e-01
 5.2001106545e-01	 1.8090995238e+00	-6.6076043521e-01
 5.0347998123e-01	 1.8137696942e+00	-5.9982802259e-01
 4.8694671923e-01	 1.8182781657e+00	-5.4200287119e-01
 6.5394710237e-01	 1.7713796073e+00	-1.1876138342e+00
 6.3746390599e-01	 1.7773779268e+00	-1.1279363261e+00
 6.2096012296e-01	 1.7832108826e+00	-1.0631181054e+00
 6.0443811212e-01	 1.7888787255e+00	-9.9292278112e-01
 5.8790021729e-01	 1.7943817488e+00	-9.1713234142e-01
 5.7134876641e-01	 1.7997202875e+00	-8.4122127190e-01
 5.5478607062e-01	 1.8048947176e+00	-7.6998321332e-01
 5.3821442346e-01	 1.8099054562e+00	-7.0293143347e-01
 5.2163610003e-01	 1.8147529598e+00	-6.3968049390e-01
 5.0505335617e-01	 1.8194377245e+00	-5.7994035313e-01
 4.8846842773e-01	 1.8239602849e+00	-5.2351063518e-01
 6.5598432076e-01	 1.7768979239e+00	-1.1717155353e+00
 6.3944977486e-01	 1.7829149296e+00	-1.1094265737e+00
 6.2289457817e-01	 1.7887660566e+00	-1.0429508851e+00
 6.0632109689e-01	 1.7944515564e+00	-9.7195496768e-01
 5.8973168214e-01	 1.7999717231e+00	-8.9611853147e-01
 5.7312866911e-01	 1.8053268927e+00	-8.1964532355e-01
 5.5651437614e-01	 1.8105174426e+00	-7.4835890153e-01
 5.3989110391e-01	 1.8155437909e+00	-6.8171874176e-01
 5.2326113460e-01	 1.8204063958e+00	-6.1923920310e-01
 5.0662673111e-01	 1.8251057548e+00	-5.6052857431e-01
 4.8999013623e-01	 1.8296424042e+00	-5.0528344781e-01
 6.5802153915e-01	 1.7824162404e+00	-1.1548613495e+00
 6.4143564372e-01	 1.7884519325e+00	-1.0904397002e+00
 6.2482903338e-01	 1.7943212307e+00	-1.0226830550e+00
 6.0820408166e-01	 1.8000243873e+00	-9.5116691083e-01
 5.9156314700e-01	 1.8055616974e+00	-8.7547768410e-01
 5.7490857181e-01	 1.8109334980e+00	-7.9869205726e-01
 5.5824268165e-01	 1.8161401676e+00	-7.2739737732e-01
 5.4156778435e-01	 1.8211821257e+00	-6.6113781205e-01
 5.2488616918e-01	 1.8260598318e+00	-5.9933650100e-01
 5.0820010605e-01	 1.8307737851e+00	-5.4150953962e-01
 4.9151184472e-01	 1.8353245235e+00	-4.8726043792e-01
 6.6005875754e-01	 1.7879345569e+00	-1.1370290330e+00
 6.4342151259e-01	 1.7939889354e+00	-1.0709235580e+00
 6.2676348859e-01	 1.7998764048e+00	-1.0022385019e+00
 6.1008706644e-01	 1.8055972183e+00	-9.3046439851e-01
 5.9339461185e-01	 1.8111516717e+00	-8.5510101107e-01
 5.7668847451e-01	 1.8165401032e+00	-7.7824563901e-01
 5.5997098717e-01	 1.8217628926e+00	-7.0698304974e-01
 5.4324446480e-01	 1.8268204604e+00	-6.4107886204e-01
 5.2651120376e-01	 1.8317132678e+00	-5.7987389264e-01
 5.0977348099e-01	 1.8364418154e+00	-5.2280142998e-01
 4.9303355322e-01	 1.8410066428e+00	-4.6938175749e-01
 6.6209597592e-01	 1.7934528735e+00	-1.1181974048e+00
 6.4540738146e-01	 1.7995259383e+00	-1.0508274055e+00
 6.2869794381e-01	 1.8054315789e+00	-9.8154278803e-01
 6.1197005121e-01	 1.8111700492e+00	-9.0975508970e-01
 5.9522607670e-01	 1.8167416460e+00	-8.3488398805e-01
 5.7846837721e-01	 1.8221467085e+00	-7.5819209786e-01
 5.6169929268e-01	 1.8273856176e+00	-6.8700215331e-01
 5.4492114525e-01	 1.8324587952e+00	-6.2143382998e-01
 5.2813623834e-01	 1.8373667038e+00	-5.6075443252e-01
 5.1134685593e-01	 1.8421098457e+00	-5.0432373957e-01
 4.9455526172e-01	 1.8466887620e+00	-4.5158857167e-01
 6.6413319431e-01	 1.7989711900e+00	-1.0983463315e+00
 6.4739325032e-01	 1.8050629412e+00	-1.0301018877e+00
 6.3063239902e-01	 1.8109867530e+00	-9.6052312717e-01
 6.1385303598e-01	 1.8167428801e+00	-8.8894848861e-01
 5.9705754155e-01	 1.8223316203e+00	-8.1472405793e-01
 5.8024827990e-01	 1.8277533137e+00	-7.3841930554e-01
 5.6342759820e-01	 1.8330083425e+00	-6.6734272768e-01
 5.4659782570e-01	 1.8380971300e+00	-6.0209635542e-01
 5.2976127292e-01	 1.8430201399e+00	-5.4188270740e-01
 5.1292023088e-01	 1.8477778760e+00	-4.8599726182e-01
 4.9607697022e-01	 1.8523708813e+00	-4.3382304893e-01
 6.6617041270e-01	 1.8044895065e+00	-1.0774567132e+00
 6.4937911919e-01	 1.8105999441e+00	-1.0086990165e+00
 6.3256685423e-01	 1.8165419271e+00	-9.3910836224e-01
 6.1573602076e-01	 1.8223157110e+00	-8.6795591909e-01
 5.9888900640e-01	 1.8279215946e+00	-7.9452060380e-01
 5.8202818260e-01	 1.8333599190e+00	-7.1881695653e-01
 5.6515590372e-01	 1.8386310675e+00	-6.4789459770e-01
 5.4827450614e-01	 1.8437354647e+00	-5.8296176037e-01
 5.3138630750e-01	 1.8486735759e+00	-5.2316481962e-01
 5.1449360582e-01	 1.8534459063e+00	-4.6774407575e-01
 4.9759867872e-01	 1.8580530006e+00	-4.1602835153e-01
 6.6820763109e-01	 1.8100078231e+00	-1.0555104690e+00
 6.5136498805e-01	 1.8161369470e+00	-9.8657215203e-01
 6.3450130944e-01	 1.8220971012e+00	-9.1722894254e-01
 6.1761900553e-01	 1.8278885420e+00	-8.4669049963e-01
 6.0072047125e-01	 1.8335115689e+00	-7.7417492233e-01
 5.8380808530e-01	 1.8389665243e+00	-6.9927654840e-01
 5.6688420923e-01	 1.8442537925e+00	-6.2854935384e-01
 5.4995118659e-01	 1.8493737995e+00	-5.6392703075e-01
 5.3301134208e-01	 1.8543270119e+00	-5.0450837059e-01
 5.1606698076e-01	 1.8591139366e+00	-4.4948753260e-01
 4.9912038721e-01	 1.8637351198e+00	-3.9814862607e-01
 6.7024484947e-01	 1.8155261396e+00	-1.0324905229e+00
 6.5335085692e-01	 1.8216739498e+00	-9.6367598396e-01
 6.3643576465e-01	 1.8276522753e+00	-8.9481690147e-01
 6.1950199030e-01	 1.8334613729e+00	-8.2506711845e-01
 6.0255193610e-01	 1.8391015432e+00	-7.5359019751e-01
 5.8558798800e-01	 1.8445731295e+00	-6.7969136270e-01
 5.6861251475e-01	 1.8498765175e+00	-6.0920033310e-01
 5.5162786704e-01	 1.8550121342e+00	-5.4489079837e-01
 5.3463637666e-01	 1.8599804479e+00	-4.8582244474e-01
 5.1764035570e-01	 1.8647819669e+00	-4.3115224266e-01
 5.0064209571e-01	 1.8694172391e+00	-3.8012899431e-01
 6.7228206786e-01	 1.8210444561e+00	-1.0083807898e+00
 6.5533672579e-01	 1.8272109527e+00	-9.3996651269e-01
 6.3837021987e-01	 1.8332074494e+00	-8.7180583450e-01
 6.2138497507e-01	 1.8390342038e+00	-8.0300240912e-01
 6.0438340096e-01	 1.8446915175e+00	-7.3267147473e-01
 5.8736789070e-01	 1.8501797348e+00	-6.5995644610e-01
 5.7034082026e-01	 1.8554992424e+00	-5.8974260021e-01
 5.5330454748e-01	 1.8606504690e+00	-5.2575332308e-01
 5.3626141124e-01	 1.8656338839e+00	-4.6701759372e-01
 5.1921373064e-01	 1.8704499972e+00	-4.1266406245e-01
 5.0216380421e-01	 1.8750993584e+00	-3.6191554416e-01
 4.8694671923e-01	 1.8182781657e+00	-5.4200287119e-01
 4.7041348763e-01	 1.8226255089e+00	-4.8814461104e-01
 4.5388247316e-01	 1.8268123318e+00	-4.3857552205e-01
 4.3735584044e-01	 1.8308392786e+00	-3.9251959715e-01
 4.2083573127e-01	 1.8347070290e+00	-3.4926723023e-01
 4.0432426403e-01	 1.8384162980e+00	-3.0817148526e-01
 3.8782353297e-01	 1.8419678343e+00	-2.6864452933e-01
 3.7133560770e-01	 1.8453624201e+00	-2.3015422847e-01
 3.5486253257e-01	 1.8486008704e+00	-1.9222090343e-01
 3.3840632612e-01	 1.8516840318e+00	-1.5441424236e-01
 3.2196898058e-01	 1.8546127819e+00	-1.1635036602e-01
 4.8846842773e-01	 1.8239602849e+00	-5.2351063518e-01
 4.7188352978e-01	 1.8283212136e+00	-4.7110026934e-01
 4.5530085589e-01	 1.8325211204e+00	-4.2294312554e-01
 4.3872257744e-01	 1.8365606513e+00	-3.7824508778e-01
 4.2215084293e-01	 1.8404404885e+00	-3.3628215278e-01
 4.0558777735e-01	 1.8441613489e+00	-2.9639662077e-01
 3.8903548151e-01	 1.8477239837e+00	-2.5799345135e-01
 3.7249603148e-01	 1.8511291777e+00	-2.2053678256e-01
 3.5597147799e-01	 1.8543777481e+00	-1.8354661091e-01
 3.3946384589e-01	 1.8574705444e+00	-1.4659562870e-01
 3.2297513364e-01	 1.8604084468e+00	-1.0930621466e-01
 4.8999013623e-01	 1.8296424042e+00	-5.0528344781e-01
 4.7335357193e-01	 1.8340169184e+00	-4.5409942944e-01
 4.5671923862e-01	 1.8382299089e+00	-4.0715567940e-01
 4.4008931444e-01	 1.8422820241e+00	-3.6364459133e-01
 4.2346595459e-01	 1.8461739480e+00	-3.2283204488e-01
 4.0685129068e-01	 1.8499063998e+00	-2.8405351971e-01
 3.9024743005e-01	 1.8534801332e+00	-2.4671037582e-01
 3.7365645525e-01	 1.8568959353e+00	-2.1026629835e-01
 3.5708042340e-01	 1.8601546259e+00	-1.7424390440e-01
 3.4052136566e-01	 1.8632570570e+00	-1.3822150828e-01
 3.2398128671e-01	 1.8662041118e+00	-1.0183004096e-01
 4.9151184472e-01	 1.8353245235e+00	-4.8726043792e-01
 4.7482361407e-01	 1.8397126231e+00	-4.3710481299e-01
 4.5813762134e-01	 1.8439386974e+00	-3.9119681902e-01
 4.4145605144e-01	 1.8480033968e+00	-3.4871995124e-01
 4.2478106626e-01	 1.8519074074e+00	-3.0893422755e-01
 4.0811480400e-01	 1.8556514508e+00	-2.7117222712e-01
 3.9145937859e-01	 1.8592362827e+00	-2.3483529698e-01
 3.7481687902e-01	 1.8626626928e+00	-1.9938992482e-01
 3.5818936882e-01	 1.8659315036e+00	-1.6436427533e-01
 3.4157888543e-01	 1.8690435696e+00	-1.2934488652e-01
 3.2498743977e-01	 1.8719997767e+00	-9.3973521539e-02
 4.9303355322e-01	 1.8410066428e+00	-4.6938175749e-01
 4.7629365622e-01	 1.8454083278e+00	-4.2007984553e-01
 4.5955600407e-01	 1.8496474860e+00	-3.7505059875e-01
 4.4282278844e-01	 1.8537247696e+00	-3.3347317973e-01
 4.2609617792e-01	 1.8576408669e+00	-2.9460597544e-01
 4.0937831733e-01	 1.8613965017e+00	-2.5778256183e-01
 3.9267132713e-01	 1.8649924322e+00	-2.2240783851e-01
 3.7597730280e-01	 1.8684294504e+00	-1.8795433180e-01
 3.5929831423e-01	 1.8717083813e+00	-1.5395866338e-01
 3.4263640520e-01	 1.8748300822e+00	-1.2001818064e-01
 3.2599359284e-01	 1.8777954417e+00	-8.5787744565e-02
 4.9455526172e-01	 1.8466887620e+00	-4.5158857167e-01
 4.7776369837e-01	 1.8511040325e+00	-4.0298865095e-01
 4.6097438680e-01	 1.8553562745e+00	-3.5870149039e-01
 4.4418952544e-01	 1.8594461423e+00	-3.1790645973e-01
 4.2741128958e-01	 1.8633743264e+00	-2.7986452168e-01
 4.1064183065e-01	 1.8671415526e+00	-2.4391412369e-01
 3.9388327567e-01	 1.8707485817e+00	-2.0946726268e-01
 3.7713772657e-01	 1.8741962079e+00	-1.7600572057e-01
 3.6040725964e-01	 1.8774852590e+00	-1.4307746785e-01
 3.4369392497e-01	 1.8806165948e+00	-1.1029323129e-01
 3.2699974590e-01	 1.8835911066e+00	-7.7323221181e-02
 4.9607697022e-01	 1.8523708813e+00	-4.3382304893e-01
 4.7923374052e-01	 1.8567997372e+00	-3.8579604610e-01
 4.6239276953e-01	 1.8610650630e+00	-3.4213438166e-01
 4.4555626245e-01	 1.8651675151e+00	-3.0202214682e-01
 4.2872640124e-01	 1.8691077858e+00	-2.6472706270e-01
 4.1190534398e-01	 1.8728866036e+00	-2.2959630080e-01
 3.9509522421e-01	 1.8765047311e+00	-1.9605247945e-01
 3.7829815035e-01	 1.8799629655e+00	-1.6358983418e-01
 3.6151620506e-01	 1.8832621367e+00	-1.3177055890e-01
 3.4475144474e-01	 1.8864031074e+00	-1.0022131407e-01
 3.2800589896e-01	 1.8893867715e+00	-6.8629896760e-02
 4.9759867872e-01	 1.8580530006e+00	-4.1602835153e-01
 4.8070378267e-01	 1.8624954419e+00	-3.6846753552e-01
 4.6381115226e-01	 1.8667738516e+00	-3.2533457481e-01
 4.4692299945e-01	 1.8708888878e+00	-2.8582277108e-01
 4.3004151290e-01	 1.8748412453e+00	-2.4921076296e-01
 4.1316885730e-01	 1.8786316545e+00	-2.1485827653e-01
 3.9630717275e-01	 1.8822608806e+00	-1.8220205531e-01
 3.7945857412e-01	 1.8857297231e+00	-1.5075196770e-01
 3.6262515047e-01	 1.8890390145e+00	-1.2008728856e-01
 3.4580896451e-01	 1.8921896200e+00	-8.9853150789e-02
 3.2901205203e-01	 1.8951824365e+00	-5.9757161956e-02
 4.9912038721e-01	 1.8637351198e+00	-3.9814862607e-01
 4.8217382482e-01	 1.8681911467e+00	-3.5096930627e-01
 4.6522953499e-01	 1.8724826401e+00	-3.0828778515e-01
 4.4828973645e-01	 1.8766102605e+00	-2.6931103895e-01
 4.3135662456e-01	 1.8805747048e+00	-2.3333275959e-01
 4.1443237063e-01	 1.8843767054e+00	-1.9972903650e-01
 3.9751912129e-01	 1.8880170301e+00	-1.6795422203e-01
 3.8061899789e-01	 1.8914964806e+00	-1.3753697824e-01
 3.6373409589e-01	 1.8948158922e+00	-1.0807650148e-01
 3.4686648428e-01	 1.8979761326e+00	-7.9238920608e-02
 3.3001820509e-01	 1.9009781014e+00	-5.0753863562e-02
 5.0064209571e-01	 1.8694172391e+00	-3.8012899431e-01
 4.8364386697e-01	 1.8738868514e+00	-3.3326822288e-01
 4.6664791772e-01	 1.8781914287e+00	-2.9098013976e-01
 4.4965647345e-01	 1.8823316333e+00	-2.5248983516e-01
 4.3267173622e-01	 1.8863081642e+00	-2.1711016701e-01
 4.1569588395e-01	 1.8901217564e+00	-1.8423737540e-01
 3.9873106983e-01	 1.8937731796e+00	-1.5334688529e-01
 3.8177942167e-01	 1.8972632382e+00	-1.2398929481e-01
 3.6484304130e-01	 1.9005927699e+00	-9.5786545627e-02
 3.4792400405e-01	 1.9037626452e+00	-6.8428270886e-02
 3.3102435816e-01	 1.9067737664e+00	-4.1668315171e-02
 5.0216380421e-01	 1.8750993584e+00	-3.6191554416e-01
 4.8511390912e-01	 1.8795825561e+00	-3.1533182246e-01
 4.6806630045e-01	 1.8839002172e+00	-2.7339817613e-01
 4.5102321045e-01	 1.8880530060e+00	-2.3536222451e-01
 4.3398684788e-01	 1.8920416237e+00	-2.0056008141e-01
 4.1695939728e-01	 1.8958668073e+00	-1.6841190372e-01
 3.9994301837e-01	 1.8995293291e+00	-1.3841763306e-01
 3.8293984544e-01	 1.9030299958e+00	-1.1015292797e-01
 3.6595198672e-01	 1.9063696476e+00	-8.3265282693e-02
 3.4898152382e-01	 1.9095491578e+00	-5.7470327907e-02
 3.3203051122e-01	 1.9125694313e+00	-3.2548307662e-02
 3.2196898058e-01	 1.8546127819e+00	-1.1635036602e-01
 3.0555246133e-01	 1.8573880285e+00	-8.0494513543e-02
 2.8915870648e-01	 1.8600107090e+00	-4.9252690191e-02
 2.7278962640e-01	 1.8624817891e+00	-2.2204933322e-02
 2.5644710327e-01	 1.8648022625e+00	 1.0440855142e-03
 2.4013299074e-01	 1.8669731498e+00	 2.0866878147e-02
 2.2384911351e-01	 1.8689954975e+00	 3.7614837410e-02
 2.0759726702e-01	 1.8708703776e+00	 5.1619822633e-02
 1.9137921709e-01	 1.8725988867e+00	 6.3195640905e-02
 1.7519669965e-01	 1.8741821447e+00	 7.2639432057e-02
 1.5905142048e-01	 1.8756212946e+00	 8.0232965265e-02
 3.2297513364e-01	 1.8604084468e+00	-1.0930621466e-01
 3.0650731277e-01	 1.8631923661e+00	-7.4078294608e-02
 2.9006232744e-01	 1.8658232425e+00	-4.3265598536e-02
 2.7364209398e-01	 1.8683020447e+00	-1.6473312666e-02
 2.5724850047e-01	 1.8706297696e+00	 6.6727732429e-03
 2.4088340634e-01	 1.8728074409e+00	 2.6528013619e-02
 2.2454864199e-01	 1.8748361084e+00	 4.3430529342e-02
 2.0824600848e-01	 1.8767168476e+00	 5.7702712817e-02
 1.9197727714e-01	 1.8784507582e+00	 6.9652624212e-02
 1.7574418934e-01	 1.8800389639e+00	 7.9575287246e-02
 1.5954845617e-01	 1.8814826112e+00	 8.7753892857e-02
 3.2398128671e-01	 1.8662041118e+00	-1.0183004096e-01
 3.0746216421e-01	 1.8689967037e+00	-6.7371534640e-02
 2.9096594840e-01	 1.8716357759e+00	-3.7112931875e-02
 2.7449456156e-01	 1.8741223003e+00	-1.0683753005e-02
 2.5804989767e-01	 1.8764572767e+00	 1.2269869432e-02
 2.4163382193e-01	 1.8786417319e+00	 3.2086867906e-02
 2.2524817047e-01	 1.8806767193e+00	 4.9092786168e-02
 2.0889474994e-01	 1.8825633175e+00	 6.3601203297e-02
 1.9257533720e-01	 1.8843026297e+00	 7.5915044347e-02
 1.7629167903e-01	 1.8858957831e+00	 8.6327786407e-02
 1.6004549186e-01	 1.8873439277e+00	 9.5124568864e-02
 3.2498743977e-01	 1.8719997767e+00	-9.3973521539e-02
 3.0841701565e-01	 1.8748010413e+00	-6.0423424395e-02
 2.9186956936e-01	 1.8774483094e+00	-3.0841935822e-02
 2.7534702914e-01	 1.8799425559e+00	-4.8821000263e-03
 2.5885129486e-01	 1.8822847838e+00	 1.7790379203e-02
 2.4238423753e-01	 1.8844760230e+00	 3.7498744493e-02
 2.2594769895e-01	 1.8865173303e+00	 5.4556654507e-02
 2.0954349140e-01	 1.8884097874e+00	 6.9269526347e-02
 1.9317339725e-01	 1.8901545012e+00	 8.1935760014e-02
 1.7683916871e-01	 1.8917526023e+00	 9.2847854205e-02
 1.6054252755e-01	 1.8932052442e+00	 1.0229342265e-01
 3.2599359284e-01	 1.8777954417e+00	-8.5787744565e-02
 3.0937186710e-01	 1.8806053789e+00	-5.3282581333e-02
 2.9277319031e-01	 1.8832608429e+00	-2.4499292263e-02
 2.7619949673e-01	 1.8857628115e+00	 8.8636045581e-04
 2.5965269206e-01	 1.8881122908e+00	 2.3189869518e-02
 2.4313465312e-01	 1.8903103141e+00	 4.2719516595e-02
 2.2664722743e-01	 1.8923579412e+00	 5.9777764623e-02
 2.1019223286e-01	 1.8942562573e+00	 7.4662517916e-02
 1.9377145730e-01	 1.8960063728e+00	 8.7668259840e-02
 1.7738665840e-01	 1.8976094215e+00	 9.9087077761e-02
 1.6103956324e-01	 1.8990665608e+00	 1.0920958496e-01
 3.2699974590e-01	 1.8835911066e+00	-7.7323221181e-02
 3.1032671854e-01	 1.8864097165e+00	-4.5997060610e-02
 2.9367681127e-01	 1.8890733763e+00	-1.8131129987e-02
 2.7705196431e-01	 1.8915830671e+00	 6.5768921265e-03
 2.6045408926e-01	 1.8939397979e+00	 2.8424458958e-02
 2.4388506872e-01	 1.8961446052e+00	 4.7705616984e-02
 2.2734675591e-01	 1.8981985521e+00	 6.4712320190e-02
 2.1084097432e-01	 1.9001027273e+00	 7.9735607232e-02
 1.9436951736e-01	 1.9018582443e+00	 9.3066651691e-02
 1.7793414809e-01	 1.9034662407e+00	 1.0499769560e-01
 1.6153659892e-01	 1.9049278773e+00	 1.1582287637e-01
 3.2800589896e-01	 1.8893867715e+00	-6.8629896760e-02
 3.1128156998e-01	 1.8922140541e+00	-3.8614365866e-02
 2.9458043223e-01	 1.8948859098e+00	-1.1783035123e-02
 2.7790443189e-01	 1.8974033227e+00	 1.2145297986e-02
 2.6125548646e-01	 1.8997673050e+00	 3.3450807689e-02
 2.4463548432e-01	 1.9019788963e+00	 5.2414028000e-02
 2.2804628439e-01	 1.9040391630e+00	 6.9317088245e-02
 2.1148971578e-01	 1.9059491972e+00	 8.4444806584e-02
 1.9496757741e-01	 1.9077101158e+00	 9.8085652202e-02
 1.7848163777e-01	 1.9093230599e+00	 1.1053258680e-01
 1.6203363461e-01	 1.9107891939e+00	 1.2208379598e-01
 3.2901205203e-01	 1.8951824365e+00	-5.9757161956e-02
 3.1223642142e-01	 1.8980183917e+00	-3.1181459830e-02
 2.9548405319e-01	 1.9006984433e+00	-5.5000613952e-03
 2.7875689947e-01	 1.9032235783e+00	 1.7547910346e-02
 2.6205688365e-01	 1.9055948120e+00	 3.8226107602e-02
 2.4538589991e-01	 1.9078131874e+00	 5.6802271739e-02
 2.2874581287e-01	 1.9098797740e+00	 7.3549389322e-02
 2.1213845724e-01	 1.9117956671e+00	 8.8746701304e-02
 1.9556563746e-01	 1.9135619873e+00	 1.0268057648e-01
 1.7902912746e-01	 1.9151798791e+00	 1.1564526034e-01
 1.6253067030e-01	 1.9166505104e+00	 1.2794351025e-01
 3.3001820509e-01	 1.9009781014e+00	-5.0753863562e-02
 3.1319127286e-01	 1.9038227292e+00	-2.3744774736e-02
 2.9638767414e-01	 1.9065109767e+00	 6.7325980927e-04
 2.7960936706e-01	 1.9090438339e+00	 2.2741581001e-02
 2.6285828085e-01	 1.9114223191e+00	 4.2708072638e-02
 2.4613631551e-01	 1.9136474785e+00	 6.0828400419e-02
 2.2944534135e-01	 1.9157203849e+00	 7.7367087759e-02
 2.1278719869e-01	 1.9176421371e+00	 9.2598439916e-02
 1.9616369752e-01	 1.9194138589e+00	 1.0680732802e-01
 1.7957661715e-01	 1.9210366983e+00	 1.2028984461e-01
 1.6302770599e-01	 1.9225118270e+00	 1.3335384211e-01
 3.3102435816e-01	 1.9067737664e+00	-4.1668315171e-02
 3.1414612430e-01	 1.9096270668e+00	-1.6350222554e-02
 2.9729129510e-01	 1.9123235102e+00	 6.6929095437e-03
 2.8046183464e-01	 1.9148640895e+00	 2.7683671580e-02
 2.6365967805e-01	 1.9172498262e+00	 4.6854929274e-02
 2.4688673110e-01	 1.9194817696e+00	 6.4450986918e-02
 2.3014486983e-01	 1.9215609958e+00	 8.0728582190e-02
 2.1343594015e-01	 1.9234886070e+00	 9.5957724471e-02
 1.9676175757e-01	 1.9252657304e+00	 1.1042238875e-01
 1.8012410683e-01	 1.9268935175e+00	 1.2442107719e-01
 1.6352474168e-01	 1.9283731435e+00	 1.3826726019e-01
 3.3203051122e-01	 1.9125694313e+00	-3.2548307662e-02
 3.1510097575e-01	 1.9154314044e+00	-9.0432050398e-03
 2.9819491606e-01	 1.9181360437e+00	 1.2515371583e-02
 2.8131430222e-01	 1.9206843451e+00	 3.2332044060e-02
 2.6446107525e-01	 1.9230773332e+00	 5.0625407187e-02
 2.4763714670e-01	 1.9253160607e+00	 6.7629115481e-02
 2.3084439831e-01	 1.9274016068e+00	 8.3592796192e-02
 2.1408468161e-01	 1.9293350769e+00	 9.8782801053e-02
 1.9735981762e-01	 1.9311176019e+00	 1.1348280933e-01
 1.8067159652e-01	 1.9327503367e+00	 1.2799429470e-01
 1.6402177737e-01	 1.9342344601e+00	 1.4263686835e-01
 1.5905142048e-01	 1.8756212946e+00	 8.0232965265e-02
 1.4294505491e-01	 1.8769175012e+00	 8.6318794643e-02
 1.2687924764e-01	 1.8780719506e+00	 9.0852812361e-02
 1.1085561253e-01	 1.8790858491e+00	 9.3489402438e-02
 9.4875732393e-02	 1.8799604226e+00	 9.3836324964e-02
 7.8941158878e-02	 1.8806969157e+00	 9.1457396169e-02
 6.3053412304e-02	 1.8812965907e+00	 8.5875121246e-02
 4.7213981563e-02	 1.8817607274e+00	 7.6573283823e-02
 3.1424324022e-02	 1.8820906214e+00	 6.2999495644e-02
 1.5685865457e-02	 1.8822875840e+00	 4.4567709759e-02
 0.0000000000e+00	 1.8823529412e+00	 2.0660700134e-02
 1.5954845617e-01	 1.8814826112e+00	 8.7753892857e-02
 1.4339175821e-01	 1.8827828684e+00	 9.4278086424e-02
 1.2727574529e-01	 1.8839409255e+00	 9.8889250068e-02
 1.1120203632e-01	 1.8849579924e+00	 1.0129888537e-01
 9.5172219056e-02	 1.8858352989e+00	 1.0116592133e-01
 7.9187849999e-02	 1.8865740935e+00	 9.8099460152e-02
 6.3250454217e-02	 1.8871756426e+00	 9.1661481106e-02
 4.7361525255e-02	 1.8876412297e+00	 8.1369506325e-02
 3.1522525035e-02	 1.8879721546e+00	 6.6699231943e-02
 1.5734883787e-02	 1.8881697327e+00	 4.7087127765e-02
 0.0000000000e+00	 1.8882352941e+00	 2.1933008274e-02
 1.6004549186e-01	 1.8873439277e+00	 9.5124568864e-02
 1.4383846150e-01	 1.8886482356e+00	 1.0210163353e-01
 1.2767224294e-01	 1.8898099003e+00	 1.0675831132e-01
 1.1154846011e-01	 1.8908301357e+00	 1.0888334068e-01
 9.5468705720e-02	 1.8917101752e+00	 1.0820717283e-01
 7.9434541121e-02	 1.8924512714e+00	 1.0440475198e-01
 6.3447496131e-02	 1.8930546944e+00	 9.7098259573e-02
 4.7509068948e-02	 1.8935217319e+00	 8.5859826235e-02
 3.1620726047e-02	 1.8938536877e+00	 7.0214214881e-02
 1.5783902116e-02	 1.8940518814e+00	 4.9641478001e-02
 0.0000000000e+00	 1.8941176471e+00	 2.3579591845e-02
 1.6054252755e-01	 1.8932052442e+00	 1.0229342265e-01
 1.4428516480e-01	 1.8945136028e+00	 1.0973796517e-01
 1.2806874059e-01	 1.8956788751e+00	 1.1441424543e-01
 1.1189488389e-01	 1.8967022789e+00	 1.1620815980e-01
 9.5765192384e-02	 1.8975850516e+00	 1.1494183569e-01
 7.9681232242e-02	 1.8983284492e+00	 1.1037641510e-01
 6.3644538044e-02	 1.8989337463e+00	 1.0221480864e-01
 4.7656612640e-02	 1.8994022342e+00	 9.0104423726e-02
 3.1718927060e-02	 1.8997352209e+00	 7.3639870198e-02
 1.5832920446e-02	 1.8999340301e+00	 5.2365646533e-02
 0.0000000000e+00	 1.9000000000e+00	 2.5778809119e-02
 1.6103956324e-01	 1.8990665608e+00	 1.0920958496e-01
 1.4473186810e-01	 1.9003789700e+00	 1.1713631835e-01
 1.2846523824e-01	 1.9015478500e+00	 1.2181194615e-01
 1.1224130768e-01	 1.9025744222e+00	 1.2323924798e-01
 9.6061679048e-02	 1.9034599279e+00	 1.2135198462e-01
 7.9927923363e-02	 1.9042056271e+00	 1.1601765393e-01
 6.3841579958e-02	 1.9048127981e+00	 1.0704022421e-01
 4.7804156332e-02	 1.9052827365e+00	 9.4162848753e-02
 3.1817128072e-02	 1.9056167541e+00	 7.7070564834e-02
 1.5881938775e-02	 1.9058161788e+00	 5.5392980161e-02
 0.0000000000e+00	 1.9058823529e+00	 2.8706949334e-02
 1.6153659892e-01	 1.9049278773e+00	 1.1582287637e-01
 1.4517857139e-01	 1.9062443372e+00	 1.2424662632e-01
 1.2886173589e-01	 1.9074168248e+00	 1.2890694118e-01
 1.1258773147e-01	 1.9084465655e+00	 1.2994301590e-01
 9.6358165711e-02	 1.9093348042e+00	 1.2742000754e-01
 8.0174614485e-02	 1.9100828050e+00	 1.2133173265e-01
 6.4038621871e-02	 1.9106918500e+00	 1.1160334976e-01
 4.7951700025e-02	 1.9111632387e+00	 9.8094030558e-02
 3.1915329085e-02	 1.9114982873e+00	 8.0599623089e-02
 1.5930957105e-02	 1.9116983275e+00	 5.8855310041e-02
 0.0000000000e+00	 1.9117647059e+00	 3.2538264534e-02
 1.6203363461e-01	 1.9107891939e+00	 1.2208379598e-01
 1.4562527469e-01	 1.9121097044e+00	 1.3101950727e-01
 1.2925823353e-01	 1.9132857997e+00	 1.3565538189e-01
 1.1293415526e-01	 1.9143187088e+00	 1.3628637146e-01
 9.6654652375e-02	 1.9152096805e+00	 1.3312860034e-01
 8.0421305606e-02	 1.9159599828e+00	 1.2632197392e-01
 6.4235663785e-02	 1.9165709018e+00	 1.1593278000e-01
 4.8099243717e-02	 1.9170437410e+00	 1.0195628700e-01
 3.2013530097e-02	 1.9173798205e+00	 8.4319342494e-02
 1.5979975434e-02	 1.9175804762e+00	 6.2882974865e-02
 0.0000000000e+00	 1.9176470588e+00	 3.7445000806e-02
 1.6253067030e-01	 1.9166505104e+00	 1.2794351025e-01
 1.4607197798e-01	 1.9179750716e+00	 1.3740625317e-01
 1.2965473118e-01	 1.9191547745e+00	 1.4201403325e-01
 1.1328057905e-01	 1.9201908521e+00	 1.4223671168e-01
 9.6951139039e-02	 1.9210845568e+00	 1.3846076181e-01
 8.0667996728e-02	 1.9218371607e+00	 1.3099175770e-01
 6.4432705698e-02	 1.9224499537e+00	 1.2005686438e-01
 4.8246787409e-02	 1.9229242433e+00	 1.0580733374e-01
 3.2111731110e-02	 1.9232613537e+00	 8.8321009386e-02
 1.6028993764e-02	 1.9234626249e+00	 6.7604843623e-02
 0.0000000000e+00	 1.9235294118e+00	 4.3597428962e-02
 1.6302770599e-01	 1.9225118270e+00	 1.3335384211e-01
 1.4651868128e-01	 1.9238404388e+00	 1.4335881887e-01
 1.3005122883e-01	 1.9250237494e+00	 1.4794026387e-01
 1.1362700284e-01	 1.9260629953e+00	 1.4776191479e-01
 9.7247625702e-02	 1.9269594332e+00	 1.4339978861e-01
 8.0914687849e-02	 1.9277143386e+00	 1.3534452000e-01
 6.4629747612e-02	 1.9283290055e+00	 1.2400371060e-01
 4.8394331102e-02	 1.9288047456e+00	 1.0970429317e-01
 3.2209932123e-02	 1.9291428869e+00	 9.2694914202e-02
 1.6078012093e-02	 1.9293447736e+00	 7.3148337943e-02
 0.0000000000e+00	 1.9294117647e+00	 5.1163874639e-02
 1.6352474168e-01	 1.9283731435e+00	 1.3826726019e-01
 1.4696538458e-01	 1.9297058060e+00	 1.4882981139e-01
 1.3044772648e-01	 1.9308927242e+00	 1.5339203633e-01
 1.1397342663e-01	 1.9319351386e+00	 1.5283033244e-01
 9.7544112366e-02	 1.9328343095e+00	 1.4792927036e-01
 8.1161378971e-02	 1.9335915164e+00	 1.3938375177e-01
 6.4826789525e-02	 1.9342080574e+00	 1.2780118803e-01
 4.8541874794e-02	 1.9346852478e+00	 1.1370370334e-01
 3.2308133135e-02	 1.9350244201e+00	 9.7530366486e-02
 1.6127030423e-02	 1.9352269223e+00	 7.9639454032e-02
 0.0000000000e+00	 1.9352941176e+00	 6.0310747869e-02
 1.6402177737e-01	 1.9342344601e+00	 1.4263686835e-01
 1.4741208787e-01	 1.9355711731e+00	 1.5377247937e-01
 1.3084422413e-01	 1.9367616991e+00	 1.5832789755e-01
 1.1431985042e-01	 1.9378072819e+00	 1.5741078205e-01
 9.7840599030e-02	 1.9387091858e+00	 1.5203308477e-01
 8.1408070092e-02	 1.9394686943e+00	 1.4311299772e-01
 6.5023831438e-02	 1.9400871092e+00	 1.3147693107e-01
 4.8689418487e-02	 1.9405657501e+00	 1.1786152654e-01
 3.2406334148e-02	 1.9409059533e+00	 1.0291570963e-01
 1.6176048753e-02	 1.9411090710e+00	 8.7202784205e-02
 0.0000000000e+00	 1.9411764706e+00	 7.1202572102e-02
 1.9411764706e+00	 0.0000000000e+00	 2.7433106700e+00
 1.9411090710e+00	 1.6176048753e-02	 2.7753777969e+00
 1.9409059533e+00	 3.2406334148e-02	 2.7988963977e+00
 1.9405657501e+00	 4.8689418487e-02	 2.8146489242e+00
 1.9400871092e+00	 6.5023831438e-02	 2.8234651360e+00
 1.9394686943e+00	 8.1408070092e-02	 2.8262201158e+00
 1.9387091858e+00	 9.7840599030e-02	 2.8238322590e+00
 1.9378072819e+00	 1.1431985042e-01	 2.8172612415e+00
 1.9367616991e+00	 1.3084422413e-01	 2.8075059713e+00
 1.9355711731e+00	 1.4741208787e-01	 2.7956025288e+00
 1.9342344601e+00	 1.6402177737e-01	 2.7826221015e+00
 1.9470588235e+00	 0.0000000000e+00	 2.7266508360e+00
 1.9469912197e+00	 1.6225067082e-02	 2.7626716758e+00
 1.9467874865e+00	 3.2504535160e-02	 2.7889978164e+00
 1.9464462524e+00	 4.8836962179e-02	 2.8065665399e+00
 1.9459661611e+00	 6.5220873352e-02	 2.8163614761e+00
 1.9453458721e+00	 8.1654761214e-02	 2.8194103943e+00
 1.9445840621e+00	 9.8137085694e-02	 2.8167829649e+00
 1.9436794252e+00	 1.1466627421e-01	 2.8095884950e+00
 1.9426306739e+00	 1.3124072178e-01	 2.7989736437e+00
 1.9414365403e+00	 1.4785879117e-01	 2.7861201227e+00
 1.9400957766e+00	 1.6451881306e-01	 2.7722423871e+00
 1.9529411765e+00	 0.0000000000e+00	 2.7131075054e+00
 1.9528733684e+00	 1.6274085412e-02	 2.7523787771e+00
 1.9526690197e+00	 3.2602736173e-02	 2.7808847120e+00
 1.9523267547e+00	 4.8984505871e-02	 2.7997209394e+00
 1.9518452129e+00	 6.5417915265e-02	 2.8100263945e+00
 1.9512230500e+00	 8.1901452335e-02	 2.8129808348e+00
 1.9504589385e+00	 9.8433572357e-02	 2.8098023225e+00
 1.9495515685e+00	 1.1501269800e-01	 2.8017446792e+00
 1.9484996488e+00	 1.3163721943e-01	 2.7900949175e+00
 1.9473019075e+00	 1.4830549447e-01	 2.7761706546e+00
 1.9459570932e+00	 1.6501584875e-01	 2.7613175163e+00
 1.9588235294e+00	 0.0000000000e+00	 2.7021534011e+00
 1.9587555171e+00	 1.6323103741e-02	 2.7441383976e+00
 1.9585505529e+00	 3.2700937185e-02	 2.7743404302e+00
 1.9582072569e+00	 4.9132049564e-02	 2.7940169356e+00
 1.9577242647e+00	 6.5614957179e-02	 2.8044635448e+00
 1.9571002279e+00	 8.2148143457e-02	 2.8070112725e+00
 1.9563338148e+00	 9.8730059021e-02	 2.8030236707e+00
 1.9554237117e+00	 1.1535912179e-01	 2.7938939529e+00
 1.9543686236e+00	 1.3203371708e-01	 2.7810420940e+00
 1.9531672747e+00	 1.4875219776e-01	 2.7659119130e+00
 1.9518184097e+00	 1.6551288444e-01	 2.7499681439e+00
 1.9647058824e+00	 0.0000000000e+00	 2.6932676006e+00
 1.9646376658e+00	 1.6372122071e-02	 2.7375942145e+00
 1.9644320860e+00	 3.2799138198e-02	 2.7691509921e+00
 1.9640877592e+00	 4.9279593256e-02	 2.7893605813e+00
 1.9636033166e+00	 6.5811999092e-02	 2.7996766553e+00
 1.9629774057e+00	 8.2394834578e-02	 2.8015807234e+00
 1.9622086911e+00	 9.9026545685e-02	 2.7965789058e+00
 1.9612958550e+00	 1.1570554558e-01	 2.7861986792e+00
 1.9602375985e+00	 1.3243021473e-01	 2.7719855975e+00
 1.9590326419e+00	 1.4919890106e-01	 2.7554999979e+00
 1.9576797263e+00	 1.6600992013e-01	 2.7383136946e+00
 1.9705882353e+00	 0.0000000000e+00	 2.6859354413e+00
 1.9705198145e+00	 1.6421140400e-02	 2.7323942200e+00
 1.9703136192e+00	 3.2897339211e-02	 2.7651050544e+00
 1.9699682615e+00	 4.9427136949e-02	 2.7856591516e+00
 1.9694823684e+00	 6.6009041006e-02	 2.7956695291e+00
 1.9688545836e+00	 8.2641525700e-02	 2.7967673970e+00
 1.9680835674e+00	 9.9323032349e-02	 2.7905985037e+00
 1.9671679983e+00	 1.1605196936e-01	 2.7788194537e+00
 1.9661065733e+00	 1.3282671237e-01	 2.7630940041e+00
 1.9648980091e+00	 1.4964560436e-01	 2.7450893464e+00
 1.9635410428e+00	 1.6650695581e-01	 2.7264723820e+00
 1.9764705882e+00	 0.0000000000e+00	 2.6796484273e+00
 1.9764019632e+00	 1.6470158730e-02	 2.7281906576e+00
 1.9761951524e+00	 3.2995540223e-02	 2.7619938708e+00
 1.9758487637e+00	 4.9574680641e-02	 2.7828211256e+00
 1.9753614203e+00	 6.6206082919e-02	 2.7924460435e+00
 1.9747317614e+00	 8.2888216821e-02	 2.7926487097e+00
 1.9739584437e+00	 9.9619519012e-02	 2.7852115417e+00
 1.9730401416e+00	 1.1639839315e-01	 2.7719151314e+00
 1.9719755481e+00	 1.3322321002e-01	 2.7545340694e+00
 1.9707633763e+00	 1.5009230765e-01	 2.7348327588e+00
 1.9694023593e+00	 1.6700399150e-01	 2.7145612274e+00
 1.9823529412e+00	 0.0000000000e+00	 2.6739041374e+00
 1.9822841119e+00	 1.6519177059e-02	 2.7246399588e+00
 1.9820766856e+00	 3.3093741236e-02	 2.7596112534e+00
 1.9817292660e+00	 4.9722224333e-02	 2.7807561697e+00
 1.9812404721e+00	 6.6403124833e-02	 2.7900101491e+00
 1.9806089393e+00	 8.3134907943e-02	 2.7893012962e+00
 1.9798333201e+00	 9.9916005676e-02	 2.7805457201e+00
 1.9789122848e+00	 1.1674481694e-01	 2.7656428532e+00
 1.9778445230e+00	 1.3361970767e-01	 2.7464707569e+00
 1.9766287435e+00	 1.5053901095e-01	 2.7248814228e+00
 1.9752636759e+00	 1.6750102719e-01	 2.7026960781e+00
 1.9882352941e+00	 0.0000000000e+00	 2.6682061361e+00
 1.9881662606e+00	 1.6568195389e-02	 2.7214026819e+00
 1.9879582188e+00	 3.3191942248e-02	 2.7577535357e+00
 1.9876097683e+00	 4.9869768026e-02	 2.7793751200e+00
 1.9871195240e+00	 6.6600166746e-02	 2.7883658699e+00
 1.9864861172e+00	 8.3381599064e-02	 2.7868010228e+00
 1.9857081964e+00	 1.0021249234e-01	 2.7767273835e+00
 1.9847844281e+00	 1.1709124073e-01	 2.7601580720e+00
 1.9837134978e+00	 1.3401620532e-01	 2.7390672649e+00
 1.9824941107e+00	 1.5098571425e-01	 2.7153849384e+00
 1.9811249924e+00	 1.6799806288e-01	 2.6909916253e+00
 1.9941176471e+00	 0.0000000000e+00	 2.6620638845e+00
 1.9940484093e+00	 1.6617213718e-02	 2.7181434508e+00
 1.9938397520e+00	 3.3290143261e-02	 2.7562195355e+00
 1.9934902706e+00	 5.0017311718e-02	 2.7785899658e+00
 1.9929985758e+00	 6.6797208660e-02	 2.7875173024e+00
 1.9923632950e+00	 8.3628290186e-02	 2.7852229986e+00
 1.9915830727e+00	 1.0050897900e-01	 2.7738815409e+00
 1.9906565714e+00	 1.1743766452e-01	 2.7556145784e+00
 1.9895824727e+00	 1.3441270297e-01	 2.7324850532e+00
 1.9883594779e+00	 1.5143241754e-01	 2.7064913423e+00
 1.9869863090e+00	 1.6849509857e-01	 2.6795614217e+00
 2.0000000000e+00	 0.0000000000e+00	 2.6549926543e+00
 1.9999305580e+00	 1.6666232048e-02	 2.7145308956e+00
 1.9997212852e+00	 3.3388344273e-02	 2.7548105188e+00
 1.9993707728e+00	 5.0164855410e-02	 2.7783138332e+00
 1.9988776277e+00	 6.6994250573e-02	 2.7874686152e+00
 1.9982404729e+00	 8.3874981307e-02	 2.7846415879e+00
 1.9974579490e+00	 1.0080546567e-01	 2.7721318870e+00
 1.9965287147e+00	 1.1778408831e-01	 2.7521645259e+00
 1.9954514475e+00	 1.3480920062e-01	 2.7268838698e+00
 1.9942248451e+00	 1.5187912084e-01	 2.6983471310e+00
 1.9928476255e+00	 1.6899213426e-01	 2.6685178987e+00
 1.9342344601e+00	 1.6402177737e-01	 2.7826221015e+00
 1.9327503367e+00	 1.8067159652e-01	 2.7673376095e+00
 1.9311176019e+00	 1.9735981762e-01	 2.7479092103e+00
 1.9293350769e+00	 2.1408468161e-01	 2.7245178826e+00
 1.9274016068e+00	 2.3084439831e-01	 2.6973485990e+00
 1.9253160607e+00	 2.4763714670e-01	 2.6665889699e+00
 1.9230773332e+00	 2.6446107525e-01	 2.6324279677e+00
 1.9206843451e+00	 2.8131430222e-01	 2.5950547392e+00
 1.9181360437e+00	 2.9819491606e-01	 2.5546575156e+00
 1.9154314044e+00	 3.1510097575e-01	 2.5114226293e+00
 1.9125694313e+00	 3.3203051122e-01	 2.4655336464e+00
 1.9400957766e+00	 1.6451881306e-01	 2.7722423871e+00
 1.9386071559e+00	 1.8121908620e-01	 2.7561676064e+00
 1.9369694734e+00	 1.9795787768e-01	 2.7360171004e+00
 1.9351815469e+00	 2.1473342307e-01	 2.7119725435e+00
 1.9332422177e+00	 2.3154392679e-01	 2.6842182114e+00
 1.9311503518e+00	 2.4838756230e-01	 2.6529395868e+00
 1.9289048403e+00	 2.6526247244e-01	 2.6183220460e+00
 1.9265046006e+00	 2.8216676980e-01	 2.5805496346e+00
 1.9239485771e+00	 2.9909853702e-01	 2.5398039416e+00
 1.9212357420e+00	 3.1605582719e-01	 2.4962630811e+00
 1.9183650963e+00	 3.3303666429e-01	 2.4501007908e+00
 1.9459570932e+00	 1.6501584875e-01	 2.7613175163e+00
 1.9444639751e+00	 1.8176657589e-01	 2.7444266514e+00
 1.9428213449e+00	 1.9855593773e-01	 2.7235891545e+00
 1.9410280168e+00	 2.1538216453e-01	 2.6989721744e+00
 1.9390828286e+00	 2.3224345527e-01	 2.6707445672e+00
 1.9369846429e+00	 2.4913797789e-01	 2.6390754938e+00
 1.9347323474e+00	 2.6606386964e-01	 2.6041330984e+00
 1.9323248562e+00	 2.8301923739e-01	 2.5660832775e+00
 1.9297611106e+00	 3.0000215798e-01	 2.5250885477e+00
 1.9270400796e+00	 3.1701067863e-01	 2.4813070216e+00
 1.9241607612e+00	 3.3404281735e-01	 2.4348915026e+00
 1.9518184097e+00	 1.6551288444e-01	 2.7499681439e+00
 1.9503207943e+00	 1.8231406558e-01	 2.7321903659e+00
 1.9486732165e+00	 1.9915399778e-01	 2.7106628520e+00
 1.9468744867e+00	 2.1603090599e-01	 2.6855231519e+00
 1.9449234395e+00	 2.3294298375e-01	 2.6569101245e+00
 1.9428189340e+00	 2.4988839349e-01	 2.6249625568e+00
 1.9405598545e+00	 2.6686526684e-01	 2.5898178645e+00
 1.9381451118e+00	 2.8387170497e-01	 2.5516108835e+00
 1.9355736441e+00	 3.0090577893e-01	 2.5104727607e+00
 1.9328444172e+00	 3.1796553007e-01	 2.4665299545e+00
 1.9299564261e+00	 3.3504897041e-01	 2.4199033534e+00
 1.9576797263e+00	 1.6600992013e-01	 2.7383136946e+00
 1.9561776136e+00	 1.8286155526e-01	 2.7195336935e+00
 1.9545250880e+00	 1.9975205784e-01	 2.6972754635e+00
 1.9527209566e+00	 2.1667964745e-01	 2.6716320271e+00
 1.9507640505e+00	 2.3364251223e-01	 2.6426978121e+00
 1.9486532251e+00	 2.5063880908e-01	 2.6105673203e+00
 1.9463873615e+00	 2.6766666404e-01	 2.5753338801e+00
 1.9439653674e+00	 2.8472417255e-01	 2.5370884898e+00
 1.9413861775e+00	 3.0180939989e-01	 2.4959187613e+00
 1.9386487548e+00	 3.1892038151e-01	 2.4519079735e+00
 1.9357520911e+00	 3.3605512348e-01	 2.4051342453e+00
 1.9635410428e+00	 1.6650695581e-01	 2.7264723820e+00
 1.9620344328e+00	 1.8340904495e-01	 2.7065309108e+00
 1.9603769595e+00	 2.0035011789e-01	 2.6834640539e+00
 1.9585674266e+00	 2.1732838891e-01	 2.6573055234e+00
 1.9566046614e+00	 2.3434204071e-01	 2.6280910230e+00
 1.9544875162e+00	 2.5138922468e-01	 2.5958569974e+00
 1.9522148686e+00	 2.6846806124e-01	 2.5606394647e+00
 1.9497856230e+00	 2.8557664013e-01	 2.5224729422e+00
 1.9471987110e+00	 3.0271302085e-01	 2.4813894711e+00
 1.9444530924e+00	 3.1987523295e-01	 2.4374177528e+00
 1.9415477560e+00	 3.3706127654e-01	 2.3905824044e+00
 1.9694023593e+00	 1.6700399150e-01	 2.7145612274e+00
 1.9678912520e+00	 1.8395653464e-01	 2.6932556377e+00
 1.9662288310e+00	 2.0094817794e-01	 2.6692654863e+00
 1.9644138965e+00	 2.1797713037e-01	 2.6425505338e+00
 1.9624452723e+00	 2.3504156919e-01	 2.6130736074e+00
 1.9603218072e+00	 2.5213964028e-01	 2.5807994594e+00
 1.9580423757e+00	 2.6926945843e-01	 2.5456937098e+00
 1.9556058786e+00	 2.8642910772e-01	 2.5077218824e+00
 1.9530112445e+00	 3.0361664181e-01	 2.4668485409e+00
 1.9502574300e+00	 3.2083008440e-01	 2.4230365363e+00
 1.9473434210e+00	 3.3806742961e-01	 2.3762463736e+00
 1.9752636759e+00	 1.6750102719e-01	 2.7026960781e+00
 1.9737480712e+00	 1.8450402432e-01	 2.6797808476e+00
 1.9720807025e+00	 2.0154623800e-01	 2.6547164248e+00
 1.9702603664e+00	 2.1862587183e-01	 2.6273741187e+00
 1.9682858833e+00	 2.3574109767e-01	 2.5976298655e+00
 1.9661560983e+00	 2.5289005587e-01	 2.5653632259e+00
 1.9638698827e+00	 2.7007085563e-01	 2.5304564664e+00
 1.9614261342e+00	 2.8728157530e-01	 2.4927937352e+00
 1.9588237779e+00	 3.0452026276e-01	 2.4522603385e+00
 1.9560617675e+00	 3.2178493584e-01	 2.4087421278e+00
 1.9531390859e+00	 3.3907358267e-01	 2.3621250065e+00
 1.9811249924e+00	 1.6799806288e-01	 2.6909916253e+00
 1.9796048904e+00	 1.8505151401e-01	 2.6661788775e+00
 1.9779325741e+00	 2.0214429805e-01	 2.6398533382e+00
 1.9761068364e+00	 2.1927461329e-01	 2.6117835036e+00
 1.9741264942e+00	 2.3644062615e-01	 2.5817445413e+00
 1.9719903894e+00	 2.5364047147e-01	 2.5495174547e+00
 1.9696973898e+00	 2.7087225283e-01	 2.5148883332e+00
 1.9672463898e+00	 2.8813404288e-01	 2.4776476959e+00
 1.9646363114e+00	 3.0542388372e-01	 2.4375899368e+00
 1.9618661051e+00	 3.2273978728e-01	 2.3945128811e+00
 1.9589347509e+00	 3.4007973574e-01	 2.3482174602e+00
 1.9869863090e+00	 1.6849509857e-01	 2.6795614217e+00
 1.9854617096e+00	 1.8559900370e-01	 2.6525214380e+00
 1.9837844456e+00	 2.0274235810e-01	 2.6247125032e+00
 1.9819533063e+00	 2.1992335475e-01	 2.5957860769e+00
 1.9799671051e+00	 2.3714015463e-01	 2.5654028154e+00
 1.9778246805e+00	 2.5439088706e-01	 2.5332319322e+00
 1.9755248969e+00	 2.7167365003e-01	 2.4989506454e+00
 1.9730666454e+00	 2.8898651046e-01	 2.4622437183e+00
 1.9704488449e+00	 3.0632750468e-01	 2.4228031023e+00
 1.9676704427e+00	 3.2369463872e-01	 2.3803276904e+00
 1.9647304158e+00	 3.4108588880e-01	 2.3345231892e+00
 1.9928476255e+00	 1.6899213426e-01	 2.6685178987e+00
 1.9913185288e+00	 1.8614649338e-01	 2.6388796226e+00
 1.9896363171e+00	 2.0334041816e-01	 2.6093300072e+00
 1.9877997762e+00	 2.2057209621e-01	 2.5793893875e+00
 1.9858077161e+00	 2.3783968311e-01	 2.5485902991e+00
 1.9836589716e+00	 2.5514130266e-01	 2.5164770639e+00
 1.9813524040e+00	 2.7247504722e-01	 2.4826054629e+00
 1.9788869010e+00	 2.8983897805e-01	 2.4465425023e+00
 1.9762613783e+00	 3.0723112564e-01	 2.4078662833e+00
 1.9734747803e+00	 3.2464949016e-01	 2.3661659803e+00
 1.9705260807e+00	 3.4209204186e-01	 2.3210419387e+00
 1.9125694313e+00	 3.3203051122e-01	 2.4655336464e+00
 1.9095491578e+00	 3.4898152382e-01	 2.4172293169e+00
 1.9063696476e+00	 3.6595198672e-01	 2.3666733949e+00
 1.9030299958e+00	 3.8293984544e-01	 2.3139427759e+00
 1.8995293291e+00	 3.9994301837e-01	 2.2591256508e+00
 1.8958668073e+00	 4.1695939728e-01	 2.2023218339e+00
 1.8920416237e+00	 4.3398684788e-01	 2.1436432604e+00
 1.8880530060e+00	 4.5102321045e-01	 2.0832146651e+00
 1.8839002172e+00	 4.6806630045e-01	 2.0211744530e+00
 1.8795825561e+00	 4.8511390912e-01	 1.9576757747e+00
 1.8750993584e+00	 5.0216380421e-01	 1.8928878163e+00
 1.9183650963e+00	 3.3303666429e-01	 2.4501007908e+00
 1.9153356704e+00	 3.5003904359e-01	 2.4016240709e+00
 1.9121465253e+00	 3.6706093213e-01	 2.3510606364e+00
 1.9087967533e+00	 3.8410026922e-01	 2.2984684491e+00
 1.9052854786e+00	 4.0115496691e-01	 2.2439148207e+00
 1.9016118582e+00	 4.1822291060e-01	 2.1874767158e+00
 1.8977750832e+00	 4.3530195954e-01	 2.1292412278e+00
 1.8937743788e+00	 4.5238994745e-01	 2.0693062378e+00
 1.8896090057e+00	 4.6948468317e-01	 2.0077812685e+00
 1.8852782608e+00	 4.8658395127e-01	 1.9447885452e+00
 1.8807814776e+00	 5.0368551271e-01	 1.8804642753e+00
 1.9241607612e+00	 3.3404281735e-01	 2.4348915026e+00
 1.9211221830e+00	 3.5109656335e-01	 2.3862068091e+00
 1.9179234031e+00	 3.6816987754e-01	 2.3355498718e+00
 1.9145635109e+00	 3.8526069299e-01	 2.2829724487e+00
 1.9110416280e+00	 4.0236691545e-01	 2.2285333900e+00
 1.9073569092e+00	 4.1948642393e-01	 2.1722988949e+00
 1.9035085426e+00	 4.3661707120e-01	 2.1143429424e+00
 1.8994957515e+00	 4.5375668445e-01	 2.0547479074e+00
 1.8953177943e+00	 4.7090306590e-01	 1.9936053751e+00
 1.8909739655e+00	 4.8805399341e-01	 1.9310171643e+00
 1.8864635969e+00	 5.0520722120e-01	 1.8670965742e+00
 1.9299564261e+00	 3.3504897041e-01	 2.4199033534e+00
 1.9269086956e+00	 3.5215408312e-01	 2.3709992225e+00
 1.9237002808e+00	 3.6927882296e-01	 2.3201828607e+00
 1.9203302684e+00	 3.8642111676e-01	 2.2675124310e+00
 1.9167977775e+00	 4.0357886399e-01	 2.2130506229e+00
 1.9131019601e+00	 4.2074993725e-01	 2.1568648383e+00
 1.9092420021e+00	 4.3793218286e-01	 2.0990275551e+00
 1.9052171243e+00	 4.5512342146e-01	 2.0396168777e+00
 1.9010265828e+00	 4.7232144863e-01	 1.9787172886e+00
 1.8966696702e+00	 4.8952403556e-01	 1.9164206122e+00
 1.8921457162e+00	 5.0672892970e-01	 1.8528272041e+00
 1.9357520911e+00	 3.3605512348e-01	 2.4051342453e+00
 1.9326952082e+00	 3.5321160289e-01	 2.3560230478e+00
 1.9294771585e+00	 3.7038776837e-01	 2.3050011702e+00
 1.9260970260e+00	 3.8758154054e-01	 2.2521456723e+00
 1.9225539270e+00	 4.0479081254e-01	 2.1975352662e+00
 1.9188470110e+00	 4.2201345058e-01	 2.1412504105e+00
 1.9149754616e+00	 4.3924729452e-01	 2.0833735825e+00
 1.9109384970e+00	 4.5649015846e-01	 2.0239897415e+00
 1.9067353713e+00	 4.7373983136e-01	 1.9631869939e+00
 1.9023653749e+00	 4.9099407771e-01	 1.9010574753e+00
 1.8978278354e+00	 5.0825063820e-01	 1.8376984594e+00
 1.9415477560e+00	 3.3706127654e-01	 2.3905824044e+00
 1.9384817208e+00	 3.5426912266e-01	 2.3413000641e+00
 1.9352540362e+00	 3.7149671379e-01	 2.2900461760e+00
 1.9318637836e+00	 3.8874196431e-01	 2.2369290712e+00
 1.9283100765e+00	 4.0600276108e-01	 2.1820555534e+00
 1.9245920619e+00	 4.2327696390e-01	 2.1255308779e+00
 1.9207089210e+00	 4.4056240618e-01	 2.0674589115e+00
 1.9166598698e+00	 4.5785689546e-01	 2.0079424840e+00
 1.9124441599e+00	 4.7515821409e-01	 1.9470839462e+00
 1.9080610797e+00	 4.9246411986e-01	 1.8849859453e+00
 1.9035099547e+00	 5.0977234670e-01	 1.8217524331e+00
 1.9473434210e+00	 3.3806742961e-01	 2.3762463736e+00
 1.9442682334e+00	 3.5532664243e-01	 2.3268520898e+00
 1.9410309139e+00	 3.7260565920e-01	 2.2753590618e+00
 1.9376305411e+00	 3.8990238809e-01	 2.2219191510e+00
 1.9340662260e+00	 4.0721470962e-01	 2.1666792079e+00
 1.9303371129e+00	 4.2454047723e-01	 2.1097809134e+00
 1.9264423805e+00	 4.4187751784e-01	 2.0513608034e+00
 1.9223812425e+00	 4.5922363246e-01	 1.9915504870e+00
 1.9181529484e+00	 4.7657659682e-01	 1.9304770731e+00
 1.9137567844e+00	 4.9393416201e-01	 1.8682638189e+00
 1.9091920740e+00	 5.1129405519e-01	 1.8050310124e+00
 1.9531390859e+00	 3.3907358267e-01	 2.3621250065e+00
 1.9500547460e+00	 3.5638416220e-01	 2.3127009802e+00
 1.9468077917e+00	 3.7371460462e-01	 2.2609808197e+00
 1.9433972987e+00	 3.9106281186e-01	 2.2071720621e+00
 1.9398223755e+00	 4.0842665816e-01	 2.1514734474e+00
 1.9360821638e+00	 4.2580399055e-01	 2.0940746008e+00
 1.9321758400e+00	 4.4319262950e-01	 2.0351558986e+00
 1.9281026153e+00	 4.6059036946e-01	 1.9748885313e+00
 1.9238617370e+00	 4.7799497955e-01	 1.9134347762e+00
 1.9194524891e+00	 4.9540420416e-01	 1.8509484960e+00
 1.9148741932e+00	 5.1281576369e-01	 1.7875758740e+00
 1.9589347509e+00	 3.4007973574e-01	 2.3482174602e+00
 1.9558412586e+00	 3.5744168197e-01	 2.2988686239e+00
 1.9525846694e+00	 3.7482355003e-01	 2.2469522499e+00
 1.9491640563e+00	 3.9222323564e-01	 2.1927435836e+00
 1.9455785249e+00	 4.0963860670e-01	 2.1365049870e+00
 1.9418272147e+00	 4.2706750388e-01	 2.0784854388e+00
 1.9379092994e+00	 4.4450774116e-01	 2.0189202205e+00
 1.9338239880e+00	 4.6195710646e-01	 1.9580308005e+00
 1.9295705255e+00	 4.7941336227e-01	 1.8960249324e+00
 1.9251481938e+00	 4.9687424631e-01	 1.8330969791e+00
 1.9205563125e+00	 5.1433747219e-01	 1.7694284800e+00
 1.9647304158e+00	 3.4108588880e-01	 2.3345231892e+00
 1.9616277712e+00	 3.5849920174e-01	 2.2853769400e+00
 1.9583615471e+00	 3.7593249544e-01	 2.2333139604e+00
 1.9549308138e+00	 3.9338365941e-01	 2.1786891258e+00
 1.9513346744e+00	 4.1085055524e-01	 2.1218400427e+00
 1.9475722657e+00	 4.2833101720e-01	 2.0630863455e+00
 1.9436427589e+00	 4.4582285282e-01	 2.0027291792e+00
 1.9395453607e+00	 4.6332384346e-01	 1.9410508842e+00
 1.9352793140e+00	 4.8083174500e-01	 1.8783148954e+00
 1.9308438985e+00	 4.9834428846e-01	 1.8147658721e+00
 1.9262384318e+00	 5.1585918069e-01	 1.7506300730e+00
 1.9705260807e+00	 3.4209204186e-01	 2.3210419387e+00
 1.9674142838e+00	 3.5955672151e-01	 2.2722478753e+00
 1.9641384248e+00	 3.7704144086e-01	 2.2201063672e+00
 1.9606975714e+00	 3.9454408318e-01	 2.1650637317e+00
 1.9570908239e+00	 4.1206250378e-01	 2.1075443347e+00
 1.9533173166e+00	 4.2959453053e-01	 2.0479496616e+00
 1.9493762184e+00	 4.4713796448e-01	 1.9866575758e+00
 1.9452667335e+00	 4.6469058047e-01	 1.9240217802e+00
 1.9409881026e+00	 4.8225012773e-01	 1.8603714968e+00
 1.9365396032e+00	 4.9981433061e-01	 1.7960113786e+00
 1.9319205510e+00	 5.1738088918e-01	 1.7312216719e+00
 1.8750993584e+00	 5.0216380421e-01	 1.8928878163e+00
 1.8704499972e+00	 5.1921373064e-01	 1.8256003671e+00
 1.8656338839e+00	 5.3626141124e-01	 1.7547605228e+00
 1.8606504690e+00	 5.5330454748e-01	 1.6808166593e+00
 1.8554992424e+00	 5.7034082026e-01	 1.6042594518e+00
 1.8501797348e+00	 5.8736789070e-01	 1.5256244320e+00
 1.8446915175e+00	 6.0438340096e-01	 1.4461085107e+00
 1.8390342038e+00	 6.2138497507e-01	 1.3672292405e+00
 1.8332074494e+00	 6.3837021987e-01	 1.2898543616e+00
 1.8272109527e+00	 6.5533672579e-01	 1.2148508931e+00
 1.8210444561e+00	 6.7228206786e-01	 1.1430833961e+00
 1.8807814776e+00	 5.0368551271e-01	 1.8804642753e+00
 1.8761180275e+00	 5.2078710558e-01	 1.8136363718e+00
 1.8712873199e+00	 5.3788644582e-01	 1.7432870364e+00
 1.8662888037e+00	 5.5498122793e-01	 1.6698245902e+00
 1.8611219674e+00	 5.7206912578e-01	 1.5936983282e+00
 1.8557863400e+00	 5.8914779340e-01	 1.5154032172e+00
 1.8502814918e+00	 6.0621486581e-01	 1.4363426140e+00
 1.8446070347e+00	 6.2326795985e-01	 1.3579722793e+00
 1.8387626234e+00	 6.4030467508e-01	 1.2811293515e+00
 1.8327479556e+00	 6.5732259465e-01	 1.2066520676e+00
 1.8265627727e+00	 6.7431928625e-01	 1.1353763827e+00
 1.8864635969e+00	 5.0520722120e-01	 1.8670965742e+00
 1.8817860577e+00	 5.2236048052e-01	 1.8007211468e+00
 1.8769407559e+00	 5.3951148040e-01	 1.7309059445e+00
 1.8719271385e+00	 5.5665790838e-01	 1.6580084668e+00
 1.8667446924e+00	 5.7379743130e-01	 1.5824260637e+00
 1.8613929453e+00	 5.9092769610e-01	 1.5046192715e+00
 1.8558714661e+00	 6.0804633066e-01	 1.4261950329e+00
 1.8501798656e+00	 6.2515094462e-01	 1.3485079078e+00
 1.8443177975e+00	 6.4223913029e-01	 1.2723566929e+00
 1.8382849585e+00	 6.5930846352e-01	 1.1985417487e+00
 1.8320810892e+00	 6.7635650464e-01	 1.1278616608e+00
 1.8921457162e+00	 5.0672892970e-01	 1.8528272041e+00
 1.8874540880e+00	 5.2393385547e-01	 1.7868795677e+00
 1.8825941919e+00	 5.4113651498e-01	 1.7176273420e+00
 1.8775654732e+00	 5.5833458882e-01	 1.6453665390e+00
 1.8723674174e+00	 5.7552573681e-01	 1.5704320978e+00
 1.8669995505e+00	 5.9270759880e-01	 1.4932637053e+00
 1.8614614404e+00	 6.0987779551e-01	 1.4156505020e+00
 1.8557526966e+00	 6.2703392939e-01	 1.3388194314e+00
 1.8498729716e+00	 6.4417358550e-01	 1.2635216304e+00
 1.8438219614e+00	 6.6129433238e-01	 1.1905105763e+00
 1.8375994057e+00	 6.7839372302e-01	 1.1205388054e+00
 1.8978278354e+00	 5.0825063820e-01	 1.8376984594e+00
 1.8931221183e+00	 5.2550723041e-01	 1.7721365231e+00
 1.8882476280e+00	 5.4276154956e-01	 1.7034615132e+00
 1.8832038080e+00	 5.6001126927e-01	 1.6318973872e+00
 1.8779901424e+00	 5.7725404233e-01	 1.5577063058e+00
 1.8726061558e+00	 5.9448750150e-01	 1.4813259040e+00
 1.8670514146e+00	 6.1170926036e-01	 1.4046937434e+00
 1.8613255275e+00	 6.2891691417e-01	 1.3288901510e+00
 1.8554281457e+00	 6.4610804071e-01	 1.2546093733e+00
 1.8493589643e+00	 6.6328020125e-01	 1.1825490818e+00
 1.8431177223e+00	 6.8043094141e-01	 1.1134071688e+00
 1.9035099547e+00	 5.0977234670e-01	 1.8217524331e+00
 1.8987901486e+00	 5.2708060535e-01	 1.7565169069e+00
 1.8939010640e+00	 5.4438658414e-01	 1.6884189205e+00
 1.8888421427e+00	 5.6168794972e-01	 1.6175999085e+00
 1.8836128673e+00	 5.7898234784e-01	 1.5442389822e+00
 1.8782127611e+00	 5.9626740420e-01	 1.4687951896e+00
 1.8726413889e+00	 6.1354072521e-01	 1.3933094627e+00
 1.8668983584e+00	 6.3079989894e-01	 1.3187033595e+00
 1.8609833198e+00	 6.4804249592e-01	 1.2456050911e+00
 1.8548959672e+00	 6.6526607012e-01	 1.1746476860e+00
 1.8486360388e+00	 6.8246815980e-01	 1.1064658795e+00
 1.9091920740e+00	 5.1129405519e-01	 1.8050310124e+00
 1.9044581789e+00	 5.2865398029e-01	 1.7400456096e+00
 1.8995545000e+00	 5.4601161872e-01	 1.6725101928e+00
 1.8944804775e+00	 5.6336463016e-01	 1.6024733020e+00
 1.8892355923e+00	 5.8071065336e-01	 1.5300208247e+00
 1.8838193663e+00	 5.9804730690e-01	 1.4556608174e+00
 1.8782313632e+00	 6.1537219006e-01	 1.3814823443e+00
 1.8724711893e+00	 6.3268288371e-01	 1.3082423368e+00
 1.8665384939e+00	 6.4997695114e-01	 1.2364939106e+00
 1.8604329701e+00	 6.6725193898e-01	 1.1667966964e+00
 1.8541543553e+00	 6.8450537819e-01	 1.0997138420e+00
 1.9148741932e+00	 5.1281576369e-01	 1.7875758740e+00
 1.9101262092e+00	 5.3022735523e-01	 1.7227475103e+00
 1.9052079360e+00	 5.4763665330e-01	 1.6557461140e+00
 1.9001188123e+00	 5.6504131061e-01	 1.5865170550e+00
 1.8948583173e+00	 5.8243895888e-01	 1.5150429170e+00
 1.8894259716e+00	 5.9982720959e-01	 1.4419119716e+00
 1.8838213375e+00	 6.1720365492e-01	 1.3691970472e+00
 1.8780440202e+00	 6.3456586849e-01	 1.2974903462e+00
 1.8720936680e+00	 6.5191140635e-01	 1.2272609122e+00
 1.8659699729e+00	 6.6923780785e-01	 1.1589863058e+00
 1.8596726719e+00	 6.8654259657e-01	 1.0931497371e+00
 1.9205563125e+00	 5.1433747219e-01	 1.7694284800e+00
 1.9157942395e+00	 5.3180073017e-01	 1.7046474687e+00
 1.9108613720e+00	 5.4926168788e-01	 1.6381376118e+00
 1.9057571470e+00	 5.6671799106e-01	 1.5697309285e+00
 1.9004810423e+00	 5.8416726439e-01	 1.4992967133e+00
 1.8950325768e+00	 6.0160711229e-01	 1.4275377621e+00
 1.8894113118e+00	 6.1903511977e-01	 1.3564382013e+00
 1.8836168512e+00	 6.3644885326e-01	 1.2864306305e+00
 1.8776488421e+00	 6.5384586156e-01	 1.2178911269e+00
 1.8715069758e+00	 6.7122367671e-01	 1.1512065900e+00
 1.8651909884e+00	 6.8857981496e-01	 1.0867720214e+00
 1.9262384318e+00	 5.1585918069e-01	 1.7506300730e+00
 1.9214622698e+00	 5.3337410511e-01	 1.6857703168e+00
 1.9165148080e+00	 5.5088672246e-01	 1.6196957464e+00
 1.9113954818e+00	 5.6839467151e-01	 1.5521149438e+00
 1.9061037672e+00	 5.8589556991e-01	 1.4827740220e+00
 1.9006391821e+00	 6.0338701499e-01	 1.4125272210e+00
 1.8950012861e+00	 6.2086658462e-01	 1.3431904034e+00
 1.8891896821e+00	 6.3833183803e-01	 1.2750464079e+00
 1.8832040162e+00	 6.5578031677e-01	 1.2083695331e+00
 1.8770439787e+00	 6.7320954558e-01	 1.1434475061e+00
 1.8707093049e+00	 6.9061703335e-01	 1.0805789273e+00
 1.9319205510e+00	 5.1738088918e-01	 1.7312216719e+00
 1.9271303001e+00	 5.3494748005e-01	 1.6661408508e+00
 1.9221682440e+00	 5.5251175704e-01	 1.6004316992e+00
 1.9170338165e+00	 5.7007135195e-01	 1.5336693686e+00
 1.9117264922e+00	 5.8762387542e-01	 1.4654669895e+00
 1.9062457873e+00	 6.0516691769e-01	 1.3968692995e+00
 1.9005912604e+00	 6.2269804947e-01	 1.3294382136e+00
 1.8947625130e+00	 6.4021482280e-01	 1.2633208692e+00
 1.8887591902e+00	 6.5771477198e-01	 1.1986810542e+00
 1.8825809816e+00	 6.7519541445e-01	 1.1356988908e+00
 1.8762276215e+00	 6.9265425174e-01	 1.0745684638e+00
 1.8210444561e+00	 6.7228206786e-01	 1.1430833961e+00
 1.8147077459e+00	 6.8920380662e-01	 1.0738906083e+00
 1.8082006530e+00	 7.0609948907e-01	 1.0056464393e+00
 1.8015230538e+00	 7.2296664964e-01	 9.3777490128e-01
 1.7946748704e+00	 7.3980281123e-01	 8.6971241053e-01
 1.7876560710e+00	 7.5660548620e-01	 8.0090514119e-01
 1.7804666706e+00	 7.7337217741e-01	 7.3080604666e-01
 1.7731067313e+00	 7.9010037930e-01	 6.5887154492e-01
 1.7655763627e+00	 8.0678757896e-01	 5.8455786561e-01
 1.7578757222e+00	 8.2343125719e-01	 5.1025194490e-01
 1.7500050156e+00	 8.4002888966e-01	 4.3957386581e-01
 1.8265627727e+00	 6.7431928625e-01	 1.1353763827e+00
 1.8202068602e+00	 6.9129230301e-01	 1.0667860718e+00
 1.8136800489e+00	 7.0823918449e-01	 9.9943163913e-01
 1.8069822146e+00	 7.2515745767e-01	 9.3275643390e-01
 1.8001132791e+00	 7.4204463793e-01	 8.6621679091e-01
 1.7930732106e+00	 7.5889823009e-01	 7.9927933381e-01
 1.7858620242e+00	 7.7571572946e-01	 7.3141793967e-01
 1.7784797820e+00	 7.9249462288e-01	 6.6211036069e-01
 1.7709265941e+00	 8.0923238980e-01	 5.9083450090e-01
 1.7632026183e+00	 8.2592650342e-01	 5.1720616024e-01
 1.7553080611e+00	 8.4257443175e-01	 4.4555666652e-01
 1.8320810892e+00	 6.7635650464e-01	 1.1278616608e+00
 1.8257059746e+00	 6.9338079939e-01	 1.0599377999e+00
 1.8191594448e+00	 7.1037887991e-01	 9.9349796426e-01
 1.8124413754e+00	 7.2734826570e-01	 9.2800839860e-01
 1.8055516878e+00	 7.4428646463e-01	 8.6294871298e-01
 1.7984903502e+00	 7.6119097399e-01	 7.9780912853e-01
 1.7912573777e+00	 7.7805928151e-01	 7.3208737796e-01
 1.7838528327e+00	 7.9488886645e-01	 6.6528525664e-01
 1.7762768255e+00	 8.1167720065e-01	 5.9690482191e-01
 1.7685295144e+00	 8.2842174966e-01	 5.2644423988e-01
 1.7606111066e+00	 8.4511997384e-01	 4.5439518543e-01
 1.8375994057e+00	 6.7839372302e-01	 1.1205388054e+00
 1.8312050890e+00	 6.9546929577e-01	 1.0533550811e+00
 1.8246388408e+00	 7.1251857533e-01	 9.8786235187e-01
 1.8179005361e+00	 7.2953907373e-01	 9.2355328020e-01
 1.8109900965e+00	 7.4652829133e-01	 8.5993407372e-01
 1.8039074898e+00	 7.6348371789e-01	 7.9652166598e-01
 1.7966527313e+00	 7.8040283357e-01	 7.3284054582e-01
 1.7892258834e+00	 7.9728311002e-01	 6.6841923083e-01
 1.7816270569e+00	 8.1412201149e-01	 6.0278638243e-01
 1.7738564106e+00	 8.3091699589e-01	 5.3546656172e-01
 1.7659141521e+00	 8.4766551593e-01	 4.6597562744e-01
 1.8431177223e+00	 6.8043094141e-01	 1.1134071688e+00
 1.8367042034e+00	 6.9755779216e-01	 1.0470468571e+00
 1.8301182367e+00	 7.1465827075e-01	 9.8254129307e-01
 1.8233596969e+00	 7.3172988176e-01	 9.1941304359e-01
 1.8164285052e+00	 7.4877011803e-01	 8.5719820185e-01
 1.8093246294e+00	 7.6577646179e-01	 7.9544349602e-01
 1.8020480848e+00	 7.8274638562e-01	 7.3370304037e-01
 1.7945989341e+00	 7.9967735360e-01	 6.7153472420e-01
 1.7869772883e+00	 8.1656682234e-01	 6.0849623585e-01
 1.7791833067e+00	 8.3341224213e-01	 5.4414072100e-01
 1.7712171976e+00	 8.5021105802e-01	 4.7801207615e-01
 1.8486360388e+00	 6.8246815980e-01	 1.1064658795e+00
 1.8422033178e+00	 6.9964628854e-01	 1.0410217241e+00
 1.8355976326e+00	 7.1679796618e-01	 9.7755083628e-01
 1.8288188577e+00	 7.3392068979e-01	 9.1560913845e-01
 1.8218669139e+00	 7.5101194473e-01	 8.5476586346e-01
 1.8147417691e+00	 7.6806920568e-01	 7.9460058392e-01
 1.8074434384e+00	 7.8508993767e-01	 7.3469987792e-01
 1.7999719848e+00	 8.0207159717e-01	 6.7465362667e-01
 1.7923275197e+00	 8.1901163318e-01	 6.1405094068e-01
 1.7845102028e+00	 8.3590748836e-01	 5.5247571373e-01
 1.7765202431e+00	 8.5275660011e-01	 4.8950180563e-01
 1.8541543553e+00	 6.8450537819e-01	 1.0997138420e+00
 1.8477024322e+00	 7.0173478493e-01	 1.0352879349e+00
 1.8410770285e+00	 7.1893766160e-01	 9.7290659068e-01
 1.8342780184e+00	 7.3611149782e-01	 9.1216250396e-01
 1.8273053226e+00	 7.5325377143e-01	 8.5266126774e-01
 1.8201589087e+00	 7.7036194958e-01	 7.9401831661e-01
 1.8128387919e+00	 7.8743348973e-01	 7.3585550039e-01
 1.8053450355e+00	 8.0446584074e-01	 6.7779728334e-01
 1.7976777511e+00	 8.2145644403e-01	 6.1946656596e-01
 1.7898370990e+00	 8.3840273459e-01	 5.6048012805e-01
 1.7818232886e+00	 8.5530214220e-01	 5.0044369425e-01
 1.8596726719e+00	 6.8654259657e-01	 1.0931497371e+00
 1.8532015465e+00	 7.0382328131e-01	 1.0298534002e+00
 1.8465564244e+00	 7.2107735702e-01	 9.6862372970e-01
 1.8397371792e+00	 7.3830230585e-01	 9.0909357370e-01
 1.8327437313e+00	 7.5549559814e-01	 8.5090807265e-01
 1.8255760483e+00	 7.7265469348e-01	 7.9372150899e-01
 1.8182341454e+00	 7.8977704178e-01	 7.3719378173e-01
 1.8107180862e+00	 8.0686008432e-01	 6.8098650066e-01
 1.8030279825e+00	 8.2390125488e-01	 6.2475869694e-01
 1.7951639951e+00	 8.4089798083e-01	 5.6816214885e-01
 1.7871263341e+00	 8.5784768429e-01	 5.1083632362e-01
 1.8651909884e+00	 6.8857981496e-01	 1.0867720214e+00
 1.8587006609e+00	 7.0591177769e-01	 1.0247256913e+00
 1.8520358203e+00	 7.2321705244e-01	 9.6471699463e-01
 1.8451963400e+00	 7.4049311387e-01	 9.0642228046e-01
 1.8381821400e+00	 7.5773742484e-01	 8.4952939080e-01
 1.8309931879e+00	 7.7494743738e-01	 7.9373441023e-01
 1.8236294990e+00	 7.9212059383e-01	 7.3873803444e-01
 1.8160911369e+00	 8.0925432789e-01	 6.8424155269e-01
 1.8083782139e+00	 8.2634606572e-01	 6.2994244067e-01
 1.8004908912e+00	 8.4339322706e-01	 5.7552956232e-01
 1.7924293796e+00	 8.6039322638e-01	 5.2067798173e-01
 1.8707093049e+00	 6.9061703335e-01	 1.0805789273e+00
 1.8641997753e+00	 7.0800027408e-01	 1.0199120414e+00
 1.8575152163e+00	 7.2535674786e-01	 9.6120069835e-01
 1.8506555008e+00	 7.4268392190e-01	 9.0416806120e-01
 1.8436205487e+00	 7.5997925154e-01	 8.4854779522e-01
 1.8364103275e+00	 7.7724018127e-01	 7.9408071014e-01
 1.8290248525e+00	 7.9446414588e-01	 7.4051101606e-01
 1.8214641876e+00	 8.1164857147e-01	 6.8758218746e-01
 1.8137284453e+00	 8.2879087657e-01	 6.3503243174e-01
 1.8058177873e+00	 8.4588847330e-01	 5.8258976074e-01
 1.7977324251e+00	 8.6293876847e-01	 5.2996666639e-01
 1.8762276215e+00	 6.9265425174e-01	 1.0745684638e+00
 1.8696988897e+00	 7.1008877046e-01	 1.0154193485e+00
 1.8629946122e+00	 7.2749644328e-01	 9.5808872899e-01
 1.8561146615e+00	 7.4487472993e-01	 9.0234986205e-01
 1.8490589574e+00	 7.6222107824e-01	 8.4798532527e-01
 1.8418274671e+00	 7.7953292517e-01	 7.9478354559e-01
 1.8344202061e+00	 7.9680769794e-01	 7.4253493577e-01
 1.8268372383e+00	 8.1404281504e-01	 6.9102763330e-01
 1.8190786767e+00	 8.3123568741e-01	 6.4004283805e-01
 1.8111446835e+00	 8.4838371953e-01	 5.8934974729e-01
 1.8030354706e+00	 8.6548431056e-01	 5.3870008861e-01
 1.7500050156e+00	 8.4002888966e-01	 4.3957386581e-01
 1.7419644970e+00	 8.5657794799e-01	 3.7160264070e-01
 1.7337544697e+00	 8.7307590092e-01	 3.0592279432e-01
 1.7253752856e+00	 8.8952021543e-01	 2.4215869507e-01
 1.7168273463e+00	 9.0590835794e-01	 1.7983348543e-01
 1.7081111025e+00	 9.2223779543e-01	 1.1837132602e-01
 1.6992270549e+00	 9.3850599669e-01	 5.7100625044e-02
 1.6901757536e+00	 9.5471043346e-01	-4.7417126857e-03
 1.6809577988e+00	 9.7084858165e-01	-6.8004988142e-02
 1.6715738405e+00	 9.8691792254e-01	-1.3361833822e-01
 1.6620245784e+00	 1.0029159440e+00	-2.0258327556e-01
 1.7553080611e+00	 8.4257443175e-01	 4.4555666652e-01
 1.7472431773e+00	 8.5917363874e-01	 3.7731857723e-01
 1.7390082711e+00	 8.7572158547e-01	 3.1187430859e-01
 1.7306036956e+00	 8.9221573124e-01	 2.4877730352e-01
 1.7220298534e+00	 9.0865353478e-01	 1.8748230452e-01
 1.7132871968e+00	 9.2503245542e-01	 1.2734767661e-01
 1.7043762278e+00	 9.4134995426e-01	 6.7638728037e-02
 1.6952974984e+00	 9.5760349538e-01	 7.5320634922e-03
 1.6860516104e+00	 9.7379054704e-01	-5.3879000395e-02
 1.6766392157e+00	 9.8990858291e-01	-1.1757793296e-01
 1.6670610165e+00	 1.0059550833e+00	-1.8461738226e-01
 1.7606111066e+00	 8.4511997384e-01	 4.5439518543e-01
 1.7525218576e+00	 8.6176932949e-01	 3.8556131206e-01
 1.7442620725e+00	 8.7836727002e-01	 3.2006292420e-01
 1.7358321056e+00	 8.9491124704e-01	 2.5738197953e-01
 1.7272323605e+00	 9.1139871162e-01	 1.9690456803e-01
 1.7184632910e+00	 9.2782711540e-01	 1.3792331592e-01
 1.7095254007e+00	 9.4419391182e-01	 7.9640799400e-02
 1.7004192431e+00	 9.6049655730e-01	 2.1174003704e-02
 1.6911454219e+00	 9.7673251244e-01	-3.8440142049e-02
 1.6817045910e+00	 9.9289924329e-01	-1.0023812925e-01
 1.6720974546e+00	 1.0089942225e+00	-1.6532211437e-01
 1.7659141521e+00	 8.4766551593e-01	 4.6597562744e-01
 1.7578005379e+00	 8.6436502024e-01	 3.9629405225e-01
 1.7495158740e+00	 8.8101295456e-01	 3.3044476077e-01
 1.7410605155e+00	 8.9760676285e-01	 2.6792470239e-01
 1.7324348676e+00	 9.1414388846e-01	 2.0805108460e-01
 1.7236393853e+00	 9.3062177539e-01	 1.5005087135e-01
 1.7146745736e+00	 9.4703786939e-01	 9.3064291469e-02
 1.7055409878e+00	 9.6338961922e-01	 3.6149405218e-02
 1.6962392334e+00	 9.7967447784e-01	-2.1712240179e-02
 1.6867699663e+00	 9.9588990366e-01	-8.1608840183e-02
 1.6771338927e+00	 1.0120333617e+00	-1.4469042826e-01
 1.7712171976e+00	 8.5021105802e-01	 4.7801207615e-01
 1.7630792182e+00	 8.6696071100e-01	 4.0948035064e-01
 1.7547696754e+00	 8.8365863911e-01	 3.4297630929e-01
 1.7462889255e+00	 9.0030227865e-01	 2.8035781595e-01
 1.7376373747e+00	 9.1688906531e-01	 2.2087298826e-01
 1.7288154795e+00	 9.3341643538e-01	 1.6368322416e-01
 1.7198237465e+00	 9.4988182695e-01	 1.0786680681e-01
 1.7106627325e+00	 9.6628268114e-01	 5.2423579883e-02
 1.7013330449e+00	 9.8261644324e-01	-3.7192747611e-03
 1.6918353416e+00	 9.9888056403e-01	-6.1700330884e-02
 1.6821703309e+00	 1.0150725009e+00	-1.2271586293e-01
 1.7765202431e+00	 8.5275660011e-01	 4.8950180563e-01
 1.7683578985e+00	 8.6955640175e-01	 4.2433079861e-01
 1.7600234768e+00	 8.8630432366e-01	 3.5761439358e-01
 1.7515173354e+00	 9.0299779445e-01	 2.9463398874e-01
 1.7428398818e+00	 9.1963424215e-01	 2.3532169766e-01
 1.7339915738e+00	 9.3621109536e-01	 1.7877346856e-01
 1.7249729194e+00	 9.5272578452e-01	 1.2400605758e-01
 1.7157844772e+00	 9.6917574306e-01	 6.9961814342e-02
 1.7064268564e+00	 9.8555840864e-01	 1.5514582933e-02
 1.6969007168e+00	 1.0018712244e+00	-4.0523254984e-02
 1.6872067690e+00	 1.0181116402e+00	-9.9392574008e-02
 1.7818232886e+00	 8.5530214220e-01	 5.0044369425e-01
 1.7736365788e+00	 8.7215209250e-01	 4.3857671859e-01
 1.7652772782e+00	 8.8895000821e-01	 3.7429865074e-01
 1.7567457454e+00	 9.0569331026e-01	 3.1070617418e-01
 1.7480423890e+00	 9.2237941899e-01	 2.5134887564e-01
 1.7391676680e+00	 9.3900575535e-01	 1.9527487092e-01
 1.7301220923e+00	 9.5556974209e-01	 1.4143982505e-01
 1.7209062219e+00	 9.7206880498e-01	 8.8729330387e-02
 1.7115206679e+00	 9.8850037404e-01	 3.5964932045e-02
 1.7019660921e+00	 1.0048618848e+00	-1.8088691005e-02
 1.6922432071e+00	 1.0211507794e+00	-7.4715367727e-02
 1.7871263341e+00	 8.5784768429e-01	 5.1083632362e-01
 1.7789152591e+00	 8.7474778325e-01	 4.5205749135e-01
 1.7705310797e+00	 8.9159569276e-01	 3.9122718951e-01
 1.7619741553e+00	 9.0838882606e-01	 3.2852757099e-01
 1.7532448961e+00	 9.2512459583e-01	 2.6890638879e-01
 1.7443437623e+00	 9.4180041533e-01	 2.1314082919e-01
 1.7352712652e+00	 9.5841369965e-01	 1.6012591931e-01
 1.7260279666e+00	 9.7496186689e-01	 1.0869124544e-01
 1.7166144794e+00	 9.9144233944e-01	 5.7607103947e-02
 1.7070314674e+00	 1.0078525451e+00	 5.5918212929e-03
 1.6972796452e+00	 1.0241899186e+00	-4.8679734859e-02
 1.7924293796e+00	 8.6039322638e-01	 5.2067798173e-01
 1.7841939394e+00	 8.7734347400e-01	 4.6476215143e-01
 1.7757848811e+00	 8.9424137730e-01	 4.0720525478e-01
 1.7672025653e+00	 9.1108434187e-01	 3.4773686126e-01
 1.7584474032e+00	 9.2786977267e-01	 2.8794626737e-01
 1.7495198565e+00	 9.4459507532e-01	 2.3232483249e-01
 1.7404204381e+00	 9.6125765722e-01	 1.8002213911e-01
 1.7311497113e+00	 9.7785492881e-01	 1.2981253320e-01
 1.7217082909e+00	 9.9438430484e-01	 8.0416124150e-02
 1.7120968427e+00	 1.0108432055e+00	 3.0506244641e-02
 1.7023160833e+00	 1.0272290578e+00	-2.1281884686e-02
 1.7977324251e+00	 8.6293876847e-01	 5.2996666639e-01
 1.7894726197e+00	 8.7993916475e-01	 4.7667954340e-01
 1.7810386825e+00	 8.9688706185e-01	 4.2221519515e-01
 1.7724309753e+00	 9.1377985767e-01	 3.6622775377e-01
 1.7636499103e+00	 9.3061494952e-01	 3.0842066526e-01
 1.7546959508e+00	 9.4738973531e-01	 2.5278042084e-01
 1.7455696110e+00	 9.6410161478e-01	 2.0108623184e-01
 1.7362714560e+00	 9.8074799073e-01	 1.5205798434e-01
 1.7268021024e+00	 9.9732627024e-01	 1.0436667431e-01
 1.7171622179e+00	 1.0138338659e+00	 5.6642008031e-02
 1.7073525214e+00	 1.0302681971e+00	 7.4812210505e-03
 1.8030354706e+00	 8.6548431056e-01	 5.3870008861e-01
 1.7947513000e+00	 8.8253485551e-01	 4.8779832398e-01
 1.7862924839e+00	 8.9953274640e-01	 4.3623923843e-01
 1.7776593852e+00	 9.1647537348e-01	 3.8360077902e-01
 1.7688524174e+00	 9.3336012636e-01	 3.2946553274e-01
 1.7598720450e+00	 9.5018439529e-01	 2.7446114513e-01
 1.7507187838e+00	 9.6694557235e-01	 2.2327585370e-01
 1.7413932007e+00	 9.8364105265e-01	 1.7539216745e-01
 1.7318959140e+00	 1.0002682356e+00	 1.2943305436e-01
 1.7222275932e+00	 1.0168245263e+00	 8.3985970550e-02
 1.7123889596e+00	 1.0333073363e+00	 3.7611834211e-02
 1.6620245784e+00	 1.0029159440e+00	-2.0258327556e-01
 1.6523107624e+00	 1.0188401418e+00	-2.7003814267e-01
 1.6424331920e+00	 1.0346880206e+00	-3.3115810715e-01
 1.6323927165e+00	 1.0504570953e+00	-3.8714083998e-01
 1.6221902349e+00	 1.0661448925e+00	-4.3929705647e-01
 1.6118266956e+00	 1.0817489512e+00	-4.8903805515e-01
 1.6013030961e+00	 1.0972668246e+00	-5.3786208635e-01
 1.5906204832e+00	 1.1126960808e+00	-5.8733957867e-01
 1.5797799523e+00	 1.1280343045e+00	-6.3909725900e-01
 1.5687826473e+00	 1.1432790978e+00	-6.9480120964e-01
 1.5576297601e+00	 1.1584280817e+00	-7.5613891369e-01
 1.6670610165e+00	 1.0059550833e+00	-1.8461738226e-01
 1.6573177647e+00	 1.0219275362e+00	-2.5050218892e-01
 1.6474102622e+00	 1.0378234388e+00	-3.1069999279e-01
 1.6373393611e+00	 1.0536402986e+00	-3.6635202443e-01
 1.6271059629e+00	 1.0693756346e+00	-4.1872052202e-01
 1.6167110189e+00	 1.0850269783e+00	-4.6917627112e-01
 1.6061555298e+00	 1.1005918755e+00	-5.1918494292e-01
 1.5954405453e+00	 1.1160678871e+00	-5.7029225891e-01
 1.5845671643e+00	 1.1314525903e+00	-6.2410801777e-01
 1.5735365341e+00	 1.1467435800e+00	-6.8228902782e-01
 1.5623498502e+00	 1.1619384699e+00	-7.4652099668e-01
 1.6720974546e+00	 1.0089942225e+00	-1.6532211437e-01
 1.6623247670e+00	 1.0250149305e+00	-2.2961107653e-01
 1.6523873325e+00	 1.0409588571e+00	-2.8891016370e-01
 1.6422860057e+00	 1.0568235019e+00	-3.4429862258e-01
 1.6320216909e+00	 1.0726063767e+00	-3.9698498322e-01
 1.6215953422e+00	 1.0883050054e+00	-4.4829460883e-01
 1.6110079634e+00	 1.1039169265e+00	-4.9965601225e-01
 1.6002606074e+00	 1.1194396934e+00	-5.5258596675e-01
 1.5893543763e+00	 1.1348708761e+00	-6.0867344667e-01
 1.5782904209e+00	 1.1502080621e+00	-6.6956244158e-01
 1.5670699404e+00	 1.1654488580e+00	-7.3693369554e-01
 1.6771338927e+00	 1.0120333617e+00	-1.4469042826e-01
 1.6673317693e+00	 1.0281023249e+00	-2.0734018016e-01
 1.6573644028e+00	 1.0440942753e+00	-2.6574823508e-01
 1.6472326503e+00	 1.0600067053e+00	-3.2092635451e-01
 1.6369374189e+00	 1.0758371188e+00	-3.7402417125e-01
 1.6264796655e+00	 1.0915830326e+00	-4.2631675859e-01
 1.6158603970e+00	 1.1072419775e+00	-4.7919093350e-01
 1.6050806695e+00	 1.1228114997e+00	-5.3413032125e-01
 1.5941415883e+00	 1.1382891618e+00	-5.9269921693e-01
 1.5830443077e+00	 1.1536725442e+00	-6.5652528744e-01
 1.5717900306e+00	 1.1689592461e+00	-7.2728116584e-01
 1.6821703309e+00	 1.0150725009e+00	-1.2271586293e-01
 1.6723387716e+00	 1.0311897193e+00	-1.8366569004e-01
 1.6623414731e+00	 1.0472296935e+00	-2.4117484339e-01
 1.6521792949e+00	 1.0631899086e+00	-2.9618213931e-01
 1.6418531469e+00	 1.0790678609e+00	-3.4977316557e-01
 1.6313639889e+00	 1.0948610597e+00	-4.0316787914e-01
 1.6207128306e+00	 1.1105670285e+00	-4.5770690458e-01
 1.6099007315e+00	 1.1261833060e+00	-5.1483656032e-01
 1.5989288002e+00	 1.1417074476e+00	-5.7609264790e-01
 1.5877981945e+00	 1.1571370263e+00	-6.4308304808e-01
 1.5765101208e+00	 1.1724696342e+00	-7.1746917562e-01
 1.6872067690e+00	 1.0181116402e+00	-9.9392574008e-02
 1.6773457739e+00	 1.0342771136e+00	-1.5856464329e-01
 1.6673185434e+00	 1.0503651118e+00	-2.1515167539e-01
 1.6571259395e+00	 1.0663731119e+00	-2.7001412224e-01
 1.6467688748e+00	 1.0822986029e+00	-3.2416841947e-01
 1.6362483122e+00	 1.0981390868e+00	-3.7877462189e-01
 1.6255652643e+00	 1.1138920795e+00	-4.3512270560e-01
 1.6147207936e+00	 1.1295551123e+00	-4.9461756361e-01
 1.6037160122e+00	 1.1451257334e+00	-5.5876272983e-01
 1.5925520813e+00	 1.1606015084e+00	-6.2914287530e-01
 1.5812302110e+00	 1.1759800224e+00	-7.0740512885e-01
 1.6922432071e+00	 1.0211507794e+00	-7.4715367727e-02
 1.6823527762e+00	 1.0373645080e+00	-1.3201495540e-01
 1.6722956136e+00	 1.0535005300e+00	-1.8764149738e-01
 1.6620725841e+00	 1.0695563152e+00	-2.4237170207e-01
 1.6516846028e+00	 1.0855293450e+00	-2.9714778584e-01
 1.6411326355e+00	 1.1014171139e+00	-3.5306515550e-01
 1.6304176979e+00	 1.1172171305e+00	-4.1135872252e-01
 1.6195408557e+00	 1.1329269186e+00	-4.7338787572e-01
 1.6085032242e+00	 1.1485440191e+00	-5.4062014685e-01
 1.5973059681e+00	 1.1640659905e+00	-6.1461361321e-01
 1.5859503011e+00	 1.1794904105e+00	-6.9675494487e-01
 1.6972796452e+00	 1.0241899186e+00	-4.8679734859e-02
 1.6873597785e+00	 1.0404519024e+00	-1.0399545169e-01
 1.6772726839e+00	 1.0566359483e+00	-1.5860818452e-01
 1.6670192287e+00	 1.0727395185e+00	-2.1320555852e-01
 1.6566003308e+00	 1.0887600871e+00	-2.6865054312e-01
 1.6460169588e+00	 1.1046951411e+00	-3.2596919061e-01
 1.6352701315e+00	 1.1205421814e+00	-3.8633697105e-01
 1.6243609177e+00	 1.1362987249e+00	-4.5106372948e-01
 1.6132904362e+00	 1.1519623049e+00	-5.2157730021e-01
 1.6020598549e+00	 1.1675304727e+00	-5.9940582165e-01
 1.5906703913e+00	 1.1830007986e+00	-6.8504475990e-01
 1.7023160833e+00	 1.0272290578e+00	-2.1281884686e-02
 1.6923667808e+00	 1.0435392968e+00	-7.4485898816e-02
 1.6822497542e+00	 1.0597713665e+00	-1.2801675022e-01
 1.6719658733e+00	 1.0759227219e+00	-1.8246767985e-01
 1.6615160588e+00	 1.0919908292e+00	-2.3861742134e-01
 1.6509012821e+00	 1.1079731682e+00	-2.9741800480e-01
 1.6401225651e+00	 1.1238672324e+00	-3.5998112075e-01
 1.6291809798e+00	 1.1396705313e+00	-4.2756306969e-01
 1.6180776481e+00	 1.1553805907e+00	-5.0154833173e-01
 1.6068137418e+00	 1.1709949548e+00	-5.8343179992e-01
 1.5953904815e+00	 1.1865111868e+00	-6.7222038019e-01
 1.7073525214e+00	 1.0302681971e+00	 7.4812210505e-03
 1.6973737832e+00	 1.0466266911e+00	-4.3467036374e-02
 1.6872268245e+00	 1.0629067848e+00	-9.5833375595e-02
 1.6769125179e+00	 1.0791059252e+00	-1.5011139059e-01
 1.6664317868e+00	 1.0952215713e+00	-2.0699062845e-01
 1.6557856055e+00	 1.1112511953e+00	-2.6734446765e-01
 1.6449749988e+00	 1.1271922834e+00	-3.3221651932e-01
 1.6340010419e+00	 1.1430423376e+00	-4.0280557682e-01
 1.6228648601e+00	 1.1587988765e+00	-4.8044914753e-01
 1.6115676286e+00	 1.1744594369e+00	-5.6660561063e-01
 1.6001105717e+00	 1.1900215749e+00	-6.5823601375e-01
 1.7123889596e+00	 1.0333073363e+00	 3.7611834211e-02
 1.7023807855e+00	 1.0497140855e+00	-1.0920608477e-02
 1.6922038947e+00	 1.0660422030e+00	-6.2025439086e-02
 1.6818591625e+00	 1.0822891285e+00	-1.1609137934e-01
 1.6713475148e+00	 1.0984523134e+00	-1.7371387668e-01
 1.6606699288e+00	 1.1145292224e+00	-2.3568306609e-01
 1.6498274324e+00	 1.1305173344e+00	-3.0297021716e-01
 1.6388211039e+00	 1.1464141439e+00	-3.7671269117e-01
 1.6276520721e+00	 1.1622171622e+00	-4.5819744192e-01
 1.6163215154e+00	 1.1779239190e+00	-5.4879460180e-01
 1.6048306619e+00	 1.1935319630e+00	-6.4304768609e-01
 1.5576297601e+00	 1.1584280817e+00	-7.5613891369e-01
 1.5463225304e+00	 1.1734788971e+00	-8.2644811226e-01
 1.5348622453e+00	 1.1884292061e+00	-9.0440238429e-01
 1.5232502388e+00	 1.2032766930e+00	-9.8110069811e-01
 1.5114878911e+00	 1.2180190659e+00	-1.0562295088e+00
 1.4995766285e+00	 1.2326540573e+00	-1.1297511042e+00
 1.4875179225e+00	 1.2471794258e+00	-1.2016261711e+00
 1.4753132894e+00	 1.2615929566e+00	-1.2718175527e+00
 1.4629642895e+00	 1.2758924632e+00	-1.3402944895e+00
 1.4504725267e+00	 1.2900757881e+00	-1.4070373163e+00
 1.4378396478e+00	 1.3041408042e+00	-1.4720425829e+00
 1.5623498502e+00	 1.1619384699e+00	-7.4652099668e-01
 1.5510083562e+00	 1.1770348938e+00	-8.2011137871e-01
 1.5395133430e+00	 1.1920305067e+00	-8.9862629035e-01
 1.5278661486e+00	 1.2069229860e+00	-9.7585090865e-01
 1.5160681575e+00	 1.2217100328e+00	-1.0517543425e+00
 1.5041208001e+00	 1.2363893727e+00	-1.1262991959e+00
 1.4920255526e+00	 1.2509587574e+00	-1.1994448832e+00
 1.4797839357e+00	 1.2654159656e+00	-1.2711514647e+00
 1.4673975146e+00	 1.2797588040e+00	-1.3413839804e+00
 1.4548678980e+00	 1.2939851087e+00	-1.4101172516e+00
 1.4421967376e+00	 1.3080927461e+00	-1.4773411197e+00
 1.5670699404e+00	 1.1654488580e+00	-7.3693369554e-01
 1.5556941821e+00	 1.1805908904e+00	-8.1354050657e-01
 1.5441644408e+00	 1.1956318073e+00	-8.9257810705e-01
 1.5324820584e+00	 1.2105692790e+00	-9.7053404614e-01
 1.5206484238e+00	 1.2254009996e+00	-1.0473832275e+00
 1.5086649717e+00	 1.2401246880e+00	-1.1230923962e+00
 1.4965331827e+00	 1.2547380890e+00	-1.1976235143e+00
 1.4842545820e+00	 1.2692389745e+00	-1.2709376723e+00
 1.4718307397e+00	 1.2836251448e+00	-1.3429995105e+00
 1.4592632693e+00	 1.2978944293e+00	-1.4137821234e+00
 1.4465538275e+00	 1.3120446879e+00	-1.4832724128e+00
 1.5717900306e+00	 1.1689592461e+00	-7.2728116584e-01
 1.5603800079e+00	 1.1841468871e+00	-8.0640001518e-01
 1.5488155385e+00	 1.1992331079e+00	-8.8620598096e-01
 1.5370979683e+00	 1.2142155720e+00	-9.6510139809e-01
 1.5252286902e+00	 1.2290919665e+00	-1.0430707636e+00
 1.5132091433e+00	 1.2438600033e+00	-1.1200887610e+00
 1.5010408127e+00	 1.2585174206e+00	-1.1961236928e+00
 1.4887252284e+00	 1.2730619835e+00	-1.2711414631e+00
 1.4762639648e+00	 1.2874914856e+00	-1.3451100844e+00
 1.4636586406e+00	 1.3018037499e+00	-1.4180046802e+00
 1.4509109173e+00	 1.3159966297e+00	-1.4898129502e+00
 1.5765101208e+00	 1.1724696342e+00	-7.1746917562e-01
 1.5650658338e+00	 1.1877028837e+00	-7.9863710027e-01
 1.5534666362e+00	 1.2028344086e+00	-8.7945998984e-01
 1.5417138781e+00	 1.2178618650e+00	-9.5950612128e-01
 1.5298089565e+00	 1.2327829334e+00	-1.0387733576e+00
 1.5177533149e+00	 1.2475953186e+00	-1.1172480914e+00
 1.5055484428e+00	 1.2622967522e+00	-1.1949087304e+00
 1.4931958747e+00	 1.2768849925e+00	-1.2717297475e+00
 1.4806971900e+00	 1.2913578264e+00	-1.3476862696e+00
 1.4680540119e+00	 1.3057130704e+00	-1.4227591754e+00
 1.4552680071e+00	 1.3199485715e+00	-1.4969406691e+00
 1.5812302110e+00	 1.1759800224e+00	-7.0740512885e-01
 1.5697516596e+00	 1.1912588804e+00	-7.9020091091e-01
 1.5581177339e+00	 1.2064357092e+00	-8.7229210403e-01
 1.5463297879e+00	 1.2215081580e+00	-9.5370320372e-01
 1.5343892228e+00	 1.2364739002e+00	-1.0344491861e+00
 1.5222974865e+00	 1.2513306340e+00	-1.1145318969e+00
 1.5100560729e+00	 1.2660760838e+00	-1.1939435866e+00
 1.4976665210e+00	 1.2807080014e+00	-1.2726710240e+00
 1.4851304151e+00	 1.2952241672e+00	-1.3507001634e+00
 1.4724493832e+00	 1.3096223910e+00	-1.4280213351e+00
 1.4596250970e+00	 1.3239005134e+00	-1.5046349240e+00
 1.5859503011e+00	 1.1794904105e+00	-6.9675494487e-01
 1.5744374855e+00	 1.1948148771e+00	-7.8104251047e-01
 1.5627688316e+00	 1.2100370098e+00	-8.6465614799e-01
 1.5509456977e+00	 1.2251544511e+00	-9.4764942701e-01
 1.5389694892e+00	 1.2401648671e+00	-1.0300581585e+00
 1.5268416582e+00	 1.2550659493e+00	-1.1119033596e+00
 1.5145637029e+00	 1.2698554154e+00	-1.1931948337e+00
 1.5021371674e+00	 1.2845310104e+00	-1.2739353446e+00
 1.4895636402e+00	 1.2990905080e+00	-1.3541253589e+00
 1.4768447545e+00	 1.3135317116e+00	-1.4337683250e+00
 1.4639821868e+00	 1.3278524552e+00	-1.5128764549e+00
 1.5906703913e+00	 1.1830007986e+00	-6.8504475990e-01
 1.5791233113e+00	 1.1983708737e+00	-7.7111483777e-01
 1.5674199293e+00	 1.2136383104e+00	-8.5650776216e-01
 1.5555616075e+00	 1.2288007441e+00	-9.4130332877e-01
 1.5435497555e+00	 1.2438558340e+00	-1.0255618804e+00
 1.5313858298e+00	 1.2588012646e+00	-1.1093272979e+00
 1.5190713330e+00	 1.2736347470e+00	-1.1926306212e+00
 1.5066078137e+00	 1.2883540193e+00	-1.2754942809e+00
 1.4939968653e+00	 1.3029568488e+00	-1.3579369120e+00
 1.4812401258e+00	 1.3174410321e+00	-1.4399787187e+00
 1.4683392767e+00	 1.3318043970e+00	-1.5216473563e+00
 1.5953904815e+00	 1.1865111868e+00	-6.7222038019e-01
 1.5838091372e+00	 1.2019268704e+00	-7.6037266852e-01
 1.5720710270e+00	 1.2172396111e+00	-8.4780436491e-01
 1.5601775173e+00	 1.2324470371e+00	-9.3462516530e-01
 1.5481300218e+00	 1.2475468008e+00	-1.0209236169e+00
 1.5359300014e+00	 1.2625365800e+00	-1.1067701307e+00
 1.5235789631e+00	 1.2774140785e+00	-1.1922206411e+00
 1.5110784600e+00	 1.2921770283e+00	-1.2773208896e+00
 1.4984300904e+00	 1.3068231896e+00	-1.3621113077e+00
 1.4856354971e+00	 1.3213503527e+00	-1.4466324646e+00
 1.4726963665e+00	 1.3357563389e+00	-1.5309310453e+00
 1.6001105717e+00	 1.1900215749e+00	-6.5823601375e-01
 1.5884949630e+00	 1.2054828670e+00	-7.4877257689e-01
 1.5767221248e+00	 1.2208409117e+00	-8.3850511474e-01
 1.5647934271e+00	 1.2360933301e+00	-9.2757687442e-01
 1.5527102882e+00	 1.2512377677e+00	-1.0161082558e+00
 1.5404741730e+00	 1.2662718953e+00	-1.1041998420e+00
 1.5280865931e+00	 1.2811934101e+00	-1.1919360929e+00
 1.5155491064e+00	 1.2960000372e+00	-1.2793896786e+00
 1.5028633156e+00	 1.3106895304e+00	-1.3666264276e+00
 1.4900308684e+00	 1.3252596733e+00	-1.4537108541e+00
 1.4770534564e+00	 1.3397082807e+00	-1.5407122307e+00
 1.6048306619e+00	 1.1935319630e+00	-6.4304768609e-01
 1.5931807889e+00	 1.2090388637e+00	-7.3627289731e-01
 1.5813732225e+00	 1.2244422123e+00	-8.2857087267e-01
 1.5694093370e+00	 1.2397396231e+00	-9.2012203857e-01
 1.5572905545e+00	 1.2549287346e+00	-1.0110822720e+00
 1.5450183446e+00	 1.2700072106e+00	-1.1015859451e+00
 1.5325942232e+00	 1.2849727417e+00	-1.1917496488e+00
 1.5200197527e+00	 1.2998230462e+00	-1.2816765731e+00
 1.5072965407e+00	 1.3145558712e+00	-1.3714615161e+00
 1.4944262397e+00	 1.3291689939e+00	-1.4611964894e+00
 1.4814105462e+00	 1.3436602225e+00	-1.5509768815e+00
 1.4378396478e+00	 1.3041408042e+00	-1.4720425829e+00
 1.4250673414e+00	 1.3180854155e+00	-1.5368998861e+00
 1.4121573376e+00	 1.3319075583e+00	-1.6027505173e+00
 1.3991114070e+00	 1.3456052024e+00	-1.6689246028e+00
 1.3859313600e+00	 1.3591763518e+00	-1.7347456849e+00
 1.3726190458e+00	 1.3726190458e+00	-1.7995383795e+00
 1.3591763518e+00	 1.3859313600e+00	-1.8626362608e+00
 1.3456052024e+00	 1.3991114070e+00	-1.9233899192e+00
 1.3319075583e+00	 1.4121573376e+00	-1.9811751335e+00
 1.3180854155e+00	 1.4250673414e+00	-2.0354011008e+00
 1.3041408042e+00	 1.4378396478e+00	-2.0855186640e+00
 1.4421967376e+00	 1.3080927461e+00	-1.4773411197e+00
 1.4293857273e+00	 1.3220796137e+00	-1.5444571808e+00
 1.4164366022e+00	 1.3359436418e+00	-1.6124347231e+00
 1.4033511385e+00	 1.3496827939e+00	-1.6806205337e+00
 1.3901311520e+00	 1.3632950680e+00	-1.7483551741e+00
 1.3767784975e+00	 1.3767784975e+00	-1.8149807725e+00
 1.3632950680e+00	 1.3901311520e+00	-1.8798490490e+00
 1.3496827939e+00	 1.4033511385e+00	-1.9423295173e+00
 1.3359436418e+00	 1.4164366022e+00	-2.0018178063e+00
 1.3220796137e+00	 1.4293857273e+00	-2.0577440407e+00
 1.3080927461e+00	 1.4421967376e+00	-2.1095812200e+00
 1.4465538275e+00	 1.3120446879e+00	-1.4832724128e+00
 1.4337041131e+00	 1.3260738119e+00	-1.5526911685e+00
 1.4207158669e+00	 1.3399797253e+00	-1.6228407962e+00
 1.4075908701e+00	 1.3537603855e+00	-1.6930853356e+00
 1.3943309440e+00	 1.3674137843e+00	-1.7627828962e+00
 1.3809379491e+00	 1.3809379491e+00	-1.8312935852e+00
 1.3674137843e+00	 1.3943309440e+00	-1.8979876753e+00
 1.3537603855e+00	 1.4075908701e+00	-1.9622539547e+00
 1.3399797253e+00	 1.4207158669e+00	-2.0235081989e+00
 1.3260738119e+00	 1.4337041131e+00	-2.0812017056e+00
 1.3120446879e+00	 1.4465538275e+00	-2.1348298293e+00
 1.4509109173e+00	 1.3159966297e+00	-1.4898129502e+00
 1.4380224990e+00	 1.3300680102e+00	-1.5615818707e+00
 1.4249951315e+00	 1.3440158089e+00	-1.6339519002e+00
 1.4118306016e+00	 1.3578379770e+00	-1.7063049187e+00
 1.3985307360e+00	 1.3715325005e+00	-1.7780171061e+00
 1.3850974008e+00	 1.3850974008e+00	-1.8484670100e+00
 1.3715325005e+00	 1.3985307360e+00	-1.9170438577e+00
 1.3578379770e+00	 1.4118306016e+00	-1.9831560563e+00
 1.3440158089e+00	 1.4249951315e+00	-2.0462398190e+00
 1.3300680102e+00	 1.4380224990e+00	-2.1057678568e+00
 1.3159966297e+00	 1.4509109173e+00	-2.1612580711e+00
 1.4552680071e+00	 1.3199485715e+00	-1.4969406691e+00
 1.4423408849e+00	 1.3340622084e+00	-1.5711107060e+00
 1.4292743962e+00	 1.3480518924e+00	-1.6457525504e+00
 1.4160703331e+00	 1.3619155685e+00	-1.7202665046e+00
 1.4027305280e+00	 1.3756512167e+00	-1.7940473371e+00
 1.3892568524e+00	 1.3892568524e+00	-1.8664924912e+00
 1.3756512167e+00	 1.4027305280e+00	-1.9370105446e+00
 1.3619155685e+00	 1.4160703331e+00	-2.0050298627e+00
 1.3480518924e+00	 1.4292743962e+00	-2.0700073815e+00
 1.3340622084e+00	 1.4423408849e+00	-2.1314374592e+00
 1.3199485715e+00	 1.4552680071e+00	-2.1888607309e+00
 1.4596250970e+00	 1.3239005134e+00	-1.5046349240e+00
 1.4466592708e+00	 1.3380564066e+00	-1.5812604590e+00
 1.4335536609e+00	 1.3520879759e+00	-1.6582285834e+00
 1.4203100647e+00	 1.3659931600e+00	-1.7349585984e+00
 1.4069303200e+00	 1.3797699329e+00	-1.8108643733e+00
 1.3934163041e+00	 1.3934163041e+00	-1.8853626972e+00
 1.3797699329e+00	 1.4069303200e+00	-1.9578818888e+00
 1.3659931600e+00	 1.4203100647e+00	-2.0278706045e+00
 1.3520879759e+00	 1.4335536609e+00	-2.0948067825e+00
 1.3380564066e+00	 1.4466592708e+00	-2.1582066566e+00
 1.3239005134e+00	 1.4596250970e+00	-2.2176337761e+00
 1.4639821868e+00	 1.3278524552e+00	-1.5128764549e+00
 1.4509776567e+00	 1.3420506049e+00	-1.5920152504e+00
 1.4378329255e+00	 1.3561240594e+00	-1.6713671276e+00
 1.4245497962e+00	 1.3700707516e+00	-1.7503709590e+00
 1.4111301120e+00	 1.3838886491e+00	-1.8284602214e+00
 1.3975757558e+00	 1.3975757558e+00	-1.9050714940e+00
 1.3838886491e+00	 1.4111301120e+00	-1.9796532206e+00
 1.3700707516e+00	 1.4245497962e+00	-2.0516746765e+00
 1.3561240594e+00	 1.4378329255e+00	-2.1206350748e+00
 1.3420506049e+00	 1.4509776567e+00	-2.1860727472e+00
 1.3278524552e+00	 1.4639821868e+00	-2.2475743322e+00
 1.4683392767e+00	 1.3318043970e+00	-1.5216473563e+00
 1.4552960426e+00	 1.3460448031e+00	-1.6033605054e+00
 1.4421121902e+00	 1.3601601429e+00	-1.6851565737e+00
 1.4287895277e+00	 1.3741483431e+00	-1.7664945708e+00
 1.4153299040e+00	 1.3880073653e+00	-1.8468280828e+00
 1.4017352074e+00	 1.4017352074e+00	-1.9256139173e+00
 1.3880073653e+00	 1.4153299040e+00	-2.0023210220e+00
 1.3741483431e+00	 1.4287895277e+00	-2.0764396121e+00
 1.3601601429e+00	 1.4421121902e+00	-2.1474904426e+00
 1.3460448031e+00	 1.4552960426e+00	-2.2150341596e+00
 1.3318043970e+00	 1.4683392767e+00	-2.2786806588e+00
 1.4726963665e+00	 1.3357563389e+00	-1.5309310453e+00
 1.4596144284e+00	 1.3500390013e+00	-1.6152829246e+00
 1.4463914548e+00	 1.3641962264e+00	-1.6995865451e+00
 1.4330292593e+00	 1.3782259346e+00	-1.7833216152e+00
 1.4195296960e+00	 1.3921260816e+00	-1.8659623257e+00
 1.4058946591e+00	 1.4058946591e+00	-1.9469861460e+00
 1.3921260816e+00	 1.4195296960e+00	-2.0258828998e+00
 1.3782259346e+00	 1.4330292593e+00	-2.1021640571e+00
 1.3641962264e+00	 1.4463914548e+00	-2.1753721764e+00
 1.3500390013e+00	 1.4596144284e+00	-2.2450904273e+00
 1.3357563389e+00	 1.4726963665e+00	-2.3109521258e+00
 1.4770534564e+00	 1.3397082807e+00	-1.5407122307e+00
 1.4639328143e+00	 1.3540331995e+00	-1.6277704523e+00
 1.4506707195e+00	 1.3682323099e+00	-1.7146478682e+00
 1.4372689908e+00	 1.3823035261e+00	-1.8008454414e+00
 1.4237294880e+00	 1.3962447978e+00	-1.8858584577e+00
 1.4100541107e+00	 1.4100541107e+00	-1.9691854748e+00
 1.3962447978e+00	 1.4237294880e+00	-2.0503375592e+00
 1.3823035261e+00	 1.4372689908e+00	-2.1288477450e+00
 1.3682323099e+00	 1.4506707195e+00	-2.2042806480e+00
 1.3540331995e+00	 1.4639328143e+00	-2.2762421654e+00
 1.3397082807e+00	 1.4770534564e+00	-2.3443891891e+00
 1.4814105462e+00	 1.3436602225e+00	-1.5509768815e+00
 1.4682512002e+00	 1.3580273978e+00	-1.6408122472e+00
 1.4549499842e+00	 1.3722683934e+00	-1.7303325435e+00
 1.4415087224e+00	 1.3863811177e+00	-1.8190605384e+00
 1.4279292800e+00	 1.4003635140e+00	-1.9065130973e+00
 1.4142135624e+00	 1.4142135624e+00	-1.9922102874e+00
 1.4003635140e+00	 1.4279292800e+00	-2.0756847782e+00
 1.3863811177e+00	 1.4415087224e+00	-2.1564914704e+00
 1.3722683934e+00	 1.4549499842e+00	-2.2342172855e+00
 1.3580273978e+00	 1.4682512002e+00	-2.3084910453e+00
 1.3436602225e+00	 1.4814105462e+00	-2.3789933673e+00
 1.3041408042e+00	 1.4378396478e+00	-2.0855186640e+00
 1.2900757881e+00	 1.4504725267e+00	-2.1335495289e+00
 1.2758924632e+00	 1.4629642895e+00	-2.1813519661e+00
 1.2615929566e+00	 1.4753132894e+00	-2.2281648318e+00
 1.2471794258e+00	 1.4875179225e+00	-2.2732296052e+00
 1.2326540573e+00	 1.4995766285e+00	-2.3157984491e+00
 1.2180190659e+00	 1.5114878911e+00	-2.3551420049e+00
 1.2032766930e+00	 1.5232502388e+00	-2.3905568619e+00
 1.1884292061e+00	 1.5348622453e+00	-2.4213726455e+00
 1.1734788971e+00	 1.5463225304e+00	-2.4468361195e+00
 1.1584280817e+00	 1.5576297601e+00	-2.4624855956e+00
 1.3080927461e+00	 1.4421967376e+00	-2.1095812200e+00
 1.2939851087e+00	 1.4548678980e+00	-2.1590985642e+00
 1.2797588040e+00	 1.4673975146e+00	-2.2079176080e+00
 1.2654159656e+00	 1.4797839357e+00	-2.2553256040e+00
 1.2509587574e+00	 1.4920255526e+00	-2.3006146539e+00
 1.2363893727e+00	 1.5041208001e+00	-2.3430898797e+00
 1.2217100328e+00	 1.5160681575e+00	-2.3820773219e+00
 1.2069229860e+00	 1.5278661486e+00	-2.4169315053e+00
 1.1920305067e+00	 1.5395133430e+00	-2.4470426147e+00
 1.1770348938e+00	 1.5510083562e+00	-2.4718432265e+00
 1.1619384699e+00	 1.5623498502e+00	-2.4880155458e+00
 1.3120446879e+00	 1.4465538275e+00	-2.1348298293e+00
 1.2978944293e+00	 1.4592632693e+00	-2.1859111266e+00
 1.2836251448e+00	 1.4718307397e+00	-2.2358293087e+00
 1.2692389745e+00	 1.4842545820e+00	-2.2839159927e+00
 1.2547380890e+00	 1.4965331827e+00	-2.3295101051e+00
 1.2401246880e+00	 1.5086649717e+00	-2.3719661711e+00
 1.2254009996e+00	 1.5206484238e+00	-2.4106623246e+00
 1.2105692790e+00	 1.5324820584e+00	-2.4450079782e+00
 1.1956318073e+00	 1.5441644408e+00	-2.4744510933e+00
 1.1805908904e+00	 1.5556941821e+00	-2.4984849964e+00
 1.1654488580e+00	 1.5670699404e+00	-2.5150188859e+00
 1.3159966297e+00	 1.4509109173e+00	-2.1612580711e+00
 1.3018037499e+00	 1.4636586406e+00	-2.2139811716e+00
 1.2874914856e+00	 1.4762639648e+00	-2.2650829775e+00
 1.2730619835e+00	 1.4887252284e+00	-2.3139354717e+00
 1.2585174206e+00	 1.5010408127e+00	-2.3599206383e+00
 1.2438600033e+00	 1.5132091433e+00	-2.4024388800e+00
 1.2290919665e+00	 1.5252286902e+00	-2.4409171473e+00
 1.2142155720e+00	 1.5370979683e+00	-2.4748167201e+00
 1.1992331079e+00	 1.5488155385e+00	-2.5036405801e+00
 1.1841468871e+00	 1.5603800079e+00	-2.5269403185e+00
 1.1689592461e+00	 1.5717900306e+00	-2.5435510313e+00
 1.3199485715e+00	 1.4552680071e+00	-2.1888607309e+00
 1.3057130704e+00	 1.4680540119e+00	-2.2433038569e+00
 1.2913578264e+00	 1.4806971900e+00	-2.2956757035e+00
 1.2768849925e+00	 1.4931958747e+00	-2.3453846520e+00
 1.2622967522e+00	 1.5055484428e+00	-2.3918520085e+00
 1.2475953186e+00	 1.5177533149e+00	-2.4345205564e+00
 1.2327829334e+00	 1.5298089565e+00	-2.4728628141e+00
 1.2178618650e+00	 1.5417138781e+00	-2.5063889356e+00
 1.2028344086e+00	 1.5534666362e+00	-2.5346541924e+00
 1.1877028837e+00	 1.5650658338e+00	-2.5572659792e+00
 1.1724696342e+00	 1.5765101208e+00	-2.5736681249e+00
 1.3239005134e+00	 1.4596250970e+00	-2.2176337761e+00
 1.3096223910e+00	 1.4724493832e+00	-2.2738755191e+00
 1.2952241672e+00	 1.4851304151e+00	-2.3276057328e+00
 1.2807080014e+00	 1.4976665210e+00	-2.3782652614e+00
 1.2660760838e+00	 1.5100560729e+00	-2.4253110269e+00
 1.2513306340e+00	 1.5222974865e+00	-2.4682247260e+00
 1.2364739002e+00	 1.5343892228e+00	-2.5065212237e+00
 1.2215081580e+00	 1.5463297879e+00	-2.5397565815e+00
 1.2064357092e+00	 1.5581177339e+00	-2.5675356553e+00
 1.1912588804e+00	 1.5697516596e+00	-2.5895192066e+00
 1.1759800224e+00	 1.5812302110e+00	-2.6054270799e+00
 1.3278524552e+00	 1.4639821868e+00	-2.2475743322e+00
 1.3135317116e+00	 1.4768447545e+00	-2.3056936501e+00
 1.2990905080e+00	 1.4895636402e+00	-2.3608724464e+00
 1.2845310104e+00	 1.5021371674e+00	-2.4125801230e+00
 1.2698554154e+00	 1.5145637029e+00	-2.4603055415e+00
 1.2550659493e+00	 1.5268416582e+00	-2.5035658727e+00
 1.2401648671e+00	 1.5389694892e+00	-2.5419151344e+00
 1.2251544511e+00	 1.5509456977e+00	-2.5749523542e+00
 1.2100370098e+00	 1.5627688316e+00	-2.6023292924e+00
 1.1948148771e+00	 1.5744374855e+00	-2.6237576644e+00
 1.1794904105e+00	 1.5859503011e+00	-2.6390158055e+00
 1.3318043970e+00	 1.4683392767e+00	-2.2786806588e+00
 1.3174410321e+00	 1.4812401258e+00	-2.3387568745e+00
 1.3029568488e+00	 1.4939968653e+00	-2.3954763379e+00
 1.2883540193e+00	 1.5066078137e+00	-2.4483331343e+00
 1.2736347470e+00	 1.5190713330e+00	-2.4968444177e+00
 1.2588012646e+00	 1.5313858298e+00	-2.5405594212e+00
 1.2438558340e+00	 1.5435497555e+00	-2.5790681480e+00
 1.2288007441e+00	 1.5555616075e+00	-2.6120096767e+00
 1.2136383104e+00	 1.5674199293e+00	-2.6390800157e+00
 1.1983708737e+00	 1.5791233113e+00	-2.6600394447e+00
 1.1830007986e+00	 1.5906703913e+00	-2.6747192844e+00
 1.3357563389e+00	 1.4726963665e+00	-2.3109521258e+00
 1.3213503527e+00	 1.4856354971e+00	-2.3730649255e+00
 1.3068231896e+00	 1.4984300904e+00	-2.4314189911e+00
 1.2921770283e+00	 1.5110784600e+00	-2.4855292462e+00
 1.2774140785e+00	 1.5235789631e+00	-2.5349375184e+00
 1.2625365800e+00	 1.5359300014e+00	-2.5792217189e+00
 1.2475468008e+00	 1.5481300218e+00	-2.6180046950e+00
 1.2324470371e+00	 1.5601775173e+00	-2.6509626858e+00
 1.2172396111e+00	 1.5720710270e+00	-2.6778333154e+00
 1.2019268704e+00	 1.5838091372e+00	-2.6984230607e+00
 1.1865111868e+00	 1.5953904815e+00	-2.7126141333e+00
 1.3397082807e+00	 1.4770534564e+00	-2.3443891891e+00
 1.3252596733e+00	 1.4900308684e+00	-2.4086186222e+00
 1.3106895304e+00	 1.5028633156e+00	-2.4687030575e+00
 1.2960000372e+00	 1.5155491064e+00	-2.5241744418e+00
 1.2811934101e+00	 1.5280865931e+00	-2.5745956847e+00
 1.2662718953e+00	 1.5404741730e+00	-2.6195700184e+00
 1.2512377677e+00	 1.5527102882e+00	-2.6587500184e+00
 1.2360933301e+00	 1.5647934271e+00	-2.6918462183e+00
 1.2208409117e+00	 1.5767221248e+00	-2.7186352491e+00
 1.2054828670e+00	 1.5884949630e+00	-2.7389674402e+00
 1.1900215749e+00	 1.6001105717e+00	-2.7527738198e+00
 1.3436602225e+00	 1.4814105462e+00	-2.3789933673e+00
 1.3291689939e+00	 1.4944262397e+00	-2.4454198459e+00
 1.3145558712e+00	 1.5072965407e+00	-2.5073322344e+00
 1.2998230462e+00	 1.5200197527e+00	-2.5642757149e+00
 1.2849727417e+00	 1.5325942232e+00	-2.6158307162e+00
 1.2700072106e+00	 1.5450183446e+00	-2.6616224596e+00
 1.2549287346e+00	 1.5572905545e+00	-2.7013301585e+00
 1.2397396231e+00	 1.5694093370e+00	-2.7346957985e+00
 1.2244422123e+00	 1.5813732225e+00	-2.7615324317e+00
 1.2090388637e+00	 1.5931807889e+00	-2.7817319171e+00
 1.1935319630e+00	 1.6048306619e+00	-2.7952720464e+00
 1.1584280817e+00	 1.5576297601e+00	-2.4624855956e+00
 1.1432790978e+00	 1.5687826473e+00	-2.4692854395e+00
 1.1280343045e+00	 1.5797799523e+00	-2.4703181107e+00
 1.1126960808e+00	 1.5906204832e+00	-2.4659747384e+00
 1.0972668246e+00	 1.6013030961e+00	-2.4567129726e+00
 1.0817489512e+00	 1.6118266956e+00	-2.4430380442e+00
 1.0661448925e+00	 1.6221902349e+00	-2.4254839610e+00
 1.0504570953e+00	 1.6323927165e+00	-2.4045949571e+00
 1.0346880206e+00	 1.6424331920e+00	-2.3809073063e+00
 1.0188401418e+00	 1.6523107624e+00	-2.3549316078e+00
 1.0029159440e+00	 1.6620245784e+00	-2.3271356480e+00
 1.1619384699e+00	 1.5623498502e+00	-2.4880155458e+00
 1.1467435800e+00	 1.5735365341e+00	-2.4950386429e+00
 1.1314525903e+00	 1.5845671643e+00	-2.4959261191e+00
 1.1160678871e+00	 1.5954405453e+00	-2.4910765859e+00
 1.1005918755e+00	 1.6061555298e+00	-2.4809496095e+00
 1.0850269783e+00	 1.6167110189e+00	-2.4660464376e+00
 1.0693756346e+00	 1.6271059629e+00	-2.4468908767e+00
 1.0536402986e+00	 1.6373393611e+00	-2.4240104368e+00
 1.0378234388e+00	 1.6474102622e+00	-2.3979178586e+00
 1.0219275362e+00	 1.6573177647e+00	-2.3690931314e+00
 1.0059550833e+00	 1.6670610165e+00	-2.3379661090e+00
 1.1654488580e+00	 1.5670699404e+00	-2.5150188859e+00
 1.1502080621e+00	 1.5782904209e+00	-2.5222782638e+00
 1.1348708761e+00	 1.5893543763e+00	-2.5229548511e+00
 1.1194396934e+00	 1.6002606074e+00	-2.5174693980e+00
 1.1039169265e+00	 1.6110079634e+00	-2.5062974517e+00
 1.0883050054e+00	 1.6215953422e+00	-2.4899497283e+00
 1.0726063767e+00	 1.6320216909e+00	-2.4689526503e+00
 1.0568235019e+00	 1.6422860057e+00	-2.4438291675e+00
 1.0409588571e+00	 1.6523873325e+00	-2.4150799794e+00
 1.0250149305e+00	 1.6623247670e+00	-2.3831652693e+00
 1.0089942225e+00	 1.6720974546e+00	-2.3484870568e+00
 1.1689592461e+00	 1.5717900306e+00	-2.5435510313e+00
 1.1536725442e+00	 1.5830443077e+00	-2.5510741445e+00
 1.1382891618e+00	 1.5941415883e+00	-2.5514842587e+00
 1.1228114997e+00	 1.6050806695e+00	-2.5452388258e+00
 1.1072419775e+00	 1.6158603970e+00	-2.5328433479e+00
 1.0915830326e+00	 1.6264796655e+00	-2.5148313744e+00
 1.0758371188e+00	 1.6369374189e+00	-2.4917446778e+00
 1.0600067053e+00	 1.6472326503e+00	-2.4641137322e+00
 1.0440942753e+00	 1.6573644028e+00	-2.4324386121e+00
 1.0281023249e+00	 1.6673317693e+00	-2.3971704250e+00
 1.0120333617e+00	 1.6771338927e+00	-2.3586933863e+00
 1.1724696342e+00	 1.5765101208e+00	-2.5736681249e+00
 1.1571370263e+00	 1.5877981945e+00	-2.5814965895e+00
 1.1417074476e+00	 1.5989288002e+00	-2.5815945402e+00
 1.1261833060e+00	 1.6099007315e+00	-2.5744705999e+00
 1.1105670285e+00	 1.6207128306e+00	-2.5606741119e+00
 1.0948610597e+00	 1.6313639889e+00	-2.5407747379e+00
 1.0790678609e+00	 1.6418531469e+00	-2.5153422530e+00
 1.0631899086e+00	 1.6521792949e+00	-2.4849266616e+00
 1.0472296935e+00	 1.6623414731e+00	-2.4500387546e+00
 1.0311897193e+00	 1.6723387716e+00	-2.4111312234e+00
 1.0150725009e+00	 1.6821703309e+00	-2.3685804406e+00
 1.1759800224e+00	 1.5812302110e+00	-2.6054270799e+00
 1.1606015084e+00	 1.5925520813e+00	-2.6136164113e+00
 1.1451257334e+00	 1.6037160122e+00	-2.6133661861e+00
 1.1295551123e+00	 1.6147207936e+00	-2.6052505782e+00
 1.1138920795e+00	 1.6255652643e+00	-2.5898765701e+00
 1.0981390868e+00	 1.6362483122e+00	-2.5678631314e+00
 1.0822986029e+00	 1.6467688748e+00	-2.5398206121e+00
 1.0663731119e+00	 1.6571259395e+00	-2.5063304762e+00
 1.0503651118e+00	 1.6673185434e+00	-2.4679254993e+00
 1.0342771136e+00	 1.6773457739e+00	-2.4250705458e+00
 1.0181116402e+00	 1.6872067690e+00	-2.3781440406e+00
 1.1794904105e+00	 1.5859503011e+00	-2.6390158055e+00
 1.1640659905e+00	 1.5973059681e+00	-2.6475049750e+00
 1.1485440191e+00	 1.6085032242e+00	-2.6468800269e+00
 1.1329269186e+00	 1.6195408557e+00	-2.6376647935e+00
 1.1172171305e+00	 1.6304176979e+00	-2.6205376090e+00
 1.1014171139e+00	 1.6411326355e+00	-2.5961798646e+00
 1.0855293450e+00	 1.6516846028e+00	-2.5652549786e+00
 1.0695563152e+00	 1.6620725841e+00	-2.5283877288e+00
 1.0535005300e+00	 1.6722956136e+00	-2.4861440709e+00
 1.0373645080e+00	 1.6823527762e+00	-2.4390115637e+00
 1.0211507794e+00	 1.6922432071e+00	-2.3873805141e+00
 1.1830007986e+00	 1.5906703913e+00	-2.6747192844e+00
 1.1675304727e+00	 1.6020598549e+00	-2.6832342439e+00
 1.1519623049e+00	 1.6132904362e+00	-2.6822172786e+00
 1.1362987249e+00	 1.6243609177e+00	-2.6717994997e+00
 1.1205421814e+00	 1.6352701315e+00	-2.6527442219e+00
 1.1046951411e+00	 1.6460169588e+00	-2.6258082902e+00
 1.0887600871e+00	 1.6566003308e+00	-2.5917206076e+00
 1.0727395185e+00	 1.6670192287e+00	-2.5511610454e+00
 1.0566359483e+00	 1.6772726839e+00	-2.5047398653e+00
 1.0404519024e+00	 1.6873597785e+00	-2.4529777736e+00
 1.0241899186e+00	 1.6972796452e+00	-2.3962867244e+00
 1.1865111868e+00	 1.5953904815e+00	-2.7126141333e+00
 1.1709949548e+00	 1.6068137418e+00	-2.7208768236e+00
 1.1553805907e+00	 1.6180776481e+00	-2.7194595888e+00
 1.1396705313e+00	 1.6291809798e+00	-2.7077412193e+00
 1.1238672324e+00	 1.6401225651e+00	-2.6865835553e+00
 1.1079731682e+00	 1.6509012821e+00	-2.6568318495e+00
 1.0919908292e+00	 1.6615160588e+00	-2.6192928294e+00
 1.0759227219e+00	 1.6719658733e+00	-2.5747131675e+00
 1.0597713665e+00	 1.6822497542e+00	-2.5237584873e+00
 1.0435392968e+00	 1.6923667808e+00	-2.4669930301e+00
 1.0272290578e+00	 1.7023160833e+00	-2.4048601001e+00
 1.1900215749e+00	 1.6001105717e+00	-2.7527738198e+00
 1.1744594369e+00	 1.6115676286e+00	-2.7605060064e+00
 1.1587988765e+00	 1.6228648601e+00	-2.7586890826e+00
 1.1430423376e+00	 1.6340010419e+00	-2.7455767888e+00
 1.1271922834e+00	 1.6449749988e+00	-2.7221429551e+00
 1.1112511953e+00	 1.6557856055e+00	-2.6893341173e+00
 1.0952215713e+00	 1.6664317868e+00	-2.6480470932e+00
 1.0791059252e+00	 1.6769125179e+00	-2.5991069925e+00
 1.0629067848e+00	 1.6872268245e+00	-2.5432457886e+00
 1.0466266911e+00	 1.6973737832e+00	-2.4810815804e+00
 1.0302681971e+00	 1.7073525214e+00	-2.4130986629e+00
 1.1935319630e+00	 1.6048306619e+00	-2.7952720464e+00
 1.1779239190e+00	 1.6163215154e+00	-2.8022259348e+00
 1.1622171622e+00	 1.6276520721e+00	-2.7999884076e+00
 1.1464141439e+00	 1.6388211039e+00	-2.7853934050e+00
 1.1305173344e+00	 1.6498274324e+00	-2.7595100124e+00
 1.1145292224e+00	 1.6606699288e+00	-2.7233988472e+00
 1.0984523134e+00	 1.6713475148e+00	-2.6780590102e+00
 1.0822891285e+00	 1.6818591625e+00	-2.6244056147e+00
 1.0660422030e+00	 1.6922038947e+00	-2.5632479052e+00
 1.0497140855e+00	 1.7023807855e+00	-2.4952680971e+00
 1.0333073363e+00	 1.7123889596e+00	-2.4210010569e+00
 1.0029159440e+00	 1.6620245784e+00	-2.3271356480e+00
 9.8691792254e-01	 1.6715738405e+00	-2.2931432140e+00
 9.7084858165e-01	 1.6809577988e+00	-2.2493801727e+00
 9.5471043346e-01	 1.6901757536e+00	-2.1974404472e+00
 9.3850599669e-01	 1.6992270549e+00	-2.1388586446e+00
 9.2223779543e-01	 1.7081111025e+00	-2.0750949219e+00
 9.0590835794e-01	 1.7168273463e+00	-2.0075208848e+00
 8.8952021543e-01	 1.7253752856e+00	-1.9374065801e+00
 8.7307590092e-01	 1.7337544697e+00	-1.8659086359e+00
 8.5657794799e-01	 1.7419644970e+00	-1.7940595940e+00
 8.4002888966e-01	 1.7500050156e+00	-1.7227584727e+00
 1.0059550833e+00	 1.6670610165e+00	-2.3379661090e+00
 9.8990858291e-01	 1.6766392157e+00	-2.3003697886e+00
 9.7379054704e-01	 1.6860516104e+00	-2.2530260086e+00
 9.5760349538e-01	 1.6952974984e+00	-2.1976170447e+00
 9.4134995426e-01	 1.7043762278e+00	-2.1357678560e+00
 9.2503245542e-01	 1.7132871968e+00	-2.0690305134e+00
 9.0865353478e-01	 1.7220298534e+00	-1.9988696783e+00
 8.9221573124e-01	 1.7306036956e+00	-1.9266491950e+00
 8.7572158547e-01	 1.7390082711e+00	-1.8536198518e+00
 8.5917363874e-01	 1.7472431773e+00	-1.7809083559e+00
 8.4257443175e-01	 1.7553080611e+00	-1.7095075632e+00
 1.0089942225e+00	 1.6720974546e+00	-2.3484870568e+00
 9.9289924329e-01	 1.6817045910e+00	-2.3071417799e+00
 9.7673251244e-01	 1.6911454219e+00	-2.2561865108e+00
 9.6049655730e-01	 1.7004192431e+00	-2.1973793271e+00
 9.4419391182e-01	 1.7095254007e+00	-2.1324234503e+00
 9.2782711540e-01	 1.7184632910e+00	-2.0629512415e+00
 9.1139871162e-01	 1.7272323605e+00	-1.9905092671e+00
 8.9491124704e-01	 1.7358321056e+00	-1.9165444953e+00
 8.7836727002e-01	 1.7442620725e+00	-1.8423916833e+00
 8.6176932949e-01	 1.7525218576e+00	-1.7692619998e+00
 8.4511997384e-01	 1.7606111066e+00	-1.6982329240e+00
 1.0120333617e+00	 1.6771338927e+00	-2.3586933863e+00
 9.9588990366e-01	 1.6867699663e+00	-2.3134258059e+00
 9.7967447784e-01	 1.6962392334e+00	-2.2588035784e+00
 9.6338961922e-01	 1.7055409878e+00	-2.1966481527e+00
 9.4703786939e-01	 1.7146745736e+00	-2.1287290381e+00
 9.3062177539e-01	 1.7236393853e+00	-2.0567473750e+00
 9.1414388846e-01	 1.7324348676e+00	-1.9823205906e+00
 8.9760676285e-01	 1.7410605155e+00	-1.9069682074e+00
 8.8101295456e-01	 1.7495158740e+00	-1.8320988592e+00
 8.6436502024e-01	 1.7578005379e+00	-1.7589985660e+00
 8.4766551593e-01	 1.7659141521e+00	-1.6887254722e+00
 1.0150725009e+00	 1.6821703309e+00	-2.3685804406e+00
 9.9888056403e-01	 1.6918353416e+00	-2.3191891699e+00
 9.8261644324e-01	 1.7013330449e+00	-2.2608199920e+00
 9.6628268114e-01	 1.7106627325e+00	-2.1953454149e+00
 9.4988182695e-01	 1.7198237465e+00	-2.1245893769e+00
 9.3341643538e-01	 1.7288154795e+00	-2.0503103962e+00
 9.1688906531e-01	 1.7376373747e+00	-1.9741858245e+00
 9.0030227865e-01	 1.7462889255e+00	-1.8977972705e+00
 8.8365863911e-01	 1.7547696754e+00	-1.8226172505e+00
 8.6696071100e-01	 1.7630792182e+00	-1.7499971196e+00
 8.5021105802e-01	 1.7712171976e+00	-1.6784301953e+00
 1.0181116402e+00	 1.6872067690e+00	-2.3781440406e+00
 1.0018712244e+00	 1.6969007168e+00	-2.3243998846e+00
 9.8555840864e-01	 1.7064268564e+00	-2.2621794328e+00
 9.6917574306e-01	 1.7157844772e+00	-2.1933940584e+00
 9.5272578452e-01	 1.7249729194e+00	-2.1199103824e+00
 9.3621109536e-01	 1.7339915738e+00	-2.0435330103e+00
 9.1963424215e-01	 1.7428398818e+00	-1.9659883873e+00
 9.0299779445e-01	 1.7515173354e+00	-1.8889098416e+00
 8.8630432366e-01	 1.7600234768e+00	-1.8138238755e+00
 8.6955640175e-01	 1.7683578985e+00	-1.7413434741e+00
 8.5275660011e-01	 1.7765202431e+00	-1.6662455919e+00
 1.0211507794e+00	 1.6922432071e+00	-2.3873805141e+00
 1.0048618848e+00	 1.7019660921e+00	-2.3290266960e+00
 9.8850037404e-01	 1.7115206679e+00	-2.2628265022e+00
 9.7206880498e-01	 1.7209062219e+00	-2.1907180932e+00
 9.5556974209e-01	 1.7301220923e+00	-2.1145991405e+00
 9.3900575535e-01	 1.7391676680e+00	-2.0363091544e+00
 9.2237941899e-01	 1.7480423890e+00	-1.9576129473e+00
 9.0569331026e-01	 1.7567457454e+00	-1.8801853015e+00
 8.8895000821e-01	 1.7652772782e+00	-1.8055790052e+00
 8.7215209250e-01	 1.7736365788e+00	-1.7306052133e+00
 8.5530214220e-01	 1.7818232886e+00	-1.6521713032e+00
 1.0241899186e+00	 1.6972796452e+00	-2.3962867244e+00
 1.0078525451e+00	 1.7070314674e+00	-2.3330391071e+00
 9.9144233944e-01	 1.7166144794e+00	-2.2627067406e+00
 9.7496186689e-01	 1.7260279666e+00	-2.1872426108e+00
 9.5841369965e-01	 1.7352712652e+00	-2.1085639189e+00
 9.4180041533e-01	 1.7443437623e+00	-2.0285340061e+00
 9.2512459583e-01	 1.7532448961e+00	-1.9489454296e+00
 9.0838882606e-01	 1.7619741553e+00	-1.8715042601e+00
 8.9159569276e-01	 1.7705310797e+00	-1.7959783865e+00
 8.7474778325e-01	 1.7789152591e+00	-1.7176171685e+00
 8.5784768429e-01	 1.7871263341e+00	-1.6362078681e+00
 1.0272290578e+00	 1.7023160833e+00	-2.4048601001e+00
 1.0108432055e+00	 1.7120968427e+00	-2.3364074020e+00
 9.9438430484e-01	 1.7217082909e+00	-2.2617666466e+00
 9.7785492881e-01	 1.7311497113e+00	-2.1828937986e+00
 9.6125765722e-01	 1.7404204381e+00	-2.1017141791e+00
 9.4459507532e-01	 1.7495198565e+00	-2.0201039932e+00
 9.2786977267e-01	 1.7584474032e+00	-1.9398730235e+00
 9.1108434187e-01	 1.7672025653e+00	-1.8624403846e+00
 8.9424137730e-01	 1.7757848811e+00	-1.7837979696e+00
 8.7734347400e-01	 1.7841939394e+00	-1.7023744863e+00
 8.6039322638e-01	 1.7924293796e+00	-1.6183567036e+00
 1.0302681971e+00	 1.7073525214e+00	-2.4130986629e+00
 1.0138338659e+00	 1.7171622179e+00	-2.3391026688e+00
 9.9732627024e-01	 1.7268021024e+00	-2.2599536965e+00
 9.8074799073e-01	 1.7362714560e+00	-2.1775989559e+00
 9.6410161478e-01	 1.7455696110e+00	-2.0939605885e+00
 9.4738973531e-01	 1.7546959508e+00	-2.0109168026e+00
 9.3061494952e-01	 1.7636499103e+00	-1.9302841896e+00
 9.1377985767e-01	 1.7724309753e+00	-1.8508916841e+00
 8.9688706185e-01	 1.7810386825e+00	-1.7690315610e+00
 8.7993916475e-01	 1.7894726197e+00	-1.6848732522e+00
 8.6293876847e-01	 1.7977324251e+00	-1.5986200860e+00
 1.0333073363e+00	 1.7123889596e+00	-2.4210010569e+00
 1.0168245263e+00	 1.7222275932e+00	-2.3410968241e+00
 1.0002682356e+00	 1.7318959140e+00	-2.2572163629e+00
 9.8364105265e-01	 1.7413932007e+00	-2.1712865085e+00
 9.6694557235e-01	 1.7507187838e+00	-2.0852150323e+00
 9.5018439529e-01	 1.7598720450e+00	-2.0008713905e+00
 9.3336012636e-01	 1.7688524174e+00	-1.9193104392e+00
 9.1647537348e-01	 1.7776593852e+00	-1.8364804186e+00
 8.9953274640e-01	 1.7862924839e+00	-1.7516739169e+00
 8.8253485551e-01	 1.7947513000e+00	-1.6651104702e+00
 8.6548431056e-01	 1.8030354706e+00	-1.5770011317e+00
 8.4002888966e-01	 1.7500050156e+00	-1.7227584727e+00
 8.2343125719e-01	 1.7578757222e+00	-1.6528247035e+00
 8.0678757896e-01	 1.7655763627e+00	-1.5857721361e+00
 7.9010037930e-01	 1.7731067313e+00	-1.5180166317e+00
 7.7337217741e-01	 1.7804666706e+00	-1.4471801046e+00
 7.5660548620e-01	 1.7876560710e+00	-1.3741833375e+00
 7.3980281123e-01	 1.7946748704e+00	-1.2999365579e+00
 7.2296664964e-01	 1.8015230538e+00	-1.2253412154e+00
 7.0609948907e-01	 1.8082006530e+00	-1.1512916482e+00
 6.8920380662e-01	 1.8147077459e+00	-1.0786766297e+00
 6.7228206786e-01	 1.8210444561e+00	-1.0083807898e+00
 8.4257443175e-01	 1.7553080611e+00	-1.7095075632e+00
 8.2592650342e-01	 1.7632026183e+00	-1.6404712766e+00
 8.0923238980e-01	 1.7709265941e+00	-1.5726452593e+00
 7.9249462288e-01	 1.7784797820e+00	-1.5015757127e+00
 7.7571572946e-01	 1.7858620242e+00	-1.4280105311e+00
 7.5889823009e-01	 1.7930732106e+00	-1.3528426129e+00
 7.4204463793e-01	 1.8001132791e+00	-1.2769528897e+00
 7.2515745767e-01	 1.8069822146e+00	-1.2012121941e+00
 7.0823918449e-01	 1.8136800489e+00	-1.1264830118e+00
 6.9129230301e-01	 1.8202068602e+00	-1.0536211091e+00
 6.7431928625e-01	 1.8265627727e+00	-9.8347703216e-01
 8.4511997384e-01	 1.7606111066e+00	-1.6982329240e+00
 8.2842174966e-01	 1.7685295144e+00	-1.6295438374e+00
 8.1167720065e-01	 1.7762768255e+00	-1.5582291997e+00
 7.9488886645e-01	 1.7838528327e+00	-1.4840863111e+00
 7.7805928151e-01	 1.7912573777e+00	-1.4079947383e+00
 7.6119097399e-01	 1.7984903502e+00	-1.3308182606e+00
 7.4428646463e-01	 1.8055516878e+00	-1.2534069456e+00
 7.2734826570e-01	 1.8124413754e+00	-1.1765991136e+00
 7.1037887991e-01	 1.8191594448e+00	-1.1012231838e+00
 6.9338079939e-01	 1.8257059746e+00	-1.0280993919e+00
 6.7635650464e-01	 1.8320810892e+00	-9.5804137398e-01
 8.4766551593e-01	 1.7659141521e+00	-1.6887254722e+00
 8.3091699589e-01	 1.7738564106e+00	-1.6172120556e+00
 8.1412201149e-01	 1.7816270569e+00	-1.5425323732e+00
 7.9728311002e-01	 1.7892258834e+00	-1.4655580984e+00
 7.8040283357e-01	 1.7966527313e+00	-1.3871406469e+00
 7.6348371789e-01	 1.8039074898e+00	-1.3081134614e+00
 7.4652829133e-01	 1.8109900965e+00	-1.2292941949e+00
 7.2953907373e-01	 1.8179005361e+00	-1.1514867816e+00
 7.1251857533e-01	 1.8246388408e+00	-1.0754833842e+00
 6.9546929577e-01	 1.8312050890e+00	-1.0020662092e+00
 6.7839372302e-01	 1.8375994057e+00	-9.3200918468e-01
 8.5021105802e-01	 1.7712171976e+00	-1.6784301953e+00
 8.3341224213e-01	 1.7791833067e+00	-1.6033219852e+00
 8.1656682234e-01	 1.7869772883e+00	-1.5255639922e+00
 7.9967735360e-01	 1.7945989341e+00	-1.4460015161e+00
 7.8274638562e-01	 1.8020480848e+00	-1.3654569568e+00
 7.6577646179e-01	 1.8093246294e+00	-1.2847322181e+00
 7.4877011803e-01	 1.8164285052e+00	-1.2046110072e+00
 7.3172988176e-01	 1.8233596969e+00	-1.1258610188e+00
 7.1465827075e-01	 1.8301182367e+00	-1.0492359918e+00
 6.9755779216e-01	 1.8367042034e+00	-9.7547763075e-01
 6.8043094141e-01	 1.8431177223e+00	-9.0531738531e-01
 8.5275660011e-01	 1.7765202431e+00	-1.6662455919e+00
 8.3590748836e-01	 1.7845102028e+00	-1.5878794654e+00
 8.1901163318e-01	 1.7923275197e+00	-1.5073340496e+00
 8.0207159717e-01	 1.7999719848e+00	-1.4254277608e+00
 7.8508993767e-01	 1.8074434384e+00	-1.3429531317e+00
 7.6806920568e-01	 1.8147417691e+00	-1.2606793411e+00
 7.5101194473e-01	 1.8218669139e+00	-1.1793546371e+00
 7.3392068979e-01	 1.8288188577e+00	-1.0997086420e+00
 7.1679796618e-01	 1.8355976326e+00	-1.0224545265e+00
 6.9964628854e-01	 1.8422033178e+00	-9.4829104516e-01
 6.8246815980e-01	 1.8486360388e+00	-8.7790442593e-01
 8.5530214220e-01	 1.7818232886e+00	-1.6521713032e+00
 8.3840273459e-01	 1.7898370990e+00	-1.5708911587e+00
 8.2145644403e-01	 1.7976777511e+00	-1.4878533027e+00
 8.0446584074e-01	 1.8053450355e+00	-1.4038487692e+00
 7.8743348973e-01	 1.8128387919e+00	-1.3196393854e+00
 7.7036194958e-01	 1.8201589087e+00	-1.2359604343e+00
 7.5325377143e-01	 1.8273053226e+00	-1.1535232097e+00
 7.3611149782e-01	 1.8342780184e+00	-1.0730174487e+00
 7.1893766160e-01	 1.8410770285e+00	-9.9511363172e-01
 7.0173478493e-01	 1.8477024322e+00	-9.2046513985e-01
 6.8450537819e-01	 1.8541543553e+00	-8.4971026315e-01
 8.5784768429e-01	 1.7871263341e+00	-1.6362078681e+00
 8.4089798083e-01	 1.7951639951e+00	-1.5523645342e+00
 8.2390125488e-01	 1.8030279825e+00	-1.4671332582e+00
 8.0686008432e-01	 1.8107180862e+00	-1.3812772037e+00
 7.8977704178e-01	 1.8182341454e+00	-1.2955266671e+00
 7.7265469348e-01	 1.8255760483e+00	-1.2105818806e+00
 7.5549559814e-01	 1.8327437313e+00	-1.1271157054e+00
 7.3830230585e-01	 1.8397371792e+00	-1.0457762007e+00
 7.2107735702e-01	 1.8465564244e+00	-9.6718905660e-01
 7.0382328131e-01	 1.8532015465e+00	-8.9195988164e-01
 6.8654259657e-01	 1.8596726719e+00	-8.2067633799e-01
 8.6039322638e-01	 1.7924293796e+00	-1.6183567036e+00
 8.4339322706e-01	 1.8004908912e+00	-1.5323078496e+00
 8.2634606572e-01	 1.8083782139e+00	-1.4451861557e+00
 8.0925432789e-01	 1.8160911369e+00	-1.3577264375e+00
 7.9212059383e-01	 1.8236294990e+00	-1.2706266478e+00
 7.7494743738e-01	 1.8309931879e+00	-1.1845508277e+00
 7.5773742484e-01	 1.8381821400e+00	-1.1001319455e+00
 7.4049311387e-01	 1.8451963400e+00	-1.0179746087e+00
 7.2321705244e-01	 1.8520358203e+00	-9.3865763903e-01
 7.0591177769e-01	 1.8587006609e+00	-8.6273649732e-01
 6.8857981496e-01	 1.8651909884e+00	-7.9074555406e-01
 8.6293876847e-01	 1.7977324251e+00	-1.5986200860e+00
 8.4588847330e-01	 1.8058177873e+00	-1.5107301346e+00
 8.2879087657e-01	 1.8137284453e+00	-1.4220249526e+00
 8.1164857147e-01	 1.8214641876e+00	-1.3332105398e+00
 7.9446414588e-01	 1.8290248525e+00	-1.2449517056e+00
 7.7724018127e-01	 1.8364103275e+00	-1.1578751742e+00
 7.5997925154e-01	 1.8436205487e+00	-1.0725725771e+00
 7.4268392190e-01	 1.8506555008e+00	-9.8960331643e-01
 7.2535674786e-01	 1.8575152163e+00	-9.0949728832e-01
 7.0800027408e-01	 1.8641997753e+00	-8.3275745456e-01
 6.9061703335e-01	 1.8707093049e+00	-7.5986225582e-01
 8.6548431056e-01	 1.8030354706e+00	-1.5770011317e+00
 8.4838371953e-01	 1.8111446835e+00	-1.4876411740e+00
 8.3123568741e-01	 1.8190786767e+00	-1.3976633085e+00
 8.1404281504e-01	 1.8268372383e+00	-1.3077442619e+00
 7.9680769794e-01	 1.8344202061e+00	-1.2185149120e+00
 7.7953292517e-01	 1.8418274671e+00	-1.1305635551e+00
 7.6222107824e-01	 1.8490589574e+00	-1.0444390590e+00
 7.4487472993e-01	 1.8561146615e+00	-9.6065388508e-01
 7.2749644328e-01	 1.8629946122e+00	-8.7968696826e-01
 7.1008877046e-01	 1.8696988897e+00	-8.0198644293e-01
 6.9265425174e-01	 1.8762276215e+00	-7.2797220732e-01
 6.7228206786e-01	 1.8210444561e+00	-1.0083807898e+00
 6.5533672579e-01	 1.8272109527e+00	-9.3996651269e-01
 6.3837021987e-01	 1.8332074494e+00	-8.7180583450e-01
 6.2138497507e-01	 1.8390342038e+00	-8.0300240912e-01
 6.0438340096e-01	 1.8446915175e+00	-7.3267147473e-01
 5.8736789070e-01	 1.8501797348e+00	-6.5995644610e-01
 5.7034082026e-01	 1.8554992424e+00	-5.8974260021e-01
 5.5330454748e-01	 1.8606504690e+00	-5.2575332308e-01
 5.3626141124e-01	 1.8656338839e+00	-4.6701759372e-01
 5.1921373064e-01	 1.8704499972e+00	-4.1266406245e-01
 5.0216380421e-01	 1.8750993584e+00	-3.6191554416e-01
 6.7431928625e-01	 1.8265627727e+00	-9.8347703216e-01
 6.5732259465e-01	 1.8327479556e+00	-9.1554733184e-01
 6.4030467508e-01	 1.8387626234e+00	-8.4813117799e-01
 6.2326795985e-01	 1.8446070347e+00	-7.8028869278e-01
 6.0621486581e-01	 1.8502814918e+00	-7.1109409071e-01
 5.8914779340e-01	 1.8557863400e+00	-6.3963858382e-01
 5.7206912578e-01	 1.8611219674e+00	-5.6969775055e-01
 5.5498122793e-01	 1.8662888037e+00	-5.0600577078e-01
 5.3788644582e-01	 1.8712873199e+00	-4.4758560278e-01
 5.2078710558e-01	 1.8761180275e+00	-3.9354778816e-01
 5.0368551271e-01	 1.8807814776e+00	-3.4309986024e-01
 6.7635650464e-01	 1.8320810892e+00	-9.5804137398e-01
 6.5930846352e-01	 1.8382849585e+00	-8.9049511104e-01
 6.4223913029e-01	 1.8443177975e+00	-8.2370895949e-01
 6.2515094462e-01	 1.8501798656e+00	-7.5670718596e-01
 6.0804633066e-01	 1.8558714661e+00	-6.8853135806e-01
 5.9092769610e-01	 1.8613929453e+00	-6.1824324446e-01
 5.7379743130e-01	 1.8667446924e+00	-5.4860563982e-01
 5.5665790838e-01	 1.8719271385e+00	-4.8516887768e-01
 5.3951148040e-01	 1.8769407559e+00	-4.2705986186e-01
 5.2236048052e-01	 1.8817860577e+00	-3.7338256485e-01
 5.0520722120e-01	 1.8864635969e+00	-3.2334131507e-01
 6.7839372302e-01	 1.8375994057e+00	-9.3200918468e-01
 6.6129433238e-01	 1.8438219614e+00	-8.6472775746e-01
 6.4417358550e-01	 1.8498729716e+00	-7.9844622272e-01
 6.2703392939e-01	 1.8557526966e+00	-7.3216058465e-01
 6.0987779551e-01	 1.8614614404e+00	-6.6488805438e-01
 5.9270759880e-01	 1.8669995505e+00	-5.9566992277e-01
 5.7552573681e-01	 1.8723674174e+00	-5.2639103675e-01
 5.5833458882e-01	 1.8775654732e+00	-4.6318927184e-01
 5.4113651498e-01	 1.8825941919e+00	-4.0541494201e-01
 5.2393385547e-01	 1.8874540880e+00	-3.5217688654e-01
 5.0672892970e-01	 1.8921457162e+00	-3.0268819835e-01
 6.8043094141e-01	 1.8431177223e+00	-9.0531738531e-01
 6.6328020125e-01	 1.8493589643e+00	-8.3816491891e-01
 6.4610804071e-01	 1.8554281457e+00	-7.7225186069e-01
 6.2891691417e-01	 1.8613255275e+00	-7.0655346352e-01
 6.1170926036e-01	 1.8670514146e+00	-6.4007078697e-01
 5.9448750150e-01	 1.8726061558e+00	-5.7183352088e-01
 5.7725404233e-01	 1.8779901424e+00	-5.0298007141e-01
 5.6001126927e-01	 1.8832038080e+00	-4.4001464381e-01
 5.4276154956e-01	 1.8882476280e+00	-3.8262610639e-01
 5.2550723041e-01	 1.8931221183e+00	-3.2993949875e-01
 5.0825063820e-01	 1.8978278354e+00	-2.8118854188e-01
 6.8246815980e-01	 1.8486360388e+00	-8.7790442593e-01
 6.6526607012e-01	 1.8548959672e+00	-8.1072795880e-01
 6.4804249592e-01	 1.8609833198e+00	-7.4503658951e-01
 6.3079989894e-01	 1.8668983584e+00	-6.7979224964e-01
 6.1354072521e-01	 1.8726413889e+00	-6.1398796771e-01
 5.9626740420e-01	 1.8782127611e+00	-5.4665062160e-01
 5.7898234784e-01	 1.8836128673e+00	-4.7830022273e-01
 5.6168794972e-01	 1.8888421427e+00	-4.1559373799e-01
 5.4438658414e-01	 1.8939010640e+00	-3.5866930667e-01
 5.2708060535e-01	 1.8987901486e+00	-3.0667940107e-01
 5.0977234670e-01	 1.9035099547e+00	-2.5889012916e-01
 6.8450537819e-01	 1.8541543553e+00	-8.4971026315e-01
 6.6725193898e-01	 1.8604329701e+00	-7.8233993142e-01
 6.4997695114e-01	 1.8665384939e+00	-7.1671292245e-01
 6.3268288371e-01	 1.8724711893e+00	-6.5178519656e-01
 6.1537219006e-01	 1.8782313632e+00	-5.8654978823e-01
 5.9804730690e-01	 1.8838193663e+00	-5.2003946579e-01
 5.8071065336e-01	 1.8892355923e+00	-4.5228030613e-01
 5.6336463016e-01	 1.8944804775e+00	-3.8987634422e-01
 5.4601161872e-01	 1.8995545000e+00	-3.3352117953e-01
 5.2865398029e-01	 1.9044581789e+00	-2.8240584959e-01
 5.1129405519e-01	 1.9091920740e+00	-2.3584050495e-01
 6.8654259657e-01	 1.8596726719e+00	-8.2067633799e-01
 6.6923780785e-01	 1.8659699729e+00	-7.5292555752e-01
 6.5191140635e-01	 1.8720936680e+00	-6.8719514445e-01
 6.3456586849e-01	 1.8780440202e+00	-6.2244235875e-01
 6.1720365492e-01	 1.8838213375e+00	-5.5766819544e-01
 5.9982720959e-01	 1.8894259716e+00	-4.9191993004e-01
 5.8243895888e-01	 1.8948583173e+00	-4.2485046148e-01
 5.6504131061e-01	 1.9001188123e+00	-3.6281328948e-01
 5.4763665330e-01	 1.9052079360e+00	-3.0715904326e-01
 5.3022735523e-01	 1.9101262092e+00	-2.5712835941e-01
 5.1281576369e-01	 1.9148741932e+00	-2.1208698455e-01
 6.8857981496e-01	 1.8651909884e+00	-7.9074555406e-01
 6.7122367671e-01	 1.8715069758e+00	-7.2241120019e-01
 6.5384586156e-01	 1.8776488421e+00	-6.5639928691e-01
 6.3644885326e-01	 1.8836168512e+00	-5.9167556639e-01
 6.1903511977e-01	 1.8894113118e+00	-5.2725686738e-01
 6.0160711229e-01	 1.8950325768e+00	-4.6221350468e-01
 5.8416726439e-01	 1.9004810423e+00	-3.9594214130e-01
 5.6671799106e-01	 1.9057571470e+00	-3.3435642983e-01
 5.4926168788e-01	 1.9108613720e+00	-2.7956089442e-01
 5.3180073017e-01	 1.9157942395e+00	-2.3085670704e-01
 5.1433747219e-01	 1.9205563125e+00	-1.8767666311e-01
 6.9061703335e-01	 1.8707093049e+00	-7.5986225582e-01
 6.7320954558e-01	 1.8770439787e+00	-6.9072484113e-01
 6.5578031677e-01	 1.8832040162e+00	-6.2424310277e-01
 6.3833183803e-01	 1.8891896821e+00	-5.5939840049e-01
 6.2086658462e-01	 1.8950012861e+00	-4.9523118938e-01
 6.0338701499e-01	 1.9006391821e+00	-4.3084327202e-01
 5.8589556991e-01	 1.9061037672e+00	-3.6548809920e-01
 5.6839467151e-01	 1.9113954818e+00	-3.0445864253e-01
 5.5088672246e-01	 1.9165148080e+00	-2.5070540461e-01
 5.3337410511e-01	 1.9214622698e+00	-2.0360093289e-01
 5.1585918069e-01	 1.9262384318e+00	-1.6265642461e-01
 6.9265425174e-01	 1.8762276215e+00	-7.2797220732e-01
 6.7519541445e-01	 1.8825809816e+00	-6.5779605707e-01
 6.5771477198e-01	 1.8887591902e+00	-5.9064604200e-01
 6.4021482280e-01	 1.8947625130e+00	-5.2552616834e-01
 6.2269804947e-01	 1.9005912604e+00	-4.6150823058e-01
 6.0516691769e-01	 1.9062457873e+00	-3.9773388499e-01
 5.8762387542e-01	 1.9117264922e+00	-3.3342237855e-01
 5.7007135195e-01	 1.9170338165e+00	-2.7307381825e-01
 5.5251175704e-01	 1.9221682440e+00	-2.2057191731e-01
 5.3494748005e-01	 1.9271303001e+00	-1.7537134363e-01
 5.1738088918e-01	 1.9319205510e+00	-1.3707295089e-01
 5.0216380421e-01	 1.8750993584e+00	-3.6191554416e-01
 4.8511390912e-01	 1.8795825561e+00	-3.1533182246e-01
 4.6806630045e-01	 1.8839002172e+00	-2.7339817613e-01
 4.5102321045e-01	 1.8880530060e+00	-2.3536222451e-01
 4.3398684788e-01	 1.8920416237e+00	-2.0056008141e-01
 4.1695939728e-01	 1.8958668073e+00	-1.6841190372e-01
 3.9994301837e-01	 1.8995293291e+00	-1.3841763306e-01
 3.8293984544e-01	 1.9030299958e+00	-1.1015292797e-01
 3.6595198672e-01	 1.9063696476e+00	-8.3265282693e-02
 3.4898152382e-01	 1.9095491578e+00	-5.7470327907e-02
 3.3203051122e-01	 1.9125694313e+00	-3.2548307662e-02
 5.0368551271e-01	 1.8807814776e+00	-3.4309986024e-01
 4.8658395127e-01	 1.8852782608e+00	-2.9684798347e-01
 4.6948468317e-01	 1.8896090057e+00	-2.5534676501e-01
 4.5238994745e-01	 1.8937743788e+00	-2.1786497730e-01
 4.3530195954e-01	 1.8977750832e+00	-1.8375976227e-01
 4.1822291060e-01	 1.9016118582e+00	-1.5247213330e-01
 4.0115496691e-01	 1.9052854786e+00	-1.2352267611e-01
 3.8410026922e-01	 1.9087967533e+00	-9.6507445492e-02
 3.6706093213e-01	 1.9121465253e+00	-7.1094054133e-02
 3.5003904359e-01	 1.9153356704e+00	-4.7017948187e-02
 3.3303666429e-01	 1.9183650963e+00	-2.4078863840e-02
 5.0520722120e-01	 1.8864635969e+00	-3.2334131507e-01
 4.8805399341e-01	 1.8909739655e+00	-2.7758250249e-01
 4.7090306590e-01	 1.8953177943e+00	-2.3671157972e-01
 4.5375668445e-01	 1.8994957515e+00	-2.0001139289e-01
 4.3661707120e-01	 1.9035085426e+00	-1.6685165820e-01
 4.1948642393e-01	 1.9073569092e+00	-1.3668445446e-01
 4.0236691545e-01	 1.9110416280e+00	-1.0903992142e-01
 3.8526069299e-01	 1.9145635109e+00	-8.3522160475e-02
 3.6816987754e-01	 1.9179234031e+00	-5.9805333526e-02
 3.5109656335e-01	 1.9211221830e+00	-3.7629954453e-02
 3.3404281735e-01	 1.9241607612e+00	-1.6799366982e-02
 5.0672892970e-01	 1.8921457162e+00	-3.0268819835e-01
 4.8952403556e-01	 1.8966696702e+00	-2.5761974448e-01
 4.7232144863e-01	 1.9010265828e+00	-2.1759988722e-01
 4.5512342146e-01	 1.9052171243e+00	-1.8191857352e-01
 4.3793218286e-01	 1.9092420021e+00	-1.4994975393e-01
 4.2074993725e-01	 1.9131019601e+00	-1.2114690281e-01
 4.0357886399e-01	 1.9167977775e+00	-9.5038752124e-02
 3.8642111676e-01	 1.9203302684e+00	-7.1225235242e-02
 3.6927882296e-01	 1.9237002808e+00	-4.9373635783e-02
 3.5215408312e-01	 1.9269086956e+00	-2.9214935784e-02
 3.3504897041e-01	 1.9299564261e+00	-1.0540356364e-02
 5.0825063820e-01	 1.8978278354e+00	-2.8118854188e-01
 4.9099407771e-01	 1.9023653749e+00	-2.3704335304e-01
 4.7373983136e-01	 1.9067353713e+00	-1.9811792890e-01
 4.5649015846e-01	 1.9109384970e+00	-1.6370244962e-01
 4.3924729452e-01	 1.9149754616e+00	-1.3316687277e-01
 4.2201345058e-01	 1.9188470110e+00	-1.0595651805e-01
 4.0479081254e-01	 1.9225539270e+00	-8.1587874521e-02
 3.8758154054e-01	 1.9260970260e+00	-5.9644626297e-02
 3.7038776837e-01	 1.9294771585e+00	-3.9773891227e-02
 3.5321160289e-01	 1.9326952082e+00	-2.1682666305e-02
 3.3605512348e-01	 1.9357520911e+00	-5.1344724489e-03
 5.0977234670e-01	 1.9035099547e+00	-2.5889012916e-01
 4.9246411986e-01	 1.9080610797e+00	-2.1593626653e-01
 4.7515821409e-01	 1.9124441599e+00	-1.7837094084e-01
 4.5785689546e-01	 1.9166598698e+00	-1.4547780187e-01
 4.4056240618e-01	 1.9207089210e+00	-1.1661469811e-01
 4.2327696390e-01	 1.9245920619e+00	-9.1209362659e-02
 4.0600276108e-01	 1.9283100765e+00	-6.8755331678e-02
 3.8874196431e-01	 1.9318637836e+00	-4.8808090609e-02
 3.7149671379e-01	 1.9352540362e+00	-3.0981442325e-02
 3.5426912266e-01	 1.9384817208e+00	-1.4944090164e-02
 3.3706127654e-01	 1.9415477560e+00	-4.1642793573e-04
 5.1129405519e-01	 1.9091920740e+00	-2.3584050495e-01
 4.9393416201e-01	 1.9137567844e+00	-1.9438073393e-01
 4.7657659682e-01	 1.9181529484e+00	-1.5846317374e-01
 4.5922363246e-01	 1.9223812425e+00	-1.2735828289e-01
 4.4187751784e-01	 1.9264423805e+00	-1.0040379459e-01
 4.2454047723e-01	 1.9303371129e+00	-7.7000540294e-02
 4.0721470962e-01	 1.9340662260e+00	-5.6608516832e-02
 3.8990238809e-01	 1.9376305411e+00	-3.8743191794e-02
 3.7260565920e-01	 1.9410309139e+00	-2.2972040477e-02
 3.5532664243e-01	 1.9442682334e+00	-8.9113067702e-03
 3.3806742961e-01	 1.9473434210e+00	 3.7770206762e-03
 5.1281576369e-01	 1.9148741932e+00	-2.1208698455e-01
 4.9540420416e-01	 1.9194524891e+00	-1.7245833050e-01
 4.7799497955e-01	 1.9238617370e+00	-1.3849791251e-01
 4.6059036946e-01	 1.9281026153e+00	-1.0945643855e-01
 4.4319262950e-01	 1.9321758400e+00	-8.4643628945e-02
 4.2580399055e-01	 1.9360821638e+00	-6.3424213862e-02
 4.0842665816e-01	 1.9398223755e+00	-4.5214186560e-02
 3.9106281186e-01	 1.9433972987e+00	-2.9477306206e-02
 3.7371460462e-01	 1.9468077917e+00	-1.5721842878e-02
 3.5638416220e-01	 1.9500547460e+00	-3.4975563176e-03
 3.3907358267e-01	 1.9531390859e+00	 7.6071010025e-03
 5.1433747219e-01	 1.9205563125e+00	-1.8767666311e-01
 4.9687424631e-01	 1.9251481938e+00	-1.5024997307e-01
 4.7941336227e-01	 1.9295705255e+00	-1.1857749550e-01
 4.6195710646e-01	 1.9338239880e+00	-9.1883728906e-02
 4.4450774116e-01	 1.9379092994e+00	-6.9442590393e-02
 4.2706750388e-01	 1.9418272147e+00	-5.0573623301e-02
 4.0963860670e-01	 1.9455785249e+00	-3.4638473722e-02
 3.9222323564e-01	 1.9491640563e+00	-2.1037628922e-02
 3.7482355003e-01	 1.9525846694e+00	-9.2074094450e-03
 3.5744168197e-01	 1.9558412586e+00	 1.3827944352e-03
 3.4007973574e-01	 1.9589347509e+00	 1.1233052188e-02
 5.1585918069e-01	 1.9262384318e+00	-1.6265642461e-01
 4.9834428846e-01	 1.9308438985e+00	-1.2783593517e-01
 4.8083174500e-01	 1.9352793140e+00	-9.8803333484e-02
 4.6332384346e-01	 1.9395453607e+00	-7.4750548819e-02
 4.4582285282e-01	 1.9436427589e+00	-5.4908010786e-02
 4.2833101720e-01	 1.9475722657e+00	-3.8541103059e-02
 4.1085055524e-01	 1.9513346744e+00	-2.4946900191e-02
 3.9338365941e-01	 1.9549308138e+00	-1.3451179639e-02
 3.7593249544e-01	 1.9583615471e+00	-3.4056998073e-03
 3.5849920174e-01	 1.9616277712e+00	 5.8142661190e-03
 3.4108588880e-01	 1.9647304158e+00	 1.4812151826e-02
 5.1738088918e-01	 1.9319205510e+00	-1.3707295089e-01
 4.9981433061e-01	 1.9365396032e+00	-1.0529586191e-01
 4.8225012773e-01	 1.9409881026e+00	-7.9275928250e-02
 4.6469058047e-01	 1.9452667335e+00	-5.8166248199e-02
 4.4713796448e-01	 1.9493762184e+00	-4.1146184357e-02
 4.2959453053e-01	 1.9533173166e+00	-2.7418099265e-02
 4.1206250378e-01	 1.9570908239e+00	-1.6204389377e-02
 3.9454408318e-01	 1.9606975714e+00	-6.7448084750e-03
 3.7704144086e-01	 1.9641384248e+00	 1.7059296371e-03
 3.5955672151e-01	 1.9674142838e+00	 9.8802804561e-03
 3.4209204186e-01	 1.9705260807e+00	 1.8499742401e-02
 3.3203051122e-01	 1.9125694313e+00	-3.2548307662e-02
 3.1510097575e-01	 1.9154314044e+00	-9.0432050398e-03
 2.9819491606e-01	 1.9181360437e+00	 1.2515371583e-02
 2.8131430222e-01	 1.9206843451e+00	 3.2332044060e-02
 2.6446107525e-01	 1.9230773332e+00	 5.0625407187e-02
 2.4763714670e-01	 1.9253160607e+00	 6.7629115481e-02
 2.3084439831e-01	 1.9274016068e+00	 8.3592796192e-02
 2.1408468161e-01	 1.9293350769e+00	 9.8782801053e-02
 1.9735981762e-01	 1.9311176019e+00	 1.1348280933e-01
 1.8067159652e-01	 1.9327503367e+00	 1.2799429470e-01
 1.6402177737e-01	 1.9342344601e+00	 1.4263686835e-01
 3.3303666429e-01	 1.9183650963e+00	-2.4078863840e-02
 3.1605582719e-01	 1.9212357420e+00	-2.4991689760e-03
 2.9909853702e-01	 1.9239485771e+00	 1.7510267590e-02
 2.8216676980e-01	 1.9265046006e+00	 3.6132109276e-02
 2.6526247244e-01	 1.9289048403e+00	 5.3565092986e-02
 2.4838756230e-01	 1.9311503518e+00	 7.0025079998e-02
 2.3154392679e-01	 1.9332422177e+00	 8.5745928824e-02
 2.1473342307e-01	 1.9351815469e+00	 1.0098020295e-01
 1.9795787768e-01	 1.9369694734e+00	 1.1599972645e-01
 1.8121908620e-01	 1.9386071559e+00	 1.3109600028e-01
 1.6451881306e-01	 1.9400957766e+00	 1.4658049230e-01
 3.3404281735e-01	 1.9241607612e+00	-1.6799366982e-02
 3.1701067863e-01	 1.9270400796e+00	 2.7962855959e-03
 3.0000215798e-01	 1.9297611106e+00	 2.1260189360e-02
 2.8301923739e-01	 1.9323248562e+00	 3.8744411354e-02
 2.6606386964e-01	 1.9347323474e+00	 5.5416045055e-02
 2.4913797789e-01	 1.9369846429e+00	 7.1458307171e-02
 2.3224345527e-01	 1.9390828286e+00	 8.7071454141e-02
 2.1538216453e-01	 1.9410280168e+00	 1.0247353145e-01
 1.9855593773e-01	 1.9428213449e+00	 1.1790096899e-01
 1.8176657589e-01	 1.9444639751e+00	 1.3360903557e-01
 1.6501584875e-01	 1.9459570932e+00	 1.4987216567e-01
 3.3504897041e-01	 1.9299564261e+00	-1.0540356364e-02
 3.1796553007e-01	 1.9328444172e+00	 7.0807042715e-03
 3.0090577893e-01	 1.9355736441e+00	 2.4038930274e-02
 2.8387170497e-01	 1.9381451118e+00	 4.0447334505e-02
 2.6686526684e-01	 1.9405598545e+00	 5.6429779945e-02
 2.4988839349e-01	 1.9428189340e+00	 7.2122203777e-02
 2.3294298375e-01	 1.9449234395e+00	 8.7673660821e-02
 2.1603090599e-01	 1.9468744867e+00	 1.0324719955e-01
 1.9915399778e-01	 1.9486732165e+00	 1.1902058394e-01
 1.8231406558e-01	 1.9503207943e+00	 1.3518687435e-01
 1.6551288444e-01	 1.9518184097e+00	 1.5195488059e-01
 3.3605512348e-01	 1.9357520911e+00	-5.1344724489e-03
 3.1892038151e-01	 1.9386487548e+00	 1.0588733401e-02
 3.0180939989e-01	 1.9413861775e+00	 2.6116966493e-02
 2.8472417255e-01	 1.9439653674e+00	 4.1515905718e-02
 2.6766666404e-01	 1.9463873615e+00	 5.6854792662e-02
 2.5063880908e-01	 1.9486532251e+00	 7.2207863862e-02
 2.3364251223e-01	 1.9507640505e+00	 8.7655604047e-02
 2.1667964745e-01	 1.9527209566e+00	 1.0328583348e-01
 1.9975205784e-01	 1.9545250880e+00	 1.1919464257e-01
 1.8286155526e-01	 1.9561776136e+00	 1.3548718684e-01
 1.6600992013e-01	 1.9576797263e+00	 1.5227835532e-01
 3.3706127654e-01	 1.9415477560e+00	-4.1642793573e-04
 3.1987523295e-01	 1.9444530924e+00	 1.3552161190e-02
 3.0271302085e-01	 1.9471987110e+00	 2.7761504510e-02
 2.8557664013e-01	 1.9497856230e+00	 4.2221843118e-02
 2.6846806124e-01	 1.9522148686e+00	 5.6936600190e-02
 2.5138922468e-01	 1.9544875162e+00	 7.1904101861e-02
 2.3434204071e-01	 1.9566046614e+00	 8.7119122670e-02
 2.1732838891e-01	 1.9585674266e+00	 1.0257426841e-01
 2.0035011789e-01	 1.9603769595e+00	 1.1826120928e-01
 1.8340904495e-01	 1.9620344328e+00	 1.3417177622e-01
 1.6650695581e-01	 1.9635410428e+00	 1.5029893312e-01
 3.3806742961e-01	 1.9473434210e+00	 3.7770206762e-03
 3.2083008440e-01	 1.9502574300e+00	 1.6199958058e-02
 3.0361664181e-01	 1.9530112445e+00	 2.9236527850e-02
 2.8642910772e-01	 1.9556058786e+00	 4.2833603449e-02
 2.6926945843e-01	 1.9580423757e+00	 5.6917784243e-02
 2.5213964028e-01	 1.9603218072e+00	 7.1397485121e-02
 2.3504156919e-01	 1.9624452723e+00	 8.6164856064e-02
 2.1797713037e-01	 1.9644138965e+00	 1.0109754422e-01
 2.0094817794e-01	 1.9662288310e+00	 1.1606031096e-01
 1.8395653464e-01	 1.9678912520e+00	 1.3090651626e-01
 1.6700399150e-01	 1.9694023593e+00	 1.4547948291e-01
 3.3907358267e-01	 1.9531390859e+00	 7.6071010025e-03
 3.2178493584e-01	 1.9560617675e+00	 1.8758316277e-02
 3.0452026276e-01	 1.9588237779e+00	 3.0802842935e-02
 2.8728157530e-01	 1.9614261342e+00	 4.3616428703e-02
 2.7007085563e-01	 1.9638698827e+00	 5.7038033236e-02
 2.5289005587e-01	 1.9661560983e+00	 7.0872365834e-02
 2.3574109767e-01	 1.9682858833e+00	 8.4892260678e-02
 2.1862587183e-01	 1.9702603664e+00	 9.8840901403e-02
 2.0154623800e-01	 1.9720807025e+00	 1.1243390689e-01
 1.8450402432e-01	 1.9737480712e+00	 1.2536129011e-01
 1.6750102719e-01	 1.9752636759e+00	 1.3728930174e-01
 3.4007973574e-01	 1.9589347509e+00	 1.1233052188e-02
 3.2273978728e-01	 1.9618661051e+00	 2.1450688890e-02
 3.0542388372e-01	 1.9646363114e+00	 3.2718124125e-02
 2.8813404288e-01	 1.9672463898e+00	 4.4832391925e-02
 2.7087225283e-01	 1.9696973898e+00	 5.7534183523e-02
 2.5364047147e-01	 1.9719903894e+00	 7.0510912411e-02
 2.3644062615e-01	 1.9741264942e+00	 8.3399626291e-02
 2.1927461329e-01	 1.9761068364e+00	 9.5789776950e-02
 2.0214429805e-01	 1.9779325741e+00	 1.0722585922e-01
 1.8505151401e-01	 1.9796048904e+00	 1.1720993008e-01
 1.6799806288e-01	 1.9811249924e+00	 1.2520401891e-01
 3.4108588880e-01	 1.9647304158e+00	 1.4812151826e-02
 3.2369463872e-01	 1.9676704427e+00	 2.4497827941e-02
 3.0632750468e-01	 1.9704488449e+00	 3.5236957960e-02
 2.8898651046e-01	 1.9730666454e+00	 4.6740442197e-02
 2.7167365003e-01	 1.9755248969e+00	 5.8640259886e-02
 2.5439088706e-01	 1.9778246805e+00	 7.0493140292e-02
 2.3714015463e-01	 1.9799671051e+00	 8.1784091978e-02
 2.1992335475e-01	 1.9819533063e+00	 9.1929800383e-02
 2.0274235810e-01	 1.9837844456e+00	 1.0028190390e-01
 1.8559900370e-01	 1.9854617096e+00	 1.0613015862e-01
 1.6849509857e-01	 1.9869863090e+00	 1.0870550188e-01
 3.4209204186e-01	 1.9705260807e+00	 1.8499742401e-02
 3.2464949016e-01	 1.9734747803e+00	 2.8117822026e-02
 3.0723112564e-01	 1.9762613783e+00	 3.8610886609e-02
 2.8983897805e-01	 1.9788869010e+00	 4.9596448819e-02
 2.7247504722e-01	 1.9813524040e+00	 6.0587515320e-02
 2.5514130266e-01	 1.9836589716e+00	 7.0996942203e-02
 2.3783968311e-01	 1.9858077161e+00	 8.0141661788e-02
 2.2057209621e-01	 1.9877997762e+00	 8.7246789812e-02
 2.0334041816e-01	 1.9896363171e+00	 9.1449622152e-02
 1.8614649338e-01	 1.9913185288e+00	 9.1803530184e-02
 1.6899213426e-01	 1.9928476255e+00	 8.7281763792e-02
 1.6402177737e-01	 1.9342344601e+00	 1.4263686835e-01
 1.4741208787e-01	 1.9355711731e+00	 1.5377247937e-01
 1.3084422413e-01	 1.9367616991e+00	 1.5832789755e-01
 1.1431985042e-01	 1.9378072819e+00	 1.5741078205e-01
 9.7840599030e-02	 1.9387091858e+00	 1.5203308477e-01
 8.1408070092e-02	 1.9394686943e+00	 1.4311299772e-01
 6.5023831438e-02	 1.9400871092e+00	 1.3147693107e-01
 4.8689418487e-02	 1.9405657501e+00	 1.1786152654e-01
 3.2406334148e-02	 1.9409059533e+00	 1.0291570963e-01
 1.6176048753e-02	 1.9411090710e+00	 8.7202784205e-02
 0.0000000000e+00	 1.9411764706e+00	 7.1202572102e-02
 1.6451881306e-01	 1.9400957766e+00	 1.4658049230e-01
 1.4785879117e-01	 1.9414365403e+00	 1.5829219669e-01
 1.3124072178e-01	 1.9426306739e+00	 1.6281014387e-01
 1.1466627421e-01	 1.9436794252e+00	 1.6149882049e-01
 9.8137085694e-02	 1.9445840621e+00	 1.5562779036e-01
 8.1654761214e-02	 1.9453458721e+00	 1.4637328114e-01
 6.5220873352e-02	 1.9459661611e+00	 1.3481981039e-01
 4.8836962179e-02	 1.9464462524e+00	 1.2196185574e-01
 3.2504535160e-02	 1.9467874865e+00	 1.0870557347e-01
 1.6225067082e-02	 1.9469912197e+00	 9.5870569060e-02
 0.0000000000e+00	 1.9470588235e+00	 8.4191723024e-02
 1.6501584875e-01	 1.9459570932e+00	 1.4987216567e-01
 1.4830549447e-01	 1.9473019075e+00	 1.6203208511e-01
 1.3163721943e-01	 1.9484996488e+00	 1.6638315594e-01
 1.1501269800e-01	 1.9495515685e+00	 1.6457892242e-01
 9.8433572357e-02	 1.9504589385e+00	 1.5818786027e-01
 8.1901452335e-02	 1.9512230500e+00	 1.4869433380e-01
 6.5417915265e-02	 1.9518452129e+00	 1.3749959696e-01
 4.8984505871e-02	 1.9523267547e+00	 1.2592284400e-01
 3.2602736173e-02	 1.9526690197e+00	 1.1520231495e-01
 1.6274085412e-02	 1.9528733684e+00	 1.0649646049e-01
 0.0000000000e+00	 1.9529411765e+00	 1.0088517005e-01
 1.6551288444e-01	 1.9518184097e+00	 1.5195488059e-01
 1.4875219776e-01	 1.9531672747e+00	 1.6425920192e-01
 1.3203371708e-01	 1.9543686236e+00	 1.6823646247e-01
 1.1535912179e-01	 1.9554237117e+00	 1.6586087093e-01
 9.8730059021e-02	 1.9563338148e+00	 1.5904044028e-01
 8.2148143457e-02	 1.9571002279e+00	 1.4961704775e-01
 6.5614957179e-02	 1.9577242647e+00	 1.3936653935e-01
 4.9132049564e-02	 1.9582072569e+00	 1.2999888613e-01
 3.2700937185e-02	 1.9585505529e+00	 1.2315839868e-01
 1.6323103741e-02	 1.9587555171e+00	 1.2042400585e-01
 0.0000000000e+00	 1.9588235294e+00	 1.2330960286e-01
 1.6600992013e-01	 1.9576797263e+00	 1.5227835532e-01
 1.4919890106e-01	 1.9590326419e+00	 1.6424944598e-01
 1.3243021473e-01	 1.9602375985e+00	 1.6756937015e-01
 1.1570554558e-01	 1.9612958550e+00	 1.6456399210e-01
 9.9026545685e-02	 1.9622086911e+00	 1.5752082087e-01
 8.2394834578e-02	 1.9629774057e+00	 1.4868790695e-01
 6.5811999092e-02	 1.9636033166e+00	 1.4027278014e-01
 4.9279593256e-02	 1.9640877592e+00	 1.3444143786e-01
 3.2799138198e-02	 1.9644320860e+00	 1.3331739223e-01
 1.6372122071e-02	 1.9646376658e+00	 1.3898078374e-01
 0.0000000000e+00	 1.9647058824e+00	 1.5346756834e-01
 1.6650695581e-01	 1.9635410428e+00	 1.5029893312e-01
 1.4964560436e-01	 1.9648980091e+00	 1.6128742508e-01
 1.3282671237e-01	 1.9661065733e+00	 1.6359081716e-01
 1.1605196936e-01	 1.9671679983e+00	 1.5991701208e-01
 9.9323032349e-02	 1.9680835674e+00	 1.5297231531e-01
 8.2641525700e-02	 1.9688545836e+00	 1.4545890357e-01
 6.6009041006e-02	 1.9694823684e+00	 1.4007232744e-01
 4.9427136949e-02	 1.9699682615e+00	 1.3949905947e-01
 3.2897339211e-02	 1.9703136192e+00	 1.4641409881e-01
 1.6421140400e-02	 1.9705198145e+00	 1.6347864225e-01
 0.0000000000e+00	 1.9705882353e+00	 1.9333783094e-01
 1.6700399150e-01	 1.9694023593e+00	 1.4547948291e-01
 1.5009230765e-01	 1.9707633763e+00	 1.5466632571e-01
 1.3322321002e-01	 1.9719755481e+00	 1.5551922929e-01
 1.1639839315e-01	 1.9730401416e+00	 1.5115791677e-01
 9.9619519012e-02	 1.9739584437e+00	 1.4474613984e-01
 8.2888216821e-02	 1.9747317614e+00	 1.3948745568e-01
 6.6206082919e-02	 1.9753614203e+00	 1.3862102690e-01
 4.9574680641e-02	 1.9758487637e+00	 1.4541745874e-01
 3.2995540223e-02	 1.9761951524e+00	 1.6317468753e-01
 1.6470158730e-02	 1.9764019632e+00	 1.9521393302e-01
 0.0000000000e+00	 1.9764705882e+00	 2.4487572657e-01
 1.6750102719e-01	 1.9752636759e+00	 1.3728930174e-01
 1.5053901095e-01	 1.9766287435e+00	 1.4368778512e-01
 1.3361970767e-01	 1.9778445230e+00	 1.4258237862e-01
 1.1674481694e-01	 1.9789122848e+00	 1.3753381394e-01
 9.9916005676e-02	 1.9798333201e+00	 1.3220129604e-01
 8.3134907943e-02	 1.9806089393e+00	 1.3033632640e-01
 6.6403124833e-02	 1.9812404721e+00	 1.3577653415e-01
 4.9722224333e-02	 1.9817292660e+00	 1.5243953306e-01
 3.3093741236e-02	 1.9820766856e+00	 1.8431682145e-01
 1.6519177059e-02	 1.9822841119e+00	 2.3546774110e-01
 0.0000000000e+00	 1.9823529412e+00	 3.1001351018e-01
 1.6799806288e-01	 1.9811249924e+00	 1.2520401891e-01
 1.5098571425e-01	 1.9824941107e+00	 1.2766176571e-01
 1.3401620532e-01	 1.9837134978e+00	 1.2401724471e-01
 1.1709124073e-01	 1.9847844281e+00	 1.1830079783e-01
 1.0021249234e-01	 1.9857081964e+00	 1.1470445531e-01
 8.3381599064e-02	 1.9864861172e+00	 1.1757354457e-01
 6.6600166746e-02	 1.9871195240e+00	 1.3139828784e-01
 4.9869768026e-02	 1.9876097683e+00	 1.6080541084e-01
 3.3191942248e-02	 1.9879582188e+00	 2.1054978323e-01
 1.6568195389e-02	 1.9881662606e+00	 2.8550611069e-01
 0.0000000000e+00	 1.9882352941e+00	 3.9066069723e-01
 1.6849509857e-01	 1.9869863090e+00	 1.0870550188e-01
 1.5143241754e-01	 1.9883594779e+00	 1.0590643157e-01
 1.3441270297e-01	 1.9895824727e+00	 9.9069878279e-02
 1.1743766452e-01	 1.9906565714e+00	 9.2723816146e-02
 1.0050897900e-01	 1.9915830727e+00	 9.1629845317e-02
 8.3628290186e-02	 1.9923632950e+00	 1.0077232673e-01
 6.6797208660e-02	 1.9929985758e+00	 1.2534748304e-01
 5.0017311718e-02	 1.9934902706e+00	 1.7075249216e-01
 3.3290143261e-02	 1.9938397520e+00	 2.4257459865e-01
 1.6617213718e-02	 1.9940484093e+00	 3.4658026694e-01
 0.0000000000e+00	 1.9941176471e+00	 4.8870439908e-01
 1.6899213426e-01	 1.9928476255e+00	 8.7281763792e-02
 1.5187912084e-01	 1.9942248451e+00	 7.7748027204e-02
 1.3480920062e-01	 1.9954514475e+00	 6.6995267201e-02
 1.1778408831e-01	 1.9965287147e+00	 6.0076539426e-02
 1.0080546567e-01	 1.9974579490e+00	 6.2359138509e-02
 8.3874981307e-02	 1.9982404729e+00	 7.9511000547e-02
 6.6994250573e-02	 1.9988776277e+00	 1.1748704520e-01
 5.0164855410e-02	 1.9993707728e+00	 1.8251548870e-01
 3.3388344273e-02	 1.9997212852e+00	 2.8108415789e-01
 1.6666232048e-02	 1.9999305580e+00	 4.1992683386e-01
 0.0000000000e+00	 2.0000000000e+00	 6.0600965244e-01
