x	y	stress_yy
 1.000000000000000e+00	 0.000000000000000e+00	 3.017833994828598e+01
 9.999652789858906e-01	 8.333116024021120e-03	 3.017407265894677e+01
 9.998606425980919e-01	 1.669417213672646e-02	 3.015947778625912e+01
 9.996853864193536e-01	 2.508242770522954e-02	 3.013456843792553e+01
 9.994388138338142e-01	 3.349712528648550e-02	 3.009935316636675e+01
 9.991202364468812e-01	 4.193749065368710e-02	 3.005383594532844e+01
 9.987289745085517e-01	 5.040273283361161e-02	 2.999801615606513e+01
 9.982643573398925e-01	 5.889204415514498e-02	 2.993188858260432e+01
 9.977257237623757e-01	 6.740460030920360e-02	 2.985544341553185e+01
 9.971124225297652e-01	 7.593956042026558e-02	 2.976866626368792e+01
 9.964238127622254e-01	 8.449606712971601e-02	 2.967153817311435e+01
 1.005882352941176e+00	 0.000000000000000e+00	 2.976571417883018e+01
 1.005847427685808e+00	 8.382134353574185e-03	 2.976165569657039e+01
 1.005742175789845e+00	 1.679237314929543e-02	 2.974758541490263e+01
 1.005565888692409e+00	 2.522997139761325e-02	 2.972351435169944e+01
 1.005317865679895e+00	 3.369416719993541e-02	 2.968944862814212e+01
 1.004997414308333e+00	 4.218418177517938e-02	 2.964538944976325e+01
 1.004603850829191e+00	 5.069921949733874e-02	 2.959133309753835e+01
 1.004136500618362e+00	 5.923846794429291e-02	 2.952727092849159e+01
 1.003594698608037e+00	 6.780109795808129e-02	 2.945318938522111e+01
 1.002977789721117e+00	 7.638626371685539e-02	 2.936907001369386e+01
 1.002285129307886e+00	 8.499310281871435e-02	 2.927488948860603e+01
 1.011764705882353e+00	 0.000000000000000e+00	 2.936537136517298e+01
 1.011729576385725e+00	 8.431152683127250e-03	 2.936150566166192e+01
 1.011623708981599e+00	 1.689057416186442e-02	 2.934793591741211e+01
 1.011446390965464e+00	 2.537751508999695e-02	 2.932467120260957e+01
 1.011196917525977e+00	 3.389120911338533e-02	 2.929171537193355e+01
 1.010874592169785e+00	 4.243087289667167e-02	 2.924906705068436e+01
 1.010478727149829e+00	 5.099570616106587e-02	 2.919671963141512e+01
 1.010008643896832e+00	 5.958489173344079e-02	 2.913466128049477e+01
 1.009463673453698e+00	 6.819759560695893e-02	 2.906287495396955e+01
 1.008843156912469e+00	 7.683296701344519e-02	 2.898133842202810e+01
 1.008146445853546e+00	 8.549013850771268e-02	 2.889002430132116e+01
 1.017647058823530e+00	 0.000000000000000e+00	 2.897671904676526e+01
 1.017611725085642e+00	 8.480171012680317e-03	 2.897303066628629e+01
 1.017505242173353e+00	 1.698877517443341e-02	 2.895993836646599e+01
 1.017326893238518e+00	 2.552505878238065e-02	 2.893744940485974e+01
 1.017075969372058e+00	 3.408825102683523e-02	 2.890556552708778e+01
 1.016751770031238e+00	 4.267756401816394e-02	 2.886428295870728e+01
 1.016353603470468e+00	 5.129219282479301e-02	 2.881359240802925e+01
 1.015880787175302e+00	 5.993131552258874e-02	 2.875347907926686e+01
 1.015332648299359e+00	 6.859409325583658e-02	 2.868392269533994e+01
 1.014708524103820e+00	 7.727967031003495e-02	 2.860489752959462e+01
 1.014007762399206e+00	 8.598717419671099e-02	 2.851637244564057e+01
 1.023529411764706e+00	 0.000000000000000e+00	 2.859917899958605e+01
 1.023493873785559e+00	 8.529189342233380e-03	 2.859565304670192e+01
 1.023386775365106e+00	 1.708697618700238e-02	 2.858301603589307e+01
 1.023207395511573e+00	 2.567260247476435e-02	 2.856127354007115e+01
 1.022955021218140e+00	 3.428529294028515e-02	 2.853042534597234e+01
 1.022628947892690e+00	 4.292425513965622e-02	 2.849046545244472e+01
 1.022228479791106e+00	 5.158867948852011e-02	 2.844138208010588e+01
 1.021752930453772e+00	 6.027773931173663e-02	 2.838315769171715e+01
 1.021201623145020e+00	 6.899059090471428e-02	 2.831576902254982e+01
 1.020573891295171e+00	 7.772637360662477e-02	 2.823918711995659e+01
 1.019869078944866e+00	 8.648420988570929e-02	 2.815337739129722e+01
 1.029411764705882e+00	 0.000000000000000e+00	 2.823218682938425e+01
 1.029376022485476e+00	 8.578207671786450e-03	 2.822880895674709e+01
 1.029268308556859e+00	 1.718517719957136e-02	 2.821660599445190e+01
 1.029087897784629e+00	 2.582014616714805e-02	 2.819558195170107e+01
 1.028834073064220e+00	 3.448233485373507e-02	 2.816573479927795e+01
 1.028506125754143e+00	 4.317094626114850e-02	 2.812705647493152e+01
 1.028103356111745e+00	 5.188516615224725e-02	 2.807953290054432e+01
 1.027625073732242e+00	 6.062416310088455e-02	 2.802314401038309e+01
 1.027070597990681e+00	 6.938708855359195e-02	 2.795786378966023e+01
 1.026439258486523e+00	 7.817307690321457e-02	 2.788366032256550e+01
 1.025730395490526e+00	 8.698124557470764e-02	 2.780049584886443e+01
 1.035294117647059e+00	 0.000000000000000e+00	 2.787519157878779e+01
 1.035258171185393e+00	 8.627226001339512e-03	 2.787194797508690e+01
 1.035149841748612e+00	 1.728337821214033e-02	 2.786015871345725e+01
 1.034968400057684e+00	 2.596768985953176e-02	 2.783982635328638e+01
 1.034713124910302e+00	 3.467937676718499e-02	 2.781094718511224e+01
 1.034383303615594e+00	 4.341763738264078e-02	 2.777351124380000e+01
 1.033978232432383e+00	 5.218165281597437e-02	 2.772750233390105e+01
 1.033497217010712e+00	 6.097058689003246e-02	 2.767289806644492e+01
 1.032939572836342e+00	 6.978358620246963e-02	 2.760966990634031e+01
 1.032304625677875e+00	 7.861978019980437e-02	 2.753778322949053e+01
 1.031591712036186e+00	 8.747828126370602e-02	 2.745719738866063e+01
 1.041176470588235e+00	 0.000000000000000e+00	 2.752765534773064e+01
 1.041140319885310e+00	 8.676244330892580e-03	 2.752453272577407e+01
 1.041031374940366e+00	 1.738157922470931e-02	 2.751313768770648e+01
 1.040848902330739e+00	 2.611523355191547e-02	 2.749347144996399e+01
 1.040592176756383e+00	 3.487641868063489e-02	 2.746552875134007e+01
 1.040260481477047e+00	 4.366432850413305e-02	 2.742929787466162e+01
 1.039853108753022e+00	 5.247813947970151e-02	 2.738476068103214e+01
 1.039369360289182e+00	 6.131701067918037e-02	 2.733189265584259e+01
 1.038808547682003e+00	 7.018008385134727e-02	 2.727066296567026e+01
 1.038169992869226e+00	 7.906648349639418e-02	 2.720103452511371e+01
 1.037453028581846e+00	 8.797531695270432e-02	 2.712296407253956e+01
 1.047058823529412e+00	 0.000000000000000e+00	 2.718905292667449e+01
 1.047022468585227e+00	 8.725262660445642e-03	 2.718603851159945e+01
 1.046912908132120e+00	 1.747978023727830e-02	 2.717501906918206e+01
 1.046729404603794e+00	 2.626277724429917e-02	 2.715599457274608e+01
 1.046471228602464e+00	 3.507346059408482e-02	 2.712895833064898e+01
 1.046137659338499e+00	 4.391101962562532e-02	 2.709389701717647e+01
 1.045727985073660e+00	 5.277462614342864e-02	 2.705079071637662e+01
 1.045241503567652e+00	 6.166343446832829e-02	 2.699961297798029e+01
 1.044677522527664e+00	 7.057658150022494e-02	 2.694033088446964e+01
 1.044035360060577e+00	 7.951318679298396e-02	 2.687290512828201e+01
 1.043314345127507e+00	 8.847235264170265e-02	 2.679729009806075e+01
 1.052941176470588e+00	 0.000000000000000e+00	 2.685887144212480e+01
 1.052904617285144e+00	 8.774280989998709e-03	 2.685595295973205e+01
 1.052794441323873e+00	 1.757798124984728e-02	 2.684529131303131e+01
 1.052609906876849e+00	 2.641032093668287e-02	 2.682688532505207e+01
 1.052350280448545e+00	 3.527050250753472e-02	 2.680072698784230e+01
 1.052014837199951e+00	 4.415771074711761e-02	 2.676680150331375e+01
 1.051602861394299e+00	 5.307111280715576e-02	 2.672508733738730e+01
 1.051113646846122e+00	 6.200985825747620e-02	 2.667555628652664e+01
 1.050546497373325e+00	 7.097307914910264e-02	 2.661817355566223e+01
 1.049900727251929e+00	 7.995989008957378e-02	 2.655289784642788e+01
 1.049175661673167e+00	 8.896938833070099e-02	 2.647968145455385e+01
 1.058823529411765e+00	 0.000000000000000e+00	 2.653661001396291e+01
 1.058786765985061e+00	 8.823299319551775e-03	 2.653377567917105e+01
 1.058675974515627e+00	 1.767618226241625e-02	 2.652345483534572e+01
 1.058490409149904e+00	 2.655786462906657e-02	 2.650564524101988e+01
 1.058229332294627e+00	 3.546754442098465e-02	 2.648033767888425e+01
 1.057892015061404e+00	 4.440440186860988e-02	 2.644751600732947e+01
 1.057477737714937e+00	 5.336759947088288e-02	 2.640715722563584e+01
 1.056985790124592e+00	 6.235628204662411e-02	 2.635923155183885e+01
 1.056415472218986e+00	 7.136957679798030e-02	 2.630370251220800e+01
 1.055766094443281e+00	 8.040659338616357e-02	 2.624052704119378e+01
 1.055036978218827e+00	 8.946642401969931e-02	 2.616965559061614e+01
 9.964238127622254e-01	 8.449606712971601e-02	 2.967153817311435e+01
 9.956592643823281e-01	 9.307324669120216e-02	 2.956405729172982e+01
 9.948181585526062e-01	 1.016702090781851e-01	 2.944622226212604e+01
 9.938998881143070e-01	 1.102860481038651e-01	 2.931801059080810e+01
 9.929038580269769e-01	 1.189198415536470e-01	 2.917939871987874e+01
 9.918294858085045e-01	 1.275706513303032e-01	 2.903036215446188e+01
 9.906762019752346e-01	 1.362375236119771e-01	 2.887087559046425e+01
 9.894434504817674e-01	 1.449194890231617e-01	 2.870091304161821e+01
 9.881306891600279e-01	 1.536155628187734e-01	 2.852044796474443e+01
 9.867373901572034e-01	 1.623247450814290e-01	 2.832945338217865e+01
 9.852630403721249e-01	 1.710460209320194e-01	 2.812790200031326e+01
 1.002285129307886e+00	 8.499310281871435e-02	 2.927488948860603e+01
 1.001516083584577e+00	 9.362073637762100e-02	 2.917067240223484e+01
 1.000670030073504e+00	 1.022682691315862e-01	 2.905644695060497e+01
 9.997463580443909e-01	 1.109347895632996e-01	 2.893219025947584e+01
 9.987444689565477e-01	 1.196193700333743e-01	 2.879787779134710e+01
 9.976637769014957e-01	 1.283210669263638e-01	 2.865348346716701e+01
 9.965037090456772e-01	 1.370389208096945e-01	 2.849897978848667e+01
 9.952637060728365e-01	 1.457719566056509e-01	 2.833433795897340e+01
 9.939432226256752e-01	 1.545191837765310e-01	 2.815952800418951e+01
 9.925417277463642e-01	 1.632795965230845e-01	 2.797451888854512e+01
 9.910587053154902e-01	 1.720521739963253e-01	 2.777927862834802e+01
 1.008146445853546e+00	 8.549013850771268e-02	 2.889002430132116e+01
 1.007372902786826e+00	 9.416822606403982e-02	 2.878898040322705e+01
 1.006521901594401e+00	 1.028663291849873e-01	 2.867826074008218e+01
 1.005592827974475e+00	 1.115835310227341e-01	 2.855784165244252e+01
 1.004585079886118e+00	 1.203188985131017e-01	 2.842769726015435e+01
 1.003498067994487e+00	 1.290714825224244e-01	 2.828779957996337e+01
 1.002331216116120e+00	 1.378403180074121e-01	 2.813811864364774e+01
 1.001083961663906e+00	 1.466244241881400e-01	 2.797862261555185e+01
 9.997557560913222e-01	 1.554228047342884e-01	 2.780927790838766e+01
 9.983460653355234e-01	 1.642344479647399e-01	 2.763004929617861e+01
 9.968543702588557e-01	 1.730583270606314e-01	 2.744090002322853e+01
 1.014007762399206e+00	 8.598717419671099e-02	 2.851637244564057e+01
 1.013229721989075e+00	 9.471571575045867e-02	 2.841841546645437e+01
 1.012373773115299e+00	 1.034643892383884e-01	 2.831110291128195e+01
 1.011439297904559e+00	 1.122322724821685e-01	 2.819440993740771e+01
 1.010425690815688e+00	 1.210184269928290e-01	 2.806830896514034e+01
 1.009332359087478e+00	 1.298218981184850e-01	 2.793276979293857e+01
 1.008158723186563e+00	 1.386417152051296e-01	 2.778775971310837e+01
 1.006904217254975e+00	 1.474768917706292e-01	 2.763324362690432e+01
 1.005568289556970e+00	 1.563264256920459e-01	 2.746918415786170e+01
 1.004150402924683e+00	 1.651892994063953e-01	 2.729554176219063e+01
 1.002650035202221e+00	 1.740644801249374e-01	 2.711227483507608e+01
 1.019869078944866e+00	 8.648420988570929e-02	 2.815337739129722e+01
 1.019086541191324e+00	 9.526320543687751e-02	 2.805842527629120e+01
 1.018225644636197e+00	 1.040624492917895e-01	 2.795442611408376e+01
 1.017285767834644e+00	 1.128810139416031e-01	 2.784135348677751e+01
 1.016266301745259e+00	 1.217179554725563e-01	 2.771917776420803e+01
 1.015166650180469e+00	 1.305723137145456e-01	 2.758786621820293e+01
 1.013986230257005e+00	 1.394431124028470e-01	 2.744738313742690e+01
 1.012724472846044e+00	 1.483293593531184e-01	 2.729768994159877e+01
 1.011380823022617e+00	 1.572300466498034e-01	 2.713874529385963e+01
 1.009954740513844e+00	 1.661441508480508e-01	 2.697050521007741e+01
 1.008445700145587e+00	 1.750706331892434e-01	 2.679292316388538e+01
 1.025730395490526e+00	 8.698124557470764e-02	 2.780049584886443e+01
 1.024943360393573e+00	 9.581069512329635e-02	 2.770847063784915e+01
 1.024077516157095e+00	 1.046605093451906e-01	 2.760769597876761e+01
 1.023132237764728e+00	 1.135297554010375e-01	 2.749814349256266e+01
 1.022106912674829e+00	 1.224174839522837e-01	 2.737978115339766e+01
 1.021000941273460e+00	 1.313227293106062e-01	 2.725257340366674e+01
 1.019813737327448e+00	 1.402445096005646e-01	 2.711648126957203e+01
 1.018544728437113e+00	 1.491818269356076e-01	 2.697146247600359e+01
 1.017193356488264e+00	 1.581336676075609e-01	 2.681747155944892e+01
 1.015759078103004e+00	 1.670990022897063e-01	 2.665445997766682e+01
 1.014241365088952e+00	 1.760767862535494e-01	 2.648237621487074e+01
 1.031591712036186e+00	 8.747828126370602e-02	 2.745719738866063e+01
 1.030800179595822e+00	 9.635818480971518e-02	 2.736802509840612e+01
 1.029929387677992e+00	 1.052585693985917e-01	 2.727039074046354e+01
 1.028978707694812e+00	 1.141784968604721e-01	 2.716426359434765e+01
 1.027947523604400e+00	 1.231170124320110e-01	 2.704960889887968e+01
 1.026835232366452e+00	 1.320731449066669e-01	 2.692638796956597e+01
 1.025641244397890e+00	 1.410459067982821e-01	 2.679455831649364e+01
 1.024364984028183e+00	 1.500342945180968e-01	 2.665407376142022e+01
 1.023005889953911e+00	 1.590372885653184e-01	 2.650488455273090e+01
 1.021563415692164e+00	 1.680538537313618e-01	 2.634693747693846e+01
 1.020037030032317e+00	 1.770829393178553e-01	 2.618017596541825e+01
 1.037453028581846e+00	 8.797531695270432e-02	 2.712296407253956e+01
 1.036656998798071e+00	 9.690567449613403e-02	 2.703657458162933e+01
 1.035781259198890e+00	 1.058566294519927e-01	 2.694200087628371e+01
 1.034825177624896e+00	 1.148272383199066e-01	 2.683920951981456e+01
 1.033788134533971e+00	 1.238165409117384e-01	 2.672816268135603e+01
 1.032669523459443e+00	 1.328235605027274e-01	 2.660881825723185e+01
 1.031468751468333e+00	 1.418473039959997e-01	 2.648112999275494e+01
 1.030185239619252e+00	 1.508867621005860e-01	 2.634504760307670e+01
 1.028818423419559e+00	 1.599409095230759e-01	 2.620051689169653e+01
 1.027367753281324e+00	 1.690087051730172e-01	 2.604747986524690e+01
 1.025832694975683e+00	 1.780890923821614e-01	 2.588587484318462e+01
 1.043314345127507e+00	 8.847235264170265e-02	 2.679729009806075e+01
 1.042513818000320e+00	 9.745316418255290e-02	 2.671361703408807e+01
 1.041633130719787e+00	 1.064546895053939e-01	 2.662202875463858e+01
 1.040671647554980e+00	 1.154759797793411e-01	 2.652248873732710e+01
 1.039628745463541e+00	 1.245160693914657e-01	 2.641495575238203e+01
 1.038503814552434e+00	 1.335739760987880e-01	 2.629938398962281e+01
 1.037296258538775e+00	 1.426487011937172e-01	 2.617572318575216e+01
 1.036005495210321e+00	 1.517392296830752e-01	 2.604391875051461e+01
 1.034630956885206e+00	 1.608445304808334e-01	 2.590391189026553e+01
 1.033172090870484e+00	 1.699635566146727e-01	 2.575563972749948e+01
 1.031628359919048e+00	 1.790952454464673e-01	 2.559903541490338e+01
 1.049175661673167e+00	 8.896938833070099e-02	 2.647968145455385e+01
 1.048370637202569e+00	 9.800065386897171e-02	 2.639866208357556e+01
 1.047485002240685e+00	 1.070527495587950e-01	 2.630998829626013e+01
 1.046518117485065e+00	 1.161247212387756e-01	 2.621362012010391e+01
 1.045469356393111e+00	 1.252155978711930e-01	 2.610951260214168e+01
 1.044338105645426e+00	 1.343243916948487e-01	 2.599761594315895e+01
 1.043123765609218e+00	 1.434500983914347e-01	 2.587787563206761e+01
 1.041825750801390e+00	 1.525916972655644e-01	 2.575023257892516e+01
 1.040443490350853e+00	 1.617481514385908e-01	 2.561462324507166e+01
 1.038976428459644e+00	 1.709184080563281e-01	 2.547097976886099e+01
 1.037424024862414e+00	 1.801013985107733e-01	 2.531923008548106e+01
 1.055036978218827e+00	 8.946642401969931e-02	 2.616965559061614e+01
 1.054227456404818e+00	 9.854814355539050e-02	 2.609123070878125e+01
 1.053336873761583e+00	 1.076508096121960e-01	 2.600540464647765e+01
 1.052364587415149e+00	 1.167734626982101e-01	 2.591213362153014e+01
 1.051309967322681e+00	 1.259151263509203e-01	 2.581136863823206e+01
 1.050172396738417e+00	 1.350748072909093e-01	 2.570305563041963e+01
 1.048951272679660e+00	 1.442514955891522e-01	 2.558713560452435e+01
 1.047646006392460e+00	 1.534441648480535e-01	 2.546354478100778e+01
 1.046256023816500e+00	 1.626517723963483e-01	 2.533221473257595e+01
 1.044780766048804e+00	 1.718732594979836e-01	 2.519307251757432e+01
 1.043219689805779e+00	 1.811075515750794e-01	 2.504604080698209e+01
 9.852630403721249e-01	 1.710460209320194e-01	 2.812790200031326e+01
 9.837071418896612e-01	 1.797783607536631e-01	 2.791636978656539e+01
 9.820692124126958e-01	 1.885207204291022e-01	 2.769543309839839e+01
 9.803487856912376e-01	 1.972720415915948e-01	 2.746506344713070e+01
 9.785454119482201e-01	 2.060312518893391e-01	 2.722523024662544e+01
 9.766586583015292e-01	 2.147972652634490e-01	 2.697590087255935e+01
 9.746881091818042e-01	 2.235689822394855e-01	 2.671704071455037e+01
 9.726333667455384e-01	 2.323452902325309e-01	 2.644861322052650e+01
 9.704940512830177e-01	 2.411250638657778e-01	 2.617057993279768e+01
 9.682698016206163e-01	 2.499071653025829e-01	 2.588290051539374e+01
 9.659602755169761e-01	 2.586904445919246e-01	 2.558553277232988e+01
 9.910587053154902e-01	 1.720521739963253e-01	 2.777927862834802e+01
 9.894936544890124e-01	 1.808358805228024e-01	 2.757436444432410e+01
 9.878460901327704e-01	 1.896296658433910e-01	 2.736033500864810e+01
 9.861155432541272e-01	 1.984324653656630e-01	 2.713715816639081e+01
 9.843015614302686e-01	 2.072432004298647e-01	 2.690479954519556e+01
 9.824037092327150e-01	 2.160607785885281e-01	 2.666322261538394e+01
 9.804215686475795e-01	 2.248840938997177e-01	 2.641238874218565e+01
 9.783547394911001e-01	 2.337120272338986e-01	 2.615225722943295e+01
 9.762028398199767e-01	 2.425434465944000e-01	 2.588278535414702e+01
 9.739655063360314e-01	 2.513772074514215e-01	 2.560392839154370e+01
 9.716423947847230e-01	 2.602121530895241e-01	 2.531563963009570e+01
 9.968543702588557e-01	 1.730583270606314e-01	 2.744090002322853e+01
 9.952801670883630e-01	 1.818934002919415e-01	 2.724237287567318e+01
 9.936229678528450e-01	 1.907386112576799e-01	 2.703501360838763e+01
 9.918823008170169e-01	 1.995928891397311e-01	 2.681878702376688e+01
 9.900577109123169e-01	 2.084551489703901e-01	 2.659365556310650e+01
 9.881487601639001e-01	 2.173242919136072e-01	 2.635957936634361e+01
 9.861550281133550e-01	 2.261992055599500e-01	 2.611651632316592e+01
 9.840761122366628e-01	 2.350787642352667e-01	 2.586442211478715e+01
 9.819116283569354e-01	 2.439618293230221e-01	 2.560325024578001e+01
 9.796612110514474e-01	 2.528472496002604e-01	 2.533295206546394e+01
 9.773245140524702e-01	 2.617338615871238e-01	 2.505347677845470e+01
 1.002650035202221e+00	 1.740644801249374e-01	 2.711227483507607e+01
 1.001066679687714e+00	 1.829509200610807e-01	 2.691991526310531e+01
 9.993998455729196e-01	 1.918475566719686e-01	 2.671899986469603e+01
 9.976490583799065e-01	 2.007533129137994e-01	 2.650949101311727e+01
 9.958138603943653e-01	 2.096670975109156e-01	 2.629134855381782e+01
 9.938938110950859e-01	 2.185878052386864e-01	 2.606452986262169e+01
 9.918884875791303e-01	 2.275143172201823e-01	 2.582898989451068e+01
 9.897974849822245e-01	 2.364455012366344e-01	 2.558468122225099e+01
 9.876204168938947e-01	 2.453802120516445e-01	 2.533155406422242e+01
 9.853569157668624e-01	 2.543172917490991e-01	 2.506955630091293e+01
 9.830066333202168e-01	 2.632555700847232e-01	 2.479863347966137e+01
 1.008445700145587e+00	 1.750706331892434e-01	 2.679292316388539e+01
 1.006853192287065e+00	 1.840084398302199e-01	 2.660652291816931e+01
 1.005176723292994e+00	 1.929565020862575e-01	 2.641183556669652e+01
 1.003415815942796e+00	 2.019137366878676e-01	 2.620882165739374e+01
 1.001570009876414e+00	 2.108790460514412e-01	 2.599743902124960e+01
 9.996388620262712e-01	 2.198513185637655e-01	 2.577764282780149e+01
 9.976219470449054e-01	 2.288294288804145e-01	 2.554938563040221e+01
 9.955188577277864e-01	 2.378122382380023e-01	 2.531261740048642e+01
 9.933292054308535e-01	 2.467985947802666e-01	 2.506728555015771e+01
 9.910526204822778e-01	 2.557873338979377e-01	 2.481333494252993e+01
 9.886887525879638e-01	 2.647772785823228e-01	 2.455070788938121e+01
 1.014241365088952e+00	 1.760767862535494e-01	 2.648237621487074e+01
 1.012639704886416e+00	 1.850659595993591e-01	 2.630173794425216e+01
 1.010953601013069e+00	 1.940654475005464e-01	 2.611307299529108e+01
 1.009182573505686e+00	 2.030741604619358e-01	 2.591634068484114e+01
 1.007326159358462e+00	 2.120909945919667e-01	 2.571149740195229e+01
 1.005383912957457e+00	 2.211148318888446e-01	 2.549849665950371e+01
 1.003355406510681e+00	 2.301445405406468e-01	 2.527728913478418e+01
 1.001240230473348e+00	 2.391789752393701e-01	 2.504782269820068e+01
 9.990379939678123e-01	 2.482169775088889e-01	 2.481004242940093e+01
 9.967483251976931e-01	 2.572573760467764e-01	 2.456389062021473e+01
 9.943708718557106e-01	 2.662989870799223e-01	 2.430930676394667e+01
 1.020037030032317e+00	 1.770829393178553e-01	 2.618017596541825e+01
 1.018426217485767e+00	 1.861234793684982e-01	 2.600511291069658e+01
 1.016730478733144e+00	 1.951743929148352e-01	 2.582227460397800e+01
 1.014949331068576e+00	 2.042345842360040e-01	 2.563161971604155e+01
 1.013082308840510e+00	 2.133029431324923e-01	 2.543310375789777e+01
 1.011128963888642e+00	 2.223783452139238e-01	 2.522667912744041e+01
 1.009088865976456e+00	 2.314596522008791e-01	 2.501229514418662e+01
 1.006961603218911e+00	 2.405457122407379e-01	 2.478989807124622e+01
 1.004746782504772e+00	 2.496353602375111e-01	 2.455943112377167e+01
 1.002444029913109e+00	 2.587274181956152e-01	 2.432083446326498e+01
 1.000052991123458e+00	 2.678206955775219e-01	 2.407404517724970e+01
 1.025832694975683e+00	 1.780890923821614e-01	 2.588587484318462e+01
 1.024212730085118e+00	 1.871809991376375e-01	 2.571621053780641e+01
 1.022507356453219e+00	 1.962833383291240e-01	 2.553901271031270e+01
 1.020716088631465e+00	 2.053950080100722e-01	 2.535423996137341e+01
 1.018838458322558e+00	 2.145148916730177e-01	 2.516184747947294e+01
 1.016874014819828e+00	 2.236418585390028e-01	 2.496178708147256e+01
 1.014822325442232e+00	 2.327747638611114e-01	 2.475400724037228e+01
 1.012682975964472e+00	 2.419124492421057e-01	 2.453845309937513e+01
 1.010455571041730e+00	 2.510537429661333e-01	 2.431506647147089e+01
 1.008139734628524e+00	 2.601974603444540e-01	 2.408378582388642e+01
 1.005735110391205e+00	 2.693424040751215e-01	 2.384454624688908e+01
 1.031628359919048e+00	 1.790952454464673e-01	 2.559903541490338e+01
 1.029999242684469e+00	 1.882385189067767e-01	 2.543460339231134e+01
 1.028284234173293e+00	 1.973922837434129e-01	 2.526286919759391e+01
 1.026482846194355e+00	 2.065554317841404e-01	 2.508379192847531e+01
 1.024594607804607e+00	 2.157268402135433e-01	 2.489732699827286e+01
 1.022619065751013e+00	 2.249053718640819e-01	 2.470342616927777e+01
 1.020555784908007e+00	 2.340898755213436e-01	 2.450203757241870e+01
 1.018404348710034e+00	 2.432791862434735e-01	 2.429310571227028e+01
 1.016164359578689e+00	 2.524721256947555e-01	 2.407657145659069e+01
 1.013835439343939e+00	 2.616675024932926e-01	 2.385237200970631e+01
 1.011417229658952e+00	 2.708641125727210e-01	 2.362044086920906e+01
 1.037424024862414e+00	 1.801013985107733e-01	 2.531923008548107e+01
 1.035785755283819e+00	 1.892960386759159e-01	 2.515987359288235e+01
 1.034061111893368e+00	 1.985012291577017e-01	 2.499343522637502e+01
 1.032249603757245e+00	 2.077158555582087e-01	 2.481987513932534e+01
 1.030350757286655e+00	 2.169387887540688e-01	 2.463914950931199e+01
 1.028364116682199e+00	 2.261688851891611e-01	 2.445121056325318e+01
 1.026289244373782e+00	 2.354049871815758e-01	 2.425600658786714e+01
 1.024125721455596e+00	 2.446459232448414e-01	 2.405348192448963e+01
 1.021873148115648e+00	 2.538905084233777e-01	 2.384357694739895e+01
 1.019531144059355e+00	 2.631375446421313e-01	 2.362622802493885e+01
 1.017099348926698e+00	 2.723858210703206e-01	 2.340136746288193e+01
 1.043219689805779e+00	 1.811075515750794e-01	 2.504604080698208e+01
 1.041572267883171e+00	 1.903535584450551e-01	 2.489161252530604e+01
 1.039837989613443e+00	 1.996101745719905e-01	 2.473031095541898e+01
 1.038016361320134e+00	 2.088762793322768e-01	 2.456209785655927e+01
 1.036106906768704e+00	 2.181507372945944e-01	 2.438693070228542e+01
 1.034109167613384e+00	 2.274323985142401e-01	 2.420476269629310e+01
 1.032022703839558e+00	 2.367200988418081e-01	 2.401554277258503e+01
 1.029847094201158e+00	 2.460126602462092e-01	 2.381921557897693e+01
 1.027581936652607e+00	 2.553088911520000e-01	 2.361572144305771e+01
 1.025226848774770e+00	 2.646075867909700e-01	 2.340499631986527e+01
 1.022781468194445e+00	 2.739075295679202e-01	 2.318697172070129e+01
 9.659602755169761e-01	 2.586904445919246e-01	 2.558553277232988e+01
 9.635651500525915e-01	 2.674737400271792e-01	 2.527986749603960e+01
 9.610841220123161e-01	 2.762558785181148e-01	 2.496726883541486e+01
 9.585169082603148e-01	 2.850356759759861e-01	 2.464765080810410e+01
 9.558632461069744e-01	 2.938119377115880e-01	 2.432092419193416e+01
 9.531228936672971e-01	 3.025834588461145e-01	 2.398699652304466e+01
 9.502956302102972e-01	 3.113490247346440e-01	 2.364577208717286e+01
 9.473812564989209e-01	 3.201074114020567e-01	 2.329715190466431e+01
 9.443795951200210e-01	 3.288573859911695e-01	 2.294103370993935e+01
 9.412904908039134e-01	 3.375977072228538e-01	 2.257731192630047e+01
 9.381138107330539e-01	 3.463271258678822e-01	 2.220587763711507e+01
 9.716423947847230e-01	 2.602121530895241e-01	 2.531563963009569e+01
 9.692331803470184e-01	 2.690471149685155e-01	 2.501929923622894e+01
 9.667375580241531e-01	 2.778809130976330e-01	 2.471625413343618e+01
 9.641552430147869e-01	 2.867123564229035e-01	 2.440640306559070e+01
 9.614859710840737e-01	 2.955402432275385e-01	 2.408964051411505e+01
 9.587294989241637e-01	 3.043633615452094e-01	 2.376585668756540e+01
 9.558856045056519e-01	 3.131804895860244e-01	 2.343493750461267e+01
 9.529540874195030e-01	 3.219903961750099e-01	 2.309676457104231e+01
 9.499347692089622e-01	 3.307918412028822e-01	 2.275121515154154e+01
 9.468274936909951e-01	 3.395835760888704e-01	 2.239816213721040e+01
 9.436321272667777e-01	 3.483643442553402e-01	 2.203747400989067e+01
 9.773245140524702e-01	 2.617338615871238e-01	 2.505347677845470e+01
 9.749012106414453e-01	 2.706204899098518e-01	 2.476618792005460e+01
 9.723909940359902e-01	 2.795059476771514e-01	 2.447240970642424e+01
 9.697935777692597e-01	 2.883890368698212e-01	 2.417202684074379e+01
 9.671086960611739e-01	 2.972685487434889e-01	 2.386491879484220e+01
 9.643361041810300e-01	 3.061432642443041e-01	 2.355095978922060e+01
 9.614755788010068e-01	 3.150119544374045e-01	 2.323001876660521e+01
 9.585269183400846e-01	 3.238733809479631e-01	 2.290195935968148e+01
 9.554899432979037e-01	 3.327262964145950e-01	 2.256663985383250e+01
 9.523644965780771e-01	 3.415694449548873e-01	 2.222391314586042e+01
 9.491504438005014e-01	 3.504015626427983e-01	 2.187362669984687e+01
 9.830066333202168e-01	 2.632555700847232e-01	 2.479863347966138e+01
 9.805692409358724e-01	 2.721938648511881e-01	 2.452012724694270e+01
 9.780444300478277e-01	 2.811309822566698e-01	 2.423533437047907e+01
 9.754319125237320e-01	 2.900657173167387e-01	 2.394412673117832e+01
 9.727314210382738e-01	 2.989968542594394e-01	 2.364637006309693e+01
 9.699427094378966e-01	 3.079231669433988e-01	 2.334192392289549e+01
 9.670655530963612e-01	 3.168434192887847e-01	 2.303064165283029e+01
 9.640997492606664e-01	 3.257563657209165e-01	 2.271237033797181e+01
 9.610451173868449e-01	 3.346607516263077e-01	 2.238695075851573e+01
 9.579014994651590e-01	 3.435553138209042e-01	 2.205421733822047e+01
 9.546687603342253e-01	 3.524387810302566e-01	 2.171399809017983e+01
 9.886887525879638e-01	 2.647772785823228e-01	 2.455070788938121e+01
 9.862372712302995e-01	 2.737672397925245e-01	 2.428071962102380e+01
 9.836978660596647e-01	 2.827560168361881e-01	 2.400463543958393e+01
 9.810702472782045e-01	 2.917423977636562e-01	 2.372231560795871e+01
 9.783541460153737e-01	 3.007251597753900e-01	 2.343361337978972e+01
 9.755493146947627e-01	 3.097030696424937e-01	 2.313837495734115e+01
 9.726555273917159e-01	 3.186748841401650e-01	 2.283643944279635e+01
 9.696725801812487e-01	 3.276393504938698e-01	 2.252763878370495e+01
 9.666002914757865e-01	 3.365952068380205e-01	 2.221179771348886e+01
 9.634385023522405e-01	 3.455411826869209e-01	 2.188873368809159e+01
 9.601870768679496e-01	 3.544759994177148e-01	 2.155825682004400e+01
 9.943708718557106e-01	 2.662989870799223e-01	 2.430930676394667e+01
 9.919053015247263e-01	 2.753406147338609e-01	 2.404757586122614e+01
 9.893513020715017e-01	 2.843810514157063e-01	 2.377992843898129e+01
 9.867085820326770e-01	 2.934190782105738e-01	 2.350621433269314e+01
 9.839768709924734e-01	 3.024534652913406e-01	 2.322627555899526e+01
 9.811559199516291e-01	 3.114829723415884e-01	 2.293994626096229e+01
 9.782455016870706e-01	 3.205063489915452e-01	 2.264705264657728e+01
 9.752454111018301e-01	 3.295223352668229e-01	 2.234741292114774e+01
 9.721554655647273e-01	 3.385296620497332e-01	 2.204083721462295e+01
 9.689755052393225e-01	 3.475270515529377e-01	 2.172712750495197e+01
 9.657053934016731e-01	 3.565132178051728e-01	 2.140607753881094e+01
 1.000052991123458e+00	 2.678206955775219e-01	 2.407404517724971e+01
 9.975733318191534e-01	 2.769139896751971e-01	 2.382031492088451e+01
 9.950047380833391e-01	 2.860060859952247e-01	 2.356083682792822e+01
 9.923469167871496e-01	 2.950957586574914e-01	 2.329545148385424e+01
 9.895995959695736e-01	 3.041817708072910e-01	 2.302399089824521e+01
 9.867625252084961e-01	 3.132628750406833e-01	 2.274627843647839e+01
 9.838354759824255e-01	 3.223378138429255e-01	 2.246212874422626e+01
 9.808182420224124e-01	 3.314053200397762e-01	 2.217134766557848e+01
 9.777106396536687e-01	 3.404641172614459e-01	 2.187373215578432e+01
 9.745125081264043e-01	 3.495129204189544e-01	 2.156907018980740e+01
 9.712237099353969e-01	 3.585504361926310e-01	 2.125714066808180e+01
 1.005735110391205e+00	 2.693424040751215e-01	 2.384454624688908e+01
 1.003241362113581e+00	 2.784873646165335e-01	 2.359856361648713e+01
 1.000658174095176e+00	 2.876311205747429e-01	 2.334699173145738e+01
 9.979852515416217e-01	 2.967724391044089e-01	 2.308966309195806e+01
 9.952223209466731e-01	 3.059100763232416e-01	 2.282640091751864e+01
 9.923691304653623e-01	 3.150427777397781e-01	 2.255701906410727e+01
 9.894254502777801e-01	 3.241692786943057e-01	 2.228132193352272e+01
 9.863910729429942e-01	 3.332883048127297e-01	 2.199910437595701e+01
 9.832658137426106e-01	 3.423985724731589e-01	 2.171015158677124e+01
 9.800495110134861e-01	 3.514987892849712e-01	 2.141423899873060e+01
 9.767420264691209e-01	 3.605876545800891e-01	 2.111113217114902e+01
 1.011417229658952e+00	 2.708641125727210e-01	 2.362044086920907e+01
 1.008909392408007e+00	 2.800607395578698e-01	 2.338195636520203e+01
 1.006311610107013e+00	 2.892561551542613e-01	 2.313803168079068e+01
 1.003623586296094e+00	 2.984491195513265e-01	 2.288849238325458e+01
 1.000845045923773e+00	 3.076383818391922e-01	 2.263315410658931e+01
 9.979757357222286e-01	 3.168226804388729e-01	 2.237182245293649e+01
 9.950154245731349e-01	 3.260007435456860e-01	 2.210429288572536e+01
 9.919639038635765e-01	 3.351712895856829e-01	 2.183035061540454e+01
 9.888209878315515e-01	 3.443330276848716e-01	 2.154977047885532e+01
 9.855865139005684e-01	 3.534846581509880e-01	 2.126231681378512e+01
 9.822603430028445e-01	 3.626248729675472e-01	 2.096774332961403e+01
 1.017099348926698e+00	 2.723858210703206e-01	 2.340136746288193e+01
 1.014577422702435e+00	 2.816341144992062e-01	 2.317013493083941e+01
 1.011965046118851e+00	 2.908811897337796e-01	 2.293360236206739e+01
 1.009261921050567e+00	 3.001257999982441e-01	 2.269158953159796e+01
 1.006467770900873e+00	 3.093666873551426e-01	 2.244390568040174e+01
 1.003582340979095e+00	 3.186025831379676e-01	 2.219034940016223e+01
 1.000605398868490e+00	 3.278322083970663e-01	 2.193070850901774e+01
 9.975367347841581e-01	 3.370542743586361e-01	 2.166475991918947e+01
 9.943761619204928e-01	 3.462674828965843e-01	 2.139226949763007e+01
 9.911235167876504e-01	 3.554705270170049e-01	 2.111299192104759e+01
 9.877786595365682e-01	 3.646620913550054e-01	 2.082667052688016e+01
 1.022781468194445e+00	 2.739075295679202e-01	 2.318697172070128e+01
 1.020245452996861e+00	 2.832074894405426e-01	 2.296274817792162e+01
 1.017618482130688e+00	 2.925062243132980e-01	 2.273335637306286e+01
 1.014900255805039e+00	 3.018024804451617e-01	 2.249861141817555e+01
 1.012090495877973e+00	 3.110949928710932e-01	 2.225831734216560e+01
 1.009188946235962e+00	 3.203824858370625e-01	 2.201226695788979e+01
 1.006195373163844e+00	 3.296636732484466e-01	 2.176024171934787e+01
 1.003109565704740e+00	 3.389372591315894e-01	 2.150201156992772e+01
 9.999313360094341e-01	 3.482019381082970e-01	 2.123733478288235e+01
 9.966605196747319e-01	 3.574563958830216e-01	 2.096595779544958e+01
 9.932969760702923e-01	 3.666993097424635e-01	 2.068761503825462e+01
 9.381138107330539e-01	 3.463271258678822e-01	 2.220587763711507e+01
 9.348494448393739e-01	 3.550443852302334e-01	 2.182873338437145e+01
 9.314973060898261e-01	 3.637482216415593e-01	 2.144787512910928e+01
 9.280573307596920e-01	 3.724373649665077e-01	 2.106318072862183e+01
 9.245294786932189e-01	 3.811105391185668e-01	 2.067452692224324e+01
 9.209137335511566e-01	 3.897664625860843e-01	 2.028178931909734e+01
 9.172101030447766e-01	 3.984038489680923e-01	 1.988484238747346e+01
 9.134186191559716e-01	 4.070214075195532e-01	 1.948355944781247e+01
 9.095393383430366e-01	 4.156178437056225e-01	 1.907781267141022e+01
 9.055723417317521e-01	 4.241918597645067e-01	 1.866747308707308e+01
 9.015177352914021e-01	 4.327421552784766e-01	 1.825241059807307e+01
 9.436321272667777e-01	 3.483643442553402e-01	 2.203747400989067e+01
 9.403485592207824e-01	 3.571328816139407e-01	 2.167116701336143e+01
 9.369767020080016e-01	 3.658879170629802e-01	 2.130126467028789e+01
 9.335164915288666e-01	 3.746281729957223e-01	 2.092764179018120e+01
 9.299678873914146e-01	 3.833523658192643e-01	 2.055017146873569e+01
 9.263308731602808e-01	 3.920592064836496e-01	 2.016872504745835e+01
 9.226054565920987e-01	 4.007474010208457e-01	 1.978317207476590e+01
 9.187916698568889e-01	 4.094156510931976e-01	 1.939338027064841e+01
 9.148895697450543e-01	 4.180626545509499e-01	 1.899921549713737e+01
 9.108992378595859e-01	 4.266871059984156e-01	 1.860054173693490e+01
 9.068207807931163e-01	 4.352876973683502e-01	 1.819722108269188e+01
 9.491504438005014e-01	 3.504015626427983e-01	 2.187362669984687e+01
 9.458476736021904e-01	 3.592213779976479e-01	 2.151781442316471e+01
 9.424560979261768e-01	 3.680276124844011e-01	 2.115852929111719e+01
 9.389756522980414e-01	 3.768189810249371e-01	 2.079564155529999e+01
 9.354062960896099e-01	 3.855941925199617e-01	 2.042901913039745e+01
 9.317480127694056e-01	 3.943519503812148e-01	 2.005852752680597e+01
 9.280008101394208e-01	 4.030909530735991e-01	 1.968402978459779e+01
 9.241647205578066e-01	 4.118098946668421e-01	 1.930538641103944e+01
 9.202398011470723e-01	 4.205074653962769e-01	 1.892245532402611e+01
 9.162261339874196e-01	 4.291823522323241e-01	 1.853509180392488e+01
 9.121238262948304e-01	 4.378332394582234e-01	 1.814314845644886e+01
 9.546687603342253e-01	 3.524387810302566e-01	 2.171399809017984e+01
 9.513467879835981e-01	 3.613098743813551e-01	 2.136834813183981e+01
 9.479354938443522e-01	 3.701673079058220e-01	 2.101935140199459e+01
 9.444348130672159e-01	 3.790097890541518e-01	 2.066687212007807e+01
 9.408447047878055e-01	 3.878360192206593e-01	 2.031077151877560e+01
 9.371651523785299e-01	 3.966446942787799e-01	 1.995090775071947e+01
 9.333961636867428e-01	 4.054345051263526e-01	 1.958713579642222e+01
 9.295377712587239e-01	 4.142041382404864e-01	 1.921930737578114e+01
 9.255900325490899e-01	 4.229522762416041e-01	 1.884727086564143e+01
 9.215530301152536e-01	 4.316775984662331e-01	 1.847087122604690e+01
 9.174268717965443e-01	 4.403787815480968e-01	 1.808994993793006e+01
 9.601870768679496e-01	 3.544759994177148e-01	 2.155825682004401e+01
 9.568459023650061e-01	 3.633983707650623e-01	 2.122244657783662e+01
 9.534148897625278e-01	 3.723070033272430e-01	 2.088341900346429e+01
 9.498939738363908e-01	 3.812005970833667e-01	 2.054103084529798e+01
 9.462831134860006e-01	 3.900778459213566e-01	 2.019513518887760e+01
 9.425822919876542e-01	 3.989374381763450e-01	 1.984558133871349e+01
 9.387915172340652e-01	 4.077780571791060e-01	 1.949221470125223e+01
 9.349108219596415e-01	 4.165983818141308e-01	 1.913487667145690e+01
 9.309402639511077e-01	 4.253970870869313e-01	 1.877340452561791e+01
 9.268799262430871e-01	 4.341728447001420e-01	 1.840763132315296e+01
 9.227299172982586e-01	 4.429243236379702e-01	 1.803738582029505e+01
 9.657053934016731e-01	 3.565132178051728e-01	 2.140607753881095e+01
 9.623450167464143e-01	 3.654868671487696e-01	 2.107979388073633e+01
 9.588942856807032e-01	 3.744466987486639e-01	 2.075042545325336e+01
 9.553531346055651e-01	 3.833914051125814e-01	 2.041782012959889e+01
 9.517215221841960e-01	 3.923196726220541e-01	 2.008182141834005e+01
 9.479994315967786e-01	 4.012301820739102e-01	 1.974226832128097e+01
 9.441868707813874e-01	 4.101216092318595e-01	 1.939899519248149e+01
 9.402838726605589e-01	 4.189926253877753e-01	 1.905183160096040e+01
 9.362904953531257e-01	 4.278418979322584e-01	 1.870060219982543e+01
 9.322068223709210e-01	 4.366680909340509e-01	 1.834512660472487e+01
 9.280329627999725e-01	 4.454698657278437e-01	 1.798521928466009e+01
 9.712237099353969e-01	 3.585504361926310e-01	 2.125714066808179e+01
 9.678441311278223e-01	 3.675753635324767e-01	 2.094007960949329e+01
 9.643736815988788e-01	 3.765863941700848e-01	 2.062006924056741e+01
 9.608122953747400e-01	 3.855822131417961e-01	 2.029694718966538e+01
 9.571599308823914e-01	 3.945614993227514e-01	 1.997054599337594e+01
 9.534165712059028e-01	 4.035229259714756e-01	 1.964069293148376e+01
 9.495822243287098e-01	 4.124651612846131e-01	 1.930720986302246e+01
 9.456569233614760e-01	 4.213868689614197e-01	 1.896991306610439e+01
 9.416407267551439e-01	 4.302867087775858e-01	 1.862861308439872e+01
 9.375337184987551e-01	 4.391633371679598e-01	 1.828311458328879e+01
 9.333360083016867e-01	 4.480154078177171e-01	 1.793321621889100e+01
 9.767420264691209e-01	 3.605876545800891e-01	 2.111113217114901e+01
 9.733432455092305e-01	 3.696638599161841e-01	 2.080299855788373e+01
 9.698530775170542e-01	 3.787260895915058e-01	 2.049205376735312e+01
 9.662714561439145e-01	 3.877730211710109e-01	 2.017812384715474e+01
 9.625983395805872e-01	 3.968033260234490e-01	 1.986102900123272e+01
 9.588337108150277e-01	 4.058156698690407e-01	 1.954058340282865e+01
 9.549775778760321e-01	 4.148087133373665e-01	 1.921659500850784e+01
 9.510299740623939e-01	 4.237811125350642e-01	 1.888886537607701e+01
 9.469909581571615e-01	 4.327315196229129e-01	 1.855718948939522e+01
 9.428606146265887e-01	 4.416585834018686e-01	 1.822135559324562e+01
 9.386390538034013e-01	 4.505609499075906e-01	 1.788114504159473e+01
 9.822603430028445e-01	 3.626248729675472e-01	 2.096774332961403e+01
 9.788423598906385e-01	 3.717523562998913e-01	 2.066825052687698e+01
 9.753324734352298e-01	 3.808657850129268e-01	 2.036608713625889e+01
 9.717306169130892e-01	 3.899638292002257e-01	 2.006106632209720e+01
 9.680367482787821e-01	 3.990451527241464e-01	 1.975299462890491e+01
 9.642508504241518e-01	 4.081084137666058e-01	 1.944167177318306e+01
 9.603729314233543e-01	 4.171522653901203e-01	 1.912689043631962e+01
 9.564030247633112e-01	 4.261753561087085e-01	 1.880843606151434e+01
 9.523411895591796e-01	 4.351763304682402e-01	 1.848608665786207e+01
 9.481875107544228e-01	 4.441538296357775e-01	 1.815961261490190e+01
 9.439420993051151e-01	 4.531064919974639e-01	 1.782877653110424e+01
 9.877786595365682e-01	 3.646620913550054e-01	 2.082667052688016e+01
 9.843414742720465e-01	 3.738408526835987e-01	 2.053554011365938e+01
 9.808118693534048e-01	 3.830054804343476e-01	 2.024188194502718e+01
 9.771897776822639e-01	 3.921546372294404e-01	 1.994549503251569e+01
 9.734751569769774e-01	 4.012869794248439e-01	 1.964617096785584e+01
 9.696679900332766e-01	 4.104011576641711e-01	 1.934369369449325e+01
 9.657682849706765e-01	 4.194958174428735e-01	 1.903783928021763e+01
 9.617760754642288e-01	 4.285695996823531e-01	 1.872837569397104e+01
 9.576914209611974e-01	 4.376211413135673e-01	 1.841506259009959e+01
 9.535144068822564e-01	 4.466490758696863e-01	 1.809765110349734e+01
 9.492451448068292e-01	 4.556520340873373e-01	 1.777588365926094e+01
 9.932969760702923e-01	 3.666993097424635e-01	 2.068761503825462e+01
 9.898405886534546e-01	 3.759293490673059e-01	 2.040457650705195e+01
 9.862912652715807e-01	 3.851451758557686e-01	 2.011915508707222e+01
 9.826489384514385e-01	 3.943454452586552e-01	 1.983113440002382e+01
 9.789135656751733e-01	 4.035288061255414e-01	 1.954028982451606e+01
 9.750851296424009e-01	 4.126939015617364e-01	 1.924638824808066e+01
 9.711636385179986e-01	 4.218393694956271e-01	 1.894918782034894e+01
 9.671491261651464e-01	 4.309638432559975e-01	 1.864843771057727e+01
 9.630416523632152e-01	 4.400659521588945e-01	 1.834387787291939e+01
 9.588413030100904e-01	 4.491443221035953e-01	 1.803523882303571e+01
 9.545481903085434e-01	 4.581975761772108e-01	 1.772224142980907e+01
 9.015177352914021e-01	 4.327421552784766e-01	 1.825241059807307e+01
 8.973756499953728e-01	 4.412674277525845e-01	 1.783531047678661e+01
 8.931462419659899e-01	 4.497663732006086e-01	 1.741878237695356e+01
 8.888296926032814e-01	 4.582376867377416e-01	 1.700257311929764e+01
 8.844262086973453e-01	 4.666800631795190e-01	 1.658641779850416e+01
 8.799360225240509e-01	 4.750921976464704e-01	 1.617003986742577e+01
 8.753593919237882e-01	 4.834727861739642e-01	 1.575315126030367e+01
 8.706966003630238e-01	 4.918205263267005e-01	 1.533545255789507e+01
 8.659479569784274e-01	 5.001341178172987e-01	 1.491663319736681e+01
 8.611137966033590e-01	 5.084122631284071e-01	 1.449637172974247e+01
 8.561944797765246e-01	 5.166536681377636e-01	 1.407433612760359e+01
 9.068207807931163e-01	 4.352876973683502e-01	 1.819722108269188e+01
 9.026543302894631e-01	 4.438631185040704e-01	 1.779185873386304e+01
 8.984000433893191e-01	 4.524120577488474e-01	 1.738696594915769e+01
 8.940581025597710e-01	 4.609332025420813e-01	 1.698225290233931e+01
 8.896287158073294e-01	 4.694252400217513e-01	 1.657741703134215e+01
 8.851121167741928e-01	 4.778868576326261e-01	 1.617214313409279e+01
 8.805085648174577e-01	 4.863167437396932e-01	 1.576610350523086e+01
 8.758183450710417e-01	 4.947135882462695e-01	 1.535895811673859e+01
 8.710417684900655e-01	 5.030760832162240e-01	 1.495035484544213e+01
 8.661791718774960e-01	 5.114029234997506e-01	 1.453992975029097e+01
 8.612309178928572e-01	 5.196928073621033e-01	 1.412730740221282e+01
 9.121238262948304e-01	 4.378332394582234e-01	 1.814314845644886e+01
 9.079330105835532e-01	 4.464588092555561e-01	 1.774914959571797e+01
 9.036538448126489e-01	 4.550577422970862e-01	 1.735551046044861e+01
 8.992865125162611e-01	 4.636287183464210e-01	 1.696190775295564e+01
 8.948312229173143e-01	 4.721704168639839e-01	 1.656800454028519e+01
 8.902882110243339e-01	 4.806815176187819e-01	 1.617345035787683e+01
 8.856577377111270e-01	 4.891607013054226e-01	 1.577788135581626e+01
 8.809400897790591e-01	 4.976066501658380e-01	 1.538092049081357e+01
 8.761355800017032e-01	 5.060180486151491e-01	 1.498217776698943e+01
 8.712445471516338e-01	 5.143935838710942e-01	 1.458125052848619e+01
 8.662673560091898e-01	 5.227319465864434e-01	 1.417772380682835e+01
 9.174268717965443e-01	 4.403787815480968e-01	 1.808994993793006e+01
 9.132116908776441e-01	 4.490545000070419e-01	 1.770695048701903e+01
 9.089076462359783e-01	 4.577034268453252e-01	 1.732419528315504e+01
 9.045149224727507e-01	 4.663242341507605e-01	 1.694133069028410e+01
 9.000337300272985e-01	 4.749155937062165e-01	 1.655798864648650e+01
 8.954643052744752e-01	 4.834761776049376e-01	 1.617378677169519e+01
 8.908069106047962e-01	 4.920046588711517e-01	 1.578832851951502e+01
 8.860618344870771e-01	 5.004997120854070e-01	 1.540120337639731e+01
 8.812293915133408e-01	 5.089600140140744e-01	 1.501198711138353e+01
 8.763099224257713e-01	 5.173842442424379e-01	 1.462024207956207e+01
 8.713037941255221e-01	 5.257710858107829e-01	 1.422551758228227e+01
 9.227299172982586e-01	 4.429243236379702e-01	 1.803738582029505e+01
 9.184903711717344e-01	 4.516501907585277e-01	 1.766503158102628e+01
 9.141614476593074e-01	 4.603491113935641e-01	 1.729280217508034e+01
 9.097433324292411e-01	 4.690197499551003e-01	 1.692031671999549e+01
 9.052362371372830e-01	 4.776607705484489e-01	 1.654717922420771e+01
 9.006403995246167e-01	 4.862708375910932e-01	 1.617297869504349e+01
 8.959560834984653e-01	 4.948486164368808e-01	 1.579728929213123e+01
 8.911835791950949e-01	 5.033927740049760e-01	 1.541967052962210e+01
 8.863232030249785e-01	 5.119019794129999e-01	 1.503966753056794e+01
 8.813752976999083e-01	 5.203749046137812e-01	 1.465681133673335e+01
 8.763402322418546e-01	 5.288102250351228e-01	 1.427061927702280e+01
 9.280329627999725e-01	 4.454698657278437e-01	 1.798521928466009e+01
 9.237690514658244e-01	 4.542458815100135e-01	 1.762316561913309e+01
 9.194152490826366e-01	 4.629947959418029e-01	 1.726111510629415e+01
 9.149717423857308e-01	 4.717152657594398e-01	 1.689866266939411e+01
 9.104387442472671e-01	 4.804059473906813e-01	 1.653538754525857e+01
 9.058164937747581e-01	 4.890654975772489e-01	 1.617085338876748e+01
 9.011052563921350e-01	 4.976925740026102e-01	 1.580460842388350e+01
 8.963053239031126e-01	 5.062858359245447e-01	 1.543618564476661e+01
 8.914170145366165e-01	 5.148439448119251e-01	 1.506510307046071e+01
 8.864406729740459e-01	 5.233655649851249e-01	 1.469086405657461e+01
 8.813766703581869e-01	 5.318493642594624e-01	 1.431295766728122e+01
 9.333360083016867e-01	 4.480154078177171e-01	 1.793321621889100e+01
 9.290477317599150e-01	 4.568415722614992e-01	 1.758112773557579e+01
 9.246690505059663e-01	 4.656404804900419e-01	 1.722892009081185e+01
 9.202001523422203e-01	 4.744107815637795e-01	 1.687616702709060e+01
 9.156412513572516e-01	 4.831511242329138e-01	 1.652242612765431e+01
 9.109925880248999e-01	 4.918601575634046e-01	 1.616723891366799e+01
 9.062544292858046e-01	 5.005365315683394e-01	 1.581013098888815e+01
 9.014270686111304e-01	 5.091788978441135e-01	 1.545061223551136e+01
 8.965108260482544e-01	 5.177859102108503e-01	 1.508817706484578e+01
 8.915060482481832e-01	 5.263562253564686e-01	 1.472230472637298e+01
 8.864131084745197e-01	 5.348885034838022e-01	 1.435245967867978e+01
 9.386390538034013e-01	 4.505609499075906e-01	 1.788114504159473e+01
 9.343264120540054e-01	 4.594372630129850e-01	 1.753869528710625e+01
 9.299228519292956e-01	 4.682861650382807e-01	 1.719600502296633e+01
 9.254285622987103e-01	 4.771062973681192e-01	 1.685262978706206e+01
 9.208437584672357e-01	 4.858963010751461e-01	 1.650810858832368e+01
 9.161686822750414e-01	 4.946548175495605e-01	 1.616196399278764e+01
 9.114036021794739e-01	 5.033804891340685e-01	 1.581370225792032e+01
 9.065488133191481e-01	 5.120719597636822e-01	 1.546281351904192e+01
 9.016046375598924e-01	 5.207278756097756e-01	 1.510877203165088e+01
 8.965714235223208e-01	 5.293468857278121e-01	 1.475103647338139e+01
 8.914495465908520e-01	 5.379276427081421e-01	 1.438905030922655e+01
 9.439420993051151e-01	 4.531064919974639e-01	 1.782877653110424e+01
 9.396050923480962e-01	 4.620329537644710e-01	 1.749564768743375e+01
 9.351766533526250e-01	 4.709318495865195e-01	 1.716215951828945e+01
 9.306569722552002e-01	 4.798018131724588e-01	 1.682785229692993e+01
 9.260462655772203e-01	 4.886414779173788e-01	 1.649224949971115e+01
 9.213447765251824e-01	 4.974494775357160e-01	 1.615485787723325e+01
 9.165527750731428e-01	 5.062244466997976e-01	 1.581516757432719e+01
 9.116705580271661e-01	 5.149650216832512e-01	 1.547265230288783e+01
 9.066984490715299e-01	 5.236698410087008e-01	 1.512676957151972e+01
 9.016367987964583e-01	 5.323375460991556e-01	 1.477696097589609e+01
 8.964859847071844e-01	 5.409667819324818e-01	 1.442265255363791e+01
 9.492451448068292e-01	 4.556520340873373e-01	 1.777588365926094e+01
 9.448837726421864e-01	 4.646286445159566e-01	 1.745176624624815e+01
 9.404304547759542e-01	 4.735775341347586e-01	 1.712717475872695e+01
 9.358853822116902e-01	 4.824973289767985e-01	 1.680163711028899e+01
 9.312487726872045e-01	 4.913866547596111e-01	 1.647466425011697e+01
 9.265208707753242e-01	 5.002441375218717e-01	 1.614575021539566e+01
 9.217019479668125e-01	 5.090684042655270e-01	 1.581437223296574e+01
 9.167923027351836e-01	 5.178580836028198e-01	 1.547999087439074e+01
 9.117922605831675e-01	 5.266118064076262e-01	 1.514205026858638e+01
 9.067021740705956e-01	 5.353282064704993e-01	 1.479997837608817e+01
 9.015224228235170e-01	 5.440059211568217e-01	 1.445318732894069e+01
 9.545481903085434e-01	 4.581975761772108e-01	 1.772224142980907e+01
 9.501624529362769e-01	 4.672243352674425e-01	 1.740683401264695e+01
 9.456842561992836e-01	 4.762232186829973e-01	 1.709084334201669e+01
 9.411137921681799e-01	 4.851928447811382e-01	 1.677378784293148e+01
 9.364512797971888e-01	 4.941318316018436e-01	 1.645516890763174e+01
 9.316969650254657e-01	 5.030387975080275e-01	 1.613447092543669e+01
 9.268511208604819e-01	 5.119123618312563e-01	 1.581116136205284e+01
 9.219140474432017e-01	 5.207511455223888e-01	 1.548469089269831e+01
 9.168860720948058e-01	 5.295537718065515e-01	 1.515449359336939e+01
 9.117675493447331e-01	 5.383188668418429e-01	 1.481998719451716e+01
 9.065588609398495e-01	 5.470450603811613e-01	 1.448057340130226e+01
 8.561944797765246e-01	 5.166536681377636e-01	 1.407433612760359e+01
 8.511903927326329e-01	 5.248570427456092e-01	 1.365341127510113e+01
 8.461019473749030e-01	 5.330211015038681e-01	 1.323673149836498e+01
 8.409295812293016e-01	 5.411445642464788e-01	 1.282434657082526e+01
 8.356737573804042e-01	 5.492261567202689e-01	 1.241632684445160e+01
 8.303349643888033e-01	 5.572646112157531e-01	 1.201276338387722e+01
 8.249137161900091e-01	 5.652586671972306e-01	 1.161376811708060e+01
 8.194105519748074e-01	 5.732070719315504e-01	 1.121947400451805e+01
 8.138260360510752e-01	 5.811085811149188e-01	 1.083003522843882e+01
 8.081607576870631e-01	 5.889619594971074e-01	 1.044559110933928e+01
 8.024153309361920e-01	 5.967659815024325e-01	 1.006163712325863e+01
 8.612309178928572e-01	 5.196928073621033e-01	 1.412730740221281e+01
 8.561973950428245e-01	 5.279444371147008e-01	 1.371559419529919e+01
 8.510790176535789e-01	 5.361565197480085e-01	 1.330818862706460e+01
 8.458762258247682e-01	 5.443277675655758e-01	 1.290516192675121e+01
 8.405894853649952e-01	 5.524568988186235e-01	 1.250660791227650e+01
 8.352192877087372e-01	 5.605426383405517e-01	 1.211264308042829e+01
 8.297661498146561e-01	 5.685837181807435e-01	 1.172340671178621e+01
 8.242306140452472e-01	 5.765788782370301e-01	 1.133906099244066e+01
 8.186132480278462e-01	 5.845268668861830e-01	 1.095979115437823e+01
 8.129146444969866e-01	 5.924264416117961e-01	 1.058455514799691e+01
 8.071354211181696e-01	 6.002763696289177e-01	 1.020739524294946e+01
 8.662673560091898e-01	 5.227319465864434e-01	 1.417772380682834e+01
 8.612043973530168e-01	 5.310318314837928e-01	 1.377494851982851e+01
 8.560560879322547e-01	 5.392919379921489e-01	 1.337660607474292e+01
 8.508228704202346e-01	 5.475109708846726e-01	 1.298278653932045e+01
 8.455052133495855e-01	 5.556876409169780e-01	 1.259360441167695e+01
 8.401036110286717e-01	 5.638206654653501e-01	 1.220919866836020e+01
 8.346185834393030e-01	 5.719087691642567e-01	 1.182973282559854e+01
 8.290506761156874e-01	 5.799506845425100e-01	 1.145539501594346e+01
 8.234004600046172e-01	 5.879451526574474e-01	 1.108639808236065e+01
 8.176685313069106e-01	 5.958909237264849e-01	 1.071866433815585e+01
 8.118555113001471e-01	 6.037867577554025e-01	 1.034822879539709e+01
 8.713037941255221e-01	 5.257710858107829e-01	 1.422551758228227e+01
 8.662113996632089e-01	 5.341192258528847e-01	 1.383143021698107e+01
 8.610331582109307e-01	 5.424273562362892e-01	 1.344196125221931e+01
 8.557695150157008e-01	 5.506941742037695e-01	 1.305721703060449e+01
 8.504209413341762e-01	 5.589183830153324e-01	 1.267732999986794e+01
 8.449879343486058e-01	 5.670986925901489e-01	 1.230245872055836e+01
 8.394710170639502e-01	 5.752338201477699e-01	 1.193278788562813e+01
 8.338707381861276e-01	 5.833224908479897e-01	 1.156852835429943e+01
 8.281876719813882e-01	 5.913634384287116e-01	 1.120914807446036e+01
 8.224224181168343e-01	 5.993554058411737e-01	 1.084781293018910e+01
 8.165756014821247e-01	 6.072971458818873e-01	 1.048403449191585e+01
 8.763402322418546e-01	 5.288102250351228e-01	 1.427061927702279e+01
 8.712184019734004e-01	 5.372066202219765e-01	 1.388499296952072e+01
 8.660102284896067e-01	 5.455627744804298e-01	 1.350422875022290e+01
 8.607161596111673e-01	 5.538773775228664e-01	 1.312844672563823e+01
 8.553366693187666e-01	 5.621491251136870e-01	 1.275779461669364e+01
 8.498722576685397e-01	 5.703767197149472e-01	 1.239244772774763e+01
 8.443234506885974e-01	 5.785588711312829e-01	 1.203260892648229e+01
 8.386908002565676e-01	 5.866942971534691e-01	 1.167850863722233e+01
 8.329748839581592e-01	 5.947817241999755e-01	 1.132693334109095e+01
 8.271763049267584e-01	 6.028198879558626e-01	 1.097189238789362e+01
 8.212956916641023e-01	 6.108075340083722e-01	 1.061470621248397e+01
 8.813766703581869e-01	 5.318493642594624e-01	 1.431295766728122e+01
 8.762254042835925e-01	 5.402940145910681e-01	 1.393558810923920e+01
 8.709872987682826e-01	 5.486981927245701e-01	 1.356338028675704e+01
 8.656628042066341e-01	 5.570605808419635e-01	 1.319646561105253e+01
 8.602523973033573e-01	 5.653798672120415e-01	 1.283500445301075e+01
 8.547565809884740e-01	 5.736547468397459e-01	 1.247918607515994e+01
 8.491758843132443e-01	 5.818839221147961e-01	 1.212922857377386e+01
 8.435108623270074e-01	 5.900661034589488e-01	 1.178509107316719e+01
 8.377620959349303e-01	 5.982000099712398e-01	 1.143963203070198e+01
 8.319301917366823e-01	 6.062843700705514e-01	 1.109079150748839e+01
 8.260157818460798e-01	 6.143179221348570e-01	 1.074013512739507e+01
 8.864131084745197e-01	 5.348885034838022e-01	 1.435245967867978e+01
 8.812324065937844e-01	 5.433814089601601e-01	 1.398316455242949e+01
 8.759643690469583e-01	 5.518336109687106e-01	 1.361938465491663e+01
 8.706094488021003e-01	 5.602437841610602e-01	 1.326126029374093e+01
 8.651681252879480e-01	 5.686106093103961e-01	 1.290896191875134e+01
 8.596409043084080e-01	 5.769327739645443e-01	 1.256269001856677e+01
 8.540283179378915e-01	 5.852089730983092e-01	 1.222267502674160e+01
 8.483309243974478e-01	 5.934379097644287e-01	 1.188678957460082e+01
 8.425493079117012e-01	 6.016182957425040e-01	 1.154712623447918e+01
 8.366840785466063e-01	 6.097488521852403e-01	 1.120439653521954e+01
 8.307358720280574e-01	 6.178283102613421e-01	 1.086020981744622e+01
 8.914495465908520e-01	 5.379276427081421e-01	 1.438905030922656e+01
 8.862394089039765e-01	 5.464688033292519e-01	 1.402766873624601e+01
 8.809414393256342e-01	 5.549690292128510e-01	 1.367220767114039e+01
 8.755560933975671e-01	 5.634269874801573e-01	 1.332281395956739e+01
 8.700838532725382e-01	 5.718413514087506e-01	 1.297966561067628e+01
 8.645252276283423e-01	 5.802108010893430e-01	 1.264297165970656e+01
 8.588807515625386e-01	 5.885340240818222e-01	 1.231296374752441e+01
 8.531509864678875e-01	 5.968097160699082e-01	 1.198327974398480e+01
 8.473365198884723e-01	 6.050365815137683e-01	 1.164929568578924e+01
 8.414379653565304e-01	 6.132133342999292e-01	 1.131259128363247e+01
 8.354559622100349e-01	 6.213386983878267e-01	 1.097481639271979e+01
 8.964859847071844e-01	 5.409667819324818e-01	 1.442265255363791e+01
 8.912464112141685e-01	 5.495561976983437e-01	 1.406904455591199e+01
 8.859185096043104e-01	 5.581044474569913e-01	 1.372181212388302e+01
 8.805027379930332e-01	 5.666101907992542e-01	 1.338110633210844e+01
 8.749995812571287e-01	 5.750720935071051e-01	 1.304711027983054e+01
 8.694095509482763e-01	 5.834888282141416e-01	 1.272003892112678e+01
 8.637331851871860e-01	 5.918590750653355e-01	 1.239888827256802e+01
 8.579710485383272e-01	 6.001815223753880e-01	 1.207443326635259e+01
 8.521237318652435e-01	 6.084548672850325e-01	 1.174601787147904e+01
 8.461918521664539e-01	 6.166778164146183e-01	 1.141525724656275e+01
 8.401760523920125e-01	 6.248490865143117e-01	 1.108383861001457e+01
 9.015224228235170e-01	 5.440059211568217e-01	 1.445318732894068e+01
 8.962534135243603e-01	 5.526435920674355e-01	 1.410723330274331e+01
 8.908955798829863e-01	 5.612398657011317e-01	 1.376815772268652e+01
 8.854493825884997e-01	 5.697933941183511e-01	 1.343611363143188e+01
 8.799153092417197e-01	 5.783028356054596e-01	 1.311128679871440e+01
 8.742938742682107e-01	 5.867668553389400e-01	 1.279389552046623e+01
 8.685856188118327e-01	 5.951841260488485e-01	 1.247948106699412e+01
 8.627911106087676e-01	 6.035533286808678e-01	 1.216011979673554e+01
 8.569109438420145e-01	 6.118731530562966e-01	 1.183716814205076e+01
 8.509457389763779e-01	 6.201422985293071e-01	 1.151227371289417e+01
 8.448961425739900e-01	 6.283594746407964e-01	 1.118715798897954e+01
 9.065588609398495e-01	 5.470450603811613e-01	 1.448057340130226e+01
 9.012604158345525e-01	 5.557309864365274e-01	 1.414217360295624e+01
 8.958726501616618e-01	 5.643752839452721e-01	 1.381120104763945e+01
 8.903960271839662e-01	 5.729765974374479e-01	 1.348780853290750e+01
 8.848310372263102e-01	 5.815335777038140e-01	 1.317218212817918e+01
 8.791781975881447e-01	 5.900448824637387e-01	 1.286420673350716e+01
 8.734380524364798e-01	 5.985091770323616e-01	 1.255460249971664e+01
 8.676111726792075e-01	 6.069251349863474e-01	 1.224020706456715e+01
 8.616981558187857e-01	 6.152914388275611e-01	 1.192261982075233e+01
 8.556996257863021e-01	 6.236067806439960e-01	 1.160351787913398e+01
 8.496162327559678e-01	 6.318698627672816e-01	 1.128465392699979e+01
 8.024153309361920e-01	 5.967659815024325e-01	 1.006163712325863e+01
 7.965903944434305e-01	 6.045194318468678e-01	 9.677811275580403e+00
 7.906866112333414e-01	 6.122211061506577e-01	 9.297107682098217e+00
 7.847046684799184e-01	 6.198698115457967e-01	 8.920481213159707e+00
 7.786452772583505e-01	 6.274643672777495e-01	 8.548906753594379e+00
 7.725091722788829e-01	 6.350036053007853e-01	 8.183377520642313e+00
 7.662971116029632e-01	 6.424863708663054e-01	 7.824903302777178e+00
 7.600098763418891e-01	 6.499115231035582e-01	 7.474508623557417e+00
 7.536482703381961e-01	 6.572779355921250e-01	 7.133230835122978e+00
 7.472131198300490e-01	 6.645844969255942e-01	 6.802118146413219e+00
 7.407052730989230e-01	 6.718301112658245e-01	 6.482227591616354e+00
 8.071354211181696e-01	 6.002763696289177e-01	 1.020739524294946e+01
 8.012762202930975e-01	 6.080754285047906e-01	 9.830405897536197e+00
 7.953377089464786e-01	 6.158224067750733e-01	 9.456380919087426e+00
 7.893205782945062e-01	 6.235161045548899e-01	 9.086262453002783e+00
 7.832255435951644e-01	 6.311553341440891e-01	 8.721012069296977e+00
 7.770533438805232e-01	 6.387389206260838e-01	 8.361609084318859e+00
 7.708047416712160e-01	 6.462657024596369e-01	 8.009048802065625e+00
 7.644805226733122e-01	 6.537345320629909e-01	 7.664340679269034e+00
 7.580814954578328e-01	 6.611442763897256e-01	 7.328506418916217e+00
 7.516084911231671e-01	 6.684938174957445e-01	 7.002577997318794e+00
 7.450623629406814e-01	 6.757820530967998e-01	 6.687595630347579e+00
 8.118555113001471e-01	 6.037867577554025e-01	 1.034822879539708e+01
 8.059620461427648e-01	 6.116314251627135e-01	 9.978018115010109e+00
 7.999888066596161e-01	 6.194237073994890e-01	 9.610603771230373e+00
 7.939364881090938e-01	 6.271623975639825e-01	 9.246916276898618e+00
 7.878058099319781e-01	 6.348463010104292e-01	 8.887904998003382e+00
 7.815975154821638e-01	 6.424742359513825e-01	 8.534536477748460e+00
 7.753123717394685e-01	 6.500450340529675e-01	 8.187792678818134e+00
 7.689511690047347e-01	 6.575575410224233e-01	 7.848669148046161e+00
 7.625147205774689e-01	 6.650106171873266e-01	 7.518173108192113e+00
 7.560038624162850e-01	 6.724031380658954e-01	 7.197321482027355e+00
 7.494194527824398e-01	 6.797339949277754e-01	 6.887138854385436e+00
 8.165756014821247e-01	 6.072971458818873e-01	 1.048403449191585e+01
 8.106478719924322e-01	 6.151874218206361e-01	 1.012054625660384e+01
 8.046399043727530e-01	 6.230250080239045e-01	 9.759676389515596e+00
 7.985523979236814e-01	 6.308086905730754e-01	 9.402344844269571e+00
 7.923860762687919e-01	 6.385372678767688e-01	 9.049489874938134e+00
 7.861416870838046e-01	 6.462095512766813e-01	 8.702066361039380e+00
 7.798200018077215e-01	 6.538243656462995e-01	 8.361044049218913e+00
 7.734218153361574e-01	 6.613805499818559e-01	 8.027405715853655e+00
 7.669479456971054e-01	 6.688769579849274e-01	 7.702145255343328e+00
 7.603992337094028e-01	 6.763124586360457e-01	 7.386265699347006e+00
 7.537765426241981e-01	 6.836859367587508e-01	 7.080777172714626e+00
 8.212956916641023e-01	 6.108075340083722e-01	 1.061470621248397e+01
 8.153336978420994e-01	 6.187434184785591e-01	 1.025788579221635e+01
 8.092910020858906e-01	 6.266263086483201e-01	 9.903496032017928e+00
 8.031683077382695e-01	 6.344549835821685e-01	 9.552447380904793e+00
 7.969663426056057e-01	 6.422282347431086e-01	 9.205668054818165e+00
 7.906858586854446e-01	 6.499448666019800e-01	 8.864102361132739e+00
 7.843276318759740e-01	 6.576036972396302e-01	 8.528708938226535e+00
 7.778924616675806e-01	 6.652035589412889e-01	 8.200458914386283e+00
 7.713811708167418e-01	 6.727432987825279e-01	 7.880333990867762e+00
 7.647946050025209e-01	 6.802217792061964e-01	 7.569324454436835e+00
 7.581336324659561e-01	 6.876378785897259e-01	 7.268427125229136e+00
 8.260157818460798e-01	 6.143179221348570e-01	 1.074013512739507e+01
 8.200195236917668e-01	 6.222994151364816e-01	 1.038992945669725e+01
 8.139420997990279e-01	 6.302276092727358e-01	 1.004195718959098e+01
 8.077842175528571e-01	 6.381012765912610e-01	 9.697120306716528e+00
 8.015466089424194e-01	 6.459192016094479e-01	 9.356338041687698e+00
 7.952300302870853e-01	 6.536801819272791e-01	 9.020545203716289e+00
 7.888352619442266e-01	 6.613830288329615e-01	 8.690690413558112e+00
 7.823631079990035e-01	 6.690265679007216e-01	 8.367734257092845e+00
 7.758143959363782e-01	 6.766096395801288e-01	 8.052647361411248e+00
 7.691899762956386e-01	 6.841310997763466e-01	 7.746408398814847e+00
 7.624907223077148e-01	 6.915898204207015e-01	 7.450002024655839e+00
 8.307358720280574e-01	 6.178283102613421e-01	 1.086020981744622e+01
 8.247053495414338e-01	 6.258554117944042e-01	 1.051656737198359e+01
 8.185931975121652e-01	 6.338289098971516e-01	 1.017495170998472e+01
 8.124001273674448e-01	 6.417475696003544e-01	 9.836257361862092e+00
 8.061268752792335e-01	 6.496101684757879e-01	 9.501395617050193e+00
 7.997742018887256e-01	 6.574154972525774e-01	 9.171292843366894e+00
 7.933428920124793e-01	 6.651623604262926e-01	 8.846888717831202e+00
 7.868337543304260e-01	 6.728495768601543e-01	 8.529134373294935e+00
 7.802476210560148e-01	 6.804759803777296e-01	 8.218990465823776e+00
 7.735853475887566e-01	 6.880404203464975e-01	 7.917425168310024e+00
 7.668478121494733e-01	 6.955417622516769e-01	 7.625412096341536e+00
 8.354559622100349e-01	 6.213386983878267e-01	 1.097481639271979e+01
 8.293911753911009e-01	 6.294114084523273e-01	 1.063768716777674e+01
 8.232442952253027e-01	 6.374302105215672e-01	 1.030236892044880e+01
 8.170160371820328e-01	 6.453938626094470e-01	 9.969749731287441e+00
 8.107071416160472e-01	 6.533011353421275e-01	 9.640733966363712e+00
 8.043183734903661e-01	 6.611508125778761e-01	 9.316240591994399e+00
 7.978505220807321e-01	 6.689416920196239e-01	 8.997201398938230e+00
 7.913044006618490e-01	 6.766725858195869e-01	 8.684559140467508e+00
 7.846808461756513e-01	 6.843423211753301e-01	 8.379265589311002e+00
 7.779807188818747e-01	 6.919497409166480e-01	 8.082279519035930e+00
 7.712049019912315e-01	 6.994937040826525e-01	 7.794564615994686e+00
 8.401760523920125e-01	 6.248490865143117e-01	 1.108383861001457e+01
 8.340770012407686e-01	 6.329674051102500e-01	 1.075317410081855e+01
 8.278953929384398e-01	 6.410315111459829e-01	 1.042409574887809e+01
 8.216319469966205e-01	 6.490401556185399e-01	 1.009748616776149e+01
 8.152874079528609e-01	 6.569921022084670e-01	 9.774243803965390e+00
 8.088625450920067e-01	 6.648861279031750e-01	 9.455281245648489e+00
 8.023581521489849e-01	 6.727210236129550e-01	 9.141523438722182e+00
 7.957750469932717e-01	 6.804955947790194e-01	 8.833905814755839e+00
 7.891140712952873e-01	 6.882086619729307e-01	 8.533372335754247e+00
 7.823760901749925e-01	 6.958590614867984e-01	 8.240873461467402e+00
 7.755619918329902e-01	 7.034456459136280e-01	 7.957364045459207e+00
 8.448961425739900e-01	 6.283594746407964e-01	 1.118715798897953e+01
 8.387628270904354e-01	 6.365234017681727e-01	 1.086291117282229e+01
 8.325464906515770e-01	 6.446328117703983e-01	 1.054001684356359e+01
 8.262478568112080e-01	 6.526864486276328e-01	 1.021935311345715e+01
 8.198676742896750e-01	 6.606830690748068e-01	 9.901813496485884e+00
 8.134067166936469e-01	 6.686214432284736e-01	 9.588305209758454e+00
 8.068657822172375e-01	 6.765003552062864e-01	 9.279747380021778e+00
 8.002456933246950e-01	 6.843186037384523e-01	 8.977069159797114e+00
 7.935472964149241e-01	 6.920750027705315e-01	 8.681207758272175e+00
 7.867714614681104e-01	 6.997683820569489e-01	 8.393106392692770e+00
 7.799190816747482e-01	 7.073975877446034e-01	 8.113712166599091e+00
 8.496162327559678e-01	 6.318698627672816e-01	 1.128465392699979e+01
 8.434486529401027e-01	 6.400793984260955e-01	 1.096677924710842e+01
 8.371975883647145e-01	 6.482341123948141e-01	 1.065001469159737e+01
 8.308637666257958e-01	 6.563327416367258e-01	 1.033523482013450e+01
 8.244479406264884e-01	 6.643740359411465e-01	 1.002332918481050e+01
 8.179508882952879e-01	 6.723567585537725e-01	 9.715200622862927e+00
 8.113734122854902e-01	 6.802796867996175e-01	 9.411763452148417e+00
 8.047163396561177e-01	 6.881416126978849e-01	 9.113941573915699e+00
 7.979805215345602e-01	 6.959413435681322e-01	 8.822666488090993e+00
 7.911668327612282e-01	 7.036777026270995e-01	 8.538875226910934e+00
 7.842761715165067e-01	 7.113495295755786e-01	 8.263508213365323e+00
 7.407052730989230e-01	 6.718301112658245e-01	 6.482227591616354e+00
 7.341256001008850e-01	 6.790136988872288e-01	 6.169337322974682e+00
 7.274749920818037e-01	 6.861341967105125e-01	 5.859244795185905e+00
 7.207543611768508e-01	 6.931905588253130e-01	 5.553039727078440e+00
 7.139646399946602e-01	 7.001817570012057e-01	 5.251807994331775e+00
 7.071067811865478e-01	 7.071067811865475e-01	 4.956629547909866e+00
 7.001817570012058e-01	 7.139646399946602e-01	 4.668576322268032e+00
 6.931905588253133e-01	 7.207543611768505e-01	 4.388710140864408e+00
 6.861341967105127e-01	 7.274749920818032e-01	 4.118080626689135e+00
 6.790136988872291e-01	 7.341256001008846e-01	 3.857723125660798e+00
 6.718301112658244e-01	 7.407052730989231e-01	 3.608656650839619e+00
 7.450623629406814e-01	 6.757820530967998e-01	 6.687595630347579e+00
 7.384439859838312e-01	 6.830078971159773e-01	 6.379266728752257e+00
 7.317542567411081e-01	 6.901702802205739e-01	 6.073345928033625e+00
 7.249940927131855e-01	 6.972681503478152e-01	 5.770947928364130e+00
 7.181644319946291e-01	 7.043004732188597e-01	 5.473184011589313e+00
 7.112662328405862e-01	 7.112662328405860e-01	 5.181159893475821e+00
 7.043004732188599e-01	 7.181644319946289e-01	 4.895973563941987e+00
 6.972681503478152e-01	 7.249940927131850e-01	 4.618713123071577e+00
 6.901702802205744e-01	 7.317542567411079e-01	 4.350454620888520e+00
 6.830078971159773e-01	 7.384439859838307e-01	 4.092259909025181e+00
 6.757820530967997e-01	 7.450623629406815e-01	 3.845174512513532e+00
 7.494194527824398e-01	 6.797339949277754e-01	 6.887138854385436e+00
 7.427623718667775e-01	 6.870020953447252e-01	 6.583270993973879e+00
 7.360335214004130e-01	 6.942063637306364e-01	 6.281436895035724e+00
 7.292338242495197e-01	 7.013457418703168e-01	 5.982774526620119e+00
 7.223642239945974e-01	 7.084191894365136e-01	 5.688418835466166e+00
 7.154256844946248e-01	 7.154256844946246e-01	 5.399499533417575e+00
 7.084191894365138e-01	 7.223642239945971e-01	 5.117138871017080e+00
 7.013457418703170e-01	 7.292338242495195e-01	 4.842449405338483e+00
 6.942063637306365e-01	 7.360335214004129e-01	 4.576531770302775e+00
 6.870020953447254e-01	 7.427623718667773e-01	 4.320472457904408e+00
 6.797339949277754e-01	 7.494194527824399e-01	 4.075341618858497e+00
 7.537765426241981e-01	 6.836859367587508e-01	 7.080777172714626e+00
 7.470807577497238e-01	 6.909962935734738e-01	 6.781272594023822e+00
 7.403127860597174e-01	 6.982424472406978e-01	 6.483442220366738e+00
 7.334735557858538e-01	 7.054233333928187e-01	 6.188445612461025e+00
 7.265640159945663e-01	 7.125379056541681e-01	 5.897439676735948e+00
 7.195851361486633e-01	 7.195851361486633e-01	 5.611576389218002e+00
 7.125379056541685e-01	 7.265640159945661e-01	 5.332000503769102e+00
 7.054233333928188e-01	 7.334735557858537e-01	 5.059847252991398e+00
 6.982424472406983e-01	 7.403127860597176e-01	 4.796240050334128e+00
 6.909962935734741e-01	 7.470807577497236e-01	 4.542288202093006e+00
 6.836859367587508e-01	 7.537765426241981e-01	 4.299084638130020e+00
 7.581336324659561e-01	 6.876378785897259e-01	 7.268427125229136e+00
 7.513991436326704e-01	 6.949904918022223e-01	 6.973190563248084e+00
 7.445920507190222e-01	 7.022785307507595e-01	 6.679282925123834e+00
 7.377132873221885e-01	 7.095009249153206e-01	 6.387883720635812e+00
 7.307638079945348e-01	 7.166566218718224e-01	 6.100170146113409e+00
 7.237445878027019e-01	 7.237445878027015e-01	 5.817314746045019e+00
 7.166566218718220e-01	 7.307638079945343e-01	 5.540483057185247e+00
 7.095009249153208e-01	 7.377132873221881e-01	 5.270831243739148e+00
 7.022785307507600e-01	 7.445920507190220e-01	 5.009503732432019e+00
 6.949904918022226e-01	 7.513991436326700e-01	 4.757630856452291e+00
 6.876378785897259e-01	 7.581336324659562e-01	 4.516326517388110e+00
 7.624907223077148e-01	 6.915898204207015e-01	 7.450002024655839e+00
 7.557175295156164e-01	 6.989846900309707e-01	 7.158940638526786e+00
 7.488713153783271e-01	 7.063146142608214e-01	 6.868876672114069e+00
 7.419530188585226e-01	 7.135785164378221e-01	 6.581007975611955e+00
 7.349635999945032e-01	 7.207753380894764e-01	 6.296530400236903e+00
 7.279040394567399e-01	 7.279040394567398e-01	 6.016635398761283e+00
 7.207753380894765e-01	 7.349635999945029e-01	 5.742507606660793e+00
 7.135785164378224e-01	 7.419530188585226e-01	 5.475322412721711e+00
 7.063146142608218e-01	 7.488713153783270e-01	 5.216243528197291e+00
 6.989846900309705e-01	 7.557175295156165e-01	 4.966420563794598e+00
 6.915898204207015e-01	 7.624907223077150e-01	 4.726986623908026e+00
 7.668478121494733e-01	 6.955417622516769e-01	 7.625412096341536e+00
 7.600359153985627e-01	 7.029788882597189e-01	 7.338435400650037e+00
 7.531505800376320e-01	 7.103506977708837e-01	 7.052137908386989e+00
 7.461927503948574e-01	 7.176561079603243e-01	 6.767734234859577e+00
 7.391633919944717e-01	 7.248940543071306e-01	 6.486437285322364e+00
 7.320634911107788e-01	 7.320634911107786e-01	 6.209455795587553e+00
 7.248940543071307e-01	 7.391633919944718e-01	 5.937991851326988e+00
 7.176561079603244e-01	 7.461927503948570e-01	 5.673238395193519e+00
 7.103506977708839e-01	 7.531505800376318e-01	 5.416376731125008e+00
 7.029788882597193e-01	 7.600359153985629e-01	 5.168574035413471e+00
 6.955417622516771e-01	 7.668478121494733e-01	 4.930980884257982e+00
 7.712049019912315e-01	 6.994937040826525e-01	 7.794564615994686e+00
 7.643543012815094e-01	 7.069730864884677e-01	 7.511584413576782e+00
 7.574298446969367e-01	 7.143867812809452e-01	 7.228978005600608e+00
 7.504324819311915e-01	 7.217336994828260e-01	 6.947975229929241e+00
 7.433631839944403e-01	 7.290127705247845e-01	 6.669804478579303e+00
 7.362229427648173e-01	 7.362229427648168e-01	 6.395690179502681e+00
 7.290127705247847e-01	 7.433631839944403e-01	 6.126850255109626e+00
 7.217336994828264e-01	 7.504324819311914e-01	 5.864493566930912e+00
 7.143867812809455e-01	 7.574298446969364e-01	 5.609817356076301e+00
 7.069730864884677e-01	 7.643543012815092e-01	 5.364004689360321e+00
 6.994937040826525e-01	 7.712049019912315e-01	 5.128221921134813e+00
 7.755619918329902e-01	 7.034456459136280e-01	 7.957364045459207e+00
 7.686726871644558e-01	 7.109672847172160e-01	 7.678294361668516e+00
 7.617091093562411e-01	 7.184228647910071e-01	 7.399305398306994e+00
 7.546722134675259e-01	 7.258112910053278e-01	 7.121640705408582e+00
 7.475629759944089e-01	 7.331314867424389e-01	 6.846542627475412e+00
 7.403823944188560e-01	 7.403823944188557e-01	 6.575249727477250e+00
 7.331314867424390e-01	 7.475629759944087e-01	 6.308994185606830e+00
 7.258112910053282e-01	 7.546722134675259e-01	 6.048999182455874e+00
 7.184228647910076e-01	 7.617091093562411e-01	 5.796476276569667e+00
 7.109672847172163e-01	 7.686726871644555e-01	 5.552622786549490e+00
 7.034456459136279e-01	 7.755619918329902e-01	 5.318619188052397e+00
 7.799190816747482e-01	 7.073975877446034e-01	 8.113712166599091e+00
 7.729910730474020e-01	 7.149614829459644e-01	 7.838469184969538e+00
 7.659883740155458e-01	 7.224589483010689e-01	 7.563025720240561e+00
 7.589119450038606e-01	 7.298888825278298e-01	 7.288637555843193e+00
 7.517627679943777e-01	 7.372502029600930e-01	 7.016559486935745e+00
 7.445418460728943e-01	 7.445418460728942e-01	 6.748042687618494e+00
 7.372502029600931e-01	 7.517627679943774e-01	 6.484332050869630e+00
 7.298888825278299e-01	 7.589119450038603e-01	 6.226663511159314e+00
 7.224589483010692e-01	 7.659883740155456e-01	 5.976261359979739e+00
 7.149614829459645e-01	 7.729910730474019e-01	 5.734335564778863e+00
 7.073975877446034e-01	 7.799190816747484e-01	 5.502079101958209e+00
 7.842761715165067e-01	 7.113495295755786e-01	 8.263508213365323e+00
 7.773094589303485e-01	 7.189556811747128e-01	 7.992010212614961e+00
 7.702676386748507e-01	 7.264950318111310e-01	 7.720041938682003e+00
 7.631516765401949e-01	 7.339664740503317e-01	 7.448869960695710e+00
 7.559625599943461e-01	 7.413689191777469e-01	 7.179760054557184e+00
 7.487012977269328e-01	 7.487012977269328e-01	 6.913974514311431e+00
 7.413689191777473e-01	 7.559625599943459e-01	 6.652769434168099e+00
 7.339664740503318e-01	 7.631516765401949e-01	 6.397391971408651e+00
 7.264950318111312e-01	 7.702676386748506e-01	 6.149077600719448e+00
 7.189556811747130e-01	 7.773094589303483e-01	 5.909047370748201e+00
 7.113495295755787e-01	 7.842761715165070e-01	 5.678505173864814e+00
 6.718301112658244e-01	 7.407052730989231e-01	 3.608656650839619e+00
 6.645844969255943e-01	 7.472131198300489e-01	 3.368085673795822e+00
 6.572779355921253e-01	 7.536482703381958e-01	 3.132950294322514e+00
 6.499115231035583e-01	 7.600098763418889e-01	 2.903829319135326e+00
 6.424863708663057e-01	 7.662971116029631e-01	 2.681260383101628e+00
 6.350036053007854e-01	 7.725091722788827e-01	 2.465738854784688e+00
 6.274643672777498e-01	 7.786452772583504e-01	 2.257716832993442e+00
 6.198698115457969e-01	 7.847046684799183e-01	 2.057602240331451e+00
 6.122211061506581e-01	 7.906866112333411e-01	 1.865758019466984e+00
 6.045194318468683e-01	 7.965903944434303e-01	 1.682501437510362e+00
 5.967659815024324e-01	 8.024153309361920e-01	 1.508103503512572e+00
 6.757820530967997e-01	 7.450623629406815e-01	 3.845174512513532e+00
 6.684938174957447e-01	 7.516084911231664e-01	 3.606264602373065e+00
 6.611442763897259e-01	 7.580814954578322e-01	 3.372330431486631e+00
 6.537345320629906e-01	 7.644805226733117e-01	 3.143975392721612e+00
 6.462657024596370e-01	 7.708047416712158e-01	 2.921762231474184e+00
 6.387389206260841e-01	 7.770533438805229e-01	 2.706211885368625e+00
 6.311553341440895e-01	 7.832255435951642e-01	 2.497802414993939e+00
 6.235161045548900e-01	 7.893205782945060e-01	 2.296968031969561e+00
 6.158224067750736e-01	 7.953377089464786e-01	 2.104098230369769e+00
 6.080754285047908e-01	 8.012762202930971e-01	 1.919537027153682e+00
 6.002763696289175e-01	 8.071354211181696e-01	 1.743582316926193e+00
 6.797339949277754e-01	 7.494194527824399e-01	 4.075341618858497e+00
 6.724031380658957e-01	 7.560038624162848e-01	 3.838071913639225e+00
 6.650106171873269e-01	 7.625147205774688e-01	 3.605330517090570e+00
 6.575575410224238e-01	 7.689511690047347e-01	 3.377746477497514e+00
 6.500450340529681e-01	 7.753123717394687e-01	 3.155908720577926e+00
 6.424742359513830e-01	 7.815975154821635e-01	 2.940364820307374e+00
 6.348463010104292e-01	 7.878058099319779e-01	 2.731619860812325e+00
 6.271623975639831e-01	 7.939364881090936e-01	 2.530135395947251e+00
 6.194237073994893e-01	 7.999888066596158e-01	 2.336328512865315e+00
 6.116314251627138e-01	 8.059620461427647e-01	 2.150571005557476e+00
 6.037867577554025e-01	 8.118555113001472e-01	 1.973188663955070e+00
 6.836859367587508e-01	 7.537765426241981e-01	 4.299084638130020e+00
 6.763124586360458e-01	 7.603992337094025e-01	 4.063433505567648e+00
 6.688769579849276e-01	 7.669479456971050e-01	 3.831875842970503e+00
 6.613805499818564e-01	 7.734218153361574e-01	 3.605067411977270e+00
 6.538243656462994e-01	 7.798200018077213e-01	 3.383624377139196e+00
 6.462095512766817e-01	 7.861416870838041e-01	 3.168122004812546e+00
 6.385372678767690e-01	 7.923860762687918e-01	 2.959093453158211e+00
 6.308086905730755e-01	 7.985523979236812e-01	 2.757028660178419e+00
 6.230250080239051e-01	 8.046399043727530e-01	 2.562373336420695e+00
 6.151874218206362e-01	 8.106478719924318e-01	 2.375528068632280e+00
 6.072971458818871e-01	 8.165756014821247e-01	 2.196847540263590e+00
 6.876378785897259e-01	 7.581336324659562e-01	 4.516326517388110e+00
 6.802217792061965e-01	 7.647946050025207e-01	 4.282271548918668e+00
 6.727432987825280e-01	 7.713811708167416e-01	 4.051887964305719e+00
 6.652035589412890e-01	 7.778924616675803e-01	 3.825859285714480e+00
 6.576036972396305e-01	 7.843276318759739e-01	 3.604829964336193e+00
 6.499448666019801e-01	 7.906858586854447e-01	 3.389404004262307e+00
 6.422282347431088e-01	 7.969663426056055e-01	 3.180143677504815e+00
 6.344549835821683e-01	 8.031683077382693e-01	 2.977568337419226e+00
 6.266263086483208e-01	 8.092910020858907e-01	 2.782153337488574e+00
 6.187434184785591e-01	 8.153336978420992e-01	 2.594329062077137e+00
 6.108075340083720e-01	 8.212956916641021e-01	 2.414480075361097e+00
 6.915898204207015e-01	 7.624907223077150e-01	 4.726986623908026e+00
 6.841310997763470e-01	 7.691899762956386e-01	 4.494504627060268e+00
 6.766096395801290e-01	 7.758143959363781e-01	 4.265284837839825e+00
 6.690265679007218e-01	 7.823631079990033e-01	 4.040039575911144e+00
 6.613830288329620e-01	 7.888352619442268e-01	 3.819442616775569e+00
 6.536801819272792e-01	 7.952300302870851e-01	 3.604127737510981e+00
 6.459192016094483e-01	 8.015466089424195e-01	 3.394687353696572e+00
 6.381012765912615e-01	 8.077842175528567e-01	 3.191671255116195e+00
 6.302276092727364e-01	 8.139420997990279e-01	 2.995585447542514e+00
 6.222994151364818e-01	 8.200195236917664e-01	 2.806891107535319e+00
 6.143179221348570e-01	 8.260157818460798e-01	 2.626003656800507e+00
 6.955417622516771e-01	 7.668478121494733e-01	 4.930980884257982e+00
 6.880404203464975e-01	 7.735853475887563e-01	 4.700047873475256e+00
 6.804759803777296e-01	 7.802476210560144e-01	 4.471980957810685e+00
 6.728495768601545e-01	 7.868337543304261e-01	 4.247522281754746e+00
 6.651623604262931e-01	 7.933428920124795e-01	 4.027375973211461e+00
 6.574154972525776e-01	 7.997742018887258e-01	 3.812206607958317e+00
 6.496101684757880e-01	 8.061268752792332e-01	 3.602637765325391e+00
 6.417475696003546e-01	 8.124001273674446e-01	 3.399250683045856e+00
 6.338289098971518e-01	 8.185931975121650e-01	 3.202583018918552e+00
 6.258554117944047e-01	 8.247053495414336e-01	 3.013127726576036e+00
 6.178283102613420e-01	 8.307358720280574e-01	 2.831332052228657e+00
 6.994937040826525e-01	 7.712049019912315e-01	 5.128221921134813e+00
 6.919497409166483e-01	 7.779807188818744e-01	 4.898813107046038e+00
 6.843423211753306e-01	 7.846808461756510e-01	 4.671887489678544e+00
 6.766725858195870e-01	 7.913044006618489e-01	 4.448218056571253e+00
 6.689416920196243e-01	 7.978505220807324e-01	 4.228540307097672e+00
 6.611508125778764e-01	 8.043183734903661e-01	 4.013550632466587e+00
 6.533011353421276e-01	 8.107071416160471e-01	 3.803904786975669e+00
 6.453938626094473e-01	 8.170160371820324e-01	 3.600216458833378e+00
 6.374302105215676e-01	 8.232442952253024e-01	 3.403055948557378e+00
 6.294114084523273e-01	 8.293911753911011e-01	 3.212948962589848e+00
 6.213386983878267e-01	 8.354559622100350e-01	 3.030375529363682e+00
 7.034456459136279e-01	 7.755619918329902e-01	 5.318619188052397e+00
 6.958590614867988e-01	 7.823760901749923e-01	 5.090708965212685e+00
 6.882086619729310e-01	 7.891140712952873e-01	 4.864912401739574e+00
 6.804955947790199e-01	 7.957750469932717e-01	 4.642034337878039e+00
 6.727210236129554e-01	 8.023581521489846e-01	 4.422842655055691e+00
 6.648861279031754e-01	 8.088625450920066e-01	 4.208066568212846e+00
 6.569921022084674e-01	 8.152874079528608e-01	 3.998395009413716e+00
 6.490401556185402e-01	 8.216319469966200e-01	 3.794475111436655e+00
 6.410315111459832e-01	 8.278953929384398e-01	 3.596910799720189e+00
 6.329674051102502e-01	 8.340770012407682e-01	 3.406261500680198e+00
 6.248490865143116e-01	 8.401760523920127e-01	 3.223040973990555e+00
 7.073975877446034e-01	 7.799190816747484e-01	 5.502079101958209e+00
 6.997683820569494e-01	 7.867714614681103e-01	 5.275641035076266e+00
 6.920750027705317e-01	 7.935472964149239e-01	 5.050960594707503e+00
 6.843186037384527e-01	 8.002456933246948e-01	 4.828875475422801e+00
 6.765003552062866e-01	 8.068657822172375e-01	 4.610186943343467e+00
 6.686214432284738e-01	 8.134067166936469e-01	 4.395658037551085e+00
 6.606830690748074e-01	 8.198676742896748e-01	 4.186011862808026e+00
 6.526864486276333e-01	 8.262478568112082e-01	 3.981929982670601e+00
 6.446328117703986e-01	 8.325464906515769e-01	 3.784050921767678e+00
 6.365234017681728e-01	 8.387628270904351e-01	 3.592968785630204e+00
 6.283594746407966e-01	 8.448961425739904e-01	 3.409232006046398e+00
 7.113495295755787e-01	 7.842761715165070e-01	 5.678505173864814e+00
 7.036777026270998e-01	 7.911668327612280e-01	 5.453511982536475e+00
 6.959413435681324e-01	 7.979805215345602e-01	 5.229934029341462e+00
 6.881416126978853e-01	 8.047163396561174e-01	 5.008642857283049e+00
 6.802796867996178e-01	 8.113734122854903e-01	 4.790474112398943e+00
 6.723567585537729e-01	 8.179508882952876e-01	 4.576225650967374e+00
 6.643740359411469e-01	 8.244479406264887e-01	 4.366655738049860e+00
 6.563327416367262e-01	 8.308637666257958e-01	 4.162481346851080e+00
 6.482341123948145e-01	 8.371975883647143e-01	 3.964376568068847e+00
 6.400793984260956e-01	 8.434486529401025e-01	 3.772971138015587e+00
 6.318698627672814e-01	 8.496162327559678e-01	 3.588849093871953e+00
 5.967659815024324e-01	 8.024153309361920e-01	 1.508103503512572e+00
 5.889619594971075e-01	 8.081607576870631e-01	 1.342720967072552e+00
 5.811085811149189e-01	 8.138260360510751e-01	 1.185924645628885e+00
 5.732070719315505e-01	 8.194105519748073e-01	 1.036945803502981e+00
 5.652586671972306e-01	 8.249137161900088e-01	 8.955748076083344e-01
 5.572646112157532e-01	 8.303349643888033e-01	 7.615677633612786e-01
 5.492261567202690e-01	 8.356737573804041e-01	 6.346425475213018e-01
 5.411445642464789e-01	 8.409295812293016e-01	 5.144796932161608e-01
 5.330211015038682e-01	 8.461019473749030e-01	 4.007233548544456e-01
 5.248570427456093e-01	 8.511903927326328e-01	 2.929823512199466e-01
 5.166536681377635e-01	 8.561944797765246e-01	 1.908312847415705e-01
 6.002763696289175e-01	 8.071354211181696e-01	 1.743582316926193e+00
 5.924264416117963e-01	 8.129146444969865e-01	 1.576378804161850e+00
 5.845268668861833e-01	 8.186132480278461e-01	 1.417823092332157e+00
 5.765788782370302e-01	 8.242306140452471e-01	 1.266989694675663e+00
 5.685837181807437e-01	 8.297661498146558e-01	 1.123511393120369e+00
 5.605426383405520e-01	 8.352192877087375e-01	 9.871398741556221e-01
 5.524568988186235e-01	 8.405894853649949e-01	 8.575872679537500e-01
 5.443277675655760e-01	 8.458762258247681e-01	 7.345270545386618e-01
 5.361565197480087e-01	 8.510790176535787e-01	 6.175950527817999e-01
 5.279444371147011e-01	 8.561973950428248e-01	 5.063904904674760e-01
 5.196928073621031e-01	 8.612309178928572e-01	 4.004771533977410e-01
 6.037867577554025e-01	 8.118555113001472e-01	 1.973188663955070e+00
 5.958909237264852e-01	 8.176685313069104e-01	 1.804301262178874e+00
 5.879451526574477e-01	 8.234004600046171e-01	 1.643895079220647e+00
 5.799506845425100e-01	 8.290506761156872e-01	 1.491330097669562e+00
 5.719087691642568e-01	 8.346185834393030e-01	 1.345861893796113e+00
 5.638206654653505e-01	 8.401036110286716e-01	 1.207237749069419e+00
 5.556876409169781e-01	 8.455052133495855e-01	 1.075164079053723e+00
 5.475109708846729e-01	 8.508228704202346e-01	 9.493073602730258e-01
 5.392919379921490e-01	 8.560560879322547e-01	 8.292951428384133e-01
 5.310318314837930e-01	 8.612043973530166e-01	 7.147171470583853e-01
 5.227319465864430e-01	 8.662673560091898e-01	 6.051264419686536e-01
 6.072971458818871e-01	 8.165756014821247e-01	 2.196847540263590e+00
 5.993554058411742e-01	 8.224224181168345e-01	 2.026414030460673e+00
 5.913634384287115e-01	 8.281876719813881e-01	 1.864160100910030e+00
 5.833224908479899e-01	 8.338707381861273e-01	 1.709894739738325e+00
 5.752338201477702e-01	 8.394710170639503e-01	 1.562557350423764e+00
 5.670986925901490e-01	 8.449879343486055e-01	 1.421796434168280e+00
 5.589183830153326e-01	 8.504209413341758e-01	 1.287312719597190e+00
 5.506941742037698e-01	 8.557695150157008e-01	 1.158765724347637e+00
 5.424273562362893e-01	 8.610331582109305e-01	 1.035774790871795e+00
 5.341192258528847e-01	 8.662113996632085e-01	 9.179202091663763e-01
 5.257710858107828e-01	 8.713037941255223e-01	 8.047444243084128e-01
 6.108075340083720e-01	 8.212956916641021e-01	 2.414480075361097e+00
 6.028198879558629e-01	 8.271763049267583e-01	 2.242638910445535e+00
 5.947817241999757e-01	 8.329748839581590e-01	 2.078670762002512e+00
 5.866942971534692e-01	 8.386908002565674e-01	 1.922607317346445e+00
 5.785588711312831e-01	 8.443234506885974e-01	 1.773524755012315e+00
 5.703767197149475e-01	 8.498722576685397e-01	 1.630746896467355e+00
 5.621491251136871e-01	 8.553366693187665e-01	 1.493968806896117e+00
 5.538773775228666e-01	 8.607161596111674e-01	 1.362843084806174e+00
 5.455627744804299e-01	 8.660102284896063e-01	 1.236980920565555e+00
 5.372066202219766e-01	 8.712184019734004e-01	 1.115953244806824e+00
 5.288102250351226e-01	 8.763402322418545e-01	 9.992919645570216e-01
 6.143179221348570e-01	 8.260157818460798e-01	 2.626003656800507e+00
 6.062843700705518e-01	 8.319301917366824e-01	 2.452893938055469e+00
 5.982000099712399e-01	 8.377620959349302e-01	 2.287347254936645e+00
 5.900661034589491e-01	 8.435108623270072e-01	 2.129421725975464e+00
 5.818839221147961e-01	 8.491758843132441e-01	 1.978687133822940e+00
 5.736547468397460e-01	 8.547565809884740e-01	 1.834016107390132e+00
 5.653798672120417e-01	 8.602523973033572e-01	 1.695063921048959e+00
 5.570605808419635e-01	 8.656628042066337e-01	 1.561476289225703e+00
 5.486981927245702e-01	 8.709872987682824e-01	 1.432856300388986e+00
 5.402940145910684e-01	 8.762254042835926e-01	 1.308765590691012e+00
 5.318493642594624e-01	 8.813766703581872e-01	 1.188725608275286e+00
 6.178283102613420e-01	 8.307358720280574e-01	 2.831332052228657e+00
 6.097488521852408e-01	 8.366840785466063e-01	 2.657093503939062e+00
 6.016182957425042e-01	 8.425493079117012e-01	 2.490105279619545e+00
 5.934379097644287e-01	 8.483309243974473e-01	 2.330427902156838e+00
 5.852089730983095e-01	 8.540283179378916e-01	 2.177963628235200e+00
 5.769327739645447e-01	 8.596409043084081e-01	 2.031527124008234e+00
 5.686106093103962e-01	 8.651681252879476e-01	 1.890525686927408e+00
 5.602437841610606e-01	 8.706094488021007e-01	 1.754598177805291e+00
 5.518336109687106e-01	 8.759643690469581e-01	 1.623339628149575e+00
 5.433814089601602e-01	 8.812324065937847e-01	 1.496302438599693e+00
 5.348885034838020e-01	 8.864131084745196e-01	 1.372997670985126e+00
 6.213386983878267e-01	 8.354559622100350e-01	 3.030375529363682e+00
 6.132133342999294e-01	 8.414379653565299e-01	 2.855148471659535e+00
 6.050365815137686e-01	 8.473365198884725e-01	 2.686856969652747e+00
 5.968097160699085e-01	 8.531509864678876e-01	 2.525564056127849e+00
 5.885340240818223e-01	 8.588807515625383e-01	 2.371270527676337e+00
 5.802108010893432e-01	 8.645252276283423e-01	 2.223199168164894e+00
 5.718413514087507e-01	 8.700838532725383e-01	 2.080277853991050e+00
 5.634269874801575e-01	 8.755560933975667e-01	 1.942137664221217e+00
 5.549690292128511e-01	 8.809414393256342e-01	 1.808365613238080e+00
 5.464688033292521e-01	 8.862394089039766e-01	 1.678504919358191e+00
 5.379276427081419e-01	 8.914495465908518e-01	 1.552056324226256e+00
 6.248490865143116e-01	 8.401760523920127e-01	 3.223040973990555e+00
 6.166778164146184e-01	 8.461918521664541e-01	 3.046966293912926e+00
 6.084548672850331e-01	 8.521237318652437e-01	 2.877511007086364e+00
 6.001815223753882e-01	 8.579710485383274e-01	 2.714740765627616e+00
 5.918590750653356e-01	 8.637331851871857e-01	 2.558657312477098e+00
 5.834888282141416e-01	 8.694095509482765e-01	 2.408947703551764e+00
 5.750720935071052e-01	 8.749995812571290e-01	 2.264240374014165e+00
 5.666101907992543e-01	 8.805027379930330e-01	 2.124019814341755e+00
 5.581044474569915e-01	 8.859185096043100e-01	 1.987865056658437e+00
 5.495561976983439e-01	 8.912464112141683e-01	 1.855310184523272e+00
 5.409667819324817e-01	 8.964859847071847e-01	 1.725845679223846e+00
 6.283594746407966e-01	 8.448961425739904e-01	 3.409232006046398e+00
 6.201422985293075e-01	 8.509457389763780e-01	 3.232451126845571e+00
 6.118731530562969e-01	 8.569109438420143e-01	 3.061972735276958e+00
 6.035533286808679e-01	 8.627911106087676e-01	 2.897865216365147e+00
 5.951841260488487e-01	 8.685856188118328e-01	 2.740131377275669e+00
 5.867668553389402e-01	 8.742938742682104e-01	 2.588684510827739e+00
 5.783028356054597e-01	 8.799153092417193e-01	 2.442329476809082e+00
 5.697933941183513e-01	 8.854493825884998e-01	 2.300165922874283e+00
 5.612398657011318e-01	 8.908955798829858e-01	 2.161764928931496e+00
 5.526435920674356e-01	 8.962534135243601e-01	 2.026651485856660e+00
 5.440059211568213e-01	 9.015224228235169e-01	 1.894305868259759e+00
 6.318698627672814e-01	 8.496162327559678e-01	 3.588849093871953e+00
 6.236067806439961e-01	 8.556996257863020e-01	 3.411503942553689e+00
 6.152914388275612e-01	 8.616981558187854e-01	 3.240144269923039e+00
 6.069251349863476e-01	 8.676111726792077e-01	 3.074841311889087e+00
 5.985091770323617e-01	 8.734380524364798e-01	 2.915599061382282e+00
 5.900448824637387e-01	 8.791781975881445e-01	 2.762354375483909e+00
 5.815335777038143e-01	 8.848310372263103e-01	 2.614457744018751e+00
 5.729765974374484e-01	 8.903960271839663e-01	 2.470493588036822e+00
 5.643752839452721e-01	 8.958726501616617e-01	 2.329988445950460e+00
 5.557309864365274e-01	 9.012604158345522e-01	 2.192458252682377e+00
 5.470450603811613e-01	 9.065588609398499e-01	 2.057373123838402e+00
 5.166536681377635e-01	 8.561944797765246e-01	 1.908312847415705e-01
 5.084122631284073e-01	 8.611137966033590e-01	 9.475414440006218e-02
 5.001341178172988e-01	 8.659479569784276e-01	 5.480779280726406e-03
 4.918205263267006e-01	 8.706966003630238e-01	-7.708785051745962e-02
 4.834727861739643e-01	 8.753593919237882e-01	-1.530734997904032e-01
 4.750921976464705e-01	 8.799360225240509e-01	-2.226198512771509e-01
 4.666800631795192e-01	 8.844262086973452e-01	-2.858916719636444e-01
 4.582376867377418e-01	 8.888296926032812e-01	-3.430739154127711e-01
 4.497663732006087e-01	 8.931462419659900e-01	-3.943707731165370e-01
 4.412674277525849e-01	 8.973756499953727e-01	-4.400046780664137e-01
 4.327421552784766e-01	 9.015177352914024e-01	-4.802152639577250e-01
 5.196928073621031e-01	 8.612309178928572e-01	 4.004771533977410e-01
 5.114029234997508e-01	 8.661791718774966e-01	 3.004131706207550e-01
 5.030760832162240e-01	 8.710417684900649e-01	 2.070068294153826e-01
 4.947135882462695e-01	 8.758183450710414e-01	 1.201535317001404e-01
 4.863167437396936e-01	 8.805085648174577e-01	 3.972559321312386e-02
 4.778868576326262e-01	 8.851121167741924e-01	-3.442695079031605e-02
 4.694252400217517e-01	 8.896287158073296e-01	-1.024754814061868e-01
 4.609332025420814e-01	 8.940581025597710e-01	-1.646118763574316e-01
 4.524120577488476e-01	 8.984000433893190e-01	-2.210475377197320e-01
 4.438631185040706e-01	 9.026543302894630e-01	-2.720123703851235e-01
 4.352876973683500e-01	 9.068207807931165e-01	-3.177537147628092e-01
 5.227319465864430e-01	 8.662673560091898e-01	 6.051264419686536e-01
 5.143935838710944e-01	 8.712445471516337e-01	 5.011617189158211e-01
 5.060180486151493e-01	 8.761355800017029e-01	 4.037162791144363e-01
 4.976066501658383e-01	 8.809400897790591e-01	 3.126803108948054e-01
 4.891607013054227e-01	 8.856577377111270e-01	 2.279205478911557e-01
 4.806815176187820e-01	 8.902882110243336e-01	 1.492810928802721e-01
 4.721704168639841e-01	 8.948312229173140e-01	 7.658430178047371e-02
 4.636287183464212e-01	 8.992865125162608e-01	 9.631724920941553e-03
 4.550577422970864e-01	 9.036538448126487e-01	-5.179489753418887e-02
 4.464588092555563e-01	 9.079330105835532e-01	-1.079325893756625e-01
 4.378332394582234e-01	 9.121238262948305e-01	-1.590360449274761e-01
 5.257710858107828e-01	 8.713037941255223e-01	 8.047444243084128e-01
 5.173842442424378e-01	 8.763099224257709e-01	 6.969729870070127e-01
 5.089600140140745e-01	 8.812293915133405e-01	 5.955906599147351e-01
 5.004997120854071e-01	 8.860618344870771e-01	 5.004827498184070e-01
 4.920046588711517e-01	 8.908069106047961e-01	 4.115107425687697e-01
 4.834761776049377e-01	 8.954643052744753e-01	 3.285131444676395e-01
 4.749155937062166e-01	 9.000337300272980e-01	 2.513063855807415e-01
 4.663242341507607e-01	 9.045149224727506e-01	 1.796857820468484e-01
 4.577034268453255e-01	 9.089076462359781e-01	 1.134265541859139e-01
 4.490545000070422e-01	 9.132116908776440e-01	 5.228489696968674e-02
 4.403787815480968e-01	 9.174268717965445e-01	-4.000900802854757e-03
 5.288102250351226e-01	 8.763402322418545e-01	 9.992919645570216e-01
 5.203749046137816e-01	 8.813752976999082e-01	 8.878156646505899e-01
 5.119019794129999e-01	 8.863232030249782e-01	 7.826068913563754e-01
 5.033927740049761e-01	 8.911835791950949e-01	 6.835463896556730e-01
 4.948486164368811e-01	 8.959560834984653e-01	 5.904907191442759e-01
 4.862708375910934e-01	 9.006403995246168e-01	 5.032731123736847e-01
 4.776607705484491e-01	 9.052362371372830e-01	 4.217043969412376e-01
 4.690197499551005e-01	 9.097433324292407e-01	 3.455739783351923e-01
 4.603491113935643e-01	 9.141614476593075e-01	 2.746508802808584e-01
 4.516501907585279e-01	 9.184903711717343e-01	 2.086848390703395e-01
 4.429243236379703e-01	 9.227299172982589e-01	 1.474074481320775e-01
 5.318493642594624e-01	 8.813766703581872e-01	 1.188725608275286e+00
 5.233655649851251e-01	 8.864406729740461e-01	 1.073654027331834e+00
 5.148439448119253e-01	 8.914170145366167e-01	 9.647373774422671e-01
 5.062858359245449e-01	 8.963053239031127e-01	 8.618521494571824e-01
 4.976925740026103e-01	 9.011052563921352e-01	 7.648502856903203e-01
 4.890654975772491e-01	 9.058164937747581e-01	 6.735600546305609e-01
 4.804059473906816e-01	 9.104387442472673e-01	 5.877869912730646e-01
 4.717152657594401e-01	 9.149717423857306e-01	 5.073149000183128e-01
 4.629947959418032e-01	 9.194152490826367e-01	 4.319069168135847e-01
 4.542458815100137e-01	 9.237690514658246e-01	 3.613066269505285e-01
 4.454698657278436e-01	 9.280329627999727e-01	 2.952392346929809e-01
 5.348885034838020e-01	 8.864131084745196e-01	 1.372997670985126e+00
 5.263562253564688e-01	 8.915060482481834e-01	 1.254448027260703e+00
 5.177859102108505e-01	 8.965108260482542e-01	 1.141950100287460e+00
 5.091788978441136e-01	 9.014270686111304e-01	 1.035376422634640e+00
 5.005365315683395e-01	 9.062544292858042e-01	 9.345746159860999e-01
 4.918601575634048e-01	 9.109925880248995e-01	 8.393682816510920e-01
 4.831511242329140e-01	 9.156412513572513e-01	 7.495579586088493e-01
 4.744107815637798e-01	 9.202001523422202e-01	 6.649221459817556e-01
 4.656404804900420e-01	 9.246690505059662e-01	 5.852183865475287e-01
 4.568415722614995e-01	 9.290477317599150e-01	 5.101844076286872e-01
 4.480154078177170e-01	 9.333360083016868e-01	 4.395393154464571e-01
 5.379276427081419e-01	 8.914495465908518e-01	 1.552056324226256e+00
 5.293468857278122e-01	 8.965714235223208e-01	 1.430153381771965e+00
 5.207278756097758e-01	 9.016046375598923e-01	 1.314208711059545e+00
 5.120719597636825e-01	 9.065488133191483e-01	 1.204091170629261e+00
 5.033804891340687e-01	 9.114036021794734e-01	 1.099644346100141e+00
 4.946548175495605e-01	 9.161686822750411e-01	 1.000687455907435e+00
 4.858963010751464e-01	 9.208437584672357e-01	 9.070163265442324e-01
 4.771062973681194e-01	 9.254285622987103e-01	 8.184044341390353e-01
 4.682861650382809e-01	 9.299228519292956e-01	 7.346040089237234e-01
 4.594372630129853e-01	 9.343264120540056e-01	 6.553471988481063e-01
 4.505609499075904e-01	 9.386390538034012e-01	 5.803472883489273e-01
 5.409667819324817e-01	 8.964859847071847e-01	 1.725845679223846e+00
 5.323375460991560e-01	 9.016367987964581e-01	 1.600721659238481e+00
 5.236698410087011e-01	 9.066984490715297e-01	 1.481472618322116e+00
 5.149650216832513e-01	 9.116705580271659e-01	 1.367964013871923e+00
 5.062244466997979e-01	 9.165527750731428e-01	 1.260035668142149e+00
 4.974494775357162e-01	 9.213447765251827e-01	 1.157502688648728e+00
 4.886414779173789e-01	 9.260462655772203e-01	 1.060156460092513e+00
 4.798018131724589e-01	 9.306569722551999e-01	 9.677657045864441e-01
 4.709318495865198e-01	 9.351766533526248e-01	 8.800776066704312e-01
 4.620329537644711e-01	 9.396050923480957e-01	 7.968189992995134e-01
 4.531064919974638e-01	 9.439420993051153e-01	 7.176976067273237e-01
 5.440059211568213e-01	 9.015224228235169e-01	 1.894305868259759e+00
 5.353282064704994e-01	 9.067021740705954e-01	 1.766100362589708e+00
 5.266118064076265e-01	 9.117922605831678e-01	 1.643697073883496e+00
 5.178580836028200e-01	 9.167923027351840e-01	 1.526958320135233e+00
 5.090684042655271e-01	 9.217019479668123e-01	 1.415720421294102e+00
 5.002441375218720e-01	 9.265208707753241e-01	 1.309794633776587e+00
 4.913866547596115e-01	 9.312487726872046e-01	 1.208968158569817e+00
 4.824973289767988e-01	 9.358853822116904e-01	 1.113005219655670e+00
 4.735775341347587e-01	 9.404304547759543e-01	 1.021648209178269e+00
 4.646286445159569e-01	 9.448837726421864e-01	 9.346188954647521e-01
 4.556520340873372e-01	 9.492451448068294e-01	 8.516196897359014e-01
 5.470450603811613e-01	 9.065588609398499e-01	 2.057373123838402e+00
 5.383188668418429e-01	 9.117675493447331e-01	 1.926233010530823e+00
 5.295537718065515e-01	 9.168860720948053e-01	 1.800833256243696e+00
 5.207511455223890e-01	 9.219140474432018e-01	 1.681033290382513e+00
 5.119123618312563e-01	 9.268511208604817e-01	 1.566666180225714e+00
 5.030387975080277e-01	 9.316969650254655e-01	 1.457539578993138e+00
 4.941318316018439e-01	 9.364512797971891e-01	 1.353436749630435e+00
 4.851928447811384e-01	 9.411137921681804e-01	 1.254117660991224e+00
 4.762232186829977e-01	 9.456842561992835e-01	 1.159320152768551e+00
 4.672243352674428e-01	 9.501624529362770e-01	 1.068761165220016e+00
 4.581975761772106e-01	 9.545481903085435e-01	 9.821380294338324e-01
 4.327421552784766e-01	 9.015177352914024e-01	-4.802152639577250e-01
 4.241918597645067e-01	 9.055723417317521e-01	-5.151948781284336e-01
 4.156178437056227e-01	 9.095393383430366e-01	-5.451484683390023e-01
 4.070214075195532e-01	 9.134186191559714e-01	-5.703581617325005e-01
 3.984038489680923e-01	 9.172101030447763e-01	-5.911202372817136e-01
 3.897664625860844e-01	 9.209137335511564e-01	-6.077438982523307e-01
 3.811105391185670e-01	 9.245294786932189e-01	-6.205500223887279e-01
 3.724373649665078e-01	 9.280573307596920e-01	-6.298698941856800e-01
 3.637482216415593e-01	 9.314973060898259e-01	-6.360439237062803e-01
 3.550443852302335e-01	 9.348494448393739e-01	-6.394203563816863e-01
 3.463271258678822e-01	 9.381138107330540e-01	-6.403539782892766e-01
 4.352876973683500e-01	 9.068207807931165e-01	-3.177537147628102e-01
 4.266871059984157e-01	 9.108992378595857e-01	-3.584739958418018e-01
 4.180626545509500e-01	 9.148895697450545e-01	-3.943608533449734e-01
 4.094156510931976e-01	 9.187916698568889e-01	-4.256630369297414e-01
 4.007474010208459e-01	 9.226054565920985e-01	-4.526432521925914e-01
 3.920592064836496e-01	 9.263308731602807e-01	-4.755769625422630e-01
 3.833523658192644e-01	 9.299678873914144e-01	-4.947511675391449e-01
 3.746281729957226e-01	 9.335164915288671e-01	-5.104631621132660e-01
 3.658879170629804e-01	 9.369767020080019e-01	-5.230192811405932e-01
 3.571328816139409e-01	 9.403485592207822e-01	-5.327336338749384e-01
 3.483643442553404e-01	 9.436321272667778e-01	-5.399268327735178e-01
 4.378332394582234e-01	 9.121238262948305e-01	-1.590360449274787e-01
 4.291823522323245e-01	 9.162261339874198e-01	-2.053127179892483e-01
 4.205074653962770e-01	 9.202398011470722e-01	-2.469307450885667e-01
 4.118098946668423e-01	 9.241647205578065e-01	-2.841094598883509e-01
 4.030909530735992e-01	 9.280008101394209e-01	-3.170819959826896e-01
 3.943519503812151e-01	 9.317480127694054e-01	-3.460941123614787e-01
 3.855941925199620e-01	 9.354062960896101e-01	-3.714029940851988e-01
 3.768189810249372e-01	 9.389756522980409e-01	-3.932760326261064e-01
 3.680276124844012e-01	 9.424560979261768e-01	-4.119895904067628e-01
 3.592213779976481e-01	 9.458476736021901e-01	-4.278277540964255e-01
 3.504015626427984e-01	 9.491504438005016e-01	-4.410810812449959e-01
 4.403787815480968e-01	 9.174268717965445e-01	-4.000900802852758e-03
 4.316775984662333e-01	 9.215530301152534e-01	-5.563893004863596e-02
 4.229522762416043e-01	 9.255900325490899e-01	-1.027762359619608e-01
 4.142041382404866e-01	 9.295377712587235e-01	-1.456066385037387e-01
 4.054345051263529e-01	 9.333961636867428e-01	-1.843376413841002e-01
 3.966446942787800e-01	 9.371651523785299e-01	-2.191892753359914e-01
 3.878360192206592e-01	 9.408447047878050e-01	-2.503929153419342e-01
 3.790097890541522e-01	 9.444348130672159e-01	-2.781900763225307e-01
 3.701673079058223e-01	 9.479354938443525e-01	-3.028311918773388e-01
 3.613098743813553e-01	 9.513467879835978e-01	-3.245743807013459e-01
 3.524387810302566e-01	 9.546687603342253e-01	-3.436842053376243e-01
 4.429243236379703e-01	 9.227299172982589e-01	 1.474074481320780e-01
 4.341728447001423e-01	 9.268799262430875e-01	 9.061372894435271e-02
 4.253970870869315e-01	 9.309402639511080e-01	 3.817872256829391e-02
 4.165983818141309e-01	 9.349108219596415e-01	-1.006972188176603e-02
 4.077780571791063e-01	 9.387915172340653e-01	-5.431736262964115e-02
 3.989374381763452e-01	 9.425822919876541e-01	-9.476242058717488e-02
 3.900778459213567e-01	 9.462831134860007e-01	-1.316144073846621e-01
 3.812005970833668e-01	 9.498939738363908e-01	-1.650929306665365e-01
 3.723070033272431e-01	 9.534148897625279e-01	-1.954264813068392e-01
 3.633983707650625e-01	 9.568459023650063e-01	-2.228512072489126e-01
 3.544759994177147e-01	 9.601870768679494e-01	-2.476096787030007e-01
 4.454698657278436e-01	 9.280329627999727e-01	 2.952392346929831e-01
 4.366680909340511e-01	 9.322068223709212e-01	 2.335059957849910e-01
 4.278418979322585e-01	 9.362904953531257e-01	 1.760044526506377e-01
 4.189926253877755e-01	 9.402838726605590e-01	 1.225803350435617e-01
 4.101216092318599e-01	 9.441868707813874e-01	 7.306580204702628e-02
 4.012301820739104e-01	 9.479994315967787e-01	 2.728058035549452e-02
 3.923196726220542e-01	 9.517215221841960e-01	-1.496686885538701e-02
 3.833914051125815e-01	 9.553531346055653e-01	-5.387815912548133e-02
 3.744466987486643e-01	 9.588942856807035e-01	-8.966376870903292e-02
 3.654868671487698e-01	 9.623450167464144e-01	-1.225418161659912e-01
 3.565132178051728e-01	 9.657053934016732e-01	-1.527368263726396e-01
 4.480154078177170e-01	 9.333360083016868e-01	 4.395393154464580e-01
 4.391633371679599e-01	 9.375337184987548e-01	 3.730931083627951e-01
 4.302867087775859e-01	 9.416407267551438e-01	 3.107656784910149e-01
 4.213868689614199e-01	 9.456569233614762e-01	 2.524169025283585e-01
 4.124651612846132e-01	 9.495822243287100e-01	 1.978930834581705e-01
 4.035229259714756e-01	 9.534165712059031e-01	 1.470280881197412e-01
 3.945614993227516e-01	 9.571599308823914e-01	 9.964451465189783e-02
 3.855822131417964e-01	 9.608122953747399e-01	 5.555488506671646e-02
 3.765863941700851e-01	 9.643736815988789e-01	 1.456285812729741e-02
 3.675753635324771e-01	 9.678441311278225e-01	-2.353554235940747e-02
 3.585504361926311e-01	 9.712237099353970e-01	-5.895068876133713e-02
 4.505609499075904e-01	 9.386390538034012e-01	 5.803472883489273e-01
 4.416585834018688e-01	 9.428606146265889e-01	 5.094249269670952e-01
 4.327315196229130e-01	 9.469909581571616e-01	 4.425216507020588e-01
 4.237811125350644e-01	 9.510299740623940e-01	 3.795078028473002e-01
 4.148087133373668e-01	 9.549775778760320e-01	 3.202401102321870e-01
 4.058156698690409e-01	 9.588337108150277e-01	 2.645628257099721e-01
 3.968033260234492e-01	 9.625983395805867e-01	 2.123089018098301e-01
 3.877730211710111e-01	 9.662714561439145e-01	 1.633011907200461e-01
 3.787260895915059e-01	 9.698530775170541e-01	 1.173536656674572e-01
 3.696638599161843e-01	 9.733432455092305e-01	 7.427265870364419e-02
 3.605876545800891e-01	 9.767420264691207e-01	 3.385810985565030e-02
 4.531064919974638e-01	 9.439420993051153e-01	 7.176976067273237e-01
 4.441538296357778e-01	 9.481875107544230e-01	 6.425460517847987e-01
 4.351763304682403e-01	 9.523411895591796e-01	 5.713262667320747e-01
 4.261753561087088e-01	 9.564030247633114e-01	 5.039154330934912e-01
 4.171522653901202e-01	 9.603729314233542e-01	 4.401770334736688e-01
 4.081084137666061e-01	 9.642508504241523e-01	 3.799620045535550e-01
 3.990451527241466e-01	 9.680367482787824e-01	 3.231099225550165e-01
 3.899638292002258e-01	 9.717306169130893e-01	 2.694502162373742e-01
 3.808657850129269e-01	 9.753324734352297e-01	 2.188034023782151e-01
 3.717523562998916e-01	 9.788423598906386e-01	 1.709823386273919e-01
 3.626248729675473e-01	 9.822603430028447e-01	 1.257934885791490e-01
 4.556520340873372e-01	 9.492451448068294e-01	 8.516196897359003e-01
 4.466490758696865e-01	 9.535144068822566e-01	 7.724959367446274e-01
 4.376211413135674e-01	 9.576914209611973e-01	 6.972281875186435e-01
 4.285695996823534e-01	 9.617760754642291e-01	 6.256968841099722e-01
 4.194958174428738e-01	 9.657682849706765e-01	 5.577686474749979e-01
 4.104011576641713e-01	 9.696679900332765e-01	 4.932974465338975e-01
 4.012869794248441e-01	 9.734751569769777e-01	 4.321258010220852e-01
 3.921546372294406e-01	 9.771897776822638e-01	 3.740860130721448e-01
 3.830054804343479e-01	 9.808118693534053e-01	 3.190014223624802e-01
 3.738408526835988e-01	 9.843414742720465e-01	 2.666876795926849e-01
 3.646620913550053e-01	 9.877786595365686e-01	 2.169540329965964e-01
 4.581975761772106e-01	 9.545481903085435e-01	 9.821380294338324e-01
 4.491443221035954e-01	 9.588413030100903e-01	 8.993089998438606e-01
 4.400659521588948e-01	 9.630416523632153e-01	 8.202709505170835e-01
 4.309638432559978e-01	 9.671491261651465e-01	 7.449040557032021e-01
 4.218393694956273e-01	 9.711636385179988e-01	 6.730745066338479e-01
 4.126939015617365e-01	 9.750851296424010e-01	 6.046357021712758e-01
 4.035288061255415e-01	 9.789135656751731e-01	 5.394294745822674e-01
 3.943454452586553e-01	 9.826489384514384e-01	 4.772873452524142e-01
 3.851451758557687e-01	 9.862912652715804e-01	 4.180318050409024e-01
 3.759293490673062e-01	 9.898405886534548e-01	 3.614776139014770e-01
 3.666993097424636e-01	 9.932969760702922e-01	 3.074331143332079e-01
 3.463271258678822e-01	 9.381138107330540e-01	-6.403539782892766e-01
 3.375977072228536e-01	 9.412904908039134e-01	-6.385158758940912e-01
 3.288573859911695e-01	 9.443795951200211e-01	-6.335184834719929e-01
 3.201074114020567e-01	 9.473812564989209e-01	-6.256371832509640e-01
 3.113490247346440e-01	 9.502956302102971e-01	-6.151523670775396e-01
 3.025834588461147e-01	 9.531228936672971e-01	-6.023482973919929e-01
 2.938119377115881e-01	 9.558632461069739e-01	-5.875119826551747e-01
 2.850356759759862e-01	 9.585169082603148e-01	-5.709320711803567e-01
 2.762558785181150e-01	 9.610841220123161e-01	-5.528977671500854e-01
 2.674737400271794e-01	 9.635651500525912e-01	-5.336977725044836e-01
 2.586904445919245e-01	 9.659602755169761e-01	-5.136192581807935e-01
 3.483643442553404e-01	 9.436321272667778e-01	-5.399268327735187e-01
 3.395835760888704e-01	 9.468274936909952e-01	-5.442577354209726e-01
 3.307918412028821e-01	 9.499347692089625e-01	-5.453500455445015e-01
 3.219903961750100e-01	 9.529540874195034e-01	-5.434798195928949e-01
 3.131804895860243e-01	 9.558856045056521e-01	-5.389275959294886e-01
 3.043633615452095e-01	 9.587294989241634e-01	-5.319772386425456e-01
 2.955402432275386e-01	 9.614859710840739e-01	-5.229147965190419e-01
 2.867123564229037e-01	 9.641552430147868e-01	-5.120273812004021e-01
 2.778809130976334e-01	 9.667375580241532e-01	-4.996020684219689e-01
 2.690471149685158e-01	 9.692331803470186e-01	-4.859248260854674e-01
 2.602121530895242e-01	 9.716423947847230e-01	-4.712794727569438e-01
 3.504015626427984e-01	 9.491504438005016e-01	-4.410810812449968e-01
 3.415694449548873e-01	 9.523644965780772e-01	-4.513975608099601e-01
 3.327262964145951e-01	 9.554899432979038e-01	-4.584095382951809e-01
 3.238733809479631e-01	 9.585269183400846e-01	-4.623919188748036e-01
 3.150119544374045e-01	 9.614755788010069e-01	-4.636236125876749e-01
 3.061432642443043e-01	 9.643361041810299e-01	-4.623863621490183e-01
 2.972685487434891e-01	 9.671086960611732e-01	-4.589635864936312e-01
 2.883890368698214e-01	 9.697935777692599e-01	-4.536392441910611e-01
 2.795059476771517e-01	 9.723909940359903e-01	-4.466967207272190e-01
 2.706204899098520e-01	 9.749012106414453e-01	-4.384177434840333e-01
 2.617338615871238e-01	 9.773245140524701e-01	-4.290813281070749e-01
 3.524387810302566e-01	 9.546687603342253e-01	-3.436842053376210e-01
 3.435553138209042e-01	 9.579014994651591e-01	-3.597991646083747e-01
 3.346607516263077e-01	 9.610451173868451e-01	-3.725577056447618e-01
 3.257563657209165e-01	 9.640997492606663e-01	-3.822318016381820e-01
 3.168434192887848e-01	 9.670655530963612e-01	-3.890970036233878e-01
 3.079231669433990e-01	 9.699427094378964e-01	-3.934312533886350e-01
 2.989968542594397e-01	 9.727314210382738e-01	-3.955137125975750e-01
 2.900657173167389e-01	 9.754319125237315e-01	-3.956236123574319e-01
 2.811309822566700e-01	 9.780444300478275e-01	-3.940391273191368e-01
 2.721938648511885e-01	 9.805692409358722e-01	-3.910362782597958e-01
 2.632555700847232e-01	 9.830066333202168e-01	-3.868878669018541e-01
 3.544759994177147e-01	 9.601870768679494e-01	-2.476096787030024e-01
 3.455411826869210e-01	 9.634385023522407e-01	-2.693323009183133e-01
 3.365952068380205e-01	 9.666002914757864e-01	-2.876611682640888e-01
 3.276393504938698e-01	 9.696725801812486e-01	-3.028635852699426e-01
 3.186748841401651e-01	 9.726555273917161e-01	-3.152100566864862e-01
 3.097030696424939e-01	 9.755493146947630e-01	-3.249730865739773e-01
 3.007251597753903e-01	 9.783541460153736e-01	-3.324259939605905e-01
 2.917423977636564e-01	 9.810702472782046e-01	-3.378417494193569e-01
 2.827560168361883e-01	 9.836978660596646e-01	-3.414918367450310e-01
 2.737672397925249e-01	 9.862372712302994e-01	-3.436451437783612e-01
 2.647772785823228e-01	 9.886887525879636e-01	-3.445668862380757e-01
 3.565132178051728e-01	 9.657053934016732e-01	-1.527368263726392e-01
 3.475270515529377e-01	 9.689755052393226e-01	-1.798725254644795e-01
 3.385296620497333e-01	 9.721554655647274e-01	-2.035922847232920e-01
 3.295223352668230e-01	 9.752454111018305e-01	-2.241570466150229e-01
 3.205063489915454e-01	 9.782455016870707e-01	-2.418306250118447e-01
 3.114829723415888e-01	 9.811559199516294e-01	-2.568784914872966e-01
 3.024534652913407e-01	 9.839768709924734e-01	-2.695665784423378e-01
 2.934190782105740e-01	 9.867085820326769e-01	-2.801601035092576e-01
 2.843810514157066e-01	 9.893513020715016e-01	-2.889224195196896e-01
 2.753406147338612e-01	 9.919053015247264e-01	-2.961138941896841e-01
 2.662989870799223e-01	 9.943708718557104e-01	-3.019908234773663e-01
 3.585504361926311e-01	 9.712237099353970e-01	-5.895068876133891e-02
 3.495129204189545e-01	 9.745125081264047e-01	-9.130106030266383e-02
 3.404641172614459e-01	 9.777106396536687e-01	-1.202290172521452e-01
 3.314053200397764e-01	 9.808182420224123e-01	-1.459874891744142e-01
 3.223378138429257e-01	 9.838354759824254e-01	-1.688319964465053e-01
 3.132628750406833e-01	 9.867625252084955e-01	-1.890194247630608e-01
 3.041817708072912e-01	 9.895995959695731e-01	-2.068068166204244e-01
 2.950957586574917e-01	 9.923469167871496e-01	-2.224501843256963e-01
 2.860060859952250e-01	 9.950047380833390e-01	-2.362033489419559e-01
 2.769139896751975e-01	 9.975733318191534e-01	-2.483168094115351e-01
 2.678206955775219e-01	 1.000052991123458e+00	-2.590366459253040e-01
 3.605876545800891e-01	 9.767420264691207e-01	 3.385810985565119e-02
 3.514987892849711e-01	 9.800495110134865e-01	-3.504662980843509e-03
 3.423985724731589e-01	 9.832658137426106e-01	-3.745480193474204e-02
 3.332883048127296e-01	 9.863910729429942e-01	-6.823561469169315e-02
 3.241692786943059e-01	 9.894254502777799e-01	-9.609276682053913e-02
 3.150427777397782e-01	 9.923691304653623e-01	-1.212730454529858e-01
 3.059100763232419e-01	 9.952223209466731e-01	-1.440231399741134e-01
 2.967724391044091e-01	 9.979852515416218e-01	-1.645884443906849e-01
 2.876311205747433e-01	 1.000658174095176e+00	-1.832118858919292e-01
 2.784873646165339e-01	 1.003241362113581e+00	-2.001327839614775e-01
 2.693424040751215e-01	 1.005735110391204e+00	-2.155857442080675e-01
 3.626248729675473e-01	 9.822603430028447e-01	 1.257934885791481e-01
 3.534846581509880e-01	 9.855865139005685e-01	 8.362450001658628e-02
 3.443330276848715e-01	 9.888209878315515e-01	 4.484157683984025e-02
 3.351712895856829e-01	 9.919639038635762e-01	 9.212601035174295e-03
 3.260007435456863e-01	 9.950154245731350e-01	-2.349671749180438e-02
 3.168226804388731e-01	 9.979757357222284e-01	-5.352159469353035e-02
 3.076383818391923e-01	 1.000845045923773e+00	-8.109694309670834e-02
 2.984491195513267e-01	 1.003623586296094e+00	-1.064561642367385e-01
 2.892561551542617e-01	 1.006311610107014e+00	-1.298299674506467e-01
 2.800607395578702e-01	 1.008909392408007e+00	-1.514452194822615e-01
 2.708641125727211e-01	 1.011417229658951e+00	-1.715238291944843e-01
 3.646620913550053e-01	 9.877786595365686e-01	 2.169540329965978e-01
 3.554705270170048e-01	 9.911235167876503e-01	 1.701889757138684e-01
 3.462674828965843e-01	 9.943761619204931e-01	 1.267661078367714e-01
 3.370542743586362e-01	 9.975367347841583e-01	 8.646602828704975e-02
 3.278322083970664e-01	 1.000605398868490e+00	 4.906730310266605e-02
 3.186025831379678e-01	 1.003582340979095e+00	 1.434772067351497e-02
 3.093666873551428e-01	 1.006467770900873e+00	-1.791446977822364e-02
 3.001257999982443e-01	 1.009261921050566e+00	-4.793934137924172e-02
 2.908811897337800e-01	 1.011965046118851e+00	-7.594409919613909e-02
 2.816341144992066e-01	 1.014577422702434e+00	-1.021419208190513e-01
 2.723858210703207e-01	 1.017099348926698e+00	-1.267408323334460e-01
 3.666993097424636e-01	 9.932969760702922e-01	 3.074331143332079e-01
 3.574563958830216e-01	 9.966605196747321e-01	 2.562861431346870e-01
 3.482019381082973e-01	 9.999313360094344e-01	 2.084196705005108e-01
 3.389372591315895e-01	 1.003109565704740e+00	 1.636284996575808e-01
 3.296636732484466e-01	 1.006195373163844e+00	 1.217054940402229e-01
 3.203824858370627e-01	 1.009188946235962e+00	 8.244284068969554e-02
 3.110949928710934e-01	 1.012090495877973e+00	 4.563329718619569e-02
 3.018024804451619e-01	 1.014900255805039e+00	 1.107141708195813e-02
 2.925062243132982e-01	 1.017618482130688e+00	-2.144525102821193e-02
 2.832074894405429e-01	 1.020245452996861e+00	-5.211499550900811e-02
 2.739075295679202e-01	 1.022781468194445e+00	-8.113080926644267e-02
 2.586904445919245e-01	 9.659602755169761e-01	-5.136192581807935e-01
 2.499071653025828e-01	 9.682698016206163e-01	-4.926386167904311e-01
 2.411250638657777e-01	 9.704940512830176e-01	-4.706781765055488e-01
 2.323452902325309e-01	 9.726333667455381e-01	-4.479376911412998e-01
 2.235689822394855e-01	 9.746881091818042e-01	-4.246102544358634e-01
 2.147972652634492e-01	 9.766586583015293e-01	-4.008816290011832e-01
 2.060312518893393e-01	 9.785454119482200e-01	-3.769296197453831e-01
 1.972720415915949e-01	 9.803487856912375e-01	-3.529234936044419e-01
 1.885207204291025e-01	 9.820692124126955e-01	-3.290234472333537e-01
 1.797783607536635e-01	 9.837071418896611e-01	-3.053801240477805e-01
 1.710460209320194e-01	 9.852630403721248e-01	-2.821341817987761e-01
 2.602121530895242e-01	 9.716423947847230e-01	-4.712794727569438e-01
 2.513772074514214e-01	 9.739655063360313e-01	-4.556194876464743e-01
 2.425434465943999e-01	 9.762028398199766e-01	-4.388490251398158e-01
 2.337120272338988e-01	 9.783547394911002e-01	-4.211712459824675e-01
 2.248840938997177e-01	 9.804215686475796e-01	-4.027827858180220e-01
 2.160607785885282e-01	 9.824037092327149e-01	-3.838730523850660e-01
 2.072432004298648e-01	 9.843015614302683e-01	-3.646235681458263e-01
 1.984324653656631e-01	 9.861155432541272e-01	-3.452073603050065e-01
 1.896296658433912e-01	 9.878460901327702e-01	-3.257883999439453e-01
 1.808358805228027e-01	 9.894936544890123e-01	-3.065210917506231e-01
 1.720521739963254e-01	 9.910587053154902e-01	-2.875498156103964e-01
 2.617338615871238e-01	 9.773245140524701e-01	-4.290813281070749e-01
 2.528472496002602e-01	 9.796612110514469e-01	-4.186238932208513e-01
 2.439618293230222e-01	 9.819116283569357e-01	-4.069368283538268e-01
 2.350787642352668e-01	 9.840761122366629e-01	-3.942245610251538e-01
 2.261992055599501e-01	 9.861550281133546e-01	-3.806850436494109e-01
 2.173242919136074e-01	 9.881487601639002e-01	-3.665090229070369e-01
 2.084551489703903e-01	 9.900577109123165e-01	-3.518793555436592e-01
 1.995928891397313e-01	 9.918823008170168e-01	-3.369703726520270e-01
 1.907386112576801e-01	 9.936229678528448e-01	-3.219472942424448e-01
 1.818934002919418e-01	 9.952801670883629e-01	-3.069656956758640e-01
 1.730583270606314e-01	 9.968543702588556e-01	-2.921710272813005e-01
 2.632555700847232e-01	 9.830066333202168e-01	-3.868878669018541e-01
 2.543172917490991e-01	 9.853569157668625e-01	-3.815177439450301e-01
 2.453802120516445e-01	 9.876204168938946e-01	-3.748085943324275e-01
 2.364455012366345e-01	 9.897974849822243e-01	-3.669640288465299e-01
 2.275143172201824e-01	 9.918884875791302e-01	-3.581811488650795e-01
 2.185878052386866e-01	 9.938938110950858e-01	-3.486497917679974e-01
 2.096670975109158e-01	 9.958138603943650e-01	-3.385518237971468e-01
 2.007533129137995e-01	 9.976490583799061e-01	-3.280604825103106e-01
 1.918475566719690e-01	 9.993998455729194e-01	-3.173397707252694e-01
 1.829509200610810e-01	 1.001066679687714e+00	-3.065439035916704e-01
 1.740644801249374e-01	 1.002650035202221e+00	-2.958168101945304e-01
 2.647772785823228e-01	 9.886887525879636e-01	-3.445668862380757e-01
 2.557873338979377e-01	 9.910526204822778e-01	-3.441715109781032e-01
 2.467985947802667e-01	 9.933292054308535e-01	-3.423357412547623e-01
 2.378122382380023e-01	 9.955188577277865e-01	-3.392603432430250e-01
 2.288294288804146e-01	 9.976219470449056e-01	-3.351394557781551e-01
 2.198513185637657e-01	 9.996388620262714e-01	-3.301598155931660e-01
 2.108790460514412e-01	 1.001570009876413e+00	-3.245000310631347e-01
 2.019137366878679e-01	 1.003415815942796e+00	-3.183299066790317e-01
 1.929565020862578e-01	 1.005176723292994e+00	-3.118098202246076e-01
 1.840084398302202e-01	 1.006853192287065e+00	-3.050901543761344e-01
 1.750706331892434e-01	 1.008445700145587e+00	-2.983107841725765e-01
 2.662989870799223e-01	 9.943708718557104e-01	-3.019908234773663e-01
 2.572573760467765e-01	 9.967483251976931e-01	-3.064601165453316e-01
 2.482169775088890e-01	 9.990379939678126e-01	-3.093939908973686e-01
 2.391789752393702e-01	 1.001240230473349e+00	-3.109883948917669e-01
 2.301445405406469e-01	 1.003355406510680e+00	-3.114324486219635e-01
 2.211148318888447e-01	 1.005383912957457e+00	-3.109076527133183e-01
 2.120909945919670e-01	 1.007326159358462e+00	-3.095871467124551e-01
 2.030741604619360e-01	 1.009182573505686e+00	-3.076350193582793e-01
 1.940654475005467e-01	 1.010953601013069e+00	-3.052056727978751e-01
 1.850659595993594e-01	 1.012639704886416e+00	-3.024432425203503e-01
 1.760767862535494e-01	 1.014241365088952e+00	-2.994810745313869e-01
 2.678206955775219e-01	 1.000052991123458e+00	-2.590366459253040e-01
 2.587274181956152e-01	 1.002444029913109e+00	-2.682628279775079e-01
 2.496353602375111e-01	 1.004746782504771e+00	-2.758632658338955e-01
 2.405457122407379e-01	 1.006961603218910e+00	-2.820271705413351e-01
 2.314596522008792e-01	 1.009088865976456e+00	-2.869366415943593e-01
 2.223783452139239e-01	 1.011128963888642e+00	-2.907658629628980e-01
 2.133029431324924e-01	 1.013082308840510e+00	-2.936803498093448e-01
 2.042345842360042e-01	 1.014949331068576e+00	-2.958362482811334e-01
 1.951743929148355e-01	 1.016730478733144e+00	-2.973796904964447e-01
 1.861234793684987e-01	 1.018426217485767e+00	-2.984462065702091e-01
 1.770829393178553e-01	 1.020037030032317e+00	-2.991601952542187e-01
 2.693424040751215e-01	 1.005735110391204e+00	-2.155857442080675e-01
 2.601974603444540e-01	 1.008139734628524e+00	-2.294631553026161e-01
 2.510537429661333e-01	 1.010455571041730e+00	-2.416275900839655e-01
 2.419124492421057e-01	 1.012682975964472e+00	-2.522596555886460e-01
 2.327747638611115e-01	 1.014822325442231e+00	-2.615324822715137e-01
 2.236418585390030e-01	 1.016874014819828e+00	-2.696109108572897e-01
 2.145148916730180e-01	 1.018838458322558e+00	-2.766507310197239e-01
 2.053950080100724e-01	 1.020716088631465e+00	-2.827979743438402e-01
 1.962833383291243e-01	 1.022507356453218e+00	-2.881882637574886e-01
 1.871809991376378e-01	 1.024212730085118e+00	-2.929462213386191e-01
 1.780890923821614e-01	 1.025832694975683e+00	-2.971849361249461e-01
 2.708641125727211e-01	 1.011417229658951e+00	-1.715238291944843e-01
 2.616675024932926e-01	 1.013835439343939e+00	-1.899487522522687e-01
 2.524721256947556e-01	 1.016164359578689e+00	-2.065749930804524e-01
 2.432791862434737e-01	 1.018404348710034e+00	-2.215727399196550e-01
 2.340898755213437e-01	 1.020555784908007e+00	-2.351042582517535e-01
 2.249053718640820e-01	 1.022619065751013e+00	-2.473230720158792e-01
 2.157268402135435e-01	 1.024594607804607e+00	-2.583731978110109e-01
 2.065554317841406e-01	 1.026482846194355e+00	-2.683884346173668e-01
 1.973922837434132e-01	 1.028284234173293e+00	-2.774917112851827e-01
 1.882385189067770e-01	 1.029999242684468e+00	-2.857944937517192e-01
 1.790952454464673e-01	 1.031628359919048e+00	-2.933962536641195e-01
 2.723858210703207e-01	 1.017099348926698e+00	-1.267408323334460e-01
 2.631375446421313e-01	 1.019531144059355e+00	-1.496113205467697e-01
 2.538905084233777e-01	 1.021873148115648e+00	-1.705974168240019e-01
 2.446459232448415e-01	 1.024125721455596e+00	-1.898571268729361e-01
 2.354049871815759e-01	 1.026289244373782e+00	-2.075400069096522e-01
 2.261688851891612e-01	 1.028364116682199e+00	-2.237863427059312e-01
 2.169387887540690e-01	 1.030350757286655e+00	-2.387263828185668e-01
 2.077158555582088e-01	 1.032249603757244e+00	-2.524796285971029e-01
 1.985012291577020e-01	 1.034061111893368e+00	-2.651541832770272e-01
 1.892960386759162e-01	 1.035785755283820e+00	-2.768461621763452e-01
 1.801013985107733e-01	 1.037424024862414e+00	-2.876391657124997e-01
 2.739075295679202e-01	 1.022781468194445e+00	-8.113080926644267e-02
 2.646075867909700e-01	 1.025226848774770e+00	-1.083465173352711e-01
 2.553088911520000e-01	 1.027581936652607e+00	-1.335906260982198e-01
 2.460126602462092e-01	 1.029847094201158e+00	-1.570072452152709e-01
 2.367200988418082e-01	 1.032022703839557e+00	-1.787314281343586e-01
 2.274323985142403e-01	 1.034109167613384e+00	-1.988883523806506e-01
 2.181507372945945e-01	 1.036106906768704e+00	-2.175925552494409e-01
 2.088762793322770e-01	 1.038016361320134e+00	-2.349472275663946e-01
 1.996101745719909e-01	 1.039837989613443e+00	-2.510435678719398e-01
 1.903535584450554e-01	 1.041572267883170e+00	-2.659601991036449e-01
 1.811075515750794e-01	 1.043219689805780e+00	-2.797626495340682e-01
 1.710460209320194e-01	 9.852630403721248e-01	-2.821341817987761e-01
 1.623247450814289e-01	 9.867373901572035e-01	-2.591478394047373e-01
 1.536155628187734e-01	 9.881306891600278e-01	-2.363271765955455e-01
 1.449194890231618e-01	 9.894434504817674e-01	-2.138637325690427e-01
 1.362375236119771e-01	 9.906762019752346e-01	-1.919392202758408e-01
 1.275706513303033e-01	 9.918294858085044e-01	-1.707252656336680e-01
 1.189198415536472e-01	 9.929038580269770e-01	-1.503831996000038e-01
 1.102860481038653e-01	 9.938998881143070e-01	-1.310639028322358e-01
 1.016702090781854e-01	 9.948181585526061e-01	-1.129077024343763e-01
 9.307324669120247e-02	 9.956592643823281e-01	-9.604432011176822e-02
 8.449606712971601e-02	 9.964238127622254e-01	-8.059287083467037e-02
 1.720521739963254e-01	 9.910587053154902e-01	-2.875498156103964e-01
 1.632795965230845e-01	 9.925417277463638e-01	-2.687531077375702e-01
 1.545191837765310e-01	 9.939432226256752e-01	-2.500387006824312e-01
 1.457719566056509e-01	 9.952637060728364e-01	-2.315793915538507e-01
 1.370389208096946e-01	 9.965037090456772e-01	-2.135376011095520e-01
 1.283210669263640e-01	 9.976637769014957e-01	-1.960651318233806e-01
 1.196193700333745e-01	 9.987444689565474e-01	-1.793029800774217e-01
 1.109347895632998e-01	 9.997463580443910e-01	-1.633812021827010e-01
 1.022682691315865e-01	 1.000670030073504e+00	-1.484188336963816e-01
 9.362073637762135e-02	 1.001516083584577e+00	-1.345238613347091e-01
 8.499310281871438e-02	 1.002285129307886e+00	-1.217932465319729e-01
 1.730583270606314e-01	 9.968543702588556e-01	-2.921710272813005e-01
 1.642344479647398e-01	 9.983460653355235e-01	-2.774502899556666e-01
 1.554228047342884e-01	 9.997557560913223e-01	-2.627093224433299e-01
 1.466244241881401e-01	 1.001083961663906e+00	-2.481059483702044e-01
 1.378403180074122e-01	 1.002331216116120e+00	-2.337870669419004e-01
 1.290714825224245e-01	 1.003498067994486e+00	-2.198884246522805e-01
 1.203188985131018e-01	 1.004585079886118e+00	-2.065344425293860e-01
 1.115835310227343e-01	 1.005592827974475e+00	-1.938380985990547e-01
 1.028663291849876e-01	 1.006521901594402e+00	-1.819008650158640e-01
 9.416822606404014e-02	 1.007372902786826e+00	-1.708126991252756e-01
 8.549013850771267e-02	 1.008146445853546e+00	-1.606520874837631e-01
 1.740644801249374e-01	 1.002650035202221e+00	-2.958168101945304e-01
 1.651892994063953e-01	 1.004150402924683e+00	-2.850474502883209e-01
 1.563264256920459e-01	 1.005568289556970e+00	-2.741374893314914e-01
 1.474768917706293e-01	 1.006904217254975e+00	-2.632334865279633e-01
 1.386417152051297e-01	 1.008158723186563e+00	-2.524705302893633e-01
 1.298218981184852e-01	 1.009332359087478e+00	-2.419720184165488e-01
 1.210184269928292e-01	 1.010425690815688e+00	-2.318494953649815e-01
 1.122322724821688e-01	 1.011439297904559e+00	-2.222025462647350e-01
 1.034643892383887e-01	 1.012373773115299e+00	-2.131187471416167e-01
 9.471571575045901e-02	 1.013229721989075e+00	-2.046736705538112e-01
 8.598717419671099e-02	 1.014007762399206e+00	-1.969309456650477e-01
 1.750706331892434e-01	 1.008445700145587e+00	-2.983107841725765e-01
 1.661441508480507e-01	 1.009954740513843e+00	-2.913574384896207e-01
 1.572300466498034e-01	 1.011380823022617e+00	-2.841265682973226e-01
 1.483293593531185e-01	 1.012724472846044e+00	-2.767571194980576e-01
 1.394431124028472e-01	 1.013986230257005e+00	-2.693760222047281e-01
 1.305723137145458e-01	 1.015166650180469e+00	-2.620979742466218e-01
 1.217179554725565e-01	 1.016266301745259e+00	-2.550252834536186e-01
 1.128810139416033e-01	 1.017285767834644e+00	-2.482477683848385e-01
 1.040624492917898e-01	 1.018225644636197e+00	-2.418427169355564e-01
 9.526320543687783e-02	 1.019086541191324e+00	-2.358749020159276e-01
 8.648420988570930e-02	 1.019869078944866e+00	-2.303966532940018e-01
 1.760767862535494e-01	 1.014241365088952e+00	-2.994810745313869e-01
 1.670990022897063e-01	 1.015759078103003e+00	-2.961977633579038e-01
 1.581336676075609e-01	 1.017193356488264e+00	-2.924847145061005e-01
 1.491818269356077e-01	 1.018544728437113e+00	-2.884768553352712e-01
 1.402445096005648e-01	 1.019813737327447e+00	-2.842965534604072e-01
 1.313227293106064e-01	 1.021000941273460e+00	-2.800533984649904e-01
 1.224174839522839e-01	 1.022106912674829e+00	-2.758440442343524e-01
 1.135297554010378e-01	 1.023132237764728e+00	-2.717521115732229e-01
 1.046605093451908e-01	 1.024077516157095e+00	-2.678481505273318e-01
 9.581069512329667e-02	 1.024943360393573e+00	-2.641896615992376e-01
 8.698124557470767e-02	 1.025730395490526e+00	-2.608211748131524e-01
 1.770829393178553e-01	 1.020037030032317e+00	-2.991601952542187e-01
 1.680538537313617e-01	 1.021563415692164e+00	-2.993904705606347e-01
 1.590372885653184e-01	 1.023005889953911e+00	-2.990247445351741e-01
 1.500342945180968e-01	 1.024364984028183e+00	-2.981974659207891e-01
 1.410459067982822e-01	 1.025641244397890e+00	-2.970299804702474e-01
 1.320731449066670e-01	 1.026835232366452e+00	-2.956303057805623e-01
 1.231170124320112e-01	 1.027947523604400e+00	-2.940929687332230e-01
 1.141784968604723e-01	 1.028978707694812e+00	-2.924989052061320e-01
 1.052585693985919e-01	 1.029929387677992e+00	-2.909154214767726e-01
 9.635818480971549e-02	 1.030800179595822e+00	-2.893962164891990e-01
 8.747828126370602e-02	 1.031591712036186e+00	-2.879814639248810e-01
 1.780890923821614e-01	 1.025832694975683e+00	-2.971849361249461e-01
 1.690087051730172e-01	 1.027367753281324e+00	-3.007620246039249e-01
 1.599409095230759e-01	 1.028818423419559e+00	-3.035640138685483e-01
 1.508867621005860e-01	 1.030185239619252e+00	-3.057283606341343e-01
 1.418473039959998e-01	 1.031468751468333e+00	-3.073788757539191e-01
 1.328235605027276e-01	 1.032669523459443e+00	-3.086254871197234e-01
 1.238165409117385e-01	 1.033788134533971e+00	-3.095640672936426e-01
 1.148272383199068e-01	 1.034825177624896e+00	-3.102763255507708e-01
 1.058566294519930e-01	 1.035781259198890e+00	-3.108297637517028e-01
 9.690567449613430e-02	 1.036656998798071e+00	-3.112776952095624e-01
 8.797531695270433e-02	 1.037453028581846e+00	-3.116593254777058e-01
 1.790952454464673e-01	 1.031628359919048e+00	-2.933962536641195e-01
 1.699635566146726e-01	 1.033172090870484e+00	-3.001431947772617e-01
 1.608445304808334e-01	 1.034630956885205e+00	-3.059242985234887e-01
 1.517392296830752e-01	 1.036005495210321e+00	-3.108834642896281e-01
 1.426487011937173e-01	 1.037296258538775e+00	-3.151504027747269e-01
 1.335739760987882e-01	 1.038503814552434e+00	-3.188403819192778e-01
 1.245160693914659e-01	 1.039628745463541e+00	-3.220540398420422e-01
 1.154759797793413e-01	 1.040671647554980e+00	-3.248772644760791e-01
 1.064546895053941e-01	 1.041633130719787e+00	-3.273811393266728e-01
 9.745316418255319e-02	 1.042513818000320e+00	-3.296219545130361e-01
 8.847235264170267e-02	 1.043314345127507e+00	-3.316412820098273e-01
 1.801013985107733e-01	 1.037424024862414e+00	-2.876391657124997e-01
 1.709184080563281e-01	 1.038976428459644e+00	-2.973689449220664e-01
 1.617481514385909e-01	 1.040443490350853e+00	-3.059316806417463e-01
 1.525916972655644e-01	 1.041825750801390e+00	-3.134810991646080e-01
 1.434500983914348e-01	 1.043123765609218e+00	-3.201561949742224e-01
 1.343243916948488e-01	 1.044338105645426e+00	-3.260809547009895e-01
 1.252155978711932e-01	 1.045469356393111e+00	-3.313641505001717e-01
 1.161247212387758e-01	 1.046518117485065e+00	-3.360992025673029e-01
 1.070527495587952e-01	 1.047485002240685e+00	-3.403641102244253e-01
 9.800065386897203e-02	 1.048370637202569e+00	-3.442214507363350e-01
 8.896938833070098e-02	 1.049175661673167e+00	-3.477184447689385e-01
 1.811075515750794e-01	 1.043219689805780e+00	-2.797626495340682e-01
 1.718732594979836e-01	 1.044780766048804e+00	-2.922783268731970e-01
 1.626517723963483e-01	 1.046256023816500e+00	-3.034164379011015e-01
 1.534441648480536e-01	 1.047646006392460e+00	-3.133438709610998e-01
 1.442514955891523e-01	 1.048951272679660e+00	-3.222122388405322e-01
 1.350748072909094e-01	 1.050172396738416e+00	-3.301575757654365e-01
 1.259151263509206e-01	 1.051309967322682e+00	-3.373001063843994e-01
 1.167734626982103e-01	 1.052364587415149e+00	-3.437440864759775e-01
 1.076508096121963e-01	 1.053336873761583e+00	-3.495777148254660e-01
 9.854814355539088e-02	 1.054227456404818e+00	-3.548731154462761e-01
 8.946642401969931e-02	 1.055036978218827e+00	-3.596863890374227e-01
 8.449606712971601e-02	 9.964238127622254e-01	-8.059287083467037e-02
 7.593956042026562e-02	 9.971124225297652e-01	-6.658359060038155e-02
 6.740460030920367e-02	 9.977257237623758e-01	-5.399198008937578e-02
 5.889204415514508e-02	 9.982643573398924e-01	-4.283923110871779e-02
 5.040273283361175e-02	 9.987289745085518e-01	-3.313627426406285e-02
 4.193749065368727e-02	 9.991202364468812e-01	-2.488413422542646e-02
 3.349712528648568e-02	 9.994388138338141e-01	-1.807432314890001e-02
 2.508242770522976e-02	 9.996853864193535e-01	-1.268927020911015e-02
 1.669417213672672e-02	 9.998606425980919e-01	-8.702785088353870e-03
 8.333116024021406e-03	 9.999652789858906e-01	-6.080553178075654e-03
 0.000000000000000e+00	 1.000000000000000e+00	-4.780660187830854e-03
 8.499310281871438e-02	 1.002285129307886e+00	-1.217932465319729e-01
 7.638626371685540e-02	 1.002977789721117e+00	-1.102279060389808e-01
 6.780109795808134e-02	 1.003594698608037e+00	-9.979814847659174e-02
 5.923846794429300e-02	 1.004136500618363e+00	-9.053845549360595e-02
 5.069921949733888e-02	 1.004603850829190e+00	-8.247244177099855e-02
 4.218418177517956e-02	 1.004997414308333e+00	-7.561320323382059e-02
 3.369416719993561e-02	 1.005317865679895e+00	-6.996370557525822e-02
 2.522997139761347e-02	 1.005565888692409e+00	-6.551721100064611e-02
 1.679237314929570e-02	 1.005742175789845e+00	-6.225774097699777e-02
 8.382134353574473e-03	 1.005847427685808e+00	-6.016057267802655e-02
 0.000000000000000e+00	 1.005882352941176e+00	-5.919276674688589e-02
 8.549013850771267e-02	 1.008146445853546e+00	-1.606520874837631e-01
 7.683296701344521e-02	 1.008843156912468e+00	-1.513955820398172e-01
 6.819759560695902e-02	 1.009463673453698e+00	-1.430095384390784e-01
 5.958489173344091e-02	 1.010008643896832e+00	-1.355398154435106e-01
 5.099570616106600e-02	 1.010478727149829e+00	-1.290208063649185e-01
 4.243087289667184e-02	 1.010874592169786e+00	-1.234757818768957e-01
 3.389120911338553e-02	 1.011196917525977e+00	-1.189172752672398e-01
 2.537751508999718e-02	 1.011446390965464e+00	-1.153475079992177e-01
 1.689057416186468e-02	 1.011623708981599e+00	-1.127588532894874e-01
 8.431152683127536e-03	 1.011729576385725e+00	-1.111343353434924e-01
 0.000000000000000e+00	 1.011764705882353e+00	-1.104481617967696e-01
 8.598717419671099e-02	 1.014007762399206e+00	-1.969309456650477e-01
 7.727967031003502e-02	 1.014708524103820e+00	-1.898473712076418e-01
 6.859409325583668e-02	 1.015332648299359e+00	-1.833863109244502e-01
 5.993131552258881e-02	 1.015880787175302e+00	-1.776031234146940e-01
 5.129219282479312e-02	 1.016353603470467e+00	-1.725411098606502e-01
 4.267756401816410e-02	 1.016751770031238e+00	-1.682318530628111e-01
 3.408825102683543e-02	 1.017075969372058e+00	-1.646956010405214e-01
 2.552505878238088e-02	 1.017326893238518e+00	-1.619416929828468e-01
 1.698877517443366e-02	 1.017505242173352e+00	-1.599690252269861e-01
 8.480171012680608e-03	 1.017611725085642e+00	-1.587665548172268e-01
 0.000000000000000e+00	 1.017647058823530e+00	-1.583138381250446e-01
 8.648420988570930e-02	 1.019869078944866e+00	-2.303966532940018e-01
 7.772637360662482e-02	 1.020573891295172e+00	-2.253492930523535e-01
 6.899059090471435e-02	 1.021201623145020e+00	-2.206938827369234e-01
 6.027773931173674e-02	 1.021752930453772e+00	-2.164934382904837e-01
 5.158867948852026e-02	 1.022228479791106e+00	-2.127983320109053e-01
 4.292425513965640e-02	 1.022628947892690e+00	-2.096466294293444e-01
 3.428529294028534e-02	 1.022955021218139e+00	-2.070644728397255e-01
 2.567260247476458e-02	 1.023207395511573e+00	-2.050665092226618e-01
 1.708697618700264e-02	 1.023386775365106e+00	-2.036563601615970e-01
 8.529189342233675e-03	 1.023493873785559e+00	-2.028271312522785e-01
 0.000000000000000e+00	 1.023529411764706e+00	-2.025619584030496e-01
 8.698124557470767e-02	 1.025730395490526e+00	-2.608211748131524e-01
 7.817307690321464e-02	 1.026439258486523e+00	-2.576724857694748e-01
 6.938708855359203e-02	 1.027070597990681e+00	-2.547027781099684e-01
 6.062416310088464e-02	 1.027625073732242e+00	-2.519809167546745e-01
 5.188516615224738e-02	 1.028103356111744e+00	-2.495625417264957e-01
 4.317094626114867e-02	 1.028506125754143e+00	-2.474904044620123e-01
 3.448233485373526e-02	 1.028834073064220e+00	-2.457947528508413e-01
 2.582014616714827e-02	 1.029087897784628e+00	-2.444937626836525e-01
 1.718517719957162e-02	 1.029268308556859e+00	-2.435940130456542e-01
 8.578207671786743e-03	 1.029376022485476e+00	-2.430910030841780e-01
 0.000000000000000e+00	 1.029411764705882e+00	-2.429697074756811e-01
 8.747828126370602e-02	 1.031591712036186e+00	-2.879814639248810e-01
 7.861978019980441e-02	 1.032304625677875e+00	-2.865930630739433e-01
 6.978358620246969e-02	 1.032939572836342e+00	-2.851884853366498e-01
 6.097058689003257e-02	 1.033497217010712e+00	-2.838406697392690e-01
 5.218165281597451e-02	 1.033978232432383e+00	-2.826087533696766e-01
 4.341763738264093e-02	 1.034383303615595e+00	-2.815384086976076e-01
 3.467937676718518e-02	 1.034713124910302e+00	-2.806622316844445e-01
 2.596768985953198e-02	 1.034968400057684e+00	-2.800001782958930e-01
 1.728337821214060e-02	 1.035149841748613e+00	-2.795600468900110e-01
 8.627226001339810e-03	 1.035258171185393e+00	-2.793380038484736e-01
 0.000000000000000e+00	 1.035294117647059e+00	-2.793191496859606e-01
 8.797531695270433e-02	 1.037453028581846e+00	-3.116593254777058e-01
 7.906648349639421e-02	 1.038169992869226e+00	-3.118919758962773e-01
 7.018008385134736e-02	 1.038808547682003e+00	-3.119313182682539e-01
 6.131701067918046e-02	 1.039369360289182e+00	-3.118526237379271e-01
 5.247813947970165e-02	 1.039853108753022e+00	-3.117167879216236e-01
 4.366432850413321e-02	 1.040260481477047e+00	-3.115706708012622e-01
 3.487641868063510e-02	 1.040592176756383e+00	-3.114474894424921e-01
 2.611523355191569e-02	 1.040848902330739e+00	-3.113672610984519e-01
 1.738157922470959e-02	 1.041031374940367e+00	-3.113372941053090e-01
 8.676244330892875e-03	 1.041140319885310e+00	-3.113527238571185e-01
 0.000000000000000e+00	 1.041176470588235e+00	-3.113970910355048e-01
 8.847235264170267e-02	 1.043314345127507e+00	-3.316412820098273e-01
 7.951318679298398e-02	 1.044035360060578e+00	-3.333548787410603e-01
 7.057658150022503e-02	 1.044677522527664e+00	-3.347162824814749e-01
 6.166343446832839e-02	 1.045241503567652e+00	-3.358013867944463e-01
 5.277462614342877e-02	 1.045727985073660e+00	-3.366711388307193e-01
 4.391101962562550e-02	 1.046137659338499e+00	-3.373718833264170e-01
 3.507346059408502e-02	 1.046471228602465e+00	-3.379357614618210e-01
 2.626277724429940e-02	 1.046729404603794e+00	-3.383811620672712e-01
 1.747978023727856e-02	 1.046912908132120e+00	-3.387132225182437e-01
 8.725262660445942e-03	 1.047022468585227e+00	-3.389243765370513e-01
 0.000000000000000e+00	 1.047058823529412e+00	-3.389949459932078e-01
 8.896938833070098e-02	 1.049175661673167e+00	-3.477184447689385e-01
 7.995989008957377e-02	 1.049900727251929e+00	-3.507720005268675e-01
 7.097307914910270e-02	 1.050546497373325e+00	-3.533329459324710e-01
 6.200985825747629e-02	 1.051113646846122e+00	-3.554761189919624e-01
 5.307111280715589e-02	 1.051602861394299e+00	-3.572608423613453e-01
 4.415771074711777e-02	 1.052014837199951e+00	-3.587312729776806e-01
 3.527050250753493e-02	 1.052350280448546e+00	-3.599168085645297e-01
 2.641032093668310e-02	 1.052609906876849e+00	-3.608325484366675e-01
 1.757798124984755e-02	 1.052794441323874e+00	-3.614798058798230e-01
 8.774280989999009e-03	 1.052904617285144e+00	-3.618466692437869e-01
 0.000000000000000e+00	 1.052941176470588e+00	-3.619086087657122e-01
 8.946642401969931e-02	 1.055036978218827e+00	-3.596863890374227e-01
 8.040659338616360e-02	 1.055766094443281e+00	-3.639380197374322e-01
 7.136957679798037e-02	 1.056415472218986e+00	-3.675753139299895e-01
 6.235628204662420e-02	 1.056985790124592e+00	-3.706704072539151e-01
 5.336759947088304e-02	 1.057477737714937e+00	-3.732793522634172e-01
 4.440440186861006e-02	 1.057892015061404e+00	-3.754424751989651e-01
 3.546754442098484e-02	 1.058229332294627e+00	-3.771847916307309e-01
 2.655786462906681e-02	 1.058490409149904e+00	-3.785164783478012e-01
 1.767618226241653e-02	 1.058675974515627e+00	-3.794333986909444e-01
 8.823299319552077e-03	 1.058786765985061e+00	-3.799176783917377e-01
 0.000000000000000e+00	 1.058823529411765e+00	-3.799383288608191e-01
 1.058823529411765e+00	 0.000000000000000e+00	 2.653661001396291e+01
 1.058786765985061e+00	 8.823299319551775e-03	 2.653377567917105e+01
 1.058675974515627e+00	 1.767618226241625e-02	 2.652345483534572e+01
 1.058490409149904e+00	 2.655786462906657e-02	 2.650564524101988e+01
 1.058229332294627e+00	 3.546754442098465e-02	 2.648033767888425e+01
 1.057892015061404e+00	 4.440440186860988e-02	 2.644751600732947e+01
 1.057477737714937e+00	 5.336759947088288e-02	 2.640715722563584e+01
 1.056985790124592e+00	 6.235628204662411e-02	 2.635923155183885e+01
 1.056415472218986e+00	 7.136957679798030e-02	 2.630370251220800e+01
 1.055766094443281e+00	 8.040659338616357e-02	 2.624052704119378e+01
 1.055036978218827e+00	 8.946642401969931e-02	 2.616965559061614e+01
 1.064705882352941e+00	 0.000000000000000e+00	 2.622257234684062e+01
 1.064668914684978e+00	 8.872317649104842e-03	 2.621980925460693e+01
 1.064557507707380e+00	 1.777438327498523e-02	 2.620981099210662e+01
 1.064370911422959e+00	 2.670540832145028e-02	 2.619257413837686e+01
 1.064108384140708e+00	 3.566458633443455e-02	 2.616808816475391e+01
 1.063769192922856e+00	 4.465109299010216e-02	 2.613633549791241e+01
 1.063352614035576e+00	 5.366408613461002e-02	 2.609729159689894e+01
 1.062857933403062e+00	 6.270270583577203e-02	 2.605092504312503e+01
 1.062284447064647e+00	 7.176607444685798e-02	 2.599719764218994e+01
 1.061631461634632e+00	 8.085329668275336e-02	 2.593606453631732e+01
 1.060898294764487e+00	 8.996345970869765e-02	 2.586747432610551e+01
 1.070588235294118e+00	 0.000000000000000e+00	 2.591713467961093e+01
 1.070551063384895e+00	 8.921335978657909e-03	 2.591442876680543e+01
 1.070439040899134e+00	 1.787258428755421e-02	 2.590473344653549e+01
 1.070251413696014e+00	 2.685295201383399e-02	 2.588804380626552e+01
 1.069987435986790e+00	 3.586162824788447e-02	 2.586434769888133e+01
 1.069646370784308e+00	 4.489778411159444e-02	 2.583362581808156e+01
 1.069227490356215e+00	 5.396057279833714e-02	 2.579585178812074e+01
 1.068730076681532e+00	 6.304912962491994e-02	 2.575099226680268e+01
 1.068153421910308e+00	 7.216257209573562e-02	 2.569900706052596e+01
 1.067496828825984e+00	 8.129999997934317e-02	 2.563984925009015e+01
 1.066759611310147e+00	 9.046049539769598e-02	 2.557346532588754e+01
 1.076470588235294e+00	 0.000000000000000e+00	 2.561992045174848e+01
 1.076433212084812e+00	 8.970354308210972e-03	 2.561725807084627e+01
 1.076320574090887e+00	 1.797078530012320e-02	 2.560784655128760e+01
 1.076131915969069e+00	 2.700049570621767e-02	 2.559167917534547e+01
 1.075866487832871e+00	 3.605867016133440e-02	 2.556874186886894e+01
 1.075523548645761e+00	 4.514447523308671e-02	 2.553901328989618e+01
 1.075102366676853e+00	 5.425705946206427e-02	 2.550246493198652e+01
 1.074602219960002e+00	 6.339555341406784e-02	 2.545906124110206e+01
 1.074022396755969e+00	 7.255906974461332e-02	 2.540875974476761e+01
 1.073362196017336e+00	 8.174670327593296e-02	 2.535151119214195e+01
 1.072620927855808e+00	 9.095753108669431e-02	 2.528725970354392e+01
 1.082352941176471e+00	 0.000000000000000e+00	 2.533056187205271e+01
 1.082315360784729e+00	 9.019372637764037e-03	 2.532792978088611e+01
 1.082202107282641e+00	 1.806898631269217e-02	 2.531878340381286e+01
 1.082012418242124e+00	 2.714803939860138e-02	 2.530311390262400e+01
 1.081745539678952e+00	 3.625571207478431e-02	 2.528090496592846e+01
 1.081400726507213e+00	 4.539116635457899e-02	 2.525213291187090e+01
 1.080977242997491e+00	 5.455354612579140e-02	 2.521676680594695e+01
 1.080474363238472e+00	 6.374197720321575e-02	 2.517476859267497e+01
 1.079891371601631e+00	 7.295556739349099e-02	 2.512609323977814e+01
 1.079227563208687e+00	 8.219340657252275e-02	 2.507068889342938e+01
 1.078482244401467e+00	 9.145456677569264e-02	 2.500849704302041e+01
 1.088235294117647e+00	 0.000000000000000e+00	 2.504869968163927e+01
 1.088197509484646e+00	 9.068390967317104e-03	 2.504608503322647e+01
 1.088083640474394e+00	 1.816718732526115e-02	 2.503718560955047e+01
 1.087892920515179e+00	 2.729558309098509e-02	 2.502199013482895e+01
 1.087624591525034e+00	 3.645275398823423e-02	 2.500047974848338e+01
 1.087277904368665e+00	 4.563785747607127e-02	 2.497262812285966e+01
 1.086852119318130e+00	 5.485003278951852e-02	 2.493840159643560e+01
 1.086346506516942e+00	 6.408840099236365e-02	 2.489775932120026e+01
 1.085760346447291e+00	 7.335206504236863e-02	 2.485065342277976e+01
 1.085092930400039e+00	 8.264010986911256e-02	 2.479702917178023e+01
 1.084343560947128e+00	 9.195160246469099e-02	 2.473682516472277e+01
 1.094117647058824e+00	 0.000000000000000e+00	 2.477398292457655e+01
 1.094079658184563e+00	 9.117409296870169e-03	 2.477137325702446e+01
 1.093965173666148e+00	 1.826538833783013e-02	 2.476270305276187e+01
 1.093773422788234e+00	 2.744312678336880e-02	 2.474795827941217e+01
 1.093503643371114e+00	 3.664979590168413e-02	 2.472711721339202e+01
 1.093155082230117e+00	 4.588454859756354e-02	 2.470015057354838e+01
 1.092726995638768e+00	 5.514651945324565e-02	 2.466702167068241e+01
 1.092218649795412e+00	 6.443482478151158e-02	 2.462768657156838e+01
 1.091629321292952e+00	 7.374856269124629e-02	 2.458209427596086e+01
 1.090958297591390e+00	 8.308681316570232e-02	 2.453018690497545e+01
 1.090204877492788e+00	 9.244863815368931e-02	 2.447189989912698e+01
 1.100000000000000e+00	 0.000000000000000e+00	 2.450606872588159e+01
 1.099961806884480e+00	 9.166427626423232e-03	 2.450345195235990e+01
 1.099846706857901e+00	 1.836358935039912e-02	 2.449499367471530e+01
 1.099653925061289e+00	 2.759067047575250e-02	 2.448067678289778e+01
 1.099382695217195e+00	 3.684683781513404e-02	 2.446047637450674e+01
 1.099032260091569e+00	 4.613123971905583e-02	 2.443435990527275e+01
 1.098601871959407e+00	 5.544300611697279e-02	 2.440228735583755e+01
 1.098090793073882e+00	 6.478124857065949e-02	 2.436421141336043e+01
 1.097498296138613e+00	 7.414506034012400e-02	 2.432007766636001e+01
 1.096823664782741e+00	 8.353351646229215e-02	 2.426982481108734e+01
 1.096066194038448e+00	 9.294567384268761e-02	 2.421338486762217e+01
 1.105882352941177e+00	 0.000000000000000e+00	 2.424462207660138e+01
 1.105843955584397e+00	 9.215445955976296e-03	 2.424198647538566e+01
 1.105728240049655e+00	 1.846179036296809e-02	 2.423372325894846e+01
 1.105534427334344e+00	 2.773821416813620e-02	 2.421981191630205e+01
 1.105261747063277e+00	 3.704387972858397e-02	 2.420022404829590e+01
 1.104909437953022e+00	 4.637793084054810e-02	 2.417492353588756e+01
 1.104476748280046e+00	 5.573949278069992e-02	 2.414386672513433e+01
 1.103962936352352e+00	 6.512767235980742e-02	 2.410700262735098e+01
 1.103367270984275e+00	 7.454155798900164e-02	 2.406427313275521e+01
 1.102689031974094e+00	 8.398021975888194e-02	 2.401561323580416e+01
 1.101927510584108e+00	 9.344270953168597e-02	 2.396095127031766e+01
 1.111764705882353e+00	 0.000000000000000e+00	 2.398931562571661e+01
 1.111726104284314e+00	 9.264464285529368e-03	 2.398664983029762e+01
 1.111609773241408e+00	 1.855999137553707e-02	 2.397856522334725e+01
 1.111414929607399e+00	 2.788575786051991e-02	 2.396503756736279e+01
 1.111140798909358e+00	 3.724092164203388e-02	 2.394603464626668e+01
 1.110786615814474e+00	 4.662462196204038e-02	 2.392151645242644e+01
 1.110351624600684e+00	 5.603597944442703e-02	 2.389143539082981e+01
 1.109835079630822e+00	 6.547409614895532e-02	 2.385573649877415e+01
 1.109236245829935e+00	 7.493805563787932e-02	 2.381435767930048e+01
 1.108554399165445e+00	 8.442692305547175e-02	 2.376722994648107e+01
 1.107788827129768e+00	 9.393974522068431e-02	 2.371427768055557e+01
 1.117647058823530e+00	 0.000000000000000e+00	 2.373982947861729e+01
 1.117608252984231e+00	 9.313482615082433e-03	 2.373712246787437e+01
 1.117491306433162e+00	 1.865819238810604e-02	 2.372920041878916e+01
 1.117295431880454e+00	 2.803330155290360e-02	 2.371603503932744e+01
 1.117019850755439e+00	 3.743796355548379e-02	 2.369758997393881e+01
 1.116663793675926e+00	 4.687131308353266e-02	 2.367382101030258e+01
 1.116226500921323e+00	 5.633246610815418e-02	 2.364467630367428e+01
 1.115707222909291e+00	 6.582051993810323e-02	 2.361009661710357e+01
 1.115105220675596e+00	 7.533455328675696e-02	 2.357001557565913e+01
 1.114419766356796e+00	 8.487362635206155e-02	 2.352435993267106e+01
 1.113650143675428e+00	 9.443678090968259e-02	 2.347304984588209e+01
 1.055036978218827e+00	 8.946642401969931e-02	 2.616965559061614e+01
 1.054227456404818e+00	 9.854814355539050e-02	 2.609123070878125e+01
 1.053336873761583e+00	 1.076508096121960e-01	 2.600540464647765e+01
 1.052364587415149e+00	 1.167734626982101e-01	 2.591213362153014e+01
 1.051309967322681e+00	 1.259151263509203e-01	 2.581136863823206e+01
 1.050172396738417e+00	 1.350748072909093e-01	 2.570305563041963e+01
 1.048951272679660e+00	 1.442514955891522e-01	 2.558713560452435e+01
 1.047646006392460e+00	 1.534441648480535e-01	 2.546354478100778e+01
 1.046256023816500e+00	 1.626517723963483e-01	 2.533221473257595e+01
 1.044780766048804e+00	 1.718732594979836e-01	 2.519307251757432e+01
 1.043219689805779e+00	 1.811075515750794e-01	 2.504604080698209e+01
 1.060898294764487e+00	 8.996345970869765e-02	 2.586747432610551e+01
 1.060084275607067e+00	 9.909563324180937e-02	 2.579157285327734e+01
 1.059188745282480e+00	 1.082488696655971e-01	 2.570851471174796e+01
 1.058211057345233e+00	 1.174222041576446e-01	 2.561825265312787e+01
 1.057150578252252e+00	 1.266146548306477e-01	 2.552073401941677e+01
 1.056006687831408e+00	 1.358252228869699e-01	 2.541590089558768e+01
 1.054778779750103e+00	 1.450528927868697e-01	 2.530369026191011e+01
 1.053466261983529e+00	 1.542966324305428e-01	 2.518403414433620e+01
 1.052068557282147e+00	 1.635553933541058e-01	 2.505685976126662e+01
 1.050585103637964e+00	 1.728281109396391e-01	 2.492208966501673e+01
 1.049015354749145e+00	 1.821137046393853e-01	 2.477964187632275e+01
 1.066759611310147e+00	 9.046049539769598e-02	 2.557346532588754e+01
 1.065941094809316e+00	 9.964312292822822e-02	 2.550000286511277e+01
 1.065040616803378e+00	 1.088469297189982e-01	 2.541961808327257e+01
 1.064057527275317e+00	 1.180709456170791e-01	 2.533226129522845e+01
 1.062991189181822e+00	 1.273141833103750e-01	 2.523787724414273e+01
 1.061840978924399e+00	 1.365756384830304e-01	 2.513640526325369e+01
 1.060606286820546e+00	 1.458542899845872e-01	 2.502777943707639e+01
 1.059286517574598e+00	 1.551491000130319e-01	 2.491192876027068e+01
 1.057881090747795e+00	 1.644590143118634e-01	 2.478877729240875e+01
 1.056389441227124e+00	 1.737829623812946e-01	 2.465824430688100e+01
 1.054811019692510e+00	 1.831198577036913e-01	 2.452024443219524e+01
 1.072620927855808e+00	 9.095753108669431e-02	 2.528725970354392e+01
 1.071797914011565e+00	 1.001906126146471e-01	 2.521615310356606e+01
 1.070892488324276e+00	 1.094449897723993e-01	 2.513834856453170e+01
 1.069903997205401e+00	 1.187196870765135e-01	 2.505379497350199e+01
 1.068831800111393e+00	 1.280137117901024e-01	 2.496243551765517e+01
 1.067675270017390e+00	 1.373260540790911e-01	 2.486420785495545e+01
 1.066433793890988e+00	 1.466556871823047e-01	 2.475904428386075e+01
 1.065106773165667e+00	 1.560015675955211e-01	 2.464687191022482e+01
 1.063693624213442e+00	 1.653626352696207e-01	 2.452761280953944e+01
 1.062193778816284e+00	 1.747378138229500e-01	 2.440118418266854e+01
 1.060606684635875e+00	 1.841260107679973e-01	 2.426749850324440e+01
 1.078482244401467e+00	 9.145456677569264e-02	 2.500849704302041e+01
 1.077654733213814e+00	 1.007381023010659e-01	 2.493966434070504e+01
 1.076744359845174e+00	 1.100430498258004e-01	 2.486434830626854e+01
 1.075750467135485e+00	 1.193684285359481e-01	 2.478249738775411e+01
 1.074672411040964e+00	 1.287132402698297e-01	 2.469405423896812e+01
 1.073509561110381e+00	 1.380764696751517e-01	 2.459895589876788e+01
 1.072261300961431e+00	 1.474570843800223e-01	 2.449713396892790e+01
 1.070927028756737e+00	 1.568540351780103e-01	 2.438851478865063e+01
 1.069506157679089e+00	 1.662662562273784e-01	 2.427301960377730e+01
 1.067998116405444e+00	 1.756926652646055e-01	 2.415056472876172e+01
 1.066402349579241e+00	 1.851321638323034e-01	 2.402106169948767e+01
 1.084343560947128e+00	 9.195160246469099e-02	 2.473682516472277e+01
 1.083511552416063e+00	 1.012855919874847e-01	 2.467018552813215e+01
 1.082596231366071e+00	 1.106411098792015e-01	 2.459726757401614e+01
 1.081596937065569e+00	 1.200171699953825e-01	 2.451802028035489e+01
 1.080513021970534e+00	 1.294127687495570e-01	 2.443238677030497e+01
 1.079343852203372e+00	 1.388268852712123e-01	 2.434030449985339e+01
 1.078088808031873e+00	 1.482584815777397e-01	 2.424170544351655e+01
 1.076747284347806e+00	 1.577065027604995e-01	 2.413651627605580e+01
 1.075318691144736e+00	 1.671698771851358e-01	 2.402465854817365e+01
 1.073802453994604e+00	 1.766475167062609e-01	 2.390604885415939e+01
 1.072198014522606e+00	 1.861383168966093e-01	 2.378059898947417e+01
 1.090204877492788e+00	 9.244863815368931e-02	 2.447189989912698e+01
 1.089368371618312e+00	 1.018330816739036e-01	 2.440737357121617e+01
 1.088448102886969e+00	 1.112391699326025e-01	 2.433676452307759e+01
 1.087443406995653e+00	 1.206659114548171e-01	 2.426002321208372e+01
 1.086353632900104e+00	 1.301122972292843e-01	 2.417709421391304e+01
 1.085178143296364e+00	 1.395773008672729e-01	 2.408791641834030e+01
 1.083916315102316e+00	 1.490598787754573e-01	 2.399242322246419e+01
 1.082567539938875e+00	 1.585589703429887e-01	 2.389054271924697e+01
 1.081131224610384e+00	 1.680734981428934e-01	 2.378219787923383e+01
 1.079606791583764e+00	 1.776023681479164e-01	 2.366730672332520e+01
 1.077993679465972e+00	 1.871444699609154e-01	 2.354578248449629e+01
 1.096066194038448e+00	 9.294567384268761e-02	 2.421338486762217e+01
 1.095225190820561e+00	 1.023805713603224e-01	 2.415089311053017e+01
 1.094299974407867e+00	 1.118372299860037e-01	 2.408250498068079e+01
 1.093289876925738e+00	 1.213146529142516e-01	 2.400817334511248e+01
 1.092194243829675e+00	 1.308118257090117e-01	 2.392784519597624e+01
 1.091012434389355e+00	 1.403277164633335e-01	 2.384146185425519e+01
 1.089743822172758e+00	 1.498612759731748e-01	 2.374895917023873e+01
 1.088387795529944e+00	 1.594114379254778e-01	 2.365026771852848e+01
 1.086943758076031e+00	 1.689771191006507e-01	 2.354531298534070e+01
 1.085411129172924e+00	 1.785572195895719e-01	 2.343401554588135e+01
 1.083789344409338e+00	 1.881506230252214e-01	 2.331629122958872e+01
 1.101927510584108e+00	 9.344270953168597e-02	 2.396095127031766e+01
 1.101082010022810e+00	 1.029280610467412e-01	 2.390041631022744e+01
 1.100151845928765e+00	 1.124352900394047e-01	 2.383416223504062e+01
 1.099136346855822e+00	 1.219633943736861e-01	 2.376214523286117e+01
 1.098034854759245e+00	 1.315113541887390e-01	 2.368431565736143e+01
 1.096846725482346e+00	 1.410781320593941e-01	 2.360061823924597e+01
 1.095571329243201e+00	 1.506626731708923e-01	 2.351099229371467e+01
 1.094208051121013e+00	 1.602639055079670e-01	 2.341537192159730e+01
 1.092756291541678e+00	 1.698807400584084e-01	 2.331368620182270e+01
 1.091215466762084e+00	 1.795120710312274e-01	 2.320585937289373e+01
 1.089585009352703e+00	 1.891567760895273e-01	 2.309181100106338e+01
 1.107788827129768e+00	 9.393974522068431e-02	 2.371427768055557e+01
 1.106938829225059e+00	 1.034755507331600e-01	 2.365562265309791e+01
 1.106003717449662e+00	 1.130333500928058e-01	 2.359141683107254e+01
 1.104982816785906e+00	 1.226121358331206e-01	 2.352162061647179e+01
 1.103875465688816e+00	 1.322108826684664e-01	 2.344618865094512e+01
 1.102681016575337e+00	 1.418285476554547e-01	 2.336507003484551e+01
 1.101398836313643e+00	 1.514640703686098e-01	 2.327820854144542e+01
 1.100028306712083e+00	 1.611163730904563e-01	 2.318554282388671e+01
 1.098568825007325e+00	 1.707843610161658e-01	 2.308700661242087e+01
 1.097019804351244e+00	 1.804669224728828e-01	 2.298252889950388e+01
 1.095380674296068e+00	 1.901629291538333e-01	 2.287203411033726e+01
 1.113650143675428e+00	 9.443678090968259e-02	 2.347304984588209e+01
 1.112795648427308e+00	 1.040230404195789e-01	 2.341619874205982e+01
 1.111855588970560e+00	 1.136314101462069e-01	 2.335395637251281e+01
 1.110829286715990e+00	 1.232608772925551e-01	 2.328628822765615e+01
 1.109716076618386e+00	 1.329104111481937e-01	 2.321315414527855e+01
 1.108515307668329e+00	 1.425789632515153e-01	 2.313450853703281e+01
 1.107226343384086e+00	 1.522654675663273e-01	 2.305030060919130e+01
 1.105848562303152e+00	 1.619688406729454e-01	 2.296047457512047e+01
 1.104381358472973e+00	 1.716879819739233e-01	 2.286496985691890e+01
 1.102824141940404e+00	 1.814217739145383e-01	 2.276372127367422e+01
 1.101176339239434e+00	 1.911690822181393e-01	 2.265665921382161e+01
 1.043219689805779e+00	 1.811075515750794e-01	 2.504604080698208e+01
 1.041572267883171e+00	 1.903535584450551e-01	 2.489161252530604e+01
 1.039837989613443e+00	 1.996101745719905e-01	 2.473031095541898e+01
 1.038016361320134e+00	 2.088762793322768e-01	 2.456209785655927e+01
 1.036106906768704e+00	 2.181507372945944e-01	 2.438693070228542e+01
 1.034109167613384e+00	 2.274323985142401e-01	 2.420476269629310e+01
 1.032022703839558e+00	 2.367200988418081e-01	 2.401554277258503e+01
 1.029847094201158e+00	 2.460126602462092e-01	 2.381921557897693e+01
 1.027581936652607e+00	 2.553088911520000e-01	 2.361572144305771e+01
 1.025226848774770e+00	 2.646075867909700e-01	 2.340499631986527e+01
 1.022781468194445e+00	 2.739075295679202e-01	 2.318697172070129e+01
 1.049015354749145e+00	 1.821137046393853e-01	 2.477964187632276e+01
 1.047358780482522e+00	 1.914110782141943e-01	 2.463000135935014e+01
 1.045614867333517e+00	 2.007191199862794e-01	 2.447368786113933e+01
 1.043783118883024e+00	 2.100367031063450e-01	 2.431066480132463e+01
 1.041863056250752e+00	 2.193626858351198e-01	 2.414089101091033e+01
 1.039854218544570e+00	 2.286959118393193e-01	 2.396432073884237e+01
 1.037756163305333e+00	 2.380352105020404e-01	 2.378090364190588e+01
 1.035568466946720e+00	 2.473793972475770e-01	 2.359058475689292e+01
 1.033290725189566e+00	 2.567272738806222e-01	 2.339330445412178e+01
 1.030922553490185e+00	 2.660776289398089e-01	 2.318899837154025e+01
 1.028463587462192e+00	 2.754292380655197e-01	 2.297759732881281e+01
 1.054811019692510e+00	 1.831198577036913e-01	 2.452024443219524e+01
 1.053145293081873e+00	 1.924685979833335e-01	 2.437525367901874e+01
 1.051391745053592e+00	 2.018280654005682e-01	 2.422378610991714e+01
 1.049549876445913e+00	 2.111971268804132e-01	 2.406580637571990e+01
 1.047619205732800e+00	 2.205746343756453e-01	 2.390127426772113e+01
 1.045599269475755e+00	 2.299594251643983e-01	 2.373014471617402e+01
 1.043489622771108e+00	 2.393503221622727e-01	 2.355236777102895e+01
 1.041289839692283e+00	 2.487461342489448e-01	 2.336788856381537e+01
 1.038999513726525e+00	 2.581456566092444e-01	 2.317664724970671e+01
 1.036618258205601e+00	 2.675476710886476e-01	 2.297857892897073e+01
 1.034145706729940e+00	 2.769509465631193e-01	 2.277361354717618e+01
 1.060606684635875e+00	 1.841260107679973e-01	 2.426749850324441e+01
 1.058931805681223e+00	 1.935261177524727e-01	 2.412702200496751e+01
 1.057168622773667e+00	 2.029370108148570e-01	 2.398026110708117e+01
 1.055316634008803e+00	 2.123575506544814e-01	 2.382718127204932e+01
 1.053375355214849e+00	 2.217865829161710e-01	 2.366774286406601e+01
 1.051344320406941e+00	 2.312229384894775e-01	 2.350190114063809e+01
 1.049223082236884e+00	 2.406654338225050e-01	 2.332960622527258e+01
 1.047011212437844e+00	 2.501128712503127e-01	 2.315080306011783e+01
 1.044708302263484e+00	 2.595640393378666e-01	 2.296543133755621e+01
 1.042313962921016e+00	 2.690177132374862e-01	 2.277342540991098e+01
 1.039827825997686e+00	 2.784726550607188e-01	 2.257471417661066e+01
 1.066402349579241e+00	 1.851321638323034e-01	 2.402106169948767e+01
 1.064718318280574e+00	 1.945836375216118e-01	 2.388496631522083e+01
 1.062945500493741e+00	 2.040459562291459e-01	 2.374277557871879e+01
 1.061083391571693e+00	 2.135179744285496e-01	 2.359445535397973e+01
 1.059131504696897e+00	 2.229985314566965e-01	 2.343996620030649e+01
 1.057089371338126e+00	 2.324864518145566e-01	 2.327926335814076e+01
 1.054956541702659e+00	 2.419805454827372e-01	 2.311229671480320e+01
 1.052732585183406e+00	 2.514796082516805e-01	 2.293901074893560e+01
 1.050417090800443e+00	 2.609824220664889e-01	 2.275934445259463e+01
 1.048009667636432e+00	 2.704877553863250e-01	 2.257323123011899e+01
 1.045509945265433e+00	 2.799943635583184e-01	 2.238059877307920e+01
 1.072198014522606e+00	 1.861383168966093e-01	 2.378059898947417e+01
 1.070504830879925e+00	 1.956411572907511e-01	 2.364875382389285e+01
 1.068722378213816e+00	 2.051549016434348e-01	 2.351099935220886e+01
 1.066850149134582e+00	 2.146783982026179e-01	 2.336730143914020e+01
 1.064887654178946e+00	 2.242104799972220e-01	 2.321762047074403e+01
 1.062834422269311e+00	 2.337499651396357e-01	 2.306191133566243e+01
 1.060690001168434e+00	 2.432956571429695e-01	 2.290012338501615e+01
 1.058453957928968e+00	 2.528463452530484e-01	 2.273220036968339e+01
 1.056125879337402e+00	 2.624008047951111e-01	 2.255808035386232e+01
 1.053705372351847e+00	 2.719577975351637e-01	 2.237769560399409e+01
 1.051192064533180e+00	 2.815160720559180e-01	 2.219097245231739e+01
 1.077993679465972e+00	 1.871444699609154e-01	 2.354578248449629e+01
 1.076291343479276e+00	 1.966986770598902e-01	 2.341805876689544e+01
 1.074499255933891e+00	 2.062638470577235e-01	 2.328460914366677e+01
 1.072616906697472e+00	 2.158388219766861e-01	 2.314539908855015e+01
 1.070643803660994e+00	 2.254224285377475e-01	 2.300038845528177e+01
 1.068579473200497e+00	 2.350134784647148e-01	 2.284953145540990e+01
 1.066423460634209e+00	 2.446107688032018e-01	 2.269277661343851e+01
 1.064175330674531e+00	 2.542130822544162e-01	 2.253006669797446e+01
 1.061834667874361e+00	 2.638191875237333e-01	 2.236133862772077e+01
 1.059401077067263e+00	 2.734278396840025e-01	 2.218652335134309e+01
 1.056874183800927e+00	 2.830377805535175e-01	 2.200554570043986e+01
 1.083789344409338e+00	 1.881506230252214e-01	 2.331629122958872e+01
 1.082077856078627e+00	 1.977561968290294e-01	 2.319256219437084e+01
 1.080276133653965e+00	 2.073727924720123e-01	 2.306328835204269e+01
 1.078383664260361e+00	 2.169992457507542e-01	 2.292843440262035e+01
 1.076399953143042e+00	 2.266343770782731e-01	 2.278795931757083e+01
 1.074324524131683e+00	 2.362769917897939e-01	 2.264181631535378e+01
 1.072156920099985e+00	 2.459258804634340e-01	 2.248995281290937e+01
 1.069896703420092e+00	 2.555798192557840e-01	 2.233231035170044e+01
 1.067543456411320e+00	 2.652375702523556e-01	 2.216882449709264e+01
 1.065096781782678e+00	 2.748978818328413e-01	 2.199942471004541e+01
 1.062556303068674e+00	 2.845594890511171e-01	 2.182403419029977e+01
 1.089585009352703e+00	 1.891567760895273e-01	 2.309181100106338e+01
 1.087864368677978e+00	 1.988137165981687e-01	 2.297195176959901e+01
 1.086053011374040e+00	 2.084817378863012e-01	 2.284672685962561e+01
 1.084150421823251e+00	 2.181596695248225e-01	 2.271609982348244e+01
 1.082156102625091e+00	 2.278463256187986e-01	 2.258002840939833e+01
 1.080069575062868e+00	 2.375405051148730e-01	 2.243846453591404e+01
 1.077890379565760e+00	 2.472409921236663e-01	 2.229135424080529e+01
 1.075618076165655e+00	 2.569465562571518e-01	 2.213863760304335e+01
 1.073252244948279e+00	 2.666559529809778e-01	 2.198024863651199e+01
 1.070792486498093e+00	 2.763679239816798e-01	 2.181611515439750e+01
 1.068238422336421e+00	 2.860811975487166e-01	 2.164615860338789e+01
 1.095380674296068e+00	 1.901629291538333e-01	 2.287203411033726e+01
 1.093650881277329e+00	 1.998712363673079e-01	 2.275592157413982e+01
 1.091829889094115e+00	 2.095906833005901e-01	 2.263462083871584e+01
 1.089917179386141e+00	 2.193200932988907e-01	 2.250809394341226e+01
 1.087912252107139e+00	 2.290582741593240e-01	 2.237629708108699e+01
 1.085814625994053e+00	 2.388040184399522e-01	 2.223918057256509e+01
 1.083623839031535e+00	 2.485561037838985e-01	 2.209668881408552e+01
 1.081339448911216e+00	 2.583132932585197e-01	 2.194876019619942e+01
 1.078961033485237e+00	 2.680743357095999e-01	 2.179532699276951e+01
 1.076488191213509e+00	 2.778379661305186e-01	 2.163631521892649e+01
 1.073920541604168e+00	 2.876029060463162e-01	 2.147164445706517e+01
 1.101176339239434e+00	 1.911690822181393e-01	 2.265665921382161e+01
 1.099437393876680e+00	 2.009287561364470e-01	 2.254417191898017e+01
 1.097606766814189e+00	 2.106996287148789e-01	 2.242667256423829e+01
 1.095683936949030e+00	 2.204805170729588e-01	 2.230412131912256e+01
 1.093668401589187e+00	 2.302702226998496e-01	 2.217647249768445e+01
 1.091559676925239e+00	 2.400675317650313e-01	 2.204367453414333e+01
 1.089357298497311e+00	 2.498712154441309e-01	 2.190566992994334e+01
 1.087060821656778e+00	 2.596800302598875e-01	 2.176239517060478e+01
 1.084669822022196e+00	 2.694927184382222e-01	 2.161378061094678e+01
 1.082183895928924e+00	 2.793080082793573e-01	 2.145975032747109e+01
 1.079602660871914e+00	 2.891246145439158e-01	 2.130022193693333e+01
 1.022781468194445e+00	 2.739075295679202e-01	 2.318697172070128e+01
 1.020245452996861e+00	 2.832074894405426e-01	 2.296274817792162e+01
 1.017618482130688e+00	 2.925062243132980e-01	 2.273335637306286e+01
 1.014900255805039e+00	 3.018024804451617e-01	 2.249861141817555e+01
 1.012090495877973e+00	 3.110949928710932e-01	 2.225831734216560e+01
 1.009188946235962e+00	 3.203824858370625e-01	 2.201226695788979e+01
 1.006195373163844e+00	 3.296636732484466e-01	 2.176024171934787e+01
 1.003109565704740e+00	 3.389372591315894e-01	 2.150201156992772e+01
 9.999313360094341e-01	 3.482019381082970e-01	 2.123733478288235e+01
 9.966605196747319e-01	 3.574563958830216e-01	 2.096595779544958e+01
 9.932969760702923e-01	 3.666993097424635e-01	 2.068761503825462e+01
 1.028463587462192e+00	 2.754292380655197e-01	 2.297759732881281e+01
 1.025913483291289e+00	 2.847808643818790e-01	 2.276016254567863e+01
 1.023271918142525e+00	 2.941312588928163e-01	 2.253768377748511e+01
 1.020538590559511e+00	 3.034791608920792e-01	 2.230997237955674e+01
 1.017713220855073e+00	 3.128232983870436e-01	 2.207682813767881e+01
 1.014795551492828e+00	 3.221623885361573e-01	 2.183803911700759e+01
 1.011785347459199e+00	 3.314951380998268e-01	 2.159338150007327e+01
 1.008682396625322e+00	 3.408202439045426e-01	 2.134261941486554e+01
 1.005486510098375e+00	 3.501363933200098e-01	 2.108550475422775e+01
 1.002197522561814e+00	 3.594422647490385e-01	 2.082177698802232e+01
 9.988152926040162e-01	 3.687365281299215e-01	 2.055116296977531e+01
 1.034145706729940e+00	 2.769509465631193e-01	 2.277361354717618e+01
 1.031581513585716e+00	 2.863542393232154e-01	 2.256277287520772e+01
 1.028925354154362e+00	 2.957562934723346e-01	 2.234700613166059e+01
 1.026176925313984e+00	 3.051558413389968e-01	 2.212612160535263e+01
 1.023335945832172e+00	 3.145516039029941e-01	 2.189991560272536e+01
 1.020402156749694e+00	 3.239422912352521e-01	 2.166817227857410e+01
 1.017375321754553e+00	 3.333266029512071e-01	 2.143066345472483e+01
 1.014255227545904e+00	 3.427032286774960e-01	 2.118714842768127e+01
 1.011041684187317e+00	 3.520708485317228e-01	 2.093737376651048e+01
 1.007734525448896e+00	 3.614281336150552e-01	 2.068107310248443e+01
 1.004333609137740e+00	 3.707737465173798e-01	 2.041796691224850e+01
 1.039827825997686e+00	 2.784726550607188e-01	 2.257471417661067e+01
 1.037249543880143e+00	 2.879276142645517e-01	 2.237028005361766e+01
 1.034578790166199e+00	 2.973813280518529e-01	 2.216103233527649e+01
 1.031815260068456e+00	 3.068325217859143e-01	 2.194677693368614e+01
 1.028958670809272e+00	 3.162799094189448e-01	 2.172730743895159e+01
 1.026008762006561e+00	 3.257221939343469e-01	 2.150240493172453e+01
 1.022965296049908e+00	 3.351580678025874e-01	 2.127183778240394e+01
 1.019828058466486e+00	 3.445862134504494e-01	 2.103536143804956e+01
 1.016596858276258e+00	 3.540053037434355e-01	 2.079271819831873e+01
 1.013271528335977e+00	 3.634140024810719e-01	 2.054363698199665e+01
 1.009851925671464e+00	 3.728109649048379e-01	 2.028783308595191e+01
 1.045509945265433e+00	 2.799943635583184e-01	 2.238059877307920e+01
 1.042917574174570e+00	 2.895009892058879e-01	 2.218239046176862e+01
 1.040232226178037e+00	 2.990063626313712e-01	 2.197947649716819e+01
 1.037453594822929e+00	 3.085092022328319e-01	 2.177166110421097e+01
 1.034581395786373e+00	 3.180082149348954e-01	 2.155873591912088e+01
 1.031615367263428e+00	 3.275020966334417e-01	 2.134047978374295e+01
 1.028555270345263e+00	 3.369895326539677e-01	 2.111665852510241e+01
 1.025400889387068e+00	 3.464691982234026e-01	 2.088702472127500e+01
 1.022152032365199e+00	 3.559397589551482e-01	 2.065131745491843e+01
 1.018808531223059e+00	 3.653998713470888e-01	 2.040926205608555e+01
 1.015370242205188e+00	 3.748481832922961e-01	 2.016056983621443e+01
 1.051192064533180e+00	 2.815160720559180e-01	 2.219097245231739e+01
 1.048585604468997e+00	 2.910743641472245e-01	 2.199881578331556e+01
 1.045885662189874e+00	 3.006313972108896e-01	 2.180205774932945e+01
 1.043091929577401e+00	 3.101858826797496e-01	 2.160050157763753e+01
 1.040204120763472e+00	 3.197365204508458e-01	 2.139393771270281e+01
 1.037221972520294e+00	 3.292819993325365e-01	 2.118214359225882e+01
 1.034145244640618e+00	 3.388209975053479e-01	 2.096488340704776e+01
 1.030973720307649e+00	 3.483521829963558e-01	 2.074190784532313e+01
 1.027707206454141e+00	 3.578742141668610e-01	 2.051295382350219e+01
 1.024345534110141e+00	 3.673857402131058e-01	 2.027774420464037e+01
 1.020888558738912e+00	 3.768854016797543e-01	 2.003598750668306e+01
 1.056874183800927e+00	 2.830377805535175e-01	 2.200554570043986e+01
 1.054253634763424e+00	 2.926477390885608e-01	 2.181927281956304e+01
 1.051539098201711e+00	 3.022564317904081e-01	 2.162850006654942e+01
 1.048730264331874e+00	 3.118625631266671e-01	 2.143303036068317e+01
 1.045826845740572e+00	 3.214648259667963e-01	 2.123265371666571e+01
 1.042828577777160e+00	 3.310619020316313e-01	 2.102714700240780e+01
 1.039735218935973e+00	 3.406524623567282e-01	 2.081627367875519e+01
 1.036546551228231e+00	 3.502351677693091e-01	 2.059978352228222e+01
 1.033262380543082e+00	 3.598086693785738e-01	 2.037741233257698e+01
 1.029882536997223e+00	 3.693716090791223e-01	 2.014888162573655e+01
 1.026406875272635e+00	 3.789226200672124e-01	 1.991389831609012e+01
 1.062556303068674e+00	 2.845594890511171e-01	 2.182403419029977e+01
 1.059921665057851e+00	 2.942211140298970e-01	 2.164348330991409e+01
 1.057192534213548e+00	 3.038814663699264e-01	 2.145853209146564e+01
 1.054368599086347e+00	 3.135392435735847e-01	 2.126898383624425e+01
 1.051449570717672e+00	 3.231931314827468e-01	 2.107462889127799e+01
 1.048435183034027e+00	 3.328418047307261e-01	 2.087524438877094e+01
 1.045325193231327e+00	 3.424839272081084e-01	 2.067059396560933e+01
 1.042119382148813e+00	 3.521181525422624e-01	 2.046042746409055e+01
 1.038817554632023e+00	 3.617431245902865e-01	 2.024448061533481e+01
 1.035419539884305e+00	 3.713574779451392e-01	 2.002247470714442e+01
 1.031925191806360e+00	 3.809598384546705e-01	 1.979411623838859e+01
 1.068238422336421e+00	 2.860811975487166e-01	 2.164615860338789e+01
 1.065589695352278e+00	 2.957944889712334e-01	 2.147117375770445e+01
 1.062845970225385e+00	 3.055065009494447e-01	 2.129188696483285e+01
 1.060006933840819e+00	 3.152159240205022e-01	 2.110810259859478e+01
 1.057072295694772e+00	 3.249214369986975e-01	 2.091961210073142e+01
 1.054041788290893e+00	 3.346217074298209e-01	 2.072619370191416e+01
 1.050915167526682e+00	 3.443153920594887e-01	 2.052761212080901e+01
 1.047692213069395e+00	 3.540011373152157e-01	 2.032361824237076e+01
 1.044372728720965e+00	 3.636775798019992e-01	 2.011394877685851e+01
 1.040956542771387e+00	 3.733433468111559e-01	 1.989832590138408e+01
 1.037443508340083e+00	 3.829970568421287e-01	 1.967645688613011e+01
 1.073920541604168e+00	 2.876029060463162e-01	 2.147164445706517e+01
 1.071257725646705e+00	 2.973678639125699e-01	 2.130207526122317e+01
 1.068499406237222e+00	 3.071315355289629e-01	 2.112830216081302e+01
 1.065645268595291e+00	 3.168926044674198e-01	 2.095013129342588e+01
 1.062695020671871e+00	 3.266497425146478e-01	 2.076735595840809e+01
 1.059648393547759e+00	 3.364016101289156e-01	 2.057975631935759e+01
 1.056505141822036e+00	 3.461468569108690e-01	 2.038709908251132e+01
 1.053265043989977e+00	 3.558841220881690e-01	 2.018913715221852e+01
 1.049927902809906e+00	 3.656120350137121e-01	 1.998560926502070e+01
 1.046493545658468e+00	 3.753292156771728e-01	 1.977623960419651e+01
 1.042961824873807e+00	 3.850342752295867e-01	 1.956073739696626e+01
 1.079602660871914e+00	 2.891246145439158e-01	 2.130022193693333e+01
 1.076925755941132e+00	 2.989412388539061e-01	 2.113592334972827e+01
 1.074152842249059e+00	 3.087565701084813e-01	 2.096751932710191e+01
 1.071283603349764e+00	 3.185692849143374e-01	 2.079481846254823e+01
 1.068317745648971e+00	 3.283780480305984e-01	 2.061761667661993e+01
 1.065254998804626e+00	 3.381815128280104e-01	 2.043569690081186e+01
 1.062095116117391e+00	 3.479783217622492e-01	 2.024882873502172e+01
 1.058837874910559e+00	 3.577671068611222e-01	 2.005676807979996e+01
 1.055483076898847e+00	 3.675464902254248e-01	 1.985925674493911e+01
 1.052030548545551e+00	 3.773150845431895e-01	 1.965602203630447e+01
 1.048480141407531e+00	 3.870714936170449e-01	 1.944677632315742e+01
 9.932969760702923e-01	 3.666993097424635e-01	 2.068761503825462e+01
 9.898405886534546e-01	 3.759293490673059e-01	 2.040457650705195e+01
 9.862912652715807e-01	 3.851451758557686e-01	 2.011915508707222e+01
 9.826489384514385e-01	 3.943454452586552e-01	 1.983113440002382e+01
 9.789135656751733e-01	 4.035288061255414e-01	 1.954028982451606e+01
 9.750851296424009e-01	 4.126939015617364e-01	 1.924638824808066e+01
 9.711636385179986e-01	 4.218393694956271e-01	 1.894918782034894e+01
 9.671491261651464e-01	 4.309638432559975e-01	 1.864843771057727e+01
 9.630416523632152e-01	 4.400659521588945e-01	 1.834387787291939e+01
 9.588413030100904e-01	 4.491443221035953e-01	 1.803523882303571e+01
 9.545481903085434e-01	 4.581975761772108e-01	 1.772224142980907e+01
 9.988152926040162e-01	 3.687365281299215e-01	 2.055116296977532e+01
 9.953397030348630e-01	 3.780178454510131e-01	 2.027596817542721e+01
 9.917706611897561e-01	 3.872848712771896e-01	 1.999853593612847e+01
 9.881080992206132e-01	 3.965362532878699e-01	 1.971863359394656e+01
 9.843519743733687e-01	 4.057706328262389e-01	 1.943601932527140e+01
 9.805022692515255e-01	 4.149866454593016e-01	 1.915044187268497e+01
 9.765589920653209e-01	 4.241829215483805e-01	 1.886164027812776e+01
 9.725221768660637e-01	 4.333580868296418e-01	 1.856934362068657e+01
 9.683918837652329e-01	 4.425107630042217e-01	 1.827327076254140e+01
 9.641681991379242e-01	 4.516395683375041e-01	 1.797313010680877e+01
 9.598512358102577e-01	 4.607431182670841e-01	 1.766861937120434e+01
 1.004333609137740e+00	 3.707737465173798e-01	 2.041796691224850e+01
 1.000838817416271e+00	 3.801063418347204e-01	 2.015039484819476e+01
 9.972500571079314e-01	 3.894245666986105e-01	 1.988072826637676e+01
 9.935672599897881e-01	 3.987270613170847e-01	 1.960871767733047e+01
 9.897903830715640e-01	 4.080124595269362e-01	 1.933410332920199e+01
 9.859194088606500e-01	 4.172793893568668e-01	 1.905661491736549e+01
 9.819543456126432e-01	 4.265264736011340e-01	 1.877597129566225e+01
 9.778952275669814e-01	 4.357523304032865e-01	 1.849188019272399e+01
 9.737421151672507e-01	 4.449555738495489e-01	 1.820403793706594e+01
 9.694950952657579e-01	 4.541348145714131e-01	 1.791212919484325e+01
 9.651542813119719e-01	 4.632886603569576e-01	 1.761582672435713e+01
 1.009851925671464e+00	 3.728109649048379e-01	 2.028783308595191e+01
 1.006337931797679e+00	 3.821948382184277e-01	 2.002767726339736e+01
 1.002729453026107e+00	 3.915642621200315e-01	 1.976556471577961e+01
 9.990264207589626e-01	 4.009178693462995e-01	 1.950122858846181e+01
 9.952287917697593e-01	 4.102542862276338e-01	 1.923439049568392e+01
 9.913365484697743e-01	 4.195721332544319e-01	 1.896476020581936e+01
 9.873496991599653e-01	 4.288700256538876e-01	 1.869203532875411e+01
 9.832682782678989e-01	 4.381465739769306e-01	 1.841590100900064e+01
 9.790923465692687e-01	 4.474003846948761e-01	 1.813602962838834e+01
 9.748219913935918e-01	 4.566300608053218e-01	 1.785208052238766e+01
 9.704573268136860e-01	 4.658342024468310e-01	 1.756369971432667e+01
 1.015370242205188e+00	 3.748481832922961e-01	 2.016056983621443e+01
 1.011837046179087e+00	 3.842833346021349e-01	 1.990763784062948e+01
 1.008208848944283e+00	 3.937039575414525e-01	 1.965287921670877e+01
 1.004485581528137e+00	 4.031086773755143e-01	 1.939600922917597e+01
 1.000667200467955e+00	 4.124961129283311e-01	 1.913673017295619e+01
 9.967536880788989e-01	 4.218648771519972e-01	 1.887473103194831e+01
 9.927450527072875e-01	 4.312135777066409e-01	 1.860968714059683e+01
 9.886413289688163e-01	 4.405408175505753e-01	 1.834125985203265e+01
 9.844425779712866e-01	 4.498451955402033e-01	 1.806909621678984e+01
 9.801488875214258e-01	 4.591253070392308e-01	 1.779282867632801e+01
 9.757603723153999e-01	 4.683797445367043e-01	 1.751207477579830e+01
 1.020888558738912e+00	 3.768854016797543e-01	 2.003598750668306e+01
 1.017336160560495e+00	 3.863718309858422e-01	 1.979010056305569e+01
 1.013688244862458e+00	 3.958436529628734e-01	 1.954250688515739e+01
 1.009944742297312e+00	 4.052994854047290e-01	 1.929290335971477e+01
 1.006105609166150e+00	 4.147379396290286e-01	 1.904097229708210e+01
 1.002170827688023e+00	 4.241576210495622e-01	 1.878638106139329e+01
 9.981404062546098e-01	 4.335571297593945e-01	 1.852878170436340e+01
 9.940143796697337e-01	 4.429350611242197e-01	 1.826781060667393e+01
 9.897928093733042e-01	 4.522900063855303e-01	 1.800308813112117e+01
 9.854757836492595e-01	 4.616205532731397e-01	 1.773421829194271e+01
 9.810634178171143e-01	 4.709252866265778e-01	 1.746078844494351e+01
 1.026406875272635e+00	 3.789226200672124e-01	 1.991389831609012e+01
 1.022835274941903e+00	 3.884603273695494e-01	 1.967489086261653e+01
 1.019167640780633e+00	 3.979833483842943e-01	 1.943428391287790e+01
 1.015403903066487e+00	 4.074902934339439e-01	 1.919175549629664e+01
 1.011544017864346e+00	 4.169797663297262e-01	 1.894696729345998e+01
 1.007587967297148e+00	 4.264503649471277e-01	 1.869956423550422e+01
 1.003535759801932e+00	 4.359006818121480e-01	 1.844917410816471e+01
 9.993874303706515e-01	 4.453293046978643e-01	 1.819540716460269e+01
 9.951430407753223e-01	 4.547348172308577e-01	 1.793785575137083e+01
 9.908026797770936e-01	 4.641157995070485e-01	 1.767609395211989e+01
 9.863664633188285e-01	 4.734708287164511e-01	 1.740967725386936e+01
 1.031925191806360e+00	 3.809598384546705e-01	 1.979411623838859e+01
 1.028334389323311e+00	 3.905488237532568e-01	 1.956183550830239e+01
 1.024647036698809e+00	 4.001230438057153e-01	 1.932804746233591e+01
 1.020863063835661e+00	 4.096811014631584e-01	 1.909241081129769e+01
 1.016982426562541e+00	 4.192215930304236e-01	 1.885456598078897e+01
 1.013005106906272e+00	 4.287431088446929e-01	 1.861413467765525e+01
 1.008931113349254e+00	 4.382442338649015e-01	 1.837071946228861e+01
 1.004760481071569e+00	 4.477235482715086e-01	 1.812390333107344e+01
 1.000493272177340e+00	 4.571796280761850e-01	 1.787324931352821e+01
 9.961295759049273e-01	 4.666110457409575e-01	 1.761830008894593e+01
 9.916695088205426e-01	 4.760163708063246e-01	 1.735857762756062e+01
 1.037443508340083e+00	 3.829970568421287e-01	 1.967645688613012e+01
 1.033833503704720e+00	 3.926373201369641e-01	 1.945076249738181e+01
 1.030126432616984e+00	 4.022627392271363e-01	 1.922363556437490e+01
 1.026322224604836e+00	 4.118719094923732e-01	 1.899471503594812e+01
 1.022420835260737e+00	 4.214634197311211e-01	 1.876361947739725e+01
 1.018422246515397e+00	 4.310358527422580e-01	 1.852994660181598e+01
 1.014326466896576e+00	 4.405877859176551e-01	 1.829327280863668e+01
 1.010133531772486e+00	 4.501177918451529e-01	 1.805315273384930e+01
 1.005843503579358e+00	 4.596244389215121e-01	 1.780911881665758e+01
 1.001456472032761e+00	 4.691062919748663e-01	 1.756068088757719e+01
 9.969725543222565e-01	 4.785619128961980e-01	 1.730732578322076e+01
 1.042961824873807e+00	 3.850342752295867e-01	 1.956073739696626e+01
 1.039332618086127e+00	 3.947258165206713e-01	 1.934150094947367e+01
 1.035605828535159e+00	 4.044024346485571e-01	 1.912088701849160e+01
 1.031781385374011e+00	 4.140627175215880e-01	 1.889851436544826e+01
 1.027859243958932e+00	 4.237052464318184e-01	 1.867397910984539e+01
 1.023839386124521e+00	 4.333285966398231e-01	 1.844685422329760e+01
 1.019721820443899e+00	 4.429313379704086e-01	 1.821668903227537e+01
 1.015506582473404e+00	 4.525120354187975e-01	 1.798300873423517e+01
 1.011193734981376e+00	 4.620692497668393e-01	 1.774531393209914e+01
 1.006783368160595e+00	 4.716015382087752e-01	 1.750308019230939e+01
 1.002275599823971e+00	 4.811074549860714e-01	 1.725575763192421e+01
 1.048480141407531e+00	 3.870714936170449e-01	 1.944677632315742e+01
 1.044831732467536e+00	 3.968143129043785e-01	 1.923388100335974e+01
 1.041085224453335e+00	 4.065421300699781e-01	 1.901964129562634e+01
 1.037240546143186e+00	 4.162535255508029e-01	 1.880365536641716e+01
 1.033297652657127e+00	 4.259470731325158e-01	 1.858549632372240e+01
 1.029256525733646e+00	 4.356213405373885e-01	 1.836471167159101e+01
 1.025117173991221e+00	 4.452748900231620e-01	 1.814082277502544e+01
 1.020879633174321e+00	 4.549062789924420e-01	 1.791332434013375e+01
 1.016543966383394e+00	 4.645140606121665e-01	 1.768168391472002e+01
 1.012110264288429e+00	 4.740967844426838e-01	 1.744534141476499e+01
 1.007578645325685e+00	 4.836529970759447e-01	 1.720370868249338e+01
 9.545481903085434e-01	 4.581975761772108e-01	 1.772224142980907e+01
 9.501624529362769e-01	 4.672243352674425e-01	 1.740683401264695e+01
 9.456842561992836e-01	 4.762232186829973e-01	 1.709084334201669e+01
 9.411137921681799e-01	 4.851928447811382e-01	 1.677378784293148e+01
 9.364512797971888e-01	 4.941318316018436e-01	 1.645516890763174e+01
 9.316969650254657e-01	 5.030387975080275e-01	 1.613447092543669e+01
 9.268511208604819e-01	 5.119123618312563e-01	 1.581116136205284e+01
 9.219140474432017e-01	 5.207511455223888e-01	 1.548469089269831e+01
 9.168860720948058e-01	 5.295537718065515e-01	 1.515449359336939e+01
 9.117675493447331e-01	 5.383188668418429e-01	 1.481998719451716e+01
 9.065588609398495e-01	 5.470450603811613e-01	 1.448057340130226e+01
 9.598512358102577e-01	 4.607431182670841e-01	 1.766861937120434e+01
 9.554411332303671e-01	 4.698200260189282e-01	 1.736163579492613e+01
 9.509380576226129e-01	 4.788689032312362e-01	 1.705396675091423e+01
 9.463422021246701e-01	 4.878883605854779e-01	 1.674512436128759e+01
 9.416537869071735e-01	 4.968770084440762e-01	 1.643460384627912e+01
 9.368730592756072e-01	 5.058334574941831e-01	 1.612188352811495e+01
 9.320002937541509e-01	 5.147563193969853e-01	 1.580642488424952e+01
 9.270357921512193e-01	 5.236442074419577e-01	 1.548767265450382e+01
 9.219798836064433e-01	 5.324957372054768e-01	 1.516505500662420e+01
 9.168329246188703e-01	 5.413095272131863e-01	 1.483798376472069e+01
 9.115952990561821e-01	 5.500841996055011e-01	 1.450585470495639e+01
 9.651542813119719e-01	 4.632886603569576e-01	 1.761582672435713e+01
 9.607198135244576e-01	 4.724157167704141e-01	 1.731698607569558e+01
 9.561918590459422e-01	 4.815145877794750e-01	 1.701736809227091e+01
 9.515706120811600e-01	 4.905838763898175e-01	 1.671648208697549e+01
 9.468562940171580e-01	 4.996221852863088e-01	 1.641382089959275e+01
 9.420491535257489e-01	 5.086281174803390e-01	 1.610886087169845e+01
 9.371494666478202e-01	 5.176002769627145e-01	 1.580106187036534e+01
 9.321575368592372e-01	 5.265372693615264e-01	 1.548986736540847e+01
 9.270736951180814e-01	 5.354377026044020e-01	 1.517470456488359e+01
 9.218982998930080e-01	 5.443001875845301e-01	 1.485498461349934e+01
 9.166317371725146e-01	 5.531233388298411e-01	 1.453010285851577e+01
 9.704573268136860e-01	 4.658342024468310e-01	 1.756369971432667e+01
 9.659984938185483e-01	 4.750114075218999e-01	 1.727271388332121e+01
 9.614456604692716e-01	 4.841602723277141e-01	 1.698087358923678e+01
 9.567990220376498e-01	 4.932793921941572e-01	 1.668768878744407e+01
 9.520588011271424e-01	 5.023673621285412e-01	 1.639265368345156e+01
 9.472252477758899e-01	 5.114227774664946e-01	 1.609524667580354e+01
 9.422986395414898e-01	 5.204442345284437e-01	 1.579493034677761e+01
 9.372792815672550e-01	 5.294303312810952e-01	 1.549115150581399e+01
 9.321675066297187e-01	 5.383796680033274e-01	 1.518334129059135e+01
 9.269636751671453e-01	 5.472908479558736e-01	 1.487091533061301e+01
 9.216681752888470e-01	 5.561624780541808e-01	 1.455327397808801e+01
 9.757603723153999e-01	 4.683797445367043e-01	 1.751207477579830e+01
 9.712771741126389e-01	 4.776070982733858e-01	 1.722864849439628e+01
 9.666994618926009e-01	 4.868059568759528e-01	 1.694430965934999e+01
 9.620274319941400e-01	 4.959749079984970e-01	 1.665857227954325e+01
 9.572613082371265e-01	 5.051125389707735e-01	 1.637093562836920e+01
 9.524013420260315e-01	 5.142174374526503e-01	 1.608088415157512e+01
 9.474478124351592e-01	 5.232881920941730e-01	 1.578788742145807e+01
 9.424010262752730e-01	 5.323233932006640e-01	 1.549140014253958e+01
 9.372613181413568e-01	 5.413216334022526e-01	 1.519086221384096e+01
 9.320290504412826e-01	 5.502815083272171e-01	 1.488569885283648e+01
 9.267046134051795e-01	 5.592016172785207e-01	 1.457532078608455e+01
 9.810634178171143e-01	 4.709252866265778e-01	 1.746078844494351e+01
 9.765558544067290e-01	 4.802027890248716e-01	 1.718461932125278e+01
 9.719532633159305e-01	 4.894516414241917e-01	 1.690750280022667e+01
 9.672558419506296e-01	 4.986704238028365e-01	 1.662896031589135e+01
 9.624638153471111e-01	 5.078577158130060e-01	 1.634849986900533e+01
 9.575774362761731e-01	 5.170120974388061e-01	 1.606561589677881e+01
 9.525969853288285e-01	 5.261321496599022e-01	 1.577978918704944e+01
 9.475227709832906e-01	 5.352164551202331e-01	 1.549048684224754e+01
 9.423551296529948e-01	 5.442635988011780e-01	 1.519716229848024e+01
 9.370944257154203e-01	 5.532721686985608e-01	 1.489925540503235e+01
 9.317410515215122e-01	 5.622407565028604e-01	 1.459619256950737e+01
 9.863664633188285e-01	 4.734708287164511e-01	 1.740967725386936e+01
 9.818345347008196e-01	 4.827984797763573e-01	 1.714045580217164e+01
 9.772070647392597e-01	 4.920973259724306e-01	 1.687027947797481e+01
 9.724842519071194e-01	 5.013659396071761e-01	 1.659868047391110e+01
 9.676663224570954e-01	 5.106028926552385e-01	 1.632517913621467e+01
 9.627535305263146e-01	 5.198067574249619e-01	 1.604928379321940e+01
 9.577461582224978e-01	 5.289761072256314e-01	 1.577049062597810e+01
 9.526445156913085e-01	 5.381095170398017e-01	 1.548828358654187e+01
 9.474489411646326e-01	 5.472055642001032e-01	 1.520213436944900e+01
 9.421598009895578e-01	 5.562628290699043e-01	 1.491150244194160e+01
 9.367774896378445e-01	 5.652798957272002e-01	 1.461583513836943e+01
 9.916695088205426e-01	 4.760163708063246e-01	 1.735857762756062e+01
 9.871132149949100e-01	 4.853941705278432e-01	 1.709598729418746e+01
 9.824608661625887e-01	 4.947430105206694e-01	 1.683246601823135e+01
 9.777126618636095e-01	 5.040614554115158e-01	 1.656756004743826e+01
 9.728688295670798e-01	 5.133480694974709e-01	 1.630080565153809e+01
 9.679296247764559e-01	 5.226014174111175e-01	 1.603172890639888e+01
 9.628953311161671e-01	 5.318200647913605e-01	 1.575984551752839e+01
 9.577662603993262e-01	 5.410025789593707e-01	 1.548466068867603e+01
 9.525427526762703e-01	 5.501475295990285e-01	 1.520566904130184e+01
 9.472251762636951e-01	 5.592534894412479e-01	 1.492235459066798e+01
 9.418139277541773e-01	 5.683190349515399e-01	 1.463419078424579e+01
 9.969725543222565e-01	 4.785619128961980e-01	 1.730732578322076e+01
 9.923918952890002e-01	 4.879898612793288e-01	 1.705104296839502e+01
 9.877146675859184e-01	 4.973886950689084e-01	 1.679388849972297e+01
 9.829410718200990e-01	 5.067569712158555e-01	 1.653542594080368e+01
 9.780713366770643e-01	 5.160932463397034e-01	 1.627521102404544e+01
 9.731057190265977e-01	 5.253960773972732e-01	 1.601279138732794e+01
 9.680445040098363e-01	 5.346640223570897e-01	 1.574770634680443e+01
 9.628880051073443e-01	 5.438956408789396e-01	 1.547948671181021e+01
 9.576365641879079e-01	 5.530894949979537e-01	 1.520765464787494e+01
 9.522905515378325e-01	 5.622441498125915e-01	 1.493172359382929e+01
 9.468503658705095e-01	 5.713581741758798e-01	 1.465119823894773e+01
 1.002275599823971e+00	 4.811074549860714e-01	 1.725575763192421e+01
 9.976705755830905e-01	 4.905855520308146e-01	 1.700545170766186e+01
 9.929684690092476e-01	 5.000343796171473e-01	 1.675437265025875e+01
 9.881694817765894e-01	 5.094524870201953e-01	 1.650210456529974e+01
 9.832738437870486e-01	 5.188384231819358e-01	 1.624822614944290e+01
 9.782818132767391e-01	 5.281907373834289e-01	 1.599231037641548e+01
 9.731936769035060e-01	 5.375079799228190e-01	 1.573392421550930e+01
 9.680097498153618e-01	 5.467887027985082e-01	 1.547262838876136e+01
 9.627303756995459e-01	 5.560314603968790e-01	 1.520797717305090e+01
 9.573559268119698e-01	 5.652348101839351e-01	 1.493951825334919e+01
 9.518868039868423e-01	 5.743973134002196e-01	 1.466679263331808e+01
 1.007578645325685e+00	 4.836529970759447e-01	 1.720370868249338e+01
 1.002949255877181e+00	 4.931812427823005e-01	 1.695904200665989e+01
 9.982222704325768e-01	 5.026800641653860e-01	 1.671374374506430e+01
 9.933978917330791e-01	 5.121480028245349e-01	 1.646742173794158e+01
 9.884763508970326e-01	 5.215836000241683e-01	 1.621968111136092e+01
 9.834579075268803e-01	 5.309853973695845e-01	 1.597012390935513e+01
 9.783428497971751e-01	 5.403519374885483e-01	 1.571834875447607e+01
 9.731314945233797e-01	 5.496817647180772e-01	 1.546395054319025e+01
 9.678241872111837e-01	 5.589734257958043e-01	 1.520652018258455e+01
 9.624213020861074e-01	 5.682254705552787e-01	 1.494564437486950e+01
 9.569232421031746e-01	 5.774364526245593e-01	 1.468090545614112e+01
 9.065588609398495e-01	 5.470450603811613e-01	 1.448057340130226e+01
 9.012604158345525e-01	 5.557309864365274e-01	 1.414217360295624e+01
 8.958726501616618e-01	 5.643752839452721e-01	 1.381120104763945e+01
 8.903960271839662e-01	 5.729765974374479e-01	 1.348780853290750e+01
 8.848310372263102e-01	 5.815335777038140e-01	 1.317218212817918e+01
 8.791781975881447e-01	 5.900448824637387e-01	 1.286420673350716e+01
 8.734380524364798e-01	 5.985091770323616e-01	 1.255460249971664e+01
 8.676111726792075e-01	 6.069251349863474e-01	 1.224020706456715e+01
 8.616981558187857e-01	 6.152914388275611e-01	 1.192261982075233e+01
 8.556996257863021e-01	 6.236067806439960e-01	 1.160351787913398e+01
 8.496162327559678e-01	 6.318698627672816e-01	 1.128465392699979e+01
 9.115952990561821e-01	 5.500841996055011e-01	 1.450585470495639e+01
 9.062674181447442e-01	 5.588183808056191e-01	 1.417496246239370e+01
 9.008497204403381e-01	 5.675107021894126e-01	 1.385209504342039e+01
 8.953426717794329e-01	 5.761598007565449e-01	 1.353740177709716e+01
 8.897467652109010e-01	 5.847643198021685e-01	 1.323106553940538e+01
 8.840625209080791e-01	 5.933229095885374e-01	 1.293060286092812e+01
 8.782904860611270e-01	 6.018342280158748e-01	 1.262548896498786e+01
 8.724312347496475e-01	 6.102969412918271e-01	 1.231598264610595e+01
 8.664853677955565e-01	 6.187097245988252e-01	 1.200370663795261e+01
 8.604535125962258e-01	 6.270712627586846e-01	 1.169036292562758e+01
 8.543363229379453e-01	 6.353802508937664e-01	 1.137773057015390e+01
 9.166317371725146e-01	 5.531233388298411e-01	 1.453010285851577e+01
 9.112744204549366e-01	 5.619057751747109e-01	 1.420673194117181e+01
 9.058267907190138e-01	 5.706461204335530e-01	 1.389203296913380e+01
 9.002893163748993e-01	 5.793430040756420e-01	 1.358614759201721e+01
 8.946624931954916e-01	 5.879950619005230e-01	 1.328925090117140e+01
 8.889468442280128e-01	 5.966009367133358e-01	 1.299409698206933e+01
 8.831429196857742e-01	 6.051592789993879e-01	 1.269342054749174e+01
 8.772512968200878e-01	 6.136687475973069e-01	 1.238877298184230e+01
 8.712725797723275e-01	 6.221280103700894e-01	 1.208179440511301e+01
 8.652073994061501e-01	 6.305357448733737e-01	 1.177420540563702e+01
 8.590564131199229e-01	 6.388906390202510e-01	 1.146780483768541e+01
 9.216681752888470e-01	 5.561624780541808e-01	 1.455327397808801e+01
 9.162814227651284e-01	 5.649931695438029e-01	 1.423746813925571e+01
 9.108038609976897e-01	 5.737815386776934e-01	 1.393102596194521e+01
 9.052359609703661e-01	 5.825262073947390e-01	 1.363407728523137e+01
 8.995782211800823e-01	 5.912258039988777e-01	 1.334579362040780e+01
 8.938311675479471e-01	 5.998789638381342e-01	 1.305460676900893e+01
 8.879953533104217e-01	 6.084843299829010e-01	 1.275831965061899e+01
 8.820713588905280e-01	 6.170405539027867e-01	 1.245850051955361e+01
 8.760597917490985e-01	 6.255462961413537e-01	 1.215680101449053e+01
 8.699612862160733e-01	 6.340002269880624e-01	 1.185495414735235e+01
 8.637765033019005e-01	 6.424010271467361e-01	 1.155477208083641e+01
 9.267046134051795e-01	 5.592016172785207e-01	 1.457532078608455e+01
 9.212884250753204e-01	 5.680805639128945e-01	 1.426715304032583e+01
 9.157809312763656e-01	 5.769169569218340e-01	 1.396908043434268e+01
 9.101826055658323e-01	 5.857094107138360e-01	 1.368121694400937e+01
 9.044939491646729e-01	 5.944565460972321e-01	 1.339933535081607e+01
 8.987154908678815e-01	 6.031569909629330e-01	 1.311204710825344e+01
 8.928477869350687e-01	 6.118093809664141e-01	 1.282010582613423e+01
 8.868914209609678e-01	 6.204123602082664e-01	 1.252508488863476e+01
 8.808470037258695e-01	 6.289645819126179e-01	 1.222864167034449e+01
 8.747151730259975e-01	 6.374647091027514e-01	 1.193251551626970e+01
 8.684965934838782e-01	 6.459114152732212e-01	 1.163852550608749e+01
 9.317410515215122e-01	 5.622407565028604e-01	 1.459619256950737e+01
 9.262954273855121e-01	 5.711679582819865e-01	 1.429576448687907e+01
 9.207580015550412e-01	 5.800523751659740e-01	 1.400619806306105e+01
 9.151292501612989e-01	 5.888926140329327e-01	 1.372753681866769e+01
 9.094096771492632e-01	 5.976872881955867e-01	 1.344977287959659e+01
 9.035998141878154e-01	 6.064350180877313e-01	 1.316633023119924e+01
 8.977002205597153e-01	 6.151344319499273e-01	 1.287869590852073e+01
 8.917114830314079e-01	 6.237841665137460e-01	 1.258844303548896e+01
 8.856342157026406e-01	 6.323828676838822e-01	 1.229722902258959e+01
 8.794690598359216e-01	 6.409291912174403e-01	 1.200679354437705e+01
 8.732166836658558e-01	 6.494218033997060e-01	 1.171895629720740e+01
 9.367774896378445e-01	 5.652798957272002e-01	 1.461583513836944e+01
 9.313024296957041e-01	 5.742553526510784e-01	 1.432327615489224e+01
 9.257350718337175e-01	 5.831877934101146e-01	 1.404237577709615e+01
 9.200758947567651e-01	 5.920758173520297e-01	 1.377144581988989e+01
 9.143254051338539e-01	 6.009180302939413e-01	 1.349700689304693e+01
 9.084841375077494e-01	 6.097130452125298e-01	 1.321736584282488e+01
 9.025526541843630e-01	 6.184594829334406e-01	 1.293400414745535e+01
 8.965315451018483e-01	 6.271559728192257e-01	 1.264848935703797e+01
 8.904214276794116e-01	 6.358011534551463e-01	 1.236247329864444e+01
 8.842229466458457e-01	 6.443936733321293e-01	 1.207769005769783e+01
 8.779367738478334e-01	 6.529321915261909e-01	 1.179595373590282e+01
 9.418139277541773e-01	 5.683190349515399e-01	 1.463419078424580e+01
 9.363094320058961e-01	 5.773427470201701e-01	 1.434965752806467e+01
 9.307121421123937e-01	 5.863232116542550e-01	 1.407760574483929e+01
 9.250225393522319e-01	 5.952590206711268e-01	 1.381209507963037e+01
 9.192411331184446e-01	 6.041487723922957e-01	 1.354093582573294e+01
 9.133684608276840e-01	 6.129910723373286e-01	 1.326506124868219e+01
 9.074050878090101e-01	 6.217845339169538e-01	 1.298594233848609e+01
 9.013516071722881e-01	 6.305277791247056e-01	 1.270513583242196e+01
 8.952086396561826e-01	 6.392194392264106e-01	 1.242428243354175e+01
 8.889768334557693e-01	 6.478581554468180e-01	 1.214510480225094e+01
 8.826568640298111e-01	 6.564425796526758e-01	 1.186940532112408e+01
 9.468503658705095e-01	 5.713581741758798e-01	 1.465119823894774e+01
 9.413164343160881e-01	 5.804301413892620e-01	 1.437487387165593e+01
 9.356892123910693e-01	 5.894586298983954e-01	 1.411168798820361e+01
 9.299691839476983e-01	 5.984422239902237e-01	 1.384936781111144e+01
 9.241568611030353e-01	 6.073795144906503e-01	 1.358145597962509e+01
 9.182527841476179e-01	 6.162690994621272e-01	 1.330932148024993e+01
 9.122575214336570e-01	 6.251095849004669e-01	 1.303441995197587e+01
 9.061716692427282e-01	 6.338995854301852e-01	 1.275829215295656e+01
 8.999958516329537e-01	 6.426377249976750e-01	 1.248256219836675e+01
 8.937307202656936e-01	 6.513226375615070e-01	 1.220893556849035e+01
 8.873769542117887e-01	 6.599529677791607e-01	 1.193919688707390e+01
 9.518868039868423e-01	 5.743973134002196e-01	 1.466679263331808e+01
 9.463234366262803e-01	 5.835175357583539e-01	 1.439888620593303e+01
 9.406662826697455e-01	 5.925940481425358e-01	 1.414275101169981e+01
 9.349158285431649e-01	 6.016254273093206e-01	 1.388314543773859e+01
 9.290725890876259e-01	 6.106102565890049e-01	 1.361846164182884e+01
 9.231371074675522e-01	 6.195471265869258e-01	 1.335004941870858e+01
 9.171099550583041e-01	 6.284346358839797e-01	 1.307934426037999e+01
 9.109917313131684e-01	 6.372713917356648e-01	 1.280786585041139e+01
 9.047830636097246e-01	 6.460560107689389e-01	 1.253721632708419e+01
 8.984846070756172e-01	 6.547871196761960e-01	 1.226907831427545e+01
 8.920970443937664e-01	 6.634633559056458e-01	 1.200521271997011e+01
 9.569232421031746e-01	 5.774364526245593e-01	 1.468090545614112e+01
 9.513304389364718e-01	 5.866049301274455e-01	 1.442165127924160e+01
 9.456433529484211e-01	 5.957294663866760e-01	 1.417020724441112e+01
 9.398624731386311e-01	 6.048086306284174e-01	 1.391330770108922e+01
 9.339883170722164e-01	 6.138409986873594e-01	 1.365184520096011e+01
 9.280214307874862e-01	 6.228251537117241e-01	 1.338714591719694e+01
 9.219623886829511e-01	 6.317596868674930e-01	 1.312062046391608e+01
 9.158117933836081e-01	 6.406431980411446e-01	 1.285376242367231e+01
 9.095702755864957e-01	 6.494742965402035e-01	 1.258814664181564e+01
 9.032384938855409e-01	 6.582516017908846e-01	 1.232542728643105e+01
 8.968171345757437e-01	 6.669737440321303e-01	 1.206733567360611e+01
 8.496162327559678e-01	 6.318698627672816e-01	 1.128465392699979e+01
 8.434486529401027e-01	 6.400793984260955e-01	 1.096677924710842e+01
 8.371975883647145e-01	 6.482341123948141e-01	 1.065001469159737e+01
 8.308637666257958e-01	 6.563327416367258e-01	 1.033523482013450e+01
 8.244479406264884e-01	 6.643740359411465e-01	 1.002332918481050e+01
 8.179508882952879e-01	 6.723567585537725e-01	 9.715200622862927e+00
 8.113734122854902e-01	 6.802796867996175e-01	 9.411763452148417e+00
 8.047163396561177e-01	 6.881416126978849e-01	 9.113941573915699e+00
 7.979805215345602e-01	 6.959413435681322e-01	 8.822666488090993e+00
 7.911668327612282e-01	 7.036777026270995e-01	 8.538875226910934e+00
 7.842761715165067e-01	 7.113495295755786e-01	 8.263508213365323e+00
 8.543363229379453e-01	 6.353802508937664e-01	 1.137773057015390e+01
 8.481344787897697e-01	 6.436353950840182e-01	 1.106620477726503e+01
 8.418486860778518e-01	 6.518354130192296e-01	 1.075553077484227e+01
 8.354796764403836e-01	 6.599790346458189e-01	 1.044658105112567e+01
 8.290282069633026e-01	 6.680650028074863e-01	 1.014024277880247e+01
 8.224950598969282e-01	 6.760920738790711e-01	 9.837416097045914e+00
 8.158810423537431e-01	 6.840590183929488e-01	 9.539012293676127e+00
 8.091869859875406e-01	 6.919646216573176e-01	 9.245951892062484e+00
 8.024137466541970e-01	 6.998076843657332e-01	 8.959162648045563e+00
 7.955622040543463e-01	 7.075870231972501e-01	 8.679577462827833e+00
 7.886332613582649e-01	 7.153014714065544e-01	 8.408132218401294e+00
 8.590564131199229e-01	 6.388906390202510e-01	 1.146780483768540e+01
 8.528203046394374e-01	 6.471913917419413e-01	 1.116261621090855e+01
 8.464997837909889e-01	 6.554367136436451e-01	 1.085799929031636e+01
 8.400955862549716e-01	 6.636253276549120e-01	 1.055482649127503e+01
 8.336084733001162e-01	 6.717559696738261e-01	 1.025398478527970e+01
 8.270392314985686e-01	 6.798273892043699e-01	 9.956373968610835e+00
 8.203886724219960e-01	 6.878383499862799e-01	 9.662904828130193e+00
 8.136576323189636e-01	 6.957876306167503e-01	 9.374497208889741e+00
 8.068469717738336e-01	 7.036740251633340e-01	 9.092077988923759e+00
 7.999575753474643e-01	 7.114963437674009e-01	 8.816578967269301e+00
 7.929903512000236e-01	 7.192534132375297e-01	 8.548934671923801e+00
 8.637765033019005e-01	 6.424010271467361e-01	 1.155477208083640e+01
 8.575061304891046e-01	 6.507473883998636e-01	 1.125589444207304e+01
 8.511508815041262e-01	 6.590380142680611e-01	 1.095728903604896e+01
 8.447114960695591e-01	 6.672716206640048e-01	 1.065983016507608e+01
 8.381887396369301e-01	 6.754469365401656e-01	 1.036440673780948e+01
 8.315834031002093e-01	 6.835627045296686e-01	 1.007192052185501e+01
 8.248963024902486e-01	 6.916176815796112e-01	 9.783284290164744e+00
 8.181282786503865e-01	 6.996106395761832e-01	 9.499419865958270e+00
 8.112801968934695e-01	 7.075403659609345e-01	 9.221256071630670e+00
 8.043529466405820e-01	 7.154056643375513e-01	 8.949726587805005e+00
 7.973474410417818e-01	 7.232053550685051e-01	 8.685767729373090e+00
 8.684965934838782e-01	 6.459114152732212e-01	 1.163852550608749e+01
 8.621919563387718e-01	 6.543033850577865e-01	 1.134591855579385e+01
 8.558019792172635e-01	 6.626393148924767e-01	 1.105326728187103e+01
 8.493274058841468e-01	 6.709179136730975e-01	 1.076144979538405e+01
 8.427690059737442e-01	 6.791379034065055e-01	 1.047135904142106e+01
 8.361275747018498e-01	 6.872980198549675e-01	 1.018390103300794e+01
 8.294039325585013e-01	 6.953970131729423e-01	 9.899992975092889e+00
 8.225989249818093e-01	 7.034336485356157e-01	 9.620561283407639e+00
 8.157134220131063e-01	 7.114067067585352e-01	 9.346539503758351e+00
 8.087483179337002e-01	 7.193149849077016e-01	 9.078866138027395e+00
 8.017045308835402e-01	 7.271572968994807e-01	 8.818482383872475e+00
 8.732166836658558e-01	 6.494218033997060e-01	 1.171895629720741e+01
 8.668777821884390e-01	 6.578593817157092e-01	 1.143256594236451e+01
 8.604530769304007e-01	 6.662406155168923e-01	 1.114579987719299e+01
 8.539433156987346e-01	 6.745642066821906e-01	 1.085954190600618e+01
 8.473492723105578e-01	 6.828288702728450e-01	 1.057469107127270e+01
 8.406717463034900e-01	 6.910333351802661e-01	 1.029215986621839e+01
 8.339115626267541e-01	 6.991763447662734e-01	 1.001287233341284e+01
 8.270695713132321e-01	 7.072566574950484e-01	 9.737762054216937e+00
 8.201466471327428e-01	 7.152730475561359e-01	 9.467770034745564e+00
 8.131436892268180e-01	 7.232243054778521e-01	 9.203842494753548e+00
 8.060616207252984e-01	 7.311092387304557e-01	 8.946928566581770e+00
 8.779367738478334e-01	 6.529321915261909e-01	 1.179595373590281e+01
 8.715636080381062e-01	 6.614153783736320e-01	 1.151571241046203e+01
 8.651041746435382e-01	 6.698419161413079e-01	 1.123475135786972e+01
 8.585592255133223e-01	 6.782104996912836e-01	 1.095396192355208e+01
 8.519295386473718e-01	 6.865198371391850e-01	 1.067425127071213e+01
 8.452159179051307e-01	 6.947686505055648e-01	 1.039654056902637e+01
 8.384191926950068e-01	 7.029556763596048e-01	 1.012176306486701e+01
 8.315402176446551e-01	 7.110796664544814e-01	 9.850862038003536e+00
 8.245798722523795e-01	 7.191393883537366e-01	 9.584788650544688e+00
 8.175390605199363e-01	 7.271336260480030e-01	 9.324499694659115e+00
 8.104187105670571e-01	 7.350611805614313e-01	 9.070955246375092e+00
 8.826568640298111e-01	 6.564425796526758e-01	 1.186940532112408e+01
 8.762494338877734e-01	 6.649713750315549e-01	 1.159523229917897e+01
 8.697552723566754e-01	 6.734432167657237e-01	 1.131998505218545e+01
 8.631751353279100e-01	 6.818567927003765e-01	 1.104456427857335e+01
 8.565098049841856e-01	 6.902108040055245e-01	 1.076988724875325e+01
 8.497600895067714e-01	 6.985039658308636e-01	 1.049688596733680e+01
 8.429268227632594e-01	 7.067350079529363e-01	 1.022650521204988e+01
 8.360108639760779e-01	 7.149026754139138e-01	 9.959700454378510e+00
 8.290130973720158e-01	 7.230057291513374e-01	 9.697435667812282e+00
 8.219344318130539e-01	 7.310429466181536e-01	 9.440681030369170e+00
 8.147758004088154e-01	 7.390131223924069e-01	 9.190410528867183e+00
 8.873769542117887e-01	 6.599529677791607e-01	 1.193919688707390e+01
 8.809352597374407e-01	 6.685273716894775e-01	 1.167099858900589e+01
 8.744063700698128e-01	 6.770445173901393e-01	 1.140136318599071e+01
 8.677910451424982e-01	 6.855030857094693e-01	 1.113120250601890e+01
 8.610900713209997e-01	 6.939017708718642e-01	 1.086144587699127e+01
 8.543042611084116e-01	 7.022392811561625e-01	 1.059303825991382e+01
 8.474344528315122e-01	 7.105143395462672e-01	 1.032693825358167e+01
 8.404815103075007e-01	 7.187256843733465e-01	 1.006411597587370e+01
 8.334463224916518e-01	 7.268720699489380e-01	 9.805550827641786e+00
 8.263298031061719e-01	 7.349522671883039e-01	 9.552229146022306e+00
 8.191328902505736e-01	 7.429650642233822e-01	 9.305141754812944e+00
 8.920970443937664e-01	 6.634633559056458e-01	 1.200521271997011e+01
 8.856210855871078e-01	 6.720833683474002e-01	 1.174288301180220e+01
 8.790574677829501e-01	 6.806458180145551e-01	 1.147874698702373e+01
 8.724069549570855e-01	 6.891493787185621e-01	 1.121372934503061e+01
 8.656703376578134e-01	 6.975927377382041e-01	 1.094877338597592e+01
 8.588484327100523e-01	 7.059745964814612e-01	 1.068483911241609e+01
 8.519420828997653e-01	 7.142936711395985e-01	 1.042290119686353e+01
 8.449521566389239e-01	 7.225486933327794e-01	 1.016394682045691e+01
 8.378795476112886e-01	 7.307384107465389e-01	 9.908973388854839e+00
 8.307251743992902e-01	 7.388615877584547e-01	 9.658986132331453e+00
 8.234899800923320e-01	 7.469170060543580e-01	 9.414995597904072e+00
 8.968171345757437e-01	 6.669737440321303e-01	 1.206733567360611e+01
 8.903069114367749e-01	 6.756393650053228e-01	 1.181075615979122e+01
 8.837085654960876e-01	 6.842471186389705e-01	 1.155199678844659e+01
 8.770228647716732e-01	 6.927956717276549e-01	 1.129199683810470e+01
 8.702506039946272e-01	 7.012837046045438e-01	 1.103171546106459e+01
 8.633926043116927e-01	 7.097099118067598e-01	 1.077212975098576e+01
 8.564497129680178e-01	 7.180730027329296e-01	 1.051423267043026e+01
 8.494228029703464e-01	 7.263717022922118e-01	 1.025903084365183e+01
 8.423127727309250e-01	 7.346047515441396e-01	 1.000754222086893e+01
 8.351205456924077e-01	 7.427709083286049e-01	 9.760793621157102e+00
 8.278470699340904e-01	 7.508689478853331e-01	 9.519818161982954e+00
 7.842761715165067e-01	 7.113495295755786e-01	 8.263508213365323e+00
 7.773094589303485e-01	 7.189556811747128e-01	 7.992010212614961e+00
 7.702676386748507e-01	 7.264950318111310e-01	 7.720041938682003e+00
 7.631516765401949e-01	 7.339664740503317e-01	 7.448869960695710e+00
 7.559625599943461e-01	 7.413689191777469e-01	 7.179760054557184e+00
 7.487012977269328e-01	 7.487012977269328e-01	 6.913974514311431e+00
 7.413689191777473e-01	 7.559625599943459e-01	 6.652769434168099e+00
 7.339664740503318e-01	 7.631516765401949e-01	 6.397391971408651e+00
 7.264950318111312e-01	 7.702676386748506e-01	 6.149077600719448e+00
 7.189556811747130e-01	 7.773094589303483e-01	 5.909047370748201e+00
 7.113495295755787e-01	 7.842761715165070e-01	 5.678505173864814e+00
 7.886332613582649e-01	 7.153014714065544e-01	 8.408132218401294e+00
 7.816278448132951e-01	 7.229498794034610e-01	 8.140279806297178e+00
 7.745469033341552e-01	 7.305311153211923e-01	 7.871698812860333e+00
 7.673914080765294e-01	 7.380440655728334e-01	 7.603665729665803e+00
 7.601623519943148e-01	 7.454876353954013e-01	 7.337456434575456e+00
 7.528607493809711e-01	 7.528607493809710e-01	 7.074343447427727e+00
 7.454876353954014e-01	 7.601623519943144e-01	 6.815593154244281e+00
 7.380440655728338e-01	 7.673914080765291e-01	 6.562463010488226e+00
 7.305311153211930e-01	 7.745469033341552e-01	 6.316198734208344e+00
 7.229498794034614e-01	 7.816278448132946e-01	 6.078031500189184e+00
 7.153014714065542e-01	 7.886332613582653e-01	 5.849175146414854e+00
 7.929903512000236e-01	 7.192534132375297e-01	 8.548934671923801e+00
 7.859462306962410e-01	 7.269440776322095e-01	 8.284613607339843e+00
 7.788261679934604e-01	 7.345671988312547e-01	 8.019317327730603e+00
 7.716311396128638e-01	 7.421216570953353e-01	 7.754331957005977e+00
 7.643621439942830e-01	 7.496063516130553e-01	 7.490943175951135e+00
 7.570202010350101e-01	 7.570202010350098e-01	 7.230433421613827e+00
 7.496063516130553e-01	 7.643621439942829e-01	 6.974079053016917e+00
 7.421216570953354e-01	 7.716311396128634e-01	 6.723147494022037e+00
 7.345671988312549e-01	 7.788261679934602e-01	 6.478894364490690e+00
 7.269440776322098e-01	 7.859462306962410e-01	 6.242560611187200e+00
 7.192534132375298e-01	 7.929903512000236e-01	 6.015369650065577e+00
 7.973474410417818e-01	 7.232053550685051e-01	 8.685767729373090e+00
 7.902646165791878e-01	 7.309382758609579e-01	 8.424869937798791e+00
 7.831054326527647e-01	 7.386032823413159e-01	 8.162761708186276e+00
 7.758708711491978e-01	 7.461992486178369e-01	 7.900738520299112e+00
 7.685619359942520e-01	 7.537250678307095e-01	 7.640095573163018e+00
 7.611796526890483e-01	 7.611796526890481e-01	 7.382124927495770e+00
 7.537250678307098e-01	 7.685619359942518e-01	 7.128112612198975e+00
 7.461992486178373e-01	 7.758708711491978e-01	 6.879335706039592e+00
 7.386032823413163e-01	 7.831054326527647e-01	 6.637059405988522e+00
 7.309382758609582e-01	 7.902646165791875e-01	 6.402534093982755e+00
 7.232053550685051e-01	 7.973474410417821e-01	 6.176992414105281e+00
 8.017045308835402e-01	 7.271572968994807e-01	 8.818482383872475e+00
 7.945830024621342e-01	 7.349324740897066e-01	 8.560905806785401e+00
 7.873846973120697e-01	 7.426393658513781e-01	 8.301894717812896e+00
 7.801106026855327e-01	 7.502768401403389e-01	 8.042753689597580e+00
 7.727617279942204e-01	 7.578437840483638e-01	 7.784787168967089e+00
 7.653391043430869e-01	 7.653391043430865e-01	 7.529296561708758e+00
 7.578437840483638e-01	 7.727617279942203e-01	 7.277577279076051e+00
 7.502768401403392e-01	 7.801106026855325e-01	 7.030915757455825e+00
 7.426393658513784e-01	 7.873846973120697e-01	 6.790586462991539e+00
 7.349324740897066e-01	 7.945830024621339e-01	 6.557848893266701e+00
 7.271572968994806e-01	 8.017045308835403e-01	 6.333944588396437e+00
 8.060616207252984e-01	 7.311092387304557e-01	 8.946928566581770e+00
 7.989013883450805e-01	 7.389266723184547e-01	 8.692577014402792e+00
 7.916639619713747e-01	 7.466754493614401e-01	 8.436577766173730e+00
 7.843503342218671e-01	 7.543544316628406e-01	 8.180244237833362e+00
 7.769615199941893e-01	 7.619625002660179e-01	 7.924889867709619e+00
 7.694985559971255e-01	 7.694985559971252e-01	 7.671825142905107e+00
 7.619625002660181e-01	 7.769615199941889e-01	 7.422354585007245e+00
 7.543544316628411e-01	 7.843503342218668e-01	 7.177773706864243e+00
 7.466754493614403e-01	 7.916639619713745e-01	 6.939365952555938e+00
 7.389266723184549e-01	 7.989013883450802e-01	 6.708399633008131e+00
 7.311092387304560e-01	 8.060616207252987e-01	 6.486124869958623e+00
 8.104187105670571e-01	 7.350611805614313e-01	 9.070955246375092e+00
 8.032197742280266e-01	 7.429208705472031e-01	 8.819738254877720e+00
 7.959432266306790e-01	 7.507115328715018e-01	 8.566671015169367e+00
 7.885900657582017e-01	 7.584320231853428e-01	 8.313075550185392e+00
 7.811613119941578e-01	 7.660812164836719e-01	 8.060274047491081e+00
 7.736580076511641e-01	 7.736580076511635e-01	 7.809585826505860e+00
 7.660812164836721e-01	 7.811613119941572e-01	 7.562324262562982e+00
 7.584320231853430e-01	 7.885900657582011e-01	 7.319793679873227e+00
 7.507115328715022e-01	 7.959432266306790e-01	 7.083286225855277e+00
 7.429208705472033e-01	 8.032197742280266e-01	 6.854078739640339e+00
 7.350611805614313e-01	 8.104187105670571e-01	 6.633429627824141e+00
 8.147758004088154e-01	 7.390131223924069e-01	 9.190410528867183e+00
 8.075381601109732e-01	 7.469150687759516e-01	 8.942243218920659e+00
 8.002224912899837e-01	 7.547476163815635e-01	 8.692033484510615e+00
 7.928297972945361e-01	 7.625096147078445e-01	 8.441111732447716e+00
 7.853611039941264e-01	 7.701999327013260e-01	 8.190808671220092e+00
 7.778174593052025e-01	 7.778174593052022e-01	 7.942452218239592e+00
 7.701999327013266e-01	 7.853611039941261e-01	 7.697364361355779e+00
 7.625096147078446e-01	 7.928297972945355e-01	 7.456857987038926e+00
 7.547476163815638e-01	 8.002224912899837e-01	 7.222233688034509e+00
 7.469150687759519e-01	 8.075381601109732e-01	 6.994776563665977e+00
 7.390131223924069e-01	 8.147758004088155e-01	 6.775753026228636e+00
 8.191328902505736e-01	 7.429650642233822e-01	 9.305141754812944e+00
 8.118565459939194e-01	 7.509092670047000e-01	 9.059944695341656e+00
 8.045017559492886e-01	 7.587836998916256e-01	 8.812523156332178e+00
 7.970695288308701e-01	 7.665872062303463e-01	 8.564215718432919e+00
 7.895608959940951e-01	 7.743186489189804e-01	 8.316361396601959e+00
 7.819769109592412e-01	 7.819769109592409e-01	 8.070296486517117e+00
 7.743186489189806e-01	 7.895608959940946e-01	 7.827351362609566e+00
 7.665872062303464e-01	 7.970695288308699e-01	 7.588847240446339e+00
 7.587836998916260e-01	 8.045017559492883e-01	 7.356092916627856e+00
 7.509092670047001e-01	 8.118565459939192e-01	 7.130381499740976e+00
 7.429650642233824e-01	 8.191328902505738e-01	 6.912987146201745e+00
 8.234899800923320e-01	 7.469170060543580e-01	 9.414995597904072e+00
 8.161749318768661e-01	 7.549034652334483e-01	 9.172694671950762e+00
 8.087810206085930e-01	 7.628197834016872e-01	 8.927997078984646e+00
 8.013092603672046e-01	 7.706647977528481e-01	 8.682249376448510e+00
 7.937606879940639e-01	 7.784373651366344e-01	 8.436798685098102e+00
 7.861363626132797e-01	 7.861363626132793e-01	 8.192989473683019e+00
 7.784373651366348e-01	 7.937606879940633e-01	 7.952160292515599e+00
 7.706647977528482e-01	 8.013092603672043e-01	 7.715640468990167e+00
 7.628197834016874e-01	 8.087810206085930e-01	 7.484746778590175e+00
 7.549034652334486e-01	 8.161749318768656e-01	 7.260780105293714e+00
 7.469170060543578e-01	 8.234899800923321e-01	 7.045022105613959e+00
 8.278470699340904e-01	 7.508689478853331e-01	 9.519818161982954e+00
 8.204933177598123e-01	 7.588976634621968e-01	 9.280344435766748e+00
 8.130602852678982e-01	 7.668558669117492e-01	 9.038311470031559e+00
 8.055489919035392e-01	 7.747423892753500e-01	 8.795073614878291e+00
 7.979604799940321e-01	 7.825560813542883e-01	 8.551985909897645e+00
 7.902958142673180e-01	 7.902958142673178e-01	 8.310400806185946e+00
 7.825560813542888e-01	 7.979604799940320e-01	 8.071664834418918e+00
 7.747423892753503e-01	 8.055489919035388e-01	 7.837115232401311e+00
 7.668558669117495e-01	 8.130602852678979e-01	 7.608076545995266e+00
 7.588976634621971e-01	 8.204933177598122e-01	 7.385857217731354e+00
 7.508689478853332e-01	 8.278470699340904e-01	 7.171746177737426e+00
 7.113495295755787e-01	 7.842761715165070e-01	 5.678505173864814e+00
 7.036777026270998e-01	 7.911668327612280e-01	 5.453511982536475e+00
 6.959413435681324e-01	 7.979805215345602e-01	 5.229934029341462e+00
 6.881416126978853e-01	 8.047163396561174e-01	 5.008642857283049e+00
 6.802796867996178e-01	 8.113734122854903e-01	 4.790474112398943e+00
 6.723567585537729e-01	 8.179508882952876e-01	 4.576225650967374e+00
 6.643740359411469e-01	 8.244479406264887e-01	 4.366655738049860e+00
 6.563327416367262e-01	 8.308637666257958e-01	 4.162481346851080e+00
 6.482341123948145e-01	 8.371975883647143e-01	 3.964376568068847e+00
 6.400793984260956e-01	 8.434486529401025e-01	 3.772971138015587e+00
 6.318698627672814e-01	 8.496162327559678e-01	 3.588849093871953e+00
 7.153014714065542e-01	 7.886332613582653e-01	 5.849175146414854e+00
 7.075870231972503e-01	 7.955622040543461e-01	 5.625609125431144e+00
 6.998076843657336e-01	 8.024137466541967e-01	 5.403133557643763e+00
 6.919646216573179e-01	 8.091869859875405e-01	 5.182653277605432e+00
 6.840590183929490e-01	 8.158810423537429e-01	 4.965037691005963e+00
 6.760920738790714e-01	 8.224950598969282e-01	 4.751118786820706e+00
 6.680650028074867e-01	 8.290282069633028e-01	 4.541689240894691e+00
 6.599790346458192e-01	 8.354796764403836e-01	 4.337500620856291e+00
 6.518354130192301e-01	 8.418486860778518e-01	 4.139261701936352e+00
 6.436353950840186e-01	 8.481344787897699e-01	 3.947636902880422e+00
 6.353802508937664e-01	 8.543363229379457e-01	 3.763244850707951e+00
 7.192534132375298e-01	 7.929903512000236e-01	 6.015369650065577e+00
 7.114963437674012e-01	 7.999575753474643e-01	 5.793225535082583e+00
 7.036740251633342e-01	 8.068469717738331e-01	 5.571867330421242e+00
 6.957876306167509e-01	 8.136576323189636e-01	 5.352231089750603e+00
 6.878383499862801e-01	 8.203886724219955e-01	 5.135217779033190e+00
 6.798273892043702e-01	 8.270392314985686e-01	 4.921691195158369e+00
 6.717559696738263e-01	 8.336084733001163e-01	 4.712475976265072e+00
 6.636253276549120e-01	 8.400955862549713e-01	 4.508355714064963e+00
 6.554367136436454e-01	 8.464997837909888e-01	 4.310071178151011e+00
 6.471913917419415e-01	 8.528203046394373e-01	 4.118318661887358e+00
 6.388906390202511e-01	 8.590564131199233e-01	 3.933748459027215e+00
 7.232053550685051e-01	 7.973474410417821e-01	 6.176992414105281e+00
 7.154056643375517e-01	 8.043529466405819e-01	 5.956268295961713e+00
 7.075403659609346e-01	 8.112801968934695e-01	 5.736043973883166e+00
 6.996106395761835e-01	 8.181282786503864e-01	 5.517284693769679e+00
 6.916176815796117e-01	 8.248963024902486e-01	 5.300920829510470e+00
 6.835627045296691e-01	 8.315834031002090e-01	 5.087845709559671e+00
 6.754469365401661e-01	 8.381887396369302e-01	 4.878913535610391e+00
 6.672716206640048e-01	 8.447114960695588e-01	 4.674937404094977e+00
 6.590380142680613e-01	 8.511508815041261e-01	 4.476687440915198e+00
 6.507473883998639e-01	 8.575061304891046e-01	 4.284889059404766e+00
 6.424010271467362e-01	 8.637765033019008e-01	 4.100221351074091e+00
 7.271572968994806e-01	 8.017045308835403e-01	 6.333944588396437e+00
 7.193149849077021e-01	 8.087483179336999e-01	 6.114641799533044e+00
 7.114067067585353e-01	 8.157134220131064e-01	 5.895569346337615e+00
 7.034336485356161e-01	 8.225989249818091e-01	 5.677719684979628e+00
 6.953970131729428e-01	 8.294039325585012e-01	 5.462050491315662e+00
 6.872980198549677e-01	 8.361275747018494e-01	 5.249482396781629e+00
 6.791379034065057e-01	 8.427690059737440e-01	 5.040896816942833e+00
 6.709179136730977e-01	 8.493274058841466e-01	 4.837133883853966e+00
 6.626393148924770e-01	 8.558019792172633e-01	 4.638990493052788e+00
 6.543033850577866e-01	 8.621919563387714e-01	 4.447218475600700e+00
 6.459114152732210e-01	 8.684965934838784e-01	 4.262522905131226e+00
 7.311092387304560e-01	 8.060616207252987e-01	 6.486124869958623e+00
 7.232243054778525e-01	 8.131436892268178e-01	 6.268247871923087e+00
 7.152730475561362e-01	 8.201466471327425e-01	 6.050346665782738e+00
 7.072566574950485e-01	 8.270695713132321e-01	 5.833438980341285e+00
 6.991763447662738e-01	 8.339115626267540e-01	 5.618507733228919e+00
 6.910333351802663e-01	 8.406717463034901e-01	 5.406498677403905e+00
 6.828288702728454e-01	 8.473492723105577e-01	 5.198318141015942e+00
 6.745642066821909e-01	 8.539433156987343e-01	 4.994830872222464e+00
 6.662406155168925e-01	 8.604530769304005e-01	 4.796858000195884e+00
 6.578593817157093e-01	 8.668777821884388e-01	 4.605175123162075e+00
 6.494218033997059e-01	 8.732166836658559e-01	 4.420510533832623e+00
 7.350611805614313e-01	 8.104187105670571e-01	 6.633429627824141e+00
 7.271336260480032e-01	 8.175390605199356e-01	 6.416985899792126e+00
 7.191393883537373e-01	 8.245798722523792e-01	 6.200276635671935e+00
 7.110796664544815e-01	 8.315402176446549e-01	 5.984342943014839e+00
 7.029556763596053e-01	 8.384191926950069e-01	 5.770190966202900e+00
 6.947686505055651e-01	 8.452159179051305e-01	 5.558789444762067e+00
 6.865198371391851e-01	 8.519295386473715e-01	 5.351067365897507e+00
 6.782104996912838e-01	 8.585592255133222e-01	 5.147911723266875e+00
 6.698419161413081e-01	 8.651041746435379e-01	 4.950165393669931e+00
 6.614153783736324e-01	 8.715636080381060e-01	 4.758625142908242e+00
 6.529321915261908e-01	 8.779367738478335e-01	 4.574039771595039e+00
 7.390131223924069e-01	 8.147758004088155e-01	 6.775753026228636e+00
 7.310429466181539e-01	 8.219344318130539e-01	 6.560752954480145e+00
 7.230057291513377e-01	 8.290130973720155e-01	 6.345257568921030e+00
 7.149026754139142e-01	 8.360108639760776e-01	 6.130329505162999e+00
 7.067350079529364e-01	 8.429268227632593e-01	 5.916996163915622e+00
 6.985039658308639e-01	 8.497600895067712e-01	 5.706247182234337e+00
 6.902108040055249e-01	 8.565098049841854e-01	 5.499031999993017e+00
 6.818567927003769e-01	 8.631751353279102e-01	 5.296257534036783e+00
 6.734432167657238e-01	 8.697552723566753e-01	 5.098785972122786e+00
 6.649713750315549e-01	 8.762494338877732e-01	 4.907432698341466e+00
 6.564425796526758e-01	 8.826568640298111e-01	 4.722964361204817e+00
 7.429650642233824e-01	 8.191328902505738e-01	 6.912987146201745e+00
 7.349522671883043e-01	 8.263298031061717e-01	 6.699443914486996e+00
 7.268720699489387e-01	 8.334463224916521e-01	 6.485185510223769e+00
 7.187256843733467e-01	 8.404815103075006e-01	 6.271294289064556e+00
 7.105143395462675e-01	 8.474344528315121e-01	 6.058816981672116e+00
 7.022392811561626e-01	 8.543042611084117e-01	 5.848762078939815e+00
 6.939017708718646e-01	 8.610900713209990e-01	 5.642097313582614e+00
 6.855030857094696e-01	 8.677910451424976e-01	 5.439747250997683e+00
 6.770445173901395e-01	 8.744063700698128e-01	 5.242591001945015e+00
 6.685273716894778e-01	 8.809352597374406e-01	 5.051460069171155e+00
 6.599529677791606e-01	 8.873769542117889e-01	 4.867136339589865e+00
 7.469170060543578e-01	 8.234899800923321e-01	 7.045022105613959e+00
 7.388615877584549e-01	 8.307251743992898e-01	 6.832951586353216e+00
 7.307384107465392e-01	 8.378795476112882e-01	 6.619954356738109e+00
 7.225486933327793e-01	 8.449521566389234e-01	 6.407130726603237e+00
 7.142936711395987e-01	 8.519420828997647e-01	 6.195544873713381e+00
 7.059745964814614e-01	 8.588484327100520e-01	 5.986222143912107e+00
 6.975927377382041e-01	 8.656703376578130e-01	 5.780146448921784e+00
 6.891493787185626e-01	 8.724069549570855e-01	 5.578257775154675e+00
 6.806458180145551e-01	 8.790574677829498e-01	 5.381449816529602e+00
 6.720833683474008e-01	 8.856210855871079e-01	 5.190567743852227e+00
 6.634633559056456e-01	 8.920970443937665e-01	 5.006406122806568e+00
 7.508689478853332e-01	 8.278470699340904e-01	 7.171746177737426e+00
 7.427709083286050e-01	 8.351205456924075e-01	 6.961166823995969e+00
 7.346047515441397e-01	 8.423127727309248e-01	 6.749455977202603e+00
 7.263717022922123e-01	 8.494228029703464e-01	 6.537730177189046e+00
 7.180730027329297e-01	 8.564497129680174e-01	 6.327069208993358e+00
 7.097099118067602e-01	 8.633926043116925e-01	 6.118513318800047e+00
 7.012837046045441e-01	 8.702506039946267e-01	 5.913060528960919e+00
 6.927956717276552e-01	 8.770228647716732e-01	 5.711664065907867e+00
 6.842471186389706e-01	 8.837085654960870e-01	 5.515229914409113e+00
 6.756393650053230e-01	 8.903069114367748e-01	 5.324614511171903e+00
 6.669737440321303e-01	 8.968171345757439e-01	 5.140622590271477e+00
 6.318698627672814e-01	 8.496162327559678e-01	 3.588849093871953e+00
 6.236067806439961e-01	 8.556996257863020e-01	 3.411503942553689e+00
 6.152914388275612e-01	 8.616981558187854e-01	 3.240144269923039e+00
 6.069251349863476e-01	 8.676111726792077e-01	 3.074841311889087e+00
 5.985091770323617e-01	 8.734380524364798e-01	 2.915599061382282e+00
 5.900448824637387e-01	 8.791781975881445e-01	 2.762354375483909e+00
 5.815335777038143e-01	 8.848310372263103e-01	 2.614457744018751e+00
 5.729765974374484e-01	 8.903960271839663e-01	 2.470493588036822e+00
 5.643752839452721e-01	 8.958726501616617e-01	 2.329988445950460e+00
 5.557309864365274e-01	 9.012604158345522e-01	 2.192458252682377e+00
 5.470450603811613e-01	 9.065588609398499e-01	 2.057373123838402e+00
 6.353802508937664e-01	 8.543363229379457e-01	 3.763244850707951e+00
 6.270712627586849e-01	 8.604535125962258e-01	 3.585450775835011e+00
 6.187097245988252e-01	 8.664853677955565e-01	 3.413315987251640e+00
 6.102969412918273e-01	 8.724312347496476e-01	 3.246916522578228e+00
 6.018342280158748e-01	 8.782904860611269e-01	 3.086259601854768e+00
 5.933229095885374e-01	 8.840625209080789e-01	 2.931283711911044e+00
 5.847643198021686e-01	 8.897467652109008e-01	 2.781719299711915e+00
 5.761598007565450e-01	 8.953426717794328e-01	 2.636045726885157e+00
 5.675107021894128e-01	 9.008497204403381e-01	 2.493530417339661e+00
 5.588183808056192e-01	 9.062674181447442e-01	 2.353682584625432e+00
 5.500841996055011e-01	 9.115952990561822e-01	 2.215964596822545e+00
 6.388906390202511e-01	 8.590564131199233e-01	 3.933748459027215e+00
 6.305357448733739e-01	 8.652073994061499e-01	 3.755587005997747e+00
 6.221280103700895e-01	 8.712725797723272e-01	 3.582742225070929e+00
 6.136687475973071e-01	 8.772512968200877e-01	 3.415298696019752e+00
 6.051592789993882e-01	 8.831429196857740e-01	 3.253270782689037e+00
 5.966009367133360e-01	 8.889468442280131e-01	 3.096602686408745e+00
 5.879950619005231e-01	 8.946624931954914e-01	 2.945168024566827e+00
 5.793430040756423e-01	 9.002893163748996e-01	 2.797828215696860e+00
 5.706461204335529e-01	 9.058267907190137e-01	 2.653353379292702e+00
 5.619057751747112e-01	 9.112744204549363e-01	 2.511250589920452e+00
 5.531233388298408e-01	 9.166317371725146e-01	 2.370979192422559e+00
 6.424010271467362e-01	 8.637765033019008e-01	 4.100221351074091e+00
 6.340002269880628e-01	 8.699612862160737e-01	 3.921763854851661e+00
 6.255462961413539e-01	 8.760597917490985e-01	 3.748267335834858e+00
 6.170405539027869e-01	 8.820713588905280e-01	 3.579828597390345e+00
 6.084843299829013e-01	 8.879953533104213e-01	 3.416473002352759e+00
 5.998789638381343e-01	 8.938311675479470e-01	 3.258154487290318e+00
 5.912258039988777e-01	 8.995782211800820e-01	 3.104755776577724e+00
 5.825262073947391e-01	 9.052359609703657e-01	 2.955698584047047e+00
 5.737815386776933e-01	 9.108038609976895e-01	 2.809327427501576e+00
 5.649931695438032e-01	 9.162814227651285e-01	 2.665047747072443e+00
 5.561624780541806e-01	 9.216681752888473e-01	 2.522320507620166e+00
 6.459114152732210e-01	 8.684965934838784e-01	 4.262522905131226e+00
 6.374647091027518e-01	 8.747151730259975e-01	 4.083830681460828e+00
 6.289645819126181e-01	 8.808470037258695e-01	 3.909733930967918e+00
 6.204123602082665e-01	 8.868914209609680e-01	 3.740345304717020e+00
 6.118093809664144e-01	 8.928477869350684e-01	 3.575704959903384e+00
 6.031569909629331e-01	 8.987154908678813e-01	 3.415780526809144e+00
 5.944565460972321e-01	 9.044939491646726e-01	 3.260467280272908e+00
 5.857094107138359e-01	 9.101826055658321e-01	 3.109512019467036e+00
 5.769169569218340e-01	 9.157809312763656e-01	 2.961320106929175e+00
 5.680805639128947e-01	 9.212884250753199e-01	 2.814956717774064e+00
 5.592016172785204e-01	 9.267046134051795e-01	 2.669889000882459e+00
 6.494218033997059e-01	 8.732166836658559e-01	 4.420510533832623e+00
 6.409291912174404e-01	 8.794690598359214e-01	 4.241635062522157e+00
 6.323828676838824e-01	 8.856342157026403e-01	 4.066982955162942e+00
 6.237841665137462e-01	 8.917114830314078e-01	 3.896686278901222e+00
 6.151344319499273e-01	 8.977002205597153e-01	 3.730803722522729e+00
 6.064350180877316e-01	 9.035998141878151e-01	 3.569320507938169e+00
 5.976872881955869e-01	 9.094096771492631e-01	 3.412148510784039e+00
 5.888926140329330e-01	 9.151292501612986e-01	 3.259126593913760e+00
 5.800523751659742e-01	 9.207580015550413e-01	 3.109196453708225e+00
 5.711679582819866e-01	 9.262954273855121e-01	 2.960857395471566e+00
 5.622407565028602e-01	 9.317410515215121e-01	 2.813582048935071e+00
 6.529321915261908e-01	 8.779367738478335e-01	 4.574039771595039e+00
 6.443936733321294e-01	 8.842229466458452e-01	 4.395022872076801e+00
 6.358011534551467e-01	 8.904214276794118e-01	 4.219853760156546e+00
 6.271559728192259e-01	 8.965315451018480e-01	 4.048687433318732e+00
 6.184594829334406e-01	 9.025526541843626e-01	 3.881604792653688e+00
 6.097130452125301e-01	 9.084841375077496e-01	 3.718612490728273e+00
 6.009180302939414e-01	 9.143254051338537e-01	 3.559642993063297e+00
 5.920758173520299e-01	 9.200758947567651e-01	 3.404554857278043e+00
 5.831877934101146e-01	 9.257350718337172e-01	 3.252819036224497e+00
 5.742553526510784e-01	 9.313024296957041e-01	 3.102626952878637e+00
 5.652798957272002e-01	 9.367774896378447e-01	 2.953294002198385e+00
 6.564425796526758e-01	 8.826568640298111e-01	 4.722964361204817e+00
 6.478581554468181e-01	 8.889768334557692e-01	 4.543838360576288e+00
 6.392194392264109e-01	 8.952086396561826e-01	 4.368184178008303e+00
 6.305277791247057e-01	 9.013516071722878e-01	 4.196183203005033e+00
 6.217845339169537e-01	 9.074050878090097e-01	 4.027942174757561e+00
 6.129910723373289e-01	 9.133684608276837e-01	 3.863492958263784e+00
 6.041487723922958e-01	 9.192411331184446e-01	 3.702792538437913e+00
 5.952590206711268e-01	 9.250225393522317e-01	 3.545723236581348e+00
 5.863232116542550e-01	 9.307121421123932e-01	 3.392047995411306e+00
 5.773427470201701e-01	 9.363094320058959e-01	 3.240139888473254e+00
 5.683190349515397e-01	 9.418139277541772e-01	 3.088916238927741e+00
 6.599529677791606e-01	 8.873769542117889e-01	 4.867136339589865e+00
 6.513226375615071e-01	 8.937307202656931e-01	 4.687924233330232e+00
 6.426377249976751e-01	 8.999958516329535e-01	 4.511810593897428e+00
 6.338995854301852e-01	 9.061716692427280e-01	 4.339006613444938e+00
 6.251095849004666e-01	 9.122575214336569e-01	 4.169648441704847e+00
 6.162690994621272e-01	 9.182527841476176e-01	 4.003796882228141e+00
 6.073795144906505e-01	 9.241568611030352e-01	 3.841437310891231e+00
 5.984422239902236e-01	 9.299691839476979e-01	 3.682479821380413e+00
 5.894586298983957e-01	 9.356892123910693e-01	 3.526759601374090e+00
 5.804301413892621e-01	 9.413164343160880e-01	 3.373268072016642e+00
 5.713581741758795e-01	 9.468503658705096e-01	 3.220337218113841e+00
 6.634633559056456e-01	 8.920970443937665e-01	 5.006406122806568e+00
 6.547871196761961e-01	 8.984846070756172e-01	 4.827121728358104e+00
 6.460560107689394e-01	 9.047830636097245e-01	 4.650568018458173e+00
 6.372713917356653e-01	 9.109917313131684e-01	 4.476989348979776e+00
 6.284346358839800e-01	 9.171099550583041e-01	 4.306554800812408e+00
 6.195471265869260e-01	 9.231371074675520e-01	 4.139357788095580e+00
 6.106102565890049e-01	 9.290725890876258e-01	 3.975415892899744e+00
 6.016254273093207e-01	 9.349158285431645e-01	 3.814670931416726e+00
 5.925940481425358e-01	 9.406662826697451e-01	 3.656989255717679e+00
 5.835175357583540e-01	 9.463234366262800e-01	 3.501880789130686e+00
 5.743973134002195e-01	 9.518868039868424e-01	 3.347442531183563e+00
 6.669737440321303e-01	 8.968171345757439e-01	 5.140622590271477e+00
 6.582516017908848e-01	 9.032384938855408e-01	 4.961270693663405e+00
 6.494742965402034e-01	 9.095702755864955e-01	 4.784290159666752e+00
 6.406431980411449e-01	 9.158117933836081e-01	 4.609961820846748e+00
 6.317596868674930e-01	 9.219623886829510e-01	 4.438491159540931e+00
 6.228251537117243e-01	 9.280214307874860e-01	 4.270007819963372e+00
 6.138409986873595e-01	 9.339883170722164e-01	 4.104565350838838e+00
 6.048086306284176e-01	 9.398624731386310e-01	 3.942141184007512e+00
 5.957294663866762e-01	 9.456433529484205e-01	 3.782636853407583e+00
 5.866049301274456e-01	 9.513304389364720e-01	 3.625844784969324e+00
 5.774364526245593e-01	 9.569232421031748e-01	 3.470114952550714e+00
 5.470450603811613e-01	 9.065588609398499e-01	 2.057373123838402e+00
 5.383188668418429e-01	 9.117675493447331e-01	 1.926233010530823e+00
 5.295537718065515e-01	 9.168860720948053e-01	 1.800833256243696e+00
 5.207511455223890e-01	 9.219140474432018e-01	 1.681033290382513e+00
 5.119123618312563e-01	 9.268511208604817e-01	 1.566666180225714e+00
 5.030387975080277e-01	 9.316969650254655e-01	 1.457539578993138e+00
 4.941318316018439e-01	 9.364512797971891e-01	 1.353436749630435e+00
 4.851928447811384e-01	 9.411137921681804e-01	 1.254117660991224e+00
 4.762232186829977e-01	 9.456842561992835e-01	 1.159320152768551e+00
 4.672243352674428e-01	 9.501624529362770e-01	 1.068761165220016e+00
 4.581975761772106e-01	 9.545481903085435e-01	 9.821380294338324e-01
 5.500841996055011e-01	 9.115952990561822e-01	 2.215964596822545e+00
 5.413095272131865e-01	 9.168329246188700e-01	 2.082010606116885e+00
 5.324957372054772e-01	 9.219798836064435e-01	 1.953752602742913e+00
 5.236442074419578e-01	 9.270357921512195e-01	 1.831044824834132e+00
 5.147563193969854e-01	 9.320002937541508e-01	 1.713714684617039e+00
 5.058334574941834e-01	 9.368730592756075e-01	 1.601563734161680e+00
 4.968770084440764e-01	 9.416537869071734e-01	 1.494368709110364e+00
 4.878883605854780e-01	 9.463422021246698e-01	 1.391882647008465e+00
 4.788689032312363e-01	 9.509380576226129e-01	 1.293836076516461e+00
 4.698200260189284e-01	 9.554411332303671e-01	 1.199938273462805e+00
 4.607431182670841e-01	 9.598512358102580e-01	 1.109878579397215e+00
 5.531233388298408e-01	 9.166317371725146e-01	 2.370979192422559e+00
 5.443001875845301e-01	 9.218982998930078e-01	 2.234313213345374e+00
 5.354377026044023e-01	 9.270736951180809e-01	 2.103320650610219e+00
 5.265372693615267e-01	 9.321575368592370e-01	 1.977845755752698e+00
 5.176002769627148e-01	 9.371494666478203e-01	 1.857705293760117e+00
 5.086281174803391e-01	 9.420491535257488e-01	 1.742689535246354e+00
 4.996221852863088e-01	 9.468562940171575e-01	 1.632563329091319e+00
 4.905838763898177e-01	 9.515706120811597e-01	 1.527067252083855e+00
 4.815145877794753e-01	 9.561918590459422e-01	 1.425918831768407e+00
 4.724157167704143e-01	 9.607198135244577e-01	 1.328813838347587e+00
 4.632886603569574e-01	 9.651542813119717e-01	 1.235427641191689e+00
 5.561624780541806e-01	 9.216681752888473e-01	 2.522320507620166e+00
 5.472908479558738e-01	 9.269636751671453e-01	 2.383062372645249e+00
 5.383796680033275e-01	 9.321675066297187e-01	 2.249473905039179e+00
 5.294303312810954e-01	 9.372792815672548e-01	 2.121384653599363e+00
 5.204442345284439e-01	 9.422986395414896e-01	 1.998595824562781e+00
 5.114227774664949e-01	 9.472252477758898e-01	 1.880881308872736e+00
 5.023673621285414e-01	 9.520588011271424e-01	 1.767988792606369e+00
 4.932793921941573e-01	 9.567990220376498e-01	 1.659640947020652e+00
 4.841602723277143e-01	 9.614456604692718e-01	 1.555536694302985e+00
 4.750114075219001e-01	 9.659984938185485e-01	 1.455352544767494e+00
 4.658342024468309e-01	 9.704573268136860e-01	 1.358744000913041e+00
 5.592016172785204e-01	 9.267046134051795e-01	 2.669889000882459e+00
 5.502815083272171e-01	 9.320290504412825e-01	 2.528176171891565e+00
 5.413216334022527e-01	 9.372613181413567e-01	 2.392145173237139e+00
 5.323233932006644e-01	 9.424010262752728e-01	 2.261606212280670e+00
 5.232881920941732e-01	 9.474478124351590e-01	 2.136340103890748e+00
 5.142174374526505e-01	 9.524013420260318e-01	 2.016099341382197e+00
 5.051125389707738e-01	 9.572613082371266e-01	 1.900609253537800e+00
 4.959749079984970e-01	 9.620274319941395e-01	 1.789569244063814e+00
 4.868059568759531e-01	 9.666994618926009e-01	 1.682654109438245e+00
 4.776070982733860e-01	 9.712771741126387e-01	 1.579515430764984e+00
 4.683797445367042e-01	 9.757603723154002e-01	 1.479783034901282e+00
 5.622407565028602e-01	 9.317410515215121e-01	 2.813582048935071e+00
 5.532721686985609e-01	 9.370944257154201e-01	 2.669569311219596e+00
 5.442635988011778e-01	 9.423551296529944e-01	 2.531263635466714e+00
 5.352164551202332e-01	 9.475227709832906e-01	 2.398451324656092e+00
 5.261321496599024e-01	 9.525969853288287e-01	 2.270888046824157e+00
 5.170120974388063e-01	 9.575774362761730e-01	 2.148299958179001e+00
 5.078577158130062e-01	 9.624638153471109e-01	 2.030384915444807e+00
 4.986704238028366e-01	 9.672558419506294e-01	 1.916813773651941e+00
 4.894516414241919e-01	 9.719532633159303e-01	 1.807231765204828e+00
 4.802027890248718e-01	 9.765558544067288e-01	 1.701259955682115e+00
 4.709252866265777e-01	 9.810634178171143e-01	 1.598496771475191e+00
 5.652798957272002e-01	 9.367774896378447e-01	 2.953294002198385e+00
 5.562628290699043e-01	 9.421598009895573e-01	 2.807153166218681e+00
 5.472055642001034e-01	 9.474489411646324e-01	 2.666754914243573e+00
 5.381095170398019e-01	 9.526445156913084e-01	 2.531857156033918e+00
 5.289761072256316e-01	 9.577461582224978e-01	 2.402185732796374e+00
 5.198067574249620e-01	 9.627535305263145e-01	 2.277435600905465e+00
 5.106028926552387e-01	 9.676663224570956e-01	 2.157272108214380e+00
 5.013659396071763e-01	 9.724842519071197e-01	 2.041332359039529e+00
 4.920973259724308e-01	 9.772070647392596e-01	 1.929226663488423e+00
 4.827984797763575e-01	 9.818345347008196e-01	 1.820540066419519e+00
 4.734708287164510e-01	 9.863664633188286e-01	 1.714833950965014e+00
 5.683190349515397e-01	 9.418139277541772e-01	 3.088916238927741e+00
 5.592534894412481e-01	 9.472251762636947e-01	 2.940835849562048e+00
 5.501475295990287e-01	 9.525427526762700e-01	 2.798541141759502e+00
 5.410025789593709e-01	 9.577662603993264e-01	 2.661757215734478e+00
 5.318200647913606e-01	 9.628953311161670e-01	 2.530175479694587e+00
 5.226014174111175e-01	 9.679296247764557e-01	 2.403454902519601e+00
 5.133480694974712e-01	 9.728688295670799e-01	 2.281223362615294e+00
 5.040614554115159e-01	 9.777126618636094e-01	 2.163079088870459e+00
 4.947430105206697e-01	 9.824608661625887e-01	 2.048592189213303e+00
 4.853941705278434e-01	 9.871132149949100e-01	 1.937306261878569e+00
 4.760163708063245e-01	 9.916695088205427e-01	 1.828740084107424e+00
 5.713581741758795e-01	 9.468503658705096e-01	 3.220337218113841e+00
 5.622441498125915e-01	 9.522905515378323e-01	 3.070522271134804e+00
 5.530894949979539e-01	 9.576365641879080e-01	 2.926541025594521e+00
 5.438956408789396e-01	 9.628880051073438e-01	 2.788081426790666e+00
 5.346640223570900e-01	 9.680445040098361e-01	 2.654795915994576e+00
 5.253960773972733e-01	 9.731057190265976e-01	 2.526302760362744e+00
 5.160932463397035e-01	 9.780713366770639e-01	 2.402187482835878e+00
 5.067569712158557e-01	 9.829410718200990e-01	 2.282004387773966e+00
 4.973886950689086e-01	 9.877146675859186e-01	 2.165278177641826e+00
 4.879898612793291e-01	 9.923918952890003e-01	 2.051505655648906e+00
 4.785619128961976e-01	 9.969725543222565e-01	 1.940157508862859e+00
 5.743973134002195e-01	 9.518868039868424e-01	 3.347442531183563e+00
 5.652348101839352e-01	 9.573559268119699e-01	 3.196114196713981e+00
 5.560314603968792e-01	 9.627303756995458e-01	 3.050669912784716e+00
 5.467887027985086e-01	 9.680097498153618e-01	 2.910756193855739e+00
 5.375079799228193e-01	 9.731936769035059e-01	 2.775982051005668e+00
 5.281907373834291e-01	 9.782818132767389e-01	 2.645920407282888e+00
 5.188384231819361e-01	 9.832738437870487e-01	 2.520109617076328e+00
 5.094524870201954e-01	 9.881694817765891e-01	 2.398055085064319e+00
 5.000343796171475e-01	 9.929684690092476e-01	 2.279230979856032e+00
 4.905855520308148e-01	 9.976705755830908e-01	 2.163082037009678e+00
 4.811074549860711e-01	 1.002275599823971e+00	 2.049025445713701e+00
 5.774364526245593e-01	 9.569232421031748e-01	 3.470114952550714e+00
 5.682254705552787e-01	 9.624213020861072e-01	 3.317510305253731e+00
 5.589734257958047e-01	 9.678241872111836e-01	 3.170839852303740e+00
 5.496817647180773e-01	 9.731314945233794e-01	 3.029704469382718e+00
 5.403519374885484e-01	 9.783428497971753e-01	 2.893665343294859e+00
 5.309853973695846e-01	 9.834579075268802e-01	 2.762245480891818e+00
 5.215836000241686e-01	 9.884763508970329e-01	 2.634931326271190e+00
 5.121480028245350e-01	 9.933978917330791e-01	 2.511174481605430e+00
 5.026800641653864e-01	 9.982222704325771e-01	 2.390393526496378e+00
 4.931812427823007e-01	 1.002949255877181e+00	 2.271975930305720e+00
 4.836529970759445e-01	 1.007578645325685e+00	 2.155280051500401e+00
 4.581975761772106e-01	 9.545481903085435e-01	 9.821380294338324e-01
 4.491443221035954e-01	 9.588413030100903e-01	 8.993089998438606e-01
 4.400659521588948e-01	 9.630416523632153e-01	 8.202709505170835e-01
 4.309638432559978e-01	 9.671491261651465e-01	 7.449040557032021e-01
 4.218393694956273e-01	 9.711636385179988e-01	 6.730745066338479e-01
 4.126939015617365e-01	 9.750851296424010e-01	 6.046357021712758e-01
 4.035288061255415e-01	 9.789135656751731e-01	 5.394294745822674e-01
 3.943454452586553e-01	 9.826489384514384e-01	 4.772873452524142e-01
 3.851451758557687e-01	 9.862912652715804e-01	 4.180318050409024e-01
 3.759293490673062e-01	 9.898405886534548e-01	 3.614776139014770e-01
 3.666993097424636e-01	 9.932969760702922e-01	 3.074331143332079e-01
 4.607431182670841e-01	 9.598512358102580e-01	 1.109878579397212e+00
 4.516395683375044e-01	 9.641681991379246e-01	 1.023526347849790e+00
 4.425107630042219e-01	 9.683918837652329e-01	 9.408954931205871e-01
 4.333580868296421e-01	 9.725221768660638e-01	 8.618667769868631e-01
 4.241829215483806e-01	 9.765589920653209e-01	 7.863068483259212e-01
 4.149866454593018e-01	 9.805022692515255e-01	 7.140694538103898e-01
 4.057706328262390e-01	 9.843519743733687e-01	 6.449966850972795e-01
 3.965362532878702e-01	 9.881080992206133e-01	 5.789202571888257e-01
 3.872848712771898e-01	 9.917706611897561e-01	 5.156628125409806e-01
 3.780178454510134e-01	 9.953397030348632e-01	 4.550392453999019e-01
 3.687365281299216e-01	 9.988152926040164e-01	 3.968580407939988e-01
 4.632886603569574e-01	 9.651542813119717e-01	 1.235427641191687e+00
 4.541348145714132e-01	 9.694950952657581e-01	 1.145638902594355e+00
 4.449555738495490e-01	 9.737421151672508e-01	 1.059484211576783e+00
 4.357523304032865e-01	 9.778952275669814e-01	 9.768500541549052e-01
 4.265264736011344e-01	 9.819543456126432e-01	 8.976087764991099e-01
 4.172793893568669e-01	 9.859194088606500e-01	 8.216198071674223e-01
 4.080124595269363e-01	 9.897903830715639e-01	 7.487309172286465e-01
 3.987270613170849e-01	 9.935672599897879e-01	 6.787795128486065e-01
 3.894245666986106e-01	 9.972500571079314e-01	 6.115939547870002e-01
 3.801063418347206e-01	 1.000838817416271e+00	 5.469948991592641e-01
 3.707737465173798e-01	 1.004333609137740e+00	 4.847966537650383e-01
 4.658342024468309e-01	 9.704573268136860e-01	 1.358744000913042e+00
 4.566300608053220e-01	 9.748219913935919e-01	 1.265599679038915e+00
 4.474003846948762e-01	 9.790923465692686e-01	 1.175986785637766e+00
 4.381465739769310e-01	 9.832682782678989e-01	 1.089802564291996e+00
 4.288700256538877e-01	 9.873496991599652e-01	 1.006930193379100e+00
 4.195721332544322e-01	 9.913365484697743e-01	 9.272400114239487e-01
 4.102542862276338e-01	 9.952287917697594e-01	 8.505907817816531e-01
 4.009178693462997e-01	 9.990264207589630e-01	 7.768309911217652e-01
 3.915642621200317e-01	 1.002729453026107e+00	 7.058001760517523e-01
 3.821948382184279e-01	 1.006337931797679e+00	 6.373302721177030e-01
 3.728109649048380e-01	 1.009851925671464e+00	 5.712469793570896e-01
 4.683797445367042e-01	 9.757603723154002e-01	 1.479783034901281e+00
 4.591253070392309e-01	 9.801488875214257e-01	 1.383358519892786e+00
 4.498451955402032e-01	 9.844425779712864e-01	 1.290349910392025e+00
 4.405408175505754e-01	 9.886413289688163e-01	 1.200670139584890e+00
 4.312135777066411e-01	 9.927450527072874e-01	 1.114218250341200e+00
 4.218648771519973e-01	 9.967536880788987e-01	 1.030880615363937e+00
 4.124961129283314e-01	 1.000667200467955e+00	 9.505321981530650e-01
 4.031086773755144e-01	 1.004485581528137e+00	 8.730378491618516e-01
 3.937039575414524e-01	 1.008208848944282e+00	 7.982536313819248e-01
 3.842833346021353e-01	 1.011837046179087e+00	 7.260281694936417e-01
 3.748481832922960e-01	 1.015370242205188e+00	 6.562040166381999e-01
 4.709252866265777e-01	 9.810634178171143e-01	 1.598496771475193e+00
 4.616205532731398e-01	 9.854757836492595e-01	 1.498862150974865e+00
 4.522900063855305e-01	 9.897928093733042e-01	 1.402517346659249e+00
 4.429350611242199e-01	 9.940143796697338e-01	 1.309395814095423e+00
 4.335571297593947e-01	 9.981404062546098e-01	 1.219417392351444e+00
 4.241576210495625e-01	 1.002170827688023e+00	 1.132489510713778e+00
 4.147379396290288e-01	 1.006105609166150e+00	 1.048508437747778e+00
 4.052994854047292e-01	 1.009944742297312e+00	 9.673605669945302e-01
 3.958436529628736e-01	 1.013688244862458e+00	 8.889237334528111e-01
 3.863718309858424e-01	 1.017336160560495e+00	 8.130685548862790e-01
 3.768854016797543e-01	 1.020888558738912e+00	 7.396597919094092e-01
 4.734708287164510e-01	 9.863664633188286e-01	 1.714833950965010e+00
 4.641157995070487e-01	 9.908026797770935e-01	 1.612054235062922e+00
 4.547348172308578e-01	 9.951430407753225e-01	 1.512429970011350e+00
 4.453293046978642e-01	 9.993874303706513e-01	 1.415919869259389e+00
 4.359006818121481e-01	 1.003535759801932e+00	 1.322469401194595e+00
 4.264503649471278e-01	 1.007587967297148e+00	 1.232011974293443e+00
 4.169797663297263e-01	 1.011544017864346e+00	 1.144470166186933e+00
 4.074902934339438e-01	 1.015403903066487e+00	 1.059756990862514e+00
 3.979833483842945e-01	 1.019167640780633e+00	 9.777771980731012e-01
 3.884603273695497e-01	 1.022835274941903e+00	 8.984285989056455e-01
 3.789226200672124e-01	 1.026406875272635e+00	 8.216034113713375e-01
 4.760163708063245e-01	 9.916695088205427e-01	 1.828740084107422e+00
 4.666110457409576e-01	 9.961295759049276e-01	 1.722875424282454e+00
 4.571796280761852e-01	 1.000493272177340e+00	 1.620025818474292e+00
 4.477235482715088e-01	 1.004760481071569e+00	 1.520179878163721e+00
 4.382442338649017e-01	 1.008931113349254e+00	 1.423313437535028e+00
 4.287431088446930e-01	 1.013005106906272e+00	 1.329390709016018e+00
 4.192215930304238e-01	 1.016982426562541e+00	 1.238365484349221e+00
 4.096811014631586e-01	 1.020863063835661e+00	 1.150182375355516e+00
 4.001230438057153e-01	 1.024647036698809e+00	 1.064778088394116e+00
 3.905488237532571e-01	 1.028334389323311e+00	 9.820827263941827e-01
 3.809598384546705e-01	 1.031925191806359e+00	 9.020211122331139e-01
 4.785619128961976e-01	 9.969725543222565e-01	 1.940157508862860e+00
 4.691062919748664e-01	 1.001456472032761e+00	 1.831263411094537e+00
 4.596244389215122e-01	 1.005843503579358e+00	 1.725240138960598e+00
 4.501177918451530e-01	 1.010133531772486e+00	 1.622110748645897e+00
 4.405877859176551e-01	 1.014326466896577e+00	 1.521886081855763e+00
 4.310358527422581e-01	 1.018422246515397e+00	 1.424565883786246e+00
 4.214634197311212e-01	 1.022420835260736e+00	 1.330139968293645e+00
 4.118719094923733e-01	 1.026322224604836e+00	 1.238589424369377e+00
 4.022627392271362e-01	 1.030126432616984e+00	 1.149887857866059e+00
 3.926373201369642e-01	 1.033833503704719e+00	 1.064002662285342e+00
 3.829970568421286e-01	 1.037443508340083e+00	 9.808963123271686e-01
 4.811074549860711e-01	 1.002275599823971e+00	 2.049025445713701e+00
 4.716015382087751e-01	 1.006783368160595e+00	 1.937152977932060e+00
 4.620692497668394e-01	 1.011193734981376e+00	 1.828005432475841e+00
 4.525120354187977e-01	 1.015506582473404e+00	 1.721644765258503e+00
 4.429313379704087e-01	 1.019721820443899e+00	 1.618121374313909e+00
 4.333285966398234e-01	 1.023839386124521e+00	 1.517475172331679e+00
 4.237052464318186e-01	 1.027859243958932e+00	 1.419736708101912e+00
 4.140627175215881e-01	 1.031781385374011e+00	 1.324928330940632e+00
 4.044024346485573e-01	 1.035605828535159e+00	 1.233065391992192e+00
 3.947258165206714e-01	 1.039332618086127e+00	 1.144157476156342e+00
 3.850342752295868e-01	 1.042961824873807e+00	 1.058209658283114e+00
 4.836529970759445e-01	 1.007578645325685e+00	 2.155280051500401e+00
 4.740967844426842e-01	 1.012110264288429e+00	 2.040476045534172e+00
 4.645140606121667e-01	 1.016543966383394e+00	 1.928251498149652e+00
 4.549062789924421e-01	 1.020879633174321e+00	 1.818711630142027e+00
 4.452748900231622e-01	 1.025117173991221e+00	 1.711950853557812e+00
 4.356213405373886e-01	 1.029256525733646e+00	 1.608053791012466e+00
 4.259470731325161e-01	 1.033297652657127e+00	 1.507096345679489e+00
 4.162535255508029e-01	 1.037240546143185e+00	 1.409146815993000e+00
 4.065421300699782e-01	 1.041085224453335e+00	 1.314267048922564e+00
 3.968143129043787e-01	 1.044831732467536e+00	 1.222513625518503e+00
 3.870714936170448e-01	 1.048480141407531e+00	 1.133939072313681e+00
 3.666993097424636e-01	 9.932969760702922e-01	 3.074331143332079e-01
 3.574563958830216e-01	 9.966605196747321e-01	 2.562861431346870e-01
 3.482019381082973e-01	 9.999313360094344e-01	 2.084196705005108e-01
 3.389372591315895e-01	 1.003109565704740e+00	 1.636284996575808e-01
 3.296636732484466e-01	 1.006195373163844e+00	 1.217054940402229e-01
 3.203824858370627e-01	 1.009188946235962e+00	 8.244284068969554e-02
 3.110949928710934e-01	 1.012090495877973e+00	 4.563329718619569e-02
 3.018024804451619e-01	 1.014900255805039e+00	 1.107141708195813e-02
 2.925062243132982e-01	 1.017618482130688e+00	-2.144525102821193e-02
 2.832074894405429e-01	 1.020245452996861e+00	-5.211499550900811e-02
 2.739075295679202e-01	 1.022781468194445e+00	-8.113080926644267e-02
 3.687365281299216e-01	 9.988152926040164e-01	 3.968580407940006e-01
 3.594422647490384e-01	 1.002197522561814e+00	 3.415081276646275e-01
 3.501363933200098e-01	 1.005486510098375e+00	 2.893819178278596e-01
 3.408202439045427e-01	 1.008682396625322e+00	 2.402869497329081e-01
 3.314951380998269e-01	 1.011785347459199e+00	 1.940288926234293e-01
 3.221623885361575e-01	 1.014795551492828e+00	 1.504128208209163e-01
 3.128232983870438e-01	 1.017713220855073e+00	 1.092444718311429e-01
 3.034791608920794e-01	 1.020538590559511e+00	 7.033148312155646e-02
 2.941312588928167e-01	 1.023271918142525e+00	 3.348460256959518e-02
 2.847808643818792e-01	 1.025913483291288e+00	-1.481132247832306e-03
 2.754292380655198e-01	 1.028463587462192e+00	-3.474525055971345e-02
 3.707737465173798e-01	 1.004333609137740e+00	 4.847966537650392e-01
 3.614281336150552e-01	 1.007734525448896e+00	 4.253934923223288e-01
 3.520708485317227e-01	 1.011041684187317e+00	 3.691848065085002e-01
 3.427032286774960e-01	 1.014255227545904e+00	 3.159865098866472e-01
 3.333266029512072e-01	 1.017375321754553e+00	 2.656127179694527e-01
 3.239422912352522e-01	 1.020402156749694e+00	 2.178770396284064e-01
 3.145516039029944e-01	 1.023335945832172e+00	 1.725938525310209e-01
 3.051558413389971e-01	 1.026176925313984e+00	 1.295795573143157e-01
 2.957562934723349e-01	 1.028925354154362e+00	 8.865380535279943e-02
 2.863542393232156e-01	 1.031581513585716e+00	 4.964069516033653e-02
 2.769509465631192e-01	 1.034145706729939e+00	 1.236993265038100e-02
 3.728109649048380e-01	 1.009851925671464e+00	 5.712469793570887e-01
 3.634140024810719e-01	 1.013271528335977e+00	 5.079530512385007e-01
 3.540053037434355e-01	 1.016596858276259e+00	 4.478513925667515e-01
 3.445862134504494e-01	 1.019828058466486e+00	 3.907619894641203e-01
 3.351580678025874e-01	 1.022965296049908e+00	 3.365031014098996e-01
 3.257221939343470e-01	 1.026008762006561e+00	 2.848925759982688e-01
 3.162799094189450e-01	 1.028958670809272e+00	 2.357491478369838e-01
 3.068325217859147e-01	 1.031815260068457e+00	 1.888937161462159e-01
 2.973813280518532e-01	 1.034578790166199e+00	 1.441505957706215e-01
 2.879276142645520e-01	 1.037249543880142e+00	 1.013487364911940e-01
 2.784726550607188e-01	 1.039827825997686e+00	 6.032290572528609e-02
 3.748481832922960e-01	 1.015370242205188e+00	 6.562040166381999e-01
 3.653998713470887e-01	 1.018808531223059e+00	 5.891944473860464e-01
 3.559397589551482e-01	 1.022152032365199e+00	 5.254014295575042e-01
 3.464691982234026e-01	 1.025400889387067e+00	 4.646447753104881e-01
 3.369895326539677e-01	 1.028555270345263e+00	 4.067426415085729e-01
 3.275020966334418e-01	 1.031615367263428e+00	 3.515128740227351e-01
 3.180082149348955e-01	 1.034581395786372e+00	 2.987743362020487e-01
 3.085092022328322e-01	 1.037453594822929e+00	 2.483482159095569e-01
 2.990063626313715e-01	 1.040232226178036e+00	 2.000593056781894e-01
 2.895009892058882e-01	 1.042917574174569e+00	 1.537372507168802e-01
 2.799943635583185e-01	 1.045509945265433e+00	 1.092177597056554e-01
 3.768854016797543e-01	 1.020888558738912e+00	 7.396597919094101e-01
 3.673857402131056e-01	 1.024345534110141e+00	 6.691222113249822e-01
 3.578742141668609e-01	 1.027707206454141e+00	 6.018514314754331e-01
 3.483521829963560e-01	 1.030973720307650e+00	 5.376628985839877e-01
 3.388209975053480e-01	 1.034145244640618e+00	 4.763704745529891e-01
 3.292819993325366e-01	 1.037221972520294e+00	 4.177878169862388e-01
 3.197365204508461e-01	 1.040204120763472e+00	 3.617297433192062e-01
 3.101858826797497e-01	 1.043091929577401e+00	 3.080135732838718e-01
 3.006313972108898e-01	 1.045885662189873e+00	 2.564604440922178e-01
 2.910743641472247e-01	 1.048585604468997e+00	 2.068965929042328e-01
 2.815160720559180e-01	 1.051192064533180e+00	 1.591546013556182e-01
 3.789226200672124e-01	 1.026406875272635e+00	 8.216034113713357e-01
 3.693716090791223e-01	 1.029882536997223e+00	 7.477378181749548e-01
 3.598086693785736e-01	 1.033262380543082e+00	 6.772147337463634e-01
 3.502351677693090e-01	 1.036546551228231e+00	 6.098410995127308e-01
 3.406524623567284e-01	 1.039735218935973e+00	 5.454223428641272e-01
 3.310619020316313e-01	 1.042828577777160e+00	 4.837637990495143e-01
 3.214648259667964e-01	 1.045826845740571e+00	 4.246721170380265e-01
 3.118625631266673e-01	 1.048730264331874e+00	 3.679566433831623e-01
 3.022564317904083e-01	 1.051539098201711e+00	 3.134307783026800e-01
 2.926477390885611e-01	 1.054253634763424e+00	 2.609132983587030e-01
 2.830377805535176e-01	 1.056874183800927e+00	 2.102296403454766e-01
 3.809598384546705e-01	 1.031925191806359e+00	 9.020211122331094e-01
 3.713574779451392e-01	 1.035419539884305e+00	 8.250397428842304e-01
 3.617431245902864e-01	 1.038817554632023e+00	 7.515015523738420e-01
 3.521181525422624e-01	 1.042119382148813e+00	 6.812008901761808e-01
 3.424839272081086e-01	 1.045325193231327e+00	 6.139306610037978e-01
 3.328418047307262e-01	 1.048435183034027e+00	 5.494837947143845e-01
 3.231931314827470e-01	 1.051449570717672e+00	 4.876546999501934e-01
 3.135392435735849e-01	 1.054368599086346e+00	 4.282406953619433e-01
 3.038814663699266e-01	 1.057192534213548e+00	 3.710434124345814e-01
 2.942211140298974e-01	 1.059921665057850e+00	 3.158701641164323e-01
 2.845594890511170e-01	 1.062556303068674e+00	 2.625352736792781e-01
 3.829970568421286e-01	 1.037443508340083e+00	 9.808963123271686e-01
 3.733433468111558e-01	 1.040956542771387e+00	 9.010235138581812e-01
 3.636775798019992e-01	 1.044372728720965e+00	 8.247190413119427e-01
 3.540011373152158e-01	 1.047692213069395e+00	 7.517606153852752e-01
 3.443153920594888e-01	 1.050915167526682e+00	 6.819245799638374e-01
 3.346217074298210e-01	 1.054041788290893e+00	 6.149874261531347e-01
 3.249214369986975e-01	 1.057072295694771e+00	 5.507272997314479e-01
 3.152159240205025e-01	 1.060006933840819e+00	 4.889254856745642e-01
 3.055065009494449e-01	 1.062845970225385e+00	 4.293678635633547e-01
 2.957944889712338e-01	 1.065589695352278e+00	 3.718463278857911e-01
 2.860811975487166e-01	 1.068238422336421e+00	 3.161601674708878e-01
 3.850342752295868e-01	 1.042961824873807e+00	 1.058209658283114e+00
 3.753292156771727e-01	 1.046493545658469e+00	 9.756817650073835e-01
 3.656120350137120e-01	 1.049927902809906e+00	 8.968713481251109e-01
 3.558841220881689e-01	 1.053265043989977e+00	 8.215355117291772e-01
 3.461468569108689e-01	 1.056505141822036e+00	 7.494300494041806e-01
 3.364016101289157e-01	 1.059648393547760e+00	 6.803110284804497e-01
 3.266497425146481e-01	 1.062695020671871e+00	 6.139363573217569e-01
 3.168926044674201e-01	 1.065645268595291e+00	 5.500673290704636e-01
 3.071315355289633e-01	 1.068499406237222e+00	 4.884701354659957e-01
 2.973678639125700e-01	 1.071257725646705e+00	 4.289173445309808e-01
 2.876029060463162e-01	 1.073920541604168e+00	 3.711893361671215e-01
 3.870714936170448e-01	 1.048480141407531e+00	 1.133939072313682e+00
 3.773150845431894e-01	 1.052030548545551e+00	 1.049004286274909e+00
 3.675464902254247e-01	 1.055483076898847e+00	 9.679596680039149e-01
 3.577671068611223e-01	 1.058837874910559e+00	 8.905377648579331e-01
 3.479783217622492e-01	 1.062095116117391e+00	 8.164698780172013e-01
 3.381815128280106e-01	 1.065254998804626e+00	 7.454877130483335e-01
 3.283780480305984e-01	 1.068317745648971e+00	 6.773250130247170e-01
 3.185692849143376e-01	 1.071283603349764e+00	 6.117191674117941e-01
 3.087565701084815e-01	 1.074152842249059e+00	 5.484127901024456e-01
 2.989412388539064e-01	 1.076925755941131e+00	 4.871552601905913e-01
 2.891246145439157e-01	 1.079602660871915e+00	 4.277042193073286e-01
 2.739075295679202e-01	 1.022781468194445e+00	-8.113080926644267e-02
 2.646075867909700e-01	 1.025226848774770e+00	-1.083465173352711e-01
 2.553088911520000e-01	 1.027581936652607e+00	-1.335906260982198e-01
 2.460126602462092e-01	 1.029847094201158e+00	-1.570072452152709e-01
 2.367200988418082e-01	 1.032022703839557e+00	-1.787314281343586e-01
 2.274323985142403e-01	 1.034109167613384e+00	-1.988883523806506e-01
 2.181507372945945e-01	 1.036106906768704e+00	-2.175925552494409e-01
 2.088762793322770e-01	 1.038016361320134e+00	-2.349472275663946e-01
 1.996101745719909e-01	 1.039837989613443e+00	-2.510435678719398e-01
 1.903535584450554e-01	 1.041572267883170e+00	-2.659601991036449e-01
 1.811075515750794e-01	 1.043219689805780e+00	-2.797626495340682e-01
 2.754292380655198e-01	 1.028463587462192e+00	-3.474525055971345e-02
 2.660776289398089e-01	 1.030922553490186e+00	-6.614241105696950e-02
 2.567272738806222e-01	 1.033290725189566e+00	-9.548221750795127e-02
 2.473793972475772e-01	 1.035568466946720e+00	-1.228951339624680e-01
 2.380352105020405e-01	 1.037756163305332e+00	-1.485019444165436e-01
 2.286959118393194e-01	 1.039854218544569e+00	-1.724129338517764e-01
 2.193626858351201e-01	 1.041863056250752e+00	-1.947271259313297e-01
 2.100367031063453e-01	 1.043783118883024e+00	-2.155315800834612e-01
 2.007191199862796e-01	 1.045614867333517e+00	-2.349007503876535e-01
 1.914110782141946e-01	 1.047358780482521e+00	-2.528959083889171e-01
 1.821137046393854e-01	 1.049015354749145e+00	-2.695646316407325e-01
 2.769509465631192e-01	 1.034145706729939e+00	 1.236993265038100e-02
 2.675476710886476e-01	 1.036618258205601e+00	-2.297434823157074e-02
 2.581456566092444e-01	 1.038999513726525e+00	-5.618184271267079e-02
 2.487461342489450e-01	 1.041289839692283e+00	-8.737153391958286e-02
 2.393503221622727e-01	 1.043489622771108e+00	-1.166521459910994e-01
 2.299594251643985e-01	 1.045599269475755e+00	-1.441213215214310e-01
 2.205746343756455e-01	 1.047619205732800e+00	-1.698648569521475e-01
 2.111971268804134e-01	 1.049549876445913e+00	-1.939559987053880e-01
 2.018280654005685e-01	 1.051391745053592e+00	-2.164548025510995e-01
 1.924685979833338e-01	 1.053145293081873e+00	-2.374075583835622e-01
 1.831198577036914e-01	 1.054811019692510e+00	-2.568462822683881e-01
 2.784726550607188e-01	 1.039827825997686e+00	 6.032290572528609e-02
 2.690177132374862e-01	 1.042313962921016e+00	 2.127501938274401e-02
 2.595640393378667e-01	 1.044708302263484e+00	-1.556436077614975e-02
 2.501128712503128e-01	 1.047011212437845e+00	-5.030487733756894e-02
 2.406654338225050e-01	 1.049223082236884e+00	-8.304537918963906e-02
 2.312229384894776e-01	 1.051344320406940e+00	-1.138730910423726e-01
 2.217865829161711e-01	 1.053375355214849e+00	-1.428628422081295e-01
 2.123575506544816e-01	 1.055316634008802e+00	-1.700763575288038e-01
 2.029370108148573e-01	 1.057168622773666e+00	-1.955616130067219e-01
 1.935261177524730e-01	 1.058931805681224e+00	-2.193522583939846e-01
 1.841260107679973e-01	 1.060606684635875e+00	-2.414671086447981e-01
 2.799943635583185e-01	 1.045509945265433e+00	 1.092177597056554e-01
 2.704877553863250e-01	 1.048009667636432e+00	 6.671889641695783e-02
 2.609824220664889e-01	 1.050417090800443e+00	 2.649118454996113e-02
 2.514796082516806e-01	 1.052732585183406e+00	-1.156779485652359e-02
 2.419805454827374e-01	 1.054956541702659e+00	-4.754917591652985e-02
 2.324864518145568e-01	 1.057089371338126e+00	-8.153196516670347e-02
 2.229985314566966e-01	 1.059131504696897e+00	-1.135822594470381e-01
 2.135179744285499e-01	 1.061083391571693e+00	-1.437525273649691e-01
 2.040459562291461e-01	 1.062945500493741e+00	-1.720809569950217e-01
 1.945836375216121e-01	 1.064718318280574e+00	-1.985908721236371e-01
 1.851321638323034e-01	 1.066402349579241e+00	-2.232902190372541e-01
 2.815160720559180e-01	 1.051192064533180e+00	 1.591546013556182e-01
 2.719577975351637e-01	 1.053705372351847e+00	 1.134664367204099e-01
 2.624008047951111e-01	 1.056125879337402e+00	 7.010165969388904e-02
 2.528463452530484e-01	 1.058453957928968e+00	 2.896298067302538e-02
 2.432956571429695e-01	 1.060690001168434e+00	-1.003515686075618e-02
 2.337499651396359e-01	 1.062834422269312e+00	-4.696571703905139e-02
 2.242104799972222e-01	 1.064887654178946e+00	-8.188827430581380e-02
 2.146783982026181e-01	 1.066850149134582e+00	-1.148482811755085e-01
 2.051549016434351e-01	 1.068722378213816e+00	-1.458764038005853e-01
 1.956411572907514e-01	 1.070504830879925e+00	-1.749879277469484e-01
 1.861383168966094e-01	 1.072198014522606e+00	-2.021822360330932e-01
 2.830377805535176e-01	 1.056874183800927e+00	 2.102296403454766e-01
 2.734278396840025e-01	 1.059401077067263e+00	 1.616228332303384e-01
 2.638191875237332e-01	 1.061834667874361e+00	 1.153799331026657e-01
 2.542130822544163e-01	 1.064175330674530e+00	 7.140670729370369e-02
 2.446107688032018e-01	 1.066423460634209e+00	 2.962106218964067e-02
 2.350134784647150e-01	 1.068579473200497e+00	-1.004607659207890e-02
 2.254224285377477e-01	 1.070643803660994e+00	-4.764994743360695e-02
 2.158388219766862e-01	 1.072616906697472e+00	-8.323120253950167e-02
 2.062638470577239e-01	 1.074499255933891e+00	-1.168152271824439e-01
 1.966986770598905e-01	 1.076291343479276e+00	-1.484115308776652e-01
 1.871444699609153e-01	 1.077993679465972e+00	-1.780132126149998e-01
 2.845594890511170e-01	 1.062556303068674e+00	 2.625352736792781e-01
 2.748978818328412e-01	 1.065096781782678e+00	 2.112894049959175e-01
 2.652375702523555e-01	 1.067543456411320e+00	 1.624349641616112e-01
 2.555798192557841e-01	 1.069896703420092e+00	 1.158787240842609e-01
 2.459258804634341e-01	 1.072156920099985e+00	 7.153996104761617e-02
 2.362769917897941e-01	 1.074324524131682e+00	 2.935136007229833e-02
 2.266343770782733e-01	 1.076399953143042e+00	-1.074014458023065e-02
 2.169992457507545e-01	 1.078383664260361e+00	-4.877259705785431e-02
 2.073727924720127e-01	 1.080276133653965e+00	-8.476831866855861e-02
 1.977561968290298e-01	 1.082077856078627e+00	-1.187332803272940e-01
 1.881506230252214e-01	 1.083789344409337e+00	-1.506565509263824e-01
 2.860811975487166e-01	 1.068238422336421e+00	 3.161601674708878e-01
 2.763679239816798e-01	 1.070792486498093e+00	 2.625636814608274e-01
 2.666559529809778e-01	 1.073252244948278e+00	 2.113718893122529e-01
 2.569465562571520e-01	 1.075618076165654e+00	 1.624905384489330e-01
 2.472409921236664e-01	 1.077890379565760e+00	 1.158382029555498e-01
 2.375405051148732e-01	 1.080069575062868e+00	 7.134721842457470e-02
 2.278463256187987e-01	 1.082156102625090e+00	 2.896455046126567e-02
 2.181596695248227e-01	 1.084150421823251e+00	-1.134740656634392e-02
 2.084817378863016e-01	 1.086053011374040e+00	-4.961010361084561e-02
 1.988137165981689e-01	 1.087864368677978e+00	-8.582818654594027e-02
 1.891567760895274e-01	 1.089585009352703e+00	-1.199889236281213e-01
 2.876029060463162e-01	 1.073920541604168e+00	 3.711893361671215e-01
 2.778379661305186e-01	 1.076488191213509e+00	 3.155394841047925e-01
 2.680743357095999e-01	 1.078961033485237e+00	 2.622921054610758e-01
 2.583132932585198e-01	 1.081339448911216e+00	 2.113499106624355e-01
 2.485561037838986e-01	 1.083623839031535e+00	 1.626287196449994e-01
 2.388040184399523e-01	 1.085814625994053e+00	 1.160584304820906e-01
 2.290582741593243e-01	 1.087912252107139e+00	 7.158392015752968e-02
 2.193200932988909e-01	 1.089917179386141e+00	 2.916587393061798e-02
 2.095906833005904e-01	 1.091829889094115e+00	-1.121845989954862e-02
 1.998712363673082e-01	 1.093650881277329e+00	-4.957459264921837e-02
 1.901629291538334e-01	 1.095380674296068e+00	-8.589019774690465e-02
 2.891246145439157e-01	 1.079602660871915e+00	 4.277042193073286e-01
 2.793080082793573e-01	 1.082183895928924e+00	 3.703070055455124e-01
 2.694927184382222e-01	 1.084669822022196e+00	 3.152933507883944e-01
 2.596800302598876e-01	 1.087060821656778e+00	 2.625609357704137e-01
 2.498712154441309e-01	 1.089357298497311e+00	 2.120207937306611e-01
 2.400675317650314e-01	 1.091559676925239e+00	 1.635983171169579e-01
 2.302702226998498e-01	 1.093668401589187e+00	 1.172341948893707e-01
 2.204805170729591e-01	 1.095683936949030e+00	 7.288527671949740e-02
 2.106996287148792e-01	 1.097606766814189e+00	 3.052536076336487e-02
 2.009287561364474e-01	 1.099437393876680e+00	-9.854097931607519e-03
 1.911690822181394e-01	 1.101176339239434e+00	-4.824336092929471e-02
 1.811075515750794e-01	 1.043219689805780e+00	-2.797626495340682e-01
 1.718732594979836e-01	 1.044780766048804e+00	-2.922783268731970e-01
 1.626517723963483e-01	 1.046256023816500e+00	-3.034164379011015e-01
 1.534441648480536e-01	 1.047646006392460e+00	-3.133438709610998e-01
 1.442514955891523e-01	 1.048951272679660e+00	-3.222122388405322e-01
 1.350748072909094e-01	 1.050172396738416e+00	-3.301575757654365e-01
 1.259151263509206e-01	 1.051309967322682e+00	-3.373001063843994e-01
 1.167734626982103e-01	 1.052364587415149e+00	-3.437440864759775e-01
 1.076508096121963e-01	 1.053336873761583e+00	-3.495777148254660e-01
 9.854814355539088e-02	 1.054227456404818e+00	-3.548731154462761e-01
 8.946642401969931e-02	 1.055036978218827e+00	-3.596863890374227e-01
 1.821137046393854e-01	 1.049015354749145e+00	-2.695646316407325e-01
 1.728281109396390e-01	 1.050585103637963e+00	-2.847301645261857e-01
 1.635553933541059e-01	 1.052068557282147e+00	-2.983185241834443e-01
 1.542966324305428e-01	 1.053466261983529e+00	-3.105092688726225e-01
 1.450528927868698e-01	 1.054778779750103e+00	-3.214661303970279e-01
 1.358252228869700e-01	 1.056006687831408e+00	-3.313366841305863e-01
 1.266146548306479e-01	 1.057150578252252e+00	-3.402520936261397e-01
 1.174222041576448e-01	 1.058211057345232e+00	-3.483269295670866e-01
 1.082488696655974e-01	 1.059188745282480e+00	-3.556590625228093e-01
 9.909563324180970e-02	 1.060084275607067e+00	-3.623296286891056e-01
 8.996345970869764e-02	 1.060898294764487e+00	-3.684030675021437e-01
 1.831198577036914e-01	 1.054811019692510e+00	-2.568462822683881e-01
 1.737829623812945e-01	 1.056389441227124e+00	-2.745948914472907e-01
 1.644590143118634e-01	 1.057881090747794e+00	-2.905966367358350e-01
 1.551491000130320e-01	 1.059286517574598e+00	-3.050395150750127e-01
 1.458542899845873e-01	 1.060606286820545e+00	-3.180951322210426e-01
 1.365756384830306e-01	 1.061840978924399e+00	-3.299183507068233e-01
 1.273141833103753e-01	 1.062991189181823e+00	-3.406470148980723e-01
 1.180709456170793e-01	 1.064057527275317e+00	-3.504017529256482e-01
 1.088469297189985e-01	 1.065040616803378e+00	-3.592858549710369e-01
 9.964312292822855e-02	 1.065941094809316e+00	-3.673852270813343e-01
 9.046049539769598e-02	 1.066759611310147e+00	-3.747684194038330e-01
 1.841260107679973e-01	 1.060606684635875e+00	-2.414671086447981e-01
 1.747378138229500e-01	 1.062193778816284e+00	-2.617346153049809e-01
 1.653626352696208e-01	 1.063693624213441e+00	-2.801147865813975e-01
 1.560015675955212e-01	 1.065106773165667e+00	-2.967999098797689e-01
 1.466556871823048e-01	 1.066433793890988e+00	-3.119653022994622e-01
 1.373260540790913e-01	 1.067675270017390e+00	-3.257689413710123e-01
 1.280137117901026e-01	 1.068831800111393e+00	-3.383511753190200e-01
 1.187196870765138e-01	 1.069903997205401e+00	-3.498345126510150e-01
 1.094449897723996e-01	 1.070892488324276e+00	-3.603234905616883e-01
 1.001906126146474e-01	 1.071797914011565e+00	-3.699046213268380e-01
 9.095753108669431e-02	 1.072620927855808e+00	-3.786464155659361e-01
 1.851321638323034e-01	 1.066402349579241e+00	-2.232902190372541e-01
 1.756926652646054e-01	 1.067998116405444e+00	-2.460148917625951e-01
 1.662662562273784e-01	 1.069506157679089e+00	-2.667402998442312e-01
 1.568540351780103e-01	 1.070927028756737e+00	-2.856589544144601e-01
 1.474570843800223e-01	 1.072261300961430e+00	-3.029458022317533e-01
 1.380764696751518e-01	 1.073509561110381e+00	-3.187578439646361e-01
 1.287132402698299e-01	 1.074672411040964e+00	-3.332338343586603e-01
 1.193684285359483e-01	 1.075750467135485e+00	-3.464940640967216e-01
 1.100430498258007e-01	 1.076744359845174e+00	-3.586402228554624e-01
 1.007381023010662e-01	 1.077654733213814e+00	-3.697553427220646e-01
 9.145456677569264e-02	 1.078482244401467e+00	-3.799038208435528e-01
 1.861383168966094e-01	 1.072198014522606e+00	-2.021822360330932e-01
 1.766475167062609e-01	 1.073802453994604e+00	-2.273046409756478e-01
 1.671698771851358e-01	 1.075318691144736e+00	-2.503437369327228e-01
 1.577065027604995e-01	 1.076747284347806e+00	-2.714882720186833e-01
 1.482584815777398e-01	 1.078088808031873e+00	-2.909088204034798e-01
 1.388268852712125e-01	 1.079343852203372e+00	-3.087573928546581e-01
 1.294127687495572e-01	 1.080513021970534e+00	-3.251671314392333e-01
 1.200171699953828e-01	 1.081596937065569e+00	-3.402520882156272e-01
 1.106411098792018e-01	 1.082596231366072e+00	-3.541070874118777e-01
 1.012855919874850e-01	 1.083511552416063e+00	-3.668076702614891e-01
 9.195160246469097e-02	 1.084343560947128e+00	-3.784101213408029e-01
 1.871444699609153e-01	 1.077993679465972e+00	-1.780132126149998e-01
 1.776023681479164e-01	 1.079606791583764e+00	-2.054760667775870e-01
 1.680734981428933e-01	 1.081131224610383e+00	-2.307988143325281e-01
 1.585589703429888e-01	 1.082567539938875e+00	-2.541625321765117e-01
 1.490598787754574e-01	 1.083916315102316e+00	-2.757294976386757e-01
 1.395773008672730e-01	 1.085178143296364e+00	-2.956427959277725e-01
 1.301122972292846e-01	 1.086353632900104e+00	-3.140260139409663e-01
 1.206659114548174e-01	 1.087443406995654e+00	-3.309830202826953e-01
 1.112391699326029e-01	 1.088448102886969e+00	-3.465978309866493e-01
 1.018330816739039e-01	 1.089368371618312e+00	-3.609345601022600e-01
 9.244863815368931e-02	 1.090204877492788e+00	-3.740374539765936e-01
 1.881506230252214e-01	 1.083789344409337e+00	-1.506565509263824e-01
 1.785572195895718e-01	 1.085411129172924e+00	-1.804045784618609e-01
 1.689771191006507e-01	 1.086943758076031e+00	-2.079823289105232e-01
 1.594114379254779e-01	 1.088387795529944e+00	-2.335593768932163e-01
 1.498612759731749e-01	 1.089743822172758e+00	-2.572858552418866e-01
 1.403277164633337e-01	 1.091012434389355e+00	-2.792920639333878e-01
 1.308118257090119e-01	 1.092194243829675e+00	-2.996881675202934e-01
 1.213146529142518e-01	 1.093289876925738e+00	-3.185639809123026e-01
 1.118372299860039e-01	 1.094299974407867e+00	-3.359888430032751e-01
 1.023805713603227e-01	 1.095225190820561e+00	-3.520115772940895e-01
 9.294567384268762e-02	 1.096066194038448e+00	-3.666605383171317e-01
 1.891567760895274e-01	 1.089585009352703e+00	-1.199889236281213e-01
 1.795120710312273e-01	 1.091215466762084e+00	-1.519687150575750e-01
 1.698807400584083e-01	 1.092756291541678e+00	-1.817740846332461e-01
 1.602639055079671e-01	 1.094208051121013e+00	-2.095593494213270e-01
 1.506626731708924e-01	 1.095571329243201e+00	-2.354587253365152e-01
 1.410781320593943e-01	 1.096846725482346e+00	-2.595859420831315e-01
 1.315113541887392e-01	 1.098034854759245e+00	-2.820339486583965e-01
 1.219633943736863e-01	 1.099136346855822e+00	-3.028747092775119e-01
 1.124352900394050e-01	 1.100151845928764e+00	-3.221590892153077e-01
 1.029280610467416e-01	 1.101082010022810e+00	-3.399168296900803e-01
 9.344270953168597e-02	 1.101927510584108e+00	-3.561566105849643e-01
 1.901629291538334e-01	 1.095380674296068e+00	-8.589019774690465e-02
 1.804669224728828e-01	 1.097019804351244e+00	-1.200500720078765e-01
 1.707843610161658e-01	 1.098568825007325e+00	-1.520568216133071e-01
 1.611163730904563e-01	 1.100028306712083e+00	-1.820458252529296e-01
 1.514640703686100e-01	 1.101398836313643e+00	-2.101316834220479e-01
 1.418285476554549e-01	 1.102681016575337e+00	-2.364078438256874e-01
 1.322108826684666e-01	 1.103875465688816e+00	-2.609463193501416e-01
 1.226121358331208e-01	 1.104982816785906e+00	-2.837974984557965e-01
 1.130333500928061e-01	 1.106003717449662e+00	-3.049900474800631e-01
 1.034755507331604e-01	 1.106938829225059e+00	-3.245309039633009e-01
 9.393974522068431e-02	 1.107788827129768e+00	-3.424053597670706e-01
 1.911690822181394e-01	 1.101176339239434e+00	-4.824336092929471e-02
 1.814217739145382e-01	 1.102824141940404e+00	-8.453323016416503e-02
 1.716879819739233e-01	 1.104381358472972e+00	-1.187161473972860e-01
 1.619688406729455e-01	 1.105848562303152e+00	-1.509049452929307e-01
 1.522654675663274e-01	 1.107226343384086e+00	-1.811909830587046e-01
 1.425789632515155e-01	 1.108515307668328e+00	-2.096437867153225e-01
 1.329104111481939e-01	 1.109716076618386e+00	-2.363107838645000e-01
 1.232608772925553e-01	 1.110829286715990e+00	-2.612171328183677e-01
 1.136314101462072e-01	 1.111855588970560e+00	-2.843656455613157e-01
 1.040230404195792e-01	 1.112795648427308e+00	-3.057368036441570e-01
 9.443678090968260e-02	 1.113650143675428e+00	-3.252888657449597e-01
 8.946642401969931e-02	 1.055036978218827e+00	-3.596863890374227e-01
 8.040659338616360e-02	 1.055766094443281e+00	-3.639380197374322e-01
 7.136957679798037e-02	 1.056415472218986e+00	-3.675753139299895e-01
 6.235628204662420e-02	 1.056985790124592e+00	-3.706704072539151e-01
 5.336759947088304e-02	 1.057477737714937e+00	-3.732793522634172e-01
 4.440440186861006e-02	 1.057892015061404e+00	-3.754424751989651e-01
 3.546754442098484e-02	 1.058229332294627e+00	-3.771847916307309e-01
 2.655786462906681e-02	 1.058490409149904e+00	-3.785164783478012e-01
 1.767618226241653e-02	 1.058675974515627e+00	-3.794333986909444e-01
 8.823299319552077e-03	 1.058786765985061e+00	-3.799176783917377e-01
 0.000000000000000e+00	 1.058823529411765e+00	-3.799383288608191e-01
 8.996345970869764e-02	 1.060898294764487e+00	-3.684030675021437e-01
 8.085329668275337e-02	 1.061631461634632e+00	-3.738028092939234e-01
 7.176607444685802e-02	 1.062284447064648e+00	-3.784723048203023e-01
 6.270270583577213e-02	 1.062857933403062e+00	-3.824808707682128e-01
 5.366408613461015e-02	 1.063352614035576e+00	-3.858811546725924e-01
 4.465109299010234e-02	 1.063769192922856e+00	-3.887094989851381e-01
 3.566458633443476e-02	 1.064108384140708e+00	-3.909863660760236e-01
 2.670540832145051e-02	 1.064370911422959e+00	-3.927168214641239e-01
 1.777438327498550e-02	 1.064557507707380e+00	-3.938910724177775e-01
 8.872317649105146e-03	 1.064668914684978e+00	-3.944850589013691e-01
 0.000000000000000e+00	 1.064705882352941e+00	-3.944610937277129e-01
 9.046049539769598e-02	 1.066759611310147e+00	-3.747684194038330e-01
 8.129999997934319e-02	 1.067496828825984e+00	-3.813584369733554e-01
 7.216257209573571e-02	 1.068153421910308e+00	-3.870952524354125e-01
 6.304912962492004e-02	 1.068730076681532e+00	-3.920467450073777e-01
 5.396057279833728e-02	 1.069227490356215e+00	-3.962635011923132e-01
 4.489778411159461e-02	 1.069646370784308e+00	-3.997791849817718e-01
 3.586162824788467e-02	 1.069987435986789e+00	-4.026109711589889e-01
 2.685295201383422e-02	 1.070251413696014e+00	-4.047600389325638e-01
 1.787258428755448e-02	 1.070439040899134e+00	-4.062121229668514e-01
 8.921335978658212e-03	 1.070551063384895e+00	-4.069381187101135e-01
 0.000000000000000e+00	 1.070588235294118e+00	-4.068947387945072e-01
 9.095753108669431e-02	 1.072620927855808e+00	-3.786464155659361e-01
 8.174670327593299e-02	 1.073362196017336e+00	-3.864682615701294e-01
 7.255906974461339e-02	 1.074022396755969e+00	-3.933071487768771e-01
 6.339555341406795e-02	 1.074602219960002e+00	-3.992308833460920e-01
 5.425705946206441e-02	 1.075102366676853e+00	-4.042893174822915e-01
 4.514447523308689e-02	 1.075523548645761e+00	-4.085147246094354e-01
 3.605867016133460e-02	 1.075866487832871e+00	-4.119222399266240e-01
 2.700049570621791e-02	 1.076131915969069e+00	-4.145103635063090e-01
 1.797078530012347e-02	 1.076320574090887e+00	-4.162615229286430e-01
 8.970354308211278e-03	 1.076433212084812e+00	-4.171426922703345e-01
 0.000000000000000e+00	 1.076470588235294e+00	-4.171060641366533e-01
 9.145456677569264e-02	 1.078482244401467e+00	-3.799038208435528e-01
 8.219340657252279e-02	 1.079227563208687e+00	-3.889984136420823e-01
 7.295556739349104e-02	 1.079891371601631e+00	-3.969737372521638e-01
 6.374197720321585e-02	 1.080474363238472e+00	-4.038988726523760e-01
 5.455354612579155e-02	 1.080977242997491e+00	-4.098242477500138e-01
 4.539116635457917e-02	 1.081400726507213e+00	-4.147820163717695e-01
 3.625571207478451e-02	 1.081745539678952e+00	-4.187865050251531e-01
 2.714803939860163e-02	 1.082012418242124e+00	-4.218347245316667e-01
 1.806898631269244e-02	 1.082202107282640e+00	-4.239069434378351e-01
 9.019372637764348e-03	 1.082315360784729e+00	-4.249673199551132e-01
 0.000000000000000e+00	 1.082352941176471e+00	-4.249645890184310e-01
 9.195160246469097e-02	 1.084343560947128e+00	-3.784101213408029e-01
 8.264010986911259e-02	 1.085092930400039e+00	-3.888177227700838e-01
 7.335206504236870e-02	 1.085760346447291e+00	-3.979634399848226e-01
 6.408840099236376e-02	 1.086346506516942e+00	-4.059189606389069e-01
 5.485003278951867e-02	 1.086852119318130e+00	-4.127365821244062e-01
 4.563785747607144e-02	 1.087277904368665e+00	-4.184495932196866e-01
 3.645275398823442e-02	 1.087624591525033e+00	-4.230727260186451e-01
 2.729558309098533e-02	 1.087892920515179e+00	-4.266026751649745e-01
 1.816718732526143e-02	 1.088083640474394e+00	-4.290186812287051e-01
 9.068390967317413e-03	 1.088197509484646e+00	-4.302831748847584e-01
 0.000000000000000e+00	 1.088235294117647e+00	-4.303424784011924e-01
 9.244863815368931e-02	 1.090204877492788e+00	-3.740374539765936e-01
 8.308681316570236e-02	 1.090958297591390e+00	-3.857976471698072e-01
 7.374856269124638e-02	 1.091629321292953e+00	-3.961472874693968e-01
 6.443482478151169e-02	 1.092218649795412e+00	-4.051619855567554e-01
 5.514651945324580e-02	 1.092726995638769e+00	-4.128971863703388e-01
 4.588454859756372e-02	 1.093155082230117e+00	-4.193885522614740e-01
 3.664979590168434e-02	 1.093503643371114e+00	-4.246524190505476e-01
 2.744312678336903e-02	 1.093773422788234e+00	-4.286863219410724e-01
 1.826538833783041e-02	 1.093965173666148e+00	-4.314695880469310e-01
 9.117409296870480e-03	 1.094079658184563e+00	-4.329639921096402e-01
 0.000000000000000e+00	 1.094117647058824e+00	-4.331144718224280e-01
 9.294567384268762e-02	 1.096066194038448e+00	-3.666605383171317e-01
 8.353351646229218e-02	 1.096823664782742e+00	-3.798122055622821e-01
 7.414506034012407e-02	 1.097498296138613e+00	-3.913988504894861e-01
 6.478124857065960e-02	 1.098090793073882e+00	-4.015013081507508e-01
 5.544300611697292e-02	 1.098601871959407e+00	-4.101794338644273e-01
 4.613123971905600e-02	 1.099032260091569e+00	-4.174724867271897e-01
 3.684683781513425e-02	 1.099382695217196e+00	-4.233995887634987e-01
 2.759067047575274e-02	 1.099653925061289e+00	-4.279602565977041e-01
 1.836358935039939e-02	 1.099846706857901e+00	-4.311350023238090e-01
 9.166427626423545e-03	 1.099961806884480e+00	-4.328860000676298e-01
 0.000000000000000e+00	 1.100000000000000e+00	-4.331578145574349e-01
 9.344270953168597e-02	 1.101927510584108e+00	-3.561566105849643e-01
 8.398021975888197e-02	 1.102689031974093e+00	-3.707379112241957e-01
 7.454155798900174e-02	 1.103367270984275e+00	-3.835941742088291e-01
 6.512767235980750e-02	 1.103962936352352e+00	-3.948127457864539e-01
 5.573949278070006e-02	 1.104476748280045e+00	-4.044591397404158e-01
 4.637793084054827e-02	 1.104909437953022e+00	-4.125774201086303e-01
 3.704387972858417e-02	 1.105261747063277e+00	-4.191906623948265e-01
 2.773821416813645e-02	 1.105534427334344e+00	-4.243014900798578e-01
 1.846179036296836e-02	 1.105728240049655e+00	-4.278926830338952e-01
 9.215445955976613e-03	 1.105843955584397e+00	-4.299278542284748e-01
 0.000000000000000e+00	 1.105882352941177e+00	-4.303521909764574e-01
 9.393974522068431e-02	 1.107788827129768e+00	-3.424053597670706e-01
 8.442692305547177e-02	 1.108554399165445e+00	-3.584537081330197e-01
 7.493805563787941e-02	 1.109236245829936e+00	-3.726117143578103e-01
 6.547409614895543e-02	 1.109835079630822e+00	-3.849745086711258e-01
 5.603597944442718e-02	 1.110351624600684e+00	-3.956144971279487e-01
 4.662462196204056e-02	 1.110786615814474e+00	-4.045817423890661e-01
 3.724092164203409e-02	 1.111140798909358e+00	-4.119044259617595e-01
 2.788575786052015e-02	 1.111414929607399e+00	-4.175893886386390e-01
 1.855999137553735e-02	 1.111609773241408e+00	-4.216227456500481e-01
 9.264464285529683e-03	 1.111726104284314e+00	-4.239705728443508e-01
 0.000000000000000e+00	 1.111764705882353e+00	-4.245796600186513e-01
 9.443678090968260e-02	 1.113650143675428e+00	-3.252888657449597e-01
 8.487362635206157e-02	 1.114419766356796e+00	-3.428409091329114e-01
 7.533455328675705e-02	 1.115105220675597e+00	-3.583322754397575e-01
 6.582051993810334e-02	 1.115707222909291e+00	-3.718671380923961e-01
 5.633246610815430e-02	 1.116226500921323e+00	-3.835260154086821e-01
 4.687131308353283e-02	 1.116663793675926e+00	-3.933661482902346e-01
 3.743796355548400e-02	 1.117019850755439e+00	-4.014219624661930e-01
 2.803330155290386e-02	 1.117295431880454e+00	-4.077056119466160e-01
 1.865819238810633e-02	 1.117491306433162e+00	-4.122076001230170e-01
 9.313482615082747e-03	 1.117608252984231e+00	-4.148974747306484e-01
 0.000000000000000e+00	 1.117647058823530e+00	-4.157245927043793e-01
 1.117647058823530e+00	 0.000000000000000e+00	 2.373982947861729e+01
 1.117608252984231e+00	 9.313482615082433e-03	 2.373712246787437e+01
 1.117491306433162e+00	 1.865819238810604e-02	 2.372920041878916e+01
 1.117295431880454e+00	 2.803330155290360e-02	 2.371603503932744e+01
 1.117019850755439e+00	 3.743796355548379e-02	 2.369758997393881e+01
 1.116663793675926e+00	 4.687131308353266e-02	 2.367382101030258e+01
 1.116226500921323e+00	 5.633246610815418e-02	 2.364467630367428e+01
 1.115707222909291e+00	 6.582051993810323e-02	 2.361009661710357e+01
 1.115105220675596e+00	 7.533455328675696e-02	 2.357001557565914e+01
 1.114419766356796e+00	 8.487362635206155e-02	 2.352435993267106e+01
 1.113650143675428e+00	 9.443678090968259e-02	 2.347304984588209e+01
 1.123529411764706e+00	 0.000000000000000e+00	 2.349641016922720e+01
 1.123490401684148e+00	 9.362500944635492e-03	 2.349366043230107e+01
 1.123372839624915e+00	 1.875639340067503e-02	 2.348589604945884e+01
 1.123175934153509e+00	 2.818084524528731e-02	 2.347308439056633e+01
 1.122898902601521e+00	 3.763500546893371e-02	 2.345518468678253e+01
 1.122540971537379e+00	 4.711800420502493e-02	 2.343214825807229e+01
 1.122101377241962e+00	 5.662895277188131e-02	 2.340391875877282e+01
 1.121579366187762e+00	 6.616694372725113e-02	 2.337043243939246e+01
 1.120974195521258e+00	 7.573105093563465e-02	 2.333161842267971e+01
 1.120285133548148e+00	 8.532032964865134e-02	 2.328739899187107e+01
 1.119511460221089e+00	 9.493381659868096e-02	 2.323768988890086e+01
 1.129411764705883e+00	 0.000000000000000e+00	 2.325932396123198e+01
 1.129372550384064e+00	 9.411519274188563e-03	 2.325653881062003e+01
 1.129254372816669e+00	 1.885459441324401e-02	 2.324893776547774e+01
 1.129056436426564e+00	 2.832838893767101e-02	 2.323648361764837e+01
 1.128777954447602e+00	 3.783204738238363e-02	 2.321913095904695e+01
 1.128418149398831e+00	 4.736469532651724e-02	 2.319682643104471e+01
 1.127976253562600e+00	 5.692543943560840e-02	 2.316950899236334e+01
 1.127451509466231e+00	 6.651336751639902e-02	 2.313711020356291e+01
 1.126843170366918e+00	 7.612754858451230e-02	 2.309955452605952e+01
 1.126150500739500e+00	 8.576703294524116e-02	 2.305675963347464e+01
 1.125372776766749e+00	 9.543085228767927e-02	 2.300863673298907e+01
 1.135294117647059e+00	 0.000000000000000e+00	 2.302829087359842e+01
 1.135254699083982e+00	 9.460537603741628e-03	 2.302547693805889e+01
 1.135135906008422e+00	 1.895279542581299e-02	 2.301804440030121e+01
 1.134936938699619e+00	 2.847593263005472e-02	 2.300595123040718e+01
 1.134657006293683e+00	 3.802908929583354e-02	 2.298914715126364e+01
 1.134295327260283e+00	 4.761138644800948e-02	 2.296757391093812e+01
 1.133851129883238e+00	 5.722192609933555e-02	 2.294116557402650e+01
 1.133323652744701e+00	 6.685979130554695e-02	 2.290984882995419e+01
 1.132712145212580e+00	 7.652404623338999e-02	 2.287354331606375e+01
 1.132015867930851e+00	 8.621373624183093e-02	 2.283216195317922e+01
 1.131234093312409e+00	 9.592788797667762e-02	 2.278561129120578e+01
 1.141176470588235e+00	 0.000000000000000e+00	 2.280303725126138e+01
 1.141136847783899e+00	 9.509555933294691e-03	 2.280020048683973e+01
 1.141017439200176e+00	 1.905099643838197e-02	 2.279294112893131e+01
 1.140817440972674e+00	 2.862347632243841e-02	 2.278121207819751e+01
 1.140536058139765e+00	 3.822613120928345e-02	 2.276495795478064e+01
 1.140172505121735e+00	 4.785807756950177e-02	 2.274411539480948e+01
 1.139726006203877e+00	 5.751841276306265e-02	 2.271861336634091e+01
 1.139195796023171e+00	 6.720621509469488e-02	 2.268837350261634e+01
 1.138581120058241e+00	 7.692054388226764e-02	 2.265331045035742e+01
 1.137881235122203e+00	 8.666043953842074e-02	 2.261333223067609e+01
 1.137095409858069e+00	 9.642492366567593e-02	 2.256834061003860e+01
 1.147058823529412e+00	 0.000000000000000e+00	 2.258329560291959e+01
 1.147018996483816e+00	 9.558574262847761e-03	 2.258044130349925e+01
 1.146898972391929e+00	 1.914919745095095e-02	 2.257335930486692e+01
 1.146697943245728e+00	 2.877102001482211e-02	 2.256199718657859e+01
 1.146415109985846e+00	 3.842317312273336e-02	 2.254629422828444e+01
 1.146049682983187e+00	 4.810476869099404e-02	 2.252618173151858e+01
 1.145600882524515e+00	 5.781489942678981e-02	 2.250158336139280e+01
 1.145067939301641e+00	 6.755263888384279e-02	 2.247241550596836e+01
 1.144450094903901e+00	 7.731704153114533e-02	 2.243858765091436e+01
 1.143746602313554e+00	 8.710714283501055e-02	 2.240000276691235e+01
 1.142956726403729e+00	 9.692195935467424e-02	 2.235655770712077e+01
 1.152941176470588e+00	 0.000000000000000e+00	 2.236880444379668e+01
 1.152901145183733e+00	 9.607592592400823e-03	 2.236593725118914e+01
 1.152780505583683e+00	 1.924739846351992e-02	 2.235903630204386e+01
 1.152578445518784e+00	 2.891856370720582e-02	 2.234804359899551e+01
 1.152294161831927e+00	 3.862021503618328e-02	 2.233289283932239e+01
 1.151926860844640e+00	 4.835145981248633e-02	 2.231350976319127e+01
 1.151475758845154e+00	 5.811138609051691e-02	 2.228981252228050e+01
 1.150940082580111e+00	 6.789906267299070e-02	 2.226171206644270e+01
 1.150319069749563e+00	 7.771353918002299e-02	 2.222911254590068e+01
 1.149611969504905e+00	 8.755384613160032e-02	 2.219191172631152e+01
 1.148818042949389e+00	 9.741899504367259e-02	 2.215000141388608e+01
 1.158823529411765e+00	 0.000000000000000e+00	 2.215930814319128e+01
 1.158783293883650e+00	 9.656610921953884e-03	 2.215643205677885e+01
 1.158662038775436e+00	 1.934559947608890e-02	 2.214971536158787e+01
 1.158458947791839e+00	 2.906610739958953e-02	 2.213909422327952e+01
 1.158173213678008e+00	 3.881725694963319e-02	 2.212449651064697e+01
 1.157804038706092e+00	 4.859815093397860e-02	 2.210584217150490e+01
 1.157350635165793e+00	 5.840787275424406e-02	 2.208304362943579e+01
 1.156812225858581e+00	 6.824548646213859e-02	 2.205600619893909e+01
 1.156188044595224e+00	 7.811003682890065e-02	 2.202462851635554e+01
 1.155477336696257e+00	 8.800054942819011e-02	 2.198880298377582e+01
 1.154679359495050e+00	 9.791603073267091e-02	 2.194841622298716e+01
 1.164705882352941e+00	 0.000000000000000e+00	 2.195455677664695e+01
 1.164665442583567e+00	 9.705629251506949e-03	 2.195167516259135e+01
 1.164543571967190e+00	 1.944380048865789e-02	 2.194514544321058e+01
 1.164339450064894e+00	 2.921365109197323e-02	 2.193489768279759e+01
 1.164052265524090e+00	 3.901429886308311e-02	 2.192085367121243e+01
 1.163681216567544e+00	 4.884484205547087e-02	 2.190292732862423e+01
 1.163225511486431e+00	 5.870435941797119e-02	 2.188102513159264e+01
 1.162684369137052e+00	 6.859191025128653e-02	 2.185504655791701e+01
 1.162057019440884e+00	 7.850653447777835e-02	 2.182488454749974e+01
 1.161342703887609e+00	 8.844725272477991e-02	 2.179042597630185e+01
 1.160540676040710e+00	 9.841306642166923e-02	 2.175155214030805e+01
 1.170588235294118e+00	 0.000000000000000e+00	 2.175430598257908e+01
 1.170547591283484e+00	 9.754647581060020e-03	 2.175142158260946e+01
 1.170425105158943e+00	 1.954200150122687e-02	 2.174508108108515e+01
 1.170219952337950e+00	 2.936119478435694e-02	 2.173520817208750e+01
 1.169931317370171e+00	 3.921134077653302e-02	 2.172171831165952e+01
 1.169558394428997e+00	 4.909153317696315e-02	 2.170451915262544e+01
 1.169100387807070e+00	 5.900084608169830e-02	 2.168351100123910e+01
 1.168556512415521e+00	 6.893833404043444e-02	 2.165858729296481e+01
 1.167925994286546e+00	 7.890303212665600e-02	 2.162963508450946e+01
 1.167208071078961e+00	 8.889395602136972e-02	 2.159653555904662e+01
 1.166401992586370e+00	 9.891010211066759e-02	 2.155916454140996e+01
 1.176470588235294e+00	 0.000000000000000e+00	 2.155831682320323e+01
 1.176429739983401e+00	 9.803665910613083e-03	 2.155543176299501e+01
 1.176306638350696e+00	 1.964020251379585e-02	 2.154928224404393e+01
 1.176100454611004e+00	 2.950873847674064e-02	 2.153978531682164e+01
 1.175810369216252e+00	 3.940838268998295e-02	 2.152684984413130e+01
 1.175435572290449e+00	 4.933822429845543e-02	 2.151037696725039e+01
 1.174975264127708e+00	 5.929733274542542e-02	 2.149026059439576e+01
 1.174428655693991e+00	 6.928475782958232e-02	 2.146638790868771e+01
 1.173794969132207e+00	 7.929952977553367e-02	 2.143863989259877e+01
 1.173073438270312e+00	 8.934065931795951e-02	 2.140689186568869e+01
 1.172263309132030e+00	 9.940713779966590e-02	 2.137101403225467e+01
 1.113650143675428e+00	 9.443678090968259e-02	 2.347304984588209e+01
 1.112795648427308e+00	 1.040230404195789e-01	 2.341619874205982e+01
 1.111855588970560e+00	 1.136314101462069e-01	 2.335395637251281e+01
 1.110829286715990e+00	 1.232608772925551e-01	 2.328628822765615e+01
 1.109716076618386e+00	 1.329104111481937e-01	 2.321315414527855e+01
 1.108515307668329e+00	 1.425789632515153e-01	 2.313450853703280e+01
 1.107226343384086e+00	 1.522654675663273e-01	 2.305030060919131e+01
 1.105848562303152e+00	 1.619688406729454e-01	 2.296047457512047e+01
 1.104381358472973e+00	 1.716879819739233e-01	 2.286496985691890e+01
 1.102824141940404e+00	 1.814217739145383e-01	 2.276372127367422e+01
 1.101176339239434e+00	 1.911690822181393e-01	 2.265665921382161e+01
 1.119511460221089e+00	 9.493381659868096e-02	 2.323768988890086e+01
 1.118652467629557e+00	 1.045705301059977e-01	 2.318259518091611e+01
 1.117707460491457e+00	 1.142294701996080e-01	 2.312226142486941e+01
 1.116675756646074e+00	 1.239096187519896e-01	 2.305665910910458e+01
 1.115556687547957e+00	 1.336099396279210e-01	 2.298575322625278e+01
 1.114349598761320e+00	 1.433293788475759e-01	 2.290950350862724e+01
 1.113053850454528e+00	 1.530668647640448e-01	 2.282786465692158e+01
 1.111668817894221e+00	 1.628213082554345e-01	 2.274078655954842e+01
 1.110193891938620e+00	 1.725916029316808e-01	 2.264821449994687e+01
 1.108628479529564e+00	 1.823766253561937e-01	 2.255008934919762e+01
 1.106972004182799e+00	 1.921752352824453e-01	 2.244634774131488e+01
 1.125372776766749e+00	 9.543085228767927e-02	 2.300863673298907e+01
 1.124509286831806e+00	 1.051180197924166e-01	 2.295527979530983e+01
 1.123559332012355e+00	 1.148275302530091e-01	 2.289683079489821e+01
 1.122522226576159e+00	 1.245583602114241e-01	 2.283326418480551e+01
 1.121397298477527e+00	 1.343094681076483e-01	 2.276454914390175e+01
 1.120183889854311e+00	 1.440797944436365e-01	 2.269064982421586e+01
 1.118881357524971e+00	 1.538682619617623e-01	 2.261152559057776e+01
 1.117489073485290e+00	 1.636737758379238e-01	 2.252713124977337e+01
 1.116006425404267e+00	 1.734952238894383e-01	 2.243741726641777e+01
 1.114432817118724e+00	 1.833314767978492e-01	 2.234232996276081e+01
 1.112767669126165e+00	 1.931813883467513e-01	 2.224181169967235e+01
 1.131234093312409e+00	 9.592788797667762e-02	 2.278561129120578e+01
 1.130366106034055e+00	 1.056655094788354e-01	 2.273397489453806e+01
 1.129411203533253e+00	 1.154255903064102e-01	 2.267738920643368e+01
 1.128368696506242e+00	 1.252071016708586e-01	 2.261583162648467e+01
 1.127237909407098e+00	 1.350089965873757e-01	 2.254927456604271e+01
 1.126018180947302e+00	 1.448302100396971e-01	 2.247768571054276e+01
 1.124708864595414e+00	 1.546696591594798e-01	 2.240102827308495e+01
 1.123309329076360e+00	 1.645262434204129e-01	 2.231926123635481e+01
 1.121818958869914e+00	 1.743988448471957e-01	 2.223233957995252e+01
 1.120237154707884e+00	 1.842863282395047e-01	 2.214021449021542e+01
 1.118563334069530e+00	 1.941875414110573e-01	 2.204283354965031e+01
 1.137095409858069e+00	 9.642492366567593e-02	 2.256834061003860e+01
 1.136222925236304e+00	 1.062129991652542e-01	 2.251840885467123e+01
 1.135263075054150e+00	 1.160236503598113e-01	 2.246366735815940e+01
 1.134215166436326e+00	 1.258558431302931e-01	 2.240409546310551e+01
 1.133078520336668e+00	 1.357085250671031e-01	 2.233966787402984e+01
 1.131852472040293e+00	 1.455806256357577e-01	 2.227035493771218e+01
 1.130536371665856e+00	 1.554710563571974e-01	 2.219612291370770e+01
 1.129129584667429e+00	 1.653787110029022e-01	 2.211693423197536e+01
 1.127631492335561e+00	 1.753024658049532e-01	 2.203274773455063e+01
 1.126041492297044e+00	 1.852411796811601e-01	 2.194351889820571e+01
 1.124358999012896e+00	 1.951936944753634e-01	 2.184920003507619e+01
 1.142956726403729e+00	 9.692195935467424e-02	 2.235655770712077e+01
 1.142079744438553e+00	 1.067604888516731e-01	 2.230831595705294e+01
 1.141114946575048e+00	 1.166217104132124e-01	 2.225540176345239e+01
 1.140061636366411e+00	 1.265045845897275e-01	 2.219779542262914e+01
 1.138919131266239e+00	 1.364080535468304e-01	 2.213547300700913e+01
 1.137686763133285e+00	 1.463310412318183e-01	 2.206840666652741e+01
 1.136363878736299e+00	 1.562724535549148e-01	 2.199656491906823e+01
 1.134949840258498e+00	 1.662311785853914e-01	 2.191991292674315e+01
 1.133444025801208e+00	 1.762060867627107e-01	 2.183841275478905e+01
 1.131845829886204e+00	 1.861960311228155e-01	 2.175202360988326e+01
 1.130154663956261e+00	 1.961998475396693e-01	 2.166070205470652e+01
 1.148818042949389e+00	 9.741899504367259e-02	 2.215000141388608e+01
 1.147936563640802e+00	 1.073079785380919e-01	 2.210343623170736e+01
 1.146966818095946e+00	 1.172197704666134e-01	 2.205233459508718e+01
 1.145908106296495e+00	 1.271533260491621e-01	 2.199667677856712e+01
 1.144759742195809e+00	 1.371075820265577e-01	 2.193643931088137e+01
 1.143521054226276e+00	 1.470814568278790e-01	 2.187159530043262e+01
 1.142191385806742e+00	 1.570738507526324e-01	 2.180211474864555e+01
 1.140770095849567e+00	 1.670836461678805e-01	 2.172796484783252e+01
 1.139256559266856e+00	 1.771097077204682e-01	 2.164911026019731e+01
 1.137650167475364e+00	 1.871508825644710e-01	 2.156551337461682e+01
 1.135950328899626e+00	 1.972060006039753e-01	 2.147713453787813e+01
 1.154679359495050e+00	 9.791603073267091e-02	 2.194841622298716e+01
 1.153793382843051e+00	 1.078554682245107e-01	 2.190351530548041e+01
 1.152818689616844e+00	 1.178178305200145e-01	 2.185421353462610e+01
 1.151754576226580e+00	 1.278020675085966e-01	 2.180049020115654e+01
 1.150600353125379e+00	 1.378071105062851e-01	 2.174232139180501e+01
 1.149355345319267e+00	 1.478318724239396e-01	 2.167968034189509e+01
 1.148018892877184e+00	 1.578752479503499e-01	 2.161253777459522e+01
 1.146590351440636e+00	 1.679361137503697e-01	 2.154086222330900e+01
 1.145069092732503e+00	 1.780133286782257e-01	 2.146462033366097e+01
 1.143454505064524e+00	 1.881057340061266e-01	 2.138377714155482e+01
 1.141745993842992e+00	 1.982121536682813e-01	 2.129829632381773e+01
 1.160540676040710e+00	 9.841306642166923e-02	 2.175155214030805e+01
 1.159650202045299e+00	 1.084029579109296e-01	 2.170830425474667e+01
 1.158670561137741e+00	 1.184158905734156e-01	 2.166079162633093e+01
 1.157601046156663e+00	 1.284508089680311e-01	 2.160899161299432e+01
 1.156440964054950e+00	 1.385066389860124e-01	 2.155287897407910e+01
 1.155189636412258e+00	 1.485822880200001e-01	 2.149242625307020e+01
 1.153846399947627e+00	 1.586766451480674e-01	 2.142760414573850e+01
 1.152410607031706e+00	 1.687885813328589e-01	 2.135838184999021e+01
 1.150881626198150e+00	 1.789169496359832e-01	 2.128472739371063e+01
 1.149258842653684e+00	 1.890605854477820e-01	 2.120660793690510e+01
 1.147541658786357e+00	 1.992183067325873e-01	 2.112399004448074e+01
 1.166401992586370e+00	 9.891010211066759e-02	 2.155916454140996e+01
 1.165507021247549e+00	 1.089504475973484e-01	 2.151755946252237e+01
 1.164522432658639e+00	 1.190139506268167e-01	 2.147182713543670e+01
 1.163447516086748e+00	 1.290995504274656e-01	 2.142194204897332e+01
 1.162281574984520e+00	 1.392061674657397e-01	 2.136787676225138e+01
 1.161023927505249e+00	 1.493327036160608e-01	 2.130960232059914e+01
 1.159673907018069e+00	 1.594780423457849e-01	 2.124708865557302e+01
 1.158230862622775e+00	 1.696410489153481e-01	 2.118030496520139e+01
 1.156694159663797e+00	 1.798205705937407e-01	 2.110922007055982e+01
 1.155063180242844e+00	 1.900154368894375e-01	 2.103380274479989e+01
 1.153337323729723e+00	 2.002244597968933e-01	 2.095402201079498e+01
 1.172263309132030e+00	 9.940713779966590e-02	 2.137101403225467e+01
 1.171363840449798e+00	 1.094979372837673e-01	 2.133104247982931e+01
 1.170374304179537e+00	 1.196120106802178e-01	 2.128708341063470e+01
 1.169293986016832e+00	 1.297482918869001e-01	 2.123910752037056e+01
 1.168122185914091e+00	 1.399056959454671e-01	 2.118708430730490e+01
 1.166858218598241e+00	 1.500831192121214e-01	 2.113098252439387e+01
 1.165501414088511e+00	 1.602794395435024e-01	 2.107077061416462e+01
 1.164051118213844e+00	 1.704935164978373e-01	 2.100641712228841e+01
 1.162506693129445e+00	 1.807241915514982e-01	 2.093789108576085e+01
 1.160867517832004e+00	 1.909702883310929e-01	 2.086516239162184e+01
 1.159132988673088e+00	 2.012306128611993e-01	 2.078820210219055e+01
 1.101176339239434e+00	 1.911690822181393e-01	 2.265665921382161e+01
 1.099437393876680e+00	 2.009287561364470e-01	 2.254417191898018e+01
 1.097606766814189e+00	 2.106996287148789e-01	 2.242667256423829e+01
 1.095683936949030e+00	 2.204805170729588e-01	 2.230412131912255e+01
 1.093668401589187e+00	 2.302702226998496e-01	 2.217647249768445e+01
 1.091559676925239e+00	 2.400675317650313e-01	 2.204367453414332e+01
 1.089357298497311e+00	 2.498712154441309e-01	 2.190566992994334e+01
 1.087060821656778e+00	 2.596800302598875e-01	 2.176239517060478e+01
 1.084669822022196e+00	 2.694927184382222e-01	 2.161378061094678e+01
 1.082183895928924e+00	 2.793080082793573e-01	 2.145975032747109e+01
 1.079602660871914e+00	 2.891246145439158e-01	 2.130022193693333e+01
 1.106972004182799e+00	 1.921752352824453e-01	 2.244634774131487e+01
 1.105223906476031e+00	 2.019862759055862e-01	 2.233736652350419e+01
 1.103383644534264e+00	 2.118085741291678e-01	 2.222354223766827e+01
 1.101450694511920e+00	 2.216409408470271e-01	 2.210483358405580e+01
 1.099424551071235e+00	 2.314821712403751e-01	 2.198119340533983e+01
 1.097304727856424e+00	 2.413310450901104e-01	 2.185256866314694e+01
 1.095090757963086e+00	 2.511863271043631e-01	 2.171890038436204e+01
 1.092782194402340e+00	 2.610467672612553e-01	 2.158012357550813e+01
 1.090378610559155e+00	 2.709111011668444e-01	 2.143616710370190e+01
 1.087879600644339e+00	 2.807780504281961e-01	 2.128695354290890e+01
 1.085284780139662e+00	 2.906463230415153e-01	 2.113239898446468e+01
 1.112767669126165e+00	 1.931813883467513e-01	 2.224181169967235e+01
 1.111010419075382e+00	 2.030437956747255e-01	 2.213622629046480e+01
 1.109160522254339e+00	 2.129175195434566e-01	 2.202595307815639e+01
 1.107217452074809e+00	 2.228013646210952e-01	 2.191095043543966e+01
 1.105180700553284e+00	 2.326941197809006e-01	 2.179117085608602e+01
 1.103049778787609e+00	 2.425945584151895e-01	 2.166656093062321e+01
 1.100824217428861e+00	 2.525014387645954e-01	 2.153706129009523e+01
 1.098503567147902e+00	 2.624135042626232e-01	 2.140260651612226e+01
 1.096087399096114e+00	 2.723294838954666e-01	 2.126312501568642e+01
 1.093575305359755e+00	 2.822480925770348e-01	 2.111853885930061e+01
 1.090966899407408e+00	 2.921680315391149e-01	 2.096876358146883e+01
 1.118563334069530e+00	 1.941875414110573e-01	 2.204283354965031e+01
 1.116796931674733e+00	 2.041013154438646e-01	 2.194054491812028e+01
 1.114937399974413e+00	 2.140264649577455e-01	 2.183370917429756e+01
 1.112984209637699e+00	 2.239617883951635e-01	 2.172228548940226e+01
 1.110936850035332e+00	 2.339060683214262e-01	 2.160622711592593e+01
 1.108794829718796e+00	 2.438580717402687e-01	 2.148548136074499e+01
 1.106557676894637e+00	 2.538165504248276e-01	 2.135998952456712e+01
 1.104224939893464e+00	 2.637802412639910e-01	 2.122968680584542e+01
 1.101796187633073e+00	 2.737478666240888e-01	 2.109450216751242e+01
 1.099271010075170e+00	 2.837181347258735e-01	 2.095435816512412e+01
 1.096649018675155e+00	 2.936897400367144e-01	 2.080917073526686e+01
 1.124358999012896e+00	 1.951936944753634e-01	 2.184920003507619e+01
 1.122583444274084e+00	 2.051588352130038e-01	 2.175012007215187e+01
 1.120714277694488e+00	 2.151354103720343e-01	 2.164661827916377e+01
 1.118750967200589e+00	 2.251222121692316e-01	 2.153865573666035e+01
 1.116692999517381e+00	 2.351180168619517e-01	 2.142618754897531e+01
 1.114539880649980e+00	 2.451215850653476e-01	 2.130916281309059e+01
 1.112291136360412e+00	 2.551316620850600e-01	 2.118752455202361e+01
 1.109946312639026e+00	 2.651469782653588e-01	 2.106120961079306e+01
 1.107504976170032e+00	 2.751662493527111e-01	 2.093014851323879e+01
 1.104966714790586e+00	 2.851881768747123e-01	 2.079426527822245e+01
 1.102331137942902e+00	 2.952114485343141e-01	 2.065347719400457e+01
 1.130154663956261e+00	 1.961998475396693e-01	 2.166070205470652e+01
 1.128369956873435e+00	 2.062163549821430e-01	 2.156475326377314e+01
 1.126491155414563e+00	 2.162443557863231e-01	 2.146449169424506e+01
 1.124517724763479e+00	 2.262826359433000e-01	 2.135988143186290e+01
 1.122449148999429e+00	 2.363299654024772e-01	 2.125088051177191e+01
 1.120284931581166e+00	 2.463850983904269e-01	 2.113744088147252e+01
 1.118024595826187e+00	 2.564467737452921e-01	 2.101950832642788e+01
 1.115667685384588e+00	 2.665137152667267e-01	 2.089702235629868e+01
 1.113213764706991e+00	 2.765846320813333e-01	 2.076991605000919e+01
 1.110662419506001e+00	 2.866582190235510e-01	 2.063811585810290e+01
 1.108013257210649e+00	 2.967331570319134e-01	 2.050154136113069e+01
 1.135950328899626e+00	 1.972060006039753e-01	 2.147713453787813e+01
 1.134156469472785e+00	 2.072738747512822e-01	 2.138424973142696e+01
 1.132268033134637e+00	 2.173533012006119e-01	 2.128714415678433e+01
 1.130284482326368e+00	 2.274430597173681e-01	 2.118578598614741e+01
 1.128205298481477e+00	 2.375419139430027e-01	 2.108013725062817e+01
 1.126029982512352e+00	 2.476486117155060e-01	 2.097015379565454e+01
 1.123758055291963e+00	 2.577618854055245e-01	 2.085578519710041e+01
 1.121389058130150e+00	 2.678804522680945e-01	 2.073697463603031e+01
 1.118922553243950e+00	 2.780030148099555e-01	 2.061365873018946e+01
 1.116358124221416e+00	 2.881282611723897e-01	 2.048576732063347e+01
 1.113695376478396e+00	 2.982548655295131e-01	 2.035322321218442e+01
 1.141745993842992e+00	 1.982121536682813e-01	 2.129829632381773e+01
 1.139942982072136e+00	 2.083313945204214e-01	 2.120841832594287e+01
 1.138044910854712e+00	 2.184622466149009e-01	 2.111439373038577e+01
 1.136051239889257e+00	 2.286034834914363e-01	 2.101619586279466e+01
 1.133961447963526e+00	 2.387538624835282e-01	 2.091379180191982e+01
 1.131775033443537e+00	 2.489121250405850e-01	 2.080714232585370e+01
 1.129491514757738e+00	 2.590769970657568e-01	 2.069620181700770e+01
 1.127110430875712e+00	 2.692471892694624e-01	 2.058091812362941e+01
 1.124631341780908e+00	 2.794213975385778e-01	 2.046123237591574e+01
 1.122053828936832e+00	 2.895983033212284e-01	 2.033707875505221e+01
 1.119377495746143e+00	 2.997765740271127e-01	 2.020838421381019e+01
 1.147541658786357e+00	 1.992183067325873e-01	 2.112399004448074e+01
 1.145729494671488e+00	 2.093889142895606e-01	 2.103707139903180e+01
 1.143821788574787e+00	 2.195711920291897e-01	 2.094606169878033e+01
 1.141817997452147e+00	 2.297639072655046e-01	 2.085094047587194e+01
 1.139717597445574e+00	 2.399658110240538e-01	 2.075168089520641e+01
 1.137520084374722e+00	 2.501756383656642e-01	 2.064824968992925e+01
 1.135224974223513e+00	 2.603921087259890e-01	 2.054060705360365e+01
 1.132831803621274e+00	 2.706139262708301e-01	 2.042870648678356e+01
 1.130340130317868e+00	 2.808397802672001e-01	 2.031249459596859e+01
 1.127749533652247e+00	 2.910683454700671e-01	 2.019191084320654e+01
 1.125059615013890e+00	 3.012982825247121e-01	 2.006688724492146e+01
 1.153337323729723e+00	 2.002244597968933e-01	 2.095402201079498e+01
 1.151516007270839e+00	 2.104464340586998e-01	 2.087002469500150e+01
 1.149598666294861e+00	 2.206801374434785e-01	 2.078197246263837e+01
 1.147584755015037e+00	 2.309243310395728e-01	 2.068985209176056e+01
 1.145473746927622e+00	 2.411777595645793e-01	 2.059364385908374e+01
 1.143265135305908e+00	 2.514391516907433e-01	 2.049332146316398e+01
 1.140958433689288e+00	 2.617072203862212e-01	 2.038885190213593e+01
 1.138553176366836e+00	 2.719806632721981e-01	 2.028019530364676e+01
 1.136048918854827e+00	 2.822581629958222e-01	 2.016730470489045e+01
 1.133445238367663e+00	 2.925383876189059e-01	 2.005012578094516e+01
 1.130741734281637e+00	 3.028199910223118e-01	 1.992859651993711e+01
 1.159132988673088e+00	 2.012306128611993e-01	 2.078820210219054e+01
 1.157302519870189e+00	 2.115039538278390e-01	 2.070709724557939e+01
 1.155375544014936e+00	 2.217890828577673e-01	 2.062195343932155e+01
 1.153351512577927e+00	 2.320847548136409e-01	 2.053276573346577e+01
 1.151229896409671e+00	 2.423897081051049e-01	 2.043952252967319e+01
 1.149010186237093e+00	 2.527026650158223e-01	 2.034220549054686e+01
 1.146691893155064e+00	 2.630223320464536e-01	 2.024078940132990e+01
 1.144274549112398e+00	 2.733474002735658e-01	 2.013524198152557e+01
 1.141757707391785e+00	 2.836765457244443e-01	 2.002552364426870e+01
 1.139140943083078e+00	 2.940084297677447e-01	 1.991158720158656e+01
 1.136423853549384e+00	 3.043416995199113e-01	 1.979337751401888e+01
 1.079602660871914e+00	 2.891246145439158e-01	 2.130022193693333e+01
 1.076925755941132e+00	 2.989412388539061e-01	 2.113592334972827e+01
 1.074152842249059e+00	 3.087565701084813e-01	 2.096751932710191e+01
 1.071283603349764e+00	 3.185692849143374e-01	 2.079481846254823e+01
 1.068317745648971e+00	 3.283780480305984e-01	 2.061761667661994e+01
 1.065254998804626e+00	 3.381815128280104e-01	 2.043569690081186e+01
 1.062095116117391e+00	 3.479783217622492e-01	 2.024882873502173e+01
 1.058837874910559e+00	 3.577671068611222e-01	 2.005676807979995e+01
 1.055483076898847e+00	 3.675464902254248e-01	 1.985925674493911e+01
 1.052030548545551e+00	 3.773150845431895e-01	 1.965602203630447e+01
 1.048480141407531e+00	 3.870714936170449e-01	 1.944677632315742e+01
 1.085284780139662e+00	 2.906463230415153e-01	 2.113239898446467e+01
 1.082593786235559e+00	 3.005146137952424e-01	 2.097320099254207e+01
 1.079806278260896e+00	 3.103816046879996e-01	 2.080999745248127e+01
 1.076921938104236e+00	 3.202459653612550e-01	 2.064260077110512e+01
 1.073940470626071e+00	 3.301063535465489e-01	 2.047081087595756e+01
 1.070861604061493e+00	 3.399614155271052e-01	 2.029441487881605e+01
 1.067685090412746e+00	 3.498097866136295e-01	 2.011318671034593e+01
 1.064410705831141e+00	 3.596500916340756e-01	 1.992688672712522e+01
 1.061038250987788e+00	 3.694809454371375e-01	 1.973526129262143e+01
 1.057567551432632e+00	 3.793009534092064e-01	 1.953804233406743e+01
 1.053998457941255e+00	 3.891087120045030e-01	 1.933494687754851e+01
 1.090966899407408e+00	 2.921680315391149e-01	 2.096876358146883e+01
 1.088261816529986e+00	 3.020879887365789e-01	 2.081446935922416e+01
 1.085459714272733e+00	 3.120066392675179e-01	 2.065627087444343e+01
 1.082560272858709e+00	 3.219226458081726e-01	 2.049398635315659e+01
 1.079563195603171e+00	 3.318346590624994e-01	 2.032742172159707e+01
 1.076468209318359e+00	 3.417413182262000e-01	 2.015637024594810e+01
 1.073275064708100e+00	 3.516412514650097e-01	 1.998061214069988e+01
 1.069983536751723e+00	 3.615330764070288e-01	 1.979991414686680e+01
 1.066593425076730e+00	 3.714154006488503e-01	 1.961402908168270e+01
 1.063104554319714e+00	 3.812868222752231e-01	 1.942269536177050e+01
 1.059516774474979e+00	 3.911459303919612e-01	 1.922563650216625e+01
 1.096649018675155e+00	 2.936897400367144e-01	 2.080917073526686e+01
 1.093929846824412e+00	 3.036613636779152e-01	 2.065958573242480e+01
 1.091113150284571e+00	 3.136316738470362e-01	 2.050619840281300e+01
 1.088198607613181e+00	 3.235993262550901e-01	 2.034883477384767e+01
 1.085185920580271e+00	 3.335629645784499e-01	 2.018730873914035e+01
 1.082074814575226e+00	 3.435212209252949e-01	 2.002142167109961e+01
 1.078865039003455e+00	 3.534727163163899e-01	 1.985096199951467e+01
 1.075556367672304e+00	 3.634160611799820e-01	 1.967570475739522e+01
 1.072148599165671e+00	 3.733498558605632e-01	 1.949541109572706e+01
 1.068641557206796e+00	 3.832726911412399e-01	 1.930982776919365e+01
 1.065035091008702e+00	 3.931831487794193e-01	 1.911868659531657e+01
 1.102331137942902e+00	 2.952114485343141e-01	 2.065347719400457e+01
 1.099597877118839e+00	 3.052347386192514e-01	 2.050840896061623e+01
 1.096766586296408e+00	 3.152567084265546e-01	 2.035964024999434e+01
 1.093836942367653e+00	 3.252760067020076e-01	 2.020700685011645e+01
 1.090808645557371e+00	 3.352912700944005e-01	 2.005033256835010e+01
 1.087681419832092e+00	 3.453011236243895e-01	 1.988942881354579e+01
 1.084455013298810e+00	 3.553041811677703e-01	 1.972409414138536e+01
 1.081129198592886e+00	 3.652990459529353e-01	 1.955411376428754e+01
 1.077703773254612e+00	 3.752843110722758e-01	 1.937925902757472e+01
 1.074178560093878e+00	 3.852585600072566e-01	 1.919928685401342e+01
 1.070553407542426e+00	 3.952203671668773e-01	 1.901393915925729e+01
 1.108013257210649e+00	 2.967331570319134e-01	 2.050154136113069e+01
 1.105265907413267e+00	 3.068081135605879e-01	 2.036079937432135e+01
 1.102420022308245e+00	 3.168817430060729e-01	 2.021645794857050e+01
 1.099475277122126e+00	 3.269526871489253e-01	 2.006836456926901e+01
 1.096431370534470e+00	 3.370195756103510e-01	 1.991635488229043e+01
 1.093288025088958e+00	 3.470810263234843e-01	 1.976025224222818e+01
 1.090044987594164e+00	 3.571356460191505e-01	 1.959986722105905e+01
 1.086702029513468e+00	 3.671820307258887e-01	 1.943499707856841e+01
 1.083258947343554e+00	 3.772187662839886e-01	 1.926542519629005e+01
 1.079715562980960e+00	 3.872444288732735e-01	 1.909092047713936e+01
 1.076071724076150e+00	 3.972575855543355e-01	 1.891123671335102e+01
 1.113695376478396e+00	 2.982548655295131e-01	 2.035322321218442e+01
 1.110933937707694e+00	 3.083814885019242e-01	 2.021661870457598e+01
 1.108073458320082e+00	 3.185067775855911e-01	 2.007651427107112e+01
 1.105113611876598e+00	 3.286293675958428e-01	 1.993277100966910e+01
 1.102054095511570e+00	 3.387478811263015e-01	 1.978523830854210e+01
 1.098894630345825e+00	 3.488609290225791e-01	 1.963375335708372e+01
 1.095634961889519e+00	 3.589671108705309e-01	 1.947814061445134e+01
 1.092274860434050e+00	 3.690650154988419e-01	 1.931821123697615e+01
 1.088814121432495e+00	 3.791532214957014e-01	 1.915376246624583e+01
 1.085252565868041e+00	 3.892302977392902e-01	 1.898457698011180e+01
 1.081590040609874e+00	 3.992948039417935e-01	 1.881042220931823e+01
 1.119377495746143e+00	 2.997765740271127e-01	 2.020838421381020e+01
 1.116601968002120e+00	 3.099548634432605e-01	 2.007573000354573e+01
 1.113726894331919e+00	 3.201318121651095e-01	 1.993967315183290e+01
 1.110751946631071e+00	 3.303060480427604e-01	 1.980009026346947e+01
 1.107676820488670e+00	 3.404761866422520e-01	 1.965684635241777e+01
 1.104501235602692e+00	 3.506408317216740e-01	 1.950979431234467e+01
 1.101224936184874e+00	 3.607985757219112e-01	 1.935877434161931e+01
 1.097847691354632e+00	 3.709480002717951e-01	 1.920361332418214e+01
 1.094369295521436e+00	 3.810876767074141e-01	 1.904412416815063e+01
 1.090789568755123e+00	 3.912161666053071e-01	 1.888010510448590e+01
 1.087108357143598e+00	 4.013320223292517e-01	 1.871133894851528e+01
 1.125059615013890e+00	 3.012982825247121e-01	 2.006688724492146e+01
 1.122269998296548e+00	 3.115282383845968e-01	 1.993799756722071e+01
 1.119380330343757e+00	 3.217568467446277e-01	 1.980579961087675e+01
 1.116390281385543e+00	 3.319827284896779e-01	 1.967018736131040e+01
 1.113299545465770e+00	 3.422044921582025e-01	 1.953104332210703e+01
 1.110107840859557e+00	 3.524207344207688e-01	 1.938823794174211e+01
 1.106814910480229e+00	 3.626300405732912e-01	 1.924162899162160e+01
 1.103420522275214e+00	 3.728309850447484e-01	 1.909106089689537e+01
 1.099924469610378e+00	 3.830221319191269e-01	 1.893636402197101e+01
 1.096326571642205e+00	 3.932020354713239e-01	 1.877735391313378e+01
 1.092626673677322e+00	 4.033692407167099e-01	 1.861383050116628e+01
 1.130741734281637e+00	 3.028199910223118e-01	 1.992859651993711e+01
 1.127938028590975e+00	 3.131016133259333e-01	 1.980328686011601e+01
 1.125033766355594e+00	 3.233818813241462e-01	 1.967475967973318e+01
 1.122028616140016e+00	 3.336594089365955e-01	 1.954292819891808e+01
 1.118922270442870e+00	 3.439327976741530e-01	 1.940769425568341e+01
 1.115714446116424e+00	 3.542006371198635e-01	 1.926894768554430e+01
 1.112404884775583e+00	 3.644615054246715e-01	 1.912656564919978e+01
 1.108993353195796e+00	 3.747139698177017e-01	 1.898041190978384e+01
 1.105479643699319e+00	 3.849565871308395e-01	 1.883033606168071e+01
 1.101863574529287e+00	 3.951879043373406e-01	 1.867617271339568e+01
 1.098144990211045e+00	 4.054064591041681e-01	 1.851774062747976e+01
 1.136423853549384e+00	 3.043416995199113e-01	 1.979337751401888e+01
 1.133606058885402e+00	 3.146749882672696e-01	 1.967146444190627e+01
 1.130687202367431e+00	 3.250069159036644e-01	 1.954642032914588e+01
 1.127666950894488e+00	 3.353360893835129e-01	 1.941817946553491e+01
 1.124544995419970e+00	 3.456611031901036e-01	 1.928666484990766e+01
 1.121321051373291e+00	 3.559805398189584e-01	 1.915178751936708e+01
 1.117994859070938e+00	 3.662929702760517e-01	 1.901344582321671e+01
 1.114566184116377e+00	 3.765969545906550e-01	 1.887152464315126e+01
 1.111034817788260e+00	 3.868910423425524e-01	 1.872589456177341e+01
 1.107400577416369e+00	 3.971737732033575e-01	 1.857641098201651e+01
 1.103663306744769e+00	 4.074436774916261e-01	 1.842291320058413e+01
 1.048480141407531e+00	 3.870714936170449e-01	 1.944677632315741e+01
 1.044831732467536e+00	 3.968143129043785e-01	 1.923388100335974e+01
 1.041085224453335e+00	 4.065421300699781e-01	 1.901964129562634e+01
 1.037240546143186e+00	 4.162535255508029e-01	 1.880365536641716e+01
 1.033297652657127e+00	 4.259470731325158e-01	 1.858549632372240e+01
 1.029256525733646e+00	 4.356213405373885e-01	 1.836471167159101e+01
 1.025117173991221e+00	 4.452748900231620e-01	 1.814082277502544e+01
 1.020879633174321e+00	 4.549062789924420e-01	 1.791332434013375e+01
 1.016543966383394e+00	 4.645140606121665e-01	 1.768168391472002e+01
 1.012110264288429e+00	 4.740967844426838e-01	 1.744534141476499e+01
 1.007578645325685e+00	 4.836529970759447e-01	 1.720370868249338e+01
 1.053998457941255e+00	 3.891087120045030e-01	 1.933494687754851e+01
 1.050330846848944e+00	 3.989028092880857e-01	 1.912828409099695e+01
 1.046564620371510e+00	 4.086818254913991e-01	 1.892029071719762e+01
 1.042699706912359e+00	 4.184443335800174e-01	 1.871054341411008e+01
 1.038736061355323e+00	 4.281888998332134e-01	 1.849859134553923e+01
 1.034673665342770e+00	 4.379140844349536e-01	 1.828395559640314e+01
 1.030512527538543e+00	 4.476184420759156e-01	 1.806612860002720e+01
 1.026252683875239e+00	 4.573005225660863e-01	 1.784457358256671e+01
 1.021894197785412e+00	 4.669588714574937e-01	 1.761872402996038e+01
 1.017437160416263e+00	 4.765920306765928e-01	 1.738798318309324e+01
 1.012881690827399e+00	 4.861985391658183e-01	 1.715172356710347e+01
 1.059516774474979e+00	 3.911459303919612e-01	 1.922563650216625e+01
 1.055829961230352e+00	 4.009913056717933e-01	 1.902509522254643e+01
 1.052044016289686e+00	 4.108215209128199e-01	 1.882322337451278e+01
 1.048158867681535e+00	 4.206351416092323e-01	 1.861957470178672e+01
 1.044174470053518e+00	 4.304307265339110e-01	 1.841367313620323e+01
 1.040090804951894e+00	 4.402068283325188e-01	 1.820501217639599e+01
 1.035907881085865e+00	 4.499619941286689e-01	 1.799305428000963e+01
 1.031625734576156e+00	 4.596947661397306e-01	 1.777723027474956e+01
 1.027244429187429e+00	 4.694036823028209e-01	 1.755693879388770e+01
 1.022764056544097e+00	 4.790872769105017e-01	 1.733154574213036e+01
 1.018184736329113e+00	 4.887440812556915e-01	 1.710038379801336e+01
 1.065035091008702e+00	 3.931831487794193e-01	 1.911868659531657e+01
 1.061329075611760e+00	 4.030798020555003e-01	 1.892415107316447e+01
 1.057523412207861e+00	 4.129612163342409e-01	 1.872827323181732e+01
 1.053618028450709e+00	 4.228259496384469e-01	 1.853058253320609e+01
 1.049612878751713e+00	 4.326725532346082e-01	 1.833057642660222e+01
 1.045507944561019e+00	 4.424995722300840e-01	 1.812771969333604e+01
 1.041303234633187e+00	 4.523055461814224e-01	 1.792144380638241e+01
 1.036998785277074e+00	 4.620890097133752e-01	 1.771114631032954e+01
 1.032594660589447e+00	 4.718484931481481e-01	 1.749619022756352e+01
 1.028090952671930e+00	 4.815825231444104e-01	 1.727590349679636e+01
 1.023487781830827e+00	 4.912896233455648e-01	 1.704957845033562e+01
 1.070553407542426e+00	 3.952203671668773e-01	 1.901393915925728e+01
 1.066828189993168e+00	 4.051682984392075e-01	 1.882528886590934e+01
 1.063002808126037e+00	 4.151009117556618e-01	 1.863527470285565e+01
 1.059077189219884e+00	 4.250167576676618e-01	 1.844340052044221e+01
 1.055051287449909e+00	 4.349143799353059e-01	 1.824913607157976e+01
 1.050925084170143e+00	 4.447923161276492e-01	 1.805191632504820e+01
 1.046698588180510e+00	 4.546490982341759e-01	 1.785114079484849e+01
 1.042371835977991e+00	 4.644832532870196e-01	 1.764617289131879e+01
 1.037944891991465e+00	 4.742933039934752e-01	 1.743633930005849e+01
 1.033417848799764e+00	 4.840777693783194e-01	 1.722092939500869e+01
 1.028790827332541e+00	 4.938351654354383e-01	 1.699919469231611e+01
 1.076071724076150e+00	 3.972575855543355e-01	 1.891123671335102e+01
 1.072327304374576e+00	 4.072567948229147e-01	 1.872834628297964e+01
 1.068482204044212e+00	 4.172406071770827e-01	 1.854406256124463e+01
 1.064536349989059e+00	 4.272075656968766e-01	 1.835786249445974e+01
 1.060489696148104e+00	 4.371562066360032e-01	 1.816918696179472e+01
 1.056342223779268e+00	 4.470850600252145e-01	 1.797744005965710e+01
 1.052093941727832e+00	 4.569926502869293e-01	 1.778198840313976e+01
 1.047744886678909e+00	 4.668774968606640e-01	 1.758216045044927e+01
 1.043295123393483e+00	 4.767381148388024e-01	 1.737724585656648e+01
 1.038744744927598e+00	 4.865730156122283e-01	 1.716649486270664e+01
 1.034093872834255e+00	 4.963807075253117e-01	 1.694911772843224e+01
 1.081590040609874e+00	 3.992948039417935e-01	 1.881042220931823e+01
 1.077826418755984e+00	 4.093452912066221e-01	 1.863316137908390e+01
 1.073961599962388e+00	 4.193803025985037e-01	 1.845447185297629e+01
 1.069995510758233e+00	 4.293983737260913e-01	 1.827380241778280e+01
 1.065928104846300e+00	 4.393980333367007e-01	 1.809056393760574e+01
 1.061759363388392e+00	 4.493778039227797e-01	 1.790412861175059e+01
 1.057489295275154e+00	 4.593362023396829e-01	 1.771382925053717e+01
 1.053117937379826e+00	 4.692717404343085e-01	 1.751895857514149e+01
 1.048645354795501e+00	 4.791829256841297e-01	 1.731876854792607e+01
 1.044071641055432e+00	 4.890682618461372e-01	 1.711246974004167e+01
 1.039396918335970e+00	 4.989262496151851e-01	 1.689923074338046e+01
 1.087108357143598e+00	 4.013320223292517e-01	 1.871133894851528e+01
 1.083325533137392e+00	 4.114337875903293e-01	 1.853957249686314e+01
 1.079440995880563e+00	 4.215199980199247e-01	 1.836633781097223e+01
 1.075454671527408e+00	 4.315891817553060e-01	 1.819105429918313e+01
 1.071366513544495e+00	 4.416398600373982e-01	 1.801310170490869e+01
 1.067176502997517e+00	 4.516705478203448e-01	 1.783181934039767e+01
 1.062884648822476e+00	 4.616797543924364e-01	 1.764650533911414e+01
 1.058490988080744e+00	 4.716659840079529e-01	 1.745641593303099e+01
 1.053995586197519e+00	 4.816277365294570e-01	 1.726076476149985e+01
 1.049398537183266e+00	 4.915635080800461e-01	 1.705872221869253e+01
 1.044699963837684e+00	 5.014717917050585e-01	 1.684941484691971e+01
 1.092626673677322e+00	 4.033692407167099e-01	 1.861383050116628e+01
 1.088824647518800e+00	 4.135222839740367e-01	 1.844741818429735e+01
 1.084920391798738e+00	 4.236596934413456e-01	 1.827949577161934e+01
 1.080913832296582e+00	 4.337799897845208e-01	 1.810945211031535e+01
 1.076804922242690e+00	 4.438816867380957e-01	 1.793663475285792e+01
 1.072593642606641e+00	 4.539632917179099e-01	 1.776034916895503e+01
 1.068280002369798e+00	 4.640233064451899e-01	 1.757985797664061e+01
 1.063864038781661e+00	 4.740602275815973e-01	 1.739438019899598e+01
 1.059345817599536e+00	 4.840725473747839e-01	 1.720309055336411e+01
 1.054725433311100e+00	 4.940587543139548e-01	 1.700511878026546e+01
 1.050003009339398e+00	 5.040173337949317e-01	 1.679954901954263e+01
 1.098144990211045e+00	 4.054064591041681e-01	 1.851774062747976e+01
 1.094323761900208e+00	 4.156107803577437e-01	 1.835653711402319e+01
 1.090399787716914e+00	 4.257993888627665e-01	 1.819378109321502e+01
 1.086372993065757e+00	 4.359707978137355e-01	 1.802882970423159e+01
 1.082243330940886e+00	 4.461235134387931e-01	 1.786099727340489e+01
 1.078010782215765e+00	 4.562560356154752e-01	 1.768955450659864e+01
 1.073675355917121e+00	 4.663668584979434e-01	 1.751372770109063e+01
 1.069237089482578e+00	 4.764544711552418e-01	 1.733269798363457e+01
 1.064696049001555e+00	 4.865173582201113e-01	 1.714560058176191e+01
 1.060052329438933e+00	 4.965540005478639e-01	 1.695152413574072e+01
 1.055306054841112e+00	 5.065628758848053e-01	 1.674951005894382e+01
 1.103663306744769e+00	 4.074436774916261e-01	 1.842291320058413e+01
 1.099822876281616e+00	 4.176992767414511e-01	 1.826676800449712e+01
 1.095879183635089e+00	 4.279390842841874e-01	 1.810902907625681e+01
 1.091832153834932e+00	 4.381616058429503e-01	 1.794902073570934e+01
 1.087681739639081e+00	 4.483653401394904e-01	 1.778602308259117e+01
 1.083427921824890e+00	 4.585487795130404e-01	 1.761927117152162e+01
 1.079070709464443e+00	 4.687104105506968e-01	 1.744795420669631e+01
 1.074610140183496e+00	 4.788487147288862e-01	 1.727121476314036e+01
 1.070046280403572e+00	 4.889621690654384e-01	 1.708814804177561e+01
 1.065379225566767e+00	 4.990492467817726e-01	 1.689780116592980e+01
 1.060609100342826e+00	 5.091084179746788e-01	 1.669917252725804e+01
 1.007578645325685e+00	 4.836529970759447e-01	 1.720370868249338e+01
 1.002949255877181e+00	 4.931812427823005e-01	 1.695904200665989e+01
 9.982222704325768e-01	 5.026800641653860e-01	 1.671374374506431e+01
 9.933978917330791e-01	 5.121480028245349e-01	 1.646742173794158e+01
 9.884763508970326e-01	 5.215836000241683e-01	 1.621968111136092e+01
 9.834579075268803e-01	 5.309853973695845e-01	 1.597012390935513e+01
 9.783428497971751e-01	 5.403519374885483e-01	 1.571834875447607e+01
 9.731314945233797e-01	 5.496817647180772e-01	 1.546395054319025e+01
 9.678241872111837e-01	 5.589734257958043e-01	 1.520652018258455e+01
 9.624213020861074e-01	 5.682254705552787e-01	 1.494564437486950e+01
 9.569232421031746e-01	 5.774364526245593e-01	 1.468090545614112e+01
 1.012881690827399e+00	 4.861985391658183e-01	 1.715172356710347e+01
 1.008227936171272e+00	 4.957769335337862e-01	 1.691238972946224e+01
 1.003476071855906e+00	 5.053257487136248e-01	 1.667261607607401e+01
 9.986263016895687e-01	 5.148435186288745e-01	 1.643203694151951e+01
 9.936788580070175e-01	 5.243287768664010e-01	 1.619028673564561e+01
 9.886340017770219e-01	 5.337800573557403e-01	 1.594699951757262e+01
 9.834920226908446e-01	 5.431958950542773e-01	 1.570180859386283e+01
 9.782532392313973e-01	 5.525748266376459e-01	 1.545434614749850e+01
 9.729179987228214e-01	 5.619153911947297e-01	 1.520424290438962e+01
 9.674866773602445e-01	 5.712161309266222e-01	 1.495112784416142e+01
 9.619596802195072e-01	 5.804755918488992e-01	 1.469462796195671e+01
 1.018184736329113e+00	 4.887440812556915e-01	 1.710038379801336e+01
 1.013506616465362e+00	 4.983726242852720e-01	 1.686612263803913e+01
 1.008729873279236e+00	 5.079714332618639e-01	 1.663166746858018e+01
 1.003854711646059e+00	 5.175390344332141e-01	 1.639668145450906e+01
 9.988813651170018e-01	 5.270739537086333e-01	 1.616083054472709e+01
 9.938100960271634e-01	 5.365747173418960e-01	 1.592378298275436e+01
 9.886411955845136e-01	 5.460398526200065e-01	 1.568520883725704e+01
 9.833749839394151e-01	 5.554678885572150e-01	 1.544477955940852e+01
 9.780118102344593e-01	 5.648573565936550e-01	 1.520216757406796e+01
 9.725520526343820e-01	 5.742067912979658e-01	 1.495704591180388e+01
 9.669961183358398e-01	 5.835147310732388e-01	 1.470908788878466e+01
 1.023487781830827e+00	 4.912896233455648e-01	 1.704957845033562e+01
 1.018785296759452e+00	 5.009683150367579e-01	 1.682014498009954e+01
 1.013983674702565e+00	 5.106171178101028e-01	 1.659081602960983e+01
 1.009083121602549e+00	 5.202345502375537e-01	 1.636128591178832e+01
 1.004083872226986e+00	 5.298191305508658e-01	 1.613125435250046e+01
 9.989861902773048e-01	 5.393693773280518e-01	 1.590042593242408e+01
 9.937903684781833e-01	 5.488838101857357e-01	 1.566850954466947e+01
 9.884967286474331e-01	 5.583609504767836e-01	 1.543521787531121e+01
 9.831056217460968e-01	 5.677993219925801e-01	 1.520026691409307e+01
 9.776174279085194e-01	 5.771974516693092e-01	 1.496337550262458e+01
 9.720325564521720e-01	 5.865538702975788e-01	 1.472426492739335e+01
 1.028790827332541e+00	 4.938351654354383e-01	 1.699919469231611e+01
 1.024063977053543e+00	 5.035640057882437e-01	 1.677435863897576e+01
 1.019237476125894e+00	 5.132628023583417e-01	 1.654997707452242e+01
 1.014311531559039e+00	 5.229300660418935e-01	 1.632577776029854e+01
 1.009286379336971e+00	 5.325643073930982e-01	 1.610149642046387e+01
 1.004162284527446e+00	 5.421640373142076e-01	 1.587687610982603e+01
 9.989395413718526e-01	 5.517277677514650e-01	 1.565166659327566e+01
 9.936184733554509e-01	 5.612540123963524e-01	 1.542562374426238e+01
 9.881994332577345e-01	 5.707412873915054e-01	 1.519850896986659e+01
 9.826828031826567e-01	 5.801881120406527e-01	 1.497008867009033e+01
 9.770689945685046e-01	 5.895930095219185e-01	 1.473987590954184e+01
 1.034093872834255e+00	 4.963807075253117e-01	 1.694911772843224e+01
 1.029342657347633e+00	 5.061596965397294e-01	 1.672866308501260e+01
 1.024491277549224e+00	 5.159084869065805e-01	 1.650906308594105e+01
 1.019539941515528e+00	 5.256255818462332e-01	 1.629008122475667e+01
 1.014488886446955e+00	 5.353094842353309e-01	 1.607149142943722e+01
 1.009338378777588e+00	 5.449586973003632e-01	 1.585307735086297e+01
 1.004088714265522e+00	 5.545717253171943e-01	 1.563463165877379e+01
 9.987402180634684e-01	 5.641470743159211e-01	 1.541595535294895e+01
 9.932932447693726e-01	 5.736832527904306e-01	 1.519685709747110e+01
 9.877481784567945e-01	 5.831787724119964e-01	 1.497715258601374e+01
 9.821054326848371e-01	 5.926321487462584e-01	 1.475392649576126e+01
 1.039396918335970e+00	 4.989262496151851e-01	 1.689923074338046e+01
 1.034621337641724e+00	 5.087553872912154e-01	 1.668295532756019e+01
 1.029745078972553e+00	 5.185541714548194e-01	 1.646798367302654e+01
 1.024768351472019e+00	 5.283210976505729e-01	 1.625411727347252e+01
 1.019691393556939e+00	 5.380546610775631e-01	 1.604117045117219e+01
 1.014514473027729e+00	 5.477533572865190e-01	 1.582896956073504e+01
 1.009237887159191e+00	 5.574156828829234e-01	 1.561735219627812e+01
 1.003861962771486e+00	 5.670401362354901e-01	 1.540616641005245e+01
 9.983870562810105e-01	 5.766252181893561e-01	 1.519526995070515e+01
 9.928135537309319e-01	 5.861694327833402e-01	 1.498452952945280e+01
 9.871418708011696e-01	 5.956712879705982e-01	 1.476589662590793e+01
 1.044699963837684e+00	 5.014717917050585e-01	 1.684941484691971e+01
 1.039900017935814e+00	 5.113510780427009e-01	 1.663712986755025e+01
 1.034998880395883e+00	 5.211998560030583e-01	 1.642664553108309e+01
 1.029996761428508e+00	 5.310166134549124e-01	 1.621780358426818e+01
 1.024893900666924e+00	 5.407998379197957e-01	 1.601046091985742e+01
 1.019690567277871e+00	 5.505480172726744e-01	 1.580448869029214e+01
 1.014387060052861e+00	 5.602596404486525e-01	 1.559977142076698e+01
 1.008983707479504e+00	 5.699331981550591e-01	 1.539620613002901e+01
 1.003480867792649e+00	 5.795671835882814e-01	 1.519370146742649e+01
 9.978789290050689e-01	 5.891600931546835e-01	 1.499205166949509e+01
 9.921783089175022e-01	 5.987104271949379e-01	 1.477565552401451e+01
 1.050003009339398e+00	 5.040173337949317e-01	 1.679954901954263e+01
 1.045178698229905e+00	 5.139467687941870e-01	 1.659107865063455e+01
 1.040252681819212e+00	 5.238455405512973e-01	 1.638495240148316e+01
 1.035225171384998e+00	 5.337121292592520e-01	 1.618105451049522e+01
 1.030096407776908e+00	 5.435450147620281e-01	 1.597928660352255e+01
 1.024866661528012e+00	 5.533426772588304e-01	 1.577956671210732e+01
 1.019536232946530e+00	 5.631035980143818e-01	 1.558182828709862e+01
 1.014105452187522e+00	 5.728262600746278e-01	 1.538601921633046e+01
 1.008574679304286e+00	 5.825091489872067e-01	 1.519210085522697e+01
 1.002944304279207e+00	 5.921507535260273e-01	 1.499777825894694e+01
 9.972147470338344e-01	 6.017495664192777e-01	 1.478307136026898e+01
 1.055306054841112e+00	 5.065628758848053e-01	 1.674951005894382e+01
 1.050457378523995e+00	 5.165424595456726e-01	 1.654469102086570e+01
 1.045506483242541e+00	 5.264912250995359e-01	 1.634280503189969e+01
 1.040453581341488e+00	 5.364076450635918e-01	 1.614378104714683e+01
 1.035298914886892e+00	 5.462901916042606e-01	 1.594756757534521e+01
 1.030042755778154e+00	 5.561373372449860e-01	 1.575413159628397e+01
 1.024685405840200e+00	 5.659475555801111e-01	 1.556345746961198e+01
 1.019227196895540e+00	 5.757193219941965e-01	 1.537554584408220e+01
 1.013668490815924e+00	 5.854511143861321e-01	 1.519041257646453e+01
 1.008009679553344e+00	 5.951414138973709e-01	 1.500095502715018e+01
 1.002251185150167e+00	 6.047887056436175e-01	 1.478801134703987e+01
 1.060609100342826e+00	 5.091084179746788e-01	 1.669917252725804e+01
 1.055736058818085e+00	 5.191381502971584e-01	 1.649785367490264e+01
 1.050760284665871e+00	 5.291369096477749e-01	 1.630010113683733e+01
 1.045681991297978e+00	 5.391031608679313e-01	 1.610589079706061e+01
 1.040501421996877e+00	 5.490353684464930e-01	 1.591522018486387e+01
 1.035218850028296e+00	 5.589319972311417e-01	 1.572810728600380e+01
 1.029834578733869e+00	 5.687915131458403e-01	 1.554458934132538e+01
 1.024348941603557e+00	 5.786123839137652e-01	 1.536472164224023e+01
 1.018762302327562e+00	 5.883930797850574e-01	 1.518857254010538e+01
 1.013075054827481e+00	 5.981320742687144e-01	 1.500144464578818e+01
 1.007287623266500e+00	 6.078278448679574e-01	 1.479034183414895e+01
 9.569232421031746e-01	 5.774364526245593e-01	 1.468090545614112e+01
 9.513304389364718e-01	 5.866049301274455e-01	 1.442165127924160e+01
 9.456433529484211e-01	 5.957294663866760e-01	 1.417020724441112e+01
 9.398624731386311e-01	 6.048086306284174e-01	 1.391330770108922e+01
 9.339883170722164e-01	 6.138409986873594e-01	 1.365184520096012e+01
 9.280214307874862e-01	 6.228251537117241e-01	 1.338714591719694e+01
 9.219623886829511e-01	 6.317596868674930e-01	 1.312062046391608e+01
 9.158117933836081e-01	 6.406431980411446e-01	 1.285376242367232e+01
 9.095702755864957e-01	 6.494742965402035e-01	 1.258814664181564e+01
 9.032384938855409e-01	 6.582516017908846e-01	 1.232542728643104e+01
 8.968171345757437e-01	 6.669737440321303e-01	 1.206733567360612e+01
 9.619596802195072e-01	 5.804755918488992e-01	 1.469462796195671e+01
 9.563374412466638e-01	 5.896923244965372e-01	 1.444403790497725e+01
 9.506204232270972e-01	 5.988648846308167e-01	 1.419514622140970e+01
 9.448091177340977e-01	 6.079918339475144e-01	 1.394098543598934e+01
 9.389040450568071e-01	 6.170717407857138e-01	 1.368276988050715e+01
 9.329057541074207e-01	 6.261031808365228e-01	 1.342179808748302e+01
 9.268148223075983e-01	 6.350847378510058e-01	 1.315945158889989e+01
 9.206318554540480e-01	 6.440150043466242e-01	 1.289719348247470e+01
 9.143574875632671e-01	 6.528925823114676e-01	 1.263656676299565e+01
 9.079923806954648e-01	 6.617160839055735e-01	 1.237919241726329e+01
 9.015372247577216e-01	 6.704841321586155e-01	 1.212676728222360e+01
 9.669961183358398e-01	 5.835147310732388e-01	 1.470908788878466e+01
 9.613444435568560e-01	 5.927797188656293e-01	 1.446528285647127e+01
 9.555974935057729e-01	 6.020003028749570e-01	 1.421866896983822e+01
 9.497557623295643e-01	 6.111750372666115e-01	 1.396731002477592e+01
 9.438197730413977e-01	 6.203024828840684e-01	 1.371239065155307e+01
 9.377900774273545e-01	 6.293812079613212e-01	 1.345517812293964e+01
 9.316672559322454e-01	 6.384097888345189e-01	 1.319702119886953e+01
 9.254519175244882e-01	 6.473868106521041e-01	 1.293934873708501e+01
 9.191446995400380e-01	 6.563108680827319e-01	 1.268366806707369e+01
 9.127462675053891e-01	 6.651805660202625e-01	 1.243156312564512e+01
 9.062573149396991e-01	 6.739945202851002e-01	 1.218469235355608e+01
 9.720325564521720e-01	 5.865538702975788e-01	 1.472426492739335e+01
 9.663514458670481e-01	 5.958671132347212e-01	 1.448491492554948e+01
 9.605745637844485e-01	 6.051357211190973e-01	 1.424065350571941e+01
 9.547024069250306e-01	 6.143582405857081e-01	 1.399215977875551e+01
 9.487355010259885e-01	 6.235332249824229e-01	 1.374058517197320e+01
 9.426744007472887e-01	 6.326592350861197e-01	 1.348716212210397e+01
 9.365196895568929e-01	 6.417348398180324e-01	 1.323320297144870e+01
 9.302719795949285e-01	 6.507586169575837e-01	 1.298009862848703e+01
 9.239319115168089e-01	 6.597291538539960e-01	 1.272931699002768e+01
 9.175001543153130e-01	 6.686450481349513e-01	 1.248240112303612e+01
 9.109774051216765e-01	 6.775049084115849e-01	 1.224096720536661e+01
 9.770689945685046e-01	 5.895930095219185e-01	 1.473987590954184e+01
 9.713584481772397e-01	 5.989545076038129e-01	 1.450280941966179e+01
 9.655516340631246e-01	 6.082711393632377e-01	 1.426097646369399e+01
 9.596490515204971e-01	 6.175414439048050e-01	 1.401541168765880e+01
 9.536512290105790e-01	 6.267639670807775e-01	 1.376722985450309e+01
 9.475587240672230e-01	 6.359372622109185e-01	 1.351762503016650e+01
 9.413721231815397e-01	 6.450598908015456e-01	 1.326786953678729e+01
 9.350920416653684e-01	 6.541304232630636e-01	 1.301931266886592e+01
 9.287191234935798e-01	 6.631474396252601e-01	 1.277337916923313e+01
 9.222540411252366e-01	 6.721095302496400e-01	 1.253156746273509e+01
 9.156974953036542e-01	 6.810152965380700e-01	 1.229544764666698e+01
 9.821054326848371e-01	 5.926321487462584e-01	 1.475392649576127e+01
 9.763654504874318e-01	 6.020419019729045e-01	 1.451884032466184e+01
 9.705287043418007e-01	 6.114065576073782e-01	 1.427951320046238e+01
 9.645956961159641e-01	 6.207246472239022e-01	 1.403694152423279e+01
 9.585669569951695e-01	 6.299947091791321e-01	 1.379219997190807e+01
 9.524430473871569e-01	 6.392152893357168e-01	 1.354644074416942e+01
 9.462245568061867e-01	 6.483849417850585e-01	 1.330089258226626e+01
 9.399121037358086e-01	 6.575022295685432e-01	 1.305685954532351e+01
 9.335063354703510e-01	 6.665657253965246e-01	 1.281571954572359e+01
 9.270079279351605e-01	 6.755740123643290e-01	 1.257892264024512e+01
 9.204175854856320e-01	 6.845256846645551e-01	 1.234798907577776e+01
 9.871418708011696e-01	 5.956712879705982e-01	 1.476589662590793e+01
 9.813724527976239e-01	 6.051292963419964e-01	 1.453288040559100e+01
 9.755057746204764e-01	 6.145419758515187e-01	 1.429613789729541e+01
 9.695423407114302e-01	 6.239078505429991e-01	 1.405662394789626e+01
 9.634826849797602e-01	 6.332254512774866e-01	 1.381536976122505e+01
 9.573273707070910e-01	 6.424933164605156e-01	 1.357348221730064e+01
 9.510769904308339e-01	 6.517099927685718e-01	 1.333214295633720e+01
 9.447321658062486e-01	 6.608740358740230e-01	 1.309260722278096e+01
 9.382935474471222e-01	 6.699840111677888e-01	 1.285620246570046e+01
 9.317618147450845e-01	 6.790384944790179e-01	 1.262432669296323e+01
 9.251376756676094e-01	 6.880360727910397e-01	 1.239844657779673e+01
 9.921783089175022e-01	 5.987104271949379e-01	 1.477565552401451e+01
 9.863794551078158e-01	 6.082166907110883e-01	 1.454480130658564e+01
 9.804828448991525e-01	 6.176773940956592e-01	 1.431072366164752e+01
 9.744889853068968e-01	 6.270910538620962e-01	 1.407433260749131e+01
 9.683984129643507e-01	 6.364561933758410e-01	 1.383661252710804e+01
 9.622116940270254e-01	 6.457713435853141e-01	 1.359862156231561e+01
 9.559294240554809e-01	 6.550350437520848e-01	 1.336149077152444e+01
 9.495522278766884e-01	 6.642458421795027e-01	 1.312642304609373e+01
 9.430807594238929e-01	 6.734022969390528e-01	 1.289469178131711e+01
 9.365157015550083e-01	 6.825029765937066e-01	 1.266763929921521e+01
 9.298577658495870e-01	 6.915464609175247e-01	 1.244667502149542e+01
 9.972147470338344e-01	 6.017495664192777e-01	 1.478307136026898e+01
 9.913864574180078e-01	 6.113040850801803e-01	 1.455447364993927e+01
 9.854599151778286e-01	 6.208128123397995e-01	 1.432314262790241e+01
 9.794356299023631e-01	 6.302742571811930e-01	 1.408994024316122e+01
 9.733141409489413e-01	 6.396869354741955e-01	 1.385580074431115e+01
 9.670960173469595e-01	 6.490493707101126e-01	 1.362173015411824e+01
 9.607818576801281e-01	 6.583600947355979e-01	 1.338880550662381e+01
 9.543722899471285e-01	 6.676176484849822e-01	 1.315817384140882e+01
 9.478679714006640e-01	 6.768205827103173e-01	 1.293105095076311e+01
 9.412695883649321e-01	 6.859674587083954e-01	 1.270871987666185e+01
 9.345778560315647e-01	 6.950568490440096e-01	 1.249252915566464e+01
 1.002251185150167e+00	 6.047887056436175e-01	 1.478801134703987e+01
 9.963934597281997e-01	 6.143914794492720e-01	 1.456176713434992e+01
 9.904369854565043e-01	 6.239482305839398e-01	 1.433326605728388e+01
 9.843822744978298e-01	 6.334574605002899e-01	 1.410331878738837e+01
 9.782298689335320e-01	 6.429176775725499e-01	 1.387280615933684e+01
 9.719803406668936e-01	 6.523273978349112e-01	 1.364267873152926e+01
 9.656342913047754e-01	 6.616851457191111e-01	 1.341395610812099e+01
 9.591923520175687e-01	 6.709894547904619e-01	 1.318772601679011e+01
 9.526551833774352e-01	 6.802388684815812e-01	 1.296514313767425e+01
 9.460234751748562e-01	 6.894319408230845e-01	 1.274742768009601e+01
 9.392979462135422e-01	 6.985672371704946e-01	 1.253586370492919e+01
 1.007287623266500e+00	 6.078278448679574e-01	 1.479034183414895e+01
 1.001400462038392e+00	 6.174788738183637e-01	 1.456655063237960e+01
 9.954140557351802e-01	 6.270836488280803e-01	 1.434096443695934e+01
 9.893289190932961e-01	 6.366406638193869e-01	 1.411433946521798e+01
 9.831455969181225e-01	 6.461484196709046e-01	 1.388749989128160e+01
 9.768646639868274e-01	 6.556054249597095e-01	 1.366133749827245e+01
 9.704867249294225e-01	 6.650101967026242e-01	 1.343681109086220e+01
 9.640124140880086e-01	 6.743612610959417e-01	 1.321494566213767e+01
 9.574423953542062e-01	 6.836571542528456e-01	 1.299683130989152e+01
 9.507773619847802e-01	 6.928964229377734e-01	 1.278362189865460e+01
 9.440180363955198e-01	 7.020776252969794e-01	 1.257653346504834e+01
 8.968171345757437e-01	 6.669737440321303e-01	 1.206733567360612e+01
 8.903069114367749e-01	 6.756393650053228e-01	 1.181075615979122e+01
 8.837085654960876e-01	 6.842471186389705e-01	 1.155199678844659e+01
 8.770228647716732e-01	 6.927956717276549e-01	 1.129199683810470e+01
 8.702506039946272e-01	 7.012837046045438e-01	 1.103171546106459e+01
 8.633926043116927e-01	 7.097099118067598e-01	 1.077212975098576e+01
 8.564497129680178e-01	 7.180730027329296e-01	 1.051423267043025e+01
 8.494228029703464e-01	 7.263717022922118e-01	 1.025903084365182e+01
 8.423127727309250e-01	 7.346047515441396e-01	 1.000754222086893e+01
 8.351205456924077e-01	 7.427709083286049e-01	 9.760793621157102e+00
 8.278470699340904e-01	 7.508689478853331e-01	 9.519818161982950e+00
 9.015372247577216e-01	 6.704841321586155e-01	 1.212676728222360e+01
 8.949927372864424e-01	 6.791953616632458e-01	 1.187580993371711e+01
 8.883596632092248e-01	 6.878484192633862e-01	 1.162229656417719e+01
 8.816387745862609e-01	 6.964419647367482e-01	 1.136718299743121e+01
 8.748308703314408e-01	 7.049746714708833e-01	 1.111144635224766e+01
 8.679367759133333e-01	 7.134452271320587e-01	 1.085608307298016e+01
 8.609573430362704e-01	 7.218523343262611e-01	 1.060210681384672e+01
 8.538934493017695e-01	 7.301947112516445e-01	 1.035054618224639e+01
 8.467459978505614e-01	 7.384710923417404e-01	 1.010244234747825e+01
 8.395159169855255e-01	 7.466802288987556e-01	 9.858846522166493e+00
 8.322041597758487e-01	 7.548208897163086e-01	 9.620817324615983e+00
 9.062573149396991e-01	 6.739945202851002e-01	 1.218469235355608e+01
 8.996785631361098e-01	 6.827513583211690e-01	 1.193922407598970e+01
 8.930107609223621e-01	 6.914497198878017e-01	 1.169082221438655e+01
 8.862546844008488e-01	 7.000882577458409e-01	 1.144046135828611e+01
 8.794111366682549e-01	 7.086656383372231e-01	 1.118913893788637e+01
 8.724809475149736e-01	 7.171805424573574e-01	 1.093787321444301e+01
 8.654649731045230e-01	 7.256316659195921e-01	 1.068770111767173e+01
 8.583640956331924e-01	 7.340177202110774e-01	 1.043967593566419e+01
 8.511792229701981e-01	 7.423374331393411e-01	 1.019486486381538e+01
 8.439112882786439e-01	 7.505895494689063e-01	 9.954346420246774e+00
 8.365612496176075e-01	 7.587728315472840e-01	 9.719207736154507e+00
 9.109774051216765e-01	 6.775049084115849e-01	 1.224096720536661e+01
 9.043643889857769e-01	 6.863073549790913e-01	 1.200084981575162e+01
 8.976618586354993e-01	 6.950510205122172e-01	 1.175742109845486e+01
 8.908705942154367e-01	 7.037345507549341e-01	 1.151167658974319e+01
 8.839914030050684e-01	 7.123566052035627e-01	 1.126463633666703e+01
 8.770251191166141e-01	 7.209158577826562e-01	 1.101734284394792e+01
 8.699726031727759e-01	 7.294109975129236e-01	 1.077085886091858e+01
 8.628347419646151e-01	 7.378407291705100e-01	 1.052626501412785e+01
 8.556124480898342e-01	 7.462037739369417e-01	 1.028465729226265e+01
 8.483066595717614e-01	 7.544988700390566e-01	 1.004714439104815e+01
 8.409183394593654e-01	 7.627247733782594e-01	 9.814844926774594e+00
 9.156974953036542e-01	 6.810152965380700e-01	 1.229544764666698e+01
 9.090502148354441e-01	 6.898633516370140e-01	 1.206053801148091e+01
 9.023129563486364e-01	 6.986523211366329e-01	 1.182194031285029e+01
 8.954865040300241e-01	 7.073808437640267e-01	 1.158067317605740e+01
 8.885716693418826e-01	 7.160475720699024e-01	 1.133778153160420e+01
 8.815692907182547e-01	 7.246511731079551e-01	 1.109433451535117e+01
 8.744802332410289e-01	 7.331903291062548e-01	 1.085142320142858e+01
 8.673053882960382e-01	 7.416637381299431e-01	 1.061015817364979e+01
 8.600456732094708e-01	 7.500701147345425e-01	 1.037166694222759e+01
 8.527020308648795e-01	 7.584081906092074e-01	 1.013709121364614e+01
 8.452754293011240e-01	 7.666767152092351e-01	 9.907584022569075e+00
 9.204175854856320e-01	 6.845256846645551e-01	 1.234798907577777e+01
 9.137360406851112e-01	 6.934193482949368e-01	 1.211813924685170e+01
 9.069640540617738e-01	 7.022536217610484e-01	 1.188422678537915e+01
 9.001024138446123e-01	 7.110271367731198e-01	 1.164729550987607e+01
 8.931519356786964e-01	 7.197385389362421e-01	 1.140841746276557e+01
 8.861134623198951e-01	 7.283864884332533e-01	 1.116869076055667e+01
 8.789878633092812e-01	 7.369696606995855e-01	 1.092923726918867e+01
 8.717760346274608e-01	 7.454867470893755e-01	 1.069120011038946e+01
 8.644788983291073e-01	 7.539364555321434e-01	 1.045574100600553e+01
 8.570974021579972e-01	 7.623175111793580e-01	 1.022403746835824e+01
 8.496325191428823e-01	 7.706286570402102e-01	 9.997279845740835e+00
 9.251376756676094e-01	 6.880360727910397e-01	 1.239844657779674e+01
 9.184218665347785e-01	 6.969753449528595e-01	 1.217350392608143e+01
 9.116151517749111e-01	 7.058549223854642e-01	 1.194412736898308e+01
 9.047183236592002e-01	 7.146734297822127e-01	 1.171138798503706e+01
 8.977322020155100e-01	 7.234295058025818e-01	 1.147638711960112e+01
 8.906576339215354e-01	 7.321218037585522e-01	 1.124025418189031e+01
 8.834954933775340e-01	 7.407489922929169e-01	 1.100414425924100e+01
 8.762466809588841e-01	 7.493097560488082e-01	 1.076923555456929e+01
 8.689121234487438e-01	 7.578027963297442e-01	 1.053672665415441e+01
 8.614927734511155e-01	 7.662268317495086e-01	 1.030783363400320e+01
 8.539896089846406e-01	 7.745805988711859e-01	 1.008378701415871e+01
 9.298577658495870e-01	 6.915464609175247e-01	 1.244667502149541e+01
 9.231076923844458e-01	 7.005313416107821e-01	 1.222648236878415e+01
 9.162662494880487e-01	 7.094562230098801e-01	 1.200148893509918e+01
 9.093342334737879e-01	 7.183197227913056e-01	 1.177279508896769e+01
 9.023124683523238e-01	 7.271204726689217e-01	 1.154153363289378e+01
 8.952018055231761e-01	 7.358571190838511e-01	 1.130886754409645e+01
 8.880031234457869e-01	 7.445283238862480e-01	 1.107598752419858e+01
 8.807173272903067e-01	 7.531327650082404e-01	 1.084410936396520e+01
 8.733453485683799e-01	 7.616691371273449e-01	 1.061447113039404e+01
 8.658881447442335e-01	 7.701361523196593e-01	 1.038833018462583e+01
 8.583466988263990e-01	 7.785325407021613e-01	 1.016696004029702e+01
 9.345778560315647e-01	 6.950568490440096e-01	 1.249252915566464e+01
 9.277935182341133e-01	 7.040873382687050e-01	 1.227692490434624e+01
 9.209173472011862e-01	 7.130575236342958e-01	 1.205615846659819e+01
 9.139501432883755e-01	 7.219660158003985e-01	 1.183136149469752e+01
 9.068927346891376e-01	 7.308114395352613e-01	 1.160370036634392e+01
 8.997459771248166e-01	 7.395924344091499e-01	 1.137437386596917e+01
 8.925107535140394e-01	 7.483076554795792e-01	 1.114461066638290e+01
 8.851879736217297e-01	 7.569557739676734e-01	 1.091566661698877e+01
 8.777785736880166e-01	 7.655354779249455e-01	 1.068882184605100e+01
 8.702835160373512e-01	 7.740454728898096e-01	 1.046537768570333e+01
 8.627037886681573e-01	 7.824844825331367e-01	 1.024665342958619e+01
 9.392979462135422e-01	 6.985672371704946e-01	 1.253586370492919e+01
 9.324793440837802e-01	 7.076433349266279e-01	 1.232468196584265e+01
 9.255684449143234e-01	 7.166588242587114e-01	 1.210798315031482e+01
 9.185660531029630e-01	 7.256123088094913e-01	 1.188693215250109e+01
 9.114730010259513e-01	 7.345024064016009e-01	 1.166273100780043e+01
 9.042901487264572e-01	 7.433277497344487e-01	 1.143661651163296e+01
 8.970183835822921e-01	 7.520869870729109e-01	 1.120985762959507e+01
 8.896586199531527e-01	 7.607787829271064e-01	 1.098375270537129e+01
 8.822117988076530e-01	 7.694018187225463e-01	 1.075962647406141e+01
 8.746788873304692e-01	 7.779547934599602e-01	 1.053882688985227e+01
 8.670608785099158e-01	 7.864364243641122e-01	 1.032272177818847e+01
 9.440180363955198e-01	 7.020776252969794e-01	 1.257653346504834e+01
 9.371651699334476e-01	 7.111993315845504e-01	 1.236960418350844e+01
 9.302195426274605e-01	 7.202601248831270e-01	 1.215681046918635e+01
 9.231819629175511e-01	 7.292586018185844e-01	 1.193935238118089e+01
 9.160532673627654e-01	 7.381933732679409e-01	 1.171846966015127e+01
 9.088343203280974e-01	 7.470630650597472e-01	 1.149543928148370e+01
 9.015260136505450e-01	 7.558663186662421e-01	 1.127157279053416e+01
 8.941292662845752e-01	 7.646017918865389e-01	 1.104821342646779e+01
 8.866450239272895e-01	 7.732681595201468e-01	 1.082673304255058e+01
 8.790742586235871e-01	 7.818641140301107e-01	 1.060852883205500e+01
 8.714179683516740e-01	 7.903883661950876e-01	 1.039501987022402e+01
 8.278470699340904e-01	 7.508689478853331e-01	 9.519818161982950e+00
 8.204933177598123e-01	 7.588976634621968e-01	 9.280344435766752e+00
 8.130602852678982e-01	 7.668558669117492e-01	 9.038311470031561e+00
 8.055489919035392e-01	 7.747423892753500e-01	 8.795073614878298e+00
 7.979604799940321e-01	 7.825560813542883e-01	 8.551985909897644e+00
 7.902958142673180e-01	 7.902958142673178e-01	 8.310400806185946e+00
 7.825560813542888e-01	 7.979604799940320e-01	 8.071664834418916e+00
 7.747423892753503e-01	 8.055489919035388e-01	 7.837115232401310e+00
 7.668558669117495e-01	 8.130602852678979e-01	 7.608076545995261e+00
 7.588976634621971e-01	 8.204933177598122e-01	 7.385857217731354e+00
 7.508689478853332e-01	 8.278470699340904e-01	 7.171746177737423e+00
 8.322041597758487e-01	 7.548208897163086e-01	 9.620817324615983e+00
 8.248117036427588e-01	 7.628918616909449e-01	 9.384116890249954e+00
 8.173395499272026e-01	 7.708919504218108e-01	 9.144704794966167e+00
 8.097887234398737e-01	 7.788199807978519e-01	 8.903942290487784e+00
 8.021602719940009e-01	 7.866747975719426e-01	 8.663191410468826e+00
 7.944552659213563e-01	 7.944552659213563e-01	 8.423811629880428e+00
 7.866747975719428e-01	 8.021602719940004e-01	 8.187156467576171e+00
 7.788199807978520e-01	 8.097887234398731e-01	 7.954570045815457e+00
 7.708919504218114e-01	 8.173395499272026e-01	 7.727383621022827e+00
 7.628918616909454e-01	 8.248117036427585e-01	 7.506912100479955e+00
 7.548208897163086e-01	 8.322041597758486e-01	 7.294450560001969e+00
 8.365612496176075e-01	 7.587728315472840e-01	 9.719207736154507e+00
 8.291300895257049e-01	 7.668860599196933e-01	 9.485241258419821e+00
 8.216188145865078e-01	 7.749280339318729e-01	 9.248420800516364e+00
 8.140284549762078e-01	 7.828975723203537e-01	 9.010112932257808e+00
 8.063600639939692e-01	 7.907935137895965e-01	 8.771685033636555e+00
 7.986147175753951e-01	 7.986147175753948e-01	 8.534501892575237e+00
 7.907935137895968e-01	 8.063600639939689e-01	 8.299922242974864e+00
 7.828975723203541e-01	 8.140284549762079e-01	 8.069295257196035e+00
 7.749280339318734e-01	 8.216188145865075e-01	 7.843957007632605e+00
 7.668860599196939e-01	 8.291300895257049e-01	 7.625226912482776e+00
 7.587728315472840e-01	 8.365612496176075e-01	 7.414404181174893e+00
 8.409183394593654e-01	 7.627247733782594e-01	 9.814844926774594e+00
 8.334484754086515e-01	 7.708802581484420e-01	 9.583577393445859e+00
 8.258980792458123e-01	 7.789641174419347e-01	 9.349322547038071e+00
 8.182681865125422e-01	 7.869751638428557e-01	 9.113450725989100e+00
 8.105598559939382e-01	 7.949122300072511e-01	 8.877333044455789e+00
 8.027741692294337e-01	 8.027741692294335e-01	 8.642337929369733e+00
 7.949122300072513e-01	 8.105598559939377e-01	 8.409827594891443e+00
 7.869751638428560e-01	 8.182681865125419e-01	 8.181154468765989e+00
 7.789641174419349e-01	 8.258980792458119e-01	 7.957657585631308e+00
 7.708802581484423e-01	 8.334484754086514e-01	 7.740658962780887e+00
 7.627247733782594e-01	 8.409183394593657e-01	 7.531459974272417e+00
 8.452754293011240e-01	 7.666767152092351e-01	 9.907584022569075e+00
 8.377668612915978e-01	 7.748744563771907e-01	 9.678984634430957e+00
 8.301773439051167e-01	 7.830002009519963e-01	 9.447272488821078e+00
 8.225079180488767e-01	 7.910527553653575e-01	 9.213820176898786e+00
 8.147596479939067e-01	 7.990309462249052e-01	 8.980000969860351e+00
 8.069336208834722e-01	 8.069336208834716e-01	 8.747185296176845e+00
 7.990309462249054e-01	 8.147596479939062e-01	 8.516737153315153e+00
 7.910527553653577e-01	 8.225079180488765e-01	 8.290010468822013e+00
 7.830002009519966e-01	 8.301773439051164e-01	 8.068345426205537e+00
 7.748744563771907e-01	 8.377668612915977e-01	 7.853064771539056e+00
 7.666767152092350e-01	 8.452754293011240e-01	 7.645470117102004e+00
 8.496325191428823e-01	 7.706286570402102e-01	 9.997279845740835e+00
 8.420852471745442e-01	 7.788686546059387e-01	 9.771321908854519e+00
 8.344566085644218e-01	 7.870362844620585e-01	 9.542132578140766e+00
 8.267476495852110e-01	 7.951303468878591e-01	 9.311085214652531e+00
 8.189594399938750e-01	 8.031496624425593e-01	 9.079553704061597e+00
 8.110930725375105e-01	 8.110930725375105e-01	 8.848908874893688e+00
 8.031496624425597e-01	 8.189594399938748e-01	 8.620514848318926e+00
 7.951303468878593e-01	 8.267476495852109e-01	 8.395725334740970e+00
 7.870362844620589e-01	 8.344566085644214e-01	 8.175879893030940e+00
 7.788686546059389e-01	 8.420852471745441e-01	 7.962300168739660e+00
 7.706286570402103e-01	 8.496325191428824e-01	 7.756286128042404e+00
 8.539896089846406e-01	 7.745805988711859e-01	 1.008378701415871e+01
 8.464036330574904e-01	 7.828628528346873e-01	 9.860447834303319e+00
 8.387358732237263e-01	 7.910723679721202e-01	 9.633764368532706e+00
 8.309873811215454e-01	 7.992079384103608e-01	 9.405109297572928e+00
 8.231592319938438e-01	 8.072683786602134e-01	 9.175855613095170e+00
 8.152525241915489e-01	 8.152525241915487e-01	 8.947372977711881e+00
 8.072683786602136e-01	 8.231592319938434e-01	 8.721024013566950e+00
 7.992079384103613e-01	 8.309873811215454e-01	 8.498160535149639e+00
 7.910723679721207e-01	 8.387358732237262e-01	 8.280119742578668e+00
 7.828628528346874e-01	 8.464036330574902e-01	 8.068220392118802e+00
 7.745805988711858e-01	 8.539896089846406e-01	 7.863758961126075e+00
 8.583466988263990e-01	 7.785325407021613e-01	 1.016696004029702e+01
 8.507220189404366e-01	 7.868570510634355e-01	 9.946220819507927e+00
 8.430151378830311e-01	 7.951084514821818e-01	 9.722029117318559e+00
 8.352271126578802e-01	 8.032855299328628e-01	 9.495755516055659e+00
 8.273590239938122e-01	 8.113870948778676e-01	 9.268770638550215e+00
 8.194119758455877e-01	 8.194119758455873e-01	 9.042441450594231e+00
 8.113870948778679e-01	 8.273590239938119e-01	 8.818127488999986e+00
 8.032855299328632e-01	 8.352271126578797e-01	 8.597177031285625e+00
 7.951084514821821e-01	 8.430151378830307e-01	 8.380923223641545e+00
 7.868570510634361e-01	 8.507220189404368e-01	 8.170680184370527e+00
 7.785325407021610e-01	 8.583466988263990e-01	 7.967739100448420e+00
 8.627037886681573e-01	 7.824844825331367e-01	 1.024665342958619e+01
 8.550404048233833e-01	 7.908512492921839e-01	 1.002849916471601e+01
 8.472944025423359e-01	 7.991445349922439e-01	 9.806787887405221e+00
 8.394668441942142e-01	 8.073631214553647e-01	 9.582886695219072e+00
 8.315588159937807e-01	 8.155058110955217e-01	 9.358162400506272e+00
 8.235714274996263e-01	 8.235714274996258e-01	 9.133977775952395e+00
 8.155058110955221e-01	 8.315588159937807e-01	 8.911687722718009e+00
 8.073631214553650e-01	 8.394668441942140e-01	 8.692635377575217e+00
 7.991445349922440e-01	 8.472944025423356e-01	 8.478148176112967e+00
 7.908512492921844e-01	 8.550404048233832e-01	 8.269533889645967e+00
 7.824844825331366e-01	 8.627037886681574e-01	 8.068076653929465e+00
 8.670608785099158e-01	 7.864364243641122e-01	 1.032272177818847e+01
 8.593587907063298e-01	 7.948454475209323e-01	 1.010714116142102e+01
 8.515736672016405e-01	 8.031806185023056e-01	 9.887901648388635e+00
 8.437065757305487e-01	 8.114407129778667e-01	 9.666365496819147e+00
 8.357586079937493e-01	 8.196245273131759e-01	 9.443894299707145e+00
 8.277308791536647e-01	 8.277308791536646e-01	 9.221845174547919e+00
 8.196245273131763e-01	 8.357586079937493e-01	 9.001566872095614e+00
 8.114407129778671e-01	 8.437065757305486e-01	 8.784395821460473e+00
 8.031806185023062e-01	 8.515736672016403e-01	 8.571652129041700e+00
 7.948454475209328e-01	 8.593587907063296e-01	 8.364635549372748e+00
 7.864364243641122e-01	 8.670608785099158e-01	 8.164621446448390e+00
 8.714179683516740e-01	 7.903883661950876e-01	 1.039501987022402e+01
 8.636771765892761e-01	 7.988396457496808e-01	 1.018200519147027e+01
 8.558529318609451e-01	 8.072167020123674e-01	 9.965231376982754e+00
 8.479463072668830e-01	 8.155183045003684e-01	 9.746054520447395e+00
 8.399583999937179e-01	 8.237432435308302e-01	 9.525829618997825e+00
 8.318903308077032e-01	 8.318903308077031e-01	 9.305906706648557e+00
 8.237432435308302e-01	 8.399583999937179e-01	 9.087626904151259e+00
 8.155183045003686e-01	 8.479463072668830e-01	 8.872318402497379e+00
 8.072167020123681e-01	 8.558529318609449e-01	 8.661292397988976e+00
 7.988396457496809e-01	 8.636771765892759e-01	 8.455838997416146e+00
 7.903883661950875e-01	 8.714179683516743e-01	 8.257223112375691e+00
 7.508689478853332e-01	 8.278470699340904e-01	 7.171746177737423e+00
 7.427709083286050e-01	 8.351205456924075e-01	 6.961166823995969e+00
 7.346047515441397e-01	 8.423127727309248e-01	 6.749455977202600e+00
 7.263717022922123e-01	 8.494228029703464e-01	 6.537730177189046e+00
 7.180730027329297e-01	 8.564497129680174e-01	 6.327069208993358e+00
 7.097099118067602e-01	 8.633926043116925e-01	 6.118513318800051e+00
 7.012837046045441e-01	 8.702506039946267e-01	 5.913060528960922e+00
 6.927956717276552e-01	 8.770228647716732e-01	 5.711664065907866e+00
 6.842471186389706e-01	 8.837085654960870e-01	 5.515229914409109e+00
 6.756393650053230e-01	 8.903069114367748e-01	 5.324614511171902e+00
 6.669737440321303e-01	 8.968171345757439e-01	 5.140622590271477e+00
 7.548208897163086e-01	 8.322041597758486e-01	 7.294450560001969e+00
 7.466802288987561e-01	 8.395159169855255e-01	 7.085365883961302e+00
 7.384710923417408e-01	 8.467459978505614e-01	 6.874945561029974e+00
 7.301947112516449e-01	 8.538934493017694e-01	 6.664322336396001e+00
 7.218523343262615e-01	 8.609573430362703e-01	 6.454591558855555e+00
 7.134452271320590e-01	 8.679367759133327e-01	 6.246808310565099e+00
 7.049746714708833e-01	 8.748308703314406e-01	 6.041984637317396e+00
 6.964419647367488e-01	 8.816387745862611e-01	 5.841086893619402e+00
 6.878484192633866e-01	 8.883596632092247e-01	 5.645033216487495e+00
 6.791953616632460e-01	 8.949927372864420e-01	 5.454691141423175e+00
 6.704841321586154e-01	 9.015372247577216e-01	 5.270875373493255e+00
 7.587728315472840e-01	 8.365612496176075e-01	 7.414404181174893e+00
 7.505895494689068e-01	 8.439112882786436e-01	 7.206798301511068e+00
 7.423374331393415e-01	 8.511792229701979e-01	 6.997648969356258e+00
 7.340177202110776e-01	 8.583640956331922e-01	 6.788106773633598e+00
 7.256316659195922e-01	 8.654649731045225e-01	 6.579284341852182e+00
 7.171805424573579e-01	 8.724809475149737e-01	 6.372253378882312e+00
 7.086656383372232e-01	 8.794111366682544e-01	 6.168041807580359e+00
 7.000882577458415e-01	 8.862546844008490e-01	 5.967631026036409e+00
 6.914497198878017e-01	 8.930107609223618e-01	 5.771953295841069e+00
 6.827513583211691e-01	 8.996785631361095e-01	 5.581889275309339e+00
 6.739945202851003e-01	 9.062573149396993e-01	 5.398265711046649e+00
 7.627247733782594e-01	 8.409183394593657e-01	 7.531459974272417e+00
 7.544988700390572e-01	 8.483066595717613e-01	 7.325312852694349e+00
 7.462037739369420e-01	 8.556124480898338e-01	 7.117412027077341e+00
 7.378407291705104e-01	 8.628347419646151e-01	 6.908927555513420e+00
 7.294109975129236e-01	 8.699726031727759e-01	 6.700991045615895e+00
 7.209158577826563e-01	 8.770251191166135e-01	 6.494692597481534e+00
 7.123566052035633e-01	 8.839914030050684e-01	 6.291077849725007e+00
 7.037345507549343e-01	 8.908705942154364e-01	 6.091145143862441e+00
 6.950510205122178e-01	 8.976618586354992e-01	 5.895842821943363e+00
 6.863073549790917e-01	 9.043643889857768e-01	 5.706066671857142e+00
 6.775049084115849e-01	 9.109774051216766e-01	 5.522657534189095e+00
 7.666767152092350e-01	 8.452754293011240e-01	 7.645470117102004e+00
 7.584081906092076e-01	 8.527020308648792e-01	 7.440757585217892e+00
 7.500701147345432e-01	 8.600456732094706e-01	 7.234079830874991e+00
 7.416637381299430e-01	 8.673053882960378e-01	 7.026627994516705e+00
 7.331903291062549e-01	 8.744802332410284e-01	 6.819554352401132e+00
 7.246511731079550e-01	 8.815692907182543e-01	 6.613969158876875e+00
 7.160475720699027e-01	 8.885716693418820e-01	 6.410937592847125e+00
 7.073808437640270e-01	 8.954865040300241e-01	 6.211476824214422e+00
 6.986523211366332e-01	 9.023129563486363e-01	 6.016553215730960e+00
 6.898633516370141e-01	 9.090502148354439e-01	 5.827079675188176e+00
 6.810152965380700e-01	 9.156974953036545e-01	 5.643913172322801e+00
 7.706286570402103e-01	 8.496325191428824e-01	 7.756286128042404e+00
 7.623175111793580e-01	 8.570974021579972e-01	 7.552979911351745e+00
 7.539364555321438e-01	 8.644788983291070e-01	 7.347496839808494e+00
 7.454867470893756e-01	 8.717760346274606e-01	 7.141050737819572e+00
 7.369696606995859e-01	 8.789878633092811e-01	 6.934816226684036e+00
 7.283864884332538e-01	 8.861134623198950e-01	 6.729925461271978e+00
 7.197385389362424e-01	 8.931519356786960e-01	 6.527464971890398e+00
 7.110271367731200e-01	 9.001024138446116e-01	 6.328472627679153e+00
 7.022536217610490e-01	 9.069640540617739e-01	 6.133934737488976e+00
 6.934193482949371e-01	 9.137360406851109e-01	 5.944783303714222e+00
 6.845256846645550e-01	 9.204175854856318e-01	 5.761893443970770e+00
 7.745805988711858e-01	 8.539896089846406e-01	 7.863758961126075e+00
 7.662268317495086e-01	 8.614927734511151e-01	 7.661826700195517e+00
 7.578027963297443e-01	 8.689121234487434e-01	 7.457506965305106e+00
 7.493097560488085e-01	 8.762466809588837e-01	 7.252037855538830e+00
 7.407489922929174e-01	 8.834954933775340e-01	 7.046618002187302e+00
 7.321218037585523e-01	 8.906576339215353e-01	 6.842403194872109e+00
 7.234295058025821e-01	 8.977322020155099e-01	 6.640503113749969e+00
 7.146734297822130e-01	 9.047183236591999e-01	 6.441978184698313e+00
 7.058549223854647e-01	 9.116151517749110e-01	 6.247836573995855e+00
 6.969753449528597e-01	 9.184218665347786e-01	 6.059031338512549e+00
 6.880360727910397e-01	 9.251376756676094e-01	 5.876457746841412e+00
 7.785325407021610e-01	 8.583466988263990e-01	 7.967739100448420e+00
 7.701361523196596e-01	 8.658881447442333e-01	 7.767144369328154e+00
 7.616691371273453e-01	 8.733453485683800e-01	 7.563953660571879e+00
 7.531327650082412e-01	 8.807173272903064e-01	 7.359430928420624e+00
 7.445283238862485e-01	 8.880031234457866e-01	 7.154800468347605e+00
 7.358571190838513e-01	 8.952018055231760e-01	 6.951243427628658e+00
 7.271204726689218e-01	 9.023124683523236e-01	 6.749894422774140e+00
 7.183197227913060e-01	 9.093342334737877e-01	 6.551838281305064e+00
 7.094562230098802e-01	 9.162662494880484e-01	 6.358106924958647e+00
 7.005313416107828e-01	 9.231076923844459e-01	 6.169676410912083e+00
 6.915464609175246e-01	 9.298577658495873e-01	 5.987464147005977e+00
 7.824844825331366e-01	 8.627037886681574e-01	 8.068076653929465e+00
 7.740454728898100e-01	 8.702835160373512e-01	 7.868778975861769e+00
 7.655354779249458e-01	 8.777785736880163e-01	 7.666680009449379e+00
 7.569557739676739e-01	 8.851879736217295e-01	 7.463071134989077e+00
 7.483076554795797e-01	 8.925107535140393e-01	 7.259203956247075e+00
 7.395924344091500e-01	 8.997459771248165e-01	 7.056286690429867e+00
 7.308114395352617e-01	 9.068927346891376e-01	 6.855480665687545e+00
 7.219660158003987e-01	 9.139501432883754e-01	 6.657896944234095e+00
 7.130575236342959e-01	 9.209173472011857e-01	 6.464593088759985e+00
 7.040873382687054e-01	 9.277935182341129e-01	 6.276570089316229e+00
 6.950568490440094e-01	 9.345778560315648e-01	 6.094769467226587e+00
 7.864364243641122e-01	 8.670608785099158e-01	 8.164621446448390e+00
 7.779547934599603e-01	 8.746788873304689e-01	 7.966576306924169e+00
 7.694018187225466e-01	 8.822117988076529e-01	 7.765528814726905e+00
 7.607787829271065e-01	 8.896586199531522e-01	 7.562799338175179e+00
 7.520869870729110e-01	 8.970183835822919e-01	 7.359668424027571e+00
 7.433277497344489e-01	 9.042901487264571e-01	 7.157373061762746e+00
 7.345024064016012e-01	 9.114730010259510e-01	 6.957103055952606e+00
 7.256123088094919e-01	 9.185660531029629e-01	 6.759997525429713e+00
 7.166588242587115e-01	 9.255684449143229e-01	 6.567141547544817e+00
 7.076433349266281e-01	 9.324793440837803e-01	 6.379562965292251e+00
 6.985672371704945e-01	 9.392979462135422e-01	 6.198229374459938e+00
 7.903883661950875e-01	 8.714179683516743e-01	 8.257223112375691e+00
 7.818641140301110e-01	 8.790742586235870e-01	 8.060381969584448e+00
 7.732681595201470e-01	 8.866450239272889e-01	 7.860342685936669e+00
 7.646017918865389e-01	 8.941292662845751e-01	 7.658456171442924e+00
 7.558663186662419e-01	 9.015260136505447e-01	 7.456033541804731e+00
 7.470630650597474e-01	 9.088343203280971e-01	 7.254342251863503e+00
 7.381933732679411e-01	 9.160532673627653e-01	 7.054602337591788e+00
 7.292586018185848e-01	 9.231819629175507e-01	 6.857982785969084e+00
 7.202601248831271e-01	 9.302195426274603e-01	 6.665598051666477e+00
 7.111993315845510e-01	 9.371651699334475e-01	 6.478504738949322e+00
 7.020776252969793e-01	 9.440180363955197e-01	 6.297698466570737e+00
 6.669737440321303e-01	 8.968171345757439e-01	 5.140622590271477e+00
 6.582516017908848e-01	 9.032384938855408e-01	 4.961270693663401e+00
 6.494742965402034e-01	 9.095702755864955e-01	 4.784290159666750e+00
 6.406431980411449e-01	 9.158117933836081e-01	 4.609961820846749e+00
 6.317596868674930e-01	 9.219623886829510e-01	 4.438491159540932e+00
 6.228251537117243e-01	 9.280214307874860e-01	 4.270007819963378e+00
 6.138409986873595e-01	 9.339883170722164e-01	 4.104565350838836e+00
 6.048086306284176e-01	 9.398624731386310e-01	 3.942141184007514e+00
 5.957294663866762e-01	 9.456433529484205e-01	 3.782636853407585e+00
 5.866049301274456e-01	 9.513304389364720e-01	 3.625844784969329e+00
 5.774364526245593e-01	 9.569232421031748e-01	 3.470114952550718e+00
 6.704841321586154e-01	 9.015372247577216e-01	 5.270875373493255e+00
 6.617160839055737e-01	 9.079923806954648e-01	 5.091472399409676e+00
 6.528925823114677e-01	 9.143574875632664e-01	 4.914101491372029e+00
 6.440150043466245e-01	 9.206318554540479e-01	 4.739079539548797e+00
 6.350847378510062e-01	 9.268148223075984e-01	 4.566647991920346e+00
 6.261031808365228e-01	 9.329057541074202e-01	 4.396972268681505e+00
 6.170717407857140e-01	 9.389040450568069e-01	 4.230141411353489e+00
 6.079918339475144e-01	 9.448091177340974e-01	 4.066167972431403e+00
 5.988648846308168e-01	 9.506204232270969e-01	 3.904988150334085e+00
 5.896923244965374e-01	 9.563374412466639e-01	 3.746462173313626e+00
 5.804755918488990e-01	 9.619596802195072e-01	 3.589598263404720e+00
 6.739945202851003e-01	 9.062573149396993e-01	 5.398265711046649e+00
 6.651805660202628e-01	 9.127462675053887e-01	 5.218849412343471e+00
 6.563108680827319e-01	 9.191446995400376e-01	 5.041153945623670e+00
 6.473868106521043e-01	 9.254519175244884e-01	 4.865528190671258e+00
 6.384097888345192e-01	 9.316672559322453e-01	 4.692245304712348e+00
 6.293812079613211e-01	 9.377900774273542e-01	 4.521502044020831e+00
 6.203024828840688e-01	 9.438197730413976e-01	 4.353418324692765e+00
 6.111750372666116e-01	 9.497557623295640e-01	 4.188037028806585e+00
 6.020003028749572e-01	 9.555974935057724e-01	 4.025324061086804e+00
 5.927797188656294e-01	 9.613444435568558e-01	 3.865168660063448e+00
 5.835147310732388e-01	 9.669961183358400e-01	 3.707096118878463e+00
 6.775049084115849e-01	 9.109774051216766e-01	 5.522657534189095e+00
 6.686450481349514e-01	 9.175001543153126e-01	 5.343271143776517e+00
 6.597291538539961e-01	 9.239319115168086e-01	 5.165320009804953e+00
 6.507586169575841e-01	 9.302719795949285e-01	 4.989181010532890e+00
 6.417348398180324e-01	 9.365196895568924e-01	 4.815154834171685e+00
 6.326592350861198e-01	 9.426744007472885e-01	 4.643465212478066e+00
 6.235332249824231e-01	 9.487355010259886e-01	 4.474258398263368e+00
 6.143582405857084e-01	 9.547024069250304e-01	 4.307602893416656e+00
 6.051357211190975e-01	 9.605745637844486e-01	 4.143489432917658e+00
 5.958671132347213e-01	 9.663514458670480e-01	 3.981831229149717e+00
 5.865538702975787e-01	 9.720325564521721e-01	 3.822427896637594e+00
 6.810152965380700e-01	 9.156974953036545e-01	 5.643913172322801e+00
 6.721095302496400e-01	 9.222540411252366e-01	 5.464605232686155e+00
 6.631474396252603e-01	 9.287191234935799e-01	 5.286470280710124e+00
 6.541304232630637e-01	 9.350920416653683e-01	 5.109909277694778e+00
 6.450598908015455e-01	 9.413721231815397e-01	 4.935246341538135e+00
 6.359372622109185e-01	 9.475587240672227e-01	 4.762727896982392e+00
 6.267639670807779e-01	 9.536512290105789e-01	 4.592522074809529e+00
 6.175414439048054e-01	 9.596490515204971e-01	 4.424718366966087e+00
 6.082711393632381e-01	 9.655516340631245e-01	 4.259327543442620e+00
 5.989545076038131e-01	 9.713584481772396e-01	 4.096281835535672e+00
 5.895930095219185e-01	 9.770689945685047e-01	 3.935435388896880e+00
 6.845256846645550e-01	 9.204175854856318e-01	 5.761893443970770e+00
 6.755740123643292e-01	 9.270079279351603e-01	 5.582717638008662e+00
 6.665657253965246e-01	 9.335063354703509e-01	 5.404473556776792e+00
 6.575022295685431e-01	 9.399121037358085e-01	 5.227582403796277e+00
 6.483849417850587e-01	 9.462245568061868e-01	 5.052387701181674e+00
 6.392152893357170e-01	 9.524430473871567e-01	 4.879154361090548e+00
 6.299947091791323e-01	 9.585669569951695e-01	 4.708068011444073e+00
 6.207246472239022e-01	 9.645956961159636e-01	 4.539234583273236e+00
 6.114065576073784e-01	 9.705287043418004e-01	 4.372680165868708e+00
 6.020419019729050e-01	 9.763654504874321e-01	 4.208351134675011e+00
 5.926321487462581e-01	 9.821054326848372e-01	 4.046114555619996e+00
 6.880360727910397e-01	 9.251376756676094e-01	 5.876457746841412e+00
 6.790384944790179e-01	 9.317618147450845e-01	 5.697472729933755e+00
 6.699840111677889e-01	 9.382935474471218e-01	 5.519196929279039e+00
 6.608740358740230e-01	 9.447321658062485e-01	 5.342068023349611e+00
 6.517099927685719e-01	 9.510769904308337e-01	 5.166444987738921e+00
 6.424933164605160e-01	 9.573273707070912e-01	 4.992607092249528e+00
 6.332254512774866e-01	 9.634826849797601e-01	 4.820753157857338e+00
 6.239078505429992e-01	 9.695423407114300e-01	 4.651001081287610e+00
 6.145419758515186e-01	 9.755057746204762e-01	 4.483387633723644e+00
 6.051292963419969e-01	 9.813724527976241e-01	 4.317868538905315e+00
 5.956712879705980e-01	 9.871418708011696e-01	 4.154318834582877e+00
 6.915464609175246e-01	 9.298577658495873e-01	 5.987464147005977e+00
 6.825029765937067e-01	 9.365157015550081e-01	 5.808733380235001e+00
 6.734022969390531e-01	 9.430807594238930e-01	 5.630505872515454e+00
 6.642458421795027e-01	 9.495522278766884e-01	 5.453232082527289e+00
 6.550350437520851e-01	 9.559294240554810e-01	 5.277282562281190e+00
 6.457713435853143e-01	 9.622116940270252e-01	 5.102946884160749e+00
 6.364561933758411e-01	 9.683984129643508e-01	 4.930432833736180e+00
 6.270910538620964e-01	 9.744889853068965e-01	 4.759865876461265e+00
 6.176773940956592e-01	 9.804828448991524e-01	 4.591288905117021e+00
 6.082166907110885e-01	 9.863794551078157e-01	 4.424662273572904e+00
 5.987104271949377e-01	 9.921783089175022e-01	 4.259864121103141e+00
 6.950568490440094e-01	 9.345778560315648e-01	 6.094769467226587e+00
 6.859674587083958e-01	 9.412695883649324e-01	 5.916361051671091e+00
 6.768205827103173e-01	 9.478679714006639e-01	 5.738264333027651e+00
 6.676176484849825e-01	 9.543722899471285e-01	 5.560938926979232e+00
 6.583600947355981e-01	 9.607818576801281e-01	 5.384763157545281e+00
 6.490493707101127e-01	 9.670960173469592e-01	 5.210032918279154e+00
 6.396869354741960e-01	 9.733141409489418e-01	 5.036960805421737e+00
 6.302742571811931e-01	 9.794356299023630e-01	 4.865675531494070e+00
 6.208128123397996e-01	 9.854599151778284e-01	 4.696221626540511e+00
 6.113040850801804e-01	 9.913864574180077e-01	 4.528559432901080e+00
 6.017495664192775e-01	 9.972147470338348e-01	 4.362565398014169e+00
 6.985672371704945e-01	 9.392979462135422e-01	 6.198229374459938e+00
 6.894319408230847e-01	 9.460234751748562e-01	 6.020215886489258e+00
 6.802388684815818e-01	 9.526551833774352e-01	 5.842334817885574e+00
 6.709894547904620e-01	 9.591923520175685e-01	 5.665051388713612e+00
 6.616851457191112e-01	 9.656342913047752e-01	 5.488747962260949e+00
 6.523273978349113e-01	 9.719803406668934e-01	 5.313722844475140e+00
 6.429176775725504e-01	 9.782298689335323e-01	 5.140189361829197e+00
 6.334574605002902e-01	 9.843822744978294e-01	 4.968275226473816e+00
 6.239482305839401e-01	 9.904369854565042e-01	 4.798022196231145e+00
 6.143914794492723e-01	 9.963934597281997e-01	 4.629386035610448e+00
 6.047887056436173e-01	 1.002251185150167e+00	 4.462236782620740e+00
 7.020776252969793e-01	 9.440180363955197e-01	 6.297698466570737e+00
 6.928964229377735e-01	 9.507773619847800e-01	 6.120156794064499e+00
 6.836571542528459e-01	 9.574423953542061e-01	 5.942578482068898e+00
 6.743612610959420e-01	 9.640124140880084e-01	 5.765430872073191e+00
 6.650101967026243e-01	 9.704867249294223e-01	 5.589096704607607e+00
 6.556054249597100e-01	 9.768646639868274e-01	 5.413872860890218e+00
 6.461484196709049e-01	 9.831455969181225e-01	 5.239969389659107e+00
 6.366406638193870e-01	 9.893289190932960e-01	 5.067508828435990e+00
 6.270836488280802e-01	 9.954140557351798e-01	 4.896525827105182e+00
 6.174788738183640e-01	 1.001400462038392e+00	 4.726967080298947e+00
 6.078278448679572e-01	 1.007287623266500e+00	 4.558691573630123e+00
 5.774364526245593e-01	 9.569232421031748e-01	 3.470114952550718e+00
 5.682254705552787e-01	 9.624213020861072e-01	 3.317510305253732e+00
 5.589734257958047e-01	 9.678241872111836e-01	 3.170839852303740e+00
 5.496817647180773e-01	 9.731314945233794e-01	 3.029704469382722e+00
 5.403519374885484e-01	 9.783428497971753e-01	 2.893665343294859e+00
 5.309853973695846e-01	 9.834579075268802e-01	 2.762245480891819e+00
 5.215836000241686e-01	 9.884763508970329e-01	 2.634931326271192e+00
 5.121480028245350e-01	 9.933978917330791e-01	 2.511174481605430e+00
 5.026800641653864e-01	 9.982222704325771e-01	 2.390393526496380e+00
 4.931812427823007e-01	 1.002949255877181e+00	 2.271975930305715e+00
 4.836529970759445e-01	 1.007578645325685e+00	 2.155280051500397e+00
 5.804755918488990e-01	 9.619596802195072e-01	 3.589598263404720e+00
 5.712161309266224e-01	 9.674866773602447e-01	 3.435895651027796e+00
 5.619153911947298e-01	 9.729179987228216e-01	 3.288152892765766e+00
 5.525748266376462e-01	 9.782532392313973e-01	 3.145927598758179e+00
 5.431958950542776e-01	 9.834920226908446e-01	 3.008735537932921e+00
 5.337800573557404e-01	 9.886340017770220e-01	 2.876052236983304e+00
 5.243287768664010e-01	 9.936788580070172e-01	 2.747314691934588e+00
 5.148435186288747e-01	 9.986263016895689e-01	 2.621923187459072e+00
 5.053257487136251e-01	 1.003476071855906e+00	 2.499243218617048e+00
 4.957769335337863e-01	 1.008227936171271e+00	 2.378607509250199e+00
 4.861985391658181e-01	 1.012881690827399e+00	 2.259318120819485e+00
 5.835147310732388e-01	 9.669961183358400e-01	 3.707096118878463e+00
 5.742067912979659e-01	 9.725520526343818e-01	 3.552397474373335e+00
 5.648573565936550e-01	 9.780118102344589e-01	 3.403640493647576e+00
 5.554678885572151e-01	 9.833749839394152e-01	 3.260348328551755e+00
 5.460398526200069e-01	 9.886411955845137e-01	 3.122000387000237e+00
 5.365747173418962e-01	 9.938100960271634e-01	 2.988034006966079e+00
 5.270739537086334e-01	 9.988813651170017e-01	 2.857846247274218e+00
 5.175390344332144e-01	 1.003854711646059e+00	 2.730795790185352e+00
 5.079714332618641e-01	 1.008729873279236e+00	 2.606204950258947e+00
 4.983726242852723e-01	 1.013506616465362e+00	 2.483361783516606e+00
 4.887440812556912e-01	 1.018184736329113e+00	 2.361522290482496e+00
 5.865538702975787e-01	 9.720325564521721e-01	 3.822427896637594e+00
 5.771974516693096e-01	 9.776174279085192e-01	 3.666824546343448e+00
 5.677993219925804e-01	 9.831056217460971e-01	 3.517105624134349e+00
 5.583609504767839e-01	 9.884967286474330e-01	 3.372768479385574e+00
 5.488838101857358e-01	 9.937903684781831e-01	 3.233265061343277e+00
 5.393693773280518e-01	 9.989861902773047e-01	 3.098003653231936e+00
 5.298191305508662e-01	 1.004083872226986e+00	 2.966350727271371e+00
 5.202345502375542e-01	 1.009083121602549e+00	 2.837632915451157e+00
 5.106171178101031e-01	 1.013983674702565e+00	 2.711139090390962e+00
 5.009683150367581e-01	 1.018785296759452e+00	 2.586122550127442e+00
 4.912896233455649e-01	 1.023487781830828e+00	 2.461803300210741e+00
 5.895930095219185e-01	 9.770689945685047e-01	 3.935435388896880e+00
 5.801881120406529e-01	 9.826828031826566e-01	 3.778984437005245e+00
 5.707412873915055e-01	 9.881994332577346e-01	 3.628350243033704e+00
 5.612540123963525e-01	 9.936184733554506e-01	 3.482988960235376e+00
 5.517277677514653e-01	 9.989395413718526e-01	 3.342333830190394e+00
 5.421640373142077e-01	 1.004162284527446e+00	 3.205773061102487e+00
 5.325643073930986e-01	 1.009286379336971e+00	 3.072651732168969e+00
 5.229300660418937e-01	 1.014311531559039e+00	 2.942273817604739e+00
 5.132628023583420e-01	 1.019237476125895e+00	 2.813904324513432e+00
 5.035640057882439e-01	 1.024063977053543e+00	 2.686771538289812e+00
 4.938351654354382e-01	 1.028790827332542e+00	 2.560069368773884e+00
 5.926321487462581e-01	 9.821054326848372e-01	 4.046114555619996e+00
 5.831787724119967e-01	 9.877481784567944e-01	 3.888683523667794e+00
 5.736832527904310e-01	 9.932932447693725e-01	 3.737175301529286e+00
 5.641470743159216e-01	 9.987402180634684e-01	 3.590809768108497e+00
 5.545717253171945e-01	 1.004088714265522e+00	 3.449010060075518e+00
 5.449586973003633e-01	 1.009338378777588e+00	 3.311153139238477e+00
 5.353094842353310e-01	 1.014488886446955e+00	 3.176571731525806e+00
 5.256255818462333e-01	 1.019539941515528e+00	 3.044556389451487e+00
 5.159084869065808e-01	 1.024491277549224e+00	 2.914357672143859e+00
 5.061596965397296e-01	 1.029342657347633e+00	 2.785188436499564e+00
 4.963807075253114e-01	 1.034093872834255e+00	 2.656226232529753e+00
 5.956712879705980e-01	 9.871418708011696e-01	 4.154318834582877e+00
 5.861694327833402e-01	 9.928135537309317e-01	 3.995726999302486e+00
 5.766252181893563e-01	 9.983870562810107e-01	 3.843380746273076e+00
 5.670401362354904e-01	 1.003861962771486e+00	 3.696029988135730e+00
 5.574156828829236e-01	 1.009237887159191e+00	 3.553096214179408e+00
 5.477533572865190e-01	 1.014514473027729e+00	 3.413953820403120e+00
 5.380546610775635e-01	 1.019691393556939e+00	 3.277932068494335e+00
 5.283210976505731e-01	 1.024768351472019e+00	 3.144317172056052e+00
 5.185541714548196e-01	 1.029745078972553e+00	 3.012354504078422e+00
 5.087553872912155e-01	 1.034621337641724e+00	 2.881250919107064e+00
 4.989262496151850e-01	 1.039396918335970e+00	 2.750177183062667e+00
 5.987104271949377e-01	 9.921783089175022e-01	 4.259864121103141e+00
 5.891600931546838e-01	 9.978789290050692e-01	 4.099930165742094e+00
 5.795671835882815e-01	 1.003480867792648e+00	 3.946765522805372e+00
 5.699331981550593e-01	 1.008983707479504e+00	 3.798447794061730e+00
 5.602596404486528e-01	 1.014387060052860e+00	 3.654393852074039e+00
 5.505480172726749e-01	 1.019690567277871e+00	 3.513984062565514e+00
 5.407998379197959e-01	 1.024893900666924e+00	 3.376552964311620e+00
 5.310166134549128e-01	 1.029996761428508e+00	 3.241391364576232e+00
 5.211998560030585e-01	 1.034998880395883e+00	 3.107748559435872e+00
 5.113510780427013e-01	 1.039900017935814e+00	 2.974834672365836e+00
 5.014717917050584e-01	 1.044699963837684e+00	 2.841823103944100e+00
 6.017495664192775e-01	 9.972147470338348e-01	 4.362565398014169e+00
 5.921507535260275e-01	 1.002944304279207e+00	 4.201264817514724e+00
 5.825091489872068e-01	 1.008574679304286e+00	 4.047127579292976e+00
 5.728262600746280e-01	 1.014105452187522e+00	 3.897860449122972e+00
 5.631035980143820e-01	 1.019536232946530e+00	 3.752703629855028e+00
 5.533426772588306e-01	 1.024866661528012e+00	 3.611051850332487e+00
 5.435450147620282e-01	 1.030096407776908e+00	 3.472253522999731e+00
 5.337121292592524e-01	 1.035225171384998e+00	 3.335612834120074e+00
 5.238455405512974e-01	 1.040252681819212e+00	 3.200391962491234e+00
 5.139467687941870e-01	 1.045178698229905e+00	 3.065813419980362e+00
 5.040173337949316e-01	 1.050003009339398e+00	 2.931062506654817e+00
 6.047887056436173e-01	 1.002251185150167e+00	 4.462236782620740e+00
 5.951414138973710e-01	 1.008009679553344e+00	 4.299590840439105e+00
 5.854511143861322e-01	 1.013668490815924e+00	 4.144263870571127e+00
 5.757193219941970e-01	 1.019227196895540e+00	 3.994064307297547e+00
 5.659475555801113e-01	 1.024685405840200e+00	 3.847825300651552e+00
 5.561373372449864e-01	 1.030042755778154e+00	 3.704964196698119e+00
 5.462901916042608e-01	 1.035298914886893e+00	 3.564851736263815e+00
 5.364076450635920e-01	 1.040453581341488e+00	 3.426814125630383e+00
 5.264912250995363e-01	 1.045506483242541e+00	 3.290135239307891e+00
 5.165424595456728e-01	 1.050457378523995e+00	 3.154058948170726e+00
 5.065628758848051e-01	 1.055306054841112e+00	 3.017791565693143e+00
 6.078278448679572e-01	 1.007287623266500e+00	 4.558691573630123e+00
 5.981320742687145e-01	 1.013075054827481e+00	 4.394711293651989e+00
 5.883930797850575e-01	 1.018762302327562e+00	 4.237970695493458e+00
 5.786123839137655e-01	 1.024348941603557e+00	 4.086854814911602e+00
 5.687915131458404e-01	 1.029834578733869e+00	 3.939557715494868e+00
 5.589319972311421e-01	 1.035218850028295e+00	 3.795527145097127e+00
 5.490353684464934e-01	 1.040501421996877e+00	 3.654164488582138e+00
 5.391031608679316e-01	 1.045681991297978e+00	 3.514826471795536e+00
 5.291369096477752e-01	 1.050760284665871e+00	 3.376827334174786e+00
 5.191381502971587e-01	 1.055736058818086e+00	 3.239441130273398e+00
 5.091084179746784e-01	 1.060609100342826e+00	 3.101904152899855e+00
 4.836529970759445e-01	 1.007578645325685e+00	 2.155280051500401e+00
 4.740967844426842e-01	 1.012110264288429e+00	 2.040476045534172e+00
 4.645140606121667e-01	 1.016543966383394e+00	 1.928251498149655e+00
 4.549062789924421e-01	 1.020879633174321e+00	 1.818711630142026e+00
 4.452748900231622e-01	 1.025117173991221e+00	 1.711950853557811e+00
 4.356213405373886e-01	 1.029256525733646e+00	 1.608053791012463e+00
 4.259470731325161e-01	 1.033297652657127e+00	 1.507096345679489e+00
 4.162535255508029e-01	 1.037240546143185e+00	 1.409146815993004e+00
 4.065421300699782e-01	 1.041085224453335e+00	 1.314267048922560e+00
 3.968143129043787e-01	 1.044831732467536e+00	 1.222513625518507e+00
 3.870714936170448e-01	 1.048480141407531e+00	 1.133939072313678e+00
 4.861985391658181e-01	 1.012881690827399e+00	 2.259318120819492e+00
 4.765920306765930e-01	 1.017437160416263e+00	 2.141645877637450e+00
 4.669588714574937e-01	 1.021894197785411e+00	 2.026442185054505e+00
 4.573005225660864e-01	 1.026252683875239e+00	 1.913850127187991e+00
 4.476184420759155e-01	 1.030512527538543e+00	 1.804002649463958e+00
 4.379140844349538e-01	 1.034673665342770e+00	 1.697023532841888e+00
 4.281888998332136e-01	 1.038736061355322e+00	 1.593028420512215e+00
 4.184443335800175e-01	 1.042699706912360e+00	 1.492125891066693e+00
 4.086818254913993e-01	 1.046564620371511e+00	 1.394418571946681e+00
 3.989028092880859e-01	 1.050330846848944e+00	 1.300004286803092e+00
 3.891087120045029e-01	 1.053998457941255e+00	 1.208977230282327e+00
 4.887440812556912e-01	 1.018184736329113e+00	 2.361522290482500e+00
 4.790872769105019e-01	 1.022764056544097e+00	 2.241081888858853e+00
 4.694036823028209e-01	 1.027244429187429e+00	 2.123062996437731e+00
 4.596947661397308e-01	 1.031625734576156e+00	 2.007631608012431e+00
 4.499619941286689e-01	 1.035907881085865e+00	 1.894944001068099e+00
 4.402068283325191e-01	 1.040090804951895e+00	 1.785147688758039e+00
 4.304307265339111e-01	 1.044174470053518e+00	 1.678382427187927e+00
 4.206351416092325e-01	 1.048158867681535e+00	 1.574781270923342e+00
 4.108215209128199e-01	 1.052044016289686e+00	 1.474471670430448e+00
 4.009913056717932e-01	 1.055829961230352e+00	 1.377576604986172e+00
 3.911459303919611e-01	 1.059516774474978e+00	 1.284215744456828e+00
 4.912896233455649e-01	 1.023487781830828e+00	 2.461803300210737e+00
 4.815825231444106e-01	 1.028090952671930e+00	 2.338720864013113e+00
 4.718484931481482e-01	 1.032594660589448e+00	 2.218071719950943e+00
 4.620890097133752e-01	 1.036998785277074e+00	 2.100030051956911e+00
 4.523055461814225e-01	 1.041303234633188e+00	 1.984760501086892e+00
 4.424995722300841e-01	 1.045507944561019e+00	 1.872419120905565e+00
 4.326725532346084e-01	 1.049612878751713e+00	 1.763154389044050e+00
 4.228259496384471e-01	 1.053618028450709e+00	 1.657108268728698e+00
 4.129612163342412e-01	 1.057523412207862e+00	 1.554417313851407e+00
 4.030798020555004e-01	 1.061329075611760e+00	 1.455213810982385e+00
 3.931831487794192e-01	 1.065035091008702e+00	 1.359626951570897e+00
 4.938351654354382e-01	 1.028790827332542e+00	 2.560069368773881e+00
 4.840777693783195e-01	 1.033417848799764e+00	 2.434496635894263e+00
 4.742933039934754e-01	 1.037944891991465e+00	 2.311422867547306e+00
 4.644832532870198e-01	 1.042371835977991e+00	 2.191015941465670e+00
 4.546490982341760e-01	 1.046698588180510e+00	 2.073434121658721e+00
 4.447923161276494e-01	 1.050925084170143e+00	 1.958827039676929e+00
 4.349143799353060e-01	 1.055051287449909e+00	 1.847336733949244e+00
 4.250167576676618e-01	 1.059077189219884e+00	 1.739098740832116e+00
 4.151009117556620e-01	 1.063002808126037e+00	 1.634243230770807e+00
 4.051682984392077e-01	 1.066828189993168e+00	 1.532896182785574e+00
 3.952203671668775e-01	 1.070553407542427e+00	 1.435180590356758e+00
 4.963807075253114e-01	 1.034093872834255e+00	 2.656226232529749e+00
 4.865730156122285e-01	 1.038744744927598e+00	 2.528340134744010e+00
 4.767381148388026e-01	 1.043295123393483e+00	 2.403067733181424e+00
 4.668774968606642e-01	 1.047744886678909e+00	 2.280556325446421e+00
 4.569926502869295e-01	 1.052093941727831e+00	 2.160943280919854e+00
 4.470850600252145e-01	 1.056342223779268e+00	 2.044357071189674e+00
 4.371562066360034e-01	 1.060489696148104e+00	 1.930918360494530e+00
 4.272075656968766e-01	 1.064536349989058e+00	 1.820741149617093e+00
 4.172406071770829e-01	 1.068482204044212e+00	 1.713933966415498e+00
 4.072567948229148e-01	 1.072327304374576e+00	 1.610601095991690e+00
 3.972575855543355e-01	 1.076071724076150e+00	 1.510843843342056e+00
 4.989262496151850e-01	 1.039396918335970e+00	 2.750177183062666e+00
 4.890682618461373e-01	 1.044071641055432e+00	 2.620179436462891e+00
 4.791829256841299e-01	 1.048645354795501e+00	 2.492954448982206e+00
 4.692717404343086e-01	 1.053117937379826e+00	 2.368614880913781e+00
 4.593362023396831e-01	 1.057489295275154e+00	 2.247262907751049e+00
 4.493778039227798e-01	 1.061759363388393e+00	 2.128991322892936e+00
 4.393980333367009e-01	 1.065928104846300e+00	 2.013884702343026e+00
 4.293983737260915e-01	 1.069995510758234e+00	 1.902020624596606e+00
 4.193803025985038e-01	 1.073961599962388e+00	 1.793470938656393e+00
 4.093452912066222e-01	 1.077826418755984e+00	 1.688303072916305e+00
 3.992948039417936e-01	 1.081590040609874e+00	 1.586581377497115e+00
 5.014717917050584e-01	 1.044699963837684e+00	 2.841823103944102e+00
 4.915635080800461e-01	 1.049398537183265e+00	 2.709939809611860e+00
 4.816277365294569e-01	 1.053995586197519e+00	 2.581028039956839e+00
 4.716659840079530e-01	 1.058490988080743e+00	 2.455151972981631e+00
 4.616797543924365e-01	 1.062884648822476e+00	 2.332364504763321e+00
 4.516705478203450e-01	 1.067176502997517e+00	 2.212708447369675e+00
 4.416398600373982e-01	 1.071366513544495e+00	 2.096217790793276e+00
 4.315891817553061e-01	 1.075454671527408e+00	 1.982919021811745e+00
 4.215199980199248e-01	 1.079440995880563e+00	 1.872832492431050e+00
 4.114337875903296e-01	 1.083325533137392e+00	 1.765973830355896e+00
 4.013320223292517e-01	 1.087108357143598e+00	 1.662355383771361e+00
 5.040173337949316e-01	 1.050003009339398e+00	 2.931062506654820e+00
 4.940587543139550e-01	 1.054725433311100e+00	 2.797543761241650e+00
 4.840725473747843e-01	 1.059345817599537e+00	 2.667230477275950e+00
 4.740602275815974e-01	 1.063864038781661e+00	 2.540124713260624e+00
 4.640233064451901e-01	 1.068280002369799e+00	 2.416216209581425e+00
 4.539632917179103e-01	 1.072593642606642e+00	 2.295483704400902e+00
 4.438816867380957e-01	 1.076804922242691e+00	 2.177896315633867e+00
 4.337799897845209e-01	 1.080913832296583e+00	 2.063414981599862e+00
 4.236596934413457e-01	 1.084920391798739e+00	 1.951993952671627e+00
 4.135222839740368e-01	 1.088824647518800e+00	 1.843582326044068e+00
 4.033692407167100e-01	 1.092626673677322e+00	 1.738125615563152e+00
 5.065628758848051e-01	 1.055306054841112e+00	 3.017791565693143e+00
 4.965540005478639e-01	 1.060052329438933e+00	 2.882911081597515e+00
 4.865173582201115e-01	 1.064696049001555e+00	 2.751500730189304e+00
 4.764544711552420e-01	 1.069237089482579e+00	 2.623487016716623e+00
 4.663668584979433e-01	 1.073675355917121e+00	 2.498782854488817e+00
 4.562560356154754e-01	 1.078010782215766e+00	 2.377289021348384e+00
 4.461235134387931e-01	 1.082243330940886e+00	 2.258895684336095e+00
 4.359707978137357e-01	 1.086372993065757e+00	 2.143483984782240e+00
 4.257993888627667e-01	 1.090399787716914e+00	 2.030927675788694e+00
 4.156107803577440e-01	 1.094323761900208e+00	 1.921094803845194e+00
 4.054064591041681e-01	 1.098144990211046e+00	 1.813849426153772e+00
 5.091084179746784e-01	 1.060609100342826e+00	 3.101904152899859e+00
 4.990492467817728e-01	 1.065379225566767e+00	 2.965958887733288e+00
 4.889621690654387e-01	 1.070046280403572e+00	 2.833774816621821e+00
 4.788487147288864e-01	 1.074610140183496e+00	 2.705189657044428e+00
 4.687104105506970e-01	 1.079070709464443e+00	 2.580026024486112e+00
 4.585487795130406e-01	 1.083427921824890e+00	 2.458093051920352e+00
 4.483653401394906e-01	 1.087681739639081e+00	 2.339188079649335e+00
 4.381616058429504e-01	 1.091832153834932e+00	 2.223098407332389e+00
 4.279390842841876e-01	 1.095879183635090e+00	 2.109603099761904e+00
 4.176992767414514e-01	 1.099822876281616e+00	 1.998474837731165e+00
 4.074436774916262e-01	 1.103663306744769e+00	 1.889481805148232e+00
 3.870714936170448e-01	 1.048480141407531e+00	 1.133939072313678e+00
 3.773150845431894e-01	 1.052030548545551e+00	 1.049004286274910e+00
 3.675464902254247e-01	 1.055483076898847e+00	 9.679596680039149e-01
 3.577671068611223e-01	 1.058837874910559e+00	 8.905377648579331e-01
 3.479783217622492e-01	 1.062095116117391e+00	 8.164698780171955e-01
 3.381815128280106e-01	 1.065254998804626e+00	 7.454877130483371e-01
 3.283780480305984e-01	 1.068317745648971e+00	 6.773250130247130e-01
 3.185692849143376e-01	 1.071283603349764e+00	 6.117191674117941e-01
 3.087565701084815e-01	 1.074152842249059e+00	 5.484127901024500e-01
 2.989412388539064e-01	 1.076925755941131e+00	 4.871552601905913e-01
 2.891246145439157e-01	 1.079602660871915e+00	 4.277042193073286e-01
 3.891087120045029e-01	 1.053998457941255e+00	 1.208977230282323e+00
 3.793009534092064e-01	 1.057567551432633e+00	 1.121787414033290e+00
 3.694809454371375e-01	 1.061038250987788e+00	 1.038632389226098e+00
 3.596500916340755e-01	 1.064410705831141e+00	 9.592237562049228e-01
 3.498097866136297e-01	 1.067685090412746e+00	 8.832719628350736e-01
 3.399614155271053e-01	 1.070861604061493e+00	 8.104880168135655e-01
 3.301063535465490e-01	 1.073940470626071e+00	 7.405851801490231e-01
 3.202459653612553e-01	 1.076921938104236e+00	 6.732806387935573e-01
 3.103816046879999e-01	 1.079806278260896e+00	 6.082971405915831e-01
 3.005146137952427e-01	 1.082593786235559e+00	 5.453645949234751e-01
 2.906463230415153e-01	 1.085284780139661e+00	 4.842216276569395e-01
 3.911459303919611e-01	 1.059516774474978e+00	 1.284215744456825e+00
 3.812868222752231e-01	 1.063104554319714e+00	 1.194811001484178e+00
 3.714154006488504e-01	 1.066593425076730e+00	 1.109507997643139e+00
 3.615330764070288e-01	 1.069983536751723e+00	 1.028008382969307e+00
 3.516412514650098e-01	 1.073275064708100e+00	 9.500128093885087e-01
 3.417413182262001e-01	 1.076468209318359e+00	 8.752226896987438e-01
 3.318346590624995e-01	 1.079563195603171e+00	 8.033419385711564e-01
 3.219226458081727e-01	 1.082560272858709e+00	 7.340786883516723e-01
 3.120066392675181e-01	 1.085459714272734e+00	 6.671469726173216e-01
 3.020879887365790e-01	 1.088261816529985e+00	 6.022683706710077e-01
 2.921680315391149e-01	 1.090966899407408e+00	 5.391736063881232e-01
 3.931831487794192e-01	 1.065035091008702e+00	 1.359626951570894e+00
 3.832726911412399e-01	 1.068641557206796e+00	 1.268036311828967e+00
 3.733498558605631e-01	 1.072148599165671e+00	 1.180539190538405e+00
 3.634160611799820e-01	 1.075556367672304e+00	 1.096838089418517e+00
 3.534727163163901e-01	 1.078865039003455e+00	 1.016634726754000e+00
 3.435212209252949e-01	 1.082074814575225e+00	 9.396318281313301e-01
 3.335629645784501e-01	 1.085185920580271e+00	 8.655348992926282e-01
 3.235993262550903e-01	 1.088198607613181e+00	 7.940539736878431e-01
 3.136316738470364e-01	 1.091113150284571e+00	 7.249053274964035e-01
 3.036613636779154e-01	 1.093929846824412e+00	 6.578131551096922e-01
 2.936897400367144e-01	 1.096649018675155e+00	 5.925111983061329e-01
 3.952203671668775e-01	 1.070553407542427e+00	 1.435180590356758e+00
 3.852585600072566e-01	 1.074178560093878e+00	 1.341422370490285e+00
 3.752843110722759e-01	 1.077703773254613e+00	 1.251676737274795e+00
 3.652990459529354e-01	 1.081129198592887e+00	 1.165657655137007e+00
 3.553041811677703e-01	 1.084455013298810e+00	 1.083078579676959e+00
 3.453011236243896e-01	 1.087681419832092e+00	 1.003654265412926e+00
 3.352912700944007e-01	 1.090808645557371e+00	 9.271025559730455e-01
 3.252760067020078e-01	 1.093836942367653e+00	 8.531461491453252e-01
 3.152567084265548e-01	 1.096766586296408e+00	 7.815143293747231e-01
 3.052347386192518e-01	 1.099597877118840e+00	 7.119446605287583e-01
 2.952114485343140e-01	 1.102331137942902e+00	 6.441846319894586e-01
 3.972575855543355e-01	 1.076071724076150e+00	 1.510843843342055e+00
 3.872444288732735e-01	 1.079715562980960e+00	 1.414925998095566e+00
 3.772187662839885e-01	 1.083258947343554e+00	 1.322869504808773e+00
 3.671820307258887e-01	 1.086702029513469e+00	 1.234410214310313e+00
 3.571356460191506e-01	 1.090044987594164e+00	 1.149283802775185e+00
 3.470810263234845e-01	 1.093288025088959e+00	 1.067227581884945e+00
 3.370195756103511e-01	 1.096431370534471e+00	 9.879822920083337e-01
 3.269526871489254e-01	 1.099475277122126e+00	 9.112938706466851e-01
 3.168817430060731e-01	 1.102420022308245e+00	 8.369151885779251e-01
 3.068081135605881e-01	 1.105265907413267e+00	 7.646077463502694e-01
 2.967331570319134e-01	 1.108013257210649e+00	 6.941433240339268e-01
 3.992948039417936e-01	 1.081590040609874e+00	 1.586581377497115e+00
 3.892302977392901e-01	 1.085252565868041e+00	 1.488501842573585e+00
 3.791532214957014e-01	 1.088814121432495e+00	 1.394064482533469e+00
 3.690650154988418e-01	 1.092274860434050e+00	 1.303037274521889e+00
 3.589671108705309e-01	 1.095634961889520e+00	 1.215188414395265e+00
 3.488609290225794e-01	 1.098894630345825e+00	 1.130288114862664e+00
 3.387478811263017e-01	 1.102054095511571e+00	 1.048110387459037e+00
 3.286293675958430e-01	 1.105113611876598e+00	 9.684348004447063e-01
 3.185067775855914e-01	 1.108073458320082e+00	 8.910482049142034e-01
 3.083814885019245e-01	 1.110933937707694e+00	 8.157464216187145e-01
 2.982548655295132e-01	 1.113695376478396e+00	 7.423358812664422e-01
 4.013320223292517e-01	 1.087108357143598e+00	 1.662355383771361e+00
 3.912161666053071e-01	 1.090789568755124e+00	 1.562102410386968e+00
 3.810876767074141e-01	 1.094369295521436e+00	 1.465206806468693e+00
 3.709480002717951e-01	 1.097847691354632e+00	 1.371478735069106e+00
 3.607985757219112e-01	 1.101224936184874e+00	 1.280729030132647e+00
 3.506408317216740e-01	 1.104501235602692e+00	 1.192770968341520e+00
 3.404761866422522e-01	 1.107676820488670e+00	 1.107422025839231e+00
 3.303060480427605e-01	 1.110751946631071e+00	 1.024505611790642e+00
 3.201318121651098e-01	 1.113726894331919e+00	 9.438527709288480e-01
 3.099548634432608e-01	 1.116601968002121e+00	 8.653038474583146e-01
 2.997765740271127e-01	 1.119377495746143e+00	 7.887101029344339e-01
 4.033692407167100e-01	 1.092626673677322e+00	 1.738125615563149e+00
 3.932020354713237e-01	 1.096326571642205e+00	 1.635678096938669e+00
 3.830221319191268e-01	 1.099924469610378e+00	 1.536239782827449e+00
 3.728309850447485e-01	 1.103420522275214e+00	 1.439672904822398e+00
 3.626300405732915e-01	 1.106814910480229e+00	 1.345840876029635e+00
 3.524207344207689e-01	 1.110107840859558e+00	 1.254610022491198e+00
 3.422044921582027e-01	 1.113299545465770e+00	 1.165851300767445e+00
 3.319827284896782e-01	 1.116390281385543e+00	 1.079441993519626e+00
 3.217568467446282e-01	 1.119380330343757e+00	 9.952673751161010e-01
 3.115282383845971e-01	 1.122269998296548e+00	 9.132223395068366e-01
 3.012982825247122e-01	 1.125059615013890e+00	 8.332129828681478e-01
 4.054064591041681e-01	 1.098144990211046e+00	 1.813849426153771e+00
 3.951879043373405e-01	 1.101863574529287e+00	 1.709177216174787e+00
 3.849565871308396e-01	 1.105479643699319e+00	 1.607104910973872e+00
 3.747139698177018e-01	 1.108993353195796e+00	 1.507556519641935e+00
 3.644615054246717e-01	 1.112404884775583e+00	 1.410457801461670e+00
 3.542006371198636e-01	 1.115714446116424e+00	 1.315737942934838e+00
 3.439327976741532e-01	 1.118922270442870e+00	 1.223331222483888e+00
 3.336594089365957e-01	 1.122028616140016e+00	 1.133178654561274e+00
 3.233818813241464e-01	 1.125033766355594e+00	 1.045229605083175e+00
 3.131016133259335e-01	 1.127938028590975e+00	 9.594433703173832e-01
 3.028199910223118e-01	 1.130741734281637e+00	 8.757907116164798e-01
 4.074436774916262e-01	 1.103663306744769e+00	 1.889481805148232e+00
 3.971737732033573e-01	 1.107400577416369e+00	 1.782546029417556e+00
 3.868910423425523e-01	 1.111034817788260e+00	 1.677741905801935e+00
 3.765969545906551e-01	 1.114566184116378e+00	 1.575064759365177e+00
 3.662929702760519e-01	 1.117994859070938e+00	 1.474512291720048e+00
 3.559805398189585e-01	 1.121321051373291e+00	 1.376086189831796e+00
 3.456611031901038e-01	 1.124544995419970e+00	 1.279793724244884e+00
 3.353360893835132e-01	 1.127666950894488e+00	 1.185649328374444e+00
 3.250069159036647e-01	 1.130687202367431e+00	 1.093676150678010e+00
 3.146749882672699e-01	 1.133606058885402e+00	 1.003907571740857e+00
 3.043416995199114e-01	 1.136423853549384e+00	 9.163886785622410e-01
 2.891246145439157e-01	 1.079602660871915e+00	 4.277042193073286e-01
 2.793080082793573e-01	 1.082183895928924e+00	 3.703070055455160e-01
 2.694927184382222e-01	 1.084669822022196e+00	 3.152933507883944e-01
 2.596800302598876e-01	 1.087060821656778e+00	 2.625609357704137e-01
 2.498712154441309e-01	 1.089357298497311e+00	 2.120207937306611e-01
 2.400675317650314e-01	 1.091559676925239e+00	 1.635983171169544e-01
 2.302702226998498e-01	 1.093668401589187e+00	 1.172341948893743e-01
 2.204805170729591e-01	 1.095683936949030e+00	 7.288527671949740e-02
 2.106996287148792e-01	 1.097606766814189e+00	 3.052536076336487e-02
 2.009287561364474e-01	 1.099437393876680e+00	-9.854097931607075e-03
 1.911690822181394e-01	 1.101176339239434e+00	-4.824336092929515e-02
 2.906463230415153e-01	 1.085284780139661e+00	 4.842216276569395e-01
 2.807780504281961e-01	 1.087879600644339e+00	 4.251106688959054e-01
 2.709111011668444e-01	 1.090378610559155e+00	 3.683658742012033e-01
 2.610467672612554e-01	 1.092782194402340e+00	 3.138804420679624e-01
 2.511863271043632e-01	 1.095090757963086e+00	 2.615611705420045e-01
 2.413310450901105e-01	 1.097304727856424e+00	 2.113295020462616e-01
 2.314821712403753e-01	 1.099424551071236e+00	 1.631224972554359e-01
 2.216409408470273e-01	 1.101450694511920e+00	 1.168937341652043e-01
 2.118085741291681e-01	 1.103383644534264e+00	 7.261412890194308e-02
 2.019862759055866e-01	 1.105223906476031e+00	 3.027267520250287e-02
 1.921752352824453e-01	 1.106972004182799e+00	-1.012290009152306e-02
 2.921680315391149e-01	 1.090966899407408e+00	 5.391736063881232e-01
 2.822480925770348e-01	 1.093575305359755e+00	 4.781079745645451e-01
 2.723294838954667e-01	 1.096087399096114e+00	 4.194124304238471e-01
 2.624135042626232e-01	 1.098503567147902e+00	 3.629787195036207e-01
 2.525014387645954e-01	 1.100824217428861e+00	 3.087124813182163e-01
 2.425945584151897e-01	 1.103049778787609e+00	 2.565343281548818e-01
 2.326941197809008e-01	 1.105180700553284e+00	 2.063808513897487e-01
 2.228013646210955e-01	 1.107217452074809e+00	 1.582055513351333e-01
 2.129175195434569e-01	 1.109160522254339e+00	 1.119796870178686e-01
 2.030437956747258e-01	 1.111010419075382e+00	 6.769304270569387e-02
 1.931813883467513e-01	 1.112767669126165e+00	 2.535460840556425e-02
 2.936897400367144e-01	 1.096649018675155e+00	 5.925111983061329e-01
 2.837181347258735e-01	 1.099271010075170e+00	 5.292554575611108e-01
 2.737478666240889e-01	 1.101796187633073e+00	 4.683962155251216e-01
 2.637802412639911e-01	 1.104224939893464e+00	 4.098267256877861e-01
 2.538165504248278e-01	 1.106557676894637e+00	 3.534544770397559e-01
 2.438580717402688e-01	 1.108794829718796e+00	 2.992023027575503e-01
 2.339060683214265e-01	 1.110936850035333e+00	 2.470094149114495e-01
 2.239617883951637e-01	 1.112984209637699e+00	 1.968323610630724e-01
 2.140264649577456e-01	 1.114937399974413e+00	 1.486458990235189e-01
 2.041013154438650e-01	 1.116796931674733e+00	 1.024437864659808e-01
 1.941875414110573e-01	 1.118563334069530e+00	 5.823948250713817e-02
 2.952114485343140e-01	 1.102331137942902e+00	 6.441846319894586e-01
 2.851881768747123e-01	 1.104966714790586e+00	 5.785088574684134e-01
 2.751662493527109e-01	 1.107504976170032e+00	 5.152796231309225e-01
 2.651469782653589e-01	 1.109946312639026e+00	 4.543945840382846e-01
 2.551316620850601e-01	 1.112291136360412e+00	 3.957660190974233e-01
 2.451215850653479e-01	 1.114539880649981e+00	 3.393219656288511e-01
 2.351180168619518e-01	 1.116692999517380e+00	 2.850072784870235e-01
 2.251222121692320e-01	 1.118750967200589e+00	 2.327846094576715e-01
 2.151354103720346e-01	 1.120714277694488e+00	 1.826353030746066e-01
 2.051588352130041e-01	 1.122583444274084e+00	 1.345602054303012e-01
 1.951936944753633e-01	 1.124358999012896e+00	 8.858038298338133e-02
 2.967331570319134e-01	 1.108013257210649e+00	 6.941433240339268e-01
 2.866582190235510e-01	 1.110662419506001e+00	 6.258231210091658e-01
 2.765846320813334e-01	 1.113213764706991e+00	 5.600242479979065e-01
 2.665137152667267e-01	 1.115667685384588e+00	 4.966515890139354e-01
 2.564467737452921e-01	 1.118024595826187e+00	 4.356250868065472e-01
 2.463850983904270e-01	 1.120284931581166e+00	 3.768808993844308e-01
 2.363299654024774e-01	 1.122449148999429e+00	 3.203724796392202e-01
 2.262826359433002e-01	 1.124517724763479e+00	 2.660715736640196e-01
 2.162443557863234e-01	 1.126491155414562e+00	 2.139691337789058e-01
 2.062163549821434e-01	 1.128369956873435e+00	 1.640761427185216e-01
 1.961998475396693e-01	 1.130154663956261e+00	 1.164243458825891e-01
 2.982548655295132e-01	 1.113695376478396e+00	 7.423358812664422e-01
 2.881282611723897e-01	 1.116358124221417e+00	 6.711524045670649e-01
 2.780030148099556e-01	 1.118922553243950e+00	 6.025908895066858e-01
 2.678804522680946e-01	 1.121389058130150e+00	 5.365662112097414e-01
 2.577618854055245e-01	 1.123758055291963e+00	 4.730087847090538e-01
 2.476486117155061e-01	 1.126029982512351e+00	 4.118657395620016e-01
 2.375419139430030e-01	 1.128205298481477e+00	 3.531020161467495e-01
 2.274430597173684e-01	 1.130284482326368e+00	 2.967013790918109e-01
 2.173533012006123e-01	 1.132268033134638e+00	 2.426673437310893e-01
 2.072738747512825e-01	 1.134156469472786e+00	 1.910240119167943e-01
 1.972060006039753e-01	 1.135950328899626e+00	 1.418168139939056e-01
 2.997765740271127e-01	 1.119377495746143e+00	 7.887101029344339e-01
 2.895983033212285e-01	 1.122053828936832e+00	 7.144500766701585e-01
 2.794213975385778e-01	 1.124631341780909e+00	 6.429395550783656e-01
 2.692471892694624e-01	 1.127110430875713e+00	 5.741061023252230e-01
 2.590769970657568e-01	 1.129491514757738e+00	 5.078933496741973e-01
 2.489121250405853e-01	 1.131775033443537e+00	 4.442621844107797e-01
 2.387538624835285e-01	 1.133961447963526e+00	 3.831918590475527e-01
 2.286034834914366e-01	 1.136051239889258e+00	 3.246810161286264e-01
 2.184622466149011e-01	 1.138044910854712e+00	 2.687486244005295e-01
 2.083313945204218e-01	 1.139942982072137e+00	 2.154348225705220e-01
 1.982121536682813e-01	 1.141745993842992e+00	 1.648016673541188e-01
 3.012982825247122e-01	 1.125059615013890e+00	 8.332129828681478e-01
 2.910683454700670e-01	 1.127749533652247e+00	 7.556687204280559e-01
 2.808397802672000e-01	 1.130340130317868e+00	 6.810294635159861e-01
 2.706139262708301e-01	 1.132831803621274e+00	 6.092381000021403e-01
 2.603921087259891e-01	 1.135224974223513e+00	 5.402541578034108e-01
 2.501756383656644e-01	 1.137520084374722e+00	 4.740550044007867e-01
 2.399658110240540e-01	 1.139717597445574e+00	 4.106369652627944e-01
 2.297639072655048e-01	 1.141817997452147e+00	 3.500163563555270e-01
 2.195711920291899e-01	 1.143821788574787e+00	 2.922304263898585e-01
 2.093889142895609e-01	 1.145729494671488e+00	 2.373382049113339e-01
 1.992183067325873e-01	 1.147541658786357e+00	 1.854212528310182e-01
 3.028199910223118e-01	 1.130741734281637e+00	 8.757907116164798e-01
 2.925383876189059e-01	 1.133445238367663e+00	 7.947601359341170e-01
 2.822581629958222e-01	 1.136048918854827e+00	 7.168190482744263e-01
 2.719806632721980e-01	 1.138553176366836e+00	 6.419282325436844e-01
 2.617072203862213e-01	 1.140958433689289e+00	 5.700657311474395e-01
 2.514391516907435e-01	 1.143265135305908e+00	 5.012280514611640e-01
 2.411777595645795e-01	 1.145473746927622e+00	 4.354312898482742e-01
 2.309243310395729e-01	 1.147584755015037e+00	 3.727121682821037e-01
 2.206801374434788e-01	 1.149598666294862e+00	 3.131289790924487e-01
 2.104464340587002e-01	 1.151516007270839e+00	 2.567624338410694e-01
 2.002244597968933e-01	 1.153337323729723e+00	 2.037164128189302e-01
 3.043416995199114e-01	 1.136423853549384e+00	 9.163886785622410e-01
 2.940084297677445e-01	 1.139140943083078e+00	 8.316753426261649e-01
 2.836765457244445e-01	 1.141757707391786e+00	 7.502659606612636e-01
 2.733474002735659e-01	 1.144274549112398e+00	 6.721417235146561e-01
 2.630223320464536e-01	 1.146691893155064e+00	 5.973017442415736e-01
 2.527026650158226e-01	 1.149010186237094e+00	 5.257642679564603e-01
 2.423897081051050e-01	 1.151229896409671e+00	 4.575677978956842e-01
 2.320847548136412e-01	 1.153351512577927e+00	 3.927721326208773e-01
 2.217890828577676e-01	 1.155375544014936e+00	 3.314593097634231e-01
 2.115039538278393e-01	 1.157302519870189e+00	 2.737344522020866e-01
 2.012306128611993e-01	 1.159132988673088e+00	 2.197265130747219e-01
 1.911690822181394e-01	 1.101176339239434e+00	-4.824336092929515e-02
 1.814217739145382e-01	 1.102824141940404e+00	-8.453323016416148e-02
 1.716879819739233e-01	 1.104381358472972e+00	-1.187161473972900e-01
 1.619688406729455e-01	 1.105848562303152e+00	-1.509049452929307e-01
 1.522654675663274e-01	 1.107226343384086e+00	-1.811909830587042e-01
 1.425789632515155e-01	 1.108515307668328e+00	-2.096437867153149e-01
 1.329104111481939e-01	 1.109716076618386e+00	-2.363107838645044e-01
 1.232608772925553e-01	 1.110829286715990e+00	-2.612171328183717e-01
 1.136314101462072e-01	 1.111855588970560e+00	-2.843656455613082e-01
 1.040230404195792e-01	 1.112795648427308e+00	-3.057368036441570e-01
 9.443678090968260e-02	 1.113650143675428e+00	-3.252888657449597e-01
 1.921752352824453e-01	 1.106972004182799e+00	-1.012290009152306e-02
 1.823766253561938e-01	 1.108628479529564e+00	-4.846520835554946e-02
 1.725916029316807e-01	 1.110193891938619e+00	-8.473425541945723e-02
 1.628213082554346e-01	 1.111668817894221e+00	-1.190226209482232e-01
 1.530668647640450e-01	 1.113053850454528e+00	-1.514006953783213e-01
 1.433293788475761e-01	 1.114349598761320e+00	-1.819163320670820e-01
 1.336099396279212e-01	 1.115556687547957e+00	-2.105945959988409e-01
 1.239096187519898e-01	 1.116675756646075e+00	-2.374376089105672e-01
 1.142294701996083e-01	 1.117707460491457e+00	-2.624244903035455e-01
 1.045705301059981e-01	 1.118652467629557e+00	-2.855113934249580e-01
 9.493381659868096e-02	 1.119511460221088e+00	-3.066316349242464e-01
 1.931813883467513e-01	 1.112767669126165e+00	 2.535460840556425e-02
 1.833314767978492e-01	 1.114432817118724e+00	-1.492541191259100e-02
 1.734952238894383e-01	 1.116006425404267e+00	-5.311754180196182e-02
 1.636737758379239e-01	 1.117489073485290e+00	-8.930217552243969e-02
 1.538682619617625e-01	 1.118881357524971e+00	-1.235367799203884e-01
 1.440797944436367e-01	 1.120183889854311e+00	-1.558555481758468e-01
 1.343094681076486e-01	 1.121397298477527e+00	-1.862691524673292e-01
 1.245583602114243e-01	 1.122522226576158e+00	-2.147645954304584e-01
 1.148275302530094e-01	 1.123559332012355e+00	-2.413051598779004e-01
 1.051180197924169e-01	 1.124509286831806e+00	-2.658304558544522e-01
 9.543085228767928e-02	 1.125372776766749e+00	-2.882565637152732e-01
 1.941875414110573e-01	 1.118563334069530e+00	 5.823948250713817e-02
 1.842863282395046e-01	 1.120237154707884e+00	 1.614941015813631e-02
 1.743988448471958e-01	 1.121818958869914e+00	-2.379152423194331e-02
 1.645262434204130e-01	 1.123309329076360e+00	-6.165948222050099e-02
 1.546696591594799e-01	 1.124708864595413e+00	-9.750693739838345e-02
 1.448302100396973e-01	 1.126018180947302e+00	-1.313623205085590e-01
 1.350089965873759e-01	 1.127237909407097e+00	-1.632297661567264e-01
 1.252071016708588e-01	 1.128368696506242e+00	-1.930889609930011e-01
 1.154255903064105e-01	 1.129411203533252e+00	-2.208950928587168e-01
 1.056655094788357e-01	 1.130366106034055e+00	-2.465788999573597e-01
 9.592788797667760e-02	 1.131234093312409e+00	-2.700468187325158e-01
 1.951936944753633e-01	 1.124358999012896e+00	 8.858038298338133e-02
 1.852411796811601e-01	 1.126041492297044e+00	 4.482068526528193e-02
 1.753024658049533e-01	 1.127631492335561e+00	 3.316319783695398e-03
 1.653787110029023e-01	 1.129129584667429e+00	-3.601248278899316e-02
 1.554710563571974e-01	 1.130536371665856e+00	-7.322102092453342e-02
 1.455806256357579e-01	 1.131852472040293e+00	-1.083397485718369e-01
 1.357085250671033e-01	 1.133078520336668e+00	-1.413740060425654e-01
 1.258558431302933e-01	 1.134215166436326e+00	-1.723038553761316e-01
 1.160236503598116e-01	 1.135263075054151e+00	-2.010840196781944e-01
 1.062129991652546e-01	 1.136222925236304e+00	-2.276439255109546e-01
 9.642492366567591e-02	 1.137095409858069e+00	-2.518878470001211e-01
 1.961998475396693e-01	 1.130154663956261e+00	 1.164243458825891e-01
 1.861960311228155e-01	 1.131845829886205e+00	 7.114805480944630e-02
 1.762060867627107e-01	 1.133444025801209e+00	 2.827659483104394e-02
 1.662311785853914e-01	 1.134949840258498e+00	-1.228114199030994e-02
 1.562724535549150e-01	 1.136363878736299e+00	-5.059098753913549e-02
 1.463310412318185e-01	 1.137686763133285e+00	-8.669309508563749e-02
 1.364080535468306e-01	 1.138919131266239e+00	-1.206016445449776e-01
 1.265045845897278e-01	 1.140061636366411e+00	-1.523046555262488e-01
 1.166217104132127e-01	 1.141114946575049e+00	-1.817639076909847e-01
 1.067604888516734e-01	 1.142079744438553e+00	-2.089149675136679e-01
 9.692195935467424e-02	 1.142956726403729e+00	-2.336673201045869e-01
 1.972060006039753e-01	 1.135950328899626e+00	 1.418168139939056e-01
 1.871508825644710e-01	 1.137650167475364e+00	 9.518941061211095e-02
 1.771097077204682e-01	 1.139256559266856e+00	 5.115802821850046e-02
 1.670836461678806e-01	 1.140770095849567e+00	 9.612596523441042e-03
 1.570738507526324e-01	 1.142191385806741e+00	-2.953085122253496e-02
 1.470814568278791e-01	 1.143521054226275e+00	-6.632973671975417e-02
 1.371075820265580e-01	 1.144759742195809e+00	-1.008146065009332e-01
 1.271533260491624e-01	 1.145908106296495e+00	-1.329889132231137e-01
 1.172197704666137e-01	 1.146966818095946e+00	-1.628289079245095e-01
 1.073079785380923e-01	 1.147936563640802e+00	-1.902836423551277e-01
 9.741899504367259e-02	 1.148818042949390e+00	-2.152750800579102e-01
 1.982121536682813e-01	 1.141745993842992e+00	 1.648016673541188e-01
 1.881057340061265e-01	 1.143454505064525e+00	 1.170009302352168e-01
 1.780133286782258e-01	 1.145069092732503e+00	 7.202750936814839e-02
 1.679361137503698e-01	 1.146590351440637e+00	 2.974485299296559e-02
 1.578752479503500e-01	 1.148018892877183e+00	-9.956637344014752e-03
 1.478318724239397e-01	 1.149355345319268e+00	-4.715911633022962e-02
 1.378071105062853e-01	 1.150600353125379e+00	-8.191691969240988e-02
 1.278020675085969e-01	 1.151754576226580e+00	-1.142563043412759e-01
 1.178178305200149e-01	 1.152818689616844e+00	-1.441753034542974e-01
 1.078554682245111e-01	 1.153793382843051e+00	-1.716436956319614e-01
 9.791603073267093e-02	 1.154679359495050e+00	-1.966030868161317e-01
 1.992183067325873e-01	 1.147541658786357e+00	 1.854212528310182e-01
 1.890605854477820e-01	 1.149258842653684e+00	 1.366371112302072e-01
 1.789169496359832e-01	 1.150881626198150e+00	 9.095012801255420e-02
 1.687885813328590e-01	 1.152410607031706e+00	 4.818985303510059e-02
 1.586766451480676e-01	 1.153846399947626e+00	 8.213661507745496e-03
 1.485822880200004e-01	 1.155189636412258e+00	-2.909269664842196e-02
 1.385066389860126e-01	 1.156440964054950e+00	-6.381466687877335e-02
 1.284508089680313e-01	 1.157601046156663e+00	-9.600857965251297e-02
 1.184158905734159e-01	 1.158670561137741e+00	-1.257014593495795e-01
 1.084029579109300e-01	 1.159650202045300e+00	-1.528909515437906e-01
 9.841306642166925e-02	 1.160540676040709e+00	-1.775453673902292e-01
 2.002244597968933e-01	 1.153337323729723e+00	 2.037164128189302e-01
 1.900154368894374e-01	 1.155063180242844e+00	 1.541508043575015e-01
 1.798205705937407e-01	 1.156694159663797e+00	 1.079892112397443e-01
 1.696410489153482e-01	 1.158230862622775e+00	 6.501996787552677e-02
 1.594780423457851e-01	 1.159673907018069e+00	 2.506012835948201e-02
 1.493327036160610e-01	 1.161023927505249e+00	-1.204391536924865e-02
 1.392061674657399e-01	 1.162281574984521e+00	-4.641593927703003e-02
 1.290995504274659e-01	 1.163447516086748e+00	-7.814951711491958e-02
 1.190139506268170e-01	 1.164522432658639e+00	-1.073077741295294e-01
 1.089504475973488e-01	 1.165507021247549e+00	-1.339232638238710e-01
 9.891010211066759e-02	 1.166401992586370e+00	-1.579979664920672e-01
 2.012306128611993e-01	 1.159132988673088e+00	 2.197265130747219e-01
 1.909702883310929e-01	 1.160867517832004e+00	 1.695932458072411e-01
 1.807241915514982e-01	 1.162506693129445e+00	 1.232063594258306e-01
 1.704935164978373e-01	 1.164051118213844e+00	 8.030575337015566e-02
 1.602794395435026e-01	 1.165501414088512e+00	 4.066096340159042e-02
 1.500831192121216e-01	 1.166858218598241e+00	 4.071858411512697e-03
 1.399056959454673e-01	 1.168122185914091e+00	-2.963079144437586e-02
 1.297482918869003e-01	 1.169293986016832e+00	-6.058487559811576e-02
 1.196120106802181e-01	 1.170374304179537e+00	-8.889663267908965e-02
 1.094979372837676e-01	 1.171363840449797e+00	-1.146404681414608e-01
 9.940713779966590e-02	 1.172263309132030e+00	-1.378588986694815e-01
 9.443678090968260e-02	 1.113650143675428e+00	-3.252888657449597e-01
 8.487362635206157e-02	 1.114419766356796e+00	-3.428409091329110e-01
 7.533455328675705e-02	 1.115105220675597e+00	-3.583322754397580e-01
 6.582051993810334e-02	 1.115707222909291e+00	-3.718671380923961e-01
 5.633246610815430e-02	 1.116226500921323e+00	-3.835260154086821e-01
 4.687131308353283e-02	 1.116663793675926e+00	-3.933661482902346e-01
 3.743796355548400e-02	 1.117019850755439e+00	-4.014219624661965e-01
 2.803330155290386e-02	 1.117295431880454e+00	-4.077056119466160e-01
 1.865819238810633e-02	 1.117491306433162e+00	-4.122076001230095e-01
 9.313482615082747e-03	 1.117608252984231e+00	-4.148974747306480e-01
 0.000000000000000e+00	 1.117647058823530e+00	-4.157245927043833e-01
 9.493381659868096e-02	 1.119511460221088e+00	-3.066316349242464e-01
 8.532032964865137e-02	 1.120285133548147e+00	-3.255856756438940e-01
 7.573105093563472e-02	 1.120974195521257e+00	-3.423177977732701e-01
 6.616694372725124e-02	 1.121579366187761e+00	-3.569414122326457e-01
 5.662895277188143e-02	 1.122101377241961e+00	-3.695453233621788e-01
 4.711800420502511e-02	 1.122540971537379e+00	-3.801941031515930e-01
 3.763500546893391e-02	 1.122898902601520e+00	-3.889285531775561e-01
 2.818084524528756e-02	 1.123175934153509e+00	-3.957662508441913e-01
 1.875639340067531e-02	 1.123372839624915e+00	-4.007021762662553e-01
 9.362500944635815e-03	 1.123490401684148e+00	-4.037094159283128e-01
 0.000000000000000e+00	 1.123529411764706e+00	-4.047399390451965e-01
 9.543085228767928e-02	 1.125372776766749e+00	-2.882565637152732e-01
 8.576703294524117e-02	 1.126150500739499e+00	-3.083723199477704e-01
 7.612754858451241e-02	 1.126843170366919e+00	-3.261282798601681e-01
 6.651336751639914e-02	 1.127451509466231e+00	-3.416462419127408e-01
 5.692543943560856e-02	 1.127976253562600e+00	-3.550224443274259e-01
 4.736469532651740e-02	 1.128418149398831e+00	-3.663279362283980e-01
 3.783204738238384e-02	 1.128777954447602e+00	-3.756090396892926e-01
 2.832838893767126e-02	 1.129056436426564e+00	-3.828878991929963e-01
 1.885459441324429e-02	 1.129254372816669e+00	-3.881631147752675e-01
 9.411519274188880e-03	 1.129372550384064e+00	-3.914104548727422e-01
 0.000000000000000e+00	 1.129411764705883e+00	-3.925836447155180e-01
 9.592788797667760e-02	 1.131234093312409e+00	-2.700468187325158e-01
 8.621373624183096e-02	 1.132015867930851e+00	-2.910828550336757e-01
 7.652404623339008e-02	 1.132712145212579e+00	-3.096450589877167e-01
 6.685979130554703e-02	 1.133323652744701e+00	-3.258627842925197e-01
 5.722192609933571e-02	 1.133851129883238e+00	-3.398388677867938e-01
 4.761138644800966e-02	 1.134295327260283e+00	-3.516499978724070e-01
 3.802908929583376e-02	 1.134657006293683e+00	-3.613471770685552e-01
 2.847593263005496e-02	 1.134936938699619e+00	-3.689562751284692e-01
 1.895279542581327e-02	 1.135135906008422e+00	-3.744786689008621e-01
 9.460537603741952e-03	 1.135254699083982e+00	-3.778919648668699e-01
 0.000000000000000e+00	 1.135294117647059e+00	-3.791508000826522e-01
 9.642492366567591e-02	 1.137095409858069e+00	-2.518878470001211e-01
 8.666043953842076e-02	 1.137881235122202e+00	-2.736015590168015e-01
 7.692054388226773e-02	 1.138581120058240e+00	-2.927517198278338e-01
 6.720621509469499e-02	 1.139195796023171e+00	-3.094744235361451e-01
 5.751841276306283e-02	 1.139726006203877e+00	-3.238782870313028e-01
 4.785807756950194e-02	 1.140172505121735e+00	-3.360448160534459e-01
 3.822613120928368e-02	 1.140536058139765e+00	-3.460288686440309e-01
 2.862347632243867e-02	 1.140817440972674e+00	-3.538592123468152e-01
 1.905099643838225e-02	 1.141017439200175e+00	-3.595391712446969e-01
 9.509555933295017e-03	 1.141136847783899e+00	-3.630473586726239e-01
 0.000000000000000e+00	 1.141176470588235e+00	-3.643384912338457e-01
 9.692195935467424e-02	 1.142956726403729e+00	-2.336673201045869e-01
 8.710714283501059e-02	 1.143746602313554e+00	-2.558149191500672e-01
 7.731704153114541e-02	 1.144450094903902e+00	-2.753340384237757e-01
 6.755263888384291e-02	 1.145067939301642e+00	-2.923667148965681e-01
 5.781489942678995e-02	 1.145600882524515e+00	-3.070265434724146e-01
 4.810476869099423e-02	 1.146049682983187e+00	-3.193990410377050e-01
 3.842317312273358e-02	 1.146415109985846e+00	-3.295421111943844e-01
 2.877102001482238e-02	 1.146697943245729e+00	-3.374866059617139e-01
 1.914919745095123e-02	 1.146898972391929e+00	-3.432369804377959e-01
 9.558574262848086e-03	 1.147018996483816e+00	-3.467720361791402e-01
 0.000000000000000e+00	 1.147058823529412e+00	-3.480457488030577e-01
 9.741899504367259e-02	 1.148818042949390e+00	-2.152750800579102e-01
 8.755384613160036e-02	 1.149611969504905e+00	-2.376115775529306e-01
 7.771353918002306e-02	 1.150319069749563e+00	-2.572799278938831e-01
 6.789906267299081e-02	 1.150940082580111e+00	-2.744273305146834e-01
 5.811138609051707e-02	 1.151475758845154e+00	-2.891715726608259e-01
 4.835145981248651e-02	 1.151926860844639e+00	-3.016013917616589e-01
 3.862021503618351e-02	 1.152294161831927e+00	-3.117769418179877e-01
 2.891856370720608e-02	 1.152578445518784e+00	-3.197303600129877e-01
 1.924739846352021e-02	 1.152780505583683e+00	-3.254664294490381e-01
 9.607592592401149e-03	 1.152901145183733e+00	-3.289633336692637e-01
 0.000000000000000e+00	 1.152941176470588e+00	-3.301734983660842e-01
 9.791603073267093e-02	 1.154679359495050e+00	-1.966030868161317e-01
 8.800054942819015e-02	 1.155477336696257e+00	-2.188822785962667e-01
 7.811003682890072e-02	 1.156188044595224e+00	-2.384793857921204e-01
 6.824548646213874e-02	 1.156812225858582e+00	-2.555460068697895e-01
 5.840787275424420e-02	 1.157350635165792e+00	-2.702033519525875e-01
 4.859815093397878e-02	 1.157804038706091e+00	-2.825426038409788e-01
 3.881725694963341e-02	 1.158173213678009e+00	-2.926253864199704e-01
 2.906610739958978e-02	 1.158458947791839e+00	-3.004843365800318e-01
 1.934559947608920e-02	 1.158662038775436e+00	-3.061237754692483e-01
 9.656610921954217e-03	 1.158783293883650e+00	-3.095204746338873e-01
 0.000000000000000e+00	 1.158823529411765e+00	-3.106245123445803e-01
 9.841306642166925e-02	 1.160540676040709e+00	-1.775453673902292e-01
 8.844725272477996e-02	 1.161342703887609e+00	-1.995198178831590e-01
 7.850653447777842e-02	 1.162057019440885e+00	-2.188244430655408e-01
 6.859191025128664e-02	 1.162684369137051e+00	-2.356144938251612e-01
 5.870435941797134e-02	 1.163225511486431e+00	-2.500138497592506e-01
 4.884484205547108e-02	 1.163681216567544e+00	-2.621153791535540e-01
 3.901429886308332e-02	 1.164052265524089e+00	-2.719814097622870e-01
 2.921365109197349e-02	 1.164339450064894e+00	-2.796443064343777e-01
 1.944380048865817e-02	 1.164543571967189e+00	-2.851071513147936e-01
 9.705629251507282e-03	 1.164665442583567e+00	-2.883445220760255e-01
 0.000000000000000e+00	 1.164705882352941e+00	-2.893033633690738e-01
 9.891010211066759e-02	 1.166401992586370e+00	-1.579979664920672e-01
 8.889395602136975e-02	 1.167208071078960e+00	-1.794189927741434e-01
 7.890303212665610e-02	 1.167925994286546e+00	-1.982091145537908e-01
 6.893833404043456e-02	 1.168556512415521e+00	-2.145265052127172e-01
 5.900084608169847e-02	 1.169100387807069e+00	-2.284969763346463e-01
 4.909153317696335e-02	 1.169558394428997e+00	-2.402143369475702e-01
 3.921134077653325e-02	 1.169931317370171e+00	-2.497408670209622e-01
 2.936119478435720e-02	 1.170219952337949e+00	-2.571079011822852e-01
 1.954200150122716e-02	 1.170425105158943e+00	-2.623165182957137e-01
 9.754647581060351e-03	 1.170547591283484e+00	-2.653383322512557e-01
 0.000000000000000e+00	 1.170588235294118e+00	-2.661163790478409e-01
 9.940713779966590e-02	 1.172263309132030e+00	-1.378588986694815e-01
 8.934065931795956e-02	 1.173073438270312e+00	-1.584765543952247e-01
 7.929952977553376e-02	 1.173794969132207e+00	-1.765293509768933e-01
 6.928475782958245e-02	 1.174428655693991e+00	-1.921776709018523e-01
 5.929733274542558e-02	 1.174975264127708e+00	-2.055485360356402e-01
 4.933822429845561e-02	 1.175435572290448e+00	-2.167359664150474e-01
 3.940838268998317e-02	 1.175810369216252e+00	-2.258014567966486e-01
 2.950873847674090e-02	 1.176100454611004e+00	-2.327745668428713e-01
 1.964020251379614e-02	 1.176306638350697e+00	-2.376536204982655e-01
 9.803665910613419e-03	 1.176429739983401e+00	-2.404065097987189e-01
 0.000000000000000e+00	 1.176470588235294e+00	-2.409715980919374e-01
 1.176470588235294e+00	 0.000000000000000e+00	 2.155831682320323e+01
 1.176429739983401e+00	 9.803665910613083e-03	 2.155543176299501e+01
 1.176306638350696e+00	 1.964020251379585e-02	 2.154928224404393e+01
 1.176100454611004e+00	 2.950873847674064e-02	 2.153978531682164e+01
 1.175810369216252e+00	 3.940838268998295e-02	 2.152684984413130e+01
 1.175435572290449e+00	 4.933822429845543e-02	 2.151037696725039e+01
 1.174975264127708e+00	 5.929733274542542e-02	 2.149026059439576e+01
 1.174428655693991e+00	 6.928475782958232e-02	 2.146638790868771e+01
 1.173794969132207e+00	 7.929952977553367e-02	 2.143863989259876e+01
 1.173073438270312e+00	 8.934065931795951e-02	 2.140689186568869e+01
 1.172263309132030e+00	 9.940713779966590e-02	 2.137101403225467e+01
 1.182352941176471e+00	 0.000000000000000e+00	 2.136674038777340e+01
 1.182311888683318e+00	 9.852684240166150e-03	 2.136382035788028e+01
 1.182188171542450e+00	 1.973840352636481e-02	 2.135776386827394e+01
 1.181980956884059e+00	 2.965628216912434e-02	 2.134848217890129e+01
 1.181689421062334e+00	 3.960542460343286e-02	 2.133588209421983e+01
 1.181312750151901e+00	 4.958491541994769e-02	 2.131986667320683e+01
 1.180850140448347e+00	 5.959381940915255e-02	 2.130033591707300e+01
 1.180300798972461e+00	 6.963118161873026e-02	 2.127718743119931e+01
 1.179663943977868e+00	 7.969602742441134e-02	 2.125031705773686e+01
 1.178938805461664e+00	 8.978736261454932e-02	 2.121961947523738e+01
 1.178124625677690e+00	 9.990417348866423e-02	 2.118498876161270e+01
 1.188235294117647e+00	 0.000000000000000e+00	 2.117976753318215e+01
 1.188194037383235e+00	 9.901702569719213e-03	 2.117680787513379e+01
 1.188069704734203e+00	 1.983660453893380e-02	 2.117084321006966e+01
 1.187861459157114e+00	 2.980382586150804e-02	 2.116177445473646e+01
 1.187568472908415e+00	 3.980246651688277e-02	 2.114949858867298e+01
 1.187189928013353e+00	 4.983160654144000e-02	 2.113390939436431e+01
 1.186725016768985e+00	 5.989030607287969e-02	 2.111489817458969e+01
 1.186172942250931e+00	 6.997760540787816e-02	 2.109235444342199e+01
 1.185532918823529e+00	 8.009252507328898e-02	 2.106616658725866e+01
 1.184804172653015e+00	 9.023406591113912e-02	 2.103622249218673e+01
 1.183985942223350e+00	 1.004012091776625e-01	 2.100241013391408e+01
 1.194117647058824e+00	 0.000000000000000e+00	 2.099722521013276e+01
 1.194076186083152e+00	 9.950720899272281e-03	 2.099422230007268e+01
 1.193951237925957e+00	 1.993480555150278e-02	 2.098835058596744e+01
 1.193741961430169e+00	 2.995136955389174e-02	 2.097950045178570e+01
 1.193447524754496e+00	 3.999950843033268e-02	 2.096755885980218e+01
 1.193067105874805e+00	 5.007829766293226e-02	 2.095241012092286e+01
 1.192599893089624e+00	 6.018679273660681e-02	 2.093393664170501e+01
 1.192045085529401e+00	 7.032402919702609e-02	 2.091201964447111e+01
 1.191401893669190e+00	 8.048902272216667e-02	 2.088653985683539e+01
 1.190669539844367e+00	 9.068076920772890e-02	 2.085737816688403e+01
 1.189847258769011e+00	 1.008982448666609e-01	 2.082441624017635e+01
 1.200000000000000e+00	 0.000000000000000e+00	 2.081894331120674e+01
 1.199958334783069e+00	 9.999739228825346e-03	 2.081589438568292e+01
 1.199832771117711e+00	 2.003300656407176e-02	 2.081011728285652e+01
 1.199622463703224e+00	 3.009891324627545e-02	 2.080149166631267e+01
 1.199326576600577e+00	 4.019655034378260e-02	 2.078989429078877e+01
 1.198944283736258e+00	 5.032498878442455e-02	 2.077519980269173e+01
 1.198474769410262e+00	 6.048327940033394e-02	 2.075728151682106e+01
 1.197917228807871e+00	 7.067045298617398e-02	 2.073601216564152e+01
 1.197270868514851e+00	 8.088552037104434e-02	 2.071126461736454e+01
 1.196534907035719e+00	 9.112747250431871e-02	 2.068291255901874e+01
 1.195708575314670e+00	 1.013952805556592e-01	 2.065083114061340e+01
 1.205882352941177e+00	 0.000000000000000e+00	 2.064475459911079e+01
 1.205840483482986e+00	 1.004875755837841e-02	 2.064165769497155e+01
 1.205714304309464e+00	 2.013120757664073e-02	 2.063597734331654e+01
 1.205502965976279e+00	 3.024645693865915e-02	 2.062758230176814e+01
 1.205205628446659e+00	 4.039359225723251e-02	 2.061633892937484e+01
 1.204821461597710e+00	 5.057167990591681e-02	 2.060211201733141e+01
 1.204349645730901e+00	 6.077976606406107e-02	 2.058476559543035e+01
 1.203789372086341e+00	 7.101687677532190e-02	 2.056416371053021e+01
 1.203139843360512e+00	 8.128201801992202e-02	 2.054017117324489e+01
 1.202400274227070e+00	 9.157417580090849e-02	 2.051265426897377e+01
 1.201569891860331e+00	 1.018923162446575e-01	 2.048148142931442e+01
 1.211764705882353e+00	 0.000000000000000e+00	 2.047449463701351e+01
 1.211722632182903e+00	 1.009777588793148e-02	 2.047134853189546e+01
 1.211595837501217e+00	 2.022940858920972e-02	 2.046576749708167e+01
 1.211383468249334e+00	 3.039400063104285e-02	 2.045760920073711e+01
 1.211084680292740e+00	 4.059063417068243e-02	 2.044672942023914e+01
 1.210698639459162e+00	 5.081837102740908e-02	 2.043298290310661e+01
 1.210224522051540e+00	 6.107625272778819e-02	 2.041622420319500e+01
 1.209661515364811e+00	 7.136330056446979e-02	 2.039630848839187e+01
 1.209008818206173e+00	 8.167851566879968e-02	 2.037309231595972e+01
 1.208265641418421e+00	 9.202087909749830e-02	 2.034643437158837e+01
 1.207431208405991e+00	 1.023893519336559e-01	 2.031619616813931e+01
 1.217647058823530e+00	 0.000000000000000e+00	 2.030800172090142e+01
 1.217604780882820e+00	 1.014679421748454e-02	 2.030480587429236e+01
 1.217477370692970e+00	 2.032760960177869e-02	 2.029932709449523e+01
 1.217263970522390e+00	 3.054154432342656e-02	 2.029141177886420e+01
 1.216963732138821e+00	 4.078767608413234e-02	 2.028090493934458e+01
 1.216575817320614e+00	 5.106506214890136e-02	 2.026765109360609e+01
 1.216099398372178e+00	 6.137273939151531e-02	 2.025149513099129e+01
 1.215533658643281e+00	 7.170972435361772e-02	 2.023228314946111e+01
 1.214877793051835e+00	 8.207501331767734e-02	 2.020986325963025e+01
 1.214131008609773e+00	 9.246758239408810e-02	 2.018408635189836e+01
 1.213292524951652e+00	 1.028863876226542e-01	 2.015480682260157e+01
 1.223529411764706e+00	 0.000000000000000e+00	 2.014511681388617e+01
 1.223486929582737e+00	 1.019581254703761e-02	 2.014187130874720e+01
 1.223358903884725e+00	 2.042581061434767e-02	 2.013649804188528e+01
 1.223144472795444e+00	 3.068908801581027e-02	 2.012883196069172e+01
 1.222842783984902e+00	 4.098471799758226e-02	 2.011870713019012e+01
 1.222452995182067e+00	 5.131175327039364e-02	 2.010595765436270e+01
 1.221974274692817e+00	 6.166922605524246e-02	 2.009041857185251e+01
 1.221405801921752e+00	 7.205614814276565e-02	 2.007192672217417e+01
 1.220746767897495e+00	 8.247151096655500e-02	 2.005032157847333e+01
 1.219996375801125e+00	 9.291428569067792e-02	 2.002544604278705e+01
 1.219153841497311e+00	 1.033834233116525e-01	 1.999714719967107e+01
 1.229411764705883e+00	 0.000000000000000e+00	 1.998568348239781e+01
 1.229369078282655e+00	 1.024483087659067e-02	 1.998238896732934e+01
 1.229240437076478e+00	 2.052401162691665e-02	 1.997712473879971e+01
 1.229024975068499e+00	 3.083663170819396e-02	 1.996971411734550e+01
 1.228721835830984e+00	 4.118175991103217e-02	 1.995998004190406e+01
 1.228330173043519e+00	 5.155844439188592e-02	 1.994774602131072e+01
 1.227849151013455e+00	 6.196571271896958e-02	 1.993283705974769e+01
 1.227277945200221e+00	 7.240257193191355e-02	 1.991508055222722e+01
 1.226615742743157e+00	 8.286800861543270e-02	 1.989430714609925e+01
 1.225861742992477e+00	 9.336098898726770e-02	 1.987035156448287e+01
 1.225015158042972e+00	 1.038804590006509e-01	 1.984305338743329e+01
 1.235294117647059e+00	 0.000000000000000e+00	 1.982954783420091e+01
 1.235251226982571e+00	 1.029384920614374e-02	 1.982620546613767e+01
 1.235121970268231e+00	 2.062221263948563e-02	 1.982105401703569e+01
 1.234905477341555e+00	 3.098417540057767e-02	 1.981390500600745e+01
 1.234600887677065e+00	 4.137880182448209e-02	 1.980457006911674e+01
 1.234207350904971e+00	 5.180513551337820e-02	 1.979286194101780e+01
 1.233724027334093e+00	 6.226219938269669e-02	 1.977859541013354e+01
 1.233150088478691e+00	 7.274899572106146e-02	 1.976158824340997e+01
 1.232484717588817e+00	 8.326450626431034e-02	 1.974166207658812e+01
 1.231727110183827e+00	 9.380769228385748e-02	 1.971864326584230e+01
 1.230876474588632e+00	 1.043774946896492e-01	 1.969236369654230e+01
 1.172263309132030e+00	 9.940713779966590e-02	 2.137101403225467e+01
 1.171363840449798e+00	 1.094979372837673e-01	 2.133104247982931e+01
 1.170374304179537e+00	 1.196120106802178e-01	 2.128708341063470e+01
 1.169293986016832e+00	 1.297482918869001e-01	 2.123910752037056e+01
 1.168122185914091e+00	 1.399056959454671e-01	 2.118708430730491e+01
 1.166858218598241e+00	 1.500831192121214e-01	 2.113098252439387e+01
 1.165501414088511e+00	 1.602794395435024e-01	 2.107077061416462e+01
 1.164051118213844e+00	 1.704935164978373e-01	 2.100641712228841e+01
 1.162506693129445e+00	 1.807241915514982e-01	 2.093789108576085e+01
 1.160867517832004e+00	 1.909702883310929e-01	 2.086516239162184e+01
 1.159132988673088e+00	 2.012306128611993e-01	 2.078820210219055e+01
 1.178124625677690e+00	 9.990417348866423e-02	 2.118498876161270e+01
 1.177220659652047e+00	 1.100454269701861e-01	 2.114649632077712e+01
 1.176226175700434e+00	 1.202100707336189e-01	 2.110428408363008e+01
 1.175140455946916e+00	 1.303970333463346e-01	 2.105824168194574e+01
 1.173962796843661e+00	 1.406052244251944e-01	 2.100829354103058e+01
 1.172692509691232e+00	 1.508335348081820e-01	 2.095440599795934e+01
 1.171328921158954e+00	 1.610808367412200e-01	 2.089654589396732e+01
 1.169871373804914e+00	 1.713459840803265e-01	 2.083468102213776e+01
 1.168319226595091e+00	 1.816278125092556e-01	 2.076878054793403e+01
 1.166671855421164e+00	 1.919251397727484e-01	 2.069881539831387e+01
 1.164928653616453e+00	 2.022367659255053e-01	 2.062475861520921e+01
 1.183985942223350e+00	 1.004012091776625e-01	 2.100241013391408e+01
 1.183077478854296e+00	 1.105929166566049e-01	 2.096480530422244e+01
 1.182078047221332e+00	 1.208081307870200e-01	 2.092356064955841e+01
 1.180986925877000e+00	 1.310457748057691e-01	 2.087868292233125e+01
 1.179803407773232e+00	 1.413047529049217e-01	 2.083018325376552e+01
 1.178526800784223e+00	 1.515839504042426e-01	 2.077807741878343e+01
 1.177156428229397e+00	 1.618822339389375e-01	 2.072238603478018e+01
 1.175691629395983e+00	 1.721984516628157e-01	 2.066308941176548e+01
 1.174131760060739e+00	 1.825314334670132e-01	 2.059994666277223e+01
 1.172476193010324e+00	 1.928799912144038e-01	 2.053289494694724e+01
 1.170724318559819e+00	 2.032429189898113e-01	 2.046190956947103e+01
 1.189847258769011e+00	 1.008982448666609e-01	 2.082441624017635e+01
 1.188934298056545e+00	 1.111404063430237e-01	 2.078773643272910e+01
 1.187929918742230e+00	 1.214061908404211e-01	 2.074750046284787e+01
 1.186833395807084e+00	 1.316945162652036e-01	 2.070371385055330e+01
 1.185644018702802e+00	 1.420042813846490e-01	 2.065638756120494e+01
 1.184361091877214e+00	 1.523343660003032e-01	 2.060553829468855e+01
 1.182983935299839e+00	 1.626836311366550e-01	 2.055118870698552e+01
 1.181511884987052e+00	 1.730509192453049e-01	 2.049336755991331e+01
 1.179944293526386e+00	 1.834350544247706e-01	 2.043210979481086e+01
 1.178280530599485e+00	 1.938348426560594e-01	 2.036745652594272e+01
 1.176519983503184e+00	 2.042490720541172e-01	 2.029945494940321e+01
 1.195708575314670e+00	 1.013952805556592e-01	 2.065083114061340e+01
 1.194791117258794e+00	 1.116878960294426e-01	 2.061511104235040e+01
 1.193781790263127e+00	 1.220042508938221e-01	 2.057592544477617e+01
 1.192679865737168e+00	 1.323432577246380e-01	 2.053327934368475e+01
 1.191484629632372e+00	 1.427038098643764e-01	 2.048718420467994e+01
 1.190195382970205e+00	 1.530847815963639e-01	 2.043765827477046e+01
 1.188811442370282e+00	 1.634850283343725e-01	 2.038472682486211e+01
 1.187332140578121e+00	 1.739033868277940e-01	 2.032842231884349e+01
 1.185756826992033e+00	 1.843386753825281e-01	 2.026878450494360e+01
 1.184084868188644e+00	 1.947896940977148e-01	 2.020586042503648e+01
 1.182315648446550e+00	 2.052552251184233e-01	 2.013970433757158e+01
 1.201569891860331e+00	 1.018923162446575e-01	 2.048148142931442e+01
 1.200647936461043e+00	 1.122353857158614e-01	 2.044675301034889e+01
 1.199633661784025e+00	 1.226023109472232e-01	 2.040865562607327e+01
 1.198526335667253e+00	 1.329919991840726e-01	 2.036719444270477e+01
 1.197325240561943e+00	 1.434033383441038e-01	 2.032238207908118e+01
 1.196029674063197e+00	 1.538351971924244e-01	 2.027423893878280e+01
 1.194638949440725e+00	 1.642864255320900e-01	 2.022279347169324e+01
 1.193152396169190e+00	 1.747558544102832e-01	 2.016808236060539e+01
 1.191569360457680e+00	 1.852422963402856e-01	 2.011015062846115e+01
 1.189889205777804e+00	 1.957445455393702e-01	 2.004905166180384e+01
 1.188111313389915e+00	 2.062613781827292e-01	 1.998484714602474e+01
 1.207431208405991e+00	 1.023893519336559e-01	 2.031619616813931e+01
 1.206504755663292e+00	 1.127828754022803e-01	 2.028248868897979e+01
 1.205485533304923e+00	 1.232003710006244e-01	 2.024551354176013e+01
 1.204372805597337e+00	 1.336407406435071e-01	 2.020527674453940e+01
 1.203165851491514e+00	 1.441028668238311e-01	 2.016179270952442e+01
 1.201863965156188e+00	 1.545856127884850e-01	 2.011508459385281e+01
 1.200466456511167e+00	 1.650878227298075e-01	 2.006518457838271e+01
 1.198972651760260e+00	 1.756083219927723e-01	 2.001213407001246e+01
 1.197381893923328e+00	 1.861459172980432e-01	 1.995598382302989e+01
 1.195693543366965e+00	 1.966993969810257e-01	 1.989679397497929e+01
 1.193906978333281e+00	 2.072675312470353e-01	 1.983463399253264e+01
 1.213292524951652e+00	 1.028863876226542e-01	 2.015480682260157e+01
 1.212361574865541e+00	 1.133303650886991e-01	 2.012214684128073e+01
 1.211337404825821e+00	 1.237984310540255e-01	 2.008632416641191e+01
 1.210219275527421e+00	 1.342894821029416e-01	 2.004734633635917e+01
 1.209006462421084e+00	 1.448023953035584e-01	 2.000523018423709e+01
 1.207698256249179e+00	 1.553360283845456e-01	 1.996000220550300e+01
 1.206293963581610e+00	 1.658892199275250e-01	 1.991169885215295e+01
 1.204792907351329e+00	 1.764607895752616e-01	 1.986036674896407e+01
 1.203194427388975e+00	 1.870495382558006e-01	 1.980606282719838e+01
 1.201497880956125e+00	 1.976542484226812e-01	 1.974885437116983e+01
 1.199702643276646e+00	 2.082736843113412e-01	 1.968881897306881e+01
 1.219153841497311e+00	 1.033834233116525e-01	 1.999714719967107e+01
 1.218218394067789e+00	 1.138778547751179e-01	 1.996555857879939e+01
 1.217189276346718e+00	 1.243964911074265e-01	 1.993091485139133e+01
 1.216065745457505e+00	 1.349382235623761e-01	 1.989322573189288e+01
 1.214847073350655e+00	 1.455019237832857e-01	 1.985251108952003e+01
 1.213532547342170e+00	 1.560864439806063e-01	 1.980880133082367e+01
 1.212121470652052e+00	 1.666906171252426e-01	 1.976213770748399e+01
 1.210613162942398e+00	 1.773132571577507e-01	 1.971257254470004e+01
 1.209006960854623e+00	 1.879531592135581e-01	 1.966016938551118e+01
 1.207302218545284e+00	 1.986090998643367e-01	 1.960500304636696e+01
 1.205498308220012e+00	 2.092798373756473e-01	 1.954715957925273e+01
 1.225015158042972e+00	 1.038804590006509e-01	 1.984305338743329e+01
 1.224075213270039e+00	 1.144253444615368e-01	 1.981255730119397e+01
 1.223041147867616e+00	 1.249945511608276e-01	 1.977911526398605e+01
 1.221912215387590e+00	 1.355869650218106e-01	 1.974273980968944e+01
 1.220687684280225e+00	 1.462014522630131e-01	 1.970345444671626e+01
 1.219366838435162e+00	 1.568368595766668e-01	 1.966129405372453e+01
 1.217948977722495e+00	 1.674920143229600e-01	 1.961630519921738e+01
 1.216433418533468e+00	 1.781657247402400e-01	 1.956854638032157e+01
 1.214819494320270e+00	 1.888567801713156e-01	 1.951808817600499e+01
 1.213106556134445e+00	 1.995639513059921e-01	 1.946501330997032e+01
 1.211293973163377e+00	 2.102859904399533e-01	 1.940941661844891e+01
 1.230876474588632e+00	 1.043774946896492e-01	 1.969236369654230e+01
 1.229932032472288e+00	 1.149728341479556e-01	 1.966297863764480e+01
 1.228893019388514e+00	 1.255926112142287e-01	 1.963075732838602e+01
 1.227758685317674e+00	 1.362357064812451e-01	 1.959571575326341e+01
 1.226528295209795e+00	 1.469009807427404e-01	 1.955788165111980e+01
 1.225201129528152e+00	 1.575872751727274e-01	 1.951729492219559e+01
 1.223776484792937e+00	 1.682934115206776e-01	 1.947400795775379e+01
 1.222253674124537e+00	 1.790181923227291e-01	 1.942808588750311e+01
 1.220632027785917e+00	 1.897604011290731e-01	 1.937960674000701e+01
 1.218910893723604e+00	 2.005188027476475e-01	 1.932866151123982e+01
 1.217089638106743e+00	 2.112921435042592e-01	 1.927535413643417e+01
 1.159132988673088e+00	 2.012306128611993e-01	 2.078820210219055e+01
 1.157302519870189e+00	 2.115039538278390e-01	 2.070709724557939e+01
 1.155375544014936e+00	 2.217890828577673e-01	 2.062195343932155e+01
 1.153351512577927e+00	 2.320847548136409e-01	 2.053276573346577e+01
 1.151229896409671e+00	 2.423897081051049e-01	 2.043952252967319e+01
 1.149010186237093e+00	 2.527026650158223e-01	 2.034220549054685e+01
 1.146691893155064e+00	 2.630223320464536e-01	 2.024078940132990e+01
 1.144274549112398e+00	 2.733474002735658e-01	 2.013524198152555e+01
 1.141757707391785e+00	 2.836765457244443e-01	 2.002552364426870e+01
 1.139140943083078e+00	 2.940084297677447e-01	 1.991158720158656e+01
 1.136423853549384e+00	 3.043416995199113e-01	 1.979337751401888e+01
 1.164928653616453e+00	 2.022367659255053e-01	 2.062475861520921e+01
 1.163089032469541e+00	 2.125614735969782e-01	 2.054662803459128e+01
 1.161152421735010e+00	 2.228980282720562e-01	 2.046446335894391e+01
 1.159118270140816e+00	 2.332451785877091e-01	 2.037826720093343e+01
 1.156986045891719e+00	 2.436016566456304e-01	 2.028803544604841e+01
 1.154755237168279e+00	 2.539661783409015e-01	 2.019375715025866e+01
 1.152425352620839e+00	 2.643374437066858e-01	 2.009541438775204e+01
 1.149995921857960e+00	 2.747141372749336e-01	 1.999298204621020e+01
 1.147466495928744e+00	 2.850949284530666e-01	 1.988642756737085e+01
 1.144836647798493e+00	 2.954784719165832e-01	 1.977571063094273e+01
 1.142105972817131e+00	 3.058634080175108e-01	 1.966078278028434e+01
 1.170724318559819e+00	 2.032429189898113e-01	 2.046190956947103e+01
 1.168875545068891e+00	 2.136189933661174e-01	 2.038693109167255e+01
 1.166929299455086e+00	 2.240069736863450e-01	 2.030792337814606e+01
 1.164885027703706e+00	 2.344056023617774e-01	 2.022489419546014e+01
 1.162742195373767e+00	 2.448136051861559e-01	 2.013784465265995e+01
 1.160500288099464e+00	 2.552296916659806e-01	 2.004676909311323e+01
 1.158158812086615e+00	 2.656525553669181e-01	 1.995165493400762e+01
 1.155717294603522e+00	 2.760808742763016e-01	 1.985248245085420e+01
 1.153175284465703e+00	 2.865133111816889e-01	 1.974922450464981e+01
 1.150532352513909e+00	 2.969485140654221e-01	 1.964184620967894e+01
 1.147788092084878e+00	 3.073851165151104e-01	 1.953030454029428e+01
 1.176519983503184e+00	 2.042490720541172e-01	 2.029945494940320e+01
 1.174662057668242e+00	 2.146765131352565e-01	 2.022779327057938e+01
 1.172706177175160e+00	 2.251159191006338e-01	 2.015210968916336e+01
 1.170651785266595e+00	 2.355660261358455e-01	 2.007241457766162e+01
 1.168498344855816e+00	 2.460255537266814e-01	 1.998871204818167e+01
 1.166245339030650e+00	 2.564932049910598e-01	 1.990099966453887e+01
 1.163892271552390e+00	 2.669676670271503e-01	 1.980926827919679e+01
 1.161438667349084e+00	 2.774476112776693e-01	 1.971350181253076e+01
 1.158884073002662e+00	 2.879316939103111e-01	 1.961367697195798e+01
 1.156228057229324e+00	 2.984185562142607e-01	 1.950976290881680e+01
 1.153470211352624e+00	 3.089068250127099e-01	 1.940172081124804e+01
 1.182315648446550e+00	 2.052552251184233e-01	 2.013970433757157e+01
 1.180448570267593e+00	 2.157340329043957e-01	 2.007016075579120e+01
 1.178483054895235e+00	 2.262248645149227e-01	 1.999709642837782e+01
 1.176418542829485e+00	 2.367264499099138e-01	 1.992060007628793e+01
 1.174254494337864e+00	 2.472375022672069e-01	 1.984040340198039e+01
 1.171990389961835e+00	 2.577567183161388e-01	 1.975621103067680e+01
 1.169625731018165e+00	 2.682827786873825e-01	 1.966801537995513e+01
 1.167160040094646e+00	 2.788143482790372e-01	 1.957580230885042e+01
 1.164592861539621e+00	 2.893500766389334e-01	 1.947955083428016e+01
 1.161923761944740e+00	 2.998885983630994e-01	 1.937923278214925e+01
 1.159152330620371e+00	 3.104285335103095e-01	 1.927481237128870e+01
 1.188111313389915e+00	 2.062613781827292e-01	 1.998484714602474e+01
 1.186235082866944e+00	 2.167915526735349e-01	 1.991729533388884e+01
 1.184259932615309e+00	 2.273338099292115e-01	 1.984617315572350e+01
 1.182185300392375e+00	 2.378868736839820e-01	 1.977157304548232e+01
 1.180010643819913e+00	 2.484494508077325e-01	 1.969358230353961e+01
 1.177735440893021e+00	 2.590202316412179e-01	 1.961228227488539e+01
 1.175359190483940e+00	 2.695978903476148e-01	 1.952766078833219e+01
 1.172881412840208e+00	 2.801810852804050e-01	 1.943914955720590e+01
 1.170301650076580e+00	 2.907684593675555e-01	 1.934661518758007e+01
 1.167619466660155e+00	 3.013586405119382e-01	 1.925003085194032e+01
 1.164834449888118e+00	 3.119502420079092e-01	 1.914936265032197e+01
 1.193906978333281e+00	 2.072675312470353e-01	 1.983463399253264e+01
 1.192021595466295e+00	 2.178490724426741e-01	 1.976917481435745e+01
 1.190036810335384e+00	 2.284427553435003e-01	 1.970010078650989e+01
 1.187952057955265e+00	 2.390472974580501e-01	 1.962750570804758e+01
 1.185766793301961e+00	 2.496613993482579e-01	 1.955147920153954e+01
 1.183480491824206e+00	 2.602837449662971e-01	 1.947210590109140e+01
 1.181092649949716e+00	 2.709130020078471e-01	 1.938946453538738e+01
 1.178602785585770e+00	 2.815478222817727e-01	 1.930362690225938e+01
 1.176010438613539e+00	 2.921868420961777e-01	 1.921464224383501e+01
 1.173315171375571e+00	 3.028286826607769e-01	 1.912193499768069e+01
 1.170516569155865e+00	 3.134719505055087e-01	 1.902515762372152e+01
 1.199702643276646e+00	 2.082736843113412e-01	 1.968881897306881e+01
 1.197808108065646e+00	 2.189065922118133e-01	 1.962554085027968e+01
 1.195813688055459e+00	 2.295517007577892e-01	 1.955861067625342e+01
 1.193718815518154e+00	 2.402077212321183e-01	 1.948812149880210e+01
 1.191522942784009e+00	 2.508733478887835e-01	 1.941416328522416e+01
 1.189225542755392e+00	 2.615472582913762e-01	 1.933682212579026e+01
 1.186826109415491e+00	 2.722281136680793e-01	 1.925617933012263e+01
 1.184324158331332e+00	 2.829145592831407e-01	 1.917231041284218e+01
 1.181719227150498e+00	 2.936052248247999e-01	 1.908528396497773e+01
 1.179010876090986e+00	 3.042987248096156e-01	 1.899516040777237e+01
 1.176198688423613e+00	 3.149936590031082e-01	 1.890198570882314e+01
 1.205498308220012e+00	 2.092798373756473e-01	 1.954715957925272e+01
 1.203594620664997e+00	 2.199641119809525e-01	 1.948613868779262e+01
 1.201590565775534e+00	 2.306606461720780e-01	 1.942143792974378e+01
 1.199485573081044e+00	 2.413681450061866e-01	 1.935314752061951e+01
 1.197279092266057e+00	 2.520852964293090e-01	 1.928135582905957e+01
 1.194970593686577e+00	 2.628107716164553e-01	 1.920614860137360e+01
 1.192559568881266e+00	 2.735432253283117e-01	 1.912760807680640e+01
 1.190045531076894e+00	 2.842812962845084e-01	 1.904581198975229e+01
 1.187428015687457e+00	 2.950236075534222e-01	 1.896083245526015e+01
 1.184706580806401e+00	 3.057687669584544e-01	 1.887273473430884e+01
 1.181880807691359e+00	 3.165153675007077e-01	 1.878157587548972e+01
 1.211293973163377e+00	 2.102859904399533e-01	 1.940941661844891e+01
 1.209381133264348e+00	 2.210216317500918e-01	 1.935071708256576e+01
 1.207367443495609e+00	 2.317695915863668e-01	 1.928832131497626e+01
 1.205252330643933e+00	 2.425285687802548e-01	 1.922231465237472e+01
 1.203035241748106e+00	 2.532972449698345e-01	 1.915278195468125e+01
 1.200715644617763e+00	 2.640742849415344e-01	 1.907980685620671e+01
 1.198293028347042e+00	 2.748583369885439e-01	 1.900347090532175e+01
 1.195766903822457e+00	 2.856480332858763e-01	 1.892385258869772e+01
 1.193136804224416e+00	 2.964419902820445e-01	 1.884102623629926e+01
 1.190402285521817e+00	 3.072388091072931e-01	 1.875506080343820e+01
 1.187562926959106e+00	 3.180370759983073e-01	 1.866601852635560e+01
 1.217089638106743e+00	 2.112921435042592e-01	 1.927535413643417e+01
 1.215167645863699e+00	 2.220791515192309e-01	 1.921902821898013e+01
 1.213144321215683e+00	 2.328785370006556e-01	 1.915900317988829e+01
 1.211019088206823e+00	 2.436889925543229e-01	 1.909535746429860e+01
 1.208791391230154e+00	 2.545091935103601e-01	 1.902817054594204e+01
 1.206460695548948e+00	 2.653377982666135e-01	 1.895752221045923e+01
 1.204026487812817e+00	 2.761734486487761e-01	 1.888349172496030e+01
 1.201488276568018e+00	 2.870147702872441e-01	 1.880615688972446e+01
 1.198845592761375e+00	 2.978603730106666e-01	 1.872559296804364e+01
 1.196097990237232e+00	 3.087088512561317e-01	 1.864187149034165e+01
 1.193245046226853e+00	 3.195587844959068e-01	 1.855505892884980e+01
 1.136423853549384e+00	 3.043416995199113e-01	 1.979337751401889e+01
 1.133606058885402e+00	 3.146749882672696e-01	 1.967146444190626e+01
 1.130687202367431e+00	 3.250069159036644e-01	 1.954642032914588e+01
 1.127666950894488e+00	 3.353360893835129e-01	 1.941817946553491e+01
 1.124544995419970e+00	 3.456611031901036e-01	 1.928666484990765e+01
 1.121321051373291e+00	 3.559805398189584e-01	 1.915178751936708e+01
 1.117994859070938e+00	 3.662929702760517e-01	 1.901344582321671e+01
 1.114566184116377e+00	 3.765969545906550e-01	 1.887152464315125e+01
 1.111034817788260e+00	 3.868910423425524e-01	 1.872589456177341e+01
 1.107400577416369e+00	 3.971737732033575e-01	 1.857641098201651e+01
 1.103663306744769e+00	 4.074436774916261e-01	 1.842291320058414e+01
 1.142105972817131e+00	 3.058634080175108e-01	 1.966078278028434e+01
 1.139274089179829e+00	 3.162483632086060e-01	 1.954221628335318e+01
 1.136340638379268e+00	 3.266319504831827e-01	 1.942059559966662e+01
 1.133305285648960e+00	 3.370127698304305e-01	 1.929587620811428e+01
 1.130167720397069e+00	 3.473894087060540e-01	 1.916800238950021e+01
 1.126927656630157e+00	 3.577604425180532e-01	 1.903690650464393e+01
 1.123584833366293e+00	 3.681244351274321e-01	 1.890250821373869e+01
 1.120139015036959e+00	 3.784799393636082e-01	 1.876471363858061e+01
 1.116589991877201e+00	 3.888254975542650e-01	 1.862341446980444e+01
 1.112937580303451e+00	 3.991596420693743e-01	 1.847848702180234e+01
 1.109181623278493e+00	 4.094808958790844e-01	 1.832979123854374e+01
 1.147788092084878e+00	 3.073851165151104e-01	 1.953030454029429e+01
 1.144942119474256e+00	 3.178217381499423e-01	 1.941517445896912e+01
 1.141994074391105e+00	 3.282569850627011e-01	 1.929705252513823e+01
 1.138943620403433e+00	 3.386894502773481e-01	 1.917591384785215e+01
 1.135790445374169e+00	 3.491177142220045e-01	 1.905172244294140e+01
 1.132534261887023e+00	 3.595403452171479e-01	 1.892443046175096e+01
 1.129174807661647e+00	 3.699558999788122e-01	 1.879397735764192e+01
 1.125711845957541e+00	 3.803629241365615e-01	 1.866028899192252e+01
 1.122145165966143e+00	 3.907599527659779e-01	 1.852327668141406e+01
 1.118474583190533e+00	 4.011455109353909e-01	 1.838283619041744e+01
 1.114699939812217e+00	 4.115181142665424e-01	 1.823884667040843e+01
 1.153470211352624e+00	 3.089068250127099e-01	 1.940172081124804e+01
 1.150610149768682e+00	 3.193951130912785e-01	 1.929012733263850e+01
 1.147647510402942e+00	 3.298820196422193e-01	 1.917558982768199e+01
 1.144581955157905e+00	 3.403661307242656e-01	 1.905810151337479e+01
 1.141413170351269e+00	 3.508460197379552e-01	 1.893764463103120e+01
 1.138140867143890e+00	 3.613202479162427e-01	 1.881418962738684e+01
 1.134764781957002e+00	 3.717873648301925e-01	 1.868769426992717e+01
 1.131284676878124e+00	 3.822459089095148e-01	 1.855810269814947e+01
 1.127700340055084e+00	 3.926944079776907e-01	 1.842534441303098e+01
 1.124011586077615e+00	 4.031313798014078e-01	 1.828933320755563e+01
 1.120218256345941e+00	 4.135553326540006e-01	 1.814996604173525e+01
 1.159152330620371e+00	 3.104285335103095e-01	 1.927481237128870e+01
 1.156278180063110e+00	 3.209684880326149e-01	 1.916686567738749e+01
 1.153300946414779e+00	 3.315070542217377e-01	 1.905600828226552e+01
 1.150220289912378e+00	 3.420428111711832e-01	 1.894225002487230e+01
 1.147035895328369e+00	 3.525743252539058e-01	 1.882558989937709e+01
 1.143747472400757e+00	 3.631001506153375e-01	 1.870601519034615e+01
 1.140354756252356e+00	 3.736188296815728e-01	 1.858350053854956e+01
 1.136857507798706e+00	 3.841288936824681e-01	 1.845800693914798e+01
 1.133255514144025e+00	 3.946288631894034e-01	 1.832948067459767e+01
 1.129548588964696e+00	 4.051172486674245e-01	 1.819785218520905e+01
 1.125736572879664e+00	 4.155925510414588e-01	 1.806303488090291e+01
 1.164834449888118e+00	 3.119502420079092e-01	 1.914936265032197e+01
 1.161946210357537e+00	 3.225418629739514e-01	 1.904518257196858e+01
 1.158954382426616e+00	 3.331320888012561e-01	 1.893811061908094e+01
 1.155858624666850e+00	 3.437194916181007e-01	 1.882817180231441e+01
 1.152658620305469e+00	 3.543026307698562e-01	 1.871538043250582e+01
 1.149354077657623e+00	 3.648800533144322e-01	 1.859973921160118e+01
 1.145944730547711e+00	 3.754502945329531e-01	 1.848123825055941e+01
 1.142430338719287e+00	 3.860118784554214e-01	 1.835985401602376e+01
 1.138810688232966e+00	 3.965633184011161e-01	 1.823554820816040e+01
 1.135085591851778e+00	 4.071031175334414e-01	 1.810826657268110e+01
 1.131254889413388e+00	 4.176297694289168e-01	 1.797793765069921e+01
 1.170516569155865e+00	 3.134719505055087e-01	 1.902515762372152e+01
 1.167614240651964e+00	 3.241152379152876e-01	 1.892487330014274e+01
 1.164607818438454e+00	 3.347571233807743e-01	 1.882170142843082e+01
 1.161496959421323e+00	 3.453961720650184e-01	 1.871568077598114e+01
 1.158281345282569e+00	 3.560309362858066e-01	 1.860683957009528e+01
 1.154960682914489e+00	 3.666599560135270e-01	 1.849519454630590e+01
 1.151534704843066e+00	 3.772817593843333e-01	 1.838074991996495e+01
 1.148003169639869e+00	 3.878948632283747e-01	 1.826349628292483e+01
 1.144365862321908e+00	 3.984977736128290e-01	 1.814340942776970e+01
 1.140622594738860e+00	 4.090889863994581e-01	 1.802044910269506e+01
 1.136773205947112e+00	 4.196669878163749e-01	 1.789455770078643e+01
 1.176198688423613e+00	 3.149936590031082e-01	 1.890198570882314e+01
 1.173282270946391e+00	 3.256886128566241e-01	 1.880573525256814e+01
 1.170261254450291e+00	 3.363821579602926e-01	 1.870658706803623e+01
 1.167135294175795e+00	 3.470728525119359e-01	 1.860459229922990e+01
 1.163904070259669e+00	 3.577592418017572e-01	 1.849979172525431e+01
 1.160567288171356e+00	 3.684398587126218e-01	 1.839221476765731e+01
 1.157124679138421e+00	 3.791132242357136e-01	 1.828187841725851e+01
 1.153576000560451e+00	 3.897778480013278e-01	 1.816878608233004e+01
 1.149921036410849e+00	 4.004322288245417e-01	 1.805292636064429e+01
 1.146159597625942e+00	 4.110748552654749e-01	 1.793427173856232e+01
 1.142291522480836e+00	 4.217042062038329e-01	 1.781277722101567e+01
 1.181880807691359e+00	 3.165153675007077e-01	 1.878157587548973e+01
 1.178950301240818e+00	 3.272619877979602e-01	 1.868796958354579e+01
 1.175914690462128e+00	 3.380071925398110e-01	 1.859257557268526e+01
 1.172773628930267e+00	 3.487495329588536e-01	 1.849472306342347e+01
 1.169526795236769e+00	 3.594875473177077e-01	 1.839406230478195e+01
 1.166173893428222e+00	 3.702197614117167e-01	 1.829063409255209e+01
 1.162714653433776e+00	 3.809446890870938e-01	 1.818446690055006e+01
 1.159148831481033e+00	 3.916608327742812e-01	 1.807557568175505e+01
 1.155476210499791e+00	 4.023666840362544e-01	 1.796396058955813e+01
 1.151696600513023e+00	 4.130607241314916e-01	 1.784960562237361e+01
 1.147809839014560e+00	 4.237414245912911e-01	 1.773247719556164e+01
 1.187562926959106e+00	 3.180370759983073e-01	 1.866601852635560e+01
 1.184618331535245e+00	 3.288353627392968e-01	 1.857449089421864e+01
 1.181568126473965e+00	 3.396322271193294e-01	 1.848114289280978e+01
 1.178411963684740e+00	 3.504262134057710e-01	 1.838612903980203e+01
 1.175149520213869e+00	 3.612158528336582e-01	 1.828947763133973e+01
 1.171780498685089e+00	 3.719996641108114e-01	 1.819028730897719e+01
 1.168304627729130e+00	 3.827761539384740e-01	 1.808835874825468e+01
 1.164721662401615e+00	 3.935438175472344e-01	 1.798371721182702e+01
 1.161031384588732e+00	 4.043011392479672e-01	 1.787637319640851e+01
 1.157233603400106e+00	 4.150465929975086e-01	 1.776632102418006e+01
 1.153328155548284e+00	 4.257786429787494e-01	 1.765353735784972e+01
 1.193245046226853e+00	 3.195587844959068e-01	 1.855505892884980e+01
 1.190286361829672e+00	 3.304087376806330e-01	 1.846571523063903e+01
 1.187221562485802e+00	 3.412572616988477e-01	 1.837448112690462e+01
 1.184050298439213e+00	 3.521028938526887e-01	 1.828152793626692e+01
 1.180772245190968e+00	 3.629441583496087e-01	 1.818700967758873e+01
 1.177387103941955e+00	 3.737795668099063e-01	 1.809106078400184e+01
 1.173894602024485e+00	 3.846076187898543e-01	 1.799339749328168e+01
 1.170294493322196e+00	 3.954268023201876e-01	 1.789306260568349e+01
 1.166586558677673e+00	 4.062355944596799e-01	 1.779002470692566e+01
 1.162770606287187e+00	 4.170324618635253e-01	 1.768428729212993e+01
 1.158846472082008e+00	 4.278158613662075e-01	 1.757583614624953e+01
 1.103663306744769e+00	 4.074436774916261e-01	 1.842291320058413e+01
 1.099822876281616e+00	 4.176992767414511e-01	 1.826676800449711e+01
 1.095879183635089e+00	 4.279390842841874e-01	 1.810902907625681e+01
 1.091832153834932e+00	 4.381616058429503e-01	 1.794902073570934e+01
 1.087681739639081e+00	 4.483653401394904e-01	 1.778602308259117e+01
 1.083427921824890e+00	 4.585487795130404e-01	 1.761927117152162e+01
 1.079070709464443e+00	 4.687104105506968e-01	 1.744795420669630e+01
 1.074610140183496e+00	 4.788487147288862e-01	 1.727121476314036e+01
 1.070046280403572e+00	 4.889621690654384e-01	 1.708814804177561e+01
 1.065379225566767e+00	 4.990492467817726e-01	 1.689780116592980e+01
 1.060609100342826e+00	 5.091084179746788e-01	 1.669917252725804e+01
 1.109181623278493e+00	 4.094808958790844e-01	 1.832979123854375e+01
 1.105321990663025e+00	 4.197877731251582e-01	 1.817856032419346e+01
 1.101358579553265e+00	 4.300787797056084e-01	 1.802568165412693e+01
 1.097291314604106e+00	 4.403524138721648e-01	 1.787044987270511e+01
 1.093120148337277e+00	 4.506071668401879e-01	 1.771211405882448e+01
 1.088845061434015e+00	 4.608415234106056e-01	 1.754987687931186e+01
 1.084466063011765e+00	 4.710539626034503e-01	 1.738289376202826e+01
 1.079983190884414e+00	 4.812429583025306e-01	 1.721027209573026e+01
 1.075396511805590e+00	 4.914069799107658e-01	 1.703107046414754e+01
 1.070706121694601e+00	 5.015444930156815e-01	 1.684429792212251e+01
 1.065912145844541e+00	 5.116539600645521e-01	 1.664891332201148e+01
 1.114699939812217e+00	 4.115181142665424e-01	 1.823884667040843e+01
 1.110821105044433e+00	 4.218762695088656e-01	 1.809240396768061e+01
 1.106837975471440e+00	 4.322184751270293e-01	 1.794423118978440e+01
 1.102750475373281e+00	 4.425432219013797e-01	 1.779360062089832e+01
 1.098558557035472e+00	 4.528489935408854e-01	 1.763973764793567e+01
 1.094262201043139e+00	 4.631342673081708e-01	 1.748181988179837e+01
 1.089861416559087e+00	 4.733975146562039e-01	 1.731897629813870e+01
 1.085356241585331e+00	 4.836372018761751e-01	 1.715028640488308e+01
 1.080746743207608e+00	 4.938517907560928e-01	 1.697477944420064e+01
 1.076033017822435e+00	 5.040397392495903e-01	 1.679143363699812e+01
 1.071215191346254e+00	 5.141995021544254e-01	 1.659917547839234e+01
 1.120218256345941e+00	 4.135553326540006e-01	 1.814996604173525e+01
 1.116320219425841e+00	 4.239647658925728e-01	 1.800819723585170e+01
 1.112317371389616e+00	 4.343581705484503e-01	 1.786458718923835e+01
 1.108209636142456e+00	 4.447340299305945e-01	 1.771839305254122e+01
 1.103996965733667e+00	 4.550908202415828e-01	 1.756882376104569e+01
 1.099679340652263e+00	 4.654270112057359e-01	 1.741503911328887e+01
 1.095256770106410e+00	 4.757410667089574e-01	 1.725614886876812e+01
 1.090729292286248e+00	 4.860314454498195e-01	 1.709121187222378e+01
 1.086096974609626e+00	 4.962966016014201e-01	 1.691923521241928e+01
 1.081359913950269e+00	 5.065349854834992e-01	 1.673917342375649e+01
 1.076518236847968e+00	 5.167450442442988e-01	 1.654992773944742e+01
 1.125736572879664e+00	 4.155925510414588e-01	 1.806303488090292e+01
 1.121819333807249e+00	 4.260532622762801e-01	 1.792583700276005e+01
 1.117796767307791e+00	 4.364978659698713e-01	 1.778665733160037e+01
 1.113668796911631e+00	 4.469248379598094e-01	 1.764474502467059e+01
 1.109435374431863e+00	 4.573326469422803e-01	 1.749929971962737e+01
 1.105096480261388e+00	 4.677197551033012e-01	 1.734947056004940e+01
 1.100652123653732e+00	 4.780846187617108e-01	 1.719435523942211e+01
 1.096102342987166e+00	 4.884256890234641e-01	 1.703299907131426e+01
 1.091447206011644e+00	 4.987414124467471e-01	 1.686439409392906e+01
 1.086686810078102e+00	 5.090302317174080e-01	 1.668747821764288e+01
 1.081821282349683e+00	 5.192905863341721e-01	 1.650113442454112e+01
 1.131254889413388e+00	 4.176297694289168e-01	 1.797793765069921e+01
 1.127318448188657e+00	 4.281417586599873e-01	 1.784521867374151e+01
 1.123276163225967e+00	 4.386375613912922e-01	 1.771034743346963e+01
 1.119127957680805e+00	 4.491156459890241e-01	 1.757257214943624e+01
 1.114873783130058e+00	 4.595744736429777e-01	 1.743109023141193e+01
 1.110513619870512e+00	 4.700124990008664e-01	 1.728504724137749e+01
 1.106047477201054e+00	 4.804281708144643e-01	 1.713353587315209e+01
 1.101475393688083e+00	 4.908199325971083e-01	 1.697559495763674e+01
 1.096797437413662e+00	 5.011862232920744e-01	 1.681020850213245e+01
 1.092013706205936e+00	 5.115254779513169e-01	 1.663630477263884e+01
 1.087124327851397e+00	 5.218361284240457e-01	 1.645275542845708e+01
 1.136773205947112e+00	 4.196669878163749e-01	 1.789455770078643e+01
 1.132817562570065e+00	 4.302302550436946e-01	 1.776623614419815e+01
 1.128755559144142e+00	 4.407772568127131e-01	 1.763556141376961e+01
 1.124587118449980e+00	 4.513064540182388e-01	 1.750178776468105e+01
 1.120312191828253e+00	 4.618163003436752e-01	 1.736411736635722e+01
 1.115930759479637e+00	 4.723052428984317e-01	 1.722169919055798e+01
 1.111442830748376e+00	 4.827717228672177e-01	 1.707362791605379e+01
 1.106848444389001e+00	 4.932141761707528e-01	 1.691894285814472e+01
 1.102147668815680e+00	 5.036310341374016e-01	 1.675662693177528e+01
 1.097340602333770e+00	 5.140207241852258e-01	 1.658560565746590e+01
 1.092427373353111e+00	 5.243816705139190e-01	 1.640474621971400e+01
 1.142291522480836e+00	 4.217042062038329e-01	 1.781277722101567e+01
 1.138316676951473e+00	 4.323187514274019e-01	 1.768878175902122e+01
 1.134234955062318e+00	 4.429169522341341e-01	 1.756220125902197e+01
 1.130046279219154e+00	 4.534972620474534e-01	 1.743230290476392e+01
 1.125750600526449e+00	 4.640581270443727e-01	 1.729830053267476e+01
 1.121347899088761e+00	 4.745979867959969e-01	 1.715935343570501e+01
 1.116838184295698e+00	 4.851152749199712e-01	 1.701456518249157e+01
 1.112221495089919e+00	 4.956084197443972e-01	 1.686298246039295e+01
 1.107497900217697e+00	 5.060758449827287e-01	 1.670359395146445e+01
 1.102667498461604e+00	 5.165159704191346e-01	 1.653532925092548e+01
 1.097730418854825e+00	 5.269272126037925e-01	 1.635705783812279e+01
 1.147809839014560e+00	 4.237414245912911e-01	 1.773247719556164e+01
 1.143815791332881e+00	 4.344072478111092e-01	 1.761274627263150e+01
 1.139714350980493e+00	 4.450566476555549e-01	 1.749016698904194e+01
 1.135505439988329e+00	 4.556880700766682e-01	 1.736402627161749e+01
 1.131189009224645e+00	 4.662999537450702e-01	 1.723355645291321e+01
 1.126765038697886e+00	 4.768907306935620e-01	 1.709793398049440e+01
 1.122233537843021e+00	 4.874588269727247e-01	 1.695627814005902e+01
 1.117594545790836e+00	 4.980026633180417e-01	 1.680764980126408e+01
 1.112848131619715e+00	 5.085206558280559e-01	 1.665105019565434e+01
 1.107994394589438e+00	 5.190112166530434e-01	 1.648541973659898e+01
 1.103033464356539e+00	 5.294727546936657e-01	 1.630963689160957e+01
 1.153328155548284e+00	 4.257786429787494e-01	 1.765353735784972e+01
 1.149314905714289e+00	 4.364957441948163e-01	 1.753801880961676e+01
 1.145193746898669e+00	 4.471963430769759e-01	 1.741935662304162e+01
 1.140964600757504e+00	 4.578788781058830e-01	 1.729686420603233e+01
 1.136627417922840e+00	 4.685417804457676e-01	 1.716979914009858e+01
 1.132182178307010e+00	 4.791834745911273e-01	 1.703736178479069e+01
 1.127628891390343e+00	 4.898023790254782e-01	 1.689869389428459e+01
 1.122967596491754e+00	 5.003969068916863e-01	 1.675287725530253e+01
 1.118198363021733e+00	 5.109654666733831e-01	 1.659893235611893e+01
 1.113321290717272e+00	 5.215064628869525e-01	 1.643581709692684e+01
 1.108336509858253e+00	 5.320182967835392e-01	 1.626242555233027e+01
 1.158846472082008e+00	 4.278158613662075e-01	 1.757583614624953e+01
 1.154814020095697e+00	 4.385842405785236e-01	 1.746448682594561e+01
 1.150673142816844e+00	 4.493360384983968e-01	 1.734966614612803e+01
 1.146423761526679e+00	 4.600696861350977e-01	 1.723072065916066e+01
 1.142065826621036e+00	 4.707836071464650e-01	 1.710693987392559e+01
 1.137599317916135e+00	 4.814762184886924e-01	 1.697755474517065e+01
 1.133024244937665e+00	 4.921459310782316e-01	 1.684173617308966e+01
 1.128340647192671e+00	 5.027911504653304e-01	 1.669859352267091e+01
 1.123548594423751e+00	 5.134102775187103e-01	 1.654717317292911e+01
 1.118648186845105e+00	 5.240017091208612e-01	 1.638645710668953e+01
 1.113639555359967e+00	 5.345638388734125e-01	 1.621536155209914e+01
 1.060609100342826e+00	 5.091084179746788e-01	 1.669917252725804e+01
 1.055736058818085e+00	 5.191381502971584e-01	 1.649785367490264e+01
 1.050760284665871e+00	 5.291369096477749e-01	 1.630010113683734e+01
 1.045681991297978e+00	 5.391031608679313e-01	 1.610589079706061e+01
 1.040501421996877e+00	 5.490353684464930e-01	 1.591522018486387e+01
 1.035218850028296e+00	 5.589319972311417e-01	 1.572810728600380e+01
 1.029834578733869e+00	 5.687915131458403e-01	 1.554458934132538e+01
 1.024348941603557e+00	 5.786123839137652e-01	 1.536472164224023e+01
 1.018762302327562e+00	 5.883930797850574e-01	 1.518857254010538e+01
 1.013075054827481e+00	 5.981320742687144e-01	 1.500144464578818e+01
 1.007287623266500e+00	 6.078278448679574e-01	 1.479034183414894e+01
 1.065912145844541e+00	 5.116539600645521e-01	 1.664891332201148e+01
 1.061014739112176e+00	 5.217338410486442e-01	 1.645099180329638e+01
 1.056014086089200e+00	 5.317825941960136e-01	 1.625732969199681e+01
 1.050910401254468e+00	 5.417986766722710e-01	 1.606794807265281e+01
 1.045703929106861e+00	 5.517805452887254e-01	 1.588289164924046e+01
 1.040394944278437e+00	 5.617266572172974e-01	 1.570222744964200e+01
 1.034983751627538e+00	 5.716354707115695e-01	 1.552604351376371e+01
 1.029470686311575e+00	 5.815054458333342e-01	 1.535444757507585e+01
 1.023856113839200e+00	 5.913350451839826e-01	 1.518608814653413e+01
 1.018140430101619e+00	 6.011227346400576e-01	 1.500020483982600e+01
 1.012324061382832e+00	 6.108669840922972e-01	 1.479106560325243e+01
 1.071215191346254e+00	 5.141995021544254e-01	 1.659917547839234e+01
 1.066293419406267e+00	 5.243295318001300e-01	 1.640459037117060e+01
 1.061267887512529e+00	 5.344282787442527e-01	 1.621503270818740e+01
 1.056138811210958e+00	 5.444941924766108e-01	 1.603056318157853e+01
 1.050906436216845e+00	 5.545257221309581e-01	 1.585126791715405e+01
 1.045571038528579e+00	 5.645213172034532e-01	 1.567725707659905e+01
 1.040132924521207e+00	 5.744794282772986e-01	 1.550866343976774e+01
 1.034592431019593e+00	 5.843985077529030e-01	 1.534564097722026e+01
 1.028949925350837e+00	 5.942770105829077e-01	 1.518269871109378e+01
 1.023205805375756e+00	 6.041133950114016e-01	 1.499819938238889e+01
 1.017360499499165e+00	 6.139061233166369e-01	 1.479118468224899e+01
 1.076518236847968e+00	 5.167450442442988e-01	 1.654992773944742e+01
 1.071572099700357e+00	 5.269252225516158e-01	 1.635862024554950e+01
 1.066521688935859e+00	 5.370739632924916e-01	 1.617318154133315e+01
 1.061367221167447e+00	 5.471897082809503e-01	 1.599370643409772e+01
 1.056108943326830e+00	 5.572708989731905e-01	 1.582031682070392e+01
 1.050747132778720e+00	 5.673159771896090e-01	 1.565316019183867e+01
 1.045282097414876e+00	 5.773233858430278e-01	 1.549240811306417e+01
 1.039714175727611e+00	 5.872915696724719e-01	 1.533825469317794e+01
 1.034043736862475e+00	 5.972189759818330e-01	 1.517828015698339e+01
 1.028271180649894e+00	 6.071040553827453e-01	 1.499529882493076e+01
 1.022396937615497e+00	 6.169452625409766e-01	 1.479056328018191e+01
 1.081821282349683e+00	 5.192905863341721e-01	 1.650113442454112e+01
 1.076850779994448e+00	 5.295209133031015e-01	 1.631304765634542e+01
 1.071775490359188e+00	 5.397196478407305e-01	 1.613174273212359e+01
 1.066595631123938e+00	 5.498852240852902e-01	 1.595734318092465e+01
 1.061311450436814e+00	 5.600160758154227e-01	 1.579000112042046e+01
 1.055923227028861e+00	 5.701106371757647e-01	 1.562989566746658e+01
 1.050431270308546e+00	 5.801673434087571e-01	 1.547723132238298e+01
 1.044835920435629e+00	 5.901846315920406e-01	 1.533163241669411e+01
 1.039137548374113e+00	 6.001609413807583e-01	 1.517270749036682e+01
 1.033336555924031e+00	 6.100947157540884e-01	 1.499137300890682e+01
 1.027433375731830e+00	 6.199844017653163e-01	 1.478906511993398e+01
 1.087124327851397e+00	 5.218361284240457e-01	 1.645275542845708e+01
 1.082129460288538e+00	 5.321166040545874e-01	 1.626783419710268e+01
 1.077029291782517e+00	 5.423653323889691e-01	 1.609067800756468e+01
 1.071824041080427e+00	 5.525807398896296e-01	 1.592143381479534e+01
 1.066513957546799e+00	 5.627612526576553e-01	 1.576027850610119e+01
 1.061099321279003e+00	 5.729052971619203e-01	 1.560741722213283e+01
 1.055580443202216e+00	 5.830113009744864e-01	 1.546308164877053e+01
 1.049957665143647e+00	 5.930776935116095e-01	 1.532377238995769e+01
 1.044231359885751e+00	 6.031029067796835e-01	 1.516585489606787e+01
 1.038401931198168e+00	 6.130853761254321e-01	 1.498629115980347e+01
 1.032469813848162e+00	 6.230235409896563e-01	 1.478655353005552e+01
 1.092427373353111e+00	 5.243816705139190e-01	 1.640474621971400e+01
 1.087408140582628e+00	 5.347122948060731e-01	 1.622293682487991e+01
 1.082283093205847e+00	 5.450110169372081e-01	 1.604994428161602e+01
 1.077052451036917e+00	 5.552762556939694e-01	 1.588593377109043e+01
 1.071716464656783e+00	 5.655064294998878e-01	 1.573110159669484e+01
 1.066275415529144e+00	 5.756999571480759e-01	 1.558567341949507e+01
 1.060729616095885e+00	 5.858552585402153e-01	 1.544990246199484e+01
 1.055079409851664e+00	 5.959707554311783e-01	 1.531441142935431e+01
 1.049325171397389e+00	 6.060448721786090e-01	 1.515759583247635e+01
 1.043467306472306e+00	 6.160760364967757e-01	 1.497992198046262e+01
 1.037506251964495e+00	 6.260626802139960e-01	 1.478289153598585e+01
 1.097730418854825e+00	 5.269272126037925e-01	 1.635705783812279e+01
 1.092686820876718e+00	 5.373079855575588e-01	 1.617830785929799e+01
 1.087536894629176e+00	 5.476567014854470e-01	 1.600949365494331e+01
 1.082280860993407e+00	 5.579717714983088e-01	 1.585079352754679e+01
 1.076918971766768e+00	 5.682516063421204e-01	 1.570241793926641e+01
 1.071451509779285e+00	 5.784946171342317e-01	 1.556460766577657e+01
 1.065878788989554e+00	 5.886992161059446e-01	 1.543759674902999e+01
 1.060201154559682e+00	 5.988638173507471e-01	 1.530342593340030e+01
 1.054418982909027e+00	 6.089868375775341e-01	 1.514780312569539e+01
 1.048532681746443e+00	 6.190666968681193e-01	 1.497213374372552e+01
 1.042542690080827e+00	 6.291018194383357e-01	 1.477794195068594e+01
 1.103033464356539e+00	 5.294727546936657e-01	 1.630963689160957e+01
 1.097965501170809e+00	 5.399036763090447e-01	 1.613389498078365e+01
 1.092790696052506e+00	 5.503023860336860e-01	 1.596927341381702e+01
 1.087509270949897e+00	 5.606672873026487e-01	 1.581595860308652e+01
 1.082121478876752e+00	 5.709967831843528e-01	 1.567417000707450e+01
 1.076627604029427e+00	 5.812892771203874e-01	 1.554415820644769e+01
 1.071027961883223e+00	 5.915431736716739e-01	 1.542440331893407e+01
 1.065322899267700e+00	 6.017568792703161e-01	 1.529069157764429e+01
 1.059512794420664e+00	 6.119288029764594e-01	 1.513634906295144e+01
 1.053598057020581e+00	 6.220573572394629e-01	 1.496279438441913e+01
 1.047579128197160e+00	 6.321409586626755e-01	 1.477156746470475e+01
 1.108336509858253e+00	 5.320182967835392e-01	 1.626242555233027e+01
 1.103244181464899e+00	 5.424993670605306e-01	 1.608964122803449e+01
 1.098044497475835e+00	 5.529480705819249e-01	 1.592922602818646e+01
 1.092737680906387e+00	 5.633628031069883e-01	 1.578136955579557e+01
 1.087323985986736e+00	 5.737419600265852e-01	 1.564629519678914e+01
 1.081803698279569e+00	 5.840839371065430e-01	 1.552425812206106e+01
 1.076177134776893e+00	 5.943871312374031e-01	 1.540928015246562e+01
 1.070444643975718e+00	 6.046499411898848e-01	 1.527608340819661e+01
 1.064606605932302e+00	 6.148707683753848e-01	 1.512310548529530e+01
 1.058663432294718e+00	 6.250480176108065e-01	 1.495177159070519e+01
 1.052615566313492e+00	 6.351800978870152e-01	 1.476363073569545e+01
 1.113639555359967e+00	 5.345638388734125e-01	 1.621536155209914e+01
 1.108522861758990e+00	 5.450950578120163e-01	 1.604548499473179e+01
 1.103298298899165e+00	 5.555937551301636e-01	 1.588928914895413e+01
 1.097966090862877e+00	 5.660583189113279e-01	 1.574696198007740e+01
 1.092526493096721e+00	 5.764871368688175e-01	 1.561872582488071e+01
 1.086979792529710e+00	 5.868785970926987e-01	 1.550483532326808e+01
 1.081326307670562e+00	 5.972310888031320e-01	 1.539210378299459e+01
 1.075566388683736e+00	 6.075430031094536e-01	 1.525947593451296e+01
 1.069700417443940e+00	 6.178127337743100e-01	 1.510794387961485e+01
 1.063728807568856e+00	 6.280386779821499e-01	 1.493893289481568e+01
 1.057652004429825e+00	 6.382192371113549e-01	 1.475399447740271e+01
 1.007287623266500e+00	 6.078278448679574e-01	 1.479034183414894e+01
 1.001400462038392e+00	 6.174788738183637e-01	 1.456655063237960e+01
 9.954140557351802e-01	 6.270836488280803e-01	 1.434096443695934e+01
 9.893289190932961e-01	 6.366406638193869e-01	 1.411433946521798e+01
 9.831455969181225e-01	 6.461484196709046e-01	 1.388749989128160e+01
 9.768646639868274e-01	 6.556054249597095e-01	 1.366133749827245e+01
 9.704867249294225e-01	 6.650101967026242e-01	 1.343681109086220e+01
 9.640124140880086e-01	 6.743612610959417e-01	 1.321494566213767e+01
 9.574423953542062e-01	 6.836571542528456e-01	 1.299683130989153e+01
 9.507773619847802e-01	 6.928964229377734e-01	 1.278362189865460e+01
 9.440180363955198e-01	 7.020776252969794e-01	 1.257653346504834e+01
 1.012324061382832e+00	 6.108669840922972e-01	 1.479106560325243e+01
 1.006407464348584e+00	 6.205662681874556e-01	 1.456985228562876e+01
 1.000391126013856e+00	 6.302190670722206e-01	 1.434727381265307e+01
 9.942755636887624e-01	 6.398238671384837e-01	 1.412403191405188e+01
 9.880613249027137e-01	 6.493791617692592e-01	 1.390089409997170e+01
 9.817489873067619e-01	 6.588834520845082e-01	 1.367869340652646e+01
 9.753391585540696e-01	 6.683352476861374e-01	 1.345832790046746e+01
 9.688324761584488e-01	 6.777330674014215e-01	 1.324075993658043e+01
 9.622296073309772e-01	 6.870754400241098e-01	 1.302701516259076e+01
 9.555312487947040e-01	 6.963609050524621e-01	 1.281818126758438e+01
 9.487381265774976e-01	 7.055880134234642e-01	 1.261540647124554e+01
 1.017360499499165e+00	 6.139061233166369e-01	 1.479118468224899e+01
 1.011414466658776e+00	 6.236536625565475e-01	 1.457269362665375e+01
 1.005368196292532e+00	 6.333544853163610e-01	 1.435321932604778e+01
 9.992222082842291e-01	 6.430070704575810e-01	 1.413341206907206e+01
 9.929770528873040e-01	 6.526099038676136e-01	 1.391398587689133e+01
 9.866333106266958e-01	 6.621614792093067e-01	 1.369571834004423e+01
 9.801915921787165e-01	 6.716602986696505e-01	 1.347945021286464e+01
 9.736525382288889e-01	 6.811048737069011e-01	 1.326608475872275e+01
 9.670168193077483e-01	 6.904937257953742e-01	 1.305658684052832e+01
 9.602851356046280e-01	 6.998253871671511e-01	 1.285198175219837e+01
 9.534582167594750e-01	 7.090984015499492e-01	 1.265335378810277e+01
 1.022396937615497e+00	 6.169452625409766e-01	 1.479056328018191e+01
 1.016421468968968e+00	 6.267410569256392e-01	 1.457493279600367e+01
 1.010345266571208e+00	 6.364899035605013e-01	 1.435865446918424e+01
 1.004168852879696e+00	 6.461902737766778e-01	 1.414233012975023e+01
 9.978927808718944e-01	 6.558406459659682e-01	 1.392662342041188e+01
 9.915176339466301e-01	 6.654395063341053e-01	 1.371225972274979e+01
 9.850440258033634e-01	 6.749853496531634e-01	 1.350002583910094e+01
 9.784726002993291e-01	 6.844766800123809e-01	 1.329076942303001e+01
 9.718040312845192e-01	 6.939120115666382e-01	 1.308539815248850e+01
 9.650390224145520e-01	 7.032898692818401e-01	 1.288487864105306e+01
 9.581783069414526e-01	 7.126087896764339e-01	 1.269023508397467e+01
 1.027433375731830e+00	 6.199844017653163e-01	 1.478906511993398e+01
 1.021428471279159e+00	 6.298284512947310e-01	 1.457642766374956e+01
 1.015322336849884e+00	 6.396253218046418e-01	 1.436343264815480e+01
 1.009115497475162e+00	 6.493734770957744e-01	 1.415063636374123e+01
 1.002808508856485e+00	 6.590713880643226e-01	 1.393865512161461e+01
 9.964019572665642e-01	 6.687175334589038e-01	 1.372816526703043e+01
 9.898964594280110e-01	 6.783104006366769e-01	 1.351990294653550e+01
 9.832926623697690e-01	 6.878484863178606e-01	 1.331466362112880e+01
 9.765912432612902e-01	 6.973302973379023e-01	 1.311330131920762e+01
 9.697929092244757e-01	 7.067543513965289e-01	 1.291672762437092e+01
 9.628983971234304e-01	 7.161191778029191e-01	 1.272591039453091e+01
 1.032469813848162e+00	 6.230235409896563e-01	 1.478655353005552e+01
 1.026435473589351e+00	 6.329158456638225e-01	 1.457703591917678e+01
 1.020299407128560e+00	 6.427607400487821e-01	 1.436740727127462e+01
 1.014062142070629e+00	 6.525566804148715e-01	 1.415818119412423e+01
 1.007724236841075e+00	 6.623021301626768e-01	 1.394992965116566e+01
 1.001286280586498e+00	 6.719955605837024e-01	 1.374328306078221e+01
 9.947488930526578e-01	 6.816354516201896e-01	 1.353893014656133e+01
 9.881127244402089e-01	 6.912202926233402e-01	 1.333761753068545e+01
 9.813784552380613e-01	 7.007485831091668e-01	 1.314014906386259e+01
 9.745467960343996e-01	 7.102188335112176e-01	 1.294738488656052e+01
 9.676184873054078e-01	 7.196295659294037e-01	 1.276024021770517e+01
 1.037506251964495e+00	 6.260626802139960e-01	 1.478289153598586e+01
 1.031442475899543e+00	 6.360032400329145e-01	 1.457661515996230e+01
 1.025276477407236e+00	 6.458961582929225e-01	 1.437043183681311e+01
 1.019008786666095e+00	 6.557398837339683e-01	 1.416481528625870e+01
 1.012639964825666e+00	 6.655328722610314e-01	 1.396029604584215e+01
 1.006170603906432e+00	 6.752735877085008e-01	 1.375746165412195e+01
 9.996013266773054e-01	 6.849605026037027e-01	 1.355695658199891e+01
 9.929327865106491e-01	 6.945920989288201e-01	 1.335948190394354e+01
 9.861656672148323e-01	 7.041668688804310e-01	 1.316579470218820e+01
 9.793006828443235e-01	 7.136833156259066e-01	 1.297670719832206e+01
 9.723385774873855e-01	 7.231399540558889e-01	 1.279308560816854e+01
 1.042542690080827e+00	 6.291018194383357e-01	 1.477794195068594e+01
 1.036449478209736e+00	 6.390906344020063e-01	 1.457502298085440e+01
 1.030253547685912e+00	 6.490315765370631e-01	 1.437236002029867e+01
 1.023955431261562e+00	 6.589230870530653e-01	 1.417038963426648e+01
 1.017555692810257e+00	 6.687636143593860e-01	 1.396960379471750e+01
 1.011054927226367e+00	 6.785516148332994e-01	 1.377055014578094e+01
 1.004453760301952e+00	 6.882855535872159e-01	 1.357383201416905e+01
 9.977528485810890e-01	 6.979639052342994e-01	 1.338010815592768e+01
 9.909528791916034e-01	 7.075851546516951e-01	 1.319009223223305e+01
 9.840545696542471e-01	 7.171477977405950e-01	 1.300455200835095e+01
 9.770586676693633e-01	 7.266503421823739e-01	 1.282430827134731e+01
 1.047579128197160e+00	 6.321409586626755e-01	 1.477156746470475e+01
 1.041456480519928e+00	 6.421780287710982e-01	 1.457211706187254e+01
 1.035230617964588e+00	 6.521669947812035e-01	 1.437304576141037e+01
 1.028902075857028e+00	 6.621062903721623e-01	 1.417475564715236e+01
 1.022471420794848e+00	 6.719943564577405e-01	 1.397770292502199e+01
 1.015939250546301e+00	 6.818296419580978e-01	 1.378239826918770e+01
 1.009306193926599e+00	 6.916106045707291e-01	 1.358940690966043e+01
 1.002572910651529e+00	 7.013357115397792e-01	 1.339934845232727e+01
 9.957400911683745e-01	 7.110034404229596e-01	 1.321289642376902e+01
 9.888084564641714e-01	 7.206122798552841e-01	 1.303077753465324e+01
 9.817787578513407e-01	 7.301607303088584e-01	 1.285377065699991e+01
 1.052615566313492e+00	 6.351800978870152e-01	 1.476363073569545e+01
 1.046463482830120e+00	 6.452654231401902e-01	 1.456775525604142e+01
 1.040207688243263e+00	 6.553024130253438e-01	 1.437234335047311e+01
 1.033848720452494e+00	 6.652894936912590e-01	 1.417776523457559e+01
 1.027387148779438e+00	 6.752250985560951e-01	 1.398444408768516e+01
 1.020823573866235e+00	 6.851076690828964e-01	 1.379285647825192e+01
 1.014158627551246e+00	 6.949356555542422e-01	 1.360353252679876e+01
 1.007392972721969e+00	 7.047075178452590e-01	 1.341705579707085e+01
 1.000527303145145e+00	 7.144217261942236e-01	 1.323406290736319e+01
 9.935623432740954e-01	 7.240767619699731e-01	 1.305524285548484e+01
 9.864988480333183e-01	 7.336711184353435e-01	 1.288133605236604e+01
 1.057652004429825e+00	 6.382192371113549e-01	 1.475399447740271e+01
 1.051470485140311e+00	 6.483528175092815e-01	 1.456179567667738e+01
 1.045184758521939e+00	 6.584378312694840e-01	 1.437010751456645e+01
 1.038795365047961e+00	 6.684726970103558e-01	 1.417927089228493e+01
 1.032302876764029e+00	 6.784558406544497e-01	 1.398967864257336e+01
 1.025707897186169e+00	 6.883856962076952e-01	 1.380177603285891e+01
 1.019011061175894e+00	 6.982607065377553e-01	 1.361606100182768e+01
 1.012213034792409e+00	 7.080793241507387e-01	 1.343308411960005e+01
 1.005314515121916e+00	 7.178400119654877e-01	 1.325344826312653e+01
 9.983162300840190e-01	 7.275412440846618e-01	 1.307780799992974e+01
 9.912189382152959e-01	 7.371815065618285e-01	 1.290686867490387e+01
 9.440180363955198e-01	 7.020776252969794e-01	 1.257653346504834e+01
 9.371651699334476e-01	 7.111993315845504e-01	 1.236960418350844e+01
 9.302195426274605e-01	 7.202601248831270e-01	 1.215681046918635e+01
 9.231819629175511e-01	 7.292586018185844e-01	 1.193935238118089e+01
 9.160532673627654e-01	 7.381933732679409e-01	 1.171846966015127e+01
 9.088343203280974e-01	 7.470630650597472e-01	 1.149543928148370e+01
 9.015260136505450e-01	 7.558663186662421e-01	 1.127157279053416e+01
 8.941292662845752e-01	 7.646017918865389e-01	 1.104821342646779e+01
 8.866450239272895e-01	 7.732681595201468e-01	 1.082673304255058e+01
 8.790742586235871e-01	 7.818641140301107e-01	 1.060852883205500e+01
 8.714179683516740e-01	 7.903883661950876e-01	 1.039501987022402e+01
 9.487381265774976e-01	 7.055880134234642e-01	 1.261540647124554e+01
 9.418509957831146e-01	 7.147553282424732e-01	 1.241256238757930e+01
 9.348706403405979e-01	 7.238614255075426e-01	 1.220352656682276e+01
 9.277978727321390e-01	 7.329048948276774e-01	 1.198953357215026e+01
 9.206335336995791e-01	 7.418843401342806e-01	 1.177186021565786e+01
 9.133784919297380e-01	 7.507983803850461e-01	 1.155182304625664e+01
 9.060336437187980e-01	 7.596456502595734e-01	 1.133077561013603e+01
 8.985999126159981e-01	 7.684248008459716e-01	 1.111010549046556e+01
 8.910782490469260e-01	 7.771345003177479e-01	 1.089123113438279e+01
 8.834696299167049e-01	 7.857734346002612e-01	 1.067559847666929e+01
 8.757750581934327e-01	 7.943403080260629e-01	 1.046467737084676e+01
 9.534582167594750e-01	 7.090984015499492e-01	 1.265335378810277e+01
 9.465368216327823e-01	 7.183113249003961e-01	 1.245443587677277e+01
 9.395217380537350e-01	 7.274627261319579e-01	 1.224902983731742e+01
 9.324137825467267e-01	 7.365511878367703e-01	 1.203840154392118e+01
 9.252138000363929e-01	 7.455753070006201e-01	 1.182386161795656e+01
 9.179226635313785e-01	 7.545336957103448e-01	 1.160676285431517e+01
 9.105412737870504e-01	 7.634249818529042e-01	 1.138849741074711e+01
 9.030705589474209e-01	 7.722478098054044e-01	 1.117049376701585e+01
 8.955114741665624e-01	 7.810008411153486e-01	 1.095421346210596e+01
 8.878650012098230e-01	 7.896827551704120e-01	 1.074114761912217e+01
 8.801321480351908e-01	 7.982922498570385e-01	 1.053281326889390e+01
 9.581783069414526e-01	 7.126087896764339e-01	 1.269023508397467e+01
 9.512226474824493e-01	 7.218673215583187e-01	 1.249508837865766e+01
 9.441728357668726e-01	 7.310640267563737e-01	 1.229318659692198e+01
 9.370296923613142e-01	 7.401974808458630e-01	 1.208582377310504e+01
 9.297940663732069e-01	 7.492662738669600e-01	 1.187434112001154e+01
 9.224668351330191e-01	 7.582690110356434e-01	 1.166012439736426e+01
 9.150489038553036e-01	 7.672043134462356e-01	 1.144460103363832e+01
 9.075412052788437e-01	 7.760708187648369e-01	 1.122923700821849e+01
 8.999446992861986e-01	 7.848671819129489e-01	 1.101553350230240e+01
 8.922603725029408e-01	 7.935920757405621e-01	 1.080502332842013e+01
 8.844892378769490e-01	 8.022441916880138e-01	 1.059926714986718e+01
 9.628983971234304e-01	 7.161191778029191e-01	 1.272591039453091e+01
 9.559084733321165e-01	 7.254233182162415e-01	 1.253438395340986e+01
 9.488239334800095e-01	 7.346653273807893e-01	 1.233586348178413e+01
 9.416456021759021e-01	 7.438437738549561e-01	 1.213166806451530e+01
 9.343743327100207e-01	 7.529572407332997e-01	 1.192316633132855e+01
 9.270110067346599e-01	 7.620043263609424e-01	 1.171177377103899e+01
 9.195565339235557e-01	 7.709836450395666e-01	 1.149894978946264e+01
 9.120118516102670e-01	 7.798938277242697e-01	 1.128619451808546e+01
 9.043779244058354e-01	 7.887335227105502e-01	 1.107504538208823e+01
 8.966557437960588e-01	 7.975013963107129e-01	 1.086707343783363e+01
 8.888463277187074e-01	 8.061961335189892e-01	 1.066387949138716e+01
 9.676184873054078e-01	 7.196295659294037e-01	 1.276024021770518e+01
 9.605942991817835e-01	 7.289793148741641e-01	 1.257218709099813e+01
 9.534750311931469e-01	 7.382666280052047e-01	 1.237692754663662e+01
 9.462615119904899e-01	 7.474900668640491e-01	 1.217580265064328e+01
 9.389545990468344e-01	 7.566482075996394e-01	 1.197020531752576e+01
 9.315551783363001e-01	 7.657396416862406e-01	 1.176157757390066e+01
 9.240641639918085e-01	 7.747629766328978e-01	 1.155140755603146e+01
 9.164824979416893e-01	 7.837168366837021e-01	 1.134122624847403e+01
 9.088111495254718e-01	 7.925998635081508e-01	 1.113260397260760e+01
 9.010511150891768e-01	 8.014107168808633e-01	 1.092714663538036e+01
 8.932034175604661e-01	 8.101480753499648e-01	 1.072649175011945e+01
 9.723385774873855e-01	 7.231399540558889e-01	 1.279308560816854e+01
 9.652801250314508e-01	 7.325353115320868e-01	 1.260836280784453e+01
 9.581261289062843e-01	 7.418679286296207e-01	 1.241624636292362e+01
 9.508774218050775e-01	 7.511363598731416e-01	 1.221809629055774e+01
 9.435348653836481e-01	 7.603391744659787e-01	 1.201532669933120e+01
 9.360993499379403e-01	 7.694749570115395e-01	 1.180940300588071e+01
 9.285717940600614e-01	 7.785423082262289e-01	 1.160183887557316e+01
 9.209531442731127e-01	 7.875398456431350e-01	 1.139419289455625e+01
 9.132443746451080e-01	 7.964662043057512e-01	 1.118806498213025e+01
 9.054464863822945e-01	 8.053200374510142e-01	 1.098509255399224e+01
 8.975605074022245e-01	 8.141000171809400e-01	 1.078694644848028e+01
 9.770586676693633e-01	 7.266503421823739e-01	 1.282430827134731e+01
 9.699659508811183e-01	 7.360913081900098e-01	 1.264277674297393e+01
 9.627772266194216e-01	 7.454692292540365e-01	 1.245368811638721e+01
 9.554933316196652e-01	 7.547826528822350e-01	 1.225841836824769e+01
 9.481151317204622e-01	 7.640301413323186e-01	 1.205839975102581e+01
 9.406435215395809e-01	 7.732102723368385e-01	 1.185511796618704e+01
 9.330794241283142e-01	 7.823216398195604e-01	 1.165010905149160e+01
 9.254237906045354e-01	 7.913628546025677e-01	 1.144495598983770e+01
 9.176775997647444e-01	 8.003325451033522e-01	 1.124128504876305e+01
 9.098418576754126e-01	 8.092293580211644e-01	 1.104076186137840e+01
 9.019175972439828e-01	 8.180519590119156e-01	 1.084508726113022e+01
 9.817787578513407e-01	 7.301607303088584e-01	 1.285377065699991e+01
 9.746517767307855e-01	 7.396473048479325e-01	 1.267529525367413e+01
 9.674283243325592e-01	 7.490705298784519e-01	 1.248912170412932e+01
 9.601092414342532e-01	 7.584289458913279e-01	 1.229663899042720e+01
 9.526953980572759e-01	 7.677211081986581e-01	 1.209929449834962e+01
 9.451876931412213e-01	 7.769455876621371e-01	 1.189859115069414e+01
 9.375870541965668e-01	 7.861009714128915e-01	 1.169608424464171e+01
 9.298944369359584e-01	 7.951858635620005e-01	 1.149337800074260e+01
 9.221108248843809e-01	 8.041988859009528e-01	 1.129212183279246e+01
 9.142372289685309e-01	 8.131386785913153e-01	 1.109400634959318e+01
 9.062746870857412e-01	 8.220039008428910e-01	 1.090075910126361e+01
 9.864988480333183e-01	 7.336711184353435e-01	 1.288133605236604e+01
 9.793376025804527e-01	 7.432033015058551e-01	 1.270578551067995e+01
 9.720794220456965e-01	 7.526718305028677e-01	 1.252241683116828e+01
 9.647251512488407e-01	 7.620752389004205e-01	 1.233262908381946e+01
 9.572756643940896e-01	 7.714120750649979e-01	 1.213788181589189e+01
 9.497318647428621e-01	 7.806809029874359e-01	 1.193969214883345e+01
 9.420946842648195e-01	 7.898803030062227e-01	 1.173963156913738e+01
 9.343650832673813e-01	 7.990088725214332e-01	 1.153932242077834e+01
 9.265440500040175e-01	 8.080652266985537e-01	 1.134043410866615e+01
 9.186326002616485e-01	 8.170479991614658e-01	 1.114467902431959e+01
 9.106317769274996e-01	 8.259558426738663e-01	 1.095380820669901e+01
 9.912189382152959e-01	 7.371815065618285e-01	 1.290686867490388e+01
 9.840234284301197e-01	 7.467592981637778e-01	 1.273411559289847e+01
 9.767305197588334e-01	 7.562731311272832e-01	 1.255344410650530e+01
 9.693410610634284e-01	 7.657215319095135e-01	 1.236626049193979e+01
 9.618559307309036e-01	 7.751030419313377e-01	 1.217403352397891e+01
 9.542760363445022e-01	 7.844162183127344e-01	 1.197829153999984e+01
 9.466023143330722e-01	 7.936596345995537e-01	 1.178061918770741e+01
 9.388357295988039e-01	 8.028318814808657e-01	 1.158265386429460e+01
 9.309772751236538e-01	 8.119315674961544e-01	 1.138608185662857e+01
 9.230279715547663e-01	 8.209573197316159e-01	 1.119263419387722e+01
 9.149888667692577e-01	 8.299077845048417e-01	 1.100408222577832e+01
 8.714179683516740e-01	 7.903883661950876e-01	 1.039501987022402e+01
 8.636771765892761e-01	 7.988396457496808e-01	 1.018200519147027e+01
 8.558529318609451e-01	 8.072167020123674e-01	 9.965231376982750e+00
 8.479463072668830e-01	 8.155183045003684e-01	 9.746054520447395e+00
 8.399583999937179e-01	 8.237432435308302e-01	 9.525829618997822e+00
 8.318903308077032e-01	 8.318903308077031e-01	 9.305906706648557e+00
 8.237432435308302e-01	 8.399583999937179e-01	 9.087626904151263e+00
 8.155183045003686e-01	 8.479463072668830e-01	 8.872318402497381e+00
 8.072167020123681e-01	 8.558529318609449e-01	 8.661292397988973e+00
 7.988396457496809e-01	 8.636771765892759e-01	 8.455838997416143e+00
 7.903883661950875e-01	 8.714179683516743e-01	 8.257223112375691e+00
 8.757750581934327e-01	 7.943403080260629e-01	 1.046467737084676e+01
 8.679955624722224e-01	 8.028338439784288e-01	 1.025422222145760e+01
 8.601321965202501e-01	 8.112527855224293e-01	 1.003989712138041e+01
 8.521860388032176e-01	 8.195958960228705e-01	 9.823053375722450e+00
 8.441581919936868e-01	 8.278619597484844e-01	 9.605040833294305e+00
 8.360497824617414e-01	 8.360497824617412e-01	 9.387203960769398e+00
 8.278619597484845e-01	 8.441581919936865e-01	 9.170877829950024e+00
 8.195958960228706e-01	 8.521860388032173e-01	 8.957384035778487e+00
 8.112527855224297e-01	 8.601321965202496e-01	 8.748026563465952e+00
 8.028338439784292e-01	 8.679955624722219e-01	 8.544087623737756e+00
 7.943403080260629e-01	 8.757750581934326e-01	 8.346823475727685e+00
 8.801321480351908e-01	 7.982922498570385e-01	 1.053281326889390e+01
 8.723139483551688e-01	 8.068280422071775e-01	 1.032490554660278e+01
 8.644114611795549e-01	 8.152888690324916e-01	 1.011299642039059e+01
 8.564257703395520e-01	 8.236734875453721e-01	 9.898436426960400e+00
 8.483579839936551e-01	 8.319806759661380e-01	 9.682574481838422e+00
 8.402092341157803e-01	 8.402092341157800e-01	 9.466753886838937e+00
 8.319806759661383e-01	 8.483579839936550e-01	 9.252308246926429e+00
 8.236734875453724e-01	 8.564257703395519e-01	 9.040557314552817e+00
 8.152888690324918e-01	 8.644114611795546e-01	 8.832802780304560e+00
 8.068280422071780e-01	 8.723139483551686e-01	 8.630324029359420e+00
 7.982922498570384e-01	 8.801321480351909e-01	 8.434373883784865e+00
 8.844892378769490e-01	 8.022441916880138e-01	 1.059926714986718e+01
 8.766323342381154e-01	 8.108222404359261e-01	 1.039388786941832e+01
 8.686907258388592e-01	 8.193249525425529e-01	 1.018435729866180e+01
 8.606655018758864e-01	 8.277510790678739e-01	 9.972029175145284e+00
 8.525577759936238e-01	 8.360993921837927e-01	 9.758255644370982e+00
 8.443686857698188e-01	 8.443686857698185e-01	 9.544383193149121e+00
 8.360993921837928e-01	 8.525577759936235e-01	 9.331748488245568e+00
 8.277510790678740e-01	 8.606655018758861e-01	 9.121674138857003e+00
 8.193249525425532e-01	 8.686907258388591e-01	 8.915464402245178e+00
 8.108222404359264e-01	 8.766323342381152e-01	 8.714400852532771e+00
 8.022441916880139e-01	 8.844892378769496e-01	 8.519738033240124e+00
 8.888463277187074e-01	 8.061961335189892e-01	 1.066387949138716e+01
 8.809507201210617e-01	 8.148164386646745e-01	 1.046100289379885e+01
 8.729699904981638e-01	 8.233610360526147e-01	 1.025380884162353e+01
 8.649052334122208e-01	 8.318286705903759e-01	 1.004365819279927e+01
 8.567575679935925e-01	 8.402181084014467e-01	 9.831910435560266e+00
 8.485281374238575e-01	 8.485281374238570e-01	 9.619919540264554e+00
 8.402181084014470e-01	 8.567575679935922e-01	 9.409029712012899e+00
 8.318286705903759e-01	 8.649052334122207e-01	 9.200571063079526e+00
 8.233610360526151e-01	 8.729699904981639e-01	 8.995855224987956e+00
 8.148164386646747e-01	 8.809507201210611e-01	 8.796170920778987e+00
 8.061961335189891e-01	 8.888463277187078e-01	 8.602779518605578e+00
 8.932034175604661e-01	 8.101480753499648e-01	 1.072649175011945e+01
 8.852691060040080e-01	 8.188106368934230e-01	 1.052608540864396e+01
 8.772492551574691e-01	 8.273971195626769e-01	 1.032118127682572e+01
 8.691449649485551e-01	 8.359062621128774e-01	 1.011315120403392e+01
 8.609573599935612e-01	 8.443368246191009e-01	 9.903366084733950e+00
 8.526875890778957e-01	 8.526875890778957e-01	 9.693191621372785e+00
 8.443368246191011e-01	 8.609573599935609e-01	 9.483983983159341e+00
 8.359062621128777e-01	 8.691449649485550e-01	 9.277085380256938e+00
 8.273971195626770e-01	 8.772492551574688e-01	 9.073819573758916e+00
 8.188106368934229e-01	 8.852691060040077e-01	 8.875487342546913e+00
 8.101480753499646e-01	 8.932034175604661e-01	 8.683361928759282e+00
 8.975605074022245e-01	 8.141000171809400e-01	 1.078694644848028e+01
 8.895874918869543e-01	 8.228048351221714e-01	 1.058897137134784e+01
 8.815285198167737e-01	 8.314332030727388e-01	 1.038630605520119e+01
 8.733846964848896e-01	 8.399838536353793e-01	 1.018033716454877e+01
 8.651571519935293e-01	 8.484555408367549e-01	 9.972451015548712e+00
 8.568470407319344e-01	 8.568470407319339e-01	 9.764029242538781e+00
 8.484555408367552e-01	 8.651571519935294e-01	 9.556444355159980e+00
 8.399838536353798e-01	 8.733846964848897e-01	 9.351055206118122e+00
 8.314332030727389e-01	 8.815285198167733e-01	 9.149202390503868e+00
 8.228048351221714e-01	 8.895874918869541e-01	 8.952203598356181e+00
 8.141000171809399e-01	 8.975605074022245e-01	 8.761348942805816e+00
 9.019175972439828e-01	 8.180519590119156e-01	 1.084508726113022e+01
 8.939058777699007e-01	 8.267990333509195e-01	 1.064949799116010e+01
 8.858077844760786e-01	 8.354692865828003e-01	 1.044901593225173e+01
 8.776244280212245e-01	 8.440614451578814e-01	 1.024504634157467e+01
 8.693569439934979e-01	 8.525742570544091e-01	 1.003899492560190e+01
 8.610064923859724e-01	 8.610064923859723e-01	 9.832263402864307e+00
 8.525742570544096e-01	 8.693569439934979e-01	 9.626244951600686e+00
 8.440614451578817e-01	 8.776244280212239e-01	 9.422319562883899e+00
 8.354692865828007e-01	 8.858077844760780e-01	 9.221849320724285e+00
 8.267990333509200e-01	 8.939058777699007e-01	 9.026173631441626e+00
 8.180519590119155e-01	 9.019175972439826e-01	 8.836604425274205e+00
 9.062746870857412e-01	 8.220039008428910e-01	 1.090075910126361e+01
 8.982242636528470e-01	 8.307932315796681e-01	 1.070750381242255e+01
 8.900870491353831e-01	 8.395053700928625e-01	 1.050914504916023e+01
 8.818641595575587e-01	 8.481390366803834e-01	 1.030711039376774e+01
 8.735567359934664e-01	 8.566929732720631e-01	 1.010282886598447e+01
 8.651659440400112e-01	 8.651659440400110e-01	 9.897726374557806e+00
 8.566929732720635e-01	 8.735567359934666e-01	 9.693221047591310e+00
 8.481390366803835e-01	 8.818641595575584e-01	 9.490718462827884e+00
 8.395053700928625e-01	 8.900870491353827e-01	 9.291606799962752e+00
 8.307932315796686e-01	 8.982242636528470e-01	 9.097251937914226e+00
 8.220039008428908e-01	 9.062746870857412e-01	 8.908992520675438e+00
 9.106317769274996e-01	 8.259558426738663e-01	 1.095380820669901e+01
 9.025426495357936e-01	 8.347874298084165e-01	 1.076282879768593e+01
 8.943663137946877e-01	 8.435414536029242e-01	 1.056652901383319e+01
 8.861038910938929e-01	 8.522166282028849e-01	 1.036636245105292e+01
 8.777565279934352e-01	 8.608116894897173e-01	 1.016378532078043e+01
 8.693253956940500e-01	 8.693253956940497e-01	 9.960251782915449e+00
 8.608116894897176e-01	 8.777565279934353e-01	 9.757209151035045e+00
 8.522166282028855e-01	 8.861038910938925e-01	 9.556092991611569e+00
 8.435414536029243e-01	 8.943663137946876e-01	 9.358322139955291e+00
 8.347874298084169e-01	 9.025426495357932e-01	 9.165293656456384e+00
 8.259558426738663e-01	 9.106317769274996e-01	 8.978377747442376e+00
 9.149888667692577e-01	 8.299077845048417e-01	 1.100408222577832e+01
 9.068610354187399e-01	 8.387816280371647e-01	 1.081531441070979e+01
 8.986455784539924e-01	 8.475775371129860e-01	 1.062100498187407e+01
 8.903436226302274e-01	 8.562942197253869e-01	 1.042263719441918e+01
 8.819563199934038e-01	 8.649304057073715e-01	 1.022169828651028e+01
 8.734848473480884e-01	 8.734848473480880e-01	 1.001967468621758e+01
 8.649304057073717e-01	 8.819563199934033e-01	 9.818047083753594e+00
 8.562942197253869e-01	 8.903436226302270e-01	 9.618285391395995e+00
 8.475775371129860e-01	 8.986455784539924e-01	 9.421843614458368e+00
 8.387816280371649e-01	 9.068610354187399e-01	 9.230154657567843e+00
 8.299077845048416e-01	 9.149888667692578e-01	 9.044625091269364e+00
 7.903883661950875e-01	 8.714179683516743e-01	 8.257223112375691e+00
 7.818641140301110e-01	 8.790742586235870e-01	 8.060381969584448e+00
 7.732681595201470e-01	 8.866450239272889e-01	 7.860342685936668e+00
 7.646017918865389e-01	 8.941292662845751e-01	 7.658456171442920e+00
 7.558663186662419e-01	 9.015260136505447e-01	 7.456033541804737e+00
 7.470630650597474e-01	 9.088343203280971e-01	 7.254342251863509e+00
 7.381933732679411e-01	 9.160532673627653e-01	 7.054602337591788e+00
 7.292586018185848e-01	 9.231819629175507e-01	 6.857982785969082e+00
 7.202601248831271e-01	 9.302195426274603e-01	 6.665598051666482e+00
 7.111993315845510e-01	 9.371651699334475e-01	 6.478504738949322e+00
 7.020776252969793e-01	 9.440180363955197e-01	 6.297698466570729e+00
 7.943403080260629e-01	 8.757750581934326e-01	 8.346823475727685e+00
 7.857734346002613e-01	 8.834696299167047e-01	 8.151151512319929e+00
 7.771345003177481e-01	 8.910782490469259e-01	 7.952104235863127e+00
 7.684248008459718e-01	 8.985999126159980e-01	 7.751061149819050e+00
 7.596456502595733e-01	 9.060336437187978e-01	 7.549361896001693e+00
 7.507983803850463e-01	 9.133784919297379e-01	 7.348302257721754e+00
 7.418843401342806e-01	 9.206335336995786e-01	 7.149130272028507e+00
 7.329048948276775e-01	 9.277978727321385e-01	 6.953042471024885e+00
 7.238614255075426e-01	 9.348706403405976e-01	 6.761180271835729e+00
 7.147553282424735e-01	 9.418509957831145e-01	 6.574626534266528e+00
 7.055880134234642e-01	 9.487381265774978e-01	 6.394402304551741e+00
 7.982922498570384e-01	 8.801321480351909e-01	 8.434373883784865e+00
 7.896827551704123e-01	 8.878650012098228e-01	 8.239859583705403e+00
 7.810008411153490e-01	 8.955114741665623e-01	 8.041821699854525e+00
 7.722478098054048e-01	 9.030705589474209e-01	 7.841662952350805e+00
 7.634249818529044e-01	 9.105412737870501e-01	 7.640745873023879e+00
 7.545336957103448e-01	 9.179226635313783e-01	 7.440388684394367e+00
 7.455753070006204e-01	 9.252138000363928e-01	 7.241861288600065e+00
 7.365511878367708e-01	 9.324137825467264e-01	 7.046381386901325e+00
 7.274627261319582e-01	 9.395217380537348e-01	 6.855110749978797e+00
 7.183113249003964e-01	 9.465368216327819e-01	 6.669151658699834e+00
 7.090984015499492e-01	 9.534582167594753e-01	 6.489543534372444e+00
 8.022441916880139e-01	 8.844892378769496e-01	 8.519738033240124e+00
 7.935920757405627e-01	 8.922603725029407e-01	 8.326380014335189e+00
 7.848671819129496e-01	 8.999446992861982e-01	 8.129375523680704e+00
 7.760708187648373e-01	 9.075412052788440e-01	 7.930145222317247e+00
 7.672043134462360e-01	 9.150489038553031e-01	 7.730068999832079e+00
 7.582690110356437e-01	 9.224668351330186e-01	 7.530481735160039e+00
 7.492662738669604e-01	 9.297940663732066e-01	 7.332669168487940e+00
 7.401974808458635e-01	 9.370296923613141e-01	 7.137863905541043e+00
 7.310640267563742e-01	 9.441728357668723e-01	 6.947241575104683e+00
 7.218673215583189e-01	 9.512226474824493e-01	 6.761917160092693e+00
 7.126087896764339e-01	 9.581783069414528e-01	 6.582941521798266e+00
 8.061961335189891e-01	 8.888463277187078e-01	 8.602779518605578e+00
 7.975013963107134e-01	 8.966557437960585e-01	 8.410586255774289e+00
 7.887335227105504e-01	 9.043779244058351e-01	 8.214645563166009e+00
 7.798938277242700e-01	 9.120118516102667e-01	 8.016390866572717e+00
 7.709836450395668e-01	 9.195565339235559e-01	 7.817213983378902e+00
 7.620043263609424e-01	 9.270110067346591e-01	 7.618460771027787e+00
 7.529572407332999e-01	 9.343743327100202e-01	 7.421426888046382e+00
 7.438437738549564e-01	 9.416456021759020e-01	 7.227353689551805e+00
 7.346653273807896e-01	 9.488239334800093e-01	 7.037424278739362e+00
 7.254233182162416e-01	 9.559084733321161e-01	 6.852759735288227e+00
 7.161191778029189e-01	 9.628983971234304e-01	 6.674415540943265e+00
 8.101480753499646e-01	 8.932034175604661e-01	 8.683361928759282e+00
 8.014107168808634e-01	 9.010511150891766e-01	 8.492351481491960e+00
 7.925998635081508e-01	 9.088111495254717e-01	 8.297511187767116e+00
 7.837168366837026e-01	 9.164824979416895e-01	 8.100282160066675e+00
 7.747629766328982e-01	 9.240641639918085e-01	 7.902062814420263e+00
 7.657396416862412e-01	 9.315551783362999e-01	 7.704204412233581e+00
 7.566482075996396e-01	 9.389545990468340e-01	 7.508006716426314e+00
 7.474900668640493e-01	 9.462615119904896e-01	 7.314713784452472e+00
 7.382666280052053e-01	 9.534750311931465e-01	 7.125509920336666e+00
 7.289793148741647e-01	 9.605942991817835e-01	 6.941515807298851e+00
 7.196295659294039e-01	 9.676184873054080e-01	 6.763784841845546e+00
 8.141000171809399e-01	 8.975605074022245e-01	 8.761348942805816e+00
 8.053200374510142e-01	 9.054464863822945e-01	 8.571548686952255e+00
 7.964662043057517e-01	 9.132443746451082e-01	 8.377851383198301e+00
 7.875398456431354e-01	 9.209531442731121e-01	 8.181700849355620e+00
 7.785423082262292e-01	 9.285717940600607e-01	 7.984496870306375e+00
 7.694749570115399e-01	 9.360993499379403e-01	 7.787590638747695e+00
 7.603391744659790e-01	 9.435348653836481e-01	 7.592280312290452e+00
 7.511363598731422e-01	 9.508774218050774e-01	 7.399806710127804e+00
 7.418679286296208e-01	 9.581261289062840e-01	 7.211349172056625e+00
 7.325353115320874e-01	 9.652801250314509e-01	 7.028021602046699e+00
 7.231399540558889e-01	 9.723385774873855e-01	 6.850868717856297e+00
 8.180519590119155e-01	 9.019175972439826e-01	 8.836604425274205e+00
 8.092293580211649e-01	 9.098418576754123e-01	 8.648050788892320e+00
 8.003325451033526e-01	 9.176775997647445e-01	 8.455544853143373e+00
 7.913628546025679e-01	 9.254237906045353e-01	 8.260528255141107e+00
 7.823216398195605e-01	 9.330794241283137e-01	 8.064397016785176e+00
 7.732102723368386e-01	 9.406435215395806e-01	 7.868496889830656e+00
 7.640301413323187e-01	 9.481151317204619e-01	 7.674118819645287e+00
 7.547826528822352e-01	 9.554933316196651e-01	 7.482494551517680e+00
 7.454692292540366e-01	 9.627772266194214e-01	 7.294792402938675e+00
 7.360913081900101e-01	 9.699659508811179e-01	 7.112113224689219e+00
 7.266503421823738e-01	 9.770586676693634e-01	 6.935486572843036e+00
 8.220039008428908e-01	 9.062746870857412e-01	 8.908992520675438e+00
 8.131386785913156e-01	 9.142372289685303e-01	 8.721730723814364e+00
 8.041988859009531e-01	 9.221108248843808e-01	 8.530470120078609e+00
 7.951858635620009e-01	 9.298944369359583e-01	 8.336645373865581e+00
 7.861009714128918e-01	 9.375870541965668e-01	 8.141643708853611e+00
 7.769455876621374e-01	 9.451876931412214e-01	 7.946800162663825e+00
 7.677211081986586e-01	 9.526953980572757e-01	 7.753392962826858e+00
 7.584289458913279e-01	 9.601092414342530e-01	 7.562639048569118e+00
 7.490705298784521e-01	 9.674283243325587e-01	 7.375689762482236e+00
 7.396473048479330e-01	 9.746517767307852e-01	 7.193626735544587e+00
 7.301607303088584e-01	 9.817787578513406e-01	 7.017457988216591e+00
 8.259558426738663e-01	 9.106317769274996e-01	 8.978377747442376e+00
 8.170479991614660e-01	 9.186326002616485e-01	 8.792461545715973e+00
 8.080652266985537e-01	 9.265440500040173e-01	 8.602505625240823e+00
 7.990088725214333e-01	 9.343650832673811e-01	 8.409932978400086e+00
 7.898803030062226e-01	 9.420946842648191e-01	 8.216117090688400e+00
 7.806809029874361e-01	 9.497318647428618e-01	 8.022377110090666e+00
 7.714120750649981e-01	 9.572756643940894e-01	 7.829973140660734e+00
 7.620752389004209e-01	 9.647251512488406e-01	 7.640101685474340e+00
 7.526718305028678e-01	 9.720794220456960e-01	 7.453891263662991e+00
 7.432033015058556e-01	 9.793376025804525e-01	 7.272398225629094e+00
 7.336711184353434e-01	 9.864988480333183e-01	 7.096602789787879e+00
 8.299077845048416e-01	 9.149888667692578e-01	 9.044625091269364e+00
 8.209573197316162e-01	 9.230279715547660e-01	 8.860116523088148e+00
 8.119315674961547e-01	 9.309772751236538e-01	 8.671529827765852e+00
 8.028318814808661e-01	 9.388357295988039e-01	 8.480271717848908e+00
 7.936596345995539e-01	 9.466023143330716e-01	 8.287697094684995e+00
 7.844162183127347e-01	 9.542760363445022e-01	 8.095104137496040e+00
 7.751030419313379e-01	 9.618559307309035e-01	 7.903729519830380e+00
 7.657215319095139e-01	 9.693410610634281e-01	 7.714743779218812e+00
 7.562731311272832e-01	 9.767305197588331e-01	 7.529246865396780e+00
 7.467592981637781e-01	 9.840234284301197e-01	 7.348263891822025e+00
 7.371815065618283e-01	 9.912189382152959e-01	 7.172741114456059e+00
 7.020776252969793e-01	 9.440180363955197e-01	 6.297698466570729e+00
 6.928964229377735e-01	 9.507773619847800e-01	 6.120156794064502e+00
 6.836571542528459e-01	 9.574423953542061e-01	 5.942578482068896e+00
 6.743612610959420e-01	 9.640124140880084e-01	 5.765430872073188e+00
 6.650101967026243e-01	 9.704867249294223e-01	 5.589096704607603e+00
 6.556054249597100e-01	 9.768646639868274e-01	 5.413872860890219e+00
 6.461484196709049e-01	 9.831455969181225e-01	 5.239969389659111e+00
 6.366406638193870e-01	 9.893289190932960e-01	 5.067508828435990e+00
 6.270836488280802e-01	 9.954140557351798e-01	 4.896525827105182e+00
 6.174788738183640e-01	 1.001400462038392e+00	 4.726967080298948e+00
 6.078278448679572e-01	 1.007287623266500e+00	 4.558691573630124e+00
 7.055880134234642e-01	 9.487381265774978e-01	 6.394402304551741e+00
 6.963609050524623e-01	 9.555312487947040e-01	 6.217381134032762e+00
 6.870754400241101e-01	 9.622296073309772e-01	 6.040144962481106e+00
 6.777330674014215e-01	 9.688324761584486e-01	 5.863165419064412e+00
 6.683352476861374e-01	 9.753391585540694e-01	 5.686827838285700e+00
 6.588834520845085e-01	 9.817489873067615e-01	 5.511429937992939e+00
 6.493791617692594e-01	 9.880613249027134e-01	 5.337180789389878e+00
 6.398238671384839e-01	 9.942755636887622e-01	 5.164200088680578e+00
 6.302190670722208e-01	 1.000391126013856e+00	 4.992517738597151e+00
 6.205662681874557e-01	 1.006407464348584e+00	 4.822073746617392e+00
 6.108669840922969e-01	 1.012324061382832e+00	 4.652718445199342e+00
 7.090984015499492e-01	 9.534582167594753e-01	 6.489543534372444e+00
 6.998253871671513e-01	 9.602851356046277e-01	 6.313049351409971e+00
 6.904937257953742e-01	 9.670168193077479e-01	 6.136137454193364e+00
 6.811048737069013e-01	 9.736525382288885e-01	 5.959291456808441e+00
 6.716602986696505e-01	 9.801915921787164e-01	 5.782907262066260e+00
 6.621614792093067e-01	 9.866333106266956e-01	 5.607291660333768e+00
 6.526099038676141e-01	 9.929770528873041e-01	 5.432661226984461e+00
 6.430070704575812e-01	 9.992222082842291e-01	 5.259141528539200e+00
 6.333544853163611e-01	 1.005368196292532e+00	 5.086766646139045e+00
 6.236536625565479e-01	 1.011414466658776e+00	 4.915479023517167e+00
 6.139061233166366e-01	 1.017360499499165e+00	 4.745129645107041e+00
 7.126087896764339e-01	 9.581783069414528e-01	 6.582941521798266e+00
 7.032898692818401e-01	 9.650390224145518e-01	 6.406964187557557e+00
 6.939120115666385e-01	 9.718040312845191e-01	 6.230346682108782e+00
 6.844766800123810e-01	 9.784726002993288e-01	 6.053592195336734e+00
 6.749853496531636e-01	 9.850440258033634e-01	 5.877115063030827e+00
 6.654395063341055e-01	 9.915176339466297e-01	 5.701239271031040e+00
 6.558406459659685e-01	 9.978927808718947e-01	 5.526197264434431e+00
 6.461902737766778e-01	 1.004168852879695e+00	 5.352129072396342e+00
 6.364899035605015e-01	 1.010345266571208e+00	 5.179081757604130e+00
 6.267410569256394e-01	 1.016421468968967e+00	 5.007009197981205e+00
 6.169452625409766e-01	 1.022396937615498e+00	 4.835772206614397e+00
 7.161191778029189e-01	 9.628983971234304e-01	 6.674415540943265e+00
 7.067543513965291e-01	 9.697929092244756e-01	 6.498928532409721e+00
 6.973302973379026e-01	 9.765912432612901e-01	 6.322563671719514e+00
 6.878484863178610e-01	 9.832926623697691e-01	 6.145851211685498e+00
 6.783104006366769e-01	 9.898964594280110e-01	 5.969231678739519e+00
 6.687175334589041e-01	 9.964019572665641e-01	 5.793054266930141e+00
 6.590713880643230e-01	 1.002808508856485e+00	 5.617575543242852e+00
 6.493734770957748e-01	 1.009115497475162e+00	 5.442958475275881e+00
 6.396253218046422e-01	 1.015322336849884e+00	 5.269271790825413e+00
 6.298284512947314e-01	 1.021428471279159e+00	 5.096489677358033e+00
 6.199844017653162e-01	 1.027433375731830e+00	 4.924491827762491e+00
 7.196295659294039e-01	 9.676184873054080e-01	 6.763784841845546e+00
 7.102188335112177e-01	 9.745467960343994e-01	 6.588745482871966e+00
 7.007485831091670e-01	 9.813784552380612e-01	 6.412579800436220e+00
 6.912202926233404e-01	 9.881127244402089e-01	 6.235852496210821e+00
 6.816354516201899e-01	 9.947488930526579e-01	 6.059037940534178e+00
 6.719955605837027e-01	 1.001286280586498e+00	 5.882518440836680e+00
 6.623021301626774e-01	 1.007724236841076e+00	 5.706582827473251e+00
 6.525566804148717e-01	 1.014062142070628e+00	 5.531425368535061e+00
 6.427607400487823e-01	 1.020299407128559e+00	 5.357145023702808e+00
 6.329158456638231e-01	 1.026435473589351e+00	 5.183745045585766e+00
 6.230235409896561e-01	 1.032469813848163e+00	 5.011132935356961e+00
 7.231399540558889e-01	 9.723385774873855e-01	 6.850868717856297e+00
 7.136833156259069e-01	 9.793006828443234e-01	 6.676218401257169e+00
 7.041668688804313e-01	 9.861656672148323e-01	 6.500186849119883e+00
 6.945920989288202e-01	 9.929327865106491e-01	 6.323380499209557e+00
 6.849605026037029e-01	 9.996013266773047e-01	 6.146315117189191e+00
 6.752735877085010e-01	 1.006170603906432e+00	 5.969413924085689e+00
 6.655328722610321e-01	 1.012639964825666e+00	 5.793006047068133e+00
 6.557398837339686e-01	 1.019008786666095e+00	 5.617325305703345e+00
 6.458961582929229e-01	 1.025276477407235e+00	 5.442509344280941e+00
 6.360032400329150e-01	 1.031442475899544e+00	 5.268599119164479e+00
 6.260626802139957e-01	 1.037506251964495e+00	 5.095538748432080e+00
 7.266503421823738e-01	 9.770586676693634e-01	 6.935486572843036e+00
 7.171477977405954e-01	 9.840545696542471e-01	 6.761150973756399e+00
 7.075851546516956e-01	 9.909528791916034e-01	 6.585177053805469e+00
 6.979639052343000e-01	 9.977528485810890e-01	 6.408220177832479e+00
 6.882855535872159e-01	 1.004453760301952e+00	 6.230844958900063e+00
 6.785516148332997e-01	 1.011054927226367e+00	 6.053523229434028e+00
 6.687636143593866e-01	 1.017555692810257e+00	 5.876632341424724e+00
 6.589230870530659e-01	 1.023955431261562e+00	 5.700453808465225e+00
 6.490315765370631e-01	 1.030253547685912e+00	 5.525172300801076e+00
 6.390906344020068e-01	 1.036449478209735e+00	 5.350875002887575e+00
 6.291018194383355e-01	 1.042542690080827e+00	 5.177551341210136e+00
 7.301607303088584e-01	 9.817787578513406e-01	 7.017457988216591e+00
 7.206122798552845e-01	 9.888084564641714e-01	 6.843347268944607e+00
 7.110034404229595e-01	 9.957400911683741e-01	 6.667343157613966e+00
 7.013357115397797e-01	 1.002572910651529e+00	 6.490157043283416e+00
 6.916106045707292e-01	 1.009306193926599e+00	 6.312409741596159e+00
 6.818296419580985e-01	 1.015939250546301e+00	 6.134629294269553e+00
 6.719943564577411e-01	 1.022471420794848e+00	 5.957249103222436e+00
 6.621062903721626e-01	 1.028902075857028e+00	 5.780606412777756e+00
 6.521669947812038e-01	 1.035230617964587e+00	 5.604941151728609e+00
 6.421780287710986e-01	 1.041456480519927e+00	 5.430395145339917e+00
 6.321409586626754e-01	 1.047579128197160e+00	 5.257011705574435e+00
 7.336711184353434e-01	 9.864988480333183e-01	 7.096602789787879e+00
 7.240767619699735e-01	 9.935623432740954e-01	 6.922611796318076e+00
 7.144217261942239e-01	 1.000527303145145e+00	 6.746478462845281e+00
 7.047075178452594e-01	 1.007392972721969e+00	 6.568977208290885e+00
 6.949356555542423e-01	 1.014158627551246e+00	 6.390792311570070e+00
 6.851076690828968e-01	 1.020823573866235e+00	 6.212515524120393e+00
 6.752250985560955e-01	 1.027387148779438e+00	 6.034644022491223e+00
 6.652894936912594e-01	 1.033848720452494e+00	 5.857578715122626e+00
 6.553024130253441e-01	 1.040207688243263e+00	 5.681622915756883e+00
 6.452654231401904e-01	 1.046463482830119e+00	 5.506981394169675e+00
 6.351800978870151e-01	 1.052615566313492e+00	 5.333759813071360e+00
 7.371815065618283e-01	 9.912189382152959e-01	 7.172741114456059e+00
 7.275412440846621e-01	 9.983162300840189e-01	 6.998749564864383e+00
 7.178400119654882e-01	 1.005314515121916e+00	 6.822376883245218e+00
 7.080793241507393e-01	 1.012213034792409e+00	 6.644467434845549e+00
 6.982607065377556e-01	 1.019011061175893e+00	 6.465776130408866e+00
 6.883856962076955e-01	 1.025707897186169e+00	 6.286965836459686e+00
 6.784558406544501e-01	 1.032302876764029e+00	 6.108605130914957e+00
 6.684726970103563e-01	 1.038795365047961e+00	 5.931166418882443e+00
 6.584378312694844e-01	 1.045184758521939e+00	 5.755024421785302e+00
 6.483528175092823e-01	 1.051470485140311e+00	 5.580455051141056e+00
 6.382192371113549e-01	 1.057652004429825e+00	 5.407634676457644e+00
 6.078278448679572e-01	 1.007287623266500e+00	 4.558691573630124e+00
 5.981320742687145e-01	 1.013075054827481e+00	 4.394711293651987e+00
 5.883930797850575e-01	 1.018762302327562e+00	 4.237970695493458e+00
 5.786123839137655e-01	 1.024348941603557e+00	 4.086854814911603e+00
 5.687915131458404e-01	 1.029834578733869e+00	 3.939557715494868e+00
 5.589319972311421e-01	 1.035218850028295e+00	 3.795527145097128e+00
 5.490353684464934e-01	 1.040501421996877e+00	 3.654164488582139e+00
 5.391031608679316e-01	 1.045681991297978e+00	 3.514826471795536e+00
 5.291369096477752e-01	 1.050760284665871e+00	 3.376827334174784e+00
 5.191381502971587e-01	 1.055736058818086e+00	 3.239441130273398e+00
 5.091084179746784e-01	 1.060609100342826e+00	 3.101904152899859e+00
 6.108669840922969e-01	 1.012324061382832e+00	 4.652718445199342e+00
 6.011227346400583e-01	 1.018140430101619e+00	 4.487469501567018e+00
 5.913350451839826e-01	 1.023856113839199e+00	 4.329302636763134e+00
 5.815054458333343e-01	 1.029470686311575e+00	 4.177263561339315e+00
 5.716354707115696e-01	 1.034983751627538e+00	 4.029043736830172e+00
 5.617266572172975e-01	 1.040394944278437e+00	 3.883988828354059e+00
 5.517805452887258e-01	 1.045703929106861e+00	 3.741526522387178e+00
 5.417986766722713e-01	 1.050910401254468e+00	 3.601039650639249e+00
 5.317825941960140e-01	 1.056014086089200e+00	 3.461868338672724e+00
 5.217338410486445e-01	 1.061014739112176e+00	 3.323312287074836e+00
 5.116539600645519e-01	 1.065912145844541e+00	 3.184633177851450e+00
 6.139061233166366e-01	 1.017360499499165e+00	 4.745129645107041e+00
 6.041133950114018e-01	 1.023205805375756e+00	 4.578752242742422e+00
 5.942770105829079e-01	 1.028949925350837e+00	 4.419347794825963e+00
 5.843985077529033e-01	 1.034592431019593e+00	 4.266384261838362e+00
 5.744794282772987e-01	 1.040132924521207e+00	 4.117488143147980e+00
 5.645213172034534e-01	 1.045571038528579e+00	 3.971652868703258e+00
 5.545257221309582e-01	 1.050906436216845e+00	 3.828315682768678e+00
 5.444941924766110e-01	 1.056138811210958e+00	 3.686868455856638e+00
 5.344282787442528e-01	 1.061267887512530e+00	 3.546659835677006e+00
 5.243295318001302e-01	 1.066293419406266e+00	 3.406997534480068e+00
 5.141995021544253e-01	 1.071215191346255e+00	 3.267150745372661e+00
 6.169452625409766e-01	 1.022396937615498e+00	 4.835772206614397e+00
 6.071040553827455e-01	 1.028271180649894e+00	 4.668425939298229e+00
 5.972189759818334e-01	 1.034043736862475e+00	 4.507985846279714e+00
 5.872915696724721e-01	 1.039714175727611e+00	 4.354102799574112e+00
 5.773233858430280e-01	 1.045282097414877e+00	 4.204779918434032e+00
 5.673159771896091e-01	 1.050747132778720e+00	 4.058405845667259e+00
 5.572708989731907e-01	 1.056108943326830e+00	 3.914410883849154e+00
 5.471897082809506e-01	 1.061367221167448e+00	 3.772179121934768e+00
 5.370739632924919e-01	 1.066521688935859e+00	 3.631050614644140e+00
 5.269252225516161e-01	 1.071572099700357e+00	 3.490323702276280e+00
 5.167450442442987e-01	 1.076518236847969e+00	 3.349257463408098e+00
 6.199844017653162e-01	 1.027433375731830e+00	 4.924491827762491e+00
 6.100947157540887e-01	 1.033336555924031e+00	 4.756355255460011e+00
 6.001609413807584e-01	 1.039137548374113e+00	 4.595094414085873e+00
 5.901846315920409e-01	 1.044835920435629e+00	 4.440353826003200e+00
 5.801673434087572e-01	 1.050431270308546e+00	 4.290805331226425e+00
 5.701106371757647e-01	 1.055923227028861e+00	 4.144131744407161e+00
 5.600160758154231e-01	 1.061311450436814e+00	 3.999688673925183e+00
 5.498852240852902e-01	 1.066595631123937e+00	 3.856835848647099e+00
 5.397196478407306e-01	 1.071775490359188e+00	 3.714887859069056e+00
 5.295209133031019e-01	 1.076850779994447e+00	 3.573116535698595e+00
 5.192905863341720e-01	 1.081821282349683e+00	 3.430753464380901e+00
 6.230235409896561e-01	 1.032469813848163e+00	 5.011132935356961e+00
 6.130853761254326e-01	 1.038401931198168e+00	 4.842403168546074e+00
 6.031029067796839e-01	 1.044231359885751e+00	 4.680549142516400e+00
 5.930776935116099e-01	 1.049957665143646e+00	 4.525182222126127e+00
 5.830113009744863e-01	 1.055580443202215e+00	 4.375447981511145e+00
 5.729052971619204e-01	 1.061099321279003e+00	 4.228711999055647e+00
 5.627612526576556e-01	 1.066513957546799e+00	 4.084023272666759e+00
 5.525807398896300e-01	 1.071824041080427e+00	 3.940700829666355e+00
 5.423653323889696e-01	 1.077029291782518e+00	 3.798017164191571e+00
 5.321166040545875e-01	 1.082129460288537e+00	 3.655200700023388e+00
 5.218361284240455e-01	 1.087124327851397e+00	 3.511438394589025e+00
 6.260626802139957e-01	 1.037506251964495e+00	 5.095538748432080e+00
 6.160760364967760e-01	 1.043467306472306e+00	 4.926431039184149e+00
 6.060448721786093e-01	 1.049325171397389e+00	 4.764223771168094e+00
 5.959707554311788e-01	 1.055079409851664e+00	 4.608480604726794e+00
 5.858552585402158e-01	 1.060729616095885e+00	 4.458588846618611e+00
 5.756999571480762e-01	 1.066275415529144e+00	 4.312025535133956e+00
 5.655064294998882e-01	 1.071716464656783e+00	 4.167286607561243e+00
 5.552762556939698e-01	 1.077052451036917e+00	 4.023634280661624e+00
 5.450110169372083e-01	 1.082283093205847e+00	 3.880282554480346e+00
 5.347122948060734e-01	 1.087408140582628e+00	 3.736399785304283e+00
 5.243816705139188e-01	 1.092427373353111e+00	 3.591111404177938e+00
 6.291018194383355e-01	 1.042542690080827e+00	 5.177551341210136e+00
 6.190666968681197e-01	 1.048532681746444e+00	 5.008298680784456e+00
 6.089868375775346e-01	 1.054418982909027e+00	 4.845990208077692e+00
 5.988638173507476e-01	 1.060201154559682e+00	 4.690127557709036e+00
 5.886992161059449e-01	 1.065878788989554e+00	 4.540109261275303e+00
 5.784946171342320e-01	 1.071451509779286e+00	 4.393948811087564e+00
 5.682516063421206e-01	 1.076918971766768e+00	 4.249348349629087e+00
 5.579717714983091e-01	 1.082280860993407e+00	 4.105494466887023e+00
 5.476567014854473e-01	 1.087536894629176e+00	 3.961526500906822e+00
 5.373079855575592e-01	 1.092686820876719e+00	 3.816536311249377e+00
 5.269272126037922e-01	 1.097730418854825e+00	 3.669571137659524e+00
 6.321409586626754e-01	 1.047579128197160e+00	 5.257011705574435e+00
 6.220573572394630e-01	 1.053598057020580e+00	 5.087864428290334e+00
 6.119288029764597e-01	 1.059512794420664e+00	 4.925718601966361e+00
 6.017568792703163e-01	 1.065322899267700e+00	 4.769999736102958e+00
 5.915431736716742e-01	 1.071027961883223e+00	 4.620026092206171e+00
 5.812892771203877e-01	 1.076627604029427e+00	 4.474355858964924e+00
 5.709967831843530e-01	 1.082121478876752e+00	 4.330075948438776e+00
 5.606672873026489e-01	 1.087509270949897e+00	 4.186137730285434e+00
 5.503023860336862e-01	 1.092790696052506e+00	 4.041589938009252e+00
 5.399036763090451e-01	 1.097965501170809e+00	 3.895431732231458e+00
 5.294727546936656e-01	 1.103033464356539e+00	 3.746615724966307e+00
 6.351800978870151e-01	 1.052615566313492e+00	 5.333759813071360e+00
 6.250480176108067e-01	 1.058663432294718e+00	 5.164985206237661e+00
 6.148707683753850e-01	 1.064606605932302e+00	 5.003277413645911e+00
 6.046499411898851e-01	 1.070444643975718e+00	 4.847971938213725e+00
 5.943871312374033e-01	 1.076177134776892e+00	 4.698292478420017e+00
 5.840839371065433e-01	 1.081803698279569e+00	 4.553118324275630e+00
 5.737419600265854e-01	 1.087323985986737e+00	 4.409334666438085e+00
 5.633628031069885e-01	 1.092737680906387e+00	 4.265418516124093e+00
 5.529480705819252e-01	 1.098044497475835e+00	 4.120312280759588e+00
 5.424993670605306e-01	 1.103244181464899e+00	 3.972906442429490e+00
 5.320182967835392e-01	 1.108336509858254e+00	 3.822042773018393e+00
 6.382192371113549e-01	 1.057652004429825e+00	 5.407634676457644e+00
 6.280386779821504e-01	 1.063728807568856e+00	 5.239516596137149e+00
 6.178127337743102e-01	 1.069700417443940e+00	 5.078533486610587e+00
 6.075430031094539e-01	 1.075566388683735e+00	 4.923917176893324e+00
 5.972310888031325e-01	 1.081326307670562e+00	 4.774782725673099e+00
 5.868785970926990e-01	 1.086979792529710e+00	 4.630105505047489e+00
 5.764871368688180e-01	 1.092526493096721e+00	 4.486987612629212e+00
 5.660583189113282e-01	 1.097966090862877e+00	 4.343189399171184e+00
 5.555937551301640e-01	 1.103298298899164e+00	 4.197531441238112e+00
 5.450950578120166e-01	 1.108522861758990e+00	 4.048779781095349e+00
 5.345638388734124e-01	 1.113639555359967e+00	 3.895649357789072e+00
 5.091084179746784e-01	 1.060609100342826e+00	 3.101904152899859e+00
 4.990492467817728e-01	 1.065379225566767e+00	 2.965958887733289e+00
 4.889621690654387e-01	 1.070046280403572e+00	 2.833774816621818e+00
 4.788487147288864e-01	 1.074610140183496e+00	 2.705189657044428e+00
 4.687104105506970e-01	 1.079070709464443e+00	 2.580026024486112e+00
 4.585487795130406e-01	 1.083427921824890e+00	 2.458093051920357e+00
 4.483653401394906e-01	 1.087681739639081e+00	 2.339188079649335e+00
 4.381616058429504e-01	 1.091832153834932e+00	 2.223098407332391e+00
 4.279390842841876e-01	 1.095879183635090e+00	 2.109603099761908e+00
 4.176992767414514e-01	 1.099822876281616e+00	 1.998474837731165e+00
 4.074436774916262e-01	 1.103663306744769e+00	 1.889481805148232e+00
 5.116539600645519e-01	 1.065912145844541e+00	 3.184633177851454e+00
 5.015444930156818e-01	 1.070706121694601e+00	 3.047719149179733e+00
 4.914069799107659e-01	 1.075396511805590e+00	 2.914815430353459e+00
 4.812429583025308e-01	 1.079983190884414e+00	 2.785678901979618e+00
 4.710539626034503e-01	 1.084466063011765e+00	 2.660049905725688e+00
 4.608415234106057e-01	 1.088845061434015e+00	 2.537654015810696e+00
 4.506071668401880e-01	 1.093120148337277e+00	 2.418203883146070e+00
 4.403524138721650e-01	 1.097291314604106e+00	 2.301401143584148e+00
 4.300787797056086e-01	 1.101358579553265e+00	 2.186938381442594e+00
 4.197877731251584e-01	 1.105321990663025e+00	 2.074501139247830e+00
 4.094808958790843e-01	 1.109181623278493e+00	 1.963769964456565e+00
 5.141995021544253e-01	 1.071215191346255e+00	 3.267150745372664e+00
 5.040397392495906e-01	 1.076033017822435e+00	 3.129131605042928e+00
 4.938517907560930e-01	 1.080746743207608e+00	 2.995270390336837e+00
 4.836372018761752e-01	 1.085356241585331e+00	 2.865271842140502e+00
 4.733975146562039e-01	 1.089861416559087e+00	 2.738823104535807e+00
 4.631342673081711e-01	 1.094262201043139e+00	 2.615595604203237e+00
 4.528489935408856e-01	 1.098558557035472e+00	 2.495247005013241e+00
 4.425432219013798e-01	 1.102750475373281e+00	 2.377423228933195e+00
 4.322184751270296e-01	 1.106837975471440e+00	 2.261760534100410e+00
 4.218762695088658e-01	 1.110821105044433e+00	 2.147887640658315e+00
 4.115181142665424e-01	 1.114699939812217e+00	 2.035427894784678e+00
 5.167450442442987e-01	 1.076518236847969e+00	 3.349257463408099e+00
 5.065349854834993e-01	 1.081359913950268e+00	 3.209973129273294e+00
 4.962966016014200e-01	 1.086096974609626e+00	 3.074901603416419e+00
 4.860314454498196e-01	 1.090729292286248e+00	 2.943723728316383e+00
 4.757410667089575e-01	 1.095256770106410e+00	 2.816102067173928e+00
 4.654270112057362e-01	 1.099679340652264e+00	 2.691682847532707e+00
 4.550908202415828e-01	 1.103996965733667e+00	 2.570097982852500e+00
 4.447340299305946e-01	 1.108209636142456e+00	 2.450967162907975e+00
 4.343581705484504e-01	 1.112317371389616e+00	 2.333900003594053e+00
 4.239647658925729e-01	 1.116320219425841e+00	 2.218498246465422e+00
 4.135553326540006e-01	 1.120218256345941e+00	 2.104357998149132e+00
 5.192905863341720e-01	 1.081821282349683e+00	 3.430753464380897e+00
 5.090302317174082e-01	 1.086686810078103e+00	 3.290020684489455e+00
 4.987414124467474e-01	 1.091447206011644e+00	 3.153471461221157e+00
 4.884256890234643e-01	 1.096102342987166e+00	 3.020790532919211e+00
 4.780846187617108e-01	 1.100652123653732e+00	 2.891644047942515e+00
 4.677197551033014e-01	 1.105096480261388e+00	 2.765681529188511e+00
 4.573326469422804e-01	 1.109435374431863e+00	 2.642537919565182e+00
 4.469248379598095e-01	 1.113668796911631e+00	 2.521835699094014e+00
 4.364978659698714e-01	 1.117796767307792e+00	 2.403187064019790e+00
 4.260532622762802e-01	 1.121819333807249e+00	 2.286196158037763e+00
 4.155925510414586e-01	 1.125736572879665e+00	 2.170461345553587e+00
 5.218361284240455e-01	 1.087124327851397e+00	 3.511438394589025e+00
 5.115254779513172e-01	 1.092013706205937e+00	 3.369051297335842e+00
 5.011862232920744e-01	 1.096797437413662e+00	 3.230742805637572e+00
 4.908199325971085e-01	 1.101475393688083e+00	 3.096228909520346e+00
 4.804281708144643e-01	 1.106047477201054e+00	 2.965207066514184e+00
 4.700124990008665e-01	 1.110513619870512e+00	 2.837358144138047e+00
 4.595744736429780e-01	 1.114873783130059e+00	 2.712348446563126e+00
 4.491156459890242e-01	 1.119127957680805e+00	 2.589831816009065e+00
 4.386375613912923e-01	 1.123276163225967e+00	 2.469451799101932e+00
 4.281417586599875e-01	 1.127318448188657e+00	 2.350843868150077e+00
 4.176297694289168e-01	 1.131254889413389e+00	 2.233637687081552e+00
 5.243816705139188e-01	 1.092427373353111e+00	 3.591111404177938e+00
 5.140207241852259e-01	 1.097340602333770e+00	 3.446842034805686e+00
 5.036310341374017e-01	 1.102147668815680e+00	 3.306478895521398e+00
 4.932141761707528e-01	 1.106848444389001e+00	 3.169796153778376e+00
 4.827717228672179e-01	 1.111442830748377e+00	 3.036549866696544e+00
 4.723052428984318e-01	 1.115930759479637e+00	 2.906479858939403e+00
 4.618163003436754e-01	 1.120312191828254e+00	 2.779311688228025e+00
 4.513064540182388e-01	 1.124587118449980e+00	 2.654758688989322e+00
 4.407772568127132e-01	 1.128755559144142e+00	 2.532524084275649e+00
 4.302302550436949e-01	 1.132817562570065e+00	 2.412303155814819e+00
 4.196669878163750e-01	 1.136773205947113e+00	 2.293785461822460e+00
 5.269272126037922e-01	 1.097730418854825e+00	 3.669571137659524e+00
 5.165159704191348e-01	 1.102667498461604e+00	 3.523169981490693e+00
 5.060758449827290e-01	 1.107497900217697e+00	 3.380443374599622e+00
 4.956084197443974e-01	 1.112221495089918e+00	 3.241250165712449e+00
 4.851152749199714e-01	 1.116838184295699e+00	 3.105431876593539e+00
 4.745979867959969e-01	 1.121347899088761e+00	 2.972814473097726e+00
 4.640581270443729e-01	 1.125750600526449e+00	 2.843210227567711e+00
 4.534972620474538e-01	 1.130046279219155e+00	 2.716419663046377e+00
 4.429169522341341e-01	 1.134234955062318e+00	 2.592233569433144e+00
 4.323187514274021e-01	 1.138316676951473e+00	 2.470435081399567e+00
 4.217042062038331e-01	 1.142291522480837e+00	 2.350801807629796e+00
 5.294727546936656e-01	 1.103033464356539e+00	 3.746615724966311e+00
 5.190112166530437e-01	 1.107994394589438e+00	 3.597812217733332e+00
 5.085206558280562e-01	 1.112848131619716e+00	 3.452400240527976e+00
 4.980026633180419e-01	 1.117594545790836e+00	 3.310349413279431e+00
 4.874588269727248e-01	 1.122233537843021e+00	 3.171613170111470e+00
 4.768907306935622e-01	 1.126765038697886e+00	 3.036130381723265e+00
 4.662999537450702e-01	 1.131189009224645e+00	 2.903827073038579e+00
 4.556880700766683e-01	 1.135505439988329e+00	 2.774618226664765e+00
 4.450566476555551e-01	 1.139714350980493e+00	 2.648409662313037e+00
 4.344072478111093e-01	 1.143815791332881e+00	 2.525099982019021e+00
 4.237414245912913e-01	 1.147809839014561e+00	 2.404582570721671e+00
 5.320182967835392e-01	 1.108336509858254e+00	 3.822042773018393e+00
 5.215064628869526e-01	 1.113321290717272e+00	 3.670545798646215e+00
 5.109654666733834e-01	 1.118198363021733e+00	 3.522113815063029e+00
 5.003969068916861e-01	 1.122967596491753e+00	 3.376852897203266e+00
 4.898023790254783e-01	 1.127628891390343e+00	 3.234854429771601e+00
 4.791834745911274e-01	 1.132182178307011e+00	 3.096196539440711e+00
 4.685417804457677e-01	 1.136627417922840e+00	 2.960945626486267e+00
 4.578788781058833e-01	 1.140964600757504e+00	 2.829157986510863e+00
 4.471963430769760e-01	 1.145193746898669e+00	 2.700881512511554e+00
 4.364957441948165e-01	 1.149314905714289e+00	 2.576157467188987e+00
 4.257786429787495e-01	 1.153328155548284e+00	 2.455022315125120e+00
 5.345638388734124e-01	 1.113639555359967e+00	 3.895649357789072e+00
 5.240017091208614e-01	 1.118648186845105e+00	 3.741147733972514e+00
 5.134102775187105e-01	 1.123548594423751e+00	 3.589348715311523e+00
 5.027911504653305e-01	 1.128340647192671e+00	 3.440520117026133e+00
 4.921459310782318e-01	 1.133024244937666e+00	 3.294916910776991e+00
 4.814762184886927e-01	 1.137599317916135e+00	 3.152782425515618e+00
 4.707836071464651e-01	 1.142065826621035e+00	 3.014349652173121e+00
 4.600696861350979e-01	 1.146423761526678e+00	 2.879842643019957e+00
 4.493360384983969e-01	 1.150673142816844e+00	 2.749477996094853e+00
 4.385842405785238e-01	 1.154814020095698e+00	 2.623466414741434e+00
 4.278158613662075e-01	 1.158846472082008e+00	 2.502014331974051e+00
 4.074436774916262e-01	 1.103663306744769e+00	 1.889481805148232e+00
 3.971737732033573e-01	 1.107400577416369e+00	 1.782546029417556e+00
 3.868910423425523e-01	 1.111034817788260e+00	 1.677741905801935e+00
 3.765969545906551e-01	 1.114566184116378e+00	 1.575064759365177e+00
 3.662929702760519e-01	 1.117994859070938e+00	 1.474512291720040e+00
 3.559805398189585e-01	 1.121321051373291e+00	 1.376086189831796e+00
 3.456611031901038e-01	 1.124544995419970e+00	 1.279793724244884e+00
 3.353360893835132e-01	 1.127666950894488e+00	 1.185649328374444e+00
 3.250069159036647e-01	 1.130687202367431e+00	 1.093676150678018e+00
 3.146749882672699e-01	 1.133606058885402e+00	 1.003907571740857e+00
 3.043416995199114e-01	 1.136423853549384e+00	 9.163886785622410e-01
 4.094808958790843e-01	 1.109181623278493e+00	 1.963769964456565e+00
 3.991596420693742e-01	 1.112937580303451e+00	 1.854626535687232e+00
 3.888254975542650e-01	 1.116589991877202e+00	 1.747209456402033e+00
 3.784799393636083e-01	 1.120139015036960e+00	 1.641583451045775e+00
 3.681244351274323e-01	 1.123584833366293e+00	 1.537816204682932e+00
 3.577604425180532e-01	 1.126927656630157e+00	 1.435979906729326e+00
 3.473894087060542e-01	 1.130167720397069e+00	 1.336152785896156e+00
 3.370127698304307e-01	 1.133305285648961e+00	 1.238420627880738e+00
 3.266319504831830e-01	 1.136340638379268e+00	 1.142878267516123e+00
 3.162483632086063e-01	 1.139274089179829e+00	 1.049631047302418e+00
 3.058634080175109e-01	 1.142105972817131e+00	 9.587962344980561e-01
 4.115181142665424e-01	 1.114699939812217e+00	 2.035427894784674e+00
 4.011455109353908e-01	 1.118474583190533e+00	 1.924259537215423e+00
 3.907599527659780e-01	 1.122145165966143e+00	 1.814593279699788e+00
 3.803629241365615e-01	 1.125711845957541e+00	 1.706550111045495e+00
 3.699558999788124e-01	 1.129174807661648e+00	 1.600254423055679e+00
 3.595403452171481e-01	 1.132534261887024e+00	 1.495835509137694e+00
 3.491177142220048e-01	 1.135790445374169e+00	 1.393429055755517e+00
 3.386894502773485e-01	 1.138943620403433e+00	 1.293178618126889e+00
 3.282569850627015e-01	 1.141994074391105e+00	 1.195237071739331e+00
 3.178217381499426e-01	 1.144942119474256e+00	 1.099768031472782e+00
 3.073851165151104e-01	 1.147788092084878e+00	 1.006947230361866e+00
 4.135553326540006e-01	 1.120218256345941e+00	 2.104357998149136e+00
 4.031313798014077e-01	 1.124011586077614e+00	 1.991386485948909e+00
 3.926944079776907e-01	 1.127700340055084e+00	 1.879870381988299e+00
 3.822459089095149e-01	 1.131284676878124e+00	 1.769973988284654e+00
 3.717873648301928e-01	 1.134764781957003e+00	 1.661865310959626e+00
 3.613202479162428e-01	 1.138140867143890e+00	 1.555717533552766e+00
 3.508460197379553e-01	 1.141413170351269e+00	 1.451710484650969e+00
 3.403661307242660e-01	 1.144581955157905e+00	 1.350032091077872e+00
 3.298820196422197e-01	 1.147647510402942e+00	 1.250879808050022e+00
 3.193951130912789e-01	 1.150610149768683e+00	 1.154462017914185e+00
 3.089068250127100e-01	 1.153470211352624e+00	 1.060999389340488e+00
 4.155925510414586e-01	 1.125736572879665e+00	 2.170461345553591e+00
 4.051172486674247e-01	 1.129548588964697e+00	 2.055946866144993e+00
 3.946288631894034e-01	 1.133255514144025e+00	 1.943015235505909e+00
 3.841288936824681e-01	 1.136857507798706e+00	 1.831861297683787e+00
 3.736188296815729e-01	 1.140354756252357e+00	 1.722683761091609e+00
 3.631001506153376e-01	 1.143747472400757e+00	 1.615686666222691e+00
 3.525743252539059e-01	 1.147035895328369e+00	 1.511080849008904e+00
 3.420428111711835e-01	 1.150220289912378e+00	 1.409085390872791e+00
 3.315070542217381e-01	 1.153300946414779e+00	 1.309929046676727e+00
 3.209684880326154e-01	 1.156278180063110e+00	 1.213851641995625e+00
 3.104285335103095e-01	 1.159152330620371e+00	 1.121105431387194e+00
 4.176297694289168e-01	 1.131254889413389e+00	 2.233637687081559e+00
 4.071031175334413e-01	 1.135085591851778e+00	 2.117878220289816e+00
 3.965633184011161e-01	 1.138810688232966e+00	 2.003999818511814e+00
 3.860118784554215e-01	 1.142430338719287e+00	 1.892215272833843e+00
 3.754502945329531e-01	 1.145944730547712e+00	 1.782741258511370e+00
 3.648800533144324e-01	 1.149354077657623e+00	 1.675799816667365e+00
 3.543026307698563e-01	 1.152658620305469e+00	 1.571619832815665e+00
 3.437194916181011e-01	 1.155858624666850e+00	 1.470438503026327e+00
 3.331320888012564e-01	 1.158954382426616e+00	 1.372502778717681e+00
 3.225418629739518e-01	 1.161946210357537e+00	 1.278070781270513e+00
 3.119502420079092e-01	 1.164834449888118e+00	 1.187413177915698e+00
 4.196669878163750e-01	 1.136773205947113e+00	 2.293785461822460e+00
 4.090889863994580e-01	 1.140622594738860e+00	 2.177116174374274e+00
 3.984977736128289e-01	 1.144365862321908e+00	 2.062793654303162e+00
 3.878948632283747e-01	 1.148003169639869e+00	 1.951036217226228e+00
 3.772817593843335e-01	 1.151534704843066e+00	 1.842065942651616e+00
 3.666599560135273e-01	 1.154960682914490e+00	 1.736110189128682e+00
 3.560309362858070e-01	 1.158281345282569e+00	 1.633403107253366e+00
 3.453961720650187e-01	 1.161496959421323e+00	 1.534187141093994e+00
 3.347571233807747e-01	 1.164607818438454e+00	 1.438714508763030e+00
 3.241152379152880e-01	 1.167614240651964e+00	 1.347248653072471e+00
 3.134719505055088e-01	 1.170516569155866e+00	 1.260065653480712e+00
 4.217042062038331e-01	 1.142291522480837e+00	 2.350801807629797e+00
 4.110748552654748e-01	 1.146159597625942e+00	 2.233594462550835e+00
 4.004322288245417e-01	 1.149921036410849e+00	 2.119363849200651e+00
 3.897778480013279e-01	 1.153576000560451e+00	 2.008321554089171e+00
 3.791132242357137e-01	 1.157124679138421e+00	 1.900682667615774e+00
 3.684398587126220e-01	 1.160567288171356e+00	 1.796667352022300e+00
 3.577592418017574e-01	 1.163904070259669e+00	 1.696502408094887e+00
 3.470728525119362e-01	 1.167135294175795e+00	 1.600422830881546e+00
 3.363821579602931e-01	 1.170261254450291e+00	 1.508673344878184e+00
 3.256886128566244e-01	 1.173282270946391e+00	 1.421509909327018e+00
 3.149936590031083e-01	 1.176198688423613e+00	 1.339201184556208e+00
 4.237414245912913e-01	 1.147809839014561e+00	 2.404582570721667e+00
 4.130607241314916e-01	 1.151696600513024e+00	 2.287244951187725e+00
 4.023666840362545e-01	 1.155476210499791e+00	 2.173675129538324e+00
 3.916608327742813e-01	 1.159148831481033e+00	 2.064065874878465e+00
 3.809446890870939e-01	 1.162714653433776e+00	 1.958613060816248e+00
 3.702197614117169e-01	 1.166173893428222e+00	 1.857517305463962e+00
 3.594875473177079e-01	 1.169526795236769e+00	 1.760985610933185e+00
 3.487495329588538e-01	 1.172773628930268e+00	 1.669232992283860e+00
 3.380071925398114e-01	 1.175914690462128e+00	 1.582484086047767e+00
 3.272619877979608e-01	 1.178950301240818e+00	 1.498694491118573e+00
 3.165153675007077e-01	 1.181880807691359e+00	 1.414007657721280e+00
 4.257786429787495e-01	 1.153328155548284e+00	 2.455022315125124e+00
 4.150465929975084e-01	 1.157233603400105e+00	 2.337997662346974e+00
 4.043011392479673e-01	 1.161031384588732e+00	 2.225689877694323e+00
 3.935438175472344e-01	 1.164721662401615e+00	 2.118260986465597e+00
 3.827761539384742e-01	 1.168304627729131e+00	 2.015875580013190e+00
 3.719996641108116e-01	 1.171780498685089e+00	 1.918702546923706e+00
 3.612158528336583e-01	 1.175149520213868e+00	 1.826916804313384e+00
 3.504262134057713e-01	 1.178411963684740e+00	 1.739330609918091e+00
 3.396322271193297e-01	 1.181568126473965e+00	 1.650708394166621e+00
 3.288353627392971e-01	 1.184618331535245e+00	 1.561168228567348e+00
 3.180370759983073e-01	 1.187562926959107e+00	 1.471486042446988e+00
 4.278158613662075e-01	 1.158846472082008e+00	 2.502014331974058e+00
 4.170324618635253e-01	 1.162770606287188e+00	 2.385780796696552e+00
 4.062355944596800e-01	 1.166586558677673e+00	 2.275368167189750e+00
 3.954268023201878e-01	 1.170294493322197e+00	 2.170895957071674e+00
 3.846076187898545e-01	 1.173894602024485e+00	 2.072485568802878e+00
 3.737795668099064e-01	 1.177387103941955e+00	 1.979963461061022e+00
 3.629441583496090e-01	 1.180772245190968e+00	 1.887705660090512e+00
 3.521028938526889e-01	 1.184050298439213e+00	 1.794045130723321e+00
 3.412572616988480e-01	 1.187221562485802e+00	 1.699682122957102e+00
 3.304087376806334e-01	 1.190286361829672e+00	 1.605348734195500e+00
 3.195587844959069e-01	 1.193245046226853e+00	 1.511806353153777e+00
 3.043416995199114e-01	 1.136423853549384e+00	 9.163886785622410e-01
 2.940084297677445e-01	 1.139140943083078e+00	 8.316753426261725e-01
 2.836765457244445e-01	 1.141757707391786e+00	 7.502659606612636e-01
 2.733474002735659e-01	 1.144274549112398e+00	 6.721417235146561e-01
 2.630223320464536e-01	 1.146691893155064e+00	 5.973017442415736e-01
 2.527026650158226e-01	 1.149010186237094e+00	 5.257642679564567e-01
 2.423897081051050e-01	 1.151229896409671e+00	 4.575677978956847e-01
 2.320847548136412e-01	 1.153351512577927e+00	 3.927721326208728e-01
 2.217890828577676e-01	 1.155375544014936e+00	 3.314593097634231e-01
 2.115039538278393e-01	 1.157302519870189e+00	 2.737344522020866e-01
 2.012306128611993e-01	 1.159132988673088e+00	 2.197265130747250e-01
 3.058634080175109e-01	 1.142105972817131e+00	 9.587962344980561e-01
 2.954784719165833e-01	 1.144836647798494e+00	 8.709939875811132e-01
 2.850949284530667e-01	 1.147466495928744e+00	 7.867475286361865e-01
 2.747141372749336e-01	 1.149995921857960e+00	 7.060516575190894e-01
 2.643374437066859e-01	 1.152425352620839e+00	 6.289197623092195e-01
 2.539661783409017e-01	 1.154755237168279e+00	 5.553850419513036e-01
 2.436016566456305e-01	 1.156986045891719e+00	 4.855016435772943e-01
 2.332451785877094e-01	 1.159118270140816e+00	 4.193457092864201e-01
 2.228980282720564e-01	 1.161152421735011e+00	 3.570163276639029e-01
 2.125614735969786e-01	 1.163089032469541e+00	 2.986363857983267e-01
 2.022367659255053e-01	 1.164928653616454e+00	 2.443533180957393e-01
 3.073851165151104e-01	 1.147788092084878e+00	 1.006947230361866e+00
 2.969485140654219e-01	 1.150532352513909e+00	 9.174441763106738e-01
 2.865133111816888e-01	 1.153175284465703e+00	 8.317905447478942e-01
 2.760808742763016e-01	 1.155717294603522e+00	 7.499788270087553e-01
 2.656525553669182e-01	 1.158158812086615e+00	 6.720207282752617e-01
 2.552296916659809e-01	 1.160500288099465e+00	 5.979484252596414e-01
 2.448136051861561e-01	 1.162742195373768e+00	 5.278157366196177e-01
 2.344056023617776e-01	 1.164885027703706e+00	 4.616992007089880e-01
 2.240069736863453e-01	 1.166929299455086e+00	 3.996990557857414e-01
 2.136189933661178e-01	 1.168875545068892e+00	 3.419401182966575e-01
 2.032429189898113e-01	 1.170724318559819e+00	 2.885725554012661e-01
 3.089068250127100e-01	 1.153470211352624e+00	 1.060999389340488e+00
 2.984185562142607e-01	 1.156228057229324e+00	 9.711951436632171e-01
 2.879316939103111e-01	 1.158884073002663e+00	 8.855723627538432e-01
 2.774476112776693e-01	 1.161438667349084e+00	 8.041055314486765e-01
 2.669676670271504e-01	 1.163892271552390e+00	 7.267889337802989e-01
 2.564932049910599e-01	 1.166245339030650e+00	 6.536379678215396e-01
 2.460255537266817e-01	 1.168498344855816e+00	 5.846903708887980e-01
 2.355660261358458e-01	 1.170651785266596e+00	 5.200073495243762e-01
 2.251159191006340e-01	 1.172706177175160e+00	 4.596746091851283e-01
 2.146765131352570e-01	 1.174662057668243e+00	 4.038032790927688e-01
 2.042490720541173e-01	 1.176519983503185e+00	 3.525297617997345e-01
 3.104285335103095e-01	 1.159152330620371e+00	 1.121105431387194e+00
 2.998885983630994e-01	 1.161923761944740e+00	 1.032411028544966e+00
 2.893500766389333e-01	 1.164592861539622e+00	 9.482652128838391e-01
 2.788143482790372e-01	 1.167160040094646e+00	 8.686089796617700e-01
 2.682827786873827e-01	 1.169625731018165e+00	 7.934036685281391e-01
 2.577567183161391e-01	 1.171990389961836e+00	 7.226323575051135e-01
 2.472375022672071e-01	 1.174254494337864e+00	 6.563011645537373e-01
 2.367264499099140e-01	 1.176418542829486e+00	 5.944404509155841e-01
 2.262248645149230e-01	 1.178483054895235e+00	 5.355131723637614e-01
 2.157340329043961e-01	 1.180448570267594e+00	 4.781329792879285e-01
 2.052552251184233e-01	 1.182315648446550e+00	 4.228396251700870e-01
 3.119502420079092e-01	 1.164834449888118e+00	 1.187413177915698e+00
 3.013586405119383e-01	 1.167619466660155e+00	 1.101250981585701e+00
 2.907684593675556e-01	 1.170301650076581e+00	 1.020036310914313e+00
 2.801810852804050e-01	 1.172881412840208e+00	 9.436613988591929e-01
 2.695978903476149e-01	 1.175359190483940e+00	 8.720393279229883e-01
 2.590202316412181e-01	 1.177735440893021e+00	 8.044853748534151e-01
 2.484494508077327e-01	 1.180010643819913e+00	 7.379361037125776e-01
 2.378868736839822e-01	 1.182185300392375e+00	 6.723790240645569e-01
 2.273338099292118e-01	 1.184259932615310e+00	 6.082965502526112e-01
 2.167915526735353e-01	 1.186235082866944e+00	 5.461884453638564e-01
 2.062613781827293e-01	 1.188111313389915e+00	 4.865704201141736e-01
 3.134719505055088e-01	 1.170516569155866e+00	 1.260065653480712e+00
 3.028286826607769e-01	 1.173315171375571e+00	 1.177869269699005e+00
 2.921868420961778e-01	 1.176010438613539e+00	 1.101047964089600e+00
 2.815478222817729e-01	 1.178602785585770e+00	 1.027689648821751e+00
 2.709130020078472e-01	 1.181092649949716e+00	 9.546357542799071e-01
 2.602837449662972e-01	 1.183480491824206e+00	 8.821882253334148e-01
 2.496613993482582e-01	 1.185766793301961e+00	 8.107512383095372e-01
 2.390472974580505e-01	 1.187952057955265e+00	 7.407491574015999e-01
 2.284427553435007e-01	 1.190036810335384e+00	 6.726250640563554e-01
 2.178490724426745e-01	 1.192021595466295e+00	 6.068393393119438e-01
 2.072675312470353e-01	 1.193906978333281e+00	 5.438682997479893e-01
 3.149936590031083e-01	 1.176198688423613e+00	 1.339201184556208e+00
 3.042987248096156e-01	 1.179010876090986e+00	 1.259981009174887e+00
 2.936052248248000e-01	 1.181719227150498e+00	 1.180989422674640e+00
 2.829145592831406e-01	 1.184324158331332e+00	 1.102480432828980e+00
 2.722281136680795e-01	 1.186826109415491e+00	 1.024760341773876e+00
 2.615472582913763e-01	 1.189225542755392e+00	 9.481585023733514e-01
 2.508733478887837e-01	 1.191522942784009e+00	 8.730257978967275e-01
 2.402077212321186e-01	 1.193718815518154e+00	 7.997331730410284e-01
 2.295517007577894e-01	 1.195813688055459e+00	 7.286702174739910e-01
 2.189065922118137e-01	 1.197808108065646e+00	 6.602438027457418e-01
 2.082736843113413e-01	 1.199702643276647e+00	 5.948767731243039e-01
 3.165153675007077e-01	 1.181880807691359e+00	 1.414007657721280e+00
 3.057687669584542e-01	 1.184706580806401e+00	 1.329467486432614e+00
 2.950236075534223e-01	 1.187428015687457e+00	 1.245828846561257e+00
 2.842812962845086e-01	 1.190045531076894e+00	 1.163307001919392e+00
 2.735432253283118e-01	 1.192559568881266e+00	 1.082141488576808e+00
 2.628107716164555e-01	 1.194970593686577e+00	 1.002594616353268e+00
 2.520852964293092e-01	 1.197279092266057e+00	 9.249500205937964e-01
 2.413681450061868e-01	 1.199485573081044e+00	 8.495112656054935e-01
 2.306606461720783e-01	 1.201590565775533e+00	 7.766005007955317e-01
 2.199641119809529e-01	 1.203594620664997e+00	 7.065571702335249e-01
 2.092798373756473e-01	 1.205498308220012e+00	 6.397367760541182e-01
 3.180370759983073e-01	 1.187562926959107e+00	 1.471486042446988e+00
 3.072388091072932e-01	 1.190402285521817e+00	 1.382774287301769e+00
 2.964419902820444e-01	 1.193136804224416e+00	 1.295691947899015e+00
 2.856480332858764e-01	 1.195766903822457e+00	 1.210374256932327e+00
 2.748583369885440e-01	 1.198293028347042e+00	 1.126980307119205e+00
 2.640742849415346e-01	 1.200715644617763e+00	 1.045691643626048e+00
 2.532972449698348e-01	 1.203035241748106e+00	 9.667109069174114e-01
 2.425285687802550e-01	 1.205252330643933e+00	 8.902605272533932e-01
 2.317695915863671e-01	 1.207367443495608e+00	 8.165814717279487e-01
 2.210216317500921e-01	 1.209381133264348e+00	 7.459320444148234e-01
 2.102859904399533e-01	 1.211293973163377e+00	 6.785867398979593e-01
 3.195587844959069e-01	 1.193245046226853e+00	 1.511806353153777e+00
 3.087088512561317e-01	 1.196097990237232e+00	 1.420103152004044e+00
 2.978603730106666e-01	 1.198845592761375e+00	 1.330781702553652e+00
 2.870147702872440e-01	 1.201488276568018e+00	 1.243883797846458e+00
 2.761734486487762e-01	 1.204026487812817e+00	 1.159474614887784e+00
 2.653377982666137e-01	 1.206460695548948e+00	 1.077641417129121e+00
 2.545091935103603e-01	 1.208791391230154e+00	 9.984923072156056e-01
 2.436889925543232e-01	 1.211019088206823e+00	 9.221550310541362e-01
 2.328785370006560e-01	 1.213144321215683e+00	 8.487758339163687e-01
 2.220791515192313e-01	 1.215167645863699e+00	 7.785183689787447e-01
 2.112921435042592e-01	 1.217089638106742e+00	 7.115626583974652e-01
 2.012306128611993e-01	 1.159132988673088e+00	 2.197265130747250e-01
 1.909702883310929e-01	 1.160867517832004e+00	 1.695932458072416e-01
 1.807241915514982e-01	 1.162506693129445e+00	 1.232063594258306e-01
 1.704935164978373e-01	 1.164051118213844e+00	 8.030575337015566e-02
 1.602794395435026e-01	 1.165501414088512e+00	 4.066096340159087e-02
 1.500831192121216e-01	 1.166858218598241e+00	 4.071858411504703e-03
 1.399056959454673e-01	 1.168122185914091e+00	-2.963079144437586e-02
 1.297482918869003e-01	 1.169293986016832e+00	-6.058487559811132e-02
 1.196120106802181e-01	 1.170374304179537e+00	-8.889663267909365e-02
 1.094979372837676e-01	 1.171363840449797e+00	-1.146404681414568e-01
 9.940713779966590e-02	 1.172263309132030e+00	-1.378588986694771e-01
 2.022367659255053e-01	 1.164928653616454e+00	 2.443533180957393e-01
 1.919251397727483e-01	 1.166671855421164e+00	 1.943110514549957e-01
 1.816278125092556e-01	 1.168319226595092e+00	 1.483218163903381e-01
 1.713459840803265e-01	 1.169871373804914e+00	 1.060767182712210e-01
 1.610808367412201e-01	 1.171328921158954e+00	 6.729745053857794e-02
 1.508335348081822e-01	 1.172692509691232e+00	 3.173707119165581e-02
 1.406052244251946e-01	 1.173962796843661e+00	-8.193542725369873e-04
 1.303970333463348e-01	 1.175140455946916e+00	-3.055424384795957e-02
 1.202100707336192e-01	 1.176226175700434e+00	-5.761712379201178e-02
 1.100454269701865e-01	 1.177220659652047e+00	-8.234926477957494e-02
 9.990417348866425e-02	 1.178124625677690e+00	-1.052514508137823e-01
 2.032429189898113e-01	 1.170724318559819e+00	 2.885725554012661e-01
 1.928799912144038e-01	 1.172476193010324e+00	 2.397093601172395e-01
 1.825314334670132e-01	 1.174131760060739e+00	 1.951008382764030e-01
 1.721984516628157e-01	 1.175691629395983e+00	 1.543956617472233e-01
 1.618822339389376e-01	 1.177156428229397e+00	 1.170861803183083e-01
 1.515839504042428e-01	 1.178526800784223e+00	 8.175805478331100e-02
 1.413047529049220e-01	 1.179803407773232e+00	 4.822115745261746e-02
 1.310457748057693e-01	 1.180986925877000e+00	 1.654138347720746e-02
 1.208081307870203e-01	 1.182078047221332e+00	-1.320183069525660e-02
 1.105929166566053e-01	 1.183077478854296e+00	-4.091591516372617e-02
 1.004012091776626e-01	 1.183985942223350e+00	-6.649555108462080e-02
 2.042490720541173e-01	 1.176519983503185e+00	 3.525297617997345e-01
 1.938348426560592e-01	 1.178280530599484e+00	 3.046222957529956e-01
 1.834350544247706e-01	 1.179944293526386e+00	 2.588646075452861e-01
 1.730509192453049e-01	 1.181511884987052e+00	 2.152411008032407e-01
 1.626836311366551e-01	 1.182983935299839e+00	 1.737514119381127e-01
 1.523343660003034e-01	 1.184361091877214e+00	 1.344099262954996e-01
 1.420042813846493e-01	 1.185644018702802e+00	 9.724532297159483e-02
 1.316945162652039e-01	 1.186833395807084e+00	 6.230014717427323e-02
 1.214061908404214e-01	 1.187929918742230e+00	 2.963040888722146e-02
 1.111404063430241e-01	 1.188934298056544e+00	-6.947934917977960e-04
 1.008982448666609e-01	 1.189847258769011e+00	-2.859362595534609e-02
 2.052552251184233e-01	 1.182315648446550e+00	 4.228396251700870e-01
 1.947896940977147e-01	 1.184084868188644e+00	 3.700575951312239e-01
 1.843386753825281e-01	 1.185756826992034e+00	 3.198145162241399e-01
 1.739033868277941e-01	 1.187332140578121e+00	 2.720786752010409e-01
 1.634850283343726e-01	 1.188811442370282e+00	 2.268334057210692e-01
 1.530847815963640e-01	 1.190195382970205e+00	 1.840766256998871e-01
 1.427038098643766e-01	 1.191484629632372e+00	 1.438204041696163e-01
 1.323432577246383e-01	 1.192679865737169e+00	 1.060905564308201e-01
 1.220042508938225e-01	 1.193781790263128e+00	 7.092626616269859e-02
 1.116878960294430e-01	 1.194791117258794e+00	 3.837973306739606e-02
 1.013952805556592e-01	 1.195708575314670e+00	 8.515844535649464e-03
 2.062613781827293e-01	 1.188111313389915e+00	 4.865704201141736e-01
 1.957445455393702e-01	 1.189889205777804e+00	 4.298112498612725e-01
 1.852422963402857e-01	 1.191569360457681e+00	 3.758933050428421e-01
 1.747558544102832e-01	 1.193152396169190e+00	 3.247752763374230e-01
 1.642864255320901e-01	 1.194638949440725e+00	 2.764307277044131e-01
 1.538351971924246e-01	 1.196029674063197e+00	 2.308476466211506e-01
 1.434033383441040e-01	 1.197325240561943e+00	 1.880280248931894e-01
 1.329919991840729e-01	 1.198526335667253e+00	 1.479874687270355e-01
 1.226023109472236e-01	 1.199633661784025e+00	 1.107548366500213e-01
 1.122353857158618e-01	 1.200647936461043e+00	 7.637190375222058e-02
 1.018923162446576e-01	 1.201569891860331e+00	 4.489305065960369e-02
 2.072675312470353e-01	 1.193906978333281e+00	 5.438682997479893e-01
 1.966993969810256e-01	 1.195693543366964e+00	 4.840147813282965e-01
 1.861459172980432e-01	 1.197381893923328e+00	 4.272194358598727e-01
 1.756083219927724e-01	 1.198972651760259e+00	 3.734377813148262e-01
 1.650878227298076e-01	 1.200466456511167e+00	 3.226400474957858e-01
 1.545856127884852e-01	 1.201863965156188e+00	 2.748107309193553e-01
 1.441028668238313e-01	 1.203165851491514e+00	 2.299481815517086e-01
 1.336407406435074e-01	 1.204372805597337e+00	 1.880642200082392e-01
 1.232003710006246e-01	 1.205485533304923e+00	 1.491837837085492e-01
 1.127828754022807e-01	 1.206504755663292e+00	 1.133446003832947e-01
 1.023893519336559e-01	 1.207431208405991e+00	 8.059688724811309e-02
 2.082736843113413e-01	 1.199702643276647e+00	 5.948767731243039e-01
 1.976542484226811e-01	 1.201497880956124e+00	 5.327973055234805e-01
 1.870495382558006e-01	 1.203194427388975e+00	 4.739091764597703e-01
 1.764607895752617e-01	 1.204792907351329e+00	 4.181710590295791e-01
 1.658892199275251e-01	 1.206293963581609e+00	 3.655561888004517e-01
 1.553360283845459e-01	 1.207698256249179e+00	 3.160519151719583e-01
 1.448023953035586e-01	 1.209006462421084e+00	 2.696592860859053e-01
 1.342894821029419e-01	 1.210219275527421e+00	 2.263926646194372e-01
 1.237984310540258e-01	 1.211337404825821e+00	 1.862793758764540e-01
 1.133303650886995e-01	 1.212361574865541e+00	 1.493593824878305e-01
 1.028863876226542e-01	 1.213292524951651e+00	 1.156849869501428e-01
 2.092798373756473e-01	 1.205498308220012e+00	 6.397367760541182e-01
 1.986090998643366e-01	 1.207302218545284e+00	 5.762855974300816e-01
 1.879531592135581e-01	 1.209006960854623e+00	 5.160766592015822e-01
 1.773132571577508e-01	 1.210613162942398e+00	 4.590780237302949e-01
 1.666906171252427e-01	 1.212121470652052e+00	 4.052721784940940e-01
 1.560864439806064e-01	 1.213532547342170e+00	 3.546555758226784e-01
 1.455019237832860e-01	 1.214847073350655e+00	 3.072382076997204e-01
 1.349382235623763e-01	 1.216065745457505e+00	 2.630432140899346e-01
 1.243964911074269e-01	 1.217189276346718e+00	 2.221065231296895e-01
 1.138778547751183e-01	 1.218218394067790e+00	 1.844765214148982e-01
 1.033834233116525e-01	 1.219153841497311e+00	 1.502137525351759e-01
 2.102859904399533e-01	 1.211293973163377e+00	 6.785867398979593e-01
 1.995639513059920e-01	 1.213106556134445e+00	 6.146041535657081e-01
 1.888567801713156e-01	 1.214819494320270e+00	 5.538339379849258e-01
 1.781657247402400e-01	 1.216433418533467e+00	 4.962596870413163e-01
 1.674920143229601e-01	 1.217948977722495e+00	 4.418792942888889e-01
 1.568368595766671e-01	 1.219366838435162e+00	 3.907044730303604e-01
 1.462014522630133e-01	 1.220687684280225e+00	 3.427603133954822e-01
 1.355869650218109e-01	 1.221912215387590e+00	 2.980848748070428e-01
 1.249945511608279e-01	 1.223041147867616e+00	 2.567288121025209e-01
 1.144253444615372e-01	 1.224075213270039e+00	 2.187550334689712e-01
 1.038804590006509e-01	 1.225015158042972e+00	 1.842383882629803e-01
 2.112921435042592e-01	 1.217089638106742e+00	 7.115626583974652e-01
 2.005188027476475e-01	 1.218910893723604e+00	 6.478752527409413e-01
 1.897604011290731e-01	 1.220632027785917e+00	 5.872910435939453e-01
 1.790181923227292e-01	 1.222253674124536e+00	 5.298152085027992e-01
 1.682934115206777e-01	 1.223776484792937e+00	 4.754671110405306e-01
 1.575872751727277e-01	 1.225201129528153e+00	 4.242797932701161e-01
 1.469009807427406e-01	 1.226528295209795e+00	 3.762995073497932e-01
 1.362357064812453e-01	 1.227758685317673e+00	 3.315852846102192e-01
 1.255926112142290e-01	 1.228893019388513e+00	 2.902085403021617e-01
 1.149728341479560e-01	 1.229932032472288e+00	 2.522527121001430e-01
 1.043774946896492e-01	 1.230876474588632e+00	 2.178129303628991e-01
 9.940713779966590e-02	 1.172263309132030e+00	-1.378588986694771e-01
 8.934065931795956e-02	 1.173073438270312e+00	-1.584765543952247e-01
 7.929952977553376e-02	 1.173794969132207e+00	-1.765293509768897e-01
 6.928475782958245e-02	 1.174428655693991e+00	-1.921776709018559e-01
 5.929733274542558e-02	 1.174975264127708e+00	-2.055485360356402e-01
 4.933822429845561e-02	 1.175435572290448e+00	-2.167359664150474e-01
 3.940838268998317e-02	 1.175810369216252e+00	-2.258014567966486e-01
 2.950873847674090e-02	 1.176100454611004e+00	-2.327745668428678e-01
 1.964020251379614e-02	 1.176306638350697e+00	-2.376536204982655e-01
 9.803665910613419e-03	 1.176429739983401e+00	-2.404065097987225e-01
 0.000000000000000e+00	 1.176470588235294e+00	-2.409715980919449e-01
 9.990417348866425e-02	 1.178124625677690e+00	-1.052514508137823e-01
 8.978736261454934e-02	 1.178938805461663e+00	-1.261121573095862e-01
 7.969602742441143e-02	 1.179663943977868e+00	-1.448045885936513e-01
 6.963118161873037e-02	 1.180300798972461e+00	-1.613368943625892e-01
 5.959381940915272e-02	 1.180850140448347e+00	-1.757039787812906e-01
 4.958491541994790e-02	 1.181312750151901e+00	-1.878876709855781e-01
 3.960542460343308e-02	 1.181689421062334e+00	-1.978568870596451e-01
 2.965628216912460e-02	 1.181980956884059e+00	-2.055677849762616e-01
 1.973840352636512e-02	 1.182188171542450e+00	-2.109639139549739e-01
 9.852684240166484e-03	 1.182311888683318e+00	-2.139763596867370e-01
 0.000000000000000e+00	 1.182352941176471e+00	-2.145238868007353e-01
 1.004012091776626e-01	 1.183985942223350e+00	-6.649555108462080e-02
 9.023406591113915e-02	 1.184804172653015e+00	-8.973528432565869e-02
 8.009252507328908e-02	 1.185532918823529e+00	-1.105218939073422e-01
 6.997760540787826e-02	 1.186172942250931e+00	-1.288691676346780e-01
 5.989030607287985e-02	 1.186725016768985e+00	-1.447778214288293e-01
 4.983160654144018e-02	 1.187189928013353e+00	-1.582356526017263e-01
 3.980246651688300e-02	 1.187568472908414e+00	-1.692176842273687e-01
 2.980382586150831e-02	 1.187861459157114e+00	-1.776863021741377e-01
 1.983660453893410e-02	 1.188069704734203e+00	-1.835913863473304e-01
 9.901702569719551e-03	 1.188194037383235e+00	-1.868704376471624e-01
 0.000000000000000e+00	 1.188235294117647e+00	-1.874487021151214e-01
 1.008982448666609e-01	 1.189847258769011e+00	-2.859362595534609e-02
 9.068076920772895e-02	 1.190669539844367e+00	-5.388554818519253e-02
 8.048902272216675e-02	 1.191401893669190e+00	-7.647187333701311e-02
 7.032402919702621e-02	 1.192045085529401e+00	-9.637439320956709e-02
 6.018679273660699e-02	 1.192599893089624e+00	-1.136019430721720e-01
 5.007829766293245e-02	 1.193067105874805e+00	-1.281505359002839e-01
 3.999950843033293e-02	 1.193447524754496e+00	-1.400034874221698e-01
 2.995136955389202e-02	 1.193741961430169e+00	-1.491315336444945e-01
 1.993480555150308e-02	 1.193951237925957e+00	-1.554929424681954e-01
 9.950720899272620e-03	 1.194076186083152e+00	-1.590336209883916e-01
 0.000000000000000e+00	 1.194117647058824e+00	-1.596872200276407e-01
 1.013952805556592e-01	 1.195708575314670e+00	 8.515844535649464e-03
 9.112747250431877e-02	 1.196534907035718e+00	-1.850487829332215e-02
 8.088552037104443e-02	 1.197270868514851e+00	-4.259931044536724e-02
 7.067045298617411e-02	 1.197917228807871e+00	-6.379958122733331e-02
 6.048327940033412e-02	 1.198474769410263e+00	-8.212492129198345e-02
 5.032498878442476e-02	 1.198944283736258e+00	-9.758177601058526e-02
 4.019655034378283e-02	 1.199326576600577e+00	-1.101639094939701e-01
 3.009891324627572e-02	 1.199622463703224e+00	-1.198525009945457e-01
 2.003300656407206e-02	 1.199832771117710e+00	-1.266162353953066e-01
 9.999739228825685e-03	 1.199958334783069e+00	-1.304113894555339e-01
 0.000000000000000e+00	 1.200000000000000e+00	-1.311819154328171e-01
 1.018923162446576e-01	 1.201569891860331e+00	 4.489305065960369e-02
 9.157417580090856e-02	 1.202400274227070e+00	 1.646352006218210e-02
 8.128201801992210e-02	 1.203139843360512e+00	-8.850219670774706e-03
 7.101687677532204e-02	 1.203789372086341e+00	-3.109293718620121e-02
 6.077976606406125e-02	 1.204349645730901e+00	-5.029650366254335e-02
 5.057167990591702e-02	 1.204821461597710e+00	-6.647998351194406e-02
 4.039359225723275e-02	 1.205205628446658e+00	-7.964971565928014e-02
 3.024645693865941e-02	 1.205502965976279e+00	-8.979938721519676e-02
 2.013120757664104e-02	 1.205714304309464e+00	-9.691010133406963e-02
 1.004875755837876e-02	 1.205840483482986e+00	-1.009504410003008e-01
 0.000000000000000e+00	 1.205882352941177e+00	-1.018765304458309e-01
 1.023893519336559e-01	 1.207431208405991e+00	 8.059688724811309e-02
 9.202087909749834e-02	 1.208265641418421e+00	 5.107519832069762e-02
 8.167851566879976e-02	 1.209008818206173e+00	 2.482818488231131e-02
 7.136330056446993e-02	 1.209661515364811e+00	 1.796168135931753e-03
 6.107625272778836e-02	 1.210224522051540e+00	-1.806757853277574e-02
 5.081837102740929e-02	 1.210698639459162e+00	-3.479689577378764e-02
 4.059063417068266e-02	 1.211084680292740e+00	-4.841279509755170e-02
 3.039400063104312e-02	 1.211383468249334e+00	-5.892350821178227e-02
 2.022940858921002e-02	 1.211595837501217e+00	-6.632453073949374e-02
 1.009777588793183e-02	 1.211722632182903e+00	-7.059866214587007e-02
 0.000000000000000e+00	 1.211764705882353e+00	-7.171604364452699e-02
 1.028863876226542e-01	 1.213292524951651e+00	 1.156849869501428e-01
 9.246758239408814e-02	 1.214131008609773e+00	 8.538449630895339e-02
 8.207501331767743e-02	 1.214877793051834e+00	 5.848751974972366e-02
 7.170972435361786e-02	 1.215533658643281e+00	 3.491722788406060e-02
 6.137273939151548e-02	 1.216099398372178e+00	 1.460985334668918e-02
 5.106506214890157e-02	 1.216575817320614e+00	-2.485349129109249e-03
 4.078767608413257e-02	 1.216963732138821e+00	-1.640613336988284e-02
 3.054154432342683e-02	 1.217263970522389e+00	-2.717728515264128e-02
 2.032760960177901e-02	 1.217477370692971e+00	-3.481064027393588e-02
 1.014679421748489e-02	 1.217604780882820e+00	-3.930509920787784e-02
 0.000000000000000e+00	 1.217647058823530e+00	-4.064664020434927e-02
 1.033834233116525e-01	 1.219153841497311e+00	 1.502137525351759e-01
 9.291428569067797e-02	 1.219996375801125e+00	 1.194445729908640e-01
 8.247151096655513e-02	 1.220746767897496e+00	 9.217826153739805e-02
 7.205614814276576e-02	 1.221405801921751e+00	 6.831862748839779e-02
 6.166922605524261e-02	 1.221974274692816e+00	 4.778270637900017e-02
 5.131175327039384e-02	 1.222452995182067e+00	 3.050074815030701e-02
 4.098471799758249e-02	 1.222842783984902e+00	 1.641621436445151e-02
 3.068908801581053e-02	 1.223144472795444e+00	 5.485782376829285e-03
 2.042581061434798e-02	 1.223358903884724e+00	-2.320645574354741e-03
 1.019581254703796e-02	 1.223486929582737e+00	-7.019930350907755e-03
 0.000000000000000e+00	 1.223529411764706e+00	-8.615682891911502e-03
 1.038804590006509e-01	 1.225015158042972e+00	 1.842383882629803e-01
 9.336098898726775e-02	 1.225861742992477e+00	 1.533074363353231e-01
 8.286800861543279e-02	 1.226615742743157e+00	 1.259497755109156e-01
 7.240257193191366e-02	 1.227277945200220e+00	 1.020476722127279e-01
 6.196571271896975e-02	 1.227849151013455e+00	 8.149683688578335e-02
 5.155844439188612e-02	 1.228330173043519e+00	 6.420644210179738e-02
 4.118175991103241e-02	 1.228721835830984e+00	 5.009914936487547e-02
 3.083663170819424e-02	 1.229024975068499e+00	 3.911114245699765e-02
 2.052401162691697e-02	 1.229240437076478e+00	 3.119216519892021e-02
 1.024483087659102e-02	 1.229369078282654e+00	 2.630556155877661e-02
 0.000000000000000e+00	 1.229411764705883e+00	 2.442831610538598e-02
 1.043774946896492e-01	 1.230876474588632e+00	 2.178129303628991e-01
 9.380769228385752e-02	 1.231727110183828e+00	 1.870239723278984e-01
 8.326450626431044e-02	 1.232484717588817e+00	 1.598503433644904e-01
 7.274899572106158e-02	 1.233150088478691e+00	 1.361506139150028e-01
 6.226219938269688e-02	 1.233724027334094e+00	 1.157970691039456e-01
 5.180513551337841e-02	 1.234207350904971e+00	 9.867575857064992e-02
 4.137880182448232e-02	 1.234600887677065e+00	 8.468655458172414e-02
 3.098417540057794e-02	 1.234905477341554e+00	 7.374321616405632e-02
 2.062221263948595e-02	 1.235121970268232e+00	 6.577345705599980e-02
 1.029384920614409e-02	 1.235251226982571e+00	 6.071901532100021e-02
 0.000000000000000e+00	 1.235294117647059e+00	 5.853572254791550e-02
 1.235294117647059e+00	 0.000000000000000e+00	 1.982954783420091e+01
 1.235251226982571e+00	 1.029384920614374e-02	 1.982620546613767e+01
 1.235121970268231e+00	 2.062221263948563e-02	 1.982105401703569e+01
 1.234905477341555e+00	 3.098417540057767e-02	 1.981390500600745e+01
 1.234600887677065e+00	 4.137880182448209e-02	 1.980457006911674e+01
 1.234207350904971e+00	 5.180513551337820e-02	 1.979286194101780e+01
 1.233724027334093e+00	 6.226219938269669e-02	 1.977859541013354e+01
 1.233150088478691e+00	 7.274899572106146e-02	 1.976158824340997e+01
 1.232484717588817e+00	 8.326450626431034e-02	 1.974166207658812e+01
 1.231727110183827e+00	 9.380769228385748e-02	 1.971864326584230e+01
 1.230876474588632e+00	 1.043774946896492e-01	 1.969236369654230e+01
 1.241176470588236e+00	 0.000000000000000e+00	 1.967680991726830e+01
 1.241133375682488e+00	 1.034286753569680e-02	 1.967342590258599e+01
 1.241003503459985e+00	 2.072041365205462e-02	 1.966838911121331e+01
 1.240785979614610e+00	 3.113171909296137e-02	 1.966149965575183e+01
 1.240479939523146e+00	 4.157584373793200e-02	 1.965255828357154e+01
 1.240084528766423e+00	 5.205182663487047e-02	 1.964136738834553e+01
 1.239598903654732e+00	 6.255868604642383e-02	 1.962773199469413e+01
 1.239022231757161e+00	 7.309541951020937e-02	 1.961146071193046e+01
 1.238353692434478e+00	 8.366100391318800e-02	 1.959236665280217e+01
 1.237592477375179e+00	 9.425439558044728e-02	 1.957026831302775e+01
 1.236737791134292e+00	 1.048745303786476e-01	 1.954499040733417e+01
 1.247058823529412e+00	 0.000000000000000e+00	 1.952757831556624e+01
 1.247015524382405e+00	 1.039188586524987e-02	 1.952416400898936e+01
 1.246885036651738e+00	 2.081861466462359e-02	 1.951924229453024e+01
 1.246666481887665e+00	 3.127926278534508e-02	 1.951260283251299e+01
 1.246358991369227e+00	 4.177288565138192e-02	 1.950403647631699e+01
 1.245961706627876e+00	 5.229851775636276e-02	 1.949333631334616e+01
 1.245473779975371e+00	 6.285517271015095e-02	 1.948029867862997e+01
 1.244894375035630e+00	 7.344184329935728e-02	 1.946472413700345e+01
 1.244222667280139e+00	 8.405750156206568e-02	 1.944641842971503e+01
 1.243457844566531e+00	 9.470109887703709e-02	 1.942519338121277e+01
 1.242599107679952e+00	 1.053715660676459e-01	 1.940086776176284e+01
 1.252941176470588e+00	 0.000000000000000e+00	 1.938171544723651e+01
 1.252897673082322e+00	 1.044090419480294e-02	 1.937828277245867e+01
 1.252766569843492e+00	 2.091681567719257e-02	 1.937347728942961e+01
 1.252546984160719e+00	 3.142680647772877e-02	 1.936707914781869e+01
 1.252238043215309e+00	 4.196992756483183e-02	 1.935887028873622e+01
 1.251838884489328e+00	 5.254520887785503e-02	 1.934863551466873e+01
 1.251348656296010e+00	 6.315165937387808e-02	 1.933616353152113e+01
 1.250766518314101e+00	 7.378826708850519e-02	 1.932124795866798e+01
 1.250091642125800e+00	 8.445399921094333e-02	 1.930368830281987e+01
 1.249323211757882e+00	 9.514780217362687e-02	 1.928329089140543e+01
 1.248460424225612e+00	 1.058686017566442e-01	 1.925986976107578e+01
 1.258823529411765e+00	 0.000000000000000e+00	 1.923908587188525e+01
 1.258779821782239e+00	 1.048992252435600e-02	 1.923564726195108e+01
 1.258648103035246e+00	 2.101501668976155e-02	 1.923095983768323e+01
 1.258427486433774e+00	 3.157435017011247e-02	 1.922479516745630e+01
 1.258117095061390e+00	 4.216696947828175e-02	 1.921692724919924e+01
 1.257716062350780e+00	 5.279189999934730e-02	 1.920713360882022e+01
 1.257223532616648e+00	 6.344814603760521e-02	 1.919519637016639e+01
 1.256638661592571e+00	 7.413469087765309e-02	 1.918090329237805e+01
 1.255960616971462e+00	 8.485049685982102e-02	 1.916404877039866e+01
 1.255188578949234e+00	 9.559450547021670e-02	 1.914443479429626e+01
 1.254321740771272e+00	 1.063656374456425e-01	 1.912187186295393e+01
 1.264705882352941e+00	 0.000000000000000e+00	 1.909955624078182e+01
 1.264661970482156e+00	 1.053894085390907e-02	 1.909612457903011e+01
 1.264529636226999e+00	 2.111321770233052e-02	 1.909155765187383e+01
 1.264307988706830e+00	 3.172189386249618e-02	 1.908561936383235e+01
 1.263996146907471e+00	 4.236401139173165e-02	 1.907807672644910e+01
 1.263593240212232e+00	 5.303859112083958e-02	 1.906870098472160e+01
 1.263098408937286e+00	 6.374463270133232e-02	 1.905726871444718e+01
 1.262510804871040e+00	 7.448111466680099e-02	 1.904356288630439e+01
 1.261829591817123e+00	 8.524699450869869e-02	 1.902737389238705e+01
 1.261053946140585e+00	 9.604120876680648e-02	 1.900850053080304e+01
 1.260183057316932e+00	 1.068626731346409e-01	 1.898675094384730e+01
 1.270588235294118e+00	 0.000000000000000e+00	 1.896299524844049e+01
 1.270544119182073e+00	 1.058795918346213e-02	 1.895958380999387e+01
 1.270411169418752e+00	 2.121141871489950e-02	 1.895514036822727e+01
 1.270188490979884e+00	 3.186943755487989e-02	 1.894942206966085e+01
 1.269875198753552e+00	 4.256105330518158e-02	 1.894218988429330e+01
 1.269470418073685e+00	 5.328528224233185e-02	 1.893320975954309e+01
 1.268973285257925e+00	 6.404111936505946e-02	 1.892225374444106e+01
 1.268382948149511e+00	 7.482753845594890e-02	 1.890910107985539e+01
 1.267698566662783e+00	 8.564349215757636e-02	 1.889353925042468e+01
 1.266919313331937e+00	 9.648791206339624e-02	 1.887536499376626e+01
 1.266044373862593e+00	 1.073597088236392e-01	 1.885438526242457e+01
 1.276470588235294e+00	 0.000000000000000e+00	 1.882927358554100e+01
 1.276426267881990e+00	 1.063697751301519e-02	 1.882589597932786e+01
 1.276292702610506e+00	 2.130961972746848e-02	 1.882157950075186e+01
 1.276068993252940e+00	 3.201698124726358e-02	 1.881607543293854e+01
 1.275754250599633e+00	 4.275809521863147e-02	 1.880913963755865e+01
 1.275347595935137e+00	 5.353197336382414e-02	 1.880053373577716e+01
 1.274848161578563e+00	 6.433760602878658e-02	 1.879002625874512e+01
 1.274255091427980e+00	 7.517396224509681e-02	 1.877739376337776e+01
 1.273567541508444e+00	 8.603998980645401e-02	 1.876242190905324e+01
 1.272784680523289e+00	 9.693461535998607e-02	 1.874490649075855e+01
 1.271905690408253e+00	 1.078567445126375e-01	 1.872465442410149e+01
 1.282352941176470e+00	 0.000000000000000e+00	 1.869826389314512e+01
 1.282308416581907e+00	 1.068599584256826e-02	 1.869493400443946e+01
 1.282174235802259e+00	 2.140782074003746e-02	 1.869074839664249e+01
 1.281949495525994e+00	 3.216452493964728e-02	 1.868545337316518e+01
 1.281633302445715e+00	 4.295513713208139e-02	 1.867880060926890e+01
 1.281224773796589e+00	 5.377866448531640e-02	 1.867054835950925e+01
 1.280723037899202e+00	 6.463409269251370e-02	 1.866046263397071e+01
 1.280127234706450e+00	 7.552038603424474e-02	 1.864831833899878e+01
 1.279436516354105e+00	 8.643648745533171e-02	 1.863390037802524e+01
 1.278650047714640e+00	 9.738131865657586e-02	 1.861700470797241e+01
 1.277767006953913e+00	 1.083537802016358e-01	 1.859743934661268e+01
 1.288235294117647e+00	 0.000000000000000e+00	 1.856984071816717e+01
 1.288190565281824e+00	 1.073501417212132e-02	 1.856657265163284e+01
 1.288055768994013e+00	 2.150602175260645e-02	 1.856252219290902e+01
 1.287829997799049e+00	 3.231206863203099e-02	 1.855743153876896e+01
 1.287512354291796e+00	 4.315217904553131e-02	 1.855104908900607e+01
 1.287101951658041e+00	 5.402535560680867e-02	 1.854313067984858e+01
 1.286597914219840e+00	 6.493057935624084e-02	 1.853344078537140e+01
 1.285999377984920e+00	 7.586680982339265e-02	 1.852175368257461e+01
 1.285305491199766e+00	 8.683298510420934e-02	 1.850785457568849e+01
 1.284515414905992e+00	 9.782802195316566e-02	 1.849154067515122e+01
 1.283628323499573e+00	 1.088508158906342e-01	 1.847262222659420e+01
 1.294117647058824e+00	 0.000000000000000e+00	 1.844388047005944e+01
 1.294072713981741e+00	 1.078403250167439e-02	 1.844068849328604e+01
 1.293937302185767e+00	 2.160422276517542e-02	 1.843677777419015e+01
 1.293710500072104e+00	 3.245961232441469e-02	 1.843188726569903e+01
 1.293391406137877e+00	 4.334922095898123e-02	 1.842576299241783e+01
 1.292979129519493e+00	 5.427204672830097e-02	 1.841815930948163e+01
 1.292472790540479e+00	 6.522706601996797e-02	 1.840884012856835e+01
 1.291871521263391e+00	 7.621323361254059e-02	 1.839758010670773e+01
 1.291174466045427e+00	 8.722948275308702e-02	 1.838416579341110e+01
 1.290380782097343e+00	 9.827472524975546e-02	 1.836839673153077e+01
 1.289489640045233e+00	 1.093478515796325e-01	 1.835008650714413e+01
 1.230876474588632e+00	 1.043774946896492e-01	 1.969236369654230e+01
 1.229932032472288e+00	 1.149728341479556e-01	 1.966297863764480e+01
 1.228893019388514e+00	 1.255926112142287e-01	 1.963075732838602e+01
 1.227758685317674e+00	 1.362357064812451e-01	 1.959571575326341e+01
 1.226528295209795e+00	 1.469009807427404e-01	 1.955788165111980e+01
 1.225201129528152e+00	 1.575872751727274e-01	 1.951729492219559e+01
 1.223776484792937e+00	 1.682934115206776e-01	 1.947400795775379e+01
 1.222253674124537e+00	 1.790181923227291e-01	 1.942808588750311e+01
 1.220632027785917e+00	 1.897604011290731e-01	 1.937960674000701e+01
 1.218910893723604e+00	 2.005188027476475e-01	 1.932866151123982e+01
 1.217089638106743e+00	 2.112921435042592e-01	 1.927535413643417e+01
 1.236737791134292e+00	 1.048745303786476e-01	 1.954499040733417e+01
 1.235788851674537e+00	 1.155203238343745e-01	 1.951669841731358e+01
 1.234744890909411e+00	 1.261906712676298e-01	 1.948567808020891e+01
 1.233605155247758e+00	 1.368844479406796e-01	 1.945194874540253e+01
 1.232368906139366e+00	 1.476005092224678e-01	 1.941554229190168e+01
 1.231035420621144e+00	 1.583376907687881e-01	 1.937650354666375e+01
 1.229603991863380e+00	 1.690948087183950e-01	 1.933489062421106e+01
 1.228073929715606e+00	 1.798706599052183e-01	 1.929077518269225e+01
 1.226444561251564e+00	 1.906640220868305e-01	 1.924424259150840e+01
 1.224715231312764e+00	 2.014736541893030e-01	 1.919539200558965e+01
 1.222885303050108e+00	 2.122982965685652e-01	 1.914433634138700e+01
 1.242599107679952e+00	 1.053715660676459e-01	 1.940086776176284e+01
 1.241645670876786e+00	 1.160678135207933e-01	 1.937361743433714e+01
 1.240596762430309e+00	 1.267887313210309e-01	 1.934374342929326e+01
 1.239451625177842e+00	 1.375331894001141e-01	 1.931126767582064e+01
 1.238209517068937e+00	 1.483000377021951e-01	 1.927622543850197e+01
 1.236869711714135e+00	 1.590881063648487e-01	 1.923866574857303e+01
 1.235431498933822e+00	 1.698962059161126e-01	 1.919865175521367e+01
 1.233894185306675e+00	 1.807231274877076e-01	 1.915626099196071e+01
 1.232257094717211e+00	 1.915676430445881e-01	 1.911158555328747e+01
 1.230519568901925e+00	 2.024285056309585e-01	 1.906473217635894e+01
 1.228680967993474e+00	 2.133044496328712e-01	 1.901582222294725e+01
 1.248460424225612e+00	 1.058686017566442e-01	 1.925986976107578e+01
 1.247502490079035e+00	 1.166153032072121e-01	 1.923361146061252e+01
 1.246448633951207e+00	 1.273867913744320e-01	 1.920483126430994e+01
 1.245298095107926e+00	 1.381819308595486e-01	 1.917355291027517e+01
 1.244050127998507e+00	 1.489995661819224e-01	 1.913981430796946e+01
 1.242704002807126e+00	 1.598385219609093e-01	 1.910366798404684e+01
 1.241259006004265e+00	 1.706976031138301e-01	 1.906518144699438e+01
 1.239714440897744e+00	 1.815755950701967e-01	 1.902443746559534e+01
 1.238069628182859e+00	 1.924712640023455e-01	 1.898153425618557e+01
 1.236323906491084e+00	 2.033833570726140e-01	 1.893658557363498e+01
 1.234476632936839e+00	 2.143106026971772e-01	 1.888972070095527e+01
 1.254321740771272e+00	 1.063656374456425e-01	 1.912187186295393e+01
 1.253359309281284e+00	 1.171627928936310e-01	 1.909655764858422e+01
 1.252300505472104e+00	 1.279848514278331e-01	 1.906882077307385e+01
 1.251144565038010e+00	 1.388306723189831e-01	 1.903868602650113e+01
 1.249890738928077e+00	 1.496990946616498e-01	 1.900619323614860e+01
 1.248538293900118e+00	 1.605889375569699e-01	 1.897139772854976e+01
 1.247086513074708e+00	 1.714990003115477e-01	 1.893437070913640e+01
 1.245534696488813e+00	 1.824280626526858e-01	 1.889519955443675e+01
 1.243882161648506e+00	 1.933748849601030e-01	 1.885398801172084e+01
 1.242128244080245e+00	 2.043382085142694e-01	 1.881085630094445e+01
 1.240272297880204e+00	 2.153167557614833e-01	 1.876594111380734e+01
 1.260183057316932e+00	 1.068626731346409e-01	 1.898675094384730e+01
 1.259216128483533e+00	 1.177102825800498e-01	 1.896233449553965e+01
 1.258152376993002e+00	 1.285829114812341e-01	 1.893559240903578e+01
 1.256991034968094e+00	 1.394794137784175e-01	 1.890654978314151e+01
 1.255731349857647e+00	 1.503986231413771e-01	 1.887524764929693e+01
 1.254372584993108e+00	 1.613393531530305e-01	 1.884174345144514e+01
 1.252914020145150e+00	 1.723003975092651e-01	 1.880611144232930e+01
 1.251354952079882e+00	 1.832805302351750e-01	 1.876844299109783e+01
 1.249694695114153e+00	 1.942785059178605e-01	 1.872884679703782e+01
 1.247932581669404e+00	 2.052930599559248e-01	 1.868744900420653e+01
 1.246067962823570e+00	 2.163229088257892e-01	 1.864439321169040e+01
 1.266044373862593e+00	 1.073597088236392e-01	 1.885438526242457e+01
 1.265072947685782e+00	 1.182577722664686e-01	 1.883082180897879e+01
 1.264004248513900e+00	 1.291809715346352e-01	 1.880502785880412e+01
 1.262837504898178e+00	 1.401281552378521e-01	 1.877702808965748e+01
 1.261571960787218e+00	 1.510981516211045e-01	 1.874686403662608e+01
 1.260206876086100e+00	 1.620897687490911e-01	 1.871459459141442e+01
 1.258741527215592e+00	 1.731017947069826e-01	 1.868029641691990e+01
 1.257175207670952e+00	 1.841329978176642e-01	 1.864406427190345e+01
 1.255507228579800e+00	 1.951821268756180e-01	 1.860601124049826e+01
 1.253736919258564e+00	 2.062479113975803e-01	 1.856626886124316e+01
 1.251863627766935e+00	 2.173290618900952e-01	 1.852498715028239e+01
 1.271905690408253e+00	 1.078567445126375e-01	 1.872465442410149e+01
 1.270929766888030e+00	 1.188052619528875e-01	 1.870190067302426e+01
 1.269856120034797e+00	 1.297790315880363e-01	 1.867701001066193e+01
 1.268683974828263e+00	 1.407768966972866e-01	 1.865000597718570e+01
 1.267412571716788e+00	 1.517976801008317e-01	 1.862092992373601e+01
 1.266041167179091e+00	 1.628401843451517e-01	 1.858984153271058e+01
 1.264569034286035e+00	 1.739031919047001e-01	 1.855681925223210e+01
 1.262995463262021e+00	 1.849854654001534e-01	 1.852196063952913e+01
 1.261319762045447e+00	 1.960857478333754e-01	 1.848538260789513e+01
 1.259541256847724e+00	 2.072027628392358e-01	 1.844722157182825e+01
 1.257659292710301e+00	 2.183352149544012e-01	 1.840763348490272e+01
 1.277767006953913e+00	 1.083537802016358e-01	 1.859743934661268e+01
 1.276786586090279e+00	 1.193527516393063e-01	 1.857545341583721e+01
 1.275707991555695e+00	 1.303770916414374e-01	 1.855142292404955e+01
 1.274530444758347e+00	 1.414256381567211e-01	 1.852536957031292e+01
 1.273253182646359e+00	 1.524972085805591e-01	 1.849733384691434e+01
 1.271875458272082e+00	 1.635905999412123e-01	 1.846737558221935e+01
 1.270396541356478e+00	 1.747045891024177e-01	 1.843557439663149e+01
 1.268815718853090e+00	 1.858379329826426e-01	 1.840203006631480e+01
 1.267132295511095e+00	 1.969893687911330e-01	 1.836686278926717e+01
 1.265345594436885e+00	 2.081576142808912e-01	 1.833021334825893e+01
 1.263454957653666e+00	 2.193413680187072e-01	 1.829224316509837e+01
 1.283628323499573e+00	 1.088508158906342e-01	 1.847262222659420e+01
 1.282643405292529e+00	 1.199002413257251e-01	 1.845136357800797e+01
 1.281559863076592e+00	 1.309751516948384e-01	 1.842815179997959e+01
 1.280376914688431e+00	 1.420743796161556e-01	 1.840300605973839e+01
 1.279093793575929e+00	 1.531967370602864e-01	 1.837596532827262e+01
 1.277709749365074e+00	 1.643410155372729e-01	 1.834708894730144e+01
 1.276224048426920e+00	 1.755059863001351e-01	 1.831645710831013e+01
 1.274635974444159e+00	 1.866904005651318e-01	 1.828417123823417e+01
 1.272944828976742e+00	 1.978929897488905e-01	 1.825035428629680e+01
 1.271149932026044e+00	 2.091124657225467e-01	 1.821515090643118e+01
 1.269250622597031e+00	 2.203475210830132e-01	 1.817872752965208e+01
 1.289489640045233e+00	 1.093478515796325e-01	 1.835008650714413e+01
 1.288500224494777e+00	 1.204477310121440e-01	 1.832951588188941e+01
 1.287411734597490e+00	 1.315732117482395e-01	 1.830708295235589e+01
 1.286223384618515e+00	 1.427231210755901e-01	 1.828280367579574e+01
 1.284934404505500e+00	 1.538962655400138e-01	 1.825671485169383e+01
 1.283544040458064e+00	 1.650914311333335e-01	 1.822887471439168e+01
 1.282051555497363e+00	 1.763073834978526e-01	 1.819936343676946e+01
 1.280456230035229e+00	 1.875428681476210e-01	 1.816828353949605e+01
 1.278757362442389e+00	 1.987966107066480e-01	 1.813576020027169e+01
 1.276954269615205e+00	 2.100673171642022e-01	 1.810194145740545e+01
 1.275046287540397e+00	 2.213536741473192e-01	 1.806699830199863e+01
 1.217089638106743e+00	 2.112921435042592e-01	 1.927535413643417e+01
 1.215167645863699e+00	 2.220791515192309e-01	 1.921902821898013e+01
 1.213144321215683e+00	 2.328785370006556e-01	 1.915900317988829e+01
 1.211019088206823e+00	 2.436889925543229e-01	 1.909535746429860e+01
 1.208791391230154e+00	 2.545091935103601e-01	 1.902817054594204e+01
 1.206460695548948e+00	 2.653377982666135e-01	 1.895752221045923e+01
 1.204026487812817e+00	 2.761734486487761e-01	 1.888349172496030e+01
 1.201488276568018e+00	 2.870147702872441e-01	 1.880615688972445e+01
 1.198845592761375e+00	 2.978603730106666e-01	 1.872559296804364e+01
 1.196097990237232e+00	 3.087088512561317e-01	 1.864187149034165e+01
 1.193245046226853e+00	 3.195587844959068e-01	 1.855505892884980e+01
 1.222885303050108e+00	 2.122982965685652e-01	 1.914433634138700e+01
 1.220954158463050e+00	 2.231366712883701e-01	 1.909035040444230e+01
 1.218921198935758e+00	 2.339874824149445e-01	 1.903267353808360e+01
 1.216785845769713e+00	 2.448494163283912e-01	 1.897137800196056e+01
 1.214547540712203e+00	 2.557211420508856e-01	 1.890653862449044e+01
 1.212205746480134e+00	 2.666013115916926e-01	 1.883823211847553e+01
 1.209759947278593e+00	 2.774885603090084e-01	 1.876653628067789e+01
 1.207209649313580e+00	 2.883815072886119e-01	 1.869152907107870e+01
 1.204554381298334e+00	 2.992787557392889e-01	 1.861328756764901e+01
 1.201793694952648e+00	 3.101788934049704e-01	 1.853188679258072e+01
 1.198927165494600e+00	 3.210804929935064e-01	 1.844739840607288e+01
 1.228680967993474e+00	 2.133044496328712e-01	 1.901582222294725e+01
 1.226740671062401e+00	 2.241941910575093e-01	 1.896406775873164e+01
 1.224698076655833e+00	 2.350964278292333e-01	 1.890863672005008e+01
 1.222552603332602e+00	 2.460098401024594e-01	 1.884959855066256e+01
 1.220303690194251e+00	 2.569330905914111e-01	 1.878702673878639e+01
 1.217950797411319e+00	 2.678648249167717e-01	 1.872099815982971e+01
 1.215493406744368e+00	 2.788036719692408e-01	 1.865159230079975e+01
 1.212931022059142e+00	 2.897482442899798e-01	 1.857889036195031e+01
 1.210263169835293e+00	 3.006971384679111e-01	 1.850297423132369e+01
 1.207489399668063e+00	 3.116489355538092e-01	 1.842392532796006e+01
 1.204609284762347e+00	 3.226022014911061e-01	 1.834182330968814e+01
 1.234476632936839e+00	 2.143106026971772e-01	 1.888972070095527e+01
 1.232527183661752e+00	 2.252517108266485e-01	 1.884009393316938e+01
 1.230474954375907e+00	 2.362053732435221e-01	 1.878680934091443e+01
 1.228319360895492e+00	 2.471702638765275e-01	 1.872993687262378e+01
 1.226059839676299e+00	 2.581450391319366e-01	 1.866955193292748e+01
 1.223695848342505e+00	 2.691283382418508e-01	 1.860573474737182e+01
 1.221226866210143e+00	 2.801187836294730e-01	 1.853856960653809e+01
 1.218652394804704e+00	 2.911149812913475e-01	 1.846814398496412e+01
 1.215971958372252e+00	 3.021155211965332e-01	 1.839454753036171e+01
 1.213185104383478e+00	 3.131189777026480e-01	 1.831787091873151e+01
 1.210291404030093e+00	 3.241239099887054e-01	 1.823820457111608e+01
 1.240272297880204e+00	 2.153167557614833e-01	 1.876594111380734e+01
 1.238313696261103e+00	 2.263092305957877e-01	 1.871834287537723e+01
 1.236251832095982e+00	 2.373143186578110e-01	 1.866710822349779e+01
 1.234086118458382e+00	 2.483306876505957e-01	 1.861231088361835e+01
 1.231815989158348e+00	 2.593569876724621e-01	 1.855403138568653e+01
 1.229440899273690e+00	 2.703918515669299e-01	 1.849235644578003e+01
 1.226960325675919e+00	 2.814338952897052e-01	 1.842737822486725e+01
 1.224373767550266e+00	 2.924817182927155e-01	 1.835919345994788e+01
 1.221680746909210e+00	 3.035339039251556e-01	 1.828790246290825e+01
 1.218880809098894e+00	 3.145890198514867e-01	 1.821360798253073e+01
 1.215973523297841e+00	 3.256456184863050e-01	 1.813641392522830e+01
 1.246067962823570e+00	 2.163229088257892e-01	 1.864439321169041e+01
 1.244100208860454e+00	 2.273667503649268e-01	 1.859872882659778e+01
 1.242028709816056e+00	 2.384232640720998e-01	 1.854945039903487e+01
 1.239852876021271e+00	 2.494911114246639e-01	 1.849663865638211e+01
 1.237572138640396e+00	 2.605689362129877e-01	 1.844038241587468e+01
 1.235185950204876e+00	 2.716553648920091e-01	 1.838077797812609e+01
 1.232693785141693e+00	 2.827490069499375e-01	 1.831792839551728e+01
 1.230095140295828e+00	 2.938484552940832e-01	 1.825194261055764e+01
 1.227389535446170e+00	 3.049522866537777e-01	 1.818293445940046e+01
 1.224576513814309e+00	 3.160590620003254e-01	 1.811102153579535e+01
 1.221655642565588e+00	 3.271673269839047e-01	 1.803632391088538e+01
 1.251863627766935e+00	 2.173290618900952e-01	 1.852498715028239e+01
 1.249886721459805e+00	 2.284242701340660e-01	 1.848116631939569e+01
 1.247805587536131e+00	 2.395322094863886e-01	 1.843375310820753e+01
 1.245619633584161e+00	 2.506515351987321e-01	 1.838283842429052e+01
 1.243328288122444e+00	 2.617808847535131e-01	 1.832852248795382e+01
 1.240931001136061e+00	 2.729188782170881e-01	 1.827091423269109e+01
 1.238427244607469e+00	 2.840641186101698e-01	 1.821013057824009e+01
 1.235816513041390e+00	 2.952151922954510e-01	 1.814629557122192e+01
 1.233098323983129e+00	 3.063706693823999e-01	 1.807953938839619e+01
 1.230272218529724e+00	 3.175291041491641e-01	 1.800999719766507e+01
 1.227337761833334e+00	 3.286890354815042e-01	 1.793780787207526e+01
 1.257659292710301e+00	 2.183352149544012e-01	 1.840763348490272e+01
 1.255673234059156e+00	 2.294817899032053e-01	 1.836557017572609e+01
 1.253582465256206e+00	 2.406411549006775e-01	 1.831993380248464e+01
 1.251386391147051e+00	 2.518119589728003e-01	 1.827082858530057e+01
 1.249084437604493e+00	 2.629928332940387e-01	 1.821836921789053e+01
 1.246676052067246e+00	 2.741823915421673e-01	 1.816268027002183e+01
 1.244160704073244e+00	 2.853792302704019e-01	 1.810389546033864e+01
 1.241537885786952e+00	 2.965819292968188e-01	 1.804215679439277e+01
 1.238807112520087e+00	 3.077890521110221e-01	 1.797761356277697e+01
 1.235967923245139e+00	 3.189991462980027e-01	 1.791042119434671e+01
 1.233019881101081e+00	 3.302107439791038e-01	 1.784073995963123e+01
 1.263454957653666e+00	 2.193413680187072e-01	 1.829224316509837e+01
 1.261459746658506e+00	 2.305393096723445e-01	 1.825185550535976e+01
 1.259359342976280e+00	 2.417501003149663e-01	 1.820791014575651e+01
 1.257153148709940e+00	 2.529723827468686e-01	 1.816052770614643e+01
 1.254840587086541e+00	 2.642047818345643e-01	 1.810984037924403e+01
 1.252421102998432e+00	 2.754459048672463e-01	 1.805599133022155e+01
 1.249894163539019e+00	 2.866943419306342e-01	 1.799913396445091e+01
 1.247259258532514e+00	 2.979486662981866e-01	 1.793943105809540e+01
 1.244515901057046e+00	 3.092074348396442e-01	 1.787705374631451e+01
 1.241663627960555e+00	 3.204691884468415e-01	 1.781218036393079e+01
 1.238702000368828e+00	 3.317324524767033e-01	 1.774499513351242e+01
 1.269250622597031e+00	 2.203475210830132e-01	 1.817872752965208e+01
 1.267246259257857e+00	 2.315968294414836e-01	 1.813993770465240e+01
 1.265136220696355e+00	 2.428590457292551e-01	 1.809760001625613e+01
 1.262919906272830e+00	 2.541328065209367e-01	 1.805185452678184e+01
 1.260596736568590e+00	 2.654167303750897e-01	 1.800285390948022e+01
 1.258166153929617e+00	 2.767094181923254e-01	 1.795076284046660e+01
 1.255627623004795e+00	 2.880094535908664e-01	 1.789575725658127e+01
 1.252980631278076e+00	 2.993154032995545e-01	 1.783802347376515e+01
 1.250224689594005e+00	 3.106258175682665e-01	 1.777775716058792e+01
 1.247359332675970e+00	 3.219392305956803e-01	 1.771516216164357e+01
 1.244384119636575e+00	 3.332541609743028e-01	 1.765044916562789e+01
 1.275046287540397e+00	 2.213536741473192e-01	 1.806699830199863e+01
 1.273032771857208e+00	 2.326543492106228e-01	 1.802973245564803e+01
 1.270913098416430e+00	 2.439679911435440e-01	 1.798892150875680e+01
 1.268686663835719e+00	 2.552932302950050e-01	 1.794472796506115e+01
 1.266352886050638e+00	 2.666286789156153e-01	 1.789732791650508e+01
 1.263911204860803e+00	 2.779729315174046e-01	 1.784691042274234e+01
 1.261361082470570e+00	 2.893245652510988e-01	 1.779367675436972e+01
 1.258702004023638e+00	 3.006821403009224e-01	 1.773783949436423e+01
 1.255933478130964e+00	 3.120442002968887e-01	 1.767962149224172e+01
 1.253055037391386e+00	 3.234092727445190e-01	 1.761925466552257e+01
 1.250066238904322e+00	 3.347758694719024e-01	 1.755697864318700e+01
 1.193245046226853e+00	 3.195587844959068e-01	 1.855505892884980e+01
 1.190286361829672e+00	 3.304087376806330e-01	 1.846571523063904e+01
 1.187221562485802e+00	 3.412572616988477e-01	 1.837448112690462e+01
 1.184050298439213e+00	 3.521028938526887e-01	 1.828152793626692e+01
 1.180772245190968e+00	 3.629441583496087e-01	 1.818700967758873e+01
 1.177387103941955e+00	 3.737795668099063e-01	 1.809106078400184e+01
 1.173894602024485e+00	 3.846076187898543e-01	 1.799339749328168e+01
 1.170294493322196e+00	 3.954268023201876e-01	 1.789306260568349e+01
 1.166586558677673e+00	 4.062355944596799e-01	 1.779002470692566e+01
 1.162770606287187e+00	 4.170324618635253e-01	 1.768428729212993e+01
 1.158846472082008e+00	 4.278158613662075e-01	 1.757583614624953e+01
 1.198927165494600e+00	 3.210804929935064e-01	 1.844739840607289e+01
 1.195954392124099e+00	 3.319821126219694e-01	 1.836034208526293e+01
 1.192874998497639e+00	 3.428822962783659e-01	 1.827132370442103e+01
 1.189688633193685e+00	 3.537795742996062e-01	 1.818052954151696e+01
 1.186394970168068e+00	 3.646724638655592e-01	 1.808812904722370e+01
 1.182993709198822e+00	 3.755594695090011e-01	 1.799427253072436e+01
 1.179484576319840e+00	 3.864390836412346e-01	 1.789908869809244e+01
 1.175867324242779e+00	 3.973097870931410e-01	 1.780266082103421e+01
 1.172141732766614e+00	 4.081700496713927e-01	 1.770405961691824e+01
 1.168307609174269e+00	 4.190183307295420e-01	 1.760275583208611e+01
 1.164364788615731e+00	 4.298530797536655e-01	 1.749874252663082e+01
 1.204609284762347e+00	 3.226022014911061e-01	 1.834182330968813e+01
 1.201622422418526e+00	 3.335554875633057e-01	 1.825714076758291e+01
 1.198528434509476e+00	 3.445073308578842e-01	 1.817043848359734e+01
 1.195326967948158e+00	 3.554562547465239e-01	 1.808191527605507e+01
 1.192017695145168e+00	 3.664007693815097e-01	 1.799175357729747e+01
 1.188600314455688e+00	 3.773393722080958e-01	 1.790011709434122e+01
 1.185074550615194e+00	 3.882705484926149e-01	 1.780714831920828e+01
 1.181440155163360e+00	 3.991927718660942e-01	 1.771296588724652e+01
 1.177696906855556e+00	 4.101045048831055e-01	 1.761766178216180e+01
 1.173844612061351e+00	 4.210041995955589e-01	 1.752091448757766e+01
 1.169883105149455e+00	 4.318902981411237e-01	 1.742154431423995e+01
 1.210291404030093e+00	 3.241239099887054e-01	 1.823820457111608e+01
 1.207290452712952e+00	 3.351288625046421e-01	 1.815596801821873e+01
 1.204181870521314e+00	 3.461323654374027e-01	 1.807166760644378e+01
 1.200965302702630e+00	 3.571329351934413e-01	 1.798551230795603e+01
 1.197640420122268e+00	 3.681290748974603e-01	 1.789769511956762e+01
 1.194206919712555e+00	 3.791192749071906e-01	 1.780839070132325e+01
 1.190664524910549e+00	 3.901020133439952e-01	 1.771775286194832e+01
 1.187012986083943e+00	 4.010757566390475e-01	 1.762591188933197e+01
 1.183252080944498e+00	 4.120389600948183e-01	 1.753297172461797e+01
 1.179381614948433e+00	 4.229900684615755e-01	 1.743900697891112e+01
 1.175401421683179e+00	 4.339275165285819e-01	 1.734399783526260e+01
 1.215973523297841e+00	 3.256456184863050e-01	 1.813641392522830e+01
 1.212958483007380e+00	 3.367022374459783e-01	 1.805668161292721e+01
 1.209835306533151e+00	 3.477574000169210e-01	 1.797485448854806e+01
 1.206603637457102e+00	 3.588096156403587e-01	 1.789114932326387e+01
 1.203263145099368e+00	 3.698573804134108e-01	 1.780576729328840e+01
 1.199813524969422e+00	 3.808991776062853e-01	 1.771889159947030e+01
 1.196254499205904e+00	 3.919334781953753e-01	 1.763068493103381e+01
 1.192585817004524e+00	 4.029587414120008e-01	 1.754128677148698e+01
 1.188807255033438e+00	 4.139734153065310e-01	 1.745081054511294e+01
 1.184918617835515e+00	 4.249759373275924e-01	 1.735934060289859e+01
 1.180919738216903e+00	 4.359647349160401e-01	 1.726692904723033e+01
 1.221655642565588e+00	 3.271673269839047e-01	 1.803632391088538e+01
 1.218626513301807e+00	 3.382756123873147e-01	 1.795914035976686e+01
 1.215488742544988e+00	 3.493824345964392e-01	 1.787984381275950e+01
 1.212241972211575e+00	 3.604862960872764e-01	 1.779865651610225e+01
 1.208885870076467e+00	 3.715856859293611e-01	 1.771578547166607e+01
 1.205420130226287e+00	 3.826790803053802e-01	 1.763142004064315e+01
 1.201844473501258e+00	 3.937649430467557e-01	 1.754572938876298e+01
 1.198158647925106e+00	 4.048417261849540e-01	 1.745885977089402e+01
 1.194362429122380e+00	 4.159078705182437e-01	 1.737093165328517e+01
 1.190455620722596e+00	 4.269618061936092e-01	 1.728203667213648e+01
 1.186438054750627e+00	 4.380019533034980e-01	 1.719223442766794e+01
 1.227337761833334e+00	 3.286890354815042e-01	 1.793780787207526e+01
 1.224294543596234e+00	 3.398489873286512e-01	 1.786320409699567e+01
 1.221142178556825e+00	 3.510074691759575e-01	 1.778648152374364e+01
 1.217880306966047e+00	 3.621629765341940e-01	 1.770786557979541e+01
 1.214508595053567e+00	 3.733139914453117e-01	 1.762756676946739e+01
 1.211026735483154e+00	 3.844589830044748e-01	 1.754577826479468e+01
 1.207434447796613e+00	 3.955964078981358e-01	 1.746267333541181e+01
 1.203731478845688e+00	 4.067247109579074e-01	 1.737840261512463e+01
 1.199917603211321e+00	 4.178423257299565e-01	 1.729309120325892e+01
 1.195992623609678e+00	 4.289476750596259e-01	 1.720683559930340e+01
 1.191956371284351e+00	 4.400391716909561e-01	 1.711970046984273e+01
 1.233019881101081e+00	 3.302107439791038e-01	 1.784073995963122e+01
 1.229962573890661e+00	 3.414223622699874e-01	 1.776873369167745e+01
 1.226795614568662e+00	 3.526325037554758e-01	 1.769461482337838e+01
 1.223518641720519e+00	 3.638396569811114e-01	 1.761860969896633e+01
 1.220131320030667e+00	 3.750422969612623e-01	 1.754093003174492e+01
 1.216633340740021e+00	 3.862388857035698e-01	 1.746177048525891e+01
 1.213024422091968e+00	 3.974278727495161e-01	 1.738130609103557e+01
 1.209304309766269e+00	 4.086076957308605e-01	 1.729968950041419e+01
 1.205472777300263e+00	 4.197767809416694e-01	 1.721704806836733e+01
 1.201529626496760e+00	 4.309335439256427e-01	 1.713348076765453e+01
 1.197474687818075e+00	 4.420763900784144e-01	 1.704905493212285e+01
 1.238702000368828e+00	 3.317324524767033e-01	 1.774499513351242e+01
 1.235630604185088e+00	 3.429957372113238e-01	 1.767559103897628e+01
 1.232449050580500e+00	 3.542575383349942e-01	 1.760409216696522e+01
 1.229156976474991e+00	 3.655163374280291e-01	 1.753072354258130e+01
 1.225754045007767e+00	 3.767706024772128e-01	 1.745569582364296e+01
 1.222239945996887e+00	 3.880187884026643e-01	 1.737920287525656e+01
 1.218614396387323e+00	 3.992593376008965e-01	 1.730141917862595e+01
 1.214877140686852e+00	 4.104906805038139e-01	 1.722249707143358e+01
 1.211027951389203e+00	 4.217112361533820e-01	 1.714256381751220e+01
 1.207066629383842e+00	 4.329194127916595e-01	 1.706171850395750e+01
 1.202993004351798e+00	 4.441136084658724e-01	 1.698002876430934e+01
 1.244384119636575e+00	 3.332541609743028e-01	 1.765044916562789e+01
 1.241298634479515e+00	 3.445691121526602e-01	 1.758363906211372e+01
 1.238102486592337e+00	 3.558825729145126e-01	 1.751476326022937e+01
 1.234795311229464e+00	 3.671930178749466e-01	 1.744404325791091e+01
 1.231376769984867e+00	 3.784989079931633e-01	 1.737168642124879e+01
 1.227846551253753e+00	 3.897986911017592e-01	 1.729788355557959e+01
 1.224204370682677e+00	 4.010908024522766e-01	 1.722280630858053e+01
 1.220449971607433e+00	 4.123736652767671e-01	 1.714660440250845e+01
 1.216583125478145e+00	 4.236456913650947e-01	 1.706940269310909e+01
 1.212603632270924e+00	 4.349052816576762e-01	 1.699129805315023e+01
 1.208511320885522e+00	 4.461508268533306e-01	 1.691235607900659e+01
 1.250066238904322e+00	 3.347758694719024e-01	 1.755697864318700e+01
 1.246966664773942e+00	 3.461424870939965e-01	 1.749274171297068e+01
 1.243755922604174e+00	 3.575076074940309e-01	 1.742647905708264e+01
 1.240433645983937e+00	 3.688696983218643e-01	 1.735840646537736e+01
 1.236999494961966e+00	 3.802272135091138e-01	 1.728872580345744e+01
 1.233453156510620e+00	 3.915785938008541e-01	 1.721762258341593e+01
 1.229794344978032e+00	 4.029222673036569e-01	 1.714526336444307e+01
 1.226022802528016e+00	 4.142566500497204e-01	 1.707179298024043e+01
 1.222138299567086e+00	 4.255801465768076e-01	 1.699733159056730e+01
 1.218140635158006e+00	 4.368911505236930e-01	 1.692197155466717e+01
 1.214029637419246e+00	 4.481880452407888e-01	 1.684577412479435e+01
 1.158846472082008e+00	 4.278158613662075e-01	 1.757583614624953e+01
 1.154814020095697e+00	 4.385842405785236e-01	 1.746448682594561e+01
 1.150673142816844e+00	 4.493360384983968e-01	 1.734966614612803e+01
 1.146423761526679e+00	 4.600696861350977e-01	 1.723072065916066e+01
 1.142065826621036e+00	 4.707836071464650e-01	 1.710693987392559e+01
 1.137599317916135e+00	 4.814762184886924e-01	 1.697755474517064e+01
 1.133024244937665e+00	 4.921459310782316e-01	 1.684173617308966e+01
 1.128340647192671e+00	 5.027911504653304e-01	 1.669859352267091e+01
 1.123548594423751e+00	 5.134102775187103e-01	 1.654717317292911e+01
 1.118648186845105e+00	 5.240017091208612e-01	 1.638645710668953e+01
 1.113639555359967e+00	 5.345638388734125e-01	 1.621536155209914e+01
 1.164364788615731e+00	 4.298530797536655e-01	 1.749874252663082e+01
 1.160313134477106e+00	 4.406727369622309e-01	 1.739164646911466e+01
 1.156152538735020e+00	 4.514757339198177e-01	 1.728072550326144e+01
 1.151882922295853e+00	 4.622604941643124e-01	 1.716536244867259e+01
 1.147504235319230e+00	 4.730254338471624e-01	 1.704488210226262e+01
 1.143016457525259e+00	 4.837689623862576e-01	 1.691854960989812e+01
 1.138419598484988e+00	 4.944894831309852e-01	 1.678556884593566e+01
 1.133713697893588e+00	 5.051853940389749e-01	 1.664508081054097e+01
 1.128898825825769e+00	 5.158550883640374e-01	 1.649616205527926e+01
 1.123975082972939e+00	 5.264969553547701e-01	 1.633782314803598e+01
 1.118942600861682e+00	 5.371093809632860e-01	 1.616900718886228e+01
 1.169883105149455e+00	 4.318902981411237e-01	 1.742154431423995e+01
 1.165812248858514e+00	 4.427612333459381e-01	 1.731889722853224e+01
 1.161631934653195e+00	 4.536154293412385e-01	 1.721205690371661e+01
 1.157342083065028e+00	 4.644513021935273e-01	 1.710044208055057e+01
 1.152942644017426e+00	 4.752672605478599e-01	 1.698341295591329e+01
 1.148433597134383e+00	 4.860617062838227e-01	 1.686026944166504e+01
 1.143814952032310e+00	 4.968330351837387e-01	 1.673024942845239e+01
 1.139086748594506e+00	 5.075796376126194e-01	 1.659252706467647e+01
 1.134249057227787e+00	 5.182998992093647e-01	 1.644621106147202e+01
 1.129301979100773e+00	 5.289922015886789e-01	 1.629034303514344e+01
 1.124245646363396e+00	 5.396549230531594e-01	 1.612389589905813e+01
 1.175401421683179e+00	 4.339275165285819e-01	 1.734399783526260e+01
 1.171311363239921e+00	 4.448497297296453e-01	 1.724598096196924e+01
 1.167111330571371e+00	 4.557551247626597e-01	 1.714339381119888e+01
 1.162801243834203e+00	 4.666421102227419e-01	 1.703569073296998e+01
 1.158381052715622e+00	 4.775090872485574e-01	 1.692226746648774e+01
 1.153850736743508e+00	 4.883544501813879e-01	 1.680245929105838e+01
 1.149210305579631e+00	 4.991765872364920e-01	 1.667553917837733e+01
 1.144459799295423e+00	 5.099738811862637e-01	 1.654071595673106e+01
 1.139599288629804e+00	 5.207447100546918e-01	 1.639713249830713e+01
 1.134628875228607e+00	 5.314874478225878e-01	 1.624386394143435e+01
 1.129548691865109e+00	 5.422004651430327e-01	 1.607991596015066e+01
 1.180919738216903e+00	 4.359647349160401e-01	 1.726692904723033e+01
 1.176810477621330e+00	 4.469382261133528e-01	 1.717264642202943e+01
 1.172590726489546e+00	 4.578948201840804e-01	 1.707447044502024e+01
 1.168260404603377e+00	 4.688329182519568e-01	 1.697084017477954e+01
 1.163819461413817e+00	 4.797509139492548e-01	 1.686118097595934e+01
 1.159267876352633e+00	 4.906471940789531e-01	 1.674486412330653e+01
 1.154605659126954e+00	 5.015201392892455e-01	 1.662119875700759e+01
 1.149832849996341e+00	 5.123681247599082e-01	 1.648942993561559e+01
 1.144949520031822e+00	 5.231895209000190e-01	 1.634873670854385e+01
 1.139955771356441e+00	 5.339826940564967e-01	 1.619823022031023e+01
 1.134851737366824e+00	 5.447460072329061e-01	 1.603695185932115e+01
 1.186438054750627e+00	 4.380019533034980e-01	 1.719223442766794e+01
 1.182309592002738e+00	 4.490267224970598e-01	 1.710040960366749e+01
 1.178070122407721e+00	 4.600345156055014e-01	 1.700515270555215e+01
 1.173719565372551e+00	 4.710237262811714e-01	 1.690562266608482e+01
 1.169257870112012e+00	 4.819927406499523e-01	 1.679988904011096e+01
 1.164685015961757e+00	 4.929399379765185e-01	 1.668722872725076e+01
 1.160001012674276e+00	 5.038636913419988e-01	 1.656698814636347e+01
 1.155205900697258e+00	 5.147623683335526e-01	 1.643845015552337e+01
 1.150299751433840e+00	 5.256343317453460e-01	 1.630083201245905e+01
 1.145282667484275e+00	 5.364779402904055e-01	 1.615328336291409e+01
 1.140154782868538e+00	 5.472915493227795e-01	 1.599488427010295e+01
 1.191956371284351e+00	 4.400391716909561e-01	 1.711970046984273e+01
 1.187808706384146e+00	 4.511152188807671e-01	 1.703039010206712e+01
 1.183549518325897e+00	 4.621742110269224e-01	 1.693734097615612e+01
 1.179178726141726e+00	 4.732145343103861e-01	 1.684013537041056e+01
 1.174696278810208e+00	 4.842345673506496e-01	 1.673812733405385e+01
 1.170102155570881e+00	 4.952326818740836e-01	 1.662929762620857e+01
 1.165396366221598e+00	 5.062072433947525e-01	 1.651266656798874e+01
 1.160578951398176e+00	 5.171566119071970e-01	 1.638755640526326e+01
 1.155649982835858e+00	 5.280791425906733e-01	 1.625322465030990e+01
 1.150609563612109e+00	 5.389731865243145e-01	 1.610886195631914e+01
 1.145457828370252e+00	 5.498370914126528e-01	 1.595359002889035e+01
 1.197474687818075e+00	 4.420763900784144e-01	 1.704905493212285e+01
 1.193307820765554e+00	 4.532037152644743e-01	 1.696230275930999e+01
 1.189028914244072e+00	 4.643139064483431e-01	 1.687151623468272e+01
 1.184637886910901e+00	 4.754053423396010e-01	 1.677632344603996e+01
 1.180134687508403e+00	 4.864763940513470e-01	 1.667627846465311e+01
 1.175519295180006e+00	 4.975254257716488e-01	 1.657081499066587e+01
 1.170791719768920e+00	 5.085507954475058e-01	 1.645799240333427e+01
 1.165952002099093e+00	 5.195508554808415e-01	 1.633652703885711e+01
 1.161000214237876e+00	 5.305239534360007e-01	 1.620571872567098e+01
 1.155936459739942e+00	 5.414684327582232e-01	 1.606480164213011e+01
 1.150760873871966e+00	 5.523826335025261e-01	 1.591294211132700e+01
 1.202993004351798e+00	 4.441136084658724e-01	 1.698002876430934e+01
 1.198806935146962e+00	 4.552922116481816e-01	 1.689586580439819e+01
 1.194508310162247e+00	 4.664536018697642e-01	 1.680738942905812e+01
 1.190097047680076e+00	 4.775961503688156e-01	 1.671427331801969e+01
 1.185573096206598e+00	 4.887182207520445e-01	 1.661611968916737e+01
 1.180936434789130e+00	 4.998181696692139e-01	 1.651245520582205e+01
 1.176187073316243e+00	 5.108943475002594e-01	 1.640272311567417e+01
 1.171325052800010e+00	 5.219450990544857e-01	 1.628513890736292e+01
 1.166350445639894e+00	 5.329687642813279e-01	 1.615811614961893e+01
 1.161263355867776e+00	 5.439636789921320e-01	 1.602093507548433e+01
 1.156063919373681e+00	 5.549281755923996e-01	 1.587280960857651e+01
 1.208511320885522e+00	 4.461508268533306e-01	 1.691235607900659e+01
 1.204306049528370e+00	 4.573807080318888e-01	 1.683080082252533e+01
 1.199987706080423e+00	 4.685932972911852e-01	 1.674467495445992e+01
 1.195556208449250e+00	 4.797869583980304e-01	 1.665369754644524e+01
 1.191011504904794e+00	 4.909600474527419e-01	 1.655751920541692e+01
 1.186353574398255e+00	 5.021109135667792e-01	 1.645571792397490e+01
 1.181582426863565e+00	 5.132378995530130e-01	 1.634779478909758e+01
 1.176698103500928e+00	 5.243393426281302e-01	 1.623316955276264e+01
 1.171700677041912e+00	 5.354135751266550e-01	 1.611021658573592e+01
 1.166590251995610e+00	 5.464589252260407e-01	 1.597709188443961e+01
 1.161366964875395e+00	 5.574737176822731e-01	 1.583305770347978e+01
 1.214029637419246e+00	 4.481880452407888e-01	 1.684577412479435e+01
 1.209805163909778e+00	 4.594692044155961e-01	 1.676683272625021e+01
 1.205467101998599e+00	 4.707329927126062e-01	 1.668309062480274e+01
 1.201015369218425e+00	 4.819777664272453e-01	 1.659431210093837e+01
 1.196449913602989e+00	 4.932018741534395e-01	 1.650019640670362e+01
 1.191770714007379e+00	 5.044036574643445e-01	 1.640037356577779e+01
 1.186977780410887e+00	 5.155814516057664e-01	 1.629440002291357e+01
 1.182071154201846e+00	 5.267335862017747e-01	 1.618175414607724e+01
 1.177050908443930e+00	 5.378583859719821e-01	 1.606183158545230e+01
 1.171917148123444e+00	 5.489541714599498e-01	 1.593309862973604e+01
 1.166670010377108e+00	 5.600192597721463e-01	 1.579354764660254e+01
 1.113639555359967e+00	 5.345638388734125e-01	 1.621536155209914e+01
 1.108522861758990e+00	 5.450950578120163e-01	 1.604548499473179e+01
 1.103298298899165e+00	 5.555937551301636e-01	 1.588928914895414e+01
 1.097966090862877e+00	 5.660583189113279e-01	 1.574696198007740e+01
 1.092526493096721e+00	 5.764871368688175e-01	 1.561872582488071e+01
 1.086979792529710e+00	 5.868785970926987e-01	 1.550483532326808e+01
 1.081326307670562e+00	 5.972310888031320e-01	 1.539210378299459e+01
 1.075566388683736e+00	 6.075430031094536e-01	 1.525947593451296e+01
 1.069700417443940e+00	 6.178127337743100e-01	 1.510794387961485e+01
 1.063728807568856e+00	 6.280386779821499e-01	 1.493893289481568e+01
 1.057652004429825e+00	 6.382192371113549e-01	 1.475399447740271e+01
 1.118942600861682e+00	 5.371093809632860e-01	 1.616900718886228e+01
 1.113801542053080e+00	 5.476907485635021e-01	 1.600205031344612e+01
 1.108552100322494e+00	 5.582394396784023e-01	 1.585013247201896e+01
 1.103194500819367e+00	 5.687538347156678e-01	 1.571343821399301e+01
 1.097729000206705e+00	 5.792323137110503e-01	 1.559218666153455e+01
 1.092155886779852e+00	 5.896732570788543e-01	 1.548628192548944e+01
 1.086475480564231e+00	 6.000750463688611e-01	 1.537358192104892e+01
 1.080688133391753e+00	 6.104360650290224e-01	 1.524158761247291e+01
 1.074794228955578e+00	 6.207546991732352e-01	 1.509159180642325e+01
 1.068794182842993e+00	 6.310293383534935e-01	 1.492501481670900e+01
 1.062688442546157e+00	 6.412583763356949e-01	 1.474340524800685e+01
 1.124245646363396e+00	 5.396549230531594e-01	 1.612389589905813e+01
 1.119080222347171e+00	 5.502864393149878e-01	 1.595995934296887e+01
 1.113805901745823e+00	 5.608851242266413e-01	 1.581244637531588e+01
 1.108422910775857e+00	 5.714493505200072e-01	 1.568153934611457e+01
 1.102931507316690e+00	 5.819774905532827e-01	 1.556745475615191e+01
 1.097331981029993e+00	 5.924679170650101e-01	 1.546741575802555e+01
 1.091624653457901e+00	 6.029190039345903e-01	 1.535449253261714e+01
 1.085809878099771e+00	 6.133291269485912e-01	 1.522320698850458e+01
 1.079888040467216e+00	 6.236966645721607e-01	 1.507484202841008e+01
 1.073859558117130e+00	 6.340199987248372e-01	 1.491080942962363e+01
 1.067724880662490e+00	 6.442975155600348e-01	 1.473265071585227e+01
 1.129548691865109e+00	 5.422004651430327e-01	 1.607991596015066e+01
 1.124358902641261e+00	 5.528821300664737e-01	 1.591914062627706e+01
 1.119059703169152e+00	 5.635308087748803e-01	 1.577619175298391e+01
 1.113651320732346e+00	 5.741448663243468e-01	 1.565125071455582e+01
 1.108134014426674e+00	 5.847226673955149e-01	 1.554453199654943e+01
 1.102508075280135e+00	 5.952625770511659e-01	 1.544790287116606e+01
 1.096773826351570e+00	 6.057629615003196e-01	 1.533481526177052e+01
 1.090931622807789e+00	 6.162221888681602e-01	 1.520431168912353e+01
 1.084981851978853e+00	 6.266386299710858e-01	 1.505766219580075e+01
 1.078924933391268e+00	 6.370106590961805e-01	 1.489626645766308e+01
 1.072761318778822e+00	 6.473366547843742e-01	 1.472165474465200e+01
 1.134851737366824e+00	 5.447460072329061e-01	 1.603695185932115e+01
 1.129637582935352e+00	 5.554778208179594e-01	 1.587951796429958e+01
 1.124313504592482e+00	 5.661764933231191e-01	 1.574132395662502e+01
 1.118879730688837e+00	 5.768403821286865e-01	 1.562255146607005e+01
 1.113336521536658e+00	 5.874678442377477e-01	 1.552341358231202e+01
 1.107684169530276e+00	 5.980572370373218e-01	 1.542771464627251e+01
 1.101922999245239e+00	 6.086069190660488e-01	 1.531452745941456e+01
 1.096053367515806e+00	 6.191152507877288e-01	 1.518487722110828e+01
 1.090075663490491e+00	 6.295805953700112e-01	 1.504001815917795e+01
 1.083990308665405e+00	 6.400013194675240e-01	 1.488133429121670e+01
 1.077797756895155e+00	 6.503757940087141e-01	 1.471034047523552e+01
 1.140154782868538e+00	 5.472915493227795e-01	 1.599488427010295e+01
 1.134916263229442e+00	 5.580735115694451e-01	 1.584101041101184e+01
 1.129567306015811e+00	 5.688221778713580e-01	 1.570779280536485e+01
 1.124108140645326e+00	 5.795358979330262e-01	 1.559541457758473e+01
 1.118539028646643e+00	 5.902130210799801e-01	 1.550341740834612e+01
 1.112860263780417e+00	 6.008518970234771e-01	 1.540682027714262e+01
 1.107072172138909e+00	 6.114508766317780e-01	 1.529360431821856e+01
 1.101175112223824e+00	 6.220083127072978e-01	 1.516487710619214e+01
 1.095169475002129e+00	 6.325225607689365e-01	 1.502187410041103e+01
 1.089055683939543e+00	 6.429919798388680e-01	 1.486596011060867e+01
 1.082834195011487e+00	 6.534149332330539e-01	 1.469863043841258e+01
 1.145457828370252e+00	 5.498370914126528e-01	 1.595359002889035e+01
 1.140194943523532e+00	 5.606692023209309e-01	 1.580353226786435e+01
 1.134821107439140e+00	 5.714678624195967e-01	 1.567554259480621e+01
 1.129336550601816e+00	 5.822314137373658e-01	 1.556980687627918e+01
 1.123741535756627e+00	 5.929581979222124e-01	 1.548269972002924e+01
 1.118036358030559e+00	 6.036465570096330e-01	 1.538518689978722e+01
 1.112221345032578e+00	 6.142948341975073e-01	 1.527201900563426e+01
 1.106296856931842e+00	 6.249013746268667e-01	 1.514428301388880e+01
 1.100263286513766e+00	 6.354645261678619e-01	 1.500319266185583e+01
 1.094121059213680e+00	 6.459826402102115e-01	 1.485009000825285e+01
 1.087870633127820e+00	 6.564540724573938e-01	 1.468644666667277e+01
 1.150760873871966e+00	 5.523826335025261e-01	 1.591294211132700e+01
 1.145473623817622e+00	 5.632648930724167e-01	 1.576699307756801e+01
 1.140074908862469e+00	 5.741135469678357e-01	 1.564451210490836e+01
 1.134564960558306e+00	 5.849269295417054e-01	 1.554568905825619e+01
 1.128944042866611e+00	 5.957033747644449e-01	 1.546111166074262e+01
 1.123212452280700e+00	 6.064412169957888e-01	 1.536277972041106e+01
 1.117370517926247e+00	 6.171387917632364e-01	 1.524974279506597e+01
 1.111418601639860e+00	 6.277944365464353e-01	 1.512306489250764e+01
 1.105357098025405e+00	 6.384064915667869e-01	 1.498393507388092e+01
 1.099186434487817e+00	 6.489733005815547e-01	 1.483366910936027e+01
 1.092907071244152e+00	 6.594932116817336e-01	 1.467371080475877e+01
 1.156063919373681e+00	 5.549281755923996e-01	 1.587280960857651e+01
 1.150752304111713e+00	 5.658605838239025e-01	 1.573129761725563e+01
 1.145328710285799e+00	 5.767592315160744e-01	 1.561463460682777e+01
 1.139793370514796e+00	 5.876224453460451e-01	 1.552301570584916e+01
 1.134146549976595e+00	 5.984485516066773e-01	 1.543860327581444e+01
 1.128388546530842e+00	 6.092358769819444e-01	 1.533956214165527e+01
 1.122519690819917e+00	 6.199827493289656e-01	 1.522674519525133e+01
 1.116540346347878e+00	 6.306874984660040e-01	 1.510119109842082e+01
 1.110450909537042e+00	 6.413484569657122e-01	 1.496406128077335e+01
 1.104251809761955e+00	 6.519639609528985e-01	 1.481664169124664e+01
 1.097943509360485e+00	 6.625323509060733e-01	 1.466034421914846e+01
 1.161366964875395e+00	 5.574737176822731e-01	 1.583305770347978e+01
 1.156030984405803e+00	 5.684562745753882e-01	 1.569634589103948e+01
 1.150582511709128e+00	 5.794049160643134e-01	 1.558583786875447e+01
 1.145021780471286e+00	 5.903179611503847e-01	 1.550098230199831e+01
 1.139349057086580e+00	 6.011937284489097e-01	 1.541512302086536e+01
 1.133564640780983e+00	 6.120305369681001e-01	 1.531549588715785e+01
 1.127668863713586e+00	 6.228267068946949e-01	 1.520299407790962e+01
 1.121662091055895e+00	 6.335805603855729e-01	 1.507862852363489e+01
 1.115544721048680e+00	 6.442904223646377e-01	 1.494353006507599e+01
 1.109317185036092e+00	 6.549546213242421e-01	 1.479895130128474e+01
 1.102979947476817e+00	 6.655714901304129e-01	 1.464626810648235e+01
 1.166670010377108e+00	 5.600192597721463e-01	 1.579354764660254e+01
 1.161309664699894e+00	 5.710519653268742e-01	 1.566203312198553e+01
 1.155836313132458e+00	 5.820506006125523e-01	 1.555804416077391e+01
 1.150250190427776e+00	 5.930134769547244e-01	 1.547781949364721e+01
 1.144551564196564e+00	 6.039389052911422e-01	 1.539061787861633e+01
 1.138740735031125e+00	 6.148251969542559e-01	 1.529054112448462e+01
 1.132818036607256e+00	 6.256706644604243e-01	 1.517845580371221e+01
 1.126783835763913e+00	 6.364736223051419e-01	 1.505534272172308e+01
 1.120638532560318e+00	 6.472323877635628e-01	 1.492229917040609e+01
 1.114382560310229e+00	 6.579452816955857e-01	 1.478054087354386e+01
 1.108016385593150e+00	 6.686106293547529e-01	 1.463140360096826e+01
 1.057652004429825e+00	 6.382192371113549e-01	 1.475399447740271e+01
 1.051470485140311e+00	 6.483528175092815e-01	 1.456179567667738e+01
 1.045184758521939e+00	 6.584378312694840e-01	 1.437010751456644e+01
 1.038795365047961e+00	 6.684726970103558e-01	 1.417927089228493e+01
 1.032302876764029e+00	 6.784558406544497e-01	 1.398967864257336e+01
 1.025707897186169e+00	 6.883856962076952e-01	 1.380177603285891e+01
 1.019011061175894e+00	 6.982607065377553e-01	 1.361606100182768e+01
 1.012213034792409e+00	 7.080793241507387e-01	 1.343308411960005e+01
 1.005314515121916e+00	 7.178400119654877e-01	 1.325344826312653e+01
 9.983162300840190e-01	 7.275412440846618e-01	 1.307780799992974e+01
 9.912189382152959e-01	 7.371815065618285e-01	 1.290686867490388e+01
 1.062688442546157e+00	 6.412583763356949e-01	 1.474340524800685e+01
 1.056477487450503e+00	 6.514402118783738e-01	 1.455499838978611e+01
 1.050161828800615e+00	 6.615732495136245e-01	 1.436711586214146e+01
 1.043742009643427e+00	 6.716559003294530e-01	 1.418007016304618e+01
 1.037218604748620e+00	 6.816865827528044e-01	 1.399422492262326e+01
 1.030592220506104e+00	 6.916637233324936e-01	 1.380999548545998e+01
 1.023863494800541e+00	 7.015857575212684e-01	 1.362784922167537e+01
 1.017033096862849e+00	 7.114511304562181e-01	 1.344830555651624e+01
 1.010101727098688e+00	 7.212582977367520e-01	 1.327193570971941e+01
 1.003070116893943e+00	 7.310057261993506e-01	 1.309936213742525e+01
 9.959390283972734e-01	 7.406918946883133e-01	 1.293125767104924e+01
 1.067724880662490e+00	 6.442975155600348e-01	 1.473265071585227e+01
 1.061484489760695e+00	 6.545276062474656e-01	 1.454814865130786e+01
 1.055138899079291e+00	 6.647086677577650e-01	 1.436415715049368e+01
 1.048688654238894e+00	 6.748391036485499e-01	 1.418095960313434e+01
 1.042134332733210e+00	 6.849173248511586e-01	 1.399889007000946e+01
 1.035476543826037e+00	 6.949417504572920e-01	 1.381833394851517e+01
 1.028715928425187e+00	 7.049108085047814e-01	 1.363972836170891e+01
 1.021853158933289e+00	 7.148229367616982e-01	 1.346356226018249e+01
 1.014888939075458e+00	 7.246765835080163e-01	 1.329037622760600e+01
 1.007824003703867e+00	 7.344702083140395e-01	 1.312076198236915e+01
 1.000659118579251e+00	 7.442022828147981e-01	 1.295536156941316e+01
 1.072761318778822e+00	 6.473366547843742e-01	 1.472165474465200e+01
 1.066491492070888e+00	 6.576150006165574e-01	 1.454114248639446e+01
 1.060115969357967e+00	 6.678440860019054e-01	 1.436110351872880e+01
 1.053635298834360e+00	 6.780223069676469e-01	 1.418179139905531e+01
 1.047050060717801e+00	 6.881480669495132e-01	 1.400351023096750e+01
 1.040360867145971e+00	 6.982197775820906e-01	 1.382661541719127e+01
 1.033568362049835e+00	 7.082358594882946e-01	 1.365151413012997e+01
 1.026673221003729e+00	 7.181947430671779e-01	 1.347866548890896e+01
 1.019676151052230e+00	 7.280948692792805e-01	 1.330858043334981e+01
 1.012577890513791e+00	 7.379346904287284e-01	 1.314182128693215e+01
 1.005379208761229e+00	 7.477126709412829e-01	 1.297900100250916e+01
 1.077797756895155e+00	 6.503757940087141e-01	 1.471034047523552e+01
 1.071498494381079e+00	 6.607023949856490e-01	 1.453387584110303e+01
 1.065093039636643e+00	 6.709795042460458e-01	 1.435782759216420e+01
 1.058581943429826e+00	 6.812055102867436e-01	 1.418241871015227e+01
 1.051965788702391e+00	 6.913788090478680e-01	 1.400792293238496e+01
 1.045245190465906e+00	 7.014978047068893e-01	 1.383466559625532e+01
 1.038420795674482e+00	 7.115609104718078e-01	 1.366302419483810e+01
 1.031493283074169e+00	 7.215665493726574e-01	 1.349342863203813e+01
 1.024463363029001e+00	 7.315131550505448e-01	 1.332636116728219e+01
 1.017331777323715e+00	 7.413991725434175e-01	 1.316235604142843e+01
 1.010099298943206e+00	 7.512230590677680e-01	 1.300199877732027e+01
 1.082834195011487e+00	 6.534149332330539e-01	 1.469863043841258e+01
 1.076505496691271e+00	 6.637897893547410e-01	 1.452624468356336e+01
 1.070070109915318e+00	 6.741149224901860e-01	 1.435420257347258e+01
 1.063528588025293e+00	 6.843887136058407e-01	 1.418269575139288e+01
 1.056881516686982e+00	 6.946095511462225e-01	 1.401196715789709e+01
 1.050129513785840e+00	 7.047758318316878e-01	 1.384231197113586e+01
 1.043273229299129e+00	 7.148859614553208e-01	 1.367407825110744e+01
 1.036313345144609e+00	 7.249383556781372e-01	 1.350766727588121e+01
 1.029250575005771e+00	 7.349314408218088e-01	 1.334353355933147e+01
 1.022085664133638e+00	 7.448636546581061e-01	 1.318218454165875e+01
 1.014819389125184e+00	 7.547334471942528e-01	 1.302417994576962e+01
 1.087870633127820e+00	 6.564540724573938e-01	 1.468644666667277e+01
 1.081512499001463e+00	 6.668771837238329e-01	 1.451814510433545e+01
 1.075047180193995e+00	 6.772503407343264e-01	 1.435010233332134e+01
 1.068475232620760e+00	 6.875719169249376e-01	 1.418247787591138e+01
 1.061797244671572e+00	 6.978402932445769e-01	 1.401548342394683e+01
 1.055013837105773e+00	 7.080538589564861e-01	 1.384938387911124e+01
 1.048125662923776e+00	 7.182110124388339e-01	 1.368449808950687e+01
 1.041133407215050e+00	 7.283101619836170e-01	 1.352119926996413e+01
 1.034037786982542e+00	 7.383497265930732e-01	 1.335991509518221e+01
 1.026839550943563e+00	 7.483281367727951e-01	 1.320112745655869e+01
 1.019539479307162e+00	 7.582438353207379e-01	 1.304537187542090e+01
 1.092907071244152e+00	 6.594932116817336e-01	 1.467371080475878e+01
 1.086519501311655e+00	 6.699645780929246e-01	 1.450947341598398e+01
 1.080024250472670e+00	 6.803857589784668e-01	 1.434540150052509e+01
 1.073421877216226e+00	 6.907551202440347e-01	 1.418162165731316e+01
 1.066712972656163e+00	 7.010710353429312e-01	 1.401831385581140e+01
 1.059898160425708e+00	 7.113318860812848e-01	 1.385571258062158e+01
 1.052978096548423e+00	 7.215360634223469e-01	 1.369410766405382e+01
 1.045953469285489e+00	 7.316819682890967e-01	 1.353384479357428e+01
 1.038824998959314e+00	 7.417680123643373e-01	 1.337532568275254e+01
 1.031593437753486e+00	 7.517926188874839e-01	 1.321900789613774e+01
 1.024259569489139e+00	 7.617542234472228e-01	 1.306540432039946e+01
 1.097943509360485e+00	 6.625323509060733e-01	 1.466034421914846e+01
 1.091526503621847e+00	 6.730519724620165e-01	 1.450012625189325e+01
 1.085001320751346e+00	 6.835211772226072e-01	 1.433997555172639e+01
 1.078368521811693e+00	 6.939383235631315e-01	 1.417998497175038e+01
 1.071628700640754e+00	 7.043017774412859e-01	 1.402030226359645e+01
 1.064782483745642e+00	 7.146099132060834e-01	 1.386113133070078e+01
 1.057830530173070e+00	 7.248611144058604e-01	 1.370273316059695e+01
 1.050773531355929e+00	 7.350537745945763e-01	 1.354542642259596e+01
 1.043612210936085e+00	 7.451862981356018e-01	 1.338958771898112e+01
 1.036347324563410e+00	 7.552571010021727e-01	 1.323565147970396e+01
 1.028979659671116e+00	 7.652646115737074e-01	 1.308410949252849e+01
 1.102979947476817e+00	 6.655714901304129e-01	 1.464626810648236e+01
 1.096533505932039e+00	 6.761393668311082e-01	 1.449000066434925e+01
 1.089978391030022e+00	 6.866565954667476e-01	 1.433370090062077e+01
 1.083315166407159e+00	 6.971215268822285e-01	 1.417742707977515e+01
 1.076544428625344e+00	 7.075325195396404e-01	 1.402129421819843e+01
 1.069666807065576e+00	 7.178879403308818e-01	 1.386547545052332e+01
 1.062682963797717e+00	 7.281861653893732e-01	 1.371020306541689e+01
 1.055593593426369e+00	 7.384255809000558e-01	 1.355576919662808e+01
 1.048399422912855e+00	 7.486045839068658e-01	 1.340252615691279e+01
 1.041101211373334e+00	 7.587215831168617e-01	 1.325088640436122e+01
 1.033699749853094e+00	 7.687749997001924e-01	 1.310132213267273e+01
 1.108016385593150e+00	 6.686106293547529e-01	 1.463140360096826e+01
 1.101540508242231e+00	 6.792267612002001e-01	 1.447899422190969e+01
 1.094955461308698e+00	 6.897920137108882e-01	 1.432645498673913e+01
 1.088261811002625e+00	 7.003047302013254e-01	 1.417380870797695e+01
 1.081460156609935e+00	 7.107632616379949e-01	 1.402113712723695e+01
 1.074551130385510e+00	 7.211659674556807e-01	 1.386858239906509e+01
 1.067535397422364e+00	 7.315112163728865e-01	 1.371634823404099e+01
 1.060413655496810e+00	 7.417973872055357e-01	 1.356470068637336e+01
 1.053186634889627e+00	 7.520228696781303e-01	 1.341396857307508e+01
 1.045855098183258e+00	 7.621860652315509e-01	 1.326454351377404e+01
 1.038419840035072e+00	 7.722853878266773e-01	 1.311687958228316e+01
 9.912189382152959e-01	 7.371815065618285e-01	 1.290686867490388e+01
 9.840234284301197e-01	 7.467592981637778e-01	 1.273411559289846e+01
 9.767305197588334e-01	 7.562731311272832e-01	 1.255344410650530e+01
 9.693410610634284e-01	 7.657215319095135e-01	 1.236626049193979e+01
 9.618559307309036e-01	 7.751030419313377e-01	 1.217403352397891e+01
 9.542760363445022e-01	 7.844162183127344e-01	 1.197829153999984e+01
 9.466023143330722e-01	 7.936596345995537e-01	 1.178061918770741e+01
 9.388357295988039e-01	 8.028318814808657e-01	 1.158265386429460e+01
 9.309772751236538e-01	 8.119315674961544e-01	 1.138608185662857e+01
 9.230279715547663e-01	 8.209573197316159e-01	 1.119263419387722e+01
 9.149888667692577e-01	 8.299077845048417e-01	 1.100408222577832e+01
 9.959390283972734e-01	 7.406918946883133e-01	 1.293125767104924e+01
 9.887092542797868e-01	 7.503152948217006e-01	 1.276116720617491e+01
 9.813816174719708e-01	 7.598744317516987e-01	 1.258307086786348e+01
 9.739569708780167e-01	 7.693678249186063e-01	 1.239838144140459e+01
 9.664361970677178e-01	 7.787940087976775e-01	 1.220857622307832e+01
 9.588202079461428e-01	 7.881515336380331e-01	 1.201519405193469e+01
 9.511099444013249e-01	 7.974389661928850e-01	 1.181983201483560e+01
 9.433063759302273e-01	 8.066548904402987e-01	 1.162414183260080e+01
 9.354105002432904e-01	 8.157979082937552e-01	 1.142982593700644e+01
 9.274233428478844e-01	 8.248666403017668e-01	 1.123863325026599e+01
 9.193459566110160e-01	 8.338597263358172e-01	 1.105235468046273e+01
 1.000659118579251e+00	 7.442022828147981e-01	 1.295536156941316e+01
 9.933950801294544e-01	 7.538712914796236e-01	 1.278779464383576e+01
 9.860327151851083e-01	 7.634757323761142e-01	 1.261214089131067e+01
 9.785728806926043e-01	 7.730141179276994e-01	 1.242982105418874e+01
 9.710164634045311e-01	 7.824849756640171e-01	 1.224232243225397e+01
 9.633643795477834e-01	 7.918868489633322e-01	 1.205119588002796e+01
 9.556175744695775e-01	 8.012182977862164e-01	 1.185805246665478e+01
 9.477770222616501e-01	 8.104778993997314e-01	 1.166455980631295e+01
 9.398437253629270e-01	 8.196642490913558e-01	 1.147243806906230e+01
 9.318187141410024e-01	 8.287759608719175e-01	 1.128345568397689e+01
 9.237030464527748e-01	 8.378116681667930e-01	 1.109942474830978e+01
 1.005379208761229e+00	 7.477126709412829e-01	 1.297900100250916e+01
 9.980809059791217e-01	 7.574272881375463e-01	 1.281382711234991e+01
 9.906838128982455e-01	 7.670770330005301e-01	 1.264049160590375e+01
 9.831887905071918e-01	 7.766604109367922e-01	 1.246042460680628e+01
 9.755967297413451e-01	 7.861759425303571e-01	 1.227512487792973e+01
 9.679085511494241e-01	 7.956221642886310e-01	 1.208615678201537e+01
 9.601252045378305e-01	 8.049976293795477e-01	 1.189514689394660e+01
 9.522476685930725e-01	 8.143009083591638e-01	 1.170378027271392e+01
 9.442769504825632e-01	 8.235305898889567e-01	 1.151379640315138e+01
 9.362140854341201e-01	 8.326852814420678e-01	 1.132698481951453e+01
 9.280601362945328e-01	 8.417636099977681e-01	 1.114518042493847e+01
 1.010099298943206e+00	 7.512230590677680e-01	 1.300199877732026e+01
 1.002766731828789e+00	 7.609832847954691e-01	 1.283909588901756e+01
 9.953349106113828e-01	 7.706783336249455e-01	 1.266796240593989e+01
 9.878047003217794e-01	 7.803067039458853e-01	 1.249003923374094e+01
 9.801769960781589e-01	 7.898669093966963e-01	 1.230683803584155e+01
 9.724527227510643e-01	 7.993574796139293e-01	 1.211993815521205e+01
 9.646328346060830e-01	 8.087769609728785e-01	 1.193098317659147e+01
 9.567183149244954e-01	 8.181239173185963e-01	 1.174167713730415e+01
 9.487101756021997e-01	 8.273969306865574e-01	 1.155378039692487e+01
 9.406094567272384e-01	 8.365946020122186e-01	 1.136910517809719e+01
 9.324172261362913e-01	 8.457155518287437e-01	 1.118951079283646e+01
 1.014819389125184e+00	 7.547334471942528e-01	 1.302417994576962e+01
 1.007452557678456e+00	 7.645392814533917e-01	 1.286343439628970e+01
 9.999860083245200e-01	 7.742796342493612e-01	 1.269439472895804e+01
 9.924206101363675e-01	 7.839529969549781e-01	 1.251851400895736e+01
 9.847572624149726e-01	 7.935578762630364e-01	 1.233731821587632e+01
 9.769968943527045e-01	 8.030927949392280e-01	 1.215240312448673e+01
 9.691404646743357e-01	 8.125562925662099e-01	 1.196543081447988e+01
 9.611889612559186e-01	 8.219469262780295e-01	 1.177812581744010e+01
 9.531434007218361e-01	 8.312632714841581e-01	 1.159227091148275e+01
 9.450048280203559e-01	 8.405039225823689e-01	 1.140970257610350e+01
 9.367743159780495e-01	 8.496674936597191e-01	 1.123230612186748e+01
 1.019539479307162e+00	 7.582438353207379e-01	 1.304537187542091e+01
 1.012138383528123e+00	 7.680952781113145e-01	 1.288667827622042e+01
 1.004637106037657e+00	 7.778809348737770e-01	 1.271963213378287e+01
 9.970365199509549e-01	 7.875992899640711e-01	 1.254570002736261e+01
 9.893375287517866e-01	 7.972488431293761e-01	 1.236642364677218e+01
 9.815410659543452e-01	 8.068281102645269e-01	 1.218341663001349e+01
 9.736480947425884e-01	 8.163356241595409e-01	 1.199836101811865e+01
 9.656596075873413e-01	 8.257699352374619e-01	 1.181300333559383e+01
 9.575766258414726e-01	 8.351296122817589e-01	 1.162915030707545e+01
 9.494001993134740e-01	 8.444132431525194e-01	 1.144866422299554e+01
 9.411314058198077e-01	 8.536194354906945e-01	 1.127345796919303e+01
 1.024259569489139e+00	 7.617542234472228e-01	 1.306540432039946e+01
 1.016824209377790e+00	 7.716512747692372e-01	 1.290866546504881e+01
 1.009288203750794e+00	 7.814822354981926e-01	 1.274352037860490e+01
 1.001652429765543e+00	 7.912455829731638e-01	 1.257145048621909e+01
 9.939177950886002e-01	 8.009398099957155e-01	 1.239401456068537e+01
 9.860852375559859e-01	 8.105634255898259e-01	 1.221284551480806e+01
 9.781557248108412e-01	 8.201149557528724e-01	 1.202964679894570e+01
 9.701302539187643e-01	 8.295929441968949e-01	 1.184618841224491e+01
 9.620098509611091e-01	 8.389959530793595e-01	 1.166430253836427e+01
 9.537955706065920e-01	 8.483225637226699e-01	 1.148587881873629e+01
 9.454884956615662e-01	 8.575713773216700e-01	 1.131285927862585e+01
 1.028979659671116e+00	 7.652646115737074e-01	 1.308410949252849e+01
 1.021510035227458e+00	 7.752072714271601e-01	 1.292923626790475e+01
 1.013939301463932e+00	 7.850835361226082e-01	 1.276590749909968e+01
 1.006268339580131e+00	 7.948918759822567e-01	 1.259562076650892e+01
 9.984980614254140e-01	 8.046307768620553e-01	 1.241995327762766e+01
 9.906294091576262e-01	 8.142987409151243e-01	 1.224055861205678e+01
 9.826633548790936e-01	 8.238942873462033e-01	 1.205916305935982e+01
 9.746009002501870e-01	 8.334159531563273e-01	 1.187756155841557e+01
 9.664430760807454e-01	 8.428622938769602e-01	 1.169761324925957e+01
 9.581909418997099e-01	 8.522318842928207e-01	 1.152123665072007e+01
 9.498455855033247e-01	 8.615233191526454e-01	 1.135040447943408e+01
 1.033699749853094e+00	 7.687749997001924e-01	 1.310132213267273e+01
 1.026195861077125e+00	 7.787632680850828e-01	 1.294823343363604e+01
 1.018590399177069e+00	 7.886848367470237e-01	 1.278664388658220e+01
 1.010884249394718e+00	 7.985381689913498e-01	 1.261806851425269e+01
 1.003078327762228e+00	 8.083217437283947e-01	 1.244410428977906e+01
 9.951735807592665e-01	 8.180340562404230e-01	 1.226642683224328e+01
 9.871709849473465e-01	 8.276736189395345e-01	 1.208678668247573e+01
 9.790715465816098e-01	 8.372389621157600e-01	 1.190700516786167e+01
 9.708763012003820e-01	 8.467286346745611e-01	 1.172896986734827e+01
 9.625863131928276e-01	 8.561412048629713e-01	 1.155462969022691e+01
 9.542026753450833e-01	 8.654752609836210e-01	 1.138598958461352e+01
 1.038419840035072e+00	 7.722853878266773e-01	 1.311687958228316e+01
 1.030881686926792e+00	 7.823192647430056e-01	 1.296550222975189e+01
 1.023241496890207e+00	 7.922861373714396e-01	 1.280558236619626e+01
 1.015500159209306e+00	 8.021844620004428e-01	 1.263865372178524e+01
 1.007658594099042e+00	 8.120127105947348e-01	 1.246633434567822e+01
 9.997177523609072e-01	 8.217693715657217e-01	 1.229032325007983e+01
 9.916786150155994e-01	 8.314529505328658e-01	 1.211239662161486e+01
 9.835421929130328e-01	 8.410619710751926e-01	 1.193440360893065e+01
 9.753095263200183e-01	 8.505949754721617e-01	 1.175826169792097e+01
 9.669816844859457e-01	 8.600505254331220e-01	 1.158595168842178e+01
 9.585597651868416e-01	 8.694272028145965e-01	 1.141951228864393e+01
 9.149888667692577e-01	 8.299077845048417e-01	 1.100408222577832e+01
 9.068610354187399e-01	 8.387816280371647e-01	 1.081531441070979e+01
 8.986455784539924e-01	 8.475775371129860e-01	 1.062100498187407e+01
 8.903436226302274e-01	 8.562942197253869e-01	 1.042263719441919e+01
 8.819563199934038e-01	 8.649304057073715e-01	 1.022169828651028e+01
 8.734848473480884e-01	 8.734848473480880e-01	 1.001967468621758e+01
 8.649304057073717e-01	 8.819563199934033e-01	 9.818047083753587e+00
 8.562942197253869e-01	 8.903436226302270e-01	 9.618285391395997e+00
 8.475775371129860e-01	 8.986455784539924e-01	 9.421843614458368e+00
 8.387816280371649e-01	 9.068610354187399e-01	 9.230154657567844e+00
 8.299077845048416e-01	 9.149888667692578e-01	 9.044625091269364e+00
 9.193459566110160e-01	 8.338597263358172e-01	 1.105235468046273e+01
 9.111794213016863e-01	 8.427758262659133e-01	 1.086576036454638e+01
 9.029248431132970e-01	 8.516136206230478e-01	 1.067341137955948e+01
 8.945833541665615e-01	 8.603718112478889e-01	 1.047682059554061e+01
 8.861561119933725e-01	 8.690491219250257e-01	 1.027750625350230e+01
 8.776442990021267e-01	 8.776442990021267e-01	 1.007698704413727e+01
 8.690491219250261e-01	 8.861561119933724e-01	 9.876777044770451e+00
 8.603718112478891e-01	 8.945833541665614e-01	 9.678380537513494e+00
 8.516136206230480e-01	 9.029248431132970e-01	 9.483286732640932e+00
 8.427758262659134e-01	 9.111794213016859e-01	 9.292964422141113e+00
 8.338597263358172e-01	 9.193459566110160e-01	 9.108856589184036e+00
 9.237030464527748e-01	 8.378116681667930e-01	 1.109942474830978e+01
 9.154978071846324e-01	 8.467700244946615e-01	 1.091499828155359e+01
 9.072041077726021e-01	 8.556497041331100e-01	 1.072462194634665e+01
 8.988230857028959e-01	 8.644494027703904e-01	 1.052983456409938e+01
 8.903559039933409e-01	 8.731678381426796e-01	 1.033218156880647e+01
 8.818037506561655e-01	 8.818037506561650e-01	 1.013320996068200e+01
 8.731678381426797e-01	 8.903559039933409e-01	 9.934463110995409e+00
 8.644494027703905e-01	 8.988230857028958e-01	 9.737475441680076e+00
 8.556497041331101e-01	 9.072041077726019e-01	 9.543767004401253e+00
 8.467700244946619e-01	 9.154978071846326e-01	 9.354837984729890e+00
 8.378116681667928e-01	 9.237030464527748e-01	 9.172163157900709e+00
 9.280601362945328e-01	 8.417636099977681e-01	 1.114518042493847e+01
 9.198161930675789e-01	 8.507642227234101e-01	 1.096291935073636e+01
 9.114833724319068e-01	 8.596857876431715e-01	 1.077452866178065e+01
 9.030628172392302e-01	 8.685269942928923e-01	 1.058156953071813e+01
 8.945556959933096e-01	 8.772865543603341e-01	 1.038561084076154e+01
 8.859632023102038e-01	 8.859632023102036e-01	 1.018822401727939e+01
 8.772865543603342e-01	 8.945556959933094e-01	 9.990977703580514e+00
 8.685269942928925e-01	 9.030628172392301e-01	 9.795432305098378e+00
 8.596857876431715e-01	 9.114833724319065e-01	 9.603134427325095e+00
 8.507642227234103e-01	 9.198161930675787e-01	 9.415611233847793e+00
 8.417636099977680e-01	 9.280601362945328e-01	 9.234364751694933e+00
 9.324172261362913e-01	 8.457155518287437e-01	 1.118951079283646e+01
 9.241345789505254e-01	 8.547584209521584e-01	 1.100941575724799e+01
 9.157626370912112e-01	 8.637218711532330e-01	 1.082302444746687e+01
 9.073025487755650e-01	 8.726045858153942e-01	 1.063191684968710e+01
 8.987554879932782e-01	 8.814052705779881e-01	 1.043768161773412e+01
 8.901226539642423e-01	 8.901226539642422e-01	 1.024191078553516e+01
 8.814052705779883e-01	 8.987554879932780e-01	 1.004619431682400e+01
 8.726045858153945e-01	 9.073025487755647e-01	 9.852114516917270e+00
 8.637218711532336e-01	 9.157626370912112e-01	 9.661240332581320e+00
 8.547584209521587e-01	 9.241345789505256e-01	 9.475121567049383e+00
 8.457155518287434e-01	 9.324172261362914e-01	 9.295283038144159e+00
 9.367743159780495e-01	 8.496674936597191e-01	 1.123230612186748e+01
 9.284529648334714e-01	 8.587526191809068e-01	 1.105438078430645e+01
 9.200419017505163e-01	 8.677579546632951e-01	 1.087000326933532e+01
 9.115422803118991e-01	 8.766821773378961e-01	 1.068076890054821e+01
 9.029552799932469e-01	 8.855239867956423e-01	 1.048828248801191e+01
 8.942821056182807e-01	 8.942821056182804e-01	 1.029415292445707e+01
 8.855239867956421e-01	 9.029552799932464e-01	 1.009998761177502e+01
 8.766821773378962e-01	 9.115422803118992e-01	 9.907386743297019e+00
 8.677579546632952e-01	 9.200419017505158e-01	 9.717937468550312e+00
 8.587526191809068e-01	 9.284529648334713e-01	 9.533207968264961e+00
 8.496674936597188e-01	 9.367743159780497e-01	 9.354741468334762e+00
 9.411314058198077e-01	 8.536194354906945e-01	 1.127345796919303e+01
 9.327713507164184e-01	 8.627468174096552e-01	 1.109770891447542e+01
 9.243211664098208e-01	 8.717940381733570e-01	 1.091536023925187e+01
 9.157820118482338e-01	 8.807597688603979e-01	 1.072801918902595e+01
 9.071550719932153e-01	 8.896427030132965e-01	 1.053730317907777e+01
 8.984415572723193e-01	 8.984415572723193e-01	 1.034483427711920e+01
 8.896427030132964e-01	 9.071550719932150e-01	 1.015223350936010e+01
 8.807597688603980e-01	 9.157820118482333e-01	 9.961115016097633e+00
 8.717940381733570e-01	 9.243211664098205e-01	 9.773080084209306e+00
 8.627468174096552e-01	 9.327713507164179e-01	 9.589711085040683e+00
 8.536194354906944e-01	 9.411314058198081e-01	 9.412565347148025e+00
 9.454884956615662e-01	 8.575713773216700e-01	 1.131285927862585e+01
 9.370897365993643e-01	 8.667410156384037e-01	 1.113929593033071e+01
 9.286004310691254e-01	 8.758301216834187e-01	 1.095899171599215e+01
 9.200217433845681e-01	 8.848373603828994e-01	 1.077356244733206e+01
 9.113548639931838e-01	 8.937614192309505e-01	 1.058463465628638e+01
 9.026010089263576e-01	 9.026010089263576e-01	 1.039383996678087e+01
 8.937614192309508e-01	 9.113548639931839e-01	 1.020280928304317e+01
 8.848373603828997e-01	 9.200217433845682e-01	 1.001316682120674e+01
 8.758301216834188e-01	 9.286004310691254e-01	 9.826524012278369e+00
 8.667410156384037e-01	 9.370897365993643e-01	 9.644473305684746e+00
 8.575713773216697e-01	 9.454884956615665e-01	 9.468581903621377e+00
 9.498455855033247e-01	 8.615233191526454e-01	 1.135040447943408e+01
 9.414081224823109e-01	 8.707352138671521e-01	 1.117903901453112e+01
 9.328796957284304e-01	 8.798662051934805e-01	 1.100079540560176e+01
 9.242614749209026e-01	 8.889149519054014e-01	 1.081729473385738e+01
 9.155546559931524e-01	 8.978801354486049e-01	 1.063016922096016e+01
 9.067604605803964e-01	 9.067604605803962e-01	 1.044105649248113e+01
 8.978801354486049e-01	 9.155546559931522e-01	 1.025159365103828e+01
 8.889149519054017e-01	 9.242614749209023e-01	 1.006341118651647e+01
 8.798662051934809e-01	 9.328796957284301e-01	 9.878126752137003e+00
 8.707352138671524e-01	 9.414081224823108e-01	 9.697338836328189e+00
 8.615233191526451e-01	 9.498455855033248e-01	 9.522620361381602e+00
 9.542026753450833e-01	 8.654752609836210e-01	 1.138598958461352e+01
 9.457265083652573e-01	 8.747294120959006e-01	 1.121683684931544e+01
 9.371589603877351e-01	 8.839022887035426e-01	 1.104067046116169e+01
 9.285012064572368e-01	 8.929925434279034e-01	 1.085911353227762e+01
 9.197544479931209e-01	 9.019988516662589e-01	 1.067380060792614e+01
 9.109199122344347e-01	 9.109199122344346e-01	 1.048637182412388e+01
 9.019988516662590e-01	 9.197544479931207e-01	 1.029846686808588e+01
 8.929925434279037e-01	 9.285012064572368e-01	 1.011171876956016e+01
 8.839022887035426e-01	 9.371589603877347e-01	 9.927747552518797e+00
 8.747294120959007e-01	 9.457265083652571e-01	 9.748153777897297e+00
 8.654752609836206e-01	 9.542026753450832e-01	 9.574512009148096e+00
 9.585597651868416e-01	 8.694272028145965e-01	 1.141951228864393e+01
 9.500448942482035e-01	 8.787236103246489e-01	 1.125258971543868e+01
 9.414382250470398e-01	 8.879383722136041e-01	 1.107851758197795e+01
 9.327409379935714e-01	 8.970701349504052e-01	 1.089891785008567e+01
 9.239542399930897e-01	 9.061175678839130e-01	 1.071542408250802e+01
 9.150793638884736e-01	 9.150793638884734e-01	 1.052967549706973e+01
 9.061175678839135e-01	 9.239542399930899e-01	 1.034331081680941e+01
 8.970701349504054e-01	 9.327409379935715e-01	 1.015796194482369e+01
 8.879383722136045e-01	 9.414382250470396e-01	 9.975247493988725e+00
 8.787236103246494e-01	 9.500448942482036e-01	 9.796766203004424e+00
 8.694272028145962e-01	 9.585597651868416e-01	 9.624090271305949e+00
 8.299077845048416e-01	 9.149888667692578e-01	 9.044625091269364e+00
 8.209573197316162e-01	 9.230279715547660e-01	 8.860116523088152e+00
 8.119315674961547e-01	 9.309772751236538e-01	 8.671529827765852e+00
 8.028318814808661e-01	 9.388357295988039e-01	 8.480271717848911e+00
 7.936596345995539e-01	 9.466023143330716e-01	 8.287697094684999e+00
 7.844162183127347e-01	 9.542760363445022e-01	 8.095104137496044e+00
 7.751030419313379e-01	 9.618559307309035e-01	 7.903729519830375e+00
 7.657215319095139e-01	 9.693410610634281e-01	 7.714743779218808e+00
 7.562731311272832e-01	 9.767305197588331e-01	 7.529246865396776e+00
 7.467592981637781e-01	 9.840234284301197e-01	 7.348263891822025e+00
 7.371815065618283e-01	 9.912189382152959e-01	 7.172741114456063e+00
 8.338597263358172e-01	 9.193459566110160e-01	 9.108856589184036e+00
 8.248666403017669e-01	 9.274233428478841e-01	 8.925784501437398e+00
 8.157979082937555e-01	 9.354105002432903e-01	 8.738575859476091e+00
 8.066548904402989e-01	 9.433063759302268e-01	 8.548623210055641e+00
 7.974389661928853e-01	 9.511099444013250e-01	 8.357265051777954e+00
 7.881515336380336e-01	 9.588202079461428e-01	 8.165780837937866e+00
 7.787940087976776e-01	 9.664361970677172e-01	 7.975386109820237e+00
 7.693678249186068e-01	 9.739569708780164e-01	 7.787227786950668e+00
 7.598744317516990e-01	 9.813816174719706e-01	 7.602379640334756e+00
 7.503152948217009e-01	 9.887092542797867e-01	 7.421837974072052e+00
 7.406918946883134e-01	 9.959390283972737e-01	 7.246517539957349e+00
 8.378116681667928e-01	 9.237030464527748e-01	 9.172163157900709e+00
 8.287759608719175e-01	 9.318187141410023e-01	 8.990508153428372e+00
 8.196642490913560e-01	 9.398437253629267e-01	 8.804620953569092e+00
 8.104778993997315e-01	 9.477770222616498e-01	 8.615888643530432e+00
 8.012182977862163e-01	 9.556175744695773e-01	 8.425642392511065e+00
 7.918868489633324e-01	 9.633643795477833e-01	 8.235152353613358e+00
 7.824849756640173e-01	 9.710164634045308e-01	 8.045622696788399e+00
 7.730141179276999e-01	 9.785728806926041e-01	 7.858186802045211e+00
 7.634757323761145e-01	 9.860327151851079e-01	 7.673902639665423e+00
 7.538712914796238e-01	 9.933950801294542e-01	 7.493748363521666e+00
 7.442022828147982e-01	 1.000659118579251e+00	 7.318618142791703e+00
 8.417636099977680e-01	 9.280601362945328e-01	 9.234364751694933e+00
 8.326852814420679e-01	 9.362140854341200e-01	 9.054093081264247e+00
 8.235305898889569e-01	 9.442769504825630e-01	 8.869461226674680e+00
 8.143009083591641e-01	 9.522476685930723e-01	 8.681859410797188e+00
 8.049976293795476e-01	 9.601252045378301e-01	 8.492620438663762e+00
 7.956221642886311e-01	 9.679085511494238e-01	 8.303014477763242e+00
 7.861759425303572e-01	 9.755967297413448e-01	 8.114243973469707e+00
 7.766604109367921e-01	 9.831887905071913e-01	 7.927438727596879e+00
 7.670770330005304e-01	 9.906838128982450e-01	 7.743651167584669e+00
 7.574272881375466e-01	 9.980809059791217e-01	 7.563851833158949e+00
 7.477126709412828e-01	 1.005379208761229e+00	 7.388925106493317e+00
 8.457155518287434e-01	 9.324172261362914e-01	 9.295283038144159e+00
 8.365946020122185e-01	 9.406094567272382e-01	 9.116346770323894e+00
 8.273969306865575e-01	 9.487101756021993e-01	 8.932894753222115e+00
 8.181239173185968e-01	 9.567183149244951e-01	 8.746328844058269e+00
 8.087769609728791e-01	 9.646328346060830e-01	 8.557992343409914e+00
 7.993574796139299e-01	 9.724527227510640e-01	 8.369164639230625e+00
 7.898669093966966e-01	 9.801769960781584e-01	 8.181055987619212e+00
 7.803067039458854e-01	 9.878047003217791e-01	 7.994802459137112e+00
 7.706783336249459e-01	 9.953349106113826e-01	 7.811461078987227e+00
 7.609832847954693e-01	 1.002766731828789e+00	 7.632005188686298e+00
 7.512230590677679e-01	 1.010099298943206e+00	 7.457320056040498e+00
 8.496674936597188e-01	 9.367743159780497e-01	 9.354741468334762e+00
 8.405039225823692e-01	 9.450048280203558e-01	 9.177078652890025e+00
 8.312632714841581e-01	 9.531434007218358e-01	 8.994721624758949e+00
 8.219469262780297e-01	 9.611889612559184e-01	 8.809092272126161e+00
 8.125562925662100e-01	 9.691404646743355e-01	 8.621553147831438e+00
 8.030927949392285e-01	 9.769968943527046e-01	 8.433401960471803e+00
 7.935578762630364e-01	 9.847572624149724e-01	 8.245866203385788e+00
 7.839529969549784e-01	 9.924206101363671e-01	 8.060097951177831e+00
 7.742796342493615e-01	 9.999860083245196e-01	 7.877168852932401e+00
 7.645392814533920e-01	 1.007452557678456e+00	 7.698065350601899e+00
 7.547334471942529e-01	 1.014819389125184e+00	 7.523684150189099e+00
 8.536194354906944e-01	 9.411314058198081e-01	 9.412565347148025e+00
 8.444132431525196e-01	 9.494001993134737e-01	 9.236100172109062e+00
 8.351296122817589e-01	 9.575766258414723e-01	 9.054744009595176e+00
 8.257699352374621e-01	 9.656596075873410e-01	 8.869947077714441e+00
 8.163356241595413e-01	 9.736480947425883e-01	 8.683099837772060e+00
 8.068281102645269e-01	 9.815410659543451e-01	 8.495527315834135e+00
 7.972488431293761e-01	 9.893375287517864e-01	 8.308483562824467e+00
 7.875992899640715e-01	 9.970365199509550e-01	 8.123146283713099e+00
 7.778809348737772e-01	 1.004637106037657e+00	 7.940611665839434e+00
 7.680952781113147e-01	 1.012138383528123e+00	 7.761889435734436e+00
 7.582438353207376e-01	 1.019539479307162e+00	 7.587898172935767e+00
 8.575713773216697e-01	 9.454884956615665e-01	 9.468581903621377e+00
 8.483225637226701e-01	 9.537955706065914e-01	 9.293224846172269e+00
 8.389959530793596e-01	 9.620098509611087e-01	 9.112766212761878e+00
 8.295929441968949e-01	 9.701302539187641e-01	 8.928692755079798e+00
 8.201149557528723e-01	 9.781557248108407e-01	 8.742431401019434e+00
 8.105634255898261e-01	 9.860852375559858e-01	 8.555343390090702e+00
 8.009398099957159e-01	 9.939177950886001e-01	 8.368718547540643e+00
 7.912455829731643e-01	 1.001652429765542e+00	 8.183769728684092e+00
 7.814822354981928e-01	 1.009288203750794e+00	 8.001627464423679e+00
 7.716512747692376e-01	 1.016824209377791e+00	 7.823334838250565e+00
 7.617542234472225e-01	 1.024259569489139e+00	 7.649842624141321e+00
 8.615233191526451e-01	 9.498455855033248e-01	 9.522620361381602e+00
 8.522318842928206e-01	 9.581909418997098e-01	 9.348268332714605e+00
 8.428622938769601e-01	 9.664430760807451e-01	 9.168594736270203e+00
 8.334159531563273e-01	 9.746009002501865e-01	 8.985130967998268e+00
 8.238942873462037e-01	 9.826633548790938e-01	 8.799348884807170e+00
 8.142987409151246e-01	 9.906294091576258e-01	 8.612654737223844e+00
 8.046307768620559e-01	 9.984980614254141e-01	 8.426383240466285e+00
 7.948918759822572e-01	 1.006268339580130e+00	 8.241791816404067e+00
 7.850835361226084e-01	 1.013939301463932e+00	 8.060055038379616e+00
 7.752072714271602e-01	 1.021510035227458e+00	 7.882259310151827e+00
 7.652646115737074e-01	 1.028979659671117e+00	 7.709397809340487e+00
 8.654752609836206e-01	 9.542026753450832e-01	 9.574512009148096e+00
 8.561412048629714e-01	 9.625863131928275e-01	 9.401048493420500e+00
 8.467286346745613e-01	 9.708763012003819e-01	 9.222038339668321e+00
 8.372389621157600e-01	 9.790715465816094e-01	 9.039065608071731e+00
 8.276736189395346e-01	 9.871709849473463e-01	 8.853655453623933e+00
 8.180340562404234e-01	 9.951735807592663e-01	 8.667267839450481e+00
 8.083217437283952e-01	 1.003078327762227e+00	 8.481291387761482e+00
 7.985381689913498e-01	 1.010884249394718e+00	 8.297037401948751e+00
 7.886848367470238e-01	 1.018590399177069e+00	 8.115734092821862e+00
 7.787632680850829e-01	 1.026195861077125e+00	 7.938521041275497e+00
 7.687749997001924e-01	 1.033699749853094e+00	 7.766443928763973e+00
 8.694272028145962e-01	 9.585597651868416e-01	 9.624090271305949e+00
 8.600505254331220e-01	 9.669816844859455e-01	 9.451385458833165e+00
 8.505949754721618e-01	 9.753095263200180e-01	 9.272908100880054e+00
 8.410619710751931e-01	 9.835421929130326e-01	 9.090302853347284e+00
 8.314529505328662e-01	 9.916786150155991e-01	 8.905156447324106e+00
 8.217693715657221e-01	 9.997177523609069e-01	 8.718991166479945e+00
 8.120127105947350e-01	 1.007658594099042e+00	 8.533258460836086e+00
 8.021844620004429e-01	 1.015500159209306e+00	 8.349332731508534e+00
 7.922861373714397e-01	 1.023241496890206e+00	 8.168505320488267e+00
 7.823192647430059e-01	 1.030881686926792e+00	 7.991978738817176e+00
 7.722853878266773e-01	 1.038419840035072e+00	 7.820861165597407e+00
 7.371815065618283e-01	 9.912189382152959e-01	 7.172741114456063e+00
 7.275412440846621e-01	 9.983162300840189e-01	 6.998749564864386e+00
 7.178400119654882e-01	 1.005314515121916e+00	 6.822376883245216e+00
 7.080793241507393e-01	 1.012213034792409e+00	 6.644467434845549e+00
 6.982607065377556e-01	 1.019011061175893e+00	 6.465776130408873e+00
 6.883856962076955e-01	 1.025707897186169e+00	 6.286965836459688e+00
 6.784558406544501e-01	 1.032302876764029e+00	 6.108605130914953e+00
 6.684726970103563e-01	 1.038795365047961e+00	 5.931166418882439e+00
 6.584378312694844e-01	 1.045184758521939e+00	 5.755024421785308e+00
 6.483528175092823e-01	 1.051470485140311e+00	 5.580455051141048e+00
 6.382192371113549e-01	 1.057652004429825e+00	 5.407634676457652e+00
 7.406918946883134e-01	 9.959390283972737e-01	 7.246517539957349e+00
 7.310057261993509e-01	 1.003070116893943e+00	 7.072481384085837e+00
 7.212582977367524e-01	 1.010101727098687e+00	 6.895873726037928e+00
 7.114511304562186e-01	 1.017033096862849e+00	 6.717602690918739e+00
 7.015857575212686e-01	 1.023863494800541e+00	 6.538487420630993e+00
 6.916637233324937e-01	 1.030592220506103e+00	 6.359255288675609e+00
 6.816865827528046e-01	 1.037218604748619e+00	 6.180539465868733e+00
 6.716559003294533e-01	 1.043742009643427e+00	 6.002876852561494e+00
 6.615732495136247e-01	 1.050161828800615e+00	 5.826706391191727e+00
 6.514402118783742e-01	 1.056477487450503e+00	 5.652367771139288e+00
 6.412583763356949e-01	 1.062688442546157e+00	 5.480100535946464e+00
 7.442022828147982e-01	 1.000659118579251e+00	 7.318618142791703e+00
 7.344702083140399e-01	 1.007824003703867e+00	 7.144594977956785e+00
 7.246765835080163e-01	 1.014888939075458e+00	 6.967887865801576e+00
 7.148229367616983e-01	 1.021853158933290e+00	 6.789449662357605e+00
 7.049108085047815e-01	 1.028715928425187e+00	 6.610144036879728e+00
 6.949417504572925e-01	 1.035476543826037e+00	 6.430742519737670e+00
 6.849173248511591e-01	 1.042134332733210e+00	 6.251921907601171e+00
 6.748391036485503e-01	 1.048688654238894e+00	 6.074262042195201e+00
 6.647086677577653e-01	 1.055138899079291e+00	 5.898243977097320e+00
 6.545276062474656e-01	 1.061484489760695e+00	 5.724248545149578e+00
 6.442975155600346e-01	 1.067724880662490e+00	 5.552555337093071e+00
 7.477126709412828e-01	 1.005379208761229e+00	 7.388925106493317e+00
 7.379346904287285e-01	 1.012577890513791e+00	 7.214995251630308e+00
 7.280948692792805e-01	 1.019676151052229e+00	 7.038337891827752e+00
 7.181947430671781e-01	 1.026673221003729e+00	 6.859931884501314e+00
 7.082358594882948e-01	 1.033568362049834e+00	 6.680666027278416e+00
 6.982197775820910e-01	 1.040360867145971e+00	 6.501335967222513e+00
 6.881480669495136e-01	 1.047050060717800e+00	 6.322641474515869e+00
 6.780223069676472e-01	 1.053635298834360e+00	 6.145184097529802e+00
 6.678440860019056e-01	 1.060115969357967e+00	 5.969465214349337e+00
 6.576150006165576e-01	 1.066491492070887e+00	 5.795884493882019e+00
 6.473366547843742e-01	 1.072761318778822e+00	 5.624738777666022e+00
 7.512230590677679e-01	 1.010099298943206e+00	 7.457320056040498e+00
 7.413991725434178e-01	 1.017331777323715e+00	 7.283586011692531e+00
 7.315131550505449e-01	 1.024463363029001e+00	 7.107140925357843e+00
 7.215665493726576e-01	 1.031493283074169e+00	 6.928971220680475e+00
 7.115609104718080e-01	 1.038420795674482e+00	 6.749971724397302e+00
 7.014978047068895e-01	 1.045245190465905e+00	 6.570942464803034e+00
 6.913788090478681e-01	 1.051965788702391e+00	 6.392585842635275e+00
 6.812055102867439e-01	 1.058581943429827e+00	 6.215504191902041e+00
 6.709795042460460e-01	 1.065093039636643e+00	 6.040197746285592e+00
 6.607023949856493e-01	 1.071498494381079e+00	 5.867063024759075e+00
 6.503757940087139e-01	 1.077797756895155e+00	 5.696391647990667e+00
 7.547334471942529e-01	 1.014819389125184e+00	 7.523684150189099e+00
 7.448636546581064e-01	 1.022085664133638e+00	 7.350270067498177e+00
 7.349314408218093e-01	 1.029250575005772e+00	 7.174212725902972e+00
 7.249383556781375e-01	 1.036313345144609e+00	 6.996487969636792e+00
 7.148859614553210e-01	 1.043273229299129e+00	 6.817977850013173e+00
 7.047758318316878e-01	 1.050129513785839e+00	 6.639467340724403e+00
 6.946095511462227e-01	 1.056881516686982e+00	 6.461641434297018e+00
 6.843887136058410e-01	 1.063528588025293e+00	 6.285082637799409e+00
 6.741149224901863e-01	 1.070070109915318e+00	 6.110268883944097e+00
 6.637897893547411e-01	 1.076505496691271e+00	 5.937571871694031e+00
 6.534149332330537e-01	 1.082834195011487e+00	 5.767255848357477e+00
 7.582438353207376e-01	 1.019539479307162e+00	 7.587898172935767e+00
 7.483281367727952e-01	 1.026839550943562e+00	 7.414949331344215e+00
 7.383497265930733e-01	 1.034037786982542e+00	 7.239467796228658e+00
 7.283101619836170e-01	 1.041133407215049e+00	 7.062400971534736e+00
 7.182110124388341e-01	 1.048125662923776e+00	 6.884599618497154e+00
 7.080538589564866e-01	 1.055013837105774e+00	 6.706814515036503e+00
 6.978402932445771e-01	 1.061797244671572e+00	 6.529693505838909e+00
 6.875719169249377e-01	 1.068475232620760e+00	 6.353778961733916e+00
 6.772503407343267e-01	 1.075047180193994e+00	 6.179505664993727e+00
 6.668771837238330e-01	 1.081512499001463e+00	 6.007199135085002e+00
 6.564540724573936e-01	 1.087870633127820e+00	 5.837074407228474e+00
 7.617542234472225e-01	 1.024259569489139e+00	 7.649842624141321e+00
 7.517926188874841e-01	 1.031593437753486e+00	 7.477524917526559e+00
 7.417680123643373e-01	 1.038824998959313e+00	 7.302819486045973e+00
 7.316819682890969e-01	 1.045953469285489e+00	 7.126627712613020e+00
 7.215360634223471e-01	 1.052978096548423e+00	 6.949750838869217e+00
 7.113318860812851e-01	 1.059898160425708e+00	 6.772886595627243e+00
 7.010710353429314e-01	 1.066712972656163e+00	 6.596626234304344e+00
 6.907551202440348e-01	 1.073421877216226e+00	 6.421451978445537e+00
 6.803857589784670e-01	 1.080024250472670e+00	 6.247734912393826e+00
 6.699645780929250e-01	 1.086519501311655e+00	 6.075733322022633e+00
 6.594932116817331e-01	 1.092907071244152e+00	 5.905591500211820e+00
 7.652646115737074e-01	 1.028979659671117e+00	 7.709397809340487e+00
 7.552571010021728e-01	 1.036347324563410e+00	 7.537897240309876e+00
 7.451862981356017e-01	 1.043612210936084e+00	 7.364180094449996e+00
 7.350537745945764e-01	 1.050773531355929e+00	 7.189084428516186e+00
 7.248611144058603e-01	 1.057830530173070e+00	 7.013344015567346e+00
 7.146099132060834e-01	 1.064782483745642e+00	 6.837584973090010e+00
 7.043017774412860e-01	 1.071628700640753e+00	 6.662322803198673e+00
 6.939383235631315e-01	 1.078368521811693e+00	 6.487959864460925e+00
 6.835211772226073e-01	 1.085001320751346e+00	 6.314783292794254e+00
 6.730519724620164e-01	 1.091526503621846e+00	 6.142963386698991e+00
 6.625323509060731e-01	 1.097943509360485e+00	 5.972552469785064e+00
 7.687749997001924e-01	 1.033699749853094e+00	 7.766443928763973e+00
 7.587215831168619e-01	 1.041101211373334e+00	 7.595966110848646e+00
 7.486045839068660e-01	 1.048399422912855e+00	 7.423460971148112e+00
 7.384255809000561e-01	 1.055593593426369e+00	 7.249686206350834e+00
 7.281861653893733e-01	 1.062682963797717e+00	 7.075290447969090e+00
 7.178879403308820e-01	 1.069666807065576e+00	 6.900809914467016e+00
 7.075325195396404e-01	 1.076544428625344e+00	 6.726665487329235e+00
 6.971215268822284e-01	 1.083315166407159e+00	 6.553160231025746e+00
 6.866565954667478e-01	 1.089978391030022e+00	 6.380477374683720e+00
 6.761393668311084e-01	 1.096533505932038e+00	 6.208678771018439e+00
 6.655714901304128e-01	 1.102979947476817e+00	 6.037703845738356e+00
 7.722853878266773e-01	 1.038419840035072e+00	 7.820861165597407e+00
 7.621860652315507e-01	 1.045855098183258e+00	 7.651630833092538e+00
 7.520228696781303e-01	 1.053186634889627e+00	 7.480572616515548e+00
 7.417973872055359e-01	 1.060413655496809e+00	 7.308347085507362e+00
 7.315112163728869e-01	 1.067535397422365e+00	 7.135500328707662e+00
 7.211659674556805e-01	 1.074551130385510e+00	 6.962460655903149e+00
 7.107632616379952e-01	 1.081460156609935e+00	 6.789535736754448e+00
 7.003047302013257e-01	 1.088261811002626e+00	 6.616910196431858e+00
 6.897920137108884e-01	 1.094955461308698e+00	 6.444643686290300e+00
 6.792267612002002e-01	 1.101540508242230e+00	 6.272669445396000e+00
 6.686106293547525e-01	 1.108016385593150e+00	 6.100793366317884e+00
 6.382192371113549e-01	 1.057652004429825e+00	 5.407634676457652e+00
 6.280386779821504e-01	 1.063728807568856e+00	 5.239516596137153e+00
 6.178127337743102e-01	 1.069700417443940e+00	 5.078533486610590e+00
 6.075430031094539e-01	 1.075566388683735e+00	 4.923917176893324e+00
 5.972310888031325e-01	 1.081326307670562e+00	 4.774782725673102e+00
 5.868785970926990e-01	 1.086979792529710e+00	 4.630105505047485e+00
 5.764871368688180e-01	 1.092526493096721e+00	 4.486987612629211e+00
 5.660583189113282e-01	 1.097966090862877e+00	 4.343189399171184e+00
 5.555937551301640e-01	 1.103298298899164e+00	 4.197531441238119e+00
 5.450950578120166e-01	 1.108522861758990e+00	 4.048779781095353e+00
 5.345638388734124e-01	 1.113639555359967e+00	 3.895649357789072e+00
 6.412583763356949e-01	 1.062688442546157e+00	 5.480100535946464e+00
 6.310293383534937e-01	 1.068794182842993e+00	 5.312746392566131e+00
 6.207546991732358e-01	 1.074794228955578e+00	 5.152527260091677e+00
 6.104360650290226e-01	 1.080688133391753e+00	 4.998585210695425e+00
 6.000750463688613e-01	 1.086475480564231e+00	 4.849940799276342e+00
 5.896732570788545e-01	 1.092155886779852e+00	 4.705495449223894e+00
 5.792323137110504e-01	 1.097729000206705e+00	 4.562937034309256e+00
 5.687538347156679e-01	 1.103194500819367e+00	 4.419177927469479e+00
 5.582394396784026e-01	 1.108552100322494e+00	 4.272903243034065e+00
 5.476907485635022e-01	 1.113801542053080e+00	 4.122769484823040e+00
 5.371093809632856e-01	 1.118942600861682e+00	 3.967379781889213e+00
 6.442975155600346e-01	 1.067724880662490e+00	 5.552555337093071e+00
 6.340199987248374e-01	 1.073859558117130e+00	 5.385856308436162e+00
 6.236966645721607e-01	 1.079888040467216e+00	 5.226166969605210e+00
 6.133291269485917e-01	 1.085809878099771e+00	 5.072580592834351e+00
 6.029190039345907e-01	 1.091624653457901e+00	 4.924065026189373e+00
 5.924679170650105e-01	 1.097331981029993e+00	 4.779465150696078e+00
 5.819774905532831e-01	 1.102931507316690e+00	 4.636973626802543e+00
 5.714493505200074e-01	 1.108422910775857e+00	 4.493034060875360e+00
 5.608851242266415e-01	 1.113805901745823e+00	 4.346050181919359e+00
 5.502864393149881e-01	 1.119080222347171e+00	 4.194613938223929e+00
 5.396549230531592e-01	 1.124245646363396e+00	 4.037262101767942e+00
 6.473366547843742e-01	 1.072761318778822e+00	 5.624738777666022e+00
 6.370106590961808e-01	 1.078924933391268e+00	 5.458543202472782e+00
 6.266386299710861e-01	 1.084981851978853e+00	 5.299121696444751e+00
 6.162221888681605e-01	 1.090931622807789e+00	 5.145559092173789e+00
 6.057629615003198e-01	 1.096773826351570e+00	 4.996811722389093e+00
 5.952625770511659e-01	 1.102508075280134e+00	 4.851709881221147e+00
 5.847226673955151e-01	 1.108134014426674e+00	 4.708792351207950e+00
 5.741448663243471e-01	 1.113651320732346e+00	 4.564492863045924e+00
 5.635308087748806e-01	 1.119059703169152e+00	 4.416758645975170e+00
 5.528821300664741e-01	 1.124358902641261e+00	 4.264161428355452e+00
 5.422004651430324e-01	 1.129548691865110e+00	 4.105216425550779e+00
 6.503757940087139e-01	 1.077797756895155e+00	 5.696391647990667e+00
 6.400013194675245e-01	 1.083990308665405e+00	 5.530505752535634e+00
 6.295805953700113e-01	 1.090075663490491e+00	 5.371062792928114e+00
 6.191152507877290e-01	 1.096053367515806e+00	 5.217178937350512e+00
 6.086069190660492e-01	 1.101922999245239e+00	 5.067839600917857e+00
 5.980572370373218e-01	 1.107684169530276e+00	 4.921901844316253e+00
 5.874678442377478e-01	 1.113336521536658e+00	 4.778089169591053e+00
 5.768403821286868e-01	 1.118879730688837e+00	 4.633289722037822e+00
 5.661764933231193e-01	 1.124313504592481e+00	 4.484814465911112e+00
 5.554778208179597e-01	 1.129637582935352e+00	 4.331258609970419e+00
 5.447460072329060e-01	 1.134851737366824e+00	 4.171159973087990e+00
 6.534149332330537e-01	 1.082834195011487e+00	 5.767255848357477e+00
 6.429919798388679e-01	 1.089055683939542e+00	 5.601444452543019e+00
 6.325225607689368e-01	 1.095169475002129e+00	 5.441663865276258e+00
 6.220083127072977e-01	 1.101175112223824e+00	 5.287100791787841e+00
 6.114508766317783e-01	 1.107072172138909e+00	 5.136809744938990e+00
 6.008518970234776e-01	 1.112860263780417e+00	 4.989715314949717e+00
 5.902130210799803e-01	 1.118539028646643e+00	 4.844614925279369e+00
 5.795358979330264e-01	 1.124108140645326e+00	 4.699160325720356e+00
 5.688221778713582e-01	 1.129567306015811e+00	 4.550002910384926e+00
 5.580735115694454e-01	 1.134916263229442e+00	 4.395750525295799e+00
 5.472915493227793e-01	 1.140154782868538e+00	 4.235007124464254e+00
 6.564540724573936e-01	 1.087870633127820e+00	 5.837074407228474e+00
 6.459826402102118e-01	 1.094121059213680e+00	 5.671061610719242e+00
 6.354645261678620e-01	 1.100263286513767e+00	 5.510600758160725e+00
 6.249013746268668e-01	 1.106296856931842e+00	 5.354987730547935e+00
 6.142948341975074e-01	 1.112221345032578e+00	 5.203385582649544e+00
 6.036465570096333e-01	 1.118036358030559e+00	 5.054826618002043e+00
 5.929581979222125e-01	 1.123741535756627e+00	 4.908214962082198e+00
 5.822314137373660e-01	 1.129336550601816e+00	 4.761840638168213e+00
 5.714678624195970e-01	 1.134821107439140e+00	 4.612108681736683e+00
 5.606692023209313e-01	 1.140194943523532e+00	 4.457480623530054e+00
 5.498370914126526e-01	 1.145457828370252e+00	 4.296669467408304e+00
 6.594932116817331e-01	 1.092907071244152e+00	 5.905591500211820e+00
 6.489733005815552e-01	 1.099186434487817e+00	 5.739061349121831e+00
 6.384064915667872e-01	 1.105357098025405e+00	 5.577551540867766e+00
 6.277944365464355e-01	 1.111418601639860e+00	 5.420505218972966e+00
 6.171387917632366e-01	 1.117370517926247e+00	 5.267232863990354e+00
 6.064412169957888e-01	 1.123212452280700e+00	 5.116914108381964e+00
 5.957033747644451e-01	 1.128944042866612e+00	 4.968600061453761e+00
 5.849269295417057e-01	 1.134564960558306e+00	 4.821066877002664e+00
 5.741135469678360e-01	 1.140074908862470e+00	 4.670915912120003e+00
 5.632648930724171e-01	 1.145473623817623e+00	 4.516290780064394e+00
 5.523826335025260e-01	 1.150760873871966e+00	 4.356055843640030e+00
 6.625323509060731e-01	 1.097943509360485e+00	 5.972552469785064e+00
 6.519639609528989e-01	 1.104251809761955e+00	 5.805149604405679e+00
 6.413484569657124e-01	 1.110450909537042e+00	 5.642196495024761e+00
 6.306874984660044e-01	 1.116540346347878e+00	 5.483321093053710e+00
 6.199827493289659e-01	 1.122519690819917e+00	 5.328019639091385e+00
 6.092358769819446e-01	 1.128388546530842e+00	 5.175658152746863e+00
 5.984485516066774e-01	 1.134146549976596e+00	 5.025474444250174e+00
 5.876224453460454e-01	 1.139793370514796e+00	 4.876575491655485e+00
 5.767592315160749e-01	 1.145328710285799e+00	 4.726208160017760e+00
 5.658605838239027e-01	 1.150752304111713e+00	 4.572021315437516e+00
 5.549281755923994e-01	 1.156063919373681e+00	 4.413072394189626e+00
 6.655714901304128e-01	 1.102979947476817e+00	 6.037703845738356e+00
 6.549546213242424e-01	 1.109317185036092e+00	 5.869034129787123e+00
 6.442904223646377e-01	 1.115544721048680e+00	 5.704218103840068e+00
 6.335805603855731e-01	 1.121662091055895e+00	 5.543105541470094e+00
 6.228267068946951e-01	 1.127668863713586e+00	 5.385416238403335e+00
 6.120305369681003e-01	 1.133564640780983e+00	 5.230741112773477e+00
 6.011937284489101e-01	 1.139349057086580e+00	 5.078543838755079e+00
 5.903179611503850e-01	 1.145021780471286e+00	 4.928163009570742e+00
 5.794049160643135e-01	 1.150582511709128e+00	 4.777768407131180e+00
 5.684562745753886e-01	 1.156030984405803e+00	 4.624511014031765e+00
 5.574737176822728e-01	 1.161366964875395e+00	 4.467622603720395e+00
 6.686106293547525e-01	 1.108016385593150e+00	 6.100793366317884e+00
 6.579452816955859e-01	 1.114382560310229e+00	 5.930424498170320e+00
 6.472323877635631e-01	 1.120638532560318e+00	 5.763301042809683e+00
 6.364736223051420e-01	 1.126783835763913e+00	 5.599531089251590e+00
 6.256706644604242e-01	 1.132818036607255e+00	 5.439095254457381e+00
 6.148251969542561e-01	 1.138740735031125e+00	 5.281847329930471e+00
 6.039389052911424e-01	 1.144551564196564e+00	 5.127515473144472e+00
 5.930134769547246e-01	 1.150250190427776e+00	 4.975703940620129e+00
 5.820506006125526e-01	 1.155836313132458e+00	 4.825379055629436e+00
 5.710519653268743e-01	 1.161309664699894e+00	 4.673597142521616e+00
 5.600192597721463e-01	 1.166670010377109e+00	 4.519607343888884e+00
 5.345638388734124e-01	 1.113639555359967e+00	 3.895649357789072e+00
 5.240017091208614e-01	 1.118648186845105e+00	 3.741147733972510e+00
 5.134102775187105e-01	 1.123548594423751e+00	 3.589348715311527e+00
 5.027911504653305e-01	 1.128340647192671e+00	 3.440520117026136e+00
 4.921459310782318e-01	 1.133024244937666e+00	 3.294916910776999e+00
 4.814762184886927e-01	 1.137599317916135e+00	 3.152782425515618e+00
 4.707836071464651e-01	 1.142065826621035e+00	 3.014349652173121e+00
 4.600696861350979e-01	 1.146423761526678e+00	 2.879842643019952e+00
 4.493360384983969e-01	 1.150673142816844e+00	 2.749477996094849e+00
 4.385842405785238e-01	 1.154814020095698e+00	 2.623466414741434e+00
 4.278158613662075e-01	 1.158846472082008e+00	 2.502014331974051e+00
 5.371093809632856e-01	 1.118942600861682e+00	 3.967379781889212e+00
 5.264969553547703e-01	 1.123975082972940e+00	 3.809977489598266e+00
 5.158550883640375e-01	 1.128898825825769e+00	 3.655050996554650e+00
 5.051853940389751e-01	 1.133713697893588e+00	 3.503024316552773e+00
 4.944894831309854e-01	 1.138419598484987e+00	 3.354310315263366e+00
 4.837689623862578e-01	 1.143016457525259e+00	 3.209311687940916e+00
 4.730254338471627e-01	 1.147504235319231e+00	 3.068422045521001e+00
 4.622604941643125e-01	 1.151882922295853e+00	 2.932027100101993e+00
 4.514757339198179e-01	 1.156152538735020e+00	 2.800505940346845e+00
 4.406727369622311e-01	 1.160313134477105e+00	 2.674232386949435e+00
 4.298530797536656e-01	 1.164364788615732e+00	 2.553576417982674e+00
 5.396549230531592e-01	 1.124245646363396e+00	 4.037262101767942e+00
 5.289922015886791e-01	 1.129301979100773e+00	 3.877539085265497e+00
 5.182998992093649e-01	 1.134249057227787e+00	 3.720359124120074e+00
 5.075796376126195e-01	 1.139086748594506e+00	 3.566266674289763e+00
 4.968330351837387e-01	 1.143814952032310e+00	 3.415796090550253e+00
 4.860617062838229e-01	 1.148433597134383e+00	 3.269472438107817e+00
 4.752672605478599e-01	 1.152942644017426e+00	 3.127812417222485e+00
 4.644513021935274e-01	 1.157342083065028e+00	 2.991325391908429e+00
 4.536154293412387e-01	 1.161631934653194e+00	 2.860514513288272e+00
 4.427612333459384e-01	 1.165812248858514e+00	 2.735877927764296e+00
 4.318902981411237e-01	 1.169883105149456e+00	 2.617910059826849e+00
 5.422004651430324e-01	 1.129548691865110e+00	 4.105216425550775e+00
 5.314874478225881e-01	 1.134628875228607e+00	 3.943823181689374e+00
 5.207447100546920e-01	 1.139599288629805e+00	 3.785322632655772e+00
 5.099738811862640e-01	 1.144459799295423e+00	 3.630344438182535e+00
 4.991765872364921e-01	 1.149210305579632e+00	 3.479508559500586e+00
 4.883544501813882e-01	 1.153850736743508e+00	 3.333425961463782e+00
 4.775090872485575e-01	 1.158381052715622e+00	 3.192699432389730e+00
 4.666421102227423e-01	 1.162801243834203e+00	 3.057924512641925e+00
 4.557551247626598e-01	 1.167111330571371e+00	 2.929690522490658e+00
 4.448497297296455e-01	 1.171311363239922e+00	 2.808581679343152e+00
 4.339275165285819e-01	 1.175401421683179e+00	 2.695178294075919e+00
 5.447460072329060e-01	 1.134851737366824e+00	 4.171159973087991e+00
 5.339826940564969e-01	 1.139955771356441e+00	 4.008816323387428e+00
 5.231895209000192e-01	 1.144949520031822e+00	 3.849985935206393e+00
 5.123681247599083e-01	 1.149832849996341e+00	 3.695348941880269e+00
 5.015201392892457e-01	 1.154605659126954e+00	 3.545575540789748e+00
 4.906471940789534e-01	 1.159267876352633e+00	 3.401326642191516e+00
 4.797509139492550e-01	 1.163819461413818e+00	 3.263254640529425e+00
 4.688329182519569e-01	 1.168260404603377e+00	 3.132004299148450e+00
 4.578948201840806e-01	 1.172590726489546e+00	 3.008213738797912e+00
 4.469382261133528e-01	 1.176810477621330e+00	 2.892477898219321e+00
 4.359647349160401e-01	 1.180919738216903e+00	 2.778993208009977e+00
 5.472915493227793e-01	 1.140154782868538e+00	 4.235007124464254e+00
 5.364779402904059e-01	 1.145282667484275e+00	 4.072501015320853e+00
 5.256343317453464e-01	 1.150299751433840e+00	 3.914388422877355e+00
 5.147623683335526e-01	 1.155205900697258e+00	 3.761365722531351e+00
 5.038636913419993e-01	 1.160001012674276e+00	 3.614118480185537e+00
 4.929399379765185e-01	 1.164685015961757e+00	 3.473322103543812e+00
 4.819927406499525e-01	 1.169257870112012e+00	 3.339642620744335e+00
 4.710237262811716e-01	 1.173719565372552e+00	 3.213737577033699e+00
 4.600345156055017e-01	 1.178070122407721e+00	 3.095439392056416e+00
 4.490267224970601e-01	 1.182309592002738e+00	 2.976773028136700e+00
 4.380019533034980e-01	 1.186438054750627e+00	 2.856377763295291e+00
 5.498370914126526e-01	 1.145457828370252e+00	 4.296669467408309e+00
 5.389731865243146e-01	 1.150609563612109e+00	 4.134855797643212e+00
 5.280791425906736e-01	 1.155649982835858e+00	 3.978564561947374e+00
 5.171566119071972e-01	 1.160578951398175e+00	 3.828474635516359e+00
 5.062072433947526e-01	 1.165396366221599e+00	 3.685252578367439e+00
 4.952326818740838e-01	 1.170102155570881e+00	 3.549553344455727e+00
 4.842345673506497e-01	 1.174696278810208e+00	 3.422021123065813e+00
 4.732145343103863e-01	 1.179178726141726e+00	 3.300992989083400e+00
 4.621742110269226e-01	 1.183549518325897e+00	 3.178021126690718e+00
 4.511152188807674e-01	 1.187808706384146e+00	 3.053100606520437e+00
 4.400391716909561e-01	 1.191956371284351e+00	 2.927256839315041e+00
 5.523826335025260e-01	 1.150760873871966e+00	 4.356055843640034e+00
 5.414684327582232e-01	 1.155936459739942e+00	 4.195855318615854e+00
 5.305239534360009e-01	 1.161000214237876e+00	 4.042543988517130e+00
 5.195508554808415e-01	 1.165952002099093e+00	 3.896749966208066e+00
 5.085507954475061e-01	 1.170791719768921e+00	 3.759086915403756e+00
 4.975254257716490e-01	 1.175519295180006e+00	 3.630154872556337e+00
 4.864763940513472e-01	 1.180134687508403e+00	 3.506424339006152e+00
 4.754053423396011e-01	 1.184637886910901e+00	 3.379996606021902e+00
 4.643139064483435e-01	 1.189028914244072e+00	 3.251470538974063e+00
 4.532037152644745e-01	 1.193307820765554e+00	 3.121782608462002e+00
 4.420763900784144e-01	 1.197474687818075e+00	 2.991930446159115e+00
 5.549281755923994e-01	 1.156063919373681e+00	 4.413072394189626e+00
 5.439636789921323e-01	 1.161263355867776e+00	 4.255470405745482e+00
 5.329687642813279e-01	 1.166350445639894e+00	 4.106351600766445e+00
 5.219450990544859e-01	 1.171325052800011e+00	 3.966260538861263e+00
 5.108943475002595e-01	 1.176187073316243e+00	 3.835724571992768e+00
 4.998181696692143e-01	 1.180936434789130e+00	 3.709276013914530e+00
 4.887182207520447e-01	 1.185573096206598e+00	 3.580032074637046e+00
 4.775961503688159e-01	 1.190097047680076e+00	 3.448710286518996e+00
 4.664536018697645e-01	 1.194508310162247e+00	 3.316120468633087e+00
 4.552922116481818e-01	 1.198806935146962e+00	 3.183137033355822e+00
 4.441136084658724e-01	 1.202993004351798e+00	 3.050694920485768e+00
 5.574737176822728e-01	 1.161366964875395e+00	 4.467622603720404e+00
 5.464589252260410e-01	 1.166590251995610e+00	 4.313668135205980e+00
 5.354135751266550e-01	 1.171700677041912e+00	 4.170007648904509e+00
 5.243393426281304e-01	 1.176698103500928e+00	 4.037054988066965e+00
 5.132378995530131e-01	 1.181582426863565e+00	 3.907615166847143e+00
 5.021109135667794e-01	 1.186353574398255e+00	 3.775808873161712e+00
 4.909600474527421e-01	 1.191011504904794e+00	 3.642211578609248e+00
 4.797869583980305e-01	 1.195556208449250e+00	 3.507470322872287e+00
 4.685932972911853e-01	 1.199987706080423e+00	 3.372299731174901e+00
 4.573807080318891e-01	 1.204306049528370e+00	 3.237478024861049e+00
 4.461508268533306e-01	 1.208511320885522e+00	 3.103843037212101e+00
 5.600192597721463e-01	 1.166670010377109e+00	 4.519607343888888e+00
 5.489541714599500e-01	 1.171917148123444e+00	 4.370411899597225e+00
 5.378583859719823e-01	 1.177050908443930e+00	 4.233433857680022e+00
 5.267335862017750e-01	 1.182071154201845e+00	 4.100287691189120e+00
 5.155814516057666e-01	 1.186977780410887e+00	 3.965619411297709e+00
 5.044036574643446e-01	 1.191770714007379e+00	 3.829805212169102e+00
 4.932018741534395e-01	 1.196449913602989e+00	 3.693295103036804e+00
 4.819777664272454e-01	 1.201015369218425e+00	 3.556609073368149e+00
 4.707329927126063e-01	 1.205467101998598e+00	 3.420333239832718e+00
 4.594692044155964e-01	 1.209805163909778e+00	 3.285115987631096e+00
 4.481880452407888e-01	 1.214029637419247e+00	 3.151664118199029e+00
 4.278158613662075e-01	 1.158846472082008e+00	 2.502014331974055e+00
 4.170324618635253e-01	 1.162770606287188e+00	 2.385780796696552e+00
 4.062355944596800e-01	 1.166586558677673e+00	 2.275368167189759e+00
 3.954268023201878e-01	 1.170294493322197e+00	 2.170895957071681e+00
 3.846076187898545e-01	 1.173894602024485e+00	 2.072485568802871e+00
 3.737795668099064e-01	 1.177387103941955e+00	 1.979963461061026e+00
 3.629441583496090e-01	 1.180772245190968e+00	 1.887705660090512e+00
 3.521028938526889e-01	 1.184050298439213e+00	 1.794045130723313e+00
 3.412572616988480e-01	 1.187221562485802e+00	 1.699682122957102e+00
 3.304087376806334e-01	 1.190286361829672e+00	 1.605348734195500e+00
 3.195587844959069e-01	 1.193245046226853e+00	 1.511806353153785e+00
 4.298530797536656e-01	 1.164364788615732e+00	 2.553576417982677e+00
 4.190183307295420e-01	 1.168307609174269e+00	 2.439308035131949e+00
 4.081700496713928e-01	 1.172141732766614e+00	 2.331997210031851e+00
 3.973097870931410e-01	 1.175867324242779e+00	 2.231711587600549e+00
 3.864390836412347e-01	 1.179484576319840e+00	 2.135332222112771e+00
 3.755594695090012e-01	 1.182993709198822e+00	 2.037389998624284e+00
 3.646724638655593e-01	 1.186394970168068e+00	 1.938365821648138e+00
 3.537795742996065e-01	 1.189688633193685e+00	 1.838903565907000e+00
 3.428822962783663e-01	 1.192874998497639e+00	 1.739681236579176e+00
 3.319821126219697e-01	 1.195954392124099e+00	 1.641408356934478e+00
 3.210804929935065e-01	 1.198927165494600e+00	 1.544823412072663e+00
 4.318902981411237e-01	 1.169883105149456e+00	 2.617910059826852e+00
 4.210041995955588e-01	 1.173844612061351e+00	 2.507440777036568e+00
 4.101045048831055e-01	 1.177696906855556e+00	 2.404464354392764e+00
 3.991927718660943e-01	 1.181440155163361e+00	 2.301985379781587e+00
 3.882705484926151e-01	 1.185074550615195e+00	 2.198178146280214e+00
 3.773393722080960e-01	 1.188600314455688e+00	 2.093583114376711e+00
 3.664007693815099e-01	 1.192017695145168e+00	 1.988780011734210e+00
 3.554562547465241e-01	 1.195326967948158e+00	 1.884385123814736e+00
 3.445073308578845e-01	 1.198528434509476e+00	 1.781048631904856e+00
 3.335554875633061e-01	 1.201622422418526e+00	 1.679452004073058e+00
 3.226022014911060e-01	 1.204609284762347e+00	 1.580305444098146e+00
 4.339275165285819e-01	 1.175401421683179e+00	 2.695178294075915e+00
 4.229900684615756e-01	 1.179381614948433e+00	 2.587473649773642e+00
 4.120389600948183e-01	 1.183252080944497e+00	 2.478760438986151e+00
 4.010757566390475e-01	 1.187012986083942e+00	 2.369080831704241e+00
 3.901020133439952e-01	 1.190664524910549e+00	 2.258900558929322e+00
 3.791192749071906e-01	 1.194206919712555e+00	 2.148727210175680e+00
 3.681290748974605e-01	 1.197640420122268e+00	 2.039107486423635e+00
 3.571329351934416e-01	 1.200965302702630e+00	 1.930624496127830e+00
 3.461323654374029e-01	 1.204181870521314e+00	 1.823895100343601e+00
 3.351288625046424e-01	 1.207290452712953e+00	 1.719567312483530e+00
 3.241239099887055e-01	 1.210291404030094e+00	 1.618317757743706e+00
 4.359647349160401e-01	 1.180919738216903e+00	 2.778993208009969e+00
 4.249759373275923e-01	 1.184918617835515e+00	 2.664153052815261e+00
 4.139734153065310e-01	 1.188807255033438e+00	 2.548729381306650e+00
 4.029587414120009e-01	 1.192585817004524e+00	 2.433104922935080e+00
 3.919334781953756e-01	 1.196254499205904e+00	 2.317706954880371e+00
 3.808991776062854e-01	 1.199813524969421e+00	 2.203004526548932e+00
 3.698573804134110e-01	 1.203263145099367e+00	 2.089505722110186e+00
 3.588096156403591e-01	 1.206603637457103e+00	 1.977754967650512e+00
 3.477574000169213e-01	 1.209835306533151e+00	 1.868330388977554e+00
 3.367022374459788e-01	 1.212958483007380e+00	 1.761841225614302e+00
 3.256456184863051e-01	 1.215973523297841e+00	 1.658925305973795e+00
 4.380019533034980e-01	 1.186438054750627e+00	 2.856377763295291e+00
 4.269618061936092e-01	 1.190455620722597e+00	 2.735436562926980e+00
 4.159078705182437e-01	 1.194362429122380e+00	 2.614627078923323e+00
 4.048417261849541e-01	 1.198158647925106e+00	 2.494287956565975e+00
 3.937649430467558e-01	 1.201844473501258e+00	 2.374802360769025e+00
 3.826790803053802e-01	 1.205420130226287e+00	 2.256595214617932e+00
 3.715856859293615e-01	 1.208885870076468e+00	 2.140130477339828e+00
 3.604862960872768e-01	 1.212241972211575e+00	 2.025908468283664e+00
 3.493824345964395e-01	 1.215488742544988e+00	 1.914463242952675e+00
 3.382756123873151e-01	 1.218626513301807e+00	 1.806360026602269e+00
 3.271673269839047e-01	 1.221655642565588e+00	 1.702192710376995e+00
 4.400391716909561e-01	 1.191956371284351e+00	 2.927256839315049e+00
 4.289476750596259e-01	 1.195992623609679e+00	 2.801602383327008e+00
 4.178423257299566e-01	 1.199917603211321e+00	 2.676706288014483e+00
 4.067247109579074e-01	 1.203731478845688e+00	 2.552857473032171e+00
 3.955964078981360e-01	 1.207434447796613e+00	 2.430389415008488e+00
 3.844589830044750e-01	 1.211026735483154e+00	 2.309677406053812e+00
 3.733139914453120e-01	 1.214508595053567e+00	 2.191135852946744e+00
 3.621629765341945e-01	 1.217880306966048e+00	 2.075215623583146e+00
 3.510074691759579e-01	 1.221142178556825e+00	 1.962401446716584e+00
 3.398489873286515e-01	 1.224294543596234e+00	 1.853209370486722e+00
 3.286890354815042e-01	 1.227337761833334e+00	 1.748184284682712e+00
 4.420763900784144e-01	 1.197474687818075e+00	 2.991930446159122e+00
 4.309335439256428e-01	 1.201529626496760e+00	 2.862925302015284e+00
 4.197767809416693e-01	 1.205472777300263e+00	 2.735216721075489e+00
 4.086076957308605e-01	 1.209304309766269e+00	 2.609038337794080e+00
 3.974278727495162e-01	 1.213024422091967e+00	 2.484668445576176e+00
 3.862388857035700e-01	 1.216633340740021e+00	 2.362427281121311e+00
 3.750422969612626e-01	 1.220131320030667e+00	 2.242674350557564e+00
 3.638396569811118e-01	 1.223518641720519e+00	 2.125805803940616e+00
 3.526325037554762e-01	 1.226795614568662e+00	 2.012251864134871e+00
 3.414223622699877e-01	 1.229962573890660e+00	 1.902474315549557e+00
 3.302107439791038e-01	 1.233019881101081e+00	 1.796964057644296e+00
 4.441136084658724e-01	 1.202993004351798e+00	 3.050694920485772e+00
 4.329194127916594e-01	 1.207066629383842e+00	 2.919676796666220e+00
 4.217112361533819e-01	 1.211027951389203e+00	 2.790405141969010e+00
 4.104906805038138e-01	 1.214877140686852e+00	 2.663052826637175e+00
 3.992593376008964e-01	 1.218614396387322e+00	 2.537837545683687e+00
 3.880187884026646e-01	 1.222239945996887e+00	 2.415019134879569e+00
 3.767706024772131e-01	 1.225754045007767e+00	 2.294896929505764e+00
 3.655163374280295e-01	 1.229156976474992e+00	 2.177807172431984e+00
 3.542575383349945e-01	 1.232449050580499e+00	 2.064120477524134e+00
 3.429957372113241e-01	 1.235630604185088e+00	 1.954239353813647e+00
 3.317324524767034e-01	 1.238702000368828e+00	 1.848595795310748e+00
 4.461508268533306e-01	 1.208511320885522e+00	 3.103843037212101e+00
 4.349052816576763e-01	 1.212603632270924e+00	 2.972125136689590e+00
 4.236456913650948e-01	 1.216583125478145e+00	 2.842515458407410e+00
 4.123736652767672e-01	 1.220449971607433e+00	 2.715120708666942e+00
 4.010908024522767e-01	 1.224204370682677e+00	 2.590092647408799e+00
 3.897986911017595e-01	 1.227846551253753e+00	 2.467625441598428e+00
 3.784989079931635e-01	 1.231376769984867e+00	 2.347953062212969e+00
 3.671930178749468e-01	 1.234795311229464e+00	 2.231346731380126e+00
 3.558825729145127e-01	 1.238102486592337e+00	 2.118112425637737e+00
 3.445691121526605e-01	 1.241298634479515e+00	 2.008588440720453e+00
 3.332541609743028e-01	 1.244384119636575e+00	 1.903143022705359e+00
 4.481880452407888e-01	 1.214029637419247e+00	 3.151664118199032e+00
 4.368911505236931e-01	 1.218140635158006e+00	 3.020535482538873e+00
 4.255801465768077e-01	 1.222138299567087e+00	 2.891788811947294e+00
 4.142566500497204e-01	 1.226022802528015e+00	 2.765459327072732e+00
 4.029222673036571e-01	 1.229794344978032e+00	 2.641627593342845e+00
 3.915785938008542e-01	 1.233453156510620e+00	 2.520416917439418e+00
 3.802272135091141e-01	 1.236999494961967e+00	 2.401990788085956e+00
 3.688696983218645e-01	 1.240433645983937e+00	 2.286550367668740e+00
 3.575076074940312e-01	 1.243755922604174e+00	 2.174332040633715e+00
 3.461424870939968e-01	 1.246966664773942e+00	 2.065605024021604e+00
 3.347758694719024e-01	 1.250066238904322e+00	 1.960669044926316e+00
 3.195587844959069e-01	 1.193245046226853e+00	 1.511806353153785e+00
 3.087088512561317e-01	 1.196097990237232e+00	 1.420103152004044e+00
 2.978603730106666e-01	 1.198845592761375e+00	 1.330781702553652e+00
 2.870147702872440e-01	 1.201488276568018e+00	 1.243883797846451e+00
 2.761734486487762e-01	 1.204026487812817e+00	 1.159474614887792e+00
 2.653377982666137e-01	 1.206460695548948e+00	 1.077641417129106e+00
 2.545091935103603e-01	 1.208791391230154e+00	 9.984923072156056e-01
 2.436889925543232e-01	 1.211019088206823e+00	 9.221550310541291e-01
 2.328785370006560e-01	 1.213144321215683e+00	 8.487758339163616e-01
 2.220791515192313e-01	 1.215167645863699e+00	 7.785183689787447e-01
 2.112921435042592e-01	 1.217089638106742e+00	 7.115626583974577e-01
 3.210804929935065e-01	 1.198927165494600e+00	 1.544823412072663e+00
 3.101788934049705e-01	 1.201793694952648e+00	 1.450895891769079e+00
 2.992787557392889e-01	 1.204554381298333e+00	 1.360044727272617e+00
 2.883815072886119e-01	 1.207209649313580e+00	 1.272220702555410e+00
 2.774885603090085e-01	 1.209759947278592e+00	 1.187397508788994e+00
 2.666013115916928e-01	 1.212205746480134e+00	 1.105570554299996e+00
 2.557211420508858e-01	 1.214547540712203e+00	 1.026755824727475e+00
 2.448494163283914e-01	 1.216785845769713e+00	 9.509887942592083e-01
 2.339874824149448e-01	 1.218921198935758e+00	 8.783233885028152e-01
 2.231366712883705e-01	 1.220954158463050e+00	 8.088309992120237e-01
 2.122982965685653e-01	 1.222885303050108e+00	 7.425995507984242e-01
 3.226022014911060e-01	 1.204609284762347e+00	 1.580305444098146e+00
 3.116489355538092e-01	 1.207489399668063e+00	 1.484491693568524e+00
 3.006971384679111e-01	 1.210263169835293e+00	 1.392313443098889e+00
 2.897482442899798e-01	 1.212931022059142e+00	 1.303648430551774e+00
 2.788036719692408e-01	 1.215493406744368e+00	 1.218396886594374e+00
 2.678648249167719e-01	 1.217950797411319e+00	 1.136480428052776e+00
 2.569330905914113e-01	 1.220303690194251e+00	 1.057841001881474e+00
 2.460098401024596e-01	 1.222552603332602e+00	 9.824398804883461e-01
 2.350964278292337e-01	 1.224698076655832e+00	 9.102567088088804e-01
 2.241941910575097e-01	 1.226740671062401e+00	 8.412886032103326e-01
 2.133044496328713e-01	 1.228680967993473e+00	 7.755493019988864e-01
 3.241239099887055e-01	 1.210291404030094e+00	 1.618317757743706e+00
 3.131189777026480e-01	 1.213185104383478e+00	 1.520935989526582e+00
 3.021155211965333e-01	 1.215971958372252e+00	 1.427617261357440e+00
 2.911149812913476e-01	 1.218652394804704e+00	 1.338183973871180e+00
 2.801187836294731e-01	 1.221226866210144e+00	 1.252480668147758e+00
 2.691283382418510e-01	 1.223695848342505e+00	 1.170372978579808e+00
 2.581450391319369e-01	 1.226059839676300e+00	 1.091746637249272e+00
 2.471702638765278e-01	 1.228319360895492e+00	 1.016506530431033e+00
 2.362053732435225e-01	 1.230474954375907e+00	 9.445758074911510e-01
 2.252517108266489e-01	 1.232527183661752e+00	 8.758950421347651e-01
 2.143106026971772e-01	 1.234476632936839e+00	 8.104214456413301e-01
 3.256456184863051e-01	 1.215973523297841e+00	 1.658925305973795e+00
 3.145890198514867e-01	 1.218880809098894e+00	 1.560274150792127e+00
 3.035339039251556e-01	 1.221680746909211e+00	 1.465985757537637e+00
 2.924817182927156e-01	 1.224373767550266e+00	 1.375844649262091e+00
 2.814338952897053e-01	 1.226960325675919e+00	 1.289657198806879e+00
 2.703918515669302e-01	 1.229440899273690e+00	 1.207250617480215e+00
 2.593569876724623e-01	 1.231815989158348e+00	 1.128471996613598e+00
 2.483306876505960e-01	 1.234086118458381e+00	 1.053187402517582e+00
 2.373143186578112e-01	 1.236251832095982e+00	 9.812810250002213e-01
 2.263092305957881e-01	 1.238313696261103e+00	 9.126543792965527e-01
 2.153167557614833e-01	 1.240272297880204e+00	 8.472255609290358e-01
 3.271673269839047e-01	 1.221655642565588e+00	 1.702192710376995e+00
 3.160590620003254e-01	 1.224576513814309e+00	 1.602551503811393e+00
 3.049522866537777e-01	 1.227389535446169e+00	 1.507448681316020e+00
 2.938484552940833e-01	 1.230095140295828e+00	 1.416648103498830e+00
 2.827490069499377e-01	 1.232693785141693e+00	 1.329935251472157e+00
 2.716553648920092e-01	 1.235185950204876e+00	 1.247116227813001e+00
 2.605689362129879e-01	 1.237572138640396e+00	 1.168016812250566e+00
 2.494911114246643e-01	 1.239852876021271e+00	 1.092481572522961e+00
 2.384232640721001e-01	 1.242028709816056e+00	 1.020373030486307e+00
 2.273667503649272e-01	 1.244100208860454e+00	 9.515708832275727e-01
 2.163229088257892e-01	 1.246067962823570e+00	 8.859712786226552e-01
 3.286890354815042e-01	 1.227337761833334e+00	 1.748184284682712e+00
 3.175291041491641e-01	 1.230272218529725e+00	 1.647813346162169e+00
 3.063706693823999e-01	 1.233098323983129e+00	 1.552035966311100e+00
 2.952151922954511e-01	 1.235816513041390e+00	 1.460612318554817e+00
 2.840641186101699e-01	 1.238427244607469e+00	 1.373324028564842e+00
 2.729188782170883e-01	 1.240931001136061e+00	 1.289973164157798e+00
 2.617808847535134e-01	 1.243328288122445e+00	 1.210381282242067e+00
 2.506515351987324e-01	 1.245619633584161e+00	 1.134388533192433e+00
 2.395322094863890e-01	 1.247805587536131e+00	 1.061852822685520e+00
 2.284242701340665e-01	 1.249886721459805e+00	 9.926490306766049e-01
 2.173290618900952e-01	 1.251863627766935e+00	 9.266682868787313e-01
 3.302107439791038e-01	 1.233019881101081e+00	 1.796964057644296e+00
 3.189991462980028e-01	 1.235967923245139e+00	 1.696104961966506e+00
 3.077890521110221e-01	 1.238807112520087e+00	 1.599777739587783e+00
 2.965819292968189e-01	 1.241537885786952e+00	 1.507755616648311e+00
 2.853792302704021e-01	 1.244160704073244e+00	 1.419833163962728e+00
 2.741823915421674e-01	 1.246676052067246e+00	 1.335825252686991e+00
 2.629928332940389e-01	 1.249084437604493e+00	 1.255566069818375e+00
 2.518119589728007e-01	 1.251386391147050e+00	 1.178908193880173e+00
 2.406411549006779e-01	 1.253582465256206e+00	 1.105721730787665e+00
 2.294817899032056e-01	 1.255673234059156e+00	 1.035893509522061e+00
 2.183352149544012e-01	 1.257659292710300e+00	 9.693263369247029e-01
 3.317324524767034e-01	 1.238702000368828e+00	 1.848595795310748e+00
 3.204691884468414e-01	 1.241663627960555e+00	 1.747471636893532e+00
 3.092074348396444e-01	 1.244515901057046e+00	 1.650704330907644e+00
 2.979486662981867e-01	 1.247259258532514e+00	 1.558096665158188e+00
 2.866943419306343e-01	 1.249894163539020e+00	 1.469472724892901e+00
 2.754459048672466e-01	 1.252421102998432e+00	 1.384676791239481e+00
 2.642047818345644e-01	 1.254840587086541e+00	 1.303572302721006e+00
 2.529723827468688e-01	 1.257153148709940e+00	 1.226040880210150e+00
 2.417501003149666e-01	 1.259359342976279e+00	 1.151981415286805e+00
 2.305393096723448e-01	 1.261459746658506e+00	 1.081309221613298e+00
 2.193413680187072e-01	 1.263454957653666e+00	 1.013955248590446e+00
 3.332541609743028e-01	 1.244384119636575e+00	 1.903143022705359e+00
 3.219392305956803e-01	 1.247359332675970e+00	 1.801958672767337e+00
 3.106258175682666e-01	 1.250224689594005e+00	 1.704846281745141e+00
 2.993154032995546e-01	 1.252980631278076e+00	 1.611654481420802e+00
 2.880094535908667e-01	 1.255627623004794e+00	 1.522253213785690e+00
 2.767094181923256e-01	 1.258166153929617e+00	 1.436532549407984e+00
 2.654167303750899e-01	 1.260596736568590e+00	 1.354401572599223e+00
 2.541328065209370e-01	 1.262919906272829e+00	 1.275787333750376e+00
 2.428590457292555e-01	 1.265136220696355e+00	 1.200633868815737e+00
 2.315968294414840e-01	 1.267246259257857e+00	 1.128901285540636e+00
 2.203475210830132e-01	 1.269250622597031e+00	 1.060564915684060e+00
 3.347758694719024e-01	 1.250066238904322e+00	 1.960669044926316e+00
 3.234092727445190e-01	 1.253055037391386e+00	 1.859611401790526e+00
 3.120442002968888e-01	 1.255933478130964e+00	 1.762234354064504e+00
 3.006821403009224e-01	 1.258702004023638e+00	 1.668448437404144e+00
 2.893245652510990e-01	 1.261361082470570e+00	 1.578185570084471e+00
 2.779729315174048e-01	 1.263911204860803e+00	 1.491397768629773e+00
 2.666286789156156e-01	 1.266352886050638e+00	 1.408055934422411e+00
 2.552932302950053e-01	 1.268686663835719e+00	 1.328148711702917e+00
 2.439679911435443e-01	 1.270913098416430e+00	 1.251681416961146e+00
 2.326543492106233e-01	 1.273032771857209e+00	 1.178675039330936e+00
 2.213536741473192e-01	 1.275046287540397e+00	 1.109165311233557e+00
 2.112921435042592e-01	 1.217089638106742e+00	 7.115626583974577e-01
 2.005188027476475e-01	 1.218910893723604e+00	 6.478752527409413e-01
 1.897604011290731e-01	 1.220632027785917e+00	 5.872910435939449e-01
 1.790181923227292e-01	 1.222253674124536e+00	 5.298152085027916e-01
 1.682934115206777e-01	 1.223776484792937e+00	 4.754671110405306e-01
 1.575872751727277e-01	 1.225201129528153e+00	 4.242797932701166e-01
 1.469009807427406e-01	 1.226528295209795e+00	 3.762995073498008e-01
 1.362357064812453e-01	 1.227758685317673e+00	 3.315852846102192e-01
 1.255926112142290e-01	 1.228893019388513e+00	 2.902085403021617e-01
 1.149728341479560e-01	 1.229932032472288e+00	 2.522527121001430e-01
 1.043774946896492e-01	 1.230876474588632e+00	 2.178129303628991e-01
 2.122982965685653e-01	 1.222885303050108e+00	 7.425995507984242e-01
 2.014736541893030e-01	 1.224715231312765e+00	 6.795122552529713e-01
 1.906640220868306e-01	 1.226444561251564e+00	 6.193967358101200e-01
 1.798706599052184e-01	 1.228073929715606e+00	 5.622802965521891e-01
 1.690948087183952e-01	 1.229603991863380e+00	 5.082043145168811e-01
 1.583376907687883e-01	 1.231035420621144e+00	 4.572237037382267e-01
 1.476005092224680e-01	 1.232368906139366e+00	 4.094064206323889e-01
 1.368844479406799e-01	 1.233605155247758e+00	 3.648330089814473e-01
 1.261906712676301e-01	 1.234744890909411e+00	 3.235961826518969e-01
 1.155203238343749e-01	 1.235788851674537e+00	 2.858004440588406e-01
 1.048745303786476e-01	 1.236737791134291e+00	 2.515617362972671e-01
 2.133044496328713e-01	 1.228680967993473e+00	 7.755493019988864e-01
 2.024285056309584e-01	 1.230519568901925e+00	 7.128585599719508e-01
 1.915676430445881e-01	 1.232257094717212e+00	 6.530414872693515e-01
 1.807231274877076e-01	 1.233894185306675e+00	 5.961426565647026e-01
 1.698962059161127e-01	 1.235431498933822e+00	 5.422205894852634e-01
 1.590881063648489e-01	 1.236869711714135e+00	 4.913471985293962e-01
 1.483000377021953e-01	 1.238209517068936e+00	 4.436072724065721e-01
 1.375331894001144e-01	 1.239451625177842e+00	 3.990980029855289e-01
 1.267887313210312e-01	 1.240596762430309e+00	 3.579285519113795e-01
 1.160678135207937e-01	 1.241645670876786e+00	 3.202196548209986e-01
 1.053715660676458e-01	 1.242599107679952e+00	 2.861032609958782e-01
 2.143106026971772e-01	 1.234476632936839e+00	 8.104214456413301e-01
 2.033833570726139e-01	 1.236323906491084e+00	 7.479297836625882e-01
 1.924712640023456e-01	 1.238069628182858e+00	 6.882462118515842e-01
 1.815755950701968e-01	 1.239714440897744e+00	 6.314277863199649e-01
 1.706976031138302e-01	 1.241259006004265e+00	 5.775453767200915e-01
 1.598385219609094e-01	 1.242704002807126e+00	 5.266830922928589e-01
 1.489995661819226e-01	 1.244050127998507e+00	 4.789377533000567e-01
 1.381819308595488e-01	 1.245298095107926e+00	 4.344184059595857e-01
 1.273867913744323e-01	 1.246448633951207e+00	 3.932458788500948e-01
 1.166153032072125e-01	 1.247502490079035e+00	 3.555523786362373e-01
 1.058686017566442e-01	 1.248460424225612e+00	 3.214811228647170e-01
 2.153167557614833e-01	 1.240272297880204e+00	 8.472255609290358e-01
 2.043382085142694e-01	 1.242128244080245e+00	 7.847414275616589e-01
 1.933748849601030e-01	 1.243882161648506e+00	 7.250315647049606e-01
 1.824280626526859e-01	 1.245534696488813e+00	 6.681607981965814e-01
 1.714990003115476e-01	 1.247086513074707e+00	 6.142076201108608e-01
 1.605889375569701e-01	 1.248538293900118e+00	 5.632636051475910e-01
 1.496990946616500e-01	 1.249890738928077e+00	 5.154328742616778e-01
 1.388306723189834e-01	 1.251144565038010e+00	 4.708316035686269e-01
 1.279848514278334e-01	 1.252300505472104e+00	 4.295875763941015e-01
 1.171627928936314e-01	 1.253359309281284e+00	 3.918397762369630e-01
 1.063656374456425e-01	 1.254321740771272e+00	 3.577380182915006e-01
 2.163229088257892e-01	 1.246067962823570e+00	 8.859712786226552e-01
 2.052930599559248e-01	 1.247932581669404e+00	 8.233088864426406e-01
 1.942785059178605e-01	 1.249694695114153e+00	 7.634179539982620e-01
 1.832805302351751e-01	 1.251354952079882e+00	 7.063664332657409e-01
 1.723003975092652e-01	 1.252914020145150e+00	 6.522357827801086e-01
 1.613393531530307e-01	 1.254372584993108e+00	 6.011203805393690e-01
 1.503986231413773e-01	 1.255731349857648e+00	 5.531269859026118e-01
 1.394794137784178e-01	 1.256991034968094e+00	 5.083742484073599e-01
 1.285829114812344e-01	 1.258152376993002e+00	 4.669922612965545e-01
 1.177102825800502e-01	 1.259216128483533e+00	 4.291221574080191e-01
 1.068626731346408e-01	 1.260183057316932e+00	 3.949157449871008e-01
 2.173290618900952e-01	 1.251863627766935e+00	 9.266682868787313e-01
 2.062479113975803e-01	 1.253736919258565e+00	 8.636474574316901e-01
 1.951821268756180e-01	 1.255507228579800e+00	 8.034255523505267e-01
 1.841329978176643e-01	 1.257175207670952e+00	 7.460690749955270e-01
 1.731017947069827e-01	 1.258741527215592e+00	 6.916578627544441e-01
 1.620897687490913e-01	 1.260206876086100e+00	 6.402845026036665e-01
 1.510981516211047e-01	 1.261571960787218e+00	 5.920537972990603e-01
 1.401281552378524e-01	 1.262837504898178e+00	 5.470822800277302e-01
 1.291809715346356e-01	 1.264004248513900e+00	 5.054977752007117e-01
 1.182577722664690e-01	 1.265072947685782e+00	 4.674390029334783e-01
 1.073597088236391e-01	 1.266044373862593e+00	 4.330552246755908e-01
 2.183352149544012e-01	 1.257659292710300e+00	 9.693263369247029e-01
 2.072027628392357e-01	 1.259541256847724e+00	 9.057723485853546e-01
 1.960857478333754e-01	 1.261319762045447e+00	 8.450743079483378e-01
 1.849854654001535e-01	 1.262995463262021e+00	 7.872927625796482e-01
 1.739031919047002e-01	 1.264569034286035e+00	 7.325014082082508e-01
 1.628401843451519e-01	 1.266041167179091e+00	 6.807865130485755e-01
 1.517976801008319e-01	 1.267412571716788e+00	 6.322463942810597e-01
 1.407768966972869e-01	 1.268683974828263e+00	 5.869909444189489e-01
 1.297790315880366e-01	 1.269856120034797e+00	 5.451412051264526e-01
 1.188052619528878e-01	 1.270929766888031e+00	 5.068289859302118e-01
 1.078567445126375e-01	 1.271905690408253e+00	 4.721965251610598e-01
 2.193413680187072e-01	 1.263454957653666e+00	 1.013955248590446e+00
 2.081576142808911e-01	 1.265345594436885e+00	 9.496986872346120e-01
 1.969893687911330e-01	 1.267132295511095e+00	 8.883839553597062e-01
 1.858379329826426e-01	 1.268815718853090e+00	 8.300612039012916e-01
 1.747045891024177e-01	 1.270396541356478e+00	 7.747935322850583e-01
 1.635905999412125e-01	 1.271875458272082e+00	 7.226564275760712e-01
 1.524972085805593e-01	 1.273253182646359e+00	 6.737372572139042e-01
 1.414256381567213e-01	 1.274530444758347e+00	 6.281348129437976e-01
 1.303770916414377e-01	 1.275707991555695e+00	 5.859589033898402e-01
 1.193527516393067e-01	 1.276786586090280e+00	 5.473299926025970e-01
 1.083537802016358e-01	 1.277767006953913e+00	 5.123788817859418e-01
 2.203475210830132e-01	 1.269250622597031e+00	 1.060564915684060e+00
 2.091124657225466e-01	 1.271149932026045e+00	 9.954415281036997e-01
 1.978929897488904e-01	 1.272944828976742e+00	 9.333740260535164e-01
 1.866904005651318e-01	 1.274635974444159e+00	 8.743977881440865e-01
 1.755059863001353e-01	 1.276224048426920e+00	 8.185609275170913e-01
 1.643410155372731e-01	 1.277709749365073e+00	 7.659237518551083e-01
 1.531967370602866e-01	 1.279093793575929e+00	 7.165582783002828e-01
 1.420743796161559e-01	 1.280376914688431e+00	 6.705478007674761e-01
 1.309751516948388e-01	 1.281559863076593e+00	 6.279865069798836e-01
 1.199002413257255e-01	 1.282643405292528e+00	 5.889791424214215e-01
 1.088508158906341e-01	 1.283628323499573e+00	 5.536407183000833e-01
 2.213536741473192e-01	 1.275046287540397e+00	 1.109165311233557e+00
 2.100673171642021e-01	 1.276954269615205e+00	 1.043015861213608e+00
 1.987966107066479e-01	 1.278757362442389e+00	 9.800638586390669e-01
 1.875428681476211e-01	 1.280456230035229e+00	 9.203255980643097e-01
 1.763073834978528e-01	 1.282051555497363e+00	 8.638298798558277e-01
 1.650914311333337e-01	 1.283544040458065e+00	 8.106174970593809e-01
 1.538962655400140e-01	 1.284934404505500e+00	 7.607407784020355e-01
 1.427231210755903e-01	 1.286223384618515e+00	 7.142631847768710e-01
 1.315732117482399e-01	 1.287411734597490e+00	 6.712589564072766e-01
 1.204477310121443e-01	 1.288500224494777e+00	 6.318128077607159e-01
 1.093478515796325e-01	 1.289489640045233e+00	 5.960196671638704e-01
 1.043774946896492e-01	 1.230876474588632e+00	 2.178129303628991e-01
 9.380769228385752e-02	 1.231727110183828e+00	 1.870239723278984e-01
 8.326450626431044e-02	 1.232484717588817e+00	 1.598503433644900e-01
 7.274899572106158e-02	 1.233150088478691e+00	 1.361506139150028e-01
 6.226219938269688e-02	 1.233724027334094e+00	 1.157970691039456e-01
 5.180513551337841e-02	 1.234207350904971e+00	 9.867575857064237e-02
 4.137880182448232e-02	 1.234600887677065e+00	 8.468655458172414e-02
 3.098417540057794e-02	 1.234905477341554e+00	 7.374321616405632e-02
 2.062221263948595e-02	 1.235121970268232e+00	 6.577345705600735e-02
 1.029384920614409e-02	 1.235251226982571e+00	 6.071901532099266e-02
 0.000000000000000e+00	 1.235294117647059e+00	 5.853572254791506e-02
 1.048745303786476e-01	 1.236737791134291e+00	 2.515617362972671e-01
 9.425439558044731e-02	 1.237592477375179e+00	 2.210212124640403e-01
 8.366100391318812e-02	 1.238353692434478e+00	 1.941213695486308e-01
 7.309541951020951e-02	 1.239022231757161e+00	 1.706989853429426e-01
 6.255868604642399e-02	 1.239598903654732e+00	 1.506048033285969e-01
 5.205182663487067e-02	 1.240084528766423e+00	 1.337036128306877e-01
 4.157584373793224e-02	 1.240479939523146e+00	 1.198743371008495e-01
 3.113171909296165e-02	 1.240785979614609e+00	 1.090101269819383e-01
 2.072041365205493e-02	 1.241003503459985e+00	 1.010184578608668e-01
 1.034286753569716e-02	 1.241133375682488e+00	 9.582122767318535e-02
 0.000000000000000e+00	 1.241176470588236e+00	 9.335485380315989e-02
 1.053715660676458e-01	 1.242599107679952e+00	 2.861032609958782e-01
 9.470109887703713e-02	 1.243457844566531e+00	 2.557234165888107e-01
 8.405750156206575e-02	 1.244222667280139e+00	 2.290042835982877e-01
 7.344184329935741e-02	 1.244894375035630e+00	 2.057667314757126e-01
 6.285517271015112e-02	 1.245473779975371e+00	 1.858457552249635e-01
 5.229851775636295e-02	 1.245961706627876e+00	 1.690905812837566e-01
 4.177288565138215e-02	 1.246358991369228e+00	 1.553647812254548e-01
 3.127926278534535e-02	 1.246666481887665e+00	 1.445463908488873e-01
 2.081861466462390e-02	 1.246885036651738e+00	 1.365280322711373e-01
 1.039188586525022e-02	 1.247015524382405e+00	 1.312170367012058e-01
 0.000000000000000e+00	 1.247058823529412e+00	 1.285355656576335e-01
 1.058686017566442e-01	 1.248460424225612e+00	 3.214811228647170e-01
 9.514780217362689e-02	 1.249323211757882e+00	 2.911757488645703e-01
 8.445399921094343e-02	 1.250091642125800e+00	 2.645458362379620e-01
 7.378826708850530e-02	 1.250766518314101e+00	 2.414021464589369e-01
 6.315165937387825e-02	 1.251348656296010e+00	 2.215696360535788e-01
 5.254520887785523e-02	 1.251838884489328e+00	 2.048875836487352e-01
 4.196992756483207e-02	 1.252238043215309e+00	 1.912097249948215e-01
 3.142680647772905e-02	 1.252546984160719e+00	 1.804043934180153e-01
 2.091681567719289e-02	 1.252766569843492e+00	 1.723546632319288e-01
 1.044090419480329e-02	 1.252897673082322e+00	 1.669584937014634e-01
 0.000000000000000e+00	 1.252941176470588e+00	 1.641288712310276e-01
 1.063656374456425e-01	 1.254321740771272e+00	 3.577380182915006e-01
 9.559450547021674e-02	 1.255188578949234e+00	 3.274224066838820e-01
 8.485049685982111e-02	 1.255960616971462e+00	 3.007917688856667e-01
 7.413469087765322e-02	 1.256638661592571e+00	 2.776524763328219e-01
 6.344814603760537e-02	 1.257223532616648e+00	 2.578250753945535e-01
 5.279189999934750e-02	 1.257716062350780e+00	 2.411444310932225e-01
 4.216696947828198e-02	 1.258117095061389e+00	 2.274598791845535e-01
 3.157435017011277e-02	 1.258427486433775e+00	 2.166353839554656e-01
 2.101501668976186e-02	 1.258648103035245e+00	 2.085496991803737e-01
 1.048992252435636e-02	 1.258779821782239e+00	 2.030965297319542e-01
 0.000000000000000e+00	 1.258823529411765e+00	 2.001846914367733e-01
 1.068626731346408e-01	 1.260183057316932e+00	 3.949157449871008e-01
 9.604120876680648e-02	 1.261053946140585e+00	 3.645066447232719e-01
 8.524699450869876e-02	 1.261829591817122e+00	 3.377868384075440e-01
 7.448111466680116e-02	 1.262510804871040e+00	 3.145639444236894e-01
 6.374463270133249e-02	 1.263098408937286e+00	 2.946596470907255e-01
 5.303859112083978e-02	 1.263593240212232e+00	 2.779098526008610e-01
 4.236401139173188e-02	 1.263996146907471e+00	 2.641648539343604e-01
 3.172189386249646e-02	 1.264307988706829e+00	 2.532895020373729e-01
 2.111321770233084e-02	 1.264529636226999e+00	 2.451633805824998e-01
 1.053894085390942e-02	 1.264661970482156e+00	 2.396809817306476e-01
 0.000000000000000e+00	 1.264705882352941e+00	 2.367518803806312e-01
 1.073597088236391e-01	 1.266044373862593e+00	 4.330552246755908e-01
 9.648791206339628e-02	 1.266919313331936e+00	 4.024707983337334e-01
 8.564349215757641e-02	 1.267698566662783e+00	 3.755748411818038e-01
 7.482753845594904e-02	 1.268382948149511e+00	 3.521817760319901e-01
 6.404111936505961e-02	 1.268973285257925e+00	 3.321198944729784e-01
 5.328528224233206e-02	 1.269470418073685e+00	 3.152315206068796e-01
 4.256105330518180e-02	 1.269875198753552e+00	 3.013731846418146e-01
 3.186943755488016e-02	 1.270188490979884e+00	 2.904158035090407e-01
 2.121141871489983e-02	 1.270411169418752e+00	 2.822448657380725e-01
 1.058795918346249e-02	 1.270544119182073e+00	 2.767606179053776e-01
 0.000000000000000e+00	 1.270588235294118e+00	 2.738782500556687e-01
 1.078567445126375e-01	 1.271905690408253e+00	 4.721965251610598e-01
 9.693461535998610e-02	 1.272784680523289e+00	 4.413563062796788e-01
 8.603998980645411e-02	 1.273567541508444e+00	 4.141986364975303e-01
 7.517396224509697e-02	 1.274255091427981e+00	 3.905502224393380e-01
 6.433760602878674e-02	 1.274848161578563e+00	 3.702513548813178e-01
 5.353197336382434e-02	 1.275347595935137e+00	 3.531560759245271e-01
 4.275809521863172e-02	 1.275754250599633e+00	 3.391323571374616e-01
 3.201698124726387e-02	 1.276068993252939e+00	 3.280622857251816e-01
 2.130961972746881e-02	 1.276292702610506e+00	 3.198422558661391e-01
 1.063697751301556e-02	 1.276426267881990e+00	 3.143831624252833e-01
 0.000000000000000e+00	 1.276470588235294e+00	 3.116105943553162e-01
 1.083537802016358e-01	 1.277767006953913e+00	 5.123788817859418e-01
 9.738131865657589e-02	 1.278650047714640e+00	 4.812037328565009e-01
 8.643648745533176e-02	 1.279436516354106e+00	 4.537001693118201e-01
 7.552038603424485e-02	 1.280127234706450e+00	 4.297125842521021e-01
 6.463409269251388e-02	 1.280723037899202e+00	 4.090985835182974e-01
 5.377866448531662e-02	 1.281224773796589e+00	 3.917291519843664e-01
 4.295513713208163e-02	 1.281633302445715e+00	 3.774888321655905e-01
 3.216452493964757e-02	 1.281949495525994e+00	 3.662759120944026e-01
 2.140782074003779e-02	 1.282174235802259e+00	 3.580026195041077e-01
 1.068599584256862e-02	 1.282308416581907e+00	 3.525953194289344e-01
 0.000000000000000e+00	 1.282352941176470e+00	 3.499947124226270e-01
 1.088508158906341e-01	 1.283628323499573e+00	 5.536407183000833e-01
 9.782802195316566e-02	 1.284515414905991e+00	 5.220527893990976e-01
 8.683298510420943e-02	 1.285305491199766e+00	 4.941204923811484e-01
 7.586680982339279e-02	 1.285999377984921e+00	 4.697112341067347e-01
 6.493057935624101e-02	 1.286597914219840e+00	 4.487051766453152e-01
 5.402535560680888e-02	 1.287101951658041e+00	 4.309953984117347e-01
 4.315217904553155e-02	 1.287512354291796e+00	 4.164880691973136e-01
 3.231206863203127e-02	 1.287829997799049e+00	 4.051026359515120e-01
 2.150602175260677e-02	 1.288055768994012e+00	 3.967720162383945e-01
 1.073501417212169e-02	 1.288190565281824e+00	 3.914427963762219e-01
 0.000000000000000e+00	 1.288235294117647e+00	 3.890754313627067e-01
 1.093478515796325e-01	 1.289489640045233e+00	 5.960196671638704e-01
 9.827472524975549e-02	 1.290380782097343e+00	 5.639423552080738e-01
 8.722948275308709e-02	 1.291174466045427e+00	 5.354997877913432e-01
 7.621323361254069e-02	 1.291871521263390e+00	 5.105876387560770e-01
 6.522706601996812e-02	 1.292472790540479e+00	 4.891137941470256e-01
 5.427204672830117e-02	 1.292979129519493e+00	 4.709985039577704e-01
 4.334922095898148e-02	 1.293391406137877e+00	 4.561745495919167e-01
 3.245961232441498e-02	 1.293710500072104e+00	 4.445874237812206e-01
 2.160422276517575e-02	 1.293937302185766e+00	 4.361955197857750e-01
 1.078403250167476e-02	 1.294072713981741e+00	 4.309703267667322e-01
 0.000000000000000e+00	 1.294117647058824e+00	 4.288966283333469e-01
 1.294117647058824e+00	 0.000000000000000e+00	 1.844388047005944e+01
 1.294072713981741e+00	 1.078403250167439e-02	 1.844068849328604e+01
 1.293937302185767e+00	 2.160422276517542e-02	 1.843677777419015e+01
 1.293710500072104e+00	 3.245961232441469e-02	 1.843188726569903e+01
 1.293391406137877e+00	 4.334922095898123e-02	 1.842576299241783e+01
 1.292979129519493e+00	 5.427204672830097e-02	 1.841815930948163e+01
 1.292472790540479e+00	 6.522706601996797e-02	 1.840884012856835e+01
 1.291871521263391e+00	 7.621323361254059e-02	 1.839758010670773e+01
 1.291174466045427e+00	 8.722948275308702e-02	 1.838416579341110e+01
 1.290380782097343e+00	 9.827472524975546e-02	 1.836839673153077e+01
 1.289489640045233e+00	 1.093478515796325e-01	 1.835008650714413e+01
 1.300000000000000e+00	 0.000000000000000e+00	 1.832046380043290e+01
 1.299954862681658e+00	 1.083305083122746e-02	 1.831734840512628e+01
 1.299818835377520e+00	 2.170242377774440e-02	 1.831357522822296e+01
 1.299591002345160e+00	 3.260715601679841e-02	 1.830887994906141e+01
 1.299270457983958e+00	 4.354626287243114e-02	 1.830300621355050e+01
 1.298856307380945e+00	 5.451873784979323e-02	 1.829570691877298e+01
 1.298347666861117e+00	 6.552355268369511e-02	 1.828674546390719e+01
 1.297743664541861e+00	 7.655965740168848e-02	 1.827589696307102e+01
 1.297043440891089e+00	 8.762598040196469e-02	 1.826294941557747e+01
 1.296246149288695e+00	 9.872142854634525e-02	 1.824770482897521e+01
 1.295350956590893e+00	 1.098448872686308e-01	 1.822998029013110e+01
 1.305882352941176e+00	 0.000000000000000e+00	 1.819969576699383e+01
 1.305837011381575e+00	 1.088206916078052e-02	 1.819664302459107e+01
 1.305700368569273e+00	 2.180062479031337e-02	 1.819299778170047e+01
 1.305471504618214e+00	 3.275469970918211e-02	 1.818849153861736e+01
 1.305149509830039e+00	 4.374330478588107e-02	 1.818286467223485e+01
 1.304733485242398e+00	 5.476542897128552e-02	 1.817586774755140e+01
 1.304222543181756e+00	 6.582003934742223e-02	 1.816726279468499e+01
 1.303615807820330e+00	 7.690608119083638e-02	 1.815682454696646e+01
 1.302912415736749e+00	 8.802247805084236e-02	 1.814434163556842e+01
 1.302111516480046e+00	 9.916813184293508e-02	 1.812961773600852e+01
 1.301212273136553e+00	 1.103419229576291e-01	 1.811247266174620e+01
 1.311764705882353e+00	 0.000000000000000e+00	 1.808149160194637e+01
 1.311719160081492e+00	 1.093108749033359e-02	 1.807848670882503e+01
 1.311581901761026e+00	 2.189882580288236e-02	 1.807495909547084e+01
 1.311352006891269e+00	 3.290224340156580e-02	 1.807063519275993e+01
 1.311028561676121e+00	 4.394034669933098e-02	 1.806525123317656e+01
 1.310610663103850e+00	 5.501212009277780e-02	 1.805855459035399e+01
 1.310097419502394e+00	 6.611652601114935e-02	 1.805030508334058e+01
 1.309487951098800e+00	 7.725250497998432e-02	 1.804027624113377e+01
 1.308781390582411e+00	 8.841897569972003e-02	 1.802825652290749e+01
 1.307976883671398e+00	 9.961483513952485e-02	 1.801405048923656e+01
 1.307073589682213e+00	 1.108389586466274e-01	 1.799747991950238e+01
 1.317647058823529e+00	 0.000000000000000e+00	 1.796576764024989e+01
 1.317601308781409e+00	 1.098010581988665e-02	 1.796279487866710e+01
 1.317463434952780e+00	 2.199702681545134e-02	 1.795937385297712e+01
 1.317232509164325e+00	 3.304978709394951e-02	 1.795522504920159e+01
 1.316907613522202e+00	 4.413738861278088e-02	 1.795007969480701e+01
 1.316487840965302e+00	 5.525881121427007e-02	 1.794368112738234e+01
 1.315972295823033e+00	 6.641301267487647e-02	 1.793578612729314e+01
 1.315360094377270e+00	 7.759892876913220e-02	 1.792616620982388e+01
 1.314650365428071e+00	 8.881547334859770e-02	 1.791460887220531e+01
 1.313842250862749e+00	 1.000615384361146e-01	 1.790091879079723e+01
 1.312934906227873e+00	 1.113359943356258e-01	 1.788491896357650e+01
 1.323529411764706e+00	 0.000000000000000e+00	 1.785244129511328e+01
 1.323483457481326e+00	 1.102912414943972e-02	 1.784948399423113e+01
 1.323344968144533e+00	 2.209522782802031e-02	 1.784615773607020e+01
 1.323113011437379e+00	 3.319733078633321e-02	 1.784217620117336e+01
 1.322786665368283e+00	 4.433443052623080e-02	 1.783726476602669e+01
 1.322365018826754e+00	 5.550550233576235e-02	 1.783116190195440e+01
 1.321847172143672e+00	 6.670949933860358e-02	 1.782362053727143e+01
 1.321232237655739e+00	 7.794535255828011e-02	 1.781440937817953e+01
 1.320519340273732e+00	 8.921197099747535e-02	 1.780331418377214e+01
 1.319707618054101e+00	 1.005082417327045e-01	 1.779013899039061e+01
 1.318796222773534e+00	 1.118330300246241e-01	 1.777470728044515e+01
 1.329411764705883e+00	 0.000000000000000e+00	 1.774143103413985e+01
 1.329365606181243e+00	 1.107814247899279e-02	 1.773847153113467e+01
 1.329226501336287e+00	 2.219342884058930e-02	 1.773522740146716e+01
 1.328993513710435e+00	 3.334487447871692e-02	 1.773140467426168e+01
 1.328665717214365e+00	 4.453147243968072e-02	 1.772672204357627e+01
 1.328242196688207e+00	 5.575219345725463e-02	 1.772091229856994e+01
 1.327722048464310e+00	 6.700598600233075e-02	 1.771372371624075e+01
 1.327104380934210e+00	 7.829177634742804e-02	 1.770492141219511e+01
 1.326388315119393e+00	 8.960846864635304e-02	 1.769428864478676e+01
 1.325572985245452e+00	 1.009549450292942e-01	 1.768162806783729e+01
 1.324657539319194e+00	 1.123300657136224e-01	 1.766676292702024e+01
 1.335294117647059e+00	 0.000000000000000e+00	 1.763265635610289e+01
 1.335247754881159e+00	 1.112716080854585e-02	 1.762967595735739e+01
 1.335108034528040e+00	 2.229162985315827e-02	 1.762650045783360e+01
 1.334874015983489e+00	 3.349241817110062e-02	 1.762282740386275e+01
 1.334544769060445e+00	 4.472851435313063e-02	 1.761836799001568e+01
 1.334119374549659e+00	 5.599888457874690e-02	 1.761284852157299e+01
 1.333596924784948e+00	 6.730247266605786e-02	 1.760601183891039e+01
 1.332976524212679e+00	 7.863820013657592e-02	 1.759761869923787e+01
 1.332257289965054e+00	 9.000496629523069e-02	 1.758744911100422e+01
 1.331438352436804e+00	 1.014016483258841e-01	 1.757530361615126e+01
 1.330518855864854e+00	 1.128271014026208e-01	 1.756100451526878e+01
 1.341176470588235e+00	 0.000000000000000e+00	 1.752603776833212e+01
 1.341129903581077e+00	 1.117617913809891e-02	 1.752301671070876e+01
 1.340989567719794e+00	 2.238983086572725e-02	 1.751989544347244e+01
 1.340754518256544e+00	 3.363996186348431e-02	 1.751636221323655e+01
 1.340423820906527e+00	 4.492555626658053e-02	 1.751211991229323e+01
 1.339996552411111e+00	 5.624557570023917e-02	 1.750688757439044e+01
 1.339471801105587e+00	 6.759895932978498e-02	 1.750040183180298e+01
 1.338848667491150e+00	 7.898462392572385e-02	 1.749241832911251e+01
 1.338126264810716e+00	 9.040146394410836e-02	 1.748271308898595e+01
 1.337303719628155e+00	 1.018483516224738e-01	 1.747108382510991e+01
 1.336380172410514e+00	 1.133241370916191e-01	 1.745735119730162e+01
 1.347058823529412e+00	 0.000000000000000e+00	 1.742149676469300e+01
 1.347012052280994e+00	 1.122519746765198e-02	 1.741841417688681e+01
 1.346871100911547e+00	 2.248803187829624e-02	 1.741533180459883e+01
 1.346635020529599e+00	 3.378750555586802e-02	 1.741192779214066e+01
 1.346302872752608e+00	 4.512259818003045e-02	 1.740789594088535e+01
 1.345873730272563e+00	 5.649226682173145e-02	 1.740294723933102e+01
 1.345346677426225e+00	 6.789544599351209e-02	 1.739681135386915e+01
 1.344720810769619e+00	 7.933104771487175e-02	 1.738923807565337e+01
 1.343995239656377e+00	 9.079796159298600e-02	 1.737999871883617e+01
 1.343169086819507e+00	 1.022950549190636e-01	 1.736888746530578e+01
 1.342241488956174e+00	 1.138211727806174e-01	 1.735572265091763e+01
 1.352941176470588e+00	 0.000000000000000e+00	 1.731895580414010e+01
 1.352894200980911e+00	 1.127421579720504e-02	 1.731578966810977e+01
 1.352752634103301e+00	 2.258623289086522e-02	 1.731272987418504e+01
 1.352515522802654e+00	 3.393504924825173e-02	 1.730944367602769e+01
 1.352181924598689e+00	 4.531964009348038e-02	 1.730561500949166e+01
 1.351750908134016e+00	 5.673895794322373e-02	 1.730094605792655e+01
 1.351221553746864e+00	 6.819193265723925e-02	 1.729515877762996e+01
 1.350592954048090e+00	 7.967747150401970e-02	 1.728799637882782e+01
 1.349864214502038e+00	 9.119445924186373e-02	 1.727922475742952e+01
 1.349034454010859e+00	 1.027417582156534e-01	 1.726863387266728e+01
 1.348102805501834e+00	 1.143182084696158e-01	 1.725603906558846e+01
 1.289489640045233e+00	 1.093478515796325e-01	 1.835008650714413e+01
 1.288500224494777e+00	 1.204477310121440e-01	 1.832951588188941e+01
 1.287411734597490e+00	 1.315732117482395e-01	 1.830708295235589e+01
 1.286223384618515e+00	 1.427231210755901e-01	 1.828280367579574e+01
 1.284934404505500e+00	 1.538962655400138e-01	 1.825671485169383e+01
 1.283544040458064e+00	 1.650914311333335e-01	 1.822887471439168e+01
 1.282051555497363e+00	 1.763073834978526e-01	 1.819936343676946e+01
 1.280456230035229e+00	 1.875428681476210e-01	 1.816828353949605e+01
 1.278757362442389e+00	 1.987966107066480e-01	 1.813576020027169e+01
 1.276954269615205e+00	 2.100673171642022e-01	 1.810194145740545e+01
 1.275046287540397e+00	 2.213536741473192e-01	 1.806699830199863e+01
 1.295350956590893e+00	 1.098448872686308e-01	 1.822998029013110e+01
 1.294357043697027e+00	 1.209952206985628e-01	 1.821007350104488e+01
 1.293263606118388e+00	 1.321712718016406e-01	 1.818839400358517e+01
 1.292069854548599e+00	 1.433718625350246e-01	 1.816495456448325e+01
 1.290775015435070e+00	 1.545957940197411e-01	 1.813978982986111e+01
 1.289378331551055e+00	 1.658418467293941e-01	 1.811295694349024e+01
 1.287879062567805e+00	 1.771087806955702e-01	 1.808453607514237e+01
 1.286276485626298e+00	 1.883953357301102e-01	 1.805463085346684e+01
 1.284569895908036e+00	 1.997002316644054e-01	 1.802336869774066e+01
 1.282758607204365e+00	 2.110221686058577e-01	 1.799090104274680e+01
 1.280841952483762e+00	 2.223598272116252e-01	 1.795740345095782e+01
 1.301212273136553e+00	 1.103419229576291e-01	 1.811247266174620e+01
 1.300213862899276e+00	 1.215427103849816e-01	 1.809322048651562e+01
 1.299115477639285e+00	 1.327693318550417e-01	 1.807228261561026e+01
 1.297916324478683e+00	 1.440206039944590e-01	 1.804966932714976e+01
 1.296615626364641e+00	 1.552953224994684e-01	 1.802541378552698e+01
 1.295212622644047e+00	 1.665922623254547e-01	 1.799957268375158e+01
 1.293706569638248e+00	 1.779101778932876e-01	 1.797222679495672e+01
 1.292096741217367e+00	 1.892478033125993e-01	 1.794348142743783e+01
 1.290382429373684e+00	 2.006038526221630e-01	 1.791346677749057e+01
 1.288562944793525e+00	 2.119770200475131e-01	 1.788233817422344e+01
 1.286637617427127e+00	 2.233659802759312e-01	 1.785027621043108e+01
 1.307073589682213e+00	 1.108389586466274e-01	 1.799747991950238e+01
 1.306070682101525e+00	 1.220902000714005e-01	 1.797887416381019e+01
 1.304967349160183e+00	 1.333673919084429e-01	 1.795866636661905e+01
 1.303762794408768e+00	 1.446693454538936e-01	 1.793686500920235e+01
 1.302456237294211e+00	 1.559948509791958e-01	 1.791350243580089e+01
 1.301046913737038e+00	 1.673426779215153e-01	 1.788863551850704e+01
 1.299534076708690e+00	 1.787115750910052e-01	 1.786234623042564e+01
 1.297916996808436e+00	 1.901002708950884e-01	 1.783474212141654e+01
 1.296194962839331e+00	 2.015074735799204e-01	 1.780595669061432e+01
 1.294367282382684e+00	 2.129318714891685e-01	 1.777614964982171e+01
 1.292433282370493e+00	 2.243721333402371e-01	 1.774550707177692e+01
 1.312934906227873e+00	 1.113359943356258e-01	 1.788491896357650e+01
 1.311927501303773e+00	 1.226376897578193e-01	 1.786695240437014e+01
 1.310819220681081e+00	 1.339654519618439e-01	 1.784746333985654e+01
 1.309609264338851e+00	 1.453180869133280e-01	 1.782645913628502e+01
 1.308296848223782e+00	 1.566943794589231e-01	 1.780397196944868e+01
 1.306881204830029e+00	 1.680930935175759e-01	 1.778005951057234e+01
 1.305361583779133e+00	 1.795129722887227e-01	 1.775480551963449e+01
 1.303737252399505e+00	 1.909527384775778e-01	 1.772832034036632e+01
 1.302007496304978e+00	 2.024110945376779e-01	 1.770074129105842e+01
 1.300171619971845e+00	 2.138867229308240e-01	 1.767223294519476e+01
 1.298228947313858e+00	 2.253782864045431e-01	 1.764298729583291e+01
 1.318796222773534e+00	 1.118330300246241e-01	 1.777470728044515e+01
 1.317784320506022e+00	 1.231851794442381e-01	 1.775737361079234e+01
 1.316671092201979e+00	 1.345635120152450e-01	 1.773859211019963e+01
 1.315455734268936e+00	 1.459668283727626e-01	 1.771836970196592e+01
 1.314137459153352e+00	 1.573939079386504e-01	 1.769673903544810e+01
 1.312715495923021e+00	 1.688435091136365e-01	 1.767375919142269e+01
 1.311189090849575e+00	 1.803143694864402e-01	 1.764951629408317e+01
 1.309557507990574e+00	 1.918052060600669e-01	 1.762412402385917e+01
 1.307820029770625e+00	 2.033147154954354e-01	 1.759772402512506e+01
 1.305975957561005e+00	 2.148415743724795e-01	 1.757048620274805e+01
 1.304024612257224e+00	 2.263844394688491e-01	 1.754260890131496e+01
 1.324657539319194e+00	 1.123300657136224e-01	 1.766676292702024e+01
 1.323641139708271e+00	 1.237326691306570e-01	 1.765005670252409e+01
 1.322522963722876e+00	 1.351615720686461e-01	 1.763197173118292e+01
 1.321302204199020e+00	 1.466155698321971e-01	 1.761251515586224e+01
 1.319978070082923e+00	 1.580934364183778e-01	 1.759172073197681e+01
 1.318549787016012e+00	 1.695939247096972e-01	 1.756964955080347e+01
 1.317016597920018e+00	 1.811157666841577e-01	 1.754639066867535e+01
 1.315377763581644e+00	 1.926576736425561e-01	 1.752206163619381e+01
 1.313632563236272e+00	 2.042183364531929e-01	 1.749680892146626e+01
 1.311780295150164e+00	 2.157964258141349e-01	 1.747080822125346e+01
 1.309820277200589e+00	 2.273905925331551e-01	 1.744426465379006e+01
 1.330518855864854e+00	 1.128271014026208e-01	 1.756100451526878e+01
 1.329497958910520e+00	 1.242801588170758e-01	 1.754492110201363e+01
 1.328374835243774e+00	 1.357596321220472e-01	 1.752752172246106e+01
 1.327148674129104e+00	 1.472643112916316e-01	 1.750881439218940e+01
 1.325818681012493e+00	 1.587929648981051e-01	 1.748883459582013e+01
 1.324384078109003e+00	 1.703443403057578e-01	 1.746764602676352e+01
 1.322844104990460e+00	 1.819171638818752e-01	 1.744534123213980e+01
 1.321198019172713e+00	 1.935101412250452e-01	 1.742204215696532e+01
 1.319445096701919e+00	 2.051219574109504e-01	 1.739790058155695e+01
 1.317584632739324e+00	 2.167512772557904e-01	 1.737309844597575e+01
 1.315615942143955e+00	 2.283967455974612e-01	 1.734784805520376e+01
 1.336380172410514e+00	 1.133241370916191e-01	 1.745735119730162e+01
 1.335354778112769e+00	 1.248276485034946e-01	 1.744188672130455e+01
 1.334226706764672e+00	 1.363576921754482e-01	 1.742516205769453e+01
 1.332995144059188e+00	 1.479130527510660e-01	 1.740718673872177e+01
 1.331659291942064e+00	 1.594924933778324e-01	 1.738799859218497e+01
 1.330218369201994e+00	 1.710947559018184e-01	 1.736766449609744e+01
 1.328671612060903e+00	 1.827185610795927e-01	 1.734628103787237e+01
 1.327018274763782e+00	 1.943626088075344e-01	 1.732397507207285e+01
 1.325257630167567e+00	 2.060255783687079e-01	 1.730090417063066e+01
 1.323388970328484e+00	 2.177061286974458e-01	 1.727725695929619e+01
 1.321411607087320e+00	 2.294028986617671e-01	 1.725325333394645e+01
 1.342241488956174e+00	 1.138211727806174e-01	 1.735572265091763e+01
 1.341211597315018e+00	 1.253751381899135e-01	 1.734087394905872e+01
 1.340078578285569e+00	 1.369557522288493e-01	 1.732481315284592e+01
 1.338841613989272e+00	 1.485617942105006e-01	 1.730755194615210e+01
 1.337499902871633e+00	 1.601920218575597e-01	 1.728913110490840e+01
 1.336052660294985e+00	 1.718451714978790e-01	 1.726962126518517e+01
 1.334499119131346e+00	 1.835199582773102e-01	 1.724912359518416e+01
 1.332838530354851e+00	 1.952150763900236e-01	 1.722777036515072e+01
 1.331070163633214e+00	 2.069291993264654e-01	 1.720572540906468e+01
 1.329193307917644e+00	 2.186609801391013e-01	 1.718318447181767e+01
 1.327207272030686e+00	 2.304090517260731e-01	 1.716037543544128e+01
 1.348102805501834e+00	 1.143182084696158e-01	 1.725603906558846e+01
 1.347068416517267e+00	 1.259226278763323e-01	 1.724180363799561e+01
 1.345930449806467e+00	 1.375538122822505e-01	 1.722639585487459e+01
 1.344688083919356e+00	 1.492105356699350e-01	 1.720983017783734e+01
 1.343340513801204e+00	 1.608915503372871e-01	 1.719215092704794e+01
 1.341886951387976e+00	 1.725955870939395e-01	 1.717343306121578e+01
 1.340326626201788e+00	 1.843213554750278e-01	 1.715378286094421e+01
 1.338658785945921e+00	 1.960675439725129e-01	 1.713333850941152e+01
 1.336882697098861e+00	 2.078328202842229e-01	 1.711227056420056e+01
 1.334997645506805e+00	 2.196158315807568e-01	 1.709078231393681e+01
 1.333002936974051e+00	 2.314152047903791e-01	 1.706911001323807e+01
 1.275046287540397e+00	 2.213536741473192e-01	 1.806699830199863e+01
 1.273032771857208e+00	 2.326543492106228e-01	 1.802973245564803e+01
 1.270913098416430e+00	 2.439679911435440e-01	 1.798892150875680e+01
 1.268686663835719e+00	 2.552932302950050e-01	 1.794472796506115e+01
 1.266352886050638e+00	 2.666286789156153e-01	 1.789732791650508e+01
 1.263911204860803e+00	 2.779729315174046e-01	 1.784691042274234e+01
 1.261361082470570e+00	 2.893245652510988e-01	 1.779367675436972e+01
 1.258702004023638e+00	 3.006821403009224e-01	 1.773783949436423e+01
 1.255933478130964e+00	 3.120442002968887e-01	 1.767962149224172e+01
 1.253055037391386e+00	 3.234092727445190e-01	 1.761925466552257e+01
 1.250066238904322e+00	 3.347758694719024e-01	 1.755697864318700e+01
 1.280841952483762e+00	 2.223598272116252e-01	 1.795740345095782e+01
 1.278819284456560e+00	 2.337118689797621e-01	 1.792162309779805e+01
 1.276689976136504e+00	 2.450769365578329e-01	 1.788229435340637e+01
 1.274453421398609e+00	 2.564536540690732e-01	 1.783960293496101e+01
 1.272109035532686e+00	 2.678406274561408e-01	 1.779374915347925e+01
 1.269656255791988e+00	 2.792364448424837e-01	 1.774494728072232e+01
 1.267094541936346e+00	 2.906396769113311e-01	 1.769342477762982e+01
 1.264423376769200e+00	 3.020488773022902e-01	 1.763942137864100e+01
 1.261642266667923e+00	 3.134625830255111e-01	 1.758318802629696e+01
 1.258750742106801e+00	 3.248793148933578e-01	 1.752498565058094e+01
 1.255748358172069e+00	 3.362975779695019e-01	 1.746508378754185e+01
 1.286637617427127e+00	 2.233659802759312e-01	 1.785027621043108e+01
 1.284605797055910e+00	 2.347693887489012e-01	 1.781597164455317e+01
 1.282466853856579e+00	 2.461858819721217e-01	 1.777811247266910e+01
 1.280220178961498e+00	 2.576140778431413e-01	 1.773690621468949e+01
 1.277865185014734e+00	 2.690525759966663e-01	 1.769257610651116e+01
 1.275401306723174e+00	 2.804999581675627e-01	 1.764536045870751e+01
 1.272828001402121e+00	 2.919547885715634e-01	 1.759551187451990e+01
 1.270144749514762e+00	 3.034156143036579e-01	 1.754329632138249e+01
 1.267351055204882e+00	 3.148809657541333e-01	 1.748899205024295e+01
 1.264446446822217e+00	 3.263493570421964e-01	 1.743288835699646e+01
 1.261430477439816e+00	 3.378192864671015e-01	 1.737528418043124e+01
 1.292433282370493e+00	 2.243721333402371e-01	 1.774550707177692e+01
 1.290392309655261e+00	 2.358269085180404e-01	 1.771266265263383e+01
 1.288243731576654e+00	 2.472948273864105e-01	 1.767625610790038e+01
 1.285986936524388e+00	 2.587745016172095e-01	 1.763651537214213e+01
 1.283621334496783e+00	 2.702645245371918e-01	 1.759368533345921e+01
 1.281146357654359e+00	 2.817634714926419e-01	 1.754802718832477e+01
 1.278561460867896e+00	 2.932699002317956e-01	 1.749981765347119e+01
 1.275866122260324e+00	 3.047823513050257e-01	 1.744934802892292e+01
 1.273059843741841e+00	 3.162993484827554e-01	 1.739692310629679e+01
 1.270142151537632e+00	 3.278193991910351e-01	 1.734285991653785e+01
 1.267112596707563e+00	 3.393409949647010e-01	 1.728748631133308e+01
 1.298228947313858e+00	 2.253782864045431e-01	 1.764298729583291e+01
 1.296178822254612e+00	 2.368844282871796e-01	 1.761158153506832e+01
 1.294020609296728e+00	 2.484037728006993e-01	 1.757660641622339e+01
 1.291753694087278e+00	 2.599349253912778e-01	 1.753830892254216e+01
 1.289377483978831e+00	 2.714764730777174e-01	 1.749695434264393e+01
 1.286891408585545e+00	 2.830269848177210e-01	 1.745282562585290e+01
 1.284294920333671e+00	 2.945850118920278e-01	 1.740622259230019e+01
 1.281587495005886e+00	 3.061490883063936e-01	 1.735746099175413e+01
 1.278768632278799e+00	 3.177177312113778e-01	 1.730687140514869e+01
 1.275837856253047e+00	 3.292894413398740e-01	 1.725479798282009e+01
 1.272794715975310e+00	 3.408627034623005e-01	 1.720159701352558e+01
 1.304024612257224e+00	 2.263844394688491e-01	 1.754260890131496e+01
 1.301965334853963e+00	 2.379419480563189e-01	 1.751261454912259e+01
 1.299797487016803e+00	 2.495127182149882e-01	 1.747904545870061e+01
 1.297520451650167e+00	 2.610953491653459e-01	 1.744216631757357e+01
 1.295133633460879e+00	 2.726884216182430e-01	 1.740226158367015e+01
 1.292636459516730e+00	 2.842904981428001e-01	 1.735963484546929e+01
 1.290028379799446e+00	 2.959001235522601e-01	 1.731460803462198e+01
 1.287308867751448e+00	 3.075158253077614e-01	 1.726752048485447e+01
 1.284477420815759e+00	 3.191361139400000e-01	 1.721872783096228e+01
 1.281533560968463e+00	 3.307594834887125e-01	 1.716860074173623e+01
 1.278476835243056e+00	 3.423844119599001e-01	 1.711752348071754e+01
 1.309820277200589e+00	 2.273905925331551e-01	 1.744426465379007e+01
 1.307751847453314e+00	 2.389994678254580e-01	 1.741564878484344e+01
 1.305574364736878e+00	 2.506216636292770e-01	 1.738345618914083e+01
 1.303287209213057e+00	 2.622557729394142e-01	 1.734796793515305e+01
 1.300889782942928e+00	 2.739003701587683e-01	 1.730948643887382e+01
 1.298381510447915e+00	 2.855540114678793e-01	 1.726833483308828e+01
 1.295761839265222e+00	 2.972152352124924e-01	 1.722485618680403e+01
 1.293030240497010e+00	 3.088825623091294e-01	 1.717941256848871e+01
 1.290186209352717e+00	 3.205544966686221e-01	 1.713238394675649e+01
 1.287229265683878e+00	 3.322295256375513e-01	 1.708416692216355e+01
 1.284158954510803e+00	 3.439061204574997e-01	 1.703517328382432e+01
 1.315615942143955e+00	 2.283967455974612e-01	 1.734784805520376e+01
 1.313538360052665e+00	 2.400569875945972e-01	 1.732057215419476e+01
 1.311351242456952e+00	 2.517306090435658e-01	 1.728972244352024e+01
 1.309053966775947e+00	 2.634161967134824e-01	 1.725559506982093e+01
 1.306645932424976e+00	 2.751123186992939e-01	 1.721850921537396e+01
 1.304126561379101e+00	 2.868175247929583e-01	 1.717880648077374e+01
 1.301495298730997e+00	 2.985303468727248e-01	 1.713685011544475e+01
 1.298751613242572e+00	 3.102492993104972e-01	 1.709302408946476e+01
 1.295894997889676e+00	 3.219728793972443e-01	 1.704773200015807e+01
 1.292924970399293e+00	 3.336995677863900e-01	 1.700139580693460e+01
 1.289841073778550e+00	 3.454278289550992e-01	 1.695445438788618e+01
 1.321411607087320e+00	 2.294028986617671e-01	 1.725325333394645e+01
 1.319324872652016e+00	 2.411145073637363e-01	 1.722727338076990e+01
 1.317128120177027e+00	 2.528395544578547e-01	 1.719772893000050e+01
 1.314820724338836e+00	 2.645766204875507e-01	 1.716492992373199e+01
 1.312402081907025e+00	 2.763242672398195e-01	 1.712921113771186e+01
 1.309871612310286e+00	 2.880810381180374e-01	 1.709093158170733e+01
 1.307228758196772e+00	 2.998454585329568e-01	 1.705047374536031e+01
 1.304472985988133e+00	 3.116160363118649e-01	 1.700824268283228e+01
 1.301603786426635e+00	 3.233912621258666e-01	 1.696466492951252e+01
 1.298620675114709e+00	 3.351696099352287e-01	 1.692018724406553e+01
 1.295523193046297e+00	 3.469495374526988e-01	 1.687527516912303e+01
 1.327207272030686e+00	 2.304090517260731e-01	 1.716037543544128e+01
 1.325111385251367e+00	 2.421720271328756e-01	 1.713564199006145e+01
 1.322904997897102e+00	 2.539484998721435e-01	 1.710736121952444e+01
 1.320587481901726e+00	 2.657370442616188e-01	 1.707585559822797e+01
 1.318158231389073e+00	 2.775362157803450e-01	 1.704147434105814e+01
 1.315616663241472e+00	 2.893445514431165e-01	 1.700459282569660e+01
 1.312962217662548e+00	 3.011605701931892e-01	 1.696561185806346e+01
 1.310194358733696e+00	 3.129827733132327e-01	 1.692495677401083e+01
 1.307312574963594e+00	 3.248096448544887e-01	 1.688307637034323e+01
 1.304316379830124e+00	 3.366396520840674e-01	 1.684044165823367e+01
 1.301205312314044e+00	 3.484712459502983e-01	 1.679754443212259e+01
 1.333002936974051e+00	 2.314152047903791e-01	 1.706911001323807e+01
 1.330897897850718e+00	 2.432295469020148e-01	 1.704556830027242e+01
 1.328681875617176e+00	 2.550574452864324e-01	 1.701850573697179e+01
 1.326354239464616e+00	 2.668974680356870e-01	 1.698825608597399e+01
 1.323914380871121e+00	 2.787481643208706e-01	 1.695518186497239e+01
 1.321361714172657e+00	 2.906080647681957e-01	 1.691967379520533e+01
 1.318695677128323e+00	 3.024756818534214e-01	 1.688215009072080e+01
 1.315915731479258e+00	 3.143495103146006e-01	 1.684305558133345e+01
 1.313021363500553e+00	 3.262280275831111e-01	 1.680286066214777e+01
 1.310012084545539e+00	 3.381096942329061e-01	 1.676206006249707e+01
 1.306887431581791e+00	 3.499929544478980e-01	 1.672117142715740e+01
 1.250066238904322e+00	 3.347758694719024e-01	 1.755697864318700e+01
 1.246966664773942e+00	 3.461424870939965e-01	 1.749274171297068e+01
 1.243755922604174e+00	 3.575076074940309e-01	 1.742647905708264e+01
 1.240433645983937e+00	 3.688696983218643e-01	 1.735840646537736e+01
 1.236999494961966e+00	 3.802272135091138e-01	 1.728872580345744e+01
 1.233453156510620e+00	 3.915785938008541e-01	 1.721762258341593e+01
 1.229794344978032e+00	 4.029222673036569e-01	 1.714526336444307e+01
 1.226022802528016e+00	 4.142566500497204e-01	 1.707179298024043e+01
 1.222138299567086e+00	 4.255801465768076e-01	 1.699733159056730e+01
 1.218140635158006e+00	 4.368911505236930e-01	 1.692197155466717e+01
 1.214029637419246e+00	 4.481880452407888e-01	 1.684577412479435e+01
 1.255748358172069e+00	 3.362975779695019e-01	 1.746508378754185e+01
 1.252634695068369e+00	 3.477158620353328e-01	 1.740335720062993e+01
 1.249409358616011e+00	 3.591326420735492e-01	 1.733964348429041e+01
 1.246071980738409e+00	 3.705463787687817e-01	 1.727415300957854e+01
 1.242622219939066e+00	 3.819555190250644e-01	 1.720708237690588e+01
 1.239059761767486e+00	 3.933584964999490e-01	 1.713861198603426e+01
 1.235384319273386e+00	 4.047537321550371e-01	 1.706890343387058e+01
 1.231595633448597e+00	 4.161396348226736e-01	 1.699809673680633e+01
 1.227693473656027e+00	 4.275146017885204e-01	 1.692630737472126e+01
 1.223677638045088e+00	 4.388770193897100e-01	 1.685362315418952e+01
 1.219547953952970e+00	 4.502252636282468e-01	 1.678010088889880e+01
 1.261430477439816e+00	 3.378192864671015e-01	 1.737528418043123e+01
 1.258302725362796e+00	 3.492892369766691e-01	 1.731597779633276e+01
 1.255062794627848e+00	 3.607576766530674e-01	 1.725470836124370e+01
 1.251710315492882e+00	 3.722230592156995e-01	 1.719168354455587e+01
 1.248244944916166e+00	 3.836838245410148e-01	 1.712709731878818e+01
 1.244666367024353e+00	 3.951383991990436e-01	 1.706112752493994e+01
 1.240974293568741e+00	 4.065851970064174e-01	 1.699393326363482e+01
 1.237168464369179e+00	 4.180226195956270e-01	 1.692565210860444e+01
 1.233248647744968e+00	 4.294490570002331e-01	 1.685639713942519e+01
 1.229214640932170e+00	 4.408628882557267e-01	 1.678625379084309e+01
 1.225066270486694e+00	 4.522624820157050e-01	 1.671527651648411e+01
 1.267112596707563e+00	 3.393409949647010e-01	 1.728748631133307e+01
 1.263970755657222e+00	 3.508626119180054e-01	 1.723051942681662e+01
 1.260716230639686e+00	 3.623827112325858e-01	 1.717159740904943e+01
 1.257348650247355e+00	 3.738997396626170e-01	 1.711092790627088e+01
 1.253867669893266e+00	 3.854121300569653e-01	 1.704870486455345e+01
 1.250272972281219e+00	 3.969183018981385e-01	 1.698510608468582e+01
 1.246564267864096e+00	 4.084166618577976e-01	 1.692029060289408e+01
 1.242741295289761e+00	 4.199056043685803e-01	 1.685439589175293e+01
 1.238803821833910e+00	 4.313835122119459e-01	 1.678753487800114e+01
 1.234751643819251e+00	 4.428487571217434e-01	 1.671979277438922e+01
 1.230584587020418e+00	 4.542997004031631e-01	 1.665122372315074e+01
 1.272794715975310e+00	 3.408627034623005e-01	 1.720159701352558e+01
 1.269638785951650e+00	 3.524359868593418e-01	 1.714689818308066e+01
 1.266369666651523e+00	 3.640077458121041e-01	 1.709023436256517e+01
 1.262986985001826e+00	 3.755764201095344e-01	 1.703181582336109e+01
 1.259490394870366e+00	 3.871404355729159e-01	 1.697183905107389e+01
 1.255879577538086e+00	 3.986982045972334e-01	 1.691048429018242e+01
 1.252154242159450e+00	 4.102481267091779e-01	 1.684791291062881e+01
 1.248314126210343e+00	 4.217885891415333e-01	 1.678426459250906e+01
 1.244358995922851e+00	 4.333179674236586e-01	 1.671965432537748e+01
 1.240288646706333e+00	 4.448346259877601e-01	 1.665416921909212e+01
 1.236102903554142e+00	 4.563369187906212e-01	 1.658786512358277e+01
 1.278476835243056e+00	 3.423844119599001e-01	 1.711752348071754e+01
 1.275306816246077e+00	 3.540093618006782e-01	 1.706503034330922e+01
 1.272023102663359e+00	 3.656327803916224e-01	 1.701054299902770e+01
 1.268625319756299e+00	 3.772531005564521e-01	 1.695427695086843e+01
 1.265113119847466e+00	 3.888687410888664e-01	 1.689643375485508e+01
 1.261486182794952e+00	 4.004781072963280e-01	 1.683719854875536e+01
 1.257744216454805e+00	 4.120795915605581e-01	 1.677673740089850e+01
 1.253886957130924e+00	 4.236715739144866e-01	 1.671519447506087e+01
 1.249914170011792e+00	 4.352524226353713e-01	 1.665268900773997e+01
 1.245825649593415e+00	 4.468204948537770e-01	 1.658931209453770e+01
 1.241621220087866e+00	 4.583741371780793e-01	 1.652512328283201e+01
 1.284158954510803e+00	 3.439061204574997e-01	 1.703517328382432e+01
 1.280974846540504e+00	 3.555827367420146e-01	 1.698483239581236e+01
 1.277676538675196e+00	 3.672578149711407e-01	 1.693244716658508e+01
 1.274263654510772e+00	 3.789297810033696e-01	 1.687824090377617e+01
 1.270735844824565e+00	 3.905970466048168e-01	 1.682242272997436e+01
 1.267092788051818e+00	 4.022580099954227e-01	 1.676518509186973e+01
 1.263334190750160e+00	 4.139110564119385e-01	 1.670670108771988e+01
 1.259459788051506e+00	 4.255545586874400e-01	 1.664712160891617e+01
 1.255469344100734e+00	 4.371868778470842e-01	 1.658657229177188e+01
 1.251362652480497e+00	 4.488063637197939e-01	 1.652515027605424e+01
 1.247139536621589e+00	 4.604113555655374e-01	 1.646292076723309e+01
 1.289841073778550e+00	 3.454278289550992e-01	 1.695445438788618e+01
 1.286642876834931e+00	 3.571561116833509e-01	 1.690622106198265e+01
 1.283329974687034e+00	 3.688828495506590e-01	 1.685587081273544e+01
 1.279901989265244e+00	 3.806064614502871e-01	 1.680363729035846e+01
 1.276358569801665e+00	 3.923253521207674e-01	 1.674973964575691e+01
 1.272699393308685e+00	 4.040379126945175e-01	 1.669438001653124e+01
 1.268924165045515e+00	 4.157425212633187e-01	 1.663774082958107e+01
 1.265032618972089e+00	 4.274375434603933e-01	 1.657998191590121e+01
 1.261024518189675e+00	 4.391213330587968e-01	 1.652123743349767e+01
 1.256899655367578e+00	 4.507922325858105e-01	 1.646161259474654e+01
 1.252657853155313e+00	 4.624485739529957e-01	 1.640118019496278e+01
 1.295523193046297e+00	 3.469495374526988e-01	 1.687527516912303e+01
 1.292310907129357e+00	 3.587294866246871e-01	 1.682911331926734e+01
 1.288983410698871e+00	 3.705078841301774e-01	 1.678073801267557e+01
 1.285540324019716e+00	 3.822831418972047e-01	 1.673039574534990e+01
 1.281981294778765e+00	 3.940536576367179e-01	 1.667831812419571e+01
 1.278305998565551e+00	 4.058178153936123e-01	 1.662471932637508e+01
 1.274514139340869e+00	 4.175739861146989e-01	 1.656979337360154e+01
 1.270605449892671e+00	 4.293205282333465e-01	 1.651371121678172e+01
 1.266579692278616e+00	 4.410557882705096e-01	 1.645661762674129e+01
 1.262436658254660e+00	 4.527781014518273e-01	 1.639862788715590e+01
 1.258176169689037e+00	 4.644857923404537e-01	 1.633982428625276e+01
 1.301205312314044e+00	 3.484712459502983e-01	 1.679754443212259e+01
 1.297978937423785e+00	 3.603028615660235e-01	 1.675342642415574e+01
 1.294636846710708e+00	 3.721329187096957e-01	 1.670697299756156e+01
 1.291178658774188e+00	 3.839598223441222e-01	 1.665844596293920e+01
 1.287604019755865e+00	 3.957819631526684e-01	 1.660809177712511e+01
 1.283912603822418e+00	 4.075977180927072e-01	 1.655613897245114e+01
 1.280104113636224e+00	 4.194054509660793e-01	 1.650279539934801e+01
 1.276178280813252e+00	 4.312035130062998e-01	 1.644824527751662e+01
 1.272134866367558e+00	 4.429902434822224e-01	 1.639264605121104e+01
 1.267973661141742e+00	 4.547639703178440e-01	 1.633612504455693e+01
 1.263694486222761e+00	 4.665230107279118e-01	 1.627877591326716e+01
 1.306887431581791e+00	 3.499929544478980e-01	 1.672117142715740e+01
 1.303646967718212e+00	 3.618762365073601e-01	 1.667907793518137e+01
 1.300290282722545e+00	 3.737579532892140e-01	 1.663450018268438e+01
 1.296816993528661e+00	 3.856365027910399e-01	 1.658771772959332e+01
 1.293226744732965e+00	 3.975102686686190e-01	 1.653899424315452e+01
 1.289519209079284e+00	 4.093776207918018e-01	 1.648857489371497e+01
 1.285694087931578e+00	 4.212369158174595e-01	 1.643668356231883e+01
 1.281751111733834e+00	 4.330864977792531e-01	 1.638351985515668e+01
 1.277690040456499e+00	 4.449246986939352e-01	 1.632925592022253e+01
 1.273510664028824e+00	 4.567498391838610e-01	 1.627403306190278e+01
 1.269212802756485e+00	 4.685602291153701e-01	 1.621795814965537e+01
 1.214029637419246e+00	 4.481880452407888e-01	 1.684577412479435e+01
 1.209805163909778e+00	 4.594692044155961e-01	 1.676683272625021e+01
 1.205467101998599e+00	 4.707329927126062e-01	 1.668309062480274e+01
 1.201015369218425e+00	 4.819777664272453e-01	 1.659431210093837e+01
 1.196449913602989e+00	 4.932018741534395e-01	 1.650019640670362e+01
 1.191770714007379e+00	 5.044036574643445e-01	 1.640037356577779e+01
 1.186977780410887e+00	 5.155814516057664e-01	 1.629440002291357e+01
 1.182071154201846e+00	 5.267335862017747e-01	 1.618175414607724e+01
 1.177050908443930e+00	 5.378583859719821e-01	 1.606183158545230e+01
 1.171917148123444e+00	 5.489541714599498e-01	 1.593309862973604e+01
 1.166670010377108e+00	 5.600192597721463e-01	 1.579354764660254e+01
 1.219547953952970e+00	 4.502252636282468e-01	 1.678010088889880e+01
 1.215304278291186e+00	 4.615577007993035e-01	 1.670372425681047e+01
 1.210946497916774e+00	 4.728726881340271e-01	 1.662235850380335e+01
 1.206474529987600e+00	 4.841685744564599e-01	 1.653581392051453e+01
 1.201888322301185e+00	 4.954437008541370e-01	 1.644383944559667e+01
 1.197187853616503e+00	 5.066964013619096e-01	 1.634611841815880e+01
 1.192373133958209e+00	 5.179250036585198e-01	 1.624226417024425e+01
 1.187444204902763e+00	 5.291278297754192e-01	 1.613181546243603e+01
 1.182401139845948e+00	 5.403031968173094e-01	 1.601423176653662e+01
 1.177244044251278e+00	 5.514494176938587e-01	 1.588888840016402e+01
 1.171973055878823e+00	 5.625648018620200e-01	 1.575428178370219e+01
 1.225066270486694e+00	 4.522624820157050e-01	 1.671527651648411e+01
 1.220803392672595e+00	 4.636461971830107e-01	 1.664136330963724e+01
 1.216425893834949e+00	 4.750123835554479e-01	 1.656232527785773e+01
 1.211933690756774e+00	 4.863593824856747e-01	 1.647802048330437e+01
 1.207326730999380e+00	 4.976855275548345e-01	 1.638824935621360e+01
 1.202604993225628e+00	 5.089891452594748e-01	 1.629275039844144e+01
 1.197768487505531e+00	 5.202685557112735e-01	 1.619119571757350e+01
 1.192817255603680e+00	 5.315220733490637e-01	 1.608318639445114e+01
 1.187751371247965e+00	 5.427480076626364e-01	 1.596824768783093e+01
 1.182570940379112e+00	 5.539446639277675e-01	 1.584582408082121e+01
 1.177276101380537e+00	 5.651103439518932e-01	 1.571527417470748e+01
 1.230584587020418e+00	 4.542997004031631e-01	 1.665122372315074e+01
 1.226302507054002e+00	 4.657346935667179e-01	 1.657966498363811e+01
 1.221905289753125e+00	 4.771520789768690e-01	 1.650289830072433e+01
 1.217392851525949e+00	 4.885501905148895e-01	 1.642083124966642e+01
 1.212765139697576e+00	 4.999273542555319e-01	 1.633331753765197e+01
 1.208022132834752e+00	 5.112818891570399e-01	 1.624015265722489e+01
 1.203163841052854e+00	 5.226121077640271e-01	 1.614106936067479e+01
 1.198190306304598e+00	 5.339163169227080e-01	 1.603573295798541e+01
 1.193101602649983e+00	 5.451928185079638e-01	 1.592373644183060e+01
 1.187897836506945e+00	 5.564399101616763e-01	 1.580459544404866e+01
 1.182579146882251e+00	 5.676558860417665e-01	 1.567774302902499e+01
 1.236102903554142e+00	 4.563369187906212e-01	 1.658786512358277e+01
 1.231801621435410e+00	 4.678231899504251e-01	 1.651854438693523e+01
 1.227384685671300e+00	 4.792917743982899e-01	 1.644398504481742e+01
 1.222852012295123e+00	 4.907409985441041e-01	 1.636414590744823e+01
 1.218203548395771e+00	 5.021691809562293e-01	 1.627893572480791e+01
 1.213439272443877e+00	 5.135746330546052e-01	 1.618820878877977e+01
 1.208559194600176e+00	 5.249556598167803e-01	 1.609176034651530e+01
 1.203563357005516e+00	 5.363105604963523e-01	 1.598932182736077e+01
 1.198451834052001e+00	 5.476376293532911e-01	 1.588055588659277e+01
 1.193224732634778e+00	 5.589351563955851e-01	 1.576505127017985e+01
 1.187882192383965e+00	 5.702014281316398e-01	 1.564231750580875e+01
 1.241621220087866e+00	 4.583741371780793e-01	 1.652512328283201e+01
 1.237300735816818e+00	 4.699116863341323e-01	 1.645791668826096e+01
 1.232864081589476e+00	 4.814314698197108e-01	 1.638549315271479e+01
 1.228311173064297e+00	 4.929318065733189e-01	 1.630786442359757e+01
 1.223641957093967e+00	 5.044110076569266e-01	 1.622499604007131e+01
 1.218856412053001e+00	 5.158673769521704e-01	 1.613680288279636e+01
 1.213954548147498e+00	 5.272992118695338e-01	 1.604314452502071e+01
 1.208936407706433e+00	 5.387048040699969e-01	 1.594382038708914e+01
 1.203802065454019e+00	 5.500824401986180e-01	 1.583856469737440e+01
 1.198551628762613e+00	 5.614304026294941e-01	 1.572704126362617e+01
 1.193185237885680e+00	 5.727469702215136e-01	 1.560883805977617e+01
 1.247139536621589e+00	 4.604113555655374e-01	 1.646292076723309e+01
 1.242799850198226e+00	 4.720001827178395e-01	 1.639769716802595e+01
 1.238343477507651e+00	 4.835711652411317e-01	 1.632733048837763e+01
 1.233770333833473e+00	 4.951226146025336e-01	 1.625188709552481e+01
 1.229080365792162e+00	 5.066528343576242e-01	 1.617139104481232e+01
 1.224273551662126e+00	 5.181601208497357e-01	 1.608581957596809e+01
 1.219349901694820e+00	 5.296427639222874e-01	 1.599509840071578e+01
 1.214309458407350e+00	 5.410990476436411e-01	 1.589909678352286e+01
 1.209152296856037e+00	 5.525272510439453e-01	 1.579762241823595e+01
 1.203878524890447e+00	 5.639256488634029e-01	 1.569041610436581e+01
 1.198488283387394e+00	 5.752925123113868e-01	 1.557714622785942e+01
 1.252657853155313e+00	 4.624485739529957e-01	 1.640118019496278e+01
 1.248298964579635e+00	 4.740886791015468e-01	 1.633780126906789e+01
 1.243822873425827e+00	 4.857108606625527e-01	 1.626940518809123e+01
 1.239229494602647e+00	 4.973134226317484e-01	 1.619611460222602e+01
 1.234518774490357e+00	 5.088946610583215e-01	 1.611801379066887e+01
 1.229690691271250e+00	 5.204528647473008e-01	 1.603514410341512e+01
 1.224745255242143e+00	 5.319863159750408e-01	 1.594749918424688e+01
 1.219682509108268e+00	 5.434932912172857e-01	 1.585501997642987e+01
 1.214502528258055e+00	 5.549720618892724e-01	 1.575758951361102e+01
 1.209205421018281e+00	 5.664208950973117e-01	 1.565502749944258e+01
 1.203791328889108e+00	 5.778380544012601e-01	 1.554708468055873e+01
 1.258176169689037e+00	 4.644857923404537e-01	 1.633982428625276e+01
 1.253798078961043e+00	 4.761771754852541e-01	 1.627814464709302e+01
 1.249302269344001e+00	 4.878505560839735e-01	 1.621162571113451e+01
 1.244688655371822e+00	 4.995042306609631e-01	 1.614044805517301e+01
 1.239957183188553e+00	 5.111364877590190e-01	 1.606475787063872e+01
 1.235107830880374e+00	 5.227456086448660e-01	 1.598466234995169e+01
 1.230140608789465e+00	 5.343298680277944e-01	 1.590022484378903e+01
 1.225055559809185e+00	 5.458875347909301e-01	 1.581145979049342e+01
 1.219852759660072e+00	 5.574168727345996e-01	 1.571832741984458e+01
 1.214532317146114e+00	 5.689161413312207e-01	 1.562072823447735e+01
 1.209094374390821e+00	 5.803835964911335e-01	 1.551849727335208e+01
 1.263694486222761e+00	 4.665230107279118e-01	 1.627877591326716e+01
 1.259297193342450e+00	 4.782656718689613e-01	 1.621864322081801e+01
 1.254781665262177e+00	 4.899902515053943e-01	 1.615390089018736e+01
 1.250147816140996e+00	 5.016950386901778e-01	 1.608478904897754e+01
 1.245395591886748e+00	 5.133783144597164e-01	 1.601151746998397e+01
 1.240524970489499e+00	 5.250383525424311e-01	 1.593426090120387e+01
 1.235535962336787e+00	 5.366734200805476e-01	 1.585315415634066e+01
 1.230428610510103e+00	 5.482817783645745e-01	 1.576828696673964e+01
 1.225202991062090e+00	 5.598616835799268e-01	 1.567969859669899e+01
 1.219859213273948e+00	 5.714113875651294e-01	 1.558737222518913e+01
 1.214397419892536e+00	 5.829291385810068e-01	 1.549122909815875e+01
 1.269212802756485e+00	 4.685602291153701e-01	 1.621795814965537e+01
 1.264796307723859e+00	 4.803541682526686e-01	 1.615921322182238e+01
 1.260261061180353e+00	 4.921299469268153e-01	 1.609613998148404e+01
 1.255606976910171e+00	 5.038858467193927e-01	 1.602903971183706e+01
 1.250834000584944e+00	 5.156201411604140e-01	 1.595818741695225e+01
 1.245942110098623e+00	 5.273310964399964e-01	 1.588382709458087e+01
 1.240931315884110e+00	 5.390169721333012e-01	 1.580616675891035e+01
 1.235801661211020e+00	 5.506760219382191e-01	 1.572537321389560e+01
 1.230553222464108e+00	 5.623064944252539e-01	 1.564156657883009e+01
 1.225186109401782e+00	 5.739066337990384e-01	 1.555481456892685e+01
 1.219700465394250e+00	 5.854746806708804e-01	 1.546512653485566e+01
 1.166670010377108e+00	 5.600192597721463e-01	 1.579354764660254e+01
 1.161309664699894e+00	 5.710519653268742e-01	 1.566203312198553e+01
 1.155836313132458e+00	 5.820506006125523e-01	 1.555804416077391e+01
 1.150250190427776e+00	 5.930134769547244e-01	 1.547781949364721e+01
 1.144551564196564e+00	 6.039389052911422e-01	 1.539061787861633e+01
 1.138740735031125e+00	 6.148251969542559e-01	 1.529054112448462e+01
 1.132818036607256e+00	 6.256706644604243e-01	 1.517845580371221e+01
 1.126783835763913e+00	 6.364736223051419e-01	 1.505534272172308e+01
 1.120638532560318e+00	 6.472323877635628e-01	 1.492229917040609e+01
 1.114382560310229e+00	 6.579452816955857e-01	 1.478054087354386e+01
 1.108016385593150e+00	 6.686106293547529e-01	 1.463140360096826e+01
 1.171973055878823e+00	 5.625648018620200e-01	 1.575428178370219e+01
 1.166588344993984e+00	 5.736476560783600e-01	 1.562846579298298e+01
 1.161090114555787e+00	 5.846962851607912e-01	 1.553146607488279e+01
 1.155478600384266e+00	 5.957089927590642e-01	 1.545376830084599e+01
 1.149754071306549e+00	 6.066840821333747e-01	 1.536549967160015e+01
 1.143916829281266e+00	 6.176198569404115e-01	 1.526520637991575e+01
 1.137967209500925e+00	 6.285146220261535e-01	 1.515372348332003e+01
 1.131905580471931e+00	 6.393666842247103e-01	 1.503199649496825e+01
 1.125732344071956e+00	 6.501743531624883e-01	 1.490108374107589e+01
 1.119447935584367e+00	 6.609359420669292e-01	 1.476215841118686e+01
 1.113052823709482e+00	 6.716497685790926e-01	 1.461651027741667e+01
 1.177276101380537e+00	 5.651103439518932e-01	 1.571527417470748e+01
 1.171867025288075e+00	 5.762433468298458e-01	 1.559570789189145e+01
 1.166343915979116e+00	 5.873419697090300e-01	 1.550624997743184e+01
 1.160707010340755e+00	 5.984045085634038e-01	 1.542905505700266e+01
 1.154956578416533e+00	 6.094292589756072e-01	 1.534008745366753e+01
 1.149092923531408e+00	 6.204145169265671e-01	 1.523989971595090e+01
 1.143116382394594e+00	 6.313585795918826e-01	 1.512928745179758e+01
 1.137027325179949e+00	 6.422597461442794e-01	 1.500915299647420e+01
 1.130826155583594e+00	 6.531163185614137e-01	 1.488050788809776e+01
 1.124513310858504e+00	 6.639266024382730e-01	 1.474447503686338e+01
 1.118089261825815e+00	 6.746889078034326e-01	 1.460229056341140e+01
 1.182579146882251e+00	 5.676558860417665e-01	 1.567774302902499e+01
 1.177145705582165e+00	 5.788390375813317e-01	 1.556360157527093e+01
 1.171597717402446e+00	 5.899876542572688e-01	 1.548167630842849e+01
 1.165935420297245e+00	 6.011000243677436e-01	 1.540348697180846e+01
 1.160159085526518e+00	 6.121744358178398e-01	 1.531418903470288e+01
 1.154269017781549e+00	 6.232091769127229e-01	 1.521443063142836e+01
 1.148265555288263e+00	 6.342025371576118e-01	 1.510496005745217e+01
 1.142149069887966e+00	 6.451528080638480e-01	 1.498662865646504e+01
 1.135919967095231e+00	 6.560582839603386e-01	 1.486039342818015e+01
 1.129578686132642e+00	 6.669172628096163e-01	 1.472731933064339e+01
 1.123125699942147e+00	 6.777280470277725e-01	 1.458858125176302e+01
 1.187882192383965e+00	 5.702014281316398e-01	 1.564231750580875e+01
 1.182424385876256e+00	 5.814347283328174e-01	 1.553325035625507e+01
 1.176851518825775e+00	 5.926333388055077e-01	 1.545579519819923e+01
 1.171163830253735e+00	 6.037955401720830e-01	 1.537687249203345e+01
 1.165361592636502e+00	 6.149196126600722e-01	 1.528761362347443e+01
 1.159445112031691e+00	 6.260038368988785e-01	 1.518861016559902e+01
 1.153414728181933e+00	 6.370464947233406e-01	 1.508055530817442e+01
 1.147270814595984e+00	 6.480458699834173e-01	 1.496424165949703e+01
 1.141013778606869e+00	 6.590002493592639e-01	 1.484056400064260e+01
 1.134644061406779e+00	 6.699079231809602e-01	 1.471052173499210e+01
 1.128162138058479e+00	 6.807671862521120e-01	 1.457522100696486e+01
 1.193185237885680e+00	 5.727469702215136e-01	 1.560883805977617e+01
 1.187703066170346e+00	 5.840304190843029e-01	 1.550528005756573e+01
 1.182105320249104e+00	 5.952790233537466e-01	 1.542940953820247e+01
 1.176392240210225e+00	 6.064910559764227e-01	 1.534902135710759e+01
 1.170564099746486e+00	 6.176647895023046e-01	 1.526017188389474e+01
 1.164621206281832e+00	 6.287984968850343e-01	 1.516225095542629e+01
 1.158563901075602e+00	 6.398904522890703e-01	 1.505588893017335e+01
 1.152392559304002e+00	 6.509389319029857e-01	 1.494181200505573e+01
 1.146107590118507e+00	 6.619422147581895e-01	 1.482084513034089e+01
 1.139709436680916e+00	 6.728985835523036e-01	 1.469391462052140e+01
 1.133198576174812e+00	 6.838063254764518e-01	 1.456205043430476e+01
 1.198488283387394e+00	 5.752925123113868e-01	 1.557714622785942e+01
 1.192981746464437e+00	 5.866261098357890e-01	 1.547952317485178e+01
 1.187359121672434e+00	 5.979247079019856e-01	 1.540320354560446e+01
 1.181620650166715e+00	 6.091865717807626e-01	 1.532066488428254e+01
 1.175766606856470e+00	 6.204099663445370e-01	 1.523167599147267e+01
 1.169797300531973e+00	 6.315931568711900e-01	 1.513516729308671e+01
 1.163713073969271e+00	 6.427344098547991e-01	 1.503077842690648e+01
 1.157514304012020e+00	 6.538319938225549e-01	 1.491916156833575e+01
 1.151201401630145e+00	 6.648841801571145e-01	 1.480106429074378e+01
 1.144774811955054e+00	 6.758892439236474e-01	 1.467733235184981e+01
 1.138235014291144e+00	 6.868454647007916e-01	 1.454891214902563e+01
 1.203791328889108e+00	 5.778380544012601e-01	 1.554708468055873e+01
 1.198260426758527e+00	 5.892218005872745e-01	 1.545564436649270e+01
 1.192612923095763e+00	 6.005703924502244e-01	 1.537701400592183e+01
 1.186849060123204e+00	 6.118820875851019e-01	 1.529260914140153e+01
 1.180969113966455e+00	 6.231551431867697e-01	 1.520261247419301e+01
 1.174973394782115e+00	 6.343878168573458e-01	 1.510717518366393e+01
 1.168862246862941e+00	 6.455783674205283e-01	 1.500504313820372e+01
 1.162636048720037e+00	 6.567250557421236e-01	 1.489611416119463e+01
 1.156295213141783e+00	 6.678261455560399e-01	 1.478105096715785e+01
 1.149840187229191e+00	 6.788799042949909e-01	 1.466061135356690e+01
 1.143271452407477e+00	 6.898846039251313e-01	 1.453565084553327e+01
 1.209094374390821e+00	 5.803835964911335e-01	 1.551849727335208e+01
 1.203539107052618e+00	 5.918174913387605e-01	 1.543175988714096e+01
 1.197866724519092e+00	 6.032160769984634e-01	 1.535068378676933e+01
 1.192077470079694e+00	 6.145776033894416e-01	 1.526469785161911e+01
 1.186171621076439e+00	 6.259003200290021e-01	 1.517392504322457e+01
 1.180149489032256e+00	 6.371824768435015e-01	 1.507852281968636e+01
 1.174011419756610e+00	 6.484223249862575e-01	 1.497850429957332e+01
 1.167757793428055e+00	 6.596181176616924e-01	 1.487249559327874e+01
 1.161389024653420e+00	 6.707681109549651e-01	 1.476063672009533e+01
 1.154905562503329e+00	 6.818705646663340e-01	 1.464359017629979e+01
 1.148307890523809e+00	 6.929237431494710e-01	 1.452211336664978e+01
 1.214397419892536e+00	 5.829291385810068e-01	 1.549122909815875e+01
 1.208817787346707e+00	 5.944131820902461e-01	 1.540726815254839e+01
 1.203120525942422e+00	 6.058617615467020e-01	 1.532406176544362e+01
 1.197305880036184e+00	 6.172731191937811e-01	 1.523678060626570e+01
 1.191374128186424e+00	 6.286454968712343e-01	 1.514548111403841e+01
 1.185325583282398e+00	 6.399771368296572e-01	 1.505024941577123e+01
 1.179160592650280e+00	 6.512662825519868e-01	 1.495120480363965e+01
 1.172879538136073e+00	 6.625111795812609e-01	 1.484813373331344e+01
 1.166482836165058e+00	 6.737100763538904e-01	 1.473965524878005e+01
 1.159970937777466e+00	 6.848612250376777e-01	 1.462610956287869e+01
 1.153344328640142e+00	 6.959628823738108e-01	 1.450814877291215e+01
 1.219700465394250e+00	 5.854746806708804e-01	 1.546512653485566e+01
 1.214096467640798e+00	 5.970088728417322e-01	 1.538202381856981e+01
 1.208374327365751e+00	 6.085074460949410e-01	 1.529700275663282e+01
 1.202534289992674e+00	 6.199686349981209e-01	 1.520871300212965e+01
 1.196576635296408e+00	 6.313906737134668e-01	 1.511713777274848e+01
 1.190501677532539e+00	 6.427717968158129e-01	 1.502228516138887e+01
 1.184309765543949e+00	 6.541102401177161e-01	 1.492419174038561e+01
 1.178001282844091e+00	 6.654042415008302e-01	 1.482292633969218e+01
 1.171576647676696e+00	 6.766520417528159e-01	 1.471794245478807e+01
 1.165036313051603e+00	 6.878518854090213e-01	 1.460801251459732e+01
 1.158380766756475e+00	 6.990020215981507e-01	 1.449360841191368e+01
 1.108016385593150e+00	 6.686106293547529e-01	 1.463140360096826e+01
 1.101540508242231e+00	 6.792267612002001e-01	 1.447899422190969e+01
 1.094955461308698e+00	 6.897920137108882e-01	 1.432645498673913e+01
 1.088261811002625e+00	 7.003047302013254e-01	 1.417380870797695e+01
 1.081460156609935e+00	 7.107632616379949e-01	 1.402113712723695e+01
 1.074551130385510e+00	 7.211659674556807e-01	 1.386858239906509e+01
 1.067535397422364e+00	 7.315112163728865e-01	 1.371634823404099e+01
 1.060413655496810e+00	 7.417973872055357e-01	 1.356470068637336e+01
 1.053186634889627e+00	 7.520228696781303e-01	 1.341396857307508e+01
 1.045855098183258e+00	 7.621860652315509e-01	 1.326454351377404e+01
 1.038419840035072e+00	 7.722853878266773e-01	 1.311687958228316e+01
 1.113052823709482e+00	 6.716497685790926e-01	 1.461651027741667e+01
 1.106547510552423e+00	 6.823141555692920e-01	 1.446786026142732e+01
 1.099932531587374e+00	 6.929274319550285e-01	 1.431897405858719e+01
 1.093208455598092e+00	 7.034879335204224e-01	 1.416984173212382e+01
 1.086375884594526e+00	 7.139940037363495e-01	 1.402051463319339e+01
 1.079435453705445e+00	 7.244439945804791e-01	 1.387110700103160e+01
 1.072387831047012e+00	 7.348362673563997e-01	 1.372179721171891e+01
 1.065233717567249e+00	 7.451691935110154e-01	 1.357282866020583e+01
 1.057973846866398e+00	 7.554411554493942e-01	 1.342451026214676e+01
 1.050608984993182e+00	 7.656505473462395e-01	 1.327721656411819e+01
 1.043139930217050e+00	 7.757957759531621e-01	 1.313138745292526e+01
 1.118089261825815e+00	 6.746889078034326e-01	 1.460229056341140e+01
 1.111554512862615e+00	 6.854015499383838e-01	 1.445731625313159e+01
 1.104909601866050e+00	 6.960628501991691e-01	 1.431197722455035e+01
 1.098155100193559e+00	 7.066711368395194e-01	 1.416623699986220e+01
 1.091291612579116e+00	 7.172247458347042e-01	 1.402012278927726e+01
 1.084319777025379e+00	 7.277220217052777e-01	 1.387372720072232e+01
 1.077240264671659e+00	 7.381613183399128e-01	 1.372720958721086e+01
 1.070053779637690e+00	 7.485409998164951e-01	 1.358079701593741e+01
 1.062761058843168e+00	 7.588594412206585e-01	 1.343478484511523e+01
 1.055362871803106e+00	 7.691150294609282e-01	 1.328953689665172e+01
 1.047860020399027e+00	 7.793061640796471e-01	 1.314548521495715e+01
 1.123125699942147e+00	 6.777280470277725e-01	 1.458858125176302e+01
 1.116561515172807e+00	 6.884889443074754e-01	 1.444720776652685e+01
 1.109886672144726e+00	 6.991982684433093e-01	 1.430531838690736e+01
 1.103101744789025e+00	 7.098543401586160e-01	 1.416285619205959e+01
 1.096207340563707e+00	 7.204554879330584e-01	 1.401983039160736e+01
 1.089204100345313e+00	 7.310000488300760e-01	 1.387631813826813e+01
 1.082092698296306e+00	 7.414863693234258e-01	 1.373246596689645e+01
 1.074873841708130e+00	 7.519128061219752e-01	 1.358849084341266e+01
 1.067548270819940e+00	 7.622777269919229e-01	 1.344468080910577e+01
 1.060116758613029e+00	 7.725795115756172e-01	 1.330139520793454e+01
 1.052580110581004e+00	 7.828165522061320e-01	 1.315906448670848e+01
 1.128162138058479e+00	 6.807671862521120e-01	 1.457522100696486e+01
 1.121568517482999e+00	 6.915763386765672e-01	 1.443738223672434e+01
 1.114863742423401e+00	 7.023336866874497e-01	 1.429885330945722e+01
 1.108048389384491e+00	 7.130375434777132e-01	 1.415956285036160e+01
 1.101123068548298e+00	 7.236862300314130e-01	 1.401950810105602e+01
 1.094088423665247e+00	 7.342780759548748e-01	 1.387875682863549e+01
 1.086945131920953e+00	 7.448114203069388e-01	 1.373744884958284e+01
 1.079693903778570e+00	 7.552846124274545e-01	 1.359579715142160e+01
 1.072335482796711e+00	 7.656960127631871e-01	 1.345408859706658e+01
 1.064870645422954e+00	 7.760439936903061e-01	 1.331268419902770e+01
 1.057300200762982e+00	 7.863269403326170e-01	 1.317201895294647e+01
 1.133198576174812e+00	 6.838063254764518e-01	 1.456205043430476e+01
 1.126575519793191e+00	 6.946637330456591e-01	 1.442768903710255e+01
 1.119840812702078e+00	 7.054691049315901e-01	 1.429243969352087e+01
 1.112995033979958e+00	 7.162207467968101e-01	 1.415622245629053e+01
 1.106038796532888e+00	 7.269169721297677e-01	 1.401902852516324e+01
 1.098972746985181e+00	 7.375561030796732e-01	 1.388092224603331e+01
 1.091797565545600e+00	 7.481364712904522e-01	 1.374204271304447e+01
 1.084513965849010e+00	 7.586564187329344e-01	 1.360260495597704e+01
 1.077122694773482e+00	 7.691142985344512e-01	 1.346290069734607e+01
 1.069624532232877e+00	 7.795084758049948e-01	 1.332329866590130e+01
 1.062020290944960e+00	 7.898373284591018e-01	 1.318424445560570e+01
 1.138235014291144e+00	 6.868454647007916e-01	 1.454891214902563e+01
 1.131582522103383e+00	 6.977511274147509e-01	 1.441797955195021e+01
 1.124817882980754e+00	 7.086045231757306e-01	 1.428593725386394e+01
 1.117941678575424e+00	 7.194039501159069e-01	 1.415270251020956e+01
 1.110954524517479e+00	 7.301477142281222e-01	 1.401826629986204e+01
 1.103857070305115e+00	 7.408341302044718e-01	 1.388269540808703e+01
 1.096649999170247e+00	 7.514615222739649e-01	 1.374613410029401e+01
 1.089334027919450e+00	 7.620282250384141e-01	 1.360880536829248e+01
 1.081909906750253e+00	 7.725325843057155e-01	 1.347101173295578e+01
 1.074378419042802e+00	 7.829729579196837e-01	 1.333313558951994e+01
 1.066740381126937e+00	 7.933477165855867e-01	 1.319563908419885e+01
 1.143271452407477e+00	 6.898846039251313e-01	 1.453565084553328e+01
 1.136589524413575e+00	 7.008385217838429e-01	 1.440810724909223e+01
 1.129794953259429e+00	 7.117399414198707e-01	 1.427920779454342e+01
 1.122888323170891e+00	 7.225871534350041e-01	 1.414887261015291e+01
 1.115870252502069e+00	 7.333784563264767e-01	 1.401709817102275e+01
 1.108741393625049e+00	 7.441121573292706e-01	 1.388395945978758e+01
 1.101502432794894e+00	 7.547865732574782e-01	 1.374961170559238e+01
 1.094154089989890e+00	 7.654000313438937e-01	 1.361429168247477e+01
 1.086697118727024e+00	 7.759508700769796e-01	 1.347831855052797e+01
 1.079132305852725e+00	 7.864374400343725e-01	 1.334209422561486e+01
 1.071460471308915e+00	 7.968581047120715e-01	 1.320610326591915e+01
 1.148307890523809e+00	 6.929237431494710e-01	 1.452211336664978e+01
 1.141596526723766e+00	 7.039259161529348e-01	 1.439792775250034e+01
 1.134772023538105e+00	 7.148753596640111e-01	 1.427211528467939e+01
 1.127834967766357e+00	 7.257703567541008e-01	 1.414460453052890e+01
 1.120785980486660e+00	 7.366091984248313e-01	 1.401540307582057e+01
 1.113625716944983e+00	 7.473901844540689e-01	 1.388459975722228e+01
 1.106354866419542e+00	 7.581116242409915e-01	 1.375236646020661e+01
 1.098974152060330e+00	 7.687718376493734e-01	 1.361895946293561e+01
 1.091484330703795e+00	 7.793691558482441e-01	 1.348472030897594e+01
 1.083886192662649e+00	 7.899019221490615e-01	 1.335007619415249e+01
 1.076180561490893e+00	 8.003684928385565e-01	 1.321553985544157e+01
 1.153344328640142e+00	 6.959628823738108e-01	 1.450814877291215e+01
 1.146603529033958e+00	 7.070133105220262e-01	 1.438729891488747e+01
 1.139749093816781e+00	 7.180107779081517e-01	 1.426452593415483e+01
 1.132781612361824e+00	 7.289535600731977e-01	 1.413977230069892e+01
 1.125701708471250e+00	 7.398399405231854e-01	 1.401306222393257e+01
 1.118510040264918e+00	 7.506682115788673e-01	 1.388450395109489e+01
 1.111207300044188e+00	 7.614366752245045e-01	 1.375429161792170e+01
 1.103794214130770e+00	 7.721436439548530e-01	 1.362270663153349e+01
 1.096271542680566e+00	 7.827874416195080e-01	 1.349011856786777e+01
 1.088640079472573e+00	 7.933664042637503e-01	 1.335698556850960e+01
 1.080900651672870e+00	 8.038788809650413e-01	 1.322385422443499e+01
 1.158380766756475e+00	 6.990020215981507e-01	 1.449360841191368e+01
 1.151610531344150e+00	 7.101007048911181e-01	 1.437608089028796e+01
 1.144726164095457e+00	 7.211461961522920e-01	 1.425630826924539e+01
 1.137728256957290e+00	 7.321367633922947e-01	 1.413425228343562e+01
 1.130617436455841e+00	 7.430706826215402e-01	 1.400995917856858e+01
 1.123394363584852e+00	 7.539462387036662e-01	 1.388356207003909e+01
 1.116059733668836e+00	 7.647617262080175e-01	 1.375528284031632e+01
 1.108614276201210e+00	 7.755154502603329e-01	 1.362543355445380e+01
 1.101058754657337e+00	 7.862057273907724e-01	 1.349441737552233e+01
 1.093393966282497e+00	 7.968308863784391e-01	 1.336272896436269e+01
 1.085620741854848e+00	 8.073892690915262e-01	 1.323095435079221e+01
 1.038419840035072e+00	 7.722853878266773e-01	 1.311687958228316e+01
 1.030881686926792e+00	 7.823192647430056e-01	 1.296550222975189e+01
 1.023241496890207e+00	 7.922861373714396e-01	 1.280558236619626e+01
 1.015500159209306e+00	 8.021844620004428e-01	 1.263865372178524e+01
 1.007658594099042e+00	 8.120127105947348e-01	 1.246633434567822e+01
 9.997177523609072e-01	 8.217693715657217e-01	 1.229032325007983e+01
 9.916786150155994e-01	 8.314529505328658e-01	 1.211239662161486e+01
 9.835421929130328e-01	 8.410619710751926e-01	 1.193440360893065e+01
 9.753095263200183e-01	 8.505949754721617e-01	 1.175826169792097e+01
 9.669816844859457e-01	 8.600505254331220e-01	 1.158595168842178e+01
 9.585597651868416e-01	 8.694272028145965e-01	 1.141951228864393e+01
 1.043139930217050e+00	 7.757957759531621e-01	 1.313138745292526e+01
 1.035567512776459e+00	 7.858752614009281e-01	 1.298167345565954e+01
 1.027892594603344e+00	 7.958874379958553e-01	 1.282338843233136e+01
 1.020116069023894e+00	 8.058307550095355e-01	 1.265808273709484e+01
 1.012238860435856e+00	 8.157036774610744e-01	 1.248739342230210e+01
 1.004261923962548e+00	 8.255046868910204e-01	 1.231304083349901e+01
 9.961862450838523e-01	 8.352322821261975e-01	 1.213682475858615e+01
 9.880128392444557e-01	 8.448849800346256e-01	 1.196062014017621e+01
 9.797427514396548e-01	 8.544613162697623e-01	 1.178637236275095e+01
 9.713770557790635e-01	 8.639598460032721e-01	 1.161609212873720e+01
 9.629168550285997e-01	 8.733791446455719e-01	 1.145184994011206e+01
 1.047860020399027e+00	 7.793061640796471e-01	 1.314548521495715e+01
 1.040253338626127e+00	 7.894312580588512e-01	 1.299740627023330e+01
 1.032543692316481e+00	 7.994887386202706e-01	 1.284074994680783e+01
 1.024731978838482e+00	 8.094770480186286e-01	 1.267707784828512e+01
 1.016819126772669e+00	 8.193946443274142e-01	 1.250804063202810e+01
 1.008806095564188e+00	 8.292400022163197e-01	 1.233537456201018e+01
 1.000693875152105e+00	 8.390116137195286e-01	 1.216089760248974e+01
 9.924834855758786e-01	 8.487079889940585e-01	 1.198650506166224e+01
 9.841759765592912e-01	 8.583276570673632e-01	 1.181416479708141e+01
 9.757724270721815e-01	 8.678691665734228e-01	 1.164591199723570e+01
 9.672739448703581e-01	 8.773310864765472e-01	 1.148384355623034e+01
 1.052580110581004e+00	 7.828165522061320e-01	 1.315906448670849e+01
 1.044939164475794e+00	 7.929872547167738e-01	 1.301259196519575e+01
 1.037194790029618e+00	 8.030900392446865e-01	 1.285755677231986e+01
 1.029347888653069e+00	 8.131233410277212e-01	 1.269552644988711e+01
 1.021399393109483e+00	 8.230856111937542e-01	 1.252815992755121e+01
 1.013350267165829e+00	 8.329753175416182e-01	 1.235720404038739e+01
 1.005201505220358e+00	 8.427909453128596e-01	 1.218448957376113e+01
 9.969541319073015e-01	 8.525309979534907e-01	 1.201192684474695e+01
 9.886092016789277e-01	 8.621939978649638e-01	 1.184150083207927e+01
 9.801677983652994e-01	 8.717784871435733e-01	 1.167526586927628e+01
 9.716310347121166e-01	 8.812830283075226e-01	 1.151533991821949e+01
 1.057300200762982e+00	 7.863269403326170e-01	 1.317201895294647e+01
 1.049624990325461e+00	 7.965432513746966e-01	 1.302712397291926e+01
 1.041845887742755e+00	 8.066913398691018e-01	 1.287370099586061e+01
 1.033963798467657e+00	 8.167696340368144e-01	 1.271331825249876e+01
 1.025979659446297e+00	 8.267765780600935e-01	 1.254763767621089e+01
 1.017894438767469e+00	 8.367106328669166e-01	 1.237841139214355e+01
 1.009709135288610e+00	 8.465702769061907e-01	 1.220747771989502e+01
 1.001424778238724e+00	 8.563540069129234e-01	 1.203675669911996e+01
 9.930424267985641e-01	 8.660603386625647e-01	 1.186824515020592e+01
 9.845631696584174e-01	 8.756878077137239e-01	 1.170401128491712e+01
 9.759881245538750e-01	 8.852349701384978e-01	 1.154618888461148e+01
 1.062020290944960e+00	 7.898373284591018e-01	 1.318424445560570e+01
 1.054310816175128e+00	 8.000992480326191e-01	 1.304089795698766e+01
 1.046496985455893e+00	 8.102926404935177e-01	 1.288907701868326e+01
 1.038579708282245e+00	 8.204159270459073e-01	 1.273034537174256e+01
 1.030559925783111e+00	 8.304675449264330e-01	 1.256636274757291e+01
 1.022438610369110e+00	 8.404459481922156e-01	 1.239888134538253e+01
 1.014216765356863e+00	 8.503496084995220e-01	 1.222974179924917e+01
 1.005895424570147e+00	 8.601770158723564e-01	 1.206086865426681e+01
 9.974756519182004e-01	 8.699266794601653e-01	 1.189426536407792e+01
 9.889585409515349e-01	 8.795971282838743e-01	 1.173200882493793e+01
 9.803452143956330e-01	 8.891869119694734e-01	 1.157624346422808e+01
 1.066740381126937e+00	 7.933477165855867e-01	 1.319563908419884e+01
 1.058996642024796e+00	 8.036552446905423e-01	 1.305381190245303e+01
 1.051148083169030e+00	 8.138939411179332e-01	 1.290358164598446e+01
 1.043195618096833e+00	 8.240622200550001e-01	 1.274650241698017e+01
 1.035140192119925e+00	 8.341585117927731e-01	 1.258422660080421e+01
 1.026982781970750e+00	 8.441812635175141e-01	 1.241850131849590e+01
 1.018724395425116e+00	 8.541289400928528e-01	 1.225116436474833e+01
 1.010366070901570e+00	 8.640000248317891e-01	 1.208413964089216e+01
 1.001908877037837e+00	 8.737930202577660e-01	 1.191943209535253e+01
 9.933539122446533e-01	 8.835064488540251e-01	 1.175912218695759e+01
 9.847023042373918e-01	 8.931388538004490e-01	 1.160535988933093e+01
 1.071460471308915e+00	 7.968581047120715e-01	 1.320610326591915e+01
 1.063682467874463e+00	 8.072112413484649e-01	 1.306576620579920e+01
 1.055799180882167e+00	 8.174952417423488e-01	 1.291711417631637e+01
 1.047811527911420e+00	 8.277085130640932e-01	 1.276168657978775e+01
 1.039720458456738e+00	 8.378494786591125e-01	 1.260112337185097e+01
 1.031526953572391e+00	 8.479165788428130e-01	 1.243716150570944e+01
 1.023232025493368e+00	 8.579082716861842e-01	 1.227163084749001e+01
 1.014836717232993e+00	 8.678230337912216e-01	 1.210644957230575e+01
 1.006342102157473e+00	 8.776593610553667e-01	 1.194361905363860e+01
 9.977492835377714e-01	 8.874157694241757e-01	 1.178521826164570e+01
 9.890593940791497e-01	 8.970907956314241e-01	 1.163339768893412e+01
 1.076180561490893e+00	 8.003684928385565e-01	 1.321553985544157e+01
 1.068368293724130e+00	 8.107672380063875e-01	 1.307666376461840e+01
 1.060450278595305e+00	 8.210965423667645e-01	 1.292957649073637e+01
 1.052427437726008e+00	 8.313548060731860e-01	 1.277579772219928e+01
 1.044300724793552e+00	 8.415404455254519e-01	 1.261694996042367e+01
 1.036071125174031e+00	 8.516518941681117e-01	 1.245475496248084e+01
 1.027739655561621e+00	 8.616876032795153e-01	 1.229102964025524e+01
 1.019307363564416e+00	 8.716460427506542e-01	 1.212768142576983e+01
 1.010775327277110e+00	 8.815257018529674e-01	 1.196670311543239e+01
 1.002144654830889e+00	 8.913250899943261e-01	 1.181016720902426e+01
 9.934164839209084e-01	 9.010427374623998e-01	 1.166021976227910e+01
 1.080900651672870e+00	 8.038788809650413e-01	 1.322385422443499e+01
 1.073054119573797e+00	 8.143232346643102e-01	 1.308641006701202e+01
 1.065101376308442e+00	 8.246978429911800e-01	 1.294087314170240e+01
 1.057043347540596e+00	 8.350010990822790e-01	 1.278873846472691e+01
 1.048880991130366e+00	 8.452314123917918e-01	 1.263160611679613e+01
 1.040615296775671e+00	 8.553872094934105e-01	 1.247117769075735e+01
 1.032247285629874e+00	 8.654669348728469e-01	 1.230925218092746e+01
 1.023778009895838e+00	 8.754690517100869e-01	 1.214772132381010e+01
 1.015208552396746e+00	 8.853920426505683e-01	 1.198856440307764e+01
 1.006540026124007e+00	 8.952344105644764e-01	 1.183384253485783e+01
 9.977735737626667e-01	 9.049946792933753e-01	 1.168569245246290e+01
 1.085620741854848e+00	 8.073892690915262e-01	 1.323095435079220e+01
 1.077739945423465e+00	 8.178792313222331e-01	 1.309491328072271e+01
 1.069752474021580e+00	 8.282991436155959e-01	 1.295091144172121e+01
 1.061659257355183e+00	 8.386473920913718e-01	 1.280041427416283e+01
 1.053461257467180e+00	 8.489223792581317e-01	 1.264499452842264e+01
 1.045159468377312e+00	 8.591225248187093e-01	 1.248632872409394e+01
 1.036754915698127e+00	 8.692462664661780e-01	 1.232619303582319e+01
 1.028248656227261e+00	 8.792920606695196e-01	 1.216645861549165e+01
 1.019641777516383e+00	 8.892583834481691e-01	 1.200908636374690e+01
 1.010935397417125e+00	 8.991437311346269e-01	 1.185612116712805e+01
 1.002130663604425e+00	 9.089466211243505e-01	 1.170968562021682e+01
 9.585597651868416e-01	 8.694272028145965e-01	 1.141951228864393e+01
 9.500448942482035e-01	 8.787236103246489e-01	 1.125258971543868e+01
 9.414382250470398e-01	 8.879383722136041e-01	 1.107851758197795e+01
 9.327409379935714e-01	 8.970701349504052e-01	 1.089891785008567e+01
 9.239542399930897e-01	 9.061175678839130e-01	 1.071542408250802e+01
 9.150793638884736e-01	 9.150793638884734e-01	 1.052967549706973e+01
 9.061175678839135e-01	 9.239542399930899e-01	 1.034331081680941e+01
 8.970701349504054e-01	 9.327409379935715e-01	 1.015796194482369e+01
 8.879383722136045e-01	 9.414382250470396e-01	 9.975247493988725e+00
 8.787236103246494e-01	 9.500448942482036e-01	 9.796766203004424e+00
 8.694272028145962e-01	 9.585597651868416e-01	 9.624090271305949e+00
 9.629168550285997e-01	 8.733791446455719e-01	 1.145184994011206e+01
 9.543632801311500e-01	 8.827178085533972e-01	 1.128714240766980e+01
 9.457174897063442e-01	 8.919744557236662e-01	 1.111513212135856e+01
 9.369806695299061e-01	 9.011477264729071e-01	 1.093744231476545e+01
 9.281540319930583e-01	 9.102362841015674e-01	 1.075570808551013e+01
 9.192388155425120e-01	 9.192388155425117e-01	 1.057157034022060e+01
 9.102362841015672e-01	 9.281540319930579e-01	 1.038666952833466e+01
 9.011477264729073e-01	 9.369806695299058e-01	 1.020263919413667e+01
 8.919744557236663e-01	 9.457174897063443e-01	 1.002109937792927e+01
 8.827178085533974e-01	 9.543632801311499e-01	 9.843649898557981e+00
 8.733791446455715e-01	 9.629168550285997e-01	 9.671863550638113e+00
 9.672739448703581e-01	 8.773310864765472e-01	 1.148384355623034e+01
 9.586816660140963e-01	 8.867120067821457e-01	 1.132129734531128e+01
 9.499967543656493e-01	 8.960105392337282e-01	 1.115126451011581e+01
 9.412204010662401e-01	 9.052253179954087e-01	 1.097537748020354e+01
 9.323538239930269e-01	 9.143550003192213e-01	 1.079528112523951e+01
 9.233982671965507e-01	 9.233982671965506e-01	 1.061262657704678e+01
 9.143550003192215e-01	 9.323538239930268e-01	 1.042906483271699e+01
 9.052253179954088e-01	 9.412204010662397e-01	 1.024624016890230e+01
 8.960105392337283e-01	 9.499967543656492e-01	 1.006578339895412e+01
 8.867120067821459e-01	 9.586816660140965e-01	 9.889305005933521e+00
 8.773310864765469e-01	 9.672739448703582e-01	 9.718388185693261e+00
 9.716310347121166e-01	 8.812830283075226e-01	 1.151533991821949e+01
 9.630000518970427e-01	 8.907062050108941e-01	 1.135489482892755e+01
 9.542760190249537e-01	 9.000466227437899e-01	 1.118675161938959e+01
 9.454601326025748e-01	 9.093029095179107e-01	 1.101255974591336e+01
 9.365536159929957e-01	 9.184737165368756e-01	 1.083398199274460e+01
 9.275577188505889e-01	 9.275577188505888e-01	 1.065268815748585e+01
 9.184737165368756e-01	 9.365536159929951e-01	 1.047034850918180e+01
 9.093029095179107e-01	 9.454601326025743e-01	 1.028862704994999e+01
 9.000466227437900e-01	 9.542760190249537e-01	 1.010917461262442e+01
 8.907062050108943e-01	 9.630000518970427e-01	 9.933621828276287e+00
 8.812830283075224e-01	 9.716310347121166e-01	 9.763571998708137e+00
 9.759881245538750e-01	 8.852349701384978e-01	 1.154618888461148e+01
 9.673184377799894e-01	 8.947004032396425e-01	 1.138777831533609e+01
 9.585552836842585e-01	 9.040827062538516e-01	 1.122143349104913e+01
 9.496998641389089e-01	 9.133805010404125e-01	 1.104882863409307e+01
 9.407534079929639e-01	 9.225924327545296e-01	 1.087165249320664e+01
 9.317171705046277e-01	 9.317171705046272e-01	 1.069160187861744e+01
 9.225924327545298e-01	 9.407534079929638e-01	 1.051037496079444e+01
 9.133805010404128e-01	 9.496998641389091e-01	 1.032966436452353e+01
 9.040827062538519e-01	 9.585552836842584e-01	 1.015115009160547e+01
 8.947004032396427e-01	 9.673184377799888e-01	 9.976492306933356e+00
 8.852349701384977e-01	 9.759881245538750e-01	 9.807324023963407e+00
 9.803452143956330e-01	 8.891869119694734e-01	 1.157624346422808e+01
 9.716368236629355e-01	 8.986946014683909e-01	 1.141979448807226e+01
 9.628345483435634e-01	 9.081187897639135e-01	 1.125515340685940e+01
 9.539395956752434e-01	 9.174580925629147e-01	 1.108402685867414e+01
 9.449531999929326e-01	 9.267111489721837e-01	 1.090813751600290e+01
 9.358766221586660e-01	 9.358766221586655e-01	 1.072921745683654e+01
 9.267111489721842e-01	 9.449531999929325e-01	 1.054900128980155e+01
 9.174580925629148e-01	 9.539395956752436e-01	 1.036921906579999e+01
 9.081187897639137e-01	 9.628345483435630e-01	 1.019158901033368e+01
 8.986946014683911e-01	 9.716368236629352e-01	 1.001781011219115e+01
 8.891869119694733e-01	 9.803452143956334e-01	 9.849554605475809e+00
 9.847023042373918e-01	 8.931388538004490e-01	 1.160535988933093e+01
 9.759552095458816e-01	 9.026887996971390e-01	 1.145079332808217e+01
 9.671138130028679e-01	 9.121548732739750e-01	 1.128775795790074e+01
 9.581793272115781e-01	 9.215356840854164e-01	 1.111800039460823e+01
 9.491529919929012e-01	 9.308298651898378e-01	 1.094328510496883e+01
 9.400360738127046e-01	 9.400360738127044e-01	 1.076538760015798e+01
 9.308298651898381e-01	 9.491529919929009e-01	 1.058608737299886e+01
 9.215356840854164e-01	 9.581793272115777e-01	 1.040716061230721e+01
 9.121548732739754e-01	 9.671138130028678e-01	 1.023037272942287e+01
 9.026887996971394e-01	 9.759552095458814e-01	 1.005747073357097e+01
 8.931388538004486e-01	 9.847023042373915e-01	 9.890175494038065e+00
 9.890593940791497e-01	 8.970907956314241e-01	 1.163339768893412e+01
 9.802735954288280e-01	 9.066829979258875e-01	 1.148062818463598e+01
 9.713930776621726e-01	 9.161909567840369e-01	 1.131909711423016e+01
 9.624190587479122e-01	 9.256132756079182e-01	 1.115059854739074e+01
 9.533527839928697e-01	 9.349485814074918e-01	 1.097694652885731e+01
 9.441955254667429e-01	 9.441955254667426e-01	 1.079996808064289e+01
 9.349485814074924e-01	 9.533527839928696e-01	 1.062149593712411e+01
 9.256132756079182e-01	 9.624190587479121e-01	 1.044336104723750e+01
 9.161909567840372e-01	 9.713930776621723e-01	 1.026738487981466e+01
 9.066829979258880e-01	 9.802735954288277e-01	 1.009537156969067e+01
 8.970907956314241e-01	 9.890593940791497e-01	 9.929099943621813e+00
 9.934164839209084e-01	 9.010427374623998e-01	 1.166021976227910e+01
 9.845919813117745e-01	 9.106771961546360e-01	 1.150915584645641e+01
 9.756723423214775e-01	 9.202270402940990e-01	 1.134902429478130e+01
 9.666587902842467e-01	 9.296908671304199e-01	 1.118167402281214e+01
 9.575525759928383e-01	 9.390672976251463e-01	 1.100897635198428e+01
 9.483549771207815e-01	 9.483549771207814e-01	 1.083281780694904e+01
 9.390672976251462e-01	 9.575525759928379e-01	 1.065509263427590e+01
 9.296908671304200e-01	 9.666587902842461e-01	 1.047769507766482e+01
 9.202270402940993e-01	 9.756723423214773e-01	 1.030251144668371e+01
 9.106771961546363e-01	 9.845919813117744e-01	 1.013141201770511e+01
 9.010427374623995e-01	 9.934164839209083e-01	 9.966242807164312e+00
 9.977735737626667e-01	 9.049946792933753e-01	 1.168569245246290e+01
 9.889103671947209e-01	 9.146713943833843e-01	 1.153623661305391e+01
 9.799516069807820e-01	 9.242631238041604e-01	 1.137739643749228e+01
 9.708985218205809e-01	 9.337684586529215e-01	 1.121108299692914e+01
 9.617523679928068e-01	 9.431860138428003e-01	 1.103923250505849e+01
 9.525144287748198e-01	 9.525144287748197e-01	 1.086379889699441e+01
 9.431860138428004e-01	 9.617523679928064e-01	 1.068674611735602e+01
 9.337684586529220e-01	 9.708985218205809e-01	 1.051004015366724e+01
 9.242631238041609e-01	 9.799516069807815e-01	 1.033564085310422e+01
 9.146713943833845e-01	 9.889103671947205e-01	 1.016549356234326e+01
 9.049946792933748e-01	 9.977735737626666e-01	 1.000152063175959e+01
 1.002130663604425e+00	 9.089466211243505e-01	 1.170968562021682e+01
 9.932287530776673e-01	 9.186655926121330e-01	 1.156173436626358e+01
 9.842308716400868e-01	 9.282992073142227e-01	 1.140407406965605e+01
 9.751382533569158e-01	 9.378460501754237e-01	 1.123868518624995e+01
 9.659521599927756e-01	 9.473047300604546e-01	 1.106757635618838e+01
 9.566738804288585e-01	 9.566738804288581e-01	 1.089277675073724e+01
 9.473047300604550e-01	 9.659521599927755e-01	 1.071632811553482e+01
 9.378460501754238e-01	 9.751382533569153e-01	 1.054027654735636e+01
 9.282992073142231e-01	 9.842308716400867e-01	 1.036666404348374e+01
 9.186655926121332e-01	 9.932287530776672e-01	 1.019751986454876e+01
 9.089466211243505e-01	 1.002130663604425e+00	 1.003485175326971e+01
 8.694272028145962e-01	 9.585597651868416e-01	 9.624090271305949e+00
 8.600505254331220e-01	 9.669816844859455e-01	 9.451385458833165e+00
 8.505949754721618e-01	 9.753095263200180e-01	 9.272908100880054e+00
 8.410619710751931e-01	 9.835421929130326e-01	 9.090302853347284e+00
 8.314529505328662e-01	 9.916786150155991e-01	 8.905156447324106e+00
 8.217693715657221e-01	 9.997177523609069e-01	 8.718991166479945e+00
 8.120127105947350e-01	 1.007658594099042e+00	 8.533258460836086e+00
 8.021844620004429e-01	 1.015500159209306e+00	 8.349332731508534e+00
 7.922861373714397e-01	 1.023241496890206e+00	 8.168505320488267e+00
 7.823192647430059e-01	 1.030881686926792e+00	 7.991978738817176e+00
 7.722853878266773e-01	 1.038419840035072e+00	 7.820861165597407e+00
 8.733791446455715e-01	 9.629168550285997e-01	 9.671863550638113e+00
 8.639598460032722e-01	 9.713770557790632e-01	 9.499861670133832e+00
 8.544613162697626e-01	 9.797427514396546e-01	 9.321893780029873e+00
 8.448849800346255e-01	 9.880128392444553e-01	 9.139661909956398e+00
 8.352322821261973e-01	 9.961862450838520e-01	 8.954811057025152e+00
 8.255046868910209e-01	 1.004261923962548e+00	 8.768922428306453e+00
 8.157036774610747e-01	 1.012238860435856e+00	 8.583506818500574e+00
 8.058307550095357e-01	 1.020116069023894e+00	 8.399998158475352e+00
 7.958874379958553e-01	 1.027892594603344e+00	 8.219747269830414e+00
 7.858752614009287e-01	 1.035567512776459e+00	 8.044015859922061e+00
 7.757957759531620e-01	 1.043139930217050e+00	 7.873970790861032e+00
 8.773310864765469e-01	 9.672739448703582e-01	 9.718388185693261e+00
 8.678691665734231e-01	 9.757724270721815e-01	 9.547126624909453e+00
 8.583276570673635e-01	 9.841759765592912e-01	 9.369763988468360e+00
 8.487079889940585e-01	 9.924834855758784e-01	 9.188045512541930e+00
 8.390116137195284e-01	 1.000693875152105e+00	 9.003659775517352e+00
 8.292400022163201e-01	 1.008806095564188e+00	 8.818231723999602e+00
 8.193946443274144e-01	 1.016819126772669e+00	 8.633315833409419e+00
 8.094770480186289e-01	 1.024731978838481e+00	 8.450389439921128e+00
 7.994887386202709e-01	 1.032543692316481e+00	 8.270846279966769e+00
 7.894312580588514e-01	 1.040253338626127e+00	 8.095990272806334e+00
 7.793061640796469e-01	 1.047860020399027e+00	 7.927029580717611e+00
 8.812830283075224e-01	 9.716310347121166e-01	 9.763571998708137e+00
 8.717784871435734e-01	 9.801677983652992e-01	 9.593103332337225e+00
 8.621939978649641e-01	 9.886092016789277e-01	 9.416450200613566e+00
 8.525309979534910e-01	 9.969541319073012e-01	 9.235387102071453e+00
 8.427909453128596e-01	 1.005201505220357e+00	 9.051631739743309e+00
 8.329753175416182e-01	 1.013350267165828e+00	 8.866837848860769e+00
 8.230856111937542e-01	 1.021399393109483e+00	 8.682588159136667e+00
 8.131233410277215e-01	 1.029347888653069e+00	 8.500387529429867e+00
 8.030900392446868e-01	 1.037194790029618e+00	 8.321656292068127e+00
 7.929872547167740e-01	 1.044939164475793e+00	 8.147723843367729e+00
 7.828165522061320e-01	 1.052580110581004e+00	 7.979822515936788e+00
 8.852349701384977e-01	 9.759881245538750e-01	 9.807324023963407e+00
 8.756878077137241e-01	 9.845631696584172e-01	 9.637715622992774e+00
 8.660603386625649e-01	 9.930424267985638e-01	 9.461884436115740e+00
 8.563540069129238e-01	 1.001424778238724e+00	 9.281620499680360e+00
 8.465702769061908e-01	 1.009709135288610e+00	 9.098656409401883e+00
 8.367106328669169e-01	 1.017894438767469e+00	 8.914659967668788e+00
 8.267765780600936e-01	 1.025979659446297e+00	 8.731226966001516e+00
 8.167696340368147e-01	 1.033963798467657e+00	 8.549874141494016e+00
 8.066913398691025e-01	 1.041845887742755e+00	 8.372032345552611e+00
 7.965432513746966e-01	 1.049624990325461e+00	 8.199039962492183e+00
 7.863269403326167e-01	 1.057300200762982e+00	 8.032136614581646e+00
 8.891869119694733e-01	 9.803452143956334e-01	 9.849554605475809e+00
 8.795971282838747e-01	 9.889585409515349e-01	 9.680888252546687e+00
 8.699266794601656e-01	 9.974756519182003e-01	 9.505999366862103e+00
 8.601770158723567e-01	 1.005895424570147e+00	 9.326680014371526e+00
 8.503496084995219e-01	 1.014216765356863e+00	 9.144663672813035e+00
 8.404459481922156e-01	 1.022438610369109e+00	 8.961617716273137e+00
 8.304675449264337e-01	 1.030559925783111e+00	 8.779136036039450e+00
 8.204159270459078e-01	 1.038579708282244e+00	 8.598731837601820e+00
 8.102926404935175e-01	 1.046496985455892e+00	 8.421830653127559e+00
 8.000992480326196e-01	 1.054310816175128e+00	 8.249763607974540e+00
 7.898373284591019e-01	 1.062020290944960e+00	 8.083760978834915e+00
 8.931388538004486e-01	 9.847023042373915e-01	 9.890175494038065e+00
 8.835064488540252e-01	 9.933539122446531e-01	 9.722547004621562e+00
 8.737930202577664e-01	 1.001908877037837e+00	 9.548728423022936e+00
 8.640000248317891e-01	 1.010366070901570e+00	 9.370500549706785e+00
 8.541289400928533e-01	 1.018724395425115e+00	 9.189583951798063e+00
 8.441812635175144e-01	 1.026982781970750e+00	 9.007631302282221e+00
 8.341585117927728e-01	 1.035140192119924e+00	 8.826219857210813e+00
 8.240622200550007e-01	 1.043195618096832e+00	 8.646844111768536e+00
 8.138939411179333e-01	 1.051148083169030e+00	 8.470908675529024e+00
 8.036552446905423e-01	 1.058996642024795e+00	 8.299721406456513e+00
 7.933477165855866e-01	 1.066740381126938e+00	 8.134486842203087e+00
 8.970907956314241e-01	 9.890593940791497e-01	 9.929099943621813e+00
 8.874157694241755e-01	 9.977492835377708e-01	 9.762618792832843e+00
 8.776593610553669e-01	 1.006342102157473e+00	 9.590005898174372e+00
 8.678230337912218e-01	 1.014836717232992e+00	 9.413017709531502e+00
 8.579082716861847e-01	 1.023232025493368e+00	 9.233348305603961e+00
 8.479165788428134e-01	 1.031526953572390e+00	 9.052621604877762e+00
 8.378494786591130e-01	 1.039720458456738e+00	 8.872383716874772e+00
 8.277085130640935e-01	 1.047811527911420e+00	 8.694095475524829e+00
 8.174952417423493e-01	 1.055799180882167e+00	 8.519125195976619e+00
 8.072112413484650e-01	 1.063682467874463e+00	 8.348741695371157e+00
 7.968581047120715e-01	 1.071460471308915e+00	 8.184107617086781e+00
 9.010427374623995e-01	 9.934164839209083e-01	 9.966242807164312e+00
 8.913250899943266e-01	 1.002144654830889e+00	 9.801031762040910e+00
 8.815257018529677e-01	 1.010775327277110e+00	 9.629767053520757e+00
 8.716460427506545e-01	 1.019307363564416e+00	 9.454167902751408e+00
 8.616876032795158e-01	 1.027739655561621e+00	 9.275888533902474e+00
 8.516518941681118e-01	 1.036071125174031e+00	 9.096510273780215e+00
 8.415404455254526e-01	 1.044300724793552e+00	 8.917533794548847e+00
 8.313548060731862e-01	 1.052427437726008e+00	 8.740371542385322e+00
 8.210965423667647e-01	 1.060450278595304e+00	 8.566340394342159e+00
 8.107672380063878e-01	 1.068368293724130e+00	 8.396654584907562e+00
 8.003684928385564e-01	 1.076180561490893e+00	 8.232418942706310e+00
 9.049946792933748e-01	 9.977735737626666e-01	 1.000152063175959e+01
 8.952344105644767e-01	 1.006540026124007e+00	 9.837715388836088e+00
 8.853920426505687e-01	 1.015208552396746e+00	 9.667948221245442e+00
 8.754690517100870e-01	 1.023778009895838e+00	 9.493888447199414e+00
 8.654669348728469e-01	 1.032247285629873e+00	 9.317137278894915e+00
 8.553872094934107e-01	 1.040615296775671e+00	 9.139219827391987e+00
 8.452314123917922e-01	 1.048880991130366e+00	 8.961577253977598e+00
 8.350010990822792e-01	 1.057043347540595e+00	 8.785559111806487e+00
 8.246978429911803e-01	 1.065101376308442e+00	 8.612415921049902e+00
 8.143232346643103e-01	 1.073054119573797e+00	 8.443292019982634e+00
 8.038788809650412e-01	 1.080900651672870e+00	 8.279218733369742e+00
 9.089466211243505e-01	 1.002130663604425e+00	 1.003485175326971e+01
 8.991437311346276e-01	 1.010935397417125e+00	 9.872600581281919e+00
 8.892583834481693e-01	 1.019641777516383e+00	 9.704486907020451e+00
 8.792920606695199e-01	 1.028248656227261e+00	 9.532117672614145e+00
 8.692462664661782e-01	 1.036754915698126e+00	 9.357028126543600e+00
 8.591225248187095e-01	 1.045159468377312e+00	 9.180673750145182e+00
 8.489223792581323e-01	 1.053461257467180e+00	 9.004422334529767e+00
 8.386473920913724e-01	 1.061659257355183e+00	 8.829546252652559e+00
 8.282991436155962e-01	 1.069752474021579e+00	 8.657214970711840e+00
 8.178792313222335e-01	 1.077739945423464e+00	 8.488487842228194e+00
 8.073892690915262e-01	 1.085620741854848e+00	 8.324307227078311e+00
 7.722853878266773e-01	 1.038419840035072e+00	 7.820861165597407e+00
 7.621860652315507e-01	 1.045855098183258e+00	 7.651630833092538e+00
 7.520228696781303e-01	 1.053186634889627e+00	 7.480572616515548e+00
 7.417973872055359e-01	 1.060413655496809e+00	 7.308347085507362e+00
 7.315112163728869e-01	 1.067535397422365e+00	 7.135500328707662e+00
 7.211659674556805e-01	 1.074551130385510e+00	 6.962460655903149e+00
 7.107632616379952e-01	 1.081460156609935e+00	 6.789535736754448e+00
 7.003047302013257e-01	 1.088261811002626e+00	 6.616910196431858e+00
 6.897920137108884e-01	 1.094955461308698e+00	 6.444643686290300e+00
 6.792267612002002e-01	 1.101540508242230e+00	 6.272669445396000e+00
 6.686106293547525e-01	 1.108016385593150e+00	 6.100793366317884e+00
 7.757957759531620e-01	 1.043139930217050e+00	 7.873970790861032e+00
 7.656505473462396e-01	 1.050608984993182e+00	 7.706072261982721e+00
 7.554411554493945e-01	 1.057973846866398e+00	 7.536491334457271e+00
 7.451691935110155e-01	 1.065233717567249e+00	 7.365799048576879e+00
 7.348362673563998e-01	 1.072387831047011e+00	 7.194446624729325e+00
 7.244439945804791e-01	 1.079435453705444e+00	 7.022762201735722e+00
 7.139940037363496e-01	 1.086375884594525e+00	 6.850948024514789e+00
 7.034879335204223e-01	 1.093208455598092e+00	 6.679078101806203e+00
 6.929274319550288e-01	 1.099932531587374e+00	 6.507096352438440e+00
 6.823141555692920e-01	 1.106547510552423e+00	 6.334815256246284e+00
 6.716497685790925e-01	 1.113052823709482e+00	 6.161915023283155e+00
 7.793061640796469e-01	 1.047860020399027e+00	 7.927029580717611e+00
 7.691150294609282e-01	 1.055362871803106e+00	 7.760371865194156e+00
 7.588594412206586e-01	 1.062761058843168e+00	 7.592072240909099e+00
 7.485409998164955e-01	 1.070053779637690e+00	 7.422643725436352e+00
 7.381613183399127e-01	 1.077240264671658e+00	 7.252474957539653e+00
 7.277220217052777e-01	 1.084319777025379e+00	 7.081826918439820e+00
 7.172247458347042e-01	 1.091291612579116e+00	 6.910830114582964e+00
 7.066711368395194e-01	 1.098155100193559e+00	 6.739482243171937e+00
 6.960628501991690e-01	 1.104909601866050e+00	 6.567646359390486e+00
 6.854015499383839e-01	 1.111554512862615e+00	 6.395049561834126e+00
 6.746889078034322e-01	 1.118089261825814e+00	 6.221282210119469e+00
 7.828165522061320e-01	 1.052580110581004e+00	 7.979822515936788e+00
 7.725795115756170e-01	 1.060116758613029e+00	 7.814281386523460e+00
 7.622777269919232e-01	 1.067548270819940e+00	 7.647045506662796e+00
 7.519128061219750e-01	 1.074873841708129e+00	 7.478600964131605e+00
 7.414863693234257e-01	 1.082092698296305e+00	 7.309305681454084e+00
 7.310000488300761e-01	 1.089204100345313e+00	 7.139386067120526e+00
 7.204554879330587e-01	 1.096207340563707e+00	 6.968934139934323e+00
 7.098543401586163e-01	 1.103101744789025e+00	 6.797905148367597e+00
 6.991982684433093e-01	 1.109886672144725e+00	 6.626115704421541e+00
 6.884889443074754e-01	 1.116561515172806e+00	 6.453242449006536e+00
 6.777280470277721e-01	 1.123125699942147e+00	 6.278821263255230e+00
 7.863269403326167e-01	 1.057300200762982e+00	 8.032136614581646e+00
 7.760439936903060e-01	 1.064870645422953e+00	 7.867555054575996e+00
 7.656960127631872e-01	 1.072335482796710e+00	 7.701144027581765e+00
 7.552846124274548e-01	 1.079693903778570e+00	 7.533393378849444e+00
 7.448114203069390e-01	 1.086945131920953e+00	 7.364661766987169e+00
 7.342780759548749e-01	 1.094088423665247e+00	 7.195173192435823e+00
 7.236862300314130e-01	 1.101123068548297e+00	 7.025014010153145e+00
 7.130375434777132e-01	 1.108048389384491e+00	 6.854130449112369e+00
 7.023336866874500e-01	 1.114863742423401e+00	 6.682326658778474e+00
 6.915763386765672e-01	 1.121568517482998e+00	 6.509263300187156e+00
 6.807671862521116e-01	 1.128162138058480e+00	 6.334456696578602e+00
 7.898373284591019e-01	 1.062020290944960e+00	 8.083760978834915e+00
 7.795084758049949e-01	 1.069624532232877e+00	 7.919949615871723e+00
 7.691142985344515e-01	 1.077122694773482e+00	 7.754103448538412e+00
 7.586564187329343e-01	 1.084513965849010e+00	 7.586746369072113e+00
 7.481364712904521e-01	 1.091797565545600e+00	 7.418268819438553e+00
 7.375561030796733e-01	 1.098972746985180e+00	 7.248924144646803e+00
 7.269169721297679e-01	 1.106038796532888e+00	 7.078825440810687e+00
 7.162207467968100e-01	 1.112995033979958e+00	 6.907942921395136e+00
 7.054691049315902e-01	 1.119840812702078e+00	 6.736101822585685e+00
 6.946637330456591e-01	 1.126575519793190e+00	 6.562980866113558e+00
 6.838063254764515e-01	 1.133198576174812e+00	 6.388111295140701e+00
 7.933477165855866e-01	 1.066740381126938e+00	 8.134486842203087e+00
 7.829729579196840e-01	 1.074378419042801e+00	 7.971224368656777e+00
 7.725325843057156e-01	 1.081909906750253e+00	 7.805662188265108e+00
 7.620282250384143e-01	 1.089334027919450e+00	 7.638388139730061e+00
 7.514615222739653e-01	 1.096649999170247e+00	 7.469855098448164e+00
 7.408341302044718e-01	 1.103857070305115e+00	 7.300377102509167e+00
 7.301477142281220e-01	 1.110954524517478e+00	 7.130125983451887e+00
 7.194039501159071e-01	 1.117941678575424e+00	 6.959128526141178e+00
 7.086045231757306e-01	 1.124817882980753e+00	 6.787264179596344e+00
 6.977511274147511e-01	 1.131582522103382e+00	 6.614263337907193e+00
 6.868454647007913e-01	 1.138235014291145e+00	 6.439706207594405e+00
 7.968581047120715e-01	 1.071460471308915e+00	 8.184107617086781e+00
 7.864374400343728e-01	 1.079132305852725e+00	 8.021141197398737e+00
 7.759508700769799e-01	 1.086697118727024e+00	 7.855561465083348e+00
 7.654000313438938e-01	 1.094154089989890e+00	 7.688049722323107e+00
 7.547865732574781e-01	 1.101502432794894e+00	 7.519151538498339e+00
 7.441121573292703e-01	 1.108741393625049e+00	 7.349272596982664e+00
 7.333784563264766e-01	 1.115870252502069e+00	 7.178675056168768e+00
 7.225871534350041e-01	 1.122888323170891e+00	 7.007474450140670e+00
 7.117399414198708e-01	 1.129794953259429e+00	 6.835637151797991e+00
 7.008385217838429e-01	 1.136589524413574e+00	 6.662978418497215e+00
 6.898846039251308e-01	 1.143271452407477e+00	 6.489161037408616e+00
 8.003684928385564e-01	 1.076180561490893e+00	 8.232418942706310e+00
 7.899019221490617e-01	 1.083886192662649e+00	 8.069464607940924e+00
 7.793691558482441e-01	 1.091484330703794e+00	 7.903545323491322e+00
 7.687718376493734e-01	 1.098974152060329e+00	 7.735464996978365e+00
 7.581116242409915e-01	 1.106354866419541e+00	 7.565891770330499e+00
 7.473901844540690e-01	 1.113625716944983e+00	 7.395353535729194e+00
 7.366091984248312e-01	 1.120785980486659e+00	 7.224233974746880e+00
 7.257703567541008e-01	 1.127834967766357e+00	 7.052769147237330e+00
 7.148753596640113e-01	 1.134772023538105e+00	 6.881044653873834e+00
 7.039259161529346e-01	 1.141596526723766e+00	 6.708993393420096e+00
 6.929237431494708e-01	 1.148307890523810e+00	 6.536393932893600e+00
 8.038788809650412e-01	 1.080900651672870e+00	 8.279218733369742e+00
 7.933664042637506e-01	 1.088640079472573e+00	 8.115961763302229e+00
 7.827874416195083e-01	 1.096271542680566e+00	 7.949360661576973e+00
 7.721436439548532e-01	 1.103794214130770e+00	 7.780370715419141e+00
 7.614366752245044e-01	 1.111207300044188e+00	 7.609812143248658e+00
 7.506682115788675e-01	 1.118510040264917e+00	 7.438365228380134e+00
 7.398399405231857e-01	 1.125701708471250e+00	 7.266565984362096e+00
 7.289535600731980e-01	 1.132781612361824e+00	 7.094802379767804e+00
 7.180107779081517e-01	 1.139749093816781e+00	 6.923311147527344e+00
 7.070133105220264e-01	 1.146603529033958e+00	 6.752175201009646e+00
 6.959628823738105e-01	 1.153344328640142e+00	 6.581321676074154e+00
 8.073892690915262e-01	 1.085620741854848e+00	 8.324307227078311e+00
 7.968308863784398e-01	 1.093393966282497e+00	 8.160402520097547e+00
 7.862057273907724e-01	 1.101058754657337e+00	 7.992757259236830e+00
 7.755154502603331e-01	 1.108614276201210e+00	 7.822506524812099e+00
 7.647617262080180e-01	 1.116059733668836e+00	 7.650651748282671e+00
 7.539462387036661e-01	 1.123394363584851e+00	 7.478055412546726e+00
 7.430706826215403e-01	 1.130617436455841e+00	 7.305436291815766e+00
 7.321367633922949e-01	 1.137728256957290e+00	 7.133365260240063e+00
 7.211461961522920e-01	 1.144726164095457e+00	 6.962261695671407e+00
 7.101007048911184e-01	 1.151610531344150e+00	 6.792390502000619e+00
 6.990020215981505e-01	 1.158380766756475e+00	 6.623859770450450e+00
 6.686106293547525e-01	 1.108016385593150e+00	 6.100793366317884e+00
 6.579452816955859e-01	 1.114382560310229e+00	 5.930424498170320e+00
 6.472323877635631e-01	 1.120638532560318e+00	 5.763301042809683e+00
 6.364736223051420e-01	 1.126783835763913e+00	 5.599531089251590e+00
 6.256706644604242e-01	 1.132818036607255e+00	 5.439095254457381e+00
 6.148251969542561e-01	 1.138740735031125e+00	 5.281847329930471e+00
 6.039389052911424e-01	 1.144551564196564e+00	 5.127515473144472e+00
 5.930134769547246e-01	 1.150250190427776e+00	 4.975703940620129e+00
 5.820506006125526e-01	 1.155836313132458e+00	 4.825379055629436e+00
 5.710519653268743e-01	 1.161309664699894e+00	 4.673597142521616e+00
 5.600192597721463e-01	 1.166670010377109e+00	 4.519607343888884e+00
 6.716497685790925e-01	 1.113052823709482e+00	 6.161915023283155e+00
 6.609359420669293e-01	 1.119447935584367e+00	 5.989801760148605e+00
 6.501743531624884e-01	 1.125732344071956e+00	 5.820468447787215e+00
 6.393666842247107e-01	 1.131905580471931e+00	 5.654282588072980e+00
 6.285146220261535e-01	 1.137967209500925e+00	 5.491486684191742e+00
 6.176198569404119e-01	 1.143916829281266e+00	 5.332198427609066e+00
 6.066840821333749e-01	 1.149754071306548e+00	 5.176411441616541e+00
 5.957089927590644e-01	 1.155478600384266e+00	 5.023996579100686e+00
 5.846962851607915e-01	 1.161090114555787e+00	 4.874533640000487e+00
 5.736476560783600e-01	 1.166588344993984e+00	 4.725370380121206e+00
 5.625648018620197e-01	 1.171973055878824e+00	 4.575566867947739e+00
 6.746889078034322e-01	 1.118089261825814e+00	 6.221282210119469e+00
 6.639266024382730e-01	 1.124513310858504e+00	 6.047828178469789e+00
 6.531163185614136e-01	 1.130826155583593e+00	 5.876969860312048e+00
 6.422597461442796e-01	 1.137027325179949e+00	 5.709300542561607e+00
 6.313585795918829e-01	 1.143116382394594e+00	 5.545290157801402e+00
 6.204145169265675e-01	 1.149092923531408e+00	 5.385285063186778e+00
 6.094292589756075e-01	 1.154956578416533e+00	 5.229508388384645e+00
 5.984045085634039e-01	 1.160707010340755e+00	 5.078060950928643e+00
 5.873419697090302e-01	 1.166343915979116e+00	 4.930911819839762e+00
 5.762433468298458e-01	 1.171867025288075e+00	 4.786055701336879e+00
 5.651103439518931e-01	 1.177276101380537e+00	 4.641942133084187e+00
 6.777280470277721e-01	 1.123125699942147e+00	 6.278821263255230e+00
 6.669172628096163e-01	 1.129578686132641e+00	 6.104484269400441e+00
 6.560582839603387e-01	 1.135919967095231e+00	 5.932828307832159e+00
 6.451528080638486e-01	 1.142149069887967e+00	 5.764639308799321e+00
 6.342025371576119e-01	 1.148265555288263e+00	 5.600580668584685e+00
 6.232091769127232e-01	 1.154269017781549e+00	 5.441192671445279e+00
 6.121744358178398e-01	 1.160159085526517e+00	 5.286892493748369e+00
 6.011000243677439e-01	 1.165935420297245e+00	 5.137974789350912e+00
 5.899876542572692e-01	 1.171597717402446e+00	 4.994612852388101e+00
 5.788390375813319e-01	 1.177145705582165e+00	 4.855570734497393e+00
 5.676558860417663e-01	 1.182579146882251e+00	 4.709486844049623e+00
 6.807671862521116e-01	 1.128162138058480e+00	 6.334456696578602e+00
 6.699079231809600e-01	 1.134644061406779e+00	 6.159747652026135e+00
 6.590002493592640e-01	 1.141013778606869e+00	 5.988063061354378e+00
 6.480458699834174e-01	 1.147270814595984e+00	 5.820348834328890e+00
 6.370464947233411e-01	 1.153414728181933e+00	 5.657428348027502e+00
 6.260038368988787e-01	 1.159445112031691e+00	 5.500001562445952e+00
 6.149196126600722e-01	 1.165361592636502e+00	 5.348644732181813e+00
 6.037955401720834e-01	 1.171163830253735e+00	 5.203810713816345e+00
 5.926333388055083e-01	 1.176851518825775e+00	 5.065794143796840e+00
 5.814347283328177e-01	 1.182424385876256e+00	 4.925317937918530e+00
 5.702014281316398e-01	 1.187882192383965e+00	 4.773103354672585e+00
 6.838063254764515e-01	 1.133198576174812e+00	 6.388111295140701e+00
 6.728985835523038e-01	 1.139709436680916e+00	 6.213593161993580e+00
 6.619422147581895e-01	 1.146107590118507e+00	 6.042689764486212e+00
 6.509389319029859e-01	 1.152392559304002e+00	 5.876474797951448e+00
 6.398904522890703e-01	 1.158563901075602e+00	 5.715898611999226e+00
 6.287984968850343e-01	 1.164621206281832e+00	 5.561787069970041e+00
 6.176647895023050e-01	 1.170564099746486e+00	 5.414841019058207e+00
 6.064910559764228e-01	 1.176392240210225e+00	 5.275636371226923e+00
 5.952790233537468e-01	 1.182105320249104e+00	 5.136861520810861e+00
 5.840304190843032e-01	 1.187703066170346e+00	 4.990154889527026e+00
 5.727469702215132e-01	 1.193185237885679e+00	 4.833045094165087e+00
 6.868454647007913e-01	 1.138235014291145e+00	 6.439706207594405e+00
 6.758892439236471e-01	 1.144774811955053e+00	 6.265992963415709e+00
 6.648841801571146e-01	 1.151201401630145e+00	 6.096720560194443e+00
 6.538319938225551e-01	 1.157514304012020e+00	 5.933058746908660e+00
 6.427344098547995e-01	 1.163713073969271e+00	 5.776052304126566e+00
 6.315931568711904e-01	 1.169797300531973e+00	 5.626619697035267e+00
 6.204099663445372e-01	 1.175766606856470e+00	 5.485552354456393e+00
 6.091865717807624e-01	 1.181620650166715e+00	 5.347265821144932e+00
 5.979247079019858e-01	 1.187359121672434e+00	 5.202253009357021e+00
 5.866261098357891e-01	 1.192981746464437e+00	 5.050369942000396e+00
 5.752925123113866e-01	 1.198488283387393e+00	 4.889564087693849e+00
 6.898846039251308e-01	 1.143271452407477e+00	 6.489161037408616e+00
 6.788799042949907e-01	 1.149840187229191e+00	 6.316916658994868e+00
 6.678261455560400e-01	 1.156295213141783e+00	 6.150164215347558e+00
 6.567250557421238e-01	 1.162636048720037e+00	 5.990138231537044e+00
 6.455783674205287e-01	 1.168862246862940e+00	 5.837945836430631e+00
 6.343878168573460e-01	 1.174973394782115e+00	 5.694565258580147e+00
 6.231551431867695e-01	 1.180969113966455e+00	 5.556262351243672e+00
 6.118820875851022e-01	 1.186849060123204e+00	 5.412314655318440e+00
 6.005703924502245e-01	 1.192612923095763e+00	 5.262289646814554e+00
 5.892218005872749e-01	 1.198260426758527e+00	 5.106262927910711e+00
 5.778380544012599e-01	 1.203791328889108e+00	 4.942911028678097e+00
 6.929237431494708e-01	 1.148307890523810e+00	 6.536393932893600e+00
 6.818705646663344e-01	 1.154905562503328e+00	 6.366331398419311e+00
 6.707681109549651e-01	 1.161389024653420e+00	 6.203026243110646e+00
 6.596181176616928e-01	 1.167757793428055e+00	 6.047746937467179e+00
 6.484223249862578e-01	 1.174011419756610e+00	 5.901631327314033e+00
 6.371824768435016e-01	 1.180149489032256e+00	 5.762746877130123e+00
 6.259003200290021e-01	 1.186171621076439e+00	 5.619640076547494e+00
 6.145776033894418e-01	 1.192077470079694e+00	 5.471123110769273e+00
 6.032160769984634e-01	 1.197866724519092e+00	 5.317290883750395e+00
 5.918174913387605e-01	 1.203539107052617e+00	 5.158256050934630e+00
 5.803835964911332e-01	 1.209094374390822e+00	 4.993335349259819e+00
 6.959628823738105e-01	 1.153344328640142e+00	 6.581321676074154e+00
 6.848612250376777e-01	 1.159970937777465e+00	 6.414201985087501e+00
 6.737100763538906e-01	 1.166482836165058e+00	 6.255309023261956e+00
 6.625111795812613e-01	 1.172879538136073e+00	 6.105914815443281e+00
 6.512662825519869e-01	 1.179160592650279e+00	 5.965655040201605e+00
 6.399771368296572e-01	 1.185325583282398e+00	 5.823161498559788e+00
 6.286454968712345e-01	 1.191374128186424e+00	 5.675926081059702e+00
 6.172731191937814e-01	 1.197305880036184e+00	 5.524031061537107e+00
 6.058617615467023e-01	 1.203120525942422e+00	 5.367574639267992e+00
 5.944131820902465e-01	 1.208817787346708e+00	 5.206672778757360e+00
 5.829291385810066e-01	 1.214397419892536e+00	 5.041085288994871e+00
 6.990020215981505e-01	 1.158380766756475e+00	 6.623859770450450e+00
 6.878518854090216e-01	 1.165036313051603e+00	 6.460490981210224e+00
 6.766520417528159e-01	 1.171576647676696e+00	 6.307011920489673e+00
 6.654042415008303e-01	 1.178001282844091e+00	 6.164204793835285e+00
 6.541102401177163e-01	 1.184309765543949e+00	 6.021932762695773e+00
 6.427717968158131e-01	 1.190501677532539e+00	 5.875675249982528e+00
 6.313906737134672e-01	 1.196576635296408e+00	 5.725472131457188e+00
 6.199686349981213e-01	 1.202534289992675e+00	 5.571376619908236e+00
 6.085074460949413e-01	 1.208374327365751e+00	 5.413457354044523e+00
 5.970088728417323e-01	 1.214096467640798e+00	 5.251800313186900e+00
 5.854746806708802e-01	 1.219700465394250e+00	 5.086407961825238e+00
 5.600192597721463e-01	 1.166670010377109e+00	 4.519607343888888e+00
 5.489541714599500e-01	 1.171917148123444e+00	 4.370411899597225e+00
 5.378583859719823e-01	 1.177050908443930e+00	 4.233433857680022e+00
 5.267335862017750e-01	 1.182071154201845e+00	 4.100287691189120e+00
 5.155814516057666e-01	 1.186977780410887e+00	 3.965619411297709e+00
 5.044036574643446e-01	 1.191770714007379e+00	 3.829805212169102e+00
 4.932018741534395e-01	 1.196449913602989e+00	 3.693295103036804e+00
 4.819777664272454e-01	 1.201015369218425e+00	 3.556609073368149e+00
 4.707329927126063e-01	 1.205467101998598e+00	 3.420333239832718e+00
 4.594692044155964e-01	 1.209805163909778e+00	 3.285115987631096e+00
 4.481880452407888e-01	 1.214029637419247e+00	 3.151664118199029e+00
 5.625648018620197e-01	 1.171973055878824e+00	 4.575566867947742e+00
 5.514494176938589e-01	 1.177244044251278e+00	 4.432344386431552e+00
 5.403031968173095e-01	 1.182401139845948e+00	 4.294032716015314e+00
 5.291278297754193e-01	 1.187444204902763e+00	 4.155363573251435e+00
 5.179250036585200e-01	 1.192373133958209e+00	 4.016500479691469e+00
 5.066964013619100e-01	 1.197187853616503e+00	 3.877682594834018e+00
 4.954437008541372e-01	 1.201888322301185e+00	 3.739221059368651e+00
 4.841685744564601e-01	 1.206474529987600e+00	 3.601495308510967e+00
 4.728726881340272e-01	 1.210946497916774e+00	 3.464949368356723e+00
 4.615577007993034e-01	 1.215304278291186e+00	 3.330088147688215e+00
 4.502252636282468e-01	 1.219547953952970e+00	 3.197473737106963e+00
 5.651103439518931e-01	 1.177276101380537e+00	 4.641942133084179e+00
 5.539446639277675e-01	 1.182570940379112e+00	 4.496726804447092e+00
 5.427480076626366e-01	 1.187751371247965e+00	 4.352501236549672e+00
 5.315220733490638e-01	 1.192817255603680e+00	 4.209221338873146e+00
 5.202685557112735e-01	 1.197768487505531e+00	 4.066920409944344e+00
 5.089891452594750e-01	 1.202604993225628e+00	 3.925705659066047e+00
 4.976855275548345e-01	 1.207326730999380e+00	 3.785754686016293e+00
 4.863593824856750e-01	 1.211933690756774e+00	 3.647311932039072e+00
 4.750123835554481e-01	 1.216425893834949e+00	 3.510685114960741e+00
 4.636461971830109e-01	 1.220803392672594e+00	 3.376241660754510e+00
 4.522624820157051e-01	 1.225066270486694e+00	 3.244405143326792e+00
 5.676558860417663e-01	 1.182579146882251e+00	 4.709486844049623e+00
 5.564399101616764e-01	 1.187897836506945e+00	 4.558123053734357e+00
 5.451928185079641e-01	 1.193101602649983e+00	 4.409019574400659e+00
 5.339163169227080e-01	 1.198190306304598e+00	 4.262008460031213e+00
 5.226121077640271e-01	 1.203163841052854e+00	 4.116997552945032e+00
 5.112818891570401e-01	 1.208022132834752e+00	 3.973967130511283e+00
 4.999273542555320e-01	 1.212765139697576e+00	 3.832966510975790e+00
 4.885501905148896e-01	 1.217392851525949e+00	 3.694110631649972e+00
 4.771520789768692e-01	 1.221905289753125e+00	 3.557576612224009e+00
 4.657346935667180e-01	 1.226302507054002e+00	 3.423600315442281e+00
 4.542997004031631e-01	 1.230584587020418e+00	 3.292472916819298e+00
 5.702014281316398e-01	 1.187882192383965e+00	 4.773103354672585e+00
 5.589351563955853e-01	 1.193224732634779e+00	 4.616748651662946e+00
 5.476376293532910e-01	 1.198451834052001e+00	 4.463767478235384e+00
 5.363105604963525e-01	 1.203563357005516e+00	 4.313872477474039e+00
 5.249556598167805e-01	 1.208559194600176e+00	 4.166850739594089e+00
 5.135746330546052e-01	 1.213439272443877e+00	 4.022560563511903e+00
 5.021691809562294e-01	 1.218203548395771e+00	 3.880928178522842e+00
 4.907409985441043e-01	 1.222852012295124e+00	 3.741944439288199e+00
 4.792917743982900e-01	 1.227384685671300e+00	 3.605661506842486e+00
 4.678231899504253e-01	 1.231801621435411e+00	 3.472189527786624e+00
 4.563369187906212e-01	 1.236102903554141e+00	 3.341693323276210e+00
 5.727469702215132e-01	 1.193185237885679e+00	 4.833045094165087e+00
 5.614304026294943e-01	 1.198551628762613e+00	 4.672818229714656e+00
 5.500824401986182e-01	 1.203802065454019e+00	 4.516924337936529e+00
 5.387048040699969e-01	 1.208936407706433e+00	 4.364961036358416e+00
 5.272992118695340e-01	 1.213954548147498e+00	 4.216599305846929e+00
 5.158673769521704e-01	 1.218856412053001e+00	 4.071580356958003e+00
 5.044110076569267e-01	 1.223641957093966e+00	 3.929712457245365e+00
 4.929318065733191e-01	 1.228311173064298e+00	 3.790867732703318e+00
 4.814314698197109e-01	 1.232864081589476e+00	 3.654978956017499e+00
 4.699116863341324e-01	 1.237300735816818e+00	 3.522036333744710e+00
 4.583741371780794e-01	 1.241621220087866e+00	 3.392084303978333e+00
 5.752925123113866e-01	 1.198488283387393e+00	 4.889564087693856e+00
 5.639256488634031e-01	 1.203878524890447e+00	 4.726545593083255e+00
 5.525272510439455e-01	 1.209152296856037e+00	 4.568669231067842e+00
 5.410990476436414e-01	 1.214309458407350e+00	 4.415421921002202e+00
 5.296427639222875e-01	 1.219349901694820e+00	 4.266363117145872e+00
 5.181601208497357e-01	 1.224273551662125e+00	 4.121121769766987e+00
 5.066528343576243e-01	 1.229080365792162e+00	 3.979393247910888e+00
 4.951226146025339e-01	 1.233770333833473e+00	 3.840936237009703e+00
 4.835711652411319e-01	 1.238343477507651e+00	 3.705569623983305e+00
 4.720001827178399e-01	 1.242799850198227e+00	 3.573169381934985e+00
 4.604113555655375e-01	 1.247139536621589e+00	 3.443665465954772e+00
 5.778380544012599e-01	 1.203791328889108e+00	 4.942911028678100e+00
 5.664208950973119e-01	 1.209205421018280e+00	 4.778143778769874e+00
 5.549720618892726e-01	 1.214502528258054e+00	 4.619180968174293e+00
 5.434932912172858e-01	 1.219682509108268e+00	 4.465403088778075e+00
 5.319863159750410e-01	 1.224745255242143e+00	 4.316262592269180e+00
 5.204528647473009e-01	 1.229690691271250e+00	 4.171280936015331e+00
 5.088946610583217e-01	 1.234518774490357e+00	 4.030045591179434e+00
 4.973134226317485e-01	 1.239229494602647e+00	 3.892207026252607e+00
 4.857108606625527e-01	 1.243822873425826e+00	 3.757475678672112e+00
 4.740886791015471e-01	 1.248298964579635e+00	 3.625618926611653e+00
 4.624485739529956e-01	 1.252657853155313e+00	 3.496458072448018e+00
 5.803835964911332e-01	 1.209094374390822e+00	 4.993335349259819e+00
 5.689161413312209e-01	 1.214532317146114e+00	 4.827825112214969e+00
 5.574168727345997e-01	 1.219852759660072e+00	 4.668638136956714e+00
 5.458875347909302e-01	 1.225055559809185e+00	 4.515052703177194e+00
 5.343298680277944e-01	 1.230140608789465e+00	 4.366418726603332e+00
 5.227456086448662e-01	 1.235107830880374e+00	 4.222154879720410e+00
 5.111364877590192e-01	 1.239957183188552e+00	 4.081745675161453e+00
 4.995042306609634e-01	 1.244688655371822e+00	 3.944738524982591e+00
 4.878505560839738e-01	 1.249302269344002e+00	 3.810740788509837e+00
 4.761771754852543e-01	 1.253798078961043e+00	 3.679416820863291e+00
 4.644857923404538e-01	 1.258176169689037e+00	 3.550485033662373e+00
 5.829291385810066e-01	 1.214397419892536e+00	 5.041085288994864e+00
 5.714113875651297e-01	 1.219859213273948e+00	 4.875801262515830e+00
 5.598616835799269e-01	 1.225202991062090e+00	 4.717219145350938e+00
 5.482817783645747e-01	 1.230428610510102e+00	 4.564519166066178e+00
 5.366734200805480e-01	 1.235535962336787e+00	 4.416953114868276e+00
 5.250383525424313e-01	 1.240524970489499e+00	 4.273841529289605e+00
 5.133783144597166e-01	 1.245395591886748e+00	 4.134570842829611e+00
 5.016950386901781e-01	 1.250147816140997e+00	 3.998590509834736e+00
 4.899902515053945e-01	 1.254781665262177e+00	 3.865410119343129e+00
 4.782656718689615e-01	 1.259297193342451e+00	 3.734596510032531e+00
 4.665230107279118e-01	 1.263694486222761e+00	 3.605770897798034e+00
 5.854746806708802e-01	 1.219700465394250e+00	 5.086407961825238e+00
 5.739066337990386e-01	 1.225186109401782e+00	 4.922283296269393e+00
 5.623064944252542e-01	 1.230553222464108e+00	 4.765102263546883e+00
 5.506760219382193e-01	 1.235801661211021e+00	 4.613951149160879e+00
 5.390169721333015e-01	 1.240931315884109e+00	 4.467987973302094e+00
 5.273310964399966e-01	 1.245942110098623e+00	 4.326439731647591e+00
 5.156201411604141e-01	 1.250834000584943e+00	 4.188599599286288e+00
 5.038858467193930e-01	 1.255606976910171e+00	 4.053824111112423e+00
 4.921299469268156e-01	 1.260261061180353e+00	 3.921530331485789e+00
 4.803541682526688e-01	 1.264796307723859e+00	 3.791193025346993e+00
 4.685602291153700e-01	 1.269212802756485e+00	 3.662341842353747e+00
 4.481880452407888e-01	 1.214029637419247e+00	 3.151664118199032e+00
 4.368911505236931e-01	 1.218140635158006e+00	 3.020535482538873e+00
 4.255801465768077e-01	 1.222138299567087e+00	 2.891788811947294e+00
 4.142566500497204e-01	 1.226022802528015e+00	 2.765459327072732e+00
 4.029222673036571e-01	 1.229794344978032e+00	 2.641627593342845e+00
 3.915785938008542e-01	 1.233453156510620e+00	 2.520416917439418e+00
 3.802272135091141e-01	 1.236999494961967e+00	 2.401990788085956e+00
 3.688696983218645e-01	 1.240433645983937e+00	 2.286550367668740e+00
 3.575076074940312e-01	 1.243755922604174e+00	 2.174332040633715e+00
 3.461424870939968e-01	 1.246966664773942e+00	 2.065605024021604e+00
 3.347758694719024e-01	 1.250066238904322e+00	 1.960669044926316e+00
 4.502252636282468e-01	 1.219547953952970e+00	 3.197473737106963e+00
 4.388770193897099e-01	 1.223677638045088e+00	 3.067492685727673e+00
 4.275146017885203e-01	 1.227693473656027e+00	 2.940085708285637e+00
 4.161396348226738e-01	 1.231595633448598e+00	 2.815222642931512e+00
 4.047537321550373e-01	 1.235384319273386e+00	 2.692919012354658e+00
 3.933584964999491e-01	 1.239059761767486e+00	 2.573233454211850e+00
 3.819555190250646e-01	 1.242622219939067e+00	 2.456265196726926e+00
 3.705463787687820e-01	 1.246071980738409e+00	 2.342151585979730e+00
 3.591326420735496e-01	 1.249409358616011e+00	 2.231065670794408e+00
 3.477158620353332e-01	 1.252634695068369e+00	 2.123213850564378e+00
 3.362975779695019e-01	 1.255748358172069e+00	 2.018833590765269e+00
 4.522624820157051e-01	 1.225066270486694e+00	 3.244405143326793e+00
 4.408628882557266e-01	 1.229214640932170e+00	 3.115411033156916e+00
 4.294490570002331e-01	 1.233248647744969e+00	 2.989109549072460e+00
 4.180226195956271e-01	 1.237168464369180e+00	 2.865422471866315e+00
 4.065851970064174e-01	 1.240974293568741e+00	 2.744317641963609e+00
 3.951383991990438e-01	 1.244666367024353e+00	 2.625806399983342e+00
 3.836838245410150e-01	 1.248244944916166e+00	 2.509941073761223e+00
 3.722230592156998e-01	 1.251710315492882e+00	 2.396812518380507e+00
 3.607576766530677e-01	 1.255062794627848e+00	 2.286547715121195e+00
 3.492892369766695e-01	 1.258302725362795e+00	 2.179307434668099e+00
 3.378192864671015e-01	 1.261430477439816e+00	 2.075283969293511e+00
 4.542997004031631e-01	 1.230584587020418e+00	 3.292472916819298e+00
 4.428487571217433e-01	 1.234751643819251e+00	 3.164298841528590e+00
 4.313835122119458e-01	 1.238803821833910e+00	 3.038865045484047e+00
 4.199056043685804e-01	 1.242741295289762e+00	 2.916062353231719e+00
 4.084166618577978e-01	 1.246564267864096e+00	 2.795828059148477e+00
 3.969183018981385e-01	 1.250272972281219e+00	 2.678143354464716e+00
 3.854121300569656e-01	 1.253867669893266e+00	 2.563030802488707e+00
 3.738997396626173e-01	 1.257348650247354e+00	 2.450551868607921e+00
 3.623827112325862e-01	 1.260716230639685e+00	 2.340804511029735e+00
 3.508626119180058e-01	 1.263970755657222e+00	 2.233920837602145e+00
 3.393409949647011e-01	 1.267112596707563e+00	 2.130064833457609e+00
 4.563369187906212e-01	 1.236102903554141e+00	 3.341693323276202e+00
 4.448346259877601e-01	 1.240288646706333e+00	 3.214166120184493e+00
 4.333179674236586e-01	 1.244358995922852e+00	 3.089358562173963e+00
 4.217885891415334e-01	 1.248314126210343e+00	 2.967147398817736e+00
 4.102481267091780e-01	 1.252154242159450e+00	 2.847456294579928e+00
 3.986982045972334e-01	 1.255879577538086e+00	 2.730253218795044e+00
 3.871404355729162e-01	 1.259490394870366e+00	 2.615547886017004e+00
 3.755764201095346e-01	 1.262986985001826e+00	 2.503389253385190e+00
 3.640077458121044e-01	 1.266369666651523e+00	 2.393863081027557e+00
 3.524359868593422e-01	 1.269638785951649e+00	 2.287089560889818e+00
 3.408627034623006e-01	 1.272794715975310e+00	 2.183221018761727e+00
 4.583741371780794e-01	 1.241621220087866e+00	 3.392084303978333e+00
 4.468204948537770e-01	 1.245825649593415e+00	 3.265024559482760e+00
 4.352524226353713e-01	 1.249914170011792e+00	 3.140598105221809e+00
 4.236715739144867e-01	 1.253886957130925e+00	 3.018684281325446e+00
 4.120795915605582e-01	 1.257744216454805e+00	 2.899209822493479e+00
 4.004781072963282e-01	 1.261486182794952e+00	 2.782146187581925e+00
 3.888687410888667e-01	 1.265113119847466e+00	 2.667506942154436e+00
 3.772531005564523e-01	 1.268625319756299e+00	 2.555345200754105e+00
 3.656327803916228e-01	 1.272023102663360e+00	 2.445751134994601e+00
 3.540093618006786e-01	 1.275306816246077e+00	 2.338849552935822e+00
 3.423844119599001e-01	 1.278476835243057e+00	 2.234797554567117e+00
 4.604113555655375e-01	 1.247139536621589e+00	 3.443665465954772e+00
 4.488063637197938e-01	 1.251362652480497e+00	 3.316887519520473e+00
 4.371868778470842e-01	 1.255469344100734e+00	 3.192593310435312e+00
 4.255545586874400e-01	 1.259459788051506e+00	 3.070681223180606e+00
 4.139110564119385e-01	 1.263334190750160e+00	 2.951097550857173e+00
 4.022580099954229e-01	 1.267092788051819e+00	 2.833833741179689e+00
 3.905970466048171e-01	 1.270735844824566e+00	 2.718923698460911e+00
 3.789297810033700e-01	 1.274263654510772e+00	 2.606441148476874e+00
 3.672578149711412e-01	 1.277676538675196e+00	 2.496497072418943e+00
 3.555827367420150e-01	 1.280974846540504e+00	 2.389237215501314e+00
 3.439061204574997e-01	 1.284158954510804e+00	 2.284839675113327e+00
 4.624485739529956e-01	 1.252657853155313e+00	 3.496458072448018e+00
 4.507922325858105e-01	 1.256899655367578e+00	 3.369770019188081e+00
 4.391213330587969e-01	 1.261024518189675e+00	 3.245355431994038e+00
 4.274375434603933e-01	 1.265032618972089e+00	 3.123147985674107e+00
 4.157425212633188e-01	 1.268924165045515e+00	 3.003129811828690e+00
 4.040379126945178e-01	 1.272699393308685e+00	 2.885328638196865e+00
 3.923253521207677e-01	 1.276358569801666e+00	 2.769814987453451e+00
 3.806064614502875e-01	 1.279901989265244e+00	 2.656699442499248e+00
 3.688828495506595e-01	 1.283329974687034e+00	 2.546129984595276e+00
 3.571561116833513e-01	 1.286642876834931e+00	 2.438289410022817e+00
 3.454278289550993e-01	 1.289841073778550e+00	 2.333392830263372e+00
 4.644857923404538e-01	 1.258176169689037e+00	 3.550485033662373e+00
 4.527781014518271e-01	 1.262436658254660e+00	 3.423688725549563e+00
 4.410557882705095e-01	 1.266579692278616e+00	 3.298897331424159e+00
 4.293205282333465e-01	 1.270605449892670e+00	 3.176095858417925e+00
 4.175739861146991e-01	 1.274514139340869e+00	 3.055318352490467e+00
 4.058178153936125e-01	 1.278305998565551e+00	 2.936644908225715e+00
 3.940536576367181e-01	 1.281981294778765e+00	 2.820198741960578e+00
 3.822831418972051e-01	 1.285540324019716e+00	 2.706143335478282e+00
 3.705078841301778e-01	 1.288983410698871e+00	 2.594679656784407e+00
 3.587294866246876e-01	 1.292310907129357e+00	 2.486043463783511e+00
 3.469495374526989e-01	 1.295523193046297e+00	 2.380502695981144e+00
 4.665230107279118e-01	 1.263694486222761e+00	 3.605770897798034e+00
 4.547639703178439e-01	 1.267973661141742e+00	 3.478661943535746e+00
 4.429902434822223e-01	 1.272134866367558e+00	 3.353233466898058e+00
 4.312035130062998e-01	 1.276178280813252e+00	 3.229537649108119e+00
 4.194054509660792e-01	 1.280104113636224e+00	 3.107676325858643e+00
 4.075977180927073e-01	 1.283912603822418e+00	 2.987797844791271e+00
 3.957819631526687e-01	 1.287604019755865e+00	 2.870093990624697e+00
 3.839598223441226e-01	 1.291178658774189e+00	 2.754796985367767e+00
 3.721329187096961e-01	 1.294636846710708e+00	 2.642176570334689e+00
 3.603028615660241e-01	 1.297978937423784e+00	 2.532537175940107e+00
 3.484712459502983e-01	 1.301205312314044e+00	 2.426215184550449e+00
 4.685602291153700e-01	 1.269212802756485e+00	 3.662341842353748e+00
 4.567498391838610e-01	 1.273510664028824e+00	 3.534709605940916e+00
 4.449246986939351e-01	 1.277690040456499e+00	 3.408379882843223e+00
 4.330864977792531e-01	 1.281751111733834e+00	 3.283487673587227e+00
 4.212369158174596e-01	 1.285694087931578e+00	 3.160218282151474e+00
 4.093776207918021e-01	 1.289519209079284e+00	 3.038803998506698e+00
 3.975102686686193e-01	 1.293226744732965e+00	 2.919520853543630e+00
 3.856365027910402e-01	 1.296816993528661e+00	 2.802685454065271e+00
 3.737579532892144e-01	 1.300290282722546e+00	 2.688651904771613e+00
 3.618762365073603e-01	 1.303646967718212e+00	 2.577808823411798e+00
 3.499929544478980e-01	 1.306887431581791e+00	 2.470576454545312e+00
 3.347758694719024e-01	 1.250066238904322e+00	 1.960669044926316e+00
 3.234092727445190e-01	 1.253055037391386e+00	 1.859611401790526e+00
 3.120442002968888e-01	 1.255933478130964e+00	 1.762234354064504e+00
 3.006821403009224e-01	 1.258702004023638e+00	 1.668448437404144e+00
 2.893245652510990e-01	 1.261361082470570e+00	 1.578185570084471e+00
 2.779729315174048e-01	 1.263911204860803e+00	 1.491397768629773e+00
 2.666286789156156e-01	 1.266352886050638e+00	 1.408055934422411e+00
 2.552932302950053e-01	 1.268686663835719e+00	 1.328148711702917e+00
 2.439679911435443e-01	 1.270913098416430e+00	 1.251681416961146e+00
 2.326543492106233e-01	 1.273032771857209e+00	 1.178675039330936e+00
 2.213536741473192e-01	 1.275046287540397e+00	 1.109165311233557e+00
 3.362975779695019e-01	 1.255748358172069e+00	 2.018833590765269e+00
 3.248793148933576e-01	 1.258750742106801e+00	 1.917928757046402e+00
 3.134625830255110e-01	 1.261642266667923e+00	 1.820301782177545e+00
 3.020488773022901e-01	 1.264423376769200e+00	 1.725926910358341e+00
 2.906396769113312e-01	 1.267094541936346e+00	 1.634799841950920e+00
 2.792364448424838e-01	 1.269656255791988e+00	 1.546936343270412e+00
 2.678406274561410e-01	 1.272109035532686e+00	 1.462370931641927e+00
 2.564536540690735e-01	 1.274453421398609e+00	 1.381155636180400e+00
 2.450769365578331e-01	 1.276689976136504e+00	 1.303358834319430e+00
 2.337118689797625e-01	 1.278819284456559e+00	 1.229064163715293e+00
 2.223598272116252e-01	 1.280841952483762e+00	 1.158369508769103e+00
 3.378192864671015e-01	 1.261430477439816e+00	 2.075283969293511e+00
 3.263493570421963e-01	 1.264446446822217e+00	 1.974415052804432e+00
 3.148809657541332e-01	 1.267351055204882e+00	 1.876501170082234e+00
 3.034156143036582e-01	 1.270144749514762e+00	 1.781568088202496e+00
 2.919547885715634e-01	 1.272828001402120e+00	 1.689663046560141e+00
 2.804999581675630e-01	 1.275401306723174e+00	 1.600853277088233e+00
 2.690525759966665e-01	 1.277865185014734e+00	 1.515224603789836e+00
 2.576140778431416e-01	 1.280220178961498e+00	 1.432880122071112e+00
 2.461858819721220e-01	 1.282466853856579e+00	 1.353938957900679e+00
 2.347693887489016e-01	 1.284605797055910e+00	 1.278535106420239e+00
 2.233659802759312e-01	 1.286637617427128e+00	 1.206816349230796e+00
 3.393409949647011e-01	 1.267112596707563e+00	 2.130064833457609e+00
 3.278193991910351e-01	 1.270142151537632e+00	 2.029123671865936e+00
 3.162993484827556e-01	 1.273059843741841e+00	 1.930892304065495e+00
 3.047823513050258e-01	 1.275866122260324e+00	 1.835436010046121e+00
 2.932699002317957e-01	 1.278561460867896e+00	 1.742841500508385e+00
 2.817634714926420e-01	 1.281146357654359e+00	 1.653215363653815e+00
 2.702645245371921e-01	 1.283621334496783e+00	 1.566682595106300e+00
 2.587745016172098e-01	 1.285986936524388e+00	 1.483385211446576e+00
 2.472948273864108e-01	 1.288243731576654e+00	 1.403480947383914e+00
 2.358269085180409e-01	 1.290392309655261e+00	 1.327142036163157e+00
 2.243721333402372e-01	 1.292433282370494e+00	 1.254554072392348e+00
 3.408627034623006e-01	 1.272794715975310e+00	 2.183221018761727e+00
 3.292894413398738e-01	 1.275837856253047e+00	 2.082107940037240e+00
 3.177177312113778e-01	 1.278768632278800e+00	 1.983534718272018e+00
 3.061490883063937e-01	 1.281587495005886e+00	 1.887594309072911e+00
 2.945850118920280e-01	 1.284294920333671e+00	 1.794400998999989e+00
 2.830269848177211e-01	 1.286891408585545e+00	 1.704088794958334e+00
 2.714764730777176e-01	 1.289377483978831e+00	 1.616809900294217e+00
 2.599349253912781e-01	 1.291753694087278e+00	 1.532733278076033e+00
 2.484037728006996e-01	 1.294020609296729e+00	 1.452043301543558e+00
 2.368844282871800e-01	 1.296178822254612e+00	 1.374938491290291e+00
 2.253782864045431e-01	 1.298228947313858e+00	 1.301630338308395e+00
 3.423844119599001e-01	 1.278476835243057e+00	 2.234797554567117e+00
 3.307594834887125e-01	 1.281533560968462e+00	 2.133421141734948e+00
 3.191361139399999e-01	 1.284477420815758e+00	 2.034487713665372e+00
 3.075158253077616e-01	 1.287308867751448e+00	 1.938106233970246e+00
 2.959001235522601e-01	 1.290028379799446e+00	 1.844406838933702e+00
 2.842904981428003e-01	 1.292636459516730e+00	 1.753539185400784e+00
 2.726884216182431e-01	 1.295133633460879e+00	 1.665670888733409e+00
 2.610953491653463e-01	 1.297520451650167e+00	 1.580986051255978e+00
 2.495127182149885e-01	 1.299797487016803e+00	 1.499683881145991e+00
 2.379419480563192e-01	 1.301965334853963e+00	 1.421977401262702e+00
 2.263844394688492e-01	 1.304024612257224e+00	 1.348092246988188e+00
 3.439061204574997e-01	 1.284158954510804e+00	 2.284839675113327e+00
 3.322295256375513e-01	 1.287229265683878e+00	 2.183116535196726e+00
 3.205544966686221e-01	 1.290186209352717e+00	 2.083810376495814e+00
 3.088825623091294e-01	 1.293030240497010e+00	 1.987034669800759e+00
 2.972152352124925e-01	 1.295761839265222e+00	 1.892923841378702e+00
 2.855540114678795e-01	 1.298381510447915e+00	 1.801631595149670e+00
 2.739003701587687e-01	 1.300889782942928e+00	 1.713329328059605e+00
 2.622557729394145e-01	 1.303287209213057e+00	 1.628204639010606e+00
 2.506216636292773e-01	 1.305574364736877e+00	 1.546459931242915e+00
 2.389994678254584e-01	 1.307751847453314e+00	 1.468311107583192e+00
 2.273905925331551e-01	 1.309820277200589e+00	 1.393986357545960e+00
 3.454278289550993e-01	 1.289841073778550e+00	 2.333392830263372e+00
 3.336995677863900e-01	 1.292924970399294e+00	 2.231247367299863e+00
 3.219728793972444e-01	 1.295894997889677e+00	 2.131561596295270e+00
 3.102492993104972e-01	 1.298751613242572e+00	 2.034442158332963e+00
 2.985303468727248e-01	 1.301495298730998e+00	 1.940016373472539e+00
 2.868175247929586e-01	 1.304126561379100e+00	 1.848430552892659e+00
 2.751123186992941e-01	 1.306645932424976e+00	 1.759848407126610e+00
 2.634161967134827e-01	 1.309053966775947e+00	 1.674449550687337e+00
 2.517306090435662e-01	 1.311351242456953e+00	 1.592428102886272e+00
 2.400569875945975e-01	 1.313538360052665e+00	 1.513991384168703e+00
 2.283967455974612e-01	 1.315615942143955e+00	 1.439358706853058e+00
 3.469495374526989e-01	 1.295523193046297e+00	 2.380502695981144e+00
 3.351696099352287e-01	 1.298620675114709e+00	 2.277866888006278e+00
 3.233912621258666e-01	 1.301603786426635e+00	 2.177800083412625e+00
 3.116160363118650e-01	 1.304472985988134e+00	 2.080390917849325e+00
 2.998454585329570e-01	 1.307228758196772e+00	 1.985748369750055e+00
 2.880810381180376e-01	 1.309871612310286e+00	 1.894000077999461e+00
 2.763242672398197e-01	 1.312402081907025e+00	 1.805290758374280e+00
 2.645766204875509e-01	 1.314820724338836e+00	 1.719780718964621e+00
 2.528395544578549e-01	 1.317128120177027e+00	 1.637644474271414e+00
 2.411145073637368e-01	 1.319324872652016e+00	 1.559069457197214e+00
 2.294028986617671e-01	 1.321411607087320e+00	 1.484254827700968e+00
 3.484712459502983e-01	 1.301205312314044e+00	 2.426215184550449e+00
 3.366396520840674e-01	 1.304316379830124e+00	 2.323028364443777e+00
 3.248096448544888e-01	 1.307312574963594e+00	 2.222584386099440e+00
 3.129827733132329e-01	 1.310194358733696e+00	 2.124942862447599e+00
 3.011605701931893e-01	 1.312962217662548e+00	 2.030183352923885e+00
 2.893445514431169e-01	 1.315616663241472e+00	 1.938403702111521e+00
 2.775362157803452e-01	 1.318158231389073e+00	 1.849718479618534e+00
 2.657370442616190e-01	 1.320587481901726e+00	 1.764257521292090e+00
 2.539484998721439e-01	 1.322904997897101e+00	 1.682164571337410e+00
 2.421720271328760e-01	 1.325111385251367e+00	 1.603596024436391e+00
 2.304090517260731e-01	 1.327207272030686e+00	 1.528719766495668e+00
 3.499929544478980e-01	 1.306887431581791e+00	 2.470576454545312e+00
 3.381096942329062e-01	 1.310012084545540e+00	 2.366785094634432e+00
 3.262280275831111e-01	 1.313021363500553e+00	 2.265972907165738e+00
 3.143495103146007e-01	 1.315915731479257e+00	 2.168159620847878e+00
 3.024756818534217e-01	 1.318695677128323e+00	 2.073384454134338e+00
 2.906080647681958e-01	 1.321361714172657e+00	 1.981704490178055e+00
 2.787481643208708e-01	 1.323914380871121e+00	 1.893193155277451e+00
 2.668974680356874e-01	 1.326354239464615e+00	 1.807938800772698e+00
 2.550574452864327e-01	 1.328681875617176e+00	 1.726043387833805e+00
 2.432295469020153e-01	 1.330897897850718e+00	 1.647621274075184e+00
 2.314152047903792e-01	 1.333002936974051e+00	 1.572798100492072e+00
 2.213536741473192e-01	 1.275046287540397e+00	 1.109165311233557e+00
 2.100673171642021e-01	 1.276954269615205e+00	 1.043015861213608e+00
 1.987966107066479e-01	 1.278757362442389e+00	 9.800638586390669e-01
 1.875428681476211e-01	 1.280456230035229e+00	 9.203255980643097e-01
 1.763073834978528e-01	 1.282051555497363e+00	 8.638298798558277e-01
 1.650914311333337e-01	 1.283544040458065e+00	 8.106174970593809e-01
 1.538962655400140e-01	 1.284934404505500e+00	 7.607407784020355e-01
 1.427231210755903e-01	 1.286223384618515e+00	 7.142631847768710e-01
 1.315732117482399e-01	 1.287411734597490e+00	 6.712589564072766e-01
 1.204477310121443e-01	 1.288500224494777e+00	 6.318128077607159e-01
 1.093478515796325e-01	 1.289489640045233e+00	 5.960196671638704e-01
 2.223598272116252e-01	 1.280841952483762e+00	 1.158369508769103e+00
 2.110221686058576e-01	 1.282758607204365e+00	 1.091182899490474e+00
 1.997002316644054e-01	 1.284569895908036e+00	 1.027332586834062e+00
 1.883953357301103e-01	 1.286276485626298e+00	 9.668164162847064e-01
 1.771087806955703e-01	 1.287879062567805e+00	 9.096444922023488e-01
 1.658418467293943e-01	 1.289378331551056e+00	 8.558386913945737e-01
 1.545957940197413e-01	 1.290775015435070e+00	 8.054322340960380e-01
 1.433718625350248e-01	 1.292069854548599e+00	 7.584693095788624e-01
 1.321712718016410e-01	 1.293263606118388e+00	 7.150047534493176e-01
 1.209952206985632e-01	 1.294357043697027e+00	 6.751037735651948e-01
 1.098448872686308e-01	 1.295350956590893e+00	 6.388417214023614e-01
 2.233659802759312e-01	 1.286637617427128e+00	 1.206816349230796e+00
 2.119770200475131e-01	 1.288562944793525e+00	 1.138722427585115e+00
 2.006038526221630e-01	 1.290382429373683e+00	 1.074071797533335e+00
 1.892478033125994e-01	 1.292096741217367e+00	 1.012849345100120e+00
 1.779101778932878e-01	 1.293706569638247e+00	 9.550519468776768e-01
 1.665922623254549e-01	 1.295212622644047e+00	 9.006880040477334e-01
 1.552953224994687e-01	 1.296615626364640e+00	 8.497770353021319e-01
 1.440206039944593e-01	 1.297916324478683e+00	 8.023493257452643e-01
 1.327693318550421e-01	 1.299115477639285e+00	 7.584456287088108e-01
 1.215427103849820e-01	 1.300213862899276e+00	 7.181169172810316e-01
 1.103419229576291e-01	 1.301212273136553e+00	 6.814241822313389e-01
 2.243721333402372e-01	 1.292433282370494e+00	 1.254554072392348e+00
 2.129318714891685e-01	 1.294367282382685e+00	 1.185676842853947e+00
 2.015074735799204e-01	 1.296194962839331e+00	 1.120318994256162e+00
 1.901002708950885e-01	 1.297916996808436e+00	 1.058457868746663e+00
 1.787115750910053e-01	 1.299534076708690e+00	 1.000082509329631e+00
 1.673426779215155e-01	 1.301046913737038e+00	 9.451932081430432e-01
 1.559948509791960e-01	 1.302456237294211e+00	 8.938011153315688e-01
 1.446693454538939e-01	 1.303762794408768e+00	 8.459279054672448e-01
 1.333673919084432e-01	 1.304967349160183e+00	 8.016054983247061e-01
 1.220902000714009e-01	 1.306070682101524e+00	 7.608758306673120e-01
 1.108389586466274e-01	 1.307073589682213e+00	 7.237906756129791e-01
 2.253782864045431e-01	 1.298228947313858e+00	 1.301630338308395e+00
 2.138867229308240e-01	 1.300171619971845e+00	 1.232088015442661e+00
 2.024110945376779e-01	 1.302007496304978e+00	 1.166111192290988e+00
 1.909527384775778e-01	 1.303737252399505e+00	 1.103675010010522e+00
 1.795129722887228e-01	 1.305361583779133e+00	 1.044765999461462e+00
 1.680930935175761e-01	 1.306881204830029e+00	 9.893816376020197e-01
 1.566943794589233e-01	 1.308296848223782e+00	 9.375299663761745e-01
 1.453180869133283e-01	 1.309609264338851e+00	 8.892292709390854e-01
 1.339654519618443e-01	 1.310819220681081e+00	 8.445078138782298e-01
 1.226376897578197e-01	 1.311927501303774e+00	 8.034036219690881e-01
 1.113359943356258e-01	 1.312934906227873e+00	 7.659643218937540e-01
 2.263844394688492e-01	 1.304024612257224e+00	 1.348092246988188e+00
 2.148415743724794e-01	 1.305975957561004e+00	 1.277997306132963e+00
 2.033147154954354e-01	 1.307820029770625e+00	 1.211484935056037e+00
 1.918052060600669e-01	 1.309557507990574e+00	 1.148533345409692e+00
 1.803143694864403e-01	 1.311189090849575e+00	 1.089131805912966e+00
 1.688435091136368e-01	 1.312715495923021e+00	 1.033280200769716e+00
 1.573939079386507e-01	 1.314137459153352e+00	 9.809886527017695e-01
 1.459668283727628e-01	 1.315455734268935e+00	 9.322772073046199e-01
 1.345635120152454e-01	 1.316671092201979e+00	 8.871755752605905e-01
 1.231851794442385e-01	 1.317784320506022e+00	 8.457229288224990e-01
 1.118330300246241e-01	 1.318796222773534e+00	 8.079677488564532e-01
 2.273905925331551e-01	 1.309820277200589e+00	 1.393986357545960e+00
 2.157964258141349e-01	 1.311780295150164e+00	 1.323445583721136e+00
 2.042183364531929e-01	 1.313632563236272e+00	 1.256476310028795e+00
 1.926576736425562e-01	 1.315377763581643e+00	 1.193065019977867e+00
 1.811157666841579e-01	 1.317016597920018e+00	 1.133208899963399e+00
 1.695939247096973e-01	 1.318549787016011e+00	 1.076915393684640e+00
 1.580934364183780e-01	 1.319978070082922e+00	 1.024201823491786e+00
 1.466155698321974e-01	 1.321302204199019e+00	 9.750950752589924e-01
 1.351615720686465e-01	 1.322522963722876e+00	 9.296313431870618e-01
 1.237326691306574e-01	 1.323641139708271e+00	 8.878559308184604e-01
 1.123300657136225e-01	 1.324657539319194e+00	 8.498231044287328e-01
 2.283967455974612e-01	 1.315615942143955e+00	 1.439358706853058e+00
 2.167512772557904e-01	 1.317584632739325e+00	 1.368473241939119e+00
 2.051219574109504e-01	 1.319445096701919e+00	 1.301120964261171e+00
 1.935101412250453e-01	 1.321198019172713e+00	 1.237301761655545e+00
 1.819171638818753e-01	 1.322844104990460e+00	 1.177025849070698e+00
 1.703443403057579e-01	 1.324384078109003e+00	 1.120313312994818e+00
 1.587929648981053e-01	 1.325818681012493e+00	 1.067193725352186e+00
 1.472643112916319e-01	 1.327148674129104e+00	 1.017705823324079e+00
 1.357596321220475e-01	 1.328374835243773e+00	 9.718972513901583e-01
 1.242801588170762e-01	 1.329497958910520e+00	 9.298243617348607e-01
 1.128271014026208e-01	 1.330518855864854e+00	 8.915520690535983e-01
 2.294028986617671e-01	 1.321411607087320e+00	 1.484254827700968e+00
 2.177061286974458e-01	 1.323388970328484e+00	 1.413120215934803e+00
 2.060255783687079e-01	 1.325257630167567e+00	 1.345454119482155e+00
 1.943626088075344e-01	 1.327018274763782e+00	 1.281274895310889e+00
 1.827185610795929e-01	 1.328671612060903e+00	 1.220610830056580e+00
 1.710947559018186e-01	 1.330218369201994e+00	 1.163499668540496e+00
 1.594924933778327e-01	 1.331659291942063e+00	 1.109988214489397e+00
 1.479130527510663e-01	 1.332995144059188e+00	 1.060131999794635e+00
 1.363576921754486e-01	 1.334226706764671e+00	 1.013995018487954e+00
 1.248276485034951e-01	 1.335354778112769e+00	 9.716495214465923e-01
 1.133241370916191e-01	 1.336380172410514e+00	 9.331758677343889e-01
 2.304090517260731e-01	 1.327207272030686e+00	 1.528719766495668e+00
 2.186609801391012e-01	 1.329193307917644e+00	 1.457425998323210e+00
 2.069291993264653e-01	 1.331070163633214e+00	 1.389510586816477e+00
 1.952150763900237e-01	 1.332838530354851e+00	 1.325015356390033e+00
 1.835199582773104e-01	 1.334499119131345e+00	 1.263991641946834e+00
 1.718451714978792e-01	 1.336052660294985e+00	 1.206499795604748e+00
 1.601920218575600e-01	 1.337499902871633e+00	 1.152608768570025e+00
 1.485617942105009e-01	 1.338841613989272e+00	 1.102395764377482e+00
 1.369557522288497e-01	 1.340078578285569e+00	 1.055945959542905e+00
 1.253751381899139e-01	 1.341211597315018e+00	 1.013352287525095e+00
 1.138211727806174e-01	 1.342241488956174e+00	 9.747152817679332e-01
 2.314152047903792e-01	 1.333002936974051e+00	 1.572798100492072e+00
 2.196158315807568e-01	 1.334997645506805e+00	 1.501429654825348e+00
 2.078328202842229e-01	 1.336882697098861e+00	 1.433324781115459e+00
 1.960675439725129e-01	 1.338658785945921e+00	 1.368553704218835e+00
 1.843213554750279e-01	 1.340326626201788e+00	 1.307195718480886e+00
 1.725955870939398e-01	 1.341886951387976e+00	 1.249338666847631e+00
 1.608915503372874e-01	 1.343340513801204e+00	 1.195078498273391e+00
 1.492105356699354e-01	 1.344688083919356e+00	 1.144518899527111e+00
 1.375538122822508e-01	 1.345930449806467e+00	 1.097770997322427e+00
 1.259226278763327e-01	 1.347068416517267e+00	 1.054953126535942e+00
 1.143182084696158e-01	 1.348102805501834e+00	 1.016190660168801e+00
 1.093478515796325e-01	 1.289489640045233e+00	 5.960196671638704e-01
 9.827472524975549e-02	 1.290380782097343e+00	 5.639423552080738e-01
 8.722948275308709e-02	 1.291174466045427e+00	 5.354997877913432e-01
 7.621323361254069e-02	 1.291871521263390e+00	 5.105876387560770e-01
 6.522706601996812e-02	 1.292472790540479e+00	 4.891137941470256e-01
 5.427204672830117e-02	 1.292979129519493e+00	 4.709985039577704e-01
 4.334922095898148e-02	 1.293391406137877e+00	 4.561745495919167e-01
 3.245961232441498e-02	 1.293710500072104e+00	 4.445874237812206e-01
 2.160422276517575e-02	 1.293937302185766e+00	 4.361955197857750e-01
 1.078403250167476e-02	 1.294072713981741e+00	 4.309703267667322e-01
 0.000000000000000e+00	 1.294117647058824e+00	 4.288966283333469e-01
 1.098448872686308e-01	 1.295350956590893e+00	 6.388417214023614e-01
 9.872142854634527e-02	 1.296246149288695e+00	 6.062635846972435e-01
 8.762598040196479e-02	 1.297043440891089e+00	 5.773022068304501e-01
 7.655965740168860e-02	 1.297743664541860e+00	 5.518808816617558e-01
 6.552355268369528e-02	 1.298347666861117e+00	 5.299345603030639e-01
 5.451873784979344e-02	 1.298856307380946e+00	 5.114099946393458e-01
 4.354626287243138e-02	 1.299270457983958e+00	 4.962658983783674e-01
 3.260715601679869e-02	 1.299591002345160e+00	 4.844731222738381e-01
 2.170242377774472e-02	 1.299818835377520e+00	 4.760148402171178e-01
 1.083305083122782e-02	 1.299954862681658e+00	 4.708867429952175e-01
 0.000000000000000e+00	 1.300000000000000e+00	 4.690972365992687e-01
 1.103419229576291e-01	 1.301212273136553e+00	 6.814241822313389e-01
 9.916813184293510e-02	 1.302111516480046e+00	 6.483982027589750e-01
 8.802247805084243e-02	 1.302912415736749e+00	 6.189816045439043e-01
 7.690608119083653e-02	 1.303615807820330e+00	 5.931188599339914e-01
 6.582003934742239e-02	 1.304222543181756e+00	 5.707656040563203e-01
 5.476542897128573e-02	 1.304733485242398e+00	 5.518887766156346e-01
 4.374330478588130e-02	 1.305149509830040e+00	 5.364667828086314e-01
 3.275469970918238e-02	 1.305471504618215e+00	 5.244896698876689e-01
 2.180062479031371e-02	 1.305700368569273e+00	 5.159593159521660e-01
 1.088206916078089e-02	 1.305837011381575e+00	 5.108896276483146e-01
 0.000000000000000e+00	 1.305882352941176e+00	 5.093067435581837e-01
 1.108389586466274e-01	 1.307073589682213e+00	 7.237906756129791e-01
 9.961483513952486e-02	 1.307976883671398e+00	 6.903699303666215e-01
 8.841897569972011e-02	 1.308781390582411e+00	 6.605616651154322e-01
 7.725250497998441e-02	 1.309487951098800e+00	 6.343251733076396e-01
 6.611652601114952e-02	 1.310097419502394e+00	 6.116304761498605e-01
 5.501212009277800e-02	 1.310610663103850e+00	 5.924584691486257e-01
 4.394034669933122e-02	 1.311028561676121e+00	 5.768010891420681e-01
 3.290224340156608e-02	 1.311352006891269e+00	 5.646614982115823e-01
 2.189882580288269e-02	 1.311581901761026e+00	 5.560542809453726e-01
 1.093108749033396e-02	 1.311719160081492e+00	 5.510056516259645e-01
 0.000000000000000e+00	 1.311764705882353e+00	 5.495536679896189e-01
 1.113359943356258e-01	 1.312934906227873e+00	 7.659643218937540e-01
 1.000615384361146e-01	 1.313842250862749e+00	 7.322019629055658e-01
 8.881547334859777e-02	 1.314650365428071e+00	 7.020655326768490e-01
 7.759892876913232e-02	 1.315360094377270e+00	 6.755228709545660e-01
 6.641301267487663e-02	 1.315972295823033e+00	 6.525521686515383e-01
 5.525881121427029e-02	 1.316487840965302e+00	 6.331421255828169e-01
 4.413738861278112e-02	 1.316907613522202e+00	 6.172921298253786e-01
 3.304978709394980e-02	 1.317232509164324e+00	 6.050124549634026e-01
 2.199702681545166e-02	 1.317463434952780e+00	 5.963244715822411e-01
 1.098010581988703e-02	 1.317601308781409e+00	 5.912608694460504e-01
 0.000000000000000e+00	 1.317647058823529e+00	 5.898658869094331e-01
 1.118330300246241e-01	 1.318796222773534e+00	 8.079677488564532e-01
 1.005082417327045e-01	 1.319707618054101e+00	 7.739169833535224e-01
 8.921197099747544e-02	 1.320519340273733e+00	 7.435158245344720e-01
 7.794535255828022e-02	 1.321232237655739e+00	 7.167344646922285e-01
 6.670949933860378e-02	 1.321847172143672e+00	 6.935531281252925e-01
 5.550550233576256e-02	 1.322365018826755e+00	 6.739622464827157e-01
 4.433443052623103e-02	 1.322786665368283e+00	 6.579626566377246e-01
 3.319733078633349e-02	 1.323113011437379e+00	 6.455658172288152e-01
 2.209522782802065e-02	 1.323344968144533e+00	 6.367940401077157e-01
 1.102912414944009e-02	 1.323483457481326e+00	 6.316807330029452e-01
 0.000000000000000e+00	 1.323529411764706e+00	 6.302706498316586e-01
 1.123300657136225e-01	 1.324657539319194e+00	 8.498231044287328e-01
 1.009549450292943e-01	 1.325572985245452e+00	 8.155371751202161e-01
 8.960846864635312e-02	 1.326388315119393e+00	 7.849346440428675e-01
 7.829177634742818e-02	 1.327104380934210e+00	 7.579819418411460e-01
 6.700598600233089e-02	 1.327722048464310e+00	 7.346552684480572e-01
 5.575219345725483e-02	 1.328242196688207e+00	 7.149407924202873e-01
 4.453147243968097e-02	 1.328665717214365e+00	 6.988348734906467e-01
 3.334487447871720e-02	 1.328993513710435e+00	 6.863443043390804e-01
 2.219342884058963e-02	 1.329226501336287e+00	 6.774865676965725e-01
 1.107814247899316e-02	 1.329365606181243e+00	 6.722901049613157e-01
 0.000000000000000e+00	 1.329411764705883e+00	 6.707945926515415e-01
 1.128271014026208e-01	 1.330518855864854e+00	 8.915520690535983e-01
 1.014016483258841e-01	 1.331438352436804e+00	 8.570842345409211e-01
 9.000496629523079e-02	 1.332257289965055e+00	 8.263435931398779e-01
 7.863820013657608e-02	 1.332976524212679e+00	 7.992867777456487e-01
 6.730247266605802e-02	 1.333596924784949e+00	 7.758799832898655e-01
 5.599888457874710e-02	 1.334119374549659e+00	 7.560991964262567e-01
 4.472851435313087e-02	 1.334544769060446e+00	 7.399304488906964e-01
 3.349241817110091e-02	 1.334874015983490e+00	 7.273700904183524e-01
 2.229162985315861e-02	 1.335108034528040e+00	 7.184250771786369e-01
 1.112716080854623e-02	 1.335247754881159e+00	 7.131132717982258e-01
 0.000000000000000e+00	 1.335294117647059e+00	 7.114637511605126e-01
 1.133241370916191e-01	 1.336380172410514e+00	 9.331758677343889e-01
 1.018483516224739e-01	 1.337303719628155e+00	 8.985793830452586e-01
 9.040146394410843e-02	 1.338126264810716e+00	 8.677637845507937e-01
 7.898462392572397e-02	 1.338848667491150e+00	 8.406699479604491e-01
 6.759895932978514e-02	 1.339471801105587e+00	 8.172481582666196e-01
 5.624557570023939e-02	 1.339996552411111e+00	 7.974583761116769e-01
 4.492555626658080e-02	 1.340423820906527e+00	 7.812705280703123e-01
 3.363996186348461e-02	 1.340754518256544e+00	 7.686648165922412e-01
 2.238983086572759e-02	 1.340989567719794e+00	 7.596320454306382e-01
 1.117617913809929e-02	 1.341129903581077e+00	 7.541739564981940e-01
 0.000000000000000e+00	 1.341176470588235e+00	 7.523035742078699e-01
 1.138211727806174e-01	 1.342241488956174e+00	 9.747152817679332e-01
 1.022950549190637e-01	 1.343169086819507e+00	 9.400433790056610e-01
 9.079796159298613e-02	 1.343995239656377e+00	 9.092158536748542e-01
 7.933104771487189e-02	 1.344720810769619e+00	 8.821519401213482e-01
 6.789544599351229e-02	 1.345346677426225e+00	 8.587801827707655e-01
 5.649226682173167e-02	 1.345873730272563e+00	 8.390387454741943e-01
 4.512259818003071e-02	 1.346302872752609e+00	 8.228757448045048e-01
 3.378750555586831e-02	 1.346635020529599e+00	 8.102496028822830e-01
 2.248803187829657e-02	 1.346871100911547e+00	 8.011294154404918e-01
 1.122519746765236e-02	 1.347012052280993e+00	 7.954953309169828e-01
 0.000000000000000e+00	 1.347058823529412e+00	 7.933389365143932e-01
 1.143182084696158e-01	 1.348102805501834e+00	 1.016190660168801e+00
 1.027417582156535e-01	 1.349034454010859e+00	 9.814965292775724e-01
 9.119445924186378e-02	 1.349864214502038e+00	 9.507199701589555e-01
 7.967747150401981e-02	 1.350592954048089e+00	 9.237527655071476e-01
 6.819193265723941e-02	 1.351221553746864e+00	 9.004959614976082e-01
 5.673895794322394e-02	 1.351750908134015e+00	 8.808602263950043e-01
 4.531964009348064e-02	 1.352181924598690e+00	 8.647662329157126e-01
 3.393504924825203e-02	 1.352515522802655e+00	 8.521450597876674e-01
 2.258623289086556e-02	 1.352752634103301e+00	 8.429386080604613e-01
 1.127421579720543e-02	 1.352894200980911e+00	 8.371000278258172e-01
 0.000000000000000e+00	 1.352941176470588e+00	 8.345941511545565e-01
 1.352941176470588e+00	 0.000000000000000e+00	 1.731895580414011e+01
 1.352894200980911e+00	 1.127421579720504e-02	 1.731578966810976e+01
 1.352752634103301e+00	 2.258623289086522e-02	 1.731272987418504e+01
 1.352515522802654e+00	 3.393504924825173e-02	 1.730944367602769e+01
 1.352181924598689e+00	 4.531964009348038e-02	 1.730561500949166e+01
 1.351750908134016e+00	 5.673895794322373e-02	 1.730094605792655e+01
 1.351221553746864e+00	 6.819193265723925e-02	 1.729515877762996e+01
 1.350592954048090e+00	 7.967747150401970e-02	 1.728799637882782e+01
 1.349864214502038e+00	 9.119445924186373e-02	 1.727922475742952e+01
 1.349034454010859e+00	 1.027417582156534e-01	 1.726863387266728e+01
 1.348102805501834e+00	 1.143182084696158e-01	 1.725603906558846e+01
 1.358823529411765e+00	 0.000000000000000e+00	 1.721845143460142e+01
 1.358776349680828e+00	 1.132323412675811e-02	 1.721518917435615e+01
 1.358634167295054e+00	 2.268443390343419e-02	 1.721213933620376e+01
 1.358396025075709e+00	 3.408259294063543e-02	 1.720895859406709e+01
 1.358060976444771e+00	 4.551668200693028e-02	 1.720532133788803e+01
 1.357628085995468e+00	 5.698564906471602e-02	 1.720092127363030e+01
 1.357096430067502e+00	 6.848841932096636e-02	 1.719547298287981e+01
 1.356465097326560e+00	 8.002389529316760e-02	 1.718871343740498e+01
 1.355733189347699e+00	 9.159095689074138e-02	 1.718040346390805e+01
 1.354899821202210e+00	 1.031884615122432e-01	 1.717032915405909e+01
 1.353964122047494e+00	 1.148152441586141e-01	 1.715830321475627e+01
 1.364705882352941e+00	 0.000000000000000e+00	 1.712002188908033e+01
 1.364658498380745e+00	 1.137225245631118e-02	 1.711666306441146e+01
 1.364515700486807e+00	 2.278263491600317e-02	 1.711361655305654e+01
 1.364276527348764e+00	 3.423013663301914e-02	 1.711052983942088e+01
 1.363940028290853e+00	 4.571372392038020e-02	 1.710706916141220e+01
 1.363505263856920e+00	 5.723234018620830e-02	 1.710292114312470e+01
 1.362971306388141e+00	 6.878490598469349e-02	 1.709779438653939e+01
 1.362337240605030e+00	 8.037031908231551e-02	 1.709142101759375e+01
 1.361602164193360e+00	 9.198745453961904e-02	 1.708355818184090e+01
 1.360765188393562e+00	 1.036351648088330e-01	 1.707398948477443e+01
 1.359825438593155e+00	 1.153122798476124e-01	 1.706252637174677e+01
 1.370588235294118e+00	 0.000000000000000e+00	 1.702359352574285e+01
 1.370540647080662e+00	 1.142127078586424e-02	 1.702014047990953e+01
 1.370397233678561e+00	 2.288083592857215e-02	 1.701709303236456e+01
 1.370157029621820e+00	 3.437768032540284e-02	 1.701409085277128e+01
 1.369819080136933e+00	 4.591076583383012e-02	 1.701079340524977e+01
 1.369382441718373e+00	 5.747903130770057e-02	 1.700688161171603e+01
 1.368846182708780e+00	 6.908139264842061e-02	 1.700205947363044e+01
 1.368209383883500e+00	 8.071674287146341e-02	 1.699605564750222e+01
 1.367471139039021e+00	 9.238395218849670e-02	 1.698862496936438e+01
 1.366630555584913e+00	 1.040818681054228e-01	 1.697954992328525e+01
 1.365686755138815e+00	 1.158093155366108e-01	 1.696864204883323e+01
 1.376470588235294e+00	 0.000000000000000e+00	 1.692909356819655e+01
 1.376422795780579e+00	 1.147028911541731e-02	 1.692555132050225e+01
 1.376278766870315e+00	 2.297903694114113e-02	 1.692250094161781e+01
 1.376037531894875e+00	 3.452522401778654e-02	 1.691957564621227e+01
 1.375698131983015e+00	 4.610780774728002e-02	 1.691642948764145e+01
 1.375259619579824e+00	 5.772572242919285e-02	 1.691273904991184e+01
 1.374721059029419e+00	 6.937787931214777e-02	 1.690820509741825e+01
 1.374081527161969e+00	 8.106316666061131e-02	 1.690255417780415e+01
 1.373340113884682e+00	 9.278044983737437e-02	 1.689554017315653e+01
 1.372495922776265e+00	 1.045285714020126e-01	 1.688694579459799e+01
 1.371548071684475e+00	 1.163063512256091e-01	 1.687658401518620e+01
 1.382352941176470e+00	 0.000000000000000e+00	 1.683645008707688e+01
 1.382304944480496e+00	 1.151930744497037e-02	 1.683282622698927e+01
 1.382160300062068e+00	 2.307723795371011e-02	 1.682977309276036e+01
 1.381918034167929e+00	 3.467276771017023e-02	 1.682691878919488e+01
 1.381577183829096e+00	 4.630484966072996e-02	 1.682391330708975e+01
 1.381136797441277e+00	 5.797241355068512e-02	 1.682043024178283e+01
 1.380595935350056e+00	 6.967436597587486e-02	 1.681616846881572e+01
 1.379953670440439e+00	 8.140959044975921e-02	 1.681085377206552e+01
 1.379209088730342e+00	 9.317694748625203e-02	 1.680424041956035e+01
 1.378361289967616e+00	 1.049752746986024e-01	 1.679611268204261e+01
 1.377409388230135e+00	 1.168033869146075e-01	 1.678628628918842e+01
 1.388235294117647e+00	 0.000000000000000e+00	 1.674559198210164e+01
 1.388187093180413e+00	 1.156832577452344e-02	 1.674189656487633e+01
 1.388041833253822e+00	 2.317543896627909e-02	 1.673884292716816e+01
 1.387798536440985e+00	 3.482031140255395e-02	 1.673605539483585e+01
 1.387456235675177e+00	 4.650189157417987e-02	 1.673318122990105e+01
 1.387013975302729e+00	 5.821910467217740e-02	 1.672989237363545e+01
 1.386470811670696e+00	 6.997085263960201e-02	 1.672588714607797e+01
 1.385825813718910e+00	 8.175601423890715e-02	 1.672089189734733e+01
 1.385078063576004e+00	 9.357344513512970e-02	 1.671466260597361e+01
 1.384226657158968e+00	 1.054219779951922e-01	 1.670698641932013e+01
 1.383270704775795e+00	 1.173004226036058e-01	 1.669768313100802e+01
 1.394117647058823e+00	 0.000000000000000e+00	 1.665644896457985e+01
 1.394069241880330e+00	 1.161734410407650e-02	 1.665269440835072e+01
 1.393923366445575e+00	 2.327363997884807e-02	 1.664964450101090e+01
 1.393679038714040e+00	 3.496785509493767e-02	 1.664692110657780e+01
 1.393335287521259e+00	 4.669893348762979e-02	 1.664417007805188e+01
 1.392891153164182e+00	 5.846579579366967e-02	 1.664106302298645e+01
 1.392345687991334e+00	 7.026733930332914e-02	 1.663729902478074e+01
 1.391697956997379e+00	 8.210243802805504e-02	 1.663260631507612e+01
 1.390947038421665e+00	 9.396994278400740e-02	 1.662674389249446e+01
 1.390092024350319e+00	 1.058686812917820e-01	 1.661950308280216e+01
 1.389132021321456e+00	 1.177974582926041e-01	 1.661070903542125e+01
 1.400000000000000e+00	 0.000000000000000e+00	 1.656895154036146e+01
 1.399951390580247e+00	 1.166636243362957e-02	 1.656515252466169e+01
 1.399804899637328e+00	 2.337184099141704e-02	 1.656211247098437e+01
 1.399559540987094e+00	 3.511539878732135e-02	 1.655945208519126e+01
 1.399214339367340e+00	 4.689597540107969e-02	 1.655681711737153e+01
 1.398768331025634e+00	 5.871248691516195e-02	 1.655388014783079e+01
 1.398220564311972e+00	 7.056382596705625e-02	 1.655034232807257e+01
 1.397570100275849e+00	 8.244886181720296e-02	 1.654593507217455e+01
 1.396816013267326e+00	 9.436644043288506e-02	 1.654042169381835e+01
 1.395957391541671e+00	 1.063153845883718e-01	 1.653359898407439e+01
 1.394993337867116e+00	 1.182944939816024e-01	 1.652529872487836e+01
 1.405882352941176e+00	 0.000000000000000e+00	 1.648303099321509e+01
 1.405833539280164e+00	 1.171538076318263e-02	 1.647920435889285e+01
 1.405686432829083e+00	 2.347004200398603e-02	 1.647618208040405e+01
 1.405440043260149e+00	 3.526294247970505e-02	 1.647358499610836e+01
 1.405093391213421e+00	 4.709301731452962e-02	 1.647106004603056e+01
 1.404645508887086e+00	 5.895917803665422e-02	 1.646828207619383e+01
 1.404095440632611e+00	 7.086031263078338e-02	 1.646495559719409e+01
 1.403442243554319e+00	 8.279528560635087e-02	 1.646081649244494e+01
 1.402684988112987e+00	 9.476293808176271e-02	 1.645563367137683e+01
 1.401822758733022e+00	 1.067620878849616e-01	 1.644921066271694e+01
 1.400854654412776e+00	 1.187915296706007e-01	 1.644138714280483e+01
 1.411764705882353e+00	 0.000000000000000e+00	 1.639861936862163e+01
 1.411715687980081e+00	 1.176439909273570e-02	 1.639478401911675e+01
 1.411567966020836e+00	 2.356824301655501e-02	 1.639178914564820e+01
 1.411320545533205e+00	 3.541048617208876e-02	 1.638925699707870e+01
 1.410972443059503e+00	 4.729005922797953e-02	 1.638683698332702e+01
 1.410522686748539e+00	 5.920586915814652e-02	 1.638420749595990e+01
 1.409970316953250e+00	 7.115679929451052e-02	 1.638107768225561e+01
 1.409314386832789e+00	 8.314170939549879e-02	 1.637718916819713e+01
 1.408553962958648e+00	 9.515943573064038e-02	 1.637231772571198e+01
 1.407688125924374e+00	 1.072087911815514e-01	 1.636627487931432e+01
 1.406715970958436e+00	 1.192885653595991e-01	 1.635890944713189e+01
 1.348102805501834e+00	 1.143182084696158e-01	 1.725603906558846e+01
 1.347068416517267e+00	 1.259226278763323e-01	 1.724180363799561e+01
 1.345930449806467e+00	 1.375538122822505e-01	 1.722639585487459e+01
 1.344688083919356e+00	 1.492105356699350e-01	 1.720983017783734e+01
 1.343340513801204e+00	 1.608915503372871e-01	 1.719215092704794e+01
 1.341886951387976e+00	 1.725955870939395e-01	 1.717343306121579e+01
 1.340326626201788e+00	 1.843213554750278e-01	 1.715378286094420e+01
 1.338658785945921e+00	 1.960675439725129e-01	 1.713333850941151e+01
 1.336882697098861e+00	 2.078328202842229e-01	 1.711227056420056e+01
 1.334997645506805e+00	 2.196158315807568e-01	 1.709078231393681e+01
 1.333002936974051e+00	 2.314152047903791e-01	 1.706911001323807e+01
 1.353964122047494e+00	 1.148152441586141e-01	 1.715830321475627e+01
 1.352925235719517e+00	 1.264701175627512e-01	 1.714467845454050e+01
 1.351782321327365e+00	 1.381518723356516e-01	 1.712991512936672e+01
 1.350534553849440e+00	 1.498592771293696e-01	 1.711403030404422e+01
 1.349181124730775e+00	 1.615910788170144e-01	 1.709707166820344e+01
 1.347721242480968e+00	 1.733460026900002e-01	 1.707911832838453e+01
 1.346154133272231e+00	 1.851227526727453e-01	 1.706028150298187e+01
 1.344479041536989e+00	 1.969200115550020e-01	 1.704070511398819e+01
 1.342695230564509e+00	 2.087364412419803e-01	 1.702056626931780e+01
 1.340801983095965e+00	 2.205706830224123e-01	 1.700007562931809e+01
 1.338798601917417e+00	 2.324213578546851e-01	 1.697947765091798e+01
 1.359825438593155e+00	 1.153122798476124e-01	 1.706252637174677e+01
 1.358782054921765e+00	 1.270176072491700e-01	 1.704950808744842e+01
 1.357634192848262e+00	 1.387499323890526e-01	 1.703538224511341e+01
 1.356381023779525e+00	 1.505080185888041e-01	 1.702016755369457e+01
 1.355021735660345e+00	 1.622906072967418e-01	 1.700391414247905e+01
 1.353555533573959e+00	 1.740964182860608e-01	 1.698670436712725e+01
 1.351981640342673e+00	 1.859241498704628e-01	 1.696865351812214e+01
 1.350299297128059e+00	 1.977724791374912e-01	 1.694991042554463e+01
 1.348507764030156e+00	 2.096400621997379e-01	 1.693065795391290e+01
 1.346606320685125e+00	 2.215255344640678e-01	 1.691111338064724e+01
 1.344594266860782e+00	 2.334275109189911e-01	 1.689152865154936e+01
 1.365686755138815e+00	 1.158093155366108e-01	 1.696864204883323e+01
 1.364638874124014e+00	 1.275650969355888e-01	 1.695622445639153e+01
 1.363486064369160e+00	 1.393479924424537e-01	 1.694272800471497e+01
 1.362227493709609e+00	 1.511567600482386e-01	 1.692817210317337e+01
 1.360862346589916e+00	 1.629901357764691e-01	 1.691260840570939e+01
 1.359389824666950e+00	 1.748468338821214e-01	 1.689612163265943e+01
 1.357809147413116e+00	 1.867255470681803e-01	 1.687883029459962e+01
 1.356119552719128e+00	 1.986249467199803e-01	 1.686088731210129e+01
 1.354320297495803e+00	 2.105436831574954e-01	 1.684248052509419e+01
 1.352410658274285e+00	 2.224803859057231e-01	 1.682383308534924e+01
 1.350389931804148e+00	 2.344336639832972e-01	 1.680520372541031e+01
 1.371548071684475e+00	 1.163063512256091e-01	 1.687658401518620e+01
 1.370495693326263e+00	 1.281125866220077e-01	 1.686475973217172e+01
 1.369337935890058e+00	 1.399460524958548e-01	 1.685188345111598e+01
 1.368073963639693e+00	 1.518055015076731e-01	 1.683797435316247e+01
 1.366702957519486e+00	 1.636896642561965e-01	 1.682308471646429e+01
 1.365224115759941e+00	 1.755972494781820e-01	 1.680730075559752e+01
 1.363636654483559e+00	 1.875269442658978e-01	 1.679074336267590e+01
 1.361939808310197e+00	 1.994774143024696e-01	 1.677356874401813e+01
 1.360132830961450e+00	 2.114473041152529e-01	 1.675596894602673e+01
 1.358214995863445e+00	 2.234352373473787e-01	 1.673817226373997e+01
 1.356185596747513e+00	 2.354398170476031e-01	 1.672044352532464e+01
 1.377409388230135e+00	 1.168033869146075e-01	 1.678628628918842e+01
 1.376352512528513e+00	 1.286600763084265e-01	 1.677504632960496e+01
 1.375189807410955e+00	 1.405441125492559e-01	 1.676277986129050e+01
 1.373920433569777e+00	 1.524542429671076e-01	 1.674950492336426e+01
 1.372543568449057e+00	 1.643891927359237e-01	 1.673527353205359e+01
 1.371058406852933e+00	 1.763476650742426e-01	 1.672017253949146e+01
 1.369464161554001e+00	 1.883283414636153e-01	 1.670432439395173e+01
 1.367760063901267e+00	 2.003298818849587e-01	 1.668788779534268e+01
 1.365945364427097e+00	 2.123509250730103e-01	 1.667105823957724e+01
 1.364019333452605e+00	 2.243900887890342e-01	 1.665406844523190e+01
 1.361981261690878e+00	 2.364459701119092e-01	 1.663718865569808e+01
 1.383270704775795e+00	 1.173004226036058e-01	 1.669768313100802e+01
 1.382209331730761e+00	 1.292075659948453e-01	 1.668701690066187e+01
 1.381041678931854e+00	 1.411421726026570e-01	 1.667534874017867e+01
 1.379766903499862e+00	 1.531029844265421e-01	 1.666269464746588e+01
 1.378384179378627e+00	 1.650887212156512e-01	 1.664910550475651e+01
 1.376892697945924e+00	 1.770980806703032e-01	 1.663466795856168e+01
 1.375291668624444e+00	 1.891297386613329e-01	 1.661950520085842e+01
 1.373580319492336e+00	 2.011823494674479e-01	 1.660377764530645e+01
 1.371757897892745e+00	 2.132545460307678e-01	 1.658768349207100e+01
 1.369823671041765e+00	 2.253449402306896e-01	 1.657145917461164e+01
 1.367776926634244e+00	 2.374521231762151e-01	 1.655537968157861e+01
 1.389132021321456e+00	 1.177974582926041e-01	 1.661070903542125e+01
 1.388066150933010e+00	 1.297550556812642e-01	 1.660060432785752e+01
 1.386893550452750e+00	 1.417402326560581e-01	 1.658952181486613e+01
 1.385613373429946e+00	 1.537517258859766e-01	 1.657747456833618e+01
 1.384224790308198e+00	 1.657882496953784e-01	 1.656451147826948e+01
 1.382726989038915e+00	 1.778484962663638e-01	 1.655071815563480e+01
 1.381119175694886e+00	 1.899311358590503e-01	 1.653621773632289e+01
 1.379400575083405e+00	 2.020348170499372e-01	 1.652117157996627e+01
 1.377570431358392e+00	 2.141581669885253e-01	 1.650577985715907e+01
 1.375628008630925e+00	 2.262997916723451e-01	 1.649028201838628e+01
 1.373572591577610e+00	 2.384582762405211e-01	 1.647495713773992e+01
 1.394993337867116e+00	 1.182944939816024e-01	 1.652529872487836e+01
 1.393922970135259e+00	 1.303025453676830e-01	 1.651574171788312e+01
 1.392745421973648e+00	 1.423382927094591e-01	 1.650523102899964e+01
 1.391459843360030e+00	 1.544004673454110e-01	 1.649377593345023e+01
 1.390065401237768e+00	 1.664877781751057e-01	 1.648142248436632e+01
 1.388561280131906e+00	 1.785989118624245e-01	 1.646825444027228e+01
 1.386946682765329e+00	 1.907325330567679e-01	 1.645439409360247e+01
 1.385220830674474e+00	 2.028872846324263e-01	 1.644000299398527e+01
 1.383382964824039e+00	 2.150617879462827e-01	 1.642528255979083e+01
 1.381432346220085e+00	 2.272546431140006e-01	 1.641047457119675e+01
 1.379368256520974e+00	 2.394644293048271e-01	 1.639586153778815e+01
 1.400854654412776e+00	 1.187915296706007e-01	 1.644138714280483e+01
 1.399779789337508e+00	 1.308500350541018e-01	 1.643236239547189e+01
 1.398597293494546e+00	 1.429363527628602e-01	 1.642240853743267e+01
 1.397306313290114e+00	 1.550492088048455e-01	 1.641153019053256e+01
 1.395906012167339e+00	 1.671873066548331e-01	 1.639976973976397e+01
 1.394395571224897e+00	 1.793493274584850e-01	 1.638720828708680e+01
 1.392774189835771e+00	 1.915339302544854e-01	 1.637396650628295e+01
 1.391041086265543e+00	 2.037397522149155e-01	 1.636020539255021e+01
 1.389195498289686e+00	 2.159654089040403e-01	 1.634612690029007e+01
 1.387236683809244e+00	 2.282094945556560e-01	 1.633197446229626e+01
 1.385163921464340e+00	 2.404705823691331e-01	 1.631803338328962e+01
 1.406715970958436e+00	 1.192885653595991e-01	 1.635890944713189e+01
 1.405636608539757e+00	 1.313975247405207e-01	 1.635039989749276e+01
 1.404449165015444e+00	 1.435344128162613e-01	 1.634098670109329e+01
 1.403152783220198e+00	 1.556979502642801e-01	 1.633066898341433e+01
 1.401746623096909e+00	 1.678868351345605e-01	 1.631948464318788e+01
 1.400229862317889e+00	 1.800997430545457e-01	 1.630751133423949e+01
 1.398601696906214e+00	 1.923353274522029e-01	 1.629486734843694e+01
 1.396861341856613e+00	 2.045922197974047e-01	 1.628171239342023e+01
 1.395008031755334e+00	 2.168690298617978e-01	 1.626824825853106e+01
 1.393041021398405e+00	 2.291643459973114e-01	 1.625471936209225e+01
 1.390959586407706e+00	 2.414767354334392e-01	 1.624141317292082e+01
 1.333002936974051e+00	 2.314152047903791e-01	 1.706911001323806e+01
 1.330897897850718e+00	 2.432295469020148e-01	 1.704556830027242e+01
 1.328681875617176e+00	 2.550574452864324e-01	 1.701850573697180e+01
 1.326354239464616e+00	 2.668974680356870e-01	 1.698825608597399e+01
 1.323914380871121e+00	 2.787481643208706e-01	 1.695518186497239e+01
 1.321361714172657e+00	 2.906080647681957e-01	 1.691967379520533e+01
 1.318695677128323e+00	 3.024756818534214e-01	 1.688215009072080e+01
 1.315915731479258e+00	 3.143495103146006e-01	 1.684305558133345e+01
 1.313021363500553e+00	 3.262280275831111e-01	 1.680286066214778e+01
 1.310012084545539e+00	 3.381096942329061e-01	 1.676206006249707e+01
 1.306887431581791e+00	 3.499929544478980e-01	 1.672117142715740e+01
 1.338798601917417e+00	 2.324213578546851e-01	 1.697947765091798e+01
 1.336684410450069e+00	 2.442870666711540e-01	 1.695706581648757e+01
 1.334458753337251e+00	 2.561663907007211e-01	 1.693116826173005e+01
 1.332120997027506e+00	 2.680578918097553e-01	 1.690213018462547e+01
 1.329670530353170e+00	 2.799601128613959e-01	 1.687032757537547e+01
 1.327106765103842e+00	 2.918715780932749e-01	 1.683616669190558e+01
 1.324429136594099e+00	 3.037907935136537e-01	 1.680008337381517e+01
 1.321637104224820e+00	 3.157162473159684e-01	 1.676254218749758e+01
 1.318730152037512e+00	 3.276464103117332e-01	 1.672403539509436e+01
 1.315707789260955e+00	 3.395797363817450e-01	 1.668508173991238e+01
 1.312569550849538e+00	 3.515146629454974e-01	 1.664622504093240e+01
 1.344594266860782e+00	 2.334275109189911e-01	 1.689152865154936e+01
 1.342470923049420e+00	 2.453445864402932e-01	 1.687018322576237e+01
 1.340235631057326e+00	 2.572753361150100e-01	 1.684539343625392e+01
 1.337887754590395e+00	 2.692183155838234e-01	 1.681751742685298e+01
 1.335426679835218e+00	 2.811720614019215e-01	 1.678694610915007e+01
 1.332851816035028e+00	 2.931350914183539e-01	 1.675410266246392e+01
 1.330162596059874e+00	 3.051059051738860e-01	 1.671944187000881e+01
 1.327358476970381e+00	 3.170829843173363e-01	 1.668344928379191e+01
 1.324438940574471e+00	 3.290647930403554e-01	 1.664664021069886e+01
 1.321403493976370e+00	 3.410497785305837e-01	 1.660955851217965e+01
 1.318251670117285e+00	 3.530363714430971e-01	 1.657277520993301e+01
 1.350389931804148e+00	 2.344336639832972e-01	 1.680520372541031e+01
 1.348257435648771e+00	 2.464021062094323e-01	 1.678486411908928e+01
 1.346012508777400e+00	 2.583842815292988e-01	 1.676112650293744e+01
 1.343654512153285e+00	 2.703787393578917e-01	 1.673436345440429e+01
 1.341182829317267e+00	 2.823840099424471e-01	 1.670498223287844e+01
 1.338596866966214e+00	 2.943986047434330e-01	 1.667342430160698e+01
 1.335896055525649e+00	 3.064210168341182e-01	 1.664016468364999e+01
 1.333079849715944e+00	 3.184497213187041e-01	 1.660571114420924e+01
 1.330147729111430e+00	 3.304831757689777e-01	 1.657060319158857e+01
 1.327099198691785e+00	 3.425198206794222e-01	 1.653541088898236e+01
 1.323933789385032e+00	 3.545580799406966e-01	 1.650073346926378e+01
 1.356185596747513e+00	 2.354398170476031e-01	 1.672044352532464e+01
 1.354043948248122e+00	 2.474596259785715e-01	 1.670105197765653e+01
 1.351789386497475e+00	 2.594932269435877e-01	 1.667831256555679e+01
 1.349421269716174e+00	 2.715391631319599e-01	 1.665261376536650e+01
 1.346938978799314e+00	 2.835959584829725e-01	 1.662438058842336e+01
 1.344341917897399e+00	 2.956621180685122e-01	 1.659407412245841e+01
 1.341629514991424e+00	 3.077361284943506e-01	 1.656219090494483e+01
 1.338801222461506e+00	 3.198164583200720e-01	 1.652926212055331e+01
 1.335856517648389e+00	 3.319015584975999e-01	 1.649585261477172e+01
 1.332794903407202e+00	 3.439898628282612e-01	 1.646255971567509e+01
 1.329615908652779e+00	 3.560797884382961e-01	 1.643001185579153e+01
 1.361981261690878e+00	 2.364459701119092e-01	 1.663718865569808e+01
 1.359830460847473e+00	 2.485171457477108e-01	 1.661869018465775e+01
 1.357566264217550e+00	 2.606021723578766e-01	 1.659689660346283e+01
 1.355188027279064e+00	 2.726995869060280e-01	 1.657221373034219e+01
 1.352695128281363e+00	 2.848079070234982e-01	 1.654508571068051e+01
 1.350086968828585e+00	 2.969256313935912e-01	 1.651599457545194e+01
 1.347362974457200e+00	 3.090512401545829e-01	 1.648545962960828e+01
 1.344522595207068e+00	 3.211831953214398e-01	 1.645403666239604e+01
 1.341565306185348e+00	 3.333199412262221e-01	 1.642231697146222e+01
 1.338490608122616e+00	 3.454599049770998e-01	 1.639092619252890e+01
 1.335298027920526e+00	 3.576014969358959e-01	 1.636052292635706e+01
 1.367776926634244e+00	 2.374521231762151e-01	 1.655537968157861e+01
 1.365616973446824e+00	 2.495746655168499e-01	 1.653772203708100e+01
 1.363343141937625e+00	 2.617111177721654e-01	 1.651682348571907e+01
 1.360954784841953e+00	 2.738600106800962e-01	 1.649310860854928e+01
 1.358451277763411e+00	 2.860198555640236e-01	 1.646704204524447e+01
 1.355832019759770e+00	 2.981891447186704e-01	 1.643912806715945e+01
 1.353096433922975e+00	 3.103663518148150e-01	 1.640990997844240e+01
 1.350243967952630e+00	 3.225499323228078e-01	 1.637996933698668e+01
 1.347274094722307e+00	 3.347383239548443e-01	 1.634992498689325e+01
 1.344186312838032e+00	 3.469299471259386e-01	 1.632043189401532e+01
 1.340980147188272e+00	 3.591232054334954e-01	 1.629217977608725e+01
 1.373572591577610e+00	 2.384582762405211e-01	 1.647495713773992e+01
 1.371403486046175e+00	 2.506321852859891e-01	 1.645809075747783e+01
 1.369120019657699e+00	 2.628200631864542e-01	 1.643803798518802e+01
 1.366721542404843e+00	 2.750204344541645e-01	 1.641524356384730e+01
 1.364207427245460e+00	 2.872318041045492e-01	 1.639019396598992e+01
 1.361577070690956e+00	 2.994526580437494e-01	 1.636341697903572e+01
 1.358829893388751e+00	 3.116814634750475e-01	 1.633548111684398e+01
 1.355965340698192e+00	 3.239166693241754e-01	 1.630699484911506e+01
 1.352982883259266e+00	 3.361567066834666e-01	 1.627860564011995e+01
 1.349882017553447e+00	 3.483999892747773e-01	 1.625099878812613e+01
 1.346662266456019e+00	 3.606449139310949e-01	 1.622489605680351e+01
 1.379368256520974e+00	 2.394644293048271e-01	 1.639586153778815e+01
 1.377189998645526e+00	 2.516897050551284e-01	 1.637973950571355e+01
 1.374896897377774e+00	 2.639290086007430e-01	 1.636048479256657e+01
 1.372488299967733e+00	 2.761808582282327e-01	 1.633856368069219e+01
 1.369963576727508e+00	 2.884437526450747e-01	 1.631448579257263e+01
 1.367322121622141e+00	 3.007161713688286e-01	 1.628880368608265e+01
 1.364563352854526e+00	 3.129965751352795e-01	 1.626211227424377e+01
 1.361686713443753e+00	 3.252834063255433e-01	 1.623504806092895e+01
 1.358691671796225e+00	 3.375750894120889e-01	 1.620828818381226e+01
 1.355577722268863e+00	 3.498700314236160e-01	 1.618254925573016e+01
 1.352344385723766e+00	 3.621666224286944e-01	 1.615858599552419e+01
 1.385163921464340e+00	 2.404705823691331e-01	 1.631803338328962e+01
 1.382976511244876e+00	 2.527472248242675e-01	 1.630261139069834e+01
 1.380673775097849e+00	 2.650379540150319e-01	 1.628410853037218e+01
 1.378255057530622e+00	 2.773412820023008e-01	 1.626301398002168e+01
 1.375719726209557e+00	 2.896557011856003e-01	 1.623986180785008e+01
 1.373067172553327e+00	 3.019796846939076e-01	 1.621523057543527e+01
 1.370296812320301e+00	 3.143116867955118e-01	 1.618974276347904e+01
 1.367408086189316e+00	 3.266501433269112e-01	 1.616406401170795e+01
 1.364400460333183e+00	 3.389934721407111e-01	 1.613890216403661e+01
 1.361273426984278e+00	 3.513400735724547e-01	 1.611500610996424e+01
 1.358026504991513e+00	 3.636883309262940e-01	 1.609316441305797e+01
 1.390959586407706e+00	 2.414767354334392e-01	 1.624141317292082e+01
 1.388763023844227e+00	 2.538047445934067e-01	 1.622664948210073e+01
 1.386450652817923e+00	 2.661468994293207e-01	 1.620885376688156e+01
 1.384021815093512e+00	 2.785017057763690e-01	 1.618853943507346e+01
 1.381475875691605e+00	 2.908676497261258e-01	 1.616626627522596e+01
 1.378812223484512e+00	 3.032431980189868e-01	 1.614264006487179e+01
 1.376030271786077e+00	 3.156267984557443e-01	 1.611831200010202e+01
 1.373129458934878e+00	 3.280168803282789e-01	 1.609397793759469e+01
 1.370109248870143e+00	 3.404118548693333e-01	 1.607037744002893e+01
 1.366969131699693e+00	 3.528101157212934e-01	 1.604829261565818e+01
 1.363708624259260e+00	 3.652100394238935e-01	 1.602854674268594e+01
 1.306887431581791e+00	 3.499929544478980e-01	 1.672117142715740e+01
 1.303646967718212e+00	 3.618762365073601e-01	 1.667907793518137e+01
 1.300290282722545e+00	 3.737579532892140e-01	 1.663450018268438e+01
 1.296816993528661e+00	 3.856365027910399e-01	 1.658771772959332e+01
 1.293226744732965e+00	 3.975102686686190e-01	 1.653899424315452e+01
 1.289519209079284e+00	 4.093776207918018e-01	 1.648857489371498e+01
 1.285694087931578e+00	 4.212369158174595e-01	 1.643668356231884e+01
 1.281751111733834e+00	 4.330864977792531e-01	 1.638351985515668e+01
 1.277690040456499e+00	 4.449246986939352e-01	 1.632925592022253e+01
 1.273510664028824e+00	 4.567498391838610e-01	 1.627403306190278e+01
 1.269212802756485e+00	 4.685602291153701e-01	 1.621795814965537e+01
 1.312569550849538e+00	 3.515146629454974e-01	 1.664622504093240e+01
 1.309314998012639e+00	 3.634496114486964e-01	 1.660617349529858e+01
 1.305943718734383e+00	 3.753829878687324e-01	 1.656346659591961e+01
 1.302455328283133e+00	 3.873131832379575e-01	 1.651840216637314e+01
 1.298849469710065e+00	 3.992385741845694e-01	 1.647126163907255e+01
 1.295125814336151e+00	 4.111575234908968e-01	 1.642230741855438e+01
 1.291284062226934e+00	 4.230683806688397e-01	 1.637178005503439e+01
 1.287323942654416e+00	 4.349694825522064e-01	 1.631989522308165e+01
 1.283245214545440e+00	 4.468591539056478e-01	 1.626684050056487e+01
 1.279047666915906e+00	 4.587357080498777e-01	 1.621277194339127e+01
 1.274731119290208e+00	 4.705974475028282e-01	 1.615781045198265e+01
 1.318251670117285e+00	 3.530363714430971e-01	 1.657277520993301e+01
 1.314983028307066e+00	 3.650229863900327e-01	 1.653480843314406e+01
 1.311597154746219e+00	 3.770080224482505e-01	 1.649399984962286e+01
 1.308093663037607e+00	 3.889898636848751e-01	 1.645066417553423e+01
 1.304472194687165e+00	 4.009668797005201e-01	 1.640509939122876e+01
 1.300732419593017e+00	 4.129374261899916e-01	 1.635758407733946e+01
 1.296874036522288e+00	 4.248998455202200e-01	 1.630837455950804e+01
 1.292896773574998e+00	 4.368524673251599e-01	 1.625770185638423e+01
 1.288800388634381e+00	 4.487936091173606e-01	 1.620576842583872e+01
 1.284584669802988e+00	 4.607215769158945e-01	 1.615274470468641e+01
 1.280249435823932e+00	 4.726346658902863e-01	 1.609876543763687e+01
 1.323933789385032e+00	 3.545580799406966e-01	 1.650073346926378e+01
 1.320651058601493e+00	 3.665963613313690e-01	 1.646488556385129e+01
 1.317250590758057e+00	 3.786330570277691e-01	 1.642599597570783e+01
 1.313731997792079e+00	 3.906665441317925e-01	 1.638439496074828e+01
 1.310094919664265e+00	 4.026951852164705e-01	 1.634039584694649e+01
 1.306339024849884e+00	 4.147173288890864e-01	 1.629429234854522e+01
 1.302464010817643e+00	 4.267313103716003e-01	 1.624635568716640e+01
 1.298469604495580e+00	 4.387354520981130e-01	 1.619683151424346e+01
 1.294355562723323e+00	 4.507280643290735e-01	 1.614593662948523e+01
 1.290121672690069e+00	 4.627074457819113e-01	 1.609385549042985e+01
 1.285767752357656e+00	 4.746718842777444e-01	 1.604073650855958e+01
 1.329615908652779e+00	 3.560797884382961e-01	 1.643001185579153e+01
 1.326319088895920e+00	 3.681697362727053e-01	 1.639630836662000e+01
 1.322904026769894e+00	 3.802580916072874e-01	 1.635935179963069e+01
 1.319370332546551e+00	 3.923432245787100e-01	 1.631948661526831e+01
 1.315717644641365e+00	 4.044234907324211e-01	 1.627704030513464e+01
 1.311945630106750e+00	 4.164972315881812e-01	 1.623232068961852e+01
 1.308053985112997e+00	 4.285627752229805e-01	 1.618561302060853e+01
 1.304042435416161e+00	 4.406184368710662e-01	 1.613717688347249e+01
 1.299910736812264e+00	 4.526625195407862e-01	 1.608724289276738e+01
 1.295658675577151e+00	 4.646933146479280e-01	 1.603600917648168e+01
 1.291286068891380e+00	 4.767091026652024e-01	 1.598363764401893e+01
 1.335298027920526e+00	 3.576014969358959e-01	 1.636052292635707e+01
 1.331987119190347e+00	 3.697431112140417e-01	 1.632898100204357e+01
 1.328557462781731e+00	 3.818831261868057e-01	 1.629396495759249e+01
 1.325008667301024e+00	 3.940199050256278e-01	 1.625583213977227e+01
 1.321340369618465e+00	 4.061517962483716e-01	 1.621492303554527e+01
 1.317552235363616e+00	 4.182771342872759e-01	 1.617155855842774e+01
 1.313643959408352e+00	 4.303942400743608e-01	 1.612603713802939e+01
 1.309615266336744e+00	 4.425014216440195e-01	 1.607863160670313e+01
 1.305465910901205e+00	 4.545969747524989e-01	 1.602958587750624e+01
 1.301195678464233e+00	 4.666791835139448e-01	 1.597911140800232e+01
 1.296804385425104e+00	 4.787463210526606e-01	 1.592738344483334e+01
 1.340980147188272e+00	 3.591232054334954e-01	 1.629217977608725e+01
 1.337655149484774e+00	 3.713164861553780e-01	 1.626280832959432e+01
 1.334210898793568e+00	 3.835081607663239e-01	 1.622973391393967e+01
 1.330647002055496e+00	 3.956965854725454e-01	 1.619332546042649e+01
 1.326963094595564e+00	 4.078801017643220e-01	 1.615393529825272e+01
 1.323158840620483e+00	 4.200570369863707e-01	 1.611189643491618e+01
 1.319233933703706e+00	 4.322257049257410e-01	 1.606751963781140e+01
 1.315188097257325e+00	 4.443844064169727e-01	 1.602109031068287e+01
 1.311021084990146e+00	 4.565314299642118e-01	 1.597286515885432e+01
 1.306732681351315e+00	 4.686650523799616e-01	 1.592306863747609e+01
 1.302322701958828e+00	 4.807835394401189e-01	 1.587188917742199e+01
 1.346662266456019e+00	 3.606449139310949e-01	 1.622489605680351e+01
 1.343323179779201e+00	 3.728898610967143e-01	 1.619769592526280e+01
 1.339864334805406e+00	 3.851331953458424e-01	 1.616655797875742e+01
 1.336285336809968e+00	 3.973732659194629e-01	 1.613186144716212e+01
 1.332585819572664e+00	 4.096084072802726e-01	 1.609396936334891e+01
 1.328765445877349e+00	 4.218369396854655e-01	 1.605322584295557e+01
 1.324823907999061e+00	 4.340571697771213e-01	 1.600995316328048e+01
 1.320760928177907e+00	 4.462673911899260e-01	 1.596444863468172e+01
 1.316576259079088e+00	 4.584658851759245e-01	 1.591698125810531e+01
 1.312269684238397e+00	 4.706509212459785e-01	 1.586778816267899e+01
 1.307841018492551e+00	 4.828207578275768e-01	 1.581707081768794e+01
 1.352344385723766e+00	 3.621666224286944e-01	 1.615858599552418e+01
 1.348991210073628e+00	 3.744632360380507e-01	 1.613355009934591e+01
 1.345517770817243e+00	 3.867582299253606e-01	 1.610433732564890e+01
 1.341923671564441e+00	 3.990499463663804e-01	 1.607133593215832e+01
 1.338208544549764e+00	 4.113367127962232e-01	 1.603491853084629e+01
 1.334372051134216e+00	 4.236168423845604e-01	 1.599543937239174e+01
 1.330413882294416e+00	 4.358886346285017e-01	 1.595323142762041e+01
 1.326333759098489e+00	 4.481503759628794e-01	 1.590860325900536e+01
 1.322131433168029e+00	 4.604003403876372e-01	 1.586183567553925e+01
 1.317806687125479e+00	 4.726367901119952e-01	 1.581317816459181e+01
 1.313359335026275e+00	 4.848579762150350e-01	 1.576284509473752e+01
 1.358026504991513e+00	 3.636883309262940e-01	 1.609316441305797e+01
 1.354659240368054e+00	 3.760366109793871e-01	 1.607027791437971e+01
 1.351171206829080e+00	 3.883832645048790e-01	 1.604297300969709e+01
 1.347562006318913e+00	 4.007266268132980e-01	 1.601164572852608e+01
 1.343831269526863e+00	 4.130650183121737e-01	 1.597667715078496e+01
 1.339978656391082e+00	 4.253967450836550e-01	 1.593843070127822e+01
 1.336003856589770e+00	 4.377200994798818e-01	 1.589724923894166e+01
 1.331906590019071e+00	 4.500333607358326e-01	 1.585345193361173e+01
 1.327686607256971e+00	 4.623347955993501e-01	 1.580733092330216e+01
 1.323343690012561e+00	 4.746226589780120e-01	 1.575914774526054e+01
 1.318877651559999e+00	 4.868951946024932e-01	 1.570912953444178e+01
 1.363708624259260e+00	 3.652100394238935e-01	 1.602854674268594e+01
 1.360327270662482e+00	 3.776099859207235e-01	 1.600778720321269e+01
 1.356824642840917e+00	 3.900082990843973e-01	 1.598236698560127e+01
 1.353200341073385e+00	 4.024033072602155e-01	 1.595268864918741e+01
 1.349453994503964e+00	 4.147933238281242e-01	 1.591914064353590e+01
 1.345585261647948e+00	 4.271766477827499e-01	 1.588209461829165e+01
 1.341593830885125e+00	 4.395515643312621e-01	 1.584190252550029e+01
 1.337479420939653e+00	 4.519163455087859e-01	 1.579889350682771e+01
 1.333241781345912e+00	 4.642692508110629e-01	 1.575337055831843e+01
 1.328880692899643e+00	 4.766085278440289e-01	 1.570560696560543e+01
 1.324395968093723e+00	 4.889324129899513e-01	 1.565584250284441e+01
 1.269212802756485e+00	 4.685602291153701e-01	 1.621795814965536e+01
 1.264796307723859e+00	 4.803541682526686e-01	 1.615921322182238e+01
 1.260261061180353e+00	 4.921299469268153e-01	 1.609613998148404e+01
 1.255606976910171e+00	 5.038858467193927e-01	 1.602903971183707e+01
 1.250834000584944e+00	 5.156201411604140e-01	 1.595818741695225e+01
 1.245942110098623e+00	 5.273310964399964e-01	 1.588382709458087e+01
 1.240931315884110e+00	 5.390169721333012e-01	 1.580616675891035e+01
 1.235801661211020e+00	 5.506760219382191e-01	 1.572537321389560e+01
 1.230553222464108e+00	 5.623064944252539e-01	 1.564156657883009e+01
 1.225186109401782e+00	 5.739066337990384e-01	 1.555481456892685e+01
 1.219700465394250e+00	 5.854746806708804e-01	 1.546512653485566e+01
 1.274731119290208e+00	 4.705974475028282e-01	 1.615781045198266e+01
 1.270295422105266e+00	 4.824426646363759e-01	 1.610030593684659e+01
 1.265740457098528e+00	 4.942696423482364e-01	 1.603879909909627e+01
 1.261066137679346e+00	 5.060766547486074e-01	 1.597365444426959e+01
 1.256272409283139e+00	 5.178619678611114e-01	 1.590521425089609e+01
 1.251359249707748e+00	 5.296238403375615e-01	 1.583379378387161e+01
 1.246326669431432e+00	 5.413605241860546e-01	 1.575967624717528e+01
 1.241174711911938e+00	 5.530702655118636e-01	 1.568310747624763e+01
 1.235903453866126e+00	 5.647513052705813e-01	 1.560429037140492e+01
 1.230513005529617e+00	 5.764018800329472e-01	 1.552337907479264e+01
 1.225003510895964e+00	 5.880202227607538e-01	 1.544047289458934e+01
 1.280249435823932e+00	 4.726346658902863e-01	 1.609876543763687e+01
 1.275794536486675e+00	 4.845311610200833e-01	 1.604237662427950e+01
 1.271219853016703e+00	 4.964093377696572e-01	 1.598234793654892e+01
 1.266525298448521e+00	 5.082674627778222e-01	 1.591910962371971e+01
 1.261710817981335e+00	 5.201037945618089e-01	 1.585307366874086e+01
 1.256776389316873e+00	 5.319165842351269e-01	 1.578462893858419e+01
 1.251722022978754e+00	 5.437040762388082e-01	 1.571413606334875e+01
 1.246547762612855e+00	 5.554645090855079e-01	 1.564192204412969e+01
 1.241253685268144e+00	 5.671961161159084e-01	 1.556827459073438e+01
 1.235839901657450e+00	 5.788971262668562e-01	 1.549343619148406e+01
 1.230306556397678e+00	 5.905657648506271e-01	 1.541666829363147e+01
 1.285767752357656e+00	 4.746718842777444e-01	 1.604073650855958e+01
 1.281293650868083e+00	 4.866196574037903e-01	 1.598534802175398e+01
 1.276699248934880e+00	 4.985490331910783e-01	 1.592671665155322e+01
 1.271984459217695e+00	 5.104582708070369e-01	 1.586534088214061e+01
 1.267149226679530e+00	 5.223456212625064e-01	 1.580170480201828e+01
 1.262193528925997e+00	 5.342093281326920e-01	 1.573627318781177e+01
 1.257117376526076e+00	 5.460476282915617e-01	 1.566948630626384e+01
 1.251920813313773e+00	 5.578587526591522e-01	 1.560175443411260e+01
 1.246603916670162e+00	 5.696409269612355e-01	 1.553345209664397e+01
 1.241166797785284e+00	 5.813923725007649e-01	 1.546491202688661e+01
 1.235609601899392e+00	 5.931113069405004e-01	 1.539236306333001e+01
 1.291286068891380e+00	 4.767091026652024e-01	 1.598363764401893e+01
 1.286792765249491e+00	 4.887081537874977e-01	 1.592914328634306e+01
 1.282178644853055e+00	 5.006887286124995e-01	 1.587183569312469e+01
 1.277443619986870e+00	 5.126490788362517e-01	 1.581228404458276e+01
 1.272587635377725e+00	 5.245874479632038e-01	 1.575104690723768e+01
 1.267610668535121e+00	 5.365020720302571e-01	 1.568866724773141e+01
 1.262512730073398e+00	 5.483911803443150e-01	 1.562566715428937e+01
 1.257293864014690e+00	 5.602529962327967e-01	 1.556254226520210e+01
 1.251954148072180e+00	 5.720857378065628e-01	 1.549975590482160e+01
 1.246493693913118e+00	 5.838876187346740e-01	 1.543773292876936e+01
 1.240912647401107e+00	 5.956568490303739e-01	 1.536749223878956e+01
 1.296804385425104e+00	 4.787463210526606e-01	 1.592738344483334e+01
 1.292291879630899e+00	 4.907966501712047e-01	 1.587368604500585e+01
 1.287658040771230e+00	 5.028284240339203e-01	 1.581763585760537e+01
 1.282902780756045e+00	 5.148398868654664e-01	 1.575987519013442e+01
 1.278026044075921e+00	 5.268292746639013e-01	 1.570103943107486e+01
 1.273027808144246e+00	 5.387948159278223e-01	 1.564175199036055e+01
 1.267908083620720e+00	 5.507347323970687e-01	 1.558261893696247e+01
 1.262666914715607e+00	 5.626472398064410e-01	 1.552422333264377e+01
 1.257304379474197e+00	 5.745305486518900e-01	 1.546711926208346e+01
 1.251820590040951e+00	 5.863828649685827e-01	 1.541182556078942e+01
 1.246215692902821e+00	 5.982023911202474e-01	 1.534200311413776e+01
 1.302322701958828e+00	 4.807835394401189e-01	 1.587188917742199e+01
 1.297790994012307e+00	 4.928851465549122e-01	 1.581890044474374e+01
 1.293137436689406e+00	 5.049681194553410e-01	 1.576404834429573e+01
 1.288361941525219e+00	 5.170306948946812e-01	 1.570805071238777e+01
 1.283464452774115e+00	 5.290711013645987e-01	 1.565162207501974e+01
 1.278444947753370e+00	 5.410875598253877e-01	 1.559546851172256e+01
 1.273303437168043e+00	 5.530782844498223e-01	 1.554028220599722e+01
 1.268039965416525e+00	 5.650414833800855e-01	 1.548673568109104e+01
 1.262654610876215e+00	 5.769753594972172e-01	 1.543547572100628e+01
 1.257147486168785e+00	 5.888781112024914e-01	 1.538704771951539e+01
 1.251518738404535e+00	 6.007479332101205e-01	 1.531584725824037e+01
 1.307841018492551e+00	 4.828207578275768e-01	 1.581707081768794e+01
 1.303290108393715e+00	 4.949736429386194e-01	 1.576471120247405e+01
 1.298616832607581e+00	 5.071078148767620e-01	 1.571100481070664e+01
 1.293821102294394e+00	 5.192215029238958e-01	 1.565674737944430e+01
 1.288902861472311e+00	 5.313129280652961e-01	 1.560273485949948e+01
 1.283862087362495e+00	 5.433803037229529e-01	 1.554975819943941e+01
 1.278698790715365e+00	 5.554218365025757e-01	 1.549859780568995e+01
 1.273413016117442e+00	 5.674357269537300e-01	 1.545001767715510e+01
 1.268004842278233e+00	 5.794201703425443e-01	 1.540475921394426e+01
 1.262474382296619e+00	 5.913733574364005e-01	 1.536189231649189e+01
 1.256821783906248e+00	 6.032934752999941e-01	 1.528898047175550e+01
 1.313359335026275e+00	 4.848579762150350e-01	 1.576284509473752e+01
 1.308789222775123e+00	 4.970621393223268e-01	 1.571104365463194e+01
 1.304096228525756e+00	 5.092475102981829e-01	 1.565843742744411e+01
 1.299280263063569e+00	 5.214123109531108e-01	 1.560590239347371e+01
 1.294341270170507e+00	 5.335547547659936e-01	 1.555431818749061e+01
 1.289279226971619e+00	 5.456730476205179e-01	 1.550456279976799e+01
 1.284094144262687e+00	 5.577653885553291e-01	 1.545750694273760e+01
 1.278786066818359e+00	 5.698299705273743e-01	 1.541400808135374e+01
 1.273355073680251e+00	 5.818649811878717e-01	 1.537490412644885e+01
 1.267801278424453e+00	 5.938686036703092e-01	 1.533574178353553e+01
 1.262124829407963e+00	 6.058390173898676e-01	 1.526136274364792e+01
 1.318877651559999e+00	 4.868951946024932e-01	 1.570912953444178e+01
 1.314288337156531e+00	 4.991506357060339e-01	 1.565782380650496e+01
 1.309575624443931e+00	 5.113872057196038e-01	 1.560627893273638e+01
 1.304739423832743e+00	 5.236031189823255e-01	 1.555545344983881e+01
 1.299779678868702e+00	 5.357965814666910e-01	 1.550631290763774e+01
 1.294696366580743e+00	 5.479657915180832e-01	 1.545982448409585e+01
 1.289489497810009e+00	 5.601089406080827e-01	 1.541695125548626e+01
 1.284159117519277e+00	 5.722242141010189e-01	 1.537864611947891e+01
 1.278705305082269e+00	 5.843097920331988e-01	 1.534584537010998e+01
 1.273128174552286e+00	 5.963638499042182e-01	 1.530856044001933e+01
 1.267427874909677e+00	 6.083845594797409e-01	 1.523295820717971e+01
 1.324395968093723e+00	 4.889324129899513e-01	 1.565584250284441e+01
 1.319787451537940e+00	 5.012391320897411e-01	 1.560497838131160e+01
 1.315055020362107e+00	 5.135269011410248e-01	 1.555446268661391e+01
 1.310198584601918e+00	 5.257939270115403e-01	 1.550533879579900e+01
 1.305218087566897e+00	 5.380384081673886e-01	 1.545866037689046e+01
 1.300113506189868e+00	 5.502585354156484e-01	 1.541548591491305e+01
 1.294884851357331e+00	 5.624524926608360e-01	 1.537687288262798e+01
 1.289532168220195e+00	 5.746184576746634e-01	 1.534387155339790e+01
 1.284055536484286e+00	 5.867546028785260e-01	 1.531751845483397e+01
 1.278455070680120e+00	 5.988590961381270e-01	 1.528031663147942e+01
 1.272730920411391e+00	 6.109301015696142e-01	 1.520373509539336e+01
 1.219700465394250e+00	 5.854746806708804e-01	 1.546512653485566e+01
 1.214096467640798e+00	 5.970088728417322e-01	 1.538202381856981e+01
 1.208374327365751e+00	 6.085074460949410e-01	 1.529700275663282e+01
 1.202534289992674e+00	 6.199686349981209e-01	 1.520871300212965e+01
 1.196576635296408e+00	 6.313906737134668e-01	 1.511713777274848e+01
 1.190501677532539e+00	 6.427717968158129e-01	 1.502228516138887e+01
 1.184309765543949e+00	 6.541102401177161e-01	 1.492419174038561e+01
 1.178001282844091e+00	 6.654042415008302e-01	 1.482292633969218e+01
 1.171576647676696e+00	 6.766520417528159e-01	 1.471794245478807e+01
 1.165036313051603e+00	 6.878518854090213e-01	 1.460801251459732e+01
 1.158380766756475e+00	 6.990020215981507e-01	 1.449360841191368e+01
 1.225003510895964e+00	 5.880202227607538e-01	 1.544047289458934e+01
 1.219375147934889e+00	 5.996045635932178e-01	 1.535628645098816e+01
 1.213628128789080e+00	 6.111531306431799e-01	 1.526972761739539e+01
 1.207762699949165e+00	 6.226641508024606e-01	 1.518067772744926e+01
 1.201779142406393e+00	 6.341358505556994e-01	 1.508904255597593e+01
 1.195677771782681e+00	 6.455664568019686e-01	 1.499474792034773e+01
 1.189458938437618e+00	 6.569541976834454e-01	 1.489774341798674e+01
 1.183123027552109e+00	 6.682973034203989e-01	 1.479800635089289e+01
 1.176670459188334e+00	 6.795940071517410e-01	 1.469554582849477e+01
 1.170101688325741e+00	 6.908425457803647e-01	 1.458936277438625e+01
 1.163417204872807e+00	 7.020411608224905e-01	 1.447859084614313e+01
 1.230306556397678e+00	 5.905657648506271e-01	 1.541666829363147e+01
 1.224653828228979e+00	 6.022002543447034e-01	 1.533036526535968e+01
 1.218881930212410e+00	 6.137988151914189e-01	 1.524250545070610e+01
 1.212991109905654e+00	 6.253596666068003e-01	 1.515290388513582e+01
 1.206981649516377e+00	 6.368810273979320e-01	 1.506138711258776e+01
 1.200853866032823e+00	 6.483611167881245e-01	 1.496779685140902e+01
 1.194608111331288e+00	 6.597981552491745e-01	 1.487199386777553e+01
 1.188244772260127e+00	 6.711903653399678e-01	 1.477386204941821e+01
 1.181764270699972e+00	 6.825359725506666e-01	 1.467331267094354e+01
 1.175167063599879e+00	 6.938332061517085e-01	 1.457024457942816e+01
 1.168453642989140e+00	 7.050803000468304e-01	 1.446320918460915e+01
 1.235609601899392e+00	 5.931113069405004e-01	 1.539236306333001e+01
 1.229932508523069e+00	 6.047959450961895e-01	 1.530419712041303e+01
 1.224135731635740e+00	 6.164444997396578e-01	 1.521527131009858e+01
 1.218219519862144e+00	 6.280551824111398e-01	 1.512532469523500e+01
 1.212184156626361e+00	 6.396262042401644e-01	 1.503410281807451e+01
 1.206029960282964e+00	 6.511557767742799e-01	 1.494136149127231e+01
 1.199757284224957e+00	 6.626421128149038e-01	 1.484687080981947e+01
 1.193366516968144e+00	 6.740834272595363e-01	 1.475041937677724e+01
 1.186858082211609e+00	 6.854779379495914e-01	 1.465181873410114e+01
 1.180232438874016e+00	 6.968238665230521e-01	 1.455090798822114e+01
 1.173490081105472e+00	 7.081194392711700e-01	 1.444733999943007e+01
 1.240912647401107e+00	 5.956568490303739e-01	 1.536749223878956e+01
 1.235211188817160e+00	 6.073916358476751e-01	 1.527772334236290e+01
 1.229389533059068e+00	 6.190901842878966e-01	 1.518796482400426e+01
 1.223447929818634e+00	 6.307506982154798e-01	 1.509787805888738e+01
 1.217386663736346e+00	 6.423713810823969e-01	 1.500712583391113e+01
 1.211206054533105e+00	 6.539504367604358e-01	 1.491537626610052e+01
 1.204906457118626e+00	 6.654860703806331e-01	 1.482230695560352e+01
 1.198488261676163e+00	 6.769764891791055e-01	 1.472760936620500e+01
 1.191951893723247e+00	 6.884199033485169e-01	 1.463099342464708e+01
 1.185297814148153e+00	 6.998145268943955e-01	 1.453219232837234e+01
 1.178526519221805e+00	 7.111585784955099e-01	 1.443096754958622e+01
 1.246215692902821e+00	 5.982023911202474e-01	 1.534200311413776e+01
 1.240489869111251e+00	 6.099873265991608e-01	 1.525088967954408e+01
 1.234643334482398e+00	 6.217358688361353e-01	 1.516053014689871e+01
 1.228676339775124e+00	 6.334462140198192e-01	 1.507050650605762e+01
 1.222589170846330e+00	 6.451165579246293e-01	 1.498039705194768e+01
 1.216382148783247e+00	 6.567450967465913e-01	 1.488978043266067e+01
 1.210055630012295e+00	 6.683300279463621e-01	 1.479823994602138e+01
 1.203610006384180e+00	 6.798695510986743e-01	 1.470536807760968e+01
 1.197045705234885e+00	 6.913618687474422e-01	 1.461077127153468e+01
 1.190363189422291e+00	 7.028051872657395e-01	 1.451407492352433e+01
 1.183562957338137e+00	 7.141977177198494e-01	 1.441492858412435e+01
 1.251518738404535e+00	 6.007479332101205e-01	 1.531584725824037e+01
 1.245768549405341e+00	 6.125830173506469e-01	 1.522364625652178e+01
 1.239897135905727e+00	 6.243815533843743e-01	 1.513291590997194e+01
 1.233904749731613e+00	 6.361417298241587e-01	 1.504315714283441e+01
 1.227791677956315e+00	 6.478617347668618e-01	 1.495386203841837e+01
 1.221558243033388e+00	 6.595397567327470e-01	 1.486451801912986e+01
 1.215204802905965e+00	 6.711739855120913e-01	 1.477461228907332e+01
 1.208731751092197e+00	 6.827626130182430e-01	 1.468363653227068e+01
 1.202139516746523e+00	 6.943038341463675e-01	 1.459109185780344e+01
 1.195428564696428e+00	 7.057958476370828e-01	 1.449649398140038e+01
 1.188599395454470e+00	 7.172368569441895e-01	 1.439937863115646e+01
 1.256821783906248e+00	 6.032934752999941e-01	 1.528898047175550e+01
 1.251047229699431e+00	 6.151787081021325e-01	 1.519594752769259e+01
 1.245150937329056e+00	 6.270272379326129e-01	 1.510507517133635e+01
 1.239133159688103e+00	 6.388372456284986e-01	 1.501578159831392e+01
 1.232994185066299e+00	 6.506069116090940e-01	 1.492747097757793e+01
 1.226734337283530e+00	 6.623344167189031e-01	 1.483953776557154e+01
 1.220353975799634e+00	 6.740179430778206e-01	 1.475137129728071e+01
 1.213853495800216e+00	 6.856556749378119e-01	 1.466236064729351e+01
 1.207233328258161e+00	 6.972457995452928e-01	 1.457189975218914e+01
 1.200493939970565e+00	 7.087865080084261e-01	 1.447939278373527e+01
 1.193635833570802e+00	 7.202759961685296e-01	 1.438425976047938e+01
 1.262124829407963e+00	 6.058390173898676e-01	 1.526136274364792e+01
 1.256325909993521e+00	 6.177743988536182e-01	 1.516775223039198e+01
 1.250404738752386e+00	 6.296729224808520e-01	 1.507696536578604e+01
 1.244361569644593e+00	 6.415327614328382e-01	 1.498833597107911e+01
 1.238196692176283e+00	 6.533520884513266e-01	 1.490117861497888e+01
 1.231910431533671e+00	 6.651290767050586e-01	 1.481479306409697e+01
 1.225503148693304e+00	 6.768619006435497e-01	 1.472846902482382e+01
 1.218975240508233e+00	 6.885487368573807e-01	 1.464149116982997e+01
 1.212327139769799e+00	 7.001877649442181e-01	 1.455314444053771e+01
 1.205559315244703e+00	 7.117771683797700e-01	 1.446271961500394e+01
 1.198672271687135e+00	 7.233151353928690e-01	 1.436951912870267e+01
 1.267427874909677e+00	 6.083845594797409e-01	 1.523295820717971e+01
 1.261604590287612e+00	 6.203700896051042e-01	 1.513902333752250e+01
 1.255658540175715e+00	 6.323186070290908e-01	 1.504854825412083e+01
 1.249589979601083e+00	 6.442282772371779e-01	 1.496078077528762e+01
 1.243399199286268e+00	 6.560972652935591e-01	 1.487494420039859e+01
 1.237086525783813e+00	 6.679237366912142e-01	 1.479024189871642e+01
 1.230652321586973e+00	 6.797058582092790e-01	 1.470586220441321e+01
 1.224096985216251e+00	 6.914417987769494e-01	 1.462098361107063e+01
 1.217420951281436e+00	 7.031297303431432e-01	 1.453478025702918e+01
 1.210624690518840e+00	 7.147678287511134e-01	 1.444642769099608e+01
 1.203708709803467e+00	 7.263542746172088e-01	 1.435510890530242e+01
 1.272730920411391e+00	 6.109301015696142e-01	 1.520373509539336e+01
 1.266883270581703e+00	 6.229657803565899e-01	 1.510972800971614e+01
 1.260912341599045e+00	 6.349642915773298e-01	 1.501978987204721e+01
 1.254818389557574e+00	 6.469237930415175e-01	 1.493308088637756e+01
 1.248601706396252e+00	 6.588424421357914e-01	 1.484873143042635e+01
 1.242262620033954e+00	 6.707183966773701e-01	 1.476584678489234e+01
 1.235801494480642e+00	 6.825498157750081e-01	 1.468351218390040e+01
 1.229218729924269e+00	 6.943348606965185e-01	 1.460079818001404e+01
 1.222514762793074e+00	 7.060716957420686e-01	 1.451676631521643e+01
 1.215690065792978e+00	 7.177584891224573e-01	 1.443047508724167e+01
 1.208745147919799e+00	 7.293934138415487e-01	 1.434098619855789e+01
 1.158380766756475e+00	 6.990020215981507e-01	 1.449360841191368e+01
 1.151610531344150e+00	 7.101007048911181e-01	 1.437608089028796e+01
 1.144726164095457e+00	 7.211461961522920e-01	 1.425630826924539e+01
 1.137728256957290e+00	 7.321367633922947e-01	 1.413425228343562e+01
 1.130617436455841e+00	 7.430706826215402e-01	 1.400995917856858e+01
 1.123394363584852e+00	 7.539462387036662e-01	 1.388356207003909e+01
 1.116059733668836e+00	 7.647617262080175e-01	 1.375528284031632e+01
 1.108614276201210e+00	 7.755154502603329e-01	 1.362543355445380e+01
 1.101058754657337e+00	 7.862057273907724e-01	 1.349441737552233e+01
 1.093393966282497e+00	 7.968308863784391e-01	 1.336272896436270e+01
 1.085620741854848e+00	 8.073892690915262e-01	 1.323095435079221e+01
 1.163417204872807e+00	 7.020411608224905e-01	 1.447859084614313e+01
 1.156617533654343e+00	 7.131880992602101e-01	 1.436442501057300e+01
 1.149703234374133e+00	 7.242816143964327e-01	 1.424768036287920e+01
 1.142674901552757e+00	 7.353199667113919e-01	 1.412833885713770e+01
 1.135533164440432e+00	 7.463014247198948e-01	 1.400646978548037e+01
 1.128278686904786e+00	 7.572242658284649e-01	 1.388223219737057e+01
 1.120912167293483e+00	 7.680867771915308e-01	 1.375587684383238e+01
 1.113434338271650e+00	 7.788872565658125e-01	 1.362774762538584e+01
 1.105845966634108e+00	 7.896240131620366e-01	 1.349828252495483e+01
 1.098147853092421e+00	 8.002953684931282e-01	 1.336801400968046e+01
 1.090340832036826e+00	 8.108996572180115e-01	 1.323756888838633e+01
 1.168453642989140e+00	 7.050803000468304e-01	 1.446320918460915e+01
 1.161624535964534e+00	 7.162754936293020e-01	 1.435249094372429e+01
 1.154680304652809e+00	 7.274170326405729e-01	 1.423886270172410e+01
 1.147621546148224e+00	 7.385031700304888e-01	 1.412232325305772e+01
 1.140448892425022e+00	 7.495321668182492e-01	 1.400296161730738e+01
 1.133163010224720e+00	 7.605022929532630e-01	 1.388095952561632e+01
 1.125764600918130e+00	 7.714118281750439e-01	 1.375659341798343e+01
 1.118254400342090e+00	 7.822590628712923e-01	 1.363023592955184e+01
 1.110633178610879e+00	 7.930422989333009e-01	 1.350235684660148e+01
 1.102901739902345e+00	 8.037598506078170e-01	 1.337352351569655e+01
 1.095060922218803e+00	 8.144100453444961e-01	 1.324440069232689e+01
 1.173490081105472e+00	 7.081194392711700e-01	 1.444733999943007e+01
 1.166631538274726e+00	 7.193628879983939e-01	 1.434015490383386e+01
 1.159657374931485e+00	 7.305524508847134e-01	 1.422973113481613e+01
 1.152568190743690e+00	 7.416863733495856e-01	 1.411608095698235e+01
 1.145364620409613e+00	 7.527629089166039e-01	 1.399930980847247e+01
 1.138047333544654e+00	 7.637803200780616e-01	 1.387961886108957e+01
 1.130617034542778e+00	 7.747368791585573e-01	 1.375730707692563e+01
 1.123074462412530e+00	 7.856308691767719e-01	 1.363277273896549e+01
 1.115420390587650e+00	 7.964605847045653e-01	 1.350651443580369e+01
 1.107655626712269e+00	 8.072243327225060e-01	 1.337913148342108e+01
 1.099781012400780e+00	 8.179204334709808e-01	 1.325132376993654e+01
 1.178526519221805e+00	 7.111585784955099e-01	 1.443096754958622e+01
 1.171638540584918e+00	 7.224502823674854e-01	 1.432729554741814e+01
 1.164634445210160e+00	 7.336878691288535e-01	 1.422016413080591e+01
 1.157514835339156e+00	 7.448695766686826e-01	 1.410949024349066e+01
 1.150280348394203e+00	 7.559936510149583e-01	 1.399539244255565e+01
 1.142931656864589e+00	 7.670583472028605e-01	 1.387808811002970e+01
 1.135469468167424e+00	 7.780619301420700e-01	 1.375789557515211e+01
 1.127894524482970e+00	 7.890026754822517e-01	 1.363523569529058e+01
 1.120207602564421e+00	 7.998788704758294e-01	 1.351063287505024e+01
 1.112409513522193e+00	 8.106888148371947e-01	 1.338471550599897e+01
 1.104501102582758e+00	 8.214308215974656e-01	 1.325821581248278e+01
 1.183562957338137e+00	 7.141977177198494e-01	 1.441492858412435e+01
 1.176645542895110e+00	 7.255376767365775e-01	 1.431379476899512e+01
 1.169611515488836e+00	 7.368232873729942e-01	 1.421004285324021e+01
 1.162461479934623e+00	 7.480527799877795e-01	 1.410243225082739e+01
 1.155196076378794e+00	 7.592243931133130e-01	 1.399109062675882e+01
 1.147815980184522e+00	 7.703363743276590e-01	 1.387624835266823e+01
 1.140321901792071e+00	 7.813869811255834e-01	 1.375823998118009e+01
 1.132714586553410e+00	 7.923744817877316e-01	 1.363750588317677e+01
 1.124994814541192e+00	 8.032971562470936e-01	 1.351459330700013e+01
 1.117163400332116e+00	 8.141532969518838e-01	 1.339015684146861e+01
 1.109221192764736e+00	 8.249412097239511e-01	 1.326495826772787e+01
 1.188599395454470e+00	 7.172368569441895e-01	 1.439937863115646e+01
 1.181652545205302e+00	 7.286250711056693e-01	 1.430017532614723e+01
 1.174588585767512e+00	 7.399587056171345e-01	 1.419925123578665e+01
 1.167408124530089e+00	 7.512359833068765e-01	 1.409479105575214e+01
 1.160111804363385e+00	 7.624551352116672e-01	 1.398628856638003e+01
 1.152700303504457e+00	 7.736144014524574e-01	 1.387398391733580e+01
 1.145174335416718e+00	 7.847120321090963e-01	 1.375822475130651e+01
 1.137534648623850e+00	 7.957462880932111e-01	 1.363946790369117e+01
 1.129782026517963e+00	 8.067154420183577e-01	 1.351828050762506e+01
 1.121917287142040e+00	 8.176177790665725e-01	 1.339534048565993e+01
 1.113941282946713e+00	 8.284515978504354e-01	 1.327143641263801e+01
 1.193635833570802e+00	 7.202759961685296e-01	 1.438425976047938e+01
 1.186659547515494e+00	 7.317124654747612e-01	 1.428691909445624e+01
 1.179565656046188e+00	 7.430941238612750e-01	 1.418789124307983e+01
 1.172354769125556e+00	 7.544191866259733e-01	 1.408645374836751e+01
 1.165027532347975e+00	 7.656858773100221e-01	 1.398087363929700e+01
 1.157584626824391e+00	 7.768924285772564e-01	 1.387118245460764e+01
 1.150026769041365e+00	 7.880370830926093e-01	 1.375773780343153e+01
 1.142354710694290e+00	 7.991180943986911e-01	 1.364100994784272e+01
 1.134569238494734e+00	 8.101337277896222e-01	 1.352158295946781e+01
 1.126671173951964e+00	 8.210822611812613e-01	 1.340015524522734e+01
 1.118661373128691e+00	 8.319619859769207e-01	 1.327753942624264e+01
 1.198672271687135e+00	 7.233151353928690e-01	 1.436951912870267e+01
 1.191666549825686e+00	 7.347998598438528e-01	 1.427397213376238e+01
 1.184542726324864e+00	 7.462295421054155e-01	 1.417669537062156e+01
 1.177301413721022e+00	 7.576023899450705e-01	 1.407732503427652e+01
 1.169943260332566e+00	 7.689166194083762e-01	 1.397473647045996e+01
 1.162468950144325e+00	 7.801704557020546e-01	 1.386773501148810e+01
 1.154879202666012e+00	 7.913621340761225e-01	 1.375667059094691e+01
 1.147174772764730e+00	 8.024899007041706e-01	 1.364202387019540e+01
 1.139356450471505e+00	 8.135520135608864e-01	 1.352439292501129e+01
 1.131425060761888e+00	 8.245467432959501e-01	 1.340449381081482e+01
 1.123381463310669e+00	 8.354723741034055e-01	 1.328316046264134e+01
 1.203708709803467e+00	 7.263542746172088e-01	 1.435510890530242e+01
 1.196673552135878e+00	 7.378872542129444e-01	 1.426128559769133e+01
 1.189519796603540e+00	 7.493649603495557e-01	 1.416569200155396e+01
 1.182248058316489e+00	 7.607855932641673e-01	 1.406797015132138e+01
 1.174858988317156e+00	 7.721473615067308e-01	 1.396777100639305e+01
 1.167353273464259e+00	 7.834484828268531e-01	 1.386353610563175e+01
 1.159731636290660e+00	 7.946871850596355e-01	 1.375491817668716e+01
 1.151994834835170e+00	 8.058617070096502e-01	 1.364240526257088e+01
 1.144143662448276e+00	 8.169702993321504e-01	 1.352660652015785e+01
 1.136178947571812e+00	 8.280112254106391e-01	 1.340825283034787e+01
 1.128101553492646e+00	 8.389827622298903e-01	 1.328819672415550e+01
 1.208745147919799e+00	 7.293934138415487e-01	 1.434098619855789e+01
 1.201680554446070e+00	 7.409746485820364e-01	 1.424881565721812e+01
 1.194496866882216e+00	 7.525003785936962e-01	 1.415483636564521e+01
 1.187194702911955e+00	 7.639687965832640e-01	 1.405869344558494e+01
 1.179774716301747e+00	 7.753781036050854e-01	 1.396009318906418e+01
 1.172237596784193e+00	 7.867265099516516e-01	 1.385848379960027e+01
 1.164584069915307e+00	 7.980122360431487e-01	 1.375237930694338e+01
 1.156814896905610e+00	 8.092335133151300e-01	 1.364205352783319e+01
 1.148930874425047e+00	 8.203885851034148e-01	 1.352812378781298e+01
 1.140932834381736e+00	 8.314757075253277e-01	 1.341133298244933e+01
 1.132821643674624e+00	 8.424931503563753e-01	 1.329254953461786e+01
 1.085620741854848e+00	 8.073892690915262e-01	 1.323095435079221e+01
 1.077739945423465e+00	 8.178792313222331e-01	 1.309491328072272e+01
 1.069752474021580e+00	 8.282991436155959e-01	 1.295091144172122e+01
 1.061659257355183e+00	 8.386473920913718e-01	 1.280041427416283e+01
 1.053461257467180e+00	 8.489223792581317e-01	 1.264499452842263e+01
 1.045159468377312e+00	 8.591225248187093e-01	 1.248632872409394e+01
 1.036754915698127e+00	 8.692462664661780e-01	 1.232619303582319e+01
 1.028248656227261e+00	 8.792920606695196e-01	 1.216645861549165e+01
 1.019641777516383e+00	 8.892583834481691e-01	 1.200908636374690e+01
 1.010935397417125e+00	 8.991437311346269e-01	 1.185612116712805e+01
 1.002130663604425e+00	 9.089466211243505e-01	 1.170968562021682e+01
 1.090340832036826e+00	 8.108996572180115e-01	 1.323756888838633e+01
 1.082425771273132e+00	 8.214352279801554e-01	 1.310289973243320e+01
 1.074403571734717e+00	 8.319004442400115e-01	 1.296039552800384e+01
 1.066275167169771e+00	 8.422936851004649e-01	 1.281149215785122e+01
 1.058041523803994e+00	 8.526133461244715e-01	 1.265773515473909e+01
 1.049703639978953e+00	 8.628578401440079e-01	 1.250077617217735e+01
 1.041262545766380e+00	 8.730255980595094e-01	 1.234236886629241e+01
 1.032719302558685e+00	 8.831150696289527e-01	 1.218436419859963e+01
 1.024075002636019e+00	 8.931247242457699e-01	 1.202870517280321e+01
 1.015330768710243e+00	 9.030530517047779e-01	 1.187742102208021e+01
 1.006487753446183e+00	 9.128985629553259e-01	 1.173262086657286e+01
 1.095060922218803e+00	 8.144100453444961e-01	 1.324440069232688e+01
 1.087111597122799e+00	 8.249912246380787e-01	 1.311107014430333e+01
 1.079054669447854e+00	 8.355017448644274e-01	 1.297000550466113e+01
 1.070891076984359e+00	 8.459399781095580e-01	 1.282261795479954e+01
 1.062621790140807e+00	 8.563043129908111e-01	 1.267043086001299e+01
 1.054247811580593e+00	 8.665931554693072e-01	 1.251507624512221e+01
 1.045770175834632e+00	 8.768049296528405e-01	 1.235829066518710e+01
 1.037189948890108e+00	 8.869380785883854e-01	 1.220191048111508e+01
 1.028508227755656e+00	 8.969910650433705e-01	 1.204786655342541e+01
 1.019726140003361e+00	 9.069623722749285e-01	 1.189817837084934e+01
 1.010844843287942e+00	 9.168505047863017e-01	 1.175494763380948e+01
 1.099781012400780e+00	 8.179204334709808e-01	 1.325132376993654e+01
 1.091797422972466e+00	 8.285472212960016e-01	 1.311929911243339e+01
 1.083705767160991e+00	 8.391030454888428e-01	 1.297961756015029e+01
 1.075506986798947e+00	 8.495862711186506e-01	 1.283367037816737e+01
 1.067202056477622e+00	 8.599952798571511e-01	 1.268296374385222e+01
 1.058791983182234e+00	 8.703284707946054e-01	 1.252911522082233e+01
 1.050277805902885e+00	 8.805842612461717e-01	 1.237384961135870e+01
 1.041660595221530e+00	 8.907610875478177e-01	 1.221899419713652e+01
 1.032941452875292e+00	 9.008574058409715e-01	 1.206647338168705e+01
 1.024121511296479e+00	 9.108716928450789e-01	 1.191830275150702e+01
 1.015201933129700e+00	 9.208024466172768e-01	 1.177658257619195e+01
 1.104501102582758e+00	 8.214308215974656e-01	 1.325821581248278e+01
 1.096483248822133e+00	 8.321032179539241e-01	 1.312746498695763e+01
 1.088356864874129e+00	 8.427043461132584e-01	 1.298911167787803e+01
 1.080122896613535e+00	 8.532325641277436e-01	 1.284453194882002e+01
 1.071782322814435e+00	 8.636862467234906e-01	 1.269521969922339e+01
 1.063336154783874e+00	 8.740637861199040e-01	 1.254278313017794e+01
 1.054785435971137e+00	 8.843635928395028e-01	 1.238894057144188e+01
 1.046131241552953e+00	 8.945840965072506e-01	 1.223551567962737e+01
 1.037374677994928e+00	 9.047237466385720e-01	 1.208443202112753e+01
 1.028516882589597e+00	 9.147810134152298e-01	 1.193770705695882e+01
 1.019559022971459e+00	 9.247543884482524e-01	 1.179744555024222e+01
 1.109221192764736e+00	 8.249412097239511e-01	 1.326495826772787e+01
 1.101169074671801e+00	 8.356592146118469e-01	 1.313544994462238e+01
 1.093007962587266e+00	 8.463056467376738e-01	 1.299837170919813e+01
 1.084738806428122e+00	 8.568788571368366e-01	 1.285508906911149e+01
 1.076362589151249e+00	 8.673772135898302e-01	 1.270708848736325e+01
 1.067880326385515e+00	 8.777991014452031e-01	 1.255597383345197e+01
 1.059293066039390e+00	 8.881429244328339e-01	 1.240346217795024e+01
 1.050601887884376e+00	 8.984071054666832e-01	 1.225137894051925e+01
 1.041807903114565e+00	 9.085900874361728e-01	 1.210165240510543e+01
 1.032912253882715e+00	 9.186903339853799e-01	 1.195630761976760e+01
 1.023916112813217e+00	 9.287063302792279e-01	 1.181745970222453e+01
 1.113941282946713e+00	 8.284515978504354e-01	 1.327143641263801e+01
 1.105854900521468e+00	 8.392152112697697e-01	 1.314314006153213e+01
 1.097659060300403e+00	 8.499069473620896e-01	 1.300728544657266e+01
 1.089354716242710e+00	 8.605251501459297e-01	 1.286523209681851e+01
 1.080942855488063e+00	 8.710681804561700e-01	 1.271846381281640e+01
 1.072424497987155e+00	 8.815344167705017e-01	 1.256858509671894e+01
 1.063800696107642e+00	 8.919222560261654e-01	 1.241731690742016e+01
 1.055072534215799e+00	 9.022301144261160e-01	 1.226649175081140e+01
 1.046241128234201e+00	 9.124564282337735e-01	 1.211804811908826e+01
 1.037307625175833e+00	 9.225996545555306e-01	 1.197402429684417e+01
 1.028273202654975e+00	 9.326582721102036e-01	 1.183655155542225e+01
 1.118661373128691e+00	 8.319619859769207e-01	 1.327753942624264e+01
 1.110540726371135e+00	 8.427712079276922e-01	 1.315042538605583e+01
 1.102310158013540e+00	 8.535082479865048e-01	 1.301574469689310e+01
 1.093970626057298e+00	 8.641714431550225e-01	 1.287485541921933e+01
 1.085523121824877e+00	 8.747591473225096e-01	 1.272924339859424e+01
 1.076968669588796e+00	 8.852697320958006e-01	 1.258051866840371e+01
 1.068308326175896e+00	 8.957015876194966e-01	 1.243041115860263e+01
 1.059543180547222e+00	 9.060531233855486e-01	 1.228076572066597e+01
 1.050674353353838e+00	 9.163227690313742e-01	 1.213353648288005e+01
 1.041702996468950e+00	 9.265089751256811e-01	 1.199078055400965e+01
 1.032630292496734e+00	 9.366102139411789e-01	 1.185465109721696e+01
 1.123381463310669e+00	 8.354723741034055e-01	 1.328316046264134e+01
 1.115226552220802e+00	 8.463272045856151e-01	 1.315720001188944e+01
 1.106961255726678e+00	 8.571095486109209e-01	 1.302364535495442e+01
 1.098586535871886e+00	 8.678177361641154e-01	 1.288385752731502e+01
 1.090103388161690e+00	 8.784501141888493e-01	 1.273932906145348e+01
 1.081512841190436e+00	 8.890050474210989e-01	 1.259168035590515e+01
 1.072815956244148e+00	 8.994809192128277e-01	 1.244265533070003e+01
 1.064013826878644e+00	 9.098761323449813e-01	 1.229411637950133e+01
 1.055107578473474e+00	 9.201891098289749e-01	 1.214803863278915e+01
 1.046098367762068e+00	 9.304182956958317e-01	 1.200650355043612e+01
 1.036987382338492e+00	 9.405621557721543e-01	 1.187169186597315e+01
 1.128101553492646e+00	 8.389827622298903e-01	 1.328819672415550e+01
 1.119912378070470e+00	 8.498832012435376e-01	 1.316336215127090e+01
 1.111612353439815e+00	 8.607108492353366e-01	 1.303088747708051e+01
 1.103202445686473e+00	 8.714640291732080e-01	 1.289214109018689e+01
 1.094683654498504e+00	 8.821410810551892e-01	 1.274862678728987e+01
 1.086057012792076e+00	 8.927403627463979e-01	 1.260198010230612e+01
 1.077323586312401e+00	 9.032602508061589e-01	 1.245396390164724e+01
 1.068484473210068e+00	 9.136991413044139e-01	 1.230646325607965e+01
 1.059540803593111e+00	 9.240554506265760e-01	 1.216147960373681e+01
 1.050493739055186e+00	 9.343276162659823e-01	 1.202112422296451e+01
 1.041344472180251e+00	 9.445140976031297e-01	 1.188761103773456e+01
 1.132821643674624e+00	 8.424931503563753e-01	 1.329254953461786e+01
 1.124598203920137e+00	 8.534391979014604e-01	 1.316881420834229e+01
 1.116263451152953e+00	 8.643121498597525e-01	 1.303737535489293e+01
 1.107818355501061e+00	 8.751103221823014e-01	 1.289961302948826e+01
 1.099263920835318e+00	 8.858320479215286e-01	 1.275704680664300e+01
 1.090601184393717e+00	 8.964756780716965e-01	 1.261133206316198e+01
 1.081831216380654e+00	 9.070395823994902e-01	 1.246425550643622e+01
 1.072955119541490e+00	 9.175221502638468e-01	 1.231772995859366e+01
 1.063974028712747e+00	 9.279217914241764e-01	 1.217378841130988e+01
 1.054889110348304e+00	 9.382369368361331e-01	 1.203457737030810e+01
 1.045701562022009e+00	 9.484660394341050e-01	 1.190234951273725e+01
 1.002130663604425e+00	 9.089466211243505e-01	 1.170968562021682e+01
 9.932287530776673e-01	 9.186655926121330e-01	 1.156173436626358e+01
 9.842308716400868e-01	 9.282992073142227e-01	 1.140407406965605e+01
 9.751382533569158e-01	 9.378460501754237e-01	 1.123868518624995e+01
 9.659521599927756e-01	 9.473047300604546e-01	 1.106757635618839e+01
 9.566738804288585e-01	 9.566738804288581e-01	 1.089277675073723e+01
 9.473047300604550e-01	 9.659521599927755e-01	 1.071632811553482e+01
 9.378460501754238e-01	 9.751382533569153e-01	 1.054027654735636e+01
 9.282992073142231e-01	 9.842308716400867e-01	 1.036666404348374e+01
 9.186655926121332e-01	 9.932287530776672e-01	 1.019751986454876e+01
 9.089466211243505e-01	 1.002130663604425e+00	 1.003485175326971e+01
 1.006487753446183e+00	 9.128985629553259e-01	 1.173262086657286e+01
 9.975471389606136e-01	 9.226597908408812e-01	 1.158610088864329e+01
 9.885101362993914e-01	 9.323352908242842e-01	 1.142956211406317e+01
 9.793779848932499e-01	 9.419236416979255e-01	 1.126505481744682e+01
 9.701519519927444e-01	 9.514234462781086e-01	 1.109466057379809e+01
 9.608333320828971e-01	 9.608333320828969e-01	 1.092048436946448e+01
 9.514234462781090e-01	 9.701519519927442e-01	 1.074464639638959e+01
 9.419236416979256e-01	 9.793779848932497e-01	 1.056927356777878e+01
 9.323352908242849e-01	 9.885101362993913e-01	 1.039649079534289e+01
 9.226597908408816e-01	 9.975471389606135e-01	 1.022841207012901e+01
 9.128985629553260e-01	 1.006487753446183e+00	 1.006713139054808e+01
 1.010844843287942e+00	 9.168505047863017e-01	 1.175494763380948e+01
 1.001865524843560e+00	 9.266539890696298e-01	 1.160982377713310e+01
 9.927894009586964e-01	 9.363713743343466e-01	 1.145440571351804e+01
 9.836177164295846e-01	 9.460012332204274e-01	 1.129080729406110e+01
 9.743517439927128e-01	 9.555421624957628e-01	 1.112117663264700e+01
 9.649927837369356e-01	 9.649927837369352e-01	 1.094768798682760e+01
 9.555421624957634e-01	 9.743517439927126e-01	 1.077253330887842e+01
 9.460012332204276e-01	 9.836177164295842e-01	 1.059791350615457e+01
 9.363713743343467e-01	 9.927894009586962e-01	 1.042602945200260e+01
 9.266539890696299e-01	 1.001865524843560e+00	 1.025907279036862e+01
 9.168505047863016e-01	 1.010844843287942e+00	 1.009921657891969e+01
 1.015201933129700e+00	 9.208024466172768e-01	 1.177658257619195e+01
 1.006183910726506e+00	 9.306481872983782e-01	 1.163282560455797e+01
 9.970686656180011e-01	 9.404074578444082e-01	 1.147853061685126e+01
 9.878574479659189e-01	 9.500788247429289e-01	 1.131586889609675e+01
 9.785515359926815e-01	 9.596608787134171e-01	 1.114704880005420e+01
 9.691522353909742e-01	 9.691522353909739e-01	 1.097430741769992e+01
 9.596608787134174e-01	 9.785515359926812e-01	 1.079990188274578e+01
 9.500788247429296e-01	 9.878574479659187e-01	 1.062610038433754e+01
 9.404074578444084e-01	 9.970686656180009e-01	 1.045517291726852e+01
 9.306481872983784e-01	 1.006183910726506e+00	 1.028938181600466e+01
 9.208024466172767e-01	 1.015201933129700e+00	 1.013097211853168e+01
 1.019559022971459e+00	 9.247543884482524e-01	 1.179744555024222e+01
 1.010502296609453e+00	 9.346423855271264e-01	 1.165503200192311e+01
 1.001347930277306e+00	 9.444435413544701e-01	 1.150186552216362e+01
 9.920971795022532e-01	 9.541564162654309e-01	 1.134016877772082e+01
 9.827513279926499e-01	 9.637795949310710e-01	 1.117220417482261e+01
 9.733116870450125e-01	 9.733116870450125e-01	 1.100026529680086e+01
 9.637795949310713e-01	 9.827513279926497e-01	 1.082666798559597e+01
 9.541564162654312e-01	 9.920971795022531e-01	 1.065374110830071e+01
 9.444435413544703e-01	 1.001347930277306e+00	 1.048381705216492e+01
 9.346423855271270e-01	 1.010502296609453e+00	 1.031922199351053e+01
 9.247543884482523e-01	 1.019559022971459e+00	 1.016226598778087e+01
 1.023916112813217e+00	 9.287063302792279e-01	 1.181745970222453e+01
 1.014820682492399e+00	 9.386365837558750e-01	 1.167637174815075e+01
 1.005627194936611e+00	 9.484796248645316e-01	 1.152434216784222e+01
 9.963369110385876e-01	 9.582340077879327e-01	 1.136363905861755e+01
 9.869511199926183e-01	 9.678983111487253e-01	 1.119657277802472e+01
 9.774711386990510e-01	 9.774711386990506e-01	 1.102548716804333e+01
 9.678983111487257e-01	 9.869511199926182e-01	 1.085275040996406e+01
 9.582340077879333e-01	 9.963369110385875e-01	 1.068074555213461e+01
 9.484796248645320e-01	 1.005627194936610e+00	 1.051186075509213e+01
 9.386365837558751e-01	 1.014820682492399e+00	 1.034847930068959e+01
 9.287063302792278e-01	 1.023916112813217e+00	 1.019296941365385e+01
 1.028273202654975e+00	 9.326582721102036e-01	 1.183655155542225e+01
 1.019139068375346e+00	 9.426307819846237e-01	 1.169677685954424e+01
 1.009906459595915e+00	 9.525157083745939e-01	 1.154589542326105e+01
 1.000576642574923e+00	 9.623115993104350e-01	 1.138621491500778e+01
 9.911509119925869e-01	 9.720170273663793e-01	 1.122008764345478e+01
 9.816305903530896e-01	 9.816305903530895e-01	 1.104990157356888e+01
 9.720170273663796e-01	 9.911509119925869e-01	 1.087807096011609e+01
 9.623115993104350e-01	 1.000576642574922e+00	 1.070702664182797e+01
 9.525157083745938e-01	 1.009906459595915e+00	 1.053920604184748e+01
 9.426307819846235e-01	 1.019139068375346e+00	 1.037704292222667e+01
 9.326582721102035e-01	 1.028273202654975e+00	 1.022295694213869e+01
 1.032630292496734e+00	 9.366102139411789e-01	 1.185465109721696e+01
 1.023457454258292e+00	 9.466249802133717e-01	 1.171618267898987e+01
 1.014185724255220e+00	 9.565517918846554e-01	 1.156646337917659e+01
 1.004816374111257e+00	 9.663891908329366e-01	 1.140783467034253e+01
 9.953507039925554e-01	 9.761357435840334e-01	 1.124268490775704e+01
 9.857900420071282e-01	 9.857900420071278e-01	 1.107344014247548e+01
 9.761357435840337e-01	 9.953507039925554e-01	 1.090255453858180e+01
 9.663891908329368e-01	 1.004816374111256e+00	 1.073250043884536e+01
 9.565517918846559e-01	 1.014185724255220e+00	 1.056575812551532e+01
 9.466249802133719e-01	 1.023457454258292e+00	 1.040480532519686e+01
 9.366102139411786e-01	 1.032630292496734e+00	 1.025210650869741e+01
 1.036987382338492e+00	 9.405621557721543e-01	 1.187169186597315e+01
 1.027775840141238e+00	 9.506191784421200e-01	 1.173452796490205e+01
 1.018464988914525e+00	 9.605878753947175e-01	 1.158598743782822e+01
 1.009056105647591e+00	 9.704667823554385e-01	 1.142843988568124e+01
 9.995504959925245e-01	 9.802544598016878e-01	 1.126430390023695e+01
 9.899494936611666e-01	 9.899494936611664e-01	 1.109603767925315e+01
 9.802544598016878e-01	 9.995504959925239e-01	 1.092612923243317e+01
 9.704667823554385e-01	 1.009056105647591e+00	 1.075708622349975e+01
 9.605878753947177e-01	 1.018464988914525e+00	 1.059142549622642e+01
 9.506191784421204e-01	 1.027775840141238e+00	 1.043166233453612e+01
 9.405621557721541e-01	 1.036987382338492e+00	 1.028029950880563e+01
 1.041344472180251e+00	 9.445140976031297e-01	 1.188761103773456e+01
 1.032094226024185e+00	 9.546133766708684e-01	 1.175175497992067e+01
 1.022744253573829e+00	 9.646239589047794e-01	 1.160441240274998e+01
 1.013295837183926e+00	 9.745443738779400e-01	 1.144797544976391e+01
 1.003750287992493e+00	 9.843731760193419e-01	 1.128488723236781e+01
 9.941089453152053e-01	 9.941089453152049e-01	 1.111763225193121e+01
 9.843731760193420e-01	 1.003750287992493e+00	 1.094872639931066e+01
 9.745443738779406e-01	 1.013295837183925e+00	 1.078070657813297e+01
 9.646239589047794e-01	 1.022744253573829e+00	 1.061612000079327e+01
 9.546133766708685e-01	 1.032094226024185e+00	 1.045751320847259e+01
 9.445140976031295e-01	 1.041344472180251e+00	 1.030742086855300e+01
 1.045701562022009e+00	 9.484660394341050e-01	 1.190234951273725e+01
 1.036412611907131e+00	 9.586075748996170e-01	 1.176780957936636e+01
 1.027023518233134e+00	 9.686600424148413e-01	 1.162168656830334e+01
 1.017535568720260e+00	 9.786219654004420e-01	 1.146638966878375e+01
 1.007950079992461e+00	 9.884918922369962e-01	 1.130438088700067e+01
 9.982683969692436e-01	 9.982683969692433e-01	 1.113816527994706e+01
 9.884918922369962e-01	 1.007950079992461e+00	 1.097028075320971e+01
 9.786219654004422e-01	 1.017535568720260e+00	 1.080328747010425e+01
 9.686600424148413e-01	 1.027023518233134e+00	 1.063975692222568e+01
 9.586075748996175e-01	 1.036412611907131e+00	 1.048226071391951e+01
 9.484660394341050e-01	 1.045701562022009e+00	 1.033335911530353e+01
 9.089466211243505e-01	 1.002130663604425e+00	 1.003485175326971e+01
 8.991437311346276e-01	 1.010935397417125e+00	 9.872600581281922e+00
 8.892583834481693e-01	 1.019641777516383e+00	 9.704486907020451e+00
 8.792920606695199e-01	 1.028248656227261e+00	 9.532117672614149e+00
 8.692462664661782e-01	 1.036754915698126e+00	 9.357028126543605e+00
 8.591225248187095e-01	 1.045159468377312e+00	 9.180673750145184e+00
 8.489223792581323e-01	 1.053461257467180e+00	 9.004422334529767e+00
 8.386473920913724e-01	 1.061659257355183e+00	 8.829546252652563e+00
 8.282991436155962e-01	 1.069752474021579e+00	 8.657214970711840e+00
 8.178792313222335e-01	 1.077739945423464e+00	 8.488487842228194e+00
 8.073892690915262e-01	 1.085620741854848e+00	 8.324307227078311e+00
 9.128985629553260e-01	 1.006487753446183e+00	 1.006713139054808e+01
 9.030530517047780e-01	 1.015330768710243e+00	 9.906511750079970e+00
 8.931247242457701e-01	 1.024075002636019e+00	 9.740098387004979e+00
 8.831150696289528e-01	 1.032719302558684e+00	 9.569436624795582e+00
 8.730255980595099e-01	 1.041262545766379e+00	 9.395996455703013e+00
 8.628578401440081e-01	 1.049703639978952e+00	 9.221164384660899e+00
 8.526133461244718e-01	 1.058041523803994e+00	 9.046235427565657e+00
 8.422936851004653e-01	 1.066275167169771e+00	 8.872405309634733e+00
 8.319004442400119e-01	 1.074403571734716e+00	 8.700762908989301e+00
 8.214352279801560e-01	 1.082425771273132e+00	 8.532282989770014e+00
 8.108996572180114e-01	 1.090340832036826e+00	 8.367819267978229e+00
 9.168505047863016e-01	 1.010844843287942e+00	 1.009921657891969e+01
 9.069623722749290e-01	 1.019726140003361e+00	 9.940217810208932e+00
 8.969910650433710e-01	 1.028508227755656e+00	 9.775432107486671e+00
 8.869380785883856e-01	 1.037189948890107e+00	 9.606356930212158e+00
 8.768049296528411e-01	 1.045770175834632e+00	 9.434411142963036e+00
 8.665931554693073e-01	 1.054247811580593e+00	 9.260926752127286e+00
 8.563043129908113e-01	 1.062621790140807e+00	 9.087140800440954e+00
 8.459399781095582e-01	 1.070891076984359e+00	 8.914187466118101e+00
 8.355017448644274e-01	 1.079054669447854e+00	 8.743090412738768e+00
 8.249912246380789e-01	 1.087111597122799e+00	 8.574755435219513e+00
 8.144100453444962e-01	 1.095060922218803e+00	 8.409963446055158e+00
 9.208024466172767e-01	 1.015201933129700e+00	 1.013097211853168e+01
 9.108716928450791e-01	 1.024121511296478e+00	 9.973569971965809e+00
 9.008574058409717e-01	 1.032941452875292e+00	 9.810330190637320e+00
 8.907610875478180e-01	 1.041660595221530e+00	 9.642715975955543e+00
 8.805842612461721e-01	 1.050277805902885e+00	 9.472109042150956e+00
 8.703284707946057e-01	 1.058791983182233e+00	 9.299801221178379e+00
 8.599952798571514e-01	 1.067202056477621e+00	 9.126986228458167e+00
 8.495862711186511e-01	 1.075506986798947e+00	 8.954751637296038e+00
 8.391030454888433e-01	 1.083705767160991e+00	 8.784071109245193e+00
 8.285472212960019e-01	 1.091797422972466e+00	 8.615796926796509e+00
 8.179204334709809e-01	 1.099781012400780e+00	 8.450652873660520e+00
 9.247543884482523e-01	 1.019559022971459e+00	 1.016226598778087e+01
 9.147810134152299e-01	 1.028516882589597e+00	 1.000642271497935e+01
 9.047237466385724e-01	 1.037374677994928e+00	 9.844638035245227e+00
 8.945840965072508e-01	 1.046131241552953e+00	 9.678354352429963e+00
 8.843635928395035e-01	 1.054785435971137e+00	 9.508930059785023e+00
 8.740637861199047e-01	 1.063336154783874e+00	 9.337630988538747e+00
 8.636862467234910e-01	 1.071782322814435e+00	 9.165622019820658e+00
 8.532325641277441e-01	 1.080122896613534e+00	 8.993958908935724e+00
 8.427043461132587e-01	 1.088356864874128e+00	 8.823580370398631e+00
 8.321032179539245e-01	 1.096483248822133e+00	 8.655300471263569e+00
 8.214308215974659e-01	 1.104501102582758e+00	 8.489801379116624e+00
 9.287063302792278e-01	 1.023916112813217e+00	 1.019296941365385e+01
 9.186903339853805e-01	 1.032912253882714e+00	 1.003863385379941e+01
 9.085900874361729e-01	 1.041807903114565e+00	 9.878204379176363e+00
 8.984071054666835e-01	 1.050601887884376e+00	 9.713115914247272e+00
 8.881429244328344e-01	 1.059293066039390e+00	 9.544717215908594e+00
 8.777991014452031e-01	 1.067880326385514e+00	 9.374262141236448e+00
 8.673772135898306e-01	 1.076362589151249e+00	 9.202901080608452e+00
 8.568788571368369e-01	 1.084738806428122e+00	 9.031672606428664e+00
 8.463056467376742e-01	 1.093007962587266e+00	 8.861495387076626e+00
 8.356592146118472e-01	 1.101169074671800e+00	 8.693160414822739e+00
 8.249412097239510e-01	 1.109221192764736e+00	 8.527323595253286e+00
 9.326582721102035e-01	 1.028273202654975e+00	 1.022295694213869e+01
 9.225996545555311e-01	 1.037307625175832e+00	 1.007006460365116e+01
 9.124564282337738e-01	 1.046241128234201e+00	 9.910881362051770e+00
 9.022301144261160e-01	 1.055072534215798e+00	 9.746847841350824e+00
 8.919222560261656e-01	 1.063800696107642e+00	 9.579316705124935e+00
 8.815344167705021e-01	 1.072424497987155e+00	 9.409543718953465e+00
 8.710681804561702e-01	 1.080942855488062e+00	 9.238678979785401e+00
 8.605251501459298e-01	 1.089354716242710e+00	 9.067758363740655e+00
 8.499069473620898e-01	 1.097659060300403e+00	 8.897695243252109e+00
 8.392152112697699e-01	 1.105854900521468e+00	 8.729272523543727e+00
 8.284515978504355e-01	 1.113941282946713e+00	 8.563135047247195e+00
 9.366102139411786e-01	 1.032630292496734e+00	 1.025210650869741e+01
 9.265089751256815e-01	 1.041702996468950e+00	 1.010057964634548e+01
 9.163227690313744e-01	 1.050674353353837e+00	 9.942524588134583e+00
 9.060531233855488e-01	 1.059543180547222e+00	 9.779400700362869e+00
 8.957015876194967e-01	 1.068308326175895e+00	 9.612577957828835e+00
 8.852697320958005e-01	 1.076968669588795e+00	 9.443327776508886e+00
 8.747591473225103e-01	 1.085523121824877e+00	 9.272814014242076e+00
 8.641714431550229e-01	 1.093970626057298e+00	 9.102084192264378e+00
 8.535082479865056e-01	 1.102310158013540e+00	 8.932060989843375e+00
 8.427712079276927e-01	 1.110540726371135e+00	 8.763534063335438e+00
 8.319619859769204e-01	 1.118661373128691e+00	 8.597152239780376e+00
 9.405621557721541e-01	 1.036987382338492e+00	 1.028029950880563e+01
 9.304182956958322e-01	 1.046098367762068e+00	 1.013004719634618e+01
 9.201891098289751e-01	 1.055107578473474e+00	 9.972993189423260e+00
 9.098761323449815e-01	 1.064013826878644e+00	 9.810628506146536e+00
 8.994809192128278e-01	 1.072815956244148e+00	 9.644353701626297e+00
 8.890050474210994e-01	 1.081512841190436e+00	 9.475469446468963e+00
 8.784501141888497e-01	 1.090103388161690e+00	 9.305167273872128e+00
 8.678177361641156e-01	 1.098586535871885e+00	 9.134520549574606e+00
 8.571095486109211e-01	 1.106961255726677e+00	 8.964475718308307e+00
 8.463272045856154e-01	 1.115226552220802e+00	 8.795843879477765e+00
 8.354723741034055e-01	 1.123381463310669e+00	 8.629292743544610e+00
 9.445140976031295e-01	 1.041344472180251e+00	 1.030742086855300e+01
 9.343276162659822e-01	 1.050493739055186e+00	 1.015833906698530e+01
 9.240554506265761e-01	 1.059540803593110e+00	 1.000214988894174e+01
 9.136991413044140e-01	 1.068484473210067e+00	 9.840388783576635e+00
 9.032602508061592e-01	 1.077323586312401e+00	 9.674500022940133e+00
 8.927403627463980e-01	 1.086057012792076e+00	 9.505827001883457e+00
 8.821410810551896e-01	 1.094683654498504e+00	 9.335602706681128e+00
 8.714640291732086e-01	 1.103202445686473e+00	 9.164940408094314e+00
 8.607108492353369e-01	 1.111612353439815e+00	 8.994824633994298e+00
 8.498832012435382e-01	 1.119912378070469e+00	 8.826102475721163e+00
 8.389827622298903e-01	 1.128101553492646e+00	 8.659475281102571e+00
 9.484660394341050e-01	 1.045701562022009e+00	 1.033335911530353e+01
 9.382369368361333e-01	 1.054889110348304e+00	 1.018533073682331e+01
 9.279217914241770e-01	 1.063974028712747e+00	 1.002986106422153e+01
 9.175221502638469e-01	 1.072955119541490e+00	 9.868542629515714e+00
 9.070395823994906e-01	 1.081831216380653e+00	 9.702876428794911e+00
 8.964756780716970e-01	 1.090601184393717e+00	 9.534261919144203e+00
 8.858320479215291e-01	 1.099263920835318e+00	 9.363987183924813e+00
 8.751103221823016e-01	 1.107818355501061e+00	 9.193219323670709e+00
 8.643121498597526e-01	 1.116263451152952e+00	 9.022995129246763e+00
 8.534391979014607e-01	 1.124598203920137e+00	 8.854212092972265e+00
 8.424931503563753e-01	 1.132821643674624e+00	 8.687619812132798e+00
 8.073892690915262e-01	 1.085620741854848e+00	 8.324307227078311e+00
 7.968308863784398e-01	 1.093393966282497e+00	 8.160402520097547e+00
 7.862057273907724e-01	 1.101058754657337e+00	 7.992757259236835e+00
 7.755154502603331e-01	 1.108614276201210e+00	 7.822506524812099e+00
 7.647617262080180e-01	 1.116059733668836e+00	 7.650651748282670e+00
 7.539462387036661e-01	 1.123394363584851e+00	 7.478055412546723e+00
 7.430706826215403e-01	 1.130617436455841e+00	 7.305436291815766e+00
 7.321367633922949e-01	 1.137728256957290e+00	 7.133365260240063e+00
 7.211461961522920e-01	 1.144726164095457e+00	 6.962261695671407e+00
 7.101007048911184e-01	 1.151610531344150e+00	 6.792390502000619e+00
 6.990020215981505e-01	 1.158380766756475e+00	 6.623859770450457e+00
 8.108996572180114e-01	 1.090340832036826e+00	 8.367819267978229e+00
 8.002953684931282e-01	 1.098147853092420e+00	 8.203109521123455e+00
 7.896240131620369e-01	 1.105845966634108e+00	 8.034331529100402e+00
 7.788872565658128e-01	 1.113434338271650e+00	 7.862808912551760e+00
 7.680867771915310e-01	 1.120912167293483e+00	 7.689733228403576e+00
 7.572242658284648e-01	 1.128278686904786e+00	 7.516158217494306e+00
 7.463014247198951e-01	 1.135533164440431e+00	 7.342994599736981e+00
 7.353199667113920e-01	 1.142674901552757e+00	 7.171005447391793e+00
 7.242816143964326e-01	 1.149703234374133e+00	 7.000802164173763e+00
 7.131880992602101e-01	 1.156617533654342e+00	 6.832841094920090e+00
 7.020411608224900e-01	 1.163417204872807e+00	 6.667420787388513e+00
 8.144100453444962e-01	 1.095060922218803e+00	 8.409963446055158e+00
 8.037598506078173e-01	 1.102901739902345e+00	 8.244513241230040e+00
 7.930422989333011e-01	 1.110633178610879e+00	 8.074811974186286e+00
 7.822590628712929e-01	 1.118254400342090e+00	 7.902361242070622e+00
 7.714118281750439e-01	 1.125764600918129e+00	 7.728531776799194e+00
 7.605022929532633e-01	 1.133163010224720e+00	 7.554557252352476e+00
 7.495321668182493e-01	 1.140448892425022e+00	 7.381528648075902e+00
 7.385031700304889e-01	 1.147621546148223e+00	 7.210389199964892e+00
 7.274170326405731e-01	 1.154680304652809e+00	 7.041929968996079e+00
 7.162754936293021e-01	 1.161624535964534e+00	 6.876786052489441e+00
 7.050803000468301e-01	 1.168453642989139e+00	 6.715433461265189e+00
 8.179204334709809e-01	 1.099781012400780e+00	 8.450652873660520e+00
 8.072243327225060e-01	 1.107655626712269e+00	 8.284547408891310e+00
 7.964605847045654e-01	 1.115420390587650e+00	 8.114148427236927e+00
 7.856308691767722e-01	 1.123074462412530e+00	 7.941125114146743e+00
 7.747368791585573e-01	 1.130617034542777e+00	 7.767016604050816e+00
 7.637803200780620e-01	 1.138047333544654e+00	 7.593225359408668e+00
 7.527629089166039e-01	 1.145364620409612e+00	 7.421011114765806e+00
 7.416863733495855e-01	 1.152568190743690e+00	 7.251485419184240e+00
 7.305524508847135e-01	 1.159657374931484e+00	 7.085606807437452e+00
 7.193628879983940e-01	 1.166631538274726e+00	 6.924176627205617e+00
 7.081194392711698e-01	 1.173490081105472e+00	 6.767835546214593e+00
 8.214308215974659e-01	 1.104501102582758e+00	 8.489801379116624e+00
 8.106888148371949e-01	 1.112409513522193e+00	 8.323145938456182e+00
 7.998788704758294e-01	 1.120207602564421e+00	 8.152290454339964e+00
 7.890026754822520e-01	 1.127894524482970e+00	 7.979061485688588e+00
 7.780619301420703e-01	 1.135469468167424e+00	 7.805155972663284e+00
 7.670583472028605e-01	 1.142931656864588e+00	 7.632134199324284e+00
 7.559936510149587e-01	 1.150280348394203e+00	 7.461413330822722e+00
 7.448695766686826e-01	 1.157514835339156e+00	 7.294261559877487e+00
 7.336878691288538e-01	 1.164634445210160e+00	 7.131792894240452e+00
 7.224502823674857e-01	 1.171638540584918e+00	 6.974962613634952e+00
 7.111585784955096e-01	 1.178526519221805e+00	 6.823864087223687e+00
 8.249412097239510e-01	 1.109221192764736e+00	 8.527323595253286e+00
 8.141532969518840e-01	 1.117163400332116e+00	 8.360243025989435e+00
 8.032971562470937e-01	 1.124994814541192e+00	 8.189187456366064e+00
 7.923744817877316e-01	 1.132714586553410e+00	 8.016130775118055e+00
 7.813869811255835e-01	 1.140321901792071e+00	 7.842917304805695e+00
 7.703363743276588e-01	 1.147815980184522e+00	 7.671254359703385e+00
 7.592243931133129e-01	 1.155196076378794e+00	 7.502705388274460e+00
 7.480527799877797e-01	 1.162461479934623e+00	 7.338683736358853e+00
 7.368232873729943e-01	 1.169611515488836e+00	 7.180447064088910e+00
 7.255376767365777e-01	 1.176645542895110e+00	 7.029087698579762e+00
 7.141977177198490e-01	 1.183562957338137e+00	 6.877340096458615e+00
 8.284515978504355e-01	 1.113941282946713e+00	 8.563135047247195e+00
 8.176177790665728e-01	 1.121917287142040e+00	 8.395773244193627e+00
 8.067154420183580e-01	 1.129782026517963e+00	 8.224788769308400e+00
 7.957462880932116e-01	 1.137534648623850e+00	 8.052292966518962e+00
 7.847120321090966e-01	 1.145174335416718e+00	 7.880267288717905e+00
 7.736144014524574e-01	 1.152700303504456e+00	 7.710555462267530e+00
 7.624551352116676e-01	 1.160111804363384e+00	 7.544856246672103e+00
 7.512359833068764e-01	 1.167408124530089e+00	 7.384716826910587e+00
 7.399587056171346e-01	 1.174588585767512e+00	 7.231526872749817e+00
 7.286250711056693e-01	 1.181652545205302e+00	 7.082408543933781e+00
 7.172368569441893e-01	 1.188599395454470e+00	 6.927042704491640e+00
 8.319619859769204e-01	 1.118661373128691e+00	 8.597152239780376e+00
 8.210822611812616e-01	 1.126671173951964e+00	 8.429671636437892e+00
 8.101337277896222e-01	 1.134569238494734e+00	 8.259043763554736e+00
 7.991180943986911e-01	 1.142354710694290e+00	 8.087507712585364e+00
 7.880370830926098e-01	 1.150026769041365e+00	 7.917171983822826e+00
 7.768924285772560e-01	 1.157584626824391e+00	 7.750006268678410e+00
 7.656858773100220e-01	 1.165027532347975e+00	 7.587833838229847e+00
 7.544191866259735e-01	 1.172354769125556e+00	 7.432324576902925e+00
 7.430941238612752e-01	 1.179565656046188e+00	 7.283624735830500e+00
 7.317124654747612e-01	 1.186659547515494e+00	 7.131535170013760e+00
 7.202759961685290e-01	 1.193635833570802e+00	 6.973240368797414e+00
 8.354723741034055e-01	 1.123381463310669e+00	 8.629292743544610e+00
 8.245467432959503e-01	 1.131425060761888e+00	 8.461873809919465e+00
 8.135520135608864e-01	 1.139356450471505e+00	 8.291901942125961e+00
 8.024899007041705e-01	 1.147174772764730e+00	 8.121734436403962e+00
 7.913621340761228e-01	 1.154879202666012e+00	 7.953596924581577e+00
 7.801704557020546e-01	 1.162468950144325e+00	 7.789574785048718e+00
 7.689166194083769e-01	 1.169943260332566e+00	 7.631605171629636e+00
 7.576023899450705e-01	 1.177301413721022e+00	 7.481378693020956e+00
 7.462295421054155e-01	 1.184542726324864e+00	 7.331659627728000e+00
 7.347998598438530e-01	 1.191666549825686e+00	 7.176751353824747e+00
 7.233151353928688e-01	 1.198672271687135e+00	 7.016201656216808e+00
 8.389827622298903e-01	 1.128101553492646e+00	 8.659475281102571e+00
 8.280112254106394e-01	 1.136178947571812e+00	 8.492316027985074e+00
 8.169702993321506e-01	 1.144143662448276e+00	 8.323313037907537e+00
 8.058617070096504e-01	 1.151994834835170e+00	 8.154932432108829e+00
 7.946871850596361e-01	 1.159731636290660e+00	 7.989507223131156e+00
 7.834484828268530e-01	 1.167353273464258e+00	 7.829228365177929e+00
 7.721473615067310e-01	 1.174858988317156e+00	 7.676136434534087e+00
 7.607855932641675e-01	 1.182248058316488e+00	 7.527791132124632e+00
 7.493649603495559e-01	 1.189519796603540e+00	 7.375414751177686e+00
 7.378872542129448e-01	 1.196673552135878e+00	 7.218340781592294e+00
 7.263542746172086e-01	 1.203708709803467e+00	 7.056195238363376e+00
 8.424931503563753e-01	 1.132821643674624e+00	 8.687619812132798e+00
 8.314757075253281e-01	 1.140932834381736e+00	 8.520935301634301e+00
 8.203885851034152e-01	 1.148930874425047e+00	 8.353227109908280e+00
 8.092335133151302e-01	 1.156814896905610e+00	 8.187060964436556e+00
 7.980122360431492e-01	 1.164584069915307e+00	 8.024867670735004e+00
 7.867265099516516e-01	 1.172237596784193e+00	 7.868933812554896e+00
 7.753781036050856e-01	 1.179774716301747e+00	 7.720095185734841e+00
 7.639687965832644e-01	 1.187194702911955e+00	 7.569592967096892e+00
 7.525003785936962e-01	 1.194496866882216e+00	 7.415185501029740e+00
 7.409746485820367e-01	 1.201680554446069e+00	 7.256587045280918e+00
 7.293934138415482e-01	 1.208745147919800e+00	 7.093489885992622e+00
 6.990020215981505e-01	 1.158380766756475e+00	 6.623859770450457e+00
 6.878518854090216e-01	 1.165036313051603e+00	 6.460490981210214e+00
 6.766520417528159e-01	 1.171576647676696e+00	 6.307011920489674e+00
 6.654042415008303e-01	 1.178001282844091e+00	 6.164204793835285e+00
 6.541102401177163e-01	 1.184309765543949e+00	 6.021932762695773e+00
 6.427717968158131e-01	 1.190501677532539e+00	 5.875675249982528e+00
 6.313906737134672e-01	 1.196576635296408e+00	 5.725472131457188e+00
 6.199686349981213e-01	 1.202534289992675e+00	 5.571376619908236e+00
 6.085074460949413e-01	 1.208374327365751e+00	 5.413457354044523e+00
 5.970088728417323e-01	 1.214096467640798e+00	 5.251800313186903e+00
 5.854746806708802e-01	 1.219700465394250e+00	 5.086407961825230e+00
 7.020411608224900e-01	 1.163417204872807e+00	 6.667420787388513e+00
 6.908425457803653e-01	 1.170101688325741e+00	 6.508712156270773e+00
 6.795940071517413e-01	 1.176670459188334e+00	 6.361631311051541e+00
 6.682973034203991e-01	 1.183123027552109e+00	 6.218737758527647e+00
 6.569541976834457e-01	 1.189458938437618e+00	 6.072706476568781e+00
 6.455664568019690e-01	 1.195677771782681e+00	 5.923519432411619e+00
 6.341358505556995e-01	 1.201779142406393e+00	 5.771168746268003e+00
 6.226641508024610e-01	 1.207762699949164e+00	 5.615659063027753e+00
 6.111531306431802e-01	 1.213628128789080e+00	 5.457009752927041e+00
 5.996045635932179e-01	 1.219375147934889e+00	 5.295256932024293e+00
 5.880202227607537e-01	 1.225003510895964e+00	 5.130454666403915e+00
 7.050803000468301e-01	 1.168453642989139e+00	 6.715433461265189e+00
 6.938332061517086e-01	 1.175167063599878e+00	 6.562354530689837e+00
 6.825359725506666e-01	 1.181764270699971e+00	 6.417428050542979e+00
 6.711903653399679e-01	 1.188244772260127e+00	 6.270563318356189e+00
 6.597981552491748e-01	 1.194608111331288e+00	 6.121379685077668e+00
 6.483611167881246e-01	 1.200853866032823e+00	 5.969805274922743e+00
 6.368810273979322e-01	 1.206981649516377e+00	 5.815777499133905e+00
 6.253596666068005e-01	 1.212991109905654e+00	 5.659245555958939e+00
 6.137988151914190e-01	 1.218881930212410e+00	 5.500172753582804e+00
 6.022002543447036e-01	 1.224653828228978e+00	 5.338538646488784e+00
 5.905657648506270e-01	 1.230306556397678e+00	 5.174340977472674e+00
 7.081194392711698e-01	 1.173490081105472e+00	 6.767835546214593e+00
 6.968238665230523e-01	 1.180232438874015e+00	 6.618854672104844e+00
 6.854779379495918e-01	 1.186858082211609e+00	 6.470084509098770e+00
 6.740834272595368e-01	 1.193366516968144e+00	 6.319894815256470e+00
 6.626421128149041e-01	 1.199757284224957e+00	 6.168147267673820e+00
 6.511557767742802e-01	 1.206029960282964e+00	 6.014709217729927e+00
 6.396262042401647e-01	 1.212184156626361e+00	 5.859456501946505e+00
 6.280551824111400e-01	 1.218219519862144e+00	 5.702276081067433e+00
 6.164444997396580e-01	 1.224135731635739e+00	 5.543068495704677e+00
 6.047959450961898e-01	 1.229932508523069e+00	 5.381750128657265e+00
 5.931113069405004e-01	 1.235609601899392e+00	 5.218255265807699e+00
 7.111585784955096e-01	 1.178526519221805e+00	 6.823864087223687e+00
 6.998145268943955e-01	 1.185297814148152e+00	 6.672070008579525e+00
 6.884199033485170e-01	 1.191951893723247e+00	 6.519833018120528e+00
 6.769764891791058e-01	 1.198488261676162e+00	 6.366946420527943e+00
 6.654860703806330e-01	 1.204906457118626e+00	 6.213205169753385e+00
 6.539504367604358e-01	 1.211206054533105e+00	 6.058409000269682e+00
 6.423713810823970e-01	 1.217386663736346e+00	 5.902365394129188e+00
 6.307506982154800e-01	 1.223447929818634e+00	 5.744892369938571e+00
 6.190901842878967e-01	 1.229389533059068e+00	 5.585821081645339e+00
 6.073916358476754e-01	 1.235211188817160e+00	 5.424998216853975e+00
 5.956568490303739e-01	 1.240912647401107e+00	 5.262288186234413e+00
 7.141977177198490e-01	 1.183562957338137e+00	 6.877340096458615e+00
 7.028051872657395e-01	 1.190363189422290e+00	 6.721949077937400e+00
 6.913618687474422e-01	 1.197045705234885e+00	 6.566906493396081e+00
 6.798695510986745e-01	 1.203610006384180e+00	 6.411933124660078e+00
 6.683300279463623e-01	 1.210055630012296e+00	 6.256750389084247e+00
 6.567450967465917e-01	 1.216382148783246e+00	 6.101083644252459e+00
 6.451165579246296e-01	 1.222589170846330e+00	 5.944665322361063e+00
 6.334462140198193e-01	 1.228676339775123e+00	 5.787237879855548e+00
 6.217358688361356e-01	 1.234643334482398e+00	 5.628556549761342e+00
 6.099873265991612e-01	 1.240489869111250e+00	 5.468391885998964e+00
 5.982023911202473e-01	 1.246215692902821e+00	 5.306532090906774e+00
 7.172368569441893e-01	 1.188599395454470e+00	 6.927042704491640e+00
 7.057958476370829e-01	 1.195428564696428e+00	 6.768742915220987e+00
 6.943038341463678e-01	 1.202139516746523e+00	 6.611538427408454e+00
 6.827626130182434e-01	 1.208731751092198e+00	 6.455070726375943e+00
 6.711739855120913e-01	 1.215204802905965e+00	 6.298980961576270e+00
 6.595397567327476e-01	 1.221558243033388e+00	 6.142913436182901e+00
 6.478617347668618e-01	 1.227791677956314e+00	 5.986518919895482e+00
 6.361417298241592e-01	 1.233904749731614e+00	 5.829457769997974e+00
 6.243815533843745e-01	 1.239897135905727e+00	 5.671402847594562e+00
 6.125830173506471e-01	 1.245768549405341e+00	 5.512042217910136e+00
 6.007479332101207e-01	 1.251518738404535e+00	 5.351081625487407e+00
 7.202759961685290e-01	 1.193635833570802e+00	 6.973240368797414e+00
 7.087865080084267e-01	 1.200493939970565e+00	 6.812702895172434e+00
 6.972457995452930e-01	 1.207233328258160e+00	 6.653962880756909e+00
 6.856556749378120e-01	 1.213853495800215e+00	 6.496575820911435e+00
 6.740179430778208e-01	 1.220353975799634e+00	 6.340095946414245e+00
 6.623344167189030e-01	 1.226734337283530e+00	 6.184079909361723e+00
 6.506069116090942e-01	 1.232994185066299e+00	 6.028090285487652e+00
 6.388372456284986e-01	 1.239133159688103e+00	 5.871698877362970e+00
 6.270272379326134e-01	 1.245150937329057e+00	 5.714489804895186e+00
 6.151787081021328e-01	 1.251047229699431e+00	 5.556062371555664e+00
 6.032934752999940e-01	 1.256821783906249e+00	 5.396033696790305e+00
 7.233151353928688e-01	 1.198672271687135e+00	 7.016201656216808e+00
 7.117771683797700e-01	 1.205559315244702e+00	 6.854080725779214e+00
 7.001877649442180e-01	 1.212327139769798e+00	 6.694414472716954e+00
 6.885487368573810e-01	 1.218975240508233e+00	 6.536665787556797e+00
 6.768619006435499e-01	 1.225503148693303e+00	 6.380295410570229e+00
 6.651290767050589e-01	 1.231910431533671e+00	 6.224765825393967e+00
 6.533520884513266e-01	 1.238196692176283e+00	 6.069544961935179e+00
 6.415327614328385e-01	 1.244361569644594e+00	 5.914109692421722e+00
 6.296729224808523e-01	 1.250404738752386e+00	 5.757949106490116e+00
 6.177743988536187e-01	 1.256325909993522e+00	 5.600567553264517e+00
 6.058390173898673e-01	 1.262124829407963e+00	 5.441487440484063e+00
 7.263542746172086e-01	 1.203708709803467e+00	 7.056195238363376e+00
 7.147678287511136e-01	 1.210624690518840e+00	 6.893128440870718e+00
 7.031297303431434e-01	 1.217420951281436e+00	 6.733128370965765e+00
 6.914417987769496e-01	 1.224096985216251e+00	 6.575558776477920e+00
 6.797058582092791e-01	 1.230652321586973e+00	 6.419780412714907e+00
 6.679237366912143e-01	 1.237086525783813e+00	 6.265155155207185e+00
 6.560972652935594e-01	 1.243399199286267e+00	 6.111049914253687e+00
 6.442282772371781e-01	 1.249589979601083e+00	 5.956840334517031e+00
 6.323186070290909e-01	 1.255658540175715e+00	 5.801914265002502e+00
 6.203700896051044e-01	 1.261604590287612e+00	 5.645674986889578e+00
 6.083845594797409e-01	 1.267427874909677e+00	 5.487544188849785e+00
 7.293934138415482e-01	 1.208745147919800e+00	 7.093489885992622e+00
 7.177584891224574e-01	 1.215690065792978e+00	 6.930098391788691e+00
 7.060716957420690e-01	 1.222514762793074e+00	 6.770340280497468e+00
 6.943348606965186e-01	 1.229218729924269e+00	 6.613473694840593e+00
 6.825498157750083e-01	 1.235801494480642e+00	 6.458752986544680e+00
 6.707183966773703e-01	 1.242262620033954e+00	 6.305433059598974e+00
 6.588424421357917e-01	 1.248601706396252e+00	 6.152773507488423e+00
 6.469237930415179e-01	 1.254818389557574e+00	 6.000042527009862e+00
 6.349642915773300e-01	 1.260912341599045e+00	 5.846520593426838e+00
 6.229657803565902e-01	 1.266883270581703e+00	 5.691503883930570e+00
 6.109301015696141e-01	 1.272730920411391e+00	 5.534307438596738e+00
 5.854746806708802e-01	 1.219700465394250e+00	 5.086407961825238e+00
 5.739066337990386e-01	 1.225186109401782e+00	 4.922283296269393e+00
 5.623064944252542e-01	 1.230553222464108e+00	 4.765102263546883e+00
 5.506760219382193e-01	 1.235801661211021e+00	 4.613951149160886e+00
 5.390169721333015e-01	 1.240931315884109e+00	 4.467987973302094e+00
 5.273310964399966e-01	 1.245942110098623e+00	 4.326439731647590e+00
 5.156201411604141e-01	 1.250834000584943e+00	 4.188599599286288e+00
 5.038858467193930e-01	 1.255606976910171e+00	 4.053824111112423e+00
 4.921299469268156e-01	 1.260261061180353e+00	 3.921530331485782e+00
 4.803541682526688e-01	 1.264796307723859e+00	 3.791193025347001e+00
 4.685602291153700e-01	 1.269212802756485e+00	 3.662341842353748e+00
 5.880202227607537e-01	 1.225003510895964e+00	 5.130454666403916e+00
 5.764018800329476e-01	 1.230513005529616e+00	 4.967968880815701e+00
 5.647513052705814e-01	 1.235903453866126e+00	 4.812551957400160e+00
 5.530702655118638e-01	 1.241174711911938e+00	 4.663208374774580e+00
 5.413605241860550e-01	 1.246326669431432e+00	 4.519014716533279e+00
 5.296238403375618e-01	 1.251359249707748e+00	 4.379116947228168e+00
 5.178619678611116e-01	 1.256272409283139e+00	 4.242727651705710e+00
 5.060766547486077e-01	 1.261066137679346e+00	 4.109123251269892e+00
 4.942696423482366e-01	 1.265740457098528e+00	 3.977641209553754e+00
 4.824426646363761e-01	 1.270295422105267e+00	 3.847677240374464e+00
 4.705974475028282e-01	 1.274731119290209e+00	 3.718682529203669e+00
 5.905657648506270e-01	 1.230306556397678e+00	 5.174340977472674e+00
 5.788971262668563e-01	 1.235839901657450e+00	 5.013460493587765e+00
 5.671961161159085e-01	 1.241253685268144e+00	 4.859752809362171e+00
 5.554645090855082e-01	 1.246547762612855e+00	 4.712086090702361e+00
 5.437040762388083e-01	 1.251722022978754e+00	 4.569475664024432e+00
 5.319165842351271e-01	 1.256776389316873e+00	 4.431006759899974e+00
 5.201037945618090e-01	 1.261710817981334e+00	 4.295831758156026e+00
 5.082674627778224e-01	 1.266525298448521e+00	 4.163167410484943e+00
 4.964093377696574e-01	 1.271219853016704e+00	 4.032292053591915e+00
 4.845311610200834e-01	 1.275794536486675e+00	 3.902542825273452e+00
 4.726346658902865e-01	 1.280249435823932e+00	 3.773312895177142e+00
 5.931113069405004e-01	 1.235609601899392e+00	 5.218255265807699e+00
 5.813923725007650e-01	 1.241166797785283e+00	 5.058827495715031e+00
 5.696409269612359e-01	 1.246603916670162e+00	 4.906764720122831e+00
 5.578587526591526e-01	 1.251920813313773e+00	 4.760638003603569e+00
 5.460476282915621e-01	 1.257117376526076e+00	 4.619421346317001e+00
 5.342093281326922e-01	 1.262193528925997e+00	 4.482159292733857e+00
 5.223456212625066e-01	 1.267149226679530e+00	 4.347964153015276e+00
 5.104582708070372e-01	 1.271984459217696e+00	 4.216013202933950e+00
 4.985490331910785e-01	 1.276699248934879e+00	 4.085545875536013e+00
 4.866196574037905e-01	 1.281293650868083e+00	 3.955860957110513e+00
 4.746718842777444e-01	 1.285767752357657e+00	 3.826313799361696e+00
 5.956568490303739e-01	 1.240912647401107e+00	 5.262288186234408e+00
 5.838876187346740e-01	 1.246493693913117e+00	 5.104141244993148e+00
 5.720857378065630e-01	 1.251954148072180e+00	 4.953649631211261e+00
 5.602529962327968e-01	 1.257293864014690e+00	 4.808919848807340e+00
 5.483911803443152e-01	 1.262512730073398e+00	 4.668904258627430e+00
 5.365020720302573e-01	 1.267610668535121e+00	 4.532626522160766e+00
 5.245874479632040e-01	 1.272587635377725e+00	 4.399178769906448e+00
 5.126490788362519e-01	 1.277443619986870e+00	 4.267718749637035e+00
 5.006887286124996e-01	 1.282178644853055e+00	 4.137466967996300e+00
 4.887081537874979e-01	 1.286792765249491e+00	 4.007703838195493e+00
 4.767091026652024e-01	 1.291286068891380e+00	 3.877766845898125e+00
 5.982023911202473e-01	 1.246215692902821e+00	 5.306532090906781e+00
 5.863828649685829e-01	 1.251820590040951e+00	 5.149475092464712e+00
 5.745305486518901e-01	 1.257304379474197e+00	 5.000471519182538e+00
 5.626472398064413e-01	 1.262666914715608e+00	 4.856989383325377e+00
 5.507347323970689e-01	 1.267908083620720e+00	 4.717978853790019e+00
 5.387948159278226e-01	 1.273027808144246e+00	 4.582462271868960e+00
 5.268292746639013e-01	 1.278026044075920e+00	 4.449531237471406e+00
 5.148398868654666e-01	 1.282902780756045e+00	 4.318343676944858e+00
 5.028284240339204e-01	 1.287658040771230e+00	 4.188120906193960e+00
 4.907966501712051e-01	 1.292291879630899e+00	 4.058144702114177e+00
 4.787463210526607e-01	 1.296804385425104e+00	 3.927754394655510e+00
 6.007479332101207e-01	 1.251518738404535e+00	 5.351081625487405e+00
 5.888781112024919e-01	 1.257147486168785e+00	 5.194909978887475e+00
 5.769753594972173e-01	 1.262654610876216e+00	 5.047296390018886e+00
 5.650414833800858e-01	 1.268039965416525e+00	 4.904906379093010e+00
 5.530782844498223e-01	 1.273303437168043e+00	 4.766701535432455e+00
 5.410875598253877e-01	 1.278444947753370e+00	 4.631722206903561e+00
 5.290711013645988e-01	 1.283464452774116e+00	 4.499078875302770e+00
 5.170306948946815e-01	 1.288361941525220e+00	 4.367949115111155e+00
 5.049681194553413e-01	 1.293137436689406e+00	 4.237574549893347e+00
 4.928851465549126e-01	 1.297790994012308e+00	 4.107257819645550e+00
 4.807835394401189e-01	 1.302322701958828e+00	 3.976359571670630e+00
 6.032934752999940e-01	 1.256821783906249e+00	 5.396033696790305e+00
 5.913733574364004e-01	 1.262474382296619e+00	 5.240641338047604e+00
 5.794201703425446e-01	 1.268004842278233e+00	 5.094192273729334e+00
 5.674357269537300e-01	 1.273413016117443e+00	 4.952732616444967e+00
 5.554218365025758e-01	 1.278698790715365e+00	 4.815130651379243e+00
 5.433803037229530e-01	 1.283862087362494e+00	 4.680463827973130e+00
 5.313129280652963e-01	 1.288902861472311e+00	 4.547880690028317e+00
 5.192215029238960e-01	 1.293821102294394e+00	 4.416597696946128e+00
 5.071078148767622e-01	 1.298616832607581e+00	 4.285896045326613e+00
 4.949736429386197e-01	 1.303290108393715e+00	 4.155118504570230e+00
 4.828207578275769e-01	 1.307841018492552e+00	 4.023666279362234e+00
 6.058390173898673e-01	 1.262124829407963e+00	 5.441487440484063e+00
 5.938686036703095e-01	 1.267801278424453e+00	 5.286800158705255e+00
 5.818649811878717e-01	 1.273355073680251e+00	 5.141229219152724e+00
 5.698299705273747e-01	 1.278786066818360e+00	 5.000531877809065e+00
 5.577653885553292e-01	 1.284094144262687e+00	 4.863326487276719e+00
 5.456730476205182e-01	 1.289279226971619e+00	 4.728746465944838e+00
 5.335547547659937e-01	 1.294341270170506e+00	 4.595997371539099e+00
 5.214123109531109e-01	 1.299280263063569e+00	 4.464353556549453e+00
 5.092475102981832e-01	 1.304096228525757e+00	 4.333154827113245e+00
 4.970621393223269e-01	 1.308789222775124e+00	 4.201803119372122e+00
 4.848579762150351e-01	 1.313359335026276e+00	 4.069759206522940e+00
 6.083845594797409e-01	 1.267427874909677e+00	 5.487544188849778e+00
 5.963638499042183e-01	 1.273128174552286e+00	 5.333473756220250e+00
 5.843097920331990e-01	 1.278705305082269e+00	 5.188479288945816e+00
 5.722242141010190e-01	 1.284159117519278e+00	 5.048369941620543e+00
 5.601089406080828e-01	 1.289489497810009e+00	 4.911351260431337e+00
 5.479657915180833e-01	 1.294696366580744e+00	 4.776631276534937e+00
 5.357965814666912e-01	 1.299779678868702e+00	 4.643491289366480e+00
 5.236031189823255e-01	 1.304739423832743e+00	 4.511282328121595e+00
 5.113872057196042e-01	 1.309575624443932e+00	 4.379421620172879e+00
 4.991506357060341e-01	 1.314288337156531e+00	 4.247389080834955e+00
 4.868951946024932e-01	 1.318877651560000e+00	 4.114723838096057e+00
 6.109301015696141e-01	 1.272730920411391e+00	 5.534307438596745e+00
 5.988590961381273e-01	 1.278455070680120e+00	 5.380751751974858e+00
 5.867546028785261e-01	 1.284055536484286e+00	 5.236016554762587e+00
 5.746184576746636e-01	 1.289532168220195e+00	 5.096314576442166e+00
 5.624524926608362e-01	 1.294884851357332e+00	 4.959269113857667e+00
 5.502585354156487e-01	 1.300113506189868e+00	 4.824181235179455e+00
 5.380384081673887e-01	 1.305218087566897e+00	 4.690426489189051e+00
 5.257939270115405e-01	 1.310198584601918e+00	 4.557451144846732e+00
 5.135269011410251e-01	 1.315055020362107e+00	 4.424768441632933e+00
 5.012391320897414e-01	 1.319787451537940e+00	 4.291954865540462e+00
 4.889324129899513e-01	 1.324395968093723e+00	 4.158646464749154e+00
 4.685602291153700e-01	 1.269212802756485e+00	 3.662341842353748e+00
 4.567498391838610e-01	 1.273510664028824e+00	 3.534709605940915e+00
 4.449246986939351e-01	 1.277690040456499e+00	 3.408379882843215e+00
 4.330864977792531e-01	 1.281751111733834e+00	 3.283487673587220e+00
 4.212369158174596e-01	 1.285694087931578e+00	 3.160218282151482e+00
 4.093776207918021e-01	 1.289519209079284e+00	 3.038803998506698e+00
 3.975102686686193e-01	 1.293226744732965e+00	 2.919520853543615e+00
 3.856365027910402e-01	 1.296816993528661e+00	 2.802685454065271e+00
 3.737579532892144e-01	 1.300290282722546e+00	 2.688651904771605e+00
 3.618762365073603e-01	 1.303646967718212e+00	 2.577808823411790e+00
 3.499929544478980e-01	 1.306887431581791e+00	 2.470576454545312e+00
 4.705974475028282e-01	 1.274731119290209e+00	 3.718682529203669e+00
 4.587357080498776e-01	 1.279047666915906e+00	 3.590415859749124e+00
 4.468591539056479e-01	 1.283245214545441e+00	 3.463093216181159e+00
 4.349694825522065e-01	 1.287323942654416e+00	 3.336931847305234e+00
 4.230683806688399e-01	 1.291284062226933e+00	 3.212199914193206e+00
 4.111575234908970e-01	 1.295125814336151e+00	 3.089212997932937e+00
 3.992385741845697e-01	 1.298849469710065e+00	 2.968330684602182e+00
 3.873131832379577e-01	 1.302455328283134e+00	 2.849953235381223e+00
 3.753829878687327e-01	 1.305943718734383e+00	 2.734518348945667e+00
 3.634496114486968e-01	 1.309314998012639e+00	 2.622498022507089e+00
 3.515146629454975e-01	 1.312569550849538e+00	 2.514395517107069e+00
 4.726346658902865e-01	 1.280249435823932e+00	 3.773312895177142e+00
 4.607215769158944e-01	 1.284584669802988e+00	 3.644410202971732e+00
 4.487936091173607e-01	 1.288800388634382e+00	 3.516181802827230e+00
 4.368524673251598e-01	 1.292896773574999e+00	 3.388910690076678e+00
 4.248998455202201e-01	 1.296874036522288e+00	 3.262931267714026e+00
 4.129374261899917e-01	 1.300732419593017e+00	 3.138625702055456e+00
 4.009668797005204e-01	 1.304472194687165e+00	 3.016420360233564e+00
 3.889898636848755e-01	 1.308093663037607e+00	 2.896782337650891e+00
 3.770080224482510e-01	 1.311597154746219e+00	 2.780216082717894e+00
 3.650229863900331e-01	 1.314983028307066e+00	 2.667260125406071e+00
 3.530363714430972e-01	 1.318251670117285e+00	 2.558483915356450e+00
 4.746718842777444e-01	 1.285767752357657e+00	 3.826313799361696e+00
 4.627074457819111e-01	 1.290121672690069e+00	 3.696782163516902e+00
 4.507280643290735e-01	 1.294355562723323e+00	 3.567740617314441e+00
 4.387354520981132e-01	 1.298469604495580e+00	 3.439521632411275e+00
 4.267313103716005e-01	 1.302464010817643e+00	 3.312509470203999e+00
 4.147173288890864e-01	 1.306339024849884e+00	 3.187136407920578e+00
 4.026951852164709e-01	 1.310094919664265e+00	 3.063879050932394e+00
 3.906665441317928e-01	 1.313731997792078e+00	 2.943254739592783e+00
 3.786330570277694e-01	 1.317250590758057e+00	 2.825818058085295e+00
 3.665963613313694e-01	 1.320651058601492e+00	 2.712157451943112e+00
 3.545580799406967e-01	 1.323933789385032e+00	 2.602891960095581e+00
 4.767091026652024e-01	 1.291286068891380e+00	 3.877766845898132e+00
 4.646933146479279e-01	 1.295658675577151e+00	 3.747621752853956e+00
 4.526625195407861e-01	 1.299910736812264e+00	 3.617864912907013e+00
 4.406184368710662e-01	 1.304042435416161e+00	 3.488862231612820e+00
 4.285627752229805e-01	 1.308053985112998e+00	 3.361031673126714e+00
 4.164972315881814e-01	 1.311945630106750e+00	 3.234839379062803e+00
 4.044234907324213e-01	 1.315717644641365e+00	 3.110795877741385e+00
 3.923432245787105e-01	 1.319370332546551e+00	 2.989452392288594e+00
 3.802580916072878e-01	 1.322904026769894e+00	 2.871397255185363e+00
 3.681697362727057e-01	 1.326319088895920e+00	 2.757252436047257e+00
 3.560797884382962e-01	 1.329615908652779e+00	 2.647670188567598e+00
 4.787463210526607e-01	 1.296804385425104e+00	 3.927754394655510e+00
 4.666791835139447e-01	 1.301195678464233e+00	 3.797019480957881e+00
 4.545969747524989e-01	 1.305465910901206e+00	 3.666650239629496e+00
 4.425014216440195e-01	 1.309615266336744e+00	 3.537030191798541e+00
 4.303942400743609e-01	 1.313643959408352e+00	 3.408595072914594e+00
 4.182771342872761e-01	 1.317552235363617e+00	 3.281828866537039e+00
 4.061517962483719e-01	 1.321340369618465e+00	 3.157259932468762e+00
 3.940199050256280e-01	 1.325008667301024e+00	 3.035457237809302e+00
 3.818831261868060e-01	 1.328557462781732e+00	 2.917026698642903e+00
 3.697431112140420e-01	 1.331987119190347e+00	 2.802607639200104e+00
 3.576014969358958e-01	 1.335298027920526e+00	 2.692869374502738e+00
 4.807835394401189e-01	 1.302322701958828e+00	 3.976359571670630e+00
 4.686650523799616e-01	 1.306732681351316e+00	 3.845066370906502e+00
 4.565314299642118e-01	 1.311021084990147e+00	 3.714192461876506e+00
 4.443844064169727e-01	 1.315188097257326e+00	 3.584123383445217e+00
 4.322257049257411e-01	 1.319233933703707e+00	 3.455296931457523e+00
 4.200570369863710e-01	 1.323158840620483e+00	 3.328199129444384e+00
 4.078801017643223e-01	 1.326963094595564e+00	 3.203360297413021e+00
 3.956965854725456e-01	 1.330647002055496e+00	 3.081351227394138e+00
 3.835081607663244e-01	 1.334210898793569e+00	 2.962779473526610e+00
 3.713164861553784e-01	 1.337655149484774e+00	 2.848285763576034e+00
 3.591232054334954e-01	 1.340980147188273e+00	 2.738540537925282e+00
 4.828207578275769e-01	 1.307841018492552e+00	 4.023666279362241e+00
 4.706509212459783e-01	 1.312269684238397e+00	 3.891853973144380e+00
 4.584658851759245e-01	 1.316576259079089e+00	 3.760587775602095e+00
 4.462673911899261e-01	 1.320760928177908e+00	 3.630239862464585e+00
 4.340571697771213e-01	 1.324823907999062e+00	 3.501234596101968e+00
 4.218369396854657e-01	 1.328765445877350e+00	 3.374044454960095e+00
 4.096084072802729e-01	 1.332585819572665e+00	 3.249186064615412e+00
 3.973732659194632e-01	 1.336285336809968e+00	 3.127216339185247e+00
 3.851331953458426e-01	 1.339864334805406e+00	 3.008728740914828e+00
 3.728898610967148e-01	 1.343323179779201e+00	 2.894349664862051e+00
 3.606449139310949e-01	 1.346662266456019e+00	 2.784734954725390e+00
 4.848579762150351e-01	 1.313359335026276e+00	 4.069759206522940e+00
 4.726367901119950e-01	 1.317806687125479e+00	 3.937474379419189e+00
 4.604003403876372e-01	 1.322131433168029e+00	 3.805932725110607e+00
 4.481503759628793e-01	 1.326333759098489e+00	 3.675477888831044e+00
 4.358886346285017e-01	 1.330413882294416e+00	 3.546505519169646e+00
 4.236168423845604e-01	 1.334372051134216e+00	 3.419459177881002e+00
 4.113367127962234e-01	 1.338208544549764e+00	 3.294826354643981e+00
 3.990499463663808e-01	 1.341923671564441e+00	 3.173134595541322e+00
 3.867582299253611e-01	 1.345517770817243e+00	 3.054947753094317e+00
 3.744632360380511e-01	 1.348991210073628e+00	 2.940862364774324e+00
 3.621666224286945e-01	 1.352344385723767e+00	 2.831504166007267e+00
 4.868951946024932e-01	 1.318877651560000e+00	 4.114723838096056e+00
 4.746226589780119e-01	 1.323343690012561e+00	 3.982020236405484e+00
 4.623347955993501e-01	 1.327686607256971e+00	 3.850324219458344e+00
 4.500333607358326e-01	 1.331906590019071e+00	 3.719935944768732e+00
 4.377200994798819e-01	 1.336003856589771e+00	 3.591207277017022e+00
 4.253967450836552e-01	 1.339978656391082e+00	 3.464537699711852e+00
 4.130650183121740e-01	 1.343831269526864e+00	 3.340370334933332e+00
 4.007266268132982e-01	 1.347562006318913e+00	 3.219188079929629e+00
 3.883832645048793e-01	 1.351171206829079e+00	 3.101509868387874e+00
 3.760366109793875e-01	 1.354659240368054e+00	 2.987887063275277e+00
 3.636883309262940e-01	 1.358026504991514e+00	 2.878899987216214e+00
 4.889324129899513e-01	 1.324395968093723e+00	 4.158646464749154e+00
 4.766085278440287e-01	 1.328880692899643e+00	 4.025584759017711e+00
 4.642692508110627e-01	 1.333241781345912e+00	 3.893859548474168e+00
 4.519163455087860e-01	 1.337479420939653e+00	 3.763712752514436e+00
 4.395515643312622e-01	 1.341593830885125e+00	 3.635437588640925e+00
 4.271766477827501e-01	 1.345585261647949e+00	 3.509374507292467e+00
 4.147933238281245e-01	 1.349453994503964e+00	 3.385907237688211e+00
 4.024033072602159e-01	 1.353200341073386e+00	 3.265458953428002e+00
 3.900082990843977e-01	 1.356824642840917e+00	 3.148488565639470e+00
 3.776099859207238e-01	 1.360327270662482e+00	 3.035487150504311e+00
 3.652100394238936e-01	 1.363708624259261e+00	 2.926974517056044e+00
 3.499929544478980e-01	 1.306887431581791e+00	 2.470576454545312e+00
 3.381096942329062e-01	 1.310012084545540e+00	 2.366785094634432e+00
 3.262280275831111e-01	 1.313021363500553e+00	 2.265972907165746e+00
 3.143495103146007e-01	 1.315915731479257e+00	 2.168159620847885e+00
 3.024756818534217e-01	 1.318695677128323e+00	 2.073384454134330e+00
 2.906080647681958e-01	 1.321361714172657e+00	 1.981704490178047e+00
 2.787481643208708e-01	 1.323914380871121e+00	 1.893193155277429e+00
 2.668974680356874e-01	 1.326354239464615e+00	 1.807938800772706e+00
 2.550574452864327e-01	 1.328681875617176e+00	 1.726043387833805e+00
 2.432295469020153e-01	 1.330897897850718e+00	 1.647621274075184e+00
 2.314152047903792e-01	 1.333002936974051e+00	 1.572798100492079e+00
 3.515146629454975e-01	 1.312569550849538e+00	 2.514395517107069e+00
 3.395797363817450e-01	 1.315707789260955e+00	 2.410045371396948e+00
 3.276464103117333e-01	 1.318730152037512e+00	 2.308908419857076e+00
 3.157162473159685e-01	 1.321637104224820e+00	 2.210964319160203e+00
 3.037907935136538e-01	 1.324429136594099e+00	 2.116211745927789e+00
 2.918715780932750e-01	 1.327106765103843e+00	 2.024666808590833e+00
 2.799601128613963e-01	 1.329670530353170e+00	 1.936361565039531e+00
 2.680578918097556e-01	 1.332120997027505e+00	 1.851342645885046e+00
 2.561663907007215e-01	 1.334458753337251e+00	 1.769669982636919e+00
 2.442870666711545e-01	 1.336684410450069e+00	 1.691415639583989e+00
 2.324213578546852e-01	 1.338798601917417e+00	 1.616662747709016e+00
 3.530363714430972e-01	 1.318251670117285e+00	 2.558483915356450e+00
 3.410497785305837e-01	 1.321403493976370e+00	 2.453707657322120e+00
 3.290647930403555e-01	 1.324438940574471e+00	 2.352314322458297e+00
 3.170829843173364e-01	 1.327358476970382e+00	 2.254253791218424e+00
 3.051059051738862e-01	 1.330162596059874e+00	 2.159494528565255e+00
 2.931350914183541e-01	 1.332851816035029e+00	 2.068022018715457e+00
 2.811720614019218e-01	 1.335426679835218e+00	 1.979837308274404e+00
 2.692183155838238e-01	 1.337887754590395e+00	 1.894955657472961e+00
 2.572753361150104e-01	 1.340235631057326e+00	 1.813405298667186e+00
 2.453445864402936e-01	 1.342470923049419e+00	 1.735226300762897e+00
 2.334275109189912e-01	 1.344594266860782e+00	 1.660469537741460e+00
 3.545580799406967e-01	 1.323933789385032e+00	 2.602891960095581e+00
 3.425198206794223e-01	 1.327099198691786e+00	 2.497810781726187e+00
 3.304831757689777e-01	 1.330147729111430e+00	 2.396220156876432e+00
 3.184497213187042e-01	 1.333079849715944e+00	 2.298050356095226e+00
 3.064210168341184e-01	 1.335896055525649e+00	 2.203249832870984e+00
 2.943986047434333e-01	 1.338596866966214e+00	 2.111783667337041e+00
 2.823840099424474e-01	 1.341182829317267e+00	 2.023632121275778e+00
 2.703787393578919e-01	 1.343654512153284e+00	 1.938789304028602e+00
 2.583842815292992e-01	 1.346012508777400e+00	 1.857261948354007e+00
 2.464021062094328e-01	 1.348257435648771e+00	 1.779068294767816e+00
 2.344336639832972e-01	 1.350389931804148e+00	 1.704237082411692e+00
 3.560797884382962e-01	 1.329615908652779e+00	 2.647670188567598e+00
 3.439898628282611e-01	 1.332794903407202e+00	 2.542393906676015e+00
 3.319015584975999e-01	 1.335856517648389e+00	 2.440655869651534e+00
 3.198164583200721e-01	 1.338801222461506e+00	 2.342376777264697e+00
 3.077361284943506e-01	 1.341629514991425e+00	 2.247495144036209e+00
 2.956621180685123e-01	 1.344341917897399e+00	 2.155965738077165e+00
 2.835959584829728e-01	 1.346938978799315e+00	 2.067758134443602e+00
 2.715391631319601e-01	 1.349421269716174e+00	 1.982855382516713e+00
 2.594932269435881e-01	 1.351789386497475e+00	 1.901252786349383e+00
 2.474596259785720e-01	 1.354043948248122e+00	 1.822956796391545e+00
 2.354398170476032e-01	 1.356185596747513e+00	 1.747984010518975e+00
 3.576014969358958e-01	 1.335298027920526e+00	 2.692869374502738e+00
 3.454599049770998e-01	 1.338490608122617e+00	 2.587496533777469e+00
 3.333199412262223e-01	 1.341565306185348e+00	 2.485651816260074e+00
 3.211831953214400e-01	 1.344522595207068e+00	 2.387256265140697e+00
 3.090512401545830e-01	 1.347362974457200e+00	 2.292248403060551e+00
 2.969256313935915e-01	 1.350086968828585e+00	 2.200582652355050e+00
 2.848079070234983e-01	 1.352695128281363e+00	 2.112227873338735e+00
 2.726995869060283e-01	 1.355188027279064e+00	 2.027166020047592e+00
 2.606021723578769e-01	 1.357566264217550e+00	 1.945390912295450e+00
 2.485171457477112e-01	 1.359830460847472e+00	 1.866907122346775e+00
 2.364459701119092e-01	 1.361981261690878e+00	 1.791728974019424e+00
 3.591232054334954e-01	 1.340980147188273e+00	 2.738540537925282e+00
 3.469299471259385e-01	 1.344186312838032e+00	 2.633158510811470e+00
 3.347383239548443e-01	 1.347274094722307e+00	 2.531238765325799e+00
 3.225499323228078e-01	 1.350243967952630e+00	 2.432712479561484e+00
 3.103663518148152e-01	 1.353096433922975e+00	 2.337528008160960e+00
 2.981891447186706e-01	 1.355832019759770e+00	 2.245649270330618e+00
 2.860198555640239e-01	 1.358451277763411e+00	 2.157054259719312e+00
 2.738600106800966e-01	 1.360954784841953e+00	 2.071733675515130e+00
 2.617111177721658e-01	 1.363343141937625e+00	 1.989689673523759e+00
 2.495746655168504e-01	 1.365616973446824e+00	 1.910934735447265e+00
 2.374521231762151e-01	 1.367776926634244e+00	 1.835490654056658e+00
 3.606449139310949e-01	 1.346662266456019e+00	 2.784734954725390e+00
 3.483999892747773e-01	 1.349882017553448e+00	 2.679420038211330e+00
 3.361567066834666e-01	 1.352982883259266e+00	 2.577447902731787e+00
 3.239166693241755e-01	 1.355965340698192e+00	 2.478769532220594e+00
 3.116814634750475e-01	 1.358829893388751e+00	 2.383352816162341e+00
 2.994526580437497e-01	 1.361577070690956e+00	 2.291180891837699e+00
 2.872318041045493e-01	 1.364207427245459e+00	 2.202250612558910e+00
 2.750204344541647e-01	 1.366721542404843e+00	 2.116571141197618e+00
 2.628200631864546e-01	 1.369120019657699e+00	 2.034162667695015e+00
 2.506321852859895e-01	 1.371403486046174e+00	 1.955055248685093e+00
 2.384582762405212e-01	 1.373572591577609e+00	 1.879287766835745e+00
 3.621666224286945e-01	 1.352344385723767e+00	 2.831504166007267e+00
 3.498700314236159e-01	 1.355577722268863e+00	 2.726321675394979e+00
 3.375750894120889e-01	 1.358691671796225e+00	 2.624310835646038e+00
 3.252834063255433e-01	 1.361686713443754e+00	 2.525451989049563e+00
 3.129965751352797e-01	 1.364563352854526e+00	 2.429742143854596e+00
 3.007161713688289e-01	 1.367322121622141e+00	 2.337193257296663e+00
 2.884437526450749e-01	 1.369963576727508e+00	 2.247830649043864e+00
 2.761808582282330e-01	 1.372488299967733e+00	 2.161691544327211e+00
 2.639290086007434e-01	 1.374896897377774e+00	 2.078823745373851e+00
 2.516897050551288e-01	 1.377189998645526e+00	 1.999284429212752e+00
 2.394644293048271e-01	 1.379368256520975e+00	 1.923139069361992e+00
 3.636883309262940e-01	 1.358026504991514e+00	 2.878899987216214e+00
 3.513400735724547e-01	 1.361273426984278e+00	 2.773904346948346e+00
 3.389934721407111e-01	 1.364400460333183e+00	 2.671859596455334e+00
 3.266501433269111e-01	 1.367408086189315e+00	 2.572784872551870e+00
 3.143116867955120e-01	 1.370296812320301e+00	 2.476715769332250e+00
 3.019796846939078e-01	 1.373067172553326e+00	 2.383702548617443e+00
 2.896557011856005e-01	 1.375719726209557e+00	 2.293808485559454e+00
 2.773412820023011e-01	 1.378255057530622e+00	 2.207108348626147e+00
 2.650379540150323e-01	 1.380673775097849e+00	 2.123687012549260e+00
 2.527472248242679e-01	 1.382976511244876e+00	 2.043638202229234e+00
 2.404705823691332e-01	 1.385163921464340e+00	 1.967063365034942e+00
 3.652100394238936e-01	 1.363708624259261e+00	 2.926974517056044e+00
 3.528101157212933e-01	 1.366969131699694e+00	 2.822209348670800e+00
 3.404118548693333e-01	 1.370109248870143e+00	 2.720126646614929e+00
 3.280168803282790e-01	 1.373129458934878e+00	 2.620793664089133e+00
 3.156267984557444e-01	 1.376030271786077e+00	 2.524293933305938e+00
 3.032431980189871e-01	 1.378812223484512e+00	 2.430725390085677e+00
 2.908676497261261e-01	 1.381475875691605e+00	 2.340198638650100e+00
 2.785017057763694e-01	 1.384021815093512e+00	 2.252835355809609e+00
 2.661468994293211e-01	 1.386450652817923e+00	 2.168766833095777e+00
 2.538047445934072e-01	 1.388763023844227e+00	 2.088132654774082e+00
 2.414767354334392e-01	 1.390959586407706e+00	 2.011079509107389e+00
 2.314152047903792e-01	 1.333002936974051e+00	 1.572798100492079e+00
 2.196158315807568e-01	 1.334997645506805e+00	 1.501429654825355e+00
 2.078328202842229e-01	 1.336882697098861e+00	 1.433324781115443e+00
 1.960675439725129e-01	 1.338658785945921e+00	 1.368553704218842e+00
 1.843213554750279e-01	 1.340326626201788e+00	 1.307195718480893e+00
 1.725955870939398e-01	 1.341886951387976e+00	 1.249338666847631e+00
 1.608915503372874e-01	 1.343340513801204e+00	 1.195078498273391e+00
 1.492105356699354e-01	 1.344688083919356e+00	 1.144518899527111e+00
 1.375538122822508e-01	 1.345930449806467e+00	 1.097770997322434e+00
 1.259226278763327e-01	 1.347068416517267e+00	 1.054953126535934e+00
 1.143182084696158e-01	 1.348102805501834e+00	 1.016190660168801e+00
 2.324213578546852e-01	 1.338798601917417e+00	 1.616662747709016e+00
 2.205706830224122e-01	 1.340801983095965e+00	 1.545236173259064e+00
 2.087364412419804e-01	 1.342695230564509e+00	 1.476961152661672e+00
 1.969200115550021e-01	 1.344479041536990e+00	 1.411935907485183e+00
 1.851227526727455e-01	 1.346154133272231e+00	 1.350267264500849e+00
 1.733460026900004e-01	 1.347721242480968e+00	 1.292070108122516e+00
 1.615910788170147e-01	 1.349181124730775e+00	 1.237466914327706e+00
 1.498592771293699e-01	 1.350534553849440e+00	 1.186587362044459e+00
 1.381518723356520e-01	 1.351782321327365e+00	 1.139568017807579e+00
 1.264701175627516e-01	 1.352925235719517e+00	 1.096552089320380e+00
 1.148152441586141e-01	 1.353964122047494e+00	 1.057689243432450e+00
 2.334275109189912e-01	 1.344594266860782e+00	 1.660469537741460e+00
 2.215255344640678e-01	 1.346606320685125e+00	 1.588939572627911e+00
 2.096400621997379e-01	 1.348507764030156e+00	 1.520478096509207e+00
 1.977724791374913e-01	 1.350299297128059e+00	 1.455205682356493e+00
 1.859241498704629e-01	 1.351981640342673e+00	 1.393251019066186e+00
 1.740964182860610e-01	 1.353555533573959e+00	 1.334750344864082e+00
 1.622906072967420e-01	 1.355021735660345e+00	 1.279846965254828e+00
 1.505080185888044e-01	 1.356381023779525e+00	 1.228690851378756e+00
 1.387499323890530e-01	 1.357634192848262e+00	 1.181438314441352e+00
 1.270176072491704e-01	 1.358782054921765e+00	 1.138251751710103e+00
 1.153122798476125e-01	 1.359825438593155e+00	 1.099299459459166e+00
 2.344336639832972e-01	 1.350389931804148e+00	 1.704237082411692e+00
 2.224803859057231e-01	 1.352410658274285e+00	 1.632562074008280e+00
 2.105436831574954e-01	 1.354320297495803e+00	 1.563900501088981e+00
 1.986249467199805e-01	 1.356119552719129e+00	 1.498389719974839e+00
 1.867255470681805e-01	 1.357809147413116e+00	 1.436174688185780e+00
 1.748468338821215e-01	 1.359389824666950e+00	 1.377407386404158e+00
 1.629901357764694e-01	 1.360862346589915e+00	 1.322246327930055e+00
 1.511567600482389e-01	 1.362227493709609e+00	 1.270856151355303e+00
 1.393479924424541e-01	 1.363486064369160e+00	 1.223407291971314e+00
 1.275650969355892e-01	 1.364638874124014e+00	 1.180075727271091e+00
 1.158093155366108e-01	 1.365686755138815e+00	 1.141042791761390e+00
 2.354398170476032e-01	 1.356185596747513e+00	 1.747984010518975e+00
 2.234352373473787e-01	 1.358214995863445e+00	 1.676125797809339e+00
 2.114473041152529e-01	 1.360132830961450e+00	 1.607253056241648e+00
 1.994774143024697e-01	 1.361939808310197e+00	 1.541514433370723e+00
 1.875269442658980e-01	 1.363636654483558e+00	 1.479065637322458e+00
 1.755972494781822e-01	 1.365224115759941e+00	 1.420068854864219e+00
 1.636896642561967e-01	 1.366702957519486e+00	 1.364692259809451e+00
 1.518055015076734e-01	 1.368073963639693e+00	 1.313109607310554e+00
 1.399460524958552e-01	 1.369337935890058e+00	 1.265499909425889e+00
 1.281125866220081e-01	 1.370495693326263e+00	 1.222047187146186e+00
 1.163063512256091e-01	 1.371548071684475e+00	 1.182940293956258e+00
 2.364459701119092e-01	 1.361981261690878e+00	 1.791728974019424e+00
 2.243900887890342e-01	 1.364019333452605e+00	 1.719652771823191e+00
 2.123509250730104e-01	 1.365945364427098e+00	 1.650560262749896e+00
 2.003298818849588e-01	 1.367760063901267e+00	 1.584605968124477e+00
 1.883283414636155e-01	 1.369464161554001e+00	 1.521950902851375e+00
 1.763476650742428e-01	 1.371058406852932e+00	 1.462761997113011e+00
 1.643891927359240e-01	 1.372543568449057e+00	 1.407211611110071e+00
 1.524542429671079e-01	 1.373920433569777e+00	 1.355477138255994e+00
 1.405441125492563e-01	 1.375189807410956e+00	 1.307740692032331e+00
 1.286600763084270e-01	 1.376352512528512e+00	 1.264188871541679e+00
 1.168033869146074e-01	 1.377409388230135e+00	 1.225012600653201e+00
 2.374521231762151e-01	 1.367776926634244e+00	 1.835490654056658e+00
 2.253449402306896e-01	 1.369823671041765e+00	 1.763164939070472e+00
 2.132545460307678e-01	 1.371757897892745e+00	 1.693846441630719e+00
 2.011823494674480e-01	 1.373580319492336e+00	 1.627690212755836e+00
 1.891297386613330e-01	 1.375291668624444e+00	 1.564857203233362e+00
 1.770980806703034e-01	 1.376892697945924e+00	 1.505513696420490e+00
 1.650887212156514e-01	 1.378384179378627e+00	 1.449830836683918e+00
 1.531029844265424e-01	 1.379766903499861e+00	 1.397984248725775e+00
 1.411421726026574e-01	 1.381041678931853e+00	 1.350153742835145e+00
 1.292075659948458e-01	 1.382209331730761e+00	 1.306523100922572e+00
 1.173004226036058e-01	 1.383270704775795e+00	 1.267279938068297e+00
 2.384582762405212e-01	 1.373572591577609e+00	 1.879287766835745e+00
 2.262997916723450e-01	 1.375628008630924e+00	 1.806684165452543e+00
 2.141581669885253e-01	 1.377570431358392e+00	 1.737135743198045e+00
 2.020348170499372e-01	 1.379400575083405e+00	 1.670792808856122e+00
 1.899311358590505e-01	 1.381119175694886e+00	 1.607810949899874e+00
 1.778484962663640e-01	 1.382726989038914e+00	 1.548350483820379e+00
 1.657882496953786e-01	 1.384224790308197e+00	 1.492576007592726e+00
 1.537517258859769e-01	 1.385613373429946e+00	 1.440656040334782e+00
 1.417402326560584e-01	 1.386893550452750e+00	 1.392762754020234e+00
 1.297550556812646e-01	 1.388066150933011e+00	 1.349071786928042e+00
 1.177974582926041e-01	 1.389132021321455e+00	 1.309762134370202e+00
 2.394644293048271e-01	 1.379368256520975e+00	 1.923139069361992e+00
 2.272546431140005e-01	 1.381432346220085e+00	 1.850232247217124e+00
 2.150617879462829e-01	 1.383382964824039e+00	 1.780452155896147e+00
 2.028872846324264e-01	 1.385220830674474e+00	 1.713939160967460e+00
 1.907325330567680e-01	 1.386946682765329e+00	 1.650838257872351e+00
 1.785989118624246e-01	 1.388561280131906e+00	 1.591298549186076e+00
 1.664877781751060e-01	 1.390065401237768e+00	 1.535472822391530e+00
 1.544004673454113e-01	 1.391459843360029e+00	 1.483517223037781e+00
 1.423382927094595e-01	 1.392745421973649e+00	 1.435591017952927e+00
 1.303025453676835e-01	 1.393922970135259e+00	 1.391856443004644e+00
 1.182944939816024e-01	 1.394993337867116e+00	 1.352478629762687e+00
 2.404705823691332e-01	 1.385163921464340e+00	 1.967063365034942e+00
 2.282094945556560e-01	 1.387236683809245e+00	 1.893830918233565e+00
 2.159654089040403e-01	 1.389195498289686e+00	 1.823819514916922e+00
 2.037397522149156e-01	 1.391041086265544e+00	 1.757154446213625e+00
 1.915339302544855e-01	 1.392774189835771e+00	 1.693964956114542e+00
 1.793493274584852e-01	 1.394395571224897e+00	 1.634383752032484e+00
 1.671873066548333e-01	 1.395906012167338e+00	 1.578546618129655e+00
 1.550492088048459e-01	 1.397306313290114e+00	 1.526592126111190e+00
 1.429363527628606e-01	 1.398597293494546e+00	 1.478661437941105e+00
 1.308500350541023e-01	 1.399779789337508e+00	 1.434898194784630e+00
 1.187915296706007e-01	 1.400854654412776e+00	 1.395448486319361e+00
 2.414767354334392e-01	 1.390959586407706e+00	 2.011079509107389e+00
 2.291643459973114e-01	 1.393041021398405e+00	 1.937501857095360e+00
 2.168690298617978e-01	 1.395008031755334e+00	 1.867261510603992e+00
 2.045922197974047e-01	 1.396861341856613e+00	 1.800463623693415e+00
 1.923353274522031e-01	 1.398601696906214e+00	 1.737216597626577e+00
 1.800997430545459e-01	 1.400229862317889e+00	 1.677631632045478e+00
 1.678868351345607e-01	 1.401746623096909e+00	 1.621822381077868e+00
 1.556979502642804e-01	 1.403152783220198e+00	 1.569904708860037e+00
 1.435344128162617e-01	 1.404449165015444e+00	 1.521996538731500e+00
 1.313975247405211e-01	 1.405636608539757e+00	 1.478217790192049e+00
 1.192885653595991e-01	 1.406715970958436e+00	 1.438690397567454e+00
 1.143182084696158e-01	 1.348102805501834e+00	 1.016190660168801e+00
 1.027417582156535e-01	 1.349034454010859e+00	 9.814965292775648e-01
 9.119445924186378e-02	 1.349864214502038e+00	 9.507199701589630e-01
 7.967747150401981e-02	 1.350592954048089e+00	 9.237527655071549e-01
 6.819193265723941e-02	 1.351221553746864e+00	 9.004959614976158e-01
 5.673895794322394e-02	 1.351750908134015e+00	 8.808602263949967e-01
 4.531964009348064e-02	 1.352181924598690e+00	 8.647662329157051e-01
 3.393504924825203e-02	 1.352515522802655e+00	 8.521450597876599e-01
 2.258623289086556e-02	 1.352752634103301e+00	 8.429386080604688e-01
 1.127421579720543e-02	 1.352894200980911e+00	 8.371000278258172e-01
 0.000000000000000e+00	 1.352941176470588e+00	 8.345941511545489e-01
 1.148152441586141e-01	 1.353964122047494e+00	 1.057689243432450e+00
 1.031884615122432e-01	 1.354899821202209e+00	 1.022994950730004e+00
 9.159095689074145e-02	 1.355733189347699e+00	 9.922871442344678e-01
 8.002389529316771e-02	 1.356465097326560e+00	 9.654306303992393e-01
 6.848841932096653e-02	 1.357096430067502e+00	 9.422994308865424e-01
 5.698564906471622e-02	 1.357628085995467e+00	 9.227771903923863e-01
 4.551668200693054e-02	 1.358060976444770e+00	 9.067576080529154e-01
 3.408259294063572e-02	 1.358396025075709e+00	 8.941448877246856e-01
 2.268443390343453e-02	 1.358634167295054e+00	 8.848542025487034e-01
 1.132323412675849e-02	 1.358776349680828e+00	 8.788121693164239e-01
 0.000000000000000e+00	 1.358823529411765e+00	 8.759573283160331e-01
 1.153122798476125e-01	 1.359825438593155e+00	 1.099299459459166e+00
 1.036351648088331e-01	 1.360765188393562e+00	 1.064594753898661e+00
 9.198745453961914e-02	 1.361602164193360e+00	 1.033927794477177e+00
 8.037031908231566e-02	 1.362337240605030e+00	 1.007143063202400e+00
 6.878490598469368e-02	 1.362971306388141e+00	 9.840941539475585e-01
 5.723234018620852e-02	 1.363505263856920e+00	 9.646442231817214e-01
 4.571372392038046e-02	 1.363940028290852e+00	 9.486664643564571e-01
 3.423013663301944e-02	 1.364276527348764e+00	 9.360446011050723e-01
 2.278263491600352e-02	 1.364515700486808e+00	 9.266733945021022e-01
 1.137225245631156e-02	 1.364658498380745e+00	 9.204591597771057e-01
 0.000000000000000e+00	 1.364705882352941e+00	 9.173202880185358e-01
 1.158093155366108e-01	 1.365686755138815e+00	 1.141042791761390e+00
 1.040818681054229e-01	 1.366630555584913e+00	 1.106315583701476e+00
 9.238395218849681e-02	 1.367471139039021e+00	 1.075660540388748e+00
 8.071674287146353e-02	 1.368209383883500e+00	 1.048908381221708e+00
 6.908139264842079e-02	 1.368846182708780e+00	 1.025898779425551e+00
 5.747903130770077e-02	 1.369382441718372e+00	 1.006480849430404e+00
 4.591076583383038e-02	 1.369819080136933e+00	 9.905136582438447e-01
 3.437768032540315e-02	 1.370157029621820e+00	 9.778667558158762e-01
 2.288083592857249e-02	 1.370397233678561e+00	 9.684207195013506e-01
 1.142127078586463e-02	 1.370540647080662e+00	 9.620677078721358e-01
 0.000000000000000e+00	 1.370588235294118e+00	 9.587120192772292e-01
 1.163063512256091e-01	 1.371548071684475e+00	 1.182940293956258e+00
 1.045285714020127e-01	 1.372495922776265e+00	 1.148176666087243e+00
 9.278044983737446e-02	 1.373340113884682e+00	 1.117503582853732e+00
 8.106316666061145e-02	 1.374081527161969e+00	 1.090744474396230e+00
 6.937787931214794e-02	 1.374721059029419e+00	 1.067731512306405e+00
 5.772572242919307e-02	 1.375259619579825e+00	 1.048306127461373e+00
 4.610780774728028e-02	 1.375698131983014e+00	 1.032319552445811e+00
 3.452522401778684e-02	 1.376037531894875e+00	 1.019633383384537e+00
 2.297903694114148e-02	 1.376278766870315e+00	 1.010120156169452e+00
 1.147028911541770e-02	 1.376422795780579e+00	 1.003663932174747e+00
 0.000000000000000e+00	 1.376470588235294e+00	 1.000160888730409e+00
 1.168033869146074e-01	 1.377409388230135e+00	 1.225012600653201e+00
 1.049752746986025e-01	 1.378361289967617e+00	 1.190196818392881e+00
 9.317694748625213e-02	 1.379209088730343e+00	 1.159474714220738e+00
 8.140959044975937e-02	 1.379953670440439e+00	 1.132668815323961e+00
 6.967436597587505e-02	 1.380595935350057e+00	 1.109610123978316e+00
 5.797241355068535e-02	 1.381136797441277e+00	 1.090138659714128e+00
 4.630484966073020e-02	 1.381577183829096e+00	 1.074104026893235e+00
 3.467276771017055e-02	 1.381918034167930e+00	 1.061366002384406e+00
 2.307723795371046e-02	 1.382160300062068e+00	 1.051795138161339e+00
 1.151930744497077e-02	 1.382304944480496e+00	 1.045273373782172e+00
 0.000000000000000e+00	 1.382352941176470e+00	 1.041694653883164e+00
 1.173004226036058e-01	 1.383270704775795e+00	 1.267279938068297e+00
 1.054219779951923e-01	 1.384226657158968e+00	 1.232394459440450e+00
 9.357344513512982e-02	 1.385078063576004e+00	 1.201591328128482e+00
 8.175601423890728e-02	 1.385825813718909e+00	 1.174698469033630e+00
 6.997085263960220e-02	 1.386470811670695e+00	 1.151551962139982e+00
 5.821910467217761e-02	 1.387013975302729e+00	 1.131996602936340e+00
 4.650189157418012e-02	 1.387456235675177e+00	 1.115886489322773e+00
 3.482031140255425e-02	 1.387798536440985e+00	 1.103085629549300e+00
 2.317543896627944e-02	 1.388041833253822e+00	 1.093468565851359e+00
 1.156832577452383e-02	 1.388187093180413e+00	 1.086921008609285e+00
 0.000000000000000e+00	 1.388235294117647e+00	 1.083340476012751e+00
 1.177974582926041e-01	 1.389132021321455e+00	 1.309762134370202e+00
 1.058686812917820e-01	 1.390092024350319e+00	 1.274787619373941e+00
 9.396994278400747e-02	 1.390947038421665e+00	 1.243870429077712e+00
 8.210243802805521e-02	 1.391697956997380e+00	 1.216850102507774e+00
 7.026733930332930e-02	 1.392345687991334e+00	 1.193573960452248e+00
 5.846579579366989e-02	 1.392891153164181e+00	 1.173897678120543e+00
 4.669893348763005e-02	 1.393335287521259e+00	 1.157685885615672e+00
 3.496785509493795e-02	 1.393679038714040e+00	 1.144812790606213e+00
 2.327363997884841e-02	 1.393923366445575e+00	 1.135162817725802e+00
 1.161734410407690e-02	 1.394069241880330e+00	 1.128631259371228e+00
 0.000000000000000e+00	 1.394117647058823e+00	 1.125124932745964e+00
 1.182944939816024e-01	 1.394993337867116e+00	 1.352478629762687e+00
 1.063153845883718e-01	 1.395957391541671e+00	 1.317393949251913e+00
 9.436644043288515e-02	 1.396816013267326e+00	 1.286328641770020e+00
 8.244886181720310e-02	 1.397570100275849e+00	 1.259139993970482e+00
 7.056382596705645e-02	 1.398220564311973e+00	 1.235692647949931e+00
 5.871248691516218e-02	 1.398768331025634e+00	 1.215859180189325e+00
 4.689597540107996e-02	 1.399214339367340e+00	 1.199520709874771e+00
 3.511539878732165e-02	 1.399559540987095e+00	 1.186567530837351e+00
 2.337184099141739e-02	 1.399804899637329e+00	 1.176899761486240e+00
 1.166636243362996e-02	 1.399951390580247e+00	 1.170428007263032e+00
 0.000000000000000e+00	 1.400000000000000e+00	 1.167074030322292e+00
 1.187915296706007e-01	 1.400854654412776e+00	 1.395448486319361e+00
 1.067620878849617e-01	 1.401822758733023e+00	 1.360230730398069e+00
 9.476293808176282e-02	 1.402684988112987e+00	 1.328982220204081e+00
 8.279528560635104e-02	 1.403442243554319e+00	 1.301584041933161e+00
 7.086031263078356e-02	 1.404095440632611e+00	 1.277924158215476e+00
 5.895917803665446e-02	 1.404645508887086e+00	 1.257897987436585e+00
 4.709301731452986e-02	 1.405093391213421e+00	 1.241409014251469e+00
 3.526294247970536e-02	 1.405440043260149e+00	 1.228369425374583e+00
 2.347004200398638e-02	 1.405686432829082e+00	 1.218700764874043e+00
 1.171538076318303e-02	 1.405833539280163e+00	 1.212334603347943e+00
 0.000000000000000e+00	 1.405882352941176e+00	 1.209213215546762e+00
 1.192885653595991e-01	 1.406715970958436e+00	 1.438690397567454e+00
 1.072087911815515e-01	 1.407688125924374e+00	 1.403314883519050e+00
 9.515943573064049e-02	 1.408553962958648e+00	 1.371847056552062e+00
 8.314170939549895e-02	 1.409314386832790e+00	 1.344197774024017e+00
 7.115679929451071e-02	 1.409970316953250e+00	 1.320284238324373e+00
 5.920586915814673e-02	 1.410522686748539e+00	 1.300030570733059e+00
 4.729005922797978e-02	 1.410972443059503e+00	 1.283368418522395e+00
 3.541048617208907e-02	 1.411320545533205e+00	 1.270237589237882e+00
 2.356824301655536e-02	 1.411567966020836e+00	 1.260586706226548e+00
 1.176439909273610e-02	 1.411715687980081e+00	 1.254373879659079e+00
 0.000000000000000e+00	 1.411764705882353e+00	 1.251567387444396e+00
 1.411764705882353e+00	 0.000000000000000e+00	 1.639861936862163e+01
 1.411715687980081e+00	 1.176439909273570e-02	 1.639478401911675e+01
 1.411567966020836e+00	 2.356824301655501e-02	 1.639178914564820e+01
 1.411320545533205e+00	 3.541048617208876e-02	 1.638925699707870e+01
 1.410972443059503e+00	 4.729005922797953e-02	 1.638683698332702e+01
 1.410522686748539e+00	 5.920586915814652e-02	 1.638420749595989e+01
 1.409970316953250e+00	 7.115679929451052e-02	 1.638107768225561e+01
 1.409314386832789e+00	 8.314170939549879e-02	 1.637718916819713e+01
 1.408553962958648e+00	 9.515943573064038e-02	 1.637231772571198e+01
 1.407688125924374e+00	 1.072087911815514e-01	 1.636627487931433e+01
 1.406715970958436e+00	 1.192885653595991e-01	 1.635890944713189e+01
 1.417647058823529e+00	 0.000000000000000e+00	 1.631576036270366e+01
 1.417597836679998e+00	 1.181341742228876e-02	 1.631192086292212e+01
 1.417449499212589e+00	 2.366644402912399e-02	 1.630895543941752e+01
 1.417201047806260e+00	 3.555802986447246e-02	 1.630648786989593e+01
 1.416851494905584e+00	 4.748710114142944e-02	 1.630417015881198e+01
 1.416399864609990e+00	 5.945256027963879e-02	 1.630168437367512e+01
 1.415845193273888e+00	 7.145328595823763e-02	 1.629874443406804e+01
 1.415186530111259e+00	 8.348813318464673e-02	 1.629509784887583e+01
 1.414422937804309e+00	 9.555593337951805e-02	 1.629052739707619e+01
 1.413553493115725e+00	 1.076554944781412e-01	 1.628485274728187e+01
 1.412577287504096e+00	 1.197856010485974e-01	 1.627793201104886e+01
 1.423529411764706e+00	 0.000000000000000e+00	 1.623451420807764e+01
 1.423479985379915e+00	 1.186243575184183e-02	 1.623065828412486e+01
 1.423331032404342e+00	 2.376464504169296e-02	 1.622771466878273e+01
 1.423081550079315e+00	 3.570557355685618e-02	 1.622530764796099e+01
 1.422730546751665e+00	 4.768414305487936e-02	 1.622309081064081e+01
 1.422277042471443e+00	 5.969925140113107e-02	 1.622074890187108e+01
 1.421720069594527e+00	 7.174977262196476e-02	 1.621799962776789e+01
 1.421058673389729e+00	 8.383455697379463e-02	 1.621459540805716e+01
 1.420291912649970e+00	 9.595243102839571e-02	 1.621032507154901e+01
 1.419418860307077e+00	 1.081021977747310e-01	 1.620501548977262e+01
 1.418438604049757e+00	 1.202826367375958e-01	 1.619853314381776e+01
 1.429411764705882e+00	 0.000000000000000e+00	 1.615483855838836e+01
 1.429362134079832e+00	 1.191145408139490e-02	 1.615095214890014e+01
 1.429212565596096e+00	 2.386284605426195e-02	 1.614802116155821e+01
 1.428962052352370e+00	 3.585311724923987e-02	 1.614566938839905e+01
 1.428609598597746e+00	 4.788118496832927e-02	 1.614355101119848e+01
 1.428154220332895e+00	 5.994594252262334e-02	 1.614135247210107e+01
 1.427594945915165e+00	 7.204625928569192e-02	 1.613879429559402e+01
 1.426930816668200e+00	 8.418098076294256e-02	 1.613563285740898e+01
 1.426160887495631e+00	 9.634892867727339e-02	 1.613166209578355e+01
 1.425284227498429e+00	 1.085489010713208e-01	 1.612671516034947e+01
 1.424299920595417e+00	 1.207796724265941e-01	 1.612066599373338e+01
 1.435294117647059e+00	 0.000000000000000e+00	 1.607669138421270e+01
 1.435244282779749e+00	 1.196047241094796e-02	 1.607275860513996e+01
 1.435094098787850e+00	 2.396104706683093e-02	 1.606982949113513e+01
 1.434842554625425e+00	 3.600066094162359e-02	 1.606752635671649e+01
 1.434488650443827e+00	 4.807822688177918e-02	 1.606550300286184e+01
 1.434031398194347e+00	 6.019263364411562e-02	 1.606344660618090e+01
 1.433469822235804e+00	 7.234274594941904e-02	 1.606107955882402e+01
 1.432802959946669e+00	 8.452740455209044e-02	 1.605816125475698e+01
 1.432029862341292e+00	 9.674542632615106e-02	 1.605448981788042e+01
 1.431149594689781e+00	 1.089956043679106e-01	 1.604990376730370e+01
 1.430161237141077e+00	 1.212767081155924e-01	 1.604428361489980e+01
 1.441176470588235e+00	 0.000000000000000e+00	 1.600003096659128e+01
 1.441126431479666e+00	 1.200949074050103e-02	 1.599603407599746e+01
 1.440975631979603e+00	 2.405924807939990e-02	 1.599309447017324e+01
 1.440723056898480e+00	 3.614820463400727e-02	 1.599083202078125e+01
 1.440367702289909e+00	 4.827526879522910e-02	 1.598889919241523e+01
 1.439908576055799e+00	 6.043932476560790e-02	 1.598698295119195e+01
 1.439344698556442e+00	 7.263923261314613e-02	 1.598480662352163e+01
 1.438675103225139e+00	 8.487382834123837e-02	 1.598213170073807e+01
 1.437898837186953e+00	 9.714192397502874e-02	 1.597875958511496e+01
 1.437014961881132e+00	 1.094423076645004e-01	 1.597453327262685e+01
 1.436022553686737e+00	 1.217737438045907e-01	 1.596933896762476e+01
 1.447058823529412e+00	 0.000000000000000e+00	 1.592481589071880e+01
 1.447008580179583e+00	 1.205850907005409e-02	 1.592073525358847e+01
 1.446857165171356e+00	 2.415744909196888e-02	 1.591777114444846e+01
 1.446603559171535e+00	 3.629574832639098e-02	 1.591554004495536e+01
 1.446246754135990e+00	 4.847231070867900e-02	 1.591369214561175e+01
 1.445785753917252e+00	 6.068601588710017e-02	 1.591191327462004e+01
 1.445219574877081e+00	 7.293571927687326e-02	 1.590992677640821e+01
 1.444547246503609e+00	 8.522025213038628e-02	 1.590749533556397e+01
 1.443767812032614e+00	 9.753842162390640e-02	 1.590442274175683e+01
 1.442880329072483e+00	 1.098890109610902e-01	 1.590055559105620e+01
 1.441883870232397e+00	 1.222707794935891e-01	 1.589578491886422e+01
 1.452941176470588e+00	 0.000000000000000e+00	 1.585100503978639e+01
 1.452890728879500e+00	 1.210752739960715e-02	 1.584681909284747e+01
 1.452738698363110e+00	 2.425565010453786e-02	 1.584381478685260e+01
 1.452484061444590e+00	 3.644329201877469e-02	 1.584160428437505e+01
 1.452125805982071e+00	 4.866935262212892e-02	 1.583983458187628e+01
 1.451662931778703e+00	 6.093270700859242e-02	 1.583818945962816e+01
 1.451094451197720e+00	 7.323220594060043e-02	 1.583639138085620e+01
 1.450419389782079e+00	 8.556667591953417e-02	 1.583420333589293e+01
 1.449636786878275e+00	 9.793491927278405e-02	 1.583143062698169e+01
 1.448745696263835e+00	 1.103357142576800e-01	 1.582792258919184e+01
 1.447745186778057e+00	 1.227678151825874e-01	 1.582357424271589e+01
 1.458823529411764e+00	 0.000000000000000e+00	 1.577855758897413e+01
 1.458772877579417e+00	 1.215654572916022e-02	 1.577424280553211e+01
 1.458620231554864e+00	 2.435385111710683e-02	 1.577118089154004e+01
 1.458364563717645e+00	 3.659083571115838e-02	 1.576897877937487e+01
 1.458004857828152e+00	 4.886639453557884e-02	 1.576727936914492e+01
 1.457540109640156e+00	 6.117939813008473e-02	 1.576576350045714e+01
 1.456969327518358e+00	 7.352869260432750e-02	 1.576415187300080e+01
 1.456291533060549e+00	 8.591309970868209e-02	 1.576220691180551e+01
 1.455505761723936e+00	 9.833141692166174e-02	 1.575973457286976e+01
 1.454611063455186e+00	 1.107824175542698e-01	 1.575658608468225e+01
 1.453606503323717e+00	 1.232648508715857e-01	 1.575265962095988e+01
 1.464705882352941e+00	 0.000000000000000e+00	 1.570743299958768e+01
 1.464655026279334e+00	 1.220556405871329e-02	 1.570296385437328e+01
 1.464501764746617e+00	 2.445205212967582e-02	 1.569982516821877e+01
 1.464245065990700e+00	 3.673837940354208e-02	 1.569761775005039e+01
 1.463883909674234e+00	 4.906343644902875e-02	 1.569597951883960e+01
 1.463417287501608e+00	 6.142608925157699e-02	 1.569458749795188e+01
 1.462844203838996e+00	 7.382517926805465e-02	 1.569315975796536e+01
 1.462163676339019e+00	 8.625952349783002e-02	 1.569145730388157e+01
 1.461374736569597e+00	 9.872791457053939e-02	 1.568928590249106e+01
 1.460476430646538e+00	 1.112291208508596e-01	 1.568649784547805e+01
 1.459467819869377e+00	 1.237618865605840e-01	 1.568299364364565e+01
 1.470588235294118e+00	 0.000000000000000e+00	 1.563759101333563e+01
 1.470537174979251e+00	 1.225458238826635e-02	 1.563293994736558e+01
 1.470383297938371e+00	 2.455025314224480e-02	 1.562970353657904e+01
 1.470125568263755e+00	 3.688592309592580e-02	 1.562747559095775e+01
 1.469762961520315e+00	 4.926047836247867e-02	 1.562588818097079e+01
 1.469294465363060e+00	 6.167278037306929e-02	 1.562461365520971e+01
 1.468719080159635e+00	 7.412166593178179e-02	 1.562336660619916e+01
 1.468035819617489e+00	 8.660594728697793e-02	 1.562190578037659e+01
 1.467243711415258e+00	 9.912441221941709e-02	 1.562003592807387e+01
 1.466341797837890e+00	 1.116758241474494e-01	 1.561760958915054e+01
 1.465329136415037e+00	 1.242589222495824e-01	 1.561452880972351e+01
 1.406715970958436e+00	 1.192885653595991e-01	 1.635890944713189e+01
 1.405636608539757e+00	 1.313975247405207e-01	 1.635039989749276e+01
 1.404449165015444e+00	 1.435344128162613e-01	 1.634098670109328e+01
 1.403152783220198e+00	 1.556979502642801e-01	 1.633066898341433e+01
 1.401746623096909e+00	 1.678868351345605e-01	 1.631948464318789e+01
 1.400229862317889e+00	 1.800997430545457e-01	 1.630751133423949e+01
 1.398601696906214e+00	 1.923353274522029e-01	 1.629486734843694e+01
 1.396861341856613e+00	 2.045922197974047e-01	 1.628171239342023e+01
 1.395008031755334e+00	 2.168690298617978e-01	 1.626824825853106e+01
 1.393041021398405e+00	 2.291643459973114e-01	 1.625471936209225e+01
 1.390959586407706e+00	 2.414767354334392e-01	 1.624141317292082e+01
 1.412577287504096e+00	 1.197856010485974e-01	 1.627793201104886e+01
 1.411493427742006e+00	 1.319450144269395e-01	 1.626992309694063e+01
 1.410301036536342e+00	 1.441324728696625e-01	 1.626103500291070e+01
 1.408999253150282e+00	 1.563466917237146e-01	 1.625126139074903e+01
 1.407587234026480e+00	 1.685863636142878e-01	 1.624063570894220e+01
 1.406064153410880e+00	 1.808501586506063e-01	 1.622923220264238e+01
 1.404429203976656e+00	 1.931367246499204e-01	 1.621716682487735e+01
 1.402681597447682e+00	 2.054446873798939e-01	 1.620459804265103e+01
 1.400820565220981e+00	 2.177726508195552e-01	 1.619172753131517e+01
 1.398845358987565e+00	 2.301191974389669e-01	 1.617880075031452e+01
 1.396755251351071e+00	 2.424828884977451e-01	 1.616610739312237e+01
 1.418438604049757e+00	 1.202826367375958e-01	 1.619853314381776e+01
 1.417350246944256e+00	 1.324925041133583e-01	 1.619101463810810e+01
 1.416152908057240e+00	 1.447305329230635e-01	 1.618263796356414e+01
 1.414845723080366e+00	 1.569954331831491e-01	 1.617339221067651e+01
 1.413427844956050e+00	 1.692858920940152e-01	 1.616330725208145e+01
 1.411898444503871e+00	 1.816005742466669e-01	 1.615245477919531e+01
 1.410256711047099e+00	 1.939381218476380e-01	 1.614094924027902e+01
 1.408501853038752e+00	 2.062971549623832e-01	 1.612894867356355e+01
 1.406633098686628e+00	 2.186762717773129e-01	 1.611665542878425e+01
 1.404649696576725e+00	 2.310740488806224e-01	 1.610431677018065e+01
 1.402550916294436e+00	 2.434890415620511e-01	 1.609222535371983e+01
 1.424299920595417e+00	 1.207796724265941e-01	 1.612066599373338e+01
 1.423207066146504e+00	 1.330399937997772e-01	 1.611362876518739e+01
 1.422004779578137e+00	 1.453285929764646e-01	 1.610575052065087e+01
 1.420692193010451e+00	 1.576441746425837e-01	 1.609701666149547e+01
 1.419268455885621e+00	 1.699854205737425e-01	 1.608745434838015e+01
 1.417732735596862e+00	 1.823509898427275e-01	 1.607713356308994e+01
 1.416084218117542e+00	 1.947395190453555e-01	 1.606616807205095e+01
 1.414322108629821e+00	 2.071496225448722e-01	 1.605471628513956e+01
 1.412445632152275e+00	 2.195798927350703e-01	 1.604298200310572e+01
 1.410454034165885e+00	 2.320289003222779e-01	 1.603121504662673e+01
 1.408346581237802e+00	 2.444951946263571e-01	 1.601971175969522e+01
 1.430161237141077e+00	 1.212767081155924e-01	 1.604428361489980e+01
 1.429063885348753e+00	 1.335874834861960e-01	 1.603771958345390e+01
 1.427856651099034e+00	 1.459266530298657e-01	 1.603032743897074e+01
 1.426538662940535e+00	 1.582929161020181e-01	 1.602208976585627e+01
 1.425109066815190e+00	 1.706849490534698e-01	 1.601303186631416e+01
 1.423567026689853e+00	 1.831014054387881e-01	 1.600322284592575e+01
 1.421911725187984e+00	 1.955409162430730e-01	 1.599277660121481e+01
 1.420142364220889e+00	 2.080020901273614e-01	 1.598185270280261e+01
 1.418258165617922e+00	 2.204835136928278e-01	 1.597065716745431e+01
 1.416258371755045e+00	 2.329837517639333e-01	 1.595944311199456e+01
 1.414142246181167e+00	 2.455013476906632e-01	 1.594851128174615e+01
 1.436022553686737e+00	 1.217737438045907e-01	 1.596933896762476e+01
 1.434920704551002e+00	 1.341349731726149e-01	 1.596324106112991e+01
 1.433708522619932e+00	 1.465247130832668e-01	 1.595632331377042e+01
 1.432385132870619e+00	 1.589416575614526e-01	 1.594856635529425e+01
 1.430949677744761e+00	 1.713844775331971e-01	 1.593999447278622e+01
 1.429401317782844e+00	 1.838518210348487e-01	 1.593067671852774e+01
 1.427739232258426e+00	 1.963423134407904e-01	 1.592072792021026e+01
 1.425962619811959e+00	 2.088545577098506e-01	 1.591030958710440e+01
 1.424070699083569e+00	 2.213871346505852e-01	 1.589963070546737e+01
 1.422062709344205e+00	 2.339386032055888e-01	 1.588894841613801e+01
 1.419937911124532e+00	 2.465075007549691e-01	 1.587856856692527e+01
 1.441883870232397e+00	 1.222707794935891e-01	 1.589578491886422e+01
 1.440777523753251e+00	 1.346824628590337e-01	 1.589014703127514e+01
 1.439560394140830e+00	 1.471227731366679e-01	 1.588369257399544e+01
 1.438231602800703e+00	 1.595903990208871e-01	 1.587640107475360e+01
 1.436790288674332e+00	 1.720840060129245e-01	 1.586829663882990e+01
 1.435235608875836e+00	 1.846022366309093e-01	 1.585944907773374e+01
 1.433566739328869e+00	 1.971437106385080e-01	 1.584997494066632e+01
 1.431782875403029e+00	 2.097070252923399e-01	 1.584003844237452e+01
 1.429883232549217e+00	 2.222907556083427e-01	 1.582985228066518e+01
 1.427867046933365e+00	 2.348934546472443e-01	 1.581967833650404e+01
 1.425733576067898e+00	 2.475136538192751e-01	 1.580982824926341e+01
 1.447745186778057e+00	 1.227678151825874e-01	 1.582357424271589e+01
 1.446634342955500e+00	 1.352299525454525e-01	 1.581839119370424e+01
 1.445412265661727e+00	 1.477208331900690e-01	 1.581238948554972e+01
 1.444078072730787e+00	 1.602391404803216e-01	 1.580554838710367e+01
 1.442630899603902e+00	 1.727835344926518e-01	 1.579789264529350e+01
 1.441069899968827e+00	 1.853526522269699e-01	 1.578949363315316e+01
 1.439394246399312e+00	 1.979451078362255e-01	 1.578047040113781e+01
 1.437603130994098e+00	 2.105594928748290e-01	 1.577099062533547e+01
 1.435695766014863e+00	 2.231943765661002e-01	 1.576127144583986e+01
 1.433671384522525e+00	 2.358483060888997e-01	 1.575158018818613e+01
 1.431529241011264e+00	 2.485198068835811e-01	 1.574223496037736e+01
 1.453606503323717e+00	 1.232648508715857e-01	 1.575265962095988e+01
 1.452491162157749e+00	 1.357774422318714e-01	 1.574792711692952e+01
 1.451264137182625e+00	 1.483188932434701e-01	 1.574236815456156e+01
 1.449924542660871e+00	 1.608878819397561e-01	 1.573596257764641e+01
 1.448471510533472e+00	 1.734830629723792e-01	 1.572873658850309e+01
 1.446904191061818e+00	 1.861030678230305e-01	 1.572076391389691e+01
 1.445221753469754e+00	 1.987465050339430e-01	 1.571216687480908e+01
 1.443423386585166e+00	 2.114119604573182e-01	 1.570311735368321e+01
 1.441508299480511e+00	 2.240979975238577e-01	 1.569383765241255e+01
 1.439475722111685e+00	 2.368031575305552e-01	 1.568460123395361e+01
 1.437324905954629e+00	 2.495259599478871e-01	 1.567573334006243e+01
 1.459467819869377e+00	 1.237618865605840e-01	 1.568299364364565e+01
 1.458347981359998e+00	 1.363249319182902e-01	 1.567870824012850e+01
 1.457116008703523e+00	 1.489169532968711e-01	 1.567358253065721e+01
 1.455771012590955e+00	 1.615366233991906e-01	 1.566759775861684e+01
 1.454312121463043e+00	 1.741825914521065e-01	 1.566078238590732e+01
 1.452738482154809e+00	 1.868534834190911e-01	 1.565321327528003e+01
 1.451049260540197e+00	 1.995479022316605e-01	 1.564501677716549e+01
 1.449243642176236e+00	 2.122644280398074e-01	 1.563636971463401e+01
 1.447320832946158e+00	 2.250016184816152e-01	 1.562750025975861e+01
 1.445280059700845e+00	 2.377580089722106e-01	 1.561868869425551e+01
 1.443120570897994e+00	 2.505321130121931e-01	 1.561026804687047e+01
 1.465329136415037e+00	 1.242589222495824e-01	 1.561452880972351e+01
 1.464204800562247e+00	 1.368724216047091e-01	 1.561068787513627e+01
 1.462967880224420e+00	 1.495150133502723e-01	 1.560598641024021e+01
 1.461617482521040e+00	 1.621853648586251e-01	 1.560040787367464e+01
 1.460152732392613e+00	 1.748821199318338e-01	 1.559398378170233e+01
 1.458572773247800e+00	 1.876038990151518e-01	 1.558679490549764e+01
 1.456876767610639e+00	 2.003492994293780e-01	 1.557897237363379e+01
 1.455063897767305e+00	 2.131168956222966e-01	 1.557069867343941e+01
 1.453133366411806e+00	 2.259052394393728e-01	 1.556220854450407e+01
 1.451084397290005e+00	 2.387128604138661e-01	 1.555378975720083e+01
 1.448916235841360e+00	 2.515382660764992e-01	 1.554578376867334e+01
 1.390959586407706e+00	 2.414767354334392e-01	 1.624141317292082e+01
 1.388763023844227e+00	 2.538047445934067e-01	 1.622664948210073e+01
 1.386450652817923e+00	 2.661468994293207e-01	 1.620885376688155e+01
 1.384021815093512e+00	 2.785017057763690e-01	 1.618853943507346e+01
 1.381475875691605e+00	 2.908676497261258e-01	 1.616626627522596e+01
 1.378812223484512e+00	 3.032431980189868e-01	 1.614264006487179e+01
 1.376030271786077e+00	 3.156267984557443e-01	 1.611831200010202e+01
 1.373129458934878e+00	 3.280168803282789e-01	 1.609397793759468e+01
 1.370109248870143e+00	 3.404118548693333e-01	 1.607037744002893e+01
 1.366969131699693e+00	 3.528101157212934e-01	 1.604829261565818e+01
 1.363708624259260e+00	 3.652100394238935e-01	 1.602854674268594e+01
 1.396755251351071e+00	 2.424828884977451e-01	 1.616610739312237e+01
 1.394549536443578e+00	 2.548622643625460e-01	 1.615197940307773e+01
 1.392227530537998e+00	 2.672558448436096e-01	 1.613486768591293e+01
 1.389788572656401e+00	 2.796621295504373e-01	 1.611530978457625e+01
 1.387232025173653e+00	 2.920795982666513e-01	 1.609389108337152e+01
 1.384557274415698e+00	 3.045067113440660e-01	 1.607124442174042e+01
 1.381763731251852e+00	 3.169419101159764e-01	 1.604804952795060e+01
 1.378850831680440e+00	 3.293836173296468e-01	 1.602503226364680e+01
 1.375818037407101e+00	 3.418302375979556e-01	 1.600296367001857e+01
 1.372664836415109e+00	 3.542801578701321e-01	 1.598265880616010e+01
 1.369390743527008e+00	 3.667317479214932e-01	 1.596497537005309e+01
 1.402550916294436e+00	 2.434890415620511e-01	 1.609222535371983e+01
 1.400336049042930e+00	 2.559197841316851e-01	 1.607872579910081e+01
 1.398004408258072e+00	 2.683647902578984e-01	 1.606229348685763e+01
 1.395555330219291e+00	 2.808225533245055e-01	 1.604348859511731e+01
 1.392988174655702e+00	 2.932915468071768e-01	 1.602292060451044e+01
 1.390302325346883e+00	 3.057702246691450e-01	 1.600124792009116e+01
 1.387497190717627e+00	 3.182570217762087e-01	 1.597917731185679e+01
 1.384572204426002e+00	 3.307503543310147e-01	 1.595746316465676e+01
 1.381526825944060e+00	 3.432486203265777e-01	 1.593690652806073e+01
 1.378360541130524e+00	 3.557502000189710e-01	 1.591835395656028e+01
 1.375072862794754e+00	 3.682534564190927e-01	 1.590269613031456e+01
 1.408346581237802e+00	 2.444951946263571e-01	 1.601971175969522e+01
 1.406122561642280e+00	 2.569773039008242e-01	 1.600683026730311e+01
 1.403781285978147e+00	 2.694737356721872e-01	 1.599106979485071e+01
 1.401322087782181e+00	 2.819829770985736e-01	 1.597301167127002e+01
 1.398744324137750e+00	 2.945034953477024e-01	 1.595328798929605e+01
 1.396047376278069e+00	 3.070337379942242e-01	 1.593258123812518e+01
 1.393230650183402e+00	 3.195721334364410e-01	 1.591162375348726e+01
 1.390293577171564e+00	 3.321170913323824e-01	 1.589119697575365e+01
 1.387235614481020e+00	 3.446670030552001e-01	 1.587213050646118e+01
 1.384056245845940e+00	 3.572202421678097e-01	 1.585530095342041e+01
 1.380754982062501e+00	 3.697751649166922e-01	 1.584163055439338e+01
 1.414142246181167e+00	 2.455013476906632e-01	 1.594851128174615e+01
 1.411909074241631e+00	 2.580348236699636e-01	 1.593623443561704e+01
 1.409558163698222e+00	 2.705826810864760e-01	 1.592113533221437e+01
 1.407088845345071e+00	 2.831434008726419e-01	 1.590381498204926e+01
 1.404500473619798e+00	 2.957154438882278e-01	 1.588492662049415e+01
 1.401792427209254e+00	 3.082972513193034e-01	 1.586517535377896e+01
 1.398964109649178e+00	 3.208872450966733e-01	 1.584531762134268e+01
 1.396014949917126e+00	 3.334838283337504e-01	 1.582616046498680e+01
 1.392944403017978e+00	 3.460853857838221e-01	 1.580856059501919e+01
 1.389751950561355e+00	 3.586902843166484e-01	 1.579342324334498e+01
 1.386437101330248e+00	 3.712968734142917e-01	 1.578170079325860e+01
 1.419937911124532e+00	 2.465075007549691e-01	 1.587856856692527e+01
 1.417695586840982e+00	 2.590923434391028e-01	 1.586687997392785e+01
 1.415335041418297e+00	 2.716916265007649e-01	 1.585242893021554e+01
 1.412855602907960e+00	 2.843038246467101e-01	 1.583583467336982e+01
 1.410256623101846e+00	 2.969273924287533e-01	 1.581777012624188e+01
 1.407537478140439e+00	 3.095607646443824e-01	 1.579896155889076e+01
 1.404697569114953e+00	 3.222023567569055e-01	 1.578018806594350e+01
 1.401736322662688e+00	 3.348505653351181e-01	 1.576228084964711e+01
 1.398653191554937e+00	 3.475037685124444e-01	 1.574612229860583e+01
 1.395447655276770e+00	 3.601603264654871e-01	 1.573264485194195e+01
 1.392119220597995e+00	 3.728185819118913e-01	 1.572282963839982e+01
 1.425733576067898e+00	 2.475136538192751e-01	 1.580982824926342e+01
 1.423482099440333e+00	 2.601498632082419e-01	 1.579870860522319e+01
 1.421111919138371e+00	 2.728005719150537e-01	 1.578488954083200e+01
 1.418622360470850e+00	 2.854642484207783e-01	 1.576900708052190e+01
 1.416012772583895e+00	 2.981393409692789e-01	 1.575175239333388e+01
 1.413282529071625e+00	 3.108242779694615e-01	 1.573387147340164e+01
 1.410431028580728e+00	 3.235174684171377e-01	 1.571616463505479e+01
 1.407457695408250e+00	 3.362173023364859e-01	 1.569948581263037e+01
 1.404361980091896e+00	 3.489221512410665e-01	 1.568474165478521e+01
 1.401143359992186e+00	 3.616303686143258e-01	 1.567289040282729e+01
 1.397801339865741e+00	 3.743402904094909e-01	 1.566494054234244e+01
 1.431529241011264e+00	 2.485198068835811e-01	 1.574223496037736e+01
 1.429268612039684e+00	 2.612073829773812e-01	 1.573166211673957e+01
 1.426888796858446e+00	 2.739095173293425e-01	 1.571845624852507e+01
 1.424389118033739e+00	 2.866246721948465e-01	 1.570326874066490e+01
 1.421768922065943e+00	 2.993512895098045e-01	 1.568680758053398e+01
 1.419027580002810e+00	 3.120877912945407e-01	 1.566983705958826e+01
 1.416164488046504e+00	 3.248325800773700e-01	 1.565317728894908e+01
 1.413179068153812e+00	 3.375840393378537e-01	 1.563770351884256e+01
 1.410070768628855e+00	 3.503405339696888e-01	 1.562434525147986e+01
 1.406839064707601e+00	 3.631004107631645e-01	 1.561408513667117e+01
 1.403483459133489e+00	 3.758619989070904e-01	 1.560795763920217e+01
 1.437324905954629e+00	 2.495259599478871e-01	 1.567573334006243e+01
 1.435055124639034e+00	 2.622649027465203e-01	 1.566568237110540e+01
 1.432665674578521e+00	 2.750184627436314e-01	 1.565306828202042e+01
 1.430155875596629e+00	 2.877850959689147e-01	 1.563855640533708e+01
 1.427525071547992e+00	 3.005632380503300e-01	 1.562287013191193e+01
 1.424772630933996e+00	 3.133513046196197e-01	 1.560679063632823e+01
 1.421897947512279e+00	 3.261476917376022e-01	 1.559115641570630e+01
 1.418900440899373e+00	 3.389507763392215e-01	 1.557686263164567e+01
 1.415779557165814e+00	 3.517589166983110e-01	 1.556486024467723e+01
 1.412534769423017e+00	 3.645704529120032e-01	 1.555615493028558e+01
 1.409165578401235e+00	 3.773837074046899e-01	 1.555180576527721e+01
 1.443120570897994e+00	 2.505321130121931e-01	 1.561026804687047e+01
 1.440841637238385e+00	 2.633224225156595e-01	 1.560071131748063e+01
 1.438442552298595e+00	 2.761274081579203e-01	 1.558866502609554e+01
 1.435922633159519e+00	 2.889455197429829e-01	 1.557480705298238e+01
 1.433281221030040e+00	 3.017751865908555e-01	 1.555987479020453e+01
 1.430517681865181e+00	 3.146148179446988e-01	 1.554466489339623e+01
 1.427631406978054e+00	 3.274628033978345e-01	 1.553003284654919e+01
 1.424621813644936e+00	 3.403175133405895e-01	 1.551689232934175e+01
 1.421488345702773e+00	 3.531772994269332e-01	 1.550621437617667e+01
 1.418230474138432e+00	 3.660404950608419e-01	 1.549902631575158e+01
 1.414847697668982e+00	 3.789054159022895e-01	 1.549641047967843e+01
 1.448916235841360e+00	 2.515382660764992e-01	 1.554578376867334e+01
 1.446628149837737e+00	 2.643799422847987e-01	 1.553669100269294e+01
 1.444219430018670e+00	 2.772363535722091e-01	 1.552518603337430e+01
 1.441689390722408e+00	 2.901059435170511e-01	 1.551195790149287e+01
 1.439037370512089e+00	 3.029871351313811e-01	 1.549775661020037e+01
 1.436262732796367e+00	 3.158783312697780e-01	 1.548339290578984e+01
 1.433364866443830e+00	 3.287779150580669e-01	 1.546973787121445e+01
 1.430343186390498e+00	 3.416842503419572e-01	 1.545772232169626e+01
 1.427197134239732e+00	 3.545956821555555e-01	 1.544833599137610e+01
 1.423926178853847e+00	 3.675105372096807e-01	 1.544262649958575e+01
 1.420529816936730e+00	 3.804271243998891e-01	 1.544169808499436e+01
 1.363708624259260e+00	 3.652100394238935e-01	 1.602854674268594e+01
 1.360327270662482e+00	 3.776099859207235e-01	 1.600778720321269e+01
 1.356824642840917e+00	 3.900082990843973e-01	 1.598236698560127e+01
 1.353200341073385e+00	 4.024033072602155e-01	 1.595268864918741e+01
 1.349453994503964e+00	 4.147933238281242e-01	 1.591914064353590e+01
 1.345585261647948e+00	 4.271766477827499e-01	 1.588209461829165e+01
 1.341593830885125e+00	 4.395515643312621e-01	 1.584190252550029e+01
 1.337479420939653e+00	 4.519163455087859e-01	 1.579889350682771e+01
 1.333241781345912e+00	 4.642692508110629e-01	 1.575337055831843e+01
 1.328880692899643e+00	 4.766085278440289e-01	 1.570560696560543e+01
 1.324395968093723e+00	 4.889324129899513e-01	 1.565584250284441e+01
 1.369390743527008e+00	 3.667317479214932e-01	 1.596497537005309e+01
 1.365995300956909e+00	 3.791833608620598e-01	 1.594630538354785e+01
 1.362478078852754e+00	 3.916333336639157e-01	 1.592272732400998e+01
 1.358838675827858e+00	 4.040799877071332e-01	 1.589465125683540e+01
 1.355076719481063e+00	 4.165216293440747e-01	 1.586247410499147e+01
 1.351191866904816e+00	 4.289565504818447e-01	 1.582657697641466e+01
 1.347183805180480e+00	 4.413830291826424e-01	 1.578732228148148e+01
 1.343052251860235e+00	 4.537993302817392e-01	 1.574505063263873e+01
 1.338796955434853e+00	 4.662037060227756e-01	 1.570007751847400e+01
 1.334417695786724e+00	 4.785943967100456e-01	 1.565268974477154e+01
 1.329914284627447e+00	 4.909696313774095e-01	 1.560314163544369e+01
 1.375072862794754e+00	 3.682534564190927e-01	 1.590269613031456e+01
 1.371663331251336e+00	 3.807567358033963e-01	 1.588606774672425e+01
 1.368131514864591e+00	 3.932583682434339e-01	 1.586427380484995e+01
 1.364477010582331e+00	 4.057566681540508e-01	 1.583773503333309e+01
 1.360699444458163e+00	 4.182499348600253e-01	 1.580686009721751e+01
 1.356798472161682e+00	 4.307364531809396e-01	 1.577204294193903e+01
 1.352773779475835e+00	 4.432144940340226e-01	 1.573365992485730e+01
 1.348625082780817e+00	 4.556823150546924e-01	 1.569206672606483e+01
 1.344352129523794e+00	 4.681381612344885e-01	 1.564759503038717e+01
 1.339954698673806e+00	 4.805802655760624e-01	 1.560054897274347e+01
 1.335432601161171e+00	 4.930068497648675e-01	 1.555120133936780e+01
 1.380754982062501e+00	 3.697751649166922e-01	 1.584163055439338e+01
 1.377331361545763e+00	 3.823301107447324e-01	 1.582699501560312e+01
 1.373784950876429e+00	 3.948834028229524e-01	 1.580692715199919e+01
 1.370115345336803e+00	 4.074333486009682e-01	 1.578186147067581e+01
 1.366322169435263e+00	 4.199782403759758e-01	 1.575222160442017e+01
 1.362405077418548e+00	 4.325163558800342e-01	 1.571841767139316e+01
 1.358363753771190e+00	 4.450459588854029e-01	 1.568084341969068e+01
 1.354197913701399e+00	 4.575652998276459e-01	 1.563987314816012e+01
 1.349907303612736e+00	 4.700726164462011e-01	 1.559585839501241e+01
 1.345491701560888e+00	 4.825661344420791e-01	 1.554912438601307e+01
 1.340950917694894e+00	 4.950440681523258e-01	 1.549996623435428e+01
 1.386437101330248e+00	 3.712968734142917e-01	 1.578170079325860e+01
 1.382999391840189e+00	 3.839034856860686e-01	 1.576900858534907e+01
 1.379438386888265e+00	 3.965084374024705e-01	 1.575060880152476e+01
 1.375753680091275e+00	 4.091100290478857e-01	 1.572695280090089e+01
 1.371944894412363e+00	 4.217065458919262e-01	 1.569848236700943e+01
 1.368011682675415e+00	 4.342962585791291e-01	 1.566562708232734e+01
 1.363953728066544e+00	 4.468774237367830e-01	 1.562880148489352e+01
 1.359770744621980e+00	 4.594482846005990e-01	 1.558840199802346e+01
 1.355462477701677e+00	 4.720070716579138e-01	 1.554480362427909e+01
 1.351028704447970e+00	 4.845520033080960e-01	 1.549835639508255e+01
 1.346469234228619e+00	 4.970812865397838e-01	 1.544938156767205e+01
 1.392119220597995e+00	 3.728185819118913e-01	 1.572282963839982e+01
 1.388667422134617e+00	 3.854768606274051e-01	 1.571203054564870e+01
 1.385091822900102e+00	 3.981334719819889e-01	 1.569524092596635e+01
 1.381392014845748e+00	 4.107867094948034e-01	 1.567293202273986e+01
 1.377567619389463e+00	 4.234348514078768e-01	 1.564556691091108e+01
 1.373618287932281e+00	 4.360761612782238e-01	 1.561359788556227e+01
 1.369543702361899e+00	 4.487088885881634e-01	 1.557746362967455e+01
 1.365343575542562e+00	 4.613312693735521e-01	 1.553758615169225e+01
 1.361017651790619e+00	 4.739415268696267e-01	 1.549436748366160e+01
 1.356565707335052e+00	 4.865378721741128e-01	 1.544818613092823e+01
 1.351987550762342e+00	 4.991185049272421e-01	 1.539939326467852e+01
 1.397801339865741e+00	 3.743402904094909e-01	 1.566494054234244e+01
 1.394335452429044e+00	 3.870502355687416e-01	 1.565598370296347e+01
 1.390745258911939e+00	 3.997585065615071e-01	 1.564074645863682e+01
 1.387030349600220e+00	 4.124633899417210e-01	 1.561972292826627e+01
 1.383190344366562e+00	 4.251631569238272e-01	 1.559340057684631e+01
 1.379224893189147e+00	 4.378560639773187e-01	 1.556225761737142e+01
 1.375133676657254e+00	 4.505403534395436e-01	 1.552676018887999e+01
 1.370916406463144e+00	 4.632142541465055e-01	 1.548735930088284e+01
 1.366572825879560e+00	 4.758759820813394e-01	 1.544448753454673e+01
 1.362102710222133e+00	 4.885237410401296e-01	 1.539855549120501e+01
 1.357505867296066e+00	 5.011557233146999e-01	 1.534994797905607e+01
 1.403483459133489e+00	 3.758619989070904e-01	 1.560795763920217e+01
 1.400003482723471e+00	 3.886236105100780e-01	 1.560079160281316e+01
 1.396398694923777e+00	 4.013835411410255e-01	 1.558704911794034e+01
 1.392668684354692e+00	 4.141400703886384e-01	 1.556725012953977e+01
 1.388813069343662e+00	 4.268914624397778e-01	 1.554190954958032e+01
 1.384831498446014e+00	 4.396359666764135e-01	 1.551153467159827e+01
 1.380723650952608e+00	 4.523718182909239e-01	 1.547662235823000e+01
 1.376489237383727e+00	 4.650972389194589e-01	 1.543765599158242e+01
 1.372127999968501e+00	 4.778104372930521e-01	 1.539510217640233e+01
 1.367639713109216e+00	 4.905096099061464e-01	 1.534940718619751e+01
 1.363024183829790e+00	 5.031929417021582e-01	 1.530099314273763e+01
 1.409165578401235e+00	 3.773837074046899e-01	 1.555180576527722e+01
 1.405671513017898e+00	 3.901969854514142e-01	 1.554637855209007e+01
 1.402052130935614e+00	 4.030085757205439e-01	 1.553407343170646e+01
 1.398307019109165e+00	 4.158167508355560e-01	 1.551543908524595e+01
 1.394435794320762e+00	 4.286197679557284e-01	 1.549102088714000e+01
 1.390438103702880e+00	 4.414158693755081e-01	 1.546135833171033e+01
 1.386313625247963e+00	 4.542032831423043e-01	 1.542698222945456e+01
 1.382062068304308e+00	 4.669802236924120e-01	 1.538841166249710e+01
 1.377683174057442e+00	 4.797448925047649e-01	 1.534615068875321e+01
 1.373176715996297e+00	 4.924954787721630e-01	 1.530068478452668e+01
 1.368542500363514e+00	 5.052301600896163e-01	 1.525247701552889e+01
 1.414847697668982e+00	 3.789054159022895e-01	 1.549641047967844e+01
 1.411339543312325e+00	 3.917703603927505e-01	 1.549266964140345e+01
 1.407705566947451e+00	 4.046336103000622e-01	 1.548174476154109e+01
 1.403945353863637e+00	 4.174934312824736e-01	 1.546421612733234e+01
 1.400058519297862e+00	 4.303480734716787e-01	 1.544066255000152e+01
 1.396044708959747e+00	 4.431957720746030e-01	 1.541165880279245e+01
 1.391903599543318e+00	 4.560347479936845e-01	 1.537777282533088e+01
 1.387634899224890e+00	 4.688632084653653e-01	 1.533956268335948e+01
 1.383238348146384e+00	 4.816793477164776e-01	 1.529757327297053e+01
 1.378713718883379e+00	 4.944813476381799e-01	 1.525233275861701e+01
 1.374060816897238e+00	 5.072673784770744e-01	 1.520434873443678e+01
 1.420529816936730e+00	 3.804271243998891e-01	 1.544169808499436e+01
 1.417007573606752e+00	 3.933437353340869e-01	 1.543959076745248e+01
 1.413359002959288e+00	 4.062586448795805e-01	 1.542998932719214e+01
 1.409583688618110e+00	 4.191701117293912e-01	 1.541350848764110e+01
 1.405681244274962e+00	 4.320763789876294e-01	 1.539076343024985e+01
 1.401651314216613e+00	 4.449756747736979e-01	 1.536236724347988e+01
 1.397493573838672e+00	 4.578662128450646e-01	 1.532892813462509e+01
 1.393207730145472e+00	 4.707461932383185e-01	 1.529104639309941e+01
 1.388793522235325e+00	 4.836138029281904e-01	 1.524931109387902e+01
 1.384250721770461e+00	 4.964672165041967e-01	 1.520429652993259e+01
 1.379579133430962e+00	 5.093045968645326e-01	 1.515655836271212e+01
 1.324395968093723e+00	 4.889324129899513e-01	 1.565584250284441e+01
 1.319787451537940e+00	 5.012391320897411e-01	 1.560497838131160e+01
 1.315055020362107e+00	 5.135269011410248e-01	 1.555446268661391e+01
 1.310198584601918e+00	 5.257939270115403e-01	 1.550533879579900e+01
 1.305218087566897e+00	 5.380384081673886e-01	 1.545866037689046e+01
 1.300113506189868e+00	 5.502585354156484e-01	 1.541548591491304e+01
 1.294884851357331e+00	 5.624524926608360e-01	 1.537687288262799e+01
 1.289532168220195e+00	 5.746184576746634e-01	 1.534387155339790e+01
 1.284055536484286e+00	 5.867546028785260e-01	 1.531751845483396e+01
 1.278455070680120e+00	 5.988590961381270e-01	 1.528031663147941e+01
 1.272730920411391e+00	 6.109301015696142e-01	 1.520373509539336e+01
 1.329914284627447e+00	 4.909696313774095e-01	 1.560314163544369e+01
 1.325286565919348e+00	 5.033276284734485e-01	 1.555270089675649e+01
 1.320534416280283e+00	 5.156665965624457e-01	 1.550322607968781e+01
 1.315657745371092e+00	 5.279847350407550e-01	 1.545584424187299e+01
 1.310656496265093e+00	 5.402802348680861e-01	 1.541169587345415e+01
 1.305530645798992e+00	 5.525512793132136e-01	 1.537192933511260e+01
 1.300280204904653e+00	 5.647960447135896e-01	 1.533769493051140e+01
 1.294905218921113e+00	 5.770127012483077e-01	 1.531013861022040e+01
 1.289405767886305e+00	 5.891994137238533e-01	 1.529024486391136e+01
 1.283781966807954e+00	 6.013543423720360e-01	 1.525152505035481e+01
 1.278033965913105e+00	 6.134756436594878e-01	 1.517419568273412e+01
 1.335432601161171e+00	 4.930068497648675e-01	 1.555120133936781e+01
 1.330785680300755e+00	 5.054161248571557e-01	 1.550119872940592e+01
 1.326013812198458e+00	 5.178062919838667e-01	 1.545281696259041e+01
 1.321116906140267e+00	 5.301755430699697e-01	 1.540726222831446e+01
 1.316094904963289e+00	 5.425220615687836e-01	 1.536575709881456e+01
 1.310947785408117e+00	 5.548440232107790e-01	 1.532953488414161e+01
 1.305675558451976e+00	 5.671395967663430e-01	 1.529983361151913e+01
 1.300278269622030e+00	 5.794069448219523e-01	 1.527788962580163e+01
 1.294755999288322e+00	 5.916442245691804e-01	 1.526306272683216e+01
 1.289108862935788e+00	 6.038495886059448e-01	 1.522268122346725e+01
 1.283337011414819e+00	 6.160211857493610e-01	 1.514481775934533e+01
 1.340950917694894e+00	 4.950440681523258e-01	 1.549996623435428e+01
 1.336284794682164e+00	 5.075046212408630e-01	 1.545042037200392e+01
 1.331493208116634e+00	 5.199459874052876e-01	 1.540318529860899e+01
 1.326576066909442e+00	 5.323663510991845e-01	 1.535954183833224e+01
 1.321533313661484e+00	 5.447638882694809e-01	 1.532078995952594e+01
 1.316364925017241e+00	 5.571367671083439e-01	 1.528824305160390e+01
 1.311070911999298e+00	 5.694831488190967e-01	 1.526322181654981e+01
 1.305651320322948e+00	 5.818011883955967e-01	 1.524704777140703e+01
 1.300106230690340e+00	 5.940890354145075e-01	 1.523556687257008e+01
 1.294435759063622e+00	 6.063448348398531e-01	 1.519373108782799e+01
 1.288640056916534e+00	 6.185667278392345e-01	 1.511553937292698e+01
 1.346469234228619e+00	 4.970812865397838e-01	 1.544938156767205e+01
 1.341783909063572e+00	 5.095931176245702e-01	 1.540031491232506e+01
 1.336972604034809e+00	 5.220856828267086e-01	 1.535428164995301e+01
 1.332035227678616e+00	 5.345571591283992e-01	 1.531263279308489e+01
 1.326971722359679e+00	 5.470057149701782e-01	 1.527674107296728e+01
 1.321782064626366e+00	 5.594295110059092e-01	 1.524799514332750e+01
 1.316466265546620e+00	 5.718267008718501e-01	 1.522779338929863e+01
 1.311024371023865e+00	 5.841954319692410e-01	 1.521753733746513e+01
 1.305456462092359e+00	 5.965338462598346e-01	 1.520771352946564e+01
 1.299762655191456e+00	 6.088400810737624e-01	 1.516462499680410e+01
 1.293943102418248e+00	 6.211122699291080e-01	 1.508630318010483e+01
 1.351987550762342e+00	 4.991185049272421e-01	 1.539939326467852e+01
 1.347283023444980e+00	 5.116816140082773e-01	 1.535083208753667e+01
 1.342451999952984e+00	 5.242253782481296e-01	 1.530605723516814e+01
 1.337494388447791e+00	 5.367479671576139e-01	 1.526648551141006e+01
 1.332410131057874e+00	 5.492475416708757e-01	 1.523355782866547e+01
 1.327199204235490e+00	 5.617222549034744e-01	 1.520873334358203e+01
 1.321861619093942e+00	 5.741702529246036e-01	 1.519348318868843e+01
 1.316397421724782e+00	 5.865896755428852e-01	 1.518928379554800e+01
 1.310806693494376e+00	 5.989786571051620e-01	 1.517946312752208e+01
 1.305089551319290e+00	 6.113353273076714e-01	 1.513531766470529e+01
 1.299246147919962e+00	 6.236578120189813e-01	 1.505705638546002e+01
 1.357505867296066e+00	 5.011557233146999e-01	 1.534994797905607e+01
 1.352782137826388e+00	 5.137701103919847e-01	 1.530192233818719e+01
 1.347931395871160e+00	 5.263650736695504e-01	 1.525846398614086e+01
 1.342953549216966e+00	 5.389387751868288e-01	 1.522105116912616e+01
 1.337848539756070e+00	 5.514893683715731e-01	 1.519118844919447e+01
 1.332616343844614e+00	 5.640149988010394e-01	 1.517040077689055e+01
 1.327256972641265e+00	 5.765138049773570e-01	 1.516022715092695e+01
 1.321770472425700e+00	 5.889839191165300e-01	 1.516212721946464e+01
 1.316156924896394e+00	 6.014234679504891e-01	 1.515078024774322e+01
 1.310416447447123e+00	 6.138305735415802e-01	 1.510576811119453e+01
 1.304549193421676e+00	 6.262033541088545e-01	 1.502775068047674e+01
 1.363024183829790e+00	 5.031929417021582e-01	 1.530099314273763e+01
 1.358281252207796e+00	 5.158586067756920e-01	 1.525353686183141e+01
 1.353410791789335e+00	 5.285047690909714e-01	 1.521145460470618e+01
 1.348412709986140e+00	 5.411295832160433e-01	 1.517628175792178e+01
 1.343286948454265e+00	 5.537311950722706e-01	 1.514958205066073e+01
 1.338033483453739e+00	 5.663077426986046e-01	 1.513294156944377e+01
 1.332652326188587e+00	 5.788573570301104e-01	 1.512796235120222e+01
 1.327143523126618e+00	 5.913781626901744e-01	 1.513474168389219e+01
 1.321507156298412e+00	 6.038682787958164e-01	 1.512163357122085e+01
 1.315743343574957e+00	 6.163258197754889e-01	 1.507593960552524e+01
 1.309852238923390e+00	 6.287488961987280e-01	 1.499834218240943e+01
 1.368542500363514e+00	 5.052301600896163e-01	 1.525247701552889e+01
 1.363780366589204e+00	 5.179471031593994e-01	 1.520562766630284e+01
 1.358890187707511e+00	 5.306444645123922e-01	 1.516498261886977e+01
 1.353871870755315e+00	 5.433203912452581e-01	 1.513213014384300e+01
 1.348725357152460e+00	 5.559730217729680e-01	 1.510868870278818e+01
 1.343450623062864e+00	 5.686004865961701e-01	 1.509630091013185e+01
 1.338047679735909e+00	 5.812009090828639e-01	 1.509662706502569e+01
 1.332516573827534e+00	 5.937724062638188e-01	 1.510668124538140e+01
 1.326857387700429e+00	 6.063130896411434e-01	 1.509199582797988e+01
 1.321070239702791e+00	 6.188210660093979e-01	 1.504579961061319e+01
 1.315155284425104e+00	 6.312944382886014e-01	 1.496879137307276e+01
 1.374060816897238e+00	 5.072673784770744e-01	 1.520434873443677e+01
 1.369279480970612e+00	 5.200355995431063e-01	 1.515814762264193e+01
 1.364369583625686e+00	 5.327841599338135e-01	 1.511900243865421e+01
 1.359331031524490e+00	 5.455111992744730e-01	 1.508855012538973e+01
 1.354163765850656e+00	 5.582148484736654e-01	 1.506845948861251e+01
 1.348867762671988e+00	 5.708932304937352e-01	 1.506042511120079e+01
 1.343443033283231e+00	 5.835444611356174e-01	 1.506616082923299e+01
 1.337889624528452e+00	 5.961666498374631e-01	 1.507792599956794e+01
 1.332207619102447e+00	 6.087579004864707e-01	 1.506184374558619e+01
 1.326397135830624e+00	 6.213163122433066e-01	 1.501531972694460e+01
 1.320458329926818e+00	 6.338399803784749e-01	 1.493906303755554e+01
 1.379579133430962e+00	 5.093045968645326e-01	 1.515655836271211e+01
 1.374778595352020e+00	 5.221240959268137e-01	 1.511105051769219e+01
 1.369848979543862e+00	 5.349238553552342e-01	 1.507346941158097e+01
 1.364790192293664e+00	 5.477020073036878e-01	 1.504549649123273e+01
 1.359602174548851e+00	 5.604566751743629e-01	 1.502884656379711e+01
 1.354284902281112e+00	 5.731859743913005e-01	 1.502526166854673e+01
 1.348838386830553e+00	 5.858880131883711e-01	 1.503650450265197e+01
 1.343262675229369e+00	 5.985608934111077e-01	 1.504845987856277e+01
 1.337557850504465e+00	 6.112027113317979e-01	 1.503115799752635e+01
 1.331724031958458e+00	 6.238115584772155e-01	 1.498447563632709e+01
 1.325761375428533e+00	 6.363855224683483e-01	 1.490912620286174e+01
 1.272730920411391e+00	 6.109301015696142e-01	 1.520373509539336e+01
 1.266883270581703e+00	 6.229657803565899e-01	 1.510972800971614e+01
 1.260912341599045e+00	 6.349642915773298e-01	 1.501978987204721e+01
 1.254818389557574e+00	 6.469237930415175e-01	 1.493308088637756e+01
 1.248601706396252e+00	 6.588424421357914e-01	 1.484873143042635e+01
 1.242262620033954e+00	 6.707183966773701e-01	 1.476584678489234e+01
 1.235801494480642e+00	 6.825498157750081e-01	 1.468351218390040e+01
 1.229218729924269e+00	 6.943348606965185e-01	 1.460079818001404e+01
 1.222514762793074e+00	 7.060716957420686e-01	 1.451676631521643e+01
 1.215690065792978e+00	 7.177584891224573e-01	 1.443047508724167e+01
 1.208745147919799e+00	 7.293934138415487e-01	 1.434098619855789e+01
 1.278033965913105e+00	 6.134756436594878e-01	 1.517419568273412e+01
 1.272161950875793e+00	 6.255614711080759e-01	 1.508033395222658e+01
 1.266166143022374e+00	 6.376099761255687e-01	 1.499110502615559e+01
 1.260046799514063e+00	 6.496193088458572e-01	 1.490558398395548e+01
 1.253804213506237e+00	 6.615876189780240e-01	 1.482281088693956e+01
 1.247438714284095e+00	 6.735130566635257e-01	 1.474179564578190e+01
 1.240950667374312e+00	 6.853937733407376e-01	 1.466152322416114e+01
 1.234340474632287e+00	 6.972279226160873e-01	 1.458095917203677e+01
 1.227608574304712e+00	 7.090136611409940e-01	 1.449905548000613e+01
 1.220755441067115e+00	 7.207491494938006e-01	 1.441475674410459e+01
 1.213781586036132e+00	 7.324325530658885e-01	 1.432700662826819e+01
 1.283337011414819e+00	 6.160211857493610e-01	 1.514481775934533e+01
 1.277440631169883e+00	 6.281571618595613e-01	 1.505128011614094e+01
 1.271419944445703e+00	 6.402556606738075e-01	 1.496287754417555e+01
 1.265275209470553e+00	 6.523148246501967e-01	 1.487860652329141e+01
 1.259006720616221e+00	 6.643327958202565e-01	 1.479742359351556e+01
 1.252614808534237e+00	 6.763077166496815e-01	 1.471825035436474e+01
 1.246099840267981e+00	 6.882377309064666e-01	 1.463997881499262e+01
 1.239462219340305e+00	 7.001209845356561e-01	 1.456147708876339e+01
 1.232702385816349e+00	 7.119556265399192e-01	 1.448159542376076e+01
 1.225820816341253e+00	 7.237398098651443e-01	 1.439917255859100e+01
 1.218818024152464e+00	 7.354716922902280e-01	 1.431304239063375e+01
 1.288640056916534e+00	 6.185667278392345e-01	 1.511553937292698e+01
 1.282719311463973e+00	 6.307528526110473e-01	 1.502249727472302e+01
 1.276673745869033e+00	 6.429013452220464e-01	 1.493503390130119e+01
 1.270503619427043e+00	 6.550103404545368e-01	 1.485207357732445e+01
 1.264209227726205e+00	 6.670779726624890e-01	 1.477249603307430e+01
 1.257790902784379e+00	 6.791023766358372e-01	 1.469514152917645e+01
 1.251249013161650e+00	 6.910816884721956e-01	 1.461881634656422e+01
 1.244583964048322e+00	 7.030140464552249e-01	 1.454229863539886e+01
 1.237796197327987e+00	 7.148975919388445e-01	 1.446434461452615e+01
 1.230886191615390e+00	 7.267304702364878e-01	 1.438369511084510e+01
 1.223854462268797e+00	 7.385108315145679e-01	 1.429908242568814e+01
 1.293943102418248e+00	 6.211122699291080e-01	 1.508630318010483e+01
 1.287997991758064e+00	 6.333485433625333e-01	 1.499392099091603e+01
 1.281927547292362e+00	 6.455470297702853e-01	 1.490750549293075e+01
 1.275732029383533e+00	 6.577058562588763e-01	 1.482591522109673e+01
 1.269411734836189e+00	 6.698231495047213e-01	 1.474795972555047e+01
 1.262966997034520e+00	 6.818970366219929e-01	 1.467240481536001e+01
 1.256398186055319e+00	 6.939256460379249e-01	 1.459797818162684e+01
 1.249705708756340e+00	 7.059071083747936e-01	 1.452337539381153e+01
 1.242890008839625e+00	 7.178395573377698e-01	 1.444726626095636e+01
 1.235951566889527e+00	 7.297211306078314e-01	 1.436830154720488e+01
 1.228890900385129e+00	 7.415499707389078e-01	 1.428512002868659e+01
 1.299246147919962e+00	 6.236578120189813e-01	 1.505705638546002e+01
 1.293276672052154e+00	 6.359442341140191e-01	 1.496549155109398e+01
 1.287181348715691e+00	 6.481927143185241e-01	 1.488022856420840e+01
 1.280960439340023e+00	 6.604013720632159e-01	 1.480006645813157e+01
 1.274614241946174e+00	 6.725683263469540e-01	 1.472375115212733e+01
 1.268143091284661e+00	 6.846916966081484e-01	 1.464998080775052e+01
 1.261547358948989e+00	 6.967696036036543e-01	 1.457741157841322e+01
 1.254827453464358e+00	 7.088001702943628e-01	 1.450466374618876e+01
 1.247983820351263e+00	 7.207815227366952e-01	 1.443032823763192e+01
 1.241016942163664e+00	 7.327117909791749e-01	 1.435297350806197e+01
 1.233927338501462e+00	 7.445891099632473e-01	 1.427115278135612e+01
 1.304549193421676e+00	 6.262033541088545e-01	 1.502775068047674e+01
 1.298555352346245e+00	 6.385399248655046e-01	 1.493715389881813e+01
 1.292435150139021e+00	 6.508383988667630e-01	 1.485314413963504e+01
 1.286188849296513e+00	 6.630968878675557e-01	 1.477446714692036e+01
 1.279816749056158e+00	 6.753135031891861e-01	 1.469981167959591e+01
 1.273319185534803e+00	 6.874863565943041e-01	 1.462781497407614e+01
 1.266696531842658e+00	 6.996135611693833e-01	 1.455706861362652e+01
 1.259949198172375e+00	 7.116932322139314e-01	 1.448612479872768e+01
 1.253077631862901e+00	 7.237234881356204e-01	 1.441350301034255e+01
 1.246082317437802e+00	 7.357024513505186e-01	 1.433769705559527e+01
 1.238963776617795e+00	 7.476282491875872e-01	 1.425718248290721e+01
 1.309852238923390e+00	 6.287488961987280e-01	 1.499834218240943e+01
 1.303834032640336e+00	 6.411356156169905e-01	 1.490885756859995e+01
 1.297688951562350e+00	 6.534840834150016e-01	 1.482619795274799e+01
 1.291417259253003e+00	 6.657924036718952e-01	 1.474906192751510e+01
 1.285019256166143e+00	 6.780586800314188e-01	 1.467608748483496e+01
 1.278495279784944e+00	 6.902810165804599e-01	 1.460585757827365e+01
 1.271845704736327e+00	 7.024575187351124e-01	 1.453690610551294e+01
 1.265070942880393e+00	 7.145862941335001e-01	 1.446772430536193e+01
 1.258171443374539e+00	 7.266654535345456e-01	 1.439676756133419e+01
 1.251147692711939e+00	 7.386931117218620e-01	 1.432246260137728e+01
 1.244000214734127e+00	 7.506673884119270e-01	 1.424321508081138e+01
 1.315155284425104e+00	 6.312944382886014e-01	 1.496879137307276e+01
 1.309112712934426e+00	 6.437313063684765e-01	 1.488055661967046e+01
 1.302942752985680e+00	 6.561297679632406e-01	 1.479934037586616e+01
 1.296645669209493e+00	 6.684879194762348e-01	 1.472380014822511e+01
 1.290221763276127e+00	 6.808038568736510e-01	 1.465252947940852e+01
 1.283671374035086e+00	 6.930756765666158e-01	 1.458406360391460e+01
 1.276994877629997e+00	 7.053014763008418e-01	 1.451688553701735e+01
 1.270192687588411e+00	 7.174793560530690e-01	 1.444943259152105e+01
 1.263265254886176e+00	 7.296074189334708e-01	 1.438010331452237e+01
 1.256213067986077e+00	 7.416837720932057e-01	 1.430726483386217e+01
 1.249036652850460e+00	 7.537065276362669e-01	 1.422926060135426e+01
 1.320458329926818e+00	 6.338399803784749e-01	 1.493906303755554e+01
 1.314391393228516e+00	 6.463269971199621e-01	 1.485220956975516e+01
 1.308196554409008e+00	 6.587754525114794e-01	 1.477252634990010e+01
 1.301874079165982e+00	 6.711834352805743e-01	 1.469863579241316e+01
 1.295424270386111e+00	 6.835490337158835e-01	 1.462909323427817e+01
 1.288847468285227e+00	 6.958703365527710e-01	 1.456239267773790e+01
 1.282144050523666e+00	 7.081454338665706e-01	 1.449697297901827e+01
 1.275314432296429e+00	 7.203724179726376e-01	 1.443122447792404e+01
 1.268359066397814e+00	 7.325493843323964e-01	 1.436349606067200e+01
 1.261278443260214e+00	 7.446744324645490e-01	 1.429210264575435e+01
 1.254073090966792e+00	 7.567456668606066e-01	 1.421533307996804e+01
 1.325761375428533e+00	 6.363855224683483e-01	 1.490912620286174e+01
 1.319670073522606e+00	 6.489226878714478e-01	 1.482377932885453e+01
 1.313450355832338e+00	 6.614211370597184e-01	 1.474571531422363e+01
 1.307102489122472e+00	 6.738789510849141e-01	 1.467352740538918e+01
 1.300626777496096e+00	 6.862942105581162e-01	 1.460573890462617e+01
 1.294023562535369e+00	 6.986649965389271e-01	 1.454080899328822e+01
 1.287293223417336e+00	 7.109893914323002e-01	 1.447713901364147e+01
 1.280436177004447e+00	 7.232654798922067e-01	 1.441307920440400e+01
 1.273452877909452e+00	 7.354913497313214e-01	 1.434693588254457e+01
 1.266343818534351e+00	 7.476650928358929e-01	 1.427697906126301e+01
 1.259109529083124e+00	 7.597848060849464e-01	 1.420145049135122e+01
 1.208745147919799e+00	 7.293934138415487e-01	 1.434098619855789e+01
 1.201680554446070e+00	 7.409746485820364e-01	 1.424881565721812e+01
 1.194496866882216e+00	 7.525003785936962e-01	 1.415483636564521e+01
 1.187194702911955e+00	 7.639687965832640e-01	 1.405869344558494e+01
 1.179774716301747e+00	 7.753781036050854e-01	 1.396009318906418e+01
 1.172237596784193e+00	 7.867265099516516e-01	 1.385848379960027e+01
 1.164584069915307e+00	 7.980122360431487e-01	 1.375237930694338e+01
 1.156814896905610e+00	 8.092335133151300e-01	 1.364205352783319e+01
 1.148930874425047e+00	 8.203885851034148e-01	 1.352812378781298e+01
 1.140932834381736e+00	 8.314757075253277e-01	 1.341133298244932e+01
 1.132821643674624e+00	 8.424931503563753e-01	 1.329254953461786e+01
 1.213781586036132e+00	 7.324325530658885e-01	 1.432700662826819e+01
 1.206687556756262e+00	 7.440620429511285e-01	 1.423640066425791e+01
 1.199473937160892e+00	 7.556357968378369e-01	 1.414397001323736e+01
 1.192141347507422e+00	 7.671519999023612e-01	 1.404935765184269e+01
 1.184690444286338e+00	 7.786088457034399e-01	 1.395226884080403e+01
 1.177121920104127e+00	 7.900045370764501e-01	 1.385247818593527e+01
 1.169436503539954e+00	 8.013372870266620e-01	 1.374900638848869e+01
 1.161634958976050e+00	 8.126053196206097e-01	 1.364098768531472e+01
 1.153718086401818e+00	 8.238068708746789e-01	 1.352903352936810e+01
 1.145686721191660e+00	 8.349401896400166e-01	 1.341389264900853e+01
 1.137541733856601e+00	 8.460035384828604e-01	 1.329644315103647e+01
 1.218818024152464e+00	 7.354716922902280e-01	 1.431304239063375e+01
 1.211694559066454e+00	 7.471494373202202e-01	 1.422390678984377e+01
 1.204451007439568e+00	 7.587712150819770e-01	 1.413297141207162e+01
 1.197087992102888e+00	 7.703352032214581e-01	 1.403986941919866e+01
 1.189606172270928e+00	 7.818395878017944e-01	 1.394429705888482e+01
 1.182006243424061e+00	 7.932825642012487e-01	 1.384602086987507e+01
 1.174288937164601e+00	 8.046623380101751e-01	 1.374480318043463e+01
 1.166455021046491e+00	 8.159771259260893e-01	 1.363927721842963e+01
 1.158505298378589e+00	 8.272251566459431e-01	 1.352947225080729e+01
 1.150440608001584e+00	 8.384046717547057e-01	 1.341613333823469e+01
 1.142261824038579e+00	 8.495139266093450e-01	 1.330013861366248e+01
 1.223854462268797e+00	 7.385108315145679e-01	 1.429908242568814e+01
 1.216701561376645e+00	 7.502368316893121e-01	 1.421133880481763e+01
 1.209428077718244e+00	 7.619066333261177e-01	 1.412185798345768e+01
 1.202034636698355e+00	 7.735184065405549e-01	 1.403025572525251e+01
 1.194521900255519e+00	 7.850703299001491e-01	 1.393621137096467e+01
 1.186890566743995e+00	 7.965605913260470e-01	 1.383947519824568e+01
 1.179141370789248e+00	 8.079873889936883e-01	 1.373987591538516e+01
 1.171275083116931e+00	 8.193489322315693e-01	 1.363690230332333e+01
 1.163292510355360e+00	 8.306434424172074e-01	 1.352941685576983e+01
 1.155194494811508e+00	 8.418691538693943e-01	 1.341802596390622e+01
 1.146981914220557e+00	 8.530243147358301e-01	 1.330359822193286e+01
 1.228890900385129e+00	 7.415499707389078e-01	 1.428512002868659e+01
 1.221708563686838e+00	 7.533242260584039e-01	 1.419870563334861e+01
 1.214405147996920e+00	 7.650420515702576e-01	 1.411065115276441e+01
 1.206981281293821e+00	 7.767016098596519e-01	 1.402054745366689e+01
 1.199437628240110e+00	 7.883010719985039e-01	 1.392804916262701e+01
 1.191774890063930e+00	 7.998386184508458e-01	 1.383288219038071e+01
 1.183993804413895e+00	 8.113124399772013e-01	 1.373485139808821e+01
 1.176095145187370e+00	 8.227207385370487e-01	 1.363384609367426e+01
 1.168079722332131e+00	 8.340617281884715e-01	 1.352884741060477e+01
 1.159948381621431e+00	 8.453336359840833e-01	 1.341954481940613e+01
 1.151702004402534e+00	 8.565347028623148e-01	 1.330678790159474e+01
 1.233927338501462e+00	 7.445891099632473e-01	 1.427115278135612e+01
 1.226715565997029e+00	 7.564116204274957e-01	 1.418602028749507e+01
 1.219382218275596e+00	 7.681774698143981e-01	 1.409937628633141e+01
 1.211927925889287e+00	 7.798848131787487e-01	 1.401077933249696e+01
 1.204353356224700e+00	 7.915318140968579e-01	 1.391985161623341e+01
 1.196659213383864e+00	 8.031166455756441e-01	 1.382628666230366e+01
 1.188846238038543e+00	 8.146374909607145e-01	 1.372985717950131e+01
 1.180915207257811e+00	 8.260925448425285e-01	 1.363042303142959e+01
 1.172866934308902e+00	 8.374800139597359e-01	 1.352774724006363e+01
 1.164702268431355e+00	 8.487981180987721e-01	 1.342066767100989e+01
 1.156422094584512e+00	 8.600450909887999e-01	 1.330967729474782e+01
 1.238963776617795e+00	 7.476282491875872e-01	 1.425718248290721e+01
 1.231722568307222e+00	 7.594990147965873e-01	 1.417329980141906e+01
 1.224359288554271e+00	 7.713128880585386e-01	 1.408806262795023e+01
 1.216874570484754e+00	 7.830680164978456e-01	 1.400098987203513e+01
 1.209269084209291e+00	 7.947625561952125e-01	 1.391166364925493e+01
 1.201543536703798e+00	 8.063946727004427e-01	 1.381973716470539e+01
 1.193698671663189e+00	 8.179625419442276e-01	 1.372494275643791e+01
 1.185735269328251e+00	 8.294643511480083e-01	 1.362710006909999e+01
 1.177654146285674e+00	 8.408982997309998e-01	 1.352612432568201e+01
 1.169456155241279e+00	 8.522626002134610e-01	 1.342137585080600e+01
 1.161142184766489e+00	 8.635554791152846e-01	 1.331223984961170e+01
 1.244000214734127e+00	 7.506673884119270e-01	 1.424321508081138e+01
 1.236729570617414e+00	 7.625864091656792e-01	 1.416056516526489e+01
 1.229336358832947e+00	 7.744483063026788e-01	 1.407674323492925e+01
 1.221821215080221e+00	 7.862512198169427e-01	 1.399122130217961e+01
 1.214184812193881e+00	 7.979932982935668e-01	 1.390353385209576e+01
 1.206427860023732e+00	 8.096726998252414e-01	 1.381328592040380e+01
 1.198551105287836e+00	 8.212875929277407e-01	 1.372016134147293e+01
 1.190555331398691e+00	 8.328361574534879e-01	 1.362393113614569e+01
 1.182441358262444e+00	 8.443165855022643e-01	 1.352446200677770e+01
 1.174210042051203e+00	 8.557270823281498e-01	 1.342165434926066e+01
 1.165862274948467e+00	 8.670658672417693e-01	 1.331445291002339e+01
 1.249036652850460e+00	 7.537065276362669e-01	 1.422926060135426e+01
 1.241736572927606e+00	 7.656738035347709e-01	 1.414784125870859e+01
 1.234313429111623e+00	 7.775837245468192e-01	 1.406545491375318e+01
 1.226767859675687e+00	 7.894344231360397e-01	 1.398151950934397e+01
 1.219100540178472e+00	 8.012240403919217e-01	 1.389551442542517e+01
 1.211312183343666e+00	 8.129507269500398e-01	 1.380698876130016e+01
 1.203403538912484e+00	 8.246126439112538e-01	 1.371556979875827e+01
 1.195375393469131e+00	 8.362079637589677e-01	 1.362097161536714e+01
 1.187228570239216e+00	 8.477348712735284e-01	 1.352300381477176e+01
 1.178963928861127e+00	 8.591915644428385e-01	 1.342158033843754e+01
 1.170582365130445e+00	 8.705762553682543e-01	 1.331629780467456e+01
 1.254073090966792e+00	 7.567456668606066e-01	 1.421533307996804e+01
 1.246743575237798e+00	 7.687611979038629e-01	 1.413515678418996e+01
 1.239290499390299e+00	 7.807191427909598e-01	 1.405423815534782e+01
 1.231714504271153e+00	 7.926176264551363e-01	 1.397193397291940e+01
 1.224016268163062e+00	 8.044547824902761e-01	 1.388766111702853e+01
 1.216196506663600e+00	 8.162287540748382e-01	 1.380090506484536e+01
 1.208255972537131e+00	 8.279376948947670e-01	 1.371122857935863e+01
 1.200195455539570e+00	 8.395797700644471e-01	 1.361828055935421e+01
 1.192015782215987e+00	 8.511531570447929e-01	 1.352180501688990e+01
 1.183717815671051e+00	 8.626560465575277e-01	 1.342165014606938e+01
 1.175302455312422e+00	 8.740866434947391e-01	 1.331775993609527e+01
 1.259109529083124e+00	 7.597848060849464e-01	 1.420145049135122e+01
 1.251750577547989e+00	 7.718485922729547e-01	 1.412254419983505e+01
 1.244267569668975e+00	 7.838545610351000e-01	 1.404313706996180e+01
 1.236661148866620e+00	 7.958008297742335e-01	 1.396251770130129e+01
 1.228931996147653e+00	 8.076855245886307e-01	 1.388003315819498e+01
 1.221080829983534e+00	 8.195067811996368e-01	 1.379509769003043e+01
 1.213108406161778e+00	 8.312627458782800e-01	 1.370720165611989e+01
 1.205015517610011e+00	 8.429515763699271e-01	 1.361592062353888e+01
 1.196802994192757e+00	 8.545714428160569e-01	 1.352092460364257e+01
 1.188471702480975e+00	 8.661205286722169e-01	 1.342198739042158e+01
 1.180022545494400e+00	 8.775970316212243e-01	 1.331899596139461e+01
 1.132821643674624e+00	 8.424931503563753e-01	 1.329254953461786e+01
 1.124598203920137e+00	 8.534391979014604e-01	 1.316881420834229e+01
 1.116263451152953e+00	 8.643121498597525e-01	 1.303737535489293e+01
 1.107818355501061e+00	 8.751103221823014e-01	 1.289961302948826e+01
 1.099263920835318e+00	 8.858320479215286e-01	 1.275704680664300e+01
 1.090601184393717e+00	 8.964756780716965e-01	 1.261133206316198e+01
 1.081831216380654e+00	 9.070395823994902e-01	 1.246425550643621e+01
 1.072955119541490e+00	 9.175221502638468e-01	 1.231772995859365e+01
 1.063974028712747e+00	 9.279217914241764e-01	 1.217378841130988e+01
 1.054889110348304e+00	 9.382369368361331e-01	 1.203457737030810e+01
 1.045701562022009e+00	 9.484660394341050e-01	 1.190234951273725e+01
 1.137541733856601e+00	 8.460035384828604e-01	 1.329644315103647e+01
 1.129284029769804e+00	 8.569951945593832e-01	 1.317384021817957e+01
 1.120914548866090e+00	 8.679134504841680e-01	 1.304344643535637e+01
 1.112434265315649e+00	 8.787566151913941e-01	 1.290665744633600e+01
 1.103844187172132e+00	 8.895230147878687e-01	 1.276501275997196e+01
 1.095145355995357e+00	 9.002109933969956e-01	 1.262019198132822e+01
 1.086338846448907e+00	 9.108189139928217e-01	 1.247401026658055e+01
 1.077425765872913e+00	 9.213451592232793e-01	 1.232841301237606e+01
 1.068407253832384e+00	 9.317881322217773e-01	 1.218546979470998e+01
 1.059284481641422e+00	 9.421462574062837e-01	 1.204736757670847e+01
 1.050058651863767e+00	 9.524179812650807e-01	 1.191640320897690e+01
 1.142261824038579e+00	 8.495139266093450e-01	 1.330013861366248e+01
 1.133969855619472e+00	 8.605511912173064e-01	 1.317875402259195e+01
 1.125565646579227e+00	 8.715147511085835e-01	 1.304946145936976e+01
 1.117050175130237e+00	 8.824029082004873e-01	 1.291367569022213e+01
 1.108424453508946e+00	 8.932139816542081e-01	 1.277295996101117e+01
 1.099689527596998e+00	 9.039463087222941e-01	 1.262902217120615e+01
 1.090846476517159e+00	 9.145982455861525e-01	 1.248371024937088e+01
 1.081896412204336e+00	 9.251681681827124e-01	 1.233900674100285e+01
 1.072840478952020e+00	 9.356544730193781e-01	 1.219702262403532e+01
 1.063679852934540e+00	 9.460555779764341e-01	 1.205999037177160e+01
 1.054415741705526e+00	 9.563699230960561e-01	 1.193025628739666e+01
 1.146981914220557e+00	 8.530243147358301e-01	 1.330359822193286e+01
 1.138655681469139e+00	 8.641071878752289e-01	 1.318350877291301e+01
 1.130216744292364e+00	 8.751160517329990e-01	 1.305536588427602e+01
 1.121666084944824e+00	 8.860492012095799e-01	 1.292060692049473e+01
 1.113004719845760e+00	 8.969049485205479e-01	 1.278082260951791e+01
 1.104233699198639e+00	 9.076816240475931e-01	 1.263775315434008e+01
 1.095354106585412e+00	 9.183775771794839e-01	 1.249328352310110e+01
 1.086367058535759e+00	 9.289911771421445e-01	 1.234943792870050e+01
 1.077273704071657e+00	 9.395208138169787e-01	 1.220837351351436e+01
 1.068075224227658e+00	 9.499648985465846e-01	 1.207237325936625e+01
 1.058772831547284e+00	 9.603218649270313e-01	 1.194383814740998e+01
 1.151702004402534e+00	 8.565347028623148e-01	 1.330678790159474e+01
 1.143341507318806e+00	 8.676631845331517e-01	 1.318806148869711e+01
 1.134867842005501e+00	 8.787173523574143e-01	 1.306110923989058e+01
 1.126281994759412e+00	 8.896954942186731e-01	 1.292739453630053e+01
 1.117584986182574e+00	 9.005959153868875e-01	 1.278853927622852e+01
 1.108777870800279e+00	 9.114169393728914e-01	 1.264631991912035e+01
 1.099861736653664e+00	 9.221569087728149e-01	 1.250266268433687e+01
 1.090837704867182e+00	 9.328141861015774e-01	 1.235963791587627e+01
 1.081706929191293e+00	 9.433871546145794e-01	 1.221945362891464e+01
 1.072470595520776e+00	 9.538742191167350e-01	 1.208444825872149e+01
 1.063129921389042e+00	 9.642738067580069e-01	 1.195708263712989e+01
 1.156422094584512e+00	 8.600450909887999e-01	 1.330967729474782e+01
 1.148027333168473e+00	 8.712191811910742e-01	 1.319237314437959e+01
 1.139518939718639e+00	 8.823186529818304e-01	 1.306664521230963e+01
 1.130897904574000e+00	 8.933417872277660e-01	 1.293398625805382e+01
 1.122165252519387e+00	 9.042868822532273e-01	 1.279605298248472e+01
 1.113322042401919e+00	 9.151522546981903e-01	 1.265466199904009e+01
 1.104369366721917e+00	 9.259362403661462e-01	 1.251178493526379e+01
 1.095308351198605e+00	 9.366371950610098e-01	 1.236954267599554e+01
 1.086140154310929e+00	 9.472534954121800e-01	 1.223019876437149e+01
 1.076865966813894e+00	 9.577835396868853e-01	 1.209615198160831e+01
 1.067487011230800e+00	 9.682257485889821e-01	 1.196992813128599e+01
 1.161142184766489e+00	 8.635554791152846e-01	 1.331223984961170e+01
 1.152713159018140e+00	 8.747751778489971e-01	 1.319640875575372e+01
 1.144170037431776e+00	 8.859199536062458e-01	 1.307193172761236e+01
 1.135513814388587e+00	 8.969880802368587e-01	 1.294033420886219e+01
 1.126745518856201e+00	 9.079778491195669e-01	 1.280331127986309e+01
 1.117866214003560e+00	 9.188875700234890e-01	 1.266272355099404e+01
 1.108876996790170e+00	 9.297155719594771e-01	 1.252059216109876e+01
 1.099778997530028e+00	 9.404602040204428e-01	 1.237909289253502e+01
 1.090573379430566e+00	 9.511198362097805e-01	 1.224054941929196e+01
 1.081261338107012e+00	 9.616928602570363e-01	 1.210742570958236e+01
 1.071844101072559e+00	 9.721776904199576e-01	 1.198231760917871e+01
 1.165862274948467e+00	 8.670658672417693e-01	 1.331445291002339e+01
 1.157398984867807e+00	 8.783311745069197e-01	 1.320013746626846e+01
 1.148821135144914e+00	 8.895212542306616e-01	 1.307693103545962e+01
 1.140129724203175e+00	 9.006343732459516e-01	 1.294639499591098e+01
 1.131325785193015e+00	 9.116688159859069e-01	 1.281026632981255e+01
 1.122410385605201e+00	 9.226228853487877e-01	 1.267045343361819e+01
 1.113384626858423e+00	 9.334949035528085e-01	 1.252903100756678e+01
 1.104249643861450e+00	 9.442832129798754e-01	 1.238823403600949e+01
 1.095006604550202e+00	 9.549861770073815e-01	 1.225045087532721e+01
 1.085656709400130e+00	 9.656021808271863e-01	 1.211821547128454e+01
 1.076201190914317e+00	 9.761296322509329e-01	 1.199419873266660e+01
 1.170582365130445e+00	 8.705762553682543e-01	 1.331629780467456e+01
 1.162084810717475e+00	 8.818871711648425e-01	 1.320353263315211e+01
 1.153472232858051e+00	 8.931225548550771e-01	 1.308160979259143e+01
 1.144745634017763e+00	 9.042806662550444e-01	 1.295212979180536e+01
 1.135906051529828e+00	 9.153597828522463e-01	 1.281687498329586e+01
 1.126954557206841e+00	 9.263582006740865e-01	 1.267780528566916e+01
 1.117892256926675e+00	 9.372742351461396e-01	 1.253705295843622e+01
 1.108720290192873e+00	 9.481062219393079e-01	 1.239691644106861e+01
 1.099439829669839e+00	 9.588525178049822e-01	 1.225985327341738e+01
 1.090052080693248e+00	 9.695115013973373e-01	 1.212847211979920e+01
 1.080558280756076e+00	 9.800815740819084e-01	 1.200552392418888e+01
 1.175302455312422e+00	 8.740866434947391e-01	 1.331775993609528e+01
 1.166770636567142e+00	 8.854431678227653e-01	 1.320657191336719e+01
 1.158123330571188e+00	 8.967238554794927e-01	 1.308593914622742e+01
 1.149361543832351e+00	 9.079269592641372e-01	 1.295750441587343e+01
 1.140486317866642e+00	 9.190507497185858e-01	 1.282309886043772e+01
 1.131498728808481e+00	 9.300935159993851e-01	 1.268473760444117e+01
 1.122399886994928e+00	 9.410535667394709e-01	 1.254461441311530e+01
 1.113190936524296e+00	 9.519292308987404e-01	 1.240509538366283e+01
 1.103873054789475e+00	 9.627188586025830e-01	 1.226871169090129e+01
 1.094447451986366e+00	 9.734208219674875e-01	 1.213815141006656e+01
 1.084915370597834e+00	 9.840335159128838e-01	 1.201625044482003e+01
 1.180022545494400e+00	 8.775970316212243e-01	 1.331899596139461e+01
 1.171456462416809e+00	 8.889991644806882e-01	 1.320923734940145e+01
 1.162774428284325e+00	 9.003251561039085e-01	 1.308989481737122e+01
 1.153977453646939e+00	 9.115732522732304e-01	 1.296248941543078e+01
 1.145066584203456e+00	 9.227417165849257e-01	 1.282890443017715e+01
 1.136042900410122e+00	 9.338288313246841e-01	 1.269121382422092e+01
 1.126907517063181e+00	 9.448328983328023e-01	 1.255167676430547e+01
 1.117661582855719e+00	 9.557522398581736e-01	 1.241273115827664e+01
 1.108306279909112e+00	 9.665851994001837e-01	 1.227698621869426e+01
 1.098842823279484e+00	 9.773301425376382e-01	 1.214721407634961e+01
 1.089272460439592e+00	 9.879854577438593e-01	 1.202634047235691e+01
 1.045701562022009e+00	 9.484660394341050e-01	 1.190234951273725e+01
 1.036412611907131e+00	 9.586075748996170e-01	 1.176780957936637e+01
 1.027023518233134e+00	 9.686600424148413e-01	 1.162168656830333e+01
 1.017535568720260e+00	 9.786219654004420e-01	 1.146638966878374e+01
 1.007950079992461e+00	 9.884918922369962e-01	 1.130438088700067e+01
 9.982683969692436e-01	 9.982683969692433e-01	 1.113816527994707e+01
 9.884918922369962e-01	 1.007950079992461e+00	 1.097028075320971e+01
 9.786219654004422e-01	 1.017535568720260e+00	 1.080328747010425e+01
 9.686600424148413e-01	 1.027023518233134e+00	 1.063975692222568e+01
 9.586075748996175e-01	 1.036412611907131e+00	 1.048226071391951e+01
 9.484660394341050e-01	 1.045701562022009e+00	 1.033335911530353e+01
 1.050058651863767e+00	 9.524179812650807e-01	 1.191640320897690e+01
 1.040730997790078e+00	 9.626017731283654e-01	 1.178316956028929e+01
 1.031302782892439e+00	 9.726961259249030e-01	 1.163826114981608e+01
 1.021775300256594e+00	 9.826995569229441e-01	 1.148410157528008e+01
 1.012149871992430e+00	 9.926106084546505e-01	 1.132316906101666e+01
 1.002427848623282e+00	 1.002427848623282e+00	 1.115798650423172e+01
 9.926106084546505e-01	 1.012149871992430e+00	 1.099111107154338e+01
 9.826995569229441e-01	 1.021775300256594e+00	 1.082512339425693e+01
 9.726961259249033e-01	 1.031302782892439e+00	 1.066261641359051e+01
 9.626017731283656e-01	 1.040730997790078e+00	 1.050618392956318e+01
 9.524179812650806e-01	 1.050058651863768e+00	 1.035840890945125e+01
 1.054415741705526e+00	 9.563699230960561e-01	 1.193025628739666e+01
 1.045049383673024e+00	 9.665959713571139e-01	 1.179829915780166e+01
 1.035582047551744e+00	 9.767322094349650e-01	 1.165457327626829e+01
 1.026015031792928e+00	 9.867771484454456e-01	 1.150151682463341e+01
 1.016349663992399e+00	 9.967293246723046e-01	 1.134162446911592e+01
 1.006587300277321e+00	 1.006587300277321e+00	 1.117743721559040e+01
 9.967293246723047e-01	 1.016349663992398e+00	 1.101153180115798e+01
 9.867771484454461e-01	 1.026015031792928e+00	 1.084650967153637e+01
 9.767322094349647e-01	 1.035582047551743e+00	 1.068498559665474e+01
 9.665959713571138e-01	 1.045049383673024e+00	 1.052957597939436e+01
 9.563699230960561e-01	 1.054415741705526e+00	 1.038288691467759e+01
 1.058772831547284e+00	 9.603218649270313e-01	 1.194383814740998e+01
 1.049367769555970e+00	 9.705901695858623e-01	 1.181312985838411e+01
 1.039861312211048e+00	 9.807682929450267e-01	 1.167055594468054e+01
 1.030254763329263e+00	 9.908547399679475e-01	 1.151856936556445e+01
 1.020549455992368e+00	 1.000848040889959e+00	 1.135968147236850e+01
 1.010746751931359e+00	 1.010746751931359e+00	 1.119645166931868e+01
 1.000848040889959e+00	 1.020549455992367e+00	 1.103147659633039e+01
 9.908547399679479e-01	 1.030254763329263e+00	 1.086737888440680e+01
 9.807682929450269e-01	 1.039861312211048e+00	 1.070679553720392e+01
 9.705901695858624e-01	 1.049367769555970e+00	 1.055236599496171e+01
 9.603218649270312e-01	 1.058772831547284e+00	 1.040671993932692e+01
 1.063129921389042e+00	 9.642738067580069e-01	 1.195708263712989e+01
 1.053686155438917e+00	 9.745843678146108e-01	 1.182759751365417e+01
 1.044140576870353e+00	 9.848043764550887e-01	 1.168614642961927e+01
 1.034494494865598e+00	 9.949323314904495e-01	 1.153519733276065e+01
 1.024749247992335e+00	 1.004966757107613e+00	 1.137727852231190e+01
 1.014906203585398e+00	 1.014906203585398e+00	 1.121496811183964e+01
 1.004966757107613e+00	 1.024749247992336e+00	 1.105088299938713e+01
 9.949323314904496e-01	 1.034494494865597e+00	 1.088766739668470e+01
 9.848043764550887e-01	 1.044140576870353e+00	 1.072798097219611e+01
 9.745843678146111e-01	 1.053686155438917e+00	 1.057448666547987e+01
 9.642738067580068e-01	 1.063129921389042e+00	 1.042983823274116e+01
 1.067487011230800e+00	 9.682257485889821e-01	 1.196992813128599e+01
 1.058004541321863e+00	 9.785785660433589e-01	 1.184164241912700e+01
 1.048419841529658e+00	 9.888404599651505e-01	 1.170128636264922e+01
 1.038734226401932e+00	 9.990099230129514e-01	 1.155134312687535e+01
 1.028949039992304e+00	 1.009085473325267e+00	 1.139435824134899e+01
 1.019065655239436e+00	 1.019065655239436e+00	 1.123292886136103e+01
 1.009085473325267e+00	 1.028949039992304e+00	 1.106969252148367e+01
 9.990099230129514e-01	 1.038734226401931e+00	 1.090731543430895e+01
 9.888404599651504e-01	 1.048419841529658e+00	 1.074848039039452e+01
 9.785785660433590e-01	 1.058004541321863e+00	 1.059587431819737e+01
 9.682257485889821e-01	 1.067487011230801e+00	 1.045217556524505e+01
 1.071844101072559e+00	 9.721776904199576e-01	 1.198231760917871e+01
 1.062322927204809e+00	 9.825727642721075e-01	 1.185520939298402e+01
 1.052699106188963e+00	 9.928765434752120e-01	 1.171592181176728e+01
 1.042973957938266e+00	 1.003087514535453e+00	 1.156695349448079e+01
 1.033148831992273e+00	 1.013204189542921e+00	 1.141086750307802e+01
 1.023225106893475e+00	 1.023225106893474e+00	 1.125028038844416e+01
 1.013204189542921e+00	 1.033148831992273e+00	 1.108785072327657e+01
 1.003087514535453e+00	 1.042973957938266e+00	 1.092626716598441e+01
 9.928765434752120e-01	 1.052699106188962e+00	 1.076823611285622e+01
 9.825727642721077e-01	 1.062322927204809e+00	 1.061646899860853e+01
 9.721776904199575e-01	 1.071844101072559e+00	 1.047366930796277e+01
 1.076201190914317e+00	 9.761296322509329e-01	 1.199419873266660e+01
 1.066641313087756e+00	 9.865669625008555e-01	 1.186824785484750e+01
 1.056978370848267e+00	 9.969126269852739e-01	 1.173000336081691e+01
 1.047213689474600e+00	 1.007165106057955e+00	 1.158197960797722e+01
 1.037348623992242e+00	 1.017322905760575e+00	 1.142675751255821e+01
 1.027384558547513e+00	 1.027384558547513e+00	 1.126697339648606e+01
 1.017322905760575e+00	 1.037348623992241e+00	 1.110530729548980e+01
 1.007165106057955e+00	 1.047213689474600e+00	 1.094447078370335e+01
 9.969126269852739e-01	 1.056978370848267e+00	 1.078719437328287e+01
 9.865669625008560e-01	 1.066641313087755e+00	 1.063621455051248e+01
 9.761296322509330e-01	 1.076201190914317e+00	 1.049426051246870e+01
 1.080558280756076e+00	 9.800815740819084e-01	 1.200552392418888e+01
 1.070959698970702e+00	 9.905611607296039e-01	 1.188071190456180e+01
 1.061257635507572e+00	 1.000948710495336e+00	 1.174348618888394e+01
 1.051453421010935e+00	 1.011242697580456e+00	 1.159637714546190e+01
 1.041548415992210e+00	 1.021441621978229e+00	 1.144198388650991e+01
 1.031544010201552e+00	 1.031544010201551e+00	 1.128296290211793e+01
 1.021441621978229e+00	 1.041548415992210e+00	 1.112201613937990e+01
 1.011242697580457e+00	 1.051453421010935e+00	 1.096187858314778e+01
 1.000948710495336e+00	 1.061257635507571e+00	 1.080530539823658e+01
 9.905611607296044e-01	 1.070959698970702e+00	 1.065505869592349e+01
 9.800815740819084e-01	 1.080558280756076e+00	 1.051389399027603e+01
 1.084915370597834e+00	 9.840335159128838e-01	 1.201625044482003e+01
 1.075278084853649e+00	 9.945553589583523e-01	 1.189256040098219e+01
 1.065536900166877e+00	 1.004984794005398e+00	 1.175633014967481e+01
 1.055693152547269e+00	 1.015320289102958e+00	 1.161010637055533e+01
 1.045748207992179e+00	 1.025560338195883e+00	 1.145650673345371e+01
 1.035703461855590e+00	 1.035703461855590e+00	 1.129820831552258e+01
 1.025560338195884e+00	 1.045748207992178e+00	 1.113793544709913e+01
 1.015320289102959e+00	 1.055693152547269e+00	 1.097844704397556e+01
 1.004984794005398e+00	 1.065536900166876e+00	 1.082252348722564e+01
 9.945553589583528e-01	 1.075278084853648e+00	 1.067295311483782e+01
 9.840335159128836e-01	 1.084915370597834e+00	 1.053251839217214e+01
 1.089272460439592e+00	 9.879854577438593e-01	 1.202634047235691e+01
 1.079596470736595e+00	 9.985495571871008e-01	 1.190375704076901e+01
 1.069816164826181e+00	 1.009020877515459e+00	 1.176849985087630e+01
 1.059932884083604e+00	 1.019397880625460e+00	 1.162313221218882e+01
 1.049947999992147e+00	 1.029679054413537e+00	 1.147029073378898e+01
 1.039862913509629e+00	 1.039862913509629e+00	 1.131267352067135e+01
 1.029679054413538e+00	 1.049947999992147e+00	 1.115302778196521e+01
 1.019397880625461e+00	 1.059932884083604e+00	 1.099413690999403e+01
 1.009020877515460e+00	 1.069816164826181e+00	 1.083880709266241e+01
 9.985495571871013e-01	 1.079596470736595e+00	 1.068985352485911e+01
 9.879854577438593e-01	 1.089272460439593e+00	 1.055008628739692e+01
 9.484660394341050e-01	 1.045701562022009e+00	 1.033335911530353e+01
 9.382369368361333e-01	 1.054889110348304e+00	 1.018533073682331e+01
 9.279217914241770e-01	 1.063974028712747e+00	 1.002986106422153e+01
 9.175221502638469e-01	 1.072955119541490e+00	 9.868542629515717e+00
 9.070395823994906e-01	 1.081831216380653e+00	 9.702876428794909e+00
 8.964756780716970e-01	 1.090601184393717e+00	 9.534261919144207e+00
 8.858320479215291e-01	 1.099263920835318e+00	 9.363987183924809e+00
 8.751103221823016e-01	 1.107818355501061e+00	 9.193219323670709e+00
 8.643121498597526e-01	 1.116263451152952e+00	 9.022995129246763e+00
 8.534391979014607e-01	 1.124598203920137e+00	 8.854212092972263e+00
 8.424931503563753e-01	 1.132821643674624e+00	 8.687619812132798e+00
 9.524179812650806e-01	 1.050058651863768e+00	 1.035840890945125e+01
 9.421462574062833e-01	 1.059284481641422e+00	 1.021135379580364e+01
 9.317881322217771e-01	 1.068407253832384e+00	 1.005651653024699e+01
 9.213451592232794e-01	 1.077425765872913e+00	 9.895555591203312e+00
 9.108189139928217e-01	 1.086338846448907e+00	 9.730037782789632e+00
 9.002109933969958e-01	 1.095145355995357e+00	 9.561427910199892e+00
 8.895230147878690e-01	 1.103844187172132e+00	 9.391078622765647e+00
 8.787566151913945e-01	 1.112434265315649e+00	 9.220220483541405e+00
 8.679134504841681e-01	 1.120914548866090e+00	 9.049952323650968e+00
 8.569951945593836e-01	 1.129284029769804e+00	 8.881231938664531e+00
 8.460035384828603e-01	 1.137541733856602e+00	 8.714867182996429e+00
 9.563699230960561e-01	 1.054415741705526e+00	 1.038288691467759e+01
 9.460555779764341e-01	 1.063679852934540e+00	 1.023676914013217e+01
 9.356544730193784e-01	 1.072840478952020e+00	 1.008254059844203e+01
 9.251681681827125e-01	 1.081896412204336e+00	 9.921930855591757e+00
 9.145982455861530e-01	 1.090846476517159e+00	 9.756577751958092e+00
 9.039463087222945e-01	 1.099689527596998e+00	 9.588016743357935e+00
 8.932139816542084e-01	 1.108424453508946e+00	 9.417670408944561e+00
 8.824029082004877e-01	 1.117050175130237e+00	 9.246838186423673e+00
 8.715147511085837e-01	 1.125565646579227e+00	 9.076686394451565e+00
 8.605511912173066e-01	 1.133969855619471e+00	 8.908238601112785e+00
 8.495139266093452e-01	 1.142261824038579e+00	 8.742366396058785e+00
 9.603218649270312e-01	 1.058772831547284e+00	 1.040671993932692e+01
 9.499648985465848e-01	 1.068075224227658e+00	 1.026150143308077e+01
 9.395208138169788e-01	 1.077273704071656e+00	 1.010785649543202e+01
 9.289911771421453e-01	 1.086367058535759e+00	 9.947590895507238e+00
 9.183775771794841e-01	 1.095354106585412e+00	 9.782418712729658e+00
 9.076816240475932e-01	 1.104233699198638e+00	 9.613951330672769e+00
 8.969049485205486e-01	 1.113004719845760e+00	 9.443686596768188e+00
 8.860492012095803e-01	 1.121666084944824e+00	 9.272998210014288e+00
 8.751160517329996e-01	 1.130216744292364e+00	 9.103125398219664e+00
 8.641071878752291e-01	 1.138655681469138e+00	 8.935162945343007e+00
 8.530243147358297e-01	 1.146981914220557e+00	 8.770051628154203e+00
 9.642738067580068e-01	 1.063129921389042e+00	 1.042983823274116e+01
 9.538742191167352e-01	 1.072470595520776e+00	 1.028547865046297e+01
 9.433871546145794e-01	 1.081706929191293e+00	 1.013239061214901e+01
 9.328141861015778e-01	 1.090837704867182e+00	 9.972461181215429e+00
 9.221569087728153e-01	 1.099861736653664e+00	 9.807485854646572e+00
 9.114169393728919e-01	 1.108777870800279e+00	 9.639157196714340e+00
 9.005959153868880e-01	 1.117584986182574e+00	 9.469053637397678e+00
 8.896954942186732e-01	 1.126281994759412e+00	 9.298628499367879e+00
 8.787173523574150e-01	 1.134867842005502e+00	 9.129199316789943e+00
 8.676631845331519e-01	 1.143341507318806e+00	 8.961937508205567e+00
 8.565347028623146e-01	 1.151702004402534e+00	 8.797858464418354e+00
 9.682257485889821e-01	 1.067487011230801e+00	 1.045217556524505e+01
 9.577835396868859e-01	 1.076865966813894e+00	 1.030863216030276e+01
 9.472534954121804e-01	 1.086140154310929e+00	 1.015607258342009e+01
 9.366371950610103e-01	 1.095308351198604e+00	 9.996470260153119e+00
 9.259362403661464e-01	 1.104369366721917e+00	 9.831707260444706e+00
 9.151522546981904e-01	 1.113322042401919e+00	 9.663562559191758e+00
 9.042868822532276e-01	 1.122165252519387e+00	 9.493700460197402e+00
 8.933417872277661e-01	 1.130897904574000e+00	 9.323659249135975e+00
 8.823186529818307e-01	 1.139518939718639e+00	 9.154840140539076e+00
 8.712191811910747e-01	 1.148027333168473e+00	 8.988496582828088e+00
 8.600450909887999e-01	 1.156422094584512e+00	 8.825723984034553e+00
 9.721776904199575e-01	 1.071844101072559e+00	 1.047366930796277e+01
 9.616928602570365e-01	 1.081261338107012e+00	 1.033089680231674e+01
 9.511198362097811e-01	 1.090573379430566e+00	 1.017883536734502e+01
 9.404602040204432e-01	 1.099778997530027e+00	 1.001954983641767e+01
 9.297155719594777e-01	 1.108876996790169e+00	 9.855013985858012e+00
 9.188875700234891e-01	 1.117866214003559e+00	 9.687098409261292e+00
 9.079778491195675e-01	 1.126745518856201e+00	 9.517558553719383e+00
 8.969880802368591e-01	 1.135513814388587e+00	 9.348022985384180e+00
 8.859199536062461e-01	 1.144170037431776e+00	 9.179981951186582e+00
 8.747751778489973e-01	 1.152713159018140e+00	 9.014776302528915e+00
 8.635554791152846e-01	 1.161142184766490e+00	 8.853586845380420e+00
 9.761296322509330e-01	 1.076201190914317e+00	 1.049426051246870e+01
 9.656021808271871e-01	 1.085656709400130e+00	 1.035221096721525e+01
 9.549861770073816e-01	 1.095006604550202e+00	 1.020061532447200e+01
 9.442832129798756e-01	 1.104249643861450e+00	 1.004163485002558e+01
 9.334949035528091e-01	 1.113384626858423e+00	 9.877340139155390e+00
 9.226228853487882e-01	 1.122410385605200e+00	 9.709698591523482e+00
 9.116688159859070e-01	 1.131325785193015e+00	 9.540562046330342e+00
 9.006343732459520e-01	 1.140129724203175e+00	 9.371654647008086e+00
 8.895212542306618e-01	 1.148821135144913e+00	 9.204561004133616e+00
 8.783311745069204e-01	 1.157398984867808e+00	 9.040714724211036e+00
 8.670658672417693e-01	 1.165862274948467e+00	 8.881387370586719e+00
 9.800815740819084e-01	 1.080558280756076e+00	 1.051389399027603e+01
 9.695115013973374e-01	 1.090052080693248e+00	 1.037251667582751e+01
 9.588525178049825e-01	 1.099439829669838e+00	 1.022135229677391e+01
 9.481062219393083e-01	 1.108720290192873e+00	 1.006266355594359e+01
 9.372742351461399e-01	 1.117892256926675e+00	 9.898622960415645e+00
 9.263582006740867e-01	 1.126954557206840e+00	 9.731299883720970e+00
 9.153597828522467e-01	 1.135906051529829e+00	 9.562647786494214e+00
 9.042806662550451e-01	 1.144745634017763e+00	 9.394491666749708e+00
 8.931225548550775e-01	 1.153472232858051e+00	 9.228515810354567e+00
 8.818871711648426e-01	 1.162084810717475e+00	 9.066251911248237e+00
 8.705762553682543e-01	 1.170582365130445e+00	 8.909067629529734e+00
 9.840335159128836e-01	 1.084915370597834e+00	 1.053251839217214e+01
 9.734208219674879e-01	 1.094447451986365e+00	 1.039175965805605e+01
 9.627188586025832e-01	 1.103873054789475e+00	 1.024098968643165e+01
 9.519292308987409e-01	 1.113190936524296e+00	 1.008257760289905e+01
 9.410535667394710e-01	 1.122399886994928e+00	 9.918802900552084e+00
 9.300935159993854e-01	 1.131498728808481e+00	 9.751842076144673e+00
 9.190507497185866e-01	 1.140486317866642e+00	 9.583755422720955e+00
 9.079269592641379e-01	 1.149361543832350e+00	 9.416474051831996e+00
 8.967238554794933e-01	 1.158123330571188e+00	 9.251787217850946e+00
 8.854431678227654e-01	 1.166770636567142e+00	 9.091330015877659e+00
 8.740866434947391e-01	 1.175302455312422e+00	 8.936571523270109e+00
 9.879854577438593e-01	 1.089272460439593e+00	 1.055008628739692e+01
 9.773301425376386e-01	 1.098842823279484e+00	 1.040988943166290e+01
 9.665851994001841e-01	 1.108306279909111e+00	 1.025947453443240e+01
 9.557522398581739e-01	 1.117661582855719e+00	 1.010132211197848e+01
 9.448328983328024e-01	 1.126907517063181e+00	 9.937823700087819e+00
 9.338288313246844e-01	 1.136042900410122e+00	 9.771268050755127e+00
 9.227417165849262e-01	 1.145066584203457e+00	 9.603827483186361e+00
 9.115732522732308e-01	 1.153977453646938e+00	 9.437544464220702e+00
 9.003251561039085e-01	 1.162774428284325e+00	 9.274318492680395e+00
 8.889991644806886e-01	 1.171456462416809e+00	 9.115893361116028e+00
 8.775970316212243e-01	 1.180022545494400e+00	 8.963269581594314e+00
 8.424931503563753e-01	 1.132821643674624e+00	 8.687619812132798e+00
 8.314757075253281e-01	 1.140932834381736e+00	 8.520935301634305e+00
 8.203885851034152e-01	 1.148930874425047e+00	 8.353227109908278e+00
 8.092335133151302e-01	 1.156814896905610e+00	 8.187060964436549e+00
 7.980122360431492e-01	 1.164584069915307e+00	 8.024867670735004e+00
 7.867265099516516e-01	 1.172237596784193e+00	 7.868933812554889e+00
 7.753781036050856e-01	 1.179774716301747e+00	 7.720095185734849e+00
 7.639687965832644e-01	 1.187194702911955e+00	 7.569592967096883e+00
 7.525003785936962e-01	 1.194496866882216e+00	 7.415185501029740e+00
 7.409746485820367e-01	 1.201680554446069e+00	 7.256587045280925e+00
 7.293934138415482e-01	 1.208745147919800e+00	 7.093489885992613e+00
 8.460035384828603e-01	 1.137541733856602e+00	 8.714867182996429e+00
 8.349401896400171e-01	 1.145686721191660e+00	 8.548934427162651e+00
 8.238068708746791e-01	 1.153718086401818e+00	 8.382884280373576e+00
 8.126053196206099e-01	 1.161634958976050e+00	 8.219371680115550e+00
 8.013372870266624e-01	 1.169436503539954e+00	 8.060914512043453e+00
 7.900045370764501e-01	 1.177121920104127e+00	 7.909838049774787e+00
 7.786088457034401e-01	 1.184690444286338e+00	 7.760623341814188e+00
 7.671519999023612e-01	 1.192141347507421e+00	 7.608145714600494e+00
 7.556357968378369e-01	 1.199473937160892e+00	 7.452199160028361e+00
 7.440620429511284e-01	 1.206687556756262e+00	 7.292551138736316e+00
 7.324325530658883e-01	 1.213781586036132e+00	 7.128947434966367e+00
 8.495139266093452e-01	 1.142261824038579e+00	 8.742366396058785e+00
 8.384046717547058e-01	 1.150440608001584e+00	 8.577514722064649e+00
 8.272251566459433e-01	 1.158505298378589e+00	 8.413514247062585e+00
 8.159771259260897e-01	 1.166455021046491e+00	 8.253097561383857e+00
 8.046623380101751e-01	 1.174288937164601e+00	 8.098857808924793e+00
 7.932825642012489e-01	 1.182006243424061e+00	 7.949995409614800e+00
 7.818395878017950e-01	 1.189606172270928e+00	 7.798831680169271e+00
 7.703352032214582e-01	 1.197087992102889e+00	 7.644766933791420e+00
 7.587712150819770e-01	 1.204451007439568e+00	 7.487634725413839e+00
 7.471494373202205e-01	 1.211694559066454e+00	 7.327242234463494e+00
 7.354716922902278e-01	 1.218818024152464e+00	 7.163375168157158e+00
 8.530243147358297e-01	 1.146981914220557e+00	 8.770051628154203e+00
 8.418691538693946e-01	 1.155194494811507e+00	 8.606612415427136e+00
 8.306434424172078e-01	 1.163292510355360e+00	 8.445052407695778e+00
 8.193489322315693e-01	 1.171275083116931e+00	 8.288170473779989e+00
 8.079873889936882e-01	 1.179141370789248e+00	 8.137944474832549e+00
 7.965605913260476e-01	 1.186890566743996e+00	 7.987685009666971e+00
 7.850703299001491e-01	 1.194521900255519e+00	 7.834971430386950e+00
 7.735184065405551e-01	 1.202034636698355e+00	 7.679695019568804e+00
 7.619066333261179e-01	 1.209428077718244e+00	 7.521715682411129e+00
 7.502368316893123e-01	 1.216701561376646e+00	 7.360866992353302e+00
 7.385108315145676e-01	 1.223854462268797e+00	 7.196961165042032e+00
 8.565347028623146e-01	 1.151702004402534e+00	 8.797858464418354e+00
 8.453336359840838e-01	 1.159948381621432e+00	 8.636164900762438e+00
 8.340617281884717e-01	 1.168079722332132e+00	 8.477435127647905e+00
 8.227207385370492e-01	 1.176095145187370e+00	 8.324523098658743e+00
 8.113124399772018e-01	 1.183993804413895e+00	 8.174888519796859e+00
 7.998386184508459e-01	 1.191774890063930e+00	 8.023169091107416e+00
 7.883010719985037e-01	 1.199437628240109e+00	 7.869294362908732e+00
 7.767016098596520e-01	 1.206981281293821e+00	 7.713169074516858e+00
 7.650420515702580e-01	 1.214405147996919e+00	 7.554666423682214e+00
 7.533242260584037e-01	 1.221708563686837e+00	 7.393633209439880e+00
 7.415499707389076e-01	 1.228890900385130e+00	 7.229894898918497e+00
 8.600450909887999e-01	 1.156422094584512e+00	 8.825723984034553e+00
 8.487981180987725e-01	 1.164702268431355e+00	 8.666110822576480e+00
 8.374800139597363e-01	 1.172866934308902e+00	 8.510599826312289e+00
 8.260925448425287e-01	 1.180915207257810e+00	 8.360467380292288e+00
 8.146374909607148e-01	 1.188846238038542e+00	 8.209496006740540e+00
 8.031166455756444e-01	 1.196659213383864e+00	 8.056710277159205e+00
 7.915318140968582e-01	 1.204353356224700e+00	 7.902052760583629e+00
 7.798848131787490e-01	 1.211927925889287e+00	 7.745428879154329e+00
 7.681774698143983e-01	 1.219382218275595e+00	 7.586712217606715e+00
 7.564116204274957e-01	 1.226715565997029e+00	 7.425749785592375e+00
 7.445891099632469e-01	 1.233927338501462e+00	 7.262367199449003e+00
 8.635554791152846e-01	 1.161142184766490e+00	 8.853586845380420e+00
 8.522626002134615e-01	 1.169456155241279e+00	 8.696390162281663e+00
 8.408982997310002e-01	 1.177654146285674e+00	 8.544384919007218e+00
 8.294643511480084e-01	 1.185735269328250e+00	 8.393967100970922e+00
 8.179625419442276e-01	 1.193698671663189e+00	 8.242037847517217e+00
 8.063946727004428e-01	 1.201543536703797e+00	 8.088571544585481e+00
 7.947625561952130e-01	 1.209269084209291e+00	 7.933499389631322e+00
 7.830680164978460e-01	 1.216874570484754e+00	 7.776714861662803e+00
 7.713128880585387e-01	 1.224359288554271e+00	 7.618079176124885e+00
 7.594990147965878e-01	 1.231722568307222e+00	 7.457426688879230e+00
 7.476282491875870e-01	 1.238963776617795e+00	 7.294570214995073e+00
 8.670658672417693e-01	 1.165862274948467e+00	 8.881387370586719e+00
 8.557270823281502e-01	 1.174210042051203e+00	 8.726944323468057e+00
 8.443165855022646e-01	 1.182441358262445e+00	 8.576569900417214e+00
 8.328361574534880e-01	 1.190555331398691e+00	 8.425286946892340e+00
 8.212875929277407e-01	 1.198551105287836e+00	 8.272785185613966e+00
 8.096726998252414e-01	 1.206427860023731e+00	 8.119016194558501e+00
 7.979932982935672e-01	 1.214184812193881e+00	 7.963887470030691e+00
 7.862512198169428e-01	 1.221821215080220e+00	 7.807268067115462e+00
 7.744483063026791e-01	 1.229336358832947e+00	 7.648994222172478e+00
 7.625864091656793e-01	 1.236729570617414e+00	 7.488874920617668e+00
 7.506673884119265e-01	 1.244000214734127e+00	 7.326697374749180e+00
 8.705762553682543e-01	 1.170582365130445e+00	 8.909067629529734e+00
 8.591915644428391e-01	 1.178963928861127e+00	 8.757352573613048e+00
 8.477348712735285e-01	 1.187228570239215e+00	 8.606473975906610e+00
 8.362079637589677e-01	 1.195375393469130e+00	 8.454703668319159e+00
 8.246126439112540e-01	 1.203403538912484e+00	 8.302009366124674e+00
 8.129507269500402e-01	 1.211312183343666e+00	 8.148307822918692e+00
 8.012240403919219e-01	 1.219100540178472e+00	 7.993470645354035e+00
 7.894344231360398e-01	 1.226767859675687e+00	 7.837330126215154e+00
 7.775837245468195e-01	 1.234313429111623e+00	 7.679685056702990e+00
 7.656738035347713e-01	 1.241736572927605e+00	 7.520306480114963e+00
 7.537065276362666e-01	 1.249036652850460e+00	 7.358943350670800e+00
 8.740866434947391e-01	 1.175302455312422e+00	 8.936571523270109e+00
 8.626560465575280e-01	 1.183717815671051e+00	 8.785707800964000e+00
 8.511531570447930e-01	 1.192015782215986e+00	 8.634376917556130e+00
 8.395797700644473e-01	 1.200195455539570e+00	 8.482494130943195e+00
 8.279376948947669e-01	 1.208255972537130e+00	 8.329981905102459e+00
 8.162287540748384e-01	 1.216196506663600e+00	 8.176710289846000e+00
 8.044547824902765e-01	 1.224016268163063e+00	 8.022502952057170e+00
 7.926176264551364e-01	 1.231714504271153e+00	 7.867143223557727e+00
 7.807191427909599e-01	 1.239290499390299e+00	 7.710380125320772e+00
 7.687611979038629e-01	 1.246743575237797e+00	 7.551934329110491e+00
 7.567456668606062e-01	 1.254073090966792e+00	 7.391504019228693e+00
 8.775970316212243e-01	 1.180022545494400e+00	 8.963269581594314e+00
 8.661205286722168e-01	 1.188471702480975e+00	 8.811978639556898e+00
 8.545714428160571e-01	 1.196802994192757e+00	 8.660558563693677e+00
 8.429515763699275e-01	 1.205015517610011e+00	 8.508935283555907e+00
 8.312627458782804e-01	 1.213108406161778e+00	 8.356974458302572e+00
 8.195067811996372e-01	 1.221080829983534e+00	 8.204487688954471e+00
 8.076855245886310e-01	 1.228931996147654e+00	 8.051238788248012e+00
 7.958008297742337e-01	 1.236661148866620e+00	 7.896950065434025e+00
 7.838545610351002e-01	 1.244267569668975e+00	 7.741308584528198e+00
 7.718485922729549e-01	 1.251750577547989e+00	 7.583972355927271e+00
 7.597848060849463e-01	 1.259109529083125e+00	 7.424576422959550e+00
 7.293934138415482e-01	 1.208745147919800e+00	 7.093489885992613e+00
 7.177584891224574e-01	 1.215690065792978e+00	 6.930098391788688e+00
 7.060716957420690e-01	 1.222514762793074e+00	 6.770340280497468e+00
 6.943348606965186e-01	 1.229218729924269e+00	 6.613473694840586e+00
 6.825498157750083e-01	 1.235801494480642e+00	 6.458752986544683e+00
 6.707183966773703e-01	 1.242262620033954e+00	 6.305433059598974e+00
 6.588424421357917e-01	 1.248601706396252e+00	 6.152773507488423e+00
 6.469237930415179e-01	 1.254818389557574e+00	 6.000042527009862e+00
 6.349642915773300e-01	 1.260912341599045e+00	 5.846520593426838e+00
 6.229657803565902e-01	 1.266883270581703e+00	 5.691503883930570e+00
 6.109301015696141e-01	 1.272730920411391e+00	 5.534307438596745e+00
 7.324325530658883e-01	 1.213781586036132e+00	 7.128947434966367e+00
 7.207491494938012e-01	 1.220755441067115e+00	 6.965622932880331e+00
 7.090136611409943e-01	 1.227608574304712e+00	 6.806432696790999e+00
 6.972279226160878e-01	 1.234340474632287e+00	 6.650533207980983e+00
 6.853937733407375e-01	 1.240950667374312e+00	 6.497076488706082e+00
 6.735130566635259e-01	 1.247438714284095e+00	 6.345214672099868e+00
 6.615876189780242e-01	 1.253804213506236e+00	 6.194104357941685e+00
 6.496193088458573e-01	 1.260046799514063e+00	 6.042910736243570e+00
 6.376099761255690e-01	 1.266166143022374e+00	 5.890811462849722e+00
 6.255614711080761e-01	 1.272161950875793e+00	 5.737000273504790e+00
 6.134756436594876e-01	 1.278033965913106e+00	 5.580690325154336e+00
 7.354716922902278e-01	 1.218818024152464e+00	 7.163375168157158e+00
 7.237398098651445e-01	 1.225820816341252e+00	 7.000278714970095e+00
 7.119556265399194e-01	 1.232702385816349e+00	 6.841733496349994e+00
 7.001209845356560e-01	 1.239462219340304e+00	 6.686808508372156e+00
 6.882377309064670e-01	 1.246099840267981e+00	 6.534567836387688e+00
 6.763077166496817e-01	 1.252614808534237e+00	 6.384075432595534e+00
 6.643327958202567e-01	 1.259006720616221e+00	 6.234399671123133e+00
 6.523148246501971e-01	 1.265275209470553e+00	 6.084617661958507e+00
 6.402556606738079e-01	 1.271419944445703e+00	 5.933819307376901e+00
 6.281571618595619e-01	 1.277440631169884e+00	 5.781111086841310e+00
 6.160211857493609e-01	 1.283337011414819e+00	 5.625619558737077e+00
 7.385108315145676e-01	 1.223854462268797e+00	 7.196961165042032e+00
 7.267304702364880e-01	 1.230886191615389e+00	 7.034236017626929e+00
 7.148975919388448e-01	 1.237796197327988e+00	 6.876398245130924e+00
 7.030140464552250e-01	 1.244583964048322e+00	 6.722443350772057e+00
 6.910816884721958e-01	 1.251249013161650e+00	 6.571361690958699e+00
 6.791023766358371e-01	 1.257790902784378e+00	 6.422143441754786e+00
 6.670779726624891e-01	 1.264209227726205e+00	 6.273783334252789e+00
 6.550103404545370e-01	 1.270503619427043e+00	 6.125285139615775e+00
 6.429013452220467e-01	 1.276673745869033e+00	 5.975665886902668e+00
 6.307528526110475e-01	 1.282719311463973e+00	 5.823959799210195e+00
 6.185667278392343e-01	 1.288640056916533e+00	 5.669221936108630e+00
 7.415499707389076e-01	 1.228890900385130e+00	 7.229894898918497e+00
 7.297211306078315e-01	 1.235951566889527e+00	 7.067666755993072e+00
 7.178395573377698e-01	 1.242890008839625e+00	 6.910584333379132e+00
 7.059071083747939e-01	 1.249705708756340e+00	 6.757583452622089e+00
 6.939256460379253e-01	 1.256398186055319e+00	 6.607594767302214e+00
 6.818970366219929e-01	 1.262966997034520e+00	 6.459548899810601e+00
 6.698231495047217e-01	 1.269411734836189e+00	 6.312381338197406e+00
 6.577058562588765e-01	 1.275732029383533e+00	 6.165037073279791e+00
 6.455470297702856e-01	 1.281927547292362e+00	 6.016474958625565e+00
 6.333485433625334e-01	 1.287997991758064e+00	 5.865671778522016e+00
 6.211122699291077e-01	 1.293943102418248e+00	 5.711626011559590e+00
 7.445891099632469e-01	 1.233927338501462e+00	 7.262367199449003e+00
 7.327117909791754e-01	 1.241016942163664e+00	 7.100744440464840e+00
 7.207815227366955e-01	 1.247983820351263e+00	 6.944450933499597e+00
 7.088001702943628e-01	 1.254827453464358e+00	 6.792376451105209e+00
 6.967696036036544e-01	 1.261547358948989e+00	 6.643405790984982e+00
 6.846916966081485e-01	 1.268143091284662e+00	 6.496424064705242e+00
 6.725683263469542e-01	 1.274614241946174e+00	 6.350321737393324e+00
 6.604013720632161e-01	 1.280960439340023e+00	 6.203999398056601e+00
 6.481927143185245e-01	 1.287181348715692e+00	 6.056372242670307e+00
 6.359442341140191e-01	 1.293276672052154e+00	 5.906374254742923e+00
 6.236578120189811e-01	 1.299246147919962e+00	 5.752962070660347e+00
 7.476282491875870e-01	 1.238963776617795e+00	 7.294570214995073e+00
 7.357024513505188e-01	 1.246082317437802e+00	 7.133644136275602e+00
 7.237234881356203e-01	 1.253077631862900e+00	 6.978158957916716e+00
 7.116932322139318e-01	 1.259949198172375e+00	 6.826971860246503e+00
 6.996135611693837e-01	 1.266696531842658e+00	 6.678935455508176e+00
 6.874863565943045e-01	 1.273319185534803e+00	 6.532903210335297e+00
 6.753135031891865e-01	 1.279816749056158e+00	 6.387734609863938e+00
 6.630968878675559e-01	 1.286188849296512e+00	 6.242300042601346e+00
 6.508383988667632e-01	 1.292435150139021e+00	 6.095485387745624e+00
 6.385399248655049e-01	 1.298555352346245e+00	 5.946196289290603e+00
 6.262033541088545e-01	 1.304549193421676e+00	 5.793362103921893e+00
 7.506673884119265e-01	 1.244000214734127e+00	 7.326697374749180e+00
 7.386931117218619e-01	 1.251147692711939e+00	 7.166542422981031e+00
 7.266654535345458e-01	 1.258171443374539e+00	 7.011871016918986e+00
 7.145862941335005e-01	 1.265070942880393e+00	 6.861521028059929e+00
 7.024575187351129e-01	 1.271845704736327e+00	 6.714326379639783e+00
 6.902810165804600e-01	 1.278495279784944e+00	 6.569122584890165e+00
 6.780586800314189e-01	 1.285019256166142e+00	 6.424752017328180e+00
 6.657924036718955e-01	 1.291417259253003e+00	 6.280068891697100e+00
 6.534840834150021e-01	 1.297688951562350e+00	 6.133943936827475e+00
 6.411356156169907e-01	 1.303834032640335e+00	 5.985268744403667e+00
 6.287488961987279e-01	 1.309852238923390e+00	 5.832959780368828e+00
 7.537065276362666e-01	 1.249036652850460e+00	 7.358943350670800e+00
 7.416837720932059e-01	 1.256213067986076e+00	 7.199617353852663e+00
 7.296074189334708e-01	 1.263265254886176e+00	 7.045751376489389e+00
 7.174793560530695e-01	 1.270192687588411e+00	 6.896177093739086e+00
 7.053014763008418e-01	 1.276994877629997e+00	 6.749723064824240e+00
 6.930756765666157e-01	 1.283671374035086e+00	 6.605220369284780e+00
 6.808038568736513e-01	 1.290221763276127e+00	 6.461507965398026e+00
 6.684879194762351e-01	 1.296645669209492e+00	 6.317437748898536e+00
 6.561297679632409e-01	 1.302942752985679e+00	 6.171879292875641e+00
 6.437313063684764e-01	 1.309112712934426e+00	 6.023724252491808e+00
 6.312944382886012e-01	 1.315155284425104e+00	 5.871890421023476e+00
 7.567456668606062e-01	 1.254073090966792e+00	 7.391504019228693e+00
 7.446744324645492e-01	 1.261278443260214e+00	 7.233048415182370e+00
 7.325493843323965e-01	 1.268359066397815e+00	 7.079965916124275e+00
 7.203724179726378e-01	 1.275314432296428e+00	 6.931094944888501e+00
 7.081454338665711e-01	 1.282144050523666e+00	 6.785271852669011e+00
 6.958703365527715e-01	 1.288847468285227e+00	 6.641336635683255e+00
 6.835490337158838e-01	 1.295424270386111e+00	 6.498138363861809e+00
 6.711834352805748e-01	 1.301874079165982e+00	 6.354540299244912e+00
 6.587754525114801e-01	 1.308196554409009e+00	 6.209424684578936e+00
 6.463269971199622e-01	 1.314391393228516e+00	 6.061697185460915e+00
 6.338399803784747e-01	 1.320458329926818e+00	 5.910290972305337e+00
 7.597848060849463e-01	 1.259109529083125e+00	 7.424576422959550e+00
 7.476650928358932e-01	 1.266343818534352e+00	 7.267016485494937e+00
 7.354913497313217e-01	 1.273452877909452e+00	 7.114682086638275e+00
 7.232654798922070e-01	 1.280436177004447e+00	 6.966431174795122e+00
 7.109893914323003e-01	 1.287293223417336e+00	 6.821120882503173e+00
 6.986649965389274e-01	 1.294023562535369e+00	 6.677613306107403e+00
 6.862942105581163e-01	 1.300626777496096e+00	 6.534780987052276e+00
 6.738789510849146e-01	 1.307102489122473e+00	 6.391512072031009e+00
 6.614211370597189e-01	 1.313450355832338e+00	 6.246715132125920e+00
 6.489226878714482e-01	 1.319670073522607e+00	 6.099323624020751e+00
 6.363855224683481e-01	 1.325761375428533e+00	 5.948299979348546e+00
 6.109301015696141e-01	 1.272730920411391e+00	 5.534307438596730e+00
 5.988590961381273e-01	 1.278455070680120e+00	 5.380751751974852e+00
 5.867546028785261e-01	 1.284055536484286e+00	 5.236016554762587e+00
 5.746184576746636e-01	 1.289532168220195e+00	 5.096314576442151e+00
 5.624524926608362e-01	 1.294884851357332e+00	 4.959269113857658e+00
 5.502585354156487e-01	 1.300113506189868e+00	 4.824181235179462e+00
 5.380384081673887e-01	 1.305218087566897e+00	 4.690426489189051e+00
 5.257939270115405e-01	 1.310198584601918e+00	 4.557451144846732e+00
 5.135269011410251e-01	 1.315055020362107e+00	 4.424768441632940e+00
 5.012391320897414e-01	 1.319787451537940e+00	 4.291954865540462e+00
 4.889324129899513e-01	 1.324395968093723e+00	 4.158646464749154e+00
 6.134756436594876e-01	 1.278033965913106e+00	 5.580690325154345e+00
 6.013543423720361e-01	 1.283781966807954e+00	 5.427586220034570e+00
 5.891994137238532e-01	 1.289405767886305e+00	 5.282902025481103e+00
 5.770127012483082e-01	 1.294905218921113e+00	 5.143565626483896e+00
 5.647960447135898e-01	 1.300280204904654e+00	 5.006465066843070e+00
 5.525512793132139e-01	 1.305530645798993e+00	 4.870985799570194e+00
 5.402802348680862e-01	 1.310656496265093e+00	 4.736601490840084e+00
 5.279847350407553e-01	 1.315657745371093e+00	 4.602857514841915e+00
 5.156665965624460e-01	 1.320534416280283e+00	 4.469366979053989e+00
 5.033276284734487e-01	 1.325286565919348e+00	 4.335806779626875e+00
 4.909696313774096e-01	 1.329914284627447e+00	 4.201913701345153e+00
 6.160211857493609e-01	 1.283337011414819e+00	 5.625619558737068e+00
 6.038495886059450e-01	 1.289108862935788e+00	 5.472953976991821e+00
 5.916442245691805e-01	 1.294755999288322e+00	 5.328336956416544e+00
 5.794069448219525e-01	 1.300278269622030e+00	 5.189359185388033e+00
 5.671395967663433e-01	 1.305675558451976e+00	 5.052361540967844e+00
 5.548440232107791e-01	 1.310947785408117e+00	 4.916670153381870e+00
 5.425220615687837e-01	 1.316094904963288e+00	 4.781846280118897e+00
 5.301755430699699e-01	 1.321116906140268e+00	 4.647523814264238e+00
 5.178062919838669e-01	 1.326013812198458e+00	 4.513405098129343e+00
 5.054161248571558e-01	 1.330785680300756e+00	 4.379256771360706e+00
 4.930068497648675e-01	 1.335432601161171e+00	 4.244905668416767e+00
 6.185667278392343e-01	 1.288640056916533e+00	 5.669221936108621e+00
 6.063448348398537e-01	 1.294435759063622e+00	 5.516984699540150e+00
 5.940890354145077e-01	 1.300106230690340e+00	 5.372480818000945e+00
 5.818011883955968e-01	 1.305651320322948e+00	 5.233819729883728e+00
 5.694831488190969e-01	 1.311070911999298e+00	 5.097080997299255e+00
 5.571367671083444e-01	 1.316364925017242e+00	 4.961352948107631e+00
 5.447638882694811e-01	 1.321533313661484e+00	 4.826274054355128e+00
 5.323663510991847e-01	 1.326576066909443e+00	 4.691556291081309e+00
 5.199459874052880e-01	 1.331493208116634e+00	 4.556980751594542e+00
 5.075046212408632e-01	 1.336284794682164e+00	 4.422393301513638e+00
 4.950440681523258e-01	 1.340950917694895e+00	 4.287700286866813e+00
 6.211122699291077e-01	 1.293943102418248e+00	 5.711626011559590e+00
 6.088400810737628e-01	 1.299762655191456e+00	 5.559809689819613e+00
 5.965338462598349e-01	 1.305456462092358e+00	 5.415465420577503e+00
 5.841954319692412e-01	 1.311024371023865e+00	 5.277072872980222e+00
 5.718267008718503e-01	 1.316466265546621e+00	 5.140746938887278e+00
 5.594295110059093e-01	 1.321782064626366e+00	 5.005153812478358e+00
 5.470057149701784e-01	 1.326971722359679e+00	 4.869998950730348e+00
 5.345571591283993e-01	 1.332035227678617e+00	 4.735062120885626e+00
 5.220856828267088e-01	 1.336972604034809e+00	 4.600192830532251e+00
 5.095931176245705e-01	 1.341783909063572e+00	 4.465305800663843e+00
 4.970812865397839e-01	 1.346469234228619e+00	 4.330376497383263e+00
 6.236578120189811e-01	 1.299246147919962e+00	 5.752962070660354e+00
 6.113353273076715e-01	 1.305089551319289e+00	 5.601561853361892e+00
 5.989786571051621e-01	 1.310806693494376e+00	 5.457424082232858e+00
 5.865896755428855e-01	 1.316397421724782e+00	 5.319245376036594e+00
 5.741702529246037e-01	 1.321861619093943e+00	 5.183483923354824e+00
 5.617222549034745e-01	 1.327199204235490e+00	 5.048193364985728e+00
 5.492475416708759e-01	 1.332410131057874e+00	 4.913136058193999e+00
 5.367479671576142e-01	 1.337494388447792e+00	 4.778149417704551e+00
 5.242253782481298e-01	 1.342451999952985e+00	 4.643141173628324e+00
 5.116816140082776e-01	 1.347283023444980e+00	 4.508084676497031e+00
 4.991185049272419e-01	 1.351987550762342e+00	 4.373014265431664e+00
 6.262033541088545e-01	 1.304549193421676e+00	 5.793362103921893e+00
 6.138305735415804e-01	 1.310416447447123e+00	 5.642375676880185e+00
 6.014234679504894e-01	 1.316156924896394e+00	 5.498491609965918e+00
 5.889839191165301e-01	 1.321770472425700e+00	 5.360472623521273e+00
 5.765138049773572e-01	 1.327256972641265e+00	 5.225417575235241e+00
 5.640149988010399e-01	 1.332616343844615e+00	 5.090593226152375e+00
 5.514893683715733e-01	 1.337848539756070e+00	 4.955801429134038e+00
 5.389387751868289e-01	 1.342953549216966e+00	 4.820927244592071e+00
 5.263650736695505e-01	 1.347931395871160e+00	 4.685926576245969e+00
 5.137701103919851e-01	 1.352782137826388e+00	 4.550821320966786e+00
 5.011557233147002e-01	 1.357505867296066e+00	 4.415694586157075e+00
 6.287488961987279e-01	 1.309852238923390e+00	 5.832959780368835e+00
 6.163258197754893e-01	 1.315743343574957e+00	 5.682387205898294e+00
 6.038682787958163e-01	 1.321507156298412e+00	 5.538804280659074e+00
 5.913781626901744e-01	 1.327143523126617e+00	 5.400994441482298e+00
 5.788573570301108e-01	 1.332652326188587e+00	 5.266674598062050e+00
 5.663077426986050e-01	 1.338033483453739e+00	 5.132476030552674e+00
 5.537311950722709e-01	 1.343286948454266e+00	 4.998112090812816e+00
 5.411295832160437e-01	 1.348412709986141e+00	 4.863505624005921e+00
 5.285047690909715e-01	 1.353410791789336e+00	 4.728650799316529e+00
 5.158586067756922e-01	 1.358281252207796e+00	 4.593608117322134e+00
 5.031929417021583e-01	 1.363024183829790e+00	 4.458499489205970e+00
 6.312944382886012e-01	 1.315155284425104e+00	 5.871890421023476e+00
 6.188210660093982e-01	 1.321070239702791e+00	 5.721734022238614e+00
 6.063130896411437e-01	 1.326857387700430e+00	 5.578499821851302e+00
 5.937724062638189e-01	 1.332516573827535e+00	 5.440982352405385e+00
 5.812009090828641e-01	 1.338047679735909e+00	 5.307382786218687e+00
 5.686004865961701e-01	 1.343450623062863e+00	 5.173965438589821e+00
 5.559730217729681e-01	 1.348725357152461e+00	 5.040186056570214e+00
 5.433203912452583e-01	 1.353871870755315e+00	 4.905995547976335e+00
 5.306444645123926e-01	 1.358890187707511e+00	 4.771416578059458e+00
 5.179471031593995e-01	 1.363780366589204e+00	 4.636538447000169e+00
 5.052301600896163e-01	 1.368542500363514e+00	 4.501512043465129e+00
 6.338399803784747e-01	 1.320458329926818e+00	 5.910290972305329e+00
 6.213163122433069e-01	 1.326397135830625e+00	 5.760555221357864e+00
 6.087579004864709e-01	 1.332207619102447e+00	 5.617717392322909e+00
 5.961666498374635e-01	 1.337889624528452e+00	 5.480573620997735e+00
 5.835444611356178e-01	 1.343443033283231e+00	 5.347671036555087e+00
 5.708932304937353e-01	 1.348867762671988e+00	 5.215186148042393e+00
 5.582148484736655e-01	 1.354163765850656e+00	 5.082142336806640e+00
 5.455111992744731e-01	 1.359331031524490e+00	 4.948508988076552e+00
 5.327841599338135e-01	 1.364369583625686e+00	 4.814327630530554e+00
 5.200355995431067e-01	 1.369279480970612e+00	 4.679706696391564e+00
 5.072673784770746e-01	 1.374060816897238e+00	 4.544816361720988e+00
 6.363855224683481e-01	 1.325761375428533e+00	 5.948299979348546e+00
 6.238115584772160e-01	 1.331724031958459e+00	 5.798991389544076e+00
 6.112027113317982e-01	 1.337557850504466e+00	 5.656597562495651e+00
 5.985608934111077e-01	 1.343262675229370e+00	 5.519906871013140e+00
 5.858880131883712e-01	 1.348838386830554e+00	 5.387669359779208e+00
 5.731859743913007e-01	 1.354284902281113e+00	 5.256263905379373e+00
 5.604566751743632e-01	 1.359602174548852e+00	 5.124100949743041e+00
 5.477020073036879e-01	 1.364790192293665e+00	 4.991158905192670e+00
 5.349238553552343e-01	 1.369848979543862e+00	 4.857488666006493e+00
 5.221240959268140e-01	 1.374778595352021e+00	 4.723208263482295e+00
 5.093045968645327e-01	 1.379579133430962e+00	 4.588497605245198e+00
 4.889324129899513e-01	 1.324395968093723e+00	 4.158646464749154e+00
 4.766085278440287e-01	 1.328880692899643e+00	 4.025584759017711e+00
 4.642692508110627e-01	 1.333241781345912e+00	 3.893859548474161e+00
 4.519163455087860e-01	 1.337479420939653e+00	 3.763712752514436e+00
 4.395515643312622e-01	 1.341593830885125e+00	 3.635437588640932e+00
 4.271766477827501e-01	 1.345585261647949e+00	 3.509374507292459e+00
 4.147933238281245e-01	 1.349453994503964e+00	 3.385907237688211e+00
 4.024033072602159e-01	 1.353200341073386e+00	 3.265458953428002e+00
 3.900082990843977e-01	 1.356824642840917e+00	 3.148488565639462e+00
 3.776099859207238e-01	 1.360327270662482e+00	 3.035487150504304e+00
 3.652100394238936e-01	 1.363708624259261e+00	 2.926974517056043e+00
 4.909696313774096e-01	 1.329914284627447e+00	 4.201913701345153e+00
 4.785943967100455e-01	 1.334417695786725e+00	 4.068568764817621e+00
 4.662037060227756e-01	 1.338796955434854e+00	 3.936893510438192e+00
 4.537993302817392e-01	 1.343052251860235e+00	 3.807068730446598e+00
 4.413830291826425e-01	 1.347183805180480e+00	 3.679326080454008e+00
 4.289565504818448e-01	 1.351191866904816e+00	 3.553944041500862e+00
 4.165216293440750e-01	 1.355076719481064e+00	 3.431243996072844e+00
 4.040799877071335e-01	 1.358838675827858e+00	 3.311586426787514e+00
 3.916333336639160e-01	 1.362478078852754e+00	 3.195367245484698e+00
 3.791833608620602e-01	 1.365995300956909e+00	 3.083014259507050e+00
 3.667317479214930e-01	 1.369390743527007e+00	 2.974983780970699e+00
 4.930068497648675e-01	 1.335432601161171e+00	 4.244905668416767e+00
 4.805802655760623e-01	 1.339954698673806e+00	 4.111355367776934e+00
 4.681381612344884e-01	 1.344352129523795e+00	 3.979755147637229e+00
 4.556823150546926e-01	 1.348625082780817e+00	 3.850233443260318e+00
 4.432144940340227e-01	 1.352773779475835e+00	 3.722969179532905e+00
 4.307364531809397e-01	 1.356798472161681e+00	 3.598187747216626e+00
 4.182499348600254e-01	 1.360699444458163e+00	 3.476157096319214e+00
 4.057566681540510e-01	 1.364477010582331e+00	 3.357183955280153e+00
 3.932583682434342e-01	 1.368131514864591e+00	 3.241610183673477e+00
 3.807567358033966e-01	 1.371663331251336e+00	 3.129809265164111e+00
 3.682534564190927e-01	 1.375072862794755e+00	 3.022182946454784e+00
 4.950440681523258e-01	 1.340950917694895e+00	 4.287700286866820e+00
 4.825661344420791e-01	 1.345491701560888e+00	 4.154012456971089e+00
 4.700726164462011e-01	 1.349907303612736e+00	 4.022504217739726e+00
 4.575652998276459e-01	 1.354197913701400e+00	 3.893260320185630e+00
 4.450459588854030e-01	 1.358363753771190e+00	 3.766415691410371e+00
 4.325163558800345e-01	 1.362405077418548e+00	 3.642151412094317e+00
 4.199782403759759e-01	 1.366322169435263e+00	 3.520690814477031e+00
 4.074333486009686e-01	 1.370115345336803e+00	 3.402295709528746e+00
 3.948834028229526e-01	 1.373784950876428e+00	 3.287262751007315e+00
 3.823301107447330e-01	 1.377331361545763e+00	 3.175919943085835e+00
 3.697751649166922e-01	 1.380754982062501e+00	 3.068623297255780e+00
 4.970812865397839e-01	 1.346469234228619e+00	 4.330376497383263e+00
 4.845520033080959e-01	 1.351028704447970e+00	 4.196608984470247e+00
 4.720070716579138e-01	 1.355462477701678e+00	 4.065201555230778e+00
 4.594482846005989e-01	 1.359770744621981e+00	 3.936203853491669e+00
 4.468774237367832e-01	 1.363953728066544e+00	 3.809715445084798e+00
 4.342962585791293e-01	 1.368011682675415e+00	 3.685881783684484e+00
 4.217065458919265e-01	 1.371944894412363e+00	 3.564890300725138e+00
 4.091100290478861e-01	 1.375753680091275e+00	 3.446966628122541e+00
 3.965084374024709e-01	 1.379438386888266e+00	 3.332370961490565e+00
 3.839034856860692e-01	 1.382999391840190e+00	 3.221394570516271e+00
 3.712968734142917e-01	 1.386437101330248e+00	 3.114356462166390e+00
 4.991185049272419e-01	 1.351987550762342e+00	 4.373014265431664e+00
 4.865378721741128e-01	 1.356565707335052e+00	 4.239214968181528e+00
 4.739415268696267e-01	 1.361017651790619e+00	 4.107909072725836e+00
 4.613312693735522e-01	 1.365343575542563e+00	 3.979119598869305e+00
 4.487088885881634e-01	 1.369543702361899e+00	 3.852919293024561e+00
 4.360761612782241e-01	 1.373618287932281e+00	 3.729426569576868e+00
 4.234348514078770e-01	 1.377567619389463e+00	 3.608801580138345e+00
 4.107867094948037e-01	 1.381392014845748e+00	 3.491242419451756e+00
 3.981334719819894e-01	 1.385091822900103e+00	 3.376981475645523e+00
 3.854768606274056e-01	 1.388667422134617e+00	 3.266281931502822e+00
 3.728185819118914e-01	 1.392119220597995e+00	 3.159434422388881e+00
 5.011557233147002e-01	 1.357505867296066e+00	 4.415694586157082e+00
 4.885237410401294e-01	 1.362102710222133e+00	 4.281901494653606e+00
 4.758759820813392e-01	 1.366572825879560e+00	 4.150689762289214e+00
 4.632142541465056e-01	 1.370916406463145e+00	 4.022064175834829e+00
 4.505403534395439e-01	 1.375133676657254e+00	 3.896079111197642e+00
 4.378560639773190e-01	 1.379224893189147e+00	 3.772834437563441e+00
 4.251631569238273e-01	 1.383190344366562e+00	 3.652471553454235e+00
 4.124633899417213e-01	 1.387030349600221e+00	 3.535169563516129e+00
 3.997585065615076e-01	 1.390745258911940e+00	 3.421141603762687e+00
 3.870502355687419e-01	 1.394335452429044e+00	 3.310631321955301e+00
 3.743402904094909e-01	 1.397801339865742e+00	 3.203909518737987e+00
 5.031929417021583e-01	 1.363024183829790e+00	 4.458499489205970e+00
 4.905096099061462e-01	 1.367639713109216e+00	 4.324740721846736e+00
 4.778104372930521e-01	 1.372127999968501e+00	 4.193607696748284e+00
 4.650972389194586e-01	 1.376489237383726e+00	 4.065095268149795e+00
 4.523718182909240e-01	 1.380723650952608e+00	 3.939247799126454e+00
 4.396359666764137e-01	 1.384831498446015e+00	 3.816155015821603e+00
 4.268914624397780e-01	 1.388813069343662e+00	 3.695947997844114e+00
 4.141400703886388e-01	 1.392668684354693e+00	 3.578795313709360e+00
 4.013835411410259e-01	 1.396398694923777e+00	 3.464899309094157e+00
 3.886236105100783e-01	 1.400003482723471e+00	 3.354492554604094e+00
 3.758619989070904e-01	 1.403483459133489e+00	 3.247834458681456e+00
 5.052301600896163e-01	 1.368542500363514e+00	 4.501512043465128e+00
 4.924954787721630e-01	 1.373176715996297e+00	 4.367805881869572e+00
 4.797448925047648e-01	 1.377683174057442e+00	 4.236728031005646e+00
 4.669802236924121e-01	 1.382062068304309e+00	 4.108271624260346e+00
 4.542032831423043e-01	 1.386313625247963e+00	 3.982479279967878e+00
 4.414158693755084e-01	 1.390438103702881e+00	 3.859438893116645e+00
 4.286197679557284e-01	 1.394435794320762e+00	 3.739279567687789e+00
 4.158167508355562e-01	 1.398307019109165e+00	 3.622167698583798e+00
 4.030085757205443e-01	 1.402052130935614e+00	 3.508303210982586e+00
 3.901969854514146e-01	 1.405671513017898e+00	 3.397915963846328e+00
 3.773837074046899e-01	 1.409165578401235e+00	 3.291262323224930e+00
 5.072673784770746e-01	 1.374060816897238e+00	 4.544816361721004e+00
 4.944813476381798e-01	 1.378713718883379e+00	 4.411171283679013e+00
 4.816793477164776e-01	 1.383238348146384e+00	 4.280117003351573e+00
 4.688632084653653e-01	 1.387634899224890e+00	 4.151653057752965e+00
 4.560347479936844e-01	 1.391903599543317e+00	 4.025828500616944e+00
 4.431957720746031e-01	 1.396044708959747e+00	 3.902737619024703e+00
 4.303480734716790e-01	 1.400058519297862e+00	 3.782515795351370e+00
 4.174934312824738e-01	 1.403945353863637e+00	 3.665335523586183e+00
 4.046336103000626e-01	 1.407705566947451e+00	 3.551402587937853e+00
 3.917703603927509e-01	 1.411339543312325e+00	 3.440952410499958e+00
 3.789054159022894e-01	 1.414847697668982e+00	 3.334246573646535e+00
 5.093045968645327e-01	 1.379579133430962e+00	 4.588497605245198e+00
 4.964672165041967e-01	 1.384250721770461e+00	 4.454912315753427e+00
 4.836138029281903e-01	 1.388793522235325e+00	 4.323841936774848e+00
 4.707461932383187e-01	 1.393207730145472e+00	 4.195300447828103e+00
 4.578662128450647e-01	 1.397493573838672e+00	 4.069351431833200e+00
 4.449756747736980e-01	 1.401651314216614e+00	 3.946103704170715e+00
 4.320763789876296e-01	 1.405681244274962e+00	 3.825707091968250e+00
 4.191701117293915e-01	 1.409583688618110e+00	 3.708348372778766e+00
 4.062586448795809e-01	 1.413359002959288e+00	 3.594247380654880e+00
 3.933437353340873e-01	 1.417007573606752e+00	 3.483653286454511e+00
 3.804271243998890e-01	 1.420529816936729e+00	 3.376841058086223e+00
 3.652100394238936e-01	 1.363708624259261e+00	 2.926974517056043e+00
 3.528101157212933e-01	 1.366969131699694e+00	 2.822209348670793e+00
 3.404118548693333e-01	 1.370109248870143e+00	 2.720126646614922e+00
 3.280168803282790e-01	 1.373129458934878e+00	 2.620793664089133e+00
 3.156267984557444e-01	 1.376030271786077e+00	 2.524293933305946e+00
 3.032431980189871e-01	 1.378812223484512e+00	 2.430725390085677e+00
 2.908676497261261e-01	 1.381475875691605e+00	 2.340198638650100e+00
 2.785017057763694e-01	 1.384021815093512e+00	 2.252835355809617e+00
 2.661468994293211e-01	 1.386450652817923e+00	 2.168766833095785e+00
 2.538047445934072e-01	 1.388763023844227e+00	 2.088132654774074e+00
 2.414767354334392e-01	 1.390959586407706e+00	 2.011079509107389e+00
 3.667317479214930e-01	 1.369390743527007e+00	 2.974983780970699e+00
 3.542801578701321e-01	 1.372664836415109e+00	 2.870443157070060e+00
 3.418302375979554e-01	 1.375818037407101e+00	 2.768311845987668e+00
 3.293836173296469e-01	 1.378850831680440e+00	 2.668707052293493e+00
 3.169419101159765e-01	 1.381763731251852e+00	 2.571762056777908e+00
 3.045067113440662e-01	 1.384557274415698e+00	 2.477624252718446e+00
 2.920795982666516e-01	 1.387232025173653e+00	 2.386453327522223e+00
 2.796621295504376e-01	 1.389788572656402e+00	 2.298419588919282e+00
 2.672558448436099e-01	 1.392227530537998e+00	 2.213702434212157e+00
 2.548622643625464e-01	 1.394549536443578e+00	 2.132488960473276e+00
 2.424828884977451e-01	 1.396755251351071e+00	 2.054972712980836e+00
 3.682534564190927e-01	 1.375072862794755e+00	 3.022182946454784e+00
 3.557502000189709e-01	 1.378360541130525e+00	 2.917820819453536e+00
 3.432486203265776e-01	 1.381526825944060e+00	 2.815630798439468e+00
 3.307503543310147e-01	 1.384572204426002e+00	 2.715774516781130e+00
 3.182570217762088e-01	 1.387497190717627e+00	 2.618429402075871e+00
 3.057702246691453e-01	 1.390302325346883e+00	 2.523786632314493e+00
 2.932915468071770e-01	 1.392988174655701e+00	 2.432049242561002e+00
 2.808225533245057e-01	 1.395555330219291e+00	 2.343430381313726e+00
 2.683647902578987e-01	 1.398004408258072e+00	 2.258151714981748e+00
 2.559197841316855e-01	 1.400336049042929e+00	 2.176441978314655e+00
 2.434890415620511e-01	 1.402550916294436e+00	 2.098535667989005e+00
 3.697751649166922e-01	 1.380754982062501e+00	 3.068623297255780e+00
 3.572202421678096e-01	 1.384056245845940e+00	 2.964396910403337e+00
 3.446670030552000e-01	 1.387235614481020e+00	 2.862139952657359e+00
 3.321170913323825e-01	 1.390293577171564e+00	 2.762053043849106e+00
 3.195721334364411e-01	 1.393230650183402e+00	 2.664352236751676e+00
 3.070337379942243e-01	 1.396047376278069e+00	 2.569266901289215e+00
 2.945034953477025e-01	 1.398744324137750e+00	 2.477037764403381e+00
 2.819829770985739e-01	 1.401322087782181e+00	 2.387915104676757e+00
 2.694737356721876e-01	 1.403781285978147e+00	 2.302157100101263e+00
 2.569773039008247e-01	 1.406122561642280e+00	 2.220028326735507e+00
 2.444951946263571e-01	 1.408346581237802e+00	 2.141798405369505e+00
 3.712968734142917e-01	 1.386437101330248e+00	 3.114356462166390e+00
 3.586902843166483e-01	 1.389751950561355e+00	 3.010226199710265e+00
 3.460853857838221e-01	 1.392944403017978e+00	 2.907895829212946e+00
 3.334838283337503e-01	 1.396014949917125e+00	 2.807599593661491e+00
 3.208872450966734e-01	 1.398964109649178e+00	 2.709586728275903e+00
 3.082972513193034e-01	 1.401792427209255e+00	 2.614119280871702e+00
 2.957154438882281e-01	 1.404500473619798e+00	 2.521470092990424e+00
 2.831434008726422e-01	 1.407088845345071e+00	 2.431920940840348e+00
 2.705826810864764e-01	 1.409558163698222e+00	 2.345760834360542e+00
 2.580348236699640e-01	 1.411909074241631e+00	 2.263284472056604e+00
 2.455013476906632e-01	 1.414142246181167e+00	 2.184790848624013e+00
 3.728185819118914e-01	 1.392119220597995e+00	 3.159434422388881e+00
 3.601603264654869e-01	 1.395447655276770e+00	 3.055363661826140e+00
 3.475037685124444e-01	 1.398653191554937e+00	 2.952955031605672e+00
 3.348505653351181e-01	 1.401736322662688e+00	 2.852471112391925e+00
 3.222023567569056e-01	 1.404697569114953e+00	 2.754188956831320e+00
 3.095607646443826e-01	 1.407537478140440e+00	 2.658397854110643e+00
 2.969273924287536e-01	 1.410256623101847e+00	 2.565397260384770e+00
 2.843038246467104e-01	 1.412855602907960e+00	 2.475494894030424e+00
 2.716916265007652e-01	 1.415335041418297e+00	 2.389004993963106e+00
 2.590923434391031e-01	 1.417695586840982e+00	 2.306246738550487e+00
 2.465075007549691e-01	 1.419937911124532e+00	 2.227542822032293e+00
 3.743402904094909e-01	 1.397801339865742e+00	 3.203909518737987e+00
 3.616303686143257e-01	 1.401143359992185e+00	 3.099864485106683e+00
 3.489221512410666e-01	 1.404361980091895e+00	 2.997374257047347e+00
 3.362173023364859e-01	 1.407457695408250e+00	 2.896724544085567e+00
 3.235174684171379e-01	 1.410431028580728e+00	 2.798214927800815e+00
 3.108242779694616e-01	 1.413282529071625e+00	 2.702156578573362e+00
 2.981393409692792e-01	 1.416012772583895e+00	 2.608870143282320e+00
 2.854642484207787e-01	 1.418622360470850e+00	 2.518683802823092e+00
 2.728005719150540e-01	 1.421111919138371e+00	 2.431931497578959e+00
 2.601498632082423e-01	 1.423482099440333e+00	 2.348951318273157e+00
 2.475136538192751e-01	 1.425733576067898e+00	 2.270084058961748e+00
 3.758619989070904e-01	 1.403483459133489e+00	 3.247834458681456e+00
 3.631004107631646e-01	 1.406839064707601e+00	 3.143784080839711e+00
 3.503405339696888e-01	 1.410070768628855e+00	 3.041210306996180e+00
 3.375840393378537e-01	 1.413179068153812e+00	 2.940416842239114e+00
 3.248325800773701e-01	 1.416164488046504e+00	 2.841720583962837e+00
 3.120877912945408e-01	 1.419027580002810e+00	 2.745449298742931e+00
 2.993512895098047e-01	 1.421768922065943e+00	 2.651939475227407e+00
 2.866246721948467e-01	 1.424389118033739e+00	 2.561534351813965e+00
 2.739095173293429e-01	 1.426888796858446e+00	 2.474582117136358e+00
 2.612073829773815e-01	 1.429268612039684e+00	 2.391434280656360e+00
 2.485198068835811e-01	 1.431529241011264e+00	 2.312444209982466e+00
 3.773837074046899e-01	 1.409165578401235e+00	 3.291262323224930e+00
 3.645704529120031e-01	 1.412534769423016e+00	 3.187178092069415e+00
 3.517589166983109e-01	 1.415779557165814e+00	 3.084520097449726e+00
 3.389507763392215e-01	 1.418900440899374e+00	 2.983604981113797e+00
 3.261476917376023e-01	 1.421897947512279e+00	 2.884761817399194e+00
 3.133513046196200e-01	 1.424772630933996e+00	 2.788329758124920e+00
 3.005632380503302e-01	 1.427525071547991e+00	 2.694655858539878e+00
 2.877850959689150e-01	 1.430155875596628e+00	 2.604093083015528e+00
 2.750184627436318e-01	 1.432665674578520e+00	 2.516998488353467e+00
 2.622649027465208e-01	 1.435055124639035e+00	 2.433731581878566e+00
 2.495259599478870e-01	 1.437324905954629e+00	 2.354652850784685e+00
 3.789054159022894e-01	 1.414847697668982e+00	 3.334246573646535e+00
 3.660404950608419e-01	 1.418230474138432e+00	 3.230102402220437e+00
 3.531772994269332e-01	 1.421488345702773e+00	 3.127360669000274e+00
 3.403175133405895e-01	 1.424621813644936e+00	 3.026345966785774e+00
 3.274628033978347e-01	 1.427631406978054e+00	 2.927394481130394e+00
 3.146148179446990e-01	 1.430517681865181e+00	 2.830851611069779e+00
 3.017751865908557e-01	 1.433281221030040e+00	 2.737069775961591e+00
 2.889455197429832e-01	 1.435922633159518e+00	 2.646406406982110e+00
 2.761274081579206e-01	 1.438442552298595e+00	 2.559222121025002e+00
 2.633224225156599e-01	 1.440841637238386e+00	 2.475879074010779e+00
 2.505321130121930e-01	 1.443120570897994e+00	 2.396739489913074e+00
 3.804271243998890e-01	 1.420529816936729e+00	 3.376841058086223e+00
 3.675105372096805e-01	 1.423926178853847e+00	 3.272613143530803e+00
 3.545956821555555e-01	 1.427197134239732e+00	 3.169789196659555e+00
 3.416842503419573e-01	 1.430343186390498e+00	 3.068696847942692e+00
 3.287779150580670e-01	 1.433364866443829e+00	 2.969674400473513e+00
 3.158783312697781e-01	 1.436262732796367e+00	 2.873068434321364e+00
 3.029871351313813e-01	 1.439037370512088e+00	 2.779231602031190e+00
 2.901059435170514e-01	 1.441689390722408e+00	 2.688520613676295e+00
 2.772363535722094e-01	 1.444219430018670e+00	 2.601294409066659e+00
 2.643799422847991e-01	 1.446628149837737e+00	 2.517912513946484e+00
 2.515382660764992e-01	 1.448916235841360e+00	 2.438733576319127e+00
 2.414767354334392e-01	 1.390959586407706e+00	 2.011079509107389e+00
 2.291643459973114e-01	 1.393041021398405e+00	 1.937501857095367e+00
 2.168690298617978e-01	 1.395008031755334e+00	 1.867261510603999e+00
 2.045922197974047e-01	 1.396861341856613e+00	 1.800463623693408e+00
 1.923353274522031e-01	 1.398601696906214e+00	 1.737216597626577e+00
 1.800997430545459e-01	 1.400229862317889e+00	 1.677631632045478e+00
 1.678868351345607e-01	 1.401746623096909e+00	 1.621822381077860e+00
 1.556979502642804e-01	 1.403152783220198e+00	 1.569904708860052e+00
 1.435344128162617e-01	 1.404449165015444e+00	 1.521996538731500e+00
 1.313975247405211e-01	 1.405636608539757e+00	 1.478217790192042e+00
 1.192885653595991e-01	 1.406715970958436e+00	 1.438690397567454e+00
 2.424828884977451e-01	 1.396755251351071e+00	 2.054972712980836e+00
 2.301191974389670e-01	 1.398845358987566e+00	 1.981070190274842e+00
 2.177726508195553e-01	 1.400820565220981e+00	 1.910620880099420e+00
 2.054446873798939e-01	 1.402681597447682e+00	 1.843709164149413e+00
 1.931367246499205e-01	 1.404429203976656e+00	 1.780421956881966e+00
 1.808501586506064e-01	 1.406064153410880e+00	 1.720848298596884e+00
 1.685863636142881e-01	 1.407587234026480e+00	 1.665079055637128e+00
 1.563466917237150e-01	 1.408999253150283e+00	 1.613206721959711e+00
 1.441324728696628e-01	 1.410301036536342e+00	 1.565325316144000e+00
 1.319450144269399e-01	 1.411493427742006e+00	 1.521530367693400e+00
 1.197856010485974e-01	 1.412577287504096e+00	 1.481918986385490e+00
 2.434890415620511e-01	 1.402550916294436e+00	 2.098535667989005e+00
 2.310740488806224e-01	 1.404649696576725e+00	 2.024362431560702e+00
 2.186762717773128e-01	 1.406633098686628e+00	 1.953736962570266e+00
 2.062971549623832e-01	 1.408501853038751e+00	 1.886726585455254e+00
 1.939381218476381e-01	 1.410256711047099e+00	 1.823400454035145e+00
 1.816005742466671e-01	 1.411898444503871e+00	 1.763829181826549e+00
 1.692858920940154e-01	 1.413427844956050e+00	 1.708084581784423e+00
 1.569954331831494e-01	 1.414845723080366e+00	 1.656239509527021e+00
 1.447305329230639e-01	 1.416152908057239e+00	 1.608367803883853e+00
 1.324925041133588e-01	 1.417350246944256e+00	 1.564544318430057e+00
 1.202826367375957e-01	 1.418438604049756e+00	 1.524845037536663e+00
 2.444951946263571e-01	 1.408346581237802e+00	 2.141798405369505e+00
 2.320289003222777e-01	 1.410454034165884e+00	 2.067402251510621e+00
 2.195798927350703e-01	 1.412445632152275e+00	 1.996628218766878e+00
 2.071496225448723e-01	 1.414322108629821e+00	 1.929530242355863e+00
 1.947395190453556e-01	 1.416084218117541e+00	 1.866163394078575e+00
 1.823509898427277e-01	 1.417732735596862e+00	 1.806583545235427e+00
 1.699854205737427e-01	 1.419268455885621e+00	 1.750847141413244e+00
 1.576441746425839e-01	 1.420692193010450e+00	 1.699011083005598e+00
 1.453285929764650e-01	 1.422004779578137e+00	 1.651132705083231e+00
 1.330399937997776e-01	 1.423207066146504e+00	 1.607269850083926e+00
 1.207796724265941e-01	 1.424299920595417e+00	 1.567481026627810e+00
 2.455013476906632e-01	 1.414142246181167e+00	 2.184790848624013e+00
 2.329837517639333e-01	 1.416258371755045e+00	 2.110213257421035e+00
 2.204835136928277e-01	 1.418258165617922e+00	 2.039313075604217e+00
 2.080020901273615e-01	 1.420142364220890e+00	 1.972134470907077e+00
 1.955409162430731e-01	 1.421911725187984e+00	 1.908722064953468e+00
 1.831014054387883e-01	 1.423567026689853e+00	 1.849120624177220e+00
 1.706849490534701e-01	 1.425109066815191e+00	 1.793374865208704e+00
 1.582929161020184e-01	 1.426538662940535e+00	 1.741529368371997e+00
 1.459266530298661e-01	 1.427856651099035e+00	 1.693628592713496e+00
 1.335874834861965e-01	 1.429063885348753e+00	 1.649716985810811e+00
 1.212767081155924e-01	 1.430161237141077e+00	 1.609839181461872e+00
 2.465075007549691e-01	 1.419937911124532e+00	 2.227542822032293e+00
 2.339386032055887e-01	 1.422062709344205e+00	 2.152819000318496e+00
 2.213871346505853e-01	 1.424070699083569e+00	 2.081809931968320e+00
 2.088545577098507e-01	 1.425962619811959e+00	 2.014553593428846e+00
 1.963423134407906e-01	 1.427739232258426e+00	 1.951087741960791e+00
 1.838518210348489e-01	 1.429401317782845e+00	 1.891449630018805e+00
 1.713844775331974e-01	 1.430949677744761e+00	 1.835675836830083e+00
 1.589416575614529e-01	 1.432385132870619e+00	 1.783802210602634e+00
 1.465247130832672e-01	 1.433708522619932e+00	 1.735863914584319e+00
 1.341349731726153e-01	 1.434920704551002e+00	 1.691895570000175e+00
 1.217737438045907e-01	 1.436022553686737e+00	 1.651931488774085e+00
 2.475136538192751e-01	 1.425733576067898e+00	 2.270084058961748e+00
 2.348934546472443e-01	 1.427867046933365e+00	 2.195242981783328e+00
 2.222907556083427e-01	 1.429883232549217e+00	 2.124137164389531e+00
 2.097070252923399e-01	 1.431782875403028e+00	 2.056801923340414e+00
 1.971437106385081e-01	 1.433566739328869e+00	 1.993271692061557e+00
 1.846022366309095e-01	 1.435235608875836e+00	 1.933579754192667e+00
 1.720840060129247e-01	 1.436790288674331e+00	 1.877758096992195e+00
 1.595903990208874e-01	 1.438231602800703e+00	 1.825837378037021e+00
 1.471227731366682e-01	 1.439560394140830e+00	 1.777846998222934e+00
 1.346824628590341e-01	 1.440777523753251e+00	 1.733815273895988e+00
 1.222707794935890e-01	 1.441883870232397e+00	 1.693769700796263e+00
 2.485198068835811e-01	 1.431529241011264e+00	 2.312444209982466e+00
 2.358483060888996e-01	 1.433671384522525e+00	 2.237508660610755e+00
 2.231943765661002e-01	 1.435695766014863e+00	 2.166313132579475e+00
 2.105594928748291e-01	 1.437603130994097e+00	 2.098893769881326e+00
 1.979451078362256e-01	 1.439394246399311e+00	 2.035285178079334e+00
 1.853526522269701e-01	 1.441069899968827e+00	 1.975520172159823e+00
 1.727835344926520e-01	 1.442630899603902e+00	 1.919629647450311e+00
 1.602391404803219e-01	 1.444078072730787e+00	 1.867642566630302e+00
 1.477208331900693e-01	 1.445412265661727e+00	 1.819586055635904e+00
 1.352299525454530e-01	 1.446634342955500e+00	 1.775485601081382e+00
 1.227678151825874e-01	 1.447745186778057e+00	 1.735365341671568e+00
 2.495259599478870e-01	 1.437324905954629e+00	 2.354652850784685e+00
 2.368031575305551e-01	 1.439475722111684e+00	 2.279639459315185e+00
 2.240979975238577e-01	 1.441508299480511e+00	 2.208356184832752e+00
 2.114119604573182e-01	 1.443423386585166e+00	 2.140843442721542e+00
 1.987465050339431e-01	 1.445221753469754e+00	 2.077139462800749e+00
 1.861030678230307e-01	 1.446904191061818e+00	 2.017280047274180e+00
 1.734830629723793e-01	 1.448471510533472e+00	 1.961298454886456e+00
 1.608878819397563e-01	 1.449924542660871e+00	 1.909225404108678e+00
 1.483188932434704e-01	 1.451264137182625e+00	 1.861089187953068e+00
 1.357774422318718e-01	 1.452491162157749e+00	 1.816915892829130e+00
 1.232648508715857e-01	 1.453606503323717e+00	 1.776729713704903e+00
 2.505321130121930e-01	 1.443120570897994e+00	 2.396739489913074e+00
 2.377580089722106e-01	 1.445280059700845e+00	 2.321658770478590e+00
 2.250016184816152e-01	 1.447320832946158e+00	 2.250284663306115e+00
 2.122644280398074e-01	 1.449243642176236e+00	 2.182665256459696e+00
 1.995479022316606e-01	 1.451049260540197e+00	 2.118845812978236e+00
 1.868534834190913e-01	 1.452738482154809e+00	 2.058868534556184e+00
 1.741825914521067e-01	 1.454312121463042e+00	 2.002772454705006e+00
 1.615366233991909e-01	 1.455771012590955e+00	 1.950593454022656e+00
 1.489169532968715e-01	 1.457116008703523e+00	 1.902364389965129e+00
 1.363249319182906e-01	 1.458347981359998e+00	 1.858115333325595e+00
 1.237618865605840e-01	 1.459467819869377e+00	 1.817873903470301e+00
 2.515382660764992e-01	 1.448916235841360e+00	 2.438733576319127e+00
 2.387128604138661e-01	 1.451084397290005e+00	 2.363589962954313e+00
 2.259052394393727e-01	 1.453133366411806e+00	 2.292116909172939e+00
 2.131168956222966e-01	 1.455063897767305e+00	 2.224373535018669e+00
 2.003492994293782e-01	 1.456876767610640e+00	 2.160415503241216e+00
 1.876038990151519e-01	 1.458572773247801e+00	 2.100294784379768e+00
 1.748821199318341e-01	 1.460152732392613e+00	 2.044059554739890e+00
 1.621853648586254e-01	 1.461617482521040e+00	 1.991754219704580e+00
 1.495150133502726e-01	 1.462967880224421e+00	 1.943419554549206e+00
 1.368724216047095e-01	 1.464204800562247e+00	 1.899092954769529e+00
 1.242589222495824e-01	 1.465329136415037e+00	 1.858808787767841e+00
 1.192885653595991e-01	 1.406715970958436e+00	 1.438690397567454e+00
 1.072087911815515e-01	 1.407688125924374e+00	 1.403314883519050e+00
 9.515943573064049e-02	 1.408553962958648e+00	 1.371847056552062e+00
 8.314170939549895e-02	 1.409314386832790e+00	 1.344197774024025e+00
 7.115679929451071e-02	 1.409970316953250e+00	 1.320284238324381e+00
 5.920586915814673e-02	 1.410522686748539e+00	 1.300030570733059e+00
 4.729005922797978e-02	 1.410972443059503e+00	 1.283368418522402e+00
 3.541048617208907e-02	 1.411320545533205e+00	 1.270237589237875e+00
 2.356824301655536e-02	 1.411567966020836e+00	 1.260586706226555e+00
 1.176439909273610e-02	 1.411715687980081e+00	 1.254373879659086e+00
 0.000000000000000e+00	 1.411764705882353e+00	 1.251567387444388e+00
 1.197856010485974e-01	 1.412577287504096e+00	 1.481918986385490e+00
 1.076554944781413e-01	 1.413553493115726e+00	 1.446376931123327e+00
 9.555593337951816e-02	 1.414422937804309e+00	 1.414682454874351e+00
 8.348813318464686e-02	 1.415186530111259e+00	 1.386776689992149e+00
 7.145328595823783e-02	 1.415845193273889e+00	 1.362606551117713e+00
 5.945256027963901e-02	 1.416399864609991e+00	 1.342125303898774e+00
 4.748710114142971e-02	 1.416851494905583e+00	 1.325293169056131e+00
 3.555802986447277e-02	 1.417201047806260e+00	 1.312077955575757e+00
 2.366644402912434e-02	 1.417449499212589e+00	 1.302455716945732e+00
 1.181341742228917e-02	 1.417597836679998e+00	 1.296411424516545e+00
 0.000000000000000e+00	 1.417647058823529e+00	 1.293939652260884e+00
 1.202826367375957e-01	 1.418438604049756e+00	 1.524845037536663e+00
 1.081021977747311e-01	 1.419418860307077e+00	 1.489146260590404e+00
 9.595243102839580e-02	 1.420291912649970e+00	 1.457248292872140e+00
 8.383455697379476e-02	 1.421058673389729e+00	 1.429117670775337e+00
 7.174977262196494e-02	 1.421720069594526e+00	 1.404726139476747e+00
 5.969925140113128e-02	 1.422277042471443e+00	 1.384051222955846e+00
 4.768414305487963e-02	 1.422730546751665e+00	 1.367076831331567e+00
 3.570557355685648e-02	 1.423081550079315e+00	 1.353793899120344e+00
 2.376464504169332e-02	 1.423331032404343e+00	 1.344201048186195e+00
 1.186243575184223e-02	 1.423479985379915e+00	 1.338305269293351e+00
 0.000000000000000e+00	 1.423529411764706e+00	 1.336122616386008e+00
 1.207796724265941e-01	 1.424299920595417e+00	 1.567481026627810e+00
 1.085489010713209e-01	 1.425284227498429e+00	 1.531637589800206e+00
 9.634892867727349e-02	 1.426160887495632e+00	 1.499560788854974e+00
 8.418098076294270e-02	 1.426930816668199e+00	 1.471237752615341e+00
 7.204625928569208e-02	 1.427594945915165e+00	 1.446660234017424e+00
 5.994594252262358e-02	 1.428154220332895e+00	 1.425825187847465e+00
 4.788118496832955e-02	 1.428609598597746e+00	 1.408735387625241e+00
 3.585311724924018e-02	 1.428962052352370e+00	 1.395400075069829e+00
 2.386284605426231e-02	 1.429212565596096e+00	 1.385835635737684e+00
 1.191145408139530e-02	 1.429362134079832e+00	 1.380066294599487e+00
 0.000000000000000e+00	 1.429411764705882e+00	 1.378124825503663e+00
 1.212767081155924e-01	 1.430161237141077e+00	 1.609839181461872e+00
 1.089956043679106e-01	 1.431149594689780e+00	 1.573865329518488e+00
 9.674542632615114e-02	 1.432029862341292e+00	 1.541635810348297e+00
 8.452740455209058e-02	 1.432802959946669e+00	 1.513153591896448e+00
 7.234274594941921e-02	 1.433469822235804e+00	 1.488425669980972e+00
 6.019263364411583e-02	 1.434031398194347e+00	 1.467463660141509e+00
 4.807822688177945e-02	 1.434488650443828e+00	 1.450284430324446e+00
 3.600066094162389e-02	 1.434842554625425e+00	 1.436910767665624e+00
 2.396104706683129e-02	 1.435094098787849e+00	 1.427372072784334e+00
 1.196047241094837e-02	 1.435244282779749e+00	 1.421705075187242e+00
 0.000000000000000e+00	 1.435294117647059e+00	 1.419954563565480e+00
 1.217737438045907e-01	 1.436022553686737e+00	 1.651931488774085e+00
 1.094423076645004e-01	 1.437014961881132e+00	 1.615843591050861e+00
 9.714192397502881e-02	 1.437898837186953e+00	 1.583488882376409e+00
 8.487382834123845e-02	 1.438675103225139e+00	 1.554881473791138e+00
 7.263923261314634e-02	 1.439344698556443e+00	 1.530038895996184e+00
 6.043932476560810e-02	 1.439908576055799e+00	 1.508982711681476e+00
 4.827526879522936e-02	 1.440367702289909e+00	 1.491739170248662e+00
 3.614820463400759e-02	 1.440723056898480e+00	 1.478339897999620e+00
 2.405924807940026e-02	 1.440975631979603e+00	 1.468822617030127e+00
 1.200949074050144e-02	 1.441126431479666e+00	 1.463231886249007e+00
 0.000000000000000e+00	 1.441176470588235e+00	 1.461619858134009e+00
 1.222707794935890e-01	 1.441883870232397e+00	 1.693769700796263e+00
 1.098890109610902e-01	 1.442880329072483e+00	 1.657586193710273e+00
 9.753842162390650e-02	 1.443767812032614e+00	 1.625135195548279e+00
 8.522025213038641e-02	 1.444547246503609e+00	 1.596437320699287e+00
 7.293571927687346e-02	 1.445219574877081e+00	 1.571515982624606e+00
 6.068601588710040e-02	 1.445785753917252e+00	 1.550398033016171e+00
 4.847231070867927e-02	 1.446246754135990e+00	 1.533114444765643e+00
 3.629574832639129e-02	 1.446603559171535e+00	 1.519701031631082e+00
 2.415744909196924e-02	 1.446857165171356e+00	 1.510199197653941e+00
 1.205850907005450e-02	 1.447008580179583e+00	 1.504656709561451e+00
 0.000000000000000e+00	 1.447058823529412e+00	 1.503128485590309e+00
 1.227678151825874e-01	 1.447745186778057e+00	 1.735365341671568e+00
 1.103357142576801e-01	 1.448745696263835e+00	 1.699106672105462e+00
 9.793491927278415e-02	 1.449636786878275e+00	 1.666589613947013e+00
 8.556667591953432e-02	 1.450419389782079e+00	 1.637836700481050e+00
 7.323220594060058e-02	 1.451094451197719e+00	 1.612872630703600e+00
 6.093270700859268e-02	 1.451662931778704e+00	 1.591724941632374e+00
 4.866935262212919e-02	 1.452125805982071e+00	 1.574424725713572e+00
 3.644329201877500e-02	 1.452484061444590e+00	 1.561007386021089e+00
 2.425565010453823e-02	 1.452738698363110e+00	 1.551513422095416e+00
 1.210752739960757e-02	 1.452890728879500e+00	 1.545989239483455e+00
 0.000000000000000e+00	 1.452941176470588e+00	 1.544487976222854e+00
 1.232648508715857e-01	 1.453606503323717e+00	 1.776729713704903e+00
 1.107824175542698e-01	 1.454611063455186e+00	 1.740418283248931e+00
 9.833141692166182e-02	 1.455505761723936e+00	 1.707866682823919e+00
 8.591309970868222e-02	 1.456291533060549e+00	 1.679094834489139e+00
 7.352869260432772e-02	 1.456969327518358e+00	 1.654124179482290e+00
 6.117939813008495e-02	 1.457540109640156e+00	 1.632978389983522e+00
 4.886639453557910e-02	 1.458004857828152e+00	 1.615684127132551e+00
 3.659083571115869e-02	 1.458364563717645e+00	 1.602271837787045e+00
 2.435385111710720e-02	 1.458620231554863e+00	 1.592776582676281e+00
 1.215654572916063e-02	 1.458772877579417e+00	 1.587238888806687e+00
 0.000000000000000e+00	 1.458823529411764e+00	 1.585705619186022e+00
 1.237618865605840e-01	 1.459467819869377e+00	 1.817873903470301e+00
 1.112291208508596e-01	 1.460476430646538e+00	 1.781534013498489e+00
 9.872791457053949e-02	 1.461374736569597e+00	 1.748980636110853e+00
 8.625952349783014e-02	 1.462163676339019e+00	 1.720226605407974e+00
 7.382517926805482e-02	 1.462844203838996e+00	 1.695285614563843e+00
 6.142608925157723e-02	 1.463417287501608e+00	 1.674172973328256e+00
 4.906343644902902e-02	 1.463883909674233e+00	 1.656906412804264e+00
 3.673837940354240e-02	 1.464245065990699e+00	 1.643506929778589e+00
 2.445205212967618e-02	 1.464501764746617e+00	 1.633999663059172e+00
 1.220556405871370e-02	 1.464655026279333e+00	 1.628414794463561e+00
 0.000000000000000e+00	 1.464705882352941e+00	 1.626788467343325e+00
 1.242589222495824e-01	 1.465329136415037e+00	 1.858808787767841e+00
 1.116758241474494e-01	 1.466341797837890e+00	 1.822466585329713e+00
 9.912441221941717e-02	 1.467243711415259e+00	 1.789945403754330e+00
 8.660594728697807e-02	 1.468035819617489e+00	 1.761246564907350e+00
 7.412166593178197e-02	 1.468719080159635e+00	 1.736371575658244e+00
 6.167278037306952e-02	 1.469294465363060e+00	 1.715322937379011e+00
 4.926047836247894e-02	 1.469762961520314e+00	 1.698105003615107e+00
 3.688592309592611e-02	 1.470125568263755e+00	 1.684724877987361e+00
 2.455025314224516e-02	 1.470383297938370e+00	 1.675193344556922e+00
 1.225458238826677e-02	 1.470537174979251e+00	 1.669525823103273e+00
 0.000000000000000e+00	 1.470588235294118e+00	 1.667743341993140e+00
 1.470588235294118e+00	 0.000000000000000e+00	 1.563759101333563e+01
 1.470537174979251e+00	 1.225458238826635e-02	 1.563293994736558e+01
 1.470383297938371e+00	 2.455025314224480e-02	 1.562970353657904e+01
 1.470125568263755e+00	 3.688592309592580e-02	 1.562747559095775e+01
 1.469762961520315e+00	 4.926047836247867e-02	 1.562588818097079e+01
 1.469294465363060e+00	 6.167278037306929e-02	 1.562461365520971e+01
 1.468719080159635e+00	 7.412166593178179e-02	 1.562336660619916e+01
 1.468035819617489e+00	 8.660594728697793e-02	 1.562190578037659e+01
 1.467243711415258e+00	 9.912441221941709e-02	 1.562003592807387e+01
 1.466341797837890e+00	 1.116758241474494e-01	 1.561760958915054e+01
 1.465329136415037e+00	 1.242589222495824e-01	 1.561452880972351e+01
 1.476470588235294e+00	 0.000000000000000e+00	 1.556904384961052e+01
 1.476419323679168e+00	 1.230360071781942e-02	 1.556418778720391e+01
 1.476264831130124e+00	 2.464845415481378e-02	 1.556083421502190e+01
 1.476006070536810e+00	 3.703346678830950e-02	 1.555856980203913e+01
 1.475642013366396e+00	 4.945752027592858e-02	 1.555702060406025e+01
 1.475171643224513e+00	 6.191947149456156e-02	 1.555585410367378e+01
 1.474593956480273e+00	 7.441815259550889e-02	 1.555478119814199e+01
 1.473907962895959e+00	 8.695237107612586e-02	 1.555355813129519e+01
 1.473112686260920e+00	 9.952090986829476e-02	 1.555198836534118e+01
 1.472207165029241e+00	 1.121225274440392e-01	 1.554992438831294e+01
 1.471190452960697e+00	 1.247559579385807e-01	 1.554726945266803e+01
 1.482352941176470e+00	 0.000000000000000e+00	 1.550180154174477e+01
 1.482301472379085e+00	 1.235261904737248e-02	 1.549672655452650e+01
 1.482146364321878e+00	 2.474665516738276e-02	 1.549324178760751e+01
 1.481886572809865e+00	 3.718101048069319e-02	 1.549092734722128e+01
 1.481521065212478e+00	 4.965456218937850e-02	 1.548940379674573e+01
 1.481048821085965e+00	 6.216616261605384e-02	 1.548833421635552e+01
 1.480468832800912e+00	 7.471463925923603e-02	 1.548742621041947e+01
 1.479780106174429e+00	 8.729879486527374e-02	 1.548643385880046e+01
 1.478981661106580e+00	 9.991740751717240e-02	 1.548515960805288e+01
 1.478072532220593e+00	 1.125692307406290e-01	 1.548345609832382e+01
 1.477051769506358e+00	 1.252529936275791e-01	 1.548122792155092e+01
 1.488235294117647e+00	 0.000000000000000e+00	 1.543582100020645e+01
 1.488183621079002e+00	 1.240163737692555e-02	 1.543051798584421e+01
 1.488027897513631e+00	 2.484485617995173e-02	 1.542689191183117e+01
 1.487767075082920e+00	 3.732855417307690e-02	 1.542451689812602e+01
 1.487400117058558e+00	 4.985160410282841e-02	 1.542300853621281e+01
 1.486925998947417e+00	 6.241285373754610e-02	 1.542202596581499e+01
 1.486343709121551e+00	 7.501112592296315e-02	 1.542127389921772e+01
 1.485652249452899e+00	 8.764521865442165e-02	 1.542050458945025e+01
 1.484850635952241e+00	 1.003139051660501e-01	 1.541951973842054e+01
 1.483937899411945e+00	 1.130159340372188e-01	 1.541817234089898e+01
 1.482913086052017e+00	 1.257500293165773e-01	 1.541636846003403e+01
 1.494117647058824e+00	 0.000000000000000e+00	 1.537105945162169e+01
 1.494065769778919e+00	 1.245065570647861e-02	 1.536552398905568e+01
 1.493909430705385e+00	 2.494305719252072e-02	 1.536175029027043e+01
 1.493647577355975e+00	 3.747609786546060e-02	 1.535930706383983e+01
 1.493279168904640e+00	 5.004864601627833e-02	 1.535780544838824e+01
 1.492803176808869e+00	 6.265954485903838e-02	 1.535690110371642e+01
 1.492218585442190e+00	 7.530761258669032e-02	 1.535629624944942e+01
 1.491524392731369e+00	 8.799164244356955e-02	 1.535574164756717e+01
 1.490719610797902e+00	 1.007104028149278e-01	 1.535503852501220e+01
 1.489803266603296e+00	 1.134626373338086e-01	 1.535404043237496e+01
 1.488774402597678e+00	 1.262470650055757e-01	 1.535265503443641e+01
 1.500000000000000e+00	 0.000000000000000e+00	 1.530747443257528e+01
 1.499947918478836e+00	 1.249967403603168e-02	 1.530170663941357e+01
 1.499790963897138e+00	 2.504125820508969e-02	 1.529778266847777e+01
 1.499528079629029e+00	 3.762364155784429e-02	 1.529526639049232e+01
 1.499158220750721e+00	 5.024568792972824e-02	 1.529376500896419e+01
 1.498680354670322e+00	 6.290623598053066e-02	 1.529293116305375e+01
 1.498093461762828e+00	 7.560409925041742e-02	 1.529246497793699e+01
 1.497396536009839e+00	 8.833806623271746e-02	 1.529211605913380e+01
 1.496588585643563e+00	 1.011069004638054e-01	 1.529168542711333e+01
 1.495668633794648e+00	 1.139093406303984e-01	 1.529102738828766e+01
 1.494635719143338e+00	 1.267441006945740e-01	 1.529005133828131e+01
 1.505882352941176e+00	 0.000000000000000e+00	 1.524502378355686e+01
 1.505830067178753e+00	 1.254869236558474e-02	 1.523902817558548e+01
 1.505672497088891e+00	 2.513945921765868e-02	 1.523495483292500e+01
 1.505408581902085e+00	 3.777118525022800e-02	 1.523236336085064e+01
 1.505037272596802e+00	 5.044272984317814e-02	 1.523085754440654e+01
 1.504557532531774e+00	 6.315292710202294e-02	 1.523008746033853e+01
 1.503968338083465e+00	 7.590058591414453e-02	 1.522975153654177e+01
 1.503268679288309e+00	 8.868449002186539e-02	 1.522959855562473e+01
 1.502457560489225e+00	 1.015033981126831e-01	 1.522942959902167e+01
 1.501534000985999e+00	 1.143560439269882e-01	 1.522909992788979e+01
 1.500497035688998e+00	 1.272411363835723e-01	 1.522852079679419e+01
 1.511764705882353e+00	 0.000000000000000e+00	 1.518366564304843e+01
 1.511712215878670e+00	 1.259771069513781e-02	 1.517745099580767e+01
 1.511554030280645e+00	 2.523766023022765e-02	 1.517323260899697e+01
 1.511289084175140e+00	 3.791872894261171e-02	 1.517056639392728e+01
 1.510916324442883e+00	 5.063977175662805e-02	 1.516905323294941e+01
 1.510434710393226e+00	 6.339961822351520e-02	 1.516834109774985e+01
 1.509843214404105e+00	 7.619707257787169e-02	 1.516812711524018e+01
 1.509140822566778e+00	 8.903091381101327e-02	 1.516815957777683e+01
 1.508326535334886e+00	 1.018998957615607e-01	 1.516823989427867e+01
 1.507399368177351e+00	 1.148027472235780e-01	 1.516822447860879e+01
 1.506358352234658e+00	 1.277381720725707e-01	 1.516802657135346e+01
 1.517647058823529e+00	 0.000000000000000e+00	 1.512335844174915e+01
 1.517594364578586e+00	 1.264672902469087e-02	 1.511693765412831e+01
 1.517435563472398e+00	 2.533586124279663e-02	 1.511258185903557e+01
 1.517169586448195e+00	 3.806627263499541e-02	 1.510984384460303e+01
 1.516795376288965e+00	 5.083681367007796e-02	 1.510832210557510e+01
 1.516311888254678e+00	 6.364630934500749e-02	 1.510766296524970e+01
 1.515718090724743e+00	 7.649355924159879e-02	 1.510756264514871e+01
 1.515012965845248e+00	 8.937733760016117e-02	 1.510776927929927e+01
 1.514195510180546e+00	 1.022963934104384e-01	 1.510808486983826e+01
 1.513264735368702e+00	 1.152494505201677e-01	 1.510836718044790e+01
 1.512219668780318e+00	 1.282352077615690e-01	 1.510853156389362e+01
 1.523529411764706e+00	 0.000000000000000e+00	 1.506406089693430e+01
 1.523476513278504e+00	 1.269574735424394e-02	 1.505745085673932e+01
 1.523317096664152e+00	 2.543406225536561e-02	 1.505296848043001e+01
 1.523050088721250e+00	 3.821381632737911e-02	 1.505016400326278e+01
 1.522674428135046e+00	 5.103385558352790e-02	 1.504863404698000e+01
 1.522189066116131e+00	 6.389300046649975e-02	 1.504802374266175e+01
 1.521592967045382e+00	 7.679004590532591e-02	 1.504802880149887e+01
 1.520885109123718e+00	 8.972376138930910e-02	 1.504839753052528e+01
 1.520064485026207e+00	 1.026928910593161e-01	 1.504893279017567e+01
 1.519130102560053e+00	 1.156961538167576e-01	 1.504949389033000e+01
 1.518080985325978e+00	 1.287322434505673e-01	 1.504999842126458e+01
 1.529411764705882e+00	 0.000000000000000e+00	 1.500573200694398e+01
 1.529358661978421e+00	 1.274476568379701e-02	 1.499895345839215e+01
 1.529198629855905e+00	 2.553226326793459e-02	 1.499435840375385e+01
 1.528930590994305e+00	 3.836136001976282e-02	 1.499149509544495e+01
 1.528553479981128e+00	 5.123089749697781e-02	 1.498995879652731e+01
 1.528066243977583e+00	 6.413969158799206e-02	 1.498939390171700e+01
 1.527467843366020e+00	 7.708653256905305e-02	 1.498949600656398e+01
 1.526757252402188e+00	 9.007018517845705e-02	 1.499001392200714e+01
 1.525933459871869e+00	 1.030893887081938e-01	 1.499075163133664e+01
 1.524995469751405e+00	 1.161428571133473e-01	 1.499157018638813e+01
 1.523942301871639e+00	 1.292292791395656e-01	 1.499238953954585e+01
 1.465329136415037e+00	 1.242589222495824e-01	 1.561452880972351e+01
 1.464204800562247e+00	 1.368724216047091e-01	 1.561068787513627e+01
 1.462967880224420e+00	 1.495150133502723e-01	 1.560598641024021e+01
 1.461617482521040e+00	 1.621853648586251e-01	 1.560040787367464e+01
 1.460152732392613e+00	 1.748821199318338e-01	 1.559398378170233e+01
 1.458572773247800e+00	 1.876038990151518e-01	 1.558679490549764e+01
 1.456876767610639e+00	 2.003492994293780e-01	 1.557897237363379e+01
 1.455063897767305e+00	 2.131168956222966e-01	 1.557069867343941e+01
 1.453133366411806e+00	 2.259052394393728e-01	 1.556220854450407e+01
 1.451084397290005e+00	 2.387128604138661e-01	 1.555378975720083e+01
 1.448916235841360e+00	 2.515382660764992e-01	 1.554578376867334e+01
 1.471190452960697e+00	 1.247559579385807e-01	 1.554726945266803e+01
 1.470061619764496e+00	 1.374199112911279e-01	 1.554387364677362e+01
 1.468819751745319e+00	 1.501130734036734e-01	 1.553959227243361e+01
 1.467463952451124e+00	 1.628341063180596e-01	 1.553441139069952e+01
 1.465993343322184e+00	 1.755816484115612e-01	 1.552836596933548e+01
 1.464407064340792e+00	 1.883543146112124e-01	 1.552154109478817e+01
 1.462704274681082e+00	 2.011506966270956e-01	 1.551407309013060e+01
 1.460884153358374e+00	 2.139693632047858e-01	 1.550615053267748e+01
 1.458945899877453e+00	 2.268088603971302e-01	 1.549801516456492e+01
 1.456888734879165e+00	 2.396677118555216e-01	 1.548996268916202e+01
 1.454711900784725e+00	 2.525444191408051e-01	 1.548234344574179e+01
 1.477051769506358e+00	 1.252529936275791e-01	 1.548122792155092e+01
 1.475918438966745e+00	 1.379674009775468e-01	 1.547827830994320e+01
 1.474671623266216e+00	 1.507111334570744e-01	 1.547441548857916e+01
 1.473310422381209e+00	 1.634828477774941e-01	 1.546962808775326e+01
 1.471833954251755e+00	 1.762811768912886e-01	 1.546395453406635e+01
 1.470241355433783e+00	 1.891047302072729e-01	 1.545748427800386e+01
 1.468531781751524e+00	 2.019520938248130e-01	 1.545035892831188e+01
 1.466704408949443e+00	 2.148218307872750e-01	 1.544277328690311e+01
 1.464758433343100e+00	 2.277124813548877e-01	 1.543497627759991e+01
 1.462693072468325e+00	 2.406225632971771e-01	 1.542727176158068e+01
 1.460507565728091e+00	 2.535505722051111e-01	 1.542001923193786e+01
 1.482913086052017e+00	 1.257500293165773e-01	 1.541636846003403e+01
 1.481775258168994e+00	 1.385148906639656e-01	 1.541386259325181e+01
 1.480523494787114e+00	 1.513091935104755e-01	 1.541041391940038e+01
 1.479156892311292e+00	 1.641315892369286e-01	 1.540601360819915e+01
 1.477674565181324e+00	 1.769807053710158e-01	 1.540070355485680e+01
 1.476075646526774e+00	 1.898551458033335e-01	 1.539457762415971e+01
 1.474359288821967e+00	 2.027534910225306e-01	 1.538778280224179e+01
 1.472524664540512e+00	 2.156742983697641e-01	 1.538052024979783e+01
 1.470570966808747e+00	 2.286161023126452e-01	 1.537304625006534e+01
 1.468497410057485e+00	 2.415774147388325e-01	 1.536567304444325e+01
 1.466303230671457e+00	 2.545567252694171e-01	 1.535876954813436e+01
 1.488774402597678e+00	 1.262470650055757e-01	 1.535265503443641e+01
 1.487632077371243e+00	 1.390623803503844e-01	 1.535058698353678e+01
 1.486375366308011e+00	 1.519072535638766e-01	 1.534754521464860e+01
 1.485003362241377e+00	 1.647803306963631e-01	 1.534352341041425e+01
 1.483515176110895e+00	 1.776802338507432e-01	 1.533856694681088e+01
 1.481909937619765e+00	 1.906055613993941e-01	 1.533277415463428e+01
 1.480186795892409e+00	 2.035548882202481e-01	 1.532629748960382e+01
 1.478344920131581e+00	 2.165267659522533e-01	 1.531934460488573e+01
 1.476383500274394e+00	 2.295197232704027e-01	 1.531217931937837e+01
 1.474301747646645e+00	 2.425322661804881e-01	 1.530512247462975e+01
 1.472098895614821e+00	 2.555628783337231e-01	 1.529855267275744e+01
 1.494635719143338e+00	 1.267441006945740e-01	 1.529005133828131e+01
 1.493488896573492e+00	 1.396098700368032e-01	 1.528841173037308e+01
 1.492227237828909e+00	 1.525053136172777e-01	 1.528576681780460e+01
 1.490849832171460e+00	 1.654290721557976e-01	 1.528211277291826e+01
 1.489355787040465e+00	 1.783797623304705e-01	 1.527749846696714e+01
 1.487744228712756e+00	 1.913559769954548e-01	 1.527202674985924e+01
 1.486014302962852e+00	 2.043562854179656e-01	 1.526585563952192e+01
 1.484165175722651e+00	 2.173792335347424e-01	 1.525919941472197e+01
 1.482196033740041e+00	 2.304233442281601e-01	 1.525232960470671e+01
 1.480106085235805e+00	 2.434871176221435e-01	 1.524557586853852e+01
 1.477894560558187e+00	 2.565690313980291e-01	 1.523932675647757e+01
 1.500497035688998e+00	 1.272411363835723e-01	 1.522852079679419e+01
 1.499345715775741e+00	 1.401573597232221e-01	 1.522729685054533e+01
 1.498079109349806e+00	 1.531033736706788e-01	 1.522503597075340e+01
 1.496696302101544e+00	 1.660778136152321e-01	 1.522173679948081e+01
 1.495196397970036e+00	 1.790792908101978e-01	 1.521745172006840e+01
 1.493578519805748e+00	 1.921063925915154e-01	 1.521228815598303e+01
 1.491841810033294e+00	 2.051576826156831e-01	 1.520640978034834e+01
 1.489985431313720e+00	 2.182317011172317e-01	 1.520003763003441e+01
 1.488008567205689e+00	 2.313269651859176e-01	 1.519345111769436e+01
 1.485910422824966e+00	 2.444419690637989e-01	 1.518698893462510e+01
 1.483690225501552e+00	 2.575751844623350e-01	 1.518104983679180e+01
 1.506358352234658e+00	 1.277381720725707e-01	 1.516802657135346e+01
 1.505202534977990e+00	 1.407048494096409e-01	 1.516720213248474e+01
 1.503930980870704e+00	 1.537014337240798e-01	 1.516530971843243e+01
 1.502542772031628e+00	 1.667265550746666e-01	 1.516235042420755e+01
 1.501037008899606e+00	 1.797788192899251e-01	 1.515838016431124e+01
 1.499412810898739e+00	 1.928568081875760e-01	 1.515351099150915e+01
 1.497669317103737e+00	 2.059590798134006e-01	 1.514791232741758e+01
 1.495805686904789e+00	 2.190841686997209e-01	 1.514181209881987e+01
 1.493821100671336e+00	 2.322305861436751e-01	 1.513549777312593e+01
 1.491714760414125e+00	 2.453968205054544e-01	 1.512931728585932e+01
 1.489485890444918e+00	 2.585813375266411e-01	 1.512367985249703e+01
 1.512219668780318e+00	 1.282352077615690e-01	 1.510853156389362e+01
 1.511059354180239e+00	 1.412523390960597e-01	 1.510808714067213e+01
 1.509782852391602e+00	 1.542994937774810e-01	 1.510654491345488e+01
 1.508389241961713e+00	 1.673752965341011e-01	 1.510390841660436e+01
 1.506877619829177e+00	 1.804783477696525e-01	 1.510023711707362e+01
 1.505247101991730e+00	 1.936072237836366e-01	 1.509564775391014e+01
 1.503496824174180e+00	 2.067604770111181e-01	 1.509031559076887e+01
 1.501625942495858e+00	 2.199366362822100e-01	 1.508447557539635e+01
 1.499633634136983e+00	 2.331342071014326e-01	 1.507842339953029e+01
 1.497519098003285e+00	 2.463516719471097e-01	 1.507251645210205e+01
 1.495281555388283e+00	 2.595874905909470e-01	 1.506717465806019e+01
 1.518080985325978e+00	 1.287322434505673e-01	 1.504999842126458e+01
 1.516916173382488e+00	 1.417998287824785e-01	 1.504991122000739e+01
 1.515634723912500e+00	 1.548975538308820e-01	 1.504869822070741e+01
 1.514235711891797e+00	 1.680240379935355e-01	 1.504636538662156e+01
 1.512718230758747e+00	 1.811778762493798e-01	 1.504297576062332e+01
 1.511081393084721e+00	 1.943576393796972e-01	 1.503865082621822e+01
 1.509324331244622e+00	 2.075618742088357e-01	 1.503357178283639e+01
 1.507446198086928e+00	 2.207891038646992e-01	 1.502798072941237e+01
 1.505446167602631e+00	 2.340378280591900e-01	 1.502218174972597e+01
 1.503323435592445e+00	 2.473065233887653e-01	 1.501654189240375e+01
 1.501077220331648e+00	 2.605936436552529e-01	 1.501149203788591e+01
 1.523942301871639e+00	 1.292292791395656e-01	 1.499238953954585e+01
 1.522772992584737e+00	 1.423473184688974e-01	 1.499263350014747e+01
 1.521486595433397e+00	 1.554956138842831e-01	 1.499172612192437e+01
 1.520082181821881e+00	 1.686727794529701e-01	 1.498967578967796e+01
 1.518558841688318e+00	 1.818774047291072e-01	 1.498654914780613e+01
 1.516915684177712e+00	 1.951080549757578e-01	 1.498247248359183e+01
 1.515151838315065e+00	 2.083632714065531e-01	 1.497763302610995e+01
 1.513266453677997e+00	 2.216415714471884e-01	 1.497228015481412e+01
 1.511258701068278e+00	 2.349414490169477e-01	 1.496672651130982e+01
 1.509127773181605e+00	 2.482613748304207e-01	 1.496134900722694e+01
 1.506872885275014e+00	 2.615997967195591e-01	 1.495658972048588e+01
 1.448916235841360e+00	 2.515382660764992e-01	 1.554578376867334e+01
 1.446628149837737e+00	 2.643799422847987e-01	 1.553669100269294e+01
 1.444219430018670e+00	 2.772363535722091e-01	 1.552518603337430e+01
 1.441689390722408e+00	 2.901059435170511e-01	 1.551195790149287e+01
 1.439037370512089e+00	 3.029871351313811e-01	 1.549775661020037e+01
 1.436262732796367e+00	 3.158783312697780e-01	 1.548339290578984e+01
 1.433364866443830e+00	 3.287779150580669e-01	 1.546973787121445e+01
 1.430343186390498e+00	 3.416842503419572e-01	 1.545772232169626e+01
 1.427197134239732e+00	 3.545956821555555e-01	 1.544833599137610e+01
 1.423926178853847e+00	 3.675105372096807e-01	 1.544262649958575e+01
 1.420529816936730e+00	 3.804271243998891e-01	 1.544169808499436e+01
 1.454711900784725e+00	 2.525444191408051e-01	 1.548234344574179e+01
 1.452414662437088e+00	 2.654374620539380e-01	 1.547368814962199e+01
 1.449996307738744e+00	 2.783452989864979e-01	 1.546270139340416e+01
 1.447456148285298e+00	 2.912663672911194e-01	 1.545008244837646e+01
 1.444793519994136e+00	 3.041990836719066e-01	 1.543659295170400e+01
 1.442007783727552e+00	 3.171418445948571e-01	 1.542305671740387e+01
 1.439098325909605e+00	 3.300930267182991e-01	 1.541035935998591e+01
 1.436064559136060e+00	 3.430509873433250e-01	 1.539944771990486e+01
 1.432905922776691e+00	 3.560140648841777e-01	 1.539132907955403e+01
 1.429621883569263e+00	 3.689805793585194e-01	 1.538707015814091e+01
 1.426211936204477e+00	 3.819488328974887e-01	 1.538779587342777e+01
 1.460507565728091e+00	 2.535505722051111e-01	 1.542001923193786e+01
 1.458201175036439e+00	 2.664949818230771e-01	 1.541178186151952e+01
 1.455773185458819e+00	 2.794542444007868e-01	 1.540129594653723e+01
 1.453222905848187e+00	 2.924267910651874e-01	 1.538927050716980e+01
 1.450549669476185e+00	 3.054110322124321e-01	 1.537647824213583e+01
 1.447752834658738e+00	 3.184053579199361e-01	 1.536375536971172e+01
 1.444831785375380e+00	 3.314081383785313e-01	 1.535200128153463e+01
 1.441785931881622e+00	 3.444177243446930e-01	 1.534217799814115e+01
 1.438614711313650e+00	 3.574324476127999e-01	 1.533530941475858e+01
 1.435317588284678e+00	 3.704506215073582e-01	 1.533248032544575e+01
 1.431894055472223e+00	 3.834705413950881e-01	 1.533483521329601e+01
 1.466303230671457e+00	 2.545567252694171e-01	 1.535876954813436e+01
 1.463987687635789e+00	 2.675525015922163e-01	 1.535093271759523e+01
 1.461550063178894e+00	 2.805631898150756e-01	 1.534093139983271e+01
 1.458989663411077e+00	 2.935872148392558e-01	 1.532948388119137e+01
 1.456305818958234e+00	 3.066229807529577e-01	 1.531737334851857e+01
 1.453497885589923e+00	 3.196688712450153e-01	 1.530544776008493e+01
 1.450565244841155e+00	 3.327232500387636e-01	 1.529461952961230e+01
 1.447507304627183e+00	 3.457844613460607e-01	 1.528586501217406e+01
 1.444323499850608e+00	 3.588508303414222e-01	 1.528022378026698e+01
 1.441013293000094e+00	 3.719206636561969e-01	 1.527879767791119e+01
 1.437576174739970e+00	 3.849922498926877e-01	 1.528274964022372e+01
 1.472098895614821e+00	 2.555628783337231e-01	 1.529855267275744e+01
 1.469774200235140e+00	 2.686100213613555e-01	 1.529110115305972e+01
 1.467326940898969e+00	 2.816721352293644e-01	 1.528156933559616e+01
 1.464756420973967e+00	 2.947476386133239e-01	 1.527068428885589e+01
 1.462061968440281e+00	 3.078349292934831e-01	 1.525923911320922e+01
 1.459242936521109e+00	 3.209323845700944e-01	 1.524809284161249e+01
 1.456298704306931e+00	 3.340383616989959e-01	 1.523817015395176e+01
 1.453228677372745e+00	 3.471511983474285e-01	 1.523046089360611e+01
 1.450032288387568e+00	 3.602692130700444e-01	 1.522601937431582e+01
 1.446708997715509e+00	 3.733907058050356e-01	 1.522596346497054e+01
 1.443258294007717e+00	 3.865139583902872e-01	 1.523147343949386e+01
 1.477894560558187e+00	 2.565690313980291e-01	 1.523932675647757e+01
 1.475560712834492e+00	 2.696675411304947e-01	 1.523224747585760e+01
 1.473103818619043e+00	 2.827810806436532e-01	 1.522317122986965e+01
 1.470523178536856e+00	 2.959080623873922e-01	 1.521283338363704e+01
 1.467818117922330e+00	 3.090468778340086e-01	 1.520203637504944e+01
 1.464987987452293e+00	 3.221958978951734e-01	 1.519164964515585e+01
 1.462032163772706e+00	 3.353534733592282e-01	 1.518260938294183e+01
 1.458950050118307e+00	 3.485179353487963e-01	 1.517591807288590e+01
 1.455741076924526e+00	 3.616875957986665e-01	 1.517264383317083e+01
 1.452404702430925e+00	 3.748607479538743e-01	 1.517391953192257e+01
 1.448940413275464e+00	 3.880356668878870e-01	 1.518094166838529e+01
 1.483690225501552e+00	 2.575751844623350e-01	 1.518104983679180e+01
 1.481347225433842e+00	 2.707250608996339e-01	 1.517433188326667e+01
 1.478880696339118e+00	 2.838900260579421e-01	 1.516569847077085e+01
 1.476289936099745e+00	 2.970684861614603e-01	 1.515589277387076e+01
 1.473574267404378e+00	 3.102588263745342e-01	 1.514572599035621e+01
 1.470733038383479e+00	 3.234594112202525e-01	 1.513607730125081e+01
 1.467765623238481e+00	 3.366685850194604e-01	 1.512789364616482e+01
 1.464671422863869e+00	 3.498846723501642e-01	 1.512218930220561e+01
 1.461449865461485e+00	 3.631059785272887e-01	 1.512004525410875e+01
 1.458100407146340e+00	 3.763307901027131e-01	 1.512260834272595e+01
 1.454622532543211e+00	 3.895573753854863e-01	 1.513109017850567e+01
 1.489485890444918e+00	 2.585813375266411e-01	 1.512367985249703e+01
 1.487133738033193e+00	 2.717825806687730e-01	 1.511731447836594e+01
 1.484657574059193e+00	 2.849989714722309e-01	 1.510911237668688e+01
 1.482056693662635e+00	 2.982289099355285e-01	 1.509982404240430e+01
 1.479330416886427e+00	 3.114707749150596e-01	 1.509026885375766e+01
 1.476478089314665e+00	 3.247229245453318e-01	 1.508133506186070e+01
 1.473499082704257e+00	 3.379836966796927e-01	 1.507397959679959e+01
 1.470392795609432e+00	 3.512514093515320e-01	 1.506922767828539e+01
 1.467158653998444e+00	 3.645243612559110e-01	 1.506817221831633e+01
 1.463796111861755e+00	 3.778008322515518e-01	 1.507197300274521e+01
 1.460304651810958e+00	 3.910790838830859e-01	 1.508185563811947e+01
 1.495281555388283e+00	 2.595874905909470e-01	 1.506717465806019e+01
 1.492920250632544e+00	 2.728401004379122e-01	 1.506115528637750e+01
 1.490434451779267e+00	 2.861079168865197e-01	 1.505337421432525e+01
 1.487823451225525e+00	 2.993893337095967e-01	 1.504458876609539e+01
 1.485086566368475e+00	 3.126827234555852e-01	 1.503562591887810e+01
 1.482223140245850e+00	 3.259864378704108e-01	 1.502738232198625e+01
 1.479232542170032e+00	 3.392988083399248e-01	 1.502082413389375e+01
 1.476114168354993e+00	 3.526181463528998e-01	 1.501698666504836e+01
 1.472867442535403e+00	 3.659427439845332e-01	 1.501697381370733e+01
 1.469491816577170e+00	 3.792708744003904e-01	 1.502195728145077e+01
 1.465986771078705e+00	 3.926007923806855e-01	 1.503317555447176e+01
 1.501077220331648e+00	 2.605936436552529e-01	 1.501149203788591e+01
 1.498706763231895e+00	 2.738976202070514e-01	 1.500581427088358e+01
 1.496211329499342e+00	 2.872168623008087e-01	 1.499844521662640e+01
 1.493590208788415e+00	 3.005497574836650e-01	 1.499014853516465e+01
 1.490842715850523e+00	 3.138946719961107e-01	 1.498175821887618e+01
 1.487968191177036e+00	 3.272499511954899e-01	 1.497417864113432e+01
 1.484966001635808e+00	 3.406139200001572e-01	 1.496838442450930e+01
 1.481835541100555e+00	 3.539848833542676e-01	 1.496542011618870e+01
 1.478576231072362e+00	 3.673611267131554e-01	 1.496639965766010e+01
 1.475187521292586e+00	 3.807409165492290e-01	 1.497250563507298e+01
 1.471668890346452e+00	 3.941225008782850e-01	 1.498498829610713e+01
 1.506872885275014e+00	 2.615997967195591e-01	 1.495658972048588e+01
 1.504493275831247e+00	 2.749551399761906e-01	 1.495125134992458e+01
 1.501988207219417e+00	 2.883258077150974e-01	 1.494428660054170e+01
 1.499356966351305e+00	 3.017101812577332e-01	 1.493646497240642e+01
 1.496598865332572e+00	 3.151066205366362e-01	 1.492862688683989e+01
 1.493713242108221e+00	 3.285134645205690e-01	 1.492168376465017e+01
 1.490699461101583e+00	 3.419290316603895e-01	 1.491661792574479e+01
 1.487556913846117e+00	 3.553516203556355e-01	 1.491448229763621e+01
 1.484285019609321e+00	 3.687795094417777e-01	 1.491639991967800e+01
 1.480883226008001e+00	 3.822109586980679e-01	 1.492356322921262e+01
 1.477351009614199e+00	 3.956442093758846e-01	 1.493723311518446e+01
 1.420529816936730e+00	 3.804271243998891e-01	 1.544169808499436e+01
 1.417007573606752e+00	 3.933437353340869e-01	 1.543959076745248e+01
 1.413359002959288e+00	 4.062586448795805e-01	 1.542998932719214e+01
 1.409583688618110e+00	 4.191701117293912e-01	 1.541350848764110e+01
 1.405681244274962e+00	 4.320763789876294e-01	 1.539076343024985e+01
 1.401651314216613e+00	 4.449756747736979e-01	 1.536236724347988e+01
 1.397493573838672e+00	 4.578662128450646e-01	 1.532892813462509e+01
 1.393207730145472e+00	 4.707461932383185e-01	 1.529104639309941e+01
 1.388793522235325e+00	 4.836138029281904e-01	 1.524931109387902e+01
 1.384250721770461e+00	 4.964672165041967e-01	 1.520429652993259e+01
 1.379579133430962e+00	 5.093045968645326e-01	 1.515655836271212e+01
 1.426211936204477e+00	 3.819488328974887e-01	 1.538779587342777e+01
 1.422675603901179e+00	 3.949171102754233e-01	 1.538728413666992e+01
 1.419012438971126e+00	 4.078836794590989e-01	 1.537896629610169e+01
 1.415222023372582e+00	 4.208467921763088e-01	 1.536349351595696e+01
 1.411303969252062e+00	 4.338046845035799e-01	 1.534151949232802e+01
 1.407257919473480e+00	 4.467555774727927e-01	 1.531369791426571e+01
 1.403083548134027e+00	 4.596976776964450e-01	 1.528067968409416e+01
 1.398780561066053e+00	 4.726291780112719e-01	 1.524310988514384e+01
 1.394348696324266e+00	 4.855482581399031e-01	 1.520162448514602e+01
 1.389787724657543e+00	 4.984530853702137e-01	 1.515684676365927e+01
 1.385097449964685e+00	 5.113418152519908e-01	 1.510938345212767e+01
 1.431894055472223e+00	 3.834705413950881e-01	 1.533483521329601e+01
 1.428343634195606e+00	 3.964904852167596e-01	 1.533589166099133e+01
 1.424665874982962e+00	 4.095087140386170e-01	 1.532883085927133e+01
 1.420860358127055e+00	 4.225234726232264e-01	 1.531434160533639e+01
 1.416926694229161e+00	 4.355329900195304e-01	 1.529311747792548e+01
 1.412864524730346e+00	 4.485354801718874e-01	 1.526585431334471e+01
 1.408673522429382e+00	 4.615291425478251e-01	 1.523324743694325e+01
 1.404353391986636e+00	 4.745121627842251e-01	 1.519598863779904e+01
 1.399903870413208e+00	 4.874827133516159e-01	 1.515476287439365e+01
 1.395324727544624e+00	 5.004389542362303e-01	 1.511024469917252e+01
 1.390615766498409e+00	 5.133790336394488e-01	 1.506309439009672e+01
 1.437576174739970e+00	 3.849922498926877e-01	 1.528274964022372e+01
 1.434011664490033e+00	 3.980638601580959e-01	 1.528534009214907e+01
 1.430319310994800e+00	 4.111337486181355e-01	 1.527950471904061e+01
 1.426498692881528e+00	 4.242001530701439e-01	 1.526597112293699e+01
 1.422549419206261e+00	 4.372612955354809e-01	 1.524547411138259e+01
 1.418471129987213e+00	 4.503153828709822e-01	 1.521875319123543e+01
 1.414263496724737e+00	 4.633606073992056e-01	 1.518654981401510e+01
 1.409926222907218e+00	 4.763951475571784e-01	 1.514960436009034e+01
 1.405459044502150e+00	 4.894171685633288e-01	 1.510865284901340e+01
 1.400861730431706e+00	 5.024248231022470e-01	 1.506442336339984e+01
 1.396134083032133e+00	 5.154162520269071e-01	 1.501763217395631e+01
 1.443258294007717e+00	 3.865139583902872e-01	 1.523147343949386e+01
 1.439679694784460e+00	 3.996372350994323e-01	 1.523555710446832e+01
 1.435972747006637e+00	 4.127587831976539e-01	 1.523091064749051e+01
 1.432137027635999e+00	 4.258768335170613e-01	 1.521830162693678e+01
 1.428172144183361e+00	 4.389896010514315e-01	 1.519850740339331e+01
 1.424077735244080e+00	 4.520952855700770e-01	 1.517231265413522e+01
 1.419853471020091e+00	 4.651920722505857e-01	 1.514050663509531e+01
 1.415499053827800e+00	 4.782781323301317e-01	 1.510388017715198e+01
 1.411014218591090e+00	 4.913516237750415e-01	 1.506322240354664e+01
 1.406398733318788e+00	 5.044106919682636e-01	 1.501931715532473e+01
 1.401652399565857e+00	 5.174534704143652e-01	 1.497293911187459e+01
 1.448940413275464e+00	 3.880356668878870e-01	 1.518094166838529e+01
 1.445347725078887e+00	 4.012106100407686e-01	 1.518647131684884e+01
 1.441626183018474e+00	 4.143838177771720e-01	 1.518297250864681e+01
 1.437775362390472e+00	 4.275535139639789e-01	 1.517125388952874e+01
 1.433794869160461e+00	 4.407179065673819e-01	 1.515213667535756e+01
 1.429684340500945e+00	 4.538751882691718e-01	 1.512645219018776e+01
 1.425443445315446e+00	 4.670235371019659e-01	 1.509503914764936e+01
 1.421071884748381e+00	 4.801611171030850e-01	 1.505874066197662e+01
 1.416569392680031e+00	 4.932860789867543e-01	 1.501840097498545e+01
 1.411935736205870e+00	 5.063965608342806e-01	 1.497486188536664e+01
 1.407170716099581e+00	 5.194906888018235e-01	 1.492895886683096e+01
 1.454622532543211e+00	 3.895573753854863e-01	 1.513109017850567e+01
 1.451015755373314e+00	 4.027839849821050e-01	 1.513801231478402e+01
 1.447279619030311e+00	 4.160088523566903e-01	 1.513561528074833e+01
 1.443413697144944e+00	 4.292301944108967e-01	 1.512474991999758e+01
 1.439417594137561e+00	 4.424462120833323e-01	 1.510628258381792e+01
 1.435290945757812e+00	 4.556550909682666e-01	 1.508109269582797e+01
 1.431033419610800e+00	 4.688550019533462e-01	 1.505007005561354e+01
 1.426644715668963e+00	 4.820441018760383e-01	 1.501411186718627e+01
 1.422124566768973e+00	 4.952205341984670e-01	 1.497411947804688e+01
 1.417472739092952e+00	 5.083824297002975e-01	 1.493099481467762e+01
 1.412689032633305e+00	 5.215279071892813e-01	 1.488563650044218e+01
 1.460304651810958e+00	 3.910790838830859e-01	 1.508185563811947e+01
 1.456683785667741e+00	 4.043573599234413e-01	 1.509011067241569e+01
 1.452933055042149e+00	 4.176338869362087e-01	 1.508876507857932e+01
 1.449052031899416e+00	 4.309068748578140e-01	 1.507871298787553e+01
 1.445040319114661e+00	 4.441745175992830e-01	 1.506086714497996e+01
 1.440897551014679e+00	 4.574349936673614e-01	 1.503615650219980e+01
 1.436623393906155e+00	 4.706864668047264e-01	 1.500552354823865e+01
 1.432217546589545e+00	 4.839270866489915e-01	 1.496992135682221e+01
 1.427679740857914e+00	 4.971549894101798e-01	 1.493031034042371e+01
 1.423009741980034e+00	 5.103682985663140e-01	 1.488765469435692e+01
 1.418207349167028e+00	 5.235651255767395e-01	 1.484291851663969e+01
 1.465986771078705e+00	 3.926007923806855e-01	 1.503317555447176e+01
 1.462351815962168e+00	 4.059307348647775e-01	 1.504269797462342e+01
 1.458586491053986e+00	 4.192589215157271e-01	 1.504234917586430e+01
 1.454690366653889e+00	 4.325835553047316e-01	 1.503306764617598e+01
 1.450663044091760e+00	 4.459028231152334e-01	 1.501581375931284e+01
 1.446504156271544e+00	 4.592148963664561e-01	 1.499156740164648e+01
 1.442213368201510e+00	 4.725179316561068e-01	 1.496132532898607e+01
 1.437790377510127e+00	 4.858100714219448e-01	 1.492609823815524e+01
 1.433234914946855e+00	 4.990894446218924e-01	 1.488690753800984e+01
 1.428546744867116e+00	 5.123541674323309e-01	 1.484478180458695e+01
 1.423725665700752e+00	 5.256023439641976e-01	 1.480075290519977e+01
 1.471668890346452e+00	 3.941225008782850e-01	 1.498498829610712e+01
 1.468019846256595e+00	 4.075041098061140e-01	 1.499570683914779e+01
 1.464239927065823e+00	 4.208839560952453e-01	 1.499629602772226e+01
 1.460328701408362e+00	 4.342602357516492e-01	 1.498773975470182e+01
 1.456285769068861e+00	 4.476311286311839e-01	 1.497104723622801e+01
 1.452110761528411e+00	 4.609947990655509e-01	 1.494725067427051e+01
 1.447803342496864e+00	 4.743493965074870e-01	 1.491740264447276e+01
 1.443363208430709e+00	 4.876930561948980e-01	 1.488257319351452e+01
 1.438790089035797e+00	 5.010238998336052e-01	 1.484384663010283e+01
 1.434083747754197e+00	 5.143400362983477e-01	 1.480231799369169e+01
 1.429243982234476e+00	 5.276395623516558e-01	 1.475908918513367e+01
 1.477351009614199e+00	 3.956442093758846e-01	 1.493723311518446e+01
 1.473687876551022e+00	 4.090774847474504e-01	 1.494907093874701e+01
 1.469893363077660e+00	 4.225089906747637e-01	 1.495053529318074e+01
 1.465967036162835e+00	 4.359369161985669e-01	 1.494265650342715e+01
 1.461908494045960e+00	 4.493594341471346e-01	 1.492649381883453e+01
 1.457717366785278e+00	 4.627747017646459e-01	 1.490313311456207e+01
 1.453393316792219e+00	 4.761808613588672e-01	 1.487368431346656e+01
 1.448936039351291e+00	 4.895760409678513e-01	 1.483927851213470e+01
 1.444345263124738e+00	 5.029583550453179e-01	 1.480106479458364e+01
 1.439620750641279e+00	 5.163259051643647e-01	 1.476020671712042e+01
 1.434762298768200e+00	 5.296767807391141e-01	 1.471787844793888e+01
 1.379579133430962e+00	 5.093045968645326e-01	 1.515655836271211e+01
 1.374778595352020e+00	 5.221240959268137e-01	 1.511105051769219e+01
 1.369848979543862e+00	 5.349238553552342e-01	 1.507346941158097e+01
 1.364790192293664e+00	 5.477020073036878e-01	 1.504549649123273e+01
 1.359602174548851e+00	 5.604566751743629e-01	 1.502884656379711e+01
 1.354284902281112e+00	 5.731859743913005e-01	 1.502526166854673e+01
 1.348838386830553e+00	 5.858880131883711e-01	 1.503650450265197e+01
 1.343262675229369e+00	 5.985608934111077e-01	 1.504845987856277e+01
 1.337557850504465e+00	 6.112027113317979e-01	 1.503115799752635e+01
 1.331724031958458e+00	 6.238115584772155e-01	 1.498447563632709e+01
 1.325761375428533e+00	 6.363855224683483e-01	 1.490912620286174e+01
 1.385097449964685e+00	 5.113418152519908e-01	 1.510938345212767e+01
 1.380277709733428e+00	 5.242125923105211e-01	 1.506461566617907e+01
 1.375328375462038e+00	 5.370635507766552e-01	 1.502865876265444e+01
 1.370249353062839e+00	 5.498928153329024e-01	 1.500323542666697e+01
 1.365040583247046e+00	 5.626985018750604e-01	 1.499010299728891e+01
 1.359702041890237e+00	 5.754787182888657e-01	 1.499104730060284e+01
 1.354233740377876e+00	 5.882315652411246e-01	 1.500787602911071e+01
 1.348635725930287e+00	 6.009551369847521e-01	 1.501853428190799e+01
 1.342908081906483e+00	 6.136475221771250e-01	 1.500017574692052e+01
 1.337050928086293e+00	 6.263068047111244e-01	 1.495349014805468e+01
 1.331064420930246e+00	 6.389310645582218e-01	 1.487918988527893e+01
 1.390615766498409e+00	 5.133790336394488e-01	 1.506309439009672e+01
 1.385776824114837e+00	 5.263010886942284e-01	 1.501911761127510e+01
 1.380807771380212e+00	 5.392032461980760e-01	 1.498484280277486e+01
 1.375708513832014e+00	 5.520836233621174e-01	 1.496203150961082e+01
 1.370478991945242e+00	 5.649403285757582e-01	 1.495248099159258e+01
 1.365119181499361e+00	 5.777714621864308e-01	 1.495801801973610e+01
 1.359629093925198e+00	 5.905751172938779e-01	 1.497970111899956e+01
 1.354008776631205e+00	 6.033493805583966e-01	 1.498840055890319e+01
 1.348258313308501e+00	 6.160923330224521e-01	 1.496913235367498e+01
 1.342377824214126e+00	 6.288020509450334e-01	 1.492258188160092e+01
 1.336367466431960e+00	 6.414766066480949e-01	 1.484945587861626e+01
 1.396134083032133e+00	 5.154162520269071e-01	 1.501763217395631e+01
 1.391275938496245e+00	 5.283895850779357e-01	 1.497450461524483e+01
 1.386287167298388e+00	 5.413429416194970e-01	 1.494197414954799e+01
 1.381167674601188e+00	 5.542744313913320e-01	 1.492183882231796e+01
 1.375917400643438e+00	 5.671821552764554e-01	 1.491593322418517e+01
 1.370536321108486e+00	 5.800642060839960e-01	 1.492612225292919e+01
 1.365024447472520e+00	 5.929186693466315e-01	 1.495115941582585e+01
 1.359381827332122e+00	 6.057436241320411e-01	 1.495804824442475e+01
 1.353608544710519e+00	 6.185371438677794e-01	 1.493801164967768e+01
 1.347704720341960e+00	 6.312972971789422e-01	 1.489172633155501e+01
 1.341670511933674e+00	 6.440221487379683e-01	 1.481988875629451e+01
 1.401652399565857e+00	 5.174534704143652e-01	 1.497293911187459e+01
 1.396775052877653e+00	 5.304780814616428e-01	 1.493072619857066e+01
 1.391766563216564e+00	 5.434826370409181e-01	 1.490000666902774e+01
 1.386626835370363e+00	 5.564652394205467e-01	 1.488261272779144e+01
 1.381355809341633e+00	 5.694239819771528e-01	 1.488041372685523e+01
 1.375953460717610e+00	 5.823569499815612e-01	 1.489530989545600e+01
 1.370419801019842e+00	 5.952622213993849e-01	 1.492224710766098e+01
 1.364754878033039e+00	 6.081378677056853e-01	 1.492747060559111e+01
 1.358958776112537e+00	 6.209819547131067e-01	 1.490680133585423e+01
 1.353031616469794e+00	 6.337925434128510e-01	 1.486090303776739e+01
 1.346973557435389e+00	 6.465676908278417e-01	 1.479045735225012e+01
 1.407170716099581e+00	 5.194906888018235e-01	 1.492895886683096e+01
 1.402274167259060e+00	 5.325665778453499e-01	 1.488773318836293e+01
 1.397245959134739e+00	 5.456223324623389e-01	 1.485889552770867e+01
 1.392085996139538e+00	 5.586560474497614e-01	 1.484430992451350e+01
 1.386794218039828e+00	 5.716658086778503e-01	 1.484587794233397e+01
 1.381370600326735e+00	 5.846496938791262e-01	 1.486553236858551e+01
 1.375815154567165e+00	 5.976057734521384e-01	 1.489296397321785e+01
 1.370127928733957e+00	 6.105321112793296e-01	 1.489666459120398e+01
 1.364309007514555e+00	 6.234267655584339e-01	 1.487549292690816e+01
 1.358358512597628e+00	 6.362877896467600e-01	 1.483009552464070e+01
 1.352276602937103e+00	 6.491132329177153e-01	 1.476113469404720e+01
 1.412689032633305e+00	 5.215279071892813e-01	 1.488563650044218e+01
 1.407773281640469e+00	 5.346550742290572e-01	 1.484547776655181e+01
 1.402725355052914e+00	 5.477620278837597e-01	 1.481859724425143e+01
 1.397545156908713e+00	 5.608468554789763e-01	 1.480688850088353e+01
 1.392232626738023e+00	 5.739076353785477e-01	 1.481228278062790e+01
 1.386787739935859e+00	 5.869424377766915e-01	 1.483674267699994e+01
 1.381210508114487e+00	 5.999493255048917e-01	 1.486331333294567e+01
 1.375500979434875e+00	 6.129263548529743e-01	 1.486563078098694e+01
 1.369659238916572e+00	 6.258715764037611e-01	 1.484408169592708e+01
 1.363685408725462e+00	 6.387830358806688e-01	 1.479929124037544e+01
 1.357579648438817e+00	 6.516587750075885e-01	 1.473189793604964e+01
 1.418207349167028e+00	 5.235651255767395e-01	 1.484291851663969e+01
 1.413272396021877e+00	 5.367435706127645e-01	 1.480391351786344e+01
 1.408204750971090e+00	 5.499017233051807e-01	 1.477906974095111e+01
 1.403004317677887e+00	 5.630376635081907e-01	 1.477030798937189e+01
 1.397671035436219e+00	 5.761494620792450e-01	 1.477958667506180e+01
 1.392204879544984e+00	 5.892351816742569e-01	 1.480876084377895e+01
 1.386605861661809e+00	 6.022928775576452e-01	 1.483330200190869e+01
 1.380874030135792e+00	 6.153205984266186e-01	 1.483437333462672e+01
 1.375009470318590e+00	 6.283163872490883e-01	 1.481256661885986e+01
 1.369012304853295e+00	 6.412782821145776e-01	 1.476848149617049e+01
 1.362882693940532e+00	 6.542043170974620e-01	 1.470272829265068e+01
 1.423725665700752e+00	 5.256023439641976e-01	 1.480075290519977e+01
 1.418771510403285e+00	 5.388320669964716e-01	 1.476299547758985e+01
 1.413684146889265e+00	 5.520414187266017e-01	 1.474027239495295e+01
 1.408463478447062e+00	 5.652284715374056e-01	 1.473452942039787e+01
 1.403109444134415e+00	 5.783912887799425e-01	 1.474774963803897e+01
 1.397622019154108e+00	 5.915279255718221e-01	 1.478050610174787e+01
 1.392001215209132e+00	 6.046364296103988e-01	 1.480294024242483e+01
 1.386247080836709e+00	 6.177148420002631e-01	 1.480289994062283e+01
 1.380359701720608e+00	 6.307611980944153e-01	 1.478095031886684e+01
 1.374339200981129e+00	 6.437735283484866e-01	 1.473766140538086e+01
 1.368185739442246e+00	 6.567498591873353e-01	 1.467361097155897e+01
 1.429243982234476e+00	 5.276395623516558e-01	 1.475908918513367e+01
 1.424270624784693e+00	 5.409205633801790e-01	 1.472268017915523e+01
 1.419163542807440e+00	 5.541811141480226e-01	 1.470216608922374e+01
 1.413922639216237e+00	 5.674192795666204e-01	 1.469951537593871e+01
 1.408547852832610e+00	 5.806331154806400e-01	 1.471673331652678e+01
 1.403039158763232e+00	 5.938206694693872e-01	 1.475176417698174e+01
 1.397396568756454e+00	 6.069799816631523e-01	 1.477224171647101e+01
 1.391620131537627e+00	 6.201090855739074e-01	 1.477122176495018e+01
 1.385709933122626e+00	 6.332060089397427e-01	 1.474923901054766e+01
 1.379666097108963e+00	 6.462687745823954e-01	 1.470682982263252e+01
 1.373488784943959e+00	 6.592954012772085e-01	 1.464453510714008e+01
 1.434762298768200e+00	 5.296767807391141e-01	 1.471787844793888e+01
 1.429769739166102e+00	 5.430090597638864e-01	 1.468292570148574e+01
 1.424642938725617e+00	 5.563208095694436e-01	 1.466471326328537e+01
 1.419381799985411e+00	 5.696100875958354e-01	 1.466523004287708e+01
 1.413986261530806e+00	 5.828749421813375e-01	 1.468650104727485e+01
 1.408456298372357e+00	 5.961134133669526e-01	 1.472255204034591e+01
 1.402791922303776e+00	 6.093235337159056e-01	 1.474122343786128e+01
 1.396993182238545e+00	 6.225033291475520e-01	 1.473935339954025e+01
 1.391060164524644e+00	 6.356508197850698e-01	 1.471744244404926e+01
 1.384992993236797e+00	 6.487640208163042e-01	 1.467598928289644e+01
 1.378791830445674e+00	 6.618409433670821e-01	 1.461549369381031e+01
 1.325761375428533e+00	 6.363855224683483e-01	 1.490912620286174e+01
 1.319670073522606e+00	 6.489226878714478e-01	 1.482377932885453e+01
 1.313450355832338e+00	 6.614211370597184e-01	 1.474571531422363e+01
 1.307102489122472e+00	 6.738789510849141e-01	 1.467352740538918e+01
 1.300626777496096e+00	 6.862942105581162e-01	 1.460573890462617e+01
 1.294023562535369e+00	 6.986649965389271e-01	 1.454080899328822e+01
 1.287293223417336e+00	 7.109893914323002e-01	 1.447713901364147e+01
 1.280436177004447e+00	 7.232654798922067e-01	 1.441307920440400e+01
 1.273452877909452e+00	 7.354913497313214e-01	 1.434693588254457e+01
 1.266343818534351e+00	 7.476650928358929e-01	 1.427697906126301e+01
 1.259109529083124e+00	 7.597848060849464e-01	 1.420145049135122e+01
 1.331064420930246e+00	 6.389310645582218e-01	 1.487918988527893e+01
 1.324948753816697e+00	 6.515183786229337e-01	 1.479546417074956e+01
 1.318704157255667e+00	 6.640668216079575e-01	 1.471909878966253e+01
 1.312330899078962e+00	 6.765744668892539e-01	 1.464866206991139e+01
 1.305829284606080e+00	 6.890393874003488e-01	 1.458264978162814e+01
 1.299199656785511e+00	 7.014596565250827e-01	 1.451949103675600e+01
 1.292442396311005e+00	 7.138333489980292e-01	 1.445755465959400e+01
 1.285557921712464e+00	 7.261585418117755e-01	 1.439515602366928e+01
 1.278546689421090e+00	 7.384333151302468e-01	 1.433056434769351e+01
 1.271409193808489e+00	 7.506557532072363e-01	 1.426201044067054e+01
 1.264145967199457e+00	 7.628239453092862e-01	 1.418769488343002e+01
 1.336367466431960e+00	 6.414766066480949e-01	 1.484945587861626e+01
 1.330227434110787e+00	 6.541140693744194e-01	 1.476745188320844e+01
 1.323957958678996e+00	 6.667125061561961e-01	 1.469285475727182e+01
 1.317559309035452e+00	 6.792699826935935e-01	 1.462421051105202e+01
 1.311031791716065e+00	 6.917845642425811e-01	 1.455999024271718e+01
 1.304375751035652e+00	 7.042543165112384e-01	 1.449859611234096e+01
 1.297591569204674e+00	 7.166773065637585e-01	 1.443836779901087e+01
 1.290679666420482e+00	 7.290516037313443e-01	 1.437758943668785e+01
 1.283640500932727e+00	 7.413752805291719e-01	 1.431449702179069e+01
 1.276474569082626e+00	 7.536464135785800e-01	 1.424728628272311e+01
 1.269182405315790e+00	 7.658630845336262e-01	 1.417412099870760e+01
 1.341670511933674e+00	 6.440221487379683e-01	 1.481988875629451e+01
 1.335506114404878e+00	 6.567097601259050e-01	 1.473969629927545e+01
 1.329211760102326e+00	 6.693581907044350e-01	 1.466692920275644e+01
 1.322787718991941e+00	 6.819654984979331e-01	 1.460011373119801e+01
 1.316234298826049e+00	 6.945297410848136e-01	 1.453769913912604e+01
 1.309551845285794e+00	 7.070489764973943e-01	 1.447806371754289e+01
 1.302740742098344e+00	 7.195212641294876e-01	 1.441952133541370e+01
 1.295801411128500e+00	 7.319446656509130e-01	 1.436032847213794e+01
 1.288734312444366e+00	 7.443172459280974e-01	 1.429869173420472e+01
 1.281539944356764e+00	 7.566370739499236e-01	 1.423277584641329e+01
 1.274218843432122e+00	 7.689022237579657e-01	 1.416071210512213e+01
 1.346973557435389e+00	 6.465676908278417e-01	 1.479045735225012e+01
 1.340784794698968e+00	 6.593054508773910e-01	 1.471215572364406e+01
 1.334465561525655e+00	 6.720038752526739e-01	 1.464127274814185e+01
 1.328016128948432e+00	 6.846610143022728e-01	 1.457631748807798e+01
 1.321436805936034e+00	 6.972749179270463e-01	 1.451572015163886e+01
 1.314727939535935e+00	 7.098436364835500e-01	 1.445783820967426e+01
 1.307889914992013e+00	 7.223652216952168e-01	 1.440096301933882e+01
 1.300923155836518e+00	 7.348377275704820e-01	 1.434332695076528e+01
 1.293828123956003e+00	 7.472592113270224e-01	 1.428311101020786e+01
 1.286605319630901e+00	 7.596277343212671e-01	 1.421845295021051e+01
 1.279255281548454e+00	 7.719413629823053e-01	 1.414745585437155e+01
 1.352276602937103e+00	 6.491132329177153e-01	 1.476113469404720e+01
 1.346063474993059e+00	 6.619011416288767e-01	 1.468479285971461e+01
 1.339719362948985e+00	 6.746495598009129e-01	 1.461584057374129e+01
 1.333244538904922e+00	 6.873565301066122e-01	 1.455277221259599e+01
 1.326639313046017e+00	 7.000200947692786e-01	 1.449400170523941e+01
 1.319904033786076e+00	 7.126382964697052e-01	 1.443786871826365e+01
 1.313039087885682e+00	 7.252091792609463e-01	 1.438264535942439e+01
 1.306044900544536e+00	 7.377307894900507e-01	 1.432654339607360e+01
 1.298921935467641e+00	 7.502011767259477e-01	 1.426772198217903e+01
 1.291670694905039e+00	 7.626183946926106e-01	 1.420429588467194e+01
 1.284291719664787e+00	 7.749805022066450e-01	 1.413434419681539e+01
 1.357579648438817e+00	 6.516587750075885e-01	 1.473189793604964e+01
 1.351342155287149e+00	 6.644968323803626e-01	 1.465757473681576e+01
 1.344973164372314e+00	 6.772952443491517e-01	 1.459059234036867e+01
 1.338472948861412e+00	 6.900520459109520e-01	 1.452943292697082e+01
 1.331841820156002e+00	 7.027652716115109e-01	 1.447249688410449e+01
 1.325080128036217e+00	 7.154329564558610e-01	 1.441810905782101e+01
 1.318188260779352e+00	 7.280531368266753e-01	 1.436452553385835e+01
 1.311166645252553e+00	 7.406238514096196e-01	 1.430994094535439e+01
 1.304015746979279e+00	 7.531431421248730e-01	 1.425249630110235e+01
 1.296736070179176e+00	 7.656090550639542e-01	 1.419028732528745e+01
 1.289328157781120e+00	 7.780196414309851e-01	 1.412137329652963e+01
 1.362882693940532e+00	 6.542043170974620e-01	 1.470272829265068e+01
 1.356620835581239e+00	 6.670925231318482e-01	 1.463047263758357e+01
 1.350226965795643e+00	 6.799409288973906e-01	 1.456549211178898e+01
 1.343701358817901e+00	 6.927475617152916e-01	 1.450625916317158e+01
 1.337044327265986e+00	 7.055104484537434e-01	 1.445116334693168e+01
 1.330256222286359e+00	 7.182276164420169e-01	 1.439851764095679e+01
 1.323337433673021e+00	 7.308970943924046e-01	 1.434656530217724e+01
 1.316288389960572e+00	 7.435169133291882e-01	 1.429348726104502e+01
 1.309109558490917e+00	 7.560851075237985e-01	 1.423741004835404e+01
 1.301801445453313e+00	 7.685997154352978e-01	 1.417641424555177e+01
 1.294364595897452e+00	 7.810587806553249e-01	 1.410854344651014e+01
 1.368185739442246e+00	 6.567498591873353e-01	 1.467361097155897e+01
 1.361899515875330e+00	 6.696882138833340e-01	 1.460346202549552e+01
 1.355480767218973e+00	 6.825866134456295e-01	 1.454050827740027e+01
 1.348929768774391e+00	 6.954430775196312e-01	 1.448321488164257e+01
 1.342246834375971e+00	 7.082556252959759e-01	 1.442996324259360e+01
 1.335432316536501e+00	 7.210222764281725e-01	 1.437905739184383e+01
 1.328486606566690e+00	 7.337410519581335e-01	 1.432873091740632e+01
 1.321410134668588e+00	 7.464099752487572e-01	 1.427715444240735e+01
 1.314203370002555e+00	 7.590270729227236e-01	 1.422244364776953e+01
 1.306866820727450e+00	 7.715903758066412e-01	 1.416266783025930e+01
 1.299401034013784e+00	 7.840979198796647e-01	 1.409585898402159e+01
 1.373488784943959e+00	 6.592954012772085e-01	 1.464453510714008e+01
 1.367178196169420e+00	 6.722839046348199e-01	 1.457652247255461e+01
 1.360734568642302e+00	 6.852322979938682e-01	 1.451561347514156e+01
 1.354158178730881e+00	 6.981385933239710e-01	 1.446026839030921e+01
 1.347449341485955e+00	 7.110008021382083e-01	 1.440886312610911e+01
 1.340608410786642e+00	 7.238169364143282e-01	 1.435969566001409e+01
 1.333635779460359e+00	 7.365850095238629e-01	 1.431099303853209e+01
 1.326531879376607e+00	 7.493030371683261e-01	 1.426091893751783e+01
 1.319297181514193e+00	 7.619690383216490e-01	 1.420758177798281e+01
 1.311932196001588e+00	 7.745810361779848e-01	 1.414904338901391e+01
 1.304437472130117e+00	 7.871370591040044e-01	 1.408332820608740e+01
 1.378791830445674e+00	 6.618409433670821e-01	 1.461549369381031e+01
 1.372456876463511e+00	 6.748795953863057e-01	 1.454963758711899e+01
 1.365988370065631e+00	 6.878779825421073e-01	 1.449078451461950e+01
 1.359386588687371e+00	 7.008341091283107e-01	 1.443739226385648e+01
 1.352651848595940e+00	 7.137459789804408e-01	 1.438783387492294e+01
 1.345784505036784e+00	 7.266115964004840e-01	 1.434040413447928e+01
 1.338784952354029e+00	 7.394289670895923e-01	 1.429332664329759e+01
 1.331653624084624e+00	 7.521960990878946e-01	 1.424476145556070e+01
 1.324390993025830e+00	 7.649110037205741e-01	 1.419281328503170e+01
 1.316997571275725e+00	 7.775716965493286e-01	 1.413554026994884e+01
 1.309473910246449e+00	 7.901761983283442e-01	 1.407096328511659e+01
 1.259109529083124e+00	 7.597848060849464e-01	 1.420145049135122e+01
 1.251750577547989e+00	 7.718485922729547e-01	 1.412254419983505e+01
 1.244267569668975e+00	 7.838545610351000e-01	 1.404313706996180e+01
 1.236661148866620e+00	 7.958008297742335e-01	 1.396251770130129e+01
 1.228931996147653e+00	 8.076855245886307e-01	 1.388003315819498e+01
 1.221080829983534e+00	 8.195067811996368e-01	 1.379509769003043e+01
 1.213108406161778e+00	 8.312627458782800e-01	 1.370720165611989e+01
 1.205015517610011e+00	 8.429515763699271e-01	 1.361592062353888e+01
 1.196802994192757e+00	 8.545714428160569e-01	 1.352092460364257e+01
 1.188471702480975e+00	 8.661205286722169e-01	 1.342198739042158e+01
 1.180022545494400e+00	 8.775970316212243e-01	 1.331899596139461e+01
 1.264145967199457e+00	 7.628239453092862e-01	 1.418769488343002e+01
 1.256757579858181e+00	 7.749359866420463e-01	 1.411003919772647e+01
 1.249244639947651e+00	 7.869899792792409e-01	 1.403212957282530e+01
 1.241607793462086e+00	 7.989840330933303e-01	 1.395318327175885e+01
 1.233847724132244e+00	 8.109162666869850e-01	 1.387247419701831e+01
 1.225965153303469e+00	 8.227848083244357e-01	 1.378934183982517e+01
 1.217960839786425e+00	 8.345877968617931e-01	 1.370320044678020e+01
 1.209835579680451e+00	 8.463233826754065e-01	 1.361354837175597e+01
 1.201590206169528e+00	 8.579897285873213e-01	 1.351997757818074e+01
 1.193225589290899e+00	 8.695850107869054e-01	 1.342218325421863e+01
 1.184742635676377e+00	 8.811074197477092e-01	 1.331997350080395e+01
 1.269182405315790e+00	 7.658630845336262e-01	 1.417412099870760e+01
 1.261764582168373e+00	 7.780233810111382e-01	 1.409765065945754e+01
 1.254221710226327e+00	 7.901253975233812e-01	 1.402116867007521e+01
 1.246554438057553e+00	 8.021672364124273e-01	 1.394382160140864e+01
 1.238763452116834e+00	 8.141470087853397e-01	 1.386481075778264e+01
 1.230849476623403e+00	 8.260628354492339e-01	 1.378340135581191e+01
 1.222813273411072e+00	 8.379128478453067e-01	 1.369893193372324e+01
 1.214655641750891e+00	 8.496951889808865e-01	 1.361082395856556e+01
 1.206377418146299e+00	 8.614080143585853e-01	 1.351859159588443e+01
 1.197979476100823e+00	 8.730494929015945e-01	 1.342185160370935e+01
 1.189462725858355e+00	 8.846178078741939e-01	 1.332033331006966e+01
 1.274218843432122e+00	 7.689022237579657e-01	 1.416071210512213e+01
 1.266771584478565e+00	 7.811107753802302e-01	 1.408537679935577e+01
 1.259198780505003e+00	 7.932608157675214e-01	 1.401026684502595e+01
 1.251501082653019e+00	 8.053504397315239e-01	 1.393445875345139e+01
 1.243679180101425e+00	 8.173777508836945e-01	 1.385708178227877e+01
 1.235733799943337e+00	 8.293408625740325e-01	 1.377732734438503e+01
 1.227665707035719e+00	 8.412378988288197e-01	 1.369445866078242e+01
 1.219475703821331e+00	 8.530669952863663e-01	 1.360782062442098e+01
 1.211164630123071e+00	 8.648263001298497e-01	 1.351684983889540e+01
 1.202733362910746e+00	 8.765139750162831e-01	 1.342108479324541e+01
 1.194182816040332e+00	 8.881281960006788e-01	 1.332017613132156e+01
 1.279255281548454e+00	 7.719413629823053e-01	 1.414745585437155e+01
 1.271778586788757e+00	 7.841981697493219e-01	 1.407322002651959e+01
 1.264175850783678e+00	 7.963962340116616e-01	 1.399944059906469e+01
 1.256447727248485e+00	 8.085336430506210e-01	 1.392512464503712e+01
 1.248594908086015e+00	 8.206084929820486e-01	 1.384932991495925e+01
 1.240618123263271e+00	 8.326188896988312e-01	 1.377117447638455e+01
 1.232518140660366e+00	 8.445629498123325e-01	 1.368984661130186e+01
 1.224295765891771e+00	 8.564388015918458e-01	 1.360461493781634e+01
 1.215951842099842e+00	 8.682445859011136e-01	 1.351483871954840e+01
 1.207487249720670e+00	 8.799784571309717e-01	 1.341997832327620e+01
 1.198902906222310e+00	 8.916385841271637e-01	 1.331960578254750e+01
 1.284291719664787e+00	 7.749805022066450e-01	 1.413434419681539e+01
 1.276785589098949e+00	 7.872855641184134e-01	 1.406118686238968e+01
 1.269152921062355e+00	 7.995316522558020e-01	 1.398871037177426e+01
 1.261394371843952e+00	 8.117168463697180e-01	 1.391585296982254e+01
 1.253510636070606e+00	 8.238392350804031e-01	 1.384160142781123e+01
 1.245502446583205e+00	 8.358969168236295e-01	 1.376500091416455e+01
 1.237370574285013e+00	 8.478880007958458e-01	 1.368516513727854e+01
 1.229115827962211e+00	 8.598106078973254e-01	 1.360128672638098e+01
 1.220739054076613e+00	 8.716628716723779e-01	 1.351264781329558e+01
 1.212241136530594e+00	 8.834429392456608e-01	 1.341863077497899e+01
 1.203622996404288e+00	 8.951489722536486e-01	 1.331872909380444e+01
 1.289328157781120e+00	 7.780196414309851e-01	 1.412137329652963e+01
 1.281792591409141e+00	 7.903729584875053e-01	 1.404928785838471e+01
 1.274129991341030e+00	 8.026670704999427e-01	 1.397810046103791e+01
 1.266341016439419e+00	 8.149000496888150e-01	 1.390668112043058e+01
 1.258426364055197e+00	 8.270699771787579e-01	 1.383394614505582e+01
 1.250386769903139e+00	 8.391749439484281e-01	 1.375886823841608e+01
 1.242223007909660e+00	 8.512130517793586e-01	 1.368048688819483e+01
 1.233935890032651e+00	 8.631824142028054e-01	 1.359791900760314e+01
 1.225526266053383e+00	 8.750811574436420e-01	 1.351036979120223e+01
 1.216995023340518e+00	 8.869074213603496e-01	 1.341714374440912e+01
 1.208343086586265e+00	 8.986593603801336e-01	 1.331765584290202e+01
 1.294364595897452e+00	 7.810587806553249e-01	 1.410854344651014e+01
 1.286799593719333e+00	 7.934603528565973e-01	 1.403753751360080e+01
 1.279107061619706e+00	 8.058024887440829e-01	 1.396763894312498e+01
 1.271287661034885e+00	 8.180832530079121e-01	 1.389765011081259e+01
 1.263342092039787e+00	 8.303007192771121e-01	 1.382641736767709e+01
 1.255271093223073e+00	 8.424529710732268e-01	 1.375284137475335e+01
 1.247075441534308e+00	 8.545381027628718e-01	 1.367588773954775e+01
 1.238755952103091e+00	 8.665542205082850e-01	 1.359459791919118e+01
 1.230313478030155e+00	 8.784994432149065e-01	 1.350810035202743e+01
 1.221748910150442e+00	 8.903719034750384e-01	 1.341562177618263e+01
 1.213063176768243e+00	 9.021697485066186e-01	 1.331649869057403e+01
 1.299401034013784e+00	 7.840979198796647e-01	 1.409585898402159e+01
 1.291806596029525e+00	 7.965477472256891e-01	 1.402595419257178e+01
 1.284084131898382e+00	 8.089379069882233e-01	 1.395735759275824e+01
 1.276234305630352e+00	 8.212664563270090e-01	 1.388880449851819e+01
 1.268257820024378e+00	 8.335314613754665e-01	 1.381907179778819e+01
 1.260155416543008e+00	 8.457309981980253e-01	 1.374698852006838e+01
 1.251927875158955e+00	 8.578631537463851e-01	 1.367144672108609e+01
 1.243576014173531e+00	 8.699260268137645e-01	 1.359141264908406e+01
 1.235100690006926e+00	 8.819177289861708e-01	 1.350593815389795e+01
 1.226502796960366e+00	 8.938363855897273e-01	 1.341417229670634e+01
 1.217783266950220e+00	 9.056801366331034e-01	 1.331537311515109e+01
 1.304437472130117e+00	 7.871370591040044e-01	 1.408332820608740e+01
 1.296813598339717e+00	 7.996351415947809e-01	 1.401456004308912e+01
 1.289061202177058e+00	 8.120733252323639e-01	 1.394729180316391e+01
 1.281180950225818e+00	 8.244496596461057e-01	 1.388019230687329e+01
 1.273173548008968e+00	 8.367622034738211e-01	 1.381196946283606e+01
 1.265039739862941e+00	 8.490090253228240e-01	 1.374138106866026e+01
 1.256780308783602e+00	 8.611882047298980e-01	 1.366724594476081e+01
 1.248396076243971e+00	 8.732978331192441e-01	 1.358845536511892e+01
 1.239887901983697e+00	 8.853360147574348e-01	 1.350398474558847e+01
 1.231256683770290e+00	 8.973008677044161e-01	 1.341290554696416e+01
 1.222503357132198e+00	 9.091905247595881e-01	 1.331439734674795e+01
 1.309473910246449e+00	 7.901761983283442e-01	 1.407096328511659e+01
 1.301820600649909e+00	 8.027225359638727e-01	 1.400338091408055e+01
 1.294038272455734e+00	 8.152087434765042e-01	 1.393748050610445e+01
 1.286127594821285e+00	 8.276328629652027e-01	 1.387186494707056e+01
 1.278089275993559e+00	 8.399929455721757e-01	 1.380517363965074e+01
 1.269924063182876e+00	 8.522870524476224e-01	 1.373609353814587e+01
 1.261632742408249e+00	 8.645132557134111e-01	 1.366337053239725e+01
 1.253216138314411e+00	 8.766696394247243e-01	 1.358582114436589e+01
 1.244675113960468e+00	 8.887543005286992e-01	 1.350234449741885e+01
 1.236010570580214e+00	 9.007653498191053e-01	 1.341193451487505e+01
 1.227223447314176e+00	 9.127009128860734e-01	 1.331369230097923e+01
 1.180022545494400e+00	 8.775970316212243e-01	 1.331899596139461e+01
 1.171456462416809e+00	 8.889991644806882e-01	 1.320923734940145e+01
 1.162774428284325e+00	 9.003251561039085e-01	 1.308989481737122e+01
 1.153977453646939e+00	 9.115732522732304e-01	 1.296248941543078e+01
 1.145066584203456e+00	 9.227417165849257e-01	 1.282890443017715e+01
 1.136042900410122e+00	 9.338288313246841e-01	 1.269121382422092e+01
 1.126907517063181e+00	 9.448328983328023e-01	 1.255167676430547e+01
 1.117661582855719e+00	 9.557522398581736e-01	 1.241273115827664e+01
 1.108306279909112e+00	 9.665851994001837e-01	 1.227698621869426e+01
 1.098842823279484e+00	 9.773301425376382e-01	 1.214721407634961e+01
 1.089272460439592e+00	 9.879854577438593e-01	 1.202634047235691e+01
 1.184742635676377e+00	 8.811074197477092e-01	 1.331997350080395e+01
 1.176142288266476e+00	 8.925551611386109e-01	 1.321108946840759e+01
 1.167425525997463e+00	 9.039264567283243e-01	 1.309308804555298e+01
 1.158593363461526e+00	 9.152195452823232e-01	 1.296676663307325e+01
 1.149646850540270e+00	 9.264326834512656e-01	 1.283405905846825e+01
 1.140587072011762e+00	 9.375641466499828e-01	 1.269709660148566e+01
 1.131415147131434e+00	 9.486122299261336e-01	 1.255820239693339e+01
 1.122132229187142e+00	 9.595752488176061e-01	 1.241988481775349e+01
 1.112739505028749e+00	 9.704515401977846e-01	 1.228482985649661e+01
 1.103238194572602e+00	 9.812394631077888e-01	 1.215589252895315e+01
 1.093629550281351e+00	 9.919373995748347e-01	 1.203608732923332e+01
 1.189462725858355e+00	 8.846178078741939e-01	 1.332033331006966e+01
 1.180828114116144e+00	 8.961111577965338e-01	 1.321196577935492e+01
 1.172076623710600e+00	 9.075277573527395e-01	 1.309518167847220e+01
 1.163209273276114e+00	 9.188658382914162e-01	 1.297007451216959e+01
 1.154227116877084e+00	 9.301236503176054e-01	 1.283838928033314e+01
 1.145131243613403e+00	 9.412994619752816e-01	 1.270230798719878e+01
 1.135922777199687e+00	 9.523915615194648e-01	 1.256421105630036e+01
 1.126602875518565e+00	 9.633982577770392e-01	 1.242667056687482e+01
 1.117172730148384e+00	 9.743178809953851e-01	 1.229244246018403e+01
 1.107633565865720e+00	 9.851487836779390e-01	 1.216445773999200e+01
 1.097986640123109e+00	 9.958893414058105e-01	 1.204581269711673e+01
 1.194182816040332e+00	 8.881281960006788e-01	 1.332017613132156e+01
 1.185513939965811e+00	 8.996671544544564e-01	 1.321225788781874e+01
 1.176727721423737e+00	 9.111290579771556e-01	 1.309623584589574e+01
 1.167825183090701e+00	 9.225121313005086e-01	 1.297247491701431e+01
 1.158807383213898e+00	 9.338146171839452e-01	 1.284195686718431e+01
 1.149675415215043e+00	 9.450347773005799e-01	 1.270690718260653e+01
 1.140430407267939e+00	 9.561708931127957e-01	 1.256975697020980e+01
 1.131073521849987e+00	 9.672212667364714e-01	 1.243313533450844e+01
 1.121605955268021e+00	 9.781842217929860e-01	 1.229986141568247e+01
 1.112028937158837e+00	 9.890581042480898e-01	 1.217293539355197e+01
 1.102343729964868e+00	 9.998412832367856e-01	 1.205552848798362e+01
 1.198902906222310e+00	 8.916385841271637e-01	 1.331960578254750e+01
 1.190199765815478e+00	 9.032231511123792e-01	 1.321207762660842e+01
 1.181378819136875e+00	 9.147303586015709e-01	 1.309658344463094e+01
 1.172441092905290e+00	 9.261584243096022e-01	 1.297403355755944e+01
 1.163387649550712e+00	 9.375055840502846e-01	 1.284482749368803e+01
 1.154219586816684e+00	 9.487700926258790e-01	 1.271095737264079e+01
 1.144938037336192e+00	 9.599502247061268e-01	 1.257489845219887e+01
 1.135544168181411e+00	 9.710442756959043e-01	 1.243933025770490e+01
 1.126039180387657e+00	 9.820505625905867e-01	 1.230712845873877e+01
 1.116424308451955e+00	 9.929674248182403e-01	 1.218135568315513e+01
 1.106700819806626e+00	 1.003793225067761e+00	 1.206525129963727e+01
 1.203622996404288e+00	 8.951489722536486e-01	 1.331872909380444e+01
 1.194885591665145e+00	 9.067791477703017e-01	 1.321153852003301e+01
 1.186029916850012e+00	 9.183316592259866e-01	 1.309654497958767e+01
 1.177057002719877e+00	 9.298047173186950e-01	 1.297482350707582e+01
 1.167967915887525e+00	 9.411965509166241e-01	 1.284707084223113e+01
 1.158763758418324e+00	 9.525054079511773e-01	 1.271452582939781e+01
 1.149445667404445e+00	 9.637295562994580e-01	 1.257969800335368e+01
 1.140014814512833e+00	 9.748672846553370e-01	 1.244531078119798e+01
 1.130472405507294e+00	 9.859169033881875e-01	 1.231428977147751e+01
 1.120819679745073e+00	 9.968767453883909e-01	 1.218975340477349e+01
 1.111057909648384e+00	 1.007745166898736e+00	 1.207500250459770e+01
 1.208343086586265e+00	 8.986593603801336e-01	 1.331765584290201e+01
 1.199571417514813e+00	 9.103351444282246e-01	 1.321075699894102e+01
 1.190681014563149e+00	 9.219329598504025e-01	 1.309624126765806e+01
 1.181672912534465e+00	 9.334510103277877e-01	 1.297518709706147e+01
 1.172548182224340e+00	 9.448875177829638e-01	 1.284876070680957e+01
 1.163307930019965e+00	 9.562407232764765e-01	 1.271768401506584e+01
 1.153953297472697e+00	 9.675088878927893e-01	 1.258422241361434e+01
 1.144485460844256e+00	 9.786902936147698e-01	 1.245113675644712e+01
 1.134905630626930e+00	 9.897832441857878e-01	 1.232139607856779e+01
 1.125215051038191e+00	 1.000786065958541e+00	 1.219816804952806e+01
 1.115414999490143e+00	 1.011697108729712e+00	 1.208480833877253e+01
 1.213063176768243e+00	 9.021697485066186e-01	 1.331649869057403e+01
 1.204257243364480e+00	 9.138911410861472e-01	 1.320985233702605e+01
 1.195332112276286e+00	 9.255342604748176e-01	 1.309579596535113e+01
 1.186288822349053e+00	 9.370973033368808e-01	 1.297540510482744e+01
 1.177128448561154e+00	 9.485784846493038e-01	 1.284997897548189e+01
 1.167852101621605e+00	 9.599760386017751e-01	 1.272050768431722e+01
 1.158460927540950e+00	 9.712882194861207e-01	 1.258854286258151e+01
 1.148956107175679e+00	 9.825133025742022e-01	 1.245687254023407e+01
 1.139338855746566e+00	 9.936495849833887e-01	 1.232850274300711e+01
 1.129610422331309e+00	 1.004695386528692e+00	 1.220664389608403e+01
 1.119772089331901e+00	 1.015649050560687e+00	 1.209469998990762e+01
 1.217783266950220e+00	 9.056801366331034e-01	 1.331537311515109e+01
 1.208943069214147e+00	 9.174471377440703e-01	 1.320894658659846e+01
 1.199983209989424e+00	 9.291355610992336e-01	 1.309533550510137e+01
 1.190904732163640e+00	 9.407435963459735e-01	 1.297560620337690e+01
 1.181708714897967e+00	 9.522694515156435e-01	 1.285105217781857e+01
 1.172396273223246e+00	 9.637113539270737e-01	 1.272307698617934e+01
 1.162968557609203e+00	 9.750675510794514e-01	 1.259273501983996e+01
 1.153426753507102e+00	 9.863363115336350e-01	 1.246258709282698e+01
 1.143772080866203e+00	 9.975159257809895e-01	 1.233566986153564e+01
 1.134005793624427e+00	 1.008604707098842e+00	 1.221523010274943e+01
 1.124129179173659e+00	 1.019600992391663e+00	 1.210471368582962e+01
 1.222503357132198e+00	 9.091905247595881e-01	 1.331439734674795e+01
 1.213628895063815e+00	 9.210031344019929e-01	 1.320816451383865e+01
 1.204634307702561e+00	 9.327368617236490e-01	 1.309498903103923e+01
 1.195520641978228e+00	 9.443898893550666e-01	 1.297592180990662e+01
 1.186288981234780e+00	 9.559604183819826e-01	 1.285224420291036e+01
 1.176940444824886e+00	 9.674466692523722e-01	 1.272547833336798e+01
 1.167476187677455e+00	 9.788468826727827e-01	 1.259687914481079e+01
 1.157897399838525e+00	 9.901593204930675e-01	 1.246835407572129e+01
 1.148205305985840e+00	 1.001382266578590e+00	 1.234296235969020e+01
 1.138401164917545e+00	 1.012514027668993e+00	 1.222398079928539e+01
 1.128486269015418e+00	 1.023552934222638e+00	 1.211489078248184e+01
 1.227223447314176e+00	 9.127009128860734e-01	 1.331369230097923e+01
 1.218314720913481e+00	 9.245591310599152e-01	 1.320763353354577e+01
 1.209285405415699e+00	 9.363381623480651e-01	 1.309488833423927e+01
 1.200136551792816e+00	 9.480361823641598e-01	 1.297648602104090e+01
 1.190869247571595e+00	 9.596513852483228e-01	 1.285368943512450e+01
 1.181484616426527e+00	 9.711819845776714e-01	 1.272800555255933e+01
 1.171983817745709e+00	 9.826262142661144e-01	 1.260106018614618e+01
 1.162368046169948e+00	 9.939823294525006e-01	 1.247425194897128e+01
 1.152638531105476e+00	 1.005248607376191e+00	 1.235045008650538e+01
 1.142796536210663e+00	 1.016423348239144e+00	 1.223295517843558e+01
 1.132843358857176e+00	 1.027504876053614e+00	 1.212527785176110e+01
 1.089272460439592e+00	 9.879854577438593e-01	 1.202634047235691e+01
 1.079596470736595e+00	 9.985495571871008e-01	 1.190375704076901e+01
 1.069816164826181e+00	 1.009020877515459e+00	 1.176849985087630e+01
 1.059932884083604e+00	 1.019397880625460e+00	 1.162313221218882e+01
 1.049947999992147e+00	 1.029679054413537e+00	 1.147029073378898e+01
 1.039862913509629e+00	 1.039862913509629e+00	 1.131267352067135e+01
 1.029679054413538e+00	 1.049947999992147e+00	 1.115302778196521e+01
 1.019397880625461e+00	 1.059932884083604e+00	 1.099413690999403e+01
 1.009020877515460e+00	 1.069816164826181e+00	 1.083880709266241e+01
 9.985495571871013e-01	 1.079596470736595e+00	 1.068985352485911e+01
 9.879854577438593e-01	 1.089272460439593e+00	 1.055008628739692e+01
 1.093629550281351e+00	 9.919373995748347e-01	 1.203608732923332e+01
 1.083914856619541e+00	 1.002543755415849e+00	 1.191463290580801e+01
 1.074095429485486e+00	 1.013056961025521e+00	 1.178034291379375e+01
 1.064172615619938e+00	 1.023475472147962e+00	 1.163580152825667e+01
 1.054147791992116e+00	 1.033797770631192e+00	 1.148366873142500e+01
 1.044022365163667e+00	 1.044022365163667e+00	 1.132666827834204e+01
 1.033797770631192e+00	 1.054147791992115e+00	 1.116757505700203e+01
 1.023475472147962e+00	 1.064172615619938e+00	 1.100920190321531e+01
 1.013056961025521e+00	 1.074095429485486e+00	 1.085438593407006e+01
 1.002543755415850e+00	 1.083914856619541e+00	 1.070597446715686e+01
 9.919373995748346e-01	 1.093629550281351e+00	 1.056681059561738e+01
 1.097986640123109e+00	 9.958893414058105e-01	 1.204581269711673e+01
 1.088233242502488e+00	 1.006537953644598e+00	 1.192553726160880e+01
 1.078374694144791e+00	 1.017093044535583e+00	 1.179221682607303e+01
 1.068412347156273e+00	 1.027553063670464e+00	 1.164846451885833e+01
 1.058347583992085e+00	 1.037916486848846e+00	 1.149697211497313e+01
 1.048181816817706e+00	 1.048181816817706e+00	 1.134049775533705e+01
 1.037916486848846e+00	 1.058347583992084e+00	 1.118185304236442e+01
 1.027553063670464e+00	 1.068412347156272e+00	 1.102388957344517e+01
 1.017093044535583e+00	 1.078374694144791e+00	 1.086948497763164e+01
 1.006537953644598e+00	 1.088233242502488e+00	 1.072152852420279e+01
 9.958893414058103e-01	 1.097986640123109e+00	 1.058290637477742e+01
 1.102343729964868e+00	 9.998412832367856e-01	 1.205552848798362e+01
 1.092551628385434e+00	 1.010532151873346e+00	 1.193646833882092e+01
 1.082653958804096e+00	 1.021129128045645e+00	 1.180410827576212e+01
 1.072652078692607e+00	 1.031630655192966e+00	 1.166109838972179e+01
 1.062547375992053e+00	 1.042035203066500e+00	 1.151017058967071e+01
 1.052341268471744e+00	 1.052341268471744e+00	 1.135412605977971e+01
 1.042035203066500e+00	 1.062547375992053e+00	 1.119582207396843e+01
 1.031630655192966e+00	 1.072652078692607e+00	 1.103815823080910e+01
 1.021129128045645e+00	 1.082653958804095e+00	 1.088406217556239e+01
 1.010532151873346e+00	 1.092551628385434e+00	 1.073647487958550e+01
 9.998412832367854e-01	 1.102343729964868e+00	 1.059833555043413e+01
 1.106700819806626e+00	 1.003793225067761e+00	 1.206525129963727e+01
 1.096870014268380e+00	 1.014526350102094e+00	 1.194742921329769e+01
 1.086933223463400e+00	 1.025165211555707e+00	 1.181600890653661e+01
 1.076891810228942e+00	 1.035708246715468e+00	 1.167368536526383e+01
 1.066747167992021e+00	 1.046153919284154e+00	 1.152323889679827e+01
 1.056500720125783e+00	 1.056500720125783e+00	 1.136752230918203e+01
 1.046153919284154e+00	 1.066747167992021e+00	 1.120944742821194e+01
 1.035708246715468e+00	 1.076891810228941e+00	 1.105197101655219e+01
 1.025165211555707e+00	 1.086933223463400e+00	 1.089808016322755e+01
 1.014526350102095e+00	 1.096870014268380e+00	 1.075077721535367e+01
 1.003793225067761e+00	 1.106700819806626e+00	 1.061306432712688e+01
 1.111057909648384e+00	 1.007745166898736e+00	 1.207500250459770e+01
 1.101188400151327e+00	 1.018520548330843e+00	 1.195842789095721e+01
 1.091212488122705e+00	 1.029201295065769e+00	 1.182791539924525e+01
 1.081131541765276e+00	 1.039785838237969e+00	 1.168621276751755e+01
 1.070946959991990e+00	 1.050272635501808e+00	 1.153615689064874e+01
 1.060660171779821e+00	 1.060660171779821e+00	 1.138066070609568e+01
 1.050272635501809e+00	 1.070946959991990e+00	 1.122269939691266e+01
 1.039785838237970e+00	 1.081131541765276e+00	 1.106529597784487e+01
 1.029201295065769e+00	 1.091212488122705e+00	 1.091150633436574e+01
 1.018520548330843e+00	 1.101188400151327e+00	 1.076440378818091e+01
 1.007745166898736e+00	 1.111057909648384e+00	 1.062706326597251e+01
 1.115414999490143e+00	 1.011697108729712e+00	 1.208480833877253e+01
 1.105506786034273e+00	 1.022514746559591e+00	 1.196947739250545e+01
 1.095491752782010e+00	 1.033237378575830e+00	 1.183982955338961e+01
 1.085371273301611e+00	 1.043863429760471e+00	 1.169867309503931e+01
 1.075146751991959e+00	 1.054391351719462e+00	 1.154890961551249e+01
 1.064819623433860e+00	 1.064819623433859e+00	 1.139352061379318e+01
 1.054391351719463e+00	 1.075146751991958e+00	 1.123555336227885e+01
 1.043863429760472e+00	 1.085371273301610e+00	 1.107810614260805e+01
 1.033237378575830e+00	 1.095491752782009e+00	 1.092431291630426e+01
 1.022514746559592e+00	 1.105506786034273e+00	 1.077732750547630e+01
 1.011697108729712e+00	 1.115414999490143e+00	 1.064030736215364e+01
 1.119772089331901e+00	 1.015649050560687e+00	 1.209469998990762e+01
 1.109825171917219e+00	 1.026508944788339e+00	 1.198059583802732e+01
 1.099771017441314e+00	 1.037273462085892e+00	 1.185175836853662e+01
 1.089611004837945e+00	 1.047941021282973e+00	 1.171106410180015e+01
 1.079346543991927e+00	 1.058510067937116e+00	 1.156148738267690e+01
 1.068979075087898e+00	 1.068979075087898e+00	 1.140608663198002e+01
 1.058510067937117e+00	 1.079346543991927e+00	 1.124798987191194e+01
 1.047941021282974e+00	 1.089611004837944e+00	 1.109037959435531e+01
 1.037273462085892e+00	 1.099771017441314e+00	 1.093647704516338e+01
 1.026508944788340e+00	 1.109825171917219e+00	 1.078952600144734e+01
 1.015649050560687e+00	 1.119772089331901e+00	 1.065277612230154e+01
 1.124129179173659e+00	 1.019600992391663e+00	 1.210471368582962e+01
 1.114143557800166e+00	 1.030503143017088e+00	 1.199180653144930e+01
 1.104050282100619e+00	 1.041309545595954e+00	 1.186371412566630e+01
 1.093850736374279e+00	 1.052018612805475e+00	 1.172338887605968e+01
 1.083546335991896e+00	 1.062628784154770e+00	 1.157388584744056e+01
 1.073138526741937e+00	 1.073138526741936e+00	 1.141834867253856e+01
 1.062628784154771e+00	 1.083546335991896e+00	 1.125999471383982e+01
 1.052018612805475e+00	 1.093850736374279e+00	 1.110209954705290e+01
 1.041309545595954e+00	 1.104050282100619e+00	 1.094798084105110e+01
 1.030503143017089e+00	 1.114143557800166e+00	 1.080098171310891e+01
 1.019600992391663e+00	 1.124129179173659e+00	 1.066445364177826e+01
 1.128486269015418e+00	 1.023552934222638e+00	 1.211489078248184e+01
 1.118461943683112e+00	 1.034497341245836e+00	 1.200313804487657e+01
 1.108329546759924e+00	 1.045345629106016e+00	 1.187571446845827e+01
 1.098090467910614e+00	 1.056096204327977e+00	 1.173565591922445e+01
 1.087746127991865e+00	 1.066747500372425e+00	 1.158610608614219e+01
 1.077297978395975e+00	 1.077297978395975e+00	 1.143030203529934e+01
 1.066747500372425e+00	 1.087746127991864e+00	 1.127155899158162e+01
 1.056096204327977e+00	 1.098090467910613e+00	 1.111325441999665e+01
 1.045345629106016e+00	 1.108329546759923e+00	 1.095881148324866e+01
 1.034497341245836e+00	 1.118461943683112e+00	 1.081168195624740e+01
 1.023552934222638e+00	 1.128486269015418e+00	 1.067532868185738e+01
 1.132843358857176e+00	 1.027504876053614e+00	 1.212527785176110e+01
 1.122780329566059e+00	 1.038491539474585e+00	 1.201462430280748e+01
 1.112608811419229e+00	 1.049381712616078e+00	 1.188778248451641e+01
 1.102330199446948e+00	 1.060173795850479e+00	 1.174787922468912e+01
 1.091945919991833e+00	 1.070866216590079e+00	 1.159815467320269e+01
 1.081457430050014e+00	 1.081457430050014e+00	 1.144194748384342e+01
 1.070866216590079e+00	 1.091945919991833e+00	 1.128267919924060e+01
 1.060173795850479e+00	 1.102330199446948e+00	 1.112383791270589e+01
 1.049381712616078e+00	 1.112608811419229e+00	 1.096896128538751e+01
 1.038491539474585e+00	 1.122780329566058e+00	 1.082161900133642e+01
 1.027504876053614e+00	 1.132843358857176e+00	 1.068539474681143e+01
 9.879854577438593e-01	 1.089272460439593e+00	 1.055008628739692e+01
 9.773301425376386e-01	 1.098842823279484e+00	 1.040988943166290e+01
 9.665851994001841e-01	 1.108306279909111e+00	 1.025947453443240e+01
 9.557522398581739e-01	 1.117661582855719e+00	 1.010132211197848e+01
 9.448328983328024e-01	 1.126907517063181e+00	 9.937823700087819e+00
 9.338288313246844e-01	 1.136042900410122e+00	 9.771268050755127e+00
 9.227417165849262e-01	 1.145066584203457e+00	 9.603827483186361e+00
 9.115732522732308e-01	 1.153977453646938e+00	 9.437544464220702e+00
 9.003251561039085e-01	 1.162774428284325e+00	 9.274318492680395e+00
 8.889991644806886e-01	 1.171456462416809e+00	 9.115893361116028e+00
 8.775970316212243e-01	 1.180022545494400e+00	 8.963269581594314e+00
 9.919373995748346e-01	 1.093629550281351e+00	 1.056681059561738e+01
 9.812394631077890e-01	 1.103238194572601e+00	 1.042713400664424e+01
 9.704515401977849e-01	 1.112739505028748e+00	 1.027706286733079e+01
 9.595752488176066e-01	 1.122132229187141e+00	 1.011918834454887e+01
 9.486122299261340e-01	 1.131415147131434e+00	 9.956013240818855e+00
 9.375641466499832e-01	 1.140587072011762e+00	 9.789937746614333e+00
 9.264326834512658e-01	 1.149646850540270e+00	 9.623245344782887e+00
 9.152195452823239e-01	 1.158593363461526e+00	 9.458088944216657e+00
 9.039264567283244e-01	 1.167425525997463e+00	 9.296477319307627e+00
 8.925551611386110e-01	 1.176142288266476e+00	 9.140261930668840e+00
 8.811074197477091e-01	 1.184742635676377e+00	 8.988172710093888e+00
 9.958893414058103e-01	 1.097986640123109e+00	 1.058290637477742e+01
 9.851487836779397e-01	 1.107633565865720e+00	 1.044372724975600e+01
 9.743178809953859e-01	 1.117172730148384e+00	 1.029401833812911e+01
 9.633982577770396e-01	 1.126602875518565e+00	 1.013647510195884e+01
 9.523915615194649e-01	 1.135922777199686e+00	 9.973705095847532e+00
 9.412994619752819e-01	 1.145131243613403e+00	 9.808213278369582e+00
 9.301236503176057e-01	 1.154227116877084e+00	 9.642387473529290e+00
 9.188658382914169e-01	 1.163209273276114e+00	 9.478484061419628e+00
 9.075277573527399e-01	 1.172076623710600e+00	 9.318613976653054e+00
 8.961111577965342e-01	 1.180828114116144e+00	 9.164105399448829e+00
 8.846178078741938e-01	 1.189462725858355e+00	 9.011743040970659e+00
 9.998412832367854e-01	 1.102343729964868e+00	 1.059833555043413e+01
 9.890581042480903e-01	 1.112028937158837e+00	 1.045963334717591e+01
 9.781842217929863e-01	 1.121605955268021e+00	 1.031030505236209e+01
 9.672212667364718e-01	 1.131073521849987e+00	 1.015314418891194e+01
 9.561708931127961e-01	 1.140430407267939e+00	 9.990856672181263e+00
 9.450347773005806e-01	 1.149675415215043e+00	 9.826045683834629e+00
 9.338146171839453e-01	 1.158807383213898e+00	 9.661196693749973e+00
 9.225121313005094e-01	 1.167825183090702e+00	 9.498662711187752e+00
 9.111290579771555e-01	 1.176727721423737e+00	 9.340648343466793e+00
 8.996671544544567e-01	 1.185513939965811e+00	 9.186717421522291e+00
 8.881281960006789e-01	 1.194182816040332e+00	 9.034200763738149e+00
 1.003793225067761e+00	 1.106700819806626e+00	 1.061306432712688e+01
 9.929674248182407e-01	 1.116424308451955e+00	 1.047482054189467e+01
 9.820505625905872e-01	 1.126039180387657e+00	 1.032589097756656e+01
 9.710442756959047e-01	 1.135544168181410e+00	 1.016916110354708e+01
 9.599502247061270e-01	 1.144938037336191e+00	 1.000742892681738e+01
 9.487700926258792e-01	 1.154219586816683e+00	 9.843389431356840e+00
 9.375055840502849e-01	 1.163387649550711e+00	 9.679619163692376e+00
 9.261584243096025e-01	 1.172441092905290e+00	 9.518561047891890e+00
 9.147303586015715e-01	 1.181378819136875e+00	 9.362020837398701e+00
 9.032231511123793e-01	 1.190199765815478e+00	 9.208326895688174e+00
 8.916385841271637e-01	 1.198902906222310e+00	 9.055766975865444e+00
 1.007745166898736e+00	 1.111057909648384e+00	 1.062706326597251e+01
 9.968767453883912e-01	 1.120819679745073e+00	 1.048926121261203e+01
 9.859169033881876e-01	 1.130472405507293e+00	 1.034074802277188e+01
 9.748672846553372e-01	 1.140014814512833e+00	 1.018449511684370e+01
 9.637295562994583e-01	 1.149445667404444e+00	 1.002338644541577e+01
 9.525054079511776e-01	 1.158763758418323e+00	 9.860202497142145e+00
 9.411965509166250e-01	 1.167967915887525e+00	 9.697604450926789e+00
 9.298047173186954e-01	 1.177057002719877e+00	 9.538114993012249e+00
 9.183316592259869e-01	 1.186029916850012e+00	 9.382489029136694e+00
 9.067791477703022e-01	 1.194885591665145e+00	 9.229167214672529e+00
 8.951489722536488e-01	 1.203622996404288e+00	 9.076663622077209e+00
 1.011697108729712e+00	 1.115414999490143e+00	 1.064030736215364e+01
 1.000786065958542e+00	 1.125215051038191e+00	 1.050293195247467e+01
 9.897832441857883e-01	 1.134905630626930e+00	 1.035485211778932e+01
 9.786902936147697e-01	 1.144485460844256e+00	 1.019911935180205e+01
 9.675088878927894e-01	 1.153953297472697e+00	 1.003869752073879e+01
 9.562407232764766e-01	 1.163307930019964e+00	 9.876446442353965e+00
 9.448875177829641e-01	 1.172548182224339e+00	 9.715105607533136e+00
 9.334510103277883e-01	 1.181672912534465e+00	 9.557062718726041e+00
 9.219329598504025e-01	 1.190681014563149e+00	 9.402296974958562e+00
 9.103351444282252e-01	 1.199571417514813e+00	 9.249472400005610e+00
 8.986593603801336e-01	 1.208343086586266e+00	 9.097113433621098e+00
 1.015649050560687e+00	 1.119772089331901e+00	 1.065277612230154e+01
 1.004695386528692e+00	 1.129610422331309e+00	 1.051581364765505e+01
 9.936495849833888e-01	 1.139338855746566e+00	 1.036818329230988e+01
 9.825133025742024e-01	 1.148956107175679e+00	 1.021301086241006e+01
 9.712882194861209e-01	 1.158460927540949e+00	 1.005333423086512e+01
 9.599760386017753e-01	 1.167852101621605e+00	 9.892086489988008e+00
 9.485784846493039e-01	 1.177128448561153e+00	 9.732079987851623e+00
 9.370973033368810e-01	 1.186288822349052e+00	 9.575449696156358e+00
 9.255342604748182e-01	 1.195332112276287e+00	 9.421689165675840e+00
 9.138911410861479e-01	 1.204257243364480e+00	 9.269477042162313e+00
 9.021697485066184e-01	 1.213063176768243e+00	 9.117339867498083e+00
 1.019600992391663e+00	 1.124129179173659e+00	 1.066445364177826e+01
 1.008604707098843e+00	 1.134005793624427e+00	 1.052789155577873e+01
 9.975159257809898e-01	 1.143772080866203e+00	 1.038072575481304e+01
 9.863363115336352e-01	 1.153426753507101e+00	 1.022615071239538e+01
 9.750675510794521e-01	 1.162968557609203e+00	 1.006727251718464e+01
 9.637113539270740e-01	 1.172396273223245e+00	 9.907091601531892e+00
 9.522694515156437e-01	 1.181708714897967e+00	 9.748597610837912e+00
 9.407435963459742e-01	 1.190904732163640e+00	 9.593529262520700e+00
 9.291355610992339e-01	 1.199983209989424e+00	 9.440910467186553e+00
 9.174471377440705e-01	 1.208943069214147e+00	 9.289416240617342e+00
 9.056801366331034e-01	 1.217783266950221e+00	 9.137567045662841e+00
 1.023552934222638e+00	 1.128486269015418e+00	 1.067532868185738e+01
 1.012514027668993e+00	 1.138401164917545e+00	 1.053915538420307e+01
 1.001382266578590e+00	 1.148205305985839e+00	 1.039246797129044e+01
 9.901593204930680e-01	 1.157897399838524e+00	 1.023852405377575e+01
 9.788468826727833e-01	 1.167476187677455e+00	 1.008049226217866e+01
 9.674466692523729e-01	 1.176940444824886e+00	 9.921437528603045e+00
 9.559604183819834e-01	 1.186288981234781e+00	 9.764908816547612e+00
 9.443898893550670e-01	 1.195520641978228e+00	 9.611554960558532e+00
 9.327368617236494e-01	 1.204634307702561e+00	 9.460206060895572e+00
 9.210031344019930e-01	 1.213628895063814e+00	 9.309525543808000e+00
 9.091905247595882e-01	 1.222503357132198e+00	 9.158019694189878e+00
 1.027504876053614e+00	 1.132843358857176e+00	 1.068539474681143e+01
 1.016423348239144e+00	 1.142796536210663e+00	 1.054959936815144e+01
 1.005248607376191e+00	 1.152638531105475e+00	 1.040340274379289e+01
 9.939823294525010e-01	 1.162368046169947e+00	 1.025012020520775e+01
 9.826262142661145e-01	 1.171983817745708e+00	 1.009297736699284e+01
 9.711819845776715e-01	 1.181484616426526e+00	 9.935488994680888e+00
 9.596513852483232e-01	 1.190869247571595e+00	 9.781274216281581e+00
 9.480361823641602e-01	 1.200136551792816e+00	 9.629780478874244e+00
 9.363381623480651e-01	 1.209285405415698e+00	 9.479821384007650e+00
 9.245591310599158e-01	 1.218314720913481e+00	 9.330040889018491e+00
 9.127009128860730e-01	 1.227223447314176e+00	 9.178923082410105e+00
 8.775970316212243e-01	 1.180022545494400e+00	 8.963269581594314e+00
 8.661205286722168e-01	 1.188471702480975e+00	 8.811978639556898e+00
 8.545714428160571e-01	 1.196802994192757e+00	 8.660558563693677e+00
 8.429515763699275e-01	 1.205015517610011e+00	 8.508935283555907e+00
 8.312627458782804e-01	 1.213108406161778e+00	 8.356974458302572e+00
 8.195067811996372e-01	 1.221080829983534e+00	 8.204487688954471e+00
 8.076855245886310e-01	 1.228931996147654e+00	 8.051238788248012e+00
 7.958008297742337e-01	 1.236661148866620e+00	 7.896950065434025e+00
 7.838545610351002e-01	 1.244267569668975e+00	 7.741308584528198e+00
 7.718485922729549e-01	 1.251750577547989e+00	 7.583972355927271e+00
 7.597848060849463e-01	 1.259109529083125e+00	 7.424576422959550e+00
 8.811074197477091e-01	 1.184742635676377e+00	 8.988172710093888e+00
 8.695850107869058e-01	 1.193225589290899e+00	 8.836609919217139e+00
 8.579897285873213e-01	 1.201590206169529e+00	 8.685306859474064e+00
 8.463233826754067e-01	 1.209835579680450e+00	 8.534132645366586e+00
 8.345877968617934e-01	 1.217960839786425e+00	 8.382894213331301e+00
 8.227848083244360e-01	 1.225965153303469e+00	 8.231342780470388e+00
 8.109162666869855e-01	 1.233847724132244e+00	 8.079180360376107e+00
 7.989840330933308e-01	 1.241607793462086e+00	 7.926066292119467e+00
 7.869899792792409e-01	 1.249244639947651e+00	 7.771623739663578e+00
 7.749359866420467e-01	 1.256757579858181e+00	 7.615446120433784e+00
 7.628239453092859e-01	 1.264145967199457e+00	 7.457103423457164e+00
 8.846178078741938e-01	 1.189462725858355e+00	 9.011743040970659e+00
 8.730494929015947e-01	 1.197979476100823e+00	 8.859998366768695e+00
 8.614080143585856e-01	 1.206377418146299e+00	 8.708855773655184e+00
 8.496951889808868e-01	 1.214655641750891e+00	 8.558134960190854e+00
 8.379128478453064e-01	 1.222813273411071e+00	 8.407591701587616e+00
 8.260628354492342e-01	 1.230849476623403e+00	 8.256924547853600e+00
 8.141470087853399e-01	 1.238763452116834e+00	 8.105781578310904e+00
 8.021672364124278e-01	 1.246554438057553e+00	 7.953767167278333e+00
 7.901253975233812e-01	 1.254221710226327e+00	 7.800448716940050e+00
 7.780233810111383e-01	 1.261764582168373e+00	 7.645363314923320e+00
 7.658630845336259e-01	 1.269182405315790e+00	 7.488024275868827e+00
 8.881281960006789e-01	 1.194182816040332e+00	 9.034200763738149e+00
 8.765139750162834e-01	 1.202733362910746e+00	 8.882352898993144e+00
 8.648263001298497e-01	 1.211164630123071e+00	 8.731405133588849e+00
 8.530669952863662e-01	 1.219475703821331e+00	 8.581135048272932e+00
 8.412378988288197e-01	 1.227665707035719e+00	 8.431254716184679e+00
 8.293408625740331e-01	 1.235733799943337e+00	 8.281417633515582e+00
 8.173777508836946e-01	 1.243679180101425e+00	 8.131225705621258e+00
 8.053504397315246e-01	 1.251501082653019e+00	 7.980236242078342e+00
 7.932608157675217e-01	 1.259198780505003e+00	 7.827968915459438e+00
 7.811107753802305e-01	 1.266771584478565e+00	 7.673912640154421e+00
 7.689022237579656e-01	 1.274218843432122e+00	 7.517532329365244e+00
 8.916385841271637e-01	 1.198902906222310e+00	 9.055766975865444e+00
 8.799784571309724e-01	 1.207487249720671e+00	 8.903883494763928e+00
 8.682445859011140e-01	 1.215951842099842e+00	 8.753155950211548e+00
 8.564388015918460e-01	 1.224295765891771e+00	 8.603327003425111e+00
 8.445629498123328e-01	 1.232518140660366e+00	 8.454072383420334e+00
 8.326188896988316e-01	 1.240618123263271e+00	 8.305008043475032e+00
 8.206084929820490e-01	 1.248594908086015e+00	 8.155697371902964e+00
 8.085336430506214e-01	 1.256447727248486e+00	 8.005658409333867e+00
 7.963962340116619e-01	 1.264175850783678e+00	 7.854371026026467e+00
 7.841981697493220e-01	 1.271778586788757e+00	 7.701284014325733e+00
 7.719413629823052e-01	 1.279255281548455e+00	 7.545822053247666e+00
 8.951489722536488e-01	 1.203622996404288e+00	 9.076663622077209e+00
 8.834429392456612e-01	 1.212241136530595e+00	 8.924801133498947e+00
 8.716628716723782e-01	 1.220739054076613e+00	 8.774310356353691e+00
 8.598106078973258e-01	 1.229115827962211e+00	 8.624906131857408e+00
 8.478880007958457e-01	 1.237370574285013e+00	 8.476235102771128e+00
 8.358969168236300e-01	 1.245502446583205e+00	 8.327883089122446e+00
 8.238392350804036e-01	 1.253510636070606e+00	 8.179382516882139e+00
 8.117168463697182e-01	 1.261394371843952e+00	 8.030219850496806e+00
 7.995316522558024e-01	 1.269152921062354e+00	 7.879842981529775e+00
 7.872855641184138e-01	 1.276785589098949e+00	 7.727668527322633e+00
 7.749805022066449e-01	 1.284291719664787e+00	 7.573088995499138e+00
 8.986593603801336e-01	 1.208343086586266e+00	 9.097113433621098e+00
 8.869074213603501e-01	 1.216995023340518e+00	 8.945317733636404e+00
 8.750811574436428e-01	 1.225526266053383e+00	 8.795071545107941e+00
 8.631824142028056e-01	 1.233935890032651e+00	 8.646068891097396e+00
 8.512130517793591e-01	 1.242223007909661e+00	 8.497934486984947e+00
 8.391749439484283e-01	 1.250386769903139e+00	 8.350231329075832e+00
 8.270699771787580e-01	 1.258426364055197e+00	 8.202468334601390e+00
 8.149000496888152e-01	 1.266341016439419e+00	 8.054107982693846e+00
 8.026670704999427e-01	 1.274129991341030e+00	 7.904573907328528e+00
 7.903729584875058e-01	 1.281792591409141e+00	 7.753258394919243e+00
 7.780196414309853e-01	 1.289328157781120e+00	 7.599529741231331e+00
 9.021697485066184e-01	 1.213063176768243e+00	 9.117339867498083e+00
 8.903719034750389e-01	 1.221748910150442e+00	 8.965646091129290e+00
 8.784994432149067e-01	 1.230313478030154e+00	 8.815643708257705e+00
 8.665542205082852e-01	 1.238755952103091e+00	 8.667012828992831e+00
 8.545381027628718e-01	 1.247075441534307e+00	 8.519363302265640e+00
 8.424529710732270e-01	 1.255271093223073e+00	 8.372242511129741e+00
 8.303007192771126e-01	 1.263342092039787e+00	 8.225143217674034e+00
 8.180832530079122e-01	 1.271287661034885e+00	 8.077511405809783e+00
 8.058024887440832e-01	 1.279107061619707e+00	 7.928754071649347e+00
 7.934603528565977e-01	 1.286799593719333e+00	 7.778246912935122e+00
 7.810587806553246e-01	 1.294364595897452e+00	 7.625341871025219e+00
 9.056801366331034e-01	 1.217783266950221e+00	 9.137567045662841e+00
 8.938363855897278e-01	 1.226502796960366e+00	 8.985999817960147e+00
 8.819177289861709e-01	 1.235100690006925e+00	 8.836231974763681e+00
 8.699260268137647e-01	 1.243576014173531e+00	 8.687936522792874e+00
 8.578631537463853e-01	 1.251927875158955e+00	 8.540715408549659e+00
 8.457309981980254e-01	 1.260155416543007e+00	 8.394107514290592e+00
 8.335314613754671e-01	 1.268257820024378e+00	 8.247596701617169e+00
 8.212664563270093e-01	 1.276234305630352e+00	 8.100619849616935e+00
 8.089379069882234e-01	 1.284084131898382e+00	 7.952574835983967e+00
 7.965477472256893e-01	 1.291806596029525e+00	 7.802828411352337e+00
 7.840979198796645e-01	 1.299401034013784e+00	 7.650723919172498e+00
 9.091905247595882e-01	 1.222503357132198e+00	 9.158019694189878e+00
 8.973008677044165e-01	 1.231256683770290e+00	 9.006593280676123e+00
 8.853360147574354e-01	 1.239887901983697e+00	 8.857042349306393e+00
 8.732978331192444e-01	 1.248396076243971e+00	 8.709039518314349e+00
 8.611882047298981e-01	 1.256780308783602e+00	 8.562185699873154e+00
 8.490090253228239e-01	 1.265039739862941e+00	 8.416018290898194e+00
 8.367622034738216e-01	 1.273173548008969e+00	 8.270019409251102e+00
 8.244496596461061e-01	 1.281180950225818e+00	 8.123624120947818e+00
 8.120733252323642e-01	 1.289061202177058e+00	 7.976228605499334e+00
 7.996351415947812e-01	 1.296813598339717e+00	 7.827198208387340e+00
 7.871370591040043e-01	 1.304437472130117e+00	 7.675875331815933e+00
 9.127009128860730e-01	 1.227223447314176e+00	 9.178923082410105e+00
 9.007653498191054e-01	 1.236010570580214e+00	 9.027641538942369e+00
 8.887543005286995e-01	 1.244675113960467e+00	 8.878281650885597e+00
 8.766696394247243e-01	 1.253216138314411e+00	 8.730522269179900e+00
 8.645132557134116e-01	 1.261632742408249e+00	 8.583970044823710e+00
 8.522870524476226e-01	 1.269924063182876e+00	 8.438167808831512e+00
 8.399929455721764e-01	 1.278089275993560e+00	 8.292602995168837e+00
 8.276328629652033e-01	 1.286127594821285e+00	 8.146716050909966e+00
 8.152087434765043e-01	 1.294038272455734e+00	 7.999908779450909e+00
 8.027225359638730e-01	 1.301820600649909e+00	 7.851552564526422e+00
 7.901761983283440e-01	 1.309473910246449e+00	 7.700996424996546e+00
 7.597848060849463e-01	 1.259109529083125e+00	 7.424576422959550e+00
 7.476650928358932e-01	 1.266343818534352e+00	 7.267016485494937e+00
 7.354913497313217e-01	 1.273452877909452e+00	 7.114682086638275e+00
 7.232654798922070e-01	 1.280436177004447e+00	 6.966431174795122e+00
 7.109893914323003e-01	 1.287293223417336e+00	 6.821120882503173e+00
 6.986649965389274e-01	 1.294023562535369e+00	 6.677613306107403e+00
 6.862942105581163e-01	 1.300626777496096e+00	 6.534780987052276e+00
 6.738789510849146e-01	 1.307102489122473e+00	 6.391512072031009e+00
 6.614211370597189e-01	 1.313450355832338e+00	 6.246715132125920e+00
 6.489226878714482e-01	 1.319670073522607e+00	 6.099323624020751e+00
 6.363855224683481e-01	 1.325761375428533e+00	 5.948299979348546e+00
 7.628239453092859e-01	 1.264145967199457e+00	 7.457103423457164e+00
 7.506557532072365e-01	 1.271409193808489e+00	 7.300435545388811e+00
 7.384333151302471e-01	 1.278546689421090e+00	 7.148834448190481e+00
 7.261585418117760e-01	 1.285557921712464e+00	 7.001181087564384e+00
 7.138333489980296e-01	 1.292442396311005e+00	 6.856356910025992e+00
 7.014596565250831e-01	 1.299199656785510e+00	 6.713249692967043e+00
 6.890393874003489e-01	 1.305829284606080e+00	 6.570759075686192e+00
 6.765744668892542e-01	 1.312330899078962e+00	 6.427801758191482e+00
 6.640668216079578e-01	 1.318704157255667e+00	 6.283316347549129e+00
 6.515183786229338e-01	 1.324948753816697e+00	 6.136267834581281e+00
 6.389310645582217e-01	 1.331064420930247e+00	 5.985651686781240e+00
 7.658630845336259e-01	 1.269182405315790e+00	 7.488024275868827e+00
 7.536464135785801e-01	 1.276474569082626e+00	 7.332229543945749e+00
 7.413752805291723e-01	 1.283640500932727e+00	 7.181377994212824e+00
 7.290516037313444e-01	 1.290679666420482e+00	 7.034367928952967e+00
 7.166773065637589e-01	 1.297591569204674e+00	 6.890099339756010e+00
 7.042543165112388e-01	 1.304375751035652e+00	 6.747479819980224e+00
 6.917845642425813e-01	 1.311031791716064e+00	 6.605430157337093e+00
 6.792699826935938e-01	 1.317559309035452e+00	 6.462889582942625e+00
 6.667125061561965e-01	 1.323957958678996e+00	 6.318820656219863e+00
 6.541140693744197e-01	 1.330227434110788e+00	 6.172213768156341e+00
 6.414766066480947e-01	 1.336367466431961e+00	 6.022091248566616e+00
 7.689022237579656e-01	 1.274218843432122e+00	 7.517532329365244e+00
 7.566370739499237e-01	 1.281539944356764e+00	 7.362596123953089e+00
 7.443172459280976e-01	 1.288734312444366e+00	 7.212512718765531e+00
 7.319446656509131e-01	 1.295801411128500e+00	 7.066192167118219e+00
 7.195212641294880e-01	 1.302740742098344e+00	 6.922547303661490e+00
 7.070489764973944e-01	 1.309551845285793e+00	 6.780499741250509e+00
 6.945297410848138e-01	 1.316234298826049e+00	 6.638985536894318e+00
 6.819654984979334e-01	 1.322787718991942e+00	 6.496960502636851e+00
 6.693581907044353e-01	 1.329211760102326e+00	 6.353405140340408e+00
 6.567097601259054e-01	 1.335506114404878e+00	 6.207329182553616e+00
 6.440221487379683e-01	 1.341670511933675e+00	 6.057775724871838e+00
 7.719413629823052e-01	 1.279255281548455e+00	 7.545822053247666e+00
 7.596277343212673e-01	 1.286605319630900e+00	 7.391733954367224e+00
 7.472592113270227e-01	 1.293828123956003e+00	 7.242439576085257e+00
 7.348377275704823e-01	 1.300923155836518e+00	 7.096855190984868e+00
 7.223652216952172e-01	 1.307889914992013e+00	 6.953900840267046e+00
 7.098436364835503e-01	 1.314727939535935e+00	 6.812506427033664e+00
 6.972749179270462e-01	 1.321436805936033e+00	 6.671617467409913e+00
 6.846610143022732e-01	 1.328016128948432e+00	 6.530200474823661e+00
 6.720038752526744e-01	 1.334465561525656e+00	 6.387247955984187e+00
 6.593054508773913e-01	 1.340784794698968e+00	 6.241783000385333e+00
 6.465676908278417e-01	 1.346973557435389e+00	 6.092863448488808e+00
 7.749805022066449e-01	 1.284291719664787e+00	 7.573088995499138e+00
 7.626183946926105e-01	 1.291670694905038e+00	 7.419842693085570e+00
 7.502011767259481e-01	 1.298921935467641e+00	 7.271360447002243e+00
 7.377307894900510e-01	 1.306044900544536e+00	 7.126559279754719e+00
 7.252091792609465e-01	 1.313039087885682e+00	 6.984360866713665e+00
 7.126382964697057e-01	 1.319904033786076e+00	 6.843697737829267e+00
 7.000200947692790e-01	 1.326639313046017e+00	 6.703519125724940e+00
 6.873565301066125e-01	 1.333244538904922e+00	 6.562796434937844e+00
 6.746495598009130e-01	 1.339719362948985e+00	 6.420528310389779e+00
 6.619011416288769e-01	 1.346063474993059e+00	 6.275745286534574e+00
 6.491132329177152e-01	 1.352276602937103e+00	 6.127514002056419e+00
 7.780196414309853e-01	 1.289328157781120e+00	 7.599529741231331e+00
 7.656090550639543e-01	 1.296736070179175e+00	 7.447122949553746e+00
 7.531431421248733e-01	 1.304015746979279e+00	 7.299478105147180e+00
 7.406238514096198e-01	 1.311166645252553e+00	 7.155507572163392e+00
 7.280531368266755e-01	 1.318188260779351e+00	 7.014129150546251e+00
 7.154329564558614e-01	 1.325080128036217e+00	 6.874272398193598e+00
 7.027652716115110e-01	 1.331841820156002e+00	 6.734884587820899e+00
 6.900520459109523e-01	 1.338472948861411e+00	 6.594936272721913e+00
 6.772952443491521e-01	 1.344973164372314e+00	 6.453426439011004e+00
 6.644968323803629e-01	 1.351342155287149e+00	 6.309387225406348e+00
 6.516587750075884e-01	 1.357579648438817e+00	 6.161888195115429e+00
 7.810587806553246e-01	 1.294364595897452e+00	 7.625341871025219e+00
 7.685997154352979e-01	 1.301801445453313e+00	 7.473776247210077e+00
 7.560851075237986e-01	 1.309109558490917e+00	 7.326996182946328e+00
 7.435169133291886e-01	 1.316288389960571e+00	 7.183904035498900e+00
 7.308970943924049e-01	 1.323337433673021e+00	 7.043408281240064e+00
 7.182276164420173e-01	 1.330256222286359e+00	 6.904429970278751e+00
 7.055104484537437e-01	 1.337044327265987e+00	 6.765908803900178e+00
 6.927475617152919e-01	 1.343701358817901e+00	 6.626808808391289e+00
 6.799409288973908e-01	 1.350226965795643e+00	 6.486123582331246e+00
 6.670925231318485e-01	 1.356620835581239e+00	 6.342881097979654e+00
 6.542043170974617e-01	 1.362882693940531e+00	 6.196148040995963e+00
 7.840979198796645e-01	 1.299401034013784e+00	 7.650723919172498e+00
 7.715903758066417e-01	 1.306866820727451e+00	 7.500004985770736e+00
 7.590270729227239e-01	 1.314203370002554e+00	 7.354119137416717e+00
 7.464099752487575e-01	 1.321410134668589e+00	 7.211953434386317e+00
 7.337410519581339e-01	 1.328486606566690e+00	 7.072401641471180e+00
 7.210222764281727e-01	 1.335432316536500e+00	 6.934370827110223e+00
 7.082556252959761e-01	 1.342246834375971e+00	 6.796787573202293e+00
 6.954430775196314e-01	 1.348929768774391e+00	 6.658603768547269e+00
 6.825866134456297e-01	 1.355480767218972e+00	 6.518801962446700e+00
 6.696882138833345e-01	 1.361899515875330e+00	 6.376400258652244e+00
 6.567498591873352e-01	 1.368185739442246e+00	 6.230456733544710e+00
 7.871370591040043e-01	 1.304437472130117e+00	 7.675875331815933e+00
 7.745810361779852e-01	 1.311932196001588e+00	 7.526012403362521e+00
 7.619690383216493e-01	 1.319297181514192e+00	 7.381052215762859e+00
 7.493030371683261e-01	 1.326531879376607e+00	 7.239861299340630e+00
 7.365850095238631e-01	 1.333635779460360e+00	 7.101313378141285e+00
 7.238169364143286e-01	 1.340608410786642e+00	 6.964296125605554e+00
 7.110008021382086e-01	 1.347449341485955e+00	 6.827717518566105e+00
 6.981385933239710e-01	 1.354158178730881e+00	 6.690511761846377e+00
 6.852322979938685e-01	 1.360734568642302e+00	 6.551644759427259e+00
 6.722839046348202e-01	 1.367178196169420e+00	 6.410119111896501e+00
 6.592954012772084e-01	 1.373488784943959e+00	 6.264978623695566e+00
 7.901761983283440e-01	 1.309473910246449e+00	 7.700996424996546e+00
 7.775716965493290e-01	 1.316997571275726e+00	 7.552002538503858e+00
 7.649110037205745e-01	 1.324390993025830e+00	 7.408001420782982e+00
 7.521960990878952e-01	 1.331653624084625e+00	 7.267833895102202e+00
 7.394289670895923e-01	 1.338784952354029e+00	 7.130348373157480e+00
 7.266115964004843e-01	 1.345784505036784e+00	 6.994407779342994e+00
 7.137459789804411e-01	 1.352651848595940e+00	 6.858896060742063e+00
 7.008341091283111e-01	 1.359386588687371e+00	 6.722724254430354e+00
 6.878779825421076e-01	 1.365988370065632e+00	 6.584836087456592e+00
 6.748795953863062e-01	 1.372456876463511e+00	 6.444213088723331e+00
 6.618409433670821e-01	 1.378791830445674e+00	 6.299879195886260e+00
 6.363855224683481e-01	 1.325761375428533e+00	 5.948299979348546e+00
 6.238115584772160e-01	 1.331724031958459e+00	 5.798991389544076e+00
 6.112027113317982e-01	 1.337557850504466e+00	 5.656597562495651e+00
 5.985608934111077e-01	 1.343262675229370e+00	 5.519906871013140e+00
 5.858880131883712e-01	 1.348838386830554e+00	 5.387669359779208e+00
 5.731859743913007e-01	 1.354284902281113e+00	 5.256263905379373e+00
 5.604566751743632e-01	 1.359602174548852e+00	 5.124100949743041e+00
 5.477020073036879e-01	 1.364790192293665e+00	 4.991158905192670e+00
 5.349238553552343e-01	 1.369848979543862e+00	 4.857488666006493e+00
 5.221240959268140e-01	 1.374778595352021e+00	 4.723208263482295e+00
 5.093045968645327e-01	 1.379579133430962e+00	 4.588497605245198e+00
 6.389310645582217e-01	 1.331064420930247e+00	 5.985651686781233e+00
 6.263068047111247e-01	 1.337050928086293e+00	 5.836809637749019e+00
 6.136475221771253e-01	 1.342908081906483e+00	 5.694905964764846e+00
 6.009551369847523e-01	 1.348635725930287e+00	 5.558718787261657e+00
 5.882315652411247e-01	 1.354233740377876e+00	 5.427059938978527e+00
 5.754787182888659e-01	 1.359702041890237e+00	 5.296819095331582e+00
 5.626985018750607e-01	 1.365040583247047e+00	 5.165614238992132e+00
 5.498928153329026e-01	 1.370249353062839e+00	 5.033430546341376e+00
 5.370635507766552e-01	 1.375328375462038e+00	 4.900326016057360e+00
 5.242125923105213e-01	 1.380277709733429e+00	 4.766426021066065e+00
 5.113418152519907e-01	 1.385097449964685e+00	 4.631917948808238e+00
 6.414766066480947e-01	 1.336367466431961e+00	 6.022091248566623e+00
 6.288020509450336e-01	 1.342377824214126e+00	 5.873779449145068e+00
 6.160923330224524e-01	 1.348258313308501e+00	 5.732404206146986e+00
 6.033493805583966e-01	 1.354008776631205e+00	 5.596737657176408e+00
 5.905751172938780e-01	 1.359629093925198e+00	 5.465586531658005e+00
 5.777714621864312e-01	 1.365119181499362e+00	 5.336460352104091e+00
 5.649403285757582e-01	 1.370478991945242e+00	 5.206223753532982e+00
 5.520836233621175e-01	 1.375708513832014e+00	 5.074800887393720e+00
 5.392032461980761e-01	 1.380807771380213e+00	 4.942261715602118e+00
 5.263010886942285e-01	 1.385776824114837e+00	 4.808743853906185e+00
 5.133790336394489e-01	 1.390615766498410e+00	 4.674447104812455e+00
 6.440221487379683e-01	 1.341670511933675e+00	 6.057775724871830e+00
 6.312972971789425e-01	 1.347704720341960e+00	 5.910047118952484e+00
 6.185371438677798e-01	 1.353608544710519e+00	 5.769228972692053e+00
 6.057436241320410e-01	 1.359381827332122e+00	 5.634091667714864e+00
 5.929186693466316e-01	 1.365024447472520e+00	 5.503441180821438e+00
 5.800642060839963e-01	 1.370536321108486e+00	 5.375297630208914e+00
 5.671821552764558e-01	 1.375917400643438e+00	 5.246035072816588e+00
 5.542744313913321e-01	 1.381167674601188e+00	 5.115372159823104e+00
 5.413429416194973e-01	 1.386287167298388e+00	 4.983395634398903e+00
 5.283895850779358e-01	 1.391275938496244e+00	 4.850260214823034e+00
 5.154162520269072e-01	 1.396134083032133e+00	 4.716183011789780e+00
 6.465676908278417e-01	 1.346973557435389e+00	 6.092863448488808e+00
 6.337925434128511e-01	 1.353031616469794e+00	 5.945760319024490e+00
 6.209819547131068e-01	 1.358958776112537e+00	 5.805518407930668e+00
 6.081378677056853e-01	 1.364754878033040e+00	 5.670910521657753e+00
 5.952622213993849e-01	 1.370419801019843e+00	 5.540746191791357e+00
 5.823569499815614e-01	 1.375953460717610e+00	 5.413442275229290e+00
 5.694239819771530e-01	 1.381355809341633e+00	 5.285155101092590e+00
 5.564652394205468e-01	 1.386626835370363e+00	 5.155247838250884e+00
 5.434826370409181e-01	 1.391766563216563e+00	 5.023828789215374e+00
 5.304780814616431e-01	 1.396775052877653e+00	 4.891074593910927e+00
 5.174534704143653e-01	 1.401652399565857e+00	 4.757224523103670e+00
 6.491132329177152e-01	 1.352276602937103e+00	 6.127514002056428e+00
 6.362877896467602e-01	 1.358358512597628e+00	 5.981068074820220e+00
 6.234267655584341e-01	 1.364309007514555e+00	 5.841412089957349e+00
 6.105321112793298e-01	 1.370127928733957e+00	 5.707325415153740e+00
 5.976057734521385e-01	 1.375815154567165e+00	 5.577625400387879e+00
 5.846496938791264e-01	 1.381370600326734e+00	 5.451007028218621e+00
 5.716658086778503e-01	 1.386794218039828e+00	 5.323692071761132e+00
 5.586560474497617e-01	 1.392085996139538e+00	 5.194532645069415e+00
 5.456223324623392e-01	 1.397245959134739e+00	 5.063663349025800e+00
 5.325665778453502e-01	 1.402274167259061e+00	 4.931287524595826e+00
 5.194906888018233e-01	 1.407170716099581e+00	 4.797671414147306e+00
 6.516587750075884e-01	 1.357579648438817e+00	 6.161888195115422e+00
 6.387830358806690e-01	 1.363685408725462e+00	 6.016120742247811e+00
 6.258715764037613e-01	 1.369659238916572e+00	 5.877051008413749e+00
 6.129263548529744e-01	 1.375500979434875e+00	 5.743469015178547e+00
 5.999493255048919e-01	 1.381210508114487e+00	 5.614204151376534e+00
 5.869424377766920e-01	 1.386787739935859e+00	 5.488106030044121e+00
 5.739076353785477e-01	 1.392232626738024e+00	 5.361755551666088e+00
 5.608468554789764e-01	 1.397545156908712e+00	 5.233332554999226e+00
 5.477620278837599e-01	 1.402725355052914e+00	 5.103002640127125e+00
 5.346550742290576e-01	 1.407773281640468e+00	 4.971000589594706e+00
 5.215279071892814e-01	 1.412689032633305e+00	 4.837624389403160e+00
 6.542043170974617e-01	 1.362882693940531e+00	 6.196148040995956e+00
 6.412782821145778e-01	 1.369012304853295e+00	 6.051069984375745e+00
 6.283163872490884e-01	 1.375009470318590e+00	 5.912577541377463e+00
 6.153205984266188e-01	 1.380874030135792e+00	 5.779475436927915e+00
 6.022928775576455e-01	 1.386605861661809e+00	 5.650609276674309e+00
 5.892351816742570e-01	 1.392204879544983e+00	 5.524867789764135e+00
 5.761494620792453e-01	 1.397671035436219e+00	 5.399456445337538e+00
 5.630376635081912e-01	 1.403004317677888e+00	 5.271754799582126e+00
 5.499017233051809e-01	 1.408204750971090e+00	 5.141951151176042e+00
 5.367435706127648e-01	 1.413272396021877e+00	 5.010316426768518e+00
 5.235651255767396e-01	 1.418207349167029e+00	 4.877185089377255e+00
 6.567498591873352e-01	 1.368185739442246e+00	 6.230456733544717e+00
 6.437735283484867e-01	 1.374339200981129e+00	 6.086068748030138e+00
 6.307611980944156e-01	 1.380359701720608e+00	 5.948135432156558e+00
 6.177148420002631e-01	 1.386247080836709e+00	 5.815480221134996e+00
 6.046364296103989e-01	 1.392001215209131e+00	 5.686969073496199e+00
 5.915279255718221e-01	 1.397622019154108e+00	 5.561512685450240e+00
 5.783912887799428e-01	 1.403109444134415e+00	 5.436906999172095e+00
 5.652284715374060e-01	 1.408463478447062e+00	 5.309907871610134e+00
 5.520414187266018e-01	 1.413684146889265e+00	 5.180614538145818e+00
 5.388320669964719e-01	 1.418771510403285e+00	 5.049338734876086e+00
 5.256023439641976e-01	 1.423725665700752e+00	 4.916456097400575e+00
 6.592954012772084e-01	 1.373488784943959e+00	 6.264978623695574e+00
 6.462687745823956e-01	 1.379666097108963e+00	 6.121271240265389e+00
 6.332060089397429e-01	 1.385709933122626e+00	 5.983869765997457e+00
 6.201090855739076e-01	 1.391620131537627e+00	 5.851620311321498e+00
 6.069799816631524e-01	 1.397396568756453e+00	 5.723413282444881e+00
 5.938206694693872e-01	 1.403039158763232e+00	 5.598185560911963e+00
 5.806331154806402e-01	 1.408547852832609e+00	 5.474220805569892e+00
 5.674192795666204e-01	 1.413922639216236e+00	 5.347901529495901e+00
 5.541811141480227e-01	 1.419163542807441e+00	 5.219099629209601e+00
 5.409205633801792e-01	 1.424270624784693e+00	 5.088172279232683e+00
 5.276395623516559e-01	 1.429243982234476e+00	 4.955540946312074e+00
 6.618409433670821e-01	 1.378791830445674e+00	 6.299879195886260e+00
 6.487640208163045e-01	 1.384992993236797e+00	 6.156832904725016e+00
 6.356508197850700e-01	 1.391060164524644e+00	 6.019926946700180e+00
 6.225033291475520e-01	 1.396993182238545e+00	 5.888034030979394e+00
 6.093235337159060e-01	 1.402791922303776e+00	 5.760073065548485e+00
 5.961134133669527e-01	 1.408456298372357e+00	 5.635011295646190e+00
 5.828749421813376e-01	 1.413986261530805e+00	 5.511512807012777e+00
 5.696100875958353e-01	 1.419381799985411e+00	 5.385846801580712e+00
 5.563208095694437e-01	 1.424642938725617e+00	 5.257514429546847e+00
 5.430090597638866e-01	 1.429769739166102e+00	 5.126922897272257e+00
 5.296767807391138e-01	 1.434762298768200e+00	 4.994544125016042e+00
 5.093045968645327e-01	 1.379579133430962e+00	 4.588497605245198e+00
 4.964672165041967e-01	 1.384250721770461e+00	 4.454912315753427e+00
 4.836138029281903e-01	 1.388793522235325e+00	 4.323841936774848e+00
 4.707461932383187e-01	 1.393207730145472e+00	 4.195300447828103e+00
 4.578662128450647e-01	 1.397493573838672e+00	 4.069351431833200e+00
 4.449756747736980e-01	 1.401651314216614e+00	 3.946103704170715e+00
 4.320763789876296e-01	 1.405681244274962e+00	 3.825707091968250e+00
 4.191701117293915e-01	 1.409583688618110e+00	 3.708348372778766e+00
 4.062586448795809e-01	 1.413359002959288e+00	 3.594247380654880e+00
 3.933437353340873e-01	 1.417007573606752e+00	 3.483653286454511e+00
 3.804271243998890e-01	 1.420529816936729e+00	 3.376841058086223e+00
 5.113418152519907e-01	 1.385097449964685e+00	 4.631917948808238e+00
 4.984530853702134e-01	 1.389787724657543e+00	 4.498399379988624e+00
 4.855482581399032e-01	 1.394348696324267e+00	 4.367308262687199e+00
 4.726291780112719e-01	 1.398780561066054e+00	 4.238675893067911e+00
 4.596976776964452e-01	 1.403083548134027e+00	 4.112583247562081e+00
 4.467555774727928e-01	 1.407257919473480e+00	 3.989156519838158e+00
 4.338046845035803e-01	 1.411303969252062e+00	 3.868562813066788e+00
 4.208467921763089e-01	 1.415222023372582e+00	 3.751005996763995e+00
 4.078836794590992e-01	 1.419012438971125e+00	 3.636722736302937e+00
 3.949171102754238e-01	 1.422675603901179e+00	 3.525978701999635e+00
 3.819488328974887e-01	 1.426211936204476e+00	 3.419064963522828e+00
 5.133790336394489e-01	 1.390615766498410e+00	 4.674447104812455e+00
 5.004389542362302e-01	 1.395324727544625e+00	 4.541016618605617e+00
 4.874827133516159e-01	 1.399903870413208e+00	 4.409939627751443e+00
 4.745121627842252e-01	 1.404353391986636e+00	 4.281262540527611e+00
 4.615291425478253e-01	 1.408673522429382e+00	 4.155081448282540e+00
 4.485354801718877e-01	 1.412864524730346e+00	 4.031537573703385e+00
 4.355329900195306e-01	 1.416926694229161e+00	 3.910812879540021e+00
 4.225234726232267e-01	 1.420860358127055e+00	 3.793125847184803e+00
 4.095087140386175e-01	 1.424665874982963e+00	 3.678727433271528e+00
 3.964904852167601e-01	 1.428343634195606e+00	 3.567897211276312e+00
 3.834705413950882e-01	 1.431894055472223e+00	 3.460939703887791e+00
 5.154162520269072e-01	 1.396134083032133e+00	 4.716183011789780e+00
 5.024248231022470e-01	 1.400861730431706e+00	 4.582861432590909e+00
 4.894171685633286e-01	 1.405459044502149e+00	 4.451832004161602e+00
 4.763951475571785e-01	 1.409926222907218e+00	 4.323154086640240e+00
 4.633606073992056e-01	 1.414263496724737e+00	 4.196936651957359e+00
 4.503153828709823e-01	 1.418471129987212e+00	 4.073333646742418e+00
 4.372612955354810e-01	 1.422549419206262e+00	 3.952539520948449e+00
 4.242001530701441e-01	 1.426498692881527e+00	 3.834784931689915e+00
 4.111337486181359e-01	 1.430319310994800e+00	 3.720332630558618e+00
 3.980638601580964e-01	 1.434011664490033e+00	 3.609473541423020e+00
 3.849922498926877e-01	 1.437576174739970e+00	 3.502523034528410e+00
 5.174534704143653e-01	 1.401652399565857e+00	 4.757224523103670e+00
 5.044106919682636e-01	 1.406398733318789e+00	 4.624032017422413e+00
 4.913516237750414e-01	 1.411014218591090e+00	 4.493082054239698e+00
 4.782781323301318e-01	 1.415499053827799e+00	 4.364444829089440e+00
 4.651920722505857e-01	 1.419853471020091e+00	 4.238240003902940e+00
 4.520952855700771e-01	 1.424077735244079e+00	 4.114631987854517e+00
 4.389896010514316e-01	 1.428172144183361e+00	 3.993825389281140e+00
 4.258768335170616e-01	 1.432137027635999e+00	 3.876060648280449e+00
 4.127587831976542e-01	 1.435972747006637e+00	 3.761609858310038e+00
 3.996372350994327e-01	 1.439679694784459e+00	 3.650772783849512e+00
 3.865139583902873e-01	 1.443258294007717e+00	 3.543873079959903e+00
 5.194906888018233e-01	 1.407170716099581e+00	 4.797671414147306e+00
 5.063965608342804e-01	 1.411935736205870e+00	 4.664627371382296e+00
 4.932860789867541e-01	 1.416569392680032e+00	 4.533787139581901e+00
 4.801611171030849e-01	 1.421071884748381e+00	 4.405229676508880e+00
 4.670235371019661e-01	 1.425443445315446e+00	 4.279083186773639e+00
 4.538751882691719e-01	 1.429684340500945e+00	 4.155520323872917e+00
 4.407179065673822e-01	 1.433794869160461e+00	 4.034753568763340e+00
 4.275535139639792e-01	 1.437775362390472e+00	 3.917030794670321e+00
 4.143838177771724e-01	 1.441626183018474e+00	 3.802631026513553e+00
 4.012106100407692e-01	 1.445347725078888e+00	 3.691860402056236e+00
 3.880356668878869e-01	 1.448940413275464e+00	 3.585048340615927e+00
 5.215279071892814e-01	 1.412689032633305e+00	 4.837624389403160e+00
 5.083824297002973e-01	 1.417472739092952e+00	 4.704747303710516e+00
 4.952205341984670e-01	 1.422124566768973e+00	 4.574045330016859e+00
 4.820441018760383e-01	 1.426644715668963e+00	 4.445604157977083e+00
 4.688550019533463e-01	 1.431033419610800e+00	 4.319558430336173e+00
 4.556550909682666e-01	 1.435290945757812e+00	 4.196086869372851e+00
 4.424462120833326e-01	 1.439417594137561e+00	 4.075407585450344e+00
 4.292301944108970e-01	 1.443413697144945e+00	 3.957773577445770e+00
 4.160088523566908e-01	 1.447279619030311e+00	 3.843468433510226e+00
 4.027839849821054e-01	 1.451015755373314e+00	 3.732802239289263e+00
 3.895573753854863e-01	 1.454622532543211e+00	 3.626107699452085e+00
 5.235651255767396e-01	 1.418207349167029e+00	 4.877185089377255e+00
 5.103682985663140e-01	 1.423009741980034e+00	 4.744492442595370e+00
 4.971549894101797e-01	 1.427679740857914e+00	 4.613955412385065e+00
 4.839270866489915e-01	 1.432217546589545e+00	 4.485664432321214e+00
 4.706864668047266e-01	 1.436623393906155e+00	 4.359758521040220e+00
 4.574349936673616e-01	 1.440897551014678e+00	 4.236420336268449e+00
 4.441745175992833e-01	 1.445040319114661e+00	 4.115871416620216e+00
 4.309068748578144e-01	 1.449052031899417e+00	 3.998367621031896e+00
 4.176338869362092e-01	 1.452933055042148e+00	 3.884194774320186e+00
 4.043573599234417e-01	 1.456683785667741e+00	 3.773664526030109e+00
 3.910790838830859e-01	 1.460304651810958e+00	 3.667110428411168e+00
 5.256023439641976e-01	 1.423725665700752e+00	 4.916456097400575e+00
 5.123541674323306e-01	 1.428546744867116e+00	 4.783964243012375e+00
 4.990894446218924e-01	 1.433234914946855e+00	 4.653616899143939e+00
 4.858100714219448e-01	 1.437790377510127e+00	 4.525507297228247e+00
 4.725179316561069e-01	 1.442213368201510e+00	 4.399776811394687e+00
 4.592148963664562e-01	 1.446504156271545e+00	 4.276609943209774e+00
 4.459028231152336e-01	 1.450663044091760e+00	 4.156229499969124e+00
 4.325835553047320e-01	 1.454690366653889e+00	 4.038891976467959e+00
 4.192589215157276e-01	 1.458586491053986e+00	 3.924883148796793e+00
 4.059307348647780e-01	 1.462351815962168e+00	 3.814513887329966e+00
 3.926007923806855e-01	 1.465986771078705e+00	 3.708116194751412e+00
 5.276395623516559e-01	 1.429243982234476e+00	 4.955540946312074e+00
 5.143400362983476e-01	 1.434083747754198e+00	 4.823264994413154e+00
 5.010238998336052e-01	 1.438790089035797e+00	 4.693130036801580e+00
 4.876930561948981e-01	 1.443363208430709e+00	 4.565230198175575e+00
 4.743493965074870e-01	 1.447803342496864e+00	 4.439707229146218e+00
 4.609947990655511e-01	 1.452110761528411e+00	 4.316745424786848e+00
 4.476311286311842e-01	 1.456285769068860e+00	 4.196566742613480e+00
 4.342602357516497e-01	 1.460328701408361e+00	 4.079426130000011e+00
 4.208839560952458e-01	 1.464239927065822e+00	 3.965607069603945e+00
 4.075041098061144e-01	 1.468019846256595e+00	 3.855417349985308e+00
 3.941225008782850e-01	 1.471668890346451e+00	 3.749185067244952e+00
 5.296767807391138e-01	 1.434762298768200e+00	 4.994544125016042e+00
 5.163259051643645e-01	 1.439620750641279e+00	 4.862497828266314e+00
 5.029583550453181e-01	 1.444345263124738e+00	 4.732595814185843e+00
 4.895760409678515e-01	 1.448936039351291e+00	 4.604931237179303e+00
 4.761808613588674e-01	 1.453393316792219e+00	 4.479644286276863e+00
 4.627747017646459e-01	 1.457717366785278e+00	 4.356917040542179e+00
 4.493594341471348e-01	 1.461908494045960e+00	 4.236968529907086e+00
 4.359369161985672e-01	 1.465967036162834e+00	 4.120050011493446e+00
 4.225089906747642e-01	 1.469893363077660e+00	 4.006440470032850e+00
 4.090774847474509e-01	 1.473687876551022e+00	 3.896442349569424e+00
 3.956442093758846e-01	 1.477351009614198e+00	 3.790377522242724e+00
 3.804271243998890e-01	 1.420529816936729e+00	 3.376841058086223e+00
 3.675105372096805e-01	 1.423926178853847e+00	 3.272613143530803e+00
 3.545956821555555e-01	 1.427197134239732e+00	 3.169789196659555e+00
 3.416842503419573e-01	 1.430343186390498e+00	 3.068696847942692e+00
 3.287779150580670e-01	 1.433364866443829e+00	 2.969674400473513e+00
 3.158783312697781e-01	 1.436262732796367e+00	 2.873068434321364e+00
 3.029871351313813e-01	 1.439037370512088e+00	 2.779231602031190e+00
 2.901059435170514e-01	 1.441689390722408e+00	 2.688520613676295e+00
 2.772363535722094e-01	 1.444219430018670e+00	 2.601294409066659e+00
 2.643799422847991e-01	 1.446628149837737e+00	 2.517912513946484e+00
 2.515382660764992e-01	 1.448916235841360e+00	 2.438733576319127e+00
 3.819488328974887e-01	 1.426211936204476e+00	 3.419064963522828e+00
 3.689805793585193e-01	 1.429621883569263e+00	 3.314767880035633e+00
 3.560140648841777e-01	 1.432905922776691e+00	 3.211881929330947e+00
 3.430509873433251e-01	 1.436064559136059e+00	 3.110736175701591e+00
 3.300930267182992e-01	 1.439098325909605e+00	 3.011669405527355e+00
 3.171418445948573e-01	 1.442007783727552e+00	 2.915027717734473e+00
 3.041990836719068e-01	 1.444793519994136e+00	 2.821162310482658e+00
 2.912663672911195e-01	 1.447456148285297e+00	 2.730427462335368e+00
 2.783452989864981e-01	 1.449996307738744e+00	 2.643178705375174e+00
 2.654374620539383e-01	 1.452414662437088e+00	 2.559771186908832e+00
 2.525444191408051e-01	 1.454711900784725e+00	 2.480558215728590e+00
 3.834705413950882e-01	 1.431894055472223e+00	 3.460939703887791e+00
 3.704506215073582e-01	 1.435317588284678e+00	 3.356620411587026e+00
 3.574324476128000e-01	 1.438614711313650e+00	 3.253706745599949e+00
 3.444177243446930e-01	 1.441785931881622e+00	 3.152530853371443e+00
 3.314081383785314e-01	 1.444831785375380e+00	 3.053433672990262e+00
 3.184053579199365e-01	 1.447752834658738e+00	 2.956762506987941e+00
 3.054110322124323e-01	 1.450549669476185e+00	 2.862868797533633e+00
 2.924267910651878e-01	 1.453222905848187e+00	 2.772106101157259e+00
 2.794542444007872e-01	 1.455773185458819e+00	 2.684828260273576e+00
 2.664949818230776e-01	 1.458201175036439e+00	 2.601387768017966e+00
 2.535505722051110e-01	 1.460507565728091e+00	 2.522134322146910e+00
 3.849922498926877e-01	 1.437576174739970e+00	 3.502523034528410e+00
 3.719206636561968e-01	 1.441013293000093e+00	 3.398221693306789e+00
 3.588508303414222e-01	 1.444323499850608e+00	 3.295308646514407e+00
 3.457844613460608e-01	 1.447507304627183e+00	 3.194120761196206e+00
 3.327232500387637e-01	 1.450565244841156e+00	 3.095002781940599e+00
 3.196688712450154e-01	 1.453497885589923e+00	 2.998304885269783e+00
 3.066229807529579e-01	 1.456305818958234e+00	 2.904380440694047e+00
 2.935872148392560e-01	 1.458989663411077e+00	 2.813583976419277e+00
 2.805631898150759e-01	 1.461550063178894e+00	 2.726269346834506e+00
 2.675525015922168e-01	 1.463987687635790e+00	 2.642788098101998e+00
 2.545567252694171e-01	 1.466303230671456e+00	 2.563488027437915e+00
 3.865139583902873e-01	 1.443258294007717e+00	 3.543873079959903e+00
 3.733907058050355e-01	 1.446708997715509e+00	 3.439623055073516e+00
 3.602692130700443e-01	 1.450032288387567e+00	 3.336733003638782e+00
 3.471511983474285e-01	 1.453228677372745e+00	 3.235546136169630e+00
 3.340383616989960e-01	 1.456298704306930e+00	 3.136412645214980e+00
 3.209323845700945e-01	 1.459242936521109e+00	 3.039687237613979e+00
 3.078349292934834e-01	 1.462061968440282e+00	 2.945726878777877e+00
 2.947476386133242e-01	 1.464756420973967e+00	 2.854888746849407e+00
 2.816721352293647e-01	 1.467326940898968e+00	 2.767528393708548e+00
 2.686100213613559e-01	 1.469774200235140e+00	 2.683998108986368e+00
 2.555628783337231e-01	 1.472098895614822e+00	 2.604645482470675e+00
 3.880356668878869e-01	 1.448940413275464e+00	 3.585048340615927e+00
 3.748607479538742e-01	 1.452404702430925e+00	 3.480876207217467e+00
 3.616875957986666e-01	 1.455741076924526e+00	 3.378025563926363e+00
 3.485179353487964e-01	 1.458950050118308e+00	 3.276847576302371e+00
 3.353534733592283e-01	 1.462032163772706e+00	 3.177699513283705e+00
 3.221958978951737e-01	 1.464987987452294e+00	 3.080942254589868e+00
 3.090468778340088e-01	 1.467818117922330e+00	 2.986938015623387e+00
 2.959080623873924e-01	 1.470523178536856e+00	 2.896048287562642e+00
 2.827810806436536e-01	 1.473103818619043e+00	 2.808631989478524e+00
 2.696675411304951e-01	 1.475560712834491e+00	 2.725043828442810e+00
 2.565690313980291e-01	 1.477894560558187e+00	 2.645632862853168e+00
 3.895573753854863e-01	 1.454622532543211e+00	 3.626107699452085e+00
 3.763307901027129e-01	 1.458100407146339e+00	 3.522033246096644e+00
 3.631059785272887e-01	 1.461449865461485e+00	 3.419232454482068e+00
 3.498846723501642e-01	 1.464671422863869e+00	 3.318066044795733e+00
 3.366685850194605e-01	 1.467765623238481e+00	 3.218899978043874e+00
 3.234594112202528e-01	 1.470733038383480e+00	 3.122102935921284e+00
 3.102588263745343e-01	 1.473574267404378e+00	 3.028044023729116e+00
 2.970684861614607e-01	 1.476289936099746e+00	 2.937090693919332e+00
 2.838900260579424e-01	 1.478880696339118e+00	 2.849606886915946e+00
 2.707250608996343e-01	 1.481347225433842e+00	 2.765951385037464e+00
 2.575751844623351e-01	 1.483690225501552e+00	 2.686476374535550e+00
 3.910790838830859e-01	 1.460304651810958e+00	 3.667110428411168e+00
 3.778008322515517e-01	 1.463796111861755e+00	 3.563146659555055e+00
 3.645243612559110e-01	 1.467158653998444e+00	 3.460400187234613e+00
 3.512514093515321e-01	 1.470392795609431e+00	 3.359242874128590e+00
 3.379836966796928e-01	 1.473499082704257e+00	 3.260050976535516e+00
 3.247229245453320e-01	 1.476478089314665e+00	 3.163202594027032e+00
 3.114707749150599e-01	 1.479330416886427e+00	 3.069075347819988e+00
 2.982289099355289e-01	 1.482056693662636e+00	 2.978044285292562e+00
 2.849989714722314e-01	 1.484657574059193e+00	 2.890480007146023e+00
 2.717825806687735e-01	 1.487133738033193e+00	 2.806747012861427e+00
 2.585813375266411e-01	 1.489485890444918e+00	 2.727202259286461e+00
 3.926007923806855e-01	 1.465986771078705e+00	 3.708116194751412e+00
 3.792708744003904e-01	 1.469491816577170e+00	 3.604269332267704e+00
 3.659427439845333e-01	 1.472867442535403e+00	 3.501575663503988e+00
 3.526181463528999e-01	 1.476114168354993e+00	 3.400419770063536e+00
 3.392988083399249e-01	 1.479232542170031e+00	 3.301189794574513e+00
 3.259864378704109e-01	 1.482223140245850e+00	 3.204274857484205e+00
 3.126827234555855e-01	 1.485086566368475e+00	 3.110062708326498e+00
 2.993893337095971e-01	 1.487823451225525e+00	 3.018937608759850e+00
 2.861079168865200e-01	 1.490434451779267e+00	 2.931278443720005e+00
 2.728401004379127e-01	 1.492920250632544e+00	 2.847457056162745e+00
 2.595874905909471e-01	 1.495281555388283e+00	 2.767836800047683e+00
 3.941225008782850e-01	 1.471668890346451e+00	 3.749185067244952e+00
 3.807409165492291e-01	 1.475187521292586e+00	 3.645454550970127e+00
 3.673611267131554e-01	 1.478576231072362e+00	 3.542806178479678e+00
 3.539848833542678e-01	 1.481835541100555e+00	 3.441638815564202e+00
 3.406139200001573e-01	 1.484966001635807e+00	 3.342354070317297e+00
 3.272499511954902e-01	 1.487968191177036e+00	 3.245353674424886e+00
 3.138946719961109e-01	 1.490842715850523e+00	 3.151037104800534e+00
 3.005497574836651e-01	 1.493590208788414e+00	 3.059799442712605e+00
 2.872168623008090e-01	 1.496211329499342e+00	 2.972029466598185e+00
 2.738976202070518e-01	 1.498706763231895e+00	 2.888107973868919e+00
 2.605936436552530e-01	 1.501077220331648e+00	 2.808406326166198e+00
 3.956442093758846e-01	 1.477351009614198e+00	 3.790377522242724e+00
 3.822109586980679e-01	 1.480883226008001e+00	 3.686756009588761e+00
 3.687795094417778e-01	 1.484285019609321e+00	 3.584139425603784e+00
 3.553516203556356e-01	 1.487556913846117e+00	 3.482942474639276e+00
 3.419290316603897e-01	 1.490699461101583e+00	 3.383581797748153e+00
 3.285134645205692e-01	 1.493713242108221e+00	 3.286473315857429e+00
 3.151066205366365e-01	 1.496598865332572e+00	 3.192029819253323e+00
 3.017101812577335e-01	 1.499356966351305e+00	 3.100658800386572e+00
 2.883258077150979e-01	 1.501988207219417e+00	 3.012760526045704e+00
 2.749551399761911e-01	 1.504493275831246e+00	 2.928726344015875e+00
 2.615997967195591e-01	 1.506872885275014e+00	 2.848937218509014e+00
 2.515382660764992e-01	 1.448916235841360e+00	 2.438733576319127e+00
 2.387128604138661e-01	 1.451084397290005e+00	 2.363589962954313e+00
 2.259052394393727e-01	 1.453133366411806e+00	 2.292116909172939e+00
 2.131168956222966e-01	 1.455063897767305e+00	 2.224373535018669e+00
 2.003492994293782e-01	 1.456876767610640e+00	 2.160415503241216e+00
 1.876038990151519e-01	 1.458572773247801e+00	 2.100294784379768e+00
 1.748821199318341e-01	 1.460152732392613e+00	 2.044059554739890e+00
 1.621853648586254e-01	 1.461617482521040e+00	 1.991754219704580e+00
 1.495150133502726e-01	 1.462967880224421e+00	 1.943419554549206e+00
 1.368724216047095e-01	 1.464204800562247e+00	 1.899092954769529e+00
 1.242589222495824e-01	 1.465329136415037e+00	 1.858808787767841e+00
 2.525444191408051e-01	 1.454711900784725e+00	 2.480558215728590e+00
 2.396677118555215e-01	 1.456888734879165e+00	 2.405351029267333e+00
 2.268088603971302e-01	 1.458945899877452e+00	 2.333776124641696e+00
 2.139693632047859e-01	 1.460884153358374e+00	 2.265904665463782e+00
 2.011506966270957e-01	 1.462704274681082e+00	 2.201803700985328e+00
 1.883543146112126e-01	 1.464407064340792e+00	 2.141535931959401e+00
 1.755816484115614e-01	 1.465993343322184e+00	 2.085159612907264e+00
 1.628341063180599e-01	 1.467463952451124e+00	 2.032728583009559e+00
 1.501130734036738e-01	 1.468819751745319e+00	 1.984292417606360e+00
 1.374199112911283e-01	 1.470061619764496e+00	 1.939896692082475e+00
 1.247559579385807e-01	 1.471190452960698e+00	 1.899583349785071e+00
 2.535505722051110e-01	 1.460507565728091e+00	 2.522134322146910e+00
 2.406225632971770e-01	 1.462693072468325e+00	 2.446862104984217e+00
 2.277124813548878e-01	 1.464758433343100e+00	 2.375190962308896e+00
 2.148218307872750e-01	 1.466704408949443e+00	 2.307202805811624e+00
 2.019520938248132e-01	 1.468531781751524e+00	 2.242974719192611e+00
 1.891047302072732e-01	 1.470241355433783e+00	 2.182578727852589e+00
 1.762811768912888e-01	 1.471833954251755e+00	 2.126081708533611e+00
 1.634828477774944e-01	 1.473310422381208e+00	 2.073545430915957e+00
 1.507111334570748e-01	 1.474671623266216e+00	 2.025026722939848e+00
 1.379674009775472e-01	 1.475918438966745e+00	 1.980577751414909e+00
 1.252529936275790e-01	 1.477051769506358e+00	 1.940246409336940e+00
 2.545567252694171e-01	 1.466303230671456e+00	 2.563488027437915e+00
 2.415774147388324e-01	 1.468497410057485e+00	 2.488149717419268e+00
 2.286161023126452e-01	 1.470570966808747e+00	 2.416387855476727e+00
 2.156742983697642e-01	 1.472524664540513e+00	 2.348293825123373e+00
 2.027534910225307e-01	 1.474359288821967e+00	 2.283953411527553e+00
 1.898551458033337e-01	 1.476075646526774e+00	 2.223446578077524e+00
 1.769807053710161e-01	 1.477674565181324e+00	 2.166847386476674e+00
 1.641315892369290e-01	 1.479156892311292e+00	 2.114224052165298e+00
 1.513091935104759e-01	 1.480523494787114e+00	 2.065639126602481e+00
 1.385148906639661e-01	 1.481775258168994e+00	 2.021149797755967e+00
 1.257500293165774e-01	 1.482913086052018e+00	 1.980808299987155e+00
 2.555628783337231e-01	 1.472098895614822e+00	 2.604645482470675e+00
 2.425322661804879e-01	 1.474301747646645e+00	 2.529240343255978e+00
 2.295197232704027e-01	 1.476383500274395e+00	 2.457393128893454e+00
 2.165267659522535e-01	 1.478344920131582e+00	 2.389203437389573e+00
 2.035548882202481e-01	 1.480186795892409e+00	 2.324764441163423e+00
 1.906055613993944e-01	 1.481909937619766e+00	 2.264162673518102e+00
 1.776802338507434e-01	 1.483515176110895e+00	 2.207477962273146e+00
 1.647803306963634e-01	 1.485003362241376e+00	 2.154783502119766e+00
 1.519072535638770e-01	 1.486375366308012e+00	 2.106146057002472e+00
 1.390623803503849e-01	 1.487632077371243e+00	 2.061626283644266e+00
 1.262470650055757e-01	 1.488774402597678e+00	 2.021279167163526e+00
 2.565690313980291e-01	 1.477894560558187e+00	 2.645632862853168e+00
 2.434871176221434e-01	 1.480106085235805e+00	 2.570160415047104e+00
 2.304233442281601e-01	 1.482196033740042e+00	 2.498233005824923e+00
 2.173792335347426e-01	 1.484165175722651e+00	 2.429957208986778e+00
 2.043562854179657e-01	 1.486014302962852e+00	 2.365432288436435e+00
 1.913559769954550e-01	 1.487744228712756e+00	 2.304749997599108e+00
 1.783797623304708e-01	 1.489355787040465e+00	 2.247994529660042e+00
 1.654290721557979e-01	 1.490849832171460e+00	 2.195242609962693e+00
 1.525053136172781e-01	 1.492227237828909e+00	 2.146563721626145e+00
 1.396098700368037e-01	 1.493488896573492e+00	 2.102020455255285e+00
 1.267441006945741e-01	 1.494635719143338e+00	 2.061668973458298e+00
 2.575751844623351e-01	 1.483690225501552e+00	 2.686476374535550e+00
 2.444419690637989e-01	 1.485910422824965e+00	 2.610936327569922e+00
 2.313269651859176e-01	 1.488008567205688e+00	 2.538933614968349e+00
 2.182317011172318e-01	 1.489985431313720e+00	 2.470580565959299e+00
 2.051576826156832e-01	 1.491841810033294e+00	 2.405981258323511e+00
 1.921063925915156e-01	 1.493578519805748e+00	 2.345231333782430e+00
 1.790792908101981e-01	 1.495196397970036e+00	 2.288417967922264e+00
 1.660778136152324e-01	 1.496696302101544e+00	 2.235619985734496e+00
 1.531033736706792e-01	 1.498079109349807e+00	 2.186908113600968e+00
 1.401573597232225e-01	 1.499345715775741e+00	 2.142345358344254e+00
 1.272411363835724e-01	 1.500497035688998e+00	 2.101987503806133e+00
 2.585813375266411e-01	 1.489485890444918e+00	 2.727202259286461e+00
 2.453968205054543e-01	 1.491714760414125e+00	 2.651594444032002e+00
 2.322305861436751e-01	 1.493821100671336e+00	 2.579520997205321e+00
 2.190841686997210e-01	 1.495805686904789e+00	 2.511098801141151e+00
 2.059590798134008e-01	 1.497669317103737e+00	 2.446435487746603e+00
 1.928568081875762e-01	 1.499412810898739e+00	 2.385629272890262e+00
 1.797788192899255e-01	 1.501037008899606e+00	 2.328768949069683e+00
 1.667265550746670e-01	 1.502542772031629e+00	 2.275934027202683e+00
 1.537014337240803e-01	 1.503930980870704e+00	 2.227195018110017e+00
 1.407048494096414e-01	 1.505202534977990e+00	 2.182613844054281e+00
 1.277381720725707e-01	 1.506358352234658e+00	 2.142244370541928e+00
 2.595874905909471e-01	 1.495281555388283e+00	 2.767836800047683e+00
 2.463516719471097e-01	 1.497519098003285e+00	 2.692161102140390e+00
 2.331342071014326e-01	 1.499633634136983e+00	 2.620021112198135e+00
 2.199366362822101e-01	 1.501625942495859e+00	 2.551537081102851e+00
 2.067604770111182e-01	 1.503496824174180e+00	 2.486818952710571e+00
 1.936072237836368e-01	 1.505247101991730e+00	 2.425966220258581e+00
 1.804783477696528e-01	 1.506877619829176e+00	 2.369067944846234e+00
 1.673752965341014e-01	 1.508389241961712e+00	 2.316202926574895e+00
 1.542994937774813e-01	 1.509782852391602e+00	 2.267440018655699e+00
 1.412523390960602e-01	 1.511059354180239e+00	 2.222838574586578e+00
 1.282352077615690e-01	 1.512219668780318e+00	 2.182449018341632e+00
 2.605936436552530e-01	 1.501077220331648e+00	 2.808406326166198e+00
 2.473065233887652e-01	 1.503323435592445e+00	 2.732662620027884e+00
 2.340378280591901e-01	 1.505446167602630e+00	 2.660459844839560e+00
 2.207891038646993e-01	 1.507446198086928e+00	 2.591920452950751e+00
 2.075618742088357e-01	 1.509324331244622e+00	 2.527155475275103e+00
 1.943576393796974e-01	 1.511081393084721e+00	 2.466264402726910e+00
 1.811778762493801e-01	 1.512718230758747e+00	 2.409335233580786e+00
 1.680240379935359e-01	 1.514235711891797e+00	 2.356444677055721e+00
 1.548975538308825e-01	 1.515634723912500e+00	 2.307658503176237e+00
 1.417998287824791e-01	 1.516916173382487e+00	 2.263032028739508e+00
 1.287322434505673e-01	 1.518080985325978e+00	 2.222610729046368e+00
 2.615997967195591e-01	 1.506872885275014e+00	 2.848937218509014e+00
 2.482613748304207e-01	 1.509127773181605e+00	 2.773125302052143e+00
 2.349414490169477e-01	 1.511258701068278e+00	 2.700863011553456e+00
 2.216415714471885e-01	 1.513266453677997e+00	 2.632273850964828e+00
 2.083632714065534e-01	 1.515151838315065e+00	 2.567468730368792e+00
 1.951080549757580e-01	 1.516915684177712e+00	 2.506545875469030e+00
 1.818774047291074e-01	 1.518558841688317e+00	 2.449590906878631e+00
 1.686727794529705e-01	 1.520082181821881e+00	 2.396677079253212e+00
 1.554956138842836e-01	 1.521486595433397e+00	 2.347865670030091e+00
 1.423473184688979e-01	 1.522772992584737e+00	 2.303206507323789e+00
 1.292292791395657e-01	 1.523942301871639e+00	 2.262738626379779e+00
 1.242589222495824e-01	 1.465329136415037e+00	 1.858808787767841e+00
 1.116758241474494e-01	 1.466341797837890e+00	 1.822466585329713e+00
 9.912441221941717e-02	 1.467243711415259e+00	 1.789945403754330e+00
 8.660594728697807e-02	 1.468035819617489e+00	 1.761246564907350e+00
 7.412166593178197e-02	 1.468719080159635e+00	 1.736371575658244e+00
 6.167278037306952e-02	 1.469294465363060e+00	 1.715322937379011e+00
 4.926047836247894e-02	 1.469762961520314e+00	 1.698105003615107e+00
 3.688592309592611e-02	 1.470125568263755e+00	 1.684724877987361e+00
 2.455025314224516e-02	 1.470383297938370e+00	 1.675193344556922e+00
 1.225458238826677e-02	 1.470537174979251e+00	 1.669525823103273e+00
 0.000000000000000e+00	 1.470588235294118e+00	 1.667743341993140e+00
 1.247559579385807e-01	 1.471190452960698e+00	 1.899583349785071e+00
 1.121225274440392e-01	 1.472207165029242e+00	 1.863254938870077e+00
 9.952090986829483e-02	 1.473112686260920e+00	 1.830780887422617e+00
 8.695237107612597e-02	 1.473907962895958e+00	 1.802150143211819e+00
 7.441815259550909e-02	 1.474593956480273e+00	 1.777351159651938e+00
 6.191947149456179e-02	 1.475171643224513e+00	 1.756372758985298e+00
 4.945752027592886e-02	 1.475642013366396e+00	 1.739205044515176e+00
 3.703346678830983e-02	 1.476006070536810e+00	 1.725840353722124e+00
 2.464845415481415e-02	 1.476264831130124e+00	 1.716274244279368e+00
 1.230360071781984e-02	 1.476419323679168e+00	 1.710506505209261e+00
 0.000000000000000e+00	 1.476470588235294e+00	 1.708542185654216e+00
 1.252529936275790e-01	 1.477051769506358e+00	 1.940246409336940e+00
 1.125692307406290e-01	 1.478072532220593e+00	 1.903934621603995e+00
 9.991740751717250e-02	 1.478981661106580e+00	 1.871501407826147e+00
 8.729879486527391e-02	 1.479780106174429e+00	 1.842925982301896e+00
 7.471463925923623e-02	 1.480468832800911e+00	 1.818186389067260e+00
 6.216616261605407e-02	 1.481048821085965e+00	 1.797260415914820e+00
 4.965456218937878e-02	 1.481521065212478e+00	 1.780126558428239e+00
 3.718101048069353e-02	 1.481886572809866e+00	 1.766765025645350e+00
 2.474665516738313e-02	 1.482146364321877e+00	 1.757158779151271e+00
 1.235261904737290e-02	 1.482301472379085e+00	 1.751294597628554e+00
 0.000000000000000e+00	 1.482352941176470e+00	 1.749164159138382e+00
 1.257500293165774e-01	 1.482913086052018e+00	 1.980808299987155e+00
 1.130159340372188e-01	 1.483937899411944e+00	 1.944512946545532e+00
 1.003139051660502e-01	 1.484850635952242e+00	 1.912112182649529e+00
 8.764521865442179e-02	 1.485652249452899e+00	 1.883578092035270e+00
 7.501112592296336e-02	 1.486343709121551e+00	 1.858880915419753e+00
 6.241285373754633e-02	 1.486925998947417e+00	 1.837990012535946e+00
 4.985160410282870e-02	 1.487400117058558e+00	 1.820874875251545e+00
 3.732855417307723e-02	 1.487767075082920e+00	 1.807506183153600e+00
 2.484485617995211e-02	 1.488027897513631e+00	 1.797856893181400e+00
 1.240163737692597e-02	 1.488183621079002e+00	 1.791903355124508e+00
 0.000000000000000e+00	 1.488235294117647e+00	 1.789626445057539e+00
 1.262470650055757e-01	 1.488774402597678e+00	 2.021279167163526e+00
 1.134626373338086e-01	 1.489803266603296e+00	 1.984997061685862e+00
 1.007104028149278e-01	 1.490719610797902e+00	 1.952618276718497e+00
 8.799164244356968e-02	 1.491524392731368e+00	 1.924110331152214e+00
 7.530761258669051e-02	 1.492218585442189e+00	 1.899438230940155e+00
 6.265954485903863e-02	 1.492803176808869e+00	 1.878565476373872e+00
 5.004864601627861e-02	 1.493279168904640e+00	 1.861455121610109e+00
 3.747609786546093e-02	 1.493647577355975e+00	 1.848070877584338e+00
 2.494305719252110e-02	 1.493909430705384e+00	 1.838378249687483e+00
 1.245065570647904e-02	 1.494065769778919e+00	 1.832345701804388e+00
 0.000000000000000e+00	 1.494117647058824e+00	 1.829945838582027e+00
 1.267441006945741e-01	 1.494635719143338e+00	 2.061668973458298e+00
 1.139093406303984e-01	 1.495668633794647e+00	 2.025393954558324e+00
 1.011069004638055e-01	 1.496588585643563e+00	 1.993024606079792e+00
 8.833806623271762e-02	 1.497396536009838e+00	 1.964526411099666e+00
 7.560409925041763e-02	 1.498093461762828e+00	 1.939861672361870e+00
 6.290623598053090e-02	 1.498680354670322e+00	 1.918990562075090e+00
 5.024568792972851e-02	 1.499158220750721e+00	 1.901872225191954e+00
 3.762364155784463e-02	 1.499528079629030e+00	 1.888465927109077e+00
 2.504125820509007e-02	 1.499790963897138e+00	 1.878732236927426e+00
 1.249967403603211e-02	 1.499947918478836e+00	 1.872634237657171e+00
 0.000000000000000e+00	 1.500000000000000e+00	 1.870138755036129e+00
 1.272411363835724e-01	 1.500497035688998e+00	 2.101987503806133e+00
 1.143560439269882e-01	 1.501534000985999e+00	 2.065710456705113e+00
 1.015033981126832e-01	 1.502457560489224e+00	 2.033335941989196e+00
 8.868449002186553e-02	 1.503268679288308e+00	 2.004829899762139e+00
 7.590058591414474e-02	 1.503968338083466e+00	 1.980154424621865e+00
 6.315292710202318e-02	 1.504557532531774e+00	 1.959268855275180e+00
 5.044272984317845e-02	 1.505037272596802e+00	 1.942130918981547e+00
 3.777118525022835e-02	 1.505408581902085e+00	 1.928697921518400e+00
 2.513945921765905e-02	 1.505672497088891e+00	 1.918927973603599e+00
 1.254869236558517e-02	 1.505830067178753e+00	 1.912781244936952e+00
 0.000000000000000e+00	 1.505882352941176e+00	 1.910221237318283e+00
 1.277381720725707e-01	 1.506358352234658e+00	 2.142244370541928e+00
 1.148027472235780e-01	 1.507399368177351e+00	 2.105953248034850e+00
 1.018998957615609e-01	 1.508326535334886e+00	 2.073556914803708e+00
 8.903091381101345e-02	 1.509140822566779e+00	 2.045024225116470e+00
 7.619707257787187e-02	 1.509843214404104e+00	 2.020319524472376e+00
 6.339961822351546e-02	 1.510434710393226e+00	 1.999403776380059e+00
 5.063977175662836e-02	 1.510916324442884e+00	 1.982235745395657e+00
 3.791872894261206e-02	 1.511289084175140e+00	 1.968773226889259e+00
 2.523766023022804e-02	 1.511554030280645e+00	 1.958974314236528e+00
 1.259771069513824e-02	 1.511712215878670e+00	 1.952798694401217e+00
 0.000000000000000e+00	 1.511764705882353e+00	 1.950208963146030e+00
 1.282352077615690e-01	 1.512219668780318e+00	 2.182449018341632e+00
 1.152494505201678e-01	 1.513264735368702e+00	 2.146128861082747e+00
 1.022963934104385e-01	 1.514195510180546e+00	 2.113692017783772e+00
 8.937733760016137e-02	 1.515012965845248e+00	 2.085112678790102e+00
 7.649355924159901e-02	 1.515718090724743e+00	 2.060359864012009e+00
 6.364630934500773e-02	 1.516311888254678e+00	 2.039398584254330e+00
 5.083681367007828e-02	 1.516795376288965e+00	 2.022191060323022e+00
 3.806627263499575e-02	 1.517169586448195e+00	 2.008697990149130e+00
 2.533586124279702e-02	 1.517435563472398e+00	 1.998879854413193e+00
 1.264672902469131e-02	 1.517594364578587e+00	 1.992698251400730e+00
 0.000000000000000e+00	 1.517647058823529e+00	 1.990117252133783e+00
 1.287322434505673e-01	 1.518080985325978e+00	 2.222610729046368e+00
 1.156961538167576e-01	 1.519130102560054e+00	 2.186243685166626e+00
 1.026928910593162e-01	 1.520064485026208e+00	 2.153745610807378e+00
 8.972376138930928e-02	 1.520885109123719e+00	 2.125098419542125e+00
 7.679004590532612e-02	 1.521592967045381e+00	 2.100278194133519e+00
 6.389300046650001e-02	 1.522189066116130e+00	 2.079256379832332e+00
 5.103385558352819e-02	 1.522674428135046e+00	 2.062001037067320e+00
 3.821381632737945e-02	 1.523050088721250e+00	 2.048478143529090e+00
 2.543406225536600e-02	 1.523317096664151e+00	 2.038652935913093e+00
 1.269574735424438e-02	 1.523476513278504e+00	 2.032491281828126e+00
 0.000000000000000e+00	 1.523529411764706e+00	 2.029961072704909e+00
 1.292292791395657e-01	 1.523942301871639e+00	 2.262738626379779e+00
 1.161428571133474e-01	 1.524995469751405e+00	 2.226303970455586e+00
 1.030893887081939e-01	 1.525933459871869e+00	 2.193721924000876e+00
 9.007018517845719e-02	 1.526757252402188e+00	 2.164984476665813e+00
 7.708653256905328e-02	 1.527467843366020e+00	 2.140077127890676e+00
 6.413969158799231e-02	 1.528066243977583e+00	 2.118980109636440e+00
 5.123089749697811e-02	 1.528553479981128e+00	 2.101669670203279e+00
 3.836136001976317e-02	 1.528930590994305e+00	 2.088119408918284e+00
 2.553226326793498e-02	 1.529198629855906e+00	 2.078301651719669e+00
 1.274476568379744e-02	 1.529358661978421e+00	 2.072188857931304e+00
 0.000000000000000e+00	 1.529411764705882e+00	 2.069755048846540e+00
 1.529411764705882e+00	 0.000000000000000e+00	 1.500573200694398e+01
 1.529358661978421e+00	 1.274476568379701e-02	 1.499895345839215e+01
 1.529198629855905e+00	 2.553226326793459e-02	 1.499435840375385e+01
 1.528930590994305e+00	 3.836136001976282e-02	 1.499149509544495e+01
 1.528553479981128e+00	 5.123089749697781e-02	 1.498995879652731e+01
 1.528066243977583e+00	 6.413969158799206e-02	 1.498939390171700e+01
 1.527467843366020e+00	 7.708653256905305e-02	 1.498949600656398e+01
 1.526757252402188e+00	 9.007018517845705e-02	 1.499001392200714e+01
 1.525933459871869e+00	 1.030893887081938e-01	 1.499075163133664e+01
 1.524995469751405e+00	 1.161428571133473e-01	 1.499157018638813e+01
 1.523942301871639e+00	 1.292292791395656e-01	 1.499238953954585e+01
 1.535294117647059e+00	 0.000000000000000e+00	 1.494839264423514e+01
 1.535240810678338e+00	 1.279378401335008e-02	 1.494145961313814e+01
 1.535080163047658e+00	 2.563046428050356e-02	 1.493676243431120e+01
 1.534811093267360e+00	 3.850890371214653e-02	 1.493384736600437e+01
 1.534432531827209e+00	 5.142793941042773e-02	 1.493230826646898e+01
 1.533943421839035e+00	 6.438638270948431e-02	 1.493178871157825e+01
 1.533342719686659e+00	 7.738301923278017e-02	 1.493198406093351e+01
 1.532629395680658e+00	 9.041660896760494e-02	 1.493264346983648e+01
 1.531802434717530e+00	 1.034858863570714e-01	 1.493357184433254e+01
 1.530860836942757e+00	 1.165895604099371e-01	 1.493463173632058e+01
 1.529803618417299e+00	 1.297263148285640e-01	 1.493574517547641e+01
 1.541176470588235e+00	 0.000000000000000e+00	 1.489207260573789e+01
 1.541122959378255e+00	 1.284280234290314e-02	 1.488498972771109e+01
 1.540961696239412e+00	 2.572866529307254e-02	 1.488019549376626e+01
 1.540691595540415e+00	 3.865644740453023e-02	 1.487723358586477e+01
 1.540311583673290e+00	 5.162498132387765e-02	 1.487569586121923e+01
 1.539820599700487e+00	 6.463307383097661e-02	 1.487522446618204e+01
 1.539217596007297e+00	 7.767950589650731e-02	 1.487551389900498e+01
 1.538501538959128e+00	 9.076303275675283e-02	 1.487631301903196e+01
 1.537671409563191e+00	 1.038823840059491e-01	 1.487742699971295e+01
 1.536726204134108e+00	 1.170362637065270e-01	 1.487871922261203e+01
 1.535664934962959e+00	 1.302233505175623e-01	 1.488011310933213e+01
 1.547058823529411e+00	 0.000000000000000e+00	 1.483674453417817e+01
 1.547005108078173e+00	 1.289182067245621e-02	 1.482951614386135e+01
 1.546843229431165e+00	 2.582686630564153e-02	 1.482462966173886e+01
 1.546572097813470e+00	 3.880399109691393e-02	 1.482162562707521e+01
 1.546190635519372e+00	 5.182202323732756e-02	 1.482009331518578e+01
 1.545697777561939e+00	 6.487976495246887e-02	 1.481967284721090e+01
 1.545092472327936e+00	 7.797599256023442e-02	 1.482005724921918e+01
 1.544373682237598e+00	 9.110945654590077e-02	 1.482099445838965e+01
 1.543540384408852e+00	 1.042788816548268e-01	 1.482228927385172e+01
 1.542591571325460e+00	 1.174829670031168e-01	 1.482380524954161e+01
 1.541526251508619e+00	 1.307203862065607e-01	 1.482546652617989e+01
 1.552941176470588e+00	 0.000000000000000e+00	 1.478238113809663e+01
 1.552887256778089e+00	 1.294083900200927e-02	 1.477501120106904e+01
 1.552724762622919e+00	 2.592506731821051e-02	 1.477003695219745e+01
 1.552452600086525e+00	 3.895153478929764e-02	 1.476699523733491e+01
 1.552069687365453e+00	 5.201906515077748e-02	 1.476547218437685e+01
 1.551574955423392e+00	 6.512645607396117e-02	 1.476510530850245e+01
 1.550967348648575e+00	 7.827247922396159e-02	 1.476558556727423e+01
 1.550245825516068e+00	 9.145588033504867e-02	 1.476665936354443e+01
 1.549409359254513e+00	 1.046753793037044e-01	 1.476813049394197e+01
 1.548456938516811e+00	 1.179296702997065e-01	 1.476986204049401e+01
 1.547387568054279e+00	 1.312174218955590e-01	 1.477177820267574e+01
 1.558823529411765e+00	 0.000000000000000e+00	 1.472895519060677e+01
 1.558769405478006e+00	 1.298985733156234e-02	 1.472144723594396e+01
 1.558606295814673e+00	 2.602326833077949e-02	 1.471638931354247e+01
 1.558333102359580e+00	 3.909907848168133e-02	 1.471331404080315e+01
 1.557948739211534e+00	 5.221610706422739e-02	 1.471180384798528e+01
 1.557452133284844e+00	 6.537314719545342e-02	 1.471149307845793e+01
 1.556842224969213e+00	 7.856896588768868e-02	 1.471207003941311e+01
 1.556117968794538e+00	 9.180230412419658e-02	 1.471327900119422e+01
 1.555278334100174e+00	 1.050718769525821e-01	 1.471492214321630e+01
 1.554322305708163e+00	 1.183763735962963e-01	 1.471686144423757e+01
 1.553248884599940e+00	 1.317144575845573e-01	 1.471902051446858e+01
 1.564705882352941e+00	 0.000000000000000e+00	 1.467643952818138e+01
 1.564651554177923e+00	 1.303887566111540e-02	 1.466879658163979e+01
 1.564487829006426e+00	 2.612146934334847e-02	 1.466365862868915e+01
 1.564213604632636e+00	 3.924662217406504e-02	 1.466055353889564e+01
 1.563827791057615e+00	 5.241314897767730e-02	 1.465905950994518e+01
 1.563329311146296e+00	 6.561983831694571e-02	 1.465880716241046e+01
 1.562717101289851e+00	 7.886545255141580e-02	 1.465948158565696e+01
 1.561990112073008e+00	 9.214872791334452e-02	 1.466082433325425e+01
 1.561147308945835e+00	 1.054683746014597e-01	 1.466263536608338e+01
 1.560187672899515e+00	 1.188230768928862e-01	 1.466477494110620e+01
 1.559110201145600e+00	 1.322114932735556e-01	 1.466716544349202e+01
 1.570588235294118e+00	 0.000000000000000e+00	 1.462480704946566e+01
 1.570533702877840e+00	 1.308789399066846e-02	 1.461703156728209e+01
 1.570369362198180e+00	 2.621967035591744e-02	 1.461181671515098e+01
 1.570094106905690e+00	 3.939416586644875e-02	 1.460868511106719e+01
 1.569706842903696e+00	 5.261019089112721e-02	 1.460721020046222e+01
 1.569206489007748e+00	 6.586652943843797e-02	 1.460701834495341e+01
 1.568591977610490e+00	 7.916193921514296e-02	 1.460779086298475e+01
 1.567862255351478e+00	 9.249515170249240e-02	 1.460926602094635e+01
 1.567016283791496e+00	 1.058648722503374e-01	 1.461124097318451e+01
 1.566053040090867e+00	 1.192697801894760e-01	 1.461357364908658e+01
 1.564971517691260e+00	 1.327085289625540e-01	 1.461618458514833e+01
 1.576470588235294e+00	 0.000000000000000e+00	 1.457403071411767e+01
 1.576415851577757e+00	 1.313691232022153e-02	 1.456612451740918e+01
 1.576250895389933e+00	 2.631787136848642e-02	 1.456083532512337e+01
 1.575974609178745e+00	 3.954170955883245e-02	 1.455768001558277e+01
 1.575585894749777e+00	 5.280723280457712e-02	 1.455622677751876e+01
 1.575083666869201e+00	 6.611322055993027e-02	 1.455609719223028e+01
 1.574466853931129e+00	 7.945842587887007e-02	 1.455696826846220e+01
 1.573734398629947e+00	 9.284157549164031e-02	 1.455857442882171e+01
 1.572885258637157e+00	 1.062613698992151e-01	 1.456070944637161e+01
 1.571918407282218e+00	 1.197164834860657e-01	 1.456322832981336e+01
 1.570832834236920e+00	 1.332055646515523e-01	 1.456604915538498e+01
 1.582352941176471e+00	 0.000000000000000e+00	 1.452408354167394e+01
 1.582298000277674e+00	 1.318593064977460e-02	 1.451604775142703e+01
 1.582132428581687e+00	 2.641607238105540e-02	 1.451068614556735e+01
 1.581855111451800e+00	 3.968925325121615e-02	 1.450750939027483e+01
 1.581464946595859e+00	 5.300427471802706e-02	 1.450607992835324e+01
 1.580960844730653e+00	 6.635991168142254e-02	 1.450601405418622e+01
 1.580341730251767e+00	 7.975491254259720e-02	 1.450698394231895e+01
 1.579606541908418e+00	 9.318799928078823e-02	 1.450871962872119e+01
 1.578754233482818e+00	 1.066578675480927e-01	 1.451101094360978e+01
 1.577783774473569e+00	 1.201631867826555e-01	 1.451370939447474e+01
 1.576694150782580e+00	 1.337026003405506e-01	 1.451672999766968e+01
 1.588235294117647e+00	 0.000000000000000e+00	 1.447493861044085e+01
 1.588180148977591e+00	 1.323494897932766e-02	 1.446677358307531e+01
 1.588013961773440e+00	 2.651427339362439e-02	 1.446134079829374e+01
 1.587735613724855e+00	 3.983679694359986e-02	 1.445814425328980e+01
 1.587343998441940e+00	 5.320131663147697e-02	 1.445674017091562e+01
 1.586838022592106e+00	 6.660660280291482e-02	 1.445673906678383e+01
 1.586216606572406e+00	 8.005139920632434e-02	 1.445780777097787e+01
 1.585478685186888e+00	 9.353442306993613e-02	 1.445967140367473e+01
 1.584623208328479e+00	 1.070543651969705e-01	 1.446211530380389e+01
 1.583649141664921e+00	 1.206098900792453e-01	 1.446498690963120e+01
 1.582555467328240e+00	 1.341996360295490e-01	 1.446819758986347e+01
 1.523942301871639e+00	 1.292292791395656e-01	 1.499238953954585e+01
 1.522772992584737e+00	 1.423473184688974e-01	 1.499263350014747e+01
 1.521486595433397e+00	 1.554956138842831e-01	 1.499172612192437e+01
 1.520082181821881e+00	 1.686727794529701e-01	 1.498967578967796e+01
 1.518558841688318e+00	 1.818774047291072e-01	 1.498654914780613e+01
 1.516915684177712e+00	 1.951080549757578e-01	 1.498247248359183e+01
 1.515151838315065e+00	 2.083632714065531e-01	 1.497763302610995e+01
 1.513266453677997e+00	 2.216415714471884e-01	 1.497228015481412e+01
 1.511258701068278e+00	 2.349414490169477e-01	 1.496672651130982e+01
 1.509127773181605e+00	 2.482613748304207e-01	 1.496134900722694e+01
 1.506872885275014e+00	 2.615997967195591e-01	 1.495658972048588e+01
 1.529803618417299e+00	 1.297263148285640e-01	 1.493574517547641e+01
 1.528629811786986e+00	 1.428948081553162e-01	 1.493629844789245e+01
 1.527338466954295e+00	 1.560936739376842e-01	 1.493567753419882e+01
 1.525928651751966e+00	 1.693215209124046e-01	 1.493389337626399e+01
 1.524399452617888e+00	 1.825769332088346e-01	 1.493101635381452e+01
 1.522749975270704e+00	 1.958584705718184e-01	 1.492717768983882e+01
 1.520979345385507e+00	 2.091646686042706e-01	 1.492257077304990e+01
 1.519086709269066e+00	 2.224940390296776e-01	 1.491745239152439e+01
 1.517071234533925e+00	 2.358450699747051e-01	 1.491214387106273e+01
 1.514932110770765e+00	 2.492162262720763e-01	 1.490703211119922e+01
 1.512668550218379e+00	 2.626059497838650e-01	 1.490257051115075e+01
 1.535664934962959e+00	 1.302233505175623e-01	 1.488011310933213e+01
 1.534486630989235e+00	 1.434422978417350e-01	 1.488096057338511e+01
 1.533190338475192e+00	 1.566917339910853e-01	 1.488061333819059e+01
 1.531775121682049e+00	 1.699702623718390e-01	 1.487908517768714e+01
 1.530240063547459e+00	 1.832764616885618e-01	 1.487645044586500e+01
 1.528584266363695e+00	 1.966088861678790e-01	 1.487284550321830e+01
 1.526806852455950e+00	 2.099660658019882e-01	 1.486847006181890e+01
 1.524906964860136e+00	 2.233465066121668e-01	 1.486358844319527e+01
 1.522883767999572e+00	 2.367486909324626e-01	 1.485853074260409e+01
 1.520736448359925e+00	 2.501710777137318e-01	 1.485369389264740e+01
 1.518464215161745e+00	 2.636121028481710e-01	 1.484954261852319e+01
 1.541526251508619e+00	 1.307203862065607e-01	 1.482546652617989e+01
 1.540343450191484e+00	 1.439897875281539e-01	 1.482659358589585e+01
 1.539042209996091e+00	 1.572897940444864e-01	 1.482650749217360e+01
 1.537621591612134e+00	 1.706190038312735e-01	 1.482522512405070e+01
 1.536080674477029e+00	 1.839759901682891e-01	 1.482282504624033e+01
 1.534418557456686e+00	 1.973593017639396e-01	 1.481944895555273e+01
 1.532634359526392e+00	 2.107674629997057e-01	 1.481530304763000e+01
 1.530727220451205e+00	 2.241989741946560e-01	 1.481065929824786e+01
 1.528696301465220e+00	 2.376523118902201e-01	 1.480585665282242e+01
 1.526540785949085e+00	 2.511259291553871e-01	 1.480130211710544e+01
 1.524259880105111e+00	 2.646182559124771e-01	 1.479747174136030e+01
 1.547387568054279e+00	 1.312174218955590e-01	 1.477177820267574e+01
 1.546200269393733e+00	 1.445372772145727e-01	 1.477317076620109e+01
 1.544894081516988e+00	 1.578878540978875e-01	 1.477333351662732e+01
 1.543468061542218e+00	 1.712677452907081e-01	 1.477228670919256e+01
 1.541921285406600e+00	 1.846755186480166e-01	 1.477011335334260e+01
 1.540252848549677e+00	 1.981097173600002e-01	 1.476696067803576e+01
 1.538461866596835e+00	 2.115688601974232e-01	 1.476304151918056e+01
 1.536547476042274e+00	 2.250514417771451e-01	 1.475863562353872e+01
 1.534508834930867e+00	 2.385559328479776e-01	 1.475409086278999e+01
 1.532345123538245e+00	 2.520807805970426e-01	 1.474982435077732e+01
 1.530055545048476e+00	 2.656244089767830e-01	 1.474632345623724e+01
 1.553248884599940e+00	 1.317144575845573e-01	 1.471902051446858e+01
 1.552057088595982e+00	 1.450847669009916e-01	 1.472066497511753e+01
 1.550745953037886e+00	 1.584859141512885e-01	 1.472106450384603e+01
 1.549314531472302e+00	 1.719164867501426e-01	 1.472024300130877e+01
 1.547761896336170e+00	 1.853750471277438e-01	 1.471828815327256e+01
 1.546087139642668e+00	 1.988601329560608e-01	 1.471535291370752e+01
 1.544289373667277e+00	 2.123702573951407e-01	 1.471165691196233e+01
 1.542367731633343e+00	 2.259039093596343e-01	 1.470748777844278e+01
 1.540321368396514e+00	 2.394595538057350e-01	 1.470320238255477e+01
 1.538149461127406e+00	 2.530356320386981e-01	 1.469922797597374e+01
 1.535851209991842e+00	 2.666305620410890e-01	 1.469606323356252e+01
 1.559110201145600e+00	 1.322114932735556e-01	 1.466716544349202e+01
 1.557913907798231e+00	 1.456322565874104e-01	 1.466904866191178e+01
 1.556597824558783e+00	 1.590839742046897e-01	 1.466967312740975e+01
 1.555161001402386e+00	 1.725652282095770e-01	 1.466906665343137e+01
 1.553602507265741e+00	 1.860745756074712e-01	 1.466732183125763e+01
 1.551921430735660e+00	 1.996105485521215e-01	 1.466459752977495e+01
 1.550116880737720e+00	 2.131716545928583e-01	 1.466112032141553e+01
 1.548187987224412e+00	 2.267563769421235e-01	 1.465718582878059e+01
 1.546133901862161e+00	 2.403631747634925e-01	 1.465315998578046e+01
 1.543953798716565e+00	 2.539904834803535e-01	 1.464948020640324e+01
 1.541646874935207e+00	 2.676367151053950e-01	 1.464665645345712e+01
 1.564971517691260e+00	 1.327085289625540e-01	 1.461618458514833e+01
 1.563770727000480e+00	 1.461797462738293e-01	 1.461829387258714e+01
 1.562449696079681e+00	 1.596820342580907e-01	 1.461913165152287e+01
 1.561007471332470e+00	 1.732139696690116e-01	 1.461872991376548e+01
 1.559443118195311e+00	 1.867741040871985e-01	 1.461718638293250e+01
 1.557755721828651e+00	 2.003609641481821e-01	 1.461466602978083e+01
 1.555944387808162e+00	 2.139730517905757e-01	 1.461140251592998e+01
 1.554008242815482e+00	 2.276088445246127e-01	 1.460769956059500e+01
 1.551946435327808e+00	 2.412667957212500e-01	 1.460393222424024e+01
 1.549758136305725e+00	 2.549453349220090e-01	 1.460054810232291e+01
 1.547442539878572e+00	 2.686428681697011e-01	 1.459806842150108e+01
 1.570832834236920e+00	 1.332055646515523e-01	 1.456604915538498e+01
 1.569627546202729e+00	 1.467272359602481e-01	 1.456837225805201e+01
 1.568301567600579e+00	 1.602800943114918e-01	 1.456941194022317e+01
 1.566853941262555e+00	 1.738627111284461e-01	 1.456920463588710e+01
 1.565283729124882e+00	 1.874736325669258e-01	 1.456785342547539e+01
 1.563590012921642e+00	 2.011113797442426e-01	 1.456552956562485e+01
 1.561771894878605e+00	 2.147744489882931e-01	 1.456247394969760e+01
 1.559828498406551e+00	 2.284613121071019e-01	 1.455899849377997e+01
 1.557758968793456e+00	 2.421704166790076e-01	 1.455548744216575e+01
 1.555562473894885e+00	 2.559001863636644e-01	 1.455239858555046e+01
 1.553238204821938e+00	 2.696490212340070e-01	 1.455026438435142e+01
 1.576694150782580e+00	 1.337026003405506e-01	 1.451672999766968e+01
 1.575484365404978e+00	 1.472747256466669e-01	 1.451925508217224e+01
 1.574153439121476e+00	 1.608781543648929e-01	 1.452048546646432e+01
 1.572700411192639e+00	 1.745114525878806e-01	 1.452046228880865e+01
 1.571124340054452e+00	 1.881731610466532e-01	 1.451929420860438e+01
 1.569424304014633e+00	 2.018617953403032e-01	 1.451715894944229e+01
 1.567599401949048e+00	 2.155758461860107e-01	 1.451430477542068e+01
 1.565648753997620e+00	 2.293137796895910e-01	 1.451105189556617e+01
 1.563571502259103e+00	 2.430740376367650e-01	 1.450779379045647e+01
 1.561366811484045e+00	 2.568550378053200e-01	 1.450499845434327e+01
 1.559033869765303e+00	 2.706551742983129e-01	 1.450320954523381e+01
 1.582555467328240e+00	 1.341996360295490e-01	 1.446819758986347e+01
 1.581341184607227e+00	 1.478222153330858e-01	 1.447091322971081e+01
 1.580005310642374e+00	 1.614762144182940e-01	 1.447232332107631e+01
 1.578546881122723e+00	 1.751601940473152e-01	 1.447247396691157e+01
 1.576964950984022e+00	 1.888726895263805e-01	 1.447147962543820e+01
 1.575258595107625e+00	 2.026122109363639e-01	 1.446952466534179e+01
 1.573426909019491e+00	 2.163772433837282e-01	 1.446686485687913e+01
 1.571469009588689e+00	 2.301662472720803e-01	 1.446382879386699e+01
 1.569384035724751e+00	 2.439776585945226e-01	 1.446081924075312e+01
 1.567171149073206e+00	 2.578098892469754e-01	 1.445831439814647e+01
 1.564829534708669e+00	 2.716613273626190e-01	 1.445686907931229e+01
 1.506872885275014e+00	 2.615997967195591e-01	 1.495658972048588e+01
 1.504493275831247e+00	 2.749551399761906e-01	 1.495125134992458e+01
 1.501988207219417e+00	 2.883258077150974e-01	 1.494428660054170e+01
 1.499356966351305e+00	 3.017101812577332e-01	 1.493646497240642e+01
 1.496598865332572e+00	 3.151066205366362e-01	 1.492862688683989e+01
 1.493713242108221e+00	 3.285134645205690e-01	 1.492168376465017e+01
 1.490699461101583e+00	 3.419290316603895e-01	 1.491661792574479e+01
 1.487556913846117e+00	 3.553516203556355e-01	 1.491448229763621e+01
 1.484285019609321e+00	 3.687795094417777e-01	 1.491639991967800e+01
 1.480883226008001e+00	 3.822109586980679e-01	 1.492356322921262e+01
 1.477351009614199e+00	 3.956442093758846e-01	 1.493723311518446e+01
 1.512668550218379e+00	 2.626059497838650e-01	 1.490257051115075e+01
 1.510279788430597e+00	 2.760126597453298e-01	 1.489757746359846e+01
 1.507765084939492e+00	 2.894347531293864e-01	 1.489101644316585e+01
 1.505123723914195e+00	 3.028706050318014e-01	 1.488366228915420e+01
 1.502355014814620e+00	 3.163185690771617e-01	 1.487636129913424e+01
 1.499458293039407e+00	 3.297769778456481e-01	 1.487003133750508e+01
 1.496432920567359e+00	 3.432441433206219e-01	 1.486566176746790e+01
 1.493278286591680e+00	 3.567183573570033e-01	 1.486431319375915e+01
 1.489993808146280e+00	 3.701978921703998e-01	 1.486711700277585e+01
 1.486578930723417e+00	 3.836810008469067e-01	 1.487527468603479e+01
 1.483033128881946e+00	 3.971659178734842e-01	 1.489005693224589e+01
 1.518464215161745e+00	 2.636121028481710e-01	 1.484954261852319e+01
 1.516066301029948e+00	 2.770701795144692e-01	 1.484490599327880e+01
 1.513541962659566e+00	 2.905436985436751e-01	 1.483875293564240e+01
 1.510890481477084e+00	 3.040310288058696e-01	 1.483186311907708e+01
 1.508111164296668e+00	 3.175305176176873e-01	 1.482508819850903e+01
 1.505203343970592e+00	 3.310404911707272e-01	 1.481935195069673e+01
 1.502166380033134e+00	 3.445592549808540e-01	 1.481565024021094e+01
 1.498999659337241e+00	 3.580850943583712e-01	 1.481505079819820e+01
 1.495702596683239e+00	 3.716162748990220e-01	 1.481869280035322e+01
 1.492274635438832e+00	 3.851510429957453e-01	 1.482778622980017e+01
 1.488715248149693e+00	 3.986876263710837e-01	 1.484361100988366e+01
 1.524259880105111e+00	 2.646182559124771e-01	 1.479747174136030e+01
 1.521852813629299e+00	 2.781276992836083e-01	 1.479320045626021e+01
 1.519318840379641e+00	 2.916526439579640e-01	 1.478745749301492e+01
 1.516657239039973e+00	 3.051914525799378e-01	 1.478102685241854e+01
 1.513867313778716e+00	 3.187424661582128e-01	 1.477476502542023e+01
 1.510948394901778e+00	 3.323040044958064e-01	 1.476960116680249e+01
 1.507899839498909e+00	 3.458743666410863e-01	 1.476653709683078e+01
 1.504721032082803e+00	 3.594518313597388e-01	 1.476664711787072e+01
 1.501411385220198e+00	 3.730346576276444e-01	 1.477107763219067e+01
 1.497970340154248e+00	 3.866210851445840e-01	 1.478104654640300e+01
 1.494397367417439e+00	 4.002093348686833e-01	 1.479784244726354e+01
 1.530055545048476e+00	 2.656244089767830e-01	 1.474632345623724e+01
 1.527639326228650e+00	 2.791852190527475e-01	 1.474242433238753e+01
 1.525095718099716e+00	 2.927615893722528e-01	 1.473709158204175e+01
 1.522423996602863e+00	 3.063518763540060e-01	 1.473111302452330e+01
 1.519623463260765e+00	 3.199544146987382e-01	 1.472534946280547e+01
 1.516693445832963e+00	 3.335675178208855e-01	 1.472073489201481e+01
 1.513633298964684e+00	 3.471894783013185e-01	 1.471827653842960e+01
 1.510442404828366e+00	 3.608185683611069e-01	 1.471905471579649e+01
 1.507120173757157e+00	 3.744530403562666e-01	 1.472422248497103e+01
 1.503666044869663e+00	 3.880911272934228e-01	 1.473500510208626e+01
 1.500079486685186e+00	 4.017310433662828e-01	 1.475269923968181e+01
 1.535851209991842e+00	 2.666305620410890e-01	 1.469606323356252e+01
 1.533425838828002e+00	 2.802427388218867e-01	 1.469254108063876e+01
 1.530872595819790e+00	 2.938705347865416e-01	 1.468761673839312e+01
 1.528190754165753e+00	 3.075123001280742e-01	 1.468208133369274e+01
 1.525379612742814e+00	 3.211663632392638e-01	 1.467679945464445e+01
 1.522438496764148e+00	 3.348310311459646e-01	 1.467270939545176e+01
 1.519366758430459e+00	 3.485045899615508e-01	 1.467082323446137e+01
 1.516163777573927e+00	 3.621853053624746e-01	 1.467222673204552e+01
 1.512828962294116e+00	 3.758714230848888e-01	 1.467807903411439e+01
 1.509361749585078e+00	 3.895611694422615e-01	 1.468961216620724e+01
 1.505761605952934e+00	 4.032527518638825e-01	 1.470813030230698e+01
 1.541646874935207e+00	 2.676367151053950e-01	 1.464665645345712e+01
 1.539212351427352e+00	 2.813002585910258e-01	 1.464351415558279e+01
 1.536649473539865e+00	 2.949794802008305e-01	 1.463899458373226e+01
 1.533957511728642e+00	 3.086727239021423e-01	 1.463389165893553e+01
 1.531135762224862e+00	 3.223783117797893e-01	 1.462907322442380e+01
 1.528183547695334e+00	 3.360945444710438e-01	 1.462548132838269e+01
 1.525100217896235e+00	 3.498197016217831e-01	 1.462413234276337e+01
 1.521885150319489e+00	 3.635520423638425e-01	 1.462611690462130e+01
 1.518537750831075e+00	 3.772898058135110e-01	 1.463259966555728e+01
 1.515057454300494e+00	 3.910312115911003e-01	 1.464481883395858e+01
 1.511443725220680e+00	 4.047744603614819e-01	 1.466408549388568e+01
 1.547442539878572e+00	 2.686428681697011e-01	 1.459806842150108e+01
 1.544998864026703e+00	 2.823577783601650e-01	 1.459530702371424e+01
 1.542426351259940e+00	 2.960884256151193e-01	 1.459118684268390e+01
 1.539724269291532e+00	 3.098331476762106e-01	 1.458650407761587e+01
 1.536891911706910e+00	 3.235902603203149e-01	 1.458212929351061e+01
 1.533928598626520e+00	 3.373580577961229e-01	 1.457900774337140e+01
 1.530833677362010e+00	 3.511348132820155e-01	 1.457815952951569e+01
 1.527606523065052e+00	 3.649187793652103e-01	 1.458067959028033e+01
 1.524246539368034e+00	 3.787081885421333e-01	 1.458773749747824e+01
 1.520753159015909e+00	 3.925012537399389e-01	 1.460057704904366e+01
 1.517125844488427e+00	 4.062961688590817e-01	 1.462051564041265e+01
 1.553238204821938e+00	 2.696490212340070e-01	 1.455026438435142e+01
 1.550785376626053e+00	 2.834152981293042e-01	 1.454788317966955e+01
 1.548203228980014e+00	 2.971973710294082e-01	 1.454415535969373e+01
 1.545491026854422e+00	 3.109935714502788e-01	 1.453987888300107e+01
 1.542648061188959e+00	 3.248022088608405e-01	 1.453592649943434e+01
 1.539673649557705e+00	 3.386215711212021e-01	 1.453324611333898e+01
 1.536567136827785e+00	 3.524499249422476e-01	 1.453286098912839e+01
 1.533327895810613e+00	 3.662855163665781e-01	 1.453586978529072e+01
 1.529955327904992e+00	 3.801265712707555e-01	 1.454344640197158e+01
 1.526448863731324e+00	 3.939712958887777e-01	 1.455683962630967e+01
 1.522807963756174e+00	 4.078178773566811e-01	 1.457737255876653e+01
 1.559033869765303e+00	 2.706551742983129e-01	 1.450320954523381e+01
 1.556571889225405e+00	 2.844728178984435e-01	 1.450120616232631e+01
 1.553980106700089e+00	 2.983063164436969e-01	 1.449786211578104e+01
 1.551257784417312e+00	 3.121539952243470e-01	 1.449397660171319e+01
 1.548404210671007e+00	 3.260141574013660e-01	 1.449042401408257e+01
 1.545418700488890e+00	 3.398850844462811e-01	 1.448815435054792e+01
 1.542300596293560e+00	 3.537650366024799e-01	 1.448819346406102e+01
 1.539049268556175e+00	 3.676522533679459e-01	 1.449164314613044e+01
 1.535664116441951e+00	 3.815449539993777e-01	 1.449968102666938e+01
 1.532144568446739e+00	 3.954413380376164e-01	 1.451356027433796e+01
 1.528490083023921e+00	 4.093395858542807e-01	 1.453460908031228e+01
 1.564829534708669e+00	 2.716613273626190e-01	 1.445686907931229e+01
 1.562358401824756e+00	 2.855303376675826e-01	 1.445523957078931e+01
 1.559756984420164e+00	 2.994152618579858e-01	 1.445226924518694e+01
 1.557024541980201e+00	 3.133144189984152e-01	 1.444875801108478e+01
 1.554160360153056e+00	 3.272261059418915e-01	 1.444558136180935e+01
 1.551163751420076e+00	 3.411485977713602e-01	 1.444369082551013e+01
 1.548034055759336e+00	 3.550801482627122e-01	 1.444411426457395e+01
 1.544770641301737e+00	 3.690189903693138e-01	 1.444795601012724e+01
 1.541372904978910e+00	 3.829633367279999e-01	 1.445639681631443e+01
 1.537840273162155e+00	 3.969113801864551e-01	 1.447069361799362e+01
 1.534172202291668e+00	 4.108612943518803e-01	 1.449217907447034e+01
 1.477351009614199e+00	 3.956442093758846e-01	 1.493723311518446e+01
 1.473687876551022e+00	 4.090774847474504e-01	 1.494907093874701e+01
 1.469893363077660e+00	 4.225089906747637e-01	 1.495053529318074e+01
 1.465967036162835e+00	 4.359369161985669e-01	 1.494265650342715e+01
 1.461908494045960e+00	 4.493594341471346e-01	 1.492649381883453e+01
 1.457717366785278e+00	 4.627747017646459e-01	 1.490313311456207e+01
 1.453393316792219e+00	 4.761808613588672e-01	 1.487368431346656e+01
 1.448936039351291e+00	 4.895760409678513e-01	 1.483927851213470e+01
 1.444345263124738e+00	 5.029583550453179e-01	 1.480106479458364e+01
 1.439620750641279e+00	 5.163259051643647e-01	 1.476020671712042e+01
 1.434762298768200e+00	 5.296767807391141e-01	 1.471787844793888e+01
 1.483033128881946e+00	 3.971659178734842e-01	 1.489005693224589e+01
 1.479355906845449e+00	 4.106508596887867e-01	 1.490294081727567e+01
 1.475546799089497e+00	 4.241340252542821e-01	 1.490522328518268e+01
 1.471605370917307e+00	 4.376135966454844e-01	 1.489798174337889e+01
 1.467531219023060e+00	 4.510877396630850e-01	 1.488232622092784e+01
 1.463323972042144e+00	 4.645546044637406e-01	 1.485939711138126e+01
 1.458983291087574e+00	 4.780123262102475e-01	 1.483036263125871e+01
 1.454508870271873e+00	 4.914590257408046e-01	 1.479641597725599e+01
 1.449900437213680e+00	 5.048928102570307e-01	 1.475877216509932e+01
 1.445157753528361e+00	 5.183117740303813e-01	 1.471866453291456e+01
 1.440280615301924e+00	 5.317139991265719e-01	 1.467734089204569e+01
 1.488715248149693e+00	 3.986876263710837e-01	 1.484361100988365e+01
 1.485023937139877e+00	 4.122242346301230e-01	 1.485747392535595e+01
 1.481200235101334e+00	 4.257590598338003e-01	 1.486052481329752e+01
 1.477243705671780e+00	 4.392902770924019e-01	 1.485388844081507e+01
 1.473153944000160e+00	 4.528160451790355e-01	 1.483872592316819e+01
 1.468930577299011e+00	 4.663345071628353e-01	 1.481623251008360e+01
 1.464573265382929e+00	 4.798437910616278e-01	 1.478763508292355e+01
 1.460081701192455e+00	 4.933420105137579e-01	 1.475418934520238e+01
 1.455455611302620e+00	 5.068272654687435e-01	 1.471717668875413e+01
 1.450694756415443e+00	 5.202976428963980e-01	 1.467790071778281e+01
 1.445798931835648e+00	 5.337512175140302e-01	 1.463768341307419e+01
 1.494397367417439e+00	 4.002093348686833e-01	 1.479784244726354e+01
 1.490691967434303e+00	 4.137976095714593e-01	 1.481261584570064e+01
 1.486853671113172e+00	 4.273840944133187e-01	 1.481638403119822e+01
 1.482882040426252e+00	 4.409669575393195e-01	 1.481031939194315e+01
 1.478776668977260e+00	 4.545443506949861e-01	 1.479563441955374e+01
 1.474537182555877e+00	 4.681144098619300e-01	 1.477357954097053e+01
 1.470163239678284e+00	 4.816752559130081e-01	 1.474544065646521e+01
 1.465654532113037e+00	 4.952249952867113e-01	 1.471253636565719e+01
 1.461010785391562e+00	 5.087617206804563e-01	 1.467621486321693e+01
 1.456231759302525e+00	 5.222835117624149e-01	 1.463785048583340e+01
 1.451317248369372e+00	 5.357884359014883e-01	 1.459883989205776e+01
 1.500079486685186e+00	 4.017310433662828e-01	 1.475269923968181e+01
 1.496359997728730e+00	 4.153709845127957e-01	 1.476831317449802e+01
 1.492507107125009e+00	 4.290091289928369e-01	 1.477274622424018e+01
 1.488520375180724e+00	 4.426436379862370e-01	 1.476721864350277e+01
 1.484399393954360e+00	 4.562726562109367e-01	 1.475299457387939e+01
 1.480143787812744e+00	 4.698943125610250e-01	 1.473137992358301e+01
 1.475753213973638e+00	 4.835067207643883e-01	 1.470371994850332e+01
 1.471227363033618e+00	 4.971079800596644e-01	 1.467139651597802e+01
 1.466565959480504e+00	 5.106961758921692e-01	 1.463582503231396e+01
 1.461768762189607e+00	 5.242693806284316e-01	 1.459845101497593e+01
 1.456835564903095e+00	 5.378256542889465e-01	 1.456074629036935e+01
 1.505761605952934e+00	 4.032527518638825e-01	 1.470813030230698e+01
 1.502028028023157e+00	 4.169443594541320e-01	 1.472451354618197e+01
 1.498160543136846e+00	 4.306341635723553e-01	 1.472955783531832e+01
 1.494158709935197e+00	 4.443203184331546e-01	 1.472453151976568e+01
 1.490022118931460e+00	 4.580009617268872e-01	 1.471075064793168e+01
 1.485750393069610e+00	 4.716742152601197e-01	 1.468957689613990e+01
 1.481343188268992e+00	 4.853381856157685e-01	 1.466241519500231e+01
 1.476800193954200e+00	 4.989909648326176e-01	 1.463071103325751e+01
 1.472121133569445e+00	 5.126306311038819e-01	 1.459594741945992e+01
 1.467305765076689e+00	 5.262552494944485e-01	 1.455964148175849e+01
 1.462353881436820e+00	 5.398628726764048e-01	 1.452334068599400e+01
 1.511443725220680e+00	 4.047744603614819e-01	 1.466408549388568e+01
 1.507696058317584e+00	 4.185177343954685e-01	 1.468116565817452e+01
 1.503813979148683e+00	 4.322591981518736e-01	 1.468676649070490e+01
 1.499797044689669e+00	 4.459969988800723e-01	 1.468220464952330e+01
 1.495644843908559e+00	 4.597292672428375e-01	 1.466884832967856e+01
 1.491356998326477e+00	 4.734541179592146e-01	 1.464811524497925e+01
 1.486933162564347e+00	 4.871696504671488e-01	 1.462147030200675e+01
 1.482373024874782e+00	 5.008739496055711e-01	 1.459042294639651e+01
 1.477676307658386e+00	 5.145650863155946e-01	 1.455652416110689e+01
 1.472842767963771e+00	 5.282411183604653e-01	 1.452136309622567e+01
 1.467872197970543e+00	 5.419000910638626e-01	 1.448656330982775e+01
 1.517125844488427e+00	 4.062961688590817e-01	 1.462051564041265e+01
 1.513364088612011e+00	 4.200911093368047e-01	 1.463821929560221e+01
 1.509467415160520e+00	 4.338842327313921e-01	 1.464432102586871e+01
 1.505435379444141e+00	 4.476736793269898e-01	 1.464018599306394e+01
 1.501267568885660e+00	 4.614575727587882e-01	 1.462723476145480e+01
 1.496963603583343e+00	 4.752340206583094e-01	 1.460694133399959e+01
 1.492523136859702e+00	 4.890011153185291e-01	 1.458083087638523e+01
 1.487945855795364e+00	 5.027569343785242e-01	 1.455047710818977e+01
 1.483231481747327e+00	 5.164995415273075e-01	 1.451749934020965e+01
 1.478379770850852e+00	 5.302269872264821e-01	 1.448355913679822e+01
 1.473390514504267e+00	 5.439373094513208e-01	 1.445035658200182e+01
 1.522807963756174e+00	 4.078178773566811e-01	 1.457737255876653e+01
 1.519032118906438e+00	 4.216644842781412e-01	 1.459562535598552e+01
 1.515120851172357e+00	 4.355092673109103e-01	 1.460217151127586e+01
 1.511073714198614e+00	 4.493503597739073e-01	 1.459842486913796e+01
 1.506890293862759e+00	 4.631858782747387e-01	 1.458585856814310e+01
 1.502570208840209e+00	 4.770139233574039e-01	 1.456600313410396e+01
 1.498113111155057e+00	 4.908325801699093e-01	 1.454044425658057e+01
 1.493518686715946e+00	 5.046399191514777e-01	 1.451082022742415e+01
 1.488786655836269e+00	 5.184339967390201e-01	 1.447881901970842e+01
 1.483916773737934e+00	 5.322128560924988e-01	 1.444617498517383e+01
 1.478908831037991e+00	 5.459745278387791e-01	 1.441466514823034e+01
 1.528490083023921e+00	 4.093395858542807e-01	 1.453460908031229e+01
 1.524700149200864e+00	 4.232378592194775e-01	 1.455333587390370e+01
 1.520774287184194e+00	 4.371343018904287e-01	 1.456026927817283e+01
 1.516712048953086e+00	 4.510270402208248e-01	 1.455687198191243e+01
 1.512513018839859e+00	 4.649141837906892e-01	 1.454466988535018e+01
 1.508176814097076e+00	 4.787938260564988e-01	 1.452525025264498e+01
 1.503703085450412e+00	 4.926640450212896e-01	 1.450025954336709e+01
 1.499091517636528e+00	 5.065229039244309e-01	 1.447140090098812e+01
 1.494341829925210e+00	 5.203684519507328e-01	 1.444043127602754e+01
 1.489453776625016e+00	 5.341987249585156e-01	 1.440915816124760e+01
 1.484427147571715e+00	 5.480117462262372e-01	 1.437943591618304e+01
 1.534172202291668e+00	 4.108612943518803e-01	 1.449217907447034e+01
 1.530368179495292e+00	 4.248112341608138e-01	 1.451130404563430e+01
 1.526427723196031e+00	 4.387593364699470e-01	 1.451856694435188e+01
 1.522350383707559e+00	 4.527037206677425e-01	 1.451547944791551e+01
 1.518135743816959e+00	 4.666424893066398e-01	 1.450362038757914e+01
 1.513783419353943e+00	 4.805737287555937e-01	 1.448463396287142e+01
 1.509293059745766e+00	 4.944955098726698e-01	 1.446022763061498e+01
 1.504664348557110e+00	 5.084058886973841e-01	 1.443216964599296e+01
 1.499897004014151e+00	 5.223029071624457e-01	 1.440228623259011e+01
 1.494990779512098e+00	 5.361845938245324e-01	 1.437245835805261e+01
 1.489945464105439e+00	 5.500489646136952e-01	 1.434461809188025e+01
 1.434762298768200e+00	 5.296767807391141e-01	 1.471787844793888e+01
 1.429769739166102e+00	 5.430090597638864e-01	 1.468292570148574e+01
 1.424642938725617e+00	 5.563208095694436e-01	 1.466471326328537e+01
 1.419381799985411e+00	 5.696100875958354e-01	 1.466523004287708e+01
 1.413986261530806e+00	 5.828749421813375e-01	 1.468650104727485e+01
 1.408456298372357e+00	 5.961134133669526e-01	 1.472255204034591e+01
 1.402791922303776e+00	 6.093235337159056e-01	 1.474122343786128e+01
 1.396993182238545e+00	 6.225033291475520e-01	 1.473935339954025e+01
 1.391060164524644e+00	 6.356508197850698e-01	 1.471744244404926e+01
 1.384992993236797e+00	 6.487640208163042e-01	 1.467598928289644e+01
 1.378791830445674e+00	 6.618409433670821e-01	 1.461549369381031e+01
 1.440280615301924e+00	 5.317139991265719e-01	 1.467734089204569e+01
 1.435268853547509e+00	 5.450975561475936e-01	 1.464395074077659e+01
 1.430122334643792e+00	 5.584605049908644e-01	 1.462812455320030e+01
 1.424840960754586e+00	 5.718008956250501e-01	 1.463187001743206e+01
 1.419424670229001e+00	 5.851167688820353e-01	 1.465723008336368e+01
 1.413873437981481e+00	 5.984061572645176e-01	 1.469308153927250e+01
 1.408187275851098e+00	 6.116670857686592e-01	 1.471007564018611e+01
 1.402366232939462e+00	 6.248975727211964e-01	 1.470746085724080e+01
 1.396410395926661e+00	 6.380956306303970e-01	 1.468570089803226e+01
 1.390319889364631e+00	 6.512592670502132e-01	 1.464525400908897e+01
 1.384094875947388e+00	 6.643864854569554e-01	 1.458657586717642e+01
 1.445798931835648e+00	 5.337512175140302e-01	 1.463768341307419e+01
 1.440767967928917e+00	 5.471860525313008e-01	 1.460595489770712e+01
 1.435601730561967e+00	 5.606002004122854e-01	 1.459258707976472e+01
 1.430300121523761e+00	 5.739917036542646e-01	 1.459960532509424e+01
 1.424863078927197e+00	 5.873585955827324e-01	 1.462906940629687e+01
 1.419290577590606e+00	 6.006989011620830e-01	 1.466353719339480e+01
 1.413582629398420e+00	 6.140106378214125e-01	 1.467896208063742e+01
 1.407739283640380e+00	 6.272918162948409e-01	 1.467568584713416e+01
 1.401760627328680e+00	 6.405404414757242e-01	 1.465413382818773e+01
 1.395646785492465e+00	 6.537545132841222e-01	 1.461472217602210e+01
 1.389397921449102e+00	 6.669320275468289e-01	 1.455786076855791e+01
 1.451317248369372e+00	 5.357884359014883e-01	 1.459883989205776e+01
 1.446267082310326e+00	 5.492745489150082e-01	 1.456887042204062e+01
 1.441081126480143e+00	 5.627398958337065e-01	 1.455803092609007e+01
 1.435759282292935e+00	 5.761825116834796e-01	 1.456836334658355e+01
 1.430301487625392e+00	 5.896004222834300e-01	 1.460171571594432e+01
 1.424707717199730e+00	 6.029916450596480e-01	 1.463390033895119e+01
 1.418977982945743e+00	 6.163541898741662e-01	 1.464786545024772e+01
 1.413112334341298e+00	 6.296860598684850e-01	 1.464401196161630e+01
 1.407110858730697e+00	 6.429852523210514e-01	 1.462272530008610e+01
 1.400973681620298e+00	 6.562497595180309e-01	 1.458437791950565e+01
 1.394700966950816e+00	 6.694775696367021e-01	 1.452933222625603e+01
 1.456835564903095e+00	 5.378256542889465e-01	 1.456074629036935e+01
 1.451766196691733e+00	 5.513630452987154e-01	 1.453263176253376e+01
 1.446560522398318e+00	 5.648795912551273e-01	 1.452438849809840e+01
 1.441218443062110e+00	 5.783733197126941e-01	 1.453807391386898e+01
 1.435739896323587e+00	 5.918422489841273e-01	 1.457421486855188e+01
 1.430124856808855e+00	 6.052843889572135e-01	 1.460415613033202e+01
 1.424373336493064e+00	 6.186977419269196e-01	 1.461677226646418e+01
 1.418485385042214e+00	 6.320803034421296e-01	 1.461242663194827e+01
 1.412461090132715e+00	 6.454300631663787e-01	 1.459146323491281e+01
 1.406300577748133e+00	 6.587450057519396e-01	 1.455420925212005e+01
 1.400004012452530e+00	 6.720231117265757e-01	 1.450097797099713e+01
 1.462353881436820e+00	 5.398628726764048e-01	 1.452334068599400e+01
 1.457265311073141e+00	 5.534515416824225e-01	 1.449717560460725e+01
 1.452039918316494e+00	 5.670192866765484e-01	 1.449159456348615e+01
 1.446677603831285e+00	 5.805641277419091e-01	 1.450866935032036e+01
 1.441178305021783e+00	 5.940840756848248e-01	 1.454645869231690e+01
 1.435541996417979e+00	 6.075771328547782e-01	 1.457429348113272e+01
 1.429768690040387e+00	 6.210412939796730e-01	 1.458567281167503e+01
 1.423858435743132e+00	 6.344745470157742e-01	 1.458092106418735e+01
 1.417811321534733e+00	 6.478748740117058e-01	 1.456033934274646e+01
 1.411627473875966e+00	 6.612402519858487e-01	 1.452420799378868e+01
 1.405307057954245e+00	 6.745686538164490e-01	 1.447278956375604e+01
 1.467872197970543e+00	 5.419000910638626e-01	 1.448656330982775e+01
 1.462764425454550e+00	 5.555400380661299e-01	 1.446244090804790e+01
 1.457519314234669e+00	 5.691589820979692e-01	 1.445958629072518e+01
 1.452136764600459e+00	 5.827549357711237e-01	 1.448008451090817e+01
 1.446616713719978e+00	 5.963259023855222e-01	 1.451843796254811e+01
 1.440959136027104e+00	 6.098698767523435e-01	 1.454430500528167e+01
 1.435164043587709e+00	 6.233848460324266e-01	 1.455456107182640e+01
 1.429231486444050e+00	 6.368687905894186e-01	 1.454949017522822e+01
 1.423161552936751e+00	 6.503196848570328e-01	 1.452934905596681e+01
 1.416954370003800e+00	 6.637354982197576e-01	 1.449436970250351e+01
 1.410610103455958e+00	 6.771141959063224e-01	 1.444476232375733e+01
 1.473390514504267e+00	 5.439373094513208e-01	 1.445035658200182e+01
 1.468263539835957e+00	 5.576285344498371e-01	 1.442836894473937e+01
 1.462998710152844e+00	 5.712986775193900e-01	 1.442830328810207e+01
 1.457595925369634e+00	 5.849457438003384e-01	 1.445225682245013e+01
 1.452055122418173e+00	 5.985677290862197e-01	 1.449014709920434e+01
 1.446376275636228e+00	 6.121626206499090e-01	 1.451418695824053e+01
 1.440559397135031e+00	 6.257283980851800e-01	 1.452343467512754e+01
 1.434604537144967e+00	 6.392630341630628e-01	 1.451813252895102e+01
 1.428511784338769e+00	 6.527644957023602e-01	 1.449849146278899e+01
 1.422281266131634e+00	 6.662307444536663e-01	 1.446469360519836e+01
 1.415913148957673e+00	 6.796597379961958e-01	 1.441689525664730e+01
 1.478908831037991e+00	 5.459745278387791e-01	 1.441466514823034e+01
 1.473762654217366e+00	 5.597170308335443e-01	 1.439490333642355e+01
 1.468478106071020e+00	 5.734383729408109e-01	 1.439768764279244e+01
 1.463055086138809e+00	 5.871365518295534e-01	 1.442512632390316e+01
 1.457493531116369e+00	 6.008095557869169e-01	 1.446158411057565e+01
 1.451793415245353e+00	 6.144553645474740e-01	 1.448393917827487e+01
 1.445954750682354e+00	 6.280719501379335e-01	 1.449229483084339e+01
 1.439977587845884e+00	 6.416572777367072e-01	 1.448685027247294e+01
 1.433862015740787e+00	 6.552093065476875e-01	 1.446776924092191e+01
 1.427608162259468e+00	 6.687259906875752e-01	 1.443518252876744e+01
 1.421216194459387e+00	 6.822052800860692e-01	 1.438919098283463e+01
 1.484427147571715e+00	 5.480117462262372e-01	 1.437943591618304e+01
 1.479261768598774e+00	 5.618055272172515e-01	 1.436199009248880e+01
 1.473957501989195e+00	 5.755780683622320e-01	 1.436768395997144e+01
 1.468514246907983e+00	 5.893273598587679e-01	 1.439850626855580e+01
 1.462931939814564e+00	 6.030513824876145e-01	 1.443275053702036e+01
 1.457210554854477e+00	 6.167481084450392e-01	 1.445356502779421e+01
 1.451350104229676e+00	 6.304155021906871e-01	 1.446114626817019e+01
 1.445350638546802e+00	 6.440515213103518e-01	 1.445564907250154e+01
 1.439212247142805e+00	 6.576541173930145e-01	 1.443718859134654e+01
 1.432935058387301e+00	 6.712212369214841e-01	 1.440584283122467e+01
 1.426519239961101e+00	 6.847508221759425e-01	 1.436165566599297e+01
 1.489945464105439e+00	 5.500489646136952e-01	 1.434461809188025e+01
 1.484760882980182e+00	 5.638940236009590e-01	 1.432957764778692e+01
 1.479436897907371e+00	 5.777177637836530e-01	 1.433823940195790e+01
 1.473973407677158e+00	 5.915181678879827e-01	 1.437158225787278e+01
 1.468370348512759e+00	 6.052932091883120e-01	 1.440365139475586e+01
 1.462627694463601e+00	 6.190408523426045e-01	 1.442307133475882e+01
 1.456745457776998e+00	 6.327590542434405e-01	 1.442999717519318e+01
 1.450723689247720e+00	 6.464457648839963e-01	 1.442453805178609e+01
 1.444562478544823e+00	 6.600989282383416e-01	 1.440675917221136e+01
 1.438261954515135e+00	 6.737164831553929e-01	 1.437668433299955e+01
 1.431822285462815e+00	 6.872963642658162e-01	 1.433429894172402e+01
 1.378791830445674e+00	 6.618409433670821e-01	 1.461549369381031e+01
 1.372456876463511e+00	 6.748795953863057e-01	 1.454963758711899e+01
 1.365988370065631e+00	 6.878779825421073e-01	 1.449078451461950e+01
 1.359386588687371e+00	 7.008341091283107e-01	 1.443739226385648e+01
 1.352651848595940e+00	 7.137459789804408e-01	 1.438783387492294e+01
 1.345784505036784e+00	 7.266115964004840e-01	 1.434040413447928e+01
 1.338784952354029e+00	 7.394289670895923e-01	 1.429332664329759e+01
 1.331653624084624e+00	 7.521960990878946e-01	 1.424476145556070e+01
 1.324390993025830e+00	 7.649110037205741e-01	 1.419281328503170e+01
 1.316997571275725e+00	 7.775716965493286e-01	 1.413554026994884e+01
 1.309473910246449e+00	 7.901761983283442e-01	 1.407096328511659e+01
 1.384094875947388e+00	 6.643864854569554e-01	 1.458657586717642e+01
 1.377735556757601e+00	 6.774752861377915e-01	 1.452287546509261e+01
 1.371242171488961e+00	 6.905236670903458e-01	 1.446607410370731e+01
 1.364614998643861e+00	 7.035296249326504e-01	 1.441462854215435e+01
 1.357854355705924e+00	 7.164911558226733e-01	 1.436691053964377e+01
 1.350960599286925e+00	 7.294062563866396e-01	 1.432121340463687e+01
 1.343934125247698e+00	 7.422729246553212e-01	 1.427575912822869e+01
 1.336775368792642e+00	 7.550891610074639e-01	 1.422870610035313e+01
 1.329484804537468e+00	 7.678529691194997e-01	 1.417815740425315e+01
 1.322062946549863e+00	 7.805623569206720e-01	 1.412216968133457e+01
 1.314510348362782e+00	 7.932153375526844e-01	 1.405876255506499e+01
 1.389397921449102e+00	 6.669320275468289e-01	 1.455786076855791e+01
 1.383014237051692e+00	 6.800709768892774e-01	 1.449630015364296e+01
 1.376495972912291e+00	 6.931693516385851e-01	 1.444153537118786e+01
 1.369843408600351e+00	 7.062251407369899e-01	 1.439202269404504e+01
 1.363056862815908e+00	 7.192363326649058e-01	 1.434613316177240e+01
 1.356136693537067e+00	 7.322009163727955e-01	 1.430215918310702e+01
 1.349083298141368e+00	 7.451168822210503e-01	 1.425832173348035e+01
 1.341897113500660e+00	 7.579822229270322e-01	 1.421277814659241e+01
 1.334578616049106e+00	 7.707949345184248e-01	 1.416363049583033e+01
 1.327128321824000e+00	 7.835530172920158e-01	 1.410893455792731e+01
 1.319546786479115e+00	 7.962544767770239e-01	 1.404670934773062e+01
 1.394700966950816e+00	 6.694775696367021e-01	 1.452933222625603e+01
 1.388292917345783e+00	 6.826666676407631e-01	 1.446989516269120e+01
 1.381749774335620e+00	 6.958150361868238e-01	 1.441715184762558e+01
 1.375071818556840e+00	 7.089206565413295e-01	 1.436955860867538e+01
 1.368259369925893e+00	 7.219815095071385e-01	 1.432548632490746e+01
 1.361312787787208e+00	 7.349955763589513e-01	 1.428322708069858e+01
 1.354232471035037e+00	 7.479608397867796e-01	 1.424100142562285e+01
 1.347018858208678e+00	 7.608752848466011e-01	 1.419696623980879e+01
 1.339672427560743e+00	 7.737368999173498e-01	 1.414922320090843e+01
 1.332193697098138e+00	 7.865436776633593e-01	 1.409582784536727e+01
 1.324583224595447e+00	 7.992936160013636e-01	 1.403479921308675e+01
 1.400004012452530e+00	 6.720231117265757e-01	 1.450097797099713e+01
 1.393571597639873e+00	 6.852623583922489e-01	 1.444364792963993e+01
 1.387003575758949e+00	 6.984607207350628e-01	 1.439291101067082e+01
 1.380300228513331e+00	 7.116161723456692e-01	 1.434722413687372e+01
 1.373461877035878e+00	 7.247266863493707e-01	 1.430495858435626e+01
 1.366488882037350e+00	 7.377902363451070e-01	 1.426440668581977e+01
 1.359381643928707e+00	 7.508047973525089e-01	 1.422378915100551e+01
 1.352140602916696e+00	 7.637683467661700e-01	 1.418126300419645e+01
 1.344766239072381e+00	 7.766788653162753e-01	 1.413493013529217e+01
 1.337259072372275e+00	 7.895343380347029e-01	 1.408284645745618e+01
 1.329619662711779e+00	 8.023327552257034e-01	 1.402303166065988e+01
 1.405307057954245e+00	 6.745686538164490e-01	 1.447278956375604e+01
 1.398850277933963e+00	 6.878580491437345e-01	 1.441754974451085e+01
 1.392257377182279e+00	 7.011064052833014e-01	 1.436880420767310e+01
 1.385528638469820e+00	 7.143116881500089e-01	 1.432501101140373e+01
 1.378664384145862e+00	 7.274718631916032e-01	 1.428454238519236e+01
 1.371664976287491e+00	 7.405848963312623e-01	 1.424569148050431e+01
 1.364530816822376e+00	 7.536487549182384e-01	 1.420667974991552e+01
 1.357262347624713e+00	 7.666614086857391e-01	 1.416566495506860e+01
 1.349860050584019e+00	 7.796208307152006e-01	 1.412074980036268e+01
 1.342324447646412e+00	 7.925249984060462e-01	 1.406999118569865e+01
 1.334656100828112e+00	 8.053718944500431e-01	 1.401141006785869e+01
 1.410610103455958e+00	 6.771141959063224e-01	 1.444476232375733e+01
 1.404128958228054e+00	 6.904537398952204e-01	 1.439159567528218e+01
 1.397511178605608e+00	 7.037520898315405e-01	 1.434482657851628e+01
 1.390757048426311e+00	 7.170072039543487e-01	 1.430291476745739e+01
 1.383866891255846e+00	 7.302170400338357e-01	 1.426423398056795e+01
 1.376841070537632e+00	 7.433795563174181e-01	 1.422707875670501e+01
 1.369679989716045e+00	 7.564927124839674e-01	 1.418967187101474e+01
 1.362384092332731e+00	 7.695544706053078e-01	 1.415017241160026e+01
 1.354953862095657e+00	 7.825627961141260e-01	 1.410668449428584e+01
 1.347389822920550e+00	 7.955156587773899e-01	 1.405726660913936e+01
 1.339692538944445e+00	 8.084110336743831e-01	 1.399994158859906e+01
 1.415913148957673e+00	 6.796597379961958e-01	 1.441689525664730e+01
 1.409407638522144e+00	 6.930494306467062e-01	 1.436578449342116e+01
 1.402764980028937e+00	 7.063977743797791e-01	 1.432097697866819e+01
 1.395985458382801e+00	 7.197027197586882e-01	 1.428093466338003e+01
 1.389069398365830e+00	 7.329622168760680e-01	 1.424403335027400e+01
 1.382017164787774e+00	 7.461742163035738e-01	 1.420856953284770e+01
 1.374829162609714e+00	 7.593366700496964e-01	 1.417276788604691e+01
 1.367505837040749e+00	 7.724475325248766e-01	 1.413478940984774e+01
 1.360047673607295e+00	 7.855047615130513e-01	 1.409274022350482e+01
 1.352455198194687e+00	 7.985063191487335e-01	 1.404468100448526e+01
 1.344728977060777e+00	 8.114501728987225e-01	 1.398863706221628e+01
 1.421216194459387e+00	 6.822052800860692e-01	 1.438919098283463e+01
 1.414686318816234e+00	 6.956451213981920e-01	 1.434011859960654e+01
 1.408018781452266e+00	 7.090434589280181e-01	 1.429725790244027e+01
 1.401213868339290e+00	 7.223982355630275e-01	 1.425907360162338e+01
 1.394271905475815e+00	 7.357073937183004e-01	 1.422394411954196e+01
 1.387193259037916e+00	 7.489688762897299e-01	 1.419016847063893e+01
 1.379978335503383e+00	 7.621806276154256e-01	 1.415597380480841e+01
 1.372627581748767e+00	 7.753405944444455e-01	 1.411952361603985e+01
 1.365141485118933e+00	 7.884467269119764e-01	 1.407892661450838e+01
 1.357520573468825e+00	 8.014969795200769e-01	 1.403224625650896e+01
 1.349765415177109e+00	 8.144893121230625e-01	 1.397751092265838e+01
 1.426519239961101e+00	 6.847508221759425e-01	 1.436165566599297e+01
 1.419964999110325e+00	 6.982408121496780e-01	 1.431460394963574e+01
 1.413272582875595e+00	 7.116891434762568e-01	 1.427367540645119e+01
 1.406442278295780e+00	 7.250937513673675e-01	 1.423733804991845e+01
 1.399474412585799e+00	 7.384525705605328e-01	 1.420397347808047e+01
 1.392369353288057e+00	 7.517635362758854e-01	 1.417188379212064e+01
 1.385127508397053e+00	 7.650245851811549e-01	 1.413929919037614e+01
 1.377749326456785e+00	 7.782336563640144e-01	 1.410438624013337e+01
 1.370235296630570e+00	 7.913886923109019e-01	 1.406525682586870e+01
 1.362585948742962e+00	 8.044876398914202e-01	 1.401997776872346e+01
 1.354801853293442e+00	 8.175284513474024e-01	 1.396658110795229e+01
 1.431822285462815e+00	 6.872963642658162e-01	 1.433429894172402e+01
 1.425243679404415e+00	 7.008365029011637e-01	 1.428924998051206e+01
 1.418526384298925e+00	 7.143348280244958e-01	 1.425023903328945e+01
 1.411670688252270e+00	 7.277892671717072e-01	 1.421573796266401e+01
 1.404676919695783e+00	 7.411977474027653e-01	 1.418413209934123e+01
 1.397545447538199e+00	 7.545581962620412e-01	 1.415372719696597e+01
 1.390276681290723e+00	 7.678685427468843e-01	 1.412275707458455e+01
 1.382871071164803e+00	 7.811267182835832e-01	 1.408939194962499e+01
 1.375329108142208e+00	 7.943306577098272e-01	 1.405174746054106e+01
 1.367651324017099e+00	 8.074783002627643e-01	 1.400789437432186e+01
 1.359838291409775e+00	 8.205675905717423e-01	 1.395586896993588e+01
 1.309473910246449e+00	 7.901761983283442e-01	 1.407096328511659e+01
 1.301820600649909e+00	 8.027225359638727e-01	 1.400338091408055e+01
 1.294038272455734e+00	 8.152087434765042e-01	 1.393748050610445e+01
 1.286127594821285e+00	 8.276328629652027e-01	 1.387186494707056e+01
 1.278089275993559e+00	 8.399929455721757e-01	 1.380517363965074e+01
 1.269924063182876e+00	 8.522870524476224e-01	 1.373609353814587e+01
 1.261632742408249e+00	 8.645132557134111e-01	 1.366337053239725e+01
 1.253216138314411e+00	 8.766696394247243e-01	 1.358582114436589e+01
 1.244675113960468e+00	 8.887543005286992e-01	 1.350234449741885e+01
 1.236010570580214e+00	 9.007653498191053e-01	 1.341193451487505e+01
 1.227223447314176e+00	 9.127009128860734e-01	 1.331369230097923e+01
 1.314510348362782e+00	 7.932153375526844e-01	 1.405876255506499e+01
 1.306827602960101e+00	 8.058099303329643e-01	 1.399239503947356e+01
 1.299015342734410e+00	 8.183441617206446e-01	 1.392787406842268e+01
 1.291074239416751e+00	 8.308160662842998e-01	 1.386373822745662e+01
 1.283005003978150e+00	 8.432236876705305e-01	 1.379856007812591e+01
 1.274808386502810e+00	 8.555650795724210e-01	 1.373095742640269e+01
 1.266485176032896e+00	 8.678383066969244e-01	 1.365960495659069e+01
 1.258036200384851e+00	 8.800414457302038e-01	 1.358324619387009e+01
 1.249462325937239e+00	 8.921725862999637e-01	 1.350070575495323e+01
 1.240764457390138e+00	 9.042298319337938e-01	 1.341090184274165e+01
 1.231943537496154e+00	 9.162113010125583e-01	 1.331285893738162e+01
 1.319546786479115e+00	 7.962544767770239e-01	 1.404670934773062e+01
 1.311834605270293e+00	 8.088973247020566e-01	 1.398155904568617e+01
 1.303992413013086e+00	 8.214795799647849e-01	 1.391839619516439e+01
 1.296020884012218e+00	 8.339992696033967e-01	 1.385569777458794e+01
 1.287920731962741e+00	 8.464544297688849e-01	 1.379197234269347e+01
 1.279692709822744e+00	 8.588431066972199e-01	 1.372577153932349e+01
 1.271337609657543e+00	 8.711633576804376e-01	 1.365570196821142e+01
 1.262856262455291e+00	 8.834132520356837e-01	 1.358043742444577e+01
 1.254249537914010e+00	 8.955908720712278e-01	 1.349873142553322e+01
 1.245518344200062e+00	 9.076943140484829e-01	 1.340943000128399e+01
 1.236663627678131e+00	 9.197216891390428e-01	 1.331148469415147e+01
 1.324583224595447e+00	 7.992936160013636e-01	 1.403479921308675e+01
 1.316841607580485e+00	 8.119847190711483e-01	 1.397087210625727e+01
 1.308969483291762e+00	 8.246149982089253e-01	 1.390905140720597e+01
 1.300967528607684e+00	 8.371824729224934e-01	 1.384775514629055e+01
 1.292836459947331e+00	 8.496851718672397e-01	 1.378543068108755e+01
 1.284577033142678e+00	 8.621211338220179e-01	 1.372056642836698e+01
 1.276190043282190e+00	 8.744884086639506e-01	 1.365170399464206e+01
 1.267676324525731e+00	 8.867850583411633e-01	 1.357745066752892e+01
 1.259036749890781e+00	 8.990091578424920e-01	 1.349649222628151e+01
 1.250272231009985e+00	 9.111587961631716e-01	 1.340760602606314e+01
 1.241383717860108e+00	 9.232320772655278e-01	 1.330967430681648e+01
 1.329619662711779e+00	 8.023327552257034e-01	 1.402303166065988e+01
 1.321848609890677e+00	 8.150721134402402e-01	 1.396033733287364e+01
 1.313946553570437e+00	 8.277504164530658e-01	 1.389984811887521e+01
 1.305914173203150e+00	 8.403656762415903e-01	 1.383992572651553e+01
 1.297752187931922e+00	 8.529159139655940e-01	 1.377895907787484e+01
 1.289461356462613e+00	 8.653991609468167e-01	 1.371537627123165e+01
 1.281042476906837e+00	 8.778134596474638e-01	 1.364765695827760e+01
 1.272496386596171e+00	 8.901568646466428e-01	 1.357434509836891e+01
 1.263823961867552e+00	 9.024274436137562e-01	 1.349406204762825e+01
 1.255026117819910e+00	 9.146232782778606e-01	 1.340551993679479e+01
 1.246103808042086e+00	 9.267424653920127e-01	 1.330753528791844e+01
 1.334656100828112e+00	 8.053718944500431e-01	 1.401141006785869e+01
 1.326855612200868e+00	 8.181595078093318e-01	 1.394996168285733e+01
 1.318923623849114e+00	 8.308858346972061e-01	 1.389079854516963e+01
 1.310860817798617e+00	 8.435488795606876e-01	 1.383222863285505e+01
 1.302667915916512e+00	 8.561466560639484e-01	 1.377258516282823e+01
 1.294345679782546e+00	 8.686771880716150e-01	 1.371023878163645e+01
 1.285894910531485e+00	 8.811385106309768e-01	 1.364361018825254e+01
 1.277316448666611e+00	 8.935286709521226e-01	 1.357118315023483e+01
 1.268611173844323e+00	 9.058457293850203e-01	 1.349151787051628e+01
 1.259780004629833e+00	 9.180877603925497e-01	 1.340326465806469e+01
 1.250823898224064e+00	 9.302528535184977e-01	 1.330517785173694e+01
 1.339692538944445e+00	 8.084110336743831e-01	 1.399994158859907e+01
 1.331862614511061e+00	 8.212469021784238e-01	 1.393975586694179e+01
 1.323900694127790e+00	 8.340212529413465e-01	 1.388191860924779e+01
 1.315807462394083e+00	 8.467320828797843e-01	 1.382468662430413e+01
 1.307583643901103e+00	 8.593773981623030e-01	 1.376634011950512e+01
 1.299230003102480e+00	 8.719552151964138e-01	 1.370519511925524e+01
 1.290747344156132e+00	 8.844635616144898e-01	 1.363961633226337e+01
 1.282136510737051e+00	 8.969004772576024e-01	 1.356803042864500e+01
 1.273398385821094e+00	 9.092640151562846e-01	 1.348893968354971e+01
 1.264533891439757e+00	 9.215522425072384e-01	 1.340093593989555e+01
 1.255543988406041e+00	 9.337632416449825e-01	 1.330271483876530e+01
 1.344728977060777e+00	 8.114501728987225e-01	 1.398863706221628e+01
 1.336869616821253e+00	 8.243342965475157e-01	 1.392973425733112e+01
 1.328877764406465e+00	 8.371566711854869e-01	 1.387322785018566e+01
 1.320754106989550e+00	 8.499152861988813e-01	 1.381732600925858e+01
 1.312499371885693e+00	 8.626081402606576e-01	 1.376025859402502e+01
 1.304114326422415e+00	 8.752332423212122e-01	 1.370028979980284e+01
 1.295599777780779e+00	 8.877886125980031e-01	 1.363573126848141e+01
 1.286956572807491e+00	 9.002722835630819e-01	 1.356495562561954e+01
 1.278185597797865e+00	 9.126823009275490e-01	 1.348641040008605e+01
 1.269287778249681e+00	 9.250167246219271e-01	 1.339863227817041e+01
 1.260264078588019e+00	 9.372736297714678e-01	 1.330026163994433e+01
 1.349765415177109e+00	 8.144893121230625e-01	 1.397751092265838e+01
 1.341876619131445e+00	 8.274216909166073e-01	 1.391991479603382e+01
 1.333854834685141e+00	 8.402920894296274e-01	 1.386474933099207e+01
 1.325700751585017e+00	 8.530984895179784e-01	 1.381017655374620e+01
 1.317415099870284e+00	 8.658388823590122e-01	 1.375437860404204e+01
 1.308998649742349e+00	 8.785112694460108e-01	 1.369557060526697e+01
 1.300452211405426e+00	 8.911136635815162e-01	 1.363201401755569e+01
 1.291776634877931e+00	 9.036440898685618e-01	 1.356203043395391e+01
 1.282972809774636e+00	 9.161005866988131e-01	 1.348401577527393e+01
 1.274041665059605e+00	 9.284812067366162e-01	 1.339645483491519e+01
 1.264984168769997e+00	 9.407840178979523e-01	 1.329793612066161e+01
 1.354801853293442e+00	 8.175284513474024e-01	 1.396658110795228e+01
 1.346883621441636e+00	 8.305090852856988e-01	 1.391031890346399e+01
 1.338831904963818e+00	 8.434275076737678e-01	 1.385650954687541e+01
 1.330647396180483e+00	 8.562816928370751e-01	 1.380327138988222e+01
 1.322330827854875e+00	 8.690696244573666e-01	 1.374874144790567e+01
 1.313882973062283e+00	 8.817892965708093e-01	 1.369108849428360e+01
 1.305304645030072e+00	 8.944387145650292e-01	 1.362852665470284e+01
 1.296596696948371e+00	 9.070158961740411e-01	 1.355932946151566e+01
 1.287760021751407e+00	 9.195188724700774e-01	 1.348184432303714e+01
 1.278795551869529e+00	 9.319456888513048e-01	 1.339450735844483e+01
 1.269704258951974e+00	 9.442944060244373e-01	 1.329585854452096e+01
 1.359838291409775e+00	 8.205675905717423e-01	 1.395586896993588e+01
 1.351890623751828e+00	 8.335964796547909e-01	 1.390097138730412e+01
 1.343808975242493e+00	 8.465629259179082e-01	 1.384853833375628e+01
 1.335594040775950e+00	 8.594648961561719e-01	 1.379664692454503e+01
 1.327246555839465e+00	 8.723003665557210e-01	 1.374339161400657e+01
 1.318767296382217e+00	 8.850673236956079e-01	 1.368689751265143e+01
 1.310157078654720e+00	 8.977637655485424e-01	 1.362533422188114e+01
 1.301416759018812e+00	 9.103877024795212e-01	 1.355693014556060e+01
 1.292547233728178e+00	 9.229371582413416e-01	 1.347998723300820e+01
 1.283549438679453e+00	 9.354101709659941e-01	 1.339289610337600e+01
 1.274424349133952e+00	 9.478047941509223e-01	 1.329415149688993e+01
 1.227223447314176e+00	 9.127009128860734e-01	 1.331369230097923e+01
 1.218314720913481e+00	 9.245591310599152e-01	 1.320763353354577e+01
 1.209285405415699e+00	 9.363381623480651e-01	 1.309488833423927e+01
 1.200136551792816e+00	 9.480361823641598e-01	 1.297648602104090e+01
 1.190869247571595e+00	 9.596513852483228e-01	 1.285368943512450e+01
 1.181484616426527e+00	 9.711819845776714e-01	 1.272800555255933e+01
 1.171983817745709e+00	 9.826262142661144e-01	 1.260106018614618e+01
 1.162368046169948e+00	 9.939823294525006e-01	 1.247425194897128e+01
 1.152638531105476e+00	 1.005248607376191e+00	 1.235045008650538e+01
 1.142796536210663e+00	 1.016423348239144e+00	 1.223295517843558e+01
 1.132843358857176e+00	 1.027504876053614e+00	 1.212527785176110e+01
 1.231943537496154e+00	 9.162113010125583e-01	 1.331285893738162e+01
 1.223000546763149e+00	 9.281151277178382e-01	 1.320691784988697e+01
 1.213936503128836e+00	 9.399394629724807e-01	 1.309456619447338e+01
 1.204752461607404e+00	 9.516824753732526e-01	 1.297680670012988e+01
 1.195449513908408e+00	 9.633423521146626e-01	 1.285487849146518e+01
 1.186028788028167e+00	 9.749172999029702e-01	 1.273026799268971e+01
 1.176491447813961e+00	 9.864055458594457e-01	 1.260471955918863e+01
 1.166838692501371e+00	 9.978053384119334e-01	 1.247973359424744e+01
 1.157071756225113e+00	 1.009114948173792e+00	 1.235760919727605e+01
 1.147191907503781e+00	 1.020332668809294e+00	 1.224166556028900e+01
 1.137200448698935e+00	 1.031456817884589e+00	 1.213543733620364e+01
 1.236663627678131e+00	 9.197216891390428e-01	 1.331148469415147e+01
 1.227686372612816e+00	 9.316711243757613e-01	 1.320557538915674e+01
 1.218587600841973e+00	 9.435407635968960e-01	 1.309355616708144e+01
 1.209368371421992e+00	 9.553287683823456e-01	 1.297639933437129e+01
 1.200029780245222e+00	 9.670333189810022e-01	 1.285531624085505e+01
 1.190572959629808e+00	 9.786526152282692e-01	 1.273176848508367e+01
 1.180999077882214e+00	 9.901848774527768e-01	 1.260747885120986e+01
 1.171309338832794e+00	 1.001628347371366e+00	 1.248428656317078e+01
 1.161504981344749e+00	 1.012981288971393e+00	 1.236395605446958e+01
 1.151587278796899e+00	 1.024241989379445e+00	 1.224966970293035e+01
 1.141557538540693e+00	 1.035408759715564e+00	 1.214498202679824e+01
 1.241383717860108e+00	 9.232320772655278e-01	 1.330967430681648e+01
 1.232372198462483e+00	 9.352271210336840e-01	 1.320372807434150e+01
 1.223238698555110e+00	 9.471420642213119e-01	 1.309199500967972e+01
 1.213984281236579e+00	 9.589750613914382e-01	 1.297541319138923e+01
 1.204610046582037e+00	 9.707242858473422e-01	 1.285516216530964e+01
 1.195117131231449e+00	 9.823879305535674e-01	 1.273267446035883e+01
 1.185506707950467e+00	 9.939642090461079e-01	 1.260964684041623e+01
 1.175779985164217e+00	 1.005451356330799e+00	 1.248804830059769e+01
 1.165938206464385e+00	 1.016847629768993e+00	 1.236962788489509e+01
 1.155982650090017e+00	 1.028151309949595e+00	 1.225710213597484e+01
 1.145914628382451e+00	 1.039360701546540e+00	 1.215404133527726e+01
 1.246103808042086e+00	 9.267424653920127e-01	 1.330753528791844e+01
 1.237058024312151e+00	 9.387831176916068e-01	 1.320150040885655e+01
 1.227889796268248e+00	 9.507433648457271e-01	 1.309002190197324e+01
 1.218600191051167e+00	 9.626213544005312e-01	 1.297399984014624e+01
 1.209190312918850e+00	 9.744152527136818e-01	 1.285457796431672e+01
 1.199661302833089e+00	 9.861232458788662e-01	 1.273315551887431e+01
 1.190014338018719e+00	 9.977435406394390e-01	 1.261139882826890e+01
 1.180250631495639e+00	 1.009274365290231e+00	 1.249125254662649e+01
 1.170371431584022e+00	 1.020713970566594e+00	 1.237476642582079e+01
 1.160378021383134e+00	 1.032060630519746e+00	 1.226410191242761e+01
 1.150271718224210e+00	 1.043312643377515e+00	 1.216274922867815e+01
 1.250823898224064e+00	 9.302528535184977e-01	 1.330517785173694e+01
 1.241743850161818e+00	 9.423391143495292e-01	 1.319901940523796e+01
 1.232540893981385e+00	 9.543446654701430e-01	 1.308777837785521e+01
 1.223216100865755e+00	 9.662676474096240e-01	 1.297231308589977e+01
 1.213770579255663e+00	 9.781062195800211e-01	 1.285372749211329e+01
 1.204205474434729e+00	 9.898585612041649e-01	 1.273338336979986e+01
 1.194521968086972e+00	 1.001522872232770e+00	 1.261291221392447e+01
 1.184721277827062e+00	 1.013097374249664e+00	 1.249422682953332e+01
 1.174804656703659e+00	 1.024580311364195e+00	 1.237951803293339e+01
 1.164773392676253e+00	 1.035969951089897e+00	 1.227081271595766e+01
 1.154628808065968e+00	 1.047264585208491e+00	 1.217124433531750e+01
 1.255543988406041e+00	 9.337632416449825e-01	 1.330271483876530e+01
 1.246429676011485e+00	 9.458951110074522e-01	 1.319641451349081e+01
 1.237191991694523e+00	 9.579459660945590e-01	 1.308540825707973e+01
 1.227832010680343e+00	 9.699139404187171e-01	 1.297050890466258e+01
 1.218350845592478e+00	 9.817971864463612e-01	 1.285277669440955e+01
 1.208749646036370e+00	 9.935938765294636e-01	 1.273353176959257e+01
 1.199029598155224e+00	 1.005302203826101e+00	 1.261436643396366e+01
 1.189191924158485e+00	 1.016920383209097e+00	 1.249715708935088e+01
 1.179237881823295e+00	 1.028446652161795e+00	 1.238407578252101e+01
 1.169168763969370e+00	 1.039879271660047e+00	 1.227738296754835e+01
 1.158985897907726e+00	 1.051216527039466e+00	 1.217967005016635e+01
 1.260264078588019e+00	 9.372736297714678e-01	 1.330026163994433e+01
 1.251115501861152e+00	 9.494511076653748e-01	 1.319381754909993e+01
 1.241843089407659e+00	 9.615472667189743e-01	 1.308305757651616e+01
 1.232447920494930e+00	 9.735602334278100e-01	 1.296874537718067e+01
 1.222931111929291e+00	 9.854881533127009e-01	 1.285189354457804e+01
 1.213293817638010e+00	 9.973291918547627e-01	 1.273377645989841e+01
 1.203537228223478e+00	 1.009081535419433e+00	 1.261594290151931e+01
 1.193662570489908e+00	 1.020743392168529e+00	 1.250022834218841e+01
 1.183671106942931e+00	 1.032312992959396e+00	 1.238876685939490e+01
 1.173564135262489e+00	 1.043788592230198e+00	 1.228396593154148e+01
 1.163342987749485e+00	 1.055168468870441e+00	 1.218817463964082e+01
 1.264984168769997e+00	 9.407840178979523e-01	 1.329793612066161e+01
 1.255801327710820e+00	 9.530071043232976e-01	 1.319136262071391e+01
 1.246494187120797e+00	 9.651485673433898e-01	 1.308087452099898e+01
 1.237063830309518e+00	 9.772065264369031e-01	 1.296718262243857e+01
 1.227511378266105e+00	 9.891791201790404e-01	 1.285124797931949e+01
 1.217837989239650e+00	 1.001064507180061e+00	 1.273429510489195e+01
 1.208044858291730e+00	 1.012860867012764e+00	 1.261782494481569e+01
 1.198133216821331e+00	 1.024566401127962e+00	 1.250362754437902e+01
 1.188104332062567e+00	 1.036179333756997e+00	 1.239379433338834e+01
 1.177959506555606e+00	 1.047697912800348e+00	 1.229072995096689e+01
 1.167700077591243e+00	 1.059120410701417e+00	 1.219691134582384e+01
 1.269704258951974e+00	 9.442944060244373e-01	 1.329585854452096e+01
 1.260487153560487e+00	 9.565631009812203e-01	 1.318918605751032e+01
 1.251145284833934e+00	 9.687498679678056e-01	 1.307900935378186e+01
 1.241679740124106e+00	 9.808528194459958e-01	 1.296598273070816e+01
 1.232091644602919e+00	 9.928700870453799e-01	 1.285101183382028e+01
 1.222382160841291e+00	 1.004799822505360e+00	 1.273526722807037e+01
 1.212552488359983e+00	 1.016640198606095e+00	 1.262019774513723e+01
 1.202603863152754e+00	 1.028389410087394e+00	 1.250754353117231e+01
 1.192537557182204e+00	 1.040045674554598e+00	 1.239934871726174e+01
 1.182354877848724e+00	 1.051607233370499e+00	 1.229797363314433e+01
 1.172057167433002e+00	 1.063072352532393e+00	 1.220603849013334e+01
 1.274424349133952e+00	 9.478047941509223e-01	 1.329415149688993e+01
 1.265172979410154e+00	 9.601190976391429e-01	 1.318742633625010e+01
 1.255796382547072e+00	 9.723511685922213e-01	 1.307761434660675e+01
 1.246295649938694e+00	 9.844991124550889e-01	 1.296530969614970e+01
 1.236671910939733e+00	 9.965610539117199e-01	 1.285135877641452e+01
 1.226926332442932e+00	 1.008535137830659e+00	 1.273687414851514e+01
 1.217060118428236e+00	 1.020419530199427e+00	 1.262324827424056e+01
 1.207074509484177e+00	 1.032212419046827e+00	 1.251216695485837e+01
 1.196970782301841e+00	 1.043912015352198e+00	 1.240562239825296e+01
 1.186750249141842e+00	 1.055516553940649e+00	 1.230592583319860e+01
 1.176414257274760e+00	 1.067024294363368e+00	 1.221571957645087e+01
 1.132843358857176e+00	 1.027504876053614e+00	 1.212527785176110e+01
 1.122780329566059e+00	 1.038491539474585e+00	 1.201462430280748e+01
 1.112608811419229e+00	 1.049381712616078e+00	 1.188778248451641e+01
 1.102330199446948e+00	 1.060173795850479e+00	 1.174787922468912e+01
 1.091945919991833e+00	 1.070866216590079e+00	 1.159815467320269e+01
 1.081457430050014e+00	 1.081457430050014e+00	 1.144194748384342e+01
 1.070866216590079e+00	 1.091945919991833e+00	 1.128267919924060e+01
 1.060173795850479e+00	 1.102330199446948e+00	 1.112383791270589e+01
 1.049381712616078e+00	 1.112608811419229e+00	 1.096896128538751e+01
 1.038491539474585e+00	 1.122780329566058e+00	 1.082161900133642e+01
 1.027504876053614e+00	 1.132843358857176e+00	 1.068539474681143e+01
 1.137200448698935e+00	 1.031456817884589e+00	 1.213543733620364e+01
 1.127098715449005e+00	 1.042485737703333e+00	 1.202589339046093e+01
 1.116888076078533e+00	 1.053417796126139e+00	 1.189962473248340e+01
 1.106569930983283e+00	 1.064251387372981e+00	 1.175985118090246e+01
 1.096145711991802e+00	 1.074984932807733e+00	 1.160991151953971e+01
 1.085616881704052e+00	 1.085616881704052e+00	 1.145324829888795e+01
 1.074984932807733e+00	 1.096145711991801e+00	 1.129339181572179e+01
 1.064251387372981e+00	 1.106569930983282e+00	 1.113394334636002e+01
 1.053417796126140e+00	 1.116888076078533e+00	 1.097855771382916e+01
 1.042485737703333e+00	 1.127098715449005e+00	 1.083092527347672e+01
 1.031456817884589e+00	 1.137200448698934e+00	 1.069475340541710e+01
 1.141557538540693e+00	 1.035408759715564e+00	 1.214498202679824e+01
 1.131417101331952e+00	 1.046479935932082e+00	 1.203662715298942e+01
 1.121167340737838e+00	 1.057453879636201e+00	 1.191100232882808e+01
 1.110809662519617e+00	 1.068328978895482e+00	 1.177141700213999e+01
 1.100345503991770e+00	 1.079103649025387e+00	 1.162130518567401e+01
 1.089776333358091e+00	 1.089776333358091e+00	 1.146420987787372e+01
 1.079103649025388e+00	 1.100345503991770e+00	 1.130376663652157e+01
 1.068328978895483e+00	 1.110809662519616e+00	 1.114368638250926e+01
 1.057453879636202e+00	 1.121167340737838e+00	 1.098773751585093e+01
 1.046479935932082e+00	 1.131417101331951e+00	 1.083972743045962e+01
 1.035408759715564e+00	 1.141557538540693e+00	 1.070348351815298e+01
 1.145914628382451e+00	 1.039360701546540e+00	 1.215404133527726e+01
 1.135735487214898e+00	 1.050474134160830e+00	 1.204694760999619e+01
 1.125446605397143e+00	 1.061489963146263e+00	 1.192202776955832e+01
 1.115049394055951e+00	 1.072406570417984e+00	 1.178267758776531e+01
 1.104545295991739e+00	 1.083222365243041e+00	 1.163242296305658e+01
 1.093935785012129e+00	 1.093935785012129e+00	 1.147490395809903e+01
 1.083222365243041e+00	 1.104545295991739e+00	 1.131385796669056e+01
 1.072406570417984e+00	 1.115049394055950e+00	 1.115310208699247e+01
 1.061489963146264e+00	 1.125446605397142e+00	 1.099651478508602e+01
 1.050474134160830e+00	 1.135735487214897e+00	 1.084801693737780e+01
 1.039360701546540e+00	 1.145914628382451e+00	 1.071155234442206e+01
 1.150271718224210e+00	 1.043312643377515e+00	 1.216274922867815e+01
 1.140053873097845e+00	 1.054468332389579e+00	 1.205698138533776e+01
 1.129725870056447e+00	 1.065526046656325e+00	 1.193281821908162e+01
 1.119289125592285e+00	 1.076484161940486e+00	 1.179373858439151e+01
 1.108745087991707e+00	 1.087341081460695e+00	 1.164335698345387e+01
 1.098095236666168e+00	 1.098095236666168e+00	 1.148540722397529e+01
 1.087341081460696e+00	 1.108745087991707e+00	 1.132372517844865e+01
 1.076484161940487e+00	 1.119289125592285e+00	 1.116223072566187e+01
 1.065526046656325e+00	 1.129725870056447e+00	 1.100490896034965e+01
 1.054468332389579e+00	 1.140053873097844e+00	 1.085579076153933e+01
 1.043312643377515e+00	 1.150271718224210e+00	 1.071893281428849e+01
 1.154628808065968e+00	 1.047264585208491e+00	 1.217124433531750e+01
 1.144372258980791e+00	 1.058462530618327e+00	 1.206685981122522e+01
 1.134005134715752e+00	 1.069562130166387e+00	 1.194349561190102e+01
 1.123528857128620e+00	 1.080561753462988e+00	 1.180471048465073e+01
 1.112944879991676e+00	 1.091459797678350e+00	 1.165420431428177e+01
 1.102254688320206e+00	 1.102254688320206e+00	 1.149580139843498e+01
 1.091459797678350e+00	 1.112944879991676e+00	 1.133343279818877e+01
 1.080561753462988e+00	 1.123528857128620e+00	 1.117111784652141e+01
 1.069562130166387e+00	 1.134005134715752e+00	 1.101294490246684e+01
 1.058462530618327e+00	 1.144372258980790e+00	 1.086305144355688e+01
 1.047264585208491e+00	 1.154628808065968e+00	 1.072560359341549e+01
 1.158985897907726e+00	 1.051216527039466e+00	 1.217967005016635e+01
 1.148690644863737e+00	 1.062456728847075e+00	 1.207671903176266e+01
 1.138284399375057e+00	 1.073598213676449e+00	 1.195418675379074e+01
 1.127768588664955e+00	 1.084639344985490e+00	 1.181570872549638e+01
 1.117144671991644e+00	 1.095578513896003e+00	 1.166506705353895e+01
 1.106414139974245e+00	 1.106414139974245e+00	 1.150617333401376e+01
 1.095578513896004e+00	 1.117144671991644e+00	 1.134305059323960e+01
 1.084639344985490e+00	 1.127768588664954e+00	 1.117981436171858e+01
 1.073598213676449e+00	 1.138284399375056e+00	 1.102065297105489e+01
 1.062456728847075e+00	 1.148690644863736e+00	 1.086980716850187e+01
 1.051216527039466e+00	 1.158985897907726e+00	 1.073154914818539e+01
 1.163342987749485e+00	 1.055168468870441e+00	 1.218817463964082e+01
 1.153009030746683e+00	 1.066450927075823e+00	 1.208670010593340e+01
 1.142563664034361e+00	 1.077634297186510e+00	 1.196502342246549e+01
 1.132008320201289e+00	 1.088716936507992e+00	 1.182685378605431e+01
 1.121344463991613e+00	 1.099697230113658e+00	 1.167605242435276e+01
 1.110573591628284e+00	 1.110573591628284e+00	 1.151661510361674e+01
 1.099697230113658e+00	 1.121344463991613e+00	 1.135265365839480e+01
 1.088716936507992e+00	 1.132008320201288e+00	 1.118837662939101e+01
 1.077634297186510e+00	 1.142563664034361e+00	 1.102806910126210e+01
 1.066450927075824e+00	 1.153009030746683e+00	 1.087607183711899e+01
 1.055168468870442e+00	 1.163342987749485e+00	 1.073675981099714e+01
 1.167700077591243e+00	 1.059120410701417e+00	 1.219691134582384e+01
 1.157327416629629e+00	 1.070445125304572e+00	 1.209694911005144e+01
 1.146842928693666e+00	 1.081670380696572e+00	 1.197614246775696e+01
 1.136248051737623e+00	 1.092794528030493e+00	 1.183827128503347e+01
 1.125544255991582e+00	 1.103815946331312e+00	 1.168727286914551e+01
 1.114733043282322e+00	 1.114733043282322e+00	 1.152722409097684e+01
 1.103815946331312e+00	 1.125544255991582e+00	 1.136232250221305e+01
 1.092794528030494e+00	 1.136248051737623e+00	 1.119686653537442e+01
 1.081670380696573e+00	 1.146842928693666e+00	 1.103523488046028e+01
 1.070445125304572e+00	 1.157327416629629e+00	 1.088186513710288e+01
 1.059120410701417e+00	 1.167700077591243e+00	 1.074123184573617e+01
 1.172057167433002e+00	 1.063072352532393e+00	 1.220603849013334e+01
 1.161645802512576e+00	 1.074439323533321e+00	 1.210761723969125e+01
 1.151122193352971e+00	 1.085706464206634e+00	 1.198768591131015e+01
 1.140487783273958e+00	 1.096872119552995e+00	 1.185009207770700e+01
 1.129744047991551e+00	 1.107934662548967e+00	 1.169884614343201e+01
 1.118892494936361e+00	 1.118892494936360e+00	 1.153810308081355e+01
 1.107934662548967e+00	 1.129744047991550e+00	 1.137214313309622e+01
 1.096872119552995e+00	 1.140487783273957e+00	 1.120535157477290e+01
 1.085706464206635e+00	 1.151122193352971e+00	 1.104219762489771e+01
 1.074439323533320e+00	 1.161645802512576e+00	 1.088721261443400e+01
 1.063072352532392e+00	 1.172057167433001e+00	 1.074496751341070e+01
 1.176414257274760e+00	 1.067024294363368e+00	 1.221571957645087e+01
 1.165964188395523e+00	 1.078433521762069e+00	 1.211886091110794e+01
 1.155401458012276e+00	 1.089742547716696e+00	 1.199980104581143e+01
 1.144727514810292e+00	 1.100949711075497e+00	 1.186245235247540e+01
 1.133943839991519e+00	 1.112053378766621e+00	 1.171089540925724e+01
 1.123051946590399e+00	 1.123051946590399e+00	 1.154936034869902e+01
 1.112053378766621e+00	 1.133943839991518e+00	 1.138220714515168e+01
 1.100949711075498e+00	 1.144727514810292e+00	 1.121390493339813e+01
 1.089742547716697e+00	 1.155401458012276e+00	 1.104901045630925e+01
 1.078433521762069e+00	 1.165964188395522e+00	 1.089214574477080e+01
 1.067024294363368e+00	 1.176414257274760e+00	 1.074797513795495e+01
 1.027504876053614e+00	 1.132843358857176e+00	 1.068539474681143e+01
 1.016423348239144e+00	 1.142796536210663e+00	 1.054959936815144e+01
 1.005248607376191e+00	 1.152638531105475e+00	 1.040340274379289e+01
 9.939823294525010e-01	 1.162368046169947e+00	 1.025012020520775e+01
 9.826262142661145e-01	 1.171983817745708e+00	 1.009297736699284e+01
 9.711819845776715e-01	 1.181484616426526e+00	 9.935488994680888e+00
 9.596513852483232e-01	 1.190869247571595e+00	 9.781274216281581e+00
 9.480361823641602e-01	 1.200136551792816e+00	 9.629780478874244e+00
 9.363381623480651e-01	 1.209285405415698e+00	 9.479821384007650e+00
 9.245591310599158e-01	 1.218314720913481e+00	 9.330040889018491e+00
 9.127009128860730e-01	 1.227223447314176e+00	 9.178923082410105e+00
 1.031456817884589e+00	 1.137200448698934e+00	 1.069475340541710e+01
 1.020332668809294e+00	 1.147191907503780e+00	 1.055925304739395e+01
 1.009114948173792e+00	 1.157071756225112e+00	 1.041345057141286e+01
 9.978053384119336e-01	 1.166838692501370e+00	 1.026072138466900e+01
 9.864055458594458e-01	 1.176491447813960e+00	 1.010435059494890e+01
 9.749172999029703e-01	 1.186028788028167e+00	 9.949166897916701e+00
 9.633423521146628e-01	 1.195449513908408e+00	 9.797256668608838e+00
 9.516824753732530e-01	 1.204752461607404e+00	 9.647600412678882e+00
 9.399394629724809e-01	 1.213936503128836e+00	 9.498996533602243e+00
 9.281151277178387e-01	 1.223000546763149e+00	 9.350070883169026e+00
 9.162113010125582e-01	 1.231943537496153e+00	 9.199286782711031e+00
 1.035408759715564e+00	 1.141557538540693e+00	 1.070348351815298e+01
 1.024241989379445e+00	 1.151587278796899e+00	 1.056810745577893e+01
 1.012981288971393e+00	 1.161504981344749e+00	 1.042248168354366e+01
 1.001628347371366e+00	 1.171309338832793e+00	 1.027005168700051e+01
 9.901848774527767e-01	 1.180999077882213e+00	 1.011472856066878e+01
 9.786526152282694e-01	 1.190572959629808e+00	 9.962140331650946e+00
 9.670333189810026e-01	 1.200029780245222e+00	 9.812355543553240e+00
 9.553287683823459e-01	 1.209368371421991e+00	 9.664352547605125e+00
 9.435407635968963e-01	 1.218587600841973e+00	 9.516924736996078e+00
 9.316711243757614e-01	 1.227686372612816e+00	 9.368690324836502e+00
 9.197216891390428e-01	 1.236663627678131e+00	 9.218102600801252e+00
 1.039360701546540e+00	 1.145914628382451e+00	 1.071155234442206e+01
 1.028151309949596e+00	 1.155982650090017e+00	 1.057610683407662e+01
 1.016847629768993e+00	 1.165938206464385e+00	 1.043042115347385e+01
 1.005451356330799e+00	 1.175779985164216e+00	 1.027802079857911e+01
 9.939642090461083e-01	 1.185506707950466e+00	 1.012473743304387e+01
 9.823879305535679e-01	 1.195117131231448e+00	 9.974576227243581e+00
 9.707242858473423e-01	 1.204610046582036e+00	 9.826737215058291e+00
 9.589750613914387e-01	 1.213984281236579e+00	 9.680206369318375e+00
 9.471420642213120e-01	 1.223238698555110e+00	 9.533782134925392e+00
 9.352271210336842e-01	 1.232372198462483e+00	 9.386085424320921e+00
 9.232320772655276e-01	 1.241383717860108e+00	 9.235570099321794e+00
 1.043312643377515e+00	 1.150271718224210e+00	 1.071893281428849e+01
 1.032060630519746e+00	 1.160378021383135e+00	 1.058320123247915e+01
 1.020713970566594e+00	 1.170371431584021e+00	 1.043719993344537e+01
 1.009274365290232e+00	 1.180250631495639e+00	 1.028508739983769e+01
 9.977435406394394e-01	 1.190014338018719e+00	 1.013454970589017e+01
 9.861232458788665e-01	 1.199661302833088e+00	 9.986642770882135e+00
 9.744152527136821e-01	 1.209190312918850e+00	 9.840569301187029e+00
 9.626213544005316e-01	 1.218600191051167e+00	 9.695332546142483e+00
 9.507433648457279e-01	 1.227889796268248e+00	 9.549745939995772e+00
 9.387831176916068e-01	 1.237058024312151e+00	 9.402443305129058e+00
 9.267424653920125e-01	 1.246103808042086e+00	 9.251889549070231e+00
 1.047264585208491e+00	 1.154628808065968e+00	 1.072560359341549e+01
 1.035969951089897e+00	 1.164773392676252e+00	 1.058934656975878e+01
 1.024580311364195e+00	 1.174804656703658e+00	 1.044275490916263e+01
 1.013097374249664e+00	 1.184721277827062e+00	 1.029227790652844e+01
 1.001522872232770e+00	 1.194521968086971e+00	 1.014433899540248e+01
 9.898585612041649e-01	 1.204205474434729e+00	 9.998509313647798e+00
 9.781062195800216e-01	 1.213770579255664e+00	 9.854020576365812e+00
 9.662676474096246e-01	 1.223216100865755e+00	 9.709902844549033e+00
 9.543446654701433e-01	 1.232540893981384e+00	 9.564994356451720e+00
 9.423391143495297e-01	 1.241743850161817e+00	 9.417951929020239e+00
 9.302528535184976e-01	 1.250823898224064e+00	 9.267261860279540e+00
 1.051216527039466e+00	 1.158985897907726e+00	 1.073154914818539e+01
 1.039879271660048e+00	 1.169168763969370e+00	 1.059450469271856e+01
 1.028446652161795e+00	 1.179237881823295e+00	 1.044739974315151e+01
 1.016920383209097e+00	 1.189191924158485e+00	 1.029979203162949e+01
 1.005302203826102e+00	 1.199029598155224e+00	 1.015427994960642e+01
 9.935938765294642e-01	 1.208749646036369e+00	 1.001034628204419e+01
 9.817971864463612e-01	 1.218350845592477e+00	 9.867260884070070e+00
 9.699139404187171e-01	 1.227832010680342e+00	 9.724090045049607e+00
 9.579459660945588e-01	 1.237191991694522e+00	 9.579706500283278e+00
 9.458951110074526e-01	 1.246429676011485e+00	 9.432800021305390e+00
 9.337632416449825e-01	 1.255543988406041e+00	 9.281888514050005e+00
 1.055168468870442e+00	 1.163342987749485e+00	 1.073675981099714e+01
 1.043788592230198e+00	 1.173564135262488e+00	 1.059864343592261e+01
 1.032312992959396e+00	 1.183671106942931e+00	 1.045258861588215e+01
 1.020743392168530e+00	 1.193662570489908e+00	 1.030781324509951e+01
 1.009081535419433e+00	 1.203537228223477e+00	 1.016454815825361e+01
 9.973291918547629e-01	 1.213293817638010e+00	 1.002232508897653e+01
 9.854881533127009e-01	 1.222931111929291e+00	 9.880461049946334e+00
 9.735602334278104e-01	 1.232447920494930e+00	 9.738067858480481e+00
 9.615472667189746e-01	 1.241843089407659e+00	 9.594062319667358e+00
 9.494511076653754e-01	 1.251115501861152e+00	 9.447176996395616e+00
 9.372736297714676e-01	 1.260264078588019e+00	 9.295971493918795e+00
 1.059120410701417e+00	 1.167700077591243e+00	 1.074123184573617e+01
 1.047697912800349e+00	 1.177959506555606e+00	 1.060186590806299e+01
 1.036179333756997e+00	 1.188104332062567e+00	 1.045864587786009e+01
 1.024566401127962e+00	 1.198133216821330e+00	 1.031652577408229e+01
 1.012860867012764e+00	 1.208044858291730e+00	 1.017532006315148e+01
 1.001064507180061e+00	 1.217837989239650e+00	 1.003461804517113e+01
 9.891791201790406e-01	 1.227511378266104e+00	 9.893792795354022e+00
 9.772065264369035e-01	 1.237063830309518e+00	 9.752010842672213e+00
 9.651485673433901e-01	 1.246494187120796e+00	 9.608242515727383e+00
 9.530071043232979e-01	 1.255801327710819e+00	 9.461272883587608e+00
 9.407840178979523e-01	 1.264984168769997e+00	 9.309713217574606e+00
 1.063072352532392e+00	 1.172057167433001e+00	 1.074496751341070e+01
 1.051607233370499e+00	 1.182354877848724e+00	 1.060585091688871e+01
 1.040045674554598e+00	 1.192537557182204e+00	 1.046576782855040e+01
 1.028389410087395e+00	 1.202603863152753e+00	 1.032611451360872e+01
 1.016640198606095e+00	 1.212552488359982e+00	 1.018677286891662e+01
 1.004799822505360e+00	 1.222382160841291e+00	 1.004739827102213e+01
 9.928700870453805e-01	 1.232091644602919e+00	 9.907428651320581e+00
 9.808528194459960e-01	 1.241679740124105e+00	 9.766094319489024e+00
 9.687498679678055e-01	 1.251145284833934e+00	 9.622428463608825e+00
 9.565631009812204e-01	 1.260487153560486e+00	 9.475278253086742e+00
 9.442944060244371e-01	 1.269704258951974e+00	 9.323316468704597e+00
 1.067024294363368e+00	 1.176414257274760e+00	 1.074797513795495e+01
 1.055516553940649e+00	 1.186750249141842e+00	 1.061128580818663e+01
 1.043912015352199e+00	 1.196970782301841e+00	 1.047415120320684e+01
 1.032212419046828e+00	 1.207074509484176e+00	 1.033676493768408e+01
 1.020419530199427e+00	 1.217060118428235e+00	 1.019908445413861e+01
 1.008535137830659e+00	 1.226926332442931e+00	 1.006083960885587e+01
 9.965610539117203e-01	 1.236671910939733e+00	 9.921541872894327e+00
 9.844991124550891e-01	 1.246295649938693e+00	 9.780494292233612e+00
 9.723511685922213e-01	 1.255796382547071e+00	 9.636802133859703e+00
 9.601190976391434e-01	 1.265172979410153e+00	 9.489384142258722e+00
 9.478047941509221e-01	 1.274424349133952e+00	 9.336984328976261e+00
 9.127009128860730e-01	 1.227223447314176e+00	 9.178923082410105e+00
 9.007653498191054e-01	 1.236010570580214e+00	 9.027641538942369e+00
 8.887543005286995e-01	 1.244675113960467e+00	 8.878281650885597e+00
 8.766696394247243e-01	 1.253216138314411e+00	 8.730522269179900e+00
 8.645132557134116e-01	 1.261632742408249e+00	 8.583970044823710e+00
 8.522870524476226e-01	 1.269924063182876e+00	 8.438167808831512e+00
 8.399929455721764e-01	 1.278089275993560e+00	 8.292602995168837e+00
 8.276328629652033e-01	 1.286127594821285e+00	 8.146716050909966e+00
 8.152087434765043e-01	 1.294038272455734e+00	 7.999908779450909e+00
 8.027225359638730e-01	 1.301820600649909e+00	 7.851552564526422e+00
 7.901761983283440e-01	 1.309473910246449e+00	 7.700996424996546e+00
 9.162113010125582e-01	 1.231943537496153e+00	 9.199286782711031e+00
 9.042298319337945e-01	 1.240764457390138e+00	 9.048095433529211e+00
 8.921725862999637e-01	 1.249462325937239e+00	 8.898879829854620e+00
 8.800414457302040e-01	 1.258036200384851e+00	 8.751325647377346e+00
 8.678383066969247e-01	 1.266485176032896e+00	 8.605045816465587e+00
 8.555650795724212e-01	 1.274808386502810e+00	 8.459589095904683e+00
 8.432236876705307e-01	 1.283005003978150e+00	 8.314448687168944e+00
 8.308160662842998e-01	 1.291074239416751e+00	 8.169070832082767e+00
 8.183441617206451e-01	 1.299015342734410e+00	 8.022863338379944e+00
 8.058099303329647e-01	 1.306827602960101e+00	 7.875203979634050e+00
 7.932153375526839e-01	 1.314510348362782e+00	 7.725448718309558e+00
 9.197216891390428e-01	 1.236663627678131e+00	 9.218102600801252e+00
 9.076943140484834e-01	 1.245518344200062e+00	 9.066903947504823e+00
 8.955908720712279e-01	 1.254249537914010e+00	 8.917777802243840e+00
 8.834132520356839e-01	 1.262856262455291e+00	 8.770411326983069e+00
 8.711633576804375e-01	 1.271337609657543e+00	 8.624418139948183e+00
 8.588431066972199e-01	 1.279692709822744e+00	 8.479347097986381e+00
 8.464544297688854e-01	 1.287920731962741e+00	 8.334691117176622e+00
 8.339992696033972e-01	 1.296020884012218e+00	 8.189895973132099e+00
 8.214795799647852e-01	 1.303992413013086e+00	 8.044369024115381e+00
 8.088973247020567e-01	 1.311834605270293e+00	 7.897487802121351e+00
 7.962544767770235e-01	 1.319546786479115e+00	 7.748608419423968e+00
 9.232320772655276e-01	 1.241383717860108e+00	 9.235570099321794e+00
 9.111587961631720e-01	 1.250272231009985e+00	 9.084280250962735e+00
 8.990091578424920e-01	 1.259036749890781e+00	 8.935199697336333e+00
 8.867850583411631e-01	 1.267676324525731e+00	 8.788011802117438e+00
 8.744884086639506e-01	 1.276190043282190e+00	 8.642325335424573e+00
 8.621211338220184e-01	 1.284577033142678e+00	 8.497683479678200e+00
 8.496851718672398e-01	 1.292836459947331e+00	 8.353572871607517e+00
 8.371824729224939e-01	 1.300967528607684e+00	 8.209432620365092e+00
 8.246149982089259e-01	 1.308969483291762e+00	 8.064663243445541e+00
 8.119847190711486e-01	 1.316841607580485e+00	 7.918635464192893e+00
 7.992936160013634e-01	 1.324583224595447e+00	 7.770698817099852e+00
 9.267424653920125e-01	 1.246103808042086e+00	 9.251889549070231e+00
 9.146232782778608e-01	 1.255026117819909e+00	 9.100438016060753e+00
 9.024274436137564e-01	 1.263823961867552e+00	 8.951369982808147e+00
 8.901568646466430e-01	 1.272496386596171e+00	 8.804359782691598e+00
 8.778134596474643e-01	 1.281042476906837e+00	 8.659005855920661e+00
 8.653991609468169e-01	 1.289461356462612e+00	 8.514839993823092e+00
 8.529159139655942e-01	 1.297752187931922e+00	 8.371336617345928e+00
 8.403656762415908e-01	 1.305914173203150e+00	 8.227922028197751e+00
 8.277504164530660e-01	 1.313946553570437e+00	 8.083983572857392e+00
 8.150721134402402e-01	 1.321848609890677e+00	 7.938878661817334e+00
 8.023327552257030e-01	 1.329619662711780e+00	 7.791943588911405e+00
 9.302528535184976e-01	 1.250823898224064e+00	 9.267261860279540e+00
 9.180877603925498e-01	 1.259780004629833e+00	 9.115591354632731e+00
 9.058457293850206e-01	 1.268611173844323e+00	 8.966513407935707e+00
 8.935286709521227e-01	 1.277316448666611e+00	 8.819688142488193e+00
 8.811385106309769e-01	 1.285894910531484e+00	 8.674698239590704e+00
 8.686771880716153e-01	 1.294345679782546e+00	 8.531058437246292e+00
 8.561466560639489e-01	 1.302667915916512e+00	 8.388225060300426e+00
 8.435488795606877e-01	 1.310860817798617e+00	 8.245605519875529e+00
 8.308858346972067e-01	 1.318923623849113e+00	 8.102567720794113e+00
 8.181595078093319e-01	 1.326855612200869e+00	 7.958449317902440e+00
 8.053718944500429e-01	 1.334656100828112e+00	 7.812566764745805e+00
 9.337632416449825e-01	 1.255543988406041e+00	 9.281888514050005e+00
 9.215522425072388e-01	 1.264533891439757e+00	 9.129954755840007e+00
 9.092640151562847e-01	 1.273398385821094e+00	 8.980854946750423e+00
 8.969004772576028e-01	 1.282136510737052e+00	 8.834229867117752e+00
 8.844635616144902e-01	 1.290747344156131e+00	 8.689641061787917e+00
 8.719552151964138e-01	 1.299230003102480e+00	 8.546580606269336e+00
 8.593773981623031e-01	 1.307583643901102e+00	 8.404480903710844e+00
 8.467320828797846e-01	 1.315807462394083e+00	 8.262724447934172e+00
 8.340212529413467e-01	 1.323900694127789e+00	 8.120653489646049e+00
 8.212469021784240e-01	 1.331862614511061e+00	 7.977579545223135e+00
 8.084110336743827e-01	 1.339692538944445e+00	 7.832792690085357e+00
 9.372736297714676e-01	 1.260264078588019e+00	 9.295971493918795e+00
 9.250167246219275e-01	 1.269287778249681e+00	 9.143743023860118e+00
 9.126823009275493e-01	 1.278185597797865e+00	 8.994619741144174e+00
 9.002722835630824e-01	 1.286956572807491e+00	 8.848218001853061e+00
 8.877886125980030e-01	 1.295599777780779e+00	 8.704072886955842e+00
 8.752332423212125e-01	 1.304114326422415e+00	 8.561648252005003e+00
 8.626081402606578e-01	 1.312499371885693e+00	 8.420346806204831e+00
 8.499152861988815e-01	 1.320754106989550e+00	 8.279520154400743e+00
 8.371566711854872e-01	 1.328877764406465e+00	 8.138478737494165e+00
 8.243342965475158e-01	 1.336869616821253e+00	 7.996501609114637e+00
 8.114501728987225e-01	 1.344728977060777e+00	 7.852845989081713e+00
 9.407840178979523e-01	 1.264984168769997e+00	 9.309713217574606e+00
 9.284812067366165e-01	 1.274041665059605e+00	 9.157171215614630e+00
 9.161005866988130e-01	 1.282972809774636e+00	 9.008033043925352e+00
 9.036440898685619e-01	 1.291776634877931e+00	 8.861885599343973e+00
 8.911136635815166e-01	 1.300452211405425e+00	 8.718232220346220e+00
 8.785112694460110e-01	 1.308998649742349e+00	 8.576503035438394e+00
 8.658388823590123e-01	 1.317415099870284e+00	 8.436065339620512e+00
 8.530984895179786e-01	 1.325700751585017e+00	 8.296233930745384e+00
 8.402920894296274e-01	 1.333854834685141e+00	 8.156281339598799e+00
 8.274216909166073e-01	 1.341876619131445e+00	 8.015447889930979e+00
 8.144893121230624e-01	 1.349765415177110e+00	 7.872951527426094e+00
 9.442944060244371e-01	 1.269704258951974e+00	 9.323316468704597e+00
 9.319456888513051e-01	 1.278795551869529e+00	 9.170454578531688e+00
 9.195188724700777e-01	 1.287760021751407e+00	 9.021320161826047e+00
 9.070158961740415e-01	 1.296596696948371e+00	 8.875465667214842e+00
 8.944387145650293e-01	 1.305304645030073e+00	 8.732357459567961e+00
 8.817892965708094e-01	 1.313882973062283e+00	 8.591386482299299e+00
 8.690696244573667e-01	 1.322330827854875e+00	 8.451878946591908e+00
 8.562816928370754e-01	 1.330647396180483e+00	 8.313106977588607e+00
 8.434275076737680e-01	 1.338831904963817e+00	 8.174299149654086e+00
 8.305090852856993e-01	 1.346883621441636e+00	 8.034650845278019e+00
 8.175284513474022e-01	 1.354801853293442e+00	 7.893334375022464e+00
 9.478047941509221e-01	 1.274424349133952e+00	 9.336984328976261e+00
 9.354101709659941e-01	 1.283549438679453e+00	 9.183808488344493e+00
 9.229371582413418e-01	 1.292547233728178e+00	 9.034706398466570e+00
 9.103877024795216e-01	 1.301416759018811e+00	 8.889191115552233e+00
 8.977637655485428e-01	 1.310157078654720e+00	 8.746686845969732e+00
 8.850673236956083e-01	 1.318767296382217e+00	 8.606539937732576e+00
 8.723003665557216e-01	 1.327246555839466e+00	 8.468029897910114e+00
 8.594648961561725e-01	 1.335594040775949e+00	 8.330380364172417e+00
 8.465629259179082e-01	 1.343808975242492e+00	 8.192769960801352e+00
 8.335964796547914e-01	 1.351890623751828e+00	 8.054342972027662e+00
 8.205675905717418e-01	 1.359838291409774e+00	 7.914219768466310e+00
 7.901761983283440e-01	 1.309473910246449e+00	 7.700996424996546e+00
 7.775716965493290e-01	 1.316997571275726e+00	 7.552002538503858e+00
 7.649110037205745e-01	 1.324390993025830e+00	 7.408001420782982e+00
 7.521960990878952e-01	 1.331653624084625e+00	 7.267833895102202e+00
 7.394289670895923e-01	 1.338784952354029e+00	 7.130348373157480e+00
 7.266115964004843e-01	 1.345784505036784e+00	 6.994407779342994e+00
 7.137459789804411e-01	 1.352651848595940e+00	 6.858896060742063e+00
 7.008341091283111e-01	 1.359386588687371e+00	 6.722724254430354e+00
 6.878779825421076e-01	 1.365988370065632e+00	 6.584836087456592e+00
 6.748795953863062e-01	 1.372456876463511e+00	 6.444213088723331e+00
 6.618409433670821e-01	 1.378791830445674e+00	 6.299879195886260e+00
 7.932153375526839e-01	 1.314510348362782e+00	 7.725448718309558e+00
 7.805623569206722e-01	 1.322062946549863e+00	 7.577364035938247e+00
 7.678529691195002e-01	 1.329484804537468e+00	 7.434361777335435e+00
 7.550891610074641e-01	 1.336775368792643e+00	 7.295255953951630e+00
 7.422729246553215e-01	 1.343934125247698e+00	 7.158868572627518e+00
 7.294062563866398e-01	 1.350960599286925e+00	 7.024036733685895e+00
 7.164911558226735e-01	 1.357854355705924e+00	 6.889619301837938e+00
 7.035296249326506e-01	 1.364614998643861e+00	 6.754503120779041e+00
 6.905236670903463e-01	 1.371242171488961e+00	 6.617608746236977e+00
 6.774752861377920e-01	 1.377735556757602e+00	 6.477895676178728e+00
 6.643864854569552e-01	 1.384094875947388e+00	 6.334367060898447e+00
 7.962544767770235e-01	 1.319546786479115e+00	 7.748608419423968e+00
 7.835530172920160e-01	 1.327128321824000e+00	 7.601491905347116e+00
 7.707949345184253e-01	 1.334578616049106e+00	 7.459528156259165e+00
 7.579822229270325e-01	 1.341897113500660e+00	 7.321507272450015e+00
 7.451168822210505e-01	 1.349083298141368e+00	 7.186227874614640e+00
 7.322009163727958e-01	 1.356136693537066e+00	 7.052504374226357e+00
 7.192363326649061e-01	 1.363056862815909e+00	 6.919173803441286e+00
 7.062251407369902e-01	 1.369843408600351e+00	 6.785102174687539e+00
 6.931693516385852e-01	 1.376495972912290e+00	 6.649190344093931e+00
 6.800709768892779e-01	 1.383014237051692e+00	 6.510379356952893e+00
 6.669320275468287e-01	 1.389397921449102e+00	 6.367655257528954e+00
 7.992936160013634e-01	 1.324583224595447e+00	 7.770698817099852e+00
 7.865436776633595e-01	 1.332193697098138e+00	 7.624600721884555e+00
 7.737368999173503e-01	 1.339672427560743e+00	 7.483707372292049e+00
 7.608752848466015e-01	 1.347018858208678e+00	 7.346787812844624e+00
 7.479608397867802e-01	 1.354232471035037e+00	 7.212620251813149e+00
 7.349955763589515e-01	 1.361312787787208e+00	 7.079999502439952e+00
 7.219815095071385e-01	 1.368259369925893e+00	 6.947743970019106e+00
 7.089206565413300e-01	 1.375071818556841e+00	 6.814702154277974e+00
 6.958150361868242e-01	 1.381749774335620e+00	 6.679758640582811e+00
 6.826666676407634e-01	 1.388292917345783e+00	 6.541839557663083e+00
 6.694775696367019e-01	 1.394700966950816e+00	 6.399917483762890e+00
 8.023327552257030e-01	 1.329619662711780e+00	 7.791943588911405e+00
 7.895343380347029e-01	 1.337259072372275e+00	 7.646905580863685e+00
 7.766788653162756e-01	 1.344766239072381e+00	 7.507106874441581e+00
 7.637683467661704e-01	 1.352140602916695e+00	 7.371298268788244e+00
 7.508047973525089e-01	 1.359381643928707e+00	 7.238240488770816e+00
 7.377902363451072e-01	 1.366488882037350e+00	 7.106711795716541e+00
 7.247266863493708e-01	 1.373461877035877e+00	 6.975515129957031e+00
 7.116161723456694e-01	 1.380300228513330e+00	 6.843484753882255e+00
 6.984607207350632e-01	 1.387003575758949e+00	 6.709492368415828e+00
 6.852623583922495e-01	 1.393571597639873e+00	 6.572452680090610e+00
 6.720231117265755e-01	 1.400004012452531e+00	 6.431328400227450e+00
 8.053718944500429e-01	 1.334656100828112e+00	 7.812566764745805e+00
 7.925249984060464e-01	 1.342324447646413e+00	 7.668622061440521e+00
 7.796208307152009e-01	 1.349860050584019e+00	 7.529934710149830e+00
 7.666614086857395e-01	 1.357262347624714e+00	 7.395240030274074e+00
 7.536487549182381e-01	 1.364530816822376e+00	 7.263284147859455e+00
 7.405848963312628e-01	 1.371664976287491e+00	 7.132831774627743e+00
 7.274718631916034e-01	 1.378664384145861e+00	 7.002673504360665e+00
 7.143116881500091e-01	 1.385528638469820e+00	 6.871632594611771e+00
 7.011064052833016e-01	 1.392257377182278e+00	 6.738571206024935e+00
 6.878580491437349e-01	 1.398850277933963e+00	 6.602396075931448e+00
 6.745686538164489e-01	 1.405307057954245e+00	 6.462063607320326e+00
 8.084110336743827e-01	 1.339692538944445e+00	 7.832792690085357e+00
 7.955156587773903e-01	 1.347389822920550e+00	 7.689966190113452e+00
 7.825627961141263e-01	 1.354953862095657e+00	 7.552399489303815e+00
 7.695544706053080e-01	 1.362384092332731e+00	 7.418815148429845e+00
 7.564927124839673e-01	 1.369679989716045e+00	 7.287947535121598e+00
 7.433795563174185e-01	 1.376841070537632e+00	 7.158550770073576e+00
 7.302170400338359e-01	 1.383866891255846e+00	 7.029406175746990e+00
 7.170072039543489e-01	 1.390757048426311e+00	 6.899329194815812e+00
 7.037520898315407e-01	 1.397511178605608e+00	 6.767175749994495e+00
 6.904537398952206e-01	 1.404128958228053e+00	 6.631848021405071e+00
 6.771141959063223e-01	 1.410610103455959e+00	 6.492299622182022e+00
 8.114501728987225e-01	 1.344728977060777e+00	 7.852845989081713e+00
 7.985063191487335e-01	 1.352455198194687e+00	 7.711154404049498e+00
 7.855047615130514e-01	 1.360047673607294e+00	 7.574710348095260e+00
 7.724475325248767e-01	 1.367505837040749e+00	 7.442226300183054e+00
 7.593366700496967e-01	 1.374829162609714e+00	 7.312427666000222e+00
 7.461742163035743e-01	 1.382017164787774e+00	 7.184060890321977e+00
 7.329622168760682e-01	 1.389069398365830e+00	 7.055901056623070e+00
 7.197027197586885e-01	 1.395985458382800e+00	 6.926758940421428e+00
 7.063977743797796e-01	 1.402764980028937e+00	 6.795487487368955e+00
 6.930494306467063e-01	 1.409407638522144e+00	 6.660987691725163e+00
 6.796597379961956e-01	 1.415913148957673e+00	 6.522213855506033e+00
 8.144893121230624e-01	 1.349765415177110e+00	 7.872951527426094e+00
 8.014969795200771e-01	 1.357520573468825e+00	 7.732403514236413e+00
 7.884467269119766e-01	 1.365141485118932e+00	 7.597076912731012e+00
 7.753405944444458e-01	 1.372627581748767e+00	 7.465676752798527e+00
 7.621806276154257e-01	 1.379978335503384e+00	 7.336922230949353e+00
 7.489688762897297e-01	 1.387193259037915e+00	 7.209554987937614e+00
 7.357073937183007e-01	 1.394271905475815e+00	 7.082346857959548e+00
 7.223982355630280e-01	 1.401213868339290e+00	 6.954107055162545e+00
 7.090434589280185e-01	 1.408018781452267e+00	 6.823688767841782e+00
 6.956451213981925e-01	 1.414686318816234e+00	 6.689995135433386e+00
 6.822052800860690e-01	 1.421216194459387e+00	 6.551984588198874e+00
 8.175284513474022e-01	 1.354801853293442e+00	 7.893334375022464e+00
 8.044876398914208e-01	 1.362585948742962e+00	 7.753930668467545e+00
 7.913886923109019e-01	 1.370235296630570e+00	 7.619709263003727e+00
 7.782336563640143e-01	 1.377749326456784e+00	 7.489370328288370e+00
 7.650245851811552e-01	 1.385127508397053e+00	 7.361629560937171e+00
 7.517635362758854e-01	 1.392369353288057e+00	 7.235226626604931e+00
 7.384525705605330e-01	 1.399474412585799e+00	 7.108933057556399e+00
 7.250937513673679e-01	 1.406442278295780e+00	 6.981559570701460e+00
 7.116891434762573e-01	 1.413272582875596e+00	 6.851962775825975e+00
 6.982408121496780e-01	 1.419964999110324e+00	 6.719051248605476e+00
 6.847508221759425e-01	 1.426519239961101e+00	 6.581790947889482e+00
 8.205675905717418e-01	 1.359838291409774e+00	 7.914219768466310e+00
 8.074783002627647e-01	 1.367651324017100e+00	 7.775953314164051e+00
 7.943306577098274e-01	 1.375329108142209e+00	 7.642817895720397e+00
 7.811267182835836e-01	 1.382871071164802e+00	 7.513511367702112e+00
 7.678685427468843e-01	 1.390276681290723e+00	 7.386748592834462e+00
 7.545581962620413e-01	 1.397545447538199e+00	 7.261270047847820e+00
 7.411977474027657e-01	 1.404676919695784e+00	 7.135849868309894e+00
 7.277892671717078e-01	 1.411670688252270e+00	 7.009303296643290e+00
 7.143348280244961e-01	 1.418526384298925e+00	 6.880493502410149e+00
 7.008365029011642e-01	 1.425243679404416e+00	 6.748337748927431e+00
 6.872963642658158e-01	 1.431822285462816e+00	 6.611812885291725e+00
 6.618409433670821e-01	 1.378791830445674e+00	 6.299879195886260e+00
 6.487640208163045e-01	 1.384992993236797e+00	 6.156832904725016e+00
 6.356508197850700e-01	 1.391060164524644e+00	 6.019926946700180e+00
 6.225033291475520e-01	 1.396993182238545e+00	 5.888034030979394e+00
 6.093235337159060e-01	 1.402791922303776e+00	 5.760073065548485e+00
 5.961134133669527e-01	 1.408456298372357e+00	 5.635011295646190e+00
 5.828749421813376e-01	 1.413986261530805e+00	 5.511512807012777e+00
 5.696100875958353e-01	 1.419381799985411e+00	 5.385846801580712e+00
 5.563208095694437e-01	 1.424642938725617e+00	 5.257514429546847e+00
 5.430090597638866e-01	 1.429769739166102e+00	 5.126922897272257e+00
 5.296767807391138e-01	 1.434762298768200e+00	 4.994544125016042e+00
 6.643864854569552e-01	 1.384094875947388e+00	 6.334367060898447e+00
 6.512592670502134e-01	 1.390319889364631e+00	 6.191976088198764e+00
 6.380956306303971e-01	 1.396410395926661e+00	 6.055560462647692e+00
 6.248975727211966e-01	 1.402366232939461e+00	 5.924020011693905e+00
 6.116670857686592e-01	 1.408187275851098e+00	 5.796302734482977e+00
 5.984061572645177e-01	 1.413873437981481e+00	 5.671406898391274e+00
 5.851167688820353e-01	 1.419424670229001e+00	 5.548261589064704e+00
 5.718008956250504e-01	 1.424840960754586e+00	 5.423288911664596e+00
 5.584605049908647e-01	 1.430122334643792e+00	 5.295467114002122e+00
 5.450975561475938e-01	 1.435268853547509e+00	 5.165254343245731e+00
 5.317139991265720e-01	 1.440280615301924e+00	 5.033173881802735e+00
 6.669320275468287e-01	 1.389397921449102e+00	 6.367655257528954e+00
 6.537545132841223e-01	 1.395646785492465e+00	 6.225932948404477e+00
 6.405404414757242e-01	 1.401760627328679e+00	 6.090037736563247e+00
 6.272918162948410e-01	 1.407739283640380e+00	 5.958893738131708e+00
 6.140106378214129e-01	 1.413582629398420e+00	 5.831475223448594e+00
 6.006989011620831e-01	 1.419290577590606e+00	 5.706808676424894e+00
 5.873585955827325e-01	 1.424863078927196e+00	 5.583964624936936e+00
 5.739917036542649e-01	 1.430300121523760e+00	 5.459790561384205e+00
 5.606002004122856e-01	 1.435601730561967e+00	 5.332581006797197e+00
 5.471860525313010e-01	 1.440767967928917e+00	 5.202842331149232e+00
 5.337512175140302e-01	 1.445798931835648e+00	 5.071146431614446e+00
 6.694775696367019e-01	 1.394700966950816e+00	 6.399917483762890e+00
 6.562497595180310e-01	 1.400973681620298e+00	 6.258875281196712e+00
 6.429852523210517e-01	 1.407110858730697e+00	 6.123527764315766e+00
 6.296860598684851e-01	 1.413112334341297e+00	 5.992820549018999e+00
 6.163541898741665e-01	 1.418977982945742e+00	 5.865751399144436e+00
 6.029916450596482e-01	 1.424707717199731e+00	 5.741372253364210e+00
 5.896004222834301e-01	 1.430301487625392e+00	 5.618790689871268e+00
 5.761825116834798e-01	 1.435759282292935e+00	 5.495490636172560e+00
 5.627398958337065e-01	 1.441081126480142e+00	 5.368988377817641e+00
 5.492745489150082e-01	 1.446267082310325e+00	 5.239812076300546e+00
 5.357884359014884e-01	 1.451317248369372e+00	 5.108579546746142e+00
 6.720231117265755e-01	 1.400004012452531e+00	 6.431328400227450e+00
 6.587450057519395e-01	 1.406300577748132e+00	 6.290975829630993e+00
 6.454300631663789e-01	 1.412461090132715e+00	 6.156200481458994e+00
 6.320803034421295e-01	 1.418485385042214e+00	 6.025966722459986e+00
 6.186977419269198e-01	 1.424373336493064e+00	 5.899293073853886e+00
 6.052843889572135e-01	 1.430124856808855e+00	 5.775254210441616e+00
 5.918422489841275e-01	 1.435739896323587e+00	 5.652982381267591e+00
 5.783733197126945e-01	 1.441218443062110e+00	 5.530528944097822e+00
 5.648795912551274e-01	 1.446560522398318e+00	 5.404822378768714e+00
 5.513630452987156e-01	 1.451766196691733e+00	 5.276289643116577e+00
 5.378256542889466e-01	 1.456835564903096e+00	 5.145591823431062e+00
 6.745686538164489e-01	 1.405307057954245e+00	 6.462063607320319e+00
 6.612402519858487e-01	 1.411627473875966e+00	 6.322408263441798e+00
 6.478748740117056e-01	 1.417811321534733e+00	 6.188226744813276e+00
 6.344745470157741e-01	 1.423858435743132e+00	 6.058499459387582e+00
 6.210412939796731e-01	 1.429768690040386e+00	 5.932262990535558e+00
 6.075771328547784e-01	 1.435541996417979e+00	 5.808612073025305e+00
 5.940840756848249e-01	 1.441178305021782e+00	 5.686700973914400e+00
 5.805641277419091e-01	 1.446677603831284e+00	 5.565046226767841e+00
 5.670192866765486e-01	 1.452039918316494e+00	 5.440217053564417e+00
 5.534515416824228e-01	 1.457265311073142e+00	 5.312401954851428e+00
 5.398628726764045e-01	 1.462353881436820e+00	 5.182302690813213e+00
 6.771141959063223e-01	 1.410610103455959e+00	 6.492299622182029e+00
 6.637354982197576e-01	 1.416954370003800e+00	 6.353347158339643e+00
 6.503196848570332e-01	 1.423161552936751e+00	 6.219778313849025e+00
 6.368687905894186e-01	 1.429231486444049e+00	 6.090586866806929e+00
 6.233848460324267e-01	 1.435164043587710e+00	 5.964824807706704e+00
 6.098698767523439e-01	 1.440959136027103e+00	 5.841604296927454e+00
 5.963259023855223e-01	 1.446616713719978e+00	 5.720099010079132e+00
 5.827549357711239e-01	 1.452136764600459e+00	 5.599184170027796e+00
 5.691589820979693e-01	 1.457519314234669e+00	 5.475307348514867e+00
 5.555400380661301e-01	 1.462764425454550e+00	 5.348276803150290e+00
 5.419000910638627e-01	 1.467872197970543e+00	 5.218832419747066e+00
 6.796597379961956e-01	 1.415913148957673e+00	 6.522213855506033e+00
 6.662307444536664e-01	 1.422281266131634e+00	 6.383967975129464e+00
 6.527644957023602e-01	 1.428511784338768e+00	 6.251027831881494e+00
 6.392630341630631e-01	 1.434604537144967e+00	 6.122397940837182e+00
 6.257283980851802e-01	 1.440559397135031e+00	 5.997143084118290e+00
 6.121626206499090e-01	 1.446376275636228e+00	 5.874390254508381e+00
 5.985677290862197e-01	 1.452055122418173e+00	 5.753329969442555e+00
 5.849457438003385e-01	 1.457595925369634e+00	 5.633085414458360e+00
 5.712986775193902e-01	 1.462998710152845e+00	 5.510229122328830e+00
 5.576285344498373e-01	 1.468263539835958e+00	 5.384042857426687e+00
 5.439373094513208e-01	 1.473390514504267e+00	 5.255302131436112e+00
 6.822052800860690e-01	 1.421216194459387e+00	 6.551984588198874e+00
 6.687259906875753e-01	 1.427608162259468e+00	 6.414447038661439e+00
 6.552093065476874e-01	 1.433862015740786e+00	 6.282148807080311e+00
 6.416572777367076e-01	 1.439977587845884e+00	 6.154102549560513e+00
 6.280719501379336e-01	 1.445954750682353e+00	 6.029383263230611e+00
 6.144553645474742e-01	 1.451793415245352e+00	 5.907130220571818e+00
 6.008095557869172e-01	 1.457493531116369e+00	 5.786548256227374e+00
 5.871365518295532e-01	 1.463055086138808e+00	 5.666893565679153e+00
 5.734383729408112e-01	 1.468478106071020e+00	 5.545119155924880e+00
 5.597170308335444e-01	 1.473762654217366e+00	 5.419829674060569e+00
 5.459745278387790e-01	 1.478908831037991e+00	 5.291833805907634e+00
 6.847508221759425e-01	 1.426519239961101e+00	 6.581790947889482e+00
 6.712212369214841e-01	 1.432935058387302e+00	 6.444961516609558e+00
 6.576541173930147e-01	 1.439212247142805e+00	 6.313315593295838e+00
 6.440515213103519e-01	 1.445350638546802e+00	 6.185871415680431e+00
 6.304155021906872e-01	 1.451350104229675e+00	 6.061711657492166e+00
 6.167481084450392e-01	 1.457210554854477e+00	 5.939985358070241e+00
 6.030513824876146e-01	 1.462931939814564e+00	 5.819909186131522e+00
 5.893273598587681e-01	 1.468514246907983e+00	 5.700768050236541e+00
 5.755780683622320e-01	 1.473957501989195e+00	 5.580115162064015e+00
 5.618055272172517e-01	 1.479261768598774e+00	 5.455767705429976e+00
 5.480117462262372e-01	 1.484427147571715e+00	 5.328550290333311e+00
 6.872963642658158e-01	 1.431822285462816e+00	 6.611812885291718e+00
 6.737164831553930e-01	 1.438261954515136e+00	 6.475689398092159e+00
 6.600989282383419e-01	 1.444562478544823e+00	 6.344703370711061e+00
 6.464457648839964e-01	 1.450723689247720e+00	 6.217876098993309e+00
 6.327590542434408e-01	 1.456745457776998e+00	 6.094295432429713e+00
 6.190408523426046e-01	 1.462627694463602e+00	 5.973117703612534e+00
 6.052932091883121e-01	 1.468370348512760e+00	 5.853568973072180e+00
 5.915181678879828e-01	 1.473973407677158e+00	 5.734945602436444e+00
 5.777177637836530e-01	 1.479436897907371e+00	 5.615355794804296e+00
 5.638940236009593e-01	 1.484760882980182e+00	 5.491988308776580e+00
 5.500489646136953e-01	 1.489945464105438e+00	 5.365575307196042e+00
 5.296767807391138e-01	 1.434762298768200e+00	 4.994544125016042e+00
 5.163259051643645e-01	 1.439620750641279e+00	 4.862497828266314e+00
 5.029583550453181e-01	 1.444345263124738e+00	 4.732595814185843e+00
 4.895760409678515e-01	 1.448936039351291e+00	 4.604931237179303e+00
 4.761808613588674e-01	 1.453393316792219e+00	 4.479644286276863e+00
 4.627747017646459e-01	 1.457717366785278e+00	 4.356917040542179e+00
 4.493594341471348e-01	 1.461908494045960e+00	 4.236968529907086e+00
 4.359369161985672e-01	 1.465967036162834e+00	 4.120050011493446e+00
 4.225089906747642e-01	 1.469893363077660e+00	 4.006440470032850e+00
 4.090774847474509e-01	 1.473687876551022e+00	 3.896442349569424e+00
 3.956442093758846e-01	 1.477351009614198e+00	 3.790377522242724e+00
 5.317139991265720e-01	 1.440280615301924e+00	 5.033173881802735e+00
 5.183117740303813e-01	 1.445157753528361e+00	 4.901401055466141e+00
 5.048928102570307e-01	 1.449900437213680e+00	 4.771768750269781e+00
 4.914590257408045e-01	 1.454508870271873e+00	 4.644369468889515e+00
 4.780123262102476e-01	 1.458983291087574e+00	 4.519342120118518e+00
 4.645546044637409e-01	 1.463323972042144e+00	 4.396866810611815e+00
 4.510877396630854e-01	 1.467531219023061e+00	 4.277159848189926e+00
 4.376135966454848e-01	 1.471605370917306e+00	 4.160468966808420e+00
 4.241340252542824e-01	 1.475546799089497e+00	 4.047068781832103e+00
 4.106508596887872e-01	 1.479355906845449e+00	 3.937256482809864e+00
 3.971659178734842e-01	 1.483033128881945e+00	 3.831347769513468e+00
 5.337512175140302e-01	 1.445798931835648e+00	 5.071146431614446e+00
 5.202976428963980e-01	 1.450694756415443e+00	 4.939717017393712e+00
 5.068272654687435e-01	 1.455455611302620e+00	 4.810404313652348e+00
 4.933420105137580e-01	 1.460081701192455e+00	 4.683302636626394e+00
 4.798437910616279e-01	 1.464573265382929e+00	 4.558552079913675e+00
 4.663345071628356e-01	 1.468930577299011e+00	 4.436333238510702e+00
 4.528160451790357e-01	 1.473153944000160e+00	 4.316862150668309e+00
 4.392902770924023e-01	 1.477243705671779e+00	 4.200385467750852e+00
 4.257590598338007e-01	 1.481200235101334e+00	 4.087175860763110e+00
 4.122242346301236e-01	 1.485023937139876e+00	 3.977527670748951e+00
 3.986876263710838e-01	 1.488715248149693e+00	 3.871752808794609e+00
 5.357884359014884e-01	 1.451317248369372e+00	 5.108579546746142e+00
 5.222835117624148e-01	 1.456231759302525e+00	 4.977556121831131e+00
 5.087617206804562e-01	 1.461010785391561e+00	 4.848606051745453e+00
 4.952249952867113e-01	 1.465654532113037e+00	 4.721827919482936e+00
 4.816752559130082e-01	 1.470163239678283e+00	 4.597365455857595e+00
 4.681144098619301e-01	 1.474537182555877e+00	 4.475402191774438e+00
 4.545443506949862e-01	 1.478776668977260e+00	 4.356156334743540e+00
 4.409669575393199e-01	 1.482882040426251e+00	 4.239875879872841e+00
 4.273840944133191e-01	 1.486853671113171e+00	 4.126833964059021e+00
 4.137976095714599e-01	 1.490691967434303e+00	 4.017324470567285e+00
 4.002093348686834e-01	 1.494397367417439e+00	 3.911657889725583e+00
 5.378256542889466e-01	 1.456835564903096e+00	 5.145591823431062e+00
 5.242693806284314e-01	 1.461768762189606e+00	 5.015029576053028e+00
 5.106961758921690e-01	 1.466565959480503e+00	 4.886478281489181e+00
 4.971079800596643e-01	 1.471227363033618e+00	 4.760043230990057e+00
 4.835067207643883e-01	 1.475753213973638e+00	 4.635874232745363e+00
 4.698943125610251e-01	 1.480143787812743e+00	 4.514160188346471e+00
 4.562726562109368e-01	 1.484399393954360e+00	 4.395123900056825e+00
 4.426436379862373e-01	 1.488520375180724e+00	 4.279017119206729e+00
 4.290091289928374e-01	 1.492507107125008e+00	 4.166115844452331e+00
 4.153709845127961e-01	 1.496359997728730e+00	 4.056715877117938e+00
 4.017310433662829e-01	 1.500079486685186e+00	 3.951128639313790e+00
 5.398628726764045e-01	 1.462353881436820e+00	 5.182302690813213e+00
 5.262552494944484e-01	 1.467305765076689e+00	 5.052249395040429e+00
 5.126306311038817e-01	 1.472121133569445e+00	 4.924126096937891e+00
 4.989909648326176e-01	 1.476800193954200e+00	 4.798047226195076e+00
 4.853381856157687e-01	 1.481343188268993e+00	 4.674171096667877e+00
 4.716742152601197e-01	 1.485750393069610e+00	 4.552694402995288e+00
 4.580009617268875e-01	 1.490022118931460e+00	 4.433846954737722e+00
 4.443203184331550e-01	 1.494158709935197e+00	 4.317886658435689e+00
 4.306341635723558e-01	 1.498160543136846e+00	 4.205094756364751e+00
 4.169443594541327e-01	 1.502028028023157e+00	 4.095771329220810e+00
 4.032527518638824e-01	 1.505761605952934e+00	 3.990231068412420e+00
 5.419000910638627e-01	 1.467872197970543e+00	 5.218832419747066e+00
 5.282411183604652e-01	 1.472842767963771e+00	 5.089328409541595e+00
 5.145650863155945e-01	 1.477676307658386e+00	 4.961655376705213e+00
 5.008739496055711e-01	 1.482373024874782e+00	 4.835939308609108e+00
 4.871696504671489e-01	 1.486933162564347e+00	 4.712349441576038e+00
 4.734541179592148e-01	 1.491356998326477e+00	 4.591092673610591e+00
 4.597292672428379e-01	 1.495644843908559e+00	 4.472408221529030e+00
 4.459969988800728e-01	 1.499797044689669e+00	 4.356562532948612e+00
 4.322591981518741e-01	 1.503813979148683e+00	 4.243844461976726e+00
 4.185177343954689e-01	 1.507696058317584e+00	 4.134560715831795e+00
 4.047744603614820e-01	 1.511443725220680e+00	 4.029031578066622e+00
 5.439373094513208e-01	 1.473390514504267e+00	 5.255302131436112e+00
 5.302269872264820e-01	 1.478379770850852e+00	 5.126380273978832e+00
 5.164995415273074e-01	 1.483231481747328e+00	 4.999172791266625e+00
 5.027569343785243e-01	 1.487945855795364e+00	 4.873819637027994e+00
 4.890011153185291e-01	 1.492523136859702e+00	 4.750503375727089e+00
 4.752340206583095e-01	 1.496963603583343e+00	 4.629443507380293e+00
 4.614575727587885e-01	 1.501267568885659e+00	 4.510891043793732e+00
 4.476736793269902e-01	 1.505435379444142e+00	 4.395123346772102e+00
 4.338842327313924e-01	 1.509467415160520e+00	 4.282439237175219e+00
 4.200911093368053e-01	 1.513364088612011e+00	 4.173154382086153e+00
 4.062961688590816e-01	 1.517125844488427e+00	 4.067596965731525e+00
 5.459745278387790e-01	 1.478908831037991e+00	 5.291833805907626e+00
 5.322128560924986e-01	 1.483916773737934e+00	 5.163519474210529e+00
 5.184339967390201e-01	 1.488786655836269e+00	 5.036785810128572e+00
 5.046399191514777e-01	 1.493518686715946e+00	 4.911789132220487e+00
 4.908325801699095e-01	 1.498113111155057e+00	 4.788727728007458e+00
 4.770139233574043e-01	 1.502570208840210e+00	 4.667836086846806e+00
 4.631858782747388e-01	 1.506890293862759e+00	 4.549379391409714e+00
 4.493503597739077e-01	 1.511073714198614e+00	 4.433648278389819e+00
 4.355092673109108e-01	 1.515120851172357e+00	 4.320953877386937e+00
 4.216644842781415e-01	 1.519032118906438e+00	 4.211623135225759e+00
 4.078178773566811e-01	 1.522807963756174e+00	 4.105994431363451e+00
 5.480117462262372e-01	 1.484427147571715e+00	 5.328550290333311e+00
 5.341987249585156e-01	 1.489453776625016e+00	 5.200861335151213e+00
 5.203684519507328e-01	 1.494341829925210e+00	 5.074602708866726e+00
 5.065229039244309e-01	 1.499091517636528e+00	 4.949949483498859e+00
 4.926640450212896e-01	 1.503703085450411e+00	 4.827118054139460e+00
 4.787938260564991e-01	 1.508176814097076e+00	 4.706360275857785e+00
 4.649141837906894e-01	 1.512513018839859e+00	 4.587957866551292e+00
 4.510270402208253e-01	 1.516712048953086e+00	 4.472217086453958e+00
 4.371343018904290e-01	 1.520774287184194e+00	 4.359463703295694e+00
 4.232378592194779e-01	 1.524700149200865e+00	 4.250038250405146e+00
 4.093395858542806e-01	 1.528490083023921e+00	 4.144291583390519e+00
 5.500489646136953e-01	 1.489945464105438e+00	 5.365575307196042e+00
 5.361845938245324e-01	 1.494990779512098e+00	 5.238522028250942e+00
 5.223029071624458e-01	 1.499897004014151e+00	 5.112732576032377e+00
 5.084058886973842e-01	 1.504664348557110e+00	 4.988403155165167e+00
 4.944955098726699e-01	 1.509293059745766e+00	 4.865770642772638e+00
 4.805737287555939e-01	 1.513783419353943e+00	 4.745106625398122e+00
 4.666424893066400e-01	 1.518135743816959e+00	 4.626711709365124e+00
 4.527037206677429e-01	 1.522350383707558e+00	 4.510910115383420e+00
 4.387593364699473e-01	 1.526427723196031e+00	 4.398044566453830e+00
 4.248112341608143e-01	 1.530368179495292e+00	 4.288471476387926e+00
 4.108612943518802e-01	 1.534172202291668e+00	 4.182556444562160e+00
 3.956442093758846e-01	 1.477351009614198e+00	 3.790377522242724e+00
 3.822109586980679e-01	 1.480883226008001e+00	 3.686756009588761e+00
 3.687795094417778e-01	 1.484285019609321e+00	 3.584139425603784e+00
 3.553516203556356e-01	 1.487556913846117e+00	 3.482942474639276e+00
 3.419290316603897e-01	 1.490699461101583e+00	 3.383581797748153e+00
 3.285134645205692e-01	 1.493713242108221e+00	 3.286473315857429e+00
 3.151066205366365e-01	 1.496598865332572e+00	 3.192029819253323e+00
 3.017101812577335e-01	 1.499356966351305e+00	 3.100658800386572e+00
 2.883258077150979e-01	 1.501988207219417e+00	 3.012760526045704e+00
 2.749551399761911e-01	 1.504493275831246e+00	 2.928726344015875e+00
 2.615997967195591e-01	 1.506872885275014e+00	 2.848937218509014e+00
 3.971659178734842e-01	 1.483033128881945e+00	 3.831347769513468e+00
 3.836810008469065e-01	 1.486578930723417e+00	 3.727821240229113e+00
 3.701978921703999e-01	 1.489993808146280e+00	 3.625222959630306e+00
 3.567183573570033e-01	 1.493278286591679e+00	 3.523983972924969e+00
 3.432441433206220e-01	 1.496432920567358e+00	 3.424536436688980e+00
 3.297769778456485e-01	 1.499458293039407e+00	 3.327310923330663e+00
 3.163185690771620e-01	 1.502355014814620e+00	 3.232733977939763e+00
 3.028706050318016e-01	 1.505123723914194e+00	 3.141225924382810e+00
 2.894347531293866e-01	 1.507765084939491e+00	 3.053198916543701e+00
 2.760126597453302e-01	 1.510279788430597e+00	 2.969055229642186e+00
 2.626059497838651e-01	 1.512668550218379e+00	 2.889185785728787e+00
 3.986876263710838e-01	 1.488715248149693e+00	 3.871752808794609e+00
 3.851510429957454e-01	 1.492274635438832e+00	 3.768302955216422e+00
 3.716162748990220e-01	 1.495702596683239e+00	 3.665711226168754e+00
 3.580850943583713e-01	 1.498999659337242e+00	 3.564424476028236e+00
 3.445592549808541e-01	 1.502166380033133e+00	 3.464889792892412e+00
 3.310404911707275e-01	 1.505203343970592e+00	 3.367551765760217e+00
 3.175305176176876e-01	 1.508111164296668e+00	 3.272850010258041e+00
 3.040310288058699e-01	 1.510890481477084e+00	 3.181216949656289e+00
 2.905436985436755e-01	 1.513541962659566e+00	 3.093075846875633e+00
 2.770701795144695e-01	 1.516066301029948e+00	 3.008839082262380e+00
 2.636121028481710e-01	 1.518464215161745e+00	 2.928906671017505e+00
 4.002093348686834e-01	 1.494397367417439e+00	 3.911657889725583e+00
 3.866210851445840e-01	 1.497970340154247e+00	 3.808263162897366e+00
 3.730346576276445e-01	 1.501411385220198e+00	 3.705662754050806e+00
 3.594518313597391e-01	 1.504721032082804e+00	 3.604318811369480e+00
 3.458743666410865e-01	 1.507899839498909e+00	 3.504692786467864e+00
 3.323040044958066e-01	 1.510948394901777e+00	 3.407242665692228e+00
 3.187424661582132e-01	 1.513867313778717e+00	 3.312420466251186e+00
 3.051914525799381e-01	 1.516657239039973e+00	 3.220669993752698e+00
 2.916526439579643e-01	 1.519318840379640e+00	 3.132424856691769e+00
 2.781276992836088e-01	 1.521852813629299e+00	 3.048106732466765e+00
 2.646182559124771e-01	 1.524259880105111e+00	 2.968123878614607e+00
 4.017310433662829e-01	 1.500079486685186e+00	 3.951128639313790e+00
 3.880911272934228e-01	 1.503666044869663e+00	 3.847764191266186e+00
 3.744530403562666e-01	 1.507120173757157e+00	 3.745136341341229e+00
 3.608185683611070e-01	 1.510442404828365e+00	 3.643722032346267e+00
 3.471894783013186e-01	 1.513633298964684e+00	 3.543996527241665e+00
 3.335675178208857e-01	 1.516693445832963e+00	 3.446430605971829e+00
 3.199544146987386e-01	 1.519623463260765e+00	 3.351488033505134e+00
 3.063518763540063e-01	 1.522423996602863e+00	 3.259623295502895e+00
 2.927615893722532e-01	 1.525095718099715e+00	 3.171279596986198e+00
 2.791852190527478e-01	 1.527639326228650e+00	 3.086887118384499e+00
 2.656244089767831e-01	 1.530055545048476e+00	 3.006861522437630e+00
 4.032527518638824e-01	 1.505761605952934e+00	 3.990231068412420e+00
 3.895611694422614e-01	 1.509361749585078e+00	 3.886868694611351e+00
 3.758714230848888e-01	 1.512828962294116e+00	 3.784191062050974e+00
 3.621853053624747e-01	 1.516163777573927e+00	 3.682689425005296e+00
 3.485045899615509e-01	 1.519366758430459e+00	 3.582852321295254e+00
 3.348310311459648e-01	 1.522438496764149e+00	 3.485162736044250e+00
 3.211663632392642e-01	 1.525379612742813e+00	 3.390095543130926e+00
 3.075123001280746e-01	 1.528190754165753e+00	 3.298115220594130e+00
 2.938705347865420e-01	 1.530872595819790e+00	 3.209673835175052e+00
 2.802427388218871e-01	 1.533425838828001e+00	 3.125209290180971e+00
 2.666305620410890e-01	 1.535851209991841e+00	 3.045143829924601e+00
 4.047744603614820e-01	 1.511443725220680e+00	 4.029031578066622e+00
 3.910312115911002e-01	 1.515057454300494e+00	 3.925639660024669e+00
 3.772898058135110e-01	 1.518537750831075e+00	 3.822886272703335e+00
 3.635520423638426e-01	 1.521885150319489e+00	 3.721276514571953e+00
 3.498197016217832e-01	 1.525100217896235e+00	 3.621311677360253e+00
 3.360945444710439e-01	 1.528183547695334e+00	 3.523486378126198e+00
 3.223783117797897e-01	 1.531135762224862e+00	 3.428285975619857e+00
 3.086727239021428e-01	 1.533957511728642e+00	 3.336184267023736e+00
 2.949794802008309e-01	 1.536649473539865e+00	 3.247641460060984e+00
 2.813002585910263e-01	 1.539212351427352e+00	 3.163102414461523e+00
 2.676367151053950e-01	 1.541646874935207e+00	 3.082995145798490e+00
 4.062961688590816e-01	 1.517125844488427e+00	 4.067596965731525e+00
 3.925012537399389e-01	 1.520753159015909e+00	 3.964140413775671e+00
 3.787081885421332e-01	 1.524246539368034e+00	 3.861281618768393e+00
 3.649187793652103e-01	 1.527606523065052e+00	 3.759539071846632e+00
 3.511348132820156e-01	 1.530833677362010e+00	 3.659426313081823e+00
 3.373580577961229e-01	 1.533928598626520e+00	 3.561449033245507e+00
 3.235902603203152e-01	 1.536891911706910e+00	 3.466102466572958e+00
 3.098331476762109e-01	 1.539724269291532e+00	 3.373869070432431e+00
 2.960884256151197e-01	 1.542426351259939e+00	 3.285216486695851e+00
 2.823577783601654e-01	 1.544998864026703e+00	 3.200595778578350e+00
 2.686428681697011e-01	 1.547442539878572e+00	 3.120439935744461e+00
 4.078178773566811e-01	 1.522807963756174e+00	 4.105994431363451e+00
 3.939712958887776e-01	 1.526448863731324e+00	 4.002434627556177e+00
 3.801265712707554e-01	 1.529955327904992e+00	 3.899437040961862e+00
 3.662855163665782e-01	 1.533327895810614e+00	 3.797533119462834e+00
 3.524499249422476e-01	 1.536567136827785e+00	 3.697248161147447e+00
 3.386215711212021e-01	 1.539673649557705e+00	 3.599098387151287e+00
 3.248022088608408e-01	 1.542648061188959e+00	 3.503588312306088e+00
 3.109935714502792e-01	 1.545491026854421e+00	 3.411208409328025e+00
 2.971973710294086e-01	 1.548203228980014e+00	 3.322433061136468e+00
 2.834152981293047e-01	 1.550785376626054e+00	 3.237718794848365e+00
 2.696490212340071e-01	 1.553238204821938e+00	 3.157502790014752e+00
 4.093395858542806e-01	 1.528490083023921e+00	 4.144291583390519e+00
 3.954413380376164e-01	 1.532144568446740e+00	 4.040586324597203e+00
 3.815449539993776e-01	 1.535664116441951e+00	 3.937412781415997e+00
 3.676522533679461e-01	 1.539049268556175e+00	 3.835314938018708e+00
 3.537650366024800e-01	 1.542300596293561e+00	 3.734829375289593e+00
 3.398850844462813e-01	 1.545418700488891e+00	 3.636482316102966e+00
 3.260141574013662e-01	 1.548404210671007e+00	 3.540786975343517e+00
 3.121539952243472e-01	 1.551257784417311e+00	 3.448241210196564e+00
 2.983063164436973e-01	 1.553980106700088e+00	 3.359325465101069e+00
 2.844728178984439e-01	 1.556571889225405e+00	 3.274501004677147e+00
 2.706551742983130e-01	 1.559033869765303e+00	 3.194208426954009e+00
 4.108612943518802e-01	 1.534172202291668e+00	 4.182556444562160e+00
 3.969113801864550e-01	 1.537840273162155e+00	 4.078659885664165e+00
 3.829633367280000e-01	 1.541372904978910e+00	 3.975269389722122e+00
 3.690189903693139e-01	 1.544770641301738e+00	 3.872941072083030e+00
 3.550801482627124e-01	 1.548034055759336e+00	 3.772222336163902e+00
 3.411485977713604e-01	 1.551163751420076e+00	 3.673648892536610e+00
 3.272261059418918e-01	 1.554160360153056e+00	 3.577742089789391e+00
 3.133144189984156e-01	 1.557024541980201e+00	 3.485006552504404e+00
 2.994152618579862e-01	 1.559756984420164e+00	 3.395928120526758e+00
 2.855303376675831e-01	 1.562358401824755e+00	 3.310972082599765e+00
 2.716613273626191e-01	 1.564829534708669e+00	 3.230581696447442e+00
 2.615997967195591e-01	 1.506872885275014e+00	 2.848937218509014e+00
 2.482613748304207e-01	 1.509127773181605e+00	 2.773125302052143e+00
 2.349414490169477e-01	 1.511258701068278e+00	 2.700863011553456e+00
 2.216415714471885e-01	 1.513266453677997e+00	 2.632273850964828e+00
 2.083632714065534e-01	 1.515151838315065e+00	 2.567468730368792e+00
 1.951080549757580e-01	 1.516915684177712e+00	 2.506545875469030e+00
 1.818774047291074e-01	 1.518558841688317e+00	 2.449590906878631e+00
 1.686727794529705e-01	 1.520082181821881e+00	 2.396677079253212e+00
 1.554956138842836e-01	 1.521486595433397e+00	 2.347865670030091e+00
 1.423473184688979e-01	 1.522772992584737e+00	 2.303206507323789e+00
 1.292292791395657e-01	 1.523942301871639e+00	 2.262738626379779e+00
 2.626059497838651e-01	 1.512668550218379e+00	 2.889185785728787e+00
 2.492162262720762e-01	 1.514932110770765e+00	 2.813314904899275e+00
 2.358450699747051e-01	 1.517071234533925e+00	 2.741002196523576e+00
 2.224940390296777e-01	 1.519086709269066e+00	 2.672372015236821e+00
 2.091646686042708e-01	 1.520979345385507e+00	 2.607534923722653e+00
 1.958584705718187e-01	 1.522749975270704e+00	 2.546587631315900e+00
 1.825769332088349e-01	 1.524399452617889e+00	 2.489613106347135e+00
 1.693215209124049e-01	 1.525928651751965e+00	 2.436680851985761e+00
 1.560936739376847e-01	 1.527338466954295e+00	 2.387847335067114e+00
 1.428948081553167e-01	 1.528629811786986e+00	 2.343156557170462e+00
 1.297263148285640e-01	 1.529803618417299e+00	 2.302640757056514e+00
 2.636121028481710e-01	 1.518464215161745e+00	 2.928906671017505e+00
 2.501710777137316e-01	 1.520736448359925e+00	 2.852992580313230e+00
 2.367486909324626e-01	 1.522883767999572e+00	 2.780642172075924e+00
 2.233465066121669e-01	 1.524906964860136e+00	 2.711981382559751e+00
 2.099660658019884e-01	 1.526806852455950e+00	 2.647121164404122e+00
 1.966088861678793e-01	 1.528584266363695e+00	 2.586157453494442e+00
 1.832764616885621e-01	 1.530240063547459e+00	 2.529171313555660e+00
 1.699702623718395e-01	 1.531775121682050e+00	 2.476229247963098e+00
 1.566917339910857e-01	 1.533190338475193e+00	 2.427383667964492e+00
 1.434422978417356e-01	 1.534486630989235e+00	 2.382673506297363e+00
 1.302233505175624e-01	 1.535664934962959e+00	 2.342124965022310e+00
 2.646182559124771e-01	 1.524259880105111e+00	 2.968123878614607e+00
 2.511259291553871e-01	 1.526540785949085e+00	 2.892177800001944e+00
 2.376523118902201e-01	 1.528696301465219e+00	 2.819798567876805e+00
 2.241989741946561e-01	 1.530727220451205e+00	 2.751114422491727e+00
 2.107674629997059e-01	 1.532634359526392e+00	 2.686237434610800e+00
 1.973593017639399e-01	 1.534418557456686e+00	 2.625263499785544e+00
 1.839759901682895e-01	 1.536080674477029e+00	 2.568272514421104e+00
 1.706190038312740e-01	 1.537621591612134e+00	 2.515328722833741e+00
 1.572897940444868e-01	 1.539042209996091e+00	 2.466481224198505e+00
 1.439897875281544e-01	 1.540343450191484e+00	 2.421764628090191e+00
 1.307203862065607e-01	 1.541526251508619e+00	 2.381199847148226e+00
 2.656244089767831e-01	 1.530055545048476e+00	 3.006861522437630e+00
 2.520807805970426e-01	 1.532345123538245e+00	 2.930890147220927e+00
 2.385559328479776e-01	 1.534508834930867e+00	 2.858487120731315e+00
 2.250514417771453e-01	 1.536547476042274e+00	 2.789783701171258e+00
 2.115688601974234e-01	 1.538461866596835e+00	 2.724893796532257e+00
 1.981097173600004e-01	 1.540252848549677e+00	 2.663913985469305e+00
 1.846755186480168e-01	 1.541921285406599e+00	 2.606923724090303e+00
 1.712677452907085e-01	 1.543468061542218e+00	 2.553985727552952e+00
 1.578878540978879e-01	 1.544894081516988e+00	 2.505146515103045e+00
 1.445372772145733e-01	 1.546200269393733e+00	 2.460437106947206e+00
 1.312174218955590e-01	 1.547387568054279e+00	 2.419873861202190e+00
 2.666305620410890e-01	 1.535851209991841e+00	 3.045143829924601e+00
 2.530356320386981e-01	 1.538149461127405e+00	 2.969149320000138e+00
 2.394595538057351e-01	 1.540321368396514e+00	 2.896723677349687e+00
 2.259039093596344e-01	 1.542367731633343e+00	 2.828001883766539e+00
 2.123702573951409e-01	 1.544289373667278e+00	 2.763100394628616e+00
 1.988601329560610e-01	 1.546087139642668e+00	 2.702117185581050e+00
 1.853750471277441e-01	 1.547761896336170e+00	 2.645131989307824e+00
 1.719164867501429e-01	 1.549314531472302e+00	 2.592206711004544e+00
 1.584859141512890e-01	 1.550745953037886e+00	 2.543386010883571e+00
 1.450847669009921e-01	 1.552057088595982e+00	 2.498698041810704e+00
 1.317144575845574e-01	 1.553248884599940e+00	 2.458155330029356e+00
 2.676367151053950e-01	 1.541646874935207e+00	 3.082995145798490e+00
 2.539904834803535e-01	 1.543953798716565e+00	 3.006975134304838e+00
 2.403631747634925e-01	 1.546133901862161e+00	 2.934524197049325e+00
 2.267563769421236e-01	 1.548187987224412e+00	 2.865781736870284e+00
 2.131716545928584e-01	 1.550116880737720e+00	 2.800867457864856e+00
 1.996105485521217e-01	 1.551921430735660e+00	 2.739881437116481e+00
 1.860745756074714e-01	 1.553602507265740e+00	 2.682904390737840e+00
 1.725652282095774e-01	 1.555161001402386e+00	 2.629998122570415e+00
 1.590839742046901e-01	 1.556597824558784e+00	 2.581206143560338e+00
 1.456322565874109e-01	 1.557913907798231e+00	 2.536554449620782e+00
 1.322114932735557e-01	 1.559110201145600e+00	 2.496052445637492e+00
 2.686428681697011e-01	 1.547442539878572e+00	 3.120439935744461e+00
 2.549453349220090e-01	 1.549758136305725e+00	 3.044387527124243e+00
 2.412667957212500e-01	 1.551946435327808e+00	 2.971904754405143e+00
 2.276088445246128e-01	 1.554008242815482e+00	 2.903136130844565e+00
 2.139730517905758e-01	 1.555944387808162e+00	 2.838205301889710e+00
 2.003609641481822e-01	 1.557755721828651e+00	 2.777215141188071e+00
 1.867741040871987e-01	 1.559443118195311e+00	 2.720248045229583e+00
 1.732139696690120e-01	 1.561007471332470e+00	 2.667366414636849e+00
 1.596820342580911e-01	 1.562449696079681e+00	 2.618613309847972e+00
 1.461797462738298e-01	 1.563770727000480e+00	 2.574013268689884e+00
 1.327085289625539e-01	 1.564971517691260e+00	 2.533573273191524e+00
 2.696490212340071e-01	 1.553238204821938e+00	 3.157502790014752e+00
 2.559001863636644e-01	 1.555562473894885e+00	 3.081406559497675e+00
 2.421704166790075e-01	 1.557758968793456e+00	 3.008881541833311e+00
 2.284613121071020e-01	 1.559828498406551e+00	 2.940078042116020e+00
 2.147744489882934e-01	 1.561771894878605e+00	 2.875124331171500e+00
 2.011113797442428e-01	 1.563590012921642e+00	 2.814126765138930e+00
 1.874736325669262e-01	 1.565283729124881e+00	 2.757170108035332e+00
 1.738627111284464e-01	 1.566853941262554e+00	 2.704318045048391e+00
 1.602800943114922e-01	 1.568301567600578e+00	 2.655613873972402e+00
 1.467272359602486e-01	 1.569627546202729e+00	 2.611081362002091e+00
 1.332055646515523e-01	 1.570832834236920e+00	 2.570725754918626e+00
 2.706551742983130e-01	 1.559033869765303e+00	 3.194208426954009e+00
 2.568550378053198e-01	 1.561366811484045e+00	 3.118052419475369e+00
 2.430740376367650e-01	 1.563571502259103e+00	 3.045470872132105e+00
 2.293137796895912e-01	 1.565648753997620e+00	 2.976620555419065e+00
 2.155758461860109e-01	 1.567599401949048e+00	 2.911635041090294e+00
 2.018617953403035e-01	 1.569424304014633e+00	 2.850624844603392e+00
 1.881731610466534e-01	 1.571124340054451e+00	 2.793677774980502e+00
 1.745114525878809e-01	 1.572700411192638e+00	 2.740859479508467e+00
 1.608781543648933e-01	 1.574153439121477e+00	 2.692214170420998e+00
 1.472747256466674e-01	 1.575484365404978e+00	 2.647765520442646e+00
 1.337026003405506e-01	 1.576694150782580e+00	 2.607517713926386e+00
 2.716613273626191e-01	 1.564829534708669e+00	 3.230581696447442e+00
 2.578098892469754e-01	 1.567171149073206e+00	 3.154345425013999e+00
 2.439776585945226e-01	 1.569384035724750e+00	 3.081689180957819e+00
 2.301662472720804e-01	 1.571469009588689e+00	 3.012776865993710e+00
 2.163772433837285e-01	 1.573426909019491e+00	 2.947748019978119e+00
 2.026122109363642e-01	 1.575258595107625e+00	 2.886717985534116e+00
 1.888726895263808e-01	 1.576964950984022e+00	 2.829778284585632e+00
 1.751601940473154e-01	 1.578546881122723e+00	 2.776997193925965e+00
 1.614762144182945e-01	 1.580005310642374e+00	 2.728420506639277e+00
 1.478222153330863e-01	 1.581341184607227e+00	 2.684072465950680e+00
 1.341996360295490e-01	 1.582555467328241e+00	 2.643956857938103e+00
 1.292292791395657e-01	 1.523942301871639e+00	 2.262738626379779e+00
 1.161428571133474e-01	 1.524995469751405e+00	 2.226303970455586e+00
 1.030893887081939e-01	 1.525933459871869e+00	 2.193721924000876e+00
 9.007018517845719e-02	 1.526757252402188e+00	 2.164984476665813e+00
 7.708653256905328e-02	 1.527467843366020e+00	 2.140077127890676e+00
 6.413969158799231e-02	 1.528066243977583e+00	 2.118980109636440e+00
 5.123089749697811e-02	 1.528553479981128e+00	 2.101669670203279e+00
 3.836136001976317e-02	 1.528930590994305e+00	 2.088119408918284e+00
 2.553226326793498e-02	 1.529198629855906e+00	 2.078301651719669e+00
 1.274476568379744e-02	 1.529358661978421e+00	 2.072188857931304e+00
 0.000000000000000e+00	 1.529411764705882e+00	 2.069755048846540e+00
 1.297263148285640e-01	 1.529803618417299e+00	 2.302640757056514e+00
 1.165895604099372e-01	 1.530860836942757e+00	 2.266136981653904e+00
 1.034858863570715e-01	 1.531802434717529e+00	 2.233471771051245e+00
 9.041660896760512e-02	 1.532629395680658e+00	 2.204647172627414e+00
 7.738301923278040e-02	 1.533342719686659e+00	 2.179658066297163e+00
 6.438638270948457e-02	 1.533943421839035e+00	 2.158493417528381e+00
 5.142793941042802e-02	 1.534432531827209e+00	 2.141137593179580e+00
 3.850890371214687e-02	 1.534811093267360e+00	 2.127571729690056e+00
 2.563046428050395e-02	 1.535080163047658e+00	 2.117775143420978e+00
 1.279378401335051e-02	 1.535240810678338e+00	 2.111726773223641e+00
 0.000000000000000e+00	 1.535294117647059e+00	 2.109406645630352e+00
 1.302233505175624e-01	 1.535664934962959e+00	 2.342124965022310e+00
 1.170362637065270e-01	 1.536726204134108e+00	 2.305572626821953e+00
 1.038823840059492e-01	 1.537671409563190e+00	 2.272850565331543e+00
 9.076303275675303e-02	 1.538501538959129e+00	 2.243968535400974e+00
 7.767950589650752e-02	 1.539217596007297e+00	 2.218928410551234e+00
 6.463307383097688e-02	 1.539820599700488e+00	 2.197725470520576e+00
 5.162498132387794e-02	 1.540311583673290e+00	 2.180349753306906e+00
 3.865644740453057e-02	 1.540691595540415e+00	 2.166787460997354e+00
 2.572866529307295e-02	 1.540961696239412e+00	 2.157022408947192e+00
 1.284280234290358e-02	 1.541122959378255e+00	 2.151037508155565e+00
 0.000000000000000e+00	 1.541176470588235e+00	 2.148816271005860e+00
 1.307203862065607e-01	 1.541526251508619e+00	 2.381199847148226e+00
 1.174829670031168e-01	 1.542591571325460e+00	 2.344620876645878e+00
 1.042788816548269e-01	 1.543540384408852e+00	 2.311869171501107e+00
 9.110945654590093e-02	 1.544373682237598e+00	 2.282959868388944e+00
 7.797599256023464e-02	 1.545092472327936e+00	 2.257899472000895e+00
 6.487976495246914e-02	 1.545697777561939e+00	 2.236687181349637e+00
 5.182202323732785e-02	 1.546190635519371e+00	 2.219316282201506e+00
 3.880399109691428e-02	 1.546572097813470e+00	 2.205775594681378e+00
 2.582686630564193e-02	 1.546843229431166e+00	 2.196050965367372e+00
 1.289182067245665e-02	 1.547005108078172e+00	 2.190126793481429e+00
 0.000000000000000e+00	 1.547058823529411e+00	 2.187987581123161e+00
 1.312174218955590e-01	 1.547387568054279e+00	 2.419873861202190e+00
 1.179296702997066e-01	 1.548456938516812e+00	 2.383291515669224e+00
 1.046753793037045e-01	 1.549409359254513e+00	 2.350538232067756e+00
 9.145588033504885e-02	 1.550245825516068e+00	 2.321632227414982e+00
 7.827247922396179e-02	 1.550967348648574e+00	 2.296582299112857e+00
 6.512645607396141e-02	 1.551574955423392e+00	 2.275389194233389e+00
 5.201906515077778e-02	 1.552069687365453e+00	 2.258047046532355e+00
 3.895153478929798e-02	 1.552452600086525e+00	 2.244544869955970e+00
 2.592506731821090e-02	 1.552724762622919e+00	 2.234868097724952e+00
 1.294083900200971e-02	 1.552887256778089e+00	 2.229000156353492e+00
 0.000000000000000e+00	 1.552941176470588e+00	 2.226924064311762e+00
 1.317144575845574e-01	 1.553248884599940e+00	 2.458155330029356e+00
 1.183763735962964e-01	 1.554322305708163e+00	 2.421594147088475e+00
 1.050718769525822e-01	 1.555278334100174e+00	 2.388868172623068e+00
 9.180230412419671e-02	 1.556117968794537e+00	 2.359996426226102e+00
 7.856896588768890e-02	 1.556842224969214e+00	 2.334987683071089e+00
 6.537314719545370e-02	 1.557452133284844e+00	 2.313841890414916e+00
 5.221610706422768e-02	 1.557948739211534e+00	 2.296551653357288e+00
 3.909907848168168e-02	 1.558333102359580e+00	 2.283103778389266e+00
 2.602326833077988e-02	 1.558606295814673e+00	 2.273480863537075e+00
 1.298985733156278e-02	 1.558769405478006e+00	 2.267662924212676e+00
 0.000000000000000e+00	 1.558823529411765e+00	 2.265629044248491e+00
 1.322114932735557e-01	 1.559110201145600e+00	 2.496052445637492e+00
 1.188230768928862e-01	 1.560187672899515e+00	 2.459538197445684e+00
 1.054683746014599e-01	 1.561147308945835e+00	 2.426869206961549e+00
 9.214872791334466e-02	 1.561990112073008e+00	 2.398063041864556e+00
 7.886545255141601e-02	 1.562717101289851e+00	 2.373126163253447e+00
 6.561983831694596e-02	 1.563329311146296e+00	 2.352055393578792e+00
 5.241314897767760e-02	 1.563827791057615e+00	 2.334839455336963e+00
 3.924662217406540e-02	 1.564213604632635e+00	 2.321460568781484e+00
 2.612146934334886e-02	 1.564487829006426e+00	 2.311896097198832e+00
 1.303887566111585e-02	 1.564651554177923e+00	 2.306120228597445e+00
 0.000000000000000e+00	 1.564705882352941e+00	 2.304105683050524e+00
 1.327085289625539e-01	 1.564971517691260e+00	 2.533573273191524e+00
 1.192697801894760e-01	 1.566053040090867e+00	 2.497132921211446e+00
 1.058648722503375e-01	 1.567016283791496e+00	 2.464551342082487e+00
 9.249515170249258e-02	 1.567862255351478e+00	 2.435842419929706e+00
 7.916193921514313e-02	 1.568591977610490e+00	 2.411008032581238e+00
 6.586652943843824e-02	 1.569206489007749e+00	 2.390039575149428e+00
 5.261019089112750e-02	 1.569706842903696e+00	 2.372919555834061e+00
 3.939416586644908e-02	 1.570094106905690e+00	 2.359623251928529e+00
 2.621967035591784e-02	 1.570369362198180e+00	 2.350120414285954e+00
 1.308789399066891e-02	 1.570533702877840e+00	 2.344377008863610e+00
 0.000000000000000e+00	 1.570588235294118e+00	 2.342356984303069e+00
 1.332055646515523e-01	 1.570832834236920e+00	 2.570725754918626e+00
 1.197164834860658e-01	 1.571918407282218e+00	 2.534387405269153e+00
 1.062613698992152e-01	 1.572885258637157e+00	 2.501924383082158e+00
 9.284157549164047e-02	 1.573734398629948e+00	 2.473344679712986e+00
 7.945842587887027e-02	 1.574466853931129e+00	 2.448643342750485e+00
 6.611322055993051e-02	 1.575083666869201e+00	 2.427804059465060e+00
 5.280723280457743e-02	 1.575585894749778e+00	 2.410800813898589e+00
 3.954170955883279e-02	 1.575974609178745e+00	 2.397599605278785e+00
 2.631787136848683e-02	 1.576250895389933e+00	 2.388160215761331e+00
 1.313691232022198e-02	 1.576415851577757e+00	 2.382438015822165e+00
 0.000000000000000e+00	 1.576470588235294e+00	 2.380385796015356e+00
 1.337026003405506e-01	 1.576694150782580e+00	 2.607517713926386e+00
 1.201631867826556e-01	 1.577783774473569e+00	 2.571310573296041e+00
 1.066578675480929e-01	 1.578754233482818e+00	 2.538997937934854e+00
 9.318799928078839e-02	 1.579606541908418e+00	 2.510579719222282e+00
 7.975491254259741e-02	 1.580341730251767e+00	 2.486041909348228e+00
 6.635991168142279e-02	 1.580960844730653e+00	 2.465358228845411e+00
 5.300427471802734e-02	 1.581464946595859e+00	 2.448491849136043e+00
 3.968925325121649e-02	 1.581855111451800e+00	 2.435397177487150e+00
 2.641607238105581e-02	 1.582132428581687e+00	 2.426021692086711e+00
 1.318593064977505e-02	 1.582298000277674e+00	 2.420307815294614e+00
 0.000000000000000e+00	 1.582352941176471e+00	 2.418194813513709e+00
 1.341996360295490e-01	 1.582555467328241e+00	 2.643956857938103e+00
 1.206098900792454e-01	 1.583649141664921e+00	 2.607911190050688e+00
 1.070543651969705e-01	 1.584623208328479e+00	 2.575781422171706e+00
 9.353442306993628e-02	 1.585478685186888e+00	 2.547557220095731e+00
 8.005139920632454e-02	 1.586216606572406e+00	 2.523213316851983e+00
 6.660660280291508e-02	 1.586838022592105e+00	 2.502711228534364e+00
 5.320131663147726e-02	 1.587343998441940e+00	 2.486001046475851e+00
 3.983679694360021e-02	 1.587735613724855e+00	 2.473023292868887e+00
 2.651427339362479e-02	 1.588013961773440e+00	 2.463710827245536e+00
 1.323494897932811e-02	 1.588180148977591e+00	 2.457990791591337e+00
 0.000000000000000e+00	 1.588235294117647e+00	 2.455786582267847e+00
 1.588235294117647e+00	 0.000000000000000e+00	 1.447493861044085e+01
 1.588180148977591e+00	 1.323494897932766e-02	 1.446677358307531e+01
 1.588013961773440e+00	 2.651427339362439e-02	 1.446134079829374e+01
 1.587735613724855e+00	 3.983679694359986e-02	 1.445814425328980e+01
 1.587343998441940e+00	 5.320131663147697e-02	 1.445674017091562e+01
 1.586838022592106e+00	 6.660660280291482e-02	 1.445673906678383e+01
 1.586216606572406e+00	 8.005139920632434e-02	 1.445780777097787e+01
 1.585478685186888e+00	 9.353442306993613e-02	 1.445967140367473e+01
 1.584623208328479e+00	 1.070543651969705e-01	 1.446211530380389e+01
 1.583649141664921e+00	 1.206098900792453e-01	 1.446498690963120e+01
 1.582555467328240e+00	 1.341996360295490e-01	 1.446819758986347e+01
 1.594117647058824e+00	 0.000000000000000e+00	 1.442659576301171e+01
 1.594062297677508e+00	 1.328396730888073e-02	 1.441830362557063e+01
 1.593895494965194e+00	 2.661247440619336e-02	 1.441280042937324e+01
 1.593616115997911e+00	 3.998434063598356e-02	 1.440958355831861e+01
 1.593223050288022e+00	 5.339835854492688e-02	 1.440820303851486e+01
 1.592715200453558e+00	 6.685329392440710e-02	 1.440826359586869e+01
 1.592091482893044e+00	 8.034788587005148e-02	 1.440942666934021e+01
 1.591350828465358e+00	 9.388084685908406e-02	 1.441141237942365e+01
 1.590492183174141e+00	 1.074508628458481e-01	 1.441400145123508e+01
 1.589514508856273e+00	 1.210565933758351e-01	 1.441703709134739e+01
 1.588416783873901e+00	 1.346966717185474e-01	 1.442042681721997e+01
 1.600000000000000e+00	 0.000000000000000e+00	 1.437905887340050e+01
 1.599944446377425e+00	 1.333298563843379e-02	 1.437064576766775e+01
 1.599777028156947e+00	 2.671067541876234e-02	 1.436507433657549e+01
 1.599496618270965e+00	 4.013188432836727e-02	 1.436183591082827e+01
 1.599102102134103e+00	 5.359540045837680e-02	 1.436047483221879e+01
 1.598592378315010e+00	 6.709998504589937e-02	 1.436059049905021e+01
 1.597966359213683e+00	 8.064437253377857e-02	 1.436183936834799e+01
 1.597222971743828e+00	 9.422727064823197e-02	 1.436393691469025e+01
 1.596361158019801e+00	 1.078473604947258e-01	 1.436665954530669e+01
 1.595379876047624e+00	 1.215032966724249e-01	 1.436984647085156e+01
 1.594278100419561e+00	 1.351937074075456e-01	 1.437340153095639e+01
 1.605882352941176e+00	 0.000000000000000e+00	 1.433230708648694e+01
 1.605826595077342e+00	 1.338200396798686e-02	 1.432378162282859e+01
 1.605658561348701e+00	 2.680887643133132e-02	 1.431814613634864e+01
 1.605377120544020e+00	 4.027942802075097e-02	 1.431488646822971e+01
 1.604981153980184e+00	 5.379244237182671e-02	 1.431354179168639e+01
 1.604469556176462e+00	 6.734667616739166e-02	 1.431370664253512e+01
 1.603841235534321e+00	 8.094085919750570e-02	 1.431503290774707e+01
 1.603095115022298e+00	 9.457369443737987e-02	 1.431723177209318e+01
 1.602230132865463e+00	 1.082438581436035e-01	 1.432007562281158e+01
 1.601245243238976e+00	 1.219499999690147e-01	 1.432339991197925e+01
 1.600139416965221e+00	 1.356907430965439e-01	 1.432710497596648e+01
 1.611764705882353e+00	 0.000000000000000e+00	 1.428631951564156e+01
 1.611708743777259e+00	 1.343102229753992e-02	 1.427769266078137e+01
 1.611540094540454e+00	 2.690707744390030e-02	 1.427199920237909e+01
 1.611257622817076e+00	 4.042697171313468e-02	 1.426872005952576e+01
 1.610860205826265e+00	 5.398948428527663e-02	 1.426738975607391e+01
 1.610346734037915e+00	 6.759336728888392e-02	 1.426759843364039e+01
 1.609716111854961e+00	 8.123734586123287e-02	 1.426899382385474e+01
 1.608967258300768e+00	 9.492011822652778e-02	 1.427128318025639e+01
 1.608099107711124e+00	 1.086403557924811e-01	 1.427423517006114e+01
 1.607110610430327e+00	 1.223967032656045e-01	 1.427768172576895e+01
 1.606000733510881e+00	 1.361877787855423e-01	 1.428151985627468e+01
 1.617647058823529e+00	 0.000000000000000e+00	 1.424107524329837e+01
 1.617590892477176e+00	 1.348004062709299e-02	 1.423236020951961e+01
 1.617421627732208e+00	 2.700527845646928e-02	 1.422661666891231e+01
 1.617138125090130e+00	 4.057451540551837e-02	 1.422332118984828e+01
 1.616739257672347e+00	 5.418652619872653e-02	 1.422200416968324e+01
 1.616223911899367e+00	 6.784005841037621e-02	 1.422225182744685e+01
 1.615590988175599e+00	 8.153383252495996e-02	 1.422370815711207e+01
 1.614839401579238e+00	 9.526654201567571e-02	 1.422607684215319e+01
 1.613968082556784e+00	 1.090368534413588e-01	 1.422912313191524e+01
 1.612975977621679e+00	 1.228434065621943e-01	 1.423267568006979e+01
 1.611862050056541e+00	 1.366848144745406e-01	 1.423662834511367e+01
 1.623529411764706e+00	 0.000000000000000e+00	 1.419655332151559e+01
 1.623473041177093e+00	 1.352905895664605e-02	 1.418776545725837e+01
 1.623303160923961e+00	 2.710347946903826e-02	 1.418198143400344e+01
 1.623018627363186e+00	 4.072205909790209e-02	 1.417867404490126e+01
 1.622618309518428e+00	 5.438356811217646e-02	 1.417737008749518e+01
 1.622101089760819e+00	 6.808674953186848e-02	 1.417765233332053e+01
 1.621465864496237e+00	 8.183031918868709e-02	 1.417916145949076e+01
 1.620711544857708e+00	 9.561296580482365e-02	 1.418159794329534e+01
 1.619837057402445e+00	 1.094333510902364e-01	 1.418472392064942e+01
 1.618841344813030e+00	 1.232901098587841e-01	 1.418836500898326e+01
 1.617723366602202e+00	 1.371818501635389e-01	 1.419241209483663e+01
 1.629411764705882e+00	 0.000000000000000e+00	 1.415273277252377e+01
 1.629355189877010e+00	 1.357807728619912e-02	 1.414388945434858e+01
 1.629184694115714e+00	 2.720168048160724e-02	 1.413807616269910e+01
 1.628899129636241e+00	 4.086960279028579e-02	 1.413476249531237e+01
 1.628497361364509e+00	 5.458061002562636e-02	 1.413347218059152e+01
 1.627978267622271e+00	 6.833344065336076e-02	 1.413378502130608e+01
 1.627340740816876e+00	 8.212680585241422e-02	 1.413533880175810e+01
 1.626583688136177e+00	 9.595938959397152e-02	 1.413783115977011e+01
 1.625706032248106e+00	 1.098298487391141e-01	 1.414102142466400e+01
 1.624706712004382e+00	 1.237368131553739e-01	 1.414473242214339e+01
 1.623584683147862e+00	 1.376788858525373e-01	 1.414885224666794e+01
 1.635294117647059e+00	 0.000000000000000e+00	 1.410959258926230e+01
 1.635237338576927e+00	 1.362709561575218e-02	 1.410071311515043e+01
 1.635066227307468e+00	 2.729988149417622e-02	 1.409488329015361e+01
 1.634779631909296e+00	 4.101714648266948e-02	 1.409157010089517e+01
 1.634376413210590e+00	 5.477765193907627e-02	 1.409029474146870e+01
 1.633855445483723e+00	 6.858013177485305e-02	 1.409063452839545e+01
 1.633215617137514e+00	 8.242329251614132e-02	 1.409222478060433e+01
 1.632455831414648e+00	 9.630581338311944e-02	 1.409476066612972e+01
 1.631575007093767e+00	 1.102263463879918e-01	 1.409799901703838e+01
 1.630572079195733e+00	 1.241835164519637e-01	 1.410176011383972e+01
 1.629445999693521e+00	 1.381759215415356e-01	 1.410592944029593e+01
 1.641176470588235e+00	 0.000000000000000e+00	 1.406711173590439e+01
 1.641119487276844e+00	 1.367611394530525e-02	 1.405821721986744e+01
 1.640947760499222e+00	 2.739808250674520e-02	 1.405238502467890e+01
 1.640660134182351e+00	 4.116469017505319e-02	 1.404908011482442e+01
 1.640255465056671e+00	 5.497469385252619e-02	 1.404782168924431e+01
 1.639732623345175e+00	 6.882682289634530e-02	 1.404818506467364e+01
 1.639090493458152e+00	 8.271977917986846e-02	 1.404980352563521e+01
 1.638327974693117e+00	 9.665223717226736e-02	 1.405237014313625e+01
 1.637443981939428e+00	 1.106228440368695e-01	 1.405563956393583e+01
 1.636437446387085e+00	 1.246302197485535e-01	 1.405942977198582e+01
 1.635307316239182e+00	 1.386729572305339e-01	 1.406362382331272e+01
 1.647058823529412e+00	 0.000000000000000e+00	 1.402526914837066e+01
 1.647001635976761e+00	 1.372513227485832e-02	 1.401638241634085e+01
 1.646829293690975e+00	 2.749628351931418e-02	 1.401056335073190e+01
 1.646540636455406e+00	 4.131223386743688e-02	 1.400727548772594e+01
 1.646134516902753e+00	 5.517173576597612e-02	 1.400603657476162e+01
 1.645609801206628e+00	 6.907351401783760e-02	 1.400642041934711e+01
 1.644965369778791e+00	 8.301626584359560e-02	 1.400805870623306e+01
 1.644200117971588e+00	 9.699866096141528e-02	 1.401064278536691e+01
 1.643312956785090e+00	 1.110193416857471e-01	 1.401392543286013e+01
 1.642302813578437e+00	 1.250769230451433e-01	 1.401772258693888e+01
 1.641168632784842e+00	 1.391699929195323e-01	 1.402191506050351e+01
 1.582555467328240e+00	 1.341996360295490e-01	 1.446819758986347e+01
 1.581341184607227e+00	 1.478222153330858e-01	 1.447091322971081e+01
 1.580005310642374e+00	 1.614762144182940e-01	 1.447232332107631e+01
 1.578546881122723e+00	 1.751601940473152e-01	 1.447247396691157e+01
 1.576964950984022e+00	 1.888726895263805e-01	 1.447147962543820e+01
 1.575258595107625e+00	 2.026122109363639e-01	 1.446952466534179e+01
 1.573426909019491e+00	 2.163772433837282e-01	 1.446686485687913e+01
 1.571469009588689e+00	 2.301662472720803e-01	 1.446382879386699e+01
 1.569384035724751e+00	 2.439776585945226e-01	 1.446081924075312e+01
 1.567171149073206e+00	 2.578098892469754e-01	 1.445831439814647e+01
 1.564829534708669e+00	 2.716613273626190e-01	 1.445686907931229e+01
 1.588416783873901e+00	 1.346966717185474e-01	 1.442042681721997e+01
 1.587198003809476e+00	 1.483697050195046e-01	 1.442332178293571e+01
 1.585857182163272e+00	 1.620742744716951e-01	 1.442490212806402e+01
 1.584393351052807e+00	 1.758089355067496e-01	 1.442521904864681e+01
 1.582805561913593e+00	 1.895722180061079e-01	 1.442439289072251e+01
 1.581092886200616e+00	 2.033626265324245e-01	 1.442261471668401e+01
 1.579254416089933e+00	 2.171786405814457e-01	 1.442014781035228e+01
 1.577289265179758e+00	 2.310187148545695e-01	 1.441732911586621e+01
 1.575196569190398e+00	 2.448812795522800e-01	 1.441457060470229e+01
 1.572975486662366e+00	 2.587647406886309e-01	 1.441236056428366e+01
 1.570625199652034e+00	 2.726674804269250e-01	 1.441126480074175e+01
 1.594278100419561e+00	 1.351937074075456e-01	 1.437340153095639e+01
 1.593054823011725e+00	 1.489171947059235e-01	 1.437646325775581e+01
 1.591709053684170e+00	 1.626723345250962e-01	 1.437820448160345e+01
 1.590239820982891e+00	 1.764576769661841e-01	 1.437868148977328e+01
 1.588646172843164e+00	 1.902717464858352e-01	 1.437802047597145e+01
 1.586927177293607e+00	 2.041130421284851e-01	 1.437641911705984e+01
 1.585081923160375e+00	 2.179800377791633e-01	 1.437414809145007e+01
 1.583109520770828e+00	 2.318711824370586e-01	 1.437155253441325e+01
 1.581009102656044e+00	 2.457849005100375e-01	 1.436905342473594e+01
 1.578779824251526e+00	 2.597195921302863e-01	 1.436714889627449e+01
 1.576420864595399e+00	 2.736736334912309e-01	 1.436641546703151e+01
 1.600139416965221e+00	 1.356907430965439e-01	 1.432710497596648e+01
 1.598911642213974e+00	 1.494646843923423e-01	 1.433031901544039e+01
 1.597560925205068e+00	 1.632703945784973e-01	 1.433220977640850e+01
 1.596086290912975e+00	 1.771064184256186e-01	 1.433283863649656e+01
 1.594486783772734e+00	 1.909712749655625e-01	 1.433233759720827e+01
 1.592761468386598e+00	 2.048634577245457e-01	 1.433091087019902e+01
 1.590909430230819e+00	 2.187814349768808e-01	 1.432883640833366e+01
 1.588929776361897e+00	 2.327236500195478e-01	 1.432646737692536e+01
 1.586821636121692e+00	 2.466885214677950e-01	 1.432423355971021e+01
 1.584584161840686e+00	 2.606744435719417e-01	 1.432264269320908e+01
 1.582216529538765e+00	 2.746797865555370e-01	 1.432228172217064e+01
 1.606000733510881e+00	 1.361877787855423e-01	 1.428151985627468e+01
 1.604768461416223e+00	 1.500121740787611e-01	 1.428486989997820e+01
 1.603412796725965e+00	 1.638684546318984e-01	 1.428689692254907e+01
 1.601932760843059e+00	 1.777551598850531e-01	 1.428766739206183e+01
 1.600327394702305e+00	 1.916708034452899e-01	 1.428731907820804e+01
 1.598595759479589e+00	 2.056138733206063e-01	 1.428606264728996e+01
 1.596736937301261e+00	 2.195828321745983e-01	 1.428418320527340e+01
 1.594750031952966e+00	 2.335761176020370e-01	 1.428204178445412e+01
 1.592634169587339e+00	 2.475921424255525e-01	 1.428007676842796e+01
 1.590388499429845e+00	 2.616292950135973e-01	 1.427880524912131e+01
 1.588012194482131e+00	 2.756859396198431e-01	 1.427882430865102e+01
 1.611862050056541e+00	 1.366848144745406e-01	 1.423662834511367e+01
 1.610625280618472e+00	 1.505596637651799e-01	 1.424009624856582e+01
 1.609264668246863e+00	 1.644665146852994e-01	 1.424224435633712e+01
 1.607779230773143e+00	 1.784039013444876e-01	 1.424314422802465e+01
 1.606168005631875e+00	 1.923703319250171e-01	 1.424293936214099e+01
 1.604430050572580e+00	 2.063642889166669e-01	 1.424184679898341e+01
 1.602564444371703e+00	 2.203842293723158e-01	 1.424015867499865e+01
 1.600570287544035e+00	 2.344285851845262e-01	 1.423824372436782e+01
 1.598446703052986e+00	 2.484957633833099e-01	 1.423654872264147e+01
 1.596192837019006e+00	 2.625841464552527e-01	 1.423559986629645e+01
 1.593807859425496e+00	 2.766920926841490e-01	 1.423600408106533e+01
 1.617723366602202e+00	 1.371818501635389e-01	 1.419241209483663e+01
 1.616482099820721e+00	 1.511071534515988e-01	 1.419597790193183e+01
 1.615116539767760e+00	 1.650645747387005e-01	 1.419823005105277e+01
 1.613625700703228e+00	 1.790526428039221e-01	 1.419924519536748e+01
 1.612008616561445e+00	 1.930698604047445e-01	 1.419917252306857e+01
 1.610264341665572e+00	 2.071147045127275e-01	 1.419823536725568e+01
 1.608391951442146e+00	 2.211856265700334e-01	 1.419673277091771e+01
 1.606390543135105e+00	 2.352810527670154e-01	 1.419504100291585e+01
 1.604259236518633e+00	 2.493993843410675e-01	 1.419361501994769e+01
 1.601997174608165e+00	 2.635389978969083e-01	 1.419298986848584e+01
 1.599603524368861e+00	 2.776982457484550e-01	 1.419378201962775e+01
 1.623584683147862e+00	 1.376788858525373e-01	 1.414885224666794e+01
 1.622338919022970e+00	 1.516546431380176e-01	 1.415249421450235e+01
 1.620968411288658e+00	 1.656626347921016e-01	 1.415483152751469e+01
 1.619472170633312e+00	 1.797013842633566e-01	 1.415594593546604e+01
 1.617849227491015e+00	 1.937693888844718e-01	 1.415599227729516e+01
 1.616098632758563e+00	 2.078651201087881e-01	 1.415520009713638e+01
 1.614219458512588e+00	 2.219870237677509e-01	 1.415387521921035e+01
 1.612210798726174e+00	 2.361335203495046e-01	 1.415240127767578e+01
 1.610071769984280e+00	 2.503030052988249e-01	 1.415124119658005e+01
 1.607801512197326e+00	 2.644938493385637e-01	 1.415093861402982e+01
 1.605399189312227e+00	 2.787043988127610e-01	 1.415211924361643e+01
 1.629445999693521e+00	 1.381759215415356e-01	 1.410592944029593e+01
 1.628195738225219e+00	 1.522021328244365e-01	 1.410962406441189e+01
 1.626820282809555e+00	 1.662606948455027e-01	 1.411202586449993e+01
 1.625318640563396e+00	 1.803501257227911e-01	 1.411322169090902e+01
 1.623689838420586e+00	 1.944689173641991e-01	 1.411337199458016e+01
 1.621932923851555e+00	 2.086155357048488e-01	 1.411271244830353e+01
 1.620046965583031e+00	 2.227884209654683e-01	 1.411155553079751e+01
 1.618031054317243e+00	 2.369859879319938e-01	 1.411029206988833e+01
 1.615884303449928e+00	 2.512066262565825e-01	 1.410939274009725e+01
 1.613605849786486e+00	 2.654487007802191e-01	 1.410940950889236e+01
 1.611194854255593e+00	 2.797105518770669e-01	 1.411097702474262e+01
 1.635307316239182e+00	 1.386729572305339e-01	 1.406362382331272e+01
 1.634052557427468e+00	 1.527496225108553e-01	 1.406734586336191e+01
 1.632672154330453e+00	 1.668587548989038e-01	 1.406978970901513e+01
 1.631165110493480e+00	 1.809988671822256e-01	 1.407104731617574e+01
 1.629530449350156e+00	 1.951684458439265e-01	 1.407128470921317e+01
 1.627767214944546e+00	 2.093659513009093e-01	 1.407074360654963e+01
 1.625874472653473e+00	 2.235898181631859e-01	 1.406974301319011e+01
 1.623851309908312e+00	 2.378384555144829e-01	 1.406868077668039e+01
 1.621696836915575e+00	 2.521102472143399e-01	 1.406803510197384e+01
 1.619410187375646e+00	 2.664035522218745e-01	 1.406836601960892e+01
 1.616990519198958e+00	 2.807167049413729e-01	 1.407031680044620e+01
 1.641168632784842e+00	 1.391699929195323e-01	 1.402191506050351e+01
 1.639909376629717e+00	 1.532971121972742e-01	 1.402563756633231e+01
 1.638524025851351e+00	 1.674568149523049e-01	 1.402809928642449e+01
 1.637011580423564e+00	 1.816476086416601e-01	 1.402939728817316e+01
 1.635371060279727e+00	 1.958679743236539e-01	 1.402970313095603e+01
 1.633601506037536e+00	 2.101163668969699e-01	 1.402926449512145e+01
 1.631701979723916e+00	 2.243912153609034e-01	 1.402840678222061e+01
 1.629671565499382e+00	 2.386909230969722e-01	 1.402753468318196e+01
 1.627509370381223e+00	 2.530138681720975e-01	 1.402713371009371e+01
 1.625214524964805e+00	 2.673584036635300e-01	 1.402777168614933e+01
 1.622786184142323e+00	 2.817228580056790e-01	 1.403010018712058e+01
 1.564829534708669e+00	 2.716613273626190e-01	 1.445686907931229e+01
 1.562358401824756e+00	 2.855303376675826e-01	 1.445523957078931e+01
 1.559756984420164e+00	 2.994152618579858e-01	 1.445226924518694e+01
 1.557024541980201e+00	 3.133144189984152e-01	 1.444875801108478e+01
 1.554160360153056e+00	 3.272261059418915e-01	 1.444558136180935e+01
 1.551163751420076e+00	 3.411485977713602e-01	 1.444369082551013e+01
 1.548034055759336e+00	 3.550801482627122e-01	 1.444411426457395e+01
 1.544770641301737e+00	 3.690189903693138e-01	 1.444795601012724e+01
 1.541372904978910e+00	 3.829633367279999e-01	 1.445639681631443e+01
 1.537840273162155e+00	 3.969113801864551e-01	 1.447069361799362e+01
 1.534172202291668e+00	 4.108612943518803e-01	 1.449217907447034e+01
 1.570625199652034e+00	 2.726674804269250e-01	 1.441126480074175e+01
 1.568144914424107e+00	 2.865878574367218e-01	 1.441001330353598e+01
 1.565533862140238e+00	 3.005242072722747e-01	 1.440741527015879e+01
 1.562791299543091e+00	 3.144748427724836e-01	 1.440427074312115e+01
 1.559916509635104e+00	 3.284380544824170e-01	 1.440145573234055e+01
 1.556908802351262e+00	 3.424121110964394e-01	 1.439992271143272e+01
 1.553767515225111e+00	 3.563952599229445e-01	 1.440070096711971e+01
 1.550492014047299e+00	 3.703857273706816e-01	 1.440489678731966e+01
 1.547081693515869e+00	 3.843817194566221e-01	 1.441369347237835e+01
 1.543535977877570e+00	 3.983814223352939e-01	 1.442835115281157e+01
 1.539854321559414e+00	 4.123830028494798e-01	 1.445020639585938e+01
 1.576420864595399e+00	 2.736736334912309e-01	 1.436641546703151e+01
 1.573931427023458e+00	 2.876453772058610e-01	 1.436555352152995e+01
 1.571310739860313e+00	 3.016331526865634e-01	 1.436333455659987e+01
 1.568558057105980e+00	 3.156352665465516e-01	 1.436055811774320e+01
 1.565672659117152e+00	 3.296500030229425e-01	 1.435810011154777e+01
 1.562653853282447e+00	 3.436756244215184e-01	 1.435691335057590e+01
 1.559500974690887e+00	 3.577103715831769e-01	 1.435802795531604e+01
 1.556213386792861e+00	 3.717524643720496e-01	 1.436255159857550e+01
 1.552790482052828e+00	 3.858001021852443e-01	 1.437166957654337e+01
 1.549231682592986e+00	 3.998514644841326e-01	 1.438664468961454e+01
 1.545536440827162e+00	 4.139047113470793e-01	 1.440881691495012e+01
 1.582216529538765e+00	 2.746797865555370e-01	 1.432228172217064e+01
 1.579717939622808e+00	 2.887028969750002e-01	 1.432181841843117e+01
 1.577087617580388e+00	 3.027420981008524e-01	 1.431998335504719e+01
 1.574324814668870e+00	 3.167956903206198e-01	 1.431757494757172e+01
 1.571428808599200e+00	 3.308619515634681e-01	 1.431546837628024e+01
 1.568398904213633e+00	 3.449391377465976e-01	 1.431461618204759e+01
 1.565234434156662e+00	 3.590254832434089e-01	 1.431604872340808e+01
 1.561934759538423e+00	 3.731192013734173e-01	 1.432087447998705e+01
 1.558499270589788e+00	 3.872184849138667e-01	 1.433028018629675e+01
 1.554927387308401e+00	 4.013215066329713e-01	 1.434553077870461e+01
 1.551218560094909e+00	 4.154264198446789e-01	 1.436796913721887e+01
 1.588012194482131e+00	 2.756859396198431e-01	 1.427882430865102e+01
 1.585504452222159e+00	 2.897604167441393e-01	 1.427876639393185e+01
 1.582864495300462e+00	 3.038510435151411e-01	 1.427731822891487e+01
 1.580091572231759e+00	 3.179561140946879e-01	 1.427527646402747e+01
 1.577184958081248e+00	 3.320739001039935e-01	 1.427351492693660e+01
 1.574143955144818e+00	 3.462026510716765e-01	 1.427298527181796e+01
 1.570967893622437e+00	 3.603405949036413e-01	 1.427471749410489e+01
 1.567656132283985e+00	 3.744859383747852e-01	 1.427982029571447e+01
 1.564208059126746e+00	 3.886368676424888e-01	 1.428948128450204e+01
 1.560623092023816e+00	 4.027915487818101e-01	 1.430496699046575e+01
 1.556900679362656e+00	 4.169481283422785e-01	 1.432762268000767e+01
 1.593807859425496e+00	 2.766920926841490e-01	 1.423600408106533e+01
 1.591290964821511e+00	 2.908179365132786e-01	 1.423635606771085e+01
 1.588641373020537e+00	 3.049599889294300e-01	 1.423529606895212e+01
 1.585858329794650e+00	 3.191165378687563e-01	 1.423361833243917e+01
 1.582941107563297e+00	 3.332858486445190e-01	 1.423219470337061e+01
 1.579889006076003e+00	 3.474661643967557e-01	 1.423197532957043e+01
 1.576701353088213e+00	 3.616557065638735e-01	 1.423398923652340e+01
 1.573377505029548e+00	 3.758526753761530e-01	 1.423934475716982e+01
 1.569916847663705e+00	 3.900552503711111e-01	 1.424922979997070e+01
 1.566318796739232e+00	 4.042615909306489e-01	 1.426491193746874e+01
 1.562582798630403e+00	 4.184698368398781e-01	 1.428773829630898e+01
 1.599603524368861e+00	 2.776982457484550e-01	 1.419378201962776e+01
 1.597077477420861e+00	 2.918754562824177e-01	 1.419454629332446e+01
 1.594418250740612e+00	 3.060689343437189e-01	 1.419387410764909e+01
 1.591625087357539e+00	 3.202769616428244e-01	 1.419255666710962e+01
 1.588697257045346e+00	 3.344977971850446e-01	 1.419146320076257e+01
 1.585634057007188e+00	 3.487296777218349e-01	 1.419154172552451e+01
 1.582434812553988e+00	 3.629708182241058e-01	 1.419381968410677e+01
 1.579098877775109e+00	 3.772194123775208e-01	 1.419940444217657e+01
 1.575625636200664e+00	 3.914736330997332e-01	 1.420948362800744e+01
 1.572014501454648e+00	 4.057316330794875e-01	 1.422532529654667e+01
 1.568264917898150e+00	 4.199915453374776e-01	 1.424827789851466e+01
 1.605399189312227e+00	 2.787043988127610e-01	 1.415211924361643e+01
 1.602863990020212e+00	 2.929329760515569e-01	 1.415329617203422e+01
 1.600195128460686e+00	 3.071778797580076e-01	 1.415300993359226e+01
 1.597391844920429e+00	 3.214373854168927e-01	 1.415204804634161e+01
 1.594453406527394e+00	 3.357097457255702e-01	 1.415127648545845e+01
 1.591379107938374e+00	 3.499931910469140e-01	 1.415164050723029e+01
 1.588168272019763e+00	 3.642859298843381e-01	 1.415416535251903e+01
 1.584820250520672e+00	 3.785861493788887e-01	 1.415995681410639e+01
 1.581334424737622e+00	 3.928920158283554e-01	 1.417020165093081e+01
 1.577710206170063e+00	 4.072016752283262e-01	 1.418616783084166e+01
 1.573947037165896e+00	 4.215132538350772e-01	 1.420920458212937e+01
 1.611194854255593e+00	 2.797105518770669e-01	 1.411097702474262e+01
 1.608650502619563e+00	 2.939904958206961e-01	 1.411256506657485e+01
 1.605972006180761e+00	 3.082868251722965e-01	 1.411266150577087e+01
 1.603158602483318e+00	 3.225978091909609e-01	 1.411204952742349e+01
 1.600209556009442e+00	 3.369216942660957e-01	 1.411159121077650e+01
 1.597124158869559e+00	 3.512567043719932e-01	 1.411222841633700e+01
 1.593901731485538e+00	 3.656010415445702e-01	 1.411498355751525e+01
 1.590541623266233e+00	 3.799528863802564e-01	 1.412096024099198e+01
 1.587043213274582e+00	 3.943103985569778e-01	 1.413134375856951e+01
 1.583405910885478e+00	 4.086717173771648e-01	 1.414740141182338e+01
 1.579629156433643e+00	 4.230349623326766e-01	 1.417048264945048e+01
 1.616990519198958e+00	 2.807167049413729e-01	 1.407031680044620e+01
 1.614437015218914e+00	 2.950480155898353e-01	 1.407231261486146e+01
 1.611748883900836e+00	 3.093957705865854e-01	 1.407278716783508e+01
 1.608925360046208e+00	 3.237582329650290e-01	 1.407251866157694e+01
 1.605965705491491e+00	 3.381336428066212e-01	 1.407236463278202e+01
 1.602869209800745e+00	 3.525202176970722e-01	 1.407326290533470e+01
 1.599635190951314e+00	 3.669161532048026e-01	 1.407623243278880e+01
 1.596262996011795e+00	 3.813196233816243e-01	 1.408237401461794e+01
 1.592752001811541e+00	 3.957287812855999e-01	 1.409287086873457e+01
 1.589101615600893e+00	 4.101417595260037e-01	 1.410898904127994e+01
 1.585311275701390e+00	 4.245566708302762e-01	 1.413207763321406e+01
 1.622786184142323e+00	 2.817228580056790e-01	 1.403010018712058e+01
 1.620223527818265e+00	 2.961055353589747e-01	 1.403249874363973e+01
 1.617525761620911e+00	 3.105047160008743e-01	 1.403334566230753e+01
 1.614692117609097e+00	 3.249186567390973e-01	 1.403341350886634e+01
 1.611721854973539e+00	 3.393455913471467e-01	 1.403355462603248e+01
 1.608614260731931e+00	 3.537837310221513e-01	 1.403470215427073e+01
 1.605368650417089e+00	 3.682312648650348e-01	 1.403787094779596e+01
 1.601984368757358e+00	 3.826863603829921e-01	 1.404415836959006e+01
 1.598460790348500e+00	 3.971471640142221e-01	 1.405474494766842e+01
 1.594797320316309e+00	 4.116118016748425e-01	 1.407089487328258e+01
 1.590993394969137e+00	 4.260783793278758e-01	 1.409395632020902e+01
 1.534172202291668e+00	 4.108612943518803e-01	 1.449217907447034e+01
 1.530368179495292e+00	 4.248112341608138e-01	 1.451130404563430e+01
 1.526427723196031e+00	 4.387593364699470e-01	 1.451856694435188e+01
 1.522350383707559e+00	 4.527037206677425e-01	 1.451547944791551e+01
 1.518135743816959e+00	 4.666424893066398e-01	 1.450362038757914e+01
 1.513783419353943e+00	 4.805737287555937e-01	 1.448463396287142e+01
 1.509293059745766e+00	 4.944955098726698e-01	 1.446022763061498e+01
 1.504664348557110e+00	 5.084058886973841e-01	 1.443216964599296e+01
 1.499897004014151e+00	 5.223029071624457e-01	 1.440228623259011e+01
 1.494990779512098e+00	 5.361845938245324e-01	 1.437245835805261e+01
 1.489945464105439e+00	 5.500489646136952e-01	 1.434461809188025e+01
 1.539854321559414e+00	 4.123830028494798e-01	 1.445020639585938e+01
 1.536036209789719e+00	 4.263846091021503e-01	 1.446966655090012e+01
 1.532081159207869e+00	 4.403843710494654e-01	 1.447721404158226e+01
 1.527988718462031e+00	 4.543804011146600e-01	 1.447440920382603e+01
 1.523758468794059e+00	 4.683707948225902e-01	 1.446288344200362e+01
 1.519390024610809e+00	 4.823536314546886e-01	 1.444433750736709e+01
 1.514883034041121e+00	 4.963269747240501e-01	 1.442053944705180e+01
 1.510237179477692e+00	 5.102888734703374e-01	 1.439332220029929e+01
 1.505452178103092e+00	 5.242373623741583e-01	 1.436458081809527e+01
 1.500527782399180e+00	 5.381704626905491e-01	 1.433626928210805e+01
 1.495463780639162e+00	 5.520861830011533e-01	 1.431039689865096e+01
 1.545536440827162e+00	 4.139047113470793e-01	 1.440881691495012e+01
 1.541704240084147e+00	 4.279579840434866e-01	 1.442856356204102e+01
 1.537734595219705e+00	 4.420094056289836e-01	 1.443636436123632e+01
 1.533627053216504e+00	 4.560570815615778e-01	 1.443382750812260e+01
 1.529381193771159e+00	 4.700991003385407e-01	 1.442263610050341e+01
 1.524996629867675e+00	 4.841335341537832e-01	 1.440454648305247e+01
 1.520473008336475e+00	 4.981584395754304e-01	 1.438138625862651e+01
 1.515810010398274e+00	 5.121718582432906e-01	 1.435505194217748e+01
 1.511007352192034e+00	 5.261718175858711e-01	 1.432750623271644e+01
 1.506064785286261e+00	 5.401563315565658e-01	 1.430077487844246e+01
 1.500982097172886e+00	 5.541234013886116e-01	 1.427694310995889e+01
 1.551218560094909e+00	 4.154264198446789e-01	 1.436796913721887e+01
 1.547372270378573e+00	 4.295313589848229e-01	 1.438795529298619e+01
 1.543388031231543e+00	 4.436344402085021e-01	 1.439597886937769e+01
 1.539265387970976e+00	 4.577337620084953e-01	 1.439369511228103e+01
 1.535003918748258e+00	 4.718274058544913e-01	 1.438283792303809e+01
 1.530603235124541e+00	 4.859134368528780e-01	 1.436521827149629e+01
 1.526062982631830e+00	 4.999899044268108e-01	 1.434272227202506e+01
 1.521382841318856e+00	 5.140548430162439e-01	 1.431730889771846e+01
 1.516562526280975e+00	 5.281062727975840e-01	 1.429100730748678e+01
 1.511601788173343e+00	 5.421422004225828e-01	 1.426591376036275e+01
 1.506500413706610e+00	 5.561606197760698e-01	 1.424418809113121e+01
 1.556900679362656e+00	 4.169481283422785e-01	 1.432762268000767e+01
 1.553040300673000e+00	 4.311047339261592e-01	 1.434780316827175e+01
 1.549041467243380e+00	 4.452594747880202e-01	 1.435601985824017e+01
 1.544903722725449e+00	 4.594104424554127e-01	 1.435397422597057e+01
 1.540626643725359e+00	 4.735557113704419e-01	 1.434345007585941e+01
 1.536209840381409e+00	 4.876933395519730e-01	 1.432631202432995e+01
 1.531652956927185e+00	 5.018213692781910e-01	 1.430450364301228e+01
 1.526955672239438e+00	 5.159378277891971e-01	 1.428004523591059e+01
 1.522117700369916e+00	 5.300407280092967e-01	 1.425503122449490e+01
 1.517138791060425e+00	 5.441280692885995e-01	 1.423162711424775e+01
 1.512018730240334e+00	 5.581978381635276e-01	 1.421206601594434e+01
 1.562582798630403e+00	 4.184698368398781e-01	 1.428773829630898e+01
 1.558708330967427e+00	 4.326781088674957e-01	 1.430806984846478e+01
 1.554694903255217e+00	 4.468845093675385e-01	 1.431645097306383e+01
 1.550542057479921e+00	 4.610871229023304e-01	 1.431462854507383e+01
 1.546249368702458e+00	 4.752840168863924e-01	 1.430443536048689e+01
 1.541816445638275e+00	 4.894732422510676e-01	 1.428778869294847e+01
 1.537242931222539e+00	 5.036528341295712e-01	 1.426668850663006e+01
 1.532528503160019e+00	 5.178208125621503e-01	 1.424321529910405e+01
 1.527672874458858e+00	 5.319751832210095e-01	 1.421952754738461e+01
 1.522675793947507e+00	 5.461139381546163e-01	 1.419785872985286e+01
 1.517537046774058e+00	 5.602350565509860e-01	 1.418051389650269e+01
 1.568264917898150e+00	 4.199915453374776e-01	 1.424827789851466e+01
 1.564376361261854e+00	 4.342514838088322e-01	 1.426871925554593e+01
 1.560348339267054e+00	 4.485095439470568e-01	 1.427723723889061e+01
 1.556180392234394e+00	 4.627638033492480e-01	 1.427562327967279e+01
 1.551872093679558e+00	 4.770123224023428e-01	 1.426575824266120e+01
 1.547423050895141e+00	 4.912531449501625e-01	 1.424961105820832e+01
 1.542832905517895e+00	 5.054842989809515e-01	 1.422923700741336e+01
 1.538101334080601e+00	 5.197037973351037e-01	 1.420677563352153e+01
 1.533228048547799e+00	 5.339096384327222e-01	 1.418444825193541e+01
 1.528212796834589e+00	 5.480998070206331e-01	 1.416455503073447e+01
 1.523055363307781e+00	 5.622722749384440e-01	 1.414947161328185e+01
 1.573947037165896e+00	 4.215132538350772e-01	 1.420920458212937e+01
 1.570044391556281e+00	 4.358248587501683e-01	 1.422971659825317e+01
 1.566001775278892e+00	 4.501345785265752e-01	 1.423834508732133e+01
 1.561818726988866e+00	 4.644404837961654e-01	 1.423692518200264e+01
 1.557494818656658e+00	 4.787406279182933e-01	 1.422738488127691e+01
 1.553029656152008e+00	 4.930330476492574e-01	 1.421174376012004e+01
 1.548422879813249e+00	 5.073157638323316e-01	 1.419211132962530e+01
 1.543674165001183e+00	 5.215867821080571e-01	 1.417068501981519e+01
 1.538783222636740e+00	 5.358440936444351e-01	 1.414974775672108e+01
 1.533749799721671e+00	 5.500856758866499e-01	 1.413166510479079e+01
 1.528573679841505e+00	 5.643094933259021e-01	 1.411888194533109e+01
 1.579629156433643e+00	 4.230349623326766e-01	 1.417048264945048e+01
 1.575712421850708e+00	 4.373982336915046e-01	 1.419102839738641e+01
 1.571655211290728e+00	 4.517596131060935e-01	 1.419974238323486e+01
 1.567457061743338e+00	 4.661171642430831e-01	 1.419850257437369e+01
 1.563117543633758e+00	 4.804689334342439e-01	 1.418928315729465e+01
 1.558636261408874e+00	 4.948129503483518e-01	 1.417415332753782e+01
 1.554012854108603e+00	 5.091472286837120e-01	 1.415527572750953e+01
 1.549246995921765e+00	 5.234697668810103e-01	 1.413490450366788e+01
 1.544338396725682e+00	 5.377785488561477e-01	 1.411538295384540e+01
 1.539286802608753e+00	 5.520715447526666e-01	 1.409914073491641e+01
 1.534091996375229e+00	 5.663467117133602e-01	 1.408869060063137e+01
 1.585311275701390e+00	 4.245566708302762e-01	 1.413207763321406e+01
 1.581380452145135e+00	 4.389716086328410e-01	 1.415262251107426e+01
 1.577308647302565e+00	 4.533846476856118e-01	 1.416139845147017e+01
 1.573095396497810e+00	 4.677938446900005e-01	 1.416032537706204e+01
 1.568740268610857e+00	 4.821972389501943e-01	 1.415142270263317e+01
 1.564242866665740e+00	 4.965928530474468e-01	 1.413680820784505e+01
 1.559602828403958e+00	 5.109786935350922e-01	 1.411869655556023e+01
 1.554819826842346e+00	 5.253527516539634e-01	 1.409939742643851e+01
 1.549893570814622e+00	 5.397130040678604e-01	 1.408131323975265e+01
 1.544823805495834e+00	 5.540574136186834e-01	 1.406693642976786e+01
 1.539610312908953e+00	 5.683839301008183e-01	 1.405884624660580e+01
 1.590993394969137e+00	 4.260783793278758e-01	 1.409395632020902e+01
 1.587048482439563e+00	 4.405449835741775e-01	 1.411446816000442e+01
 1.582962083314403e+00	 4.550096822651302e-01	 1.412328410347249e+01
 1.578733731252283e+00	 4.694705251369183e-01	 1.412236513617037e+01
 1.574362993587957e+00	 4.839255444661450e-01	 1.411377492904243e+01
 1.569849471922607e+00	 4.983727557465415e-01	 1.409967879663582e+01
 1.565192802699313e+00	 5.128101583864724e-01	 1.408234229880900e+01
 1.560392657762928e+00	 5.272357364269168e-01	 1.406412945584934e+01
 1.555448744903564e+00	 5.416474592795733e-01	 1.404750054611061e+01
 1.550360808382916e+00	 5.560432824847004e-01	 1.403500945463689e+01
 1.545128629442677e+00	 5.704211484882766e-01	 1.402930054077737e+01
 1.489945464105439e+00	 5.500489646136952e-01	 1.434461809188025e+01
 1.484760882980182e+00	 5.638940236009590e-01	 1.432957764778692e+01
 1.479436897907371e+00	 5.777177637836530e-01	 1.433823940195790e+01
 1.473973407677158e+00	 5.915181678879827e-01	 1.437158225787278e+01
 1.468370348512759e+00	 6.052932091883120e-01	 1.440365139475586e+01
 1.462627694463601e+00	 6.190408523426045e-01	 1.442307133475882e+01
 1.456745457776998e+00	 6.327590542434405e-01	 1.442999717519318e+01
 1.450723689247720e+00	 6.464457648839963e-01	 1.442453805178609e+01
 1.444562478544823e+00	 6.600989282383416e-01	 1.440675917221136e+01
 1.438261954515135e+00	 6.737164831553929e-01	 1.437668433299955e+01
 1.431822285462815e+00	 6.872963642658162e-01	 1.433429894172402e+01
 1.495463780639162e+00	 5.520861830011533e-01	 1.431039689865096e+01
 1.490259997361590e+00	 5.659825199846662e-01	 1.429783685548279e+01
 1.484916293825546e+00	 5.798574592050740e-01	 1.430950500505149e+01
 1.479432568446332e+00	 5.937089759171975e-01	 1.434440545148053e+01
 1.473808757210955e+00	 6.075350358890097e-01	 1.437444737914109e+01
 1.468044834072726e+00	 6.213335962401697e-01	 1.439259204532662e+01
 1.462140811324320e+00	 6.351026062961942e-01	 1.439895293596040e+01
 1.456096739948637e+00	 6.488400084576408e-01	 1.439359334081005e+01
 1.449912709946841e+00	 6.625437390836689e-01	 1.437652836934864e+01
 1.443588850642969e+00	 6.762117293893020e-01	 1.434772746283607e+01
 1.437125330964530e+00	 6.898419063556894e-01	 1.430711742543159e+01
 1.500982097172886e+00	 5.541234013886116e-01	 1.427694310995889e+01
 1.495759111742999e+00	 5.680710163683734e-01	 1.426691963110067e+01
 1.490395689743722e+00	 5.819971546264948e-01	 1.428160942344260e+01
 1.484891729215507e+00	 5.958997839464123e-01	 1.431713625243087e+01
 1.479247165909151e+00	 6.097768625897070e-01	 1.434527344582149e+01
 1.473461973681851e+00	 6.236263401377347e-01	 1.436223481969819e+01
 1.467536164871642e+00	 6.374461583489476e-01	 1.436809309604485e+01
 1.461469790649555e+00	 6.512342520312853e-01	 1.436286665882848e+01
 1.455262941348858e+00	 6.649885499289963e-01	 1.434652154961907e+01
 1.448915746770803e+00	 6.787069756232105e-01	 1.431897397223288e+01
 1.442428376466243e+00	 6.923874484455628e-01	 1.428009333014493e+01
 1.506500413706610e+00	 5.561606197760698e-01	 1.424418809113121e+01
 1.501258226124407e+00	 5.701595127520807e-01	 1.423675010820863e+01
 1.495875085661897e+00	 5.841368500479160e-01	 1.425447061199416e+01
 1.490350889984682e+00	 5.980905919756269e-01	 1.428974663512582e+01
 1.484685574607346e+00	 6.120186892904045e-01	 1.431610152661561e+01
 1.478879113290974e+00	 6.259190840353002e-01	 1.433197256827804e+01
 1.472931518418965e+00	 6.397897104017012e-01	 1.433739257237434e+01
 1.466842841350472e+00	 6.536284956049294e-01	 1.433233596294601e+01
 1.460613172750876e+00	 6.674333607743230e-01	 1.431672074853074e+01
 1.454242642898637e+00	 6.812022218571194e-01	 1.429041101666943e+01
 1.447731421967957e+00	 6.949329905354361e-01	 1.425321997490610e+01
 1.512018730240334e+00	 5.581978381635276e-01	 1.421206601594433e+01
 1.506757340505814e+00	 5.722480091357878e-01	 1.420725546167042e+01
 1.501354481580073e+00	 5.862765454693368e-01	 1.422800978142756e+01
 1.495810050753857e+00	 6.002814000048418e-01	 1.426221244548845e+01
 1.490123983305541e+00	 6.142605159911019e-01	 1.428690743517395e+01
 1.484296252900100e+00	 6.282118279328653e-01	 1.430178207508439e+01
 1.478326871966287e+00	 6.421332624544545e-01	 1.430683012923435e+01
 1.472215892051389e+00	 6.560227391785741e-01	 1.430198301383206e+01
 1.465963404152895e+00	 6.698781716196507e-01	 1.428711174433730e+01
 1.459569539026471e+00	 6.836974680910284e-01	 1.426202941704467e+01
 1.453034467469672e+00	 6.974785326253097e-01	 1.422649425086891e+01
 1.517537046774058e+00	 5.602350565509860e-01	 1.418051389650269e+01
 1.512256454887222e+00	 5.743365055194949e-01	 1.417836593714835e+01
 1.506833877498248e+00	 5.884162408907576e-01	 1.420214833583263e+01
 1.501269211523030e+00	 6.024722080340564e-01	 1.423451333640995e+01
 1.495562392003737e+00	 6.165023426917993e-01	 1.425767079956007e+01
 1.489713392509223e+00	 6.305045718304303e-01	 1.427164392779722e+01
 1.483722225513609e+00	 6.444768145072080e-01	 1.427638830611680e+01
 1.477588942752307e+00	 6.584169827522184e-01	 1.427179330170539e+01
 1.471313635554912e+00	 6.723229824649777e-01	 1.425768398249556e+01
 1.464896435154305e+00	 6.861927143249371e-01	 1.423382358294444e+01
 1.458337512971386e+00	 7.000240747151829e-01	 1.419991654371473e+01
 1.523055363307781e+00	 5.622722749384440e-01	 1.414947161328185e+01
 1.517755569268630e+00	 5.764250019032024e-01	 1.415001488081255e+01
 1.512313273416423e+00	 5.905559363121785e-01	 1.417632593380398e+01
 1.506728372292206e+00	 6.046630160632712e-01	 1.420663270346969e+01
 1.501000800701932e+00	 6.187441693924967e-01	 1.422837499512736e+01
 1.495130532118348e+00	 6.327973157279956e-01	 1.424154244811731e+01
 1.489117579060931e+00	 6.468203665599614e-01	 1.424605334588815e+01
 1.482961993453224e+00	 6.608112263258628e-01	 1.424175597264092e+01
 1.476663866956930e+00	 6.747677933103049e-01	 1.422843050043996e+01
 1.470223331282138e+00	 6.886879605588458e-01	 1.420579143621484e+01
 1.463640558473100e+00	 7.025696168050565e-01	 1.417349065635513e+01
 1.528573679841505e+00	 5.643094933259021e-01	 1.411888194533109e+01
 1.523254683650038e+00	 5.785134982869096e-01	 1.412213876925264e+01
 1.517792669334599e+00	 5.926956317335996e-01	 1.415016038029718e+01
 1.512187533061380e+00	 6.068538240924859e-01	 1.417855762092184e+01
 1.506439209400127e+00	 6.209859960931942e-01	 1.419900707768356e+01
 1.500547671727472e+00	 6.350900596255609e-01	 1.421146562242786e+01
 1.494512932608253e+00	 6.491639186127148e-01	 1.421581512326966e+01
 1.488335044154141e+00	 6.632054698995072e-01	 1.421186375518980e+01
 1.482014098358947e+00	 6.772126041556320e-01	 1.419934785266643e+01
 1.475550227409972e+00	 6.911832067927549e-01	 1.417793433483336e+01
 1.468943603974814e+00	 7.051151588949297e-01	 1.414722373191557e+01
 1.534091996375229e+00	 5.663467117133602e-01	 1.408869060063137e+01
 1.528753798031447e+00	 5.806019946706168e-01	 1.409467723958618e+01
 1.523272065252774e+00	 5.948353271550204e-01	 1.412364330559396e+01
 1.517646693830555e+00	 6.090446321217007e-01	 1.415027877794062e+01
 1.511877618098323e+00	 6.232278227938916e-01	 1.416955771693628e+01
 1.505964811336597e+00	 6.373828035231259e-01	 1.418140503275239e+01
 1.499908286155575e+00	 6.515074706654685e-01	 1.418566707362140e+01
 1.493708094855059e+00	 6.655997134731516e-01	 1.418211288730565e+01
 1.487364329760965e+00	 6.796574150009592e-01	 1.417043603611720e+01
 1.480877123537806e+00	 6.936784530266639e-01	 1.415025699707074e+01
 1.474246649476528e+00	 7.076607009848030e-01	 1.412112617699266e+01
 1.539610312908953e+00	 5.683839301008183e-01	 1.405884624660580e+01
 1.534252912412855e+00	 5.826904910543242e-01	 1.406757311975869e+01
 1.528751461170950e+00	 5.969750225764413e-01	 1.409676987777326e+01
 1.523105854599730e+00	 6.112354401509154e-01	 1.412179041511862e+01
 1.517316026796518e+00	 6.254696494945893e-01	 1.414002113021171e+01
 1.511381950945721e+00	 6.396755474206912e-01	 1.415135578800047e+01
 1.505303639702898e+00	 6.538510227182219e-01	 1.415560612202256e+01
 1.499081145555977e+00	 6.679939570467960e-01	 1.415250304356877e+01
 1.492714561162983e+00	 6.821022258462863e-01	 1.414169841585992e+01
 1.486204019665640e+00	 6.961736992605726e-01	 1.412276742593606e+01
 1.479549694978242e+00	 7.102062430746766e-01	 1.409521158517750e+01
 1.545128629442677e+00	 5.704211484882766e-01	 1.402930054077737e+01
 1.539752026794263e+00	 5.847789874380315e-01	 1.404077245903134e+01
 1.534230857089125e+00	 5.991147179978623e-01	 1.406953874251266e+01
 1.528565015368904e+00	 6.134262481801303e-01	 1.409309026121189e+01
 1.522754435494714e+00	 6.277114761952864e-01	 1.411039501644060e+01
 1.516799090554846e+00	 6.419682913182566e-01	 1.412131645549413e+01
 1.510698993250220e+00	 6.561945747709754e-01	 1.412563261264079e+01
 1.504454196256894e+00	 6.703882006204406e-01	 1.412303726270140e+01
 1.498064792565001e+00	 6.845470366916137e-01	 1.411314165105282e+01
 1.491530915793474e+00	 6.986689454944816e-01	 1.409547683389790e+01
 1.484852740479956e+00	 7.127517851645501e-01	 1.406949666083973e+01
 1.431822285462815e+00	 6.872963642658162e-01	 1.433429894172402e+01
 1.425243679404415e+00	 7.008365029011637e-01	 1.428924998051206e+01
 1.418526384298925e+00	 7.143348280244958e-01	 1.425023903328945e+01
 1.411670688252270e+00	 7.277892671717072e-01	 1.421573796266401e+01
 1.404676919695783e+00	 7.411977474027653e-01	 1.418413209934123e+01
 1.397545447538199e+00	 7.545581962620412e-01	 1.415372719696597e+01
 1.390276681290723e+00	 7.678685427468843e-01	 1.412275707458455e+01
 1.382871071164803e+00	 7.811267182835832e-01	 1.408939194962499e+01
 1.375329108142208e+00	 7.943306577098272e-01	 1.405174746054106e+01
 1.367651324017099e+00	 8.074783002627643e-01	 1.400789437432186e+01
 1.359838291409775e+00	 8.205675905717423e-01	 1.395586896993588e+01
 1.437125330964530e+00	 6.898419063556894e-01	 1.430711742543159e+01
 1.430522359698505e+00	 7.034321936526495e-01	 1.426403380315370e+01
 1.423780185722255e+00	 7.169805125727349e-01	 1.422691047588949e+01
 1.416899098208760e+00	 7.304847829760468e-01	 1.419422298427192e+01
 1.409879426805768e+00	 7.439429242449980e-01	 1.416436016560953e+01
 1.402721541788340e+00	 7.573528562481969e-01	 1.413563114301219e+01
 1.395425854184392e+00	 7.707125003126133e-01	 1.410627301460082e+01
 1.387992815872820e+00	 7.840197802031519e-01	 1.407445924627408e+01
 1.380422919653846e+00	 7.972726231087525e-01	 1.403830876768066e+01
 1.372716699291237e+00	 8.104689606341077e-01	 1.399589576702815e+01
 1.364874729526107e+00	 8.236067297960820e-01	 1.394526017614471e+01
 1.442428376466243e+00	 6.923874484455628e-01	 1.428009333014493e+01
 1.435801039992596e+00	 7.060278844041354e-01	 1.423892244192582e+01
 1.429033987145584e+00	 7.196261971209735e-01	 1.420364482372938e+01
 1.422127508165250e+00	 7.331802987803864e-01	 1.417273881740652e+01
 1.415081933915753e+00	 7.466881010872305e-01	 1.414459576972034e+01
 1.407897636038482e+00	 7.601475162343526e-01	 1.411752705413637e+01
 1.400575027078061e+00	 7.735564578783425e-01	 1.408977180554559e+01
 1.393114560580837e+00	 7.869128421227207e-01	 1.405950537198225e+01
 1.385516731165484e+00	 8.002145885076779e-01	 1.402484848351276e+01
 1.377782074565375e+00	 8.134596210054515e-01	 1.398387713437286e+01
 1.369911167642439e+00	 8.266458690204218e-01	 1.393463317013475e+01
 1.447731421967957e+00	 6.949329905354361e-01	 1.425321997490610e+01
 1.441079720286687e+00	 7.086235751556211e-01	 1.421391542623989e+01
 1.434287788568914e+00	 7.222718816692126e-01	 1.418044687900490e+01
 1.427355918121740e+00	 7.358758145847261e-01	 1.415129461901190e+01
 1.420284441025737e+00	 7.494332779294630e-01	 1.412485152478460e+01
 1.413073730288623e+00	 7.629421762205084e-01	 1.409943012032401e+01
 1.405724199971730e+00	 7.764004154440716e-01	 1.407327035403481e+01
 1.398236305288855e+00	 7.898059040422893e-01	 1.404454810849252e+01
 1.390610542677121e+00	 8.031565539066030e-01	 1.401138444177256e+01
 1.382847449839512e+00	 8.164502813767950e-01	 1.397185555688428e+01
 1.374947605758772e+00	 8.296850082447615e-01	 1.392400349147506e+01
 1.453034467469672e+00	 6.974785326253097e-01	 1.422649425086891e+01
 1.446358400580777e+00	 7.112192659071068e-01	 1.418901576342238e+01
 1.439541589992242e+00	 7.249175662174514e-01	 1.415732484163433e+01
 1.432584328078229e+00	 7.385713303890660e-01	 1.412990287778306e+01
 1.425486948135722e+00	 7.521784547716953e-01	 1.410514332411197e+01
 1.418249824538764e+00	 7.657368362066639e-01	 1.408135877479952e+01
 1.410873372865399e+00	 7.792443730098008e-01	 1.405678878770798e+01
 1.403358049996874e+00	 7.926989659618586e-01	 1.402960845122751e+01
 1.395704354188759e+00	 8.060985193055282e-01	 1.399793769750351e+01
 1.387912825113649e+00	 8.194409417481384e-01	 1.395985135907535e+01
 1.379984043875104e+00	 8.327241474691013e-01	 1.391338996149171e+01
 1.458337512971386e+00	 7.000240747151829e-01	 1.419991654371473e+01
 1.451637080874867e+00	 7.138149566585926e-01	 1.416422986035128e+01
 1.444795391415572e+00	 7.275632507656905e-01	 1.413429022992766e+01
 1.437812738034719e+00	 7.412668461934055e-01	 1.410857933368673e+01
 1.430689455245706e+00	 7.549236316139279e-01	 1.408549025940509e+01
 1.423425918788906e+00	 7.685314961928198e-01	 1.406333461072360e+01
 1.416022545759070e+00	 7.820883305755304e-01	 1.404035037026264e+01
 1.408479794704892e+00	 7.955920278814272e-01	 1.401471052250130e+01
 1.400798165700397e+00	 8.090404847044532e-01	 1.398453243829321e+01
 1.392978200387787e+00	 8.224316021194821e-01	 1.394788801855540e+01
 1.385020481991436e+00	 8.357632866934410e-01	 1.390281459011300e+01
 1.463640558473100e+00	 7.025696168050565e-01	 1.417349065635513e+01
 1.456915761168958e+00	 7.164106474100784e-01	 1.413956744536145e+01
 1.450049192838901e+00	 7.302089353139291e-01	 1.411135780151188e+01
 1.443041147991210e+00	 7.439623619977452e-01	 1.408734289772834e+01
 1.435891962355690e+00	 7.576688084561602e-01	 1.406591453919664e+01
 1.428602013039047e+00	 7.713261561789756e-01	 1.404538229813361e+01
 1.421171718652738e+00	 7.849322881412593e-01	 1.402398141673841e+01
 1.413601539412909e+00	 7.984850898009962e-01	 1.399988148499142e+01
 1.405891977212035e+00	 8.119824501033788e-01	 1.397119589578328e+01
 1.398043575661924e+00	 8.254222624908256e-01	 1.393599207543524e+01
 1.390056920107769e+00	 8.388024259177808e-01	 1.389230248303208e+01
 1.468943603974814e+00	 7.051151588949297e-01	 1.414722373191557e+01
 1.462194441463048e+00	 7.190063381615641e-01	 1.411504149041236e+01
 1.455302994262230e+00	 7.328546198621680e-01	 1.408854547450456e+01
 1.448269557947699e+00	 7.466578778020849e-01	 1.406621557195919e+01
 1.441094469465674e+00	 7.604139852983928e-01	 1.404644140752291e+01
 1.433778107289188e+00	 7.741208161651312e-01	 1.402752950112188e+01
 1.426320891546408e+00	 7.877762457069885e-01	 1.400771120904238e+01
 1.418723284120927e+00	 8.013781517205650e-01	 1.398515145546191e+01
 1.410985788723673e+00	 8.149244155023040e-01	 1.395795825744601e+01
 1.403108950936061e+00	 8.284129228621694e-01	 1.392419304201785e+01
 1.395093358224102e+00	 8.418415651421206e-01	 1.388188174917841e+01
 1.474246649476528e+00	 7.076607009848030e-01	 1.412112617699266e+01
 1.467473121757139e+00	 7.216020289130500e-01	 1.409066813351125e+01
 1.460556795685560e+00	 7.355003044104071e-01	 1.406587424893004e+01
 1.453497967904189e+00	 7.493533936064242e-01	 1.404522236971760e+01
 1.446296976575658e+00	 7.631591621406252e-01	 1.402709906282690e+01
 1.438954201539330e+00	 7.769154761512869e-01	 1.400980679524391e+01
 1.431470064440077e+00	 7.906202032727176e-01	 1.399157191171180e+01
 1.423845028828944e+00	 8.042712136401337e-01	 1.397055341873393e+01
 1.416079600235310e+00	 8.178663809012294e-01	 1.394485257862185e+01
 1.408174326210198e+00	 8.314035832335127e-01	 1.391252331276790e+01
 1.400129796340435e+00	 8.448807043664606e-01	 1.387158340849079e+01
 1.479549694978242e+00	 7.102062430746766e-01	 1.409521158517750e+01
 1.472751802051229e+00	 7.241977196645359e-01	 1.406646660138592e+01
 1.465810597108889e+00	 7.381459889586458e-01	 1.404336812837245e+01
 1.458726377860679e+00	 7.520489094107642e-01	 1.402439123609847e+01
 1.451499483685643e+00	 7.659043389828578e-01	 1.400791857708686e+01
 1.444130295789472e+00	 7.797101361374427e-01	 1.399224758515263e+01
 1.436619237333746e+00	 7.934641608384467e-01	 1.397559848790711e+01
 1.428966773536962e+00	 8.071642755597026e-01	 1.395612314189504e+01
 1.421173411746948e+00	 8.208083463001549e-01	 1.393191469480999e+01
 1.413239701484336e+00	 8.343942436048564e-01	 1.390101807455335e+01
 1.405166234456767e+00	 8.479198435908001e-01	 1.386144129998451e+01
 1.484852740479956e+00	 7.127517851645501e-01	 1.406949666083973e+01
 1.478030482345320e+00	 7.267934104160217e-01	 1.404245913240025e+01
 1.471064398532219e+00	 7.407916735068846e-01	 1.402105404185877e+01
 1.463954787817169e+00	 7.547444252151039e-01	 1.400375296864525e+01
 1.456701990795627e+00	 7.686495158250901e-01	 1.398893381516319e+01
 1.449306390039613e+00	 7.825047961235984e-01	 1.397488802245233e+01
 1.441768410227416e+00	 7.963081184041763e-01	 1.395982861562869e+01
 1.434088518244981e+00	 8.100573374792716e-01	 1.394189908874350e+01
 1.426267223258586e+00	 8.237503116990802e-01	 1.391918313420646e+01
 1.418305076758474e+00	 8.373849039761999e-01	 1.388971521715127e+01
 1.410202672573099e+00	 8.509589828151404e-01	 1.385149199010464e+01
 1.359838291409775e+00	 8.205675905717423e-01	 1.395586896993588e+01
 1.351890623751828e+00	 8.335964796547909e-01	 1.390097138730412e+01
 1.343808975242493e+00	 8.465629259179082e-01	 1.384853833375628e+01
 1.335594040775950e+00	 8.594648961561719e-01	 1.379664692454503e+01
 1.327246555839465e+00	 8.723003665557210e-01	 1.374339161400657e+01
 1.318767296382217e+00	 8.850673236956079e-01	 1.368689751265143e+01
 1.310157078654720e+00	 8.977637655485424e-01	 1.362533422188114e+01
 1.301416759018812e+00	 9.103877024795212e-01	 1.355693014556060e+01
 1.292547233728178e+00	 9.229371582413416e-01	 1.347998723300820e+01
 1.283549438679453e+00	 9.354101709659941e-01	 1.339289610337600e+01
 1.274424349133952e+00	 9.478047941509223e-01	 1.329415149688993e+01
 1.364874729526107e+00	 8.236067297960820e-01	 1.394526017614472e+01
 1.356897626062020e+00	 8.366838740238827e-01	 1.389174026675775e+01
 1.348786045521169e+00	 8.496983441620485e-01	 1.384068333136593e+01
 1.340540685371416e+00	 8.626480994752691e-01	 1.379012806799177e+01
 1.332162283824056e+00	 8.755311086540757e-01	 1.373812935620626e+01
 1.323651619702152e+00	 8.883453508204069e-01	 1.368277179559805e+01
 1.315009512279367e+00	 9.010888165320556e-01	 1.362218377933550e+01
 1.306236821089251e+00	 9.137595087850008e-01	 1.355455206164233e+01
 1.297334445704949e+00	 9.263554440126059e-01	 1.347813677322476e+01
 1.288303325489377e+00	 9.388746530806826e-01	 1.339128683396943e+01
 1.279144439315929e+00	 9.513151822774071e-01	 1.329245570761486e+01
 1.369911167642439e+00	 8.266458690204218e-01	 1.393463317013475e+01
 1.361904628372212e+00	 8.397712683929746e-01	 1.388248353673563e+01
 1.353763115799845e+00	 8.528337624061895e-01	 1.383277989990946e+01
 1.345487329966882e+00	 8.658313027943660e-01	 1.378352573500125e+01
 1.337078011808646e+00	 8.787618507524300e-01	 1.373273974998863e+01
 1.328535943022085e+00	 8.916233779452052e-01	 1.367846964346658e+01
 1.319861945904014e+00	 9.044138675155688e-01	 1.361880641522029e+01
 1.311056883159692e+00	 9.171313150904810e-01	 1.355189918780470e+01
 1.302121657681720e+00	 9.297737297838701e-01	 1.347597049264457e+01
 1.293057212299301e+00	 9.423391351953715e-01	 1.338933196932795e+01
 1.283864529497907e+00	 9.548255704038920e-01	 1.329040042202919e+01
 1.374947605758772e+00	 8.296850082447615e-01	 1.392400349147506e+01
 1.366911630682404e+00	 8.428586627620663e-01	 1.387321599542232e+01
 1.358740186078521e+00	 8.559691806503293e-01	 1.382484444838713e+01
 1.350433974562349e+00	 8.690145061134626e-01	 1.377686026023897e+01
 1.341993739793237e+00	 8.819925928507850e-01	 1.372724933004499e+01
 1.333420266342019e+00	 8.949014050700036e-01	 1.367402602170814e+01
 1.324714379528661e+00	 9.077389184990818e-01	 1.361524770972752e+01
 1.315876945230132e+00	 9.205031213959604e-01	 1.354902985309916e+01
 1.306908869658491e+00	 9.331920155551344e-01	 1.347356155035434e+01
 1.297811099109225e+00	 9.458036173100606e-01	 1.338712152376521e+01
 1.288584619679884e+00	 9.583359585303766e-01	 1.328809447588542e+01
 1.379984043875104e+00	 8.327241474691013e-01	 1.391338996149171e+01
 1.371918632992597e+00	 8.459460571311582e-01	 1.386395575272119e+01
 1.363717256357197e+00	 8.591045988944698e-01	 1.381689669723217e+01
 1.355380619157815e+00	 8.721977094325599e-01	 1.377015526000525e+01
 1.346909467777828e+00	 8.852233349491392e-01	 1.372168785413207e+01
 1.338304589661954e+00	 8.981794321948026e-01	 1.366947903224656e+01
 1.329566813153308e+00	 9.110639694825949e-01	 1.361155626565521e+01
 1.320697007300572e+00	 9.238749277014401e-01	 1.354600526879636e+01
 1.311696081635263e+00	 9.366103013263984e-01	 1.347098582150987e+01
 1.302564985919148e+00	 9.492680994247493e-01	 1.338474803650774e+01
 1.293304709861862e+00	 9.618463466568618e-01	 1.328564901444726e+01
 1.385020481991436e+00	 8.357632866934410e-01	 1.390281459011300e+01
 1.376925635302788e+00	 8.490334515002500e-01	 1.385472413511392e+01
 1.368694326635872e+00	 8.622400171386103e-01	 1.380895958187910e+01
 1.360327263753282e+00	 8.753809127516570e-01	 1.376343753519861e+01
 1.351825195762419e+00	 8.884540770474939e-01	 1.371608820610957e+01
 1.343188912981888e+00	 9.014574593196004e-01	 1.366486981725667e+01
 1.334419246777955e+00	 9.143890204661083e-01	 1.360778361358510e+01
 1.325517069371012e+00	 9.272467340069196e-01	 1.354288943561140e+01
 1.316483293612033e+00	 9.400285870976626e-01	 1.346832180724494e+01
 1.307318872729072e+00	 9.527325815394382e-01	 1.338230648491338e+01
 1.298024800043840e+00	 9.653567347833468e-01	 1.328317740962850e+01
 1.390056920107769e+00	 8.388024259177808e-01	 1.389230248303208e+01
 1.381932637612980e+00	 8.521208458693417e-01	 1.384554559085655e+01
 1.373671396914548e+00	 8.653754353827506e-01	 1.380105915667409e+01
 1.365273908348749e+00	 8.785641160707538e-01	 1.375673697461431e+01
 1.356740923747009e+00	 8.916848191458484e-01	 1.371048629928992e+01
 1.348073236301822e+00	 9.047354864443993e-01	 1.366024246322194e+01
 1.339271680402602e+00	 9.177140714496211e-01	 1.360398411729371e+01
 1.330337131441452e+00	 9.306185403123997e-01	 1.353974905110352e+01
 1.321270505588804e+00	 9.434468728689268e-01	 1.346565054468429e+01
 1.312072759538996e+00	 9.561970636541270e-01	 1.337989419770920e+01
 1.302744890225817e+00	 9.688671229098318e-01	 1.328079517705754e+01
 1.395093358224102e+00	 8.418415651421206e-01	 1.388188174917841e+01
 1.386939639923172e+00	 8.552082402384338e-01	 1.383644759550333e+01
 1.378648467193224e+00	 8.685108536268911e-01	 1.379322449911908e+01
 1.370220552944215e+00	 8.817473193898506e-01	 1.375008645856768e+01
 1.361656651731600e+00	 8.949155612442027e-01	 1.370492098009368e+01
 1.352957559621756e+00	 9.080135135691980e-01	 1.365564390526443e+01
 1.344124114027250e+00	 9.210391224331347e-01	 1.360021487939033e+01
 1.335157193511892e+00	 9.339903466178794e-01	 1.353665341724544e+01
 1.326057717565575e+00	 9.468651586401913e-01	 1.346305551705630e+01
 1.316826646348920e+00	 9.596615457688161e-01	 1.337761076824962e+01
 1.307464980407795e+00	 9.723775110363164e-01	 1.327861989306872e+01
 1.400129796340435e+00	 8.448807043664606e-01	 1.387158340849079e+01
 1.391946642233364e+00	 8.582956346075257e-01	 1.382746055775057e+01
 1.383625537471900e+00	 8.716462718710313e-01	 1.378548761444040e+01
 1.375167197539682e+00	 8.849305227089478e-01	 1.374352176283600e+01
 1.366572379716190e+00	 8.981463033425573e-01	 1.369943393200320e+01
 1.357841882941690e+00	 9.112915406939963e-01	 1.365112383174075e+01
 1.348976547651897e+00	 9.243641734166477e-01	 1.359653564717684e+01
 1.339977255582332e+00	 9.373621529233587e-01	 1.353367434815807e+01
 1.330844929542347e+00	 9.502834444114554e-01	 1.346062256390433e+01
 1.321580533158844e+00	 9.631260278835048e-01	 1.337555796779335e+01
 1.312185070589773e+00	 9.758878991628013e-01	 1.327677111162459e+01
 1.405166234456767e+00	 8.479198435908001e-01	 1.386144129998451e+01
 1.396953644543556e+00	 8.613830289766171e-01	 1.381861772559177e+01
 1.388602607750576e+00	 8.747816901151718e-01	 1.377788334047495e+01
 1.380113842135148e+00	 8.881137260280443e-01	 1.373708146290964e+01
 1.371488107700781e+00	 9.013770454409118e-01	 1.369406957980626e+01
 1.362726206261624e+00	 9.145695678187949e-01	 1.364673458909692e+01
 1.353828981276544e+00	 9.276892244001606e-01	 1.359300871872303e+01
 1.344797317652772e+00	 9.407339592288384e-01	 1.353088607800710e+01
 1.335632141519117e+00	 9.537017301827196e-01	 1.345843979139354e+01
 1.326334419968768e+00	 9.665905099981934e-01	 1.337383965880007e+01
 1.316905160771750e+00	 9.793982872892864e-01	 1.327537028116861e+01
 1.410202672573099e+00	 8.509589828151404e-01	 1.385149199010464e+01
 1.401960646853748e+00	 8.644704233457093e-01	 1.380995509277723e+01
 1.393579678029252e+00	 8.779171083593124e-01	 1.377044925286497e+01
 1.385060486730614e+00	 8.912969293471414e-01	 1.373080683854523e+01
 1.376403835685372e+00	 9.046077875392665e-01	 1.368887499412260e+01
 1.367610529581559e+00	 9.178475949435935e-01	 1.364253108697556e+01
 1.358681414901191e+00	 9.310142753836735e-01	 1.358969884915283e+01
 1.349617379723212e+00	 9.441057655343182e-01	 1.352836516905616e+01
 1.340419353495889e+00	 9.571200159539837e-01	 1.345659748271063e+01
 1.331088306778692e+00	 9.700549921128828e-01	 1.337256170824452e+01
 1.321625250953728e+00	 9.829086754157715e-01	 1.327454066141144e+01
 1.274424349133952e+00	 9.478047941509223e-01	 1.329415149688993e+01
 1.265172979410154e+00	 9.601190976391429e-01	 1.318742633625010e+01
 1.255796382547072e+00	 9.723511685922213e-01	 1.307761434660675e+01
 1.246295649938694e+00	 9.844991124550889e-01	 1.296530969614970e+01
 1.236671910939733e+00	 9.965610539117199e-01	 1.285135877641452e+01
 1.226926332442932e+00	 1.008535137830659e+00	 1.273687414851514e+01
 1.217060118428236e+00	 1.020419530199427e+00	 1.262324827424056e+01
 1.207074509484177e+00	 1.032212419046827e+00	 1.251216695485837e+01
 1.196970782301841e+00	 1.043912015352198e+00	 1.240562239825296e+01
 1.186750249141842e+00	 1.055516553940649e+00	 1.230592583319860e+01
 1.176414257274760e+00	 1.067024294363368e+00	 1.221571957645087e+01
 1.279144439315929e+00	 9.513151822774071e-01	 1.329245570761486e+01
 1.269858805259821e+00	 9.636750942970657e-01	 1.318569947875436e+01
 1.260447480260209e+00	 9.759524692166370e-01	 1.307627964444407e+01
 1.250911559753282e+00	 9.881454054641821e-01	 1.296472676198304e+01
 1.241252177276547e+00	 1.000252020778060e+00	 1.285182423777192e+01
 1.231470504044572e+00	 1.012270453155957e+00	 1.273862265763021e+01
 1.221567748496488e+00	 1.024198861792758e+00	 1.262645391147347e+01
 1.211545155815599e+00	 1.036035428006260e+00	 1.251694503361214e+01
 1.201404007421478e+00	 1.047778356149799e+00	 1.241203167762003e+01
 1.191145620434960e+00	 1.059425874510800e+00	 1.231397114280716e+01
 1.180771347116519e+00	 1.070976236194344e+00	 1.222535486782970e+01
 1.283864529497907e+00	 9.548255704038920e-01	 1.329040042202919e+01
 1.274544631109488e+00	 9.672310909549888e-01	 1.318361194372759e+01
 1.265098577973346e+00	 9.795537698410526e-01	 1.307458739006531e+01
 1.255527469567869e+00	 9.917916984732749e-01	 1.296379036789041e+01
 1.245832443613361e+00	 1.003942987644399e+00	 1.285193767989839e+01
 1.236014675646213e+00	 1.016005768481257e+00	 1.274001404796119e+01
 1.226075378564741e+00	 1.027978193386089e+00	 1.262928664103531e+01
 1.216015802147022e+00	 1.039858436965693e+00	 1.252131932729978e+01
 1.205837232541114e+00	 1.051644696947400e+00	 1.241798656776762e+01
 1.195540991728078e+00	 1.063335195080950e+00	 1.232148686660150e+01
 1.185128436958277e+00	 1.074928178025319e+00	 1.223435569178670e+01
 1.288584619679884e+00	 9.583359585303766e-01	 1.328809447588542e+01
 1.279230456959156e+00	 9.707870876129115e-01	 1.318129105477018e+01
 1.269749675686484e+00	 9.831550704654682e-01	 1.307268081551208e+01
 1.260143379382457e+00	 9.954379914823676e-01	 1.296265709529427e+01
 1.250412709950174e+00	 1.007633954510739e+00	 1.285186649565050e+01
 1.240558847247853e+00	 1.019741083806555e+00	 1.274122400776949e+01
 1.230583008632994e+00	 1.031757524979420e+00	 1.263192795332275e+01
 1.220486448478445e+00	 1.043681445925126e+00	 1.252547465883322e+01
 1.210270457660750e+00	 1.055511037745001e+00	 1.242367277909048e+01
 1.199936363021196e+00	 1.067244515651101e+00	 1.232865718301051e+01
 1.189485526800035e+00	 1.078880119856294e+00	 1.224290231367345e+01
 1.293304709861862e+00	 9.618463466568618e-01	 1.328564901444726e+01
 1.283916282808823e+00	 9.743430842708342e-01	 1.317886623877632e+01
 1.274400773399621e+00	 9.867563710898837e-01	 1.307070509168556e+01
 1.264759289197045e+00	 9.990842844914606e-01	 1.296148534130169e+01
 1.254992976286988e+00	 1.011324921377079e+00	 1.285177981107870e+01
 1.245103018849494e+00	 1.023476399131854e+00	 1.274242991607651e+01
 1.235090638701246e+00	 1.035536856572751e+00	 1.263456102643934e+01
 1.224957094809868e+00	 1.047504454884558e+00	 1.252959757443217e+01
 1.214703682780387e+00	 1.059377378542601e+00	 1.242927781877144e+01
 1.204331734314314e+00	 1.071153836221251e+00	 1.233566817778621e+01
 1.193842616641793e+00	 1.082832061687270e+00	 1.225117704118447e+01
 1.298024800043840e+00	 9.653567347833468e-01	 1.328317740962850e+01
 1.288602108658490e+00	 9.778990809287565e-01	 1.317646894699750e+01
 1.279051871112758e+00	 9.903576717142993e-01	 1.306880725274759e+01
 1.269375199011633e+00	 1.002730577500553e+00	 1.296043524586430e+01
 1.259573242623802e+00	 1.015015888243419e+00	 1.285184841477605e+01
 1.249647190451134e+00	 1.027211714457152e+00	 1.274381077364145e+01
 1.239598268769499e+00	 1.039316188166082e+00	 1.263737065825187e+01
 1.229427741141291e+00	 1.051327463843991e+00	 1.253387627621836e+01
 1.219136907900023e+00	 1.063243719340202e+00	 1.243499092338377e+01
 1.208727105607432e+00	 1.075063156791402e+00	 1.234270777609799e+01
 1.198199706483552e+00	 1.086784003518246e+00	 1.225936416713763e+01
 1.302744890225817e+00	 9.688671229098318e-01	 1.328079517705753e+01
 1.293287934508158e+00	 9.814550775866797e-01	 1.317423257593981e+01
 1.283702968825896e+00	 9.939589723387152e-01	 1.306713612027703e+01
 1.273991108826221e+00	 1.006376870509647e+00	 1.295966861862926e+01
 1.264153508960616e+00	 1.018706855109758e+00	 1.285224468686811e+01
 1.254191362052774e+00	 1.030947029782451e+00	 1.274554713354442e+01
 1.244105898837752e+00	 1.043095519759414e+00	 1.264054319802983e+01
 1.233898387472714e+00	 1.055150472803424e+00	 1.253850055438591e+01
 1.223570133019659e+00	 1.067110060137803e+00	 1.244100299107582e+01
 1.213122476900550e+00	 1.078972477361553e+00	 1.234996567422396e+01
 1.202556796325310e+00	 1.090735945349221e+00	 1.226764990017867e+01
 1.307464980407795e+00	 9.723775110363164e-01	 1.327861989306873e+01
 1.297973760357825e+00	 9.850110742446023e-01	 1.317229238809793e+01
 1.288354066539033e+00	 9.975602729631308e-01	 1.306584222718683e+01
 1.278607018640808e+00	 1.010023163518739e+00	 1.295934886548891e+01
 1.268733775297429e+00	 1.022397821976098e+00	 1.285314252765384e+01
 1.258735533654415e+00	 1.034682345107750e+00	 1.274782103138541e+01
 1.248613528906005e+00	 1.046874851352745e+00	 1.264426647767989e+01
 1.238369033804137e+00	 1.058973481762856e+00	 1.254366171895730e+01
 1.228003358139296e+00	 1.070976400935404e+00	 1.244750651334495e+01
 1.217517848193668e+00	 1.082881797931703e+00	 1.235763327085160e+01
 1.206913886167069e+00	 1.094687887180196e+00	 1.227622229512482e+01
 1.312185070589773e+00	 9.758878991628013e-01	 1.327677111162459e+01
 1.302659586207492e+00	 9.885670709025254e-01	 1.317078543253068e+01
 1.293005164252170e+00	 1.001161573587546e+00	 1.306507774140848e+01
 1.283222928455396e+00	 1.013669456527832e+00	 1.295964091483685e+01
 1.273314041634244e+00	 1.026088788842437e+00	 1.285471728590535e+01
 1.263279705256056e+00	 1.038417660433048e+00	 1.275081591510884e+01
 1.253121158974257e+00	 1.050654182946076e+00	 1.264872974258466e+01
 1.242839680135560e+00	 1.062796490722289e+00	 1.254955253113615e+01
 1.232436583258932e+00	 1.074842741733004e+00	 1.245469550641408e+01
 1.221913219486786e+00	 1.086791118501854e+00	 1.236590359799624e+01
 1.211270976008827e+00	 1.098639829011172e+00	 1.228527118295582e+01
 1.316905160771750e+00	 9.793982872892864e-01	 1.327537028116861e+01
 1.307345412057159e+00	 9.921230675604478e-01	 1.316985046528271e+01
 1.297656261965307e+00	 1.004762874211962e+00	 1.306499638934988e+01
 1.287838838269983e+00	 1.017315749536925e+00	 1.296071114353890e+01
 1.277894307971057e+00	 1.029779755708777e+00	 1.285714568683604e+01
 1.267823876857696e+00	 1.042152975758347e+00	 1.275471657446239e+01
 1.257628789042510e+00	 1.054433514539407e+00	 1.265412358205571e+01
 1.247310326466982e+00	 1.066619499681722e+00	 1.255636713426632e+01
 1.236869808378569e+00	 1.078709082530605e+00	 1.246276544221869e+01
 1.226308590779904e+00	 1.090700439072004e+00	 1.237497125154746e+01
 1.215628065850585e+00	 1.102591770842147e+00	 1.229498810046037e+01
 1.321625250953728e+00	 9.829086754157715e-01	 1.327454066141144e+01
 1.312031237906827e+00	 9.956790642183707e-01	 1.316962786965442e+01
 1.302307359678445e+00	 1.008364174836378e+00	 1.306575337913103e+01
 1.292454748084572e+00	 1.020962042546018e+00	 1.296272730262371e+01
 1.282474574307871e+00	 1.033470722575117e+00	 1.286060575974469e+01
 1.272368048459337e+00	 1.045888291083646e+00	 1.275970907010074e+01
 1.262136419110763e+00	 1.058212846132738e+00	 1.266063985941174e+01
 1.251780972798406e+00	 1.070442508641154e+00	 1.256430098440859e+01
 1.241303033498205e+00	 1.082575423328206e+00	 1.247191317901487e+01
 1.230703962073022e+00	 1.094609759642155e+00	 1.238503232145267e+01
 1.219985155692344e+00	 1.106543712673123e+00	 1.230556621954889e+01
 1.176414257274760e+00	 1.067024294363368e+00	 1.221571957645087e+01
 1.165964188395523e+00	 1.078433521762069e+00	 1.211886091110794e+01
 1.155401458012276e+00	 1.089742547716696e+00	 1.199980104581143e+01
 1.144727514810292e+00	 1.100949711075497e+00	 1.186245235247540e+01
 1.133943839991519e+00	 1.112053378766621e+00	 1.171089540925724e+01
 1.123051946590399e+00	 1.123051946590399e+00	 1.154936034869902e+01
 1.112053378766621e+00	 1.133943839991518e+00	 1.138220714515168e+01
 1.100949711075498e+00	 1.144727514810292e+00	 1.121390493339813e+01
 1.089742547716697e+00	 1.155401458012276e+00	 1.104901045630925e+01
 1.078433521762069e+00	 1.165964188395522e+00	 1.089214574477080e+01
 1.067024294363368e+00	 1.176414257274760e+00	 1.074797513795495e+01
 1.180771347116519e+00	 1.070976236194344e+00	 1.222535486782970e+01
 1.170282574278469e+00	 1.082427719990817e+00	 1.212997217508317e+01
 1.159680722671580e+00	 1.093778631226758e+00	 1.201174252850376e+01
 1.148967246346627e+00	 1.105027302597999e+00	 1.187456879654500e+01
 1.138143631991488e+00	 1.116172094984275e+00	 1.172259906384611e+01
 1.127211398244437e+00	 1.127211398244437e+00	 1.156013599233623e+01
 1.116172094984275e+00	 1.138143631991487e+00	 1.139161669084217e+01
 1.105027302597999e+00	 1.148967246346626e+00	 1.122159158947390e+01
 1.093778631226758e+00	 1.159680722671580e+00	 1.105470241869896e+01
 1.082427719990817e+00	 1.170282574278468e+00	 1.089565939855652e+01
 1.070976236194343e+00	 1.180771347116518e+00	 1.075050199937240e+01
 1.185128436958277e+00	 1.074928178025319e+00	 1.223435569178670e+01
 1.174600960161415e+00	 1.086421918219566e+00	 1.214023654914889e+01
 1.163959987330885e+00	 1.097814714736820e+00	 1.202275783629345e+01
 1.153206977882961e+00	 1.109104894120501e+00	 1.188565093501883e+01
 1.142343423991456e+00	 1.120290811201929e+00	 1.173312902269461e+01
 1.131370849898476e+00	 1.131370849898476e+00	 1.156956496654917e+01
 1.120290811201929e+00	 1.142343423991456e+00	 1.139947077292343e+01
 1.109104894120501e+00	 1.153206977882961e+00	 1.122747601437255e+01
 1.097814714736820e+00	 1.163959987330885e+00	 1.105830533664106e+01
 1.086421918219566e+00	 1.174600960161415e+00	 1.089675515319395e+01
 1.074928178025319e+00	 1.185128436958276e+00	 1.075301110850697e+01
 1.189485526800035e+00	 1.078880119856294e+00	 1.224290231367345e+01
 1.178919346044362e+00	 1.090416116448314e+00	 1.214982694779102e+01
 1.168239251990190e+00	 1.101850798246881e+00	 1.203299190163520e+01
 1.157446709419296e+00	 1.113182485643003e+00	 1.189583270944833e+01
 1.146543215991425e+00	 1.124409527419583e+00	 1.174260731249450e+01
 1.135530301552515e+00	 1.135530301552514e+00	 1.157775651516137e+01
 1.124409527419583e+00	 1.146543215991424e+00	 1.140586504275467e+01
 1.113182485643003e+00	 1.157446709419295e+00	 1.123163951814041e+01
 1.101850798246882e+00	 1.168239251990190e+00	 1.105988549295259e+01
 1.090416116448314e+00	 1.178919346044361e+00	 1.089595106118045e+01
 1.078880119856294e+00	 1.189485526800035e+00	 1.075574037291055e+01
 1.193842616641793e+00	 1.082832061687270e+00	 1.225117704118447e+01
 1.183237731927308e+00	 1.094410314677063e+00	 1.215899343646850e+01
 1.172518516649495e+00	 1.105886881756943e+00	 1.204259559442822e+01
 1.161686440955630e+00	 1.117260077165505e+00	 1.190525405156334e+01
 1.150743007991393e+00	 1.128528243637237e+00	 1.175116199829963e+01
 1.139689753206553e+00	 1.139689753206553e+00	 1.158482596371224e+01
 1.128528243637237e+00	 1.150743007991393e+00	 1.141090127168237e+01
 1.117260077165505e+00	 1.161686440955630e+00	 1.123416956376347e+01
 1.105886881756944e+00	 1.172518516649495e+00	 1.105951535081234e+01
 1.094410314677063e+00	 1.183237731927308e+00	 1.089554916252558e+01
 1.082832061687270e+00	 1.193842616641793e+00	 1.075892704695554e+01
 1.198199706483552e+00	 1.086784003518246e+00	 1.225936416713763e+01
 1.187556117810255e+00	 1.098404512905811e+00	 1.216792517244815e+01
 1.176797781308800e+00	 1.109922965267006e+00	 1.205172604692170e+01
 1.165926172491964e+00	 1.121337668688007e+00	 1.191406097290641e+01
 1.154942799991362e+00	 1.132646959854892e+00	 1.175892727054667e+01
 1.143849204860592e+00	 1.143849204860591e+00	 1.159089480371425e+01
 1.132646959854892e+00	 1.154942799991362e+00	 1.141468743239229e+01
 1.121337668688007e+00	 1.165926172491964e+00	 1.123515984548671e+01
 1.109922965267006e+00	 1.176797781308799e+00	 1.105728280987567e+01
 1.098404512905811e+00	 1.187556117810254e+00	 1.089606539265070e+01
 1.086784003518245e+00	 1.198199706483552e+00	 1.076280786630639e+01
 1.202556796325310e+00	 1.090735945349221e+00	 1.226764990017867e+01
 1.191874503693201e+00	 1.102398711134559e+00	 1.217680343245704e+01
 1.181077045968105e+00	 1.113959048777067e+00	 1.206059363768419e+01
 1.170165904028299e+00	 1.125415260210509e+00	 1.192240565421607e+01
 1.159142591991331e+00	 1.136765676072545e+00	 1.176604353187120e+01
 1.148008656514630e+00	 1.148008656514630e+00	 1.159609077675319e+01
 1.136765676072546e+00	 1.159142591991330e+00	 1.141733778015380e+01
 1.125415260210509e+00	 1.170165904028299e+00	 1.123471036707470e+01
 1.113959048777067e+00	 1.181077045968104e+00	 1.105509819778078e+01
 1.102398711134559e+00	 1.191874503693200e+00	 1.089774851748757e+01
 1.090735945349221e+00	 1.202556796325310e+00	 1.076761896805435e+01
 1.206913886167069e+00	 1.094687887180196e+00	 1.227622229512482e+01
 1.196192889576147e+00	 1.106392909363308e+00	 1.218581150518776e+01
 1.185356310627409e+00	 1.117995132287129e+00	 1.206940856496326e+01
 1.174405635564633e+00	 1.129492851733010e+00	 1.193044653456767e+01
 1.163342383991299e+00	 1.140884392290199e+00	 1.177265748372587e+01
 1.152168108168668e+00	 1.152168108168668e+00	 1.160054795843379e+01
 1.140884392290200e+00	 1.163342383991299e+00	 1.141897293395744e+01
 1.129492851733011e+00	 1.174405635564633e+00	 1.123292752001314e+01
 1.117995132287129e+00	 1.185356310627409e+00	 1.105453661474646e+01
 1.106392909363308e+00	 1.196192889576147e+00	 1.090084648067169e+01
 1.094687887180196e+00	 1.206913886167069e+00	 1.077359581094754e+01
 1.211270976008827e+00	 1.098639829011172e+00	 1.228527118295582e+01
 1.200511275459094e+00	 1.110387107592056e+00	 1.219513462011391e+01
 1.189635575286714e+00	 1.122031215797191e+00	 1.207835086450186e+01
 1.178645367100968e+00	 1.133570443255512e+00	 1.193835534148215e+01
 1.167542175991268e+00	 1.145003108507854e+00	 1.177892221280379e+01
 1.156327559822707e+00	 1.156327559822707e+00	 1.160440684217641e+01
 1.145003108507854e+00	 1.167542175991267e+00	 1.141971995754887e+01
 1.133570443255512e+00	 1.178645367100966e+00	 1.123036974111751e+01
 1.122031215797191e+00	 1.189635575286713e+00	 1.105585752863032e+01
 1.110387107592057e+00	 1.200511275459093e+00	 1.090560632507878e+01
 1.098639829011171e+00	 1.211270976008827e+00	 1.078097309571201e+01
 1.215628065850585e+00	 1.102591770842147e+00	 1.229498810046037e+01
 1.204829661342040e+00	 1.114381305820805e+00	 1.220495987599701e+01
 1.193914839946018e+00	 1.126067299307252e+00	 1.208760261421057e+01
 1.182885098637302e+00	 1.137648034778014e+00	 1.194634405588325e+01
 1.171741967991236e+00	 1.149121824725508e+00	 1.178499727727241e+01
 1.160487011476746e+00	 1.160487011476745e+00	 1.160781442286809e+01
 1.149121824725508e+00	 1.171741967991236e+00	 1.141971244036171e+01
 1.137648034778014e+00	 1.182885098637302e+00	 1.122975227811390e+01
 1.126067299307253e+00	 1.193914839946018e+00	 1.105931929492280e+01
 1.114381305820805e+00	 1.204829661342040e+00	 1.091227411440071e+01
 1.102591770842147e+00	 1.215628065850585e+00	 1.078998468546249e+01
 1.219985155692344e+00	 1.106543712673123e+00	 1.230556621954889e+01
 1.209148047224987e+00	 1.118375504049553e+00	 1.221547616909324e+01
 1.198194104605323e+00	 1.130103382817315e+00	 1.209734786124610e+01
 1.187124830173637e+00	 1.141725626300516e+00	 1.195459735968245e+01
 1.175941759991205e+00	 1.153240540943162e+00	 1.179104879282379e+01
 1.164646463130784e+00	 1.164646463130784e+00	 1.161092428037112e+01
 1.153240540943163e+00	 1.175941759991205e+00	 1.141909057835223e+01
 1.141725626300516e+00	 1.187124830173636e+00	 1.123174025678718e+01
 1.130103382817315e+00	 1.198194104605323e+00	 1.106517907950595e+01
 1.118375504049554e+00	 1.209148047224986e+00	 1.092109485476027e+01
 1.106543712673123e+00	 1.219985155692344e+00	 1.080086352620140e+01
 1.067024294363368e+00	 1.176414257274760e+00	 1.074797513795495e+01
 1.055516553940649e+00	 1.186750249141842e+00	 1.061128580818663e+01
 1.043912015352199e+00	 1.196970782301841e+00	 1.047415120320684e+01
 1.032212419046828e+00	 1.207074509484176e+00	 1.033676493768408e+01
 1.020419530199427e+00	 1.217060118428235e+00	 1.019908445413861e+01
 1.008535137830659e+00	 1.226926332442931e+00	 1.006083960885587e+01
 9.965610539117203e-01	 1.236671910939733e+00	 9.921541872894327e+00
 9.844991124550891e-01	 1.246295649938693e+00	 9.780494292233612e+00
 9.723511685922213e-01	 1.255796382547071e+00	 9.636802133859703e+00
 9.601190976391434e-01	 1.265172979410153e+00	 9.489384142258722e+00
 9.478047941509221e-01	 1.274424349133952e+00	 9.336984328976261e+00
 1.070976236194343e+00	 1.180771347116518e+00	 1.075050199937240e+01
 1.059425874510800e+00	 1.191145620434960e+00	 1.061732625011677e+01
 1.047778356149799e+00	 1.201404007421477e+00	 1.048293542376861e+01
 1.036035428006260e+00	 1.211545155815599e+00	 1.034760676194798e+01
 1.024198861792758e+00	 1.221567748496488e+00	 1.021138058517285e+01
 1.012270453155957e+00	 1.231470504044572e+00	 1.007406877151821e+01
 1.000252020778060e+00	 1.241252177276547e+00	 9.935264077132954e+00
 9.881454054641823e-01	 1.250911559753281e+00	 9.794350226661049e+00
 9.759524692166368e-01	 1.260447480260209e+00	 9.650512698735531e+00
 9.636750942970662e-01	 1.269858805259821e+00	 9.502750129359512e+00
 9.513151822774070e-01	 1.279144439315929e+00	 9.349886254147560e+00
 1.074928178025319e+00	 1.185128436958276e+00	 1.075301110850697e+01
 1.063335195080951e+00	 1.195540991728078e+00	 1.062313729961527e+01
 1.051644696947400e+00	 1.205837232541113e+00	 1.049127273762811e+01
 1.039858436965694e+00	 1.216015802147022e+00	 1.035778493036492e+01
 1.027978193386089e+00	 1.226075378564741e+00	 1.022280363813914e+01
 1.016005768481256e+00	 1.236014675646213e+00	 1.008622945473824e+01
 1.003942987644400e+00	 1.245832443613361e+00	 9.947743242623178e+00
 9.917916984732754e-01	 1.255527469567869e+00	 9.806816348797469e+00
 9.795537698410527e-01	 1.265098577973346e+00	 9.662721524874806e+00
 9.672310909549888e-01	 1.274544631109488e+00	 9.514544472482241e+00
 9.548255704038919e-01	 1.283864529497907e+00	 9.361195933264039e+00
 1.078880119856294e+00	 1.189485526800035e+00	 1.075574037291055e+01
 1.067244515651101e+00	 1.199936363021196e+00	 1.062894476028498e+01
 1.055511037745001e+00	 1.210270457660750e+00	 1.049937930274143e+01
 1.043681445925126e+00	 1.220486448478445e+00	 1.036750811879219e+01
 1.031757524979420e+00	 1.230583008632993e+00	 1.023355688730922e+01
 1.019741083806555e+00	 1.240558847247853e+00	 1.009752152614234e+01
 1.007633954510740e+00	 1.250412709950174e+00	 9.959177737346989e+00
 9.954379914823679e-01	 1.260143379382457e+00	 9.818091343858626e+00
 9.831550704654682e-01	 1.269749675686483e+00	 9.673629339485000e+00
 9.707870876129118e-01	 1.279230456959155e+00	 9.524971571648663e+00
 9.583359585303765e-01	 1.288584619679885e+00	 9.371122974431616e+00
 1.082832061687270e+00	 1.193842616641793e+00	 1.075892704695554e+01
 1.071153836221252e+00	 1.204331734314314e+00	 1.063497413620403e+01
 1.059377378542601e+00	 1.214703682780386e+00	 1.050747109216302e+01
 1.047504454884559e+00	 1.224957094809868e+00	 1.037698490896910e+01
 1.035536856572751e+00	 1.235090638701246e+00	 1.024384358054868e+01
 1.023476399131854e+00	 1.245103018849493e+00	 1.010814487236100e+01
 1.011324921377079e+00	 1.254992976286988e+00	 9.969765972176837e+00
 9.990842844914608e-01	 1.264759289197044e+00	 9.828373943098910e+00
 9.867563710898838e-01	 1.274400773399620e+00	 9.683436899009841e+00
 9.743430842708345e-01	 1.283916282808823e+00	 9.534235820169100e+00
 9.618463466568618e-01	 1.293304709861862e+00	 9.379876924754734e+00
 1.086784003518245e+00	 1.198199706483552e+00	 1.076280786630639e+01
 1.075063156791402e+00	 1.208727105607432e+00	 1.064145055092070e+01
 1.063243719340202e+00	 1.219136907900022e+00	 1.051576381260238e+01
 1.051327463843992e+00	 1.229427741141291e+00	 1.038642370722174e+01
 1.039316188166083e+00	 1.239598268769499e+00	 1.025386685873114e+01
 1.027211714457153e+00	 1.249647190451134e+00	 1.011829931969272e+01
 1.015015888243419e+00	 1.259573242623802e+00	 9.979706323307742e+00
 1.002730577500554e+00	 1.269375199011632e+00	 9.837862848501981e+00
 9.903576717142994e-01	 1.279051871112758e+00	 9.692344916554401e+00
 9.778990809287574e-01	 1.288602108658490e+00	 9.542541535240611e+00
 9.653567347833466e-01	 1.298024800043840e+00	 9.387667204532413e+00
 1.090735945349221e+00	 1.202556796325310e+00	 1.076761896805435e+01
 1.078972477361553e+00	 1.213122476900550e+00	 1.064859866659089e+01
 1.067110060137803e+00	 1.223570133019659e+00	 1.052447282315968e+01
 1.055150472803424e+00	 1.233898387472714e+00	 1.039603266336892e+01
 1.043095519759414e+00	 1.244105898837752e+00	 1.026382967536720e+01
 1.030947029782451e+00	 1.254191362052774e+00	 1.012818455498511e+01
 1.018706855109758e+00	 1.264153508960616e+00	 9.989197054894596e+00
 1.006376870509647e+00	 1.273991108826220e+00	 9.846756657663541e+00
 9.939589723387152e-01	 1.283702968825895e+00	 9.700553989467011e+00
 9.814550775866802e-01	 1.293287934508157e+00	 9.550092888671822e+00
 9.688671229098316e-01	 1.302744890225817e+00	 9.394703041536729e+00
 1.094687887180196e+00	 1.206913886167069e+00	 1.077359581094754e+01
 1.082881797931704e+00	 1.217517848193667e+00	 1.065664260325711e+01
 1.070976400935404e+00	 1.228003358139295e+00	 1.053381305423540e+01
 1.058973481762857e+00	 1.238369033804136e+00	 1.040601958982602e+01
 1.046874851352745e+00	 1.248613528906004e+00	 1.027393471644134e+01
 1.034682345107750e+00	 1.258735533654415e+00	 1.013800004672486e+01
 1.022397821976098e+00	 1.268733775297430e+00	 9.998436241894945e+00
 1.010023163518740e+00	 1.278607018640808e+00	 9.855253788854652e+00
 9.975602729631310e-01	 1.288354066539032e+00	 9.708264527081415e+00
 9.850110742446028e-01	 1.297973760357825e+00	 9.557093837727249e+00
 9.723775110363164e-01	 1.307464980407796e+00	 9.401193405363019e+00
 1.098639829011171e+00	 1.211270976008827e+00	 1.078097309571201e+01
 1.086791118501854e+00	 1.221913219486786e+00	 1.066580585826267e+01
 1.074842741733004e+00	 1.232436583258932e+00	 1.054399892661091e+01
 1.062796490722289e+00	 1.242839680135559e+00	 1.041659188090027e+01
 1.050654182946076e+00	 1.253121158974257e+00	 1.028438432045427e+01
 1.038417660433049e+00	 1.263279705256055e+00	 1.014794496633423e+01
 1.026088788842438e+00	 1.273314041634243e+00	 1.000762169310484e+01
 1.013669456527833e+00	 1.283222928455395e+00	 9.863552406267351e+00
 1.001161573587547e+00	 1.293005164252170e+00	 9.715676678608752e+00
 9.885670709025252e-01	 1.302659586207492e+00	 9.563748056088802e+00
 9.758878991628013e-01	 1.312185070589772e+00	 9.407346941860888e+00
 1.102591770842147e+00	 1.215628065850585e+00	 1.078998468546249e+01
 1.090700439072004e+00	 1.226308590779903e+00	 1.067631122580042e+01
 1.078709082530605e+00	 1.236869808378568e+00	 1.055524427069269e+01
 1.066619499681722e+00	 1.247310326466982e+00	 1.042795643227391e+01
 1.054433514539408e+00	 1.257628789042510e+00	 1.029538039866224e+01
 1.042152975758347e+00	 1.267823876857695e+00	 1.015821810966776e+01
 1.029779755708778e+00	 1.277894307971057e+00	 1.001695087439077e+01
 1.017315749536925e+00	 1.287838838269983e+00	 9.871850345434046e+00
 1.004762874211962e+00	 1.297656261965307e+00	 9.722990261182201e+00
 9.921230675604481e-01	 1.307345412057159e+00	 9.570258864934649e+00
 9.793982872892860e-01	 1.316905160771750e+00	 9.413371907631582e+00
 1.106543712673123e+00	 1.219985155692344e+00	 1.080086352620140e+01
 1.094609759642155e+00	 1.230703962073022e+00	 1.068838071658953e+01
 1.082575423328206e+00	 1.241303033498205e+00	 1.056776224591954e+01
 1.070442508641155e+00	 1.251780972798405e+00	 1.044031956066906e+01
 1.058212846132739e+00	 1.262136419110762e+00	 1.030712435551234e+01
 1.045888291083646e+00	 1.272368048459336e+00	 1.016901781870375e+01
 1.033470722575118e+00	 1.282474574307871e+00	 1.002662083210519e+01
 1.020962042546018e+00	 1.292454748084571e+00	 9.880345038816698e+00
 1.008364174836378e+00	 1.302307359678444e+00	 9.730404688042979e+00
 9.956790642183712e-01	 1.312031237906827e+00	 9.576829164126551e+00
 9.829086754157713e-01	 1.321625250953728e+00	 9.419476104601937e+00
 9.478047941509221e-01	 1.274424349133952e+00	 9.336984328976261e+00
 9.354101709659941e-01	 1.283549438679453e+00	 9.183808488344493e+00
 9.229371582413418e-01	 1.292547233728178e+00	 9.034706398466570e+00
 9.103877024795216e-01	 1.301416759018811e+00	 8.889191115552233e+00
 8.977637655485428e-01	 1.310157078654720e+00	 8.746686845969732e+00
 8.850673236956083e-01	 1.318767296382217e+00	 8.606539937732576e+00
 8.723003665557216e-01	 1.327246555839466e+00	 8.468029897910114e+00
 8.594648961561725e-01	 1.335594040775949e+00	 8.330380364172417e+00
 8.465629259179082e-01	 1.343808975242492e+00	 8.192769960801352e+00
 8.335964796547914e-01	 1.351890623751828e+00	 8.054342972027662e+00
 8.205675905717418e-01	 1.359838291409774e+00	 7.914219768466310e+00
 9.513151822774070e-01	 1.279144439315929e+00	 9.349886254147560e+00
 9.388746530806830e-01	 1.288303325489377e+00	 9.196408455057824e+00
 9.263554440126059e-01	 1.297334445704948e+00	 9.047367649372996e+00
 9.137595087850010e-01	 1.306236821089251e+00	 8.902233502547547e+00
 9.010888165320557e-01	 1.315009512279367e+00	 8.760383890074355e+00
 8.883453508204068e-01	 1.323651619702152e+00	 8.621116231668919e+00
 8.755311086540759e-01	 1.332162283824056e+00	 8.483658850445233e+00
 8.626480994752692e-01	 1.340540685371416e+00	 8.347182283415481e+00
 8.496983441620488e-01	 1.348786045521169e+00	 8.210810471823123e+00
 8.366838740238830e-01	 1.356897626062020e+00	 8.073631762414310e+00
 8.236067297960816e-01	 1.364874729526107e+00	 7.934709653739491e+00
 9.548255704038919e-01	 1.283864529497907e+00	 9.361195933264039e+00
 9.423391351953720e-01	 1.293057212299301e+00	 9.207429790088064e+00
 9.297737297838700e-01	 1.302121657681720e+00	 9.058476118812425e+00
 9.171313150904811e-01	 1.311056883159692e+00	 8.913758125107453e+00
 9.044138675155686e-01	 1.319861945904014e+00	 8.772604176536573e+00
 8.916233779452053e-01	 1.328535943022085e+00	 8.634259491203172e+00
 8.787618507524305e-01	 1.337078011808646e+00	 8.497897850445156e+00
 8.658313027943666e-01	 1.345487329966883e+00	 8.362633259987614e+00
 8.528337624061894e-01	 1.353763115799845e+00	 8.227531486196998e+00
 8.397712683929748e-01	 1.361904628372212e+00	 8.091621396741242e+00
 8.266458690204215e-01	 1.369911167642440e+00	 7.953906038033755e+00
 9.583359585303765e-01	 1.288584619679885e+00	 9.371122974431616e+00
 9.458036173100607e-01	 1.297811099109224e+00	 9.217087580665741e+00
 9.331920155551343e-01	 1.306908869658491e+00	 9.068251456400153e+00
 9.205031213959605e-01	 1.315876945230131e+00	 8.923988296807380e+00
 9.077389184990821e-01	 1.324714379528661e+00	 8.783573803253560e+00
 8.949014050700039e-01	 1.333420266342020e+00	 8.646197738261328e+00
 8.819925928507850e-01	 1.341993739793237e+00	 8.510976003572257e+00
 8.690145061134632e-01	 1.350433974562349e+00	 8.376962663735956e+00
 8.559691806503296e-01	 1.358740186078520e+00	 8.243161839969567e+00
 8.428586627620670e-01	 1.366911630682405e+00	 8.108539401742251e+00
 8.296850082447613e-01	 1.374947605758772e+00	 7.972034386712845e+00
 9.618463466568618e-01	 1.293304709861862e+00	 9.379876924754734e+00
 9.492680994247497e-01	 1.302564985919148e+00	 9.225596798244862e+00
 9.366103013263984e-01	 1.311696081635262e+00	 9.076913157447770e+00
 9.238749277014403e-01	 1.320697007300571e+00	 8.933147153760762e+00
 9.110639694825954e-01	 1.329566813153308e+00	 8.793518681978703e+00
 8.981794321948023e-01	 1.338304589661953e+00	 8.657158813528360e+00
 8.852233349491394e-01	 1.346909467777828e+00	 8.523122251831941e+00
 8.721977094325603e-01	 1.355380619157815e+00	 8.390399730213213e+00
 8.591045988944698e-01	 1.363717256357196e+00	 8.257930275128466e+00
 8.459460571311584e-01	 1.371918632992596e+00	 8.124613260299444e+00
 8.327241474691008e-01	 1.379984043875104e+00	 7.989320180563576e+00
 9.653567347833466e-01	 1.298024800043840e+00	 9.387667204532413e+00
 9.527325815394385e-01	 1.307318872729073e+00	 9.233172236384847e+00
 9.400285870976631e-01	 1.316483293612033e+00	 9.084680504304359e+00
 9.272467340069197e-01	 1.325517069371011e+00	 8.941457599195452e+00
 9.143890204661080e-01	 1.334419246777955e+00	 8.802664485921539e+00
 9.014574593196008e-01	 1.343188912981888e+00	 8.667370326859052e+00
 8.884540770474940e-01	 1.351825195762419e+00	 8.534565326594068e+00
 8.753809127516571e-01	 1.360327263753282e+00	 8.403173516113943e+00
 8.622400171386102e-01	 1.368694326635872e+00	 8.272065397267337e+00
 8.490334515002503e-01	 1.376925635302788e+00	 8.140070371149248e+00
 8.357632866934406e-01	 1.385020481991436e+00	 8.005988877373419e+00
 9.688671229098316e-01	 1.302744890225817e+00	 9.394703041536729e+00
 9.561970636541275e-01	 1.312072759538996e+00	 9.240028448666921e+00
 9.434468728689269e-01	 1.321270505588804e+00	 9.091772507687264e+00
 9.306185403123997e-01	 1.330337131441452e+00	 8.949142247986007e+00
 9.177140714496214e-01	 1.339271680402602e+00	 8.811236597269879e+00
 9.047354864443993e-01	 1.348073236301822e+00	 8.677059607588397e+00
 8.916848191458484e-01	 1.356740923747009e+00	 8.545533701492300e+00
 8.785641160707539e-01	 1.365273908348748e+00	 8.415512854570867e+00
 8.653754353827506e-01	 1.373671396914548e+00	 8.285795633092455e+00
 8.521208458693421e-01	 1.381932637612980e+00	 8.155138008428148e+00
 8.388024259177808e-01	 1.390056920107770e+00	 8.022265873338949e+00
 9.723775110363164e-01	 1.307464980407796e+00	 9.401193405363019e+00
 9.596615457688159e-01	 1.316826646348920e+00	 9.246379686638257e+00
 9.468651586401913e-01	 1.326057717565575e+00	 9.098407848005175e+00
 9.339903466178793e-01	 1.335157193511892e+00	 8.956423371141657e+00
 9.210391224331342e-01	 1.344124114027249e+00	 8.819460054638466e+00
 9.080135135691980e-01	 1.352957559621756e+00	 8.686453654741227e+00
 8.949155612442032e-01	 1.361656651731600e+00	 8.556255545202255e+00
 8.817473193898507e-01	 1.370220552944215e+00	 8.427646310317483e+00
 8.685108536268910e-01	 1.378648467193224e+00	 8.299349187787868e+00
 8.552082402384339e-01	 1.386939639923172e+00	 8.170043281063286e+00
 8.418415651421204e-01	 1.395093358224102e+00	 8.038376464315247e+00
 9.758878991628013e-01	 1.312185070589772e+00	 9.407346941860888e+00
 9.631260278835050e-01	 1.321580533158844e+00	 9.252439837789348e+00
 9.502834444114554e-01	 1.330844929542346e+00	 9.104804816671709e+00
 9.373621529233590e-01	 1.339977255582331e+00	 8.963522840252381e+00
 9.243641734166478e-01	 1.348976547651897e+00	 8.827559500445437e+00
 9.112915406939965e-01	 1.357841882941690e+00	 8.695779087147329e+00
 8.981463033425574e-01	 1.366572379716190e+00	 8.566958674105198e+00
 8.849305227089476e-01	 1.375167197539681e+00	 8.439802134713785e+00
 8.716462718710316e-01	 1.383625537471900e+00	 8.312954002230708e+00
 8.582956346075258e-01	 1.391946642233364e+00	 8.185013092007829e+00
 8.448807043664602e-01	 1.400129796340435e+00	 8.054545806907973e+00
 9.793982872892860e-01	 1.316905160771750e+00	 9.413371907631582e+00
 9.665905099981940e-01	 1.326334419968768e+00	 9.258422363559506e+00
 9.537017301827199e-01	 1.335632141519117e+00	 9.111181257409859e+00
 9.407339592288384e-01	 1.344797317652771e+00	 8.970662071891756e+00
 9.276892244001607e-01	 1.353828981276544e+00	 8.835759128221206e+00
 9.145695678187951e-01	 1.362726206261624e+00	 8.705262093460368e+00
 9.013770454409118e-01	 1.371488107700780e+00	 8.577870504836076e+00
 8.881137260280447e-01	 1.380113842135148e+00	 8.452208220648494e+00
 8.747816901151717e-01	 1.388602607750576e+00	 8.326837710070865e+00
 8.613830289766176e-01	 1.396953644543556e+00	 8.200274097329853e+00
 8.479198435908000e-01	 1.405166234456767e+00	 8.070998879413665e+00
 9.829086754157713e-01	 1.321625250953728e+00	 9.419476104601937e+00
 9.700549921128829e-01	 1.331088306778692e+00	 9.264540237372564e+00
 9.571200159539842e-01	 1.340419353495888e+00	 9.117754507550817e+00
 9.441057655343186e-01	 1.349617379723212e+00	 8.978061971981866e+00
 9.310142753836740e-01	 1.358681414901191e+00	 8.844282629845164e+00
 9.178475949435938e-01	 1.367610529581558e+00	 8.715128382087217e+00
 9.046077875392666e-01	 1.376403835685371e+00	 8.589218006722550e+00
 8.912969293471418e-01	 1.385060486730614e+00	 8.465092057310347e+00
 8.779171083593124e-01	 1.393579678029252e+00	 8.341227594668862e+00
 8.644704233457093e-01	 1.401960646853748e+00	 8.216052665157022e+00
 8.509589828151398e-01	 1.410202672573099e+00	 8.087960442609379e+00
 8.205675905717418e-01	 1.359838291409774e+00	 7.914219768466310e+00
 8.074783002627647e-01	 1.367651324017100e+00	 7.775953314164051e+00
 7.943306577098274e-01	 1.375329108142209e+00	 7.642817895720397e+00
 7.811267182835836e-01	 1.382871071164802e+00	 7.513511367702112e+00
 7.678685427468843e-01	 1.390276681290723e+00	 7.386748592834462e+00
 7.545581962620413e-01	 1.397545447538199e+00	 7.261270047847820e+00
 7.411977474027657e-01	 1.404676919695784e+00	 7.135849868309894e+00
 7.277892671717078e-01	 1.411670688252270e+00	 7.009303296643290e+00
 7.143348280244961e-01	 1.418526384298925e+00	 6.880493502410149e+00
 7.008365029011642e-01	 1.425243679404416e+00	 6.748337748927431e+00
 6.872963642658158e-01	 1.431822285462816e+00	 6.611812885291725e+00
 8.236067297960816e-01	 1.364874729526107e+00	 7.934709653739491e+00
 8.104689606341079e-01	 1.372716699291237e+00	 7.797573766055342e+00
 7.972726231087526e-01	 1.380422919653846e+00	 7.665512163552064e+00
 7.840197802031522e-01	 1.387992815872820e+00	 7.537222064770946e+00
 7.707125003126135e-01	 1.395425854184391e+00	 7.411419262593334e+00
 7.573528562481971e-01	 1.402721541788341e+00	 7.286846894862760e+00
 7.439429242449981e-01	 1.409879426805768e+00	 7.162283637086683e+00
 7.304847829760471e-01	 1.416899098208760e+00	 7.036551280637150e+00
 7.169805125727350e-01	 1.423780185722255e+00	 6.908521664875043e+00
 7.034321936526499e-01	 1.430522359698506e+00	 6.777122936720412e+00
 6.898419063556892e-01	 1.437125330964530e+00	 6.641345116353236e+00
 8.266458690204215e-01	 1.369911167642440e+00	 7.953906038033755e+00
 8.134596210054517e-01	 1.377782074565374e+00	 7.817897876010120e+00
 8.002145885076781e-01	 1.385516731165484e+00	 7.686907871167634e+00
 7.869128421227211e-01	 1.393114560580838e+00	 7.559633432902579e+00
 7.735564578783428e-01	 1.400575027078061e+00	 7.434792160581287e+00
 7.601475162343525e-01	 1.407897636038481e+00	 7.311130781629759e+00
 7.466881010872306e-01	 1.415081933915752e+00	 7.187433494427692e+00
 7.331802987803868e-01	 1.422127508165250e+00	 7.062529678621081e+00
 7.196261971209740e-01	 1.429033987145583e+00	 6.935300940618479e+00
 7.060278844041356e-01	 1.435801039992596e+00	 6.804687467242151e+00
 6.923874484455627e-01	 1.442428376466244e+00	 6.669693665804667e+00
 8.296850082447613e-01	 1.374947605758772e+00	 7.972034386712845e+00
 8.164502813767951e-01	 1.382847449839512e+00	 7.837148679607015e+00
 8.031565539066031e-01	 1.390610542677121e+00	 7.707225607754085e+00
 7.898059040422898e-01	 1.398236305288856e+00	 7.580963575438465e+00
 7.764004154440720e-01	 1.405724199971731e+00	 7.457082842958144e+00
 7.629421762205084e-01	 1.413073730288623e+00	 7.334334634973585e+00
 7.494332779294630e-01	 1.420284441025737e+00	 7.211509635988729e+00
 7.358758145847265e-01	 1.427355918121740e+00	 7.087445834792369e+00
 7.222718816692129e-01	 1.434287788568914e+00	 6.961035684921647e+00
 7.086235751556215e-01	 1.441079720286687e+00	 6.831232553582520e+00
 6.949329905354360e-01	 1.447731421967957e+00	 6.697056436862770e+00
 8.327241474691008e-01	 1.379984043875104e+00	 7.989320180563576e+00
 8.194409417481388e-01	 1.387912825113649e+00	 7.855549290054700e+00
 8.060985193055282e-01	 1.395704354188759e+00	 7.726686099612587e+00
 7.926989659618586e-01	 1.403358049996874e+00	 7.601430789433909e+00
 7.792443730098011e-01	 1.410873372865400e+00	 7.478507113177603e+00
 7.657368362066647e-01	 1.418249824538765e+00	 7.356671679434598e+00
 7.521784547716953e-01	 1.425486948135721e+00	 7.234722602295799e+00
 7.385713303890662e-01	 1.432584328078230e+00	 7.111507482000496e+00
 7.249175662174517e-01	 1.439541589992243e+00	 6.985930682046578e+00
 7.112192659071072e-01	 1.446358400580777e+00	 6.856959874622708e+00
 6.974785326253093e-01	 1.453034467469672e+00	 6.723631831782953e+00
 8.357632866934406e-01	 1.385020481991436e+00	 8.005988877373419e+00
 8.224316021194824e-01	 1.392978200387787e+00	 7.873322861563907e+00
 8.090404847044539e-01	 1.400798165700397e+00	 7.745510175345874e+00
 7.955920278814276e-01	 1.408479794704892e+00	 7.621253532686344e+00
 7.820883305755306e-01	 1.416022545759069e+00	 7.499280990854599e+00
 7.685314961928199e-01	 1.423425918788905e+00	 7.378355407986414e+00
 7.549236316139281e-01	 1.430689455245705e+00	 7.257283251305422e+00
 7.412668461934057e-01	 1.437812738034719e+00	 7.134922716150150e+00
 7.275632507656904e-01	 1.444795391415572e+00	 7.010191121469211e+00
 7.138149566585928e-01	 1.451637080874867e+00	 6.882071553084780e+00
 7.000240747151828e-01	 1.458337512971386e+00	 6.749618731695634e+00
 8.388024259177808e-01	 1.390056920107770e+00	 8.022265873338949e+00
 8.254222624908257e-01	 1.398043575661923e+00	 7.890692552550279e+00
 8.119824501033790e-01	 1.405891977212036e+00	 7.763918730877296e+00
 7.984850898009964e-01	 1.413601539412909e+00	 7.640650390577340e+00
 7.849322881412595e-01	 1.421171718652739e+00	 7.519620680450908e+00
 7.713261561789758e-01	 1.428602013039047e+00	 7.399599552563151e+00
 7.576688084561604e-01	 1.435891962355690e+00	 7.279402730778235e+00
 7.439623619977457e-01	 1.443041147991209e+00	 7.157899970408542e+00
 7.302089353139295e-01	 1.450049192838902e+00	 7.034022573912759e+00
 7.164106474100786e-01	 1.456915761168958e+00	 6.906770133367520e+00
 7.025696168050563e-01	 1.463640558473100e+00	 6.775216476231312e+00
 8.418415651421204e-01	 1.395093358224102e+00	 8.038376464315247e+00
 8.284129228621692e-01	 1.403108950936061e+00	 7.907881488673239e+00
 8.149244155023044e-01	 1.410985788723673e+00	 7.782132694300817e+00
 8.013781517205651e-01	 1.418723284120927e+00	 7.659840042750192e+00
 7.877762457069888e-01	 1.426320891546408e+00	 7.539742539785395e+00
 7.741208161651314e-01	 1.433778107289189e+00	 7.420618054409225e+00
 7.604139852983929e-01	 1.441094469465674e+00	 7.301292450463637e+00
 7.466578778020853e-01	 1.448269557947699e+00	 7.180647989220898e+00
 7.328546198621684e-01	 1.455302994262231e+00	 7.057630967179898e+00
 7.190063381615642e-01	 1.462194441463048e+00	 6.931258559183178e+00
 7.051151588949295e-01	 1.468943603974814e+00	 6.800624842935814e+00
 8.448807043664602e-01	 1.400129796340435e+00	 8.054545806907973e+00
 8.314035832335128e-01	 1.408174326210199e+00	 7.925112725716476e+00
 8.178663809012295e-01	 1.416079600235310e+00	 7.800372990566707e+00
 8.042712136401339e-01	 1.423845028828944e+00	 7.679041229618358e+00
 7.906202032727179e-01	 1.431470064440077e+00	 7.559863048371801e+00
 7.769154761512870e-01	 1.438954201539330e+00	 7.441625034250928e+00
 7.631591621406255e-01	 1.446296976575658e+00	 7.323164054103135e+00
 7.493533936064247e-01	 1.453497967904189e+00	 7.203375802140378e+00
 7.355003044104071e-01	 1.460556795685560e+00	 7.081222561794945e+00
 7.216020289130500e-01	 1.467473121757138e+00	 6.955740150993863e+00
 7.076607009848030e-01	 1.474246649476528e+00	 6.826044026479803e+00
 8.479198435908000e-01	 1.405166234456767e+00	 8.070998879413665e+00
 8.343942436048565e-01	 1.413239701484336e+00	 7.942609212311624e+00
 8.208083463001549e-01	 1.421173411746948e+00	 7.818860506010009e+00
 8.071642755597029e-01	 1.428966773536962e+00	 7.698472718710086e+00
 7.934641608384473e-01	 1.436619237333746e+00	 7.580198775591194e+00
 7.797101361374426e-01	 1.444130295789471e+00	 7.462834762297289e+00
 7.659043389828578e-01	 1.451499483685643e+00	 7.345229391258366e+00
 7.520489094107644e-01	 1.458726377860679e+00	 7.226292697472463e+00
 7.381459889586459e-01	 1.465810597108889e+00	 7.105003926456038e+00
 7.241977196645361e-01	 1.472751802051229e+00	 6.980418583255087e+00
 7.102062430746764e-01	 1.479549694978242e+00	 6.851674617670831e+00
 8.509589828151398e-01	 1.410202672573099e+00	 8.087960442609379e+00
 8.373849039762001e-01	 1.418305076758474e+00	 7.960593752510627e+00
 8.237503116990805e-01	 1.426267223258587e+00	 7.837816052723994e+00
 8.100573374792719e-01	 1.434088518244980e+00	 7.718353270855252e+00
 7.963081184041765e-01	 1.441768410227416e+00	 7.600966348699060e+00
 7.825047961235986e-01	 1.449306390039613e+00	 7.484461628070959e+00
 7.686495158250903e-01	 1.456701990795628e+00	 7.367700488964342e+00
 7.547444252151042e-01	 1.463954787817169e+00	 7.249608195745502e+00
 7.407916735068850e-01	 1.471064398532219e+00	 7.129181913309134e+00
 7.267934104160221e-01	 1.478030482345320e+00	 7.005497861472532e+00
 7.127517851645497e-01	 1.484852740479956e+00	 6.877717582272243e+00
 6.872963642658158e-01	 1.431822285462816e+00	 6.611812885291718e+00
 6.737164831553930e-01	 1.438261954515136e+00	 6.475689398092159e+00
 6.600989282383419e-01	 1.444562478544823e+00	 6.344703370711061e+00
 6.464457648839964e-01	 1.450723689247720e+00	 6.217876098993309e+00
 6.327590542434408e-01	 1.456745457776998e+00	 6.094295432429713e+00
 6.190408523426046e-01	 1.462627694463602e+00	 5.973117703612534e+00
 6.052932091883121e-01	 1.468370348512760e+00	 5.853568973072180e+00
 5.915181678879828e-01	 1.473973407677158e+00	 5.734945602436444e+00
 5.777177637836530e-01	 1.479436897907371e+00	 5.615355794804296e+00
 5.638940236009593e-01	 1.484760882980182e+00	 5.491988308776580e+00
 5.500489646136953e-01	 1.489945464105438e+00	 5.365575307196042e+00
 6.898419063556892e-01	 1.437125330964530e+00	 6.641345116353243e+00
 6.762117293893020e-01	 1.443588850642969e+00	 6.505949201640513e+00
 6.625437390836690e-01	 1.449912709946840e+00	 6.375651414298727e+00
 6.488400084576407e-01	 1.456096739948637e+00	 6.249474010820561e+00
 6.351026062961943e-01	 1.462140811324320e+00	 6.126507949227062e+00
 6.213335962401698e-01	 1.468044834072726e+00	 6.005914822255371e+00
 6.075350358890097e-01	 1.473808757210955e+00	 5.886928086715713e+00
 5.937089759171978e-01	 1.479432568446332e+00	 5.768853602350767e+00
 5.798574592050740e-01	 1.484916293825547e+00	 5.650261249794479e+00
 5.659825199846665e-01	 1.490259997361590e+00	 5.527923694539136e+00
 5.520861830011534e-01	 1.495463780639162e+00	 5.402353800207488e+00
 6.923874484455627e-01	 1.442428376466244e+00	 6.669693665804667e+00
 6.787069756232108e-01	 1.448915746770804e+00	 6.535069559065169e+00
 6.649885499289964e-01	 1.455262941348858e+00	 6.405508043595589e+00
 6.512342520312854e-01	 1.461469790649555e+00	 6.280030658125558e+00
 6.374461583489477e-01	 1.467536164871642e+00	 6.157729828553828e+00
 6.236263401377351e-01	 1.473461973681851e+00	 6.037770808104322e+00
 6.097768625897070e-01	 1.479247165909150e+00	 5.919392893998959e+00
 5.958997839464125e-01	 1.484891729215507e+00	 5.801909934359321e+00
 5.819971546264949e-01	 1.490395689743722e+00	 5.684256649997774e+00
 5.680710163683736e-01	 1.495759111742998e+00	 5.563010550157941e+00
 5.541234013886116e-01	 1.500982097172886e+00	 5.438334815404386e+00
 6.949329905354360e-01	 1.447731421967957e+00	 6.697056436862779e+00
 6.812022218571195e-01	 1.454242642898637e+00	 6.563244642685333e+00
 6.674333607743236e-01	 1.460613172750877e+00	 6.434463050043831e+00
 6.536284956049295e-01	 1.466842841350472e+00	 6.309730826015368e+00
 6.397897104017012e-01	 1.472931518418965e+00	 6.188140249911916e+00
 6.259190840353004e-01	 1.478879113290974e+00	 6.068858663639397e+00
 6.120186892904045e-01	 1.484685574607346e+00	 5.951129678455555e+00
 5.980905919756271e-01	 1.490350889984682e+00	 5.834273652237570e+00
 5.841368500479162e-01	 1.495875085661897e+00	 5.717489414422374e+00
 5.701595127520808e-01	 1.501258226124406e+00	 5.597388272791444e+00
 5.561606197760697e-01	 1.506500413706610e+00	 5.473649512491890e+00
 6.974785326253093e-01	 1.453034467469672e+00	 6.723631831782946e+00
 6.836974680910286e-01	 1.459569539026471e+00	 6.590669157015951e+00
 6.698781716196507e-01	 1.465963404152894e+00	 6.462706793519144e+00
 6.560227391785740e-01	 1.472215892051389e+00	 6.338759906850715e+00
 6.421332624544547e-01	 1.478326871966287e+00	 6.217919040985768e+00
 6.282118279328653e-01	 1.484296252900099e+00	 6.099352082097505e+00
 6.142605159911020e-01	 1.490123983305541e+00	 5.982305458157182e+00
 6.002814000048419e-01	 1.495810050753856e+00	 5.866104588867285e+00
 5.862765454693369e-01	 1.501354481580072e+00	 5.750107853589185e+00
 5.722480091357881e-01	 1.506757340505814e+00	 5.631197121355727e+00
 5.581978381635279e-01	 1.512018730240335e+00	 5.508429888165452e+00
 7.000240747151828e-01	 1.458337512971386e+00	 6.749618731695634e+00
 6.861927143249372e-01	 1.464896435154305e+00	 6.617538320309283e+00
 6.723229824649778e-01	 1.471313635554912e+00	 6.490430185419294e+00
 6.584169827522184e-01	 1.477588942752307e+00	 6.367303884734584e+00
 6.444768145072081e-01	 1.483722225513609e+00	 6.247246663384860e+00
 6.305045718304306e-01	 1.489713392509224e+00	 6.129425434332495e+00
 6.165023426917994e-01	 1.495562392003737e+00	 6.013087973559575e+00
 6.024722080340567e-01	 1.501269211523031e+00	 5.897563344936753e+00
 5.884162408907578e-01	 1.506833877498248e+00	 5.782261574506792e+00
 5.743365055194952e-01	 1.512256454887222e+00	 5.664578226022315e+00
 5.602350565509859e-01	 1.517537046774058e+00	 5.542808784836533e+00
 7.025696168050563e-01	 1.463640558473100e+00	 6.775216476231312e+00
 6.886879605588464e-01	 1.470223331282139e+00	 6.644047845873915e+00
 6.747677933103050e-01	 1.476663866956930e+00	 6.517824671529629e+00
 6.608112263258630e-01	 1.482961993453224e+00	 6.395549319779288e+00
 6.468203665599617e-01	 1.489117579060931e+00	 6.276304198168811e+00
 6.327973157279959e-01	 1.495130532118349e+00	 6.159253755462692e+00
 6.187441693924969e-01	 1.501000800701932e+00	 6.043645675138318e+00
 6.046630160632713e-01	 1.506728372292206e+00	 5.928811277442518e+00
 5.905559363121787e-01	 1.512313273416423e+00	 5.814165150263216e+00
 5.764250019032027e-01	 1.517755569268630e+00	 5.697673597542666e+00
 5.622722749384441e-01	 1.523055363307782e+00	 5.576919899202491e+00
 7.051151588949295e-01	 1.468943603974814e+00	 6.800624842935814e+00
 6.911832067927550e-01	 1.475550227409972e+00	 6.670393923180721e+00
 6.772126041556322e-01	 1.482014098358948e+00	 6.545082214674586e+00
 6.632054698995073e-01	 1.488335044154141e+00	 6.423683332156536e+00
 6.491639186127153e-01	 1.494512932608254e+00	 6.305273331162681e+00
 6.350900596255611e-01	 1.500547671727472e+00	 6.189012731313806e+00
 6.209859960931943e-01	 1.506439209400127e+00	 6.074147710829120e+00
 6.068538240924862e-01	 1.512187533061380e+00	 5.960010487999012e+00
 5.926956317335997e-01	 1.517792669334599e+00	 5.846018910393425e+00
 5.785134982869099e-01	 1.523254683650038e+00	 5.730626136405387e+00
 5.643094933259021e-01	 1.528573679841505e+00	 5.610897790660005e+00
 7.076607009848030e-01	 1.474246649476528e+00	 6.826044026479803e+00
 6.936784530266640e-01	 1.480877123537806e+00	 6.696773198762267e+00
 6.796574150009594e-01	 1.487364329760965e+00	 6.572395277157051e+00
 6.655997134731518e-01	 1.493708094855059e+00	 6.451893585940173e+00
 6.515074706654687e-01	 1.499908286155576e+00	 6.334336338060871e+00
 6.373828035231262e-01	 1.505964811336597e+00	 6.218878684653834e+00
 6.232278227938919e-01	 1.511877618098323e+00	 6.104763913268507e+00
 6.090446321217009e-01	 1.517646693830555e+00	 5.991323810963140e+00
 5.948353271550205e-01	 1.523272065252774e+00	 5.877978213568057e+00
 5.806019946706172e-01	 1.528753798031447e+00	 5.763579641828835e+00
 5.663467117133605e-01	 1.534091996375229e+00	 5.644877889570604e+00
 7.102062430746764e-01	 1.479549694978242e+00	 6.851674617670831e+00
 6.961736992605727e-01	 1.486204019665640e+00	 6.723382756906140e+00
 6.821022258462867e-01	 1.492714561162983e+00	 6.599956802994555e+00
 6.679939570467963e-01	 1.499081145555977e+00	 6.480368272742650e+00
 6.538510227182223e-01	 1.505303639702898e+00	 6.363676069331948e+00
 6.396755474206914e-01	 1.511381950945721e+00	 6.249028561235368e+00
 6.254696494945893e-01	 1.517316026796518e+00	 6.135664786847776e+00
 6.112354401509157e-01	 1.523105854599729e+00	 6.022914801376837e+00
 5.969750225764417e-01	 1.528751461170949e+00	 5.910199187859916e+00
 5.826904910543244e-01	 1.534252912412855e+00	 5.796678820595378e+00
 5.683839301008183e-01	 1.539610312908953e+00	 5.678996505379354e+00
 7.127517851645497e-01	 1.484852740479956e+00	 6.877717582272243e+00
 6.986689454944818e-01	 1.491530915793474e+00	 6.750420100152943e+00
 6.845470366916138e-01	 1.498064792565001e+00	 6.627960199952479e+00
 6.703882006204407e-01	 1.504454196256894e+00	 6.509296095150959e+00
 6.561945747709756e-01	 1.510698993250221e+00	 6.393475934924249e+00
 6.419682913182568e-01	 1.516799090554846e+00	 6.279639915645621e+00
 6.277114761952866e-01	 1.522754435494714e+00	 6.167021494577662e+00
 6.134262481801306e-01	 1.528565015368905e+00	 6.054947722731280e+00
 5.991147179978625e-01	 1.534230857089125e+00	 5.942838719290802e+00
 5.847789874380317e-01	 1.539752026794263e+00	 5.830069295729812e+00
 5.704211484882766e-01	 1.545128629442677e+00	 5.713390834589387e+00
 5.500489646136953e-01	 1.489945464105438e+00	 5.365575307196042e+00
 5.361845938245324e-01	 1.494990779512098e+00	 5.238522028250942e+00
 5.223029071624458e-01	 1.499897004014151e+00	 5.112732576032377e+00
 5.084058886973842e-01	 1.504664348557110e+00	 4.988403155165167e+00
 4.944955098726699e-01	 1.509293059745766e+00	 4.865770642772638e+00
 4.805737287555939e-01	 1.513783419353943e+00	 4.745106625398122e+00
 4.666424893066400e-01	 1.518135743816959e+00	 4.626711709365124e+00
 4.527037206677429e-01	 1.522350383707558e+00	 4.510910115383420e+00
 4.387593364699473e-01	 1.526427723196031e+00	 4.398044566453830e+00
 4.248112341608143e-01	 1.530368179495292e+00	 4.288471476387926e+00
 4.108612943518802e-01	 1.534172202291668e+00	 4.182556444562160e+00
 5.520861830011534e-01	 1.495463780639162e+00	 5.402353800207495e+00
 5.381704626905491e-01	 1.500527782399180e+00	 5.275960768429780e+00
 5.242373623741584e-01	 1.505452178103092e+00	 5.150651149283941e+00
 5.102888734703375e-01	 1.510237179477692e+00	 5.026644967406924e+00
 4.963269747240504e-01	 1.514883034041121e+00	 4.904202265731935e+00
 4.823536314546887e-01	 1.519390024610809e+00	 4.783617037935719e+00
 4.683707948225905e-01	 1.523758468794059e+00	 4.665211441986804e+00
 4.543804011146604e-01	 1.527988718462031e+00	 4.549330305704437e+00
 4.403843710494657e-01	 1.532081159207869e+00	 4.436335933429445e+00
 4.263846091021508e-01	 1.536036209789719e+00	 4.326603221159227e+00
 4.123830028494798e-01	 1.539854321559414e+00	 4.220515085763340e+00
 5.541234013886116e-01	 1.500982097172886e+00	 5.438334815404386e+00
 5.401563315565657e-01	 1.506064785286261e+00	 5.312640567807727e+00
 5.261718175858711e-01	 1.511007352192034e+00	 5.187837723358821e+00
 5.121718582432907e-01	 1.515810010398274e+00	 5.064173117686321e+00
 4.981584395754305e-01	 1.520473008336475e+00	 4.941932947913015e+00
 4.841335341537836e-01	 1.524996629867675e+00	 4.821436595685913e+00
 4.700991003385410e-01	 1.529381193771159e+00	 4.703030739134389e+00
 4.560570815615782e-01	 1.533627053216504e+00	 4.587083764781209e+00
 4.420094056289839e-01	 1.537734595219706e+00	 4.473980488568600e+00
 4.279579840434872e-01	 1.541704240084147e+00	 4.364117193383383e+00
 4.139047113470793e-01	 1.545536440827162e+00	 4.257896988688842e+00
 5.561606197760697e-01	 1.506500413706610e+00	 5.473649512491890e+00
 5.421422004225828e-01	 1.511601788173344e+00	 5.348684536745932e+00
 5.281062727975839e-01	 1.516562526280975e+00	 5.224407916934489e+00
 5.140548430162442e-01	 1.521382841318856e+00	 5.101096274724452e+00
 4.999899044268108e-01	 1.526062982631830e+00	 4.979064933294582e+00
 4.859134368528781e-01	 1.530603235124541e+00	 4.858661625996394e+00
 4.718274058544915e-01	 1.535003918748258e+00	 4.740260501967158e+00
 4.577337620084955e-01	 1.539265387970976e+00	 4.624256439798705e+00
 4.436344402085025e-01	 1.543388031231543e+00	 4.511059678524045e+00
 4.295313589848234e-01	 1.547372270378573e+00	 4.401090773314284e+00
 4.154264198446789e-01	 1.551218560094909e+00	 4.294775881506188e+00
 5.581978381635279e-01	 1.512018730240335e+00	 5.508429888165452e+00
 5.441280692885995e-01	 1.517138791060425e+00	 5.384216597152252e+00
 5.300407280092966e-01	 1.522117700369916e+00	 5.260478128941907e+00
 5.159378277891972e-01	 1.526955672239438e+00	 5.137523850800043e+00
 5.018213692781910e-01	 1.531652956927185e+00	 5.015701167746339e+00
 4.876933395519731e-01	 1.536209840381409e+00	 4.895389111915992e+00
 4.735557113704421e-01	 1.540626643725359e+00	 4.776992237061632e+00
 4.594104424554131e-01	 1.544903722725449e+00	 4.660934829417056e+00
 4.452594747880206e-01	 1.549041467243380e+00	 4.547655444247355e+00
 4.311047339261597e-01	 1.553040300673000e+00	 4.437601775522293e+00
 4.169481283422785e-01	 1.556900679362656e+00	 4.331225864328334e+00
 5.602350565509859e-01	 1.517537046774058e+00	 5.542808784836533e+00
 5.461139381546164e-01	 1.522675793947507e+00	 5.419361490473593e+00
 5.319751832210095e-01	 1.527672874458858e+00	 5.296165545955961e+00
 5.178208125621505e-01	 1.532528503160019e+00	 5.173566008659446e+00
 5.036528341295714e-01	 1.537242931222539e+00	 5.051945305583969e+00
 4.894732422510679e-01	 1.541816445638275e+00	 4.931716698496163e+00
 4.752840168863925e-01	 1.546249368702459e+00	 4.813318062568783e+00
 4.610871229023307e-01	 1.550542057479921e+00	 4.697205989878794e+00
 4.468845093675391e-01	 1.554694903255218e+00	 4.583850227138992e+00
 4.326781088674961e-01	 1.558708330967427e+00	 4.473728455167270e+00
 4.184698368398780e-01	 1.562582798630402e+00	 4.367321415691040e+00
 5.622722749384441e-01	 1.523055363307782e+00	 5.576919899202491e+00
 5.480998070206330e-01	 1.528212796834589e+00	 5.454244785544123e+00
 5.339096384327222e-01	 1.533228048547799e+00	 5.331588149453118e+00
 5.197037973351037e-01	 1.538101334080601e+00	 5.209333668302735e+00
 5.054842989809516e-01	 1.542832905517894e+00	 5.087901716000005e+00
 4.912531449501626e-01	 1.547423050895141e+00	 4.967742698980716e+00
 4.770123224023430e-01	 1.551872093679558e+00	 4.849330714261353e+00
 4.627638033492484e-01	 1.556180392234394e+00	 4.733157541005211e+00
 4.485095439470574e-01	 1.560348339267055e+00	 4.619726975082854e+00
 4.342514838088325e-01	 1.564376361261854e+00	 4.509549514155758e+00
 4.199915453374776e-01	 1.568264917898150e+00	 4.403137398899434e+00
 5.643094933259021e-01	 1.528573679841505e+00	 5.610897790660005e+00
 5.500856758866499e-01	 1.533749799721671e+00	 5.488992886293666e+00
 5.358440936444351e-01	 1.538783222636740e+00	 5.366864722937197e+00
 5.215867821080570e-01	 1.543674165001183e+00	 5.244938513652830e+00
 5.073157638323318e-01	 1.548422879813249e+00	 5.123675489380082e+00
 4.930330476492574e-01	 1.553029656152007e+00	 5.003566100880504e+00
 4.787406279182936e-01	 1.557494818656658e+00	 4.885123551462106e+00
 4.644404837961657e-01	 1.561818726988865e+00	 4.768877672079903e+00
 4.501345785265756e-01	 1.566001775278892e+00	 4.655369148366329e+00
 4.358248587501689e-01	 1.570044391556282e+00	 4.545144107174190e+00
 4.215132538350772e-01	 1.573947037165896e+00	 4.438749068252128e+00
 5.663467117133605e-01	 1.534091996375229e+00	 5.644877889570596e+00
 5.520715447526667e-01	 1.539286802608753e+00	 5.523733039316115e+00
 5.377785488561477e-01	 1.544338396725681e+00	 5.402114858939201e+00
 5.234697668810104e-01	 1.549246995921765e+00	 5.280492999097911e+00
 5.091472286837122e-01	 1.554012854108604e+00	 5.159372443509863e+00
 4.948129503483522e-01	 1.558636261408874e+00	 5.039286571937405e+00
 4.804689334342441e-01	 1.563117543633757e+00	 4.920790562870273e+00
 4.661171642430833e-01	 1.567457061743338e+00	 4.804455147620572e+00
 4.517596131060940e-01	 1.571655211290729e+00	 4.690860725488292e+00
 4.373982336915050e-01	 1.575712421850708e+00	 4.580591847610326e+00
 4.230349623326767e-01	 1.579629156433643e+00	 4.474232075145072e+00
 5.683839301008183e-01	 1.539610312908953e+00	 5.678996505379354e+00
 5.540574136186835e-01	 1.544823805495835e+00	 5.558593341308006e+00
 5.397130040678604e-01	 1.549893570814622e+00	 5.437458965893921e+00
 5.253527516539636e-01	 1.554819826842347e+00	 5.316110355924561e+00
 5.109786935350922e-01	 1.559602828403958e+00	 5.195099129664989e+00
 4.965928530474471e-01	 1.564242866665741e+00	 5.075004465983906e+00
 4.821972389501946e-01	 1.568740268610858e+00	 4.956426372278715e+00
 4.677938446900010e-01	 1.573095396497811e+00	 4.839979313049017e+00
 4.533846476856122e-01	 1.577308647302565e+00	 4.726286208857394e+00
 4.389716086328415e-01	 1.581380452145135e+00	 4.615972813358826e+00
 4.245566708302762e-01	 1.585311275701390e+00	 4.509662474055455e+00
 5.704211484882766e-01	 1.545128629442677e+00	 5.713390834589387e+00
 5.560432824847004e-01	 1.550360808382916e+00	 5.593702746375831e+00
 5.416474592795733e-01	 1.555448744903564e+00	 5.473018274896334e+00
 5.272357364269170e-01	 1.560392657762929e+00	 5.351904598635800e+00
 5.128101583864727e-01	 1.565192802699314e+00	 5.230962838599511e+00
 4.983727557465419e-01	 1.569849471922607e+00	 5.110820828694490e+00
 4.839255444661452e-01	 1.574362993587958e+00	 4.992126244190528e+00
 4.694705251369186e-01	 1.578733731252283e+00	 4.875540100252991e+00
 4.550096822651306e-01	 1.582962083314403e+00	 4.761730630386675e+00
 4.405449835741779e-01	 1.587048482439562e+00	 4.651367552521128e+00
 4.260783793278759e-01	 1.590993394969137e+00	 4.545116728412115e+00
 4.108612943518802e-01	 1.534172202291668e+00	 4.182556444562160e+00
 3.969113801864550e-01	 1.537840273162155e+00	 4.078659885664165e+00
 3.829633367280000e-01	 1.541372904978910e+00	 3.975269389722122e+00
 3.690189903693139e-01	 1.544770641301738e+00	 3.872941072083030e+00
 3.550801482627124e-01	 1.548034055759336e+00	 3.772222336163902e+00
 3.411485977713604e-01	 1.551163751420076e+00	 3.673648892536610e+00
 3.272261059418918e-01	 1.554160360153056e+00	 3.577742089789391e+00
 3.133144189984156e-01	 1.557024541980201e+00	 3.485006552504404e+00
 2.994152618579862e-01	 1.559756984420164e+00	 3.395928120526758e+00
 2.855303376675831e-01	 1.562358401824755e+00	 3.310972082599765e+00
 2.716613273626191e-01	 1.564829534708669e+00	 3.230581696447442e+00
 4.123830028494798e-01	 1.539854321559414e+00	 4.220515085763340e+00
 3.983814223352939e-01	 1.543535977877570e+00	 4.116431508233557e+00
 3.843817194566221e-01	 1.547081693515870e+00	 4.012836273224737e+00
 3.703857273706817e-01	 1.550492014047299e+00	 3.910295854860291e+00
 3.563952599229446e-01	 1.553767515225111e+00	 3.809366668777397e+00
 3.424121110964397e-01	 1.556908802351262e+00	 3.710592067824128e+00
 3.284380544824173e-01	 1.559916509635104e+00	 3.614499656633821e+00
 3.144748427724838e-01	 1.562791299543091e+00	 3.521598920208328e+00
 3.005242072722750e-01	 1.565533862140238e+00	 3.432379160467634e+00
 2.865878574367223e-01	 1.568144914424107e+00	 3.347307733601976e+00
 2.726674804269251e-01	 1.570625199652034e+00	 3.266828580039912e+00
 4.139047113470793e-01	 1.545536440827162e+00	 4.257896988688842e+00
 3.998514644841326e-01	 1.549231682592986e+00	 4.153680939198556e+00
 3.858001021852444e-01	 1.552790482052828e+00	 4.049946573520964e+00
 3.717524643720496e-01	 1.556213386792862e+00	 3.947267604780136e+00
 3.577103715831769e-01	 1.559500974690887e+00	 3.846206320155603e+00
 3.436756244215186e-01	 1.562653853282447e+00	 3.747310557437621e+00
 3.296500030229427e-01	 1.565672659117152e+00	 3.651111007556511e+00
 3.156352665465519e-01	 1.568558057105981e+00	 3.558118838029837e+00
 3.016331526865639e-01	 1.571310739860313e+00	 3.468823631028707e+00
 2.876453772058615e-01	 1.573931427023458e+00	 3.383691628668075e+00
 2.736736334912310e-01	 1.576420864595399e+00	 3.303164277062224e+00
 4.154264198446789e-01	 1.551218560094909e+00	 4.294775881506188e+00
 4.013215066329713e-01	 1.554927387308401e+00	 4.190478384656841e+00
 3.872184849138667e-01	 1.558499270589788e+00	 4.086666863949368e+00
 3.731192013734173e-01	 1.561934759538424e+00	 3.983919196402865e+00
 3.590254832434090e-01	 1.565234434156662e+00	 3.882800444032018e+00
 3.449391377465977e-01	 1.568398904213633e+00	 3.783859815474426e+00
 3.308619515634684e-01	 1.571428808599201e+00	 3.687627960713382e+00
 3.167956903206201e-01	 1.574324814668870e+00	 3.594614593608507e+00
 3.027420981008527e-01	 1.577087617580387e+00	 3.505306435710389e+00
 2.887028969750007e-01	 1.579717939622808e+00	 3.420165473694841e+00
 2.746797865555370e-01	 1.582216529538765e+00	 3.339627521691225e+00
 4.169481283422785e-01	 1.556900679362656e+00	 4.331225864328334e+00
 4.027915487818100e-01	 1.560623092023817e+00	 4.226894362165742e+00
 3.886368676424888e-01	 1.564208059126746e+00	 4.123063974325787e+00
 3.744859383747852e-01	 1.567656132283985e+00	 4.020313710735405e+00
 3.603405949036413e-01	 1.570967893622437e+00	 3.919208354946329e+00
 3.462026510716769e-01	 1.574143955144818e+00	 3.820295415038110e+00
 3.320739001039940e-01	 1.577184958081249e+00	 3.724102414737826e+00
 3.179561140946884e-01	 1.580091572231759e+00	 3.631134519253402e+00
 3.038510435151416e-01	 1.582864495300462e+00	 3.541872489037801e+00
 2.897604167441398e-01	 1.585504452222159e+00	 3.456770953565369e+00
 2.756859396198431e-01	 1.588012194482131e+00	 3.376256996103142e+00
 4.184698368398780e-01	 1.562582798630402e+00	 4.367321415691040e+00
 4.042615909306487e-01	 1.566318796739232e+00	 4.262999707416215e+00
 3.900552503711111e-01	 1.569916847663705e+00	 4.159204997752043e+00
 3.758526753761530e-01	 1.573377505029547e+00	 4.056514442112393e+00
 3.616557065638736e-01	 1.576701353088212e+00	 3.955489535156442e+00
 3.474661643967559e-01	 1.579889006076003e+00	 3.856673055135607e+00
 3.332858486445195e-01	 1.582941107563297e+00	 3.760586355609340e+00
 3.191165378687567e-01	 1.585858329794649e+00	 3.667726998763664e+00
 3.049599889294304e-01	 1.588641373020537e+00	 3.578566723328100e+00
 2.908179365132791e-01	 1.591290964821511e+00	 3.493549738865984e+00
 2.766920926841490e-01	 1.593807859425496e+00	 3.413091337154941e+00
 4.199915453374776e-01	 1.568264917898150e+00	 4.403137398899434e+00
 4.057316330794873e-01	 1.572014501454648e+00	 4.298865580774972e+00
 3.914736330997332e-01	 1.575625636200664e+00	 4.195157297280977e+00
 3.772194123775208e-01	 1.579098877775109e+00	 4.092584904936706e+00
 3.629708182241060e-01	 1.582434812553988e+00	 3.991703641403103e+00
 3.487296777218350e-01	 1.585634057007189e+00	 3.893048567440721e+00
 3.344977971850450e-01	 1.588697257045346e+00	 3.797131863377430e+00
 3.202769616428249e-01	 1.591625087357538e+00	 3.704440474105179e+00
 3.060689343437192e-01	 1.594418250740611e+00	 3.615434095310804e+00
 2.918754562824181e-01	 1.597077477420861e+00	 3.530543492459175e+00
 2.776982457484550e-01	 1.599603524368862e+00	 3.450169142921720e+00
 4.215132538350772e-01	 1.573947037165896e+00	 4.438749068252128e+00
 4.072016752283263e-01	 1.577710206170063e+00	 4.334563473693017e+00
 3.928920158283554e-01	 1.581334424737623e+00	 4.230988512452941e+00
 3.785861493788887e-01	 1.584820250520672e+00	 4.128588840280286e+00
 3.642859298843381e-01	 1.588168272019763e+00	 4.027910511541595e+00
 3.499931910469142e-01	 1.591379107938374e+00	 3.929477922910449e+00
 3.357097457255704e-01	 1.594453406527394e+00	 3.833791118752119e+00
 3.214373854168929e-01	 1.597391844920428e+00	 3.741323451949515e+00
 3.071778797580081e-01	 1.600195128460687e+00	 3.652519592616536e+00
 2.929329760515574e-01	 1.602863990020212e+00	 3.567793875919553e+00
 2.787043988127610e-01	 1.605399189312227e+00	 3.487528979099794e+00
 4.230349623326767e-01	 1.579629156433643e+00	 4.474232075145072e+00
 4.086717173771647e-01	 1.583405910885478e+00	 4.370165214993783e+00
 3.943103985569777e-01	 1.587043213274582e+00	 4.266766565698425e+00
 3.799528863802565e-01	 1.590541623266233e+00	 4.164590222359801e+00
 3.656010415445705e-01	 1.593901731485538e+00	 4.064170171033066e+00
 3.512567043719933e-01	 1.597124158869560e+00	 3.966017238270835e+00
 3.369216942660960e-01	 1.600209556009442e+00	 3.870616409549975e+00
 3.225978091909613e-01	 1.603158602483318e+00	 3.778424510076112e+00
 3.082868251722968e-01	 1.605972006180761e+00	 3.689868240123983e+00
 2.939904958206966e-01	 1.608650502619563e+00	 3.605342555836507e+00
 2.797105518770669e-01	 1.611194854255592e+00	 3.525209385271322e+00
 4.245566708302762e-01	 1.585311275701390e+00	 4.509662474055455e+00
 4.101417595260036e-01	 1.589101615600893e+00	 4.405742977031327e+00
 3.957287812855999e-01	 1.592752001811541e+00	 4.302559668616611e+00
 3.813196233816243e-01	 1.596262996011795e+00	 4.200653264873225e+00
 3.669161532048027e-01	 1.599635190951314e+00	 4.100542839309888e+00
 3.525202176970724e-01	 1.602869209800745e+00	 4.002722782369425e+00
 3.381336428066214e-01	 1.605965705491490e+00	 3.907660137016279e+00
 3.237582329650293e-01	 1.608925360046207e+00	 3.815792303644316e+00
 3.093957705865857e-01	 1.611748883900835e+00	 3.727525106178526e+00
 2.950480155898358e-01	 1.614437015218914e+00	 3.643231209983196e+00
 2.807167049413730e-01	 1.616990519198958e+00	 3.563248881041019e+00
 4.260783793278759e-01	 1.590993394969137e+00	 4.545116728412115e+00
 4.116118016748424e-01	 1.594797320316309e+00	 4.441369281734460e+00
 3.971471640142222e-01	 1.598460790348500e+00	 4.338436328127960e+00
 3.826863603829921e-01	 1.601984368757357e+00	 4.236842427217615e+00
 3.682312648650350e-01	 1.605368650417089e+00	 4.137088936009950e+00
 3.537837310221516e-01	 1.608614260731930e+00	 4.039650982399126e+00
 3.393455913471471e-01	 1.611721854973539e+00	 3.944974822012250e+00
 3.249186567390976e-01	 1.614692117609097e+00	 3.853475571333139e+00
 3.105047160008746e-01	 1.617525761620911e+00	 3.765535308684151e+00
 2.961055353589750e-01	 1.620223527818265e+00	 3.681501533359094e+00
 2.817228580056790e-01	 1.622786184142323e+00	 3.601685972042830e+00
 2.716613273626191e-01	 1.564829534708669e+00	 3.230581696447442e+00
 2.578098892469754e-01	 1.567171149073206e+00	 3.154345425013999e+00
 2.439776585945226e-01	 1.569384035724750e+00	 3.081689180957819e+00
 2.301662472720804e-01	 1.571469009588689e+00	 3.012776865993710e+00
 2.163772433837285e-01	 1.573426909019491e+00	 2.947748019978119e+00
 2.026122109363642e-01	 1.575258595107625e+00	 2.886717985534116e+00
 1.888726895263808e-01	 1.576964950984022e+00	 2.829778284585632e+00
 1.751601940473154e-01	 1.578546881122723e+00	 2.776997193925965e+00
 1.614762144182945e-01	 1.580005310642374e+00	 2.728420506639277e+00
 1.478222153330863e-01	 1.581341184607227e+00	 2.684072465950680e+00
 1.341996360295490e-01	 1.582555467328241e+00	 2.643956857938103e+00
 2.726674804269251e-01	 1.570625199652034e+00	 3.266828580039912e+00
 2.587647406886308e-01	 1.572975486662365e+00	 3.190513935864049e+00
 2.448812795522800e-01	 1.575196569190397e+00	 3.117779984207382e+00
 2.310187148545695e-01	 1.577289265179759e+00	 3.048799115358643e+00
 2.171786405814459e-01	 1.579254416089933e+00	 2.983718157742946e+00
 2.033626265324247e-01	 1.581092886200616e+00	 2.922658564074689e+00
 1.895722180061081e-01	 1.582805561913593e+00	 2.865716814024803e+00
 1.758089355067499e-01	 1.584393351052807e+00	 2.812965020219854e+00
 1.620742744716955e-01	 1.585857182163272e+00	 2.764451724074001e+00
 1.483697050195051e-01	 1.587198003809476e+00	 2.720202867722285e+00
 1.346966717185473e-01	 1.588416783873901e+00	 2.680222928157574e+00
 2.736736334912310e-01	 1.576420864595399e+00	 3.303164277062224e+00
 2.597195921302863e-01	 1.578779824251526e+00	 3.226796650842351e+00
 2.457849005100375e-01	 1.581009102656045e+00	 3.153997780695733e+00
 2.318711824370588e-01	 1.583109520770828e+00	 3.084950586262005e+00
 2.179800377791635e-01	 1.585081923160376e+00	 3.019811150584458e+00
 2.041130421284853e-01	 1.586927177293608e+00	 2.958708927157032e+00
 1.902717464858354e-01	 1.588646172843163e+00	 2.901747168251908e+00
 1.764576769661845e-01	 1.590239820982891e+00	 2.849003561035658e+00
 1.626723345250966e-01	 1.591709053684170e+00	 2.800531057647416e+00
 1.489171947059240e-01	 1.593054823011725e+00	 2.756358885191943e+00
 1.351937074075457e-01	 1.594278100419561e+00	 2.716493721423887e+00
 2.746797865555370e-01	 1.582216529538765e+00	 3.339627521691225e+00
 2.606744435719417e-01	 1.584584161840686e+00	 3.263229431545810e+00
 2.466885214677950e-01	 1.586821636121692e+00	 3.190375492970787e+00
 2.327236500195479e-01	 1.588929776361897e+00	 3.121261176129516e+00
 2.187814349768809e-01	 1.590909430230818e+00	 3.056053765075404e+00
 2.048634577245459e-01	 1.592761468386598e+00	 2.994892585079018e+00
 1.909712749655628e-01	 1.594486783772734e+00	 2.937889456172988e+00
 1.771064184256189e-01	 1.596086290912976e+00	 2.885129359086153e+00
 1.632703945784977e-01	 1.597560925205068e+00	 2.836671299426992e+00
 1.494646843923428e-01	 1.598911642213974e+00	 2.792549355736576e+00
 1.356907430965439e-01	 1.600139416965221e+00	 2.752773896856281e+00
 2.756859396198431e-01	 1.588012194482131e+00	 3.376256996103142e+00
 2.616292950135972e-01	 1.590388499429845e+00	 3.299848059493144e+00
 2.475921424255524e-01	 1.592634169587339e+00	 3.226945940759120e+00
 2.335761176020371e-01	 1.594750031952967e+00	 3.157760662426235e+00
 2.195828321745985e-01	 1.596736937301260e+00	 3.092472636560315e+00
 2.056138733206065e-01	 1.598595759479589e+00	 3.031232911781186e+00
 1.916708034452902e-01	 1.600327394702304e+00	 2.974163651592557e+00
 1.777551598850534e-01	 1.601932760843060e+00	 2.921358829865832e+00
 1.638684546318988e-01	 1.603412796725965e+00	 2.872885129009168e+00
 1.500121740787616e-01	 1.604768461416223e+00	 2.828783026098156e+00
 1.361877787855423e-01	 1.606000733510881e+00	 2.789068052088723e+00
 2.766920926841490e-01	 1.593807859425496e+00	 3.413091337154941e+00
 2.625841464552526e-01	 1.596192837019006e+00	 3.336688242755260e+00
 2.484957633833099e-01	 1.598446703052986e+00	 3.263741847471234e+00
 2.344285851845263e-01	 1.600570287544036e+00	 3.194478708974324e+00
 2.203842293723159e-01	 1.602564444371703e+00	 3.129094275214201e+00
 2.063642889166671e-01	 1.604430050572581e+00	 3.067753150557839e+00
 1.923703319250175e-01	 1.606168005631875e+00	 3.010589598492526e+00
 1.784039013444879e-01	 1.607779230773143e+00	 2.957708266413384e+00
 1.644665146852999e-01	 1.609264668246862e+00	 2.909185117670529e+00
 1.505596637651804e-01	 1.610625280618471e+00	 2.865068555825177e+00
 1.366848144745406e-01	 1.611862050056541e+00	 2.825380725889012e+00
 2.776982457484550e-01	 1.599603524368862e+00	 3.450169142921720e+00
 2.635389978969081e-01	 1.601997174608166e+00	 3.373785622435685e+00
 2.493993843410675e-01	 1.604259236518633e+00	 3.300795846571775e+00
 2.352810527670155e-01	 1.606390543135105e+00	 3.231444872134857e+00
 2.211856265700335e-01	 1.608391951442146e+00	 3.165945071963576e+00
 2.071147045127277e-01	 1.610264341665572e+00	 3.104476419644426e+00
 1.930698604047449e-01	 1.612008616561445e+00	 3.047187016206847e+00
 1.790526428039224e-01	 1.613625700703228e+00	 2.994193843975691e+00
 1.650645747387011e-01	 1.615116539767761e+00	 2.945583732427043e+00
 1.511071534515993e-01	 1.616482099820721e+00	 2.901414520632329e+00
 1.371818501635389e-01	 1.617723366602201e+00	 2.861716400722277e+00
 2.787043988127610e-01	 1.605399189312227e+00	 3.487528979099794e+00
 2.644938493385636e-01	 1.607801512197325e+00	 3.411175779021286e+00
 2.503030052988249e-01	 1.610071769984280e+00	 3.338140487810177e+00
 2.361335203495047e-01	 1.612210798726174e+00	 3.268688606859008e+00
 2.219870237677510e-01	 1.614219458512588e+00	 3.203051304286377e+00
 2.078651201087883e-01	 1.616098632758563e+00	 3.141425717691055e+00
 1.937693888844721e-01	 1.617849227491016e+00	 3.083975504476521e+00
 1.797013842633569e-01	 1.619472170633312e+00	 3.030831624568280e+00
 1.656626347921021e-01	 1.620968411288658e+00	 2.982093340011552e+00
 1.516546431380181e-01	 1.622338919022969e+00	 2.937829415694629e+00
 1.376788858525373e-01	 1.623584683147862e+00	 2.898079505258323e+00
 2.797105518770669e-01	 1.611194854255592e+00	 3.525209385271322e+00
 2.654487007802191e-01	 1.613605849786486e+00	 3.448894238592939e+00
 2.512066262565825e-01	 1.615884303449928e+00	 3.375808243319555e+00
 2.369859879319938e-01	 1.618031054317243e+00	 3.306239272612339e+00
 2.227884209654685e-01	 1.620046965583031e+00	 3.240439141886536e+00
 2.086155357048489e-01	 1.621932923851554e+00	 3.178623929108073e+00
 1.944689173641994e-01	 1.623689838420586e+00	 3.120974548400949e+00
 1.803501257227914e-01	 1.625318640563395e+00	 3.067637561439423e+00
 1.662606948455031e-01	 1.626820282809555e+00	 3.018726210759592e+00
 1.522021328244370e-01	 1.628195738225219e+00	 2.974321658863822e+00
 1.381759215415356e-01	 1.629445999693522e+00	 2.934474416825463e+00
 2.807167049413730e-01	 1.616990519198958e+00	 3.563248881041019e+00
 2.664035522218745e-01	 1.619410187375646e+00	 3.486976478909388e+00
 2.521102472143399e-01	 1.621696836915575e+00	 3.413831513592012e+00
 2.378384555144830e-01	 1.623851309908312e+00	 3.344126139169283e+00
 2.235898181631860e-01	 1.625874472653473e+00	 3.278134652248397e+00
 2.093659513009095e-01	 1.627767214944545e+00	 3.216093829310129e+00
 1.951684458439268e-01	 1.629530449350156e+00	 3.158203523281641e+00
 1.809988671822259e-01	 1.631165110493480e+00	 3.104627503439257e+00
 1.668587548989043e-01	 1.632672154330454e+00	 3.055494522416784e+00
 1.527496225108557e-01	 1.634052557427468e+00	 3.010899593824254e+00
 1.386729572305339e-01	 1.635307316239182e+00	 2.970905463811819e+00
 2.817228580056790e-01	 1.622786184142323e+00	 3.601685972042830e+00
 2.673584036635300e-01	 1.625214524964806e+00	 3.525457935362450e+00
 2.530138681720975e-01	 1.627509370381222e+00	 3.452242633320491e+00
 2.386909230969722e-01	 1.629671565499381e+00	 3.382378392289688e+00
 2.243912153609035e-01	 1.631701979723916e+00	 3.316163806072994e+00
 2.101163668969702e-01	 1.633601506037537e+00	 3.253858089841373e+00
 1.958679743236541e-01	 1.635371060279727e+00	 3.195681699366665e+00
 1.816476086416604e-01	 1.637011580423564e+00	 3.141817199295665e+00
 1.674568149523054e-01	 1.638524025851351e+00	 3.092410363863427e+00
 1.532971121972746e-01	 1.639909376629717e+00	 3.047571493174088e+00
 1.391699929195322e-01	 1.641168632784842e+00	 3.007376928017019e+00
 1.341996360295490e-01	 1.582555467328241e+00	 2.643956857938103e+00
 1.206098900792454e-01	 1.583649141664921e+00	 2.607911190050688e+00
 1.070543651969705e-01	 1.584623208328479e+00	 2.575781422171706e+00
 9.353442306993628e-02	 1.585478685186888e+00	 2.547557220095731e+00
 8.005139920632454e-02	 1.586216606572406e+00	 2.523213316851983e+00
 6.660660280291508e-02	 1.586838022592105e+00	 2.502711228534364e+00
 5.320131663147726e-02	 1.587343998441940e+00	 2.486001046475851e+00
 3.983679694360021e-02	 1.587735613724855e+00	 2.473023292868887e+00
 2.651427339362479e-02	 1.588013961773440e+00	 2.463710827245536e+00
 1.323494897932811e-02	 1.588180148977591e+00	 2.457990791591337e+00
 0.000000000000000e+00	 1.588235294117647e+00	 2.455786582267847e+00
 1.346966717185473e-01	 1.588416783873901e+00	 2.680222928157574e+00
 1.210565933758352e-01	 1.589514508856273e+00	 2.644345518363558e+00
 1.074508628458482e-01	 1.590492183174140e+00	 2.612405756386856e+00
 9.388084685908421e-02	 1.591350828465358e+00	 2.584382045373208e+00
 8.034788587005166e-02	 1.592091482893044e+00	 2.560236840248814e+00
 6.685329392440735e-02	 1.592715200453558e+00	 2.539918433725675e+00
 5.339835854492717e-02	 1.593223050288022e+00	 2.523362819974801e+00
 3.998434063598391e-02	 1.593616115997911e+00	 2.510495622738672e+00
 2.661247440619376e-02	 1.593895494965193e+00	 2.501234075019065e+00
 1.328396730888118e-02	 1.594062297677508e+00	 2.495489037816117e+00
 0.000000000000000e+00	 1.594117647058824e+00	 2.493167045827458e+00
 1.351937074075457e-01	 1.594278100419561e+00	 2.716493721423887e+00
 1.215032966724250e-01	 1.595379876047624e+00	 2.680764623393220e+00
 1.078473604947259e-01	 1.596361158019801e+00	 2.648994294140518e+00
 9.422727064823214e-02	 1.597222971743828e+00	 2.621149985250720e+00
 8.064437253377879e-02	 1.597966359213683e+00	 2.597182018727014e+00
 6.709998504589963e-02	 1.598592378315010e+00	 2.577025642755260e+00
 5.359540045837709e-02	 1.599102102134103e+00	 2.560602966435931e+00
 4.013188432836762e-02	 1.599496618270965e+00	 2.547824959955522e+00
 2.671067541876275e-02	 1.599777028156948e+00	 2.538593507032163e+00
 1.333298563843425e-02	 1.599944446377425e+00	 2.532803496826173e+00
 0.000000000000000e+00	 1.600000000000000e+00	 2.530344942941378e+00
 1.356907430965439e-01	 1.600139416965221e+00	 2.752773896856281e+00
 1.219499999690148e-01	 1.601245243238976e+00	 2.717169330547501e+00
 1.082438581436036e-01	 1.602230132865463e+00	 2.685544946918614e+00
 9.457369443738005e-02	 1.603095115022298e+00	 2.657856947829292e+00
 8.094085919750592e-02	 1.603841235534322e+00	 2.634043657639695e+00
 6.734667616739190e-02	 1.604469556176462e+00	 2.614027448340914e+00
 5.379244237182701e-02	 1.604981153980184e+00	 2.597716744940930e+00
 4.027942802075132e-02	 1.605377120544020e+00	 2.585008097288366e+00
 2.680887643133173e-02	 1.605658561348701e+00	 2.575788304855277e+00
 1.338200396798732e-02	 1.605826595077342e+00	 2.569936581390543e+00
 0.000000000000000e+00	 1.605882352941176e+00	 2.567326746782077e+00
 1.361877787855423e-01	 1.606000733510881e+00	 2.789068052088723e+00
 1.223967032656045e-01	 1.607110610430327e+00	 2.753560431840188e+00
 1.086403557924812e-01	 1.608099107711123e+00	 2.722055611368672e+00
 9.492011822652791e-02	 1.608967258300768e+00	 2.694498835440724e+00
 8.123734586123303e-02	 1.609716111854960e+00	 2.670816556210604e+00
 6.759336728888420e-02	 1.610346734037914e+00	 2.650918427338184e+00
 5.398948428527692e-02	 1.610860205826265e+00	 2.634699379667242e+00
 4.042697171313503e-02	 1.611257622817076e+00	 2.622041764312998e+00
 2.690707744390070e-02	 1.611540094540454e+00	 2.612817549400200e+00
 1.343102229754038e-02	 1.611708743777259e+00	 2.606890557051018e+00
 0.000000000000000e+00	 1.611764705882353e+00	 2.604118727702592e+00
 1.366848144745406e-01	 1.611862050056541e+00	 2.825380725889012e+00
 1.228434065621943e-01	 1.612975977621679e+00	 2.789938687736311e+00
 1.090368534413589e-01	 1.613968082556784e+00	 2.758524170573416e+00
 9.526654201567583e-02	 1.614839401579237e+00	 2.731071545555004e+00
 8.153383252496016e-02	 1.615590988175599e+00	 2.707495508263839e+00
 6.784005841037648e-02	 1.616223911899367e+00	 2.687693141489633e+00
 5.418652619872684e-02	 1.616739257672346e+00	 2.671546060844338e+00
 4.057451540551872e-02	 1.617138125090130e+00	 2.658922628771455e+00
 2.700527845646968e-02	 1.617421627732207e+00	 2.649680222868827e+00
 1.348004062709345e-02	 1.617590892477176e+00	 2.643667544849802e+00
 0.000000000000000e+00	 1.617647058823529e+00	 2.640726956924363e+00
 1.371818501635389e-01	 1.617723366602201e+00	 2.861716400722277e+00
 1.232901098587842e-01	 1.618841344813030e+00	 2.826304828962187e+00
 1.094333510902366e-01	 1.619837057402446e+00	 2.794948495304509e+00
 9.561296580482376e-02	 1.620711544857707e+00	 2.767570971660299e+00
 8.183031918868729e-02	 1.621465864496237e+00	 2.744075302935749e+00
 6.808674953186873e-02	 1.622101089760819e+00	 2.724346138153001e+00
 5.438356811217675e-02	 1.622618309518428e+00	 2.708251945693606e+00
 4.072205909790243e-02	 1.623018627363185e+00	 2.695647297901642e+00
 2.710347946903866e-02	 1.623303160923961e+00	 2.686375210664146e+00
 1.352905895664651e-02	 1.623473041177093e+00	 2.680269523997880e+00
 0.000000000000000e+00	 1.623529411764706e+00	 2.677157310144146e+00
 1.376788858525373e-01	 1.623584683147862e+00	 2.898079505258323e+00
 1.237368131553740e-01	 1.624706712004382e+00	 2.862659558277171e+00
 1.098298487391142e-01	 1.625706032248106e+00	 2.831326445243498e+00
 9.595938959397168e-02	 1.626583688136177e+00	 2.803993004133677e+00
 8.212680585241440e-02	 1.627340740816875e+00	 2.780550725374162e+00
 6.833344065336100e-02	 1.627978267622271e+00	 2.760871951021616e+00
 5.458061002562666e-02	 1.628497361364509e+00	 2.744812159347392e+00
 4.086960279028614e-02	 1.628899129636241e+00	 2.732212319743452e+00
 2.720168048160765e-02	 1.629184694115714e+00	 2.722901303256763e+00
 1.357807728619958e-02	 1.629355189877010e+00	 2.716698334485943e+00
 0.000000000000000e+00	 1.629411764705882e+00	 2.713415471063840e+00
 1.381759215415356e-01	 1.629445999693522e+00	 2.934474416825463e+00
 1.241835164519638e-01	 1.630572079195733e+00	 2.899003552200579e+00
 1.102263463879919e-01	 1.631575007093767e+00	 2.867655870176935e+00
 9.630581338311958e-02	 1.632455831414647e+00	 2.840333531086698e+00
 8.242329251614154e-02	 1.633215617137514e+00	 2.816916557419547e+00
 6.858013177485330e-02	 1.633855445483723e+00	 2.797265100818652e+00
 5.477765193907659e-02	 1.634376413210590e+00	 2.781221795742630e+00
 4.101714648266984e-02	 1.634779631909296e+00	 2.768614184409727e+00
 2.729988149417663e-02	 1.635066227307468e+00	 2.759257198011313e+00
 1.362709561575265e-02	 1.635237338576927e+00	 2.752955679637477e+00
 0.000000000000000e+00	 1.635294117647059e+00	 2.749506934843137e+00
 1.386729572305339e-01	 1.635307316239182e+00	 2.970905463811819e+00
 1.246302197485536e-01	 1.636437446387085e+00	 2.935337462709715e+00
 1.106228440368695e-01	 1.637443981939428e+00	 2.903934611171287e+00
 9.665223717226751e-02	 1.638327974693118e+00	 2.876588439194161e+00
 8.271977917986868e-02	 1.639090493458152e+00	 2.853167578274458e+00
 6.882682289634556e-02	 1.639732623345175e+00	 2.833520095986938e+00
 5.497469385252650e-02	 1.640255465056672e+00	 2.817475918503689e+00
 4.116469017505353e-02	 1.640660134182351e+00	 2.804849325334016e+00
 2.739808250674561e-02	 1.640947760499222e+00	 2.795441500975006e+00
 1.367611394530572e-02	 1.641119487276844e+00	 2.789043128607482e+00
 0.000000000000000e+00	 1.641176470588235e+00	 2.785437011478770e+00
 1.391699929195322e-01	 1.641168632784842e+00	 3.007376928017019e+00
 1.250769230451434e-01	 1.642302813578437e+00	 2.971661918896698e+00
 1.110193416857472e-01	 1.643312956785089e+00	 2.940160501715271e+00
 9.699866096141542e-02	 1.644200117971588e+00	 2.912753614506878e+00
 8.301626584359578e-02	 1.644965369778791e+00	 2.889298565154541e+00
 6.907351401783786e-02	 1.645609801206628e+00	 2.869631433356925e+00
 5.517173576597642e-02	 1.646134516902753e+00	 2.853569561800366e+00
 4.131223386743726e-02	 1.646540636455406e+00	 2.840914120491392e+00
 2.749628351931459e-02	 1.646829293690975e+00	 2.831452728626931e+00
 1.372513227485878e-02	 1.647001635976761e+00	 2.824962118830381e+00
 0.000000000000000e+00	 1.647058823529412e+00	 2.821210829111014e+00
 1.647058823529412e+00	 0.000000000000000e+00	 1.402526914837066e+01
 1.647001635976761e+00	 1.372513227485832e-02	 1.401638241634085e+01
 1.646829293690975e+00	 2.749628351931418e-02	 1.401056335073190e+01
 1.646540636455406e+00	 4.131223386743688e-02	 1.400727548772594e+01
 1.646134516902753e+00	 5.517173576597612e-02	 1.400603657476162e+01
 1.645609801206628e+00	 6.907351401783760e-02	 1.400642041934711e+01
 1.644965369778791e+00	 8.301626584359560e-02	 1.400805870623306e+01
 1.644200117971588e+00	 9.699866096141528e-02	 1.401064278536691e+01
 1.643312956785090e+00	 1.110193416857471e-01	 1.401392543286013e+01
 1.642302813578437e+00	 1.250769230451433e-01	 1.401772258693888e+01
 1.641168632784842e+00	 1.391699929195323e-01	 1.402191506050351e+01
 1.652941176470588e+00	 0.000000000000000e+00	 1.398408012043763e+01
 1.652883784676678e+00	 1.377415060441138e-02	 1.397522050614434e+01
 1.652710826882729e+00	 2.759448453188316e-02	 1.396942981635873e+01
 1.652421138728460e+00	 4.145977755982060e-02	 1.396617040741828e+01
 1.652013568748834e+00	 5.536877767942603e-02	 1.396495878963860e+01
 1.651486979068080e+00	 6.932020513932986e-02	 1.396536743949865e+01
 1.650840246099430e+00	 8.331275250732272e-02	 1.396702658197587e+01
 1.650072261250058e+00	 9.734508475056318e-02	 1.396962594582820e+01
 1.649181931630751e+00	 1.114158393346248e-01	 1.397291649443760e+01
 1.648168180769788e+00	 1.255236263417331e-01	 1.397671213456149e+01
 1.647029949330502e+00	 1.396670286085306e-01	 1.398089140498869e+01
 1.658823529411765e+00	 0.000000000000000e+00	 1.394355744709707e+01
 1.658765933376596e+00	 1.382316893396445e-02	 1.393473938529854e+01
 1.658592360074482e+00	 2.769268554445214e-02	 1.392899102575181e+01
 1.658301641001516e+00	 4.160732125220431e-02	 1.392577345437391e+01
 1.657892620594915e+00	 5.556581959287594e-02	 1.392460183564410e+01
 1.657364156929533e+00	 6.956689626082217e-02	 1.392504718686635e+01
 1.656715122420068e+00	 8.360923917104984e-02	 1.392673812445084e+01
 1.655944404528527e+00	 9.769150853971112e-02	 1.392936258540322e+01
 1.655050906476411e+00	 1.118123369835024e-01	 1.393266952702654e+01
 1.654033547961140e+00	 1.259703296383229e-01	 1.393647060757056e+01
 1.652891265876162e+00	 1.401640642975289e-01	 1.394064185020764e+01
 1.664705882352941e+00	 0.000000000000000e+00	 1.390367631449493e+01
 1.664648082076512e+00	 1.387218726351751e-02	 1.389491371000528e+01
 1.664473893266235e+00	 2.779088655702111e-02	 1.388922129557815e+01
 1.664182143274570e+00	 4.175486494458799e-02	 1.388605881067755e+01
 1.663771672440996e+00	 5.576286150632585e-02	 1.388493997915853e+01
 1.663241334790985e+00	 6.981358738231440e-02	 1.388543424426342e+01
 1.662589998740707e+00	 8.390572583477698e-02	 1.388716847758993e+01
 1.661816547806998e+00	 9.803793232885900e-02	 1.388982866562301e+01
 1.660919881322073e+00	 1.122088346323801e-01	 1.389316157723548e+01
 1.659898915152491e+00	 1.264170329349127e-01	 1.389697641529230e+01
 1.658752582421822e+00	 1.406610999865273e-01	 1.390114645513201e+01
 1.670588235294117e+00	 0.000000000000000e+00	 1.386441193413438e+01
 1.670530230776429e+00	 1.392120559307058e-02	 1.385571808985853e+01
 1.670355426457989e+00	 2.788908756959009e-02	 1.385009482877841e+01
 1.670062645547626e+00	 4.190240863697171e-02	 1.384700048247012e+01
 1.669650724287078e+00	 5.595990341977575e-02	 1.384594725334309e+01
 1.669118512652437e+00	 7.006027850380671e-02	 1.384650290898118e+01
 1.668464875061346e+00	 8.420221249850414e-02	 1.384829245249155e+01
 1.667688691085467e+00	 9.838435611800689e-02	 1.385099977286996e+01
 1.666788856167734e+00	 1.126053322812578e-01	 1.385436927919817e+01
 1.665764282343843e+00	 1.268637362315025e-01	 1.385820752221980e+01
 1.664613898967483e+00	 1.411581356755255e-01	 1.386238480647436e+01
 1.676470588235294e+00	 0.000000000000000e+00	 1.382573954243060e+01
 1.676412379476346e+00	 1.397022392262365e-02	 1.381712708807397e+01
 1.676236959649742e+00	 2.798728858215908e-02	 1.381158571552739e+01
 1.675943147820681e+00	 4.204995232935541e-02	 1.380857230169664e+01
 1.675529776133159e+00	 5.615694533322568e-02	 1.380759746073572e+01
 1.674995690513890e+00	 7.030696962529899e-02	 1.380822719629431e+01
 1.674339751381984e+00	 8.449869916223124e-02	 1.381008453189850e+01
 1.673560834363937e+00	 9.873077990715480e-02	 1.381285112389344e+01
 1.672657831013394e+00	 1.130018299301355e-01	 1.381626886119351e+01
 1.671629649535194e+00	 1.273104395280923e-01	 1.382014145580589e+01
 1.670475215513143e+00	 1.416551713645239e-01	 1.382433602772414e+01
 1.682352941176470e+00	 0.000000000000000e+00	 1.378763440027558e+01
 1.682294528176263e+00	 1.401924225217671e-02	 1.377911522171455e+01
 1.682118492841496e+00	 2.808548959472805e-02	 1.377366793417599e+01
 1.681823650093736e+00	 4.219749602173912e-02	 1.377074792782266e+01
 1.681408827979241e+00	 5.635398724667559e-02	 1.376986417579961e+01
 1.680872868375341e+00	 7.055366074679123e-02	 1.377058084290425e+01
 1.680214627702622e+00	 8.479518582595834e-02	 1.377251887459888e+01
 1.679432977642408e+00	 9.907720369630273e-02	 1.377535757123348e+01
 1.678526805859056e+00	 1.133983275790132e-01	 1.377883615215934e+01
 1.677495016726546e+00	 1.277571428246821e-01	 1.378275531413486e+01
 1.676336532058803e+00	 1.421522070535222e-01	 1.378697878804734e+01
 1.688235294117647e+00	 0.000000000000000e+00	 1.375007179261140e+01
 1.688176676876180e+00	 1.406826058172977e-02	 1.374165696191230e+01
 1.688000026033250e+00	 2.818369060729703e-02	 1.373631535217583e+01
 1.687704152366791e+00	 4.234503971412280e-02	 1.373350084951839e+01
 1.687287879825321e+00	 5.655102916012550e-02	 1.373272074742810e+01
 1.686750046236794e+00	 7.080035186828353e-02	 1.373353731032367e+01
 1.686089504023261e+00	 8.509167248968551e-02	 1.373556931975415e+01
 1.685305120920877e+00	 9.942362748545061e-02	 1.373849360855673e+01
 1.684395780704717e+00	 1.137948252278908e-01	 1.374204658810188e+01
 1.683360383917897e+00	 1.282038461212719e-01	 1.374602577347376e+01
 1.682197848604463e+00	 1.426492427425206e-01	 1.375029131104974e+01
 1.694117647058823e+00	 0.000000000000000e+00	 1.371302702801281e+01
 1.694058825576097e+00	 1.411727891128284e-02	 1.370472673408519e+01
 1.693881559225002e+00	 2.828189161986600e-02	 1.369950172698621e+01
 1.693584654639846e+00	 4.249258340650651e-02	 1.369680438631296e+01
 1.693166931671403e+00	 5.674807107357543e-02	 1.369614030140377e+01
 1.692627224098246e+00	 7.104704298977579e-02	 1.369706978820273e+01
 1.691964380343900e+00	 8.538815915341262e-02	 1.369920939115450e+01
 1.691177264199347e+00	 9.977005127459854e-02	 1.370223337590557e+01
 1.690264755550378e+00	 1.141913228767685e-01	 1.370587521840502e+01
 1.689225751109249e+00	 1.286505494178617e-01	 1.370992909570970e+01
 1.688059165150123e+00	 1.431462784315189e-01	 1.371425138340971e+01
 1.700000000000000e+00	 0.000000000000000e+00	 1.367647543827848e+01
 1.699940974276013e+00	 1.416629724083590e-02	 1.366829891815086e+01
 1.699763092416757e+00	 2.838009263243499e-02	 1.366320070696455e+01
 1.699465156912900e+00	 4.264012709889022e-02	 1.366063169021850e+01
 1.699045983517484e+00	 5.694511298702534e-02	 1.366009574281521e+01
 1.698504401959698e+00	 7.129373411126808e-02	 1.366115119759906e+01
 1.697839256664538e+00	 8.568464581713975e-02	 1.366341230140412e+01
 1.697049407477817e+00	 1.001164750637464e-01	 1.366655066486292e+01
 1.696133730396039e+00	 1.145878205256461e-01	 1.367029671204054e+01
 1.695091118300600e+00	 1.290972527144515e-01	 1.367444113567181e+01
 1.693920481695783e+00	 1.436433141205172e-01	 1.367883636338224e+01
 1.705882352941176e+00	 0.000000000000000e+00	 1.364039237803045e+01
 1.705823122975931e+00	 1.421531557038897e-02	 1.363234784873577e+01
 1.705644625608510e+00	 2.847829364500397e-02	 1.362738583223993e+01
 1.705345659185956e+00	 4.278767079127392e-02	 1.362495574732479e+01
 1.704925035363566e+00	 5.714215490047527e-02	 1.362455975843178e+01
 1.704381579821151e+00	 7.154042523276037e-02	 1.362575419419204e+01
 1.703714132985177e+00	 8.598113248086686e-02	 1.362815095603820e+01
 1.702921550756287e+00	 1.004628988528944e-01	 1.363141892363530e+01
 1.702002705241700e+00	 1.149843181745238e-01	 1.363528536368192e+01
 1.700956485491952e+00	 1.295439560110413e-01	 1.363953734834408e+01
 1.699781798241443e+00	 1.441403498095156e-01	 1.364402318917804e+01
 1.641168632784842e+00	 1.391699929195323e-01	 1.402191506050351e+01
 1.639909376629717e+00	 1.532971121972742e-01	 1.402563756633231e+01
 1.638524025851351e+00	 1.674568149523049e-01	 1.402809928642449e+01
 1.637011580423564e+00	 1.816476086416601e-01	 1.402939728817316e+01
 1.635371060279727e+00	 1.958679743236539e-01	 1.402970313095603e+01
 1.633601506037536e+00	 2.101163668969699e-01	 1.402926449512145e+01
 1.631701979723916e+00	 2.243912153609034e-01	 1.402840678222061e+01
 1.629671565499382e+00	 2.386909230969722e-01	 1.402753468318196e+01
 1.627509370381223e+00	 2.530138681720975e-01	 1.402713371009371e+01
 1.625214524964805e+00	 2.673584036635300e-01	 1.402777168614933e+01
 1.622786184142323e+00	 2.817228580056790e-01	 1.403010018712058e+01
 1.647029949330502e+00	 1.396670286085306e-01	 1.398089140498869e+01
 1.645766195831966e+00	 1.538446018836930e-01	 1.398460291584621e+01
 1.644375897372249e+00	 1.680548750057060e-01	 1.398707429870557e+01
 1.642858050353649e+00	 1.822963501010946e-01	 1.398840725055108e+01
 1.641211671209297e+00	 1.965675028033812e-01	 1.398877831948336e+01
 1.639435797130528e+00	 2.108667824930306e-01	 1.398844053639502e+01
 1.637529486794358e+00	 2.251926125586209e-01	 1.398772502240678e+01
 1.635491821090451e+00	 2.395433906794613e-01	 1.398704256898330e+01
 1.633321903846869e+00	 2.539174891298549e-01	 1.398688518658926e+01
 1.631018862553966e+00	 2.683132551051856e-01	 1.398782761660011e+01
 1.628581849085688e+00	 2.827290110699849e-01	 1.399052879995892e+01
 1.652891265876162e+00	 1.401640642975289e-01	 1.394064185020764e+01
 1.651623015034215e+00	 1.543920915701119e-01	 1.394434862149988e+01
 1.650227768893147e+00	 1.686529350591071e-01	 1.394683943516385e+01
 1.648704520283733e+00	 1.829450915605291e-01	 1.394821965499047e+01
 1.647052282138868e+00	 1.972670312831086e-01	 1.394866977078363e+01
 1.645270088223519e+00	 2.116171980890912e-01	 1.394844703223155e+01
 1.643356993864801e+00	 2.259940097563384e-01	 1.394788706329802e+01
 1.641312076681521e+00	 2.403958582619506e-01	 1.394740545429049e+01
 1.639134437312517e+00	 2.548211100876124e-01	 1.394749932766439e+01
 1.636823200143126e+00	 2.692681065468410e-01	 1.394874887245283e+01
 1.634377514029054e+00	 2.837351641342910e-01	 1.395181884094315e+01
 1.658752582421822e+00	 1.406610999865273e-01	 1.390114645513201e+01
 1.657479834236463e+00	 1.549395812565307e-01	 1.390485637801774e+01
 1.656079640414045e+00	 1.692509951125082e-01	 1.390737771362143e+01
 1.654550990213817e+00	 1.835938330199637e-01	 1.390881854103615e+01
 1.652892893068439e+00	 1.979665597628359e-01	 1.390936225545612e+01
 1.651104379316511e+00	 2.123676136851518e-01	 1.390926920372795e+01
 1.649184500935244e+00	 2.267954069540560e-01	 1.390887830543298e+01
 1.647132332272589e+00	 2.412483258444397e-01	 1.390860865690120e+01
 1.644946970778164e+00	 2.557247310453700e-01	 1.390896111443097e+01
 1.642627537732286e+00	 2.702229579884964e-01	 1.391051985178013e+01
 1.640173178972419e+00	 2.847413171985970e-01	 1.391395388569706e+01
 1.664613898967483e+00	 1.411581356755255e-01	 1.386238480647436e+01
 1.663336653438713e+00	 1.554870709429495e-01	 1.386610738967661e+01
 1.661931511934942e+00	 1.698490551659093e-01	 1.386867165675070e+01
 1.660397460143901e+00	 1.842425744793981e-01	 1.387018746172071e+01
 1.658733503998009e+00	 1.986660882425632e-01	 1.387084007939613e+01
 1.656938670409501e+00	 2.131180292812123e-01	 1.387089184206686e+01
 1.655012008005686e+00	 2.275968041517735e-01	 1.387068376699460e+01
 1.652952587863659e+00	 2.421007934269289e-01	 1.387063717235229e+01
 1.650759504243811e+00	 2.566283520031274e-01	 1.387125527811291e+01
 1.648431875321446e+00	 2.711778094301520e-01	 1.387312478714157e+01
 1.645968843915785e+00	 2.857474702629029e-01	 1.387691744040631e+01
 1.670475215513143e+00	 1.416551713645239e-01	 1.382433602772414e+01
 1.669193472640962e+00	 1.560345606293684e-01	 1.382808238058129e+01
 1.667783383455839e+00	 1.704471152193103e-01	 1.383070330351017e+01
 1.666243930073985e+00	 1.848913159388326e-01	 1.383230949608396e+01
 1.664574114927580e+00	 1.993656167222906e-01	 1.383308709732393e+01
 1.662772961502492e+00	 2.138684448772730e-01	 1.383329932298330e+01
 1.660839515076128e+00	 2.283982013494909e-01	 1.383328809914571e+01
 1.658772843454728e+00	 2.429532610094181e-01	 1.383347569005622e+01
 1.656572037709458e+00	 2.575319729608849e-01	 1.383436631692238e+01
 1.654236212910606e+00	 2.721326608718073e-01	 1.383654776313530e+01
 1.651764508859150e+00	 2.867536233272089e-01	 1.384069295998748e+01
 1.676336532058803e+00	 1.421522070535222e-01	 1.378697878804734e+01
 1.675050291843210e+00	 1.565820503157871e-01	 1.379076160478731e+01
 1.673635254976737e+00	 1.710451752727114e-01	 1.379345422041510e+01
 1.672090400004069e+00	 1.855400573982671e-01	 1.379516726151688e+01
 1.670414725857150e+00	 2.000651452020179e-01	 1.379608672613150e+01
 1.668607252595484e+00	 2.146188604733336e-01	 1.379647562104502e+01
 1.666667022146572e+00	 2.291995985472084e-01	 1.379667560117636e+01
 1.664593099045797e+00	 2.438057285919072e-01	 1.379710860925206e+01
 1.662384571175106e+00	 2.584355939186423e-01	 1.379827851274991e+01
 1.660040550499765e+00	 2.730875123134628e-01	 1.380077273377130e+01
 1.657560173802516e+00	 2.877597763915150e-01	 1.380526386608614e+01
 1.682197848604463e+00	 1.426492427425206e-01	 1.375029131104974e+01
 1.680907111045460e+00	 1.571295400022060e-01	 1.375412485627434e+01
 1.679487126497635e+00	 1.716432353261125e-01	 1.375690551264630e+01
 1.677936869934153e+00	 1.861887988577016e-01	 1.375874292593558e+01
 1.676255336786721e+00	 2.007646736817451e-01	 1.375982195805204e+01
 1.674441543688475e+00	 2.153692760693942e-01	 1.376040432375059e+01
 1.672494529217014e+00	 2.300009957449260e-01	 1.376083023546712e+01
 1.670413354636866e+00	 2.446581961743964e-01	 1.376152005477185e+01
 1.668197104640752e+00	 2.593392148763998e-01	 1.376297594767626e+01
 1.665844888088925e+00	 2.740423637551183e-01	 1.376578353966910e+01
 1.663355838745881e+00	 2.887659294558210e-01	 1.377061356490599e+01
 1.688059165150123e+00	 1.431462784315189e-01	 1.371425138340971e+01
 1.686763930247708e+00	 1.576770296886248e-01	 1.371815147877361e+01
 1.685338998018532e+00	 1.722412953795136e-01	 1.372103783500189e+01
 1.683783339864237e+00	 1.868375403171361e-01	 1.372301821978836e+01
 1.682095947716290e+00	 2.014642021614725e-01	 1.372427537365594e+01
 1.680275834781467e+00	 2.161196916654548e-01	 1.372506864545129e+01
 1.678322036287457e+00	 2.308023929426434e-01	 1.372573564227405e+01
 1.676233610227935e+00	 2.455106637568856e-01	 1.372669389262978e+01
 1.674009638106400e+00	 2.602428358341573e-01	 1.372844252030720e+01
 1.671649225678086e+00	 2.749972151967738e-01	 1.373156392508501e+01
 1.669151503689246e+00	 2.897720825201269e-01	 1.373672546487640e+01
 1.693920481695783e+00	 1.436433141205172e-01	 1.367883636338224e+01
 1.692620749449958e+00	 1.582245193750436e-01	 1.368282037545329e+01
 1.691190869539430e+00	 1.728393554329147e-01	 1.368583140269529e+01
 1.689629809794322e+00	 1.874862817765706e-01	 1.368797444790005e+01
 1.687936558645861e+00	 2.021637306411999e-01	 1.368942915467822e+01
 1.686110125874457e+00	 2.168701072615153e-01	 1.369045144109894e+01
 1.684149543357899e+00	 2.316037901403609e-01	 1.369137515433832e+01
 1.682053865819004e+00	 2.463631313393748e-01	 1.369261374543564e+01
 1.679822171572047e+00	 2.611464567919147e-01	 1.369466196193760e+01
 1.677453563267245e+00	 2.759520666384292e-01	 1.369809755477248e+01
 1.674947168632612e+00	 2.907782355844329e-01	 1.370358299415883e+01
 1.699781798241443e+00	 1.441403498095156e-01	 1.364402318917804e+01
 1.698477568652206e+00	 1.587720090614625e-01	 1.364811001846487e+01
 1.697042741060328e+00	 1.734374154863158e-01	 1.365126600200333e+01
 1.695476279724406e+00	 1.881350232360051e-01	 1.365359250115831e+01
 1.693777169575431e+00	 2.028632591209272e-01	 1.365526509668055e+01
 1.691944416967449e+00	 2.176205228575760e-01	 1.365653521982556e+01
 1.689977050428342e+00	 2.324051873380785e-01	 1.365773181132581e+01
 1.687874121410074e+00	 2.472155989218640e-01	 1.365926300764009e+01
 1.685634705037695e+00	 2.620500777496723e-01	 1.366161785254791e+01
 1.683257900856406e+00	 2.769069180800846e-01	 1.366536803068078e+01
 1.680742833575978e+00	 2.917843886487389e-01	 1.367116961799823e+01
 1.622786184142323e+00	 2.817228580056790e-01	 1.403010018712058e+01
 1.620223527818265e+00	 2.961055353589747e-01	 1.403249874363973e+01
 1.617525761620911e+00	 3.105047160008743e-01	 1.403334566230753e+01
 1.614692117609097e+00	 3.249186567390973e-01	 1.403341350886634e+01
 1.611721854973539e+00	 3.393455913471467e-01	 1.403355462603248e+01
 1.608614260731931e+00	 3.537837310221513e-01	 1.403470215427073e+01
 1.605368650417089e+00	 3.682312648650348e-01	 1.403787094779596e+01
 1.601984368757358e+00	 3.826863603829921e-01	 1.404415836959006e+01
 1.598460790348500e+00	 3.971471640142221e-01	 1.405474494766842e+01
 1.594797320316309e+00	 4.116118016748425e-01	 1.407089487328258e+01
 1.590993394969137e+00	 4.260783793278758e-01	 1.409395632020902e+01
 1.628581849085688e+00	 2.827290110699849e-01	 1.399052879995892e+01
 1.626010040417616e+00	 2.971630551281138e-01	 1.399332146447354e+01
 1.623302639340986e+00	 3.116136614151629e-01	 1.399452819505017e+01
 1.620458875171987e+00	 3.260790805131654e-01	 1.399491618061024e+01
 1.617478004455587e+00	 3.405575398876723e-01	 1.399533281456005e+01
 1.614359311663116e+00	 3.550472443472304e-01	 1.399670678458892e+01
 1.611102109882865e+00	 3.695463765252673e-01	 1.400004906334507e+01
 1.607705741502920e+00	 3.840530973843599e-01	 1.400645378356770e+01
 1.604169578885458e+00	 3.985655467428443e-01	 1.401709897964771e+01
 1.600493025031725e+00	 4.130818438236812e-01	 1.403324717597979e+01
 1.596675514236884e+00	 4.276000878254753e-01	 1.405624580088091e+01
 1.634377514029054e+00	 2.837351641342910e-01	 1.395181884094315e+01
 1.631796553016967e+00	 2.982205748972530e-01	 1.395499375665200e+01
 1.629079517061060e+00	 3.127226068294518e-01	 1.395654094637938e+01
 1.626225632734877e+00	 3.272395042872336e-01	 1.395722338058217e+01
 1.623234153937635e+00	 3.417694884281978e-01	 1.395788462971391e+01
 1.620104362594301e+00	 3.563107576723095e-01	 1.395945002248982e+01
 1.616835569348640e+00	 3.708614881854993e-01	 1.396292771087039e+01
 1.613427114248482e+00	 3.854198343857278e-01	 1.396940962513848e+01
 1.609878367422417e+00	 3.999839294714665e-01	 1.398007230077653e+01
 1.606188729747140e+00	 4.145518859725198e-01	 1.399617755718776e+01
 1.602357633504631e+00	 4.291217963230749e-01	 1.401907300665366e+01
 1.640173178972419e+00	 2.847413171985970e-01	 1.391395388569706e+01
 1.637583065616318e+00	 2.992780946663921e-01	 1.391749823942058e+01
 1.634856394781135e+00	 3.138315522437407e-01	 1.391936552987861e+01
 1.631992390297766e+00	 3.283999280613017e-01	 1.392031564185133e+01
 1.628990303419684e+00	 3.429814369687234e-01	 1.392118942262083e+01
 1.625849413525487e+00	 3.575742709973886e-01	 1.392290990817570e+01
 1.622569028814415e+00	 3.721765998457316e-01	 1.392648346217613e+01
 1.619148486994044e+00	 3.867865713870956e-01	 1.393300081084441e+01
 1.615587155959377e+00	 4.014023122000889e-01	 1.394363795523038e+01
 1.611884434462555e+00	 4.160219281213585e-01	 1.395965694057039e+01
 1.608039752772378e+00	 4.306435048206744e-01	 1.398240646075100e+01
 1.645968843915785e+00	 2.857474702629029e-01	 1.387691744040631e+01
 1.643369578215669e+00	 3.003356144355312e-01	 1.388081756864193e+01
 1.640633272501209e+00	 3.149404976580294e-01	 1.388298371032586e+01
 1.637759147860656e+00	 3.295603518353701e-01	 1.388417377184490e+01
 1.634746452901732e+00	 3.441933855092487e-01	 1.388522695055994e+01
 1.631594464456673e+00	 3.588377843224679e-01	 1.388706502845881e+01
 1.628302488280190e+00	 3.734917115059639e-01	 1.389069358480861e+01
 1.624869859739605e+00	 3.881533083884633e-01	 1.389720311077464e+01
 1.621295944496335e+00	 4.028206949287109e-01	 1.390777000718937e+01
 1.617580139177971e+00	 4.174919702701974e-01	 1.392365744487126e+01
 1.613721872040125e+00	 4.321652133182739e-01	 1.394621606511810e+01
 1.651764508859150e+00	 2.867536233272089e-01	 1.384069295998748e+01
 1.649156090815020e+00	 3.013931342046705e-01	 1.384493445554995e+01
 1.646410150221284e+00	 3.160494430723184e-01	 1.384737742302296e+01
 1.643525905423545e+00	 3.307207756094383e-01	 1.384877887223610e+01
 1.640502602383781e+00	 3.454053340497743e-01	 1.384997739739129e+01
 1.637339515387858e+00	 3.601012976475468e-01	 1.385189453770194e+01
 1.634035947745966e+00	 3.748068231661962e-01	 1.385553606347938e+01
 1.630591232485167e+00	 3.895200453898312e-01	 1.386199317043338e+01
 1.627004733033294e+00	 4.042390776573332e-01	 1.387244356310939e+01
 1.623275843893386e+00	 4.189620124190359e-01	 1.388815240654010e+01
 1.619403991307871e+00	 4.336869218158735e-01	 1.391047312334912e+01
 1.657560173802516e+00	 2.877597763915150e-01	 1.380526386608614e+01
 1.654942603414371e+00	 3.024506539738097e-01	 1.380983168534188e+01
 1.652187027941358e+00	 3.171583884866072e-01	 1.381252879297275e+01
 1.649292662986435e+00	 3.318811993835066e-01	 1.381411235869302e+01
 1.646258751865829e+00	 3.466172825902999e-01	 1.381542139385548e+01
 1.643084566319043e+00	 3.613648109726259e-01	 1.381737817864672e+01
 1.639769407211741e+00	 3.761219348264285e-01	 1.382098962139097e+01
 1.636312605230730e+00	 3.908867823911991e-01	 1.382734853252862e+01
 1.632713521570253e+00	 4.056574603859555e-01	 1.383763479393293e+01
 1.628971548608801e+00	 4.204320545678747e-01	 1.385311640231951e+01
 1.625086110575618e+00	 4.352086303134731e-01	 1.387515036359822e+01
 1.663355838745881e+00	 2.887659294558210e-01	 1.377061356490599e+01
 1.660729116013722e+00	 3.035081737429489e-01	 1.377549213561139e+01
 1.657963905661433e+00	 3.182673339008960e-01	 1.377842015390736e+01
 1.655059420549325e+00	 3.330416231575747e-01	 1.378015598048970e+01
 1.652014901347878e+00	 3.478292311308254e-01	 1.378154003774974e+01
 1.648829617250229e+00	 3.626283242977051e-01	 1.378349630313081e+01
 1.645502866677517e+00	 3.774370464866607e-01	 1.378703374146780e+01
 1.642033977976291e+00	 3.922535193925669e-01	 1.379324765868290e+01
 1.638422310107212e+00	 4.070758431145777e-01	 1.380332095724084e+01
 1.634667253324217e+00	 4.219020967167134e-01	 1.381852527179317e+01
 1.630768229843365e+00	 4.367303388110726e-01	 1.384022196147416e+01
 1.669151503689246e+00	 2.897720825201269e-01	 1.373672546487640e+01
 1.666515628613073e+00	 3.045656935120881e-01	 1.374189879462721e+01
 1.663740783381508e+00	 3.193762793151848e-01	 1.374503406717237e+01
 1.660826178112214e+00	 3.342020469316429e-01	 1.374689183998301e+01
 1.657771050829926e+00	 3.490411796713510e-01	 1.374831491398248e+01
 1.654574668181414e+00	 3.638918376227841e-01	 1.375022989269803e+01
 1.651236326143292e+00	 3.787521581468930e-01	 1.375364868749464e+01
 1.647755350721853e+00	 3.936202563939346e-01	 1.375966995106836e+01
 1.644131098644171e+00	 4.084942258431998e-01	 1.376948041934629e+01
 1.640362958039632e+00	 4.233721388655521e-01	 1.378435613989636e+01
 1.636450349111112e+00	 4.382520473086721e-01	 1.380566356291909e+01
 1.674947168632612e+00	 2.907782355844329e-01	 1.370358299415883e+01
 1.672302141212424e+00	 3.056232132812273e-01	 1.370903477946063e+01
 1.669517661101583e+00	 3.204852247294737e-01	 1.371235334046909e+01
 1.666592935675104e+00	 3.353624707057111e-01	 1.371430241196030e+01
 1.663527200311974e+00	 3.502531282118763e-01	 1.371572811450896e+01
 1.660319719112600e+00	 3.651553509478632e-01	 1.371756057910282e+01
 1.656969785609067e+00	 3.800672698071251e-01	 1.372081552516460e+01
 1.653476723467415e+00	 3.949869933953026e-01	 1.372659577396773e+01
 1.649839887181130e+00	 4.099126085718221e-01	 1.373609267733334e+01
 1.646058662755047e+00	 4.248421810143908e-01	 1.375058743938987e+01
 1.642132468378859e+00	 4.397737558062718e-01	 1.377145230707160e+01
 1.680742833575978e+00	 2.917843886487389e-01	 1.367116961799823e+01
 1.678088653811775e+00	 3.066807330503665e-01	 1.367688335396580e+01
 1.675294538821657e+00	 3.215941701437626e-01	 1.368036104645896e+01
 1.672359693237993e+00	 3.365228944797793e-01	 1.368237056285827e+01
 1.669283349794022e+00	 3.514650767524020e-01	 1.368376225815193e+01
 1.666064770043785e+00	 3.664188642729422e-01	 1.368547066471262e+01
 1.662703245074843e+00	 3.813823814673576e-01	 1.368851614303970e+01
 1.659198096212977e+00	 3.963537303966704e-01	 1.369400647526292e+01
 1.655548675718089e+00	 4.113309913004443e-01	 1.370313838103943e+01
 1.651754367470463e+00	 4.263122231632296e-01	 1.371719893329825e+01
 1.647814587646606e+00	 4.412954643038713e-01	 1.373756684911495e+01
 1.590993394969137e+00	 4.260783793278758e-01	 1.409395632020902e+01
 1.587048482439563e+00	 4.405449835741775e-01	 1.411446816000442e+01
 1.582962083314403e+00	 4.550096822651302e-01	 1.412328410347249e+01
 1.578733731252283e+00	 4.694705251369183e-01	 1.412236513617037e+01
 1.574362993587957e+00	 4.839255444661450e-01	 1.411377492904243e+01
 1.569849471922607e+00	 4.983727557465415e-01	 1.409967879663582e+01
 1.565192802699313e+00	 5.128101583864724e-01	 1.408234229880900e+01
 1.560392657762928e+00	 5.272357364269168e-01	 1.406412945584934e+01
 1.555448744903564e+00	 5.416474592795733e-01	 1.404750054611061e+01
 1.550360808382916e+00	 5.560432824847004e-01	 1.403500945463689e+01
 1.545128629442677e+00	 5.704211484882766e-01	 1.402930054077737e+01
 1.596675514236884e+00	 4.276000878254753e-01	 1.405624580088091e+01
 1.592716512733990e+00	 4.421183585155136e-01	 1.407669470955280e+01
 1.588615519326240e+00	 4.566347168446485e-01	 1.408553316367611e+01
 1.584372066006755e+00	 4.711472055838357e-01	 1.408476129243519e+01
 1.579985718565057e+00	 4.856538499820955e-01	 1.407648503403566e+01
 1.575456077179473e+00	 5.001526584456365e-01	 1.406291518355718e+01
 1.570782776994668e+00	 5.146416232378528e-01	 1.404636608248022e+01
 1.565965488683510e+00	 5.291187211998701e-01	 1.402925391900081e+01
 1.561003918992505e+00	 5.435819144912860e-01	 1.401409460739187e+01
 1.555897811269998e+00	 5.580291513507171e-01	 1.400350121398593e+01
 1.550646945976400e+00	 5.724583668757346e-01	 1.400018089684717e+01
 1.602357633504631e+00	 4.291217963230749e-01	 1.401907300665366e+01
 1.598384543028417e+00	 4.436917334568500e-01	 1.403942775764047e+01
 1.594268955338077e+00	 4.582597514241668e-01	 1.404827236558674e+01
 1.590010400761228e+00	 4.728238860307534e-01	 1.404764317063565e+01
 1.585608443542157e+00	 4.873821554980460e-01	 1.403968538596539e+01
 1.581062682436340e+00	 5.019325611447312e-01	 1.402665224098349e+01
 1.576372751290022e+00	 5.164730880892330e-01	 1.401090376464582e+01
 1.571538319604092e+00	 5.310017059728235e-01	 1.399490517719610e+01
 1.566559093081446e+00	 5.455163697029987e-01	 1.398122485771852e+01
 1.561434814157080e+00	 5.600150202167340e-01	 1.397253185416223e+01
 1.556165262510125e+00	 5.744955852631928e-01	 1.397159290195447e+01
 1.608039752772378e+00	 4.306435048206744e-01	 1.398240646075100e+01
 1.604052573322843e+00	 4.452651083981863e-01	 1.400263307548128e+01
 1.599922391349914e+00	 4.598847860036852e-01	 1.401146433115238e+01
 1.595648735515701e+00	 4.745005664776709e-01	 1.401096985269152e+01
 1.591231168519257e+00	 4.891104610139964e-01	 1.400333114231804e+01
 1.586669287693207e+00	 5.037124638438260e-01	 1.399084082383520e+01
 1.581962725585377e+00	 5.183045529406134e-01	 1.397590152577269e+01
 1.577111150524674e+00	 5.328846907457767e-01	 1.396102437083989e+01
 1.572114267170388e+00	 5.474508249147116e-01	 1.394882703819743e+01
 1.566971817044162e+00	 5.620008890827505e-01	 1.394203136427546e+01
 1.561683579043848e+00	 5.765328036506510e-01	 1.394346044727745e+01
 1.613721872040125e+00	 4.321652133182739e-01	 1.394621606511810e+01
 1.609720603617270e+00	 4.468384833395228e-01	 1.396627800570378e+01
 1.605575827361752e+00	 4.615098205832034e-01	 1.397507345557545e+01
 1.601287070270172e+00	 4.761772469245882e-01	 1.397470240410307e+01
 1.596853893496357e+00	 4.908387665299470e-01	 1.396737966229164e+01
 1.592275892950073e+00	 5.054923665429208e-01	 1.395543421398239e+01
 1.587552699880732e+00	 5.201360177919935e-01	 1.394130820490720e+01
 1.582683981445256e+00	 5.347676755187298e-01	 1.392755553620546e+01
 1.577669441259329e+00	 5.493852801264243e-01	 1.391684002800791e+01
 1.572508819931243e+00	 5.639867579487672e-01	 1.391193311786506e+01
 1.567201895577572e+00	 5.785700220381091e-01	 1.391571105816260e+01
 1.619403991307871e+00	 4.336869218158735e-01	 1.391047312334912e+01
 1.615388633911697e+00	 4.484118582808591e-01	 1.393033148551035e+01
 1.611229263373589e+00	 4.631348551627218e-01	 1.393906593062695e+01
 1.606925405024646e+00	 4.778539273715061e-01	 1.393880389734505e+01
 1.602476618473457e+00	 4.925670720458975e-01	 1.393179053019976e+01
 1.597882498206939e+00	 5.072722692420155e-01	 1.392038814359245e+01
 1.593142674176087e+00	 5.219674826433738e-01	 1.390707532290458e+01
 1.588256812365838e+00	 5.366506602916832e-01	 1.389444562848936e+01
 1.583224615348270e+00	 5.513197353381369e-01	 1.388520586722645e+01
 1.578045822818325e+00	 5.659726268147843e-01	 1.388217389544575e+01
 1.572720212111296e+00	 5.806072404255672e-01	 1.388827591634572e+01
 1.625086110575618e+00	 4.352086303134731e-01	 1.387515036359822e+01
 1.621056664206124e+00	 4.499852332221955e-01	 1.389476406984608e+01
 1.616882699385426e+00	 4.647598897422401e-01	 1.390340976799601e+01
 1.612563739779117e+00	 4.795306078184234e-01	 1.390323943532548e+01
 1.608099343450556e+00	 4.942953775618480e-01	 1.389652557897156e+01
 1.603489103463805e+00	 5.090521719411103e-01	 1.388566081860772e+01
 1.598732648471441e+00	 5.237989474947540e-01	 1.387315710582334e+01
 1.593829643286420e+00	 5.385336450646364e-01	 1.386164454506573e+01
 1.588779789437212e+00	 5.532541905498498e-01	 1.385386977988969e+01
 1.583582825705407e+00	 5.679584956808009e-01	 1.385269390733132e+01
 1.578238528645020e+00	 5.826444588130253e-01	 1.386108988249213e+01
 1.630768229843365e+00	 4.367303388110726e-01	 1.384022196147416e+01
 1.626724694500552e+00	 4.515586081635317e-01	 1.385954795457443e+01
 1.622536135397263e+00	 4.663849243217584e-01	 1.386807482267378e+01
 1.618202074533590e+00	 4.812072882653411e-01	 1.386797617490755e+01
 1.613722068427656e+00	 4.960236830777986e-01	 1.386154891374571e+01
 1.609095708720672e+00	 5.108320746402052e-01	 1.385121294234832e+01
 1.604322622766795e+00	 5.256304123461342e-01	 1.383951050847930e+01
 1.599402474207002e+00	 5.404166298375899e-01	 1.382910514893707e+01
 1.594334963526153e+00	 5.551886457615626e-01	 1.382278019729086e+01
 1.589119828592489e+00	 5.699443645468177e-01	 1.382343681672971e+01
 1.583756845178744e+00	 5.846816772004836e-01	 1.383409151904791e+01
 1.636450349111112e+00	 4.382520473086721e-01	 1.380566356291909e+01
 1.632392724794978e+00	 4.531319831048680e-01	 1.382465699966131e+01
 1.628189571409100e+00	 4.680099589012766e-01	 1.383303281637097e+01
 1.623840409288063e+00	 4.828839687122586e-01	 1.383298335049327e+01
 1.619344793404756e+00	 4.977519885937490e-01	 1.382682693555544e+01
 1.614702313977539e+00	 5.126119773392999e-01	 1.381700773923895e+01
 1.609912597062150e+00	 5.274618771975146e-01	 1.380609523815673e+01
 1.604975305127584e+00	 5.422996146105430e-01	 1.379678329237628e+01
 1.599890137615094e+00	 5.571231009732753e-01	 1.379188878150372e+01
 1.594656831479571e+00	 5.719302334128347e-01	 1.379434976310300e+01
 1.589275161712467e+00	 5.867188955879415e-01	 1.380722311339410e+01
 1.642132468378859e+00	 4.397737558062718e-01	 1.377145230707160e+01
 1.638060755089405e+00	 4.547053580462044e-01	 1.379006675236666e+01
 1.633843007420937e+00	 4.696349934807950e-01	 1.379825736096862e+01
 1.629478744042535e+00	 4.845606491591762e-01	 1.379823229766711e+01
 1.624967518381856e+00	 4.994802941096996e-01	 1.379232836510303e+01
 1.620308919234405e+00	 5.143918800383946e-01	 1.378301097865500e+01
 1.615502571357505e+00	 5.292933420488947e-01	 1.377287377847107e+01
 1.610548136048165e+00	 5.441825993834962e-01	 1.376463784075515e+01
 1.605445311704036e+00	 5.590575561849881e-01	 1.376115044912799e+01
 1.600193834366653e+00	 5.739161022788513e-01	 1.376538338578596e+01
 1.594793478246191e+00	 5.887561139753996e-01	 1.378041397007515e+01
 1.647814587646606e+00	 4.412954643038713e-01	 1.373756684911495e+01
 1.643728785383832e+00	 4.562787329875408e-01	 1.375575447044342e+01
 1.639496443432775e+00	 4.712600280603134e-01	 1.376372398200072e+01
 1.635117078797007e+00	 4.862373296060937e-01	 1.376369647689828e+01
 1.630590243358956e+00	 5.012085996256502e-01	 1.375802426662170e+01
 1.625915524491271e+00	 5.161717827374895e-01	 1.374919099888659e+01
 1.621092545652860e+00	 5.311248069002751e-01	 1.373981141338154e+01
 1.616120966968747e+00	 5.460655841564497e-01	 1.373263069655464e+01
 1.611000485792977e+00	 5.609920113967011e-01	 1.373052339525149e+01
 1.605730837253735e+00	 5.759019711448683e-01	 1.373649184785678e+01
 1.600311794779915e+00	 5.907933323628578e-01	 1.375327378721763e+01
 1.545128629442677e+00	 5.704211484882766e-01	 1.402930054077737e+01
 1.539752026794263e+00	 5.847789874380315e-01	 1.404077245903134e+01
 1.534230857089125e+00	 5.991147179978623e-01	 1.406953874251266e+01
 1.528565015368904e+00	 6.134262481801303e-01	 1.409309026121189e+01
 1.522754435494714e+00	 6.277114761952864e-01	 1.411039501644060e+01
 1.516799090554846e+00	 6.419682913182566e-01	 1.412131645549413e+01
 1.510698993250220e+00	 6.561945747709754e-01	 1.412563261264079e+01
 1.504454196256894e+00	 6.703882006204406e-01	 1.412303726270140e+01
 1.498064792565001e+00	 6.845470366916137e-01	 1.411314165105282e+01
 1.491530915793474e+00	 6.986689454944816e-01	 1.409547683389790e+01
 1.484852740479956e+00	 7.127517851645501e-01	 1.406949666083973e+01
 1.550646945976400e+00	 5.724583668757346e-01	 1.400018089684717e+01
 1.545251141175671e+00	 5.868674838217386e-01	 1.401438331522182e+01
 1.539710253007300e+00	 6.012544134192833e-01	 1.404209186094051e+01
 1.534024176138079e+00	 6.156170562093449e-01	 1.406429642346581e+01
 1.528192844192909e+00	 6.299533028959838e-01	 1.408077123451910e+01
 1.522216230163970e+00	 6.442610352158217e-01	 1.409135110995780e+01
 1.516094346797542e+00	 6.585381268237289e-01	 1.409578218318512e+01
 1.509827246957812e+00	 6.727824441940849e-01	 1.409372299891995e+01
 1.503415023967019e+00	 6.869918475369408e-01	 1.408474619470768e+01
 1.496857811921308e+00	 7.011641917283903e-01	 1.406834080517833e+01
 1.490155785981671e+00	 7.152973272544235e-01	 1.404391522224048e+01
 1.556165262510125e+00	 5.744955852631928e-01	 1.397159290195447e+01
 1.550750255557079e+00	 5.889559802054460e-01	 1.398845117984368e+01
 1.545189648925476e+00	 6.033941088407043e-01	 1.401454902594053e+01
 1.539483336907254e+00	 6.178078642385599e-01	 1.403550493212115e+01
 1.533631252891105e+00	 6.321951295966816e-01	 1.405121989982660e+01
 1.527633369773095e+00	 6.465537791133870e-01	 1.406150264733513e+01
 1.521489700344864e+00	 6.608816788764823e-01	 1.406607007733182e+01
 1.515200297658730e+00	 6.751766877677294e-01	 1.406454830570497e+01
 1.508765255369037e+00	 6.894366583822679e-01	 1.405647428925656e+01
 1.502184708049142e+00	 7.036594379622994e-01	 1.404129808852946e+01
 1.495458831483385e+00	 7.178428693442965e-01	 1.401838580011512e+01
 1.561683579043848e+00	 5.765328036506510e-01	 1.394346044727745e+01
 1.556249369938487e+00	 5.910444765891529e-01	 1.396241684439993e+01
 1.550669044843652e+00	 6.055338042621253e-01	 1.398688107367978e+01
 1.544942497676428e+00	 6.199986722677746e-01	 1.400668584872059e+01
 1.539069661589300e+00	 6.344369562973791e-01	 1.402171152081103e+01
 1.533050509382219e+00	 6.488465230109521e-01	 1.403174324005162e+01
 1.526885053892187e+00	 6.632252309292361e-01	 1.403647134288573e+01
 1.520573348359646e+00	 6.775709313413737e-01	 1.403549231066059e+01
 1.514115486771055e+00	 6.918814692275953e-01	 1.402831033813842e+01
 1.507511604176975e+00	 7.061546841962082e-01	 1.401433954938098e+01
 1.500761876985099e+00	 7.203884114341700e-01	 1.399290689657563e+01
 1.567201895577572e+00	 5.785700220381091e-01	 1.391571105816260e+01
 1.561748484319895e+00	 5.931329729728604e-01	 1.393610708900864e+01
 1.556148440761827e+00	 6.076734996835462e-01	 1.395906261279015e+01
 1.550401658445603e+00	 6.221894802969892e-01	 1.397781300404846e+01
 1.544508070287495e+00	 6.366787829980763e-01	 1.399222035053794e+01
 1.538467648991344e+00	 6.511392669085174e-01	 1.400204875986539e+01
 1.532280407439509e+00	 6.655687829819892e-01	 1.400696466179040e+01
 1.525946399060564e+00	 6.799651749150182e-01	 1.400653769119492e+01
 1.519465718173073e+00	 6.943262800729225e-01	 1.400024219189923e+01
 1.512838500304809e+00	 7.086499304301169e-01	 1.398745937999932e+01
 1.506064922486813e+00	 7.229339535240435e-01	 1.396748020352510e+01
 1.572720212111296e+00	 5.806072404255672e-01	 1.388827591634572e+01
 1.567247598701303e+00	 5.952214693565675e-01	 1.390950219118747e+01
 1.561627836680003e+00	 6.098131951049671e-01	 1.393107195582987e+01
 1.555860819214778e+00	 6.243802883262041e-01	 1.394886392669029e+01
 1.549946478985690e+00	 6.389206096987737e-01	 1.396272431271255e+01
 1.543884788600468e+00	 6.534320108060826e-01	 1.397239870171228e+01
 1.537675760986831e+00	 6.679123350347429e-01	 1.397753227215696e+01
 1.531319449761481e+00	 6.823594184886628e-01	 1.397767059508879e+01
 1.524815949575090e+00	 6.967710909182496e-01	 1.397226106765436e+01
 1.518165396432643e+00	 7.111451766640257e-01	 1.396065501819443e+01
 1.511367967988527e+00	 7.254794956139171e-01	 1.394211052095635e+01
 1.578238528645020e+00	 5.826444588130253e-01	 1.386108988249213e+01
 1.572746713082711e+00	 5.973099657402750e-01	 1.388258605183334e+01
 1.567107232598178e+00	 6.119528905263878e-01	 1.390289105113055e+01
 1.561319979983952e+00	 6.265710963554187e-01	 1.391981977200015e+01
 1.555384887683886e+00	 6.411624363994712e-01	 1.393320492812350e+01
 1.549301928209593e+00	 6.557247547036475e-01	 1.394277610798129e+01
 1.543071114534153e+00	 6.702558870874964e-01	 1.394815989072290e+01
 1.536692500462399e+00	 6.847536620623069e-01	 1.394888056148834e+01
 1.530166180977109e+00	 6.992159017635768e-01	 1.394436146896170e+01
 1.523492292560477e+00	 7.136404228979347e-01	 1.393392706641768e+01
 1.516671013490241e+00	 7.280250377037903e-01	 1.391680567561454e+01
 1.583756845178744e+00	 5.846816772004836e-01	 1.383409151904791e+01
 1.578245827464119e+00	 5.993984621239823e-01	 1.385534613065473e+01
 1.572586628516353e+00	 6.140925859478090e-01	 1.387450541502086e+01
 1.566779140753127e+00	 6.287619043846334e-01	 1.389066525146628e+01
 1.560823296382081e+00	 6.434042631001685e-01	 1.390364724149998e+01
 1.554719067818717e+00	 6.580174986012128e-01	 1.391316749321032e+01
 1.548466468081475e+00	 6.725994391402498e-01	 1.391883663573197e+01
 1.542065551163317e+00	 6.871479056359515e-01	 1.392016044231174e+01
 1.535516412379126e+00	 7.016607126089038e-01	 1.391654110609625e+01
 1.528819188688310e+00	 7.161356691318436e-01	 1.390727921124074e+01
 1.521974058991955e+00	 7.305705797936639e-01	 1.389157644001475e+01
 1.589275161712467e+00	 5.867188955879415e-01	 1.380722311339410e+01
 1.583744941845527e+00	 6.014869585076895e-01	 1.382777338194292e+01
 1.578066024434528e+00	 6.162322813692296e-01	 1.384590406441683e+01
 1.572238301522302e+00	 6.309527124138483e-01	 1.386138856246443e+01
 1.566261705080276e+00	 6.456460898008659e-01	 1.387403974877025e+01
 1.560136207427842e+00	 6.603102424987780e-01	 1.388356276919078e+01
 1.553861821628797e+00	 6.749429911930032e-01	 1.388955495022354e+01
 1.547438601864234e+00	 6.895421492095959e-01	 1.389150632405965e+01
 1.540866643781144e+00	 7.041055234542311e-01	 1.388880081671472e+01
 1.534146084816145e+00	 7.186309153657525e-01	 1.388071814320639e+01
 1.527277104493669e+00	 7.331161218835373e-01	 1.386643645180687e+01
 1.594793478246191e+00	 5.887561139753996e-01	 1.378041397007515e+01
 1.589244056226935e+00	 6.035754548913966e-01	 1.379986219067409e+01
 1.583545420352704e+00	 6.183719767906507e-01	 1.381707944977099e+01
 1.577697462291476e+00	 6.331435204430630e-01	 1.383198131839067e+01
 1.571700113778472e+00	 6.478879165015633e-01	 1.384437432471380e+01
 1.565553347036966e+00	 6.626029863963432e-01	 1.385395517047237e+01
 1.559257175176120e+00	 6.772865432457567e-01	 1.386031052572228e+01
 1.552811652565151e+00	 6.919363927832403e-01	 1.386291745001975e+01
 1.546216875183162e+00	 7.065503342995584e-01	 1.386114448690290e+01
 1.539472980943978e+00	 7.211261615996613e-01	 1.385425347704265e+01
 1.532580149995384e+00	 7.356616639734104e-01	 1.384140213347789e+01
 1.600311794779915e+00	 5.907933323628578e-01	 1.375327378721763e+01
 1.594743170608343e+00	 6.056639512751041e-01	 1.377161030893384e+01
 1.589024816270880e+00	 6.205116722120716e-01	 1.378802738837044e+01
 1.583156623060651e+00	 6.353343284722778e-01	 1.380243847916331e+01
 1.577138522476668e+00	 6.501297432022611e-01	 1.381464615099554e+01
 1.570970486646090e+00	 6.648957302939086e-01	 1.382434118025794e+01
 1.564652528723442e+00	 6.796300952985103e-01	 1.383110222631830e+01
 1.558184703266069e+00	 6.943306363568849e-01	 1.383439614285590e+01
 1.551567106585180e+00	 7.089951451448855e-01	 1.383357897259464e+01
 1.544799877071812e+00	 7.236214078335700e-01	 1.382789767223062e+01
 1.537883195497098e+00	 7.382072060632838e-01	 1.381649261238482e+01
 1.484852740479956e+00	 7.127517851645501e-01	 1.406949666083973e+01
 1.478030482345320e+00	 7.267934104160217e-01	 1.404245913240025e+01
 1.471064398532219e+00	 7.407916735068846e-01	 1.402105404185877e+01
 1.463954787817169e+00	 7.547444252151039e-01	 1.400375296864525e+01
 1.456701990795627e+00	 7.686495158250901e-01	 1.398893381516319e+01
 1.449306390039613e+00	 7.825047961235984e-01	 1.397488802245233e+01
 1.441768410227416e+00	 7.963081184041763e-01	 1.395982861562869e+01
 1.434088518244981e+00	 8.100573374792716e-01	 1.394189908874350e+01
 1.426267223258586e+00	 8.237503116990802e-01	 1.391918313420646e+01
 1.418305076758474e+00	 8.373849039761999e-01	 1.388971521715127e+01
 1.410202672573099e+00	 8.509589828151404e-01	 1.385149199010464e+01
 1.490155785981671e+00	 7.152973272544235e-01	 1.404391522224048e+01
 1.483309162639410e+00	 7.293891011675074e-01	 1.401856072999098e+01
 1.476318199955547e+00	 7.434373580551233e-01	 1.399883010394103e+01
 1.469183197773659e+00	 7.574399410194433e-01	 1.398319038875963e+01
 1.461904497905612e+00	 7.713946926673226e-01	 1.397001356459484e+01
 1.454482484289754e+00	 7.852994561097538e-01	 1.395758377781662e+01
 1.446917583121085e+00	 7.991520759699053e-01	 1.394410541796490e+01
 1.439210262952998e+00	 8.129503993988403e-01	 1.392771205134934e+01
 1.431361034770224e+00	 8.266922770980054e-01	 1.390647621717109e+01
 1.423370452032611e+00	 8.403755643475433e-01	 1.387842008717740e+01
 1.415239110689432e+00	 8.539981220394799e-01	 1.384152698474498e+01
 1.495458831483385e+00	 7.178428693442965e-01	 1.401838580011512e+01
 1.488587842933500e+00	 7.319847919189931e-01	 1.399467271742037e+01
 1.481572001378877e+00	 7.460830426033624e-01	 1.397658231447283e+01
 1.474411607730149e+00	 7.601354568237831e-01	 1.396257573271719e+01
 1.467107005015597e+00	 7.741398695095552e-01	 1.395101752747265e+01
 1.459658578539896e+00	 7.880941160959098e-01	 1.394018291229903e+01
 1.452066756014754e+00	 8.019960335356344e-01	 1.392826586643397e+01
 1.444332007661016e+00	 8.158434613184090e-01	 1.391338811658018e+01
 1.436454846281862e+00	 8.296342424969306e-01	 1.389360899965877e+01
 1.428435827306749e+00	 8.433662247188872e-01	 1.386693620819520e+01
 1.420275548805764e+00	 8.570372612638198e-01	 1.383133741478715e+01
 1.500761876985099e+00	 7.203884114341700e-01	 1.399290689657563e+01
 1.493866523227591e+00	 7.345804826704793e-01	 1.397080136325182e+01
 1.486825802802207e+00	 7.487287271516014e-01	 1.395432382214599e+01
 1.479640017686639e+00	 7.628309726281228e-01	 1.394192817345565e+01
 1.472309512125581e+00	 7.768850463517878e-01	 1.393197007532820e+01
 1.464834672790038e+00	 7.908887760820656e-01	 1.392271420029943e+01
 1.457215928908424e+00	 8.048399911013638e-01	 1.391234237211207e+01
 1.449453752369033e+00	 8.187365232379776e-01	 1.389896259505073e+01
 1.441548657793499e+00	 8.325762078958558e-01	 1.388061898317826e+01
 1.433501202580886e+00	 8.463568850902305e-01	 1.385530259181829e+01
 1.425311986922097e+00	 8.600764004881596e-01	 1.382096314830614e+01
 1.506064922486813e+00	 7.229339535240435e-01	 1.396748020352510e+01
 1.499145203521681e+00	 7.371761734219648e-01	 1.394695598735626e+01
 1.492079604225536e+00	 7.513744116998404e-01	 1.393207070195081e+01
 1.484868427643128e+00	 7.655264884324626e-01	 1.392126969882725e+01
 1.477512019235565e+00	 7.796302231940202e-01	 1.391289829697786e+01
 1.470010767040179e+00	 7.936834360682212e-01	 1.390520904973378e+01
 1.462365101802093e+00	 8.076839486670929e-01	 1.389636990976698e+01
 1.454575497077052e+00	 8.216295851575467e-01	 1.388447330524491e+01
 1.446642469305138e+00	 8.355181732947811e-01	 1.386754613531980e+01
 1.438566577855024e+00	 8.493475454615743e-01	 1.384356068799445e+01
 1.430348425038430e+00	 8.631155397124990e-01	 1.381044647798194e+01
 1.511367967988527e+00	 7.254794956139171e-01	 1.394211052095635e+01
 1.504423883815772e+00	 7.397718641734506e-01	 1.392314887889077e+01
 1.497333405648866e+00	 7.540200962480792e-01	 1.390984187267090e+01
 1.490096837599618e+00	 7.682220042368019e-01	 1.390062502845366e+01
 1.482714526345549e+00	 7.823754000362526e-01	 1.389383191458853e+01
 1.475186861290320e+00	 7.964780960543767e-01	 1.388770141716932e+01
 1.467514274695763e+00	 8.105279062328222e-01	 1.388038593192769e+01
 1.459697241785069e+00	 8.245226470771154e-01	 1.386996048639331e+01
 1.451736280816776e+00	 8.384601386937065e-01	 1.385443280132083e+01
 1.443631953129161e+00	 8.523382058329179e-01	 1.383175429514695e+01
 1.435384863154761e+00	 8.661546789368390e-01	 1.379983202971144e+01
 1.516671013490241e+00	 7.280250377037903e-01	 1.391680567561454e+01
 1.509702564109862e+00	 7.423675549249363e-01	 1.389939521461302e+01
 1.502587207072195e+00	 7.566657807963180e-01	 1.388765901469088e+01
 1.495325247556108e+00	 7.709175200411417e-01	 1.388002153087443e+01
 1.487917033455534e+00	 7.851205768784849e-01	 1.387480320002236e+01
 1.480362955540462e+00	 7.992727560405325e-01	 1.387022772322687e+01
 1.472663447589432e+00	 8.133718637985515e-01	 1.386443028321459e+01
 1.464818986493087e+00	 8.274157089966843e-01	 1.385546671160760e+01
 1.456830092328413e+00	 8.414021040926318e-01	 1.384132361588843e+01
 1.448697328403298e+00	 8.553288662042614e-01	 1.381992947057688e+01
 1.440421301271094e+00	 8.691938181611787e-01	 1.378916667148951e+01
 1.521974058991955e+00	 7.305705797936639e-01	 1.389157644001475e+01
 1.514981244403952e+00	 7.449632456764221e-01	 1.387571297752424e+01
 1.507841008495524e+00	 7.593114653445568e-01	 1.386554648810928e+01
 1.500553657512598e+00	 7.736130358454814e-01	 1.385948914098200e+01
 1.493119540565518e+00	 7.878657537207173e-01	 1.385584689145273e+01
 1.485539049790604e+00	 8.020674160266884e-01	 1.385282676824457e+01
 1.477812620483101e+00	 8.162158213642806e-01	 1.384854511492355e+01
 1.469940731201105e+00	 8.303087709162533e-01	 1.384103680126559e+01
 1.461923903840051e+00	 8.443440694915568e-01	 1.382826541527344e+01
 1.453762703677435e+00	 8.583195265756048e-01	 1.380813444112099e+01
 1.445457739387427e+00	 8.722329573855183e-01	 1.377849942255322e+01
 1.527277104493669e+00	 7.331161218835373e-01	 1.386643645180687e+01
 1.520259924698043e+00	 7.475589364279078e-01	 1.385212287583238e+01
 1.513094809918854e+00	 7.619571498927957e-01	 1.384353125114942e+01
 1.505782067469088e+00	 7.763085516498209e-01	 1.383906027773648e+01
 1.498322047675502e+00	 7.906109305629498e-01	 1.383700011024558e+01
 1.490715144040745e+00	 8.048620760128439e-01	 1.383553964819577e+01
 1.482961793376771e+00	 8.190597789300099e-01	 1.383277479985796e+01
 1.475062475909123e+00	 8.332018328358221e-01	 1.382671773664122e+01
 1.467017715351689e+00	 8.472860348904822e-01	 1.381530714958945e+01
 1.458828078951573e+00	 8.613101869469485e-01	 1.379641951405829e+01
 1.450494177503759e+00	 8.752720966098582e-01	 1.376788136278090e+01
 1.532580149995384e+00	 7.356616639734104e-01	 1.384140213347789e+01
 1.525538604992134e+00	 7.501546271793935e-01	 1.382864826222740e+01
 1.518348611342182e+00	 7.646028344410344e-01	 1.382164277886076e+01
 1.511010477425578e+00	 7.790040674541607e-01	 1.381876976215292e+01
 1.503524554785487e+00	 7.933561074051823e-01	 1.381830227809986e+01
 1.495891238290887e+00	 8.076567359989997e-01	 1.381840967085589e+01
 1.488110966270440e+00	 8.219037364957390e-01	 1.381716584740218e+01
 1.480184220617140e+00	 8.360948947553907e-01	 1.381255857377284e+01
 1.472111526863327e+00	 8.502280002894076e-01	 1.380249979537083e+01
 1.463893454225710e+00	 8.643008473182919e-01	 1.378483698825952e+01
 1.455530615620092e+00	 8.783112358341981e-01	 1.375736554234261e+01
 1.537883195497098e+00	 7.382072060632838e-01	 1.381649261238482e+01
 1.530817285286224e+00	 7.527503179308798e-01	 1.380531505346208e+01
 1.523602412765512e+00	 7.672485189892734e-01	 1.379991298210444e+01
 1.516238887382068e+00	 7.816995832585004e-01	 1.379865473555513e+01
 1.508727061895471e+00	 7.961012842474147e-01	 1.379979503443980e+01
 1.501067332541028e+00	 8.104513959851553e-01	 1.380148227221111e+01
 1.493260139164109e+00	 8.247476940614683e-01	 1.380176681883112e+01
 1.485305965325159e+00	 8.389879566749597e-01	 1.379861035756466e+01
 1.477205338374964e+00	 8.531699656883329e-01	 1.378989626836396e+01
 1.468958829499848e+00	 8.672915076896358e-01	 1.377344106557340e+01
 1.460567053736424e+00	 8.813503750585379e-01	 1.374700689159329e+01
 1.410202672573099e+00	 8.509589828151404e-01	 1.385149199010464e+01
 1.401960646853748e+00	 8.644704233457093e-01	 1.380995509277723e+01
 1.393579678029252e+00	 8.779171083593124e-01	 1.377044925286497e+01
 1.385060486730614e+00	 8.912969293471414e-01	 1.373080683854523e+01
 1.376403835685372e+00	 9.046077875392665e-01	 1.368887499412260e+01
 1.367610529581559e+00	 9.178475949435935e-01	 1.364253108697556e+01
 1.358681414901191e+00	 9.310142753836735e-01	 1.358969884915283e+01
 1.349617379723212e+00	 9.441057655343182e-01	 1.352836516905616e+01
 1.340419353495889e+00	 9.571200159539837e-01	 1.345659748271063e+01
 1.331088306778692e+00	 9.700549921128828e-01	 1.337256170824452e+01
 1.321625250953728e+00	 9.829086754157715e-01	 1.327454066141144e+01
 1.415239110689432e+00	 8.539981220394799e-01	 1.384152698474498e+01
 1.406967649163940e+00	 8.675578177148011e-01	 1.380125045164162e+01
 1.398556748307928e+00	 8.810525266034527e-01	 1.376295062703518e+01
 1.390007131326081e+00	 8.944801326662385e-01	 1.372445155664297e+01
 1.381319563669963e+00	 9.078385296376212e-01	 1.368359280822662e+01
 1.372494852901493e+00	 9.211256220683921e-01	 1.363824512129704e+01
 1.363533848525838e+00	 9.343393263671870e-01	 1.358632676969124e+01
 1.354437441793652e+00	 9.474775718397983e-01	 1.352582059211711e+01
 1.345206565472660e+00	 9.605383017252481e-01	 1.345479163969152e+01
 1.335842193588616e+00	 9.735194742275715e-01	 1.337140538347712e+01
 1.326345341135705e+00	 9.864190635422561e-01	 1.327394641909478e+01
 1.420275548805764e+00	 8.570372612638198e-01	 1.383133741478715e+01
 1.411974651474132e+00	 8.706452120838929e-01	 1.379228239598940e+01
 1.403533818586605e+00	 8.841879448475933e-01	 1.375515416493776e+01
 1.394953775921547e+00	 8.976633359853357e-01	 1.371777078827003e+01
 1.386235291654553e+00	 9.110692717359754e-01	 1.367796669419078e+01
 1.377379176221426e+00	 9.244036491931905e-01	 1.363360852321576e+01
 1.368386282150486e+00	 9.376643773507000e-01	 1.358261171025078e+01
 1.359257503864092e+00	 9.508493781452777e-01	 1.352295775277264e+01
 1.349993777449431e+00	 9.639565874965123e-01	 1.345271211366426e+01
 1.340596080398540e+00	 9.769839563422605e-01	 1.337004270109984e+01
 1.331065431317683e+00	 9.899294516687410e-01	 1.327323886180189e+01
 1.425311986922097e+00	 8.600764004881596e-01	 1.382096314830614e+01
 1.416981653784324e+00	 8.737326064529847e-01	 1.378309198934760e+01
 1.408510888865280e+00	 8.873233630917337e-01	 1.374710342377953e+01
 1.399900420517014e+00	 9.008465393044321e-01	 1.371081185714792e+01
 1.391151019639143e+00	 9.143000138343299e-01	 1.367204898718593e+01
 1.382263499541360e+00	 9.276816763179889e-01	 1.362867985386695e+01
 1.373238715775133e+00	 9.409894283342131e-01	 1.357861963950961e+01
 1.364077565934532e+00	 9.542211844507574e-01	 1.351985117337490e+01
 1.354780989426202e+00	 9.673748732677765e-01	 1.345044308884859e+01
 1.345349967208464e+00	 9.804484384569494e-01	 1.336856857499252e+01
 1.335785521499661e+00	 9.934398397952255e-01	 1.327252465803749e+01
 1.430348425038430e+00	 8.631155397124990e-01	 1.381044647798194e+01
 1.421988656094516e+00	 8.768200008220767e-01	 1.377372270647658e+01
 1.413487959143956e+00	 8.904587813358738e-01	 1.373884434575571e+01
 1.404847065112480e+00	 9.040297426235290e-01	 1.370362443346378e+01
 1.396066747623734e+00	 9.175307559326844e-01	 1.366589431863240e+01
 1.387147822861295e+00	 9.309597034427879e-01	 1.362351990930408e+01
 1.378091149399780e+00	 9.443144793177263e-01	 1.357441868918269e+01
 1.368897628004972e+00	 9.575929907562372e-01	 1.351657745743823e+01
 1.359568201402973e+00	 9.707931590390407e-01	 1.344807073930089e+01
 1.350103854018387e+00	 9.839129205716383e-01	 1.336707980862624e+01
 1.340505611681638e+00	 9.969502279217106e-01	 1.327191225725112e+01
 1.435384863154761e+00	 8.661546789368390e-01	 1.379983202971144e+01
 1.426995658404708e+00	 8.799073951911681e-01	 1.376422034059436e+01
 1.418465029422632e+00	 8.935941995800143e-01	 1.373042516426719e+01
 1.409793709707947e+00	 9.072129459426264e-01	 1.369626043945397e+01
 1.400982475608325e+00	 9.207614980310390e-01	 1.365955952152102e+01
 1.392032146181230e+00	 9.342377305675862e-01	 1.361819162591998e+01
 1.382943583024427e+00	 9.476395303012394e-01	 1.357007905990222e+01
 1.373717690075412e+00	 9.609647970617171e-01	 1.351321519632849e+01
 1.364355413379744e+00	 9.742114448103047e-01	 1.344568313675806e+01
 1.354857740828311e+00	 9.873774026863266e-01	 1.336567500439921e+01
 1.345225701863616e+00	 1.000460616048196e+00	 1.327151180099434e+01
 1.440421301271094e+00	 8.691938181611787e-01	 1.378916667148952e+01
 1.432002660714900e+00	 8.829947895602601e-01	 1.375463291087678e+01
 1.423442099701308e+00	 8.967296178241545e-01	 1.372189631041165e+01
 1.414740354303413e+00	 9.103961492617231e-01	 1.368877395525586e+01
 1.405898203592915e+00	 9.239922401293934e-01	 1.365310353598826e+01
 1.396916469501163e+00	 9.375157576923845e-01	 1.361275998610385e+01
 1.387796016649073e+00	 9.509645812847524e-01	 1.356567292730760e+01
 1.378537752145852e+00	 9.643366033671966e-01	 1.350984487613290e+01
 1.369142625356515e+00	 9.776297305815690e-01	 1.344337015862453e+01
 1.359611627638236e+00	 9.908418848010159e-01	 1.336445447307332e+01
 1.349945792045593e+00	 1.003971004174681e+00	 1.327143503413095e+01
 1.445457739387427e+00	 8.722329573855183e-01	 1.377849942255322e+01
 1.437009663025092e+00	 8.860821839293519e-01	 1.374501057022529e+01
 1.428419169979983e+00	 8.998650360682950e-01	 1.371331031974309e+01
 1.419686998898880e+00	 9.135793525808200e-01	 1.368122112502073e+01
 1.410813931577505e+00	 9.272229822277478e-01	 1.364658731513984e+01
 1.401800792821098e+00	 9.407937848171836e-01	 1.360729192412728e+01
 1.392648450273721e+00	 9.542896322682656e-01	 1.356127434834036e+01
 1.383357814216293e+00	 9.677084096726764e-01	 1.350654878470349e+01
 1.373929837333286e+00	 9.810480163528338e-01	 1.344122339609872e+01
 1.364365514448159e+00	 9.943063669157046e-01	 1.336352014330986e+01
 1.354665882227571e+00	 1.007481392301165e+00	 1.327179521610102e+01
 1.450494177503759e+00	 8.752720966098582e-01	 1.376788136278090e+01
 1.442016665335284e+00	 8.891695782984433e-01	 1.373540551329710e+01
 1.433396240258659e+00	 9.030004543124354e-01	 1.370472173929251e+01
 1.424633643494346e+00	 9.167625558999170e-01	 1.367366006328164e+01
 1.415729659562097e+00	 9.304537243261026e-01	 1.364007373111689e+01
 1.406685116141032e+00	 9.440718119419818e-01	 1.360185623225503e+01
 1.397500883898368e+00	 9.576146832517783e-01	 1.355695916774018e+01
 1.388177876286733e+00	 9.710802159781560e-01	 1.350341091887233e+01
 1.378717049310056e+00	 9.844663021240974e-01	 1.343933606243595e+01
 1.369119401258083e+00	 9.977708490303935e-01	 1.336297547130057e+01
 1.359385972409549e+00	 1.010991780427650e+00	 1.327270703223518e+01
 1.455530615620092e+00	 8.783112358341981e-01	 1.375736554234261e+01
 1.447023667645476e+00	 8.922569726675355e-01	 1.372587188479058e+01
 1.438373310537335e+00	 9.061358725565759e-01	 1.369618703484375e+01
 1.429580288089813e+00	 9.199457592190138e-01	 1.366615076156925e+01
 1.420645387546687e+00	 9.336844664244569e-01	 1.363362748139808e+01
 1.411569439460966e+00	 9.473498390667804e-01	 1.359652346707383e+01
 1.402353317523015e+00	 9.609397342352916e-01	 1.355280492473477e+01
 1.392997938357172e+00	 9.744520222836353e-01	 1.350051689183302e+01
 1.383504261286828e+00	 9.878845878953618e-01	 1.343780290134308e+01
 1.373873288068007e+00	 1.001235331145082e+00	 1.336292535049332e+01
 1.364106062591526e+00	 1.014502168554135e+00	 1.327428650511978e+01
 1.460567053736424e+00	 8.813503750585379e-01	 1.374700689159329e+01
 1.452030669955668e+00	 8.953443670366273e-01	 1.371646568798005e+01
 1.443350380816011e+00	 9.092712908007162e-01	 1.368776449845803e+01
 1.434526932685279e+00	 9.231289625381107e-01	 1.365875499527123e+01
 1.425561115531278e+00	 9.369152085228115e-01	 1.362731499533302e+01
 1.416453762780900e+00	 9.506278661915790e-01	 1.359136585603473e+01
 1.407205751147663e+00	 9.642647852188050e-01	 1.354889075992167e+01
 1.397818000427613e+00	 9.778238285891152e-01	 1.349795384068437e+01
 1.388291473263599e+00	 9.913028736666262e-01	 1.343672009550381e+01
 1.378627174877931e+00	 1.004699813259771e+00	 1.336347602140928e+01
 1.368826152773504e+00	 1.018012556680620e+00	 1.327665090601096e+01
 1.321625250953728e+00	 9.829086754157715e-01	 1.327454066141144e+01
 1.312031237906827e+00	 9.956790642183707e-01	 1.316962786965442e+01
 1.302307359678445e+00	 1.008364174836378e+00	 1.306575337913103e+01
 1.292454748084572e+00	 1.020962042546018e+00	 1.296272730262371e+01
 1.282474574307871e+00	 1.033470722575117e+00	 1.286060575974469e+01
 1.272368048459337e+00	 1.045888291083646e+00	 1.275970907010074e+01
 1.262136419110763e+00	 1.058212846132738e+00	 1.266063985941174e+01
 1.251780972798406e+00	 1.070442508641154e+00	 1.256430098440859e+01
 1.241303033498205e+00	 1.082575423328206e+00	 1.247191317901487e+01
 1.230703962073022e+00	 1.094609759642155e+00	 1.238503232145267e+01
 1.219985155692344e+00	 1.106543712673123e+00	 1.230556621954889e+01
 1.326345341135705e+00	 9.864190635422561e-01	 1.327394641909478e+01
 1.316717063756494e+00	 9.992350608762931e-01	 1.316975989432177e+01
 1.306958457391582e+00	 1.011965475460793e+00	 1.306696212781782e+01
 1.297070657899159e+00	 1.024608335555111e+00	 1.296526698462287e+01
 1.287054840644686e+00	 1.037161689441457e+00	 1.286463222824583e+01
 1.276912220060977e+00	 1.049623606408945e+00	 1.276527818898023e+01
 1.266644049179016e+00	 1.061992177726070e+00	 1.266770636209753e+01
 1.256251619129828e+00	 1.074265517600587e+00	 1.257271783989464e+01
 1.245736258617842e+00	 1.086441764125807e+00	 1.248143147811554e+01
 1.235099333366140e+00	 1.098519080212305e+00	 1.239530169429047e+01
 1.224342245534102e+00	 1.110495654504098e+00	 1.231613579305214e+01
 1.331065431317683e+00	 9.899294516687410e-01	 1.327323886180189e+01
 1.321402889606161e+00	 1.002791057534216e+00	 1.316987225828406e+01
 1.311609555104719e+00	 1.015566776085209e+00	 1.306821623151923e+01
 1.301686567713747e+00	 1.028254628564204e+00	 1.296788504885851e+01
 1.291635106981499e+00	 1.040852656307796e+00	 1.286873454900934e+01
 1.281456391662618e+00	 1.053358921734244e+00	 1.277088129508516e+01
 1.271151679247269e+00	 1.065771509319401e+00	 1.267472167516058e+01
 1.260722265461252e+00	 1.078088526560020e+00	 1.258095085242790e+01
 1.250169483737478e+00	 1.090308104923408e+00	 1.249058146346692e+01
 1.239494704659258e+00	 1.102428400782457e+00	 1.240496196002761e+01
 1.228699335375861e+00	 1.114447596335073e+00	 1.232579448714153e+01
 1.335785521499661e+00	 9.934398397952255e-01	 1.327252465803749e+01
 1.326088715455828e+00	 1.006347054192139e+00	 1.317008303739771e+01
 1.316260652817856e+00	 1.019168076709625e+00	 1.306964349431211e+01
 1.306302477528334e+00	 1.031900921573297e+00	 1.297071736434732e+01
 1.296215373318313e+00	 1.044543623174136e+00	 1.287305500845877e+01
 1.286000563264258e+00	 1.057094237059543e+00	 1.277666546039504e+01
 1.275659309315521e+00	 1.069550840912732e+00	 1.268183603994762e+01
 1.265192911792674e+00	 1.081911535519453e+00	 1.258915183223219e+01
 1.254602708857115e+00	 1.094174445721008e+00	 1.249951492946785e+01
 1.243890075952376e+00	 1.106337721352606e+00	 1.241416332848578e+01
 1.233056425217619e+00	 1.118399538166049e+00	 1.233468937448655e+01
 1.340505611681638e+00	 9.969502279217106e-01	 1.327191225725112e+01
 1.330774541305496e+00	 1.009903050850062e+00	 1.317051199061197e+01
 1.320911750530994e+00	 1.022769377334040e+00	 1.307137333488765e+01
 1.310918387342923e+00	 1.035547214582390e+00	 1.297390137516885e+01
 1.300795639655127e+00	 1.048234590040476e+00	 1.287773745696366e+01
 1.290544734865898e+00	 1.060829552384841e+00	 1.278277933761908e+01
 1.280166939383774e+00	 1.073330172506063e+00	 1.268920132264384e+01
 1.269663558124097e+00	 1.085734544478885e+00	 1.259747428518273e+01
 1.259035933976751e+00	 1.098040786518609e+00	 1.250838546302968e+01
 1.248285447245494e+00	 1.110247041922757e+00	 1.242305792420629e+01
 1.237413515059377e+00	 1.122351479997025e+00	 1.234296958929320e+01
 1.345225701863616e+00	 1.000460616048196e+00	 1.327151180099434e+01
 1.335460367155163e+00	 1.013459047507984e+00	 1.317128047294036e+01
 1.325562848244131e+00	 1.026370677958456e+00	 1.307353670100556e+01
 1.315534297157510e+00	 1.039193507591483e+00	 1.297757601607634e+01
 1.305375905991940e+00	 1.051925556906815e+00	 1.288292722529066e+01
 1.295088906467539e+00	 1.064564867710140e+00	 1.278937307717793e+01
 1.284674569452026e+00	 1.077109504099395e+00	 1.269697093148202e+01
 1.274134204455520e+00	 1.089557553438318e+00	 1.260607332995025e+01
 1.263469159096387e+00	 1.101907127316209e+00	 1.251734836036640e+01
 1.252680818538612e+00	 1.114156362492908e+00	 1.243179970261021e+01
 1.241770604901135e+00	 1.126303421828000e+00	 1.235078624256452e+01
 1.349945792045593e+00	 1.003971004174681e+00	 1.327143503413096e+01
 1.340146193004830e+00	 1.017015044165907e+00	 1.317251134844023e+01
 1.330213945957269e+00	 1.029971978582871e+00	 1.307626598391925e+01
 1.320150206972099e+00	 1.042839800600576e+00	 1.298188162805195e+01
 1.309956172328754e+00	 1.055616523773155e+00	 1.288877104097882e+01
 1.299633078069179e+00	 1.068300183035438e+00	 1.279659824409755e+01
 1.289182199520279e+00	 1.080888835692725e+00	 1.270529973386096e+01
 1.278604850786943e+00	 1.093380562397751e+00	 1.261510561505770e+01
 1.267902384216024e+00	 1.105773468113810e+00	 1.252656054371193e+01
 1.257076189831730e+00	 1.118065683063059e+00	 1.244054436610495e+01
 1.246127694742894e+00	 1.130255363658975e+00	 1.235829233733265e+01
 1.354665882227571e+00	 1.007481392301165e+00	 1.327179521610102e+01
 1.344832018854497e+00	 1.020571040823830e+00	 1.317432890320222e+01
 1.334865043670406e+00	 1.033573279207287e+00	 1.307969493277516e+01
 1.324766116786686e+00	 1.046486093609668e+00	 1.298695987380790e+01
 1.314536438665568e+00	 1.059307490639495e+00	 1.289541694464194e+01
 1.304177249670820e+00	 1.072035498360737e+00	 1.280460773481919e+01
 1.293689829588532e+00	 1.084668167286057e+00	 1.271434397337727e+01
 1.283075497118366e+00	 1.097203571357183e+00	 1.262472923585435e+01
 1.272335609335660e+00	 1.109639808911411e+00	 1.253618047796613e+01
 1.261471561124847e+00	 1.121975003633209e+00	 1.244944928013874e+01
 1.250484784584652e+00	 1.134207305489950e+00	 1.236564268386744e+01
 1.359385972409549e+00	 1.010991780427650e+00	 1.327270703223518e+01
 1.349517844704164e+00	 1.024127037481753e+00	 1.317685875834645e+01
 1.339516141383543e+00	 1.037174579831702e+00	 1.308395856898498e+01
 1.329382026601274e+00	 1.050132386618762e+00	 1.299295365323373e+01
 1.319116705002382e+00	 1.062998457505834e+00	 1.290301420619856e+01
 1.308721421272460e+00	 1.075770813686036e+00	 1.281355569392645e+01
 1.298197459656784e+00	 1.088447498879388e+00	 1.272426118677050e+01
 1.287546143449789e+00	 1.101026580316616e+00	 1.263510365140878e+01
 1.276768834455297e+00	 1.113506149709012e+00	 1.254636808727096e+01
 1.265866932417966e+00	 1.125884324203359e+00	 1.245867338920403e+01
 1.254841874426411e+00	 1.138159247320926e+00	 1.237299381485822e+01
 1.364106062591526e+00	 1.014502168554135e+00	 1.327428650511978e+01
 1.354203670553832e+00	 1.027683034139675e+00	 1.318022778302820e+01
 1.344167239096680e+00	 1.040775880456118e+00	 1.308919310057191e+01
 1.333997936415861e+00	 1.053778679627854e+00	 1.300000701879250e+01
 1.323696971339196e+00	 1.066689424372174e+00	 1.291171324103230e+01
 1.313265592874101e+00	 1.079506129011334e+00	 1.282359743079146e+01
 1.302705089725037e+00	 1.092226830472720e+00	 1.273521012078474e+01
 1.292016789781212e+00	 1.104849589276049e+00	 1.264638960132138e+01
 1.281202059574933e+00	 1.117372490506612e+00	 1.255728467151864e+01
 1.270262303711083e+00	 1.129793644773510e+00	 1.246837713279172e+01
 1.259198964268169e+00	 1.142111189151902e+00	 1.238050390057259e+01
 1.368826152773504e+00	 1.018012556680620e+00	 1.327665090601096e+01
 1.358889496403499e+00	 1.031239030797598e+00	 1.318456400745102e+01
 1.348818336809817e+00	 1.044377181080534e+00	 1.309553583649231e+01
 1.338613846230449e+00	 1.057424972636947e+00	 1.300826509086616e+01
 1.328277237676010e+00	 1.070380391238514e+00	 1.292166552608391e+01
 1.317809764475741e+00	 1.083241444336634e+00	 1.283488933614291e+01
 1.307212719793291e+00	 1.096006162066051e+00	 1.274735064894900e+01
 1.296487436112634e+00	 1.108672598235481e+00	 1.265874902246072e+01
 1.285635284694570e+00	 1.121238831304213e+00	 1.256909282279342e+01
 1.274657675004201e+00	 1.133702965343661e+00	 1.247872236129661e+01
 1.263556054109927e+00	 1.146063130982877e+00	 1.238833266399032e+01
 1.219985155692344e+00	 1.106543712673123e+00	 1.230556621954889e+01
 1.209148047224987e+00	 1.118375504049553e+00	 1.221547616909324e+01
 1.198194104605323e+00	 1.130103382817315e+00	 1.209734786124610e+01
 1.187124830173637e+00	 1.141725626300516e+00	 1.195459735968245e+01
 1.175941759991205e+00	 1.153240540943162e+00	 1.179104879282379e+01
 1.164646463130784e+00	 1.164646463130784e+00	 1.161092428037112e+01
 1.153240540943163e+00	 1.175941759991205e+00	 1.141909057835223e+01
 1.141725626300516e+00	 1.187124830173636e+00	 1.123174025678718e+01
 1.130103382817315e+00	 1.198194104605323e+00	 1.106517907950595e+01
 1.118375504049554e+00	 1.209148047224986e+00	 1.092109485476027e+01
 1.106543712673123e+00	 1.219985155692344e+00	 1.080086352620140e+01
 1.224342245534102e+00	 1.110495654504098e+00	 1.231613579305214e+01
 1.213466433107933e+00	 1.122369702278301e+00	 1.222572381692130e+01
 1.202473369264628e+00	 1.134139466327376e+00	 1.210653491141793e+01
 1.191364561709971e+00	 1.145803217823018e+00	 1.196197233871116e+01
 1.180141551991174e+00	 1.157359257160816e+00	 1.179585411489332e+01
 1.168805914784823e+00	 1.168805914784822e+00	 1.161241703837166e+01
 1.157359257160817e+00	 1.180141551991173e+00	 1.141782518290993e+01
 1.145803217823018e+00	 1.191364561709971e+00	 1.123500816310589e+01
 1.134139466327377e+00	 1.202473369264628e+00	 1.107206622330780e+01
 1.122369702278302e+00	 1.213466433107933e+00	 1.093067326225593e+01
 1.110495654504098e+00	 1.224342245534102e+00	 1.081221371907519e+01
 1.228699335375861e+00	 1.114447596335073e+00	 1.232579448714153e+01
 1.217784818990879e+00	 1.126363900507050e+00	 1.223471108714249e+01
 1.206752633923933e+00	 1.138175549837438e+00	 1.211408181734773e+01
 1.195604293246305e+00	 1.149880809345520e+00	 1.196729884195124e+01
 1.184341343991142e+00	 1.161477973378470e+00	 1.179817577483302e+01
 1.172965366438862e+00	 1.172965366438861e+00	 1.161095998115752e+01
 1.161477973378471e+00	 1.184341343991142e+00	 1.141676785915643e+01
 1.149880809345520e+00	 1.195604293246305e+00	 1.123822242138095e+01
 1.138175549837439e+00	 1.206752633923933e+00	 1.107861039549762e+01
 1.126363900507050e+00	 1.217784818990879e+00	 1.093962373578931e+01
 1.114447596335073e+00	 1.228699335375860e+00	 1.082265932116360e+01
 1.233056425217619e+00	 1.118399538166049e+00	 1.233468937448655e+01
 1.222103204873826e+00	 1.130358098735798e+00	 1.224258181641227e+01
 1.211031898583237e+00	 1.142211633347500e+00	 1.212013049016133e+01
 1.199844024782640e+00	 1.153958400868021e+00	 1.197071811405185e+01
 1.188541135991111e+00	 1.165596689596125e+00	 1.179815576625298e+01
 1.177124818092900e+00	 1.177124818092899e+00	 1.160674272040522e+01
 1.165596689596125e+00	 1.188541135991110e+00	 1.141620301830834e+01
 1.153958400868022e+00	 1.199844024782639e+00	 1.124163824507225e+01
 1.142211633347501e+00	 1.211031898583237e+00	 1.108506721155902e+01
 1.130358098735799e+00	 1.222103204873826e+00	 1.094820381111851e+01
 1.118399538166049e+00	 1.233056425217619e+00	 1.083246126422754e+01
 1.237413515059377e+00	 1.122351479997025e+00	 1.234296958929320e+01
 1.226421590756772e+00	 1.134352296964547e+00	 1.224948205333249e+01
 1.215311163242542e+00	 1.146247716857562e+00	 1.212482518650779e+01
 1.204083756318974e+00	 1.158035992390523e+00	 1.197237386205345e+01
 1.192740927991079e+00	 1.169715405813778e+00	 1.179593843603744e+01
 1.181284269746939e+00	 1.181284269746938e+00	 1.160226869415089e+01
 1.169715405813779e+00	 1.192740927991079e+00	 1.141638559345564e+01
 1.158035992390523e+00	 1.204083756318974e+00	 1.124550936821845e+01
 1.146247716857562e+00	 1.215311163242542e+00	 1.109169075338321e+01
 1.134352296964547e+00	 1.226421590756772e+00	 1.095666942549444e+01
 1.122351479997024e+00	 1.237413515059377e+00	 1.084187880611526e+01
 1.241770604901135e+00	 1.126303421828000e+00	 1.235078624256452e+01
 1.230739976639719e+00	 1.138346495193296e+00	 1.225555997290348e+01
 1.219590427901847e+00	 1.150283800367624e+00	 1.212831242265114e+01
 1.208323487855308e+00	 1.162113583913025e+00	 1.197241216955612e+01
 1.196940719991048e+00	 1.173834122031433e+00	 1.179167060841329e+01
 1.185443721400977e+00	 1.185443721400977e+00	 1.159908127226786e+01
 1.173834122031433e+00	 1.196940719991048e+00	 1.141756900099877e+01
 1.162113583913025e+00	 1.208323487855309e+00	 1.125008796669515e+01
 1.150283800367624e+00	 1.219590427901847e+00	 1.109873349260750e+01
 1.138346495193295e+00	 1.230739976639718e+00	 1.096527484345586e+01
 1.126303421827999e+00	 1.241770604901135e+00	 1.085116945937791e+01
 1.246127694742894e+00	 1.130255363658975e+00	 1.235829233733265e+01
 1.235058362522665e+00	 1.142340693422043e+00	 1.226096579097702e+01
 1.223869692561152e+00	 1.154319883877686e+00	 1.213074088858107e+01
 1.212563219391643e+00	 1.166191175435527e+00	 1.197098141091807e+01
 1.201140511991016e+00	 1.177952838249087e+00	 1.178574601028418e+01
 1.189603173055016e+00	 1.189603173055015e+00	 1.159742047429551e+01
 1.177952838249087e+00	 1.201140511991016e+00	 1.142000370386040e+01
 1.166191175435527e+00	 1.212563219391643e+00	 1.125562457947872e+01
 1.154319883877686e+00	 1.223869692561152e+00	 1.110644621393618e+01
 1.142340693422044e+00	 1.235058362522665e+00	 1.097427258257605e+01
 1.130255363658975e+00	 1.246127694742894e+00	 1.086058891979969e+01
 1.250484784584652e+00	 1.134207305489950e+00	 1.236564268386744e+01
 1.239376748405611e+00	 1.146334891650792e+00	 1.226585167871006e+01
 1.228148957220457e+00	 1.158355967387747e+00	 1.213226136214318e+01
 1.216802950927977e+00	 1.170268766958029e+00	 1.196823216548460e+01
 1.205340303990985e+00	 1.182071554466741e+00	 1.178109697783234e+01
 1.193762624709054e+00	 1.193762624709054e+00	 1.159752015195488e+01
 1.182071554466741e+00	 1.205340303990985e+00	 1.142392000597613e+01
 1.170268766958029e+00	 1.216802950927977e+00	 1.126236802991378e+01
 1.158355967387748e+00	 1.228148957220456e+00	 1.111507793844146e+01
 1.146334891650792e+00	 1.239376748405611e+00	 1.098391333915950e+01
 1.134207305489950e+00	 1.250484784584652e+00	 1.087039099484263e+01
 1.254841874426411e+00	 1.138159247320926e+00	 1.237299381485822e+01
 1.243695134288558e+00	 1.150329089879540e+00	 1.227037167701850e+01
 1.232428221879761e+00	 1.162392050897809e+00	 1.213302662318773e+01
 1.221042682464312e+00	 1.174346358480530e+00	 1.196431713184735e+01
 1.209540095990954e+00	 1.186190270684395e+00	 1.177871680976525e+01
 1.197922076363092e+00	 1.197922076363092e+00	 1.159960805005788e+01
 1.186190270684396e+00	 1.209540095990953e+00	 1.142954628028698e+01
 1.174346358480531e+00	 1.221042682464311e+00	 1.127056534698634e+01
 1.162392050897809e+00	 1.232428221879761e+00	 1.112487584684634e+01
 1.150329089879541e+00	 1.243695134288557e+00	 1.099444591389214e+01
 1.138159247320926e+00	 1.254841874426410e+00	 1.088082753200855e+01
 1.259198964268169e+00	 1.142111189151902e+00	 1.238050390057259e+01
 1.248013520171504e+00	 1.154323288108289e+00	 1.227468161103227e+01
 1.236707486539066e+00	 1.166428134407871e+00	 1.213319136773704e+01
 1.225282414000646e+00	 1.178423950003032e+00	 1.195982906898754e+01
 1.213739887990922e+00	 1.190308986902049e+00	 1.177882458992589e+01
 1.202081528017131e+00	 1.202081528017130e+00	 1.160390586744594e+01
 1.190308986902050e+00	 1.213739887990922e+00	 1.143710827291936e+01
 1.178423950003033e+00	 1.225282414000646e+00	 1.128045679759626e+01
 1.166428134407871e+00	 1.236707486539065e+00	 1.113608520279047e+01
 1.154323288108289e+00	 1.248013520171503e+00	 1.100611713744492e+01
 1.142111189151901e+00	 1.259198964268169e+00	 1.089214834712068e+01
 1.263556054109927e+00	 1.146063130982877e+00	 1.238833266399032e+01
 1.252331906054450e+00	 1.158317486337037e+00	 1.227893900455001e+01
 1.240986751198371e+00	 1.170464217917933e+00	 1.213291212217062e+01
 1.229522145536980e+00	 1.182501541525534e+00	 1.195780474121978e+01
 1.217939679990891e+00	 1.194427703119704e+00	 1.178163341517265e+01
 1.206240979671170e+00	 1.206240979671169e+00	 1.161062931795814e+01
 1.194427703119704e+00	 1.217939679990891e+00	 1.144682572892204e+01
 1.182501541525534e+00	 1.229522145536980e+00	 1.129224632565886e+01
 1.170464217917933e+00	 1.240986751198370e+00	 1.114894927607719e+01
 1.158317486337038e+00	 1.252331906054450e+00	 1.101917179603208e+01
 1.146063130982877e+00	 1.263556054109928e+00	 1.090460115252827e+01
 1.106543712673123e+00	 1.219985155692344e+00	 1.080086352620140e+01
 1.094609759642155e+00	 1.230703962073022e+00	 1.068838071658953e+01
 1.082575423328206e+00	 1.241303033498205e+00	 1.056776224591954e+01
 1.070442508641155e+00	 1.251780972798405e+00	 1.044031956066906e+01
 1.058212846132739e+00	 1.262136419110762e+00	 1.030712435551234e+01
 1.045888291083646e+00	 1.272368048459336e+00	 1.016901781870375e+01
 1.033470722575118e+00	 1.282474574307871e+00	 1.002662083210519e+01
 1.020962042546018e+00	 1.292454748084571e+00	 9.880345038816698e+00
 1.008364174836378e+00	 1.302307359678444e+00	 9.730404688042979e+00
 9.956790642183712e-01	 1.312031237906827e+00	 9.576829164126551e+00
 9.829086754157713e-01	 1.321625250953728e+00	 9.419476104601937e+00
 1.110495654504098e+00	 1.224342245534102e+00	 1.081221371907519e+01
 1.098519080212306e+00	 1.235099333366139e+00	 1.070064458979535e+01
 1.086441764125807e+00	 1.245736258617842e+00	 1.058023329957909e+01
 1.074265517600588e+00	 1.256251619129828e+00	 1.045243106748866e+01
 1.061992177726070e+00	 1.266644049179015e+00	 1.031844946068170e+01
 1.049623606408945e+00	 1.276912220060977e+00	 1.017926971385092e+01
 1.037161689441457e+00	 1.287054840644685e+00	 1.003565301636353e+01
 1.024608335555111e+00	 1.297070657899159e+00	 9.888151678249940e+00
 1.011965475460794e+00	 1.306958457391581e+00	 9.737121082823668e+00
 9.992350608762938e-01	 1.316717063756493e+00	 9.582732330959079e+00
 9.864190635422563e-01	 1.326345341135705e+00	 9.424985479959975e+00
 1.114447596335073e+00	 1.228699335375860e+00	 1.082265932116360e+01
 1.102428400782457e+00	 1.239494704659257e+00	 1.071176252696246e+01
 1.090308104923408e+00	 1.250169483737478e+00	 1.059137431405663e+01
 1.078088526560020e+00	 1.260722265461251e+00	 1.046308182018891e+01
 1.065771509319401e+00	 1.271151679247268e+00	 1.032823237274171e+01
 1.053358921734244e+00	 1.281456391662617e+00	 1.018794289441123e+01
 1.040852656307797e+00	 1.291635106981499e+00	 1.004311029015976e+01
 1.028254628564204e+00	 1.301686567713746e+00	 9.894422724750434e+00
 1.015566776085209e+00	 1.311609555104719e+00	 9.742371696720948e+00
 1.002791057534217e+00	 1.321402889606161e+00	 9.587264811880081e+00
 9.899294516687408e-01	 1.331065431317683e+00	 9.429239157270786e+00
 1.118399538166049e+00	 1.233056425217619e+00	 1.083246126422754e+01
 1.106337721352607e+00	 1.243890075952375e+00	 1.072199877403401e+01
 1.094174445721009e+00	 1.254602708857114e+00	 1.060145126147713e+01
 1.081911535519453e+00	 1.265192911792673e+00	 1.047253796134741e+01
 1.069550840912733e+00	 1.275659309315521e+00	 1.033673788108217e+01
 1.057094237059543e+00	 1.286000563264258e+00	 1.019529930493255e+01
 1.044543623174136e+00	 1.296215373318313e+00	 1.004925029352904e+01
 1.031900921573297e+00	 1.306302477528334e+00	 9.899410086230450e+00
 1.019168076709625e+00	 1.316260652817856e+00	 9.746401310155488e+00
 1.006347054192139e+00	 1.326088715455828e+00	 9.590662896960719e+00
 9.934398397952255e-01	 1.335785521499661e+00	 9.432463606278271e+00
 1.122351479997024e+00	 1.237413515059377e+00	 1.084187880611526e+01
 1.110247041922757e+00	 1.248285447245493e+00	 1.073161583868882e+01
 1.098040786518609e+00	 1.259035933976751e+00	 1.061072834317986e+01
 1.085734544478886e+00	 1.269663558124097e+00	 1.048106386113643e+01
 1.073330172506064e+00	 1.280166939383774e+00	 1.034422903100234e+01
 1.060829552384841e+00	 1.290544734865898e+00	 1.020159920312942e+01
 1.048234590040476e+00	 1.300795639655126e+00	 1.005432906483935e+01
 1.035547214582390e+00	 1.310918387342922e+00	 9.903364180958858e+00
 1.022769377334040e+00	 1.320911750530994e+00	 9.749453351701138e+00
 1.009903050850062e+00	 1.330774541305495e+00	 9.593161686891907e+00
 9.969502279217108e-01	 1.340505611681639e+00	 9.434884293355839e+00
 1.126303421827999e+00	 1.241770604901135e+00	 1.085116945937791e+01
 1.114156362492908e+00	 1.252680818538611e+00	 1.074087442175577e+01
 1.101907127316210e+00	 1.263469159096387e+00	 1.061946792354069e+01
 1.089557553438318e+00	 1.274134204455519e+00	 1.048892205316633e+01
 1.077109504099395e+00	 1.284674569452026e+00	 1.035096706120152e+01
 1.064564867710140e+00	 1.295088906467538e+00	 1.020710109864706e+01
 1.051925556906816e+00	 1.305375905991940e+00	 1.005860098047425e+01
 1.039193507591483e+00	 1.315534297157510e+00	 9.906533877810698e+00
 1.026370677958456e+00	 1.325562848244130e+00	 9.751769838563543e+00
 1.013459047507985e+00	 1.335460367155162e+00	 9.594995033358423e+00
 1.000460616048195e+00	 1.345225701863616e+00	 9.436725621453359e+00
 1.130255363658975e+00	 1.246127694742894e+00	 1.086058891979969e+01
 1.118065683063059e+00	 1.257076189831730e+00	 1.075003334850881e+01
 1.105773468113810e+00	 1.267902384216024e+00	 1.062793046364578e+01
 1.093380562397751e+00	 1.278604850786942e+00	 1.049637317016358e+01
 1.080888835692726e+00	 1.289182199520278e+00	 1.035721134109342e+01
 1.068300183035439e+00	 1.299633078069179e+00	 1.021206169165617e+01
 1.055616523773155e+00	 1.309956172328754e+00	 1.006231869435523e+01
 1.042839800600576e+00	 1.320150206972098e+00	 9.909166436374182e+00
 1.029971978582872e+00	 1.330213945957268e+00	 9.753591316937236e+00
 1.017015044165907e+00	 1.340146193004830e+00	 9.596395479326485e+00
 1.003971004174681e+00	 1.349945792045594e+00	 9.438210870001051e+00
 1.134207305489950e+00	 1.250484784584652e+00	 1.087039099484263e+01
 1.121975003633209e+00	 1.261471561124847e+00	 1.075934949984083e+01
 1.109639808911411e+00	 1.272335609335659e+00	 1.063637445482230e+01
 1.097203571357183e+00	 1.283075497118365e+00	 1.050367587949143e+01
 1.084668167286057e+00	 1.293689829588532e+00	 1.036321930795543e+01
 1.072035498360737e+00	 1.304177249670819e+00	 1.021673581127922e+01
 1.059307490639495e+00	 1.314536438665567e+00	 1.006573307730319e+01
 1.046486093609669e+00	 1.324766116786686e+00	 9.911507446916655e+00
 1.033573279207288e+00	 1.334865043670405e+00	 9.755156802251744e+00
 1.020571040823830e+00	 1.344832018854497e+00	 9.597594199249007e+00
 1.007481392301165e+00	 1.354665882227571e+00	 9.439562134768796e+00
 1.138159247320926e+00	 1.254841874426410e+00	 1.088082753200855e+01
 1.125884324203360e+00	 1.265866932417965e+00	 1.076907774332299e+01
 1.113506149709012e+00	 1.276768834455296e+00	 1.064505635202763e+01
 1.101026580316616e+00	 1.287546143449788e+00	 1.051108681850954e+01
 1.088447498879389e+00	 1.298197459656785e+00	 1.036924640391215e+01
 1.075770813686036e+00	 1.308721421272460e+00	 1.022137635385495e+01
 1.062998457505835e+00	 1.319116705002382e+00	 1.006909315624893e+01
 1.050132386618762e+00	 1.329382026601273e+00	 9.913800770212610e+00
 1.037174579831703e+00	 1.339516141383542e+00	 9.756703719299679e+00
 1.024127037481753e+00	 1.349517844704164e+00	 9.598820939189324e+00
 1.010991780427650e+00	 1.359385972409549e+00	 9.441000267683258e+00
 1.142111189151901e+00	 1.259198964268169e+00	 1.089214834712068e+01
 1.129793644773510e+00	 1.270262303711083e+00	 1.077947086415007e+01
 1.117372490506613e+00	 1.281202059574933e+00	 1.065423050710173e+01
 1.104849589276049e+00	 1.292016789781210e+00	 1.051886052978512e+01
 1.092226830472720e+00	 1.302705089725037e+00	 1.037554601276004e+01
 1.079506129011335e+00	 1.313265592874101e+00	 1.022623422104248e+01
 1.066689424372175e+00	 1.323696971339195e+00	 1.007264605329159e+01
 1.053778679627855e+00	 1.333997936415861e+00	 9.916288477239158e+00
 1.040775880456119e+00	 1.344167239096680e+00	 9.758467842258261e+00
 1.027683034139676e+00	 1.354203670553831e+00	 9.600303956865407e+00
 1.014502168554135e+00	 1.364106062591526e+00	 9.442744816602913e+00
 1.146063130982877e+00	 1.263556054109928e+00	 1.090460115252827e+01
 1.133702965343661e+00	 1.274657675004201e+00	 1.079077949597480e+01
 1.121238831304213e+00	 1.285635284694569e+00	 1.066414910188488e+01
 1.108672598235482e+00	 1.296487436112634e+00	 1.052724939615195e+01
 1.096006162066051e+00	 1.307212719793290e+00	 1.038236939663538e+01
 1.083241444336634e+00	 1.317809764475741e+00	 1.023155825777133e+01
 1.070380391238514e+00	 1.328277237676009e+00	 1.007663692461114e+01
 1.057424972636948e+00	 1.338613846230449e+00	 9.919210788739226e+00
 1.044377181080534e+00	 1.348818336809817e+00	 9.760683234601791e+00
 1.031239030797599e+00	 1.358889496403499e+00	 9.602269961616170e+00
 1.018012556680620e+00	 1.368826152773504e+00	 9.445013965053571e+00
 9.829086754157713e-01	 1.321625250953728e+00	 9.419476104601937e+00
 9.700549921128829e-01	 1.331088306778692e+00	 9.264540237372564e+00
 9.571200159539842e-01	 1.340419353495888e+00	 9.117754507550817e+00
 9.441057655343186e-01	 1.349617379723212e+00	 8.978061971981866e+00
 9.310142753836740e-01	 1.358681414901191e+00	 8.844282629845164e+00
 9.178475949435938e-01	 1.367610529581558e+00	 8.715128382087217e+00
 9.046077875392666e-01	 1.376403835685371e+00	 8.589218006722550e+00
 8.912969293471418e-01	 1.385060486730614e+00	 8.465092057310347e+00
 8.779171083593124e-01	 1.393579678029252e+00	 8.341227594668862e+00
 8.644704233457093e-01	 1.401960646853748e+00	 8.216052665157022e+00
 8.509589828151398e-01	 1.410202672573099e+00	 8.087960442609379e+00
 9.864190635422563e-01	 1.326345341135705e+00	 9.424985479959975e+00
 9.735194742275718e-01	 1.335842193588616e+00	 9.270147214519957e+00
 9.605383017252481e-01	 1.345206565472659e+00	 9.123882842034627e+00
 9.474775718397984e-01	 1.354437441793652e+00	 8.985065876924157e+00
 9.343393263671871e-01	 1.363533848525838e+00	 8.852442912247247e+00
 9.211256220683921e-01	 1.372494852901492e+00	 8.724649037332110e+00
 9.078385296376210e-01	 1.381319563669962e+00	 8.600223270004941e+00
 8.944801326662387e-01	 1.390007131326081e+00	 8.477623908368692e+00
 8.810525266034527e-01	 1.398556748307928e+00	 8.355243709925485e+00
 8.675578177148010e-01	 1.406967649163940e+00	 8.231424809177625e+00
 8.539981220394797e-01	 1.415239110689432e+00	 8.104473288694390e+00
 9.899294516687408e-01	 1.331065431317683e+00	 9.429239157270786e+00
 9.769839563422604e-01	 1.340596080398540e+00	 9.274600426831245e+00
 9.639565874965123e-01	 1.349993777449430e+00	 9.128920038169857e+00
 9.508493781452780e-01	 1.359257503864092e+00	 8.991006617562995e+00
 9.376643773507003e-01	 1.368386282150485e+00	 8.859538174477427e+00
 9.244036491931907e-01	 1.377379176221426e+00	 8.733077977114881e+00
 9.110692717359757e-01	 1.386235291654553e+00	 8.610090440963628e+00
 8.976633359853357e-01	 1.394953775921547e+00	 8.488956932956981e+00
 8.841879448475931e-01	 1.403533818586604e+00	 8.367991396717690e+00
 8.706452120838934e-01	 1.411974651474132e+00	 8.245455707814752e+00
 8.570372612638193e-01	 1.420275548805765e+00	 8.119574671900688e+00
 9.934398397952255e-01	 1.335785521499661e+00	 9.432463606278271e+00
 9.804484384569493e-01	 1.345349967208463e+00	 9.278116931350688e+00
 9.673748732677770e-01	 1.354780989426202e+00	 9.133075812698101e+00
 9.542211844507575e-01	 1.364077565934532e+00	 8.996088565538198e+00
 9.409894283342132e-01	 1.373238715775133e+00	 8.865769359690958e+00
 9.276816763179894e-01	 1.382263499541361e+00	 8.740614552928664e+00
 9.143000138343300e-01	 1.391151019639143e+00	 8.619019035452602e+00
 9.008465393044325e-01	 1.399900420517014e+00	 8.499292485685308e+00
 8.873233630917334e-01	 1.408510888865280e+00	 8.379675440540948e+00
 8.737326064529849e-01	 1.416981653784324e+00	 8.258355086855980e+00
 8.600764004881593e-01	 1.425311986922097e+00	 8.133480684710062e+00
 9.969502279217108e-01	 1.340505611681639e+00	 9.434884293355839e+00
 9.839129205716385e-01	 1.350103854018388e+00	 9.280912966152261e+00
 9.707931590390406e-01	 1.359568201402972e+00	 9.136559222051931e+00
 9.575929907562377e-01	 1.368897628004972e+00	 9.000515565499041e+00
 9.443144793177264e-01	 1.378091149399780e+00	 8.871336992435864e+00
 9.309597034427880e-01	 1.387147822861295e+00	 8.747457781548801e+00
 9.175307559326846e-01	 1.396066747623734e+00	 8.627208294450265e+00
 9.040297426235294e-01	 1.404847065112480e+00	 8.508831682556927e+00
 8.904587813358740e-01	 1.413487959143956e+00	 8.390500401471055e+00
 8.768200008220763e-01	 1.421988656094516e+00	 8.270332437289186e+00
 8.631155397124987e-01	 1.430348425038429e+00	 8.146407153395176e+00
 1.000460616048195e+00	 1.345225701863616e+00	 9.436725621453359e+00
 9.873774026863272e-01	 1.354857740828312e+00	 9.283203889973443e+00
 9.742114448103052e-01	 1.364355413379743e+00	 9.139578602194122e+00
 9.609647970617169e-01	 1.373717690075412e+00	 9.004490875653591e+00
 9.476395303012396e-01	 1.382943583024426e+00	 8.876441120407051e+00
 9.342377305675863e-01	 1.392032146181229e+00	 8.753806288454790e+00
 9.207614980310395e-01	 1.400982475608324e+00	 8.634857129603128e+00
 9.072129459426262e-01	 1.409793709707947e+00	 8.517775349065573e+00
 8.935941995800144e-01	 1.418465029422631e+00	 8.400670565231895e+00
 8.799073951911683e-01	 1.426995658404708e+00	 8.281596969735556e+00
 8.661546789368385e-01	 1.435384863154762e+00	 8.158569596196422e+00
 1.003971004174681e+00	 1.349945792045594e+00	 9.438210870001051e+00
 9.908418848010159e-01	 1.359611627638235e+00	 9.285204121839612e+00
 9.776297305815695e-01	 1.369142625356514e+00	 9.142341508479355e+00
 9.643366033671970e-01	 1.378537752145852e+00	 9.008217108360105e+00
 9.509645812847527e-01	 1.387796016649073e+00	 8.881281256244435e+00
 9.375157576923852e-01	 1.396916469501163e+00	 8.759858251299070e+00
 9.239922401293934e-01	 1.405898203592915e+00	 8.642164068806233e+00
 9.103961492617232e-01	 1.414740354303413e+00	 8.526323968314358e+00
 8.967296178241547e-01	 1.423442099701306e+00	 8.410389894255353e+00
 8.829947895602606e-01	 1.432002660714899e+00	 8.292357568842558e+00
 8.691938181611785e-01	 1.440421301271095e+00	 8.170183181412604e+00
 1.007481392301165e+00	 1.354665882227571e+00	 9.439562134768796e+00
 9.943063669157047e-01	 1.364365514448159e+00	 9.287127080685268e+00
 9.810480163528339e-01	 1.373929837333286e+00	 9.145054655536647e+00
 9.677084096726761e-01	 1.383357814216292e+00	 9.011896170760810e+00
 9.542896322682658e-01	 1.392648450273721e+00	 8.886056319382467e+00
 9.407937848171836e-01	 1.401800792821098e+00	 8.765811343423922e+00
 9.272229822277483e-01	 1.410813931577505e+00	 8.649327201822420e+00
 9.135793525808205e-01	 1.419686998898880e+00	 8.534677629150762e+00
 8.998650360682949e-01	 1.428419169979983e+00	 8.419861978733865e+00
 8.860821839293523e-01	 1.437009663025092e+00	 8.302822747629266e+00
 8.722329573855182e-01	 1.445457739387427e+00	 8.181462685403979e+00
 1.010991780427650e+00	 1.359385972409549e+00	 9.441000267683258e+00
 9.977708490303936e-01	 1.369119401258083e+00	 9.289185124969276e+00
 9.844663021240978e-01	 1.378717049310056e+00	 9.147923857175808e+00
 9.710802159781560e-01	 1.388177876286732e+00	 9.015729205450651e+00
 9.576146832517791e-01	 1.397500883898368e+00	 8.890964577946690e+00
 9.440718119419821e-01	 1.406685116141032e+00	 8.771862677425881e+00
 9.304537243261030e-01	 1.415729659562096e+00	 8.656544125937575e+00
 9.167625558999171e-01	 1.424633643494346e+00	 8.543035974322251e+00
 9.030004543124356e-01	 1.433396240258659e+00	 8.429289987663484e+00
 8.891695782984440e-01	 1.442016665335284e+00	 8.313200601791914e+00
 8.752720966098581e-01	 1.450494177503760e+00	 8.192622450511530e+00
 1.014502168554135e+00	 1.364106062591526e+00	 9.442744816602913e+00
 1.001235331145083e+00	 1.373873288068007e+00	 9.291589492283579e+00
 9.878845878953620e-01	 1.383504261286827e+00	 9.151153966312235e+00
 9.744520222836356e-01	 1.392997938357172e+00	 9.019916531188340e+00
 9.609397342352921e-01	 1.402353317523015e+00	 8.896203590695514e+00
 9.473498390667805e-01	 1.411569439460965e+00	 8.778208748762907e+00
 9.336844664244571e-01	 1.420645387546686e+00	 8.664011891652553e+00
 9.199457592190140e-01	 1.429580288089812e+00	 8.551598148650093e+00
 9.061358725565760e-01	 1.438373310537335e+00	 8.438876619881757e+00
 8.922569726675357e-01	 1.447023667645476e+00	 8.323698763968327e+00
 8.783112358341978e-01	 1.455530615620092e+00	 8.203876342896995e+00
 1.018012556680620e+00	 1.368826152773504e+00	 9.445013965053571e+00
 1.004699813259772e+00	 1.378627174877930e+00	 9.294550238957866e+00
 9.913028736666265e-01	 1.388291473263599e+00	 9.154948814914995e+00
 9.778238285891157e-01	 1.397818000427612e+00	 9.024657583642238e+00
 9.642647852188052e-01	 1.407205751147662e+00	 8.901970149007930e+00
 9.506278661915794e-01	 1.416453762780900e+00	 8.785045379407645e+00
 9.369152085228121e-01	 1.425561115531278e+00	 8.671926948407748e+00
 9.231289625381113e-01	 1.434526932685279e+00	 8.560562747218073e+00
 9.092712908007166e-01	 1.443350380816011e+00	 8.448824055096274e+00
 8.953443670366279e-01	 1.452030669955668e+00	 8.334524357962573e+00
 8.813503750585376e-01	 1.460567053736424e+00	 8.215437710300161e+00
 8.509589828151398e-01	 1.410202672573099e+00	 8.087960442609379e+00
 8.373849039762001e-01	 1.418305076758474e+00	 7.960593752510627e+00
 8.237503116990805e-01	 1.426267223258587e+00	 7.837816052723994e+00
 8.100573374792719e-01	 1.434088518244980e+00	 7.718353270855252e+00
 7.963081184041765e-01	 1.441768410227416e+00	 7.600966348699060e+00
 7.825047961235986e-01	 1.449306390039613e+00	 7.484461628070959e+00
 7.686495158250903e-01	 1.456701990795628e+00	 7.367700488964342e+00
 7.547444252151042e-01	 1.463954787817169e+00	 7.249608195745502e+00
 7.407916735068850e-01	 1.471064398532219e+00	 7.129181913309134e+00
 7.267934104160221e-01	 1.478030482345320e+00	 7.005497861472532e+00
 7.127517851645497e-01	 1.484852740479956e+00	 6.877717582272243e+00
 8.539981220394797e-01	 1.415239110689432e+00	 8.104473288694390e+00
 8.403755643475437e-01	 1.423370452032611e+00	 7.978090376865422e+00
 8.266922770980055e-01	 1.431361034770225e+00	 7.856258554376365e+00
 8.129503993988404e-01	 1.439210262952998e+00	 7.737708351477659e+00
 7.991520759699055e-01	 1.446917583121085e+00	 7.621207348255227e+00
 7.852994561097542e-01	 1.454482484289755e+00	 7.505570759935892e+00
 7.713946926673229e-01	 1.461904497905612e+00	 7.389671253636656e+00
 7.574399410194437e-01	 1.469183197773659e+00	 7.272447951315804e+00
 7.434373580551237e-01	 1.476318199955548e+00	 7.152914580061235e+00
 7.293891011675077e-01	 1.483309162639410e+00	 7.030166737343180e+00
 7.152973272544232e-01	 1.490155785981670e+00	 6.903388245403795e+00
 8.570372612638193e-01	 1.420275548805765e+00	 8.119574671900688e+00
 8.433662247188874e-01	 1.428435827306749e+00	 7.994123027616848e+00
 8.296342424969307e-01	 1.436454846281862e+00	 7.873211246133762e+00
 8.158434613184093e-01	 1.444332007661015e+00	 7.755571118083026e+00
 8.019960335356346e-01	 1.452066756014755e+00	 7.639973439484816e+00
 7.880941160959102e-01	 1.459658578539896e+00	 7.525238807323601e+00
 7.741398695095553e-01	 1.467107005015596e+00	 7.410247625349507e+00
 7.601354568237835e-01	 1.474411607730149e+00	 7.293949273881937e+00
 7.460830426033628e-01	 1.481572001378878e+00	 7.175370403935661e+00
 7.319847919189938e-01	 1.488587842933501e+00	 7.053622322613689e+00
 7.178428693442964e-01	 1.495458831483385e+00	 6.927907443440914e+00
 8.600764004881593e-01	 1.425311986922097e+00	 8.133480684710062e+00
 8.463568850902308e-01	 1.433501202580886e+00	 8.008914044305811e+00
 8.325762078958562e-01	 1.441548657793500e+00	 7.888901117395521e+00
 8.187365232379781e-01	 1.449453752369034e+00	 7.772171633795256e+00
 8.048399911013641e-01	 1.457215928908425e+00	 7.657496206156761e+00
 7.908887760820656e-01	 1.464834672790037e+00	 7.543697346676725e+00
 7.768850463517877e-01	 1.472309512125581e+00	 7.429659672455474e+00
 7.628309726281230e-01	 1.479640017686639e+00	 7.314339252295154e+00
 7.487287271516017e-01	 1.486825802802207e+00	 7.196772054394579e+00
 7.345804826704796e-01	 1.493866523227591e+00	 7.076081461199463e+00
 7.203884114341699e-01	 1.500761876985099e+00	 6.951484824537880e+00
 8.631155397124987e-01	 1.430348425038429e+00	 8.146407153395176e+00
 8.493475454615743e-01	 1.438566577855023e+00	 8.022685467987962e+00
 8.355181732947811e-01	 1.446642469305137e+00	 7.903554846162500e+00
 8.216295851575470e-01	 1.454575497077051e+00	 7.787739655923081e+00
 8.076839486670931e-01	 1.462365101802093e+00	 7.674006949459288e+00
 7.936834360682214e-01	 1.470010767040179e+00	 7.561177711886533e+00
 7.796302231940202e-01	 1.477512019235566e+00	 7.448137276735434e+00
 7.655264884324627e-01	 1.484868427643128e+00	 7.333844859919873e+00
 7.513744116998406e-01	 1.492079604225536e+00	 7.217342170773616e+00
 7.371761734219652e-01	 1.499145203521681e+00	 7.097761065695854e+00
 7.229339535240433e-01	 1.506064922486813e+00	 6.974330216970460e+00
 8.661546789368385e-01	 1.435384863154762e+00	 8.158569596196422e+00
 8.523382058329181e-01	 1.443631953129161e+00	 8.035659003152592e+00
 8.384601386937066e-01	 1.451736280816775e+00	 7.917398764321932e+00
 8.245226470771158e-01	 1.459697241785069e+00	 7.802504604262017e+00
 8.105279062328226e-01	 1.467514274695763e+00	 7.689736658953329e+00
 7.964780960543770e-01	 1.475186861290321e+00	 7.577910967552981e+00
 7.823754000362527e-01	 1.482714526345549e+00	 7.465910108620330e+00
 7.682220042368022e-01	 1.490096837599618e+00	 7.352692931485356e+00
 7.540200962480793e-01	 1.497333405648865e+00	 7.237303340435683e+00
 7.397718641734509e-01	 1.504423883815772e+00	 7.118878096520349e+00
 7.254794956139168e-01	 1.511367967988527e+00	 6.996653608954400e+00
 8.691938181611785e-01	 1.440421301271095e+00	 8.170183181412604e+00
 8.553288662042616e-01	 1.448697328403298e+00	 8.048055979506548e+00
 8.414021040926321e-01	 1.456830092328413e+00	 7.930658822770106e+00
 8.274157089966848e-01	 1.464818986493087e+00	 7.816695529190735e+00
 8.133718637985518e-01	 1.472663447589432e+00	 7.704915983306643e+00
 7.992727560405329e-01	 1.480362955540462e+00	 7.594127882009274e+00
 7.851205768784851e-01	 1.487917033455534e+00	 7.483207602173858e+00
 7.709175200411420e-01	 1.495325247556108e+00	 7.371110139700212e+00
 7.566657807963181e-01	 1.502587207072195e+00	 7.256878076695401e+00
 7.423675549249368e-01	 1.509702564109862e+00	 7.139649540830749e+00
 7.280250377037900e-01	 1.516671013490241e+00	 7.018665128255670e+00
 8.722329573855182e-01	 1.445457739387427e+00	 8.181462685403979e+00
 8.583195265756052e-01	 1.453762703677435e+00	 8.060097313630532e+00
 8.443440694915575e-01	 1.461923903840051e+00	 7.943560556367405e+00
 8.303087709162533e-01	 1.469940731201105e+00	 7.830541079582533e+00
 8.162158213642809e-01	 1.477812620483101e+00	 7.719775200814585e+00
 8.020674160266885e-01	 1.485539049790604e+00	 7.610058900120782e+00
 7.878657537207174e-01	 1.493119540565518e+00	 7.500258929840852e+00
 7.736130358454816e-01	 1.500553657512598e+00	 7.389322971627304e+00
 7.593114653445570e-01	 1.507841008495524e+00	 7.276288796508046e+00
 7.449632456764226e-01	 1.514981244403952e+00	 7.160292391225640e+00
 7.305705797936637e-01	 1.521974058991955e+00	 7.040575021599796e+00
 8.752720966098581e-01	 1.450494177503760e+00	 8.192622450511530e+00
 8.613101869469485e-01	 1.458828078951573e+00	 8.072003470509824e+00
 8.472860348904825e-01	 1.467017715351689e+00	 7.956329048735578e+00
 8.332018328358224e-01	 1.475062475909123e+00	 7.844269470528050e+00
 8.190597789300099e-01	 1.482961793376771e+00	 7.734544189713477e+00
 8.048620760128443e-01	 1.490715144040745e+00	 7.625934115861911e+00
 7.906109305629501e-01	 1.498322047675502e+00	 7.517292976967152e+00
 7.763085516498214e-01	 1.505782067469088e+00	 7.407557704830670e+00
 7.619571498927961e-01	 1.513094809918854e+00	 7.295757797938110e+00
 7.475589364279082e-01	 1.520259924698043e+00	 7.181023624229463e+00
 7.331161218835368e-01	 1.527277104493670e+00	 7.062593633884156e+00
 8.783112358341978e-01	 1.455530615620092e+00	 8.203876342896995e+00
 8.643008473182925e-01	 1.463893454225710e+00	 8.083994424944473e+00
 8.502280002894078e-01	 1.472111526863326e+00	 7.969188896897833e+00
 8.360948947553912e-01	 1.480184220617141e+00	 7.858108450873359e+00
 8.219037364957391e-01	 1.488110966270440e+00	 7.749452398292553e+00
 8.076567359989999e-01	 1.495891238290886e+00	 7.641983244679254e+00
 7.933561074051826e-01	 1.503524554785487e+00	 7.534538316094993e+00
 7.790040674541611e-01	 1.511010477425578e+00	 7.426040383300248e+00
 7.646028344410348e-01	 1.518348611342183e+00	 7.315507237405582e+00
 7.501546271793939e-01	 1.525538604992134e+00	 7.202060178571227e+00
 7.356616639734104e-01	 1.532580149995384e+00	 7.084931387198259e+00
 8.813503750585376e-01	 1.460567053736424e+00	 8.215437710300161e+00
 8.672915076896361e-01	 1.468958829499848e+00	 8.096289622836983e+00
 8.531699656883333e-01	 1.477205338374965e+00	 7.982364175768413e+00
 8.389879566749601e-01	 1.485305965325158e+00	 7.872285270583102e+00
 8.247476940614684e-01	 1.493260139164109e+00	 7.764728814807416e+00
 8.104513959851558e-01	 1.501067332541028e+00	 7.658435595640114e+00
 7.961012842474153e-01	 1.508727061895471e+00	 7.552223181043902e+00
 7.816995832585010e-01	 1.516238887382068e+00	 7.444996793155330e+00
 7.672485189892737e-01	 1.523602412765513e+00	 7.335759106722398e+00
 7.527503179308801e-01	 1.530817285286224e+00	 7.223618933257675e+00
 7.382072060632838e-01	 1.537883195497098e+00	 7.107798759657074e+00
 7.127517851645497e-01	 1.484852740479956e+00	 6.877717582272243e+00
 6.986689454944818e-01	 1.491530915793474e+00	 6.750420100152943e+00
 6.845470366916138e-01	 1.498064792565001e+00	 6.627960199952479e+00
 6.703882006204407e-01	 1.504454196256894e+00	 6.509296095150959e+00
 6.561945747709756e-01	 1.510698993250221e+00	 6.393475934924249e+00
 6.419682913182568e-01	 1.516799090554846e+00	 6.279639915645621e+00
 6.277114761952866e-01	 1.522754435494714e+00	 6.167021494577662e+00
 6.134262481801306e-01	 1.528565015368905e+00	 6.054947722731280e+00
 5.991147179978625e-01	 1.534230857089125e+00	 5.942838719290802e+00
 5.847789874380317e-01	 1.539752026794263e+00	 5.830069295729812e+00
 5.704211484882766e-01	 1.545128629442677e+00	 5.713390834589387e+00
 7.152973272544232e-01	 1.490155785981670e+00	 6.903388245403795e+00
 7.011641917283905e-01	 1.496857811921308e+00	 6.777121220363417e+00
 6.869918475369410e-01	 1.503415023967019e+00	 6.655657133353886e+00
 6.727824441940855e-01	 1.509827246957812e+00	 6.537941048434149e+00
 6.585381268237293e-01	 1.516094346797543e+00	 6.423010622830251e+00
 6.442610352158220e-01	 1.522216230163971e+00	 6.309998251160073e+00
 6.299533028959843e-01	 1.528192844192909e+00	 6.198132287779085e+00
 6.156170562093451e-01	 1.534024176138079e+00	 6.086737364659497e+00
 6.012544134192835e-01	 1.539710253007301e+00	 5.975233827754658e+00
 5.868674838217387e-01	 1.545251141175671e+00	 5.863114641705143e+00
 5.724583668757346e-01	 1.550646945976401e+00	 5.747463663691683e+00
 7.178428693442964e-01	 1.495458831483385e+00	 6.927907443440911e+00
 7.036594379622995e-01	 1.502184708049142e+00	 6.802724845622641e+00
 6.894366583822682e-01	 1.508765255369037e+00	 6.682300126568299e+00
 6.751766877677297e-01	 1.515200297658729e+00	 6.565566978851395e+00
 6.608816788764826e-01	 1.521489700344865e+00	 6.451554509911935e+00
 6.465537791133872e-01	 1.527633369773095e+00	 6.339389416124137e+00
 6.321951295966817e-01	 1.533631252891104e+00	 6.228297210338503e+00
 6.178078642385600e-01	 1.539483336907254e+00	 6.117602520749543e+00
 6.033941088407045e-01	 1.545189648925476e+00	 6.006728484626660e+00
 5.889559802054463e-01	 1.550750255557079e+00	 5.895195265836207e+00
 5.744955852631930e-01	 1.556165262510125e+00	 5.780632790307140e+00
 7.203884114341699e-01	 1.500761876985099e+00	 6.951484824537884e+00
 7.061546841962083e-01	 1.507511604176975e+00	 6.827433113142585e+00
 6.918814692275956e-01	 1.514115486771056e+00	 6.708084508253791e+00
 6.775709313413738e-01	 1.520573348359646e+00	 6.592363091155299e+00
 6.632252309292364e-01	 1.526885053892187e+00	 6.479291345074188e+00
 6.488465230109525e-01	 1.533050509382220e+00	 6.367992356243350e+00
 6.344369562973792e-01	 1.539069661589300e+00	 6.257691043205933e+00
 6.199986722677749e-01	 1.544942497676429e+00	 6.147714432659912e+00
 6.055338042621253e-01	 1.550669044843652e+00	 6.037491005981542e+00
 5.910444765891533e-01	 1.556249369938487e+00	 5.926549146075891e+00
 5.765328036506510e-01	 1.561683579043848e+00	 5.813059057058473e+00
 7.229339535240433e-01	 1.506064922486813e+00	 6.974330216970451e+00
 7.086499304301171e-01	 1.512838500304809e+00	 6.851448449208519e+00
 6.943262800729225e-01	 1.519465718173072e+00	 6.733205988048613e+00
 6.799651749150185e-01	 1.525946399060564e+00	 6.618519046014827e+00
 6.655687829819895e-01	 1.532280407439509e+00	 6.506405391203566e+00
 6.511392669085173e-01	 1.538467648991344e+00	 6.395986572531903e+00
 6.366787829980763e-01	 1.544508070287495e+00	 6.286489147388588e+00
 6.221894802969895e-01	 1.550401658445603e+00	 6.177244930463200e+00
 6.076734996835462e-01	 1.556148440761827e+00	 6.067690288497555e+00
 5.931329729728607e-01	 1.561748484319895e+00	 5.957364511356609e+00
 5.785700220381091e-01	 1.567201895577572e+00	 5.844903929265563e+00
 7.254794956139168e-01	 1.511367967988527e+00	 6.996653608954396e+00
 7.111451766640260e-01	 1.518165396432643e+00	 6.874973549620381e+00
 6.967710909182498e-01	 1.524815949575090e+00	 6.757860637838003e+00
 6.823594184886627e-01	 1.531319449761481e+00	 6.644224942297022e+00
 6.679123350347429e-01	 1.537675760986831e+00	 6.533081408654750e+00
 6.534320108060827e-01	 1.543884788600468e+00	 6.423552106183240e+00
 6.389206096987738e-01	 1.549946478985691e+00	 6.314867450381151e+00
 6.243802883262042e-01	 1.555860819214778e+00	 6.206366420807452e+00
 6.098131951049672e-01	 1.561627836680002e+00	 6.097495799506953e+00
 5.952214693565677e-01	 1.567247598701303e+00	 5.987808461191275e+00
 5.806072404255672e-01	 1.572720212111296e+00	 5.876329507434058e+00
 7.280250377037900e-01	 1.516671013490241e+00	 7.018665128255673e+00
 7.136404228979348e-01	 1.523492292560477e+00	 6.898211359947314e+00
 6.992159017635772e-01	 1.530166180977108e+00	 6.782244872841860e+00
 6.847536620623073e-01	 1.536692500462399e+00	 6.669671299181360e+00
 6.702558870874964e-01	 1.543071114534153e+00	 6.559504638570678e+00
 6.557247547036478e-01	 1.549301928209593e+00	 6.450869523275174e+00
 6.411624363994716e-01	 1.555384887683886e+00	 6.343002432426580e+00
 6.265710963554190e-01	 1.561319979983953e+00	 6.235251874898183e+00
 6.119528905263880e-01	 1.567107232598178e+00	 6.127077566857830e+00
 5.973099657402753e-01	 1.572746713082712e+00	 6.018048635952146e+00
 5.826444588130253e-01	 1.578238528645019e+00	 5.907498539511080e+00
 7.305705797936637e-01	 1.521974058991955e+00	 7.040575021599800e+00
 7.161356691318436e-01	 1.528819188688310e+00	 6.921365055594926e+00
 7.016607126089042e-01	 1.535516412379126e+00	 6.806555432533637e+00
 6.871479056359516e-01	 1.542065551163317e+00	 6.695049038111691e+00
 6.725994391402500e-01	 1.548466468081476e+00	 6.585860786048505e+00
 6.580174986012132e-01	 1.554719067818717e+00	 6.478119899318885e+00
 6.434042631001690e-01	 1.560823296382082e+00	 6.371071112613677e+00
 6.287619043846335e-01	 1.566779140753127e+00	 6.264074816304223e+00
 6.140925859478091e-01	 1.572586628516354e+00	 6.156606168587324e+00
 5.993984621239824e-01	 1.578245827464120e+00	 6.048253208559931e+00
 5.846816772004836e-01	 1.583756845178744e+00	 5.938574432917156e+00
 7.331161218835368e-01	 1.527277104493670e+00	 7.062593633884153e+00
 7.186309153657527e-01	 1.534146084816145e+00	 6.944638021695848e+00
 7.041055234542313e-01	 1.540866643781144e+00	 6.830989361391757e+00
 6.895421492095962e-01	 1.547438601864234e+00	 6.720549464587400e+00
 6.749429911930036e-01	 1.553861821628798e+00	 6.612336003144005e+00
 6.603102424987781e-01	 1.560136207427842e+00	 6.505484803648626e+00
 6.456460898008664e-01	 1.566261705080277e+00	 6.399251034813736e+00
 6.309527124138485e-01	 1.572238301522301e+00	 6.293009308598565e+00
 6.162322813692299e-01	 1.578066024434529e+00	 6.186252722412657e+00
 6.014869585076897e-01	 1.583744941845528e+00	 6.078590875972532e+00
 5.867188955879417e-01	 1.589275161712468e+00	 5.969721266355055e+00
 7.356616639734104e-01	 1.532580149995384e+00	 7.084931387198265e+00
 7.211261615996614e-01	 1.539472980943978e+00	 6.968233832821102e+00
 7.065503342995586e-01	 1.546216875183162e+00	 6.855743989487683e+00
 6.919363927832406e-01	 1.552811652565151e+00	 6.746364249803468e+00
 6.772865432457571e-01	 1.559257175176121e+00	 6.639116871730389e+00
 6.626029863963433e-01	 1.565553347036966e+00	 6.533146283660496e+00
 6.478879165015636e-01	 1.571700113778472e+00	 6.427720253459865e+00
 6.331435204430631e-01	 1.577697462291476e+00	 6.322229942829728e+00
 6.183719767906508e-01	 1.583545420352704e+00	 6.216188875044419e+00
 6.035754548913970e-01	 1.589244056226935e+00	 6.109230850478236e+00
 5.887561139753998e-01	 1.594793478246192e+00	 6.001106850333640e+00
 7.382072060632838e-01	 1.537883195497098e+00	 7.107798759657078e+00
 7.236214078335703e-01	 1.544799877071812e+00	 6.992356232526214e+00
 7.089951451448858e-01	 1.551567106585180e+00	 6.881016912914612e+00
 6.943306363568850e-01	 1.558184703266069e+00	 6.772685412134759e+00
 6.796300952985107e-01	 1.564652528723442e+00	 6.666390386206817e+00
 6.648957302939089e-01	 1.570970486646091e+00	 6.561286848904626e+00
 6.501297432022614e-01	 1.577138522476668e+00	 6.456657319174534e+00
 6.353343284722780e-01	 1.583156623060651e+00	 6.351911824834048e+00
 6.205116722120719e-01	 1.589024816270880e+00	 6.246586791325567e+00
 6.056639512751042e-01	 1.594743170608344e+00	 6.140342850801880e+00
 5.907933323628578e-01	 1.600311794779915e+00	 6.032961612958053e+00
 5.704211484882766e-01	 1.545128629442677e+00	 5.713390834589387e+00
 5.560432824847004e-01	 1.550360808382916e+00	 5.593702746375831e+00
 5.416474592795733e-01	 1.555448744903564e+00	 5.473018274896334e+00
 5.272357364269170e-01	 1.560392657762929e+00	 5.351904598635800e+00
 5.128101583864727e-01	 1.565192802699314e+00	 5.230962838599511e+00
 4.983727557465419e-01	 1.569849471922607e+00	 5.110820828694490e+00
 4.839255444661452e-01	 1.574362993587958e+00	 4.992126244190528e+00
 4.694705251369186e-01	 1.578733731252283e+00	 4.875540100252991e+00
 4.550096822651306e-01	 1.582962083314403e+00	 4.761730630386675e+00
 4.405449835741779e-01	 1.587048482439562e+00	 4.651367552521128e+00
 4.260783793278759e-01	 1.590993394969137e+00	 4.545116728412115e+00
 5.724583668757346e-01	 1.550646945976401e+00	 5.747463663691683e+00
 5.580291513507171e-01	 1.555897811269998e+00	 5.628514235399325e+00
 5.435819144912860e-01	 1.561003918992505e+00	 5.508304195957745e+00
 5.291187211998704e-01	 1.565965488683511e+00	 5.387449944050598e+00
 5.146416232378529e-01	 1.570782776994668e+00	 5.266601058014298e+00
 5.001526584456366e-01	 1.575456077179473e+00	 5.146432918731959e+00
 4.856538499820958e-01	 1.579985718565057e+00	 5.027639700041263e+00
 4.711472055838360e-01	 1.584372066006755e+00	 4.910927738787370e+00
 4.566347168446489e-01	 1.588615519326240e+00	 4.797009294443014e+00
 4.421183585155141e-01	 1.592716512733989e+00	 4.686596706081531e+00
 4.276000878254753e-01	 1.596675514236884e+00	 4.580396952388877e+00
 5.744955852631930e-01	 1.556165262510125e+00	 5.780632790307132e+00
 5.600150202167338e-01	 1.561434814157080e+00	 5.662499731585566e+00
 5.455163697029988e-01	 1.566559093081447e+00	 5.542849735825103e+00
 5.310017059728236e-01	 1.571538319604092e+00	 5.422343641508087e+00
 5.164730880892331e-01	 1.576372751290022e+00	 5.301674583866021e+00
 5.019325611447314e-01	 1.581062682436339e+00	 5.181560477655148e+00
 4.873821554980462e-01	 1.585608443542157e+00	 5.062736876992863e+00
 4.728238860307538e-01	 1.590010400761228e+00	 4.945950224505170e+00
 4.582597514241674e-01	 1.594268955338077e+00	 4.831951499791955e+00
 4.436917334568505e-01	 1.598384543028416e+00	 4.721490275024306e+00
 4.291217963230750e-01	 1.602357633504631e+00	 4.615309183361756e+00
 5.765328036506510e-01	 1.561683579043848e+00	 5.813059057058465e+00
 5.620008890827505e-01	 1.566971817044162e+00	 5.695817622531090e+00
 5.474508249147116e-01	 1.572114267170388e+00	 5.576809444199332e+00
 5.328846907457769e-01	 1.577111150524675e+00	 5.456735093878439e+00
 5.183045529406135e-01	 1.581962725585377e+00	 5.336326437213663e+00
 5.037124638438261e-01	 1.586669287693207e+00	 5.216338983637480e+00
 4.891104610139967e-01	 1.591231168519257e+00	 5.097544623049892e+00
 4.745005664776712e-01	 1.595648735515700e+00	 4.980724761577674e+00
 4.598847860036856e-01	 1.599922391349915e+00	 4.866663866486516e+00
 4.452651083981868e-01	 1.604052573322843e+00	 4.756143428087379e+00
 4.306435048206744e-01	 1.608039752772377e+00	 4.649936344297210e+00
 5.785700220381091e-01	 1.567201895577572e+00	 5.844903929265570e+00
 5.639867579487674e-01	 1.572508819931244e+00	 5.728626803502541e+00
 5.493852801264244e-01	 1.577669441259330e+00	 5.610338285360698e+00
 5.347676755187301e-01	 1.582683981445256e+00	 5.490774046630301e+00
 5.201360177919936e-01	 1.587552699880732e+00	 5.370699930006290e+00
 5.054923665429210e-01	 1.592275892950073e+00	 5.250904173457371e+00
 4.908387665299472e-01	 1.596853893496357e+00	 5.132190031099924e+00
 4.761772469245886e-01	 1.601287070270173e+00	 5.015368803029254e+00
 4.615098205832039e-01	 1.605575827361752e+00	 4.901253284221450e+00
 4.468384833395233e-01	 1.609720603617270e+00	 4.790651640369916e+00
 4.321652133182740e-01	 1.613721872040125e+00	 4.684361716276674e+00
 5.806072404255672e-01	 1.572720212111296e+00	 5.876329507434058e+00
 5.659726268147842e-01	 1.578045822818325e+00	 5.761086690764656e+00
 5.513197353381371e-01	 1.583224615348271e+00	 5.643591651977029e+00
 5.366506602916833e-01	 1.588256812365838e+00	 5.524610601780252e+00
 5.219674826433739e-01	 1.593142674176086e+00	 5.404938678843275e+00
 5.072722692420157e-01	 1.597882498206939e+00	 5.285392055753514e+00
 4.925670720458978e-01	 1.602476618473457e+00	 5.166800451369923e+00
 4.778539273715064e-01	 1.606925405024646e+00	 5.050000062116846e+00
 4.631348551627223e-01	 1.611229263373589e+00	 4.935826922367918e+00
 4.484118582808596e-01	 1.615388633911697e+00	 4.825110701773893e+00
 4.336869218158736e-01	 1.619403991307871e+00	 4.718668945121442e+00
 5.826444588130253e-01	 1.578238528645019e+00	 5.907498539511080e+00
 5.679584956808010e-01	 1.583582825705407e+00	 5.793357234657776e+00
 5.532541905498498e-01	 1.588779789437212e+00	 5.676725378655090e+00
 5.385336450646365e-01	 1.593829643286420e+00	 5.558395231571672e+00
 5.237989474947541e-01	 1.598732648471441e+00	 5.439186618464708e+00
 5.090521719411106e-01	 1.603489103463806e+00	 5.319938924024719e+00
 4.942953775618483e-01	 1.608099343450556e+00	 5.201503503640859e+00
 4.795306078184239e-01	 1.612563739779118e+00	 5.084736523486358e+00
 4.647598897422406e-01	 1.616882699385426e+00	 4.970492239813884e+00
 4.499852332221959e-01	 1.621056664206124e+00	 4.859616725286504e+00
 4.352086303134732e-01	 1.625086110575619e+00	 4.752942047883092e+00
 5.846816772004836e-01	 1.583756845178744e+00	 5.938574432917156e+00
 5.699443645468178e-01	 1.589119828592489e+00	 5.825598932432095e+00
 5.551886457615626e-01	 1.594334963526153e+00	 5.709895755228946e+00
 5.404166298375898e-01	 1.599402474207002e+00	 5.592278791896115e+00
 5.256304123461344e-01	 1.604322622766796e+00	 5.473588014984930e+00
 5.108320746402053e-01	 1.609095708720672e+00	 5.354681369378008e+00
 4.960236830777989e-01	 1.613722068427657e+00	 5.236427089228081e+00
 4.812072882653415e-01	 1.618202074533590e+00	 5.119696454113263e+00
 4.663849243217589e-01	 1.622536135397263e+00	 5.005356994613065e+00
 4.515586081635322e-01	 1.626724694500551e+00	 4.894266155101660e+00
 4.367303388110727e-01	 1.630768229843366e+00	 4.787265419218294e+00
 5.867188955879417e-01	 1.589275161712468e+00	 5.969721266355048e+00
 5.719302334128344e-01	 1.594656831479571e+00	 5.857972840841605e+00
 5.571231009732754e-01	 1.599890137615094e+00	 5.743259539799597e+00
 5.422996146105431e-01	 1.604975305127584e+00	 5.626412535455485e+00
 5.274618771975146e-01	 1.609912597062151e+00	 5.508287478872775e+00
 5.126119773393002e-01	 1.614702313977539e+00	 5.389756293029606e+00
 4.977519885937493e-01	 1.619344793404756e+00	 5.271699402727116e+00
 4.828839687122591e-01	 1.623840409288062e+00	 5.154998414033304e+00
 4.680099589012771e-01	 1.628189571409100e+00	 5.040529253452835e+00
 4.531319831048686e-01	 1.632392724794978e+00	 4.929155774585196e+00
 4.382520473086723e-01	 1.636450349111113e+00	 4.821723837637689e+00
 5.887561139753998e-01	 1.594793478246192e+00	 6.001106850333649e+00
 5.739161022788513e-01	 1.600193834366653e+00	 5.890640588503878e+00
 5.590575561849881e-01	 1.605445311704036e+00	 5.776973971532191e+00
 5.441825993834963e-01	 1.610548136048165e+00	 5.660948124675659e+00
 5.292933420488949e-01	 1.615502571357505e+00	 5.543429977683890e+00
 5.143918800383946e-01	 1.620308919234404e+00	 5.425300918570164e+00
 4.994802941096999e-01	 1.624967518381856e+00	 5.307448943537548e+00
 4.845606491591766e-01	 1.629478744042535e+00	 5.190761266864977e+00
 4.696349934807955e-01	 1.633843007420938e+00	 5.076117400934198e+00
 4.547053580462050e-01	 1.638060755089405e+00	 4.964382714094065e+00
 4.397737558062719e-01	 1.642132468378859e+00	 4.856402471642931e+00
 5.907933323628578e-01	 1.600311794779915e+00	 6.032961612958053e+00
 5.759019711448682e-01	 1.605730837253735e+00	 5.923764388032994e+00
 5.609920113967007e-01	 1.611000485792977e+00	 5.811196783212537e+00
 5.460655841564498e-01	 1.616120966968748e+00	 5.696037644381193e+00
 5.311248069002751e-01	 1.621092545652860e+00	 5.579160848551131e+00
 5.161717827374898e-01	 1.625915524491272e+00	 5.461452803993121e+00
 5.012085996256505e-01	 1.630590243358956e+00	 5.343804527165057e+00
 4.862373296060942e-01	 1.635117078797007e+00	 5.227104190137628e+00
 4.712600280603139e-01	 1.639496443432775e+00	 5.112230148682197e+00
 4.562787329875415e-01	 1.643728785383832e+00	 5.000044458640918e+00
 4.412954643038715e-01	 1.647814587646606e+00	 4.891386885745930e+00
 4.260783793278759e-01	 1.590993394969137e+00	 4.545116728412115e+00
 4.116118016748424e-01	 1.594797320316309e+00	 4.441369281734460e+00
 3.971471640142222e-01	 1.598460790348500e+00	 4.338436328127960e+00
 3.826863603829921e-01	 1.601984368757357e+00	 4.236842427217615e+00
 3.682312648650350e-01	 1.605368650417089e+00	 4.137088936009950e+00
 3.537837310221516e-01	 1.608614260731930e+00	 4.039650982399126e+00
 3.393455913471471e-01	 1.611721854973539e+00	 3.944974822012250e+00
 3.249186567390976e-01	 1.614692117609097e+00	 3.853475571333139e+00
 3.105047160008746e-01	 1.617525761620911e+00	 3.765535308684151e+00
 2.961055353589750e-01	 1.620223527818265e+00	 3.681501533359094e+00
 2.817228580056790e-01	 1.622786184142323e+00	 3.601685972042830e+00
 4.276000878254753e-01	 1.596675514236884e+00	 4.580396952388877e+00
 4.130818438236811e-01	 1.600493025031725e+00	 4.476801322533847e+00
 3.985655467428443e-01	 1.604169578885458e+00	 4.374086399985502e+00
 3.840530973843601e-01	 1.607705741502920e+00	 4.272763444828127e+00
 3.695463765252674e-01	 1.611102109882865e+00	 4.173318935207158e+00
 3.550472443472306e-01	 1.614359311663116e+00	 4.076211551423396e+00
 3.405575398876725e-01	 1.617478004455587e+00	 3.981869550780777e+00
 3.260790805131659e-01	 1.620458875171988e+00	 3.890688525847533e+00
 3.116136614151633e-01	 1.623302639340985e+00	 3.803029537416254e+00
 2.971630551281142e-01	 1.626010040417616e+00	 3.719217612134598e+00
 2.827290110699850e-01	 1.628581849085688e+00	 3.639540593608247e+00
 4.291217963230750e-01	 1.602357633504631e+00	 4.615309183361756e+00
 4.145518859725197e-01	 1.606188729747140e+00	 4.511794918318671e+00
 3.999839294714667e-01	 1.609878367422418e+00	 4.409194053002254e+00
 3.854198343857279e-01	 1.613427114248482e+00	 4.308012956654736e+00
 3.708614881854995e-01	 1.616835569348640e+00	 4.208731625420879e+00
 3.563107576723097e-01	 1.620104362594301e+00	 4.111800666149579e+00
 3.417694884281980e-01	 1.623234153937635e+00	 4.017638678690505e+00
 3.272395042872340e-01	 1.626225632734876e+00	 3.926630029087212e+00
 3.127226068294522e-01	 1.629079517061060e+00	 3.839123004641754e+00
 2.982205748972534e-01	 1.631796553016968e+00	 3.755428340525427e+00
 2.837351641342910e-01	 1.634377514029054e+00	 3.675818106398038e+00
 4.306435048206744e-01	 1.608039752772377e+00	 4.649936344297210e+00
 4.160219281213585e-01	 1.611884434462556e+00	 4.546421098655546e+00
 4.014023122000889e-01	 1.615587155959377e+00	 4.443819819788310e+00
 3.867865713870957e-01	 1.619148486994044e+00	 4.342642312632456e+00
 3.721765998457319e-01	 1.622569028814416e+00	 4.243370405485029e+00
 3.575742709973889e-01	 1.625849413525487e+00	 4.146454922696040e+00
 3.429814369687237e-01	 1.628990303419685e+00	 4.052313063934744e+00
 3.283999280613023e-01	 1.631992390297766e+00	 3.961326182163901e+00
 3.138315522437411e-01	 1.634856394781134e+00	 3.873837951013698e+00
 2.992780946663927e-01	 1.637583065616318e+00	 3.790152910915912e+00
 2.847413171985970e-01	 1.640173178972420e+00	 3.710535382144191e+00
 4.321652133182740e-01	 1.613721872040125e+00	 4.684361716276674e+00
 4.174919702701973e-01	 1.617580139177971e+00	 4.580751301992441e+00
 4.028206949287111e-01	 1.621295944496335e+00	 4.478024677004880e+00
 3.881533083884633e-01	 1.624869859739605e+00	 4.376703327579307e+00
 3.734917115059641e-01	 1.628302488280190e+00	 4.277279146859472e+00
 3.588377843224680e-01	 1.631594464456673e+00	 4.180211385708350e+00
 3.441933855092491e-01	 1.634746452901732e+00	 4.085924018525208e+00
 3.295603518353705e-01	 1.637759147860656e+00	 3.994803515925306e+00
 3.149404976580300e-01	 1.640633272501209e+00	 3.907197014686096e+00
 3.003356144355319e-01	 1.643369578215669e+00	 3.823410874025789e+00
 2.857474702629030e-01	 1.645968843915785e+00	 3.743709606023939e+00
 4.336869218158736e-01	 1.619403991307871e+00	 4.718668945121442e+00
 4.189620124190359e-01	 1.623275843893386e+00	 4.614857380504233e+00
 4.042390776573332e-01	 1.627004733033294e+00	 4.511870048745726e+00
 3.895200453898313e-01	 1.630591232485167e+00	 4.410248283395527e+00
 3.748068231661963e-01	 1.634035947745966e+00	 4.310502194911007e+00
 3.601012976475472e-01	 1.637339515387858e+00	 4.213107588957890e+00
 3.454053340497746e-01	 1.640502602383780e+00	 4.118503308432535e+00
 3.307207756094387e-01	 1.643525905423545e+00	 4.027088990833028e+00
 3.160494430723187e-01	 1.646410150221284e+00	 3.939223231111906e+00
 3.013931342046710e-01	 1.649156090815020e+00	 3.855222138777005e+00
 2.867536233272089e-01	 1.651764508859150e+00	 3.775358276728467e+00
 4.352086303134732e-01	 1.625086110575619e+00	 4.752942047883092e+00
 4.204320545678747e-01	 1.628971548608802e+00	 4.648811604849562e+00
 4.056574603859555e-01	 1.632713521570253e+00	 4.545417809854001e+00
 3.908867823911993e-01	 1.636312605230730e+00	 4.443329931223563e+00
 3.761219348264287e-01	 1.639769407211741e+00	 4.343084370170716e+00
 3.613648109726262e-01	 1.643084566319044e+00	 4.245181535936007e+00
 3.466172825903001e-01	 1.646258751865829e+00	 4.150083153730577e+00
 3.318811993835069e-01	 1.649292662986435e+00	 4.058209996852536e+00
 3.171583884866077e-01	 1.652187027941359e+00	 3.969940032845954e+00
 3.024506539738102e-01	 1.654942603414371e+00	 3.885606972166435e+00
 2.877597763915150e-01	 1.657560173802516e+00	 3.805499206536625e+00
 4.367303388110727e-01	 1.630768229843366e+00	 4.787265419218294e+00
 4.219020967167133e-01	 1.634667253324217e+00	 4.682686668839977e+00
 4.070758431145778e-01	 1.638422310107212e+00	 4.578730289184623e+00
 3.922535193925670e-01	 1.642033977976291e+00	 4.476001493574477e+00
 3.774370464866610e-01	 1.645502866677516e+00	 4.375070969577731e+00
 3.626283242977054e-01	 1.648829617250229e+00	 4.276471700444425e+00
 3.478292311308258e-01	 1.652014901347878e+00	 4.180696228744539e+00
 3.330416231575750e-01	 1.655059420549325e+00	 4.088194353349425e+00
 3.182673339008965e-01	 1.657963905661433e+00	 3.999371249359387e+00
 3.035081737429495e-01	 1.660729116013722e+00	 3.914585999146065e+00
 2.887659294558210e-01	 1.663355838745881e+00	 3.834150521387905e+00
 4.382520473086723e-01	 1.636450349111113e+00	 4.821723837637689e+00
 4.233721388655521e-01	 1.640362958039632e+00	 4.716555694025063e+00
 4.084942258431999e-01	 1.644131098644171e+00	 4.611870272807630e+00
 3.936202563939347e-01	 1.647755350721853e+00	 4.508316666415241e+00
 3.787521581468932e-01	 1.651236326143291e+00	 4.406507767700987e+00
 3.638918376227845e-01	 1.654574668181414e+00	 4.307017027179182e+00
 3.490411796713513e-01	 1.657771050829926e+00	 4.210375662202360e+00
 3.342020469316433e-01	 1.660826178112214e+00	 4.117070308992897e+00
 3.193762793151853e-01	 1.663740783381508e+00	 4.027541106862900e+00
 3.045656935120887e-01	 1.666515628613073e+00	 3.942180202509180e+00
 2.897720825201270e-01	 1.669151503689247e+00	 3.861330660957259e+00
 4.397737558062719e-01	 1.642132468378859e+00	 4.856402471642931e+00
 4.248421810143908e-01	 1.646058662755048e+00	 4.750492234189208e+00
 4.099126085718222e-01	 1.649839887181130e+00	 4.644901007153016e+00
 3.949869933953026e-01	 1.653476723467415e+00	 4.540329621226371e+00
 3.800672698071254e-01	 1.656969785609067e+00	 4.437441017947409e+00
 3.651553509478635e-01	 1.660319719112600e+00	 4.336856932309510e+00
 3.502531282118768e-01	 1.663527200311974e+00	 4.239155037388723e+00
 3.353624707057114e-01	 1.666592935675103e+00	 4.144866541667477e+00
 3.204852247294742e-01	 1.669517661101582e+00	 4.054474228135865e+00
 3.056232132812278e-01	 1.672302141212423e+00	 3.968410922783407e+00
 2.907782355844330e-01	 1.674947168632612e+00	 3.887058378734747e+00
 4.412954643038715e-01	 1.647814587646606e+00	 4.891386885745930e+00
 4.263122231632296e-01	 1.651754367470463e+00	 4.784570279772563e+00
 4.113309913004444e-01	 1.655548675718089e+00	 4.677886202104989e+00
 3.963537303966706e-01	 1.659198096212977e+00	 4.572095007024883e+00
 3.813823814673577e-01	 1.662703245074843e+00	 4.467917453750516e+00
 3.664188642729427e-01	 1.666064770043786e+00	 4.366031304053442e+00
 3.514650767524024e-01	 1.669283349794022e+00	 4.267068392303322e+00
 3.365228944797797e-01	 1.672359693237994e+00	 4.171612158391015e+00
 3.215941701437631e-01	 1.675294538821658e+00	 4.080195632367875e+00
 3.066807330503671e-01	 1.678088653811775e+00	 3.993299858129816e+00
 2.917843886487391e-01	 1.680742833575978e+00	 3.911352742104323e+00
 2.817228580056790e-01	 1.622786184142323e+00	 3.601685972042830e+00
 2.673584036635300e-01	 1.625214524964806e+00	 3.525457935362450e+00
 2.530138681720975e-01	 1.627509370381222e+00	 3.452242633320491e+00
 2.386909230969722e-01	 1.629671565499381e+00	 3.382378392289688e+00
 2.243912153609035e-01	 1.631701979723916e+00	 3.316163806072994e+00
 2.101163668969702e-01	 1.633601506037537e+00	 3.253858089841373e+00
 1.958679743236541e-01	 1.635371060279727e+00	 3.195681699366665e+00
 1.816476086416604e-01	 1.637011580423564e+00	 3.141817199295665e+00
 1.674568149523054e-01	 1.638524025851351e+00	 3.092410363863427e+00
 1.532971121972746e-01	 1.639909376629717e+00	 3.047571493174088e+00
 1.391699929195322e-01	 1.641168632784842e+00	 3.007376928017019e+00
 2.827290110699850e-01	 1.628581849085688e+00	 3.639540593608247e+00
 2.683132551051854e-01	 1.631018862553966e+00	 3.563340683381003e+00
 2.539174891298549e-01	 1.633321903846870e+00	 3.490049966384795e+00
 2.395433906794614e-01	 1.635491821090451e+00	 3.420031397834065e+00
 2.251926125586210e-01	 1.637529486794359e+00	 3.353606296861362e+00
 2.108667824930308e-01	 1.639435797130528e+00	 3.291054719809723e+00
 1.965675028033815e-01	 1.641211671209298e+00	 3.232616104910645e+00
 1.822963501010950e-01	 1.642858050353649e+00	 3.178490171728681e+00
 1.680548750057065e-01	 1.644375897372249e+00	 3.128838058388979e+00
 1.538446018836936e-01	 1.645766195831966e+00	 3.083783679334914e+00
 1.396670286085306e-01	 1.647029949330502e+00	 3.043415286202400e+00
 2.837351641342910e-01	 1.634377514029054e+00	 3.675818106398038e+00
 2.692681065468409e-01	 1.636823200143126e+00	 3.599613021031244e+00
 2.548211100876124e-01	 1.639134437312517e+00	 3.526249010090992e+00
 2.403958582619506e-01	 1.641312076681520e+00	 3.456108726490293e+00
 2.259940097563386e-01	 1.643356993864802e+00	 3.389531301515958e+00
 2.116171980890914e-01	 1.645270088223519e+00	 3.326812743427277e+00
 1.972670312831089e-01	 1.647052282138868e+00	 3.268206613425617e+00
 1.829450915605294e-01	 1.648704520283733e+00	 3.213924961994301e+00
 1.686529350591075e-01	 1.650227768893146e+00	 3.164139508230804e+00
 1.543920915701123e-01	 1.651623015034215e+00	 3.118983044540951e+00
 1.401640642975289e-01	 1.652891265876162e+00	 3.078551048874528e+00
 2.847413171985970e-01	 1.640173178972420e+00	 3.710535382144191e+00
 2.702229579884965e-01	 1.642627537732286e+00	 3.634289889889594e+00
 2.557247310453699e-01	 1.644946970778164e+00	 3.560852921173465e+00
 2.412483258444398e-01	 1.647132332272589e+00	 3.490621948008654e+00
 2.267954069540560e-01	 1.649184500935243e+00	 3.423949052213341e+00
 2.123676136851519e-01	 1.651104379316511e+00	 3.361141355263358e+00
 1.979665597628362e-01	 1.652892893068438e+00	 3.302461731390836e+00
 1.835938330199640e-01	 1.654550990213817e+00	 3.248129786529033e+00
 1.692509951125087e-01	 1.656079640414044e+00	 3.198323085338485e+00
 1.549395812565311e-01	 1.657479834236463e+00	 3.153178608283861e+00
 1.406610999865273e-01	 1.658752582421822e+00	 3.112794420536349e+00
 2.857474702629030e-01	 1.645968843915785e+00	 3.743709606023939e+00
 2.711778094301519e-01	 1.648431875321446e+00	 3.667386499117268e+00
 2.566283520031274e-01	 1.650759504243811e+00	 3.593875080571668e+00
 2.421007934269290e-01	 1.652952587863659e+00	 3.523582814689202e+00
 2.275968041517737e-01	 1.655012008005686e+00	 3.456869923002179e+00
 2.131180292812126e-01	 1.656938670409501e+00	 3.394049851319069e+00
 1.986660882425635e-01	 1.658733503998009e+00	 3.335390025770887e+00
 1.842425744793984e-01	 1.660397460143901e+00	 3.281112880074299e+00
 1.698490551659097e-01	 1.661931511934942e+00	 3.231397135824341e+00
 1.554870709429500e-01	 1.663336653438713e+00	 3.186379317396114e+00
 1.411581356755255e-01	 1.664613898967482e+00	 3.146155482819665e+00
 2.867536233272089e-01	 1.651764508859150e+00	 3.775358276728467e+00
 2.721326608718074e-01	 1.654236212910606e+00	 3.698918325780182e+00
 2.575319729608849e-01	 1.656572037709459e+00	 3.625329093993276e+00
 2.429532610094182e-01	 1.658772843454728e+00	 3.555003262189436e+00
 2.283982013494911e-01	 1.660839515076128e+00	 3.488304430871425e+00
 2.138684448772732e-01	 1.662772961502493e+00	 3.425547630376960e+00
 1.993656167222908e-01	 1.664574114927579e+00	 3.367000125693907e+00
 1.848913159388330e-01	 1.666243930073985e+00	 3.312882497730992e+00
 1.704471152193108e-01	 1.667783383455839e+00	 3.263369982456600e+00
 1.560345606293689e-01	 1.669193472640962e+00	 3.218594049059478e+00
 1.416551713645239e-01	 1.670475215513143e+00	 3.178644198093302e+00
 2.877597763915150e-01	 1.657560173802516e+00	 3.805499206536625e+00
 2.730875123134627e-01	 1.660040550499766e+00	 3.728901115173263e+00
 2.584355939186424e-01	 1.662384571175106e+00	 3.655228792468425e+00
 2.438057285919074e-01	 1.664593099045797e+00	 3.584895410319301e+00
 2.291995985472086e-01	 1.666667022146571e+00	 3.518263236796888e+00
 2.146188604733338e-01	 1.668607252595484e+00	 3.455644195330662e+00
 2.000651452020182e-01	 1.670414725857150e+00	 3.397300724092510e+00
 1.855400573982675e-01	 1.672090400004069e+00	 3.343446916966466e+00
 1.710451752727120e-01	 1.673635254976738e+00	 3.294249927097567e+00
 1.565820503157877e-01	 1.675050291843211e+00	 3.249831613746818e+00
 1.421522070535222e-01	 1.676336532058803e+00	 3.210270412996135e+00
 2.887659294558210e-01	 1.663355838745881e+00	 3.834150521387905e+00
 2.740423637551183e-01	 1.665844888088926e+00	 3.757350881132338e+00
 2.593392148763998e-01	 1.668197104640753e+00	 3.683588232902504e+00
 2.446581961743965e-01	 1.670413354636866e+00	 3.613271563821927e+00
 2.300009957449261e-01	 1.672494529217014e+00	 3.546757146768080e+00
 2.153692760693944e-01	 1.674441543688475e+00	 3.484349154481130e+00
 2.007646736817455e-01	 1.676255336786720e+00	 3.426300579314515e+00
 1.861887988577020e-01	 1.677936869934153e+00	 3.372814439585546e+00
 1.716432353261130e-01	 1.679487126497635e+00	 3.324045253094576e+00
 1.571295400022066e-01	 1.680907111045460e+00	 3.280100758103376e+00
 1.426492427425206e-01	 1.682197848604463e+00	 3.241043861893745e+00
 2.897720825201270e-01	 1.669151503689247e+00	 3.861330660957259e+00
 2.749972151967737e-01	 1.671649225678086e+00	 3.784283906349500e+00
 2.602428358341574e-01	 1.674009638106400e+00	 3.710421698607073e+00
 2.455106637568857e-01	 1.676233610227935e+00	 3.640144213136399e+00
 2.308023929426436e-01	 1.678322036287456e+00	 3.573797112793955e+00
 2.161196916654550e-01	 1.680275834781466e+00	 3.511672222810599e+00
 2.014642021614729e-01	 1.682095947716291e+00	 3.454008516697720e+00
 1.868375403171365e-01	 1.683783339864237e+00	 3.400993393656665e+00
 1.722412953795141e-01	 1.685338998018532e+00	 3.352764227617414e+00
 1.576770296886254e-01	 1.686763930247709e+00	 3.309410167770784e+00
 1.431462784315189e-01	 1.688059165150123e+00	 3.270974170266872e+00
 2.907782355844330e-01	 1.674947168632612e+00	 3.887058378734747e+00
 2.759520666384292e-01	 1.677453563267246e+00	 3.809716742678458e+00
 2.611464567919148e-01	 1.679822171572047e+00	 3.735743699834394e+00
 2.463631313393749e-01	 1.682053865819005e+00	 3.665526035153323e+00
 2.316037901403612e-01	 1.684149543357899e+00	 3.599394233891849e+00
 2.168701072615156e-01	 1.686110125874457e+00	 3.537623223230560e+00
 2.021637306412001e-01	 1.687936558645861e+00	 3.480433430117265e+00
 1.874862817765710e-01	 1.689629809794322e+00	 3.427992135402961e+00
 1.728393554329151e-01	 1.691190869539430e+00	 3.380415103953079e+00
 1.582245193750443e-01	 1.692620749449958e+00	 3.337768470150626e+00
 1.436433141205172e-01	 1.693920481695782e+00	 3.300070858027293e+00
 2.917843886487391e-01	 1.680742833575978e+00	 3.911352742104323e+00
 2.769069180800846e-01	 1.683257900856406e+00	 3.833666211441570e+00
 2.620500777496724e-01	 1.685634705037695e+00	 3.759568974294820e+00
 2.472155989218642e-01	 1.687874121410074e+00	 3.689429893950048e+00
 2.324051873380786e-01	 1.689977050428342e+00	 3.623559757054618e+00
 2.176205228575763e-01	 1.691944416967449e+00	 3.562212087804565e+00
 2.028632591209276e-01	 1.693777169575432e+00	 3.505584283497027e+00
 1.881350232360055e-01	 1.695476279724406e+00	 3.453819051052727e+00
 1.734374154863163e-01	 1.697042741060328e+00	 3.407006123748535e+00
 1.587720090614630e-01	 1.698477568652207e+00	 3.365184237111928e+00
 1.441403498095156e-01	 1.699781798241443e+00	 3.328343342766158e+00
 1.391699929195322e-01	 1.641168632784842e+00	 3.007376928017019e+00
 1.250769230451434e-01	 1.642302813578437e+00	 2.971661918896698e+00
 1.110193416857472e-01	 1.643312956785089e+00	 2.940160501715271e+00
 9.699866096141542e-02	 1.644200117971588e+00	 2.912753614506878e+00
 8.301626584359578e-02	 1.644965369778791e+00	 2.889298565154541e+00
 6.907351401783786e-02	 1.645609801206628e+00	 2.869631433356925e+00
 5.517173576597642e-02	 1.646134516902753e+00	 2.853569561800366e+00
 4.131223386743726e-02	 1.646540636455406e+00	 2.840914120491392e+00
 2.749628351931459e-02	 1.646829293690975e+00	 2.831452728626931e+00
 1.372513227485878e-02	 1.647001635976761e+00	 2.824962118830381e+00
 0.000000000000000e+00	 1.647058823529412e+00	 2.821210829111014e+00
 1.396670286085306e-01	 1.647029949330502e+00	 3.043415286202400e+00
 1.255236263417331e-01	 1.648168180769788e+00	 3.007579471652950e+00
 1.114158393346249e-01	 1.649181931630751e+00	 2.976007479031620e+00
 9.734508475056335e-02	 1.650072261250058e+00	 2.948569103671153e+00
 8.331275250732292e-02	 1.650840246099430e+00	 2.925109760236270e+00
 6.932020513933013e-02	 1.651486979068080e+00	 2.905452953868964e+00
 5.536877767942635e-02	 1.652013568748834e+00	 2.889402841799661e+00
 4.145977755982095e-02	 1.652421138728461e+00	 2.876746869063103e+00
 2.759448453188357e-02	 1.652710826882728e+00	 2.867258462355889e+00
 1.377415060441185e-02	 1.652883784676678e+00	 2.860699766583614e+00
 0.000000000000000e+00	 1.652941176470588e+00	 2.856824409135085e+00
 1.401640642975289e-01	 1.652891265876162e+00	 3.078551048874528e+00
 1.259703296383230e-01	 1.654033547961140e+00	 3.042699957579539e+00
 1.118123369835025e-01	 1.655050906476412e+00	 3.011159100910111e+00
 9.769150853971127e-02	 1.655944404528528e+00	 2.983786003878015e+00
 8.360923917105008e-02	 1.656715122420068e+00	 2.960412993992989e+00
 6.956689626082244e-02	 1.657364156929533e+00	 2.940849745335528e+00
 5.556581959287625e-02	 1.657892620594916e+00	 2.924885914379341e+00
 4.160732125220466e-02	 1.658301641001515e+00	 2.912293850836714e+00
 2.769268554445255e-02	 1.658592360074481e+00	 2.902831367274126e+00
 1.382316893396492e-02	 1.658765933376595e+00	 2.896244551691484e+00
 0.000000000000000e+00	 1.658823529411765e+00	 2.892270607833392e+00
 1.406610999865273e-01	 1.658752582421822e+00	 3.112794420536349e+00
 1.264170329349128e-01	 1.659898915152491e+00	 3.077034788627901e+00
 1.122088346323802e-01	 1.660919881322073e+00	 3.045627470565734e+00
 9.803793232885916e-02	 1.661816547806997e+00	 3.018416602697969e+00
 8.390572583477722e-02	 1.662589998740707e+00	 2.995220240713647e+00
 6.981358738231468e-02	 1.663241334790985e+00	 2.975832980410780e+00
 5.576286150632617e-02	 1.663771672440997e+00	 2.960028671484356e+00
 4.175486494458835e-02	 1.664182143274570e+00	 2.947563207284841e+00
 2.779088655702153e-02	 1.664473893266236e+00	 2.938177373931643e+00
 1.387218726351798e-02	 1.664648082076513e+00	 2.931599742678222e+00
 0.000000000000000e+00	 1.664705882352941e+00	 2.927549589970042e+00
 1.411581356755255e-01	 1.664613898967482e+00	 3.146155482819665e+00
 1.268637362315025e-01	 1.665764282343843e+00	 3.110595207451900e+00
 1.126053322812579e-01	 1.666788856167734e+00	 3.079424486777193e+00
 9.838435611800704e-02	 1.667688691085468e+00	 3.052472959188314e+00
 8.420221249850432e-02	 1.668464875061346e+00	 3.029543232939988e+00
 7.006027850380696e-02	 1.669118512652437e+00	 3.010413587368886e+00
 5.595990341977609e-02	 1.669650724287078e+00	 2.994840768428232e+00
 4.190240863697206e-02	 1.670062645547626e+00	 2.982562861119490e+00
 2.788908756959050e-02	 1.670355426457989e+00	 2.973302221877993e+00
 1.392120559307105e-02	 1.670530230776429e+00	 2.966768454462309e+00
 0.000000000000000e+00	 1.670588235294117e+00	 2.962661413481012e+00
 1.416551713645239e-01	 1.670475215513143e+00	 3.178644198093302e+00
 1.273104395280923e-01	 1.671629649535195e+00	 3.143392291575184e+00
 1.130018299301356e-01	 1.672657831013394e+00	 3.112561848440540e+00
 9.873077990715498e-02	 1.673560834363937e+00	 3.085966908673370e+00
 8.449869916223145e-02	 1.674339751381984e+00	 3.063393466300385e+00
 7.030696962529925e-02	 1.674995690513889e+00	 3.044602254839567e+00
 5.615694533322600e-02	 1.675529776133159e+00	 3.029331628353651e+00
 4.204995232935577e-02	 1.675943147820680e+00	 3.017300520335541e+00
 2.798728858215949e-02	 1.676236959649742e+00	 3.008211463129436e+00
 1.397022392262412e-02	 1.676412379476346e+00	 3.001753651099138e+00
 0.000000000000000e+00	 1.676470588235294e+00	 2.997606031350272e+00
 1.421522070535222e-01	 1.676336532058803e+00	 3.210270412996135e+00
 1.277571428246821e-01	 1.677495016726546e+00	 3.175436957476916e+00
 1.133983275790133e-01	 1.678526805859056e+00	 3.145051059040171e+00
 9.907720369630291e-02	 1.679432977642407e+00	 3.118910067425520e+00
 8.479518582595859e-02	 1.680214627702623e+00	 3.096782204246058e+00
 7.055366074679154e-02	 1.680872868375342e+00	 3.078409436435118e+00
 5.635398724667592e-02	 1.681408827979241e+00	 3.063510446604559e+00
 4.219749602173949e-02	 1.681823650093736e+00	 3.051783682167320e+00
 2.808548959472848e-02	 1.682118492841496e+00	 3.042910465563752e+00
 1.401924225217719e-02	 1.682294528176263e+00	 3.036558148469359e+00
 0.000000000000000e+00	 1.682352941176470e+00	 3.032383293442496e+00
 1.426492427425206e-01	 1.682197848604463e+00	 3.241043861893745e+00
 1.282038461212719e-01	 1.683360383917898e+00	 3.206739964586818e+00
 1.137948252278909e-01	 1.684395780704717e+00	 3.176903431015724e+00
 9.942362748545085e-02	 1.685305120920877e+00	 3.151313837250245e+00
 8.509167248968570e-02	 1.686089504023261e+00	 3.129720482688759e+00
 7.080035186828379e-02	 1.686750046236793e+00	 3.111845355287244e+00
 5.655102916012584e-02	 1.687287879825322e+00	 3.097386195007210e+00
 4.234503971412319e-02	 1.687704152366791e+00	 3.086019636964546e+00
 2.818369060729745e-02	 1.688000026033249e+00	 3.077404416245045e+00
 1.406826058173025e-02	 1.688176676876180e+00	 3.071184616907856e+00
 0.000000000000000e+00	 1.688235294117647e+00	 3.066992948301886e+00
 1.431462784315189e-01	 1.688059165150123e+00	 3.270974170266872e+00
 1.286505494178617e-01	 1.689225751109249e+00	 3.237311919199304e+00
 1.141913228767686e-01	 1.690264755550378e+00	 3.208130090043943e+00
 9.977005127459872e-02	 1.691177264199347e+00	 3.183189409972070e+00
 8.538815915341284e-02	 1.691964380343900e+00	 3.162219114541036e+00
 7.104704298977607e-02	 1.692627224098246e+00	 3.144920008485664e+00
 5.674807107357575e-02	 1.693166931671403e+00	 3.130967626055522e+00
 4.249258340650688e-02	 1.693584654639846e+00	 3.120015471983608e+00
 2.828189161986643e-02	 1.693881559225003e+00	 3.111698324675706e+00
 1.411727891128331e-02	 1.694058825576097e+00	 3.105635583778739e+00
 0.000000000000000e+00	 1.694117647058823e+00	 3.101434644909578e+00
 1.436433141205172e-01	 1.693920481695782e+00	 3.300070858027293e+00
 1.290972527144515e-01	 1.695091118300601e+00	 3.267163278308841e+00
 1.145878205256463e-01	 1.696133730396039e+00	 3.238741979229192e+00
 1.001164750637466e-01	 1.697049407477817e+00	 3.214547771830707e+00
 8.568464581713998e-02	 1.697839256664538e+00	 3.194288694160376e+00
 7.129373411126837e-02	 1.698504401959698e+00	 3.177643171425450e+00
 5.694511298702565e-02	 1.699045983517484e+00	 3.164263277018813e+00
 4.264012709889058e-02	 1.699465156912901e+00	 3.153778075106909e+00
 2.838009263243541e-02	 1.699763092416756e+00	 3.145797025985930e+00
 1.416629724083639e-02	 1.699940974276013e+00	 3.139913435996053e+00
 0.000000000000000e+00	 1.700000000000000e+00	 3.135707934406643e+00
 1.441403498095156e-01	 1.699781798241443e+00	 3.328343342766158e+00
 1.295439560110414e-01	 1.700956485491952e+00	 3.296304353360914e+00
 1.149843181745239e-01	 1.702002705241700e+00	 3.268749863211107e+00
 1.004628988528946e-01	 1.702921550756287e+00	 3.245399707784468e+00
 8.598113248086710e-02	 1.703714132985177e+00	 3.225939601705679e+00
 7.154042523276065e-02	 1.704381579821151e+00	 3.210024402067016e+00
 5.714215490047558e-02	 1.704925035363565e+00	 3.197281473957891e+00
 4.278767079127430e-02	 1.705345659185956e+00	 3.187314138476030e+00
 2.847829364500440e-02	 1.705644625608510e+00	 3.179705184054253e+00
 1.421531557038946e-02	 1.705823122975931e+00	 3.174020422495551e+00
 0.000000000000000e+00	 1.705882352941176e+00	 3.169812271780646e+00
 1.705882352941176e+00	 0.000000000000000e+00	 1.364039237803045e+01
 1.705823122975931e+00	 1.421531557038897e-02	 1.363234784873577e+01
 1.705644625608510e+00	 2.847829364500397e-02	 1.362738583223993e+01
 1.705345659185956e+00	 4.278767079127392e-02	 1.362495574732479e+01
 1.704925035363566e+00	 5.714215490047527e-02	 1.362455975843178e+01
 1.704381579821151e+00	 7.154042523276037e-02	 1.362575419419204e+01
 1.703714132985177e+00	 8.598113248086686e-02	 1.362815095603820e+01
 1.702921550756287e+00	 1.004628988528944e-01	 1.363141892363530e+01
 1.702002705241700e+00	 1.149843181745238e-01	 1.363528536368192e+01
 1.700956485491952e+00	 1.295439560110413e-01	 1.363953734834408e+01
 1.699781798241443e+00	 1.441403498095156e-01	 1.364402318917804e+01
 1.711764705882353e+00	 0.000000000000000e+00	 1.360477660442673e+01
 1.711705271675848e+00	 1.426433389994203e-02	 1.359687054176638e+01
 1.711526158800263e+00	 2.857649465757294e-02	 1.359204670017145e+01
 1.711226161459011e+00	 4.293521448365763e-02	 1.358975376181876e+01
 1.710804087209646e+00	 5.733919681392517e-02	 1.358949290578801e+01
 1.710258757682603e+00	 7.178711635425263e-02	 1.359081917444353e+01
 1.709589009305816e+00	 8.627761914459402e-02	 1.359334283252838e+01
 1.708793694034757e+00	 1.008093226420423e-01	 1.359673072620935e+01
 1.707871680087361e+00	 1.153808158234015e-01	 1.360070764912283e+01
 1.706821852683303e+00	 1.299906593076311e-01	 1.360505772217913e+01
 1.705643114787104e+00	 1.446373854985138e-01	 1.360962579347401e+01
 1.717647058823529e+00	 0.000000000000000e+00	 1.356963654959182e+01
 1.717587420375765e+00	 1.431335222949510e-02	 1.356187380387349e+01
 1.717407691992016e+00	 2.867469567014192e-02	 1.355718297656537e+01
 1.717106663732066e+00	 4.308275817604132e-02	 1.355501343694323e+01
 1.716683139055728e+00	 5.753623872737508e-02	 1.355486681561491e+01
 1.716135935544055e+00	 7.203380747574491e-02	 1.355629831615606e+01
 1.715463885626454e+00	 8.657410580832112e-02	 1.355891802211782e+01
 1.714665837313227e+00	 1.011557464311902e-01	 1.356239220715591e+01
 1.713740654933022e+00	 1.157773134722791e-01	 1.356644465584452e+01
 1.712687219874655e+00	 1.304373626042209e-01	 1.357085800244112e+01
 1.711504431332764e+00	 1.451344211875122e-01	 1.357547509445258e+01
 1.723529411764706e+00	 0.000000000000000e+00	 1.353496196542298e+01
 1.723469569075682e+00	 1.436237055904816e-02	 1.352734643735196e+01
 1.723289225183770e+00	 2.877289668271090e-02	 1.352278298814296e+01
 1.722987166005121e+00	 4.323030186842503e-02	 1.352072309937031e+01
 1.722562190901810e+00	 5.773328064082499e-02	 1.352067029054992e+01
 1.722013113405507e+00	 7.228049859723719e-02	 1.352218137338317e+01
 1.721338761947093e+00	 8.687059247204824e-02	 1.352486770406333e+01
 1.720537980591697e+00	 1.015021702203381e-01	 1.352839644191574e+01
 1.719609629778683e+00	 1.161738111211568e-01	 1.353249182246158e+01
 1.718552587066007e+00	 1.308840659008107e-01	 1.353693645269220e+01
 1.717365747878424e+00	 1.456314568765106e-01	 1.354157263592200e+01
 1.729411764705882e+00	 0.000000000000000e+00	 1.350074243013843e+01
 1.729351717775599e+00	 1.441138888860123e-02	 1.349327700133443e+01
 1.729170758375524e+00	 2.887109769527988e-02	 1.348883475120915e+01
 1.728867668278176e+00	 4.337784556080873e-02	 1.348687070059035e+01
 1.728441242747890e+00	 5.793032255427489e-02	 1.348689169602193e+01
 1.727890291266959e+00	 7.252718971872946e-02	 1.348845760392447e+01
 1.727213638267731e+00	 8.716707913577539e-02	 1.349118250553689e+01
 1.726410123870167e+00	 1.018485940094860e-01	 1.349473590145137e+01
 1.725478604624344e+00	 1.165703087700345e-01	 1.349884393436565e+01
 1.724417954257358e+00	 1.313307691974004e-01	 1.350329063837837e+01
 1.723227064424084e+00	 1.461284925655089e-01	 1.350791922272138e+01
 1.735294117647058e+00	 0.000000000000000e+00	 1.346696735122117e+01
 1.735233866475516e+00	 1.446040721815429e-02	 1.345965381534970e+01
 1.735052291567277e+00	 2.896929870784886e-02	 1.345532597593357e+01
 1.734748170551231e+00	 4.352538925319243e-02	 1.345344382202098e+01
 1.734320294593972e+00	 5.812736446772482e-02	 1.345351896629467e+01
 1.733767469128411e+00	 7.277388084022172e-02	 1.345511577640588e+01
 1.733088514588369e+00	 8.746356579950249e-02	 1.345785250984434e+01
 1.732282267148637e+00	 1.021950177986339e-01	 1.346140246170309e+01
 1.731347579470005e+00	 1.169668064189121e-01	 1.346549513451819e+01
 1.730283321448710e+00	 1.317774724939903e-01	 1.346991743905373e+01
 1.729088380969744e+00	 1.466255282545071e-01	 1.347451493447098e+01
 1.741176470588235e+00	 0.000000000000000e+00	 1.343362596830315e+01
 1.741116015175433e+00	 1.450942554770736e-02	 1.342646496280952e+01
 1.740933824759030e+00	 2.906749972041783e-02	 1.342224407054620e+01
 1.740628672824285e+00	 4.367293294557614e-02	 1.342042968001771e+01
 1.740199346440053e+00	 5.832440638117475e-02	 1.342053961039429e+01
 1.739644646989864e+00	 7.302057196171402e-02	 1.342214417722831e+01
 1.738963390909008e+00	 8.776005246322963e-02	 1.342486726449453e+01
 1.738154410427107e+00	 1.025414415877818e-01	 1.342838741287859e+01
 1.737216554315666e+00	 1.173633040677898e-01	 1.343243893405607e+01
 1.736148688640061e+00	 1.322241757905800e-01	 1.343681306039753e+01
 1.734949697515404e+00	 1.471225639435055e-01	 1.344135913909249e+01
 1.747058823529412e+00	 0.000000000000000e+00	 1.340070735599077e+01
 1.746998163875350e+00	 1.455844387726042e-02	 1.339369829442551e+01
 1.746815357950784e+00	 2.916570073298681e-02	 1.338957614545038e+01
 1.746509175097341e+00	 4.382047663795984e-02	 1.338781513078674e+01
 1.746078398286134e+00	 5.852144829462465e-02	 1.338794071792606e+01
 1.745521824851316e+00	 7.326726308320627e-02	 1.338953061738730e+01
 1.744838267229647e+00	 8.805653912695677e-02	 1.339221578912350e+01
 1.744026553705576e+00	 1.028878653769297e-01	 1.339568146857805e+01
 1.743085529161327e+00	 1.177598017166674e-01	 1.339966822271448e+01
 1.742014055831413e+00	 1.326708790871698e-01	 1.340397304602827e+01
 1.740811014061065e+00	 1.476195996325038e-01	 1.340845050610640e+01
 1.752941176470588e+00	 0.000000000000000e+00	 1.336820042663397e+01
 1.752880312575267e+00	 1.460746220681349e-02	 1.336134143155715e+01
 1.752696891142538e+00	 2.926390174555579e-02	 1.335730901725506e+01
 1.752389677370396e+00	 4.396802033034353e-02	 1.335558667520412e+01
 1.751957450132215e+00	 5.871849020807456e-02	 1.335570896478094e+01
 1.751399002712769e+00	 7.351395420469856e-02	 1.335726243916886e+01
 1.750713143550285e+00	 8.835302579068383e-02	 1.335988658327604e+01
 1.749898696984047e+00	 1.032342891660777e-01	 1.336327477475981e+01
 1.748954504006988e+00	 1.181562993655451e-01	 1.336717527907098e+01
 1.747879423022765e+00	 1.331175823837596e-01	 1.337139228911965e+01
 1.746672330606725e+00	 1.481166353215022e-01	 1.337578701971090e+01
 1.758823529411764e+00	 0.000000000000000e+00	 1.333609393303947e+01
 1.758762461275184e+00	 1.465648053636656e-02	 1.332938176949424e+01
 1.758578424334291e+00	 2.936210275812477e-02	 1.332542921272796e+01
 1.758270179643451e+00	 4.411556402272724e-02	 1.332373046354151e+01
 1.757836501978296e+00	 5.891553212152447e-02	 1.332383061873551e+01
 1.757276180574221e+00	 7.376064532619084e-02	 1.332532652272137e+01
 1.756588019870924e+00	 8.864951245441101e-02	 1.332786763404907e+01
 1.755770840262517e+00	 1.035807129552255e-01	 1.333115691854977e+01
 1.754823478852649e+00	 1.185527970144228e-01	 1.333495178061573e+01
 1.753744790214117e+00	 1.335642856803494e-01	 1.333906504382358e+01
 1.752533647152385e+00	 1.486136710105005e-01	 1.334336599164741e+01
 1.764705882352941e+00	 0.000000000000000e+00	 1.330437647112987e+01
 1.764644609975101e+00	 1.470549886591962e-02	 1.329780648067272e+01
 1.764459957526044e+00	 2.946030377069376e-02	 1.329392297267114e+01
 1.764150681916506e+00	 4.426310771511095e-02	 1.329223230010268e+01
 1.763715553824378e+00	 5.911257403497437e-02	 1.329229154494762e+01
 1.763153358435672e+00	 7.400733644768312e-02	 1.329370929250961e+01
 1.762462896191562e+00	 8.894599911813812e-02	 1.329614642359932e+01
 1.761642983540987e+00	 1.039271367443735e-01	 1.329931693689862e+01
 1.760692453698310e+00	 1.189492946633005e-01	 1.330298881365118e+01
 1.759610157405468e+00	 1.340109889769392e-01	 1.330698493650360e+01
 1.758394963698045e+00	 1.491107066994988e-01	 1.331118407385770e+01
 1.699781798241443e+00	 1.441403498095156e-01	 1.364402318917804e+01
 1.698477568652206e+00	 1.587720090614625e-01	 1.364811001846487e+01
 1.697042741060328e+00	 1.734374154863158e-01	 1.365126600200333e+01
 1.695476279724406e+00	 1.881350232360051e-01	 1.365359250115831e+01
 1.693777169575431e+00	 2.028632591209272e-01	 1.365526509668055e+01
 1.691944416967449e+00	 2.176205228575760e-01	 1.365653521982556e+01
 1.689977050428342e+00	 2.324051873380785e-01	 1.365773181132581e+01
 1.687874121410074e+00	 2.472155989218640e-01	 1.365926300764009e+01
 1.685634705037695e+00	 2.620500777496723e-01	 1.366161785254791e+01
 1.683257900856406e+00	 2.769069180800846e-01	 1.366536803068078e+01
 1.680742833575978e+00	 2.917843886487389e-01	 1.367116961799823e+01
 1.705643114787104e+00	 1.446373854985138e-01	 1.360962579347401e+01
 1.704334387854455e+00	 1.593194987478813e-01	 1.361380920195072e+01
 1.702894612581226e+00	 1.740354755397169e-01	 1.361710683154575e+01
 1.701322749654490e+00	 1.887837646954396e-01	 1.361961653634136e+01
 1.699617780505002e+00	 2.035627876006546e-01	 1.362150983561306e+01
 1.697778708060440e+00	 2.183709384536366e-01	 1.362303353952700e+01
 1.695804557498784e+00	 2.332065845357960e-01	 1.362451140981280e+01
 1.693694377001143e+00	 2.480680665043532e-01	 1.362634585517538e+01
 1.691447238503341e+00	 2.629536987074297e-01	 1.362901965981759e+01
 1.689062238445566e+00	 2.778617695217402e-01	 1.363309774192725e+01
 1.686538498519343e+00	 2.927905417130450e-01	 1.363922893735506e+01
 1.711504431332764e+00	 1.451344211875122e-01	 1.357547509445258e+01
 1.710191207056705e+00	 1.598669884343001e-01	 1.357972457892366e+01
 1.708746484102124e+00	 1.746335355931180e-01	 1.358313702410123e+01
 1.707169219584574e+00	 1.894325061548741e-01	 1.358580790547521e+01
 1.705458391434572e+00	 2.042623160803819e-01	 1.358790563375752e+01
 1.703612999153431e+00	 2.191213540496972e-01	 1.358967317004083e+01
 1.701632064569227e+00	 2.340079817335135e-01	 1.359142968333573e+01
 1.699514632592213e+00	 2.489205340868424e-01	 1.359357225061304e+01
 1.697259771968989e+00	 2.638573196651872e-01	 1.359657759804237e+01
 1.694866576034726e+00	 2.788166209633956e-01	 1.360100388056145e+01
 1.692334163462708e+00	 2.937966947773509e-01	 1.360749249523846e+01
 1.717365747878424e+00	 1.456314568765106e-01	 1.354157263592200e+01
 1.716048026258953e+00	 1.604144781207190e-01	 1.354586051060587e+01
 1.714598355623022e+00	 1.752315956465191e-01	 1.354936237322519e+01
 1.713015689514659e+00	 1.900812476143086e-01	 1.355217243553599e+01
 1.711299002364143e+00	 2.049618445601092e-01	 1.355445693848495e+01
 1.709447290246422e+00	 2.198717696457579e-01	 1.355645575171198e+01
 1.707459571639669e+00	 2.348093789312310e-01	 1.355848402312349e+01
 1.705334888183281e+00	 2.497730016693315e-01	 1.356093387904041e+01
 1.703072305434637e+00	 2.647609406229448e-01	 1.356427617395376e+01
 1.700670913623886e+00	 2.797714724050511e-01	 1.356906228731981e+01
 1.698129828406074e+00	 2.948028478416569e-01	 1.357592596310871e+01
 1.723227064424084e+00	 1.461284925655089e-01	 1.350791922272138e+01
 1.721904845461203e+00	 1.609619678071378e-01	 1.351222059500274e+01
 1.720450227143918e+00	 1.758296556999201e-01	 1.351578791420186e+01
 1.718862159444743e+00	 1.907299890737431e-01	 1.351871522956670e+01
 1.717139613293714e+00	 2.056613730398366e-01	 1.352116753713326e+01
 1.715281581339413e+00	 2.206221852418184e-01	 1.352338235845675e+01
 1.713287078710112e+00	 2.356107761289485e-01	 1.352567137739665e+01
 1.711155143774351e+00	 2.506254692518208e-01	 1.352842213585450e+01
 1.708884838900284e+00	 2.656645615807023e-01	 1.353209978785995e+01
 1.706475251213047e+00	 2.807263238467066e-01	 1.353724890975134e+01
 1.703925493349440e+00	 2.958090009059628e-01	 1.354449536243385e+01
 1.729088380969744e+00	 1.466255282545071e-01	 1.347451493447098e+01
 1.727761664663452e+00	 1.615094574935567e-01	 1.347880768205867e+01
 1.726302098664817e+00	 1.764277157533212e-01	 1.348241794027449e+01
 1.724708629374826e+00	 1.913787305331775e-01	 1.348544068364614e+01
 1.722980224223284e+00	 2.063609015195639e-01	 1.348804057437652e+01
 1.721115872432404e+00	 2.213726008378790e-01	 1.349045351518977e+01
 1.719114585780555e+00	 2.364121733266660e-01	 1.349298826850629e+01
 1.716975399365420e+00	 2.514779368343099e-01	 1.349602814326443e+01
 1.714697372365931e+00	 2.665681825384598e-01	 1.350003274916068e+01
 1.712279588802206e+00	 2.816811752883620e-01	 1.350553981639144e+01
 1.709721158292805e+00	 2.968151539702689e-01	 1.351316707716374e+01
 1.734949697515404e+00	 1.471225639435055e-01	 1.344135913909249e+01
 1.733618483865701e+00	 1.620569471799755e-01	 1.344562388856637e+01
 1.732153970185714e+00	 1.770257758067223e-01	 1.344925601861897e+01
 1.730555099304910e+00	 1.920274719926121e-01	 1.345235250359876e+01
 1.728820835152854e+00	 2.070604299992912e-01	 1.345507856934021e+01
 1.726950163525396e+00	 2.221230164339396e-01	 1.345766921500994e+01
 1.724942092850997e+00	 2.372135705243835e-01	 1.346043080985439e+01
 1.722795654956489e+00	 2.523304044167991e-01	 1.346374276660544e+01
 1.720509905831578e+00	 2.674718034962172e-01	 1.346805929171140e+01
 1.718083926391366e+00	 2.826360267300175e-01	 1.347391121082983e+01
 1.715516823236170e+00	 2.978213070345748e-01	 1.348190786615433e+01
 1.740811014061065e+00	 1.476195996325038e-01	 1.340845050610640e+01
 1.739475303067950e+00	 1.626044368663943e-01	 1.341267061283520e+01
 1.738005841706612e+00	 1.776238358601234e-01	 1.341630500606591e+01
 1.736401569234995e+00	 1.926762134520466e-01	 1.341945372145132e+01
 1.734661446082424e+00	 2.077599584790185e-01	 1.342228343246883e+01
 1.732784454618387e+00	 2.228734320300003e-01	 1.342502893615292e+01
 1.730769599921439e+00	 2.380149677221010e-01	 1.342799472260068e+01
 1.728615910547558e+00	 2.531828719992882e-01	 1.343155663046852e+01
 1.726322439297225e+00	 2.683754244539747e-01	 1.343616358904024e+01
 1.723888263980526e+00	 2.835908781716729e-01	 1.344233944567713e+01
 1.721312488179536e+00	 2.988274600988808e-01	 1.345068487554247e+01
 1.746672330606725e+00	 1.481166353215022e-01	 1.337578701971090e+01
 1.745332122270199e+00	 1.631519265528132e-01	 1.337994854912343e+01
 1.743857713227510e+00	 1.782218959135245e-01	 1.338356706457841e+01
 1.742248039165079e+00	 1.933249549114810e-01	 1.338674671164218e+01
 1.740502057011995e+00	 2.084594869587459e-01	 1.338965648215161e+01
 1.738618745711378e+00	 2.236238476260608e-01	 1.339253165871430e+01
 1.736597106991882e+00	 2.388163649198185e-01	 1.339567535216217e+01
 1.734436166138628e+00	 2.540353395817774e-01	 1.339946013465032e+01
 1.732134972762872e+00	 2.692790454117321e-01	 1.340432976942114e+01
 1.729692601569686e+00	 2.845457296133284e-01	 1.341080103643089e+01
 1.727108153122901e+00	 2.998336131631868e-01	 1.341946565107226e+01
 1.752533647152385e+00	 1.486136710105005e-01	 1.334336599164741e+01
 1.751188941472448e+00	 1.636994162392320e-01	 1.334745770184171e+01
 1.749709584748407e+00	 1.788199559669255e-01	 1.335104367648971e+01
 1.748094509095164e+00	 1.939736963709156e-01	 1.335423320698976e+01
 1.746342667941566e+00	 2.091590154384732e-01	 1.335719846111229e+01
 1.744453036804369e+00	 2.243742632221214e-01	 1.336017588114989e+01
 1.742424614062325e+00	 2.396177621175361e-01	 1.336346768450830e+01
 1.740256421729697e+00	 2.548878071642666e-01	 1.336744346992734e+01
 1.737947506228519e+00	 2.701826663694897e-01	 1.337254193080692e+01
 1.735496939158846e+00	 2.855005810549837e-01	 1.337927267524447e+01
 1.732903818066267e+00	 3.008397662274929e-01	 1.338821815037480e+01
 1.758394963698045e+00	 1.491107066994988e-01	 1.331118407385770e+01
 1.757045760674697e+00	 1.642469059256509e-01	 1.331519739953085e+01
 1.755561456269305e+00	 1.794180160203266e-01	 1.331873565950792e+01
 1.753940979025248e+00	 1.946224378303501e-01	 1.332191431442473e+01
 1.752183278871136e+00	 2.098585439182005e-01	 1.332490955256831e+01
 1.750287327897361e+00	 2.251246788181820e-01	 1.332795963655669e+01
 1.748252121132767e+00	 2.404191593152536e-01	 1.333136636225843e+01
 1.746076677320766e+00	 2.557402747467558e-01	 1.333549663365887e+01
 1.743760039694167e+00	 2.710862873272472e-01	 1.334078415562482e+01
 1.741301276748006e+00	 2.864554324966393e-01	 1.334773124460057e+01
 1.738699483009632e+00	 3.018459192917989e-01	 1.335691075520145e+01
 1.680742833575978e+00	 2.917843886487389e-01	 1.367116961799823e+01
 1.678088653811775e+00	 3.066807330503665e-01	 1.367688335396580e+01
 1.675294538821657e+00	 3.215941701437626e-01	 1.368036104645897e+01
 1.672359693237993e+00	 3.365228944797793e-01	 1.368237056285827e+01
 1.669283349794022e+00	 3.514650767524020e-01	 1.368376225815193e+01
 1.666064770043785e+00	 3.664188642729422e-01	 1.368547066471263e+01
 1.662703245074843e+00	 3.813823814673576e-01	 1.368851614303970e+01
 1.659198096212977e+00	 3.963537303966704e-01	 1.369400647526292e+01
 1.655548675718089e+00	 4.113309913004443e-01	 1.370313838103943e+01
 1.651754367470463e+00	 4.263122231632296e-01	 1.371719893329825e+01
 1.647814587646606e+00	 4.412954643038713e-01	 1.373756684911496e+01
 1.686538498519343e+00	 2.927905417130450e-01	 1.363922893735506e+01
 1.683875166411126e+00	 3.077382528195058e-01	 1.364521813424532e+01
 1.681071416541732e+00	 3.227031155580514e-01	 1.364886826661781e+01
 1.678126450800884e+00	 3.376833182538475e-01	 1.365095015676214e+01
 1.675039499276071e+00	 3.526770252929274e-01	 1.365231724439549e+01
 1.671809820974971e+00	 3.676823775980216e-01	 1.365390734538464e+01
 1.668436704540618e+00	 3.826974931275898e-01	 1.365674437921876e+01
 1.664919468958539e+00	 3.977204673980381e-01	 1.366194004683471e+01
 1.661257464255048e+00	 4.127493740290666e-01	 1.367069543816399e+01
 1.657450072185878e+00	 4.277822653120683e-01	 1.368430254652322e+01
 1.653496706914353e+00	 4.428171728014708e-01	 1.370414566472720e+01
 1.692334163462708e+00	 2.937966947773509e-01	 1.360749249523846e+01
 1.689661679010477e+00	 3.087957725886449e-01	 1.361379400352566e+01
 1.686848294261807e+00	 3.238120609723401e-01	 1.361766199342649e+01
 1.683893208363773e+00	 3.388437420279156e-01	 1.361986696233196e+01
 1.680795648758119e+00	 3.538889738334529e-01	 1.362126225083239e+01
 1.677554871906156e+00	 3.689458909231007e-01	 1.362278587822032e+01
 1.674170164006393e+00	 3.840126047878221e-01	 1.362546235475027e+01
 1.670640841704102e+00	 3.990872043994061e-01	 1.363040445205565e+01
 1.666966252792007e+00	 4.141677567576888e-01	 1.363881491081342e+01
 1.663145776901294e+00	 4.292523074609070e-01	 1.365198806243598e+01
 1.659178826182100e+00	 4.443388812990705e-01	 1.367131133924527e+01
 1.698129828406074e+00	 2.948028478416569e-01	 1.357592596310871e+01
 1.695448191609827e+00	 3.098532923577840e-01	 1.358256669018888e+01
 1.692625171981881e+00	 3.249210063866290e-01	 1.358668999318096e+01
 1.689659965926662e+00	 3.400041658019838e-01	 1.358906278542542e+01
 1.686551798240168e+00	 3.551009223739786e-01	 1.359053514313280e+01
 1.683299922837342e+00	 3.702094042481798e-01	 1.359204222548598e+01
 1.679903623472168e+00	 3.853277164480543e-01	 1.359460617973731e+01
 1.676362214449663e+00	 4.004539414007738e-01	 1.359933801248086e+01
 1.672675041328965e+00	 4.155861394863108e-01	 1.360743940590810e+01
 1.668841481616709e+00	 4.307223496097457e-01	 1.362020445546098e+01
 1.664860945449847e+00	 4.458605897966699e-01	 1.363902130290649e+01
 1.703925493349440e+00	 2.958090009059628e-01	 1.354449536243385e+01
 1.701234704209178e+00	 3.109108121269233e-01	 1.355149252198899e+01
 1.698402049701956e+00	 3.260299518009178e-01	 1.355590086291489e+01
 1.695426723489552e+00	 3.411645895760521e-01	 1.355848047539934e+01
 1.692307947722216e+00	 3.563128709145040e-01	 1.356007502400798e+01
 1.689044973768527e+00	 3.714729175732589e-01	 1.356161376019443e+01
 1.685637082937944e+00	 3.866428281082867e-01	 1.356411352827402e+01
 1.682083587195225e+00	 4.018206784021418e-01	 1.356868074581581e+01
 1.678383829865925e+00	 4.170045222149333e-01	 1.357651333696186e+01
 1.674537186332125e+00	 4.321923917585844e-01	 1.358890259471363e+01
 1.670543064717594e+00	 4.473822982942695e-01	 1.360723494575795e+01
 1.709721158292805e+00	 2.968151539702689e-01	 1.351316707716374e+01
 1.707021216808530e+00	 3.119683318960624e-01	 1.352052843687019e+01
 1.704178927422031e+00	 3.271388972152067e-01	 1.352524404001263e+01
 1.701193481052442e+00	 3.423250133501204e-01	 1.352806393397057e+01
 1.698064097204265e+00	 3.575248194550296e-01	 1.352982224178130e+01
 1.694790024699713e+00	 3.727364308983380e-01	 1.353143927485177e+01
 1.691370542403719e+00	 3.879579397685188e-01	 1.353392364784166e+01
 1.687804959940787e+00	 4.031874154035095e-01	 1.353837437643683e+01
 1.684092618402883e+00	 4.184229049435553e-01	 1.354598293620973e+01
 1.680232891047540e+00	 4.336624339074232e-01	 1.355803525822007e+01
 1.676225183985341e+00	 4.489040067918691e-01	 1.357591363445931e+01
 1.715516823236170e+00	 2.978213070345748e-01	 1.348190786615433e+01
 1.712807729407880e+00	 3.130258516652016e-01	 1.348963199379032e+01
 1.709955805142105e+00	 3.282478426294955e-01	 1.349466981187101e+01
 1.706960238615332e+00	 3.434854371241886e-01	 1.349775812416454e+01
 1.703820246686313e+00	 3.587367679955550e-01	 1.349971839907592e+01
 1.700535075630898e+00	 3.739999442234170e-01	 1.350145899034278e+01
 1.697104001869495e+00	 3.892730514287511e-01	 1.350397736885399e+01
 1.693526332686349e+00	 4.045541524048772e-01	 1.350836234606512e+01
 1.689801406939842e+00	 4.198412876721776e-01	 1.351579626688292e+01
 1.685928595762956e+00	 4.351324760562619e-01	 1.352755714727017e+01
 1.681907303253088e+00	 4.504257152894687e-01	 1.354502072919337e+01
 1.721312488179536e+00	 2.988274600988808e-01	 1.345068487554247e+01
 1.718594242007231e+00	 3.140833714343407e-01	 1.345876138354700e+01
 1.715732682862180e+00	 3.293567880437842e-01	 1.346412932561102e+01
 1.712726996178221e+00	 3.446458608982567e-01	 1.346750907935032e+01
 1.709576396168361e+00	 3.599487165360805e-01	 1.346970636161729e+01
 1.706280126562083e+00	 3.752634575484962e-01	 1.347161456495035e+01
 1.702837461335269e+00	 3.905881630889834e-01	 1.347421711434881e+01
 1.699247705431912e+00	 4.059208894062452e-01	 1.347858982459034e+01
 1.695510195476801e+00	 4.212596704007999e-01	 1.348590323562729e+01
 1.691624300478371e+00	 4.366025182051007e-01	 1.349742490089894e+01
 1.687589422520835e+00	 4.519474237870681e-01	 1.351452160068234e+01
 1.727108153122901e+00	 2.998336131631868e-01	 1.341946565107226e+01
 1.724380754606582e+00	 3.151408912034799e-01	 1.342787543960782e+01
 1.721509560582255e+00	 3.304657334580731e-01	 1.343357459783606e+01
 1.718493753741111e+00	 3.458062846723248e-01	 1.343726391235841e+01
 1.715332545650409e+00	 3.611606650766061e-01	 1.343973026714701e+01
 1.712025177493269e+00	 3.765269708735752e-01	 1.344184910350694e+01
 1.708570920801045e+00	 3.919032747492157e-01	 1.344458690982313e+01
 1.704969078177473e+00	 4.072876264076129e-01	 1.344900372103940e+01
 1.701218984013761e+00	 4.226780531294221e-01	 1.345625560506238e+01
 1.697320005193786e+00	 4.380725603539393e-01	 1.346759711049424e+01
 1.693271541788582e+00	 4.534691322846678e-01	 1.348438364730712e+01
 1.732903818066267e+00	 3.008397662274929e-01	 1.338821815037480e+01
 1.730167267205933e+00	 3.161984109726191e-01	 1.339693364894412e+01
 1.727286438302329e+00	 3.315746788723619e-01	 1.340295852443748e+01
 1.724260511304001e+00	 3.469667084463932e-01	 1.340697082468065e+01
 1.721088695132458e+00	 3.623726136171316e-01	 1.340973553444534e+01
 1.717770228424454e+00	 3.777904841986544e-01	 1.341210716667376e+01
 1.714304380266820e+00	 3.932183864094478e-01	 1.341503239320695e+01
 1.710690450923035e+00	 4.086543634089808e-01	 1.341955269468878e+01
 1.706927772550719e+00	 4.240964358580443e-01	 1.342680700647746e+01
 1.703015709909201e+00	 4.395426025027779e-01	 1.343803433452785e+01
 1.698953661056329e+00	 4.549908407822673e-01	 1.345457631232662e+01
 1.738699483009632e+00	 3.018459192917989e-01	 1.335691075520145e+01
 1.735953779805285e+00	 3.172559307417585e-01	 1.336589616286801e+01
 1.733063316022404e+00	 3.326836242866508e-01	 1.337223489044507e+01
 1.730027268866890e+00	 3.481271322204613e-01	 1.337657911574992e+01
 1.726844844614506e+00	 3.635845621576571e-01	 1.337966887246136e+01
 1.723515279355640e+00	 3.790539975237335e-01	 1.338233478034590e+01
 1.720037839732595e+00	 3.945334980696801e-01	 1.338550082497452e+01
 1.716411823668597e+00	 4.100211004103486e-01	 1.339018716631497e+01
 1.712636561087678e+00	 4.255148185866666e-01	 1.339751295266128e+01
 1.708711414624616e+00	 4.410126446516167e-01	 1.340869911340632e+01
 1.704635780324075e+00	 4.565125492798668e-01	 1.342507110119633e+01
 1.647814587646606e+00	 4.412954643038713e-01	 1.373756684911495e+01
 1.643728785383832e+00	 4.562787329875408e-01	 1.375575447044342e+01
 1.639496443432775e+00	 4.712600280603134e-01	 1.376372398200072e+01
 1.635117078797007e+00	 4.862373296060937e-01	 1.376369647689828e+01
 1.630590243358956e+00	 5.012085996256502e-01	 1.375802426662170e+01
 1.625915524491271e+00	 5.161717827374895e-01	 1.374919099888659e+01
 1.621092545652860e+00	 5.311248069002751e-01	 1.373981141338154e+01
 1.616120966968747e+00	 5.460655841564497e-01	 1.373263069655464e+01
 1.611000485792977e+00	 5.609920113967011e-01	 1.373052339525149e+01
 1.605730837253735e+00	 5.759019711448683e-01	 1.373649184785678e+01
 1.600311794779915e+00	 5.907933323628578e-01	 1.375327378721763e+01
 1.653496706914353e+00	 4.428171728014708e-01	 1.370414566472720e+01
 1.649396815678259e+00	 4.578521079288771e-01	 1.372187631506689e+01
 1.645149879444612e+00	 4.728850626398318e-01	 1.372959810669246e+01
 1.640755413551480e+00	 4.879140100530114e-01	 1.372954338064646e+01
 1.636212968336056e+00	 5.029369051416006e-01	 1.372407814330467e+01
 1.631522129748138e+00	 5.179516854365845e-01	 1.371570233066134e+01
 1.626682519948214e+00	 5.329562717516553e-01	 1.370704971159499e+01
 1.621693797889329e+00	 5.479485689294029e-01	 1.370088739031015e+01
 1.616555659881918e+00	 5.629264666084136e-01	 1.370011486673491e+01
 1.611267840140816e+00	 5.778878400108849e-01	 1.370776261243987e+01
 1.605830111313640e+00	 5.928305507503159e-01	 1.372577331213019e+01
 1.659178826182100e+00	 4.443388812990705e-01	 1.367131133924527e+01
 1.655064845972686e+00	 4.594254828702135e-01	 1.368857903427758e+01
 1.650803315456449e+00	 4.745100972193501e-01	 1.369604110169624e+01
 1.646393748305953e+00	 4.895906904999289e-01	 1.369594065021527e+01
 1.641835693313156e+00	 5.046652106575511e-01	 1.369065669558792e+01
 1.637128735005004e+00	 5.197315881356790e-01	 1.368270457210508e+01
 1.632272494243569e+00	 5.347877366030356e-01	 1.367473598457661e+01
 1.627266628809911e+00	 5.498315537023561e-01	 1.366953866002162e+01
 1.622110833970860e+00	 5.648609218201264e-01	 1.367003555681226e+01
 1.616804843027899e+00	 5.798737088769017e-01	 1.367928358773798e+01
 1.611348427847363e+00	 5.948677691377741e-01	 1.369802542324093e+01
 1.664860945449847e+00	 4.458605897966699e-01	 1.363902130290649e+01
 1.660732876267113e+00	 4.609988578115497e-01	 1.365582857305579e+01
 1.656456751468286e+00	 4.761351317988683e-01	 1.366302543526083e+01
 1.652032083060425e+00	 4.912673709468465e-01	 1.366286525916449e+01
 1.647458418290255e+00	 5.063935161735016e-01	 1.365773935853513e+01
 1.642735340261871e+00	 5.215114908347740e-01	 1.365017755085666e+01
 1.637862468538924e+00	 5.366192014544159e-01	 1.364284835931606e+01
 1.632839459730494e+00	 5.517145384753096e-01	 1.363855881543723e+01
 1.627666008059802e+00	 5.667953770318392e-01	 1.364025381906179e+01
 1.622341845914980e+00	 5.818595777429185e-01	 1.365101501103419e+01
 1.616866744381087e+00	 5.969049875252322e-01	 1.367002923572209e+01
 1.670543064717594e+00	 4.473822982942695e-01	 1.360723494575795e+01
 1.666400906561540e+00	 4.625722327528862e-01	 1.362359290536802e+01
 1.662110187480123e+00	 4.777601663783866e-01	 1.363052570514958e+01
 1.657670417814897e+00	 4.929440513937640e-01	 1.363029644218287e+01
 1.653081143267356e+00	 5.081218216894522e-01	 1.362530799074172e+01
 1.648341945518738e+00	 5.232913935338688e-01	 1.361810371094877e+01
 1.643452442834278e+00	 5.384506663057960e-01	 1.361136780215861e+01
 1.638412290651075e+00	 5.535975232482626e-01	 1.360792525833244e+01
 1.633221182148743e+00	 5.687298322435519e-01	 1.361074138105137e+01
 1.627878848802062e+00	 5.838454466089352e-01	 1.362292080440625e+01
 1.622385060914811e+00	 5.989422059126904e-01	 1.364178712780640e+01
 1.676225183985341e+00	 4.489040067918691e-01	 1.357591363445931e+01
 1.672068936855968e+00	 4.641456076942225e-01	 1.359184205357619e+01
 1.667763623491961e+00	 4.793852009579050e-01	 1.359851866021068e+01
 1.663308752569370e+00	 4.946207318406815e-01	 1.359821571837072e+01
 1.658703868244455e+00	 5.098501272054027e-01	 1.359334689887748e+01
 1.653948550775604e+00	 5.250712962329634e-01	 1.358646813815584e+01
 1.649042417129634e+00	 5.402821311571763e-01	 1.358027814450101e+01
 1.643985121571657e+00	 5.554805080212160e-01	 1.357761850809381e+01
 1.638776356237684e+00	 5.706642874552648e-01	 1.358147336934866e+01
 1.633415851689144e+00	 5.858313154749519e-01	 1.359496859869981e+01
 1.627903377448535e+00	 6.009794243001486e-01	 1.361330467940110e+01
 1.681907303253088e+00	 4.504257152894687e-01	 1.354502072919337e+01
 1.677736967150395e+00	 4.657189826355589e-01	 1.356054810793120e+01
 1.673417059503797e+00	 4.810102355374234e-01	 1.356698322201749e+01
 1.668947087323843e+00	 4.962974122875992e-01	 1.356660691458721e+01
 1.664326593221555e+00	 5.115784327213531e-01	 1.356184286229908e+01
 1.659555156032470e+00	 5.268511989320582e-01	 1.355525858542636e+01
 1.654632391424988e+00	 5.421135960085565e-01	 1.354956610859556e+01
 1.649557952492239e+00	 5.573634927941692e-01	 1.354762222744549e+01
 1.644331530326625e+00	 5.725987426669774e-01	 1.355242833471792e+01
 1.638952854576226e+00	 5.878171843409687e-01	 1.356712975774163e+01
 1.633421693982258e+00	 6.030166426876067e-01	 1.358459061100441e+01
 1.687589422520835e+00	 4.519474237870681e-01	 1.351452160068235e+01
 1.683404997444821e+00	 4.672923575768952e-01	 1.352968524614833e+01
 1.679070495515635e+00	 4.826352701169416e-01	 1.353590050657643e+01
 1.674585422078314e+00	 4.979740927345167e-01	 1.353545618886132e+01
 1.669949318198655e+00	 5.133067382373037e-01	 1.353078515773042e+01
 1.665161761289337e+00	 5.286311016311529e-01	 1.352446549839736e+01
 1.660222365720342e+00	 5.439450608599368e-01	 1.351922133346091e+01
 1.655130783412821e+00	 5.592464775671224e-01	 1.351792324831543e+01
 1.649886704415566e+00	 5.745331978786902e-01	 1.352358827749888e+01
 1.644489857463307e+00	 5.898030532069855e-01	 1.353927103918980e+01
 1.638940010515982e+00	 6.050538610750645e-01	 1.355565672291799e+01
 1.693271541788582e+00	 4.534691322846678e-01	 1.348438364730712e+01
 1.689073027739248e+00	 4.688657325182314e-01	 1.349922975306260e+01
 1.684723931527472e+00	 4.842603046964599e-01	 1.350525384610112e+01
 1.680223756832787e+00	 4.996507731814343e-01	 1.350475205386393e+01
 1.675572043175755e+00	 5.150350437532542e-01	 1.350016558400977e+01
 1.670768366546203e+00	 5.304110043302477e-01	 1.349408204098966e+01
 1.665812340015698e+00	 5.457765257113171e-01	 1.348923640089649e+01
 1.660703614333403e+00	 5.611294623400758e-01	 1.348851159783738e+01
 1.655441878504507e+00	 5.764676530904028e-01	 1.349493867316343e+01
 1.650026860350389e+00	 5.917889220730023e-01	 1.351116371132176e+01
 1.644458327049706e+00	 6.070910794625227e-01	 1.352651783474817e+01
 1.698953661056329e+00	 4.549908407822673e-01	 1.345457631232662e+01
 1.694741058033676e+00	 4.704391074595680e-01	 1.346916004036255e+01
 1.690377367539309e+00	 4.858853392759780e-01	 1.347502881085172e+01
 1.685862091587259e+00	 5.013274536283518e-01	 1.347448540044103e+01
 1.681194768152855e+00	 5.167633492692048e-01	 1.346997848690158e+01
 1.676374971803069e+00	 5.321909070293424e-01	 1.346410412108159e+01
 1.671402314311052e+00	 5.476079905626972e-01	 1.345960686159761e+01
 1.666276445253984e+00	 5.630124471130288e-01	 1.345938052448609e+01
 1.660997052593448e+00	 5.784021083021156e-01	 1.346646849804603e+01
 1.655563863237472e+00	 5.937747909390191e-01	 1.348282686063747e+01
 1.649976643583430e+00	 6.091282978499809e-01	 1.349719172518946e+01
 1.704635780324075e+00	 4.565125492798668e-01	 1.342507110119633e+01
 1.700409088328102e+00	 4.720124824009042e-01	 1.343945666639998e+01
 1.696030803551146e+00	 4.875103738554964e-01	 1.344521323103689e+01
 1.691500426341732e+00	 5.030041340752693e-01	 1.344464952120523e+01
 1.686817493129954e+00	 5.184916547851552e-01	 1.344022078397197e+01
 1.681981577059936e+00	 5.339708097284372e-01	 1.343453041625944e+01
 1.676992288606406e+00	 5.494394554140775e-01	 1.343033126137040e+01
 1.671849276174566e+00	 5.648954318859821e-01	 1.343052652434227e+01
 1.666552226682390e+00	 5.803365635138283e-01	 1.343817025524370e+01
 1.661100866124553e+00	 5.957606598050360e-01	 1.345429043708462e+01
 1.655494960117154e+00	 6.111655162374392e-01	 1.346769907208302e+01
 1.600311794779915e+00	 5.907933323628578e-01	 1.375327378721763e+01
 1.594743170608343e+00	 6.056639512751041e-01	 1.377161030893384e+01
 1.589024816270880e+00	 6.205116722120716e-01	 1.378802738837044e+01
 1.583156623060651e+00	 6.353343284722778e-01	 1.380243847916331e+01
 1.577138522476668e+00	 6.501297432022611e-01	 1.381464615099554e+01
 1.570970486646090e+00	 6.648957302939086e-01	 1.382434118025794e+01
 1.564652528723442e+00	 6.796300952985103e-01	 1.383110222631829e+01
 1.558184703266069e+00	 6.943306363568849e-01	 1.383439614285590e+01
 1.551567106585180e+00	 7.089951451448855e-01	 1.383357897259465e+01
 1.544799877071812e+00	 7.236214078335700e-01	 1.382789767223062e+01
 1.537883195497098e+00	 7.382072060632838e-01	 1.381649261238482e+01
 1.605830111313640e+00	 5.928305507503159e-01	 1.372577331213018e+01
 1.600242284989752e+00	 6.077524476588112e-01	 1.374311561413618e+01
 1.594504212189055e+00	 6.226513676334926e-01	 1.375882740894559e+01
 1.588615783829826e+00	 6.375251365014926e-01	 1.377282180136445e+01
 1.582576931174863e+00	 6.523715699029586e-01	 1.378489935118606e+01
 1.576387626255215e+00	 6.671884741914736e-01	 1.379474703352698e+01
 1.570047882270764e+00	 6.819736473512638e-01	 1.380193779177128e+01
 1.563557753966986e+00	 6.967248799305292e-01	 1.380593073403329e+01
 1.556917337987198e+00	 7.114399559902129e-01	 1.380607202293628e+01
 1.550126773199647e+00	 7.261166540674792e-01	 1.380159650696151e+01
 1.543186240998812e+00	 7.407527481531574e-01	 1.379163013964549e+01
 1.611348427847363e+00	 5.948677691377741e-01	 1.369802542324093e+01
 1.605741399371160e+00	 6.098409440425184e-01	 1.371446675598115e+01
 1.599983608107230e+00	 6.247910630549135e-01	 1.372954556791154e+01
 1.594074944599000e+00	 6.397159445307071e-01	 1.374317591133821e+01
 1.588015339873059e+00	 6.546133966036560e-01	 1.375515785383107e+01
 1.581804765864339e+00	 6.694812180890387e-01	 1.376517630466358e+01
 1.575443235818086e+00	 6.843171994040174e-01	 1.377280044058176e+01
 1.568930804667904e+00	 6.991191235041739e-01	 1.377748378329537e+01
 1.562267569389216e+00	 7.138847668355401e-01	 1.377856497997671e+01
 1.555453669327480e+00	 7.286119003013879e-01	 1.377526933650997e+01
 1.548489286500526e+00	 7.432982902430305e-01	 1.376671115124334e+01
 1.616866744381087e+00	 5.969049875252322e-01	 1.367002923572208e+01
 1.611240513752568e+00	 6.119294404262257e-01	 1.368565269812502e+01
 1.605463004025406e+00	 6.269307584763347e-01	 1.370016258266691e+01
 1.599534105368175e+00	 6.419067525599220e-01	 1.371347519926184e+01
 1.593453748571254e+00	 6.568552233043535e-01	 1.372539165327462e+01
 1.587221905473464e+00	 6.717739619866039e-01	 1.373559653436741e+01
 1.580838589365409e+00	 6.866607514567707e-01	 1.374365721112127e+01
 1.574303855368821e+00	 7.015133670778180e-01	 1.374902378533256e+01
 1.567617800791233e+00	 7.163295776808670e-01	 1.375102975878679e+01
 1.560780565455314e+00	 7.311071465352966e-01	 1.374889346376793e+01
 1.553792332002240e+00	 7.458438323329043e-01	 1.374172030656015e+01
 1.622385060914811e+00	 5.989422059126904e-01	 1.364178712780640e+01
 1.616739628133977e+00	 6.140179368099331e-01	 1.365666577196313e+01
 1.610942399943582e+00	 6.290704538977556e-01	 1.367066261143280e+01
 1.604993266137350e+00	 6.440975605891367e-01	 1.368369753819466e+01
 1.598892157269449e+00	 6.590970500050507e-01	 1.369557423837139e+01
 1.592639045082588e+00	 6.740667058841694e-01	 1.370597873966165e+01
 1.586233942912731e+00	 6.890043035095238e-01	 1.371447857071684e+01
 1.579676906069739e+00	 7.039076106514622e-01	 1.372052258789654e+01
 1.572968032193251e+00	 7.187743885261945e-01	 1.372344152374956e+01
 1.566107461583147e+00	 7.336023927692054e-01	 1.372244931002355e+01
 1.559095377503954e+00	 7.483893744227775e-01	 1.371664522599350e+01
 1.627903377448535e+00	 6.009794243001486e-01	 1.361330467940110e+01
 1.622238742515384e+00	 6.161064331936401e-01	 1.362750161028668e+01
 1.616421795861757e+00	 6.312101493191764e-01	 1.364103318245821e+01
 1.610452426906524e+00	 6.462883686183514e-01	 1.365382420933735e+01
 1.604330565967645e+00	 6.613388767057483e-01	 1.366568251430711e+01
 1.598056184691713e+00	 6.763594497817345e-01	 1.367629733278212e+01
 1.591629296460053e+00	 6.913478555622778e-01	 1.368523833211783e+01
 1.585049956770656e+00	 7.063018542251071e-01	 1.369195530635310e+01
 1.578318263595269e+00	 7.212191993715213e-01	 1.369577860170780e+01
 1.571434357710981e+00	 7.360976390031144e-01	 1.369592032721108e+01
 1.564398423005668e+00	 7.509349165126509e-01	 1.369147640281527e+01
 1.633421693982258e+00	 6.030166426876067e-01	 1.358459061100441e+01
 1.627737856896792e+00	 6.181949295773475e-01	 1.359815908130598e+01
 1.621901191779932e+00	 6.333498447405973e-01	 1.361126512364300e+01
 1.615911587675699e+00	 6.484791766475662e-01	 1.362383982775139e+01
 1.609768974665840e+00	 6.635807034064457e-01	 1.363569672491174e+01
 1.603473324300837e+00	 6.786521936792995e-01	 1.364653004058274e+01
 1.597024650007376e+00	 6.936914076150310e-01	 1.365591357049174e+01
 1.590423007471574e+00	 7.086960977987514e-01	 1.366330023876732e+01
 1.583668494997287e+00	 7.236640102168485e-01	 1.366802239563673e+01
 1.576761253838815e+00	 7.385928852370233e-01	 1.366929291066896e+01
 1.569701468507382e+00	 7.534804586025240e-01	 1.366620711551231e+01
 1.638940010515982e+00	 6.050538610750645e-01	 1.355565672291799e+01
 1.633236971278200e+00	 6.202834259610547e-01	 1.356864022302992e+01
 1.627380587698108e+00	 6.354895401620181e-01	 1.358135249257019e+01
 1.621370748444874e+00	 6.506699846767811e-01	 1.359373226852945e+01
 1.615207383364036e+00	 6.658225301071430e-01	 1.360560037545534e+01
 1.608890463909961e+00	 6.809449375768649e-01	 1.361665782444484e+01
 1.602420003554698e+00	 6.960349596677847e-01	 1.362648454093662e+01
 1.595796058172491e+00	 7.110903413723960e-01	 1.363453878150789e+01
 1.589018726399305e+00	 7.261088210621759e-01	 1.364015729882951e+01
 1.582088149966649e+00	 7.410881314709320e-01	 1.364255631239486e+01
 1.575004514009097e+00	 7.560260006923976e-01	 1.364083334059813e+01
 1.644458327049706e+00	 6.070910794625227e-01	 1.352651783474817e+01
 1.638736085659609e+00	 6.223719223447620e-01	 1.353895017799489e+01
 1.632859983616283e+00	 6.376292355834391e-01	 1.355129250693648e+01
 1.626829909214048e+00	 6.528607927059957e-01	 1.356349259340461e+01
 1.620645792062231e+00	 6.680643568078407e-01	 1.357538015591406e+01
 1.614307603519086e+00	 6.832376814744301e-01	 1.358666480067887e+01
 1.607815357102020e+00	 6.983785117205380e-01	 1.359693459649748e+01
 1.601169108873408e+00	 7.134845849460401e-01	 1.360565534535841e+01
 1.594368957801323e+00	 7.285536319075031e-01	 1.361217060958279e+01
 1.587415046094482e+00	 7.435833777048410e-01	 1.361570255478500e+01
 1.580307559510810e+00	 7.585715427822709e-01	 1.361535366588463e+01
 1.649976643583430e+00	 6.091282978499809e-01	 1.349719172518946e+01
 1.644235200041017e+00	 6.244604187284691e-01	 1.350909712833380e+01
 1.638339379534459e+00	 6.397689310048601e-01	 1.352108547537267e+01
 1.632289069983223e+00	 6.550516007352105e-01	 1.353311497778938e+01
 1.626084200760426e+00	 6.703061835085379e-01	 1.354502586469598e+01
 1.619724743128210e+00	 6.855304253719952e-01	 1.355653816140691e+01
 1.613210710649342e+00	 7.007220637732916e-01	 1.356725010667565e+01
 1.606542159574327e+00	 7.158788285196847e-01	 1.357663727212396e+01
 1.599719189203341e+00	 7.309984427528301e-01	 1.358405244637174e+01
 1.592741942222316e+00	 7.460786239387498e-01	 1.358872634484746e+01
 1.585610605012525e+00	 7.611170848721442e-01	 1.358976920420293e+01
 1.655494960117154e+00	 6.111655162374392e-01	 1.346769907208302e+01
 1.649734314422425e+00	 6.265489151121764e-01	 1.347909223117781e+01
 1.643818775452634e+00	 6.419086264262810e-01	 1.349073472864477e+01
 1.637748230752398e+00	 6.572424087644252e-01	 1.350259663823380e+01
 1.631522609458622e+00	 6.725480102092356e-01	 1.351453033281578e+01
 1.625141882737335e+00	 6.878231692695604e-01	 1.352626809591408e+01
 1.618606064196664e+00	 7.030656158260452e-01	 1.353742037641894e+01
 1.611915210275244e+00	 7.182730720933291e-01	 1.354747475172167e+01
 1.605069420605358e+00	 7.334432535981575e-01	 1.355579566350204e+01
 1.598068838350150e+00	 7.485738701726585e-01	 1.356162498887732e+01
 1.590913650514238e+00	 7.636626269620175e-01	 1.356408350756283e+01
 1.537883195497098e+00	 7.382072060632838e-01	 1.381649261238482e+01
 1.530817285286224e+00	 7.527503179308798e-01	 1.380531505346208e+01
 1.523602412765512e+00	 7.672485189892734e-01	 1.379991298210444e+01
 1.516238887382068e+00	 7.816995832585004e-01	 1.379865473555513e+01
 1.508727061895471e+00	 7.961012842474147e-01	 1.379979503443980e+01
 1.501067332541028e+00	 8.104513959851553e-01	 1.380148227221111e+01
 1.493260139164109e+00	 8.247476940614683e-01	 1.380176681883112e+01
 1.485305965325159e+00	 8.389879566749597e-01	 1.379861035756466e+01
 1.477205338374964e+00	 8.531699656883329e-01	 1.378989626836396e+01
 1.468958829499848e+00	 8.672915076896358e-01	 1.377344106557340e+01
 1.460567053736424e+00	 8.813503750585379e-01	 1.374700689159329e+01
 1.543186240998812e+00	 7.407527481531574e-01	 1.379163013964549e+01
 1.536095965580314e+00	 7.553460086823652e-01	 1.378201952549211e+01
 1.528856214188842e+00	 7.698942035375120e-01	 1.377820955618066e+01
 1.521467297338558e+00	 7.843950990628400e-01	 1.377855271190265e+01
 1.513929569005455e+00	 7.988464610896473e-01	 1.378128516149300e+01
 1.506243426791170e+00	 8.132460559713108e-01	 1.378453404720200e+01
 1.498409312057778e+00	 8.275916516271972e-01	 1.378632580461182e+01
 1.490427710033176e+00	 8.418810185945286e-01	 1.378459553764368e+01
 1.482299149886602e+00	 8.561119310872581e-01	 1.377719746311611e+01
 1.474024204773985e+00	 8.702821680609791e-01	 1.376191643344983e+01
 1.465603491852757e+00	 8.843895142828778e-01	 1.373648053991006e+01
 1.548489286500526e+00	 7.432982902430305e-01	 1.376671115124334e+01
 1.541374645874404e+00	 7.579416994338510e-01	 1.375863332502743e+01
 1.534110015612171e+00	 7.725398880857511e-01	 1.375637727566052e+01
 1.526695707295048e+00	 7.870906148671797e-01	 1.375828050398069e+01
 1.519132076115440e+00	 8.015916379318798e-01	 1.376256145887114e+01
 1.511419521041311e+00	 8.160407159574667e-01	 1.376732681324280e+01
 1.503558484951448e+00	 8.304356091929264e-01	 1.377057979639663e+01
 1.495549454741194e+00	 8.447740805140975e-01	 1.377022960382012e+01
 1.487392961398240e+00	 8.590538964861836e-01	 1.376410189988230e+01
 1.479089580048123e+00	 8.732728284323229e-01	 1.374995042292195e+01
 1.470639929969090e+00	 8.874286535072176e-01	 1.372546969589504e+01
 1.553792332002240e+00	 7.458438323329043e-01	 1.374172030656015e+01
 1.546653326168495e+00	 7.605373901853371e-01	 1.373514944658704e+01
 1.539363817035500e+00	 7.751855726339899e-01	 1.373441746944289e+01
 1.531924117251537e+00	 7.897861306715196e-01	 1.373784778905599e+01
 1.524334583225425e+00	 8.043368147741121e-01	 1.374364197989401e+01
 1.516595615291452e+00	 8.188353759436224e-01	 1.374988703994235e+01
 1.508707657845117e+00	 8.332795667586557e-01	 1.375456373163302e+01
 1.500671199449211e+00	 8.476671424336658e-01	 1.375555602291640e+01
 1.492486772909877e+00	 8.619958618851086e-01	 1.375066164497610e+01
 1.484154955322260e+00	 8.762634888036663e-01	 1.373760377700672e+01
 1.475676368085422e+00	 8.904677927315572e-01	 1.371404386202414e+01
 1.559095377503954e+00	 7.483893744227775e-01	 1.371664522599350e+01
 1.551932006462585e+00	 7.631330809368227e-01	 1.371156367603217e+01
 1.544617618458829e+00	 7.778312571822289e-01	 1.371233408980752e+01
 1.537152527208027e+00	 7.924816464758587e-01	 1.371726670198422e+01
 1.529537090335409e+00	 8.070819916163449e-01	 1.372454707229191e+01
 1.521771709541594e+00	 8.216300359297782e-01	 1.373224333118645e+01
 1.513856830738787e+00	 8.361235243243847e-01	 1.373831452537219e+01
 1.505792944157229e+00	 8.505602043532349e-01	 1.374062008654610e+01
 1.497580584421515e+00	 8.649378272840340e-01	 1.373693044093195e+01
 1.489220330596397e+00	 8.792541491750099e-01	 1.372493877097761e+01
 1.480712806201755e+00	 8.935069319558971e-01	 1.370227393401526e+01
 1.564398423005668e+00	 7.509349165126509e-01	 1.369147640281527e+01
 1.557210686756676e+00	 7.657287716883083e-01	 1.368787450230967e+01
 1.549871419882159e+00	 7.804769417304678e-01	 1.369013362409406e+01
 1.542380937164517e+00	 7.951771622801985e-01	 1.369655174687621e+01
 1.534739597445393e+00	 8.098271684585772e-01	 1.370529928991353e+01
 1.526947803791735e+00	 8.244246959159338e-01	 1.371442633694393e+01
 1.519006003632456e+00	 8.389674818901141e-01	 1.372187098223198e+01
 1.510914688865248e+00	 8.534532662728037e-01	 1.372546882329362e+01
 1.502674395933154e+00	 8.678797926829595e-01	 1.372296361896452e+01
 1.494285705870535e+00	 8.822448095463533e-01	 1.371201912516779e+01
 1.485749244318087e+00	 8.965460711802365e-01	 1.369023211404025e+01
 1.569701468507382e+00	 7.534804586025240e-01	 1.366620711551231e+01
 1.562489367050766e+00	 7.683244624397941e-01	 1.366408302964763e+01
 1.555125221305488e+00	 7.831226262787064e-01	 1.366782500680106e+01
 1.547609347121008e+00	 7.978726780845383e-01	 1.367571970915309e+01
 1.539942104555378e+00	 8.125723453008096e-01	 1.368592330479169e+01
 1.532123898041877e+00	 8.272193559020895e-01	 1.369646866539842e+01
 1.524155176526125e+00	 8.418114394558434e-01	 1.370527370865358e+01
 1.516036433573265e+00	 8.563463281923727e-01	 1.371015091115688e+01
 1.507768207444792e+00	 8.708217580818847e-01	 1.370881801165876e+01
 1.499351081144672e+00	 8.852354699176971e-01	 1.369890991797162e+01
 1.490785682434419e+00	 8.995852104045766e-01	 1.367799182410348e+01
 1.575004514009097e+00	 7.560260006923976e-01	 1.364083334059813e+01
 1.567768047344857e+00	 7.709201531912800e-01	 1.364019289019097e+01
 1.560379022728818e+00	 7.857683108269455e-01	 1.364541953209591e+01
 1.552837757077497e+00	 8.005681938888780e-01	 1.365478956798143e+01
 1.545144611665362e+00	 8.153175221430421e-01	 1.366644581955721e+01
 1.537299992292018e+00	 8.300140158882452e-01	 1.367840479539850e+01
 1.529304349419795e+00	 8.446553970215726e-01	 1.368856502544601e+01
 1.521158178281283e+00	 8.592393901119413e-01	 1.369471659024564e+01
 1.512862018956429e+00	 8.737637234808097e-01	 1.369455186588542e+01
 1.504416456418809e+00	 8.882261302890404e-01	 1.368567749904030e+01
 1.495822120550751e+00	 9.026243496289164e-01	 1.366562761958358e+01
 1.580307559510810e+00	 7.585715427822709e-01	 1.361535366588463e+01
 1.573046727638947e+00	 7.735158439427656e-01	 1.361621015706798e+01
 1.565632824152147e+00	 7.884139953751842e-01	 1.362293076672465e+01
 1.558066167033986e+00	 8.032637096932175e-01	 1.363378240907874e+01
 1.550347118775347e+00	 8.180626989852747e-01	 1.364689548019472e+01
 1.542476086542159e+00	 8.328086758744009e-01	 1.366027098921905e+01
 1.534453522313464e+00	 8.474993545873015e-01	 1.367178888061099e+01
 1.526279922989300e+00	 8.621324520315103e-01	 1.367921757573094e+01
 1.517955830468067e+00	 8.767056888797350e-01	 1.368022475593574e+01
 1.509481831692947e+00	 8.912167906603842e-01	 1.367238940266704e+01
 1.500858558667084e+00	 9.056634888532560e-01	 1.365321510293363e+01
 1.585610605012525e+00	 7.611170848721442e-01	 1.358976920420293e+01
 1.578325407933037e+00	 7.761115346942514e-01	 1.359214325787693e+01
 1.570886625575476e+00	 7.910596799234233e-01	 1.360037446331401e+01
 1.563294576990477e+00	 8.059592254975575e-01	 1.361272133788170e+01
 1.555549625885331e+00	 8.208078758275070e-01	 1.362730278913065e+01
 1.547652180792301e+00	 8.356033358605568e-01	 1.364210520562515e+01
 1.539602695207134e+00	 8.503433121530307e-01	 1.365499076244155e+01
 1.531401667697318e+00	 8.650255139510790e-01	 1.366370697103794e+01
 1.523049641979705e+00	 8.796476542786604e-01	 1.366589749687157e+01
 1.514547206967084e+00	 8.942074510317276e-01	 1.365911426135719e+01
 1.505894996783416e+00	 9.087026280775956e-01	 1.364083083753728e+01
 1.590913650514238e+00	 7.636626269620175e-01	 1.356408350756283e+01
 1.583604088227128e+00	 7.787072254457373e-01	 1.356800288858323e+01
 1.576140426998806e+00	 7.937053644716623e-01	 1.357776847405489e+01
 1.568522986946967e+00	 8.086547413018970e-01	 1.359163139306808e+01
 1.560752132995315e+00	 8.235530526697391e-01	 1.360770001864664e+01
 1.552828275042443e+00	 8.383979958467124e-01	 1.362394701323339e+01
 1.544751868100803e+00	 8.531872697187601e-01	 1.363821761288883e+01
 1.536523412405336e+00	 8.679185758706478e-01	 1.364823918127813e+01
 1.528143453491343e+00	 8.825896196775855e-01	 1.365163205808487e+01
 1.519612582241223e+00	 8.971981114030715e-01	 1.364592171957890e+01
 1.510931434899749e+00	 9.117417673019356e-01	 1.362855226171583e+01
 1.460567053736424e+00	 8.813503750585379e-01	 1.374700689159329e+01
 1.452030669955668e+00	 8.953443670366273e-01	 1.371646568798005e+01
 1.443350380816011e+00	 9.092712908007162e-01	 1.368776449845803e+01
 1.434526932685279e+00	 9.231289625381107e-01	 1.365875499527124e+01
 1.425561115531278e+00	 9.369152085228115e-01	 1.362731499533302e+01
 1.416453762780900e+00	 9.506278661915790e-01	 1.359136585603473e+01
 1.407205751147663e+00	 9.642647852188050e-01	 1.354889075992167e+01
 1.397818000427613e+00	 9.778238285891152e-01	 1.349795384068437e+01
 1.388291473263599e+00	 9.913028736666262e-01	 1.343672009550381e+01
 1.378627174877931e+00	 1.004699813259771e+00	 1.336347602140928e+01
 1.368826152773504e+00	 1.018012556680620e+00	 1.327665090601096e+01
 1.465603491852757e+00	 8.843895142828778e-01	 1.373648053991006e+01
 1.457037672265860e+00	 8.984317614057192e-01	 1.370686054663977e+01
 1.448327451094687e+00	 9.124067090448567e-01	 1.367913352060531e+01
 1.439473577280746e+00	 9.263121658572079e-01	 1.365116313561061e+01
 1.430476843515869e+00	 9.401459506211663e-01	 1.362084063256105e+01
 1.421338086100834e+00	 9.539058933163775e-01	 1.358610240227229e+01
 1.412058184772309e+00	 9.675898362023179e-01	 1.354494847842582e+01
 1.402638062498052e+00	 9.811956348945948e-01	 1.349546189287272e+01
 1.393078685240370e+00	 9.947211594378904e-01	 1.343582883791590e+01
 1.383381061687855e+00	 1.008164295374460e+00	 1.336435957265840e+01
 1.373546242955481e+00	 1.021522944807105e+00	 1.327951000303973e+01
 1.470639929969090e+00	 8.874286535072176e-01	 1.372546969589504e+01
 1.462044674576052e+00	 9.015191557748109e-01	 1.369674293812952e+01
 1.453304521373363e+00	 9.155421272889970e-01	 1.366998940732166e+01
 1.444420221876213e+00	 9.294953691763048e-01	 1.364308284701607e+01
 1.435392571500459e+00	 9.433766927195205e-01	 1.361392576859045e+01
 1.426222409420768e+00	 9.571839204411758e-01	 1.358046722315155e+01
 1.416910618396957e+00	 9.709148871858313e-01	 1.354072150563104e+01
 1.407458124568493e+00	 9.845674412000750e-01	 1.349278774304223e+01
 1.397865897217141e+00	 9.981394452091545e-01	 1.343487031112516e+01
 1.388134948497779e+00	 1.011628777489149e+00	 1.336530001589419e+01
 1.378266333137459e+00	 1.025033332933590e+00	 1.328255596897014e+01
 1.475676368085422e+00	 8.904677927315572e-01	 1.371404386202413e+01
 1.467051676886244e+00	 9.046065501439030e-01	 1.368619048922450e+01
 1.458281591652038e+00	 9.186775455331372e-01	 1.366041656810529e+01
 1.449366866471678e+00	 9.326785724954015e-01	 1.363460400128029e+01
 1.440308299485050e+00	 9.466074348178750e-01	 1.360666443760173e+01
 1.431106732740702e+00	 9.604619475659743e-01	 1.357455723519125e+01
 1.421763052021604e+00	 9.742399381693444e-01	 1.353630837950276e+01
 1.412278186638933e+00	 9.879392475055546e-01	 1.349003030814913e+01
 1.402653109193912e+00	 1.001557730980419e+00	 1.343394258631780e+01
 1.392888835307703e+00	 1.015093259603838e+00	 1.336639336871961e+01
 1.382986423319437e+00	 1.028543721060075e+00	 1.328588157620675e+01
 1.480712806201755e+00	 8.935069319558971e-01	 1.370227393401527e+01
 1.472058679196435e+00	 9.076939445129946e-01	 1.367528209602043e+01
 1.463258661930715e+00	 9.218129637772777e-01	 1.365050058288826e+01
 1.454313511067145e+00	 9.358617758144985e-01	 1.362581756677513e+01
 1.445224027469640e+00	 9.498381769162296e-01	 1.359915172149030e+01
 1.435991056060637e+00	 9.637399746907731e-01	 1.356847037866785e+01
 1.426615485646251e+00	 9.775649891528571e-01	 1.353180866259211e+01
 1.417098248709373e+00	 9.913110538110343e-01	 1.348728955518403e+01
 1.407440321170683e+00	 1.004976016751683e+00	 1.343314483457961e+01
 1.397642722117627e+00	 1.018557741718527e+00	 1.336773682267150e+01
 1.387706513501414e+00	 1.032054109186560e+00	 1.328958086900417e+01
 1.485749244318087e+00	 8.965460711802365e-01	 1.369023211404025e+01
 1.477065681506628e+00	 9.107813388820863e-01	 1.366409783745440e+01
 1.468235732209390e+00	 9.249483820214179e-01	 1.364032811560555e+01
 1.459260155662612e+00	 9.390449791335954e-01	 1.361681552181307e+01
 1.450139755454231e+00	 9.530689190145843e-01	 1.359148366276927e+01
 1.440875379380571e+00	 9.670180018155715e-01	 1.356230552981680e+01
 1.431467919270898e+00	 9.808900401363703e-01	 1.352732285329711e+01
 1.421918310779813e+00	 9.946828601165139e-01	 1.348466641126229e+01
 1.412227533147454e+00	 1.008394302522947e+00	 1.343257723558934e+01
 1.402396608927550e+00	 1.022022223833215e+00	 1.336942865029907e+01
 1.392426603683391e+00	 1.035564497313045e+00	 1.329374906871784e+01
 1.490785682434419e+00	 8.995852104045766e-01	 1.367799182410348e+01
 1.482072683816820e+00	 9.138687332511781e-01	 1.365271888896490e+01
 1.473212802488067e+00	 9.280838002655586e-01	 1.362998682788028e+01
 1.464206800258078e+00	 9.422281824526925e-01	 1.360769076810874e+01
 1.455055483438822e+00	 9.562996611129387e-01	 1.358375717756467e+01
 1.445759702700505e+00	 9.702960289403701e-01	 1.355616241312320e+01
 1.436320352895545e+00	 9.842150911198835e-01	 1.352295229721812e+01
 1.426738372850253e+00	 9.980546664219935e-01	 1.348226267381811e+01
 1.417014745124225e+00	 1.011812588294212e+00	 1.343234088643331e+01
 1.407150495737474e+00	 1.025486705947904e+00	 1.337156811238566e+01
 1.397146693865370e+00	 1.039074885439530e+00	 1.329848247922620e+01
 1.495822120550751e+00	 9.026243496289164e-01	 1.366562761958357e+01
 1.487079686127011e+00	 9.169561276202700e-01	 1.364122743628615e+01
 1.478189872766742e+00	 9.312192185096988e-01	 1.361956529282287e+01
 1.469153444853544e+00	 9.454113857717893e-01	 1.359853704433981e+01
 1.459971211423412e+00	 9.595304032112929e-01	 1.357606996870076e+01
 1.450644026020439e+00	 9.735740560651688e-01	 1.355014151370065e+01
 1.441172786520192e+00	 9.875401421033966e-01	 1.351879909860478e+01
 1.431558434920692e+00	 1.001426472727473e+00	 1.348018092090119e+01
 1.421801957100996e+00	 1.015230874065476e+00	 1.343253771053823e+01
 1.411904382547398e+00	 1.028951188062593e+00	 1.337425536531042e+01
 1.401866784047347e+00	 1.042585273566014e+00	 1.330387839252161e+01
 1.500858558667084e+00	 9.056634888532560e-01	 1.365321510293363e+01
 1.492086688437204e+00	 9.200435219893620e-01	 1.362970658937409e+01
 1.483166943045419e+00	 9.343546367538392e-01	 1.360915290894066e+01
 1.474100089449011e+00	 9.485945890908861e-01	 1.358944883980360e+01
 1.464886939408003e+00	 9.627611453096476e-01	 1.356852043887299e+01
 1.455528349340373e+00	 9.768520831899671e-01	 1.354434398975588e+01
 1.446025220144840e+00	 9.908651930869100e-01	 1.351496603189278e+01
 1.436378496991133e+00	 1.004798279032953e+00	 1.347852442157238e+01
 1.426589169077767e+00	 1.018649159836740e+00	 1.343327036671826e+01
 1.416658269357322e+00	 1.032415670177282e+00	 1.337759136854701e+01
 1.406586874229325e+00	 1.046095661692499e+00	 1.331003499446412e+01
 1.505894996783416e+00	 9.087026280775956e-01	 1.364083083753729e+01
 1.497093690747395e+00	 9.231309163584536e-01	 1.361824029646154e+01
 1.488144013324094e+00	 9.374900549979798e-01	 1.359883981415601e+01
 1.479046734044478e+00	 9.517777924099831e-01	 1.358052130816817e+01
 1.469802667392593e+00	 9.659918874080020e-01	 1.356120760390739e+01
 1.460412672660307e+00	 9.801301103147656e-01	 1.353887158513693e+01
 1.450877653769486e+00	 9.941902440704229e-01	 1.351155645332864e+01
 1.441198559061572e+00	 1.008170085338433e+00	 1.347739704639687e+01
 1.431376381054538e+00	 1.022067445608004e+00	 1.343464215833604e+01
 1.421412156167246e+00	 1.035880152291971e+00	 1.338167779229551e+01
 1.411306964411302e+00	 1.049606049818984e+00	 1.331705127069586e+01
 1.510931434899749e+00	 9.117417673019356e-01	 1.362855226171584e+01
 1.502100693057588e+00	 9.262183107275453e-01	 1.360691325823842e+01
 1.493121083602770e+00	 9.406254732421200e-01	 1.358871679992996e+01
 1.483993378639944e+00	 9.549609957290800e-01	 1.357185018131520e+01
 1.474718395377184e+00	 9.692226295063568e-01	 1.355423100610341e+01
 1.465296995980241e+00	 9.834081374395645e-01	 1.353382654196345e+01
 1.455730087394133e+00	 9.975152950539360e-01	 1.350867421267900e+01
 1.446018621132013e+00	 1.011541891643912e+00	 1.347690317803198e+01
 1.436163593031309e+00	 1.025485731379268e+00	 1.343675694257250e+01
 1.426166042977170e+00	 1.039344634406659e+00	 1.338661692524491e+01
 1.416027054593280e+00	 1.053116437945469e+00	 1.332502691271196e+01
 1.368826152773504e+00	 1.018012556680620e+00	 1.327665090601096e+01
 1.358889496403499e+00	 1.031239030797598e+00	 1.318456400745102e+01
 1.348818336809817e+00	 1.044377181080534e+00	 1.309553583649231e+01
 1.338613846230449e+00	 1.057424972636947e+00	 1.300826509086616e+01
 1.328277237676010e+00	 1.070380391238514e+00	 1.292166552608391e+01
 1.317809764475741e+00	 1.083241444336634e+00	 1.283488933614291e+01
 1.307212719793291e+00	 1.096006162066051e+00	 1.274735064894899e+01
 1.296487436112634e+00	 1.108672598235481e+00	 1.265874902246072e+01
 1.285635284694570e+00	 1.121238831304213e+00	 1.256909282279342e+01
 1.274657675004201e+00	 1.133702965343661e+00	 1.247872236129660e+01
 1.263556054109927e+00	 1.146063130982877e+00	 1.238833266399032e+01
 1.373546242955481e+00	 1.021522944807105e+00	 1.327951000303973e+01
 1.363575322253166e+00	 1.034795027455521e+00	 1.318953863665866e+01
 1.353469434522955e+00	 1.047978481704950e+00	 1.310260375742362e+01
 1.343229756045037e+00	 1.061071265646041e+00	 1.301727736251579e+01
 1.332857504012823e+00	 1.074071358104854e+00	 1.293234237293148e+01
 1.322353936077382e+00	 1.086976759661932e+00	 1.284681658395800e+01
 1.311720349861543e+00	 1.099785493659382e+00	 1.275997675439879e+01
 1.300958082444057e+00	 1.112495607194914e+00	 1.267138271841218e+01
 1.290068509814207e+00	 1.125105172101814e+00	 1.258090139889666e+01
 1.279053046297319e+00	 1.137612285913811e+00	 1.248873059697879e+01
 1.267913143951686e+00	 1.150015072813852e+00	 1.239542242838180e+01
 1.378266333137459e+00	 1.025033332933590e+00	 1.328255596897014e+01
 1.368261148102834e+00	 1.038351024113444e+00	 1.319479608633601e+01
 1.358120532236092e+00	 1.051579782329365e+00	 1.310997991375752e+01
 1.347845665859625e+00	 1.064717558655134e+00	 1.302655427377004e+01
 1.337437770349637e+00	 1.077762324971193e+00	 1.294317289907431e+01
 1.326898107679022e+00	 1.090712074987231e+00	 1.285872095673565e+01
 1.316227979929796e+00	 1.103564825252713e+00	 1.277233973543982e+01
 1.305428728775480e+00	 1.116318616154347e+00	 1.268345137750794e+01
 1.294501734933843e+00	 1.128971512899415e+00	 1.259178353227282e+01
 1.283448417590438e+00	 1.141521606483962e+00	 1.249739380288599e+01
 1.272270233793444e+00	 1.153967014644828e+00	 1.240069385470284e+01
 1.382986423319437e+00	 1.028543721060075e+00	 1.328588157620675e+01
 1.372946973952501e+00	 1.041907020771367e+00	 1.320042610990164e+01
 1.362771629949230e+00	 1.055181082953781e+00	 1.311775264864044e+01
 1.352461575674212e+00	 1.068363851664226e+00	 1.303618432669840e+01
 1.342018036686451e+00	 1.081453291837533e+00	 1.295424729233948e+01
 1.331442279280663e+00	 1.094447390312530e+00	 1.287069580977287e+01
 1.320735609998049e+00	 1.107344156846044e+00	 1.278453754875627e+01
 1.309899375106903e+00	 1.120141625113779e+00	 1.269505894136778e+01
 1.298934960053479e+00	 1.132837853697016e+00	 1.260185048019176e+01
 1.287843788883555e+00	 1.145430927054112e+00	 1.250483182747646e+01
 1.276627323635202e+00	 1.157918956475803e+00	 1.240427660074379e+01
 1.387706513501414e+00	 1.032054109186560e+00	 1.328958086900417e+01
 1.377632799802168e+00	 1.045463017429289e+00	 1.320651983501245e+01
 1.367422727662366e+00	 1.058782383578196e+00	 1.312601176733762e+01
 1.357077485488800e+00	 1.072010144673319e+00	 1.304625755917698e+01
 1.346598303023265e+00	 1.085144258703873e+00	 1.296565733616301e+01
 1.335986450882303e+00	 1.098182705637828e+00	 1.288283614018571e+01
 1.325243240066301e+00	 1.111123488439375e+00	 1.279666982575228e+01
 1.314370021438326e+00	 1.123964634073212e+00	 1.270631104619479e+01
 1.303368185173115e+00	 1.136704194494616e+00	 1.261121520159594e+01
 1.292239160176673e+00	 1.149340247624263e+00	 1.251116621544496e+01
 1.280984413476961e+00	 1.161870898306779e+00	 1.240630200281350e+01
 1.392426603683391e+00	 1.035564497313045e+00	 1.329374906871784e+01
 1.382318625651835e+00	 1.049019014087212e+00	 1.321316966710368e+01
 1.372073825375504e+00	 1.062383684202612e+00	 1.313484843950167e+01
 1.361693395303388e+00	 1.075656437682412e+00	 1.305686544632141e+01
 1.351178569360078e+00	 1.088835225570213e+00	 1.297749631061236e+01
 1.340530622483944e+00	 1.101918020963127e+00	 1.289523848794272e+01
 1.329750870134554e+00	 1.114902820032706e+00	 1.280883777400969e+01
 1.318840667769749e+00	 1.127787643032645e+00	 1.271731492506456e+01
 1.307801410292752e+00	 1.140570535292217e+00	 1.261999226061670e+01
 1.296634531469790e+00	 1.153249568194413e+00	 1.251652011285790e+01
 1.285341503318720e+00	 1.165822840137754e+00	 1.240690298287301e+01
 1.397146693865370e+00	 1.039074885439530e+00	 1.329848247922619e+01
 1.387004451501503e+00	 1.052575010745135e+00	 1.322046919312934e+01
 1.376724923088642e+00	 1.065984984827028e+00	 1.314435510166296e+01
 1.366309305117975e+00	 1.079302730691505e+00	 1.306810080215176e+01
 1.355758835696893e+00	 1.092526192436552e+00	 1.298985889364880e+01
 1.345074794085584e+00	 1.105653336288426e+00	 1.290800083713735e+01
 1.334258500202807e+00	 1.118682151626038e+00	 1.282114407897804e+01
 1.323311314101172e+00	 1.131610651992078e+00	 1.272817931043159e+01
 1.312234635412388e+00	 1.144436876089818e+00	 1.262829773029013e+01
 1.301029902762909e+00	 1.157158888764564e+00	 1.252101817246055e+01
 1.289698593160477e+00	 1.169774781968729e+00	 1.240621395580893e+01
 1.401866784047347e+00	 1.042585273566014e+00	 1.330387839252160e+01
 1.391690277351170e+00	 1.056131007403057e+00	 1.322851308549717e+01
 1.381376020801779e+00	 1.069586285451444e+00	 1.315462535993380e+01
 1.370925214932563e+00	 1.082949023700598e+00	 1.308005768148714e+01
 1.360339102033706e+00	 1.096217159302892e+00	 1.300284106262420e+01
 1.349618965687225e+00	 1.109388651613725e+00	 1.292122251749495e+01
 1.338766130271059e+00	 1.122461483219369e+00	 1.283369280589185e+01
 1.327781960432594e+00	 1.135433660951510e+00	 1.273901433684979e+01
 1.316667860532025e+00	 1.148303216887418e+00	 1.263624909646553e+01
 1.305425274056027e+00	 1.161068209334714e+00	 1.252478645915138e+01
 1.294055683002236e+00	 1.173726723799705e+00	 1.240437073684248e+01
 1.406586874229325e+00	 1.046095661692499e+00	 1.331003499446412e+01
 1.396376103200837e+00	 1.059687004060980e+00	 1.323739700619350e+01
 1.386027118514916e+00	 1.073187586075859e+00	 1.316575389292322e+01
 1.375541124747151e+00	 1.086595316709690e+00	 1.309283128206175e+01
 1.364919368370520e+00	 1.099908126169231e+00	 1.301653999600595e+01
 1.354163137288865e+00	 1.113123966939023e+00	 1.293500410610761e+01
 1.343273760339312e+00	 1.126240814812700e+00	 1.284658930190865e+01
 1.332252606764017e+00	 1.139256669910943e+00	 1.274993144390055e+01
 1.321101085651661e+00	 1.152169557685019e+00	 1.264396516190360e+01
 1.309820645349145e+00	 1.164977529904865e+00	 1.252795235562091e+01
 1.298412772843994e+00	 1.177678665630681e+00	 1.240168270185996e+01
 1.411306964411302e+00	 1.049606049818984e+00	 1.331705127069585e+01
 1.401061929050504e+00	 1.063243000718903e+00	 1.324721751109483e+01
 1.390678216228053e+00	 1.076788886700274e+00	 1.317783635485612e+01
 1.380157034561738e+00	 1.090241609718783e+00	 1.310651784685877e+01
 1.369499634707334e+00	 1.103599093035571e+00	 1.303105397532628e+01
 1.358707308890506e+00	 1.116859282264322e+00	 1.294944732939164e+01
 1.347781390407564e+00	 1.130020146406032e+00	 1.285994009846330e+01
 1.336723253095440e+00	 1.143079678870376e+00	 1.276104327932557e+01
 1.325534310771298e+00	 1.156035898482620e+00	 1.265156595055884e+01
 1.314216016642263e+00	 1.168886850475016e+00	 1.253064446815051e+01
 1.302769862685753e+00	 1.181630607461656e+00	 1.240091139594449e+01
 1.416027054593280e+00	 1.053116437945469e+00	 1.332502691271196e+01
 1.405747754900171e+00	 1.066798997376825e+00	 1.325807195446049e+01
 1.395329313941191e+00	 1.080390187324691e+00	 1.319096927889341e+01
 1.384772944376326e+00	 1.093887902727876e+00	 1.312121456665687e+01
 1.374079901044148e+00	 1.107290059901911e+00	 1.304648228734854e+01
 1.363251480492146e+00	 1.120594597589621e+00	 1.296465496526345e+01
 1.352289020475817e+00	 1.133799477999363e+00	 1.287385281383439e+01
 1.341193899426863e+00	 1.146902687829808e+00	 1.277246360235659e+01
 1.329967535890934e+00	 1.159902239280220e+00	 1.265917261204302e+01
 1.318611387935380e+00	 1.172796171045166e+00	 1.253299253256727e+01
 1.307126952527511e+00	 1.185582549292632e+00	 1.240307384241726e+01
 1.263556054109927e+00	 1.146063130982877e+00	 1.238833266399032e+01
 1.252331906054450e+00	 1.158317486337037e+00	 1.227893900455001e+01
 1.240986751198371e+00	 1.170464217917933e+00	 1.213291212217062e+01
 1.229522145536980e+00	 1.182501541525534e+00	 1.195780474121979e+01
 1.217939679990891e+00	 1.194427703119704e+00	 1.178163341517265e+01
 1.206240979671170e+00	 1.206240979671169e+00	 1.161062931795814e+01
 1.194427703119704e+00	 1.217939679990891e+00	 1.144682572892204e+01
 1.182501541525534e+00	 1.229522145536980e+00	 1.129224632565886e+01
 1.170464217917933e+00	 1.240986751198370e+00	 1.114894927607719e+01
 1.158317486337038e+00	 1.252331906054450e+00	 1.101917179603208e+01
 1.146063130982877e+00	 1.263556054109928e+00	 1.090460115252827e+01
 1.267913143951686e+00	 1.150015072813852e+00	 1.239542242838180e+01
 1.256650291937397e+00	 1.162311684565786e+00	 1.228201907423085e+01
 1.245266015857675e+00	 1.174500301427995e+00	 1.213101037755193e+01
 1.233761877073315e+00	 1.186579133048036e+00	 1.195758782037848e+01
 1.222139471990860e+00	 1.198546419337358e+00	 1.178594296285618e+01
 1.210400431325208e+00	 1.210400431325207e+00	 1.161856186203350e+01
 1.198546419337358e+00	 1.222139471990859e+00	 1.145747752119659e+01
 1.186579133048036e+00	 1.233761877073315e+00	 1.130471417484314e+01
 1.174500301427996e+00	 1.245266015857675e+00	 1.116228503262544e+01
 1.162311684565786e+00	 1.256650291937396e+00	 1.103244604291774e+01
 1.150015072813852e+00	 1.267913143951686e+00	 1.091704976245929e+01
 1.272270233793444e+00	 1.153967014644828e+00	 1.240069385470284e+01
 1.260968677820343e+00	 1.166305882794534e+00	 1.228278364842322e+01
 1.249545280516980e+00	 1.178536384938057e+00	 1.212680106725788e+01
 1.238001608609650e+00	 1.190656724570538e+00	 1.195799914947752e+01
 1.226339263990828e+00	 1.202665135555012e+00	 1.179055099076275e+01
 1.214559882979247e+00	 1.214559882979247e+00	 1.162648951546020e+01
 1.202665135555012e+00	 1.226339263990828e+00	 1.146784864537359e+01
 1.190656724570538e+00	 1.238001608609649e+00	 1.131665434589050e+01
 1.178536384938057e+00	 1.249545280516980e+00	 1.117491569475947e+01
 1.166305882794535e+00	 1.260968677820343e+00	 1.104479136424336e+01
 1.153967014644828e+00	 1.272270233793444e+00	 1.092837340962254e+01
 1.276627323635202e+00	 1.157918956475803e+00	 1.240427660074379e+01
 1.265287063703289e+00	 1.170300081023282e+00	 1.228137268891524e+01
 1.253824545176285e+00	 1.182572468448118e+00	 1.212330489876219e+01
 1.242241340145984e+00	 1.194734316093040e+00	 1.195923087822022e+01
 1.230539055990797e+00	 1.206783851772666e+00	 1.179565885981358e+01
 1.218719334633285e+00	 1.218719334633285e+00	 1.163462290136506e+01
 1.206783851772666e+00	 1.230539055990796e+00	 1.147815902701445e+01
 1.194734316093040e+00	 1.242241340145984e+00	 1.132829609661028e+01
 1.182572468448119e+00	 1.253824545176284e+00	 1.118704669452423e+01
 1.170300081023283e+00	 1.265287063703289e+00	 1.105647198611629e+01
 1.157918956475803e+00	 1.276627323635202e+00	 1.093883929175221e+01
 1.280984413476961e+00	 1.161870898306779e+00	 1.240630200281350e+01
 1.269605449586236e+00	 1.174294279252031e+00	 1.227792781527859e+01
 1.258103809835589e+00	 1.186608551958180e+00	 1.212115230145990e+01
 1.246481071682319e+00	 1.198811907615541e+00	 1.196146942650382e+01
 1.234738847990765e+00	 1.210902567990320e+00	 1.180146211030349e+01
 1.222878786287324e+00	 1.222878786287323e+00	 1.164316673197914e+01
 1.210902567990320e+00	 1.234738847990765e+00	 1.148862259137822e+01
 1.198811907615542e+00	 1.246481071682318e+00	 1.133986259628767e+01
 1.186608551958181e+00	 1.258103809835589e+00	 1.119890396574203e+01
 1.174294279252031e+00	 1.269605449586235e+00	 1.106774943797385e+01
 1.161870898306779e+00	 1.280984413476961e+00	 1.094871185833828e+01
 1.285341503318720e+00	 1.165822840137754e+00	 1.240690298287301e+01
 1.273923835469182e+00	 1.178288477480779e+00	 1.227298249907217e+01
 1.262383074494894e+00	 1.190644635468242e+00	 1.212051505908934e+01
 1.250720803218653e+00	 1.202889499138043e+00	 1.196489554621540e+01
 1.238938639990734e+00	 1.215021284207975e+00	 1.180815052483252e+01
 1.227038237941362e+00	 1.227038237941362e+00	 1.165231987262365e+01
 1.215021284207974e+00	 1.238938639990734e+00	 1.149944732837901e+01
 1.202889499138044e+00	 1.250720803218653e+00	 1.135157099152791e+01
 1.190644635468243e+00	 1.262383074494894e+00	 1.121071383433896e+01
 1.178288477480779e+00	 1.273923835469182e+00	 1.107887428867988e+01
 1.165822840137754e+00	 1.285341503318719e+00	 1.095825274451213e+01
 1.289698593160477e+00	 1.169774781968729e+00	 1.240621395580893e+01
 1.278242221352129e+00	 1.182282675709528e+00	 1.226950324085150e+01
 1.266662339154199e+00	 1.194680718978304e+00	 1.212155943788029e+01
 1.254960534754987e+00	 1.206967090660546e+00	 1.196968438306065e+01
 1.243138431990702e+00	 1.219140000425629e+00	 1.181590819123729e+01
 1.231197689595400e+00	 1.231197689595401e+00	 1.166227540566256e+01
 1.219140000425629e+00	 1.243138431990702e+00	 1.151083535747622e+01
 1.206967090660546e+00	 1.254960534754987e+00	 1.136363247200138e+01
 1.194680718978304e+00	 1.266662339154199e+00	 1.122269658417099e+01
 1.182282675709528e+00	 1.278242221352128e+00	 1.109003332639982e+01
 1.169774781968729e+00	 1.289698593160477e+00	 1.096772070474177e+01
 1.294055683002236e+00	 1.173726723799705e+00	 1.240437073684248e+01
 1.282560607235075e+00	 1.186276873938276e+00	 1.226820086201792e+01
 1.270941603813504e+00	 1.198716802488366e+00	 1.212444624726880e+01
 1.259200266291322e+00	 1.211044682183047e+00	 1.197600553842724e+01
 1.247338223990671e+00	 1.223258716643283e+00	 1.182491356552326e+01
 1.235357141249440e+00	 1.235357141249439e+00	 1.167322069442233e+01
 1.223258716643283e+00	 1.247338223990671e+00	 1.152298299250160e+01
 1.211044682183047e+00	 1.259200266291321e+00	 1.137625233609273e+01
 1.198716802488366e+00	 1.270941603813503e+00	 1.123506652341147e+01
 1.186276873938277e+00	 1.282560607235075e+00	 1.110143945773577e+01
 1.173726723799705e+00	 1.294055683002236e+00	 1.097737154634164e+01
 1.298412772843994e+00	 1.177678665630681e+00	 1.240168270185996e+01
 1.286878993118022e+00	 1.190271072167024e+00	 1.226922214322672e+01
 1.275220868472808e+00	 1.202752885998428e+00	 1.212933090067732e+01
 1.263439997827656e+00	 1.215122273705549e+00	 1.198402313128033e+01
 1.251538015990640e+00	 1.227377432860937e+00	 1.183533953479683e+01
 1.239516592903477e+00	 1.239516592903477e+00	 1.168533744708138e+01
 1.227377432860937e+00	 1.251538015990639e+00	 1.153608080642218e+01
 1.215122273705549e+00	 1.263439997827655e+00	 1.138963005645640e+01
 1.202752885998428e+00	 1.275220868472808e+00	 1.124803205081470e+01
 1.190271072167025e+00	 1.286878993118021e+00	 1.111331002573630e+01
 1.177678665630681e+00	 1.298412772843994e+00	 1.098745370752716e+01
 1.302769862685753e+00	 1.181630607461656e+00	 1.240091139594449e+01
 1.291197379000968e+00	 1.194265270395773e+00	 1.227270861486423e+01
 1.279500133132113e+00	 1.206788969508490e+00	 1.213636347635992e+01
 1.267679729363991e+00	 1.219199865228050e+00	 1.199389586009070e+01
 1.255737807990608e+00	 1.231496149078591e+00	 1.184735348019772e+01
 1.243676044557516e+00	 1.243676044557516e+00	 1.169880178052662e+01
 1.231496149078591e+00	 1.255737807990608e+00	 1.155031369604191e+01
 1.219199865228051e+00	 1.267679729363990e+00	 1.140395934548043e+01
 1.206788969508490e+00	 1.279500133132113e+00	 1.126179572185989e+01
 1.194265270395773e+00	 1.291197379000967e+00	 1.112585644859357e+01
 1.181630607461656e+00	 1.302769862685753e+00	 1.099814166962823e+01
 1.307126952527511e+00	 1.185582549292632e+00	 1.240307384241726e+01
 1.295515764883914e+00	 1.198259468624521e+00	 1.227879661682628e+01
 1.283779397791418e+00	 1.210825053018551e+00	 1.214568877830970e+01
 1.271919460900325e+00	 1.223277456750553e+00	 1.200577706479380e+01
 1.259937599990577e+00	 1.235614865296245e+00	 1.186111733983255e+01
 1.247835496211555e+00	 1.247835496211555e+00	 1.171378428418198e+01
 1.235614865296245e+00	 1.259937599990576e+00	 1.156586094664394e+01
 1.223277456750553e+00	 1.271919460900324e+00	 1.141942822066116e+01
 1.210825053018552e+00	 1.283779397791417e+00	 1.127655431477500e+01
 1.198259468624522e+00	 1.295515764883914e+00	 1.113928428623514e+01
 1.185582549292631e+00	 1.307126952527511e+00	 1.100962970775588e+01
 1.146063130982877e+00	 1.263556054109928e+00	 1.090460115252827e+01
 1.133702965343661e+00	 1.274657675004201e+00	 1.079077949597480e+01
 1.121238831304213e+00	 1.285635284694569e+00	 1.066414910188488e+01
 1.108672598235482e+00	 1.296487436112634e+00	 1.052724939615195e+01
 1.096006162066051e+00	 1.307212719793290e+00	 1.038236939663538e+01
 1.083241444336634e+00	 1.317809764475741e+00	 1.023155825777133e+01
 1.070380391238514e+00	 1.328277237676009e+00	 1.007663692461114e+01
 1.057424972636948e+00	 1.338613846230449e+00	 9.919210788739226e+00
 1.044377181080534e+00	 1.348818336809817e+00	 9.760683234601791e+00
 1.031239030797599e+00	 1.358889496403499e+00	 9.602269961616173e+00
 1.018012556680620e+00	 1.368826152773504e+00	 9.445013965053571e+00
 1.150015072813852e+00	 1.267913143951686e+00	 1.091704976245929e+01
 1.137612285913811e+00	 1.279053046297319e+00	 1.080190124787270e+01
 1.125105172101814e+00	 1.290068509814206e+00	 1.067374709723220e+01
 1.112495607194915e+00	 1.300958082444057e+00	 1.053522792790382e+01
 1.099785493659382e+00	 1.311720349861543e+00	 1.038873144367855e+01
 1.086976759661933e+00	 1.322353936077382e+00	 1.023640318129524e+01
 1.074071358104854e+00	 1.332857504012823e+00	 1.008015838489845e+01
 1.061071265646041e+00	 1.343229756045037e+00	 9.921694898520899e+00
 1.047978481704950e+00	 1.353469434522955e+00	 9.762506962683579e+00
 1.034795027455521e+00	 1.363575322253166e+00	 9.603899798002312e+00
 1.021522944807105e+00	 1.373546242955482e+00	 9.447004856268908e+00
 1.153967014644828e+00	 1.272270233793444e+00	 1.092837340962254e+01
 1.141521606483962e+00	 1.283448417590437e+00	 1.081174874565538e+01
 1.128971512899415e+00	 1.294501734933842e+00	 1.068197394747308e+01
 1.116318616154347e+00	 1.305428728775479e+00	 1.054178450184356e+01
 1.103564825252713e+00	 1.316227979929795e+00	 1.039366019572969e+01
 1.090712074987231e+00	 1.326898107679022e+00	 1.023983608179799e+01
 1.077762324971194e+00	 1.337437770349637e+00	 1.008231459094713e+01
 1.064717558655134e+00	 1.347845665859624e+00	 9.922878679510616e+00
 1.051579782329366e+00	 1.358120532236092e+00	 9.763105894727625e+00
 1.038351024113444e+00	 1.368261148102833e+00	 9.604383238812538e+00
 1.025033332933590e+00	 1.378266333137460e+00	 9.447922709509379e+00
 1.157918956475803e+00	 1.276627323635202e+00	 1.093883929175221e+01
 1.145430927054113e+00	 1.287843788883554e+00	 1.082059144688348e+01
 1.132837853697016e+00	 1.298934960053479e+00	 1.068909986032288e+01
 1.120141625113780e+00	 1.309899375106903e+00	 1.054718861722451e+01
 1.107344156846045e+00	 1.320735609998048e+00	 1.039742303560705e+01
 1.094447390312530e+00	 1.331442279280662e+00	 1.024212086801012e+01
 1.081453291837533e+00	 1.342018036686451e+00	 1.008336466982888e+01
 1.068363851664227e+00	 1.352461575674212e+00	 9.923015219486768e+00
 1.055181082953781e+00	 1.362771629949229e+00	 9.762725871464978e+00
 1.041907020771367e+00	 1.372946973952500e+00	 9.603957719903022e+00
 1.028543721060075e+00	 1.382986423319437e+00	 9.447995447989463e+00
 1.161870898306779e+00	 1.280984413476961e+00	 1.094871185833828e+01
 1.149340247624263e+00	 1.292239160176672e+00	 1.082869603027676e+01
 1.136704194494617e+00	 1.303368185173116e+00	 1.069539226539582e+01
 1.123964634073213e+00	 1.314370021438326e+00	 1.055170702603774e+01
 1.111123488439376e+00	 1.325243240066301e+00	 1.040028465853693e+01
 1.098182705637829e+00	 1.335986450882303e+00	 1.024351884826866e+01
 1.085144258703873e+00	 1.346598303023265e+00	 1.008356526162020e+01
 1.072010144673320e+00	 1.357077485488800e+00	 9.922355257471102e+00
 1.058782383578197e+00	 1.367422727662367e+00	 9.761610546571374e+00
 1.045463017429290e+00	 1.377632799802168e+00	 9.602858673831808e+00
 1.032054109186560e+00	 1.387706513501414e+00	 9.447449196019157e+00
 1.165822840137754e+00	 1.285341503318719e+00	 1.095825274451213e+01
 1.153249568194413e+00	 1.296634531469790e+00	 1.083632633196089e+01
 1.140570535292217e+00	 1.307801410292751e+00	 1.070111575245131e+01
 1.127787643032645e+00	 1.318840667769748e+00	 1.055560367291104e+01
 1.114902820032707e+00	 1.329750870134554e+00	 1.040250701336796e+01
 1.101918020963127e+00	 1.340530622483944e+00	 1.024428867272787e+01
 1.088835225570213e+00	 1.351178569360079e+00	 1.008317046229841e+01
 1.075656437682412e+00	 1.361693395303387e+00	 9.921147127017758e+00
 1.062383684202612e+00	 1.372073825375503e+00	 9.760001330063130e+00
 1.049019014087212e+00	 1.382318625651835e+00	 9.601319473094664e+00
 1.035564497313044e+00	 1.392426603683392e+00	 9.446508221823386e+00
 1.169774781968729e+00	 1.289698593160477e+00	 1.096772070474177e+01
 1.157158888764565e+00	 1.301029902762909e+00	 1.084374328149731e+01
 1.144436876089818e+00	 1.312234635412388e+00	 1.070653200940663e+01
 1.131610651992078e+00	 1.323311314101171e+00	 1.055913963476482e+01
 1.118682151626038e+00	 1.334258500202806e+00	 1.040434924354585e+01
 1.105653336288426e+00	 1.345074794085584e+00	 1.024468627533429e+01
 1.092526192436553e+00	 1.355758835696892e+00	 1.008243176641783e+01
 1.079302730691505e+00	 1.366309305117975e+00	 9.919636699298334e+00
 1.065984984827028e+00	 1.376724923088641e+00	 9.758137331517842e+00
 1.052575010745135e+00	 1.387004451501502e+00	 9.599571373219495e+00
 1.039074885439529e+00	 1.397146693865369e+00	 9.445394880260395e+00
 1.173726723799705e+00	 1.294055683002236e+00	 1.097737154634164e+01
 1.161068209334715e+00	 1.305425274056027e+00	 1.085120483770296e+01
 1.148303216887419e+00	 1.316667860532024e+00	 1.071189976012427e+01
 1.135433660951511e+00	 1.327781960432594e+00	 1.056257306023509e+01
 1.122461483219369e+00	 1.338766130271059e+00	 1.040606762785012e+01
 1.109388651613725e+00	 1.349618965687224e+00	 1.024496481557202e+01
 1.096217159302892e+00	 1.360339102033706e+00	 1.008159800956701e+01
 1.082949023700598e+00	 1.370925214932563e+00	 9.918067325991801e+00
 1.069586285451444e+00	 1.381376020801779e+00	 9.756255303126693e+00
 1.056131007403058e+00	 1.391690277351170e+00	 9.597843455722955e+00
 1.042585273566014e+00	 1.401866784047347e+00	 9.444329555440643e+00
 1.177678665630681e+00	 1.298412772843994e+00	 1.098745370752716e+01
 1.164977529904865e+00	 1.309820645349145e+00	 1.085896592426478e+01
 1.152169557685019e+00	 1.321101085651661e+00	 1.071747470197643e+01
 1.139256669910943e+00	 1.332252606764017e+00	 1.056615910886452e+01
 1.126240814812701e+00	 1.343273760339312e+00	 1.040791552089993e+01
 1.113123966939024e+00	 1.354163137288864e+00	 1.024537461998420e+01
 1.099908126169232e+00	 1.364919368370519e+00	 1.008091531061785e+01
 1.086595316709691e+00	 1.375541124747151e+00	 9.916679781983861e+00
 1.073187586075860e+00	 1.386027118514916e+00	 9.754589582580374e+00
 1.059687004060980e+00	 1.396376103200836e+00	 9.596362570934438e+00
 1.046095661692499e+00	 1.406586874229325e+00	 9.443530603249421e+00
 1.181630607461656e+00	 1.302769862685753e+00	 1.099814166962823e+01
 1.168886850475016e+00	 1.314216016642263e+00	 1.086727836515271e+01
 1.156035898482620e+00	 1.325534310771297e+00	 1.072350944319364e+01
 1.143079678870376e+00	 1.336723253095439e+00	 1.057014989006973e+01
 1.130020146406032e+00	 1.347781390407564e+00	 1.041014329343612e+01
 1.116859282264322e+00	 1.358707308890505e+00	 1.024616312347440e+01
 1.103599093035572e+00	 1.369499634707333e+00	 1.008062701376621e+01
 1.090241609718784e+00	 1.380157034561738e+00	 9.915712207877458e+00
 1.076788886700275e+00	 1.390678216228053e+00	 9.753372035793797e+00
 1.063243000718903e+00	 1.401061929050504e+00	 9.595353280687252e+00
 1.049606049818984e+00	 1.411306964411302e+00	 9.443214293774684e+00
 1.185582549292631e+00	 1.307126952527511e+00	 1.100962970775588e+01
 1.172796171045166e+00	 1.318611387935380e+00	 1.087639081983657e+01
 1.159902239280221e+00	 1.329967535890934e+00	 1.073025344000182e+01
 1.146902687829809e+00	 1.341193899426863e+00	 1.057479440188957e+01
 1.133799477999363e+00	 1.352289020475817e+00	 1.041299827238242e+01
 1.120594597589621e+00	 1.363251480492146e+00	 1.024757481039549e+01
 1.107290059901912e+00	 1.374079901044148e+00	 1.008097363037229e+01
 1.093887902727877e+00	 1.384772944376326e+00	 9.915400052322397e+00
 1.080390187324690e+00	 1.395329313941190e+00	 9.752831999471905e+00
 1.066798997376826e+00	 1.405747754900171e+00	 9.595037800884718e+00
 1.053116437945469e+00	 1.416027054593280e+00	 9.443594753642898e+00
 1.018012556680620e+00	 1.368826152773504e+00	 9.445013965053571e+00
 1.004699813259772e+00	 1.378627174877930e+00	 9.294550238957862e+00
 9.913028736666265e-01	 1.388291473263599e+00	 9.154948814914990e+00
 9.778238285891157e-01	 1.397818000427612e+00	 9.024657583642242e+00
 9.642647852188052e-01	 1.407205751147662e+00	 8.901970149007930e+00
 9.506278661915794e-01	 1.416453762780900e+00	 8.785045379407642e+00
 9.369152085228121e-01	 1.425561115531278e+00	 8.671926948407741e+00
 9.231289625381113e-01	 1.434526932685279e+00	 8.560562747218073e+00
 9.092712908007166e-01	 1.443350380816011e+00	 8.448824055096274e+00
 8.953443670366279e-01	 1.452030669955668e+00	 8.334524357962570e+00
 8.813503750585376e-01	 1.460567053736424e+00	 8.215437710300161e+00
 1.021522944807105e+00	 1.373546242955482e+00	 9.447004856268908e+00
 1.008164295374461e+00	 1.383381061687855e+00	 9.297273830128209e+00
 9.947211594378905e-01	 1.393078685240369e+00	 9.158519145786890e+00
 9.811956348945953e-01	 1.402638062498052e+00	 9.029163092718480e+00
 9.675898362023182e-01	 1.412058184772309e+00	 8.907471420292268e+00
 9.539058933163778e-01	 1.421338086100834e+00	 8.791573352010253e+00
 9.401459506211667e-01	 1.430476843515868e+00	 8.679481584664853e+00
 9.263121658572081e-01	 1.439473577280746e+00	 8.569112152330344e+00
 9.124067090448571e-01	 1.448327451094687e+00	 8.458304038736532e+00
 8.984317614057193e-01	 1.457037672265859e+00	 8.344838425852759e+00
 8.843895142828775e-01	 1.465603491852757e+00	 8.226457471413447e+00
 1.025033332933590e+00	 1.378266333137460e+00	 9.447922709509379e+00
 1.011628777489149e+00	 1.388134948497779e+00	 9.298973913015777e+00
 9.981394452091548e-01	 1.397865897217140e+00	 9.161081865427418e+00
 9.845674412000753e-01	 1.407458124568493e+00	 9.032648797779665e+00
 9.709148871858312e-01	 1.416910618396956e+00	 8.911918280058822e+00
 9.571839204411762e-01	 1.426222409420768e+00	 8.796995697746494e+00
 9.433766927195210e-01	 1.435392571500459e+00	 8.685868708666295e+00
 9.294953691763050e-01	 1.444420221876212e+00	 8.576427557379208e+00
 9.155421272889972e-01	 1.453304521373363e+00	 8.466485128083271e+00
 9.015191557748115e-01	 1.462044674576052e+00	 8.353796621372457e+00
 8.874286535072173e-01	 1.470639929969090e+00	 8.236078745216728e+00
 1.028543721060075e+00	 1.382986423319437e+00	 9.447995447989463e+00
 1.015093259603838e+00	 1.392888835307703e+00	 9.299869233669902e+00
 1.001557730980419e+00	 1.402653109193912e+00	 9.162848227693139e+00
 9.879392475055550e-01	 1.412278186638933e+00	 9.035320054161453e+00
 9.742399381693445e-01	 1.421763052021603e+00	 8.915511686454877e+00
 9.604619475659750e-01	 1.431106732740702e+00	 8.801510385736945e+00
 9.466074348178753e-01	 1.440308299485049e+00	 8.691284614883145e+00
 9.326785724954020e-01	 1.449366866471679e+00	 8.582704802368786e+00
 9.186775455331374e-01	 1.458281591652038e+00	 8.473563834460441e+00
 9.046065501439032e-01	 1.467051676886244e+00	 8.361597158553215e+00
 8.904677927315571e-01	 1.475676368085422e+00	 8.244502385632851e+00
 1.032054109186560e+00	 1.387706513501414e+00	 9.447449196019157e+00
 1.018557741718527e+00	 1.397642722117626e+00	 9.300176943872353e+00
 1.004976016751683e+00	 1.407440321170683e+00	 9.164028077928739e+00
 9.913110538110346e-01	 1.417098248709372e+00	 9.037380976035147e+00
 9.775649891528577e-01	 1.426615485646250e+00	 8.918451505883825e+00
 9.637399746907738e-01	 1.435991056060637e+00	 8.805314425351767e+00
 9.498381769162298e-01	 1.445224027469640e+00	 8.695924753112356e+00
 9.358617758144986e-01	 1.454313511067145e+00	 8.588138981315506e+00
 9.218129637772783e-01	 1.463258661930715e+00	 8.479736006040097e+00
 9.076939445129951e-01	 1.472058679196436e+00	 8.368437655819212e+00
 8.935069319558967e-01	 1.480712806201754e+00	 8.251928703804564e+00
 1.035564497313044e+00	 1.392426603683392e+00	 9.446508221823386e+00
 1.022022223833216e+00	 1.402396608927550e+00	 9.300112543621204e+00
 1.008394302522948e+00	 1.412227533147454e+00	 9.164829795510663e+00
 9.946828601165142e-01	 1.421918310779813e+00	 9.039034379384663e+00
 9.808900401363708e-01	 1.431467919270898e+00	 8.920936456774616e+00
 9.670180018155721e-01	 1.440875379380571e+00	 8.808603811109087e+00
 9.530689190145846e-01	 1.450139755454231e+00	 8.699983674821983e+00
 9.390449791335960e-01	 1.459260155662612e+00	 8.592924390337677e+00
 9.249483820214183e-01	 1.468235732209390e+00	 8.485196777957693e+00
 9.107813388820867e-01	 1.477065681506627e+00	 8.374515088386676e+00
 8.965460711802363e-01	 1.485749244318087e+00	 8.258557423018900e+00
 1.039074885439529e+00	 1.397146693865369e+00	 9.445394880260395e+00
 1.025486705947905e+00	 1.407150495737475e+00	 9.299889823552718e+00
 1.011812588294212e+00	 1.417014745124225e+00	 9.165460236357873e+00
 9.980546664219939e-01	 1.426738372850253e+00	 9.040481724974837e+00
 9.842150911198839e-01	 1.436320352895545e+00	 8.923164053357125e+00
 9.702960289403704e-01	 1.445759702700504e+00	 8.811573467587790e+00
 9.562996611129388e-01	 1.455055483438821e+00	 8.703654979515370e+00
 9.422281824526926e-01	 1.464206800258078e+00	 8.597254475763270e+00
 9.280838002655586e-01	 1.473212802488066e+00	 8.490140522436924e+00
 9.138687332511787e-01	 1.482072683816820e+00	 8.380025740661846e+00
 8.995852104045764e-01	 1.490785682434420e+00	 8.264587633612937e+00
 1.042585273566014e+00	 1.401866784047347e+00	 9.444329555440643e+00
 1.028951188062593e+00	 1.411904382547398e+00	 9.299720807301227e+00
 1.015230874065476e+00	 1.421801957100996e+00	 9.166124675410176e+00
 1.001426472727474e+00	 1.431558434920692e+00	 9.041923061311470e+00
 9.875401421033968e-01	 1.441172786520192e+00	 8.925330549444725e+00
 9.735740560651690e-01	 1.450644026020439e+00	 8.814417194358715e+00
 9.595304032112933e-01	 1.459971211423411e+00	 8.707131261115013e+00
 9.454113857717895e-01	 1.469153444853545e+00	 8.601321782256800e+00
 9.312192185096994e-01	 1.478189872766742e+00	 8.494760798926118e+00
 9.169561276202705e-01	 1.487079686127011e+00	 8.385165158636820e+00
 9.026243496289161e-01	 1.495822120550752e+00	 8.270217747860089e+00
 1.046095661692499e+00	 1.406586874229325e+00	 9.443530603249421e+00
 1.032415670177282e+00	 1.416658269357322e+00	 9.299815693797196e+00
 1.018649159836740e+00	 1.426589169077767e+00	 9.167026749076518e+00
 1.004798279032953e+00	 1.436378496991132e+00	 9.043556967590273e+00
 9.908651930869102e-01	 1.446025220144840e+00	 8.927630882223902e+00
 9.768520831899675e-01	 1.455528349340373e+00	 8.817327610932644e+00
 9.627611453096481e-01	 1.464886939408002e+00	 8.710604054369064e+00
 9.485945890908867e-01	 1.474100089449011e+00	 8.605317900963264e+00
 9.343546367538398e-01	 1.483166943045418e+00	 8.499250304246909e+00
 9.200435219893620e-01	 1.492086688437203e+00	 8.390128102285670e+00
 9.056634888532558e-01	 1.500858558667084e+00	 8.275645454839632e+00
 1.049606049818984e+00	 1.411306964411302e+00	 9.443214293774684e+00
 1.035880152291971e+00	 1.421412156167246e+00	 9.300382799506632e+00
 1.022067445608005e+00	 1.431376381054538e+00	 9.168368397650706e+00
 1.008170085338433e+00	 1.441198559061573e+00	 9.045580496639392e+00
 9.941902440704230e-01	 1.450877653769486e+00	 8.930258616051042e+00
 9.801301103147659e-01	 1.460412672660307e+00	 8.820496101721368e+00
 9.659918874080028e-01	 1.469802667392593e+00	 8.714263781275115e+00
 9.517777924099835e-01	 1.479046734044478e+00	 8.609433417671553e+00
 9.374900549979801e-01	 1.488144013324094e+00	 8.503800822751650e+00
 9.231309163584538e-01	 1.497093690747395e+00	 8.395108497957526e+00
 9.087026280775956e-01	 1.505894996783417e+00	 8.281067675287378e+00
 1.053116437945469e+00	 1.416027054593280e+00	 9.443594753642898e+00
 1.039344634406660e+00	 1.426166042977170e+00	 9.301628500614694e+00
 1.025485731379268e+00	 1.436163593031309e+00	 9.170349807698784e+00
 1.011541891643913e+00	 1.446018621132013e+00	 9.048189117851575e+00
 9.975152950539364e-01	 1.455730087394133e+00	 8.933405886253446e+00
 9.834081374395648e-01	 1.465296995980241e+00	 8.824112761018934e+00
 9.692226295063571e-01	 1.474718395377184e+00	 8.718299697523950e+00
 9.549609957290802e-01	 1.483993378639944e+00	 8.613857860993230e+00
 9.406254732421204e-01	 1.493121083602770e+00	 8.508603176492178e+00
 9.262183107275459e-01	 1.502100693057587e+00	 8.400299390769964e+00
 9.117417673019355e-01	 1.510931434899750e+00	 8.286680516429710e+00
 8.813503750585376e-01	 1.460567053736424e+00	 8.215437710300161e+00
 8.672915076896361e-01	 1.468958829499848e+00	 8.096289622836991e+00
 8.531699656883333e-01	 1.477205338374965e+00	 7.982364175768413e+00
 8.389879566749601e-01	 1.485305965325158e+00	 7.872285270583106e+00
 8.247476940614684e-01	 1.493260139164109e+00	 7.764728814807409e+00
 8.104513959851558e-01	 1.501067332541028e+00	 7.658435595640114e+00
 7.961012842474153e-01	 1.508727061895471e+00	 7.552223181043906e+00
 7.816995832585010e-01	 1.516238887382068e+00	 7.444996793155326e+00
 7.672485189892737e-01	 1.523602412765513e+00	 7.335759106722398e+00
 7.527503179308801e-01	 1.530817285286224e+00	 7.223618933257678e+00
 7.382072060632838e-01	 1.537883195497098e+00	 7.107798759657078e+00
 8.843895142828775e-01	 1.465603491852757e+00	 8.226457471413447e+00
 8.702821680609795e-01	 1.474024204773985e+00	 8.108029875246650e+00
 8.561119310872585e-01	 1.482299149886602e+00	 7.994985004589138e+00
 8.418810185945286e-01	 1.490427710033176e+00	 7.885919406915926e+00
 8.275916516271975e-01	 1.498409312057778e+00	 7.779483030458298e+00
 8.132460559713114e-01	 1.506243426791170e+00	 7.674392406405372e+00
 7.988464610896479e-01	 1.513929569005455e+00	 7.569442833895518e+00
 7.843950990628402e-01	 1.521467297338558e+00	 7.463519511403309e+00
 7.698942035375127e-01	 1.528856214188842e+00	 7.355607566155029e+00
 7.553460086823656e-01	 1.536095965580314e+00	 7.244800941362444e+00
 7.407527481531572e-01	 1.543186240998812e+00	 7.130310109316094e+00
 8.874286535072173e-01	 1.470639929969090e+00	 8.236078745216728e+00
 8.732728284323231e-01	 1.479089580048122e+00	 8.118346146272350e+00
 8.590538964861837e-01	 1.487392961398240e+00	 8.006170547569994e+00
 8.447740805140977e-01	 1.495549454741194e+00	 7.898119202297258e+00
 8.304356091929269e-01	 1.503558484951448e+00	 7.792814238552019e+00
 8.160407159574670e-01	 1.511419521041311e+00	 7.688946158282441e+00
 8.015916379318802e-01	 1.519132076115440e+00	 7.585286313777583e+00
 7.870906148671799e-01	 1.526695707295048e+00	 7.480698304036455e+00
 7.725398880857514e-01	 1.534110015612171e+00	 7.374148241543361e+00
 7.579416994338514e-01	 1.541374645874404e+00	 7.264713848333431e+00
 7.432982902430304e-01	 1.548489286500526e+00	 7.151592348650954e+00
 8.904677927315571e-01	 1.475676368085422e+00	 8.244502385632851e+00
 8.762634888036668e-01	 1.484154955322260e+00	 8.127442343187166e+00
 8.619958618851090e-01	 1.492486772909878e+00	 8.016127715709846e+00
 8.476671424336663e-01	 1.500671199449211e+00	 7.909094519601656e+00
 8.332795667586560e-01	 1.508707657845117e+00	 7.804935200847110e+00
 8.188353759436224e-01	 1.516595615291452e+00	 7.702312458957362e+00
 8.043368147741122e-01	 1.524334583225424e+00	 7.599972022645753e+00
 7.897861306715197e-01	 1.531924117251537e+00	 7.496754318258185e+00
 7.751855726339906e-01	 1.539363817035500e+00	 7.391604980364304e+00
 7.605373901853374e-01	 1.546653326168495e+00	 7.283584162458938e+00
 7.458438323329039e-01	 1.553792332002240e+00	 7.171874614339290e+00
 8.935069319558967e-01	 1.480712806201754e+00	 8.251928703804564e+00
 8.792541491750100e-01	 1.489220330596397e+00	 8.135521875035334e+00
 8.649378272840341e-01	 1.497580584421515e+00	 8.025062963697593e+00
 8.505602043532351e-01	 1.505792944157229e+00	 7.919054804079647e+00
 8.361235243243852e-01	 1.513856830738787e+00	 7.816058296349736e+00
 8.216300359297786e-01	 1.521771709541594e+00	 7.714706563858424e+00
 8.070819916163446e-01	 1.529537090335409e+00	 7.613718035770153e+00
 7.924816464758592e-01	 1.537152527208028e+00	 7.511908394713755e+00
 7.778312571822293e-01	 1.544617618458829e+00	 7.408201337714823e+00
 7.631330809368232e-01	 1.551932006462586e+00	 7.301638107403505e+00
 7.483893744227773e-01	 1.559095377503954e+00	 7.191385759305735e+00
 8.965460711802363e-01	 1.485749244318087e+00	 8.258557423018900e+00
 8.822448095463538e-01	 1.494285705870535e+00	 8.142787610203934e+00
 8.678797926829596e-01	 1.502674395933153e+00	 8.033182250145336e+00
 8.534532662728039e-01	 1.510914688865247e+00	 7.928209046271510e+00
 8.389674818901143e-01	 1.519006003632456e+00	 7.826395486927392e+00
 8.244246959159341e-01	 1.526947803791736e+00	 7.726343344487555e+00
 8.098271684585773e-01	 1.534739597445393e+00	 7.626742072805200e+00
 7.951771622801991e-01	 1.542380937164517e+00	 7.526381041320251e+00
 7.804769417304680e-01	 1.549871419882159e+00	 7.424160552928287e+00
 7.657287716883086e-01	 1.557210686756676e+00	 7.319101601627338e+00
 7.509349165126505e-01	 1.564398423005669e+00	 7.210354334977733e+00
 8.995852104045764e-01	 1.490785682434420e+00	 8.264587633612937e+00
 8.852354699176975e-01	 1.499351081144672e+00	 8.149441833954125e+00
 8.708217580818847e-01	 1.507768207444792e+00	 8.040690997763225e+00
 8.563463281923732e-01	 1.516036433573265e+00	 7.936765744841320e+00
 8.418114394558435e-01	 1.524155176526125e+00	 7.836158282817987e+00
 8.272193559020897e-01	 1.532123898041876e+00	 7.737437256625494e+00
 8.125723453008098e-01	 1.539942104555378e+00	 7.639261468710998e+00
 7.978726780845388e-01	 1.547609347121007e+00	 7.540392406924235e+00
 7.831226262787071e-01	 1.555125221305488e+00	 7.439705525989327e+00
 7.683244624397946e-01	 1.562489367050766e+00	 7.336200237586295e+00
 7.534804586025239e-01	 1.569701468507383e+00	 7.229008573290704e+00
 9.026243496289161e-01	 1.495822120550752e+00	 8.270217747860089e+00
 8.882261302890407e-01	 1.504416456418809e+00	 8.155686205915810e+00
 8.737637234808103e-01	 1.512862018956429e+00	 8.047794053475489e+00
 8.592393901119419e-01	 1.521158178281282e+00	 7.944932869331345e+00
 8.446553970215729e-01	 1.529304349419795e+00	 7.845557708042023e+00
 8.300140158882455e-01	 1.537299992292018e+00	 7.748202308417403e+00
 8.153175221430423e-01	 1.545144611665362e+00	 7.651493144532248e+00
 8.005681938888780e-01	 1.552837757077497e+00	 7.554162254794370e+00
 7.857683108269456e-01	 1.560379022728818e+00	 7.455058793760046e+00
 7.709201531912802e-01	 1.567768047344857e+00	 7.353159260714090e+00
 7.560260006923972e-01	 1.575004514009096e+00	 7.247576368450895e+00
 9.056634888532558e-01	 1.500858558667084e+00	 8.275645454839632e+00
 8.912167906603843e-01	 1.509481831692947e+00	 8.161721717542500e+00
 8.767056888797353e-01	 1.517955830468067e+00	 8.054695648480010e+00
 8.621324520315106e-01	 1.526279922989301e+00	 7.952917822839900e+00
 8.474993545873019e-01	 1.534453522313464e+00	 7.854804265713906e+00
 8.328086758744011e-01	 1.542476086542160e+00	 7.758852028337216e+00
 8.180626989852749e-01	 1.550347118775347e+00	 7.663653578032829e+00
 8.032637096932178e-01	 1.558066167033987e+00	 7.567909935945833e+00
 7.884139953751844e-01	 1.565632824152147e+00	 7.470442506017640e+00
 7.735158439427662e-01	 1.573046727638947e+00	 7.370203548192144e+00
 7.585715427822708e-01	 1.580307559510811e+00	 7.266285258459775e+00
 9.087026280775956e-01	 1.505894996783417e+00	 8.281067675287378e+00
 8.942074510317281e-01	 1.514547206967084e+00	 8.167748649533646e+00
 8.796476542786607e-01	 1.523049641979705e+00	 8.061599358250589e+00
 8.650255139510792e-01	 1.531401667697318e+00	 7.960927404623467e+00
 8.503433121530312e-01	 1.539602695207133e+00	 7.864107903260541e+00
 8.356033358605568e-01	 1.547652180792301e+00	 7.769599433038039e+00
 8.208078758275071e-01	 1.555549625885331e+00	 7.675958774196287e+00
 8.059592254975575e-01	 1.563294576990476e+00	 7.581854362309011e+00
 7.910596799234235e-01	 1.570886625575477e+00	 7.486078401309256e+00
 7.761115346942518e-01	 1.578325407933037e+00	 7.387557587512720e+00
 7.611170848721440e-01	 1.585610605012525e+00	 7.285362406407494e+00
 9.117417673019355e-01	 1.510931434899750e+00	 8.286680516429710e+00
 8.971981114030718e-01	 1.519612582241222e+00	 8.173966529216921e+00
 8.825896196775863e-01	 1.528143453491343e+00	 8.068708062488113e+00
 8.679185758706481e-01	 1.536523412405336e+00	 7.969167772625916e+00
 8.531872697187604e-01	 1.544751868100803e+00	 7.873677977544765e+00
 8.383979958467128e-01	 1.552828275042443e+00	 7.780656995086879e+00
 8.235530526697397e-01	 1.560752132995315e+00	 7.688624235589215e+00
 8.086547413018972e-01	 1.568522986946967e+00	 7.596213979740279e+00
 7.937053644716624e-01	 1.576140426998806e+00	 7.502187782627506e+00
 7.787072254457376e-01	 1.583604088227128e+00	 7.405445454839622e+00
 7.636626269620177e-01	 1.590913650514239e+00	 7.305034581537983e+00
 7.382072060632838e-01	 1.537883195497098e+00	 7.107798759657078e+00
 7.236214078335703e-01	 1.544799877071812e+00	 6.992356232526221e+00
 7.089951451448858e-01	 1.551567106585180e+00	 6.881016912914609e+00
 6.943306363568850e-01	 1.558184703266069e+00	 6.772685412134763e+00
 6.796300952985107e-01	 1.564652528723442e+00	 6.666390386206825e+00
 6.648957302939089e-01	 1.570970486646091e+00	 6.561286848904626e+00
 6.501297432022614e-01	 1.577138522476668e+00	 6.456657319174527e+00
 6.353343284722780e-01	 1.583156623060651e+00	 6.351911824834039e+00
 6.205116722120719e-01	 1.589024816270880e+00	 6.246586791325567e+00
 6.056639512751042e-01	 1.594743170608344e+00	 6.140342850801880e+00
 5.907933323628578e-01	 1.600311794779915e+00	 6.032961612958053e+00
 7.407527481531572e-01	 1.543186240998812e+00	 7.130310109316088e+00
 7.261166540674794e-01	 1.550126773199646e+00	 7.016140477327967e+00
 7.114399559902131e-01	 1.556917337987198e+00	 6.905970750284100e+00
 6.967248799305298e-01	 1.563557753966987e+00	 6.798706989033692e+00
 6.819736473512639e-01	 1.570047882270765e+00	 6.693383539792450e+00
 6.671884741914741e-01	 1.576387626255215e+00	 6.589165357514370e+00
 6.523715699029590e-01	 1.582576931174863e+00	 6.485349133461178e+00
 6.375251365014929e-01	 1.588615783829826e+00	 6.381363249445842e+00
 6.226513676334929e-01	 1.594504212189056e+00	 6.276766588246073e+00
 6.077524476588113e-01	 1.600242284989752e+00	 6.171246236343729e+00
 5.928305507503160e-01	 1.605830111313640e+00	 6.064614121418929e+00
 7.432982902430304e-01	 1.548489286500526e+00	 7.151592348650951e+00
 7.286119003013882e-01	 1.555453669327480e+00	 7.038739880483103e+00
 7.138847668355403e-01	 1.562267569389215e+00	 6.929789958845540e+00
 6.991191235041739e-01	 1.568930804667904e+00	 6.823646954889151e+00
 6.843171994040175e-01	 1.575443235818086e+00	 6.719347715176697e+00
 6.694812180890392e-01	 1.581804765864340e+00	 6.616063902666503e+00
 6.546133966036563e-01	 1.588015339873058e+00	 6.513103111216994e+00
 6.397159445307077e-01	 1.594074944599000e+00	 6.409908776647660e+00
 6.247910630549137e-01	 1.599983608107230e+00	 6.306058914583414e+00
 6.098409440425188e-01	 1.605741399371160e+00	 6.201263722105961e+00
 5.948677691377741e-01	 1.611348427847363e+00	 6.095362086676147e+00
 7.458438323329039e-01	 1.553792332002240e+00	 7.171874614339290e+00
 7.311071465352968e-01	 1.560780565455313e+00	 7.060385186493163e+00
 7.163295776808675e-01	 1.567617800791234e+00	 6.952704900197749e+00
 7.015133670778184e-01	 1.574303855368822e+00	 6.847733335031604e+00
 6.866607514567710e-01	 1.580838589365409e+00	 6.744506688308928e+00
 6.717739619866042e-01	 1.587221905473464e+00	 6.642200140942135e+00
 6.568552233043538e-01	 1.593453748571254e+00	 6.540128965628094e+00
 6.419067525599224e-01	 1.599534105368175e+00	 6.437748400961821e+00
 6.269307584763348e-01	 1.605463004025407e+00	 6.334652322421999e+00
 6.119294404262260e-01	 1.611240513752568e+00	 6.230570748138460e+00
 5.969049875252322e-01	 1.616866744381087e+00	 6.125366223930101e+00
 7.483893744227773e-01	 1.559095377503954e+00	 7.191385759305739e+00
 7.336023927692057e-01	 1.566107461583148e+00	 7.081306863227420e+00
 7.187743885261947e-01	 1.572968032193251e+00	 6.974945685613652e+00
 7.039076106514626e-01	 1.579676906069739e+00	 6.871193949224764e+00
 6.890043035095246e-01	 1.586233942912731e+00	 6.769084092068555e+00
 6.740667058841694e-01	 1.592639045082588e+00	 6.667791665378196e+00
 6.590970500050511e-01	 1.598892157269450e+00	 6.566636442198091e+00
 6.440975605891370e-01	 1.604993266137349e+00	 6.465082260738340e+00
 6.290704538977557e-01	 1.610942399943582e+00	 6.362735634162432e+00
 6.140179368099333e-01	 1.616739628133976e+00	 6.259343165612675e+00
 5.989422059126904e-01	 1.622385060914811e+00	 6.154787813981548e+00
 7.509349165126505e-01	 1.564398423005669e+00	 7.210354334977737e+00
 7.360976390031148e-01	 1.571434357710982e+00	 7.101735086811725e+00
 7.212191993715217e-01	 1.578318263595269e+00	 6.996742163128356e+00
 7.063018542251071e-01	 1.585049956770656e+00	 6.894256400536123e+00
 6.913478555622778e-01	 1.591629296460053e+00	 6.793303406505084e+00
 6.763594497817349e-01	 1.598056184691713e+00	 6.693055996675257e+00
 6.613388767057484e-01	 1.604330565967645e+00	 6.592835310525575e+00
 6.462883686183514e-01	 1.610452426906524e+00	 6.492110630115581e+00
 6.312101493191764e-01	 1.616421795861757e+00	 6.390497934287908e+00
 6.161064331936403e-01	 1.622238742515384e+00	 6.287757228025669e+00
 6.009794243001485e-01	 1.627903377448535e+00	 6.183788693512523e+00
 7.534804586025239e-01	 1.569701468507383e+00	 7.229008573290704e+00
 7.385928852370236e-01	 1.576761253838816e+00	 7.121899726238704e+00
 7.236640102168490e-01	 1.583668494997287e+00	 7.018323904338031e+00
 7.086960977987515e-01	 1.590423007471574e+00	 6.917148063912485e+00
 6.936914076150316e-01	 1.597024650007376e+00	 6.817387948786157e+00
 6.786521936792999e-01	 1.603473324300837e+00	 6.718210574119232e+00
 6.635807034064461e-01	 1.609768974665841e+00	 6.618935355811519e+00
 6.484791766475666e-01	 1.615911587675699e+00	 6.519033910734146e+00
 6.333498447405977e-01	 1.621901191779932e+00	 6.418128560909381e+00
 6.181949295773477e-01	 1.627737856896792e+00	 6.315989582216584e+00
 6.030166426876068e-01	 1.633421693982259e+00	 6.212531245224338e+00
 7.560260006923972e-01	 1.575004514009096e+00	 7.247576368450899e+00
 7.410881314709324e-01	 1.582088149966649e+00	 7.142030327715844e+00
 7.261088210621762e-01	 1.589018726399305e+00	 7.039920190922327e+00
 7.110903413723961e-01	 1.595796058172491e+00	 6.940096074469739e+00
 6.960349596677847e-01	 1.602420003554698e+00	 6.841560862857193e+00
 6.809449375768651e-01	 1.608890463909961e+00	 6.743472746223230e+00
 6.658225301071434e-01	 1.615207383364035e+00	 6.645146370100096e+00
 6.506699846767813e-01	 1.621370748444873e+00	 6.546052623204098e+00
 6.354895401620182e-01	 1.627380587698108e+00	 6.445817097098496e+00
 6.202834259610550e-01	 1.633236971278200e+00	 6.344217259207284e+00
 6.050538610750648e-01	 1.638940010515982e+00	 6.241178387835534e+00
 7.585715427822708e-01	 1.580307559510811e+00	 7.266285258459779e+00
 7.435833777048413e-01	 1.587415046094483e+00	 7.162356098752530e+00
 7.285536319075030e-01	 1.594368957801322e+00	 7.061760000888863e+00
 7.134845849460404e-01	 1.601169108873409e+00	 6.963327315498462e+00
 6.983785117205382e-01	 1.607815357102020e+00	 6.866045108820495e+00
 6.832376814744303e-01	 1.614307603519086e+00	 6.769059761094718e+00
 6.680643568078406e-01	 1.620645792062231e+00	 6.671678143263249e+00
 6.528607927059958e-01	 1.626829909214048e+00	 6.573367398336849e+00
 6.376292355834393e-01	 1.632859983616283e+00	 6.473753362006814e+00
 6.223719223447622e-01	 1.638736085659608e+00	 6.372617664863458e+00
 6.070910794625228e-01	 1.644458327049706e+00	 6.269893565947021e+00
 7.611170848721440e-01	 1.585610605012525e+00	 7.285362406407494e+00
 7.460786239387502e-01	 1.592741942222317e+00	 7.183105891993652e+00
 7.309984427528305e-01	 1.599719189203341e+00	 7.084071994550706e+00
 7.158788285196851e-01	 1.606542159574327e+00	 6.987068406198635e+00
 7.007220637732918e-01	 1.613210710649342e+00	 6.891063452038709e+00
 6.855304253719954e-01	 1.619724743128210e+00	 6.795188756537614e+00
 6.703061835085383e-01	 1.626084200760426e+00	 6.698740453727979e+00
 6.550516007352106e-01	 1.632289069983223e+00	 6.601178968144030e+00
 6.397689310048602e-01	 1.638339379534458e+00	 6.502127401786071e+00
 6.244604187284695e-01	 1.644235200041017e+00	 6.401368570387561e+00
 6.091282978499809e-01	 1.649976643583429e+00	 6.298840739773670e+00
 7.636626269620177e-01	 1.590913650514239e+00	 7.305034581537980e+00
 7.485738701726589e-01	 1.598068838350151e+00	 7.204508188805933e+00
 7.334432535981578e-01	 1.605069420605358e+00	 7.107084500244677e+00
 7.182730720933294e-01	 1.611915210275244e+00	 7.011545689141586e+00
 7.030656158260452e-01	 1.618606064196664e+00	 6.916838451973678e+00
 6.878231692695609e-01	 1.625141882737335e+00	 6.822076749892402e+00
 6.725480102092358e-01	 1.631522609458621e+00	 6.726543058962898e+00
 6.572424087644255e-01	 1.637748230752398e+00	 6.629688156610850e+00
 6.419086264262812e-01	 1.643818775452634e+00	 6.531129480302290e+00
 6.265489151121768e-01	 1.649734314422425e+00	 6.430648102640992e+00
 6.111655162374392e-01	 1.655494960117154e+00	 6.328184374746495e+00
 5.907933323628578e-01	 1.600311794779915e+00	 6.032961612958053e+00
 5.759019711448682e-01	 1.605730837253735e+00	 5.923764388032987e+00
 5.609920113967007e-01	 1.611000485792977e+00	 5.811196783212552e+00
 5.460655841564498e-01	 1.616120966968748e+00	 5.696037644381193e+00
 5.311248069002751e-01	 1.621092545652860e+00	 5.579160848551131e+00
 5.161717827374898e-01	 1.625915524491272e+00	 5.461452803993129e+00
 5.012085996256505e-01	 1.630590243358956e+00	 5.343804527165057e+00
 4.862373296060942e-01	 1.635117078797007e+00	 5.227104190137628e+00
 4.712600280603139e-01	 1.639496443432775e+00	 5.112230148682205e+00
 4.562787329875415e-01	 1.643728785383832e+00	 5.000044458640910e+00
 4.412954643038715e-01	 1.647814587646606e+00	 4.891386885745922e+00
 5.928305507503160e-01	 1.605830111313640e+00	 6.064614121418929e+00
 5.778878400108848e-01	 1.611267840140816e+00	 5.956610292345493e+00
 5.629264666084136e-01	 1.616555659881918e+00	 5.845147307647278e+00
 5.479485689294031e-01	 1.621693797889330e+00	 5.730849580736811e+00
 5.329562717516555e-01	 1.626682519948215e+00	 5.614601506895503e+00
 5.179516854365847e-01	 1.631522129748138e+00	 5.497298075428569e+00
 5.029369051416008e-01	 1.636212968336056e+00	 5.379836868150917e+00
 4.879140100530117e-01	 1.640755413551480e+00	 5.263110539131133e+00
 4.728850626398321e-01	 1.645149879444611e+00	 5.147999785826438e+00
 4.578521079288776e-01	 1.649396815678259e+00	 5.035366819164534e+00
 4.428171728014710e-01	 1.653496706914353e+00	 4.926049337637913e+00
 5.948677691377741e-01	 1.611348427847363e+00	 6.095362086676147e+00
 5.798737088769017e-01	 1.616804843027899e+00	 5.988431341089013e+00
 5.648609218201264e-01	 1.622110833970860e+00	 5.878026359305350e+00
 5.498315537023563e-01	 1.627266628809912e+00	 5.764530821725842e+00
 5.347877366030357e-01	 1.632272494243569e+00	 5.648851001141275e+00
 5.197315881356792e-01	 1.637128735005004e+00	 5.531901919240980e+00
 5.046652106575514e-01	 1.641835693313156e+00	 5.414599248894192e+00
 4.895906904999294e-01	 1.646393748305953e+00	 5.297851708745567e+00
 4.745100972193505e-01	 1.650803315456449e+00	 5.182553960268169e+00
 4.594254828702141e-01	 1.655064845972686e+00	 5.069580014774249e+00
 4.443388812990706e-01	 1.659178826182100e+00	 4.959777155359942e+00
 5.969049875252322e-01	 1.616866744381087e+00	 6.125366223930101e+00
 5.818595777429184e-01	 1.622341845914981e+00	 6.019371347362887e+00
 5.667953770318392e-01	 1.627666008059802e+00	 5.909964962671800e+00
 5.517145384753096e-01	 1.632839459730494e+00	 5.797202063800695e+00
 5.366192014544160e-01	 1.637862468538924e+00	 5.682022058055241e+00
 5.215114908347741e-01	 1.642735340261871e+00	 5.565371347334557e+00
 5.063935161735019e-01	 1.647458418290255e+00	 5.448195116515999e+00
 4.912673709468469e-01	 1.652032083060425e+00	 5.331429625532789e+00
 4.761351317988688e-01	 1.656456751468286e+00	 5.215995015293139e+00
 4.609988578115504e-01	 1.660732876267113e+00	 5.102788634922563e+00
 4.458605897966701e-01	 1.664860945449847e+00	 4.992678895227101e+00
 5.989422059126904e-01	 1.622385060914811e+00	 6.154787813981555e+00
 5.838454466089350e-01	 1.627878848802062e+00	 6.049575029757141e+00
 5.687298322435520e-01	 1.633221182148742e+00	 5.941095068324300e+00
 5.535975232482627e-01	 1.638412290651075e+00	 5.828984919474724e+00
 5.384506663057961e-01	 1.643452442834278e+00	 5.714228281400553e+00
 5.232913935338689e-01	 1.648341945518737e+00	 5.597814182107662e+00
 5.081218216894525e-01	 1.653081143267356e+00	 5.480728636305063e+00
 4.929440513937643e-01	 1.657670417814897e+00	 5.363946817670534e+00
 4.777601663783873e-01	 1.662110187480123e+00	 5.248425756667308e+00
 4.625722327528867e-01	 1.666400906561540e+00	 5.135097571407533e+00
 4.473822982942696e-01	 1.670543064717594e+00	 5.024863236384444e+00
 6.009794243001485e-01	 1.627903377448535e+00	 6.183788693512539e+00
 5.858313154749520e-01	 1.633415851689144e+00	 6.079188018764418e+00
 5.706642874552648e-01	 1.638776356237683e+00	 5.971549557862580e+00
 5.554805080212161e-01	 1.643985121571657e+00	 5.860001921317140e+00
 5.402821311571765e-01	 1.649042417129633e+00	 5.745584155511688e+00
 5.250712962329637e-01	 1.653948550775604e+00	 5.629339060106808e+00
 5.098501272054030e-01	 1.658703868244455e+00	 5.512304695918207e+00
 4.946207318406821e-01	 1.663308752569370e+00	 5.395506420145827e+00
 4.793852009579053e-01	 1.667763623491960e+00	 5.279949459219167e+00
 4.641456076942230e-01	 1.672068936855967e+00	 5.166612026736894e+00
 4.489040067918691e-01	 1.676225183985341e+00	 5.056438991316561e+00
 6.030166426876068e-01	 1.633421693982259e+00	 6.212531245224338e+00
 5.878171843409686e-01	 1.638952854576226e+00	 6.108356863087606e+00
 5.725987426669775e-01	 1.644331530326625e+00	 6.001462248762683e+00
 5.573634927941693e-01	 1.649557952492239e+00	 5.890376525886769e+00
 5.421135960085566e-01	 1.654632391424988e+00	 5.776205048817920e+00
 5.268511989320583e-01	 1.659555156032470e+00	 5.660055435626462e+00
 5.115784327213534e-01	 1.664326593221555e+00	 5.543028909506647e+00
 4.962974122875997e-01	 1.668947087323843e+00	 5.426212179847846e+00
 4.810102355374238e-01	 1.673417059503798e+00	 5.310669873297829e+00
 4.657189826355594e-01	 1.677736967150394e+00	 5.197437522336709e+00
 4.504257152894688e-01	 1.681907303253088e+00	 5.087515116156183e+00
 6.050538610750648e-01	 1.638940010515982e+00	 6.241178387835534e+00
 5.898030532069855e-01	 1.644489857463308e+00	 6.137255458983308e+00
 5.745331978786902e-01	 1.649886704415567e+00	 6.030967899160911e+00
 5.592464775671224e-01	 1.655130783412821e+00	 5.920233117612716e+00
 5.439450608599369e-01	 1.660222365720342e+00	 5.806207217324338e+00
 5.286311016311533e-01	 1.665161761289337e+00	 5.690073584253791e+00
 5.133067382373040e-01	 1.669949318198655e+00	 5.573007621783179e+00
 4.979740927345172e-01	 1.674585422078315e+00	 5.456168460573365e+00
 4.826352701169422e-01	 1.679070495515634e+00	 5.340691231122349e+00
 4.672923575768957e-01	 1.683404997444821e+00	 5.227679906607429e+00
 4.519474237870682e-01	 1.687589422520835e+00	 5.118200720795760e+00
 6.070910794625228e-01	 1.644458327049706e+00	 6.269893565947029e+00
 5.917889220730022e-01	 1.650026860350389e+00	 6.166089388882090e+00
 5.764676530904029e-01	 1.655441878504507e+00	 6.060202212562123e+00
 5.611294623400759e-01	 1.660703614333403e+00	 5.949697012618951e+00
 5.457765257113172e-01	 1.665812340015698e+00	 5.835707808034490e+00
 5.304110043302480e-01	 1.670768366546203e+00	 5.719504606364291e+00
 5.150350437532545e-01	 1.675572043175754e+00	 5.602347912024522e+00
 4.996507731814347e-01	 1.680223756832787e+00	 5.485480247949129e+00
 4.842603046964603e-01	 1.684723931527471e+00	 5.370118253010338e+00
 4.688657325182322e-01	 1.689073027739248e+00	 5.257445362830512e+00
 4.534691322846680e-01	 1.693271541788582e+00	 5.148605078810703e+00
 6.091282978499809e-01	 1.649976643583429e+00	 6.298840739773670e+00
 5.937747909390192e-01	 1.655563863237472e+00	 6.195010966691855e+00
 5.784021083021156e-01	 1.660997052593449e+00	 6.089301842483994e+00
 5.630124471130291e-01	 1.666276445253984e+00	 5.978894462496053e+00
 5.476079905626974e-01	 1.671402314311052e+00	 5.864824862335238e+00
 5.321909070293428e-01	 1.676374971803069e+00	 5.748460430568279e+00
 5.167633492692050e-01	 1.681194768152855e+00	 5.631157598007391e+00
 5.013274536283522e-01	 1.685862091587259e+00	 5.514253154273930e+00
 4.858853392759788e-01	 1.690377367539309e+00	 5.399056153503980e+00
 4.704391074595685e-01	 1.694741058033675e+00	 5.286840416932522e+00
 4.549908407822674e-01	 1.698953661056329e+00	 5.178837637191909e+00
 6.111655162374392e-01	 1.655494960117154e+00	 6.328184374746495e+00
 5.957606598050358e-01	 1.661100866124553e+00	 6.224171279666458e+00
 5.803365635138286e-01	 1.666552226682390e+00	 6.118404397030931e+00
 5.648954318859825e-01	 1.671849276174566e+00	 6.007952658021438e+00
 5.494394554140777e-01	 1.676992288606407e+00	 5.893677319327845e+00
 5.339708097284377e-01	 1.681981577059936e+00	 5.777053817102178e+00
 5.184916547851555e-01	 1.686817493129954e+00	 5.659545239890496e+00
 5.030041340752697e-01	 1.691500426341731e+00	 5.542593423275476e+00
 4.875103738554971e-01	 1.696030803551146e+00	 5.427610647385075e+00
 4.720124824009048e-01	 1.700409088328102e+00	 5.315971945104882e+00
 4.565125492798670e-01	 1.704635780324076e+00	 5.209008025900081e+00
 4.412954643038715e-01	 1.647814587646606e+00	 4.891386885745922e+00
 4.263122231632296e-01	 1.651754367470463e+00	 4.784570279772563e+00
 4.113309913004444e-01	 1.655548675718089e+00	 4.677886202104997e+00
 3.963537303966706e-01	 1.659198096212977e+00	 4.572095007024890e+00
 3.813823814673577e-01	 1.662703245074843e+00	 4.467917453750525e+00
 3.664188642729427e-01	 1.666064770043786e+00	 4.366031304053458e+00
 3.514650767524024e-01	 1.669283349794022e+00	 4.267068392303329e+00
 3.365228944797797e-01	 1.672359693237994e+00	 4.171612158391022e+00
 3.215941701437631e-01	 1.675294538821658e+00	 4.080195632367875e+00
 3.066807330503671e-01	 1.678088653811775e+00	 3.993299858129809e+00
 2.917843886487391e-01	 1.680742833575978e+00	 3.911352742104316e+00
 4.428171728014710e-01	 1.653496706914353e+00	 4.926049337637913e+00
 4.277822653120682e-01	 1.657450072185878e+00	 4.818366655039690e+00
 4.127493740290667e-01	 1.661257464255048e+00	 4.710656023468749e+00
 3.977204673980382e-01	 1.664919468958539e+00	 4.603731621557295e+00
 3.826974931275899e-01	 1.668436704540618e+00	 4.498366276832534e+00
 3.676823775980219e-01	 1.671809820974971e+00	 4.395287986239683e+00
 3.526770252929277e-01	 1.675039499276070e+00	 4.295176919474170e+00
 3.376833182538480e-01	 1.678126450800883e+00	 4.198662895353388e+00
 3.227031155580519e-01	 1.681071416541732e+00	 4.106323319794154e+00
 3.077382528195064e-01	 1.683875166411126e+00	 4.018681572435034e+00
 2.927905417130450e-01	 1.686538498519343e+00	 3.936205827545928e+00
 4.443388812990706e-01	 1.659178826182100e+00	 4.959777155359942e+00
 4.292523074609070e-01	 1.663145776901294e+00	 4.851483375236345e+00
 4.141677567576889e-01	 1.666966252792007e+00	 4.743073458425155e+00
 3.990872043994062e-01	 1.670640841704102e+00	 4.635396414902495e+00
 3.840126047878222e-01	 1.674170164006393e+00	 4.529258063451563e+00
 3.689458909231009e-01	 1.677554871906156e+00	 4.425417501100890e+00
 3.538889738334534e-01	 1.680795648758119e+00	 4.324584065397185e+00
 3.388437420279161e-01	 1.683893208363773e+00	 4.227414779477058e+00
 3.238120609723406e-01	 1.686848294261807e+00	 4.134512268202125e+00
 3.087957725886455e-01	 1.689661679010477e+00	 4.046423132084787e+00
 2.937966947773510e-01	 1.692334163462708e+00	 3.963636764293511e+00
 4.458605897966701e-01	 1.664860945449847e+00	 4.992678895227101e+00
 4.307223496097458e-01	 1.668841481616709e+00	 4.884032505024899e+00
 4.155861394863110e-01	 1.672675041328966e+00	 4.775251656212314e+00
 4.004539414007741e-01	 1.676362214449663e+00	 4.667201408205711e+00
 3.853277164480544e-01	 1.679903623472168e+00	 4.560701704326681e+00
 3.702094042481801e-01	 1.683299922837342e+00	 4.456523816028005e+00
 3.551009223739789e-01	 1.686551798240168e+00	 4.355387289620881e+00
 3.400041658019844e-01	 1.689659965926663e+00	 4.257957385163792e+00
 3.249210063866295e-01	 1.692625171981882e+00	 4.164842995450438e+00
 3.098532923577847e-01	 1.695448191609828e+00	 4.076595031474393e+00
 2.948028478416571e-01	 1.698129828406074e+00	 3.993705259288483e+00
 4.473822982942696e-01	 1.670543064717594e+00	 5.024863236384444e+00
 4.321923917585845e-01	 1.674537186332125e+00	 4.916126062774062e+00
 4.170045222149333e-01	 1.678383829865924e+00	 4.807303587885158e+00
 4.018206784021419e-01	 1.682083587195226e+00	 4.699258346997072e+00
 3.866428281082868e-01	 1.685637082937943e+00	 4.592805748811758e+00
 3.714729175732592e-01	 1.689044973768527e+00	 4.488710520199740e+00
 3.563128709145045e-01	 1.692307947722216e+00	 4.387683662761718e+00
 3.411645895760527e-01	 1.695426723489552e+00	 4.290379910519492e+00
 3.260299518009184e-01	 1.698402049701956e+00	 4.197395676325669e+00
 3.109108121269238e-01	 1.701234704209178e+00	 4.109267472984332e+00
 2.958090009059630e-01	 1.703925493349439e+00	 4.026470793601233e+00
 4.489040067918691e-01	 1.676225183985341e+00	 5.056438991316561e+00
 4.336624339074232e-01	 1.680232891047540e+00	 4.947876033065135e+00
 4.184229049435555e-01	 1.684092618402883e+00	 4.839342060224679e+00
 4.031874154035096e-01	 1.687804959940787e+00	 4.731678715955948e+00
 3.879579397685190e-01	 1.691370542403719e+00	 4.625678420007574e+00
 3.727364308983382e-01	 1.694790024699713e+00	 4.522080839585634e+00
 3.575248194550298e-01	 1.698064097204264e+00	 4.421569880986342e+00
 3.423250133501207e-01	 1.701193481052442e+00	 4.324771190951462e+00
 3.271388972152072e-01	 1.704178927422031e+00	 4.232250154942733e+00
 3.119683318960629e-01	 1.707021216808530e+00	 4.144510377913922e+00
 2.968151539702690e-01	 1.709721158292805e+00	 4.061992631674425e+00
 4.504257152894688e-01	 1.681907303253088e+00	 5.087515116156183e+00
 4.351324760562619e-01	 1.685928595762956e+00	 4.979394378963674e+00
 4.198412876721777e-01	 1.689801406939842e+00	 4.871479729382222e+00
 4.045541524048775e-01	 1.693526332686350e+00	 4.764573753382665e+00
 3.892730514287514e-01	 1.697104001869495e+00	 4.659427629573409e+00
 3.739999442234173e-01	 1.700535075630898e+00	 4.556737651648267e+00
 3.587367679955555e-01	 1.703820246686313e+00	 4.457142280205037e+00
 3.434854371241889e-01	 1.706960238615331e+00	 4.361219712499180e+00
 3.282478426294962e-01	 1.709955805142106e+00	 4.269485956900176e+00
 3.130258516652021e-01	 1.712807729407880e+00	 4.182393397197043e+00
 2.978213070345749e-01	 1.715516823236170e+00	 4.100329830378763e+00
 4.519474237870682e-01	 1.687589422520835e+00	 5.118200720795760e+00
 4.366025182051006e-01	 1.691624300478371e+00	 5.010793054048907e+00
 4.212596704008001e-01	 1.695510195476802e+00	 4.903829114251925e+00
 4.059208894062453e-01	 1.699247705431911e+00	 4.798054465391772e+00
 3.905881630889836e-01	 1.702837461335270e+00	 4.694160992250504e+00
 3.752634575484964e-01	 1.706280126562083e+00	 4.592783499758839e+00
 3.599487165360810e-01	 1.709576396168361e+00	 4.494496849986956e+00
 3.446458608982572e-01	 1.712726996178221e+00	 4.399813624898735e+00
 3.293567880437848e-01	 1.715732682862180e+00	 4.309182301193596e+00
 3.140833714343416e-01	 1.718594242007232e+00	 4.222985921904757e+00
 2.988274600988809e-01	 1.721312488179535e+00	 4.141541247896339e+00
 4.534691322846680e-01	 1.693271541788582e+00	 5.148605078810703e+00
 4.380725603539393e-01	 1.697320005193786e+00	 5.042184014214270e+00
 4.226780531294221e-01	 1.701218984013760e+00	 4.936502609588218e+00
 4.072876264076131e-01	 1.704969078177473e+00	 4.832231639822597e+00
 3.919032747492159e-01	 1.708570920801045e+00	 4.729985840095443e+00
 3.765269708735755e-01	 1.712025177493269e+00	 4.630320607327501e+00
 3.611606650766065e-01	 1.715332545650410e+00	 4.533729247198947e+00
 3.458062846723253e-01	 1.718493753741111e+00	 4.440640754391209e+00
 3.304657334580737e-01	 1.721509560582255e+00	 4.351418111893944e+00
 3.151408912034805e-01	 1.724380754606582e+00	 4.266357093542480e+00
 2.998336131631869e-01	 1.727108153122902e+00	 4.185685552418180e+00
 4.549908407822674e-01	 1.698953661056329e+00	 5.178837637191909e+00
 4.395426025027780e-01	 1.703015709909201e+00	 5.073679229240918e+00
 4.240964358580444e-01	 1.706927772550719e+00	 4.969612498866548e+00
 4.086543634089808e-01	 1.710690450923035e+00	 4.867215859882909e+00
 3.932183864094481e-01	 1.714304380266821e+00	 4.767009236442192e+00
 3.777904841986547e-01	 1.717770228424454e+00	 4.669450891657899e+00
 3.623726136171319e-01	 1.721088695132458e+00	 4.574934809378378e+00
 3.469667084463935e-01	 1.724260511304000e+00	 4.483788616278707e+00
 3.315746788723625e-01	 1.727286438302329e+00	 4.396272029595469e+00
 3.161984109726197e-01	 1.730167267205933e+00	 4.312575814140678e+00
 3.008397662274930e-01	 1.732903818066267e+00	 4.232821230681932e+00
 4.565125492798670e-01	 1.704635780324076e+00	 5.209008025900081e+00
 4.410126446516167e-01	 1.708711414624617e+00	 5.105390694152939e+00
 4.255148185866667e-01	 1.712636561087678e+00	 5.003270966901563e+00
 4.100211004103488e-01	 1.716411823668597e+00	 4.903117517529293e+00
 3.945334980696803e-01	 1.720037839732595e+00	 4.805337989588726e+00
 3.790539975237338e-01	 1.723515279355640e+00	 4.710275977531425e+00
 3.635845621576576e-01	 1.726844844614506e+00	 4.618208567843752e+00
 3.481271322204617e-01	 1.730027268866890e+00	 4.529344427233484e+00
 3.326836242866514e-01	 1.733063316022404e+00	 4.443822422640784e+00
 3.172559307417590e-01	 1.735953779805284e+00	 4.361710756152745e+00
 3.018459192917990e-01	 1.738699483009632e+00	 4.283006596332685e+00
 2.917843886487391e-01	 1.680742833575978e+00	 3.911352742104316e+00
 2.769069180800846e-01	 1.683257900856406e+00	 3.833666211441570e+00
 2.620500777496724e-01	 1.685634705037695e+00	 3.759568974294827e+00
 2.472155989218642e-01	 1.687874121410074e+00	 3.689429893950055e+00
 2.324051873380786e-01	 1.689977050428342e+00	 3.623559757054618e+00
 2.176205228575763e-01	 1.691944416967449e+00	 3.562212087804573e+00
 2.028632591209276e-01	 1.693777169575432e+00	 3.505584283497027e+00
 1.881350232360055e-01	 1.695476279724406e+00	 3.453819051052727e+00
 1.734374154863163e-01	 1.697042741060328e+00	 3.407006123748550e+00
 1.587720090614630e-01	 1.698477568652207e+00	 3.365184237111920e+00
 1.441403498095156e-01	 1.699781798241443e+00	 3.328343342766166e+00
 2.927905417130450e-01	 1.686538498519343e+00	 3.936205827545928e+00
 2.778617695217402e-01	 1.689062238445566e+00	 3.858213208821664e+00
 2.629536987074298e-01	 1.691447238503342e+00	 3.784003608162390e+00
 2.480680665043534e-01	 1.693694377001143e+00	 3.713932171299193e+00
 2.332065845357962e-01	 1.695804557498784e+00	 3.648294147678832e+00
 2.183709384536369e-01	 1.697778708060440e+00	 3.587325773385241e+00
 2.035627876006549e-01	 1.699617780505002e+00	 3.531205480771899e+00
 1.887837646954400e-01	 1.701322749654490e+00	 3.480055413954410e+00
 1.740354755397174e-01	 1.702894612581225e+00	 3.433943228943085e+00
 1.593194987478819e-01	 1.704334387854455e+00	 3.392884156909200e+00
 1.446373854985139e-01	 1.705643114787103e+00	 3.356843308919267e+00
 2.937966947773510e-01	 1.692334163462708e+00	 3.963636764293511e+00
 2.788166209633957e-01	 1.694866576034727e+00	 3.885460215484736e+00
 2.638573196651874e-01	 1.697259771968989e+00	 3.811170537163828e+00
 2.489205340868425e-01	 1.699514632592212e+00	 3.741121977497134e+00
 2.340079817335137e-01	 1.701632064569227e+00	 3.675606973939773e+00
 2.191213540496975e-01	 1.703612999153431e+00	 3.614857091424147e+00
 2.042623160803822e-01	 1.705458391434572e+00	 3.559044293110458e+00
 1.894325061548745e-01	 1.707169219584574e+00	 3.508282522411357e+00
 1.746335355931185e-01	 1.708746484102123e+00	 3.462629574605458e+00
 1.598669884343007e-01	 1.710191207056705e+00	 3.422089236076625e+00
 1.451344211875123e-01	 1.711504431332764e+00	 3.386613669057755e+00
 2.948028478416571e-01	 1.698129828406074e+00	 3.993705259288483e+00
 2.797714724050511e-01	 1.700670913623886e+00	 3.915456507221870e+00
 2.647609406229449e-01	 1.703072305434637e+00	 3.841109860774321e+00
 2.497730016693316e-01	 1.705334888183281e+00	 3.771031359738005e+00
 2.348093789312312e-01	 1.707459571639669e+00	 3.705523224267263e+00
 2.198717696457581e-01	 1.709447290246422e+00	 3.644824834951848e+00
 2.049618445601096e-01	 1.711299002364143e+00	 3.589114051825018e+00
 1.900812476143090e-01	 1.713015689514659e+00	 3.538508850573690e+00
 1.752315956465196e-01	 1.714598355623022e+00	 3.493069253798541e+00
 1.604144781207196e-01	 1.716048026258953e+00	 3.452799534917786e+00
 1.456314568765106e-01	 1.717365747878424e+00	 3.417650672127156e+00
 2.958090009059630e-01	 1.703925493349439e+00	 4.026470793601233e+00
 2.807263238467066e-01	 1.706475251213046e+00	 3.948251199945031e+00
 2.656645615807023e-01	 1.708884838900284e+00	 3.873861572196859e+00
 2.506254692518209e-01	 1.711155143774351e+00	 3.803692301930965e+00
 2.356107761289487e-01	 1.713287078710112e+00	 3.738067857919971e+00
 2.206221852418187e-01	 1.715281581339413e+00	 3.677247794805189e+00
 2.056613730398369e-01	 1.717139613293713e+00	 3.621428107597673e+00
 1.907299890737435e-01	 1.718862159444743e+00	 3.570742909808878e+00
 1.758296556999206e-01	 1.720450227143919e+00	 3.525266412624056e+00
 1.609619678071384e-01	 1.721904845461203e+00	 3.485015182241491e+00
 1.461284925655089e-01	 1.723227064424085e+00	 3.449950652340750e+00
 2.968151539702690e-01	 1.709721158292805e+00	 4.061992631674425e+00
 2.816811752883621e-01	 1.712279588802206e+00	 3.983893257272673e+00
 2.665681825384598e-01	 1.714697372365931e+00	 3.909465564534817e+00
 2.514779368343100e-01	 1.716975399365420e+00	 3.839136729669079e+00
 2.364121733266662e-01	 1.719114585780554e+00	 3.773265808931882e+00
 2.213726008378793e-01	 1.721115872432404e+00	 3.712144762705137e+00
 2.063609015195642e-01	 1.722980224223284e+00	 3.655999832805222e+00
 1.913787305331779e-01	 1.724708629374827e+00	 3.604993250372129e+00
 1.764277157533217e-01	 1.726302098664817e+00	 3.559225251300888e+00
 1.615094574935572e-01	 1.727761664663452e+00	 3.518736375878810e+00
 1.466255282545072e-01	 1.729088380969744e+00	 3.483510029138521e+00
 2.978213070345749e-01	 1.715516823236170e+00	 4.100329830378763e+00
 2.826360267300174e-01	 1.718083926391366e+00	 4.022431497965682e+00
 2.674718034962174e-01	 1.720509905831578e+00	 3.947961636838832e+00
 2.523304044167992e-01	 1.722795654956489e+00	 3.877396515097030e+00
 2.372135705243838e-01	 1.724942092850997e+00	 3.811141989981444e+00
 2.221230164339399e-01	 1.726950163525396e+00	 3.749534534270161e+00
 2.070604299992915e-01	 1.728820835152854e+00	 3.692842623801396e+00
 1.920274719926125e-01	 1.730555099304911e+00	 3.641268463043037e+00
 1.770257758067228e-01	 1.732153970185714e+00	 3.594950025218132e+00
 1.620569471799760e-01	 1.733618483865700e+00	 3.553963383188245e+00
 1.471225639435055e-01	 1.734949697515405e+00	 3.518325307149405e+00
 2.988274600988809e-01	 1.721312488179535e+00	 4.141541247896339e+00
 2.835908781716728e-01	 1.723888263980526e+00	 4.063914603214728e+00
 2.683754244539747e-01	 1.726322439297225e+00	 3.989389500039031e+00
 2.531828719992884e-01	 1.728615910547558e+00	 3.918503481684233e+00
 2.380149677221013e-01	 1.730769599921439e+00	 3.851721296181873e+00
 2.228734320300005e-01	 1.732784454618387e+00	 3.789435911972204e+00
 2.077599584790189e-01	 1.734661446082425e+00	 3.731969903150820e+00
 1.926762134520470e-01	 1.736401569234995e+00	 3.679577180728460e+00
 1.776238358601239e-01	 1.738005841706611e+00	 3.632445045969232e+00
 1.626044368663949e-01	 1.739475303067949e+00	 3.590696541552358e+00
 1.476195996325038e-01	 1.740811014061065e+00	 3.554393076154645e+00
 2.998336131631869e-01	 1.727108153122902e+00	 4.185685552418180e+00
 2.845457296133284e-01	 1.729692601569687e+00	 4.108391123782905e+00
 2.692790454117323e-01	 1.732134972762872e+00	 4.033788782751667e+00
 2.540353395817776e-01	 1.734436166138628e+00	 3.962489408905853e+00
 2.388163649198188e-01	 1.736597106991882e+00	 3.895028608797094e+00
 2.236238476260611e-01	 1.738618745711378e+00	 3.831867708031182e+00
 2.084594869587462e-01	 1.740502057011995e+00	 3.773395121820713e+00
 1.933249549114815e-01	 1.742248039165079e+00	 3.719928080037114e+00
 1.782218959135250e-01	 1.743857713227509e+00	 3.671714682364627e+00
 1.631519265528137e-01	 1.745332122270198e+00	 3.628936258861314e+00
 1.481166353215022e-01	 1.746672330606725e+00	 3.591710011049042e+00
 3.008397662274930e-01	 1.732903818066267e+00	 4.232821230681932e+00
 2.855005810549838e-01	 1.735496939158846e+00	 4.155909487010913e+00
 2.701826663694898e-01	 1.737947506228520e+00	 4.081199036982532e+00
 2.548878071642668e-01	 1.740256421729697e+00	 4.009386036826815e+00
 2.396177621175362e-01	 1.742424614062325e+00	 3.941088798885813e+00
 2.243742632221217e-01	 1.744453036804370e+00	 3.876848747256636e+00
 2.091590154384735e-01	 1.746342667941565e+00	 3.817131761330668e+00
 1.939736963709160e-01	 1.748094509095164e+00	 3.762329882820139e+00
 1.788199559669260e-01	 1.749709584748407e+00	 3.712763361426087e+00
 1.636994162392326e-01	 1.751188941472447e+00	 3.668683013991356e+00
 1.486136710105005e-01	 1.752533647152385e+00	 3.630272871806900e+00
 3.018459192917990e-01	 1.738699483009632e+00	 4.283006596332685e+00
 2.864554324966393e-01	 1.741301276748006e+00	 4.206518003681616e+00
 2.710862873272473e-01	 1.743760039694167e+00	 4.131659743707498e+00
 2.557402747467560e-01	 1.746076677320767e+00	 4.059225070600684e+00
 2.404191593152538e-01	 1.748252121132768e+00	 3.989926730874305e+00
 2.251246788181823e-01	 1.750287327897361e+00	 3.924397869831005e+00
 2.098585439182009e-01	 1.752183278871136e+00	 3.863193335855074e+00
 1.946224378303505e-01	 1.753940979025248e+00	 3.806791357683231e+00
 1.794180160203271e-01	 1.755561456269305e+00	 3.755595569360902e+00
 1.642469059256514e-01	 1.757045760674697e+00	 3.709937357271826e+00
 1.491107066994988e-01	 1.758394963698045e+00	 3.670078503446589e+00
 1.441403498095156e-01	 1.699781798241443e+00	 3.328343342766166e+00
 1.295439560110414e-01	 1.700956485491952e+00	 3.296304353360922e+00
 1.149843181745239e-01	 1.702002705241700e+00	 3.268749863211107e+00
 1.004628988528946e-01	 1.702921550756287e+00	 3.245399707784468e+00
 8.598113248086710e-02	 1.703714132985177e+00	 3.225939601705679e+00
 7.154042523276065e-02	 1.704381579821151e+00	 3.210024402067023e+00
 5.714215490047558e-02	 1.704925035363565e+00	 3.197281473957891e+00
 4.278767079127430e-02	 1.705345659185956e+00	 3.187314138476030e+00
 2.847829364500440e-02	 1.705644625608510e+00	 3.179705184054253e+00
 1.421531557038946e-02	 1.705823122975931e+00	 3.174020422495551e+00
 0.000000000000000e+00	 1.705882352941176e+00	 3.169812271780646e+00
 1.446373854985139e-01	 1.705643114787103e+00	 3.356843308919267e+00
 1.299906593076311e-01	 1.706821852683303e+00	 3.325622533476740e+00
 1.153808158234016e-01	 1.707871680087361e+00	 3.298888965023119e+00
 1.008093226420425e-01	 1.708793694034757e+00	 3.276340966699028e+00
 8.627761914459425e-02	 1.709589009305816e+00	 3.257641407624364e+00
 7.178711635425290e-02	 1.710258757682602e+00	 3.242421031380461e+00
 5.733919681392551e-02	 1.710804087209647e+00	 3.230281928043391e+00
 4.293521448365799e-02	 1.711226161459011e+00	 3.220801089640893e+00
 2.857649465757338e-02	 1.711526158800263e+00	 3.213534029443616e+00
 1.426433389994252e-02	 1.711705271675848e+00	 3.208018446118773e+00
 0.000000000000000e+00	 1.711764705882353e+00	 3.203777914427536e+00
 1.451344211875123e-01	 1.711504431332764e+00	 3.386613669057755e+00
 1.304373626042210e-01	 1.712687219874655e+00	 3.355993614478560e+00
 1.157773134722793e-01	 1.713740654933022e+00	 3.329880892318432e+00
 1.011557464311904e-01	 1.714665837313227e+00	 3.307952447673144e+00
 8.657410580832134e-02	 1.715463885626454e+00	 3.289848373897015e+00
 7.203380747574520e-02	 1.716135935544055e+00	 3.275175386479913e+00
 5.753623872737541e-02	 1.716683139055728e+00	 3.263510401819970e+00
 4.308275817604170e-02	 1.717106663732066e+00	 3.254404200347966e+00
 2.867469567014236e-02	 1.717407691992017e+00	 3.247385154009561e+00
 1.431335222949559e-02	 1.717587420375765e+00	 3.241962998750045e+00
 0.000000000000000e+00	 1.717647058823529e+00	 3.237632633305626e+00
 1.456314568765106e-01	 1.717365747878424e+00	 3.417650672127156e+00
 1.308840659008108e-01	 1.718552587066007e+00	 3.387410486315950e+00
 1.161738111211569e-01	 1.719609629778683e+00	 3.361715937309189e+00
 1.015021702203383e-01	 1.720537980591697e+00	 3.340222596628818e+00
 8.687059247204849e-02	 1.721338761947093e+00	 3.322547841205594e+00
 7.228049859723748e-02	 1.722013113405507e+00	 3.308274432905648e+00
 5.773328064082534e-02	 1.722562190901809e+00	 3.296954204303602e+00
 4.323030186842541e-02	 1.722987166005121e+00	 3.288111829730526e+00
 2.877289668271134e-02	 1.723289225183770e+00	 3.281248661199790e+00
 1.436237055904866e-02	 1.723469569075682e+00	 3.275846609467753e+00
 0.000000000000000e+00	 1.723529411764706e+00	 3.271372051150462e+00
 1.461284925655089e-01	 1.723227064424085e+00	 3.449950652340750e+00
 1.313307691974005e-01	 1.724417954257359e+00	 3.419866139037117e+00
 1.165703087700346e-01	 1.725478604624344e+00	 3.394384500911607e+00
 1.018485940094862e-01	 1.726410123870167e+00	 3.373139970614749e+00
 8.716707913577561e-02	 1.727213638267731e+00	 3.355727257636250e+00
 7.252718971872973e-02	 1.727890291266959e+00	 3.341705233777280e+00
 5.793032255427525e-02	 1.728441242747891e+00	 3.330600726208795e+00
 4.337784556080911e-02	 1.728867668278176e+00	 3.321912396730373e+00
 2.887109769528031e-02	 1.729170758375524e+00	 3.315114686424322e+00
 1.441138888860172e-02	 1.729351717775599e+00	 3.309661805559787e+00
 0.000000000000000e+00	 1.729411764705882e+00	 3.304991749300689e+00
 1.466255282545072e-01	 1.729088380969744e+00	 3.483510029138521e+00
 1.317774724939904e-01	 1.730283321448710e+00	 3.453353662248517e+00
 1.169668064189123e-01	 1.731347579470005e+00	 3.427877091844926e+00
 1.021950177986341e-01	 1.732282267148637e+00	 3.406693236666444e+00
 8.746356579950272e-02	 1.733088514588369e+00	 3.389374177431957e+00
 7.277388084022203e-02	 1.733767469128412e+00	 3.375454948565480e+00
 5.812736446772516e-02	 1.734320294593972e+00	 3.364437438864221e+00
 4.352538925319283e-02	 1.734748170551231e+00	 3.355794379281902e+00
 2.896929870784930e-02	 1.735052291567277e+00	 3.348973396623503e+00
 1.446040721815479e-02	 1.735233866475516e+00	 3.343401112596471e+00
 0.000000000000000e+00	 1.735294117647058e+00	 3.338487268399455e+00
 1.471225639435055e-01	 1.734949697515405e+00	 3.518325307149405e+00
 1.322241757905802e-01	 1.736148688640062e+00	 3.487866244596027e+00
 1.173633040677900e-01	 1.737216554315666e+00	 3.462184325747132e+00
 1.025414415877820e-01	 1.738154410427107e+00	 3.440871170695151e+00
 8.776005246322986e-02	 1.738963390909008e+00	 3.423476259774348e+00
 7.302057196171430e-02	 1.739644646989864e+00	 3.409510831892798e+00
 5.832440638117507e-02	 1.740199346440053e+00	 3.398451893152892e+00
 4.367293294557652e-02	 1.740628672824286e+00	 3.389746313511059e+00
 2.906749972041827e-02	 1.740933824759031e+00	 3.382814989849441e+00
 1.450942554770786e-02	 1.741116015175433e+00	 3.377057054510132e+00
 0.000000000000000e+00	 1.741176470588235e+00	 3.371854109081019e+00
 1.476195996325038e-01	 1.740811014061065e+00	 3.554393076154645e+00
 1.326708790871699e-01	 1.742014055831413e+00	 3.523397173244278e+00
 1.177598017166676e-01	 1.743085529161327e+00	 3.497296924311942e+00
 1.028878653769299e-01	 1.744026553705577e+00	 3.475662656395886e+00
 8.805653912695699e-02	 1.744838267229647e+00	 3.458021267590613e+00
 7.326726308320657e-02	 1.745521824851316e+00	 3.443860232356938e+00
 5.852144829462498e-02	 1.746078398286134e+00	 3.432631718474648e+00
 4.382047663796023e-02	 1.746509175097341e+00	 3.423756792952725e+00
 2.916570073298726e-02	 1.746815357950784e+00	 3.416629694853962e+00
 1.455844387726092e-02	 1.746998163875350e+00	 3.410622153667709e+00
 0.000000000000000e+00	 1.747058823529412e+00	 3.405087732645967e+00
 1.481166353215022e-01	 1.746672330606725e+00	 3.591710011049042e+00
 1.331175823837597e-01	 1.747879423022765e+00	 3.559939833379453e+00
 1.181562993655453e-01	 1.748954504006988e+00	 3.533205714440663e+00
 1.032342891660779e-01	 1.749898696984046e+00	 3.511056684178234e+00
 8.835302579068413e-02	 1.750713143550285e+00	 3.492997066380990e+00
 7.351395420469885e-02	 1.751399002712768e+00	 3.478490591376361e+00
 5.871849020807489e-02	 1.751957450132215e+00	 3.466964621723029e+00
 4.396802033034392e-02	 1.752389677370396e+00	 3.457814467781655e+00
 2.926390174555624e-02	 1.752696891142537e+00	 3.450407770684696e+00
 1.460746220681399e-02	 1.752880312575267e+00	 3.444088930945068e+00
 0.000000000000000e+00	 1.752941176470588e+00	 3.438183561719266e+00
 1.486136710105005e-01	 1.752533647152385e+00	 3.630272871806900e+00
 1.335642856803495e-01	 1.753744790214116e+00	 3.597487707711619e+00
 1.185527970144229e-01	 1.754823478852649e+00	 3.569901627412167e+00
 1.035807129552257e-01	 1.755770840262517e+00	 3.547042350119117e+00
 8.864951245441123e-02	 1.756588019870923e+00	 3.528391623072583e+00
 7.376064532619113e-02	 1.757276180574221e+00	 3.513389442061005e+00
 5.891553212152481e-02	 1.757836501978297e+00	 3.501438386292845e+00
 4.411556402272762e-02	 1.758270179643451e+00	 3.491908044060812e+00
 2.936210275812522e-02	 1.758578424334291e+00	 3.484139506288521e+00
 1.465648053636705e-02	 1.758762461275184e+00	 3.477449905796706e+00
 0.000000000000000e+00	 1.758823529411764e+00	 3.471136980898863e+00
 1.491107066994988e-01	 1.758394963698045e+00	 3.670078503446589e+00
 1.340109889769393e-01	 1.759610157405468e+00	 3.636034375993097e+00
 1.189492946633006e-01	 1.760692453698310e+00	 3.607375698071116e+00
 1.039271367443737e-01	 1.761642983540987e+00	 3.583608854937034e+00
 8.894599911813837e-02	 1.762462896191562e+00	 3.564193004895664e+00
 7.400733644768340e-02	 1.763153358435672e+00	 3.548544408105833e+00
 5.911257403497474e-02	 1.763715553824378e+00	 3.536040871099690e+00
 4.426310771511133e-02	 1.764150681916506e+00	 3.526026283003415e+00
 2.946030377069420e-02	 1.764459957526045e+00	 3.517815220125801e+00
 1.470549886592013e-02	 1.764644609975101e+00	 3.510697596327345e+00
 0.000000000000000e+00	 1.764705882352941e+00	 3.503943337387836e+00
 1.764705882352941e+00	 0.000000000000000e+00	 1.330437647112987e+01
 1.764644609975101e+00	 1.470549886591962e-02	 1.329780648067272e+01
 1.764459957526044e+00	 2.946030377069376e-02	 1.329392297267114e+01
 1.764150681916506e+00	 4.426310771511095e-02	 1.329223230010268e+01
 1.763715553824378e+00	 5.911257403497437e-02	 1.329229154494762e+01
 1.763153358435672e+00	 7.400733644768312e-02	 1.329370929250962e+01
 1.762462896191562e+00	 8.894599911813812e-02	 1.329614642359932e+01
 1.761642983540987e+00	 1.039271367443735e-01	 1.329931693689862e+01
 1.760692453698310e+00	 1.189492946633005e-01	 1.330298881365118e+01
 1.759610157405468e+00	 1.340109889769392e-01	 1.330698493650360e+01
 1.758394963698045e+00	 1.491107066994988e-01	 1.331118407385770e+01
 1.770588235294118e+00	 0.000000000000000e+00	 1.327305389021398e+01
 1.770526758675018e+00	 1.475451719547269e-02	 1.326667182026781e+01
 1.770341490717798e+00	 2.955850478326273e-02	 1.326298773294389e+01
 1.770031184189561e+00	 4.441065140749465e-02	 1.326151501027740e+01
 1.769594605670459e+00	 5.930961594842430e-02	 1.326181020978334e+01
 1.769030536297125e+00	 7.425402756917539e-02	 1.326347350644125e+01
 1.768337772512201e+00	 8.924248578186522e-02	 1.326614926207364e+01
 1.767515126819456e+00	 1.042735605335214e-01	 1.326952673179873e+01
 1.766561428543971e+00	 1.193457923121781e-01	 1.327334091755864e+01
 1.765475524596819e+00	 1.344576922735290e-01	 1.327737357904573e+01
 1.764256280243705e+00	 1.496077423884971e-01	 1.328146816428665e+01
 1.776470588235294e+00	 0.000000000000000e+00	 1.324211186378337e+01
 1.776408907374935e+00	 1.480353552502575e-02	 1.323592129536138e+01
 1.776223023909552e+00	 2.965670579583171e-02	 1.323243320658235e+01
 1.775911686462616e+00	 4.455819509987836e-02	 1.323117743005702e+01
 1.775473657516540e+00	 5.950665786187422e-02	 1.323172616436573e+01
 1.774907714158577e+00	 7.450071869066767e-02	 1.323369437440949e+01
 1.774212648832840e+00	 8.953897244559238e-02	 1.323674031967985e+01
 1.773387270097927e+00	 1.046199843226693e-01	 1.324056622020720e+01
 1.772430403389632e+00	 1.197422899610558e-01	 1.324491907027678e+01
 1.771340891788171e+00	 1.349043955701188e-01	 1.324959161033508e+01
 1.770117596789365e+00	 1.501047780774954e-01	 1.325442346783865e+01
 1.782352941176470e+00	 0.000000000000000e+00	 1.321150909861506e+01
 1.782291056074852e+00	 1.485255385457882e-02	 1.320551299226301e+01
 1.782104557101305e+00	 2.975490680840069e-02	 1.320221446568456e+01
 1.781792188735671e+00	 4.470573879226206e-02	 1.320115994696656e+01
 1.781352709362622e+00	 5.970369977532414e-02	 1.320193750239070e+01
 1.780784892020030e+00	 7.474740981215995e-02	 1.320417719709493e+01
 1.780087525153478e+00	 8.983545910931950e-02	 1.320755158408962e+01
 1.779259413376396e+00	 1.049664081118172e-01	 1.321177633145860e+01
 1.778299378235294e+00	 1.201387876099335e-01	 1.321661099791720e+01
 1.777206258979523e+00	 1.353510988667087e-01	 1.322185996724042e+01
 1.775978913335025e+00	 1.506018137664938e-01	 1.322737355241896e+01
 1.788235294117647e+00	 0.000000000000000e+00	 1.318120494711111e+01
 1.788173204774769e+00	 1.490157218413188e-02	 1.317540593504254e+01
 1.787986090293058e+00	 2.985310782096966e-02	 1.317229129270213e+01
 1.787672691008726e+00	 4.485328248464576e-02	 1.317142418922570e+01
 1.787231761208703e+00	 5.990074168877405e-02	 1.317240878554807e+01
 1.786662069881481e+00	 7.499410093365222e-02	 1.317489055731811e+01
 1.785962401474116e+00	 9.013194577304666e-02	 1.317855674651241e+01
 1.785131556654866e+00	 1.053128319009651e-01	 1.318313695164536e+01
 1.784168353080954e+00	 1.205352852588111e-01	 1.318840386681837e+01
 1.783071626170874e+00	 1.357978021632984e-01	 1.319417418020816e+01
 1.781840229880686e+00	 1.510988494554921e-01	 1.320030964294936e+01
 1.794117647058823e+00	 0.000000000000000e+00	 1.315115939671429e+01
 1.794055353474686e+00	 1.495059051368495e-02	 1.314555982984820e+01
 1.793867623484812e+00	 2.995130883353864e-02	 1.314262418356849e+01
 1.793553193281781e+00	 4.500082617702945e-02	 1.314193251422956e+01
 1.793110813054784e+00	 6.009778360222397e-02	 1.314310530462481e+01
 1.792539247742934e+00	 7.524079205514449e-02	 1.314580375109613e+01
 1.791837277794754e+00	 9.042843243677373e-02	 1.314973017959801e+01
 1.791003699933336e+00	 1.056592556901131e-01	 1.315462860066758e+01
 1.790037327926615e+00	 1.209317829076888e-01	 1.316028541361261e+01
 1.788936993362226e+00	 1.362445054598883e-01	 1.316653027059364e+01
 1.787701546426345e+00	 1.515958851444905e-01	 1.317323711164637e+01
 1.800000000000000e+00	 0.000000000000000e+00	 1.312133305953181e+01
 1.799937502174602e+00	 1.499960884323801e-02	 1.311593505426246e+01
 1.799749156676566e+00	 3.004950984610763e-02	 1.311317433697832e+01
 1.799433695554836e+00	 4.514836986941317e-02	 1.311264799794283e+01
 1.798989864900865e+00	 6.029482551567387e-02	 1.311399306920362e+01
 1.798416425604386e+00	 7.548748317663678e-02	 1.311688677783866e+01
 1.797712154115393e+00	 9.072491910050089e-02	 1.312104692832014e+01
 1.796875843211806e+00	 1.060056794792609e-01	 1.312623242399584e+01
 1.795906302772276e+00	 1.213282805565665e-01	 1.313224393805894e+01
 1.794802360553577e+00	 1.366912087564781e-01	 1.313892474475428e+01
 1.793562862972006e+00	 1.520929208334888e-01	 1.314616172194929e+01
 1.805882352941176e+00	 0.000000000000000e+00	 1.309168716216156e+01
 1.805819650874520e+00	 1.504862717279108e-02	 1.308649264686603e+01
 1.805630689868319e+00	 3.014771085867661e-02	 1.308390364387553e+01
 1.805314197827891e+00	 4.529591356179688e-02	 1.308353442449807e+01
 1.804868916746946e+00	 6.049186742912378e-02	 1.308503879755921e+01
 1.804293603465838e+00	 7.573417429812906e-02	 1.308811033072781e+01
 1.803587030436032e+00	 9.102140576422803e-02	 1.309248270102795e+01
 1.802747986490276e+00	 1.063521032684089e-01	 1.309793018458060e+01
 1.801775277617937e+00	 1.217247782054442e-01	 1.310426829599695e+01
 1.800667727744929e+00	 1.371379120530678e-01	 1.311135458823460e+01
 1.799424179517666e+00	 1.525899565224871e-01	 1.311908962412173e+01
 1.811764705882352e+00	 0.000000000000000e+00	 1.306218353571659e+01
 1.811701799574437e+00	 1.509764550234414e-02	 1.305719429700453e+01
 1.811512223060072e+00	 3.024591187124558e-02	 1.305477467714457e+01
 1.811194700100945e+00	 4.544345725418056e-02	 1.305455627599394e+01
 1.810747968593028e+00	 6.068890934257370e-02	 1.305620990674642e+01
 1.810170781327290e+00	 7.598086541962136e-02	 1.305944578727883e+01
 1.809461906756670e+00	 9.131789242795513e-02	 1.306401386066093e+01
 1.808620129768746e+00	 1.066985270575568e-01	 1.306970425490434e+01
 1.807644252463598e+00	 1.221212758543218e-01	 1.307634789241853e+01
 1.806533094936280e+00	 1.375846153496576e-01	 1.308381726004006e+01
 1.805285496063326e+00	 1.530869922114855e-01	 1.309202735090933e+01
 1.817647058823529e+00	 0.000000000000000e+00	 1.303278460604334e+01
 1.817583948274354e+00	 1.514666383189721e-02	 1.302800233475391e+01
 1.817393756251826e+00	 3.034411288381457e-02	 1.302575068150081e+01
 1.817075202374001e+00	 4.559100094656428e-02	 1.302567872248944e+01
 1.816627020439109e+00	 6.088595125602363e-02	 1.302747450287550e+01
 1.816047959188742e+00	 7.622755654111363e-02	 1.303086520007575e+01
 1.815336783077309e+00	 9.161437909168228e-02	 1.303561741612375e+01
 1.814492273047216e+00	 1.070449508467047e-01	 1.304153760917383e+01
 1.813513227309259e+00	 1.225177735031995e-01	 1.304847267465581e+01
 1.812398462127631e+00	 1.380313186462474e-01	 1.305631068699792e+01
 1.811146812608986e+00	 1.535840279004838e-01	 1.306498181325191e+01
 1.823529411764706e+00	 0.000000000000000e+00	 1.300345338412921e+01
 1.823466096974271e+00	 1.519568216145028e-02	 1.299887972107962e+01
 1.823275289443580e+00	 3.044231389638356e-02	 1.299679556357552e+01
 1.822955704647056e+00	 4.573854463894797e-02	 1.299686761218849e+01
 1.822506072285190e+00	 6.108299316947356e-02	 1.299880137157194e+01
 1.821925137050195e+00	 7.647424766260592e-02	 1.300234128767969e+01
 1.821211659397947e+00	 9.191086575540944e-02	 1.300727101381788e+01
 1.820364416325686e+00	 1.073913746358526e-01	 1.301341381564885e+01
 1.819382202154921e+00	 1.229142711520772e-01	 1.302063312568147e+01
 1.818263829318984e+00	 1.384780219428373e-01	 1.302883325820379e+01
 1.817008129154646e+00	 1.540810635894821e-01	 1.303796029604920e+01
 1.758394963698045e+00	 1.491107066994988e-01	 1.331118407385770e+01
 1.757045760674697e+00	 1.642469059256509e-01	 1.331519739953085e+01
 1.755561456269305e+00	 1.794180160203266e-01	 1.331873565950792e+01
 1.753940979025248e+00	 1.946224378303501e-01	 1.332191431442472e+01
 1.752183278871136e+00	 2.098585439182005e-01	 1.332490955256831e+01
 1.750287327897361e+00	 2.251246788181820e-01	 1.332795963655669e+01
 1.748252121132767e+00	 2.404191593152536e-01	 1.333136636225842e+01
 1.746076677320766e+00	 2.557402747467558e-01	 1.333549663365887e+01
 1.743760039694167e+00	 2.710862873272472e-01	 1.334078415562482e+01
 1.741301276748006e+00	 2.864554324966393e-01	 1.334773124460057e+01
 1.738699483009632e+00	 3.018459192917989e-01	 1.335691075520145e+01
 1.764256280243705e+00	 1.496077423884971e-01	 1.328146816428665e+01
 1.762902579876946e+00	 1.647943956120697e-01	 1.328535009560318e+01
 1.761413327790202e+00	 1.800160760737278e-01	 1.328877055162539e+01
 1.759787448955332e+00	 1.952711792897845e-01	 1.329185192799315e+01
 1.758023889800707e+00	 2.105580723979278e-01	 1.329477511527903e+01
 1.756121618990352e+00	 2.258750944142427e-01	 1.329778079156088e+01
 1.754079628203209e+00	 2.412205565129711e-01	 1.330117083728699e+01
 1.751896932911835e+00	 2.565927423292451e-01	 1.330530987667580e+01
 1.749572573159814e+00	 2.719899082850047e-01	 1.331062694809049e+01
 1.747105614337166e+00	 2.874102839382948e-01	 1.331761730386417e+01
 1.744495147952998e+00	 3.028520723561048e-01	 1.332684433792824e+01
 1.770117596789365e+00	 1.501047780774954e-01	 1.325442346783865e+01
 1.768759399079194e+00	 1.653418852984885e-01	 1.325895189900441e+01
 1.767265199311100e+00	 1.806141361271288e-01	 1.326280406563199e+01
 1.765633918885416e+00	 1.959199207492191e-01	 1.326602706225458e+01
 1.763864500730277e+00	 2.112576008776551e-01	 1.326876577514271e+01
 1.761955910083343e+00	 2.266255100103032e-01	 1.327153211239901e+01
 1.759907135273652e+00	 2.420219537106886e-01	 1.327468655674822e+01
 1.757717188502905e+00	 2.574452099117343e-01	 1.327859200962004e+01
 1.755385106625462e+00	 2.728935292427622e-01	 1.328367341041083e+01
 1.752909951926327e+00	 2.883651353799502e-01	 1.329041952611226e+01
 1.750290812896363e+00	 3.038582254204108e-01	 1.329938488088189e+01
 1.775978913335025e+00	 1.506018137664938e-01	 1.322737355241896e+01
 1.774616218281444e+00	 1.658893749849074e-01	 1.323267288000525e+01
 1.773117070831999e+00	 1.812121961805299e-01	 1.323736673062528e+01
 1.771480388815500e+00	 1.965686622086536e-01	 1.324150677408184e+01
 1.769705111659848e+00	 2.119571293573826e-01	 1.324519229727497e+01
 1.767790201176334e+00	 2.273759256063638e-01	 1.324857212400899e+01
 1.765734642344095e+00	 2.428233509084062e-01	 1.325184677749096e+01
 1.763537444093974e+00	 2.582976774942234e-01	 1.325536034728415e+01
 1.761197640091109e+00	 2.737971502005196e-01	 1.325995605844746e+01
 1.758714289515486e+00	 2.893199868216057e-01	 1.326618657907419e+01
 1.756086477839729e+00	 3.048643784847169e-01	 1.327459814305948e+01
 1.781840229880686e+00	 1.510988494554921e-01	 1.320030964294936e+01
 1.780473037483693e+00	 1.664368646713261e-01	 1.320630729127057e+01
 1.778968942352896e+00	 1.818102562339310e-01	 1.321174927704010e+01
 1.777326858745585e+00	 1.972174036680881e-01	 1.321669227215969e+01
 1.775545722589418e+00	 2.126566578371098e-01	 1.322123790218033e+01
 1.773624492269325e+00	 2.281263412024244e-01	 1.322553460220121e+01
 1.771562149414538e+00	 2.436247481061237e-01	 1.322977971834647e+01
 1.769357699685043e+00	 2.591501450767125e-01	 1.323422186849097e+01
 1.767010173556756e+00	 2.747007711582772e-01	 1.323916357616209e+01
 1.764518627104646e+00	 2.902748382632612e-01	 1.324496643863154e+01
 1.761882142783094e+00	 3.058705315490229e-01	 1.325254909249651e+01
 1.787701546426345e+00	 1.515958851444905e-01	 1.317323711164637e+01
 1.786329856685941e+00	 1.669843543577450e-01	 1.317987071981744e+01
 1.784820813873793e+00	 1.824083162873321e-01	 1.318597817051036e+01
 1.783173328675668e+00	 1.978661451275225e-01	 1.319162156546603e+01
 1.781386333518988e+00	 2.133561863168372e-01	 1.319690534373166e+01
 1.779458783362317e+00	 2.288767567984851e-01	 1.320197807396920e+01
 1.777389656484980e+00	 2.444261453038411e-01	 1.320703449512907e+01
 1.775177955276112e+00	 2.600026126592018e-01	 1.321231781944785e+01
 1.772822707022403e+00	 2.756043921160347e-01	 1.321812231200564e+01
 1.770322964693806e+00	 2.912296897049165e-01	 1.322479616131825e+01
 1.767677807726459e+00	 3.068766846133289e-01	 1.323274465564028e+01
 1.793562862972006e+00	 1.520929208334888e-01	 1.314616172194929e+01
 1.792186675888191e+00	 1.675318440441639e-01	 1.315337903710585e+01
 1.790672685394691e+00	 1.830063763407332e-01	 1.316008004397183e+01
 1.789019798605752e+00	 1.985148865869571e-01	 1.316633270280129e+01
 1.787226944448559e+00	 2.140557147965645e-01	 1.317224474181946e+01
 1.785293074455308e+00	 2.296271723945457e-01	 1.317796538624963e+01
 1.783217163555423e+00	 2.452275425015587e-01	 1.318368733839168e+01
 1.780998210867181e+00	 2.608550802416910e-01	 1.318964902299560e+01
 1.778635240488050e+00	 2.765080130737921e-01	 1.319613711247159e+01
 1.776127302282967e+00	 2.921845411465721e-01	 1.320348934673703e+01
 1.773473472669824e+00	 3.078828376776347e-01	 1.321209766271956e+01
 1.799424179517666e+00	 1.525899565224871e-01	 1.311908962412173e+01
 1.798043495090439e+00	 1.680793337305827e-01	 1.312684839620040e+01
 1.796524556915588e+00	 1.836044363941343e-01	 1.313408169648509e+01
 1.794866268535837e+00	 1.991636280463916e-01	 1.314086377337316e+01
 1.793067555378129e+00	 2.147552432762919e-01	 1.314730612082113e+01
 1.791127365548299e+00	 2.303775879906063e-01	 1.315355914439160e+01
 1.789044670625865e+00	 2.460289396992761e-01	 1.315981408093238e+01
 1.786818466458250e+00	 2.617075478241802e-01	 1.316630518641819e+01
 1.784447773953697e+00	 2.774116340315496e-01	 1.317331220679752e+01
 1.781931639872126e+00	 2.931393925882276e-01	 1.318116314696880e+01
 1.779269137613190e+00	 3.088889907419409e-01	 1.319023735324954e+01
 1.805285496063326e+00	 1.530869922114855e-01	 1.309202735090933e+01
 1.803900314292688e+00	 1.686268234170015e-01	 1.310029522895173e+01
 1.802376428436486e+00	 1.842024964475354e-01	 1.310801009203829e+01
 1.800712738465921e+00	 1.998123695058260e-01	 1.311525290731884e+01
 1.798908166307700e+00	 2.154547717560192e-01	 1.312213941194256e+01
 1.796961656641290e+00	 2.311280035866669e-01	 1.312882171641585e+01
 1.794872177696308e+00	 2.468303368969937e-01	 1.313549016407006e+01
 1.792638722049320e+00	 2.625600154066693e-01	 1.314237546145002e+01
 1.790260307419345e+00	 2.783152549893072e-01	 1.314975109476825e+01
 1.787735977461286e+00	 2.940942440298830e-01	 1.315793604787042e+01
 1.785064802556556e+00	 3.098951438062469e-01	 1.316729783741777e+01
 1.811146812608986e+00	 1.535840279004838e-01	 1.306498181325191e+01
 1.809757133494937e+00	 1.691743131034204e-01	 1.307373624319618e+01
 1.808228299957384e+00	 1.848005565009364e-01	 1.308189235833009e+01
 1.806559208396005e+00	 2.004611109652606e-01	 1.308953827616747e+01
 1.804748777237270e+00	 2.161543002357466e-01	 1.309679445545493e+01
 1.802795947734281e+00	 2.318784191827275e-01	 1.310381523712343e+01
 1.800699684766751e+00	 2.476317340947113e-01	 1.311079064372135e+01
 1.798458977640389e+00	 2.634124829891585e-01	 1.311794845241777e+01
 1.796072840884992e+00	 2.792188759470646e-01	 1.312555655702055e+01
 1.793540315050446e+00	 2.950490954715385e-01	 1.313392563477519e+01
 1.790860467499921e+00	 3.109012968705528e-01	 1.314341213399161e+01
 1.817008129154646e+00	 1.540810635894821e-01	 1.303796029604920e+01
 1.815613952697187e+00	 1.697218027898392e-01	 1.304718841997420e+01
 1.814080171478281e+00	 1.853986165543375e-01	 1.305575578553358e+01
 1.812405678326089e+00	 2.011098524246951e-01	 1.306375809324319e+01
 1.810589388166841e+00	 2.168538287154740e-01	 1.307132100283106e+01
 1.808630238827272e+00	 2.326288347787881e-01	 1.307860161205844e+01
 1.806527191837193e+00	 2.484331312924287e-01	 1.308579019628434e+01
 1.804279233231459e+00	 2.642649505716478e-01	 1.309311222413969e+01
 1.801885374350639e+00	 2.801224969048222e-01	 1.310083066505200e+01
 1.799344652639606e+00	 2.960039469131940e-01	 1.310924860470664e+01
 1.796656132443286e+00	 3.119074499348589e-01	 1.311871218483215e+01
 1.738699483009632e+00	 3.018459192917989e-01	 1.335691075520145e+01
 1.735953779805285e+00	 3.172559307417585e-01	 1.336589616286801e+01
 1.733063316022404e+00	 3.326836242866508e-01	 1.337223489044507e+01
 1.730027268866890e+00	 3.481271322204613e-01	 1.337657911574992e+01
 1.726844844614506e+00	 3.635845621576571e-01	 1.337966887246136e+01
 1.723515279355640e+00	 3.790539975237335e-01	 1.338233478034590e+01
 1.720037839732595e+00	 3.945334980696801e-01	 1.338550082497452e+01
 1.716411823668597e+00	 4.100211004103486e-01	 1.339018716631496e+01
 1.712636561087678e+00	 4.255148185866666e-01	 1.339751295266128e+01
 1.708711414624616e+00	 4.410126446516167e-01	 1.340869911340632e+01
 1.704635780324075e+00	 4.565125492798668e-01	 1.342507110119633e+01
 1.744495147952998e+00	 3.028520723561048e-01	 1.332684433792824e+01
 1.741740292404635e+00	 3.183134505108977e-01	 1.333591644997120e+01
 1.738840193742479e+00	 3.337925697009396e-01	 1.334240640925612e+01
 1.735794026429780e+00	 3.492875559945294e-01	 1.334694125372711e+01
 1.732600994096554e+00	 3.647965106981826e-01	 1.335023661735687e+01
 1.729260330286826e+00	 3.803175108488126e-01	 1.335309959728449e+01
 1.725771299198371e+00	 3.958486097299124e-01	 1.335643168084023e+01
 1.722133196414159e+00	 4.113878374117164e-01	 1.336123171156615e+01
 1.718345349624637e+00	 4.269332013152887e-01	 1.336859887032815e+01
 1.714407119340032e+00	 4.424826868004556e-01	 1.337973564457510e+01
 1.710317899591822e+00	 4.580342577774663e-01	 1.339595075574239e+01
 1.750290812896363e+00	 3.038582254204108e-01	 1.329938488088189e+01
 1.747526805003986e+00	 3.193709702800368e-01	 1.330822880061066e+01
 1.744617071462554e+00	 3.349015151152285e-01	 1.331456823688749e+01
 1.741560783992669e+00	 3.504479797685977e-01	 1.331900962073525e+01
 1.738357143578603e+00	 3.660084592387082e-01	 1.332224828466744e+01
 1.735005381218011e+00	 3.815810241738916e-01	 1.332507145489148e+01
 1.731504758664146e+00	 3.971637213901446e-01	 1.332836131435125e+01
 1.727854569159721e+00	 4.127545744130844e-01	 1.333309811546347e+01
 1.724054138161596e+00	 4.283515840439109e-01	 1.334036331830617e+01
 1.720102824055448e+00	 4.439527289492942e-01	 1.335134272688618e+01
 1.716000018859569e+00	 4.595559662750661e-01	 1.336732959296425e+01
 1.756086477839729e+00	 3.048643784847169e-01	 1.327459814305947e+01
 1.753313317603337e+00	 3.204284900491760e-01	 1.328291443765217e+01
 1.750393949182628e+00	 3.360104605295174e-01	 1.328881282638763e+01
 1.747327541555559e+00	 3.516084035426659e-01	 1.329288359503833e+01
 1.744113293060652e+00	 3.672204077792338e-01	 1.329580580267717e+01
 1.740750432149197e+00	 3.828445374989709e-01	 1.329835038720437e+01
 1.737238218129922e+00	 3.984788330503769e-01	 1.330138335322361e+01
 1.733575941905283e+00	 4.141213114144521e-01	 1.330586902089512e+01
 1.729762926698555e+00	 4.297699667725332e-01	 1.331287331121150e+01
 1.725798528770863e+00	 4.454227710981329e-01	 1.332356703991705e+01
 1.721682138127316e+00	 4.610776747726654e-01	 1.333922918905244e+01
 1.761882142783094e+00	 3.058705315490229e-01	 1.325254909249651e+01
 1.759099830202688e+00	 3.214860098183152e-01	 1.326005372571687e+01
 1.756170826902703e+00	 3.371194059438062e-01	 1.326523177108114e+01
 1.753094299118449e+00	 3.527688273167341e-01	 1.326866176008285e+01
 1.749869442542699e+00	 3.684323563197593e-01	 1.327101043667547e+01
 1.746495483080382e+00	 3.841080508240500e-01	 1.327303596448459e+01
 1.742971677595697e+00	 3.997939447106092e-01	 1.327559122843924e+01
 1.739297314650845e+00	 4.154880484158199e-01	 1.327962720925572e+01
 1.735471715235514e+00	 4.311883495011554e-01	 1.328619640592707e+01
 1.731494233486279e+00	 4.468928132469718e-01	 1.329645627805943e+01
 1.727364257395063e+00	 4.625993832702650e-01	 1.331167267655980e+01
 1.767677807726459e+00	 3.068766846133289e-01	 1.323274465564028e+01
 1.764886342802039e+00	 3.225435295874544e-01	 1.323972417480376e+01
 1.761947704622778e+00	 3.382283513580950e-01	 1.324391584395448e+01
 1.758861056681338e+00	 3.539292510908024e-01	 1.324644194579932e+01
 1.755625592024748e+00	 3.696443048602848e-01	 1.324796283121747e+01
 1.752240534011567e+00	 3.853715641491291e-01	 1.324922733546615e+01
 1.748705137061472e+00	 4.011090563708414e-01	 1.325107821550078e+01
 1.745018687396407e+00	 4.168547854171878e-01	 1.325445563971225e+01
 1.741180503772472e+00	 4.326067322297777e-01	 1.326040073787343e+01
 1.737189938201694e+00	 4.483628553958103e-01	 1.327005918277821e+01
 1.733046376662810e+00	 4.641210917678646e-01	 1.328468477162071e+01
 1.773473472669824e+00	 3.078828376776347e-01	 1.321209766271956e+01
 1.770672855401390e+00	 3.236010493565936e-01	 1.321980069837382e+01
 1.767724582342853e+00	 3.393372967723839e-01	 1.322439598689685e+01
 1.764627814244228e+00	 3.550896748648704e-01	 1.322632126935329e+01
 1.761381741506796e+00	 3.708562534008103e-01	 1.322676305183717e+01
 1.757985584942752e+00	 3.866350774742082e-01	 1.322702326908156e+01
 1.754438596527248e+00	 4.024241680310738e-01	 1.322793747520685e+01
 1.750740060141969e+00	 4.182215224185555e-01	 1.323043748805436e+01
 1.746889292309431e+00	 4.340251149583998e-01	 1.323555505694893e+01
 1.742885642917109e+00	 4.498328975446491e-01	 1.324442557464475e+01
 1.738728495930557e+00	 4.656428002654642e-01	 1.325829180107089e+01
 1.779269137613190e+00	 3.088889907419409e-01	 1.319023735324954e+01
 1.776459368000741e+00	 3.246585691257328e-01	 1.319845948972235e+01
 1.773501460062927e+00	 3.404462421866727e-01	 1.320371931939424e+01
 1.770394571807117e+00	 3.562500986389388e-01	 1.320644678419073e+01
 1.767137890988844e+00	 3.720682019413358e-01	 1.320715916169650e+01
 1.763730635873939e+00	 3.878985907992874e-01	 1.320652219567555e+01
 1.760172055993023e+00	 4.037392796913060e-01	 1.320626209395810e+01
 1.756461432887531e+00	 4.195882594199235e-01	 1.320765618513875e+01
 1.752598080846391e+00	 4.354434976870220e-01	 1.321172876314572e+01
 1.748581347632525e+00	 4.513029396934878e-01	 1.321960638514902e+01
 1.744410615198304e+00	 4.671645087630637e-01	 1.323252172946921e+01
 1.785064802556556e+00	 3.098951438062469e-01	 1.316729783741777e+01
 1.782245880600092e+00	 3.257160888948720e-01	 1.317584853073208e+01
 1.779278337783002e+00	 3.415551876009615e-01	 1.318157414452869e+01
 1.776161329370007e+00	 3.574105224130069e-01	 1.318490167208067e+01
 1.772894040470893e+00	 3.732801504818614e-01	 1.318634238580551e+01
 1.769475686805124e+00	 3.891621041243664e-01	 1.318649723097498e+01
 1.765905515458798e+00	 4.050543913515383e-01	 1.318606261865769e+01
 1.762182805633093e+00	 4.209549964212912e-01	 1.318619545493618e+01
 1.758306869383349e+00	 4.368618804156443e-01	 1.318899194185034e+01
 1.754277052347940e+00	 4.527729818423265e-01	 1.319565368829635e+01
 1.750092734466051e+00	 4.686862172606633e-01	 1.320740418602471e+01
 1.790860467499921e+00	 3.109012968705528e-01	 1.314341213399161e+01
 1.788032393199442e+00	 3.267736086640112e-01	 1.315211454252528e+01
 1.785055215503076e+00	 3.426641330152503e-01	 1.315811675990869e+01
 1.781928086932897e+00	 3.585709461870752e-01	 1.316184726162388e+01
 1.778650189952941e+00	 3.744920990223869e-01	 1.316381535681876e+01
 1.775220737736309e+00	 3.904256174494455e-01	 1.316461652143674e+01
 1.771638974924573e+00	 4.063695030117706e-01	 1.316493813658805e+01
 1.767904178378655e+00	 4.223217334226591e-01	 1.316556564734181e+01
 1.764015657920308e+00	 4.382802631442664e-01	 1.316741539883495e+01
 1.759972757063355e+00	 4.542430239911652e-01	 1.317262073199365e+01
 1.755774853733797e+00	 4.702079257582628e-01	 1.318297049143010e+01
 1.796656132443286e+00	 3.119074499348589e-01	 1.311871218483215e+01
 1.793818905798794e+00	 3.278311284331504e-01	 1.312740300187363e+01
 1.790832093223151e+00	 3.437730784295393e-01	 1.313350210354050e+01
 1.787694844495787e+00	 3.597313699611434e-01	 1.313744382875485e+01
 1.784406339434990e+00	 3.757040475629125e-01	 1.313973951807032e+01
 1.780965788667494e+00	 3.916891307745246e-01	 1.314098277201122e+01
 1.777372434390349e+00	 4.076846146720030e-01	 1.314185512084545e+01
 1.773625551124217e+00	 4.236884704240270e-01	 1.314313212153887e+01
 1.769724446457268e+00	 4.396986458728888e-01	 1.314568989733806e+01
 1.765668461778771e+00	 4.557130661400040e-01	 1.315051213501251e+01
 1.761456973001545e+00	 4.717296342558625e-01	 1.315925368460459e+01
 1.704635780324075e+00	 4.565125492798668e-01	 1.342507110119633e+01
 1.700409088328102e+00	 4.720124824009042e-01	 1.343945666639998e+01
 1.696030803551146e+00	 4.875103738554964e-01	 1.344521323103689e+01
 1.691500426341732e+00	 5.030041340752693e-01	 1.344464952120523e+01
 1.686817493129954e+00	 5.184916547851552e-01	 1.344022078397197e+01
 1.681981577059936e+00	 5.339708097284372e-01	 1.343453041625943e+01
 1.676992288606406e+00	 5.494394554140775e-01	 1.343033126137041e+01
 1.671849276174566e+00	 5.648954318859821e-01	 1.343052652434227e+01
 1.666552226682390e+00	 5.803365635138283e-01	 1.343817025524370e+01
 1.661100866124553e+00	 5.957606598050360e-01	 1.345429043708462e+01
 1.655494960117154e+00	 6.111655162374392e-01	 1.346769907208302e+01
 1.710317899591822e+00	 4.580342577774663e-01	 1.339595075574239e+01
 1.706077118622529e+00	 4.735858573422406e-01	 1.341016056969728e+01
 1.701684239562983e+00	 4.891354084350148e-01	 1.341582227154099e+01
 1.697138761096204e+00	 5.046808145221868e-01	 1.341524637119053e+01
 1.692440218107055e+00	 5.202199603011056e-01	 1.341089055606642e+01
 1.687588182316803e+00	 5.357507124275322e-01	 1.340536148675037e+01
 1.682582262901761e+00	 5.512709202654579e-01	 1.340141626544285e+01
 1.677422107095148e+00	 5.667784166589355e-01	 1.340196352735031e+01
 1.672107400771331e+00	 5.822710187255410e-01	 1.341006410297324e+01
 1.666637869011635e+00	 5.977465286710528e-01	 1.342562018673632e+01
 1.661013276650878e+00	 6.132027346248973e-01	 1.343810272849651e+01
 1.716000018859569e+00	 4.595559662750661e-01	 1.336732959296425e+01
 1.711745148916957e+00	 4.751592322835769e-01	 1.338132074484018e+01
 1.707337675574820e+00	 4.907604430145331e-01	 1.338685920305920e+01
 1.702777095850677e+00	 5.063574949691045e-01	 1.338624967682975e+01
 1.698062943084154e+00	 5.219482658170561e-01	 1.338194498174513e+01
 1.693194787573669e+00	 5.375306151266268e-01	 1.337654802027293e+01
 1.688172237197116e+00	 5.531023851168380e-01	 1.337281344028617e+01
 1.682994938015731e+00	 5.686614014318888e-01	 1.337364892066475e+01
 1.677662574860273e+00	 5.842054739372540e-01	 1.338211603075077e+01
 1.672174871898717e+00	 5.997323975370694e-01	 1.339683273981841e+01
 1.666531593184601e+00	 6.152399530123555e-01	 1.340842628120102e+01
 1.721682138127316e+00	 4.610776747726654e-01	 1.333922918905244e+01
 1.717413179211384e+00	 4.767326072249132e-01	 1.335293302693339e+01
 1.712991111586658e+00	 4.923854775940515e-01	 1.335829768134480e+01
 1.708415430605150e+00	 5.080341754160221e-01	 1.335761451718086e+01
 1.703685668061254e+00	 5.236765713330067e-01	 1.335332420420778e+01
 1.698801392830535e+00	 5.393105178257217e-01	 1.334801890045340e+01
 1.693762211492471e+00	 5.549338499682183e-01	 1.334444411896693e+01
 1.688567768936312e+00	 5.705443862048420e-01	 1.334550022583455e+01
 1.683217748949214e+00	 5.861399291489664e-01	 1.335424351500342e+01
 1.677711874785798e+00	 6.017182664030860e-01	 1.336788920757828e+01
 1.672049909718326e+00	 6.172771713998134e-01	 1.337863630339910e+01
 1.727364257395063e+00	 4.625993832702650e-01	 1.331167267655980e+01
 1.723081209505810e+00	 4.783059821662495e-01	 1.332499536301413e+01
 1.718644547598495e+00	 4.940105121735699e-01	 1.333011398776440e+01
 1.714053765359622e+00	 5.097108558629395e-01	 1.332929906748463e+01
 1.709308393038354e+00	 5.254048768489572e-01	 1.332497188908431e+01
 1.704407998087402e+00	 5.410904205248167e-01	 1.331970691407541e+01
 1.699352185787826e+00	 5.567653148195985e-01	 1.331623387173116e+01
 1.694140599856894e+00	 5.724273709777954e-01	 1.331743948773744e+01
 1.688772923038155e+00	 5.880743843606794e-01	 1.332636879261326e+01
 1.683248877672880e+00	 6.037041352691030e-01	 1.333875431503993e+01
 1.677568226252050e+00	 6.193143897872716e-01	 1.334870285195082e+01
 1.733046376662810e+00	 4.641210917678646e-01	 1.328468477162071e+01
 1.728749239800238e+00	 4.798793571075859e-01	 1.329750783409853e+01
 1.724297983610332e+00	 4.956355467530881e-01	 1.330228704694669e+01
 1.719692100114094e+00	 5.113875363098571e-01	 1.330126461320363e+01
 1.714931118015453e+00	 5.271331823649078e-01	 1.329683523566335e+01
 1.710014603344268e+00	 5.428703232239113e-01	 1.329154876030765e+01
 1.704942160083180e+00	 5.585967796709786e-01	 1.328811251405254e+01
 1.699713430777476e+00	 5.743103557507486e-01	 1.328939328227934e+01
 1.694328097127097e+00	 5.900088395723920e-01	 1.329833074431662e+01
 1.688785880559962e+00	 6.056900041351199e-01	 1.330939633014811e+01
 1.683086542785773e+00	 6.213516081747297e-01	 1.331859939524767e+01
 1.738728495930557e+00	 4.656428002654642e-01	 1.325829180107089e+01
 1.734417270094665e+00	 4.814527320489223e-01	 1.327047267725741e+01
 1.729951419622169e+00	 4.972605813326064e-01	 1.327479844457554e+01
 1.725330434868567e+00	 5.130642167567747e-01	 1.327347556430542e+01
 1.720553842992554e+00	 5.288614878808583e-01	 1.326886498844896e+01
 1.715621208601135e+00	 5.446502259230060e-01	 1.326348506032958e+01
 1.710532134378535e+00	 5.604282445223591e-01	 1.326001411513190e+01
 1.705286261698058e+00	 5.761933405237019e-01	 1.326129272458272e+01
 1.699883271216038e+00	 5.919432947841051e-01	 1.326996356401126e+01
 1.694322883447045e+00	 6.076758730011366e-01	 1.327978699342802e+01
 1.688604859319496e+00	 6.233888265621877e-01	 1.328830274159004e+01
 1.744410615198304e+00	 4.671645087630637e-01	 1.323252172946921e+01
 1.740085300389091e+00	 4.830261069902587e-01	 1.324389430772114e+01
 1.735604855634006e+00	 4.988856159121248e-01	 1.324763244532400e+01
 1.730968769623039e+00	 5.147408972036922e-01	 1.324589946978344e+01
 1.726176567969653e+00	 5.305897933968088e-01	 1.324101544903861e+01
 1.721227813858001e+00	 5.464301286221008e-01	 1.323546036734551e+01
 1.716122108673889e+00	 5.622597093737394e-01	 1.323187700683773e+01
 1.710859092618640e+00	 5.780763252966552e-01	 1.323307347765270e+01
 1.705438445304979e+00	 5.938777499958177e-01	 1.324124007157958e+01
 1.699859886334126e+00	 6.096617418671534e-01	 1.324990144814809e+01
 1.694123175853221e+00	 6.254260449496460e-01	 1.325779296805703e+01
 1.750092734466051e+00	 4.686862172606633e-01	 1.320740418602471e+01
 1.745753330683519e+00	 4.845994819315951e-01	 1.321777934101230e+01
 1.741258291645843e+00	 5.005106504916431e-01	 1.322077601092586e+01
 1.736607104377511e+00	 5.164175776506098e-01	 1.321850703241161e+01
 1.731799292946753e+00	 5.323180989127593e-01	 1.321324448831481e+01
 1.726834419114867e+00	 5.482100313211956e-01	 1.320742317697892e+01
 1.721712082969244e+00	 5.640911742251196e-01	 1.320364379307736e+01
 1.716431923539221e+00	 5.799593100696084e-01	 1.320467576150981e+01
 1.710993619393920e+00	 5.958122052075304e-01	 1.321213727402075e+01
 1.705396889221208e+00	 6.116476107331701e-01	 1.321971817097518e+01
 1.699641492386944e+00	 6.274632633371040e-01	 1.322705334985691e+01
 1.755774853733797e+00	 4.702079257582628e-01	 1.318297049143010e+01
 1.751421360977945e+00	 4.861728568729313e-01	 1.319213661510623e+01
 1.746911727657680e+00	 5.021356850711615e-01	 1.319421881838182e+01
 1.742245439131984e+00	 5.180942580975274e-01	 1.319127212372613e+01
 1.737422017923853e+00	 5.340464044287098e-01	 1.318551355894326e+01
 1.732441024371734e+00	 5.499899340202905e-01	 1.317932593803734e+01
 1.727302057264599e+00	 5.659226390765000e-01	 1.317526135958945e+01
 1.722004754459803e+00	 5.818422948425617e-01	 1.317604436277897e+01
 1.716548793482862e+00	 5.977466604192431e-01	 1.318263552877816e+01
 1.710933892108290e+00	 6.136334795991870e-01	 1.318921890311022e+01
 1.705159808920668e+00	 6.295004817245622e-01	 1.319607029014782e+01
 1.761456973001545e+00	 4.717296342558625e-01	 1.315925368460459e+01
 1.757089391272372e+00	 4.877462318142678e-01	 1.316697721261860e+01
 1.752565163669518e+00	 5.037607196506799e-01	 1.316795327829726e+01
 1.747883773886456e+00	 5.197709385444450e-01	 1.316417179923007e+01
 1.743044742900953e+00	 5.357747099446605e-01	 1.315778770817106e+01
 1.738047629628600e+00	 5.517698367193853e-01	 1.315112506364078e+01
 1.732892031559954e+00	 5.677541039278801e-01	 1.314668088414813e+01
 1.727577585380385e+00	 5.837252796155150e-01	 1.314712864472436e+01
 1.722103967571803e+00	 5.996811156309561e-01	 1.315271847743748e+01
 1.716470894995372e+00	 6.156193484652037e-01	 1.315838858189420e+01
 1.710678125454392e+00	 6.315377001120204e-01	 1.316483325031786e+01
 1.655494960117154e+00	 6.111655162374392e-01	 1.346769907208302e+01
 1.649734314422425e+00	 6.265489151121764e-01	 1.347909223117781e+01
 1.643818775452634e+00	 6.419086264262810e-01	 1.349073472864477e+01
 1.637748230752398e+00	 6.572424087644252e-01	 1.350259663823380e+01
 1.631522609458622e+00	 6.725480102092356e-01	 1.351453033281578e+01
 1.625141882737335e+00	 6.878231692695604e-01	 1.352626809591408e+01
 1.618606064196664e+00	 7.030656158260452e-01	 1.353742037641894e+01
 1.611915210275244e+00	 7.182730720933291e-01	 1.354747475172167e+01
 1.605069420605358e+00	 7.334432535981575e-01	 1.355579566350204e+01
 1.598068838350150e+00	 7.485738701726585e-01	 1.356162498887732e+01
 1.590913650514238e+00	 7.636626269620175e-01	 1.356408350756283e+01
 1.661013276650878e+00	 6.132027346248973e-01	 1.343810272849651e+01
 1.655233428803832e+00	 6.286374114958835e-01	 1.344899085612785e+01
 1.649298171370810e+00	 6.440483218477021e-01	 1.346028518493253e+01
 1.643207391521572e+00	 6.594332167936396e-01	 1.347196972661594e+01
 1.636961018156817e+00	 6.747898369099330e-01	 1.348391114789369e+01
 1.630559022346459e+00	 6.901159131671257e-01	 1.349585620776228e+01
 1.624001417743987e+00	 7.054091678787985e-01	 1.350742984235206e+01
 1.617288260976161e+00	 7.206673156669735e-01	 1.351813396434314e+01
 1.610419652007376e+00	 7.358880644434845e-01	 1.352734704294017e+01
 1.603395734477985e+00	 7.510691164065675e-01	 1.353432452888396e+01
 1.596216696015953e+00	 7.662081690518910e-01	 1.353820018691282e+01
 1.666531593184601e+00	 6.152399530123555e-01	 1.340842628120102e+01
 1.660732543185241e+00	 6.307259078795909e-01	 1.341882001090111e+01
 1.654777567288985e+00	 6.461880172691224e-01	 1.342976250944166e+01
 1.648666552290747e+00	 6.616240248228547e-01	 1.344125444730975e+01
 1.642399426855013e+00	 6.770316636106306e-01	 1.345317944535363e+01
 1.635976161955584e+00	 6.924086570646909e-01	 1.346530132797432e+01
 1.629396771291309e+00	 7.077527199315521e-01	 1.347726202832894e+01
 1.622661311677079e+00	 7.230615592406178e-01	 1.348858021431461e+01
 1.615769883409394e+00	 7.383328752888116e-01	 1.349865070313673e+01
 1.608722630605818e+00	 7.535643626404764e-01	 1.350674473075360e+01
 1.601519741517667e+00	 7.687537111417645e-01	 1.351201114042043e+01
 1.672049909718326e+00	 6.172771713998134e-01	 1.337863630339910e+01
 1.666231657566649e+00	 6.328144042632980e-01	 1.338855304376117e+01
 1.660256963207160e+00	 6.483277126905439e-01	 1.339914581108817e+01
 1.654125713059922e+00	 6.638148328520694e-01	 1.341043466237557e+01
 1.647837835553208e+00	 6.792734903113279e-01	 1.342232284035628e+01
 1.641393301564708e+00	 6.947014009622560e-01	 1.343459383268516e+01
 1.634792124838631e+00	 7.100962719843056e-01	 1.344690908759395e+01
 1.628034362377996e+00	 7.254558028142623e-01	 1.345880645661879e+01
 1.621120114811412e+00	 7.407776861341390e-01	 1.346969943405618e+01
 1.614049526733652e+00	 7.560596088743851e-01	 1.347887726130016e+01
 1.606822787019381e+00	 7.712992532316376e-01	 1.348550596213938e+01
 1.677568226252050e+00	 6.193143897872716e-01	 1.334870285195082e+01
 1.671730771948057e+00	 6.349029006470053e-01	 1.335816663261278e+01
 1.665736359125336e+00	 6.504674081119647e-01	 1.336841738197827e+01
 1.659584873829096e+00	 6.660056408812842e-01	 1.337949727893305e+01
 1.653276244251404e+00	 6.815153170120254e-01	 1.339133186406068e+01
 1.646810441173833e+00	 6.969941448598214e-01	 1.340372689478197e+01
 1.640187478385953e+00	 7.124398240370587e-01	 1.341636586145076e+01
 1.633407413078914e+00	 7.278500463879067e-01	 1.342880823688681e+01
 1.626470346213430e+00	 7.432224969794663e-01	 1.344048853090069e+01
 1.619376422861486e+00	 7.585548551082939e-01	 1.345071621986964e+01
 1.612125832521095e+00	 7.738447953215112e-01	 1.345867661934646e+01
 1.683086542785773e+00	 6.213516081747297e-01	 1.331859939524767e+01
 1.677229886329465e+00	 6.369913970307126e-01	 1.332764071195678e+01
 1.671215755043512e+00	 6.526071035333858e-01	 1.333756262329196e+01
 1.665044034598271e+00	 6.681964489104988e-01	 1.334843217381872e+01
 1.658714652949599e+00	 6.837571437127229e-01	 1.336019988690159e+01
 1.652227580782957e+00	 6.992868887573864e-01	 1.337269640564687e+01
 1.645582831933275e+00	 7.147833760898124e-01	 1.338562979931442e+01
 1.638780463779831e+00	 7.302442899615511e-01	 1.339858360960357e+01
 1.631820577615448e+00	 7.456673078247934e-01	 1.341101571031223e+01
 1.624703318989319e+00	 7.610501013422029e-01	 1.342225805238275e+01
 1.617428878022809e+00	 7.763903374113846e-01	 1.343151736426742e+01
 1.688604859319496e+00	 6.233888265621877e-01	 1.328830274159004e+01
 1.682729000710873e+00	 6.390798934144200e-01	 1.329695840033033e+01
 1.676695150961687e+00	 6.547467989548067e-01	 1.330656997163565e+01
 1.670503195367446e+00	 6.703872569397138e-01	 1.331723211870137e+01
 1.664153061647795e+00	 6.859989704134202e-01	 1.332892304231624e+01
 1.657644720392082e+00	 7.015796326549516e-01	 1.334150089734280e+01
 1.650978185480597e+00	 7.171269281425658e-01	 1.335470087920488e+01
 1.644153514480748e+00	 7.326385335351954e-01	 1.336813305675632e+01
 1.637170809017465e+00	 7.481121186701206e-01	 1.338128102702317e+01
 1.630030215117153e+00	 7.635453475761118e-01	 1.339350146583457e+01
 1.622731923524523e+00	 7.789358795012581e-01	 1.340402464627247e+01
 1.694123175853221e+00	 6.254260449496460e-01	 1.325779296805703e+01
 1.688228115092281e+00	 6.411683897981273e-01	 1.326610592822104e+01
 1.682174546879862e+00	 6.568864943762275e-01	 1.327543082585437e+01
 1.675962356136619e+00	 6.725780649689281e-01	 1.328589270564452e+01
 1.669591470345989e+00	 6.882407971141177e-01	 1.329750015090931e+01
 1.663061860001206e+00	 7.038723765525169e-01	 1.331014146523315e+01
 1.656373539027919e+00	 7.194704801953193e-01	 1.332358152867167e+01
 1.649526565181666e+00	 7.350327771088401e-01	 1.333745940691540e+01
 1.642521040419483e+00	 7.505569295154476e-01	 1.335128679094445e+01
 1.635357111244987e+00	 7.660405938100204e-01	 1.336444734324011e+01
 1.628034969026238e+00	 7.814814215911315e-01	 1.337619702452998e+01
 1.699641492386944e+00	 6.274632633371040e-01	 1.322705334985691e+01
 1.693727229473689e+00	 6.432568861818344e-01	 1.323507256644468e+01
 1.687653942798037e+00	 6.590261897976484e-01	 1.324413947429275e+01
 1.681421516905795e+00	 6.747688729981430e-01	 1.325441227310638e+01
 1.675029879044185e+00	 6.904826238148151e-01	 1.326593264504692e+01
 1.668478999610330e+00	 7.061651204500820e-01	 1.327862169102424e+01
 1.661768892575242e+00	 7.218140322480729e-01	 1.329227654614017e+01
 1.654899615882583e+00	 7.374270206824848e-01	 1.330656775473852e+01
 1.647871271821501e+00	 7.530017403607749e-01	 1.332103748468137e+01
 1.640684007372821e+00	 7.685358400439297e-01	 1.333509865901621e+01
 1.633338014527952e+00	 7.840269636810049e-01	 1.334803508110840e+01
 1.705159808920668e+00	 6.295004817245622e-01	 1.319607029014782e+01
 1.699226343855097e+00	 6.453453825655415e-01	 1.320385055497551e+01
 1.693133338716213e+00	 6.611658852190695e-01	 1.321269302249412e+01
 1.686880677674969e+00	 6.769596810273578e-01	 1.322279183236651e+01
 1.680468287742380e+00	 6.927244505155125e-01	 1.323422449386940e+01
 1.673896139219455e+00	 7.084578643476473e-01	 1.324694756622216e+01
 1.667164246122564e+00	 7.241575843008263e-01	 1.326079302266977e+01
 1.660272666583501e+00	 7.398212642561289e-01	 1.327546538088801e+01
 1.653221503223519e+00	 7.554465512061023e-01	 1.329053968146751e+01
 1.646010903500654e+00	 7.710310862778385e-01	 1.330546039478982e+01
 1.638641060029666e+00	 7.865725057708784e-01	 1.331954133451599e+01
 1.710678125454392e+00	 6.315377001120204e-01	 1.316483325031786e+01
 1.704725458236505e+00	 6.474338789492489e-01	 1.317243503221945e+01
 1.698612734634388e+00	 6.633055806404903e-01	 1.318109132132876e+01
 1.692339838444144e+00	 6.791504890565726e-01	 1.319103499437054e+01
 1.685906696440576e+00	 6.949662772162100e-01	 1.320238212871358e+01
 1.679313278828579e+00	 7.107506082452125e-01	 1.321512741599386e+01
 1.672559599669887e+00	 7.265011363535799e-01	 1.322914026411475e+01
 1.665645717284419e+00	 7.422155078297736e-01	 1.324416167235213e+01
 1.658571734625537e+00	 7.578913620514293e-01	 1.325980196350762e+01
 1.651337799628489e+00	 7.735263325117473e-01	 1.327553945562239e+01
 1.643944105531380e+00	 7.891180478607518e-01	 1.329072015366876e+01
 1.590913650514238e+00	 7.636626269620175e-01	 1.356408350756283e+01
 1.583604088227128e+00	 7.787072254457373e-01	 1.356800288858323e+01
 1.576140426998806e+00	 7.937053644716623e-01	 1.357776847405489e+01
 1.568522986946967e+00	 8.086547413018970e-01	 1.359163139306808e+01
 1.560752132995315e+00	 8.235530526697391e-01	 1.360770001864664e+01
 1.552828275042443e+00	 8.383979958467124e-01	 1.362394701323339e+01
 1.544751868100803e+00	 8.531872697187601e-01	 1.363821761288883e+01
 1.536523412405336e+00	 8.679185758706478e-01	 1.364823918127813e+01
 1.528143453491343e+00	 8.825896196775855e-01	 1.365163205808486e+01
 1.519612582241223e+00	 8.971981114030715e-01	 1.364592171957890e+01
 1.510931434899749e+00	 9.117417673019356e-01	 1.362855226171584e+01
 1.596216696015953e+00	 7.662081690518910e-01	 1.353820018691282e+01
 1.588882768521218e+00	 7.813029161972231e-01	 1.354366774226657e+01
 1.581394228422135e+00	 7.963510490199009e-01	 1.355496398379884e+01
 1.573751396903456e+00	 8.113502571062364e-01	 1.357033432590757e+01
 1.565954640105299e+00	 8.262982295119717e-01	 1.358787834520848e+01
 1.558004369292584e+00	 8.411926558328683e-01	 1.360555677584961e+01
 1.549901040994472e+00	 8.560312272844890e-01	 1.362119976779090e+01
 1.541645157113354e+00	 8.708116377902166e-01	 1.363251644053001e+01
 1.533237265002981e+00	 8.855315850765111e-01	 1.363710575820407e+01
 1.524677957515360e+00	 9.001887717744149e-01	 1.363246874496487e+01
 1.515967873016082e+00	 9.147809065262757e-01	 1.361602205203548e+01
 1.601519741517667e+00	 7.687537111417645e-01	 1.351201114042043e+01
 1.594161448815309e+00	 7.838986069487088e-01	 1.351899916613757e+01
 1.586648029845464e+00	 7.989967335681397e-01	 1.353179062386049e+01
 1.578979806859946e+00	 8.140457729105760e-01	 1.354862754431390e+01
 1.571157147215284e+00	 8.290434063542044e-01	 1.356760322130679e+01
 1.563180463542726e+00	 8.439873158190238e-01	 1.358666915215466e+01
 1.555050213888141e+00	 8.588751848502183e-01	 1.360364326536581e+01
 1.546766901821372e+00	 8.737046997097851e-01	 1.361621946950882e+01
 1.538331076514618e+00	 8.884735504754363e-01	 1.362197855051644e+01
 1.529743332789496e+00	 9.031794321457586e-01	 1.361840043751998e+01
 1.521004311132414e+00	 9.178200457506154e-01	 1.360287784968295e+01
 1.606822787019381e+00	 7.712992532316376e-01	 1.348550596213938e+01
 1.599440129109399e+00	 7.864942977001950e-01	 1.349398527253458e+01
 1.591901831268794e+00	 8.016424181163787e-01	 1.350823715728268e+01
 1.584208216816436e+00	 8.167412887149156e-01	 1.352650260192276e+01
 1.576359654325268e+00	 8.317885831964368e-01	 1.354687113577090e+01
 1.568356557792867e+00	 8.467819758051796e-01	 1.356728771261405e+01
 1.560199386781811e+00	 8.617191424159476e-01	 1.358556090301931e+01
 1.551888646529390e+00	 8.765977616293544e-01	 1.359937243364638e+01
 1.543424888026256e+00	 8.914155158743613e-01	 1.360628810217193e+01
 1.534808708063634e+00	 9.061700925171018e-01	 1.360377008915098e+01
 1.526040749248746e+00	 9.208591849749549e-01	 1.358919068037108e+01
 1.612125832521095e+00	 7.738447953215112e-01	 1.345867661934646e+01
 1.604718809403490e+00	 7.890899884516805e-01	 1.346861648161839e+01
 1.597155632692123e+00	 8.042881026646176e-01	 1.348429456391924e+01
 1.589436626772926e+00	 8.194368045192555e-01	 1.350395315319630e+01
 1.581562161435253e+00	 8.345337600386693e-01	 1.352568053794496e+01
 1.573532652043009e+00	 8.495766357913356e-01	 1.354741782422118e+01
 1.565348559675480e+00	 8.645630999816768e-01	 1.356696708768075e+01
 1.557010391237408e+00	 8.794908235489233e-01	 1.358200089853562e+01
 1.548518699537893e+00	 8.943574812732867e-01	 1.359007324942447e+01
 1.539874083337771e+00	 9.091607528884454e-01	 1.358863190878014e+01
 1.531077187365079e+00	 9.238983241992949e-01	 1.357503221437110e+01
 1.617428878022809e+00	 7.763903374113846e-01	 1.343151736426742e+01
 1.609997489697580e+00	 7.916856792031662e-01	 1.344288543095517e+01
 1.602409434115453e+00	 8.069337872128565e-01	 1.345995594837865e+01
 1.594665036729416e+00	 8.221323203235953e-01	 1.348097486023171e+01
 1.586764668545237e+00	 8.372789368809019e-01	 1.350403174386490e+01
 1.578708746293150e+00	 8.523712957774908e-01	 1.352706655654550e+01
 1.570497732569149e+00	 8.674070575474060e-01	 1.354787774222249e+01
 1.562132135945425e+00	 8.823838854684921e-01	 1.356413173722206e+01
 1.553612511049531e+00	 8.972994466722120e-01	 1.357337390629179e+01
 1.544939458611909e+00	 9.121514132597890e-01	 1.357304093286760e+01
 1.536113625481412e+00	 9.269374634236347e-01	 1.356047467938874e+01
 1.622731923524523e+00	 7.789358795012581e-01	 1.340402464627247e+01
 1.615276169991671e+00	 7.942813699546521e-01	 1.341678688557836e+01
 1.607663235538782e+00	 8.095794717610952e-01	 1.343521644844769e+01
 1.599893446685906e+00	 8.248278361279349e-01	 1.345756530004148e+01
 1.591967175655221e+00	 8.400241137231340e-01	 1.348192684288955e+01
 1.583884840543291e+00	 8.551659557636464e-01	 1.350624258820844e+01
 1.575646905462819e+00	 8.702510151131351e-01	 1.352831021227378e+01
 1.567253880653443e+00	 8.852769473880611e-01	 1.354579303784479e+01
 1.558706322561170e+00	 9.002414120711376e-01	 1.355623097351291e+01
 1.550004833886046e+00	 9.151420736311328e-01	 1.355705293617094e+01
 1.541150063597744e+00	 9.299766026479745e-01	 1.354559077360820e+01
 1.628034969026238e+00	 7.814814215911315e-01	 1.337619702452998e+01
 1.620554850285761e+00	 7.968770607061377e-01	 1.339031764851857e+01
 1.612917036962111e+00	 8.122251563093341e-01	 1.341007314398369e+01
 1.605121856642396e+00	 8.275233519322746e-01	 1.343372387229407e+01
 1.597169682765206e+00	 8.427692905653665e-01	 1.345936960477616e+01
 1.589060934793433e+00	 8.579606157498022e-01	 1.348495611377811e+01
 1.580796078356487e+00	 8.730949726788643e-01	 1.350828317341795e+01
 1.572375625361461e+00	 8.881700093076297e-01	 1.352701401161943e+01
 1.563800134072808e+00	 9.031833774700627e-01	 1.353868624779618e+01
 1.555070209160183e+00	 9.181327340024762e-01	 1.354072434273585e+01
 1.546186501714076e+00	 9.330157418723141e-01	 1.353045357890010e+01
 1.633338014527952e+00	 7.840269636810049e-01	 1.334803508110840e+01
 1.625833530579851e+00	 7.994727514576233e-01	 1.336347647179139e+01
 1.618170838385441e+00	 8.148708408575731e-01	 1.338452496626511e+01
 1.610350266598886e+00	 8.302188677366141e-01	 1.340945170750507e+01
 1.602372189875190e+00	 8.455144674075991e-01	 1.343636538718902e+01
 1.594237029043575e+00	 8.607552757359582e-01	 1.346321875107260e+01
 1.585945251250158e+00	 8.759389302445939e-01	 1.348781653876586e+01
 1.577497370069478e+00	 8.910630712271983e-01	 1.350782490115495e+01
 1.568893945584445e+00	 9.061253428689878e-01	 1.352078233135173e+01
 1.560135584434321e+00	 9.211233943738198e-01	 1.352411213711338e+01
 1.551222939830409e+00	 9.360548810966538e-01	 1.351513647418985e+01
 1.638641060029666e+00	 7.865725057708784e-01	 1.331954133451599e+01
 1.631112210873942e+00	 8.020684422091096e-01	 1.333626396783159e+01
 1.623424639808770e+00	 8.175165254058120e-01	 1.335857260778981e+01
 1.615578676555376e+00	 8.329143835409538e-01	 1.338475157566864e+01
 1.607574696985174e+00	 8.482596442498312e-01	 1.341292104363264e+01
 1.599413123293715e+00	 8.635499357221137e-01	 1.344104344886291e+01
 1.591094424143827e+00	 8.787828878103228e-01	 1.346693136689623e+01
 1.582619114777496e+00	 8.939561331467674e-01	 1.348825688909709e+01
 1.573987757096083e+00	 9.090673082679134e-01	 1.350256254170132e+01
 1.565200959708458e+00	 9.241140547451635e-01	 1.350727377579814e+01
 1.556259377946742e+00	 9.390940203209938e-01	 1.349971304898274e+01
 1.643944105531380e+00	 7.891180478607518e-01	 1.329072015366876e+01
 1.636390891168032e+00	 8.046641329605954e-01	 1.330868252136498e+01
 1.628678441232099e+00	 8.201622099540509e-01	 1.333221843251116e+01
 1.620807086511866e+00	 8.356098993452935e-01	 1.335962779531851e+01
 1.612777204095159e+00	 8.510048210920641e-01	 1.338904483179920e+01
 1.604589217543857e+00	 8.663445957082695e-01	 1.341844439496672e+01
 1.596243597037496e+00	 8.816268453760522e-01	 1.344564977015455e+01
 1.587740859485514e+00	 8.968491950663363e-01	 1.346834200709044e+01
 1.579081568607720e+00	 9.120092736668385e-01	 1.348407082175997e+01
 1.570266334982596e+00	 9.271047151165072e-01	 1.349026709888264e+01
 1.561295816063075e+00	 9.421331595453336e-01	 1.348425701704202e+01
 1.510931434899749e+00	 9.117417673019356e-01	 1.362855226171583e+01
 1.502100693057588e+00	 9.262183107275453e-01	 1.360691325823842e+01
 1.493121083602770e+00	 9.406254732421200e-01	 1.358871679992997e+01
 1.483993378639944e+00	 9.549609957290800e-01	 1.357185018131520e+01
 1.474718395377184e+00	 9.692226295063568e-01	 1.355423100610341e+01
 1.465296995980241e+00	 9.834081374395645e-01	 1.353382654196345e+01
 1.455730087394133e+00	 9.975152950539360e-01	 1.350867421267900e+01
 1.446018621132013e+00	 1.011541891643912e+00	 1.347690317803198e+01
 1.436163593031309e+00	 1.025485731379268e+00	 1.343675694257249e+01
 1.426166042977170e+00	 1.039344634406659e+00	 1.338661692524491e+01
 1.416027054593280e+00	 1.053116437945469e+00	 1.332502691271196e+01
 1.515967873016082e+00	 9.147809065262757e-01	 1.361602205203548e+01
 1.507107695367779e+00	 9.293057050966375e-01	 1.359536005596997e+01
 1.498098153881446e+00	 9.437608914862609e-01	 1.357841484407246e+01
 1.488940023235411e+00	 9.581441990481769e-01	 1.356306604885515e+01
 1.479634123361775e+00	 9.724533716047113e-01	 1.354722265302137e+01
 1.470181319300176e+00	 9.866861645643632e-01	 1.352884255132485e+01
 1.460582521018781e+00	 1.000840346037449e+00	 1.350595327936627e+01
 1.450838683202453e+00	 1.014913697949392e+00	 1.347667385951417e+01
 1.440950805008080e+00	 1.028904017150532e+00	 1.343923770474788e+01
 1.430919929787094e+00	 1.042809116521349e+00	 1.339201651183043e+01
 1.420747144775258e+00	 1.056626826071954e+00	 1.333354506588471e+01
 1.521004311132414e+00	 9.178200457506154e-01	 1.360287784968294e+01
 1.512114697677972e+00	 9.323930994657293e-01	 1.358321698025246e+01
 1.503075224160122e+00	 9.468963097304014e-01	 1.356757189088243e+01
 1.493886667830877e+00	 9.613274023672742e-01	 1.355381025446002e+01
 1.484549851346365e+00	 9.756841137030656e-01	 1.353982764336435e+01
 1.475065642620110e+00	 9.899641916891616e-01	 1.352356730225722e+01
 1.465434954643428e+00	 1.004165397020962e+00	 1.350304111860856e+01
 1.455658745272893e+00	 1.018285504254872e+00	 1.347635174098986e+01
 1.445738016984851e+00	 1.032322302921796e+00	 1.344171578557958e+01
 1.435673816597018e+00	 1.046273598636038e+00	 1.339748806172398e+01
 1.425467234957235e+00	 1.060137214198439e+00	 1.334218673785404e+01
 1.526040749248746e+00	 9.208591849749549e-01	 1.358919068037108e+01
 1.517121699988163e+00	 9.354804938348210e-01	 1.357057215091031e+01
 1.508052294438798e+00	 9.500317279745415e-01	 1.355628980849056e+01
 1.498833312426344e+00	 9.645106056863707e-01	 1.354419511675627e+01
 1.489465579330955e+00	 9.789148558014205e-01	 1.353216549715495e+01
 1.479949965940043e+00	 9.932422188139598e-01	 1.351812431644943e+01
 1.470287388268075e+00	 1.007490448004476e+00	 1.350006210400702e+01
 1.460478807343333e+00	 1.021657310560352e+00	 1.347605894875692e+01
 1.450525228961622e+00	 1.035740588693061e+00	 1.344430801590866e+01
 1.440427703406941e+00	 1.049738080750727e+00	 1.340314011371234e+01
 1.430187325139213e+00	 1.063647602324924e+00	 1.335104923078330e+01
 1.531077187365079e+00	 9.238983241992949e-01	 1.357503221437110e+01
 1.522128702298355e+00	 9.385678882039128e-01	 1.355751407610023e+01
 1.513029364717474e+00	 9.531671462186817e-01	 1.354467064935640e+01
 1.503779957021809e+00	 9.676938090054678e-01	 1.353433298661899e+01
 1.494381307315547e+00	 9.821455978997748e-01	 1.352435566614858e+01
 1.484834289259977e+00	 9.965202459387585e-01	 1.351263699795039e+01
 1.475139821892722e+00	 1.010815498987989e+00	 1.349714049281036e+01
 1.465298869413773e+00	 1.025029116865831e+00	 1.347591754416178e+01
 1.455312440938393e+00	 1.039158874464325e+00	 1.344713126253059e+01
 1.445181590216865e+00	 1.053202562865415e+00	 1.340908139227633e+01
 1.434907415321190e+00	 1.067157990451409e+00	 1.336023023036840e+01
 1.536113625481412e+00	 9.269374634236347e-01	 1.356047467938874e+01
 1.527135704608547e+00	 9.416552825730043e-01	 1.354413156743970e+01
 1.518006434996150e+00	 9.563025644628220e-01	 1.353281656696226e+01
 1.508726601617276e+00	 9.708770123245648e-01	 1.352433616475768e+01
 1.499297035300137e+00	 9.853763399981295e-01	 1.351651745164806e+01
 1.489718612579912e+00	 9.997982730635572e-01	 1.350722855056153e+01
 1.479992255517369e+00	 1.014140549971502e+00	 1.349440034224510e+01
 1.470118931484213e+00	 1.028400923171311e+00	 1.347604943824132e+01
 1.460099652915164e+00	 1.042577160235589e+00	 1.345030234053539e+01
 1.449935477026789e+00	 1.056667044980105e+00	 1.341542071702823e+01
 1.439627505503168e+00	 1.070668378577893e+00	 1.336982771178648e+01
 1.541150063597744e+00	 9.299766026479745e-01	 1.354559077360820e+01
 1.532142706918739e+00	 9.447426769420966e-01	 1.353051365523643e+01
 1.522983505274825e+00	 9.594379827069628e-01	 1.352082973255870e+01
 1.513673246212743e+00	 9.740602156436615e-01	 1.351431681931742e+01
 1.504212763284727e+00	 9.886070820964837e-01	 1.350876992231166e+01
 1.494602935899846e+00	 1.003076300188356e+00	 1.350202189521413e+01
 1.484844689142016e+00	 1.017465600955014e+00	 1.349196542583782e+01
 1.474938993554653e+00	 1.031772729476791e+00	 1.347657630637679e+01
 1.464886864891936e+00	 1.045995446006854e+00	 1.345393792569303e+01
 1.454689363836713e+00	 1.060131527094793e+00	 1.342226691224209e+01
 1.444347595685146e+00	 1.074178766704378e+00	 1.337993984579711e+01
 1.546186501714076e+00	 9.330157418723141e-01	 1.353045357890010e+01
 1.537149709228931e+00	 9.478300713111880e-01	 1.351674950381833e+01
 1.527960575553501e+00	 9.625734009511029e-01	 1.350881225195984e+01
 1.518619890808210e+00	 9.772434189627586e-01	 1.350438690349399e+01
 1.509128491269317e+00	 9.918378241948383e-01	 1.350123183195372e+01
 1.499487259219780e+00	 1.006354327313154e+00	 1.349713958733248e+01
 1.489697122766663e+00	 1.020790651938528e+00	 1.348995914972879e+01
 1.479759055625093e+00	 1.035144535782270e+00	 1.347761950295896e+01
 1.469674076868707e+00	 1.049413731778118e+00	 1.345815446688308e+01
 1.459443250646637e+00	 1.063596009209482e+00	 1.342972871647378e+01
 1.449067685867123e+00	 1.077689154830863e+00	 1.339066490499266e+01
 1.551222939830409e+00	 9.360548810966538e-01	 1.351513647418985e+01
 1.542156711539123e+00	 9.509174656802800e-01	 1.350292832696072e+01
 1.532937645832177e+00	 9.657088191952434e-01	 1.349686608238755e+01
 1.523566535403676e+00	 9.804266222818557e-01	 1.349465807316385e+01
 1.514044219253909e+00	 9.950685662931931e-01	 1.349402153733885e+01
 1.504371582539715e+00	 1.009632354437953e+00	 1.349270373418294e+01
 1.494549556391310e+00	 1.024115702922041e+00	 1.348850446897790e+01
 1.484579117695533e+00	 1.038516342087750e+00	 1.347929997606470e+01
 1.474461288845477e+00	 1.052832017549382e+00	 1.346306809856809e+01
 1.464197137456561e+00	 1.067060491324171e+00	 1.343791469227012e+01
 1.453787776049100e+00	 1.081199542957348e+00	 1.340210117019394e+01
 1.556259377946742e+00	 9.390940203209938e-01	 1.349971304898274e+01
 1.547163713849315e+00	 9.540048600493719e-01	 1.348913930340897e+01
 1.537914716110853e+00	 9.688442374393835e-01	 1.348509294936357e+01
 1.528513179999142e+00	 9.836098256009523e-01	 1.348524160452712e+01
 1.518959947238499e+00	 9.982993083915475e-01	 1.348725691596958e+01
 1.509255905859648e+00	 1.012910381562751e+00	 1.348883591220894e+01
 1.499401990015957e+00	 1.027440753905554e+00	 1.348772380386258e+01
 1.489399179765973e+00	 1.041888148393230e+00	 1.348173818214405e+01
 1.479248500822248e+00	 1.056250303320647e+00	 1.346879455330915e+01
 1.468951024266485e+00	 1.070524973438859e+00	 1.344693313596359e+01
 1.458507866231078e+00	 1.084709931083833e+00	 1.341434683698905e+01
 1.561295816063075e+00	 9.421331595453336e-01	 1.348425701704202e+01
 1.552170716159507e+00	 9.570922544184637e-01	 1.347547149249441e+01
 1.542891786389529e+00	 9.719796556835243e-01	 1.347359426364825e+01
 1.533459824594609e+00	 9.867930289200494e-01	 1.347624831176495e+01
 1.523875675223090e+00	 1.001530050489902e+00	 1.348105528386706e+01
 1.514140229179583e+00	 1.016188408687550e+00	 1.348565708435290e+01
 1.504254423640605e+00	 1.030765804889067e+00	 1.348773895616785e+01
 1.494219241836413e+00	 1.045259954698710e+00	 1.348505400071845e+01
 1.484035712799019e+00	 1.059668589091911e+00	 1.347544907432276e+01
 1.473704911076409e+00	 1.073989455553549e+00	 1.345689198755182e+01
 1.463227956413056e+00	 1.088220319210318e+00	 1.342749992241066e+01
 1.416027054593280e+00	 1.053116437945469e+00	 1.332502691271196e+01
 1.405747754900171e+00	 1.066798997376825e+00	 1.325807195446049e+01
 1.395329313941191e+00	 1.080390187324691e+00	 1.319096927889341e+01
 1.384772944376326e+00	 1.093887902727876e+00	 1.312121456665687e+01
 1.374079901044148e+00	 1.107290059901911e+00	 1.304648228734854e+01
 1.363251480492146e+00	 1.120594597589621e+00	 1.296465496526345e+01
 1.352289020475817e+00	 1.133799477999363e+00	 1.287385281383439e+01
 1.341193899426863e+00	 1.146902687829808e+00	 1.277246360235659e+01
 1.329967535890934e+00	 1.159902239280220e+00	 1.265917261204302e+01
 1.318611387935380e+00	 1.172796171045166e+00	 1.253299253256727e+01
 1.307126952527511e+00	 1.185582549292632e+00	 1.240307384241726e+01
 1.420747144775258e+00	 1.056626826071954e+00	 1.333354506588471e+01
 1.410433580749839e+00	 1.070354994034749e+00	 1.326950947301390e+01
 1.399980411654328e+00	 1.083991487949106e+00	 1.320466089365344e+01
 1.389388854190914e+00	 1.097534195736970e+00	 1.313638352142046e+01
 1.378660167380962e+00	 1.110981026768251e+00	 1.306223739036505e+01
 1.367795652093787e+00	 1.124329912914919e+00	 1.297998825137032e+01
 1.356796650544070e+00	 1.137578809592694e+00	 1.288763784435134e+01
 1.345664545758285e+00	 1.150725696789241e+00	 1.278345442747360e+01
 1.334400761010571e+00	 1.163768580077821e+00	 1.266600341787927e+01
 1.323006759228499e+00	 1.176705491615317e+00	 1.253418444272481e+01
 1.311484042369270e+00	 1.189534491123607e+00	 1.240730635711435e+01
 1.425467234957235e+00	 1.060137214198439e+00	 1.334218673785404e+01
 1.415119406599506e+00	 1.073910990692672e+00	 1.328107115298055e+01
 1.404631509367465e+00	 1.087592788573521e+00	 1.321840672496728e+01
 1.394004764005502e+00	 1.101180488746063e+00	 1.315147067307655e+01
 1.383240433717775e+00	 1.114671993634590e+00	 1.307771342198883e+01
 1.372339823695428e+00	 1.128065228240219e+00	 1.299478908923983e+01
 1.361304280612323e+00	 1.141358141186025e+00	 1.290058639561638e+01
 1.350135192089709e+00	 1.154548705748674e+00	 1.279325985734617e+01
 1.338833986130208e+00	 1.167634920875422e+00	 1.267126111199101e+01
 1.327402130521617e+00	 1.180614812185467e+00	 1.253537313059726e+01
 1.315841132211028e+00	 1.193486432954582e+00	 1.241273176588633e+01
 1.430187325139213e+00	 1.063647602324924e+00	 1.335104923078330e+01
 1.419805232449173e+00	 1.077466987350594e+00	 1.329284331347599e+01
 1.409282607080603e+00	 1.091194089197937e+00	 1.323228548008236e+01
 1.398620673820090e+00	 1.104826781755155e+00	 1.316655041637041e+01
 1.387820700054589e+00	 1.118362960500930e+00	 1.309298368758911e+01
 1.376883995297068e+00	 1.131800543565517e+00	 1.300913283742802e+01
 1.365811910680575e+00	 1.145137472779356e+00	 1.291277893716466e+01
 1.354605838421131e+00	 1.158371714708106e+00	 1.280196844143206e+01
 1.343267211249844e+00	 1.171501261673023e+00	 1.267504519991462e+01
 1.331797501814734e+00	 1.184524132755618e+00	 1.253822641102472e+01
 1.320198222052786e+00	 1.197438374785557e+00	 1.241945043300853e+01
 1.434907415321190e+00	 1.067157990451409e+00	 1.336023023036840e+01
 1.424491058298840e+00	 1.081022984008517e+00	 1.330491286089942e+01
 1.413933704793740e+00	 1.094795389822353e+00	 1.324637662201022e+01
 1.403236583634677e+00	 1.108473074764248e+00	 1.318169803574840e+01
 1.392400966391404e+00	 1.122053927367270e+00	 1.310812248236080e+01
 1.381428166898708e+00	 1.135535858890816e+00	 1.302309591136338e+01
 1.370319540748828e+00	 1.148916804372687e+00	 1.292429703011021e+01
 1.359076484752554e+00	 1.162194723667539e+00	 1.280966982387387e+01
 1.347700436369480e+00	 1.175367602470623e+00	 1.267745625412133e+01
 1.336192873107852e+00	 1.188433453325768e+00	 1.254282593969515e+01
 1.324555311894545e+00	 1.201390316616533e+00	 1.242755801688511e+01
 1.439627505503168e+00	 1.070668378577893e+00	 1.336982771178648e+01
 1.429176884148508e+00	 1.084578980666439e+00	 1.331736719149939e+01
 1.418584802506877e+00	 1.098396690446768e+00	 1.326076026949056e+01
 1.407852493449265e+00	 1.112119367773341e+00	 1.319698960348974e+01
 1.396981232728217e+00	 1.125744894233609e+00	 1.312320498838038e+01
 1.385972338500349e+00	 1.139271174216114e+00	 1.303675568006919e+01
 1.374827170817081e+00	 1.152696135966019e+00	 1.293522322426285e+01
 1.363547131083977e+00	 1.166017732626972e+00	 1.281645464172427e+01
 1.352133661489116e+00	 1.179233943268224e+00	 1.267946896239318e+01
 1.340588244400970e+00	 1.192342773895918e+00	 1.254924887800354e+01
 1.328912401736303e+00	 1.205342258447509e+00	 1.243714552649353e+01
 1.444347595685146e+00	 1.074178766704378e+00	 1.337993984579712e+01
 1.433862709998175e+00	 1.088134977324362e+00	 1.333029409415147e+01
 1.423235900220014e+00	 1.101997991071184e+00	 1.327551709721320e+01
 1.412468403263853e+00	 1.115765660782434e+00	 1.321250187812854e+01
 1.401561499065031e+00	 1.129435861099949e+00	 1.313830717197104e+01
 1.390516510101989e+00	 1.143006489541413e+00	 1.305019036320167e+01
 1.379334800885333e+00	 1.156475467559349e+00	 1.294564095555479e+01
 1.368017777415400e+00	 1.169840741586405e+00	 1.282241442346163e+01
 1.356566886608753e+00	 1.183100284065825e+00	 1.268357114970675e+01
 1.344983615694088e+00	 1.196252094466070e+00	 1.255756794727066e+01
 1.333269491578061e+00	 1.209294200278484e+00	 1.244829937799199e+01
 1.449067685867123e+00	 1.077689154830863e+00	 1.339066490499266e+01
 1.438548535847842e+00	 1.091690973982285e+00	 1.334378165334356e+01
 1.427886997933151e+00	 1.105599291695600e+00	 1.329072823629254e+01
 1.417084313078441e+00	 1.119411953791527e+00	 1.322831220316042e+01
 1.406141765401845e+00	 1.133126827966289e+00	 1.315350568137123e+01
 1.395060681703630e+00	 1.146741804866712e+00	 1.306347892839736e+01
 1.383842430953586e+00	 1.160254799152681e+00	 1.295563444377014e+01
 1.372488423746823e+00	 1.173663750545837e+00	 1.282764148779064e+01
 1.361000111728389e+00	 1.186966624863426e+00	 1.268995996691348e+01
 1.349378986987206e+00	 1.200161415036220e+00	 1.256785148317522e+01
 1.337626581419819e+00	 1.213246142109459e+00	 1.246110145148725e+01
 1.453787776049100e+00	 1.081199542957348e+00	 1.340210117019394e+01
 1.443234361697509e+00	 1.095246970640208e+00	 1.335791815236358e+01
 1.432538095646289e+00	 1.109200592320015e+00	 1.330647517498873e+01
 1.421700222893028e+00	 1.123058246800620e+00	 1.324449840602583e+01
 1.410722031738658e+00	 1.136817794832629e+00	 1.316887774469854e+01
 1.399604853305271e+00	 1.150477120192011e+00	 1.307670098892210e+01
 1.388350061021839e+00	 1.164034130746012e+00	 1.296528859057008e+01
 1.376959070078245e+00	 1.177486759505270e+00	 1.283234364785202e+01
 1.365433336848026e+00	 1.190832965661026e+00	 1.269868869349717e+01
 1.353774358280324e+00	 1.204070735606370e+00	 1.258016349039249e+01
 1.341983671261578e+00	 1.217198083940435e+00	 1.247562914795820e+01
 1.458507866231078e+00	 1.084709931083833e+00	 1.341434683698905e+01
 1.447920187547176e+00	 1.098802967298130e+00	 1.337279197668542e+01
 1.437189193359426e+00	 1.112801892944431e+00	 1.332283965966915e+01
 1.426316132707616e+00	 1.126704539809713e+00	 1.326113869736531e+01
 1.415302298075472e+00	 1.140508761698968e+00	 1.318450106820312e+01
 1.404149024906910e+00	 1.154212435517309e+00	 1.308993670161531e+01
 1.392857691090092e+00	 1.167813462339344e+00	 1.297468887780698e+01
 1.381429716409669e+00	 1.181309768464702e+00	 1.283885891993694e+01
 1.369866561967662e+00	 1.194699306458627e+00	 1.270980644339203e+01
 1.358169729573442e+00	 1.207980056176521e+00	 1.259456369743761e+01
 1.346340761103337e+00	 1.221150025771410e+00	 1.249195544633291e+01
 1.463227956413056e+00	 1.088220319210318e+00	 1.342749992241067e+01
 1.452606013396844e+00	 1.102358963956053e+00	 1.338849151754853e+01
 1.441840291072563e+00	 1.116403193568847e+00	 1.333990359600601e+01
 1.430932042522204e+00	 1.130350832818806e+00	 1.327831157053941e+01
 1.419882564412286e+00	 1.144199728565308e+00	 1.320045373480351e+01
 1.408693196508551e+00	 1.157947750842608e+00	 1.310326666512255e+01
 1.397365321158345e+00	 1.171592793932675e+00	 1.298392126612174e+01
 1.385900362741092e+00	 1.185132777424136e+00	 1.284810514145348e+01
 1.374299787087299e+00	 1.198565647256228e+00	 1.272335821830872e+01
 1.362565100866560e+00	 1.211889376746671e+00	 1.261110761170605e+01
 1.350697850945095e+00	 1.225101967602386e+00	 1.251014896071343e+01
 1.307126952527511e+00	 1.185582549292632e+00	 1.240307384241726e+01
 1.295515764883914e+00	 1.198259468624521e+00	 1.227879661682628e+01
 1.283779397791418e+00	 1.210825053018551e+00	 1.214568877830970e+01
 1.271919460900325e+00	 1.223277456750553e+00	 1.200577706479380e+01
 1.259937599990577e+00	 1.235614865296245e+00	 1.186111733983255e+01
 1.247835496211555e+00	 1.247835496211555e+00	 1.171378428418198e+01
 1.235614865296245e+00	 1.259937599990576e+00	 1.156586094664393e+01
 1.223277456750553e+00	 1.271919460900324e+00	 1.141942822066116e+01
 1.210825053018552e+00	 1.283779397791417e+00	 1.127655431477500e+01
 1.198259468624522e+00	 1.295515764883914e+00	 1.113928428623514e+01
 1.185582549292631e+00	 1.307126952527511e+00	 1.100962970775588e+01
 1.311484042369270e+00	 1.189534491123607e+00	 1.240730635711435e+01
 1.299834150766860e+00	 1.202253666853270e+00	 1.228660335266002e+01
 1.288058662450722e+00	 1.214861136528613e+00	 1.215641415079710e+01
 1.276159192436659e+00	 1.227355048273054e+00	 1.201877235607594e+01
 1.264137391990546e+00	 1.239733581513899e+00	 1.187574193212123e+01
 1.251994947865593e+00	 1.251994947865593e+00	 1.172940668576993e+01
 1.239733581513899e+00	 1.264137391990545e+00	 1.158185960345216e+01
 1.227355048273054e+00	 1.276159192436659e+00	 1.143519210775971e+01
 1.214861136528613e+00	 1.288058662450722e+00	 1.129148330383425e+01
 1.202253666853270e+00	 1.299834150766860e+00	 1.115278928643213e+01
 1.189534491123607e+00	 1.311484042369270e+00	 1.102113257926499e+01
 1.315841132211028e+00	 1.193486432954582e+00	 1.241273176588633e+01
 1.304152536649807e+00	 1.206247865082018e+00	 1.229523714177794e+01
 1.292337927110028e+00	 1.218897220038675e+00	 1.216764198946752e+01
 1.280398923972993e+00	 1.231432639795557e+00	 1.203198567790936e+01
 1.268337183990514e+00	 1.243852297731554e+00	 1.189033905433013e+01
 1.256154399519632e+00	 1.256154399519632e+00	 1.174479371880660e+01
 1.243852297731554e+00	 1.268337183990514e+00	 1.159745114403187e+01
 1.231432639795557e+00	 1.280398923972993e+00	 1.145041170970001e+01
 1.218897220038675e+00	 1.292337927110027e+00	 1.130576372268838e+01
 1.206247865082018e+00	 1.304152536649806e+00	 1.116557249548487e+01
 1.193486432954582e+00	 1.315841132211028e+00	 1.103186955609068e+01
 1.320198222052786e+00	 1.197438374785557e+00	 1.241945043300853e+01
 1.308470922532754e+00	 1.210242063310766e+00	 1.230481344861374e+01
 1.296617191769332e+00	 1.222933303548737e+00	 1.217950194401483e+01
 1.284638655509328e+00	 1.235510231318058e+00	 1.204555996541065e+01
 1.272536975990483e+00	 1.247971013949208e+00	 1.190506404357931e+01
 1.260313851173670e+00	 1.260313851173670e+00	 1.176011225669630e+01
 1.247971013949208e+00	 1.272536975990483e+00	 1.161281313125355e+01
 1.235510231318058e+00	 1.284638655509327e+00	 1.146527445202052e+01
 1.222933303548738e+00	 1.296617191769331e+00	 1.131959205379284e+01
 1.210242063310767e+00	 1.308470922532753e+00	 1.117783866899735e+01
 1.197438374785557e+00	 1.320198222052786e+00	 1.104205290603839e+01
 1.324555311894545e+00	 1.201390316616533e+00	 1.242755801688511e+01
 1.312789308415699e+00	 1.214236261539515e+00	 1.231544286165180e+01
 1.300896456428636e+00	 1.226969387058799e+00	 1.219211863012101e+01
 1.288878387045663e+00	 1.239587822840560e+00	 1.205963297357624e+01
 1.276736767990452e+00	 1.252089730166862e+00	 1.192006692265681e+01
 1.264473302827708e+00	 1.264473302827708e+00	 1.177552373614204e+01
 1.252089730166862e+00	 1.276736767990451e+00	 1.162811758071078e+01
 1.239587822840560e+00	 1.288878387045662e+00	 1.147996211415192e+01
 1.226969387058799e+00	 1.300896456428636e+00	 1.133315904636412e+01
 1.214236261539515e+00	 1.312789308415699e+00	 1.118978675385801e+01
 1.201390316616533e+00	 1.324555311894545e+00	 1.105188902433136e+01
 1.328912401736303e+00	 1.205342258447509e+00	 1.243714552649353e+01
 1.317107694298646e+00	 1.218230459768263e+00	 1.232723115242571e+01
 1.305175721087942e+00	 1.231005470568861e+00	 1.220561169072146e+01
 1.293118118581997e+00	 1.243665414363062e+00	 1.207433734053039e+01
 1.280936559990419e+00	 1.256208446384516e+00	 1.193549246496980e+01
 1.268632754481747e+00	 1.268632754481747e+00	 1.179118422352526e+01
 1.256208446384516e+00	 1.280936559990419e+00	 1.164353102825727e+01
 1.243665414363062e+00	 1.293118118581996e+00	 1.149465089784724e+01
 1.231005470568861e+00	 1.305175721087941e+00	 1.134664978544246e+01
 1.218230459768263e+00	 1.317107694298646e+00	 1.120160995768175e+01
 1.205342258447508e+00	 1.328912401736303e+00	 1.106157850318418e+01
 1.333269491578061e+00	 1.209294200278484e+00	 1.244829937799199e+01
 1.321426080181592e+00	 1.222224657997012e+00	 1.234027933462298e+01
 1.309454985747246e+00	 1.235041554078922e+00	 1.222009585732370e+01
 1.297357850118332e+00	 1.247743005885563e+00	 1.208980065077782e+01
 1.285136351990388e+00	 1.260327162602170e+00	 1.195148025945625e+01
 1.272792206135786e+00	 1.272792206135785e+00	 1.180724448120632e+01
 1.260327162602170e+00	 1.285136351990388e+00	 1.165921459743008e+01
 1.247743005885564e+00	 1.297357850118331e+00	 1.150951149546647e+01
 1.235041554078922e+00	 1.309454985747246e+00	 1.136024376078302e+01
 1.222224657997012e+00	 1.321426080181592e+00	 1.121349581805606e+01
 1.209294200278484e+00	 1.333269491578061e+00	 1.107131620115939e+01
 1.337626581419819e+00	 1.213246142109459e+00	 1.246110145148725e+01
 1.325744466064538e+00	 1.226218856225760e+00	 1.235468372329418e+01
 1.313734250406551e+00	 1.239077637588984e+00	 1.223568101137763e+01
 1.301597581654665e+00	 1.251820597408065e+00	 1.210614549846142e+01
 1.289336143990357e+00	 1.264445878819824e+00	 1.196816477545882e+01
 1.276951657789824e+00	 1.276951657789824e+00	 1.182385003374745e+01
 1.264445878819824e+00	 1.289336143990356e+00	 1.167532406676046e+01
 1.251820597408066e+00	 1.301597581654665e+00	 1.152470915811827e+01
 1.239077637588984e+00	 1.313734250406550e+00	 1.137411493557651e+01
 1.226218856225760e+00	 1.325744466064539e+00	 1.122562627159533e+01
 1.213246142109459e+00	 1.337626581419820e+00	 1.108129131231559e+01
 1.341983671261578e+00	 1.217198083940435e+00	 1.247562914795820e+01
 1.330062851947485e+00	 1.230213054454508e+00	 1.237053599416170e+01
 1.318013515065856e+00	 1.243113721099046e+00	 1.225247224569700e+01
 1.305837313191000e+00	 1.255898188930567e+00	 1.212348955062411e+01
 1.293535935990326e+00	 1.268564595037478e+00	 1.198567542756066e+01
 1.281111109443863e+00	 1.281111109443863e+00	 1.184114123406022e+01
 1.268564595037478e+00	 1.293535935990325e+00	 1.169200993697532e+01
 1.255898188930568e+00	 1.305837313191000e+00	 1.154040376366260e+01
 1.243113721099046e+00	 1.318013515065855e+00	 1.138843181500514e+01
 1.230213054454509e+00	 1.330062851947485e+00	 1.123817772280779e+01
 1.217198083940435e+00	 1.341983671261578e+00	 1.109168743514733e+01
 1.346340761103337e+00	 1.221150025771410e+00	 1.249195544633291e+01
 1.334381237830432e+00	 1.234207252683257e+00	 1.238792324302998e+01
 1.322292779725160e+00	 1.247149804609108e+00	 1.227056992593066e+01
 1.310077044727335e+00	 1.259975780453069e+00	 1.214194561047560e+01
 1.297735727990294e+00	 1.272683311255133e+00	 1.200413664038496e+01
 1.285270561097901e+00	 1.285270561097901e+00	 1.185925332947986e+01
 1.272683311255133e+00	 1.297735727990294e+00	 1.170941749809183e+01
 1.259975780453069e+00	 1.310077044727334e+00	 1.155674988457727e+01
 1.247149804609108e+00	 1.322292779725160e+00	 1.140335751463745e+01
 1.234207252683256e+00	 1.334381237830431e+00	 1.125132111277966e+01
 1.221150025771410e+00	 1.346340761103336e+00	 1.110268264132630e+01
 1.350697850945095e+00	 1.225101967602386e+00	 1.251014896071343e+01
 1.338699623713378e+00	 1.238201450912006e+00	 1.240692804529061e+01
 1.326572044384465e+00	 1.251185888119170e+00	 1.229006975208195e+01
 1.314316776263669e+00	 1.264053371975571e+00	 1.216162168066309e+01
 1.301935519990263e+00	 1.276802027472787e+00	 1.202366791335840e+01
 1.289430012751940e+00	 1.289430012751940e+00	 1.187831652776688e+01
 1.276802027472787e+00	 1.301935519990263e+00	 1.172768689640775e+01
 1.264053371975572e+00	 1.314316776263669e+00	 1.157389685569120e+01
 1.251185888119170e+00	 1.326572044384465e+00	 1.141904982866408e+01
 1.238201450912005e+00	 1.338699623713378e+00	 1.126522198767882e+01
 1.225101967602386e+00	 1.350697850945095e+00	 1.111444954424395e+01
 1.185582549292631e+00	 1.307126952527511e+00	 1.100962970775588e+01
 1.172796171045166e+00	 1.318611387935380e+00	 1.087639081983657e+01
 1.159902239280221e+00	 1.329967535890934e+00	 1.073025344000182e+01
 1.146902687829809e+00	 1.341193899426863e+00	 1.057479440188957e+01
 1.133799477999363e+00	 1.352289020475817e+00	 1.041299827238242e+01
 1.120594597589621e+00	 1.363251480492146e+00	 1.024757481039548e+01
 1.107290059901912e+00	 1.374079901044148e+00	 1.008097363037229e+01
 1.093887902727877e+00	 1.384772944376326e+00	 9.915400052322394e+00
 1.080390187324690e+00	 1.395329313941190e+00	 9.752831999471905e+00
 1.066798997376826e+00	 1.405747754900171e+00	 9.595037800884722e+00
 1.053116437945469e+00	 1.416027054593280e+00	 9.443594753642902e+00
 1.189534491123607e+00	 1.311484042369270e+00	 1.102113257926499e+01
 1.176705491615317e+00	 1.323006759228498e+00	 1.088556264549757e+01
 1.163768580077822e+00	 1.334400761010571e+00	 1.073697246410457e+01
 1.150725696789241e+00	 1.345664545758285e+00	 1.057936125663085e+01
 1.137578809592694e+00	 1.356796650544070e+00	 1.041574882252098e+01
 1.124329912914920e+00	 1.367795652093786e+00	 1.024887499494315e+01
 1.110981026768251e+00	 1.378660167380962e+00	 1.008121489318072e+01
 1.097534195736970e+00	 1.389388854190914e+00	 9.914995194848197e+00
 1.083991487949106e+00	 1.399980411654328e+00	 9.752211473969696e+00
 1.070354994034749e+00	 1.410433580749838e+00	 9.594646459073225e+00
 1.056626826071954e+00	 1.420747144775258e+00	 9.443889062650594e+00
 1.193486432954582e+00	 1.315841132211028e+00	 1.103186955609068e+01
 1.180614812185468e+00	 1.327402130521616e+00	 1.089399516309209e+01
 1.167634920875422e+00	 1.338833986130207e+00	 1.074293714818278e+01
 1.154548705748674e+00	 1.350135192089709e+00	 1.058312268312501e+01
 1.141358141186025e+00	 1.361304280612322e+00	 1.041766556937955e+01
 1.128065228240219e+00	 1.372339823695427e+00	 1.024932977996238e+01
 1.114671993634591e+00	 1.383240433717776e+00	 1.008060973026643e+01
 1.101180488746063e+00	 1.394004764005502e+00	 9.913746990962805e+00
 1.087592788573522e+00	 1.404631509367465e+00	 9.750748085519689e+00
 1.073910990692672e+00	 1.415119406599505e+00	 9.593403223216493e+00
 1.060137214198439e+00	 1.425467234957235e+00	 9.443305815684202e+00
 1.197438374785557e+00	 1.320198222052786e+00	 1.104205290603839e+01
 1.184524132755618e+00	 1.331797501814734e+00	 1.090186567206811e+01
 1.171501261673023e+00	 1.343267211249843e+00	 1.074839920133237e+01
 1.158371714708107e+00	 1.354605838421131e+00	 1.058632815046639e+01
 1.145137472779357e+00	 1.365811910680575e+00	 1.041899440372226e+01
 1.131800543565517e+00	 1.376883995297067e+00	 1.024918017179173e+01
 1.118362960500930e+00	 1.387820700054589e+00	 1.007939298932748e+01
 1.104826781755156e+00	 1.398620673820089e+00	 9.911882887157642e+00
 1.091194089197937e+00	 1.409282607080603e+00	 9.748660668379287e+00
 1.077466987350594e+00	 1.419805232449173e+00	 9.591517135861988e+00
 1.063647602324924e+00	 1.430187325139212e+00	 9.442043115794823e+00
 1.201390316616533e+00	 1.324555311894545e+00	 1.105188902433136e+01
 1.188433453325769e+00	 1.336192873107852e+00	 1.090938685133919e+01
 1.175367602470624e+00	 1.347700436369480e+00	 1.075360676812146e+01
 1.162194723667540e+00	 1.359076484752554e+00	 1.058922363539190e+01
 1.148916804372688e+00	 1.370319540748828e+00	 1.041997782462835e+01
 1.135535858890816e+00	 1.381428166898708e+00	 1.024866391314520e+01
 1.122053927367270e+00	 1.392400966391403e+00	 1.007779640874596e+01
 1.108473074764249e+00	 1.403236583634677e+00	 9.909627399996145e+00
 1.094795389822353e+00	 1.413933704793740e+00	 9.746165330151644e+00
 1.081022984008517e+00	 1.424491058298840e+00	 9.589194738845700e+00
 1.067157990451408e+00	 1.434907415321190e+00	 9.440296812696470e+00
 1.205342258447508e+00	 1.328912401736303e+00	 1.106157850318418e+01
 1.192342773895919e+00	 1.340588244400970e+00	 1.091676553015297e+01
 1.179233943268224e+00	 1.352133661489116e+00	 1.075877280008273e+01
 1.166017732626972e+00	 1.363547131083977e+00	 1.059205156220208e+01
 1.152696135966019e+00	 1.374827170817080e+00	 1.042085488026406e+01
 1.139271174216115e+00	 1.385972338500348e+00	 1.024801542443784e+01
 1.125744894233610e+00	 1.396981232728217e+00	 1.007604855917583e+01
 1.112119367773342e+00	 1.407852493449265e+00	 9.907202057682330e+00
 1.098396690446769e+00	 1.418584802506877e+00	 9.743475393061775e+00
 1.084578980666440e+00	 1.429176884148507e+00	 9.586640014011982e+00
 1.070668378577893e+00	 1.439627505503168e+00	 9.438260442676896e+00
 1.209294200278484e+00	 1.333269491578061e+00	 1.107131620115939e+01
 1.196252094466069e+00	 1.344983615694088e+00	 1.092420275722720e+01
 1.183100284065825e+00	 1.356566886608753e+00	 1.076403353330438e+01
 1.169840741586405e+00	 1.368017777415400e+00	 1.059505074244692e+01
 1.156475467559350e+00	 1.379334800885333e+00	 1.042186110843098e+01
 1.143006489541414e+00	 1.390516510101989e+00	 1.024746574490188e+01
 1.129435861099950e+00	 1.401561499065030e+00	 1.007437478494278e+01
 1.115765660782434e+00	 1.412468403263852e+00	 9.904825341467909e+00
 1.101997991071184e+00	 1.423235900220014e+00	 9.740801335104859e+00
 1.088134977324362e+00	 1.433862709998174e+00	 9.584054323847234e+00
 1.074178766704379e+00	 1.444347595685146e+00	 9.436125168468445e+00
 1.213246142109459e+00	 1.337626581419820e+00	 1.108129131231559e+01
 1.200161415036220e+00	 1.349378986987207e+00	 1.093189386966249e+01
 1.186966624863426e+00	 1.361000111728389e+00	 1.076958439934996e+01
 1.173663750545837e+00	 1.372488423746823e+00	 1.059845631438527e+01
 1.160254799152681e+00	 1.383842430953586e+00	 1.042322847689407e+01
 1.146741804866712e+00	 1.395060681703629e+00	 1.024724247349661e+01
 1.133126827966289e+00	 1.406141765401844e+00	 1.007299714525808e+01
 1.119411953791527e+00	 1.417084313078440e+00	 9.902712626902412e+00
 1.105599291695600e+00	 1.427886997933151e+00	 9.738350731071723e+00
 1.091690973982286e+00	 1.438548535847842e+00	 9.581636352028333e+00
 1.077689154830863e+00	 1.449067685867123e+00	 9.434079719077458e+00
 1.217198083940435e+00	 1.341983671261578e+00	 1.109168743514733e+01
 1.204070735606371e+00	 1.353774358280323e+00	 1.094002856163685e+01
 1.190832965661027e+00	 1.365433336848025e+00	 1.077561971666517e+01
 1.177486759505270e+00	 1.376959070078245e+00	 1.060249514417764e+01
 1.164034130746013e+00	 1.388350061021839e+00	 1.042518532349364e+01
 1.150477120192011e+00	 1.399604853305270e+00	 1.024756970961852e+01
 1.136817794832629e+00	 1.410722031738658e+00	 1.007213435525507e+01
 1.123058246800620e+00	 1.421700222893028e+00	 9.901076124930270e+00
 1.109200592320015e+00	 1.432538095646289e+00	 9.736328193453630e+00
 1.095246970640208e+00	 1.443234361697509e+00	 9.579582043888827e+00
 1.081199542957348e+00	 1.453787776049101e+00	 9.432310329574241e+00
 1.221150025771410e+00	 1.346340761103336e+00	 1.110268264132630e+01
 1.207980056176521e+00	 1.358169729573442e+00	 1.094879095288568e+01
 1.194699306458627e+00	 1.369866561967662e+00	 1.078232820254135e+01
 1.181309768464702e+00	 1.381429716409668e+00	 1.060729572409005e+01
 1.167813462339344e+00	 1.392857691090091e+00	 1.042795629604795e+01
 1.154212435517310e+00	 1.404149024906910e+00	 1.024866799361453e+01
 1.140508761698969e+00	 1.415302298075472e+00	 1.007200172684683e+01
 1.126704539809713e+00	 1.426316132707616e+00	 9.900124822838404e+00
 1.112801892944431e+00	 1.437189193359426e+00	 9.734935313228080e+00
 1.098802967298131e+00	 1.447920187547176e+00	 9.578084546803987e+00
 1.084709931083833e+00	 1.458507866231078e+00	 9.431000680846811e+00
 1.225101967602386e+00	 1.350697850945095e+00	 1.111444954424395e+01
 1.211889376746672e+00	 1.362565100866559e+00	 1.095835965697341e+01
 1.198565647256228e+00	 1.374299787087298e+00	 1.078989304072770e+01
 1.185132777424136e+00	 1.385900362741092e+00	 1.061301303387357e+01
 1.171592793932675e+00	 1.397365321158344e+00	 1.043176229204953e+01
 1.157947750842609e+00	 1.408693196508551e+00	 1.025075424710316e+01
 1.144199728565308e+00	 1.419882564412286e+00	 1.007281110941395e+01
 1.130350832818806e+00	 1.430932042522204e+00	 9.900064425056286e+00
 1.116403193568847e+00	 1.441840291072563e+00	 9.734370600530283e+00
 1.102358963956054e+00	 1.452606013396844e+00	 9.577334150496952e+00
 1.088220319210318e+00	 1.463227956413056e+00	 9.430331839314650e+00
 1.053116437945469e+00	 1.416027054593280e+00	 9.443594753642902e+00
 1.039344634406660e+00	 1.426166042977170e+00	 9.301628500614697e+00
 1.025485731379268e+00	 1.436163593031309e+00	 9.170349807698782e+00
 1.011541891643913e+00	 1.446018621132013e+00	 9.048189117851575e+00
 9.975152950539364e-01	 1.455730087394133e+00	 8.933405886253446e+00
 9.834081374395648e-01	 1.465296995980241e+00	 8.824112761018934e+00
 9.692226295063571e-01	 1.474718395377184e+00	 8.718299697523952e+00
 9.549609957290802e-01	 1.483993378639944e+00	 8.613857860993230e+00
 9.406254732421204e-01	 1.493121083602770e+00	 8.508603176492182e+00
 9.262183107275459e-01	 1.502100693057587e+00	 8.400299390769964e+00
 9.117417673019355e-01	 1.510931434899750e+00	 8.286680516429710e+00
 1.056626826071954e+00	 1.420747144775258e+00	 9.443889062650594e+00
 1.042809116521349e+00	 1.430919929787093e+00	 9.302756585594819e+00
 1.028904017150533e+00	 1.440950805008080e+00	 9.172162760792046e+00
 1.014913697949392e+00	 1.450838683202453e+00	 9.050563837672204e+00
 1.000840346037449e+00	 1.460582521018780e+00	 8.936244161814901e+00
 9.866861645643630e-01	 1.470181319300175e+00	 8.827340822133561e+00
 9.724533716047115e-01	 1.479634123361774e+00	 8.721868224511626e+00
 9.581441990481774e-01	 1.488940023235410e+00	 8.617742443545442e+00
 9.437608914862609e-01	 1.498098153881446e+00	 8.512805208663904e+00
 9.293057050966375e-01	 1.507107695367779e+00	 8.404847386310390e+00
 9.147809065262753e-01	 1.515967873016082e+00	 8.291631826053019e+00
 1.060137214198439e+00	 1.425467234957235e+00	 9.443305815684202e+00
 1.046273598636038e+00	 1.435673816597018e+00	 9.302960505080650e+00
 1.032322302921797e+00	 1.445738016984851e+00	 9.172987534772341e+00
 1.018285504254872e+00	 1.455658745272892e+00	 9.051873678727937e+00
 1.004165397020962e+00	 1.465434954643427e+00	 8.937933131860298e+00
 9.899641916891616e-01	 1.475065642620110e+00	 8.829332624268845e+00
 9.756841137030661e-01	 1.484549851346365e+00	 8.724116454321340e+00
 9.613274023672747e-01	 1.493886667830878e+00	 8.620231289212889e+00
 9.468963097304014e-01	 1.503075224160122e+00	 8.515550586360643e+00
 9.323930994657297e-01	 1.512114697677971e+00	 8.407898494531558e+00
 9.178200457506152e-01	 1.521004311132415e+00	 8.295073099924178e+00
 1.063647602324924e+00	 1.430187325139212e+00	 9.442043115794823e+00
 1.049738080750727e+00	 1.440427703406941e+00	 9.302428167311877e+00
 1.035740588693061e+00	 1.450525228961622e+00	 9.173004400111157e+00
 1.021657310560352e+00	 1.460478807343333e+00	 9.052293741047745e+00
 1.007490448004476e+00	 1.470287388268074e+00	 8.938645101884585e+00
 9.932422188139605e-01	 1.479949965940043e+00	 8.830259961400735e+00
 9.789148558014206e-01	 1.489465579330955e+00	 8.725217858287577e+00
 9.645106056863713e-01	 1.498833312426344e+00	 8.621501640409234e+00
 9.500317279745417e-01	 1.508052294438798e+00	 8.517022320840994e+00
 9.354804938348212e-01	 1.517121699988163e+00	 8.409643396767514e+00
 9.208591849749548e-01	 1.526040749248747e+00	 8.297204493784539e+00
 1.067157990451408e+00	 1.434907415321190e+00	 9.440296812696470e+00
 1.053202562865415e+00	 1.445181590216865e+00	 9.301345470261960e+00
 1.039158874464325e+00	 1.455312440938393e+00	 9.172391831089566e+00
 1.025029116865831e+00	 1.465298869413773e+00	 9.051997513882259e+00
 1.010815498987989e+00	 1.475139821892722e+00	 8.938550923699729e+00
 9.965202459387589e-01	 1.484834289259978e+00	 8.830293302975280e+00
 9.821455978997751e-01	 1.494381307315546e+00	 8.725344684819650e+00
 9.676938090054680e-01	 1.503779957021810e+00	 8.621729591094908e+00
 9.531671462186816e-01	 1.513029364717473e+00	 8.517402322691352e+00
 9.385678882039131e-01	 1.522128702298355e+00	 8.410271695237642e+00
 9.238983241992945e-01	 1.531077187365080e+00	 8.298225080086329e+00
 1.070668378577893e+00	 1.439627505503168e+00	 9.438260442676896e+00
 1.056667044980105e+00	 1.449935477026789e+00	 9.299896240898516e+00
 1.042577160235590e+00	 1.460099652915164e+00	 9.171326444959806e+00
 1.028400923171311e+00	 1.470118931484213e+00	 9.051156815300207e+00
 1.014140549971502e+00	 1.479992255517369e+00	 8.937819935988081e+00
 9.997982730635574e-01	 1.489718612579912e+00	 8.829601735919059e+00
 9.853763399981297e-01	 1.499297035300136e+00	 8.724667903352527e+00
 9.708770123245651e-01	 1.508726601617276e+00	 8.621090033137389e+00
 9.563025644628220e-01	 1.518006434996149e+00	 8.516871351045273e+00
 9.416552825730049e-01	 1.527135704608547e+00	 8.409971865556168e+00
 9.269374634236341e-01	 1.536113625481412e+00	 8.298332804205618e+00
 1.074178766704379e+00	 1.444347595685146e+00	 9.436125168468445e+00
 1.060131527094794e+00	 1.454689363836713e+00	 9.298262174445144e+00
 1.045995446006854e+00	 1.464886864891935e+00	 9.169982941140780e+00
 1.031772729476791e+00	 1.474938993554653e+00	 9.049941731843150e+00
 1.017465600955015e+00	 1.484844689142016e+00	 8.936619904924353e+00
 1.003076300188356e+00	 1.494602935899846e+00	 8.828352906722273e+00
 9.886070820964844e-01	 1.504212763284728e+00	 8.723357148366812e+00
 9.740602156436620e-01	 1.513673246212743e+00	 8.619756602724605e+00
 9.594379827069629e-01	 1.522983505274825e+00	 8.515608962830870e+00
 9.447426769420966e-01	 1.532142706918739e+00	 8.408931209236133e+00
 9.299766026479740e-01	 1.541150063597745e+00	 8.297724440609134e+00
 1.077689154830863e+00	 1.449067685867123e+00	 9.434079719077458e+00
 1.063596009209482e+00	 1.459443250646637e+00	 9.296622773645424e+00
 1.049413731778118e+00	 1.469674076868707e+00	 9.168534040446879e+00
 1.035144535782271e+00	 1.479759055625093e+00	 9.048520558236531e+00
 1.020790651938528e+00	 1.489697122766663e+00	 8.935116964866927e+00
 1.006354327313155e+00	 1.499487259219780e+00	 8.826712963592989e+00
 9.918378241948385e-01	 1.509128491269318e+00	 8.721580663472471e+00
 9.772434189627591e-01	 1.518619890808210e+00	 8.617901626828331e+00
 9.625734009511032e-01	 1.527960575553502e+00	 8.513793462047175e+00
 9.478300713111886e-01	 1.537149709228931e+00	 8.407335806193059e+00
 9.330157418723137e-01	 1.546186501714077e+00	 8.296595548980669e+00
 1.081199542957348e+00	 1.453787776049101e+00	 9.432310329574241e+00
 1.067060491324171e+00	 1.464197137456561e+00	 9.295155288028660e+00
 1.052832017549382e+00	 1.474461288845477e+00	 9.167150424350831e+00
 1.038516342087750e+00	 1.484579117695533e+00	 9.047059737153463e+00
 1.024115702922041e+00	 1.494549556391310e+00	 8.933475559115262e+00
 1.009632354437953e+00	 1.504371582539715e+00	 8.824846498681451e+00
 9.950685662931932e-01	 1.514044219253909e+00	 8.719505245558278e+00
 9.804266222818563e-01	 1.523566535403676e+00	 8.615696069719176e+00
 9.657088191952437e-01	 1.532937645832178e+00	 8.511601849066579e+00
 9.509174656802802e-01	 1.542156711539123e+00	 8.405370467243261e+00
 9.360548810966536e-01	 1.551222939830409e+00	 8.295140430303986e+00
 1.084709931083833e+00	 1.458507866231078e+00	 9.431000680846811e+00
 1.070524973438860e+00	 1.468951024266485e+00	 9.294034653177183e+00
 1.056250303320647e+00	 1.479248500822248e+00	 9.166000674278060e+00
 1.041888148393230e+00	 1.489399179765973e+00	 9.045723799033546e+00
 1.027440753905554e+00	 1.499401990015957e+00	 8.931858380733026e+00
 1.012910381562751e+00	 1.509255905859648e+00	 8.822916490373544e+00
 9.982993083915476e-01	 1.518959947238499e+00	 8.717296189002818e+00
 9.836098256009528e-01	 1.528513179999142e+00	 8.613309479528027e+00
 9.688442374393840e-01	 1.537914716110853e+00	 8.509209769964889e+00
 9.540048600493722e-01	 1.547163713849315e+00	 8.403218686598882e+00
 9.390940203209935e-01	 1.556259377946742e+00	 8.293552082906757e+00
 1.088220319210318e+00	 1.463227956413056e+00	 9.430331839314650e+00
 1.073989455553549e+00	 1.473704911076409e+00	 9.293433429995673e+00
 1.059668589091911e+00	 1.484035712799019e+00	 9.165251210932674e+00
 1.045259954698710e+00	 1.494219241836413e+00	 9.044675301953543e+00
 1.030765804889068e+00	 1.504254423640605e+00	 8.930426313434937e+00
 1.016188408687550e+00	 1.514140229179583e+00	 8.821084245649621e+00
 1.001530050489903e+00	 1.523875675223090e+00	 8.715117229947600e+00
 9.867930289200499e-01	 1.533459824594609e+00	 8.610909934857656e+00
 9.719796556835244e-01	 1.542891786389529e+00	 8.506791465876871e+00
 9.570922544184639e-01	 1.552170716159507e+00	 8.401062594360782e+00
 9.421331595453333e-01	 1.561295816063074e+00	 8.292022158463618e+00
 9.117417673019355e-01	 1.510931434899750e+00	 8.286680516429710e+00
 8.971981114030718e-01	 1.519612582241222e+00	 8.173966529216921e+00
 8.825896196775863e-01	 1.528143453491343e+00	 8.068708062488117e+00
 8.679185758706481e-01	 1.536523412405336e+00	 7.969167772625912e+00
 8.531872697187604e-01	 1.544751868100803e+00	 7.873677977544765e+00
 8.383979958467128e-01	 1.552828275042443e+00	 7.780656995086883e+00
 8.235530526697397e-01	 1.560752132995315e+00	 7.688624235589215e+00
 8.086547413018972e-01	 1.568522986946967e+00	 7.596213979740282e+00
 7.937053644716624e-01	 1.576140426998806e+00	 7.502187782627510e+00
 7.787072254457376e-01	 1.583604088227128e+00	 7.405445454839622e+00
 7.636626269620177e-01	 1.590913650514239e+00	 7.305034581537980e+00
 9.147809065262753e-01	 1.515967873016082e+00	 8.291631826053019e+00
 9.001887717744150e-01	 1.524677957515359e+00	 8.179526487751030e+00
 8.855315850765113e-01	 1.533237265002981e+00	 8.075176998173681e+00
 8.708116377902172e-01	 1.541645157113354e+00	 7.976798235098364e+00
 8.560312272844893e-01	 1.549901040994472e+00	 7.882676876988731e+00
 8.411926558328683e-01	 1.558004369292584e+00	 7.791188138323490e+00
 8.262982295119722e-01	 1.565954640105300e+00	 7.700811228488535e+00
 8.113502571062368e-01	 1.573751396903456e+00	 7.610143463810861e+00
 7.963510490199015e-01	 1.581394228422135e+00	 7.517912972325685e+00
 7.813029161972235e-01	 1.588882768521218e+00	 7.422989941037581e+00
 7.662081690518912e-01	 1.596216696015954e+00	 7.324396365710676e+00
 9.178200457506152e-01	 1.521004311132415e+00	 8.295073099924178e+00
 9.031794321457589e-01	 1.529743332789497e+00	 8.183587233982351e+00
 8.884735504754367e-01	 1.538331076514619e+00	 8.080171630489785e+00
 8.737046997097856e-01	 1.546766901821372e+00	 7.982989713104576e+00
 8.588751848502187e-01	 1.555050213888141e+00	 7.890278735715532e+00
 8.439873158190240e-01	 1.563180463542725e+00	 7.800366928504196e+00
 8.290434063542045e-01	 1.571157147215284e+00	 7.711689336533174e+00
 8.140457729105761e-01	 1.578979806859946e+00	 7.622802278868759e+00
 7.989967335681403e-01	 1.586648029845465e+00	 7.532396366475693e+00
 7.838986069487095e-01	 1.594161448815310e+00	 7.439308027512119e+00
 7.687537111417643e-01	 1.601519741517667e+00	 7.342529499156083e+00
 9.208591849749548e-01	 1.526040749248747e+00	 8.297204493784539e+00
 9.061700925171022e-01	 1.534808708063634e+00	 8.186358278682647e+00
 8.914155158743617e-01	 1.543424888026256e+00	 8.083908853909353e+00
 8.765977616293545e-01	 1.551888646529390e+00	 7.987964525929652e+00
 8.617191424159480e-01	 1.560199386781811e+00	 7.896709353922812e+00
 8.467819758051796e-01	 1.568356557792867e+00	 7.808420720457112e+00
 8.317885831964370e-01	 1.576359654325268e+00	 7.721485563215586e+00
 8.167412887149161e-01	 1.584208216816436e+00	 7.634415194178642e+00
 8.016424181163792e-01	 1.591901831268794e+00	 7.545858643104038e+00
 7.864942977001952e-01	 1.599440129109399e+00	 7.454614472774108e+00
 7.712992532316376e-01	 1.606822787019382e+00	 7.359641024202725e+00
 9.238983241992945e-01	 1.531077187365080e+00	 8.298225080086329e+00
 9.091607528884460e-01	 1.539874083337771e+00	 8.188048043984526e+00
 8.943574812732870e-01	 1.548518699537893e+00	 8.086604491372967e+00
 8.794908235489234e-01	 1.557010391237407e+00	 7.991943960028973e+00
 8.645630999816771e-01	 1.565348559675480e+00	 7.902193558415518e+00
 8.495766357913358e-01	 1.573532652043009e+00	 7.815575974926814e+00
 8.345337600386695e-01	 1.581562161435253e+00	 7.730426116269168e+00
 8.194368045192558e-01	 1.589436626772926e+00	 7.645206299732412e+00
 8.042881026646181e-01	 1.597155632692123e+00	 7.558519934768855e+00
 7.890899884516808e-01	 1.604718809403489e+00	 7.469123640149990e+00
 7.738447953215110e-01	 1.612125832521095e+00	 7.375937753931136e+00
 9.269374634236341e-01	 1.536113625481412e+00	 8.298332804205618e+00
 9.121514132597894e-01	 1.544939458611909e+00	 8.188863823294337e+00
 8.972994466722125e-01	 1.553612511049531e+00	 8.088473257510094e+00
 8.823838854684923e-01	 1.562132135945425e+00	 7.995148235166281e+00
 8.674070575474062e-01	 1.570497732569149e+00	 7.906955171271655e+00
 8.523712957774914e-01	 1.578708746293150e+00	 7.822058229386501e+00
 8.372789368809020e-01	 1.586764668545237e+00	 7.738736380249423e+00
 8.221323203235954e-01	 1.594665036729416e+00	 7.655398980231641e+00
 8.069337872128569e-01	 1.602409434115453e+00	 7.570599803579242e+00
 7.916856792031665e-01	 1.609997489697579e+00	 7.483049473483156e+00
 7.763903374113846e-01	 1.617428878022810e+00	 7.391626248207706e+00
 9.299766026479740e-01	 1.541150063597745e+00	 8.297724440609134e+00
 9.151420736311330e-01	 1.550004833886046e+00	 8.189011741124608e+00
 9.002414120711375e-01	 1.558706322561169e+00	 8.089728721743821e+00
 8.852769473880613e-01	 1.567253880653443e+00	 7.997796470407225e+00
 8.702510151131355e-01	 1.575646905462819e+00	 7.911216978345941e+00
 8.551659557636471e-01	 1.583884840543292e+00	 7.828092068678380e+00
 8.400241137231345e-01	 1.591967175655221e+00	 7.746640888943615e+00
 8.248278361279352e-01	 1.599893446685906e+00	 7.665215888902121e+00
 8.095794717610957e-01	 1.607663235538782e+00	 7.582317216059165e+00
 7.942813699546524e-01	 1.615276169991670e+00	 7.496605472694526e+00
 7.789358795012579e-01	 1.622731923524524e+00	 7.406912789600446e+00
 9.330157418723137e-01	 1.546186501714077e+00	 8.296595548980669e+00
 9.181327340024767e-01	 1.555070209160184e+00	 8.188696712842299e+00
 9.031833774700629e-01	 1.563800134072807e+00	 8.090583271283519e+00
 8.881700093076298e-01	 1.572375625361460e+00	 8.000106649977099e+00
 8.730949726788648e-01	 1.580796078356488e+00	 7.915200697621933e+00
 8.579606157498025e-01	 1.589060934793433e+00	 7.833901095490383e+00
 8.427692905653666e-01	 1.597169682765206e+00	 7.754363297611294e+00
 8.275233519322749e-01	 1.605121856642396e+00	 7.674878921142380e+00
 8.122251563093343e-01	 1.612917036962111e+00	 7.593890517853366e+00
 7.968770607061383e-01	 1.620554850285761e+00	 7.510004669205095e+00
 7.814814215911312e-01	 1.628034969026238e+00	 7.422003359177230e+00
 9.360548810966536e-01	 1.551222939830409e+00	 8.295140430303986e+00
 9.211233943738201e-01	 1.560135584434321e+00	 8.188122404339540e+00
 9.061253428689880e-01	 1.568893945584445e+00	 8.091248074004557e+00
 8.910630712271989e-01	 1.577497370069479e+00	 8.002295588982676e+00
 8.759389302445939e-01	 1.585945251250158e+00	 7.919126947408717e+00
 8.607552757359582e-01	 1.594237029043575e+00	 7.839707900670428e+00
 8.455144674075993e-01	 1.602372189875191e+00	 7.762126355059573e+00
 8.302188677366146e-01	 1.610350266598886e+00	 7.684609188011427e+00
 8.148708408575736e-01	 1.618170838385441e+00	 7.605537408283267e+00
 7.994727514576241e-01	 1.625833530579852e+00	 7.523459601220397e+00
 7.840269636810046e-01	 1.633338014527952e+00	 7.437103612192097e+00
 9.390940203209935e-01	 1.556259377946742e+00	 8.293552082906757e+00
 9.241140547451636e-01	 1.565200959708458e+00	 8.187491191623028e+00
 9.090673082679135e-01	 1.573987757096083e+00	 8.091933041221019e+00
 8.939561331467677e-01	 1.582619114777496e+00	 8.004578899002905e+00
 8.787828878103230e-01	 1.591094424143827e+00	 7.923215214392342e+00
 8.635499357221140e-01	 1.599413123293715e+00	 7.845734033383177e+00
 8.482596442498317e-01	 1.607574696985174e+00	 7.770151875557206e+00
 8.329143835409540e-01	 1.615578676555375e+00	 7.694626989557365e+00
 8.175165254058124e-01	 1.623424639808770e+00	 7.617474914752679e+00
 8.020684422091097e-01	 1.631112210873941e+00	 7.537182288884414e+00
 7.865725057708780e-01	 1.638641060029666e+00	 7.452418853658454e+00
 9.421331595453333e-01	 1.561295816063074e+00	 8.292022158463618e+00
 9.271047151165075e-01	 1.570266334982596e+00	 8.187004120329689e+00
 9.120092736668389e-01	 1.579081568607721e+00	 8.092846790351548e+00
 8.968491950663365e-01	 1.587740859485514e+00	 8.007170953549435e+00
 8.816268453760522e-01	 1.596243597037496e+00	 7.927683821539873e+00
 8.663445957082698e-01	 1.604589217543857e+00	 7.852199971111673e+00
 8.510048210920643e-01	 1.612777204095159e+00	 7.778660710592616e+00
 8.356098993452937e-01	 1.620807086511865e+00	 7.705151787992712e+00
 8.201622099540516e-01	 1.628678441232100e+00	 7.629919367011690e+00
 8.046641329605958e-01	 1.636390891168032e+00	 7.551384209302467e+00
 7.891180478607515e-01	 1.643944105531381e+00	 7.468154013815015e+00
 7.636626269620177e-01	 1.590913650514239e+00	 7.305034581537983e+00
 7.485738701726589e-01	 1.598068838350151e+00	 7.204508188805937e+00
 7.334432535981578e-01	 1.605069420605358e+00	 7.107084500244677e+00
 7.182730720933294e-01	 1.611915210275244e+00	 7.011545689141586e+00
 7.030656158260452e-01	 1.618606064196664e+00	 6.916838451973685e+00
 6.878231692695609e-01	 1.625141882737335e+00	 6.822076749892398e+00
 6.725480102092358e-01	 1.631522609458621e+00	 6.726543058962898e+00
 6.572424087644255e-01	 1.637748230752398e+00	 6.629688156610850e+00
 6.419086264262812e-01	 1.643818775452634e+00	 6.531129480302287e+00
 6.265489151121768e-01	 1.649734314422425e+00	 6.430648102640989e+00
 6.111655162374392e-01	 1.655494960117154e+00	 6.328184374746491e+00
 7.662081690518912e-01	 1.596216696015954e+00	 7.324396365710673e+00
 7.510691164065677e-01	 1.603395734477985e+00	 7.225620034253428e+00
 7.358880644434849e-01	 1.610419652007376e+00	 7.129812312287846e+00
 7.206673156669737e-01	 1.617288260976161e+00	 7.035733474658124e+00
 7.054091678787989e-01	 1.624001417743987e+00	 6.942312366183857e+00
 6.901159131671261e-01	 1.630559022346460e+00	 6.848649213902540e+00
 6.747898369099332e-01	 1.636961018156818e+00	 6.754016912326612e+00
 6.594332167936402e-01	 1.643207391521572e+00	 6.657860809733267e+00
 6.440483218477024e-01	 1.649298171370810e+00	 6.559797032263543e+00
 6.286374114958839e-01	 1.655233428803833e+00	 6.459609390944840e+00
 6.132027346248972e-01	 1.661013276650878e+00	 6.357244924603190e+00
 7.687537111417643e-01	 1.601519741517667e+00	 7.342529499156086e+00
 7.535643626404767e-01	 1.608722630605818e+00	 7.245479510516954e+00
 7.383328752888120e-01	 1.615769883409394e+00	 7.151248037913412e+00
 7.230615592406181e-01	 1.622661311677079e+00	 7.058583466743324e+00
 7.077527199315523e-01	 1.629396771291308e+00	 6.966407138024991e+00
 6.924086570646912e-01	 1.635976161955584e+00	 6.873816215665745e+00
 6.770316636106307e-01	 1.642399426855012e+00	 6.780084990260923e+00
 6.616240248228549e-01	 1.648666552290747e+00	 6.684664648031132e+00
 6.461880172691230e-01	 1.654777567288985e+00	 6.587181542466141e+00
 6.307259078795910e-01	 1.660732543185240e+00	 6.487434014771997e+00
 6.152399530123557e-01	 1.666531593184602e+00	 6.385387817223405e+00
 7.712992532316376e-01	 1.606822787019382e+00	 7.359641024202729e+00
 7.560596088743855e-01	 1.614049526733652e+00	 7.264286322781777e+00
 7.407776861341393e-01	 1.621120114811412e+00	 7.171586506774008e+00
 7.254558028142625e-01	 1.628034362377996e+00	 7.080287975746533e+00
 7.100962719843058e-01	 1.634792124838632e+00	 6.989314810187691e+00
 6.947014009622565e-01	 1.641393301564709e+00	 6.897771678194055e+00
 6.792734903113282e-01	 1.647837835553208e+00	 6.804945141427398e+00
 6.638148328520699e-01	 1.654125713059922e+00	 6.710303389595173e+00
 6.483277126905441e-01	 1.660256963207160e+00	 6.613494441855021e+00
 6.328144042632986e-01	 1.666231657566648e+00	 6.514342862245281e+00
 6.172771713998136e-01	 1.672049909718326e+00	 6.412845044455204e+00
 7.738447953215110e-01	 1.612125832521095e+00	 7.375937753931136e+00
 7.585548551082946e-01	 1.619376422861486e+00	 7.282240099583548e+00
 7.432224969794663e-01	 1.626470346213430e+00	 7.191022583421557e+00
 7.278500463879068e-01	 1.633407413078913e+00	 7.101039418535587e+00
 7.124398240370593e-01	 1.640187478385953e+00	 7.011227564745475e+00
 6.969941448598215e-01	 1.646810441173832e+00	 6.920709659193792e+00
 6.815153170120256e-01	 1.653276244251404e+00	 6.828795308188614e+00
 6.660056408812844e-01	 1.659584873829096e+00	 6.734980770211322e+00
 6.504674081119649e-01	 1.665736359125336e+00	 6.638947069368843e+00
 6.349029006470056e-01	 1.671730771948057e+00	 6.540556587450541e+00
 6.193143897872716e-01	 1.677568226252049e+00	 6.439848191142511e+00
 7.763903374113846e-01	 1.617428878022810e+00	 7.391626248207703e+00
 7.610501013422032e-01	 1.624703318989320e+00	 7.299540369295288e+00
 7.456673078247936e-01	 1.631820577615448e+00	 7.209751144811175e+00
 7.302442899615514e-01	 1.638780463779831e+00	 7.121030297568414e+00
 7.147833760898127e-01	 1.645582831933275e+00	 7.032337704306862e+00
 6.992868887573866e-01	 1.652227580782957e+00	 6.942824334799393e+00
 6.837571437127229e-01	 1.658714652949598e+00	 6.851833513398919e+00
 6.681964489104992e-01	 1.665044034598271e+00	 6.758900533651024e+00
 6.526071035333859e-01	 1.671215755043512e+00	 6.663750666160977e+00
 6.369913970307127e-01	 1.677229886329465e+00	 6.566295608984588e+00
 6.213516081747299e-01	 1.683086542785773e+00	 6.466628438377210e+00
 7.789358795012579e-01	 1.622731923524524e+00	 7.406912789600446e+00
 7.635453475761121e-01	 1.630030215117153e+00	 7.316386536512982e+00
 7.481121186701206e-01	 1.637170809017465e+00	 7.227967057716326e+00
 7.326385335351957e-01	 1.644153514480749e+00	 7.140453179867185e+00
 7.171269281425661e-01	 1.650978185480597e+00	 7.052837633063390e+00
 7.015796326549519e-01	 1.657644720392082e+00	 6.964309983178445e+00
 6.859989704134203e-01	 1.664153061647794e+00	 6.874257847029646e+00
 6.703872569397141e-01	 1.670503195367446e+00	 6.782266421757956e+00
 6.547467989548069e-01	 1.676695150961687e+00	 6.688116369558579e+00
 6.390798934144203e-01	 1.682729000710873e+00	 6.591780108180819e+00
 6.233888265621881e-01	 1.688604859319497e+00	 6.493416566361025e+00
 7.814814215911312e-01	 1.628034969026238e+00	 7.422003359177234e+00
 7.660405938100209e-01	 1.635357111244987e+00	 7.332977858347124e+00
 7.505569295154477e-01	 1.642521040419484e+00	 7.245865156055780e+00
 7.350327771088403e-01	 1.649526565181666e+00	 7.159500675903178e+00
 7.194704801953195e-01	 1.656373539027920e+00	 7.072919837732056e+00
 7.038723765525170e-01	 1.663061860001206e+00	 6.985360968009024e+00
 6.882407971141178e-01	 1.669591470345989e+00	 6.896266452632051e+00
 6.725780649689287e-01	 1.675962356136620e+00	 6.805282164327458e+00
 6.568864943762278e-01	 1.682174546879862e+00	 6.712255206768530e+00
 6.411683897981275e-01	 1.688228115092281e+00	 6.617230027024670e+00
 6.254260449496460e-01	 1.694123175853221e+00	 6.520442956884908e+00
 7.840269636810046e-01	 1.633338014527952e+00	 7.437103612192092e+00
 7.685358400439298e-01	 1.640684007372821e+00	 7.349513420616699e+00
 7.530017403607751e-01	 1.647871271821501e+00	 7.263640218131960e+00
 7.374270206824848e-01	 1.654899615882583e+00	 7.178365418393156e+00
 7.218140322480732e-01	 1.661768892575242e+00	 7.092776868395655e+00
 7.061651204500822e-01	 1.668478999610331e+00	 7.006171721830368e+00
 6.904826238148154e-01	 1.675029879044185e+00	 6.918057513644162e+00
 6.747688729981436e-01	 1.681421516905795e+00	 6.828151468789807e+00
 6.590261897976487e-01	 1.687653942798038e+00	 6.736378088331964e+00
 6.432568861818349e-01	 1.693727229473689e+00	 6.642865065754195e+00
 6.274632633371042e-01	 1.699641492386945e+00	 6.547937595433001e+00
 7.865725057708780e-01	 1.638641060029666e+00	 7.452418853658457e+00
 7.710310862778385e-01	 1.646010903500654e+00	 7.366192113954465e+00
 7.554465512061024e-01	 1.653221503223519e+00	 7.281486943789048e+00
 7.398212642561293e-01	 1.660272666583501e+00	 7.197240041008369e+00
 7.241575843008266e-01	 1.667164246122564e+00	 7.112601319243566e+00
 7.084578643476475e-01	 1.673896139219455e+00	 7.026936729273409e+00
 6.927244505155127e-01	 1.680468287742380e+00	 6.939829239544775e+00
 6.769596810273583e-01	 1.686880677674970e+00	 6.851078009698107e+00
 6.611658852190699e-01	 1.693133338716213e+00	 6.760695801337381e+00
 6.453453825655419e-01	 1.699226343855098e+00	 6.668904680164843e+00
 6.295004817245624e-01	 1.705159808920669e+00	 6.576130072922118e+00
 7.891180478607515e-01	 1.643944105531381e+00	 7.468154013815010e+00
 7.735263325117476e-01	 1.651337799628489e+00	 7.383212609819612e+00
 7.578913620514297e-01	 1.658571734625538e+00	 7.299599931484342e+00
 7.422155078297737e-01	 1.665645717284419e+00	 7.216317156998315e+00
 7.265011363535803e-01	 1.672559599669887e+00	 7.132585809216710e+00
 7.107506082452129e-01	 1.679313278828580e+00	 7.047850510170653e+00
 6.949662772162102e-01	 1.685906696440576e+00	 6.961779851853393e+00
 6.791504890565730e-01	 1.692339838444145e+00	 6.874265418025090e+00
 6.633055806404905e-01	 1.698612734634389e+00	 6.785419002394471e+00
 6.474338789492495e-01	 1.704725458236506e+00	 6.695568078619555e+00
 6.315377001120205e-01	 1.710678125454392e+00	 6.605249587084170e+00
 6.111655162374392e-01	 1.655494960117154e+00	 6.328184374746491e+00
 5.957606598050358e-01	 1.661100866124553e+00	 6.224171279666462e+00
 5.803365635138286e-01	 1.666552226682390e+00	 6.118404397030936e+00
 5.648954318859825e-01	 1.671849276174566e+00	 6.007952658021434e+00
 5.494394554140777e-01	 1.676992288606407e+00	 5.893677319327842e+00
 5.339708097284377e-01	 1.681981577059936e+00	 5.777053817102178e+00
 5.184916547851555e-01	 1.686817493129954e+00	 5.659545239890504e+00
 5.030041340752697e-01	 1.691500426341731e+00	 5.542593423275484e+00
 4.875103738554971e-01	 1.696030803551146e+00	 5.427610647385068e+00
 4.720124824009048e-01	 1.700409088328102e+00	 5.315971945104890e+00
 4.565125492798670e-01	 1.704635780324076e+00	 5.209008025900089e+00
 6.132027346248972e-01	 1.661013276650878e+00	 6.357244924603194e+00
 5.977465286710527e-01	 1.666637869011635e+00	 6.253112823622166e+00
 5.822710187255411e-01	 1.672107400771331e+00	 6.147309299733903e+00
 5.667784166589357e-01	 1.677422107095148e+00	 6.036941383214423e+00
 5.512709202654581e-01	 1.682582262901761e+00	 5.922593870194319e+00
 5.357507124275325e-01	 1.687588182316803e+00	 5.805836318133295e+00
 5.202199603011061e-01	 1.692440218107054e+00	 5.688224453815364e+00
 5.046808145221873e-01	 1.697138761096204e+00	 5.571291064891062e+00
 4.891354084350154e-01	 1.701684239562983e+00	 5.456537507882596e+00
 4.735858573422412e-01	 1.706077118622529e+00	 5.345425840576960e+00
 4.580342577774665e-01	 1.710317899591822e+00	 5.239371583739199e+00
 6.152399530123557e-01	 1.666531593184602e+00	 6.385387817223405e+00
 5.997323975370694e-01	 1.672174871898717e+00	 6.281437544386720e+00
 5.842054739372539e-01	 1.677662574860273e+00	 6.175884211872850e+00
 5.686614014318891e-01	 1.682994938015731e+00	 6.066001523302972e+00
 5.531023851168381e-01	 1.688172237197116e+00	 5.951971916341060e+00
 5.375306151266271e-01	 1.693194787573669e+00	 5.835420887418909e+00
 5.219482658170566e-01	 1.698062943084154e+00	 5.717958368975927e+00
 5.063574949691050e-01	 1.702777095850676e+00	 5.601169472100021e+00
 4.907604430145337e-01	 1.707337675574820e+00	 5.486605858652721e+00
 4.751592322835775e-01	 1.711745148916957e+00	 5.375777750819944e+00
 4.595559662750661e-01	 1.716000018859569e+00	 5.270146582967900e+00
 6.172771713998136e-01	 1.672049909718326e+00	 6.412845044455199e+00
 6.017182664030862e-01	 1.677711874785798e+00	 6.309385760099447e+00
 5.861399291489666e-01	 1.683217748949214e+00	 6.204369544297595e+00
 5.705443862048423e-01	 1.688567768936313e+00	 6.095367298635572e+00
 5.549338499682187e-01	 1.693762211492471e+00	 5.982033811519682e+00
 5.393105178257219e-01	 1.698801392830535e+00	 5.866012745496143e+00
 5.236765713330070e-01	 1.703685668061254e+00	 5.748930215789589e+00
 5.080341754160225e-01	 1.708415430605149e+00	 5.632385437922841e+00
 4.923854775940520e-01	 1.712991111586657e+00	 5.517942017281795e+00
 4.767326072249138e-01	 1.717413179211383e+00	 5.407119888487609e+00
 4.610776747726655e-01	 1.721682138127316e+00	 5.301387909360301e+00
 6.193143897872716e-01	 1.677568226252049e+00	 6.439848191142511e+00
 6.037041352691029e-01	 1.683248877672880e+00	 6.337197236364672e+00
 5.880743843606795e-01	 1.688772923038155e+00	 6.233005365461517e+00
 5.724273709777955e-01	 1.694140599856894e+00	 6.125272512203208e+00
 5.567653148195987e-01	 1.699352185787826e+00	 6.013001495068281e+00
 5.410904205248168e-01	 1.704407998087402e+00	 5.897816774148986e+00
 5.254048768489575e-01	 1.709308393038354e+00	 5.781323029087214e+00
 5.097108558629401e-01	 1.714053765359621e+00	 5.665095765253195e+00
 4.940105121735703e-01	 1.718644547598494e+00	 5.550672573749255e+00
 4.783059821662502e-01	 1.723081209505810e+00	 5.439545052982726e+00
 4.625993832702651e-01	 1.727364257395063e+00	 5.333151396400193e+00
 6.213516081747299e-01	 1.683086542785773e+00	 6.466628438377210e+00
 6.056900041351200e-01	 1.688785880559962e+00	 6.365111193625951e+00
 5.900088395723920e-01	 1.694328097127097e+00	 6.262063302799698e+00
 5.743103557507486e-01	 1.699713430777475e+00	 6.155950575589202e+00
 5.585967796709791e-01	 1.704942160083180e+00	 6.045096516753834e+00
 5.428703232239116e-01	 1.710014603344268e+00	 5.931037538975267e+00
 5.271331823649081e-01	 1.714931118015454e+00	 5.815319667331647e+00
 5.113875363098577e-01	 1.719692100114094e+00	 5.699457281729124e+00
 4.956355467530886e-01	 1.724297983610332e+00	 5.584924400053996e+00
 4.798793571075867e-01	 1.728749239800238e+00	 5.473146634017691e+00
 4.641210917678646e-01	 1.733046376662810e+00	 5.365493822041755e+00
 6.233888265621881e-01	 1.688604859319497e+00	 6.493416566361025e+00
 6.076758730011366e-01	 1.694322883447044e+00	 6.393366314092662e+00
 5.919432947841052e-01	 1.699883271216038e+00	 6.291826773166629e+00
 5.761933405237021e-01	 1.705286261698058e+00	 6.187634534434610e+00
 5.604282445223595e-01	 1.710532134378535e+00	 6.078540061146052e+00
 5.446502259230062e-01	 1.715621208601134e+00	 5.965879311531393e+00
 5.288614878808586e-01	 1.720553842992553e+00	 5.851102831474243e+00
 5.130642167567752e-01	 1.725330434868567e+00	 5.735626854336600e+00
 4.972605813326071e-01	 1.729951419622169e+00	 5.620824659670728e+00
 4.814527320489229e-01	 1.734417270094664e+00	 5.508018615120523e+00
 4.656428002654642e-01	 1.738728495930556e+00	 5.398472905550704e+00
 6.254260449496460e-01	 1.694123175853221e+00	 6.520442956884905e+00
 6.096617418671536e-01	 1.699859886334126e+00	 6.422200748223691e+00
 5.938777499958178e-01	 1.705438445304979e+00	 6.322535410810939e+00
 5.780763252966554e-01	 1.710859092618640e+00	 6.220557093427689e+00
 5.622597093737396e-01	 1.716122108673889e+00	 6.113552971536404e+00
 5.464301286221012e-01	 1.721227813858001e+00	 6.002546091064452e+00
 5.305897933968092e-01	 1.726176567969653e+00	 5.888855083461435e+00
 5.147408972036929e-01	 1.730968769623039e+00	 5.773761403735062e+00
 4.988856159121253e-01	 1.735604855634006e+00	 5.658500816828990e+00
 4.830261069902592e-01	 1.740085300389091e+00	 5.544255577083833e+00
 4.671645087630638e-01	 1.744410615198304e+00	 5.432147304413567e+00
 6.274632633371042e-01	 1.699641492386945e+00	 6.547937595432997e+00
 6.116476107331701e-01	 1.705396889221207e+00	 6.451852120782490e+00
 5.958122052075304e-01	 1.710993619393920e+00	 6.354428008876670e+00
 5.799593100696085e-01	 1.716431923539222e+00	 6.254950640827612e+00
 5.640911742251199e-01	 1.721712082969244e+00	 6.150355773413720e+00
 5.482100313211959e-01	 1.726834419114867e+00	 6.041241625837023e+00
 5.323180989127597e-01	 1.731799292946753e+00	 5.928758864400368e+00
 5.164175776506104e-01	 1.736607104377512e+00	 5.814017918326646e+00
 5.005106504916437e-01	 1.741258291645844e+00	 5.698080645633736e+00
 4.845994819315955e-01	 1.745753330683518e+00	 5.581952701359451e+00
 4.686862172606633e-01	 1.750092734466051e+00	 5.466576611324879e+00
 6.295004817245624e-01	 1.705159808920669e+00	 6.576130072922122e+00
 6.136334795991870e-01	 1.710933892108290e+00	 6.482557536471031e+00
 5.977466604192434e-01	 1.716548793482862e+00	 6.387742789301923e+00
 5.818422948425619e-01	 1.722004754459803e+00	 6.291047272538452e+00
 5.659226390765001e-01	 1.727302057264599e+00	 6.189168697502554e+00
 5.499899340202907e-01	 1.732441024371734e+00	 6.082169434060035e+00
 5.340464044287101e-01	 1.737422017923853e+00	 5.970996512383769e+00
 5.180942580975278e-01	 1.742245439131983e+00	 5.856553468064662e+00
 5.021356850711619e-01	 1.746911727657680e+00	 5.739692239017217e+00
 4.861728568729319e-01	 1.751421360977945e+00	 5.621205773402928e+00
 4.702079257582629e-01	 1.755774853733798e+00	 5.501821351239720e+00
 6.315377001120205e-01	 1.710678125454392e+00	 6.605249587084170e+00
 6.156193484652039e-01	 1.716470894995372e+00	 6.514553585152714e+00
 5.996811156309559e-01	 1.722103967571803e+00	 6.422717410552785e+00
 5.837252796155152e-01	 1.727577585380386e+00	 6.329078815735365e+00
 5.677541039278803e-01	 1.732892031559954e+00	 6.230211702377973e+00
 5.517698367193856e-01	 1.738047629628600e+00	 6.125532824438885e+00
 5.357747099446607e-01	 1.743044742900953e+00	 6.015750279995112e+00
 5.197709385444454e-01	 1.747883773886456e+00	 5.901525218012786e+00
 5.037607196506803e-01	 1.752565163669518e+00	 5.783464017535584e+00
 4.877462318142684e-01	 1.757089391272372e+00	 5.662111185964704e+00
 4.717296342558625e-01	 1.761456973001545e+00	 5.537942978498290e+00
 4.565125492798670e-01	 1.704635780324076e+00	 5.209008025900089e+00
 4.410126446516167e-01	 1.708711414624617e+00	 5.105390694152946e+00
 4.255148185866667e-01	 1.712636561087678e+00	 5.003270966901571e+00
 4.100211004103488e-01	 1.716411823668597e+00	 4.903117517529293e+00
 3.945334980696803e-01	 1.720037839732595e+00	 4.805337989588726e+00
 3.790539975237338e-01	 1.723515279355640e+00	 4.710275977531417e+00
 3.635845621576576e-01	 1.726844844614506e+00	 4.618208567843759e+00
 3.481271322204617e-01	 1.730027268866890e+00	 4.529344427233477e+00
 3.326836242866514e-01	 1.733063316022404e+00	 4.443822422640791e+00
 3.172559307417590e-01	 1.735953779805284e+00	 4.361710756152738e+00
 3.018459192917990e-01	 1.738699483009632e+00	 4.283006596332678e+00
 4.580342577774665e-01	 1.710317899591822e+00	 5.239371583739199e+00
 4.424826868004555e-01	 1.714407119340032e+00	 5.137065746008198e+00
 4.269332013152888e-01	 1.718345349624637e+00	 5.036559347427223e+00
 4.113878374117165e-01	 1.722133196414159e+00	 4.938223347401837e+00
 3.958486097299126e-01	 1.725771299198371e+00	 4.842365149188968e+00
 3.803175108488130e-01	 1.729260330286825e+00	 4.749225717441367e+00
 3.647965106981831e-01	 1.732600994096554e+00	 4.658977263831752e+00
 3.492875559945299e-01	 1.735794026429779e+00	 4.571721486876898e+00
 3.337925697009401e-01	 1.738840193742479e+00	 4.487488350208288e+00
 3.183134505108982e-01	 1.741740292404635e+00	 4.406235381802999e+00
 3.028520723561049e-01	 1.744495147952998e+00	 4.327847475137303e+00
 4.595559662750661e-01	 1.716000018859569e+00	 5.270146582967900e+00
 4.439527289492943e-01	 1.720102824055448e+00	 5.168389275571049e+00
 4.283515840439109e-01	 1.724054138161596e+00	 5.068476761580925e+00
 4.127545744130845e-01	 1.727854569159721e+00	 4.970723317467233e+00
 3.971637213901449e-01	 1.731504758664146e+00	 4.875377255226690e+00
 3.815810241738920e-01	 1.735005381218011e+00	 4.782618121515926e+00
 3.660084592387086e-01	 1.738357143578602e+00	 4.692554473683753e+00
 3.504479797685982e-01	 1.741560783992669e+00	 4.605222218366478e+00
 3.349015151152291e-01	 1.744617071462553e+00	 4.520583496392384e+00
 3.193709702800374e-01	 1.747526805003986e+00	 4.438526096024571e+00
 3.038582254204109e-01	 1.750290812896363e+00	 4.358863374953701e+00
 4.610776747726655e-01	 1.721682138127316e+00	 5.301387909360301e+00
 4.454227710981329e-01	 1.725798528770863e+00	 5.199380607307273e+00
 4.297699667725333e-01	 1.729762926698555e+00	 5.099013183701812e+00
 4.141213114144523e-01	 1.733575941905283e+00	 5.000583856205241e+00
 3.984788330503772e-01	 1.737238218129922e+00	 4.904322587001996e+00
 3.828445374989712e-01	 1.740750432149196e+00	 4.810388308599122e+00
 3.672204077792341e-01	 1.744113293060651e+00	 4.718866736493873e+00
 3.516084035426663e-01	 1.747327541555558e+00	 4.629768753961521e+00
 3.360104605295178e-01	 1.750393949182628e+00	 4.543029352274894e+00
 3.204284900491765e-01	 1.753313317603337e+00	 4.458507107921360e+00
 3.048643784847169e-01	 1.756086477839729e+00	 4.375984176754867e+00
 4.625993832702651e-01	 1.727364257395063e+00	 5.333151396400193e+00
 4.468928132469717e-01	 1.731494233486279e+00	 5.230060355450078e+00
 4.311883495011554e-01	 1.735471715235514e+00	 5.128160142669916e+00
 4.154880484158201e-01	 1.739297314650845e+00	 5.027773139569272e+00
 3.997939447106094e-01	 1.742971677595696e+00	 4.929151297826216e+00
 3.841080508240502e-01	 1.746495483080382e+00	 4.832473337128986e+00
 3.684323563197596e-01	 1.749869442542699e+00	 4.737842541001992e+00
 3.527688273167346e-01	 1.753094299118449e+00	 4.645285135503103e+00
 3.371194059438067e-01	 1.756170826902702e+00	 4.554749233723989e+00
 3.214860098183157e-01	 1.759099830202688e+00	 4.466104327237943e+00
 3.058705315490229e-01	 1.761882142783094e+00	 4.379141303996025e+00
 4.641210917678646e-01	 1.733046376662810e+00	 5.365493822041755e+00
 4.483628553958104e-01	 1.737189938201694e+00	 5.260450414308192e+00
 4.326067322297776e-01	 1.741180503772472e+00	 5.155910707052972e+00
 4.168547854171879e-01	 1.745018687396407e+00	 5.052261072186075e+00
 4.011090563708417e-01	 1.748705137061472e+00	 4.949815393397252e+00
 3.853715641491294e-01	 1.752240534011567e+00	 4.848812181718920e+00
 3.696443048602851e-01	 1.755625592024748e+00	 4.749412301324476e+00
 3.539292510908028e-01	 1.758861056681338e+00	 4.651697290144917e+00
 3.382283513580955e-01	 1.761947704622777e+00	 4.555668257898495e+00
 3.225435295874549e-01	 1.764886342802039e+00	 4.461257066378596e+00
 3.068766846133289e-01	 1.767677807726459e+00	 4.371466221986218e+00
 4.656428002654642e-01	 1.738728495930556e+00	 5.398472905550704e+00
 4.498328975446490e-01	 1.742885642917109e+00	 5.290573948771893e+00
 4.340251149583998e-01	 1.746889292309431e+00	 5.182259470558369e+00
 4.182215224185557e-01	 1.750740060141969e+00	 5.074019268935805e+00
 4.024241680310739e-01	 1.754438596527247e+00	 4.966268710606984e+00
 3.866350774742084e-01	 1.757985584942753e+00	 4.859345710203932e+00
 3.708562534008106e-01	 1.761381741506796e+00	 4.753508333164983e+00
 3.550896748648710e-01	 1.764627814244228e+00	 4.648933006566509e+00
 3.393372967723844e-01	 1.767724582342852e+00	 4.548971286229222e+00
 3.236010493565942e-01	 1.770672855401390e+00	 4.456673053336075e+00
 3.078828376776349e-01	 1.773473472669824e+00	 4.371127700897034e+00
 4.671645087630638e-01	 1.744410615198304e+00	 5.432147304413567e+00
 4.513029396934878e-01	 1.748581347632524e+00	 5.320455385016317e+00
 4.354434976870222e-01	 1.752598080846391e+00	 5.207202537774497e+00
 4.195882594199236e-01	 1.756461432887531e+00	 5.093021036898661e+00
 4.037392796913064e-01	 1.760172055993023e+00	 4.978466896769147e+00
 3.878985907992876e-01	 1.763730635873939e+00	 4.864016661141534e+00
 3.720682019413362e-01	 1.767137890988844e+00	 4.752146452734141e+00
 3.562500986389392e-01	 1.770394571807118e+00	 4.648402759429703e+00
 3.404462421866732e-01	 1.773501460062927e+00	 4.552460476298490e+00
 3.246585691257333e-01	 1.776459368000741e+00	 4.463576327076593e+00
 3.088889907419409e-01	 1.779269137613190e+00	 4.380929212622697e+00
 4.686862172606633e-01	 1.750092734466051e+00	 5.466576611324879e+00
 4.527729818423266e-01	 1.754277052347940e+00	 5.350120401397138e+00
 4.368618804156444e-01	 1.758306869383349e+00	 5.230737510204364e+00
 4.209549964212914e-01	 1.762182805633093e+00	 5.109241357662106e+00
 4.050543913515385e-01	 1.765905515458798e+00	 4.986864341494870e+00
 3.891621041243667e-01	 1.769475686805123e+00	 4.870701714132308e+00
 3.732801504818618e-01	 1.772894040470893e+00	 4.762600485119091e+00
 3.574105224130074e-01	 1.776161329370007e+00	 4.662128113588910e+00
 3.415551876009621e-01	 1.779278337783001e+00	 4.568757130284363e+00
 3.257160888948726e-01	 1.782245880600092e+00	 4.481873892957109e+00
 3.098951438062469e-01	 1.785064802556555e+00	 4.400786971756721e+00
 4.702079257582629e-01	 1.755774853733798e+00	 5.501821351239720e+00
 4.542430239911652e-01	 1.759972757063355e+00	 5.379595919533795e+00
 4.382802631442665e-01	 1.764015657920309e+00	 5.252863472574465e+00
 4.223217334226592e-01	 1.767904178378655e+00	 5.126149484874174e+00
 4.063695030117708e-01	 1.771638974924574e+00	 5.006515157861809e+00
 3.904256174494459e-01	 1.775220737736309e+00	 4.894072217303737e+00
 3.744920990223872e-01	 1.778650189952941e+00	 4.788658658971521e+00
 3.585709461870755e-01	 1.781928086932896e+00	 4.690008901889192e+00
 3.426641330152508e-01	 1.785055215503076e+00	 4.597762735410529e+00
 3.267736086640118e-01	 1.788032393199442e+00	 4.511473888174834e+00
 3.109012968705529e-01	 1.790860467499921e+00	 4.430618224498291e+00
 4.717296342558625e-01	 1.761456973001545e+00	 5.537942978498290e+00
 4.557130661400040e-01	 1.765668461778771e+00	 5.409218708017543e+00
 4.396986458728888e-01	 1.769724446457267e+00	 5.282074586770579e+00
 4.236884704240271e-01	 1.773625551124217e+00	 5.160386779024316e+00
 4.076846146720031e-01	 1.777372434390349e+00	 5.044430954223089e+00
 3.916891307745249e-01	 1.780965788667494e+00	 4.934361141350836e+00
 3.757040475629128e-01	 1.784406339434990e+00	 4.830219215038075e+00
 3.597313699611438e-01	 1.787694844495787e+00	 4.731943993881954e+00
 3.437730784295398e-01	 1.790832093223151e+00	 4.639379953739246e+00
 3.278311284331510e-01	 1.793818905798794e+00	 4.552285560622471e+00
 3.119074499348589e-01	 1.796656132443287e+00	 4.470341229508751e+00
 3.018459192917990e-01	 1.738699483009632e+00	 4.283006596332678e+00
 2.864554324966393e-01	 1.741301276748006e+00	 4.206518003681616e+00
 2.710862873272473e-01	 1.743760039694167e+00	 4.131659743707498e+00
 2.557402747467560e-01	 1.746076677320767e+00	 4.059225070600684e+00
 2.404191593152538e-01	 1.748252121132768e+00	 3.989926730874305e+00
 2.251246788181823e-01	 1.750287327897361e+00	 3.924397869830997e+00
 2.098585439182009e-01	 1.752183278871136e+00	 3.863193335855074e+00
 1.946224378303505e-01	 1.753940979025248e+00	 3.806791357683238e+00
 1.794180160203271e-01	 1.755561456269305e+00	 3.755595569360910e+00
 1.642469059256514e-01	 1.757045760674697e+00	 3.709937357271826e+00
 1.491107066994988e-01	 1.758394963698045e+00	 3.670078503446589e+00
 3.028520723561049e-01	 1.744495147952998e+00	 4.327847475137303e+00
 2.874102839382948e-01	 1.747105614337166e+00	 4.251056271819834e+00
 2.719899082850048e-01	 1.749572573159814e+00	 4.175344270243476e+00
 2.565927423292451e-01	 1.751896932911835e+00	 4.101605561613500e+00
 2.412205565129713e-01	 1.754079628203210e+00	 4.030650988345731e+00
 2.258750944142430e-01	 1.756121618990352e+00	 3.963208998286083e+00
 2.105580723979282e-01	 1.758023889800707e+00	 3.899926906927148e+00
 1.952711792897850e-01	 1.759787448955332e+00	 3.841372542322728e+00
 1.800160760737283e-01	 1.761413327790202e+00	 3.788036246966801e+00
 1.647943956120702e-01	 1.762902579876946e+00	 3.740333210550923e+00
 1.496077423884972e-01	 1.764256280243705e+00	 3.698606107341223e+00
 3.038582254204109e-01	 1.750290812896363e+00	 4.358863374953701e+00
 2.883651353799502e-01	 1.752909951926326e+00	 4.280288829421636e+00
 2.728935292427623e-01	 1.755385106625462e+00	 4.202361132012349e+00
 2.574452099117344e-01	 1.757717188502905e+00	 4.126070976276830e+00
 2.420219537106889e-01	 1.759907135273652e+00	 4.052323003582194e+00
 2.266255100103036e-01	 1.761955910083344e+00	 3.981936611619272e+00
 2.112576008776555e-01	 1.763864500730277e+00	 3.915647181050581e+00
 1.959199207492195e-01	 1.765633918885416e+00	 3.854427785058915e+00
 1.806141361271294e-01	 1.767265199311101e+00	 3.800329345699661e+00
 1.653418852984891e-01	 1.768759399079194e+00	 3.753616214710217e+00
 1.501047780774955e-01	 1.770117596789365e+00	 3.714255198569687e+00
 3.048643784847169e-01	 1.756086477839729e+00	 4.375984176754867e+00
 2.893199868216056e-01	 1.758714289515486e+00	 4.294152355483689e+00
 2.737971502005196e-01	 1.761197640091109e+00	 4.212653404030395e+00
 2.582976774942235e-01	 1.763537444093973e+00	 4.132570428061813e+00
 2.428233509084063e-01	 1.765734642344095e+00	 4.055287862610072e+00
 2.273759256063641e-01	 1.767790201176334e+00	 3.984059659247549e+00
 2.119571293573830e-01	 1.769705111659848e+00	 3.919588150256976e+00
 1.965686622086539e-01	 1.771480388815500e+00	 3.862024569811788e+00
 1.812121961805304e-01	 1.773117070831998e+00	 3.811475458267511e+00
 1.658893749849079e-01	 1.774616218281443e+00	 3.768007240970930e+00
 1.506018137664938e-01	 1.775978913335025e+00	 3.731650602556838e+00
 3.058705315490229e-01	 1.761882142783094e+00	 4.379141303996025e+00
 2.902748382632611e-01	 1.764518627104646e+00	 4.292584903361194e+00
 2.747007711582772e-01	 1.767010173556756e+00	 4.208107952366205e+00
 2.591501450767127e-01	 1.769357699685043e+00	 4.129003734549469e+00
 2.436247481061238e-01	 1.771562149414537e+00	 4.055662767778995e+00
 2.281263412024247e-01	 1.773624492269325e+00	 3.988402700440549e+00
 2.126566578371102e-01	 1.775545722589418e+00	 3.927486262178783e+00
 1.972174036680885e-01	 1.777326858745584e+00	 3.873126208849032e+00
 1.818102562339314e-01	 1.778968942352895e+00	 3.825490041013546e+00
 1.664368646713268e-01	 1.780473037483693e+00	 3.784704507055928e+00
 1.510988494554921e-01	 1.781840229880685e+00	 3.750859902123079e+00
 3.068766846133289e-01	 1.767677807726459e+00	 4.371466221986218e+00
 2.912296897049165e-01	 1.770322964693806e+00	 4.287012597023457e+00
 2.756043921160347e-01	 1.772822707022403e+00	 4.206941670606335e+00
 2.600026126592019e-01	 1.775177955276112e+00	 4.131755453387933e+00
 2.444261453038413e-01	 1.777389656484980e+00	 4.061890158958178e+00
 2.288767567984853e-01	 1.779458783362317e+00	 3.997721565663517e+00
 2.133561863168376e-01	 1.781386333518988e+00	 3.939570128815600e+00
 1.978661451275229e-01	 1.783173328675668e+00	 3.887705854321331e+00
 1.824083162873326e-01	 1.784820813873793e+00	 3.842352945087582e+00
 1.669843543577456e-01	 1.786329856685941e+00	 3.803694231764939e+00
 1.515958851444905e-01	 1.787701546426345e+00	 3.771875399511378e+00
 3.078828376776349e-01	 1.773473472669824e+00	 4.371127700897034e+00
 2.921845411465721e-01	 1.776127302282967e+00	 4.290396717347873e+00
 2.765080130737921e-01	 1.778635240488050e+00	 4.213591998996052e+00
 2.608550802416911e-01	 1.780998210867181e+00	 4.141270042690444e+00
 2.452275425015589e-01	 1.783217163555422e+00	 4.073921281445294e+00
 2.296271723945460e-01	 1.785293074455308e+00	 4.011975381848755e+00
 2.140557147965649e-01	 1.787226944448559e+00	 3.955806289926496e+00
 1.985148865869575e-01	 1.789019798605753e+00	 3.905737037002883e+00
 1.830063763407337e-01	 1.790672685394691e+00	 3.862044317419047e+00
 1.675318440441644e-01	 1.792186675888190e+00	 3.824962850177043e+00
 1.520929208334888e-01	 1.793562862972006e+00	 3.794689536641973e+00
 3.088889907419409e-01	 1.779269137613190e+00	 4.380929212622697e+00
 2.931393925882275e-01	 1.781931639872126e+00	 4.302675304873437e+00
 2.774116340315496e-01	 1.784447773953697e+00	 4.227993668657944e+00
 2.617075478241802e-01	 1.786818466458250e+00	 4.157491089188491e+00
 2.460289396992764e-01	 1.789044670625865e+00	 4.091708020438786e+00
 2.303775879906065e-01	 1.791127365548298e+00	 4.031123821962390e+00
 2.147552432762923e-01	 1.793067555378129e+00	 3.976161742062170e+00
 1.991636280463920e-01	 1.794866268535837e+00	 3.927193659383209e+00
 1.836044363941348e-01	 1.796524556915589e+00	 3.884544595296298e+00
 1.680793337305833e-01	 1.798043495090439e+00	 3.848497009641226e+00
 1.525899565224871e-01	 1.799424179517666e+00	 3.819294892443777e+00
 3.098951438062469e-01	 1.785064802556555e+00	 4.400786971756721e+00
 2.940942440298829e-01	 1.787735977461286e+00	 4.323774567969491e+00
 2.783152549893072e-01	 1.790260307419344e+00	 4.250082238567762e+00
 2.625600154066693e-01	 1.792638722049319e+00	 4.180362904924107e+00
 2.468303368969939e-01	 1.794872177696307e+00	 4.115202889343049e+00
 2.311280035866672e-01	 1.796961656641290e+00	 4.055127095045166e+00
 2.154547717560195e-01	 1.798908166307699e+00	 4.000603930239846e+00
 1.998123695058265e-01	 1.800712738465921e+00	 3.952049988887762e+00
 1.842024964475359e-01	 1.802376428436486e+00	 3.909834501042063e+00
 1.686268234170021e-01	 1.803900314292688e+00	 3.874283565838055e+00
 1.530869922114855e-01	 1.805285496063326e+00	 3.845684180235465e+00
 3.109012968705529e-01	 1.790860467499921e+00	 4.430618224498291e+00
 2.950490954715385e-01	 1.793540315050446e+00	 4.353621634005236e+00
 2.792188759470646e-01	 1.796072840884992e+00	 4.279794080324909e+00
 2.634124829891586e-01	 1.798458977640389e+00	 4.209830513958160e+00
 2.476317340947114e-01	 1.800699684766750e+00	 4.144359018290974e+00
 2.318784191827278e-01	 1.802795947734281e+00	 4.083945936442909e+00
 2.161543002357469e-01	 1.804748777237270e+00	 4.029100739780126e+00
 2.004611109652610e-01	 1.806559208396005e+00	 3.980280651226711e+00
 1.848005565009370e-01	 1.808228299957384e+00	 3.937895036795218e+00
 1.691743131034209e-01	 1.809757133494937e+00	 3.902309578915677e+00
 1.535840279004838e-01	 1.811146812608986e+00	 3.873850245155690e+00
 3.119074499348589e-01	 1.796656132443287e+00	 4.470341229508751e+00
 2.960039469131940e-01	 1.799344652639607e+00	 4.392144532369371e+00
 2.801224969048223e-01	 1.801885374350639e+00	 4.317066363202555e+00
 2.642649505716478e-01	 1.804279233231458e+00	 4.245839639321453e+00
 2.484331312924289e-01	 1.806527191837193e+00	 4.179130142879302e+00
 2.326288347787884e-01	 1.808630238827273e+00	 4.117541598217397e+00
 2.168538287154743e-01	 1.810589388166840e+00	 4.061620488294008e+00
 2.011098524246955e-01	 1.812405678326089e+00	 4.011860623866346e+00
 1.853986165543381e-01	 1.814080171478281e+00	 3.968707479387440e+00
 1.697218027898398e-01	 1.815613952697187e+00	 3.932562309699559e+00
 1.540810635894821e-01	 1.817008129154646e+00	 3.903786061640533e+00
 1.491107066994988e-01	 1.758394963698045e+00	 3.670078503446589e+00
 1.340109889769393e-01	 1.759610157405468e+00	 3.636034375993090e+00
 1.189492946633006e-01	 1.760692453698310e+00	 3.607375698071124e+00
 1.039271367443737e-01	 1.761642983540987e+00	 3.583608854937026e+00
 8.894599911813837e-02	 1.762462896191562e+00	 3.564193004895671e+00
 7.400733644768340e-02	 1.763153358435672e+00	 3.548544408105825e+00
 5.911257403497474e-02	 1.763715553824378e+00	 3.536040871099690e+00
 4.426310771511133e-02	 1.764150681916506e+00	 3.526026283003415e+00
 2.946030377069420e-02	 1.764459957526045e+00	 3.517815220125801e+00
 1.470549886592013e-02	 1.764644609975101e+00	 3.510697596327337e+00
 0.000000000000000e+00	 1.764705882352941e+00	 3.503943337387836e+00
 1.496077423884972e-01	 1.764256280243705e+00	 3.698606107341223e+00
 1.344576922735291e-01	 1.765475524596819e+00	 3.663155324939495e+00
 1.193457923121783e-01	 1.766561428543971e+00	 3.634170927805906e+00
 1.042735605335216e-01	 1.767515126819457e+00	 3.610889764162926e+00
 8.924248578186549e-02	 1.768337772512200e+00	 3.592466198109116e+00
 7.425402756917569e-02	 1.769030536297125e+00	 3.578051858525226e+00
 5.930961594842462e-02	 1.769594605670459e+00	 3.566799784392721e+00
 4.441065140749503e-02	 1.770031184189561e+00	 3.557868398133931e+00
 2.955850478326318e-02	 1.770341490717797e+00	 3.550425315254848e+00
 1.475451719547319e-02	 1.770526758675018e+00	 3.543650998169818e+00
 0.000000000000000e+00	 1.770588235294118e+00	 3.536742261668266e+00
 1.501047780774955e-01	 1.770117596789365e+00	 3.714255198569687e+00
 1.349043955701189e-01	 1.771340891788171e+00	 3.681975392975416e+00
 1.197422899610559e-01	 1.772430403389632e+00	 3.655971906673104e+00
 1.046199843226695e-01	 1.773387270097927e+00	 3.635379173655071e+00
 8.953897244559263e-02	 1.774212648832839e+00	 3.619324943662248e+00
 7.450071869066797e-02	 1.774907714158578e+00	 3.606934618689975e+00
 5.950665786187457e-02	 1.775473657516541e+00	 3.597335407719651e+00
 4.455819509987873e-02	 1.775911686462616e+00	 3.589660308595830e+00
 2.965670579583216e-02	 1.776223023909551e+00	 3.583051925601328e+00
 1.480353552502626e-02	 1.776408907374935e+00	 3.576666130859101e+00
 0.000000000000000e+00	 1.776470588235294e+00	 3.569675577247368e+00
 1.506018137664938e-01	 1.775978913335025e+00	 3.731650602556838e+00
 1.353510988667087e-01	 1.777206258979522e+00	 3.702185071209874e+00
 1.201387876099336e-01	 1.778299378235293e+00	 3.678794534648596e+00
 1.049664081118174e-01	 1.779259413376396e+00	 3.660584443134211e+00
 8.983545910931975e-02	 1.780087525153478e+00	 3.646653860995180e+00
 7.474740981216024e-02	 1.780784892020029e+00	 3.636099816786600e+00
 5.970369977532447e-02	 1.781352709362622e+00	 3.628021470521012e+00
 4.470573879226244e-02	 1.781792188735671e+00	 3.621524107188237e+00
 2.975490680840114e-02	 1.782104557101305e+00	 3.615722965372633e+00
 1.485255385457933e-02	 1.782291056074852e+00	 3.609746909362191e+00
 0.000000000000000e+00	 1.782352941176470e+00	 3.602741952653541e+00
 1.510988494554921e-01	 1.781840229880685e+00	 3.750859902123079e+00
 1.357978021632985e-01	 1.783071626170874e+00	 3.723781974424017e+00
 1.205352852588113e-01	 1.784168353080954e+00	 3.702640741846561e+00
 1.053128319009653e-01	 1.785131556654866e+00	 3.686510705515850e+00
 9.013194577304688e-02	 1.785962401474116e+00	 3.674460200765880e+00
 7.499410093365250e-02	 1.786662069881481e+00	 3.665555763973254e+00
 5.990074168877438e-02	 1.787231761208703e+00	 3.658866315330831e+00
 4.485328248464614e-02	 1.787672691008726e+00	 3.653467167055386e+00
 2.985310782097012e-02	 1.787986090293058e+00	 3.648443866123289e+00
 1.490157218413239e-02	 1.788173204774769e+00	 3.642895880163000e+00
 0.000000000000000e+00	 1.788235294117647e+00	 3.635940134650142e+00
 1.515958851444905e-01	 1.787701546426345e+00	 3.771875399511378e+00
 1.362445054598883e-01	 1.788936993362225e+00	 3.746763790449535e+00
 1.209317829076889e-01	 1.790037327926615e+00	 3.727512476559399e+00
 1.056592556901132e-01	 1.791003699933336e+00	 3.713163071315623e+00
 9.042843243677401e-02	 1.791837277794755e+00	 3.702751164750360e+00
 7.524079205514481e-02	 1.792539247742934e+00	 3.695310709948019e+00
 6.009778360222429e-02	 1.793110813054784e+00	 3.689878224340780e+00
 4.500082617702984e-02	 1.793553193281781e+00	 3.685496815614867e+00
 2.995130883353911e-02	 1.793867623484812e+00	 3.681220041579921e+00
 1.495059051368546e-02	 1.794055353474686e+00	 3.676115612885412e+00
 0.000000000000000e+00	 1.794117647058823e+00	 3.669268946952625e+00
 1.520929208334888e-01	 1.793562862972006e+00	 3.794689536641973e+00
 1.366912087564781e-01	 1.794802360553577e+00	 3.771128278661088e+00
 1.213282805565666e-01	 1.795906302772276e+00	 3.753411704714932e+00
 1.060056794792611e-01	 1.796875843211806e+00	 3.740546628814309e+00
 9.072491910050112e-02	 1.797712154115393e+00	 3.731533906483372e+00
 7.548748317663707e-02	 1.798416425604386e+00	 3.725372843825579e+00
 6.029482551567423e-02	 1.798989864900866e+00	 3.721065420291179e+00
 4.514836986941356e-02	 1.799433695554836e+00	 3.717620335234016e+00
 3.004950984610808e-02	 1.799749156676565e+00	 3.714056887886165e+00
 1.499960884323853e-02	 1.799937502174603e+00	 3.709408699889150e+00
 0.000000000000000e+00	 1.800000000000000e+00	 3.702727288972263e+00
 1.525899565224871e-01	 1.799424179517666e+00	 3.819294892443777e+00
 1.371379120530679e-01	 1.800667727744929e+00	 3.796873268496712e+00
 1.217247782054443e-01	 1.801775277617937e+00	 3.780340409335472e+00
 1.063521032684091e-01	 1.802747986490277e+00	 3.768666444226289e+00
 9.102140576422825e-02	 1.803587030436032e+00	 3.760815531887145e+00
 7.573417429812936e-02	 1.804293603465838e+00	 3.755750295001907e+00
 6.049186742912414e-02	 1.804868916746947e+00	 3.752436067343845e+00
 4.529591356179728e-02	 1.805314197827891e+00	 3.749844963891919e+00
 3.014771085867706e-02	 1.805630689868319e+00	 3.746959783838320e+00
 1.504862717279159e-02	 1.805819650874520e+00	 3.742777755874218e+00
 0.000000000000000e+00	 1.805882352941176e+00	 3.736314134581675e+00
 1.530869922114855e-01	 1.805285496063326e+00	 3.845684180235465e+00
 1.375846153496577e-01	 1.806533094936280e+00	 3.823996658005346e+00
 1.221212758543219e-01	 1.807644252463598e+00	 3.808300590011031e+00
 1.066985270575570e-01	 1.808620129768747e+00	 3.797527561854790e+00
 9.131789242795540e-02	 1.809461906756671e+00	 3.790603099888973e+00
 7.598086541962164e-02	 1.810170781327291e+00	 3.786451134001003e+00
 6.068890934257405e-02	 1.810747968593028e+00	 3.783998271936417e+00
 4.544345725418097e-02	 1.811194700100946e+00	 3.782177895828561e+00
 3.024591187124604e-02	 1.811512223060072e+00	 3.779934091117246e+00
 1.509764550234466e-02	 1.811701799574437e+00	 3.776225417491765e+00
 0.000000000000000e+00	 1.811764705882352e+00	 3.770028530907386e+00
 1.535840279004838e-01	 1.811146812608986e+00	 3.873850245155690e+00
 1.380313186462475e-01	 1.812398462127631e+00	 3.852496412420596e+00
 1.225177735031996e-01	 1.813513227309259e+00	 3.837294262382302e+00
 1.070449508467048e-01	 1.814492273047216e+00	 3.827135004251112e+00
 9.161437909168250e-02	 1.815336783077309e+00	 3.820903623022707e+00
 7.622755654111391e-02	 1.816047959188742e+00	 3.817483373304098e+00
 6.088595125602399e-02	 1.816627020439109e+00	 3.815760083621585e+00
 4.559100094656465e-02	 1.817075202374001e+00	 3.814626282179604e+00
 3.034411288381502e-02	 1.817393756251826e+00	 3.812985154518494e+00
 1.514666383189772e-02	 1.817583948274354e+00	 3.809754342963074e+00
 0.000000000000000e+00	 1.817647058823529e+00	 3.803869597144313e+00
 1.540810635894821e-01	 1.817008129154646e+00	 3.903786061640533e+00
 1.384780219428373e-01	 1.818263829318983e+00	 3.882370562761390e+00
 1.229142711520773e-01	 1.819382202154920e+00	 3.867323457627733e+00
 1.073913746358528e-01	 1.820364416325686e+00	 3.857493772365538e+00
 9.191086575540966e-02	 1.821211659397948e+00	 3.851724068023140e+00
 7.647424766260620e-02	 1.821925137050195e+00	 3.848854968162193e+00
 6.108299316947388e-02	 1.822506072285190e+00	 3.847729495889580e+00
 4.573854463894838e-02	 1.822955704647056e+00	 3.847197231603238e+00
 3.044231389638401e-02	 1.823275289443579e+00	 3.846118302173600e+00
 1.519568216145080e-02	 1.823466096974272e+00	 3.843367211705586e+00
 0.000000000000000e+00	 1.823529411764706e+00	 3.837836523392222e+00
 1.823529411764706e+00	 0.000000000000000e+00	 1.300345338412921e+01
 1.823466096974271e+00	 1.519568216145028e-02	 1.299887972107962e+01
 1.823275289443580e+00	 3.044231389638356e-02	 1.299679556357552e+01
 1.822955704647056e+00	 4.573854463894797e-02	 1.299686761218849e+01
 1.822506072285190e+00	 6.108299316947356e-02	 1.299880137157194e+01
 1.821925137050195e+00	 7.647424766260592e-02	 1.300234128767969e+01
 1.821211659397947e+00	 9.191086575540944e-02	 1.300727101381788e+01
 1.820364416325686e+00	 1.073913746358526e-01	 1.301341381564885e+01
 1.819382202154921e+00	 1.229142711520772e-01	 1.302063312568147e+01
 1.818263829318984e+00	 1.384780219428373e-01	 1.302883325820379e+01
 1.817008129154646e+00	 1.540810635894821e-01	 1.303796029604920e+01
 1.829411764705882e+00	 0.000000000000000e+00	 1.297420149390080e+01
 1.829348245674188e+00	 1.524470049100335e-02	 1.296984684814897e+01
 1.829156822635333e+00	 3.054051490895253e-02	 1.296793990292943e+01
 1.828836206920111e+00	 4.588608833133169e-02	 1.296816592005661e+01
 1.828385124131272e+00	 6.128003508292348e-02	 1.297024884974335e+01
 1.827802314911648e+00	 7.672093878409818e-02	 1.297395144200978e+01
 1.827086535718586e+00	 9.220735241913655e-02	 1.297907548660930e+01
 1.826236559604156e+00	 1.077377984250005e-01	 1.298546219160627e+01
 1.825251177000582e+00	 1.233107688009548e-01	 1.299299271116046e+01
 1.824129196510335e+00	 1.389247252394270e-01	 1.300158883351287e+01
 1.822869445700307e+00	 1.545780992784805e-01	 1.301121384061152e+01
 1.835294117647059e+00	 0.000000000000000e+00	 1.294502234393406e+01
 1.835230394374105e+00	 1.529371882055641e-02	 1.294090948877633e+01
 1.835038355827086e+00	 3.063871592152151e-02	 1.293920263290772e+01
 1.834716709193166e+00	 4.603363202371539e-02	 1.293960731382978e+01
 1.834264175977353e+00	 6.147707699637339e-02	 1.294186766085341e+01
 1.833679492773099e+00	 7.696762990559046e-02	 1.294576647932700e+01
 1.832961412039224e+00	 9.250383908286366e-02	 1.295112546296077e+01
 1.832108702882626e+00	 1.080842222141484e-01	 1.295780554438799e+01
 1.831120151846242e+00	 1.237072664498325e-01	 1.296570739454085e+01
 1.829994563701686e+00	 1.393714285360168e-01	 1.297477208186849e+01
 1.828730762245966e+00	 1.550751349674788e-01	 1.298498190288200e+01
 1.841176470588235e+00	 0.000000000000000e+00	 1.291585274215424e+01
 1.841112543074022e+00	 1.534273715010948e-02	 1.291200981171509e+01
 1.840919889018840e+00	 3.073691693409049e-02	 1.291053133165485e+01
 1.840597211466221e+00	 4.618117571609909e-02	 1.291114481293883e+01
 1.840143227823435e+00	 6.167411890982331e-02	 1.291361628094545e+01
 1.839556670634552e+00	 7.721432102708273e-02	 1.291775033116545e+01
 1.838836288359863e+00	 9.280032574659078e-02	 1.292339031246526e+01
 1.837980846161096e+00	 1.084306460032964e-01	 1.293041864806170e+01
 1.836989126691903e+00	 1.241037640987102e-01	 1.293875730480388e+01
 1.835859930893038e+00	 1.398181318326067e-01	 1.294836842181858e+01
 1.834592078791626e+00	 1.555721706564771e-01	 1.295925511004888e+01
 1.847058823529412e+00	 0.000000000000000e+00	 1.288663040051659e+01
 1.846994691773939e+00	 1.539175547966254e-02	 1.288309086734939e+01
 1.846801422210593e+00	 3.083511794665947e-02	 1.288187443399844e+01
 1.846477713739276e+00	 4.632871940848281e-02	 1.288273226613870e+01
 1.846022279669515e+00	 6.187116082327321e-02	 1.288545398576381e+01
 1.845433848496004e+00	 7.746101214857501e-02	 1.288986769702672e+01
 1.844711164680502e+00	 9.309681241031796e-02	 1.289584013900368e+01
 1.843852989439566e+00	 1.087770697924443e-01	 1.290327697553081e+01
 1.842858101537565e+00	 1.245002617475879e-01	 1.291212323272346e+01
 1.841725298084389e+00	 1.402648351291964e-01	 1.292236389526046e+01
 1.840453395337287e+00	 1.560692063454754e-01	 1.293402467300754e+01
 1.852941176470588e+00	 0.000000000000000e+00	 1.285729392065631e+01
 1.852876840473856e+00	 1.544077380921561e-02	 1.285409657418467e+01
 1.852682955402347e+00	 3.093331895922845e-02	 1.285318121875183e+01
 1.852358216012331e+00	 4.647626310086649e-02	 1.285432433959282e+01
 1.851901331515597e+00	 6.206820273672312e-02	 1.285734083958508e+01
 1.851311026357456e+00	 7.770770327006728e-02	 1.286208403392163e+01
 1.850586041001140e+00	 9.339329907404505e-02	 1.286844577095709e+01
 1.849725132718036e+00	 1.091234935815922e-01	 1.287635668937311e+01
 1.848727076383226e+00	 1.248967593964655e-01	 1.288578662228391e+01
 1.847590665275741e+00	 1.407115384257862e-01	 1.289674515938900e+01
 1.846314711882947e+00	 1.565662420344738e-01	 1.290928237878512e+01
 1.858823529411764e+00	 0.000000000000000e+00	 1.282778277981174e+01
 1.858758989173773e+00	 1.548979213876867e-02	 1.282497170559363e+01
 1.858564488594100e+00	 3.103151997179742e-02	 1.282440179625628e+01
 1.858238718285386e+00	 4.662380679325020e-02	 1.282587650518067e+01
 1.857780383361678e+00	 6.226524465017304e-02	 1.282923768425701e+01
 1.857188204218908e+00	 7.795439439155956e-02	 1.283436554610335e+01
 1.856460917321779e+00	 9.368978573777216e-02	 1.284117875159365e+01
 1.855597275996506e+00	 1.094699173707401e-01	 1.284963463283819e+01
 1.854596051228887e+00	 1.252932570453432e-01	 1.285972956224261e+01
 1.853456032467092e+00	 1.411582417223761e-01	 1.287149947877368e+01
 1.852176028428607e+00	 1.570632777234721e-01	 1.288502058308071e+01
 1.864705882352941e+00	 0.000000000000000e+00	 1.279803731701324e+01
 1.864641137873690e+00	 1.553881046832174e-02	 1.279566187681353e+01
 1.864446021785854e+00	 3.112972098436640e-02	 1.279548709615826e+01
 1.864119220558441e+00	 4.677135048563391e-02	 1.279734502902395e+01
 1.863659435207759e+00	 6.246228656362295e-02	 1.280110612844056e+01
 1.863065382080361e+00	 7.820108551305184e-02	 1.280667917498796e+01
 1.862335793642418e+00	 9.398627240149932e-02	 1.281401132962746e+01
 1.861469419274976e+00	 1.098163411598880e-01	 1.282308832100199e+01
 1.860465026074548e+00	 1.256897546942209e-01	 1.283393477783315e+01
 1.859321399658444e+00	 1.416049450189658e-01	 1.284661471756238e+01
 1.858037344974267e+00	 1.575603134124705e-01	 1.286123220291724e+01
 1.870588235294117e+00	 0.000000000000000e+00	 1.276799871953318e+01
 1.870523286573607e+00	 1.558782879787480e-02	 1.276611353218792e+01
 1.870327554977607e+00	 3.122792199693538e-02	 1.276638885541565e+01
 1.869999722831496e+00	 4.691889417801760e-02	 1.276868696022707e+01
 1.869538487053841e+00	 6.265932847707287e-02	 1.277290853704983e+01
 1.868942559941813e+00	 7.844777663454414e-02	 1.277899258925738e+01
 1.868210669963055e+00	 9.428275906522643e-02	 1.278691644994508e+01
 1.867341562553445e+00	 1.101627649490359e-01	 1.279669593207356e+01
 1.866334000920209e+00	 1.260862523430985e-01	 1.280838562260716e+01
 1.865186766849795e+00	 1.420516483155556e-01	 1.282207933180896e+01
 1.863898661519928e+00	 1.580573491014688e-01	 1.283791070940312e+01
 1.876470588235294e+00	 0.000000000000000e+00	 1.273760900959061e+01
 1.876405435273524e+00	 1.563684712742787e-02	 1.273627393264850e+01
 1.876209088169361e+00	 3.132612300950437e-02	 1.273705960652915e+01
 1.875880225104551e+00	 4.706643787040130e-02	 1.273986011982663e+01
 1.875417538899922e+00	 6.285637039052278e-02	 1.274460802088657e+01
 1.874819737803265e+00	 7.869446775603639e-02	 1.275127417514215e+01
 1.874085546283694e+00	 9.457924572895354e-02	 1.275986774449641e+01
 1.873213705831916e+00	 1.105091887381838e-01	 1.277043629885168e+01
 1.872202975765870e+00	 1.264827499919762e-01	 1.278306607041096e+01
 1.871052134041147e+00	 1.424983516121454e-01	 1.279788236192168e+01
 1.869759978065587e+00	 1.585543847904671e-01	 1.281505012060154e+01
 1.882352941176471e+00	 0.000000000000000e+00	 1.270681103130513e+01
 1.882287583973441e+00	 1.568586545698093e-02	 1.270609114343120e+01
 1.882090621361114e+00	 3.142432402207335e-02	 1.270745266599227e+01
 1.881760727377606e+00	 4.721398156278502e-02	 1.271082308994552e+01
 1.881296590746004e+00	 6.305341230397271e-02	 1.271616842646430e+01
 1.880696915664718e+00	 7.894115887752869e-02	 1.272349302687878e+01
 1.879960422604333e+00	 9.487573239268070e-02	 1.273283952334589e+01
 1.879085849110386e+00	 1.108556125273317e-01	 1.274428890032765e+01
 1.878071950611531e+00	 1.268792476408538e-01	 1.275796070749432e+01
 1.876917501232499e+00	 1.429450549087352e-01	 1.277401342523023e+01
 1.875621294611248e+00	 1.590514204794654e-01	 1.279264499450467e+01
 1.817008129154646e+00	 1.540810635894821e-01	 1.303796029604920e+01
 1.815613952697187e+00	 1.697218027898392e-01	 1.304718841997420e+01
 1.814080171478281e+00	 1.853986165543375e-01	 1.305575578553358e+01
 1.812405678326089e+00	 2.011098524246951e-01	 1.306375809324319e+01
 1.810589388166841e+00	 2.168538287154740e-01	 1.307132100283106e+01
 1.808630238827272e+00	 2.326288347787881e-01	 1.307860161205844e+01
 1.806527191837193e+00	 2.484331312924287e-01	 1.308579019628434e+01
 1.804279233231459e+00	 2.642649505716478e-01	 1.309311222413969e+01
 1.801885374350639e+00	 2.801224969048222e-01	 1.310083066505200e+01
 1.799344652639606e+00	 2.960039469131940e-01	 1.310924860470664e+01
 1.796656132443286e+00	 3.119074499348589e-01	 1.311871218483215e+01
 1.822869445700307e+00	 1.545780992784805e-01	 1.301121384061152e+01
 1.821470771899435e+00	 1.702692924762580e-01	 1.302095692516231e+01
 1.819932042999180e+00	 1.859966766077387e-01	 1.302996618891712e+01
 1.818252148256173e+00	 2.017585938841296e-01	 1.303834494460955e+01
 1.816429999096411e+00	 2.175533571952013e-01	 1.304622405809555e+01
 1.814464529920264e+00	 2.333792503748487e-01	 1.305376336419767e+01
 1.812354698907635e+00	 2.492345284901462e-01	 1.306115334551060e+01
 1.810099488822527e+00	 2.651174181541369e-01	 1.306861708980780e+01
 1.807697907816286e+00	 2.810261178625797e-01	 1.307641254209107e+01
 1.805148990228767e+00	 2.969587983548495e-01	 1.308483506768786e+01
 1.802451797386652e+00	 3.129136029991649e-01	 1.309422034312770e+01
 1.828730762245966e+00	 1.550751349674788e-01	 1.298498190288200e+01
 1.827327591101685e+00	 1.708167821626769e-01	 1.299533212446334e+01
 1.825783914520077e+00	 1.865947366611397e-01	 1.300487044045973e+01
 1.824098618186258e+00	 2.024073353435641e-01	 1.301370740290155e+01
 1.822270610025982e+00	 2.182528856749286e-01	 1.302197861654907e+01
 1.820298821013256e+00	 2.341296659709094e-01	 1.302984608980696e+01
 1.818182205978078e+00	 2.500359256878638e-01	 1.303749985082888e+01
 1.815919744413597e+00	 2.659698857366261e-01	 1.304515984473489e+01
 1.813510441281934e+00	 2.819297388203371e-01	 1.305307812828454e+01
 1.810953327817927e+00	 2.979136497965050e-01	 1.306154137873758e+01
 1.808247462330017e+00	 3.139197560634708e-01	 1.307087373398078e+01
 1.834592078791626e+00	 1.555721706564771e-01	 1.295925511004888e+01
 1.833184410303933e+00	 1.713642718490957e-01	 1.297030941684459e+01
 1.831635786040975e+00	 1.871927967145408e-01	 1.298046792994978e+01
 1.829945088116342e+00	 2.030560768029986e-01	 1.298984807073901e+01
 1.828111220955552e+00	 2.189524141546560e-01	 1.299858971946570e+01
 1.826133112106247e+00	 2.348800815669700e-01	 1.300685649929729e+01
 1.824009713048521e+00	 2.508373228855813e-01	 1.301483732778142e+01
 1.821740000004666e+00	 2.668223533191152e-01	 1.302274825195172e+01
 1.819322974747581e+00	 2.828333597780946e-01	 1.303083458372284e+01
 1.816757665407086e+00	 2.988685012381603e-01	 1.303937335263617e+01
 1.814043127273383e+00	 3.149259091277768e-01	 1.304867609339049e+01
 1.840453395337287e+00	 1.560692063454754e-01	 1.293402467300754e+01
 1.839041229506183e+00	 1.719117615355146e-01	 1.294588474868660e+01
 1.837487657561872e+00	 1.877908567679419e-01	 1.295675856605343e+01
 1.835791558046426e+00	 2.037048182624331e-01	 1.296677004884391e+01
 1.833951831885122e+00	 2.196519426343833e-01	 1.297606289320797e+01
 1.831967403199237e+00	 2.356304971630306e-01	 1.298480178292066e+01
 1.829837220118963e+00	 2.516387200832988e-01	 1.299317387427603e+01
 1.827560255595735e+00	 2.676748209016044e-01	 1.300139056715925e+01
 1.825135508213229e+00	 2.837369807358521e-01	 1.300968957925950e+01
 1.822562002996246e+00	 2.998233526798159e-01	 1.301833734081935e+01
 1.819838792216748e+00	 3.159320621920829e-01	 1.302763172771357e+01
 1.846314711882947e+00	 1.565662420344738e-01	 1.290928237878512e+01
 1.844898048708432e+00	 1.724592512219334e-01	 1.292205460656072e+01
 1.843339529082770e+00	 1.883889168213430e-01	 1.293374276925067e+01
 1.841638027976510e+00	 2.043535597218676e-01	 1.294447692894087e+01
 1.839792442814693e+00	 2.203514711141106e-01	 1.295440414189893e+01
 1.837801694292229e+00	 2.363809127590912e-01	 1.296368960302237e+01
 1.835664727189405e+00	 2.524401172810163e-01	 1.297251806222819e+01
 1.833380511186804e+00	 2.685272884840936e-01	 1.298109552957093e+01
 1.830948041678875e+00	 2.846406016936096e-01	 1.298965128636676e+01
 1.828366340585407e+00	 3.007782041214713e-01	 1.299844022006014e+01
 1.825634457160114e+00	 3.169382152563888e-01	 1.300774550098939e+01
 1.852176028428607e+00	 1.570632777234721e-01	 1.288502058308071e+01
 1.850754867910681e+00	 1.730067409083522e-01	 1.289881601010839e+01
 1.849191400603668e+00	 1.889869768747441e-01	 1.291142146486300e+01
 1.847484497906594e+00	 2.050023011813021e-01	 1.292297278674289e+01
 1.845633053744264e+00	 2.210509995938380e-01	 1.293361994017666e+01
 1.843635985385220e+00	 2.371313283551518e-01	 1.294352808637510e+01
 1.841492234259848e+00	 2.532415144787338e-01	 1.295287892928757e+01
 1.839200766777873e+00	 2.693797560665828e-01	 1.296187235284536e+01
 1.836760575144522e+00	 2.855442226513671e-01	 1.297072836708903e+01
 1.834170678174567e+00	 3.017330555631267e-01	 1.297968938126089e+01
 1.831430122103479e+00	 3.179443683206948e-01	 1.298902282238851e+01
 1.858037344974267e+00	 1.575603134124705e-01	 1.286123220291724e+01
 1.856611687112929e+00	 1.735542305947710e-01	 1.287616650502016e+01
 1.855043272124565e+00	 1.895850369281452e-01	 1.288979607617148e+01
 1.853330967836678e+00	 2.056510426407366e-01	 1.290226217502103e+01
 1.851473664673834e+00	 2.217505280735652e-01	 1.291371722602875e+01
 1.849470276478211e+00	 2.378817439512124e-01	 1.292432581659279e+01
 1.847319741330290e+00	 2.540429116764514e-01	 1.293426597064642e+01
 1.845021022368943e+00	 2.702322236490721e-01	 1.294373071610633e+01
 1.842573108610169e+00	 2.864478436091245e-01	 1.295292996409306e+01
 1.839975015763726e+00	 3.026879070047823e-01	 1.296209271835314e+01
 1.837225787046844e+00	 3.189505213850009e-01	 1.297146963378424e+01
 1.863898661519928e+00	 1.580573491014688e-01	 1.283791070940312e+01
 1.862468506315178e+00	 1.741017202811899e-01	 1.285410415611228e+01
 1.860895143645463e+00	 1.901830969815463e-01	 1.286886851762324e+01
 1.859177437766762e+00	 2.062997841001711e-01	 1.288235011675580e+01
 1.857314275603404e+00	 2.224500565532926e-01	 1.289470339370527e+01
 1.855304567571203e+00	 2.386321595472730e-01	 1.290609182662250e+01
 1.853147248400733e+00	 2.548443088741688e-01	 1.291668913092873e+01
 1.850841277960012e+00	 2.710846912315612e-01	 1.292668075504881e+01
 1.848385642075816e+00	 2.873514645668820e-01	 1.293626569081192e+01
 1.845779353352886e+00	 3.036427584464377e-01	 1.294565861730254e+01
 1.843021451990210e+00	 3.199566744493068e-01	 1.295509239744294e+01
 1.869759978065587e+00	 1.585543847904671e-01	 1.281505012060154e+01
 1.868325325517427e+00	 1.746492099676088e-01	 1.283262754049888e+01
 1.866747015166361e+00	 1.907811570349474e-01	 1.284864118812369e+01
 1.865023907696847e+00	 2.069485255596056e-01	 1.286324209836900e+01
 1.863154886532975e+00	 2.231495850330200e-01	 1.287658628670866e+01
 1.861138858664193e+00	 2.393825751433336e-01	 1.288883559131254e+01
 1.858974755471176e+00	 2.556457060718864e-01	 1.290015879615815e+01
 1.856661533551081e+00	 2.719371588140503e-01	 1.291073305312914e+01
 1.854198175541464e+00	 2.882550855246395e-01	 1.292074562168143e+01
 1.851583690942047e+00	 3.045976098880931e-01	 1.293039594521681e+01
 1.848817116933575e+00	 3.209628275136128e-01	 1.293989808383112e+01
 1.875621294611248e+00	 1.590514204794654e-01	 1.279264499450467e+01
 1.874182144719676e+00	 1.751966996540276e-01	 1.281173574085662e+01
 1.872598886687259e+00	 1.913792170883485e-01	 1.282911696441354e+01
 1.870870377626931e+00	 2.075972670190402e-01	 1.284494406303303e+01
 1.868995497462545e+00	 2.238491135127473e-01	 1.285937419085835e+01
 1.866973149757185e+00	 2.401329907393943e-01	 1.287256702005522e+01
 1.864802262541618e+00	 2.564471032696038e-01	 1.288468578580262e+01
 1.862481789142150e+00	 2.727896263965396e-01	 1.289589863283712e+01
 1.860010709007111e+00	 2.891587064823971e-01	 1.290638028246632e+01
 1.857388028531206e+00	 3.055524613297487e-01	 1.291631403955452e+01
 1.854612781876941e+00	 3.219689805779190e-01	 1.292589415953670e+01
 1.796656132443286e+00	 3.119074499348589e-01	 1.311871218483215e+01
 1.793818905798794e+00	 3.278311284331504e-01	 1.312740300187363e+01
 1.790832093223151e+00	 3.437730784295393e-01	 1.313350210354050e+01
 1.787694844495787e+00	 3.597313699611434e-01	 1.313744382875485e+01
 1.784406339434990e+00	 3.757040475629125e-01	 1.313973951807032e+01
 1.780965788667494e+00	 3.916891307745246e-01	 1.314098277201122e+01
 1.777372434390349e+00	 4.076846146720030e-01	 1.314185512084545e+01
 1.773625551124217e+00	 4.236884704240270e-01	 1.314313212153887e+01
 1.769724446457268e+00	 4.396986458728888e-01	 1.314568989733806e+01
 1.765668461778771e+00	 4.557130661400040e-01	 1.315051213501251e+01
 1.761456973001545e+00	 4.717296342558625e-01	 1.315925368460459e+01
 1.802451797386652e+00	 3.129136029991649e-01	 1.309422034312770e+01
 1.799605418398145e+00	 3.288886482022896e-01	 1.310282662904600e+01
 1.796608970943226e+00	 3.448820238438281e-01	 1.310892620139285e+01
 1.793461602058676e+00	 3.608917937352116e-01	 1.311295981122517e+01
 1.790162488917038e+00	 3.769159961034380e-01	 1.311544130139282e+01
 1.786710839598680e+00	 3.929526440996037e-01	 1.311696278675399e+01
 1.783105893856124e+00	 4.089997263322352e-01	 1.311820025201592e+01
 1.779346923869779e+00	 4.250552074253948e-01	 1.311991958352779e+01
 1.775433234994226e+00	 4.411170286015109e-01	 1.312298305107041e+01
 1.771364166494186e+00	 4.571831082888428e-01	 1.312835625529118e+01
 1.767139092269292e+00	 4.732513427534620e-01	 1.313711555591146e+01
 1.808247462330017e+00	 3.139197560634708e-01	 1.307087373398078e+01
 1.805391930997496e+00	 3.299461679714288e-01	 1.307940329263280e+01
 1.802385848663301e+00	 3.459909692581170e-01	 1.308548524129089e+01
 1.799228359621565e+00	 3.620522175092798e-01	 1.308956351902419e+01
 1.795918638399086e+00	 3.781279446439634e-01	 1.309215147532488e+01
 1.792455890529865e+00	 3.942161574246827e-01	 1.309383697966264e+01
 1.788839353321900e+00	 4.103148379924673e-01	 1.309528795467279e+01
 1.785068296615341e+00	 4.264219444267626e-01	 1.309725834987363e+01
 1.781142023531186e+00	 4.425354113301332e-01	 1.310059457254587e+01
 1.777059871209602e+00	 4.586531504376816e-01	 1.310624239203017e+01
 1.772821211537039e+00	 4.747730512510616e-01	 1.311525433319413e+01
 1.814043127273383e+00	 3.149259091277768e-01	 1.304867609339049e+01
 1.811178443596847e+00	 3.310036877405679e-01	 1.305713571841611e+01
 1.808162726383375e+00	 3.470999146724059e-01	 1.306318383052261e+01
 1.804995117184455e+00	 3.632126412833480e-01	 1.306726437293960e+01
 1.801674787881135e+00	 3.793398931844890e-01	 1.306988724511360e+01
 1.798200941461051e+00	 3.954796707497620e-01	 1.307163334899162e+01
 1.794572812787675e+00	 4.116299496526998e-01	 1.307316006476233e+01
 1.790789669360903e+00	 4.277886814281304e-01	 1.307520717350798e+01
 1.786850812068145e+00	 4.439537940587556e-01	 1.307860324397951e+01
 1.782755575925017e+00	 4.601231925865202e-01	 1.308427250034837e+01
 1.778503330804786e+00	 4.762947597486611e-01	 1.309324218730379e+01
 1.819838792216748e+00	 3.159320621920829e-01	 1.302763172771357e+01
 1.816964956196197e+00	 3.320612075097071e-01	 1.303602722122911e+01
 1.813939604103449e+00	 3.482088600866946e-01	 1.304202714603420e+01
 1.810761874747345e+00	 3.643730650574162e-01	 1.304607230558316e+01
 1.807430937363182e+00	 3.805518417250145e-01	 1.304866623122715e+01
 1.803945992392237e+00	 3.967431840748411e-01	 1.305038017254457e+01
 1.800306272253450e+00	 4.129450613129319e-01	 1.305185852276641e+01
 1.796511042106465e+00	 4.291554184294984e-01	 1.305382469729837e+01
 1.792559600605103e+00	 4.453721767873777e-01	 1.305708748311993e+01
 1.788451280640433e+00	 4.615932347353589e-01	 1.306254787650607e+01
 1.784185450072533e+00	 4.778164682462607e-01	 1.307120642604487e+01
 1.825634457160114e+00	 3.169382152563888e-01	 1.300774550098939e+01
 1.822751468795549e+00	 3.331187272788463e-01	 1.301608169110366e+01
 1.819716481823524e+00	 3.493178055009835e-01	 1.302202091994892e+01
 1.816528632310235e+00	 3.655334888314844e-01	 1.302599774683835e+01
 1.813187086845232e+00	 3.817637902655401e-01	 1.302850645529655e+01
 1.809691043323422e+00	 3.980066973999201e-01	 1.303010599468266e+01
 1.806039731719226e+00	 4.142601729731643e-01	 1.303142536235810e+01
 1.802232414852027e+00	 4.305221554308662e-01	 1.303316944493792e+01
 1.798268389142063e+00	 4.467905595160000e-01	 1.303612533696833e+01
 1.794146985355848e+00	 4.630632768841976e-01	 1.304116915505343e+01
 1.789867569340279e+00	 4.793381767438603e-01	 1.304927336500762e+01
 1.831430122103479e+00	 3.179443683206948e-01	 1.298902282238851e+01
 1.828537981394900e+00	 3.341762470479856e-01	 1.299730357955255e+01
 1.825493359543599e+00	 3.504267509152723e-01	 1.300317142522115e+01
 1.822295389873124e+00	 3.666939126055527e-01	 1.300705160943187e+01
 1.818943236327280e+00	 3.829757388060656e-01	 1.300942632615854e+01
 1.815436094254608e+00	 3.992702107249994e-01	 1.301083961340092e+01
 1.811773191185000e+00	 4.155752846333965e-01	 1.301190269907931e+01
 1.807953787597589e+00	 4.318888924322339e-01	 1.301329981180166e+01
 1.803977177679021e+00	 4.482089422446221e-01	 1.301579447539465e+01
 1.799842690071263e+00	 4.645333190330364e-01	 1.302023630579684e+01
 1.795549688608026e+00	 4.808598852414598e-01	 1.302756832847930e+01
 1.837225787046844e+00	 3.189505213850009e-01	 1.297146963378424e+01
 1.834324493994250e+00	 3.352337668171247e-01	 1.297969788598456e+01
 1.831270237263674e+00	 3.515356963295611e-01	 1.298548546142248e+01
 1.828062147436014e+00	 3.678543363796208e-01	 1.298924527462669e+01
 1.824699385809328e+00	 3.841876873465910e-01	 1.299144462599839e+01
 1.821181145185793e+00	 4.005337240500785e-01	 1.299261006747062e+01
 1.817506650650776e+00	 4.168903962936286e-01	 1.299333271904191e+01
 1.813675160343151e+00	 4.332556294336017e-01	 1.299427405576912e+01
 1.809685966215980e+00	 4.496273249732445e-01	 1.299617218465450e+01
 1.805538394786679e+00	 4.660033611818751e-01	 1.299984863058678e+01
 1.801231807875774e+00	 4.823815937390594e-01	 1.300621565008707e+01
 1.843021451990210e+00	 3.199566744493068e-01	 1.295509239744294e+01
 1.840111006593601e+00	 3.362912865862639e-01	 1.296327014424919e+01
 1.837047114983748e+00	 3.526446417438500e-01	 1.296897034065766e+01
 1.833828904998903e+00	 3.690147601536891e-01	 1.297259057803342e+01
 1.830455535291377e+00	 3.853996358871166e-01	 1.297458049658931e+01
 1.826926196116978e+00	 4.017972373751575e-01	 1.297544662364708e+01
 1.823240110116551e+00	 4.182055079538610e-01	 1.297575766764922e+01
 1.819396533088713e+00	 4.346223664349696e-01	 1.297615028801490e+01
 1.815394754752939e+00	 4.510457077018666e-01	 1.297733536080778e+01
 1.811234099502094e+00	 4.674734033307139e-01	 1.298010475993134e+01
 1.806913927143520e+00	 4.839033022366588e-01	 1.298533867317848e+01
 1.848817116933575e+00	 3.209628275136128e-01	 1.293989808383112e+01
 1.845897519192952e+00	 3.373488063554033e-01	 1.294802640930777e+01
 1.842823992703823e+00	 3.537535871581388e-01	 1.295363387360670e+01
 1.839595662561794e+00	 3.701751839277572e-01	 1.295709979553805e+01
 1.836211684773425e+00	 3.866115844276423e-01	 1.295885342562750e+01
 1.832671247048164e+00	 4.030607507002366e-01	 1.295937876394067e+01
 1.828973569582327e+00	 4.195206196140932e-01	 1.295921983834014e+01
 1.825117905834275e+00	 4.359891034363375e-01	 1.295898646376737e+01
 1.821103543289898e+00	 4.524640904304888e-01	 1.295936050304168e+01
 1.816929804217509e+00	 4.689434454795525e-01	 1.296110264943892e+01
 1.812596046411267e+00	 4.854250107342584e-01	 1.296505975094560e+01
 1.854612781876941e+00	 3.219689805779190e-01	 1.292589415953670e+01
 1.851684031792303e+00	 3.384063261245424e-01	 1.293397324402888e+01
 1.848600870423898e+00	 3.548625325724276e-01	 1.293948435569076e+01
 1.845362420124683e+00	 3.713356077018255e-01	 1.294278562934284e+01
 1.841967834255474e+00	 3.878235329681678e-01	 1.294428323315987e+01
 1.838416297979349e+00	 4.043242640253158e-01	 1.294443617295020e+01
 1.834707029048102e+00	 4.208357312743256e-01	 1.294376156135311e+01
 1.830839278579837e+00	 4.373558404377053e-01	 1.294284037303610e+01
 1.826812331826857e+00	 4.538824731591110e-01	 1.294232370690024e+01
 1.822625508932925e+00	 4.704134876283914e-01	 1.294293957609454e+01
 1.818278165679014e+00	 4.869467192318579e-01	 1.294550024629781e+01
 1.761456973001545e+00	 4.717296342558625e-01	 1.315925368460459e+01
 1.757089391272372e+00	 4.877462318142678e-01	 1.316697721261860e+01
 1.752565163669518e+00	 5.037607196506799e-01	 1.316795327829726e+01
 1.747883773886456e+00	 5.197709385444450e-01	 1.316417179923007e+01
 1.743044742900953e+00	 5.357747099446605e-01	 1.315778770817106e+01
 1.738047629628600e+00	 5.517698367193853e-01	 1.315112506364078e+01
 1.732892031559954e+00	 5.677541039278801e-01	 1.314668088414813e+01
 1.727577585380385e+00	 5.837252796155150e-01	 1.314712864472436e+01
 1.722103967571803e+00	 5.996811156309561e-01	 1.315271847743748e+01
 1.716470894995372e+00	 6.156193484652037e-01	 1.315838858189420e+01
 1.710678125454392e+00	 6.315377001120204e-01	 1.316483325031786e+01
 1.767139092269292e+00	 4.732513427534620e-01	 1.313711555591146e+01
 1.762757421566799e+00	 4.893196067556039e-01	 1.314336737855521e+01
 1.758218599681354e+00	 5.053857542301982e-01	 1.314292159032195e+01
 1.753522108640929e+00	 5.214476189913626e-01	 1.313801300687527e+01
 1.748667467878053e+00	 5.375030154606110e-01	 1.313073360157982e+01
 1.743654234885467e+00	 5.535497394184802e-01	 1.312334761976354e+01
 1.738482005855309e+00	 5.695855687792605e-01	 1.311829575175415e+01
 1.733150416300968e+00	 5.856082643884682e-01	 1.311819897335176e+01
 1.727659141660744e+00	 6.016155708426687e-01	 1.312257940793024e+01
 1.722007897882454e+00	 6.176052173312206e-01	 1.312732691385045e+01
 1.716196441988116e+00	 6.335749184994784e-01	 1.313336990182090e+01
 1.772821211537039e+00	 4.747730512510616e-01	 1.311525433319413e+01
 1.768425451861227e+00	 4.908929816969406e-01	 1.312173513091871e+01
 1.763872035693192e+00	 5.070107888097165e-01	 1.312016261921857e+01
 1.759160443395402e+00	 5.231242994382804e-01	 1.311371998710198e+01
 1.754290192855152e+00	 5.392313209765612e-01	 1.310514921378359e+01
 1.749260840142333e+00	 5.553296421175747e-01	 1.309665930314105e+01
 1.744071980150663e+00	 5.714170336306407e-01	 1.309063852502232e+01
 1.738723247221549e+00	 5.874912491614216e-01	 1.308965858823388e+01
 1.733214315749685e+00	 6.035500260543815e-01	 1.309252956818358e+01
 1.727544900769535e+00	 6.195910861972374e-01	 1.309623105826402e+01
 1.721714758521840e+00	 6.356121368869367e-01	 1.310177780439998e+01
 1.778503330804786e+00	 4.762947597486611e-01	 1.309324218730379e+01
 1.774093482155653e+00	 4.924663566382767e-01	 1.309982903153900e+01
 1.769525471705029e+00	 5.086358233892349e-01	 1.309865907003175e+01
 1.764798778149874e+00	 5.248009798851979e-01	 1.309144849719629e+01
 1.759912917832253e+00	 5.409596264925118e-01	 1.308120015166301e+01
 1.754867445399199e+00	 5.571095448166696e-01	 1.307122851904694e+01
 1.749661954446018e+00	 5.732484984820213e-01	 1.306387368005604e+01
 1.744296078142132e+00	 5.893742339343749e-01	 1.306164280363314e+01
 1.738769489838627e+00	 6.054844812660944e-01	 1.306273261896904e+01
 1.733081903656617e+00	 6.215769550632542e-01	 1.306523536606288e+01
 1.727233075055564e+00	 6.376493552743949e-01	 1.307015466969602e+01
 1.784185450072533e+00	 4.778164682462607e-01	 1.307120642604486e+01
 1.779761512450081e+00	 4.940397315796131e-01	 1.307760594620735e+01
 1.775178907716866e+00	 5.102608579687531e-01	 1.307657491805344e+01
 1.770437112904346e+00	 5.264776603321152e-01	 1.306976379077120e+01
 1.765535642809352e+00	 5.426879320084624e-01	 1.305902071521801e+01
 1.760474050656067e+00	 5.588894475157645e-01	 1.304722513690817e+01
 1.755251928741373e+00	 5.750799633334013e-01	 1.303816747742631e+01
 1.749868909062713e+00	 5.912572187073282e-01	 1.303424589213330e+01
 1.744324663927568e+00	 6.074189364778071e-01	 1.303335307170126e+01
 1.738618906543699e+00	 6.235628239292710e-01	 1.303447532884902e+01
 1.732751391589288e+00	 6.396865736618528e-01	 1.303859972571035e+01
 1.789867569340279e+00	 4.793381767438603e-01	 1.304927336500762e+01
 1.785429542744507e+00	 4.956131065209494e-01	 1.305521634677482e+01
 1.780832343728703e+00	 5.118858925482713e-01	 1.305404382803223e+01
 1.776075447658818e+00	 5.281543407790329e-01	 1.304734685258468e+01
 1.771158367786452e+00	 5.444162375244130e-01	 1.303691231173655e+01
 1.766080655912933e+00	 5.606693502148594e-01	 1.302473379740476e+01
 1.760841903036727e+00	 5.769114281847816e-01	 1.301368801481287e+01
 1.755441739983294e+00	 5.931402034802813e-01	 1.300764612793362e+01
 1.749879838016510e+00	 6.093533916895199e-01	 1.300455625879924e+01
 1.744155909430781e+00	 6.255486927952877e-01	 1.300408754105610e+01
 1.738269708123011e+00	 6.417237920493111e-01	 1.300721366934915e+01
 1.795549688608026e+00	 4.808598852414598e-01	 1.302756832847930e+01
 1.791097573038935e+00	 4.971864814622859e-01	 1.303280940697237e+01
 1.786485779740541e+00	 5.135109271277897e-01	 1.303123269270049e+01
 1.781713782413291e+00	 5.298310212259505e-01	 1.302437609565478e+01
 1.776781092763552e+00	 5.461445430403635e-01	 1.301397088897229e+01
 1.771687261169799e+00	 5.624492529139539e-01	 1.300195262734944e+01
 1.766431877332082e+00	 5.787428930361619e-01	 1.299047260541363e+01
 1.761014570903877e+00	 5.950231882532344e-01	 1.298203103536615e+01
 1.755435012105451e+00	 6.112878469012325e-01	 1.297650830379906e+01
 1.749692912317863e+00	 6.275345616613045e-01	 1.297420966197941e+01
 1.743788024656735e+00	 6.437610104367691e-01	 1.297609861898711e+01
 1.801231807875774e+00	 4.823815937390594e-01	 1.300621565008707e+01
 1.796765603333362e+00	 4.987598564036221e-01	 1.301053300657078e+01
 1.792139215752378e+00	 5.151359617073082e-01	 1.300830688553660e+01
 1.787352117167763e+00	 5.315077016728680e-01	 1.300102826756153e+01
 1.782403817740652e+00	 5.478728485563140e-01	 1.299037838538985e+01
 1.777293866426666e+00	 5.642291556130488e-01	 1.297823968792058e+01
 1.772021851627436e+00	 5.805743578875417e-01	 1.296670735584545e+01
 1.766587401824459e+00	 5.969061730261883e-01	 1.295743586713099e+01
 1.760990186194392e+00	 6.132223021129455e-01	 1.294937609122390e+01
 1.755229915204944e+00	 6.295204305273215e-01	 1.294498037768059e+01
 1.749306341190459e+00	 6.457982288242273e-01	 1.294535806705020e+01
 1.806913927143520e+00	 4.839033022366588e-01	 1.298533867317848e+01
 1.802433633627788e+00	 5.003332313449584e-01	 1.298853373519624e+01
 1.797792651764215e+00	 5.167609962868264e-01	 1.298543026676646e+01
 1.792990451922235e+00	 5.331843821197855e-01	 1.297747845737119e+01
 1.788026542717752e+00	 5.496011540722645e-01	 1.296631501457384e+01
 1.782900471683532e+00	 5.660090583121434e-01	 1.295377415391071e+01
 1.777611825922791e+00	 5.824058227389223e-01	 1.294189915265662e+01
 1.772160232745041e+00	 5.987891577991412e-01	 1.293210601221660e+01
 1.766545360283333e+00	 6.151567573246581e-01	 1.292318574642367e+01
 1.760766918092026e+00	 6.315062993933380e-01	 1.291653936276996e+01
 1.754824657724183e+00	 6.478354472116854e-01	 1.291509683261648e+01
 1.812596046411267e+00	 4.854250107342584e-01	 1.296505975094560e+01
 1.808101663922215e+00	 5.019066062862948e-01	 1.296695689580950e+01
 1.803446087776052e+00	 5.183860308663446e-01	 1.296276518897121e+01
 1.798628786676708e+00	 5.348610625667030e-01	 1.295390010213367e+01
 1.793649267694851e+00	 5.513294595882150e-01	 1.294195927136468e+01
 1.788507076940399e+00	 5.677889610112383e-01	 1.292873349327710e+01
 1.783201800218146e+00	 5.842372875903026e-01	 1.291621829783581e+01
 1.777733063665622e+00	 6.006721425720946e-01	 1.290563248244747e+01
 1.772100534372275e+00	 6.170912125363710e-01	 1.289623865278708e+01
 1.766303920979108e+00	 6.334921682593548e-01	 1.288892394351367e+01
 1.760342974257907e+00	 6.498726655991438e-01	 1.288542101403513e+01
 1.818278165679014e+00	 4.869467192318579e-01	 1.294550024629781e+01
 1.813769694216643e+00	 5.034799812276313e-01	 1.294594650785521e+01
 1.809099523787889e+00	 5.200110654458630e-01	 1.294047250231002e+01
 1.804267121431181e+00	 5.365377430136208e-01	 1.293046499296274e+01
 1.799271992671952e+00	 5.530577651041656e-01	 1.291748793756773e+01
 1.794113682197265e+00	 5.695688637103333e-01	 1.290329347124084e+01
 1.788791774513501e+00	 5.860687524416827e-01	 1.288983347927004e+01
 1.783305894586205e+00	 6.025551273450478e-01	 1.287819098052406e+01
 1.777655708461216e+00	 6.190256677480837e-01	 1.286810954805763e+01
 1.771840923866190e+00	 6.354780371253719e-01	 1.286051973706312e+01
 1.765861290791631e+00	 6.519098839866018e-01	 1.285638577564604e+01
 1.710678125454392e+00	 6.315377001120204e-01	 1.316483325031786e+01
 1.704725458236505e+00	 6.474338789492489e-01	 1.317243503221945e+01
 1.698612734634388e+00	 6.633055806404903e-01	 1.318109132132876e+01
 1.692339838444144e+00	 6.791504890565726e-01	 1.319103499437054e+01
 1.685906696440576e+00	 6.949662772162100e-01	 1.320238212871358e+01
 1.679313278828579e+00	 7.107506082452125e-01	 1.321512741599386e+01
 1.672559599669887e+00	 7.265011363535799e-01	 1.322914026411475e+01
 1.665645717284419e+00	 7.422155078297736e-01	 1.324416167235213e+01
 1.658571734625537e+00	 7.578913620514293e-01	 1.325980196350762e+01
 1.651337799628489e+00	 7.735263325117473e-01	 1.327553945562239e+01
 1.643944105531380e+00	 7.891180478607518e-01	 1.329072015366876e+01
 1.716196441988116e+00	 6.335749184994784e-01	 1.313336990182090e+01
 1.710224572617913e+00	 6.495223753329560e-01	 1.314080399754821e+01
 1.704092130552564e+00	 6.654452760619113e-01	 1.314928102055324e+01
 1.697798999213319e+00	 6.813412970857875e-01	 1.315907114317945e+01
 1.691345105138772e+00	 6.972081039169075e-01	 1.317032780463392e+01
 1.684730418437704e+00	 7.130433521427779e-01	 1.318308285622957e+01
 1.677954953217208e+00	 7.288446884063335e-01	 1.319724239936720e+01
 1.671018767985336e+00	 7.446097514034179e-01	 1.321258340317595e+01
 1.663921966027554e+00	 7.603361728967565e-01	 1.322875118797281e+01
 1.656664695756323e+00	 7.760215787456564e-01	 1.324525785928525e+01
 1.649247151033095e+00	 7.916635899506251e-01	 1.326148177508428e+01
 1.721714758521840e+00	 6.356121368869367e-01	 1.310177780439998e+01
 1.715723686999322e+00	 6.516108717166637e-01	 1.310897618109410e+01
 1.709571526470740e+00	 6.675849714833321e-01	 1.311722429079531e+01
 1.703258159982494e+00	 6.835321051150024e-01	 1.312682397546604e+01
 1.696783513836967e+00	 6.994499306176051e-01	 1.313796093418408e+01
 1.690147558046829e+00	 7.153360960403429e-01	 1.315069960732666e+01
 1.683350306764531e+00	 7.311882404590868e-01	 1.316497875731986e+01
 1.676391818686254e+00	 7.470039949770625e-01	 1.318060783507478e+01
 1.669272197429572e+00	 7.627809837420838e-01	 1.319726422050314e+01
 1.661991591884157e+00	 7.785168249795652e-01	 1.321449142410133e+01
 1.654550196534808e+00	 7.942091320404986e-01	 1.323169833449732e+01
 1.727233075055564e+00	 6.376493552743949e-01	 1.307015466969602e+01
 1.721222801380730e+00	 6.536993681003709e-01	 1.307701140928551e+01
 1.715050922388915e+00	 6.697246669047532e-01	 1.308494798315523e+01
 1.708717320751668e+00	 6.857229131442167e-01	 1.309429237039625e+01
 1.702221922535162e+00	 7.016917573183026e-01	 1.310525751835993e+01
 1.695564697655952e+00	 7.176288399379082e-01	 1.311793597287946e+01
 1.688745660311853e+00	 7.335317925118404e-01	 1.313229520834709e+01
 1.681764869387171e+00	 7.493982385507068e-01	 1.314817374898337e+01
 1.674622428831591e+00	 7.652257945874108e-01	 1.316527817193699e+01
 1.667318488011990e+00	 7.810120712134739e-01	 1.318318108146555e+01
 1.659853242036523e+00	 7.967546741303718e-01	 1.320132014135499e+01
 1.732751391589288e+00	 6.396865736618528e-01	 1.303859972571035e+01
 1.726721915762138e+00	 6.557878644840780e-01	 1.304497140967081e+01
 1.720530318307091e+00	 6.718643623261744e-01	 1.305248116619338e+01
 1.714176481520843e+00	 6.879137211734317e-01	 1.306147767225916e+01
 1.707660331233357e+00	 7.039335840189996e-01	 1.307219620205181e+01
 1.700981837265077e+00	 7.199215838354734e-01	 1.308475301008621e+01
 1.694141013859175e+00	 7.358753445645937e-01	 1.309914041694733e+01
 1.687137920088088e+00	 7.517924821243512e-01	 1.311522269120574e+01
 1.679972660233609e+00	 7.676706054327385e-01	 1.313273282040832e+01
 1.672645384139824e+00	 7.835073174473829e-01	 1.315127026267269e+01
 1.665156287538236e+00	 7.993002162202452e-01	 1.317029976832357e+01
 1.738269708123011e+00	 6.417237920493111e-01	 1.300721366934915e+01
 1.732221030143545e+00	 6.578763608677853e-01	 1.301291975366687e+01
 1.726009714225266e+00	 6.740040577475952e-01	 1.301985505994222e+01
 1.719635642290017e+00	 6.901045292026464e-01	 1.302838361681705e+01
 1.713098739931553e+00	 7.061754107196975e-01	 1.303875819382368e+01
 1.706398976874202e+00	 7.222143277330383e-01	 1.305111444406220e+01
 1.699536367406498e+00	 7.382188966173473e-01	 1.306546575170887e+01
 1.692510970789006e+00	 7.541867256979955e-01	 1.308169888016585e+01
 1.685322891635627e+00	 7.701154162780656e-01	 1.309957051602687e+01
 1.677972280267658e+00	 7.860025636812916e-01	 1.311870480268334e+01
 1.670459333039951e+00	 8.018457583101186e-01	 1.313859195530669e+01
 1.743788024656735e+00	 6.437610104367691e-01	 1.297609861898711e+01
 1.737720144524954e+00	 6.599648572514927e-01	 1.298092179947754e+01
 1.731489110143441e+00	 6.761437531690158e-01	 1.298710297021867e+01
 1.725094803059192e+00	 6.922953372318613e-01	 1.299501625806691e+01
 1.718537148629748e+00	 7.084172374203948e-01	 1.300492718619333e+01
 1.711816116483326e+00	 7.245070716306037e-01	 1.301698658272328e+01
 1.704931720953820e+00	 7.405624486701008e-01	 1.303122519589484e+01
 1.697884021489923e+00	 7.565809692716400e-01	 1.304754911380491e+01
 1.690673123037644e+00	 7.725602271233927e-01	 1.306573608621116e+01
 1.683299176395492e+00	 7.884978099152007e-01	 1.308543284452714e+01
 1.675762378541665e+00	 8.043913003999920e-01	 1.310615351406432e+01
 1.749306341190459e+00	 6.457982288242273e-01	 1.294535806705020e+01
 1.743219258906362e+00	 6.620533536351997e-01	 1.294904463517837e+01
 1.736968506061617e+00	 6.782834485904370e-01	 1.295426022323079e+01
 1.730553963828366e+00	 6.944861452610758e-01	 1.296138389540389e+01
 1.723975557327944e+00	 7.106590641210921e-01	 1.297068927640266e+01
 1.717233256092450e+00	 7.267998155281689e-01	 1.298233823222708e+01
 1.710327074501142e+00	 7.429060007228542e-01	 1.299637525863293e+01
 1.703257072190841e+00	 7.589752128452845e-01	 1.301272267761038e+01
 1.696023354439662e+00	 7.750050379687198e-01	 1.303117674165911e+01
 1.688626072523326e+00	 7.909930561491094e-01	 1.305140474432900e+01
 1.681065424043380e+00	 8.069368424898656e-01	 1.307294323341918e+01
 1.754824657724183e+00	 6.478354472116854e-01	 1.291509683261648e+01
 1.748718373287770e+00	 6.641418500189070e-01	 1.291735702196393e+01
 1.742447901979792e+00	 6.804231440118578e-01	 1.292136410047149e+01
 1.736013124597541e+00	 6.966769532902908e-01	 1.292749700117766e+01
 1.729413966026139e+00	 7.129008908217895e-01	 1.293603288766715e+01
 1.722650395701575e+00	 7.290925594257341e-01	 1.294714061295988e+01
 1.715722428048464e+00	 7.452495527756077e-01	 1.296087488669759e+01
 1.708630122891758e+00	 7.613694564189287e-01	 1.297717125326358e+01
 1.701373585841679e+00	 7.774498488140470e-01	 1.299584198294321e+01
 1.693952968651160e+00	 7.934883023830183e-01	 1.301657297694547e+01
 1.686368469545094e+00	 8.094823845797389e-01	 1.303892178503775e+01
 1.760342974257907e+00	 6.498726655991438e-01	 1.288542101403513e+01
 1.754217487669178e+00	 6.662303464026140e-01	 1.288592933755390e+01
 1.747927297897967e+00	 6.825628394332788e-01	 1.288845377389414e+01
 1.741472285366716e+00	 6.988677613195055e-01	 1.289336814863369e+01
 1.734852374724335e+00	 7.151427175224871e-01	 1.290094869089421e+01
 1.728067535310699e+00	 7.313853033232994e-01	 1.291136727605713e+01
 1.721117781595786e+00	 7.475931048283614e-01	 1.292468537687067e+01
 1.714003173592676e+00	 7.637636999925734e-01	 1.294084882789129e+01
 1.706723817243698e+00	 7.798946596593741e-01	 1.295968350771580e+01
 1.699279864778993e+00	 7.959835486169270e-01	 1.298089204219675e+01
 1.691671515046807e+00	 8.120279266696121e-01	 1.300405162977292e+01
 1.765861290791631e+00	 6.519098839866018e-01	 1.285638577564604e+01
 1.759716602050586e+00	 6.683188427863217e-01	 1.285483351975489e+01
 1.753406693816143e+00	 6.847025348547000e-01	 1.285557024136251e+01
 1.746931446135890e+00	 7.010585693487204e-01	 1.285901194023043e+01
 1.740290783422529e+00	 7.173845442231847e-01	 1.286542952685972e+01
 1.733484674919824e+00	 7.336780472208647e-01	 1.287499402044572e+01
 1.726513135143108e+00	 7.499366568811147e-01	 1.288777028886870e+01
 1.719376224293593e+00	 7.661579435662180e-01	 1.290371160390922e+01
 1.712074048645715e+00	 7.823394705047014e-01	 1.292265511851160e+01
 1.704606760906827e+00	 7.984787948508359e-01	 1.294431837168214e+01
 1.696974560548522e+00	 8.145734687594859e-01	 1.296829692455652e+01
 1.643944105531380e+00	 7.891180478607518e-01	 1.329072015366876e+01
 1.636390891168032e+00	 8.046641329605954e-01	 1.330868252136498e+01
 1.628678441232099e+00	 8.201622099540509e-01	 1.333221843251116e+01
 1.620807086511866e+00	 8.356098993452935e-01	 1.335962779531851e+01
 1.612777204095159e+00	 8.510048210920641e-01	 1.338904483179920e+01
 1.604589217543857e+00	 8.663445957082695e-01	 1.341844439496672e+01
 1.596243597037496e+00	 8.816268453760522e-01	 1.344564977015455e+01
 1.587740859485514e+00	 8.968491950663363e-01	 1.346834200709044e+01
 1.579081568607720e+00	 9.120092736668385e-01	 1.348407082175997e+01
 1.570266334982596e+00	 9.271047151165072e-01	 1.349026709888264e+01
 1.561295816063075e+00	 9.421331595453336e-01	 1.348425701704202e+01
 1.649247151033095e+00	 7.916635899506251e-01	 1.326148177508428e+01
 1.641669571462122e+00	 8.072598237120812e-01	 1.328062318162660e+01
 1.633932242655429e+00	 8.228078945022899e-01	 1.330532874490761e+01
 1.626035496468355e+00	 8.383054151496332e-01	 1.333391800565689e+01
 1.617979711205144e+00	 8.537499979342966e-01	 1.336454334209864e+01
 1.609765311793999e+00	 8.691392556944252e-01	 1.339519618136665e+01
 1.601392769931165e+00	 8.844708029417813e-01	 1.342371472015735e+01
 1.592862604193532e+00	 8.997422569859049e-01	 1.344779320301855e+01
 1.584175380119358e+00	 9.149512390657639e-01	 1.346499279894254e+01
 1.575331710256733e+00	 9.300953754878505e-01	 1.347275410858629e+01
 1.566332254179407e+00	 9.451722987696735e-01	 1.346841132550695e+01
 1.654550196534808e+00	 7.942091320404986e-01	 1.323169833449732e+01
 1.646948251756213e+00	 8.098555144635667e-01	 1.325194852673841e+01
 1.639186044078758e+00	 8.254535790505287e-01	 1.327774972835951e+01
 1.631263906424845e+00	 8.410009309539729e-01	 1.330744677626055e+01
 1.623182218315128e+00	 8.564951747765289e-01	 1.333921583019632e+01
 1.614941406044141e+00	 8.719339156805810e-01	 1.337107046639589e+01
 1.606541942824835e+00	 8.873147605075107e-01	 1.340086930586562e+01
 1.597984348901550e+00	 9.026353189054737e-01	 1.342632522758134e+01
 1.589269191630996e+00	 9.178932044646889e-01	 1.344501620892440e+01
 1.580397085530871e+00	 9.330860358591945e-01	 1.345439782723033e+01
 1.571368692295739e+00	 9.482114379940133e-01	 1.345181744723079e+01
 1.659853242036523e+00	 7.967546741303718e-01	 1.320132014135499e+01
 1.652226932050303e+00	 8.124512052150528e-01	 1.322262106341738e+01
 1.644439845502088e+00	 8.280992635987676e-01	 1.324945611613252e+01
 1.636492316381335e+00	 8.436964467583125e-01	 1.328020108106718e+01
 1.628384725425112e+00	 8.592403516187614e-01	 1.331306150820891e+01
 1.620117500294282e+00	 8.747285756667366e-01	 1.334607867968381e+01
 1.611691115718505e+00	 8.901587180732398e-01	 1.337713713393193e+01
 1.603106093609567e+00	 9.055283808250425e-01	 1.340397380240718e+01
 1.594363003142634e+00	 9.208351698636142e-01	 1.342418880289101e+01
 1.585462460805008e+00	 9.360766962305378e-01	 1.343525792488288e+01
 1.576405130412072e+00	 9.512505772183528e-01	 1.343454683328730e+01
 1.665156287538236e+00	 7.993002162202452e-01	 1.317029976832357e+01
 1.657505612344395e+00	 8.150468959665387e-01	 1.319260529138346e+01
 1.649693646925416e+00	 8.307449481470061e-01	 1.322042436712898e+01
 1.641720726337825e+00	 8.463919625626521e-01	 1.325216935614322e+01
 1.633587232535097e+00	 8.619855284609941e-01	 1.328608079173073e+01
 1.625293594544424e+00	 8.775232356528923e-01	 1.332023320152627e+01
 1.616840288612174e+00	 8.930026756389690e-01	 1.335254251567232e+01
 1.608227838317585e+00	 9.084214427446117e-01	 1.338077511554287e+01
 1.599456814654272e+00	 9.237771352625398e-01	 1.340255856888970e+01
 1.590527836079146e+00	 9.390673566018813e-01	 1.341539408851519e+01
 1.581441568528404e+00	 9.542897164426926e-01	 1.341667074217845e+01
 1.670459333039951e+00	 8.018457583101186e-01	 1.313859195530669e+01
 1.662784292638484e+00	 8.176425867180241e-01	 1.316186760824121e+01
 1.654947448348746e+00	 8.333906326952453e-01	 1.319063257167612e+01
 1.646949136294315e+00	 8.490874783669918e-01	 1.322334140641853e+01
 1.638789739645081e+00	 8.647307053032265e-01	 1.325827520754756e+01
 1.630469688794564e+00	 8.803178956390478e-01	 1.329354727160660e+01
 1.621989461505843e+00	 8.958466332046984e-01	 1.332711037681584e+01
 1.613349583025603e+00	 9.113145046641804e-01	 1.335676573224814e+01
 1.604550626165909e+00	 9.267191006614650e-01	 1.338017364367925e+01
 1.595593211353283e+00	 9.420580169732249e-01	 1.339486593491016e+01
 1.586478006644737e+00	 9.573288556670322e-01	 1.339826015379990e+01
 1.675762378541665e+00	 8.043913003999920e-01	 1.310615351406432e+01
 1.668062972932574e+00	 8.202382774695098e-01	 1.313037621491432e+01
 1.660201249772076e+00	 8.360363172434842e-01	 1.316006035782075e+01
 1.652177546250805e+00	 8.517829941713315e-01	 1.319370831287899e+01
 1.643992246755065e+00	 8.674758821454589e-01	 1.322964730176113e+01
 1.635645783044706e+00	 8.831125556252037e-01	 1.326603489807977e+01
 1.627138634399512e+00	 8.986905907704273e-01	 1.330086616757175e+01
 1.618471327733621e+00	 9.142075665837492e-01	 1.333198250606198e+01
 1.609644437677547e+00	 9.296610660603902e-01	 1.335708222480670e+01
 1.600658586627420e+00	 9.450486773445684e-01	 1.337373292375510e+01
 1.591514444761069e+00	 9.603679948913724e-01	 1.337938568354848e+01
 1.681065424043380e+00	 8.069368424898656e-01	 1.307294323341918e+01
 1.673341653226665e+00	 8.228339682209955e-01	 1.309810102162105e+01
 1.665455051195404e+00	 8.386820017917230e-01	 1.312868879811743e+01
 1.657405956207295e+00	 8.544785099756711e-01	 1.316326234020701e+01
 1.649194753865050e+00	 8.702210589876912e-01	 1.320020054831533e+01
 1.640821877294848e+00	 8.859072156113595e-01	 1.323771076701304e+01
 1.632287807293181e+00	 9.015345483361564e-01	 1.327383577300698e+01
 1.623593072441638e+00	 9.171006285033180e-01	 1.330646249013551e+01
 1.614738249189185e+00	 9.326030314593156e-01	 1.333333248290717e+01
 1.605723961901558e+00	 9.480393377159121e-01	 1.335205427091415e+01
 1.596550882877402e+00	 9.634071341157121e-01	 1.336011749656811e+01
 1.686368469545094e+00	 8.094823845797389e-01	 1.303892178503775e+01
 1.678620333520756e+00	 8.254296589724818e-01	 1.306501355437878e+01
 1.670708852618734e+00	 8.413276863399618e-01	 1.309650031690046e+01
 1.662634366163784e+00	 8.571740257800109e-01	 1.313199684485979e+01
 1.654397260975034e+00	 8.729662358299236e-01	 1.316993925791511e+01
 1.645997971544990e+00	 8.887018755975152e-01	 1.320859015217424e+01
 1.637436980186851e+00	 9.043785059018856e-01	 1.324604542372787e+01
 1.628714817149656e+00	 9.199936904228869e-01	 1.328024284882471e+01
 1.619832060700823e+00	 9.355449968582408e-01	 1.330897247422073e+01
 1.610789337175695e+00	 9.510299980872556e-01	 1.332988886187709e+01
 1.601587320993735e+00	 9.664462733400521e-01	 1.334052522213161e+01
 1.691671515046807e+00	 8.120279266696121e-01	 1.300405162977292e+01
 1.683899013814846e+00	 8.280253497239676e-01	 1.303108686202601e+01
 1.675962654042063e+00	 8.439733708882008e-01	 1.306347859802891e+01
 1.667862776120275e+00	 8.598695415843504e-01	 1.309990618357640e+01
 1.659599768085018e+00	 8.757114126721559e-01	 1.313886848732969e+01
 1.651174065795130e+00	 8.914965355836708e-01	 1.317868882516064e+01
 1.642586153080520e+00	 9.072224634676151e-01	 1.321752160685870e+01
 1.633836561857674e+00	 9.228867523424557e-01	 1.325336076953806e+01
 1.624925872212461e+00	 9.384869622571661e-01	 1.328405005332277e+01
 1.615854712449832e+00	 9.540206584585990e-01	 1.330729516538045e+01
 1.606623759110067e+00	 9.694854125643916e-01	 1.332067786815516e+01
 1.696974560548522e+00	 8.145734687594859e-01	 1.296829692455652e+01
 1.689177694108937e+00	 8.306210404754533e-01	 1.299629542375007e+01
 1.681216455465393e+00	 8.466190554364398e-01	 1.302960849309373e+01
 1.673091186076765e+00	 8.625650573886900e-01	 1.306698562230355e+01
 1.664802275195002e+00	 8.784565895143885e-01	 1.310699394907148e+01
 1.656350160045272e+00	 8.942911955698267e-01	 1.314802296586044e+01
 1.647735325974190e+00	 9.100664210333445e-01	 1.318829097731084e+01
 1.638958306565692e+00	 9.257798142620247e-01	 1.322585337483288e+01
 1.630019683724099e+00	 9.414289276560917e-01	 1.325861278606221e+01
 1.620920087723970e+00	 9.570113188299428e-01	 1.328433114719664e+01
 1.611660197226400e+00	 9.725245517887317e-01	 1.330064373584262e+01
 1.561295816063075e+00	 9.421331595453336e-01	 1.348425701704202e+01
 1.552170716159507e+00	 9.570922544184637e-01	 1.347547149249441e+01
 1.542891786389529e+00	 9.719796556835243e-01	 1.347359426364825e+01
 1.533459824594609e+00	 9.867930289200494e-01	 1.347624831176495e+01
 1.523875675223090e+00	 1.001530050489902e+00	 1.348105528386706e+01
 1.514140229179583e+00	 1.016188408687550e+00	 1.348565708435290e+01
 1.504254423640605e+00	 1.030765804889067e+00	 1.348773895616785e+01
 1.494219241836413e+00	 1.045259954698710e+00	 1.348505400071845e+01
 1.484035712799019e+00	 1.059668589091911e+00	 1.347544907432276e+01
 1.473704911076409e+00	 1.073989455553549e+00	 1.345689198755182e+01
 1.463227956413056e+00	 1.088220319210318e+00	 1.342749992241066e+01
 1.566332254179407e+00	 9.451722987696735e-01	 1.346841132550695e+01
 1.557177718469699e+00	 9.601796487875555e-01	 1.346155170269838e+01
 1.547868856668205e+00	 9.751150739276648e-01	 1.346198111247758e+01
 1.538406469190075e+00	 9.899762322391464e-01	 1.346727353587949e+01
 1.528791403207681e+00	 1.004760792588257e+00	 1.347499582262375e+01
 1.519024552499517e+00	 1.019466435812349e+00	 1.348272952659677e+01
 1.509106857265252e+00	 1.034090855872580e+00	 1.348809427308902e+01
 1.499039303906853e+00	 1.048631761004189e+00	 1.348877260691662e+01
 1.488822924775790e+00	 1.063086874863175e+00	 1.348253625891604e+01
 1.478458797886333e+00	 1.077453937668237e+00	 1.346727375660849e+01
 1.467948046595034e+00	 1.091730707336803e+00	 1.344101929316835e+01
 1.571368692295739e+00	 9.482114379940133e-01	 1.345181744723079e+01
 1.562184720779891e+00	 9.632670431566476e-01	 1.344700240927451e+01
 1.552845926946881e+00	 9.782504921718054e-01	 1.344985808026667e+01
 1.543353113785542e+00	 9.931594355582436e-01	 1.345790464085565e+01
 1.533707131192271e+00	 1.007991534686611e+00	 1.346864896354239e+01
 1.523908875819451e+00	 1.022744462937147e+00	 1.347960669728126e+01
 1.513959290889899e+00	 1.037415906856094e+00	 1.348832592720881e+01
 1.503859365977293e+00	 1.052003567309669e+00	 1.349241235857911e+01
 1.493610136752561e+00	 1.066505160634439e+00	 1.348955596209305e+01
 1.483212684696257e+00	 1.080918419782926e+00	 1.347755900585818e+01
 1.472668136777011e+00	 1.095241095463288e+00	 1.345436538729334e+01
 1.576405130412072e+00	 9.512505772183528e-01	 1.343454683328730e+01
 1.567191723090083e+00	 9.663544375257395e-01	 1.343190579809208e+01
 1.557822997225557e+00	 9.813859104159455e-01	 1.343731618904512e+01
 1.548299758381008e+00	 9.963426388773402e-01	 1.344823964103876e+01
 1.538622859176861e+00	 1.011222276784965e+00	 1.346211792366307e+01
 1.528793199139385e+00	 1.026022490061945e+00	 1.347639528010214e+01
 1.518811724514546e+00	 1.040740957839607e+00	 1.348854238571198e+01
 1.508679428047734e+00	 1.055375373615149e+00	 1.349608187531818e+01
 1.498397348729333e+00	 1.069923446405703e+00	 1.349661537612141e+01
 1.487966571506181e+00	 1.084382901897615e+00	 1.348785197088660e+01
 1.477388226958988e+00	 1.098751483589772e+00	 1.346763800390248e+01
 1.581441568528404e+00	 9.542897164426926e-01	 1.341667074217845e+01
 1.572198725400275e+00	 9.694418318948310e-01	 1.341634367551824e+01
 1.562800067504233e+00	 9.845213286600859e-01	 1.342444592825098e+01
 1.553246402976474e+00	 9.995258421964371e-01	 1.343837589861887e+01
 1.543538587161453e+00	 1.014453018883320e+00	 1.345550518146925e+01
 1.533677522459320e+00	 1.029300517186744e+00	 1.347320116654663e+01
 1.523664158139193e+00	 1.044066008823120e+00	 1.348885130221012e+01
 1.513499490118174e+00	 1.058747179920628e+00	 1.349988897358318e+01
 1.503184560706103e+00	 1.073341732176968e+00	 1.350382093172860e+01
 1.492720458316104e+00	 1.087847384012304e+00	 1.349825619796223e+01
 1.482108317140966e+00	 1.102261871716258e+00	 1.348093635495674e+01
 1.586478006644737e+00	 9.573288556670322e-01	 1.339826015379990e+01
 1.577205727710467e+00	 9.725292262639226e-01	 1.340039738325430e+01
 1.567777137782909e+00	 9.876567469042261e-01	 1.341133717007870e+01
 1.558193047571941e+00	 1.002709045515534e+00	 1.342841003914294e+01
 1.548454315146043e+00	 1.017683760981675e+00	 1.344891239222825e+01
 1.538561845779253e+00	 1.032578544311543e+00	 1.347012937073768e+01
 1.528516591763841e+00	 1.047391059806633e+00	 1.348935943077633e+01
 1.518319552188613e+00	 1.062118986226108e+00	 1.350394057958471e+01
 1.507971772682874e+00	 1.076760017948232e+00	 1.351127820962732e+01
 1.497474345126028e+00	 1.091311866126993e+00	 1.350887445388618e+01
 1.486828407322944e+00	 1.105772259842743e+00	 1.349435897317096e+01
 1.591514444761069e+00	 9.603679948913724e-01	 1.337938568354848e+01
 1.582212730020659e+00	 9.756166206330145e-01	 1.338414771327621e+01
 1.572754208061584e+00	 9.907921651483664e-01	 1.339807908490232e+01
 1.563139692167408e+00	 1.005892248834631e+00	 1.341843786708125e+01
 1.553370043130633e+00	 1.020914503080029e+00	 1.344244030337178e+01
 1.543446169099188e+00	 1.035856571436341e+00	 1.346728394431163e+01
 1.533369025388487e+00	 1.050716110790146e+00	 1.349017254001537e+01
 1.523139614259053e+00	 1.065490792531588e+00	 1.350834264226362e+01
 1.512758984659645e+00	 1.080178303719496e+00	 1.351909185210047e+01
 1.502228231935953e+00	 1.094776348241682e+00	 1.351980863592398e+01
 1.491548497504921e+00	 1.109282647969228e+00	 1.350800362003415e+01
 1.596550882877402e+00	 9.634071341157121e-01	 1.336011749656811e+01
 1.587219732330850e+00	 9.787040150021065e-01	 1.336767482287724e+01
 1.577731278340260e+00	 9.939275833925069e-01	 1.338476005677196e+01
 1.568086336762874e+00	 1.009075452153728e+00	 1.340855428144567e+01
 1.558285771115224e+00	 1.024145245178384e+00	 1.343618866991564e+01
 1.548330492419122e+00	 1.039134598561140e+00	 1.346476789132995e+01
 1.538221459013134e+00	 1.054041161773659e+00	 1.349139532716855e+01
 1.527959676329494e+00	 1.068862598837067e+00	 1.351320004630213e+01
 1.517546196636417e+00	 1.083596589490760e+00	 1.352736547464425e+01
 1.506982118745876e+00	 1.098240830356371e+00	 1.353115968181647e+01
 1.496268587686899e+00	 1.112793036095713e+00	 1.352196719393753e+01
 1.601587320993735e+00	 9.664462733400521e-01	 1.334052522213161e+01
 1.592226734641042e+00	 9.817914093711981e-01	 1.335105814981065e+01
 1.582708348618936e+00	 9.970630016366474e-01	 1.337146759898230e+01
 1.573032981358341e+00	 1.012258655472825e+00	 1.339885319145977e+01
 1.563201499099814e+00	 1.027375987276738e+00	 1.343025616991809e+01
 1.553214815739056e+00	 1.042412625685938e+00	 1.346268308322311e+01
 1.543073892637782e+00	 1.057366212757172e+00	 1.349313133225231e+01
 1.532779738399934e+00	 1.072234405142547e+00	 1.351861652517755e+01
 1.522333408613188e+00	 1.087014875262025e+00	 1.353620157766827e+01
 1.511736005555800e+00	 1.101705312471060e+00	 1.354302747986968e+01
 1.500988677868876e+00	 1.116303424222197e+00	 1.353634563840875e+01
 1.606623759110067e+00	 9.694854125643916e-01	 1.332067786815516e+01
 1.597233736951234e+00	 9.848788037402900e-01	 1.333437632752995e+01
 1.587685418897612e+00	 1.000198419880788e+00	 1.335828826971136e+01
 1.577979625953807e+00	 1.015441858791922e+00	 1.338942743227908e+01
 1.568117227084405e+00	 1.030606729375093e+00	 1.342474031997542e+01
 1.558099139058990e+00	 1.045690652810737e+00	 1.346113017376651e+01
 1.547926326262429e+00	 1.060691263740685e+00	 1.349548285223014e+01
 1.537599800470374e+00	 1.075606211448027e+00	 1.352469457425679e+01
 1.527120620589959e+00	 1.090433161033289e+00	 1.354570145825069e+01
 1.516489892365724e+00	 1.105169794585748e+00	 1.355551077912065e+01
 1.505708768050854e+00	 1.119813812348682e+00	 1.355123385044907e+01
 1.611660197226400e+00	 9.725245517887317e-01	 1.330064373584262e+01
 1.602240739261426e+00	 9.879661981093817e-01	 1.331770710052474e+01
 1.592662489176288e+00	 1.003333838124928e+00	 1.334530758772779e+01
 1.582926270549274e+00	 1.018625062111019e+00	 1.338036868076068e+01
 1.573032955068996e+00	 1.033837471473447e+00	 1.341973739075460e+01
 1.562983462378924e+00	 1.048968679935535e+00	 1.346020851408764e+01
 1.552778759887075e+00	 1.064016314724198e+00	 1.349855085521676e+01
 1.542419862540814e+00	 1.078978017753507e+00	 1.353153536393114e+01
 1.531907832566729e+00	 1.093851446804553e+00	 1.355596512194845e+01
 1.521243779175648e+00	 1.108634276700437e+00	 1.356870709957827e+01
 1.510428858232832e+00	 1.123324200475167e+00	 1.356672558897202e+01
 1.463227956413056e+00	 1.088220319210318e+00	 1.342749992241067e+01
 1.452606013396844e+00	 1.102358963956053e+00	 1.338849151754853e+01
 1.441840291072563e+00	 1.116403193568847e+00	 1.333990359600601e+01
 1.430932042522204e+00	 1.130350832818806e+00	 1.327831157053941e+01
 1.419882564412286e+00	 1.144199728565308e+00	 1.320045373480351e+01
 1.408693196508551e+00	 1.157947750842608e+00	 1.310326666512255e+01
 1.397365321158345e+00	 1.171592793932675e+00	 1.298392126612174e+01
 1.385900362741092e+00	 1.185132777424136e+00	 1.284810514145348e+01
 1.374299787087299e+00	 1.198565647256228e+00	 1.272335821830872e+01
 1.362565100866560e+00	 1.211889376746671e+00	 1.261110761170605e+01
 1.350697850945095e+00	 1.225101967602386e+00	 1.251014896071343e+01
 1.467948046595034e+00	 1.091730707336803e+00	 1.344101929316835e+01
 1.457291839246511e+00	 1.105914960613976e+00	 1.340445326765817e+01
 1.446491388785701e+00	 1.120004494193262e+00	 1.335708556730394e+01
 1.435547952336792e+00	 1.133997125827899e+00	 1.329542269675578e+01
 1.424462830749100e+00	 1.147890695431648e+00	 1.321613400064753e+01
 1.413237368110192e+00	 1.161683066167907e+00	 1.311608768359183e+01
 1.401872951226598e+00	 1.175372125526006e+00	 1.299238750234160e+01
 1.390371009072515e+00	 1.188955786383568e+00	 1.285943449870795e+01
 1.378733012206935e+00	 1.202431988053828e+00	 1.273871207215660e+01
 1.366960472159678e+00	 1.215798697316822e+00	 1.262918670860076e+01
 1.355054940786853e+00	 1.229053909433361e+00	 1.252963245730546e+01
 1.472668136777011e+00	 1.095241095463288e+00	 1.345436538729334e+01
 1.461977665096178e+00	 1.109470957271899e+00	 1.342011899279515e+01
 1.451142486498838e+00	 1.123605794817678e+00	 1.337381277091415e+01
 1.440163862151380e+00	 1.137643418836992e+00	 1.331188933560415e+01
 1.429043097085914e+00	 1.151581662297988e+00	 1.323095431234957e+01
 1.417781539711833e+00	 1.165418381493206e+00	 1.312781297609734e+01
 1.406380581294850e+00	 1.179151457119337e+00	 1.300027257412486e+01
 1.394841655403938e+00	 1.192778795343001e+00	 1.287221466630431e+01
 1.383166237326572e+00	 1.206298328851429e+00	 1.275525255237759e+01
 1.371355843452796e+00	 1.219708017886973e+00	 1.264820955583110e+01
 1.359412030628611e+00	 1.233005851264336e+00	 1.254984598316443e+01
 1.477388226958988e+00	 1.098751483589772e+00	 1.346763800390248e+01
 1.466663490945846e+00	 1.113026953929822e+00	 1.343558463573255e+01
 1.455793584211975e+00	 1.127207095442094e+00	 1.339017985299090e+01
 1.444779771965967e+00	 1.141289711846084e+00	 1.332780732164421e+01
 1.433623363422727e+00	 1.155272629164327e+00	 1.324501409913031e+01
 1.422325711313473e+00	 1.169153696818504e+00	 1.313854789004937e+01
 1.410888211363103e+00	 1.182930788712668e+00	 1.300980407610071e+01
 1.399312301735360e+00	 1.196601804302433e+00	 1.288649986185720e+01
 1.387599462446208e+00	 1.210164669649030e+00	 1.277304309917340e+01
 1.375751214745914e+00	 1.223617338457123e+00	 1.266825082891624e+01
 1.363769120470370e+00	 1.236957793095312e+00	 1.257087738934896e+01
 1.482108317140966e+00	 1.102261871716258e+00	 1.348093635495674e+01
 1.471349316795513e+00	 1.116582950587744e+00	 1.345094565785396e+01
 1.460444681925113e+00	 1.130808396066509e+00	 1.340628106229983e+01
 1.449395681780555e+00	 1.144936004855177e+00	 1.334327215501999e+01
 1.438203629759542e+00	 1.158963596030667e+00	 1.325841249847136e+01
 1.426869882915113e+00	 1.172889012143803e+00	 1.314839750422196e+01
 1.415395841431355e+00	 1.186710120305999e+00	 1.302115431437772e+01
 1.403782948066783e+00	 1.200424813261866e+00	 1.290234010721519e+01
 1.392032687565844e+00	 1.214031010446631e+00	 1.279214286815774e+01
 1.380146586039031e+00	 1.227526659027274e+00	 1.268938080305216e+01
 1.368126210312129e+00	 1.240909734926287e+00	 1.259280998494806e+01
 1.486828407322944e+00	 1.105772259842743e+00	 1.349435897317096e+01
 1.476035142645180e+00	 1.120138947245667e+00	 1.346629694527782e+01
 1.465095779638250e+00	 1.134409696690925e+00	 1.342221015511443e+01
 1.454011591595142e+00	 1.148582297864270e+00	 1.335837890567568e+01
 1.442783896096355e+00	 1.162654562897006e+00	 1.327124826018295e+01
 1.431414054516754e+00	 1.176624327469102e+00	 1.315746893504681e+01
 1.419903471499608e+00	 1.190489451899331e+00	 1.303436215709035e+01
 1.408253594398206e+00	 1.204247822221299e+00	 1.291978128762933e+01
 1.396465912685481e+00	 1.217897351244231e+00	 1.281260679094877e+01
 1.384541957332150e+00	 1.231435979597424e+00	 1.271166541544995e+01
 1.372483300153887e+00	 1.244861676757263e+00	 1.261572260147146e+01
 1.491548497504921e+00	 1.109282647969228e+00	 1.350800362003415e+01
 1.480720968494847e+00	 1.123694943903590e+00	 1.348173271511977e+01
 1.469746877351388e+00	 1.138010997315341e+00	 1.343806030026989e+01
 1.458627501409731e+00	 1.152228590873363e+00	 1.337322211773656e+01
 1.447364162433169e+00	 1.166345529763346e+00	 1.328361965063765e+01
 1.435958226118394e+00	 1.180359642794401e+00	 1.316738232903373e+01
 1.424411101567861e+00	 1.194268783492662e+00	 1.304946245385580e+01
 1.412724240729629e+00	 1.208070831180731e+00	 1.293886521104250e+01
 1.400899137805117e+00	 1.221763692041832e+00	 1.283448563585216e+01
 1.388937328625267e+00	 1.235345300167575e+00	 1.273516632772629e+01
 1.376840389995645e+00	 1.248813618588238e+00	 1.263968965724863e+01
 1.496268587686899e+00	 1.112793036095713e+00	 1.352196719393753e+01
 1.485406794344514e+00	 1.127250940561512e+00	 1.349734642188980e+01
 1.474397975064525e+00	 1.141612297939756e+00	 1.345392398436853e+01
 1.463243411224318e+00	 1.155874883882456e+00	 1.338789571405261e+01
 1.451944428769983e+00	 1.170036496629686e+00	 1.329562435716849e+01
 1.440502397720035e+00	 1.184094958119700e+00	 1.317947876900031e+01
 1.428918731636114e+00	 1.198048115085993e+00	 1.306648609413917e+01
 1.417194887061052e+00	 1.211893840140164e+00	 1.295962966749711e+01
 1.405332362924754e+00	 1.225630032839433e+00	 1.285782606863217e+01
 1.393332699918385e+00	 1.239254620737726e+00	 1.275994098834516e+01
 1.381197479837404e+00	 1.252765560419214e+00	 1.266478122183394e+01
 1.500988677868876e+00	 1.116303424222197e+00	 1.353634563840875e+01
 1.490092620194181e+00	 1.130806937219435e+00	 1.351323066402125e+01
 1.479049072777662e+00	 1.145213598564172e+00	 1.346989291713570e+01
 1.467859321038906e+00	 1.159521176891549e+00	 1.340249290090073e+01
 1.456524695106796e+00	 1.173727463496026e+00	 1.330735939262535e+01
 1.445046569321675e+00	 1.187830273444998e+00	 1.319378041434308e+01
 1.433426361704366e+00	 1.201827446679324e+00	 1.308546006575546e+01
 1.421665533392475e+00	 1.215716849099597e+00	 1.298210848865908e+01
 1.409765588044390e+00	 1.229496373637034e+00	 1.288267071336975e+01
 1.397728071211503e+00	 1.243163941307876e+00	 1.278604269510987e+01
 1.385554569679162e+00	 1.256717502250190e+00	 1.269106308041956e+01
 1.505708768050854e+00	 1.119813812348682e+00	 1.355123385044907e+01
 1.494778446043849e+00	 1.134362933877358e+00	 1.352947709052903e+01
 1.483700170490799e+00	 1.148814899188587e+00	 1.348605793692149e+01
 1.472475230853493e+00	 1.163167469900642e+00	 1.341710607284193e+01
 1.461104961443610e+00	 1.177418430362365e+00	 1.331900648574543e+01
 1.449590740923316e+00	 1.191565588770297e+00	 1.321030561004053e+01
 1.437933991772619e+00	 1.205606778272656e+00	 1.310640751350701e+01
 1.426136179723897e+00	 1.219539858059029e+00	 1.300633160745432e+01
 1.414198813164027e+00	 1.233362714434634e+00	 1.290905821340476e+01
 1.402123442504621e+00	 1.247073261878026e+00	 1.281352065770384e+01
 1.389911659520920e+00	 1.260669444081165e+00	 1.271859679825560e+01
 1.510428858232832e+00	 1.123324200475167e+00	 1.356672558897202e+01
 1.499464271893516e+00	 1.137918930535281e+00	 1.354617630779398e+01
 1.488351268203937e+00	 1.152416199813003e+00	 1.350250891634552e+01
 1.477091140668081e+00	 1.166813762909735e+00	 1.343182671773048e+01
 1.465685227780424e+00	 1.181109397228705e+00	 1.333242965829638e+01
 1.454134912524956e+00	 1.195300904095596e+00	 1.322906894475541e+01
 1.442441621840872e+00	 1.209386109865987e+00	 1.312934779795284e+01
 1.430606826055320e+00	 1.223362867018462e+00	 1.303232511781647e+01
 1.418632038283663e+00	 1.237229055232235e+00	 1.293702329236087e+01
 1.406518813797739e+00	 1.250982582448177e+00	 1.284242006027973e+01
 1.394268749362679e+00	 1.264621385912140e+00	 1.274743978507627e+01
 1.350697850945095e+00	 1.225101967602386e+00	 1.251014896071343e+01
 1.338699623713378e+00	 1.238201450912006e+00	 1.240692804529061e+01
 1.326572044384465e+00	 1.251185888119170e+00	 1.229006975208195e+01
 1.314316776263669e+00	 1.264053371975571e+00	 1.216162168066309e+01
 1.301935519990263e+00	 1.276802027472787e+00	 1.202366791335840e+01
 1.289430012751940e+00	 1.289430012751940e+00	 1.187831652776688e+01
 1.276802027472787e+00	 1.301935519990263e+00	 1.172768689640775e+01
 1.264053371975572e+00	 1.314316776263669e+00	 1.157389685569120e+01
 1.251185888119170e+00	 1.326572044384465e+00	 1.141904982866408e+01
 1.238201450912005e+00	 1.338699623713378e+00	 1.126522198767882e+01
 1.225101967602386e+00	 1.350697850945095e+00	 1.111444954424395e+01
 1.355054940786853e+00	 1.229053909433361e+00	 1.252963245730546e+01
 1.343018009596325e+00	 1.242195649140754e+00	 1.242701051487810e+01
 1.330851309043769e+00	 1.255221971629231e+00	 1.231047193715191e+01
 1.318556507800003e+00	 1.268130963498073e+00	 1.218205881712712e+01
 1.306135311990231e+00	 1.280920743690441e+00	 1.204384980772643e+01
 1.293589464405978e+00	 1.293589464405978e+00	 1.189794740506437e+01
 1.280920743690441e+00	 1.306135311990231e+00	 1.174646501140016e+01
 1.268130963498073e+00	 1.318556507800003e+00	 1.159151386168445e+01
 1.255221971629231e+00	 1.330851309043769e+00	 1.143518989992764e+01
 1.242195649140754e+00	 1.343018009596324e+00	 1.127956069336953e+01
 1.229053909433361e+00	 1.355054940786853e+00	 1.112665247358844e+01
 1.359412030628611e+00	 1.233005851264336e+00	 1.254984598316443e+01
 1.347336395479271e+00	 1.246189847369502e+00	 1.244764759694680e+01
 1.335130573703074e+00	 1.259258055139294e+00	 1.233129222845118e+01
 1.322796239336338e+00	 1.272208555020574e+00	 1.220281149114845e+01
 1.310335103990200e+00	 1.285039459908095e+00	 1.206427338491397e+01
 1.297748916060017e+00	 1.297748916060017e+00	 1.191776935284013e+01
 1.285039459908095e+00	 1.310335103990200e+00	 1.176540111042429e+01
 1.272208555020575e+00	 1.322796239336337e+00	 1.160926733276552e+01
 1.259258055139294e+00	 1.335130573703075e+00	 1.145145028779518e+01
 1.246189847369503e+00	 1.347336395479271e+00	 1.129400250537063e+01
 1.233005851264336e+00	 1.359412030628611e+00	 1.113893357326879e+01
 1.363769120470370e+00	 1.236957793095312e+00	 1.257087738934896e+01
 1.351654781362216e+00	 1.250184045598250e+00	 1.246894020687223e+01
 1.339409838362379e+00	 1.263294138649355e+00	 1.235264252515280e+01
 1.327035970872672e+00	 1.276286146543077e+00	 1.222400055730655e+01
 1.314534895990169e+00	 1.289158176125749e+00	 1.208506648101294e+01
 1.301908367714056e+00	 1.301908367714055e+00	 1.193791527155909e+01
 1.289158176125750e+00	 1.314534895990169e+00	 1.178463130007233e+01
 1.276286146543077e+00	 1.327035970872672e+00	 1.162729478431894e+01
 1.263294138649356e+00	 1.339409838362379e+00	 1.146796818190578e+01
 1.250184045598250e+00	 1.351654781362216e+00	 1.130868261758707e+01
 1.236957793095312e+00	 1.363769120470370e+00	 1.115142443762987e+01
 1.368126210312129e+00	 1.240909734926287e+00	 1.259280998494806e+01
 1.355973167245163e+00	 1.254178243826999e+00	 1.249098457674154e+01
 1.343689103021684e+00	 1.267330222159417e+00	 1.237462992737165e+01
 1.331275702409007e+00	 1.280363738065579e+00	 1.224574198040040e+01
 1.318734687990137e+00	 1.293276892343403e+00	 1.210635197615242e+01
 1.306067819368094e+00	 1.306067819368094e+00	 1.195851306356765e+01
 1.293276892343404e+00	 1.318734687990137e+00	 1.180428667017185e+01
 1.280363738065579e+00	 1.331275702409006e+00	 1.164572871930353e+01
 1.267330222159418e+00	 1.343689103021684e+00	 1.148487578626692e+01
 1.254178243826999e+00	 1.355973167245163e+00	 1.132373128700523e+01
 1.240909734926287e+00	 1.368126210312128e+00	 1.116425179418599e+01
 1.372483300153887e+00	 1.244861676757263e+00	 1.261572260147146e+01
 1.360291553128110e+00	 1.258172442055747e+00	 1.251387232168990e+01
 1.347968367680989e+00	 1.271366305669479e+00	 1.239735680394272e+01
 1.335515433945341e+00	 1.284441329588080e+00	 1.226814690417429e+01
 1.322934479990105e+00	 1.297395608561057e+00	 1.212824786368942e+01
 1.310227271022132e+00	 1.310227271022132e+00	 1.197968570228036e+01
 1.297395608561058e+00	 1.322934479990105e+00	 1.182449336251000e+01
 1.284441329588081e+00	 1.335515433945341e+00	 1.166469669606955e+01
 1.271366305669480e+00	 1.347968367680988e+00	 1.150230038573270e+01
 1.258172442055748e+00	 1.360291553128109e+00	 1.133927389841349e+01
 1.244861676757263e+00	 1.372483300153887e+00	 1.117753756617884e+01
 1.376840389995645e+00	 1.248813618588238e+00	 1.263968965724863e+01
 1.364609939011056e+00	 1.262166640284496e+00	 1.253769050620062e+01
 1.352247632340294e+00	 1.275402389179541e+00	 1.242092086012637e+01
 1.339755165481676e+00	 1.288518921110583e+00	 1.229132171994359e+01
 1.327134271990074e+00	 1.301514324778711e+00	 1.215086731928140e+01
 1.314386722676171e+00	 1.314386722676171e+00	 1.200155130123625e+01
 1.301514324778712e+00	 1.327134271990074e+00	 1.184537263942391e+01
 1.288518921110582e+00	 1.339755165481675e+00	 1.168432139604555e+01
 1.275402389179541e+00	 1.352247632340293e+00	 1.152036441236282e+01
 1.262166640284496e+00	 1.364609939011056e+00	 1.135543102902204e+01
 1.248813618588238e+00	 1.376840389995645e+00	 1.119139893506147e+01
 1.381197479837404e+00	 1.252765560419214e+00	 1.266478122183394e+01
 1.368928324894003e+00	 1.266160838513244e+00	 1.256252171036951e+01
 1.356526896999598e+00	 1.279438472689603e+00	 1.244541520524378e+01
 1.343994897018010e+00	 1.292596512633084e+00	 1.231536813512372e+01
 1.331334063990043e+00	 1.305633040996365e+00	 1.217431876984274e+01
 1.318546174330210e+00	 1.318546174330210e+00	 1.202422318302836e+01
 1.305633040996366e+00	 1.331334063990043e+00	 1.186704095226063e+01
 1.292596512633085e+00	 1.343994897018010e+00	 1.170472069129879e+01
 1.279438472689603e+00	 1.356526896999598e+00	 1.153918551166596e+01
 1.266160838513245e+00	 1.368928324894002e+00	 1.137231851298518e+01
 1.252765560419214e+00	 1.381197479837404e+00	 1.120594840290744e+01
 1.385554569679162e+00	 1.256717502250190e+00	 1.269106308041956e+01
 1.373246710776949e+00	 1.270155036741992e+00	 1.258844409613424e+01
 1.360806161658903e+00	 1.283474556199664e+00	 1.247092842024308e+01
 1.348234628554344e+00	 1.296674104155586e+00	 1.234038324166370e+01
 1.335533855990012e+00	 1.309751757214020e+00	 1.219870596238756e+01
 1.322705625984248e+00	 1.322705625984248e+00	 1.204780994810927e+01
 1.309751757214020e+00	 1.335533855990011e+00	 1.188961000970991e+01
 1.296674104155586e+00	 1.348234628554344e+00	 1.172600771197191e+01
 1.283474556199665e+00	 1.360806161658903e+00	 1.155887660872951e+01
 1.270155036741993e+00	 1.373246710776949e+00	 1.139004750582658e+01
 1.256717502250189e+00	 1.385554569679162e+00	 1.122129385474858e+01
 1.389911659520920e+00	 1.260669444081165e+00	 1.271859679825560e+01
 1.377565096659895e+00	 1.274149234970741e+00	 1.261553147346968e+01
 1.365085426318208e+00	 1.287510639709726e+00	 1.249754462519818e+01
 1.352474360090679e+00	 1.300751695678088e+00	 1.236645958438745e+01
 1.339733647989980e+00	 1.313870473431674e+00	 1.222412803276228e+01
 1.326865077638287e+00	 1.326865077638286e+00	 1.207241554347476e+01
 1.313870473431674e+00	 1.339733647989980e+00	 1.191318684601148e+01
 1.300751695678088e+00	 1.352474360090678e+00	 1.174829091359784e+01
 1.287510639709727e+00	 1.365085426318207e+00	 1.157954597423896e+01
 1.274149234970741e+00	 1.377565096659895e+00	 1.140872454877152e+01
 1.260669444081164e+00	 1.389911659520920e+00	 1.123753862084162e+01
 1.394268749362679e+00	 1.264621385912140e+00	 1.274743978507627e+01
 1.381883482542842e+00	 1.278143433199489e+00	 1.264385336654965e+01
 1.369364690977512e+00	 1.291546723219788e+00	 1.252534354674174e+01
 1.356714091627013e+00	 1.304829287200589e+00	 1.239368522924351e+01
 1.343933439989949e+00	 1.317989189649328e+00	 1.225067957426910e+01
 1.331024529292326e+00	 1.331024529292325e+00	 1.209813933122908e+01
 1.317989189649329e+00	 1.343933439989949e+00	 1.193787388904083e+01
 1.304829287200590e+00	 1.356714091627013e+00	 1.177167414429655e+01
 1.291546723219789e+00	 1.369364690977512e+00	 1.160129729038830e+01
 1.278143433199490e+00	 1.381883482542841e+00	 1.142845163298703e+01
 1.264621385912140e+00	 1.394268749362679e+00	 1.125478153886590e+01
 1.225101967602386e+00	 1.350697850945095e+00	 1.111444954424395e+01
 1.211889376746672e+00	 1.362565100866559e+00	 1.095835965697341e+01
 1.198565647256228e+00	 1.374299787087298e+00	 1.078989304072770e+01
 1.185132777424136e+00	 1.385900362741092e+00	 1.061301303387357e+01
 1.171592793932675e+00	 1.397365321158344e+00	 1.043176229204953e+01
 1.157947750842609e+00	 1.408693196508551e+00	 1.025075424710316e+01
 1.144199728565308e+00	 1.419882564412286e+00	 1.007281110941395e+01
 1.130350832818806e+00	 1.430932042522204e+00	 9.900064425056286e+00
 1.116403193568847e+00	 1.441840291072563e+00	 9.734370600530283e+00
 1.102358963956054e+00	 1.452606013396844e+00	 9.577334150496952e+00
 1.088220319210318e+00	 1.463227956413056e+00	 9.430331839314650e+00
 1.229053909433361e+00	 1.355054940786853e+00	 1.112665247358844e+01
 1.215798697316823e+00	 1.366960472159678e+00	 1.096836618218891e+01
 1.202431988053829e+00	 1.378733012206935e+00	 1.079789855860001e+01
 1.188955786383568e+00	 1.390371009072515e+00	 1.061917353538821e+01
 1.175372125526007e+00	 1.401872951226597e+00	 1.043609937125977e+01
 1.161683066167907e+00	 1.413237368110192e+00	 1.025325251964675e+01
 1.147890695431648e+00	 1.424462830749100e+00	 1.007391600269500e+01
 1.133997125827899e+00	 1.435547952336792e+00	 9.900183628333677e+00
 1.120004494193263e+00	 1.446491388785701e+00	 9.733868126731771e+00
 1.105914960613976e+00	 1.457291839246511e+00	 9.576525047114357e+00
 1.091730707336803e+00	 1.467948046595034e+00	 9.429477563641941e+00
 1.233005851264336e+00	 1.359412030628611e+00	 1.113893357326879e+01
 1.219708017886973e+00	 1.371355843452796e+00	 1.097841345760294e+01
 1.206298328851430e+00	 1.383166237326572e+00	 1.080589613164395e+01
 1.192778795343001e+00	 1.394841655403938e+00	 1.062526833759699e+01
 1.179151457119337e+00	 1.406380581294850e+00	 1.044039346756205e+01
 1.165418381493206e+00	 1.417781539711832e+00	 1.025555404891082e+01
 1.151581662297988e+00	 1.429043097085914e+00	 1.007464041025491e+01
 1.137643418836992e+00	 1.440163862151380e+00	 9.899746715585042e+00
 1.123605794817678e+00	 1.451142486498838e+00	 9.732644341839626e+00
 1.109470957271899e+00	 1.461977665096178e+00	 9.574842252351406e+00
 1.095241095463288e+00	 1.472668136777011e+00	 9.427612474553184e+00
 1.236957793095312e+00	 1.363769120470370e+00	 1.115142443762987e+01
 1.223617338457124e+00	 1.375751214745913e+00	 1.098862950608031e+01
 1.210164669649031e+00	 1.387599462446208e+00	 1.081401181328892e+01
 1.196601804302434e+00	 1.399312301735360e+00	 1.063142310609276e+01
 1.182930788712669e+00	 1.410888211363103e+00	 1.044468971968620e+01
 1.169153696818505e+00	 1.422325711313472e+00	 1.025782134851136e+01
 1.155272629164327e+00	 1.433623363422728e+00	 1.007514693713664e+01
 1.141289711846085e+00	 1.444779771965967e+00	 9.898917969918362e+00
 1.127207095442094e+00	 1.455793584211975e+00	 9.730866731418082e+00
 1.113026953929822e+00	 1.466663490945845e+00	 9.572457914402762e+00
 1.098751483589773e+00	 1.477388226958988e+00	 9.424914777083924e+00
 1.240909734926287e+00	 1.368126210312128e+00	 1.116425179418599e+01
 1.227526659027274e+00	 1.380146586039031e+00	 1.099913755463855e+01
 1.214031010446631e+00	 1.392032687565844e+00	 1.082236691326522e+01
 1.200424813261866e+00	 1.403782948066783e+00	 1.063775879666801e+01
 1.186710120306000e+00	 1.415395841431355e+00	 1.044910478048669e+01
 1.172889012143803e+00	 1.426869882915113e+00	 1.026021362300457e+01
 1.158963596030667e+00	 1.438203629759541e+00	 1.007559497738877e+01
 1.144936004855178e+00	 1.449395681780555e+00	 9.897858551044553e+00
 1.130808396066509e+00	 1.460444681925113e+00	 9.728699734698425e+00
 1.116582950587745e+00	 1.471349316795513e+00	 9.569541201600771e+00
 1.102261871716258e+00	 1.482108317140966e+00	 9.421559752225507e+00
 1.244861676757263e+00	 1.372483300153887e+00	 1.117753756617884e+01
 1.231435979597425e+00	 1.384541957332149e+00	 1.101005609477105e+01
 1.217897351244232e+00	 1.396465912685481e+00	 1.083107805593767e+01
 1.204247822221299e+00	 1.408253594398206e+00	 1.064439171190060e+01
 1.190489451899331e+00	 1.419903471499608e+00	 1.045375615569730e+01
 1.176624327469102e+00	 1.431414054516753e+00	 1.026288657936555e+01
 1.162654562897007e+00	 1.442783896096355e+00	 1.007614064616414e+01
 1.148582297864271e+00	 1.454011591595142e+00	 9.896726429081314e+00
 1.134409696690925e+00	 1.465095779638250e+00	 9.726304680379197e+00
 1.120138947245668e+00	 1.476035142645179e+00	 9.566258240490869e+00
 1.105772259842743e+00	 1.486828407322944e+00	 9.417719697544145e+00
 1.248813618588238e+00	 1.376840389995645e+00	 1.119139893506147e+01
 1.235345300167575e+00	 1.388937328625267e+00	 1.102149894272116e+01
 1.221763692041833e+00	 1.400899137805117e+00	 1.084025723860912e+01
 1.208070831180732e+00	 1.412724240729628e+00	 1.065143355772373e+01
 1.194268783492663e+00	 1.424411101567861e+00	 1.045875676765130e+01
 1.180359642794401e+00	 1.435958226118394e+00	 1.026590988989590e+01
 1.166345529763346e+00	 1.447364162433169e+00	 1.007693671181565e+01
 1.152228590873364e+00	 1.458627501409730e+00	 9.895676318348560e+00
 1.138010997315341e+00	 1.469746877351387e+00	 9.723839722406304e+00
 1.123694943903590e+00	 1.480720968494847e+00	 9.562772053871900e+00
 1.109282647969227e+00	 1.491548497504922e+00	 9.413563867748941e+00
 1.252765560419214e+00	 1.381197479837404e+00	 1.120594840290744e+01
 1.239254620737726e+00	 1.393332699918385e+00	 1.103357529970654e+01
 1.225630032839433e+00	 1.405332362924753e+00	 1.085001188979471e+01
 1.211893840140165e+00	 1.417194887061051e+00	 1.065899149998127e+01
 1.198048115085994e+00	 1.428918731636113e+00	 1.046421501034568e+01
 1.184094958119700e+00	 1.440502397720034e+00	 1.026933561869152e+01
 1.170036496629686e+00	 1.451944428769983e+00	 1.007813252798913e+01
 1.155874883882457e+00	 1.463243411224318e+00	 9.894859611157001e+00
 1.141612297939756e+00	 1.474397975064525e+00	 9.721459775736140e+00
 1.127250940561513e+00	 1.485406794344514e+00	 9.559242498805350e+00
 1.112793036095713e+00	 1.496268587686900e+00	 9.409258415206001e+00
 1.256717502250189e+00	 1.385554569679162e+00	 1.122129385474858e+01
 1.243163941307876e+00	 1.397728071211503e+00	 1.104638981209617e+01
 1.229496373637034e+00	 1.409765588044390e+00	 1.086044492746764e+01
 1.215716849099597e+00	 1.421665533392474e+00	 1.066716822096801e+01
 1.201827446679325e+00	 1.433426361704366e+00	 1.047023480449884e+01
 1.187830273444998e+00	 1.445046569321675e+00	 1.027327037923150e+01
 1.173727463496026e+00	 1.456524695106797e+00	 1.007987396571498e+01
 1.159521176891550e+00	 1.467859321038906e+00	 9.894424311587899e+00
 1.145213598564172e+00	 1.479049072777662e+00	 9.719316452080275e+00
 1.130806937219436e+00	 1.490092620194182e+00	 9.555826204590790e+00
 1.116303424222197e+00	 1.500988677868877e+00	 9.404966330403074e+00
 1.260669444081164e+00	 1.389911659520920e+00	 1.123753862084162e+01
 1.247073261878027e+00	 1.402123442504621e+00	 1.106004263154057e+01
 1.233362714434635e+00	 1.414198813164026e+00	 1.087165481727663e+01
 1.219539858059030e+00	 1.426136179723897e+00	 1.067606197595609e+01
 1.205606778272656e+00	 1.437933991772619e+00	 1.047691565260405e+01
 1.191565588770297e+00	 1.449590740923315e+00	 1.027781635966702e+01
 1.177418430362366e+00	 1.461104961443611e+00	 1.008229845209879e+01
 1.163167469900642e+00	 1.472475230853493e+00	 9.894514969265860e+00
 1.148814899188587e+00	 1.483700170490799e+00	 9.717557995633372e+00
 1.134362933877358e+00	 1.494778446043848e+00	 9.552676510710670e+00
 1.119813812348682e+00	 1.505708768050854e+00	 9.400847382363491e+00
 1.264621385912140e+00	 1.394268749362679e+00	 1.125478153886590e+01
 1.250982582448178e+00	 1.406518813797739e+00	 1.107462947505589e+01
 1.237229055232235e+00	 1.418632038283662e+00	 1.088373563073595e+01
 1.223362867018463e+00	 1.430606826055321e+00	 1.068576664970674e+01
 1.209386109865987e+00	 1.442441621840871e+00	 1.048435269397658e+01
 1.195300904095596e+00	 1.454134912524956e+00	 1.028307137661488e+01
 1.181109397228706e+00	 1.465685227780425e+00	 1.008543235952543e+01
 1.166813762909735e+00	 1.477091140668081e+00	 9.895272613123748e+00
 1.152416199813003e+00	 1.488351268203937e+00	 9.716329218783716e+00
 1.137918930535281e+00	 1.499464271893516e+00	 9.549943404744338e+00
 1.123324200475167e+00	 1.510428858232832e+00	 9.397058059011449e+00
 1.088220319210318e+00	 1.463227956413056e+00	 9.430331839314650e+00
 1.073989455553549e+00	 1.473704911076409e+00	 9.293433429995673e+00
 1.059668589091911e+00	 1.484035712799019e+00	 9.165251210932674e+00
 1.045259954698710e+00	 1.494219241836413e+00	 9.044675301953543e+00
 1.030765804889068e+00	 1.504254423640605e+00	 8.930426313434937e+00
 1.016188408687550e+00	 1.514140229179583e+00	 8.821084245649621e+00
 1.001530050489903e+00	 1.523875675223090e+00	 8.715117229947600e+00
 9.867930289200499e-01	 1.533459824594609e+00	 8.610909934857656e+00
 9.719796556835244e-01	 1.542891786389529e+00	 8.506791465876871e+00
 9.570922544184639e-01	 1.552170716159507e+00	 8.401062594360782e+00
 9.421331595453333e-01	 1.561295816063074e+00	 8.292022158463618e+00
 1.091730707336803e+00	 1.467948046595034e+00	 9.429477563641941e+00
 1.077453937668238e+00	 1.478458797886333e+00	 9.292528646390707e+00
 1.063086874863175e+00	 1.488822924775790e+00	 9.164103482744723e+00
 1.048631761004189e+00	 1.499039303906853e+00	 9.043155670014730e+00
 1.034090855872581e+00	 1.509106857265252e+00	 8.928470487336824e+00
 1.019466435812348e+00	 1.519024552499517e+00	 8.818694287331454e+00
 1.004760792588257e+00	 1.528791403207680e+00	 8.712363718168472e+00
 9.899762322391468e-01	 1.538406469190076e+00	 8.607934595730752e+00
 9.751150739276649e-01	 1.547868856668205e+00	 8.503810251376240e+00
 9.601796487875556e-01	 1.557177718469699e+00	 8.398369187594618e+00
 9.451722987696730e-01	 1.566332254179407e+00	 8.289991881556544e+00
 1.095241095463288e+00	 1.472668136777011e+00	 9.427612474553184e+00
 1.080918419782927e+00	 1.483212684696257e+00	 9.290507545826053e+00
 1.066505160634439e+00	 1.493610136752561e+00	 9.161775632630766e+00
 1.052003567309669e+00	 1.503859365977294e+00	 9.040426701512475e+00
 1.037415906856093e+00	 1.513959290889898e+00	 8.925303364459946e+00
 1.022744462937147e+00	 1.523908875819451e+00	 8.815110784892333e+00
 1.007991534686612e+00	 1.533707131192271e+00	 8.708446402645020e+00
 9.931594355582436e-01	 1.543353113785543e+00	 8.603829294170405e+00
 9.782504921718053e-01	 1.552845926946881e+00	 8.499728990111759e+00
 9.632670431566479e-01	 1.562184720779891e+00	 8.394593579348975e+00
 9.482114379940130e-01	 1.571368692295740e+00	 8.286876936494679e+00
 1.098751483589773e+00	 1.477388226958988e+00	 9.424914777083924e+00
 1.084382901897616e+00	 1.487966571506181e+00	 9.287554085587253e+00
 1.069923446405703e+00	 1.498397348729332e+00	 9.158455427263270e+00
 1.055375373615149e+00	 1.508679428047733e+00	 9.036678054154148e+00
 1.040740957839607e+00	 1.518811724514545e+00	 8.921114600952736e+00
 1.026022490061946e+00	 1.528793199139385e+00	 8.810521527470524e+00
 1.011222276784966e+00	 1.538622859176862e+00	 8.703549368715088e+00
 9.963426388773403e-01	 1.548299758381008e+00	 8.598772605233087e+00
 9.813859104159456e-01	 1.557822997225557e+00	 8.494718972454585e+00
 9.663544375257396e-01	 1.567191723090083e+00	 8.389898034871692e+00
 9.512505772183527e-01	 1.576405130412072e+00	 8.282828858927298e+00
 1.102261871716258e+00	 1.482108317140966e+00	 9.421559752225507e+00
 1.087847384012304e+00	 1.492720458316105e+00	 9.283849364804599e+00
 1.073341732176968e+00	 1.503184560706103e+00	 9.154327871066721e+00
 1.058747179920629e+00	 1.513499490118174e+00	 9.032096748079034e+00
 1.044066008823120e+00	 1.523664158139193e+00	 8.916091367585581e+00
 1.029300517186744e+00	 1.533677522459319e+00	 8.805111997249670e+00
 1.014453018883321e+00	 1.543538587161452e+00	 8.697854598128666e+00
 9.995258421964374e-01	 1.553246402976475e+00	 8.592941227394395e+00
 9.845213286600859e-01	 1.562800067504232e+00	 8.488949861535669e+00
 9.694418318948311e-01	 1.572198725400274e+00	 8.384443462529907e+00
 9.542897164426922e-01	 1.581441568528404e+00	 8.277998117684440e+00
 1.105772259842743e+00	 1.486828407322944e+00	 9.417719697544145e+00
 1.091311866126993e+00	 1.497474345126029e+00	 9.279571567549565e+00
 1.076760017948232e+00	 1.507971772682875e+00	 9.149575151391282e+00
 1.062118986226108e+00	 1.518319552188613e+00	 9.026867112721160e+00
 1.047391059806633e+00	 1.528516591763840e+00	 8.910418297923055e+00
 1.032578544311543e+00	 1.538561845779253e+00	 8.799065318569525e+00
 1.017683760981675e+00	 1.548454315146043e+00	 8.691541918734201e+00
 1.002709045515535e+00	 1.558193047571941e+00	 8.586509932461755e+00
 9.876567469042263e-01	 1.567777137782908e+00	 8.482589643042306e+00
 9.725292262639229e-01	 1.577205727710467e+00	 8.378389363157423e+00
 9.573288556670319e-01	 1.586478006644737e+00	 8.272534063352307e+00
 1.109282647969227e+00	 1.491548497504922e+00	 9.413563867748941e+00
 1.094776348241682e+00	 1.502228231935952e+00	 9.274895905859433e+00
 1.080178303719496e+00	 1.512758984659646e+00	 9.144376583606505e+00
 1.065490792531588e+00	 1.523139614259054e+00	 9.021170733588960e+00
 1.050716110790146e+00	 1.533369025388487e+00	 8.904277436419196e+00
 1.035856571436341e+00	 1.543446169099187e+00	 8.792562206971676e+00
 1.020914503080030e+00	 1.553370043130634e+00	 8.684788954122077e+00
 1.005892248834631e+00	 1.563139692167407e+00	 8.579651515468667e+00
 9.907921651483668e-01	 1.572754208061584e+00	 8.475804575026963e+00
 9.756166206330151e-01	 1.582212730020659e+00	 8.371893779456023e+00
 9.603679948913724e-01	 1.591514444761070e+00	 8.266584876952846e+00
 1.112793036095713e+00	 1.496268587686900e+00	 9.409258415206001e+00
 1.098240830356371e+00	 1.506982118745876e+00	 9.269994562692574e+00
 1.083596589490760e+00	 1.517546196636417e+00	 9.138908556114721e+00
 1.068862598837068e+00	 1.527959676329494e+00	 9.015186398966136e+00
 1.054041161773659e+00	 1.538221459013134e+00	 8.897848186436651e+00
 1.039134598561140e+00	 1.548330492419121e+00	 8.785780918183244e+00
 1.024145245178384e+00	 1.558285771115224e+00	 8.677771073223546e+00
 1.009075452153728e+00	 1.568086336762874e+00	 8.572536744553226e+00
 9.939275833925073e-01	 1.577731278340260e+00	 8.468759137737830e+00
 9.787040150021066e-01	 1.587219732330850e+00	 8.365113245455044e+00
 9.634071341157115e-01	 1.596550882877402e+00	 8.260297518723402e+00
 1.116303424222197e+00	 1.500988677868877e+00	 9.404966330403074e+00
 1.101705312471060e+00	 1.511736005555800e+00	 9.265036634816079e+00
 1.087014875262025e+00	 1.522333408613188e+00	 9.133344475288879e+00
 1.072234405142548e+00	 1.532779738399933e+00	 9.009090046530744e+00
 1.057366212757173e+00	 1.543073892637781e+00	 8.891307258192567e+00
 1.042412625685939e+00	 1.553214815739056e+00	 8.778897197039150e+00
 1.027375987276738e+00	 1.563201499099815e+00	 8.670661339869866e+00
 1.012258655472825e+00	 1.573032981358341e+00	 8.565334310819203e+00
 9.970630016366476e-01	 1.582708348618936e+00	 8.461615983459826e+00
 9.817914093711988e-01	 1.592226734641043e+00	 8.358202736022022e+00
 9.664462733400514e-01	 1.601587320993734e+00	 8.253817676993901e+00
 1.119813812348682e+00	 1.505708768050854e+00	 9.400847382363491e+00
 1.105169794585749e+00	 1.516489892365724e+00	 9.260188075626711e+00
 1.090433161033289e+00	 1.527120620589959e+00	 9.127854710333107e+00
 1.075606211448027e+00	 1.537599800470373e+00	 9.003054709899123e+00
 1.060691263740685e+00	 1.547926326262428e+00	 8.884828616633712e+00
 1.045690652810737e+00	 1.558099139058990e+00	 8.772084226344765e+00
 1.030606729375093e+00	 1.568117227084405e+00	 8.663630462308564e+00
 1.015441858791922e+00	 1.577979625953807e+00	 8.558210778183980e+00
 1.000198419880788e+00	 1.587685418897612e+00	 8.454535886375895e+00
 9.848788037402905e-01	 1.597233736951235e+00	 8.351315616429705e+00
 9.694854125643912e-01	 1.606623759110067e+00	 8.247289717161145e+00
 1.123324200475167e+00	 1.510428858232832e+00	 9.397058059011449e+00
 1.108634276700437e+00	 1.521243779175648e+00	 9.255611637907290e+00
 1.093851446804553e+00	 1.531907832566729e+00	 9.122606538071391e+00
 1.078978017753507e+00	 1.542419862540814e+00	 8.997250465092998e+00
 1.064016314724199e+00	 1.552778759887076e+00	 8.878583429239027e+00
 1.048968679935536e+00	 1.562983462378924e+00	 8.765512575679301e+00
 1.033837471473448e+00	 1.573032955068996e+00	 8.656846742680855e+00
 1.018625062111019e+00	 1.582926270549274e+00	 8.551330533207576e+00
 1.003333838124929e+00	 1.592662489176288e+00	 8.447677692440253e+00
 9.879661981093821e-01	 1.602240739261426e+00	 8.344603591972309e+00
 9.725245517887311e-01	 1.611660197226400e+00	 8.240856630756529e+00
 9.421331595453333e-01	 1.561295816063074e+00	 8.292022158463618e+00
 9.271047151165075e-01	 1.570266334982596e+00	 8.187004120329689e+00
 9.120092736668389e-01	 1.579081568607721e+00	 8.092846790351548e+00
 8.968491950663365e-01	 1.587740859485514e+00	 8.007170953549435e+00
 8.816268453760522e-01	 1.596243597037496e+00	 7.927683821539873e+00
 8.663445957082698e-01	 1.604589217543857e+00	 7.852199971111673e+00
 8.510048210920643e-01	 1.612777204095159e+00	 7.778660710592616e+00
 8.356098993452937e-01	 1.620807086511865e+00	 7.705151787992712e+00
 8.201622099540516e-01	 1.628678441232100e+00	 7.629919367011690e+00
 8.046641329605958e-01	 1.636390891168032e+00	 7.551384209302467e+00
 7.891180478607515e-01	 1.643944105531381e+00	 7.468154013815015e+00
 9.451722987696730e-01	 1.566332254179407e+00	 8.289991881556544e+00
 9.300953754878508e-01	 1.575331710256733e+00	 8.186042108754389e+00
 9.149512390657643e-01	 1.584175380119358e+00	 8.093281775967508e+00
 8.997422569859054e-01	 1.592862604193532e+00	 8.009257929759340e+00
 8.844708029417815e-01	 1.601392769931166e+00	 7.931605533922781e+00
 8.691392556944255e-01	 1.609765311793999e+00	 7.858068928637133e+00
 8.537499979342968e-01	 1.617979711205143e+00	 7.786521681877670e+00
 8.383054151496335e-01	 1.626035496468355e+00	 7.714984745150294e+00
 8.228078945022904e-01	 1.633932242655429e+00	 7.641642837988213e+00
 8.072598237120816e-01	 1.641669571462123e+00	 7.564858998202048e+00
 7.916635899506250e-01	 1.649247151033095e+00	 7.483187247568686e+00
 9.482114379940130e-01	 1.571368692295740e+00	 8.286876936494679e+00
 9.330860358591947e-01	 1.580397085530870e+00	 8.183948153997740e+00
 9.178932044646895e-01	 1.589269191630996e+00	 8.092484772736249e+00
 9.026353189054738e-01	 1.597984348901549e+00	 8.009977046890352e+00
 8.873147605075110e-01	 1.606541942824835e+00	 7.934005217355692e+00
 8.719339156805812e-01	 1.614941406044141e+00	 7.862261470039219e+00
 8.564951747765293e-01	 1.623182218315128e+00	 7.792570249844800e+00
 8.410009309539731e-01	 1.631263906424846e+00	 7.722906840546129e+00
 8.254535790505290e-01	 1.639186044078758e+00	 7.651414133344845e+00
 8.098555144635673e-01	 1.646948251756213e+00	 7.576417519744858e+00
 7.942091320404981e-01	 1.654550196534808e+00	 7.496437857317572e+00
 9.512505772183527e-01	 1.576405130412072e+00	 8.282828858927298e+00
 9.360766962305381e-01	 1.585462460805008e+00	 8.180864827389073e+00
 9.208351698636148e-01	 1.594363003142634e+00	 8.090594461870721e+00
 9.055283808250429e-01	 1.603106093609567e+00	 8.009467965304166e+00
 8.901587180732402e-01	 1.611691115718504e+00	 7.935028174279504e+00
 8.747285756667369e-01	 1.620117500294282e+00	 7.864932995326718e+00
 8.592403516187617e-01	 1.628384725425112e+00	 7.796976159300937e+00
 8.436964467583130e-01	 1.636492316381336e+00	 7.729106202207431e+00
 8.280992635987682e-01	 1.644439845502088e+00	 7.659443593664173e+00
 8.124512052150530e-01	 1.652226932050303e+00	 7.586295947288929e+00
 7.967546741303717e-01	 1.659853242036523e+00	 7.508171260521291e+00
 9.542897164426922e-01	 1.581441568528404e+00	 8.277998117684440e+00
 9.390673566018816e-01	 1.590527836079145e+00	 8.176933898165165e+00
 9.237771352625399e-01	 1.599456814654272e+00	 8.087748918931057e+00
 9.084214427446117e-01	 1.608227838317585e+00	 8.007869869698427e+00
 8.930026756389694e-01	 1.616840288612174e+00	 7.934819296903791e+00
 8.775232356528928e-01	 1.625293594544424e+00	 7.866238497102921e+00
 8.619855284609940e-01	 1.633587232535096e+00	 7.799908689861802e+00
 8.463919625626527e-01	 1.641720726337825e+00	 7.733770376625015e+00
 8.307449481470069e-01	 1.649693646925417e+00	 7.665940805184224e+00
 8.150468959665390e-01	 1.657505612344395e+00	 7.594729472727783e+00
 7.993002162202452e-01	 1.665156287538237e+00	 7.518651613940387e+00
 9.573288556670319e-01	 1.586478006644737e+00	 8.272534063352307e+00
 9.420580169732252e-01	 1.595593211353283e+00	 8.172296281660509e+00
 9.267191006614651e-01	 1.604550626165909e+00	 8.084085562681652e+00
 9.113145046641807e-01	 1.613349583025603e+00	 8.005321419651978e+00
 8.958466332046987e-01	 1.621989461505843e+00	 7.933523020416357e+00
 8.803178956390482e-01	 1.630469688794565e+00	 7.866332517374028e+00
 8.647307053032267e-01	 1.638789739645081e+00	 7.801536617257719e+00
 8.490874783669919e-01	 1.646949136294315e+00	 7.737086295409910e+00
 8.333906326952456e-01	 1.654947448348746e+00	 7.671114572625157e+00
 8.176425867180246e-01	 1.662784292638484e+00	 7.601952286261105e+00
 8.018457583101184e-01	 1.670459333039951e+00	 7.528141801082475e+00
 9.603679948913724e-01	 1.591514444761070e+00	 8.266584876952846e+00
 9.450486773445688e-01	 1.600658586627421e+00	 8.167091987639026e+00
 9.296610660603905e-01	 1.609644437677547e+00	 8.079741104112443e+00
 9.142075665837496e-01	 1.618471327733620e+00	 8.001960700328226e+00
 8.986905907704277e-01	 1.627138634399512e+00	 7.931283276330001e+00
 8.831125556252039e-01	 1.635645783044706e+00	 7.865369104458869e+00
 8.674758821454590e-01	 1.643992246755065e+00	 7.802028174685470e+00
 8.517829941713320e-01	 1.652177546250805e+00	 7.739240241929629e+00
 8.360363172434849e-01	 1.660201249772076e+00	 7.675172891906449e+00
 8.202382774695104e-01	 1.668062972932575e+00	 7.608197555951770e+00
 8.043913003999918e-01	 1.675762378541666e+00	 7.536903419315854e+00
 9.634071341157115e-01	 1.596550882877402e+00	 8.260297518723402e+00
 9.480393377159122e-01	 1.605723961901557e+00	 8.161460068763546e+00
 9.326030314593159e-01	 1.614738249189185e+00	 8.074851495613848e+00
 9.171006285033184e-01	 1.623593072441638e+00	 7.997925173335013e+00
 9.015345483361569e-01	 1.632287807293181e+00	 7.928243445966173e+00
 8.859072156113597e-01	 1.640821877294848e+00	 7.863501769998468e+00
 8.702210589876918e-01	 1.649194753865050e+00	 7.801551014206169e+00
 8.544785099756714e-01	 1.657405956207295e+00	 7.740417817916940e+00
 8.386820017917236e-01	 1.665455051195405e+00	 7.678322922752304e+00
 8.228339682209961e-01	 1.673341653226665e+00	 7.613697407070768e+00
 8.069368424898654e-01	 1.681065424043380e+00	 7.545196766659669e+00
 9.664462733400514e-01	 1.601587320993734e+00	 8.253817676993901e+00
 9.510299980872559e-01	 1.610789337175695e+00	 8.155538569201395e+00
 9.355449968582410e-01	 1.619832060700823e+00	 8.069551880305379e+00
 9.199936904228874e-01	 1.628714817149656e+00	 7.993351627737262e+00
 9.043785059018861e-01	 1.637436980186851e+00	 7.924546314072768e+00
 8.887018755975153e-01	 1.645997971544989e+00	 7.860883446062836e+00
 8.729662358299242e-01	 1.654397260975034e+00	 7.800272168188633e+00
 8.571740257800111e-01	 1.662634366163785e+00	 7.740803910057050e+00
 8.413276863399621e-01	 1.670708852618734e+00	 7.680770961190090e+00
 8.254296589724820e-01	 1.678620333520756e+00	 7.618682901237316e+00
 8.094823845797386e-01	 1.686368469545094e+00	 7.553280828255863e+00
 9.694854125643912e-01	 1.606623759110067e+00	 8.247289717161145e+00
 9.540206584585995e-01	 1.615854712449832e+00	 8.149464473361597e+00
 9.384869622571663e-01	 1.624925872212461e+00	 8.063976541515053e+00
 9.228867523424561e-01	 1.633836561857674e+00	 7.988376131217532e+00
 9.072224634676153e-01	 1.642586153080520e+00	 7.920334022571828e+00
 8.914965355836711e-01	 1.651174065795131e+00	 7.857666442354060e+00
 8.757114126721565e-01	 1.659599768085018e+00	 7.798358010795283e+00
 8.598695415843507e-01	 1.667862776120275e+00	 7.740582656550226e+00
 8.439733708882012e-01	 1.675962654042063e+00	 7.682722411944084e+00
 8.280253497239678e-01	 1.683899013814846e+00	 7.623384015359436e+00
 8.120279266696121e-01	 1.691671515046808e+00	 7.561413262530645e+00
 9.725245517887311e-01	 1.611660197226400e+00	 8.240856630756529e+00
 9.570113188299432e-01	 1.620920087723970e+00	 8.143373654761980e+00
 9.414289276560919e-01	 1.630019683724099e+00	 8.058258852404082e+00
 9.257798142620247e-01	 1.638958306565693e+00	 7.983133981382721e+00
 9.100664210333443e-01	 1.647735325974189e+00	 7.915748024435143e+00
 8.942911955698269e-01	 1.656350160045272e+00	 7.854002403501038e+00
 8.784565895143890e-01	 1.664802275195003e+00	 7.795974219513146e+00
 8.625650573886908e-01	 1.673091186076765e+00	 7.739937413652905e+00
 8.466190554364401e-01	 1.681216455465393e+00	 7.684381760726131e+00
 8.306210404754538e-01	 1.689177694108937e+00	 7.628029620375231e+00
 8.145734687594854e-01	 1.696974560548522e+00	 7.569850387052385e+00
 7.891180478607515e-01	 1.643944105531381e+00	 7.468154013815010e+00
 7.735263325117476e-01	 1.651337799628489e+00	 7.383212609819612e+00
 7.578913620514297e-01	 1.658571734625538e+00	 7.299599931484342e+00
 7.422155078297737e-01	 1.665645717284419e+00	 7.216317156998315e+00
 7.265011363535803e-01	 1.672559599669887e+00	 7.132585809216710e+00
 7.107506082452129e-01	 1.679313278828580e+00	 7.047850510170653e+00
 6.949662772162102e-01	 1.685906696440576e+00	 6.961779851853393e+00
 6.791504890565730e-01	 1.692339838444145e+00	 6.874265418025090e+00
 6.633055806404905e-01	 1.698612734634389e+00	 6.785419002394471e+00
 6.474338789492495e-01	 1.704725458236506e+00	 6.695568078619555e+00
 6.315377001120205e-01	 1.710678125454392e+00	 6.605249587084170e+00
 7.916635899506250e-01	 1.649247151033095e+00	 7.483187247568686e+00
 7.760215787456565e-01	 1.656664695756322e+00	 7.399606602758496e+00
 7.603361728967569e-01	 1.663921966027555e+00	 7.317212113016837e+00
 7.446097514034179e-01	 1.671018767985336e+00	 7.235049607270835e+00
 7.288446884063338e-01	 1.677954953217209e+00	 7.152392229973110e+00
 7.130433521427780e-01	 1.684730418437704e+00	 7.068743160932006e+00
 6.972081039169079e-01	 1.691345105138772e+00	 6.983836407665985e+00
 6.813412970857877e-01	 1.697798999213319e+00	 6.897635705892252e+00
 6.654452760619116e-01	 1.704092130552564e+00	 6.810331574585407e+00
 6.495223753329566e-01	 1.710224572617913e+00	 6.722336582345795e+00
 6.335749184994786e-01	 1.716196441988116e+00	 6.634278891525711e+00
 7.942091320404981e-01	 1.654550196534808e+00	 7.496437857317579e+00
 7.785168249795653e-01	 1.661991591884157e+00	 7.414467968005758e+00
 7.627809837420839e-01	 1.669272197429572e+00	 7.333630802441647e+00
 7.470039949770626e-01	 1.676391818686254e+00	 7.252968374578509e+00
 7.311882404590871e-01	 1.683350306764531e+00	 7.171756326101345e+00
 7.153360960403431e-01	 1.690147558046829e+00	 7.089506690442281e+00
 6.994499306176052e-01	 1.696783513836966e+00	 7.005968684678583e+00
 6.835321051150026e-01	 1.703258159982494e+00	 6.921127565662600e+00
 6.675849714833324e-01	 1.709571526470740e+00	 6.835201597809123e+00
 6.516108717166635e-01	 1.715723686999321e+00	 6.748637190465210e+00
 6.356121368869367e-01	 1.721714758521840e+00	 6.662102272718838e+00
 7.967546741303717e-01	 1.659853242036523e+00	 7.508171260521291e+00
 7.810120712134740e-01	 1.667318488011990e+00	 7.428087349039664e+00
 7.652257945874112e-01	 1.674622428831591e+00	 7.349160878793150e+00
 7.493982385507070e-01	 1.681764869387171e+00	 7.270382065373307e+00
 7.335317925118406e-01	 1.688745660311853e+00	 7.190980412490722e+00
 7.176288399379083e-01	 1.695564697655953e+00	 7.110427598650571e+00
 7.016917573183028e-01	 1.702221922535162e+00	 7.028438346156583e+00
 6.857229131442174e-01	 1.708717320751668e+00	 6.944969309431954e+00
 6.697246669047535e-01	 1.715050922388915e+00	 6.860216030954934e+00
 6.536993681003711e-01	 1.721222801380730e+00	 6.774608023835759e+00
 6.376493552743949e-01	 1.727233075055564e+00	 6.688802050200822e+00
 7.993002162202452e-01	 1.665156287538237e+00	 7.518651613940387e+00
 7.835073174473831e-01	 1.672645384139824e+00	 7.440753891518059e+00
 7.676706054327382e-01	 1.679972660233609e+00	 7.364105616741406e+00
 7.517924821243512e-01	 1.687137920088088e+00	 7.287597699325429e+00
 7.358753445645941e-01	 1.694141013859175e+00	 7.210365352479704e+00
 7.199215838354734e-01	 1.700981837265077e+00	 7.131791180327649e+00
 7.039335840189999e-01	 1.707660331233357e+00	 7.051506201178262e+00
 6.879137211734320e-01	 1.714176481520843e+00	 6.969388844174246e+00
 6.718643623261744e-01	 1.720530318307091e+00	 6.885561968382458e+00
 6.557878644840783e-01	 1.726721915762138e+00	 6.800387964351808e+00
 6.396865736618531e-01	 1.732751391589288e+00	 6.714462008530757e+00
 8.018457583101184e-01	 1.670459333039951e+00	 7.528141801082475e+00
 7.860025636812918e-01	 1.677972280267658e+00	 7.452755237631269e+00
 7.701154162780653e-01	 1.685322891635626e+00	 7.378766685670122e+00
 7.541867256979957e-01	 1.692510970789006e+00	 7.304920711044154e+00
 7.382188966173475e-01	 1.699536367406498e+00	 7.230210560235406e+00
 7.222143277330386e-01	 1.706398976874202e+00	 7.153881526218457e+00
 7.061754107196976e-01	 1.713098739931553e+00	 7.075432202771074e+00
 6.901045292026466e-01	 1.719635642290018e+00	 6.994613665181182e+00
 6.740040577475954e-01	 1.726009714225266e+00	 6.911426627079692e+00
 6.578763608677858e-01	 1.732221030143545e+00	 6.826116634337165e+00
 6.417237920493112e-01	 1.738269708123011e+00	 6.739167367540384e+00
 8.043913003999918e-01	 1.675762378541666e+00	 7.536903419315854e+00
 7.884978099152010e-01	 1.683299176395492e+00	 7.464377520018383e+00
 7.725602271233928e-01	 1.690673123037644e+00	 7.393444148255401e+00
 7.565809692716401e-01	 1.697884021489924e+00	 7.322654951278051e+00
 7.405624486701009e-01	 1.704931720953820e+00	 7.250814002625217e+00
 7.245070716306040e-01	 1.711816116483327e+00	 7.176981523735424e+00
 7.084172374203950e-01	 1.718537148629748e+00	 7.100475445676879e+00
 6.922953372318614e-01	 1.725094803059192e+00	 7.020870849240402e+00
 6.761437531690163e-01	 1.731489110143441e+00	 6.937997333701805e+00
 6.599648572514929e-01	 1.737720144524954e+00	 6.851934375990609e+00
 6.437610104367696e-01	 1.743788024656736e+00	 6.763004752830517e+00
 8.069368424898654e-01	 1.681065424043380e+00	 7.545196766659666e+00
 7.909930561491095e-01	 1.688626072523326e+00	 7.475905355258327e+00
 7.750050379687199e-01	 1.696023354439662e+00	 7.408436458561529e+00
 7.589752128452846e-01	 1.703257072190841e+00	 7.341102687606046e+00
 7.429060007228545e-01	 1.710327074501142e+00	 7.272472200593327e+00
 7.267998155281692e-01	 1.717233256092451e+00	 7.201372857206071e+00
 7.106590641210925e-01	 1.723975557327944e+00	 7.126894163746242e+00
 6.944861452610763e-01	 1.730553963828367e+00	 7.048387047558418e+00
 6.782834485904373e-01	 1.736968506061617e+00	 6.965461511493855e+00
 6.620533536351999e-01	 1.743219258906362e+00	 6.877982230881411e+00
 6.457982288242275e-01	 1.749306341190459e+00	 6.786062166511694e+00
 8.094823845797386e-01	 1.686368469545094e+00	 7.553280828255867e+00
 7.934883023830185e-01	 1.693952968651160e+00	 7.487621836945458e+00
 7.774498488140470e-01	 1.701373585841680e+00	 7.424040459659173e+00
 7.613694564189289e-01	 1.708630122891759e+00	 7.360564604630992e+00
 7.452495527756081e-01	 1.715722428048464e+00	 7.295480230055588e+00
 7.290925594257345e-01	 1.722650395701575e+00	 7.227336007681068e+00
 7.129008908217898e-01	 1.729413966026139e+00	 7.154945726977765e+00
 6.966769532902910e-01	 1.736013124597541e+00	 7.077388478432755e+00
 6.804231440118581e-01	 1.742447901979792e+00	 6.994006667101687e+00
 6.641418500189075e-01	 1.748718373287770e+00	 6.904401919495014e+00
 6.478354472116855e-01	 1.754824657724183e+00	 6.808428958178675e+00
 8.120279266696121e-01	 1.691671515046808e+00	 7.561413262530645e+00
 7.959835486169272e-01	 1.699279864778994e+00	 7.499808528357736e+00
 7.798946596593742e-01	 1.706723817243698e+00	 7.440551380779023e+00
 7.637636999925735e-01	 1.714003173592676e+00	 7.381339803687893e+00
 7.475931048283616e-01	 1.721117781595787e+00	 7.320131722315875e+00
 7.313853033232998e-01	 1.728067535310699e+00	 7.255150252317101e+00
 7.151427175224874e-01	 1.734852374724334e+00	 7.184886638203652e+00
 6.988677613195057e-01	 1.741472285366716e+00	 7.108100919680529e+00
 6.825628394332792e-01	 1.747927297897968e+00	 7.023820377269152e+00
 6.662303464026145e-01	 1.754217487669178e+00	 6.931335820826732e+00
 6.498726655991437e-01	 1.760342974257907e+00	 6.830195796119314e+00
 8.145734687594854e-01	 1.696974560548522e+00	 7.569850387052382e+00
 7.984787948508364e-01	 1.704606760906827e+00	 7.512745454729245e+00
 7.823394705047015e-01	 1.712074048645716e+00	 7.458262834011528e+00
 7.661579435662179e-01	 1.719376224293594e+00	 7.403725802073694e+00
 7.499366568811155e-01	 1.726513135143109e+00	 7.346718864025178e+00
 7.336780472208647e-01	 1.733484674919824e+00	 7.285093663340084e+00
 7.173845442231849e-01	 1.740290783422530e+00	 7.216972529434294e+00
 7.010585693487206e-01	 1.746931446135891e+00	 7.140749700826272e+00
 6.847025348547001e-01	 1.753406693816143e+00	 7.055090275428890e+00
 6.683188427863219e-01	 1.759716602050586e+00	 6.958926952021664e+00
 6.519098839866019e-01	 1.765861290791631e+00	 6.851800171885137e+00
 6.315377001120205e-01	 1.710678125454392e+00	 6.605249587084170e+00
 6.156193484652039e-01	 1.716470894995372e+00	 6.514553585152714e+00
 5.996811156309559e-01	 1.722103967571803e+00	 6.422717410552785e+00
 5.837252796155152e-01	 1.727577585380386e+00	 6.329078815735365e+00
 5.677541039278803e-01	 1.732892031559954e+00	 6.230211702377973e+00
 5.517698367193856e-01	 1.738047629628600e+00	 6.125532824438885e+00
 5.357747099446607e-01	 1.743044742900953e+00	 6.015750279995112e+00
 5.197709385444454e-01	 1.747883773886456e+00	 5.901525218012786e+00
 5.037607196506803e-01	 1.752565163669518e+00	 5.783464017535584e+00
 4.877462318142684e-01	 1.757089391272372e+00	 5.662111185964704e+00
 4.717296342558625e-01	 1.761456973001545e+00	 5.537942978498290e+00
 6.335749184994786e-01	 1.716196441988116e+00	 6.634278891525718e+00
 6.176052173312209e-01	 1.722007897882454e+00	 6.546108261541358e+00
 6.016155708426689e-01	 1.727659141660745e+00	 6.456722143091858e+00
 5.856082643884682e-01	 1.733150416300967e+00	 6.365383007145130e+00
 5.695855687792608e-01	 1.738482005855309e+00	 6.268704312913087e+00
 5.535497394184805e-01	 1.743654234885467e+00	 6.165398428650970e+00
 5.375030154606112e-01	 1.748667467878053e+00	 6.055949302607244e+00
 5.214476189913629e-01	 1.753522108640929e+00	 5.940790557429462e+00
 5.053857542301987e-01	 1.758218599681355e+00	 5.820297931540291e+00
 4.893196067556047e-01	 1.762757421566799e+00	 5.694782448082908e+00
 4.732513427534620e-01	 1.767139092269291e+00	 5.566427557685522e+00
 6.356121368869367e-01	 1.721714758521840e+00	 6.662102272718838e+00
 6.195910861972374e-01	 1.727544900769535e+00	 6.575350396248659e+00
 6.035500260543817e-01	 1.733214315749686e+00	 6.486959211542842e+00
 5.874912491614218e-01	 1.738723247221549e+00	 6.396112123035948e+00
 5.714170336306411e-01	 1.744071980150663e+00	 6.299673293041172e+00
 5.553296421175751e-01	 1.749260840142334e+00	 6.195642673810861e+00
 5.392313209765617e-01	 1.754290192855152e+00	 6.084344264605145e+00
 5.231242994382808e-01	 1.759160443395401e+00	 5.966048714315336e+00
 5.070107888097170e-01	 1.763872035693192e+00	 5.840965934089572e+00
 4.908929816969411e-01	 1.768425451861227e+00	 5.713707335901613e+00
 4.747730512510617e-01	 1.772821211537039e+00	 5.592523757588072e+00
 6.376493552743949e-01	 1.727233075055564e+00	 6.688802050200819e+00
 6.215769550632542e-01	 1.733081903656618e+00	 6.602309067714328e+00
 6.054844812660943e-01	 1.738769489838627e+00	 6.513415789362709e+00
 5.893742339343749e-01	 1.744296078142132e+00	 6.421234349299967e+00
 5.732484984820213e-01	 1.749661954446018e+00	 6.323051885334970e+00
 5.571095448166699e-01	 1.754867445399199e+00	 6.216186039244356e+00
 5.409596264925122e-01	 1.759912917832252e+00	 6.100852229439213e+00
 5.248009798851982e-01	 1.764798778149874e+00	 5.977224762012419e+00
 5.086358233892353e-01	 1.769525471705029e+00	 5.852776984282001e+00
 4.924663566382774e-01	 1.774093482155654e+00	 5.733860162935753e+00
 4.762947597486613e-01	 1.778503330804786e+00	 5.619602312127642e+00
 6.396865736618531e-01	 1.732751391589288e+00	 6.714462008530757e+00
 6.235628239292711e-01	 1.738618906543699e+00	 6.627015480634365e+00
 6.074189364778072e-01	 1.744324663927568e+00	 6.536081683156345e+00
 5.912572187073281e-01	 1.749868909062713e+00	 6.440758157923999e+00
 5.750799633334013e-01	 1.755251928741372e+00	 6.338776790318721e+00
 5.588894475157649e-01	 1.760474050656066e+00	 6.226952469703242e+00
 5.426879320084629e-01	 1.765535642809352e+00	 6.105604081534477e+00
 5.264776603321157e-01	 1.770437112904346e+00	 5.984465997179462e+00
 5.102608579687535e-01	 1.775178907716866e+00	 5.868308960510893e+00
 4.940397315796136e-01	 1.779761512450080e+00	 5.756336596805800e+00
 4.778164682462607e-01	 1.784185450072532e+00	 5.647565834243242e+00
 6.417237920493112e-01	 1.738269708123011e+00	 6.739167367540388e+00
 6.255486927952877e-01	 1.744155909430781e+00	 6.649502927611076e+00
 6.093533916895199e-01	 1.749879838016509e+00	 6.554949288036003e+00
 5.931402034802817e-01	 1.755441739983294e+00	 6.454650716648272e+00
 5.769114281847817e-01	 1.760841903036727e+00	 6.346788129258757e+00
 5.606693502148594e-01	 1.766080655912933e+00	 6.228434338593559e+00
 5.444162375244134e-01	 1.771158367786452e+00	 6.110593084477916e+00
 5.281543407790333e-01	 1.776075447658819e+00	 5.997204219807105e+00
 5.118858925482720e-01	 1.780832343728703e+00	 5.887623546327211e+00
 4.956131065209501e-01	 1.785429542744508e+00	 5.781005455869306e+00
 4.793381767438602e-01	 1.789867569340279e+00	 5.676317773595180e+00
 6.437610104367696e-01	 1.743788024656736e+00	 6.763004752830517e+00
 6.275345616613045e-01	 1.749692912317863e+00	 6.669806751234022e+00
 6.112878469012325e-01	 1.755435012105451e+00	 6.570013543557939e+00
 5.950231882532345e-01	 1.761014570903877e+00	 6.462876867377485e+00
 5.787428930361620e-01	 1.766431877332082e+00	 6.347898620688937e+00
 5.624492529139543e-01	 1.771687261169799e+00	 6.233404374622519e+00
 5.461445430403638e-01	 1.776781092763551e+00	 6.122663650074074e+00
 5.298310212259508e-01	 1.781713782413291e+00	 6.015260622545004e+00
 5.135109271277902e-01	 1.786485779740541e+00	 5.910562870850152e+00
 4.971864814622864e-01	 1.791097573038934e+00	 5.807736761797761e+00
 4.808598852414598e-01	 1.795549688608025e+00	 5.705762394878153e+00
 6.457982288242275e-01	 1.749306341190459e+00	 6.786062166511694e+00
 6.295204305273212e-01	 1.755229915204944e+00	 6.687964306585215e+00
 6.132223021129454e-01	 1.760990186194392e+00	 6.581271890216032e+00
 5.969061730261883e-01	 1.766587401824459e+00	 6.466410282371469e+00
 5.805743578875421e-01	 1.772021851627436e+00	 6.355024275934669e+00
 5.642291556130492e-01	 1.777293866426666e+00	 6.247032747354558e+00
 5.478728485563144e-01	 1.782403817740651e+00	 6.141625386162567e+00
 5.315077016728685e-01	 1.787352117167764e+00	 6.038458078472186e+00
 5.151359617073086e-01	 1.792139215752378e+00	 5.936970536315685e+00
 4.987598564036228e-01	 1.796765603333361e+00	 5.836401711268296e+00
 4.823815937390594e-01	 1.801231807875773e+00	 5.735804756491129e+00
 6.478354472116855e-01	 1.754824657724183e+00	 6.808428958178675e+00
 6.315062993933382e-01	 1.760766918092026e+00	 6.704014924154271e+00
 6.151567573246580e-01	 1.766545360283333e+00	 6.589658537070739e+00
 5.987891577991415e-01	 1.772160232745041e+00	 6.477948779753792e+00
 5.824058227389224e-01	 1.777611825922792e+00	 6.372341970712421e+00
 5.660090583121438e-01	 1.782900471683532e+00	 6.269125613000843e+00
 5.496011540722647e-01	 1.788026542717751e+00	 6.167289649592700e+00
 5.331843821197860e-01	 1.792990451922235e+00	 6.066621103468015e+00
 5.167609962868269e-01	 1.797792651764215e+00	 5.966691584659482e+00
 5.003332313449590e-01	 1.802433633627788e+00	 5.866872648140050e+00
 4.839033022366589e-01	 1.806913927143520e+00	 5.766350689557991e+00
 6.498726655991437e-01	 1.760342974257907e+00	 6.830195796119311e+00
 6.334921682593549e-01	 1.766303920979109e+00	 6.718683427093709e+00
 6.170912125363710e-01	 1.772100534372275e+00	 6.607423601702739e+00
 6.006721425720946e-01	 1.777733063665622e+00	 6.501196675083628e+00
 5.842372875903025e-01	 1.783201800218146e+00	 6.399662810943594e+00
 5.677889610112388e-01	 1.788507076940399e+00	 6.299490837896788e+00
 5.513294595882153e-01	 1.793649267694851e+00	 6.199469506560413e+00
 5.348610625667037e-01	 1.798628786676708e+00	 6.099575819219032e+00
 5.183860308663452e-01	 1.803446087776052e+00	 5.999572464662172e+00
 5.019066062862955e-01	 1.808101663922215e+00	 5.899023036087864e+00
 4.854250107342585e-01	 1.812596046411266e+00	 5.797306777290335e+00
 6.519098839866019e-01	 1.765861290791631e+00	 6.851800171885134e+00
 6.354780371253717e-01	 1.771840923866190e+00	 6.743541222108595e+00
 6.190256677480839e-01	 1.777655708461216e+00	 6.638233193909441e+00
 6.025551273450480e-01	 1.783305894586205e+00	 6.535976329010527e+00
 5.860687524416829e-01	 1.788791774513500e+00	 6.436799463907025e+00
 5.695688637103334e-01	 1.794113682197265e+00	 6.337937958438471e+00
 5.530577651041658e-01	 1.799271992671951e+00	 6.237979693615707e+00
 5.365377430136212e-01	 1.804267121431180e+00	 6.137149916853326e+00
 5.200110654458635e-01	 1.809099523787889e+00	 6.035460999652408e+00
 5.034799812276319e-01	 1.813769694216643e+00	 5.932727431699554e+00
 4.869467192318582e-01	 1.818278165679014e+00	 5.828580334684206e+00
 4.717296342558625e-01	 1.761456973001545e+00	 5.537942978498290e+00
 4.557130661400040e-01	 1.765668461778771e+00	 5.409218708017543e+00
 4.396986458728888e-01	 1.769724446457267e+00	 5.282074586770579e+00
 4.236884704240271e-01	 1.773625551124217e+00	 5.160386779024316e+00
 4.076846146720031e-01	 1.777372434390349e+00	 5.044430954223089e+00
 3.916891307745249e-01	 1.780965788667494e+00	 4.934361141350836e+00
 3.757040475629128e-01	 1.784406339434990e+00	 4.830219215038075e+00
 3.597313699611438e-01	 1.787694844495787e+00	 4.731943993881954e+00
 3.437730784295398e-01	 1.790832093223151e+00	 4.639379953739246e+00
 3.278311284331510e-01	 1.793818905798794e+00	 4.552285560622471e+00
 3.119074499348589e-01	 1.796656132443287e+00	 4.470341229508751e+00
 4.732513427534620e-01	 1.767139092269291e+00	 5.566427557685522e+00
 4.571831082888427e-01	 1.771364166494186e+00	 5.442041705053914e+00
 4.411170286015111e-01	 1.775433234994226e+00	 5.320817570441353e+00
 4.250552074253948e-01	 1.779346923869778e+00	 5.203369228919216e+00
 4.089997263322354e-01	 1.783105893856124e+00	 5.090180383972131e+00
 3.929526440996040e-01	 1.786710839598680e+00	 4.981614011742300e+00
 3.769159961034382e-01	 1.790162488917038e+00	 4.877921612357843e+00
 3.608917937352120e-01	 1.793461602058676e+00	 4.779252069814440e+00
 3.448820238438285e-01	 1.796608970943225e+00	 4.685660123938138e+00
 3.288886482022901e-01	 1.799605418398145e+00	 4.597114459828602e+00
 3.129136029991649e-01	 1.802451797386652e+00	 4.513505421870340e+00
 4.747730512510617e-01	 1.772821211537039e+00	 5.592523757588072e+00
 4.586531504376816e-01	 1.777059871209602e+00	 5.474678555874161e+00
 4.425354113301331e-01	 1.781142023531185e+00	 5.358366854528946e+00
 4.264219444267627e-01	 1.785068296615341e+00	 5.244384948506647e+00
 4.103148379924676e-01	 1.788839353321900e+00	 5.133399595047952e+00
 3.942161574246831e-01	 1.792455890529865e+00	 5.025957464527712e+00
 3.781279446439638e-01	 1.795918638399086e+00	 4.922494193411659e+00
 3.620522175092803e-01	 1.799228359621565e+00	 4.823343041524280e+00
 3.459909692581175e-01	 1.802385848663300e+00	 4.728743157873383e+00
 3.299461679714293e-01	 1.805391930997495e+00	 4.638847461181197e+00
 3.139197560634709e-01	 1.808247462330017e+00	 4.553730142954139e+00
 4.762947597486613e-01	 1.778503330804786e+00	 5.619602312127642e+00
 4.601231925865201e-01	 1.782755575925017e+00	 5.507066528531237e+00
 4.439537940587556e-01	 1.786850812068145e+00	 5.394689365778468e+00
 4.277886814281304e-01	 1.790789669360903e+00	 5.283424916462710e+00
 4.116299496526999e-01	 1.794572812787675e+00	 5.174098261756521e+00
 3.954796707497623e-01	 1.798200941461051e+00	 5.067414765599339e+00
 3.793398931844895e-01	 1.801674787881135e+00	 4.963968965475307e+00
 3.632126412833483e-01	 1.804995117184455e+00	 4.864253062658074e+00
 3.470999146724063e-01	 1.808162726383374e+00	 4.768665016872394e+00
 3.310036877405685e-01	 1.811178443596847e+00	 4.677516252234804e+00
 3.149259091277769e-01	 1.814043127273383e+00	 4.591038983018040e+00
 4.778164682462607e-01	 1.784185450072532e+00	 5.647565834243242e+00
 4.615932347353588e-01	 1.788451280640432e+00	 5.539143343191835e+00
 4.453721767873776e-01	 1.792559600605103e+00	 5.429752148005356e+00
 4.291554184294983e-01	 1.796511042106465e+00	 5.320479961953302e+00
 4.129450613129321e-01	 1.800306272253450e+00	 5.212285707608642e+00
 3.967431840748414e-01	 1.803945992392237e+00	 5.106008690897225e+00
 3.805518417250149e-01	 1.807430937363183e+00	 5.002377365660110e+00
 3.643730650574166e-01	 1.810761874747345e+00	 4.902017692249705e+00
 3.482088600866950e-01	 1.813939604103449e+00	 4.805461095785812e+00
 3.320612075097077e-01	 1.816964956196197e+00	 4.713152031604240e+00
 3.159320621920829e-01	 1.819838792216748e+00	 4.625455167137538e+00
 4.793381767438602e-01	 1.789867569340279e+00	 5.676317773595180e+00
 4.630632768841976e-01	 1.794146985355848e+00	 5.570847157334518e+00
 4.467905595159999e-01	 1.798268389142062e+00	 5.463522353359283e+00
 4.305221554308662e-01	 1.802232414852027e+00	 5.355540760827423e+00
 4.142601729731642e-01	 1.806039731719225e+00	 5.247970905362433e+00
 3.980066973999205e-01	 1.809691043323422e+00	 5.141761529264314e+00
 3.817637902655404e-01	 1.813187086845231e+00	 5.037750265601537e+00
 3.655334888314848e-01	 1.816528632310234e+00	 4.936671900316409e+00
 3.493178055009839e-01	 1.819716481823524e+00	 4.839166228610551e+00
 3.331187272788469e-01	 1.822751468795549e+00	 4.745785513787068e+00
 3.169382152563889e-01	 1.825634457160114e+00	 4.657001558456921e+00
 4.808598852414598e-01	 1.795549688608025e+00	 5.705762394878153e+00
 4.645333190330364e-01	 1.799842690071263e+00	 5.602116551181227e+00
 4.482089422446222e-01	 1.803977177679021e+00	 5.495967233710264e+00
 4.318888924322340e-01	 1.807953787597589e+00	 5.388597831846642e+00
 4.155752846333966e-01	 1.811773191185000e+00	 5.281162477030875e+00
 3.992702107249995e-01	 1.815436094254607e+00	 5.174695085220061e+00
 3.829757388060659e-01	 1.818943236327279e+00	 5.070117976035636e+00
 3.666939126055531e-01	 1.822295389873124e+00	 4.968250073323385e+00
 3.504267509152727e-01	 1.825493359543598e+00	 4.869814693983350e+00
 3.341762470479861e-01	 1.828537981394899e+00	 4.775446933879886e+00
 3.179443683206949e-01	 1.831430122103479e+00	 4.685700661365127e+00
 4.823815937390594e-01	 1.801231807875773e+00	 5.735804756491129e+00
 4.660033611818751e-01	 1.805538394786679e+00	 5.632890513355167e+00
 4.496273249732445e-01	 1.809685966215980e+00	 5.527054132155445e+00
 4.332556294336019e-01	 1.813675160343151e+00	 5.419641532945620e+00
 4.168903962936288e-01	 1.817506650650776e+00	 5.311868693852666e+00
 4.005337240500787e-01	 1.821181145185793e+00	 5.204830681645984e+00
 3.841876873465914e-01	 1.824699385809328e+00	 5.099510251258312e+00
 3.678543363796213e-01	 1.828062147436014e+00	 4.996786019520909e+00
 3.515356963295616e-01	 1.831270237263673e+00	 4.897440220550657e+00
 3.352337668171252e-01	 1.834324493994250e+00	 4.802166052182152e+00
 3.189505213850009e-01	 1.837225787046844e+00	 4.711574624593151e+00
 4.839033022366589e-01	 1.806913927143520e+00	 5.766350689557991e+00
 4.674734033307136e-01	 1.811234099502093e+00	 5.663108426764565e+00
 4.510457077018666e-01	 1.815394754752939e+00	 5.556750474642147e+00
 4.346223664349697e-01	 1.819396533088713e+00	 5.448662057524667e+00
 4.182055079538610e-01	 1.823240110116551e+00	 5.340097476229641e+00
 4.017972373751578e-01	 1.826926196116978e+00	 5.232189162395011e+00
 3.853996358871170e-01	 1.830455535291377e+00	 5.125956293473266e+00
 3.690147601536895e-01	 1.833828904998903e+00	 5.022312974156816e+00
 3.526446417438504e-01	 1.837047114983748e+00	 4.922075992214448e+00
 3.362912865862646e-01	 1.840111006593601e+00	 4.825972158697803e+00
 3.199566744493069e-01	 1.843021451990210e+00	 4.734645244238051e+00
 4.854250107342585e-01	 1.812596046411266e+00	 5.797306777290335e+00
 4.689434454795524e-01	 1.816929804217509e+00	 5.692710054701672e+00
 4.524640904304887e-01	 1.821103543289897e+00	 5.585023761706574e+00
 4.359891034363375e-01	 1.825117905834275e+00	 5.475649430773306e+00
 4.195206196140934e-01	 1.828973569582326e+00	 5.365856393630803e+00
 4.030607507002370e-01	 1.832671247048164e+00	 5.256790894816553e+00
 3.866115844276425e-01	 1.836211684773424e+00	 5.149484757032781e+00
 3.701751839277574e-01	 1.839595662561792e+00	 5.044863604566329e+00
 3.537535871581393e-01	 1.842823992703822e+00	 4.943754653260971e+00
 3.373488063554037e-01	 1.845897519192952e+00	 4.846894077533766e+00
 3.209628275136128e-01	 1.848817116933575e+00	 4.754933966714731e+00
 4.869467192318582e-01	 1.818278165679014e+00	 5.828580334684206e+00
 4.704134876283912e-01	 1.822625508932925e+00	 5.721635527157480e+00
 4.538824731591111e-01	 1.826812331826857e+00	 5.611841560324314e+00
 4.373558404377053e-01	 1.830839278579837e+00	 5.500593506025660e+00
 4.208357312743257e-01	 1.834707029048102e+00	 5.389152664465135e+00
 4.043242640253161e-01	 1.838416297979349e+00	 5.278655772205756e+00
 3.878235329681681e-01	 1.841967834255473e+00	 5.170123752569039e+00
 3.713356077018260e-01	 1.845362420124683e+00	 5.064470015142929e+00
 3.548625325724281e-01	 1.848600870423898e+00	 4.962508313367585e+00
 3.384063261245429e-01	 1.851684031792303e+00	 4.864960171195582e+00
 3.219689805779190e-01	 1.854612781876941e+00	 4.772461891634440e+00
 3.119074499348589e-01	 1.796656132443287e+00	 4.470341229508751e+00
 2.960039469131940e-01	 1.799344652639607e+00	 4.392144532369371e+00
 2.801224969048223e-01	 1.801885374350639e+00	 4.317066363202555e+00
 2.642649505716478e-01	 1.804279233231458e+00	 4.245839639321453e+00
 2.484331312924289e-01	 1.806527191837193e+00	 4.179130142879302e+00
 2.326288347787884e-01	 1.808630238827273e+00	 4.117541598217397e+00
 2.168538287154743e-01	 1.810589388166840e+00	 4.061620488294008e+00
 2.011098524246955e-01	 1.812405678326089e+00	 4.011860623866346e+00
 1.853986165543381e-01	 1.814080171478281e+00	 3.968707479387440e+00
 1.697218027898398e-01	 1.815613952697187e+00	 3.932562309699559e+00
 1.540810635894821e-01	 1.817008129154646e+00	 3.903786061640533e+00
 3.129136029991649e-01	 1.802451797386652e+00	 4.513505421870340e+00
 2.969587983548493e-01	 1.805148990228767e+00	 4.433598933589975e+00
 2.810261178625796e-01	 1.807697907816286e+00	 4.356816950604454e+00
 2.651174181541371e-01	 1.810099488822527e+00	 4.283925929463022e+00
 2.492345284901465e-01	 1.812354698907635e+00	 4.215625034366738e+00
 2.333792503748490e-01	 1.814464529920264e+00	 4.152551166566532e+00
 2.175533571952016e-01	 1.816429999096412e+00	 4.095283730009021e+00
 2.017585938841300e-01	 1.818252148256174e+00	 4.044349147464825e+00
 1.859966766077392e-01	 1.819932042999180e+00	 4.000225141635098e+00
 1.702692924762586e-01	 1.821470771899435e+00	 3.963344795861934e+00
 1.545780992784805e-01	 1.822869445700307e+00	 3.934100409053997e+00
 3.139197560634709e-01	 1.808247462330017e+00	 4.553730142954139e+00
 2.979136497965049e-01	 1.810953327817927e+00	 4.472297744977970e+00
 2.819297388203372e-01	 1.813510441281934e+00	 4.394009667703459e+00
 2.659698857366262e-01	 1.815919744413597e+00	 4.319661112572618e+00
 2.500359256878640e-01	 1.818182205978077e+00	 4.249980052396900e+00
 2.341296659709096e-01	 1.820298821013255e+00	 4.185632212281797e+00
 2.182528856749289e-01	 1.822270610025982e+00	 4.127225783637482e+00
 2.024073353435645e-01	 1.824098618186257e+00	 4.075315886087658e+00
 1.865947366611402e-01	 1.825783914520077e+00	 4.030408792333318e+00
 1.708167821626775e-01	 1.827327591101684e+00	 3.992965931141919e+00
 1.550751349674788e-01	 1.828730762245967e+00	 3.963407683609205e+00
 3.149259091277769e-01	 1.814043127273383e+00	 4.591038983018040e+00
 2.988685012381603e-01	 1.816757665407086e+00	 4.508255344499332e+00
 2.828333597780947e-01	 1.819322974747581e+00	 4.428651129849859e+00
 2.668223533191154e-01	 1.821740000004666e+00	 4.353045532884626e+00
 2.508373228855814e-01	 1.824009713048520e+00	 4.282190802436252e+00
 2.348800815669702e-01	 1.826133112106247e+00	 4.216777174243967e+00
 2.189524141546563e-01	 1.828111220955552e+00	 4.157437532440651e+00
 2.030560768029991e-01	 1.829945088116342e+00	 4.104751816040876e+00
 1.871927967145414e-01	 1.831635786040975e+00	 4.059251186071528e+00
 1.713642718490963e-01	 1.833184410303933e+00	 4.021421969074985e+00
 1.555721706564771e-01	 1.834592078791627e+00	 3.991709392682941e+00
 3.159320621920829e-01	 1.819838792216748e+00	 4.625455167137538e+00
 2.998233526798159e-01	 1.822562002996246e+00	 4.541485880529510e+00
 2.837369807358522e-01	 1.825135508213228e+00	 4.460747837690219e+00
 2.676748209016045e-01	 1.827560255595735e+00	 4.384079513712083e+00
 2.516387200832989e-01	 1.829837220118963e+00	 4.312252941334030e+00
 2.356304971630308e-01	 1.831967403199237e+00	 4.245978593189241e+00
 2.196519426343836e-01	 1.833951831885122e+00	 4.185909989840703e+00
 2.037048182624336e-01	 1.835791558046426e+00	 4.132648049615807e+00
 1.877908567679424e-01	 1.837487657561872e+00	 4.086745196473403e+00
 1.719117615355151e-01	 1.839041229506182e+00	 4.048709242226757e+00
 1.560692063454754e-01	 1.840453395337287e+00	 4.019007059369568e+00
 3.169382152563889e-01	 1.825634457160114e+00	 4.657001558456921e+00
 3.007782041214712e-01	 1.828366340585406e+00	 4.572003273310573e+00
 2.846406016936097e-01	 1.830948041678875e+00	 4.490306177116061e+00
 2.685272884840937e-01	 1.833380511186804e+00	 4.412763356190869e+00
 2.524401172810165e-01	 1.835664727189405e+00	 4.340162175170089e+00
 2.363809127590914e-01	 1.837801694292228e+00	 4.273229108974449e+00
 2.203514711141110e-01	 1.839792442814693e+00	 4.212634296428467e+00
 2.043535597218680e-01	 1.841638027976509e+00	 4.158995832168266e+00
 1.883889168213435e-01	 1.843339529082770e+00	 4.112883813687076e+00
 1.724592512219339e-01	 1.844898048708431e+00	 4.074824160437760e+00
 1.565662420344738e-01	 1.846314711882947e+00	 4.045302221831490e+00
 3.179443683206949e-01	 1.831430122103479e+00	 4.685700661365127e+00
 3.017330555631267e-01	 1.834170678174567e+00	 4.599821216361478e+00
 2.855442226513671e-01	 1.836760575144522e+00	 4.517332419202063e+00
 2.693797560665830e-01	 1.839200766777873e+00	 4.439097338036730e+00
 2.532415144787340e-01	 1.841492234259848e+00	 4.365914257133638e+00
 2.371313283551520e-01	 1.843635985385220e+00	 4.298521457888732e+00
 2.210509995938383e-01	 1.845633053744264e+00	 4.237601717023214e+00
 2.050023011813025e-01	 1.847484497906594e+00	 4.183786539254641e+00
 1.889869768747446e-01	 1.849191400603668e+00	 4.137660141921473e+00
 1.730067409083528e-01	 1.850754867910680e+00	 4.099763209101391e+00
 1.570632777234721e-01	 1.852176028428607e+00	 4.070596432657703e+00
 3.189505213850009e-01	 1.837225787046844e+00	 4.711574624593151e+00
 3.026879070047821e-01	 1.839975015763726e+00	 4.624953177852083e+00
 2.864478436091245e-01	 1.842573108610170e+00	 4.541832720134270e+00
 2.702322236490721e-01	 1.845021022368943e+00	 4.463081712317003e+00
 2.540429116764514e-01	 1.847319741330291e+00	 4.389504985435265e+00
 2.378817439512127e-01	 1.849470276478211e+00	 4.321848470009366e+00
 2.217505280735656e-01	 1.851473664673834e+00	 4.260803637784003e+00
 2.056510426407371e-01	 1.853330967836679e+00	 4.207011673811558e+00
 1.895850369281457e-01	 1.855043272124565e+00	 4.161067397025842e+00
 1.735542305947717e-01	 1.856611687112929e+00	 4.123522947469938e+00
 1.575603134124705e-01	 1.858037344974267e+00	 4.094891258236297e+00
 3.199566744493069e-01	 1.843021451990210e+00	 4.734645244238051e+00
 3.036427584464376e-01	 1.845779353352886e+00	 4.647412401936356e+00
 2.873514645668821e-01	 1.848385642075817e+00	 4.563813121126834e+00
 2.710846912315613e-01	 1.850841277960012e+00	 4.484716706236666e+00
 2.548443088741690e-01	 1.853147248400733e+00	 4.410930201249518e+00
 2.386321595472732e-01	 1.855304567571202e+00	 4.343203066600384e+00
 2.224500565532929e-01	 1.857314275603404e+00	 4.282231563367338e+00
 2.062997841001714e-01	 1.859177437766762e+00	 4.228662863388811e+00
 1.901830969815468e-01	 1.860895143645463e+00	 4.183098904111133e+00
 1.741017202811905e-01	 1.862468506315178e+00	 4.146100006988823e+00
 1.580573491014688e-01	 1.863898661519928e+00	 4.118188278133964e+00
 3.209628275136128e-01	 1.848817116933575e+00	 4.754933966714731e+00
 3.045976098880931e-01	 1.851583690942046e+00	 4.667211910044613e+00
 2.882550855246395e-01	 1.854198175541464e+00	 4.583279548329541e+00
 2.719371588140505e-01	 1.856661533551081e+00	 4.504002519933811e+00
 2.556457060718865e-01	 1.858974755471176e+00	 4.430185786688866e+00
 2.393825751433338e-01	 1.861138858664193e+00	 4.362578257552184e+00
 2.231495850330203e-01	 1.863154886532974e+00	 4.301877114134906e+00
 2.069485255596060e-01	 1.865023907696847e+00	 4.248731857426690e+00
 1.907811570349479e-01	 1.866747015166361e+00	 4.203748095210403e+00
 1.746492099676093e-01	 1.868325325517427e+00	 4.167491089662759e+00
 1.585543847904671e-01	 1.869759978065587e+00	 4.140489084484798e+00
 3.219689805779190e-01	 1.854612781876941e+00	 4.772461891634440e+00
 3.055524613297486e-01	 1.857388028531206e+00	 4.684364502141559e+00
 2.891587064823972e-01	 1.860010709007111e+00	 4.600237812724220e+00
 2.727896263965396e-01	 1.862481789142150e+00	 4.520939325291135e+00
 2.564471032696041e-01	 1.864802262541619e+00	 4.447267662804712e+00
 2.401329907393945e-01	 1.866973149757185e+00	 4.379967138864086e+00
 2.238491135127477e-01	 1.868995497462545e+00	 4.319732023407205e+00
 2.075972670190405e-01	 1.870870377626931e+00	 4.267210524582238e+00
 1.913792170883490e-01	 1.872598886687259e+00	 4.223008506985170e+00
 1.751966996540282e-01	 1.874182144719676e+00	 4.187692966446118e+00
 1.590514204794655e-01	 1.875621294611248e+00	 4.161795281391099e+00
 1.540810635894821e-01	 1.817008129154646e+00	 3.903786061640533e+00
 1.384780219428373e-01	 1.818263829318983e+00	 3.882370562761390e+00
 1.229142711520773e-01	 1.819382202154920e+00	 3.867323457627733e+00
 1.073913746358528e-01	 1.820364416325686e+00	 3.857493772365538e+00
 9.191086575540966e-02	 1.821211659397948e+00	 3.851724068023140e+00
 7.647424766260620e-02	 1.821925137050195e+00	 3.848854968162193e+00
 6.108299316947388e-02	 1.822506072285190e+00	 3.847729495889580e+00
 4.573854463894838e-02	 1.822955704647056e+00	 3.847197231603238e+00
 3.044231389638401e-02	 1.823275289443579e+00	 3.846118302173600e+00
 1.519568216145080e-02	 1.823466096974272e+00	 3.843367211705586e+00
 0.000000000000000e+00	 1.823529411764706e+00	 3.837836523392222e+00
 1.545780992784805e-01	 1.822869445700307e+00	 3.934100409053997e+00
 1.389247252394271e-01	 1.824129196510335e+00	 3.912490539034682e+00
 1.233107688009550e-01	 1.825251177000582e+00	 3.897484372743669e+00
 1.077377984250007e-01	 1.826236559604156e+00	 3.887893768552730e+00
 9.220735241913675e-02	 1.827086535718586e+00	 3.882523683331856e+00
 7.672093878409846e-02	 1.827802314911647e+00	 3.880176731216813e+00
 6.128003508292380e-02	 1.828385124131272e+00	 3.879657551096145e+00
 4.588608833133209e-02	 1.828836206920111e+00	 3.879776994383723e+00
 3.054051490895298e-02	 1.829156822635332e+00	 3.879356144074895e+00
 1.524470049100386e-02	 1.829348245674188e+00	 3.877230175482511e+00
 0.000000000000000e+00	 1.829411764705882e+00	 3.872252068392958e+00
 1.550751349674788e-01	 1.828730762245967e+00	 3.963407683609205e+00
 1.393714285360169e-01	 1.829994563701686e+00	 3.941733633703258e+00
 1.237072664498326e-01	 1.831120151846243e+00	 3.926878870177916e+00
 1.080842222141486e-01	 1.832108702882626e+00	 3.917629837207897e+00
 9.250383908286391e-02	 1.832961412039225e+00	 3.912765327053155e+00
 7.696762990559078e-02	 1.833679492773099e+00	 3.911061062149463e+00
 6.147707699637373e-02	 1.834264175977354e+00	 3.911294085795062e+00
 4.603363202371578e-02	 1.834716709193166e+00	 3.912246973299286e+00
 3.063871592152197e-02	 1.835038355827087e+00	 3.912711874860471e+00
 1.529371882055693e-02	 1.835230394374105e+00	 3.911494400819058e+00
 0.000000000000000e+00	 1.835294117647059e+00	 3.907417359250795e+00
 1.555721706564771e-01	 1.834592078791627e+00	 3.991709392682941e+00
 1.398181318326067e-01	 1.835859930893038e+00	 3.970106682708009e+00
 1.241037640987103e-01	 1.836989126691904e+00	 3.955517419869244e+00
 1.084306460032965e-01	 1.837980846161096e+00	 3.946714289016575e+00
 9.280032574659101e-02	 1.838836288359863e+00	 3.942461260887717e+00
 7.721432102708302e-02	 1.839556670634552e+00	 3.941518189666172e+00
 6.167411890982363e-02	 1.840143227823434e+00	 3.942645219613843e+00
 4.618117571609950e-02	 1.840597211466221e+00	 3.944607012934381e+00
 3.073691693409095e-02	 1.840919889018840e+00	 3.946176810414344e+00
 1.534273715011000e-02	 1.841112543074023e+00	 3.946140335727459e+00
 0.000000000000000e+00	 1.841176470588235e+00	 3.943299553589647e+00
 1.560692063454754e-01	 1.840453395337287e+00	 4.019007059369568e+00
 1.402648351291965e-01	 1.841725298084389e+00	 3.997616472670262e+00
 1.245002617475880e-01	 1.842858101537564e+00	 3.983410398399069e+00
 1.087770697924444e-01	 1.843852989439566e+00	 3.975159319705313e+00
 9.309681241031818e-02	 1.844711164680501e+00	 3.971623633825833e+00
 7.746101214857531e-02	 1.845433848496004e+00	 3.971558257250715e+00
 6.187116082327354e-02	 1.846022279669516e+00	 3.973717041038251e+00
 4.632871940848320e-02	 1.846477713739276e+00	 3.976857008730134e+00
 3.083511794665993e-02	 1.846801422210594e+00	 3.979742428688888e+00
 1.539175547966306e-02	 1.846994691773939e+00	 3.981148731977177e+00
 0.000000000000000e+00	 1.847058823529412e+00	 3.979866286188972e+00
 1.565662420344738e-01	 1.846314711882947e+00	 4.045302221831490e+00
 1.407115384257863e-01	 1.847590665275741e+00	 4.024269741355807e+00
 1.248967593964656e-01	 1.848727076383226e+00	 4.010568090218157e+00
 1.091234935815923e-01	 1.849725132718035e+00	 4.002977011666069e+00
 9.339329907404527e-02	 1.850586041001140e+00	 4.000264483782404e+00
 7.770770327006760e-02	 1.851311026357456e+00	 4.001191324396911e+00
 6.206820273672347e-02	 1.851901331515597e+00	 4.004515607812975e+00
 4.647626310086690e-02	 1.852358216012331e+00	 4.008996906107806e+00
 3.093331895922891e-02	 1.852682955402347e+00	 4.013400367084579e+00
 1.544077380921613e-02	 1.852876840473856e+00	 4.016500640248025e+00
 0.000000000000000e+00	 1.852941176470588e+00	 4.017085661411195e+00
 1.570632777234721e-01	 1.852176028428607e+00	 4.070596432657703e+00
 1.411582417223761e-01	 1.853456032467093e+00	 4.050073178129081e+00
 1.252932570453433e-01	 1.854596051228886e+00	 4.037000688853245e+00
 1.094699173707403e-01	 1.855597275996506e+00	 4.030179335549867e+00
 9.368978573777241e-02	 1.856460917321779e+00	 4.028395739196610e+00
 7.795439439155986e-02	 1.857188204218908e+00	 4.030427367813655e+00
 6.226524465017339e-02	 1.857780383361678e+00	 4.035046947333881e+00
 4.662380679325061e-02	 1.858238718285386e+00	 4.041026699606192e+00
 3.103151997179789e-02	 1.858564488594100e+00	 4.047142419878835e+00
 1.548979213876920e-02	 1.858758989173773e+00	 4.052177405375072e+00
 0.000000000000000e+00	 1.858823529411764e+00	 4.054926245770271e+00
 1.575603134124705e-01	 1.858037344974267e+00	 4.094891258236297e+00
 1.416049450189658e-01	 1.859321399658445e+00	 4.075033424396420e+00
 1.256897546942209e-01	 1.860465026074548e+00	 4.062718298087772e+00
 1.098163411598882e-01	 1.861469419274976e+00	 4.056778151831892e+00
 9.398627240149954e-02	 1.862335793642417e+00	 4.056029220602602e+00
 7.820108551305215e-02	 1.863065382080360e+00	 4.059276282610033e+00
 6.246228656362329e-02	 1.863659435207760e+00	 4.065317057033008e+00
 4.677135048563431e-02	 1.864119220558442e+00	 4.072946432038650e+00
 3.112972098436687e-02	 1.864446021785854e+00	 4.080960535704210e+00
 1.553881046832226e-02	 1.864641137873690e+00	 4.088160661684576e+00
 0.000000000000000e+00	 1.864705882352941e+00	 4.093357060643255e+00
 1.580573491014688e-01	 1.863898661519928e+00	 4.118188278133964e+00
 1.420516483155557e-01	 1.865186766849796e+00	 4.099157074039772e+00
 1.260862523430986e-01	 1.866334000920209e+00	 4.087730933118696e+00
 1.101627649490361e-01	 1.867341562553446e+00	 4.082785212342349e+00
 9.428275906522668e-02	 1.868210669963056e+00	 4.083176642169319e+00
 7.844777663454440e-02	 1.868942559941813e+00	 4.087747883454810e+00
 6.265932847707321e-02	 1.869538487053841e+00	 4.095331904754062e+00
 4.691889417801802e-02	 1.869999722831496e+00	 4.104756193662796e+00
 3.122792199693586e-02	 1.870327554977607e+00	 4.114846815072884e+00
 1.558782879787533e-02	 1.870523286573607e+00	 4.124432328416373e+00
 0.000000000000000e+00	 1.870588235294117e+00	 4.132347575118161e+00
 1.585543847904671e-01	 1.869759978065587e+00	 4.140489084484798e+00
 1.424983516121455e-01	 1.871052134041147e+00	 4.122450673840189e+00
 1.264827499919763e-01	 1.872202975765870e+00	 4.112048521693000e+00
 1.105091887381840e-01	 1.873213705831916e+00	 4.108212161769948e+00
 9.457924572895379e-02	 1.874085546283695e+00	 4.109849613211622e+00
 7.869446775603668e-02	 1.874819737803265e+00	 4.115851905716976e+00
 6.285637039052315e-02	 1.875417538899922e+00	 4.125097429124494e+00
 4.706643787040170e-02	 1.875880225104551e+00	 4.136456121367543e+00
 3.132612300950484e-02	 1.876209088169361e+00	 4.148793507948965e+00
 1.563684712742840e-02	 1.876405435273524e+00	 4.160974605233161e+00
 0.000000000000000e+00	 1.876470588235294e+00	 4.171867698976115e+00
 1.590514204794655e-01	 1.875621294611248e+00	 4.161795281391099e+00
 1.429450549087353e-01	 1.876917501232499e+00	 4.144920723893708e+00
 1.268792476408540e-01	 1.878071950611531e+00	 4.135680905218980e+00
 1.108556125273319e-01	 1.879085849110386e+00	 4.133070539137533e+00
 9.487573239268093e-02	 1.879960422604333e+00	 4.136059639671662e+00
 7.894115887752898e-02	 1.880696915664718e+00	 4.143598006580945e+00
 6.305341230397306e-02	 1.881296590746003e+00	 4.154619539916061e+00
 4.721398156278542e-02	 1.881760727377607e+00	 4.168046397874551e+00
 3.142432402207383e-02	 1.882090621361114e+00	 4.182793011366059e+00
 1.568586545698147e-02	 1.882287583973441e+00	 4.197769967814113e+00
 0.000000000000000e+00	 1.882352941176471e+00	 4.211887775805922e+00
 1.882352941176471e+00	 0.000000000000000e+00	 1.270681103130513e+01
 1.882287583973441e+00	 1.568586545698093e-02	 1.270609114343120e+01
 1.882090621361114e+00	 3.142432402207335e-02	 1.270745266599227e+01
 1.881760727377606e+00	 4.721398156278502e-02	 1.271082308994552e+01
 1.881296590746004e+00	 6.305341230397271e-02	 1.271616842646430e+01
 1.880696915664718e+00	 7.894115887752869e-02	 1.272349302687878e+01
 1.879960422604333e+00	 9.487573239268070e-02	 1.273283952334589e+01
 1.879085849110386e+00	 1.108556125273317e-01	 1.274428890032765e+01
 1.878071950611531e+00	 1.268792476408538e-01	 1.275796070749432e+01
 1.876917501232499e+00	 1.429450549087352e-01	 1.277401342523023e+01
 1.875621294611248e+00	 1.590514204794654e-01	 1.279264499450467e+01
 1.888235294117647e+00	 0.000000000000000e+00	 1.267560273322161e+01
 1.888169732673358e+00	 1.573488378653400e-02	 1.267559845817834e+01
 1.887972154552867e+00	 3.152252503464233e-02	 1.267761929531989e+01
 1.887641229650662e+00	 4.736152525516873e-02	 1.268163070405971e+01
 1.887175642592084e+00	 6.325045421742262e-02	 1.268763651569694e+01
 1.886574093526169e+00	 7.918784999902094e-02	 1.269567870591238e+01
 1.885835298924971e+00	 9.517221905640781e-02	 1.270583728662284e+01
 1.884957992388856e+00	 1.112020363164797e-01	 1.271823032726243e+01
 1.883940925457192e+00	 1.272757452897315e-01	 1.273301411610895e+01
 1.882782868423850e+00	 1.433917582053250e-01	 1.275038347285175e+01
 1.881482611156908e+00	 1.595484561684638e-01	 1.277057222420005e+01
 1.894117647058823e+00	 0.000000000000000e+00	 1.264383662108511e+01
 1.894051881373275e+00	 1.578390211608706e-02	 1.264472020258872e+01
 1.893853687744621e+00	 3.162072604721130e-02	 1.264753427307645e+01
 1.893521731923716e+00	 4.750906894755243e-02	 1.265228976632979e+01
 1.893054694438167e+00	 6.344749613087255e-02	 1.265903540382076e+01
 1.892451271387623e+00	 7.943454112051326e-02	 1.266785740093142e+01
 1.891710175245610e+00	 9.546870572013494e-02	 1.267887929116941e+01
 1.890830135667325e+00	 1.115484601056275e-01	 1.269226187845988e+01
 1.889809900302853e+00	 1.276722429386092e-01	 1.270820332816114e+01
 1.888648235615203e+00	 1.438384615019148e-01	 1.272693940804516e+01
 1.887343927702568e+00	 1.600454918574621e-01	 1.274874389110573e+01
 1.900000000000000e+00	 0.000000000000000e+00	 1.261124060724124e+01
 1.899934030073192e+00	 1.583292044564013e-02	 1.261324368983337e+01
 1.899735220936375e+00	 3.171892705978029e-02	 1.261703840999795e+01
 1.899402234196771e+00	 4.765661263993613e-02	 1.262268860453236e+01
 1.898933746284247e+00	 6.364453804432242e-02	 1.263029488079656e+01
 1.898328449249074e+00	 7.968123224200549e-02	 1.263999423794144e+01
 1.897585051566248e+00	 9.576519238386208e-02	 1.265195980477614e+01
 1.896702278945796e+00	 1.118948838947755e-01	 1.266640070439269e+01
 1.895678875148514e+00	 1.280687405874869e-01	 1.268356205624813e+01
 1.894513602806554e+00	 1.442851647985046e-01	 1.270372512701783e+01
 1.893205244248228e+00	 1.605425275464605e-01	 1.272720764217346e+01
 1.905882352941177e+00	 0.000000000000000e+00	 1.257754605912100e+01
 1.905816178773109e+00	 1.588193877519319e-02	 1.258095900399659e+01
 1.905616754128129e+00	 3.181712807234926e-02	 1.258597467388436e+01
 1.905282736469826e+00	 4.780415633231983e-02	 1.259271716085297e+01
 1.904812798130328e+00	 6.384157995777234e-02	 1.260134588037950e+01
 1.904205627110527e+00	 7.992792336349777e-02	 1.261205508898719e+01
 1.903459927886887e+00	 9.606167904758919e-02	 1.262507351717022e+01
 1.902574422224266e+00	 1.122413076839234e-01	 1.264066412778465e+01
 1.901547849994175e+00	 1.284652382363646e-01	 1.265912401068548e+01
 1.900378969997905e+00	 1.447318680950944e-01	 1.268078442502090e+01
 1.899066560793889e+00	 1.610395632354588e-01	 1.270601100125600e+01
 1.911764705882353e+00	 0.000000000000000e+00	 1.254248774608566e+01
 1.911698327473026e+00	 1.593095710474626e-02	 1.254765895791325e+01
 1.911498287319881e+00	 3.191532908491825e-02	 1.255418815727599e+01
 1.911163238742881e+00	 4.795170002470352e-02	 1.256226696823362e+01
 1.910691849976410e+00	 6.403862187122228e-02	 1.257212046395540e+01
 1.910082804971979e+00	 8.017461448499008e-02	 1.258400656228335e+01
 1.909334804207525e+00	 9.635816571131629e-02	 1.259821553523254e+01
 1.908446565502736e+00	 1.125877314730713e-01	 1.261506964269432e+01
 1.907416824839836e+00	 1.288617358852422e-01	 1.263492290122542e+01
 1.906244337189256e+00	 1.451785713916842e-01	 1.265816099945939e+01
 1.904927877339548e+00	 1.615365989244570e-01	 1.268520137235648e+01
 1.917647058823529e+00	 0.000000000000000e+00	 1.250580378725001e+01
 1.917580476172943e+00	 1.597997543429932e-02	 1.251313905178154e+01
 1.917379820511635e+00	 3.201353009748722e-02	 1.252152604572360e+01
 1.917043741015936e+00	 4.809924371708723e-02	 1.253123112715288e+01
 1.916570901822491e+00	 6.423566378467217e-02	 1.254255180467069e+01
 1.915959982833431e+00	 8.042130560648235e-02	 1.255581599252018e+01
 1.915209680528164e+00	 9.665465237504345e-02	 1.257138137829332e+01
 1.914318708781205e+00	 1.129341552622192e-01	 1.258963491360180e+01
 1.913285799685497e+00	 1.292582335341198e-01	 1.261099243872563e+01
 1.912109704380608e+00	 1.456252746882740e-01	 1.263589845292261e+01
 1.910789193885208e+00	 1.620336346134554e-01	 1.266482604279028e+01
 1.923529411764706e+00	 0.000000000000000e+00	 1.246723560026273e+01
 1.923462624872860e+00	 1.602899376385239e-02	 1.247719743253503e+01
 1.923261353703388e+00	 3.211173111005620e-02	 1.248783758663913e+01
 1.922924243288991e+00	 4.824678740947094e-02	 1.249950428282970e+01
 1.922449953668572e+00	 6.443270569812208e-02	 1.251257417184897e+01
 1.921837160694883e+00	 8.066799672797460e-02	 1.252745143134035e+01
 1.921084556848803e+00	 9.695113903877058e-02	 1.254456697350336e+01
 1.920190852059675e+00	 1.132805790513671e-01	 1.256437777449863e+01
 1.919154774531158e+00	 1.296547311829975e-01	 1.258736633676907e+01
 1.917975071571960e+00	 1.460719779848638e-01	 1.261404029613601e+01
 1.916650510430869e+00	 1.625306703024537e-01	 1.264493218626019e+01
 1.929411764705882e+00	 0.000000000000000e+00	 1.242652785102403e+01
 1.929344773572777e+00	 1.607801209340546e-02	 1.243963485395778e+01
 1.929142886895142e+00	 3.220993212262518e-02	 1.245297405871580e+01
 1.928804745562047e+00	 4.839433110185466e-02	 1.246698260284154e+01
 1.928329005514653e+00	 6.462974761157202e-02	 1.248212291568831e+01
 1.927714338556336e+00	 8.091468784946687e-02	 1.249888163798272e+01
 1.926959433169442e+00	 9.724762570249768e-02	 1.251776865128070e+01
 1.926062995338145e+00	 1.136270028405150e-01	 1.253931622798045e+01
 1.925023749376819e+00	 1.300512288318752e-01	 1.256407831323683e+01
 1.923840438763311e+00	 1.465186812814536e-01	 1.259262995083652e+01
 1.922511826976529e+00	 1.630277059914521e-01	 1.262556686584787e+01
 1.935294117647059e+00	 0.000000000000000e+00	 1.238342840431996e+01
 1.935226922272694e+00	 1.612703042295852e-02	 1.240025463752609e+01
 1.935024420086896e+00	 3.230813313519414e-02	 1.241678874190440e+01
 1.934685247835101e+00	 4.854187479423833e-02	 1.243356375514855e+01
 1.934208057360734e+00	 6.482678952502192e-02	 1.245113445223279e+01
 1.933591516417787e+00	 8.116137897095915e-02	 1.247007607008992e+01
 1.932834309490080e+00	 9.754411236622483e-02	 1.249098314082983e+01
 1.931935138616615e+00	 1.139734266296629e-01	 1.251446844434296e+01
 1.930892724222480e+00	 1.304477264807529e-01	 1.254116209183427e+01
 1.929705805954663e+00	 1.469653845780434e-01	 1.257171075257295e+01
 1.928373143522189e+00	 1.635247416804504e-01	 1.260677703692250e+01
 1.941176470588235e+00	 0.000000000000000e+00	 1.233768827535457e+01
 1.941109070972612e+00	 1.617604875251159e-02	 1.235886263396277e+01
 1.940905953278649e+00	 3.240633414776313e-02	 1.237913688793450e+01
 1.940565750108156e+00	 4.868941848662203e-02	 1.239914688651453e+01
 1.940087109206816e+00	 6.502383143847183e-02	 1.241954624861366e+01
 1.939468694279240e+00	 8.140807009245145e-02	 1.244100487467638e+01
 1.938709185810718e+00	 9.784059902995194e-02	 1.246420756573258e+01
 1.937807281895085e+00	 1.143198504188108e-01	 1.248985276068051e+01
 1.936761699068141e+00	 1.308442241296305e-01	 1.251865140357152e+01
 1.935571173146015e+00	 1.474120878746332e-01	 1.255132595343280e+01
 1.934234460067850e+00	 1.640217773694487e-01	 1.258860954996905e+01
 1.875621294611248e+00	 1.590514204794654e-01	 1.279264499450467e+01
 1.874182144719676e+00	 1.751966996540276e-01	 1.281173574085662e+01
 1.872598886687259e+00	 1.913792170883485e-01	 1.282911696441354e+01
 1.870870377626931e+00	 2.075972670190402e-01	 1.284494406303303e+01
 1.868995497462545e+00	 2.238491135127473e-01	 1.285937419085835e+01
 1.866973149757185e+00	 2.401329907393943e-01	 1.287256702005522e+01
 1.864802262541618e+00	 2.564471032696038e-01	 1.288468578580262e+01
 1.862481789142150e+00	 2.727896263965396e-01	 1.289589863283712e+01
 1.860010709007111e+00	 2.891587064823971e-01	 1.290638028246632e+01
 1.857388028531206e+00	 3.055524613297487e-01	 1.291631403955452e+01
 1.854612781876941e+00	 3.219689805779190e-01	 1.292589415953670e+01
 1.881482611156908e+00	 1.595484561684638e-01	 1.277057222420005e+01
 1.880038963921925e+00	 1.757441893404464e-01	 1.279127228564543e+01
 1.878450758208156e+00	 1.919772771417496e-01	 1.281010733467635e+01
 1.876716847557015e+00	 2.082460084784746e-01	 1.282723705774428e+01
 1.874836108392115e+00	 2.245486419924747e-01	 1.284281962430071e+01
 1.872807440850176e+00	 2.408834063354549e-01	 1.285701236670862e+01
 1.870629769612061e+00	 2.572485004673215e-01	 1.286997274562020e+01
 1.868302044733219e+00	 2.736420939790288e-01	 1.288185961943031e+01
 1.865823242472758e+00	 2.900623274401546e-01	 1.289283483705880e+01
 1.863192366120367e+00	 3.065073127714042e-01	 1.290306517392990e+01
 1.860408446820306e+00	 3.229751336422249e-01	 1.291272463159826e+01
 1.887343927702568e+00	 1.600454918574621e-01	 1.274874389110573e+01
 1.885895783124174e+00	 1.762916790268653e-01	 1.277111323020775e+01
 1.884302629729054e+00	 1.925753371951507e-01	 1.279145413908383e+01
 1.882563317487099e+00	 2.088947499379092e-01	 1.280993079074091e+01
 1.880676719321686e+00	 2.252481704722020e-01	 1.282670255710422e+01
 1.878641731943167e+00	 2.416338219315154e-01	 1.284192460611918e+01
 1.876457276682504e+00	 2.580498976650389e-01	 1.285574878644531e+01
 1.874122300324289e+00	 2.744945615615179e-01	 1.286832481866157e+01
 1.871635775938406e+00	 2.909659483979121e-01	 1.287980181257485e+01
 1.868996703709527e+00	 3.074621642130596e-01	 1.289033013086530e+01
 1.866204111763673e+00	 3.239812867065309e-01	 1.290006361991326e+01
 1.893205244248228e+00	 1.605425275464605e-01	 1.272720764217346e+01
 1.891752602326423e+00	 1.768391687132841e-01	 1.275130673987817e+01
 1.890154501249952e+00	 1.931733972485518e-01	 1.277320606330587e+01
 1.888409787417184e+00	 2.095434913973437e-01	 1.279307446940414e+01
 1.886517330251257e+00	 2.259476989519293e-01	 1.281107271955448e+01
 1.884476023036159e+00	 2.423842375275761e-01	 1.282735399288003e+01
 1.882284783752946e+00	 2.588512948627564e-01	 1.284206468918138e+01
 1.879942555915358e+00	 2.753470291440073e-01	 1.285534554073271e+01
 1.877448309404053e+00	 2.918695693556695e-01	 1.286733305286526e+01
 1.874801041298687e+00	 3.084170156547151e-01	 1.287816129394162e+01
 1.871999776707037e+00	 3.249874397708369e-01	 1.288796405596035e+01
 1.899066560793889e+00	 1.610395632354588e-01	 1.270601100125600e+01
 1.897609421528673e+00	 1.773866583997030e-01	 1.273190087178585e+01
 1.896006372770849e+00	 1.937714573019529e-01	 1.275541169683749e+01
 1.894256257347267e+00	 2.101922328567782e-01	 1.277671721415922e+01
 1.892357941180827e+00	 2.266472274316566e-01	 1.279597976144919e+01
 1.890310314129150e+00	 2.431346531236367e-01	 1.281335070488274e+01
 1.888112290823388e+00	 2.596526920604739e-01	 1.282897115921482e+01
 1.885762811506427e+00	 2.761994967264964e-01	 1.284297301899853e+01
 1.883260842869700e+00	 2.927731903134270e-01	 1.285548032118713e+01
 1.880605378887847e+00	 3.093718670963705e-01	 1.286661096008921e+01
 1.877795441650403e+00	 3.259935928351430e-01	 1.287647877631609e+01
 1.904927877339548e+00	 1.615365989244570e-01	 1.268520137235648e+01
 1.903466240730922e+00	 1.779341480861218e-01	 1.271294357759842e+01
 1.901858244291747e+00	 1.943695173553539e-01	 1.273811953520662e+01
 1.900102727277352e+00	 2.108409743162126e-01	 1.276090806011658e+01
 1.898198552110397e+00	 2.273467559113839e-01	 1.278147325314155e+01
 1.896144605222140e+00	 2.438850687196972e-01	 1.279996484373328e+01
 1.893939797893831e+00	 2.604540892581915e-01	 1.281651882617187e+01
 1.891583067097496e+00	 2.770519643089855e-01	 1.283125840903513e+01
 1.889073376335347e+00	 2.936768112711845e-01	 1.284429529855329e+01
 1.886409716477007e+00	 3.103267185380261e-01	 1.285573133718829e+01
 1.883591106593768e+00	 3.269997458994487e-01	 1.286566051947647e+01
 1.910789193885208e+00	 1.620336346134554e-01	 1.266482604279028e+01
 1.909323059933170e+00	 1.784816377725406e-01	 1.269448270618138e+01
 1.907710115812644e+00	 1.949675774087550e-01	 1.272137798210073e+01
 1.905949197207435e+00	 2.114897157756471e-01	 1.274569595863499e+01
 1.904039163039967e+00	 2.280462843911113e-01	 1.276760268650972e+01
 1.901978896315132e+00	 2.446354843157579e-01	 1.278724643509646e+01
 1.899767304964273e+00	 2.612554864559088e-01	 1.280475824360856e+01
 1.897403322688566e+00	 2.779044318914748e-01	 1.282025278764414e+01
 1.894885909800994e+00	 2.945804322289420e-01	 1.283382958202076e+01
 1.892214054066166e+00	 3.112815699796814e-01	 1.284557454161212e+01
 1.889386771537133e+00	 3.280058989637548e-01	 1.285556192262549e+01
 1.916650510430869e+00	 1.625306703024537e-01	 1.264493218626019e+01
 1.915179879135419e+00	 1.790291274589594e-01	 1.267656600617468e+01
 1.913561987333542e+00	 1.955656374621561e-01	 1.270523535141372e+01
 1.911795667137520e+00	 2.121384572350816e-01	 1.273112977880850e+01
 1.909879773969538e+00	 2.287458128708386e-01	 1.275441747585289e+01
 1.907813187408123e+00	 2.453858999118184e-01	 1.277524542897090e+01
 1.905594812034716e+00	 2.620568836536264e-01	 1.279373988863365e+01
 1.903223578279635e+00	 2.787568994739639e-01	 1.281000715179365e+01
 1.900698443266642e+00	 2.954840531866994e-01	 1.282413468291977e+01
 1.898018391655327e+00	 3.122364214213369e-01	 1.283619259571363e+01
 1.895182436480499e+00	 3.290120520280608e-01	 1.284623551835003e+01
 1.922511826976529e+00	 1.630277059914521e-01	 1.262556686584787e+01
 1.921036698337668e+00	 1.795766171453783e-01	 1.265924112848786e+01
 1.919413858854440e+00	 1.961636975155572e-01	 1.268973986921532e+01
 1.917642137067604e+00	 2.127871986945161e-01	 1.271725830887859e+01
 1.915720384899109e+00	 2.294453413505660e-01	 1.274196695871613e+01
 1.913647478501114e+00	 2.461363155078791e-01	 1.276401169989582e+01
 1.911422319105158e+00	 2.628582808513439e-01	 1.278351416146691e+01
 1.909043833870704e+00	 2.796093670564531e-01	 1.280057241749785e+01
 1.906510976732289e+00	 2.963876741444569e-01	 1.281526202502421e+01
 1.903822729244487e+00	 3.131912728629924e-01	 1.282763742525762e+01
 1.900978101423864e+00	 3.300182050923668e-01	 1.283773373130386e+01
 1.928373143522189e+00	 1.635247416804504e-01	 1.260677703692250e+01
 1.926893517539917e+00	 1.801241068317971e-01	 1.264255562871660e+01
 1.925265730375338e+00	 1.967617575689583e-01	 1.267493967564372e+01
 1.923488606997688e+00	 2.134359401539506e-01	 1.270413025757368e+01
 1.921560995828679e+00	 2.301448698302933e-01	 1.273030039664529e+01
 1.919481769594105e+00	 2.468867311039397e-01	 1.275359504709106e+01
 1.917249826175601e+00	 2.636596780490615e-01	 1.277413138493382e+01
 1.914864089461773e+00	 2.804618346389423e-01	 1.279199941863597e+01
 1.912323510197936e+00	 2.972912951022145e-01	 1.280726294266517e+01
 1.909627066833647e+00	 3.141461243046478e-01	 1.281996085679856e+01
 1.906773766367229e+00	 3.310243581566727e-01	 1.283010887482079e+01
 1.934234460067850e+00	 1.640217773694487e-01	 1.258860954996905e+01
 1.932750336742166e+00	 1.806715965182160e-01	 1.262655696948093e+01
 1.931117601896235e+00	 1.973598176223593e-01	 1.266088282672441e+01
 1.929335076927773e+00	 2.140846816133852e-01	 1.269179425537665e+01
 1.927401606758250e+00	 2.308443983100207e-01	 1.271946697587354e+01
 1.925316060687096e+00	 2.476371467000003e-01	 1.274404519453184e+01
 1.923077333246044e+00	 2.644610752467790e-01	 1.276564180389810e+01
 1.920684345052843e+00	 2.813143022214315e-01	 1.278433890571247e+01
 1.918136043663583e+00	 2.981949160599719e-01	 1.280018867878847e+01
 1.915431404422807e+00	 3.151009757463032e-01	 1.281321461500605e+01
 1.912569431310595e+00	 3.320305112209788e-01	 1.282341314747837e+01
 1.854612781876941e+00	 3.219689805779190e-01	 1.292589415953670e+01
 1.851684031792303e+00	 3.384063261245424e-01	 1.293397324402888e+01
 1.848600870423898e+00	 3.548625325724276e-01	 1.293948435569076e+01
 1.845362420124683e+00	 3.713356077018255e-01	 1.294278562934284e+01
 1.841967834255474e+00	 3.878235329681678e-01	 1.294428323315987e+01
 1.838416297979349e+00	 4.043242640253158e-01	 1.294443617295020e+01
 1.834707029048102e+00	 4.208357312743256e-01	 1.294376156135311e+01
 1.830839278579837e+00	 4.373558404377053e-01	 1.294284037303610e+01
 1.826812331826857e+00	 4.538824731591110e-01	 1.294232370690024e+01
 1.822625508932925e+00	 4.704134876283914e-01	 1.294293957609454e+01
 1.818278165679014e+00	 4.869467192318579e-01	 1.294550024629781e+01
 1.860408446820306e+00	 3.229751336422249e-01	 1.291272463159826e+01
 1.857470544391654e+00	 3.394638458936816e-01	 1.292075293938755e+01
 1.854377748143973e+00	 3.559714779867165e-01	 1.292617115910042e+01
 1.851129177687573e+00	 3.724960314758936e-01	 1.292931425561028e+01
 1.847723983737521e+00	 3.890354815086932e-01	 1.293056335995574e+01
 1.844161348910534e+00	 4.055877773503948e-01	 1.293035056206770e+01
 1.840440488513878e+00	 4.221508429345577e-01	 1.292916417284602e+01
 1.836560651325399e+00	 4.387225774390732e-01	 1.292755447715994e+01
 1.832521120363817e+00	 4.553008558877333e-01	 1.292613999929740e+01
 1.828321213648340e+00	 4.718835297772299e-01	 1.292561430220566e+01
 1.823960284946761e+00	 4.884684277294577e-01	 1.292675334154804e+01
 1.866204111763673e+00	 3.239812867065309e-01	 1.290006361991326e+01
 1.863257056991005e+00	 3.405213656628208e-01	 1.290803846479075e+01
 1.860154625864047e+00	 3.570804234010052e-01	 1.291337235520559e+01
 1.856895935250462e+00	 3.736564552499619e-01	 1.291637600705143e+01
 1.853480133219570e+00	 3.902474300492186e-01	 1.291740428025994e+01
 1.849906399841720e+00	 4.068512906754739e-01	 1.291686095710527e+01
 1.846173947979653e+00	 4.234659545947902e-01	 1.291520399437923e+01
 1.842282024070961e+00	 4.400893144404409e-01	 1.291295127151443e+01
 1.838229908900775e+00	 4.567192386163555e-01	 1.291068685671041e+01
 1.834016918363756e+00	 4.733535719260687e-01	 1.290906781296195e+01
 1.829642404214508e+00	 4.899901362270571e-01	 1.290883156559127e+01
 1.871999776707037e+00	 3.249874397708369e-01	 1.288796405596035e+01
 1.869043569590356e+00	 3.415788854319598e-01	 1.289588270296370e+01
 1.865931503584122e+00	 3.581893688152941e-01	 1.290113958100280e+01
 1.862662692813351e+00	 3.748168790240299e-01	 1.290402008790078e+01
 1.859236282701618e+00	 3.914593785897443e-01	 1.290485158958293e+01
 1.855651450772906e+00	 4.081148040005532e-01	 1.290400818107202e+01
 1.851907407445428e+00	 4.247810662550223e-01	 1.290191592596112e+01
 1.848003396816523e+00	 4.414560514418086e-01	 1.289905859695648e+01
 1.843938697437734e+00	 4.581376213449777e-01	 1.289598394008827e+01
 1.839712623079171e+00	 4.748236140749075e-01	 1.289331048505789e+01
 1.835324523482254e+00	 4.915118447246568e-01	 1.289173492391722e+01
 1.877795441650403e+00	 3.259935928351430e-01	 1.287647877631609e+01
 1.874830082189707e+00	 3.426364052010991e-01	 1.288433843890430e+01
 1.871708381304197e+00	 3.592983142295830e-01	 1.288952438594091e+01
 1.868429450376241e+00	 3.759773027980983e-01	 1.289229563808647e+01
 1.864992432183666e+00	 3.926713271302698e-01	 1.289295085548661e+01
 1.861396501704092e+00	 4.093783173256322e-01	 1.289183307855461e+01
 1.857640866911203e+00	 4.260961779152545e-01	 1.288933495192113e+01
 1.853724769562085e+00	 4.428227884431766e-01	 1.288590445467092e+01
 1.849647485974693e+00	 4.595560040736000e-01	 1.288205116001991e+01
 1.845408327794586e+00	 4.762936562237461e-01	 1.287835304748450e+01
 1.841006642750002e+00	 4.930335532222562e-01	 1.287546389034556e+01
 1.883591106593768e+00	 3.269997458994487e-01	 1.286566051947647e+01
 1.880616594789058e+00	 3.436939249702384e-01	 1.287345835578179e+01
 1.877485259024271e+00	 3.604072596438718e-01	 1.287857822663821e+01
 1.874196207939131e+00	 3.771377265721665e-01	 1.288125172650907e+01
 1.870748581665715e+00	 3.938832756707955e-01	 1.288174760916946e+01
 1.867141552635277e+00	 4.106418306507114e-01	 1.288037650535593e+01
 1.863374326376979e+00	 4.274112895754869e-01	 1.287749612835194e+01
 1.859446142307647e+00	 4.441895254445445e-01	 1.287351699116882e+01
 1.855356274511652e+00	 4.609743868022220e-01	 1.286890865904481e+01
 1.851104032510002e+00	 4.777636983725848e-01	 1.286420656090942e+01
 1.846688762017748e+00	 4.945552617198558e-01	 1.286001938323814e+01
 1.889386771537133e+00	 3.280058989637548e-01	 1.285556192262549e+01
 1.886403107388409e+00	 3.447514447393776e-01	 1.286329503078754e+01
 1.883262136744346e+00	 3.615162050581607e-01	 1.286835246156132e+01
 1.879962965502020e+00	 3.782981503462347e-01	 1.287093734429584e+01
 1.876504731147763e+00	 3.950952242113208e-01	 1.287128733704595e+01
 1.872886603566463e+00	 4.119053439757905e-01	 1.286967931815149e+01
 1.869107785842754e+00	 4.287264012357191e-01	 1.286643457059658e+01
 1.865167515053209e+00	 4.455562624459123e-01	 1.286192448336202e+01
 1.861065063048611e+00	 4.623927695308443e-01	 1.285657679407414e+01
 1.856799737225417e+00	 4.792337405214235e-01	 1.285088239720788e+01
 1.852370881285496e+00	 4.960769702174554e-01	 1.284540274190524e+01
 1.895182436480499e+00	 3.290120520280608e-01	 1.284623551835003e+01
 1.892189619987760e+00	 3.458089645085168e-01	 1.285390093093839e+01
 1.889039014464420e+00	 3.626251504724495e-01	 1.285889834566680e+01
 1.885729723064910e+00	 3.794585741203029e-01	 1.286140139803206e+01
 1.882260880629811e+00	 3.963071727518463e-01	 1.286161547232086e+01
 1.878631654497647e+00	 4.131688573008695e-01	 1.285978236416231e+01
 1.874841245308529e+00	 4.300415128959515e-01	 1.285618544077861e+01
 1.870888887798771e+00	 4.469229994472801e-01	 1.285115532371108e+01
 1.866773851585569e+00	 4.638111522594665e-01	 1.284507611892020e+01
 1.862495441940832e+00	 4.807037826702623e-01	 1.283839221914026e+01
 1.858053000553243e+00	 4.975986787150549e-01	 1.283161570320128e+01
 1.900978101423864e+00	 3.300182050923668e-01	 1.283773373130386e+01
 1.897976132587111e+00	 3.468664842776559e-01	 1.284532840883429e+01
 1.894815892184495e+00	 3.637340958867383e-01	 1.285026702500619e+01
 1.891496480627800e+00	 3.806189978943710e-01	 1.285269270296936e+01
 1.888017030111860e+00	 3.975191212923719e-01	 1.285277738655864e+01
 1.884376705428834e+00	 4.144323706259487e-01	 1.285072647084538e+01
 1.880574704774304e+00	 4.313566245561836e-01	 1.284678393537516e+01
 1.876610260544333e+00	 4.482897364486478e-01	 1.284123800544602e+01
 1.872482640122528e+00	 4.652295349880888e-01	 1.283442736693231e+01
 1.868191146656248e+00	 4.821738248191010e-01	 1.282674796017372e+01
 1.863735119820989e+00	 4.991203872126544e-01	 1.281866037830590e+01
 1.906773766367229e+00	 3.310243581566727e-01	 1.283010887482079e+01
 1.903762645186462e+00	 3.479240040467951e-01	 1.283762969837055e+01
 1.900592769904570e+00	 3.648430413010271e-01	 1.284250953129511e+01
 1.897263238190689e+00	 3.817794216684393e-01	 1.284485997621150e+01
 1.893773179593909e+00	 3.987310698328975e-01	 1.284481838124756e+01
 1.890121756360018e+00	 4.156958839510277e-01	 1.284255243559946e+01
 1.886308164240080e+00	 4.326717362164159e-01	 1.283826527283124e+01
 1.882331633289895e+00	 4.496564734500157e-01	 1.283220110785745e+01
 1.878191428659487e+00	 4.666479177167109e-01	 1.282465143373649e+01
 1.873886851371663e+00	 4.836438669679398e-01	 1.281596180444465e+01
 1.869417239088736e+00	 5.006420957102540e-01	 1.280653922968693e+01
 1.912569431310595e+00	 3.320305112209788e-01	 1.282341314747837e+01
 1.909549157785812e+00	 3.489815238159343e-01	 1.283085691040567e+01
 1.906369647624645e+00	 3.659519867153160e-01	 1.283567677644756e+01
 1.903029995753580e+00	 3.829398454425075e-01	 1.283795182987851e+01
 1.899529329075957e+00	 3.999430183734229e-01	 1.283778367935887e+01
 1.895866807291204e+00	 4.169593972761070e-01	 1.283530101548767e+01
 1.892041623705855e+00	 4.339868478766483e-01	 1.283066468121500e+01
 1.888053006035457e+00	 4.510232104513834e-01	 1.282407328165737e+01
 1.883900217196446e+00	 4.680663004453333e-01	 1.281576936007684e+01
 1.879582556087079e+00	 4.851139091167785e-01	 1.280604616685886e+01
 1.875099358356483e+00	 5.021638042078536e-01	 1.279525504824066e+01
 1.818278165679014e+00	 4.869467192318579e-01	 1.294550024629781e+01
 1.813769694216643e+00	 5.034799812276313e-01	 1.294594650785521e+01
 1.809099523787889e+00	 5.200110654458630e-01	 1.294047250231002e+01
 1.804267121431181e+00	 5.365377430136208e-01	 1.293046499296274e+01
 1.799271992671952e+00	 5.530577651041656e-01	 1.291748793756773e+01
 1.794113682197265e+00	 5.695688637103333e-01	 1.290329347124084e+01
 1.788791774513501e+00	 5.860687524416827e-01	 1.288983347927004e+01
 1.783305894586205e+00	 6.025551273450478e-01	 1.287819098052406e+01
 1.777655708461216e+00	 6.190256677480837e-01	 1.286810954805763e+01
 1.771840923866190e+00	 6.354780371253719e-01	 1.286051973706312e+01
 1.765861290791631e+00	 6.519098839866018e-01	 1.285638577564604e+01
 1.823960284946761e+00	 4.884684277294577e-01	 1.292675334154804e+01
 1.819437724511070e+00	 5.050533561689676e-01	 1.292569621504205e+01
 1.814752959799727e+00	 5.216361000253815e-01	 1.291884479844152e+01
 1.809905456185653e+00	 5.382144234605384e-01	 1.290755847158439e+01
 1.804894717649051e+00	 5.547860706201161e-01	 1.289336867562568e+01
 1.799720287454132e+00	 5.713487664094280e-01	 1.287798987650272e+01
 1.794381748808855e+00	 5.879002172930631e-01	 1.286333113172490e+01
 1.788878725506787e+00	 6.044381121180011e-01	 1.285041689906924e+01
 1.783210882550157e+00	 6.209601229597966e-01	 1.283943624930743e+01
 1.777377926753272e+00	 6.374639059913885e-01	 1.283131680877517e+01
 1.771379607325354e+00	 6.539471023740598e-01	 1.282699601551837e+01
 1.829642404214508e+00	 4.899901362270571e-01	 1.290883156559127e+01
 1.825105754805497e+00	 5.066267311103039e-01	 1.290629783003914e+01
 1.820406395811563e+00	 5.232611346048996e-01	 1.289805775792335e+01
 1.815543790940126e+00	 5.398911039074556e-01	 1.288544005320513e+01
 1.810517442626151e+00	 5.565143761360667e-01	 1.286994063413142e+01
 1.805326892710998e+00	 5.731286691085230e-01	 1.285323358438204e+01
 1.799971723104210e+00	 5.897316821444435e-01	 1.283717762027178e+01
 1.794451556427368e+00	 6.063210968909544e-01	 1.282284542019844e+01
 1.788766056639099e+00	 6.228945781715090e-01	 1.281077917088060e+01
 1.782914929640354e+00	 6.394497748574052e-01	 1.280188286307997e+01
 1.776897923859078e+00	 6.559843207615178e-01	 1.279706671969876e+01
 1.835324523482254e+00	 4.915118447246568e-01	 1.289173492391722e+01
 1.830773785099924e+00	 5.082001060516403e-01	 1.288774210905104e+01
 1.826059831823401e+00	 5.248861691844180e-01	 1.287809623224769e+01
 1.821182125694598e+00	 5.415677843543734e-01	 1.286409206650235e+01
 1.816140167603252e+00	 5.582426816520170e-01	 1.284718703614187e+01
 1.810933497967864e+00	 5.749085718076177e-01	 1.282901216268451e+01
 1.805561697399565e+00	 5.915631469958237e-01	 1.281136951776721e+01
 1.800024387347950e+00	 6.082040816639078e-01	 1.279549873346457e+01
 1.794321230728040e+00	 6.248290333832220e-01	 1.278217004097495e+01
 1.788451932527436e+00	 6.414356437234223e-01	 1.277226263480757e+01
 1.782416240392802e+00	 6.580215391489760e-01	 1.276665911129460e+01
 1.841006642750002e+00	 4.930335532222562e-01	 1.287546389034556e+01
 1.836441815394351e+00	 5.097734809929767e-01	 1.287002037900785e+01
 1.831713267835238e+00	 5.265112037639363e-01	 1.285894570521071e+01
 1.826820460449071e+00	 5.432444648012910e-01	 1.284349749302305e+01
 1.821762892580350e+00	 5.599709871679674e-01	 1.282509173696973e+01
 1.816540103224731e+00	 5.766884745067125e-01	 1.280531374953968e+01
 1.811151671694919e+00	 5.933946118472037e-01	 1.278592148539974e+01
 1.805597218268532e+00	 6.100870664368611e-01	 1.276839784143740e+01
 1.799876404816982e+00	 6.267634885949348e-01	 1.275363924207977e+01
 1.793988935414517e+00	 6.434215125894387e-01	 1.274249931303926e+01
 1.787934556926527e+00	 6.600587575364344e-01	 1.273583262597037e+01
 1.846688762017748e+00	 4.945552617198558e-01	 1.286001938323814e+01
 1.842109845688778e+00	 5.113468559343129e-01	 1.285312451079113e+01
 1.837366703847075e+00	 5.281362383434547e-01	 1.284059226375561e+01
 1.832458795203543e+00	 5.449211452482084e-01	 1.282363993625497e+01
 1.827385617557450e+00	 5.616992926839183e-01	 1.280363919210026e+01
 1.822146708481597e+00	 5.784683772058071e-01	 1.278212702078817e+01
 1.816741645990274e+00	 5.952260766985840e-01	 1.276084748962771e+01
 1.811170049189114e+00	 6.119700512098144e-01	 1.274156256391628e+01
 1.805431578905922e+00	 6.286979438066472e-01	 1.272521581820780e+01
 1.799525938301599e+00	 6.454073814554556e-01	 1.271263455201131e+01
 1.793452873460250e+00	 6.620959759238925e-01	 1.270464492717645e+01
 1.852370881285496e+00	 4.960769702174554e-01	 1.284540274190524e+01
 1.847777875983204e+00	 5.129202308756492e-01	 1.283704689269323e+01
 1.843020139858912e+00	 5.297612729229729e-01	 1.282302256907751e+01
 1.838097129958015e+00	 5.465978256951260e-01	 1.280450359097651e+01
 1.833008342534550e+00	 5.634275981998687e-01	 1.278281442539260e+01
 1.827753313738464e+00	 5.802482799049020e-01	 1.275944115764706e+01
 1.822331620285628e+00	 5.970575415499643e-01	 1.273616043164804e+01
 1.816742880109696e+00	 6.138530359827673e-01	 1.271501154237243e+01
 1.810986752994864e+00	 6.306323990183602e-01	 1.269692748231591e+01
 1.805062941188681e+00	 6.473932503214724e-01	 1.268270848215344e+01
 1.798971189993974e+00	 6.641331943113506e-01	 1.267315192144661e+01
 1.858053000553243e+00	 4.975986787150549e-01	 1.283161570320128e+01
 1.853445906277632e+00	 5.144936058169857e-01	 1.282178040410529e+01
 1.848673575870750e+00	 5.313863075024913e-01	 1.280622382798492e+01
 1.843735464712488e+00	 5.482745061420436e-01	 1.278607321287989e+01
 1.838631067511650e+00	 5.651559037158193e-01	 1.276260299755937e+01
 1.833359918995330e+00	 5.820281826039967e-01	 1.273724581464723e+01
 1.827921594580984e+00	 5.988890064013448e-01	 1.271187214975311e+01
 1.822315711030278e+00	 6.157360207557209e-01	 1.268876224461684e+01
 1.816541927083805e+00	 6.325668542300731e-01	 1.266880062391006e+01
 1.810599944075763e+00	 6.493791191874890e-01	 1.265275972125881e+01
 1.804489506527697e+00	 6.661704126988083e-01	 1.264140777376294e+01
 1.863735119820989e+00	 4.991203872126544e-01	 1.281866037830590e+01
 1.859113936572059e+00	 5.160669807583219e-01	 1.280731838942876e+01
 1.854327011882586e+00	 5.330113420820094e-01	 1.279018376451190e+01
 1.849373799466960e+00	 5.499511865889611e-01	 1.276833408846118e+01
 1.844253792488750e+00	 5.668842092317696e-01	 1.274299097491878e+01
 1.838966524252197e+00	 5.838080853030914e-01	 1.271553108783743e+01
 1.833511568876338e+00	 6.007204712527247e-01	 1.268799342193651e+01
 1.827888541950859e+00	 6.176190055286740e-01	 1.266283096968853e+01
 1.822097101172746e+00	 6.345013094417856e-01	 1.264086031683063e+01
 1.816136946962845e+00	 6.513649880535060e-01	 1.262282538578332e+01
 1.810007823061421e+00	 6.682076310862667e-01	 1.260946492298662e+01
 1.869417239088736e+00	 5.006420957102540e-01	 1.280653922968693e+01
 1.864781966866486e+00	 5.176403556996585e-01	 1.279365463220605e+01
 1.859980447894424e+00	 5.346363766615280e-01	 1.277489059177617e+01
 1.855012134221433e+00	 5.516278670358790e-01	 1.275127200517227e+01
 1.849876517465850e+00	 5.686125147477201e-01	 1.272396489841300e+01
 1.844573129509063e+00	 5.855879880021863e-01	 1.269428748324863e+01
 1.839101543171693e+00	 6.025519361041050e-01	 1.266453396874285e+01
 1.833461372871441e+00	 6.195019903016271e-01	 1.263723285295869e+01
 1.827652275261688e+00	 6.364357646534985e-01	 1.261313032721445e+01
 1.821673949849927e+00	 6.533508569195228e-01	 1.259294110227065e+01
 1.815526139595145e+00	 6.702448494737246e-01	 1.257737409735323e+01
 1.875099358356483e+00	 5.021638042078536e-01	 1.279525504824066e+01
 1.870449997160913e+00	 5.192137306409949e-01	 1.278078332946520e+01
 1.865633883906261e+00	 5.362614112410463e-01	 1.276033298407729e+01
 1.860650468975905e+00	 5.533045474827964e-01	 1.273487322182839e+01
 1.855499242442950e+00	 5.703408202636707e-01	 1.270551175288779e+01
 1.850179734765930e+00	 5.873678907012810e-01	 1.267350588561392e+01
 1.844691517467048e+00	 6.043834009554854e-01	 1.264150245635608e+01
 1.839034203792023e+00	 6.213849750745807e-01	 1.261198187144579e+01
 1.833207449350629e+00	 6.383702198652114e-01	 1.258563312162960e+01
 1.827210952737008e+00	 6.553367257855395e-01	 1.256314101890119e+01
 1.821044456128869e+00	 6.722820678611829e-01	 1.254518433003112e+01
 1.765861290791631e+00	 6.519098839866018e-01	 1.285638577564604e+01
 1.759716602050586e+00	 6.683188427863217e-01	 1.285483351975489e+01
 1.753406693816143e+00	 6.847025348547000e-01	 1.285557024136251e+01
 1.746931446135890e+00	 7.010585693487204e-01	 1.285901194023043e+01
 1.740290783422529e+00	 7.173845442231847e-01	 1.286542952685972e+01
 1.733484674919824e+00	 7.336780472208647e-01	 1.287499402044572e+01
 1.726513135143108e+00	 7.499366568811147e-01	 1.288777028886870e+01
 1.719376224293593e+00	 7.661579435662180e-01	 1.290371160390922e+01
 1.712074048645715e+00	 7.823394705047014e-01	 1.292265511851160e+01
 1.704606760906827e+00	 7.984787948508359e-01	 1.294431837168214e+01
 1.696974560548522e+00	 8.145734687594859e-01	 1.296829692455652e+01
 1.771379607325354e+00	 6.539471023740598e-01	 1.282699601551837e+01
 1.765215716431994e+00	 6.704073391700288e-01	 1.282458939872235e+01
 1.758886089734318e+00	 6.868422302761208e-01	 1.282316330063565e+01
 1.752390606905065e+00	 7.032493773779351e-01	 1.282479036378228e+01
 1.745729192120726e+00	 7.196263709238823e-01	 1.282974640765478e+01
 1.738901814528948e+00	 7.359707911184298e-01	 1.283820199806970e+01
 1.731908488690431e+00	 7.522802089338680e-01	 1.285022576505337e+01
 1.724749274994511e+00	 7.685521871398622e-01	 1.286577874066728e+01
 1.717424280047733e+00	 7.847842813500286e-01	 1.288470962323627e+01
 1.709933657034661e+00	 8.009740410847448e-01	 1.290675107600963e+01
 1.702277606050236e+00	 8.171190108493593e-01	 1.293151716624440e+01
 1.776897923859078e+00	 6.559843207615178e-01	 1.279706671969876e+01
 1.770714830813402e+00	 6.724958355537360e-01	 1.279441447121741e+01
 1.764365485652494e+00	 6.889819256975416e-01	 1.279173837462823e+01
 1.757849767674240e+00	 7.054401854071497e-01	 1.279114341121218e+01
 1.751167600818921e+00	 7.218681976245797e-01	 1.279426397526065e+01
 1.744318954138073e+00	 7.382635350159948e-01	 1.280127480460814e+01
 1.737303842237753e+00	 7.546237609866215e-01	 1.281225233912085e+01
 1.730122325695429e+00	 7.709464307135070e-01	 1.282716882044136e+01
 1.722774511449751e+00	 7.872290921953558e-01	 1.284588732317274e+01
 1.715260553162495e+00	 8.034692873186539e-01	 1.286815782805571e+01
 1.707580651551950e+00	 8.196645529392325e-01	 1.289361444566111e+01
 1.782416240392802e+00	 6.580215391489760e-01	 1.276665911129460e+01
 1.776213945194811e+00	 6.745843319374435e-01	 1.276345210286568e+01
 1.769844881570669e+00	 6.911216211189625e-01	 1.276045721403095e+01
 1.763308928443415e+00	 7.076309934363645e-01	 1.275820446145241e+01
 1.756606009517116e+00	 7.241100243252770e-01	 1.275911726269361e+01
 1.749736093747198e+00	 7.405562789135607e-01	 1.276434363196502e+01
 1.742699195785076e+00	 7.569673130393753e-01	 1.277397186873259e+01
 1.735495376396346e+00	 7.733406742871508e-01	 1.278798887886283e+01
 1.728124742851769e+00	 7.896739030406831e-01	 1.280627495265245e+01
 1.720587449290329e+00	 8.059645335525626e-01	 1.282859959317017e+01
 1.712883697053664e+00	 8.222100950291059e-01	 1.285461850604642e+01
 1.787934556926527e+00	 6.600587575364344e-01	 1.273583262597037e+01
 1.781713059576218e+00	 6.766728283211508e-01	 1.273177718540092e+01
 1.775324277488845e+00	 6.932613165403836e-01	 1.272819590580989e+01
 1.768768089212589e+00	 7.098218014655795e-01	 1.272552748616167e+01
 1.762044418215311e+00	 7.263518510259743e-01	 1.272444148512975e+01
 1.755153233356322e+00	 7.428490228111252e-01	 1.272753975173807e+01
 1.748094549332398e+00	 7.593108650921286e-01	 1.273550625474786e+01
 1.740868427097263e+00	 7.757349178607955e-01	 1.274834602518687e+01
 1.733474974253787e+00	 7.921187138860101e-01	 1.276595941788043e+01
 1.725914345418163e+00	 8.084597797864714e-01	 1.278813767549975e+01
 1.718186742555379e+00	 8.247556371189793e-01	 1.281455966582831e+01
 1.793452873460250e+00	 6.620959759238925e-01	 1.270464492717645e+01
 1.787212173957626e+00	 6.787613247048576e-01	 1.269946261186646e+01
 1.780803673407020e+00	 6.954010119618045e-01	 1.269503336835266e+01
 1.774227249981764e+00	 7.120126094947942e-01	 1.269177704025531e+01
 1.767482826913507e+00	 7.285936777266719e-01	 1.269011190488050e+01
 1.760570372965446e+00	 7.451417667086906e-01	 1.269099446303248e+01
 1.753489902879719e+00	 7.616544171448821e-01	 1.269697738567781e+01
 1.746241477798181e+00	 7.781291614344401e-01	 1.270834738239316e+01
 1.738825205655805e+00	 7.945635247313373e-01	 1.272502773168686e+01
 1.731241241545996e+00	 8.109550260203803e-01	 1.274683364639349e+01
 1.723489788057092e+00	 8.273011792088525e-01	 1.277346873968502e+01
 1.798971189993974e+00	 6.641331943113506e-01	 1.267315192144661e+01
 1.792711288339035e+00	 6.808498210885652e-01	 1.266657929601392e+01
 1.786283069325195e+00	 6.975407073832254e-01	 1.266105058600198e+01
 1.779686410750939e+00	 7.142034175240087e-01	 1.265697112855630e+01
 1.772921235611702e+00	 7.308355044273692e-01	 1.265474870141189e+01
 1.765987512574571e+00	 7.474345106062559e-01	 1.265478598282163e+01
 1.758885256427042e+00	 7.639979691976355e-01	 1.265850708210462e+01
 1.751614528499098e+00	 7.805234050080843e-01	 1.266810002729888e+01
 1.744175437057823e+00	 7.970083355766644e-01	 1.268356694835745e+01
 1.736568137673830e+00	 8.134502722542892e-01	 1.270474927297254e+01
 1.728792833558807e+00	 8.298467212987263e-01	 1.273137695987588e+01
 1.804489506527697e+00	 6.661704126988083e-01	 1.264140777376294e+01
 1.798210402720443e+00	 6.829383174722726e-01	 1.263319619170725e+01
 1.791762465243371e+00	 6.996804028046463e-01	 1.262632642625824e+01
 1.785145571520113e+00	 7.163942255532235e-01	 1.262119361056597e+01
 1.778359644309897e+00	 7.330773311280668e-01	 1.261819882573789e+01
 1.771404652183695e+00	 7.497272545038212e-01	 1.261774154447492e+01
 1.764280609974364e+00	 7.663415212503891e-01	 1.262021704106677e+01
 1.756987579200016e+00	 7.829176485817289e-01	 1.262771093068450e+01
 1.749525668459841e+00	 7.994531464219917e-01	 1.264166409854129e+01
 1.741895033801664e+00	 8.159455184881981e-01	 1.266194644686074e+01
 1.734095879060521e+00	 8.323922633885997e-01	 1.268831589783476e+01
 1.810007823061421e+00	 6.682076310862667e-01	 1.260946492298662e+01
 1.803709517101851e+00	 6.850268138559796e-01	 1.259938031233274e+01
 1.797241861161546e+00	 7.018200982260671e-01	 1.259093766223795e+01
 1.790604732289288e+00	 7.185850335824382e-01	 1.258452615833067e+01
 1.783798053008093e+00	 7.353191578287641e-01	 1.258054394537749e+01
 1.776821791792820e+00	 7.520199984013860e-01	 1.257939054328779e+01
 1.769675963521686e+00	 7.686850733031425e-01	 1.258145863649739e+01
 1.762360629900933e+00	 7.853118921553730e-01	 1.258728689743153e+01
 1.754875899861859e+00	 8.018979572673187e-01	 1.259940612423432e+01
 1.747221929929498e+00	 8.184407647221069e-01	 1.261848711307258e+01
 1.739398924562235e+00	 8.349378054784730e-01	 1.264431738602089e+01
 1.815526139595145e+00	 6.702448494737246e-01	 1.257737409735322e+01
 1.809208631483258e+00	 6.871153102396866e-01	 1.256519675021452e+01
 1.802721257079722e+00	 7.039597936474882e-01	 1.255495899509562e+01
 1.796063893058463e+00	 7.207758416116531e-01	 1.254704828094675e+01
 1.789236461706288e+00	 7.375609845294616e-01	 1.254186353416082e+01
 1.782238931401944e+00	 7.543127422989513e-01	 1.253980753571137e+01
 1.775071317069009e+00	 7.710286253558961e-01	 1.254127865963834e+01
 1.767733680601851e+00	 7.877061357290175e-01	 1.254666196814343e+01
 1.760226131263876e+00	 8.043427681126459e-01	 1.255687981383700e+01
 1.752548826057332e+00	 8.209360109560156e-01	 1.257443319905516e+01
 1.744701970063948e+00	 8.374833475683460e-01	 1.259941344002133e+01
 1.821044456128869e+00	 6.722820678611829e-01	 1.254518433003112e+01
 1.814707745864667e+00	 6.892038066233940e-01	 1.253070869603547e+01
 1.808200652997898e+00	 7.060994890689093e-01	 1.251846307640985e+01
 1.801523053827637e+00	 7.229666496408678e-01	 1.250883734900541e+01
 1.794674870404484e+00	 7.398028112301591e-01	 1.250223489781705e+01
 1.787656071011069e+00	 7.566054861965167e-01	 1.249906494012461e+01
 1.780466670616331e+00	 7.733721774086496e-01	 1.249973420337505e+01
 1.773106731302768e+00	 7.901003793026620e-01	 1.250463794653582e+01
 1.765576362665894e+00	 8.067875789579735e-01	 1.251415032360786e+01
 1.757875722185166e+00	 8.234312571899246e-01	 1.252984654388095e+01
 1.750005015565663e+00	 8.400288896582196e-01	 1.255363618089985e+01
 1.696974560548522e+00	 8.145734687594859e-01	 1.296829692455652e+01
 1.689177694108937e+00	 8.306210404754533e-01	 1.299629542375007e+01
 1.681216455465393e+00	 8.466190554364398e-01	 1.302960849309373e+01
 1.673091186076765e+00	 8.625650573886900e-01	 1.306698562230355e+01
 1.664802275195002e+00	 8.784565895143885e-01	 1.310699394907148e+01
 1.656350160045272e+00	 8.942911955698267e-01	 1.314802296586044e+01
 1.647735325974190e+00	 9.100664210333445e-01	 1.318829097731084e+01
 1.638958306565692e+00	 9.257798142620247e-01	 1.322585337483288e+01
 1.630019683724099e+00	 9.414289276560917e-01	 1.325861278606221e+01
 1.620920087723970e+00	 9.570113188299428e-01	 1.328433114719664e+01
 1.611660197226400e+00	 9.725245517887317e-01	 1.330064373584262e+01
 1.702277606050236e+00	 8.171190108493593e-01	 1.293151716624440e+01
 1.694456374403027e+00	 8.332167312269394e-01	 1.296047223254949e+01
 1.686470256888723e+00	 8.492647399846788e-01	 1.299470562849654e+01
 1.678319596033255e+00	 8.652605731930300e-01	 1.303303928921775e+01
 1.670004782304987e+00	 8.812017663566211e-01	 1.307411121360754e+01
 1.661526254295413e+00	 8.970858555559823e-01	 1.311637994803426e+01
 1.652884498867859e+00	 9.129103785990734e-01	 1.315813084888580e+01
 1.644080051273710e+00	 9.286728761815936e-01	 1.319748419279847e+01
 1.635113495235737e+00	 9.443708930550171e-01	 1.323240519438686e+01
 1.625985462998108e+00	 9.600019792012864e-01	 1.326071598147633e+01
 1.616696635342732e+00	 9.755636910130715e-01	 1.328010956728001e+01
 1.707580651551950e+00	 8.196645529392325e-01	 1.289361444566111e+01
 1.699735054697117e+00	 8.358124219784251e-01	 1.292346542849770e+01
 1.691724058312052e+00	 8.519104245329172e-01	 1.295857745939822e+01
 1.683548005989744e+00	 8.679560889973694e-01	 1.299784399028811e+01
 1.675207289414972e+00	 8.839469431988536e-01	 1.303997358150787e+01
 1.666702348545556e+00	 8.998805155421381e-01	 1.308349416416525e+01
 1.658033671761528e+00	 9.157543361648025e-01	 1.312675910912067e+01
 1.649201795981728e+00	 9.315659381011622e-01	 1.316795517375431e+01
 1.640207306747375e+00	 9.473128584539420e-01	 1.320511238849635e+01
 1.631050838272245e+00	 9.629926395726298e-01	 1.323611593512930e+01
 1.621733073459064e+00	 9.786028302374110e-01	 1.325872005813929e+01
 1.712883697053664e+00	 8.222100950291059e-01	 1.285461850604642e+01
 1.705013734991207e+00	 8.384081127299107e-01	 1.288527388853125e+01
 1.696977859735381e+00	 8.545561090811563e-01	 1.292119818677349e+01
 1.688776415946234e+00	 8.706516048017090e-01	 1.296135549175904e+01
 1.680409796524956e+00	 8.866921200410864e-01	 1.300452467061858e+01
 1.671878442795697e+00	 9.026751755282938e-01	 1.304930340914979e+01
 1.663182844655197e+00	 9.185982937305316e-01	 1.309411408835790e+01
 1.654323540689746e+00	 9.344590000207310e-01	 1.313721156848908e+01
 1.645301118259013e+00	 9.502548238528676e-01	 1.317669294472499e+01
 1.636116213546382e+00	 9.659832999439737e-01	 1.321050932857792e+01
 1.626769511575397e+00	 9.816419694617506e-01	 1.323647969812336e+01
 1.718186742555379e+00	 8.247556371189793e-01	 1.281455966582831e+01
 1.710292415285298e+00	 8.410038034813965e-01	 1.284589729987150e+01
 1.702231661158710e+00	 8.572017936293951e-01	 1.288254298457965e+01
 1.694004825902724e+00	 8.733471206060488e-01	 1.292353062342569e+01
 1.685612303634941e+00	 8.894372968833186e-01	 1.296770918108373e+01
 1.677054537045839e+00	 9.054698355144493e-01	 1.301374650745389e+01
 1.668332017548867e+00	 9.214422512962610e-01	 1.306013502268873e+01
 1.659445285397763e+00	 9.373520619403001e-01	 1.310519933904568e+01
 1.650394929770650e+00	 9.531967892517924e-01	 1.314710588594522e+01
 1.641181588820519e+00	 9.689739603153171e-01	 1.318387459433224e+01
 1.631805949691729e+00	 9.846811086860906e-01	 1.321339268535721e+01
 1.723489788057092e+00	 8.273011792088525e-01	 1.277346873968502e+01
 1.715571095579389e+00	 8.435994942328823e-01	 1.280533607384637e+01
 1.707485462582039e+00	 8.598474781776340e-01	 1.284258790754549e+01
 1.699233235859214e+00	 8.760426364103883e-01	 1.288432718160521e+01
 1.690814810744924e+00	 8.921824737255509e-01	 1.292947279471887e+01
 1.682230631295980e+00	 9.082644955006054e-01	 1.297676321011504e+01
 1.673481190442536e+00	 9.242862088619899e-01	 1.302476194981311e+01
 1.664567030105780e+00	 9.402451238598685e-01	 1.307186505467079e+01
 1.655488741282288e+00	 9.561387546507178e-01	 1.311631057884231e+01
 1.646246964094657e+00	 9.719646206866607e-01	 1.315619017682530e+01
 1.636842387808062e+00	 9.877202479104304e-01	 1.318946283001976e+01
 1.728792833558807e+00	 8.298467212987263e-01	 1.273137695987588e+01
 1.720849775873479e+00	 8.461951849843679e-01	 1.276359126008338e+01
 1.712739264005369e+00	 8.624931627258728e-01	 1.280130979941353e+01
 1.704461645815704e+00	 8.787381522147282e-01	 1.284370383262065e+01
 1.696017317854909e+00	 8.949276505677833e-01	 1.288976207493624e+01
 1.687406725546121e+00	 9.110591554867610e-01	 1.293829409231240e+01
 1.678630363336206e+00	 9.271301664277196e-01	 1.298793560546223e+01
 1.669688774813799e+00	 9.431381857794375e-01	 1.303715578830178e+01
 1.660582552793925e+00	 9.590807200496433e-01	 1.308426663167801e+01
 1.651312339368795e+00	 9.749552810580040e-01	 1.312743443266793e+01
 1.641878825924394e+00	 9.907593871347702e-01	 1.316469345830380e+01
 1.734095879060521e+00	 8.323922633885997e-01	 1.268831589783476e+01
 1.726128456167569e+00	 8.487908757358537e-01	 1.272066446106662e+01
 1.717993065428699e+00	 8.651388472741121e-01	 1.275868620162550e+01
 1.709690055772194e+00	 8.814336680190678e-01	 1.280162001678760e+01
 1.701219824964894e+00	 8.976728274100159e-01	 1.284852436720994e+01
 1.692582819796262e+00	 9.138538154729168e-01	 1.289828045149326e+01
 1.683779536229875e+00	 9.299741239934485e-01	 1.294959732037337e+01
 1.674810519521816e+00	 9.460312476990062e-01	 1.300101901357907e+01
 1.665676364305563e+00	 9.620226854485684e-01	 1.305093379253248e+01
 1.656377714642932e+00	 9.779459414293479e-01	 1.309758553131310e+01
 1.646915264040727e+00	 9.937985263591099e-01	 1.313908731669630e+01
 1.739398924562235e+00	 8.349378054784730e-01	 1.264431738602089e+01
 1.731407136461660e+00	 8.513865664873395e-01	 1.267655774704950e+01
 1.723246866852028e+00	 8.677845318223505e-01	 1.271469526244210e+01
 1.714918465728684e+00	 8.841291838234074e-01	 1.275803585289195e+01
 1.706422332074878e+00	 9.004180042522484e-01	 1.280570770006919e+01
 1.697758914046404e+00	 9.166484754590725e-01	 1.285666420604370e+01
 1.688928709123544e+00	 9.328180815591776e-01	 1.290968891780406e+01
 1.679932264229834e+00	 9.489243096185749e-01	 1.296340250237265e+01
 1.670770175817202e+00	 9.649646508474941e-01	 1.301627184801442e+01
 1.661443089917069e+00	 9.809366018006913e-01	 1.306662135612208e+01
 1.651951702157059e+00	 9.968376655834494e-01	 1.311264647657270e+01
 1.744701970063948e+00	 8.374833475683460e-01	 1.259941344002133e+01
 1.736685816755750e+00	 8.539822572388255e-01	 1.263127357131598e+01
 1.728500668275357e+00	 8.704302163705897e-01	 1.266931564648746e+01
 1.720146875685174e+00	 8.868246996277472e-01	 1.271291204314895e+01
 1.711624839184863e+00	 9.031631810944810e-01	 1.276126068660881e+01
 1.702935008296546e+00	 9.194431354452280e-01	 1.281338779449236e+01
 1.694077882017213e+00	 9.356620391249069e-01	 1.286815261157433e+01
 1.685054008937852e+00	 9.518173715381438e-01	 1.292425422281216e+01
 1.675863987328839e+00	 9.679066162464192e-01	 1.298024052242960e+01
 1.666508465191207e+00	 9.839272621720350e-01	 1.303451940582320e+01
 1.656988140273392e+00	 9.998768048077896e-01	 1.308537223909843e+01
 1.750005015565663e+00	 8.400288896582196e-01	 1.255363618089985e+01
 1.741964497049841e+00	 8.565779479903111e-01	 1.258481468578250e+01
 1.733754469698687e+00	 8.730759009188285e-01	 1.262252644470911e+01
 1.725375285641664e+00	 8.895202154320867e-01	 1.266620977863292e+01
 1.716827346294847e+00	 9.059083579367135e-01	 1.271513242650551e+01
 1.708111102546687e+00	 9.222377954313838e-01	 1.276839407523527e+01
 1.699227054910883e+00	 9.385059966906361e-01	 1.282493090462622e+01
 1.690175753645870e+00	 9.547104334577126e-01	 1.288352223780945e+01
 1.680957798840477e+00	 9.708485816453445e-01	 1.294279937739752e+01
 1.671573840465344e+00	 9.869179225433786e-01	 1.300125669635504e+01
 1.662024578389724e+00	 1.002915944032129e+00	 1.305726504043100e+01
 1.611660197226400e+00	 9.725245517887317e-01	 1.330064373584262e+01
 1.602240739261426e+00	 9.879661981093817e-01	 1.331770710052474e+01
 1.592662489176288e+00	 1.003333838124928e+00	 1.334530758772779e+01
 1.582926270549274e+00	 1.018625062111019e+00	 1.338036868076068e+01
 1.573032955068996e+00	 1.033837471473447e+00	 1.341973739075460e+01
 1.562983462378924e+00	 1.048968679935535e+00	 1.346020851408764e+01
 1.552778759887075e+00	 1.064016314724198e+00	 1.349855085521676e+01
 1.542419862540814e+00	 1.078978017753507e+00	 1.353153536393114e+01
 1.531907832566729e+00	 1.093851446804553e+00	 1.355596512194845e+01
 1.521243779175648e+00	 1.108634276700437e+00	 1.356870709957827e+01
 1.510428858232832e+00	 1.123324200475167e+00	 1.356672558897202e+01
 1.616696635342732e+00	 9.755636910130715e-01	 1.328010956728001e+01
 1.607247741571619e+00	 9.910535924784739e-01	 1.330069643739427e+01
 1.597639559454964e+00	 1.006469256369069e+00	 1.333212365067581e+01
 1.587872915144740e+00	 1.021808265430116e+00	 1.337122331230134e+01
 1.577948683053587e+00	 1.037068213571802e+00	 1.341474136021209e+01
 1.567867785698858e+00	 1.052246707060334e+00	 1.345936211083274e+01
 1.557631193511723e+00	 1.067341365707712e+00	 1.350173482460061e+01
 1.547239924611254e+00	 1.082349824058986e+00	 1.353850224036795e+01
 1.536695044543501e+00	 1.097269732575817e+00	 1.356633101334538e+01
 1.525997665985572e+00	 1.112098758815126e+00	 1.358194397675524e+01
 1.515148948414810e+00	 1.126834588601652e+00	 1.358215413284700e+01
 1.621733073459064e+00	 9.786028302374110e-01	 1.325872005813929e+01
 1.612254743881811e+00	 9.941409868475656e-01	 1.328296088345614e+01
 1.602616629733640e+00	 1.009604674613209e+00	 1.331831688983670e+01
 1.592819559740207e+00	 1.024991468749213e+00	 1.336153089071548e+01
 1.582864411038178e+00	 1.040298955670156e+00	 1.340924931195639e+01
 1.572752109018793e+00	 1.055524734185133e+00	 1.345804702112609e+01
 1.562483627136370e+00	 1.070666416691225e+00	 1.350445423238151e+01
 1.552059986681694e+00	 1.085721630364466e+00	 1.354498543610783e+01
 1.541482256520272e+00	 1.100688018347081e+00	 1.357617028774691e+01
 1.530751552795496e+00	 1.115563240929815e+00	 1.359458637544316e+01
 1.519869038596787e+00	 1.130344976728137e+00	 1.359689377130442e+01
 1.626769511575397e+00	 9.816419694617506e-01	 1.323647969812336e+01
 1.617261746192003e+00	 9.972283812166577e-01	 1.326453285652795e+01
 1.607593700012315e+00	 1.012740092857349e+00	 1.330394474210693e+01
 1.597766204335673e+00	 1.028174672068310e+00	 1.335137096202422e+01
 1.587780139022768e+00	 1.043529697768511e+00	 1.340335999005245e+01
 1.577636432338727e+00	 1.058802761309931e+00	 1.345637827462610e+01
 1.567336060761017e+00	 1.073991467674738e+00	 1.350683747972118e+01
 1.556880048752135e+00	 1.089093436669946e+00	 1.355112380780064e+01
 1.546269468497042e+00	 1.104106304118345e+00	 1.358562933905829e+01
 1.535505439605420e+00	 1.119027723044503e+00	 1.360678530606421e+01
 1.524589128778765e+00	 1.133855364854622e+00	 1.361109720776470e+01
 1.631805949691729e+00	 9.846811086860906e-01	 1.321339268535721e+01
 1.622268748502195e+00	 1.000315775585749e+00	 1.324544406812575e+01
 1.612570770290992e+00	 1.015875511101490e+00	 1.328906357041910e+01
 1.602712848931140e+00	 1.031357875387407e+00	 1.334082167812888e+01
 1.592695867007358e+00	 1.046760439866865e+00	 1.339717047218356e+01
 1.582520755658660e+00	 1.062080788434729e+00	 1.345446901056979e+01
 1.572188494385664e+00	 1.077316518658251e+00	 1.350901090181207e+01
 1.561700110822574e+00	 1.092465242975425e+00	 1.355705401927932e+01
 1.551056680473814e+00	 1.107524589889610e+00	 1.359485229036768e+01
 1.540259326415343e+00	 1.122492205159193e+00	 1.361868947915567e+01
 1.529309218960742e+00	 1.137365752981107e+00	 1.362491486565051e+01
 1.636842387808062e+00	 9.877202479104304e-01	 1.318946283001976e+01
 1.627275750812387e+00	 1.003403169954841e+00	 1.322572543124094e+01
 1.617547840569667e+00	 1.019010929345630e+00	 1.327372857512578e+01
 1.607659493526606e+00	 1.034541078706503e+00	 1.332995971126280e+01
 1.597611594991949e+00	 1.049991181965220e+00	 1.339077608663140e+01
 1.587405078978595e+00	 1.065358815559528e+00	 1.345243039674303e+01
 1.577040928010311e+00	 1.080641569641764e+00	 1.351109868829904e+01
 1.566520172893014e+00	 1.095837049280905e+00	 1.356291046289512e+01
 1.555843892450585e+00	 1.110942875660874e+00	 1.360398091565794e+01
 1.545013213225268e+00	 1.125956687273882e+00	 1.363044522692292e+01
 1.534029309142719e+00	 1.140876141107592e+00	 1.363849480924694e+01
 1.641878825924394e+00	 9.907593871347702e-01	 1.316469345830380e+01
 1.632282753122578e+00	 1.006490564323933e+00	 1.320540696834887e+01
 1.622524910848343e+00	 1.022146347589771e+00	 1.325799370552922e+01
 1.612606138122072e+00	 1.037724282025600e+00	 1.331886016851444e+01
 1.602527322976540e+00	 1.053221924063575e+00	 1.338427032926551e+01
 1.592289402298528e+00	 1.068636842684327e+00	 1.345037154840775e+01
 1.581893361634958e+00	 1.083966620625277e+00	 1.351322280361747e+01
 1.571340234963454e+00	 1.099208855586385e+00	 1.356882518074008e+01
 1.560631104427356e+00	 1.114361161432138e+00	 1.361315456138832e+01
 1.549767100035191e+00	 1.129421169388570e+00	 1.364219642465592e+01
 1.538749399324698e+00	 1.144386529234077e+00	 1.365198266443029e+01
 1.646915264040727e+00	 9.937985263591099e-01	 1.313908731669630e+01
 1.637289755432770e+00	 1.009577958693024e+00	 1.318451771964335e+01
 1.627501981127019e+00	 1.025281765833911e+00	 1.324191157155376e+01
 1.617552782717539e+00	 1.040907485344698e+00	 1.330759650642089e+01
 1.607443050961131e+00	 1.056452666161929e+00	 1.337774478054046e+01
 1.597173725618463e+00	 1.071914869809125e+00	 1.344839944718719e+01
 1.586745795259605e+00	 1.087291671608790e+00	 1.351550290724989e+01
 1.576160297033894e+00	 1.102580661891864e+00	 1.357492778576020e+01
 1.565418316404127e+00	 1.117779447203402e+00	 1.362251006794912e+01
 1.554520986845115e+00	 1.132885651503259e+00	 1.365408441201267e+01
 1.543469489506675e+00	 1.147896917360561e+00	 1.366552153926893e+01
 1.651951702157059e+00	 9.968376655834494e-01	 1.311264647657270e+01
 1.642296757742962e+00	 1.012665353062117e+00	 1.316308565149271e+01
 1.632479051405695e+00	 1.028417184078051e+00	 1.322553335555781e+01
 1.622499427313006e+00	 1.044090688663794e+00	 1.329624044562991e+01
 1.612358778945721e+00	 1.059683408260283e+00	 1.337128902250220e+01
 1.602058048938397e+00	 1.075192896933924e+00	 1.344661885991014e+01
 1.591598228884253e+00	 1.090616722592303e+00	 1.351805627390334e+01
 1.580980359104334e+00	 1.105952468197344e+00	 1.358134538276067e+01
 1.570205528380898e+00	 1.121197732974666e+00	 1.363218169099219e+01
 1.559274873655039e+00	 1.136350133617948e+00	 1.366624791417218e+01
 1.548189579688652e+00	 1.151407305487046e+00	 1.367925194449777e+01
 1.656988140273392e+00	 9.998768048077896e-01	 1.308537223909843e+01
 1.647303760053154e+00	 1.015752747431208e+00	 1.314113756511243e+01
 1.637456121684371e+00	 1.031552602322191e+00	 1.320890872428240e+01
 1.627446071908471e+00	 1.047273891982891e+00	 1.328486188562899e+01
 1.617274506930311e+00	 1.062914150358638e+00	 1.336499055580209e+01
 1.606942372258331e+00	 1.078470924058722e+00	 1.344513225741483e+01
 1.596450662508899e+00	 1.093941773575817e+00	 1.352099771360821e+01
 1.585800421174774e+00	 1.109324274502824e+00	 1.358820248930631e+01
 1.574992740357669e+00	 1.124616018745931e+00	 1.364230102263923e+01
 1.564028760464963e+00	 1.139814615732637e+00	 1.367882296285972e+01
 1.552909669870630e+00	 1.154917693613531e+00	 1.369331171387035e+01
 1.662024578389724e+00	 1.002915944032129e+00	 1.305726504043100e+01
 1.652310762363346e+00	 1.018840141800300e+00	 1.311869900544989e+01
 1.642433191963047e+00	 1.034688020566332e+00	 1.319208574093377e+01
 1.632392716503939e+00	 1.050457095301988e+00	 1.327352881954015e+01
 1.622190234914902e+00	 1.066144892456992e+00	 1.335893471671895e+01
 1.611826695578266e+00	 1.081748951183521e+00	 1.344403973331360e+01
 1.601303096133547e+00	 1.097266824559330e+00	 1.352443949174117e+01
 1.590620483245215e+00	 1.112696080808304e+00	 1.359562095651882e+01
 1.579779952334440e+00	 1.128034304517195e+00	 1.365299691257157e+01
 1.568782647274887e+00	 1.143279097847326e+00	 1.369194281724710e+01
 1.557629760052608e+00	 1.158428081740016e+00	 1.370783592439021e+01
 1.510428858232832e+00	 1.123324200475167e+00	 1.356672558897202e+01
 1.499464271893516e+00	 1.137918930535281e+00	 1.354617630779398e+01
 1.488351268203937e+00	 1.152416199813003e+00	 1.350250891634552e+01
 1.477091140668081e+00	 1.166813762909735e+00	 1.343182671773048e+01
 1.465685227780424e+00	 1.181109397228705e+00	 1.333242965829638e+01
 1.454134912524956e+00	 1.195300904095596e+00	 1.322906894475541e+01
 1.442441621840872e+00	 1.209386109865987e+00	 1.312934779795284e+01
 1.430606826055320e+00	 1.223362867018462e+00	 1.303232511781647e+01
 1.418632038283663e+00	 1.237229055232235e+00	 1.293702329236087e+01
 1.406518813797739e+00	 1.250982582448177e+00	 1.284242006027973e+01
 1.394268749362679e+00	 1.264621385912140e+00	 1.274743978507627e+01
 1.515148948414810e+00	 1.126834588601652e+00	 1.358215413284700e+01
 1.504150097743183e+00	 1.141474927193204e+00	 1.356268733530058e+01
 1.493002365917074e+00	 1.156017500437419e+00	 1.351864976822037e+01
 1.481707050482669e+00	 1.170460055918828e+00	 1.344611898859489e+01
 1.470265494117239e+00	 1.184800364095045e+00	 1.334780215507439e+01
 1.458679084126597e+00	 1.199036219420894e+00	 1.324959554307791e+01
 1.446949251909124e+00	 1.213165441459318e+00	 1.315388466561099e+01
 1.435077472386744e+00	 1.227185875977895e+00	 1.305977010208192e+01
 1.423065263403300e+00	 1.241095396029836e+00	 1.296631866251909e+01
 1.410914185090857e+00	 1.254891903018327e+00	 1.287255501168778e+01
 1.398625839204437e+00	 1.268573327743116e+00	 1.277745268353796e+01
 1.519869038596787e+00	 1.130344976728137e+00	 1.359689377130442e+01
 1.508835923592850e+00	 1.145030923851126e+00	 1.357841248215381e+01
 1.497653463630211e+00	 1.159618801061834e+00	 1.353392855938302e+01
 1.486322960297257e+00	 1.174106348927921e+00	 1.345949068869652e+01
 1.474845760454052e+00	 1.188491330961385e+00	 1.336461273963565e+01
 1.463223255728237e+00	 1.202771534746193e+00	 1.327144664883720e+01
 1.451456881977377e+00	 1.216944773052650e+00	 1.317965362698242e+01
 1.439548118718167e+00	 1.231008884937328e+00	 1.308837386845075e+01
 1.427498488522936e+00	 1.244961736827437e+00	 1.299671659300539e+01
 1.415309556383975e+00	 1.258801223588478e+00	 1.290375143062295e+01
 1.402982929046195e+00	 1.272525269574091e+00	 1.280849917499048e+01
 1.524589128778765e+00	 1.133855364854622e+00	 1.361109720776470e+01
 1.513521749442518e+00	 1.148586920509049e+00	 1.359350482601169e+01
 1.502304561343348e+00	 1.163220101686249e+00	 1.354849903136045e+01
 1.490938870111845e+00	 1.177752641937014e+00	 1.347224107889696e+01
 1.479426026790866e+00	 1.192182297827724e+00	 1.338292605871194e+01
 1.467767427329878e+00	 1.206506850071492e+00	 1.329468501624662e+01
 1.455964512045630e+00	 1.220724104645981e+00	 1.320671569563263e+01
 1.444018765049589e+00	 1.234831893896761e+00	 1.311819585380331e+01
 1.431931713642572e+00	 1.248828077625037e+00	 1.302827512128133e+01
 1.419704927677093e+00	 1.262710544158629e+00	 1.293606614685874e+01
 1.407340018887954e+00	 1.276477211405067e+00	 1.284063508881823e+01
 1.529309218960742e+00	 1.137365752981107e+00	 1.362491486565051e+01
 1.518207575292185e+00	 1.152142917166972e+00	 1.360811521348701e+01
 1.506955659056486e+00	 1.166821402310665e+00	 1.356251275265209e+01
 1.495554779926433e+00	 1.181398934946107e+00	 1.348619744478966e+01
 1.484006293127680e+00	 1.195873264694064e+00	 1.340280244880466e+01
 1.472311598931518e+00	 1.210242165396790e+00	 1.331936914757305e+01
 1.460472142113883e+00	 1.224503436239312e+00	 1.323512768720120e+01
 1.448489411381012e+00	 1.238654902856193e+00	 1.314929134669144e+01
 1.436364938762209e+00	 1.252694418422638e+00	 1.306104818151423e+01
 1.424100298970211e+00	 1.266619864728780e+00	 1.296955192722764e+01
 1.411697108729712e+00	 1.280429153236042e+00	 1.287391222703809e+01
 1.534029309142719e+00	 1.140876141107592e+00	 1.363849480924694e+01
 1.522893401141852e+00	 1.155698913824894e+00	 1.362239218008808e+01
 1.511606756769623e+00	 1.170422702935081e+00	 1.357611903783281e+01
 1.500170689741020e+00	 1.185045227955200e+00	 1.350191575666625e+01
 1.488586559464494e+00	 1.199564231560404e+00	 1.342429800676218e+01
 1.476855770533159e+00	 1.213977480722089e+00	 1.334555336314525e+01
 1.464979772182136e+00	 1.228282767832643e+00	 1.326494228878963e+01
 1.452960057712435e+00	 1.242477911815626e+00	 1.318171155605647e+01
 1.440798163881846e+00	 1.256560759220239e+00	 1.309508567258131e+01
 1.428495670263329e+00	 1.270529185298930e+00	 1.300425754286893e+01
 1.416054198571471e+00	 1.284381095067017e+00	 1.290837843075223e+01
 1.538749399324698e+00	 1.144386529234077e+00	 1.365198266443029e+01
 1.527579226991519e+00	 1.159254910482817e+00	 1.363648187003870e+01
 1.516257854482761e+00	 1.174024003559497e+00	 1.358946486654576e+01
 1.504786599555608e+00	 1.188691520964292e+00	 1.351944979019486e+01
 1.493166825801307e+00	 1.203255198426743e+00	 1.344746466026851e+01
 1.481399942134799e+00	 1.217712796047388e+00	 1.337328787128396e+01
 1.469487402250388e+00	 1.232062099425974e+00	 1.329620812828051e+01
 1.457430704043858e+00	 1.246300920775058e+00	 1.321550367988991e+01
 1.445231389001482e+00	 1.260427100017840e+00	 1.313043352602505e+01
 1.432891041556447e+00	 1.274438505869081e+00	 1.304022783643683e+01
 1.420411288413229e+00	 1.288333036897993e+00	 1.294407764657078e+01
 1.543469489506675e+00	 1.147896917360561e+00	 1.366552153926893e+01
 1.532265052841187e+00	 1.162810907140740e+00	 1.365052795598087e+01
 1.520908952195898e+00	 1.177625304183912e+00	 1.360280169879975e+01
 1.509402509370196e+00	 1.192337813973386e+00	 1.353884916142657e+01
 1.497747092138121e+00	 1.206946165293083e+00	 1.347235023824503e+01
 1.485944113736439e+00	 1.221448111372686e+00	 1.340261883815463e+01
 1.473995032318641e+00	 1.235841431019305e+00	 1.332896984359005e+01
 1.461901350375280e+00	 1.250123929734491e+00	 1.325071097383589e+01
 1.449664614121118e+00	 1.264293440815440e+00	 1.316713377396056e+01
 1.437286412849564e+00	 1.278347826439231e+00	 1.307750378927022e+01
 1.424768378254987e+00	 1.292284978728968e+00	 1.298104999300379e+01
 1.548189579688652e+00	 1.151407305487046e+00	 1.367925194449777e+01
 1.536950878690854e+00	 1.166366903798663e+00	 1.366467155856095e+01
 1.525560049909035e+00	 1.181226604808328e+00	 1.361773654128441e+01
 1.514018419184783e+00	 1.195984106982478e+00	 1.356015939759603e+01
 1.502327358474935e+00	 1.210637132159422e+00	 1.349899854116711e+01
 1.490488285338080e+00	 1.225183426697986e+00	 1.343358845754568e+01
 1.478502662386894e+00	 1.239620762612637e+00	 1.336326815185527e+01
 1.466371996706703e+00	 1.253946938693923e+00	 1.328737281973843e+01
 1.454097839240755e+00	 1.268159781613041e+00	 1.320522461693646e+01
 1.441681784142683e+00	 1.282257147009382e+00	 1.311612258852403e+01
 1.429125468096745e+00	 1.296236920559943e+00	 1.301933182682429e+01
 1.552909669870630e+00	 1.154917693613531e+00	 1.369331171387035e+01
 1.541636704540521e+00	 1.169922900456585e+00	 1.367905116590370e+01
 1.530211147622172e+00	 1.184827905432743e+00	 1.363479985477841e+01
 1.518634328999371e+00	 1.199630399991572e+00	 1.358342200782837e+01
 1.506907624811748e+00	 1.214328099025762e+00	 1.352744941129735e+01
 1.495032456939720e+00	 1.228918742023284e+00	 1.346623502057258e+01
 1.483010292455146e+00	 1.243400094205968e+00	 1.339913991855678e+01
 1.470842643038126e+00	 1.257769947653356e+00	 1.332552479413356e+01
 1.458531064360391e+00	 1.272026122410642e+00	 1.324474049174986e+01
 1.446077155435800e+00	 1.286166467579532e+00	 1.315611769426404e+01
 1.433482557938504e+00	 1.300188862390919e+00	 1.305895580940237e+01
 1.557629760052608e+00	 1.158428081740016e+00	 1.370783592439021e+01
 1.546322530390188e+00	 1.173478897114508e+00	 1.369380255297506e+01
 1.534862245335310e+00	 1.188429206057159e+00	 1.365403091145190e+01
 1.523250238813959e+00	 1.203276693000665e+00	 1.360867455375554e+01
 1.511487891148563e+00	 1.218019065892102e+00	 1.355773880283733e+01
 1.499576628541361e+00	 1.232654057348583e+00	 1.350059298531019e+01
 1.487517922523399e+00	 1.247179425799299e+00	 1.343661822657925e+01
 1.475313289369550e+00	 1.261592956612789e+00	 1.336519873668798e+01
 1.462964289480028e+00	 1.275892463208243e+00	 1.328571213921679e+01
 1.450472526728918e+00	 1.290075788149682e+00	 1.319751890652497e+01
 1.437839647780262e+00	 1.304140804221895e+00	 1.309995097301121e+01
 1.394268749362679e+00	 1.264621385912140e+00	 1.274743978507627e+01
 1.381883482542842e+00	 1.278143433199489e+00	 1.264385336654965e+01
 1.369364690977512e+00	 1.291546723219788e+00	 1.252534354674174e+01
 1.356714091627013e+00	 1.304829287200589e+00	 1.239368522924351e+01
 1.343933439989949e+00	 1.317989189649328e+00	 1.225067957426910e+01
 1.331024529292326e+00	 1.331024529292325e+00	 1.209813933122908e+01
 1.317989189649329e+00	 1.343933439989949e+00	 1.193787388904083e+01
 1.304829287200590e+00	 1.356714091627013e+00	 1.177167414429655e+01
 1.291546723219789e+00	 1.369364690977512e+00	 1.160129729038830e+01
 1.278143433199490e+00	 1.381883482542841e+00	 1.142845163298703e+01
 1.264621385912140e+00	 1.394268749362679e+00	 1.125478153886590e+01
 1.398625839204437e+00	 1.268573327743116e+00	 1.277745268353796e+01
 1.386201868425789e+00	 1.282137631428238e+00	 1.267329727172293e+01
 1.373643955636817e+00	 1.295582806729850e+00	 1.255422040418270e+01
 1.360953823163348e+00	 1.308906878723092e+00	 1.242194747569667e+01
 1.348133231989917e+00	 1.322107905866982e+00	 1.227822799435127e+01
 1.335183980946363e+00	 1.335183980946363e+00	 1.212482070268396e+01
 1.322107905866983e+00	 1.348133231989917e+00	 1.196347840985980e+01
 1.308906878723092e+00	 1.360953823163348e+00	 1.179593263691267e+01
 1.295582806729850e+00	 1.373643955636817e+00	 1.162387818014147e+01
 1.282137631428238e+00	 1.386201868425788e+00	 1.144895770011635e+01
 1.268573327743116e+00	 1.398625839204437e+00	 1.127274644539444e+01
 1.402982929046195e+00	 1.272525269574091e+00	 1.280849917499048e+01
 1.390520254308735e+00	 1.286131829656986e+00	 1.270374547117507e+01
 1.377923220296121e+00	 1.299618890239912e+00	 1.258405894462391e+01
 1.365193554699682e+00	 1.312984470245594e+00	 1.245111784226333e+01
 1.352333023989886e+00	 1.326226622084637e+00	 1.230662251308239e+01
 1.339343432600402e+00	 1.339343432600402e+00	 1.215228030927300e+01
 1.326226622084637e+00	 1.352333023989886e+00	 1.198979019125577e+01
 1.312984470245594e+00	 1.365193554699681e+00	 1.182082714057593e+01
 1.299618890239912e+00	 1.377923220296121e+00	 1.164702648779340e+01
 1.286131829656987e+00	 1.390520254308734e+00	 1.146996826492292e+01
 1.272525269574091e+00	 1.402982929046195e+00	 1.129116169367944e+01
 1.407340018887954e+00	 1.276477211405067e+00	 1.284063508881823e+01
 1.394838640191681e+00	 1.290126027885734e+00	 1.273525345221739e+01
 1.382202484955426e+00	 1.303654973749974e+00	 1.261491539867219e+01
 1.369433286236017e+00	 1.317062061768095e+00	 1.248125436878086e+01
 1.356532815989854e+00	 1.330345338302291e+00	 1.233592402619555e+01
 1.343502884254441e+00	 1.343502884254440e+00	 1.218058293012276e+01
 1.330345338302291e+00	 1.356532815989854e+00	 1.201687890411584e+01
 1.317062061768095e+00	 1.369433286236016e+00	 1.184643320713809e+01
 1.303654973749974e+00	 1.382202484955426e+00	 1.167082461609503e+01
 1.290126027885735e+00	 1.394838640191681e+00	 1.149157353153768e+01
 1.276477211405066e+00	 1.407340018887954e+00	 1.131012621999382e+01
 1.411697108729712e+00	 1.280429153236042e+00	 1.287391222703809e+01
 1.399157026074627e+00	 1.294120226114483e+00	 1.276787270014569e+01
 1.386481749614731e+00	 1.307691057260035e+00	 1.264684200493465e+01
 1.373673017772351e+00	 1.321139653290597e+00	 1.251241109819415e+01
 1.360732607989823e+00	 1.334464054519945e+00	 1.236618941318370e+01
 1.347662335908479e+00	 1.347662335908479e+00	 1.220978929479558e+01
 1.334464054519946e+00	 1.360732607989823e+00	 1.204481012296575e+01
 1.321139653290598e+00	 1.373673017772351e+00	 1.187282223234469e+01
 1.307691057260036e+00	 1.386481749614731e+00	 1.169535073954533e+01
 1.294120226114484e+00	 1.399157026074627e+00	 1.151385939186015e+01
 1.280429153236041e+00	 1.411697108729712e+00	 1.132973455315326e+01
 1.416054198571471e+00	 1.284381095067017e+00	 1.290837843075223e+01
 1.403475411957574e+00	 1.298114424343232e+00	 1.280165076394593e+01
 1.390761014274036e+00	 1.311727140770097e+00	 1.267988707510649e+01
 1.377912749308685e+00	 1.325217244813098e+00	 1.254463814115142e+01
 1.364932399989792e+00	 1.338582770737599e+00	 1.239747160152548e+01
 1.351821787562518e+00	 1.351821787562518e+00	 1.223995614726464e+01
 1.338582770737599e+00	 1.364932399989791e+00	 1.207364538980927e+01
 1.325217244813099e+00	 1.377912749308685e+00	 1.190006151965060e+01
 1.311727140770097e+00	 1.390761014274035e+00	 1.172067886829162e+01
 1.298114424343232e+00	 1.403475411957573e+00	 1.153690748964933e+01
 1.284381095067017e+00	 1.416054198571470e+00	 1.135007687889829e+01
 1.420411288413229e+00	 1.288333036897993e+00	 1.294407764657078e+01
 1.407793797840520e+00	 1.302108622571979e+00	 1.283663132197657e+01
 1.395040278933341e+00	 1.315763224280160e+00	 1.271409505903877e+01
 1.382152480845019e+00	 1.329294836335600e+00	 1.257798174057952e+01
 1.369132191989760e+00	 1.342701486955253e+00	 1.242981963088747e+01
 1.355981239216556e+00	 1.355981239216556e+00	 1.227113630985908e+01
 1.342701486955253e+00	 1.369132191989760e+00	 1.210344227792805e+01
 1.329294836335601e+00	 1.382152480845019e+00	 1.192821434398359e+01
 1.315763224280160e+00	 1.395040278933340e+00	 1.174687891196299e+01
 1.302108622571980e+00	 1.407793797840520e+00	 1.156079528452850e+01
 1.288333036897992e+00	 1.420411288413229e+00	 1.137123910416979e+01
 1.424768378254987e+00	 1.292284978728968e+00	 1.298104999300379e+01
 1.412112183723466e+00	 1.306102820800728e+00	 1.287285424762712e+01
 1.399319543592646e+00	 1.319799307790222e+00	 1.274950660978578e+01
 1.386392212381354e+00	 1.333372427858103e+00	 1.261248433623942e+01
 1.373331983989729e+00	 1.346820203172907e+00	 1.246327871730353e+01
 1.360140690870594e+00	 1.360140690870594e+00	 1.230337874717907e+01
 1.346820203172908e+00	 1.373331983989729e+00	 1.213425445564278e+01
 1.333372427858103e+00	 1.386392212381354e+00	 1.195734001545758e+01
 1.319799307790221e+00	 1.399319543592645e+00	 1.177401674343779e+01
 1.306102820800728e+00	 1.412112183723466e+00	 1.158559611590667e+01
 1.292284978728968e+00	 1.424768378254987e+00	 1.139330292128003e+01
 1.429125468096745e+00	 1.296236920559943e+00	 1.301933182682429e+01
 1.416430569606413e+00	 1.310097019029477e+00	 1.291035567495429e+01
 1.403598808251950e+00	 1.323835391300283e+00	 1.278615864863344e+01
 1.390631943917688e+00	 1.337450019380604e+00	 1.264818462926239e+01
 1.377531775989697e+00	 1.350938919390561e+00	 1.249789031733154e+01
 1.364300142524633e+00	 1.364300142524633e+00	 1.233672862998309e+01
 1.350938919390562e+00	 1.377531775989697e+00	 1.216613175003666e+01
 1.337450019380604e+00	 1.390631943917688e+00	 1.198749394303572e+01
 1.323835391300283e+00	 1.403598808251950e+00	 1.180215426254600e+01
 1.310097019029477e+00	 1.416430569606413e+00	 1.161137926681734e+01
 1.296236920559943e+00	 1.429125468096745e+00	 1.141634587198138e+01
 1.433482557938504e+00	 1.300188862390919e+00	 1.305895580940237e+01
 1.420748955489359e+00	 1.314091217258225e+00	 1.294916806429577e+01
 1.407878072911255e+00	 1.327871474810345e+00	 1.282408443010802e+01
 1.394871675454023e+00	 1.341527610903106e+00	 1.268511764666698e+01
 1.381731567989666e+00	 1.355057635608215e+00	 1.253369219218786e+01
 1.368459594178672e+00	 1.368459594178671e+00	 1.237122739904675e+01
 1.355057635608216e+00	 1.381731567989666e+00	 1.219912021064180e+01
 1.341527610903106e+00	 1.394871675454022e+00	 1.201872769814440e+01
 1.327871474810345e+00	 1.407878072911255e+00	 1.183134945970910e+01
 1.314091217258225e+00	 1.420748955489358e+00	 1.163821002767738e+01
 1.300188862390919e+00	 1.433482557938504e+00	 1.144044141143522e+01
 1.437839647780262e+00	 1.304140804221895e+00	 1.309995097301121e+01
 1.425067341372306e+00	 1.318085415486974e+00	 1.298932026786186e+01
 1.412157337570560e+00	 1.331907558320407e+00	 1.286331360696674e+01
 1.399111406990357e+00	 1.345605202425608e+00	 1.272331480585735e+01
 1.385931359989634e+00	 1.359176351825870e+00	 1.257071847186076e+01
 1.372619045832711e+00	 1.372619045832711e+00	 1.240691282899393e+01
 1.359176351825870e+00	 1.385931359989635e+00	 1.223326217308956e+01
 1.345605202425608e+00	 1.399111406990357e+00	 1.205108907824029e+01
 1.331907558320407e+00	 1.412157337570559e+00	 1.186165647951735e+01
 1.318085415486974e+00	 1.425067341372305e+00	 1.166614975996686e+01
 1.304140804221894e+00	 1.437839647780263e+00	 1.146565897208295e+01
 1.264621385912140e+00	 1.394268749362679e+00	 1.125478153886590e+01
 1.250982582448178e+00	 1.406518813797739e+00	 1.107462947505589e+01
 1.237229055232235e+00	 1.418632038283662e+00	 1.088373563073595e+01
 1.223362867018463e+00	 1.430606826055321e+00	 1.068576664970674e+01
 1.209386109865987e+00	 1.442441621840871e+00	 1.048435269397658e+01
 1.195300904095596e+00	 1.454134912524956e+00	 1.028307137661488e+01
 1.181109397228706e+00	 1.465685227780425e+00	 1.008543235952543e+01
 1.166813762909735e+00	 1.477091140668081e+00	 9.895272613123748e+00
 1.152416199813003e+00	 1.488351268203937e+00	 9.716329218783716e+00
 1.137918930535281e+00	 1.499464271893516e+00	 9.549943404744338e+00
 1.123324200475167e+00	 1.510428858232832e+00	 9.397058059011449e+00
 1.268573327743116e+00	 1.398625839204437e+00	 1.127274644539444e+01
 1.254891903018328e+00	 1.410914185090857e+00	 1.108988664696925e+01
 1.241095396029836e+00	 1.423065263403299e+00	 1.089645113551717e+01
 1.227185875977896e+00	 1.435077472386743e+00	 1.069608316067320e+01
 1.213165441459318e+00	 1.446949251909124e+00	 1.049238811472560e+01
 1.199036219420895e+00	 1.458679084126597e+00	 1.028891717628492e+01
 1.184800364095045e+00	 1.470265494117238e+00	 1.008915162924548e+01
 1.170460055918828e+00	 1.481707050482669e+00	 9.896662937216577e+00
 1.156017500437419e+00	 1.493002365917074e+00	 9.715590007610786e+00
 1.141474927193204e+00	 1.504150097743183e+00	 9.547553663291838e+00
 1.126834588601652e+00	 1.515148948414810e+00	 9.393457729436349e+00
 1.272525269574091e+00	 1.402982929046195e+00	 1.129116169367944e+01
 1.258801223588478e+00	 1.415309556383975e+00	 1.110556216367943e+01
 1.244961736827437e+00	 1.427498488522936e+00	 1.090958100072223e+01
 1.231008884937328e+00	 1.439548118718166e+00	 1.070682958093652e+01
 1.216944773052649e+00	 1.451456881977377e+00	 1.050087964064186e+01
 1.202771534746194e+00	 1.463223255728237e+00	 1.029524663757408e+01
 1.188491330961385e+00	 1.474845760454052e+00	 1.009337379834799e+01
 1.174106348927921e+00	 1.486322960297257e+00	 9.898646553439050e+00
 1.159618801061834e+00	 1.497653463630211e+00	 9.715282984061375e+00
 1.145030923851127e+00	 1.508835923592851e+00	 9.545402139986587e+00
 1.130344976728137e+00	 1.519869038596788e+00	 9.389856785787860e+00
 1.276477211405066e+00	 1.407340018887954e+00	 1.131012621999382e+01
 1.262710544158629e+00	 1.419704927677093e+00	 1.112176261508744e+01
 1.248828077625038e+00	 1.431931713642572e+00	 1.092323645209859e+01
 1.234831893896760e+00	 1.444018765049589e+00	 1.071811884109815e+01
 1.220724104645980e+00	 1.455964512045629e+00	 1.050993906515805e+01
 1.206506850071493e+00	 1.467767427329878e+00	 1.030216766569385e+01
 1.192182297827725e+00	 1.479426026790865e+00	 1.009820022555749e+01
 1.177752641937014e+00	 1.490938870111845e+00	 9.901341960085423e+00
 1.163220101686250e+00	 1.502304561343348e+00	 9.715521914575564e+00
 1.148586920509050e+00	 1.513521749442518e+00	 9.543586119999441e+00
 1.133855364854621e+00	 1.524589128778765e+00	 9.386333784735928e+00
 1.280429153236041e+00	 1.411697108729712e+00	 1.132973455315326e+01
 1.266619864728780e+00	 1.424100298970211e+00	 1.113859010232617e+01
 1.252694418422639e+00	 1.436364938762208e+00	 1.093752418353768e+01
 1.238654902856193e+00	 1.448489411381012e+00	 1.073005933434257e+01
 1.224503436239312e+00	 1.460472142113883e+00	 1.051967367553767e+01
 1.210242165396791e+00	 1.472311598931517e+00	 1.030978372700269e+01
 1.195873264694064e+00	 1.484006293127679e+00	 1.010372793336765e+01
 1.181398934946107e+00	 1.495554779926433e+00	 9.904751012033099e+00
 1.166821402310666e+00	 1.506955659056486e+00	 9.716417127882314e+00
 1.152142917166972e+00	 1.518207575292185e+00	 9.542199809858953e+00
 1.137365752981107e+00	 1.529309218960743e+00	 9.382964599016161e+00
 1.284381095067017e+00	 1.416054198571470e+00	 1.135007687889829e+01
 1.270529185298930e+00	 1.428495670263329e+00	 1.115614230215371e+01
 1.256560759220239e+00	 1.440798163881845e+00	 1.095254642083249e+01
 1.242477911815626e+00	 1.452960057712435e+00	 1.074275497892717e+01
 1.228282767832644e+00	 1.464979772182135e+00	 1.053018631348356e+01
 1.213977480722089e+00	 1.476855770533158e+00	 1.031819390713716e+01
 1.199564231560404e+00	 1.488586559464494e+00	 1.011004966311810e+01
 1.185045227955200e+00	 1.500170689741020e+00	 9.908928017587613e+00
 1.170422702935081e+00	 1.511606756769623e+00	 9.718075446763855e+00
 1.155698913824895e+00	 1.522893401141852e+00	 9.541334267191555e+00
 1.140876141107591e+00	 1.534029309142720e+00	 9.379822344702797e+00
 1.288333036897992e+00	 1.420411288413229e+00	 1.137123910416979e+01
 1.274438505869081e+00	 1.432891041556446e+00	 1.117451253122428e+01
 1.260427100017840e+00	 1.445231389001481e+00	 1.096840098530572e+01
 1.246300920775059e+00	 1.457430704043857e+00	 1.075630528054861e+01
 1.232062099425975e+00	 1.469487402250388e+00	 1.054157543563882e+01
 1.217712796047388e+00	 1.481399942134798e+00	 1.032749296906253e+01
 1.203255198426744e+00	 1.493166825801307e+00	 1.011725393002611e+01
 1.188691520964293e+00	 1.504786599555608e+00	 9.913952782268122e+00
 1.174024003559497e+00	 1.516257854482761e+00	 9.720600119874115e+00
 1.159254910482818e+00	 1.527579226991519e+00	 9.541077330583569e+00
 1.144386529234076e+00	 1.538749399324698e+00	 9.376977308675915e+00
 1.292284978728968e+00	 1.424768378254987e+00	 1.139330292128003e+01
 1.278347826439232e+00	 1.437286412849564e+00	 1.119378981023704e+01
 1.264293440815441e+00	 1.449664614121118e+00	 1.098518135731211e+01
 1.250123929734491e+00	 1.461901350375280e+00	 1.077080539458806e+01
 1.235841431019306e+00	 1.473995032318640e+00	 1.055393517398244e+01
 1.221448111372687e+00	 1.485944113736439e+00	 1.033777141104281e+01
 1.206946165293083e+00	 1.497747092138121e+00	 1.012542507817421e+01
 1.192337813973386e+00	 1.509402509370195e+00	 9.919901066898905e+00
 1.177625304183912e+00	 1.520908952195897e+00	 9.724082834211080e+00
 1.162810907140740e+00	 1.532265052841187e+00	 9.541513549560078e+00
 1.147896917360561e+00	 1.543469489506675e+00	 9.374496876278585e+00
 1.296236920559943e+00	 1.429125468096745e+00	 1.141634587198138e+01
 1.282257147009382e+00	 1.441681784142683e+00	 1.121405892796822e+01
 1.268159781613041e+00	 1.454097839240754e+00	 1.100297673961729e+01
 1.253946938693924e+00	 1.466371996706703e+00	 1.078634618823821e+01
 1.239620762612637e+00	 1.478502662386894e+00	 1.056735539612192e+01
 1.225183426697986e+00	 1.490488285338080e+00	 1.034911552453352e+01
 1.210637132159423e+00	 1.502327358474935e+00	 1.013464333545411e+01
 1.195984106982478e+00	 1.514018419184783e+00	 9.926844639075028e+00
 1.181226604808328e+00	 1.525560049909034e+00	 9.728498744440842e+00
 1.166366903798663e+00	 1.536950878690853e+00	 9.542724114680723e+00
 1.151407305487046e+00	 1.548189579688653e+00	 9.372445459159909e+00
 1.300188862390919e+00	 1.433482557938504e+00	 1.144044141143522e+01
 1.286166467579532e+00	 1.446077155435800e+00	 1.123540050518655e+01
 1.272026122410642e+00	 1.458531064360391e+00	 1.102187212065570e+01
 1.257769947653357e+00	 1.470842643038126e+00	 1.080301430251460e+01
 1.243400094205968e+00	 1.483010292455146e+00	 1.058192176548523e+01
 1.228918742023285e+00	 1.495032456939721e+00	 1.036160745199812e+01
 1.214328099025763e+00	 1.506907624811749e+00	 1.014498486846960e+01
 1.199630399991572e+00	 1.518634328999371e+00	 9.934851324628724e+00
 1.184827905432744e+00	 1.530211147622172e+00	 9.733872195646132e+00
 1.169922900456586e+00	 1.541636704540521e+00	 9.544786787747755e+00
 1.154917693613531e+00	 1.552909669870630e+00	 9.370884423299515e+00
 1.304140804221894e+00	 1.437839647780263e+00	 1.146565897208295e+01
 1.290075788149682e+00	 1.450472526728918e+00	 1.125789105845583e+01
 1.275892463208243e+00	 1.462964289480028e+00	 1.104194833767031e+01
 1.261592956612789e+00	 1.475313289369549e+00	 1.082089221415334e+01
 1.247179425799299e+00	 1.487517922523399e+00	 1.059771580141369e+01
 1.232654057348583e+00	 1.499576628541361e+00	 1.037532524464965e+01
 1.218019065892102e+00	 1.511487891148563e+00	 1.015652183739665e+01
 1.203276693000665e+00	 1.523250238813959e+00	 9.943985059097209e+00
 1.188429206057160e+00	 1.534862245335310e+00	 9.740256655723721e+00
 1.173478897114509e+00	 1.546322530390188e+00	 9.547775832125600e+00
 1.158428081740016e+00	 1.557629760052608e+00	 9.369872017210664e+00
 1.123324200475167e+00	 1.510428858232832e+00	 9.397058059011449e+00
 1.108634276700437e+00	 1.521243779175648e+00	 9.255611637907290e+00
 1.093851446804553e+00	 1.531907832566729e+00	 9.122606538071391e+00
 1.078978017753507e+00	 1.542419862540814e+00	 8.997250465092998e+00
 1.064016314724199e+00	 1.552778759887076e+00	 8.878583429239027e+00
 1.048968679935536e+00	 1.562983462378924e+00	 8.765512575679301e+00
 1.033837471473448e+00	 1.573032955068996e+00	 8.656846742680855e+00
 1.018625062111019e+00	 1.582926270549274e+00	 8.551330533207576e+00
 1.003333838124929e+00	 1.592662489176288e+00	 8.447677692440253e+00
 9.879661981093821e-01	 1.602240739261426e+00	 8.344603591972309e+00
 9.725245517887311e-01	 1.611660197226400e+00	 8.240856630756529e+00
 1.126834588601652e+00	 1.515148948414810e+00	 9.393457729436349e+00
 1.112098758815127e+00	 1.525997665985573e+00	 9.251060322965312e+00
 1.097269732575817e+00	 1.536695044543500e+00	 9.117215038050965e+00
 1.082349824058987e+00	 1.547239924611254e+00	 8.991134228988530e+00
 1.067341365707712e+00	 1.557631193511723e+00	 8.871861981196792e+00
 1.052246707060334e+00	 1.567867785698858e+00	 8.758309640888415e+00
 1.037068213571802e+00	 1.577948683053587e+00	 8.649291060815575e+00
 1.021808265430116e+00	 1.587872915144740e+00	 8.543557343330185e+00
 1.006469256369069e+00	 1.597639559454964e+00	 8.439830869235887e+00
 9.910535924784741e-01	 1.607247741571619e+00	 8.336838409319302e+00
 9.755636910130711e-01	 1.616696635342732e+00	 8.233343124963602e+00
 1.130344976728137e+00	 1.519869038596788e+00	 9.389856785787860e+00
 1.115563240929815e+00	 1.530751552795496e+00	 9.246222784666266e+00
 1.100688018347082e+00	 1.541482256520272e+00	 9.111221180955507e+00
 1.085721630364467e+00	 1.552059986681694e+00	 8.984084507908472e+00
 1.070666416691225e+00	 1.562483627136370e+00	 8.863877152168115e+00
 1.055524734185133e+00	 1.572752109018792e+00	 8.749531567491379e+00
 1.040298955670156e+00	 1.582864411038177e+00	 8.639884191664047e+00
 1.024991468749213e+00	 1.592819559740206e+00	 8.533710843642364e+00
 1.009604674613209e+00	 1.602616629733640e+00	 8.429761385343541e+00
 9.941409868475659e-01	 1.612254743881810e+00	 8.326793441099600e+00
 9.786028302374108e-01	 1.621733073459064e+00	 8.223604977501733e+00
 1.133855364854621e+00	 1.524589128778765e+00	 9.386333784735928e+00
 1.119027723044504e+00	 1.535505439605419e+00	 9.241161131925260e+00
 1.104106304118346e+00	 1.546269468497043e+00	 9.104677263565588e+00
 1.089093436669946e+00	 1.556880048752134e+00	 8.976150214361267e+00
 1.073991467674738e+00	 1.567336060761017e+00	 8.854680686151507e+00
 1.058802761309931e+00	 1.577636432338727e+00	 8.739238930657155e+00
 1.043529697768511e+00	 1.587780139022768e+00	 8.628701321552363e+00
 1.028174672068310e+00	 1.597766204335674e+00	 8.521886388670424e+00
 1.012740092857350e+00	 1.607593700012315e+00	 8.417590094703419e+00
 9.972283812166577e-01	 1.617261746192002e+00	 8.314620143525129e+00
 9.816419694617502e-01	 1.626769511575397e+00	 8.211829119185282e+00
 1.137365752981107e+00	 1.529309218960743e+00	 9.382964599016161e+00
 1.122492205159193e+00	 1.540259326415343e+00	 9.235935163173622e+00
 1.107524589889610e+00	 1.551056680473814e+00	 9.097633569599745e+00
 1.092465242975425e+00	 1.561700110822574e+00	 8.967378470738788e+00
 1.077316518658251e+00	 1.572188494385664e+00	 8.844322687097916e+00
 1.062080788434730e+00	 1.582520755658660e+00	 8.727490744355604e+00
 1.046760439866866e+00	 1.592695867007359e+00	 8.615816084939414e+00
 1.031357875387407e+00	 1.602712848931140e+00	 8.508177722646591e+00
 1.015875511101490e+00	 1.612570770290991e+00	 8.403436116582789e+00
 1.000315775585749e+00	 1.622268748502194e+00	 8.300468049663310e+00
 9.846811086860903e-01	 1.631805949691729e+00	 8.198200307029094e+00
 1.140876141107591e+00	 1.534029309142720e+00	 9.379822344702797e+00
 1.125956687273882e+00	 1.545013213225268e+00	 9.230602291584148e+00
 1.110942875660874e+00	 1.555843892450585e+00	 9.090138294143367e+00
 1.095837049280906e+00	 1.566520172893014e+00	 8.957814534162475e+00
 1.080641569641764e+00	 1.577040928010311e+00	 8.832851545356057e+00
 1.065358815559528e+00	 1.587405078978595e+00	 8.714344390543040e+00
 1.049991181965220e+00	 1.597611594991949e+00	 8.601300497449445e+00
 1.034541078706504e+00	 1.607659493526606e+00	 8.492676917453620e+00
 1.019010929345630e+00	 1.617547840569667e+00	 8.387416779462704e+00
 1.003403169954841e+00	 1.627275750812387e+00	 8.284484720253866e+00
 9.877202479104302e-01	 1.636842387808062e+00	 8.182901082943250e+00
 1.144386529234076e+00	 1.538749399324698e+00	 9.376977308675915e+00
 1.129421169388571e+00	 1.549767100035191e+00	 9.225217470556519e+00
 1.114361161432138e+00	 1.560631104427356e+00	 9.082237468380340e+00
 1.099208855586385e+00	 1.571340234963454e+00	 8.947501721655744e+00
 1.083966620625277e+00	 1.581893361634959e+00	 8.820313864442086e+00
 1.068636842684327e+00	 1.592289402298529e+00	 8.699855548653154e+00
 1.053221924063575e+00	 1.602527322976540e+00	 8.585224889166895e+00
 1.037724282025601e+00	 1.612606138122072e+00	 8.475474310774148e+00
 1.022146347589771e+00	 1.622524910848343e+00	 8.369647565048501e+00
 1.006490564323933e+00	 1.632282753122578e+00	 8.266815694552266e+00
 9.907593871347700e-01	 1.641878825924395e+00	 8.166111732341099e+00
 1.147896917360561e+00	 1.543469489506675e+00	 9.374496876278585e+00
 1.132885651503259e+00	 1.554520986845115e+00	 9.219833119457157e+00
 1.117779447203403e+00	 1.565418316404127e+00	 9.073974884621833e+00
 1.102580661891865e+00	 1.576160297033895e+00	 8.936481335633843e+00
 1.087291671608790e+00	 1.586745795259605e+00	 8.806754388128594e+00
 1.071914869809125e+00	 1.597173725618463e+00	 8.684078125385291e+00
 1.056452666161929e+00	 1.607443050961130e+00	 8.567657838191835e+00
 1.040907485344698e+00	 1.617552782717539e+00	 8.456658444439601e+00
 1.025281765833911e+00	 1.627501981127019e+00	 8.350242052404340e+00
 1.009577958693025e+00	 1.637289755432770e+00	 8.247604441201288e+00
 9.937985263591095e-01	 1.646915264040727e+00	 8.148010242662457e+00
 1.151407305487046e+00	 1.548189579688653e+00	 9.372445459159909e+00
 1.136350133617948e+00	 1.559274873655040e+00	 9.214499049607991e+00
 1.121197732974667e+00	 1.570205528380898e+00	 9.065392021626142e+00
 1.105952468197344e+00	 1.580980359104334e+00	 8.924792589705330e+00
 1.090616722592304e+00	 1.591598228884253e+00	 8.792215927844223e+00
 1.075192896933924e+00	 1.602058048938397e+00	 8.667064184784987e+00
 1.059683408260284e+00	 1.612358778945721e+00	 8.548666104446626e+00
 1.044090688663794e+00	 1.622499427313005e+00	 8.436316002972658e+00
 1.028417184078052e+00	 1.632479051405695e+00	 8.329311862205078e+00
 1.012665353062117e+00	 1.642296757742962e+00	 8.226992309128606e+00
 9.968376655834492e-01	 1.651951702157059e+00	 8.128772261813339e+00
 1.154917693613531e+00	 1.552909669870630e+00	 9.370884423299515e+00
 1.139814615732637e+00	 1.564028760464963e+00	 9.209262390519713e+00
 1.124616018745931e+00	 1.574992740357669e+00	 9.056527970202787e+00
 1.109324274502824e+00	 1.585800421174774e+00	 8.912472534778292e+00
 1.093941773575817e+00	 1.596450662508900e+00	 8.776739290379473e+00
 1.078470924058722e+00	 1.606942372258331e+00	 8.648863878610797e+00
 1.062914150358638e+00	 1.617274506930312e+00	 8.528314563730831e+00
 1.047273891982891e+00	 1.627446071908472e+00	 8.414531752323560e+00
 1.031552602322192e+00	 1.637456121684371e+00	 8.306966601107817e+00
 1.015752747431209e+00	 1.647303760053154e+00	 8.205118478471704e+00
 9.998768048077892e-01	 1.656988140273392e+00	 8.108571056525847e+00
 1.158428081740016e+00	 1.557629760052608e+00	 9.369872017210664e+00
 1.143279097847326e+00	 1.568782647274887e+00	 9.204167516362840e+00
 1.128034304517196e+00	 1.579779952334440e+00	 9.047419359095295e+00
 1.112696080808304e+00	 1.590620483245214e+00	 8.899555985464799e+00
 1.097266824559330e+00	 1.601303096133546e+00	 8.760363205888986e+00
 1.081748951183521e+00	 1.611826695578266e+00	 8.629525376979137e+00
 1.066144892456993e+00	 1.622190234914902e+00	 8.506666142018151e+00
 1.050457095301988e+00	 1.632392716503938e+00	 8.391388478790979e+00
 1.034688020566332e+00	 1.642433191963047e+00	 8.283313806236052e+00
 1.018840141800301e+00	 1.652310762363346e+00	 8.182119911527256e+00
 1.002915944032129e+00	 1.662024578389725e+00	 8.087577470636727e+00
 9.725245517887311e-01	 1.611660197226400e+00	 8.240856630756529e+00
 9.570113188299432e-01	 1.620920087723970e+00	 8.143373654761980e+00
 9.414289276560919e-01	 1.630019683724099e+00	 8.058258852404082e+00
 9.257798142620247e-01	 1.638958306565693e+00	 7.983133981382721e+00
 9.100664210333443e-01	 1.647735325974189e+00	 7.915748024435143e+00
 8.942911955698269e-01	 1.656350160045272e+00	 7.854002403501038e+00
 8.784565895143890e-01	 1.664802275195003e+00	 7.795974219513146e+00
 8.625650573886908e-01	 1.673091186076765e+00	 7.739937413652905e+00
 8.466190554364401e-01	 1.681216455465393e+00	 7.684381760726131e+00
 8.306210404754538e-01	 1.689177694108937e+00	 7.628029620375231e+00
 8.145734687594854e-01	 1.696974560548522e+00	 7.569850387052385e+00
 9.755636910130711e-01	 1.616696635342732e+00	 8.233343124963602e+00
 9.600019792012866e-01	 1.625985462998108e+00	 8.136223465271147e+00
 9.443708930550172e-01	 1.635113495235737e+00	 8.051550308567121e+00
 9.286728761815937e-01	 1.644080051273710e+00	 7.977005334298196e+00
 9.129103785990736e-01	 1.652884498867859e+00	 7.910403983910378e+00
 8.970858555559827e-01	 1.661526254295414e+00	 7.849721039206791e+00
 8.812017663566214e-01	 1.670004782304987e+00	 7.793114180669125e+00
 8.652605731930303e-01	 1.678319596033255e+00	 7.738945419788806e+00
 8.492647399846789e-01	 1.686470256888723e+00	 7.685800314572752e+00
 8.332167312269398e-01	 1.694456374403027e+00	 7.632504892743656e+00
 8.171190108493589e-01	 1.702277606050236e+00	 7.578140222660085e+00
 9.786028302374108e-01	 1.621733073459064e+00	 8.223604977501733e+00
 9.629926395726306e-01	 1.631050838272245e+00	 8.127028940945946e+00
 9.473128584539424e-01	 1.640207306747375e+00	 8.043077069511645e+00
 9.315659381011622e-01	 1.649201795981727e+00	 7.969452707214748e+00
 9.157543361648028e-01	 1.658033671761529e+00	 7.903998698051460e+00
 8.998805155421387e-01	 1.666702348545556e+00	 7.844723399752148e+00
 8.839469431988539e-01	 1.675207289414971e+00	 7.789824631577452e+00
 8.679560889973696e-01	 1.683548005989744e+00	 7.737711448273483e+00
 8.519104245329179e-01	 1.691724058312052e+00	 7.687023647719119e+00
 8.358124219784254e-01	 1.699735054697118e+00	 7.636648935458824e+00
 8.196645529392323e-01	 1.707580651551951e+00	 7.585737685132086e+00
 9.816419694617502e-01	 1.626769511575397e+00	 8.211829119185282e+00
 9.659832999439738e-01	 1.636116213546382e+00	 8.116009841993936e+00
 9.502548238528676e-01	 1.645301118259012e+00	 8.033081934382759e+00
 9.344590000207313e-01	 1.654323540689746e+00	 7.960732479571374e+00
 9.185982937305320e-01	 1.663182844655198e+00	 7.896793006708558e+00
 9.026751755282939e-01	 1.671878442795697e+00	 7.839266011044010e+00
 8.866921200410863e-01	 1.680409796524956e+00	 7.786349361951025e+00
 8.706516048017094e-01	 1.688776415946234e+00	 7.736458488847224e+00
 8.545561090811564e-01	 1.696977859735381e+00	 7.688246250773359e+00
 8.384081127299110e-01	 1.705013734991208e+00	 7.640620411376315e+00
 8.222100950291057e-01	 1.712883697053665e+00	 7.592758657163865e+00
 9.846811086860903e-01	 1.631805949691729e+00	 8.198200307029094e+00
 9.689739603153174e-01	 1.641181588820519e+00	 8.103383533883814e+00
 9.531967892517927e-01	 1.650394929770650e+00	 8.021805203699229e+00
 9.373520619403003e-01	 1.659445285397763e+00	 7.951098540404486e+00
 9.214422512962616e-01	 1.668332017548867e+00	 7.889045374676824e+00
 9.054698355144496e-01	 1.677054537045838e+00	 7.833603241376821e+00
 8.894372968833190e-01	 1.685612303634940e+00	 7.782930318361961e+00
 8.733471206060491e-01	 1.694004825902725e+00	 7.735408094508577e+00
 8.572017936293955e-01	 1.702231661158711e+00	 7.689661670805743e+00
 8.410038034813968e-01	 1.710292415285299e+00	 7.644577614676651e+00
 8.247556371189791e-01	 1.718186742555379e+00	 7.599319304136138e+00
 9.877202479104302e-01	 1.636842387808062e+00	 8.182901082943250e+00
 9.719646206866612e-01	 1.646246964094657e+00	 8.089364953443789e+00
 9.561387546507185e-01	 1.655488741282288e+00	 8.009484651024422e+00
 9.402451238598691e-01	 1.664567030105781e+00	 7.940802263828862e+00
 9.242862088619903e-01	 1.673481190442536e+00	 7.881011869291300e+00
 9.082644955006056e-01	 1.682230631295980e+00	 7.827987279513229e+00
 8.921824737255515e-01	 1.690814810744925e+00	 7.779807581246287e+00
 8.760426364103888e-01	 1.699233235859214e+00	 7.734780355959559e+00
 8.598474781776344e-01	 1.707485462582040e+00	 7.691462481816672e+00
 8.435994942328824e-01	 1.715571095579389e+00	 7.648678436008527e+00
 8.273011792088525e-01	 1.723489788057093e+00	 7.605536032657275e+00
 9.907593871347700e-01	 1.641878825924395e+00	 8.166111732341099e+00
 9.749552810580044e-01	 1.651312339368794e+00	 8.074166574765677e+00
 9.590807200496433e-01	 1.660582552793925e+00	 7.996355494372645e+00
 9.431381857794378e-01	 1.669688774813798e+00	 7.930092484213036e+00
 9.271301664277198e-01	 1.678630363336206e+00	 7.872946137707365e+00
 9.110591554867613e-01	 1.687406725546121e+00	 7.822668112471244e+00
 8.949276505677839e-01	 1.696017317854909e+00	 7.777219341670401e+00
 8.787381522147284e-01	 1.704461645815704e+00	 7.734793875884474e+00
 8.624931627258734e-01	 1.712739264005370e+00	 7.693840255136895e+00
 8.461951849843683e-01	 1.720849775873479e+00	 7.653080327691103e+00
 8.298467212987258e-01	 1.728792833558807e+00	 7.611525449317528e+00
 9.937985263591095e-01	 1.646915264040727e+00	 8.148010242662457e+00
 9.779459414293481e-01	 1.656377714642931e+00	 8.057998374922338e+00
 9.620226854485685e-01	 1.665676364305563e+00	 7.982650367354954e+00
 9.460312476990066e-01	 1.674810519521816e+00	 7.919215471057560e+00
 9.299741239934487e-01	 1.683779536229875e+00	 7.865099383874970e+00
 9.138538154729170e-01	 1.692582819796262e+00	 7.817893503025234e+00
 8.976728274100164e-01	 1.701219824964893e+00	 7.775401877854798e+00
 8.814336680190683e-01	 1.709690055772194e+00	 7.735665743065486e+00
 8.651388472741123e-01	 1.717993065428699e+00	 7.696985529766101e+00
 8.487908757358542e-01	 1.726128456167569e+00	 7.657940268975138e+00
 8.323922633885992e-01	 1.734095879060521e+00	 7.617404319646122e+00
 9.968376655834492e-01	 1.651951702157059e+00	 8.128772261813339e+00
 9.809366018006914e-01	 1.661443089917069e+00	 8.041067799499064e+00
 9.649646508474941e-01	 1.670770175817201e+00	 7.968599290073733e+00
 9.489243096185753e-01	 1.679932264229834e+00	 7.908414903581391e+00
 9.328180815591780e-01	 1.688928709123544e+00	 7.857720345212618e+00
 9.166484754590726e-01	 1.697758914046404e+00	 7.813908966927388e+00
 9.004180042522487e-01	 1.706422332074878e+00	 7.774589531467832e+00
 8.841291838234077e-01	 1.714918465728683e+00	 7.737611506337162e+00
 8.677845318223512e-01	 1.723246866852028e+00	 7.701087782647271e+00
 8.513865664873399e-01	 1.731407136461660e+00	 7.663414731365455e+00
 8.349378054784724e-01	 1.739398924562235e+00	 7.623289527272934e+00
 9.998768048077892e-01	 1.656988140273392e+00	 8.108571056525847e+00
 9.839272621720353e-01	 1.666508465191207e+00	 8.023579727946025e+00
 9.679066162464194e-01	 1.675863987328839e+00	 7.954429639767699e+00
 9.518173715381442e-01	 1.685054008937852e+00	 7.897931845021954e+00
 9.356620391249073e-01	 1.694077882017213e+00	 7.851055268987731e+00
 9.194431354452280e-01	 1.702935008296546e+00	 7.810957749853584e+00
 9.031631810944812e-01	 1.711624839184862e+00	 7.775014683689584e+00
 8.868246996277472e-01	 1.720146875685173e+00	 7.740845148384810e+00
 8.704302163705896e-01	 1.728500668275357e+00	 7.706335398880768e+00
 8.539822572388257e-01	 1.736685816755750e+00	 7.669659643997065e+00
 8.374833475683461e-01	 1.744701970063949e+00	 7.629298033284310e+00
 1.002915944032129e+00	 1.662024578389725e+00	 8.087577470636727e+00
 9.869179225433787e-01	 1.671573840465344e+00	 8.005736438753569e+00
 9.708485816453446e-01	 1.680957798840477e+00	 7.940366121214331e+00
 9.547104334577131e-01	 1.690175753645869e+00	 7.888004716656936e+00
 9.385059966906366e-01	 1.699227054910883e+00	 7.845347888407644e+00
 9.222377954313840e-01	 1.708111102546687e+00	 7.809280804081678e+00
 9.059083579367139e-01	 1.716827346294847e+00	 7.776907731052269e+00
 8.895202154320873e-01	 1.725375285641664e+00	 7.745579059388861e+00
 8.730759009188289e-01	 1.733754469698687e+00	 7.712915641878269e+00
 8.565779479903116e-01	 1.741964497049841e+00	 7.676830359069529e+00
 8.400288896582194e-01	 1.750005015565663e+00	 7.635546835773878e+00
 8.145734687594854e-01	 1.696974560548522e+00	 7.569850387052382e+00
 7.984787948508364e-01	 1.704606760906827e+00	 7.512745454729245e+00
 7.823394705047015e-01	 1.712074048645716e+00	 7.458262834011528e+00
 7.661579435662179e-01	 1.719376224293594e+00	 7.403725802073694e+00
 7.499366568811155e-01	 1.726513135143109e+00	 7.346718864025178e+00
 7.336780472208647e-01	 1.733484674919824e+00	 7.285093663340084e+00
 7.173845442231849e-01	 1.740290783422530e+00	 7.216972529434294e+00
 7.010585693487206e-01	 1.746931446135891e+00	 7.140749700826272e+00
 6.847025348547001e-01	 1.753406693816143e+00	 7.055090275428890e+00
 6.683188427863219e-01	 1.759716602050586e+00	 6.958926952021664e+00
 6.519098839866019e-01	 1.765861290791631e+00	 6.851800171885137e+00
 8.171190108493589e-01	 1.702277606050236e+00	 7.578140222660084e+00
 8.009740410847452e-01	 1.709933657034661e+00	 7.525450117699849e+00
 7.847842813500289e-01	 1.717424280047734e+00	 7.475497908366737e+00
 7.685521871398626e-01	 1.724749274994511e+00	 7.425234634061876e+00
 7.522802089338684e-01	 1.731908488690431e+00	 7.371874041604189e+00
 7.359707911184300e-01	 1.738901814528948e+00	 7.312899156962378e+00
 7.196263709238824e-01	 1.745729192120725e+00	 7.246066441016489e+00
 7.032493773779351e-01	 1.752390606905065e+00	 7.169407567685044e+00
 6.868422302761210e-01	 1.758886089734318e+00	 7.081228876149391e+00
 6.704073391700291e-01	 1.765215716431994e+00	 6.980173450963347e+00
 6.539471023740601e-01	 1.771379607325355e+00	 6.876375115419388e+00
 8.196645529392323e-01	 1.707580651551951e+00	 7.585737685132086e+00
 8.034692873186542e-01	 1.715260553162496e+00	 7.536803613108144e+00
 7.872290921953560e-01	 1.722774511449751e+00	 7.490413475353508e+00
 7.709464307135069e-01	 1.730122325695429e+00	 7.443195178272807e+00
 7.546237609866219e-01	 1.737303842237753e+00	 7.392041800176725e+00
 7.382635350159954e-01	 1.744318954138073e+00	 7.334118748897413e+00
 7.218681976245798e-01	 1.751167600818921e+00	 7.266868449474867e+00
 7.054401854071501e-01	 1.757849767674240e+00	 7.188012600276047e+00
 6.889819256975419e-01	 1.764365485652494e+00	 7.095552049599316e+00
 6.724958355537364e-01	 1.770714830813402e+00	 6.996739910000650e+00
 6.559843207615181e-01	 1.776897923859078e+00	 6.901375177584105e+00
 8.222100950291057e-01	 1.712883697053665e+00	 7.592758657163865e+00
 8.059645335525628e-01	 1.720587449290329e+00	 7.546880903849281e+00
 7.896739030406835e-01	 1.728124742851770e+00	 7.503053675866402e+00
 7.733406742871514e-01	 1.735495376396346e+00	 7.457630367232147e+00
 7.569673130393755e-01	 1.742699195785075e+00	 7.407232991713806e+00
 7.405562789135607e-01	 1.749736093747197e+00	 7.348759851347761e+00
 7.241100243252773e-01	 1.756606009517116e+00	 7.279390680210827e+00
 7.076309934363647e-01	 1.763308928443415e+00	 7.196589301966618e+00
 6.911216211189626e-01	 1.769844881570669e+00	 7.104415749699786e+00
 6.745843319374438e-01	 1.776213945194810e+00	 7.014744182953685e+00
 6.580215391489761e-01	 1.782416240392803e+00	 6.926718119477367e+00
 8.247556371189791e-01	 1.718186742555379e+00	 7.599319304136138e+00
 8.084597797864720e-01	 1.725914345418163e+00	 7.555757854095721e+00
 7.921187138860101e-01	 1.733474974253787e+00	 7.513464035801749e+00
 7.757349178607956e-01	 1.740868427097264e+00	 7.468564872951289e+00
 7.593108650921291e-01	 1.748094549332398e+00	 7.417460438624948e+00
 7.428490228111259e-01	 1.755153233356322e+00	 7.356831960160396e+00
 7.263518510259748e-01	 1.762044418215312e+00	 7.283647343583230e+00
 7.098218014655795e-01	 1.768768089212589e+00	 7.198945194296048e+00
 6.932613165403836e-01	 1.775324277488845e+00	 7.115751041783414e+00
 6.766728283211511e-01	 1.781713059576219e+00	 7.034063584703754e+00
 6.600587575364345e-01	 1.787934556926526e+00	 6.952321330171863e+00
 8.273011792088525e-01	 1.723489788057093e+00	 7.605536032657273e+00
 8.109550260203807e-01	 1.731241241545997e+00	 7.563511181643422e+00
 7.945635247313376e-01	 1.738825205655806e+00	 7.521691414170229e+00
 7.781291614344402e-01	 1.746241477798181e+00	 7.476025052680486e+00
 7.616544171448822e-01	 1.753489902879720e+00	 7.422738878935155e+00
 7.451417667086910e-01	 1.760570372965446e+00	 7.358346601113123e+00
 7.285936777266721e-01	 1.767482826913507e+00	 7.281343485092094e+00
 7.120126094947939e-01	 1.774227249981764e+00	 7.204430995693391e+00
 6.954010119618047e-01	 1.780803673407020e+00	 7.129429949068008e+00
 6.787613247048582e-01	 1.787212173957627e+00	 7.054575501390321e+00
 6.620959759238925e-01	 1.793452873460250e+00	 6.978101827848855e+00
 8.298467212987258e-01	 1.728792833558807e+00	 7.611525449317528e+00
 8.134502722542896e-01	 1.736568137673830e+00	 7.570218410607506e+00
 7.970083355766647e-01	 1.744175437057823e+00	 7.527783951665489e+00
 7.805234050080844e-01	 1.751614528499098e+00	 7.480038895189484e+00
 7.639979691976360e-01	 1.758885256427043e+00	 7.423084912020197e+00
 7.474345106062560e-01	 1.765987512574571e+00	 7.353659978551288e+00
 7.308355044273697e-01	 1.772921235611703e+00	 7.282128485423129e+00
 7.142034175240091e-01	 1.779686410750939e+00	 7.213314799744309e+00
 6.975407073832256e-01	 1.786283069325196e+00	 7.145297097236696e+00
 6.808498210885655e-01	 1.792711288339034e+00	 7.076157385575724e+00
 6.641331943113509e-01	 1.798971189993974e+00	 7.003976261105032e+00
 8.323922633885992e-01	 1.734095879060521e+00	 7.617404319646123e+00
 8.159455184881982e-01	 1.741895033801664e+00	 7.575957824462670e+00
 7.994531464219919e-01	 1.749525668459841e+00	 7.531791019678881e+00
 7.829176485817289e-01	 1.756987579200016e+00	 7.480635967560495e+00
 7.663415212503892e-01	 1.764280609974364e+00	 7.418516944897126e+00
 7.497272545038214e-01	 1.771404652183695e+00	 7.351064112988505e+00
 7.330773311280671e-01	 1.778359644309898e+00	 7.287363198204355e+00
 7.163942255532236e-01	 1.785145571520113e+00	 7.225415945648548e+00
 6.996804028046466e-01	 1.791762465243371e+00	 7.163197528116978e+00
 6.829383174722728e-01	 1.798210402720443e+00	 7.098686751703791e+00
 6.661704126988087e-01	 1.804489506527698e+00	 7.029860910428422e+00
 8.349378054784724e-01	 1.739398924562235e+00	 7.623289527272933e+00
 8.184407647221069e-01	 1.747221929929498e+00	 7.580808419421270e+00
 8.018979572673191e-01	 1.754875899861859e+00	 7.533763169752150e+00
 7.853118921553732e-01	 1.762360629900933e+00	 7.477847362486038e+00
 7.686850733031430e-01	 1.769675963521687e+00	 7.413915104313201e+00
 7.520199984013866e-01	 1.776821791792820e+00	 7.353940185250255e+00
 7.353191578287644e-01	 1.783798053008093e+00	 7.296849363572123e+00
 7.185850335824387e-01	 1.790604732289288e+00	 7.240554449073882e+00
 7.018200982260675e-01	 1.797241861161546e+00	 7.182976690743800e+00
 6.850268138559800e-01	 1.803709517101850e+00	 7.122041171848907e+00
 6.682076310862668e-01	 1.810007823061421e+00	 7.055671689843249e+00
 8.374833475683461e-01	 1.744701970063949e+00	 7.629298033284312e+00
 8.209360109560160e-01	 1.752548826057332e+00	 7.584849858138067e+00
 8.043427681126465e-01	 1.760226131263877e+00	 7.533752083456891e+00
 7.877061357290178e-01	 1.767733680601851e+00	 7.473410610721222e+00
 7.710286253558963e-01	 1.775071317069009e+00	 7.415717098842219e+00
 7.543127422989516e-01	 1.782238931401944e+00	 7.362080219544729e+00
 7.375609845294618e-01	 1.789236461706288e+00	 7.310389567467263e+00
 7.207758416116533e-01	 1.796063893058463e+00	 7.258550990287443e+00
 7.039597936474885e-01	 1.802721257079722e+00	 7.204480432802905e+00
 6.871153102396872e-01	 1.809208631483259e+00	 7.146098271746788e+00
 6.702448494737250e-01	 1.815526139595145e+00	 7.081324148714392e+00
 8.400288896582194e-01	 1.750005015565663e+00	 7.635546835773880e+00
 8.234312571899249e-01	 1.757875722185166e+00	 7.588162423741730e+00
 8.067875789579736e-01	 1.765576362665894e+00	 7.531943190288624e+00
 7.901003793026624e-01	 1.773106731302769e+00	 7.475273044053788e+00
 7.733721774086499e-01	 1.780466670616331e+00	 7.423749121528508e+00
 7.566054861965167e-01	 1.787656071011068e+00	 7.375277162851438e+00
 7.398028112301595e-01	 1.794674870404484e+00	 7.327787228308840e+00
 7.229666496408680e-01	 1.801523053827638e+00	 7.279226902731844e+00
 7.060994890689095e-01	 1.808200652997897e+00	 7.227554992448157e+00
 6.892038066233945e-01	 1.814707745864667e+00	 7.170735727103821e+00
 6.722820678611832e-01	 1.821044456128869e+00	 7.106733473714248e+00
 6.519098839866019e-01	 1.765861290791631e+00	 6.851800171885134e+00
 6.354780371253717e-01	 1.771840923866190e+00	 6.743541222108595e+00
 6.190256677480839e-01	 1.777655708461216e+00	 6.638233193909441e+00
 6.025551273450480e-01	 1.783305894586205e+00	 6.535976329010527e+00
 5.860687524416829e-01	 1.788791774513500e+00	 6.436799463907025e+00
 5.695688637103334e-01	 1.794113682197265e+00	 6.337937958438471e+00
 5.530577651041658e-01	 1.799271992671951e+00	 6.237979693615707e+00
 5.365377430136212e-01	 1.804267121431180e+00	 6.137149916853326e+00
 5.200110654458635e-01	 1.809099523787889e+00	 6.035460999652408e+00
 5.034799812276319e-01	 1.813769694216643e+00	 5.932727431699554e+00
 4.869467192318582e-01	 1.818278165679014e+00	 5.828580334684206e+00
 6.539471023740601e-01	 1.771379607325355e+00	 6.876375115419388e+00
 6.374639059913886e-01	 1.777377926753272e+00	 6.775295875390156e+00
 6.209601229597967e-01	 1.783210882550158e+00	 6.674918892989854e+00
 6.044381121180012e-01	 1.788878725506786e+00	 6.575625850532566e+00
 5.879002172930631e-01	 1.794381748808856e+00	 6.477770923021446e+00
 5.713487664094282e-01	 1.799720287454131e+00	 6.379296187173925e+00
 5.547860706201166e-01	 1.804894717649051e+00	 6.278549425548077e+00
 5.382144234605387e-01	 1.809905456185653e+00	 6.176019824361034e+00
 5.216361000253820e-01	 1.814752959799727e+00	 6.071985154872376e+00
 5.050533561689683e-01	 1.819437724511070e+00	 5.966526521615586e+00
 4.884684277294575e-01	 1.823960284946760e+00	 5.859542621982877e+00
 6.559843207615181e-01	 1.776897923859078e+00	 6.901375177584105e+00
 6.394497748574052e-01	 1.782914929640353e+00	 6.806545580321608e+00
 6.228945781715093e-01	 1.788766056639099e+00	 6.710412741010749e+00
 6.063210968909544e-01	 1.794451556427368e+00	 6.613615342790608e+00
 5.897316821444437e-01	 1.799971723104210e+00	 6.516769028954764e+00
 5.731286691085230e-01	 1.805326892710998e+00	 6.418559922790011e+00
 5.565143761360669e-01	 1.810517442626151e+00	 6.317075520543074e+00
 5.398911039074561e-01	 1.815543790940125e+00	 6.213023359139697e+00
 5.232611346049001e-01	 1.820406395811563e+00	 6.106919986593072e+00
 5.066267311103044e-01	 1.825105754805497e+00	 5.999086248841627e+00
 4.899901362270572e-01	 1.829642404214508e+00	 5.889661333779999e+00
 6.580215391489761e-01	 1.782416240392803e+00	 6.926718119477367e+00
 6.414356437234223e-01	 1.788451932527436e+00	 6.837248483952898e+00
 6.248290333832218e-01	 1.794321230728040e+00	 6.744706884954120e+00
 6.082040816639077e-01	 1.800024387347950e+00	 6.649964802276225e+00
 5.915631469958239e-01	 1.805561697399565e+00	 6.553873677716498e+00
 5.749085718076180e-01	 1.810933497967864e+00	 6.455786590238921e+00
 5.582426816520174e-01	 1.816140167603250e+00	 6.353624199527197e+00
 5.415677843543740e-01	 1.821182125694598e+00	 6.248230317227631e+00
 5.248861691844185e-01	 1.826059831823400e+00	 6.140333891562967e+00
 5.082001060516409e-01	 1.830773785099924e+00	 6.030468885017333e+00
 4.915118447246568e-01	 1.835324523482255e+00	 5.918988141276625e+00
 6.600587575364345e-01	 1.787934556926526e+00	 6.952321330171863e+00
 6.434215125894387e-01	 1.793988935414518e+00	 6.867361916576785e+00
 6.267634885949348e-01	 1.799876404816982e+00	 6.777792291090233e+00
 6.100870664368611e-01	 1.805597218268532e+00	 6.684692758605696e+00
 5.933946118472040e-01	 1.811151671694919e+00	 6.589126095904846e+00
 5.766884745067128e-01	 1.816540103224731e+00	 6.491032129434163e+00
 5.599709871679679e-01	 1.821762892580351e+00	 6.388260158525757e+00
 5.432444648012913e-01	 1.826820460449071e+00	 6.281708991180891e+00
 5.265112037639368e-01	 1.831713267835238e+00	 6.172293842630566e+00
 5.097734809929771e-01	 1.836441815394351e+00	 6.060735412502098e+00
 4.930335532222563e-01	 1.841006642750002e+00	 5.947573612918720e+00
 6.620959759238925e-01	 1.793452873460250e+00	 6.978101827848858e+00
 6.454073814554554e-01	 1.799525938301599e+00	 6.896842399128850e+00
 6.286979438066475e-01	 1.805431578905923e+00	 6.809658757459917e+00
 6.119700512098144e-01	 1.811170049189114e+00	 6.717816290939572e+00
 5.952260766985842e-01	 1.816741645990274e+00	 6.622564879022796e+00
 5.784683772058072e-01	 1.822146708481597e+00	 6.524351004560751e+00
 5.616992926839184e-01	 1.827385617557450e+00	 6.421046579661606e+00
 5.449211452482089e-01	 1.832458795203544e+00	 6.313526181765891e+00
 5.281362383434551e-01	 1.837366703847075e+00	 6.202865400184577e+00
 5.113468559343136e-01	 1.842109845688778e+00	 6.089945534663966e+00
 4.945552617198558e-01	 1.846688762017748e+00	 5.975467222686935e+00
 6.641331943113509e-01	 1.798971189993974e+00	 7.003976261105035e+00
 6.473932503214725e-01	 1.805062941188682e+00	 6.925645650636536e+00
 6.306323990183601e-01	 1.810986752994864e+00	 6.840294926298979e+00
 6.138530359827675e-01	 1.816742880109696e+00	 6.749351044263543e+00
 5.970575415499645e-01	 1.822331620285628e+00	 6.654226982617132e+00
 5.802482799049020e-01	 1.827753313738464e+00	 6.555796213137596e+00
 5.634275981998692e-01	 1.833008342534551e+00	 6.452045141878342e+00
 5.465978256951266e-01	 1.838097129958015e+00	 6.343747209369086e+00
 5.297612729229736e-01	 1.843020139858912e+00	 6.232112723320419e+00
 5.129202308756500e-01	 1.847777875983204e+00	 6.118157685923327e+00
 4.960769702174553e-01	 1.852370881285496e+00	 6.002717358182712e+00
 6.661704126988087e-01	 1.804489506527698e+00	 7.029860910428422e+00
 6.493791191874889e-01	 1.810599944075762e+00	 6.953726595712791e+00
 6.325668542300731e-01	 1.816541927083804e+00	 6.869688296402066e+00
 6.157360207557208e-01	 1.822315711030277e+00	 6.779311245525690e+00
 5.988890064013449e-01	 1.827921594580984e+00	 6.684147741133865e+00
 5.820281826039970e-01	 1.833359918995330e+00	 6.585419294831720e+00
 5.651559037158194e-01	 1.838631067511650e+00	 6.481316031392243e+00
 5.482745061420441e-01	 1.843735464712488e+00	 6.372435925128450e+00
 5.313863075024918e-01	 1.848673575870748e+00	 6.260098580742217e+00
 5.144936058169861e-01	 1.853445906277631e+00	 6.145429041556351e+00
 4.975986787150550e-01	 1.858053000553242e+00	 6.029371328514980e+00
 6.682076310862668e-01	 1.810007823061421e+00	 7.055671689843249e+00
 6.513649880535061e-01	 1.816136946962845e+00	 6.981039372091033e+00
 6.345013094417857e-01	 1.822097101172747e+00	 6.897825235432732e+00
 6.176190055286741e-01	 1.827888541950859e+00	 6.807709719637741e+00
 6.007204712527251e-01	 1.833511568876338e+00	 6.712360886578737e+00
 5.838080853030918e-01	 1.838966524252198e+00	 6.613270340034671e+00
 5.668842092317701e-01	 1.844253792488750e+00	 6.508917951882825e+00
 5.499511865889616e-01	 1.849373799466959e+00	 6.399654721798270e+00
 5.330113420820102e-01	 1.854327011882586e+00	 6.286884361401178e+00
 5.160669807583225e-01	 1.859113936572058e+00	 6.171815527262800e+00
 4.991203872126544e-01	 1.863735119820989e+00	 6.055475371991029e+00
 6.702448494737250e-01	 1.815526139595145e+00	 7.081324148714389e+00
 6.533508569195227e-01	 1.821673949849926e+00	 7.007537338207801e+00
 6.364357646534984e-01	 1.827652275261688e+00	 6.924690992174958e+00
 6.195019903016272e-01	 1.833461372871441e+00	 6.834557905341619e+00
 6.025519361041054e-01	 1.839101543171693e+00	 6.738898566981167e+00
 5.855879880021866e-01	 1.844573129509063e+00	 6.639397998202546e+00
 5.686125147477205e-01	 1.849876517465850e+00	 6.534908134423556e+00
 5.516278670358792e-01	 1.855012134221432e+00	 6.425464544344974e+00
 5.346363766615286e-01	 1.859980447894424e+00	 6.312530084883853e+00
 5.176403556996588e-01	 1.864781966866486e+00	 6.197371828504300e+00
 5.006420957102541e-01	 1.869417239088736e+00	 6.081074663618347e+00
 6.722820678611832e-01	 1.821044456128869e+00	 7.106733473714245e+00
 6.553367257855396e-01	 1.827210952737009e+00	 7.033173080822914e+00
 6.383702198652114e-01	 1.833207449350629e+00	 6.950269708730950e+00
 6.213849750745807e-01	 1.839034203792023e+00	 6.859865870944287e+00
 6.043834009554857e-01	 1.844691517467048e+00	 6.763791364669971e+00
 5.873678907012815e-01	 1.850179734765929e+00	 6.663849485967181e+00
 5.703408202636711e-01	 1.855499242442950e+00	 6.559342347160481e+00
 5.533045474827969e-01	 1.860650468975905e+00	 6.449924900288467e+00
 5.362614112410468e-01	 1.865633883906261e+00	 6.337094411545936e+00
 5.192137306409953e-01	 1.870449997160913e+00	 6.222151399617401e+00
 5.021638042078537e-01	 1.875099358356483e+00	 6.106213322417463e+00
 4.869467192318582e-01	 1.818278165679014e+00	 5.828580334684206e+00
 4.704134876283912e-01	 1.822625508932925e+00	 5.721635527157480e+00
 4.538824731591111e-01	 1.826812331826857e+00	 5.611841560324314e+00
 4.373558404377053e-01	 1.830839278579837e+00	 5.500593506025660e+00
 4.208357312743257e-01	 1.834707029048102e+00	 5.389152664465135e+00
 4.043242640253161e-01	 1.838416297979349e+00	 5.278655772205756e+00
 3.878235329681681e-01	 1.841967834255473e+00	 5.170123752569039e+00
 3.713356077018260e-01	 1.845362420124683e+00	 5.064470015142929e+00
 3.548625325724281e-01	 1.848600870423898e+00	 4.962508313367585e+00
 3.384063261245429e-01	 1.851684031792303e+00	 4.864960171195582e+00
 3.219689805779190e-01	 1.854612781876941e+00	 4.772461891634440e+00
 4.884684277294575e-01	 1.823960284946760e+00	 5.859542621982877e+00
 4.718835297772298e-01	 1.828321213648340e+00	 5.749965746102673e+00
 4.553008558877332e-01	 1.832521120363816e+00	 5.637869884867647e+00
 4.387225774390733e-01	 1.836560651325399e+00	 5.524630414819191e+00
 4.221508429345579e-01	 1.840440488513877e+00	 5.411487321023994e+00
 4.055877773503952e-01	 1.844161348910534e+00	 5.299554517404042e+00
 3.890354815086935e-01	 1.847723983737521e+00	 5.189828699582948e+00
 3.724960314758940e-01	 1.851129177687573e+00	 5.083197737390472e+00
 3.559714779867171e-01	 1.854377748143972e+00	 4.980448616471477e+00
 3.394638458936821e-01	 1.857470544391654e+00	 4.882274940494506e+00
 3.229751336422248e-01	 1.860408446820306e+00	 4.789284007295380e+00
 4.899901362270572e-01	 1.829642404214508e+00	 5.889661333779999e+00
 4.733535719260686e-01	 1.834016918363756e+00	 5.777848102528916e+00
 4.567192386163555e-01	 1.838229908900775e+00	 5.663815579868226e+00
 4.400893144404410e-01	 1.842282024070961e+00	 5.548915613205443e+00
 4.234659545947901e-01	 1.846173947979653e+00	 5.434363232934513e+00
 4.068512906754743e-01	 1.849906399841720e+00	 5.321246085761168e+00
 3.902474300492189e-01	 1.853480133219569e+00	 5.210533390234508e+00
 3.736564552499623e-01	 1.856895935250462e+00	 5.103084422092012e+00
 3.570804234010058e-01	 1.860154625864047e+00	 4.999656539348917e+00
 3.405213656628213e-01	 1.863257056991005e+00	 4.900912759149943e+00
 3.239812867065308e-01	 1.866204111763672e+00	 4.807428900257498e+00
 4.915118447246568e-01	 1.835324523482255e+00	 5.918988141276625e+00
 4.748236140749074e-01	 1.839712623079171e+00	 5.805322048497341e+00
 4.581376213449777e-01	 1.843938697437733e+00	 5.689706965209822e+00
 4.414560514418088e-01	 1.848003396816523e+00	 5.573467401007309e+00
 4.247810662550225e-01	 1.851907407445428e+00	 5.457789816966018e+00
 4.081148040005534e-01	 1.855651450772906e+00	 5.343732172589863e+00
 3.914593785897446e-01	 1.859236282701618e+00	 5.232232984243824e+00
 3.748168790240302e-01	 1.862662692813351e+00	 5.124119903146993e+00
 3.581893688152946e-01	 1.865931503584121e+00	 5.020117823371259e+00
 3.415788854319605e-01	 1.869043569590356e+00	 4.920856532395498e+00
 3.249874397708369e-01	 1.871999776707037e+00	 4.826877918653773e+00
 4.930335532222563e-01	 1.841006642750002e+00	 5.947573612918720e+00
 4.762936562237463e-01	 1.845408327794587e+00	 5.832426136459359e+00
 4.595560040736000e-01	 1.849647485974693e+00	 5.715571647525453e+00
 4.428227884431767e-01	 1.853724769562085e+00	 5.598303534079679e+00
 4.260961779152547e-01	 1.857640866911203e+00	 5.481776097845206e+00
 4.093783173256325e-01	 1.861396501704091e+00	 5.367014215478028e+00
 3.926713271302700e-01	 1.864992432183667e+00	 5.254922500078203e+00
 3.759773027980987e-01	 1.868429450376242e+00	 5.146293971614233e+00
 3.592983142295834e-01	 1.871708381304196e+00	 5.041818247223361e+00
 3.426364052010996e-01	 1.874830082189707e+00	 4.942089264497572e+00
 3.259935928351429e-01	 1.877795441650403e+00	 4.847612552769865e+00
 4.945552617198558e-01	 1.846688762017748e+00	 5.975467222686935e+00
 4.777636983725848e-01	 1.851104032510001e+00	 5.859198025240892e+00
 4.609743868022222e-01	 1.855356274511652e+00	 5.741436524087263e+00
 4.441895254445446e-01	 1.859446142307647e+00	 5.623441226310974e+00
 4.274112895754871e-01	 1.863374326376978e+00	 5.506330708593811e+00
 4.106418306507116e-01	 1.867141552635277e+00	 5.391093393182283e+00
 3.938832756707956e-01	 1.870748581665714e+00	 5.278596812632487e+00
 3.771377265721667e-01	 1.874196207939130e+00	 5.169596372410180e+00
 3.604072596438724e-01	 1.877485259024271e+00	 5.064743622857172e+00
 3.436939249702389e-01	 1.880616594789058e+00	 4.964594054203005e+00
 3.269997458994488e-01	 1.883591106593768e+00	 4.869614430235824e+00
 4.960769702174553e-01	 1.852370881285496e+00	 6.002717358182712e+00
 4.792337405214234e-01	 1.856799737225417e+00	 5.885674485869156e+00
 4.623927695308443e-01	 1.861065063048611e+00	 5.767327786576435e+00
 4.455562624459123e-01	 1.865167515053208e+00	 5.648897151551429e+00
 4.287264012357193e-01	 1.869107785842754e+00	 5.531461890823877e+00
 4.119053439757906e-01	 1.872886603566462e+00	 5.415970624512759e+00
 3.950952242113211e-01	 1.876504731147763e+00	 5.303250650923879e+00
 3.782981503462350e-01	 1.879962965502020e+00	 5.194016801043627e+00
 3.615162050581612e-01	 1.883262136744345e+00	 5.088879791498377e+00
 3.447514447393781e-01	 1.886403107388409e+00	 4.988354090255035e+00
 3.280058989637548e-01	 1.889386771537133e+00	 4.892865311287893e+00
 4.975986787150550e-01	 1.858053000553242e+00	 6.029371328514980e+00
 4.807037826702621e-01	 1.862495441940832e+00	 5.911891407248357e+00
 4.638111522594666e-01	 1.866773851585569e+00	 5.793270924747667e+00
 4.469229994472801e-01	 1.870888887798771e+00	 5.674687445468186e+00
 4.300415128959517e-01	 1.874841245308529e+00	 5.557177494996989e+00
 4.131688573008698e-01	 1.878631654497647e+00	 5.441646567208545e+00
 3.963071727518467e-01	 1.882260880629812e+00	 5.328878595804660e+00
 3.794585741203033e-01	 1.885729723064910e+00	 5.219544900386927e+00
 3.626251504724500e-01	 1.889039014464420e+00	 5.114212619704752e+00
 3.458089645085172e-01	 1.892189619987759e+00	 5.013352646971143e+00
 3.290120520280608e-01	 1.895182436480499e+00	 4.917347084104025e+00
 4.991203872126544e-01	 1.863735119820989e+00	 6.055475371991029e+00
 4.821738248191010e-01	 1.868191146656248e+00	 5.937883801683397e+00
 4.652295349880887e-01	 1.872482640122528e+00	 5.819290729980870e+00
 4.482897364486481e-01	 1.876610260544333e+00	 5.700827707328351e+00
 4.313566245561838e-01	 1.880574704774304e+00	 5.583484980642544e+00
 4.144323706259490e-01	 1.884376705428833e+00	 5.468121616802146e+00
 3.975191212923722e-01	 1.888017030111859e+00	 5.355475077688141e+00
 3.806189978943715e-01	 1.891496480627799e+00	 5.246170257484109e+00
 3.637340958867388e-01	 1.894815892184495e+00	 5.140727995478584e+00
 3.468664842776565e-01	 1.897976132587111e+00	 5.039573079886559e+00
 3.300182050923668e-01	 1.900978101423864e+00	 4.943041760207922e+00
 5.006420957102541e-01	 1.869417239088736e+00	 6.081074663618347e+00
 4.836438669679397e-01	 1.873886851371663e+00	 5.963685810257344e+00
 4.666479177167111e-01	 1.878191428659487e+00	 5.845411298729731e+00
 4.496564734500158e-01	 1.882331633289895e+00	 5.727333001712790e+00
 4.326717362164161e-01	 1.886308164240080e+00	 5.610391416539874e+00
 4.156958839510281e-01	 1.890121756360019e+00	 5.495395905477033e+00
 3.987310698328977e-01	 1.893773179593908e+00	 5.383034374289947e+00
 3.817794216684396e-01	 1.897263238190689e+00	 5.273882400391630e+00
 3.648430413010276e-01	 1.900592769904570e+00	 5.168411824426055e+00
 3.479240040467956e-01	 1.903762645186461e+00	 5.066998821456172e+00
 3.310243581566727e-01	 1.906773766367229e+00	 4.969931469942418e+00
 5.021638042078537e-01	 1.875099358356483e+00	 6.106213322417463e+00
 4.851139091167784e-01	 1.879582556087078e+00	 5.989330708066099e+00
 4.680663004453334e-01	 1.883900217196447e+00	 5.871656035864402e+00
 4.510232104513837e-01	 1.888053006035457e+00	 5.754217860162260e+00
 4.339868478766484e-01	 1.892041623705855e+00	 5.637903480864511e+00
 4.169593972761071e-01	 1.895866807291204e+00	 5.523469300915056e+00
 3.999430183734233e-01	 1.899529329075957e+00	 5.411550608385568e+00
 3.829398454425080e-01	 1.903029995753579e+00	 5.302670795055137e+00
 3.659519867153165e-01	 1.906369647624645e+00	 5.197250025970162e+00
 3.489815238159348e-01	 1.909549157785813e+00	 5.095613376819118e+00
 3.320305112209788e-01	 1.912569431310596e+00	 4.997998458007658e+00
 3.219689805779190e-01	 1.854612781876941e+00	 4.772461891634440e+00
 3.055524613297486e-01	 1.857388028531206e+00	 4.684364502141559e+00
 2.891587064823972e-01	 1.860010709007111e+00	 4.600237812724220e+00
 2.727896263965396e-01	 1.862481789142150e+00	 4.520939325291135e+00
 2.564471032696041e-01	 1.864802262541619e+00	 4.447267662804712e+00
 2.401329907393945e-01	 1.866973149757185e+00	 4.379967138864086e+00
 2.238491135127477e-01	 1.868995497462545e+00	 4.319732023407205e+00
 2.075972670190405e-01	 1.870870377626931e+00	 4.267210524582238e+00
 1.913792170883490e-01	 1.872598886687259e+00	 4.223008506985170e+00
 1.751966996540282e-01	 1.874182144719676e+00	 4.187692966446118e+00
 1.590514204794655e-01	 1.875621294611248e+00	 4.161795281391099e+00
 3.229751336422248e-01	 1.860408446820306e+00	 4.789284007295380e+00
 3.065073127714042e-01	 1.863192366120367e+00	 4.700844706034136e+00
 2.900623274401546e-01	 1.865823242472758e+00	 4.616557083054031e+00
 2.736420939790289e-01	 1.868302044733220e+00	 4.537268886030136e+00
 2.572485004673217e-01	 1.870629769612061e+00	 4.463770897590661e+00
 2.408834063354551e-01	 1.872807440850176e+00	 4.396801448741161e+00
 2.245486419924750e-01	 1.874836108392115e+00	 4.337050622499783e+00
 2.082460084784750e-01	 1.876716847557015e+00	 4.285164168517948e+00
 1.919772771417501e-01	 1.878450758208156e+00	 4.241747149609444e+00
 1.757441893404470e-01	 1.880038963921925e+00	 4.207367341079205e+00
 1.595484561684638e-01	 1.881482611156909e+00	 4.182558403557475e+00
 3.239812867065308e-01	 1.866204111763672e+00	 4.807428900257498e+00
 3.074621642130596e-01	 1.868996703709527e+00	 4.718605489025984e+00
 2.909659483979121e-01	 1.871635775938406e+00	 4.634088929466778e+00
 2.744945615615181e-01	 1.874122300324289e+00	 4.554718420076064e+00
 2.580498976650390e-01	 1.876457276682503e+00	 4.481278128038362e+00
 2.416338219315157e-01	 1.878641731943167e+00	 4.414501643184974e+00
 2.252481704722023e-01	 1.880676719321686e+00	 4.355076116232480e+00
 2.088947499379096e-01	 1.882563317487099e+00	 4.303646102828586e+00
 1.925753371951511e-01	 1.884302629729054e+00	 4.260817135061018e+00
 1.762916790268658e-01	 1.885895783124174e+00	 4.227159042041942e+00
 1.600454918574622e-01	 1.887343927702568e+00	 4.203209040973642e+00
 3.249874397708369e-01	 1.871999776707037e+00	 4.826877918653773e+00
 3.084170156547151e-01	 1.874801041298687e+00	 4.737627279019827e+00
 2.918695693556695e-01	 1.877448309404053e+00	 4.652812835513635e+00
 2.753470291440072e-01	 1.879942555915358e+00	 4.573266436955458e+00
 2.588512948627565e-01	 1.882284783752946e+00	 4.499766854949745e+00
 2.423842375275763e-01	 1.884476023036158e+00	 4.433044175030234e+00
 2.259476989519296e-01	 1.886517330251257e+00	 4.373783866142067e+00
 2.095434913973441e-01	 1.888409787417183e+00	 4.322630550751432e+00
 1.931733972485522e-01	 1.890154501249952e+00	 4.280191497989137e+00
 1.768391687132846e-01	 1.891752602326423e+00	 4.247039862171203e+00
 1.605425275464605e-01	 1.893205244248228e+00	 4.223717688815276e+00
 3.259935928351429e-01	 1.877795441650403e+00	 4.847612552769865e+00
 3.093718670963704e-01	 1.880605378887847e+00	 4.757890678655111e+00
 2.927731903134270e-01	 1.883260842869700e+00	 4.672708489827825e+00
 2.761994967264965e-01	 1.885762811506427e+00	 4.592891679606448e+00
 2.596526920604740e-01	 1.888112290823388e+00	 4.519214839072305e+00
 2.431346531236369e-01	 1.890310314129150e+00	 4.452405782021016e+00
 2.266472274316570e-01	 1.892357941180827e+00	 4.393149542293273e+00
 2.101922328567786e-01	 1.894256257347268e+00	 4.342092066553806e+00
 1.937714573019533e-01	 1.896006372770849e+00	 4.299843625687218e+00
 1.773866583997036e-01	 1.897609421528672e+00	 4.266981967899892e+00
 1.610395632354588e-01	 1.899066560793888e+00	 4.244055236373131e+00
 3.269997458994488e-01	 1.883591106593768e+00	 4.869614430235824e+00
 3.103267185380260e-01	 1.886409716477006e+00	 4.779376460361278e+00
 2.936768112711845e-01	 1.889073376335347e+00	 4.693755781039582e+00
 2.770519643089856e-01	 1.891583067097496e+00	 4.613573119149917e+00
 2.604540892581916e-01	 1.893939797893831e+00	 4.539600095721505e+00
 2.438850687196975e-01	 1.896144605222141e+00	 4.472563481276965e+00
 2.273467559113843e-01	 1.898198552110397e+00	 4.413149117581665e+00
 2.108409743162130e-01	 1.900102727277351e+00	 4.362005529661555e+00
 1.943695173553544e-01	 1.901858244291747e+00	 4.319747252033175e+00
 1.779341480861223e-01	 1.903466240730921e+00	 4.286957892998148e+00
 1.615365989244571e-01	 1.904927877339549e+00	 4.264192960579569e+00
 3.280058989637548e-01	 1.889386771537133e+00	 4.892865311287893e+00
 3.112815699796813e-01	 1.892214054066166e+00	 4.802065561490446e+00
 2.945804322289421e-01	 1.894885909800994e+00	 4.715934792775649e+00
 2.779044318914748e-01	 1.897403322688565e+00	 4.635289949750366e+00
 2.612554864559091e-01	 1.899767304964274e+00	 4.560900889496698e+00
 2.446354843157582e-01	 1.901978896315132e+00	 4.493494563856645e+00
 2.280462843911116e-01	 1.904039163039968e+00	 4.433758862134976e+00
 2.114897157756475e-01	 1.905949197207436e+00	 4.382346138888379e+00
 1.949675774087555e-01	 1.907710115812645e+00	 4.339876451538080e+00
 1.784816377725412e-01	 1.909323059933170e+00	 4.306940532426668e+00
 1.620336346134555e-01	 1.910789193885209e+00	 4.284102519655837e+00
 3.290120520280608e-01	 1.895182436480499e+00	 4.917347084104025e+00
 3.122364214213368e-01	 1.898018391655326e+00	 4.825939079526297e+00
 2.954840531866994e-01	 1.900698443266642e+00	 4.739225798736829e+00
 2.787568994739640e-01	 1.903223578279635e+00	 4.658021583558725e+00
 2.620568836536266e-01	 1.905594812034716e+00	 4.583095729083430e+00
 2.453858999118187e-01	 1.907813187408123e+00	 4.515176589412507e+00
 2.287458128708390e-01	 1.909879773969538e+00	 4.454955337811989e+00
 2.121384572350820e-01	 1.911795667137519e+00	 4.403089406769926e+00
 1.955656374621566e-01	 1.913561987333542e+00	 4.360205633500096e+00
 1.790291274589600e-01	 1.915179879135419e+00	 4.326903136301634e+00
 1.625306703024538e-01	 1.916650510430869e+00	 4.303755946871856e+00
 3.300182050923668e-01	 1.900978101423864e+00	 4.943041760207922e+00
 3.131912728629924e-01	 1.903822729244487e+00	 4.850978267365608e+00
 2.963876741444569e-01	 1.906510976732289e+00	 4.763609257855338e+00
 2.796093670564532e-01	 1.909043833870704e+00	 4.681747645739803e+00
 2.628582808513442e-01	 1.911422319105159e+00	 4.606163362145017e+00
 2.461363155078793e-01	 1.913647478501114e+00	 4.537587380938199e+00
 2.294453413505663e-01	 1.915720384899108e+00	 4.476715392796519e+00
 2.127871986945166e-01	 1.917642137067604e+00	 4.424211153992434e+00
 1.961636975155577e-01	 1.919413858854440e+00	 4.380709536262223e+00
 1.795766171453789e-01	 1.921036698337667e+00	 4.346819303965719e+00
 1.630277059914521e-01	 1.922511826976529e+00	 4.323125644416116e+00
 3.310243581566727e-01	 1.906773766367229e+00	 4.969931469942418e+00
 3.141461243046477e-01	 1.909627066833647e+00	 4.877164528673834e+00
 2.972912951022145e-01	 1.912323510197936e+00	 4.789065809529779e+00
 2.804618346389424e-01	 1.914864089461773e+00	 4.706447969581083e+00
 2.636596780490617e-01	 1.917249826175601e+00	 4.630082770297732e+00
 2.468867311039399e-01	 1.919481769594106e+00	 4.560705019603799e+00
 2.301448698302936e-01	 1.921560995828679e+00	 4.499016156284993e+00
 2.134359401539510e-01	 1.923488606997688e+00	 4.445687503924488e+00
 1.967617575689588e-01	 1.925265730375338e+00	 4.401363221571878e+00
 1.801241068317978e-01	 1.926893517539917e+00	 4.366662978165222e+00
 1.635247416804504e-01	 1.928373143522189e+00	 4.342184377380552e+00
 3.320305112209788e-01	 1.912569431310596e+00	 4.997998458007658e+00
 3.151009757463032e-01	 1.915431404422807e+00	 4.904479413311652e+00
 2.981949160599721e-01	 1.918136043663583e+00	 4.815576268932691e+00
 2.813143022214316e-01	 1.920684345052843e+00	 4.732102591678474e+00
 2.644610752467792e-01	 1.923077333246044e+00	 4.654833164169920e+00
 2.476371467000006e-01	 1.925316060687097e+00	 4.584507839679762e+00
 2.308443983100210e-01	 1.927401606758250e+00	 4.521835033264731e+00
 2.140846816133856e-01	 1.929335076927772e+00	 4.467494877239105e+00
 1.973598176223599e-01	 1.931117601896235e+00	 4.422142069038610e+00
 1.806715965182165e-01	 1.932750336742166e+00	 4.386408439330999e+00
 1.640217773694488e-01	 1.934234460067850e+00	 4.360905267847754e+00
 1.590514204794655e-01	 1.875621294611248e+00	 4.161795281391099e+00
 1.429450549087353e-01	 1.876917501232499e+00	 4.144920723893708e+00
 1.268792476408540e-01	 1.878071950611531e+00	 4.135680905218980e+00
 1.108556125273319e-01	 1.879085849110386e+00	 4.133070539137533e+00
 9.487573239268093e-02	 1.879960422604333e+00	 4.136059639671662e+00
 7.894115887752898e-02	 1.880696915664718e+00	 4.143598006580945e+00
 6.305341230397306e-02	 1.881296590746003e+00	 4.154619539916061e+00
 4.721398156278542e-02	 1.881760727377607e+00	 4.168046397874551e+00
 3.142432402207383e-02	 1.882090621361114e+00	 4.182793011366059e+00
 1.568586545698147e-02	 1.882287583973441e+00	 4.197769967814113e+00
 0.000000000000000e+00	 1.882352941176471e+00	 4.211887775805922e+00
 1.595484561684638e-01	 1.881482611156909e+00	 4.182558403557475e+00
 1.433917582053251e-01	 1.882782868423850e+00	 4.166807589776083e+00
 1.272757452897317e-01	 1.883940925457192e+00	 4.158671113146319e+00
 1.112020363164798e-01	 1.884957992388856e+00	 4.157238395454612e+00
 9.517221905640809e-02	 1.885835298924971e+00	 4.161570652211819e+00
 7.918784999902129e-02	 1.886574093526170e+00	 4.170705308126148e+00
 6.325045421742297e-02	 1.887175642592084e+00	 4.183660247492414e+00
 4.736152525516914e-02	 1.887641229650662e+00	 4.199437914041899e+00
 3.152252503464280e-02	 1.887972154552868e+00	 4.217029273932829e+00
 1.573488378653453e-02	 1.888169732673358e+00	 4.235417654646081e+00
 0.000000000000000e+00	 1.888235294117647e+00	 4.253582471597755e+00
 1.600454918574622e-01	 1.887343927702568e+00	 4.203209040973642e+00
 1.438384615019149e-01	 1.888648235615202e+00	 4.188327810671794e+00
 1.276722429386093e-01	 1.889809900302853e+00	 4.181038788895082e+00
 1.115484601056277e-01	 1.890830135667326e+00	 4.180573916866718e+00
 9.546870572013516e-02	 1.891710175245610e+00	 4.186133078061276e+00
 7.943454112051354e-02	 1.892451271387622e+00	 4.196888391002047e+00
 6.344749613087287e-02	 1.893054694438166e+00	 4.211988344662308e+00
 4.750906894755283e-02	 1.893521731923716e+00	 4.230561791351453e+00
 3.162072604721178e-02	 1.893853687744621e+00	 4.251721811064916e+00
 1.578390211608760e-02	 1.894051881373275e+00	 4.274569460320630e+00
 0.000000000000000e+00	 1.894117647058823e+00	 4.298197417500925e+00
 1.605425275464605e-01	 1.893205244248228e+00	 4.223717688815276e+00
 1.442851647985047e-01	 1.894513602806554e+00	 4.209452409562097e+00
 1.280687405874870e-01	 1.895678875148514e+00	 4.202758893179182e+00
 1.118948838947757e-01	 1.896702278945796e+00	 4.203058966192502e+00
 9.576519238386233e-02	 1.897585051566249e+00	 4.209738203975175e+00
 7.968123224200580e-02	 1.898328449249074e+00	 4.222150048422973e+00
 6.364453804432281e-02	 1.898933746284247e+00	 4.239619777751123e+00
 4.765661263993654e-02	 1.899402234196772e+00	 4.261448343660682e+00
 3.171892705978076e-02	 1.899735220936375e+00	 4.286916090175422e+00
 1.583292044564067e-02	 1.899934030073192e+00	 4.315286367446479e+00
 0.000000000000000e+00	 1.900000000000000e+00	 4.345809052773619e+00
 1.610395632354588e-01	 1.899066560793888e+00	 4.244055236373131e+00
 1.447318680950944e-01	 1.900378969997905e+00	 4.230152800599636e+00
 1.284652382363647e-01	 1.901547849994175e+00	 4.223806732119041e+00
 1.122413076839236e-01	 1.902574422224266e+00	 4.224675668770622e+00
 9.606167904758946e-02	 1.903459927886887e+00	 4.232377464885809e+00
 7.992792336349808e-02	 1.904205627110527e+00	 4.246493081606229e+00
 6.384157995777272e-02	 1.904812798130328e+00	 4.266570340662803e+00
 4.780415633232026e-02	 1.905282736469826e+00	 4.292127557264572e+00
 3.181712807234974e-02	 1.905616754128128e+00	 4.322657066737917e+00
 1.588193877519374e-02	 1.905816178773109e+00	 4.357628658512902e+00
 0.000000000000000e+00	 1.905882352941177e+00	 4.396492929947388e+00
 1.615365989244571e-01	 1.904927877339549e+00	 4.264192960579569e+00
 1.451785713916842e-01	 1.906244337189257e+00	 4.250400782765815e+00
 1.288617358852424e-01	 1.907416824839836e+00	 4.244157951670650e+00
 1.125877314730715e-01	 1.908446565502736e+00	 4.245406408219552e+00
 9.635816571131654e-02	 1.909334804207525e+00	 4.254042441466714e+00
 8.017461448499037e-02	 1.910082804971978e+00	 4.269920299527537e+00
 6.403862187122264e-02	 1.910691849976410e+00	 4.292855677131156e+00
 4.795170002470395e-02	 1.911163238742882e+00	 4.322629095863434e+00
 3.191532908491871e-02	 1.911498287319881e+00	 4.358989192114174e+00
 1.593095710474680e-02	 1.911698327473026e+00	 4.401655926636313e+00
 0.000000000000000e+00	 1.911764705882353e+00	 4.450323728468947e+00
 1.620336346134555e-01	 1.910789193885209e+00	 4.284102519655837e+00
 1.456252746882740e-01	 1.912109704380608e+00	 4.270168533645119e+00
 1.292582335341200e-01	 1.913285799685497e+00	 4.263788532159270e+00
 1.129341552622194e-01	 1.914318708781205e+00	 4.265233822276714e+00
 9.665465237504370e-02	 1.915209680528164e+00	 4.274724857740090e+00
 8.042130560648264e-02	 1.915959982833431e+00	 4.292434518680754e+00
 6.423566378467255e-02	 1.916570901822491e+00	 4.318491282930419e+00
 4.809924371708765e-02	 1.917043741015936e+00	 4.352982305443699e+00
 3.201353009748770e-02	 1.917379820511635e+00	 4.395956421241713e+00
 1.597997543429987e-02	 1.917580476172943e+00	 4.447427086110278e+00
 0.000000000000000e+00	 1.917647058823529e+00	 4.507375268090801e+00
 1.625306703024538e-01	 1.916650510430869e+00	 4.303755946871856e+00
 1.460719779848638e-01	 1.917975071571960e+00	 4.289428603311404e+00
 1.296547311829977e-01	 1.919154774531158e+00	 4.282674782910647e+00
 1.132805790513673e-01	 1.920190852059675e+00	 4.284140798712240e+00
 9.695113903877081e-02	 1.921084556848802e+00	 4.294416578730146e+00
 8.066799672797494e-02	 1.921837160694883e+00	 4.314038562842666e+00
 6.443270569812246e-02	 1.922449953668572e+00	 4.343492508045076e+00
 4.824678740947135e-02	 1.922924243288992e+00	 4.383216219067071e+00
 3.211173111005669e-02	 1.923261353703388e+00	 4.433602220175355e+00
 1.602899376385293e-02	 1.923462624872860e+00	 4.495000382758811e+00
 0.000000000000000e+00	 1.923529411764706e+00	 4.567720522016840e+00
 1.630277059914521e-01	 1.922511826976529e+00	 4.323125644416116e+00
 1.465186812814537e-01	 1.923840438763312e+00	 4.308153908323280e+00
 1.300512288318753e-01	 1.925023749376819e+00	 4.300793336979156e+00
 1.136270028405152e-01	 1.926062995338146e+00	 4.302110471317009e+00
 9.724762570249794e-02	 1.926959433169441e+00	 4.313109608156078e+00
 8.091468784946720e-02	 1.927714338556335e+00	 4.334735262839128e+00
 6.462974761157238e-02	 1.928329005514654e+00	 4.367874558800415e+00
 4.839433110185506e-02	 1.928804745562047e+00	 4.413359561571791e+00
 3.220993212262566e-02	 1.929142886895142e+00	 4.471969573494759e+00
 1.607801209340601e-02	 1.929344773572777e+00	 4.544433404103071e+00
 0.000000000000000e+00	 1.929411764705882e+00	 4.631431629806855e+00
 1.635247416804504e-01	 1.928373143522189e+00	 4.342184377380552e+00
 1.469653845780435e-01	 1.929705805954663e+00	 4.326317725829474e+00
 1.304477264807530e-01	 1.930892724222480e+00	 4.318121145971849e+00
 1.139734266296631e-01	 1.931935138616615e+00	 4.319126215963532e+00
 9.754411236622507e-02	 1.932834309490079e+00	 4.330796086168964e+00
 8.116137897095950e-02	 1.933591516417788e+00	 4.354527456318865e+00
 6.482678952502230e-02	 1.934208057360735e+00	 4.391652499951538e+00
 4.854187479423875e-02	 1.934685247835101e+00	 4.443440754188549e+00
 3.230813313519464e-02	 1.935024420086895e+00	 4.511100991574501e+00
 1.612703042295907e-02	 1.935226922272695e+00	 4.595783089341028e+00
 0.000000000000000e+00	 1.935294117647059e+00	 4.698579910045755e+00
 1.640217773694488e-01	 1.934234460067850e+00	 4.360905267847754e+00
 1.474120878746333e-01	 1.935571173146015e+00	 4.343893687778371e+00
 1.308442241296307e-01	 1.936761699068141e+00	 4.334635474966175e+00
 1.143198504188111e-01	 1.937807281895085e+00	 4.335171646736515e+00
 9.784059902995219e-02	 1.938709185810718e+00	 4.347468287127613e+00
 8.140807009245177e-02	 1.939468694279240e+00	 4.373417987528140e+00
 6.502383143847221e-02	 1.940087109206816e+00	 4.414841256738052e+00
 4.868941848662249e-02	 1.940565750108157e+00	 4.473487919072856e+00
 3.240633414776362e-02	 1.940905953278649e+00	 4.551038517723117e+00
 1.617604875251214e-02	 1.941109070972611e+00	 4.649105739147029e+00
 0.000000000000000e+00	 1.941176470588235e+00	 4.769235872782851e+00
 1.941176470588235e+00	 0.000000000000000e+00	 1.233768827535457e+01
 1.941109070972612e+00	 1.617604875251159e-02	 1.235886263396277e+01
 1.940905953278649e+00	 3.240633414776313e-02	 1.237913688793450e+01
 1.940565750108156e+00	 4.868941848662203e-02	 1.239914688651453e+01
 1.940087109206816e+00	 6.502383143847183e-02	 1.241954624861366e+01
 1.939468694279240e+00	 8.140807009245145e-02	 1.244100487467638e+01
 1.938709185810718e+00	 9.784059902995194e-02	 1.246420756573258e+01
 1.937807281895085e+00	 1.143198504188108e-01	 1.248985276068051e+01
 1.936761699068141e+00	 1.308442241296305e-01	 1.251865140357152e+01
 1.935571173146015e+00	 1.474120878746332e-01	 1.255132595343280e+01
 1.934234460067850e+00	 1.640217773694487e-01	 1.258860954996905e+01
 1.947058823529412e+00	 0.000000000000000e+00	 1.228986304615440e+01
 1.946991219672528e+00	 1.622506708206465e-02	 1.231583736412778e+01
 1.946787486470403e+00	 3.250453516033211e-02	 1.234023960088871e+01
 1.946446252381212e+00	 4.883696217900575e-02	 1.236382121178347e+01
 1.945966161052897e+00	 6.522087335192175e-02	 1.238734496163673e+01
 1.945345872140692e+00	 8.165476121394372e-02	 1.241158315105269e+01
 1.944584062131357e+00	 9.813708569367910e-02	 1.243731594973838e+01
 1.943679425173555e+00	 1.146662742079588e-01	 1.246532984823378e+01
 1.942630673913802e+00	 1.312407217785082e-01	 1.249641624018453e+01
 1.941436540337366e+00	 1.478587911712229e-01	 1.253137014808397e+01
 1.940095776613509e+00	 1.645188130584471e-01	 1.257098910624424e+01
 1.952941176470588e+00	 0.000000000000000e+00	 1.223984502026393e+01
 1.952873368372445e+00	 1.627408541161771e-02	 1.227111551719057e+01
 1.952669019662156e+00	 3.260273617290109e-02	 1.230006679799768e+01
 1.952326754654267e+00	 4.898450587138944e-02	 1.232758448921069e+01
 1.951845212898979e+00	 6.541791526537169e-02	 1.235455451101123e+01
 1.951223050002145e+00	 8.190145233543600e-02	 1.238186089077639e+01
 1.950458938451995e+00	 9.843357235740616e-02	 1.241038368586310e+01
 1.949551568452025e+00	 1.150126979971067e-01	 1.244099702761036e+01
 1.948499648759463e+00	 1.316372194273859e-01	 1.247456729931145e+01
 1.947301907528718e+00	 1.483054944678128e-01	 1.251195146172974e+01
 1.945957093159170e+00	 1.650158487474454e-01	 1.255399554059735e+01
 1.958823529411765e+00	 0.000000000000000e+00	 1.218640388467623e+01
 1.958755517072362e+00	 1.632310374117078e-02	 1.222384988251514e+01
 1.958550552853910e+00	 3.270093718547008e-02	 1.225810324312599e+01
 1.958207256927322e+00	 4.913204956377315e-02	 1.229020209157123e+01
 1.957724264745059e+00	 6.561495717882157e-02	 1.232116930226687e+01
 1.957100227863597e+00	 8.214814345692829e-02	 1.235200977325427e+01
 1.956333814772634e+00	 9.873005902113331e-02	 1.238370781431380e+01
 1.955423711730496e+00	 1.153591217862546e-01	 1.241722466173002e+01
 1.954368623605124e+00	 1.320337170762635e-01	 1.245349613332768e+01
 1.953167274720070e+00	 1.487521977644026e-01	 1.249343043825468e+01
 1.951818409704830e+00	 1.655128844364437e-01	 1.253790615688685e+01
 1.964705882352941e+00	 0.000000000000000e+00	 1.212832415377685e+01
 1.964637665772280e+00	 1.637212207072385e-02	 1.217320354103327e+01
 1.964432086045663e+00	 3.279913819803905e-02	 1.221384006499103e+01
 1.964087759200376e+00	 4.927959325615686e-02	 1.225144244164389e+01
 1.963603316591141e+00	 6.581199909227151e-02	 1.228718409039713e+01
 1.962977405725049e+00	 8.239483457842055e-02	 1.232219974324810e+01
 1.962208691093272e+00	 9.902654568486047e-02	 1.235758217476885e+01
 1.961295855008965e+00	 1.157055455754025e-01	 1.239437906678355e+01
 1.960237598450785e+00	 1.324302147251412e-01	 1.243359002247791e+01
 1.959032641911421e+00	 1.491989010609924e-01	 1.247616374557303e+01
 1.957679726250490e+00	 1.660099201254420e-01	 1.252299540113045e+01
 1.970588235294118e+00	 0.000000000000000e+00	 1.206440494803952e+01
 1.970519814472197e+00	 1.642114040027691e-02	 1.211834971208888e+01
 1.970313619237416e+00	 3.289733921060803e-02	 1.216677466299065e+01
 1.969968261473432e+00	 4.942713694854056e-02	 1.221107696781380e+01
 1.969482368437222e+00	 6.600904100572140e-02	 1.225259397599090e+01
 1.968854583586502e+00	 8.264152569991284e-02	 1.229259903825752e+01
 1.968083567413911e+00	 9.932303234858758e-02	 1.233229745570698e+01
 1.967167998287435e+00	 1.160519693645504e-01	 1.237282257418022e+01
 1.966106573296446e+00	 1.328267123740189e-01	 1.241523204009717e+01
 1.964898009102773e+00	 1.496456043575821e-01	 1.246050423476806e+01
 1.963541042796150e+00	 1.665069558144404e-01	 1.250953490520071e+01
 1.976470588235294e+00	 0.000000000000000e+00	 1.199345977667356e+01
 1.976401963172113e+00	 1.647015872982998e-02	 1.205847160301748e+01
 1.976195152429170e+00	 3.299554022317700e-02	 1.211641061471108e+01
 1.975848763746487e+00	 4.957468064092426e-02	 1.216888006046500e+01
 1.975361420283303e+00	 6.620608291917131e-02	 1.221739440142890e+01
 1.974731761447953e+00	 8.288821682140510e-02	 1.226337421540732e+01
 1.973958443734549e+00	 9.961951901231471e-02	 1.230814124284516e+01
 1.973040141565905e+00	 1.163983931536983e-01	 1.235291359137539e+01
 1.971975548142108e+00	 1.332232100228966e-01	 1.239880111664995e+01
 1.970763376294124e+00	 1.500923076541719e-01	 1.244680099815304e+01
 1.969402359341810e+00	 1.670039915034387e-01	 1.249779352971301e+01
 1.982352941176471e+00	 0.000000000000000e+00	 1.191431632414126e+01
 1.982284111872031e+00	 1.651917705938304e-02	 1.199276226140297e+01
 1.982076685620924e+00	 3.309374123574599e-02	 1.206225758508091e+01
 1.981729266019542e+00	 4.972222433330795e-02	 1.212462902914730e+01
 1.981240472129385e+00	 6.640312483262123e-02	 1.218158114714360e+01
 1.980608939309406e+00	 8.313490794289738e-02	 1.223469017784910e+01
 1.979833320055189e+00	 9.991600567604185e-02	 1.228539806670518e+01
 1.978912284844375e+00	 1.167448169428462e-01	 1.233500666160201e+01
 1.977844522987769e+00	 1.336197076717742e-01	 1.238467210261184e+01
 1.976628743485476e+00	 1.505390109507618e-01	 1.243539942627678e+01
 1.975263675887470e+00	 1.675010271924370e-01	 1.248803740612252e+01
 1.988235294117647e+00	 0.000000000000000e+00	 1.182581624046466e+01
 1.988166260571947e+00	 1.656819538893611e-02	 1.192042442995712e+01
 1.987958218812677e+00	 3.319194224831497e-02	 1.200383123713608e+01
 1.987609768292597e+00	 4.986976802569167e-02	 1.207810406050075e+01
 1.987119523975466e+00	 6.660016674607115e-02	 1.214515032794086e+01
 1.986486117170858e+00	 8.338159906438966e-02	 1.220671020068753e+01
 1.985708196375826e+00	 1.002124923397690e-01	 1.226434944932523e+01
 1.984784428122845e+00	 1.170912407319941e-01	 1.231945252252859e+01
 1.983713497833430e+00	 1.340162053206519e-01	 1.237321583021748e+01
 1.982494110676827e+00	 1.509857142473516e-01	 1.242664126389491e+01
 1.981124992433130e+00	 1.679980628814353e-01	 1.248052997804687e+01
 1.994117647058823e+00	 0.000000000000000e+00	 1.172681493524398e+01
 1.994048409271864e+00	 1.661721371848918e-02	 1.184067040396726e+01
 1.993839752004430e+00	 3.329014326088395e-02	 1.194065314436395e+01
 1.993490270565652e+00	 5.001731171807537e-02	 1.202908817692276e+01
 1.992998575821547e+00	 6.679720865952106e-02	 1.210809838938295e+01
 1.992363295032310e+00	 8.362829018588194e-02	 1.217959595644135e+01
 1.991583072696465e+00	 1.005089790034961e-01	 1.224527395013573e+01
 1.990656571401315e+00	 1.174376645211420e-01	 1.230659816386571e+01
 1.989582472679090e+00	 1.344127029695295e-01	 1.236479917409851e+01
 1.988359477868178e+00	 1.514324175439413e-01	 1.242086466492903e+01
 1.986986308978790e+00	 1.684950985704337e-01	 1.247553204183055e+01
 2.000000000000000e+00	 0.000000000000000e+00	 1.161618137531073e+01
 1.999930557971781e+00	 1.666623204804224e-02	 1.175272189125936e+01
 1.999721285196184e+00	 3.338834427345292e-02	 1.187225070459257e+01
 1.999370772838707e+00	 5.016485541045908e-02	 1.197736719596212e+01
 1.998877627667628e+00	 6.699425057297100e-02	 1.207042210423075e+01
 1.998240472893762e+00	 8.387498130737420e-02	 1.215350754004815e+01
 1.997457949017103e+00	 1.008054656672232e-01	 1.222844721101569e+01
 1.996528714679785e+00	 1.177840883102900e-01	 1.229678688394264e+01
 1.995451447524751e+00	 1.348092006184072e-01	 1.235978511083395e+01
 1.994224845059530e+00	 1.518791208405312e-01	 1.241840424643370e+01
 1.992847625524451e+00	 1.689921342594320e-01	 1.247330178636597e+01
 1.934234460067850e+00	 1.640217773694487e-01	 1.258860954996905e+01
 1.932750336742166e+00	 1.806715965182160e-01	 1.262655696948093e+01
 1.931117601896235e+00	 1.973598176223593e-01	 1.266088282672441e+01
 1.929335076927773e+00	 2.140846816133852e-01	 1.269179425537665e+01
 1.927401606758250e+00	 2.308443983100207e-01	 1.271946697587354e+01
 1.925316060687096e+00	 2.476371467000003e-01	 1.274404519453184e+01
 1.923077333246044e+00	 2.644610752467790e-01	 1.276564180389810e+01
 1.920684345052843e+00	 2.813143022214315e-01	 1.278433890571247e+01
 1.918136043663583e+00	 2.981949160599719e-01	 1.280018867878847e+01
 1.915431404422807e+00	 3.151009757463032e-01	 1.281321461500605e+01
 1.912569431310595e+00	 3.320305112209788e-01	 1.282341314747837e+01
 1.940095776613509e+00	 1.645188130584471e-01	 1.257098910624424e+01
 1.938607155944416e+00	 1.812190862046348e-01	 1.261120294070700e+01
 1.936969473417133e+00	 1.979578776757605e-01	 1.264756520086704e+01
 1.935181546857857e+00	 2.147334230728196e-01	 1.268028502905120e+01
 1.933242217687820e+00	 2.315439267897479e-01	 1.270953754009604e+01
 1.931150351780089e+00	 2.483875622960609e-01	 1.273546364961004e+01
 1.928904840316486e+00	 2.652624724444964e-01	 1.275817020422574e+01
 1.926504600643912e+00	 2.821667698039207e-01	 1.277773043549271e+01
 1.923948577129231e+00	 2.990985370177294e-01	 1.279418476000729e+01
 1.921235742011967e+00	 3.160558271879588e-01	 1.280754194930550e+01
 1.918365096253960e+00	 3.330366642852848e-01	 1.281778069394525e+01
 1.945957093159170e+00	 1.650158487474454e-01	 1.255399554059735e+01
 1.944463975146665e+00	 1.817665758910537e-01	 1.259653778252838e+01
 1.942821344938031e+00	 1.985559377291616e-01	 1.263501112156471e+01
 1.941028016787941e+00	 2.153821645322541e-01	 1.266961848814497e+01
 1.939082828617391e+00	 2.322434552694753e-01	 1.270052765500559e+01
 1.936984642873079e+00	 2.491379778921215e-01	 1.272787103510773e+01
 1.934732347386929e+00	 2.660638696422140e-01	 1.275174578124314e+01
 1.932324856234981e+00	 2.830192373864098e-01	 1.277221420914200e+01
 1.929761110594878e+00	 3.000021579754870e-01	 1.278930456688719e+01
 1.927040079601127e+00	 3.170106786296142e-01	 1.280301217440382e+01
 1.924160761197326e+00	 3.340428173495908e-01	 1.281330095772731e+01
 1.951818409704830e+00	 1.655128844364437e-01	 1.253790615688685e+01
 1.950320794348913e+00	 1.823140655774725e-01	 1.258273733057402e+01
 1.948673216458928e+00	 1.991539977825626e-01	 1.262331080587438e+01
 1.946874486718025e+00	 2.160309059916886e-01	 1.265981517663331e+01
 1.944923439546961e+00	 2.329429837492026e-01	 1.269240422455707e+01
 1.942818933966070e+00	 2.498883934881821e-01	 1.272119672711334e+01
 1.940559854457371e+00	 2.668652668399314e-01	 1.274627656572207e+01
 1.938145111826050e+00	 2.838717049688991e-01	 1.276769315614924e+01
 1.935573644060525e+00	 3.009057789332445e-01	 1.278546222402775e+01
 1.932844417190287e+00	 3.179655300712697e-01	 1.279956694942816e+01
 1.929956426140691e+00	 3.350489704138968e-01	 1.280995950537645e+01
 1.957679726250490e+00	 1.660099201254420e-01	 1.252299540113045e+01
 1.956177613551162e+00	 1.828615552638913e-01	 1.256997579552462e+01
 1.954525087979826e+00	 1.997520578359637e-01	 1.261255388547698e+01
 1.952720956648109e+00	 2.166796474511231e-01	 1.265089589826876e+01
 1.950764050476532e+00	 2.336425122289299e-01	 1.268513506223528e+01
 1.948653225059062e+00	 2.506388090842427e-01	 1.271537146473006e+01
 1.946387361527814e+00	 2.676666640376490e-01	 1.274167220791994e+01
 1.943965367417120e+00	 2.847241725513882e-01	 1.276407188432269e+01
 1.941386177526172e+00	 3.018093998910019e-01	 1.278257339504422e+01
 1.938648754779447e+00	 3.189203815129253e-01	 1.279714913470875e+01
 1.935752091084057e+00	 3.360551234782028e-01	 1.280774256808244e+01
 1.963541042796150e+00	 1.665069558144404e-01	 1.250953490520071e+01
 1.962034432753411e+00	 1.834090449503101e-01	 1.255842578808069e+01
 1.960376959500724e+00	 2.003501178893648e-01	 1.260282941572501e+01
 1.958567426578194e+00	 2.173283889105576e-01	 1.264288171253425e+01
 1.956604661406102e+00	 2.343420407086574e-01	 1.267868887675222e+01
 1.954487516152053e+00	 2.513892246803034e-01	 1.271032732837236e+01
 1.952214868598257e+00	 2.684680612353666e-01	 1.273784395134305e+01
 1.949785623008189e+00	 2.855766401338773e-01	 1.276125665189634e+01
 1.947198710991820e+00	 3.027130208487593e-01	 1.278055525590471e+01
 1.944453092368607e+00	 3.198752329545806e-01	 1.279570276924051e+01
 1.941547756027422e+00	 3.370612765425088e-01	 1.280663702615952e+01
 1.969402359341810e+00	 1.670039915034387e-01	 1.249779352971301e+01
 1.967891251955661e+00	 1.839565346367290e-01	 1.254825834345164e+01
 1.966228831021622e+00	 2.009481779427658e-01	 1.259422588448975e+01
 1.964413896508277e+00	 2.179771303699921e-01	 1.263579393062125e+01
 1.962445272335672e+00	 2.350415691883846e-01	 1.267303525794652e+01
 1.960321807245044e+00	 2.521396402763640e-01	 1.270599771838899e+01
 1.958042375668699e+00	 2.692694584330840e-01	 1.273470460690739e+01
 1.955605878599258e+00	 2.864291077163666e-01	 1.275915534005555e+01
 1.953011244457467e+00	 3.036166418065169e-01	 1.277932646865453e+01
 1.950257429957766e+00	 3.208300843962360e-01	 1.279517304844880e+01
 1.947343420970788e+00	 3.380674296068147e-01	 1.280663039370143e+01
 1.975263675887470e+00	 1.675010271924370e-01	 1.248803740612252e+01
 1.973748071157909e+00	 1.845040243231478e-01	 1.253964294537567e+01
 1.972080702542519e+00	 2.015462379961670e-01	 1.258683122081151e+01
 1.970260366438361e+00	 2.186258718294266e-01	 1.262965411143418e+01
 1.968285883265243e+00	 2.357410976681120e-01	 1.266814466288025e+01
 1.966156098338035e+00	 2.528900558724245e-01	 1.270231733400477e+01
 1.963869882739142e+00	 2.700708556308016e-01	 1.273216852749038e+01
 1.961426134190327e+00	 2.872815752988557e-01	 1.275767742587261e+01
 1.958823777923113e+00	 3.045202627642744e-01	 1.277880715552023e+01
 1.956061767546927e+00	 3.217849358378916e-01	 1.279550630225289e+01
 1.953139085914153e+00	 3.390735826711208e-01	 1.280771080340052e+01
 1.981124992433130e+00	 1.679980628814353e-01	 1.248052997804687e+01
 1.979604890360158e+00	 1.850515140095666e-01	 1.253274754968060e+01
 1.977932574063417e+00	 2.021442980495680e-01	 1.258073280335688e+01
 1.976106836368446e+00	 2.192746132888611e-01	 1.262448405761917e+01
 1.974126494194813e+00	 2.364406261478393e-01	 1.266398840212902e+01
 1.971990389431026e+00	 2.536404714684852e-01	 1.269922215257475e+01
 1.969697389809584e+00	 2.708722528285191e-01	 1.273015158286383e+01
 1.967246389781397e+00	 2.881340428813449e-01	 1.275673395564447e+01
 1.964636311388761e+00	 3.054238837220318e-01	 1.277891887338533e+01
 1.961866105136087e+00	 3.227397872795469e-01	 1.279664997342043e+01
 1.958934750857519e+00	 3.400797357354267e-01	 1.280986699152814e+01
 1.986986308978790e+00	 1.684950985704337e-01	 1.247553204183055e+01
 1.985461709562407e+00	 1.855990036959855e-01	 1.252773860739481e+01
 1.983784445584315e+00	 2.027423581029691e-01	 1.257601746868749e+01
 1.981953306298530e+00	 2.199233547482956e-01	 1.262030581161767e+01
 1.979967105124384e+00	 2.371401546275666e-01	 1.266053862626149e+01
 1.977824680524017e+00	 2.543908870645458e-01	 1.269664940914488e+01
 1.975524896880027e+00	 2.716736500262366e-01	 1.272857113500192e+01
 1.973066645372465e+00	 2.889865104638342e-01	 1.275623751862378e+01
 1.970448844854408e+00	 3.063275046797894e-01	 1.277958458862977e+01
 1.967670442725247e+00	 3.236946387212025e-01	 1.279855259620775e+01
 1.964730415800884e+00	 3.410858887997327e-01	 1.281308828307298e+01
 1.992847625524451e+00	 1.689921342594320e-01	 1.247330178636597e+01
 1.991318528764656e+00	 1.861464933824043e-01	 1.252478108741764e+01
 1.989636317105212e+00	 2.033404181563702e-01	 1.257277151934376e+01
 1.987799776228614e+00	 2.205720962077301e-01	 1.261714165174346e+01
 1.985807716053954e+00	 2.378396831072939e-01	 1.265776831250474e+01
 1.983658971617009e+00	 2.551413026606064e-01	 1.269453757631217e+01
 1.981352403950469e+00	 2.724750472239541e-01	 1.272734601375492e+01
 1.978886900963535e+00	 2.898389780463234e-01	 1.275610222113528e+01
 1.976261378320056e+00	 3.072311256375469e-01	 1.278072865232613e+01
 1.973474780314407e+00	 3.246494901628579e-01	 1.280116377527965e+01
 1.970526080744250e+00	 3.420920418640388e-01	 1.281736457703344e+01
 1.912569431310595e+00	 3.320305112209788e-01	 1.282341314747837e+01
 1.909549157785812e+00	 3.489815238159343e-01	 1.283085691040567e+01
 1.906369647624645e+00	 3.659519867153160e-01	 1.283567677644756e+01
 1.903029995753580e+00	 3.829398454425075e-01	 1.283795182987851e+01
 1.899529329075957e+00	 3.999430183734229e-01	 1.283778367935887e+01
 1.895866807291204e+00	 4.169593972761070e-01	 1.283530101548767e+01
 1.892041623705855e+00	 4.339868478766483e-01	 1.283066468121500e+01
 1.888053006035457e+00	 4.510232104513834e-01	 1.282407328165737e+01
 1.883900217196446e+00	 4.680663004453333e-01	 1.281576936007684e+01
 1.879582556087079e+00	 4.851139091167785e-01	 1.280604616685886e+01
 1.875099358356483e+00	 5.021638042078536e-01	 1.279525504824066e+01
 1.918365096253960e+00	 3.330366642852848e-01	 1.281778069394525e+01
 1.915335670385164e+00	 3.500390435850735e-01	 1.282512800001822e+01
 1.912146525344719e+00	 3.670609321296048e-01	 1.282986369264750e+01
 1.908796753316469e+00	 3.841002692165758e-01	 1.283203591033546e+01
 1.905285478558006e+00	 4.011549669139485e-01	 1.283171157831080e+01
 1.901611858222390e+00	 4.182229106011859e-01	 1.282898091503727e+01
 1.897775083171631e+00	 4.353019595368807e-01	 1.282396245705132e+01
 1.893774378781020e+00	 4.523899474527515e-01	 1.281680862930644e+01
 1.889609005733405e+00	 4.694846831739555e-01	 1.280771188845476e+01
 1.885278260802494e+00	 4.865839512656173e-01	 1.279691146660152e+01
 1.880781477624230e+00	 5.036855127054530e-01	 1.278470074301441e+01
 1.924160761197326e+00	 3.340428173495908e-01	 1.281330095772731e+01
 1.921122182984515e+00	 3.510965633542127e-01	 1.282054847400508e+01
 1.917923403064795e+00	 3.681698775438938e-01	 1.282517999809368e+01
 1.914563510879359e+00	 3.852606929906440e-01	 1.282721683066009e+01
 1.911041628040054e+00	 4.023669154544741e-01	 1.282669443725764e+01
 1.907356909153575e+00	 4.194864239262652e-01	 1.282366688079427e+01
 1.903508542637407e+00	 4.366170711971127e-01	 1.281821177843474e+01
 1.899495751526581e+00	 4.537566844541192e-01	 1.281043581080650e+01
 1.895317794270364e+00	 4.709030659025777e-01	 1.280048081166516e+01
 1.890973965517909e+00	 4.880539934144558e-01	 1.278853046631273e+01
 1.886463596891977e+00	 5.052072212030527e-01	 1.277481764704043e+01
 1.929956426140691e+00	 3.350489704138968e-01	 1.280995950537645e+01
 1.926908695583866e+00	 3.521540831233520e-01	 1.281715173945566e+01
 1.923700280784868e+00	 3.692788229581825e-01	 1.282169838585797e+01
 1.920330268442248e+00	 3.864211167647122e-01	 1.282359797378691e+01
 1.916797777522102e+00	 4.035788639949996e-01	 1.282285769679840e+01
 1.913101960084761e+00	 4.207499372513443e-01	 1.281949774831604e+01
 1.909242002103181e+00	 4.379321828573449e-01	 1.281355618831644e+01
 1.905217124272143e+00	 4.551234214554870e-01	 1.280509436980159e+01
 1.901026582807323e+00	 4.723214486312000e-01	 1.279420295399552e+01
 1.896669670233325e+00	 4.895240355632946e-01	 1.278100854337474e+01
 1.892145716159724e+00	 5.067289297006522e-01	 1.276568096165015e+01
 1.935752091084057e+00	 3.360551234782028e-01	 1.280774256808244e+01
 1.932695208183217e+00	 3.532116028924911e-01	 1.281497128193164e+01
 1.929477158504944e+00	 3.703877683724714e-01	 1.281949114145877e+01
 1.926097026005137e+00	 3.875815405387802e-01	 1.282128192990929e+01
 1.922553927004150e+00	 4.047908125355250e-01	 1.282032572108727e+01
 1.918847011015946e+00	 4.220134505764234e-01	 1.281661109508783e+01
 1.914975461568957e+00	 4.392472945175773e-01	 1.281013789256121e+01
 1.910938497017705e+00	 4.564901584568548e-01	 1.280092253692707e+01
 1.906735371344282e+00	 4.737398313598221e-01	 1.278900395431534e+01
 1.902365374948740e+00	 4.909940777121334e-01	 1.277445012121547e+01
 1.897827835427471e+00	 5.082506381982518e-01	 1.275736526985591e+01
 1.941547756027422e+00	 3.370612765425088e-01	 1.280663702615952e+01
 1.938481720782567e+00	 3.542691226616303e-01	 1.281404065765533e+01
 1.935254036225018e+00	 3.714967137867601e-01	 1.281863014119438e+01
 1.931863783568027e+00	 3.887419643128485e-01	 1.282037049939433e+01
 1.928310076486199e+00	 4.060027610760506e-01	 1.281922180375976e+01
 1.924592061947132e+00	 4.232769639015024e-01	 1.281514324788412e+01
 1.920708921034731e+00	 4.405624061778096e-01	 1.280809776716266e+01
 1.916659869763267e+00	 4.578568954582226e-01	 1.279805723529455e+01
 1.912444159881241e+00	 4.751582140884444e-01	 1.278500826824349e+01
 1.908061079664155e+00	 4.924641198609721e-01	 1.276895866656980e+01
 1.903509954695218e+00	 5.097723466958514e-01	 1.274994452711670e+01
 1.947343420970788e+00	 3.380674296068147e-01	 1.280663039370143e+01
 1.944268233381918e+00	 3.553266424307694e-01	 1.281439348571705e+01
 1.941030913945093e+00	 3.726056592010490e-01	 1.281918685037500e+01
 1.937630541130917e+00	 3.899023880869167e-01	 1.282096469550265e+01
 1.934066225968247e+00	 4.072147096165760e-01	 1.281966817359764e+01
 1.930337112878317e+00	 4.245404772265816e-01	 1.281522928982991e+01
 1.926442380500507e+00	 4.418775178380419e-01	 1.280757536514865e+01
 1.922381242508828e+00	 4.592236324595905e-01	 1.279663408568447e+01
 1.918152948418200e+00	 4.765765968170665e-01	 1.278233917006871e+01
 1.913756784379571e+00	 4.939341620098108e-01	 1.276463668656716e+01
 1.909192073962965e+00	 5.112940551934509e-01	 1.274349205203192e+01
 1.953139085914153e+00	 3.390735826711208e-01	 1.280771080340052e+01
 1.950054745981269e+00	 3.563841621999086e-01	 1.281606344030223e+01
 1.946807791665167e+00	 3.737146046153378e-01	 1.282123232145484e+01
 1.943397298693806e+00	 3.910628118609848e-01	 1.282316474691695e+01
 1.939822375450295e+00	 4.084266581571016e-01	 1.282178599993791e+01
 1.936082163809502e+00	 4.258039905516608e-01	 1.281700306716940e+01
 1.932175839966283e+00	 4.431926294982741e-01	 1.280870892318283e+01
 1.928102615254391e+00	 4.605903694609583e-01	 1.279678741145199e+01
 1.923861736955159e+00	 4.779949795456889e-01	 1.278111875442802e+01
 1.919452489094987e+00	 4.954042041586496e-01	 1.276158572564927e+01
 1.914874193230711e+00	 5.128157636910503e-01	 1.273808051696489e+01
 1.958934750857519e+00	 3.400797357354267e-01	 1.280986699152814e+01
 1.955841258580620e+00	 3.574416819690479e-01	 1.281908424293660e+01
 1.952584669385242e+00	 3.748235500296267e-01	 1.282483719206714e+01
 1.949164056256696e+00	 3.922232356350531e-01	 1.282707010008336e+01
 1.945578524932343e+00	 4.096386066976271e-01	 1.282569539783135e+01
 1.941827214740688e+00	 4.270675038767399e-01	 1.282059719574654e+01
 1.937909299432058e+00	 4.445077411585063e-01	 1.281163536786943e+01
 1.933823987999952e+00	 4.619571064623260e-01	 1.279865024315248e+01
 1.929570525492117e+00	 4.794133622743110e-01	 1.278146793774833e+01
 1.925148193810401e+00	 4.968742463074882e-01	 1.275990636232155e+01
 1.920556312498458e+00	 5.143374721886500e-01	 1.273378193859696e+01
 1.964730415800884e+00	 3.410858887997327e-01	 1.281308828307298e+01
 1.961627771179971e+00	 3.584992017381871e-01	 1.282348965475022e+01
 1.958361547105316e+00	 3.759324954439155e-01	 1.283007168296360e+01
 1.954930813819585e+00	 3.933836594091212e-01	 1.283277942136930e+01
 1.951334674414392e+00	 4.108505552381526e-01	 1.283151543295547e+01
 1.947572265671873e+00	 4.283310172018189e-01	 1.282614306720497e+01
 1.943642758897833e+00	 4.458228528187387e-01	 1.281649032176628e+01
 1.939545360745514e+00	 4.633238434636939e-01	 1.280235432289225e+01
 1.935279314029076e+00	 4.808317450029333e-01	 1.278350645945595e+01
 1.930843898525817e+00	 4.983442884563269e-01	 1.275969820574142e+01
 1.926238431766205e+00	 5.158591806862496e-01	 1.273066766841451e+01
 1.970526080744250e+00	 3.420920418640388e-01	 1.281736457703344e+01
 1.967414283779322e+00	 3.595567215073262e-01	 1.282931346875934e+01
 1.964138424825392e+00	 3.770414408582044e-01	 1.283700559586037e+01
 1.960697571382475e+00	 3.945440831831895e-01	 1.284039059904188e+01
 1.957090823896440e+00	 4.120625037786783e-01	 1.283936412628739e+01
 1.953317316603058e+00	 4.295945305268981e-01	 1.283377085491206e+01
 1.949376218363608e+00	 4.471379644789709e-01	 1.282340810911314e+01
 1.945266733491077e+00	 4.646905804650618e-01	 1.280803010841029e+01
 1.940988102566035e+00	 4.822501277315555e-01	 1.278735288295899e+01
 1.936539603241233e+00	 4.998143306051657e-01	 1.276105989214717e+01
 1.931920551033952e+00	 5.173808891838492e-01	 1.272880838312956e+01
 1.875099358356483e+00	 5.021638042078536e-01	 1.279525504824066e+01
 1.870449997160913e+00	 5.192137306409949e-01	 1.278078332946520e+01
 1.865633883906261e+00	 5.362614112410463e-01	 1.276033298407729e+01
 1.860650468975905e+00	 5.533045474827964e-01	 1.273487322182839e+01
 1.855499242442950e+00	 5.703408202636707e-01	 1.270551175288779e+01
 1.850179734765930e+00	 5.873678907012810e-01	 1.267350588561392e+01
 1.844691517467048e+00	 6.043834009554854e-01	 1.264150245635608e+01
 1.839034203792023e+00	 6.213849750745807e-01	 1.261198187144579e+01
 1.833207449350629e+00	 6.383702198652114e-01	 1.258563312162960e+01
 1.827210952737008e+00	 6.553367257855395e-01	 1.256314101890119e+01
 1.821044456128869e+00	 6.722820678611829e-01	 1.254518433003112e+01
 1.880781477624230e+00	 5.036855127054530e-01	 1.278470074301441e+01
 1.876118027455340e+00	 5.207871055823310e-01	 1.276858497773681e+01
 1.871287319918098e+00	 5.378864458205644e-01	 1.274638657500022e+01
 1.866288803730378e+00	 5.549812279297139e-01	 1.271901585463039e+01
 1.861121967420050e+00	 5.720691257796213e-01	 1.268751940375277e+01
 1.855786340022796e+00	 5.891477934003759e-01	 1.265309613042449e+01
 1.850281491762402e+00	 6.062148658068657e-01	 1.261883775118865e+01
 1.844607034712605e+00	 6.232679598475338e-01	 1.258704425901726e+01
 1.838762623439570e+00	 6.403046750769241e-01	 1.255837046114629e+01
 1.832747955624090e+00	 6.573225946515565e-01	 1.253347114616048e+01
 1.826562772662593e+00	 6.743192862486412e-01	 1.251299530072180e+01
 1.886463596891977e+00	 5.052072212030527e-01	 1.277481764704043e+01
 1.881786057749767e+00	 5.223604805236673e-01	 1.275697273160270e+01
 1.876940755929935e+00	 5.395114804000830e-01	 1.273294541831481e+01
 1.871927138484850e+00	 5.566579083766316e-01	 1.270358373144709e+01
 1.866744692397149e+00	 5.737974312955717e-01	 1.266987024918303e+01
 1.861392945279663e+00	 5.909276960994707e-01	 1.263298074066528e+01
 1.855871466057757e+00	 6.080463306582458e-01	 1.259645421799920e+01
 1.850179865633187e+00	 6.251509446204871e-01	 1.256235518917182e+01
 1.844317797528512e+00	 6.422391302886369e-01	 1.253130800863752e+01
 1.838284958511172e+00	 6.593084635175732e-01	 1.250393787399997e+01
 1.832081089196317e+00	 6.763565046360991e-01	 1.248086505525731e+01
 1.892145716159724e+00	 5.067289297006522e-01	 1.276568096165015e+01
 1.887454088044194e+00	 5.239338554650038e-01	 1.274598988314659e+01
 1.882594191941772e+00	 5.411365149796012e-01	 1.272002618450839e+01
 1.877565473239323e+00	 5.583345888235490e-01	 1.268857222661909e+01
 1.872367417374249e+00	 5.755257368115222e-01	 1.265254372731236e+01
 1.866999550536529e+00	 5.927075987985655e-01	 1.261314426037311e+01
 1.861461440353112e+00	 6.098777955096262e-01	 1.257432251643039e+01
 1.855752696553769e+00	 6.270339293934404e-01	 1.253788073214686e+01
 1.849872971617453e+00	 6.441735855003495e-01	 1.250441262982341e+01
 1.843821961398254e+00	 6.612943323835897e-01	 1.247451425330801e+01
 1.837599405730041e+00	 6.783937230235574e-01	 1.244877822054822e+01
 1.897827835427471e+00	 5.082506381982518e-01	 1.275736526985591e+01
 1.893122118338621e+00	 5.255072304063402e-01	 1.273567946244305e+01
 1.888247627953610e+00	 5.427615495591196e-01	 1.270764557525611e+01
 1.883203807993794e+00	 5.600112692704665e-01	 1.267397697560522e+01
 1.877990142351349e+00	 5.772540423274728e-01	 1.263551970394822e+01
 1.872606155793395e+00	 5.944875014976602e-01	 1.259356661086918e+01
 1.867051414648466e+00	 6.117092603610064e-01	 1.255241268394090e+01
 1.861325527474351e+00	 6.289169141663936e-01	 1.251358635563513e+01
 1.855428145706395e+00	 6.461080407120625e-01	 1.247765054484320e+01
 1.849358964285336e+00	 6.632802012496067e-01	 1.244517258342187e+01
 1.843117722263764e+00	 6.804309414110156e-01	 1.241671850283368e+01
 1.903509954695218e+00	 5.097723466958514e-01	 1.274994452711670e+01
 1.898790148633048e+00	 5.270806053476763e-01	 1.272608422148909e+01
 1.893901063965447e+00	 5.443865841386378e-01	 1.269582030143368e+01
 1.888842142748267e+00	 5.616879497173841e-01	 1.265979384799936e+01
 1.883612867328449e+00	 5.789823478434232e-01	 1.261877844152102e+01
 1.878212761050261e+00	 5.962674041967551e-01	 1.257422700782302e+01
 1.872641388943821e+00	 6.135407252123866e-01	 1.253069413378154e+01
 1.866898358394933e+00	 6.307998989393468e-01	 1.248943692314309e+01
 1.860983319795336e+00	 6.480424959237752e-01	 1.245098732795056e+01
 1.854895967172418e+00	 6.652660701156234e-01	 1.241588441411526e+01
 1.848636038797489e+00	 6.824681597984735e-01	 1.238466869291589e+01
 1.909192073962965e+00	 5.112940551934509e-01	 1.274349205203192e+01
 1.904458178927475e+00	 5.286539802890129e-01	 1.271724661817074e+01
 1.899554499977284e+00	 5.460116187181562e-01	 1.268456706125637e+01
 1.894480477502740e+00	 5.633646301643017e-01	 1.264601892074747e+01
 1.889235592305549e+00	 5.807106533593739e-01	 1.260230056829112e+01
 1.883819366307128e+00	 5.980473068958497e-01	 1.255510396009866e+01
 1.878231363239176e+00	 6.153721900637670e-01	 1.250913565329290e+01
 1.872471189315514e+00	 6.326828837123002e-01	 1.246539669267689e+01
 1.866538493884277e+00	 6.499769511354879e-01	 1.242438790752632e+01
 1.860432970059500e+00	 6.672519389816403e-01	 1.238662054787579e+01
 1.854154355331212e+00	 6.845053781859318e-01	 1.235261067163966e+01
 1.914874193230711e+00	 5.128157636910503e-01	 1.273808051696489e+01
 1.910126209221902e+00	 5.302273552303493e-01	 1.270920880026456e+01
 1.905207935989121e+00	 5.476366532976745e-01	 1.267390251854160e+01
 1.900118812257212e+00	 5.650413106112193e-01	 1.263264845156081e+01
 1.894858317282649e+00	 5.824389588753244e-01	 1.258606704780798e+01
 1.889425971563994e+00	 5.998272095949445e-01	 1.253617526889259e+01
 1.883821337534531e+00	 6.172036549151472e-01	 1.248770540251747e+01
 1.878044020236097e+00	 6.345658684852534e-01	 1.244142931574968e+01
 1.872093667973219e+00	 6.519114063472008e-01	 1.239781656640191e+01
 1.865969972946581e+00	 6.692378078476571e-01	 1.235735104246611e+01
 1.859672671864936e+00	 6.865425965733900e-01	 1.232052541561221e+01
 1.920556312498458e+00	 5.143374721886500e-01	 1.273378193859696e+01
 1.915794239516329e+00	 5.318007301716854e-01	 1.270201258947301e+01
 1.910861372000958e+00	 5.492616878771929e-01	 1.266384328109248e+01
 1.905757147011685e+00	 5.667179910581369e-01	 1.261967885252102e+01
 1.900481042259749e+00	 5.841672643912750e-01	 1.257005914861606e+01
 1.895032576820861e+00	 6.016071122940394e-01	 1.251741802715745e+01
 1.889411311829885e+00	 6.190351197665275e-01	 1.246637091312020e+01
 1.883616851156678e+00	 6.364488532582068e-01	 1.241749783670310e+01
 1.877648842062160e+00	 6.538458615589133e-01	 1.237123694248718e+01
 1.871506975833663e+00	 6.712236767136737e-01	 1.232804521376305e+01
 1.865190988398660e+00	 6.885798149608481e-01	 1.228839300315814e+01
 1.926238431766205e+00	 5.158591806862496e-01	 1.273066766841451e+01
 1.921462269810756e+00	 5.333741051130219e-01	 1.269569946549338e+01
 1.916514808012795e+00	 5.508867224567112e-01	 1.265440587919998e+01
 1.911395481766157e+00	 5.683946715050544e-01	 1.260710666387328e+01
 1.906103767236848e+00	 5.858955699072255e-01	 1.255425841420282e+01
 1.900639182077728e+00	 6.033870149931341e-01	 1.249880861930538e+01
 1.895001286125240e+00	 6.208665846179078e-01	 1.244509908761058e+01
 1.889189682077260e+00	 6.383318380311600e-01	 1.239356469233693e+01
 1.883204016151101e+00	 6.557803167706261e-01	 1.234461202969636e+01
 1.877043978720745e+00	 6.732095455796907e-01	 1.229867163886900e+01
 1.870709304932384e+00	 6.906170333483063e-01	 1.225619262050459e+01
 1.931920551033952e+00	 5.173808891838492e-01	 1.272880838312956e+01
 1.927130300105183e+00	 5.349474800543583e-01	 1.269031055011880e+01
 1.922168244024632e+00	 5.525117570362296e-01	 1.264560674426094e+01
 1.917033816520630e+00	 5.700713519519721e-01	 1.259492852800390e+01
 1.911726492213949e+00	 5.876238754231761e-01	 1.253864663318324e+01
 1.906245787334594e+00	 6.051669176922291e-01	 1.248032272118539e+01
 1.900591260420594e+00	 6.226980494692880e-01	 1.242385619886069e+01
 1.894762512997842e+00	 6.402148228041135e-01	 1.236959171184016e+01
 1.888759190240042e+00	 6.577147719823390e-01	 1.231790417916587e+01
 1.882580981607827e+00	 6.751954144457075e-01	 1.226919815948981e+01
 1.876227621466108e+00	 6.926542517357644e-01	 1.222390256819216e+01
 1.821044456128869e+00	 6.722820678611829e-01	 1.254518433003112e+01
 1.814707745864667e+00	 6.892038066233940e-01	 1.253070869603547e+01
 1.808200652997898e+00	 7.060994890689093e-01	 1.251846307640985e+01
 1.801523053827637e+00	 7.229666496408678e-01	 1.250883734900541e+01
 1.794674870404484e+00	 7.398028112301591e-01	 1.250223489781705e+01
 1.787656071011069e+00	 7.566054861965167e-01	 1.249906494012461e+01
 1.780466670616331e+00	 7.733721774086496e-01	 1.249973420337505e+01
 1.773106731302768e+00	 7.901003793026620e-01	 1.250463794653582e+01
 1.765576362665894e+00	 8.067875789579735e-01	 1.251415032360786e+01
 1.757875722185166e+00	 8.234312571899246e-01	 1.252984654388095e+01
 1.750005015565663e+00	 8.400288896582196e-01	 1.255363618089985e+01
 1.826562772662593e+00	 6.743192862486412e-01	 1.251299530072180e+01
 1.820206860246075e+00	 6.912923030071012e-01	 1.249607507241089e+01
 1.813680048916073e+00	 7.082391844903302e-01	 1.248166734718243e+01
 1.806982214596812e+00	 7.251574576700827e-01	 1.247016572377306e+01
 1.800113279102679e+00	 7.420446379308564e-01	 1.246197885597438e+01
 1.793073210620193e+00	 7.588982300940819e-01	 1.245752272271734e+01
 1.785862024163653e+00	 7.757157294614032e-01	 1.245721223676060e+01
 1.778479782003686e+00	 7.924946228763062e-01	 1.246145218618850e+01
 1.770926594067912e+00	 8.092323898033004e-01	 1.247062750591668e+01
 1.763202618313000e+00	 8.259265034238336e-01	 1.248515338562626e+01
 1.755308061067377e+00	 8.425744317480931e-01	 1.250736205797669e+01
 1.832081089196317e+00	 6.763565046360991e-01	 1.248086505525731e+01
 1.825705974627483e+00	 6.933807993908084e-01	 1.246141207149968e+01
 1.819159444834248e+00	 7.103788799117511e-01	 1.244474577395837e+01
 1.812441375365986e+00	 7.273482656992973e-01	 1.243126193544811e+01
 1.805551687800874e+00	 7.442864646315539e-01	 1.242137246272699e+01
 1.798490350229317e+00	 7.611909739916470e-01	 1.241549760650898e+01
 1.791257377710975e+00	 7.780592815141567e-01	 1.241405749945627e+01
 1.783852832704603e+00	 7.948888664499509e-01	 1.241746301583454e+01
 1.776276825469930e+00	 8.116772006486277e-01	 1.242610594953916e+01
 1.768529514440833e+00	 8.284217496577423e-01	 1.244034851046349e+01
 1.760611106569091e+00	 8.451199738379662e-01	 1.246093595775574e+01
 1.837599405730041e+00	 6.783937230235574e-01	 1.244877822054822e+01
 1.831205089008891e+00	 6.954692957745159e-01	 1.242671654639558e+01
 1.824638840752424e+00	 7.125185753331719e-01	 1.240770334963578e+01
 1.817900536135162e+00	 7.295390737285119e-01	 1.239213503734818e+01
 1.810990096499070e+00	 7.465282913322514e-01	 1.238042476257199e+01
 1.803907489838442e+00	 7.634837178892121e-01	 1.237299457129616e+01
 1.796652731258297e+00	 7.804028335669099e-01	 1.237026686731475e+01
 1.789225883405521e+00	 7.972831100235955e-01	 1.237265518810979e+01
 1.781627056871948e+00	 8.141220114939548e-01	 1.238055428797993e+01
 1.773856410568667e+00	 8.309169958916514e-01	 1.239432952793506e+01
 1.765914152070806e+00	 8.476655159278395e-01	 1.241430557541497e+01
 1.843117722263764e+00	 6.804309414110156e-01	 1.241671850283368e+01
 1.836704203390299e+00	 6.975577921582232e-01	 1.239198425382277e+01
 1.830118236670599e+00	 7.146582707545927e-01	 1.237054384499011e+01
 1.823359696904336e+00	 7.317298817577269e-01	 1.235279278457642e+01
 1.816428505197266e+00	 7.487701180329488e-01	 1.233914347504278e+01
 1.809324629447566e+00	 7.657764617867774e-01	 1.233001729415160e+01
 1.802048084805620e+00	 7.827463856196637e-01	 1.232583598430607e+01
 1.794598934106438e+00	 7.996773535972398e-01	 1.232701234278874e+01
 1.786977288273966e+00	 8.165668223392817e-01	 1.233394020862892e+01
 1.779183306696501e+00	 8.334122421255603e-01	 1.234698374516677e+01
 1.771217197572520e+00	 8.502110580177130e-01	 1.236646602096356e+01
 1.848636038797489e+00	 6.824681597984735e-01	 1.238466869291589e+01
 1.842203317771708e+00	 6.996462885419305e-01	 1.235720986272351e+01
 1.835597632588774e+00	 7.167979661760140e-01	 1.233326981987417e+01
 1.828818857673510e+00	 7.339206897869416e-01	 1.231324164709339e+01
 1.821866913895461e+00	 7.510119447336463e-01	 1.229753500891291e+01
 1.814741769056691e+00	 7.680692056843426e-01	 1.228656816402198e+01
 1.807443438352942e+00	 7.850899376724169e-01	 1.228075927677343e+01
 1.799971984807356e+00	 8.020715971708839e-01	 1.228051701996491e+01
 1.792327519675983e+00	 8.190116331846091e-01	 1.228623046413581e+01
 1.784510202824335e+00	 8.359074883594689e-01	 1.229825825199474e+01
 1.776520243074234e+00	 8.527566001075866e-01	 1.231691706021650e+01
 1.854154355331212e+00	 6.845053781859318e-01	 1.235261067163966e+01
 1.847702432153115e+00	 7.017347849256376e-01	 1.232238696304452e+01
 1.841077028506950e+00	 7.189376615974346e-01	 1.229588263458343e+01
 1.834278018442685e+00	 7.361114978161563e-01	 1.227348682293380e+01
 1.827305322593657e+00	 7.532537714343439e-01	 1.225560447653794e+01
 1.820158908665816e+00	 7.703619495819076e-01	 1.224264829646967e+01
 1.812838791900264e+00	 7.874334897251706e-01	 1.223502996785177e+01
 1.805345035508273e+00	 8.044658407445284e-01	 1.223315067342570e+01
 1.797677751078002e+00	 8.214564440299363e-01	 1.223739088402378e+01
 1.789837098952169e+00	 8.384027345933777e-01	 1.224809942410525e+01
 1.781823288575948e+00	 8.553021421974598e-01	 1.226558181418163e+01
 1.859672671864936e+00	 6.865425965733900e-01	 1.232052541561221e+01
 1.853201546534524e+00	 7.038232813093449e-01	 1.228750807471797e+01
 1.846556424425126e+00	 7.210773570188556e-01	 1.225838246138331e+01
 1.839737179211860e+00	 7.383023058453710e-01	 1.223353225156537e+01
 1.832743731291852e+00	 7.554955981350414e-01	 1.221335570833229e+01
 1.825576048274939e+00	 7.726546934794730e-01	 1.219825754855534e+01
 1.818234145447586e+00	 7.897770417779237e-01	 1.218864009204574e+01
 1.810718086209191e+00	 8.068600843181730e-01	 1.218489368421768e+01
 1.803027982480019e+00	 8.239012548752633e-01	 1.218738638653733e+01
 1.795163995080003e+00	 8.408979808272867e-01	 1.219645293246368e+01
 1.787126334077662e+00	 8.578476842873332e-01	 1.221238295029171e+01
 1.865190988398660e+00	 6.885798149608481e-01	 1.228839300315814e+01
 1.858700660915931e+00	 7.059117776930521e-01	 1.225256465683289e+01
 1.852035820343301e+00	 7.232170524402767e-01	 1.222076829619479e+01
 1.845196339981034e+00	 7.404931138745856e-01	 1.219338062738697e+01
 1.838182139990047e+00	 7.577374248357388e-01	 1.217079126737844e+01
 1.830993187884064e+00	 7.749474373770382e-01	 1.215339453385853e+01
 1.823629498994908e+00	 7.921205938306773e-01	 1.214158050996371e+01
 1.816091136910108e+00	 8.092543278918174e-01	 1.213572537439859e+01
 1.808378213882037e+00	 8.263460657205906e-01	 1.213618099071942e+01
 1.800490891207836e+00	 8.433932270611952e-01	 1.214326375302787e+01
 1.792429379579376e+00	 8.603932263772066e-01	 1.215724268906878e+01
 1.870709304932384e+00	 6.906170333483063e-01	 1.225619262050459e+01
 1.864199775297340e+00	 7.080002740767594e-01	 1.221754711699333e+01
 1.857515216261476e+00	 7.253567478616976e-01	 1.218303797043549e+01
 1.850655500750209e+00	 7.426839219038004e-01	 1.215303341336280e+01
 1.843620548688242e+00	 7.599792515364361e-01	 1.212791246416571e+01
 1.836410327493188e+00	 7.772401812746034e-01	 1.210805663763334e+01
 1.829024852542231e+00	 7.944641458834309e-01	 1.209384092320456e+01
 1.821464187611026e+00	 8.116485714654618e-01	 1.208562402097193e+01
 1.813728445284055e+00	 8.287908765659178e-01	 1.208373782871333e+01
 1.805817787335670e+00	 8.458884732951044e-01	 1.208847617673979e+01
 1.797732425081090e+00	 8.629387684670800e-01	 1.210008281113255e+01
 1.876227621466108e+00	 6.926542517357644e-01	 1.222390256819216e+01
 1.869698889678748e+00	 7.100887704604668e-01	 1.218244482085916e+01
 1.862994612179652e+00	 7.274964432831187e-01	 1.214518816301279e+01
 1.856114661519384e+00	 7.448747299330154e-01	 1.211249085479028e+01
 1.849058957386438e+00	 7.622210782371336e-01	 1.208471937145596e+01
 1.841827467102313e+00	 7.795329251721687e-01	 1.206224003209642e+01
 1.834420206089553e+00	 7.968076979361846e-01	 1.204540988939436e+01
 1.826837238311943e+00	 8.140428150391064e-01	 1.203456687000049e+01
 1.819078676686073e+00	 8.312356874112451e-01	 1.203001915828438e+01
 1.811144683463504e+00	 8.483837195290134e-01	 1.203203381979005e+01
 1.803035470582804e+00	 8.654843105569533e-01	 1.204082466454587e+01
 1.750005015565663e+00	 8.400288896582196e-01	 1.255363618089985e+01
 1.741964497049841e+00	 8.565779479903111e-01	 1.258481468578250e+01
 1.733754469698687e+00	 8.730759009188285e-01	 1.262252644470911e+01
 1.725375285641664e+00	 8.895202154320867e-01	 1.266620977863292e+01
 1.716827346294847e+00	 9.059083579367135e-01	 1.271513242650551e+01
 1.708111102546687e+00	 9.222377954313838e-01	 1.276839407523527e+01
 1.699227054910883e+00	 9.385059966906361e-01	 1.282493090462622e+01
 1.690175753645870e+00	 9.547104334577126e-01	 1.288352223780945e+01
 1.680957798840477e+00	 9.708485816453445e-01	 1.294279937739752e+01
 1.671573840465344e+00	 9.869179225433786e-01	 1.300125669635504e+01
 1.662024578389724e+00	 1.002915944032129e+00	 1.305726504043100e+01
 1.755308061067377e+00	 8.425744317480931e-01	 1.250736205797669e+01
 1.747243177343932e+00	 8.591736387417969e-01	 1.253748806139593e+01
 1.739008271122016e+00	 8.757215854670675e-01	 1.257455302945486e+01
 1.730603695598154e+00	 8.922157312364264e-01	 1.261806412431446e+01
 1.722029853404832e+00	 9.086535347789458e-01	 1.266736239995244e+01
 1.713287196796828e+00	 9.250324554175392e-01	 1.272162511302092e+01
 1.704376227804552e+00	 9.413499542563656e-01	 1.277987007304050e+01
 1.695297498353887e+00	 9.576034953772815e-01	 1.284096212500370e+01
 1.686051610352115e+00	 9.737905470442696e-01	 1.290362184703568e+01
 1.676639215739482e+00	 9.899085829147222e-01	 1.296643653436314e+01
 1.667061016506057e+00	 1.005955083256469e+00	 1.302787352851210e+01
 1.760611106569091e+00	 8.451199738379662e-01	 1.246093595775574e+01
 1.752521857638022e+00	 8.617693294932830e-01	 1.248957263192460e+01
 1.744262072545345e+00	 8.783672700153061e-01	 1.252559627165565e+01
 1.735832105554644e+00	 8.949112470407660e-01	 1.256858915055116e+01
 1.727232360514815e+00	 9.113987116211781e-01	 1.261797253111751e+01
 1.718463291046971e+00	 9.278271154036952e-01	 1.267300874753757e+01
 1.709525400698222e+00	 9.441939118220948e-01	 1.273280535165379e+01
 1.700419243061906e+00	 9.604965572968504e-01	 1.279632141783924e+01
 1.691145421863753e+00	 9.767325124431948e-01	 1.286237609186867e+01
 1.681704591013619e+00	 9.928992432860654e-01	 1.292965945734135e+01
 1.672097454622389e+00	 1.008994222480809e+00	 1.299674578069546e+01
 1.765914152070806e+00	 8.476655159278395e-01	 1.241430557541497e+01
 1.757800537932112e+00	 8.643650202447688e-01	 1.244102967073172e+01
 1.749515873968674e+00	 8.810129545635450e-01	 1.247559921615258e+01
 1.741060515511133e+00	 8.976067628451057e-01	 1.251771529635669e+01
 1.732434867624800e+00	 9.141438884634107e-01	 1.256688626544087e+01
 1.723639385297112e+00	 9.306217753898506e-01	 1.262246702655230e+01
 1.714674573591891e+00	 9.470378693878235e-01	 1.268366296404165e+01
 1.705540987769923e+00	 9.633896192164192e-01	 1.274953606055709e+01
 1.696239233375390e+00	 9.796744778421201e-01	 1.281901328670113e+01
 1.686769966287756e+00	 9.958899036574093e-01	 1.289089733914699e+01
 1.677133892738722e+00	 1.012033361705149e+00	 1.296387979041932e+01
 1.771217197572520e+00	 8.502110580177130e-01	 1.236646602096356e+01
 1.763079218226203e+00	 8.669607109962544e-01	 1.239182091694258e+01
 1.754769675392005e+00	 8.836586391117839e-01	 1.242450541852119e+01
 1.746288925467623e+00	 9.003022786494451e-01	 1.246537349494677e+01
 1.737637374734784e+00	 9.168890653056434e-01	 1.251402746559753e+01
 1.728815479547253e+00	 9.334164353760066e-01	 1.256992227876725e+01
 1.719823746485560e+00	 9.498818269535529e-01	 1.263236922021551e+01
 1.710662732477941e+00	 9.662826811359880e-01	 1.270054183229773e+01
 1.701333044887028e+00	 9.826164432410460e-01	 1.277348413385214e+01
 1.691835341561894e+00	 9.988805640287528e-01	 1.285012121913307e+01
 1.682170330855054e+00	 1.015072500929489e+00	 1.292927230120323e+01
 1.776520243074234e+00	 8.527566001075866e-01	 1.231691706021650e+01
 1.768357898520293e+00	 8.695564017477400e-01	 1.234158164975007e+01
 1.760023476815333e+00	 8.863043236600229e-01	 1.237225885040705e+01
 1.751517335424113e+00	 9.029977944537848e-01	 1.241149507572002e+01
 1.742839881844769e+00	 9.196342421478756e-01	 1.245932031114617e+01
 1.733991573797395e+00	 9.362110953621621e-01	 1.251529701215341e+01
 1.724972919379230e+00	 9.527257845192821e-01	 1.257885041465152e+01
 1.715784477185959e+00	 9.691757430555569e-01	 1.264927424582672e+01
 1.706426856398666e+00	 9.855584086399708e-01	 1.272573876357186e+01
 1.696900716836031e+00	 1.001871224400096e+00	 1.280730120524011e+01
 1.687206768971387e+00	 1.018111640153828e+00	 1.289291871338945e+01
 1.781823288575948e+00	 8.553021421974598e-01	 1.226558181418163e+01
 1.773636578814383e+00	 8.721520924992259e-01	 1.228927074560482e+01
 1.765277278238663e+00	 8.889500082082619e-01	 1.231879629809304e+01
 1.756745745380603e+00	 9.056933102581244e-01	 1.235601166675458e+01
 1.748042388954753e+00	 9.223794189901083e-01	 1.240268919870865e+01
 1.739167668047536e+00	 9.390057553483183e-01	 1.245851381281232e+01
 1.730122092272899e+00	 9.555697420850114e-01	 1.252303272482697e+01
 1.720906221893977e+00	 9.720688049751255e-01	 1.259566844673186e+01
 1.711520667910304e+00	 9.885003740388960e-01	 1.267572663487616e+01
 1.701966092110169e+00	 1.004861884771440e+00	 1.276240637743643e+01
 1.692243207087720e+00	 1.021150779378168e+00	 1.285481299114680e+01
 1.787126334077662e+00	 8.578476842873332e-01	 1.221238295029171e+01
 1.778915259108474e+00	 8.747477832507117e-01	 1.223472479673978e+01
 1.770531079661992e+00	 8.915956927565004e-01	 1.226329204423905e+01
 1.761974155337093e+00	 9.083888260624643e-01	 1.229885509780947e+01
 1.753244896064737e+00	 9.251245958323405e-01	 1.234405864266850e+01
 1.744343762297677e+00	 9.418004153344736e-01	 1.239949524435421e+01
 1.735271265166568e+00	 9.584136996507405e-01	 1.246484211025459e+01
 1.726027966601994e+00	 9.749618668946944e-01	 1.253965911308194e+01
 1.716614479421941e+00	 9.914423394378211e-01	 1.262339643679080e+01
 1.707031467384307e+00	 1.007852545142784e+00	 1.271540469149962e+01
 1.697279645204052e+00	 1.024189918602508e+00	 1.281494756973154e+01
 1.792429379579376e+00	 8.603932263772066e-01	 1.215724268906878e+01
 1.784193939402564e+00	 8.773434740021975e-01	 1.217784405248196e+01
 1.775784881085322e+00	 8.942413773047395e-01	 1.220513354864340e+01
 1.767202565293582e+00	 9.110843418668039e-01	 1.223982114212971e+01
 1.758447403174722e+00	 9.278697726745730e-01	 1.228335317637800e+01
 1.749519856547819e+00	 9.445950753206294e-01	 1.233816374778249e+01
 1.740420438060238e+00	 9.612576572164697e-01	 1.240420421200367e+01
 1.731149711310012e+00	 9.778549288142635e-01	 1.248118035553760e+01
 1.721708290933579e+00	 9.943843048367467e-01	 1.256869598999666e+01
 1.712096842658444e+00	 1.010843205514127e+00	 1.266626288313205e+01
 1.702316083320384e+00	 1.027229057826847e+00	 1.277331326299979e+01
 1.797732425081090e+00	 8.629387684670800e-01	 1.210008281113255e+01
 1.789472619696655e+00	 8.799391647536832e-01	 1.211852855738000e+01
 1.781038682508650e+00	 8.968870618529782e-01	 1.214420429266292e+01
 1.772430975250072e+00	 9.137798576711434e-01	 1.217792488676310e+01
 1.763649910284706e+00	 9.306149495168055e-01	 1.222049725386336e+01
 1.754695950797960e+00	 9.473897353067849e-01	 1.227444154187351e+01
 1.745569610953907e+00	 9.641016147821989e-01	 1.234104425269859e+01
 1.736271456018030e+00	 9.807479907338321e-01	 1.242016561790502e+01
 1.726802102445217e+00	 9.973262702356718e-01	 1.251157214886773e+01
 1.717162217932581e+00	 1.013833865885471e+00	 1.261494637240379e+01
 1.707352521436717e+00	 1.030268197051187e+00	 1.272989917116649e+01
 1.803035470582804e+00	 8.654843105569533e-01	 1.204082466454587e+01
 1.794751299990746e+00	 8.825348555051691e-01	 1.205667815574805e+01
 1.786292483931980e+00	 8.995327464012172e-01	 1.208038772796833e+01
 1.777659385206563e+00	 9.164753734754831e-01	 1.211287818198737e+01
 1.768852417394691e+00	 9.333601263590381e-01	 1.215505951105926e+01
 1.759872045048102e+00	 9.501843952929407e-01	 1.220825052404199e+01
 1.750718783847576e+00	 9.669455723479283e-01	 1.227528693698431e+01
 1.741393200726048e+00	 9.836410526534011e-01	 1.235654757812318e+01
 1.731895913956855e+00	 1.000268235634597e+00	 1.245197070389370e+01
 1.722227593206718e+00	 1.016824526256814e+00	 1.256141916851604e+01
 1.712388959553049e+00	 1.033307336275527e+00	 1.268469258880578e+01
 1.662024578389724e+00	 1.002915944032129e+00	 1.305726504043100e+01
 1.652310762363346e+00	 1.018840141800300e+00	 1.311869900544989e+01
 1.642433191963047e+00	 1.034688020566332e+00	 1.319208574093377e+01
 1.632392716503939e+00	 1.050457095301988e+00	 1.327352881954015e+01
 1.622190234914902e+00	 1.066144892456992e+00	 1.335893471671895e+01
 1.611826695578266e+00	 1.081748951183521e+00	 1.344403973331360e+01
 1.601303096133547e+00	 1.097266824559330e+00	 1.352443949174117e+01
 1.590620483245215e+00	 1.112696080808304e+00	 1.359562095651882e+01
 1.579779952334440e+00	 1.128034304517195e+00	 1.365299691257157e+01
 1.568782647274887e+00	 1.143279097847326e+00	 1.369194281724710e+01
 1.557629760052608e+00	 1.158428081740016e+00	 1.370783592439021e+01
 1.667061016506057e+00	 1.005955083256469e+00	 1.302787352851210e+01
 1.657317764673538e+00	 1.021927536169392e+00	 1.309527802472981e+01
 1.647410262241723e+00	 1.037823438810472e+00	 1.317454187480609e+01
 1.637339361099405e+00	 1.053640298621085e+00	 1.326169762491314e+01
 1.627105962899493e+00	 1.069375634555348e+00	 1.335256576336358e+01
 1.616711018898199e+00	 1.085026978308319e+00	 1.344278188325908e+01
 1.606155529758194e+00	 1.100591875542843e+00	 1.352782648755331e+01
 1.595440545315654e+00	 1.116067887113783e+00	 1.360305738763463e+01
 1.584567164311211e+00	 1.131452590288459e+00	 1.366374462884384e+01
 1.573536534084811e+00	 1.146743579962015e+00	 1.370510785846982e+01
 1.562349850234585e+00	 1.161938469866501e+00	 1.372235603382193e+01
 1.672097454622389e+00	 1.008994222480809e+00	 1.299674578069546e+01
 1.662324766983730e+00	 1.025014930538484e+00	 1.307038418805078e+01
 1.652387332520399e+00	 1.040958857054613e+00	 1.315575829922154e+01
 1.642286005694872e+00	 1.056823501940182e+00	 1.324883069042989e+01
 1.632021690884084e+00	 1.072606376653701e+00	 1.334533639619172e+01
 1.621595342218134e+00	 1.088305005433118e+00	 1.344081030862029e+01
 1.611007963382841e+00	 1.103916926526356e+00	 1.353061728947812e+01
 1.600260607386094e+00	 1.119439693419263e+00	 1.360998494644670e+01
 1.589354376287982e+00	 1.134870876059724e+00	 1.367403900703412e+01
 1.578290420894735e+00	 1.150208062076704e+00	 1.371784120529469e+01
 1.567069940416563e+00	 1.165448857992986e+00	 1.373642957821551e+01
 1.677133892738722e+00	 1.012033361705149e+00	 1.296387979041932e+01
 1.667331769293922e+00	 1.028102324907576e+00	 1.304404311317431e+01
 1.657364402799074e+00	 1.044094275298753e+00	 1.313578589098876e+01
 1.647232650290338e+00	 1.060006705259279e+00	 1.323500180180305e+01
 1.636937418868674e+00	 1.075837118752056e+00	 1.333734097397369e+01
 1.626479665538068e+00	 1.091583032557917e+00	 1.343823761878260e+01
 1.615860397007489e+00	 1.107241977509869e+00	 1.353294044753706e+01
 1.605080669456534e+00	 1.122811499724743e+00	 1.361654582512362e+01
 1.594141588264753e+00	 1.138289161830988e+00	 1.368403359346041e+01
 1.583044307704659e+00	 1.153672544191392e+00	 1.373030547967263e+01
 1.571790030598541e+00	 1.168959246119470e+00	 1.375022598510902e+01
 1.682170330855054e+00	 1.015072500929489e+00	 1.292927230120323e+01
 1.672338771604114e+00	 1.031189719276667e+00	 1.301627874663571e+01
 1.662341473077751e+00	 1.047229693542894e+00	 1.311467347538319e+01
 1.652179294885804e+00	 1.063189908578376e+00	 1.322028235420967e+01
 1.641853146853265e+00	 1.079067860850411e+00	 1.332867116749550e+01
 1.631363988858002e+00	 1.094861059682715e+00	 1.343517347944591e+01
 1.620712830632135e+00	 1.110567028493382e+00	 1.353492135425117e+01
 1.609900731526974e+00	 1.126183306030222e+00	 1.362287888648489e+01
 1.598928800241524e+00	 1.141707447602252e+00	 1.369387847523317e+01
 1.587798194514582e+00	 1.157137026306081e+00	 1.374265975644363e+01
 1.576510120780518e+00	 1.172469634245956e+00	 1.376391108888804e+01
 1.687206768971387e+00	 1.018111640153828e+00	 1.289291871338945e+01
 1.677345773914306e+00	 1.034277113645759e+00	 1.298711327440781e+01
 1.667318543356426e+00	 1.050365111787034e+00	 1.309246774031415e+01
 1.657125939481271e+00	 1.066373111897473e+00	 1.320474126954345e+01
 1.646768874837856e+00	 1.082298602948765e+00	 1.331941587948102e+01
 1.636248312177937e+00	 1.098139086807514e+00	 1.343172453480406e+01
 1.625565264256782e+00	 1.113892079476895e+00	 1.353668216866667e+01
 1.614720793597415e+00	 1.129555112335702e+00	 1.362911958946626e+01
 1.603716012218295e+00	 1.145125733373517e+00	 1.370372020675560e+01
 1.592552081324506e+00	 1.160601508420770e+00	 1.375505949047107e+01
 1.581230210962496e+00	 1.175980022372440e+00	 1.377764705815599e+01
 1.692243207087720e+00	 1.021150779378168e+00	 1.285481299114680e+01
 1.682352776224498e+00	 1.037364508014851e+00	 1.295656703273773e+01
 1.672295613635102e+00	 1.053500530031174e+00	 1.306921315058326e+01
 1.662072584076737e+00	 1.069556315216570e+00	 1.318844491368636e+01
 1.651684602822446e+00	 1.085529345047120e+00	 1.330966116446984e+01
 1.641132635497871e+00	 1.101417113932312e+00	 1.342799432962485e+01
 1.630417697881429e+00	 1.117217130460408e+00	 1.353834174023601e+01
 1.619540855667855e+00	 1.132926918641182e+00	 1.363539991440231e+01
 1.608503224195066e+00	 1.148544019144781e+00	 1.371370173601245e+01
 1.597305968134430e+00	 1.164065990535459e+00	 1.376765644354417e+01
 1.585950301144474e+00	 1.179490410498925e+00	 1.379215912964514e+01
 1.697279645204052e+00	 1.024189918602508e+00	 1.281494756973154e+01
 1.687359778534690e+00	 1.040451902383943e+00	 1.292465841915310e+01
 1.677272683913778e+00	 1.056635948275315e+00	 1.304495186223318e+01
 1.667019228672204e+00	 1.072739518535667e+00	 1.317145701379944e+01
 1.656600330807037e+00	 1.088760087145474e+00	 1.329949014865219e+01
 1.646016958817804e+00	 1.104695141057111e+00	 1.342408323123322e+01
 1.635270131506077e+00	 1.120542181443922e+00	 1.354001553255625e+01
 1.624360917738294e+00	 1.136298724946661e+00	 1.364184828813016e+01
 1.613290436171838e+00	 1.151962304916045e+00	 1.372396233065171e+01
 1.602059854944355e+00	 1.167530472650148e+00	 1.378059861105330e+01
 1.590670391326451e+00	 1.183000798625411e+00	 1.380849564496005e+01
 1.702316083320384e+00	 1.027229057826847e+00	 1.277331326299979e+01
 1.692366780844882e+00	 1.043539296753035e+00	 1.289140380363316e+01
 1.682249754192454e+00	 1.059771366519455e+00	 1.301972363698399e+01
 1.671965873267670e+00	 1.075922721854764e+00	 1.315383857563210e+01
 1.661516058791627e+00	 1.091990829243829e+00	 1.328898294966152e+01
 1.650901282137739e+00	 1.107973168181909e+00	 1.342008835139977e+01
 1.640122565130724e+00	 1.123867232427435e+00	 1.354181554696874e+01
 1.629180979808735e+00	 1.139670531252142e+00	 1.364858950891822e+01
 1.618077648148608e+00	 1.155380590687309e+00	 1.373463750386333e+01
 1.606813741754278e+00	 1.170994954764837e+00	 1.379403014844319e+01
 1.595390481508429e+00	 1.186511186751895e+00	 1.382672481545510e+01
 1.707352521436717e+00	 1.030268197051187e+00	 1.272989917116649e+01
 1.697373783155074e+00	 1.046626691122127e+00	 1.285681743994286e+01
 1.687226824471130e+00	 1.062906784763596e+00	 1.299356575675592e+01
 1.676912517863137e+00	 1.079105925173860e+00	 1.313564780085011e+01
 1.666431786776218e+00	 1.095221571342183e+00	 1.327821659632568e+01
 1.655785605457673e+00	 1.111251195306708e+00	 1.341610346813632e+01
 1.644974998755371e+00	 1.127192283410948e+00	 1.354385024602223e+01
 1.634001041879175e+00	 1.143042337557621e+00	 1.365574467122330e+01
 1.622864860125379e+00	 1.158798876458573e+00	 1.374585894005948e+01
 1.611567628564202e+00	 1.174459436879526e+00	 1.380809129744834e+01
 1.600110571690406e+00	 1.190021574878380e+00	 1.384689558764958e+01
 1.712388959553049e+00	 1.033307336275527e+00	 1.268469258880578e+01
 1.702380785465266e+00	 1.049714085491218e+00	 1.282091137712537e+01
 1.692203894749806e+00	 1.066042203007736e+00	 1.296651293827640e+01
 1.681859162458603e+00	 1.082289128492958e+00	 1.311694000438096e+01
 1.671347514760808e+00	 1.098452313440538e+00	 1.326726494837767e+01
 1.660669928777607e+00	 1.114529222431506e+00	 1.341221894740032e+01
 1.649827432380018e+00	 1.130517334394461e+00	 1.354622447680284e+01
 1.638821103949615e+00	 1.146414143863101e+00	 1.366343109027975e+01
 1.627652072102150e+00	 1.162217162229838e+00	 1.375775442036021e+01
 1.616321515374126e+00	 1.177923918994215e+00	 1.382303142931737e+01
 1.604830661872384e+00	 1.193531963004865e+00	 1.386905299624163e+01
 1.557629760052608e+00	 1.158428081740016e+00	 1.370783592439021e+01
 1.546322530390188e+00	 1.173478897114508e+00	 1.369380255297506e+01
 1.534862245335310e+00	 1.188429206057159e+00	 1.365403091145190e+01
 1.523250238813959e+00	 1.203276693000665e+00	 1.360867455375554e+01
 1.511487891148563e+00	 1.218019065892102e+00	 1.355773880283733e+01
 1.499576628541361e+00	 1.232654057348583e+00	 1.350059298531019e+01
 1.487517922523399e+00	 1.247179425799299e+00	 1.343661822657925e+01
 1.475313289369550e+00	 1.261592956612789e+00	 1.336519873668798e+01
 1.462964289480028e+00	 1.275892463208243e+00	 1.328571213921679e+01
 1.450472526728918e+00	 1.290075788149682e+00	 1.319751890652497e+01
 1.437839647780262e+00	 1.304140804221895e+00	 1.309995097301121e+01
 1.562349850234585e+00	 1.161938469866501e+00	 1.372235603382193e+01
 1.551008356239856e+00	 1.177034893772431e+00	 1.370851792227125e+01
 1.539513343048447e+00	 1.192030506681575e+00	 1.367494528919625e+01
 1.527866148628547e+00	 1.206922986009757e+00	 1.363548072352070e+01
 1.516068157485377e+00	 1.221710032758442e+00	 1.358948332935918e+01
 1.504120800143001e+00	 1.236389372673882e+00	 1.353633554069292e+01
 1.492025552591652e+00	 1.250958757392630e+00	 1.347543525692083e+01
 1.479783935700973e+00	 1.265415965572222e+00	 1.340618693742043e+01
 1.467397514599664e+00	 1.279758804005844e+00	 1.332799171064696e+01
 1.454867898022037e+00	 1.293985108719834e+00	 1.324023656221015e+01
 1.442196737622021e+00	 1.308092746052870e+00	 1.314228267495198e+01
 1.567069940416563e+00	 1.165448857992986e+00	 1.373642957821551e+01
 1.555694182089523e+00	 1.180590890430353e+00	 1.372392672939716e+01
 1.544164440761585e+00	 1.195631807305991e+00	 1.369708897415026e+01
 1.532482058443135e+00	 1.210569279018850e+00	 1.366343621187766e+01
 1.520648423822190e+00	 1.225400999624781e+00	 1.362233248561942e+01
 1.508664971744642e+00	 1.240124687999180e+00	 1.357316892150095e+01
 1.496533182659904e+00	 1.254738088985961e+00	 1.351535570562656e+01
 1.484254582032395e+00	 1.269238974531655e+00	 1.344831299015643e+01
 1.471830739719300e+00	 1.283625144803444e+00	 1.337146078504820e+01
 1.459263269315154e+00	 1.297894429289984e+00	 1.328420790106137e+01
 1.446553827463779e+00	 1.312044687883846e+00	 1.318594001840215e+01
 1.571790030598541e+00	 1.168959246119470e+00	 1.375022598510902e+01
 1.560380007939190e+00	 1.184146887088276e+00	 1.374076132311774e+01
 1.548815538474722e+00	 1.199233107930406e+00	 1.372054058344805e+01
 1.537097968257722e+00	 1.214215572027943e+00	 1.369262039653757e+01
 1.525228690159004e+00	 1.229091966491121e+00	 1.365636543053868e+01
 1.513209143346283e+00	 1.243860003324479e+00	 1.361117111704695e+01
 1.501040812728157e+00	 1.258517420579293e+00	 1.355645547246064e+01
 1.488725228363818e+00	 1.273061983491087e+00	 1.349164981832444e+01
 1.476263964838937e+00	 1.287491485601045e+00	 1.341618845809727e+01
 1.463658640608272e+00	 1.301803749860134e+00	 1.332949737710608e+01
 1.450910917305537e+00	 1.315996629714820e+00	 1.323098204143092e+01
 1.576510120780518e+00	 1.172469634245956e+00	 1.376391108888804e+01
 1.565065833788857e+00	 1.187702883746199e+00	 1.375909419018850e+01
 1.553466636187859e+00	 1.202834408554822e+00	 1.374537439597621e+01
 1.541713878072310e+00	 1.217861865037036e+00	 1.372310835175512e+01
 1.529808956495818e+00	 1.232782933357461e+00	 1.369165706272146e+01
 1.517753314947923e+00	 1.247595318649778e+00	 1.365041590739110e+01
 1.505548442796410e+00	 1.262296752172624e+00	 1.359880630650806e+01
 1.493195874695241e+00	 1.276884992450520e+00	 1.353626626035627e+01
 1.480697189958573e+00	 1.291357826398646e+00	 1.346223981287663e+01
 1.468054011901391e+00	 1.305713070430285e+00	 1.337616551052444e+01
 1.455268007147296e+00	 1.319948571545796e+00	 1.327746393298806e+01
 1.581230210962496e+00	 1.175980022372440e+00	 1.377764705815599e+01
 1.569751659638525e+00	 1.191258880404122e+00	 1.377899353246851e+01
 1.558117733900997e+00	 1.206435709179237e+00	 1.377166043203104e+01
 1.546329787886898e+00	 1.221508158046129e+00	 1.375497092803280e+01
 1.534389222832632e+00	 1.236473900223801e+00	 1.372827809995799e+01
 1.522297486549563e+00	 1.251330633975077e+00	 1.369097294239736e+01
 1.510056072864663e+00	 1.266076083765955e+00	 1.364247588454871e+01
 1.497666521026664e+00	 1.280708001409952e+00	 1.358222714714800e+01
 1.485130415078210e+00	 1.295224167196246e+00	 1.350967599619992e+01
 1.472449383194508e+00	 1.309622391000435e+00	 1.342426896262261e+01
 1.459625096989055e+00	 1.323900513376772e+00	 1.332543710631650e+01
 1.585950301144474e+00	 1.179490410498925e+00	 1.379215912964514e+01
 1.574437485488192e+00	 1.194814877062045e+00	 1.380052334602605e+01
 1.562768831614133e+00	 1.210037009803653e+00	 1.379946453272383e+01
 1.550945697701486e+00	 1.225154451055222e+00	 1.378827483157462e+01
 1.538969489169446e+00	 1.240164867090140e+00	 1.376629515848057e+01
 1.526841658151204e+00	 1.255065949300375e+00	 1.373290782055216e+01
 1.514563702932916e+00	 1.269855415359286e+00	 1.368752788920438e+01
 1.502137167358087e+00	 1.284531010369385e+00	 1.362959337930863e+01
 1.489563640197846e+00	 1.299090507993847e+00	 1.355855429474095e+01
 1.476844754487626e+00	 1.313531711570586e+00	 1.347386061062948e+01
 1.463982186830813e+00	 1.327852455207747e+00	 1.337494927221026e+01
 1.590670391326451e+00	 1.183000798625411e+00	 1.380849564496005e+01
 1.579123311337859e+00	 1.198370873719968e+00	 1.382374349999949e+01
 1.567419929327271e+00	 1.213638310428068e+00	 1.382884843914019e+01
 1.555561607516074e+00	 1.228800744064315e+00	 1.382308270349513e+01
 1.543549755506260e+00	 1.243855833956480e+00	 1.380577083197918e+01
 1.531385829752844e+00	 1.258801264625674e+00	 1.377628216755007e+01
 1.519071333001168e+00	 1.273634746952617e+00	 1.373402208686399e+01
 1.506607813689510e+00	 1.288354019328818e+00	 1.367842200420008e+01
 1.493996865317483e+00	 1.302956848791448e+00	 1.360892821097141e+01
 1.481240125780744e+00	 1.317441032140736e+00	 1.352498962232083e+01
 1.468339276672571e+00	 1.331804397038723e+00	 1.342604451212194e+01
 1.595390481508429e+00	 1.186511186751895e+00	 1.382672481545510e+01
 1.583809137187526e+00	 1.201926870377890e+00	 1.384870981521981e+01
 1.572071027040408e+00	 1.217239611052484e+00	 1.385986987125823e+01
 1.560177517330661e+00	 1.232447037073408e+00	 1.385945319878844e+01
 1.548130021843073e+00	 1.247546800822820e+00	 1.384676377038211e+01
 1.535930001354485e+00	 1.262536579950973e+00	 1.382115371465195e+01
 1.523578963069421e+00	 1.277414078545949e+00	 1.378201440539124e+01
 1.511078460020932e+00	 1.292177028288251e+00	 1.372876629277332e+01
 1.498430090437119e+00	 1.306823189589049e+00	 1.366084753891030e+01
 1.485635497073862e+00	 1.321350352710887e+00	 1.357770153047429e+01
 1.472696366514329e+00	 1.335756338869698e+00	 1.347876335112240e+01
 1.600110571690406e+00	 1.190021574878380e+00	 1.384689558764958e+01
 1.588494963037193e+00	 1.205482867035813e+00	 1.387547414259855e+01
 1.576722124753546e+00	 1.220840911676900e+00	 1.389258260663036e+01
 1.564793427145249e+00	 1.236093330082500e+00	 1.389744106506222e+01
 1.552710288179887e+00	 1.251237767689160e+00	 1.388932875840543e+01
 1.540474172956126e+00	 1.266271895276271e+00	 1.386757637681936e+01
 1.528086593137674e+00	 1.281193410139280e+00	 1.383155701161928e+01
 1.515549106352355e+00	 1.296000037247683e+00	 1.378067581620435e+01
 1.502863315556755e+00	 1.310689530386649e+00	 1.371435843968955e+01
 1.490030868366980e+00	 1.325259673281038e+00	 1.363203830715894e+01
 1.477053456356088e+00	 1.339708280700673e+00	 1.353314283071565e+01
 1.604830661872384e+00	 1.193531963004865e+00	 1.386905299624163e+01
 1.593180788886861e+00	 1.209038863693736e+00	 1.390408444128639e+01
 1.581373222466683e+00	 1.224442212301315e+00	 1.392703655883416e+01
 1.569409336959837e+00	 1.239739623091593e+00	 1.393709722104155e+01
 1.557290554516701e+00	 1.254928734555499e+00	 1.393351679387702e+01
 1.545018344557766e+00	 1.270007210601571e+00	 1.391560033063052e+01
 1.532594223205926e+00	 1.284972741732611e+00	 1.388269838863690e+01
 1.520019752683778e+00	 1.299823046207116e+00	 1.383419652233491e+01
 1.507296540676392e+00	 1.314555871184250e+00	 1.376950351693905e+01
 1.494426239660098e+00	 1.329168993851188e+00	 1.368803843786241e+01
 1.481410546197846e+00	 1.343660222531649e+00	 1.358921658151221e+01
 1.437839647780262e+00	 1.304140804221895e+00	 1.309995097301121e+01
 1.425067341372306e+00	 1.318085415486974e+00	 1.298932026786186e+01
 1.412157337570560e+00	 1.331907558320407e+00	 1.286331360696674e+01
 1.399111406990357e+00	 1.345605202425608e+00	 1.272331480585735e+01
 1.385931359989634e+00	 1.359176351825870e+00	 1.257071847186076e+01
 1.372619045832711e+00	 1.372619045832711e+00	 1.240691282899393e+01
 1.359176351825870e+00	 1.385931359989635e+00	 1.223326217308956e+01
 1.345605202425608e+00	 1.399111406990357e+00	 1.205108907824029e+01
 1.331907558320407e+00	 1.412157337570559e+00	 1.186165647951735e+01
 1.318085415486974e+00	 1.425067341372305e+00	 1.166614975996686e+01
 1.304140804221894e+00	 1.437839647780263e+00	 1.146565897208295e+01
 1.442196737622021e+00	 1.308092746052870e+00	 1.314228267495198e+01
 1.429385727255253e+00	 1.322079613715722e+00	 1.303082851152801e+01
 1.416436602229865e+00	 1.335943641830469e+00	 1.290390853120246e+01
 1.403351138526692e+00	 1.349682793948110e+00	 1.276287888953071e+01
 1.390131151989603e+00	 1.363295068043524e+00	 1.260910570575034e+01
 1.376778497486749e+00	 1.376778497486749e+00	 1.244394758884249e+01
 1.363295068043525e+00	 1.390131151989603e+00	 1.226873778250408e+01
 1.349682793948110e+00	 1.403351138526691e+00	 1.208476605244580e+01
 1.335943641830469e+00	 1.416436602229864e+00	 1.189326044340086e+01
 1.322079613715722e+00	 1.429385727255252e+00	 1.169536903636455e+01
 1.308092746052870e+00	 1.442196737622021e+00	 1.149214183884897e+01
 1.446553827463779e+00	 1.312044687883846e+00	 1.318594001840215e+01
 1.433704113138198e+00	 1.326073811944470e+00	 1.307372920005204e+01
 1.420715866889170e+00	 1.339979725340531e+00	 1.294594797392109e+01
 1.407590870063026e+00	 1.353760385470612e+00	 1.280392515690245e+01
 1.394330943989572e+00	 1.367413784261178e+00	 1.264899880447437e+01
 1.380937949140787e+00	 1.380937949140787e+00	 1.248249843110220e+01
 1.367413784261178e+00	 1.394330943989572e+00	 1.230572683778446e+01
 1.353760385470612e+00	 1.407590870063026e+00	 1.211994167252617e+01
 1.339979725340531e+00	 1.420715866889169e+00	 1.192633685359660e+01
 1.326073811944471e+00	 1.433704113138198e+00	 1.172602398865143e+01
 1.312044687883845e+00	 1.446553827463779e+00	 1.152001392513701e+01
 1.450910917305537e+00	 1.315996629714820e+00	 1.323098204143092e+01
 1.438022499021145e+00	 1.330068010173219e+00	 1.311807591876216e+01
 1.424995131548474e+00	 1.344015808850592e+00	 1.298948073997065e+01
 1.411830601599360e+00	 1.357837976993114e+00	 1.284649830349119e+01
 1.398530735989540e+00	 1.371532500478832e+00	 1.269043902490147e+01
 1.385097400794826e+00	 1.385097400794826e+00	 1.252260384475507e+01
 1.371532500478832e+00	 1.398530735989540e+00	 1.234426573134125e+01
 1.357837976993114e+00	 1.411830601599360e+00	 1.215665090656161e+01
 1.344015808850592e+00	 1.424995131548473e+00	 1.196091992729712e+01
 1.330068010173219e+00	 1.438022499021144e+00	 1.175814875794974e+01
 1.315996629714820e+00	 1.450910917305537e+00	 1.154930997225829e+01
 1.455268007147296e+00	 1.319948571545796e+00	 1.327746393298806e+01
 1.442340884904091e+00	 1.334062208401967e+00	 1.316391848588982e+01
 1.429274396207779e+00	 1.348051892360654e+00	 1.303455193810865e+01
 1.416070333135695e+00	 1.361915568515615e+00	 1.289063938894277e+01
 1.402730527989509e+00	 1.375651216696486e+00	 1.273346403770672e+01
 1.389256852448864e+00	 1.389256852448864e+00	 1.256429877200399e+01
 1.375651216696486e+00	 1.402730527989509e+00	 1.238438733825030e+01
 1.361915568515616e+00	 1.416070333135695e+00	 1.219492522508754e+01
 1.348051892360654e+00	 1.429274396207778e+00	 1.199704039462021e+01
 1.334062208401968e+00	 1.442340884904091e+00	 1.179177399981104e+01
 1.319948571545796e+00	 1.455268007147296e+00	 1.158006122886097e+01
 1.459625096989055e+00	 1.323900513376772e+00	 1.332543710631650e+01
 1.446659270787037e+00	 1.338056406630715e+00	 1.321130302434445e+01
 1.433553660867084e+00	 1.352087975870716e+00	 1.308120305119010e+01
 1.420310064672030e+00	 1.365993160038117e+00	 1.293638590568108e+01
 1.406930319989478e+00	 1.379769932914140e+00	 1.277810799453601e+01
 1.393416304102902e+00	 1.393416304102902e+00	 1.260761467400060e+01
 1.379769932914141e+00	 1.406930319989477e+00	 1.242612108059427e+01
 1.365993160038117e+00	 1.420310064672029e+00	 1.223479266409973e+01
 1.352087975870716e+00	 1.433553660867083e+00	 1.203472556032883e+01
 1.338056406630716e+00	 1.446659270787037e+00	 1.182692694470041e+01
 1.323900513376771e+00	 1.459625096989055e+00	 1.161229551022971e+01
 1.463982186830813e+00	 1.327852455207747e+00	 1.337494927221026e+01
 1.450977656669984e+00	 1.342050604859464e+00	 1.326027203335684e+01
 1.437832925526388e+00	 1.356124059380778e+00	 1.312947200624427e+01
 1.424549796208364e+00	 1.370070751560619e+00	 1.298377184746683e+01
 1.411130111989446e+00	 1.383888649131795e+00	 1.282440159509481e+01
 1.397575755756942e+00	 1.397575755756941e+00	 1.265257959651238e+01
 1.383888649131795e+00	 1.411130111989446e+00	 1.246949299175660e+01
 1.370070751560619e+00	 1.424549796208363e+00	 1.227627788802380e+01
 1.356124059380778e+00	 1.437832925526388e+00	 1.207399936552374e+01
 1.342050604859464e+00	 1.450977656669984e+00	 1.186363145846162e+01
 1.327852455207747e+00	 1.463982186830813e+00	 1.164603725757203e+01
 1.468339276672571e+00	 1.331804397038723e+00	 1.342604451212194e+01
 1.455296042552930e+00	 1.346044803088212e+00	 1.331086445999384e+01
 1.442112190185693e+00	 1.360160142890839e+00	 1.317939324444308e+01
 1.428789527744698e+00	 1.374148343083121e+00	 1.303282777786622e+01
 1.415329903989415e+00	 1.388007365349449e+00	 1.287237215416361e+01
 1.401735207410980e+00	 1.401735207410979e+00	 1.269921823553123e+01
 1.388007365349449e+00	 1.415329903989414e+00	 1.251452578066935e+01
 1.374148343083121e+00	 1.428789527744698e+00	 1.231940225264912e+01
 1.360160142890839e+00	 1.442112190185692e+00	 1.211488244931072e+01
 1.346044803088213e+00	 1.455296042552930e+00	 1.190190810276437e+01
 1.331804397038722e+00	 1.468339276672571e+00	 1.168130759729238e+01
 1.472696366514329e+00	 1.335756338869698e+00	 1.347876335112240e+01
 1.459614428435877e+00	 1.350039001316961e+00	 1.336311577054690e+01
 1.446391454844997e+00	 1.364196226400901e+00	 1.323099779096324e+01
 1.433029259281032e+00	 1.378225934605623e+00	 1.308358089863111e+01
 1.419529695989384e+00	 1.392126081567103e+00	 1.292204366854053e+01
 1.405894659065018e+00	 1.405894659065018e+00	 1.274755200282354e+01
 1.392126081567103e+00	 1.419529695989383e+00	 1.256123889601576e+01
 1.378225934605623e+00	 1.433029259281032e+00	 1.236418386802844e+01
 1.364196226400901e+00	 1.446391454844997e+00	 1.215739221044210e+01
 1.350039001316961e+00	 1.459614428435876e+00	 1.194177419553298e+01
 1.335756338869698e+00	 1.472696366514329e+00	 1.171812440025391e+01
 1.477053456356088e+00	 1.339708280700673e+00	 1.353314283071565e+01
 1.463932814318823e+00	 1.354033199545709e+00	 1.341705802179713e+01
 1.450670719504302e+00	 1.368232309910963e+00	 1.328431332474430e+01
 1.437268990817367e+00	 1.382303526128124e+00	 1.313605511799277e+01
 1.423729487989352e+00	 1.396244797784757e+00	 1.297343688391398e+01
 1.410054110719057e+00	 1.410054110719057e+00	 1.279759909142409e+01
 1.396244797784758e+00	 1.423729487989352e+00	 1.260964859038841e+01
 1.382303526128125e+00	 1.437268990817367e+00	 1.241063766134365e+01
 1.368232309910963e+00	 1.450670719504301e+00	 1.220154286893369e+01
 1.354033199545710e+00	 1.463932814318823e+00	 1.198324387135798e+01
 1.339708280700673e+00	 1.477053456356088e+00	 1.175650234102843e+01
 1.481410546197846e+00	 1.343660222531649e+00	 1.358921658151221e+01
 1.468251200201770e+00	 1.358027397774458e+00	 1.347271993215955e+01
 1.454949984163607e+00	 1.372268393421025e+00	 1.333936424814468e+01
 1.441508722353702e+00	 1.386381117650626e+00	 1.319027111887097e+01
 1.427929279989320e+00	 1.400363514002411e+00	 1.302656936166542e+01
 1.414213562373096e+00	 1.414213562373095e+00	 1.284937454107415e+01
 1.400363514002412e+00	 1.427929279989320e+00	 1.265976798440391e+01
 1.386381117650627e+00	 1.441508722353701e+00	 1.245877543973847e+01
 1.372268393421025e+00	 1.454949984163606e+00	 1.224734552765704e+01
 1.358027397774458e+00	 1.468251200201769e+00	 1.202632814189017e+01
 1.343660222531649e+00	 1.481410546197846e+00	 1.179645295713430e+01
 1.304140804221894e+00	 1.437839647780263e+00	 1.146565897208295e+01
 1.290075788149682e+00	 1.450472526728918e+00	 1.125789105845583e+01
 1.275892463208243e+00	 1.462964289480028e+00	 1.104194833767031e+01
 1.261592956612789e+00	 1.475313289369549e+00	 1.082089221415334e+01
 1.247179425799299e+00	 1.487517922523399e+00	 1.059771580141369e+01
 1.232654057348583e+00	 1.499576628541361e+00	 1.037532524464965e+01
 1.218019065892102e+00	 1.511487891148563e+00	 1.015652183739665e+01
 1.203276693000665e+00	 1.523250238813959e+00	 9.943985059097209e+00
 1.188429206057160e+00	 1.534862245335310e+00	 9.740256655723721e+00
 1.173478897114509e+00	 1.546322530390188e+00	 9.547775832125600e+00
 1.158428081740016e+00	 1.557629760052608e+00	 9.369872017210664e+00
 1.308092746052870e+00	 1.442196737622021e+00	 1.149214183884897e+01
 1.293985108719834e+00	 1.454867898022036e+00	 1.128163208680399e+01
 1.279758804005844e+00	 1.467397514599664e+00	 1.106325252541931e+01
 1.265415965572222e+00	 1.479783935700971e+00	 1.083996468761228e+01
 1.250958757392631e+00	 1.492025552591652e+00	 1.061465658895850e+01
 1.236389372673882e+00	 1.504120800143001e+00	 1.039012381342215e+01
 1.221710032758443e+00	 1.516068157485376e+00	 1.016905140895378e+01
 1.206922986009757e+00	 1.527866148628546e+00	 9.953996722325499e+00
 1.192030506681576e+00	 1.539513343048447e+00	 9.747373297748242e+00
 1.177034893772432e+00	 1.551008356239856e+00	 9.551435958133190e+00
 1.161938469866501e+00	 1.562349850234586e+00	 9.369172873253767e+00
 1.312044687883845e+00	 1.446553827463779e+00	 1.152001392513701e+01
 1.297894429289985e+00	 1.459263269315155e+00	 1.130670147636934e+01
 1.283625144803444e+00	 1.471830739719300e+00	 1.108580540756030e+01
 1.269238974531655e+00	 1.484254582032395e+00	 1.086018866506567e+01
 1.254738088985961e+00	 1.496533182659904e+00	 1.063263530962783e+01
 1.240124687999180e+00	 1.508664971744642e+00	 1.040583135633721e+01
 1.225400999624782e+00	 1.520648423822190e+00	 1.018234644055222e+01
 1.210569279018850e+00	 1.532482058443134e+00	 9.964616441680866e+00
 1.195631807305991e+00	 1.544164440761584e+00	 9.754927191835723e+00
 1.180590890430355e+00	 1.555694182089523e+00	 9.555399390595394e+00
 1.165448857992986e+00	 1.567069940416564e+00	 9.368547875437928e+00
 1.315996629714820e+00	 1.450910917305537e+00	 1.154930997225829e+01
 1.301803749860135e+00	 1.463658640608272e+00	 1.133313462423139e+01
 1.287491485601045e+00	 1.476263964838937e+00	 1.110964246920072e+01
 1.273061983491088e+00	 1.488725228363818e+00	 1.088159914986862e+01
 1.258517420579293e+00	 1.501040812728157e+00	 1.065168591376784e+01
 1.243860003324480e+00	 1.513209143346282e+00	 1.042248019844858e+01
 1.229091966491122e+00	 1.525228690159004e+00	 1.019643705897274e+01
 1.214215572027944e+00	 1.537097968257722e+00	 9.975871572207058e+00
 1.199233107930406e+00	 1.548815538474721e+00	 9.762942347439253e+00
 1.184146887088277e+00	 1.560380007939190e+00	 9.559636266972500e+00
 1.168959246119470e+00	 1.571790030598541e+00	 9.368044765695688e+00
 1.319948571545796e+00	 1.455268007147296e+00	 1.158006122886097e+01
 1.305713070430286e+00	 1.468054011901390e+00	 1.136096342695406e+01
 1.291357826398646e+00	 1.480697189958573e+00	 1.113479569420021e+01
 1.276884992450520e+00	 1.493195874695241e+00	 1.090422765096527e+01
 1.262296752172624e+00	 1.505548442796409e+00	 1.067183887217036e+01
 1.247595318649778e+00	 1.517753314947923e+00	 1.044009920857966e+01
 1.232782933357462e+00	 1.529808956495818e+00	 1.021134996700370e+01
 1.217861865037037e+00	 1.541713878072310e+00	 9.987786086548176e+00
 1.202834408554822e+00	 1.553466636187859e+00	 9.771439442996567e+00
 1.187702883746200e+00	 1.565065833788857e+00	 9.564163407451730e+00
 1.172469634245956e+00	 1.576510120780519e+00	 9.367707891694533e+00
 1.323900513376771e+00	 1.459625096989055e+00	 1.161229551022971e+01
 1.309622391000436e+00	 1.472449383194508e+00	 1.139021633864011e+01
 1.295224167196247e+00	 1.485130415078210e+00	 1.116129362180748e+01
 1.280708001409953e+00	 1.497666521026664e+00	 1.092810223793636e+01
 1.266076083765955e+00	 1.510056072864663e+00	 1.069312122935782e+01
 1.251330633975077e+00	 1.522297486549563e+00	 1.045871385067391e+01
 1.236473900223801e+00	 1.534389222832632e+00	 1.022710849268390e+01
 1.221508158046129e+00	 1.546329787886898e+00	 1.000038062191256e+01
 1.206435709179238e+00	 1.558117733900996e+00	 9.780435870442970e+00
 1.191258880404122e+00	 1.569751659638525e+00	 9.568994404700611e+00
 1.175980022372440e+00	 1.581230210962496e+00	 9.367578135745923e+00
 1.327852455207747e+00	 1.463982186830813e+00	 1.164603725757203e+01
 1.313531711570586e+00	 1.476844754487626e+00	 1.142091842897831e+01
 1.299090507993847e+00	 1.489563640197846e+00	 1.118916140329900e+01
 1.284531010369385e+00	 1.502137167358085e+00	 1.095324759605924e+01
 1.269855415359287e+00	 1.514563702932915e+00	 1.071555665689466e+01
 1.255065949300376e+00	 1.526841658151204e+00	 1.047834623518729e+01
 1.240164867090141e+00	 1.538969489169446e+00	 1.024373263860637e+01
 1.225154451055222e+00	 1.550945697701485e+00	 1.001367252711776e+01
 1.210037009803653e+00	 1.562768831614133e+00	 9.789945779829072e+00
 1.194814877062045e+00	 1.574437485488192e+00	 9.574139665888197e+00
 1.179490410498925e+00	 1.585950301144474e+00	 9.367634443585640e+00
 1.331804397038722e+00	 1.468339276672571e+00	 1.168130759729238e+01
 1.317441032140737e+00	 1.481240125780744e+00	 1.145309144128488e+01
 1.302956848791448e+00	 1.493996865317482e+00	 1.121842085861993e+01
 1.288354019328818e+00	 1.506607813689509e+00	 1.097968508138101e+01
 1.273634746952618e+00	 1.519071333001168e+00	 1.073916550672495e+01
 1.258801264625674e+00	 1.531385829752844e+00	 1.049901517052222e+01
 1.243855833956480e+00	 1.543549755506259e+00	 1.026123913128102e+01
 1.228800744064315e+00	 1.555561607516073e+00	 1.002767590971529e+01
 1.213638310428069e+00	 1.567419929327270e+00	 9.799980124039841e+00
 1.198370873719968e+00	 1.579123311337859e+00	 9.579606454834121e+00
 1.183000798625410e+00	 1.590670391326451e+00	 9.367795066130615e+00
 1.335756338869698e+00	 1.472696366514329e+00	 1.171812440025391e+01
 1.321350352710887e+00	 1.485635497073861e+00	 1.148675385053840e+01
 1.306823189589049e+00	 1.498430090437119e+00	 1.124909053302735e+01
 1.292177028288251e+00	 1.511078460020932e+00	 1.100743277580395e+01
 1.277414078545949e+00	 1.523578963069421e+00	 1.076396486453442e+01
 1.262536579950973e+00	 1.535930001354485e+00	 1.052073621450144e+01
 1.247546800822820e+00	 1.548130021843073e+00	 1.027964147055563e+01
 1.232447037073408e+00	 1.560177517330661e+00	 1.004240168319313e+01
 1.217239611052485e+00	 1.572071027040408e+00	 9.810546703615463e+00
 1.201926870377891e+00	 1.583809137187526e+00	 9.585398934282507e+00
 1.186511186751895e+00	 1.595390481508429e+00	 9.368058564177160e+00
 1.339708280700673e+00	 1.477053456356088e+00	 1.175650234102843e+01
 1.325259673281038e+00	 1.490030868366980e+00	 1.152192092140848e+01
 1.310689530386650e+00	 1.502863315556755e+00	 1.128118575373478e+01
 1.296000037247684e+00	 1.515549106352355e+00	 1.103650554218343e+01
 1.281193410139280e+00	 1.528086593137673e+00	 1.078996860313847e+01
 1.266271895276272e+00	 1.540474172956125e+00	 1.054352172588267e+01
 1.251237767689160e+00	 1.552710288179887e+00	 1.029894997909324e+01
 1.236093330082501e+00	 1.564793427145249e+00	 1.005785761425491e+01
 1.220840911676901e+00	 1.576722124753545e+00	 9.821650211669226e+00
 1.205482867035814e+00	 1.588494963037193e+00	 9.591518208299053e+00
 1.190021574878380e+00	 1.600110571690406e+00	 9.368421939271252e+00
 1.343660222531649e+00	 1.481410546197846e+00	 1.179645295713430e+01
 1.329168993851189e+00	 1.494426239660098e+00	 1.155860476627893e+01
 1.314555871184251e+00	 1.507296540676392e+00	 1.131471868655928e+01
 1.299823046207117e+00	 1.520019752683778e+00	 1.106691507943729e+01
 1.284972741732611e+00	 1.532594223205926e+00	 1.081718743589326e+01
 1.270007210601571e+00	 1.545018344557765e+00	 1.056738091591057e+01
 1.254928734555500e+00	 1.557290554516701e+00	 1.031917185190571e+01
 1.239739623091594e+00	 1.569409336959837e+00	 1.007404837017291e+01
 1.224442212301316e+00	 1.581373222466682e+00	 9.833292278902242e+00
 1.209038863693737e+00	 1.593180788886861e+00	 9.597962364787143e+00
 1.193531963004865e+00	 1.604830661872384e+00	 9.368879232704201e+00
 1.158428081740016e+00	 1.557629760052608e+00	 9.369872017210664e+00
 1.143279097847326e+00	 1.568782647274887e+00	 9.204167516362840e+00
 1.128034304517196e+00	 1.579779952334440e+00	 9.047419359095295e+00
 1.112696080808304e+00	 1.590620483245214e+00	 8.899555985464799e+00
 1.097266824559330e+00	 1.601303096133546e+00	 8.760363205888986e+00
 1.081748951183521e+00	 1.611826695578266e+00	 8.629525376979137e+00
 1.066144892456993e+00	 1.622190234914902e+00	 8.506666142018151e+00
 1.050457095301988e+00	 1.632392716503938e+00	 8.391388478790979e+00
 1.034688020566332e+00	 1.642433191963047e+00	 8.283313806236052e+00
 1.018840141800301e+00	 1.652310762363346e+00	 8.182119911527256e+00
 1.002915944032129e+00	 1.662024578389725e+00	 8.087577470636727e+00
 1.161938469866501e+00	 1.562349850234586e+00	 9.369172873253767e+00
 1.146743579962015e+00	 1.573536534084811e+00	 9.199030161266975e+00
 1.131452590288460e+00	 1.584567164311211e+00	 9.037960294639468e+00
 1.116067887113784e+00	 1.595440545315654e+00	 8.886030122040195e+00
 1.100591875542843e+00	 1.606155529758194e+00	 8.743169828239663e+00
 1.085026978308320e+00	 1.616711018898199e+00	 8.609214691078009e+00
 1.069375634555348e+00	 1.627105962899493e+00	 8.483946381489272e+00
 1.053640298621085e+00	 1.637339361099404e+00	 8.367133544865265e+00
 1.037823438810473e+00	 1.647410262241723e+00	 8.258571410989690e+00
 1.021927536169392e+00	 1.657317764673538e+00	 8.158120190128251e+00
 1.005955083256469e+00	 1.667061016506057e+00	 8.065742024532288e+00
 1.165448857992986e+00	 1.567069940416564e+00	 9.368547875437928e+00
 1.150208062076704e+00	 1.578290420894735e+00	 9.193668010320474e+00
 1.134870876059724e+00	 1.589354376287982e+00	 9.028049439990236e+00
 1.119439693419263e+00	 1.600260607386094e+00	 8.871886347258918e+00
 1.103916926526356e+00	 1.611007963382841e+00	 8.725242414266834e+00
 1.088305005433118e+00	 1.621595342218134e+00	 8.588093187065034e+00
 1.072606376653702e+00	 1.632021690884084e+00	 8.460367961012178e+00
 1.056823501940182e+00	 1.642286005694871e+00	 8.341990920753179e+00
 1.040958857054613e+00	 1.652387332520398e+00	 8.232921277683340e+00
 1.025014930538484e+00	 1.662324766983730e+00	 8.133192158376751e+00
 1.008994222480809e+00	 1.672097454622390e+00	 8.042948009364267e+00
 1.168959246119470e+00	 1.571790030598541e+00	 9.368044765695688e+00
 1.153672544191392e+00	 1.583044307704659e+00	 9.188123946227144e+00
 1.138289161830988e+00	 1.594141588264753e+00	 9.017726248306019e+00
 1.122811499724743e+00	 1.605080669456534e+00	 8.857162146547049e+00
 1.107241977509869e+00	 1.615860397007488e+00	 8.706617974319416e+00
 1.091583032557917e+00	 1.626479665538068e+00	 8.566198922600108e+00
 1.075837118752056e+00	 1.636937418868674e+00	 8.435971536743978e+00
 1.060006705259279e+00	 1.647232650290338e+00	 8.316005440327530e+00
 1.044094275298754e+00	 1.657364402799075e+00	 8.206414024561223e+00
 1.028102324907576e+00	 1.667331769293922e+00	 8.107393852547222e+00
 1.012033361705148e+00	 1.677133892738722e+00	 8.019262539822410e+00
 1.172469634245956e+00	 1.576510120780519e+00	 9.367707891694533e+00
 1.157137026306082e+00	 1.587798194514582e+00	 9.182437718134837e+00
 1.141707447602252e+00	 1.598928800241524e+00	 9.007027289303849e+00
 1.126183306030222e+00	 1.609900731526974e+00	 8.841892359925689e+00
 1.110567028493383e+00	 1.620712830632135e+00	 8.687331097832828e+00
 1.094861059682715e+00	 1.631363988858002e+00	 8.543567743923600e+00
 1.079067860850411e+00	 1.641853146853265e+00	 8.410795746482886e+00
 1.063189908578376e+00	 1.652179294885805e+00	 8.289220094318738e+00
 1.047229693542894e+00	 1.662341473077751e+00	 8.179098582706045e+00
 1.031189719276668e+00	 1.672338771604114e+00	 8.080781757134586e+00
 1.015072500929488e+00	 1.682170330855054e+00	 7.994751292266423e+00
 1.175980022372440e+00	 1.581230210962496e+00	 9.367578135745923e+00
 1.160601508420771e+00	 1.592552081324506e+00	 9.176645870516342e+00
 1.145125733373517e+00	 1.603716012218296e+00	 8.995986178352609e+00
 1.129555112335703e+00	 1.614720793597414e+00	 8.826109111570620e+00
 1.113892079476896e+00	 1.625565264256782e+00	 8.667413883615989e+00
 1.098139086807514e+00	 1.636248312177936e+00	 8.520233217142209e+00
 1.082298602948766e+00	 1.646768874837856e+00	 8.384877142237425e+00
 1.066373111897473e+00	 1.657125939481271e+00	 8.261675964457178e+00
 1.050365111787035e+00	 1.667318543356426e+00	 8.151022132057054e+00
 1.034277113645760e+00	 1.677345773914306e+00	 8.053410743058901e+00
 1.018111640153828e+00	 1.687206768971387e+00	 7.969478445435037e+00
 1.179490410498925e+00	 1.585950301144474e+00	 9.367634443585640e+00
 1.164065990535459e+00	 1.597305968134430e+00	 9.170781672236519e+00
 1.148544019144781e+00	 1.608503224195066e+00	 8.984633505778053e+00
 1.132926918641182e+00	 1.619540855667854e+00	 8.809841739601795e+00
 1.117217130460409e+00	 1.630417697881430e+00	 8.646895870384832e+00
 1.101417113932312e+00	 1.641132635497871e+00	 8.496226559774550e+00
 1.085529345047120e+00	 1.651684602822446e+00	 8.358250123059538e+00
 1.069556315216570e+00	 1.662072584076737e+00	 8.233412157881531e+00
 1.053500530031175e+00	 1.672295613635102e+00	 8.122230037689700e+00
 1.037364508014851e+00	 1.682352776224498e+00	 8.025334006121421e+00
 1.021150779378168e+00	 1.692243207087720e+00	 7.943506621393190e+00
 1.183000798625410e+00	 1.590670391326451e+00	 9.367795066130615e+00
 1.167530472650148e+00	 1.602059854944354e+00	 9.164875045803825e+00
 1.151962304916045e+00	 1.613290436171837e+00	 8.972996766375214e+00
 1.136298724946662e+00	 1.624360917738294e+00	 8.793116726101090e+00
 1.120542181443922e+00	 1.635270131506077e+00	 8.625803967538186e+00
 1.104695141057111e+00	 1.646016958817805e+00	 8.471576572547919e+00
 1.088760087145475e+00	 1.656600330807037e+00	 8.330946868136806e+00
 1.072739518535667e+00	 1.667019228672204e+00	 8.204465741808063e+00
 1.056635948275315e+00	 1.677272683913778e+00	 8.092765786351844e+00
 1.040451902383943e+00	 1.687359778534690e+00	 7.996603005707818e+00
 1.024189918602507e+00	 1.697279645204052e+00	 7.916896826710533e+00
 1.186511186751895e+00	 1.595390481508429e+00	 9.368058564177160e+00
 1.170994954764837e+00	 1.606813741754278e+00	 9.158952496799644e+00
 1.155380590687309e+00	 1.618077648148608e+00	 8.961100289122506e+00
 1.139670531252142e+00	 1.629180979808734e+00	 8.775957627350873e+00
 1.123867232427435e+00	 1.640122565130723e+00	 8.604162386169676e+00
 1.107973168181910e+00	 1.650901282137738e+00	 8.446309571443873e+00
 1.091990829243829e+00	 1.661516058791627e+00	 8.302997270137400e+00
 1.075922721854764e+00	 1.671965873267670e+00	 8.174871678453830e+00
 1.059771366519455e+00	 1.682249754192454e+00	 8.062670923250760e+00
 1.043539296753035e+00	 1.692366780844881e+00	 7.967267403733544e+00
 1.027229057826847e+00	 1.702316083320385e+00	 7.889708393867173e+00
 1.190021574878380e+00	 1.600110571690406e+00	 9.368421939271252e+00
 1.174459436879526e+00	 1.611567628564202e+00	 9.153037043484483e+00
 1.158798876458573e+00	 1.622864860125379e+00	 8.948965167094876e+00
 1.143042337557621e+00	 1.634001041879174e+00	 8.758385004289613e+00
 1.127192283410948e+00	 1.644974998755371e+00	 8.581992570312597e+00
 1.111251195306708e+00	 1.655785605457673e+00	 8.420449319985309e+00
 1.095221571342183e+00	 1.666431786776218e+00	 8.274428868805703e+00
 1.079105925173861e+00	 1.676912517863137e+00	 8.144662760209361e+00
 1.062906784763596e+00	 1.687226824471130e+00	 8.031984989086151e+00
 1.046626691122127e+00	 1.697373783155073e+00	 7.937375003825743e+00
 1.030268197051187e+00	 1.707352521436717e+00	 7.861998922883790e+00
 1.193531963004865e+00	 1.604830661872384e+00	 9.368879232704201e+00
 1.177923918994215e+00	 1.616321515374126e+00	 9.147134955520887e+00
 1.162217162229838e+00	 1.627652072102150e+00	 8.936609187570712e+00
 1.146414143863101e+00	 1.638821103949615e+00	 8.740416353180757e+00
 1.130517334394461e+00	 1.649827432380018e+00	 8.559313128411446e+00
 1.114529222431506e+00	 1.660669928777607e+00	 8.394016961762228e+00
 1.098452313440538e+00	 1.671347514760808e+00	 8.245266784797536e+00
 1.082289128492958e+00	 1.681859162458603e+00	 8.113869545056406e+00
 1.066042203007736e+00	 1.692203894749806e+00	 8.000745457324488e+00
 1.049714085491219e+00	 1.702380785465266e+00	 7.906971690738342e+00
 1.033307336275527e+00	 1.712388959553049e+00	 7.833824223167897e+00
 1.002915944032129e+00	 1.662024578389725e+00	 8.087577470636727e+00
 9.869179225433787e-01	 1.671573840465344e+00	 8.005736438753569e+00
 9.708485816453446e-01	 1.680957798840477e+00	 7.940366121214331e+00
 9.547104334577131e-01	 1.690175753645869e+00	 7.888004716656936e+00
 9.385059966906366e-01	 1.699227054910883e+00	 7.845347888407644e+00
 9.222377954313840e-01	 1.708111102546687e+00	 7.809280804081678e+00
 9.059083579367139e-01	 1.716827346294847e+00	 7.776907731052269e+00
 8.895202154320873e-01	 1.725375285641664e+00	 7.745579059388861e+00
 8.730759009188289e-01	 1.733754469698687e+00	 7.712915641878269e+00
 8.565779479903116e-01	 1.741964497049841e+00	 7.676830359069529e+00
 8.400288896582194e-01	 1.750005015565663e+00	 7.635546835773878e+00
 1.005955083256469e+00	 1.667061016506057e+00	 8.065742024532288e+00
 9.899085829147225e-01	 1.676639215739482e+00	 7.987223036893353e+00
 9.737905470442701e-01	 1.686051610352115e+00	 7.925746507427675e+00
 9.576034953772820e-01	 1.695297498353888e+00	 7.877564606806225e+00
 9.413499542563656e-01	 1.704376227804552e+00	 7.839086193670059e+00
 9.250324554175396e-01	 1.713287196796829e+00	 7.806909887873010e+00
 9.086535347789463e-01	 1.722029853404832e+00	 7.777854650686721e+00
 8.922157312364268e-01	 1.730603695598154e+00	 7.748987740421022e+00
 8.757215854670679e-01	 1.739008271122016e+00	 7.717649930291921e+00
 8.591736387417971e-01	 1.747243177343932e+00	 7.681477894042549e+00
 8.425744317480929e-01	 1.755308061067378e+00	 7.638423683677178e+00
 1.008994222480809e+00	 1.672097454622390e+00	 8.042948009364267e+00
 9.928992432860659e-01	 1.681704591013619e+00	 7.967642935444030e+00
 9.767325124431953e-01	 1.691145421863753e+00	 7.909818004496897e+00
 9.604965572968507e-01	 1.700419243061905e+00	 7.865448468608495e+00
 9.441939118220949e-01	 1.709525400698222e+00	 7.830665494823013e+00
 9.278271154036954e-01	 1.718463291046970e+00	 7.801790271779754e+00
 9.113987116211786e-01	 1.727232360514815e+00	 7.775365573822166e+00
 8.949112470407663e-01	 1.735832105554643e+00	 7.748184647875586e+00
 8.783672700153066e-01	 1.744262072545345e+00	 7.717317307111419e+00
 8.617693294932832e-01	 1.752521857638022e+00	 7.680133134454939e+00
 8.451199738379663e-01	 1.760611106569092e+00	 7.634321718219732e+00
 1.012033361705148e+00	 1.677133892738722e+00	 8.019262539822410e+00
 9.958899036574095e-01	 1.686769966287756e+00	 7.947072936052997e+00
 9.796744778421207e-01	 1.696239233375390e+00	 7.892666554992060e+00
 9.633896192164199e-01	 1.705540987769923e+00	 7.851750713890315e+00
 9.470378693878243e-01	 1.714674573591891e+00	 7.820187878315095e+00
 9.306217753898511e-01	 1.723639385297112e+00	 7.794030802144828e+00
 9.141438884634111e-01	 1.732434867624800e+00	 7.769555074965179e+00
 8.976067628451061e-01	 1.741060515511133e+00	 7.743288938967742e+00
 8.810129545635452e-01	 1.749515873968674e+00	 7.712040256540783e+00
 8.643650202447692e-01	 1.757800537932113e+00	 7.672920529144152e+00
 8.476655159278395e-01	 1.765914152070806e+00	 7.623587187834837e+00
 1.015072500929488e+00	 1.682170330855054e+00	 7.994751292266423e+00
 9.988805640287529e-01	 1.691835341561894e+00	 7.925588505163477e+00
 9.826164432410459e-01	 1.701333044887028e+00	 7.874376871955917e+00
 9.662826811359886e-01	 1.710662732477941e+00	 7.836564633769459e+00
 9.498818269535532e-01	 1.719823746485560e+00	 7.807754422439379e+00
 9.334164353760068e-01	 1.728815479547253e+00	 7.783739434053600e+00
 9.168890653056435e-01	 1.737637374734784e+00	 7.760536959220387e+00
 9.003022786494457e-01	 1.746288925467623e+00	 7.734419128950314e+00
 8.836586391117843e-01	 1.754769675392004e+00	 7.701940754483481e+00
 8.669607109962547e-01	 1.763079218226203e+00	 7.659964159177186e+00
 8.502110580177130e-01	 1.771217197572520e+00	 7.612045008730242e+00
 1.018111640153828e+00	 1.687206768971387e+00	 7.969478445435037e+00
 1.001871224400096e+00	 1.696900716836031e+00	 7.903263717365238e+00
 9.855584086399708e-01	 1.706426856398666e+00	 7.855032384830132e+00
 9.691757430555571e-01	 1.715784477185959e+00	 7.819982347067581e+00
 9.527257845192826e-01	 1.724972919379230e+00	 7.793465148132015e+00
 9.362110953621627e-01	 1.733991573797395e+00	 7.771023184392371e+00
 9.196342421478758e-01	 1.742839881844768e+00	 7.748424217469772e+00
 9.029977944537854e-01	 1.751517335424113e+00	 7.721693048255338e+00
 8.863043236600231e-01	 1.760023476815334e+00	 7.687140227468416e+00
 8.695564017477405e-01	 1.768357898520293e+00	 7.643241593759343e+00
 8.527566001075864e-01	 1.776520243074234e+00	 7.602136720930899e+00
 1.021150779378168e+00	 1.692243207087720e+00	 7.943506621393190e+00
 1.004861884771440e+00	 1.701966092110168e+00	 7.880171198964463e+00
 9.885003740388962e-01	 1.711520667910304e+00	 7.834715185582231e+00
 9.720688049751263e-01	 1.720906221893977e+00	 7.802094748913039e+00
 9.555697420850116e-01	 1.730122092272899e+00	 7.777418969944550e+00
 9.390057553483184e-01	 1.739167668047536e+00	 7.755988085071692e+00
 9.223794189901084e-01	 1.748042388954753e+00	 7.733328981706306e+00
 9.056933102581248e-01	 1.756745745380603e+00	 7.705227799782793e+00
 8.889500082082620e-01	 1.765277278238663e+00	 7.667801279198743e+00
 8.721520924992262e-01	 1.773636578814384e+00	 7.628281022387315e+00
 8.553021421974597e-01	 1.781823288575948e+00	 7.593737242121350e+00
 1.024189918602507e+00	 1.697279645204052e+00	 7.916896826710533e+00
 1.007852545142784e+00	 1.707031467384306e+00	 7.856382071769564e+00
 9.914423394378215e-01	 1.716614479421942e+00	 7.813505975033570e+00
 9.749618668946949e-01	 1.726027966601994e+00	 7.782991459524867e+00
 9.584136996507406e-01	 1.735271265166568e+00	 7.759713647186415e+00
 9.418004153344740e-01	 1.744343762297677e+00	 7.738739136406937e+00
 9.251245958323410e-01	 1.753244896064738e+00	 7.715362480517651e+00
 9.083888260624644e-01	 1.761974155337093e+00	 7.685139716331690e+00
 8.915956927565009e-01	 1.770531079661992e+00	 7.648208197479915e+00
 8.747477832507121e-01	 1.778915259108474e+00	 7.615326143082349e+00
 8.578476842873330e-01	 1.787126334077662e+00	 7.586721303156338e+00
 1.027229057826847e+00	 1.702316083320385e+00	 7.889708393867173e+00
 1.010843205514127e+00	 1.712096842658443e+00	 7.831965897086247e+00
 9.943843048367469e-01	 1.721708290933579e+00	 7.791484009379126e+00
 9.778549288142637e-01	 1.731149711310012e+00	 7.762760773179270e+00
 9.612576572164702e-01	 1.740420438060238e+00	 7.740445735235811e+00
 9.445950753206297e-01	 1.749519856547819e+00	 7.719380260656831e+00
 9.278697726745734e-01	 1.758447403174722e+00	 7.694634994716907e+00
 9.110843418668041e-01	 1.767202565293582e+00	 7.662263593180198e+00
 8.942413773047397e-01	 1.775784881085321e+00	 7.631067154169449e+00
 8.773434740021977e-01	 1.784193939402564e+00	 7.604248716834076e+00
 8.603932263772065e-01	 1.792429379579376e+00	 7.580963458844407e+00
 1.030268197051187e+00	 1.707352521436717e+00	 7.861998922883790e+00
 1.013833865885471e+00	 1.717162217932581e+00	 7.806990619919405e+00
 9.973262702356720e-01	 1.726802102445217e+00	 7.768727046901388e+00
 9.807479907338326e-01	 1.736271456018030e+00	 7.741489607350871e+00
 9.641016147821994e-01	 1.745569610953907e+00	 7.719710537012634e+00
 9.473897353067853e-01	 1.754695950797960e+00	 7.698014255713576e+00
 9.306149495168057e-01	 1.763649910284706e+00	 7.671255813118397e+00
 9.137798576711439e-01	 1.772430975250072e+00	 7.641351105696463e+00
 8.968870618529785e-01	 1.781038682508650e+00	 7.616246048124617e+00
 8.799391647536837e-01	 1.789472619696655e+00	 7.594920358053218e+00
 8.629387684670798e-01	 1.797732425081090e+00	 7.576338098865903e+00
 1.033307336275527e+00	 1.712388959553049e+00	 7.833824223167897e+00
 1.016824526256815e+00	 1.722227593206718e+00	 7.781522513376302e+00
 1.000268235634598e+00	 1.731895913956855e+00	 7.745311294867163e+00
 9.836410526534012e-01	 1.741393200726048e+00	 7.719263452028168e+00
 9.669455723479287e-01	 1.750718783847576e+00	 7.697602054613093e+00
 9.501843952929410e-01	 1.759872045048102e+00	 7.674742748943478e+00
 9.333601263590384e-01	 1.768852417394690e+00	 7.647103290585333e+00
 9.164753734754836e-01	 1.777659385206562e+00	 7.623138024459829e+00
 8.995327464012175e-01	 1.786292483931980e+00	 7.603612676029147e+00
 8.825348555051697e-01	 1.794751299990745e+00	 7.587212546622250e+00
 8.654843105569532e-01	 1.803035470582805e+00	 7.572719458824689e+00
 8.400288896582194e-01	 1.750005015565663e+00	 7.635546835773880e+00
 8.234312571899249e-01	 1.757875722185166e+00	 7.588162423741730e+00
 8.067875789579736e-01	 1.765576362665894e+00	 7.531943190288624e+00
 7.901003793026624e-01	 1.773106731302769e+00	 7.475273044053788e+00
 7.733721774086499e-01	 1.780466670616331e+00	 7.423749121528508e+00
 7.566054861965167e-01	 1.787656071011068e+00	 7.375277162851438e+00
 7.398028112301595e-01	 1.794674870404484e+00	 7.327787228308840e+00
 7.229666496408680e-01	 1.801523053827638e+00	 7.279226902731844e+00
 7.060994890689095e-01	 1.808200652997897e+00	 7.227554992448157e+00
 6.892038066233945e-01	 1.814707745864667e+00	 7.170735727103821e+00
 6.722820678611832e-01	 1.821044456128869e+00	 7.106733473714248e+00
 8.425744317480929e-01	 1.755308061067378e+00	 7.638423683677180e+00
 8.259265034238338e-01	 1.763202618313000e+00	 7.587102106706542e+00
 8.092323898033008e-01	 1.770926594067912e+00	 7.531111110097723e+00
 7.924946228763067e-01	 1.778479782003687e+00	 7.480884848516786e+00
 7.757157294614034e-01	 1.785862024163653e+00	 7.434733538726712e+00
 7.588982300940823e-01	 1.793073210620193e+00	 7.390630197359373e+00
 7.420446379308568e-01	 1.800113279102679e+00	 7.346573982919900e+00
 7.251574576700829e-01	 1.806982214596812e+00	 7.300583192940099e+00
 7.082391844903306e-01	 1.813680048916074e+00	 7.250688768206751e+00
 6.912923030071020e-01	 1.820206860246075e+00	 7.194928316532675e+00
 6.743192862486413e-01	 1.826562772662593e+00	 7.131340663477646e+00
 8.451199738379663e-01	 1.760611106569092e+00	 7.634321718219729e+00
 8.284217496577430e-01	 1.768529514440834e+00	 7.580432950355702e+00
 8.116772006486280e-01	 1.776276825469931e+00	 7.531057001721166e+00
 7.948888664499513e-01	 1.783852832704604e+00	 7.486730825212115e+00
 7.780592815141570e-01	 1.791257377710976e+00	 7.445469023106609e+00
 7.611909739916473e-01	 1.798490350229317e+00	 7.405322059081352e+00
 7.442864646315545e-01	 1.805551687800875e+00	 7.364368525907894e+00
 7.273482656992977e-01	 1.812441375365987e+00	 7.320707917099880e+00
 7.103788799117511e-01	 1.819159444834248e+00	 7.272453920484421e+00
 6.933807993908089e-01	 1.825705974627483e+00	 7.217728246345784e+00
 6.763565046360995e-01	 1.832081089196317e+00	 7.154654997615125e+00
 8.476655159278395e-01	 1.765914152070806e+00	 7.623587187834835e+00
 8.309169958916516e-01	 1.773856410568667e+00	 7.574644627723341e+00
 8.141220114939551e-01	 1.781627056871948e+00	 7.531666265060057e+00
 7.972831100235958e-01	 1.789225883405521e+00	 7.492705059404042e+00
 7.804028335669104e-01	 1.796652731258298e+00	 7.455860726857216e+00
 7.634837178892127e-01	 1.803907489838443e+00	 7.419271254233927e+00
 7.465282913322518e-01	 1.810990096499070e+00	 7.381104908195461e+00
 7.295390737285121e-01	 1.817900536135162e+00	 7.339552763196700e+00
 7.125185753331721e-01	 1.824638840752424e+00	 7.292821766544717e+00
 6.954692957745161e-01	 1.831205089008891e+00	 7.239128353417312e+00
 6.783937230235577e-01	 1.837599405730041e+00	 7.176692619407332e+00
 8.502110580177130e-01	 1.771217197572520e+00	 7.612045008730240e+00
 8.334122421255606e-01	 1.779183306696502e+00	 7.569986922199416e+00
 8.165668223392822e-01	 1.786977288273966e+00	 7.532824010809447e+00
 7.996773535972399e-01	 1.794598934106439e+00	 7.498701269789065e+00
 7.827463856196638e-01	 1.802048084805620e+00	 7.465813331933786e+00
 7.657764617867778e-01	 1.809324629447566e+00	 7.432395690069340e+00
 7.487701180329491e-01	 1.816428505197266e+00	 7.396716429184403e+00
 7.317298817577271e-01	 1.823359696904336e+00	 7.357068492553532e+00
 7.146582707545931e-01	 1.830118236670599e+00	 7.311762500498357e+00
 6.975577921582236e-01	 1.836704203390300e+00	 7.259120134866405e+00
 6.804309414110156e-01	 1.843117722263765e+00	 7.197468096898957e+00
 8.527566001075864e-01	 1.776520243074234e+00	 7.602136720930900e+00
 8.359074883594693e-01	 1.784510202824335e+00	 7.566338553039377e+00
 8.190116331846095e-01	 1.792327519675984e+00	 7.534415069566384e+00
 8.020715971708845e-01	 1.799971984807356e+00	 7.504612817666502e+00
 7.850899376724174e-01	 1.807443438352942e+00	 7.475231059729385e+00
 7.680692056843429e-01	 1.814741769056691e+00	 7.444612685468682e+00
 7.510119447336469e-01	 1.821866913895462e+00	 7.411135648676899e+00
 7.339206897869419e-01	 1.828818857673511e+00	 7.373204953467274e+00
 7.167979661760141e-01	 1.835597632588775e+00	 7.329245209029325e+00
 6.996462885419308e-01	 1.842203317771708e+00	 7.277693766227944e+00
 6.824681597984738e-01	 1.848636038797489e+00	 7.216994443849204e+00
 8.553021421974597e-01	 1.781823288575948e+00	 7.593737242121349e+00
 8.384027345933780e-01	 1.789837098952169e+00	 7.563578019255148e+00
 8.214564440299367e-01	 1.797677751078002e+00	 7.536324001073401e+00
 8.044658407445286e-01	 1.805345035508273e+00	 7.510332716228522e+00
 7.874334897251704e-01	 1.812838791900264e+00	 7.484017680840808e+00
 7.703619495819082e-01	 1.820158908665815e+00	 7.455838981599852e+00
 7.532537714343441e-01	 1.827305322593657e+00	 7.424294398823319e+00
 7.361114978161566e-01	 1.834278018442686e+00	 7.387911094830322e+00
 7.189376615974350e-01	 1.841077028506950e+00	 7.345237887053640e+00
 7.017347849256379e-01	 1.847702432153115e+00	 7.294838119498047e+00
 6.845053781859319e-01	 1.854154355331213e+00	 7.235283140498844e+00
 8.578476842873330e-01	 1.787126334077662e+00	 7.586721303156338e+00
 8.408979808272872e-01	 1.795163995080003e+00	 7.561583609400865e+00
 8.239012548752640e-01	 1.803027982480020e+00	 7.538435103594335e+00
 8.068600843181732e-01	 1.810718086209191e+00	 7.515753639966297e+00
 7.897770417779242e-01	 1.818234145447586e+00	 7.492076524930354e+00
 7.726546934794734e-01	 1.825576048274940e+00	 7.465990752640324e+00
 7.554955981350416e-01	 1.832743731291852e+00	 7.436123796098521e+00
 7.383023058453713e-01	 1.839737179211860e+00	 7.401134979735732e+00
 7.210773570188559e-01	 1.846556424425126e+00	 7.359707453314320e+00
 7.038232813093453e-01	 1.853201546534524e+00	 7.310540781059794e+00
 6.865425965733900e-01	 1.859672671864936e+00	 7.252344154152945e+00
 8.603932263772065e-01	 1.792429379579376e+00	 7.580963458844403e+00
 8.433932270611959e-01	 1.800490891207837e+00	 7.560233411492929e+00
 8.263460657205910e-01	 1.808378213882037e+00	 7.540632423422194e+00
 8.092543278918177e-01	 1.816091136910108e+00	 7.520767934193264e+00
 7.921205938306777e-01	 1.823629498994908e+00	 7.499310490677843e+00
 7.749474373770384e-01	 1.830993187884065e+00	 7.474983616561338e+00
 7.577374248357390e-01	 1.838182139990047e+00	 7.446554253303376e+00
 7.404931138745861e-01	 1.845196339981035e+00	 7.412823799065271e+00
 7.232170524402768e-01	 1.852035820343301e+00	 7.372619765908597e+00
 7.059117776930524e-01	 1.858700660915932e+00	 7.324788069492373e+00
 6.885798149608481e-01	 1.865190988398660e+00	 7.268185959589182e+00
 8.629387684670798e-01	 1.797732425081090e+00	 7.576338098865903e+00
 8.458884732951046e-01	 1.805817787335670e+00	 7.559405323069504e+00
 8.287908765659182e-01	 1.813728445284055e+00	 7.542799764511493e+00
 8.116485714654621e-01	 1.821464187611025e+00	 7.525267624678202e+00
 7.944641458834313e-01	 1.829024852542231e+00	 7.505622055825636e+00
 7.772401812746036e-01	 1.836410327493189e+00	 7.482732645976641e+00
 7.599792515364365e-01	 1.843620548688243e+00	 7.455515491594348e+00
 7.426839219038008e-01	 1.850655500750209e+00	 7.422923885064464e+00
 7.253567478616978e-01	 1.857515216261477e+00	 7.383939637757846e+00
 7.080002740767597e-01	 1.864199775297339e+00	 7.337565053259514e+00
 6.906170333483062e-01	 1.870709304932384e+00	 7.282815559288408e+00
 8.654843105569532e-01	 1.803035470582805e+00	 7.572719458824685e+00
 8.483837195290134e-01	 1.811144683463504e+00	 7.558977061378363e+00
 8.312356874112454e-01	 1.819078676686073e+00	 7.544820698239410e+00
 8.140428150391065e-01	 1.826837238311943e+00	 7.529144427391957e+00
 7.968076979361847e-01	 1.834420206089553e+00	 7.510913287309901e+00
 7.795329251721688e-01	 1.841827467102313e+00	 7.489152379046226e+00
 7.622210782371339e-01	 1.849058957386438e+00	 7.462936552537240e+00
 7.448747299330156e-01	 1.856114661519384e+00	 7.431380724900653e+00
 7.274964432831187e-01	 1.862994612179652e+00	 7.393630852010491e+00
 7.100887704604669e-01	 1.869698889678748e+00	 7.348855568291050e+00
 6.926542517357643e-01	 1.876227621466108e+00	 7.296238503498594e+00
 6.722820678611832e-01	 1.821044456128869e+00	 7.106733473714245e+00
 6.553367257855396e-01	 1.827210952737009e+00	 7.033173080822914e+00
 6.383702198652114e-01	 1.833207449350629e+00	 6.950269708730950e+00
 6.213849750745807e-01	 1.839034203792023e+00	 6.859865870944287e+00
 6.043834009554857e-01	 1.844691517467048e+00	 6.763791364669971e+00
 5.873678907012815e-01	 1.850179734765929e+00	 6.663849485967181e+00
 5.703408202636711e-01	 1.855499242442950e+00	 6.559342347160481e+00
 5.533045474827969e-01	 1.860650468975905e+00	 6.449924900288467e+00
 5.362614112410468e-01	 1.865633883906261e+00	 6.337094411545936e+00
 5.192137306409953e-01	 1.870449997160913e+00	 6.222151399617401e+00
 5.021638042078537e-01	 1.875099358356483e+00	 6.106213322417463e+00
 6.743192862486413e-01	 1.826562772662593e+00	 7.131340663477644e+00
 6.573225946515563e-01	 1.832747955624091e+00	 7.057811598858996e+00
 6.403046750769243e-01	 1.838762623439571e+00	 6.974796798280069e+00
 6.232679598475340e-01	 1.844607034712606e+00	 6.884182679029888e+00
 6.062148658068659e-01	 1.850281491762403e+00	 6.787842049294690e+00
 5.891477934003763e-01	 1.855786340022796e+00	 6.687626153030852e+00
 5.720691257796218e-01	 1.861121967420050e+00	 6.583338078111901e+00
 5.549812279297143e-01	 1.866288803730378e+00	 6.474206352024286e+00
 5.378864458205650e-01	 1.871287319918098e+00	 6.361728366858335e+00
 5.207871055823317e-01	 1.876118027455340e+00	 6.247210016181707e+00
 5.036855127054533e-01	 1.880781477624230e+00	 6.131773086797290e+00
 6.763565046360995e-01	 1.832081089196317e+00	 7.154654997615125e+00
 6.593084635175733e-01	 1.838284958511172e+00	 7.081375498095963e+00
 6.422391302886369e-01	 1.844317797528512e+00	 6.998554232634115e+00
 6.251509446204874e-01	 1.850179865633188e+00	 6.908092564932023e+00
 6.080463306582460e-01	 1.855871466057757e+00	 6.811876876195937e+00
 5.909276960994709e-01	 1.861392945279663e+00	 6.711770612577477e+00
 5.737974312955721e-01	 1.866744692397150e+00	 6.608012446609947e+00
 5.566579083766321e-01	 1.871927138484850e+00	 6.499466755371570e+00
 5.395114804000835e-01	 1.876940755929935e+00	 6.387557771891851e+00
 5.223604805236680e-01	 1.881786057749767e+00	 6.273565627918435e+00
 5.052072212030527e-01	 1.886463596891977e+00	 6.158585160402913e+00
 6.783937230235577e-01	 1.837599405730041e+00	 7.176692619407328e+00
 6.612943323835898e-01	 1.843821961398254e+00	 7.103901852465446e+00
 6.441735855003498e-01	 1.849872971617453e+00	 7.021593724325793e+00
 6.270339293934405e-01	 1.855752696553768e+00	 6.931655853526875e+00
 6.098777955096264e-01	 1.861461440353112e+00	 6.835959023460464e+00
 5.927075987985657e-01	 1.866999550536529e+00	 6.736349279523805e+00
 5.755257368115225e-01	 1.872367417374249e+00	 6.633418486537636e+00
 5.583345888235495e-01	 1.877565473239322e+00	 6.525744584008404e+00
 5.411365149796018e-01	 1.882594191941772e+00	 6.414601793134496e+00
 5.239338554650045e-01	 1.887454088044194e+00	 6.301213624590272e+00
 5.067289297006523e-01	 1.892145716159724e+00	 6.186616965901678e+00
 6.804309414110156e-01	 1.843117722263765e+00	 7.197468096898958e+00
 6.632802012496068e-01	 1.849358964285336e+00	 7.125425956121855e+00
 6.461080407120624e-01	 1.855428145706395e+00	 7.043965079358299e+00
 6.289169141663937e-01	 1.861325527474351e+00	 6.954930910935146e+00
 6.117092603610066e-01	 1.867051414648466e+00	 6.860149729425730e+00
 5.944875014976607e-01	 1.872606155793396e+00	 6.761420841444996e+00
 5.772540423274731e-01	 1.877990142351349e+00	 6.659607785993295e+00
 5.600112692704671e-01	 1.883203807993795e+00	 6.553077114009438e+00
 5.427615495591201e-01	 1.888247627953609e+00	 6.442878700840799e+00
 5.255072304063407e-01	 1.893122118338620e+00	 6.330148850907556e+00
 5.082506381982520e-01	 1.897827835427471e+00	 6.215835778521161e+00
 6.824681597984738e-01	 1.848636038797489e+00	 7.216994443849204e+00
 6.652660701156234e-01	 1.854895967172418e+00	 7.145981346769969e+00
 6.480424959237752e-01	 1.860983319795336e+00	 7.065716221804472e+00
 6.307998989393471e-01	 1.866898358394933e+00	 6.977974169341433e+00
 6.135407252123867e-01	 1.872641388943821e+00	 6.884508316710118e+00
 5.962674041967554e-01	 1.878212761050262e+00	 6.787042155357286e+00
 5.789823478434236e-01	 1.883612867328449e+00	 6.686630496070333e+00
 5.616879497173848e-01	 1.888842142748267e+00	 6.581500429970327e+00
 5.443865841386385e-01	 1.893901063965446e+00	 6.472405871655473e+00
 5.270806053476770e-01	 1.898790148633047e+00	 6.360365604855714e+00
 5.097723466958515e-01	 1.903509954695218e+00	 6.246208719337059e+00
 6.845053781859319e-01	 1.854154355331213e+00	 7.235283140498844e+00
 6.672519389816404e-01	 1.860432970059500e+00	 7.165599828752558e+00
 6.499769511354878e-01	 1.866538493884277e+00	 7.086893218133472e+00
 6.326828837123001e-01	 1.872471189315514e+00	 7.000840151522255e+00
 6.153721900637673e-01	 1.878231363239176e+00	 6.909092215959436e+00
 5.980473068958501e-01	 1.883819366307128e+00	 6.813268269740725e+00
 5.807106533593743e-01	 1.889235592305549e+00	 6.714535339406197e+00
 5.633646301643023e-01	 1.894480477502740e+00	 6.611049430956363e+00
 5.460116187181566e-01	 1.899554499977283e+00	 6.503199791130443e+00
 5.286539802890134e-01	 1.904458178927474e+00	 6.391857635997989e+00
 5.112940551934508e-01	 1.909192073962964e+00	 6.277702748628305e+00
 6.865425965733900e-01	 1.859672671864936e+00	 7.252344154152945e+00
 6.692378078476572e-01	 1.865969972946582e+00	 7.184311495903054e+00
 6.519114063472006e-01	 1.872093667973218e+00	 7.107540301267593e+00
 6.345658684852538e-01	 1.878044020236096e+00	 7.023581495092469e+00
 6.172036549151474e-01	 1.883821337534531e+00	 6.933956989310991e+00
 5.998272095949451e-01	 1.889425971563995e+00	 6.840152446302673e+00
 5.824389588753248e-01	 1.894858317282649e+00	 6.743369618511314e+00
 5.650413106112196e-01	 1.900118812257212e+00	 6.641757836282337e+00
 5.476366532976751e-01	 1.905207935989120e+00	 6.535276056138029e+00
 5.302273552303498e-01	 1.910126209221902e+00	 6.424618143755368e+00
 5.128157636910506e-01	 1.914874193230711e+00	 6.310284659303774e+00
 6.885798149608481e-01	 1.865190988398660e+00	 7.268185959589179e+00
 6.712236767136739e-01	 1.871506975833664e+00	 7.202144754168954e+00
 6.538458615589133e-01	 1.877648842062160e+00	 7.127699894378920e+00
 6.364488532582070e-01	 1.883616851156678e+00	 7.046248976474557e+00
 6.190351197665277e-01	 1.889411311829885e+00	 6.959156353585044e+00
 6.016071122940395e-01	 1.895032576820861e+00	 6.867746181486410e+00
 5.841672643912752e-01	 1.900481042259749e+00	 6.773179223878437e+00
 5.667179910581372e-01	 1.905757147011685e+00	 6.673658191123048e+00
 5.492616878771933e-01	 1.910861372000958e+00	 6.568649377181115e+00
 5.318007301716862e-01	 1.915794239516328e+00	 6.458639775660215e+00
 5.143374721886500e-01	 1.920556312498458e+00	 6.343921070394784e+00
 6.906170333483062e-01	 1.870709304932384e+00	 7.282815559288408e+00
 6.732095455796905e-01	 1.877043978720745e+00	 7.219126344009514e+00
 6.557803167706261e-01	 1.883204016151101e+00	 7.147412634424567e+00
 6.383318380311601e-01	 1.889189682077260e+00	 7.068891534594522e+00
 6.208665846179078e-01	 1.895001286125239e+00	 6.984742203207817e+00
 6.033870149931346e-01	 1.900639182077728e+00	 6.896099227732149e+00
 5.858955699072257e-01	 1.906103767236848e+00	 6.804008641878238e+00
 5.683946715050548e-01	 1.911395481766157e+00	 6.706781871961082e+00
 5.508867224567116e-01	 1.916514808012795e+00	 6.603333580605190e+00
 5.333741051130224e-01	 1.921462269810755e+00	 6.493914625589644e+00
 5.158591806862496e-01	 1.926238431766205e+00	 6.378578420613174e+00
 6.926542517357643e-01	 1.876227621466108e+00	 7.296238503498592e+00
 6.751954144457072e-01	 1.882580981607827e+00	 7.235281362573046e+00
 6.577147719823390e-01	 1.888759190240042e+00	 7.166717395433877e+00
 6.402148228041135e-01	 1.894762512997842e+00	 7.091556294314077e+00
 6.226980494692881e-01	 1.900591260420594e+00	 7.010764632870719e+00
 6.051669176922293e-01	 1.906245787334594e+00	 6.925259614492415e+00
 5.876238754231763e-01	 1.911726492213948e+00	 6.835900962445391e+00
 5.700713519519724e-01	 1.917033816520630e+00	 6.741159091874174e+00
 5.525117570362300e-01	 1.922168244024632e+00	 6.639341610709542e+00
 5.349474800543588e-01	 1.927130300105182e+00	 6.530434231975159e+00
 5.173808891838491e-01	 1.931920551033952e+00	 6.414222961977148e+00
 5.021638042078537e-01	 1.875099358356483e+00	 6.106213322417463e+00
 4.851139091167784e-01	 1.879582556087078e+00	 5.989330708066099e+00
 4.680663004453334e-01	 1.883900217196447e+00	 5.871656035864402e+00
 4.510232104513837e-01	 1.888053006035457e+00	 5.754217860162260e+00
 4.339868478766484e-01	 1.892041623705855e+00	 5.637903480864511e+00
 4.169593972761071e-01	 1.895866807291204e+00	 5.523469300915056e+00
 3.999430183734233e-01	 1.899529329075957e+00	 5.411550608385568e+00
 3.829398454425080e-01	 1.903029995753579e+00	 5.302670795055137e+00
 3.659519867153165e-01	 1.906369647624645e+00	 5.197250025970162e+00
 3.489815238159348e-01	 1.909549157785813e+00	 5.095613376819118e+00
 3.320305112209788e-01	 1.912569431310596e+00	 4.997998458007658e+00
 5.036855127054533e-01	 1.880781477624230e+00	 6.131773086797290e+00
 4.865839512656173e-01	 1.885278260802494e+00	 6.015451312141320e+00
 4.694846831739556e-01	 1.889609005733405e+00	 5.898353224422451e+00
 4.523899474527516e-01	 1.893774378781019e+00	 5.781470611074477e+00
 4.353019595368807e-01	 1.897775083171630e+00	 5.665654548096207e+00
 4.182229106011863e-01	 1.901611858222389e+00	 5.551625844270634e+00
 4.011549669139489e-01	 1.905285478558005e+00	 5.439984896241801e+00
 3.841002692165760e-01	 1.908796753316469e+00	 5.331220966982976e+00
 3.670609321296053e-01	 1.912146525344719e+00	 5.225720902837828e+00
 3.500390435850741e-01	 1.915335670385164e+00	 5.123777306691733e+00
 3.330366642852849e-01	 1.918365096253960e+00	 5.025596186901732e+00
 5.052072212030527e-01	 1.886463596891977e+00	 6.158585160402913e+00
 4.880539934144559e-01	 1.890973965517909e+00	 6.042619999740621e+00
 4.709030659025777e-01	 1.895317794270363e+00	 5.925766304166920e+00
 4.537566844541193e-01	 1.899495751526581e+00	 5.809015582009088e+00
 4.366170711971131e-01	 1.903508542637407e+00	 5.693219823396825e+00
 4.194864239262655e-01	 1.907356909153575e+00	 5.579101970058442e+00
 4.023669154544744e-01	 1.911041628040054e+00	 5.467265782522221e+00
 3.852606929906444e-01	 1.914563510879359e+00	 5.358205118002378e+00
 3.681698775438942e-01	 1.917923403064794e+00	 5.252312634936449e+00
 3.510965633542133e-01	 1.921122182984514e+00	 5.149887942535289e+00
 3.340428173495908e-01	 1.924160761197326e+00	 5.051145215813936e+00
 5.067289297006523e-01	 1.892145716159724e+00	 6.186616965901678e+00
 4.895240355632946e-01	 1.896669670233325e+00	 6.070778907444347e+00
 4.723214486312000e-01	 1.901026582807323e+00	 5.953821254157090e+00
 4.551234214554871e-01	 1.905217124272143e+00	 5.836771365974169e+00
 4.379321828573453e-01	 1.909242002103181e+00	 5.720518926094697e+00
 4.207499372513446e-01	 1.913101960084760e+00	 5.605826375470132e+00
 4.035788639949998e-01	 1.916797777522101e+00	 5.493338731535822e+00
 3.864211167647126e-01	 1.920330268442248e+00	 5.383592805308322e+00
 3.692788229581832e-01	 1.923700280784869e+00	 5.277025833685065e+00
 3.521540831233524e-01	 1.926908695583865e+00	 5.173983546213595e+00
 3.350489704138969e-01	 1.929956426140692e+00	 5.074727687711573e+00
 5.082506381982520e-01	 1.897827835427471e+00	 6.215835778521161e+00
 4.909940777121334e-01	 1.902365374948741e+00	 6.099870386132382e+00
 4.737398313598222e-01	 1.906735371344282e+00	 5.982444516401774e+00
 4.564901584568550e-01	 1.910938497017705e+00	 5.864657158786367e+00
 4.392472945175775e-01	 1.914975461568957e+00	 5.747472113735413e+00
 4.220134505764236e-01	 1.918847011015946e+00	 5.631728331252435e+00
 4.047908125355254e-01	 1.922553927004150e+00	 5.518149620826911e+00
 3.875815405387807e-01	 1.926097026005137e+00	 5.407353747791802e+00
 3.703877683724719e-01	 1.929477158504943e+00	 5.299860933911747e+00
 3.532116028924918e-01	 1.932695208183217e+00	 5.196101782453168e+00
 3.360551234782028e-01	 1.935752091084056e+00	 5.096424650128419e+00
 5.097723466958515e-01	 1.903509954695218e+00	 6.246208719337059e+00
 4.924641198609720e-01	 1.908061079664156e+00	 6.129836989712272e+00
 4.751582140884443e-01	 1.912444159881241e+00	 6.011562981666011e+00
 4.578568954582228e-01	 1.916659869763266e+00	 5.892592743530904e+00
 4.405624061778097e-01	 1.920708921034731e+00	 5.774000266705048e+00
 4.232769639015027e-01	 1.924592061947131e+00	 5.656737667937350e+00
 4.060027610760509e-01	 1.928310076486198e+00	 5.541644730388188e+00
 3.887419643128490e-01	 1.931863783568027e+00	 5.429457819554615e+00
 3.714967137867607e-01	 1.935254036225018e+00	 5.320818192917431e+00
 3.542691226616308e-01	 1.938481720782567e+00	 5.216279724642934e+00
 3.370612765425088e-01	 1.941547756027422e+00	 5.116316068818947e+00
 5.112940551934508e-01	 1.909192073962964e+00	 6.277702748628305e+00
 4.939341620098108e-01	 1.913756784379571e+00	 6.160621464004493e+00
 4.765765968170666e-01	 1.918152948418200e+00	 6.041103975491873e+00
 4.592236324595906e-01	 1.922381242508828e+00	 5.920498475261864e+00
 4.418775178380420e-01	 1.926442380500507e+00	 5.800024873091430e+00
 4.245404772265819e-01	 1.930337112878317e+00	 5.680784762282969e+00
 4.072147096165765e-01	 1.934066225968247e+00	 5.563770732040329e+00
 3.899023880869171e-01	 1.937630541130917e+00	 5.449875043515910e+00
 3.726056592010495e-01	 1.941030913945092e+00	 5.339897689538572e+00
 3.553266424307701e-01	 1.944268233381919e+00	 5.234553860512321e+00
 3.380674296068148e-01	 1.947343420970788e+00	 5.134480841152520e+00
 5.128157636910506e-01	 1.914874193230711e+00	 6.310284659303774e+00
 4.954042041586496e-01	 1.919452489094986e+00	 6.192166735780567e+00
 4.779949795456888e-01	 1.923861736955158e+00	 6.070995244427746e+00
 4.605903694609585e-01	 1.928102615254391e+00	 5.948295265938954e+00
 4.431926294982744e-01	 1.932175839966283e+00	 5.825468013784989e+00
 4.258039905516609e-01	 1.936082163809502e+00	 5.703800523932252e+00
 4.084266581571020e-01	 1.939822375450295e+00	 5.584474678975444e+00
 3.910628118609853e-01	 1.943397298693806e+00	 5.468575585111678e+00
 3.737146046153383e-01	 1.946807791665167e+00	 5.357099323204872e+00
 3.563841621999093e-01	 1.950054745981269e+00	 5.250960097692458e+00
 3.390735826711208e-01	 1.953139085914153e+00	 5.150996809253891e+00
 5.143374721886500e-01	 1.920556312498458e+00	 6.343921070394784e+00
 4.968742463074882e-01	 1.925148193810402e+00	 6.224415901950643e+00
 4.794133622743110e-01	 1.929570525492117e+00	 6.101164942460306e+00
 4.619571064623262e-01	 1.933823987999953e+00	 5.975904569596166e+00
 4.445077411585066e-01	 1.937909299432058e+00	 5.850252347809601e+00
 4.270675038767401e-01	 1.941827214740688e+00	 5.725716382274319e+00
 4.096386066976275e-01	 1.945578524932343e+00	 5.603703995459609e+00
 3.922232356350535e-01	 1.949164056256696e+00	 5.485529746079547e+00
 3.748235500296271e-01	 1.952584669385241e+00	 5.372422812994292e+00
 3.574416819690485e-01	 1.955841258580620e+00	 5.265533769159886e+00
 3.400797357354267e-01	 1.958934750857518e+00	 5.165940772895940e+00
 5.158591806862496e-01	 1.926238431766205e+00	 6.378578420613174e+00
 4.983442884563269e-01	 1.930843898525817e+00	 6.257312218899413e+00
 4.808317450029333e-01	 1.935279314029076e+00	 6.131541617649156e+00
 4.633238434636940e-01	 1.939545360745515e+00	 6.003248367734505e+00
 4.458228528187388e-01	 1.943642758897833e+00	 5.874301097882377e+00
 4.283310172018191e-01	 1.947572265671873e+00	 5.746464273514061e+00
 4.108505552381530e-01	 1.951334674414392e+00	 5.621406466692981e+00
 3.933836594091217e-01	 1.954930813819585e+00	 5.500707958335749e+00
 3.759324954439161e-01	 1.958361547105316e+00	 5.385867696684596e+00
 3.584992017381876e-01	 1.961627771179971e+00	 5.278309638566707e+00
 3.410858887997328e-01	 1.964730415800884e+00	 5.179388502148833e+00
 5.173808891838491e-01	 1.931920551033952e+00	 6.414222961977148e+00
 4.998143306051657e-01	 1.936539603241233e+00	 6.290799091962507e+00
 4.822501277315555e-01	 1.940988102566035e+00	 6.162054198953445e+00
 4.646905804650619e-01	 1.945266733491076e+00	 6.030249154938304e+00
 4.471379644789711e-01	 1.949376218363608e+00	 5.897538036194077e+00
 4.295945305268983e-01	 1.953317316603059e+00	 5.765976627936994e+00
 4.120625037786785e-01	 1.957090823896440e+00	 5.637530228821125e+00
 3.945440831831899e-01	 1.960697571382475e+00	 5.514080777933779e+00
 3.770414408582049e-01	 1.964138424825391e+00	 5.397433329802576e+00
 3.595567215073269e-01	 1.967414283779322e+00	 5.289321905460571e+00
 3.420920418640388e-01	 1.970526080744250e+00	 5.191414749790352e+00
 3.320305112209788e-01	 1.912569431310596e+00	 4.997998458007658e+00
 3.151009757463032e-01	 1.915431404422807e+00	 4.904479413311652e+00
 2.981949160599721e-01	 1.918136043663583e+00	 4.815576268932691e+00
 2.813143022214316e-01	 1.920684345052843e+00	 4.732102591678474e+00
 2.644610752467792e-01	 1.923077333246044e+00	 4.654833164169920e+00
 2.476371467000006e-01	 1.925316060687097e+00	 4.584507839679762e+00
 2.308443983100210e-01	 1.927401606758250e+00	 4.521835033264731e+00
 2.140846816133856e-01	 1.929335076927772e+00	 4.467494877239105e+00
 1.973598176223599e-01	 1.931117601896235e+00	 4.422142069038610e+00
 1.806715965182165e-01	 1.932750336742166e+00	 4.386408439330999e+00
 1.640217773694488e-01	 1.934234460067850e+00	 4.360905267847754e+00
 3.330366642852849e-01	 1.918365096253960e+00	 5.025596186901732e+00
 3.160558271879587e-01	 1.921235742011966e+00	 4.931390766758462e+00
 2.990985370177295e-01	 1.923948577129231e+00	 4.841823570482513e+00
 2.821667698039207e-01	 1.926504600643911e+00	 4.757683554468177e+00
 2.652624724444966e-01	 1.928904840316486e+00	 4.679722461679461e+00
 2.483875622960612e-01	 1.931150351780088e+00	 4.608658632190593e+00
 2.315439267897484e-01	 1.933242217687820e+00	 4.545180443527813e+00
 2.147334230728200e-01	 1.935181546857857e+00	 4.489949409682779e+00
 1.979578776757609e-01	 1.936969473417133e+00	 4.443602967663444e+00
 1.812190862046354e-01	 1.938607155944415e+00	 4.406756980223816e+00
 1.645188130584471e-01	 1.940095776613510e+00	 4.380007983021158e+00
 3.340428173495908e-01	 1.924160761197326e+00	 5.051145215813936e+00
 3.170106786296141e-01	 1.927040079601128e+00	 4.956459588837481e+00
 3.000021579754868e-01	 1.929761110594878e+00	 4.866598299158723e+00
 2.830192373864100e-01	 1.932324856234982e+00	 4.782273839632873e+00
 2.660638696422143e-01	 1.934732347386929e+00	 4.704161958633222e+00
 2.491379778921217e-01	 1.936984642873079e+00	 4.632905515412460e+00
 2.322434552694757e-01	 1.939082828617391e+00	 4.569117957923983e+00
 2.153821645322545e-01	 1.941028016787941e+00	 4.513386452699725e+00
 1.985559377291621e-01	 1.942821344938031e+00	 4.466274696362274e+00
 1.817665758910542e-01	 1.944463975146664e+00	 4.428325438121812e+00
 1.650158487474454e-01	 1.945957093159170e+00	 4.400062742185279e+00
 3.350489704138969e-01	 1.929956426140692e+00	 5.074727687711573e+00
 3.179655300712697e-01	 1.932844417190287e+00	 4.979806109888075e+00
 3.009057789332445e-01	 1.935573644060525e+00	 4.890041543481333e+00
 2.838717049688992e-01	 1.938145111826050e+00	 4.806018687029198e+00
 2.668652668399317e-01	 1.940559854457371e+00	 4.728284867598736e+00
 2.498883934881824e-01	 1.942818933966070e+00	 4.657354029590310e+00
 2.329429837492029e-01	 1.944923439546960e+00	 4.593710337811638e+00
 2.160309059916890e-01	 1.946874486718025e+00	 4.537811425047642e+00
 1.991539977825632e-01	 1.948673216458928e+00	 4.490091314327727e+00
 1.823140655774731e-01	 1.950320794348913e+00	 4.450963045852187e+00
 1.655128844364437e-01	 1.951818409704830e+00	 4.420821038106033e+00
 3.360551234782028e-01	 1.935752091084056e+00	 5.096424650128419e+00
 3.189203815129252e-01	 1.938648754779447e+00	 5.001549032920845e+00
 3.018093998910020e-01	 1.941386177526172e+00	 4.912292636252045e+00
 2.847241725513883e-01	 1.943965367417120e+00	 4.829061549819555e+00
 2.676666640376493e-01	 1.946387361527814e+00	 4.752222774738892e+00
 2.506388090842431e-01	 1.948653225059062e+00	 4.682108433912832e+00
 2.336425122289303e-01	 1.950764050476532e+00	 4.619019587640445e+00
 2.166796474511235e-01	 1.952720956648109e+00	 4.563229685220989e+00
 1.997520578359643e-01	 1.954525087979826e+00	 4.514987683286206e+00
 1.828615552638919e-01	 1.956177613551162e+00	 4.474520861345374e+00
 1.660099201254420e-01	 1.957679726250490e+00	 4.442037364584711e+00
 3.370612765425088e-01	 1.941547756027422e+00	 5.116316068818947e+00
 3.198752329545805e-01	 1.944453092368607e+00	 5.021805554092889e+00
 3.027130208487595e-01	 1.947198710991820e+00	 4.933489178774313e+00
 2.855766401338775e-01	 1.949785623008189e+00	 4.851544119457687e+00
 2.684680612353668e-01	 1.952214868598257e+00	 4.776105662672443e+00
 2.513892246803036e-01	 1.954487516152052e+00	 4.707271724452298e+00
 2.343420407086577e-01	 1.956604661406102e+00	 4.645106965272672e+00
 2.173283889105581e-01	 1.958567426578193e+00	 4.589646531550251e+00
 2.003501178893653e-01	 1.960376959500723e+00	 4.540899454871904e+00
 1.834090449503107e-01	 1.962034432753411e+00	 4.498851739874990e+00
 1.665069558144404e-01	 1.963541042796150e+00	 4.463469171250531e+00
 3.380674296068148e-01	 1.947343420970788e+00	 5.134480841152520e+00
 3.208300843962359e-01	 1.950257429957766e+00	 5.040691382804829e+00
 3.036166418065169e-01	 1.953011244457467e+00	 4.953767064633097e+00
 2.864291077163667e-01	 1.955605878599258e+00	 4.873606350218789e+00
 2.692694584330842e-01	 1.958042375668699e+00	 4.800061932917885e+00
 2.521396402763642e-01	 1.960321807245044e+00	 4.732945651777376e+00
 2.350415691883850e-01	 1.962445272335672e+00	 4.672032992115227e+00
 2.179771303699925e-01	 1.964413896508277e+00	 4.617067202296495e+00
 2.009481779427664e-01	 1.966228831021621e+00	 4.567763058220792e+00
 1.839565346367296e-01	 1.967891251955660e+00	 4.523810306787177e+00
 1.670039915034387e-01	 1.969402359341810e+00	 4.484876819158066e+00
 3.390735826711208e-01	 1.953139085914153e+00	 5.150996809253891e+00
 3.217849358378915e-01	 1.956061767546927e+00	 5.058320761426667e+00
 3.045202627642745e-01	 1.958823777923114e+00	 4.973260503038913e+00
 2.872815752988560e-01	 1.961426134190327e+00	 4.895386483284027e+00
 2.700708556308017e-01	 1.963869882739142e+00	 4.824218427929973e+00
 2.528900558724248e-01	 1.966156098338035e+00	 4.759230738246698e+00
 2.357410976681124e-01	 1.968285883265243e+00	 4.699857463064665e+00
 2.186258718294270e-01	 1.970260366438362e+00	 4.645496875738532e+00
 2.015462379961675e-01	 1.972080702542519e+00	 4.595515687783618e+00
 1.845040243231484e-01	 1.973748071157909e+00	 4.549252930715500e+00
 1.675010271924371e-01	 1.975263675887471e+00	 4.506023537174801e+00
 3.400797357354267e-01	 1.958934750857518e+00	 5.165940772895940e+00
 3.227397872795470e-01	 1.961866105136087e+00	 5.074806484661304e+00
 3.054238837220319e-01	 1.964636311388761e+00	 4.992102041744520e+00
 2.881340428813451e-01	 1.967246389781396e+00	 4.917021070386616e+00
 2.708722528285193e-01	 1.969697389809584e+00	 4.848700452737377e+00
 2.536404714684854e-01	 1.971990389431026e+00	 4.786226294988854e+00
 2.364406261478397e-01	 1.974126494194813e+00	 4.728639456273275e+00
 2.192746132888616e-01	 1.976106836368446e+00	 4.674940670256116e+00
 2.021442980495686e-01	 1.977932574063417e+00	 4.624095291351862e+00
 1.850515140095673e-01	 1.979604890360158e+00	 4.575037697267287e+00
 1.679980628814353e-01	 1.981124992433130e+00	 4.526675379138680e+00
 3.410858887997328e-01	 1.964730415800884e+00	 5.179388502148833e+00
 3.236946387212024e-01	 1.967670442725247e+00	 5.090259918550704e+00
 3.063275046797894e-01	 1.970448844854408e+00	 5.010422589549798e+00
 2.889865104638343e-01	 1.973066645372465e+00	 4.938644997032048e+00
 2.716736500262368e-01	 1.975524896880027e+00	 4.873631796189652e+00
 2.543908870645460e-01	 1.977824680524017e+00	 4.814030438574525e+00
 2.371401546275670e-01	 1.979967105124384e+00	 4.758437342733314e+00
 2.199233547482961e-01	 1.981953306298530e+00	 4.705403644405621e+00
 2.027423581029697e-01	 1.983784445584314e+00	 4.653440558290900e+00
 1.855990036959861e-01	 1.985461709562407e+00	 4.601024383173832e+00
 1.684950985704337e-01	 1.986986308978791e+00	 4.546601181774149e+00
 3.420920418640388e-01	 1.970526080744250e+00	 5.191414749790352e+00
 3.246494901628579e-01	 1.973474780314407e+00	 5.104791019137032e+00
 3.072311256375468e-01	 1.976261378320056e+00	 5.028351438393398e+00
 2.898389780463235e-01	 1.978886900963535e+00	 4.960391505297637e+00
 2.724750472239543e-01	 1.981352403950469e+00	 4.899134751821260e+00
 2.551413026606066e-01	 1.983658971617009e+00	 4.842740107390060e+00
 2.378396831072943e-01	 1.985807716053954e+00	 4.789308795690191e+00
 2.205720962077306e-01	 1.987799776228614e+00	 4.736890796990923e+00
 2.033404181563708e-01	 1.989636317105212e+00	 4.683490907979923e+00
 1.861464933824049e-01	 1.991318528764656e+00	 4.627074430893797e+00
 1.689921342594320e-01	 1.992847625524451e+00	 4.565572523346984e+00
 1.640217773694488e-01	 1.934234460067850e+00	 4.360905267847754e+00
 1.474120878746333e-01	 1.935571173146015e+00	 4.343893687778371e+00
 1.308442241296307e-01	 1.936761699068141e+00	 4.334635474966175e+00
 1.143198504188111e-01	 1.937807281895085e+00	 4.335171646736515e+00
 9.784059902995219e-02	 1.938709185810718e+00	 4.347468287127613e+00
 8.140807009245177e-02	 1.939468694279240e+00	 4.373417987528140e+00
 6.502383143847221e-02	 1.940087109206816e+00	 4.414841256738052e+00
 4.868941848662249e-02	 1.940565750108157e+00	 4.473487919072856e+00
 3.240633414776362e-02	 1.940905953278649e+00	 4.551038517723117e+00
 1.617604875251214e-02	 1.941109070972611e+00	 4.649105739147029e+00
 0.000000000000000e+00	 1.941176470588235e+00	 4.769235872782851e+00
 1.645188130584471e-01	 1.940095776613510e+00	 4.380007983021158e+00
 1.478587911712230e-01	 1.941436540337366e+00	 4.361481730606426e+00
 1.312407217785083e-01	 1.942630673913802e+00	 4.350712040758792e+00
 1.146662742079589e-01	 1.943679425173556e+00	 4.350333654786388e+00
 9.813708569367936e-02	 1.944584062131357e+00	 4.362901106867243e+00
 8.165476121394405e-02	 1.945345872140693e+00	 4.390889489061962e+00
 6.522087335192213e-02	 1.945966161052897e+00	 4.436695210122577e+00
 4.883696217900618e-02	 1.946446252381212e+00	 4.502636767421879e+00
 3.250453516033261e-02	 1.946787486470403e+00	 4.590955549841704e+00
 1.622506708206520e-02	 1.946991219672529e+00	 4.703816687929692e+00
 0.000000000000000e+00	 1.947058823529412e+00	 4.843309966065839e+00
 1.650158487474454e-01	 1.945957093159170e+00	 4.400062742185279e+00
 1.483054944678129e-01	 1.947301907528718e+00	 4.379477821648178e+00
 1.316372194273860e-01	 1.948499648759463e+00	 4.366497033048335e+00
 1.150126979971069e-01	 1.949551568452025e+00	 4.364472435155213e+00
 9.843357235740646e-02	 1.950458938451995e+00	 4.376673380200542e+00
 8.190145233543630e-02	 1.951223050002144e+00	 4.406286376682815e+00
 6.541791526537206e-02	 1.951845212898978e+00	 4.456414973023331e+00
 4.898450587138988e-02	 1.952326754654266e+00	 4.530079682353652e+00
 3.260273617290159e-02	 1.952669019662156e+00	 4.630217967133385e+00
 1.627408541161827e-02	 1.952873368372446e+00	 4.759684300673028e+00
 0.000000000000000e+00	 1.952941176470588e+00	 4.921250320967834e+00
 1.655128844364437e-01	 1.951818409704830e+00	 4.420821038106033e+00
 1.487521977644027e-01	 1.953167274720069e+00	 4.397552915574401e+00
 1.320337170762637e-01	 1.954368623605125e+00	 4.381626987532459e+00
 1.153591217862548e-01	 1.955423711730496e+00	 4.377234970434750e+00
 9.873005902113362e-02	 1.956333814772634e+00	 4.388486136040942e+00
 8.214814345692860e-02	 1.957100227863597e+00	 4.419406046509319e+00
 6.561495717882196e-02	 1.957724264745060e+00	 4.473935340057075e+00
 4.913204956377358e-02	 1.958207256927322e+00	 4.555928588682535e+00
 3.270093718547058e-02	 1.958550552853910e+00	 4.669153247751573e+00
 1.632310374117134e-02	 1.958755517072362e+00	 4.817288715505431e+00
 0.000000000000000e+00	 1.958823529411765e+00	 5.003925518780050e+00
 1.660099201254420e-01	 1.957679726250490e+00	 4.442037364584711e+00
 1.491989010609925e-01	 1.959032641911421e+00	 4.415381936930873e+00
 1.324302147251413e-01	 1.960237598450786e+00	 4.395742825437650e+00
 1.157055455754027e-01	 1.961295855008965e+00	 4.388272506437724e+00
 9.902654568486073e-02	 1.962208691093273e+00	 4.398044021643288e+00
 8.239483457842089e-02	 1.962977405725050e+00	 4.430048361077805e+00
 6.581199909227188e-02	 1.963603316591141e+00	 4.489191928948269e+00
 4.927959325615729e-02	 1.964087759200376e+00	 4.580294115416364e+00
 3.279913819803955e-02	 1.964432086045663e+00	 4.708084995406546e+00
 1.637212207072441e-02	 1.964637665772279e+00	 4.877203173727449e+00
 0.000000000000000e+00	 1.964705882352941e+00	 5.092193793884768e+00
 1.665069558144404e-01	 1.963541042796150e+00	 4.463469171250531e+00
 1.496456043575822e-01	 1.964898009102773e+00	 4.432643720558357e+00
 1.328267123740190e-01	 1.966106573296446e+00	 4.408489787805085e+00
 1.160519693645506e-01	 1.967167998287435e+00	 4.397240488367972e+00
 9.932303234858784e-02	 1.968083567413911e+00	 4.405055248441741e+00
 8.264152569991315e-02	 1.968854583586501e+00	 4.438015612406694e+00
 6.600904100572179e-02	 1.969482368437222e+00	 4.502121168152001e+00
 4.942713694854099e-02	 1.969968261473432e+00	 4.603285615028965e+00
 3.289733921060854e-02	 1.970313619237417e+00	 4.747332997146615e+00
 1.642114040027747e-02	 1.970519814472196e+00	 4.939994122724873e+00
 0.000000000000000e+00	 1.970588235294118e+00	 5.186903188186715e+00
 1.670039915034387e-01	 1.969402359341810e+00	 4.484876819158066e+00
 1.500923076541720e-01	 1.970763376294123e+00	 4.449020953074134e+00
 1.332232100228967e-01	 1.971975548142107e+00	 4.419517370950048e+00
 1.163983931536985e-01	 1.973040141565905e+00	 4.403798498127639e+00
 9.961951901231496e-02	 1.973958443734549e+00	 4.409231538856376e+00
 8.288821682140546e-02	 1.974731761447954e+00	 4.443112485725073e+00
 6.620608291917171e-02	 1.975361420283304e+00	 4.512660284697703e+00
 4.957468064092470e-02	 1.975848763746487e+00	 4.625011182389384e+00
 3.299554022317751e-02	 1.976195152429170e+00	 4.787213280108785e+00
 1.647015872983054e-02	 1.976401963172113e+00	 5.006221317044435e+00
 0.000000000000000e+00	 1.976470588235294e+00	 5.288891702786726e+00
 1.675010271924371e-01	 1.975263675887471e+00	 4.506023537174801e+00
 1.505390109507619e-01	 1.976628743485476e+00	 4.464200115395165e+00
 1.336197076717743e-01	 1.977844522987767e+00	 4.428479263068148e+00
 1.167448169428464e-01	 1.978912284844375e+00	 4.407610192740594e+00
 9.991600567604211e-02	 1.979833320055188e+00	 4.410288074045126e+00
 8.313490794289771e-02	 1.980608939309406e+00	 4.445146023845053e+00
 6.640312483262160e-02	 1.981240472129384e+00	 4.520747292250069e+00
 4.972222433330840e-02	 1.981729266019542e+00	 4.645577673352955e+00
 3.309374123574649e-02	 1.982076685620924e+00	 4.828038167258196e+00
 1.651917705938361e-02	 1.982284111872031e+00	 5.076437917671384e+00
 0.000000000000000e+00	 1.982352941176471e+00	 5.398987446955365e+00
 1.679980628814353e-01	 1.981124992433130e+00	 4.526675379138680e+00
 1.509857142473516e-01	 1.982494110676827e+00	 4.477871426278493e+00
 1.340162053206520e-01	 1.983713497833430e+00	 4.435033281967257e+00
 1.170912407319943e-01	 1.984784428122845e+00	 4.408343243867782e+00
 1.002124923397692e-01	 1.985708196375827e+00	 4.407943442582000e+00
 8.338159906438998e-02	 1.986486117170858e+00	 4.443925592164335e+00
 6.660016674607154e-02	 1.987119523975466e+00	 4.526320979380900e+00
 4.986976802569211e-02	 1.987609768292597e+00	 4.665090723023402e+00
 3.319194224831547e-02	 1.987958218812677e+00	 4.870116332138601e+00
 1.656819538893667e-02	 1.988166260571947e+00	 5.151190589542589e+00
 0.000000000000000e+00	 1.988235294117647e+00	 5.518008784461525e+00
 1.684950985704337e-01	 1.986986308978791e+00	 4.546601181774149e+00
 1.514324175439414e-01	 1.988359477868178e+00	 4.489728786860778e+00
 1.344127029695297e-01	 1.989582472679090e+00	 4.438841313899832e+00
 1.174376645211422e-01	 1.990656571401314e+00	 4.405669278393346e+00
 1.005089790034964e-01	 1.991583072696465e+00	 4.401919590045559e+00
 8.362829018588226e-02	 1.992363295032310e+00	 4.439262844292286e+00
 6.679720865952143e-02	 1.992998575821547e+00	 4.529320898048645e+00
 5.001731171807581e-02	 1.993490270565652e+00	 4.683654763690225e+00
 3.329014326088445e-02	 1.993839752004430e+00	 4.913752852652260e+00
 1.661721371848974e-02	 1.994048409271864e+00	 5.231019597335201e+00
 0.000000000000000e+00	 1.994117647058823e+00	 5.646764477311344e+00
 1.689921342594320e-01	 1.992847625524451e+00	 4.565572523346984e+00
 1.518791208405312e-01	 1.994224845059530e+00	 4.499469726174902e+00
 1.348092006184073e-01	 1.995451447524752e+00	 4.439569253473582e+00
 1.177840883102902e-01	 1.996528714679785e+00	 4.399263820057023e+00
 1.008054656672235e-01	 1.997457949017104e+00	 4.391941769494037e+00
 8.387498130737454e-02	 1.998240472893762e+00	 4.430971688278577e+00
 6.699425057297137e-02	 1.998877627667628e+00	 4.529687352281970e+00
 5.016485541045952e-02	 1.999370772838707e+00	 4.701373042452268e+00
 3.338834427345343e-02	 1.999721285196184e+00	 4.959249263893132e+00
 1.666623204804281e-02	 1.999930557971781e+00	 5.316458899565423e+00
 0.000000000000000e+00	 2.000000000000000e+00	 5.786053826951306e+00
