patch_n	x	y	stress_yy
0	 0.000000000000000e+00	 0.000000000000000e+00	-7.660130492181556e-01
0	 5.882352941176471e-02	 0.000000000000000e+00	-1.658575925282898e+00
0	 1.176470588235294e-01	 0.000000000000000e+00	-2.148515778895061e+00
0	 1.764705882352941e-01	 0.000000000000000e+00	-2.290941181916498e+00
0	 2.352941176470589e-01	 0.000000000000000e+00	-2.140960706209067e+00
0	 2.941176470588236e-01	 0.000000000000000e+00	-1.753682923634624e+00
0	 3.529411764705883e-01	 0.000000000000000e+00	-1.184216406055023e+00
0	 4.117647058823530e-01	 0.000000000000000e+00	-4.876697253321216e-01
0	 4.705882352941178e-01	 0.000000000000000e+00	 2.808485466722257e-01
0	 5.294117647058825e-01	 0.000000000000000e+00	 1.066229838096163e+00
0	 5.882352941176472e-01	 0.000000000000000e+00	 1.813365577077833e+00
0	 5.882352941176472e-01	 0.000000000000000e+00	 1.813365577077833e+00
0	 6.470588235294118e-01	 0.000000000000000e+00	 2.371219586133693e+00
0	 7.058823529411766e-01	 0.000000000000000e+00	 2.643380348926320e+00
0	 7.647058823529413e-01	 0.000000000000000e+00	 2.656676285313031e+00
0	 8.235294117647060e-01	 0.000000000000000e+00	 2.437935815151149e+00
0	 8.823529411764710e-01	 0.000000000000000e+00	 2.013987358297990e+00
0	 9.411764705882358e-01	 0.000000000000000e+00	 1.411659334610876e+00
0	 1.000000000000000e+00	 0.000000000000000e+00	 6.577801639471268e-01
0	 1.058823529411765e+00	 0.000000000000000e+00	-2.208217338359391e-01
0	 1.117647058823530e+00	 0.000000000000000e+00	-1.197317938880998e+00
0	 1.176470588235294e+00	 0.000000000000000e+00	-2.244880031330725e+00
0	 1.176470588235294e+00	 0.000000000000000e+00	-2.244880031330726e+00
0	 1.235294117647059e+00	 0.000000000000000e+00	-3.113461925983093e+00
0	 1.294117647058824e+00	 0.000000000000000e+00	-3.586245487341062e+00
0	 1.352941176470589e+00	 0.000000000000000e+00	-3.686244220104823e+00
0	 1.411764705882353e+00	 0.000000000000000e+00	-3.436471628974589e+00
0	 1.470588235294118e+00	 0.000000000000000e+00	-2.859941218650549e+00
0	 1.529411764705883e+00	 0.000000000000000e+00	-1.979666493832903e+00
0	 1.588235294117648e+00	 0.000000000000000e+00	-8.186609592218588e-01
0	 1.647058823529412e+00	 0.000000000000000e+00	 6.000618804823965e-01
0	 1.705882352941177e+00	 0.000000000000000e+00	 2.253488520579650e+00
0	 1.764705882352941e+00	 0.000000000000000e+00	 4.118605456369696e+00
0	 1.764705882352941e+00	 0.000000000000000e+00	 4.118605456369697e+00
0	 1.823529411764707e+00	 0.000000000000000e+00	 5.954618033479184e+00
0	 1.882352941176471e+00	 0.000000000000000e+00	 7.541256778731976e+00
0	 1.941176470588236e+00	 0.000000000000000e+00	 8.886295959223721e+00
0	 2.000000000000001e+00	 0.000000000000000e+00	 9.997509842050086e+00
0	 2.058823529411766e+00	 0.000000000000000e+00	 1.088267269430674e+01
0	 2.117647058823531e+00	 0.000000000000000e+00	 1.154955878308934e+01
0	 2.176470588235295e+00	 0.000000000000000e+00	 1.200594237549356e+01
0	 2.235294117647060e+00	 0.000000000000000e+00	 1.225959773861505e+01
0	 2.294117647058825e+00	 0.000000000000000e+00	 1.231829913954950e+01
0	 2.352941176470589e+00	 0.000000000000000e+00	 1.218982084539255e+01
0	 2.352941176470589e+00	 0.000000000000000e+00	 1.218982084539255e+01
0	 2.411764705882353e+00	 0.000000000000000e+00	 1.197057453031411e+01
0	 2.470588235294119e+00	 0.000000000000000e+00	 1.175476671015125e+01
0	 2.529411764705883e+00	 0.000000000000000e+00	 1.154686391450038e+01
0	 2.588235294117648e+00	 0.000000000000000e+00	 1.135133267295793e+01
0	 2.647058823529412e+00	 0.000000000000000e+00	 1.117263951512030e+01
0	 2.705882352941176e+00	 0.000000000000000e+00	 1.101525097058393e+01
0	 2.764705882352941e+00	 0.000000000000000e+00	 1.088363356894523e+01
0	 2.823529411764705e+00	 0.000000000000000e+00	 1.078225383980063e+01
0	 2.882352941176470e+00	 0.000000000000000e+00	 1.071557831274652e+01
0	 2.941176470588236e+00	 0.000000000000000e+00	 1.068807351737936e+01
0	 2.941176470588236e+00	 0.000000000000000e+00	 1.068807351737936e+01
0	 3.000000000000000e+00	 0.000000000000000e+00	 1.068787892859213e+01
0	 3.058823529411765e+00	 0.000000000000000e+00	 1.069801921892458e+01
0	 3.117647058823530e+00	 0.000000000000000e+00	 1.071528871444331e+01
0	 3.176470588235293e+00	 0.000000000000000e+00	 1.073648174121487e+01
0	 3.235294117647058e+00	 0.000000000000000e+00	 1.075839262530584e+01
0	 3.294117647058823e+00	 0.000000000000000e+00	 1.077781569278279e+01
0	 3.352941176470587e+00	 0.000000000000000e+00	 1.079154526971230e+01
0	 3.411764705882352e+00	 0.000000000000000e+00	 1.079637568216093e+01
0	 3.470588235294116e+00	 0.000000000000000e+00	 1.078910125619526e+01
0	 3.529411764705883e+00	 0.000000000000000e+00	 1.076651631788186e+01
0	 3.529411764705883e+00	 0.000000000000000e+00	 1.076651631788186e+01
0	 3.588235294117648e+00	 0.000000000000000e+00	 1.073231112347356e+01
0	 3.647058823529412e+00	 0.000000000000000e+00	 1.069344464354666e+01
0	 3.705882352941176e+00	 0.000000000000000e+00	 1.065161427565285e+01
0	 3.764705882352941e+00	 0.000000000000000e+00	 1.060851741734387e+01
0	 3.823529411764705e+00	 0.000000000000000e+00	 1.056585146617142e+01
0	 3.882352941176470e+00	 0.000000000000000e+00	 1.052531381968722e+01
0	 3.941176470588234e+00	 0.000000000000000e+00	 1.048860187544301e+01
0	 4.000000000000000e+00	 0.000000000000000e+00	 1.045741303099048e+01
0	 4.058823529411764e+00	 0.000000000000000e+00	 1.043344468388136e+01
0	 4.117647058823530e+00	 0.000000000000000e+00	 1.041839423166736e+01
0	 4.117647058823530e+00	 0.000000000000000e+00	 1.041839423166736e+01
0	 4.176470588235294e+00	 0.000000000000000e+00	 1.041046716864753e+01
0	 4.235294117647059e+00	 0.000000000000000e+00	 1.040612263292376e+01
0	 4.294117647058822e+00	 0.000000000000000e+00	 1.040443848775207e+01
0	 4.352941176470588e+00	 0.000000000000000e+00	 1.040449259638848e+01
0	 4.411764705882352e+00	 0.000000000000000e+00	 1.040536282208902e+01
0	 4.470588235294117e+00	 0.000000000000000e+00	 1.040612702810970e+01
0	 4.529411764705881e+00	 0.000000000000000e+00	 1.040586307770653e+01
0	 4.588235294117646e+00	 0.000000000000000e+00	 1.040364883413554e+01
0	 4.647058823529410e+00	 0.000000000000000e+00	 1.039856216065276e+01
0	 4.705882352941178e+00	 0.000000000000000e+00	 1.038968092051420e+01
0	 4.705882352941178e+00	 0.000000000000000e+00	 1.038968092051420e+01
0	 4.764705882352941e+00	 0.000000000000000e+00	 1.037779355964182e+01
0	 4.823529411764706e+00	 0.000000000000000e+00	 1.036459265531986e+01
0	 4.882352941176471e+00	 0.000000000000000e+00	 1.035051226784776e+01
0	 4.941176470588235e+00	 0.000000000000000e+00	 1.033598645752495e+01
0	 5.000000000000000e+00	 0.000000000000000e+00	 1.032144928465087e+01
0	 5.058823529411764e+00	 0.000000000000000e+00	 1.030733480952496e+01
0	 5.117647058823529e+00	 0.000000000000000e+00	 1.029407709244666e+01
0	 5.176470588235293e+00	 0.000000000000000e+00	 1.028211019371539e+01
0	 5.235294117647057e+00	 0.000000000000000e+00	 1.027186817363060e+01
0	 5.294117647058825e+00	 0.000000000000000e+00	 1.026378509249171e+01
0	 5.294117647058825e+00	 0.000000000000000e+00	 1.026378509249171e+01
0	 5.352941176470588e+00	 0.000000000000000e+00	 1.025735621009129e+01
0	 5.411764705882353e+00	 0.000000000000000e+00	 1.025165790773432e+01
0	 5.470588235294117e+00	 0.000000000000000e+00	 1.024649592798889e+01
0	 5.529411764705882e+00	 0.000000000000000e+00	 1.024167601342307e+01
0	 5.588235294117647e+00	 0.000000000000000e+00	 1.023700390660496e+01
0	 5.647058823529411e+00	 0.000000000000000e+00	 1.023228535010266e+01
0	 5.705882352941176e+00	 0.000000000000000e+00	 1.022732608648422e+01
0	 5.764705882352939e+00	 0.000000000000000e+00	 1.022193185831777e+01
0	 5.823529411764705e+00	 0.000000000000000e+00	 1.021590840817136e+01
0	 5.882352941176472e+00	 0.000000000000000e+00	 1.020906147861310e+01
0	 5.882352941176472e+00	 0.000000000000000e+00	 1.020906147861310e+01
0	 5.941176470588236e+00	 0.000000000000000e+00	 1.020165394917618e+01
0	 6.000000000000001e+00	 0.000000000000000e+00	 1.019412477003098e+01
0	 6.058823529411763e+00	 0.000000000000000e+00	 1.018654378970131e+01
0	 6.117647058823529e+00	 0.000000000000000e+00	 1.017898085671101e+01
0	 6.176470588235294e+00	 0.000000000000000e+00	 1.017150581958390e+01
0	 6.235294117647058e+00	 0.000000000000000e+00	 1.016418852684380e+01
0	 6.294117647058822e+00	 0.000000000000000e+00	 1.015709882701453e+01
0	 6.352941176470587e+00	 0.000000000000000e+00	 1.015030656861994e+01
0	 6.411764705882351e+00	 0.000000000000000e+00	 1.014388160018383e+01
0	 6.470588235294119e+00	 0.000000000000000e+00	 1.013789377023004e+01
0	 6.470588235294119e+00	 0.000000000000000e+00	 1.013789377023004e+01
0	 6.529411764705882e+00	 0.000000000000000e+00	 1.013216170636566e+01
0	 6.588235294117648e+00	 0.000000000000000e+00	 1.012644316057590e+01
0	 6.647058823529412e+00	 0.000000000000000e+00	 1.012071666795181e+01
0	 6.705882352941177e+00	 0.000000000000000e+00	 1.011496076358441e+01
0	 6.764705882352940e+00	 0.000000000000000e+00	 1.010915398256472e+01
0	 6.823529411764705e+00	 0.000000000000000e+00	 1.010327485998380e+01
0	 6.882352941176469e+00	 0.000000000000000e+00	 1.009730193093266e+01
0	 6.941176470588235e+00	 0.000000000000000e+00	 1.009121373050233e+01
0	 6.999999999999998e+00	 0.000000000000000e+00	 1.008498879378384e+01
0	 7.058823529411764e+00	 0.000000000000000e+00	 1.007860565586822e+01
0	 7.058823529411764e+00	 0.000000000000000e+00	 1.007860565586822e+01
0	 7.117647058823529e+00	 0.000000000000000e+00	 1.007215825465188e+01
0	 7.176470588235293e+00	 0.000000000000000e+00	 1.006575259416195e+01
0	 7.235294117647060e+00	 0.000000000000000e+00	 1.005938530868557e+01
0	 7.294117647058822e+00	 0.000000000000000e+00	 1.005305303250987e+01
0	 7.352941176470587e+00	 0.000000000000000e+00	 1.004675239992202e+01
0	 7.411764705882351e+00	 0.000000000000000e+00	 1.004048004520916e+01
0	 7.470588235294117e+00	 0.000000000000000e+00	 1.003423260265842e+01
0	 7.529411764705881e+00	 0.000000000000000e+00	 1.002800670655695e+01
0	 7.588235294117645e+00	 0.000000000000000e+00	 1.002179899119191e+01
0	 7.647058823529411e+00	 0.000000000000000e+00	 1.001560609085042e+01
0	 7.647058823529411e+00	 0.000000000000000e+00	 1.001560609085042e+01
0	 7.705882352941175e+00	 0.000000000000000e+00	 1.000936695780933e+01
0	 7.764705882352941e+00	 0.000000000000000e+00	 1.000302367633494e+01
0	 7.823529411764704e+00	 0.000000000000000e+00	 9.996577578698583e+00
0	 7.882352941176469e+00	 0.000000000000000e+00	 9.990029997171613e+00
0	 7.941176470588233e+00	 0.000000000000000e+00	 9.983382264025362e+00
0	 7.999999999999997e+00	 0.000000000000000e+00	 9.976635711531159e+00
0	 8.058823529411763e+00	 0.000000000000000e+00	 9.969791671960358e+00
0	 8.117647058823527e+00	 0.000000000000000e+00	 9.962851477584305e+00
0	 8.176470588235292e+00	 0.000000000000000e+00	 9.955816460674320e+00
0	 8.235294117647060e+00	 0.000000000000000e+00	 9.948687953501759e+00
0	 8.235294117647060e+00	 0.000000000000000e+00	 9.948687953501759e+00
0	 8.294117647058822e+00	 0.000000000000000e+00	 9.941498637187056e+00
0	 8.352941176470587e+00	 0.000000000000000e+00	 9.934271375821476e+00
0	 8.411764705882350e+00	 0.000000000000000e+00	 9.926992776132588e+00
0	 8.470588235294118e+00	 0.000000000000000e+00	 9.919649444847957e+00
0	 8.529411764705880e+00	 0.000000000000000e+00	 9.912227988695163e+00
0	 8.588235294117645e+00	 0.000000000000000e+00	 9.904715014401777e+00
0	 8.647058823529409e+00	 0.000000000000000e+00	 9.897097128695355e+00
0	 8.705882352941174e+00	 0.000000000000000e+00	 9.889360938303483e+00
0	 8.764705882352938e+00	 0.000000000000000e+00	 9.881493049953725e+00
0	 8.823529411764705e+00	 0.000000000000000e+00	 9.873480070373663e+00
0	 8.823529411764705e+00	 0.000000000000000e+00	 9.873480070373663e+00
0	 8.882352941176471e+00	 0.000000000000000e+00	 9.865307736562730e+00
0	 8.941176470588234e+00	 0.000000000000000e+00	 9.856967056277369e+00
0	 8.999999999999996e+00	 0.000000000000000e+00	 9.848452542380585e+00
0	 9.058823529411763e+00	 0.000000000000000e+00	 9.839758707735418e+00
0	 9.117647058823527e+00	 0.000000000000000e+00	 9.830880065204896e+00
0	 9.176470588235292e+00	 0.000000000000000e+00	 9.821811127652042e+00
0	 9.235294117647056e+00	 0.000000000000000e+00	 9.812546407939884e+00
0	 9.294117647058819e+00	 0.000000000000000e+00	 9.803080418931444e+00
0	 9.352941176470585e+00	 0.000000000000000e+00	 9.793407673489767e+00
0	 9.411764705882353e+00	 0.000000000000000e+00	 9.783522684477864e+00
0	 9.411764705882353e+00	 0.000000000000000e+00	 9.783522684477864e+00
0	 9.470588235294118e+00	 0.000000000000000e+00	 9.773445990862829e+00
0	 9.529411764705880e+00	 0.000000000000000e+00	 9.763184088364135e+00
0	 9.588235294117649e+00	 0.000000000000000e+00	 9.752710424973355e+00
0	 9.647058823529411e+00	 0.000000000000000e+00	 9.741998448682050e+00
0	 9.705882352941176e+00	 0.000000000000000e+00	 9.731021607481786e+00
0	 9.764705882352940e+00	 0.000000000000000e+00	 9.719753349364154e+00
0	 9.823529411764705e+00	 0.000000000000000e+00	 9.708167122320695e+00
0	 9.882352941176469e+00	 0.000000000000000e+00	 9.696236374343014e+00
0	 9.941176470588234e+00	 0.000000000000000e+00	 9.683934553422588e+00
0	 1.000000000000000e+01	 0.000000000000000e+00	 9.671235107551148e+00
1	 1.000000000000000e+00	 0.000000000000000e+00	 2.952055978433894e+01
1	 1.005882352941176e+00	 0.000000000000000e+00	 2.919062435086872e+01
1	 1.011764705882353e+00	 0.000000000000000e+00	 2.887419227204844e+01
1	 1.017647058823530e+00	 0.000000000000000e+00	 2.857064425890912e+01
1	 1.023529411764706e+00	 0.000000000000000e+00	 2.827937525900992e+01
1	 1.029411764705882e+00	 0.000000000000000e+00	 2.799979404967990e+01
1	 1.035294117647059e+00	 0.000000000000000e+00	 2.773132284512713e+01
1	 1.041176470588235e+00	 0.000000000000000e+00	 2.747339691686573e+01
1	 1.047058823529412e+00	 0.000000000000000e+00	 2.722546422693751e+01
1	 1.052941176470588e+00	 0.000000000000000e+00	 2.698698507342808e+01
1	 1.058823529411765e+00	 0.000000000000000e+00	 2.675743174779894e+01
1	 1.058823529411765e+00	 0.000000000000000e+00	 2.675743174779894e+01
1	 1.064705882352941e+00	 0.000000000000000e+00	 2.653708112628201e+01
1	 1.070588235294118e+00	 0.000000000000000e+00	 2.632628261931045e+01
1	 1.076470588235294e+00	 0.000000000000000e+00	 2.612463283793902e+01
1	 1.082352941176471e+00	 0.000000000000000e+00	 2.593173716254734e+01
1	 1.088235294117647e+00	 0.000000000000000e+00	 2.574720950583117e+01
1	 1.094117647058824e+00	 0.000000000000000e+00	 2.557067208343904e+01
1	 1.100000000000000e+00	 0.000000000000000e+00	 2.540175519196817e+01
1	 1.105882352941177e+00	 0.000000000000000e+00	 2.524009699404564e+01
1	 1.111764705882353e+00	 0.000000000000000e+00	 2.508534331023235e+01
1	 1.117647058823530e+00	 0.000000000000000e+00	 2.493714741749838e+01
1	 1.117647058823530e+00	 0.000000000000000e+00	 2.493714741749838e+01
1	 1.123529411764706e+00	 0.000000000000000e+00	 2.479572902134771e+01
1	 1.129411764705883e+00	 0.000000000000000e+00	 2.466132755704608e+01
1	 1.135294117647059e+00	 0.000000000000000e+00	 2.453363621514044e+01
1	 1.141176470588235e+00	 0.000000000000000e+00	 2.441235451214581e+01
1	 1.147058823529412e+00	 0.000000000000000e+00	 2.429718812834105e+01
1	 1.152941176470588e+00	 0.000000000000000e+00	 2.418784875052992e+01
1	 1.158823529411765e+00	 0.000000000000000e+00	 2.408405391959121e+01
1	 1.164705882352941e+00	 0.000000000000000e+00	 2.398552688264860e+01
1	 1.170588235294118e+00	 0.000000000000000e+00	 2.389199644969766e+01
1	 1.176470588235294e+00	 0.000000000000000e+00	 2.380319685453406e+01
1	 1.176470588235294e+00	 0.000000000000000e+00	 2.380319685453406e+01
1	 1.182352941176471e+00	 0.000000000000000e+00	 2.371694541845167e+01
1	 1.188235294117647e+00	 0.000000000000000e+00	 2.363113245833260e+01
1	 1.194117647058824e+00	 0.000000000000000e+00	 2.354560793838486e+01
1	 1.200000000000000e+00	 0.000000000000000e+00	 2.346022476469464e+01
1	 1.205882352941177e+00	 0.000000000000000e+00	 2.337483871347335e+01
1	 1.211764705882353e+00	 0.000000000000000e+00	 2.328930836139428e+01
1	 1.217647058823530e+00	 0.000000000000000e+00	 2.320349501794865e+01
1	 1.223529411764706e+00	 0.000000000000000e+00	 2.311726265975284e+01
1	 1.229411764705883e+00	 0.000000000000000e+00	 2.303047786674154e+01
1	 1.235294117647059e+00	 0.000000000000000e+00	 2.294300976018408e+01
1	 1.235294117647059e+00	 0.000000000000000e+00	 2.294300976018408e+01
1	 1.241176470588236e+00	 0.000000000000000e+00	 2.285498140155795e+01
1	 1.247058823529412e+00	 0.000000000000000e+00	 2.276652438833415e+01
1	 1.252941176470588e+00	 0.000000000000000e+00	 2.267752415215911e+01
1	 1.258823529411765e+00	 0.000000000000000e+00	 2.258786826614372e+01
1	 1.264705882352941e+00	 0.000000000000000e+00	 2.249744639506199e+01
1	 1.270588235294118e+00	 0.000000000000000e+00	 2.240615024693294e+01
1	 1.276470588235294e+00	 0.000000000000000e+00	 2.231387352594098e+01
1	 1.282352941176470e+00	 0.000000000000000e+00	 2.222051188665259e+01
1	 1.288235294117647e+00	 0.000000000000000e+00	 2.212596288948678e+01
1	 1.294117647058824e+00	 0.000000000000000e+00	 2.203012595740055e+01
1	 1.294117647058824e+00	 0.000000000000000e+00	 2.203012595740055e+01
1	 1.300000000000000e+00	 0.000000000000000e+00	 2.193310475550957e+01
1	 1.305882352941176e+00	 0.000000000000000e+00	 2.183502735502482e+01
1	 1.311764705882353e+00	 0.000000000000000e+00	 2.173583200165513e+01
1	 1.317647058823529e+00	 0.000000000000000e+00	 2.163545804386460e+01
1	 1.323529411764706e+00	 0.000000000000000e+00	 2.153384590836677e+01
1	 1.329411764705883e+00	 0.000000000000000e+00	 2.143093707626970e+01
1	 1.335294117647059e+00	 0.000000000000000e+00	 2.132667405985135e+01
1	 1.341176470588235e+00	 0.000000000000000e+00	 2.122100037994616e+01
1	 1.347058823529412e+00	 0.000000000000000e+00	 2.111386054392426e+01
1	 1.352941176470588e+00	 0.000000000000000e+00	 2.100520002424496e+01
1	 1.352941176470588e+00	 0.000000000000000e+00	 2.100520002424496e+01
1	 1.358823529411765e+00	 0.000000000000000e+00	 2.089507838234092e+01
1	 1.364705882352941e+00	 0.000000000000000e+00	 2.078355686472025e+01
1	 1.370588235294118e+00	 0.000000000000000e+00	 2.067058484305364e+01
1	 1.376470588235294e+00	 0.000000000000000e+00	 2.055611255445337e+01
1	 1.382352941176470e+00	 0.000000000000000e+00	 2.044009108305960e+01
1	 1.388235294117647e+00	 0.000000000000000e+00	 2.032247234209481e+01
1	 1.394117647058823e+00	 0.000000000000000e+00	 2.020320905637274e+01
1	 1.400000000000000e+00	 0.000000000000000e+00	 2.008225474524802e+01
1	 1.405882352941176e+00	 0.000000000000000e+00	 1.995956370599399e+01
1	 1.411764705882353e+00	 0.000000000000000e+00	 1.983509099759623e+01
1	 1.411764705882353e+00	 0.000000000000000e+00	 1.983509099759623e+01
1	 1.417647058823529e+00	 0.000000000000000e+00	 1.970890332968202e+01
1	 1.423529411764706e+00	 0.000000000000000e+00	 1.958108394837252e+01
1	 1.429411764705882e+00	 0.000000000000000e+00	 1.945161352081724e+01
1	 1.435294117647059e+00	 0.000000000000000e+00	 1.932047303109772e+01
1	 1.441176470588235e+00	 0.000000000000000e+00	 1.918764377375931e+01
1	 1.447058823529412e+00	 0.000000000000000e+00	 1.905310734750141e+01
1	 1.452941176470588e+00	 0.000000000000000e+00	 1.891684564901983e+01
1	 1.458823529411764e+00	 0.000000000000000e+00	 1.877884086699940e+01
1	 1.464705882352941e+00	 0.000000000000000e+00	 1.863907547625040e+01
1	 1.470588235294118e+00	 0.000000000000000e+00	 1.849753223198618e+01
1	 1.470588235294118e+00	 0.000000000000000e+00	 1.849753223198618e+01
1	 1.476470588235294e+00	 0.000000000000000e+00	 1.835424636710397e+01
1	 1.482352941176470e+00	 0.000000000000000e+00	 1.820925092844086e+01
1	 1.488235294117647e+00	 0.000000000000000e+00	 1.806252583996967e+01
1	 1.494117647058824e+00	 0.000000000000000e+00	 1.791405134182119e+01
1	 1.500000000000000e+00	 0.000000000000000e+00	 1.776380798408493e+01
1	 1.505882352941176e+00	 0.000000000000000e+00	 1.761177662075523e+01
1	 1.511764705882353e+00	 0.000000000000000e+00	 1.745793840381878e+01
1	 1.517647058823529e+00	 0.000000000000000e+00	 1.730227477747944e+01
1	 1.523529411764706e+00	 0.000000000000000e+00	 1.714476747251720e+01
1	 1.529411764705882e+00	 0.000000000000000e+00	 1.698539850077687e+01
1	 1.529411764705882e+00	 0.000000000000000e+00	 1.698539850077687e+01
1	 1.535294117647059e+00	 0.000000000000000e+00	 1.682421174822007e+01
1	 1.541176470588235e+00	 0.000000000000000e+00	 1.666126002528163e+01
1	 1.547058823529411e+00	 0.000000000000000e+00	 1.649653898819219e+01
1	 1.552941176470588e+00	 0.000000000000000e+00	 1.633004435899709e+01
1	 1.558823529411765e+00	 0.000000000000000e+00	 1.616177192431454e+01
1	 1.564705882352941e+00	 0.000000000000000e+00	 1.599171753412202e+01
1	 1.570588235294118e+00	 0.000000000000000e+00	 1.581987710056945e+01
1	 1.576470588235294e+00	 0.000000000000000e+00	 1.564624659681958e+01
1	 1.582352941176471e+00	 0.000000000000000e+00	 1.547082205591362e+01
1	 1.588235294117647e+00	 0.000000000000000e+00	 1.529359956966267e+01
1	 1.588235294117647e+00	 0.000000000000000e+00	 1.529359956966267e+01
1	 1.594117647058824e+00	 0.000000000000000e+00	 1.511460199416475e+01
1	 1.600000000000000e+00	 0.000000000000000e+00	 1.493385621693852e+01
1	 1.605882352941176e+00	 0.000000000000000e+00	 1.475136439636842e+01
1	 1.611764705882353e+00	 0.000000000000000e+00	 1.456712865932964e+01
1	 1.617647058823529e+00	 0.000000000000000e+00	 1.438115110176095e+01
1	 1.623529411764706e+00	 0.000000000000000e+00	 1.419343378922523e+01
1	 1.629411764705882e+00	 0.000000000000000e+00	 1.400397875745773e+01
1	 1.635294117647059e+00	 0.000000000000000e+00	 1.381278801290255e+01
1	 1.641176470588235e+00	 0.000000000000000e+00	 1.361986353323762e+01
1	 1.647058823529412e+00	 0.000000000000000e+00	 1.342520726788822e+01
1	 1.647058823529412e+00	 0.000000000000000e+00	 1.342520726788822e+01
1	 1.652941176470588e+00	 0.000000000000000e+00	 1.322885752413560e+01
1	 1.658823529411765e+00	 0.000000000000000e+00	 1.303085011047620e+01
1	 1.664705882352941e+00	 0.000000000000000e+00	 1.283118322656072e+01
1	 1.670588235294117e+00	 0.000000000000000e+00	 1.262985509739698e+01
1	 1.676470588235294e+00	 0.000000000000000e+00	 1.242686397290489e+01
1	 1.682352941176470e+00	 0.000000000000000e+00	 1.222220812748114e+01
1	 1.688235294117647e+00	 0.000000000000000e+00	 1.201588585957247e+01
1	 1.694117647058823e+00	 0.000000000000000e+00	 1.180789549125839e+01
1	 1.700000000000000e+00	 0.000000000000000e+00	 1.159823536784222e+01
1	 1.705882352941176e+00	 0.000000000000000e+00	 1.138690385745075e+01
1	 1.705882352941176e+00	 0.000000000000000e+00	 1.138690385745075e+01
1	 1.711764705882353e+00	 0.000000000000000e+00	 1.117392273074666e+01
1	 1.717647058823529e+00	 0.000000000000000e+00	 1.095932343335914e+01
1	 1.723529411764706e+00	 0.000000000000000e+00	 1.074311873069014e+01
1	 1.729411764705882e+00	 0.000000000000000e+00	 1.052532121446261e+01
1	 1.735294117647058e+00	 0.000000000000000e+00	 1.030594330566427e+01
1	 1.741176470588235e+00	 0.000000000000000e+00	 1.008499725743173e+01
1	 1.747058823529412e+00	 0.000000000000000e+00	 9.862495157876086e+00
1	 1.752941176470588e+00	 0.000000000000000e+00	 9.638448932852031e+00
1	 1.758823529411764e+00	 0.000000000000000e+00	 9.412870348670939e+00
1	 1.764705882352941e+00	 0.000000000000000e+00	 9.185771014760082e+00
1	 1.764705882352941e+00	 0.000000000000000e+00	 9.185771014760082e+00
1	 1.770588235294118e+00	 0.000000000000000e+00	 8.959403787087474e+00
1	 1.776470588235294e+00	 0.000000000000000e+00	 8.735980820622562e+00
1	 1.782352941176470e+00	 0.000000000000000e+00	 8.515453047875305e+00
1	 1.788235294117647e+00	 0.000000000000000e+00	 8.297772046980606e+00
1	 1.794117647058823e+00	 0.000000000000000e+00	 8.082890031114212e+00
1	 1.800000000000000e+00	 0.000000000000000e+00	 7.870759838116178e+00
1	 1.805882352941176e+00	 0.000000000000000e+00	 7.661334920317330e+00
1	 1.811764705882352e+00	 0.000000000000000e+00	 7.454569334563638e+00
1	 1.817647058823529e+00	 0.000000000000000e+00	 7.250417732434407e+00
1	 1.823529411764706e+00	 0.000000000000000e+00	 7.048835350649954e+00
1	 1.823529411764706e+00	 0.000000000000000e+00	 7.048835350649954e+00
1	 1.829411764705882e+00	 0.000000000000000e+00	 6.849826038869793e+00
1	 1.835294117647059e+00	 0.000000000000000e+00	 6.653375431402767e+00
1	 1.841176470588235e+00	 0.000000000000000e+00	 6.459412561907054e+00
1	 1.847058823529412e+00	 0.000000000000000e+00	 6.267867368070764e+00
1	 1.852941176470588e+00	 0.000000000000000e+00	 6.078670677262055e+00
1	 1.858823529411764e+00	 0.000000000000000e+00	 5.891754192452140e+00
1	 1.864705882352941e+00	 0.000000000000000e+00	 5.707050478404277e+00
1	 1.870588235294117e+00	 0.000000000000000e+00	 5.524492948123765e+00
1	 1.876470588235294e+00	 0.000000000000000e+00	 5.344015849562533e+00
1	 1.882352941176471e+00	 0.000000000000000e+00	 5.165554252573083e+00
1	 1.882352941176471e+00	 0.000000000000000e+00	 5.165554252573083e+00
1	 1.888235294117647e+00	 0.000000000000000e+00	 4.989098331433216e+00
1	 1.894117647058823e+00	 0.000000000000000e+00	 4.814492817620910e+00
1	 1.900000000000000e+00	 0.000000000000000e+00	 4.641457849214648e+00
1	 1.905882352941177e+00	 0.000000000000000e+00	 4.469717019378304e+00
1	 1.911764705882353e+00	 0.000000000000000e+00	 4.298997323206116e+00
1	 1.917647058823529e+00	 0.000000000000000e+00	 4.129029105545737e+00
1	 1.923529411764706e+00	 0.000000000000000e+00	 3.959546009778780e+00
1	 1.929411764705882e+00	 0.000000000000000e+00	 3.790284927538321e+00
1	 1.935294117647059e+00	 0.000000000000000e+00	 3.620985949343348e+00
1	 1.941176470588235e+00	 0.000000000000000e+00	 3.451392316130796e+00
1	 1.941176470588235e+00	 0.000000000000000e+00	 3.451392316130796e+00
1	 1.947058823529412e+00	 0.000000000000000e+00	 3.282051835660132e+00
1	 1.952941176470588e+00	 0.000000000000000e+00	 3.112849037208714e+00
1	 1.958823529411765e+00	 0.000000000000000e+00	 2.942545833502536e+00
1	 1.964705882352941e+00	 0.000000000000000e+00	 2.769918964660050e+00
1	 1.970588235294118e+00	 0.000000000000000e+00	 2.593759776887874e+00
1	 1.976470588235294e+00	 0.000000000000000e+00	 2.412874005128260e+00
1	 1.982352941176471e+00	 0.000000000000000e+00	 2.226081559576365e+00
1	 1.988235294117647e+00	 0.000000000000000e+00	 2.032216315987167e+00
1	 1.994117647058823e+00	 0.000000000000000e+00	 1.830125909693785e+00
1	 2.000000000000000e+00	 0.000000000000000e+00	 1.618671533260604e+00
