label=Stress xy
num_items=7074

0:-7.8949634399779356e+01
1:-7.8949634399779356e+01
2:-7.8949634399779356e+01
3:-7.8949634399779356e+01
4:-7.8949634399779356e+01
5:-7.8949634399779356e+01
6:-7.8949634399779356e+01
7:-7.8949634399779356e+01
8:-7.8949634399779356e+01
9:-7.8949634399779356e+01
10:-7.8949634399779356e+01
11:-7.8949634399779356e+01
12:-7.8949634399779356e+01
13:-7.8949634399779356e+01
14:-7.8949634399779356e+01
15:-7.8949634399779356e+01
16:-7.8949634399779356e+01
17:-7.8949634399779356e+01
18:-7.8949634399779356e+01
19:-7.8949634399779356e+01
20:-7.8949634399779356e+01
21:-7.8949634399779356e+01
22:-7.8949634399779356e+01
23:-7.8949634399779356e+01
24:-7.8949634399779356e+01
25:-7.8949634399779356e+01
26:-7.8949634399779356e+01

27:-1.7235450700137750e+02
28:-1.7235450700137750e+02
29:-1.7235450700137750e+02
30:-1.7235450700137750e+02
31:-1.7235450700137750e+02
32:-1.7235450700137750e+02
33:-1.7235450700137750e+02
34:-1.7235450700137750e+02
35:-1.7235450700137750e+02
36:-1.7235450700137750e+02
37:-1.7235450700137750e+02
38:-1.7235450700137750e+02
39:-1.7235450700137750e+02
40:-1.7235450700137750e+02
41:-1.7235450700137750e+02
42:-1.7235450700137750e+02
43:-1.7235450700137750e+02
44:-1.7235450700137750e+02
45:-1.7235450700137750e+02
46:-1.7235450700137750e+02
47:-1.7235450700137750e+02
48:-1.7235450700137750e+02
49:-1.7235450700137750e+02
50:-1.7235450700137750e+02
51:-1.7235450700137750e+02
52:-1.7235450700137750e+02
53:-1.7235450700137750e+02

54:1.4613948374469629e+02
55:1.4613948374469629e+02
56:1.4613948374469629e+02
57:1.4613948374469629e+02
58:1.4613948374469629e+02
59:1.4613948374469629e+02
60:1.4613948374469629e+02
61:1.4613948374469629e+02
62:1.4613948374469629e+02
63:1.4613948374469629e+02
64:1.4613948374469629e+02
65:1.4613948374469629e+02
66:1.4613948374469629e+02
67:1.4613948374469629e+02
68:1.4613948374469629e+02
69:1.4613948374469629e+02
70:1.4613948374469629e+02
71:1.4613948374469629e+02
72:1.4613948374469629e+02
73:1.4613948374469629e+02
74:1.4613948374469629e+02
75:1.4613948374469629e+02
76:1.4613948374469629e+02
77:1.4613948374469629e+02
78:1.4613948374469629e+02
79:1.4613948374469629e+02
80:1.4613948374469629e+02

81:-5.5003202122141900e+01
82:-5.5003202122141900e+01
83:-5.5003202122141900e+01
84:-5.5003202122141900e+01
85:-5.5003202122141900e+01
86:-5.5003202122141900e+01
87:-5.5003202122141900e+01
88:-5.5003202122141900e+01
89:-5.5003202122141900e+01
90:-5.5003202122141900e+01
91:-5.5003202122141900e+01
92:-5.5003202122141900e+01
93:-5.5003202122141900e+01
94:-5.5003202122141900e+01
95:-5.5003202122141900e+01
96:-5.5003202122141900e+01
97:-5.5003202122141900e+01
98:-5.5003202122141900e+01
99:-5.5003202122141900e+01
100:-5.5003202122141900e+01
101:-5.5003202122141900e+01
102:-5.5003202122141900e+01
103:-5.5003202122141900e+01
104:-5.5003202122141900e+01
105:-5.5003202122141900e+01
106:-5.5003202122141900e+01
107:-5.5003202122141900e+01

108:-9.7254465206102854e+00
109:-9.7254465206102854e+00
110:-9.7254465206102854e+00
111:-9.7254465206102854e+00
112:-9.7254465206102854e+00
113:-9.7254465206102854e+00
114:-9.7254465206102854e+00
115:-9.7254465206102854e+00
116:-9.7254465206102854e+00
117:-9.7254465206102854e+00
118:-9.7254465206102854e+00
119:-9.7254465206102854e+00
120:-9.7254465206102854e+00
121:-9.7254465206102854e+00
122:-9.7254465206102854e+00
123:-9.7254465206102854e+00
124:-9.7254465206102854e+00
125:-9.7254465206102854e+00
126:-9.7254465206102854e+00
127:-9.7254465206102854e+00
128:-9.7254465206102854e+00
129:-9.7254465206102854e+00
130:-9.7254465206102854e+00
131:-9.7254465206102854e+00
132:-9.7254465206102854e+00
133:-9.7254465206102854e+00
134:-9.7254465206102854e+00

135:-1.7248072974326186e+02
136:-1.7248072974326186e+02
137:-1.7248072974326186e+02
138:-1.7248072974326186e+02
139:-1.7248072974326186e+02
140:-1.7248072974326186e+02
141:-1.7248072974326186e+02
142:-1.7248072974326186e+02
143:-1.7248072974326186e+02
144:-1.7248072974326186e+02
145:-1.7248072974326186e+02
146:-1.7248072974326186e+02
147:-1.7248072974326186e+02
148:-1.7248072974326186e+02
149:-1.7248072974326186e+02
150:-1.7248072974326186e+02
151:-1.7248072974326186e+02
152:-1.7248072974326186e+02
153:-1.7248072974326186e+02
154:-1.7248072974326186e+02
155:-1.7248072974326186e+02
156:-1.7248072974326186e+02
157:-1.7248072974326186e+02
158:-1.7248072974326186e+02
159:-1.7248072974326186e+02
160:-1.7248072974326186e+02
161:-1.7248072974326186e+02

162:-5.8106428439867067e+01
163:-5.8106428439867067e+01
164:-5.8106428439867067e+01
165:-5.8106428439867067e+01
166:-5.8106428439867067e+01
167:-5.8106428439867067e+01
168:-5.8106428439867067e+01
169:-5.8106428439867067e+01
170:-5.8106428439867067e+01
171:-5.8106428439867067e+01
172:-5.8106428439867067e+01
173:-5.8106428439867067e+01
174:-5.8106428439867067e+01
175:-5.8106428439867067e+01
176:-5.8106428439867067e+01
177:-5.8106428439867067e+01
178:-5.8106428439867067e+01
179:-5.8106428439867067e+01
180:-5.8106428439867067e+01
181:-5.8106428439867067e+01
182:-5.8106428439867067e+01
183:-5.8106428439867067e+01
184:-5.8106428439867067e+01
185:-5.8106428439867067e+01
186:-5.8106428439867067e+01
187:-5.8106428439867067e+01
188:-5.8106428439867067e+01

189:2.2925646665907959e+01
190:2.2925646665907959e+01
191:2.2925646665907959e+01
192:2.2925646665907959e+01
193:2.2925646665907959e+01
194:2.2925646665907959e+01
195:2.2925646665907959e+01
196:2.2925646665907959e+01
197:2.2925646665907959e+01
198:2.2925646665907959e+01
199:2.2925646665907959e+01
200:2.2925646665907959e+01
201:2.2925646665907959e+01
202:2.2925646665907959e+01
203:2.2925646665907959e+01
204:2.2925646665907959e+01
205:2.2925646665907959e+01
206:2.2925646665907959e+01
207:2.2925646665907959e+01
208:2.2925646665907959e+01
209:2.2925646665907959e+01
210:2.2925646665907959e+01
211:2.2925646665907959e+01
212:2.2925646665907959e+01
213:2.2925646665907959e+01
214:2.2925646665907959e+01
215:2.2925646665907959e+01

216:-1.3108341858927716e+01
217:-1.3108341858927716e+01
218:-1.3108341858927716e+01
219:-1.3108341858927716e+01
220:-1.3108341858927716e+01
221:-1.3108341858927716e+01
222:-1.3108341858927716e+01
223:-1.3108341858927716e+01
224:-1.3108341858927716e+01
225:-1.3108341858927716e+01
226:-1.3108341858927716e+01
227:-1.3108341858927716e+01
228:-1.3108341858927716e+01
229:-1.3108341858927716e+01
230:-1.3108341858927716e+01
231:-1.3108341858927716e+01
232:-1.3108341858927716e+01
233:-1.3108341858927716e+01
234:-1.3108341858927716e+01
235:-1.3108341858927716e+01
236:-1.3108341858927716e+01
237:-1.3108341858927716e+01
238:-1.3108341858927716e+01
239:-1.3108341858927716e+01
240:-1.3108341858927716e+01
241:-1.3108341858927716e+01
242:-1.3108341858927716e+01

243:1.3643147358190453e+02
244:1.3643147358190453e+02
245:1.3643147358190453e+02
246:1.3643147358190453e+02
247:1.3643147358190453e+02
248:1.3643147358190453e+02
249:1.3643147358190453e+02
250:1.3643147358190453e+02
251:1.3643147358190453e+02
252:1.3643147358190453e+02
253:1.3643147358190453e+02
254:1.3643147358190453e+02
255:1.3643147358190453e+02
256:1.3643147358190453e+02
257:1.3643147358190453e+02
258:1.3643147358190453e+02
259:1.3643147358190453e+02
260:1.3643147358190453e+02
261:1.3643147358190453e+02
262:1.3643147358190453e+02
263:1.3643147358190453e+02
264:1.3643147358190453e+02
265:1.3643147358190453e+02
266:1.3643147358190453e+02
267:1.3643147358190453e+02
268:1.3643147358190453e+02
269:1.3643147358190453e+02

270:3.5653093851827634e+01
271:3.5653093851827634e+01
272:3.5653093851827634e+01
273:3.5653093851827634e+01
274:3.5653093851827634e+01
275:3.5653093851827634e+01
276:3.5653093851827634e+01
277:3.5653093851827634e+01
278:3.5653093851827634e+01
279:3.5653093851827634e+01
280:3.5653093851827634e+01
281:3.5653093851827634e+01
282:3.5653093851827634e+01
283:3.5653093851827634e+01
284:3.5653093851827634e+01
285:3.5653093851827634e+01
286:3.5653093851827634e+01
287:3.5653093851827634e+01
288:3.5653093851827634e+01
289:3.5653093851827634e+01
290:3.5653093851827634e+01
291:3.5653093851827634e+01
292:3.5653093851827634e+01
293:3.5653093851827634e+01
294:3.5653093851827634e+01
295:3.5653093851827634e+01
296:3.5653093851827634e+01

297:-2.9756879157039390e+02
298:-2.9756879157039390e+02
299:-2.9756879157039390e+02
300:-2.9756879157039390e+02
301:-2.9756879157039390e+02
302:-2.9756879157039390e+02
303:-2.9756879157039390e+02
304:-2.9756879157039390e+02
305:-2.9756879157039390e+02
306:-2.9756879157039390e+02
307:-2.9756879157039390e+02
308:-2.9756879157039390e+02
309:-2.9756879157039390e+02
310:-2.9756879157039390e+02
311:-2.9756879157039390e+02
312:-2.9756879157039390e+02
313:-2.9756879157039390e+02
314:-2.9756879157039390e+02
315:-2.9756879157039390e+02
316:-2.9756879157039390e+02
317:-2.9756879157039390e+02
318:-2.9756879157039390e+02
319:-2.9756879157039390e+02
320:-2.9756879157039390e+02
321:-2.9756879157039390e+02
322:-2.9756879157039390e+02
323:-2.9756879157039390e+02

324:5.5938060227209476e+01
325:5.5938060227209476e+01
326:5.5938060227209476e+01
327:5.5938060227209476e+01
328:5.5938060227209476e+01
329:5.5938060227209476e+01
330:5.5938060227209476e+01
331:5.5938060227209476e+01
332:5.5938060227209476e+01
333:5.5938060227209476e+01
334:5.5938060227209476e+01
335:5.5938060227209476e+01
336:5.5938060227209476e+01
337:5.5938060227209476e+01
338:5.5938060227209476e+01
339:5.5938060227209476e+01
340:5.5938060227209476e+01
341:5.5938060227209476e+01
342:5.5938060227209476e+01
343:5.5938060227209476e+01
344:5.5938060227209476e+01
345:5.5938060227209476e+01
346:5.5938060227209476e+01
347:5.5938060227209476e+01
348:5.5938060227209476e+01
349:5.5938060227209476e+01
350:5.5938060227209476e+01

351:3.3867832739145875e+01
352:3.3867832739145875e+01
353:3.3867832739145875e+01
354:3.3867832739145875e+01
355:3.3867832739145875e+01
356:3.3867832739145875e+01
357:3.3867832739145875e+01
358:3.3867832739145875e+01
359:3.3867832739145875e+01
360:3.3867832739145875e+01
361:3.3867832739145875e+01
362:3.3867832739145875e+01
363:3.3867832739145875e+01
364:3.3867832739145875e+01
365:3.3867832739145875e+01
366:3.3867832739145875e+01
367:3.3867832739145875e+01
368:3.3867832739145875e+01
369:3.3867832739145875e+01
370:3.3867832739145875e+01
371:3.3867832739145875e+01
372:3.3867832739145875e+01
373:3.3867832739145875e+01
374:3.3867832739145875e+01
375:3.3867832739145875e+01
376:3.3867832739145875e+01
377:3.3867832739145875e+01

378:3.9873361994440968e+00
379:3.9873361994440968e+00
380:3.9873361994440968e+00
381:3.9873361994440968e+00
382:3.9873361994440968e+00
383:3.9873361994440968e+00
384:3.9873361994440968e+00
385:3.9873361994440968e+00
386:3.9873361994440968e+00
387:3.9873361994440968e+00
388:3.9873361994440968e+00
389:3.9873361994440968e+00
390:3.9873361994440968e+00
391:3.9873361994440968e+00
392:3.9873361994440968e+00
393:3.9873361994440968e+00
394:3.9873361994440968e+00
395:3.9873361994440968e+00
396:3.9873361994440968e+00
397:3.9873361994440968e+00
398:3.9873361994440968e+00
399:3.9873361994440968e+00
400:3.9873361994440968e+00
401:3.9873361994440968e+00
402:3.9873361994440968e+00
403:3.9873361994440968e+00
404:3.9873361994440968e+00

405:1.9472766117842347e+01
406:1.9472766117842347e+01
407:1.9472766117842347e+01
408:1.9472766117842347e+01
409:1.9472766117842347e+01
410:1.9472766117842347e+01
411:1.9472766117842347e+01
412:1.9472766117842347e+01
413:1.9472766117842347e+01
414:1.9472766117842347e+01
415:1.9472766117842347e+01
416:1.9472766117842347e+01
417:1.9472766117842347e+01
418:1.9472766117842347e+01
419:1.9472766117842347e+01
420:1.9472766117842347e+01
421:1.9472766117842347e+01
422:1.9472766117842347e+01
423:1.9472766117842347e+01
424:1.9472766117842347e+01
425:1.9472766117842347e+01
426:1.9472766117842347e+01
427:1.9472766117842347e+01
428:1.9472766117842347e+01
429:1.9472766117842347e+01
430:1.9472766117842347e+01
431:1.9472766117842347e+01

432:-1.0139779960988875e+02
433:-1.0139779960988875e+02
434:-1.0139779960988875e+02
435:-1.0139779960988875e+02
436:-1.0139779960988875e+02
437:-1.0139779960988875e+02
438:-1.0139779960988875e+02
439:-1.0139779960988875e+02
440:-1.0139779960988875e+02
441:-1.0139779960988875e+02
442:-1.0139779960988875e+02
443:-1.0139779960988875e+02
444:-1.0139779960988875e+02
445:-1.0139779960988875e+02
446:-1.0139779960988875e+02
447:-1.0139779960988875e+02
448:-1.0139779960988875e+02
449:-1.0139779960988875e+02
450:-1.0139779960988875e+02
451:-1.0139779960988875e+02
452:-1.0139779960988875e+02
453:-1.0139779960988875e+02
454:-1.0139779960988875e+02
455:-1.0139779960988875e+02
456:-1.0139779960988875e+02
457:-1.0139779960988875e+02
458:-1.0139779960988875e+02

459:-3.7113410709890712e+02
460:-3.7113410709890712e+02
461:-3.7113410709890712e+02
462:-3.7113410709890712e+02
463:-3.7113410709890712e+02
464:-3.7113410709890712e+02
465:-3.7113410709890712e+02
466:-3.7113410709890712e+02
467:-3.7113410709890712e+02
468:-3.7113410709890712e+02
469:-3.7113410709890712e+02
470:-3.7113410709890712e+02
471:-3.7113410709890712e+02
472:-3.7113410709890712e+02
473:-3.7113410709890712e+02
474:-3.7113410709890712e+02
475:-3.7113410709890712e+02
476:-3.7113410709890712e+02
477:-3.7113410709890712e+02
478:-3.7113410709890712e+02
479:-3.7113410709890712e+02
480:-3.7113410709890712e+02
481:-3.7113410709890712e+02
482:-3.7113410709890712e+02
483:-3.7113410709890712e+02
484:-3.7113410709890712e+02
485:-3.7113410709890712e+02

486:1.0142101261063330e+03
487:1.0142101261063330e+03
488:1.0142101261063330e+03
489:1.0142101261063330e+03
490:1.0142101261063330e+03
491:1.0142101261063330e+03
492:1.0142101261063330e+03
493:1.0142101261063330e+03
494:1.0142101261063330e+03
495:1.0142101261063330e+03
496:1.0142101261063330e+03
497:1.0142101261063330e+03
498:1.0142101261063330e+03
499:1.0142101261063330e+03
500:1.0142101261063330e+03
501:1.0142101261063330e+03
502:1.0142101261063330e+03
503:1.0142101261063330e+03
504:1.0142101261063330e+03
505:1.0142101261063330e+03
506:1.0142101261063330e+03
507:1.0142101261063330e+03
508:1.0142101261063330e+03
509:1.0142101261063330e+03
510:1.0142101261063330e+03
511:1.0142101261063330e+03
512:1.0142101261063330e+03

513:4.6833947643839639e+02
514:4.6833947643839639e+02
515:4.6833947643839639e+02
516:4.6833947643839639e+02
517:4.6833947643839639e+02
518:4.6833947643839639e+02
519:4.6833947643839639e+02
520:4.6833947643839639e+02
521:4.6833947643839639e+02
522:4.6833947643839639e+02
523:4.6833947643839639e+02
524:4.6833947643839639e+02
525:4.6833947643839639e+02
526:4.6833947643839639e+02
527:4.6833947643839639e+02
528:4.6833947643839639e+02
529:4.6833947643839639e+02
530:4.6833947643839639e+02
531:4.6833947643839639e+02
532:4.6833947643839639e+02
533:4.6833947643839639e+02
534:4.6833947643839639e+02
535:4.6833947643839639e+02
536:4.6833947643839639e+02
537:4.6833947643839639e+02
538:4.6833947643839639e+02
539:4.6833947643839639e+02

540:9.7686582774419423e+02
541:9.7686582774419423e+02
542:9.7686582774419423e+02
543:9.7686582774419423e+02
544:9.7686582774419423e+02
545:9.7686582774419423e+02
546:9.7686582774419423e+02
547:9.7686582774419423e+02
548:9.7686582774419423e+02
549:9.7686582774419423e+02
550:9.7686582774419423e+02
551:9.7686582774419423e+02
552:9.7686582774419423e+02
553:9.7686582774419423e+02
554:9.7686582774419423e+02
555:9.7686582774419423e+02
556:9.7686582774419423e+02
557:9.7686582774419423e+02
558:9.7686582774419423e+02
559:9.7686582774419423e+02
560:9.7686582774419423e+02
561:9.7686582774419423e+02
562:9.7686582774419423e+02
563:9.7686582774419423e+02
564:9.7686582774419423e+02
565:9.7686582774419423e+02
566:9.7686582774419423e+02

567:-5.4281912126308282e+02
568:-5.4281912126308282e+02
569:-5.4281912126308282e+02
570:-5.4281912126308282e+02
571:-5.4281912126308282e+02
572:-5.4281912126308282e+02
573:-5.4281912126308282e+02
574:-5.4281912126308282e+02
575:-5.4281912126308282e+02
576:-5.4281912126308282e+02
577:-5.4281912126308282e+02
578:-5.4281912126308282e+02
579:-5.4281912126308282e+02
580:-5.4281912126308282e+02
581:-5.4281912126308282e+02
582:-5.4281912126308282e+02
583:-5.4281912126308282e+02
584:-5.4281912126308282e+02
585:-5.4281912126308282e+02
586:-5.4281912126308282e+02
587:-5.4281912126308282e+02
588:-5.4281912126308282e+02
589:-5.4281912126308282e+02
590:-5.4281912126308282e+02
591:-5.4281912126308282e+02
592:-5.4281912126308282e+02
593:-5.4281912126308282e+02

594:-3.6150121537869518e+02
595:-3.6150121537869518e+02
596:-3.6150121537869518e+02
597:-3.6150121537869518e+02
598:-3.6150121537869518e+02
599:-3.6150121537869518e+02
600:-3.6150121537869518e+02
601:-3.6150121537869518e+02
602:-3.6150121537869518e+02
603:-3.6150121537869518e+02
604:-3.6150121537869518e+02
605:-3.6150121537869518e+02
606:-3.6150121537869518e+02
607:-3.6150121537869518e+02
608:-3.6150121537869518e+02
609:-3.6150121537869518e+02
610:-3.6150121537869518e+02
611:-3.6150121537869518e+02
612:-3.6150121537869518e+02
613:-3.6150121537869518e+02
614:-3.6150121537869518e+02
615:-3.6150121537869518e+02
616:-3.6150121537869518e+02
617:-3.6150121537869518e+02
618:-3.6150121537869518e+02
619:-3.6150121537869518e+02
620:-3.6150121537869518e+02

621:5.3633673203060812e+02
622:5.3633673203060812e+02
623:5.3633673203060812e+02
624:5.3633673203060812e+02
625:5.3633673203060812e+02
626:5.3633673203060812e+02
627:5.3633673203060812e+02
628:5.3633673203060812e+02
629:5.3633673203060812e+02
630:5.3633673203060812e+02
631:5.3633673203060812e+02
632:5.3633673203060812e+02
633:5.3633673203060812e+02
634:5.3633673203060812e+02
635:5.3633673203060812e+02
636:5.3633673203060812e+02
637:5.3633673203060812e+02
638:5.3633673203060812e+02
639:5.3633673203060812e+02
640:5.3633673203060812e+02
641:5.3633673203060812e+02
642:5.3633673203060812e+02
643:5.3633673203060812e+02
644:5.3633673203060812e+02
645:5.3633673203060812e+02
646:5.3633673203060812e+02
647:5.3633673203060812e+02

648:9.1014946906320517e+01
649:9.1014946906320517e+01
650:9.1014946906320517e+01
651:9.1014946906320517e+01
652:9.1014946906320517e+01
653:9.1014946906320517e+01
654:9.1014946906320517e+01
655:9.1014946906320517e+01
656:9.1014946906320517e+01
657:9.1014946906320517e+01
658:9.1014946906320517e+01
659:9.1014946906320517e+01
660:9.1014946906320517e+01
661:9.1014946906320517e+01
662:9.1014946906320517e+01
663:9.1014946906320517e+01
664:9.1014946906320517e+01
665:9.1014946906320517e+01
666:9.1014946906320517e+01
667:9.1014946906320517e+01
668:9.1014946906320517e+01
669:9.1014946906320517e+01
670:9.1014946906320517e+01
671:9.1014946906320517e+01
672:9.1014946906320517e+01
673:9.1014946906320517e+01
674:9.1014946906320517e+01

675:-5.6496650405371929e+02
676:-5.6496650405371929e+02
677:-5.6496650405371929e+02
678:-5.6496650405371929e+02
679:-5.6496650405371929e+02
680:-5.6496650405371929e+02
681:-5.6496650405371929e+02
682:-5.6496650405371929e+02
683:-5.6496650405371929e+02
684:-5.6496650405371929e+02
685:-5.6496650405371929e+02
686:-5.6496650405371929e+02
687:-5.6496650405371929e+02
688:-5.6496650405371929e+02
689:-5.6496650405371929e+02
690:-5.6496650405371929e+02
691:-5.6496650405371929e+02
692:-5.6496650405371929e+02
693:-5.6496650405371929e+02
694:-5.6496650405371929e+02
695:-5.6496650405371929e+02
696:-5.6496650405371929e+02
697:-5.6496650405371929e+02
698:-5.6496650405371929e+02
699:-5.6496650405371929e+02
700:-5.6496650405371929e+02
701:-5.6496650405371929e+02

702:-1.5844857917436343e+02
703:-1.5844857917436343e+02
704:-1.5844857917436343e+02
705:-1.5844857917436343e+02
706:-1.5844857917436343e+02
707:-1.5844857917436343e+02
708:-1.5844857917436343e+02
709:-1.5844857917436343e+02
710:-1.5844857917436343e+02
711:-1.5844857917436343e+02
712:-1.5844857917436343e+02
713:-1.5844857917436343e+02
714:-1.5844857917436343e+02
715:-1.5844857917436343e+02
716:-1.5844857917436343e+02
717:-1.5844857917436343e+02
718:-1.5844857917436343e+02
719:-1.5844857917436343e+02
720:-1.5844857917436343e+02
721:-1.5844857917436343e+02
722:-1.5844857917436343e+02
723:-1.5844857917436343e+02
724:-1.5844857917436343e+02
725:-1.5844857917436343e+02
726:-1.5844857917436343e+02
727:-1.5844857917436343e+02
728:-1.5844857917436343e+02

729:7.0599401780389073e+01
730:7.0599401780389073e+01
731:7.0599401780389073e+01
732:7.0599401780389073e+01
733:7.0599401780389073e+01
734:7.0599401780389073e+01
735:7.0599401780389073e+01
736:7.0599401780389073e+01
737:7.0599401780389073e+01
738:7.0599401780389073e+01
739:7.0599401780389073e+01
740:7.0599401780389073e+01
741:7.0599401780389073e+01
742:7.0599401780389073e+01
743:7.0599401780389073e+01
744:7.0599401780389073e+01
745:7.0599401780389073e+01
746:7.0599401780389073e+01
747:7.0599401780389073e+01
748:7.0599401780389073e+01
749:7.0599401780389073e+01
750:7.0599401780389073e+01
751:7.0599401780389073e+01
752:7.0599401780389073e+01
753:7.0599401780389073e+01
754:7.0599401780389073e+01
755:7.0599401780389073e+01

756:2.8889443588297542e+02
757:2.8889443588297542e+02
758:2.8889443588297542e+02
759:2.8889443588297542e+02
760:2.8889443588297542e+02
761:2.8889443588297542e+02
762:2.8889443588297542e+02
763:2.8889443588297542e+02
764:2.8889443588297542e+02
765:2.8889443588297542e+02
766:2.8889443588297542e+02
767:2.8889443588297542e+02
768:2.8889443588297542e+02
769:2.8889443588297542e+02
770:2.8889443588297542e+02
771:2.8889443588297542e+02
772:2.8889443588297542e+02
773:2.8889443588297542e+02
774:2.8889443588297542e+02
775:2.8889443588297542e+02
776:2.8889443588297542e+02
777:2.8889443588297542e+02
778:2.8889443588297542e+02
779:2.8889443588297542e+02
780:2.8889443588297542e+02
781:2.8889443588297542e+02
782:2.8889443588297542e+02

783:3.8272332731518674e+01
784:3.8272332731518674e+01
785:3.8272332731518674e+01
786:3.8272332731518674e+01
787:3.8272332731518674e+01
788:3.8272332731518674e+01
789:3.8272332731518674e+01
790:3.8272332731518674e+01
791:3.8272332731518674e+01
792:3.8272332731518674e+01
793:3.8272332731518674e+01
794:3.8272332731518674e+01
795:3.8272332731518674e+01
796:3.8272332731518674e+01
797:3.8272332731518674e+01
798:3.8272332731518674e+01
799:3.8272332731518674e+01
800:3.8272332731518674e+01
801:3.8272332731518674e+01
802:3.8272332731518674e+01
803:3.8272332731518674e+01
804:3.8272332731518674e+01
805:3.8272332731518674e+01
806:3.8272332731518674e+01
807:3.8272332731518674e+01
808:3.8272332731518674e+01
809:3.8272332731518674e+01

810:-3.5243920442854289e+02
811:-3.5243920442854289e+02
812:-3.5243920442854289e+02
813:-3.5243920442854289e+02
814:-3.5243920442854289e+02
815:-3.5243920442854289e+02
816:-3.5243920442854289e+02
817:-3.5243920442854289e+02
818:-3.5243920442854289e+02
819:-3.5243920442854289e+02
820:-3.5243920442854289e+02
821:-3.5243920442854289e+02
822:-3.5243920442854289e+02
823:-3.5243920442854289e+02
824:-3.5243920442854289e+02
825:-3.5243920442854289e+02
826:-3.5243920442854289e+02
827:-3.5243920442854289e+02
828:-3.5243920442854289e+02
829:-3.5243920442854289e+02
830:-3.5243920442854289e+02
831:-3.5243920442854289e+02
832:-3.5243920442854289e+02
833:-3.5243920442854289e+02
834:-3.5243920442854289e+02
835:-3.5243920442854289e+02
836:-3.5243920442854289e+02

837:3.9430549519922477e+02
838:3.9430549519922477e+02
839:3.9430549519922477e+02
840:3.9430549519922477e+02
841:3.9430549519922477e+02
842:3.9430549519922477e+02
843:3.9430549519922477e+02
844:3.9430549519922477e+02
845:3.9430549519922477e+02
846:3.9430549519922477e+02
847:3.9430549519922477e+02
848:3.9430549519922477e+02
849:3.9430549519922477e+02
850:3.9430549519922477e+02
851:3.9430549519922477e+02
852:3.9430549519922477e+02
853:3.9430549519922477e+02
854:3.9430549519922477e+02
855:3.9430549519922477e+02
856:3.9430549519922477e+02
857:3.9430549519922477e+02
858:3.9430549519922477e+02
859:3.9430549519922477e+02
860:3.9430549519922477e+02
861:3.9430549519922477e+02
862:3.9430549519922477e+02
863:3.9430549519922477e+02

864:8.8083876214972676e+01
865:8.8083876214972676e+01
866:8.8083876214972676e+01
867:8.8083876214972676e+01
868:8.8083876214972676e+01
869:8.8083876214972676e+01
870:8.8083876214972676e+01
871:8.8083876214972676e+01
872:8.8083876214972676e+01
873:8.8083876214972676e+01
874:8.8083876214972676e+01
875:8.8083876214972676e+01
876:8.8083876214972676e+01
877:8.8083876214972676e+01
878:8.8083876214972676e+01
879:8.8083876214972676e+01
880:8.8083876214972676e+01
881:8.8083876214972676e+01
882:8.8083876214972676e+01
883:8.8083876214972676e+01
884:8.8083876214972676e+01
885:8.8083876214972676e+01
886:8.8083876214972676e+01
887:8.8083876214972676e+01
888:8.8083876214972676e+01
889:8.8083876214972676e+01
890:8.8083876214972676e+01

891:1.8879421151959204e+02
892:1.8879421151959204e+02
893:1.8879421151959204e+02
894:1.8879421151959204e+02
895:1.8879421151959204e+02
896:1.8879421151959204e+02
897:1.8879421151959204e+02
898:1.8879421151959204e+02
899:1.8879421151959204e+02
900:1.8879421151959204e+02
901:1.8879421151959204e+02
902:1.8879421151959204e+02
903:1.8879421151959204e+02
904:1.8879421151959204e+02
905:1.8879421151959204e+02
906:1.8879421151959204e+02
907:1.8879421151959204e+02
908:1.8879421151959204e+02
909:1.8879421151959204e+02
910:1.8879421151959204e+02
911:1.8879421151959204e+02
912:1.8879421151959204e+02
913:1.8879421151959204e+02
914:1.8879421151959204e+02
915:1.8879421151959204e+02
916:1.8879421151959204e+02
917:1.8879421151959204e+02

918:-2.9645121573352816e+02
919:-2.9645121573352816e+02
920:-2.9645121573352816e+02
921:-2.9645121573352816e+02
922:-2.9645121573352816e+02
923:-2.9645121573352816e+02
924:-2.9645121573352816e+02
925:-2.9645121573352816e+02
926:-2.9645121573352816e+02
927:-2.9645121573352816e+02
928:-2.9645121573352816e+02
929:-2.9645121573352816e+02
930:-2.9645121573352816e+02
931:-2.9645121573352816e+02
932:-2.9645121573352816e+02
933:-2.9645121573352816e+02
934:-2.9645121573352816e+02
935:-2.9645121573352816e+02
936:-2.9645121573352816e+02
937:-2.9645121573352816e+02
938:-2.9645121573352816e+02
939:-2.9645121573352816e+02
940:-2.9645121573352816e+02
941:-2.9645121573352816e+02
942:-2.9645121573352816e+02
943:-2.9645121573352816e+02
944:-2.9645121573352816e+02

945:1.3107666044623591e+02
946:1.3107666044623591e+02
947:1.3107666044623591e+02
948:1.3107666044623591e+02
949:1.3107666044623591e+02
950:1.3107666044623591e+02
951:1.3107666044623591e+02
952:1.3107666044623591e+02
953:1.3107666044623591e+02
954:1.3107666044623591e+02
955:1.3107666044623591e+02
956:1.3107666044623591e+02
957:1.3107666044623591e+02
958:1.3107666044623591e+02
959:1.3107666044623591e+02
960:1.3107666044623591e+02
961:1.3107666044623591e+02
962:1.3107666044623591e+02
963:1.3107666044623591e+02
964:1.3107666044623591e+02
965:1.3107666044623591e+02
966:1.3107666044623591e+02
967:1.3107666044623591e+02
968:1.3107666044623591e+02
969:1.3107666044623591e+02
970:1.3107666044623591e+02
971:1.3107666044623591e+02

972:9.2159054645671375e+01
973:9.2159054645671375e+01
974:9.2159054645671375e+01
975:9.2159054645671375e+01
976:9.2159054645671375e+01
977:9.2159054645671375e+01
978:9.2159054645671375e+01
979:9.2159054645671375e+01
980:9.2159054645671375e+01
981:9.2159054645671375e+01
982:9.2159054645671375e+01
983:9.2159054645671375e+01
984:9.2159054645671375e+01
985:9.2159054645671375e+01
986:9.2159054645671375e+01
987:9.2159054645671375e+01
988:9.2159054645671375e+01
989:9.2159054645671375e+01
990:9.2159054645671375e+01
991:9.2159054645671375e+01
992:9.2159054645671375e+01
993:9.2159054645671375e+01
994:9.2159054645671375e+01
995:9.2159054645671375e+01
996:9.2159054645671375e+01
997:9.2159054645671375e+01
998:9.2159054645671375e+01

999:9.5068814842737126e+01
1000:9.5068814842737126e+01
1001:9.5068814842737126e+01
1002:9.5068814842737126e+01
1003:9.5068814842737126e+01
1004:9.5068814842737126e+01
1005:9.5068814842737126e+01
1006:9.5068814842737126e+01
1007:9.5068814842737126e+01
1008:9.5068814842737126e+01
1009:9.5068814842737126e+01
1010:9.5068814842737126e+01
1011:9.5068814842737126e+01
1012:9.5068814842737126e+01
1013:9.5068814842737126e+01
1014:9.5068814842737126e+01
1015:9.5068814842737126e+01
1016:9.5068814842737126e+01
1017:9.5068814842737126e+01
1018:9.5068814842737126e+01
1019:9.5068814842737126e+01
1020:9.5068814842737126e+01
1021:9.5068814842737126e+01
1022:9.5068814842737126e+01
1023:9.5068814842737126e+01
1024:9.5068814842737126e+01
1025:9.5068814842737126e+01

1026:-6.5867905840874585e+01
1027:-6.5867905840874585e+01
1028:-6.5867905840874585e+01
1029:-6.5867905840874585e+01
1030:-6.5867905840874585e+01
1031:-6.5867905840874585e+01
1032:-6.5867905840874585e+01
1033:-6.5867905840874585e+01
1034:-6.5867905840874585e+01
1035:-6.5867905840874585e+01
1036:-6.5867905840874585e+01
1037:-6.5867905840874585e+01
1038:-6.5867905840874585e+01
1039:-6.5867905840874585e+01
1040:-6.5867905840874585e+01
1041:-6.5867905840874585e+01
1042:-6.5867905840874585e+01
1043:-6.5867905840874585e+01
1044:-6.5867905840874585e+01
1045:-6.5867905840874585e+01
1046:-6.5867905840874585e+01
1047:-6.5867905840874585e+01
1048:-6.5867905840874585e+01
1049:-6.5867905840874585e+01
1050:-6.5867905840874585e+01
1051:-6.5867905840874585e+01
1052:-6.5867905840874585e+01

1053:-8.2125492020744375e+01
1054:-8.2125492020744375e+01
1055:-8.2125492020744375e+01
1056:-8.2125492020744375e+01
1057:-8.2125492020744375e+01
1058:-8.2125492020744375e+01
1059:-8.2125492020744375e+01
1060:-8.2125492020744375e+01
1061:-8.2125492020744375e+01
1062:-8.2125492020744375e+01
1063:-8.2125492020744375e+01
1064:-8.2125492020744375e+01
1065:-8.2125492020744375e+01
1066:-8.2125492020744375e+01
1067:-8.2125492020744375e+01
1068:-8.2125492020744375e+01
1069:-8.2125492020744375e+01
1070:-8.2125492020744375e+01
1071:-8.2125492020744375e+01
1072:-8.2125492020744375e+01
1073:-8.2125492020744375e+01
1074:-8.2125492020744375e+01
1075:-8.2125492020744375e+01
1076:-8.2125492020744375e+01
1077:-8.2125492020744375e+01
1078:-8.2125492020744375e+01
1079:-8.2125492020744375e+01

1080:6.3381549501165750e+01
1081:6.3381549501165750e+01
1082:6.3381549501165750e+01
1083:6.3381549501165750e+01
1084:6.3381549501165750e+01
1085:6.3381549501165750e+01
1086:6.3381549501165750e+01
1087:6.3381549501165750e+01
1088:6.3381549501165750e+01
1089:6.3381549501165750e+01
1090:6.3381549501165750e+01
1091:6.3381549501165750e+01
1092:6.3381549501165750e+01
1093:6.3381549501165750e+01
1094:6.3381549501165750e+01
1095:6.3381549501165750e+01
1096:6.3381549501165750e+01
1097:6.3381549501165750e+01
1098:6.3381549501165750e+01
1099:6.3381549501165750e+01
1100:6.3381549501165750e+01
1101:6.3381549501165750e+01
1102:6.3381549501165750e+01
1103:6.3381549501165750e+01
1104:6.3381549501165750e+01
1105:6.3381549501165750e+01
1106:6.3381549501165750e+01

1107:-1.1449915738483909e+02
1108:-1.1449915738483909e+02
1109:-1.1449915738483909e+02
1110:-1.1449915738483909e+02
1111:-1.1449915738483909e+02
1112:-1.1449915738483909e+02
1113:-1.1449915738483909e+02
1114:-1.1449915738483909e+02
1115:-1.1449915738483909e+02
1116:-1.1449915738483909e+02
1117:-1.1449915738483909e+02
1118:-1.1449915738483909e+02
1119:-1.1449915738483909e+02
1120:-1.1449915738483909e+02
1121:-1.1449915738483909e+02
1122:-1.1449915738483909e+02
1123:-1.1449915738483909e+02
1124:-1.1449915738483909e+02
1125:-1.1449915738483909e+02
1126:-1.1449915738483909e+02
1127:-1.1449915738483909e+02
1128:-1.1449915738483909e+02
1129:-1.1449915738483909e+02
1130:-1.1449915738483909e+02
1131:-1.1449915738483909e+02
1132:-1.1449915738483909e+02
1133:-1.1449915738483909e+02

1134:-9.2160245560636199e+01
1135:-9.2160245560636199e+01
1136:-9.2160245560636199e+01
1137:-9.2160245560636199e+01
1138:-9.2160245560636199e+01
1139:-9.2160245560636199e+01
1140:-9.2160245560636199e+01
1141:-9.2160245560636199e+01
1142:-9.2160245560636199e+01
1143:-9.2160245560636199e+01
1144:-9.2160245560636199e+01
1145:-9.2160245560636199e+01
1146:-9.2160245560636199e+01
1147:-9.2160245560636199e+01
1148:-9.2160245560636199e+01
1149:-9.2160245560636199e+01
1150:-9.2160245560636199e+01
1151:-9.2160245560636199e+01
1152:-9.2160245560636199e+01
1153:-9.2160245560636199e+01
1154:-9.2160245560636199e+01
1155:-9.2160245560636199e+01
1156:-9.2160245560636199e+01
1157:-9.2160245560636199e+01
1158:-9.2160245560636199e+01
1159:-9.2160245560636199e+01
1160:-9.2160245560636199e+01

1161:-1.4794705098244651e+02
1162:-1.4794705098244651e+02
1163:-1.4794705098244651e+02
1164:-1.4794705098244651e+02
1165:-1.4794705098244651e+02
1166:-1.4794705098244651e+02
1167:-1.4794705098244651e+02
1168:-1.4794705098244651e+02
1169:-1.4794705098244651e+02
1170:-1.4794705098244651e+02
1171:-1.4794705098244651e+02
1172:-1.4794705098244651e+02
1173:-1.4794705098244651e+02
1174:-1.4794705098244651e+02
1175:-1.4794705098244651e+02
1176:-1.4794705098244651e+02
1177:-1.4794705098244651e+02
1178:-1.4794705098244651e+02
1179:-1.4794705098244651e+02
1180:-1.4794705098244651e+02
1181:-1.4794705098244651e+02
1182:-1.4794705098244651e+02
1183:-1.4794705098244651e+02
1184:-1.4794705098244651e+02
1185:-1.4794705098244651e+02
1186:-1.4794705098244651e+02
1187:-1.4794705098244651e+02

1188:6.0437996042730205e+01
1189:6.0437996042730205e+01
1190:6.0437996042730205e+01
1191:6.0437996042730205e+01
1192:6.0437996042730205e+01
1193:6.0437996042730205e+01
1194:6.0437996042730205e+01
1195:6.0437996042730205e+01
1196:6.0437996042730205e+01
1197:6.0437996042730205e+01
1198:6.0437996042730205e+01
1199:6.0437996042730205e+01
1200:6.0437996042730205e+01
1201:6.0437996042730205e+01
1202:6.0437996042730205e+01
1203:6.0437996042730205e+01
1204:6.0437996042730205e+01
1205:6.0437996042730205e+01
1206:6.0437996042730205e+01
1207:6.0437996042730205e+01
1208:6.0437996042730205e+01
1209:6.0437996042730205e+01
1210:6.0437996042730205e+01
1211:6.0437996042730205e+01
1212:6.0437996042730205e+01
1213:6.0437996042730205e+01
1214:6.0437996042730205e+01

1215:-2.5479310194211178e+02
1216:-2.5479310194211178e+02
1217:-2.5479310194211178e+02
1218:-2.5479310194211178e+02
1219:-2.5479310194211178e+02
1220:-2.5479310194211178e+02
1221:-2.5479310194211178e+02
1222:-2.5479310194211178e+02
1223:-2.5479310194211178e+02
1224:-2.5479310194211178e+02
1225:-2.5479310194211178e+02
1226:-2.5479310194211178e+02
1227:-2.5479310194211178e+02
1228:-2.5479310194211178e+02
1229:-2.5479310194211178e+02
1230:-2.5479310194211178e+02
1231:-2.5479310194211178e+02
1232:-2.5479310194211178e+02
1233:-2.5479310194211178e+02
1234:-2.5479310194211178e+02
1235:-2.5479310194211178e+02
1236:-2.5479310194211178e+02
1237:-2.5479310194211178e+02
1238:-2.5479310194211178e+02
1239:-2.5479310194211178e+02
1240:-2.5479310194211178e+02
1241:-2.5479310194211178e+02

1242:1.8931444888259361e+02
1243:1.8931444888259361e+02
1244:1.8931444888259361e+02
1245:1.8931444888259361e+02
1246:1.8931444888259361e+02
1247:1.8931444888259361e+02
1248:1.8931444888259361e+02
1249:1.8931444888259361e+02
1250:1.8931444888259361e+02
1251:1.8931444888259361e+02
1252:1.8931444888259361e+02
1253:1.8931444888259361e+02
1254:1.8931444888259361e+02
1255:1.8931444888259361e+02
1256:1.8931444888259361e+02
1257:1.8931444888259361e+02
1258:1.8931444888259361e+02
1259:1.8931444888259361e+02
1260:1.8931444888259361e+02
1261:1.8931444888259361e+02
1262:1.8931444888259361e+02
1263:1.8931444888259361e+02
1264:1.8931444888259361e+02
1265:1.8931444888259361e+02
1266:1.8931444888259361e+02
1267:1.8931444888259361e+02
1268:1.8931444888259361e+02

1269:-3.1679821506440970e+02
1270:-3.1679821506440970e+02
1271:-3.1679821506440970e+02
1272:-3.1679821506440970e+02
1273:-3.1679821506440970e+02
1274:-3.1679821506440970e+02
1275:-3.1679821506440970e+02
1276:-3.1679821506440970e+02
1277:-3.1679821506440970e+02
1278:-3.1679821506440970e+02
1279:-3.1679821506440970e+02
1280:-3.1679821506440970e+02
1281:-3.1679821506440970e+02
1282:-3.1679821506440970e+02
1283:-3.1679821506440970e+02
1284:-3.1679821506440970e+02
1285:-3.1679821506440970e+02
1286:-3.1679821506440970e+02
1287:-3.1679821506440970e+02
1288:-3.1679821506440970e+02
1289:-3.1679821506440970e+02
1290:-3.1679821506440970e+02
1291:-3.1679821506440970e+02
1292:-3.1679821506440970e+02
1293:-3.1679821506440970e+02
1294:-3.1679821506440970e+02
1295:-3.1679821506440970e+02

1296:-2.0768418523097506e+02
1297:-2.0768418523097506e+02
1298:-2.0768418523097506e+02
1299:-2.0768418523097506e+02
1300:-2.0768418523097506e+02
1301:-2.0768418523097506e+02
1302:-2.0768418523097506e+02
1303:-2.0768418523097506e+02
1304:-2.0768418523097506e+02
1305:-2.0768418523097506e+02
1306:-2.0768418523097506e+02
1307:-2.0768418523097506e+02
1308:-2.0768418523097506e+02
1309:-2.0768418523097506e+02
1310:-2.0768418523097506e+02
1311:-2.0768418523097506e+02
1312:-2.0768418523097506e+02
1313:-2.0768418523097506e+02
1314:-2.0768418523097506e+02
1315:-2.0768418523097506e+02
1316:-2.0768418523097506e+02
1317:-2.0768418523097506e+02
1318:-2.0768418523097506e+02
1319:-2.0768418523097506e+02
1320:-2.0768418523097506e+02
1321:-2.0768418523097506e+02
1322:-2.0768418523097506e+02

1323:-2.8424232072737681e+02
1324:-2.8424232072737681e+02
1325:-2.8424232072737681e+02
1326:-2.8424232072737681e+02
1327:-2.8424232072737681e+02
1328:-2.8424232072737681e+02
1329:-2.8424232072737681e+02
1330:-2.8424232072737681e+02
1331:-2.8424232072737681e+02
1332:-2.8424232072737681e+02
1333:-2.8424232072737681e+02
1334:-2.8424232072737681e+02
1335:-2.8424232072737681e+02
1336:-2.8424232072737681e+02
1337:-2.8424232072737681e+02
1338:-2.8424232072737681e+02
1339:-2.8424232072737681e+02
1340:-2.8424232072737681e+02
1341:-2.8424232072737681e+02
1342:-2.8424232072737681e+02
1343:-2.8424232072737681e+02
1344:-2.8424232072737681e+02
1345:-2.8424232072737681e+02
1346:-2.8424232072737681e+02
1347:-2.8424232072737681e+02
1348:-2.8424232072737681e+02
1349:-2.8424232072737681e+02

1350:-3.4576250734412037e+02
1351:-3.4576250734412037e+02
1352:-3.4576250734412037e+02
1353:-3.4576250734412037e+02
1354:-3.4576250734412037e+02
1355:-3.4576250734412037e+02
1356:-3.4576250734412037e+02
1357:-3.4576250734412037e+02
1358:-3.4576250734412037e+02
1359:-3.4576250734412037e+02
1360:-3.4576250734412037e+02
1361:-3.4576250734412037e+02
1362:-3.4576250734412037e+02
1363:-3.4576250734412037e+02
1364:-3.4576250734412037e+02
1365:-3.4576250734412037e+02
1366:-3.4576250734412037e+02
1367:-3.4576250734412037e+02
1368:-3.4576250734412037e+02
1369:-3.4576250734412037e+02
1370:-3.4576250734412037e+02
1371:-3.4576250734412037e+02
1372:-3.4576250734412037e+02
1373:-3.4576250734412037e+02
1374:-3.4576250734412037e+02
1375:-3.4576250734412037e+02
1376:-3.4576250734412037e+02

1377:-1.3274479114383513e+02
1378:-1.3274479114383513e+02
1379:-1.3274479114383513e+02
1380:-1.3274479114383513e+02
1381:-1.3274479114383513e+02
1382:-1.3274479114383513e+02
1383:-1.3274479114383513e+02
1384:-1.3274479114383513e+02
1385:-1.3274479114383513e+02
1386:-1.3274479114383513e+02
1387:-1.3274479114383513e+02
1388:-1.3274479114383513e+02
1389:-1.3274479114383513e+02
1390:-1.3274479114383513e+02
1391:-1.3274479114383513e+02
1392:-1.3274479114383513e+02
1393:-1.3274479114383513e+02
1394:-1.3274479114383513e+02
1395:-1.3274479114383513e+02
1396:-1.3274479114383513e+02
1397:-1.3274479114383513e+02
1398:-1.3274479114383513e+02
1399:-1.3274479114383513e+02
1400:-1.3274479114383513e+02
1401:-1.3274479114383513e+02
1402:-1.3274479114383513e+02
1403:-1.3274479114383513e+02

1404:1.5019857349756518e+02
1405:1.5019857349756518e+02
1406:1.5019857349756518e+02
1407:1.5019857349756518e+02
1408:1.5019857349756518e+02
1409:1.5019857349756518e+02
1410:1.5019857349756518e+02
1411:1.5019857349756518e+02
1412:1.5019857349756518e+02
1413:1.5019857349756518e+02
1414:1.5019857349756518e+02
1415:1.5019857349756518e+02
1416:1.5019857349756518e+02
1417:1.5019857349756518e+02
1418:1.5019857349756518e+02
1419:1.5019857349756518e+02
1420:1.5019857349756518e+02
1421:1.5019857349756518e+02
1422:1.5019857349756518e+02
1423:1.5019857349756518e+02
1424:1.5019857349756518e+02
1425:1.5019857349756518e+02
1426:1.5019857349756518e+02
1427:1.5019857349756518e+02
1428:1.5019857349756518e+02
1429:1.5019857349756518e+02
1430:1.5019857349756518e+02

1431:-3.3666512975001888e+02
1432:-3.3666512975001888e+02
1433:-3.3666512975001888e+02
1434:-3.3666512975001888e+02
1435:-3.3666512975001888e+02
1436:-3.3666512975001888e+02
1437:-3.3666512975001888e+02
1438:-3.3666512975001888e+02
1439:-3.3666512975001888e+02
1440:-3.3666512975001888e+02
1441:-3.3666512975001888e+02
1442:-3.3666512975001888e+02
1443:-3.3666512975001888e+02
1444:-3.3666512975001888e+02
1445:-3.3666512975001888e+02
1446:-3.3666512975001888e+02
1447:-3.3666512975001888e+02
1448:-3.3666512975001888e+02
1449:-3.3666512975001888e+02
1450:-3.3666512975001888e+02
1451:-3.3666512975001888e+02
1452:-3.3666512975001888e+02
1453:-3.3666512975001888e+02
1454:-3.3666512975001888e+02
1455:-3.3666512975001888e+02
1456:-3.3666512975001888e+02
1457:-3.3666512975001888e+02

1458:1.9973681550372572e+02
1459:1.9973681550372572e+02
1460:1.9973681550372572e+02
1461:1.9973681550372572e+02
1462:1.9973681550372572e+02
1463:1.9973681550372572e+02
1464:1.9973681550372572e+02
1465:1.9973681550372572e+02
1466:1.9973681550372572e+02
1467:1.9973681550372572e+02
1468:1.9973681550372572e+02
1469:1.9973681550372572e+02
1470:1.9973681550372572e+02
1471:1.9973681550372572e+02
1472:1.9973681550372572e+02
1473:1.9973681550372572e+02
1474:1.9973681550372572e+02
1475:1.9973681550372572e+02
1476:1.9973681550372572e+02
1477:1.9973681550372572e+02
1478:1.9973681550372572e+02
1479:1.9973681550372572e+02
1480:1.9973681550372572e+02
1481:1.9973681550372572e+02
1482:1.9973681550372572e+02
1483:1.9973681550372572e+02
1484:1.9973681550372572e+02

1485:4.1747397599191743e+02
1486:4.1747397599191743e+02
1487:4.1747397599191743e+02
1488:4.1747397599191743e+02
1489:4.1747397599191743e+02
1490:4.1747397599191743e+02
1491:4.1747397599191743e+02
1492:4.1747397599191743e+02
1493:4.1747397599191743e+02
1494:4.1747397599191743e+02
1495:4.1747397599191743e+02
1496:4.1747397599191743e+02
1497:4.1747397599191743e+02
1498:4.1747397599191743e+02
1499:4.1747397599191743e+02
1500:4.1747397599191743e+02
1501:4.1747397599191743e+02
1502:4.1747397599191743e+02
1503:4.1747397599191743e+02
1504:4.1747397599191743e+02
1505:4.1747397599191743e+02
1506:4.1747397599191743e+02
1507:4.1747397599191743e+02
1508:4.1747397599191743e+02
1509:4.1747397599191743e+02
1510:4.1747397599191743e+02
1511:4.1747397599191743e+02

1512:-1.1509174278885281e+02
1513:-1.1509174278885281e+02
1514:-1.1509174278885281e+02
1515:-1.1509174278885281e+02
1516:-1.1509174278885281e+02
1517:-1.1509174278885281e+02
1518:-1.1509174278885281e+02
1519:-1.1509174278885281e+02
1520:-1.1509174278885281e+02
1521:-1.1509174278885281e+02
1522:-1.1509174278885281e+02
1523:-1.1509174278885281e+02
1524:-1.1509174278885281e+02
1525:-1.1509174278885281e+02
1526:-1.1509174278885281e+02
1527:-1.1509174278885281e+02
1528:-1.1509174278885281e+02
1529:-1.1509174278885281e+02
1530:-1.1509174278885281e+02
1531:-1.1509174278885281e+02
1532:-1.1509174278885281e+02
1533:-1.1509174278885281e+02
1534:-1.1509174278885281e+02
1535:-1.1509174278885281e+02
1536:-1.1509174278885281e+02
1537:-1.1509174278885281e+02
1538:-1.1509174278885281e+02

1539:-2.5833053693335319e+01
1540:-2.5833053693335319e+01
1541:-2.5833053693335319e+01
1542:-2.5833053693335319e+01
1543:-2.5833053693335319e+01
1544:-2.5833053693335319e+01
1545:-2.5833053693335319e+01
1546:-2.5833053693335319e+01
1547:-2.5833053693335319e+01
1548:-2.5833053693335319e+01
1549:-2.5833053693335319e+01
1550:-2.5833053693335319e+01
1551:-2.5833053693335319e+01
1552:-2.5833053693335319e+01
1553:-2.5833053693335319e+01
1554:-2.5833053693335319e+01
1555:-2.5833053693335319e+01
1556:-2.5833053693335319e+01
1557:-2.5833053693335319e+01
1558:-2.5833053693335319e+01
1559:-2.5833053693335319e+01
1560:-2.5833053693335319e+01
1561:-2.5833053693335319e+01
1562:-2.5833053693335319e+01
1563:-2.5833053693335319e+01
1564:-2.5833053693335319e+01
1565:-2.5833053693335319e+01

1566:4.0553557802630451e+02
1567:4.0553557802630451e+02
1568:4.0553557802630451e+02
1569:4.0553557802630451e+02
1570:4.0553557802630451e+02
1571:4.0553557802630451e+02
1572:4.0553557802630451e+02
1573:4.0553557802630451e+02
1574:4.0553557802630451e+02
1575:4.0553557802630451e+02
1576:4.0553557802630451e+02
1577:4.0553557802630451e+02
1578:4.0553557802630451e+02
1579:4.0553557802630451e+02
1580:4.0553557802630451e+02
1581:4.0553557802630451e+02
1582:4.0553557802630451e+02
1583:4.0553557802630451e+02
1584:4.0553557802630451e+02
1585:4.0553557802630451e+02
1586:4.0553557802630451e+02
1587:4.0553557802630451e+02
1588:4.0553557802630451e+02
1589:4.0553557802630451e+02
1590:4.0553557802630451e+02
1591:4.0553557802630451e+02
1592:4.0553557802630451e+02

1593:-9.5414901294192546e+01
1594:-9.5414901294192546e+01
1595:-9.5414901294192546e+01
1596:-9.5414901294192546e+01
1597:-9.5414901294192546e+01
1598:-9.5414901294192546e+01
1599:-9.5414901294192546e+01
1600:-9.5414901294192546e+01
1601:-9.5414901294192546e+01
1602:-9.5414901294192546e+01
1603:-9.5414901294192546e+01
1604:-9.5414901294192546e+01
1605:-9.5414901294192546e+01
1606:-9.5414901294192546e+01
1607:-9.5414901294192546e+01
1608:-9.5414901294192546e+01
1609:-9.5414901294192546e+01
1610:-9.5414901294192546e+01
1611:-9.5414901294192546e+01
1612:-9.5414901294192546e+01
1613:-9.5414901294192546e+01
1614:-9.5414901294192546e+01
1615:-9.5414901294192546e+01
1616:-9.5414901294192546e+01
1617:-9.5414901294192546e+01
1618:-9.5414901294192546e+01
1619:-9.5414901294192546e+01

1620:-7.7360256771196688e+01
1621:-7.7360256771196688e+01
1622:-7.7360256771196688e+01
1623:-7.7360256771196688e+01
1624:-7.7360256771196688e+01
1625:-7.7360256771196688e+01
1626:-7.7360256771196688e+01
1627:-7.7360256771196688e+01
1628:-7.7360256771196688e+01
1629:-7.7360256771196688e+01
1630:-7.7360256771196688e+01
1631:-7.7360256771196688e+01
1632:-7.7360256771196688e+01
1633:-7.7360256771196688e+01
1634:-7.7360256771196688e+01
1635:-7.7360256771196688e+01
1636:-7.7360256771196688e+01
1637:-7.7360256771196688e+01
1638:-7.7360256771196688e+01
1639:-7.7360256771196688e+01
1640:-7.7360256771196688e+01
1641:-7.7360256771196688e+01
1642:-7.7360256771196688e+01
1643:-7.7360256771196688e+01
1644:-7.7360256771196688e+01
1645:-7.7360256771196688e+01
1646:-7.7360256771196688e+01

1647:1.4066514473877734e+02
1648:1.4066514473877734e+02
1649:1.4066514473877734e+02
1650:1.4066514473877734e+02
1651:1.4066514473877734e+02
1652:1.4066514473877734e+02
1653:1.4066514473877734e+02
1654:1.4066514473877734e+02
1655:1.4066514473877734e+02
1656:1.4066514473877734e+02
1657:1.4066514473877734e+02
1658:1.4066514473877734e+02
1659:1.4066514473877734e+02
1660:1.4066514473877734e+02
1661:1.4066514473877734e+02
1662:1.4066514473877734e+02
1663:1.4066514473877734e+02
1664:1.4066514473877734e+02
1665:1.4066514473877734e+02
1666:1.4066514473877734e+02
1667:1.4066514473877734e+02
1668:1.4066514473877734e+02
1669:1.4066514473877734e+02
1670:1.4066514473877734e+02
1671:1.4066514473877734e+02
1672:1.4066514473877734e+02
1673:1.4066514473877734e+02

1674:-1.7701363957472856e+02
1675:-1.7701363957472856e+02
1676:-1.7701363957472856e+02
1677:-1.7701363957472856e+02
1678:-1.7701363957472856e+02
1679:-1.7701363957472856e+02
1680:-1.7701363957472856e+02
1681:-1.7701363957472856e+02
1682:-1.7701363957472856e+02
1683:-1.7701363957472856e+02
1684:-1.7701363957472856e+02
1685:-1.7701363957472856e+02
1686:-1.7701363957472856e+02
1687:-1.7701363957472856e+02
1688:-1.7701363957472856e+02
1689:-1.7701363957472856e+02
1690:-1.7701363957472856e+02
1691:-1.7701363957472856e+02
1692:-1.7701363957472856e+02
1693:-1.7701363957472856e+02
1694:-1.7701363957472856e+02
1695:-1.7701363957472856e+02
1696:-1.7701363957472856e+02
1697:-1.7701363957472856e+02
1698:-1.7701363957472856e+02
1699:-1.7701363957472856e+02
1700:-1.7701363957472856e+02

1701:-5.4723558264895892e+01
1702:-5.4723558264895892e+01
1703:-5.4723558264895892e+01
1704:-5.4723558264895892e+01
1705:-5.4723558264895892e+01
1706:-5.4723558264895892e+01
1707:-5.4723558264895892e+01
1708:-5.4723558264895892e+01
1709:-5.4723558264895892e+01
1710:-5.4723558264895892e+01
1711:-5.4723558264895892e+01
1712:-5.4723558264895892e+01
1713:-5.4723558264895892e+01
1714:-5.4723558264895892e+01
1715:-5.4723558264895892e+01
1716:-5.4723558264895892e+01
1717:-5.4723558264895892e+01
1718:-5.4723558264895892e+01
1719:-5.4723558264895892e+01
1720:-5.4723558264895892e+01
1721:-5.4723558264895892e+01
1722:-5.4723558264895892e+01
1723:-5.4723558264895892e+01
1724:-5.4723558264895892e+01
1725:-5.4723558264895892e+01
1726:-5.4723558264895892e+01
1727:-5.4723558264895892e+01

1728:2.2774482072866684e+02
1729:2.2774482072866684e+02
1730:2.2774482072866684e+02
1731:2.2774482072866684e+02
1732:2.2774482072866684e+02
1733:2.2774482072866684e+02
1734:2.2774482072866684e+02
1735:2.2774482072866684e+02
1736:2.2774482072866684e+02
1737:2.2774482072866684e+02
1738:2.2774482072866684e+02
1739:2.2774482072866684e+02
1740:2.2774482072866684e+02
1741:2.2774482072866684e+02
1742:2.2774482072866684e+02
1743:2.2774482072866684e+02
1744:2.2774482072866684e+02
1745:2.2774482072866684e+02
1746:2.2774482072866684e+02
1747:2.2774482072866684e+02
1748:2.2774482072866684e+02
1749:2.2774482072866684e+02
1750:2.2774482072866684e+02
1751:2.2774482072866684e+02
1752:2.2774482072866684e+02
1753:2.2774482072866684e+02
1754:2.2774482072866684e+02

1755:-1.6366663989147149e+01
1756:-1.6366663989147149e+01
1757:-1.6366663989147149e+01
1758:-1.6366663989147149e+01
1759:-1.6366663989147149e+01
1760:-1.6366663989147149e+01
1761:-1.6366663989147149e+01
1762:-1.6366663989147149e+01
1763:-1.6366663989147149e+01
1764:-1.6366663989147149e+01
1765:-1.6366663989147149e+01
1766:-1.6366663989147149e+01
1767:-1.6366663989147149e+01
1768:-1.6366663989147149e+01
1769:-1.6366663989147149e+01
1770:-1.6366663989147149e+01
1771:-1.6366663989147149e+01
1772:-1.6366663989147149e+01
1773:-1.6366663989147149e+01
1774:-1.6366663989147149e+01
1775:-1.6366663989147149e+01
1776:-1.6366663989147149e+01
1777:-1.6366663989147149e+01
1778:-1.6366663989147149e+01
1779:-1.6366663989147149e+01
1780:-1.6366663989147149e+01
1781:-1.6366663989147149e+01

1782:2.8120349455603844e+02
1783:2.8120349455603844e+02
1784:2.8120349455603844e+02
1785:2.8120349455603844e+02
1786:2.8120349455603844e+02
1787:2.8120349455603844e+02
1788:2.8120349455603844e+02
1789:2.8120349455603844e+02
1790:2.8120349455603844e+02
1791:2.8120349455603844e+02
1792:2.8120349455603844e+02
1793:2.8120349455603844e+02
1794:2.8120349455603844e+02
1795:2.8120349455603844e+02
1796:2.8120349455603844e+02
1797:2.8120349455603844e+02
1798:2.8120349455603844e+02
1799:2.8120349455603844e+02
1800:2.8120349455603844e+02
1801:2.8120349455603844e+02
1802:2.8120349455603844e+02
1803:2.8120349455603844e+02
1804:2.8120349455603844e+02
1805:2.8120349455603844e+02
1806:2.8120349455603844e+02
1807:2.8120349455603844e+02
1808:2.8120349455603844e+02

1809:-1.3368909125928283e+02
1810:-1.3368909125928283e+02
1811:-1.3368909125928283e+02
1812:-1.3368909125928283e+02
1813:-1.3368909125928283e+02
1814:-1.3368909125928283e+02
1815:-1.3368909125928283e+02
1816:-1.3368909125928283e+02
1817:-1.3368909125928283e+02
1818:-1.3368909125928283e+02
1819:-1.3368909125928283e+02
1820:-1.3368909125928283e+02
1821:-1.3368909125928283e+02
1822:-1.3368909125928283e+02
1823:-1.3368909125928283e+02
1824:-1.3368909125928283e+02
1825:-1.3368909125928283e+02
1826:-1.3368909125928283e+02
1827:-1.3368909125928283e+02
1828:-1.3368909125928283e+02
1829:-1.3368909125928283e+02
1830:-1.3368909125928283e+02
1831:-1.3368909125928283e+02
1832:-1.3368909125928283e+02
1833:-1.3368909125928283e+02
1834:-1.3368909125928283e+02
1835:-1.3368909125928283e+02

1836:4.0067504682815319e+01
1837:4.0067504682815319e+01
1838:4.0067504682815319e+01
1839:4.0067504682815319e+01
1840:4.0067504682815319e+01
1841:4.0067504682815319e+01
1842:4.0067504682815319e+01
1843:4.0067504682815319e+01
1844:4.0067504682815319e+01
1845:4.0067504682815319e+01
1846:4.0067504682815319e+01
1847:4.0067504682815319e+01
1848:4.0067504682815319e+01
1849:4.0067504682815319e+01
1850:4.0067504682815319e+01
1851:4.0067504682815319e+01
1852:4.0067504682815319e+01
1853:4.0067504682815319e+01
1854:4.0067504682815319e+01
1855:4.0067504682815319e+01
1856:4.0067504682815319e+01
1857:4.0067504682815319e+01
1858:4.0067504682815319e+01
1859:4.0067504682815319e+01
1860:4.0067504682815319e+01
1861:4.0067504682815319e+01
1862:4.0067504682815319e+01

1863:-5.7154807670051984e+00
1864:-5.7154807670051984e+00
1865:-5.7154807670051984e+00
1866:-5.7154807670051984e+00
1867:-5.7154807670051984e+00
1868:-5.7154807670051984e+00
1869:-5.7154807670051984e+00
1870:-5.7154807670051984e+00
1871:-5.7154807670051984e+00
1872:-5.7154807670051984e+00
1873:-5.7154807670051984e+00
1874:-5.7154807670051984e+00
1875:-5.7154807670051984e+00
1876:-5.7154807670051984e+00
1877:-5.7154807670051984e+00
1878:-5.7154807670051984e+00
1879:-5.7154807670051984e+00
1880:-5.7154807670051984e+00
1881:-5.7154807670051984e+00
1882:-5.7154807670051984e+00
1883:-5.7154807670051984e+00
1884:-5.7154807670051984e+00
1885:-5.7154807670051984e+00
1886:-5.7154807670051984e+00
1887:-5.7154807670051984e+00
1888:-5.7154807670051984e+00
1889:-5.7154807670051984e+00

1890:4.2030239435248262e+01
1891:4.2030239435248262e+01
1892:4.2030239435248262e+01
1893:4.2030239435248262e+01
1894:4.2030239435248262e+01
1895:4.2030239435248262e+01
1896:4.2030239435248262e+01
1897:4.2030239435248262e+01
1898:4.2030239435248262e+01
1899:4.2030239435248262e+01
1900:4.2030239435248262e+01
1901:4.2030239435248262e+01
1902:4.2030239435248262e+01
1903:4.2030239435248262e+01
1904:4.2030239435248262e+01
1905:4.2030239435248262e+01
1906:4.2030239435248262e+01
1907:4.2030239435248262e+01
1908:4.2030239435248262e+01
1909:4.2030239435248262e+01
1910:4.2030239435248262e+01
1911:4.2030239435248262e+01
1912:4.2030239435248262e+01
1913:4.2030239435248262e+01
1914:4.2030239435248262e+01
1915:4.2030239435248262e+01
1916:4.2030239435248262e+01

1917:5.1937322802287404e+01
1918:5.1937322802287404e+01
1919:5.1937322802287404e+01
1920:5.1937322802287404e+01
1921:5.1937322802287404e+01
1922:5.1937322802287404e+01
1923:5.1937322802287404e+01
1924:5.1937322802287404e+01
1925:5.1937322802287404e+01
1926:5.1937322802287404e+01
1927:5.1937322802287404e+01
1928:5.1937322802287404e+01
1929:5.1937322802287404e+01
1930:5.1937322802287404e+01
1931:5.1937322802287404e+01
1932:5.1937322802287404e+01
1933:5.1937322802287404e+01
1934:5.1937322802287404e+01
1935:5.1937322802287404e+01
1936:5.1937322802287404e+01
1937:5.1937322802287404e+01
1938:5.1937322802287404e+01
1939:5.1937322802287404e+01
1940:5.1937322802287404e+01
1941:5.1937322802287404e+01
1942:5.1937322802287404e+01
1943:5.1937322802287404e+01

1944:-3.3071153899492721e+01
1945:-3.3071153899492721e+01
1946:-3.3071153899492721e+01
1947:-3.3071153899492721e+01
1948:-3.3071153899492721e+01
1949:-3.3071153899492721e+01
1950:-3.3071153899492721e+01
1951:-3.3071153899492721e+01
1952:-3.3071153899492721e+01
1953:-3.3071153899492721e+01
1954:-3.3071153899492721e+01
1955:-3.3071153899492721e+01
1956:-3.3071153899492721e+01
1957:-3.3071153899492721e+01
1958:-3.3071153899492721e+01
1959:-3.3071153899492721e+01
1960:-3.3071153899492721e+01
1961:-3.3071153899492721e+01
1962:-3.3071153899492721e+01
1963:-3.3071153899492721e+01
1964:-3.3071153899492721e+01
1965:-3.3071153899492721e+01
1966:-3.3071153899492721e+01
1967:-3.3071153899492721e+01
1968:-3.3071153899492721e+01
1969:-3.3071153899492721e+01
1970:-3.3071153899492721e+01

1971:-3.7685997875846901e+01
1972:-3.7685997875846901e+01
1973:-3.7685997875846901e+01
1974:-3.7685997875846901e+01
1975:-3.7685997875846901e+01
1976:-3.7685997875846901e+01
1977:-3.7685997875846901e+01
1978:-3.7685997875846901e+01
1979:-3.7685997875846901e+01
1980:-3.7685997875846901e+01
1981:-3.7685997875846901e+01
1982:-3.7685997875846901e+01
1983:-3.7685997875846901e+01
1984:-3.7685997875846901e+01
1985:-3.7685997875846901e+01
1986:-3.7685997875846901e+01
1987:-3.7685997875846901e+01
1988:-3.7685997875846901e+01
1989:-3.7685997875846901e+01
1990:-3.7685997875846901e+01
1991:-3.7685997875846901e+01
1992:-3.7685997875846901e+01
1993:-3.7685997875846901e+01
1994:-3.7685997875846901e+01
1995:-3.7685997875846901e+01
1996:-3.7685997875846901e+01
1997:-3.7685997875846901e+01

1998:-2.4281495304598027e+02
1999:-2.4281495304598027e+02
2000:-2.4281495304598027e+02
2001:-2.4281495304598027e+02
2002:-2.4281495304598027e+02
2003:-2.4281495304598027e+02
2004:-2.4281495304598027e+02
2005:-2.4281495304598027e+02
2006:-2.4281495304598027e+02
2007:-2.4281495304598027e+02
2008:-2.4281495304598027e+02
2009:-2.4281495304598027e+02
2010:-2.4281495304598027e+02
2011:-2.4281495304598027e+02
2012:-2.4281495304598027e+02
2013:-2.4281495304598027e+02
2014:-2.4281495304598027e+02
2015:-2.4281495304598027e+02
2016:-2.4281495304598027e+02
2017:-2.4281495304598027e+02
2018:-2.4281495304598027e+02
2019:-2.4281495304598027e+02
2020:-2.4281495304598027e+02
2021:-2.4281495304598027e+02
2022:-2.4281495304598027e+02
2023:-2.4281495304598027e+02
2024:-2.4281495304598027e+02

2025:1.0293980662231903e+02
2026:1.0293980662231903e+02
2027:1.0293980662231903e+02
2028:1.0293980662231903e+02
2029:1.0293980662231903e+02
2030:1.0293980662231903e+02
2031:1.0293980662231903e+02
2032:1.0293980662231903e+02
2033:1.0293980662231903e+02
2034:1.0293980662231903e+02
2035:1.0293980662231903e+02
2036:1.0293980662231903e+02
2037:1.0293980662231903e+02
2038:1.0293980662231903e+02
2039:1.0293980662231903e+02
2040:1.0293980662231903e+02
2041:1.0293980662231903e+02
2042:1.0293980662231903e+02
2043:1.0293980662231903e+02
2044:1.0293980662231903e+02
2045:1.0293980662231903e+02
2046:1.0293980662231903e+02
2047:1.0293980662231903e+02
2048:1.0293980662231903e+02
2049:1.0293980662231903e+02
2050:1.0293980662231903e+02
2051:1.0293980662231903e+02

2052:3.2907496558152246e+01
2053:3.2907496558152246e+01
2054:3.2907496558152246e+01
2055:3.2907496558152246e+01
2056:3.2907496558152246e+01
2057:3.2907496558152246e+01
2058:3.2907496558152246e+01
2059:3.2907496558152246e+01
2060:3.2907496558152246e+01
2061:3.2907496558152246e+01
2062:3.2907496558152246e+01
2063:3.2907496558152246e+01
2064:3.2907496558152246e+01
2065:3.2907496558152246e+01
2066:3.2907496558152246e+01
2067:3.2907496558152246e+01
2068:3.2907496558152246e+01
2069:3.2907496558152246e+01
2070:3.2907496558152246e+01
2071:3.2907496558152246e+01
2072:3.2907496558152246e+01
2073:3.2907496558152246e+01
2074:3.2907496558152246e+01
2075:3.2907496558152246e+01
2076:3.2907496558152246e+01
2077:3.2907496558152246e+01
2078:3.2907496558152246e+01

2079:-2.3382482316185508e+02
2080:-2.3382482316185508e+02
2081:-2.3382482316185508e+02
2082:-2.3382482316185508e+02
2083:-2.3382482316185508e+02
2084:-2.3382482316185508e+02
2085:-2.3382482316185508e+02
2086:-2.3382482316185508e+02
2087:-2.3382482316185508e+02
2088:-2.3382482316185508e+02
2089:-2.3382482316185508e+02
2090:-2.3382482316185508e+02
2091:-2.3382482316185508e+02
2092:-2.3382482316185508e+02
2093:-2.3382482316185508e+02
2094:-2.3382482316185508e+02
2095:-2.3382482316185508e+02
2096:-2.3382482316185508e+02
2097:-2.3382482316185508e+02
2098:-2.3382482316185508e+02
2099:-2.3382482316185508e+02
2100:-2.3382482316185508e+02
2101:-2.3382482316185508e+02
2102:-2.3382482316185508e+02
2103:-2.3382482316185508e+02
2104:-2.3382482316185508e+02
2105:-2.3382482316185508e+02

2106:-2.5270358967949758e+02
2107:-2.5270358967949758e+02
2108:-2.5270358967949758e+02
2109:-2.5270358967949758e+02
2110:-2.5270358967949758e+02
2111:-2.5270358967949758e+02
2112:-2.5270358967949758e+02
2113:-2.5270358967949758e+02
2114:-2.5270358967949758e+02
2115:-2.5270358967949758e+02
2116:-2.5270358967949758e+02
2117:-2.5270358967949758e+02
2118:-2.5270358967949758e+02
2119:-2.5270358967949758e+02
2120:-2.5270358967949758e+02
2121:-2.5270358967949758e+02
2122:-2.5270358967949758e+02
2123:-2.5270358967949758e+02
2124:-2.5270358967949758e+02
2125:-2.5270358967949758e+02
2126:-2.5270358967949758e+02
2127:-2.5270358967949758e+02
2128:-2.5270358967949758e+02
2129:-2.5270358967949758e+02
2130:-2.5270358967949758e+02
2131:-2.5270358967949758e+02
2132:-2.5270358967949758e+02

2133:-9.0252036619181808e+01
2134:-9.0252036619181808e+01
2135:-9.0252036619181808e+01
2136:-9.0252036619181808e+01
2137:-9.0252036619181808e+01
2138:-9.0252036619181808e+01
2139:-9.0252036619181808e+01
2140:-9.0252036619181808e+01
2141:-9.0252036619181808e+01
2142:-9.0252036619181808e+01
2143:-9.0252036619181808e+01
2144:-9.0252036619181808e+01
2145:-9.0252036619181808e+01
2146:-9.0252036619181808e+01
2147:-9.0252036619181808e+01
2148:-9.0252036619181808e+01
2149:-9.0252036619181808e+01
2150:-9.0252036619181808e+01
2151:-9.0252036619181808e+01
2152:-9.0252036619181808e+01
2153:-9.0252036619181808e+01
2154:-9.0252036619181808e+01
2155:-9.0252036619181808e+01
2156:-9.0252036619181808e+01
2157:-9.0252036619181808e+01
2158:-9.0252036619181808e+01
2159:-9.0252036619181808e+01

2160:-6.6538300006872035e+01
2161:-6.6538300006872035e+01
2162:-6.6538300006872035e+01
2163:-6.6538300006872035e+01
2164:-6.6538300006872035e+01
2165:-6.6538300006872035e+01
2166:-6.6538300006872035e+01
2167:-6.6538300006872035e+01
2168:-6.6538300006872035e+01
2169:-6.6538300006872035e+01
2170:-6.6538300006872035e+01
2171:-6.6538300006872035e+01
2172:-6.6538300006872035e+01
2173:-6.6538300006872035e+01
2174:-6.6538300006872035e+01
2175:-6.6538300006872035e+01
2176:-6.6538300006872035e+01
2177:-6.6538300006872035e+01
2178:-6.6538300006872035e+01
2179:-6.6538300006872035e+01
2180:-6.6538300006872035e+01
2181:-6.6538300006872035e+01
2182:-6.6538300006872035e+01
2183:-6.6538300006872035e+01
2184:-6.6538300006872035e+01
2185:-6.6538300006872035e+01
2186:-6.6538300006872035e+01

2187:-1.9604970409675391e+02
2188:-1.9604970409675391e+02
2189:-1.9604970409675391e+02
2190:-1.9604970409675391e+02
2191:-1.9604970409675391e+02
2192:-1.9604970409675391e+02
2193:-1.9604970409675391e+02
2194:-1.9604970409675391e+02
2195:-1.9604970409675391e+02
2196:-1.9604970409675391e+02
2197:-1.9604970409675391e+02
2198:-1.9604970409675391e+02
2199:-1.9604970409675391e+02
2200:-1.9604970409675391e+02
2201:-1.9604970409675391e+02
2202:-1.9604970409675391e+02
2203:-1.9604970409675391e+02
2204:-1.9604970409675391e+02
2205:-1.9604970409675391e+02
2206:-1.9604970409675391e+02
2207:-1.9604970409675391e+02
2208:-1.9604970409675391e+02
2209:-1.9604970409675391e+02
2210:-1.9604970409675391e+02
2211:-1.9604970409675391e+02
2212:-1.9604970409675391e+02
2213:-1.9604970409675391e+02

2214:-1.1605960878672413e+02
2215:-1.1605960878672413e+02
2216:-1.1605960878672413e+02
2217:-1.1605960878672413e+02
2218:-1.1605960878672413e+02
2219:-1.1605960878672413e+02
2220:-1.1605960878672413e+02
2221:-1.1605960878672413e+02
2222:-1.1605960878672413e+02
2223:-1.1605960878672413e+02
2224:-1.1605960878672413e+02
2225:-1.1605960878672413e+02
2226:-1.1605960878672413e+02
2227:-1.1605960878672413e+02
2228:-1.1605960878672413e+02
2229:-1.1605960878672413e+02
2230:-1.1605960878672413e+02
2231:-1.1605960878672413e+02
2232:-1.1605960878672413e+02
2233:-1.1605960878672413e+02
2234:-1.1605960878672413e+02
2235:-1.1605960878672413e+02
2236:-1.1605960878672413e+02
2237:-1.1605960878672413e+02
2238:-1.1605960878672413e+02
2239:-1.1605960878672413e+02
2240:-1.1605960878672413e+02

2241:1.5034521702302828e+02
2242:1.5034521702302828e+02
2243:1.5034521702302828e+02
2244:1.5034521702302828e+02
2245:1.5034521702302828e+02
2246:1.5034521702302828e+02
2247:1.5034521702302828e+02
2248:1.5034521702302828e+02
2249:1.5034521702302828e+02
2250:1.5034521702302828e+02
2251:1.5034521702302828e+02
2252:1.5034521702302828e+02
2253:1.5034521702302828e+02
2254:1.5034521702302828e+02
2255:1.5034521702302828e+02
2256:1.5034521702302828e+02
2257:1.5034521702302828e+02
2258:1.5034521702302828e+02
2259:1.5034521702302828e+02
2260:1.5034521702302828e+02
2261:1.5034521702302828e+02
2262:1.5034521702302828e+02
2263:1.5034521702302828e+02
2264:1.5034521702302828e+02
2265:1.5034521702302828e+02
2266:1.5034521702302828e+02
2267:1.5034521702302828e+02

2268:-3.3107511357827320e+02
2269:-3.3107511357827320e+02
2270:-3.3107511357827320e+02
2271:-3.3107511357827320e+02
2272:-3.3107511357827320e+02
2273:-3.3107511357827320e+02
2274:-3.3107511357827320e+02
2275:-3.3107511357827320e+02
2276:-3.3107511357827320e+02
2277:-3.3107511357827320e+02
2278:-3.3107511357827320e+02
2279:-3.3107511357827320e+02
2280:-3.3107511357827320e+02
2281:-3.3107511357827320e+02
2282:-3.3107511357827320e+02
2283:-3.3107511357827320e+02
2284:-3.3107511357827320e+02
2285:-3.3107511357827320e+02
2286:-3.3107511357827320e+02
2287:-3.3107511357827320e+02
2288:-3.3107511357827320e+02
2289:-3.3107511357827320e+02
2290:-3.3107511357827320e+02
2291:-3.3107511357827320e+02
2292:-3.3107511357827320e+02
2293:-3.3107511357827320e+02
2294:-3.3107511357827320e+02

2295:-1.6183130291302414e+00
2296:-1.6183130291302414e+00
2297:-1.6183130291302414e+00
2298:-1.6183130291302414e+00
2299:-1.6183130291302414e+00
2300:-1.6183130291302414e+00
2301:-1.6183130291302414e+00
2302:-1.6183130291302414e+00
2303:-1.6183130291302414e+00
2304:-1.6183130291302414e+00
2305:-1.6183130291302414e+00
2306:-1.6183130291302414e+00
2307:-1.6183130291302414e+00
2308:-1.6183130291302414e+00
2309:-1.6183130291302414e+00
2310:-1.6183130291302414e+00
2311:-1.6183130291302414e+00
2312:-1.6183130291302414e+00
2313:-1.6183130291302414e+00
2314:-1.6183130291302414e+00
2315:-1.6183130291302414e+00
2316:-1.6183130291302414e+00
2317:-1.6183130291302414e+00
2318:-1.6183130291302414e+00
2319:-1.6183130291302414e+00
2320:-1.6183130291302414e+00
2321:-1.6183130291302414e+00

2322:-4.9080472340574978e+01
2323:-4.9080472340574978e+01
2324:-4.9080472340574978e+01
2325:-4.9080472340574978e+01
2326:-4.9080472340574978e+01
2327:-4.9080472340574978e+01
2328:-4.9080472340574978e+01
2329:-4.9080472340574978e+01
2330:-4.9080472340574978e+01
2331:-4.9080472340574978e+01
2332:-4.9080472340574978e+01
2333:-4.9080472340574978e+01
2334:-4.9080472340574978e+01
2335:-4.9080472340574978e+01
2336:-4.9080472340574978e+01
2337:-4.9080472340574978e+01
2338:-4.9080472340574978e+01
2339:-4.9080472340574978e+01
2340:-4.9080472340574978e+01
2341:-4.9080472340574978e+01
2342:-4.9080472340574978e+01
2343:-4.9080472340574978e+01
2344:-4.9080472340574978e+01
2345:-4.9080472340574978e+01
2346:-4.9080472340574978e+01
2347:-4.9080472340574978e+01
2348:-4.9080472340574978e+01

2349:-6.9850774792769485e+01
2350:-6.9850774792769485e+01
2351:-6.9850774792769485e+01
2352:-6.9850774792769485e+01
2353:-6.9850774792769485e+01
2354:-6.9850774792769485e+01
2355:-6.9850774792769485e+01
2356:-6.9850774792769485e+01
2357:-6.9850774792769485e+01
2358:-6.9850774792769485e+01
2359:-6.9850774792769485e+01
2360:-6.9850774792769485e+01
2361:-6.9850774792769485e+01
2362:-6.9850774792769485e+01
2363:-6.9850774792769485e+01
2364:-6.9850774792769485e+01
2365:-6.9850774792769485e+01
2366:-6.9850774792769485e+01
2367:-6.9850774792769485e+01
2368:-6.9850774792769485e+01
2369:-6.9850774792769485e+01
2370:-6.9850774792769485e+01
2371:-6.9850774792769485e+01
2372:-6.9850774792769485e+01
2373:-6.9850774792769485e+01
2374:-6.9850774792769485e+01
2375:-6.9850774792769485e+01

2376:2.8948878329357217e+02
2377:2.8948878329357217e+02
2378:2.8948878329357217e+02
2379:2.8948878329357217e+02
2380:2.8948878329357217e+02
2381:2.8948878329357217e+02
2382:2.8948878329357217e+02
2383:2.8948878329357217e+02
2384:2.8948878329357217e+02
2385:2.8948878329357217e+02
2386:2.8948878329357217e+02
2387:2.8948878329357217e+02
2388:2.8948878329357217e+02
2389:2.8948878329357217e+02
2390:2.8948878329357217e+02
2391:2.8948878329357217e+02
2392:2.8948878329357217e+02
2393:2.8948878329357217e+02
2394:2.8948878329357217e+02
2395:2.8948878329357217e+02
2396:2.8948878329357217e+02
2397:2.8948878329357217e+02
2398:2.8948878329357217e+02
2399:2.8948878329357217e+02
2400:2.8948878329357217e+02
2401:2.8948878329357217e+02
2402:2.8948878329357217e+02

2403:2.1575568520056152e+02
2404:2.1575568520056152e+02
2405:2.1575568520056152e+02
2406:2.1575568520056152e+02
2407:2.1575568520056152e+02
2408:2.1575568520056152e+02
2409:2.1575568520056152e+02
2410:2.1575568520056152e+02
2411:2.1575568520056152e+02
2412:2.1575568520056152e+02
2413:2.1575568520056152e+02
2414:2.1575568520056152e+02
2415:2.1575568520056152e+02
2416:2.1575568520056152e+02
2417:2.1575568520056152e+02
2418:2.1575568520056152e+02
2419:2.1575568520056152e+02
2420:2.1575568520056152e+02
2421:2.1575568520056152e+02
2422:2.1575568520056152e+02
2423:2.1575568520056152e+02
2424:2.1575568520056152e+02
2425:2.1575568520056152e+02
2426:2.1575568520056152e+02
2427:2.1575568520056152e+02
2428:2.1575568520056152e+02
2429:2.1575568520056152e+02

2430:6.3494463793614564e+01
2431:6.3494463793614564e+01
2432:6.3494463793614564e+01
2433:6.3494463793614564e+01
2434:6.3494463793614564e+01
2435:6.3494463793614564e+01
2436:6.3494463793614564e+01
2437:6.3494463793614564e+01
2438:6.3494463793614564e+01
2439:6.3494463793614564e+01
2440:6.3494463793614564e+01
2441:6.3494463793614564e+01
2442:6.3494463793614564e+01
2443:6.3494463793614564e+01
2444:6.3494463793614564e+01
2445:6.3494463793614564e+01
2446:6.3494463793614564e+01
2447:6.3494463793614564e+01
2448:6.3494463793614564e+01
2449:6.3494463793614564e+01
2450:6.3494463793614564e+01
2451:6.3494463793614564e+01
2452:6.3494463793614564e+01
2453:6.3494463793614564e+01
2454:6.3494463793614564e+01
2455:6.3494463793614564e+01
2456:6.3494463793614564e+01

2457:-1.5542938798973703e+01
2458:-1.5542938798973703e+01
2459:-1.5542938798973703e+01
2460:-1.5542938798973703e+01
2461:-1.5542938798973703e+01
2462:-1.5542938798973703e+01
2463:-1.5542938798973703e+01
2464:-1.5542938798973703e+01
2465:-1.5542938798973703e+01
2466:-1.5542938798973703e+01
2467:-1.5542938798973703e+01
2468:-1.5542938798973703e+01
2469:-1.5542938798973703e+01
2470:-1.5542938798973703e+01
2471:-1.5542938798973703e+01
2472:-1.5542938798973703e+01
2473:-1.5542938798973703e+01
2474:-1.5542938798973703e+01
2475:-1.5542938798973703e+01
2476:-1.5542938798973703e+01
2477:-1.5542938798973703e+01
2478:-1.5542938798973703e+01
2479:-1.5542938798973703e+01
2480:-1.5542938798973703e+01
2481:-1.5542938798973703e+01
2482:-1.5542938798973703e+01
2483:-1.5542938798973703e+01

2484:6.5255817055098868e+00
2485:6.5255817055098868e+00
2486:6.5255817055098868e+00
2487:6.5255817055098868e+00
2488:6.5255817055098868e+00
2489:6.5255817055098868e+00
2490:6.5255817055098868e+00
2491:6.5255817055098868e+00
2492:6.5255817055098868e+00
2493:6.5255817055098868e+00
2494:6.5255817055098868e+00
2495:6.5255817055098868e+00
2496:6.5255817055098868e+00
2497:6.5255817055098868e+00
2498:6.5255817055098868e+00
2499:6.5255817055098868e+00
2500:6.5255817055098868e+00
2501:6.5255817055098868e+00
2502:6.5255817055098868e+00
2503:6.5255817055098868e+00
2504:6.5255817055098868e+00
2505:6.5255817055098868e+00
2506:6.5255817055098868e+00
2507:6.5255817055098868e+00
2508:6.5255817055098868e+00
2509:6.5255817055098868e+00
2510:6.5255817055098868e+00

2511:3.8164437999912302e+01
2512:3.8164437999912302e+01
2513:3.8164437999912302e+01
2514:3.8164437999912302e+01
2515:3.8164437999912302e+01
2516:3.8164437999912302e+01
2517:3.8164437999912302e+01
2518:3.8164437999912302e+01
2519:3.8164437999912302e+01
2520:3.8164437999912302e+01
2521:3.8164437999912302e+01
2522:3.8164437999912302e+01
2523:3.8164437999912302e+01
2524:3.8164437999912302e+01
2525:3.8164437999912302e+01
2526:3.8164437999912302e+01
2527:3.8164437999912302e+01
2528:3.8164437999912302e+01
2529:3.8164437999912302e+01
2530:3.8164437999912302e+01
2531:3.8164437999912302e+01
2532:3.8164437999912302e+01
2533:3.8164437999912302e+01
2534:3.8164437999912302e+01
2535:3.8164437999912302e+01
2536:3.8164437999912302e+01
2537:3.8164437999912302e+01

2538:-1.5312130299415909e+02
2539:-1.5312130299415909e+02
2540:-1.5312130299415909e+02
2541:-1.5312130299415909e+02
2542:-1.5312130299415909e+02
2543:-1.5312130299415909e+02
2544:-1.5312130299415909e+02
2545:-1.5312130299415909e+02
2546:-1.5312130299415909e+02
2547:-1.5312130299415909e+02
2548:-1.5312130299415909e+02
2549:-1.5312130299415909e+02
2550:-1.5312130299415909e+02
2551:-1.5312130299415909e+02
2552:-1.5312130299415909e+02
2553:-1.5312130299415909e+02
2554:-1.5312130299415909e+02
2555:-1.5312130299415909e+02
2556:-1.5312130299415909e+02
2557:-1.5312130299415909e+02
2558:-1.5312130299415909e+02
2559:-1.5312130299415909e+02
2560:-1.5312130299415909e+02
2561:-1.5312130299415909e+02
2562:-1.5312130299415909e+02
2563:-1.5312130299415909e+02
2564:-1.5312130299415909e+02

2565:2.6488630221976416e+02
2566:2.6488630221976416e+02
2567:2.6488630221976416e+02
2568:2.6488630221976416e+02
2569:2.6488630221976416e+02
2570:2.6488630221976416e+02
2571:2.6488630221976416e+02
2572:2.6488630221976416e+02
2573:2.6488630221976416e+02
2574:2.6488630221976416e+02
2575:2.6488630221976416e+02
2576:2.6488630221976416e+02
2577:2.6488630221976416e+02
2578:2.6488630221976416e+02
2579:2.6488630221976416e+02
2580:2.6488630221976416e+02
2581:2.6488630221976416e+02
2582:2.6488630221976416e+02
2583:2.6488630221976416e+02
2584:2.6488630221976416e+02
2585:2.6488630221976416e+02
2586:2.6488630221976416e+02
2587:2.6488630221976416e+02
2588:2.6488630221976416e+02
2589:2.6488630221976416e+02
2590:2.6488630221976416e+02
2591:2.6488630221976416e+02

2592:-1.5745500454981549e+01
2593:-1.5745500454981549e+01
2594:-1.5745500454981549e+01
2595:-1.5745500454981549e+01
2596:-1.5745500454981549e+01
2597:-1.5745500454981549e+01
2598:-1.5745500454981549e+01
2599:-1.5745500454981549e+01
2600:-1.5745500454981549e+01
2601:-1.5745500454981549e+01
2602:-1.5745500454981549e+01
2603:-1.5745500454981549e+01
2604:-1.5745500454981549e+01
2605:-1.5745500454981549e+01
2606:-1.5745500454981549e+01
2607:-1.5745500454981549e+01
2608:-1.5745500454981549e+01
2609:-1.5745500454981549e+01
2610:-1.5745500454981549e+01
2611:-1.5745500454981549e+01
2612:-1.5745500454981549e+01
2613:-1.5745500454981549e+01
2614:-1.5745500454981549e+01
2615:-1.5745500454981549e+01
2616:-1.5745500454981549e+01
2617:-1.5745500454981549e+01
2618:-1.5745500454981549e+01

2619:1.9927540375328636e+01
2620:1.9927540375328636e+01
2621:1.9927540375328636e+01
2622:1.9927540375328636e+01
2623:1.9927540375328636e+01
2624:1.9927540375328636e+01
2625:1.9927540375328636e+01
2626:1.9927540375328636e+01
2627:1.9927540375328636e+01
2628:1.9927540375328636e+01
2629:1.9927540375328636e+01
2630:1.9927540375328636e+01
2631:1.9927540375328636e+01
2632:1.9927540375328636e+01
2633:1.9927540375328636e+01
2634:1.9927540375328636e+01
2635:1.9927540375328636e+01
2636:1.9927540375328636e+01
2637:1.9927540375328636e+01
2638:1.9927540375328636e+01
2639:1.9927540375328636e+01
2640:1.9927540375328636e+01
2641:1.9927540375328636e+01
2642:1.9927540375328636e+01
2643:1.9927540375328636e+01
2644:1.9927540375328636e+01
2645:1.9927540375328636e+01

2646:3.2491659513393097e+02
2647:3.2491659513393097e+02
2648:3.2491659513393097e+02
2649:3.2491659513393097e+02
2650:3.2491659513393097e+02
2651:3.2491659513393097e+02
2652:3.2491659513393097e+02
2653:3.2491659513393097e+02
2654:3.2491659513393097e+02
2655:3.2491659513393097e+02
2656:3.2491659513393097e+02
2657:3.2491659513393097e+02
2658:3.2491659513393097e+02
2659:3.2491659513393097e+02
2660:3.2491659513393097e+02
2661:3.2491659513393097e+02
2662:3.2491659513393097e+02
2663:3.2491659513393097e+02
2664:3.2491659513393097e+02
2665:3.2491659513393097e+02
2666:3.2491659513393097e+02
2667:3.2491659513393097e+02
2668:3.2491659513393097e+02
2669:3.2491659513393097e+02
2670:3.2491659513393097e+02
2671:3.2491659513393097e+02
2672:3.2491659513393097e+02

2673:-7.2603490091997344e+01
2674:-7.2603490091997344e+01
2675:-7.2603490091997344e+01
2676:-7.2603490091997344e+01
2677:-7.2603490091997344e+01
2678:-7.2603490091997344e+01
2679:-7.2603490091997344e+01
2680:-7.2603490091997344e+01
2681:-7.2603490091997344e+01
2682:-7.2603490091997344e+01
2683:-7.2603490091997344e+01
2684:-7.2603490091997344e+01
2685:-7.2603490091997344e+01
2686:-7.2603490091997344e+01
2687:-7.2603490091997344e+01
2688:-7.2603490091997344e+01
2689:-7.2603490091997344e+01
2690:-7.2603490091997344e+01
2691:-7.2603490091997344e+01
2692:-7.2603490091997344e+01
2693:-7.2603490091997344e+01
2694:-7.2603490091997344e+01
2695:-7.2603490091997344e+01
2696:-7.2603490091997344e+01
2697:-7.2603490091997344e+01
2698:-7.2603490091997344e+01
2699:-7.2603490091997344e+01

2700:3.9398611059101603e+02
2701:3.9398611059101603e+02
2702:3.9398611059101603e+02
2703:3.9398611059101603e+02
2704:3.9398611059101603e+02
2705:3.9398611059101603e+02
2706:3.9398611059101603e+02
2707:3.9398611059101603e+02
2708:3.9398611059101603e+02
2709:3.9398611059101603e+02
2710:3.9398611059101603e+02
2711:3.9398611059101603e+02
2712:3.9398611059101603e+02
2713:3.9398611059101603e+02
2714:3.9398611059101603e+02
2715:3.9398611059101603e+02
2716:3.9398611059101603e+02
2717:3.9398611059101603e+02
2718:3.9398611059101603e+02
2719:3.9398611059101603e+02
2720:3.9398611059101603e+02
2721:3.9398611059101603e+02
2722:3.9398611059101603e+02
2723:3.9398611059101603e+02
2724:3.9398611059101603e+02
2725:3.9398611059101603e+02
2726:3.9398611059101603e+02

2727:2.2176929067531667e+01
2728:2.2176929067531667e+01
2729:2.2176929067531667e+01
2730:2.2176929067531667e+01
2731:2.2176929067531667e+01
2732:2.2176929067531667e+01
2733:2.2176929067531667e+01
2734:2.2176929067531667e+01
2735:2.2176929067531667e+01
2736:2.2176929067531667e+01
2737:2.2176929067531667e+01
2738:2.2176929067531667e+01
2739:2.2176929067531667e+01
2740:2.2176929067531667e+01
2741:2.2176929067531667e+01
2742:2.2176929067531667e+01
2743:2.2176929067531667e+01
2744:2.2176929067531667e+01
2745:2.2176929067531667e+01
2746:2.2176929067531667e+01
2747:2.2176929067531667e+01
2748:2.2176929067531667e+01
2749:2.2176929067531667e+01
2750:2.2176929067531667e+01
2751:2.2176929067531667e+01
2752:2.2176929067531667e+01
2753:2.2176929067531667e+01

2754:3.0394130813163662e+02
2755:3.0394130813163662e+02
2756:3.0394130813163662e+02
2757:3.0394130813163662e+02
2758:3.0394130813163662e+02
2759:3.0394130813163662e+02
2760:3.0394130813163662e+02
2761:3.0394130813163662e+02
2762:3.0394130813163662e+02
2763:3.0394130813163662e+02
2764:3.0394130813163662e+02
2765:3.0394130813163662e+02
2766:3.0394130813163662e+02
2767:3.0394130813163662e+02
2768:3.0394130813163662e+02
2769:3.0394130813163662e+02
2770:3.0394130813163662e+02
2771:3.0394130813163662e+02
2772:3.0394130813163662e+02
2773:3.0394130813163662e+02
2774:3.0394130813163662e+02
2775:3.0394130813163662e+02
2776:3.0394130813163662e+02
2777:3.0394130813163662e+02
2778:3.0394130813163662e+02
2779:3.0394130813163662e+02
2780:3.0394130813163662e+02

2781:-1.9224140088195043e+01
2782:-1.9224140088195043e+01
2783:-1.9224140088195043e+01
2784:-1.9224140088195043e+01
2785:-1.9224140088195043e+01
2786:-1.9224140088195043e+01
2787:-1.9224140088195043e+01
2788:-1.9224140088195043e+01
2789:-1.9224140088195043e+01
2790:-1.9224140088195043e+01
2791:-1.9224140088195043e+01
2792:-1.9224140088195043e+01
2793:-1.9224140088195043e+01
2794:-1.9224140088195043e+01
2795:-1.9224140088195043e+01
2796:-1.9224140088195043e+01
2797:-1.9224140088195043e+01
2798:-1.9224140088195043e+01
2799:-1.9224140088195043e+01
2800:-1.9224140088195043e+01
2801:-1.9224140088195043e+01
2802:-1.9224140088195043e+01
2803:-1.9224140088195043e+01
2804:-1.9224140088195043e+01
2805:-1.9224140088195043e+01
2806:-1.9224140088195043e+01
2807:-1.9224140088195043e+01

2808:9.9945493949074304e+01
2809:9.9945493949074304e+01
2810:9.9945493949074304e+01
2811:9.9945493949074304e+01
2812:9.9945493949074304e+01
2813:9.9945493949074304e+01
2814:9.9945493949074304e+01
2815:9.9945493949074304e+01
2816:9.9945493949074304e+01
2817:9.9945493949074304e+01
2818:9.9945493949074304e+01
2819:9.9945493949074304e+01
2820:9.9945493949074304e+01
2821:9.9945493949074304e+01
2822:9.9945493949074304e+01
2823:9.9945493949074304e+01
2824:9.9945493949074304e+01
2825:9.9945493949074304e+01
2826:9.9945493949074304e+01
2827:9.9945493949074304e+01
2828:9.9945493949074304e+01
2829:9.9945493949074304e+01
2830:9.9945493949074304e+01
2831:9.9945493949074304e+01
2832:9.9945493949074304e+01
2833:9.9945493949074304e+01
2834:9.9945493949074304e+01

2835:2.7469108561262459e+02
2836:2.7469108561262459e+02
2837:2.7469108561262459e+02
2838:2.7469108561262459e+02
2839:2.7469108561262459e+02
2840:2.7469108561262459e+02
2841:2.7469108561262459e+02
2842:2.7469108561262459e+02
2843:2.7469108561262459e+02
2844:2.7469108561262459e+02
2845:2.7469108561262459e+02
2846:2.7469108561262459e+02
2847:2.7469108561262459e+02
2848:2.7469108561262459e+02
2849:2.7469108561262459e+02
2850:2.7469108561262459e+02
2851:2.7469108561262459e+02
2852:2.7469108561262459e+02
2853:2.7469108561262459e+02
2854:2.7469108561262459e+02
2855:2.7469108561262459e+02
2856:2.7469108561262459e+02
2857:2.7469108561262459e+02
2858:2.7469108561262459e+02
2859:2.7469108561262459e+02
2860:2.7469108561262459e+02
2861:2.7469108561262459e+02

2862:2.5236781390535121e+00
2863:2.5236781390535121e+00
2864:2.5236781390535121e+00
2865:2.5236781390535121e+00
2866:2.5236781390535121e+00
2867:2.5236781390535121e+00
2868:2.5236781390535121e+00
2869:2.5236781390535121e+00
2870:2.5236781390535121e+00
2871:2.5236781390535121e+00
2872:2.5236781390535121e+00
2873:2.5236781390535121e+00
2874:2.5236781390535121e+00
2875:2.5236781390535121e+00
2876:2.5236781390535121e+00
2877:2.5236781390535121e+00
2878:2.5236781390535121e+00
2879:2.5236781390535121e+00
2880:2.5236781390535121e+00
2881:2.5236781390535121e+00
2882:2.5236781390535121e+00
2883:2.5236781390535121e+00
2884:2.5236781390535121e+00
2885:2.5236781390535121e+00
2886:2.5236781390535121e+00
2887:2.5236781390535121e+00
2888:2.5236781390535121e+00

2889:3.6225380932487991e+02
2890:3.6225380932487991e+02
2891:3.6225380932487991e+02
2892:3.6225380932487991e+02
2893:3.6225380932487991e+02
2894:3.6225380932487991e+02
2895:3.6225380932487991e+02
2896:3.6225380932487991e+02
2897:3.6225380932487991e+02
2898:3.6225380932487991e+02
2899:3.6225380932487991e+02
2900:3.6225380932487991e+02
2901:3.6225380932487991e+02
2902:3.6225380932487991e+02
2903:3.6225380932487991e+02
2904:3.6225380932487991e+02
2905:3.6225380932487991e+02
2906:3.6225380932487991e+02
2907:3.6225380932487991e+02
2908:3.6225380932487991e+02
2909:3.6225380932487991e+02
2910:3.6225380932487991e+02
2911:3.6225380932487991e+02
2912:3.6225380932487991e+02
2913:3.6225380932487991e+02
2914:3.6225380932487991e+02
2915:3.6225380932487991e+02

2916:-1.7028509807980774e+02
2917:-1.7028509807980774e+02
2918:-1.7028509807980774e+02
2919:-1.7028509807980774e+02
2920:-1.7028509807980774e+02
2921:-1.7028509807980774e+02
2922:-1.7028509807980774e+02
2923:-1.7028509807980774e+02
2924:-1.7028509807980774e+02
2925:-1.7028509807980774e+02
2926:-1.7028509807980774e+02
2927:-1.7028509807980774e+02
2928:-1.7028509807980774e+02
2929:-1.7028509807980774e+02
2930:-1.7028509807980774e+02
2931:-1.7028509807980774e+02
2932:-1.7028509807980774e+02
2933:-1.7028509807980774e+02
2934:-1.7028509807980774e+02
2935:-1.7028509807980774e+02
2936:-1.7028509807980774e+02
2937:-1.7028509807980774e+02
2938:-1.7028509807980774e+02
2939:-1.7028509807980774e+02
2940:-1.7028509807980774e+02
2941:-1.7028509807980774e+02
2942:-1.7028509807980774e+02

2943:2.4741186831446623e+01
2944:2.4741186831446623e+01
2945:2.4741186831446623e+01
2946:2.4741186831446623e+01
2947:2.4741186831446623e+01
2948:2.4741186831446623e+01
2949:2.4741186831446623e+01
2950:2.4741186831446623e+01
2951:2.4741186831446623e+01
2952:2.4741186831446623e+01
2953:2.4741186831446623e+01
2954:2.4741186831446623e+01
2955:2.4741186831446623e+01
2956:2.4741186831446623e+01
2957:2.4741186831446623e+01
2958:2.4741186831446623e+01
2959:2.4741186831446623e+01
2960:2.4741186831446623e+01
2961:2.4741186831446623e+01
2962:2.4741186831446623e+01
2963:2.4741186831446623e+01
2964:2.4741186831446623e+01
2965:2.4741186831446623e+01
2966:2.4741186831446623e+01
2967:2.4741186831446623e+01
2968:2.4741186831446623e+01
2969:2.4741186831446623e+01

2970:1.0975535173833343e+02
2971:1.0975535173833343e+02
2972:1.0975535173833343e+02
2973:1.0975535173833343e+02
2974:1.0975535173833343e+02
2975:1.0975535173833343e+02
2976:1.0975535173833343e+02
2977:1.0975535173833343e+02
2978:1.0975535173833343e+02
2979:1.0975535173833343e+02
2980:1.0975535173833343e+02
2981:1.0975535173833343e+02
2982:1.0975535173833343e+02
2983:1.0975535173833343e+02
2984:1.0975535173833343e+02
2985:1.0975535173833343e+02
2986:1.0975535173833343e+02
2987:1.0975535173833343e+02
2988:1.0975535173833343e+02
2989:1.0975535173833343e+02
2990:1.0975535173833343e+02
2991:1.0975535173833343e+02
2992:1.0975535173833343e+02
2993:1.0975535173833343e+02
2994:1.0975535173833343e+02
2995:1.0975535173833343e+02
2996:1.0975535173833343e+02

2997:-1.4226955219739048e+02
2998:-1.4226955219739048e+02
2999:-1.4226955219739048e+02
3000:-1.4226955219739048e+02
3001:-1.4226955219739048e+02
3002:-1.4226955219739048e+02
3003:-1.4226955219739048e+02
3004:-1.4226955219739048e+02
3005:-1.4226955219739048e+02
3006:-1.4226955219739048e+02
3007:-1.4226955219739048e+02
3008:-1.4226955219739048e+02
3009:-1.4226955219739048e+02
3010:-1.4226955219739048e+02
3011:-1.4226955219739048e+02
3012:-1.4226955219739048e+02
3013:-1.4226955219739048e+02
3014:-1.4226955219739048e+02
3015:-1.4226955219739048e+02
3016:-1.4226955219739048e+02
3017:-1.4226955219739048e+02
3018:-1.4226955219739048e+02
3019:-1.4226955219739048e+02
3020:-1.4226955219739048e+02
3021:-1.4226955219739048e+02
3022:-1.4226955219739048e+02
3023:-1.4226955219739048e+02

3024:-5.2366590425585304e+00
3025:-5.2366590425585304e+00
3026:-5.2366590425585304e+00
3027:-5.2366590425585304e+00
3028:-5.2366590425585304e+00
3029:-5.2366590425585304e+00
3030:-5.2366590425585304e+00
3031:-5.2366590425585304e+00
3032:-5.2366590425585304e+00
3033:-5.2366590425585304e+00
3034:-5.2366590425585304e+00
3035:-5.2366590425585304e+00
3036:-5.2366590425585304e+00
3037:-5.2366590425585304e+00
3038:-5.2366590425585304e+00
3039:-5.2366590425585304e+00
3040:-5.2366590425585304e+00
3041:-5.2366590425585304e+00
3042:-5.2366590425585304e+00
3043:-5.2366590425585304e+00
3044:-5.2366590425585304e+00
3045:-5.2366590425585304e+00
3046:-5.2366590425585304e+00
3047:-5.2366590425585304e+00
3048:-5.2366590425585304e+00
3049:-5.2366590425585304e+00
3050:-5.2366590425585304e+00

3051:-1.7489157162533269e+02
3052:-1.7489157162533269e+02
3053:-1.7489157162533269e+02
3054:-1.7489157162533269e+02
3055:-1.7489157162533269e+02
3056:-1.7489157162533269e+02
3057:-1.7489157162533269e+02
3058:-1.7489157162533269e+02
3059:-1.7489157162533269e+02
3060:-1.7489157162533269e+02
3061:-1.7489157162533269e+02
3062:-1.7489157162533269e+02
3063:-1.7489157162533269e+02
3064:-1.7489157162533269e+02
3065:-1.7489157162533269e+02
3066:-1.7489157162533269e+02
3067:-1.7489157162533269e+02
3068:-1.7489157162533269e+02
3069:-1.7489157162533269e+02
3070:-1.7489157162533269e+02
3071:-1.7489157162533269e+02
3072:-1.7489157162533269e+02
3073:-1.7489157162533269e+02
3074:-1.7489157162533269e+02
3075:-1.7489157162533269e+02
3076:-1.7489157162533269e+02
3077:-1.7489157162533269e+02

3078:-7.0594041334168097e+01
3079:-7.0594041334168097e+01
3080:-7.0594041334168097e+01
3081:-7.0594041334168097e+01
3082:-7.0594041334168097e+01
3083:-7.0594041334168097e+01
3084:-7.0594041334168097e+01
3085:-7.0594041334168097e+01
3086:-7.0594041334168097e+01
3087:-7.0594041334168097e+01
3088:-7.0594041334168097e+01
3089:-7.0594041334168097e+01
3090:-7.0594041334168097e+01
3091:-7.0594041334168097e+01
3092:-7.0594041334168097e+01
3093:-7.0594041334168097e+01
3094:-7.0594041334168097e+01
3095:-7.0594041334168097e+01
3096:-7.0594041334168097e+01
3097:-7.0594041334168097e+01
3098:-7.0594041334168097e+01
3099:-7.0594041334168097e+01
3100:-7.0594041334168097e+01
3101:-7.0594041334168097e+01
3102:-7.0594041334168097e+01
3103:-7.0594041334168097e+01
3104:-7.0594041334168097e+01

3105:-1.7022244589756397e+02
3106:-1.7022244589756397e+02
3107:-1.7022244589756397e+02
3108:-1.7022244589756397e+02
3109:-1.7022244589756397e+02
3110:-1.7022244589756397e+02
3111:-1.7022244589756397e+02
3112:-1.7022244589756397e+02
3113:-1.7022244589756397e+02
3114:-1.7022244589756397e+02
3115:-1.7022244589756397e+02
3116:-1.7022244589756397e+02
3117:-1.7022244589756397e+02
3118:-1.7022244589756397e+02
3119:-1.7022244589756397e+02
3120:-1.7022244589756397e+02
3121:-1.7022244589756397e+02
3122:-1.7022244589756397e+02
3123:-1.7022244589756397e+02
3124:-1.7022244589756397e+02
3125:-1.7022244589756397e+02
3126:-1.7022244589756397e+02
3127:-1.7022244589756397e+02
3128:-1.7022244589756397e+02
3129:-1.7022244589756397e+02
3130:-1.7022244589756397e+02
3131:-1.7022244589756397e+02

3132:-4.8364725885050241e+01
3133:-4.8364725885050241e+01
3134:-4.8364725885050241e+01
3135:-4.8364725885050241e+01
3136:-4.8364725885050241e+01
3137:-4.8364725885050241e+01
3138:-4.8364725885050241e+01
3139:-4.8364725885050241e+01
3140:-4.8364725885050241e+01
3141:-4.8364725885050241e+01
3142:-4.8364725885050241e+01
3143:-4.8364725885050241e+01
3144:-4.8364725885050241e+01
3145:-4.8364725885050241e+01
3146:-4.8364725885050241e+01
3147:-4.8364725885050241e+01
3148:-4.8364725885050241e+01
3149:-4.8364725885050241e+01
3150:-4.8364725885050241e+01
3151:-4.8364725885050241e+01
3152:-4.8364725885050241e+01
3153:-4.8364725885050241e+01
3154:-4.8364725885050241e+01
3155:-4.8364725885050241e+01
3156:-4.8364725885050241e+01
3157:-4.8364725885050241e+01
3158:-4.8364725885050241e+01

3159:-1.2009726873004292e+01
3160:-1.2009726873004292e+01
3161:-1.2009726873004292e+01
3162:-1.2009726873004292e+01
3163:-1.2009726873004292e+01
3164:-1.2009726873004292e+01
3165:-1.2009726873004292e+01
3166:-1.2009726873004292e+01
3167:-1.2009726873004292e+01
3168:-1.2009726873004292e+01
3169:-1.2009726873004292e+01
3170:-1.2009726873004292e+01
3171:-1.2009726873004292e+01
3172:-1.2009726873004292e+01
3173:-1.2009726873004292e+01
3174:-1.2009726873004292e+01
3175:-1.2009726873004292e+01
3176:-1.2009726873004292e+01
3177:-1.2009726873004292e+01
3178:-1.2009726873004292e+01
3179:-1.2009726873004292e+01
3180:-1.2009726873004292e+01
3181:-1.2009726873004292e+01
3182:-1.2009726873004292e+01
3183:-1.2009726873004292e+01
3184:-1.2009726873004292e+01
3185:-1.2009726873004292e+01

3186:3.6546402882008437e+01
3187:3.6546402882008437e+01
3188:3.6546402882008437e+01
3189:3.6546402882008437e+01
3190:3.6546402882008437e+01
3191:3.6546402882008437e+01
3192:3.6546402882008437e+01
3193:3.6546402882008437e+01
3194:3.6546402882008437e+01
3195:3.6546402882008437e+01
3196:3.6546402882008437e+01
3197:3.6546402882008437e+01
3198:3.6546402882008437e+01
3199:3.6546402882008437e+01
3200:3.6546402882008437e+01
3201:3.6546402882008437e+01
3202:3.6546402882008437e+01
3203:3.6546402882008437e+01
3204:3.6546402882008437e+01
3205:3.6546402882008437e+01
3206:3.6546402882008437e+01
3207:3.6546402882008437e+01
3208:3.6546402882008437e+01
3209:3.6546402882008437e+01
3210:3.6546402882008437e+01
3211:3.6546402882008437e+01
3212:3.6546402882008437e+01

3213:-7.7369596828670794e+01
3214:-7.7369596828670794e+01
3215:-7.7369596828670794e+01
3216:-7.7369596828670794e+01
3217:-7.7369596828670794e+01
3218:-7.7369596828670794e+01
3219:-7.7369596828670794e+01
3220:-7.7369596828670794e+01
3221:-7.7369596828670794e+01
3222:-7.7369596828670794e+01
3223:-7.7369596828670794e+01
3224:-7.7369596828670794e+01
3225:-7.7369596828670794e+01
3226:-7.7369596828670794e+01
3227:-7.7369596828670794e+01
3228:-7.7369596828670794e+01
3229:-7.7369596828670794e+01
3230:-7.7369596828670794e+01
3231:-7.7369596828670794e+01
3232:-7.7369596828670794e+01
3233:-7.7369596828670794e+01
3234:-7.7369596828670794e+01
3235:-7.7369596828670794e+01
3236:-7.7369596828670794e+01
3237:-7.7369596828670794e+01
3238:-7.7369596828670794e+01
3239:-7.7369596828670794e+01

3240:1.2748228528448138e+02
3241:1.2748228528448138e+02
3242:1.2748228528448138e+02
3243:1.2748228528448138e+02
3244:1.2748228528448138e+02
3245:1.2748228528448138e+02
3246:1.2748228528448138e+02
3247:1.2748228528448138e+02
3248:1.2748228528448138e+02
3249:1.2748228528448138e+02
3250:1.2748228528448138e+02
3251:1.2748228528448138e+02
3252:1.2748228528448138e+02
3253:1.2748228528448138e+02
3254:1.2748228528448138e+02
3255:1.2748228528448138e+02
3256:1.2748228528448138e+02
3257:1.2748228528448138e+02
3258:1.2748228528448138e+02
3259:1.2748228528448138e+02
3260:1.2748228528448138e+02
3261:1.2748228528448138e+02
3262:1.2748228528448138e+02
3263:1.2748228528448138e+02
3264:1.2748228528448138e+02
3265:1.2748228528448138e+02
3266:1.2748228528448138e+02

3267:-8.3457402013970011e+01
3268:-8.3457402013970011e+01
3269:-8.3457402013970011e+01
3270:-8.3457402013970011e+01
3271:-8.3457402013970011e+01
3272:-8.3457402013970011e+01
3273:-8.3457402013970011e+01
3274:-8.3457402013970011e+01
3275:-8.3457402013970011e+01
3276:-8.3457402013970011e+01
3277:-8.3457402013970011e+01
3278:-8.3457402013970011e+01
3279:-8.3457402013970011e+01
3280:-8.3457402013970011e+01
3281:-8.3457402013970011e+01
3282:-8.3457402013970011e+01
3283:-8.3457402013970011e+01
3284:-8.3457402013970011e+01
3285:-8.3457402013970011e+01
3286:-8.3457402013970011e+01
3287:-8.3457402013970011e+01
3288:-8.3457402013970011e+01
3289:-8.3457402013970011e+01
3290:-8.3457402013970011e+01
3291:-8.3457402013970011e+01
3292:-8.3457402013970011e+01
3293:-8.3457402013970011e+01

3294:-2.8219542128650858e+01
3295:-2.8219542128650858e+01
3296:-2.8219542128650858e+01
3297:-2.8219542128650858e+01
3298:-2.8219542128650858e+01
3299:-2.8219542128650858e+01
3300:-2.8219542128650858e+01
3301:-2.8219542128650858e+01
3302:-2.8219542128650858e+01
3303:-2.8219542128650858e+01
3304:-2.8219542128650858e+01
3305:-2.8219542128650858e+01
3306:-2.8219542128650858e+01
3307:-2.8219542128650858e+01
3308:-2.8219542128650858e+01
3309:-2.8219542128650858e+01
3310:-2.8219542128650858e+01
3311:-2.8219542128650858e+01
3312:-2.8219542128650858e+01
3313:-2.8219542128650858e+01
3314:-2.8219542128650858e+01
3315:-2.8219542128650858e+01
3316:-2.8219542128650858e+01
3317:-2.8219542128650858e+01
3318:-2.8219542128650858e+01
3319:-2.8219542128650858e+01
3320:-2.8219542128650858e+01

3321:7.5122506622339870e+01
3322:7.5122506622339870e+01
3323:7.5122506622339870e+01
3324:7.5122506622339870e+01
3325:7.5122506622339870e+01
3326:7.5122506622339870e+01
3327:7.5122506622339870e+01
3328:7.5122506622339870e+01
3329:7.5122506622339870e+01
3330:7.5122506622339870e+01
3331:7.5122506622339870e+01
3332:7.5122506622339870e+01
3333:7.5122506622339870e+01
3334:7.5122506622339870e+01
3335:7.5122506622339870e+01
3336:7.5122506622339870e+01
3337:7.5122506622339870e+01
3338:7.5122506622339870e+01
3339:7.5122506622339870e+01
3340:7.5122506622339870e+01
3341:7.5122506622339870e+01
3342:7.5122506622339870e+01
3343:7.5122506622339870e+01
3344:7.5122506622339870e+01
3345:7.5122506622339870e+01
3346:7.5122506622339870e+01
3347:7.5122506622339870e+01

3348:7.4709781246768117e+01
3349:7.4709781246768117e+01
3350:7.4709781246768117e+01
3351:7.4709781246768117e+01
3352:7.4709781246768117e+01
3353:7.4709781246768117e+01
3354:7.4709781246768117e+01
3355:7.4709781246768117e+01
3356:7.4709781246768117e+01
3357:7.4709781246768117e+01
3358:7.4709781246768117e+01
3359:7.4709781246768117e+01
3360:7.4709781246768117e+01
3361:7.4709781246768117e+01
3362:7.4709781246768117e+01
3363:7.4709781246768117e+01
3364:7.4709781246768117e+01
3365:7.4709781246768117e+01
3366:7.4709781246768117e+01
3367:7.4709781246768117e+01
3368:7.4709781246768117e+01
3369:7.4709781246768117e+01
3370:7.4709781246768117e+01
3371:7.4709781246768117e+01
3372:7.4709781246768117e+01
3373:7.4709781246768117e+01
3374:7.4709781246768117e+01

3375:1.6912749675570817e+02
3376:1.6912749675570817e+02
3377:1.6912749675570817e+02
3378:1.6912749675570817e+02
3379:1.6912749675570817e+02
3380:1.6912749675570817e+02
3381:1.6912749675570817e+02
3382:1.6912749675570817e+02
3383:1.6912749675570817e+02
3384:1.6912749675570817e+02
3385:1.6912749675570817e+02
3386:1.6912749675570817e+02
3387:1.6912749675570817e+02
3388:1.6912749675570817e+02
3389:1.6912749675570817e+02
3390:1.6912749675570817e+02
3391:1.6912749675570817e+02
3392:1.6912749675570817e+02
3393:1.6912749675570817e+02
3394:1.6912749675570817e+02
3395:1.6912749675570817e+02
3396:1.6912749675570817e+02
3397:1.6912749675570817e+02
3398:1.6912749675570817e+02
3399:1.6912749675570817e+02
3400:1.6912749675570817e+02
3401:1.6912749675570817e+02

3402:1.6220812177471510e+02
3403:1.6220812177471510e+02
3404:1.6220812177471510e+02
3405:1.6220812177471510e+02
3406:1.6220812177471510e+02
3407:1.6220812177471510e+02
3408:1.6220812177471510e+02
3409:1.6220812177471510e+02
3410:1.6220812177471510e+02
3411:1.6220812177471510e+02
3412:1.6220812177471510e+02
3413:1.6220812177471510e+02
3414:1.6220812177471510e+02
3415:1.6220812177471510e+02
3416:1.6220812177471510e+02
3417:1.6220812177471510e+02
3418:1.6220812177471510e+02
3419:1.6220812177471510e+02
3420:1.6220812177471510e+02
3421:1.6220812177471510e+02
3422:1.6220812177471510e+02
3423:1.6220812177471510e+02
3424:1.6220812177471510e+02
3425:1.6220812177471510e+02
3426:1.6220812177471510e+02
3427:1.6220812177471510e+02
3428:1.6220812177471510e+02

3429:-6.2611322504553293e+01
3430:-6.2611322504553293e+01
3431:-6.2611322504553293e+01
3432:-6.2611322504553293e+01
3433:-6.2611322504553293e+01
3434:-6.2611322504553293e+01
3435:-6.2611322504553293e+01
3436:-6.2611322504553293e+01
3437:-6.2611322504553293e+01
3438:-6.2611322504553293e+01
3439:-6.2611322504553293e+01
3440:-6.2611322504553293e+01
3441:-6.2611322504553293e+01
3442:-6.2611322504553293e+01
3443:-6.2611322504553293e+01
3444:-6.2611322504553293e+01
3445:-6.2611322504553293e+01
3446:-6.2611322504553293e+01
3447:-6.2611322504553293e+01
3448:-6.2611322504553293e+01
3449:-6.2611322504553293e+01
3450:-6.2611322504553293e+01
3451:-6.2611322504553293e+01
3452:-6.2611322504553293e+01
3453:-6.2611322504553293e+01
3454:-6.2611322504553293e+01
3455:-6.2611322504553293e+01

3456:-6.0100783903360607e+01
3457:-6.0100783903360607e+01
3458:-6.0100783903360607e+01
3459:-6.0100783903360607e+01
3460:-6.0100783903360607e+01
3461:-6.0100783903360607e+01
3462:-6.0100783903360607e+01
3463:-6.0100783903360607e+01
3464:-6.0100783903360607e+01
3465:-6.0100783903360607e+01
3466:-6.0100783903360607e+01
3467:-6.0100783903360607e+01
3468:-6.0100783903360607e+01
3469:-6.0100783903360607e+01
3470:-6.0100783903360607e+01
3471:-6.0100783903360607e+01
3472:-6.0100783903360607e+01
3473:-6.0100783903360607e+01
3474:-6.0100783903360607e+01
3475:-6.0100783903360607e+01
3476:-6.0100783903360607e+01
3477:-6.0100783903360607e+01
3478:-6.0100783903360607e+01
3479:-6.0100783903360607e+01
3480:-6.0100783903360607e+01
3481:-6.0100783903360607e+01
3482:-6.0100783903360607e+01

3483:-1.1956057835727498e+02
3484:-1.1956057835727498e+02
3485:-1.1956057835727498e+02
3486:-1.1956057835727498e+02
3487:-1.1956057835727498e+02
3488:-1.1956057835727498e+02
3489:-1.1956057835727498e+02
3490:-1.1956057835727498e+02
3491:-1.1956057835727498e+02
3492:-1.1956057835727498e+02
3493:-1.1956057835727498e+02
3494:-1.1956057835727498e+02
3495:-1.1956057835727498e+02
3496:-1.1956057835727498e+02
3497:-1.1956057835727498e+02
3498:-1.1956057835727498e+02
3499:-1.1956057835727498e+02
3500:-1.1956057835727498e+02
3501:-1.1956057835727498e+02
3502:-1.1956057835727498e+02
3503:-1.1956057835727498e+02
3504:-1.1956057835727498e+02
3505:-1.1956057835727498e+02
3506:-1.1956057835727498e+02
3507:-1.1956057835727498e+02
3508:-1.1956057835727498e+02
3509:-1.1956057835727498e+02

3510:-9.4635930769153561e+01
3511:-9.4635930769153561e+01
3512:-9.4635930769153561e+01
3513:-9.4635930769153561e+01
3514:-9.4635930769153561e+01
3515:-9.4635930769153561e+01
3516:-9.4635930769153561e+01
3517:-9.4635930769153561e+01
3518:-9.4635930769153561e+01
3519:-9.4635930769153561e+01
3520:-9.4635930769153561e+01
3521:-9.4635930769153561e+01
3522:-9.4635930769153561e+01
3523:-9.4635930769153561e+01
3524:-9.4635930769153561e+01
3525:-9.4635930769153561e+01
3526:-9.4635930769153561e+01
3527:-9.4635930769153561e+01
3528:-9.4635930769153561e+01
3529:-9.4635930769153561e+01
3530:-9.4635930769153561e+01
3531:-9.4635930769153561e+01
3532:-9.4635930769153561e+01
3533:-9.4635930769153561e+01
3534:-9.4635930769153561e+01
3535:-9.4635930769153561e+01
3536:-9.4635930769153561e+01

3537:-2.2479967185161465e+02
3538:-2.2479967185161465e+02
3539:-2.2479967185161465e+02
3540:-2.2479967185161465e+02
3541:-2.2479967185161465e+02
3542:-2.2479967185161465e+02
3543:-2.2479967185161465e+02
3544:-2.2479967185161465e+02
3545:-2.2479967185161465e+02
3546:-2.2479967185161465e+02
3547:-2.2479967185161465e+02
3548:-2.2479967185161465e+02
3549:-2.2479967185161465e+02
3550:-2.2479967185161465e+02
3551:-2.2479967185161465e+02
3552:-2.2479967185161465e+02
3553:-2.2479967185161465e+02
3554:-2.2479967185161465e+02
3555:-2.2479967185161465e+02
3556:-2.2479967185161465e+02
3557:-2.2479967185161465e+02
3558:-2.2479967185161465e+02
3559:-2.2479967185161465e+02
3560:-2.2479967185161465e+02
3561:-2.2479967185161465e+02
3562:-2.2479967185161465e+02
3563:-2.2479967185161465e+02

3564:-4.3333065282164902e+01
3565:-4.3333065282164902e+01
3566:-4.3333065282164902e+01
3567:-4.3333065282164902e+01
3568:-4.3333065282164902e+01
3569:-4.3333065282164902e+01
3570:-4.3333065282164902e+01
3571:-4.3333065282164902e+01
3572:-4.3333065282164902e+01
3573:-4.3333065282164902e+01
3574:-4.3333065282164902e+01
3575:-4.3333065282164902e+01
3576:-4.3333065282164902e+01
3577:-4.3333065282164902e+01
3578:-4.3333065282164902e+01
3579:-4.3333065282164902e+01
3580:-4.3333065282164902e+01
3581:-4.3333065282164902e+01
3582:-4.3333065282164902e+01
3583:-4.3333065282164902e+01
3584:-4.3333065282164902e+01
3585:-4.3333065282164902e+01
3586:-4.3333065282164902e+01
3587:-4.3333065282164902e+01
3588:-4.3333065282164902e+01
3589:-4.3333065282164902e+01
3590:-4.3333065282164902e+01

3591:-1.4369761511632893e+02
3592:-1.4369761511632893e+02
3593:-1.4369761511632893e+02
3594:-1.4369761511632893e+02
3595:-1.4369761511632893e+02
3596:-1.4369761511632893e+02
3597:-1.4369761511632893e+02
3598:-1.4369761511632893e+02
3599:-1.4369761511632893e+02
3600:-1.4369761511632893e+02
3601:-1.4369761511632893e+02
3602:-1.4369761511632893e+02
3603:-1.4369761511632893e+02
3604:-1.4369761511632893e+02
3605:-1.4369761511632893e+02
3606:-1.4369761511632893e+02
3607:-1.4369761511632893e+02
3608:-1.4369761511632893e+02
3609:-1.4369761511632893e+02
3610:-1.4369761511632893e+02
3611:-1.4369761511632893e+02
3612:-1.4369761511632893e+02
3613:-1.4369761511632893e+02
3614:-1.4369761511632893e+02
3615:-1.4369761511632893e+02
3616:-1.4369761511632893e+02
3617:-1.4369761511632893e+02

3618:-1.4090384369296904e+01
3619:-1.4090384369296904e+01
3620:-1.4090384369296904e+01
3621:-1.4090384369296904e+01
3622:-1.4090384369296904e+01
3623:-1.4090384369296904e+01
3624:-1.4090384369296904e+01
3625:-1.4090384369296904e+01
3626:-1.4090384369296904e+01
3627:-1.4090384369296904e+01
3628:-1.4090384369296904e+01
3629:-1.4090384369296904e+01
3630:-1.4090384369296904e+01
3631:-1.4090384369296904e+01
3632:-1.4090384369296904e+01
3633:-1.4090384369296904e+01
3634:-1.4090384369296904e+01
3635:-1.4090384369296904e+01
3636:-1.4090384369296904e+01
3637:-1.4090384369296904e+01
3638:-1.4090384369296904e+01
3639:-1.4090384369296904e+01
3640:-1.4090384369296904e+01
3641:-1.4090384369296904e+01
3642:-1.4090384369296904e+01
3643:-1.4090384369296904e+01
3644:-1.4090384369296904e+01

3645:6.9841146105625270e+01
3646:6.9841146105625270e+01
3647:6.9841146105625270e+01
3648:6.9841146105625270e+01
3649:6.9841146105625270e+01
3650:6.9841146105625270e+01
3651:6.9841146105625270e+01
3652:6.9841146105625270e+01
3653:6.9841146105625270e+01
3654:6.9841146105625270e+01
3655:6.9841146105625270e+01
3656:6.9841146105625270e+01
3657:6.9841146105625270e+01
3658:6.9841146105625270e+01
3659:6.9841146105625270e+01
3660:6.9841146105625270e+01
3661:6.9841146105625270e+01
3662:6.9841146105625270e+01
3663:6.9841146105625270e+01
3664:6.9841146105625270e+01
3665:6.9841146105625270e+01
3666:6.9841146105625270e+01
3667:6.9841146105625270e+01
3668:6.9841146105625270e+01
3669:6.9841146105625270e+01
3670:6.9841146105625270e+01
3671:6.9841146105625270e+01

3672:4.4328013288259854e+01
3673:4.4328013288259854e+01
3674:4.4328013288259854e+01
3675:4.4328013288259854e+01
3676:4.4328013288259854e+01
3677:4.4328013288259854e+01
3678:4.4328013288259854e+01
3679:4.4328013288259854e+01
3680:4.4328013288259854e+01
3681:4.4328013288259854e+01
3682:4.4328013288259854e+01
3683:4.4328013288259854e+01
3684:4.4328013288259854e+01
3685:4.4328013288259854e+01
3686:4.4328013288259854e+01
3687:4.4328013288259854e+01
3688:4.4328013288259854e+01
3689:4.4328013288259854e+01
3690:4.4328013288259854e+01
3691:4.4328013288259854e+01
3692:4.4328013288259854e+01
3693:4.4328013288259854e+01
3694:4.4328013288259854e+01
3695:4.4328013288259854e+01
3696:4.4328013288259854e+01
3697:4.4328013288259854e+01
3698:4.4328013288259854e+01

3699:1.0916526393330813e+01
3700:1.0916526393330813e+01
3701:1.0916526393330813e+01
3702:1.0916526393330813e+01
3703:1.0916526393330813e+01
3704:1.0916526393330813e+01
3705:1.0916526393330813e+01
3706:1.0916526393330813e+01
3707:1.0916526393330813e+01
3708:1.0916526393330813e+01
3709:1.0916526393330813e+01
3710:1.0916526393330813e+01
3711:1.0916526393330813e+01
3712:1.0916526393330813e+01
3713:1.0916526393330813e+01
3714:1.0916526393330813e+01
3715:1.0916526393330813e+01
3716:1.0916526393330813e+01
3717:1.0916526393330813e+01
3718:1.0916526393330813e+01
3719:1.0916526393330813e+01
3720:1.0916526393330813e+01
3721:1.0916526393330813e+01
3722:1.0916526393330813e+01
3723:1.0916526393330813e+01
3724:1.0916526393330813e+01
3725:1.0916526393330813e+01

3726:1.4409805526182527e+01
3727:1.4409805526182527e+01
3728:1.4409805526182527e+01
3729:1.4409805526182527e+01
3730:1.4409805526182527e+01
3731:1.4409805526182527e+01
3732:1.4409805526182527e+01
3733:1.4409805526182527e+01
3734:1.4409805526182527e+01
3735:1.4409805526182527e+01
3736:1.4409805526182527e+01
3737:1.4409805526182527e+01
3738:1.4409805526182527e+01
3739:1.4409805526182527e+01
3740:1.4409805526182527e+01
3741:1.4409805526182527e+01
3742:1.4409805526182527e+01
3743:1.4409805526182527e+01
3744:1.4409805526182527e+01
3745:1.4409805526182527e+01
3746:1.4409805526182527e+01
3747:1.4409805526182527e+01
3748:1.4409805526182527e+01
3749:1.4409805526182527e+01
3750:1.4409805526182527e+01
3751:1.4409805526182527e+01
3752:1.4409805526182527e+01

3753:1.4878730464841462e+02
3754:1.4878730464841462e+02
3755:1.4878730464841462e+02
3756:1.4878730464841462e+02
3757:1.4878730464841462e+02
3758:1.4878730464841462e+02
3759:1.4878730464841462e+02
3760:1.4878730464841462e+02
3761:1.4878730464841462e+02
3762:1.4878730464841462e+02
3763:1.4878730464841462e+02
3764:1.4878730464841462e+02
3765:1.4878730464841462e+02
3766:1.4878730464841462e+02
3767:1.4878730464841462e+02
3768:1.4878730464841462e+02
3769:1.4878730464841462e+02
3770:1.4878730464841462e+02
3771:1.4878730464841462e+02
3772:1.4878730464841462e+02
3773:1.4878730464841462e+02
3774:1.4878730464841462e+02
3775:1.4878730464841462e+02
3776:1.4878730464841462e+02
3777:1.4878730464841462e+02
3778:1.4878730464841462e+02
3779:1.4878730464841462e+02

3780:1.3804408210397398e+02
3781:1.3804408210397398e+02
3782:1.3804408210397398e+02
3783:1.3804408210397398e+02
3784:1.3804408210397398e+02
3785:1.3804408210397398e+02
3786:1.3804408210397398e+02
3787:1.3804408210397398e+02
3788:1.3804408210397398e+02
3789:1.3804408210397398e+02
3790:1.3804408210397398e+02
3791:1.3804408210397398e+02
3792:1.3804408210397398e+02
3793:1.3804408210397398e+02
3794:1.3804408210397398e+02
3795:1.3804408210397398e+02
3796:1.3804408210397398e+02
3797:1.3804408210397398e+02
3798:1.3804408210397398e+02
3799:1.3804408210397398e+02
3800:1.3804408210397398e+02
3801:1.3804408210397398e+02
3802:1.3804408210397398e+02
3803:1.3804408210397398e+02
3804:1.3804408210397398e+02
3805:1.3804408210397398e+02
3806:1.3804408210397398e+02

3807:-7.7403295116228222e+01
3808:-7.7403295116228222e+01
3809:-7.7403295116228222e+01
3810:-7.7403295116228222e+01
3811:-7.7403295116228222e+01
3812:-7.7403295116228222e+01
3813:-7.7403295116228222e+01
3814:-7.7403295116228222e+01
3815:-7.7403295116228222e+01
3816:-7.7403295116228222e+01
3817:-7.7403295116228222e+01
3818:-7.7403295116228222e+01
3819:-7.7403295116228222e+01
3820:-7.7403295116228222e+01
3821:-7.7403295116228222e+01
3822:-7.7403295116228222e+01
3823:-7.7403295116228222e+01
3824:-7.7403295116228222e+01
3825:-7.7403295116228222e+01
3826:-7.7403295116228222e+01
3827:-7.7403295116228222e+01
3828:-7.7403295116228222e+01
3829:-7.7403295116228222e+01
3830:-7.7403295116228222e+01
3831:-7.7403295116228222e+01
3832:-7.7403295116228222e+01
3833:-7.7403295116228222e+01

3834:-5.3141712531132306e+01
3835:-5.3141712531132306e+01
3836:-5.3141712531132306e+01
3837:-5.3141712531132306e+01
3838:-5.3141712531132306e+01
3839:-5.3141712531132306e+01
3840:-5.3141712531132306e+01
3841:-5.3141712531132306e+01
3842:-5.3141712531132306e+01
3843:-5.3141712531132306e+01
3844:-5.3141712531132306e+01
3845:-5.3141712531132306e+01
3846:-5.3141712531132306e+01
3847:-5.3141712531132306e+01
3848:-5.3141712531132306e+01
3849:-5.3141712531132306e+01
3850:-5.3141712531132306e+01
3851:-5.3141712531132306e+01
3852:-5.3141712531132306e+01
3853:-5.3141712531132306e+01
3854:-5.3141712531132306e+01
3855:-5.3141712531132306e+01
3856:-5.3141712531132306e+01
3857:-5.3141712531132306e+01
3858:-5.3141712531132306e+01
3859:-5.3141712531132306e+01
3860:-5.3141712531132306e+01

3861:-4.5143678686845766e+02
3862:-4.5143678686845766e+02
3863:-4.5143678686845766e+02
3864:-4.5143678686845766e+02
3865:-4.5143678686845766e+02
3866:-4.5143678686845766e+02
3867:-4.5143678686845766e+02
3868:-4.5143678686845766e+02
3869:-4.5143678686845766e+02
3870:-4.5143678686845766e+02
3871:-4.5143678686845766e+02
3872:-4.5143678686845766e+02
3873:-4.5143678686845766e+02
3874:-4.5143678686845766e+02
3875:-4.5143678686845766e+02
3876:-4.5143678686845766e+02
3877:-4.5143678686845766e+02
3878:-4.5143678686845766e+02
3879:-4.5143678686845766e+02
3880:-4.5143678686845766e+02
3881:-4.5143678686845766e+02
3882:-4.5143678686845766e+02
3883:-4.5143678686845766e+02
3884:-4.5143678686845766e+02
3885:-4.5143678686845766e+02
3886:-4.5143678686845766e+02
3887:-4.5143678686845766e+02

3888:-3.3988757849834360e+02
3889:-3.3988757849834360e+02
3890:-3.3988757849834360e+02
3891:-3.3988757849834360e+02
3892:-3.3988757849834360e+02
3893:-3.3988757849834360e+02
3894:-3.3988757849834360e+02
3895:-3.3988757849834360e+02
3896:-3.3988757849834360e+02
3897:-3.3988757849834360e+02
3898:-3.3988757849834360e+02
3899:-3.3988757849834360e+02
3900:-3.3988757849834360e+02
3901:-3.3988757849834360e+02
3902:-3.3988757849834360e+02
3903:-3.3988757849834360e+02
3904:-3.3988757849834360e+02
3905:-3.3988757849834360e+02
3906:-3.3988757849834360e+02
3907:-3.3988757849834360e+02
3908:-3.3988757849834360e+02
3909:-3.3988757849834360e+02
3910:-3.3988757849834360e+02
3911:-3.3988757849834360e+02
3912:-3.3988757849834360e+02
3913:-3.3988757849834360e+02
3914:-3.3988757849834360e+02

3915:5.2089364438838368e+02
3916:5.2089364438838368e+02
3917:5.2089364438838368e+02
3918:5.2089364438838368e+02
3919:5.2089364438838368e+02
3920:5.2089364438838368e+02
3921:5.2089364438838368e+02
3922:5.2089364438838368e+02
3923:5.2089364438838368e+02
3924:5.2089364438838368e+02
3925:5.2089364438838368e+02
3926:5.2089364438838368e+02
3927:5.2089364438838368e+02
3928:5.2089364438838368e+02
3929:5.2089364438838368e+02
3930:5.2089364438838368e+02
3931:5.2089364438838368e+02
3932:5.2089364438838368e+02
3933:5.2089364438838368e+02
3934:5.2089364438838368e+02
3935:5.2089364438838368e+02
3936:5.2089364438838368e+02
3937:5.2089364438838368e+02
3938:5.2089364438838368e+02
3939:5.2089364438838368e+02
3940:5.2089364438838368e+02
3941:5.2089364438838368e+02

3942:-1.7676940559806670e+02
3943:-1.7676940559806670e+02
3944:-1.7676940559806670e+02
3945:-1.7676940559806670e+02
3946:-1.7676940559806670e+02
3947:-1.7676940559806670e+02
3948:-1.7676940559806670e+02
3949:-1.7676940559806670e+02
3950:-1.7676940559806670e+02
3951:-1.7676940559806670e+02
3952:-1.7676940559806670e+02
3953:-1.7676940559806670e+02
3954:-1.7676940559806670e+02
3955:-1.7676940559806670e+02
3956:-1.7676940559806670e+02
3957:-1.7676940559806670e+02
3958:-1.7676940559806670e+02
3959:-1.7676940559806670e+02
3960:-1.7676940559806670e+02
3961:-1.7676940559806670e+02
3962:-1.7676940559806670e+02
3963:-1.7676940559806670e+02
3964:-1.7676940559806670e+02
3965:-1.7676940559806670e+02
3966:-1.7676940559806670e+02
3967:-1.7676940559806670e+02
3968:-1.7676940559806670e+02

3969:-1.9605923174254272e+00
3970:-1.9605923174254272e+00
3971:-1.9605923174254272e+00
3972:-1.9605923174254272e+00
3973:-1.9605923174254272e+00
3974:-1.9605923174254272e+00
3975:-1.9605923174254272e+00
3976:-1.9605923174254272e+00
3977:-1.9605923174254272e+00
3978:-1.9605923174254272e+00
3979:-1.9605923174254272e+00
3980:-1.9605923174254272e+00
3981:-1.9605923174254272e+00
3982:-1.9605923174254272e+00
3983:-1.9605923174254272e+00
3984:-1.9605923174254272e+00
3985:-1.9605923174254272e+00
3986:-1.9605923174254272e+00
3987:-1.9605923174254272e+00
3988:-1.9605923174254272e+00
3989:-1.9605923174254272e+00
3990:-1.9605923174254272e+00
3991:-1.9605923174254272e+00
3992:-1.9605923174254272e+00
3993:-1.9605923174254272e+00
3994:-1.9605923174254272e+00
3995:-1.9605923174254272e+00

3996:-8.9299237053930796e+01
3997:-8.9299237053930796e+01
3998:-8.9299237053930796e+01
3999:-8.9299237053930796e+01
4000:-8.9299237053930796e+01
4001:-8.9299237053930796e+01
4002:-8.9299237053930796e+01
4003:-8.9299237053930796e+01
4004:-8.9299237053930796e+01
4005:-8.9299237053930796e+01
4006:-8.9299237053930796e+01
4007:-8.9299237053930796e+01
4008:-8.9299237053930796e+01
4009:-8.9299237053930796e+01
4010:-8.9299237053930796e+01
4011:-8.9299237053930796e+01
4012:-8.9299237053930796e+01
4013:-8.9299237053930796e+01
4014:-8.9299237053930796e+01
4015:-8.9299237053930796e+01
4016:-8.9299237053930796e+01
4017:-8.9299237053930796e+01
4018:-8.9299237053930796e+01
4019:-8.9299237053930796e+01
4020:-8.9299237053930796e+01
4021:-8.9299237053930796e+01
4022:-8.9299237053930796e+01

4023:-1.7801431890562370e+01
4024:-1.7801431890562370e+01
4025:-1.7801431890562370e+01
4026:-1.7801431890562370e+01
4027:-1.7801431890562370e+01
4028:-1.7801431890562370e+01
4029:-1.7801431890562370e+01
4030:-1.7801431890562370e+01
4031:-1.7801431890562370e+01
4032:-1.7801431890562370e+01
4033:-1.7801431890562370e+01
4034:-1.7801431890562370e+01
4035:-1.7801431890562370e+01
4036:-1.7801431890562370e+01
4037:-1.7801431890562370e+01
4038:-1.7801431890562370e+01
4039:-1.7801431890562370e+01
4040:-1.7801431890562370e+01
4041:-1.7801431890562370e+01
4042:-1.7801431890562370e+01
4043:-1.7801431890562370e+01
4044:-1.7801431890562370e+01
4045:-1.7801431890562370e+01
4046:-1.7801431890562370e+01
4047:-1.7801431890562370e+01
4048:-1.7801431890562370e+01
4049:-1.7801431890562370e+01

4050:-1.7433336773337055e+02
4051:-1.7433336773337055e+02
4052:-1.7433336773337055e+02
4053:-1.7433336773337055e+02
4054:-1.7433336773337055e+02
4055:-1.7433336773337055e+02
4056:-1.7433336773337055e+02
4057:-1.7433336773337055e+02
4058:-1.7433336773337055e+02
4059:-1.7433336773337055e+02
4060:-1.7433336773337055e+02
4061:-1.7433336773337055e+02
4062:-1.7433336773337055e+02
4063:-1.7433336773337055e+02
4064:-1.7433336773337055e+02
4065:-1.7433336773337055e+02
4066:-1.7433336773337055e+02
4067:-1.7433336773337055e+02
4068:-1.7433336773337055e+02
4069:-1.7433336773337055e+02
4070:-1.7433336773337055e+02
4071:-1.7433336773337055e+02
4072:-1.7433336773337055e+02
4073:-1.7433336773337055e+02
4074:-1.7433336773337055e+02
4075:-1.7433336773337055e+02
4076:-1.7433336773337055e+02

4077:-7.6062636209306476e+01
4078:-7.6062636209306476e+01
4079:-7.6062636209306476e+01
4080:-7.6062636209306476e+01
4081:-7.6062636209306476e+01
4082:-7.6062636209306476e+01
4083:-7.6062636209306476e+01
4084:-7.6062636209306476e+01
4085:-7.6062636209306476e+01
4086:-7.6062636209306476e+01
4087:-7.6062636209306476e+01
4088:-7.6062636209306476e+01
4089:-7.6062636209306476e+01
4090:-7.6062636209306476e+01
4091:-7.6062636209306476e+01
4092:-7.6062636209306476e+01
4093:-7.6062636209306476e+01
4094:-7.6062636209306476e+01
4095:-7.6062636209306476e+01
4096:-7.6062636209306476e+01
4097:-7.6062636209306476e+01
4098:-7.6062636209306476e+01
4099:-7.6062636209306476e+01
4100:-7.6062636209306476e+01
4101:-7.6062636209306476e+01
4102:-7.6062636209306476e+01
4103:-7.6062636209306476e+01

4104:1.0991512964913228e+02
4105:1.0991512964913228e+02
4106:1.0991512964913228e+02
4107:1.0991512964913228e+02
4108:1.0991512964913228e+02
4109:1.0991512964913228e+02
4110:1.0991512964913228e+02
4111:1.0991512964913228e+02
4112:1.0991512964913228e+02
4113:1.0991512964913228e+02
4114:1.0991512964913228e+02
4115:1.0991512964913228e+02
4116:1.0991512964913228e+02
4117:1.0991512964913228e+02
4118:1.0991512964913228e+02
4119:1.0991512964913228e+02
4120:1.0991512964913228e+02
4121:1.0991512964913228e+02
4122:1.0991512964913228e+02
4123:1.0991512964913228e+02
4124:1.0991512964913228e+02
4125:1.0991512964913228e+02
4126:1.0991512964913228e+02
4127:1.0991512964913228e+02
4128:1.0991512964913228e+02
4129:1.0991512964913228e+02
4130:1.0991512964913228e+02

4131:1.8735290030187451e+02
4132:1.8735290030187451e+02
4133:1.8735290030187451e+02
4134:1.8735290030187451e+02
4135:1.8735290030187451e+02
4136:1.8735290030187451e+02
4137:1.8735290030187451e+02
4138:1.8735290030187451e+02
4139:1.8735290030187451e+02
4140:1.8735290030187451e+02
4141:1.8735290030187451e+02
4142:1.8735290030187451e+02
4143:1.8735290030187451e+02
4144:1.8735290030187451e+02
4145:1.8735290030187451e+02
4146:1.8735290030187451e+02
4147:1.8735290030187451e+02
4148:1.8735290030187451e+02
4149:1.8735290030187451e+02
4150:1.8735290030187451e+02
4151:1.8735290030187451e+02
4152:1.8735290030187451e+02
4153:1.8735290030187451e+02
4154:1.8735290030187451e+02
4155:1.8735290030187451e+02
4156:1.8735290030187451e+02
4157:1.8735290030187451e+02

4158:4.2257838447553627e+02
4159:4.2257838447553627e+02
4160:4.2257838447553627e+02
4161:4.2257838447553627e+02
4162:4.2257838447553627e+02
4163:4.2257838447553627e+02
4164:4.2257838447553627e+02
4165:4.2257838447553627e+02
4166:4.2257838447553627e+02
4167:4.2257838447553627e+02
4168:4.2257838447553627e+02
4169:4.2257838447553627e+02
4170:4.2257838447553627e+02
4171:4.2257838447553627e+02
4172:4.2257838447553627e+02
4173:4.2257838447553627e+02
4174:4.2257838447553627e+02
4175:4.2257838447553627e+02
4176:4.2257838447553627e+02
4177:4.2257838447553627e+02
4178:4.2257838447553627e+02
4179:4.2257838447553627e+02
4180:4.2257838447553627e+02
4181:4.2257838447553627e+02
4182:4.2257838447553627e+02
4183:4.2257838447553627e+02
4184:4.2257838447553627e+02

4185:-3.0459852993277065e+02
4186:-3.0459852993277065e+02
4187:-3.0459852993277065e+02
4188:-3.0459852993277065e+02
4189:-3.0459852993277065e+02
4190:-3.0459852993277065e+02
4191:-3.0459852993277065e+02
4192:-3.0459852993277065e+02
4193:-3.0459852993277065e+02
4194:-3.0459852993277065e+02
4195:-3.0459852993277065e+02
4196:-3.0459852993277065e+02
4197:-3.0459852993277065e+02
4198:-3.0459852993277065e+02
4199:-3.0459852993277065e+02
4200:-3.0459852993277065e+02
4201:-3.0459852993277065e+02
4202:-3.0459852993277065e+02
4203:-3.0459852993277065e+02
4204:-3.0459852993277065e+02
4205:-3.0459852993277065e+02
4206:-3.0459852993277065e+02
4207:-3.0459852993277065e+02
4208:-3.0459852993277065e+02
4209:-3.0459852993277065e+02
4210:-3.0459852993277065e+02
4211:-3.0459852993277065e+02

4212:-1.3659393027573739e+02
4213:-1.3659393027573739e+02
4214:-1.3659393027573739e+02
4215:-1.3659393027573739e+02
4216:-1.3659393027573739e+02
4217:-1.3659393027573739e+02
4218:-1.3659393027573739e+02
4219:-1.3659393027573739e+02
4220:-1.3659393027573739e+02
4221:-1.3659393027573739e+02
4222:-1.3659393027573739e+02
4223:-1.3659393027573739e+02
4224:-1.3659393027573739e+02
4225:-1.3659393027573739e+02
4226:-1.3659393027573739e+02
4227:-1.3659393027573739e+02
4228:-1.3659393027573739e+02
4229:-1.3659393027573739e+02
4230:-1.3659393027573739e+02
4231:-1.3659393027573739e+02
4232:-1.3659393027573739e+02
4233:-1.3659393027573739e+02
4234:-1.3659393027573739e+02
4235:-1.3659393027573739e+02
4236:-1.3659393027573739e+02
4237:-1.3659393027573739e+02
4238:-1.3659393027573739e+02

4239:1.8528556860801217e+01
4240:1.8528556860801217e+01
4241:1.8528556860801217e+01
4242:1.8528556860801217e+01
4243:1.8528556860801217e+01
4244:1.8528556860801217e+01
4245:1.8528556860801217e+01
4246:1.8528556860801217e+01
4247:1.8528556860801217e+01
4248:1.8528556860801217e+01
4249:1.8528556860801217e+01
4250:1.8528556860801217e+01
4251:1.8528556860801217e+01
4252:1.8528556860801217e+01
4253:1.8528556860801217e+01
4254:1.8528556860801217e+01
4255:1.8528556860801217e+01
4256:1.8528556860801217e+01
4257:1.8528556860801217e+01
4258:1.8528556860801217e+01
4259:1.8528556860801217e+01
4260:1.8528556860801217e+01
4261:1.8528556860801217e+01
4262:1.8528556860801217e+01
4263:1.8528556860801217e+01
4264:1.8528556860801217e+01
4265:1.8528556860801217e+01

4266:-1.4441241111966491e+02
4267:-1.4441241111966491e+02
4268:-1.4441241111966491e+02
4269:-1.4441241111966491e+02
4270:-1.4441241111966491e+02
4271:-1.4441241111966491e+02
4272:-1.4441241111966491e+02
4273:-1.4441241111966491e+02
4274:-1.4441241111966491e+02
4275:-1.4441241111966491e+02
4276:-1.4441241111966491e+02
4277:-1.4441241111966491e+02
4278:-1.4441241111966491e+02
4279:-1.4441241111966491e+02
4280:-1.4441241111966491e+02
4281:-1.4441241111966491e+02
4282:-1.4441241111966491e+02
4283:-1.4441241111966491e+02
4284:-1.4441241111966491e+02
4285:-1.4441241111966491e+02
4286:-1.4441241111966491e+02
4287:-1.4441241111966491e+02
4288:-1.4441241111966491e+02
4289:-1.4441241111966491e+02
4290:-1.4441241111966491e+02
4291:-1.4441241111966491e+02
4292:-1.4441241111966491e+02

4293:-1.7859157899890334e+02
4294:-1.7859157899890334e+02
4295:-1.7859157899890334e+02
4296:-1.7859157899890334e+02
4297:-1.7859157899890334e+02
4298:-1.7859157899890334e+02
4299:-1.7859157899890334e+02
4300:-1.7859157899890334e+02
4301:-1.7859157899890334e+02
4302:-1.7859157899890334e+02
4303:-1.7859157899890334e+02
4304:-1.7859157899890334e+02
4305:-1.7859157899890334e+02
4306:-1.7859157899890334e+02
4307:-1.7859157899890334e+02
4308:-1.7859157899890334e+02
4309:-1.7859157899890334e+02
4310:-1.7859157899890334e+02
4311:-1.7859157899890334e+02
4312:-1.7859157899890334e+02
4313:-1.7859157899890334e+02
4314:-1.7859157899890334e+02
4315:-1.7859157899890334e+02
4316:-1.7859157899890334e+02
4317:-1.7859157899890334e+02
4318:-1.7859157899890334e+02
4319:-1.7859157899890334e+02

4320:1.9278045442193232e+01
4321:1.9278045442193232e+01
4322:1.9278045442193232e+01
4323:1.9278045442193232e+01
4324:1.9278045442193232e+01
4325:1.9278045442193232e+01
4326:1.9278045442193232e+01
4327:1.9278045442193232e+01
4328:1.9278045442193232e+01
4329:1.9278045442193232e+01
4330:1.9278045442193232e+01
4331:1.9278045442193232e+01
4332:1.9278045442193232e+01
4333:1.9278045442193232e+01
4334:1.9278045442193232e+01
4335:1.9278045442193232e+01
4336:1.9278045442193232e+01
4337:1.9278045442193232e+01
4338:1.9278045442193232e+01
4339:1.9278045442193232e+01
4340:1.9278045442193232e+01
4341:1.9278045442193232e+01
4342:1.9278045442193232e+01
4343:1.9278045442193232e+01
4344:1.9278045442193232e+01
4345:1.9278045442193232e+01
4346:1.9278045442193232e+01

4347:-1.1420465219284648e+02
4348:-1.1420465219284648e+02
4349:-1.1420465219284648e+02
4350:-1.1420465219284648e+02
4351:-1.1420465219284648e+02
4352:-1.1420465219284648e+02
4353:-1.1420465219284648e+02
4354:-1.1420465219284648e+02
4355:-1.1420465219284648e+02
4356:-1.1420465219284648e+02
4357:-1.1420465219284648e+02
4358:-1.1420465219284648e+02
4359:-1.1420465219284648e+02
4360:-1.1420465219284648e+02
4361:-1.1420465219284648e+02
4362:-1.1420465219284648e+02
4363:-1.1420465219284648e+02
4364:-1.1420465219284648e+02
4365:-1.1420465219284648e+02
4366:-1.1420465219284648e+02
4367:-1.1420465219284648e+02
4368:-1.1420465219284648e+02
4369:-1.1420465219284648e+02
4370:-1.1420465219284648e+02
4371:-1.1420465219284648e+02
4372:-1.1420465219284648e+02
4373:-1.1420465219284648e+02




4374:2.0442217157853274e+03
4375:2.0442217157853274e+03
4376:2.0442217157853274e+03
4377:2.0442217157853274e+03
4378:2.0442217157853274e+03
4379:2.0442217157853274e+03
4380:2.0442217157853274e+03
4381:2.0442217157853274e+03
4382:2.0442217157853274e+03
4383:2.0442217157853274e+03
4384:2.0442217157853274e+03
4385:2.0442217157853274e+03
4386:2.0442217157853274e+03
4387:2.0442217157853274e+03
4388:2.0442217157853274e+03
4389:2.0442217157853274e+03
4390:2.0442217157853274e+03
4391:2.0442217157853274e+03
4392:2.0442217157853274e+03
4393:2.0442217157853274e+03
4394:2.0442217157853274e+03
4395:2.0442217157853274e+03
4396:2.0442217157853274e+03
4397:2.0442217157853274e+03
4398:2.0442217157853274e+03
4399:2.0442217157853274e+03
4400:2.0442217157853274e+03

4401:2.0587734096997465e+02
4402:2.0587734096997465e+02
4403:2.0587734096997465e+02
4404:2.0587734096997465e+02
4405:2.0587734096997465e+02
4406:2.0587734096997465e+02
4407:2.0587734096997465e+02
4408:2.0587734096997465e+02
4409:2.0587734096997465e+02
4410:2.0587734096997465e+02
4411:2.0587734096997465e+02
4412:2.0587734096997465e+02
4413:2.0587734096997465e+02
4414:2.0587734096997465e+02
4415:2.0587734096997465e+02
4416:2.0587734096997465e+02
4417:2.0587734096997465e+02
4418:2.0587734096997465e+02
4419:2.0587734096997465e+02
4420:2.0587734096997465e+02
4421:2.0587734096997465e+02
4422:2.0587734096997465e+02
4423:2.0587734096997465e+02
4424:2.0587734096997465e+02
4425:2.0587734096997465e+02
4426:2.0587734096997465e+02
4427:2.0587734096997465e+02

4428:-2.9240128692298758e+03
4429:-2.9240128692298758e+03
4430:-2.9240128692298758e+03
4431:-2.9240128692298758e+03
4432:-2.9240128692298758e+03
4433:-2.9240128692298758e+03
4434:-2.9240128692298758e+03
4435:-2.9240128692298758e+03
4436:-2.9240128692298758e+03
4437:-2.9240128692298758e+03
4438:-2.9240128692298758e+03
4439:-2.9240128692298758e+03
4440:-2.9240128692298758e+03
4441:-2.9240128692298758e+03
4442:-2.9240128692298758e+03
4443:-2.9240128692298758e+03
4444:-2.9240128692298758e+03
4445:-2.9240128692298758e+03
4446:-2.9240128692298758e+03
4447:-2.9240128692298758e+03
4448:-2.9240128692298758e+03
4449:-2.9240128692298758e+03
4450:-2.9240128692298758e+03
4451:-2.9240128692298758e+03
4452:-2.9240128692298758e+03
4453:-2.9240128692298758e+03
4454:-2.9240128692298758e+03

4455:3.5477661606992360e+03
4456:3.5477661606992360e+03
4457:3.5477661606992360e+03
4458:3.5477661606992360e+03
4459:3.5477661606992360e+03
4460:3.5477661606992360e+03
4461:3.5477661606992360e+03
4462:3.5477661606992360e+03
4463:3.5477661606992360e+03
4464:3.5477661606992360e+03
4465:3.5477661606992360e+03
4466:3.5477661606992360e+03
4467:3.5477661606992360e+03
4468:3.5477661606992360e+03
4469:3.5477661606992360e+03
4470:3.5477661606992360e+03
4471:3.5477661606992360e+03
4472:3.5477661606992360e+03
4473:3.5477661606992360e+03
4474:3.5477661606992360e+03
4475:3.5477661606992360e+03
4476:3.5477661606992360e+03
4477:3.5477661606992360e+03
4478:3.5477661606992360e+03
4479:3.5477661606992360e+03
4480:3.5477661606992360e+03
4481:3.5477661606992360e+03

4482:-3.2704808741623133e+03
4483:-3.2704808741623133e+03
4484:-3.2704808741623133e+03
4485:-3.2704808741623133e+03
4486:-3.2704808741623133e+03
4487:-3.2704808741623133e+03
4488:-3.2704808741623133e+03
4489:-3.2704808741623133e+03
4490:-3.2704808741623133e+03
4491:-3.2704808741623133e+03
4492:-3.2704808741623133e+03
4493:-3.2704808741623133e+03
4494:-3.2704808741623133e+03
4495:-3.2704808741623133e+03
4496:-3.2704808741623133e+03
4497:-3.2704808741623133e+03
4498:-3.2704808741623133e+03
4499:-3.2704808741623133e+03
4500:-3.2704808741623133e+03
4501:-3.2704808741623133e+03
4502:-3.2704808741623133e+03
4503:-3.2704808741623133e+03
4504:-3.2704808741623133e+03
4505:-3.2704808741623133e+03
4506:-3.2704808741623133e+03
4507:-3.2704808741623133e+03
4508:-3.2704808741623133e+03

4509:9.8329495388009400e+02
4510:9.8329495388009400e+02
4511:9.8329495388009400e+02
4512:9.8329495388009400e+02
4513:9.8329495388009400e+02
4514:9.8329495388009400e+02
4515:9.8329495388009400e+02
4516:9.8329495388009400e+02
4517:9.8329495388009400e+02
4518:9.8329495388009400e+02
4519:9.8329495388009400e+02
4520:9.8329495388009400e+02
4521:9.8329495388009400e+02
4522:9.8329495388009400e+02
4523:9.8329495388009400e+02
4524:9.8329495388009400e+02
4525:9.8329495388009400e+02
4526:9.8329495388009400e+02
4527:9.8329495388009400e+02
4528:9.8329495388009400e+02
4529:9.8329495388009400e+02
4530:9.8329495388009400e+02
4531:9.8329495388009400e+02
4532:9.8329495388009400e+02
4533:9.8329495388009400e+02
4534:9.8329495388009400e+02
4535:9.8329495388009400e+02

4536:-2.2234165386371560e+03
4537:-2.2234165386371560e+03
4538:-2.2234165386371560e+03
4539:-2.2234165386371560e+03
4540:-2.2234165386371560e+03
4541:-2.2234165386371560e+03
4542:-2.2234165386371560e+03
4543:-2.2234165386371560e+03
4544:-2.2234165386371560e+03
4545:-2.2234165386371560e+03
4546:-2.2234165386371560e+03
4547:-2.2234165386371560e+03
4548:-2.2234165386371560e+03
4549:-2.2234165386371560e+03
4550:-2.2234165386371560e+03
4551:-2.2234165386371560e+03
4552:-2.2234165386371560e+03
4553:-2.2234165386371560e+03
4554:-2.2234165386371560e+03
4555:-2.2234165386371560e+03
4556:-2.2234165386371560e+03
4557:-2.2234165386371560e+03
4558:-2.2234165386371560e+03
4559:-2.2234165386371560e+03
4560:-2.2234165386371560e+03
4561:-2.2234165386371560e+03
4562:-2.2234165386371560e+03

4563:1.1231258976114711e+03
4564:1.1231258976114711e+03
4565:1.1231258976114711e+03
4566:1.1231258976114711e+03
4567:1.1231258976114711e+03
4568:1.1231258976114711e+03
4569:1.1231258976114711e+03
4570:1.1231258976114711e+03
4571:1.1231258976114711e+03
4572:1.1231258976114711e+03
4573:1.1231258976114711e+03
4574:1.1231258976114711e+03
4575:1.1231258976114711e+03
4576:1.1231258976114711e+03
4577:1.1231258976114711e+03
4578:1.1231258976114711e+03
4579:1.1231258976114711e+03
4580:1.1231258976114711e+03
4581:1.1231258976114711e+03
4582:1.1231258976114711e+03
4583:1.1231258976114711e+03
4584:1.1231258976114711e+03
4585:1.1231258976114711e+03
4586:1.1231258976114711e+03
4587:1.1231258976114711e+03
4588:1.1231258976114711e+03
4589:1.1231258976114711e+03

4590:-1.8180742723941817e+03
4591:-1.8180742723941817e+03
4592:-1.8180742723941817e+03
4593:-1.8180742723941817e+03
4594:-1.8180742723941817e+03
4595:-1.8180742723941817e+03
4596:-1.8180742723941817e+03
4597:-1.8180742723941817e+03
4598:-1.8180742723941817e+03
4599:-1.8180742723941817e+03
4600:-1.8180742723941817e+03
4601:-1.8180742723941817e+03
4602:-1.8180742723941817e+03
4603:-1.8180742723941817e+03
4604:-1.8180742723941817e+03
4605:-1.8180742723941817e+03
4606:-1.8180742723941817e+03
4607:-1.8180742723941817e+03
4608:-1.8180742723941817e+03
4609:-1.8180742723941817e+03
4610:-1.8180742723941817e+03
4611:-1.8180742723941817e+03
4612:-1.8180742723941817e+03
4613:-1.8180742723941817e+03
4614:-1.8180742723941817e+03
4615:-1.8180742723941817e+03
4616:-1.8180742723941817e+03

4617:2.0319561809474544e+02
4618:2.0319561809474544e+02
4619:2.0319561809474544e+02
4620:2.0319561809474544e+02
4621:2.0319561809474544e+02
4622:2.0319561809474544e+02
4623:2.0319561809474544e+02
4624:2.0319561809474544e+02
4625:2.0319561809474544e+02
4626:2.0319561809474544e+02
4627:2.0319561809474544e+02
4628:2.0319561809474544e+02
4629:2.0319561809474544e+02
4630:2.0319561809474544e+02
4631:2.0319561809474544e+02
4632:2.0319561809474544e+02
4633:2.0319561809474544e+02
4634:2.0319561809474544e+02
4635:2.0319561809474544e+02
4636:2.0319561809474544e+02
4637:2.0319561809474544e+02
4638:2.0319561809474544e+02
4639:2.0319561809474544e+02
4640:2.0319561809474544e+02
4641:2.0319561809474544e+02
4642:2.0319561809474544e+02
4643:2.0319561809474544e+02

4644:-4.0425581665221978e+02
4645:-4.0425581665221978e+02
4646:-4.0425581665221978e+02
4647:-4.0425581665221978e+02
4648:-4.0425581665221978e+02
4649:-4.0425581665221978e+02
4650:-4.0425581665221978e+02
4651:-4.0425581665221978e+02
4652:-4.0425581665221978e+02
4653:-4.0425581665221978e+02
4654:-4.0425581665221978e+02
4655:-4.0425581665221978e+02
4656:-4.0425581665221978e+02
4657:-4.0425581665221978e+02
4658:-4.0425581665221978e+02
4659:-4.0425581665221978e+02
4660:-4.0425581665221978e+02
4661:-4.0425581665221978e+02
4662:-4.0425581665221978e+02
4663:-4.0425581665221978e+02
4664:-4.0425581665221978e+02
4665:-4.0425581665221978e+02
4666:-4.0425581665221978e+02
4667:-4.0425581665221978e+02
4668:-4.0425581665221978e+02
4669:-4.0425581665221978e+02
4670:-4.0425581665221978e+02

4671:-1.6017354641862257e+03
4672:-1.6017354641862257e+03
4673:-1.6017354641862257e+03
4674:-1.6017354641862257e+03
4675:-1.6017354641862257e+03
4676:-1.6017354641862257e+03
4677:-1.6017354641862257e+03
4678:-1.6017354641862257e+03
4679:-1.6017354641862257e+03
4680:-1.6017354641862257e+03
4681:-1.6017354641862257e+03
4682:-1.6017354641862257e+03
4683:-1.6017354641862257e+03
4684:-1.6017354641862257e+03
4685:-1.6017354641862257e+03
4686:-1.6017354641862257e+03
4687:-1.6017354641862257e+03
4688:-1.6017354641862257e+03
4689:-1.6017354641862257e+03
4690:-1.6017354641862257e+03
4691:-1.6017354641862257e+03
4692:-1.6017354641862257e+03
4693:-1.6017354641862257e+03
4694:-1.6017354641862257e+03
4695:-1.6017354641862257e+03
4696:-1.6017354641862257e+03
4697:-1.6017354641862257e+03

4698:-1.1731731234172871e+03
4699:-1.1731731234172871e+03
4700:-1.1731731234172871e+03
4701:-1.1731731234172871e+03
4702:-1.1731731234172871e+03
4703:-1.1731731234172871e+03
4704:-1.1731731234172871e+03
4705:-1.1731731234172871e+03
4706:-1.1731731234172871e+03
4707:-1.1731731234172871e+03
4708:-1.1731731234172871e+03
4709:-1.1731731234172871e+03
4710:-1.1731731234172871e+03
4711:-1.1731731234172871e+03
4712:-1.1731731234172871e+03
4713:-1.1731731234172871e+03
4714:-1.1731731234172871e+03
4715:-1.1731731234172871e+03
4716:-1.1731731234172871e+03
4717:-1.1731731234172871e+03
4718:-1.1731731234172871e+03
4719:-1.1731731234172871e+03
4720:-1.1731731234172871e+03
4721:-1.1731731234172871e+03
4722:-1.1731731234172871e+03
4723:-1.1731731234172871e+03
4724:-1.1731731234172871e+03

4725:-1.5379963881044880e+03
4726:-1.5379963881044880e+03
4727:-1.5379963881044880e+03
4728:-1.5379963881044880e+03
4729:-1.5379963881044880e+03
4730:-1.5379963881044880e+03
4731:-1.5379963881044880e+03
4732:-1.5379963881044880e+03
4733:-1.5379963881044880e+03
4734:-1.5379963881044880e+03
4735:-1.5379963881044880e+03
4736:-1.5379963881044880e+03
4737:-1.5379963881044880e+03
4738:-1.5379963881044880e+03
4739:-1.5379963881044880e+03
4740:-1.5379963881044880e+03
4741:-1.5379963881044880e+03
4742:-1.5379963881044880e+03
4743:-1.5379963881044880e+03
4744:-1.5379963881044880e+03
4745:-1.5379963881044880e+03
4746:-1.5379963881044880e+03
4747:-1.5379963881044880e+03
4748:-1.5379963881044880e+03
4749:-1.5379963881044880e+03
4750:-1.5379963881044880e+03
4751:-1.5379963881044880e+03

4752:5.8343386605611147e+02
4753:5.8343386605611147e+02
4754:5.8343386605611147e+02
4755:5.8343386605611147e+02
4756:5.8343386605611147e+02
4757:5.8343386605611147e+02
4758:5.8343386605611147e+02
4759:5.8343386605611147e+02
4760:5.8343386605611147e+02
4761:5.8343386605611147e+02
4762:5.8343386605611147e+02
4763:5.8343386605611147e+02
4764:5.8343386605611147e+02
4765:5.8343386605611147e+02
4766:5.8343386605611147e+02
4767:5.8343386605611147e+02
4768:5.8343386605611147e+02
4769:5.8343386605611147e+02
4770:5.8343386605611147e+02
4771:5.8343386605611147e+02
4772:5.8343386605611147e+02
4773:5.8343386605611147e+02
4774:5.8343386605611147e+02
4775:5.8343386605611147e+02
4776:5.8343386605611147e+02
4777:5.8343386605611147e+02
4778:5.8343386605611147e+02

4779:-2.6805176798208561e+02
4780:-2.6805176798208561e+02
4781:-2.6805176798208561e+02
4782:-2.6805176798208561e+02
4783:-2.6805176798208561e+02
4784:-2.6805176798208561e+02
4785:-2.6805176798208561e+02
4786:-2.6805176798208561e+02
4787:-2.6805176798208561e+02
4788:-2.6805176798208561e+02
4789:-2.6805176798208561e+02
4790:-2.6805176798208561e+02
4791:-2.6805176798208561e+02
4792:-2.6805176798208561e+02
4793:-2.6805176798208561e+02
4794:-2.6805176798208561e+02
4795:-2.6805176798208561e+02
4796:-2.6805176798208561e+02
4797:-2.6805176798208561e+02
4798:-2.6805176798208561e+02
4799:-2.6805176798208561e+02
4800:-2.6805176798208561e+02
4801:-2.6805176798208561e+02
4802:-2.6805176798208561e+02
4803:-2.6805176798208561e+02
4804:-2.6805176798208561e+02
4805:-2.6805176798208561e+02

4806:4.9333767554688256e+02
4807:4.9333767554688256e+02
4808:4.9333767554688256e+02
4809:4.9333767554688256e+02
4810:4.9333767554688256e+02
4811:4.9333767554688256e+02
4812:4.9333767554688256e+02
4813:4.9333767554688256e+02
4814:4.9333767554688256e+02
4815:4.9333767554688256e+02
4816:4.9333767554688256e+02
4817:4.9333767554688256e+02
4818:4.9333767554688256e+02
4819:4.9333767554688256e+02
4820:4.9333767554688256e+02
4821:4.9333767554688256e+02
4822:4.9333767554688256e+02
4823:4.9333767554688256e+02
4824:4.9333767554688256e+02
4825:4.9333767554688256e+02
4826:4.9333767554688256e+02
4827:4.9333767554688256e+02
4828:4.9333767554688256e+02
4829:4.9333767554688256e+02
4830:4.9333767554688256e+02
4831:4.9333767554688256e+02
4832:4.9333767554688256e+02

4833:-3.0381506689081161e+03
4834:-3.0381506689081161e+03
4835:-3.0381506689081161e+03
4836:-3.0381506689081161e+03
4837:-3.0381506689081161e+03
4838:-3.0381506689081161e+03
4839:-3.0381506689081161e+03
4840:-3.0381506689081161e+03
4841:-3.0381506689081161e+03
4842:-3.0381506689081161e+03
4843:-3.0381506689081161e+03
4844:-3.0381506689081161e+03
4845:-3.0381506689081161e+03
4846:-3.0381506689081161e+03
4847:-3.0381506689081161e+03
4848:-3.0381506689081161e+03
4849:-3.0381506689081161e+03
4850:-3.0381506689081161e+03
4851:-3.0381506689081161e+03
4852:-3.0381506689081161e+03
4853:-3.0381506689081161e+03
4854:-3.0381506689081161e+03
4855:-3.0381506689081161e+03
4856:-3.0381506689081161e+03
4857:-3.0381506689081161e+03
4858:-3.0381506689081161e+03
4859:-3.0381506689081161e+03

4860:2.4658217062396943e+03
4861:2.4658217062396943e+03
4862:2.4658217062396943e+03
4863:2.4658217062396943e+03
4864:2.4658217062396943e+03
4865:2.4658217062396943e+03
4866:2.4658217062396943e+03
4867:2.4658217062396943e+03
4868:2.4658217062396943e+03
4869:2.4658217062396943e+03
4870:2.4658217062396943e+03
4871:2.4658217062396943e+03
4872:2.4658217062396943e+03
4873:2.4658217062396943e+03
4874:2.4658217062396943e+03
4875:2.4658217062396943e+03
4876:2.4658217062396943e+03
4877:2.4658217062396943e+03
4878:2.4658217062396943e+03
4879:2.4658217062396943e+03
4880:2.4658217062396943e+03
4881:2.4658217062396943e+03
4882:2.4658217062396943e+03
4883:2.4658217062396943e+03
4884:2.4658217062396943e+03
4885:2.4658217062396943e+03
4886:2.4658217062396943e+03

4887:3.7981254012700861e+03
4888:3.7981254012700861e+03
4889:3.7981254012700861e+03
4890:3.7981254012700861e+03
4891:3.7981254012700861e+03
4892:3.7981254012700861e+03
4893:3.7981254012700861e+03
4894:3.7981254012700861e+03
4895:3.7981254012700861e+03
4896:3.7981254012700861e+03
4897:3.7981254012700861e+03
4898:3.7981254012700861e+03
4899:3.7981254012700861e+03
4900:3.7981254012700861e+03
4901:3.7981254012700861e+03
4902:3.7981254012700861e+03
4903:3.7981254012700861e+03
4904:3.7981254012700861e+03
4905:3.7981254012700861e+03
4906:3.7981254012700861e+03
4907:3.7981254012700861e+03
4908:3.7981254012700861e+03
4909:3.7981254012700861e+03
4910:3.7981254012700861e+03
4911:3.7981254012700861e+03
4912:3.7981254012700861e+03
4913:3.7981254012700861e+03

4914:-1.1790168340380656e+03
4915:-1.1790168340380656e+03
4916:-1.1790168340380656e+03
4917:-1.1790168340380656e+03
4918:-1.1790168340380656e+03
4919:-1.1790168340380656e+03
4920:-1.1790168340380656e+03
4921:-1.1790168340380656e+03
4922:-1.1790168340380656e+03
4923:-1.1790168340380656e+03
4924:-1.1790168340380656e+03
4925:-1.1790168340380656e+03
4926:-1.1790168340380656e+03
4927:-1.1790168340380656e+03
4928:-1.1790168340380656e+03
4929:-1.1790168340380656e+03
4930:-1.1790168340380656e+03
4931:-1.1790168340380656e+03
4932:-1.1790168340380656e+03
4933:-1.1790168340380656e+03
4934:-1.1790168340380656e+03
4935:-1.1790168340380656e+03
4936:-1.1790168340380656e+03
4937:-1.1790168340380656e+03
4938:-1.1790168340380656e+03
4939:-1.1790168340380656e+03
4940:-1.1790168340380656e+03

4941:6.4403761185469546e+02
4942:6.4403761185469546e+02
4943:6.4403761185469546e+02
4944:6.4403761185469546e+02
4945:6.4403761185469546e+02
4946:6.4403761185469546e+02
4947:6.4403761185469546e+02
4948:6.4403761185469546e+02
4949:6.4403761185469546e+02
4950:6.4403761185469546e+02
4951:6.4403761185469546e+02
4952:6.4403761185469546e+02
4953:6.4403761185469546e+02
4954:6.4403761185469546e+02
4955:6.4403761185469546e+02
4956:6.4403761185469546e+02
4957:6.4403761185469546e+02
4958:6.4403761185469546e+02
4959:6.4403761185469546e+02
4960:6.4403761185469546e+02
4961:6.4403761185469546e+02
4962:6.4403761185469546e+02
4963:6.4403761185469546e+02
4964:6.4403761185469546e+02
4965:6.4403761185469546e+02
4966:6.4403761185469546e+02
4967:6.4403761185469546e+02

4968:-1.2820973360543735e+03
4969:-1.2820973360543735e+03
4970:-1.2820973360543735e+03
4971:-1.2820973360543735e+03
4972:-1.2820973360543735e+03
4973:-1.2820973360543735e+03
4974:-1.2820973360543735e+03
4975:-1.2820973360543735e+03
4976:-1.2820973360543735e+03
4977:-1.2820973360543735e+03
4978:-1.2820973360543735e+03
4979:-1.2820973360543735e+03
4980:-1.2820973360543735e+03
4981:-1.2820973360543735e+03
4982:-1.2820973360543735e+03
4983:-1.2820973360543735e+03
4984:-1.2820973360543735e+03
4985:-1.2820973360543735e+03
4986:-1.2820973360543735e+03
4987:-1.2820973360543735e+03
4988:-1.2820973360543735e+03
4989:-1.2820973360543735e+03
4990:-1.2820973360543735e+03
4991:-1.2820973360543735e+03
4992:-1.2820973360543735e+03
4993:-1.2820973360543735e+03
4994:-1.2820973360543735e+03

4995:1.3307254615255472e+03
4996:1.3307254615255472e+03
4997:1.3307254615255472e+03
4998:1.3307254615255472e+03
4999:1.3307254615255472e+03
5000:1.3307254615255472e+03
5001:1.3307254615255472e+03
5002:1.3307254615255472e+03
5003:1.3307254615255472e+03
5004:1.3307254615255472e+03
5005:1.3307254615255472e+03
5006:1.3307254615255472e+03
5007:1.3307254615255472e+03
5008:1.3307254615255472e+03
5009:1.3307254615255472e+03
5010:1.3307254615255472e+03
5011:1.3307254615255472e+03
5012:1.3307254615255472e+03
5013:1.3307254615255472e+03
5014:1.3307254615255472e+03
5015:1.3307254615255472e+03
5016:1.3307254615255472e+03
5017:1.3307254615255472e+03
5018:1.3307254615255472e+03
5019:1.3307254615255472e+03
5020:1.3307254615255472e+03
5021:1.3307254615255472e+03

5022:-1.1717493755437686e+03
5023:-1.1717493755437686e+03
5024:-1.1717493755437686e+03
5025:-1.1717493755437686e+03
5026:-1.1717493755437686e+03
5027:-1.1717493755437686e+03
5028:-1.1717493755437686e+03
5029:-1.1717493755437686e+03
5030:-1.1717493755437686e+03
5031:-1.1717493755437686e+03
5032:-1.1717493755437686e+03
5033:-1.1717493755437686e+03
5034:-1.1717493755437686e+03
5035:-1.1717493755437686e+03
5036:-1.1717493755437686e+03
5037:-1.1717493755437686e+03
5038:-1.1717493755437686e+03
5039:-1.1717493755437686e+03
5040:-1.1717493755437686e+03
5041:-1.1717493755437686e+03
5042:-1.1717493755437686e+03
5043:-1.1717493755437686e+03
5044:-1.1717493755437686e+03
5045:-1.1717493755437686e+03
5046:-1.1717493755437686e+03
5047:-1.1717493755437686e+03
5048:-1.1717493755437686e+03

5049:-2.0686249581465440e+03
5050:-2.0686249581465440e+03
5051:-2.0686249581465440e+03
5052:-2.0686249581465440e+03
5053:-2.0686249581465440e+03
5054:-2.0686249581465440e+03
5055:-2.0686249581465440e+03
5056:-2.0686249581465440e+03
5057:-2.0686249581465440e+03
5058:-2.0686249581465440e+03
5059:-2.0686249581465440e+03
5060:-2.0686249581465440e+03
5061:-2.0686249581465440e+03
5062:-2.0686249581465440e+03
5063:-2.0686249581465440e+03
5064:-2.0686249581465440e+03
5065:-2.0686249581465440e+03
5066:-2.0686249581465440e+03
5067:-2.0686249581465440e+03
5068:-2.0686249581465440e+03
5069:-2.0686249581465440e+03
5070:-2.0686249581465440e+03
5071:-2.0686249581465440e+03
5072:-2.0686249581465440e+03
5073:-2.0686249581465440e+03
5074:-2.0686249581465440e+03
5075:-2.0686249581465440e+03

5076:1.0177378572389483e+03
5077:1.0177378572389483e+03
5078:1.0177378572389483e+03
5079:1.0177378572389483e+03
5080:1.0177378572389483e+03
5081:1.0177378572389483e+03
5082:1.0177378572389483e+03
5083:1.0177378572389483e+03
5084:1.0177378572389483e+03
5085:1.0177378572389483e+03
5086:1.0177378572389483e+03
5087:1.0177378572389483e+03
5088:1.0177378572389483e+03
5089:1.0177378572389483e+03
5090:1.0177378572389483e+03
5091:1.0177378572389483e+03
5092:1.0177378572389483e+03
5093:1.0177378572389483e+03
5094:1.0177378572389483e+03
5095:1.0177378572389483e+03
5096:1.0177378572389483e+03
5097:1.0177378572389483e+03
5098:1.0177378572389483e+03
5099:1.0177378572389483e+03
5100:1.0177378572389483e+03
5101:1.0177378572389483e+03
5102:1.0177378572389483e+03

5103:-4.9028742453346456e+02
5104:-4.9028742453346456e+02
5105:-4.9028742453346456e+02
5106:-4.9028742453346456e+02
5107:-4.9028742453346456e+02
5108:-4.9028742453346456e+02
5109:-4.9028742453346456e+02
5110:-4.9028742453346456e+02
5111:-4.9028742453346456e+02
5112:-4.9028742453346456e+02
5113:-4.9028742453346456e+02
5114:-4.9028742453346456e+02
5115:-4.9028742453346456e+02
5116:-4.9028742453346456e+02
5117:-4.9028742453346456e+02
5118:-4.9028742453346456e+02
5119:-4.9028742453346456e+02
5120:-4.9028742453346456e+02
5121:-4.9028742453346456e+02
5122:-4.9028742453346456e+02
5123:-4.9028742453346456e+02
5124:-4.9028742453346456e+02
5125:-4.9028742453346456e+02
5126:-4.9028742453346456e+02
5127:-4.9028742453346456e+02
5128:-4.9028742453346456e+02
5129:-4.9028742453346456e+02

5130:2.5103492341804255e+01
5131:2.5103492341804255e+01
5132:2.5103492341804255e+01
5133:2.5103492341804255e+01
5134:2.5103492341804255e+01
5135:2.5103492341804255e+01
5136:2.5103492341804255e+01
5137:2.5103492341804255e+01
5138:2.5103492341804255e+01
5139:2.5103492341804255e+01
5140:2.5103492341804255e+01
5141:2.5103492341804255e+01
5142:2.5103492341804255e+01
5143:2.5103492341804255e+01
5144:2.5103492341804255e+01
5145:2.5103492341804255e+01
5146:2.5103492341804255e+01
5147:2.5103492341804255e+01
5148:2.5103492341804255e+01
5149:2.5103492341804255e+01
5150:2.5103492341804255e+01
5151:2.5103492341804255e+01
5152:2.5103492341804255e+01
5153:2.5103492341804255e+01
5154:2.5103492341804255e+01
5155:2.5103492341804255e+01
5156:2.5103492341804255e+01

5157:-1.4162650693043731e+03
5158:-1.4162650693043731e+03
5159:-1.4162650693043731e+03
5160:-1.4162650693043731e+03
5161:-1.4162650693043731e+03
5162:-1.4162650693043731e+03
5163:-1.4162650693043731e+03
5164:-1.4162650693043731e+03
5165:-1.4162650693043731e+03
5166:-1.4162650693043731e+03
5167:-1.4162650693043731e+03
5168:-1.4162650693043731e+03
5169:-1.4162650693043731e+03
5170:-1.4162650693043731e+03
5171:-1.4162650693043731e+03
5172:-1.4162650693043731e+03
5173:-1.4162650693043731e+03
5174:-1.4162650693043731e+03
5175:-1.4162650693043731e+03
5176:-1.4162650693043731e+03
5177:-1.4162650693043731e+03
5178:-1.4162650693043731e+03
5179:-1.4162650693043731e+03
5180:-1.4162650693043731e+03
5181:-1.4162650693043731e+03
5182:-1.4162650693043731e+03
5183:-1.4162650693043731e+03

5184:6.0751663788567191e+02
5185:6.0751663788567191e+02
5186:6.0751663788567191e+02
5187:6.0751663788567191e+02
5188:6.0751663788567191e+02
5189:6.0751663788567191e+02
5190:6.0751663788567191e+02
5191:6.0751663788567191e+02
5192:6.0751663788567191e+02
5193:6.0751663788567191e+02
5194:6.0751663788567191e+02
5195:6.0751663788567191e+02
5196:6.0751663788567191e+02
5197:6.0751663788567191e+02
5198:6.0751663788567191e+02
5199:6.0751663788567191e+02
5200:6.0751663788567191e+02
5201:6.0751663788567191e+02
5202:6.0751663788567191e+02
5203:6.0751663788567191e+02
5204:6.0751663788567191e+02
5205:6.0751663788567191e+02
5206:6.0751663788567191e+02
5207:6.0751663788567191e+02
5208:6.0751663788567191e+02
5209:6.0751663788567191e+02
5210:6.0751663788567191e+02

5211:-1.9239214668115355e+03
5212:-1.9239214668115355e+03
5213:-1.9239214668115355e+03
5214:-1.9239214668115355e+03
5215:-1.9239214668115355e+03
5216:-1.9239214668115355e+03
5217:-1.9239214668115355e+03
5218:-1.9239214668115355e+03
5219:-1.9239214668115355e+03
5220:-1.9239214668115355e+03
5221:-1.9239214668115355e+03
5222:-1.9239214668115355e+03
5223:-1.9239214668115355e+03
5224:-1.9239214668115355e+03
5225:-1.9239214668115355e+03
5226:-1.9239214668115355e+03
5227:-1.9239214668115355e+03
5228:-1.9239214668115355e+03
5229:-1.9239214668115355e+03
5230:-1.9239214668115355e+03
5231:-1.9239214668115355e+03
5232:-1.9239214668115355e+03
5233:-1.9239214668115355e+03
5234:-1.9239214668115355e+03
5235:-1.9239214668115355e+03
5236:-1.9239214668115355e+03
5237:-1.9239214668115355e+03

5238:-3.1933029395052969e+01
5239:-3.1933029395052969e+01
5240:-3.1933029395052969e+01
5241:-3.1933029395052969e+01
5242:-3.1933029395052969e+01
5243:-3.1933029395052969e+01
5244:-3.1933029395052969e+01
5245:-3.1933029395052969e+01
5246:-3.1933029395052969e+01
5247:-3.1933029395052969e+01
5248:-3.1933029395052969e+01
5249:-3.1933029395052969e+01
5250:-3.1933029395052969e+01
5251:-3.1933029395052969e+01
5252:-3.1933029395052969e+01
5253:-3.1933029395052969e+01
5254:-3.1933029395052969e+01
5255:-3.1933029395052969e+01
5256:-3.1933029395052969e+01
5257:-3.1933029395052969e+01
5258:-3.1933029395052969e+01
5259:-3.1933029395052969e+01
5260:-3.1933029395052969e+01
5261:-3.1933029395052969e+01
5262:-3.1933029395052969e+01
5263:-3.1933029395052969e+01
5264:-3.1933029395052969e+01

5265:-1.2022473121178300e+03
5266:-1.2022473121178300e+03
5267:-1.2022473121178300e+03
5268:-1.2022473121178300e+03
5269:-1.2022473121178300e+03
5270:-1.2022473121178300e+03
5271:-1.2022473121178300e+03
5272:-1.2022473121178300e+03
5273:-1.2022473121178300e+03
5274:-1.2022473121178300e+03
5275:-1.2022473121178300e+03
5276:-1.2022473121178300e+03
5277:-1.2022473121178300e+03
5278:-1.2022473121178300e+03
5279:-1.2022473121178300e+03
5280:-1.2022473121178300e+03
5281:-1.2022473121178300e+03
5282:-1.2022473121178300e+03
5283:-1.2022473121178300e+03
5284:-1.2022473121178300e+03
5285:-1.2022473121178300e+03
5286:-1.2022473121178300e+03
5287:-1.2022473121178300e+03
5288:-1.2022473121178300e+03
5289:-1.2022473121178300e+03
5290:-1.2022473121178300e+03
5291:-1.2022473121178300e+03

5292:8.8872788216191668e+02
5293:8.8872788216191668e+02
5294:8.8872788216191668e+02
5295:8.8872788216191668e+02
5296:8.8872788216191668e+02
5297:8.8872788216191668e+02
5298:8.8872788216191668e+02
5299:8.8872788216191668e+02
5300:8.8872788216191668e+02
5301:8.8872788216191668e+02
5302:8.8872788216191668e+02
5303:8.8872788216191668e+02
5304:8.8872788216191668e+02
5305:8.8872788216191668e+02
5306:8.8872788216191668e+02
5307:8.8872788216191668e+02
5308:8.8872788216191668e+02
5309:8.8872788216191668e+02
5310:8.8872788216191668e+02
5311:8.8872788216191668e+02
5312:8.8872788216191668e+02
5313:8.8872788216191668e+02
5314:8.8872788216191668e+02
5315:8.8872788216191668e+02
5316:8.8872788216191668e+02
5317:8.8872788216191668e+02
5318:8.8872788216191668e+02

5319:1.6991934028595242e+03
5320:1.6991934028595242e+03
5321:1.6991934028595242e+03
5322:1.6991934028595242e+03
5323:1.6991934028595242e+03
5324:1.6991934028595242e+03
5325:1.6991934028595242e+03
5326:1.6991934028595242e+03
5327:1.6991934028595242e+03
5328:1.6991934028595242e+03
5329:1.6991934028595242e+03
5330:1.6991934028595242e+03
5331:1.6991934028595242e+03
5332:1.6991934028595242e+03
5333:1.6991934028595242e+03
5334:1.6991934028595242e+03
5335:1.6991934028595242e+03
5336:1.6991934028595242e+03
5337:1.6991934028595242e+03
5338:1.6991934028595242e+03
5339:1.6991934028595242e+03
5340:1.6991934028595242e+03
5341:1.6991934028595242e+03
5342:1.6991934028595242e+03
5343:1.6991934028595242e+03
5344:1.6991934028595242e+03
5345:1.6991934028595242e+03

5346:-9.4432416259149625e+02
5347:-9.4432416259149625e+02
5348:-9.4432416259149625e+02
5349:-9.4432416259149625e+02
5350:-9.4432416259149625e+02
5351:-9.4432416259149625e+02
5352:-9.4432416259149625e+02
5353:-9.4432416259149625e+02
5354:-9.4432416259149625e+02
5355:-9.4432416259149625e+02
5356:-9.4432416259149625e+02
5357:-9.4432416259149625e+02
5358:-9.4432416259149625e+02
5359:-9.4432416259149625e+02
5360:-9.4432416259149625e+02
5361:-9.4432416259149625e+02
5362:-9.4432416259149625e+02
5363:-9.4432416259149625e+02
5364:-9.4432416259149625e+02
5365:-9.4432416259149625e+02
5366:-9.4432416259149625e+02
5367:-9.4432416259149625e+02
5368:-9.4432416259149625e+02
5369:-9.4432416259149625e+02
5370:-9.4432416259149625e+02
5371:-9.4432416259149625e+02
5372:-9.4432416259149625e+02

5373:-2.1791007072725538e+03
5374:-2.1791007072725538e+03
5375:-2.1791007072725538e+03
5376:-2.1791007072725538e+03
5377:-2.1791007072725538e+03
5378:-2.1791007072725538e+03
5379:-2.1791007072725538e+03
5380:-2.1791007072725538e+03
5381:-2.1791007072725538e+03
5382:-2.1791007072725538e+03
5383:-2.1791007072725538e+03
5384:-2.1791007072725538e+03
5385:-2.1791007072725538e+03
5386:-2.1791007072725538e+03
5387:-2.1791007072725538e+03
5388:-2.1791007072725538e+03
5389:-2.1791007072725538e+03
5390:-2.1791007072725538e+03
5391:-2.1791007072725538e+03
5392:-2.1791007072725538e+03
5393:-2.1791007072725538e+03
5394:-2.1791007072725538e+03
5395:-2.1791007072725538e+03
5396:-2.1791007072725538e+03
5397:-2.1791007072725538e+03
5398:-2.1791007072725538e+03
5399:-2.1791007072725538e+03

5400:-1.0964655900876191e+03
5401:-1.0964655900876191e+03
5402:-1.0964655900876191e+03
5403:-1.0964655900876191e+03
5404:-1.0964655900876191e+03
5405:-1.0964655900876191e+03
5406:-1.0964655900876191e+03
5407:-1.0964655900876191e+03
5408:-1.0964655900876191e+03
5409:-1.0964655900876191e+03
5410:-1.0964655900876191e+03
5411:-1.0964655900876191e+03
5412:-1.0964655900876191e+03
5413:-1.0964655900876191e+03
5414:-1.0964655900876191e+03
5415:-1.0964655900876191e+03
5416:-1.0964655900876191e+03
5417:-1.0964655900876191e+03
5418:-1.0964655900876191e+03
5419:-1.0964655900876191e+03
5420:-1.0964655900876191e+03
5421:-1.0964655900876191e+03
5422:-1.0964655900876191e+03
5423:-1.0964655900876191e+03
5424:-1.0964655900876191e+03
5425:-1.0964655900876191e+03
5426:-1.0964655900876191e+03

5427:3.7989097656211775e+03
5428:3.7989097656211775e+03
5429:3.7989097656211775e+03
5430:3.7989097656211775e+03
5431:3.7989097656211775e+03
5432:3.7989097656211775e+03
5433:3.7989097656211775e+03
5434:3.7989097656211775e+03
5435:3.7989097656211775e+03
5436:3.7989097656211775e+03
5437:3.7989097656211775e+03
5438:3.7989097656211775e+03
5439:3.7989097656211775e+03
5440:3.7989097656211775e+03
5441:3.7989097656211775e+03
5442:3.7989097656211775e+03
5443:3.7989097656211775e+03
5444:3.7989097656211775e+03
5445:3.7989097656211775e+03
5446:3.7989097656211775e+03
5447:3.7989097656211775e+03
5448:3.7989097656211775e+03
5449:3.7989097656211775e+03
5450:3.7989097656211775e+03
5451:3.7989097656211775e+03
5452:3.7989097656211775e+03
5453:3.7989097656211775e+03

5454:-4.7139133834303411e+03
5455:-4.7139133834303411e+03
5456:-4.7139133834303411e+03
5457:-4.7139133834303411e+03
5458:-4.7139133834303411e+03
5459:-4.7139133834303411e+03
5460:-4.7139133834303411e+03
5461:-4.7139133834303411e+03
5462:-4.7139133834303411e+03
5463:-4.7139133834303411e+03
5464:-4.7139133834303411e+03
5465:-4.7139133834303411e+03
5466:-4.7139133834303411e+03
5467:-4.7139133834303411e+03
5468:-4.7139133834303411e+03
5469:-4.7139133834303411e+03
5470:-4.7139133834303411e+03
5471:-4.7139133834303411e+03
5472:-4.7139133834303411e+03
5473:-4.7139133834303411e+03
5474:-4.7139133834303411e+03
5475:-4.7139133834303411e+03
5476:-4.7139133834303411e+03
5477:-4.7139133834303411e+03
5478:-4.7139133834303411e+03
5479:-4.7139133834303411e+03
5480:-4.7139133834303411e+03

5481:-2.0043756284733595e+03
5482:-2.0043756284733595e+03
5483:-2.0043756284733595e+03
5484:-2.0043756284733595e+03
5485:-2.0043756284733595e+03
5486:-2.0043756284733595e+03
5487:-2.0043756284733595e+03
5488:-2.0043756284733595e+03
5489:-2.0043756284733595e+03
5490:-2.0043756284733595e+03
5491:-2.0043756284733595e+03
5492:-2.0043756284733595e+03
5493:-2.0043756284733595e+03
5494:-2.0043756284733595e+03
5495:-2.0043756284733595e+03
5496:-2.0043756284733595e+03
5497:-2.0043756284733595e+03
5498:-2.0043756284733595e+03
5499:-2.0043756284733595e+03
5500:-2.0043756284733595e+03
5501:-2.0043756284733595e+03
5502:-2.0043756284733595e+03
5503:-2.0043756284733595e+03
5504:-2.0043756284733595e+03
5505:-2.0043756284733595e+03
5506:-2.0043756284733595e+03
5507:-2.0043756284733595e+03

5508:-2.8879713489361311e+03
5509:-2.8879713489361311e+03
5510:-2.8879713489361311e+03
5511:-2.8879713489361311e+03
5512:-2.8879713489361311e+03
5513:-2.8879713489361311e+03
5514:-2.8879713489361311e+03
5515:-2.8879713489361311e+03
5516:-2.8879713489361311e+03
5517:-2.8879713489361311e+03
5518:-2.8879713489361311e+03
5519:-2.8879713489361311e+03
5520:-2.8879713489361311e+03
5521:-2.8879713489361311e+03
5522:-2.8879713489361311e+03
5523:-2.8879713489361311e+03
5524:-2.8879713489361311e+03
5525:-2.8879713489361311e+03
5526:-2.8879713489361311e+03
5527:-2.8879713489361311e+03
5528:-2.8879713489361311e+03
5529:-2.8879713489361311e+03
5530:-2.8879713489361311e+03
5531:-2.8879713489361311e+03
5532:-2.8879713489361311e+03
5533:-2.8879713489361311e+03
5534:-2.8879713489361311e+03

5535:1.4586148696741695e+03
5536:1.4586148696741695e+03
5537:1.4586148696741695e+03
5538:1.4586148696741695e+03
5539:1.4586148696741695e+03
5540:1.4586148696741695e+03
5541:1.4586148696741695e+03
5542:1.4586148696741695e+03
5543:1.4586148696741695e+03
5544:1.4586148696741695e+03
5545:1.4586148696741695e+03
5546:1.4586148696741695e+03
5547:1.4586148696741695e+03
5548:1.4586148696741695e+03
5549:1.4586148696741695e+03
5550:1.4586148696741695e+03
5551:1.4586148696741695e+03
5552:1.4586148696741695e+03
5553:1.4586148696741695e+03
5554:1.4586148696741695e+03
5555:1.4586148696741695e+03
5556:1.4586148696741695e+03
5557:1.4586148696741695e+03
5558:1.4586148696741695e+03
5559:1.4586148696741695e+03
5560:1.4586148696741695e+03
5561:1.4586148696741695e+03

5562:-5.5380937199548794e+02
5563:-5.5380937199548794e+02
5564:-5.5380937199548794e+02
5565:-5.5380937199548794e+02
5566:-5.5380937199548794e+02
5567:-5.5380937199548794e+02
5568:-5.5380937199548794e+02
5569:-5.5380937199548794e+02
5570:-5.5380937199548794e+02
5571:-5.5380937199548794e+02
5572:-5.5380937199548794e+02
5573:-5.5380937199548794e+02
5574:-5.5380937199548794e+02
5575:-5.5380937199548794e+02
5576:-5.5380937199548794e+02
5577:-5.5380937199548794e+02
5578:-5.5380937199548794e+02
5579:-5.5380937199548794e+02
5580:-5.5380937199548794e+02
5581:-5.5380937199548794e+02
5582:-5.5380937199548794e+02
5583:-5.5380937199548794e+02
5584:-5.5380937199548794e+02
5585:-5.5380937199548794e+02
5586:-5.5380937199548794e+02
5587:-5.5380937199548794e+02
5588:-5.5380937199548794e+02

5589:-2.9703308569211899e+03
5590:-2.9703308569211899e+03
5591:-2.9703308569211899e+03
5592:-2.9703308569211899e+03
5593:-2.9703308569211899e+03
5594:-2.9703308569211899e+03
5595:-2.9703308569211899e+03
5596:-2.9703308569211899e+03
5597:-2.9703308569211899e+03
5598:-2.9703308569211899e+03
5599:-2.9703308569211899e+03
5600:-2.9703308569211899e+03
5601:-2.9703308569211899e+03
5602:-2.9703308569211899e+03
5603:-2.9703308569211899e+03
5604:-2.9703308569211899e+03
5605:-2.9703308569211899e+03
5606:-2.9703308569211899e+03
5607:-2.9703308569211899e+03
5608:-2.9703308569211899e+03
5609:-2.9703308569211899e+03
5610:-2.9703308569211899e+03
5611:-2.9703308569211899e+03
5612:-2.9703308569211899e+03
5613:-2.9703308569211899e+03
5614:-2.9703308569211899e+03
5615:-2.9703308569211899e+03

5616:1.9698214747787322e+03
5617:1.9698214747787322e+03
5618:1.9698214747787322e+03
5619:1.9698214747787322e+03
5620:1.9698214747787322e+03
5621:1.9698214747787322e+03
5622:1.9698214747787322e+03
5623:1.9698214747787322e+03
5624:1.9698214747787322e+03
5625:1.9698214747787322e+03
5626:1.9698214747787322e+03
5627:1.9698214747787322e+03
5628:1.9698214747787322e+03
5629:1.9698214747787322e+03
5630:1.9698214747787322e+03
5631:1.9698214747787322e+03
5632:1.9698214747787322e+03
5633:1.9698214747787322e+03
5634:1.9698214747787322e+03
5635:1.9698214747787322e+03
5636:1.9698214747787322e+03
5637:1.9698214747787322e+03
5638:1.9698214747787322e+03
5639:1.9698214747787322e+03
5640:1.9698214747787322e+03
5641:1.9698214747787322e+03
5642:1.9698214747787322e+03

5643:-2.0182785548365734e+03
5644:-2.0182785548365734e+03
5645:-2.0182785548365734e+03
5646:-2.0182785548365734e+03
5647:-2.0182785548365734e+03
5648:-2.0182785548365734e+03
5649:-2.0182785548365734e+03
5650:-2.0182785548365734e+03
5651:-2.0182785548365734e+03
5652:-2.0182785548365734e+03
5653:-2.0182785548365734e+03
5654:-2.0182785548365734e+03
5655:-2.0182785548365734e+03
5656:-2.0182785548365734e+03
5657:-2.0182785548365734e+03
5658:-2.0182785548365734e+03
5659:-2.0182785548365734e+03
5660:-2.0182785548365734e+03
5661:-2.0182785548365734e+03
5662:-2.0182785548365734e+03
5663:-2.0182785548365734e+03
5664:-2.0182785548365734e+03
5665:-2.0182785548365734e+03
5666:-2.0182785548365734e+03
5667:-2.0182785548365734e+03
5668:-2.0182785548365734e+03
5669:-2.0182785548365734e+03

5670:7.1563455563792979e+02
5671:7.1563455563792979e+02
5672:7.1563455563792979e+02
5673:7.1563455563792979e+02
5674:7.1563455563792979e+02
5675:7.1563455563792979e+02
5676:7.1563455563792979e+02
5677:7.1563455563792979e+02
5678:7.1563455563792979e+02
5679:7.1563455563792979e+02
5680:7.1563455563792979e+02
5681:7.1563455563792979e+02
5682:7.1563455563792979e+02
5683:7.1563455563792979e+02
5684:7.1563455563792979e+02
5685:7.1563455563792979e+02
5686:7.1563455563792979e+02
5687:7.1563455563792979e+02
5688:7.1563455563792979e+02
5689:7.1563455563792979e+02
5690:7.1563455563792979e+02
5691:7.1563455563792979e+02
5692:7.1563455563792979e+02
5693:7.1563455563792979e+02
5694:7.1563455563792979e+02
5695:7.1563455563792979e+02
5696:7.1563455563792979e+02

5697:-6.0483299607118697e+03
5698:-6.0483299607118697e+03
5699:-6.0483299607118697e+03
5700:-6.0483299607118697e+03
5701:-6.0483299607118697e+03
5702:-6.0483299607118697e+03
5703:-6.0483299607118697e+03
5704:-6.0483299607118697e+03
5705:-6.0483299607118697e+03
5706:-6.0483299607118697e+03
5707:-6.0483299607118697e+03
5708:-6.0483299607118697e+03
5709:-6.0483299607118697e+03
5710:-6.0483299607118697e+03
5711:-6.0483299607118697e+03
5712:-6.0483299607118697e+03
5713:-6.0483299607118697e+03
5714:-6.0483299607118697e+03
5715:-6.0483299607118697e+03
5716:-6.0483299607118697e+03
5717:-6.0483299607118697e+03
5718:-6.0483299607118697e+03
5719:-6.0483299607118697e+03
5720:-6.0483299607118697e+03
5721:-6.0483299607118697e+03
5722:-6.0483299607118697e+03
5723:-6.0483299607118697e+03

5724:3.7785307480052256e+03
5725:3.7785307480052256e+03
5726:3.7785307480052256e+03
5727:3.7785307480052256e+03
5728:3.7785307480052256e+03
5729:3.7785307480052256e+03
5730:3.7785307480052256e+03
5731:3.7785307480052256e+03
5732:3.7785307480052256e+03
5733:3.7785307480052256e+03
5734:3.7785307480052256e+03
5735:3.7785307480052256e+03
5736:3.7785307480052256e+03
5737:3.7785307480052256e+03
5738:3.7785307480052256e+03
5739:3.7785307480052256e+03
5740:3.7785307480052256e+03
5741:3.7785307480052256e+03
5742:3.7785307480052256e+03
5743:3.7785307480052256e+03
5744:3.7785307480052256e+03
5745:3.7785307480052256e+03
5746:3.7785307480052256e+03
5747:3.7785307480052256e+03
5748:3.7785307480052256e+03
5749:3.7785307480052256e+03
5750:3.7785307480052256e+03

5751:-3.7553153783839134e+03
5752:-3.7553153783839134e+03
5753:-3.7553153783839134e+03
5754:-3.7553153783839134e+03
5755:-3.7553153783839134e+03
5756:-3.7553153783839134e+03
5757:-3.7553153783839134e+03
5758:-3.7553153783839134e+03
5759:-3.7553153783839134e+03
5760:-3.7553153783839134e+03
5761:-3.7553153783839134e+03
5762:-3.7553153783839134e+03
5763:-3.7553153783839134e+03
5764:-3.7553153783839134e+03
5765:-3.7553153783839134e+03
5766:-3.7553153783839134e+03
5767:-3.7553153783839134e+03
5768:-3.7553153783839134e+03
5769:-3.7553153783839134e+03
5770:-3.7553153783839134e+03
5771:-3.7553153783839134e+03
5772:-3.7553153783839134e+03
5773:-3.7553153783839134e+03
5774:-3.7553153783839134e+03
5775:-3.7553153783839134e+03
5776:-3.7553153783839134e+03
5777:-3.7553153783839134e+03

5778:5.6387398838096794e+02
5779:5.6387398838096794e+02
5780:5.6387398838096794e+02
5781:5.6387398838096794e+02
5782:5.6387398838096794e+02
5783:5.6387398838096794e+02
5784:5.6387398838096794e+02
5785:5.6387398838096794e+02
5786:5.6387398838096794e+02
5787:5.6387398838096794e+02
5788:5.6387398838096794e+02
5789:5.6387398838096794e+02
5790:5.6387398838096794e+02
5791:5.6387398838096794e+02
5792:5.6387398838096794e+02
5793:5.6387398838096794e+02
5794:5.6387398838096794e+02
5795:5.6387398838096794e+02
5796:5.6387398838096794e+02
5797:5.6387398838096794e+02
5798:5.6387398838096794e+02
5799:5.6387398838096794e+02
5800:5.6387398838096794e+02
5801:5.6387398838096794e+02
5802:5.6387398838096794e+02
5803:5.6387398838096794e+02
5804:5.6387398838096794e+02

5805:-5.1593211739412382e+03
5806:-5.1593211739412382e+03
5807:-5.1593211739412382e+03
5808:-5.1593211739412382e+03
5809:-5.1593211739412382e+03
5810:-5.1593211739412382e+03
5811:-5.1593211739412382e+03
5812:-5.1593211739412382e+03
5813:-5.1593211739412382e+03
5814:-5.1593211739412382e+03
5815:-5.1593211739412382e+03
5816:-5.1593211739412382e+03
5817:-5.1593211739412382e+03
5818:-5.1593211739412382e+03
5819:-5.1593211739412382e+03
5820:-5.1593211739412382e+03
5821:-5.1593211739412382e+03
5822:-5.1593211739412382e+03
5823:-5.1593211739412382e+03
5824:-5.1593211739412382e+03
5825:-5.1593211739412382e+03
5826:-5.1593211739412382e+03
5827:-5.1593211739412382e+03
5828:-5.1593211739412382e+03
5829:-5.1593211739412382e+03
5830:-5.1593211739412382e+03
5831:-5.1593211739412382e+03

5832:4.2703932393657215e+03
5833:4.2703932393657215e+03
5834:4.2703932393657215e+03
5835:4.2703932393657215e+03
5836:4.2703932393657215e+03
5837:4.2703932393657215e+03
5838:4.2703932393657215e+03
5839:4.2703932393657215e+03
5840:4.2703932393657215e+03
5841:4.2703932393657215e+03
5842:4.2703932393657215e+03
5843:4.2703932393657215e+03
5844:4.2703932393657215e+03
5845:4.2703932393657215e+03
5846:4.2703932393657215e+03
5847:4.2703932393657215e+03
5848:4.2703932393657215e+03
5849:4.2703932393657215e+03
5850:4.2703932393657215e+03
5851:4.2703932393657215e+03
5852:4.2703932393657215e+03
5853:4.2703932393657215e+03
5854:4.2703932393657215e+03
5855:4.2703932393657215e+03
5856:4.2703932393657215e+03
5857:4.2703932393657215e+03
5858:4.2703932393657215e+03

5859:-1.6174533611210272e+03
5860:-1.6174533611210272e+03
5861:-1.6174533611210272e+03
5862:-1.6174533611210272e+03
5863:-1.6174533611210272e+03
5864:-1.6174533611210272e+03
5865:-1.6174533611210272e+03
5866:-1.6174533611210272e+03
5867:-1.6174533611210272e+03
5868:-1.6174533611210272e+03
5869:-1.6174533611210272e+03
5870:-1.6174533611210272e+03
5871:-1.6174533611210272e+03
5872:-1.6174533611210272e+03
5873:-1.6174533611210272e+03
5874:-1.6174533611210272e+03
5875:-1.6174533611210272e+03
5876:-1.6174533611210272e+03
5877:-1.6174533611210272e+03
5878:-1.6174533611210272e+03
5879:-1.6174533611210272e+03
5880:-1.6174533611210272e+03
5881:-1.6174533611210272e+03
5882:-1.6174533611210272e+03
5883:-1.6174533611210272e+03
5884:-1.6174533611210272e+03
5885:-1.6174533611210272e+03

5886:-2.3684064533570531e+03
5887:-2.3684064533570531e+03
5888:-2.3684064533570531e+03
5889:-2.3684064533570531e+03
5890:-2.3684064533570531e+03
5891:-2.3684064533570531e+03
5892:-2.3684064533570531e+03
5893:-2.3684064533570531e+03
5894:-2.3684064533570531e+03
5895:-2.3684064533570531e+03
5896:-2.3684064533570531e+03
5897:-2.3684064533570531e+03
5898:-2.3684064533570531e+03
5899:-2.3684064533570531e+03
5900:-2.3684064533570531e+03
5901:-2.3684064533570531e+03
5902:-2.3684064533570531e+03
5903:-2.3684064533570531e+03
5904:-2.3684064533570531e+03
5905:-2.3684064533570531e+03
5906:-2.3684064533570531e+03
5907:-2.3684064533570531e+03
5908:-2.3684064533570531e+03
5909:-2.3684064533570531e+03
5910:-2.3684064533570531e+03
5911:-2.3684064533570531e+03
5912:-2.3684064533570531e+03

5913:-4.0776507615800379e+03
5914:-4.0776507615800379e+03
5915:-4.0776507615800379e+03
5916:-4.0776507615800379e+03
5917:-4.0776507615800379e+03
5918:-4.0776507615800379e+03
5919:-4.0776507615800379e+03
5920:-4.0776507615800379e+03
5921:-4.0776507615800379e+03
5922:-4.0776507615800379e+03
5923:-4.0776507615800379e+03
5924:-4.0776507615800379e+03
5925:-4.0776507615800379e+03
5926:-4.0776507615800379e+03
5927:-4.0776507615800379e+03
5928:-4.0776507615800379e+03
5929:-4.0776507615800379e+03
5930:-4.0776507615800379e+03
5931:-4.0776507615800379e+03
5932:-4.0776507615800379e+03
5933:-4.0776507615800379e+03
5934:-4.0776507615800379e+03
5935:-4.0776507615800379e+03
5936:-4.0776507615800379e+03
5937:-4.0776507615800379e+03
5938:-4.0776507615800379e+03
5939:-4.0776507615800379e+03

5940:3.5086732445936586e+03
5941:3.5086732445936586e+03
5942:3.5086732445936586e+03
5943:3.5086732445936586e+03
5944:3.5086732445936586e+03
5945:3.5086732445936586e+03
5946:3.5086732445936586e+03
5947:3.5086732445936586e+03
5948:3.5086732445936586e+03
5949:3.5086732445936586e+03
5950:3.5086732445936586e+03
5951:3.5086732445936586e+03
5952:3.5086732445936586e+03
5953:3.5086732445936586e+03
5954:3.5086732445936586e+03
5955:3.5086732445936586e+03
5956:3.5086732445936586e+03
5957:3.5086732445936586e+03
5958:3.5086732445936586e+03
5959:3.5086732445936586e+03
5960:3.5086732445936586e+03
5961:3.5086732445936586e+03
5962:3.5086732445936586e+03
5963:3.5086732445936586e+03
5964:3.5086732445936586e+03
5965:3.5086732445936586e+03
5966:3.5086732445936586e+03

5967:2.0807474773182676e+03
5968:2.0807474773182676e+03
5969:2.0807474773182676e+03
5970:2.0807474773182676e+03
5971:2.0807474773182676e+03
5972:2.0807474773182676e+03
5973:2.0807474773182676e+03
5974:2.0807474773182676e+03
5975:2.0807474773182676e+03
5976:2.0807474773182676e+03
5977:2.0807474773182676e+03
5978:2.0807474773182676e+03
5979:2.0807474773182676e+03
5980:2.0807474773182676e+03
5981:2.0807474773182676e+03
5982:2.0807474773182676e+03
5983:2.0807474773182676e+03
5984:2.0807474773182676e+03
5985:2.0807474773182676e+03
5986:2.0807474773182676e+03
5987:2.0807474773182676e+03
5988:2.0807474773182676e+03
5989:2.0807474773182676e+03
5990:2.0807474773182676e+03
5991:2.0807474773182676e+03
5992:2.0807474773182676e+03
5993:2.0807474773182676e+03

5994:-5.0257853173715703e+03
5995:-5.0257853173715703e+03
5996:-5.0257853173715703e+03
5997:-5.0257853173715703e+03
5998:-5.0257853173715703e+03
5999:-5.0257853173715703e+03
6000:-5.0257853173715703e+03
6001:-5.0257853173715703e+03
6002:-5.0257853173715703e+03
6003:-5.0257853173715703e+03
6004:-5.0257853173715703e+03
6005:-5.0257853173715703e+03
6006:-5.0257853173715703e+03
6007:-5.0257853173715703e+03
6008:-5.0257853173715703e+03
6009:-5.0257853173715703e+03
6010:-5.0257853173715703e+03
6011:-5.0257853173715703e+03
6012:-5.0257853173715703e+03
6013:-5.0257853173715703e+03
6014:-5.0257853173715703e+03
6015:-5.0257853173715703e+03
6016:-5.0257853173715703e+03
6017:-5.0257853173715703e+03
6018:-5.0257853173715703e+03
6019:-5.0257853173715703e+03
6020:-5.0257853173715703e+03

6021:-4.1930156914548144e+02
6022:-4.1930156914548144e+02
6023:-4.1930156914548144e+02
6024:-4.1930156914548144e+02
6025:-4.1930156914548144e+02
6026:-4.1930156914548144e+02
6027:-4.1930156914548144e+02
6028:-4.1930156914548144e+02
6029:-4.1930156914548144e+02
6030:-4.1930156914548144e+02
6031:-4.1930156914548144e+02
6032:-4.1930156914548144e+02
6033:-4.1930156914548144e+02
6034:-4.1930156914548144e+02
6035:-4.1930156914548144e+02
6036:-4.1930156914548144e+02
6037:-4.1930156914548144e+02
6038:-4.1930156914548144e+02
6039:-4.1930156914548144e+02
6040:-4.1930156914548144e+02
6041:-4.1930156914548144e+02
6042:-4.1930156914548144e+02
6043:-4.1930156914548144e+02
6044:-4.1930156914548144e+02
6045:-4.1930156914548144e+02
6046:-4.1930156914548144e+02
6047:-4.1930156914548144e+02

6048:-3.3519025263633880e+03
6049:-3.3519025263633880e+03
6050:-3.3519025263633880e+03
6051:-3.3519025263633880e+03
6052:-3.3519025263633880e+03
6053:-3.3519025263633880e+03
6054:-3.3519025263633880e+03
6055:-3.3519025263633880e+03
6056:-3.3519025263633880e+03
6057:-3.3519025263633880e+03
6058:-3.3519025263633880e+03
6059:-3.3519025263633880e+03
6060:-3.3519025263633880e+03
6061:-3.3519025263633880e+03
6062:-3.3519025263633880e+03
6063:-3.3519025263633880e+03
6064:-3.3519025263633880e+03
6065:-3.3519025263633880e+03
6066:-3.3519025263633880e+03
6067:-3.3519025263633880e+03
6068:-3.3519025263633880e+03
6069:-3.3519025263633880e+03
6070:-3.3519025263633880e+03
6071:-3.3519025263633880e+03
6072:-3.3519025263633880e+03
6073:-3.3519025263633880e+03
6074:-3.3519025263633880e+03

6075:2.3754888486949149e+03
6076:2.3754888486949149e+03
6077:2.3754888486949149e+03
6078:2.3754888486949149e+03
6079:2.3754888486949149e+03
6080:2.3754888486949149e+03
6081:2.3754888486949149e+03
6082:2.3754888486949149e+03
6083:2.3754888486949149e+03
6084:2.3754888486949149e+03
6085:2.3754888486949149e+03
6086:2.3754888486949149e+03
6087:2.3754888486949149e+03
6088:2.3754888486949149e+03
6089:2.3754888486949149e+03
6090:2.3754888486949149e+03
6091:2.3754888486949149e+03
6092:2.3754888486949149e+03
6093:2.3754888486949149e+03
6094:2.3754888486949149e+03
6095:2.3754888486949149e+03
6096:2.3754888486949149e+03
6097:2.3754888486949149e+03
6098:2.3754888486949149e+03
6099:2.3754888486949149e+03
6100:2.3754888486949149e+03
6101:2.3754888486949149e+03

6102:-3.5354053523682347e+02
6103:-3.5354053523682347e+02
6104:-3.5354053523682347e+02
6105:-3.5354053523682347e+02
6106:-3.5354053523682347e+02
6107:-3.5354053523682347e+02
6108:-3.5354053523682347e+02
6109:-3.5354053523682347e+02
6110:-3.5354053523682347e+02
6111:-3.5354053523682347e+02
6112:-3.5354053523682347e+02
6113:-3.5354053523682347e+02
6114:-3.5354053523682347e+02
6115:-3.5354053523682347e+02
6116:-3.5354053523682347e+02
6117:-3.5354053523682347e+02
6118:-3.5354053523682347e+02
6119:-3.5354053523682347e+02
6120:-3.5354053523682347e+02
6121:-3.5354053523682347e+02
6122:-3.5354053523682347e+02
6123:-3.5354053523682347e+02
6124:-3.5354053523682347e+02
6125:-3.5354053523682347e+02
6126:-3.5354053523682347e+02
6127:-3.5354053523682347e+02
6128:-3.5354053523682347e+02

6129:3.4093472761431428e+01
6130:3.4093472761431428e+01
6131:3.4093472761431428e+01
6132:3.4093472761431428e+01
6133:3.4093472761431428e+01
6134:3.4093472761431428e+01
6135:3.4093472761431428e+01
6136:3.4093472761431428e+01
6137:3.4093472761431428e+01
6138:3.4093472761431428e+01
6139:3.4093472761431428e+01
6140:3.4093472761431428e+01
6141:3.4093472761431428e+01
6142:3.4093472761431428e+01
6143:3.4093472761431428e+01
6144:3.4093472761431428e+01
6145:3.4093472761431428e+01
6146:3.4093472761431428e+01
6147:3.4093472761431428e+01
6148:3.4093472761431428e+01
6149:3.4093472761431428e+01
6150:3.4093472761431428e+01
6151:3.4093472761431428e+01
6152:3.4093472761431428e+01
6153:3.4093472761431428e+01
6154:3.4093472761431428e+01
6155:3.4093472761431428e+01

6156:-1.0608024341002533e+03
6157:-1.0608024341002533e+03
6158:-1.0608024341002533e+03
6159:-1.0608024341002533e+03
6160:-1.0608024341002533e+03
6161:-1.0608024341002533e+03
6162:-1.0608024341002533e+03
6163:-1.0608024341002533e+03
6164:-1.0608024341002533e+03
6165:-1.0608024341002533e+03
6166:-1.0608024341002533e+03
6167:-1.0608024341002533e+03
6168:-1.0608024341002533e+03
6169:-1.0608024341002533e+03
6170:-1.0608024341002533e+03
6171:-1.0608024341002533e+03
6172:-1.0608024341002533e+03
6173:-1.0608024341002533e+03
6174:-1.0608024341002533e+03
6175:-1.0608024341002533e+03
6176:-1.0608024341002533e+03
6177:-1.0608024341002533e+03
6178:-1.0608024341002533e+03
6179:-1.0608024341002533e+03
6180:-1.0608024341002533e+03
6181:-1.0608024341002533e+03
6182:-1.0608024341002533e+03

6183:-1.2915488687627019e+03
6184:-1.2915488687627019e+03
6185:-1.2915488687627019e+03
6186:-1.2915488687627019e+03
6187:-1.2915488687627019e+03
6188:-1.2915488687627019e+03
6189:-1.2915488687627019e+03
6190:-1.2915488687627019e+03
6191:-1.2915488687627019e+03
6192:-1.2915488687627019e+03
6193:-1.2915488687627019e+03
6194:-1.2915488687627019e+03
6195:-1.2915488687627019e+03
6196:-1.2915488687627019e+03
6197:-1.2915488687627019e+03
6198:-1.2915488687627019e+03
6199:-1.2915488687627019e+03
6200:-1.2915488687627019e+03
6201:-1.2915488687627019e+03
6202:-1.2915488687627019e+03
6203:-1.2915488687627019e+03
6204:-1.2915488687627019e+03
6205:-1.2915488687627019e+03
6206:-1.2915488687627019e+03
6207:-1.2915488687627019e+03
6208:-1.2915488687627019e+03
6209:-1.2915488687627019e+03

6210:3.6419777157333880e+02
6211:3.6419777157333880e+02
6212:3.6419777157333880e+02
6213:3.6419777157333880e+02
6214:3.6419777157333880e+02
6215:3.6419777157333880e+02
6216:3.6419777157333880e+02
6217:3.6419777157333880e+02
6218:3.6419777157333880e+02
6219:3.6419777157333880e+02
6220:3.6419777157333880e+02
6221:3.6419777157333880e+02
6222:3.6419777157333880e+02
6223:3.6419777157333880e+02
6224:3.6419777157333880e+02
6225:3.6419777157333880e+02
6226:3.6419777157333880e+02
6227:3.6419777157333880e+02
6228:3.6419777157333880e+02
6229:3.6419777157333880e+02
6230:3.6419777157333880e+02
6231:3.6419777157333880e+02
6232:3.6419777157333880e+02
6233:3.6419777157333880e+02
6234:3.6419777157333880e+02
6235:3.6419777157333880e+02
6236:3.6419777157333880e+02

6237:-2.8258270965433148e+03
6238:-2.8258270965433148e+03
6239:-2.8258270965433148e+03
6240:-2.8258270965433148e+03
6241:-2.8258270965433148e+03
6242:-2.8258270965433148e+03
6243:-2.8258270965433148e+03
6244:-2.8258270965433148e+03
6245:-2.8258270965433148e+03
6246:-2.8258270965433148e+03
6247:-2.8258270965433148e+03
6248:-2.8258270965433148e+03
6249:-2.8258270965433148e+03
6250:-2.8258270965433148e+03
6251:-2.8258270965433148e+03
6252:-2.8258270965433148e+03
6253:-2.8258270965433148e+03
6254:-2.8258270965433148e+03
6255:-2.8258270965433148e+03
6256:-2.8258270965433148e+03
6257:-2.8258270965433148e+03
6258:-2.8258270965433148e+03
6259:-2.8258270965433148e+03
6260:-2.8258270965433148e+03
6261:-2.8258270965433148e+03
6262:-2.8258270965433148e+03
6263:-2.8258270965433148e+03

6264:-3.4118331836884130e+02
6265:-3.4118331836884130e+02
6266:-3.4118331836884130e+02
6267:-3.4118331836884130e+02
6268:-3.4118331836884130e+02
6269:-3.4118331836884130e+02
6270:-3.4118331836884130e+02
6271:-3.4118331836884130e+02
6272:-3.4118331836884130e+02
6273:-3.4118331836884130e+02
6274:-3.4118331836884130e+02
6275:-3.4118331836884130e+02
6276:-3.4118331836884130e+02
6277:-3.4118331836884130e+02
6278:-3.4118331836884130e+02
6279:-3.4118331836884130e+02
6280:-3.4118331836884130e+02
6281:-3.4118331836884130e+02
6282:-3.4118331836884130e+02
6283:-3.4118331836884130e+02
6284:-3.4118331836884130e+02
6285:-3.4118331836884130e+02
6286:-3.4118331836884130e+02
6287:-3.4118331836884130e+02
6288:-3.4118331836884130e+02
6289:-3.4118331836884130e+02
6290:-3.4118331836884130e+02

6291:-2.6107128484743043e+03
6292:-2.6107128484743043e+03
6293:-2.6107128484743043e+03
6294:-2.6107128484743043e+03
6295:-2.6107128484743043e+03
6296:-2.6107128484743043e+03
6297:-2.6107128484743043e+03
6298:-2.6107128484743043e+03
6299:-2.6107128484743043e+03
6300:-2.6107128484743043e+03
6301:-2.6107128484743043e+03
6302:-2.6107128484743043e+03
6303:-2.6107128484743043e+03
6304:-2.6107128484743043e+03
6305:-2.6107128484743043e+03
6306:-2.6107128484743043e+03
6307:-2.6107128484743043e+03
6308:-2.6107128484743043e+03
6309:-2.6107128484743043e+03
6310:-2.6107128484743043e+03
6311:-2.6107128484743043e+03
6312:-2.6107128484743043e+03
6313:-2.6107128484743043e+03
6314:-2.6107128484743043e+03
6315:-2.6107128484743043e+03
6316:-2.6107128484743043e+03
6317:-2.6107128484743043e+03

6318:-2.9320571873066406e+03
6319:-2.9320571873066406e+03
6320:-2.9320571873066406e+03
6321:-2.9320571873066406e+03
6322:-2.9320571873066406e+03
6323:-2.9320571873066406e+03
6324:-2.9320571873066406e+03
6325:-2.9320571873066406e+03
6326:-2.9320571873066406e+03
6327:-2.9320571873066406e+03
6328:-2.9320571873066406e+03
6329:-2.9320571873066406e+03
6330:-2.9320571873066406e+03
6331:-2.9320571873066406e+03
6332:-2.9320571873066406e+03
6333:-2.9320571873066406e+03
6334:-2.9320571873066406e+03
6335:-2.9320571873066406e+03
6336:-2.9320571873066406e+03
6337:-2.9320571873066406e+03
6338:-2.9320571873066406e+03
6339:-2.9320571873066406e+03
6340:-2.9320571873066406e+03
6341:-2.9320571873066406e+03
6342:-2.9320571873066406e+03
6343:-2.9320571873066406e+03
6344:-2.9320571873066406e+03

6345:-3.4498076659512981e+03
6346:-3.4498076659512981e+03
6347:-3.4498076659512981e+03
6348:-3.4498076659512981e+03
6349:-3.4498076659512981e+03
6350:-3.4498076659512981e+03
6351:-3.4498076659512981e+03
6352:-3.4498076659512981e+03
6353:-3.4498076659512981e+03
6354:-3.4498076659512981e+03
6355:-3.4498076659512981e+03
6356:-3.4498076659512981e+03
6357:-3.4498076659512981e+03
6358:-3.4498076659512981e+03
6359:-3.4498076659512981e+03
6360:-3.4498076659512981e+03
6361:-3.4498076659512981e+03
6362:-3.4498076659512981e+03
6363:-3.4498076659512981e+03
6364:-3.4498076659512981e+03
6365:-3.4498076659512981e+03
6366:-3.4498076659512981e+03
6367:-3.4498076659512981e+03
6368:-3.4498076659512981e+03
6369:-3.4498076659512981e+03
6370:-3.4498076659512981e+03
6371:-3.4498076659512981e+03

6372:1.0556315883165221e+03
6373:1.0556315883165221e+03
6374:1.0556315883165221e+03
6375:1.0556315883165221e+03
6376:1.0556315883165221e+03
6377:1.0556315883165221e+03
6378:1.0556315883165221e+03
6379:1.0556315883165221e+03
6380:1.0556315883165221e+03
6381:1.0556315883165221e+03
6382:1.0556315883165221e+03
6383:1.0556315883165221e+03
6384:1.0556315883165221e+03
6385:1.0556315883165221e+03
6386:1.0556315883165221e+03
6387:1.0556315883165221e+03
6388:1.0556315883165221e+03
6389:1.0556315883165221e+03
6390:1.0556315883165221e+03
6391:1.0556315883165221e+03
6392:1.0556315883165221e+03
6393:1.0556315883165221e+03
6394:1.0556315883165221e+03
6395:1.0556315883165221e+03
6396:1.0556315883165221e+03
6397:1.0556315883165221e+03
6398:1.0556315883165221e+03

6399:1.0641154752471600e+03
6400:1.0641154752471600e+03
6401:1.0641154752471600e+03
6402:1.0641154752471600e+03
6403:1.0641154752471600e+03
6404:1.0641154752471600e+03
6405:1.0641154752471600e+03
6406:1.0641154752471600e+03
6407:1.0641154752471600e+03
6408:1.0641154752471600e+03
6409:1.0641154752471600e+03
6410:1.0641154752471600e+03
6411:1.0641154752471600e+03
6412:1.0641154752471600e+03
6413:1.0641154752471600e+03
6414:1.0641154752471600e+03
6415:1.0641154752471600e+03
6416:1.0641154752471600e+03
6417:1.0641154752471600e+03
6418:1.0641154752471600e+03
6419:1.0641154752471600e+03
6420:1.0641154752471600e+03
6421:1.0641154752471600e+03
6422:1.0641154752471600e+03
6423:1.0641154752471600e+03
6424:1.0641154752471600e+03
6425:1.0641154752471600e+03

6426:-7.2269516308030798e+03
6427:-7.2269516308030798e+03
6428:-7.2269516308030798e+03
6429:-7.2269516308030798e+03
6430:-7.2269516308030798e+03
6431:-7.2269516308030798e+03
6432:-7.2269516308030798e+03
6433:-7.2269516308030798e+03
6434:-7.2269516308030798e+03
6435:-7.2269516308030798e+03
6436:-7.2269516308030798e+03
6437:-7.2269516308030798e+03
6438:-7.2269516308030798e+03
6439:-7.2269516308030798e+03
6440:-7.2269516308030798e+03
6441:-7.2269516308030798e+03
6442:-7.2269516308030798e+03
6443:-7.2269516308030798e+03
6444:-7.2269516308030798e+03
6445:-7.2269516308030798e+03
6446:-7.2269516308030798e+03
6447:-7.2269516308030798e+03
6448:-7.2269516308030798e+03
6449:-7.2269516308030798e+03
6450:-7.2269516308030798e+03
6451:-7.2269516308030798e+03
6452:-7.2269516308030798e+03

6453:-2.0312984311674268e+03
6454:-2.0312984311674268e+03
6455:-2.0312984311674268e+03
6456:-2.0312984311674268e+03
6457:-2.0312984311674268e+03
6458:-2.0312984311674268e+03
6459:-2.0312984311674268e+03
6460:-2.0312984311674268e+03
6461:-2.0312984311674268e+03
6462:-2.0312984311674268e+03
6463:-2.0312984311674268e+03
6464:-2.0312984311674268e+03
6465:-2.0312984311674268e+03
6466:-2.0312984311674268e+03
6467:-2.0312984311674268e+03
6468:-2.0312984311674268e+03
6469:-2.0312984311674268e+03
6470:-2.0312984311674268e+03
6471:-2.0312984311674268e+03
6472:-2.0312984311674268e+03
6473:-2.0312984311674268e+03
6474:-2.0312984311674268e+03
6475:-2.0312984311674268e+03
6476:-2.0312984311674268e+03
6477:-2.0312984311674268e+03
6478:-2.0312984311674268e+03
6479:-2.0312984311674268e+03

6480:1.6471025601709144e+02
6481:1.6471025601709144e+02
6482:1.6471025601709144e+02
6483:1.6471025601709144e+02
6484:1.6471025601709144e+02
6485:1.6471025601709144e+02
6486:1.6471025601709144e+02
6487:1.6471025601709144e+02
6488:1.6471025601709144e+02
6489:1.6471025601709144e+02
6490:1.6471025601709144e+02
6491:1.6471025601709144e+02
6492:1.6471025601709144e+02
6493:1.6471025601709144e+02
6494:1.6471025601709144e+02
6495:1.6471025601709144e+02
6496:1.6471025601709144e+02
6497:1.6471025601709144e+02
6498:1.6471025601709144e+02
6499:1.6471025601709144e+02
6500:1.6471025601709144e+02
6501:1.6471025601709144e+02
6502:1.6471025601709144e+02
6503:1.6471025601709144e+02
6504:1.6471025601709144e+02
6505:1.6471025601709144e+02
6506:1.6471025601709144e+02

6507:7.2751631651994212e+03
6508:7.2751631651994212e+03
6509:7.2751631651994212e+03
6510:7.2751631651994212e+03
6511:7.2751631651994212e+03
6512:7.2751631651994212e+03
6513:7.2751631651994212e+03
6514:7.2751631651994212e+03
6515:7.2751631651994212e+03
6516:7.2751631651994212e+03
6517:7.2751631651994212e+03
6518:7.2751631651994212e+03
6519:7.2751631651994212e+03
6520:7.2751631651994212e+03
6521:7.2751631651994212e+03
6522:7.2751631651994212e+03
6523:7.2751631651994212e+03
6524:7.2751631651994212e+03
6525:7.2751631651994212e+03
6526:7.2751631651994212e+03
6527:7.2751631651994212e+03
6528:7.2751631651994212e+03
6529:7.2751631651994212e+03
6530:7.2751631651994212e+03
6531:7.2751631651994212e+03
6532:7.2751631651994212e+03
6533:7.2751631651994212e+03

6534:-1.1970858959986867e+03
6535:-1.1970858959986867e+03
6536:-1.1970858959986867e+03
6537:-1.1970858959986867e+03
6538:-1.1970858959986867e+03
6539:-1.1970858959986867e+03
6540:-1.1970858959986867e+03
6541:-1.1970858959986867e+03
6542:-1.1970858959986867e+03
6543:-1.1970858959986867e+03
6544:-1.1970858959986867e+03
6545:-1.1970858959986867e+03
6546:-1.1970858959986867e+03
6547:-1.1970858959986867e+03
6548:-1.1970858959986867e+03
6549:-1.1970858959986867e+03
6550:-1.1970858959986867e+03
6551:-1.1970858959986867e+03
6552:-1.1970858959986867e+03
6553:-1.1970858959986867e+03
6554:-1.1970858959986867e+03
6555:-1.1970858959986867e+03
6556:-1.1970858959986867e+03
6557:-1.1970858959986867e+03
6558:-1.1970858959986867e+03
6559:-1.1970858959986867e+03
6560:-1.1970858959986867e+03

6561:1.3529841969175920e+03
6562:1.3529841969175920e+03
6563:1.3529841969175920e+03
6564:1.3529841969175920e+03
6565:1.3529841969175920e+03
6566:1.3529841969175920e+03
6567:1.3529841969175920e+03
6568:1.3529841969175920e+03
6569:1.3529841969175920e+03
6570:1.3529841969175920e+03
6571:1.3529841969175920e+03
6572:1.3529841969175920e+03
6573:1.3529841969175920e+03
6574:1.3529841969175920e+03
6575:1.3529841969175920e+03
6576:1.3529841969175920e+03
6577:1.3529841969175920e+03
6578:1.3529841969175920e+03
6579:1.3529841969175920e+03
6580:1.3529841969175920e+03
6581:1.3529841969175920e+03
6582:1.3529841969175920e+03
6583:1.3529841969175920e+03
6584:1.3529841969175920e+03
6585:1.3529841969175920e+03
6586:1.3529841969175920e+03
6587:1.3529841969175920e+03

6588:-4.9829074883783633e+03
6589:-4.9829074883783633e+03
6590:-4.9829074883783633e+03
6591:-4.9829074883783633e+03
6592:-4.9829074883783633e+03
6593:-4.9829074883783633e+03
6594:-4.9829074883783633e+03
6595:-4.9829074883783633e+03
6596:-4.9829074883783633e+03
6597:-4.9829074883783633e+03
6598:-4.9829074883783633e+03
6599:-4.9829074883783633e+03
6600:-4.9829074883783633e+03
6601:-4.9829074883783633e+03
6602:-4.9829074883783633e+03
6603:-4.9829074883783633e+03
6604:-4.9829074883783633e+03
6605:-4.9829074883783633e+03
6606:-4.9829074883783633e+03
6607:-4.9829074883783633e+03
6608:-4.9829074883783633e+03
6609:-4.9829074883783633e+03
6610:-4.9829074883783633e+03
6611:-4.9829074883783633e+03
6612:-4.9829074883783633e+03
6613:-4.9829074883783633e+03
6614:-4.9829074883783633e+03

6615:1.0281527054495871e+03
6616:1.0281527054495871e+03
6617:1.0281527054495871e+03
6618:1.0281527054495871e+03
6619:1.0281527054495871e+03
6620:1.0281527054495871e+03
6621:1.0281527054495871e+03
6622:1.0281527054495871e+03
6623:1.0281527054495871e+03
6624:1.0281527054495871e+03
6625:1.0281527054495871e+03
6626:1.0281527054495871e+03
6627:1.0281527054495871e+03
6628:1.0281527054495871e+03
6629:1.0281527054495871e+03
6630:1.0281527054495871e+03
6631:1.0281527054495871e+03
6632:1.0281527054495871e+03
6633:1.0281527054495871e+03
6634:1.0281527054495871e+03
6635:1.0281527054495871e+03
6636:1.0281527054495871e+03
6637:1.0281527054495871e+03
6638:1.0281527054495871e+03
6639:1.0281527054495871e+03
6640:1.0281527054495871e+03
6641:1.0281527054495871e+03

6642:-7.0253959205525206e+01
6643:-7.0253959205525206e+01
6644:-7.0253959205525206e+01
6645:-7.0253959205525206e+01
6646:-7.0253959205525206e+01
6647:-7.0253959205525206e+01
6648:-7.0253959205525206e+01
6649:-7.0253959205525206e+01
6650:-7.0253959205525206e+01
6651:-7.0253959205525206e+01
6652:-7.0253959205525206e+01
6653:-7.0253959205525206e+01
6654:-7.0253959205525206e+01
6655:-7.0253959205525206e+01
6656:-7.0253959205525206e+01
6657:-7.0253959205525206e+01
6658:-7.0253959205525206e+01
6659:-7.0253959205525206e+01
6660:-7.0253959205525206e+01
6661:-7.0253959205525206e+01
6662:-7.0253959205525206e+01
6663:-7.0253959205525206e+01
6664:-7.0253959205525206e+01
6665:-7.0253959205525206e+01
6666:-7.0253959205525206e+01
6667:-7.0253959205525206e+01
6668:-7.0253959205525206e+01

6669:-2.4746986523537493e+02
6670:-2.4746986523537493e+02
6671:-2.4746986523537493e+02
6672:-2.4746986523537493e+02
6673:-2.4746986523537493e+02
6674:-2.4746986523537493e+02
6675:-2.4746986523537493e+02
6676:-2.4746986523537493e+02
6677:-2.4746986523537493e+02
6678:-2.4746986523537493e+02
6679:-2.4746986523537493e+02
6680:-2.4746986523537493e+02
6681:-2.4746986523537493e+02
6682:-2.4746986523537493e+02
6683:-2.4746986523537493e+02
6684:-2.4746986523537493e+02
6685:-2.4746986523537493e+02
6686:-2.4746986523537493e+02
6687:-2.4746986523537493e+02
6688:-2.4746986523537493e+02
6689:-2.4746986523537493e+02
6690:-2.4746986523537493e+02
6691:-2.4746986523537493e+02
6692:-2.4746986523537493e+02
6693:-2.4746986523537493e+02
6694:-2.4746986523537493e+02
6695:-2.4746986523537493e+02

6696:-3.9440829649157117e+03
6697:-3.9440829649157117e+03
6698:-3.9440829649157117e+03
6699:-3.9440829649157117e+03
6700:-3.9440829649157117e+03
6701:-3.9440829649157117e+03
6702:-3.9440829649157117e+03
6703:-3.9440829649157117e+03
6704:-3.9440829649157117e+03
6705:-3.9440829649157117e+03
6706:-3.9440829649157117e+03
6707:-3.9440829649157117e+03
6708:-3.9440829649157117e+03
6709:-3.9440829649157117e+03
6710:-3.9440829649157117e+03
6711:-3.9440829649157117e+03
6712:-3.9440829649157117e+03
6713:-3.9440829649157117e+03
6714:-3.9440829649157117e+03
6715:-3.9440829649157117e+03
6716:-3.9440829649157117e+03
6717:-3.9440829649157117e+03
6718:-3.9440829649157117e+03
6719:-3.9440829649157117e+03
6720:-3.9440829649157117e+03
6721:-3.9440829649157117e+03
6722:-3.9440829649157117e+03

6723:-1.4657216675091533e+03
6724:-1.4657216675091533e+03
6725:-1.4657216675091533e+03
6726:-1.4657216675091533e+03
6727:-1.4657216675091533e+03
6728:-1.4657216675091533e+03
6729:-1.4657216675091533e+03
6730:-1.4657216675091533e+03
6731:-1.4657216675091533e+03
6732:-1.4657216675091533e+03
6733:-1.4657216675091533e+03
6734:-1.4657216675091533e+03
6735:-1.4657216675091533e+03
6736:-1.4657216675091533e+03
6737:-1.4657216675091533e+03
6738:-1.4657216675091533e+03
6739:-1.4657216675091533e+03
6740:-1.4657216675091533e+03
6741:-1.4657216675091533e+03
6742:-1.4657216675091533e+03
6743:-1.4657216675091533e+03
6744:-1.4657216675091533e+03
6745:-1.4657216675091533e+03
6746:-1.4657216675091533e+03
6747:-1.4657216675091533e+03
6748:-1.4657216675091533e+03
6749:-1.4657216675091533e+03

6750:1.7285872728225424e+03
6751:1.7285872728225424e+03
6752:1.7285872728225424e+03
6753:1.7285872728225424e+03
6754:1.7285872728225424e+03
6755:1.7285872728225424e+03
6756:1.7285872728225424e+03
6757:1.7285872728225424e+03
6758:1.7285872728225424e+03
6759:1.7285872728225424e+03
6760:1.7285872728225424e+03
6761:1.7285872728225424e+03
6762:1.7285872728225424e+03
6763:1.7285872728225424e+03
6764:1.7285872728225424e+03
6765:1.7285872728225424e+03
6766:1.7285872728225424e+03
6767:1.7285872728225424e+03
6768:1.7285872728225424e+03
6769:1.7285872728225424e+03
6770:1.7285872728225424e+03
6771:1.7285872728225424e+03
6772:1.7285872728225424e+03
6773:1.7285872728225424e+03
6774:1.7285872728225424e+03
6775:1.7285872728225424e+03
6776:1.7285872728225424e+03

6777:1.4976155497957356e+01
6778:1.4976155497957356e+01
6779:1.4976155497957356e+01
6780:1.4976155497957356e+01
6781:1.4976155497957356e+01
6782:1.4976155497957356e+01
6783:1.4976155497957356e+01
6784:1.4976155497957356e+01
6785:1.4976155497957356e+01
6786:1.4976155497957356e+01
6787:1.4976155497957356e+01
6788:1.4976155497957356e+01
6789:1.4976155497957356e+01
6790:1.4976155497957356e+01
6791:1.4976155497957356e+01
6792:1.4976155497957356e+01
6793:1.4976155497957356e+01
6794:1.4976155497957356e+01
6795:1.4976155497957356e+01
6796:1.4976155497957356e+01
6797:1.4976155497957356e+01
6798:1.4976155497957356e+01
6799:1.4976155497957356e+01
6800:1.4976155497957356e+01
6801:1.4976155497957356e+01
6802:1.4976155497957356e+01
6803:1.4976155497957356e+01

6804:-2.8044324553055108e+03
6805:-2.8044324553055108e+03
6806:-2.8044324553055108e+03
6807:-2.8044324553055108e+03
6808:-2.8044324553055108e+03
6809:-2.8044324553055108e+03
6810:-2.8044324553055108e+03
6811:-2.8044324553055108e+03
6812:-2.8044324553055108e+03
6813:-2.8044324553055108e+03
6814:-2.8044324553055108e+03
6815:-2.8044324553055108e+03
6816:-2.8044324553055108e+03
6817:-2.8044324553055108e+03
6818:-2.8044324553055108e+03
6819:-2.8044324553055108e+03
6820:-2.8044324553055108e+03
6821:-2.8044324553055108e+03
6822:-2.8044324553055108e+03
6823:-2.8044324553055108e+03
6824:-2.8044324553055108e+03
6825:-2.8044324553055108e+03
6826:-2.8044324553055108e+03
6827:-2.8044324553055108e+03
6828:-2.8044324553055108e+03
6829:-2.8044324553055108e+03
6830:-2.8044324553055108e+03

6831:-4.6086528313110020e+03
6832:-4.6086528313110020e+03
6833:-4.6086528313110020e+03
6834:-4.6086528313110020e+03
6835:-4.6086528313110020e+03
6836:-4.6086528313110020e+03
6837:-4.6086528313110020e+03
6838:-4.6086528313110020e+03
6839:-4.6086528313110020e+03
6840:-4.6086528313110020e+03
6841:-4.6086528313110020e+03
6842:-4.6086528313110020e+03
6843:-4.6086528313110020e+03
6844:-4.6086528313110020e+03
6845:-4.6086528313110020e+03
6846:-4.6086528313110020e+03
6847:-4.6086528313110020e+03
6848:-4.6086528313110020e+03
6849:-4.6086528313110020e+03
6850:-4.6086528313110020e+03
6851:-4.6086528313110020e+03
6852:-4.6086528313110020e+03
6853:-4.6086528313110020e+03
6854:-4.6086528313110020e+03
6855:-4.6086528313110020e+03
6856:-4.6086528313110020e+03
6857:-4.6086528313110020e+03

6858:2.1533068208863297e+03
6859:2.1533068208863297e+03
6860:2.1533068208863297e+03
6861:2.1533068208863297e+03
6862:2.1533068208863297e+03
6863:2.1533068208863297e+03
6864:2.1533068208863297e+03
6865:2.1533068208863297e+03
6866:2.1533068208863297e+03
6867:2.1533068208863297e+03
6868:2.1533068208863297e+03
6869:2.1533068208863297e+03
6870:2.1533068208863297e+03
6871:2.1533068208863297e+03
6872:2.1533068208863297e+03
6873:2.1533068208863297e+03
6874:2.1533068208863297e+03
6875:2.1533068208863297e+03
6876:2.1533068208863297e+03
6877:2.1533068208863297e+03
6878:2.1533068208863297e+03
6879:2.1533068208863297e+03
6880:2.1533068208863297e+03
6881:2.1533068208863297e+03
6882:2.1533068208863297e+03
6883:2.1533068208863297e+03
6884:2.1533068208863297e+03

6885:-1.5353248297920702e+03
6886:-1.5353248297920702e+03
6887:-1.5353248297920702e+03
6888:-1.5353248297920702e+03
6889:-1.5353248297920702e+03
6890:-1.5353248297920702e+03
6891:-1.5353248297920702e+03
6892:-1.5353248297920702e+03
6893:-1.5353248297920702e+03
6894:-1.5353248297920702e+03
6895:-1.5353248297920702e+03
6896:-1.5353248297920702e+03
6897:-1.5353248297920702e+03
6898:-1.5353248297920702e+03
6899:-1.5353248297920702e+03
6900:-1.5353248297920702e+03
6901:-1.5353248297920702e+03
6902:-1.5353248297920702e+03
6903:-1.5353248297920702e+03
6904:-1.5353248297920702e+03
6905:-1.5353248297920702e+03
6906:-1.5353248297920702e+03
6907:-1.5353248297920702e+03
6908:-1.5353248297920702e+03
6909:-1.5353248297920702e+03
6910:-1.5353248297920702e+03
6911:-1.5353248297920702e+03

6912:-2.2061716592498333e+03
6913:-2.2061716592498333e+03
6914:-2.2061716592498333e+03
6915:-2.2061716592498333e+03
6916:-2.2061716592498333e+03
6917:-2.2061716592498333e+03
6918:-2.2061716592498333e+03
6919:-2.2061716592498333e+03
6920:-2.2061716592498333e+03
6921:-2.2061716592498333e+03
6922:-2.2061716592498333e+03
6923:-2.2061716592498333e+03
6924:-2.2061716592498333e+03
6925:-2.2061716592498333e+03
6926:-2.2061716592498333e+03
6927:-2.2061716592498333e+03
6928:-2.2061716592498333e+03
6929:-2.2061716592498333e+03
6930:-2.2061716592498333e+03
6931:-2.2061716592498333e+03
6932:-2.2061716592498333e+03
6933:-2.2061716592498333e+03
6934:-2.2061716592498333e+03
6935:-2.2061716592498333e+03
6936:-2.2061716592498333e+03
6937:-2.2061716592498333e+03
6938:-2.2061716592498333e+03

6939:-2.3692272699159057e+03
6940:-2.3692272699159057e+03
6941:-2.3692272699159057e+03
6942:-2.3692272699159057e+03
6943:-2.3692272699159057e+03
6944:-2.3692272699159057e+03
6945:-2.3692272699159057e+03
6946:-2.3692272699159057e+03
6947:-2.3692272699159057e+03
6948:-2.3692272699159057e+03
6949:-2.3692272699159057e+03
6950:-2.3692272699159057e+03
6951:-2.3692272699159057e+03
6952:-2.3692272699159057e+03
6953:-2.3692272699159057e+03
6954:-2.3692272699159057e+03
6955:-2.3692272699159057e+03
6956:-2.3692272699159057e+03
6957:-2.3692272699159057e+03
6958:-2.3692272699159057e+03
6959:-2.3692272699159057e+03
6960:-2.3692272699159057e+03
6961:-2.3692272699159057e+03
6962:-2.3692272699159057e+03
6963:-2.3692272699159057e+03
6964:-2.3692272699159057e+03
6965:-2.3692272699159057e+03

6966:2.0782493306149368e+03
6967:2.0782493306149368e+03
6968:2.0782493306149368e+03
6969:2.0782493306149368e+03
6970:2.0782493306149368e+03
6971:2.0782493306149368e+03
6972:2.0782493306149368e+03
6973:2.0782493306149368e+03
6974:2.0782493306149368e+03
6975:2.0782493306149368e+03
6976:2.0782493306149368e+03
6977:2.0782493306149368e+03
6978:2.0782493306149368e+03
6979:2.0782493306149368e+03
6980:2.0782493306149368e+03
6981:2.0782493306149368e+03
6982:2.0782493306149368e+03
6983:2.0782493306149368e+03
6984:2.0782493306149368e+03
6985:2.0782493306149368e+03
6986:2.0782493306149368e+03
6987:2.0782493306149368e+03
6988:2.0782493306149368e+03
6989:2.0782493306149368e+03
6990:2.0782493306149368e+03
6991:2.0782493306149368e+03
6992:2.0782493306149368e+03

6993:-8.4180164130742048e+02
6994:-8.4180164130742048e+02
6995:-8.4180164130742048e+02
6996:-8.4180164130742048e+02
6997:-8.4180164130742048e+02
6998:-8.4180164130742048e+02
6999:-8.4180164130742048e+02
7000:-8.4180164130742048e+02
7001:-8.4180164130742048e+02
7002:-8.4180164130742048e+02
7003:-8.4180164130742048e+02
7004:-8.4180164130742048e+02
7005:-8.4180164130742048e+02
7006:-8.4180164130742048e+02
7007:-8.4180164130742048e+02
7008:-8.4180164130742048e+02
7009:-8.4180164130742048e+02
7010:-8.4180164130742048e+02
7011:-8.4180164130742048e+02
7012:-8.4180164130742048e+02
7013:-8.4180164130742048e+02
7014:-8.4180164130742048e+02
7015:-8.4180164130742048e+02
7016:-8.4180164130742048e+02
7017:-8.4180164130742048e+02
7018:-8.4180164130742048e+02
7019:-8.4180164130742048e+02

7020:-1.5542360887147518e+03
7021:-1.5542360887147518e+03
7022:-1.5542360887147518e+03
7023:-1.5542360887147518e+03
7024:-1.5542360887147518e+03
7025:-1.5542360887147518e+03
7026:-1.5542360887147518e+03
7027:-1.5542360887147518e+03
7028:-1.5542360887147518e+03
7029:-1.5542360887147518e+03
7030:-1.5542360887147518e+03
7031:-1.5542360887147518e+03
7032:-1.5542360887147518e+03
7033:-1.5542360887147518e+03
7034:-1.5542360887147518e+03
7035:-1.5542360887147518e+03
7036:-1.5542360887147518e+03
7037:-1.5542360887147518e+03
7038:-1.5542360887147518e+03
7039:-1.5542360887147518e+03
7040:-1.5542360887147518e+03
7041:-1.5542360887147518e+03
7042:-1.5542360887147518e+03
7043:-1.5542360887147518e+03
7044:-1.5542360887147518e+03
7045:-1.5542360887147518e+03
7046:-1.5542360887147518e+03

7047:-2.4493830466059349e+03
7048:-2.4493830466059349e+03
7049:-2.4493830466059349e+03
7050:-2.4493830466059349e+03
7051:-2.4493830466059349e+03
7052:-2.4493830466059349e+03
7053:-2.4493830466059349e+03
7054:-2.4493830466059349e+03
7055:-2.4493830466059349e+03
7056:-2.4493830466059349e+03
7057:-2.4493830466059349e+03
7058:-2.4493830466059349e+03
7059:-2.4493830466059349e+03
7060:-2.4493830466059349e+03
7061:-2.4493830466059349e+03
7062:-2.4493830466059349e+03
7063:-2.4493830466059349e+03
7064:-2.4493830466059349e+03
7065:-2.4493830466059349e+03
7066:-2.4493830466059349e+03
7067:-2.4493830466059349e+03
7068:-2.4493830466059349e+03
7069:-2.4493830466059349e+03
7070:-2.4493830466059349e+03
7071:-2.4493830466059349e+03
7072:-2.4493830466059349e+03
7073:-2.4493830466059349e+03




