label=Stress yz
num_items=7074

0:4.3087828402329660e+02
1:4.3087828402329660e+02
2:4.3087828402329660e+02
3:4.3087828402329660e+02
4:4.3087828402329660e+02
5:4.3087828402329660e+02
6:4.3087828402329660e+02
7:4.3087828402329660e+02
8:4.3087828402329660e+02
9:4.3087828402329660e+02
10:4.3087828402329660e+02
11:4.3087828402329660e+02
12:4.3087828402329660e+02
13:4.3087828402329660e+02
14:4.3087828402329660e+02
15:4.3087828402329660e+02
16:4.3087828402329660e+02
17:4.3087828402329660e+02
18:4.3087828402329660e+02
19:4.3087828402329660e+02
20:4.3087828402329660e+02
21:4.3087828402329660e+02
22:4.3087828402329660e+02
23:4.3087828402329660e+02
24:4.3087828402329660e+02
25:4.3087828402329660e+02
26:4.3087828402329660e+02

27:5.7666870264972749e+02
28:5.7666870264972749e+02
29:5.7666870264972749e+02
30:5.7666870264972749e+02
31:5.7666870264972749e+02
32:5.7666870264972749e+02
33:5.7666870264972749e+02
34:5.7666870264972749e+02
35:5.7666870264972749e+02
36:5.7666870264972749e+02
37:5.7666870264972749e+02
38:5.7666870264972749e+02
39:5.7666870264972749e+02
40:5.7666870264972749e+02
41:5.7666870264972749e+02
42:5.7666870264972749e+02
43:5.7666870264972749e+02
44:5.7666870264972749e+02
45:5.7666870264972749e+02
46:5.7666870264972749e+02
47:5.7666870264972749e+02
48:5.7666870264972749e+02
49:5.7666870264972749e+02
50:5.7666870264972749e+02
51:5.7666870264972749e+02
52:5.7666870264972749e+02
53:5.7666870264972749e+02

54:2.6430113266032583e+02
55:2.6430113266032583e+02
56:2.6430113266032583e+02
57:2.6430113266032583e+02
58:2.6430113266032583e+02
59:2.6430113266032583e+02
60:2.6430113266032583e+02
61:2.6430113266032583e+02
62:2.6430113266032583e+02
63:2.6430113266032583e+02
64:2.6430113266032583e+02
65:2.6430113266032583e+02
66:2.6430113266032583e+02
67:2.6430113266032583e+02
68:2.6430113266032583e+02
69:2.6430113266032583e+02
70:2.6430113266032583e+02
71:2.6430113266032583e+02
72:2.6430113266032583e+02
73:2.6430113266032583e+02
74:2.6430113266032583e+02
75:2.6430113266032583e+02
76:2.6430113266032583e+02
77:2.6430113266032583e+02
78:2.6430113266032583e+02
79:2.6430113266032583e+02
80:2.6430113266032583e+02

81:5.4092805414874908e+02
82:5.4092805414874908e+02
83:5.4092805414874908e+02
84:5.4092805414874908e+02
85:5.4092805414874908e+02
86:5.4092805414874908e+02
87:5.4092805414874908e+02
88:5.4092805414874908e+02
89:5.4092805414874908e+02
90:5.4092805414874908e+02
91:5.4092805414874908e+02
92:5.4092805414874908e+02
93:5.4092805414874908e+02
94:5.4092805414874908e+02
95:5.4092805414874908e+02
96:5.4092805414874908e+02
97:5.4092805414874908e+02
98:5.4092805414874908e+02
99:5.4092805414874908e+02
100:5.4092805414874908e+02
101:5.4092805414874908e+02
102:5.4092805414874908e+02
103:5.4092805414874908e+02
104:5.4092805414874908e+02
105:5.4092805414874908e+02
106:5.4092805414874908e+02
107:5.4092805414874908e+02

108:3.3465984327996500e+02
109:3.3465984327996500e+02
110:3.3465984327996500e+02
111:3.3465984327996500e+02
112:3.3465984327996500e+02
113:3.3465984327996500e+02
114:3.3465984327996500e+02
115:3.3465984327996500e+02
116:3.3465984327996500e+02
117:3.3465984327996500e+02
118:3.3465984327996500e+02
119:3.3465984327996500e+02
120:3.3465984327996500e+02
121:3.3465984327996500e+02
122:3.3465984327996500e+02
123:3.3465984327996500e+02
124:3.3465984327996500e+02
125:3.3465984327996500e+02
126:3.3465984327996500e+02
127:3.3465984327996500e+02
128:3.3465984327996500e+02
129:3.3465984327996500e+02
130:3.3465984327996500e+02
131:3.3465984327996500e+02
132:3.3465984327996500e+02
133:3.3465984327996500e+02
134:3.3465984327996500e+02

135:5.6770951187261403e+02
136:5.6770951187261403e+02
137:5.6770951187261403e+02
138:5.6770951187261403e+02
139:5.6770951187261403e+02
140:5.6770951187261403e+02
141:5.6770951187261403e+02
142:5.6770951187261403e+02
143:5.6770951187261403e+02
144:5.6770951187261403e+02
145:5.6770951187261403e+02
146:5.6770951187261403e+02
147:5.6770951187261403e+02
148:5.6770951187261403e+02
149:5.6770951187261403e+02
150:5.6770951187261403e+02
151:5.6770951187261403e+02
152:5.6770951187261403e+02
153:5.6770951187261403e+02
154:5.6770951187261403e+02
155:5.6770951187261403e+02
156:5.6770951187261403e+02
157:5.6770951187261403e+02
158:5.6770951187261403e+02
159:5.6770951187261403e+02
160:5.6770951187261403e+02
161:5.6770951187261403e+02

162:-4.7837378962215161e+02
163:-4.7837378962215161e+02
164:-4.7837378962215161e+02
165:-4.7837378962215161e+02
166:-4.7837378962215161e+02
167:-4.7837378962215161e+02
168:-4.7837378962215161e+02
169:-4.7837378962215161e+02
170:-4.7837378962215161e+02
171:-4.7837378962215161e+02
172:-4.7837378962215161e+02
173:-4.7837378962215161e+02
174:-4.7837378962215161e+02
175:-4.7837378962215161e+02
176:-4.7837378962215161e+02
177:-4.7837378962215161e+02
178:-4.7837378962215161e+02
179:-4.7837378962215161e+02
180:-4.7837378962215161e+02
181:-4.7837378962215161e+02
182:-4.7837378962215161e+02
183:-4.7837378962215161e+02
184:-4.7837378962215161e+02
185:-4.7837378962215161e+02
186:-4.7837378962215161e+02
187:-4.7837378962215161e+02
188:-4.7837378962215161e+02

189:-1.2654225914634895e+02
190:-1.2654225914634895e+02
191:-1.2654225914634895e+02
192:-1.2654225914634895e+02
193:-1.2654225914634895e+02
194:-1.2654225914634895e+02
195:-1.2654225914634895e+02
196:-1.2654225914634895e+02
197:-1.2654225914634895e+02
198:-1.2654225914634895e+02
199:-1.2654225914634895e+02
200:-1.2654225914634895e+02
201:-1.2654225914634895e+02
202:-1.2654225914634895e+02
203:-1.2654225914634895e+02
204:-1.2654225914634895e+02
205:-1.2654225914634895e+02
206:-1.2654225914634895e+02
207:-1.2654225914634895e+02
208:-1.2654225914634895e+02
209:-1.2654225914634895e+02
210:-1.2654225914634895e+02
211:-1.2654225914634895e+02
212:-1.2654225914634895e+02
213:-1.2654225914634895e+02
214:-1.2654225914634895e+02
215:-1.2654225914634895e+02

216:-8.9330559352374252e+01
217:-8.9330559352374252e+01
218:-8.9330559352374252e+01
219:-8.9330559352374252e+01
220:-8.9330559352374252e+01
221:-8.9330559352374252e+01
222:-8.9330559352374252e+01
223:-8.9330559352374252e+01
224:-8.9330559352374252e+01
225:-8.9330559352374252e+01
226:-8.9330559352374252e+01
227:-8.9330559352374252e+01
228:-8.9330559352374252e+01
229:-8.9330559352374252e+01
230:-8.9330559352374252e+01
231:-8.9330559352374252e+01
232:-8.9330559352374252e+01
233:-8.9330559352374252e+01
234:-8.9330559352374252e+01
235:-8.9330559352374252e+01
236:-8.9330559352374252e+01
237:-8.9330559352374252e+01
238:-8.9330559352374252e+01
239:-8.9330559352374252e+01
240:-8.9330559352374252e+01
241:-8.9330559352374252e+01
242:-8.9330559352374252e+01

243:2.0683245680227955e+02
244:2.0683245680227955e+02
245:2.0683245680227955e+02
246:2.0683245680227955e+02
247:2.0683245680227955e+02
248:2.0683245680227955e+02
249:2.0683245680227955e+02
250:2.0683245680227955e+02
251:2.0683245680227955e+02
252:2.0683245680227955e+02
253:2.0683245680227955e+02
254:2.0683245680227955e+02
255:2.0683245680227955e+02
256:2.0683245680227955e+02
257:2.0683245680227955e+02
258:2.0683245680227955e+02
259:2.0683245680227955e+02
260:2.0683245680227955e+02
261:2.0683245680227955e+02
262:2.0683245680227955e+02
263:2.0683245680227955e+02
264:2.0683245680227955e+02
265:2.0683245680227955e+02
266:2.0683245680227955e+02
267:2.0683245680227955e+02
268:2.0683245680227955e+02
269:2.0683245680227955e+02

270:-5.6124442136670730e+01
271:-5.6124442136670730e+01
272:-5.6124442136670730e+01
273:-5.6124442136670730e+01
274:-5.6124442136670730e+01
275:-5.6124442136670730e+01
276:-5.6124442136670730e+01
277:-5.6124442136670730e+01
278:-5.6124442136670730e+01
279:-5.6124442136670730e+01
280:-5.6124442136670730e+01
281:-5.6124442136670730e+01
282:-5.6124442136670730e+01
283:-5.6124442136670730e+01
284:-5.6124442136670730e+01
285:-5.6124442136670730e+01
286:-5.6124442136670730e+01
287:-5.6124442136670730e+01
288:-5.6124442136670730e+01
289:-5.6124442136670730e+01
290:-5.6124442136670730e+01
291:-5.6124442136670730e+01
292:-5.6124442136670730e+01
293:-5.6124442136670730e+01
294:-5.6124442136670730e+01
295:-5.6124442136670730e+01
296:-5.6124442136670730e+01

297:1.4771146317120062e+02
298:1.4771146317120062e+02
299:1.4771146317120062e+02
300:1.4771146317120062e+02
301:1.4771146317120062e+02
302:1.4771146317120062e+02
303:1.4771146317120062e+02
304:1.4771146317120062e+02
305:1.4771146317120062e+02
306:1.4771146317120062e+02
307:1.4771146317120062e+02
308:1.4771146317120062e+02
309:1.4771146317120062e+02
310:1.4771146317120062e+02
311:1.4771146317120062e+02
312:1.4771146317120062e+02
313:1.4771146317120062e+02
314:1.4771146317120062e+02
315:1.4771146317120062e+02
316:1.4771146317120062e+02
317:1.4771146317120062e+02
318:1.4771146317120062e+02
319:1.4771146317120062e+02
320:1.4771146317120062e+02
321:1.4771146317120062e+02
322:1.4771146317120062e+02
323:1.4771146317120062e+02

324:1.3051840323237019e+02
325:1.3051840323237019e+02
326:1.3051840323237019e+02
327:1.3051840323237019e+02
328:1.3051840323237019e+02
329:1.3051840323237019e+02
330:1.3051840323237019e+02
331:1.3051840323237019e+02
332:1.3051840323237019e+02
333:1.3051840323237019e+02
334:1.3051840323237019e+02
335:1.3051840323237019e+02
336:1.3051840323237019e+02
337:1.3051840323237019e+02
338:1.3051840323237019e+02
339:1.3051840323237019e+02
340:1.3051840323237019e+02
341:1.3051840323237019e+02
342:1.3051840323237019e+02
343:1.3051840323237019e+02
344:1.3051840323237019e+02
345:1.3051840323237019e+02
346:1.3051840323237019e+02
347:1.3051840323237019e+02
348:1.3051840323237019e+02
349:1.3051840323237019e+02
350:1.3051840323237019e+02

351:2.7417388746121976e+00
352:2.7417388746121976e+00
353:2.7417388746121976e+00
354:2.7417388746121976e+00
355:2.7417388746121976e+00
356:2.7417388746121976e+00
357:2.7417388746121976e+00
358:2.7417388746121976e+00
359:2.7417388746121976e+00
360:2.7417388746121976e+00
361:2.7417388746121976e+00
362:2.7417388746121976e+00
363:2.7417388746121976e+00
364:2.7417388746121976e+00
365:2.7417388746121976e+00
366:2.7417388746121976e+00
367:2.7417388746121976e+00
368:2.7417388746121976e+00
369:2.7417388746121976e+00
370:2.7417388746121976e+00
371:2.7417388746121976e+00
372:2.7417388746121976e+00
373:2.7417388746121976e+00
374:2.7417388746121976e+00
375:2.7417388746121976e+00
376:2.7417388746121976e+00
377:2.7417388746121976e+00

378:-2.2339824554002753e+01
379:-2.2339824554002753e+01
380:-2.2339824554002753e+01
381:-2.2339824554002753e+01
382:-2.2339824554002753e+01
383:-2.2339824554002753e+01
384:-2.2339824554002753e+01
385:-2.2339824554002753e+01
386:-2.2339824554002753e+01
387:-2.2339824554002753e+01
388:-2.2339824554002753e+01
389:-2.2339824554002753e+01
390:-2.2339824554002753e+01
391:-2.2339824554002753e+01
392:-2.2339824554002753e+01
393:-2.2339824554002753e+01
394:-2.2339824554002753e+01
395:-2.2339824554002753e+01
396:-2.2339824554002753e+01
397:-2.2339824554002753e+01
398:-2.2339824554002753e+01
399:-2.2339824554002753e+01
400:-2.2339824554002753e+01
401:-2.2339824554002753e+01
402:-2.2339824554002753e+01
403:-2.2339824554002753e+01
404:-2.2339824554002753e+01

405:7.9012259645564214e+01
406:7.9012259645564214e+01
407:7.9012259645564214e+01
408:7.9012259645564214e+01
409:7.9012259645564214e+01
410:7.9012259645564214e+01
411:7.9012259645564214e+01
412:7.9012259645564214e+01
413:7.9012259645564214e+01
414:7.9012259645564214e+01
415:7.9012259645564214e+01
416:7.9012259645564214e+01
417:7.9012259645564214e+01
418:7.9012259645564214e+01
419:7.9012259645564214e+01
420:7.9012259645564214e+01
421:7.9012259645564214e+01
422:7.9012259645564214e+01
423:7.9012259645564214e+01
424:7.9012259645564214e+01
425:7.9012259645564214e+01
426:7.9012259645564214e+01
427:7.9012259645564214e+01
428:7.9012259645564214e+01
429:7.9012259645564214e+01
430:7.9012259645564214e+01
431:7.9012259645564214e+01

432:-1.3761899389878780e+01
433:-1.3761899389878780e+01
434:-1.3761899389878780e+01
435:-1.3761899389878780e+01
436:-1.3761899389878780e+01
437:-1.3761899389878780e+01
438:-1.3761899389878780e+01
439:-1.3761899389878780e+01
440:-1.3761899389878780e+01
441:-1.3761899389878780e+01
442:-1.3761899389878780e+01
443:-1.3761899389878780e+01
444:-1.3761899389878780e+01
445:-1.3761899389878780e+01
446:-1.3761899389878780e+01
447:-1.3761899389878780e+01
448:-1.3761899389878780e+01
449:-1.3761899389878780e+01
450:-1.3761899389878780e+01
451:-1.3761899389878780e+01
452:-1.3761899389878780e+01
453:-1.3761899389878780e+01
454:-1.3761899389878780e+01
455:-1.3761899389878780e+01
456:-1.3761899389878780e+01
457:-1.3761899389878780e+01
458:-1.3761899389878780e+01

459:-1.2040750620441572e+02
460:-1.2040750620441572e+02
461:-1.2040750620441572e+02
462:-1.2040750620441572e+02
463:-1.2040750620441572e+02
464:-1.2040750620441572e+02
465:-1.2040750620441572e+02
466:-1.2040750620441572e+02
467:-1.2040750620441572e+02
468:-1.2040750620441572e+02
469:-1.2040750620441572e+02
470:-1.2040750620441572e+02
471:-1.2040750620441572e+02
472:-1.2040750620441572e+02
473:-1.2040750620441572e+02
474:-1.2040750620441572e+02
475:-1.2040750620441572e+02
476:-1.2040750620441572e+02
477:-1.2040750620441572e+02
478:-1.2040750620441572e+02
479:-1.2040750620441572e+02
480:-1.2040750620441572e+02
481:-1.2040750620441572e+02
482:-1.2040750620441572e+02
483:-1.2040750620441572e+02
484:-1.2040750620441572e+02
485:-1.2040750620441572e+02

486:1.5466027720257180e+03
487:1.5466027720257180e+03
488:1.5466027720257180e+03
489:1.5466027720257180e+03
490:1.5466027720257180e+03
491:1.5466027720257180e+03
492:1.5466027720257180e+03
493:1.5466027720257180e+03
494:1.5466027720257180e+03
495:1.5466027720257180e+03
496:1.5466027720257180e+03
497:1.5466027720257180e+03
498:1.5466027720257180e+03
499:1.5466027720257180e+03
500:1.5466027720257180e+03
501:1.5466027720257180e+03
502:1.5466027720257180e+03
503:1.5466027720257180e+03
504:1.5466027720257180e+03
505:1.5466027720257180e+03
506:1.5466027720257180e+03
507:1.5466027720257180e+03
508:1.5466027720257180e+03
509:1.5466027720257180e+03
510:1.5466027720257180e+03
511:1.5466027720257180e+03
512:1.5466027720257180e+03

513:1.2069226928966639e+03
514:1.2069226928966639e+03
515:1.2069226928966639e+03
516:1.2069226928966639e+03
517:1.2069226928966639e+03
518:1.2069226928966639e+03
519:1.2069226928966639e+03
520:1.2069226928966639e+03
521:1.2069226928966639e+03
522:1.2069226928966639e+03
523:1.2069226928966639e+03
524:1.2069226928966639e+03
525:1.2069226928966639e+03
526:1.2069226928966639e+03
527:1.2069226928966639e+03
528:1.2069226928966639e+03
529:1.2069226928966639e+03
530:1.2069226928966639e+03
531:1.2069226928966639e+03
532:1.2069226928966639e+03
533:1.2069226928966639e+03
534:1.2069226928966639e+03
535:1.2069226928966639e+03
536:1.2069226928966639e+03
537:1.2069226928966639e+03
538:1.2069226928966639e+03
539:1.2069226928966639e+03

540:6.8942086360321332e+02
541:6.8942086360321332e+02
542:6.8942086360321332e+02
543:6.8942086360321332e+02
544:6.8942086360321332e+02
545:6.8942086360321332e+02
546:6.8942086360321332e+02
547:6.8942086360321332e+02
548:6.8942086360321332e+02
549:6.8942086360321332e+02
550:6.8942086360321332e+02
551:6.8942086360321332e+02
552:6.8942086360321332e+02
553:6.8942086360321332e+02
554:6.8942086360321332e+02
555:6.8942086360321332e+02
556:6.8942086360321332e+02
557:6.8942086360321332e+02
558:6.8942086360321332e+02
559:6.8942086360321332e+02
560:6.8942086360321332e+02
561:6.8942086360321332e+02
562:6.8942086360321332e+02
563:6.8942086360321332e+02
564:6.8942086360321332e+02
565:6.8942086360321332e+02
566:6.8942086360321332e+02

567:6.7449547868930199e+02
568:6.7449547868930199e+02
569:6.7449547868930199e+02
570:6.7449547868930199e+02
571:6.7449547868930199e+02
572:6.7449547868930199e+02
573:6.7449547868930199e+02
574:6.7449547868930199e+02
575:6.7449547868930199e+02
576:6.7449547868930199e+02
577:6.7449547868930199e+02
578:6.7449547868930199e+02
579:6.7449547868930199e+02
580:6.7449547868930199e+02
581:6.7449547868930199e+02
582:6.7449547868930199e+02
583:6.7449547868930199e+02
584:6.7449547868930199e+02
585:6.7449547868930199e+02
586:6.7449547868930199e+02
587:6.7449547868930199e+02
588:6.7449547868930199e+02
589:6.7449547868930199e+02
590:6.7449547868930199e+02
591:6.7449547868930199e+02
592:6.7449547868930199e+02
593:6.7449547868930199e+02

594:8.1545729284592926e+02
595:8.1545729284592926e+02
596:8.1545729284592926e+02
597:8.1545729284592926e+02
598:8.1545729284592926e+02
599:8.1545729284592926e+02
600:8.1545729284592926e+02
601:8.1545729284592926e+02
602:8.1545729284592926e+02
603:8.1545729284592926e+02
604:8.1545729284592926e+02
605:8.1545729284592926e+02
606:8.1545729284592926e+02
607:8.1545729284592926e+02
608:8.1545729284592926e+02
609:8.1545729284592926e+02
610:8.1545729284592926e+02
611:8.1545729284592926e+02
612:8.1545729284592926e+02
613:8.1545729284592926e+02
614:8.1545729284592926e+02
615:8.1545729284592926e+02
616:8.1545729284592926e+02
617:8.1545729284592926e+02
618:8.1545729284592926e+02
619:8.1545729284592926e+02
620:8.1545729284592926e+02

621:6.0304224958897225e+02
622:6.0304224958897225e+02
623:6.0304224958897225e+02
624:6.0304224958897225e+02
625:6.0304224958897225e+02
626:6.0304224958897225e+02
627:6.0304224958897225e+02
628:6.0304224958897225e+02
629:6.0304224958897225e+02
630:6.0304224958897225e+02
631:6.0304224958897225e+02
632:6.0304224958897225e+02
633:6.0304224958897225e+02
634:6.0304224958897225e+02
635:6.0304224958897225e+02
636:6.0304224958897225e+02
637:6.0304224958897225e+02
638:6.0304224958897225e+02
639:6.0304224958897225e+02
640:6.0304224958897225e+02
641:6.0304224958897225e+02
642:6.0304224958897225e+02
643:6.0304224958897225e+02
644:6.0304224958897225e+02
645:6.0304224958897225e+02
646:6.0304224958897225e+02
647:6.0304224958897225e+02

648:3.3716367910623012e+02
649:3.3716367910623012e+02
650:3.3716367910623012e+02
651:3.3716367910623012e+02
652:3.3716367910623012e+02
653:3.3716367910623012e+02
654:3.3716367910623012e+02
655:3.3716367910623012e+02
656:3.3716367910623012e+02
657:3.3716367910623012e+02
658:3.3716367910623012e+02
659:3.3716367910623012e+02
660:3.3716367910623012e+02
661:3.3716367910623012e+02
662:3.3716367910623012e+02
663:3.3716367910623012e+02
664:3.3716367910623012e+02
665:3.3716367910623012e+02
666:3.3716367910623012e+02
667:3.3716367910623012e+02
668:3.3716367910623012e+02
669:3.3716367910623012e+02
670:3.3716367910623012e+02
671:3.3716367910623012e+02
672:3.3716367910623012e+02
673:3.3716367910623012e+02
674:3.3716367910623012e+02

675:3.3792223008608443e+02
676:3.3792223008608443e+02
677:3.3792223008608443e+02
678:3.3792223008608443e+02
679:3.3792223008608443e+02
680:3.3792223008608443e+02
681:3.3792223008608443e+02
682:3.3792223008608443e+02
683:3.3792223008608443e+02
684:3.3792223008608443e+02
685:3.3792223008608443e+02
686:3.3792223008608443e+02
687:3.3792223008608443e+02
688:3.3792223008608443e+02
689:3.3792223008608443e+02
690:3.3792223008608443e+02
691:3.3792223008608443e+02
692:3.3792223008608443e+02
693:3.3792223008608443e+02
694:3.3792223008608443e+02
695:3.3792223008608443e+02
696:3.3792223008608443e+02
697:3.3792223008608443e+02
698:3.3792223008608443e+02
699:3.3792223008608443e+02
700:3.3792223008608443e+02
701:3.3792223008608443e+02

702:-7.7580086446868691e+01
703:-7.7580086446868691e+01
704:-7.7580086446868691e+01
705:-7.7580086446868691e+01
706:-7.7580086446868691e+01
707:-7.7580086446868691e+01
708:-7.7580086446868691e+01
709:-7.7580086446868691e+01
710:-7.7580086446868691e+01
711:-7.7580086446868691e+01
712:-7.7580086446868691e+01
713:-7.7580086446868691e+01
714:-7.7580086446868691e+01
715:-7.7580086446868691e+01
716:-7.7580086446868691e+01
717:-7.7580086446868691e+01
718:-7.7580086446868691e+01
719:-7.7580086446868691e+01
720:-7.7580086446868691e+01
721:-7.7580086446868691e+01
722:-7.7580086446868691e+01
723:-7.7580086446868691e+01
724:-7.7580086446868691e+01
725:-7.7580086446868691e+01
726:-7.7580086446868691e+01
727:-7.7580086446868691e+01
728:-7.7580086446868691e+01

729:-1.4904508116185306e+02
730:-1.4904508116185306e+02
731:-1.4904508116185306e+02
732:-1.4904508116185306e+02
733:-1.4904508116185306e+02
734:-1.4904508116185306e+02
735:-1.4904508116185306e+02
736:-1.4904508116185306e+02
737:-1.4904508116185306e+02
738:-1.4904508116185306e+02
739:-1.4904508116185306e+02
740:-1.4904508116185306e+02
741:-1.4904508116185306e+02
742:-1.4904508116185306e+02
743:-1.4904508116185306e+02
744:-1.4904508116185306e+02
745:-1.4904508116185306e+02
746:-1.4904508116185306e+02
747:-1.4904508116185306e+02
748:-1.4904508116185306e+02
749:-1.4904508116185306e+02
750:-1.4904508116185306e+02
751:-1.4904508116185306e+02
752:-1.4904508116185306e+02
753:-1.4904508116185306e+02
754:-1.4904508116185306e+02
755:-1.4904508116185306e+02

756:1.5067969867485149e+02
757:1.5067969867485149e+02
758:1.5067969867485149e+02
759:1.5067969867485149e+02
760:1.5067969867485149e+02
761:1.5067969867485149e+02
762:1.5067969867485149e+02
763:1.5067969867485149e+02
764:1.5067969867485149e+02
765:1.5067969867485149e+02
766:1.5067969867485149e+02
767:1.5067969867485149e+02
768:1.5067969867485149e+02
769:1.5067969867485149e+02
770:1.5067969867485149e+02
771:1.5067969867485149e+02
772:1.5067969867485149e+02
773:1.5067969867485149e+02
774:1.5067969867485149e+02
775:1.5067969867485149e+02
776:1.5067969867485149e+02
777:1.5067969867485149e+02
778:1.5067969867485149e+02
779:1.5067969867485149e+02
780:1.5067969867485149e+02
781:1.5067969867485149e+02
782:1.5067969867485149e+02

783:1.2573670566808890e+02
784:1.2573670566808890e+02
785:1.2573670566808890e+02
786:1.2573670566808890e+02
787:1.2573670566808890e+02
788:1.2573670566808890e+02
789:1.2573670566808890e+02
790:1.2573670566808890e+02
791:1.2573670566808890e+02
792:1.2573670566808890e+02
793:1.2573670566808890e+02
794:1.2573670566808890e+02
795:1.2573670566808890e+02
796:1.2573670566808890e+02
797:1.2573670566808890e+02
798:1.2573670566808890e+02
799:1.2573670566808890e+02
800:1.2573670566808890e+02
801:1.2573670566808890e+02
802:1.2573670566808890e+02
803:1.2573670566808890e+02
804:1.2573670566808890e+02
805:1.2573670566808890e+02
806:1.2573670566808890e+02
807:1.2573670566808890e+02
808:1.2573670566808890e+02
809:1.2573670566808890e+02

810:-3.9123438746515710e+01
811:-3.9123438746515710e+01
812:-3.9123438746515710e+01
813:-3.9123438746515710e+01
814:-3.9123438746515710e+01
815:-3.9123438746515710e+01
816:-3.9123438746515710e+01
817:-3.9123438746515710e+01
818:-3.9123438746515710e+01
819:-3.9123438746515710e+01
820:-3.9123438746515710e+01
821:-3.9123438746515710e+01
822:-3.9123438746515710e+01
823:-3.9123438746515710e+01
824:-3.9123438746515710e+01
825:-3.9123438746515710e+01
826:-3.9123438746515710e+01
827:-3.9123438746515710e+01
828:-3.9123438746515710e+01
829:-3.9123438746515710e+01
830:-3.9123438746515710e+01
831:-3.9123438746515710e+01
832:-3.9123438746515710e+01
833:-3.9123438746515710e+01
834:-3.9123438746515710e+01
835:-3.9123438746515710e+01
836:-3.9123438746515710e+01

837:-1.5615466954521079e+02
838:-1.5615466954521079e+02
839:-1.5615466954521079e+02
840:-1.5615466954521079e+02
841:-1.5615466954521079e+02
842:-1.5615466954521079e+02
843:-1.5615466954521079e+02
844:-1.5615466954521079e+02
845:-1.5615466954521079e+02
846:-1.5615466954521079e+02
847:-1.5615466954521079e+02
848:-1.5615466954521079e+02
849:-1.5615466954521079e+02
850:-1.5615466954521079e+02
851:-1.5615466954521079e+02
852:-1.5615466954521079e+02
853:-1.5615466954521079e+02
854:-1.5615466954521079e+02
855:-1.5615466954521079e+02
856:-1.5615466954521079e+02
857:-1.5615466954521079e+02
858:-1.5615466954521079e+02
859:-1.5615466954521079e+02
860:-1.5615466954521079e+02
861:-1.5615466954521079e+02
862:-1.5615466954521079e+02
863:-1.5615466954521079e+02

864:8.0732967380692159e+01
865:8.0732967380692159e+01
866:8.0732967380692159e+01
867:8.0732967380692159e+01
868:8.0732967380692159e+01
869:8.0732967380692159e+01
870:8.0732967380692159e+01
871:8.0732967380692159e+01
872:8.0732967380692159e+01
873:8.0732967380692159e+01
874:8.0732967380692159e+01
875:8.0732967380692159e+01
876:8.0732967380692159e+01
877:8.0732967380692159e+01
878:8.0732967380692159e+01
879:8.0732967380692159e+01
880:8.0732967380692159e+01
881:8.0732967380692159e+01
882:8.0732967380692159e+01
883:8.0732967380692159e+01
884:8.0732967380692159e+01
885:8.0732967380692159e+01
886:8.0732967380692159e+01
887:8.0732967380692159e+01
888:8.0732967380692159e+01
889:8.0732967380692159e+01
890:8.0732967380692159e+01

891:-1.8864393514728686e+00
892:-1.8864393514728686e+00
893:-1.8864393514728686e+00
894:-1.8864393514728686e+00
895:-1.8864393514728686e+00
896:-1.8864393514728686e+00
897:-1.8864393514728686e+00
898:-1.8864393514728686e+00
899:-1.8864393514728686e+00
900:-1.8864393514728686e+00
901:-1.8864393514728686e+00
902:-1.8864393514728686e+00
903:-1.8864393514728686e+00
904:-1.8864393514728686e+00
905:-1.8864393514728686e+00
906:-1.8864393514728686e+00
907:-1.8864393514728686e+00
908:-1.8864393514728686e+00
909:-1.8864393514728686e+00
910:-1.8864393514728686e+00
911:-1.8864393514728686e+00
912:-1.8864393514728686e+00
913:-1.8864393514728686e+00
914:-1.8864393514728686e+00
915:-1.8864393514728686e+00
916:-1.8864393514728686e+00
917:-1.8864393514728686e+00

918:1.8660062036068805e+02
919:1.8660062036068805e+02
920:1.8660062036068805e+02
921:1.8660062036068805e+02
922:1.8660062036068805e+02
923:1.8660062036068805e+02
924:1.8660062036068805e+02
925:1.8660062036068805e+02
926:1.8660062036068805e+02
927:1.8660062036068805e+02
928:1.8660062036068805e+02
929:1.8660062036068805e+02
930:1.8660062036068805e+02
931:1.8660062036068805e+02
932:1.8660062036068805e+02
933:1.8660062036068805e+02
934:1.8660062036068805e+02
935:1.8660062036068805e+02
936:1.8660062036068805e+02
937:1.8660062036068805e+02
938:1.8660062036068805e+02
939:1.8660062036068805e+02
940:1.8660062036068805e+02
941:1.8660062036068805e+02
942:1.8660062036068805e+02
943:1.8660062036068805e+02
944:1.8660062036068805e+02

945:2.3858015070100296e+02
946:2.3858015070100296e+02
947:2.3858015070100296e+02
948:2.3858015070100296e+02
949:2.3858015070100296e+02
950:2.3858015070100296e+02
951:2.3858015070100296e+02
952:2.3858015070100296e+02
953:2.3858015070100296e+02
954:2.3858015070100296e+02
955:2.3858015070100296e+02
956:2.3858015070100296e+02
957:2.3858015070100296e+02
958:2.3858015070100296e+02
959:2.3858015070100296e+02
960:2.3858015070100296e+02
961:2.3858015070100296e+02
962:2.3858015070100296e+02
963:2.3858015070100296e+02
964:2.3858015070100296e+02
965:2.3858015070100296e+02
966:2.3858015070100296e+02
967:2.3858015070100296e+02
968:2.3858015070100296e+02
969:2.3858015070100296e+02
970:2.3858015070100296e+02
971:2.3858015070100296e+02

972:-4.4401577485860045e+01
973:-4.4401577485860045e+01
974:-4.4401577485860045e+01
975:-4.4401577485860045e+01
976:-4.4401577485860045e+01
977:-4.4401577485860045e+01
978:-4.4401577485860045e+01
979:-4.4401577485860045e+01
980:-4.4401577485860045e+01
981:-4.4401577485860045e+01
982:-4.4401577485860045e+01
983:-4.4401577485860045e+01
984:-4.4401577485860045e+01
985:-4.4401577485860045e+01
986:-4.4401577485860045e+01
987:-4.4401577485860045e+01
988:-4.4401577485860045e+01
989:-4.4401577485860045e+01
990:-4.4401577485860045e+01
991:-4.4401577485860045e+01
992:-4.4401577485860045e+01
993:-4.4401577485860045e+01
994:-4.4401577485860045e+01
995:-4.4401577485860045e+01
996:-4.4401577485860045e+01
997:-4.4401577485860045e+01
998:-4.4401577485860045e+01

999:-2.2845267532301617e+02
1000:-2.2845267532301617e+02
1001:-2.2845267532301617e+02
1002:-2.2845267532301617e+02
1003:-2.2845267532301617e+02
1004:-2.2845267532301617e+02
1005:-2.2845267532301617e+02
1006:-2.2845267532301617e+02
1007:-2.2845267532301617e+02
1008:-2.2845267532301617e+02
1009:-2.2845267532301617e+02
1010:-2.2845267532301617e+02
1011:-2.2845267532301617e+02
1012:-2.2845267532301617e+02
1013:-2.2845267532301617e+02
1014:-2.2845267532301617e+02
1015:-2.2845267532301617e+02
1016:-2.2845267532301617e+02
1017:-2.2845267532301617e+02
1018:-2.2845267532301617e+02
1019:-2.2845267532301617e+02
1020:-2.2845267532301617e+02
1021:-2.2845267532301617e+02
1022:-2.2845267532301617e+02
1023:-2.2845267532301617e+02
1024:-2.2845267532301617e+02
1025:-2.2845267532301617e+02

1026:-2.6079248212886944e+02
1027:-2.6079248212886944e+02
1028:-2.6079248212886944e+02
1029:-2.6079248212886944e+02
1030:-2.6079248212886944e+02
1031:-2.6079248212886944e+02
1032:-2.6079248212886944e+02
1033:-2.6079248212886944e+02
1034:-2.6079248212886944e+02
1035:-2.6079248212886944e+02
1036:-2.6079248212886944e+02
1037:-2.6079248212886944e+02
1038:-2.6079248212886944e+02
1039:-2.6079248212886944e+02
1040:-2.6079248212886944e+02
1041:-2.6079248212886944e+02
1042:-2.6079248212886944e+02
1043:-2.6079248212886944e+02
1044:-2.6079248212886944e+02
1045:-2.6079248212886944e+02
1046:-2.6079248212886944e+02
1047:-2.6079248212886944e+02
1048:-2.6079248212886944e+02
1049:-2.6079248212886944e+02
1050:-2.6079248212886944e+02
1051:-2.6079248212886944e+02
1052:-2.6079248212886944e+02

1053:-1.2472013515084220e+02
1054:-1.2472013515084220e+02
1055:-1.2472013515084220e+02
1056:-1.2472013515084220e+02
1057:-1.2472013515084220e+02
1058:-1.2472013515084220e+02
1059:-1.2472013515084220e+02
1060:-1.2472013515084220e+02
1061:-1.2472013515084220e+02
1062:-1.2472013515084220e+02
1063:-1.2472013515084220e+02
1064:-1.2472013515084220e+02
1065:-1.2472013515084220e+02
1066:-1.2472013515084220e+02
1067:-1.2472013515084220e+02
1068:-1.2472013515084220e+02
1069:-1.2472013515084220e+02
1070:-1.2472013515084220e+02
1071:-1.2472013515084220e+02
1072:-1.2472013515084220e+02
1073:-1.2472013515084220e+02
1074:-1.2472013515084220e+02
1075:-1.2472013515084220e+02
1076:-1.2472013515084220e+02
1077:-1.2472013515084220e+02
1078:-1.2472013515084220e+02
1079:-1.2472013515084220e+02

1080:6.4818406953564181e+02
1081:6.4818406953564181e+02
1082:6.4818406953564181e+02
1083:6.4818406953564181e+02
1084:6.4818406953564181e+02
1085:6.4818406953564181e+02
1086:6.4818406953564181e+02
1087:6.4818406953564181e+02
1088:6.4818406953564181e+02
1089:6.4818406953564181e+02
1090:6.4818406953564181e+02
1091:6.4818406953564181e+02
1092:6.4818406953564181e+02
1093:6.4818406953564181e+02
1094:6.4818406953564181e+02
1095:6.4818406953564181e+02
1096:6.4818406953564181e+02
1097:6.4818406953564181e+02
1098:6.4818406953564181e+02
1099:6.4818406953564181e+02
1100:6.4818406953564181e+02
1101:6.4818406953564181e+02
1102:6.4818406953564181e+02
1103:6.4818406953564181e+02
1104:6.4818406953564181e+02
1105:6.4818406953564181e+02
1106:6.4818406953564181e+02

1107:6.1735520748314241e+02
1108:6.1735520748314241e+02
1109:6.1735520748314241e+02
1110:6.1735520748314241e+02
1111:6.1735520748314241e+02
1112:6.1735520748314241e+02
1113:6.1735520748314241e+02
1114:6.1735520748314241e+02
1115:6.1735520748314241e+02
1116:6.1735520748314241e+02
1117:6.1735520748314241e+02
1118:6.1735520748314241e+02
1119:6.1735520748314241e+02
1120:6.1735520748314241e+02
1121:6.1735520748314241e+02
1122:6.1735520748314241e+02
1123:6.1735520748314241e+02
1124:6.1735520748314241e+02
1125:6.1735520748314241e+02
1126:6.1735520748314241e+02
1127:6.1735520748314241e+02
1128:6.1735520748314241e+02
1129:6.1735520748314241e+02
1130:6.1735520748314241e+02
1131:6.1735520748314241e+02
1132:6.1735520748314241e+02
1133:6.1735520748314241e+02

1134:3.1779630493690621e+02
1135:3.1779630493690621e+02
1136:3.1779630493690621e+02
1137:3.1779630493690621e+02
1138:3.1779630493690621e+02
1139:3.1779630493690621e+02
1140:3.1779630493690621e+02
1141:3.1779630493690621e+02
1142:3.1779630493690621e+02
1143:3.1779630493690621e+02
1144:3.1779630493690621e+02
1145:3.1779630493690621e+02
1146:3.1779630493690621e+02
1147:3.1779630493690621e+02
1148:3.1779630493690621e+02
1149:3.1779630493690621e+02
1150:3.1779630493690621e+02
1151:3.1779630493690621e+02
1152:3.1779630493690621e+02
1153:3.1779630493690621e+02
1154:3.1779630493690621e+02
1155:3.1779630493690621e+02
1156:3.1779630493690621e+02
1157:3.1779630493690621e+02
1158:3.1779630493690621e+02
1159:3.1779630493690621e+02
1160:3.1779630493690621e+02

1161:3.7660697518932699e+02
1162:3.7660697518932699e+02
1163:3.7660697518932699e+02
1164:3.7660697518932699e+02
1165:3.7660697518932699e+02
1166:3.7660697518932699e+02
1167:3.7660697518932699e+02
1168:3.7660697518932699e+02
1169:3.7660697518932699e+02
1170:3.7660697518932699e+02
1171:3.7660697518932699e+02
1172:3.7660697518932699e+02
1173:3.7660697518932699e+02
1174:3.7660697518932699e+02
1175:3.7660697518932699e+02
1176:3.7660697518932699e+02
1177:3.7660697518932699e+02
1178:3.7660697518932699e+02
1179:3.7660697518932699e+02
1180:3.7660697518932699e+02
1181:3.7660697518932699e+02
1182:3.7660697518932699e+02
1183:3.7660697518932699e+02
1184:3.7660697518932699e+02
1185:3.7660697518932699e+02
1186:3.7660697518932699e+02
1187:3.7660697518932699e+02

1188:3.4796614354103639e+02
1189:3.4796614354103639e+02
1190:3.4796614354103639e+02
1191:3.4796614354103639e+02
1192:3.4796614354103639e+02
1193:3.4796614354103639e+02
1194:3.4796614354103639e+02
1195:3.4796614354103639e+02
1196:3.4796614354103639e+02
1197:3.4796614354103639e+02
1198:3.4796614354103639e+02
1199:3.4796614354103639e+02
1200:3.4796614354103639e+02
1201:3.4796614354103639e+02
1202:3.4796614354103639e+02
1203:3.4796614354103639e+02
1204:3.4796614354103639e+02
1205:3.4796614354103639e+02
1206:3.4796614354103639e+02
1207:3.4796614354103639e+02
1208:3.4796614354103639e+02
1209:3.4796614354103639e+02
1210:3.4796614354103639e+02
1211:3.4796614354103639e+02
1212:3.4796614354103639e+02
1213:3.4796614354103639e+02
1214:3.4796614354103639e+02

1215:3.6157317240981871e+02
1216:3.6157317240981871e+02
1217:3.6157317240981871e+02
1218:3.6157317240981871e+02
1219:3.6157317240981871e+02
1220:3.6157317240981871e+02
1221:3.6157317240981871e+02
1222:3.6157317240981871e+02
1223:3.6157317240981871e+02
1224:3.6157317240981871e+02
1225:3.6157317240981871e+02
1226:3.6157317240981871e+02
1227:3.6157317240981871e+02
1228:3.6157317240981871e+02
1229:3.6157317240981871e+02
1230:3.6157317240981871e+02
1231:3.6157317240981871e+02
1232:3.6157317240981871e+02
1233:3.6157317240981871e+02
1234:3.6157317240981871e+02
1235:3.6157317240981871e+02
1236:3.6157317240981871e+02
1237:3.6157317240981871e+02
1238:3.6157317240981871e+02
1239:3.6157317240981871e+02
1240:3.6157317240981871e+02
1241:3.6157317240981871e+02

1242:-3.0397318131048646e+01
1243:-3.0397318131048646e+01
1244:-3.0397318131048646e+01
1245:-3.0397318131048646e+01
1246:-3.0397318131048646e+01
1247:-3.0397318131048646e+01
1248:-3.0397318131048646e+01
1249:-3.0397318131048646e+01
1250:-3.0397318131048646e+01
1251:-3.0397318131048646e+01
1252:-3.0397318131048646e+01
1253:-3.0397318131048646e+01
1254:-3.0397318131048646e+01
1255:-3.0397318131048646e+01
1256:-3.0397318131048646e+01
1257:-3.0397318131048646e+01
1258:-3.0397318131048646e+01
1259:-3.0397318131048646e+01
1260:-3.0397318131048646e+01
1261:-3.0397318131048646e+01
1262:-3.0397318131048646e+01
1263:-3.0397318131048646e+01
1264:-3.0397318131048646e+01
1265:-3.0397318131048646e+01
1266:-3.0397318131048646e+01
1267:-3.0397318131048646e+01
1268:-3.0397318131048646e+01

1269:-2.3245790008584610e+01
1270:-2.3245790008584610e+01
1271:-2.3245790008584610e+01
1272:-2.3245790008584610e+01
1273:-2.3245790008584610e+01
1274:-2.3245790008584610e+01
1275:-2.3245790008584610e+01
1276:-2.3245790008584610e+01
1277:-2.3245790008584610e+01
1278:-2.3245790008584610e+01
1279:-2.3245790008584610e+01
1280:-2.3245790008584610e+01
1281:-2.3245790008584610e+01
1282:-2.3245790008584610e+01
1283:-2.3245790008584610e+01
1284:-2.3245790008584610e+01
1285:-2.3245790008584610e+01
1286:-2.3245790008584610e+01
1287:-2.3245790008584610e+01
1288:-2.3245790008584610e+01
1289:-2.3245790008584610e+01
1290:-2.3245790008584610e+01
1291:-2.3245790008584610e+01
1292:-2.3245790008584610e+01
1293:-2.3245790008584610e+01
1294:-2.3245790008584610e+01
1295:-2.3245790008584610e+01

1296:-1.6893262354767847e+02
1297:-1.6893262354767847e+02
1298:-1.6893262354767847e+02
1299:-1.6893262354767847e+02
1300:-1.6893262354767847e+02
1301:-1.6893262354767847e+02
1302:-1.6893262354767847e+02
1303:-1.6893262354767847e+02
1304:-1.6893262354767847e+02
1305:-1.6893262354767847e+02
1306:-1.6893262354767847e+02
1307:-1.6893262354767847e+02
1308:-1.6893262354767847e+02
1309:-1.6893262354767847e+02
1310:-1.6893262354767847e+02
1311:-1.6893262354767847e+02
1312:-1.6893262354767847e+02
1313:-1.6893262354767847e+02
1314:-1.6893262354767847e+02
1315:-1.6893262354767847e+02
1316:-1.6893262354767847e+02
1317:-1.6893262354767847e+02
1318:-1.6893262354767847e+02
1319:-1.6893262354767847e+02
1320:-1.6893262354767847e+02
1321:-1.6893262354767847e+02
1322:-1.6893262354767847e+02

1323:-7.4845022768941192e+01
1324:-7.4845022768941192e+01
1325:-7.4845022768941192e+01
1326:-7.4845022768941192e+01
1327:-7.4845022768941192e+01
1328:-7.4845022768941192e+01
1329:-7.4845022768941192e+01
1330:-7.4845022768941192e+01
1331:-7.4845022768941192e+01
1332:-7.4845022768941192e+01
1333:-7.4845022768941192e+01
1334:-7.4845022768941192e+01
1335:-7.4845022768941192e+01
1336:-7.4845022768941192e+01
1337:-7.4845022768941192e+01
1338:-7.4845022768941192e+01
1339:-7.4845022768941192e+01
1340:-7.4845022768941192e+01
1341:-7.4845022768941192e+01
1342:-7.4845022768941192e+01
1343:-7.4845022768941192e+01
1344:-7.4845022768941192e+01
1345:-7.4845022768941192e+01
1346:-7.4845022768941192e+01
1347:-7.4845022768941192e+01
1348:-7.4845022768941192e+01
1349:-7.4845022768941192e+01

1350:5.5773734610854845e+01
1351:5.5773734610854845e+01
1352:5.5773734610854845e+01
1353:5.5773734610854845e+01
1354:5.5773734610854845e+01
1355:5.5773734610854845e+01
1356:5.5773734610854845e+01
1357:5.5773734610854845e+01
1358:5.5773734610854845e+01
1359:5.5773734610854845e+01
1360:5.5773734610854845e+01
1361:5.5773734610854845e+01
1362:5.5773734610854845e+01
1363:5.5773734610854845e+01
1364:5.5773734610854845e+01
1365:5.5773734610854845e+01
1366:5.5773734610854845e+01
1367:5.5773734610854845e+01
1368:5.5773734610854845e+01
1369:5.5773734610854845e+01
1370:5.5773734610854845e+01
1371:5.5773734610854845e+01
1372:5.5773734610854845e+01
1373:5.5773734610854845e+01
1374:5.5773734610854845e+01
1375:5.5773734610854845e+01
1376:5.5773734610854845e+01

1377:9.1254821235633713e+01
1378:9.1254821235633713e+01
1379:9.1254821235633713e+01
1380:9.1254821235633713e+01
1381:9.1254821235633713e+01
1382:9.1254821235633713e+01
1383:9.1254821235633713e+01
1384:9.1254821235633713e+01
1385:9.1254821235633713e+01
1386:9.1254821235633713e+01
1387:9.1254821235633713e+01
1388:9.1254821235633713e+01
1389:9.1254821235633713e+01
1390:9.1254821235633713e+01
1391:9.1254821235633713e+01
1392:9.1254821235633713e+01
1393:9.1254821235633713e+01
1394:9.1254821235633713e+01
1395:9.1254821235633713e+01
1396:9.1254821235633713e+01
1397:9.1254821235633713e+01
1398:9.1254821235633713e+01
1399:9.1254821235633713e+01
1400:9.1254821235633713e+01
1401:9.1254821235633713e+01
1402:9.1254821235633713e+01
1403:9.1254821235633713e+01

1404:-1.8720712270080256e+02
1405:-1.8720712270080256e+02
1406:-1.8720712270080256e+02
1407:-1.8720712270080256e+02
1408:-1.8720712270080256e+02
1409:-1.8720712270080256e+02
1410:-1.8720712270080256e+02
1411:-1.8720712270080256e+02
1412:-1.8720712270080256e+02
1413:-1.8720712270080256e+02
1414:-1.8720712270080256e+02
1415:-1.8720712270080256e+02
1416:-1.8720712270080256e+02
1417:-1.8720712270080256e+02
1418:-1.8720712270080256e+02
1419:-1.8720712270080256e+02
1420:-1.8720712270080256e+02
1421:-1.8720712270080256e+02
1422:-1.8720712270080256e+02
1423:-1.8720712270080256e+02
1424:-1.8720712270080256e+02
1425:-1.8720712270080256e+02
1426:-1.8720712270080256e+02
1427:-1.8720712270080256e+02
1428:-1.8720712270080256e+02
1429:-1.8720712270080256e+02
1430:-1.8720712270080256e+02

1431:-2.6312089512551040e+02
1432:-2.6312089512551040e+02
1433:-2.6312089512551040e+02
1434:-2.6312089512551040e+02
1435:-2.6312089512551040e+02
1436:-2.6312089512551040e+02
1437:-2.6312089512551040e+02
1438:-2.6312089512551040e+02
1439:-2.6312089512551040e+02
1440:-2.6312089512551040e+02
1441:-2.6312089512551040e+02
1442:-2.6312089512551040e+02
1443:-2.6312089512551040e+02
1444:-2.6312089512551040e+02
1445:-2.6312089512551040e+02
1446:-2.6312089512551040e+02
1447:-2.6312089512551040e+02
1448:-2.6312089512551040e+02
1449:-2.6312089512551040e+02
1450:-2.6312089512551040e+02
1451:-2.6312089512551040e+02
1452:-2.6312089512551040e+02
1453:-2.6312089512551040e+02
1454:-2.6312089512551040e+02
1455:-2.6312089512551040e+02
1456:-2.6312089512551040e+02
1457:-2.6312089512551040e+02

1458:-8.5978004158780834e+01
1459:-8.5978004158780834e+01
1460:-8.5978004158780834e+01
1461:-8.5978004158780834e+01
1462:-8.5978004158780834e+01
1463:-8.5978004158780834e+01
1464:-8.5978004158780834e+01
1465:-8.5978004158780834e+01
1466:-8.5978004158780834e+01
1467:-8.5978004158780834e+01
1468:-8.5978004158780834e+01
1469:-8.5978004158780834e+01
1470:-8.5978004158780834e+01
1471:-8.5978004158780834e+01
1472:-8.5978004158780834e+01
1473:-8.5978004158780834e+01
1474:-8.5978004158780834e+01
1475:-8.5978004158780834e+01
1476:-8.5978004158780834e+01
1477:-8.5978004158780834e+01
1478:-8.5978004158780834e+01
1479:-8.5978004158780834e+01
1480:-8.5978004158780834e+01
1481:-8.5978004158780834e+01
1482:-8.5978004158780834e+01
1483:-8.5978004158780834e+01
1484:-8.5978004158780834e+01

1485:-4.2850596172884588e+02
1486:-4.2850596172884588e+02
1487:-4.2850596172884588e+02
1488:-4.2850596172884588e+02
1489:-4.2850596172884588e+02
1490:-4.2850596172884588e+02
1491:-4.2850596172884588e+02
1492:-4.2850596172884588e+02
1493:-4.2850596172884588e+02
1494:-4.2850596172884588e+02
1495:-4.2850596172884588e+02
1496:-4.2850596172884588e+02
1497:-4.2850596172884588e+02
1498:-4.2850596172884588e+02
1499:-4.2850596172884588e+02
1500:-4.2850596172884588e+02
1501:-4.2850596172884588e+02
1502:-4.2850596172884588e+02
1503:-4.2850596172884588e+02
1504:-4.2850596172884588e+02
1505:-4.2850596172884588e+02
1506:-4.2850596172884588e+02
1507:-4.2850596172884588e+02
1508:-4.2850596172884588e+02
1509:-4.2850596172884588e+02
1510:-4.2850596172884588e+02
1511:-4.2850596172884588e+02

1512:1.8491534378990448e+02
1513:1.8491534378990448e+02
1514:1.8491534378990448e+02
1515:1.8491534378990448e+02
1516:1.8491534378990448e+02
1517:1.8491534378990448e+02
1518:1.8491534378990448e+02
1519:1.8491534378990448e+02
1520:1.8491534378990448e+02
1521:1.8491534378990448e+02
1522:1.8491534378990448e+02
1523:1.8491534378990448e+02
1524:1.8491534378990448e+02
1525:1.8491534378990448e+02
1526:1.8491534378990448e+02
1527:1.8491534378990448e+02
1528:1.8491534378990448e+02
1529:1.8491534378990448e+02
1530:1.8491534378990448e+02
1531:1.8491534378990448e+02
1532:1.8491534378990448e+02
1533:1.8491534378990448e+02
1534:1.8491534378990448e+02
1535:1.8491534378990448e+02
1536:1.8491534378990448e+02
1537:1.8491534378990448e+02
1538:1.8491534378990448e+02

1539:2.9061853997891961e+02
1540:2.9061853997891961e+02
1541:2.9061853997891961e+02
1542:2.9061853997891961e+02
1543:2.9061853997891961e+02
1544:2.9061853997891961e+02
1545:2.9061853997891961e+02
1546:2.9061853997891961e+02
1547:2.9061853997891961e+02
1548:2.9061853997891961e+02
1549:2.9061853997891961e+02
1550:2.9061853997891961e+02
1551:2.9061853997891961e+02
1552:2.9061853997891961e+02
1553:2.9061853997891961e+02
1554:2.9061853997891961e+02
1555:2.9061853997891961e+02
1556:2.9061853997891961e+02
1557:2.9061853997891961e+02
1558:2.9061853997891961e+02
1559:2.9061853997891961e+02
1560:2.9061853997891961e+02
1561:2.9061853997891961e+02
1562:2.9061853997891961e+02
1563:2.9061853997891961e+02
1564:2.9061853997891961e+02
1565:2.9061853997891961e+02

1566:4.7827154237839659e+02
1567:4.7827154237839659e+02
1568:4.7827154237839659e+02
1569:4.7827154237839659e+02
1570:4.7827154237839659e+02
1571:4.7827154237839659e+02
1572:4.7827154237839659e+02
1573:4.7827154237839659e+02
1574:4.7827154237839659e+02
1575:4.7827154237839659e+02
1576:4.7827154237839659e+02
1577:4.7827154237839659e+02
1578:4.7827154237839659e+02
1579:4.7827154237839659e+02
1580:4.7827154237839659e+02
1581:4.7827154237839659e+02
1582:4.7827154237839659e+02
1583:4.7827154237839659e+02
1584:4.7827154237839659e+02
1585:4.7827154237839659e+02
1586:4.7827154237839659e+02
1587:4.7827154237839659e+02
1588:4.7827154237839659e+02
1589:4.7827154237839659e+02
1590:4.7827154237839659e+02
1591:4.7827154237839659e+02
1592:4.7827154237839659e+02

1593:4.0811787670083692e+02
1594:4.0811787670083692e+02
1595:4.0811787670083692e+02
1596:4.0811787670083692e+02
1597:4.0811787670083692e+02
1598:4.0811787670083692e+02
1599:4.0811787670083692e+02
1600:4.0811787670083692e+02
1601:4.0811787670083692e+02
1602:4.0811787670083692e+02
1603:4.0811787670083692e+02
1604:4.0811787670083692e+02
1605:4.0811787670083692e+02
1606:4.0811787670083692e+02
1607:4.0811787670083692e+02
1608:4.0811787670083692e+02
1609:4.0811787670083692e+02
1610:4.0811787670083692e+02
1611:4.0811787670083692e+02
1612:4.0811787670083692e+02
1613:4.0811787670083692e+02
1614:4.0811787670083692e+02
1615:4.0811787670083692e+02
1616:4.0811787670083692e+02
1617:4.0811787670083692e+02
1618:4.0811787670083692e+02
1619:4.0811787670083692e+02

1620:2.4633087522182910e+02
1621:2.4633087522182910e+02
1622:2.4633087522182910e+02
1623:2.4633087522182910e+02
1624:2.4633087522182910e+02
1625:2.4633087522182910e+02
1626:2.4633087522182910e+02
1627:2.4633087522182910e+02
1628:2.4633087522182910e+02
1629:2.4633087522182910e+02
1630:2.4633087522182910e+02
1631:2.4633087522182910e+02
1632:2.4633087522182910e+02
1633:2.4633087522182910e+02
1634:2.4633087522182910e+02
1635:2.4633087522182910e+02
1636:2.4633087522182910e+02
1637:2.4633087522182910e+02
1638:2.4633087522182910e+02
1639:2.4633087522182910e+02
1640:2.4633087522182910e+02
1641:2.4633087522182910e+02
1642:2.4633087522182910e+02
1643:2.4633087522182910e+02
1644:2.4633087522182910e+02
1645:2.4633087522182910e+02
1646:2.4633087522182910e+02

1647:2.4887442721836297e+02
1648:2.4887442721836297e+02
1649:2.4887442721836297e+02
1650:2.4887442721836297e+02
1651:2.4887442721836297e+02
1652:2.4887442721836297e+02
1653:2.4887442721836297e+02
1654:2.4887442721836297e+02
1655:2.4887442721836297e+02
1656:2.4887442721836297e+02
1657:2.4887442721836297e+02
1658:2.4887442721836297e+02
1659:2.4887442721836297e+02
1660:2.4887442721836297e+02
1661:2.4887442721836297e+02
1662:2.4887442721836297e+02
1663:2.4887442721836297e+02
1664:2.4887442721836297e+02
1665:2.4887442721836297e+02
1666:2.4887442721836297e+02
1667:2.4887442721836297e+02
1668:2.4887442721836297e+02
1669:2.4887442721836297e+02
1670:2.4887442721836297e+02
1671:2.4887442721836297e+02
1672:2.4887442721836297e+02
1673:2.4887442721836297e+02

1674:4.4770928359189639e+02
1675:4.4770928359189639e+02
1676:4.4770928359189639e+02
1677:4.4770928359189639e+02
1678:4.4770928359189639e+02
1679:4.4770928359189639e+02
1680:4.4770928359189639e+02
1681:4.4770928359189639e+02
1682:4.4770928359189639e+02
1683:4.4770928359189639e+02
1684:4.4770928359189639e+02
1685:4.4770928359189639e+02
1686:4.4770928359189639e+02
1687:4.4770928359189639e+02
1688:4.4770928359189639e+02
1689:4.4770928359189639e+02
1690:4.4770928359189639e+02
1691:4.4770928359189639e+02
1692:4.4770928359189639e+02
1693:4.4770928359189639e+02
1694:4.4770928359189639e+02
1695:4.4770928359189639e+02
1696:4.4770928359189639e+02
1697:4.4770928359189639e+02
1698:4.4770928359189639e+02
1699:4.4770928359189639e+02
1700:4.4770928359189639e+02

1701:4.7222240348947975e+02
1702:4.7222240348947975e+02
1703:4.7222240348947975e+02
1704:4.7222240348947975e+02
1705:4.7222240348947975e+02
1706:4.7222240348947975e+02
1707:4.7222240348947975e+02
1708:4.7222240348947975e+02
1709:4.7222240348947975e+02
1710:4.7222240348947975e+02
1711:4.7222240348947975e+02
1712:4.7222240348947975e+02
1713:4.7222240348947975e+02
1714:4.7222240348947975e+02
1715:4.7222240348947975e+02
1716:4.7222240348947975e+02
1717:4.7222240348947975e+02
1718:4.7222240348947975e+02
1719:4.7222240348947975e+02
1720:4.7222240348947975e+02
1721:4.7222240348947975e+02
1722:4.7222240348947975e+02
1723:4.7222240348947975e+02
1724:4.7222240348947975e+02
1725:4.7222240348947975e+02
1726:4.7222240348947975e+02
1727:4.7222240348947975e+02

1728:1.0522202916578188e+02
1729:1.0522202916578188e+02
1730:1.0522202916578188e+02
1731:1.0522202916578188e+02
1732:1.0522202916578188e+02
1733:1.0522202916578188e+02
1734:1.0522202916578188e+02
1735:1.0522202916578188e+02
1736:1.0522202916578188e+02
1737:1.0522202916578188e+02
1738:1.0522202916578188e+02
1739:1.0522202916578188e+02
1740:1.0522202916578188e+02
1741:1.0522202916578188e+02
1742:1.0522202916578188e+02
1743:1.0522202916578188e+02
1744:1.0522202916578188e+02
1745:1.0522202916578188e+02
1746:1.0522202916578188e+02
1747:1.0522202916578188e+02
1748:1.0522202916578188e+02
1749:1.0522202916578188e+02
1750:1.0522202916578188e+02
1751:1.0522202916578188e+02
1752:1.0522202916578188e+02
1753:1.0522202916578188e+02
1754:1.0522202916578188e+02

1755:4.4857310693231369e+01
1756:4.4857310693231369e+01
1757:4.4857310693231369e+01
1758:4.4857310693231369e+01
1759:4.4857310693231369e+01
1760:4.4857310693231369e+01
1761:4.4857310693231369e+01
1762:4.4857310693231369e+01
1763:4.4857310693231369e+01
1764:4.4857310693231369e+01
1765:4.4857310693231369e+01
1766:4.4857310693231369e+01
1767:4.4857310693231369e+01
1768:4.4857310693231369e+01
1769:4.4857310693231369e+01
1770:4.4857310693231369e+01
1771:4.4857310693231369e+01
1772:4.4857310693231369e+01
1773:4.4857310693231369e+01
1774:4.4857310693231369e+01
1775:4.4857310693231369e+01
1776:4.4857310693231369e+01
1777:4.4857310693231369e+01
1778:4.4857310693231369e+01
1779:4.4857310693231369e+01
1780:4.4857310693231369e+01
1781:4.4857310693231369e+01

1782:9.4428236633733050e+01
1783:9.4428236633733050e+01
1784:9.4428236633733050e+01
1785:9.4428236633733050e+01
1786:9.4428236633733050e+01
1787:9.4428236633733050e+01
1788:9.4428236633733050e+01
1789:9.4428236633733050e+01
1790:9.4428236633733050e+01
1791:9.4428236633733050e+01
1792:9.4428236633733050e+01
1793:9.4428236633733050e+01
1794:9.4428236633733050e+01
1795:9.4428236633733050e+01
1796:9.4428236633733050e+01
1797:9.4428236633733050e+01
1798:9.4428236633733050e+01
1799:9.4428236633733050e+01
1800:9.4428236633733050e+01
1801:9.4428236633733050e+01
1802:9.4428236633733050e+01
1803:9.4428236633733050e+01
1804:9.4428236633733050e+01
1805:9.4428236633733050e+01
1806:9.4428236633733050e+01
1807:9.4428236633733050e+01
1808:9.4428236633733050e+01

1809:8.9894086361008718e+01
1810:8.9894086361008718e+01
1811:8.9894086361008718e+01
1812:8.9894086361008718e+01
1813:8.9894086361008718e+01
1814:8.9894086361008718e+01
1815:8.9894086361008718e+01
1816:8.9894086361008718e+01
1817:8.9894086361008718e+01
1818:8.9894086361008718e+01
1819:8.9894086361008718e+01
1820:8.9894086361008718e+01
1821:8.9894086361008718e+01
1822:8.9894086361008718e+01
1823:8.9894086361008718e+01
1824:8.9894086361008718e+01
1825:8.9894086361008718e+01
1826:8.9894086361008718e+01
1827:8.9894086361008718e+01
1828:8.9894086361008718e+01
1829:8.9894086361008718e+01
1830:8.9894086361008718e+01
1831:8.9894086361008718e+01
1832:8.9894086361008718e+01
1833:8.9894086361008718e+01
1834:8.9894086361008718e+01
1835:8.9894086361008718e+01

1836:2.6871234507892876e+02
1837:2.6871234507892876e+02
1838:2.6871234507892876e+02
1839:2.6871234507892876e+02
1840:2.6871234507892876e+02
1841:2.6871234507892876e+02
1842:2.6871234507892876e+02
1843:2.6871234507892876e+02
1844:2.6871234507892876e+02
1845:2.6871234507892876e+02
1846:2.6871234507892876e+02
1847:2.6871234507892876e+02
1848:2.6871234507892876e+02
1849:2.6871234507892876e+02
1850:2.6871234507892876e+02
1851:2.6871234507892876e+02
1852:2.6871234507892876e+02
1853:2.6871234507892876e+02
1854:2.6871234507892876e+02
1855:2.6871234507892876e+02
1856:2.6871234507892876e+02
1857:2.6871234507892876e+02
1858:2.6871234507892876e+02
1859:2.6871234507892876e+02
1860:2.6871234507892876e+02
1861:2.6871234507892876e+02
1862:2.6871234507892876e+02

1863:2.6014701178503282e+02
1864:2.6014701178503282e+02
1865:2.6014701178503282e+02
1866:2.6014701178503282e+02
1867:2.6014701178503282e+02
1868:2.6014701178503282e+02
1869:2.6014701178503282e+02
1870:2.6014701178503282e+02
1871:2.6014701178503282e+02
1872:2.6014701178503282e+02
1873:2.6014701178503282e+02
1874:2.6014701178503282e+02
1875:2.6014701178503282e+02
1876:2.6014701178503282e+02
1877:2.6014701178503282e+02
1878:2.6014701178503282e+02
1879:2.6014701178503282e+02
1880:2.6014701178503282e+02
1881:2.6014701178503282e+02
1882:2.6014701178503282e+02
1883:2.6014701178503282e+02
1884:2.6014701178503282e+02
1885:2.6014701178503282e+02
1886:2.6014701178503282e+02
1887:2.6014701178503282e+02
1888:2.6014701178503282e+02
1889:2.6014701178503282e+02

1890:8.6142601886347254e+00
1891:8.6142601886347254e+00
1892:8.6142601886347254e+00
1893:8.6142601886347254e+00
1894:8.6142601886347254e+00
1895:8.6142601886347254e+00
1896:8.6142601886347254e+00
1897:8.6142601886347254e+00
1898:8.6142601886347254e+00
1899:8.6142601886347254e+00
1900:8.6142601886347254e+00
1901:8.6142601886347254e+00
1902:8.6142601886347254e+00
1903:8.6142601886347254e+00
1904:8.6142601886347254e+00
1905:8.6142601886347254e+00
1906:8.6142601886347254e+00
1907:8.6142601886347254e+00
1908:8.6142601886347254e+00
1909:8.6142601886347254e+00
1910:8.6142601886347254e+00
1911:8.6142601886347254e+00
1912:8.6142601886347254e+00
1913:8.6142601886347254e+00
1914:8.6142601886347254e+00
1915:8.6142601886347254e+00
1916:8.6142601886347254e+00

1917:-6.3351472631631054e+01
1918:-6.3351472631631054e+01
1919:-6.3351472631631054e+01
1920:-6.3351472631631054e+01
1921:-6.3351472631631054e+01
1922:-6.3351472631631054e+01
1923:-6.3351472631631054e+01
1924:-6.3351472631631054e+01
1925:-6.3351472631631054e+01
1926:-6.3351472631631054e+01
1927:-6.3351472631631054e+01
1928:-6.3351472631631054e+01
1929:-6.3351472631631054e+01
1930:-6.3351472631631054e+01
1931:-6.3351472631631054e+01
1932:-6.3351472631631054e+01
1933:-6.3351472631631054e+01
1934:-6.3351472631631054e+01
1935:-6.3351472631631054e+01
1936:-6.3351472631631054e+01
1937:-6.3351472631631054e+01
1938:-6.3351472631631054e+01
1939:-6.3351472631631054e+01
1940:-6.3351472631631054e+01
1941:-6.3351472631631054e+01
1942:-6.3351472631631054e+01
1943:-6.3351472631631054e+01

1944:-2.6739113776017138e+01
1945:-2.6739113776017138e+01
1946:-2.6739113776017138e+01
1947:-2.6739113776017138e+01
1948:-2.6739113776017138e+01
1949:-2.6739113776017138e+01
1950:-2.6739113776017138e+01
1951:-2.6739113776017138e+01
1952:-2.6739113776017138e+01
1953:-2.6739113776017138e+01
1954:-2.6739113776017138e+01
1955:-2.6739113776017138e+01
1956:-2.6739113776017138e+01
1957:-2.6739113776017138e+01
1958:-2.6739113776017138e+01
1959:-2.6739113776017138e+01
1960:-2.6739113776017138e+01
1961:-2.6739113776017138e+01
1962:-2.6739113776017138e+01
1963:-2.6739113776017138e+01
1964:-2.6739113776017138e+01
1965:-2.6739113776017138e+01
1966:-2.6739113776017138e+01
1967:-2.6739113776017138e+01
1968:-2.6739113776017138e+01
1969:-2.6739113776017138e+01
1970:-2.6739113776017138e+01

1971:-1.1120069545460439e+02
1972:-1.1120069545460439e+02
1973:-1.1120069545460439e+02
1974:-1.1120069545460439e+02
1975:-1.1120069545460439e+02
1976:-1.1120069545460439e+02
1977:-1.1120069545460439e+02
1978:-1.1120069545460439e+02
1979:-1.1120069545460439e+02
1980:-1.1120069545460439e+02
1981:-1.1120069545460439e+02
1982:-1.1120069545460439e+02
1983:-1.1120069545460439e+02
1984:-1.1120069545460439e+02
1985:-1.1120069545460439e+02
1986:-1.1120069545460439e+02
1987:-1.1120069545460439e+02
1988:-1.1120069545460439e+02
1989:-1.1120069545460439e+02
1990:-1.1120069545460439e+02
1991:-1.1120069545460439e+02
1992:-1.1120069545460439e+02
1993:-1.1120069545460439e+02
1994:-1.1120069545460439e+02
1995:-1.1120069545460439e+02
1996:-1.1120069545460439e+02
1997:-1.1120069545460439e+02

1998:3.6898828059746154e+02
1999:3.6898828059746154e+02
2000:3.6898828059746154e+02
2001:3.6898828059746154e+02
2002:3.6898828059746154e+02
2003:3.6898828059746154e+02
2004:3.6898828059746154e+02
2005:3.6898828059746154e+02
2006:3.6898828059746154e+02
2007:3.6898828059746154e+02
2008:3.6898828059746154e+02
2009:3.6898828059746154e+02
2010:3.6898828059746154e+02
2011:3.6898828059746154e+02
2012:3.6898828059746154e+02
2013:3.6898828059746154e+02
2014:3.6898828059746154e+02
2015:3.6898828059746154e+02
2016:3.6898828059746154e+02
2017:3.6898828059746154e+02
2018:3.6898828059746154e+02
2019:3.6898828059746154e+02
2020:3.6898828059746154e+02
2021:3.6898828059746154e+02
2022:3.6898828059746154e+02
2023:3.6898828059746154e+02
2024:3.6898828059746154e+02

2025:4.4169268848082055e+02
2026:4.4169268848082055e+02
2027:4.4169268848082055e+02
2028:4.4169268848082055e+02
2029:4.4169268848082055e+02
2030:4.4169268848082055e+02
2031:4.4169268848082055e+02
2032:4.4169268848082055e+02
2033:4.4169268848082055e+02
2034:4.4169268848082055e+02
2035:4.4169268848082055e+02
2036:4.4169268848082055e+02
2037:4.4169268848082055e+02
2038:4.4169268848082055e+02
2039:4.4169268848082055e+02
2040:4.4169268848082055e+02
2041:4.4169268848082055e+02
2042:4.4169268848082055e+02
2043:4.4169268848082055e+02
2044:4.4169268848082055e+02
2045:4.4169268848082055e+02
2046:4.4169268848082055e+02
2047:4.4169268848082055e+02
2048:4.4169268848082055e+02
2049:4.4169268848082055e+02
2050:4.4169268848082055e+02
2051:4.4169268848082055e+02

2052:1.7454391040338166e+02
2053:1.7454391040338166e+02
2054:1.7454391040338166e+02
2055:1.7454391040338166e+02
2056:1.7454391040338166e+02
2057:1.7454391040338166e+02
2058:1.7454391040338166e+02
2059:1.7454391040338166e+02
2060:1.7454391040338166e+02
2061:1.7454391040338166e+02
2062:1.7454391040338166e+02
2063:1.7454391040338166e+02
2064:1.7454391040338166e+02
2065:1.7454391040338166e+02
2066:1.7454391040338166e+02
2067:1.7454391040338166e+02
2068:1.7454391040338166e+02
2069:1.7454391040338166e+02
2070:1.7454391040338166e+02
2071:1.7454391040338166e+02
2072:1.7454391040338166e+02
2073:1.7454391040338166e+02
2074:1.7454391040338166e+02
2075:1.7454391040338166e+02
2076:1.7454391040338166e+02
2077:1.7454391040338166e+02
2078:1.7454391040338166e+02

2079:1.3707427989140120e+02
2080:1.3707427989140120e+02
2081:1.3707427989140120e+02
2082:1.3707427989140120e+02
2083:1.3707427989140120e+02
2084:1.3707427989140120e+02
2085:1.3707427989140120e+02
2086:1.3707427989140120e+02
2087:1.3707427989140120e+02
2088:1.3707427989140120e+02
2089:1.3707427989140120e+02
2090:1.3707427989140120e+02
2091:1.3707427989140120e+02
2092:1.3707427989140120e+02
2093:1.3707427989140120e+02
2094:1.3707427989140120e+02
2095:1.3707427989140120e+02
2096:1.3707427989140120e+02
2097:1.3707427989140120e+02
2098:1.3707427989140120e+02
2099:1.3707427989140120e+02
2100:1.3707427989140120e+02
2101:1.3707427989140120e+02
2102:1.3707427989140120e+02
2103:1.3707427989140120e+02
2104:1.3707427989140120e+02
2105:1.3707427989140120e+02

2106:4.0549228766689038e+02
2107:4.0549228766689038e+02
2108:4.0549228766689038e+02
2109:4.0549228766689038e+02
2110:4.0549228766689038e+02
2111:4.0549228766689038e+02
2112:4.0549228766689038e+02
2113:4.0549228766689038e+02
2114:4.0549228766689038e+02
2115:4.0549228766689038e+02
2116:4.0549228766689038e+02
2117:4.0549228766689038e+02
2118:4.0549228766689038e+02
2119:4.0549228766689038e+02
2120:4.0549228766689038e+02
2121:4.0549228766689038e+02
2122:4.0549228766689038e+02
2123:4.0549228766689038e+02
2124:4.0549228766689038e+02
2125:4.0549228766689038e+02
2126:4.0549228766689038e+02
2127:4.0549228766689038e+02
2128:4.0549228766689038e+02
2129:4.0549228766689038e+02
2130:4.0549228766689038e+02
2131:4.0549228766689038e+02
2132:4.0549228766689038e+02

2133:4.0283210084578627e+02
2134:4.0283210084578627e+02
2135:4.0283210084578627e+02
2136:4.0283210084578627e+02
2137:4.0283210084578627e+02
2138:4.0283210084578627e+02
2139:4.0283210084578627e+02
2140:4.0283210084578627e+02
2141:4.0283210084578627e+02
2142:4.0283210084578627e+02
2143:4.0283210084578627e+02
2144:4.0283210084578627e+02
2145:4.0283210084578627e+02
2146:4.0283210084578627e+02
2147:4.0283210084578627e+02
2148:4.0283210084578627e+02
2149:4.0283210084578627e+02
2150:4.0283210084578627e+02
2151:4.0283210084578627e+02
2152:4.0283210084578627e+02
2153:4.0283210084578627e+02
2154:4.0283210084578627e+02
2155:4.0283210084578627e+02
2156:4.0283210084578627e+02
2157:4.0283210084578627e+02
2158:4.0283210084578627e+02
2159:4.0283210084578627e+02

2160:4.1378431093641575e+02
2161:4.1378431093641575e+02
2162:4.1378431093641575e+02
2163:4.1378431093641575e+02
2164:4.1378431093641575e+02
2165:4.1378431093641575e+02
2166:4.1378431093641575e+02
2167:4.1378431093641575e+02
2168:4.1378431093641575e+02
2169:4.1378431093641575e+02
2170:4.1378431093641575e+02
2171:4.1378431093641575e+02
2172:4.1378431093641575e+02
2173:4.1378431093641575e+02
2174:4.1378431093641575e+02
2175:4.1378431093641575e+02
2176:4.1378431093641575e+02
2177:4.1378431093641575e+02
2178:4.1378431093641575e+02
2179:4.1378431093641575e+02
2180:4.1378431093641575e+02
2181:4.1378431093641575e+02
2182:4.1378431093641575e+02
2183:4.1378431093641575e+02
2184:4.1378431093641575e+02
2185:4.1378431093641575e+02
2186:4.1378431093641575e+02

2187:4.5728992746254545e+02
2188:4.5728992746254545e+02
2189:4.5728992746254545e+02
2190:4.5728992746254545e+02
2191:4.5728992746254545e+02
2192:4.5728992746254545e+02
2193:4.5728992746254545e+02
2194:4.5728992746254545e+02
2195:4.5728992746254545e+02
2196:4.5728992746254545e+02
2197:4.5728992746254545e+02
2198:4.5728992746254545e+02
2199:4.5728992746254545e+02
2200:4.5728992746254545e+02
2201:4.5728992746254545e+02
2202:4.5728992746254545e+02
2203:4.5728992746254545e+02
2204:4.5728992746254545e+02
2205:4.5728992746254545e+02
2206:4.5728992746254545e+02
2207:4.5728992746254545e+02
2208:4.5728992746254545e+02
2209:4.5728992746254545e+02
2210:4.5728992746254545e+02
2211:4.5728992746254545e+02
2212:4.5728992746254545e+02
2213:4.5728992746254545e+02

2214:1.3307234534295299e+02
2215:1.3307234534295299e+02
2216:1.3307234534295299e+02
2217:1.3307234534295299e+02
2218:1.3307234534295299e+02
2219:1.3307234534295299e+02
2220:1.3307234534295299e+02
2221:1.3307234534295299e+02
2222:1.3307234534295299e+02
2223:1.3307234534295299e+02
2224:1.3307234534295299e+02
2225:1.3307234534295299e+02
2226:1.3307234534295299e+02
2227:1.3307234534295299e+02
2228:1.3307234534295299e+02
2229:1.3307234534295299e+02
2230:1.3307234534295299e+02
2231:1.3307234534295299e+02
2232:1.3307234534295299e+02
2233:1.3307234534295299e+02
2234:1.3307234534295299e+02
2235:1.3307234534295299e+02
2236:1.3307234534295299e+02
2237:1.3307234534295299e+02
2238:1.3307234534295299e+02
2239:1.3307234534295299e+02
2240:1.3307234534295299e+02

2241:1.0670772590511893e+02
2242:1.0670772590511893e+02
2243:1.0670772590511893e+02
2244:1.0670772590511893e+02
2245:1.0670772590511893e+02
2246:1.0670772590511893e+02
2247:1.0670772590511893e+02
2248:1.0670772590511893e+02
2249:1.0670772590511893e+02
2250:1.0670772590511893e+02
2251:1.0670772590511893e+02
2252:1.0670772590511893e+02
2253:1.0670772590511893e+02
2254:1.0670772590511893e+02
2255:1.0670772590511893e+02
2256:1.0670772590511893e+02
2257:1.0670772590511893e+02
2258:1.0670772590511893e+02
2259:1.0670772590511893e+02
2260:1.0670772590511893e+02
2261:1.0670772590511893e+02
2262:1.0670772590511893e+02
2263:1.0670772590511893e+02
2264:1.0670772590511893e+02
2265:1.0670772590511893e+02
2266:1.0670772590511893e+02
2267:1.0670772590511893e+02

2268:2.3914464339485110e+02
2269:2.3914464339485110e+02
2270:2.3914464339485110e+02
2271:2.3914464339485110e+02
2272:2.3914464339485110e+02
2273:2.3914464339485110e+02
2274:2.3914464339485110e+02
2275:2.3914464339485110e+02
2276:2.3914464339485110e+02
2277:2.3914464339485110e+02
2278:2.3914464339485110e+02
2279:2.3914464339485110e+02
2280:2.3914464339485110e+02
2281:2.3914464339485110e+02
2282:2.3914464339485110e+02
2283:2.3914464339485110e+02
2284:2.3914464339485110e+02
2285:2.3914464339485110e+02
2286:2.3914464339485110e+02
2287:2.3914464339485110e+02
2288:2.3914464339485110e+02
2289:2.3914464339485110e+02
2290:2.3914464339485110e+02
2291:2.3914464339485110e+02
2292:2.3914464339485110e+02
2293:2.3914464339485110e+02
2294:2.3914464339485110e+02

2295:2.4501155032585373e+02
2296:2.4501155032585373e+02
2297:2.4501155032585373e+02
2298:2.4501155032585373e+02
2299:2.4501155032585373e+02
2300:2.4501155032585373e+02
2301:2.4501155032585373e+02
2302:2.4501155032585373e+02
2303:2.4501155032585373e+02
2304:2.4501155032585373e+02
2305:2.4501155032585373e+02
2306:2.4501155032585373e+02
2307:2.4501155032585373e+02
2308:2.4501155032585373e+02
2309:2.4501155032585373e+02
2310:2.4501155032585373e+02
2311:2.4501155032585373e+02
2312:2.4501155032585373e+02
2313:2.4501155032585373e+02
2314:2.4501155032585373e+02
2315:2.4501155032585373e+02
2316:2.4501155032585373e+02
2317:2.4501155032585373e+02
2318:2.4501155032585373e+02
2319:2.4501155032585373e+02
2320:2.4501155032585373e+02
2321:2.4501155032585373e+02

2322:1.0111513518645246e+02
2323:1.0111513518645246e+02
2324:1.0111513518645246e+02
2325:1.0111513518645246e+02
2326:1.0111513518645246e+02
2327:1.0111513518645246e+02
2328:1.0111513518645246e+02
2329:1.0111513518645246e+02
2330:1.0111513518645246e+02
2331:1.0111513518645246e+02
2332:1.0111513518645246e+02
2333:1.0111513518645246e+02
2334:1.0111513518645246e+02
2335:1.0111513518645246e+02
2336:1.0111513518645246e+02
2337:1.0111513518645246e+02
2338:1.0111513518645246e+02
2339:1.0111513518645246e+02
2340:1.0111513518645246e+02
2341:1.0111513518645246e+02
2342:1.0111513518645246e+02
2343:1.0111513518645246e+02
2344:1.0111513518645246e+02
2345:1.0111513518645246e+02
2346:1.0111513518645246e+02
2347:1.0111513518645246e+02
2348:1.0111513518645246e+02

2349:7.5310994405842422e+01
2350:7.5310994405842422e+01
2351:7.5310994405842422e+01
2352:7.5310994405842422e+01
2353:7.5310994405842422e+01
2354:7.5310994405842422e+01
2355:7.5310994405842422e+01
2356:7.5310994405842422e+01
2357:7.5310994405842422e+01
2358:7.5310994405842422e+01
2359:7.5310994405842422e+01
2360:7.5310994405842422e+01
2361:7.5310994405842422e+01
2362:7.5310994405842422e+01
2363:7.5310994405842422e+01
2364:7.5310994405842422e+01
2365:7.5310994405842422e+01
2366:7.5310994405842422e+01
2367:7.5310994405842422e+01
2368:7.5310994405842422e+01
2369:7.5310994405842422e+01
2370:7.5310994405842422e+01
2371:7.5310994405842422e+01
2372:7.5310994405842422e+01
2373:7.5310994405842422e+01
2374:7.5310994405842422e+01
2375:7.5310994405842422e+01

2376:-2.4081564141233355e+02
2377:-2.4081564141233355e+02
2378:-2.4081564141233355e+02
2379:-2.4081564141233355e+02
2380:-2.4081564141233355e+02
2381:-2.4081564141233355e+02
2382:-2.4081564141233355e+02
2383:-2.4081564141233355e+02
2384:-2.4081564141233355e+02
2385:-2.4081564141233355e+02
2386:-2.4081564141233355e+02
2387:-2.4081564141233355e+02
2388:-2.4081564141233355e+02
2389:-2.4081564141233355e+02
2390:-2.4081564141233355e+02
2391:-2.4081564141233355e+02
2392:-2.4081564141233355e+02
2393:-2.4081564141233355e+02
2394:-2.4081564141233355e+02
2395:-2.4081564141233355e+02
2396:-2.4081564141233355e+02
2397:-2.4081564141233355e+02
2398:-2.4081564141233355e+02
2399:-2.4081564141233355e+02
2400:-2.4081564141233355e+02
2401:-2.4081564141233355e+02
2402:-2.4081564141233355e+02

2403:-1.6891486952256039e+02
2404:-1.6891486952256039e+02
2405:-1.6891486952256039e+02
2406:-1.6891486952256039e+02
2407:-1.6891486952256039e+02
2408:-1.6891486952256039e+02
2409:-1.6891486952256039e+02
2410:-1.6891486952256039e+02
2411:-1.6891486952256039e+02
2412:-1.6891486952256039e+02
2413:-1.6891486952256039e+02
2414:-1.6891486952256039e+02
2415:-1.6891486952256039e+02
2416:-1.6891486952256039e+02
2417:-1.6891486952256039e+02
2418:-1.6891486952256039e+02
2419:-1.6891486952256039e+02
2420:-1.6891486952256039e+02
2421:-1.6891486952256039e+02
2422:-1.6891486952256039e+02
2423:-1.6891486952256039e+02
2424:-1.6891486952256039e+02
2425:-1.6891486952256039e+02
2426:-1.6891486952256039e+02
2427:-1.6891486952256039e+02
2428:-1.6891486952256039e+02
2429:-1.6891486952256039e+02

2430:1.7616510829593639e+02
2431:1.7616510829593639e+02
2432:1.7616510829593639e+02
2433:1.7616510829593639e+02
2434:1.7616510829593639e+02
2435:1.7616510829593639e+02
2436:1.7616510829593639e+02
2437:1.7616510829593639e+02
2438:1.7616510829593639e+02
2439:1.7616510829593639e+02
2440:1.7616510829593639e+02
2441:1.7616510829593639e+02
2442:1.7616510829593639e+02
2443:1.7616510829593639e+02
2444:1.7616510829593639e+02
2445:1.7616510829593639e+02
2446:1.7616510829593639e+02
2447:1.7616510829593639e+02
2448:1.7616510829593639e+02
2449:1.7616510829593639e+02
2450:1.7616510829593639e+02
2451:1.7616510829593639e+02
2452:1.7616510829593639e+02
2453:1.7616510829593639e+02
2454:1.7616510829593639e+02
2455:1.7616510829593639e+02
2456:1.7616510829593639e+02

2457:3.4807344895922668e+01
2458:3.4807344895922668e+01
2459:3.4807344895922668e+01
2460:3.4807344895922668e+01
2461:3.4807344895922668e+01
2462:3.4807344895922668e+01
2463:3.4807344895922668e+01
2464:3.4807344895922668e+01
2465:3.4807344895922668e+01
2466:3.4807344895922668e+01
2467:3.4807344895922668e+01
2468:3.4807344895922668e+01
2469:3.4807344895922668e+01
2470:3.4807344895922668e+01
2471:3.4807344895922668e+01
2472:3.4807344895922668e+01
2473:3.4807344895922668e+01
2474:3.4807344895922668e+01
2475:3.4807344895922668e+01
2476:3.4807344895922668e+01
2477:3.4807344895922668e+01
2478:3.4807344895922668e+01
2479:3.4807344895922668e+01
2480:3.4807344895922668e+01
2481:3.4807344895922668e+01
2482:3.4807344895922668e+01
2483:3.4807344895922668e+01

2484:8.3222344035059464e+01
2485:8.3222344035059464e+01
2486:8.3222344035059464e+01
2487:8.3222344035059464e+01
2488:8.3222344035059464e+01
2489:8.3222344035059464e+01
2490:8.3222344035059464e+01
2491:8.3222344035059464e+01
2492:8.3222344035059464e+01
2493:8.3222344035059464e+01
2494:8.3222344035059464e+01
2495:8.3222344035059464e+01
2496:8.3222344035059464e+01
2497:8.3222344035059464e+01
2498:8.3222344035059464e+01
2499:8.3222344035059464e+01
2500:8.3222344035059464e+01
2501:8.3222344035059464e+01
2502:8.3222344035059464e+01
2503:8.3222344035059464e+01
2504:8.3222344035059464e+01
2505:8.3222344035059464e+01
2506:8.3222344035059464e+01
2507:8.3222344035059464e+01
2508:8.3222344035059464e+01
2509:8.3222344035059464e+01
2510:8.3222344035059464e+01

2511:8.6261678413599640e+01
2512:8.6261678413599640e+01
2513:8.6261678413599640e+01
2514:8.6261678413599640e+01
2515:8.6261678413599640e+01
2516:8.6261678413599640e+01
2517:8.6261678413599640e+01
2518:8.6261678413599640e+01
2519:8.6261678413599640e+01
2520:8.6261678413599640e+01
2521:8.6261678413599640e+01
2522:8.6261678413599640e+01
2523:8.6261678413599640e+01
2524:8.6261678413599640e+01
2525:8.6261678413599640e+01
2526:8.6261678413599640e+01
2527:8.6261678413599640e+01
2528:8.6261678413599640e+01
2529:8.6261678413599640e+01
2530:8.6261678413599640e+01
2531:8.6261678413599640e+01
2532:8.6261678413599640e+01
2533:8.6261678413599640e+01
2534:8.6261678413599640e+01
2535:8.6261678413599640e+01
2536:8.6261678413599640e+01
2537:8.6261678413599640e+01

2538:2.0639171106174990e+02
2539:2.0639171106174990e+02
2540:2.0639171106174990e+02
2541:2.0639171106174990e+02
2542:2.0639171106174990e+02
2543:2.0639171106174990e+02
2544:2.0639171106174990e+02
2545:2.0639171106174990e+02
2546:2.0639171106174990e+02
2547:2.0639171106174990e+02
2548:2.0639171106174990e+02
2549:2.0639171106174990e+02
2550:2.0639171106174990e+02
2551:2.0639171106174990e+02
2552:2.0639171106174990e+02
2553:2.0639171106174990e+02
2554:2.0639171106174990e+02
2555:2.0639171106174990e+02
2556:2.0639171106174990e+02
2557:2.0639171106174990e+02
2558:2.0639171106174990e+02
2559:2.0639171106174990e+02
2560:2.0639171106174990e+02
2561:2.0639171106174990e+02
2562:2.0639171106174990e+02
2563:2.0639171106174990e+02
2564:2.0639171106174990e+02

2565:2.4517553850408868e+02
2566:2.4517553850408868e+02
2567:2.4517553850408868e+02
2568:2.4517553850408868e+02
2569:2.4517553850408868e+02
2570:2.4517553850408868e+02
2571:2.4517553850408868e+02
2572:2.4517553850408868e+02
2573:2.4517553850408868e+02
2574:2.4517553850408868e+02
2575:2.4517553850408868e+02
2576:2.4517553850408868e+02
2577:2.4517553850408868e+02
2578:2.4517553850408868e+02
2579:2.4517553850408868e+02
2580:2.4517553850408868e+02
2581:2.4517553850408868e+02
2582:2.4517553850408868e+02
2583:2.4517553850408868e+02
2584:2.4517553850408868e+02
2585:2.4517553850408868e+02
2586:2.4517553850408868e+02
2587:2.4517553850408868e+02
2588:2.4517553850408868e+02
2589:2.4517553850408868e+02
2590:2.4517553850408868e+02
2591:2.4517553850408868e+02

2592:3.9285740875969879e+02
2593:3.9285740875969879e+02
2594:3.9285740875969879e+02
2595:3.9285740875969879e+02
2596:3.9285740875969879e+02
2597:3.9285740875969879e+02
2598:3.9285740875969879e+02
2599:3.9285740875969879e+02
2600:3.9285740875969879e+02
2601:3.9285740875969879e+02
2602:3.9285740875969879e+02
2603:3.9285740875969879e+02
2604:3.9285740875969879e+02
2605:3.9285740875969879e+02
2606:3.9285740875969879e+02
2607:3.9285740875969879e+02
2608:3.9285740875969879e+02
2609:3.9285740875969879e+02
2610:3.9285740875969879e+02
2611:3.9285740875969879e+02
2612:3.9285740875969879e+02
2613:3.9285740875969879e+02
2614:3.9285740875969879e+02
2615:3.9285740875969879e+02
2616:3.9285740875969879e+02
2617:3.9285740875969879e+02
2618:3.9285740875969879e+02

2619:3.9303045936165148e+02
2620:3.9303045936165148e+02
2621:3.9303045936165148e+02
2622:3.9303045936165148e+02
2623:3.9303045936165148e+02
2624:3.9303045936165148e+02
2625:3.9303045936165148e+02
2626:3.9303045936165148e+02
2627:3.9303045936165148e+02
2628:3.9303045936165148e+02
2629:3.9303045936165148e+02
2630:3.9303045936165148e+02
2631:3.9303045936165148e+02
2632:3.9303045936165148e+02
2633:3.9303045936165148e+02
2634:3.9303045936165148e+02
2635:3.9303045936165148e+02
2636:3.9303045936165148e+02
2637:3.9303045936165148e+02
2638:3.9303045936165148e+02
2639:3.9303045936165148e+02
2640:3.9303045936165148e+02
2641:3.9303045936165148e+02
2642:3.9303045936165148e+02
2643:3.9303045936165148e+02
2644:3.9303045936165148e+02
2645:3.9303045936165148e+02

2646:2.2745633567846855e+02
2647:2.2745633567846855e+02
2648:2.2745633567846855e+02
2649:2.2745633567846855e+02
2650:2.2745633567846855e+02
2651:2.2745633567846855e+02
2652:2.2745633567846855e+02
2653:2.2745633567846855e+02
2654:2.2745633567846855e+02
2655:2.2745633567846855e+02
2656:2.2745633567846855e+02
2657:2.2745633567846855e+02
2658:2.2745633567846855e+02
2659:2.2745633567846855e+02
2660:2.2745633567846855e+02
2661:2.2745633567846855e+02
2662:2.2745633567846855e+02
2663:2.2745633567846855e+02
2664:2.2745633567846855e+02
2665:2.2745633567846855e+02
2666:2.2745633567846855e+02
2667:2.2745633567846855e+02
2668:2.2745633567846855e+02
2669:2.2745633567846855e+02
2670:2.2745633567846855e+02
2671:2.2745633567846855e+02
2672:2.2745633567846855e+02

2673:2.3404214484343649e+02
2674:2.3404214484343649e+02
2675:2.3404214484343649e+02
2676:2.3404214484343649e+02
2677:2.3404214484343649e+02
2678:2.3404214484343649e+02
2679:2.3404214484343649e+02
2680:2.3404214484343649e+02
2681:2.3404214484343649e+02
2682:2.3404214484343649e+02
2683:2.3404214484343649e+02
2684:2.3404214484343649e+02
2685:2.3404214484343649e+02
2686:2.3404214484343649e+02
2687:2.3404214484343649e+02
2688:2.3404214484343649e+02
2689:2.3404214484343649e+02
2690:2.3404214484343649e+02
2691:2.3404214484343649e+02
2692:2.3404214484343649e+02
2693:2.3404214484343649e+02
2694:2.3404214484343649e+02
2695:2.3404214484343649e+02
2696:2.3404214484343649e+02
2697:2.3404214484343649e+02
2698:2.3404214484343649e+02
2699:2.3404214484343649e+02

2700:1.7129953764941470e+02
2701:1.7129953764941470e+02
2702:1.7129953764941470e+02
2703:1.7129953764941470e+02
2704:1.7129953764941470e+02
2705:1.7129953764941470e+02
2706:1.7129953764941470e+02
2707:1.7129953764941470e+02
2708:1.7129953764941470e+02
2709:1.7129953764941470e+02
2710:1.7129953764941470e+02
2711:1.7129953764941470e+02
2712:1.7129953764941470e+02
2713:1.7129953764941470e+02
2714:1.7129953764941470e+02
2715:1.7129953764941470e+02
2716:1.7129953764941470e+02
2717:1.7129953764941470e+02
2718:1.7129953764941470e+02
2719:1.7129953764941470e+02
2720:1.7129953764941470e+02
2721:1.7129953764941470e+02
2722:1.7129953764941470e+02
2723:1.7129953764941470e+02
2724:1.7129953764941470e+02
2725:1.7129953764941470e+02
2726:1.7129953764941470e+02

2727:1.9952143055271208e+02
2728:1.9952143055271208e+02
2729:1.9952143055271208e+02
2730:1.9952143055271208e+02
2731:1.9952143055271208e+02
2732:1.9952143055271208e+02
2733:1.9952143055271208e+02
2734:1.9952143055271208e+02
2735:1.9952143055271208e+02
2736:1.9952143055271208e+02
2737:1.9952143055271208e+02
2738:1.9952143055271208e+02
2739:1.9952143055271208e+02
2740:1.9952143055271208e+02
2741:1.9952143055271208e+02
2742:1.9952143055271208e+02
2743:1.9952143055271208e+02
2744:1.9952143055271208e+02
2745:1.9952143055271208e+02
2746:1.9952143055271208e+02
2747:1.9952143055271208e+02
2748:1.9952143055271208e+02
2749:1.9952143055271208e+02
2750:1.9952143055271208e+02
2751:1.9952143055271208e+02
2752:1.9952143055271208e+02
2753:1.9952143055271208e+02

2754:2.8260227607295440e+02
2755:2.8260227607295440e+02
2756:2.8260227607295440e+02
2757:2.8260227607295440e+02
2758:2.8260227607295440e+02
2759:2.8260227607295440e+02
2760:2.8260227607295440e+02
2761:2.8260227607295440e+02
2762:2.8260227607295440e+02
2763:2.8260227607295440e+02
2764:2.8260227607295440e+02
2765:2.8260227607295440e+02
2766:2.8260227607295440e+02
2767:2.8260227607295440e+02
2768:2.8260227607295440e+02
2769:2.8260227607295440e+02
2770:2.8260227607295440e+02
2771:2.8260227607295440e+02
2772:2.8260227607295440e+02
2773:2.8260227607295440e+02
2774:2.8260227607295440e+02
2775:2.8260227607295440e+02
2776:2.8260227607295440e+02
2777:2.8260227607295440e+02
2778:2.8260227607295440e+02
2779:2.8260227607295440e+02
2780:2.8260227607295440e+02

2781:3.2921384970372156e+02
2782:3.2921384970372156e+02
2783:3.2921384970372156e+02
2784:3.2921384970372156e+02
2785:3.2921384970372156e+02
2786:3.2921384970372156e+02
2787:3.2921384970372156e+02
2788:3.2921384970372156e+02
2789:3.2921384970372156e+02
2790:3.2921384970372156e+02
2791:3.2921384970372156e+02
2792:3.2921384970372156e+02
2793:3.2921384970372156e+02
2794:3.2921384970372156e+02
2795:3.2921384970372156e+02
2796:3.2921384970372156e+02
2797:3.2921384970372156e+02
2798:3.2921384970372156e+02
2799:3.2921384970372156e+02
2800:3.2921384970372156e+02
2801:3.2921384970372156e+02
2802:3.2921384970372156e+02
2803:3.2921384970372156e+02
2804:3.2921384970372156e+02
2805:3.2921384970372156e+02
2806:3.2921384970372156e+02
2807:3.2921384970372156e+02

2808:3.4187494233716160e+02
2809:3.4187494233716160e+02
2810:3.4187494233716160e+02
2811:3.4187494233716160e+02
2812:3.4187494233716160e+02
2813:3.4187494233716160e+02
2814:3.4187494233716160e+02
2815:3.4187494233716160e+02
2816:3.4187494233716160e+02
2817:3.4187494233716160e+02
2818:3.4187494233716160e+02
2819:3.4187494233716160e+02
2820:3.4187494233716160e+02
2821:3.4187494233716160e+02
2822:3.4187494233716160e+02
2823:3.4187494233716160e+02
2824:3.4187494233716160e+02
2825:3.4187494233716160e+02
2826:3.4187494233716160e+02
2827:3.4187494233716160e+02
2828:3.4187494233716160e+02
2829:3.4187494233716160e+02
2830:3.4187494233716160e+02
2831:3.4187494233716160e+02
2832:3.4187494233716160e+02
2833:3.4187494233716160e+02
2834:3.4187494233716160e+02

2835:3.5038121902723651e+02
2836:3.5038121902723651e+02
2837:3.5038121902723651e+02
2838:3.5038121902723651e+02
2839:3.5038121902723651e+02
2840:3.5038121902723651e+02
2841:3.5038121902723651e+02
2842:3.5038121902723651e+02
2843:3.5038121902723651e+02
2844:3.5038121902723651e+02
2845:3.5038121902723651e+02
2846:3.5038121902723651e+02
2847:3.5038121902723651e+02
2848:3.5038121902723651e+02
2849:3.5038121902723651e+02
2850:3.5038121902723651e+02
2851:3.5038121902723651e+02
2852:3.5038121902723651e+02
2853:3.5038121902723651e+02
2854:3.5038121902723651e+02
2855:3.5038121902723651e+02
2856:3.5038121902723651e+02
2857:3.5038121902723651e+02
2858:3.5038121902723651e+02
2859:3.5038121902723651e+02
2860:3.5038121902723651e+02
2861:3.5038121902723651e+02

2862:7.1799631960399608e+01
2863:7.1799631960399608e+01
2864:7.1799631960399608e+01
2865:7.1799631960399608e+01
2866:7.1799631960399608e+01
2867:7.1799631960399608e+01
2868:7.1799631960399608e+01
2869:7.1799631960399608e+01
2870:7.1799631960399608e+01
2871:7.1799631960399608e+01
2872:7.1799631960399608e+01
2873:7.1799631960399608e+01
2874:7.1799631960399608e+01
2875:7.1799631960399608e+01
2876:7.1799631960399608e+01
2877:7.1799631960399608e+01
2878:7.1799631960399608e+01
2879:7.1799631960399608e+01
2880:7.1799631960399608e+01
2881:7.1799631960399608e+01
2882:7.1799631960399608e+01
2883:7.1799631960399608e+01
2884:7.1799631960399608e+01
2885:7.1799631960399608e+01
2886:7.1799631960399608e+01
2887:7.1799631960399608e+01
2888:7.1799631960399608e+01

2889:4.6973239050718206e+02
2890:4.6973239050718206e+02
2891:4.6973239050718206e+02
2892:4.6973239050718206e+02
2893:4.6973239050718206e+02
2894:4.6973239050718206e+02
2895:4.6973239050718206e+02
2896:4.6973239050718206e+02
2897:4.6973239050718206e+02
2898:4.6973239050718206e+02
2899:4.6973239050718206e+02
2900:4.6973239050718206e+02
2901:4.6973239050718206e+02
2902:4.6973239050718206e+02
2903:4.6973239050718206e+02
2904:4.6973239050718206e+02
2905:4.6973239050718206e+02
2906:4.6973239050718206e+02
2907:4.6973239050718206e+02
2908:4.6973239050718206e+02
2909:4.6973239050718206e+02
2910:4.6973239050718206e+02
2911:4.6973239050718206e+02
2912:4.6973239050718206e+02
2913:4.6973239050718206e+02
2914:4.6973239050718206e+02
2915:4.6973239050718206e+02

2916:-1.1390478100193155e+02
2917:-1.1390478100193155e+02
2918:-1.1390478100193155e+02
2919:-1.1390478100193155e+02
2920:-1.1390478100193155e+02
2921:-1.1390478100193155e+02
2922:-1.1390478100193155e+02
2923:-1.1390478100193155e+02
2924:-1.1390478100193155e+02
2925:-1.1390478100193155e+02
2926:-1.1390478100193155e+02
2927:-1.1390478100193155e+02
2928:-1.1390478100193155e+02
2929:-1.1390478100193155e+02
2930:-1.1390478100193155e+02
2931:-1.1390478100193155e+02
2932:-1.1390478100193155e+02
2933:-1.1390478100193155e+02
2934:-1.1390478100193155e+02
2935:-1.1390478100193155e+02
2936:-1.1390478100193155e+02
2937:-1.1390478100193155e+02
2938:-1.1390478100193155e+02
2939:-1.1390478100193155e+02
2940:-1.1390478100193155e+02
2941:-1.1390478100193155e+02
2942:-1.1390478100193155e+02

2943:5.9115649482719860e+01
2944:5.9115649482719860e+01
2945:5.9115649482719860e+01
2946:5.9115649482719860e+01
2947:5.9115649482719860e+01
2948:5.9115649482719860e+01
2949:5.9115649482719860e+01
2950:5.9115649482719860e+01
2951:5.9115649482719860e+01
2952:5.9115649482719860e+01
2953:5.9115649482719860e+01
2954:5.9115649482719860e+01
2955:5.9115649482719860e+01
2956:5.9115649482719860e+01
2957:5.9115649482719860e+01
2958:5.9115649482719860e+01
2959:5.9115649482719860e+01
2960:5.9115649482719860e+01
2961:5.9115649482719860e+01
2962:5.9115649482719860e+01
2963:5.9115649482719860e+01
2964:5.9115649482719860e+01
2965:5.9115649482719860e+01
2966:5.9115649482719860e+01
2967:5.9115649482719860e+01
2968:5.9115649482719860e+01
2969:5.9115649482719860e+01

2970:1.6769276322077559e+02
2971:1.6769276322077559e+02
2972:1.6769276322077559e+02
2973:1.6769276322077559e+02
2974:1.6769276322077559e+02
2975:1.6769276322077559e+02
2976:1.6769276322077559e+02
2977:1.6769276322077559e+02
2978:1.6769276322077559e+02
2979:1.6769276322077559e+02
2980:1.6769276322077559e+02
2981:1.6769276322077559e+02
2982:1.6769276322077559e+02
2983:1.6769276322077559e+02
2984:1.6769276322077559e+02
2985:1.6769276322077559e+02
2986:1.6769276322077559e+02
2987:1.6769276322077559e+02
2988:1.6769276322077559e+02
2989:1.6769276322077559e+02
2990:1.6769276322077559e+02
2991:1.6769276322077559e+02
2992:1.6769276322077559e+02
2993:1.6769276322077559e+02
2994:1.6769276322077559e+02
2995:1.6769276322077559e+02
2996:1.6769276322077559e+02

2997:1.3750901866635820e+02
2998:1.3750901866635820e+02
2999:1.3750901866635820e+02
3000:1.3750901866635820e+02
3001:1.3750901866635820e+02
3002:1.3750901866635820e+02
3003:1.3750901866635820e+02
3004:1.3750901866635820e+02
3005:1.3750901866635820e+02
3006:1.3750901866635820e+02
3007:1.3750901866635820e+02
3008:1.3750901866635820e+02
3009:1.3750901866635820e+02
3010:1.3750901866635820e+02
3011:1.3750901866635820e+02
3012:1.3750901866635820e+02
3013:1.3750901866635820e+02
3014:1.3750901866635820e+02
3015:1.3750901866635820e+02
3016:1.3750901866635820e+02
3017:1.3750901866635820e+02
3018:1.3750901866635820e+02
3019:1.3750901866635820e+02
3020:1.3750901866635820e+02
3021:1.3750901866635820e+02
3022:1.3750901866635820e+02
3023:1.3750901866635820e+02

3024:2.0107979899093343e+02
3025:2.0107979899093343e+02
3026:2.0107979899093343e+02
3027:2.0107979899093343e+02
3028:2.0107979899093343e+02
3029:2.0107979899093343e+02
3030:2.0107979899093343e+02
3031:2.0107979899093343e+02
3032:2.0107979899093343e+02
3033:2.0107979899093343e+02
3034:2.0107979899093343e+02
3035:2.0107979899093343e+02
3036:2.0107979899093343e+02
3037:2.0107979899093343e+02
3038:2.0107979899093343e+02
3039:2.0107979899093343e+02
3040:2.0107979899093343e+02
3041:2.0107979899093343e+02
3042:2.0107979899093343e+02
3043:2.0107979899093343e+02
3044:2.0107979899093343e+02
3045:2.0107979899093343e+02
3046:2.0107979899093343e+02
3047:2.0107979899093343e+02
3048:2.0107979899093343e+02
3049:2.0107979899093343e+02
3050:2.0107979899093343e+02

3051:1.6617048790570826e+02
3052:1.6617048790570826e+02
3053:1.6617048790570826e+02
3054:1.6617048790570826e+02
3055:1.6617048790570826e+02
3056:1.6617048790570826e+02
3057:1.6617048790570826e+02
3058:1.6617048790570826e+02
3059:1.6617048790570826e+02
3060:1.6617048790570826e+02
3061:1.6617048790570826e+02
3062:1.6617048790570826e+02
3063:1.6617048790570826e+02
3064:1.6617048790570826e+02
3065:1.6617048790570826e+02
3066:1.6617048790570826e+02
3067:1.6617048790570826e+02
3068:1.6617048790570826e+02
3069:1.6617048790570826e+02
3070:1.6617048790570826e+02
3071:1.6617048790570826e+02
3072:1.6617048790570826e+02
3073:1.6617048790570826e+02
3074:1.6617048790570826e+02
3075:1.6617048790570826e+02
3076:1.6617048790570826e+02
3077:1.6617048790570826e+02

3078:2.1253763699797327e+02
3079:2.1253763699797327e+02
3080:2.1253763699797327e+02
3081:2.1253763699797327e+02
3082:2.1253763699797327e+02
3083:2.1253763699797327e+02
3084:2.1253763699797327e+02
3085:2.1253763699797327e+02
3086:2.1253763699797327e+02
3087:2.1253763699797327e+02
3088:2.1253763699797327e+02
3089:2.1253763699797327e+02
3090:2.1253763699797327e+02
3091:2.1253763699797327e+02
3092:2.1253763699797327e+02
3093:2.1253763699797327e+02
3094:2.1253763699797327e+02
3095:2.1253763699797327e+02
3096:2.1253763699797327e+02
3097:2.1253763699797327e+02
3098:2.1253763699797327e+02
3099:2.1253763699797327e+02
3100:2.1253763699797327e+02
3101:2.1253763699797327e+02
3102:2.1253763699797327e+02
3103:2.1253763699797327e+02
3104:2.1253763699797327e+02

3105:1.6480155876510423e+02
3106:1.6480155876510423e+02
3107:1.6480155876510423e+02
3108:1.6480155876510423e+02
3109:1.6480155876510423e+02
3110:1.6480155876510423e+02
3111:1.6480155876510423e+02
3112:1.6480155876510423e+02
3113:1.6480155876510423e+02
3114:1.6480155876510423e+02
3115:1.6480155876510423e+02
3116:1.6480155876510423e+02
3117:1.6480155876510423e+02
3118:1.6480155876510423e+02
3119:1.6480155876510423e+02
3120:1.6480155876510423e+02
3121:1.6480155876510423e+02
3122:1.6480155876510423e+02
3123:1.6480155876510423e+02
3124:1.6480155876510423e+02
3125:1.6480155876510423e+02
3126:1.6480155876510423e+02
3127:1.6480155876510423e+02
3128:1.6480155876510423e+02
3129:1.6480155876510423e+02
3130:1.6480155876510423e+02
3131:1.6480155876510423e+02

3132:7.8712306016339511e+01
3133:7.8712306016339511e+01
3134:7.8712306016339511e+01
3135:7.8712306016339511e+01
3136:7.8712306016339511e+01
3137:7.8712306016339511e+01
3138:7.8712306016339511e+01
3139:7.8712306016339511e+01
3140:7.8712306016339511e+01
3141:7.8712306016339511e+01
3142:7.8712306016339511e+01
3143:7.8712306016339511e+01
3144:7.8712306016339511e+01
3145:7.8712306016339511e+01
3146:7.8712306016339511e+01
3147:7.8712306016339511e+01
3148:7.8712306016339511e+01
3149:7.8712306016339511e+01
3150:7.8712306016339511e+01
3151:7.8712306016339511e+01
3152:7.8712306016339511e+01
3153:7.8712306016339511e+01
3154:7.8712306016339511e+01
3155:7.8712306016339511e+01
3156:7.8712306016339511e+01
3157:7.8712306016339511e+01
3158:7.8712306016339511e+01

3159:6.5693211775110584e+01
3160:6.5693211775110584e+01
3161:6.5693211775110584e+01
3162:6.5693211775110584e+01
3163:6.5693211775110584e+01
3164:6.5693211775110584e+01
3165:6.5693211775110584e+01
3166:6.5693211775110584e+01
3167:6.5693211775110584e+01
3168:6.5693211775110584e+01
3169:6.5693211775110584e+01
3170:6.5693211775110584e+01
3171:6.5693211775110584e+01
3172:6.5693211775110584e+01
3173:6.5693211775110584e+01
3174:6.5693211775110584e+01
3175:6.5693211775110584e+01
3176:6.5693211775110584e+01
3177:6.5693211775110584e+01
3178:6.5693211775110584e+01
3179:6.5693211775110584e+01
3180:6.5693211775110584e+01
3181:6.5693211775110584e+01
3182:6.5693211775110584e+01
3183:6.5693211775110584e+01
3184:6.5693211775110584e+01
3185:6.5693211775110584e+01

3186:1.2714147578819851e+02
3187:1.2714147578819851e+02
3188:1.2714147578819851e+02
3189:1.2714147578819851e+02
3190:1.2714147578819851e+02
3191:1.2714147578819851e+02
3192:1.2714147578819851e+02
3193:1.2714147578819851e+02
3194:1.2714147578819851e+02
3195:1.2714147578819851e+02
3196:1.2714147578819851e+02
3197:1.2714147578819851e+02
3198:1.2714147578819851e+02
3199:1.2714147578819851e+02
3200:1.2714147578819851e+02
3201:1.2714147578819851e+02
3202:1.2714147578819851e+02
3203:1.2714147578819851e+02
3204:1.2714147578819851e+02
3205:1.2714147578819851e+02
3206:1.2714147578819851e+02
3207:1.2714147578819851e+02
3208:1.2714147578819851e+02
3209:1.2714147578819851e+02
3210:1.2714147578819851e+02
3211:1.2714147578819851e+02
3212:1.2714147578819851e+02

3213:5.1224299398295372e+01
3214:5.1224299398295372e+01
3215:5.1224299398295372e+01
3216:5.1224299398295372e+01
3217:5.1224299398295372e+01
3218:5.1224299398295372e+01
3219:5.1224299398295372e+01
3220:5.1224299398295372e+01
3221:5.1224299398295372e+01
3222:5.1224299398295372e+01
3223:5.1224299398295372e+01
3224:5.1224299398295372e+01
3225:5.1224299398295372e+01
3226:5.1224299398295372e+01
3227:5.1224299398295372e+01
3228:5.1224299398295372e+01
3229:5.1224299398295372e+01
3230:5.1224299398295372e+01
3231:5.1224299398295372e+01
3232:5.1224299398295372e+01
3233:5.1224299398295372e+01
3234:5.1224299398295372e+01
3235:5.1224299398295372e+01
3236:5.1224299398295372e+01
3237:5.1224299398295372e+01
3238:5.1224299398295372e+01
3239:5.1224299398295372e+01

3240:9.3247595858930097e+01
3241:9.3247595858930097e+01
3242:9.3247595858930097e+01
3243:9.3247595858930097e+01
3244:9.3247595858930097e+01
3245:9.3247595858930097e+01
3246:9.3247595858930097e+01
3247:9.3247595858930097e+01
3248:9.3247595858930097e+01
3249:9.3247595858930097e+01
3250:9.3247595858930097e+01
3251:9.3247595858930097e+01
3252:9.3247595858930097e+01
3253:9.3247595858930097e+01
3254:9.3247595858930097e+01
3255:9.3247595858930097e+01
3256:9.3247595858930097e+01
3257:9.3247595858930097e+01
3258:9.3247595858930097e+01
3259:9.3247595858930097e+01
3260:9.3247595858930097e+01
3261:9.3247595858930097e+01
3262:9.3247595858930097e+01
3263:9.3247595858930097e+01
3264:9.3247595858930097e+01
3265:9.3247595858930097e+01
3266:9.3247595858930097e+01

3267:4.2939206208281611e+01
3268:4.2939206208281611e+01
3269:4.2939206208281611e+01
3270:4.2939206208281611e+01
3271:4.2939206208281611e+01
3272:4.2939206208281611e+01
3273:4.2939206208281611e+01
3274:4.2939206208281611e+01
3275:4.2939206208281611e+01
3276:4.2939206208281611e+01
3277:4.2939206208281611e+01
3278:4.2939206208281611e+01
3279:4.2939206208281611e+01
3280:4.2939206208281611e+01
3281:4.2939206208281611e+01
3282:4.2939206208281611e+01
3283:4.2939206208281611e+01
3284:4.2939206208281611e+01
3285:4.2939206208281611e+01
3286:4.2939206208281611e+01
3287:4.2939206208281611e+01
3288:4.2939206208281611e+01
3289:4.2939206208281611e+01
3290:4.2939206208281611e+01
3291:4.2939206208281611e+01
3292:4.2939206208281611e+01
3293:4.2939206208281611e+01

3294:5.0348391822509662e+01
3295:5.0348391822509662e+01
3296:5.0348391822509662e+01
3297:5.0348391822509662e+01
3298:5.0348391822509662e+01
3299:5.0348391822509662e+01
3300:5.0348391822509662e+01
3301:5.0348391822509662e+01
3302:5.0348391822509662e+01
3303:5.0348391822509662e+01
3304:5.0348391822509662e+01
3305:5.0348391822509662e+01
3306:5.0348391822509662e+01
3307:5.0348391822509662e+01
3308:5.0348391822509662e+01
3309:5.0348391822509662e+01
3310:5.0348391822509662e+01
3311:5.0348391822509662e+01
3312:5.0348391822509662e+01
3313:5.0348391822509662e+01
3314:5.0348391822509662e+01
3315:5.0348391822509662e+01
3316:5.0348391822509662e+01
3317:5.0348391822509662e+01
3318:5.0348391822509662e+01
3319:5.0348391822509662e+01
3320:5.0348391822509662e+01

3321:1.4270739054489068e+01
3322:1.4270739054489068e+01
3323:1.4270739054489068e+01
3324:1.4270739054489068e+01
3325:1.4270739054489068e+01
3326:1.4270739054489068e+01
3327:1.4270739054489068e+01
3328:1.4270739054489068e+01
3329:1.4270739054489068e+01
3330:1.4270739054489068e+01
3331:1.4270739054489068e+01
3332:1.4270739054489068e+01
3333:1.4270739054489068e+01
3334:1.4270739054489068e+01
3335:1.4270739054489068e+01
3336:1.4270739054489068e+01
3337:1.4270739054489068e+01
3338:1.4270739054489068e+01
3339:1.4270739054489068e+01
3340:1.4270739054489068e+01
3341:1.4270739054489068e+01
3342:1.4270739054489068e+01
3343:1.4270739054489068e+01
3344:1.4270739054489068e+01
3345:1.4270739054489068e+01
3346:1.4270739054489068e+01
3347:1.4270739054489068e+01

3348:-4.6875934428591643e+02
3349:-4.6875934428591643e+02
3350:-4.6875934428591643e+02
3351:-4.6875934428591643e+02
3352:-4.6875934428591643e+02
3353:-4.6875934428591643e+02
3354:-4.6875934428591643e+02
3355:-4.6875934428591643e+02
3356:-4.6875934428591643e+02
3357:-4.6875934428591643e+02
3358:-4.6875934428591643e+02
3359:-4.6875934428591643e+02
3360:-4.6875934428591643e+02
3361:-4.6875934428591643e+02
3362:-4.6875934428591643e+02
3363:-4.6875934428591643e+02
3364:-4.6875934428591643e+02
3365:-4.6875934428591643e+02
3366:-4.6875934428591643e+02
3367:-4.6875934428591643e+02
3368:-4.6875934428591643e+02
3369:-4.6875934428591643e+02
3370:-4.6875934428591643e+02
3371:-4.6875934428591643e+02
3372:-4.6875934428591643e+02
3373:-4.6875934428591643e+02
3374:-4.6875934428591643e+02

3375:-2.6061975739365687e+02
3376:-2.6061975739365687e+02
3377:-2.6061975739365687e+02
3378:-2.6061975739365687e+02
3379:-2.6061975739365687e+02
3380:-2.6061975739365687e+02
3381:-2.6061975739365687e+02
3382:-2.6061975739365687e+02
3383:-2.6061975739365687e+02
3384:-2.6061975739365687e+02
3385:-2.6061975739365687e+02
3386:-2.6061975739365687e+02
3387:-2.6061975739365687e+02
3388:-2.6061975739365687e+02
3389:-2.6061975739365687e+02
3390:-2.6061975739365687e+02
3391:-2.6061975739365687e+02
3392:-2.6061975739365687e+02
3393:-2.6061975739365687e+02
3394:-2.6061975739365687e+02
3395:-2.6061975739365687e+02
3396:-2.6061975739365687e+02
3397:-2.6061975739365687e+02
3398:-2.6061975739365687e+02
3399:-2.6061975739365687e+02
3400:-2.6061975739365687e+02
3401:-2.6061975739365687e+02

3402:-1.9578267726001533e+02
3403:-1.9578267726001533e+02
3404:-1.9578267726001533e+02
3405:-1.9578267726001533e+02
3406:-1.9578267726001533e+02
3407:-1.9578267726001533e+02
3408:-1.9578267726001533e+02
3409:-1.9578267726001533e+02
3410:-1.9578267726001533e+02
3411:-1.9578267726001533e+02
3412:-1.9578267726001533e+02
3413:-1.9578267726001533e+02
3414:-1.9578267726001533e+02
3415:-1.9578267726001533e+02
3416:-1.9578267726001533e+02
3417:-1.9578267726001533e+02
3418:-1.9578267726001533e+02
3419:-1.9578267726001533e+02
3420:-1.9578267726001533e+02
3421:-1.9578267726001533e+02
3422:-1.9578267726001533e+02
3423:-1.9578267726001533e+02
3424:-1.9578267726001533e+02
3425:-1.9578267726001533e+02
3426:-1.9578267726001533e+02
3427:-1.9578267726001533e+02
3428:-1.9578267726001533e+02

3429:-8.4819093425892351e+00
3430:-8.4819093425892351e+00
3431:-8.4819093425892351e+00
3432:-8.4819093425892351e+00
3433:-8.4819093425892351e+00
3434:-8.4819093425892351e+00
3435:-8.4819093425892351e+00
3436:-8.4819093425892351e+00
3437:-8.4819093425892351e+00
3438:-8.4819093425892351e+00
3439:-8.4819093425892351e+00
3440:-8.4819093425892351e+00
3441:-8.4819093425892351e+00
3442:-8.4819093425892351e+00
3443:-8.4819093425892351e+00
3444:-8.4819093425892351e+00
3445:-8.4819093425892351e+00
3446:-8.4819093425892351e+00
3447:-8.4819093425892351e+00
3448:-8.4819093425892351e+00
3449:-8.4819093425892351e+00
3450:-8.4819093425892351e+00
3451:-8.4819093425892351e+00
3452:-8.4819093425892351e+00
3453:-8.4819093425892351e+00
3454:-8.4819093425892351e+00
3455:-8.4819093425892351e+00

3456:1.8184463005364350e+02
3457:1.8184463005364350e+02
3458:1.8184463005364350e+02
3459:1.8184463005364350e+02
3460:1.8184463005364350e+02
3461:1.8184463005364350e+02
3462:1.8184463005364350e+02
3463:1.8184463005364350e+02
3464:1.8184463005364350e+02
3465:1.8184463005364350e+02
3466:1.8184463005364350e+02
3467:1.8184463005364350e+02
3468:1.8184463005364350e+02
3469:1.8184463005364350e+02
3470:1.8184463005364350e+02
3471:1.8184463005364350e+02
3472:1.8184463005364350e+02
3473:1.8184463005364350e+02
3474:1.8184463005364350e+02
3475:1.8184463005364350e+02
3476:1.8184463005364350e+02
3477:1.8184463005364350e+02
3478:1.8184463005364350e+02
3479:1.8184463005364350e+02
3480:1.8184463005364350e+02
3481:1.8184463005364350e+02
3482:1.8184463005364350e+02

3483:1.3950686299828220e+02
3484:1.3950686299828220e+02
3485:1.3950686299828220e+02
3486:1.3950686299828220e+02
3487:1.3950686299828220e+02
3488:1.3950686299828220e+02
3489:1.3950686299828220e+02
3490:1.3950686299828220e+02
3491:1.3950686299828220e+02
3492:1.3950686299828220e+02
3493:1.3950686299828220e+02
3494:1.3950686299828220e+02
3495:1.3950686299828220e+02
3496:1.3950686299828220e+02
3497:1.3950686299828220e+02
3498:1.3950686299828220e+02
3499:1.3950686299828220e+02
3500:1.3950686299828220e+02
3501:1.3950686299828220e+02
3502:1.3950686299828220e+02
3503:1.3950686299828220e+02
3504:1.3950686299828220e+02
3505:1.3950686299828220e+02
3506:1.3950686299828220e+02
3507:1.3950686299828220e+02
3508:1.3950686299828220e+02
3509:1.3950686299828220e+02

3510:1.3325677020902364e+02
3511:1.3325677020902364e+02
3512:1.3325677020902364e+02
3513:1.3325677020902364e+02
3514:1.3325677020902364e+02
3515:1.3325677020902364e+02
3516:1.3325677020902364e+02
3517:1.3325677020902364e+02
3518:1.3325677020902364e+02
3519:1.3325677020902364e+02
3520:1.3325677020902364e+02
3521:1.3325677020902364e+02
3522:1.3325677020902364e+02
3523:1.3325677020902364e+02
3524:1.3325677020902364e+02
3525:1.3325677020902364e+02
3526:1.3325677020902364e+02
3527:1.3325677020902364e+02
3528:1.3325677020902364e+02
3529:1.3325677020902364e+02
3530:1.3325677020902364e+02
3531:1.3325677020902364e+02
3532:1.3325677020902364e+02
3533:1.3325677020902364e+02
3534:1.3325677020902364e+02
3535:1.3325677020902364e+02
3536:1.3325677020902364e+02

3537:1.8491019863153895e+02
3538:1.8491019863153895e+02
3539:1.8491019863153895e+02
3540:1.8491019863153895e+02
3541:1.8491019863153895e+02
3542:1.8491019863153895e+02
3543:1.8491019863153895e+02
3544:1.8491019863153895e+02
3545:1.8491019863153895e+02
3546:1.8491019863153895e+02
3547:1.8491019863153895e+02
3548:1.8491019863153895e+02
3549:1.8491019863153895e+02
3550:1.8491019863153895e+02
3551:1.8491019863153895e+02
3552:1.8491019863153895e+02
3553:1.8491019863153895e+02
3554:1.8491019863153895e+02
3555:1.8491019863153895e+02
3556:1.8491019863153895e+02
3557:1.8491019863153895e+02
3558:1.8491019863153895e+02
3559:1.8491019863153895e+02
3560:1.8491019863153895e+02
3561:1.8491019863153895e+02
3562:1.8491019863153895e+02
3563:1.8491019863153895e+02

3564:1.4848681388325937e+02
3565:1.4848681388325937e+02
3566:1.4848681388325937e+02
3567:1.4848681388325937e+02
3568:1.4848681388325937e+02
3569:1.4848681388325937e+02
3570:1.4848681388325937e+02
3571:1.4848681388325937e+02
3572:1.4848681388325937e+02
3573:1.4848681388325937e+02
3574:1.4848681388325937e+02
3575:1.4848681388325937e+02
3576:1.4848681388325937e+02
3577:1.4848681388325937e+02
3578:1.4848681388325937e+02
3579:1.4848681388325937e+02
3580:1.4848681388325937e+02
3581:1.4848681388325937e+02
3582:1.4848681388325937e+02
3583:1.4848681388325937e+02
3584:1.4848681388325937e+02
3585:1.4848681388325937e+02
3586:1.4848681388325937e+02
3587:1.4848681388325937e+02
3588:1.4848681388325937e+02
3589:1.4848681388325937e+02
3590:1.4848681388325937e+02

3591:1.9768155569695787e+02
3592:1.9768155569695787e+02
3593:1.9768155569695787e+02
3594:1.9768155569695787e+02
3595:1.9768155569695787e+02
3596:1.9768155569695787e+02
3597:1.9768155569695787e+02
3598:1.9768155569695787e+02
3599:1.9768155569695787e+02
3600:1.9768155569695787e+02
3601:1.9768155569695787e+02
3602:1.9768155569695787e+02
3603:1.9768155569695787e+02
3604:1.9768155569695787e+02
3605:1.9768155569695787e+02
3606:1.9768155569695787e+02
3607:1.9768155569695787e+02
3608:1.9768155569695787e+02
3609:1.9768155569695787e+02
3610:1.9768155569695787e+02
3611:1.9768155569695787e+02
3612:1.9768155569695787e+02
3613:1.9768155569695787e+02
3614:1.9768155569695787e+02
3615:1.9768155569695787e+02
3616:1.9768155569695787e+02
3617:1.9768155569695787e+02

3618:5.2733893678185019e+01
3619:5.2733893678185019e+01
3620:5.2733893678185019e+01
3621:5.2733893678185019e+01
3622:5.2733893678185019e+01
3623:5.2733893678185019e+01
3624:5.2733893678185019e+01
3625:5.2733893678185019e+01
3626:5.2733893678185019e+01
3627:5.2733893678185019e+01
3628:5.2733893678185019e+01
3629:5.2733893678185019e+01
3630:5.2733893678185019e+01
3631:5.2733893678185019e+01
3632:5.2733893678185019e+01
3633:5.2733893678185019e+01
3634:5.2733893678185019e+01
3635:5.2733893678185019e+01
3636:5.2733893678185019e+01
3637:5.2733893678185019e+01
3638:5.2733893678185019e+01
3639:5.2733893678185019e+01
3640:5.2733893678185019e+01
3641:5.2733893678185019e+01
3642:5.2733893678185019e+01
3643:5.2733893678185019e+01
3644:5.2733893678185019e+01

3645:8.8980946743472515e+01
3646:8.8980946743472515e+01
3647:8.8980946743472515e+01
3648:8.8980946743472515e+01
3649:8.8980946743472515e+01
3650:8.8980946743472515e+01
3651:8.8980946743472515e+01
3652:8.8980946743472515e+01
3653:8.8980946743472515e+01
3654:8.8980946743472515e+01
3655:8.8980946743472515e+01
3656:8.8980946743472515e+01
3657:8.8980946743472515e+01
3658:8.8980946743472515e+01
3659:8.8980946743472515e+01
3660:8.8980946743472515e+01
3661:8.8980946743472515e+01
3662:8.8980946743472515e+01
3663:8.8980946743472515e+01
3664:8.8980946743472515e+01
3665:8.8980946743472515e+01
3666:8.8980946743472515e+01
3667:8.8980946743472515e+01
3668:8.8980946743472515e+01
3669:8.8980946743472515e+01
3670:8.8980946743472515e+01
3671:8.8980946743472515e+01

3672:4.3898481323479288e+01
3673:4.3898481323479288e+01
3674:4.3898481323479288e+01
3675:4.3898481323479288e+01
3676:4.3898481323479288e+01
3677:4.3898481323479288e+01
3678:4.3898481323479288e+01
3679:4.3898481323479288e+01
3680:4.3898481323479288e+01
3681:4.3898481323479288e+01
3682:4.3898481323479288e+01
3683:4.3898481323479288e+01
3684:4.3898481323479288e+01
3685:4.3898481323479288e+01
3686:4.3898481323479288e+01
3687:4.3898481323479288e+01
3688:4.3898481323479288e+01
3689:4.3898481323479288e+01
3690:4.3898481323479288e+01
3691:4.3898481323479288e+01
3692:4.3898481323479288e+01
3693:4.3898481323479288e+01
3694:4.3898481323479288e+01
3695:4.3898481323479288e+01
3696:4.3898481323479288e+01
3697:4.3898481323479288e+01
3698:4.3898481323479288e+01

3699:1.5072990587090473e+02
3700:1.5072990587090473e+02
3701:1.5072990587090473e+02
3702:1.5072990587090473e+02
3703:1.5072990587090473e+02
3704:1.5072990587090473e+02
3705:1.5072990587090473e+02
3706:1.5072990587090473e+02
3707:1.5072990587090473e+02
3708:1.5072990587090473e+02
3709:1.5072990587090473e+02
3710:1.5072990587090473e+02
3711:1.5072990587090473e+02
3712:1.5072990587090473e+02
3713:1.5072990587090473e+02
3714:1.5072990587090473e+02
3715:1.5072990587090473e+02
3716:1.5072990587090473e+02
3717:1.5072990587090473e+02
3718:1.5072990587090473e+02
3719:1.5072990587090473e+02
3720:1.5072990587090473e+02
3721:1.5072990587090473e+02
3722:1.5072990587090473e+02
3723:1.5072990587090473e+02
3724:1.5072990587090473e+02
3725:1.5072990587090473e+02

3726:-5.0519868790472566e+02
3727:-5.0519868790472566e+02
3728:-5.0519868790472566e+02
3729:-5.0519868790472566e+02
3730:-5.0519868790472566e+02
3731:-5.0519868790472566e+02
3732:-5.0519868790472566e+02
3733:-5.0519868790472566e+02
3734:-5.0519868790472566e+02
3735:-5.0519868790472566e+02
3736:-5.0519868790472566e+02
3737:-5.0519868790472566e+02
3738:-5.0519868790472566e+02
3739:-5.0519868790472566e+02
3740:-5.0519868790472566e+02
3741:-5.0519868790472566e+02
3742:-5.0519868790472566e+02
3743:-5.0519868790472566e+02
3744:-5.0519868790472566e+02
3745:-5.0519868790472566e+02
3746:-5.0519868790472566e+02
3747:-5.0519868790472566e+02
3748:-5.0519868790472566e+02
3749:-5.0519868790472566e+02
3750:-5.0519868790472566e+02
3751:-5.0519868790472566e+02
3752:-5.0519868790472566e+02

3753:-4.5969808589368819e+02
3754:-4.5969808589368819e+02
3755:-4.5969808589368819e+02
3756:-4.5969808589368819e+02
3757:-4.5969808589368819e+02
3758:-4.5969808589368819e+02
3759:-4.5969808589368819e+02
3760:-4.5969808589368819e+02
3761:-4.5969808589368819e+02
3762:-4.5969808589368819e+02
3763:-4.5969808589368819e+02
3764:-4.5969808589368819e+02
3765:-4.5969808589368819e+02
3766:-4.5969808589368819e+02
3767:-4.5969808589368819e+02
3768:-4.5969808589368819e+02
3769:-4.5969808589368819e+02
3770:-4.5969808589368819e+02
3771:-4.5969808589368819e+02
3772:-4.5969808589368819e+02
3773:-4.5969808589368819e+02
3774:-4.5969808589368819e+02
3775:-4.5969808589368819e+02
3776:-4.5969808589368819e+02
3777:-4.5969808589368819e+02
3778:-4.5969808589368819e+02
3779:-4.5969808589368819e+02

3780:-5.6695632116269996e+02
3781:-5.6695632116269996e+02
3782:-5.6695632116269996e+02
3783:-5.6695632116269996e+02
3784:-5.6695632116269996e+02
3785:-5.6695632116269996e+02
3786:-5.6695632116269996e+02
3787:-5.6695632116269996e+02
3788:-5.6695632116269996e+02
3789:-5.6695632116269996e+02
3790:-5.6695632116269996e+02
3791:-5.6695632116269996e+02
3792:-5.6695632116269996e+02
3793:-5.6695632116269996e+02
3794:-5.6695632116269996e+02
3795:-5.6695632116269996e+02
3796:-5.6695632116269996e+02
3797:-5.6695632116269996e+02
3798:-5.6695632116269996e+02
3799:-5.6695632116269996e+02
3800:-5.6695632116269996e+02
3801:-5.6695632116269996e+02
3802:-5.6695632116269996e+02
3803:-5.6695632116269996e+02
3804:-5.6695632116269996e+02
3805:-5.6695632116269996e+02
3806:-5.6695632116269996e+02

3807:-5.6548635794643326e+02
3808:-5.6548635794643326e+02
3809:-5.6548635794643326e+02
3810:-5.6548635794643326e+02
3811:-5.6548635794643326e+02
3812:-5.6548635794643326e+02
3813:-5.6548635794643326e+02
3814:-5.6548635794643326e+02
3815:-5.6548635794643326e+02
3816:-5.6548635794643326e+02
3817:-5.6548635794643326e+02
3818:-5.6548635794643326e+02
3819:-5.6548635794643326e+02
3820:-5.6548635794643326e+02
3821:-5.6548635794643326e+02
3822:-5.6548635794643326e+02
3823:-5.6548635794643326e+02
3824:-5.6548635794643326e+02
3825:-5.6548635794643326e+02
3826:-5.6548635794643326e+02
3827:-5.6548635794643326e+02
3828:-5.6548635794643326e+02
3829:-5.6548635794643326e+02
3830:-5.6548635794643326e+02
3831:-5.6548635794643326e+02
3832:-5.6548635794643326e+02
3833:-5.6548635794643326e+02

3834:1.2846411735489619e+02
3835:1.2846411735489619e+02
3836:1.2846411735489619e+02
3837:1.2846411735489619e+02
3838:1.2846411735489619e+02
3839:1.2846411735489619e+02
3840:1.2846411735489619e+02
3841:1.2846411735489619e+02
3842:1.2846411735489619e+02
3843:1.2846411735489619e+02
3844:1.2846411735489619e+02
3845:1.2846411735489619e+02
3846:1.2846411735489619e+02
3847:1.2846411735489619e+02
3848:1.2846411735489619e+02
3849:1.2846411735489619e+02
3850:1.2846411735489619e+02
3851:1.2846411735489619e+02
3852:1.2846411735489619e+02
3853:1.2846411735489619e+02
3854:1.2846411735489619e+02
3855:1.2846411735489619e+02
3856:1.2846411735489619e+02
3857:1.2846411735489619e+02
3858:1.2846411735489619e+02
3859:1.2846411735489619e+02
3860:1.2846411735489619e+02

3861:6.5926169013548034e+01
3862:6.5926169013548034e+01
3863:6.5926169013548034e+01
3864:6.5926169013548034e+01
3865:6.5926169013548034e+01
3866:6.5926169013548034e+01
3867:6.5926169013548034e+01
3868:6.5926169013548034e+01
3869:6.5926169013548034e+01
3870:6.5926169013548034e+01
3871:6.5926169013548034e+01
3872:6.5926169013548034e+01
3873:6.5926169013548034e+01
3874:6.5926169013548034e+01
3875:6.5926169013548034e+01
3876:6.5926169013548034e+01
3877:6.5926169013548034e+01
3878:6.5926169013548034e+01
3879:6.5926169013548034e+01
3880:6.5926169013548034e+01
3881:6.5926169013548034e+01
3882:6.5926169013548034e+01
3883:6.5926169013548034e+01
3884:6.5926169013548034e+01
3885:6.5926169013548034e+01
3886:6.5926169013548034e+01
3887:6.5926169013548034e+01

3888:-2.0390819642590458e+02
3889:-2.0390819642590458e+02
3890:-2.0390819642590458e+02
3891:-2.0390819642590458e+02
3892:-2.0390819642590458e+02
3893:-2.0390819642590458e+02
3894:-2.0390819642590458e+02
3895:-2.0390819642590458e+02
3896:-2.0390819642590458e+02
3897:-2.0390819642590458e+02
3898:-2.0390819642590458e+02
3899:-2.0390819642590458e+02
3900:-2.0390819642590458e+02
3901:-2.0390819642590458e+02
3902:-2.0390819642590458e+02
3903:-2.0390819642590458e+02
3904:-2.0390819642590458e+02
3905:-2.0390819642590458e+02
3906:-2.0390819642590458e+02
3907:-2.0390819642590458e+02
3908:-2.0390819642590458e+02
3909:-2.0390819642590458e+02
3910:-2.0390819642590458e+02
3911:-2.0390819642590458e+02
3912:-2.0390819642590458e+02
3913:-2.0390819642590458e+02
3914:-2.0390819642590458e+02

3915:3.9190865095872317e+02
3916:3.9190865095872317e+02
3917:3.9190865095872317e+02
3918:3.9190865095872317e+02
3919:3.9190865095872317e+02
3920:3.9190865095872317e+02
3921:3.9190865095872317e+02
3922:3.9190865095872317e+02
3923:3.9190865095872317e+02
3924:3.9190865095872317e+02
3925:3.9190865095872317e+02
3926:3.9190865095872317e+02
3927:3.9190865095872317e+02
3928:3.9190865095872317e+02
3929:3.9190865095872317e+02
3930:3.9190865095872317e+02
3931:3.9190865095872317e+02
3932:3.9190865095872317e+02
3933:3.9190865095872317e+02
3934:3.9190865095872317e+02
3935:3.9190865095872317e+02
3936:3.9190865095872317e+02
3937:3.9190865095872317e+02
3938:3.9190865095872317e+02
3939:3.9190865095872317e+02
3940:3.9190865095872317e+02
3941:3.9190865095872317e+02

3942:-7.3596501377385138e+01
3943:-7.3596501377385138e+01
3944:-7.3596501377385138e+01
3945:-7.3596501377385138e+01
3946:-7.3596501377385138e+01
3947:-7.3596501377385138e+01
3948:-7.3596501377385138e+01
3949:-7.3596501377385138e+01
3950:-7.3596501377385138e+01
3951:-7.3596501377385138e+01
3952:-7.3596501377385138e+01
3953:-7.3596501377385138e+01
3954:-7.3596501377385138e+01
3955:-7.3596501377385138e+01
3956:-7.3596501377385138e+01
3957:-7.3596501377385138e+01
3958:-7.3596501377385138e+01
3959:-7.3596501377385138e+01
3960:-7.3596501377385138e+01
3961:-7.3596501377385138e+01
3962:-7.3596501377385138e+01
3963:-7.3596501377385138e+01
3964:-7.3596501377385138e+01
3965:-7.3596501377385138e+01
3966:-7.3596501377385138e+01
3967:-7.3596501377385138e+01
3968:-7.3596501377385138e+01

3969:2.2405343825644198e+02
3970:2.2405343825644198e+02
3971:2.2405343825644198e+02
3972:2.2405343825644198e+02
3973:2.2405343825644198e+02
3974:2.2405343825644198e+02
3975:2.2405343825644198e+02
3976:2.2405343825644198e+02
3977:2.2405343825644198e+02
3978:2.2405343825644198e+02
3979:2.2405343825644198e+02
3980:2.2405343825644198e+02
3981:2.2405343825644198e+02
3982:2.2405343825644198e+02
3983:2.2405343825644198e+02
3984:2.2405343825644198e+02
3985:2.2405343825644198e+02
3986:2.2405343825644198e+02
3987:2.2405343825644198e+02
3988:2.2405343825644198e+02
3989:2.2405343825644198e+02
3990:2.2405343825644198e+02
3991:2.2405343825644198e+02
3992:2.2405343825644198e+02
3993:2.2405343825644198e+02
3994:2.2405343825644198e+02
3995:2.2405343825644198e+02

3996:1.7713312905004532e+01
3997:1.7713312905004532e+01
3998:1.7713312905004532e+01
3999:1.7713312905004532e+01
4000:1.7713312905004532e+01
4001:1.7713312905004532e+01
4002:1.7713312905004532e+01
4003:1.7713312905004532e+01
4004:1.7713312905004532e+01
4005:1.7713312905004532e+01
4006:1.7713312905004532e+01
4007:1.7713312905004532e+01
4008:1.7713312905004532e+01
4009:1.7713312905004532e+01
4010:1.7713312905004532e+01
4011:1.7713312905004532e+01
4012:1.7713312905004532e+01
4013:1.7713312905004532e+01
4014:1.7713312905004532e+01
4015:1.7713312905004532e+01
4016:1.7713312905004532e+01
4017:1.7713312905004532e+01
4018:1.7713312905004532e+01
4019:1.7713312905004532e+01
4020:1.7713312905004532e+01
4021:1.7713312905004532e+01
4022:1.7713312905004532e+01

4023:1.4396086404616719e+02
4024:1.4396086404616719e+02
4025:1.4396086404616719e+02
4026:1.4396086404616719e+02
4027:1.4396086404616719e+02
4028:1.4396086404616719e+02
4029:1.4396086404616719e+02
4030:1.4396086404616719e+02
4031:1.4396086404616719e+02
4032:1.4396086404616719e+02
4033:1.4396086404616719e+02
4034:1.4396086404616719e+02
4035:1.4396086404616719e+02
4036:1.4396086404616719e+02
4037:1.4396086404616719e+02
4038:1.4396086404616719e+02
4039:1.4396086404616719e+02
4040:1.4396086404616719e+02
4041:1.4396086404616719e+02
4042:1.4396086404616719e+02
4043:1.4396086404616719e+02
4044:1.4396086404616719e+02
4045:1.4396086404616719e+02
4046:1.4396086404616719e+02
4047:1.4396086404616719e+02
4048:1.4396086404616719e+02
4049:1.4396086404616719e+02

4050:8.2529048689961556e+01
4051:8.2529048689961556e+01
4052:8.2529048689961556e+01
4053:8.2529048689961556e+01
4054:8.2529048689961556e+01
4055:8.2529048689961556e+01
4056:8.2529048689961556e+01
4057:8.2529048689961556e+01
4058:8.2529048689961556e+01
4059:8.2529048689961556e+01
4060:8.2529048689961556e+01
4061:8.2529048689961556e+01
4062:8.2529048689961556e+01
4063:8.2529048689961556e+01
4064:8.2529048689961556e+01
4065:8.2529048689961556e+01
4066:8.2529048689961556e+01
4067:8.2529048689961556e+01
4068:8.2529048689961556e+01
4069:8.2529048689961556e+01
4070:8.2529048689961556e+01
4071:8.2529048689961556e+01
4072:8.2529048689961556e+01
4073:8.2529048689961556e+01
4074:8.2529048689961556e+01
4075:8.2529048689961556e+01
4076:8.2529048689961556e+01

4077:-1.6365967151245377e+02
4078:-1.6365967151245377e+02
4079:-1.6365967151245377e+02
4080:-1.6365967151245377e+02
4081:-1.6365967151245377e+02
4082:-1.6365967151245377e+02
4083:-1.6365967151245377e+02
4084:-1.6365967151245377e+02
4085:-1.6365967151245377e+02
4086:-1.6365967151245377e+02
4087:-1.6365967151245377e+02
4088:-1.6365967151245377e+02
4089:-1.6365967151245377e+02
4090:-1.6365967151245377e+02
4091:-1.6365967151245377e+02
4092:-1.6365967151245377e+02
4093:-1.6365967151245377e+02
4094:-1.6365967151245377e+02
4095:-1.6365967151245377e+02
4096:-1.6365967151245377e+02
4097:-1.6365967151245377e+02
4098:-1.6365967151245377e+02
4099:-1.6365967151245377e+02
4100:-1.6365967151245377e+02
4101:-1.6365967151245377e+02
4102:-1.6365967151245377e+02
4103:-1.6365967151245377e+02

4104:3.3555170784635953e+02
4105:3.3555170784635953e+02
4106:3.3555170784635953e+02
4107:3.3555170784635953e+02
4108:3.3555170784635953e+02
4109:3.3555170784635953e+02
4110:3.3555170784635953e+02
4111:3.3555170784635953e+02
4112:3.3555170784635953e+02
4113:3.3555170784635953e+02
4114:3.3555170784635953e+02
4115:3.3555170784635953e+02
4116:3.3555170784635953e+02
4117:3.3555170784635953e+02
4118:3.3555170784635953e+02
4119:3.3555170784635953e+02
4120:3.3555170784635953e+02
4121:3.3555170784635953e+02
4122:3.3555170784635953e+02
4123:3.3555170784635953e+02
4124:3.3555170784635953e+02
4125:3.3555170784635953e+02
4126:3.3555170784635953e+02
4127:3.3555170784635953e+02
4128:3.3555170784635953e+02
4129:3.3555170784635953e+02
4130:3.3555170784635953e+02

4131:-2.7081683811110474e+02
4132:-2.7081683811110474e+02
4133:-2.7081683811110474e+02
4134:-2.7081683811110474e+02
4135:-2.7081683811110474e+02
4136:-2.7081683811110474e+02
4137:-2.7081683811110474e+02
4138:-2.7081683811110474e+02
4139:-2.7081683811110474e+02
4140:-2.7081683811110474e+02
4141:-2.7081683811110474e+02
4142:-2.7081683811110474e+02
4143:-2.7081683811110474e+02
4144:-2.7081683811110474e+02
4145:-2.7081683811110474e+02
4146:-2.7081683811110474e+02
4147:-2.7081683811110474e+02
4148:-2.7081683811110474e+02
4149:-2.7081683811110474e+02
4150:-2.7081683811110474e+02
4151:-2.7081683811110474e+02
4152:-2.7081683811110474e+02
4153:-2.7081683811110474e+02
4154:-2.7081683811110474e+02
4155:-2.7081683811110474e+02
4156:-2.7081683811110474e+02
4157:-2.7081683811110474e+02

4158:2.8114651083831319e+02
4159:2.8114651083831319e+02
4160:2.8114651083831319e+02
4161:2.8114651083831319e+02
4162:2.8114651083831319e+02
4163:2.8114651083831319e+02
4164:2.8114651083831319e+02
4165:2.8114651083831319e+02
4166:2.8114651083831319e+02
4167:2.8114651083831319e+02
4168:2.8114651083831319e+02
4169:2.8114651083831319e+02
4170:2.8114651083831319e+02
4171:2.8114651083831319e+02
4172:2.8114651083831319e+02
4173:2.8114651083831319e+02
4174:2.8114651083831319e+02
4175:2.8114651083831319e+02
4176:2.8114651083831319e+02
4177:2.8114651083831319e+02
4178:2.8114651083831319e+02
4179:2.8114651083831319e+02
4180:2.8114651083831319e+02
4181:2.8114651083831319e+02
4182:2.8114651083831319e+02
4183:2.8114651083831319e+02
4184:2.8114651083831319e+02

4185:-1.8312436039431128e+02
4186:-1.8312436039431128e+02
4187:-1.8312436039431128e+02
4188:-1.8312436039431128e+02
4189:-1.8312436039431128e+02
4190:-1.8312436039431128e+02
4191:-1.8312436039431128e+02
4192:-1.8312436039431128e+02
4193:-1.8312436039431128e+02
4194:-1.8312436039431128e+02
4195:-1.8312436039431128e+02
4196:-1.8312436039431128e+02
4197:-1.8312436039431128e+02
4198:-1.8312436039431128e+02
4199:-1.8312436039431128e+02
4200:-1.8312436039431128e+02
4201:-1.8312436039431128e+02
4202:-1.8312436039431128e+02
4203:-1.8312436039431128e+02
4204:-1.8312436039431128e+02
4205:-1.8312436039431128e+02
4206:-1.8312436039431128e+02
4207:-1.8312436039431128e+02
4208:-1.8312436039431128e+02
4209:-1.8312436039431128e+02
4210:-1.8312436039431128e+02
4211:-1.8312436039431128e+02

4212:1.3238197030916862e+02
4213:1.3238197030916862e+02
4214:1.3238197030916862e+02
4215:1.3238197030916862e+02
4216:1.3238197030916862e+02
4217:1.3238197030916862e+02
4218:1.3238197030916862e+02
4219:1.3238197030916862e+02
4220:1.3238197030916862e+02
4221:1.3238197030916862e+02
4222:1.3238197030916862e+02
4223:1.3238197030916862e+02
4224:1.3238197030916862e+02
4225:1.3238197030916862e+02
4226:1.3238197030916862e+02
4227:1.3238197030916862e+02
4228:1.3238197030916862e+02
4229:1.3238197030916862e+02
4230:1.3238197030916862e+02
4231:1.3238197030916862e+02
4232:1.3238197030916862e+02
4233:1.3238197030916862e+02
4234:1.3238197030916862e+02
4235:1.3238197030916862e+02
4236:1.3238197030916862e+02
4237:1.3238197030916862e+02
4238:1.3238197030916862e+02

4239:1.2588636157506888e+02
4240:1.2588636157506888e+02
4241:1.2588636157506888e+02
4242:1.2588636157506888e+02
4243:1.2588636157506888e+02
4244:1.2588636157506888e+02
4245:1.2588636157506888e+02
4246:1.2588636157506888e+02
4247:1.2588636157506888e+02
4248:1.2588636157506888e+02
4249:1.2588636157506888e+02
4250:1.2588636157506888e+02
4251:1.2588636157506888e+02
4252:1.2588636157506888e+02
4253:1.2588636157506888e+02
4254:1.2588636157506888e+02
4255:1.2588636157506888e+02
4256:1.2588636157506888e+02
4257:1.2588636157506888e+02
4258:1.2588636157506888e+02
4259:1.2588636157506888e+02
4260:1.2588636157506888e+02
4261:1.2588636157506888e+02
4262:1.2588636157506888e+02
4263:1.2588636157506888e+02
4264:1.2588636157506888e+02
4265:1.2588636157506888e+02

4266:-2.7642040078105981e+02
4267:-2.7642040078105981e+02
4268:-2.7642040078105981e+02
4269:-2.7642040078105981e+02
4270:-2.7642040078105981e+02
4271:-2.7642040078105981e+02
4272:-2.7642040078105981e+02
4273:-2.7642040078105981e+02
4274:-2.7642040078105981e+02
4275:-2.7642040078105981e+02
4276:-2.7642040078105981e+02
4277:-2.7642040078105981e+02
4278:-2.7642040078105981e+02
4279:-2.7642040078105981e+02
4280:-2.7642040078105981e+02
4281:-2.7642040078105981e+02
4282:-2.7642040078105981e+02
4283:-2.7642040078105981e+02
4284:-2.7642040078105981e+02
4285:-2.7642040078105981e+02
4286:-2.7642040078105981e+02
4287:-2.7642040078105981e+02
4288:-2.7642040078105981e+02
4289:-2.7642040078105981e+02
4290:-2.7642040078105981e+02
4291:-2.7642040078105981e+02
4292:-2.7642040078105981e+02

4293:-1.5204212866634828e+02
4294:-1.5204212866634828e+02
4295:-1.5204212866634828e+02
4296:-1.5204212866634828e+02
4297:-1.5204212866634828e+02
4298:-1.5204212866634828e+02
4299:-1.5204212866634828e+02
4300:-1.5204212866634828e+02
4301:-1.5204212866634828e+02
4302:-1.5204212866634828e+02
4303:-1.5204212866634828e+02
4304:-1.5204212866634828e+02
4305:-1.5204212866634828e+02
4306:-1.5204212866634828e+02
4307:-1.5204212866634828e+02
4308:-1.5204212866634828e+02
4309:-1.5204212866634828e+02
4310:-1.5204212866634828e+02
4311:-1.5204212866634828e+02
4312:-1.5204212866634828e+02
4313:-1.5204212866634828e+02
4314:-1.5204212866634828e+02
4315:-1.5204212866634828e+02
4316:-1.5204212866634828e+02
4317:-1.5204212866634828e+02
4318:-1.5204212866634828e+02
4319:-1.5204212866634828e+02

4320:2.9314517574676455e+02
4321:2.9314517574676455e+02
4322:2.9314517574676455e+02
4323:2.9314517574676455e+02
4324:2.9314517574676455e+02
4325:2.9314517574676455e+02
4326:2.9314517574676455e+02
4327:2.9314517574676455e+02
4328:2.9314517574676455e+02
4329:2.9314517574676455e+02
4330:2.9314517574676455e+02
4331:2.9314517574676455e+02
4332:2.9314517574676455e+02
4333:2.9314517574676455e+02
4334:2.9314517574676455e+02
4335:2.9314517574676455e+02
4336:2.9314517574676455e+02
4337:2.9314517574676455e+02
4338:2.9314517574676455e+02
4339:2.9314517574676455e+02
4340:2.9314517574676455e+02
4341:2.9314517574676455e+02
4342:2.9314517574676455e+02
4343:2.9314517574676455e+02
4344:2.9314517574676455e+02
4345:2.9314517574676455e+02
4346:2.9314517574676455e+02

4347:-2.7905132740207609e+01
4348:-2.7905132740207609e+01
4349:-2.7905132740207609e+01
4350:-2.7905132740207609e+01
4351:-2.7905132740207609e+01
4352:-2.7905132740207609e+01
4353:-2.7905132740207609e+01
4354:-2.7905132740207609e+01
4355:-2.7905132740207609e+01
4356:-2.7905132740207609e+01
4357:-2.7905132740207609e+01
4358:-2.7905132740207609e+01
4359:-2.7905132740207609e+01
4360:-2.7905132740207609e+01
4361:-2.7905132740207609e+01
4362:-2.7905132740207609e+01
4363:-2.7905132740207609e+01
4364:-2.7905132740207609e+01
4365:-2.7905132740207609e+01
4366:-2.7905132740207609e+01
4367:-2.7905132740207609e+01
4368:-2.7905132740207609e+01
4369:-2.7905132740207609e+01
4370:-2.7905132740207609e+01
4371:-2.7905132740207609e+01
4372:-2.7905132740207609e+01
4373:-2.7905132740207609e+01




4374:4.0981567485239577e+02
4375:4.0981567485239577e+02
4376:4.0981567485239577e+02
4377:4.0981567485239577e+02
4378:4.0981567485239577e+02
4379:4.0981567485239577e+02
4380:4.0981567485239577e+02
4381:4.0981567485239577e+02
4382:4.0981567485239577e+02
4383:4.0981567485239577e+02
4384:4.0981567485239577e+02
4385:4.0981567485239577e+02
4386:4.0981567485239577e+02
4387:4.0981567485239577e+02
4388:4.0981567485239577e+02
4389:4.0981567485239577e+02
4390:4.0981567485239577e+02
4391:4.0981567485239577e+02
4392:4.0981567485239577e+02
4393:4.0981567485239577e+02
4394:4.0981567485239577e+02
4395:4.0981567485239577e+02
4396:4.0981567485239577e+02
4397:4.0981567485239577e+02
4398:4.0981567485239577e+02
4399:4.0981567485239577e+02
4400:4.0981567485239577e+02

4401:-3.8900167769678399e+02
4402:-3.8900167769678399e+02
4403:-3.8900167769678399e+02
4404:-3.8900167769678399e+02
4405:-3.8900167769678399e+02
4406:-3.8900167769678399e+02
4407:-3.8900167769678399e+02
4408:-3.8900167769678399e+02
4409:-3.8900167769678399e+02
4410:-3.8900167769678399e+02
4411:-3.8900167769678399e+02
4412:-3.8900167769678399e+02
4413:-3.8900167769678399e+02
4414:-3.8900167769678399e+02
4415:-3.8900167769678399e+02
4416:-3.8900167769678399e+02
4417:-3.8900167769678399e+02
4418:-3.8900167769678399e+02
4419:-3.8900167769678399e+02
4420:-3.8900167769678399e+02
4421:-3.8900167769678399e+02
4422:-3.8900167769678399e+02
4423:-3.8900167769678399e+02
4424:-3.8900167769678399e+02
4425:-3.8900167769678399e+02
4426:-3.8900167769678399e+02
4427:-3.8900167769678399e+02

4428:-7.7356926374461651e+01
4429:-7.7356926374461651e+01
4430:-7.7356926374461651e+01
4431:-7.7356926374461651e+01
4432:-7.7356926374461651e+01
4433:-7.7356926374461651e+01
4434:-7.7356926374461651e+01
4435:-7.7356926374461651e+01
4436:-7.7356926374461651e+01
4437:-7.7356926374461651e+01
4438:-7.7356926374461651e+01
4439:-7.7356926374461651e+01
4440:-7.7356926374461651e+01
4441:-7.7356926374461651e+01
4442:-7.7356926374461651e+01
4443:-7.7356926374461651e+01
4444:-7.7356926374461651e+01
4445:-7.7356926374461651e+01
4446:-7.7356926374461651e+01
4447:-7.7356926374461651e+01
4448:-7.7356926374461651e+01
4449:-7.7356926374461651e+01
4450:-7.7356926374461651e+01
4451:-7.7356926374461651e+01
4452:-7.7356926374461651e+01
4453:-7.7356926374461651e+01
4454:-7.7356926374461651e+01

4455:2.7529148349458643e+02
4456:2.7529148349458643e+02
4457:2.7529148349458643e+02
4458:2.7529148349458643e+02
4459:2.7529148349458643e+02
4460:2.7529148349458643e+02
4461:2.7529148349458643e+02
4462:2.7529148349458643e+02
4463:2.7529148349458643e+02
4464:2.7529148349458643e+02
4465:2.7529148349458643e+02
4466:2.7529148349458643e+02
4467:2.7529148349458643e+02
4468:2.7529148349458643e+02
4469:2.7529148349458643e+02
4470:2.7529148349458643e+02
4471:2.7529148349458643e+02
4472:2.7529148349458643e+02
4473:2.7529148349458643e+02
4474:2.7529148349458643e+02
4475:2.7529148349458643e+02
4476:2.7529148349458643e+02
4477:2.7529148349458643e+02
4478:2.7529148349458643e+02
4479:2.7529148349458643e+02
4480:2.7529148349458643e+02
4481:2.7529148349458643e+02

4482:-1.6113428255318970e+03
4483:-1.6113428255318970e+03
4484:-1.6113428255318970e+03
4485:-1.6113428255318970e+03
4486:-1.6113428255318970e+03
4487:-1.6113428255318970e+03
4488:-1.6113428255318970e+03
4489:-1.6113428255318970e+03
4490:-1.6113428255318970e+03
4491:-1.6113428255318970e+03
4492:-1.6113428255318970e+03
4493:-1.6113428255318970e+03
4494:-1.6113428255318970e+03
4495:-1.6113428255318970e+03
4496:-1.6113428255318970e+03
4497:-1.6113428255318970e+03
4498:-1.6113428255318970e+03
4499:-1.6113428255318970e+03
4500:-1.6113428255318970e+03
4501:-1.6113428255318970e+03
4502:-1.6113428255318970e+03
4503:-1.6113428255318970e+03
4504:-1.6113428255318970e+03
4505:-1.6113428255318970e+03
4506:-1.6113428255318970e+03
4507:-1.6113428255318970e+03
4508:-1.6113428255318970e+03

4509:5.0697528409424814e+02
4510:5.0697528409424814e+02
4511:5.0697528409424814e+02
4512:5.0697528409424814e+02
4513:5.0697528409424814e+02
4514:5.0697528409424814e+02
4515:5.0697528409424814e+02
4516:5.0697528409424814e+02
4517:5.0697528409424814e+02
4518:5.0697528409424814e+02
4519:5.0697528409424814e+02
4520:5.0697528409424814e+02
4521:5.0697528409424814e+02
4522:5.0697528409424814e+02
4523:5.0697528409424814e+02
4524:5.0697528409424814e+02
4525:5.0697528409424814e+02
4526:5.0697528409424814e+02
4527:5.0697528409424814e+02
4528:5.0697528409424814e+02
4529:5.0697528409424814e+02
4530:5.0697528409424814e+02
4531:5.0697528409424814e+02
4532:5.0697528409424814e+02
4533:5.0697528409424814e+02
4534:5.0697528409424814e+02
4535:5.0697528409424814e+02

4536:4.6177383660465483e+02
4537:4.6177383660465483e+02
4538:4.6177383660465483e+02
4539:4.6177383660465483e+02
4540:4.6177383660465483e+02
4541:4.6177383660465483e+02
4542:4.6177383660465483e+02
4543:4.6177383660465483e+02
4544:4.6177383660465483e+02
4545:4.6177383660465483e+02
4546:4.6177383660465483e+02
4547:4.6177383660465483e+02
4548:4.6177383660465483e+02
4549:4.6177383660465483e+02
4550:4.6177383660465483e+02
4551:4.6177383660465483e+02
4552:4.6177383660465483e+02
4553:4.6177383660465483e+02
4554:4.6177383660465483e+02
4555:4.6177383660465483e+02
4556:4.6177383660465483e+02
4557:4.6177383660465483e+02
4558:4.6177383660465483e+02
4559:4.6177383660465483e+02
4560:4.6177383660465483e+02
4561:4.6177383660465483e+02
4562:4.6177383660465483e+02

4563:-1.8873352297067822e+01
4564:-1.8873352297067822e+01
4565:-1.8873352297067822e+01
4566:-1.8873352297067822e+01
4567:-1.8873352297067822e+01
4568:-1.8873352297067822e+01
4569:-1.8873352297067822e+01
4570:-1.8873352297067822e+01
4571:-1.8873352297067822e+01
4572:-1.8873352297067822e+01
4573:-1.8873352297067822e+01
4574:-1.8873352297067822e+01
4575:-1.8873352297067822e+01
4576:-1.8873352297067822e+01
4577:-1.8873352297067822e+01
4578:-1.8873352297067822e+01
4579:-1.8873352297067822e+01
4580:-1.8873352297067822e+01
4581:-1.8873352297067822e+01
4582:-1.8873352297067822e+01
4583:-1.8873352297067822e+01
4584:-1.8873352297067822e+01
4585:-1.8873352297067822e+01
4586:-1.8873352297067822e+01
4587:-1.8873352297067822e+01
4588:-1.8873352297067822e+01
4589:-1.8873352297067822e+01

4590:-2.6026920531419574e+02
4591:-2.6026920531419574e+02
4592:-2.6026920531419574e+02
4593:-2.6026920531419574e+02
4594:-2.6026920531419574e+02
4595:-2.6026920531419574e+02
4596:-2.6026920531419574e+02
4597:-2.6026920531419574e+02
4598:-2.6026920531419574e+02
4599:-2.6026920531419574e+02
4600:-2.6026920531419574e+02
4601:-2.6026920531419574e+02
4602:-2.6026920531419574e+02
4603:-2.6026920531419574e+02
4604:-2.6026920531419574e+02
4605:-2.6026920531419574e+02
4606:-2.6026920531419574e+02
4607:-2.6026920531419574e+02
4608:-2.6026920531419574e+02
4609:-2.6026920531419574e+02
4610:-2.6026920531419574e+02
4611:-2.6026920531419574e+02
4612:-2.6026920531419574e+02
4613:-2.6026920531419574e+02
4614:-2.6026920531419574e+02
4615:-2.6026920531419574e+02
4616:-2.6026920531419574e+02

4617:1.7547513994736715e+02
4618:1.7547513994736715e+02
4619:1.7547513994736715e+02
4620:1.7547513994736715e+02
4621:1.7547513994736715e+02
4622:1.7547513994736715e+02
4623:1.7547513994736715e+02
4624:1.7547513994736715e+02
4625:1.7547513994736715e+02
4626:1.7547513994736715e+02
4627:1.7547513994736715e+02
4628:1.7547513994736715e+02
4629:1.7547513994736715e+02
4630:1.7547513994736715e+02
4631:1.7547513994736715e+02
4632:1.7547513994736715e+02
4633:1.7547513994736715e+02
4634:1.7547513994736715e+02
4635:1.7547513994736715e+02
4636:1.7547513994736715e+02
4637:1.7547513994736715e+02
4638:1.7547513994736715e+02
4639:1.7547513994736715e+02
4640:1.7547513994736715e+02
4641:1.7547513994736715e+02
4642:1.7547513994736715e+02
4643:1.7547513994736715e+02

4644:2.5476775647886249e+01
4645:2.5476775647886249e+01
4646:2.5476775647886249e+01
4647:2.5476775647886249e+01
4648:2.5476775647886249e+01
4649:2.5476775647886249e+01
4650:2.5476775647886249e+01
4651:2.5476775647886249e+01
4652:2.5476775647886249e+01
4653:2.5476775647886249e+01
4654:2.5476775647886249e+01
4655:2.5476775647886249e+01
4656:2.5476775647886249e+01
4657:2.5476775647886249e+01
4658:2.5476775647886249e+01
4659:2.5476775647886249e+01
4660:2.5476775647886249e+01
4661:2.5476775647886249e+01
4662:2.5476775647886249e+01
4663:2.5476775647886249e+01
4664:2.5476775647886249e+01
4665:2.5476775647886249e+01
4666:2.5476775647886249e+01
4667:2.5476775647886249e+01
4668:2.5476775647886249e+01
4669:2.5476775647886249e+01
4670:2.5476775647886249e+01

4671:-3.0584026423020509e+02
4672:-3.0584026423020509e+02
4673:-3.0584026423020509e+02
4674:-3.0584026423020509e+02
4675:-3.0584026423020509e+02
4676:-3.0584026423020509e+02
4677:-3.0584026423020509e+02
4678:-3.0584026423020509e+02
4679:-3.0584026423020509e+02
4680:-3.0584026423020509e+02
4681:-3.0584026423020509e+02
4682:-3.0584026423020509e+02
4683:-3.0584026423020509e+02
4684:-3.0584026423020509e+02
4685:-3.0584026423020509e+02
4686:-3.0584026423020509e+02
4687:-3.0584026423020509e+02
4688:-3.0584026423020509e+02
4689:-3.0584026423020509e+02
4690:-3.0584026423020509e+02
4691:-3.0584026423020509e+02
4692:-3.0584026423020509e+02
4693:-3.0584026423020509e+02
4694:-3.0584026423020509e+02
4695:-3.0584026423020509e+02
4696:-3.0584026423020509e+02
4697:-3.0584026423020509e+02

4698:-1.3668187654943447e+03
4699:-1.3668187654943447e+03
4700:-1.3668187654943447e+03
4701:-1.3668187654943447e+03
4702:-1.3668187654943447e+03
4703:-1.3668187654943447e+03
4704:-1.3668187654943447e+03
4705:-1.3668187654943447e+03
4706:-1.3668187654943447e+03
4707:-1.3668187654943447e+03
4708:-1.3668187654943447e+03
4709:-1.3668187654943447e+03
4710:-1.3668187654943447e+03
4711:-1.3668187654943447e+03
4712:-1.3668187654943447e+03
4713:-1.3668187654943447e+03
4714:-1.3668187654943447e+03
4715:-1.3668187654943447e+03
4716:-1.3668187654943447e+03
4717:-1.3668187654943447e+03
4718:-1.3668187654943447e+03
4719:-1.3668187654943447e+03
4720:-1.3668187654943447e+03
4721:-1.3668187654943447e+03
4722:-1.3668187654943447e+03
4723:-1.3668187654943447e+03
4724:-1.3668187654943447e+03

4725:-8.2349918337072779e+02
4726:-8.2349918337072779e+02
4727:-8.2349918337072779e+02
4728:-8.2349918337072779e+02
4729:-8.2349918337072779e+02
4730:-8.2349918337072779e+02
4731:-8.2349918337072779e+02
4732:-8.2349918337072779e+02
4733:-8.2349918337072779e+02
4734:-8.2349918337072779e+02
4735:-8.2349918337072779e+02
4736:-8.2349918337072779e+02
4737:-8.2349918337072779e+02
4738:-8.2349918337072779e+02
4739:-8.2349918337072779e+02
4740:-8.2349918337072779e+02
4741:-8.2349918337072779e+02
4742:-8.2349918337072779e+02
4743:-8.2349918337072779e+02
4744:-8.2349918337072779e+02
4745:-8.2349918337072779e+02
4746:-8.2349918337072779e+02
4747:-8.2349918337072779e+02
4748:-8.2349918337072779e+02
4749:-8.2349918337072779e+02
4750:-8.2349918337072779e+02
4751:-8.2349918337072779e+02

4752:-8.7436838572325428e+02
4753:-8.7436838572325428e+02
4754:-8.7436838572325428e+02
4755:-8.7436838572325428e+02
4756:-8.7436838572325428e+02
4757:-8.7436838572325428e+02
4758:-8.7436838572325428e+02
4759:-8.7436838572325428e+02
4760:-8.7436838572325428e+02
4761:-8.7436838572325428e+02
4762:-8.7436838572325428e+02
4763:-8.7436838572325428e+02
4764:-8.7436838572325428e+02
4765:-8.7436838572325428e+02
4766:-8.7436838572325428e+02
4767:-8.7436838572325428e+02
4768:-8.7436838572325428e+02
4769:-8.7436838572325428e+02
4770:-8.7436838572325428e+02
4771:-8.7436838572325428e+02
4772:-8.7436838572325428e+02
4773:-8.7436838572325428e+02
4774:-8.7436838572325428e+02
4775:-8.7436838572325428e+02
4776:-8.7436838572325428e+02
4777:-8.7436838572325428e+02
4778:-8.7436838572325428e+02

4779:-1.2555598021560729e+03
4780:-1.2555598021560729e+03
4781:-1.2555598021560729e+03
4782:-1.2555598021560729e+03
4783:-1.2555598021560729e+03
4784:-1.2555598021560729e+03
4785:-1.2555598021560729e+03
4786:-1.2555598021560729e+03
4787:-1.2555598021560729e+03
4788:-1.2555598021560729e+03
4789:-1.2555598021560729e+03
4790:-1.2555598021560729e+03
4791:-1.2555598021560729e+03
4792:-1.2555598021560729e+03
4793:-1.2555598021560729e+03
4794:-1.2555598021560729e+03
4795:-1.2555598021560729e+03
4796:-1.2555598021560729e+03
4797:-1.2555598021560729e+03
4798:-1.2555598021560729e+03
4799:-1.2555598021560729e+03
4800:-1.2555598021560729e+03
4801:-1.2555598021560729e+03
4802:-1.2555598021560729e+03
4803:-1.2555598021560729e+03
4804:-1.2555598021560729e+03
4805:-1.2555598021560729e+03

4806:-1.8796106560818821e+03
4807:-1.8796106560818821e+03
4808:-1.8796106560818821e+03
4809:-1.8796106560818821e+03
4810:-1.8796106560818821e+03
4811:-1.8796106560818821e+03
4812:-1.8796106560818821e+03
4813:-1.8796106560818821e+03
4814:-1.8796106560818821e+03
4815:-1.8796106560818821e+03
4816:-1.8796106560818821e+03
4817:-1.8796106560818821e+03
4818:-1.8796106560818821e+03
4819:-1.8796106560818821e+03
4820:-1.8796106560818821e+03
4821:-1.8796106560818821e+03
4822:-1.8796106560818821e+03
4823:-1.8796106560818821e+03
4824:-1.8796106560818821e+03
4825:-1.8796106560818821e+03
4826:-1.8796106560818821e+03
4827:-1.8796106560818821e+03
4828:-1.8796106560818821e+03
4829:-1.8796106560818821e+03
4830:-1.8796106560818821e+03
4831:-1.8796106560818821e+03
4832:-1.8796106560818821e+03

4833:-1.0016306447546248e+03
4834:-1.0016306447546248e+03
4835:-1.0016306447546248e+03
4836:-1.0016306447546248e+03
4837:-1.0016306447546248e+03
4838:-1.0016306447546248e+03
4839:-1.0016306447546248e+03
4840:-1.0016306447546248e+03
4841:-1.0016306447546248e+03
4842:-1.0016306447546248e+03
4843:-1.0016306447546248e+03
4844:-1.0016306447546248e+03
4845:-1.0016306447546248e+03
4846:-1.0016306447546248e+03
4847:-1.0016306447546248e+03
4848:-1.0016306447546248e+03
4849:-1.0016306447546248e+03
4850:-1.0016306447546248e+03
4851:-1.0016306447546248e+03
4852:-1.0016306447546248e+03
4853:-1.0016306447546248e+03
4854:-1.0016306447546248e+03
4855:-1.0016306447546248e+03
4856:-1.0016306447546248e+03
4857:-1.0016306447546248e+03
4858:-1.0016306447546248e+03
4859:-1.0016306447546248e+03

4860:-1.1188359135074375e+03
4861:-1.1188359135074375e+03
4862:-1.1188359135074375e+03
4863:-1.1188359135074375e+03
4864:-1.1188359135074375e+03
4865:-1.1188359135074375e+03
4866:-1.1188359135074375e+03
4867:-1.1188359135074375e+03
4868:-1.1188359135074375e+03
4869:-1.1188359135074375e+03
4870:-1.1188359135074375e+03
4871:-1.1188359135074375e+03
4872:-1.1188359135074375e+03
4873:-1.1188359135074375e+03
4874:-1.1188359135074375e+03
4875:-1.1188359135074375e+03
4876:-1.1188359135074375e+03
4877:-1.1188359135074375e+03
4878:-1.1188359135074375e+03
4879:-1.1188359135074375e+03
4880:-1.1188359135074375e+03
4881:-1.1188359135074375e+03
4882:-1.1188359135074375e+03
4883:-1.1188359135074375e+03
4884:-1.1188359135074375e+03
4885:-1.1188359135074375e+03
4886:-1.1188359135074375e+03

4887:-1.6601141065997392e+03
4888:-1.6601141065997392e+03
4889:-1.6601141065997392e+03
4890:-1.6601141065997392e+03
4891:-1.6601141065997392e+03
4892:-1.6601141065997392e+03
4893:-1.6601141065997392e+03
4894:-1.6601141065997392e+03
4895:-1.6601141065997392e+03
4896:-1.6601141065997392e+03
4897:-1.6601141065997392e+03
4898:-1.6601141065997392e+03
4899:-1.6601141065997392e+03
4900:-1.6601141065997392e+03
4901:-1.6601141065997392e+03
4902:-1.6601141065997392e+03
4903:-1.6601141065997392e+03
4904:-1.6601141065997392e+03
4905:-1.6601141065997392e+03
4906:-1.6601141065997392e+03
4907:-1.6601141065997392e+03
4908:-1.6601141065997392e+03
4909:-1.6601141065997392e+03
4910:-1.6601141065997392e+03
4911:-1.6601141065997392e+03
4912:-1.6601141065997392e+03
4913:-1.6601141065997392e+03

4914:3.3703157215593546e+02
4915:3.3703157215593546e+02
4916:3.3703157215593546e+02
4917:3.3703157215593546e+02
4918:3.3703157215593546e+02
4919:3.3703157215593546e+02
4920:3.3703157215593546e+02
4921:3.3703157215593546e+02
4922:3.3703157215593546e+02
4923:3.3703157215593546e+02
4924:3.3703157215593546e+02
4925:3.3703157215593546e+02
4926:3.3703157215593546e+02
4927:3.3703157215593546e+02
4928:3.3703157215593546e+02
4929:3.3703157215593546e+02
4930:3.3703157215593546e+02
4931:3.3703157215593546e+02
4932:3.3703157215593546e+02
4933:3.3703157215593546e+02
4934:3.3703157215593546e+02
4935:3.3703157215593546e+02
4936:3.3703157215593546e+02
4937:3.3703157215593546e+02
4938:3.3703157215593546e+02
4939:3.3703157215593546e+02
4940:3.3703157215593546e+02

4941:-6.3321820644458376e+02
4942:-6.3321820644458376e+02
4943:-6.3321820644458376e+02
4944:-6.3321820644458376e+02
4945:-6.3321820644458376e+02
4946:-6.3321820644458376e+02
4947:-6.3321820644458376e+02
4948:-6.3321820644458376e+02
4949:-6.3321820644458376e+02
4950:-6.3321820644458376e+02
4951:-6.3321820644458376e+02
4952:-6.3321820644458376e+02
4953:-6.3321820644458376e+02
4954:-6.3321820644458376e+02
4955:-6.3321820644458376e+02
4956:-6.3321820644458376e+02
4957:-6.3321820644458376e+02
4958:-6.3321820644458376e+02
4959:-6.3321820644458376e+02
4960:-6.3321820644458376e+02
4961:-6.3321820644458376e+02
4962:-6.3321820644458376e+02
4963:-6.3321820644458376e+02
4964:-6.3321820644458376e+02
4965:-6.3321820644458376e+02
4966:-6.3321820644458376e+02
4967:-6.3321820644458376e+02

4968:-7.0741011592945267e+02
4969:-7.0741011592945267e+02
4970:-7.0741011592945267e+02
4971:-7.0741011592945267e+02
4972:-7.0741011592945267e+02
4973:-7.0741011592945267e+02
4974:-7.0741011592945267e+02
4975:-7.0741011592945267e+02
4976:-7.0741011592945267e+02
4977:-7.0741011592945267e+02
4978:-7.0741011592945267e+02
4979:-7.0741011592945267e+02
4980:-7.0741011592945267e+02
4981:-7.0741011592945267e+02
4982:-7.0741011592945267e+02
4983:-7.0741011592945267e+02
4984:-7.0741011592945267e+02
4985:-7.0741011592945267e+02
4986:-7.0741011592945267e+02
4987:-7.0741011592945267e+02
4988:-7.0741011592945267e+02
4989:-7.0741011592945267e+02
4990:-7.0741011592945267e+02
4991:-7.0741011592945267e+02
4992:-7.0741011592945267e+02
4993:-7.0741011592945267e+02
4994:-7.0741011592945267e+02

4995:-1.2835716235700197e+03
4996:-1.2835716235700197e+03
4997:-1.2835716235700197e+03
4998:-1.2835716235700197e+03
4999:-1.2835716235700197e+03
5000:-1.2835716235700197e+03
5001:-1.2835716235700197e+03
5002:-1.2835716235700197e+03
5003:-1.2835716235700197e+03
5004:-1.2835716235700197e+03
5005:-1.2835716235700197e+03
5006:-1.2835716235700197e+03
5007:-1.2835716235700197e+03
5008:-1.2835716235700197e+03
5009:-1.2835716235700197e+03
5010:-1.2835716235700197e+03
5011:-1.2835716235700197e+03
5012:-1.2835716235700197e+03
5013:-1.2835716235700197e+03
5014:-1.2835716235700197e+03
5015:-1.2835716235700197e+03
5016:-1.2835716235700197e+03
5017:-1.2835716235700197e+03
5018:-1.2835716235700197e+03
5019:-1.2835716235700197e+03
5020:-1.2835716235700197e+03
5021:-1.2835716235700197e+03

5022:6.9393538485807085e+02
5023:6.9393538485807085e+02
5024:6.9393538485807085e+02
5025:6.9393538485807085e+02
5026:6.9393538485807085e+02
5027:6.9393538485807085e+02
5028:6.9393538485807085e+02
5029:6.9393538485807085e+02
5030:6.9393538485807085e+02
5031:6.9393538485807085e+02
5032:6.9393538485807085e+02
5033:6.9393538485807085e+02
5034:6.9393538485807085e+02
5035:6.9393538485807085e+02
5036:6.9393538485807085e+02
5037:6.9393538485807085e+02
5038:6.9393538485807085e+02
5039:6.9393538485807085e+02
5040:6.9393538485807085e+02
5041:6.9393538485807085e+02
5042:6.9393538485807085e+02
5043:6.9393538485807085e+02
5044:6.9393538485807085e+02
5045:6.9393538485807085e+02
5046:6.9393538485807085e+02
5047:6.9393538485807085e+02
5048:6.9393538485807085e+02

5049:2.3505718843285544e+02
5050:2.3505718843285544e+02
5051:2.3505718843285544e+02
5052:2.3505718843285544e+02
5053:2.3505718843285544e+02
5054:2.3505718843285544e+02
5055:2.3505718843285544e+02
5056:2.3505718843285544e+02
5057:2.3505718843285544e+02
5058:2.3505718843285544e+02
5059:2.3505718843285544e+02
5060:2.3505718843285544e+02
5061:2.3505718843285544e+02
5062:2.3505718843285544e+02
5063:2.3505718843285544e+02
5064:2.3505718843285544e+02
5065:2.3505718843285544e+02
5066:2.3505718843285544e+02
5067:2.3505718843285544e+02
5068:2.3505718843285544e+02
5069:2.3505718843285544e+02
5070:2.3505718843285544e+02
5071:2.3505718843285544e+02
5072:2.3505718843285544e+02
5073:2.3505718843285544e+02
5074:2.3505718843285544e+02
5075:2.3505718843285544e+02

5076:5.3742397482888634e+02
5077:5.3742397482888634e+02
5078:5.3742397482888634e+02
5079:5.3742397482888634e+02
5080:5.3742397482888634e+02
5081:5.3742397482888634e+02
5082:5.3742397482888634e+02
5083:5.3742397482888634e+02
5084:5.3742397482888634e+02
5085:5.3742397482888634e+02
5086:5.3742397482888634e+02
5087:5.3742397482888634e+02
5088:5.3742397482888634e+02
5089:5.3742397482888634e+02
5090:5.3742397482888634e+02
5091:5.3742397482888634e+02
5092:5.3742397482888634e+02
5093:5.3742397482888634e+02
5094:5.3742397482888634e+02
5095:5.3742397482888634e+02
5096:5.3742397482888634e+02
5097:5.3742397482888634e+02
5098:5.3742397482888634e+02
5099:5.3742397482888634e+02
5100:5.3742397482888634e+02
5101:5.3742397482888634e+02
5102:5.3742397482888634e+02

5103:4.1106851522013761e+02
5104:4.1106851522013761e+02
5105:4.1106851522013761e+02
5106:4.1106851522013761e+02
5107:4.1106851522013761e+02
5108:4.1106851522013761e+02
5109:4.1106851522013761e+02
5110:4.1106851522013761e+02
5111:4.1106851522013761e+02
5112:4.1106851522013761e+02
5113:4.1106851522013761e+02
5114:4.1106851522013761e+02
5115:4.1106851522013761e+02
5116:4.1106851522013761e+02
5117:4.1106851522013761e+02
5118:4.1106851522013761e+02
5119:4.1106851522013761e+02
5120:4.1106851522013761e+02
5121:4.1106851522013761e+02
5122:4.1106851522013761e+02
5123:4.1106851522013761e+02
5124:4.1106851522013761e+02
5125:4.1106851522013761e+02
5126:4.1106851522013761e+02
5127:4.1106851522013761e+02
5128:4.1106851522013761e+02
5129:4.1106851522013761e+02

5130:1.4000816081968178e+03
5131:1.4000816081968178e+03
5132:1.4000816081968178e+03
5133:1.4000816081968178e+03
5134:1.4000816081968178e+03
5135:1.4000816081968178e+03
5136:1.4000816081968178e+03
5137:1.4000816081968178e+03
5138:1.4000816081968178e+03
5139:1.4000816081968178e+03
5140:1.4000816081968178e+03
5141:1.4000816081968178e+03
5142:1.4000816081968178e+03
5143:1.4000816081968178e+03
5144:1.4000816081968178e+03
5145:1.4000816081968178e+03
5146:1.4000816081968178e+03
5147:1.4000816081968178e+03
5148:1.4000816081968178e+03
5149:1.4000816081968178e+03
5150:1.4000816081968178e+03
5151:1.4000816081968178e+03
5152:1.4000816081968178e+03
5153:1.4000816081968178e+03
5154:1.4000816081968178e+03
5155:1.4000816081968178e+03
5156:1.4000816081968178e+03

5157:1.6879307625140282e+02
5158:1.6879307625140282e+02
5159:1.6879307625140282e+02
5160:1.6879307625140282e+02
5161:1.6879307625140282e+02
5162:1.6879307625140282e+02
5163:1.6879307625140282e+02
5164:1.6879307625140282e+02
5165:1.6879307625140282e+02
5166:1.6879307625140282e+02
5167:1.6879307625140282e+02
5168:1.6879307625140282e+02
5169:1.6879307625140282e+02
5170:1.6879307625140282e+02
5171:1.6879307625140282e+02
5172:1.6879307625140282e+02
5173:1.6879307625140282e+02
5174:1.6879307625140282e+02
5175:1.6879307625140282e+02
5176:1.6879307625140282e+02
5177:1.6879307625140282e+02
5178:1.6879307625140282e+02
5179:1.6879307625140282e+02
5180:1.6879307625140282e+02
5181:1.6879307625140282e+02
5182:1.6879307625140282e+02
5183:1.6879307625140282e+02

5184:2.3219446255868479e+02
5185:2.3219446255868479e+02
5186:2.3219446255868479e+02
5187:2.3219446255868479e+02
5188:2.3219446255868479e+02
5189:2.3219446255868479e+02
5190:2.3219446255868479e+02
5191:2.3219446255868479e+02
5192:2.3219446255868479e+02
5193:2.3219446255868479e+02
5194:2.3219446255868479e+02
5195:2.3219446255868479e+02
5196:2.3219446255868479e+02
5197:2.3219446255868479e+02
5198:2.3219446255868479e+02
5199:2.3219446255868479e+02
5200:2.3219446255868479e+02
5201:2.3219446255868479e+02
5202:2.3219446255868479e+02
5203:2.3219446255868479e+02
5204:2.3219446255868479e+02
5205:2.3219446255868479e+02
5206:2.3219446255868479e+02
5207:2.3219446255868479e+02
5208:2.3219446255868479e+02
5209:2.3219446255868479e+02
5210:2.3219446255868479e+02

5211:1.0084722213562715e+03
5212:1.0084722213562715e+03
5213:1.0084722213562715e+03
5214:1.0084722213562715e+03
5215:1.0084722213562715e+03
5216:1.0084722213562715e+03
5217:1.0084722213562715e+03
5218:1.0084722213562715e+03
5219:1.0084722213562715e+03
5220:1.0084722213562715e+03
5221:1.0084722213562715e+03
5222:1.0084722213562715e+03
5223:1.0084722213562715e+03
5224:1.0084722213562715e+03
5225:1.0084722213562715e+03
5226:1.0084722213562715e+03
5227:1.0084722213562715e+03
5228:1.0084722213562715e+03
5229:1.0084722213562715e+03
5230:1.0084722213562715e+03
5231:1.0084722213562715e+03
5232:1.0084722213562715e+03
5233:1.0084722213562715e+03
5234:1.0084722213562715e+03
5235:1.0084722213562715e+03
5236:1.0084722213562715e+03
5237:1.0084722213562715e+03

5238:1.5716415253592359e+02
5239:1.5716415253592359e+02
5240:1.5716415253592359e+02
5241:1.5716415253592359e+02
5242:1.5716415253592359e+02
5243:1.5716415253592359e+02
5244:1.5716415253592359e+02
5245:1.5716415253592359e+02
5246:1.5716415253592359e+02
5247:1.5716415253592359e+02
5248:1.5716415253592359e+02
5249:1.5716415253592359e+02
5250:1.5716415253592359e+02
5251:1.5716415253592359e+02
5252:1.5716415253592359e+02
5253:1.5716415253592359e+02
5254:1.5716415253592359e+02
5255:1.5716415253592359e+02
5256:1.5716415253592359e+02
5257:1.5716415253592359e+02
5258:1.5716415253592359e+02
5259:1.5716415253592359e+02
5260:1.5716415253592359e+02
5261:1.5716415253592359e+02
5262:1.5716415253592359e+02
5263:1.5716415253592359e+02
5264:1.5716415253592359e+02

5265:-3.0253532945876356e+02
5266:-3.0253532945876356e+02
5267:-3.0253532945876356e+02
5268:-3.0253532945876356e+02
5269:-3.0253532945876356e+02
5270:-3.0253532945876356e+02
5271:-3.0253532945876356e+02
5272:-3.0253532945876356e+02
5273:-3.0253532945876356e+02
5274:-3.0253532945876356e+02
5275:-3.0253532945876356e+02
5276:-3.0253532945876356e+02
5277:-3.0253532945876356e+02
5278:-3.0253532945876356e+02
5279:-3.0253532945876356e+02
5280:-3.0253532945876356e+02
5281:-3.0253532945876356e+02
5282:-3.0253532945876356e+02
5283:-3.0253532945876356e+02
5284:-3.0253532945876356e+02
5285:-3.0253532945876356e+02
5286:-3.0253532945876356e+02
5287:-3.0253532945876356e+02
5288:-3.0253532945876356e+02
5289:-3.0253532945876356e+02
5290:-3.0253532945876356e+02
5291:-3.0253532945876356e+02

5292:-3.8678859541726570e+02
5293:-3.8678859541726570e+02
5294:-3.8678859541726570e+02
5295:-3.8678859541726570e+02
5296:-3.8678859541726570e+02
5297:-3.8678859541726570e+02
5298:-3.8678859541726570e+02
5299:-3.8678859541726570e+02
5300:-3.8678859541726570e+02
5301:-3.8678859541726570e+02
5302:-3.8678859541726570e+02
5303:-3.8678859541726570e+02
5304:-3.8678859541726570e+02
5305:-3.8678859541726570e+02
5306:-3.8678859541726570e+02
5307:-3.8678859541726570e+02
5308:-3.8678859541726570e+02
5309:-3.8678859541726570e+02
5310:-3.8678859541726570e+02
5311:-3.8678859541726570e+02
5312:-3.8678859541726570e+02
5313:-3.8678859541726570e+02
5314:-3.8678859541726570e+02
5315:-3.8678859541726570e+02
5316:-3.8678859541726570e+02
5317:-3.8678859541726570e+02
5318:-3.8678859541726570e+02

5319:8.4553576270887731e+01
5320:8.4553576270887731e+01
5321:8.4553576270887731e+01
5322:8.4553576270887731e+01
5323:8.4553576270887731e+01
5324:8.4553576270887731e+01
5325:8.4553576270887731e+01
5326:8.4553576270887731e+01
5327:8.4553576270887731e+01
5328:8.4553576270887731e+01
5329:8.4553576270887731e+01
5330:8.4553576270887731e+01
5331:8.4553576270887731e+01
5332:8.4553576270887731e+01
5333:8.4553576270887731e+01
5334:8.4553576270887731e+01
5335:8.4553576270887731e+01
5336:8.4553576270887731e+01
5337:8.4553576270887731e+01
5338:8.4553576270887731e+01
5339:8.4553576270887731e+01
5340:8.4553576270887731e+01
5341:8.4553576270887731e+01
5342:8.4553576270887731e+01
5343:8.4553576270887731e+01
5344:8.4553576270887731e+01
5345:8.4553576270887731e+01

5346:1.0491776570632169e+03
5347:1.0491776570632169e+03
5348:1.0491776570632169e+03
5349:1.0491776570632169e+03
5350:1.0491776570632169e+03
5351:1.0491776570632169e+03
5352:1.0491776570632169e+03
5353:1.0491776570632169e+03
5354:1.0491776570632169e+03
5355:1.0491776570632169e+03
5356:1.0491776570632169e+03
5357:1.0491776570632169e+03
5358:1.0491776570632169e+03
5359:1.0491776570632169e+03
5360:1.0491776570632169e+03
5361:1.0491776570632169e+03
5362:1.0491776570632169e+03
5363:1.0491776570632169e+03
5364:1.0491776570632169e+03
5365:1.0491776570632169e+03
5366:1.0491776570632169e+03
5367:1.0491776570632169e+03
5368:1.0491776570632169e+03
5369:1.0491776570632169e+03
5370:1.0491776570632169e+03
5371:1.0491776570632169e+03
5372:1.0491776570632169e+03

5373:3.1342501720951554e+02
5374:3.1342501720951554e+02
5375:3.1342501720951554e+02
5376:3.1342501720951554e+02
5377:3.1342501720951554e+02
5378:3.1342501720951554e+02
5379:3.1342501720951554e+02
5380:3.1342501720951554e+02
5381:3.1342501720951554e+02
5382:3.1342501720951554e+02
5383:3.1342501720951554e+02
5384:3.1342501720951554e+02
5385:3.1342501720951554e+02
5386:3.1342501720951554e+02
5387:3.1342501720951554e+02
5388:3.1342501720951554e+02
5389:3.1342501720951554e+02
5390:3.1342501720951554e+02
5391:3.1342501720951554e+02
5392:3.1342501720951554e+02
5393:3.1342501720951554e+02
5394:3.1342501720951554e+02
5395:3.1342501720951554e+02
5396:3.1342501720951554e+02
5397:3.1342501720951554e+02
5398:3.1342501720951554e+02
5399:3.1342501720951554e+02

5400:4.5380588700136673e+02
5401:4.5380588700136673e+02
5402:4.5380588700136673e+02
5403:4.5380588700136673e+02
5404:4.5380588700136673e+02
5405:4.5380588700136673e+02
5406:4.5380588700136673e+02
5407:4.5380588700136673e+02
5408:4.5380588700136673e+02
5409:4.5380588700136673e+02
5410:4.5380588700136673e+02
5411:4.5380588700136673e+02
5412:4.5380588700136673e+02
5413:4.5380588700136673e+02
5414:4.5380588700136673e+02
5415:4.5380588700136673e+02
5416:4.5380588700136673e+02
5417:4.5380588700136673e+02
5418:4.5380588700136673e+02
5419:4.5380588700136673e+02
5420:4.5380588700136673e+02
5421:4.5380588700136673e+02
5422:4.5380588700136673e+02
5423:4.5380588700136673e+02
5424:4.5380588700136673e+02
5425:4.5380588700136673e+02
5426:4.5380588700136673e+02

5427:1.6169525753162650e+03
5428:1.6169525753162650e+03
5429:1.6169525753162650e+03
5430:1.6169525753162650e+03
5431:1.6169525753162650e+03
5432:1.6169525753162650e+03
5433:1.6169525753162650e+03
5434:1.6169525753162650e+03
5435:1.6169525753162650e+03
5436:1.6169525753162650e+03
5437:1.6169525753162650e+03
5438:1.6169525753162650e+03
5439:1.6169525753162650e+03
5440:1.6169525753162650e+03
5441:1.6169525753162650e+03
5442:1.6169525753162650e+03
5443:1.6169525753162650e+03
5444:1.6169525753162650e+03
5445:1.6169525753162650e+03
5446:1.6169525753162650e+03
5447:1.6169525753162650e+03
5448:1.6169525753162650e+03
5449:1.6169525753162650e+03
5450:1.6169525753162650e+03
5451:1.6169525753162650e+03
5452:1.6169525753162650e+03
5453:1.6169525753162650e+03

5454:-1.2644442763892707e+03
5455:-1.2644442763892707e+03
5456:-1.2644442763892707e+03
5457:-1.2644442763892707e+03
5458:-1.2644442763892707e+03
5459:-1.2644442763892707e+03
5460:-1.2644442763892707e+03
5461:-1.2644442763892707e+03
5462:-1.2644442763892707e+03
5463:-1.2644442763892707e+03
5464:-1.2644442763892707e+03
5465:-1.2644442763892707e+03
5466:-1.2644442763892707e+03
5467:-1.2644442763892707e+03
5468:-1.2644442763892707e+03
5469:-1.2644442763892707e+03
5470:-1.2644442763892707e+03
5471:-1.2644442763892707e+03
5472:-1.2644442763892707e+03
5473:-1.2644442763892707e+03
5474:-1.2644442763892707e+03
5475:-1.2644442763892707e+03
5476:-1.2644442763892707e+03
5477:-1.2644442763892707e+03
5478:-1.2644442763892707e+03
5479:-1.2644442763892707e+03
5480:-1.2644442763892707e+03

5481:3.8169923757328633e+01
5482:3.8169923757328633e+01
5483:3.8169923757328633e+01
5484:3.8169923757328633e+01
5485:3.8169923757328633e+01
5486:3.8169923757328633e+01
5487:3.8169923757328633e+01
5488:3.8169923757328633e+01
5489:3.8169923757328633e+01
5490:3.8169923757328633e+01
5491:3.8169923757328633e+01
5492:3.8169923757328633e+01
5493:3.8169923757328633e+01
5494:3.8169923757328633e+01
5495:3.8169923757328633e+01
5496:3.8169923757328633e+01
5497:3.8169923757328633e+01
5498:3.8169923757328633e+01
5499:3.8169923757328633e+01
5500:3.8169923757328633e+01
5501:3.8169923757328633e+01
5502:3.8169923757328633e+01
5503:3.8169923757328633e+01
5504:3.8169923757328633e+01
5505:3.8169923757328633e+01
5506:3.8169923757328633e+01
5507:3.8169923757328633e+01

5508:3.6203696898110587e+02
5509:3.6203696898110587e+02
5510:3.6203696898110587e+02
5511:3.6203696898110587e+02
5512:3.6203696898110587e+02
5513:3.6203696898110587e+02
5514:3.6203696898110587e+02
5515:3.6203696898110587e+02
5516:3.6203696898110587e+02
5517:3.6203696898110587e+02
5518:3.6203696898110587e+02
5519:3.6203696898110587e+02
5520:3.6203696898110587e+02
5521:3.6203696898110587e+02
5522:3.6203696898110587e+02
5523:3.6203696898110587e+02
5524:3.6203696898110587e+02
5525:3.6203696898110587e+02
5526:3.6203696898110587e+02
5527:3.6203696898110587e+02
5528:3.6203696898110587e+02
5529:3.6203696898110587e+02
5530:3.6203696898110587e+02
5531:3.6203696898110587e+02
5532:3.6203696898110587e+02
5533:3.6203696898110587e+02
5534:3.6203696898110587e+02

5535:1.7159961167956883e+03
5536:1.7159961167956883e+03
5537:1.7159961167956883e+03
5538:1.7159961167956883e+03
5539:1.7159961167956883e+03
5540:1.7159961167956883e+03
5541:1.7159961167956883e+03
5542:1.7159961167956883e+03
5543:1.7159961167956883e+03
5544:1.7159961167956883e+03
5545:1.7159961167956883e+03
5546:1.7159961167956883e+03
5547:1.7159961167956883e+03
5548:1.7159961167956883e+03
5549:1.7159961167956883e+03
5550:1.7159961167956883e+03
5551:1.7159961167956883e+03
5552:1.7159961167956883e+03
5553:1.7159961167956883e+03
5554:1.7159961167956883e+03
5555:1.7159961167956883e+03
5556:1.7159961167956883e+03
5557:1.7159961167956883e+03
5558:1.7159961167956883e+03
5559:1.7159961167956883e+03
5560:1.7159961167956883e+03
5561:1.7159961167956883e+03

5562:3.4154095471339713e+02
5563:3.4154095471339713e+02
5564:3.4154095471339713e+02
5565:3.4154095471339713e+02
5566:3.4154095471339713e+02
5567:3.4154095471339713e+02
5568:3.4154095471339713e+02
5569:3.4154095471339713e+02
5570:3.4154095471339713e+02
5571:3.4154095471339713e+02
5572:3.4154095471339713e+02
5573:3.4154095471339713e+02
5574:3.4154095471339713e+02
5575:3.4154095471339713e+02
5576:3.4154095471339713e+02
5577:3.4154095471339713e+02
5578:3.4154095471339713e+02
5579:3.4154095471339713e+02
5580:3.4154095471339713e+02
5581:3.4154095471339713e+02
5582:3.4154095471339713e+02
5583:3.4154095471339713e+02
5584:3.4154095471339713e+02
5585:3.4154095471339713e+02
5586:3.4154095471339713e+02
5587:3.4154095471339713e+02
5588:3.4154095471339713e+02

5589:-3.3277740257556331e+02
5590:-3.3277740257556331e+02
5591:-3.3277740257556331e+02
5592:-3.3277740257556331e+02
5593:-3.3277740257556331e+02
5594:-3.3277740257556331e+02
5595:-3.3277740257556331e+02
5596:-3.3277740257556331e+02
5597:-3.3277740257556331e+02
5598:-3.3277740257556331e+02
5599:-3.3277740257556331e+02
5600:-3.3277740257556331e+02
5601:-3.3277740257556331e+02
5602:-3.3277740257556331e+02
5603:-3.3277740257556331e+02
5604:-3.3277740257556331e+02
5605:-3.3277740257556331e+02
5606:-3.3277740257556331e+02
5607:-3.3277740257556331e+02
5608:-3.3277740257556331e+02
5609:-3.3277740257556331e+02
5610:-3.3277740257556331e+02
5611:-3.3277740257556331e+02
5612:-3.3277740257556331e+02
5613:-3.3277740257556331e+02
5614:-3.3277740257556331e+02
5615:-3.3277740257556331e+02

5616:-2.7017055431215516e+02
5617:-2.7017055431215516e+02
5618:-2.7017055431215516e+02
5619:-2.7017055431215516e+02
5620:-2.7017055431215516e+02
5621:-2.7017055431215516e+02
5622:-2.7017055431215516e+02
5623:-2.7017055431215516e+02
5624:-2.7017055431215516e+02
5625:-2.7017055431215516e+02
5626:-2.7017055431215516e+02
5627:-2.7017055431215516e+02
5628:-2.7017055431215516e+02
5629:-2.7017055431215516e+02
5630:-2.7017055431215516e+02
5631:-2.7017055431215516e+02
5632:-2.7017055431215516e+02
5633:-2.7017055431215516e+02
5634:-2.7017055431215516e+02
5635:-2.7017055431215516e+02
5636:-2.7017055431215516e+02
5637:-2.7017055431215516e+02
5638:-2.7017055431215516e+02
5639:-2.7017055431215516e+02
5640:-2.7017055431215516e+02
5641:-2.7017055431215516e+02
5642:-2.7017055431215516e+02

5643:2.1195696682269465e+02
5644:2.1195696682269465e+02
5645:2.1195696682269465e+02
5646:2.1195696682269465e+02
5647:2.1195696682269465e+02
5648:2.1195696682269465e+02
5649:2.1195696682269465e+02
5650:2.1195696682269465e+02
5651:2.1195696682269465e+02
5652:2.1195696682269465e+02
5653:2.1195696682269465e+02
5654:2.1195696682269465e+02
5655:2.1195696682269465e+02
5656:2.1195696682269465e+02
5657:2.1195696682269465e+02
5658:2.1195696682269465e+02
5659:2.1195696682269465e+02
5660:2.1195696682269465e+02
5661:2.1195696682269465e+02
5662:2.1195696682269465e+02
5663:2.1195696682269465e+02
5664:2.1195696682269465e+02
5665:2.1195696682269465e+02
5666:2.1195696682269465e+02
5667:2.1195696682269465e+02
5668:2.1195696682269465e+02
5669:2.1195696682269465e+02

5670:1.1334478215487310e+02
5671:1.1334478215487310e+02
5672:1.1334478215487310e+02
5673:1.1334478215487310e+02
5674:1.1334478215487310e+02
5675:1.1334478215487310e+02
5676:1.1334478215487310e+02
5677:1.1334478215487310e+02
5678:1.1334478215487310e+02
5679:1.1334478215487310e+02
5680:1.1334478215487310e+02
5681:1.1334478215487310e+02
5682:1.1334478215487310e+02
5683:1.1334478215487310e+02
5684:1.1334478215487310e+02
5685:1.1334478215487310e+02
5686:1.1334478215487310e+02
5687:1.1334478215487310e+02
5688:1.1334478215487310e+02
5689:1.1334478215487310e+02
5690:1.1334478215487310e+02
5691:1.1334478215487310e+02
5692:1.1334478215487310e+02
5693:1.1334478215487310e+02
5694:1.1334478215487310e+02
5695:1.1334478215487310e+02
5696:1.1334478215487310e+02

5697:2.1712349640800365e+01
5698:2.1712349640800365e+01
5699:2.1712349640800365e+01
5700:2.1712349640800365e+01
5701:2.1712349640800365e+01
5702:2.1712349640800365e+01
5703:2.1712349640800365e+01
5704:2.1712349640800365e+01
5705:2.1712349640800365e+01
5706:2.1712349640800365e+01
5707:2.1712349640800365e+01
5708:2.1712349640800365e+01
5709:2.1712349640800365e+01
5710:2.1712349640800365e+01
5711:2.1712349640800365e+01
5712:2.1712349640800365e+01
5713:2.1712349640800365e+01
5714:2.1712349640800365e+01
5715:2.1712349640800365e+01
5716:2.1712349640800365e+01
5717:2.1712349640800365e+01
5718:2.1712349640800365e+01
5719:2.1712349640800365e+01
5720:2.1712349640800365e+01
5721:2.1712349640800365e+01
5722:2.1712349640800365e+01
5723:2.1712349640800365e+01

5724:3.2990831351908660e+01
5725:3.2990831351908660e+01
5726:3.2990831351908660e+01
5727:3.2990831351908660e+01
5728:3.2990831351908660e+01
5729:3.2990831351908660e+01
5730:3.2990831351908660e+01
5731:3.2990831351908660e+01
5732:3.2990831351908660e+01
5733:3.2990831351908660e+01
5734:3.2990831351908660e+01
5735:3.2990831351908660e+01
5736:3.2990831351908660e+01
5737:3.2990831351908660e+01
5738:3.2990831351908660e+01
5739:3.2990831351908660e+01
5740:3.2990831351908660e+01
5741:3.2990831351908660e+01
5742:3.2990831351908660e+01
5743:3.2990831351908660e+01
5744:3.2990831351908660e+01
5745:3.2990831351908660e+01
5746:3.2990831351908660e+01
5747:3.2990831351908660e+01
5748:3.2990831351908660e+01
5749:3.2990831351908660e+01
5750:3.2990831351908660e+01

5751:-1.5322741582112809e+02
5752:-1.5322741582112809e+02
5753:-1.5322741582112809e+02
5754:-1.5322741582112809e+02
5755:-1.5322741582112809e+02
5756:-1.5322741582112809e+02
5757:-1.5322741582112809e+02
5758:-1.5322741582112809e+02
5759:-1.5322741582112809e+02
5760:-1.5322741582112809e+02
5761:-1.5322741582112809e+02
5762:-1.5322741582112809e+02
5763:-1.5322741582112809e+02
5764:-1.5322741582112809e+02
5765:-1.5322741582112809e+02
5766:-1.5322741582112809e+02
5767:-1.5322741582112809e+02
5768:-1.5322741582112809e+02
5769:-1.5322741582112809e+02
5770:-1.5322741582112809e+02
5771:-1.5322741582112809e+02
5772:-1.5322741582112809e+02
5773:-1.5322741582112809e+02
5774:-1.5322741582112809e+02
5775:-1.5322741582112809e+02
5776:-1.5322741582112809e+02
5777:-1.5322741582112809e+02

5778:-4.4140754935514997e+02
5779:-4.4140754935514997e+02
5780:-4.4140754935514997e+02
5781:-4.4140754935514997e+02
5782:-4.4140754935514997e+02
5783:-4.4140754935514997e+02
5784:-4.4140754935514997e+02
5785:-4.4140754935514997e+02
5786:-4.4140754935514997e+02
5787:-4.4140754935514997e+02
5788:-4.4140754935514997e+02
5789:-4.4140754935514997e+02
5790:-4.4140754935514997e+02
5791:-4.4140754935514997e+02
5792:-4.4140754935514997e+02
5793:-4.4140754935514997e+02
5794:-4.4140754935514997e+02
5795:-4.4140754935514997e+02
5796:-4.4140754935514997e+02
5797:-4.4140754935514997e+02
5798:-4.4140754935514997e+02
5799:-4.4140754935514997e+02
5800:-4.4140754935514997e+02
5801:-4.4140754935514997e+02
5802:-4.4140754935514997e+02
5803:-4.4140754935514997e+02
5804:-4.4140754935514997e+02

5805:-3.3928410897791315e+02
5806:-3.3928410897791315e+02
5807:-3.3928410897791315e+02
5808:-3.3928410897791315e+02
5809:-3.3928410897791315e+02
5810:-3.3928410897791315e+02
5811:-3.3928410897791315e+02
5812:-3.3928410897791315e+02
5813:-3.3928410897791315e+02
5814:-3.3928410897791315e+02
5815:-3.3928410897791315e+02
5816:-3.3928410897791315e+02
5817:-3.3928410897791315e+02
5818:-3.3928410897791315e+02
5819:-3.3928410897791315e+02
5820:-3.3928410897791315e+02
5821:-3.3928410897791315e+02
5822:-3.3928410897791315e+02
5823:-3.3928410897791315e+02
5824:-3.3928410897791315e+02
5825:-3.3928410897791315e+02
5826:-3.3928410897791315e+02
5827:-3.3928410897791315e+02
5828:-3.3928410897791315e+02
5829:-3.3928410897791315e+02
5830:-3.3928410897791315e+02
5831:-3.3928410897791315e+02

5832:-1.6199139514022269e+02
5833:-1.6199139514022269e+02
5834:-1.6199139514022269e+02
5835:-1.6199139514022269e+02
5836:-1.6199139514022269e+02
5837:-1.6199139514022269e+02
5838:-1.6199139514022269e+02
5839:-1.6199139514022269e+02
5840:-1.6199139514022269e+02
5841:-1.6199139514022269e+02
5842:-1.6199139514022269e+02
5843:-1.6199139514022269e+02
5844:-1.6199139514022269e+02
5845:-1.6199139514022269e+02
5846:-1.6199139514022269e+02
5847:-1.6199139514022269e+02
5848:-1.6199139514022269e+02
5849:-1.6199139514022269e+02
5850:-1.6199139514022269e+02
5851:-1.6199139514022269e+02
5852:-1.6199139514022269e+02
5853:-1.6199139514022269e+02
5854:-1.6199139514022269e+02
5855:-1.6199139514022269e+02
5856:-1.6199139514022269e+02
5857:-1.6199139514022269e+02
5858:-1.6199139514022269e+02

5859:4.2350867653489792e+02
5860:4.2350867653489792e+02
5861:4.2350867653489792e+02
5862:4.2350867653489792e+02
5863:4.2350867653489792e+02
5864:4.2350867653489792e+02
5865:4.2350867653489792e+02
5866:4.2350867653489792e+02
5867:4.2350867653489792e+02
5868:4.2350867653489792e+02
5869:4.2350867653489792e+02
5870:4.2350867653489792e+02
5871:4.2350867653489792e+02
5872:4.2350867653489792e+02
5873:4.2350867653489792e+02
5874:4.2350867653489792e+02
5875:4.2350867653489792e+02
5876:4.2350867653489792e+02
5877:4.2350867653489792e+02
5878:4.2350867653489792e+02
5879:4.2350867653489792e+02
5880:4.2350867653489792e+02
5881:4.2350867653489792e+02
5882:4.2350867653489792e+02
5883:4.2350867653489792e+02
5884:4.2350867653489792e+02
5885:4.2350867653489792e+02

5886:-5.9781522110049004e+01
5887:-5.9781522110049004e+01
5888:-5.9781522110049004e+01
5889:-5.9781522110049004e+01
5890:-5.9781522110049004e+01
5891:-5.9781522110049004e+01
5892:-5.9781522110049004e+01
5893:-5.9781522110049004e+01
5894:-5.9781522110049004e+01
5895:-5.9781522110049004e+01
5896:-5.9781522110049004e+01
5897:-5.9781522110049004e+01
5898:-5.9781522110049004e+01
5899:-5.9781522110049004e+01
5900:-5.9781522110049004e+01
5901:-5.9781522110049004e+01
5902:-5.9781522110049004e+01
5903:-5.9781522110049004e+01
5904:-5.9781522110049004e+01
5905:-5.9781522110049004e+01
5906:-5.9781522110049004e+01
5907:-5.9781522110049004e+01
5908:-5.9781522110049004e+01
5909:-5.9781522110049004e+01
5910:-5.9781522110049004e+01
5911:-5.9781522110049004e+01
5912:-5.9781522110049004e+01

5913:-1.6225005557226518e+02
5914:-1.6225005557226518e+02
5915:-1.6225005557226518e+02
5916:-1.6225005557226518e+02
5917:-1.6225005557226518e+02
5918:-1.6225005557226518e+02
5919:-1.6225005557226518e+02
5920:-1.6225005557226518e+02
5921:-1.6225005557226518e+02
5922:-1.6225005557226518e+02
5923:-1.6225005557226518e+02
5924:-1.6225005557226518e+02
5925:-1.6225005557226518e+02
5926:-1.6225005557226518e+02
5927:-1.6225005557226518e+02
5928:-1.6225005557226518e+02
5929:-1.6225005557226518e+02
5930:-1.6225005557226518e+02
5931:-1.6225005557226518e+02
5932:-1.6225005557226518e+02
5933:-1.6225005557226518e+02
5934:-1.6225005557226518e+02
5935:-1.6225005557226518e+02
5936:-1.6225005557226518e+02
5937:-1.6225005557226518e+02
5938:-1.6225005557226518e+02
5939:-1.6225005557226518e+02

5940:-2.2411421148111293e+02
5941:-2.2411421148111293e+02
5942:-2.2411421148111293e+02
5943:-2.2411421148111293e+02
5944:-2.2411421148111293e+02
5945:-2.2411421148111293e+02
5946:-2.2411421148111293e+02
5947:-2.2411421148111293e+02
5948:-2.2411421148111293e+02
5949:-2.2411421148111293e+02
5950:-2.2411421148111293e+02
5951:-2.2411421148111293e+02
5952:-2.2411421148111293e+02
5953:-2.2411421148111293e+02
5954:-2.2411421148111293e+02
5955:-2.2411421148111293e+02
5956:-2.2411421148111293e+02
5957:-2.2411421148111293e+02
5958:-2.2411421148111293e+02
5959:-2.2411421148111293e+02
5960:-2.2411421148111293e+02
5961:-2.2411421148111293e+02
5962:-2.2411421148111293e+02
5963:-2.2411421148111293e+02
5964:-2.2411421148111293e+02
5965:-2.2411421148111293e+02
5966:-2.2411421148111293e+02

5967:-7.4884928308824317e+02
5968:-7.4884928308824317e+02
5969:-7.4884928308824317e+02
5970:-7.4884928308824317e+02
5971:-7.4884928308824317e+02
5972:-7.4884928308824317e+02
5973:-7.4884928308824317e+02
5974:-7.4884928308824317e+02
5975:-7.4884928308824317e+02
5976:-7.4884928308824317e+02
5977:-7.4884928308824317e+02
5978:-7.4884928308824317e+02
5979:-7.4884928308824317e+02
5980:-7.4884928308824317e+02
5981:-7.4884928308824317e+02
5982:-7.4884928308824317e+02
5983:-7.4884928308824317e+02
5984:-7.4884928308824317e+02
5985:-7.4884928308824317e+02
5986:-7.4884928308824317e+02
5987:-7.4884928308824317e+02
5988:-7.4884928308824317e+02
5989:-7.4884928308824317e+02
5990:-7.4884928308824317e+02
5991:-7.4884928308824317e+02
5992:-7.4884928308824317e+02
5993:-7.4884928308824317e+02

5994:5.6800825753270033e+01
5995:5.6800825753270033e+01
5996:5.6800825753270033e+01
5997:5.6800825753270033e+01
5998:5.6800825753270033e+01
5999:5.6800825753270033e+01
6000:5.6800825753270033e+01
6001:5.6800825753270033e+01
6002:5.6800825753270033e+01
6003:5.6800825753270033e+01
6004:5.6800825753270033e+01
6005:5.6800825753270033e+01
6006:5.6800825753270033e+01
6007:5.6800825753270033e+01
6008:5.6800825753270033e+01
6009:5.6800825753270033e+01
6010:5.6800825753270033e+01
6011:5.6800825753270033e+01
6012:5.6800825753270033e+01
6013:5.6800825753270033e+01
6014:5.6800825753270033e+01
6015:5.6800825753270033e+01
6016:5.6800825753270033e+01
6017:5.6800825753270033e+01
6018:5.6800825753270033e+01
6019:5.6800825753270033e+01
6020:5.6800825753270033e+01

6021:1.5606996931651167e+03
6022:1.5606996931651167e+03
6023:1.5606996931651167e+03
6024:1.5606996931651167e+03
6025:1.5606996931651167e+03
6026:1.5606996931651167e+03
6027:1.5606996931651167e+03
6028:1.5606996931651167e+03
6029:1.5606996931651167e+03
6030:1.5606996931651167e+03
6031:1.5606996931651167e+03
6032:1.5606996931651167e+03
6033:1.5606996931651167e+03
6034:1.5606996931651167e+03
6035:1.5606996931651167e+03
6036:1.5606996931651167e+03
6037:1.5606996931651167e+03
6038:1.5606996931651167e+03
6039:1.5606996931651167e+03
6040:1.5606996931651167e+03
6041:1.5606996931651167e+03
6042:1.5606996931651167e+03
6043:1.5606996931651167e+03
6044:1.5606996931651167e+03
6045:1.5606996931651167e+03
6046:1.5606996931651167e+03
6047:1.5606996931651167e+03

6048:1.2944718882675566e+03
6049:1.2944718882675566e+03
6050:1.2944718882675566e+03
6051:1.2944718882675566e+03
6052:1.2944718882675566e+03
6053:1.2944718882675566e+03
6054:1.2944718882675566e+03
6055:1.2944718882675566e+03
6056:1.2944718882675566e+03
6057:1.2944718882675566e+03
6058:1.2944718882675566e+03
6059:1.2944718882675566e+03
6060:1.2944718882675566e+03
6061:1.2944718882675566e+03
6062:1.2944718882675566e+03
6063:1.2944718882675566e+03
6064:1.2944718882675566e+03
6065:1.2944718882675566e+03
6066:1.2944718882675566e+03
6067:1.2944718882675566e+03
6068:1.2944718882675566e+03
6069:1.2944718882675566e+03
6070:1.2944718882675566e+03
6071:1.2944718882675566e+03
6072:1.2944718882675566e+03
6073:1.2944718882675566e+03
6074:1.2944718882675566e+03

6075:1.3774672375416483e+03
6076:1.3774672375416483e+03
6077:1.3774672375416483e+03
6078:1.3774672375416483e+03
6079:1.3774672375416483e+03
6080:1.3774672375416483e+03
6081:1.3774672375416483e+03
6082:1.3774672375416483e+03
6083:1.3774672375416483e+03
6084:1.3774672375416483e+03
6085:1.3774672375416483e+03
6086:1.3774672375416483e+03
6087:1.3774672375416483e+03
6088:1.3774672375416483e+03
6089:1.3774672375416483e+03
6090:1.3774672375416483e+03
6091:1.3774672375416483e+03
6092:1.3774672375416483e+03
6093:1.3774672375416483e+03
6094:1.3774672375416483e+03
6095:1.3774672375416483e+03
6096:1.3774672375416483e+03
6097:1.3774672375416483e+03
6098:1.3774672375416483e+03
6099:1.3774672375416483e+03
6100:1.3774672375416483e+03
6101:1.3774672375416483e+03

6102:1.6136679498234267e+02
6103:1.6136679498234267e+02
6104:1.6136679498234267e+02
6105:1.6136679498234267e+02
6106:1.6136679498234267e+02
6107:1.6136679498234267e+02
6108:1.6136679498234267e+02
6109:1.6136679498234267e+02
6110:1.6136679498234267e+02
6111:1.6136679498234267e+02
6112:1.6136679498234267e+02
6113:1.6136679498234267e+02
6114:1.6136679498234267e+02
6115:1.6136679498234267e+02
6116:1.6136679498234267e+02
6117:1.6136679498234267e+02
6118:1.6136679498234267e+02
6119:1.6136679498234267e+02
6120:1.6136679498234267e+02
6121:1.6136679498234267e+02
6122:1.6136679498234267e+02
6123:1.6136679498234267e+02
6124:1.6136679498234267e+02
6125:1.6136679498234267e+02
6126:1.6136679498234267e+02
6127:1.6136679498234267e+02
6128:1.6136679498234267e+02

6129:-1.3694707430660438e+02
6130:-1.3694707430660438e+02
6131:-1.3694707430660438e+02
6132:-1.3694707430660438e+02
6133:-1.3694707430660438e+02
6134:-1.3694707430660438e+02
6135:-1.3694707430660438e+02
6136:-1.3694707430660438e+02
6137:-1.3694707430660438e+02
6138:-1.3694707430660438e+02
6139:-1.3694707430660438e+02
6140:-1.3694707430660438e+02
6141:-1.3694707430660438e+02
6142:-1.3694707430660438e+02
6143:-1.3694707430660438e+02
6144:-1.3694707430660438e+02
6145:-1.3694707430660438e+02
6146:-1.3694707430660438e+02
6147:-1.3694707430660438e+02
6148:-1.3694707430660438e+02
6149:-1.3694707430660438e+02
6150:-1.3694707430660438e+02
6151:-1.3694707430660438e+02
6152:-1.3694707430660438e+02
6153:-1.3694707430660438e+02
6154:-1.3694707430660438e+02
6155:-1.3694707430660438e+02

6156:-5.1117851172042634e+01
6157:-5.1117851172042634e+01
6158:-5.1117851172042634e+01
6159:-5.1117851172042634e+01
6160:-5.1117851172042634e+01
6161:-5.1117851172042634e+01
6162:-5.1117851172042634e+01
6163:-5.1117851172042634e+01
6164:-5.1117851172042634e+01
6165:-5.1117851172042634e+01
6166:-5.1117851172042634e+01
6167:-5.1117851172042634e+01
6168:-5.1117851172042634e+01
6169:-5.1117851172042634e+01
6170:-5.1117851172042634e+01
6171:-5.1117851172042634e+01
6172:-5.1117851172042634e+01
6173:-5.1117851172042634e+01
6174:-5.1117851172042634e+01
6175:-5.1117851172042634e+01
6176:-5.1117851172042634e+01
6177:-5.1117851172042634e+01
6178:-5.1117851172042634e+01
6179:-5.1117851172042634e+01
6180:-5.1117851172042634e+01
6181:-5.1117851172042634e+01
6182:-5.1117851172042634e+01

6183:1.2076325744382181e+02
6184:1.2076325744382181e+02
6185:1.2076325744382181e+02
6186:1.2076325744382181e+02
6187:1.2076325744382181e+02
6188:1.2076325744382181e+02
6189:1.2076325744382181e+02
6190:1.2076325744382181e+02
6191:1.2076325744382181e+02
6192:1.2076325744382181e+02
6193:1.2076325744382181e+02
6194:1.2076325744382181e+02
6195:1.2076325744382181e+02
6196:1.2076325744382181e+02
6197:1.2076325744382181e+02
6198:1.2076325744382181e+02
6199:1.2076325744382181e+02
6200:1.2076325744382181e+02
6201:1.2076325744382181e+02
6202:1.2076325744382181e+02
6203:1.2076325744382181e+02
6204:1.2076325744382181e+02
6205:1.2076325744382181e+02
6206:1.2076325744382181e+02
6207:1.2076325744382181e+02
6208:1.2076325744382181e+02
6209:1.2076325744382181e+02

6210:-1.1604618810851493e+03
6211:-1.1604618810851493e+03
6212:-1.1604618810851493e+03
6213:-1.1604618810851493e+03
6214:-1.1604618810851493e+03
6215:-1.1604618810851493e+03
6216:-1.1604618810851493e+03
6217:-1.1604618810851493e+03
6218:-1.1604618810851493e+03
6219:-1.1604618810851493e+03
6220:-1.1604618810851493e+03
6221:-1.1604618810851493e+03
6222:-1.1604618810851493e+03
6223:-1.1604618810851493e+03
6224:-1.1604618810851493e+03
6225:-1.1604618810851493e+03
6226:-1.1604618810851493e+03
6227:-1.1604618810851493e+03
6228:-1.1604618810851493e+03
6229:-1.1604618810851493e+03
6230:-1.1604618810851493e+03
6231:-1.1604618810851493e+03
6232:-1.1604618810851493e+03
6233:-1.1604618810851493e+03
6234:-1.1604618810851493e+03
6235:-1.1604618810851493e+03
6236:-1.1604618810851493e+03

6237:-2.5703645186715551e+02
6238:-2.5703645186715551e+02
6239:-2.5703645186715551e+02
6240:-2.5703645186715551e+02
6241:-2.5703645186715551e+02
6242:-2.5703645186715551e+02
6243:-2.5703645186715551e+02
6244:-2.5703645186715551e+02
6245:-2.5703645186715551e+02
6246:-2.5703645186715551e+02
6247:-2.5703645186715551e+02
6248:-2.5703645186715551e+02
6249:-2.5703645186715551e+02
6250:-2.5703645186715551e+02
6251:-2.5703645186715551e+02
6252:-2.5703645186715551e+02
6253:-2.5703645186715551e+02
6254:-2.5703645186715551e+02
6255:-2.5703645186715551e+02
6256:-2.5703645186715551e+02
6257:-2.5703645186715551e+02
6258:-2.5703645186715551e+02
6259:-2.5703645186715551e+02
6260:-2.5703645186715551e+02
6261:-2.5703645186715551e+02
6262:-2.5703645186715551e+02
6263:-2.5703645186715551e+02

6264:-1.9453621925552335e+02
6265:-1.9453621925552335e+02
6266:-1.9453621925552335e+02
6267:-1.9453621925552335e+02
6268:-1.9453621925552335e+02
6269:-1.9453621925552335e+02
6270:-1.9453621925552335e+02
6271:-1.9453621925552335e+02
6272:-1.9453621925552335e+02
6273:-1.9453621925552335e+02
6274:-1.9453621925552335e+02
6275:-1.9453621925552335e+02
6276:-1.9453621925552335e+02
6277:-1.9453621925552335e+02
6278:-1.9453621925552335e+02
6279:-1.9453621925552335e+02
6280:-1.9453621925552335e+02
6281:-1.9453621925552335e+02
6282:-1.9453621925552335e+02
6283:-1.9453621925552335e+02
6284:-1.9453621925552335e+02
6285:-1.9453621925552335e+02
6286:-1.9453621925552335e+02
6287:-1.9453621925552335e+02
6288:-1.9453621925552335e+02
6289:-1.9453621925552335e+02
6290:-1.9453621925552335e+02

6291:-1.2162617242123220e+03
6292:-1.2162617242123220e+03
6293:-1.2162617242123220e+03
6294:-1.2162617242123220e+03
6295:-1.2162617242123220e+03
6296:-1.2162617242123220e+03
6297:-1.2162617242123220e+03
6298:-1.2162617242123220e+03
6299:-1.2162617242123220e+03
6300:-1.2162617242123220e+03
6301:-1.2162617242123220e+03
6302:-1.2162617242123220e+03
6303:-1.2162617242123220e+03
6304:-1.2162617242123220e+03
6305:-1.2162617242123220e+03
6306:-1.2162617242123220e+03
6307:-1.2162617242123220e+03
6308:-1.2162617242123220e+03
6309:-1.2162617242123220e+03
6310:-1.2162617242123220e+03
6311:-1.2162617242123220e+03
6312:-1.2162617242123220e+03
6313:-1.2162617242123220e+03
6314:-1.2162617242123220e+03
6315:-1.2162617242123220e+03
6316:-1.2162617242123220e+03
6317:-1.2162617242123220e+03

6318:-9.2236038912910340e+02
6319:-9.2236038912910340e+02
6320:-9.2236038912910340e+02
6321:-9.2236038912910340e+02
6322:-9.2236038912910340e+02
6323:-9.2236038912910340e+02
6324:-9.2236038912910340e+02
6325:-9.2236038912910340e+02
6326:-9.2236038912910340e+02
6327:-9.2236038912910340e+02
6328:-9.2236038912910340e+02
6329:-9.2236038912910340e+02
6330:-9.2236038912910340e+02
6331:-9.2236038912910340e+02
6332:-9.2236038912910340e+02
6333:-9.2236038912910340e+02
6334:-9.2236038912910340e+02
6335:-9.2236038912910340e+02
6336:-9.2236038912910340e+02
6337:-9.2236038912910340e+02
6338:-9.2236038912910340e+02
6339:-9.2236038912910340e+02
6340:-9.2236038912910340e+02
6341:-9.2236038912910340e+02
6342:-9.2236038912910340e+02
6343:-9.2236038912910340e+02
6344:-9.2236038912910340e+02

6345:-6.9983707433346524e+02
6346:-6.9983707433346524e+02
6347:-6.9983707433346524e+02
6348:-6.9983707433346524e+02
6349:-6.9983707433346524e+02
6350:-6.9983707433346524e+02
6351:-6.9983707433346524e+02
6352:-6.9983707433346524e+02
6353:-6.9983707433346524e+02
6354:-6.9983707433346524e+02
6355:-6.9983707433346524e+02
6356:-6.9983707433346524e+02
6357:-6.9983707433346524e+02
6358:-6.9983707433346524e+02
6359:-6.9983707433346524e+02
6360:-6.9983707433346524e+02
6361:-6.9983707433346524e+02
6362:-6.9983707433346524e+02
6363:-6.9983707433346524e+02
6364:-6.9983707433346524e+02
6365:-6.9983707433346524e+02
6366:-6.9983707433346524e+02
6367:-6.9983707433346524e+02
6368:-6.9983707433346524e+02
6369:-6.9983707433346524e+02
6370:-6.9983707433346524e+02
6371:-6.9983707433346524e+02

6372:-3.9799843810316321e+02
6373:-3.9799843810316321e+02
6374:-3.9799843810316321e+02
6375:-3.9799843810316321e+02
6376:-3.9799843810316321e+02
6377:-3.9799843810316321e+02
6378:-3.9799843810316321e+02
6379:-3.9799843810316321e+02
6380:-3.9799843810316321e+02
6381:-3.9799843810316321e+02
6382:-3.9799843810316321e+02
6383:-3.9799843810316321e+02
6384:-3.9799843810316321e+02
6385:-3.9799843810316321e+02
6386:-3.9799843810316321e+02
6387:-3.9799843810316321e+02
6388:-3.9799843810316321e+02
6389:-3.9799843810316321e+02
6390:-3.9799843810316321e+02
6391:-3.9799843810316321e+02
6392:-3.9799843810316321e+02
6393:-3.9799843810316321e+02
6394:-3.9799843810316321e+02
6395:-3.9799843810316321e+02
6396:-3.9799843810316321e+02
6397:-3.9799843810316321e+02
6398:-3.9799843810316321e+02

6399:3.0580356689152472e+02
6400:3.0580356689152472e+02
6401:3.0580356689152472e+02
6402:3.0580356689152472e+02
6403:3.0580356689152472e+02
6404:3.0580356689152472e+02
6405:3.0580356689152472e+02
6406:3.0580356689152472e+02
6407:3.0580356689152472e+02
6408:3.0580356689152472e+02
6409:3.0580356689152472e+02
6410:3.0580356689152472e+02
6411:3.0580356689152472e+02
6412:3.0580356689152472e+02
6413:3.0580356689152472e+02
6414:3.0580356689152472e+02
6415:3.0580356689152472e+02
6416:3.0580356689152472e+02
6417:3.0580356689152472e+02
6418:3.0580356689152472e+02
6419:3.0580356689152472e+02
6420:3.0580356689152472e+02
6421:3.0580356689152472e+02
6422:3.0580356689152472e+02
6423:3.0580356689152472e+02
6424:3.0580356689152472e+02
6425:3.0580356689152472e+02

6426:-9.5877477418937963e+02
6427:-9.5877477418937963e+02
6428:-9.5877477418937963e+02
6429:-9.5877477418937963e+02
6430:-9.5877477418937963e+02
6431:-9.5877477418937963e+02
6432:-9.5877477418937963e+02
6433:-9.5877477418937963e+02
6434:-9.5877477418937963e+02
6435:-9.5877477418937963e+02
6436:-9.5877477418937963e+02
6437:-9.5877477418937963e+02
6438:-9.5877477418937963e+02
6439:-9.5877477418937963e+02
6440:-9.5877477418937963e+02
6441:-9.5877477418937963e+02
6442:-9.5877477418937963e+02
6443:-9.5877477418937963e+02
6444:-9.5877477418937963e+02
6445:-9.5877477418937963e+02
6446:-9.5877477418937963e+02
6447:-9.5877477418937963e+02
6448:-9.5877477418937963e+02
6449:-9.5877477418937963e+02
6450:-9.5877477418937963e+02
6451:-9.5877477418937963e+02
6452:-9.5877477418937963e+02

6453:-2.5022629384694713e+02
6454:-2.5022629384694713e+02
6455:-2.5022629384694713e+02
6456:-2.5022629384694713e+02
6457:-2.5022629384694713e+02
6458:-2.5022629384694713e+02
6459:-2.5022629384694713e+02
6460:-2.5022629384694713e+02
6461:-2.5022629384694713e+02
6462:-2.5022629384694713e+02
6463:-2.5022629384694713e+02
6464:-2.5022629384694713e+02
6465:-2.5022629384694713e+02
6466:-2.5022629384694713e+02
6467:-2.5022629384694713e+02
6468:-2.5022629384694713e+02
6469:-2.5022629384694713e+02
6470:-2.5022629384694713e+02
6471:-2.5022629384694713e+02
6472:-2.5022629384694713e+02
6473:-2.5022629384694713e+02
6474:-2.5022629384694713e+02
6475:-2.5022629384694713e+02
6476:-2.5022629384694713e+02
6477:-2.5022629384694713e+02
6478:-2.5022629384694713e+02
6479:-2.5022629384694713e+02

6480:-5.5046902954463469e+01
6481:-5.5046902954463469e+01
6482:-5.5046902954463469e+01
6483:-5.5046902954463469e+01
6484:-5.5046902954463469e+01
6485:-5.5046902954463469e+01
6486:-5.5046902954463469e+01
6487:-5.5046902954463469e+01
6488:-5.5046902954463469e+01
6489:-5.5046902954463469e+01
6490:-5.5046902954463469e+01
6491:-5.5046902954463469e+01
6492:-5.5046902954463469e+01
6493:-5.5046902954463469e+01
6494:-5.5046902954463469e+01
6495:-5.5046902954463469e+01
6496:-5.5046902954463469e+01
6497:-5.5046902954463469e+01
6498:-5.5046902954463469e+01
6499:-5.5046902954463469e+01
6500:-5.5046902954463469e+01
6501:-5.5046902954463469e+01
6502:-5.5046902954463469e+01
6503:-5.5046902954463469e+01
6504:-5.5046902954463469e+01
6505:-5.5046902954463469e+01
6506:-5.5046902954463469e+01

6507:-7.1675431045998914e+02
6508:-7.1675431045998914e+02
6509:-7.1675431045998914e+02
6510:-7.1675431045998914e+02
6511:-7.1675431045998914e+02
6512:-7.1675431045998914e+02
6513:-7.1675431045998914e+02
6514:-7.1675431045998914e+02
6515:-7.1675431045998914e+02
6516:-7.1675431045998914e+02
6517:-7.1675431045998914e+02
6518:-7.1675431045998914e+02
6519:-7.1675431045998914e+02
6520:-7.1675431045998914e+02
6521:-7.1675431045998914e+02
6522:-7.1675431045998914e+02
6523:-7.1675431045998914e+02
6524:-7.1675431045998914e+02
6525:-7.1675431045998914e+02
6526:-7.1675431045998914e+02
6527:-7.1675431045998914e+02
6528:-7.1675431045998914e+02
6529:-7.1675431045998914e+02
6530:-7.1675431045998914e+02
6531:-7.1675431045998914e+02
6532:-7.1675431045998914e+02
6533:-7.1675431045998914e+02

6534:-7.3997579984269487e+02
6535:-7.3997579984269487e+02
6536:-7.3997579984269487e+02
6537:-7.3997579984269487e+02
6538:-7.3997579984269487e+02
6539:-7.3997579984269487e+02
6540:-7.3997579984269487e+02
6541:-7.3997579984269487e+02
6542:-7.3997579984269487e+02
6543:-7.3997579984269487e+02
6544:-7.3997579984269487e+02
6545:-7.3997579984269487e+02
6546:-7.3997579984269487e+02
6547:-7.3997579984269487e+02
6548:-7.3997579984269487e+02
6549:-7.3997579984269487e+02
6550:-7.3997579984269487e+02
6551:-7.3997579984269487e+02
6552:-7.3997579984269487e+02
6553:-7.3997579984269487e+02
6554:-7.3997579984269487e+02
6555:-7.3997579984269487e+02
6556:-7.3997579984269487e+02
6557:-7.3997579984269487e+02
6558:-7.3997579984269487e+02
6559:-7.3997579984269487e+02
6560:-7.3997579984269487e+02

6561:2.1342537769849605e+03
6562:2.1342537769849605e+03
6563:2.1342537769849605e+03
6564:2.1342537769849605e+03
6565:2.1342537769849605e+03
6566:2.1342537769849605e+03
6567:2.1342537769849605e+03
6568:2.1342537769849605e+03
6569:2.1342537769849605e+03
6570:2.1342537769849605e+03
6571:2.1342537769849605e+03
6572:2.1342537769849605e+03
6573:2.1342537769849605e+03
6574:2.1342537769849605e+03
6575:2.1342537769849605e+03
6576:2.1342537769849605e+03
6577:2.1342537769849605e+03
6578:2.1342537769849605e+03
6579:2.1342537769849605e+03
6580:2.1342537769849605e+03
6581:2.1342537769849605e+03
6582:2.1342537769849605e+03
6583:2.1342537769849605e+03
6584:2.1342537769849605e+03
6585:2.1342537769849605e+03
6586:2.1342537769849605e+03
6587:2.1342537769849605e+03

6588:1.4735077935202203e+03
6589:1.4735077935202203e+03
6590:1.4735077935202203e+03
6591:1.4735077935202203e+03
6592:1.4735077935202203e+03
6593:1.4735077935202203e+03
6594:1.4735077935202203e+03
6595:1.4735077935202203e+03
6596:1.4735077935202203e+03
6597:1.4735077935202203e+03
6598:1.4735077935202203e+03
6599:1.4735077935202203e+03
6600:1.4735077935202203e+03
6601:1.4735077935202203e+03
6602:1.4735077935202203e+03
6603:1.4735077935202203e+03
6604:1.4735077935202203e+03
6605:1.4735077935202203e+03
6606:1.4735077935202203e+03
6607:1.4735077935202203e+03
6608:1.4735077935202203e+03
6609:1.4735077935202203e+03
6610:1.4735077935202203e+03
6611:1.4735077935202203e+03
6612:1.4735077935202203e+03
6613:1.4735077935202203e+03
6614:1.4735077935202203e+03

6615:2.9544559021860283e+02
6616:2.9544559021860283e+02
6617:2.9544559021860283e+02
6618:2.9544559021860283e+02
6619:2.9544559021860283e+02
6620:2.9544559021860283e+02
6621:2.9544559021860283e+02
6622:2.9544559021860283e+02
6623:2.9544559021860283e+02
6624:2.9544559021860283e+02
6625:2.9544559021860283e+02
6626:2.9544559021860283e+02
6627:2.9544559021860283e+02
6628:2.9544559021860283e+02
6629:2.9544559021860283e+02
6630:2.9544559021860283e+02
6631:2.9544559021860283e+02
6632:2.9544559021860283e+02
6633:2.9544559021860283e+02
6634:2.9544559021860283e+02
6635:2.9544559021860283e+02
6636:2.9544559021860283e+02
6637:2.9544559021860283e+02
6638:2.9544559021860283e+02
6639:2.9544559021860283e+02
6640:2.9544559021860283e+02
6641:2.9544559021860283e+02

6642:-6.2807896458667153e+02
6643:-6.2807896458667153e+02
6644:-6.2807896458667153e+02
6645:-6.2807896458667153e+02
6646:-6.2807896458667153e+02
6647:-6.2807896458667153e+02
6648:-6.2807896458667153e+02
6649:-6.2807896458667153e+02
6650:-6.2807896458667153e+02
6651:-6.2807896458667153e+02
6652:-6.2807896458667153e+02
6653:-6.2807896458667153e+02
6654:-6.2807896458667153e+02
6655:-6.2807896458667153e+02
6656:-6.2807896458667153e+02
6657:-6.2807896458667153e+02
6658:-6.2807896458667153e+02
6659:-6.2807896458667153e+02
6660:-6.2807896458667153e+02
6661:-6.2807896458667153e+02
6662:-6.2807896458667153e+02
6663:-6.2807896458667153e+02
6664:-6.2807896458667153e+02
6665:-6.2807896458667153e+02
6666:-6.2807896458667153e+02
6667:-6.2807896458667153e+02
6668:-6.2807896458667153e+02

6669:-1.2160840970175052e+03
6670:-1.2160840970175052e+03
6671:-1.2160840970175052e+03
6672:-1.2160840970175052e+03
6673:-1.2160840970175052e+03
6674:-1.2160840970175052e+03
6675:-1.2160840970175052e+03
6676:-1.2160840970175052e+03
6677:-1.2160840970175052e+03
6678:-1.2160840970175052e+03
6679:-1.2160840970175052e+03
6680:-1.2160840970175052e+03
6681:-1.2160840970175052e+03
6682:-1.2160840970175052e+03
6683:-1.2160840970175052e+03
6684:-1.2160840970175052e+03
6685:-1.2160840970175052e+03
6686:-1.2160840970175052e+03
6687:-1.2160840970175052e+03
6688:-1.2160840970175052e+03
6689:-1.2160840970175052e+03
6690:-1.2160840970175052e+03
6691:-1.2160840970175052e+03
6692:-1.2160840970175052e+03
6693:-1.2160840970175052e+03
6694:-1.2160840970175052e+03
6695:-1.2160840970175052e+03

6696:-1.1513358659102328e+03
6697:-1.1513358659102328e+03
6698:-1.1513358659102328e+03
6699:-1.1513358659102328e+03
6700:-1.1513358659102328e+03
6701:-1.1513358659102328e+03
6702:-1.1513358659102328e+03
6703:-1.1513358659102328e+03
6704:-1.1513358659102328e+03
6705:-1.1513358659102328e+03
6706:-1.1513358659102328e+03
6707:-1.1513358659102328e+03
6708:-1.1513358659102328e+03
6709:-1.1513358659102328e+03
6710:-1.1513358659102328e+03
6711:-1.1513358659102328e+03
6712:-1.1513358659102328e+03
6713:-1.1513358659102328e+03
6714:-1.1513358659102328e+03
6715:-1.1513358659102328e+03
6716:-1.1513358659102328e+03
6717:-1.1513358659102328e+03
6718:-1.1513358659102328e+03
6719:-1.1513358659102328e+03
6720:-1.1513358659102328e+03
6721:-1.1513358659102328e+03
6722:-1.1513358659102328e+03

6723:-7.4491240526652439e+02
6724:-7.4491240526652439e+02
6725:-7.4491240526652439e+02
6726:-7.4491240526652439e+02
6727:-7.4491240526652439e+02
6728:-7.4491240526652439e+02
6729:-7.4491240526652439e+02
6730:-7.4491240526652439e+02
6731:-7.4491240526652439e+02
6732:-7.4491240526652439e+02
6733:-7.4491240526652439e+02
6734:-7.4491240526652439e+02
6735:-7.4491240526652439e+02
6736:-7.4491240526652439e+02
6737:-7.4491240526652439e+02
6738:-7.4491240526652439e+02
6739:-7.4491240526652439e+02
6740:-7.4491240526652439e+02
6741:-7.4491240526652439e+02
6742:-7.4491240526652439e+02
6743:-7.4491240526652439e+02
6744:-7.4491240526652439e+02
6745:-7.4491240526652439e+02
6746:-7.4491240526652439e+02
6747:-7.4491240526652439e+02
6748:-7.4491240526652439e+02
6749:-7.4491240526652439e+02

6750:-1.1399689449963089e+03
6751:-1.1399689449963089e+03
6752:-1.1399689449963089e+03
6753:-1.1399689449963089e+03
6754:-1.1399689449963089e+03
6755:-1.1399689449963089e+03
6756:-1.1399689449963089e+03
6757:-1.1399689449963089e+03
6758:-1.1399689449963089e+03
6759:-1.1399689449963089e+03
6760:-1.1399689449963089e+03
6761:-1.1399689449963089e+03
6762:-1.1399689449963089e+03
6763:-1.1399689449963089e+03
6764:-1.1399689449963089e+03
6765:-1.1399689449963089e+03
6766:-1.1399689449963089e+03
6767:-1.1399689449963089e+03
6768:-1.1399689449963089e+03
6769:-1.1399689449963089e+03
6770:-1.1399689449963089e+03
6771:-1.1399689449963089e+03
6772:-1.1399689449963089e+03
6773:-1.1399689449963089e+03
6774:-1.1399689449963089e+03
6775:-1.1399689449963089e+03
6776:-1.1399689449963089e+03

6777:-1.8213818333618690e+03
6778:-1.8213818333618690e+03
6779:-1.8213818333618690e+03
6780:-1.8213818333618690e+03
6781:-1.8213818333618690e+03
6782:-1.8213818333618690e+03
6783:-1.8213818333618690e+03
6784:-1.8213818333618690e+03
6785:-1.8213818333618690e+03
6786:-1.8213818333618690e+03
6787:-1.8213818333618690e+03
6788:-1.8213818333618690e+03
6789:-1.8213818333618690e+03
6790:-1.8213818333618690e+03
6791:-1.8213818333618690e+03
6792:-1.8213818333618690e+03
6793:-1.8213818333618690e+03
6794:-1.8213818333618690e+03
6795:-1.8213818333618690e+03
6796:-1.8213818333618690e+03
6797:-1.8213818333618690e+03
6798:-1.8213818333618690e+03
6799:-1.8213818333618690e+03
6800:-1.8213818333618690e+03
6801:-1.8213818333618690e+03
6802:-1.8213818333618690e+03
6803:-1.8213818333618690e+03

6804:-1.6888099206422157e+03
6805:-1.6888099206422157e+03
6806:-1.6888099206422157e+03
6807:-1.6888099206422157e+03
6808:-1.6888099206422157e+03
6809:-1.6888099206422157e+03
6810:-1.6888099206422157e+03
6811:-1.6888099206422157e+03
6812:-1.6888099206422157e+03
6813:-1.6888099206422157e+03
6814:-1.6888099206422157e+03
6815:-1.6888099206422157e+03
6816:-1.6888099206422157e+03
6817:-1.6888099206422157e+03
6818:-1.6888099206422157e+03
6819:-1.6888099206422157e+03
6820:-1.6888099206422157e+03
6821:-1.6888099206422157e+03
6822:-1.6888099206422157e+03
6823:-1.6888099206422157e+03
6824:-1.6888099206422157e+03
6825:-1.6888099206422157e+03
6826:-1.6888099206422157e+03
6827:-1.6888099206422157e+03
6828:-1.6888099206422157e+03
6829:-1.6888099206422157e+03
6830:-1.6888099206422157e+03

6831:-1.7186514945771676e+03
6832:-1.7186514945771676e+03
6833:-1.7186514945771676e+03
6834:-1.7186514945771676e+03
6835:-1.7186514945771676e+03
6836:-1.7186514945771676e+03
6837:-1.7186514945771676e+03
6838:-1.7186514945771676e+03
6839:-1.7186514945771676e+03
6840:-1.7186514945771676e+03
6841:-1.7186514945771676e+03
6842:-1.7186514945771676e+03
6843:-1.7186514945771676e+03
6844:-1.7186514945771676e+03
6845:-1.7186514945771676e+03
6846:-1.7186514945771676e+03
6847:-1.7186514945771676e+03
6848:-1.7186514945771676e+03
6849:-1.7186514945771676e+03
6850:-1.7186514945771676e+03
6851:-1.7186514945771676e+03
6852:-1.7186514945771676e+03
6853:-1.7186514945771676e+03
6854:-1.7186514945771676e+03
6855:-1.7186514945771676e+03
6856:-1.7186514945771676e+03
6857:-1.7186514945771676e+03

6858:2.5669715407082992e+02
6859:2.5669715407082992e+02
6860:2.5669715407082992e+02
6861:2.5669715407082992e+02
6862:2.5669715407082992e+02
6863:2.5669715407082992e+02
6864:2.5669715407082992e+02
6865:2.5669715407082992e+02
6866:2.5669715407082992e+02
6867:2.5669715407082992e+02
6868:2.5669715407082992e+02
6869:2.5669715407082992e+02
6870:2.5669715407082992e+02
6871:2.5669715407082992e+02
6872:2.5669715407082992e+02
6873:2.5669715407082992e+02
6874:2.5669715407082992e+02
6875:2.5669715407082992e+02
6876:2.5669715407082992e+02
6877:2.5669715407082992e+02
6878:2.5669715407082992e+02
6879:2.5669715407082992e+02
6880:2.5669715407082992e+02
6881:2.5669715407082992e+02
6882:2.5669715407082992e+02
6883:2.5669715407082992e+02
6884:2.5669715407082992e+02

6885:-2.0141497439733023e+03
6886:-2.0141497439733023e+03
6887:-2.0141497439733023e+03
6888:-2.0141497439733023e+03
6889:-2.0141497439733023e+03
6890:-2.0141497439733023e+03
6891:-2.0141497439733023e+03
6892:-2.0141497439733023e+03
6893:-2.0141497439733023e+03
6894:-2.0141497439733023e+03
6895:-2.0141497439733023e+03
6896:-2.0141497439733023e+03
6897:-2.0141497439733023e+03
6898:-2.0141497439733023e+03
6899:-2.0141497439733023e+03
6900:-2.0141497439733023e+03
6901:-2.0141497439733023e+03
6902:-2.0141497439733023e+03
6903:-2.0141497439733023e+03
6904:-2.0141497439733023e+03
6905:-2.0141497439733023e+03
6906:-2.0141497439733023e+03
6907:-2.0141497439733023e+03
6908:-2.0141497439733023e+03
6909:-2.0141497439733023e+03
6910:-2.0141497439733023e+03
6911:-2.0141497439733023e+03

6912:-1.9934189396480938e+03
6913:-1.9934189396480938e+03
6914:-1.9934189396480938e+03
6915:-1.9934189396480938e+03
6916:-1.9934189396480938e+03
6917:-1.9934189396480938e+03
6918:-1.9934189396480938e+03
6919:-1.9934189396480938e+03
6920:-1.9934189396480938e+03
6921:-1.9934189396480938e+03
6922:-1.9934189396480938e+03
6923:-1.9934189396480938e+03
6924:-1.9934189396480938e+03
6925:-1.9934189396480938e+03
6926:-1.9934189396480938e+03
6927:-1.9934189396480938e+03
6928:-1.9934189396480938e+03
6929:-1.9934189396480938e+03
6930:-1.9934189396480938e+03
6931:-1.9934189396480938e+03
6932:-1.9934189396480938e+03
6933:-1.9934189396480938e+03
6934:-1.9934189396480938e+03
6935:-1.9934189396480938e+03
6936:-1.9934189396480938e+03
6937:-1.9934189396480938e+03
6938:-1.9934189396480938e+03

6939:-7.9381800399500980e+02
6940:-7.9381800399500980e+02
6941:-7.9381800399500980e+02
6942:-7.9381800399500980e+02
6943:-7.9381800399500980e+02
6944:-7.9381800399500980e+02
6945:-7.9381800399500980e+02
6946:-7.9381800399500980e+02
6947:-7.9381800399500980e+02
6948:-7.9381800399500980e+02
6949:-7.9381800399500980e+02
6950:-7.9381800399500980e+02
6951:-7.9381800399500980e+02
6952:-7.9381800399500980e+02
6953:-7.9381800399500980e+02
6954:-7.9381800399500980e+02
6955:-7.9381800399500980e+02
6956:-7.9381800399500980e+02
6957:-7.9381800399500980e+02
6958:-7.9381800399500980e+02
6959:-7.9381800399500980e+02
6960:-7.9381800399500980e+02
6961:-7.9381800399500980e+02
6962:-7.9381800399500980e+02
6963:-7.9381800399500980e+02
6964:-7.9381800399500980e+02
6965:-7.9381800399500980e+02

6966:-1.4071702026908119e+03
6967:-1.4071702026908119e+03
6968:-1.4071702026908119e+03
6969:-1.4071702026908119e+03
6970:-1.4071702026908119e+03
6971:-1.4071702026908119e+03
6972:-1.4071702026908119e+03
6973:-1.4071702026908119e+03
6974:-1.4071702026908119e+03
6975:-1.4071702026908119e+03
6976:-1.4071702026908119e+03
6977:-1.4071702026908119e+03
6978:-1.4071702026908119e+03
6979:-1.4071702026908119e+03
6980:-1.4071702026908119e+03
6981:-1.4071702026908119e+03
6982:-1.4071702026908119e+03
6983:-1.4071702026908119e+03
6984:-1.4071702026908119e+03
6985:-1.4071702026908119e+03
6986:-1.4071702026908119e+03
6987:-1.4071702026908119e+03
6988:-1.4071702026908119e+03
6989:-1.4071702026908119e+03
6990:-1.4071702026908119e+03
6991:-1.4071702026908119e+03
6992:-1.4071702026908119e+03

6993:-1.4121958870783053e+03
6994:-1.4121958870783053e+03
6995:-1.4121958870783053e+03
6996:-1.4121958870783053e+03
6997:-1.4121958870783053e+03
6998:-1.4121958870783053e+03
6999:-1.4121958870783053e+03
7000:-1.4121958870783053e+03
7001:-1.4121958870783053e+03
7002:-1.4121958870783053e+03
7003:-1.4121958870783053e+03
7004:-1.4121958870783053e+03
7005:-1.4121958870783053e+03
7006:-1.4121958870783053e+03
7007:-1.4121958870783053e+03
7008:-1.4121958870783053e+03
7009:-1.4121958870783053e+03
7010:-1.4121958870783053e+03
7011:-1.4121958870783053e+03
7012:-1.4121958870783053e+03
7013:-1.4121958870783053e+03
7014:-1.4121958870783053e+03
7015:-1.4121958870783053e+03
7016:-1.4121958870783053e+03
7017:-1.4121958870783053e+03
7018:-1.4121958870783053e+03
7019:-1.4121958870783053e+03

7020:-1.0801268769870803e+03
7021:-1.0801268769870803e+03
7022:-1.0801268769870803e+03
7023:-1.0801268769870803e+03
7024:-1.0801268769870803e+03
7025:-1.0801268769870803e+03
7026:-1.0801268769870803e+03
7027:-1.0801268769870803e+03
7028:-1.0801268769870803e+03
7029:-1.0801268769870803e+03
7030:-1.0801268769870803e+03
7031:-1.0801268769870803e+03
7032:-1.0801268769870803e+03
7033:-1.0801268769870803e+03
7034:-1.0801268769870803e+03
7035:-1.0801268769870803e+03
7036:-1.0801268769870803e+03
7037:-1.0801268769870803e+03
7038:-1.0801268769870803e+03
7039:-1.0801268769870803e+03
7040:-1.0801268769870803e+03
7041:-1.0801268769870803e+03
7042:-1.0801268769870803e+03
7043:-1.0801268769870803e+03
7044:-1.0801268769870803e+03
7045:-1.0801268769870803e+03
7046:-1.0801268769870803e+03

7047:-2.4710212952240345e+03
7048:-2.4710212952240345e+03
7049:-2.4710212952240345e+03
7050:-2.4710212952240345e+03
7051:-2.4710212952240345e+03
7052:-2.4710212952240345e+03
7053:-2.4710212952240345e+03
7054:-2.4710212952240345e+03
7055:-2.4710212952240345e+03
7056:-2.4710212952240345e+03
7057:-2.4710212952240345e+03
7058:-2.4710212952240345e+03
7059:-2.4710212952240345e+03
7060:-2.4710212952240345e+03
7061:-2.4710212952240345e+03
7062:-2.4710212952240345e+03
7063:-2.4710212952240345e+03
7064:-2.4710212952240345e+03
7065:-2.4710212952240345e+03
7066:-2.4710212952240345e+03
7067:-2.4710212952240345e+03
7068:-2.4710212952240345e+03
7069:-2.4710212952240345e+03
7070:-2.4710212952240345e+03
7071:-2.4710212952240345e+03
7072:-2.4710212952240345e+03
7073:-2.4710212952240345e+03




