label=Stress xy
num_items=9248

0:-7.8977884039280466e-03
1:-5.3381019608767774e-02
2:-2.2285504666269962e-01
3:-2.9865422935560243e-01
4:-8.2644033065284485e-03
5:3.7012071235788715e-02
6:9.8490921338359641e-02
7:1.1576067506422853e-01
8:6.9048821420686038e-02
9:2.6297543778250328e-02
10:9.5694980777106670e-02
11:1.1698093414640064e-01
12:1.0194258198056670e-01
13:-6.5019540098119874e-02
14:-8.5103439969784977e-02
15:-5.3961988675938814e-02
16:-2.7774924588343702e-01
17:-1.2865638274871949e-01
18:4.2509313871787011e-02
19:-6.3169981779370721e-02
20:1.0894438611888835e-01
21:1.2226522207266713e-01
22:1.5663301791174794e-01
23:1.5140333327668870e-01
24:8.5033315344349519e-02
25:4.7634878706313916e-02
26:1.6299401850765449e-01
27:4.6502679536046898e-01
28:-4.8554006225911883e-02
29:1.0122852826879495e-02
30:3.2397180629427069e-01
31:8.6276191146458336e-01
32:-2.7030332376688582e-01
33:-9.3315187134260824e-01
34:-1.9311758677882445e+00
35:-2.4266748176412531e+00
36:1.1441536444724874e-01
37:-1.5760975961273313e-01
38:-7.1901673240277608e-01
39:-1.1020062900864018e+00
40:7.0745322139541023e-01
41:9.7527145803594051e-01
42:9.2267115437059755e-01
43:6.1102391114131582e-01
44:1.2665605126272539e+00
45:1.8300627837249834e+00
46:2.0347450116402550e+00
47:1.7290623611550362e+00
48:-2.4822462321334391e+00
49:-2.1573879949047901e+00
50:-1.2604081952843980e+00
51:-5.5071744585859717e-01
52:-1.2185678383487866e+00
53:-1.1165643321590648e+00
54:-5.8963767833128278e-01
55:-1.2828132068578355e-01
56:3.7927545021703118e-01
57:1.4945804209306410e-01
58:1.8208665554923772e-01
59:3.3351962368261590e-01
60:1.4104833894669024e+00
61:9.4523716247975953e-01
62:6.3889973941652989e-01
63:5.8785733131948337e-01
64:-2.6750031167526139e-01
65:2.6421098776189172e-02
66:9.2593678693453321e-02
67:3.8115682962885054e-02
68:6.2145807205149464e-02
69:2.4086648217001055e-01
70:2.4058552340872386e-01
71:1.7639436056081262e-01
72:4.1524882152354076e-01
73:4.6547809006162533e-01
74:3.9924595801593404e-01
75:3.2934520698621661e-01
76:6.0431061379639139e-01
77:5.8502607669219764e-01
78:4.9357425206345956e-01
79:4.2682963192817752e-01
80:1.3163165738670664e-02
81:-1.1915640555762103e-03
82:1.7184239026865986e-02
83:3.5419115379148401e-02
84:1.5314809447920624e-01
85:1.3573061308418810e-01
86:1.3707561162539492e-01
87:1.3435481258815518e-01
88:3.0836014296280101e-01
89:2.8700508577894579e-01
90:2.6954805216968286e-01
91:2.4637044986091758e-01
92:4.0715309323519600e-01
93:3.8180026273449841e-01
94:3.5145845734173564e-01
95:3.1722599274049368e-01
96:3.9487480654656411e-02
97:3.6063013349331215e-02
98:2.0730770078993110e-02
99:9.9746774512480801e-03
100:1.2562927593667375e-01
101:1.0490405764214102e-01
102:7.9661345481056314e-02
103:6.8730370748418132e-02
104:2.2628711902015833e-01
105:1.9020158376035715e-01
106:1.5494382355970382e-01
107:1.4131598773766363e-01
108:2.9225510871807503e-01
109:2.4974764072959615e-01
110:2.0950737282236020e-01
111:1.9280100553295856e-01
112:7.2772916258919823e-03
113:7.0670808775229474e-03
114:1.1400609367619321e-02
115:1.4163312378736997e-02
116:6.7550837270700687e-02
117:6.7024127629312813e-02
118:6.4956692481894590e-02
119:5.9544310438082039e-02
120:1.3947552441118904e-01
121:1.3565765930816168e-01
122:1.2592385237012896e-01
123:1.1323842869542958e-01
124:1.8905014140150689e-01
125:1.8130825618796487e-01
126:1.6643409284508162e-01
127:1.5029302471263448e-01
128:1.4282712673625509e-02
129:1.2699465614502635e-02
130:9.1698576204928880e-03
131:6.9983115077799606e-03
132:5.4744722363915956e-02
133:4.6528313559767095e-02
134:3.9078269741171130e-02
135:3.6531363431495441e-02
136:1.0452053062182996e-01
137:9.0693200560040252e-02
138:7.8843279667587599e-02
139:7.4387906994582434e-02
140:1.4003752824742463e-01
141:1.2365125055921972e-01
142:1.0883083459768783e-01
143:1.0219211253126811e-01
144:6.4865927176475631e-03
145:6.2523599371553410e-03
146:6.5350212817736853e-03
147:6.5754700692825440e-03
148:3.6344986026827016e-02
149:3.5680340756914411e-02
150:3.3499444657375664e-02
151:3.0680200725361130e-02
152:7.3427553959282604e-02
153:7.0883859582640943e-02
154:6.5576747670454086e-02
155:6.0138109352595004e-02
156:1.0006063511742627e-01
157:9.5540175129886148e-02
158:8.8105743838812992e-02
159:8.1346881718404179e-02
160:6.3674495136674001e-03
161:5.8196190178241751e-03
162:5.0693011857692923e-03
163:4.6461924229829815e-03
164:2.8803370801643007e-02
165:2.5856200130248450e-02
166:2.3296176102904364e-02
167:2.2213436256674962e-02
168:5.6893046151116421e-02
169:5.1793400621318965e-02
170:4.7122676215949975e-02
171:4.4788212248160278e-02
172:7.7487887024004387e-02
173:7.1231864971495584e-02
174:6.5037649441944290e-02
175:6.1550466401156093e-02
176:4.5181191424930071e-03
177:4.3116852189661881e-03
178:4.0392352108233956e-03
179:3.7986613081878360e-03
180:2.1881064474621317e-02
181:2.1079009365360519e-02
182:1.9640626775096610e-02
183:1.8317990605503792e-02
184:4.3860822201782855e-02
185:4.1922054576386189e-02
186:3.8978612824013423e-02
187:3.6525555527421399e-02
188:6.0027592635070050e-02
189:5.7102772189543467e-02
190:5.3098060072590061e-02
191:4.9955931445310943e-02
192:3.6549870712623855e-03
193:3.4272175138390253e-03
194:3.2048457963216306e-03
195:3.0698627243169354e-03
196:1.7574491600167746e-02
197:1.6381229631960353e-02
198:1.5189281392661584e-02
199:1.4475768915197055e-02
200:3.5201833008795202e-02
201:3.3000650458888968e-02
202:3.0632082145826071e-02
203:2.9097764198218627e-02
204:4.8291485445535229e-02
205:4.5438866950253912e-02
206:4.2206465915331344e-02
207:4.0018719957627354e-02
208:3.0018543816747998e-03
209:2.8448241532437381e-03
210:2.6013569064371484e-03
211:2.4095017897113641e-03
212:1.4135706015514901e-02
213:1.3440894360811237e-02
214:1.2437741592889063e-02
215:1.1631070784640983e-02
216:2.8340578195275717e-02
217:2.6878396026772368e-02
218:2.4894790932098097e-02
219:2.3347096429344117e-02
220:3.8923322352741659e-02
221:3.6865725300251263e-02
222:3.4164142306798512e-02
223:3.2090981601376939e-02
224:2.3133524958235379e-03
225:2.1568274263489931e-03
226:1.9778185375204441e-03
227:1.8380399321422851e-03
228:1.1200454879109483e-02
229:1.0424606111802393e-02
230:9.4486414596753766e-03
231:8.6979998487280458e-03
232:2.2522970767390845e-02
233:2.0997479842870048e-02
234:1.9015916922274820e-02
235:1.7470704055327701e-02
236:3.0988440427203810e-02
237:2.8920290879019518e-02
238:2.6191745302487964e-02
239:2.4048486966934995e-02
240:1.7555648812812602e-03
241:1.5750276545180623e-03
242:1.3028219081205558e-03
243:1.0804328843755494e-03
244:8.2860785354275379e-03
245:7.4528755668465223e-03
246:6.2495014479376819e-03
247:5.2459722158066033e-03
248:1.6625189866689167e-02
249:1.4940549256283285e-02
250:1.2537211179710541e-02
251:1.0535142566343934e-02
252:2.2876025722366095e-02
253:2.0552375340384108e-02
254:1.7252707343936677e-02
255:1.4505906735030789e-02
256:9.6107609623899437e-04
257:7.2973784687805504e-04
258:3.9070482466105311e-04
259:8.2562364163470117e-05
260:4.6833434809103024e-03
261:3.5468099405417397e-03
262:1.8755248765897881e-03
263:4.2769603243804382e-04
264:9.4075097302032326e-03
265:7.1144788260166123e-03
266:3.7351600619873219e-03
267:8.2218308477484728e-04
268:1.2956733270185287e-02
269:9.8009926763631180e-03
270:5.1479374660570332e-03
271:1.1426192182328022e-03
272:8.4656449117779725e-02
273:-1.3561806416154021e-01
274:-1.9067299110250457e-01
275:-1.1798145884992664e-01
276:4.0648302352175966e-02
277:-2.1733914348220665e-01
278:-1.9458612616942733e-01
279:8.8757443564303165e-02
280:3.1231398948149275e-01
281:-1.8760541602612115e-02
282:1.6512631485601717e-01
283:7.7320026660484720e-01
284:1.0910654029770137e+00
285:5.4433566878607453e-01
286:6.6993985996700267e-01
287:1.3577758557692565e+00
288:-5.7296717294072125e-02
289:1.0981396502159220e-01
290:5.5216253204165366e-01
291:1.1714353206990917e+00
292:3.2082089641752026e-01
293:7.4215673164940410e-01
294:1.3309188383053818e+00
295:1.9071756378027755e+00
296:1.2359054773593006e+00
297:1.9284346327694499e+00
298:2.4937931848131760e+00
299:2.7588524913220271e+00
300:1.8856637743702431e+00
301:2.6010885460301520e+00
302:2.9813212850908921e+00
303:2.9466046665313610e+00
304:1.6107997555076394e+00
305:2.2441062994755585e+00
306:2.5108187059405140e+00
307:2.1936923215682866e+00
308:2.2732443752653175e+00
309:2.8147394826037875e+00
310:3.0278653781648952e+00
311:2.6703243686031644e+00
312:2.8696091130724639e+00
313:3.0372460921693780e+00
314:2.9944081187487983e+00
315:2.5889244647891085e+00
316:2.8528206952753568e+00
317:2.7175799812553669e+00
318:2.4773518668316257e+00
319:2.0771302995011047e+00
320:1.8384214731501365e+00
321:1.2710163429640911e+00
322:8.1529033275610041e-01
323:6.7771553508225446e-01
324:2.2779125510779989e+00
325:1.5980398064049630e+00
326:9.7179730818540544e-01
327:7.4268064693042901e-01
328:2.2093361268343976e+00
329:1.5314431745198025e+00
330:8.8498818129288848e-01
331:6.5943034684684465e-01
332:1.7519699340841519e+00
333:1.1783873022515969e+00
334:6.5106925644085667e-01
335:5.0243591696506162e-01
336:6.6892972080164070e-01
337:6.2703913767638697e-01
338:5.3383714527419224e-01
339:4.7181610509381455e-01
340:7.1432416613411376e-01
341:6.6504303097681505e-01
342:5.8820092832015047e-01
343:5.3617666983591650e-01
344:6.4916090652668090e-01
345:6.4183214800159671e-01
346:6.1226851988032083e-01
347:5.7473258439892894e-01
348:5.2759776519806212e-01
349:5.7475043610509413e-01
350:5.9022929921001122e-01
351:5.6515336848593078e-01
352:4.5244331788658948e-01
353:4.2425126212678754e-01
354:3.8736980927540943e-01
355:3.4882216423597834e-01
356:5.1521963223502432e-01
357:4.8006145688512558e-01
358:4.3369890695577712e-01
359:3.9194091601591191e-01
360:5.5025054219345648e-01
361:5.0721341310692369e-01
362:4.5638786549018373e-01
363:4.1897985468106536e-01
364:5.3972427208668228e-01
365:4.9577261017113633e-01
366:4.4941597889146501e-01
367:4.2049327905426920e-01
368:3.2257658199445938e-01
369:2.7856171720305967e-01
370:2.3679718765059185e-01
371:2.1836075984216860e-01
372:3.6643805475125657e-01
373:3.2393408038521498e-01
374:2.8197189158096014e-01
375:2.6050904129586283e-01
376:3.9904136688419367e-01
377:3.6473248405397207e-01
378:3.2657609531733917e-01
379:3.0217087620821731e-01
380:4.0673810490748719e-01
381:3.8116566222853548e-01
382:3.4785906006486539e-01
383:3.2247328409533216e-01
384:2.1327924276931803e-01
385:2.0318393195532233e-01
386:1.8588440757681188e-01
387:1.6850797394748837e-01
388:2.5260892268732266e-01
389:2.3787657007464807e-01
390:2.1659479034676554e-01
391:1.9787807851569975e-01
392:2.9073631340849260e-01
393:2.7062520485818131e-01
394:2.4579796047970440e-01
395:2.2699468936761072e-01
396:3.0914436834027831e-01
397:2.8644875048679774e-01
398:2.6068618371754959e-01
399:2.4285987336738887e-01
400:1.5782246716285048e-01
401:1.4053282915697529e-01
402:1.2426375396005508e-01
403:1.1633900975340387e-01
404:1.8703863808291782e-01
405:1.6905151658237816e-01
406:1.5086779703194661e-01
407:1.4080361821556359e-01
408:2.1690266279783771e-01
409:1.9951908787984002e-01
410:1.8025637407306860e-01
411:1.6809684960664212e-01
412:2.3374989763214332e-01
413:2.1751964387368011e-01
414:1.9825514032676503e-01
415:1.8509013441002500e-01
416:1.1348778452605844e-01
417:1.0786720069837216e-01
418:9.9444235017430285e-02
419:9.2167967880823182e-02
420:1.3664784954413334e-01
421:1.2904612813773167e-01
422:1.1892237445790588e-01
423:1.1084301671566887e-01
424:1.6248777090208277e-01
425:1.5267345903708521e-01
426:1.4072491247940386e-01
427:1.3189387157772653e-01
428:1.7867747526222783e-01
429:1.6763613495944152e-01
430:1.5470915785661341e-01
431:1.4552633088964789e-01
432:8.8078863130124752e-02
433:8.1308977819817191e-02
434:7.4320090449352227e-02
435:7.0191830027646715e-02
436:1.0643131461496491e-01
437:9.8899845326248917e-02
438:9.0656925365724353e-02
439:8.5473220824154650e-02
440:1.2723586699957432e-01
441:1.1906920638518616e-01
442:1.0966459626746301e-01
443:1.0342471164968681e-01
444:1.4078254369046431e-01
445:1.3235424955483993e-01
446:1.2238769332770040e-01
447:1.1557977218971574e-01
448:6.8339244909457281e-02
449:6.4898288151320080e-02
450:6.0381889257919839e-02
451:5.6921208086643353e-02
452:8.3064446987034121e-02
453:7.8742631665973423e-02
454:7.3338302930114840e-02
455:6.9317392794827348e-02
456:1.0043095056705756e-01
457:9.5151364540659589e-02
458:8.8738309399749360e-02
459:8.4065396338734055e-02
460:1.1225042737974850e-01
461:1.0639490817393275e-01
462:9.9340013112550571e-02
463:9.4241802483622766e-02
464:5.5096100385825589e-02
465:5.1918673196843255e-02
466:4.8234129133337612e-02
467:4.5700351591337979e-02
468:6.7209478506886633e-02
469:6.3468436496341735e-02
470:5.9010460903509213e-02
471:5.5888658286624128e-02
472:8.1631170183676910e-02
473:7.7259337453822394e-02
474:7.1956981045046248e-02
475:6.8194378403253472e-02
476:9.1597795553577360e-02
477:8.6832666409705814e-02
478:8.1013154910327304e-02
479:7.6852037955569025e-02
480:4.4427991532618588e-02
481:4.2064334039290767e-02
482:3.8999341074017840e-02
483:3.6659464081088951e-02
484:5.4315371757642214e-02
485:5.1422826646527246e-02
486:4.7713642857825769e-02
487:4.4891120279953629e-02
488:6.6288811352483296e-02
489:6.2793472271623962e-02
490:5.8319415616190598e-02
491:5.4909472092882598e-02
492:7.4733662026652867e-02
493:7.0838448407467017e-02
494:6.5838298705791276e-02
495:6.2018639220998421e-02
496:3.5413793220454119e-02
497:3.3064200265337788e-02
498:2.9946142559937338e-02
499:2.7491504086597965e-02
500:4.3384492136776615e-02
501:4.0525689827083829e-02
502:3.6709352444952215e-02
503:3.3699130364599421e-02
504:5.3083916138633988e-02
505:4.9609400302474391e-02
506:4.4956831663167579e-02
507:4.1281829447935479e-02
508:5.9971416322545330e-02
509:5.6071813169165499e-02
510:5.0842540791252770e-02
511:4.6705089502231678e-02
512:2.6149488370453694e-02
513:2.3494495580545768e-02
514:1.9729195247638831e-02
515:1.6594323651808896e-02
516:3.2054638543619667e-02
517:2.8804187899963214e-02
518:2.4194469979184872e-02
519:2.0351826544922073e-02
520:3.9273769561344728e-02
521:3.5299949407300690e-02
522:2.9652859587398384e-02
523:2.4935902251421522e-02
524:4.4441463974536764e-02
525:3.9954866424366950e-02
526:3.3567605463218138e-02
527:2.8226148500829430e-02
528:1.4825028352970060e-02
529:1.1219583133437863e-02
530:5.9042835965696441e-03
531:1.3321412656504626e-03
532:1.8180408209904131e-02
533:1.3756092477363990e-02
534:7.2394570834139948e-03
535:1.6412550153907053e-03
536:2.2267404033767296e-02
537:1.6834238883525900e-02
538:8.8421970764030414e-03
539:1.9849772105287023e-03
540:2.5203164197601151e-02
541:1.9051334352105837e-02
542:1.0007731047175901e-02
543:2.2511101415028591e-03
544:1.8034844660582641e+00
545:1.0438555370028080e+00
546:1.0018565792562057e+00
547:1.6063746896138091e+00
548:3.5930808561501437e+00
549:2.2907924588002619e+00
550:1.6336528198328897e+00
551:1.7952774781408769e+00
552:5.9230531615652477e+00
553:3.9181346385883518e+00
554:2.2465202168000165e+00
555:1.5732199240325411e+00
556:6.8950075087163496e+00
557:4.6123261975486045e+00
558:2.3570299632705480e+00
559:1.1362453612513554e+00
560:2.0931283201492157e+00
561:2.7132915537580233e+00
562:2.9372604349359492e+00
563:2.7646603176243798e+00
564:2.0475050054267303e+00
565:2.2953173613047579e+00
566:2.1836050009277121e+00
567:1.8706863185197722e+00
568:1.3773958830235142e+00
569:9.9163105431112586e-01
570:4.8124160724598680e-01
571:1.7029786948209172e-01
572:6.4360967336722741e-01
573:-1.2911189791063252e-01
574:-8.1207706411500413e-01
575:-1.0338807852427463e+00
576:2.5947936603901618e+00
577:2.3496483841071565e+00
578:2.0502759770608718e+00
579:1.6808877194968816e+00
580:1.6656498561564708e+00
581:1.3911829139977010e+00
582:1.1431553251249604e+00
583:9.0589402907765848e-01
584:5.9621314203931131e-02
585:-3.0739147556513406e-02
586:-2.3529995960152116e-02
587:-2.0575501549185252e-02
588:-1.0359230116519988e+00
589:-9.4085199935389385e-01
590:-7.2571549008222991e-01
591:-5.6286615423367714e-01
592:1.3999424857996223e+00
593:9.1392810234000255e-01
594:4.8885083357695447e-01
595:3.9924807605234630e-01
596:7.3123532614122400e-01
597:4.3789062595247419e-01
598:2.1524205664605139e-01
599:2.2502069680341472e-01
600:-4.5554571518922067e-02
601:-8.6352664206444316e-02
602:-7.0378310213390305e-02
603:3.4084896951576932e-02
604:-4.9657954466714060e-01
605:-3.8863664055178482e-01
606:-2.4170431791459759e-01
607:-9.5425794532235680e-02
608:4.4647156258653220e-01
609:5.2439229114063057e-01
610:5.6327259218716275e-01
611:5.4540372234266943e-01
612:3.0178666133651366e-01
613:4.2034730737230397e-01
614:4.9334233632754154e-01
615:4.9025316010479741e-01
616:1.2777913361516374e-01
617:2.7017343821456785e-01
618:3.7196760203691048e-01
619:3.9023934740520805e-01
620:-7.8693534446016536e-04
621:1.4486871512988989e-01
622:2.6124463291826328e-01
623:2.9708930219654001e-01
624:5.2095728429909249e-01
625:4.7951182338516823e-01
626:4.3868101322367137e-01
627:4.1553827082504535e-01
628:4.7084487435373573e-01
629:4.3873145257421392e-01
630:4.1071972219962605e-01
631:3.9784310920450117e-01
632:3.8211766177391826e-01
633:3.6856520572130147e-01
634:3.5992088070850525e-01
635:3.5896045851893366e-01
636:2.9980320135368155e-01
637:3.0318931136707228e-01
638:3.1011783089606154e-01
639:3.1735190220613163e-01
640:4.0522180097954036e-01
641:3.8443463689620538e-01
642:3.5405460566438662e-01
643:3.2877491296234773e-01
644:3.9300511044731895e-01
645:3.8023647899328189e-01
646:3.5596444629479912e-01
647:3.3254903318551898e-01
648:3.5967174141945124e-01
649:3.5600495573721053e-01
650:3.4111126373061174e-01
651:3.2303631288503842e-01
652:3.2156304986025458e-01
653:3.2446568306755647e-01
654:3.1798558110427672e-01
655:3.0582009522828019e-01
656:3.1494499238331963e-01
657:2.9172217294644831e-01
658:2.6622457728310389e-01
659:2.4919872116303279e-01
660:3.1895713147118071e-01
661:2.9641267666194027e-01
662:2.7247417502450688e-01
663:2.5706701489717149e-01
664:3.1167938590888733e-01
665:2.9267381699404177e-01
666:2.7241371028355993e-01
667:2.5934011634895149e-01
668:2.9727112056089339e-01
669:2.8245644937321074e-01
670:2.6595480309740793e-01
671:2.5490298458512795e-01
672:2.4065370636132072e-01
673:2.2513478555024011e-01
674:2.0608429411125351e-01
675:1.9262100436696022e-01
676:2.4947197299976803e-01
677:2.3527349303723016e-01
678:2.1700597176440251e-01
679:2.0350933271620003e-01
680:2.5288086075757060e-01
681:2.4055047519758832e-01
682:2.2413265822159908e-01
683:2.1155743689278195e-01
684:2.4936470266894273e-01
685:2.3876027293048471e-01
686:2.2446399915223300e-01
687:2.1325769938983294e-01
688:1.8592835563998591e-01
689:1.7445744992344542e-01
690:1.6119525060380360e-01
691:1.5190384715426730e-01
692:1.9662106964335940e-01
693:1.8483544855106313e-01
694:1.7133632268811447e-01
695:1.6199181565678653e-01
696:2.0498049431451942e-01
697:1.9362534732229975e-01
698:1.8050641907791334e-01
699:1.7139003009085277e-01
700:2.0727251193965873e-01
701:1.9676976124150694e-01
702:1.8439162120094654e-01
703:1.7567919865399384e-01
704:1.4714137400897329e-01
705:1.3863785500372880e-01
706:1.2847670275361386e-01
707:1.2145018385824265e-01
708:1.5723827172710339e-01
709:1.4869593204573611e-01
710:1.3834481317882732e-01
711:1.3106155900091529e-01
712:1.6675561394634345e-01
713:1.5839408686554132e-01
714:1.4815370857648191e-01
715:1.4083088539347513e-01
716:1.7123851587886177e-01
717:1.6322348948785484e-01
718:1.5335969725425422e-01
719:1.4622829438051899e-01
720:1.1798378564492189e-01
721:1.1188213062055299e-01
722:1.0453899236953049e-01
723:9.9246188157707610e-02
724:1.2742153653827443e-01
725:1.2099522760522327e-01
726:1.1325444100812439e-01
727:1.0768523426549090e-01
728:1.3712057072763900e-01
729:1.3052977634331286e-01
730:1.2254621120470857e-01
731:1.1679028336768360e-01
732:1.4257580751683210e-01
733:1.3604395853146778e-01
734:1.2807365103546844e-01
735:1.2230271391917634e-01
736:9.6507439440507936e-02
737:9.1567925964161689e-02
738:8.5519657370219229e-02
739:8.1177460665005002e-02
740:1.0481060213711635e-01
741:9.9616203914306978e-02
742:9.3221125708341929e-02
743:8.8593041884322085e-02
744:1.1382085018580444e-01
745:1.0843576742042688e-01
746:1.0175066365461111e-01
747:9.6858507703578969e-02
748:1.1932250698156346e-01
749:1.1389914825719821e-01
750:1.0711817110734645e-01
751:1.0211087471694286e-01
752:7.8959237039201241e-02
753:7.4871982490638631e-02
754:6.9614424575539513e-02
755:6.5593912725733852e-02
756:8.6213123611971629e-02
757:8.1812818288916400e-02
758:7.6133496999310615e-02
759:7.1782865371428209e-02
760:9.4321047831831484e-02
761:8.9610718528876518e-02
762:8.3506311134675493e-02
763:7.8817556183812323e-02
764:9.9496291435407946e-02
765:9.4627359270089917e-02
766:8.8294388748711122e-02
767:8.3415836545749078e-02
768:6.3438765058272659e-02
769:5.9332294799688594e-02
770:5.3820493808582837e-02
771:4.9453542108507963e-02
772:6.9449907698617502e-02
773:6.4997688801560149e-02
774:5.9003687065186425e-02
775:5.4238150594946563e-02
776:7.6300248323342618e-02
777:7.1479293452511458e-02
778:6.4951918872219530e-02
779:5.9733452097488461e-02
780:8.0792135872337856e-02
781:7.5750179016445374e-02
782:6.8888988244177718e-02
783:6.3378762400893365e-02
784:4.7061718423434748e-02
785:4.2316983659476046e-02
786:3.5556781264169911e-02
787:2.9901336683879284e-02
788:5.1621747139907123e-02
789:4.6425332624721864e-02
790:3.9014118591956283e-02
791:3.2811440204636624e-02
792:5.6858737745751120e-02
793:5.1143040362880463e-02
794:4.2984019517324903e-02
795:3.6152337881915297e-02
796:6.0335605726881181e-02
797:5.4280297341406249e-02
798:4.5630063890481819e-02
799:3.8382966771577209e-02
800:2.6700542670478833e-02
801:2.0187856234988727e-02
802:1.0614692869524031e-02
803:2.4035228690838335e-03
804:2.9300819338691678e-02
805:2.2156911939356434e-02
806:1.1653229257078757e-02
807:2.6412147618043056e-03
808:3.2285045855676486e-02
809:2.4410809114880219e-02
810:1.2825310092534074e-02
811:2.8805772265770189e-03
812:3.4279165635088149e-02
813:2.5919111314178237e-02
814:1.3612953376438941e-02
815:3.0477595941137722e-03
816:6.8803793428530016e+00
817:4.6163950911472762e+00
818:2.2277973892569056e+00
819:8.3772592087472564e-01
820:5.8306810485753120e+00
821:3.8754130197474264e+00
822:1.6287265319989079e+00
823:2.2369289873943873e-01
824:3.3735165525973239e+00
825:2.0975349681828543e+00
826:5.0553993084089344e-01
827:-5.3565285158803133e-01
828:1.4947506960309427e+00
829:7.2363933498758182e-01
830:-2.8643010308400230e-01
831:-9.5604915645134225e-01
832:2.5108224957402281e-01
833:-6.2900807876649978e-01
834:-1.3274865005822187e+00
835:-1.4885940424734181e+00
836:-3.8776113206020452e-01
837:-1.2620832961677675e+00
838:-1.8718325061656158e+00
839:-1.9361790519384658e+00
840:-9.8904508683706027e-01
841:-1.6083471687489037e+00
842:-1.9857490660272055e+00
843:-1.9701003854648758e+00
844:-1.2430634712072666e+00
845:-1.6230068580846391e+00
846:-1.8319951730842210e+00
847:-1.7964802292352817e+00
848:-1.4419037282259592e+00
849:-1.2708027011983500e+00
850:-9.8005673536945659e-01
851:-7.6299076368413010e-01
852:-1.8389957855907673e+00
853:-1.5995925848573889e+00
854:-1.2514618770116930e+00
855:-9.9230832184527684e-01
856:-1.8686918584068934e+00
857:-1.6457443042438886e+00
858:-1.3355705869729750e+00
859:-1.0986967902189115e+00
860:-1.7197280321791562e+00
861:-1.5512404373103692e+00
862:-1.3084613022223588e+00
863:-1.1130485537640853e+00
864:-6.6564006696001388e-01
865:-5.0743430060572314e-01
866:-3.1813192901421117e-01
867:-1.6126542020489124e-01
868:-8.6749765666096101e-01
869:-6.6308898076344025e-01
870:-4.3530604647854171e-01
871:-2.7258255062106912e-01
872:-9.7812580026415463e-01
873:-7.7568646896921545e-01
874:-5.4965678777436799e-01
875:-3.9555018753169380e-01
876:-1.0088790525921132e+00
877:-8.2841179723949632e-01
878:-6.1996986284095812e-01
879:-4.7603244731648336e-01
880:-6.8903117669667155e-02
881:7.5442777568440214e-02
882:1.9816788434823671e-01
883:2.4353538622375798e-01
884:-1.8614905739531948e-01
885:-4.6829321040905036e-02
886:8.4057439815837881e-02
887:1.4478056456288627e-01
888:-3.1772683686165609e-01
889:-1.8751183360420701e-01
890:-5.2499952422251757e-02
891:2.2532687797468341e-02
892:-4.0374236352244836e-01
893:-2.8041613134321564e-01
894:-1.4605285046852956e-01
895:-6.4658867660308761e-02
896:2.5230657031246040e-01
897:2.6496411788613849e-01
898:2.8004620515802547e-01
899:2.9137029709264578e-01
900:1.6390479566448363e-01
901:1.9268068342154310e-01
902:2.2216903941515165e-01
903:2.4068241908902060e-01
904:5.2423923165794729e-02
905:9.8729941205919991e-02
906:1.4483140340192574e-01
907:1.7194827081091377e-01
908:-2.9084694297339824e-02
909:2.7289146915003025e-02
910:8.4112596602239006e-02
911:1.1739615357337471e-01
912:2.9731004954273749e-01
913:3.0371411797909342e-01
914:3.0211213528014991e-01
915:2.9355809077531231e-01
916:2.4956420917593608e-01
917:2.6192699141799358e-01
918:2.6879432313857976e-01
919:2.6674852878536504e-01
920:1.8428132551381601e-01
921:2.0340488236857532e-01
922:2.1985345599612185e-01
923:2.2548227502697299e-01
924:1.3229906310389400e-01
925:1.5614901399508579e-01
926:1.7897983964822908e-01
927:1.8979543987949868e-01
928:2.8675846663499038e-01
929:2.7451650043770187e-01
930:2.6025647534417251e-01
931:2.5038972031254436e-01
932:2.6322437053871245e-01
933:2.5596635876093243e-01
934:2.4629541297695859e-01
935:2.3896062986544522e-01
936:2.2603017714445894e-01
937:2.2532995898359376e-01
938:2.2223535240961340e-01
939:2.1875546845775357e-01
940:1.9321122187228329e-01
941:1.9741280658096025e-01
942:1.9965664801593716e-01
943:1.9948559116201781e-01
944:2.4539915393439538e-01
945:2.3586529228768882e-01
946:2.2295016034693813e-01
947:2.1267058002546466e-01
948:2.3513040176965033e-01
949:2.2777445370100444e-01
950:2.1758034300746590e-01
951:2.0912954074042589e-01
952:2.1667741187250453e-01
953:2.1243169685913191e-01
954:2.0593965134398692e-01
955:1.9998433766875884e-01
956:1.9891284876055126e-01
957:1.9722723980095683e-01
958:1.9366219914740232e-01
959:1.8969191055674203e-01
960:2.0709612408257166e-01
961:1.9719133048763565e-01
962:1.8534397957087337e-01
963:1.7693019883147681e-01
964:2.0438861498645153e-01
965:1.9576015033916944e-01
966:1.8514846483058245e-01
967:1.7747775006556107e-01
968:1.9642997836452381e-01
969:1.8973884700562615e-01
970:1.8118179392997436e-01
971:1.7481356492955213e-01
972:1.8711942524863118e-01
973:1.8211033604653828e-01
974:1.7544082958610371e-01
975:1.7029711437910863e-01
976:1.7263545679833789e-01
977:1.6488690909879597e-01
978:1.5532896967797782e-01
979:1.4837410176444807e-01
980:1.7354439798611282e-01
981:1.6643223802885945e-01
982:1.5758640920611119e-01
983:1.5105310005913233e-01
984:1.7150509121200630e-01
985:1.6545708380809707e-01
986:1.5777701491003310e-01
987:1.5195665423679097e-01
988:1.6756717593557563e-01
989:1.6248687376827195e-01
990:1.5586141063251691e-01
991:1.5070843387023708e-01
992:1.4478853489888685e-01
993:1.3834845635358203e-01
994:1.3045185661704317e-01
995:1.2471689466313543e-01
996:1.4764020726006952e-01
997:1.4146232427818603e-01
998:1.3381949596336676e-01
999:1.2823413980216242e-01
1000:1.4885915644446301e-01
1001:1.4319681141382420e-01
1002:1.3610596691885438e-01
1003:1.3086948445744925e-01
1004:1.4792326369547334e-01
1005:1.4279005980020421e-01
1006:1.3628764958161951e-01
1007:1.3142925642213937e-01
1008:1.2175253202241081e-01
1009:1.1634671952711567e-01
1010:1.0955980793255010e-01
1011:1.0452298152139980e-01
1012:1.2533958262133343e-01
1013:1.2003545963929806e-01
1014:1.1331730721566326e-01
1015:1.0828112656377289e-01
1016:1.2813927978526912e-01
1017:1.2309394003772146e-01
1018:1.1661433640530366e-01
1019:1.1168592882177161e-01
1020:1.2887617157147149e-01
1021:1.2411797197222681e-01
1022:1.1792884915918220e-01
1023:1.1316300156630388e-01
1024:1.0188344219208043e-01
1025:9.6958858515696564e-02
1026:9.0538726540466838e-02
1027:8.5583045721942336e-02
1028:1.0562344592088659e-01
1029:1.0064558204100264e-01
1030:9.4123272806919595e-02
1031:8.9065903333808122e-02
1032:1.0906027573533407e-01
1033:1.0411221682224463e-01
1034:9.7575528418099036e-02
1035:9.2468781010306839e-02
1036:1.1060445939446632e-01
1037:1.0575514417879239e-01
1038:9.9297957692431216e-02
1039:9.4216460924447284e-02
1040:8.2914525650863463e-02
1041:7.7776228832223390e-02
1042:7.0764328037820234e-02
1043:6.5119525241863305e-02
1044:8.6334955115139098e-02
1045:8.1056476318985049e-02
1046:7.3815244279550121e-02
1047:6.7959451635004706e-02
1048:8.9698339335250218e-02
1049:8.4315898317598906e-02
1050:7.6879926840012741e-02
1051:7.0830173426108228e-02
1052:9.1447430960380854e-02
1053:8.6045005085354745e-02
1054:7.8539030499104295e-02
1055:7.2402493292620676e-02
1056:6.1997980202639580e-02
1057:5.5783797036665778e-02
1058:4.6902017736575055e-02
1059:3.9457631480651394e-02
1060:6.4713188131722360e-02
1061:5.8243312874662792e-02
1062:4.8983998293722242e-02
1063:4.1214963594620235e-02
1064:6.7464989530774039e-02
1065:6.0744738252032679e-02
1066:5.1105130309332385e-02
1067:4.3002951378753172e-02
1068:6.8979566575110868e-02
1069:6.2131201428106596e-02
1070:5.2286817639756185e-02
1071:4.3999596841530465e-02
1072:3.5240997791684520e-02
1073:2.6649081240478708e-02
1074:1.3999603418885405e-02
1075:3.1398174916080893e-03
1076:3.6811940926740949e-02
1077:2.7837823723750005e-02
1078:1.4624380814128420e-02
1079:3.2820902101921997e-03
1080:3.8407250349958275e-02
1081:2.9039362198790945e-02
1082:1.5247965761226846e-02
1083:3.4132681738299297e-03
1084:3.9295588665701590e-02
1085:2.9707054298216205e-02
1086:1.5593593865440389e-02
1087:3.4856967250683816e-03
1088:7.4823261092284554e-01
1089:1.7358513104729459e-01
1090:-5.8332696616229829e-01
1091:-1.0841190463240795e+00
1092:-3.3908351847742497e-02
1093:-3.8677479503809936e-01
1094:-8.4390581961868394e-01
1095:-1.1446509509215799e+00
1096:-2.2250606172644843e-01
1097:-4.8391352630585421e-01
1098:-7.9878637753721859e-01
1099:-1.0056151139031249e+00
1100:-8.3169368682307745e-02
1101:-3.4818919980915591e-01
1102:-6.5323838541866353e-01
1103:-8.5380377051277490e-01
1104:-1.2972374638524076e+00
1105:-1.5779428461231002e+00
1106:-1.7293408811476298e+00
1107:-1.6987591100214616e+00
1108:-1.2731861059512886e+00
1109:-1.4459863318441319e+00
1110:-1.5463482225595473e+00
1111:-1.5357546205693067e+00
1112:-1.0990115332002730e+00
1113:-1.2350634791942645e+00
1114:-1.3361524525619350e+00
1115:-1.3564165602102285e+00
1116:-9.4775033969280931e-01
1117:-1.0896088121667971e+00
1118:-1.2054634652959648e+00
1119:-1.2415011159515599e+00
1120:-1.6388334068371047e+00
1121:-1.5021440951295217e+00
1122:-1.2945327901311030e+00
1123:-1.1197487257255474e+00
1124:-1.5029050255830698e+00
1125:-1.4163992311766849e+00
1126:-1.2649474899302406e+00
1127:-1.1241563065984241e+00
1128:-1.3479064482233141e+00
1129:-1.3067526048480622e+00
1130:-1.2093751613110950e+00
1131:-1.1045650657097874e+00
1132:-1.2426131312113928e+00
1133:-1.2206249014384336e+00
1134:-1.1497292785215880e+00
1135:-1.0658707394661544e+00
1136:-1.0239041416138566e+00
1137:-8.5455981682356585e-01
1138:-6.5453769566074493e-01
1139:-5.1480544278071383e-01
1140:-1.0426316208881130e+00
1141:-8.9306998985527175e-01
1142:-7.0860707578137150e-01
1143:-5.7630935359459234e-01
1144:-1.0397244342953762e+00
1145:-9.1532100187911669e-01
1146:-7.5347000465487179e-01
1147:-6.3264765723335903e-01
1148:-1.0121897117328651e+00
1149:-9.0685013873987541e-01
1150:-7.6546137307135043e-01
1151:-6.5659770884080781e-01
1152:-4.4462677806222356e-01
1153:-3.2436301357542630e-01
1154:-1.9129182695440097e-01
1155:-1.0815649325375830e-01
1156:-5.0947965881345536e-01
1157:-3.9433704556704019e-01
1158:-2.6449683928821610e-01
1159:-1.8022959037022915e-01
1160:-5.7049982661383747e-01
1161:-4.6268349886858978e-01
1162:-3.3917447081117391e-01
1163:-2.5678212658203137e-01
1164:-5.9945092776747777e-01
1165:-4.9932757132711175e-01
1166:-3.8293709251172936e-01
1167:-3.0395494738507334e-01
1168:-7.0591816574234689e-02
1169:-1.0260514740265967e-02
1170:5.1414300251004755e-02
1171:8.7842786391237895e-02
1172:-1.4060526817237259e-01
1173:-7.5578105571835627e-02
1174:-7.2125916419727683e-03
1175:3.4179413473301452e-02
1176:-2.1698716744801405e-01
1177:-1.5012039539993383e-01
1178:-7.7196756105509884e-02
1179:-3.1281906132351996e-02
1180:-2.6530281421627938e-01
1181:-1.9931324939721826e-01
1182:-1.2542140925051123e-01
1183:-7.7506001131718266e-02
1184:1.0414009798184423e-01
1185:1.3043179867062804e-01
1186:1.5637361062070332e-01
1187:1.6968697653822262e-01
1188:5.2896058396093584e-02
1189:8.3437626703627019e-02
1190:1.1470625507692266e-01
1191:1.3221606782373913e-01
1192:-9.9999331776559723e-03
1193:2.5160207979649900e-02
1194:6.2254306779332733e-02
1195:8.4316988765654174e-02
1196:-5.4847293504361905e-02
1197:-1.7067152759922717e-02
1198:2.3514703135025336e-02
1199:4.8393245851562988e-02
1200:1.7450841431844535e-01
1201:1.8121339305206671e-01
1202:1.8633447534841860e-01
1203:1.8801244502724790e-01
1204:1.3937564223112486e-01
1205:1.5029330657315698e-01
1206:1.6036760897031682e-01
1207:1.6531938321762449e-01
1208:9.3988670996962828e-02
1209:1.0949531784793118e-01
1210:1.2513150358662486e-01
1211:1.3391546311041438e-01
1212:5.9633501581068428e-02
1213:7.8051219675192962e-02
1214:9.7327922542185821e-02
1215:1.0872725308086835e-01
1216:1.8828598178702591e-01
1217:1.8801068933872767e-01
1218:1.8602673348066773e-01
1219:1.8313584057130150e-01
1220:1.6712642960306071e-01
1221:1.6943888992256448e-01
1222:1.7040529922893152e-01
1223:1.6955897967028802e-01
1224:1.3758418525474622e-01
1225:1.4311177223049668e-01
1226:1.4784857461503048e-01
1227:1.4966543521089451e-01
1228:1.1371177267501902e-01
1229:1.2156365609893967e-01
1230:1.2909562192843177e-01
1231:1.3291443362138528e-01
1232:1.8110998604041326e-01
1233:1.7705911262022300e-01
1234:1.7149019497352469e-01
1235:1.6706458737146973e-01
1236:1.6857516076889992e-01
1237:1.6634661020906297e-01
1238:1.6286343563816813e-01
1239:1.5979662330246658e-01
1240:1.5004457027715840e-01
1241:1.5018970725437603e-01
1242:1.4941677650126653e-01
1243:1.4812553080663121e-01
1244:1.3431906143012595e-01
1245:1.3624930153078355e-01
1246:1.3752629090830443e-01
1247:1.3760029069126170e-01
1248:1.6467048422134961e-01
1249:1.6014885397582837e-01
1250:1.5413491722366063e-01
1251:1.4937868715548414e-01
1252:1.5803911689188196e-01
1253:1.5459192713545153e-01
1254:1.4978558253700097e-01
1255:1.4583588253520738e-01
1256:1.4720925445485050e-01
1257:1.4521119263739543e-01
1258:1.4208465651193541e-01
1259:1.3928804842983139e-01
1260:1.3734321706623642e-01
1261:1.3649790956407284e-01
1262:1.3473149192616662e-01
1263:1.3287896093625365e-01
1264:1.4678499609639384e-01
1265:1.4198035515238430e-01
1266:1.3584695603830257e-01
1267:1.3122569899236894e-01
1268:1.4363827287666184e-01
1269:1.3951175196833804e-01
1270:1.3413540753742459e-01
1271:1.2999815030808462e-01
1272:1.3766398185656462e-01
1273:1.3451775764174856e-01
1274:1.3023400761180243e-01
1275:1.2679784500149974e-01
1276:1.3172553408461890e-01
1277:1.2938511618427856e-01
1278:1.2600599249921576e-01
1279:1.2315914024082997e-01
1280:1.2878299313437661e-01
1281:1.2420604290911917e-01
1282:1.1820722819813458e-01
1283:1.1355538495168685e-01
1284:1.2778051285563055e-01
1285:1.2357951757153934e-01
1286:1.1798976236669721e-01
1287:1.1359510727815220e-01
1288:1.2490885276762652e-01
1289:1.2126753738107454e-01
1290:1.1630823991595611e-01
1291:1.1232668532174035e-01
1292:1.2155081299046368e-01
1293:1.1839341114984338e-01
1294:1.1398921253163245e-01
1295:1.1037829616734382e-01
1296:1.1104747956786619e-01
1297:1.0627729466849697e-01
1298:9.9893964499300630e-02
1299:9.4847777456026253e-02
1300:1.1120612200363958e-01
1301:1.0662698151606366e-01
1302:1.0043286590838153e-01
1303:9.5488334297460176e-02
1304:1.1013468325420822e-01
1305:1.0588014953537328e-01
1306:1.0002505536899231e-01
1307:9.5279793201726998e-02
1308:1.0836532676155025e-01
1309:1.0441104540760714e-01
1310:9.8881285849598974e-02
1311:9.4338247127095265e-02
1312:9.2090444800725313e-02
1313:8.6698045183733946e-02
1314:7.9182351732229178e-02
1315:7.3021217814770806e-02
1316:9.2770844268909525e-02
1317:8.7431461714564368e-02
1318:7.9944151712459638e-02
1319:7.3774384363224060e-02
1320:9.2648752140229509e-02
1321:8.7444193673121159e-02
1322:8.0082645585296028e-02
1323:7.3972523635187082e-02
1324:9.1799778347098321e-02
1325:8.6748374750281812e-02
1326:7.9549618926259030e-02
1327:7.3537600867009514e-02
1328:6.9579253164783222e-02
1329:6.2685156326698702e-02
1330:5.2762524400970394e-02
1331:4.4401875145173186e-02
1332:7.0317418735962325e-02
1333:6.3378135916081907e-02
1334:5.3365385326298038e-02
1335:4.4913463631648151e-02
1336:7.0535028191090365e-02
1337:6.3613671025379639e-02
1338:5.3591303020851883e-02
1339:4.5109212763073392e-02
1340:7.0143676431107721e-02
1341:6.3292644641395515e-02
1342:5.3342810516142883e-02
1343:4.4903729264995904e-02
1344:3.9654278441112502e-02
1345:2.9977094996608920e-02
1346:1.5734756620671451e-02
1347:3.5179090973927541e-03
1348:4.0110095141332888e-02
1349:3.0319496049162738e-02
1350:1.5913453676046432e-02
1351:3.5596236542878418e-03
1352:4.0282897300906118e-02
1353:3.0445547688625119e-02
1354:1.5975224556448359e-02
1355:3.5716546854568159e-03
1356:4.0096974611892093e-02
1357:3.0299205415283196e-02
1358:1.5890707265438540e-02
1359:3.5449204992368710e-03
1360:-1.4898596386512232e-02
1361:-2.8416813880244263e-01
1362:-5.9089488054271644e-01
1363:-7.9222101125068711e-01
1364:2.7928953180495819e-02
1365:-2.3093737829661173e-01
1366:-5.2202998379405074e-01
1367:-7.1207029177228398e-01
1368:-1.7285435991353671e-02
1369:-2.3457912814258419e-01
1370:-4.7909722434722207e-01
1371:-6.3891560581832363e-01
1372:-6.6966745796756363e-02
1373:-2.3977511595046755e-01
1374:-4.4104302498108594e-01
1375:-5.7615799586599026e-01
1376:-8.8702322867879635e-01
1377:-1.0303406225006753e+00
1378:-1.1483485642979574e+00
1379:-1.1870293184683747e+00
1380:-8.0176313918174857e-01
1381:-9.3747927916644613e-01
1382:-1.0505849457468699e+00
1383:-1.0904461117000650e+00
1384:-7.1448145430718535e-01
1385:-8.3013490107001853e-01
1386:-9.3030358952712955e-01
1387:-9.7040745615087054e-01
1388:-6.4085000790450475e-01
1389:-7.4246439869111447e-01
1390:-8.3621543914972918e-01
1391:-8.7944386860388146e-01
1392:-1.1901427229994603e+00
1393:-1.1732055920062361e+00
1394:-1.1114162280159992e+00
1395:-1.0364388411463630e+00
1396:-1.0961913692680074e+00
1397:-1.0868255693790205e+00
1398:-1.0396929663316676e+00
1399:-9.7951116126734650e-01
1400:-9.7970230488395171e-01
1401:-9.8007395223494576e-01
1402:-9.5064404946652892e-01
1403:-9.0753318655120008e-01
1404:-8.9279013606644297e-01
1405:-9.0239401041567735e-01
1406:-8.8723962649753763e-01
1407:-8.5637699451279248e-01
1408:-9.8810364252650218e-01
1409:-8.9283336822626258e-01
1410:-7.6362145016082472e-01
1411:-6.6259231787378026e-01
1412:-9.4019816157371927e-01
1413:-8.6204436535529028e-01
1414:-7.5395835410840828e-01
1415:-6.6708735690492960e-01
1416:-8.7835001649998901e-01
1417:-8.1898698427989036e-01
1418:-7.3400106030958046e-01
1419:-6.6322152314516469e-01
1420:-8.3399194547223099e-01
1421:-7.8659240980789946e-01
1422:-7.1572619625735501e-01
1423:-6.5492734191951130e-01
1424:-6.0887585347442952e-01
1425:-5.1394898728202054e-01
1426:-4.0227002342159746e-01
1427:-3.2559651646254562e-01
1428:-6.1985909496295888e-01
1429:-5.3491663536526135e-01
1430:-4.3244733093146143e-01
1431:-3.6035541481464928e-01
1432:-6.2379571254379129e-01
1433:-5.5123925916483840e-01
1434:-4.6071951704382086e-01
1435:-3.9489585707646691e-01
1436:-6.2057069508329188e-01
1437:-5.5639953659251229e-01
1438:-4.7453231568831372e-01
1439:-4.1365454814178804e-01
1440:-2.8779647998757002e-01
1441:-2.2276587744281187e-01
1442:-1.4903184598185779e-01
1443:-1.0055051655201690e-01
1444:-3.2426382891409061e-01
1445:-2.6139312917204133e-01
1446:-1.8870520071523073e-01
1447:-1.3988611201122153e-01
1448:-3.6124828266119435e-01
1449:-3.0187295427596839e-01
1450:-2.3188259581062406e-01
1451:-1.8386335225533762e-01
1452:-3.8208577926828269e-01
1453:-3.2594906615984265e-01
1454:-2.5898956417983110e-01
1455:-2.1240456738427504e-01
1456:-7.7404549994214242e-02
1457:-3.8613871476702193e-02
1458:3.4458895106544807e-03
1459:2.9594683466112350e-02
1460:-1.1623755743463868e-01
1461:-7.6228578140133729e-02
1462:-3.2102917840999119e-02
1463:-4.0101951145467604e-03
1464:-1.6024971411550459e-01
1465:-1.1979902781565248e-01
1466:-7.4211480613582390e-02
1467:-4.4385211806304753e-02
1468:-1.8925192561338097e-01
1469:-1.4918795643244470e-01
1470:-1.0328591817435535e-01
1471:-7.2686932438770516e-02
1472:4.1560190794396830e-02
1473:6.1339341710462680e-02
1474:8.2352908290084015e-02
1475:9.5033276681504589e-02
1476:9.1073964637901541e-03
1477:3.1076484799422242e-02
1478:5.4934060173473916e-02
1479:6.9756392198292189e-02
1480:-3.0159934657108322e-02
1481:-6.0307411155314248e-03
1482:2.0734205809183257e-02
1483:3.7834817854907998e-02
1484:-5.7899803119550931e-02
1485:-3.2626601431075888e-02
1486:-4.2289492473673853e-03
1487:1.4230018747790670e-02
1488:1.0067623317740730e-01
1489:1.0970775415794153e-01
1490:1.1867926645575824e-01
1491:1.2353591036861952e-01
1492:7.6517425588711399e-02
1493:8.7569450269861876e-02
1494:9.9031980899227476e-02
1495:1.0569861712091747e-01
1496:4.5818759463273268e-02
1497:5.9117685974300803e-02
1498:7.3407739638953168e-02
1499:8.2164007569862724e-02
1500:2.2972433087684613e-02
1501:3.7700562256520694e-02
1502:5.3845701425112705e-02
1503:6.4007821558952877e-02
1504:1.2547177366140050e-01
1505:1.2832892997248099e-01
1506:1.3068015614036377e-01
1507:1.3148198982951162e-01
1508:1.0856468503767162e-01
1509:1.1305867622303865e-01
1510:1.1733664650689569e-01
1511:1.1946836685645518e-01
1512:8.6114135451808557e-02
1513:9.2541485014099562e-02
1514:9.9146942491532039e-02
1515:1.0292478153778732e-01
1516:6.8697114529951905e-02
1517:7.6459975102987826e-02
1518:8.4705394198664699e-02
1519:8.9666295806504606e-02
1520:1.3158210372692816e-01
1521:1.3136548879861545e-01
1522:1.3034440817937770e-01
1523:1.2900916699465789e-01
1524:1.2022960945430941e-01
1525:1.2117766114168324e-01
1526:1.2153598254394771e-01
1527:1.2115681536840071e-01
1528:1.0451733269502310e-01
1529:1.0693308062110889e-01
1530:1.0903291166770294e-01
1531:1.0986439321581608e-01
1532:9.1863597614053494e-02
1533:9.5351878583337518e-02
1534:9.8733432847095987e-02
1535:1.0046434586744495e-01
1536:1.2811286871908789e-01
1537:1.2621412509647684e-01
1538:1.2333559945761557e-01
1539:1.2081993679828774e-01
1540:1.2073561056649736e-01
1541:1.1965946327237700e-01
1542:1.1772719217357090e-01
1543:1.1584828052203898e-01
1544:1.1004691047181997e-01
1545:1.1002801866131583e-01
1546:1.0933526468685001e-01
1547:1.0830707463739429e-01
1548:1.0109893622706580e-01
1549:1.0187941315664055e-01
1550:1.0213723894556649e-01
1551:1.0177013263924066e-01
1552:1.1937151640238830e-01
1553:1.1649119432939344e-01
1554:1.1240652237134047e-01
1555:1.0900989847064996e-01
1556:1.1471083873143369e-01
1557:1.1237010073863735e-01
1558:1.0890831649707269e-01
1559:1.0593033818631267e-01
1560:1.0759021938586895e-01
1561:1.0598105027641369e-01
1562:1.0336700691402370e-01
1563:1.0096254369259215e-01
1564:1.0138254947259455e-01
1565:1.0034812258617050e-01
1566:9.8404665409777672e-02
1567:9.6458553058060226e-02
1568:1.0710073391471829e-01
1569:1.0332226445684695e-01
1570:9.7986999078442813e-02
1571:9.3568457060591317e-02
1572:1.0422457463702446e-01
1573:1.0079428584525280e-01
1574:9.5852039966084324e-02
1575:9.1691451572778651e-02
1576:9.9537359778878551e-02
1577:9.6593874216470879e-02
1578:9.2214256996196509e-02
1579:8.8433196524809257e-02
1580:9.5259695640644737e-02
1581:9.2713078903411308e-02
1582:8.8800047841510646e-02
1583:8.5339617857616026e-02
1584:9.1088454641617328e-02
1585:8.6135895452301034e-02
1586:7.9046624056141476e-02
1587:7.3104652095106901e-02
1588:8.9334961869512827e-02
1589:8.4594332399332450e-02
1590:7.7746187892008350e-02
1591:7.1964167871984883e-02
1592:8.6262111319043988e-02
1593:8.1844916717380284e-02
1594:7.5375724930453400e-02
1595:6.9854631821025179e-02
1596:8.3327211182709610e-02
1597:7.9190321989797627e-02
1598:7.3056863358957932e-02
1599:6.7773163680884110e-02
1600:6.9743615097309489e-02
1601:6.2949241402283307e-02
1602:5.3065339707005339e-02
1603:4.4671891830263342e-02
1604:6.8680593381836852e-02
1605:6.2024347117680768e-02
1606:5.2310439567348307e-02
1607:4.4041846674679884e-02
1608:6.6701239069169874e-02
1609:6.0284009408696243e-02
1610:5.0877327316169660e-02
1611:4.2843983839071467e-02
1612:6.4740596345568502e-02
1613:5.8548947376816554e-02
1614:4.9439014074684394e-02
1615:4.1637667145126872e-02
1616:3.9888361196794848e-02
1617:3.0137665378428210e-02
1618:1.5800355810466207e-02
1619:3.5183456828099986e-03
1620:3.9324214322191624e-02
1621:2.9707413348810677e-02
1622:1.5570881815405172e-02
1623:3.4662878265545099e-03
1624:3.8253473535989131e-02
1625:2.8895286207859899e-02
1626:1.5144298537316204e-02
1627:3.3772277736058443e-03
1628:3.7173920679941894e-02
1629:2.8073643477287635e-02
1630:1.4705860718109209e-02
1631:3.2726303335720471e-03
1632:-8.0292797777687511e-02
1633:-2.2842319272771128e-01
1634:-4.0816730205631063e-01
1635:-5.3267254090718530e-01
1636:-7.6390575716374295e-02
1637:-1.9245920889823762e-01
1638:-3.4419547939552714e-01
1639:-4.5500513197813686e-01
1640:-4.1342896016584876e-02
1641:-1.4107963650034655e-01
1642:-2.7565207519651541e-01
1643:-3.7629963237739844e-01
1644:-1.5053883836846617e-02
1645:-1.1673622907161105e-01
1646:-2.4702571336230889e-01
1647:-3.4170512291709609e-01
1648:-5.9318147483136585e-01
1649:-6.9030112933264798e-01
1650:-7.8403930052239756e-01
1651:-8.3084358106185419e-01
1652:-5.1021607678786973e-01
1653:-6.0192733610645566e-01
1654:-6.9647551136941910e-01
1655:-7.4869252120036389e-01
1656:-4.2715822477332854e-01
1657:-5.1357075860879842e-01
1658:-6.0647777599558705e-01
1659:-6.6096488481392734e-01
1660:-3.8920509706165457e-01
1661:-4.6983346972211426e-01
1662:-5.5675340896993553e-01
1663:-6.0829820599990070e-01
1664:-8.4704041186198387e-01
1665:-8.6250954271931635e-01
1666:-8.5552436653871089e-01
1667:-8.3105872412392501e-01
1668:-7.6904334122760254e-01
1669:-7.9329290708650646e-01
1670:-7.9899949315269625e-01
1671:-7.8477122579440284e-01
1672:-6.8361082628833236e-01
1673:-7.1379682614053219e-01
1674:-7.2991593415334088e-01
1675:-7.2527049806114630e-01
1676:-6.3010811198394368e-01
1677:-6.6038065815934499e-01
1678:-6.7964414728815636e-01
1679:-6.7949190257024017e-01
1680:-8.1202010925357859e-01
1681:-7.7022291360512973e-01
1682:-7.0563115180262148e-01
1683:-6.4922371519671151e-01
1684:-7.7118575699293257e-01
1685:-7.3869955706540225e-01
1686:-6.8480961057163958e-01
1687:-6.3599864668957407e-01
1688:-7.1717426769174608e-01
1689:-6.9469481085517937e-01
1690:-6.5323669134793760e-01
1691:-6.1360953134589746e-01
1692:-6.7442479844350411e-01
1693:-6.5814045870853954e-01
1694:-6.2532274315468550e-01
1695:-5.9244778452356661e-01
1696:-6.1715291318323717e-01
1697:-5.5690728177660809e-01
1698:-4.7935147431302372e-01
1699:-4.2113238816411319e-01
1700:-6.0788518107052492e-01
1701:-5.5451706720378213e-01
1702:-4.8471395324589639e-01
1703:-4.3145898834492258e-01
1704:-5.9028478902515535e-01
1705:-5.4531180628869891e-01
1706:-4.8519140944738165e-01
1707:-4.3836076359758053e-01
1708:-5.7266404288211459e-01
1709:-5.3391325002337797e-01
1710:-4.8103758133284757e-01
1711:-4.3909711064830037e-01
1712:-3.9075154004361434e-01
1713:-3.3653784682312099e-01
1714:-2.7149714213441312e-01
1715:-2.2591507089980334e-01
1716:-4.0337035279447553e-01
1717:-3.5289362311129663e-01
1718:-2.9163499716867114e-01
1719:-2.4810530141462966e-01
1720:-4.1333248752004154e-01
1721:-3.6786986137095545e-01
1722:-3.1176340581834544e-01
1723:-2.7116292329998337e-01
1724:-4.1643543058629584e-01
1725:-3.7486345761654022e-01
1726:-3.2281528544219557e-01
1727:-2.8462313280582846e-01
1728:-2.0312824080897043e-01
1729:-1.6347553317275090e-01
1730:-1.1764799721677995e-01
1731:-8.6816705430698526e-02
1732:-2.2611352963559947e-01
1733:-1.8747898437582966e-01
1734:-1.4217390623957918e-01
1735:-1.1122465950219658e-01
1736:-2.5038959640449510e-01
1737:-2.1351729980576531e-01
1738:-1.6958650376430717e-01
1739:-1.3905792837187145e-01
1740:-2.6491119077519348e-01
1741:-2.2969591350584059e-01
1742:-1.8730272900730785e-01
1743:-1.5749174122442244e-01
1744:-7.1826999907592518e-02
1745:-4.6117460538282432e-02
1746:-1.7052461916311351e-02
1747:1.9968152319452654e-03
1748:-9.6024807753010297e-02
1749:-6.9785806523365454e-02
1750:-3.9792561293424976e-02
1751:-1.9852469107913752e-02
1752:-1.2388719054620950e-01
1753:-9.7471204384050297e-02
1754:-6.6844196304810394e-02
1755:-4.6135178338633877e-02
1756:-1.4254891838831921e-01
1757:-1.1634639374017108e-01
1758:-8.5631249713111757e-02
1759:-6.4610252668887883e-02
1760:1.1081038664276984e-02
1761:2.6468518715534812e-02
1762:4.3493862129546701e-02
1763:5.4338081120542871e-02
1764:-1.0234206379732356e-02
1765:6.2014902869130762e-03
1766:2.4657629636549511e-02
1767:3.6633754991769005e-02
1768:-3.6018862632787696e-02
1769:-1.8569894689606684e-02
1770:1.3324416400817287e-03
1771:1.4499570453023709e-02
1772:-5.4255089176467916e-02
1773:-3.6285849810473239e-02
1774:-1.5581497375573830e-02
1775:-1.7114008891102068e-03
1776:5.9390207796450448e-02
1777:6.7813948537566657e-02
1778:7.6880017147610058e-02
1779:8.2439047457745884e-02
1780:4.2295735610034753e-02
1781:5.1839425000571662e-02
1782:6.2311954115226845e-02
1783:6.8907214885356838e-02
1784:2.0819128286967400e-02
1785:3.1589827164966292e-02
1786:4.3636855213238956e-02
1787:5.1415757855840002e-02
1788:5.0101940099566153e-03
1789:1.6548495352772790e-02
1790:2.9610328927150733e-02
1791:3.8172566241094906e-02
1792:8.4943952146751767e-02
1793:8.8980332369291662e-02
1794:9.3022295822006495e-02
1795:9.5221367065389501e-02
1796:7.1948693633393360e-02
1797:7.6947637337310290e-02
1798:8.2161563154783582e-02
1799:8.5200346956992648e-02
1800:5.5077829581314498e-02
1801:6.1202581555353797e-02
1802:6.7809805220128916e-02
1803:7.1862661090579524e-02
1804:4.2251803818535418e-02
1805:4.9142823441748112e-02
1806:5.6714790704841436e-02
1807:6.1480735229207120e-02
1808:9.6093069599187494e-02
1809:9.7294972576167121e-02
1810:9.8057217443867972e-02
1811:9.8042790031298302e-02
1812:8.6500196982105010e-02
1813:8.8465017695576270e-02
1814:9.0143919922423654e-02
1815:9.0773443242936389e-02
1816:7.3684391390436851e-02
1817:7.6583099153498091e-02
1818:7.9391898940814082e-02
1819:8.0822301365080493e-02
1820:6.3672679527627132e-02
1821:6.7237416231282765e-02
1822:7.0859431473930395e-02
1823:7.2872868146133030e-02
1824:9.7831347126955195e-02
1825:9.7105354945448488e-02
1826:9.5524115110989558e-02
1827:9.3827794137503223e-02
1828:9.0884878685509110e-02
1829:9.0727567073331836e-02
1830:8.9820474711663448e-02
1831:8.8593639163948884e-02
1832:8.1338269969923174e-02
1833:8.1899772582411268e-02
1834:8.1856257517071221e-02
1835:8.1238705889795912e-02
1836:7.3685984610046787e-02
1837:7.4779974100068300e-02
1838:7.5383875789868257e-02
1839:7.5228119990616446e-02
1840:9.2753180298941820e-02
1841:9.0425649074075937e-02
1842:8.6772344656641479e-02
1843:8.3491956727849426e-02
1844:8.7754023140907883e-02
1845:8.5842392958037805e-02
1846:8.2685196059768859e-02
1847:7.9751421682004928e-02
1848:8.0706485105722620e-02
1849:7.9341744058247857e-02
1850:7.6842974505977171e-02
1851:7.4374714515745094e-02
1852:7.4930365936049792e-02
1853:7.3984991073140133e-02
1854:7.1995998389105434e-02
1855:6.9892530164662167e-02
1856:8.1569192148498851e-02
1857:7.7591799124978628e-02
1858:7.1651785011546190e-02
1859:6.6506864723658424e-02
1860:7.8002356951736934e-02
1861:7.4336618723712625e-02
1862:6.8779668714744127e-02
1863:6.3913363168583689e-02
1864:7.2861198026993895e-02
1865:6.9622748960355335e-02
1866:6.4599831762497825e-02
1867:6.0128376912904055e-02
1868:6.8565348962671052e-02
1869:6.5667998973174546e-02
1870:6.1077034773243340e-02
1871:5.6928948308310516e-02
1872:6.3545666698030343e-02
1873:5.7488270575324810e-02
1874:4.8556713921815264e-02
1875:4.0896035871922830e-02
1876:6.1096724225918074e-02
1877:5.5312970877116133e-02
1878:4.6748087255002256e-02
1879:3.9378773319176393e-02
1880:5.7518714460864255e-02
1881:5.2129689701756188e-02
1882:4.4099092628606631e-02
1883:3.7158171082290574e-02
1884:5.4490072356268050e-02
1885:4.9428644971215810e-02
1886:4.1844965472878082e-02
1887:3.5264897725615613e-02
1888:3.6509500071355679e-02
1889:2.7566296624200817e-02
1890:1.4431523929732831e-02
1891:3.2008408041440009e-03
1892:3.5152831963184070e-02
1893:2.6536561356585515e-02
1894:1.3886487525210482e-02
1895:3.0764742408263012e-03
1896:3.3169516718075234e-02
1897:2.5036544062971247e-02
1898:1.3102206752857941e-02
1899:2.9120734928268681e-03
1900:3.1476875505419666e-02
1901:2.3752494637881094e-02
1902:1.2422391114317316e-02
1903:2.7545246857020324e-03
1904:-8.0750450455612591e-03
1905:-1.1374561118562779e-01
1906:-2.4280459895459969e-01
1907:-3.3376687393402737e-01
1908:-7.1415521718582722e-03
1909:-1.1365539598789567e-01
1910:-2.3626117303627603e-01
1911:-3.1938528280463135e-01
1912:-1.7979228406825757e-02
1913:-1.1305926520392404e-01
1914:-2.2080262101307593e-01
1915:-2.9355206983396082e-01
1916:-2.5543334284317723e-02
1917:-1.0488407396818594e-01
1918:-1.9883858399618276e-01
1919:-2.6478640720394836e-01
1920:-3.7894861525732598e-01
1921:-4.5515403189828174e-01
1922:-5.3671134069154669e-01
1923:-5.8495849906419595e-01
1924:-3.6021989592474707e-01
1925:-4.2848819191420451e-01
1926:-5.0086257868648387e-01
1927:-5.4368391277199768e-01
1928:-3.2948561138172011e-01
1929:-3.8957924513178616e-01
1930:-4.5358314740398392e-01
1931:-4.9209232931330693e-01
1932:-2.9800133221486996e-01
1933:-3.5420263645044986e-01
1934:-4.1526307890355812e-01
1935:-4.5296677880306396e-01
1936:-6.0545523727850792e-01
1937:-6.3429928753259446e-01
1938:-6.5365046596329268e-01
1939:-6.5496654763372231e-01
1940:-5.6207788160729422e-01
1941:-5.8864034568070978e-01
1942:-6.0813718332587674e-01
1943:-6.1181717433206007e-01
1944:-5.0902882756082213e-01
1945:-5.3433691357969182e-01
1946:-5.5494203276724785e-01
1947:-5.6145763027376527e-01
1948:-4.6992104721136924e-01
1949:-4.9584891361556394e-01
1950:-5.1832734296643601e-01
1951:-5.2705535870611797e-01
1952:-6.5113570079861782e-01
1953:-6.3768443414150611e-01
1954:-6.0920638170369357e-01
1955:-5.7986927604793947e-01
1956:-6.0997925851484436e-01
1957:-6.0111687870168307e-01
1958:-5.7974610069652421e-01
1959:-5.5629621245486960e-01
1960:-5.6177708586694164e-01
1961:-5.5769432770874716e-01
1962:-5.4362299586181762e-01
1963:-5.2632111572039930e-01
1964:-5.2880459564074322e-01
1965:-5.2764404886584382e-01
1966:-5.1782717610781970e-01
1967:-5.0414223554596416e-01
1968:-5.6195394280546662e-01
1969:-5.2648204674615429e-01
1970:-4.7742241784232720e-01
1971:-4.3806370757003266e-01
1972:-5.4153368080620845e-01
1973:-5.1165112546875757e-01
1974:-4.6919787989981027e-01
1975:-4.3438649727042894e-01
1976:-5.1493324475358315e-01
1977:-4.9116261226183761e-01
1978:-4.5616394297828428e-01
1979:-4.2665378928231940e-01
1980:-4.9479974971624396e-01
1981:-4.7484347823544359e-01
1982:-4.4469051252839836e-01
1983:-4.1876282156161626e-01
1984:-4.1665563627650121e-01
1985:-3.7714986453025279e-01
1986:-3.2728129791533495e-01
1987:-2.9041828505996414e-01
1988:-4.1521443974598754e-01
1989:-3.7944175266918567e-01
1990:-3.3359536641045640e-01
1991:-2.9924305467532192e-01
1992:-4.1014764708126633e-01
1993:-3.7892808313502507e-01
1994:-3.3815879211173350e-01
1995:-3.0708206488946366e-01
1996:-4.0410394727597643e-01
1997:-3.7612100538400978e-01
1998:-3.3909369719229437e-01
1999:-3.1050880460949948e-01
2000:-2.7131130965072014e-01
2001:-2.3707362064873780e-01
2002:-1.9564823522556210e-01
2003:-1.6633979651599223e-01
2004:-2.8129641898021834e-01
2005:-2.4895011532107900e-01
2006:-2.0943781625269459e-01
2007:-1.8117055368379767e-01
2008:-2.9067710203710867e-01
2009:-2.6086457172294891e-01
2010:-2.2397627848306806e-01
2011:-1.9721634070723634e-01
2012:-2.9529542467221154e-01
2013:-2.6745480162141033e-01
2014:-2.3265031725925239e-01
2015:-2.0714150806761653e-01
2016:-1.5158064171070762e-01
2017:-1.2559899519847909e-01
2018:-9.4962441448570439e-02
2019:-7.3865616513856119e-02
2020:-1.6681838227243698e-01
2021:-1.4138128439261619e-01
2022:-1.1107860573438048e-01
2023:-8.9988006682532179e-02
2024:-1.8349746006776552e-01
2025:-1.5899408907934118e-01
2026:-1.2945795554506895e-01
2027:-1.0864206191494594e-01
2028:-1.9397704238531710e-01
2029:-1.7034227895890200e-01
2030:-1.4162225493311073e-01
2031:-1.2120098222228380e-01
2032:-6.3430647084147224e-02
2033:-4.5269630328788939e-02
2034:-2.4240558360355737e-02
2035:-1.0066756614142731e-02
2036:-7.9481908856891423e-02
2037:-6.1099724523508411e-02
2038:-3.9625907154841919e-02
2039:-2.4997954173360967e-02
2040:-9.8183984036772975e-02
2041:-7.9761824788092087e-02
2042:-5.8004706085026107e-02
2043:-4.2995905357840501e-02
2044:-1.1087662141478070e-01
2045:-9.2595758463304020e-02
2046:-7.0829467390248618e-02
2047:-5.5679496094935381e-02
2048:-3.1656244536904235e-03
2049:8.7227051683327356e-03
2050:2.2259486019316786e-02
2051:3.1196480967289743e-02
2052:-1.7818505423555633e-02
2053:-5.3768543601479405e-03
2054:8.9290144981911245e-03
2055:1.8485568053249395e-02
2056:-3.5561823425162724e-02
2057:-2.2591240911912933e-02
2058:-7.5117719339874364e-03
2059:2.6942415897930768e-03
2060:-4.8128447107018558e-02
2061:-3.4892044043047056e-02
2062:-1.9386544614903769e-02
2063:-8.7986703635184772e-03
2064:3.5477793946172176e-02
2065:4.2743333286727324e-02
2066:5.0792401846084329e-02
2067:5.5914574231985988e-02
2068:2.3105003712886020e-02
2069:3.1002314505543520e-02
2070:3.9865310965865756e-02
2071:4.5601816988223187e-02
2072:7.6763779428790837e-03
2073:1.6261770925056568e-02
2074:2.6029819320029235e-02
2075:3.2462943550790893e-02
2076:-3.5959740959760288e-03
2077:5.4169308964120491e-03
2078:1.5763295790940768e-02
2079:2.2652906477254500e-02
2080:5.8292499702621507e-02
2081:6.2193313216010342e-02
2082:6.6228824729880578e-02
2083:6.8541442863474036e-02
2084:4.8302697341686761e-02
2085:5.2790715811850138e-02
2086:5.7555388523398324e-02
2087:6.0400457757647838e-02
2088:3.5534570724460215e-02
2089:4.0703887848708292e-02
2090:4.6327506724637674e-02
2091:4.9808871707189270e-02
2092:2.5971201330048987e-02
2093:3.1599496358397705e-02
2094:3.7811753869916809e-02
2095:4.1735944116450811e-02
2096:6.9508082129490625e-02
2097:7.0878623824613463e-02
2098:7.1821126979431202e-02
2099:7.1908382621252931e-02
2100:6.1641907339805284e-02
2101:6.3509250032084921e-02
2102:6.5063377298644684e-02
2103:6.5592326099740458e-02
2104:5.1381582048758041e-02
2105:5.3851169274881962e-02
2106:5.6153451613251783e-02
2107:5.7228311682983590e-02
2108:4.3541270271007446e-02
2109:4.6436528837011992e-02
2110:4.9273172804225815e-02
2111:5.0742555319039602e-02
2112:7.1734447123554007e-02
2113:7.1011380987283809e-02
2114:6.9294491924301926e-02
2115:6.7387365029170129e-02
2116:6.5644487463552517e-02
2117:6.5329615911328964e-02
2118:6.4116694876168084e-02
2119:6.2576441360771839e-02
2120:5.7562087491716492e-02
2121:5.7759939780054351e-02
2122:5.7188076978470372e-02
2123:5.6120271738709052e-02
2124:5.1281593539511637e-02
2125:5.1856256609908433e-02
2126:5.1761141256234044e-02
2127:5.1048618996577776e-02
2128:6.6161101826759106e-02
2129:6.3449438303591288e-02
2130:5.9095310778970372e-02
2131:5.5125706073978056e-02
2132:6.1539832665946911e-02
2133:5.9178661710994736e-02
2134:5.5274534834753433e-02
2135:5.1646360250642710e-02
2136:5.5329783286360505e-02
2137:5.3426270554411230e-02
2138:5.0115267771711651e-02
2139:4.6941469859813810e-02
2140:5.0444472134601841e-02
2141:4.8889488816497448e-02
2142:4.6034211249443770e-02
2143:4.3212694143599913e-02
2144:5.2781471912069854e-02
2145:4.7902188276714011e-02
2146:4.0568121703108605e-02
2147:3.4190402501506859e-02
2148:4.9483995809064450e-02
2149:4.4956188612915123e-02
2150:3.8106321223901007e-02
2151:3.2122726551231315e-02
2152:4.5022690952976042e-02
2153:4.0968170587921258e-02
2154:3.4774606589810513e-02
2155:2.9327888344561445e-02
2156:4.1483878436169137e-02
2157:3.7800051952090741e-02
2158:3.2123137566180196e-02
2159:2.7100634693035471e-02
2160:3.0515121178260350e-02
2161:2.3020265639741487e-02
2162:1.2029215844420568e-02
2163:2.6540291168778069e-03
2164:2.8667458691493865e-02
2165:2.1620416076000619e-02
2166:1.1290313795919313e-02
2167:2.4851062642907537e-03
2168:2.6173000004653991e-02
2169:1.9737119724960187e-02
2170:1.0308060774371535e-02
2171:2.2789159722098936e-03
2172:2.4183479592588999e-02
2173:1.8231090369556835e-02
2174:9.5141261020620163e-03
2175:2.0976560569684589e-03
2176:-2.6470448301355587e-02
2177:-9.6149209966974625e-02
2178:-1.8283190541867872e-01
2179:-2.4589406498797689e-01
2180:-2.3749767163684828e-02
2181:-8.0416199747553777e-02
2182:-1.5678296419818843e-01
2183:-2.1515017862319749e-01
2184:-1.6334028775149379e-02
2185:-6.5649548238562158e-02
2186:-1.3411406704535275e-01
2187:-1.8709253997904918e-01
2188:-1.1624991855324219e-02
2189:-6.0937729208732527e-02
2190:-1.2616754575657069e-01
2191:-1.7512426072007561e-01
2192:-2.7810848869067867e-01
2193:-3.3316601081014213e-01
2194:-3.9392527678244404e-01
2195:-4.3207279741176008e-01
2196:-2.4546218454713598e-01
2197:-2.9810581695919797e-01
2198:-3.5770152571578684e-01
2199:-3.9612937290091588e-01
2200:-2.1463820326400954e-01
2201:-2.6311744545008114e-01
2202:-3.1928881520446351e-01
2203:-3.5643996846032494e-01
2204:-2.0029682405206684e-01
2205:-2.4476478997040790e-01
2206:-2.9676792055123180e-01
2207:-3.3159661754457531e-01
2208:-4.4942477653492729e-01
2209:-4.7623259508414739e-01
2210:-5.0009164146763552e-01
2211:-5.1005117216220208e-01
2212:-4.1393051805718906e-01
2213:-4.4187279190999373e-01
2214:-4.6773006171530485e-01
2215:-4.7960570839471350e-01
2216:-3.7397161934432344e-01
2217:-4.0196436124940704e-01
2218:-4.2891095256322093e-01
2219:-4.4237614067233783e-01
2220:-3.4821449766668672e-01
2221:-3.7506973584625097e-01
2222:-4.0162056588322664e-01
2223:-4.1558340314526127e-01
2224:-5.1251114031022105e-01
2225:-5.1270294314693010e-01
2226:-5.0475168643172685e-01
2227:-4.9265126426395683e-01
2228:-4.8321036706782866e-01
2229:-4.8564037518780084e-01
2230:-4.8086497608621342e-01
2231:-4.7149605742696499e-01
2232:-4.4707668794651378e-01
2233:-4.5185260042772324e-01
2234:-4.5068373004025941e-01
2235:-4.4450986274922222e-01
2236:-4.2081661854758495e-01
2237:-4.2695375623858894e-01
2238:-4.2815581542044134e-01
2239:-4.2417285735267979e-01
2240:-4.8422461856649779e-01
2241:-4.6601748938641452e-01
2242:-4.3815763752486486e-01
2243:-4.1397296216862078e-01
2244:-4.6465009846699795e-01
2245:-4.4946557922338226e-01
2246:-4.2557764164517520e-01
2247:-4.0441986513234013e-01
2248:-4.3951147038346472e-01
2249:-4.2785394057519466e-01
2250:-4.0859921334563271e-01
2251:-3.9097697727153125e-01
2252:-4.2044272356698392e-01
2253:-4.1120495525256789e-01
2254:-3.9513525884318507e-01
2255:-3.7995374943556309e-01
2256:-4.0022819011996891e-01
2257:-3.7387542406035795e-01
2258:-3.3877861584427599e-01
2259:-3.1150526629057324e-01
2260:-3.9226597080440156e-01
2261:-3.6876544055956734e-01
2262:-3.3708288678763310e-01
2263:-3.1216363942355740e-01
2264:-3.8068497766005538e-01
2265:-3.6053843451636575e-01
2266:-3.3291949309594648e-01
2267:-3.1085690749939771e-01
2268:-3.7095202151156847e-01
2269:-3.5313598656527884e-01
2270:-3.2836511151438208e-01
2271:-3.0833689004476234e-01
2272:-2.9692526410579828e-01
2273:-2.7013763180116296e-01
2274:-2.3646002727919299e-01
2275:-2.1164519956128880e-01
2276:-2.9873500579045703e-01
2277:-2.7388215732865340e-01
2278:-2.4231187305127161e-01
2279:-2.1882211279709590e-01
2280:-2.9885082201922664e-01
2281:-2.7642971325391386e-01
2282:-2.4757889275398590e-01
2283:-2.2584734939504136e-01
2284:-2.9735985080116961e-01
2285:-2.7672828904688895e-01
2286:-2.4993030417872264e-01
2287:-2.2955910169267318e-01
2288:-1.9879694837839859e-01
2289:-1.7567165053115055e-01
2290:-1.4745674564324796e-01
2291:-1.2730258600656064e-01
2292:-2.0658687046925650e-01
2293:-1.8445954818634405e-01
2294:-1.5725711127555472e-01
2295:-1.3766253147232277e-01
2296:-2.1444027048737491e-01
2297:-1.9367701908229404e-01
2298:-1.6789594124356977e-01
2299:-1.4912769726165137e-01
2300:-2.1880229274276730e-01
2301:-1.9912095479314346e-01
2302:-1.7449334651013712e-01
2303:-1.5642358920848529e-01
2304:-1.1707949172743636e-01
2305:-9.8927829872370074e-02
2306:-7.7223266314117092e-02
2307:-6.2047423454408460e-02
2308:-1.2766396028874447e-01
2309:-1.0982397283733453e-01
2310:-8.8331936609171671e-02
2311:-7.3184650296479026e-02
2312:-1.3948124765860678e-01
2313:-1.2216910848667800e-01
2314:-1.0112643203387095e-01
2315:-8.6154425929131903e-02
2316:-1.4708816320384921e-01
2317:-1.3026515128917021e-01
2318:-1.0968684376926942e-01
2319:-9.4945021688933900e-02
2320:-5.4459988257720020e-02
2321:-4.1128395877957601e-02
2322:-2.5451668099775455e-02
2323:-1.4699282299890900e-02
2324:-6.5570327143933044e-02
2325:-5.2134566786561656e-02
2326:-3.6226995137093064e-02
2327:-2.5230433540430332e-02
2328:-7.8579095086338022e-02
2329:-6.5141339914226201e-02
2330:-4.9097026647606568e-02
2331:-3.7900753065041523e-02
2332:-8.7450842667010420e-02
2333:-7.4104872489708082e-02
2334:-5.8071894051149320e-02
2335:-4.6807810537586744e-02
2336:-9.3984530797058489e-03
2337:-1.9157814646100104e-04
2338:1.0423652713446160e-02
2339:1.7529947255209549e-02
2340:-1.9778222279278505e-02
2341:-1.0265660119251188e-02
2342:7.8418718534976168e-04
2343:8.2480898971099940e-03
2344:-3.2311979105679553e-02
2345:-2.2509428732667654e-02
2346:-1.1023707514912039e-02
2347:-3.1856846456517853e-03
2348:-4.1158543257722752e-02
2349:-3.1212787111604298e-02
2350:-1.9488458350119749e-02
2351:-1.1431148736911666e-02
2352:2.0966748629529033e-02
2353:2.6817639975656820e-02
2354:3.3318974338682965e-02
2355:3.7463018669246027e-02
2356:1.1882754765705789e-02
2357:1.8108518171409346e-02
2358:2.5102566530714836e-02
2359:2.9625640984054503e-02
2360:6.6068537064371217e-04
2361:7.2940067571932547e-03
2362:1.4835525350351420e-02
2363:1.9788371875251676e-02
2364:-7.4564775976701317e-03
2365:-5.7057220681536636e-04
2366:7.3202499918475746e-03
2367:1.2554446419159180e-02
2368:3.9384557083163095e-02
2369:4.2493547332513454e-02
2370:4.5600649575888962e-02
2371:4.7271462195490020e-02
2372:3.1748982515741084e-02
2373:3.5231444716471778e-02
2374:3.8815468503442668e-02
2375:4.0844647015531747e-02
2376:2.2143439671671629e-02
2377:2.6059382682011203e-02
2378:3.0205411284807099e-02
2379:3.2662915435291151e-02
2380:1.5063569418780487e-02
2381:1.9271393263229877e-02
2382:2.3802471132047739e-02
2383:2.6558045728322349e-02
2384:4.7915943498737117e-02
2385:4.8685205560857446e-02
2386:4.8838132782401053e-02
2387:4.8311719119135746e-02
2388:4.1677779212009818e-02
2389:4.2796784402165423e-02
2390:4.3398559753430717e-02
2391:4.3211290394236691e-02
2392:3.3723490712424427e-02
2393:3.5267164313979193e-02
2394:3.6419824251765230e-02
2395:3.6653395955772911e-02
2396:2.7778370131254206e-02
2397:2.9622650531537030e-02
2398:3.1169818280033332e-02
2399:3.1708298636773692e-02
2400:4.7805585846573351e-02
2401:4.6434634387315446e-02
2402:4.3821401961874486e-02
2403:4.1188080333621903e-02
2404:4.2884617318752094e-02
2405:4.1852230723649048e-02
2406:3.9687285533372231e-02
2407:3.7404635153852464e-02
2408:3.6551066441767921e-02
2409:3.5944905927074826e-02
2410:3.4349771901955345e-02
2411:3.2516630735996394e-02
2412:3.1769759263227122e-02
2413:3.1476886102329932e-02
2414:3.0304345722560612e-02
2415:2.8807136772397064e-02
2416:3.9561121522727248e-02
2417:3.6076529013265426e-02
2418:3.0678040981519716e-02
2419:2.5884595384363999e-02
2420:3.5968138978503504e-02
2421:3.2856905462993753e-02
2422:2.7981543585066798e-02
2423:2.3619359989258109e-02
2424:3.1325449931837564e-02
2425:2.8696532734251670e-02
2426:2.4499396666077852e-02
2427:2.0697958863378350e-02
2428:2.7800067287770867e-02
2429:2.5534096910690838e-02
2430:2.1848984859205719e-02
2431:1.8471987774652955e-02
2432:2.3095911628335561e-02
2433:1.7404727062646973e-02
2434:9.0722336693969483e-03
2435:1.9863485789989930e-03
2436:2.1072807413425713e-02
2437:1.5873930264641813e-02
2438:8.2657742885634908e-03
2439:1.8022852445770073e-03
2440:1.8466688590169356e-02
2441:1.3908750117365601e-02
2442:7.2428072050378907e-03
2443:1.5879648571823827e-03
2444:1.6479665172257862e-02
2445:1.2407255540753304e-02
2446:6.4541975109510376e-03
2447:1.4103146638867027e-03
2448:-1.0550379641323639e-02
2449:-6.1096658199906034e-02
2450:-1.2508586701782584e-01
2451:-1.7183584103711186e-01
2452:-1.0164286694766309e-02
2453:-6.0904301810505108e-02
2454:-1.2173384564144489e-01
2455:-1.6474260787430864e-01
2456:-1.0989180786117535e-02
2457:-5.7857220671698559e-02
2458:-1.1319702895226352e-01
2459:-1.5221879297233659e-01
2460:-1.1242239922052123e-02
2461:-5.2808664895169541e-02
2462:-1.0342238379735769e-01
2463:-1.4005782338901299e-01
2464:-1.9567672128546101e-01
2465:-2.3777333915554880e-01
2466:-2.8707789939357753e-01
2467:-3.2023474526662876e-01
2468:-1.8651131592972423e-01
2469:-2.2489888315883483e-01
2470:-2.6988488755634410e-01
2471:-3.0027992442674606e-01
2472:-1.7208683181798051e-01
2473:-2.0710021303991127e-01
2474:-2.4810949052594919e-01
2475:-2.7589560401498631e-01
2476:-1.5894309347025537e-01
2477:-1.9227292058001377e-01
2478:-2.3136649010715848e-01
2479:-2.5792344906389392e-01
2480:-3.3613142213416275e-01
2481:-3.6198931840885196e-01
2482:-3.8791883771329683e-01
2483:-4.0190576452348686e-01
2484:-3.1494945035863103e-01
2485:-3.3908976365127874e-01
2486:-3.6390767942388053e-01
2487:-3.7787225514421735e-01
2488:-2.8937404773748188e-01
2489:-3.1184445178350495e-01
2490:-3.3558568661102700e-01
2491:-3.4953088385991776e-01
2492:-2.7084432169451900e-01
2493:-2.9255033181930490e-01
2494:-3.1584163469488641e-01
2495:-3.2983793875027723e-01
2496:-4.0731962696010066e-01
2497:-4.1403269748215737e-01
2498:-4.1635972300154234e-01
2499:-4.1345340234257860e-01
2500:-3.8355187601712804e-01
2501:-3.9115422028899199e-01
2502:-3.9526884553301805e-01
2503:-3.9410626320754644e-01
2504:-3.5546828451803153e-01
2505:-3.6392970547200404e-01
2506:-3.6980384949273015e-01
2507:-3.7041041424164250e-01
2508:-3.3593280078982080e-01
2509:-3.4487489766366380e-01
2510:-3.5172991164817485e-01
2511:-3.5336089349241234e-01
2512:-4.1034827086559023e-01
2513:-4.0230502735959550e-01
2514:-3.8781475988335579e-01
2515:-3.7385091388545127e-01
2516:-3.9202576068141676e-01
2517:-3.8596941530412182e-01
2518:-3.7415996486094877e-01
2519:-3.6230124769386235e-01
2520:-3.6939613312270214e-01
2521:-3.6546314810680225e-01
2522:-3.5661842999875160e-01
2523:-3.4715580166081861e-01
2524:-3.5298630975959350e-01
2525:-3.5036649228793532e-01
2526:-3.4342076168558661e-01
2527:-3.3553470894499232e-01
2528:-3.6549574311477179e-01
2529:-3.4884824277023979e-01
2530:-3.2551011462739593e-01
2531:-3.0651321244648988e-01
2532:-3.5507601673037958e-01
2533:-3.4047974156157057e-01
2534:-3.1966972581217340e-01
2535:-3.0250074649362257e-01
2536:-3.4123773431552157e-01
2537:-3.2903704051872906e-01
2538:-3.1121455018247629e-01
2539:-2.9622656508069795e-01
2540:-3.3048935042950162e-01
2541:-3.1990914829588024e-01
2542:-3.0414320723498256e-01
2543:-2.9067880834857229e-01
2544:-2.9606214657485169e-01
2545:-2.7635520203378139e-01
2546:-2.5063464578813521e-01
2547:-2.3098785251306800e-01
2548:-2.9298438973881846e-01
2549:-2.7492797158086257e-01
2550:-2.5114716417890726e-01
2551:-2.3281899688546392e-01
2552:-2.8783113116724179e-01
2553:-2.7176558466413281e-01
2554:-2.5035147850846473e-01
2555:-2.3365752500112108e-01
2556:-2.8307263114229303e-01
2557:-2.6841708432705430e-01
2558:-2.4869771866250107e-01
2559:-2.3319158229955123e-01
2560:-2.2058024565367143e-01
2561:-2.0148359486305670e-01
2562:-1.7748810183677632e-01
2563:-1.5981011001965664e-01
2564:-2.2305285199788469e-01
2565:-2.0503970574162009e-01
2566:-1.8223360024049104e-01
2567:-1.6530702973255251e-01
2568:-2.2469704366378204e-01
2569:-2.0806288624343403e-01
2570:-1.8680381064241225e-01
2571:-1.7087955796830556e-01
2572:-2.2482411758998086e-01
2573:-2.0921803328114569e-01
2574:-1.8913572454376551e-01
2575:-1.7399067230163054e-01
2576:-1.5065320824580500e-01
2577:-1.3411724247126297e-01
2578:-1.1382390709482915e-01
2579:-9.9234737305708004e-02
2580:-1.5649778539069664e-01
2581:-1.4052742081963598e-01
2582:-1.2080943475180878e-01
2583:-1.0654190698006995e-01
2584:-1.6254271534681830e-01
2585:-1.4735205183136929e-01
2586:-1.2845095491413377e-01
2587:-1.1466308738780574e-01
2588:-1.6602665901791955e-01
2589:-1.5145913006602169e-01
2590:-1.3322752574643418e-01
2591:-1.1984846177626027e-01
2592:-9.1799859046482468e-02
2593:-7.8532354088460127e-02
2594:-6.2542901105965568e-02
2595:-5.1270732623124773e-02
2596:-9.9238438604349860e-02
2597:-8.6157694686955777e-02
2598:-7.0304088834879389e-02
2599:-5.9059661098907180e-02
2600:-1.0756629254385047e-01
2601:-9.4799146975256945e-02
2602:-7.9219620654227288e-02
2603:-6.8088530852654219e-02
2604:-1.1293475284342959e-01
2605:-1.0045710443201158e-01
2606:-8.5155705002830970e-02
2607:-7.4165620399734594e-02
2608:-4.5603935023425357e-02
2609:-3.5608263679889639e-02
2610:-2.3788772537132956e-02
2611:-1.5637299638870915e-02
2612:-5.3383061343896948e-02
2613:-4.3335802210682180e-02
2614:-3.1389836862484491e-02
2615:-2.3099433753061657e-02
2616:-6.2440743073192452e-02
2617:-5.2402439273154355e-02
2618:-4.0386868848003576e-02
2619:-3.1985134226402291e-02
2620:-6.8569078935671851e-02
2621:-5.8591433964643697e-02
2622:-4.6590565943366399e-02
2623:-3.8153979843346959e-02
2624:-1.1605715806723043e-02
2625:-4.6054576098446317e-03
2626:3.4475374857660260e-03
2627:8.8151453491079577e-03
2628:-1.8980397003362872e-02
2629:-1.1800191192596328e-02
2630:-3.4848169973700927e-03
2631:2.1034379124390905e-03
2632:-2.7788079207872816e-02
2633:-2.0437926485599438e-02
2634:-1.1859137773958037e-02
2635:-6.0392314299986607e-03
2636:-3.3923378621679219e-02
2637:-2.6490271679473827e-02
2638:-1.7767388810781853e-02
2639:-1.1811305187589459e-02
2640:1.1398212835169397e-02
2641:1.5747513042194697e-02
2642:2.0467662493932864e-02
2643:2.3371262087396490e-02
2644:4.8102930594573455e-03
2645:9.3986808906591553e-03
2646:1.4442489114408669e-02
2647:1.7602480245220355e-02
2648:-3.1993429844727112e-03
2649:1.6505288649123044e-03
2650:7.0566304828446067e-03
2651:1.0509608853858557e-02
2652:-8.8904761102371263e-03
2653:-3.8775882894743858e-03
2654:1.7614257868308102e-03
2655:5.4077154094819358e-03
2656:2.4671443818334589e-02
2657:2.6666853316134959e-02
2658:2.8414025198754890e-02
2659:2.9108356246307858e-02
2660:1.9041986712387521e-02
2661:2.1302766720306530e-02
2662:2.3404302773567476e-02
2663:2.4377059969045524e-02
2664:1.2110323696258281e-02
2665:1.4681486920023926e-02
2666:1.7203626347128045e-02
2667:1.8511205263718505e-02
2668:7.1164091399548964e-03
2669:9.8980989857028294e-03
2670:1.2710287279298151e-02
2671:1.4252071898231699e-02
2672:2.9253976768764057e-02
2673:2.9122774128415130e-02
2674:2.8169535036903719e-02
2675:2.6847476725183290e-02
2676:2.4673786070873012e-02
2677:2.4834005750717161e-02
2678:2.4278185578475595e-02
2679:2.3275048570830969e-02
2680:1.8991053100935823e-02
2681:1.9506594862851948e-02
2682:1.9439306361712941e-02
2683:1.8831056326133432e-02
2684:1.4861066832377480e-02
2685:1.5628817568494487e-02
2686:1.5911260436099663e-02
2687:1.5587816812037966e-02
2688:2.5936648621431090e-02
2689:2.3860718141880892e-02
2690:2.0444244176924489e-02
2691:1.7290294459530859e-02
2692:2.2539950464700063e-02
2693:2.0811691355954783e-02
2694:1.7887764281120423e-02
2695:1.5143414877315848e-02
2696:1.8314466859432586e-02
2697:1.7019689248020421e-02
2698:1.4711706869550253e-02
2699:1.2480620167349740e-02
2700:1.5229496367961682e-02
2701:1.4249456734892764e-02
2702:1.2389821599702930e-02
2703:1.0532950024905971e-02
2704:1.5423636638845585e-02
2705:1.1606442985916976e-02
2706:6.0277233494142549e-03
2707:1.3043072355306380e-03
2708:1.3507671357674037e-02
2709:1.0159158095754820e-02
2710:5.2671066187164909e-03
2711:1.1308876377315704e-03
2712:1.1134446878811774e-02
2713:8.3730425143774233e-03
2714:4.3396025307535467e-03
2715:9.3632483104313610e-04
2716:9.3980063496197919e-03
2717:7.0643344332368034e-03
2718:3.6551398421998554e-03
2719:7.8370629586141350e-04
2720:-1.0872575168431606e-02
2721:-4.9156706466694802e-02
2722:-9.7263513329276352e-02
2723:-1.3283549173732476e-01
2724:-9.8729479518411250e-03
2725:-4.3405428136851033e-02
2726:-8.7545649993582608e-02
2727:-1.2108651259675877e-01
2728:-8.5343143901410387e-03
2729:-3.8585395909842363e-02
2730:-7.8848038470119994e-02
2731:-1.0963638200475201e-01
2732:-7.8341375805085454e-03
2733:-3.6852047603524986e-02
2734:-7.4878545643397618e-02
2735:-1.0353016133381161e-01
2736:-1.5130366705577836e-01
2737:-1.8395450424804474e-01
2738:-2.2234294218437264e-01
2739:-2.4849048968990511e-01
2740:-1.3862496004386099e-01
2741:-1.6976059947121647e-01
2742:-2.0662271464645274e-01
2743:-2.3192853992227835e-01
2744:-1.2571969453592793e-01
2745:-1.5445112494960189e-01
2746:-1.8886931712659355e-01
2747:-2.1281162856453084e-01
2748:-1.1841829377696879e-01
2749:-1.4514036490443583e-01
2750:-1.7743701706977538e-01
2751:-2.0012094347874476e-01
2752:-2.6123848786841153e-01
2753:-2.8272112955503087e-01
2754:-3.0591201310057087e-01
2755:-3.1996754787955223e-01
2756:-2.4433769278681983e-01
2757:-2.6535878330199641e-01
2758:-2.8827127812079656e-01
2759:-3.0234998299582860e-01
2760:-2.2466327746615708e-01
2761:-2.4486026981135670e-01
2762:-2.6711459963247741e-01
2763:-2.8100868340634344e-01
2764:-2.1142455081426487e-01
2765:-2.3076754781989689e-01
2766:-2.5225159359376936e-01
2767:-2.6583082224592486e-01
2768:-3.2613817832029784e-01
2769:-3.3528887130436724e-01
2770:-3.4256208614971434e-01
2771:-3.4464321724054903e-01
2772:-3.0861235344858379e-01
2773:-3.1806922217711275e-01
2774:-3.2602576236472597e-01
2775:-3.2887040346127810e-01
2776:-2.8728578318574077e-01
2777:-2.9697696423959058e-01
2778:-3.0564206748351219e-01
2779:-3.0933722046970741e-01
2780:-2.7204107787961168e-01
2781:-2.8178862316641001e-01
2782:-2.9085611913945625e-01
2783:-2.9508747741590874e-01
2784:-3.4455799231330192e-01
2785:-3.4254371076292645e-01
2786:-3.3649128643173676e-01
2787:-3.2935728948627208e-01
2788:-3.2928024035667530e-01
2789:-3.2829943022934061e-01
2790:-3.2376681286249498e-01
2791:-3.1791015299964770e-01
2792:-3.1030456345533797e-01
2793:-3.1048470346093893e-01
2794:-3.0765668754407050e-01
2795:-3.0323442148372748e-01
2796:-2.9641135382729500e-01
2797:-2.9733851307928383e-01
2798:-2.9561925578864140e-01
2799:-2.9214145039555722e-01
2800:-3.2473134879823784e-01
2801:-3.1493860154743547e-01
2802:-3.0018747635966248e-01
2803:-2.8748481440460444e-01
2804:-3.1399674178898107e-01
2805:-3.0555179585688824e-01
2806:-2.9255860091623132e-01
2807:-2.8119118853417752e-01
2808:-3.0012337445786602e-01
2809:-2.9321139718143563e-01
2810:-2.8224913290603870e-01
2811:-2.7244826959706253e-01
2812:-2.8956341870938701e-01
2813:-2.8367855452091550e-01
2814:-2.7409372514326613e-01
2815:-2.6536790461670412e-01
2816:-2.8027606810904848e-01
2817:-2.6633326090734477e-01
2818:-2.4747642456993726e-01
2819:-2.3258033954572557e-01
2820:-2.7468438257439826e-01
2821:-2.6200560057057887e-01
2822:-2.4468749232105141e-01
2823:-2.3088661715125677e-01
2824:-2.6677325601478158e-01
2825:-2.5560265121835196e-01
2826:-2.4013883287380491e-01
2827:-2.2767125123485013e-01
2828:-2.6026814966929607e-01
2829:-2.5014878233430687e-01
2830:-2.3599269525692770e-01
2831:-2.2447649132744665e-01
2832:-2.2451975590154219e-01
2833:-2.0944989655622209e-01
2834:-1.8998880809242333e-01
2835:-1.7526027043464470e-01
2836:-2.2337941039018316e-01
2837:-2.0928068273260050e-01
2838:-1.9095315445103642e-01
2839:-1.7699174602658244e-01
2840:-2.2084229759864255e-01
2841:-2.0794114698393634e-01
2842:-1.9102653605078718e-01
2843:-1.7803419200170986e-01
2844:-2.1813520860309318e-01
2845:-2.0610057434627688e-01
2846:-1.9021934379160449e-01
2847:-1.7794512193782921e-01
2848:-1.6749723112093445e-01
2849:-1.5326818062842998e-01
2850:-1.3540573647331583e-01
2851:-1.2225712377355188e-01
2852:-1.6960162112972252e-01
2853:-1.5600541465051809e-01
2854:-1.3884263084944559e-01
2855:-1.2613859932500721e-01
2856:-1.7112024058509231e-01
2857:-1.5834096127669381e-01
2858:-1.4209845298711651e-01
2859:-1.2999286360702400e-01
2860:-1.7138769498839329e-01
2861:-1.5922637242935189e-01
2862:-1.4369192484807863e-01
2863:-1.3205602155195245e-01
2864:-1.1544875031061524e-01
2865:-1.0314092530286315e-01
2866:-8.8009358298451384e-02
2867:-7.7111656345471680e-02
2868:-1.1953643922456041e-01
2869:-1.0756525968335277e-01
2870:-9.2779002272972311e-02
2871:-8.2077270091963556e-02
2872:-1.2367338202685600e-01
2873:-1.1217097985490171e-01
2874:-9.7880663455485156e-02
2875:-8.7474335063949804e-02
2876:-1.2596174959085621e-01
2877:-1.1483789996344167e-01
2878:-1.0095853279908296e-01
2879:-9.0806365617938284e-02
2880:-7.1551729816953291e-02
2881:-6.1623729886165796e-02
2882:-4.9652927144127119e-02
2883:-4.1214498921552885e-02
2884:-7.6598796939408714e-02
2885:-6.6788646374780672e-02
2886:-5.4907616287191319e-02
2887:-4.6491909359658773e-02
2888:-8.2124883670848595e-02
2889:-7.2512914875507387e-02
2890:-6.0809544755163085e-02
2891:-5.2471293753227115e-02
2892:-8.5571915817204788e-02
2893:-7.6143430129733999e-02
2894:-6.4619414651403070e-02
2895:-5.6374717869162816e-02
2896:-3.6974800498007554e-02
2897:-2.9513368585408411e-02
2898:-2.0733207118693472e-02
2899:-1.4718599009506473e-02
2900:-4.2249192604784880e-02
2901:-3.4760444036326402e-02
2902:-2.5905256797495113e-02
2903:-1.9804686603601157e-02
2904:-4.8250392328727611e-02
2905:-4.0773612425310544e-02
2906:-3.1880872444062069e-02
2907:-2.5712886340487809e-02
2908:-5.2188977580105052e-02
2909:-4.4755636086905720e-02
2910:-3.5877906308144240e-02
2911:-2.9691008362231115e-02
2912:-1.1761802265552885e-02
2913:-6.6748466981662513e-03
2914:-9.2715604658551837e-04
2915:2.8112728805065003e-03
2916:-1.6792726226386456e-02
2917:-1.1589072779485855e-02
2918:-5.6648587973844962e-03
2919:-1.7732627750313228e-03
2920:-2.2652205301211405e-02
2921:-1.7338503082539640e-02
2922:-1.1236210753351643e-02
2923:-7.1826517731729969e-03
2924:-2.6610109965976066e-02
2925:-2.1243266590208122e-02
2926:-1.5043333773903640e-02
2927:-1.0893993797864477e-02
2928:4.5720482765300432e-03
2929:7.4562584427442097e-03
2930:1.0411436314535458e-02
2931:1.2069873245054361e-02
2932:7.5174224269111619e-05
2933:3.1336344504957745e-03
2934:6.3349279955340230e-03
2935:8.1963179363980111e-03
2936:-5.2392716157682734e-03
2937:-1.9886314348819003e-03
2938:1.4903502931303404e-03
2939:3.5850893037086707e-03
2940:-8.8924599273742470e-03
2941:-5.5211034513494867e-03
2942:-1.8623660514009242e-03
2943:3.8705841211345428e-04
2944:1.2743567870015687e-02
2945:1.3638246341574607e-02
2946:1.4097748688426783e-02
2947:1.3919235268459932e-02
2948:8.9832801953077992e-03
2949:1.0101258672395049e-02
2950:1.0874197209269703e-02
2951:1.0953562365920544e-02
2952:4.5036829909051602e-03
2953:5.8832903501108156e-03
2954:7.0271989251020446e-03
2955:7.4142809969044432e-03
2956:1.3940507256755981e-03
2957:2.9510335878891862e-03
2958:4.3493464389518814e-03
2959:4.9493683791147162e-03
2960:1.3641685265334389e-02
2961:1.2822496698427870e-02
2962:1.1192314704902898e-02
2963:9.5271181864543357e-03
2964:1.0820126060682458e-02
2965:1.0288274825803608e-02
2966:9.0684393491126461e-03
2967:7.7462611228694715e-03
2968:7.4535509386637229e-03
2969:7.2666295153704366e-03
2970:6.5401377480028312e-03
2971:5.6307081381514069e-03
2972:5.1087072474959062e-03
2973:5.1619783572569812e-03
2974:4.7794819553226044e-03
2975:4.1580297538457104e-03
2976:8.5003881886285392e-03
2977:6.3856321720005098e-03
2978:3.2954373514657198e-03
2979:6.9539513790385795e-04
2980:6.9132140275890248e-03
2981:5.1898700000174410e-03
2982:2.6690642448256780e-03
2983:5.5264242180358804e-04
2984:5.0307314535188276e-03
2985:3.7774929589023541e-03
2986:1.9384458221684186e-03
2987:3.9938480356906873e-04
2988:3.7206445366100684e-03
2989:2.7945343514081617e-03
2990:1.4280271445092140e-03
2991:2.8765513634229249e-04
2992:-7.6570092851710727e-03
2993:-3.6508467774897434e-02
2994:-7.3510012360069335e-02
2995:-1.0104188515552091e-01
2996:-7.3201459373991888e-03
2997:-3.5427347718837342e-02
2998:-7.0477216937504736e-02
2999:-9.6169041507661854e-02
3000:-6.7699534029291705e-03
3001:-3.3012558008348014e-02
3002:-6.5450600280522603e-02
3003:-8.9201799177566876e-02
3004:-6.2542088825534112e-03
3005:-3.0545420203119678e-02
3006:-6.0978086828520919e-02
3007:-8.3503418150935968e-02
3008:-1.1530571708551406e-01
3009:-1.4096202269371455e-01
3010:-1.7208764517005473e-01
3011:-1.9403468335102456e-01
3012:-1.0945483680340914e-01
3013:-1.3341123487115231e-01
3014:-1.6258904764635945e-01
3015:-1.8324574953245232e-01
3016:-1.0152870795829284e-01
3017:-1.2376830220188452e-01
3018:-1.5086333964564050e-01
3019:-1.7005927506171822e-01
3020:-9.5250852496498381e-02
3021:-1.1642607836226929e-01
3022:-1.4218744626502045e-01
3023:-1.6043098606060130e-01
3024:-2.0499991353915967e-01
3025:-2.2380404977544319e-01
3026:-2.4478303270338664e-01
3027:-2.5813669106670029e-01
3028:-1.9359579334784743e-01
3029:-2.1141829505752560e-01
3030:-2.3147534970039968e-01
3031:-2.4440889173366953e-01
3032:-1.7968862825755344e-01
3033:-1.9636258759294875e-01
3034:-2.1533865005013292e-01
3035:-2.2776240968668596e-01
3036:-1.6958942672873817e-01
3037:-1.8551604603150845e-01
3038:-2.0378300056148257e-01
3039:-2.1585368593752832e-01
3040:-2.6428651761467303e-01
3041:-2.7402350935179925e-01
3042:-2.8325550074114575e-01
3043:-2.8772961273113434e-01
3044:-2.5043855720991998e-01
3045:-2.6011856035679842e-01
3046:-2.6957006010402562e-01
3047:-2.7440857729427753e-01
3048:-2.3363104285174038e-01
3049:-2.4317766107519584e-01
3050:-2.5276024765960847e-01
3051:-2.5791605114565813e-01
3052:-2.2159649171293194e-01
3053:-2.3100131505209751e-01
3054:-2.4058295013346381e-01
3055:-2.4588203456327382e-01
3056:-2.8921715611729670e-01
3057:-2.9049178079555366e-01
3058:-2.8929811176194919e-01
3059:-2.8627585968122210e-01
3060:-2.7614981360773327e-01
3061:-2.7798108377688258e-01
3062:-2.7766039087566841e-01
3063:-2.7541378390099069e-01
3064:-2.5989721167606683e-01
3065:-2.6228968673354469e-01
3066:-2.6290422206958025e-01
3067:-2.6151970404426161e-01
3068:-2.4799091313119728e-01
3069:-2.5070792697916161e-01
3070:-2.5189938954349211e-01
3071:-2.5106478322550263e-01
3072:-2.8395762612053504e-01
3073:-2.7857536588108373e-01
3074:-2.6966774850834918e-01
3075:-2.6147289609496172e-01
3076:-2.7354301593415470e-01
3077:-2.6902802531938291e-01
3078:-2.6129105904557470e-01
3079:-2.5401607653845765e-01
3080:-2.6015416794762874e-01
3081:-2.5662332165845519e-01
3082:-2.5022360455327219e-01
3083:-2.4400706156181812e-01
3084:-2.5002579623490867e-01
3085:-2.4713706068554456e-01
3086:-2.4162215592797504e-01
3087:-2.3611601478729075e-01
3088:-2.5665820290946140e-01
3089:-2.4706277138048333e-01
3090:-2.3356426535695571e-01
3091:-2.2253063548588997e-01
3092:-2.4969624790643258e-01
3093:-2.4101522193693586e-01
3094:-2.2867404382135911e-01
3095:-2.1849683126907646e-01
3096:-2.4025980504854785e-01
3097:-2.3264564445219715e-01
3098:-2.2167173715416591e-01
3099:-2.1251853141656965e-01
3100:-2.3275679875051658e-01
3101:-2.2587212016574099e-01
3102:-2.1584465443684805e-01
3103:-2.0740832108668006e-01
3104:-2.1643809465233038e-01
3105:-2.0484731805065309e-01
3106:-1.8949916292348945e-01
3107:-1.7759851434861032e-01
3108:-2.1284810611984178e-01
3109:-2.0205246020670128e-01
3110:-1.8766527765514668e-01
3111:-1.7644280376029009e-01
3112:-2.0740453960234326e-01
3113:-1.9757307024955528e-01
3114:-1.8436289804241174e-01
3115:-1.7398015899758951e-01
3116:-2.0267131319086007e-01
3117:-1.9352437503157807e-01
3118:-1.8115909751143047e-01
3119:-1.7138623342223488e-01
3120:-1.7122775518738945e-01
3121:-1.5939202656717114e-01
3122:-1.4423446437079548e-01
3123:-1.3285145419048144e-01
3124:-1.7041263949220231e-01
3125:-1.5917380684182159e-01
3126:-1.4471268402802093e-01
3127:-1.3380144607781147e-01
3128:-1.6837498893693137e-01
3129:-1.5788620769834311e-01
3130:-1.4431049577619284e-01
3131:-1.3400734176583806e-01
3132:-1.6609222848596306e-01
3133:-1.5615657751087139e-01
3134:-1.4324151180467837e-01
3135:-1.3339819858299334e-01
3136:-1.2687946943415185e-01
3137:-1.1596283449216403e-01
3138:-1.0231182630683459e-01
3139:-9.2303869490499998e-02
3140:-1.2805927234735609e-01
3141:-1.1753494905806428e-01
3142:-1.0432205228219098e-01
3143:-9.4595568656355447e-02
3144:-1.2856450983909032e-01
3145:-1.1855658478547085e-01
3146:-1.0593095850591516e-01
3147:-9.6590408620628038e-02
3148:-1.2818400387102508e-01
3149:-1.1857439359546522e-01
3150:-1.0640927975119102e-01
3151:-9.7377357538050408e-02
3152:-8.7135886781652641e-02
3153:-7.7815401397380968e-02
3154:-6.6401030242878412e-02
3155:-5.8217382362921247e-02
3156:-8.9559188751080210e-02
3157:-8.0455432817314002e-02
3158:-6.9267082362522811e-02
3159:-6.1214819831707699e-02
3160:-9.1737763212049295e-02
3161:-8.2941741107831896e-02
3162:-7.2084905513029776e-02
3163:-6.4234898513162941e-02
3164:-9.2673875220086285e-02
3165:-8.4131256722454195e-02
3166:-7.3554665625676738e-02
3167:-6.5881969045783514e-02
3168:-5.4056437759299934e-02
3169:-4.6657577440043257e-02
3170:-3.7802482464249131e-02
3171:-3.1616567694027070e-02
3172:-5.7109758086578102e-02
3173:-4.9793530860617267e-02
3174:-4.1004823962277046e-02
3175:-3.4839336933786741e-02
3176:-6.0220026446909956e-02
3177:-5.3044906927513347e-02
3178:-4.4387518931739894e-02
3179:-3.8283612292836645e-02
3180:-6.1948793438400609e-02
3181:-5.4906130901996891e-02
3182:-4.6382157110352755e-02
3183:-4.0351139306641755e-02
3184:-2.8530715707286707e-02
3185:-2.3146207731349764e-02
3186:-1.6907595466416320e-02
3187:-1.2717029683281688e-02
3188:-3.1754125868007639e-02
3189:-2.6354903587273496e-02
3190:-2.0067238692166516e-02
3191:-1.5816896109284183e-02
3192:-3.5217974541416647e-02
3193:-2.9834450338276305e-02
3194:-2.3527589697971377e-02
3195:-1.9232927489171957e-02
3196:-3.7314315279937033e-02
3197:-3.1968632471278312e-02
3198:-2.5680371594310285e-02
3199:-2.1376909750081607e-02
3200:-1.0689589920097822e-02
3201:-7.2631948829948072e-03
3202:-3.5203184867468726e-03
3203:-1.1970470625697659e-03
3204:-1.3750041124822922e-02
3205:-1.0237327249285534e-02
3206:-6.3581380767973924e-03
3207:-3.9124217827530162e-03
3208:-1.7132323653375549e-02
3209:-1.3539691783893103e-02
3210:-9.5244567147405451e-03
3211:-6.9503979601962702e-03
3212:-1.9263698993819463e-02
3213:-1.5634421339942327e-02
3214:-1.1546516330062992e-02
3215:-8.8979532664656587e-03
3216:-1.4741146767655551e-04
3217:1.4957645545081962e-03
3218:3.0187734415815077e-03
3219:3.7238660091753876e-03
3220:-2.7912379620442566e-03
3221:-1.0022724381779401e-03
3222:7.3367522887604945e-04
3223:1.6195409477063282e-03
3224:-5.7524208931561214e-03
3225:-3.8044968220937634e-03
3226:-1.8321151940091293e-03
3227:-7.4271403895378400e-04
3228:-7.6537366265608600e-03
3229:-5.6078547440417837e-03
3230:-3.4859796093154238e-03
3231:-2.2654278023843677e-03
3232:3.9426505440051385e-03
3233:4.1149654635441622e-03
3234:3.9030883327861965e-03
3235:3.4245072630500677e-03
3236:1.9409971197895232e-03
3237:2.3191669246273488e-03
3238:2.4025658109542115e-03
3239:2.1712799538280959e-03
3240:-3.0483733100355944e-04
3241:3.0723058028798614e-04
3242:7.2652999385683912e-04
3243:7.7657591401903195e-04
3244:-1.7518300370727047e-03
3245:-9.8726393776121238e-04
3246:-3.4870723453246958e-04
3247:-1.1507875583836180e-04
3248:3.0677668637877644e-03
3249:2.3035687033454454e-03
3250:1.1701734102298330e-03
3251:2.2586953589409582e-04
3252:1.9540709167082076e-03
3253:1.4692644179032722e-03
3254:7.3642344189042556e-04
3255:1.2765750802930866e-04
3256:7.1795362691729511e-04
3257:5.4897102959961105e-04
3258:2.6502955929608916e-04
3259:2.9189304871861664e-05
3260:-7.0372312917653116e-05
3261:-3.5212358509030725e-05
3262:-3.2665988757376857e-05
3263:-3.3443401860445919e-05
3264:-5.9549003977239761e-03
3265:-2.9096794657316925e-02
3266:-5.8478325741179261e-02
3267:-8.0407896797243097e-02
3268:-5.5345123066644812e-03
3269:-2.6815318501695631e-02
3270:-5.4349745382189112e-02
3271:-7.5119000271837863e-02
3272:-5.2097980380769945e-03
3273:-2.4659850812907929e-02
3274:-5.0027846319345329e-02
3275:-6.9221996888249204e-02
3276:-5.0451831745780551e-03
3277:-2.3475601797293955e-02
3278:-4.7351445103087975e-02
3279:-6.5337691426004346e-02
3280:-9.1870607423158085e-02
3281:-1.1252085541854817e-01
3282:-1.3763106752949933e-01
3283:-1.5542078815835300e-01
3284:-8.5997912052854592e-02
3285:-1.0559905901169826e-01
3286:-1.2946397154205491e-01
3287:-1.4642034444154794e-01
3288:-7.9271942431503886e-02
3289:-9.7421422533181840e-02
3290:-1.1962922710566390e-01
3291:-1.3550845463003247e-01
3292:-7.4743788677918407e-02
3293:-9.1779859976100803e-02
3294:-1.1272832213732004e-01
3295:-1.2778146815087793e-01
3296:-1.6436032071524920e-01
3297:-1.7994060307797094e-01
3298:-1.9787423524140721e-01
3299:-2.0976950074170886e-01
3300:-1.5496689428178942e-01
3301:-1.6991308865090157e-01
3302:-1.8720810948673133e-01
3303:-1.9874492598590127e-01
3304:-1.4355119422465859e-01
3305:-1.5765754880656835e-01
3306:-1.7405598953477738e-01
3307:-1.8505639593911755e-01
3308:-1.3542936682146367e-01
3309:-1.4885849139633284e-01
3310:-1.6450558139156277e-01
3311:-1.7504219676292274e-01
3312:-2.1544365909642296e-01
3313:-2.2475994200101440e-01
3314:-2.3431111519017570e-01
3315:-2.3965855070253253e-01
3316:-2.0427045579336528e-01
3317:-2.1338680614526190e-01
3318:-2.2284131939225066e-01
3319:-2.2824884557641895e-01
3320:-1.9034960355480132e-01
3321:-1.9914193425710491e-01
3322:-2.0839628834660631e-01
3323:-2.1382155321452798e-01
3324:-1.8013165650685284e-01
3325:-1.8863224544554932e-01
3326:-1.9767714808737713e-01
3327:-2.0306559081905365e-01
3328:-2.4182015223099079e-01
3329:-2.4467961138281025e-01
3330:-2.4613436622517695e-01
3331:-2.4555508608665416e-01
3332:-2.3049149456524612e-01
3333:-2.3357660815881309e-01
3334:-2.3545651563654621e-01
3335:-2.3529440120745820e-01
3336:-2.1613296425726930e-01
3337:-2.1942999599918969e-01
3338:-2.2173572936117622e-01
3339:-2.2200747560597867e-01
3340:-2.0539800565257507e-01
3341:-2.0879128716160938e-01
3342:-2.1132852342207384e-01
3343:-2.1185710321553539e-01
3344:-2.4466868221386986e-01
3345:-2.4208306673386099e-01
3346:-2.3699233826411850e-01
3347:-2.3183179684797037e-01
3348:-2.3465908834974780e-01
3349:-2.3257962527240170e-01
3350:-2.2821069438016447e-01
3351:-2.2364697448870610e-01
3352:-2.2163867682571009e-01
3353:-2.2011022699945815e-01
3354:-2.1655068696366767e-01
3355:-2.1267051600907058e-01
3356:-2.1165233656222593e-01
3357:-2.1047311403094629e-01
3358:-2.0744226917835754e-01
3359:-2.0401734531704832e-01
3360:-2.2866310106813756e-01
3361:-2.2213867061052683e-01
3362:-2.1258208816918445e-01
3363:-2.0450478894244248e-01
3364:-2.2080980011570017e-01
3365:-2.1491425884499840e-01
3366:-2.0618338922135204e-01
3367:-1.9873871326580814e-01
3368:-2.1021692911424389e-01
3369:-2.0505315647622943e-01
3370:-1.9729123665817974e-01
3371:-1.9059580692705830e-01
3372:-2.0182148046077961e-01
3373:-1.9715311808279853e-01
3374:-1.9005506182101592e-01
3375:-1.8387950746063791e-01
3376:-1.9995736356492866e-01
3377:-1.9115640571027356e-01
3378:-1.7922154558699527e-01
3379:-1.6976192497130138e-01
3380:-1.9452653611642831e-01
3381:-1.8634045974575891e-01
3382:-1.7517645953894800e-01
3383:-1.6628219755660031e-01
3384:-1.8678337294347414e-01
3385:-1.7933630008819199e-01
3386:-1.6910971670166824e-01
3387:-1.6091087466404802e-01
3388:-1.8034690939061671e-01
3389:-1.7342156298951950e-01
3390:-1.6386473965537057e-01
3391:-1.5616835955781808e-01
3392:-1.6462862849256132e-01
3393:-1.5498003992606763e-01
3394:-1.4241049315334675e-01
3395:-1.3280976203508901e-01
3396:-1.6144043614316650e-01
3397:-1.5231490510225421e-01
3398:-1.4037937268729622e-01
3399:-1.3122725684177672e-01
3400:-1.5643037586917743e-01
3401:-1.4795747155960542e-01
3402:-1.3682165168706206e-01
3403:-1.2824212828997267e-01
3404:-1.5195074334646264e-01
3405:-1.4395619534093512e-01
3406:-1.3341325160513337e-01
3407:-1.2526338755837862e-01
3408:-1.2771694350088431e-01
3409:-1.1832008493368799e-01
3410:-1.0640343188152485e-01
3411:-9.7539966243328530e-02
3412:-1.2636017522219067e-01
3413:-1.1736116391706333e-01
3414:-1.0591335213784409e-01
3415:-9.7371112222528797e-02
3416:-1.2366560353987666e-01
3417:-1.1518280913186529e-01
3418:-1.0435132112958782e-01
3419:-9.6237652232031873e-02
3420:-1.2090673251284272e-01
3421:-1.1281766045199024e-01
3422:-1.0246216780706428e-01
3423:-9.4684082272269293e-02
3424:-9.2918611087366113e-02
3425:-8.4516680629065671e-02
3426:-7.4098027683982604e-02
3427:-6.6527252523545466e-02
3428:-9.2907607914615026e-02
3429:-8.4778194251848696e-02
3430:-7.4669658305309000e-02
3431:-6.7302473601219978e-02
3432:-9.1987068383899209e-02
3433:-8.4229202095392586e-02
3434:-7.4551262251067646e-02
3435:-6.7473100068835168e-02
3436:-9.0601886216596594e-02
3437:-8.3140710542448718e-02
3438:-7.3812167332170553e-02
3439:-6.6972956178275478e-02
3440:-6.2641834851732303e-02
3441:-5.5677954982367668e-02
3442:-4.7236183325048649e-02
3443:-4.1252754996735051e-02
3444:-6.3513800219860125e-02
3445:-5.6711761308189293e-02
3446:-4.8443536832139145e-02
3447:-4.2564845424068853e-02
3448:-6.3824186661363080e-02
3449:-5.7259976787584620e-02
3450:-4.9255065073588643e-02
3451:-4.3542626109408081e-02
3452:-6.3441243705506925e-02
3453:-5.7079220431284126e-02
3454:-4.9303717724913577e-02
3455:-4.3740894633131404e-02
3456:-3.8236001781435991e-02
3457:-3.2919331351097370e-02
3458:-2.6652467640976441e-02
3459:-2.2353044128594058e-02
3460:-3.9594161082499975e-02
3461:-3.4347857390820240e-02
3462:-2.8142102581295448e-02
3463:-2.3866377356900656e-02
3464:-4.0648200144017738e-02
3465:-3.5524355402705439e-02
3466:-2.9438757184559166e-02
3467:-2.5225110667455787e-02
3468:-4.0917040210689266e-02
3469:-3.5910082039530285e-02
3470:-2.9946990110468474e-02
3471:-2.5804391652433555e-02
3472:-2.0237730303109241e-02
3473:-1.6597516228431659e-02
3474:-1.2481971215244754e-02
3475:-9.8021137643730365e-03
3476:-2.1755704209332021e-02
3477:-1.8111049242249818e-02
3478:-1.3964527806200938e-02
3479:-1.1241862588358563e-02
3480:-2.3137109208137389e-02
3481:-1.9517788723050485e-02
3482:-1.5371293221843109e-02
3483:-1.2623583087608482e-02
3484:-2.3746290006470248e-02
3485:-2.0169840854926058e-02
3486:-1.6053819116087036e-02
3487:-1.3310098714725785e-02
3488:-8.5377150916550407e-03
3489:-6.4480846523688670e-03
3490:-4.2578049928359753e-03
3491:-2.9762063679171146e-03
3492:-9.9480447683568153e-03
3493:-7.7923430712923177e-03
3494:-5.4950403370366101e-03
3495:-4.1156386684347299e-03
3496:-1.1307736504293012e-02
3497:-9.0968033000199296e-03
3498:-6.7010517513795484e-03
3499:-5.2263337084792845e-03
3500:-1.1989670937835791e-02
3501:-9.7596777407220319e-03
3502:-7.3193633825279058e-03
3503:-5.7957720782835743e-03
3504:-2.4270723902290207e-03
3505:-1.5907979380151592e-03
3506:-8.4905891037034885e-04
3507:-5.2907502657647935e-04
3508:-3.5089391445939041e-03
3509:-2.5561733389331347e-03
3510:-1.6465537147549365e-03
3511:-1.1860668321572005e-03
3512:-4.5620865412651975e-03
3513:-3.4920654501767803e-03
3514:-2.4127649578131673e-03
3515:-1.8101829672087966e-03
3516:-5.1005538880945353e-03
3517:-3.9665933501110617e-03
3518:-2.7939898180719411e-03
3519:-2.1131281335363379e-03
3520:-4.3583494422804820e-04
3521:-3.0550403772784207e-04
3522:-1.7100737759973627e-04
3523:-6.4818047619320422e-05
3524:-1.0139787617753524e-03
3525:-7.3049189913693775e-04
3526:-3.8698792480745261e-04
3527:-1.1410095956418849e-04
3528:-1.5585851790340340e-03
3529:-1.1238084974212711e-03
3530:-5.8115863264746178e-04
3531:-1.5555994746676630e-04
3532:-1.8179310767828484e-03
3533:-1.3031687053808184e-03
3534:-6.6231201934933526e-04
3535:-1.6756962176871896e-04
3536:-4.9556986283102742e-03
3537:-2.2943863219370312e-02
3538:-4.6076160115557721e-02
3539:-6.3435322291405027e-02
3540:-4.6851753605557161e-03
3541:-2.1794935984187462e-02
3542:-4.3575209443835750e-02
3543:-5.9843585171518832e-02
3544:-4.2010770537238614e-03
3545:-2.0031271097145781e-02
3546:-4.0098718419512812e-02
3547:-5.5078366986196635e-02
3548:-3.8115589560628682e-03
3549:-1.8565903204215320e-02
3550:-3.7337720643541725e-02
3551:-5.1391652726875896e-02
3552:-7.2509835049956201e-02
3553:-8.8972946900672159e-02
3554:-1.0926582145798823e-01
3555:-1.2387681220128578e-01
3556:-6.8349746058901761e-02
3557:-8.3813585762714166e-02
3558:-1.0292608183945134e-01
3559:-1.1671477688249302e-01
3560:-6.2922723224400567e-02
3561:-7.7191123157025754e-02
3562:-9.4833654984524091e-02
3563:-1.0756565506620704e-01
3564:-5.8760871904322873e-02
3565:-7.2153011922390486e-02
3566:-8.8693923543158346e-02
3567:-1.0062747453892261e-01
3568:-1.3130720241787036e-01
3569:-1.4435815150537584e-01
3570:-1.5958018480424921e-01
3571:-1.6985279524122393e-01
3572:-1.2373311091099790e-01
3573:-1.3607059324104084e-01
3574:-1.5049558812272343e-01
3575:-1.6027300296384145e-01
3576:-1.1404782658083919e-01
3577:-1.2546362585299584e-01
3578:-1.3886490443603883e-01
3579:-1.4800068278941642e-01
3580:-1.0670595431668585e-01
3581:-1.1743158343371125e-01
3582:-1.3006510267964139e-01
3583:-1.3871013303269503e-01
3584:-1.7482636111548766e-01
3585:-1.8315822420943828e-01
3586:-1.9207191618918151e-01
3587:-1.9742157744599967e-01
3588:-1.6502741299560089e-01
3589:-1.7302939299320180e-01
3590:-1.8166180334807872e-01
3591:-1.8690131410786598e-01
3592:-1.5246501134895021e-01
3593:-1.6000957453726317e-01
3594:-1.6820915816634502e-01
3595:-1.7323870242127409e-01
3596:-1.4294595883666261e-01
3597:-1.5011624923378006e-01
3598:-1.5793612298312648e-01
3599:-1.6276075649671684e-01
3600:-1.9975295706786655e-01
3601:-2.0317341945304460e-01
3602:-2.0580208524013996e-01
3603:-2.0644377902062486e-01
3604:-1.8920837362004772e-01
3605:-1.9263965712246017e-01
3606:-1.9539126238909416e-01
3607:-1.9620997281452363e-01
3608:-1.7547580041668684e-01
3609:-1.7885190629667630e-01
3610:-1.8167712136424280e-01
3611:-1.8266070211736174e-01
3612:-1.6492003504889047e-01
3613:-1.6820863363618122e-01
3614:-1.7102982460555746e-01
3615:-1.7209054119531889e-01
3616:-2.0631430170231702e-01
3617:-2.0529868809607377e-01
3618:-2.0252016660131333e-01
3619:-1.9931489513893219e-01
3620:-1.9620332058392201e-01
3621:-1.9545842056870694e-01
3622:-1.9310340850586788e-01
3623:-1.9027103222241581e-01
3624:-1.8277845950034310e-01
3625:-1.8231694690614378e-01
3626:-1.8042069530209967e-01
3627:-1.7800323286207143e-01
3628:-1.7227595314064048e-01
3629:-1.7197872708599979e-01
3630:-1.7036557693724702e-01
3631:-1.6821582177616237e-01
3632:-1.9724397278069805e-01
3633:-1.9281741756679441e-01
3634:-1.8604685890361605e-01
3635:-1.8013054161270231e-01
3636:-1.8841374541556333e-01
3637:-1.8440496688793553e-01
3638:-1.7820813042490125e-01
3639:-1.7275118453251107e-01
3640:-1.7638752254251611e-01
3641:-1.7285974694897771e-01
3642:-1.6733839770536305e-01
3643:-1.6243174604096466e-01
3644:-1.6675983855055918e-01
3645:-1.6355674152176997e-01
3646:-1.5850228101251065e-01
3647:-1.5398258262855447e-01
3648:-1.7673848365435696e-01
3649:-1.7007666482979544e-01
3650:-1.6086078389903932e-01
3651:-1.5342201310940581e-01
3652:-1.6960974679630267e-01
3653:-1.6341998221302734e-01
3654:-1.5481879506365551e-01
3655:-1.4784751019536113e-01
3656:-1.5959328672345363e-01
3657:-1.5397843058845412e-01
3658:-1.4613405559856460e-01
3659:-1.3974466225983415e-01
3660:-1.5135904501537614e-01
3661:-1.4615552555946426e-01
3662:-1.3885955892367180e-01
3663:-1.3289712279433769e-01
3664:-1.4933978086065053e-01
3665:-1.4159283168908829e-01
3666:-1.3135918376268974e-01
3667:-1.2343530079119977e-01
3668:-1.4401206758922222e-01
3669:-1.3671887135296101e-01
3670:-1.2705661017795403e-01
3671:-1.1955353571303862e-01
3672:-1.3621870568156938e-01
3673:-1.2949917754963472e-01
3674:-1.2056794890816096e-01
3675:-1.1360946984400749e-01
3676:-1.2960014192532998e-01
3677:-1.2330851426000862e-01
3678:-1.1492888226599333e-01
3679:-1.0838578128377888e-01
3680:-1.1919493142404068e-01
3681:-1.1131516267210224e-01
3682:-1.0121473990417081e-01
3683:-9.3618034908337422e-02
3684:-1.1553084137680009e-01
3685:-1.0804476220719615e-01
3686:-9.8427735726442089e-02
3687:-9.1177557648916829e-02
3688:-1.0987057372104177e-01
3689:-1.0290141834265805e-01
3690:-9.3926078173341476e-02
3691:-8.7141224531884567e-02
3692:-1.0486482843237578e-01
3693:-9.8295375239688870e-02
3694:-8.9821431900444518e-02
3695:-8.3404114043499067e-02
3696:-8.9627406763078080e-02
3697:-8.2328526058789847e-02
3698:-7.3192956097961434e-02
3699:-6.6487167425326010e-02
3700:-8.7362868607273964e-02
3701:-8.0377556501175923e-02
3702:-7.1618181813175835e-02
3703:-6.5175124065792442e-02
3704:-8.3564687755345729e-02
3705:-7.7007082781835448e-02
3706:-6.8767099669976017e-02
3707:-6.2691641664147230e-02
3708:-8.0017068545074121e-02
3709:-7.3802124152857210e-02
3710:-6.5982718135353349e-02
3711:-6.0208341105694278e-02
3712:-6.3021427152699996e-02
3713:-5.6774097214824570e-02
3714:-4.9130495411739791e-02
3715:-4.3655173178678508e-02
3716:-6.1840255445156575e-02
3717:-5.5822064384701962e-02
3718:-4.8445197160385083e-02
3719:-4.3149482611488987e-02
3720:-5.9541644711280810e-02
3721:-5.3850119862433328e-02
3722:-4.6859411854457460e-02
3723:-4.1828534540718547e-02
3724:-5.7210984959382288e-02
3725:-5.1791253904553212e-02
3726:-4.5125919913429194e-02
3727:-4.0321471011242740e-02
3728:-4.0873174597682894e-02
3729:-3.5936579794009597e-02
3730:-3.0049444006047678e-02
3731:-2.5952948435833151e-02
3732:-4.0454431699438201e-02
3733:-3.5665817394033135e-02
3734:-2.9942224021525222e-02
3735:-2.5948414962714269e-02
3736:-3.9263530617969153e-02
3737:-3.4699429071016620e-02
3738:-2.9230531213144180e-02
3739:-2.5402420286237938e-02
3740:-3.7868882752428390e-02
3741:-3.3500936179868920e-02
3742:-2.8258798858807280e-02
3743:-2.4581836578641124e-02
3744:-2.3915179717285392e-02
3745:-2.0369812595158542e-02
3746:-1.6280717242920902e-02
3747:-1.3547254301708936e-02
3748:-2.3957416417430509e-02
3749:-2.0486468227809296e-02
3750:-1.6468728433666480e-02
3751:-1.3770332677671743e-02
3752:-2.3489309179133114e-02
3753:-2.0146904409355456e-02
3754:-1.6262853900754107e-02
3755:-1.3640957518781369e-02
3756:-2.2741236477549845e-02
3757:-1.9521199596416173e-02
3758:-1.5770299389029789e-02
3759:-1.3230205401118829e-02
3760:-1.2228697979115527e-02
3761:-9.9966959501784844e-03
3762:-7.5434264792890579e-03
3763:-6.0022169201321808e-03
3764:-1.2463670120163495e-02
3765:-1.0243667562487771e-02
3766:-7.7867577363325020e-03
3767:-6.2283930393566373e-03
3768:-1.2366069738794375e-02
3769:-1.0192128716066376e-02
3770:-7.7699374826792553e-03
3771:-6.2192510299620548e-03
3772:-1.1991889922973490e-02
3773:-9.8759459832125241e-03
3774:-7.5094869710179641e-03
3775:-5.9866072953054239e-03
3776:-5.2950626586575475e-03
3777:-4.1360198440952289e-03
3778:-2.9263878472450774e-03
3779:-2.2143578801367731e-03
3780:-5.5073600688758982e-03
3781:-4.3177759786506200e-03
3782:-3.0615478408995106e-03
3783:-2.3097538626468384e-03
3784:-5.4960929456514844e-03
3785:-4.2973656100458654e-03
3786:-3.0223088199341341e-03
3787:-2.2525840074572837e-03
3788:-5.2733787818934307e-03
3789:-4.0895983853636072e-03
3790:-2.8296434692178158e-03
3791:-2.0697408263917745e-03
3792:-1.9018881498140254e-03
3793:-1.3568469464906013e-03
3794:-6.8230901204579381e-04
3795:-1.6712685074877091e-04
3796:-1.9753680561922309e-03
3797:-1.3951888372346212e-03
3798:-6.9020876541043066e-04
3799:-1.6556890798451399e-04
3800:-1.9085339167026090e-03
3801:-1.3217473502437716e-03
3802:-6.3671903403871824e-04
3803:-1.5268645367651361e-04
3804:-1.7313362172178303e-03
3805:-1.1666899442115484e-03
3806:-5.3870483442983728e-04
3807:-1.2314066138000118e-04
3808:-3.6240367274461118e-03
3809:-1.7777429587934497e-02
3810:-3.5857542858414165e-02
3811:-4.9425456479385732e-02
3812:-3.3499947887023571e-03
3813:-1.6395162719860672e-02
3814:-3.3158837098361531e-02
3815:-4.5779887478648543e-02
3816:-3.0815941255994319e-03
3817:-1.4730634232007508e-02
3818:-2.9745939002613006e-02
3819:-4.1069707644652093e-02
3820:-2.8796975919733892e-03
3821:-1.3494221424768525e-02
3822:-2.7153251682102718e-02
3823:-3.7449183050050149e-02
3824:-5.6543034301834473e-02
3825:-6.9468199085873511e-02
3826:-8.5421559335617223e-02
3827:-9.6932837952227874e-02
3828:-5.2403984324788419e-02
3829:-6.4423427774478098e-02
3830:-7.9254410119774063e-02
3831:-8.9967948778298432e-02
3832:-4.7014829695776021e-02
3833:-5.7804264457817965e-02
3834:-7.1133644628064749e-02
3835:-8.0786577822790639e-02
3836:-4.2856767322634021e-02
3837:-5.2679354951121839e-02
3838:-6.4833432931521232e-02
3839:-7.3651716605288298e-02
3840:-1.0280011403562156e-01
3841:-1.1316514843227037e-01
3842:-1.2539480640313211e-01
3843:-1.3377663519903998e-01
3844:-9.5437647265837908e-02
3845:-1.0511596503623218e-01
3846:-1.1656112334936658e-01
3847:-1.2442166767965515e-01
3848:-8.5726144626336473e-02
3849:-9.4473114960739665e-02
3850:-1.0482796663154151e-01
3851:-1.1194981878702792e-01
3852:-7.8169708098796059e-02
3853:-8.6165937865472386e-02
3854:-9.5627607717002086e-02
3855:-1.0213846327118611e-01
3856:-1.3788711529998468e-01
3857:-1.4484820251374553e-01
3858:-1.5244946414523974e-01
3859:-1.5715152164868704e-01
3860:-1.2828115957869585e-01
3861:-1.3482292148107178e-01
3862:-1.4198384307828044e-01
3863:-1.4643487946786848e-01
3864:-1.1545080131541728e-01
3865:-1.2139338269917914e-01
3866:-1.2792036811063109e-01
3867:-1.3200072558988518e-01
3868:-1.0534243582877942e-01
3869:-1.1078777257125748e-01
3870:-1.1678304165695015e-01
3871:-1.2054383958028235e-01
3872:-1.5926235508341055e-01
3873:-1.6249071168451415e-01
3874:-1.6529018365135922e-01
3875:-1.6637508846351137e-01
3876:-1.4844372029084987e-01
3877:-1.5153571426956744e-01
3878:-1.5425970824086663e-01
3879:-1.5536116393644603e-01
3880:-1.3385296052087675e-01
3881:-1.3671932971679970e-01
3882:-1.3927795880756130e-01
3883:-1.4034870626313872e-01
3884:-1.2225613638883494e-01
3885:-1.2491104268457882e-01
3886:-1.2729267840751590e-01
3887:-1.2830332575523970e-01
3888:-1.6658678775598698e-01
3889:-1.6635888528258180e-01
3890:-1.6487393148748805e-01
3891:-1.6285086010950414e-01
3892:-1.5560652428345864e-01
3893:-1.5548186213559581e-01
3894:-1.5420734774623024e-01
3895:-1.5240200846676702e-01
3896:-1.4061070188914429e-01
3897:-1.4057445080739164e-01
3898:-1.3952266422942766e-01
3899:-1.3796658397421885e-01
3900:-1.2855989217896374e-01
3901:-1.2856053594738295e-01
3902:-1.2764429452212145e-01
3903:-1.2625495930629346e-01
3904:-1.6147212898036872e-01
3905:-1.5842837851536587e-01
3906:-1.5360668187161597e-01
3907:-1.4928201065642052e-01
3908:-1.5115845440286962e-01
3909:-1.4839632180742482e-01
3910:-1.4399082466016447e-01
3911:-1.4001827232413477e-01
3912:-1.3688208550102152e-01
3913:-1.3445698813739621e-01
3914:-1.3055978321333911e-01
3915:-1.2702456735629503e-01
3916:-1.2528003482402877e-01
3917:-1.2309207863422736e-01
3918:-1.1956151775219741e-01
3919:-1.1634810310853783e-01
3920:-1.4676739341864350e-01
3921:-1.4177370261457886e-01
3922:-1.3476017988737590e-01
3923:-1.2901965273525023e-01
3924:-1.3770149726954753e-01
3925:-1.3309188052906329e-01
3926:-1.2660065637103515e-01
3927:-1.2127399305650975e-01
3928:-1.2495606822422158e-01
3929:-1.2083400073498295e-01
3930:-1.1501550897381921e-01
3931:-1.1022812510569439e-01
3932:-1.1446443548007905e-01
3933:-1.1070930629402150e-01
3934:-1.0540382545007290e-01
3935:-1.0103184224867889e-01
3936:-1.2584238026402927e-01
3937:-1.1977563340825167e-01
3938:-1.1168799332284436e-01
3939:-1.0536624088443308e-01
3940:-1.1832105753671475e-01
3941:-1.1267748691119495e-01
3942:-1.0514256181092783e-01
3943:-9.9242195085347498e-02
3944:-1.0756937370145483e-01
3945:-1.0248401741177922e-01
3946:-9.5684399557270303e-02
3947:-9.0349227211001831e-02
3948:-9.8600926868568084e-02
3949:-9.3950338152599969e-02
3950:-8.7728105644600818e-02
3951:-8.2840195771165567e-02
3952:-1.0196191151216476e-01
3953:-9.5607286884686407e-02
3954:-8.7404632298397081e-02
3955:-8.1187517988856830e-02
3956:-9.6060722335382168e-02
3957:-9.0118315777909880e-02
3958:-8.2439396155965336e-02
3959:-7.6611077901918914e-02
3960:-8.7468277793882984e-02
3961:-8.2084869817485501e-02
3962:-7.5121933189295859e-02
3963:-6.9829231929425736e-02
3964:-8.0198259601606869e-02
3965:-7.5261604437909746e-02
3966:-6.8874823852425743e-02
3967:-6.4015910552458311e-02
3968:-7.7904157542552172e-02
3969:-7.1877484432889785e-02
3970:-6.4290624643241590e-02
3971:-5.8683831279038014e-02
3972:-7.3529846567624985e-02
3973:-6.7871481068839168e-02
3974:-6.0741986485950313e-02
3975:-5.5466663528751563e-02
3976:-6.7027829770768724e-02
3977:-6.1881690795059806e-02
3978:-5.5392750457713816e-02
3979:-5.0585075156029204e-02
3980:-6.1442056372399065e-02
3981:-5.6714076036777937e-02
3982:-5.0751179309469943e-02
3983:-4.6329920757155897e-02
3984:-5.5771828951908083e-02
3985:-5.0504752879829931e-02
3986:-4.4023480801634575e-02
3987:-3.9348162938215817e-02
3988:-5.2724154490240302e-02
3989:-4.7761365013387055e-02
3990:-4.1649224004636436e-02
3991:-3.7234650307859038e-02
3992:-4.8082905404994082e-02
3993:-4.3553643893278822e-02
3994:-3.7971403206047659e-02
3995:-3.3934274817726505e-02
3996:-4.4027178495164083e-02
3997:-3.9859031915996684e-02
3998:-3.4720848013864228e-02
3999:-3.1002100071882820e-02
4000:-3.6960069480385882e-02
4001:-3.2705300726257061e-02
4002:-2.7595289966720889e-02
4003:-2.4007482039288552e-02
4004:-3.4977439008845118e-02
4005:-3.0953430761579602e-02
4006:-2.6115024694570530e-02
4007:-2.2712362422258707e-02
4008:-3.1867671435128295e-02
4009:-2.8181640256751215e-02
4010:-2.3744926792488921e-02
4011:-2.0619375937141384e-02
4012:-2.9097031581343590e-02
4013:-2.5698694484553808e-02
4014:-2.1606482028384579e-02
4015:-1.8720738287264407e-02
4016:-2.2210079725195009e-02
4017:-1.9063712711558819e-02
4018:-1.5394614149798239e-02
4019:-1.2906269271457329e-02
4020:-2.1005408788607596e-02
4021:-1.8014590908480017e-02
4022:-1.4520904821931534e-02
4023:-1.2145900678336246e-02
4024:-1.9049081032526689e-02
4025:-1.6295429781705662e-02
4026:-1.3073586463839434e-02
4027:-1.0878024581666028e-02
4028:-1.7269529727759633e-02
4029:-1.4723843005629554e-02
4030:-1.1742967538237994e-02
4031:-9.7086690747769430e-03
4032:-1.1691730497806339e-02
4033:-9.6145996518748750e-03
4034:-7.2878741970739368e-03
4035:-5.7872828994389794e-03
4036:-1.0984413596692454e-02
4037:-8.9954835600790806e-03
4038:-6.7625448449669546e-03
4039:-5.3179639272070310e-03
4040:-9.8020537004288970e-03
4041:-7.9577366583866924e-03
4042:-5.8838214615446038e-03
4043:-4.5391546156503260e-03
4044:-8.7104142538945977e-03
4045:-6.9988668121461111e-03
4046:-5.0738077033085065e-03
4047:-3.8252721343612697e-03
4048:-5.0832545721816516e-03
4049:-3.9147810453785542e-03
4050:-2.6725728812705021e-03
4051:-1.9255030481350709e-03
4052:-4.6385957989018931e-03
4053:-3.5125219666619877e-03
4054:-2.3209322974616824e-03
4055:-1.6106714225946222e-03
4056:-3.9058603772004073e-03
4057:-2.8602444090232164e-03
4058:-1.7652462583923512e-03
4059:-1.1243683358732838e-03
4060:-3.2373282631935696e-03
4061:-2.2710042234820069e-03
4062:-1.2702849084705774e-03
4063:-6.9574146574341708e-04
4064:-1.5942707759982655e-03
4065:-1.0501218009507734e-03
4066:-4.6597072984993007e-04
4067:-9.8992870982440227e-05
4068:-1.2994997995386206e-03
4069:-8.0689981418861033e-04
4070:-3.2421866086876724e-04
4071:-6.5305039097486247e-05
4072:-8.4997466825946976e-04
4073:-4.4413572116342711e-04
4074:-1.1986696135650124e-04
4075:-2.3387514746788710e-05
4076:-4.5562421441099695e-04
4077:-1.2592051600797104e-04
4078:6.7008688740194982e-05
4079:3.2606265237880215e-05
4080:-2.7529388502725745e-03
4081:-1.2825091588208395e-02
4082:-2.5756449893676692e-02
4083:-3.5496543204675449e-02
4084:-2.4533709240927072e-03
4085:-1.1469046603863206e-02
4086:-2.2998458117735893e-02
4087:-3.1672885864765743e-02
4088:-1.9861467297875965e-03
4089:-9.5184968313549757e-03
4090:-1.9117333823435653e-02
4091:-2.6335764480663017e-02
4092:-1.6140787187982034e-03
4093:-7.9124656441236160e-03
4094:-1.5931269582986716e-02
4095:-2.1965471481923154e-02
4096:-4.0614204304676958e-02
4097:-4.9915845531629408e-02
4098:-6.1434500829883040e-02
4099:-6.9797221407969928e-02
4100:-3.6234362218755527e-02
4101:-4.4529110961785037e-02
4102:-5.4806843338608260e-02
4103:-6.2273061436679260e-02
4104:-3.0135967452389813e-02
4105:-3.7039629266859483e-02
4106:-4.5584331703867297e-02
4107:-5.1791993691296445e-02
4108:-2.5145274882630405e-02
4109:-3.0908872002973292e-02
4110:-3.8026558073595049e-02
4111:-4.3198601060588995e-02
4112:-7.4082822008284935e-02
4113:-8.1662699297758656e-02
4114:-9.0626261840209277e-02
4115:-9.6795834296642846e-02
4116:-6.6100135420777167e-02
4117:-7.2861414328690380e-02
4118:-8.0849784974514935e-02
4119:-8.6352123342567297e-02
4120:-5.4975743868017894e-02
4121:-6.0594529999715124e-02
4122:-6.7228600596585655e-02
4123:-7.1804001420714622e-02
4124:-4.5855022849718985e-02
4125:-5.0540817137427807e-02
4126:-5.6071245982727634e-02
4127:-5.9888907698275214e-02
4128:-9.9834144958373242e-02
4129:-1.0500147821206077e-01
4130:-1.1069675347462793e-01
4131:-1.1427382014901590e-01
4132:-8.9066006812265397e-02
4133:-9.3684752019428941e-02
4134:-9.8780176015053262e-02
4135:-1.0198428505763221e-01
4136:-7.4065121772241824e-02
4137:-7.7910955311612615e-02
4138:-8.2148964071890665e-02
4139:-8.4812582809121448e-02
4140:-6.1777711880135464e-02
4141:-6.4983784769454656e-02
4142:-6.8506178653728447e-02
4143:-7.0716051023222259e-02
4144:-1.1590392174740333e-01
4145:-1.1843205366956196e-01
4146:-1.2070229285680578e-01
4147:-1.2166939851926618e-01
4148:-1.0344574346549218e-01
4149:-1.0571265764283928e-01
4150:-1.0775026869861157e-01
4151:-1.0862199358289443e-01
4152:-8.6027722891169403e-02
4153:-8.7911911575134269e-02
4154:-8.9604156431519644e-02
4155:-9.0327156594796079e-02
4156:-7.1724057748434655e-02
4157:-7.3285734994383817e-02
4158:-7.4683776124043644e-02
4159:-7.5275181076871950e-02
4160:-1.2191764347844906e-01
4161:-1.2192872480585645e-01
4162:-1.2107406109998460e-01
4163:-1.1976609140990589e-01
4164:-1.0884859062704166e-01
4165:-1.0886917796831116e-01
4166:-1.0811958295125083e-01
4167:-1.0695871468789347e-01
4168:-9.0514687591911794e-02
4169:-9.0530463847407219e-02
4170:-8.9902559758984146e-02
4171:-8.8928264083781641e-02
4172:-7.5424734733634966e-02
4173:-7.5424828249341727e-02
4174:-7.4881609342279859e-02
4175:-7.4049937684961237e-02
4176:-1.1884572500368214e-01
4177:-1.1677783429649209e-01
4178:-1.1343647024668917e-01
4179:-1.1039151877302893e-01
4180:-1.0613881187086514e-01
4181:-1.0429578372395348e-01
4182:-1.0131457111525950e-01
4183:-9.8593365609805139e-02
4184:-8.8239254671884537e-02
4185:-8.6695537685144305e-02
4186:-8.4202878451347746e-02
4187:-8.1925230178293493e-02
4188:-7.3463494037947580e-02
4189:-7.2158008284059161e-02
4190:-7.0059115975185826e-02
4191:-6.8141058241405608e-02
4192:-1.0860538673817247e-01
4193:-1.0504512871726360e-01
4194:-1.0001411699157214e-01
4195:-9.5865610175569715e-02
4196:-9.6995419238259079e-02
4197:-9.3812169158335151e-02
4198:-8.9314026740177202e-02
4199:-8.5600739954870358e-02
4200:-8.0586065288916542e-02
4201:-7.7922861013231690e-02
4202:-7.4162924935147076e-02
4203:-7.1054983260643884e-02
4204:-6.7012076642195856e-02
4205:-6.4772332576310987e-02
4206:-6.1615754174628765e-02
4207:-5.9004334130867746e-02
4208:-9.3557629328179723e-02
4209:-8.9142462807565589e-02
4210:-8.3234475024456342e-02
4211:-7.8591148568829233e-02
4212:-8.3532663448755540e-02
4213:-7.9578240674880257e-02
4214:-7.4287576165754710e-02
4215:-7.0126176848567215e-02
4216:-6.9321485289785670e-02
4217:-6.6011770594195912e-02
4218:-6.1588512070338948e-02
4219:-5.8106413014568412e-02
4220:-5.7545909849212394e-02
4221:-5.4767474754694095e-02
4222:-5.1060981256792190e-02
4223:-4.8141312733105596e-02
4224:-7.6080308965178672e-02
4225:-7.1389361214622804e-02
4226:-6.5320656553441034e-02
4227:-6.0702059305683974e-02
4228:-6.7874071462064867e-02
4229:-6.3668725142203147e-02
4230:-5.8229895002888436e-02
4231:-5.4088105739534119e-02
4232:-5.6219595118676788e-02
4233:-5.2700858664652364e-02
4234:-4.8154596969646551e-02
4235:-4.4689945105223818e-02
4236:-4.6557223197238339e-02
4237:-4.3608122033434130e-02
4238:-3.9803581324346804e-02
4239:-3.6902550065904947e-02
4240:-5.8254541790900088e-02
4241:-5.3759240915856120e-02
4242:-4.8090038796621645e-02
4243:-4.3885260738582323e-02
4244:-5.1891572408272954e-02
4245:-4.7859157800277566e-02
4246:-4.2775423038341587e-02
4247:-3.9003064124972918e-02
4248:-4.2850366649786142e-02
4249:-3.9477262554917639e-02
4250:-3.5229257027125545e-02
4251:-3.2075467532639124e-02
4252:-3.5360411459722227e-02
4253:-3.2537247552619213e-02
4254:-2.8987342105773063e-02
4255:-2.6350967835349549e-02
4256:-4.1694501590615052e-02
4257:-3.7729548208793429e-02
4258:-3.2842031235516100e-02
4259:-2.9303632026593068e-02
4260:-3.7036285920310878e-02
4261:-3.3478195301708299e-02
4262:-2.9093502388998660e-02
4263:-2.5917618340499632e-02
4264:-3.0429527388201382e-02
4265:-2.7454917726396588e-02
4266:-2.3792707470778357e-02
4267:-2.1138866007230812e-02
4268:-2.4973634340234079e-02
4269:-2.2487901067260656e-02
4270:-1.9431832095020606e-02
4271:-1.7216649295294855e-02
4272:-2.7490292002147008e-02
4273:-2.4255706625736107e-02
4274:-2.0360356263840373e-02
4275:-1.7612294931965412e-02
4276:-2.4288941264497259e-02
4277:-2.1384486682837132e-02
4278:-1.7887016125822882e-02
4279:-1.5418090967724415e-02
4280:-1.9776557183900430e-02
4281:-1.7349030746237972e-02
4282:-1.4427908044813574e-02
4283:-1.2364680904513713e-02
4284:-1.6078422939223232e-02
4285:-1.4052523809635774e-02
4286:-1.1617628019623884e-02
4287:-9.8974393796162040e-03
4288:-1.6229703427181930e-02
4289:-1.3804203208409660e-02
4290:-1.0963296463187800e-02
4291:-9.0232651074528443e-03
4292:-1.4174947455420365e-02
4293:-1.1994150507518619e-02
4294:-9.4391607482593610e-03
4295:-7.6925264196403640e-03
4296:-1.1324739795109687e-02
4297:-9.5012473198988912e-03
4298:-7.3652609653854315e-03
4299:-5.9034150157589015e-03
4300:-9.0296216444823389e-03
4301:-7.5092214425705349e-03
4302:-5.7295891280954424e-03
4303:-4.5107851661599693e-03
4304:-8.0706698224781021e-03
4305:-6.4374759109307855e-03
4306:-4.6009884693321498e-03
4307:-3.4102952443611531e-03
4308:-6.8339372478986391e-03
4309:-5.3624465262198428e-03
4310:-3.7093664825953582e-03
4311:-2.6388540657461537e-03
4312:-5.1837851483966524e-03
4313:-3.9516171343895630e-03
4314:-2.5701572223739096e-03
4315:-1.6775119394127102e-03
4316:-3.9100518204944470e-03
4317:-2.8825144497439175e-03
4318:-1.7326523418544225e-03
4319:-9.9091599528114524e-04
4320:-2.8498728849800075e-03
4321:-1.9315045789163523e-03
4322:-9.8717357829348107e-04
4323:-4.5163631193526982e-04
4324:-2.1356862360698871e-03
4325:-1.3162877471412432e-03
4326:-4.8670521922473042e-04
4327:-2.9401337197372941e-05
4328:-1.2588810539544480e-03
4329:-5.8400062788453700e-04
4330:8.1127147013063260e-05
4331:4.2843109243025307e-04
4332:-6.4361960873910177e-04
4333:-8.9463504043380988e-05
4334:4.4057900500972259e-04
4335:6.9912258070262492e-04
4336:-2.3132157961707470e-04
4337:5.5997186516674060e-05
4338:1.7849847908686219e-04
4339:7.5272543670250780e-05
4340:1.5169328859456833e-04
4341:3.5828621210040633e-04
4342:3.5349105837397579e-04
4343:1.3055430777592216e-04
4344:5.5539320774301035e-04
4345:6.5878611302846763e-04
4346:5.0878370070892227e-04
4347:1.6134420387296466e-04
4348:7.8327007358455379e-04
4349:8.1319464621247529e-04
4350:5.7792026854124956e-04
4351:1.7069951420146809e-04
4352:-1.4240661726580433e-03
4353:-7.0244244887812095e-03
4354:-1.4156609186102544e-02
4355:-1.9528330386601490e-02
4356:-1.0785056762994737e-03
4357:-5.2727605975306530e-03
4358:-1.0613662883294406e-02
4359:-1.4647723477689995e-02
4360:-5.8799102704747131e-04
4361:-2.7645304086123847e-03
4362:-5.5172454407520586e-03
4363:-7.6159348313529418e-03
4364:-1.2651212248845141e-04
4365:-6.2485221756143757e-04
4366:-1.2082230709504075e-03
4367:-1.6796213579184606e-03
4368:-2.2360753059804679e-02
4369:-2.7485162594187987e-02
4370:-3.3802945665597273e-02
4371:-3.8396241947364719e-02
4372:-1.6780572822813158e-02
4373:-2.0623037873081972e-02
4374:-2.5343513526527077e-02
4375:-2.8783209824324762e-02
4376:-8.7392251626640070e-03
4377:-1.0740425292937058e-02
4378:-1.3176157726832758e-02
4379:-1.4965603612896916e-02
4380:-1.9546737038700925e-03
4381:-2.4128115999100933e-03
4382:-2.9362944773315604e-03
4383:-3.3410527391290728e-03
4384:-4.0759034905401684e-02
4385:-4.4925950613173379e-02
4386:-4.9842336427141622e-02
4387:-5.3237052337412945e-02
4388:-3.0560294917728797e-02
4389:-3.3688205553969078e-02
4390:-3.7369835018843417e-02
4391:-3.9913095168282203e-02
4392:-1.5902316923177669e-02
4393:-1.7532500988079631e-02
4394:-1.9427489377648700e-02
4395:-2.0740411769156013e-02
4396:-3.5697944259337547e-03
4397:-3.9347303312845536e-03
4398:-4.3192120383856144e-03
4399:-4.5959976617016892e-03
4400:-5.4917219184694915e-02
4401:-5.7764003394544121e-02
4402:-6.0883798614483078e-02
4403:-6.2838448729749558e-02
4404:-4.1173988346829483e-02
4405:-4.3302392494144575e-02
4406:-4.5623030662948913e-02
4407:-4.7074167966371511e-02
4408:-2.1398368718486282e-02
4409:-2.2500922733948811e-02
4410:-2.3690945461776032e-02
4411:-2.4434683844304497e-02
4412:-4.7491955499528258e-03
4413:-4.9975564946241682e-03
4414:-5.2521915478268332e-03
4415:-5.4129350758571650e-03
4416:-6.3730138209278558e-02
4417:-6.5110533433169235e-02
4418:-6.6342259215455390e-02
4419:-6.6857884807582257e-02
4420:-4.7737024083811745e-02
4421:-4.8760723344577352e-02
4422:-4.9666044506557407e-02
4423:-5.0034978213934010e-02
4424:-2.4776807192492277e-02
4425:-2.5301516206888683e-02
4426:-2.5755145988978850e-02
4427:-2.5928893705096046e-02
4428:-5.4908385814733743e-03
4429:-5.6061134437992693e-03
4430:-5.6952913347874659e-03
4431:-5.7201208102072914e-03
4432:-6.6984674084684517e-02
4433:-6.6973145541934523e-02
4434:-6.6474017111101180e-02
4435:-6.5720202700507560e-02
4436:-5.0119290996052869e-02
4437:-5.0092309148577520e-02
4438:-4.9694411772982956e-02
4439:-4.9107242179971519e-02
4440:-2.5962109184835602e-02
4441:-2.5935086392364845e-02
4442:-2.5715603576716855e-02
4443:-2.5393552820566191e-02
4444:-5.7201628104809098e-03
4445:-5.7133772095335862e-03
4446:-5.6717993695663904e-03
4447:-5.5933100501668340e-03
4448:-6.5190382731698387e-02
4449:-6.4017093416138676e-02
4450:-6.2137467972561061e-02
4451:-6.0419875163035361e-02
4452:-4.8696418200732151e-02
4453:-4.7797614064788989e-02
4454:-4.6368733676454540e-02
4455:-4.5061136532319607e-02
4456:-2.5166741534767223e-02
4457:-2.4685380606383041e-02
4458:-2.3932628236367839e-02
4459:-2.3235759484206274e-02
4460:-5.5314613343328996e-03
4461:-5.4195330429439477e-03
4462:-5.2588140891035888e-03
4463:-5.0938375038216323e-03
4464:-5.9408084328004297e-02
4465:-5.7404753155560241e-02
4466:-5.4585680460490962e-02
4467:-5.2252500427774691e-02
4468:-4.4288616627285289e-02
4469:-4.2767906274281814e-02
4470:-4.0637283124960351e-02
4471:-3.8870778629210963e-02
4472:-2.2818810085217901e-02
4473:-2.2014299246910649e-02
4474:-2.0902540922124735e-02
4475:-1.9971781695927004e-02
4476:-4.9859671273602985e-03
4477:-4.8026305636681326e-03
4478:-4.5713355743329407e-03
4479:-4.3599578032417971e-03
4480:-5.0948393850795956e-02
4481:-4.8468254218906881e-02
4482:-4.5164553222595751e-02
4483:-4.2561118854416047e-02
4484:-3.7880516001046208e-02
4485:-3.6006114703788832e-02
4486:-3.3518805458954415e-02
4487:-3.1555367680988405e-02
4488:-1.9443144583517907e-02
4489:-1.8457595591427244e-02
4490:-1.7164791297853543e-02
4491:-1.6135655909248765e-02
4492:-4.2275757816294694e-03
4493:-4.0034076366128584e-03
4494:-3.7312344049732432e-03
4495:-3.4988426327423258e-03
4496:-4.1147280186698221e-02
4497:-3.8518676374573936e-02
4498:-3.5131741430605684e-02
4499:-3.2548255509663629e-02
4500:-3.0485816999073777e-02
4501:-2.8505035243966314e-02
4502:-2.5961522737750063e-02
4503:-2.4018718675445479e-02
4504:-1.5568120967439817e-02
4505:-1.4530979505687821e-02
4506:-1.3213913961902034e-02
4507:-1.2200895662423536e-02
4508:-3.3589610578106349e-03
4509:-3.1247267278832133e-03
4510:-2.8491635968204794e-03
4511:-2.6240268638207812e-03
4512:-3.1173768646963109e-02
4513:-2.8660680627838258e-02
4514:-2.5504566408122681e-02
4515:-2.3160183142788275e-02
4516:-2.2982213388112717e-02
4517:-2.1093672065036238e-02
4518:-1.8729697517392469e-02
4519:-1.6971949407486135e-02
4520:-1.1654153553473948e-02
4521:-1.0669285106522382e-02
4522:-9.4490167866834347e-03
4523:-8.5365060526170437e-03
4524:-2.4916570995140107e-03
4525:-2.2702585669933844e-03
4526:-2.0142489536971969e-03
4527:-1.8129132824297645e-03
4528:-2.1934470921905872e-02
4529:-1.9724766474703333e-02
4530:-1.7011097438400229e-02
4531:-1.5043853088568388e-02
4532:-1.6050615456348845e-02
4533:-1.4394629265022205e-02
4534:-1.2367130604382088e-02
4535:-1.0896315884643626e-02
4536:-8.0531363812758692e-03
4537:-7.1928628679645357e-03
4538:-6.1496166224731929e-03
4539:-5.3896713562863637e-03
4540:-1.6975520190355019e-03
4541:-1.5050227127042647e-03
4542:-1.2861687758918589e-03
4543:-1.1205336947635960e-03
4544:-1.4032340750259874e-02
4545:-1.2233637067702809e-02
4546:-1.0073977235288691e-02
4547:-8.5481406688920000e-03
4548:-1.0138380575178940e-02
4549:-8.7940595936087003e-03
4550:-7.1843502324160707e-03
4551:-6.0464849489053748e-03
4552:-4.9944594319591166e-03
4553:-4.2993658121574562e-03
4554:-3.4740407599448049e-03
4555:-2.8884940347983683e-03
4556:-1.0282062215028716e-03
4557:-8.7458729768704984e-04
4558:-7.0221864800012687e-04
4559:-5.7549648024889945e-04
4560:-7.7779097978624692e-03
4561:-6.4294524236131580e-03
4562:-4.8522163183800848e-03
4563:-3.7716853115829408e-03
4564:-5.4709345221690617e-03
4565:-4.4652922279203779e-03
4566:-3.2915396947843126e-03
4567:-2.4869635697522081e-03
4568:-2.5897257630678734e-03
4569:-2.0709201535781562e-03
4570:-1.4697745727202405e-03
4571:-1.0571901233519245e-03
4572:-5.0631856600888078e-04
4573:-3.9085586217760585e-04
4574:-2.6364855203682430e-04
4575:-1.7560542399957990e-04
4576:-3.2386808867200163e-03
4577:-2.3275715815378388e-03
4578:-1.3090352293236751e-03
4579:-6.5239976692512075e-04
4580:-2.0893218733303060e-03
4581:-1.4107424367956884e-03
4582:-6.5346883134246355e-04
4583:-1.6472001227583213e-04
4584:-8.5214809236763768e-04
4585:-5.0434999099640198e-04
4586:-1.1731803991531510e-04
4587:1.3579359873161983e-04
4588:-1.3019743726374502e-04
4589:-5.6698869109667533e-05
4590:2.3848857864799443e-05
4591:8.3101589676066754e-05
4592:-3.4510929310667740e-04
4593:1.4184619613517120e-04
4594:5.9773027120900630e-04
4595:8.0839603675047177e-04
4596:6.4406423939831610e-05
4597:4.2229130755357846e-04
4598:7.4207469372414476e-04
4599:8.7178007047004457e-04
4600:2.5656113952125776e-04
4601:4.4056642757306597e-04
4602:5.9155604087800218e-04
4603:6.3727154228229211e-04
4604:1.1555357807498764e-04
4605:1.6202202647312567e-04
4606:1.9169969103642267e-04
4607:1.9173570986785783e-04
4608:8.6992373951187371e-04
4609:8.6477960509356302e-04
4610:5.9756653596126853e-04
4611:1.7539981748652638e-04
4612:8.9853720149687543e-04
4613:8.5174031976774801e-04
4614:5.7296474714469748e-04
4615:1.6982575571308103e-04
4616:6.3655550375075272e-04
4617:5.8486769854291208e-04
4618:3.8055378533476461e-04
4619:8.3609687488929072e-05
4620:1.8497042929973122e-04
4621:1.6634610811964436e-04
4622:7.8615450356925409e-05
4623:-8.7460534323503933e-05
4624:-1.5672012922489331e-01
4625:-1.3497144573766071e-01
4626:-9.8951491301004252e-02
4627:-6.4461867112809199e-02
4628:-8.4126041104357108e-01
4629:-7.3459860822610834e-01
4630:-6.0262038171144794e-01
4631:-5.0549564614997289e-01
4632:-1.7266879754952946e+00
4633:-1.5102001837610330e+00
4634:-1.2544680566124162e+00
4635:-1.0768684250298406e+00
4636:-2.3944466272163409e+00
4637:-2.0952719804211375e+00
4638:-1.7466212318955381e+00
4639:-1.5088176369467388e+00
4640:-4.3341717747720977e-02
4641:2.2107510224850628e-03
4642:7.4584130799820847e-02
4643:1.4102811577022084e-01
4644:-4.5468477292433984e-01
4645:-3.5918647054992331e-01
4646:-2.3228423727812478e-01
4647:-1.3179643697861823e-01
4648:-9.8803045360159925e-01
4649:-8.2877454580513288e-01
4650:-6.3270579743466682e-01
4651:-4.8942532201664507e-01
4652:-1.3916202277478844e+00
4653:-1.1849898497623841e+00
4654:-9.3789543400749109e-01
4655:-7.6337270163737403e-01
4656:1.8063243309944804e-01
4657:2.6295688003350209e-01
4658:3.8460547085620705e-01
4659:4.8747279502086027e-01
4660:-7.6627575124752129e-02
4661:3.1249594342095538e-02
4662:1.7969160031351861e-01
4663:2.9842466361649983e-01
4664:-4.1485486524579573e-01
4665:-2.7541898109709917e-01
4666:-9.4420129619815177e-02
4667:4.3184995387606964e-02
4668:-6.7477550472180747e-01
4669:-5.1277969785480271e-01
4670:-3.0898207795567195e-01
4671:-1.5853175428217817e-01
4672:5.4534614398406278e-01
4673:6.5908662487217318e-01
4674:8.1589556741720937e-01
4675:9.4110699944679188e-01
4676:3.6321739775064010e-01
4677:4.8757938257152422e-01
4678:6.5392193688332334e-01
4679:7.8331776008443177e-01
4680:1.1605579866121066e-01
4681:2.5255289368053152e-01
4682:4.2918253853234895e-01
4683:5.6244500419342958e-01
4684:-8.0304819214414597e-02
4685:6.4001530890228447e-02
4686:2.4670292194741891e-01
4687:3.8162597189311315e-01
4688:1.0092161466662999e+00
4689:1.1390473847799136e+00
4690:1.3109213601498797e+00
4691:1.4432849924441085e+00
4692:8.5262889238375539e-01
4693:9.8328693771748910e-01
4694:1.1536086582904508e+00
4695:1.2828335214691553e+00
4696:6.3249178462179789e-01
4697:7.6273688575650489e-01
4698:9.2934119929943138e-01
4699:1.0534632826064065e+00
4700:4.5156863240683615e-01
4701:5.8031169062022570e-01
4702:7.4273914473056657e-01
4703:8.6217313300537912e-01
4704:1.5136856081292345e+00
4705:1.6448861683185485e+00
4706:1.8125181585449881e+00
4707:1.9367750934671526e+00
4708:1.3509038771581801e+00
4709:1.4768311480297336e+00
4710:1.6362032748738771e+00
4711:1.7533581668090021e+00
4712:1.1180841444946965e+00
4713:1.2365742160512978e+00
4714:1.3847410371175026e+00
4715:1.4924358746708057e+00
4716:9.2384010663853289e-01
4717:1.0362123930354026e+00
4718:1.1754779410818956e+00
4719:1.2757875991407877e+00
4720:2.0010648235756237e+00
4721:2.1174195209721991e+00
4722:2.2593763709287229e+00
4723:2.3594005716092803e+00
4724:1.8136798923078947e+00
4725:1.9224891179802224e+00
4726:2.0545618573672155e+00
4727:2.1470846958630152e+00
4728:1.5475048222623689e+00
4729:1.6464829241155285e+00
4730:1.7660303437007405e+00
4731:1.8493409263627989e+00
4732:1.3267795739027548e+00
4733:1.4182236737380229e+00
4734:1.5283969108620739e+00
4735:1.6050097238786254e+00
4736:2.4092436700457460e+00
4737:2.4956328355480286e+00
4738:2.5923987813062732e+00
4739:2.6526773273696826e+00
4740:2.1930037128182334e+00
4741:2.2725723592738989e+00
4742:2.3619370636454846e+00
4743:2.4180076527405259e+00
4744:1.8905462290223152e+00
4745:1.9620002694478142e+00
4746:2.0427087411609404e+00
4747:2.0940098664598787e+00
4748:1.6428631625490135e+00
4749:1.7086265825892584e+00
4750:1.7834229775073782e+00
4751:1.8316244063034037e+00
4752:2.6793957646382438e+00
4753:2.7187809311017608e+00
4754:2.7484021957048337e+00
4755:2.7538704236937703e+00
4756:2.4430853639513499e+00
4757:2.4804447124212761e+00
4758:2.5094405587051338e+00
4759:2.5159583121591287e+00
4760:2.1173205820716863e+00
4761:2.1529482427749764e+00
4762:2.1827114829646690e+00
4763:2.1920543092821783e+00
4764:1.8538810632299279e+00
4765:1.8889117761469125e+00
4766:1.9205254219647474e+00
4767:1.9331915280260095e+00
4768:2.7505180690390629e+00
4769:2.7326961794865259e+00
4770:2.6885292768102089e+00
4771:2.6401243489009523e+00
4772:2.5136869753002795e+00
4773:2.4985923376902033e+00
4774:2.4592669145231834e+00
4775:2.4155288499307948e+00
4776:2.1920281262689869e+00
4777:2.1819721762783924e+00
4778:2.1506368507212916e+00
4779:2.1140260604097216e+00
4780:1.9355511862390564e+00
4781:1.9305643620119559e+00
4782:1.9067815614975732e+00
4783:1.8765785010479588e+00
4784:2.6095971316778859e+00
4785:2.5440820841961340e+00
4786:2.4438749721724871e+00
4787:2.3569972120482765e+00
4788:2.3878169165432963e+00
4789:2.3281179198129291e+00
4790:2.2363944257452411e+00
4791:2.1565834261928871e+00
4792:2.0904493925426326e+00
4793:2.0391953070215068e+00
4794:1.9597554536319755e+00
4795:1.8902453163450212e+00
4796:1.8566156967890786e+00
4797:1.8126451521668285e+00
4798:1.7437181464497291e+00
4799:1.6830344249154694e+00
4800:2.3074842785984040e+00
4801:2.2091873203744687e+00
4802:2.0717525340229579e+00
4803:1.9605503672551012e+00
4804:2.1110051238374745e+00
4805:2.0204461326159193e+00
4806:1.8938178132894605e+00
4807:1.7914448032726145e+00
4808:1.8504430858107790e+00
4809:1.7711690835569802e+00
4810:1.6600550574668627e+00
4811:1.5701161716828300e+00
4812:1.6482002073365314e+00
4813:1.5786016324495364e+00
4814:1.4806639728535629e+00
4815:1.4011476406431558e+00
4816:1.8995500088647252e+00
4817:1.7823810137322127e+00
4818:1.6256920569647877e+00
4819:1.5039575361533943e+00
4820:1.7353357919251533e+00
4821:1.6275230026564564e+00
4822:1.4832147928862982e+00
4823:1.3709760321797204e+00
4824:1.5208078092368713e+00
4825:1.4260374568918546e+00
4826:1.2991378830002251e+00
4827:1.2004040492492072e+00
4828:1.3574832772101590e+00
4829:1.2735008985214640e+00
4830:1.1609825054099290e+00
4831:1.0734233890186757e+00
4832:1.4388808760338994e+00
4833:1.3170422366414567e+00
4834:1.1599016305243244e+00
4835:1.0419473704424742e+00
4836:1.3109320761499053e+00
4837:1.1985522053224715e+00
4838:1.0536960870850511e+00
4839:9.4501871631887313e-01
4840:1.1475738477728061e+00
4841:1.0486961632008198e+00
4842:9.2126594804831452e-01
4843:8.2569382910805122e-01
4844:1.0265742863136054e+00
4845:9.3886004400359646e-01
4846:8.2578540806274303e-01
4847:7.4098946606616023e-01
4848:9.8028359659340814e-01
4849:8.6733333728793682e-01
4850:7.2685579088645902e-01
4851:6.2575253507635642e-01
4852:8.8820934895405279e-01
4853:7.8394125833874306e-01
4854:6.5384538828307626e-01
4855:5.5992065404438007e-01
4856:7.7574374235752008e-01
4857:6.8396457814870271e-01
4858:5.6924828455003074e-01
4859:4.8628409397138900e-01
4860:6.9668315001595860e-01
4861:6.1527200879679578e-01
4862:5.1349153118054680e-01
4863:4.3985189281161069e-01
4864:5.7457988365609503e-01
4865:4.8383066943161940e-01
4866:3.7471490784307260e-01
4867:2.9724225775089019e-01
4868:5.1230982252872059e-01
4869:4.2834633360407470e-01
4870:3.2897036263792356e-01
4871:2.6015336588782506e-01
4872:4.4420678176858702e-01
4873:3.7051851274280734e-01
4874:2.8493443134942048e-01
4875:2.2743626179957394e-01
4876:4.0250015759381313e-01
4877:3.3732600983685662e-01
4878:2.6238787738371239e-01
4879:2.1288039975591921e-01
4880:2.5792177018815549e-01
4881:1.8812910779562064e-01
4882:1.0226168735215985e-01
4883:3.7927151637900496e-02
4884:2.2612833476611871e-01
4885:1.7002997053472152e-01
4886:1.1163482203348965e-01
4887:7.7310103127698385e-02
4888:1.9976362296289740e-01
4889:1.5516686878122937e-01
4890:1.1186968547560268e-01
4891:9.0229065084132434e-02
4892:1.8935840514551586e-01
4893:1.5054975821699088e-01
4894:1.1036986306048330e-01
4895:8.7599679720901713e-02
4896:-2.7449405401693934e+00
4897:-2.4024669425232581e+00
4898:-2.0052437306823512e+00
4899:-1.7360404344795062e+00
4900:-3.3904229629600686e+00
4901:-2.9685185156780856e+00
4902:-2.4823382121108111e+00
4903:-2.1557100431911849e+00
4904:-4.2030680223181287e+00
4905:-3.6818402892696049e+00
4906:-3.0848047610882303e+00
4907:-2.6868406317025286e+00
4908:-4.7982747396542260e+00
4909:-4.2048982087405200e+00
4910:-3.5277170784257432e+00
4911:-3.0784230341866730e+00
4912:-1.6040809580031687e+00
4913:-1.3728524693056934e+00
4914:-1.0993986822125696e+00
4915:-9.0885866493334633e-01
4916:-1.9967730633175600e+00
4917:-1.7206260949040244e+00
4918:-1.3991506362842683e+00
4919:-1.1795673995334743e+00
4920:-2.4944489756323276e+00
4921:-2.1626370651733078e+00
4922:-1.7818100734886624e+00
4923:-1.5265559071812425e+00
4924:-2.8620280823897484e+00
4925:-2.4902980057880808e+00
4926:-2.0670081398922848e+00
4927:-1.7863918357979178e+00
4928:-8.1312293099247457e-01
4929:-6.3974564689943270e-01
4930:-4.2463314448023182e-01
4931:-2.6795668040950499e-01
4932:-1.0709580413219733e+00
4933:-8.7721095313921982e-01
4934:-6.4213250823525547e-01
4935:-4.7468646842041878e-01
4936:-1.4022603847219597e+00
4937:-1.1840234832171272e+00
4938:-9.2555934195140332e-01
4939:-7.4597847402757789e-01
4940:-1.6510382497900931e+00
4941:-1.4158284948539619e+00
4942:-1.1417181233966986e+00
4943:-9.5446795135369333e-01
4944:-1.8719208119964123e-01
4945:-3.9281709231708123e-02
4946:1.4599419113604983e-01
4947:2.8133992418297876e-01
4948:-3.8961427902846163e-01
4949:-2.3570447800754049e-01
4950:-4.6429096394039353e-02
4951:8.9185947641235705e-02
4952:-6.5623724599312949e-01
4953:-4.9608767468794596e-01
4954:-3.0329849772240502e-01
4955:-1.6838323792246579e-01
4956:-8.6195680093269234e-01
4957:-6.9837297194903203e-01
4958:-5.0433297204598959e-01
4959:-3.7083824676576777e-01
4960:3.5099471711740965e-01
4961:4.7853066890683693e-01
4962:6.3828480995124415e-01
4963:7.5496308466894846e-01
4964:1.5805757486429367e-01
4965:2.8292257712094226e-01
4966:4.3719562615663832e-01
4967:5.4836943646327485e-01
4968:-1.0101258643037986e-01
4969:1.9562970907853961e-02
4970:1.6573481794199302e-01
4971:2.6900886498102283e-01
4972:-3.0501948058918427e-01
4973:-1.8841786077207906e-01
4974:-4.9287992549424856e-02
4975:4.7290641728281971e-02
4976:8.1495433811970086e-01
4977:9.2392629176181362e-01
4978:1.0583358496368802e+00
4979:1.1546558735372163e+00
4980:6.0503767794736651e-01
4981:7.0726946168621829e-01
4982:8.3207621807196597e-01
4983:9.2054400656267465e-01
4984:3.2094409622404652e-01
4985:4.1361636777356303e-01
4986:5.2493185125243924e-01
4987:6.0250827767481596e-01
4988:9.5245263881240952e-02
4989:1.7996790892989403e-01
4990:2.8027344853083719e-01
4991:3.4914363169640183e-01
4992:1.2034527132810289e+00
4993:1.2908674379159424e+00
4994:1.3960910506583839e+00
4995:1.4692250274864858e+00
4996:9.6503924111585637e-01
4997:1.0445976197493945e+00
4998:1.1402286090775213e+00
4999:1.2066486867516308e+00
5000:6.4109616825619753e-01
5001:7.0993666258461474e-01
5002:7.9257110482613735e-01
5003:8.4993013568174369e-01
5004:3.8307664917520623e-01
5005:4.4352192282373576e-01
5006:5.1603334048366312e-01
5007:5.6635677612069057e-01
5008:1.5053605188542867e+00
5009:1.5682372893349890e+00
5010:1.6400954753231975e+00
5011:1.6868169911338873e+00
5012:1.2394730157266134e+00
5013:1.2967646626872031e+00
5014:1.3628741027122193e+00
5015:1.4066241861831441e+00
5016:8.7828730158700030e-01
5017:9.2801147882267598e-01
5018:9.8623868686739924e-01
5019:1.0258054217056238e+00
5020:5.9124712058018769e-01
5021:6.3509915774983050e-01
5022:6.8720684213582306e-01
5023:7.2351802448438696e-01
5024:1.7086077507297597e+00
5025:1.7435591806352286e+00
5026:1.7765816204152809e+00
5027:1.7914138240371427e+00
5028:1.4274361712450634e+00
5029:1.4621288982162988e+00
5030:1.4978623385292464e+00
5031:1.5169936129486938e+00
5032:1.0451763843834416e+00
5033:1.0793196570160248e+00
5034:1.1185842734341649e+00
5035:1.1435837325254596e+00
5036:7.4176138083445819e-01
5037:7.7545137212491322e-01
5038:8.1745682194716152e-01
5039:8.4708651835987914e-01
5040:1.7952748105393908e+00
5041:1.7934175708096702e+00
5042:1.7741875756169605e+00
5043:1.7477652212401709e+00
5044:1.5238659667527199e+00
5045:1.5283393546131512e+00
5046:1.5183662383397494e+00
5047:1.4996205801554687e+00
5048:1.1546361013848836e+00
5049:1.1680988045241680e+00
5050:1.1715420109880170e+00
5051:1.1640194019911489e+00
5052:8.6147262531742452e-01
5053:8.8231237633828385e-01
5054:8.9707377932851151e-01
5055:8.9915991764964065e-01
5056:1.7299063841738664e+00
5057:1.6901413876680844e+00
5058:1.6272455393270491e+00
5059:1.5716174076722911e+00
5060:1.4860176898122694e+00
5061:1.4547117411680779e+00
5062:1.4038427485653575e+00
5063:1.3582111319229850e+00
5064:1.1566392266384311e+00
5065:1.1375659404333109e+00
5066:1.1037811325900821e+00
5067:1.0721038150014062e+00
5068:8.9712659471280654e-01
5069:8.8842107162778128e-01
5070:8.6879451939225982e-01
5071:8.4843377696175604e-01
5072:1.5396308684862416e+00
5073:1.4755703664451583e+00
5074:1.3851429891877203e+00
5075:1.3115315549444588e+00
5076:1.3318239771846303e+00
5077:1.2785920507286603e+00
5078:1.2027596280850639e+00
5079:1.1405800380978415e+00
5080:1.0534465210076385e+00
5081:1.0150512540196541e+00
5082:9.5907030454145781e-01
5083:9.1238330117180766e-01
5084:8.3596224656977436e-01
5085:8.0937415699928417e-01
5086:7.6912362653144095e-01
5087:7.3469897773532600e-01
5088:1.2710489220637704e+00
5089:1.1931204445231292e+00
5090:1.0886316739968958e+00
5091:1.0072917619578072e+00
5092:1.1062480207699135e+00
5093:1.0399975300555302e+00
5094:9.5094519832612923e-01
5095:8.8151933679868721e-01
5096:8.8637998015373787e-01
5097:8.3590823634376621e-01
5098:7.6762916199952869e-01
5099:7.1416371669633483e-01
5100:7.1529144954587986e-01
5101:6.7729398164930454e-01
5102:6.2538068076339848e-01
5103:5.8443844228226183e-01
5104:9.6376711064398768e-01
5105:8.8224944226123636e-01
5106:7.7713225819704479e-01
5107:6.9830649739191009e-01
5108:8.4434812501546552e-01
5109:7.7464701356955334e-01
5110:6.8464670022268603e-01
5111:6.1711104907239434e-01
5112:6.8547558476102433e-01
5113:6.3149671042915889e-01
5114:5.6148281344646345e-01
5115:5.0875829922826155e-01
5116:5.6238606890449683e-01
5117:5.2065968910585447e-01
5118:4.6611517067649977e-01
5119:4.2475792417591374e-01
5120:6.5712766844322379e-01
5121:5.8146862337130689e-01
5122:4.8686942233084296e-01
5123:4.1840122568968907e-01
5124:5.8182551670615201e-01
5125:5.1695857519317900e-01
5126:4.3574500691089768e-01
5127:3.7685115728036994e-01
5128:4.8115663691067262e-01
5129:4.3026575874031109e-01
5130:3.6621350461066110e-01
5131:3.1946901469047051e-01
5132:4.0301465037714906e-01
5133:3.6271240771305996e-01
5134:3.1154068653323252e-01
5135:2.7382607245433871e-01
5136:3.8366102598882129e-01
5137:3.2307329209087182e-01
5138:2.5354945489817637e-01
5139:2.0780249252383748e-01
5140:3.4691480084709431e-01
5141:2.9455836341818475e-01
5142:2.3427366471494857e-01
5143:1.9452695643469498e-01
5144:2.9557502775261391e-01
5145:2.5329388642734613e-01
5146:2.0365643685225659e-01
5147:1.7021544269281058e-01
5148:2.5438971743049726e-01
5149:2.1943802457855793e-01
5150:1.7727971625890229e-01
5151:1.4799076255238930e-01
5152:1.8612883130426341e-01
5153:1.4986084007343117e-01
5154:1.1062377297724892e-01
5155:8.6375775766218993e-02
5156:1.7569215801360655e-01
5157:1.4405342053738096e-01
5158:1.0889037659886763e-01
5159:8.5720661518707580e-02
5160:1.5417575891587584e-01
5161:1.2803992178789622e-01
5162:1.0068705557903607e-01
5163:8.3854234075747464e-02
5164:1.3366884297527143e-01
5165:1.1099373515280747e-01
5166:8.9278905394782712e-02
5167:7.8008662639119000e-02
5168:-5.1041435385919502e+00
5169:-4.4739394089021634e+00
5170:-3.7560071052878299e+00
5171:-3.2807174024784604e+00
5172:-5.6541551149237801e+00
5173:-4.9583126854906219e+00
5174:-4.1679755907604532e+00
5175:-3.6466067303043856e+00
5176:-6.3195614742323967e+00
5177:-5.5457618983803014e+00
5178:-4.6698523664018872e+00
5179:-4.0942017622545475e+00
5180:-6.7850953861075665e+00
5181:-5.9581991070008948e+00
5182:-5.0243209411812906e+00
5183:-4.4120101919707979e+00
5184:-3.0521957204527137e+00
5185:-2.6602988641157594e+00
5186:-2.2155791633849371e+00
5187:-1.9222135352948184e+00
5188:-3.3966021597363993e+00
5189:-2.9688910186804733e+00
5190:-2.4860195304761268e+00
5191:-2.1699729920042246e+00
5192:-3.8188969197050731e+00
5193:-3.3488273352662894e+00
5194:-2.8206679287498591e+00
5195:-2.4777748838686131e+00
5196:-4.1196100645287936e+00
5197:-3.6207902224239752e+00
5198:-3.0618221398410226e+00
5199:-2.7008001694527533e+00
5200:-1.7813345878799971e+00
5201:-1.5377604871527162e+00
5202:-1.2561703569956932e+00
5203:-1.0654465335038723e+00
5204:-2.0193073342916952e+00
5205:-1.7611234259781028e+00
5206:-1.4669011799468830e+00
5207:-1.2707000256833958e+00
5208:-2.3156347798905328e+00
5209:-2.0407671770930293e+00
5210:-1.7330622735752013e+00
5211:-1.5318897053401845e+00
5212:-2.5310355193158847e+00
5213:-2.2454934010215664e+00
5214:-1.9300404810210774e+00
5215:-1.7268767905204854e+00
5216:-9.7176340579407527e-01
5217:-8.0685772143461099e-01
5218:-6.1269672027017685e-01
5219:-4.8029419079098340e-01
5220:-1.1753511869848985e+00
5221:-1.0088864093819392e+00
5222:-8.1553659929149613e-01
5223:-6.8585359349012021e-01
5224:-1.4354661220514946e+00
5225:-1.2688253382109986e+00
5226:-1.0785440084440658e+00
5227:-9.5363338604799475e-01
5228:-1.6305283797870604e+00
5229:-1.4652299865257470e+00
5230:-1.2788077775078588e+00
5231:-1.1583930396217770e+00
5232:-4.1545498775530765e-01
5233:-3.0123681376425449e-01
5234:-1.6618730708152948e-01
5235:-7.3427217692270771e-02
5236:-6.2316821882433671e-01
5237:-5.1398594113546670e-01
5238:-3.8723818111248953e-01
5239:-3.0203044924542727e-01
5240:-8.9430736365927455e-01
5241:-7.9266728742086190e-01
5242:-6.7783024680346704e-01
5243:-6.0306907351891104e-01
5244:-1.1019859665456233e+00
5245:-1.0067183103888722e+00
5246:-9.0162607677304174e-01
5247:-8.3515439770207212e-01
5248:-2.7728831482596479e-02
5249:5.2541549877665933e-02
5250:1.4679054836843169e-01
5251:2.1095598392635503e-01
5252:-2.6071852769864440e-01
5253:-1.8891879489187188e-01
5254:-1.0593432656125455e-01
5255:-5.0412345070495149e-02
5256:-5.6768169457046236e-01
5257:-5.0701254011956720e-01
5258:-4.3843355389151256e-01
5259:-3.9384744964485807e-01
5260:-8.0437073639165313e-01
5261:-7.5218382645219872e-01
5262:-6.9441120886577923e-01
5263:-6.5803301581357665e-01
5264:2.4240224320929388e-01
5265:2.9837451309029667e-01
5266:3.6550279455125684e-01
5267:4.1208910593094444e-01
5268:-2.3524721028525250e-02
5269:2.4179017439811528e-02
5270:8.1258159925206172e-02
5271:1.2083757971855147e-01
5272:-3.7274333185788588e-01
5273:-3.3569497059370595e-01
5274:-2.9179425358300315e-01
5275:-2.6147976300911546e-01
5276:-6.4131231960927637e-01
5277:-6.1246967568136224e-01
5278:-5.7888593575710878e-01
5279:-5.5587823974643646e-01
5280:4.3513882389733222e-01
5281:4.7588106828866461e-01
5282:5.2476061723871181e-01
5283:5.5936181146737451e-01
5284:1.4044063031401652e-01
5285:1.7538743697316456e-01
5286:2.1818942856276827e-01
5287:2.4939805150514591e-01
5288:-2.4642578637353710e-01
5289:-2.1902803726656675e-01
5290:-1.8418618996812067e-01
5291:-1.5771104287071480e-01
5292:-5.4440340909807328e-01
5293:-5.2284392309750438e-01
5294:-4.9413443543637614e-01
5295:-4.7147685393727018e-01
5296:5.7701439351804429e-01
5297:6.1045787745261282e-01
5298:6.5389433036789069e-01
5299:6.8597569888890086e-01
5300:2.6574751602505942e-01
5301:2.9811267773782185e-01
5302:3.4310896375461469e-01
5303:3.7884307619110075e-01
5304:-1.4341078275315747e-01
5305:-1.1368048094438130e-01
5306:-6.9026826221543644e-02
5307:-3.0597268845062954e-02
5308:-4.5897549297642287e-01
5309:-4.3214766217332989e-01
5310:-3.8953709679786647e-01
5311:-3.5061780236197970e-01
5312:7.0214375271220020e-01
5313:7.2702503454380751e-01
5314:7.4813319465789252e-01
5315:7.5567723816044563e-01
5316:3.9787666438461838e-01
5317:4.2970032388924467e-01
5318:4.6231490620618909e-01
5319:4.8003003976174602e-01
5320:-8.8907205180943655e-03
5321:3.0559929477999723e-02
5322:7.7307983089824284e-02
5323:1.0818047834619000e-01
5324:-3.2767748410304237e-01
5325:-2.8343503490350141e-01
5326:-2.2639220551604058e-01
5327:-1.8536153583866743e-01
5328:7.5669257877204044e-01
5329:7.5383942430042350e-01
5330:7.4207507555047048e-01
5331:7.2790151737208941e-01
5332:4.8677660617253926e-01
5333:4.9483744664456120e-01
5334:4.9758888713573585e-01
5335:4.9477954302265642e-01
5336:1.2246662121644580e-01
5337:1.4473284169050427e-01
5338:1.6613402542167421e-01
5339:1.7785230340208466e-01
5340:-1.6514577082828014e-01
5341:-1.3179808368068310e-01
5342:-9.5988438737057341e-02
5343:-7.3070351989759003e-02
5344:7.1878092970121388e-01
5345:6.9857867036632781e-01
5346:6.6683544850712262e-01
5347:6.3905119037924074e-01
5348:4.9181291525318210e-01
5349:4.8343203705657956e-01
5350:4.6759336474294055e-01
5351:4.5230164924748184e-01
5352:1.8276770348973442e-01
5353:1.8971319515324070e-01
5354:1.9478163286269887e-01
5355:1.9603904059263647e-01
5356:-6.2059039335144110e-02
5357:-4.3151565996124241e-02
5358:-2.1618234224135516e-02
5359:-7.2820458635777154e-03
5360:6.2322013614112703e-01
5361:5.9198029117703010e-01
5362:5.4891525805200603e-01
5363:5.1472891623029526e-01
5364:4.4321286706978985e-01
5365:4.2469443568389148e-01
5366:3.9826669239435653e-01
5367:3.7678850268581476e-01
5368:1.9589639377582690e-01
5369:1.9418940672901969e-01
5370:1.8965072055921656e-01
5371:1.8486471351022282e-01
5372:-3.6005526943754993e-04
5373:1.1130549448820089e-02
5374:2.3652334283323490e-02
5375:3.1819140223472611e-02
5376:4.9625042494695537e-01
5377:4.6110774178950753e-01
5378:4.1484039173864867e-01
5379:3.7953388519122994e-01
5380:3.6504030256607278e-01
5381:3.4231668216912148e-01
5382:3.1171531713129647e-01
5383:2.8791255048319764e-01
5384:1.8196196478928328e-01
5385:1.7561180620500338e-01
5386:1.6579839153706194e-01
5387:1.5738942467314718e-01
5388:3.5773117266816923e-02
5389:4.2156869811841330e-02
5390:4.8621957127025925e-02
5391:5.2372532073869854e-02
5392:3.6089659757145709e-01
5393:3.2619136504504781e-01
5394:2.8179964988356354e-01
5395:2.4881827184856636e-01
5396:2.7520300943775988e-01
5397:2.5123580123281247e-01
5398:2.1998199531491708e-01
5399:1.9629340233616946e-01
5400:1.5266496016878323e-01
5401:1.4324390950062776e-01
5402:1.2997648086248953e-01
5403:1.1919312835255329e-01
5404:5.3995494489069602e-02
5405:5.6156986645025150e-02
5406:5.7262660340235604e-02
5407:5.6855817864009707e-02
5408:2.3171286396278704e-01
5409:2.0059996274633440e-01
5410:1.6236227453520624e-01
5411:1.3524055914518801e-01
5412:1.8382038090978203e-01
5413:1.6053165577529699e-01
5414:1.3070028466322556e-01
5415:1.0859718195408812e-01
5416:1.1324058508321690e-01
5417:1.0128324840092177e-01
5418:8.4279246748520054e-02
5419:7.0380613759248617e-02
5420:5.6181842940529768e-02
5421:5.3552580912144314e-02
5422:4.7403987124905192e-02
5423:4.0667906580461967e-02
5424:1.2179435488321230e-01
5425:1.0065466900719391e-01
5426:8.1216363113794057e-02
5427:7.2264317652573740e-02
5428:9.7310990715629500e-02
5429:7.9429980588648905e-02
5430:6.3348508881890031e-02
5431:5.6855568289565304e-02
5432:6.2816721845208978e-02
5433:5.0118299296900301e-02
5434:3.7610093945977655e-02
5435:3.1833616875585662e-02
5436:3.6429300609244653e-02
5437:2.8348925343214770e-02
5438:1.8607460131029995e-02
5439:1.2509847630450637e-02
5440:-7.0161274591196410e+00
5441:-6.1635233018785991e+00
5442:-5.2016735319920331e+00
5443:-4.5717027826623458e+00
5444:-7.4156774214437204e+00
5445:-6.5200955699430772e+00
5446:-5.5114013265900343e+00
5447:-4.8519078656875614e+00
5448:-7.8661287810320415e+00
5449:-6.9256414969493765e+00
5450:-5.8677019357668820e+00
5451:-5.1772320974909523e+00
5452:-8.1536307736935019e+00
5453:-7.1879501502439718e+00
5454:-6.1020574220577544e+00
5455:-5.3940308663758030e+00
5456:-4.2710624840421545e+00
5457:-3.7583499616684630e+00
5458:-3.1844930928608512e+00
5459:-2.8147760337577097e+00
5460:-4.5375490769004596e+00
5461:-4.0018043131566525e+00
5462:-3.4033309652885513e+00
5463:-3.0191846873623782e+00
5464:-4.8485996982998518e+00
5465:-4.2891792094548480e+00
5466:-3.6656700656925891e+00
5467:-3.2667914427184246e+00
5468:-5.0574140181676688e+00
5469:-4.4850506060048225e+00
5470:-3.8481753647840216e+00
5471:-3.4414293901726665e+00
5472:-2.6414057868725496e+00
5473:-2.3509732698303307e+00
5474:-2.0323283994649071e+00
5475:-1.8287477403500871e+00
5476:-2.8397751802288926e+00
5477:-2.5410717483472047e+00
5478:-2.2170930833508002e+00
5479:-2.0131392909585886e+00
5480:-3.0811000834280917e+00
5481:-2.7735314866846696e+00
5482:-2.4437967903415743e+00
5483:-2.2399556960983031e+00
5484:-3.2522917639751818e+00
5485:-2.9396093331904316e+00
5486:-2.6065241449417433e+00
5487:-2.4032467662040595e+00
5488:-1.7327565069495743e+00
5489:-1.5686913098670094e+00
5490:-1.3848336124012428e+00
5491:-1.2670666517464082e+00
5492:-1.9180905786896405e+00
5493:-1.7569709102516049e+00
5494:-1.5787153773297422e+00
5495:-1.4662640896769117e+00
5496:-2.1465478180095801e+00
5497:-1.9905040129888678e+00
5498:-1.8215175726995756e+00
5499:-1.7172535868251972e+00
5500:-2.3114018511348471e+00
5501:-2.1603089656413799e+00
5502:-2.0003583901244806e+00
5503:-1.9038548725255944e+00
5504:-1.2123016341113912e+00
5505:-1.1205606773674071e+00
5506:-1.0207681805985807e+00
5507:-9.5873397924933734e-01
5508:-1.4146116789605288e+00
5509:-1.3293123628758921e+00
5510:-1.2390123699838060e+00
5511:-1.1849817254840485e+00
5512:-1.6700844766936180e+00
5513:-1.5933384251396847e+00
5514:-1.5148331625053015e+00
5515:-1.4706320290477373e+00
5516:-1.8607787324237892e+00
5517:-1.7912108055071494e+00
5518:-1.7216985781414771e+00
5519:-1.6846875852217797e+00
5520:-9.3038977934663469e-01
5521:-8.8267416052308112e-01
5522:-8.3059645654531333e-01
5523:-7.9857871144169157e-01
5524:-1.1611096393955735e+00
5525:-1.1217849156303525e+00
5526:-1.0806299588032739e+00
5527:-1.0570121900785685e+00
5528:-1.4523450473468578e+00
5529:-1.4238264288745366e+00
5530:-1.3970411897852022e+00
5531:-1.3843866877197994e+00
5532:-1.6704946813795192e+00
5533:-1.6500350578264373e+00
5534:-1.6339676136032448e+00
5535:-1.6292474253319031e+00
5536:-7.8420881358944350e-01
5537:-7.5980274465038655e-01
5538:-7.3184435254605473e-01
5539:-7.1284101130264366e-01
5540:-1.0471394370445974e+00
5541:-1.0311257339019488e+00
5542:-1.0137799249941808e+00
5543:-1.0024495925528929e+00
5544:-1.3802577292709755e+00
5545:-1.3746586873057363e+00
5546:-1.3702197245240622e+00
5547:-1.3683118948961082e+00
5548:-1.6291172252970381e+00
5549:-1.6304490934287381e+00
5550:-1.6342393428290272e+00
5551:-1.6383033039892305e+00
5552:-7.0332870563641636e-01
5553:-6.8494401669008687e-01
5554:-6.5956263427626149e-01
5555:-6.3902341146031028e-01
5556:-9.9678295578046383e-01
5557:-9.8476440723489900e-01
5558:-9.6617757546071426e-01
5559:-9.4989364813289656e-01
5560:-1.3674905184302899e+00
5561:-1.3637884261212456e+00
5562:-1.3543324706410276e+00
5563:-1.3436352099319711e+00
5564:-1.6406181631881738e+00
5565:-1.6425290200526710e+00
5566:-1.6394156107053328e+00
5567:-1.6324713921999772e+00
5568:-6.2755940270968558e-01
5569:-6.0256951020402705e-01
5570:-5.6164077602118090e-01
5571:-5.2300404513216325e-01
5572:-9.4043833238166585e-01
5573:-9.1899209087459766e-01
5574:-8.8162587072684939e-01
5575:-8.4430903501469245e-01
5576:-1.3366583739778524e+00
5577:-1.3193728711012620e+00
5578:-1.2863740012974185e+00
5579:-1.2514151641810074e+00
5580:-1.6270181873004284e+00
5581:-1.6120208129069238e+00
5582:-1.5813387037857043e+00
5583:-1.5479765749796752e+00
5584:-4.9969798134845816e-01
5585:-4.5329765420926232e-01
5586:-3.9099006674211845e-01
5587:-3.4451850511985488e-01
5588:-8.2097256318163425e-01
5589:-7.7198718689874868e-01
5590:-7.0161849699292489e-01
5591:-6.4581200243441605e-01
5592:-1.2288602035294498e+00
5593:-1.1789900786594152e+00
5594:-1.1020703933331006e+00
5595:-1.0366644929018451e+00
5596:-1.5262709933570748e+00
5597:-1.4772069646684285e+00
5598:-1.3983554187430647e+00
5599:-1.3280427768281717e+00
5600:-3.2107181373864518e-01
5601:-2.8167951987197060e-01
5602:-2.3800974763608557e-01
5603:-2.0897679697686652e-01
5604:-6.1645875624331314e-01
5605:-5.6546902165844914e-01
5606:-5.0609813260731695e-01
5607:-4.6477610655050106e-01
5608:-1.0005027827691679e+00
5609:-9.3472625143764121e-01
5610:-8.5359438454192793e-01
5611:-7.9480256888404599e-01
5612:-1.2877323149954587e+00
5613:-1.2115184196039701e+00
5614:-1.1133383749165473e+00
5615:-1.0403694965338439e+00
5616:-1.9463401779330866e-01
5617:-1.6918192261574194e-01
5618:-1.3863666405927991e-01
5619:-1.1714833605894394e-01
5620:-4.4383354849014545e-01
5621:-4.0572521831798630e-01
5622:-3.5814038619432087e-01
5623:-3.2323378563242211e-01
5624:-7.6459053043869230e-01
5625:-7.0940505919638419e-01
5626:-6.3980008669233956e-01
5627:-5.8788409618649773e-01
5628:-1.0026710184178476e+00
5629:-9.3422864268689865e-01
5630:-8.4833757212179273e-01
5631:-7.8415441343742565e-01
5632:-1.0636885375303624e-01
5633:-8.7699951090696088e-02
5634:-6.5946427892246542e-02
5635:-5.0797713058211472e-02
5636:-3.0520266838277238e-01
5637:-2.7298566908634425e-01
5638:-2.3375733452099473e-01
5639:-2.0540162715472682e-01
5640:-5.6065708964133321e-01
5641:-5.1109537450377740e-01
5642:-4.4927936292265264e-01
5643:-4.0379820737045202e-01
5644:-7.5030586840297386e-01
5645:-6.8809389230001705e-01
5646:-6.0956901023753540e-01
5647:-5.5133257622675125e-01
5648:-4.3153459093697284e-02
5649:-2.9902206654002266e-02
5650:-1.4619278661848851e-02
5651:-4.2462067512135764e-03
5652:-1.9079263761192730e-01
5653:-1.6459234325394426e-01
5654:-1.3269853339276561e-01
5655:-1.0985988043900362e-01
5656:-3.8017161721835785e-01
5657:-3.3726344517182255e-01
5658:-2.8404978688140681e-01
5659:-2.4529648696588491e-01
5660:-5.2098810746467306e-01
5661:-4.6570445710479874e-01
5662:-3.9684948142431486e-01
5663:-3.4653557085682396e-01
5664:8.4648174542452620e-04
5665:9.3315803463859589e-03
5666:1.8271142564386025e-02
5667:2.3517703274710672e-02
5668:-9.8242134479955709e-02
5669:-7.7928225959462541e-02
5670:-5.4449143296603671e-02
5671:-3.8780872595261154e-02
5672:-2.2537937784163603e-01
5673:-1.9009295582148666e-01
5674:-1.4831771326252613e-01
5675:-1.1958318081244940e-01
5676:-3.2062713927204456e-01
5677:-2.7452967404018330e-01
5678:-2.1949355666256257e-01
5679:-1.8122060493277231e-01
5680:2.5722513705800362e-02
5681:2.8207743302178203e-02
5682:2.8059416386202737e-02
5683:2.5313223160203076e-02
5684:-3.1288384598503791e-02
5685:-1.9407580574616900e-02
5686:-8.4753355208718028e-03
5687:-3.7599030744111086e-03
5688:-1.0546785092799493e-01
5689:-8.1795450945637005e-02
5690:-5.6792319737329934e-02
5691:-4.2360095956944767e-02
5692:-1.6223840180989357e-01
5693:-1.2984304772664634e-01
5694:-9.4227421902993699e-02
5695:-7.2216639793275264e-02
5696:2.2939977986698737e-02
5697:1.7515751661556032e-02
5698:9.4460429357609010e-03
5699:3.1924879795815269e-03
5700:-2.5842387507402842e-03
5701:-2.6566322122163143e-03
5702:-6.5756962325406176e-03
5703:-1.1971621528986592e-02
5704:-3.6421228007264321e-02
5705:-2.8736920759825726e-02
5706:-2.5195748662865215e-02
5707:-2.7151620124062546e-02
5708:-6.2434694685795045e-02
5709:-4.8097292910038357e-02
5710:-3.7243407682488808e-02
5711:-3.4853924319255047e-02
5712:-8.2854633590417901e+00
5713:-7.3097990516784863e+00
5714:-6.2126784803094290e+00
5715:-5.4976093638048722e+00
5716:-8.4921615127317214e+00
5717:-7.5043437756921190e+00
5718:-6.3934249326497135e+00
5719:-5.6697244151256445e+00
5720:-8.6807753524474833e+00
5721:-7.6899089125027338e+00
5722:-6.5753711339311778e+00
5723:-5.8496305145496175e+00
5724:-8.7623890281955390e+00
5725:-7.7788391954181861e+00
5726:-6.6725298679614182e+00
5727:-5.9524126248117426e+00
5728:-5.1578363321066005e+00
5729:-4.5804964362972624e+00
5730:-3.9386377787687032e+00
5731:-3.5289632476323209e+00
5732:-5.3261370731327533e+00
5733:-4.7429813260963360e+00
5734:-4.0955726483818511e+00
5735:-3.6827219601160563e+00
5736:-5.5053529853113279e+00
5737:-4.9217847995871447e+00
5738:-4.2749347105297320e+00
5739:-3.8627866891456346e+00
5740:-5.6109972366222003e+00
5741:-5.0328287821472104e+00
5742:-4.3926859734257322e+00
5743:-3.9850338977538176e+00
5744:-3.3385012403581080e+00
5745:-3.0237401285093224e+00
5746:-2.6892957496623824e+00
5747:-2.4865007418621903e+00
5748:-3.4908009464976391e+00
5749:-3.1736295231780356e+00
5750:-2.8377777344782786e+00
5751:-2.6362042513136834e+00
5752:-3.6711572432388984e+00
5753:-3.3541693503199133e+00
5754:-3.0193138379858500e+00
5755:-2.8203981547007149e+00
5756:-3.7954445805104058e+00
5757:-3.4814327255729860e+00
5758:-3.1499519717222024e+00
5759:-2.9542793942783572e+00
5760:-2.3955928324042772e+00
5761:-2.2475219073836414e+00
5762:-2.0931423845332890e+00
5763:-2.0014225592723989e+00
5764:-2.5470540851552044e+00
5765:-2.4046459429373295e+00
5766:-2.2609934322197933e+00
5767:-2.1788844316717269e+00
5768:-2.7337341285150614e+00
5769:-2.5985809673147240e+00
5770:-2.4684241639022590e+00
5771:-2.3987565697359647e+00
5772:-2.8698754906927548e+00
5773:-2.7402151704905493e+00
5774:-2.6193327375647604e+00
5775:-2.5580706237860213e+00
5776:-1.9608518941959443e+00
5777:-1.8955010368150922e+00
5778:-1.8309490211533013e+00
5779:-1.7977358779149619e+00
5780:-2.1435489337778737e+00
5781:-2.0872138694489260e+00
5782:-2.0332112195345862e+00
5783:-2.0076301328153860e+00
5784:-2.3704547516236096e+00
5785:-2.3267607300906872e+00
5786:-2.2878368045360506e+00
5787:-2.2726507850440378e+00
5788:-2.5345984581015091e+00
5789:-2.5000601404016214e+00
5790:-2.4724701728307168e+00
5791:-2.4648889844963375e+00
5792:-1.7856789765832590e+00
5793:-1.7694069342789991e+00
5794:-1.7588021026138256e+00
5795:-1.7579732208296290e+00
5796:-1.9996096003359645e+00
5797:-1.9907949367584645e+00
5798:-1.9893012344545731e+00
5799:-1.9946615109710071e+00
5800:-2.2697276258297672e+00
5801:-2.2695070198122642e+00
5802:-2.2774102517194024e+00
5803:-2.2886838213431249e+00
5804:-2.4654550975355787e+00
5805:-2.4705860883190347e+00
5806:-2.4836441273655443e+00
5807:-2.4979346839093894e+00
5808:-1.7597261053448421e+00
5809:-1.7641823893763138e+00
5810:-1.7714997697153725e+00
5811:-1.7780718772353672e+00
5812:-1.9993398537947975e+00
5813:-2.0085661583599665e+00
5814:-2.0209901207132783e+00
5815:-2.0308761836590712e+00
5816:-2.2960912229436419e+00
5817:-2.3097516449244391e+00
5818:-2.3265576622989084e+00
5819:-2.3386612129205995e+00
5820:-2.5067562749397432e+00
5821:-2.5228125770107033e+00
5822:-2.5418364867242440e+00
5823:-2.5545809288014500e+00
5824:-1.7817178405568650e+00
5825:-1.7860911996284803e+00
5826:-1.7858013156724584e+00
5827:-1.7804481163303565e+00
5828:-2.0361548160481435e+00
5829:-2.0434295146988859e+00
5830:-2.0462196484656308e+00
5831:-2.0423319733438134e+00
5832:-2.3447163922312204e+00
5833:-2.3529764528398802e+00
5834:-2.3561008652763289e+00
5835:-2.3516613156439585e+00
5836:-2.5605183054160121e+00
5837:-2.5680160122425040e+00
5838:-2.5694248926737684e+00
5839:-2.5633516909627660e+00
5840:-1.7755690882165811e+00
5841:-1.7612895459563274e+00
5842:-1.7312395029485055e+00
5843:-1.6984508017989881e+00
5844:-2.0378271466762050e+00
5845:-2.0237269965650251e+00
5846:-1.9934783120839594e+00
5847:-1.9606818729244446e+00
5848:-2.3465649758282732e+00
5849:-2.3310503249351631e+00
5850:-2.2987297682554839e+00
5851:-2.2644558657420326e+00
5852:-2.5573437709965376e+00
5853:-2.5401768210279871e+00
5854:-2.5057873452355932e+00
5855:-2.4699528833908704e+00
5856:-1.6771682064313862e+00
5857:-1.6288800599114721e+00
5858:-1.5499987080815314e+00
5859:-1.4780119784081074e+00
5860:-1.9395900570128906e+00
5861:-1.8919738928591201e+00
5862:-1.8131561331864141e+00
5863:-1.7393325693762247e+00
5864:-2.2427252605681351e+00
5865:-2.1945707311590690e+00
5866:-2.1155290320307003e+00
5867:-2.0411029237086273e+00
5868:-2.4474102209171655e+00
5869:-2.3981743051519779e+00
5870:-2.3187387663279440e+00
5871:-2.2448478650958115e+00
5872:-1.4359674621306138e+00
5873:-1.3547443851019818e+00
5874:-1.2476848694473859e+00
5875:-1.1671093082713011e+00
5876:-1.6952327296731828e+00
5877:-1.6073125381431637e+00
5878:-1.4871664009573553e+00
5879:-1.3944401601676149e+00
5880:-1.9962294871866706e+00
5881:-1.9045840863234185e+00
5882:-1.7749270801774824e+00
5883:-1.6714112789138726e+00
5884:-2.2005316343774926e+00
5885:-2.1094631049957364e+00
5886:-1.9781829490315068e+00
5887:-1.8704703495108295e+00
5888:-1.1253812676671024e+00
5889:-1.0499452033408647e+00
5890:-9.5569889872496172e-01
5891:-8.8532870194468039e-01
5892:-1.3458820068536188e+00
5893:-1.2580329391812415e+00
5894:-1.1483006857454021e+00
5895:-1.0663749823043682e+00
5896:-1.6159304084024235e+00
5897:-1.5139533328300743e+00
5898:-1.3846163028770617e+00
5899:-1.2875300378423353e+00
5900:-1.8113949532358158e+00
5901:-1.7004451474759099e+00
5902:-1.5567021919867166e+00
5903:-1.4479178364224341e+00
5904:-8.4814960624225444e-01
5905:-7.7952300693376031e-01
5906:-6.9244636137705273e-01
5907:-6.2764884468725124e-01
5908:-1.0230752860070769e+00
5909:-9.4287762584739621e-01
5910:-8.4064753955863192e-01
5911:-7.6431462071265988e-01
5912:-1.2363198297791964e+00
5913:-1.1416688472073686e+00
5914:-1.0211904448745175e+00
5915:-9.3120955717267384e-01
5916:-1.3906527640057216e+00
5917:-1.2853054358315441e+00
5918:-1.1518352144844837e+00
5919:-1.0523157090281334e+00
5920:-5.9384659494401304e-01
5921:-5.3222593899684456e-01
5922:-4.5543121227039624e-01
5923:-3.9930183166673855e-01
5924:-7.2443560335978219e-01
5925:-6.5170282500533461e-01
5926:-5.6101548601354945e-01
5927:-4.9470880710818438e-01
5928:-8.8415091339246943e-01
5929:-7.9827142966653963e-01
5930:-6.9105415644120249e-01
5931:-6.1250767959576335e-01
5932:-1.0002365731423131e+00
5933:-9.0508266355741562e-01
5934:-7.8598664377699190e-01
5935:-6.9842883607233452e-01
5936:-3.7039536825286251e-01
5937:-3.1886355122180288e-01
5938:-2.5709260900220132e-01
5939:-2.1391229951842849e-01
5940:-4.6054198553873349e-01
5941:-3.9934761022369492e-01
5942:-3.2535345011066047e-01
5943:-2.7309437553280380e-01
5944:-5.7194585815342436e-01
5945:-4.9880117525466644e-01
5946:-4.0933668261192474e-01
5947:-3.4536883754952941e-01
5948:-6.5307225374426237e-01
5949:-5.7088671798277812e-01
5950:-4.6962539664968572e-01
5951:-3.9669974208267406e-01
5952:-1.9240150223321992e-01
5953:-1.5543791125248582e-01
5954:-1.1416619597897848e-01
5955:-8.8011491950973700e-02
5956:-2.4685151598064445e-01
5957:-2.0127770340641368e-01
5958:-1.4925662790261365e-01
5959:-1.1518092232574959e-01
5960:-3.1296126635387106e-01
5961:-2.5608400613854598e-01
5962:-1.8984976232174494e-01
5963:-1.4528314317469360e-01
5964:-3.5957481752880349e-01
5965:-2.9401673446596255e-01
5966:-2.1684818109813467e-01
5967:-1.6424285055229440e-01
5968:-7.6080848452485889e-02
5969:-5.7912321742137660e-02
5970:-4.2603532179951734e-02
5971:-3.7334415057559189e-02
5972:-9.9134001964597540e-02
5973:-7.3602096769950373e-02
5974:-4.9613317843494868e-02
5975:-3.8569391680411645e-02
5976:-1.2379481542995402e-01
5977:-8.8505803444565614e-02
5978:-5.2821588060132187e-02
5979:-3.3706165233294262e-02
5980:-1.3860638898961644e-01
5981:-9.5839160314181771e-02
5982:-5.0991396949249958e-02
5983:-2.5293590972355114e-02
5984:-8.7835327919945723e+00
5985:-7.8072453892839917e+00
5986:-6.7092027486770940e+00
5987:-5.9946562153126761e+00
5988:-8.7825071027848161e+00
5989:-7.8263376721166296e+00
5990:-6.7513733641578337e+00
5991:-6.0523429205734240e+00
5992:-8.7006254356479253e+00
5993:-7.7836647514811865e+00
5994:-6.7538772487941401e+00
5995:-6.0851368203962002e+00
5996:-8.5756763056910081e+00
5997:-7.6988139262820825e+00
5998:-6.7152627524876323e+00
5999:-6.0774254719468050e+00
6000:-5.6559944581901505e+00
6001:-5.0827865998356456e+00
6002:-4.4485398646846210e+00
6003:-4.0447852552097130e+00
6004:-5.7212757099759575e+00
6005:-5.1615176785842909e+00
6006:-4.5431985913523505e+00
6007:-4.1502916230410207e+00
6008:-5.7687758193878746e+00
6009:-5.2346320105744883e+00
6010:-4.6463539211983589e+00
6011:-4.2742084792921888e+00
6012:-5.7759831636952983e+00
6013:-5.2675044474190829e+00
6014:-4.7089735142828282e+00
6015:-4.3573907404337575e+00
6016:-3.8569914653771482e+00
6017:-3.5457175071056199e+00
6018:-3.2171813526776272e+00
6019:-3.0238357625556045e+00
6020:-3.9677433080574906e+00
6021:-3.6650771187056139e+00
6022:-3.3460594116807831e+00
6023:-3.1593614193703319e+00
6024:-4.1019910757711822e+00
6025:-3.8170327098885326e+00
6026:-3.5178297950693800e+00
6027:-3.3438665920992650e+00
6028:-4.1955010786035247e+00
6029:-3.9285167037546551e+00
6030:-3.6493056264152961e+00
6031:-3.4874578637419513e+00
6032:-2.9408427955802847e+00
6033:-2.8141169920772473e+00
6034:-2.6975980801918014e+00
6035:-2.6400905537881685e+00
6036:-3.0798308591155030e+00
6037:-2.9590304213481033e+00
6038:-2.8494611343667633e+00
6039:-2.7970824824424616e+00
6040:-3.2702106792709977e+00
6041:-3.1579356269047310e+00
6042:-3.0558752705435279e+00
6043:-3.0077670018159539e+00
6044:-3.4189375325654447e+00
6045:-3.3135585988300424e+00
6046:-3.2168128567195522e+00
6047:-3.1714835234987984e+00
6048:-2.6187697008028405e+00
6049:-2.5885211572254079e+00
6050:-2.5664449232153581e+00
6051:-2.5625164362864177e+00
6052:-2.7785737684206948e+00
6053:-2.7542494756030562e+00
6054:-2.7401564078019462e+00
6055:-2.7415600802978304e+00
6056:-2.9914323736991384e+00
6057:-2.9720998192066350e+00
6058:-2.9650874945341101e+00
6059:-2.9711100501566974e+00
6060:-3.1566257845824817e+00
6061:-3.1406071689313961e+00
6062:-3.1380165699055795e+00
6063:-3.1465962392044293e+00
6064:-2.5646799986242335e+00
6065:-2.5720946562789462e+00
6066:-2.5871420810948349e+00
6067:-2.6025575922735129e+00
6068:-2.7460119763032127e+00
6069:-2.7566317369184321e+00
6070:-2.7742712628549655e+00
6071:-2.7909176492658796e+00
6072:-2.9774094214680131e+00
6073:-2.9905318617377721e+00
6074:-3.0097560884674235e+00
6075:-3.0264387021967298e+00
6076:-3.1537460096208880e+00
6077:-3.1679380143765266e+00
6078:-3.1873300116476924e+00
6079:-3.2029138994345616e+00
6080:-2.6119395915803163e+00
6081:-2.6289988053915798e+00
6082:-2.6489093181315604e+00
6083:-2.6617259076674684e+00
6084:-2.8008155764049660e+00
6085:-2.8185467412653882e+00
6086:-2.8383746617795085e+00
6087:-2.8500766304172109e+00
6088:-3.0359614980485907e+00
6089:-3.0521521140850880e+00
6090:-3.0684065326891261e+00
6091:-3.0762624294083256e+00
6092:-3.2113350749100706e+00
6093:-3.2245355883845548e+00
6094:-3.2356041271201224e+00
6095:-3.2389528184700449e+00
6096:-2.6674182131781183e+00
6097:-2.6741365004777893e+00
6098:-2.6741935329916209e+00
6099:-2.6670400593118839e+00
6100:-2.8547389910144219e+00
6101:-2.8591783330950551e+00
6102:-2.8560064373889733e+00
6103:-2.8464639618284608e+00
6104:-3.0785394187420376e+00
6105:-3.0784605676861965e+00
6106:-3.0695293819291116e+00
6107:-3.0557668824014455e+00
6108:-3.2387762795202724e+00
6109:-3.2342143201074474e+00
6110:-3.2195509491872176e+00
6111:-3.2013525917497581e+00
6112:-2.6605019609038481e+00
6113:-2.6424566158711582e+00
6114:-2.6070335161016276e+00
6115:-2.5703904168693046e+00
6116:-2.8387603893341526e+00
6117:-2.8187011265594730e+00
6118:-2.7808113640650576e+00
6119:-2.7422557852763711e+00
6120:-3.0459045570780385e+00
6121:-3.0218909301652266e+00
6122:-2.9789494585049399e+00
6123:-2.9365476646643640e+00
6124:-3.1890786467701879e+00
6125:-3.1605243884135614e+00
6126:-3.1117124868878627e+00
6127:-3.0649093505835023e+00
6128:-2.5473915067502655e+00
6129:-2.4974616991293104e+00
6130:-2.4177597692833279e+00
6131:-2.3444009147516915e+00
6132:-2.7182016791353694e+00
6133:-2.6665239017413431e+00
6134:-2.5855205744592209e+00
6135:-2.5123263600292280e+00
6136:-2.9104470359015995e+00
6137:-2.8551837108167044e+00
6138:-2.7704305756630285e+00
6139:-2.6954121128194011e+00
6140:-3.0365183403566487e+00
6141:-2.9771701249094353e+00
6142:-2.8876406548816251e+00
6143:-2.8094893178310896e+00
6144:-2.3006859637781316e+00
6145:-2.2109282195571782e+00
6146:-2.0805514963164220e+00
6147:-1.9719461854608260e+00
6148:-2.4692173828087811e+00
6149:-2.3811209245103431e+00
6150:-2.2522275180317659e+00
6151:-2.1427852109711916e+00
6152:-2.6518000507731778e+00
6153:-2.5634970649088755e+00
6154:-2.4346875154305803e+00
6155:-2.3246307395885246e+00
6156:-2.7644295036992075e+00
6157:-2.6739352045359186e+00
6158:-2.5433151681958250e+00
6159:-2.4326740335708155e+00
6160:-1.9115537969462764e+00
6161:-1.7965401342720475e+00
6162:-1.6454985962312640e+00
6163:-1.5305786824758436e+00
6164:-2.0808172852899518e+00
6165:-1.9604569040408539e+00
6166:-1.7991229402271387e+00
6167:-1.6750131038611564e+00
6168:-2.2618036302984503e+00
6169:-2.1383429666909786e+00
6170:-1.9701832263915520e+00
6171:-1.8388925390221680e+00
6172:-2.3698117843245270e+00
6173:-2.2464359963043359e+00
6174:-2.0775381298163031e+00
6175:-1.9440629481745546e+00
6176:-1.4701413225677218e+00
6177:-1.3592712738601385e+00
6178:-1.2191996906015403e+00
6179:-1.1148565203820962e+00
6180:-1.6095818274263385e+00
6181:-1.4895290770032281e+00
6182:-1.3377094263791387e+00
6183:-1.2243927520780802e+00
6184:-1.7689981290654337e+00
6185:-1.6395495028826086e+00
6186:-1.4739711235641391e+00
6187:-1.3493900229215092e+00
6188:-1.8721530055370768e+00
6189:-1.7373154268011299e+00
6190:-1.5624752777022992e+00
6191:-1.4298878754182729e+00
6192:-1.0602273963510067e+00
6193:-9.6031089386603674e-01
6194:-8.3499660778557638e-01
6195:-7.4262003088632722e-01
6196:-1.1649537812461819e+00
6197:-1.0559915886423794e+00
6198:-9.1882424343812907e-01
6199:-8.1730174533796707e-01
6200:-1.2838219222686977e+00
6201:-1.1633228528332202e+00
6202:-1.0111925183510919e+00
6203:-8.9839302131537302e-01
6204:-1.3599644415210492e+00
6205:-1.2313757813340662e+00
6206:-1.0690989807859650e+00
6207:-9.4904107885706313e-01
6208:-6.9466494130642165e-01
6209:-6.0759084666920460e-01
6210:-4.9999764023721305e-01
6211:-4.2230857913628095e-01
6212:-7.6445700214124357e-01
6213:-6.6840208972560700e-01
6214:-5.4956311107813571e-01
6215:-4.6365520985795938e-01
6216:-8.3966219138000597e-01
6217:-7.3316248508557147e-01
6218:-6.0185469546237047e-01
6219:-5.0719610263305237e-01
6220:-8.8669213357932475e-01
6221:-7.7400363343982514e-01
6222:-6.3564423708940221e-01
6223:-5.3620678144885403e-01
6224:-3.8269191018789250e-01
6225:-3.1255224242767193e-01
6226:-2.2962831522009766e-01
6227:-1.7281723009275909e-01
6228:-4.1980685804503826e-01
6229:-3.4193028546561799e-01
6230:-2.4932718219974953e-01
6231:-1.8544533855434922e-01
6232:-4.5893661787580720e-01
6233:-3.7305423243313274e-01
6234:-2.7045299312177051e-01
6235:-1.9920758816871173e-01
6236:-4.8557051499627502e-01
6237:-3.9538239727559304e-01
6238:-2.8733561851511996e-01
6239:-2.1195466832676432e-01
6240:-1.4502118980067571e-01
6241:-9.8331875693715751e-02
6242:-4.8577651618252879e-02
6243:-1.9245439572959162e-02
6244:-1.5400554541247927e-01
6245:-1.0057082160502892e-01
6246:-4.2100393423276643e-02
6247:-6.0926603037402367e-03
6248:-1.6392173303419405e-01
6249:-1.0311655488228168e-01
6250:-3.4607922994518786e-02
6251:9.4725168687619186e-03
6252:-1.7443949305168954e-01
6253:-1.0916603900549489e-01
6254:-3.4193032949999411e-02
6255:1.5356113459885598e-02
6256:-8.4872359309657508e+00
6257:-7.6353202963681222e+00
6258:-6.6805203942763205e+00
6259:-6.0618641923496357e+00
6260:-8.2844812889578563e+00
6261:-7.4859625417617321e+00
6262:-6.5926838490058133e+00
6263:-6.0151828802488989e+00
6264:-7.9533397955472998e+00
6265:-7.2365431631921870e+00
6266:-6.4372456440851007e+00
6267:-5.9227240607592346e+00
6268:-7.6534492427575005e+00
6269:-7.0076664263936639e+00
6270:-6.2898023496121844e+00
6271:-5.8298282201138116e+00
6272:-5.7696575681568785e+00
6273:-5.2769696772592152e+00
6274:-4.7365977431770361e+00
6275:-4.3975115434324330e+00
6276:-5.7428690497956527e+00
6277:-5.2842312287415369e+00
6278:-4.7827612358812921e+00
6279:-4.4699623868446174e+00
6280:-5.6809670626684641e+00
6281:-5.2747667332068984e+00
6282:-4.8328581817941343e+00
6283:-4.5594789728464873e+00
6284:-5.6145800526436265e+00
6285:-5.2539640525261930e+00
6286:-4.8636351876627373e+00
6287:-4.6238774005335515e+00
6288:-4.2418972734274396e+00
6289:-3.9858395578784358e+00
6290:-3.7186349566004280e+00
6291:-3.5637890779509123e+00
6292:-4.3272929743785999e+00
6293:-4.0933596471828695e+00
6294:-3.8499944603954908e+00
6295:-3.7089379873899424e+00
6296:-4.4357629401282912e+00
6297:-4.2336118402027081e+00
6298:-4.0240542313079137e+00
6299:-3.9028363109579702e+00
6300:-4.5160418463889940e+00
6301:-4.3403222722103987e+00
6302:-4.1590659408004900e+00
6303:-4.0550941162037972e+00
6304:-3.4980888737553206e+00
6305:-3.3964532264973886e+00
6306:-3.3026815523599011e+00
6307:-3.2591208615409086e+00
6308:-3.6488589282290596e+00
6309:-3.5553808991821230e+00
6310:-3.4692530744213443e+00
6311:-3.4305709276847551e+00
6312:-3.8512023252792282e+00
6313:-3.7711690039980170e+00
6314:-3.6989865798302182e+00
6315:-3.6689279199575431e+00
6316:-4.0112105531272046e+00
6317:-3.9439732272387937e+00
6318:-3.8849978223681867e+00
6319:-3.8621707927828095e+00
6320:-3.2452862184104623e+00
6321:-3.2313197375986782e+00
6322:-3.2311318945311758e+00
6323:-3.2409042012147387e+00
6324:-3.4193105122187446e+00
6325:-3.4094463977972498e+00
6326:-3.4126215417897088e+00
6327:-3.4231183576001194e+00
6328:-3.6616354443927128e+00
6329:-3.6567112549979135e+00
6330:-3.6617712576905017e+00
6331:-3.6708010194841325e+00
6332:-3.8576070810323211e+00
6333:-3.8552220926191110e+00
6334:-3.8597689604833345e+00
6335:-3.8666518771517775e+00
6336:-3.2483645446280573e+00
6337:-3.2628903279123564e+00
6338:-3.2820202399509295e+00
6339:-3.2966002191301951e+00
6340:-3.4302789461657648e+00
6341:-3.4439080726933895e+00
6342:-3.4608700041234384e+00
6343:-3.4725307409853707e+00
6344:-3.6763798698127363e+00
6345:-3.6867319301280541e+00
6346:-3.6984074229650168e+00
6347:-3.7046814842653415e+00
6348:-3.8708031976469863e+00
6349:-3.8781999846120785e+00
6350:-3.8850882697240170e+00
6351:-3.8866265652233705e+00
6352:-3.3041316887971299e+00
6353:-3.3151281548259610e+00
6354:-3.3227004827984405e+00
6355:-3.3232432784689889e+00
6356:-3.4779458180043723e+00
6357:-3.4843501109581871e+00
6358:-3.4852797808111338e+00
6359:-3.4806422729541402e+00
6360:-3.7066477404760905e+00
6361:-3.7063314473993647e+00
6362:-3.6981770799211682e+00
6363:-3.6863155548903275e+00
6364:-3.8856417301484520e+00
6365:-3.8797191630491525e+00
6366:-3.8638122537132511e+00
6367:-3.8452535976257858e+00
6368:-3.3216208445722253e+00
6369:-3.3143899140035953e+00
6370:-3.2961673468758490e+00
6371:-3.2750565364118920e+00
6372:-3.4763178865862998e+00
6373:-3.4637156854745039e+00
6374:-3.4376614002788290e+00
6375:-3.4097981615195518e+00
6376:-3.6780053114075475e+00
6377:-3.6570121662211594e+00
6378:-3.6181962754924899e+00
6379:-3.5792594820349217e+00
6380:-3.8329854920170638e+00
6381:-3.8037695255050878e+00
6382:-3.7529409788476817e+00
6383:-3.7040588847510629e+00
6384:-3.2611380534234944e+00
6385:-3.2294678084927058e+00
6386:-3.1766353494072481e+00
6387:-3.1268473691811063e+00
6388:-3.3920082208793434e+00
6389:-3.3530373549230288e+00
6390:-3.2908505136174293e+00
6391:-3.2341481717187848e+00
6392:-3.5551730751783586e+00
6393:-3.5043286547098265e+00
6394:-3.4268648911490640e+00
6395:-3.3587908480854787e+00
6396:-3.6744893285271867e+00
6397:-3.6132449873090393e+00
6398:-3.5221960426163847e+00
6399:-3.4438438611818678e+00
6400:-3.0969187320750944e+00
6401:-3.0348156831024071e+00
6402:-2.9419571073676662e+00
6403:-2.8614621582309501e+00
6404:-3.2006610658909467e+00
6405:-3.1321489807057499e+00
6406:-3.0314626837418230e+00
6407:-2.9453832871954639e+00
6408:-3.3194137205118244e+00
6409:-3.2402294979086297e+00
6410:-3.1263937485337077e+00
6411:-3.0308501306668698e+00
6412:-3.3990839472245415e+00
6413:-3.3101029614847151e+00
6414:-3.1841307208010781e+00
6415:-3.0798059517631522e+00
6416:-2.8152323648154112e+00
6417:-2.7228132315801314e+00
6418:-2.5904929086335229e+00
6419:-2.4794008779399865e+00
6420:-2.8963356754892078e+00
6421:-2.7991801513260963e+00
6422:-2.6622274725267614e+00
6423:-2.5491449017427978e+00
6424:-2.9769995384065719e+00
6425:-2.8716526977609456e+00
6426:-2.7259999417799499e+00
6427:-2.6080438807871897e+00
6428:-3.0214840626141597e+00
6429:-2.9084413861450420e+00
6430:-2.7542198352173122e+00
6431:-2.6308679592995938e+00
6432:-2.4166627875653890e+00
6433:-2.2939908340887500e+00
6434:-2.1259387703470813e+00
6435:-1.9922022599945119e+00
6436:-2.4859983162633235e+00
6437:-2.3634357232648684e+00
6438:-2.1957676246754052e+00
6439:-2.0612513265785068e+00
6440:-2.5430048082108989e+00
6441:-2.4179279775320568e+00
6442:-2.2480914413378157e+00
6443:-2.1119932404789763e+00
6444:-2.5633823657549497e+00
6445:-2.4345648274217098e+00
6446:-2.2615970829720804e+00
6447:-2.1245068194234444e+00
6448:-1.9195898380618035e+00
6449:-1.7824084080840095e+00
6450:-1.6031539181040775e+00
6451:-1.4667013493374312e+00
6452:-1.9875017033352782e+00
6453:-1.8470950636240500e+00
6454:-1.6623368685497519e+00
6455:-1.5213440577658002e+00
6456:-2.0372450594464886e+00
6457:-1.8951955012895023e+00
6458:-1.7089119972794213e+00
6459:-1.5672477202893103e+00
6460:-2.0497645586689059e+00
6461:-1.9088947252440902e+00
6462:-1.7257909536203808e+00
6463:-1.5872011323893145e+00
6464:-1.3947073430284449e+00
6465:-1.2623499069730963e+00
6466:-1.0955452045424272e+00
6467:-9.7245604419129672e-01
6468:-1.4470032334277383e+00
6469:-1.3104497720135966e+00
6470:-1.1387921180351230e+00
6471:-1.0126659182199360e+00
6472:-1.4927180152467128e+00
6473:-1.3559083028643342e+00
6474:-1.1842129045592036e+00
6475:-1.0584215313292127e+00
6476:-1.5143495750592157e+00
6477:-1.3805002187368371e+00
6478:-1.2122778381104837e+00
6479:-1.0888588292436954e+00
6480:-9.0868463788287279e-01
6481:-7.9363468010266125e-01
6482:-6.5266253121024287e-01
6483:-5.5147354489869371e-01
6484:-9.4755755559046151e-01
6485:-8.3019363523292378e-01
6486:-6.8639498718888714e-01
6487:-5.8308490610741415e-01
6488:-9.9362261567831645e-01
6489:-8.7646737309948419e-01
6490:-7.3216844154952199e-01
6491:-6.2796493699808398e-01
6492:-1.0252026769354328e+00
6493:-9.0963189410721501e-01
6494:-7.6647201498371709e-01
6495:-6.6264767232346733e-01
6496:-4.9996007449308272e-01
6497:-4.0816530709280835e-01
6498:-2.9801705793336497e-01
6499:-2.2095456065118071e-01
6500:-5.3042790294311493e-01
6501:-4.3642757161184498e-01
6502:-3.2318625532471418e-01
6503:-2.4350118003690149e-01
6504:-5.7467539592434658e-01
6505:-4.7921680256009008e-01
6506:-3.6351329309704411e-01
6507:-2.8148613116303700e-01
6508:-6.0944211044751162e-01
6509:-5.1386993140035542e-01
6510:-3.9751495245546503e-01
6511:-3.1464630637981639e-01
6512:-1.8249409836986991e-01
6513:-1.1525384583223242e-01
6514:-3.7305538307170552e-02
6515:1.4849138721280873e-02
6516:-2.0352371869702307e-01
6517:-1.3309661799876762e-01
6518:-5.0261073768588127e-02
6519:6.2362765500580458e-03
6520:-2.4008939698981815e-01
6521:-1.6661106841586537e-01
6522:-7.8926843779114589e-02
6523:-1.7962486521478561e-02
6524:-2.7269004384359291e-01
6525:-1.9789853312894090e-01
6526:-1.0786952271199317e-01
6527:-4.4530939337631165e-02
6528:-7.4788987544455594e+00
6529:-6.8736330960565368e+00
6530:-6.2021237349128349e+00
6531:-5.7731588325766277e+00
6532:-7.1253931759662104e+00
6533:-6.6004120824281935e+00
6534:-6.0204597738282990e+00
6535:-5.6524635798267227e+00
6536:-6.6189828737650060e+00
6537:-6.2057102659240089e+00
6538:-5.7526062706586014e+00
6539:-5.4685422901610616e+00
6540:-6.2018844678088527e+00
6541:-5.8783195176316791e+00
6542:-5.5266978831564124e+00
6543:-5.3094053549986961e+00
6544:-5.5729800813852748e+00
6545:-5.2382929338393049e+00
6546:-4.8772297897008992e+00
6547:-4.6563890033193411e+00
6548:-5.4818005721998633e+00
6549:-5.1977724362728335e+00
6550:-4.8937189136776782e+00
6551:-4.7096482484477544e+00
6552:-5.3382939911986256e+00
6553:-5.1234916043191898e+00
6554:-4.8972930144516784e+00
6555:-4.7635552720670473e+00
6556:-5.2111617889452919e+00
6557:-5.0512052044534954e+00
6558:-4.8869282501679807e+00
6559:-4.7935357803054952e+00
6560:-4.5574063057013703e+00
6561:-4.3964445439786539e+00
6562:-4.2312294495532008e+00
6563:-4.1373809861091200e+00
6564:-4.6278763420720281e+00
6565:-4.4959183526356785e+00
6566:-4.3628922943276178e+00
6567:-4.2898786927324064e+00
6568:-4.7054475446733299e+00
6569:-4.6137669145313902e+00
6570:-4.5261369748254223e+00
6571:-4.4829455574615888e+00
6572:-4.7545421592025940e+00
6573:-4.6954488415795685e+00
6574:-4.6444945171629559e+00
6575:-4.6252497172859508e+00
6576:-4.0982166426982438e+00
6577:-4.0387695785807827e+00
6578:-3.9875184461440756e+00
6579:-3.9684047895714420e+00
6580:-4.2605886797055632e+00
6581:-4.2172074319533541e+00
6582:-4.1814571810810230e+00
6583:-4.1695284825505912e+00
6584:-4.4678971607875129e+00
6585:-4.4475905974900858e+00
6586:-4.4342399182786219e+00
6587:-4.4332067891322771e+00
6588:-4.6215707816435749e+00
6589:-4.6199558869383877e+00
6590:-4.6256802247958824e+00
6591:-4.6350989974097603e+00
6592:-3.9649495769221712e+00
6593:-3.9632534565240198e+00
6594:-3.9669716823183427e+00
6595:-3.9727299288362934e+00
6596:-4.1681585734413931e+00
6597:-4.1684394193558942e+00
6598:-4.1726554294353004e+00
6599:-4.1784628590856965e+00
6600:-4.4354394433402042e+00
6601:-4.4406816627652343e+00
6602:-4.4494413219394238e+00
6603:-4.4582326153456613e+00
6604:-4.6414593607998107e+00
6605:-4.6529033749960469e+00
6606:-4.6673128292347643e+00
6607:-4.6788678327806448e+00
6608:-3.9763191692694839e+00
6609:-3.9824264287626661e+00
6610:-3.9869066023032094e+00
6611:-3.9858918930994198e+00
6612:-4.1822244749518651e+00
6613:-4.1875102461315858e+00
6614:-4.1881954041962803e+00
6615:-4.1820646285924363e+00
6616:-4.4635462008406099e+00
6617:-4.4694393133271575e+00
6618:-4.4660361589018507e+00
6619:-4.4531561073419654e+00
6620:-4.6851357190749372e+00
6621:-4.6910888939991802e+00
6622:-4.6844877236996796e+00
6623:-4.6669014151712469e+00
6624:-3.9832804856933621e+00
6625:-3.9741874666638148e+00
6626:-3.9536205130898128e+00
6627:-3.9307521565191639e+00
6628:-4.1759558975121802e+00
6629:-4.1595420484178192e+00
6630:-4.1276059528187750e+00
6631:-4.0942035607635461e+00
6632:-4.4422295757186845e+00
6633:-4.4149378526182463e+00
6634:-4.3651972454715322e+00
6635:-4.3152938086881214e+00
6636:-4.6527137419323754e+00
6637:-4.6175361090795137e+00
6638:-4.5542687382643408e+00
6639:-4.4917937144566320e+00
6640:-3.9158483943603439e+00
6641:-3.8813474833199719e+00
6642:-3.8232276565504031e+00
6643:-3.7686285146101568e+00
6644:-4.0729882763981440e+00
6645:-4.0265254265057822e+00
6646:-3.9530933350540360e+00
6647:-3.8872211564009214e+00
6648:-4.2843556654930506e+00
6649:-4.2198313754328582e+00
6650:-4.1237630997695467e+00
6651:-4.0414041176358761e+00
6652:-4.4535014867498459e+00
6653:-4.3748681542236332e+00
6654:-4.2600147808616526e+00
6655:-4.1630150037693898e+00
6656:-3.7360085129245864e+00
6657:-3.6689453002137178e+00
6658:-3.5701844591564251e+00
6659:-3.4859114805030016e+00
6660:-3.8487914246902295e+00
6661:-3.7706647724600844e+00
6662:-3.6571475934753628e+00
6663:-3.5614211909553739e+00
6664:-3.9944992499124470e+00
6665:-3.9004103887694708e+00
6666:-3.7658272949603280e+00
6667:-3.6537836551143879e+00
6668:-4.1082503226054961e+00
6669:-3.9995683438064105e+00
6670:-3.8461994308168874e+00
6671:-3.7198584573036486e+00
6672:-3.4380213968137046e+00
6673:-3.3433281178362022e+00
6674:-3.2102596737946878e+00
6675:-3.1007872062706827e+00
6676:-3.5074213275116533e+00
6677:-3.4015538105467602e+00
6678:-3.2545788731651721e+00
6679:-3.1350032693167025e+00
6680:-3.5910612202475152e+00
6681:-3.4693289130349472e+00
6682:-3.3028177798732044e+00
6683:-3.1692161603958633e+00
6684:-3.6495571210948281e+00
6685:-3.5142248960214486e+00
6686:-3.3313484145499910e+00
6687:-3.1862985304627665e+00
6688:-3.0398395698667882e+00
6689:-2.9222514807277133e+00
6690:-2.7628480964033280e+00
6691:-2.6360687107986149e+00
6692:-3.0688970858070861e+00
6693:-2.9423519064337316e+00
6694:-2.7726653851473055e+00
6695:-2.6390123090995026e+00
6696:-3.0960060070677913e+00
6697:-2.9571487903438247e+00
6698:-2.7733529672699482e+00
6699:-2.6302862136810079e+00
6700:-3.1073946808053825e+00
6701:-2.9587512665418187e+00
6702:-2.7638808333605098e+00
6703:-2.6135390291107052e+00
6704:-2.5669483897193510e+00
6705:-2.4356049865965024e+00
6706:-2.2607083946104476e+00
6707:-2.1234276390518225e+00
6708:-2.5665924650805665e+00
6709:-2.4302719146911884e+00
6710:-2.2518004779224117e+00
6711:-2.1144011755142689e+00
6712:-2.5533544074454024e+00
6713:-2.4102090178740996e+00
6714:-2.2265304278581906e+00
6715:-2.0882722008067818e+00
6716:-2.5331464496690832e+00
6717:-2.3844801210584285e+00
6718:-2.1956535464187934e+00
6719:-2.0551183343744173e+00
6720:-2.0491046848212520e+00
6721:-1.9098470224812196e+00
6722:-1.7298508624786244e+00
6723:-1.5938919109649117e+00
6724:-2.0410193504761871e+00
6725:-1.9046856517017519e+00
6726:-1.7297415232235021e+00
6727:-1.5978144598327204e+00
6728:-2.0155652456248583e+00
6729:-1.8814281472564256e+00
6730:-1.7102885952542575e+00
6731:-1.5814276616969154e+00
6732:-1.9817893191726663e+00
6733:-1.8471093921677246e+00
6734:-1.6762646355906337e+00
6735:-1.5482913232452389e+00
6736:-1.5223812621213633e+00
6737:-1.3908287362881202e+00
6738:-1.2251443221500260e+00
6739:-1.1032935158164083e+00
6740:-1.5282931556813770e+00
6741:-1.4001926030244449e+00
6742:-1.2384184091016974e+00
6743:-1.1190386197871529e+00
6744:-1.5134493788649788e+00
6745:-1.3882776356492523e+00
6746:-1.2303079330223567e+00
6747:-1.1136972547958588e+00
6748:-1.4809929839452487e+00
6749:-1.3574901913325581e+00
6750:-1.2023243019693193e+00
6751:-1.0882062689248038e+00
6752:-1.0403285396649951e+00
6753:-9.2574987948270848e-01
6754:-7.8345387161409286e-01
6755:-6.8011944561392457e-01
6756:-1.0571925707326300e+00
6757:-9.4453406163233100e-01
6758:-8.0465997750411988e-01
6759:-7.0332396208210013e-01
6760:-1.0532626105518323e+00
6761:-9.4359128654793589e-01
6762:-8.0845875569911030e-01
6763:-7.1147621468596833e-01
6764:-1.0291982946543847e+00
6765:-9.2262462118974820e-01
6766:-7.9232446048140648e-01
6767:-6.9957137874815045e-01
6768:-6.2715199306635527e-01
6769:-5.3189160316255413e-01
6770:-4.1569850018566129e-01
6771:-3.3280754873335205e-01
6772:-6.5150985314184340e-01
6773:-5.5825052846543255e-01
6774:-4.4432840395833689e-01
6775:-3.6296911873554283e-01
6776:-6.6222977612284140e-01
6777:-5.7376636812066373e-01
6778:-4.6595729523029661e-01
6779:-3.8917545992006974e-01
6780:-6.5273404749797037e-01
6781:-5.6891384142693879e-01
6782:-4.6731854531484751e-01
6783:-3.9537017503727240e-01
6784:-2.9079661446123795e-01
6785:-2.1576718591446253e-01
6786:-1.2508713206904934e-01
6787:-6.0931796779443700e-02
6788:-3.2170661579372534e-01
6789:-2.4779350932449876e-01
6790:-1.5788566737880319e-01
6791:-9.3721248844867461e-02
6792:-3.5030163642404788e-01
6793:-2.8053212450331078e-01
6794:-1.9527414379378255e-01
6795:-1.3405604998100432e-01
6796:-3.5907661105756083e-01
6797:-2.9403111869604776e-01
6798:-2.1469564753423739e-01
6799:-1.5784508084202736e-01
6800:-5.9709842889036686e+00
6801:-5.6962545018794941e+00
6802:-5.3997570489957925e+00
6803:-5.2186090068007385e+00
6804:-5.5212819257689851e+00
6805:-5.3390093807902144e+00
6806:-5.1468790927237125e+00
6807:-5.0340234012769729e+00
6808:-4.9080546216511660e+00
6809:-4.8468315989683388e+00
6810:-4.7916509031726928e+00
6811:-4.7683633527666904e+00
6812:-4.4235103852932545e+00
6813:-4.4544611709635298e+00
6814:-4.5040094382535525e+00
6815:-4.5493569762356962e+00
6816:-5.1376418121414114e+00
6817:-5.0073376704028929e+00
6818:-4.8767046858781447e+00
6819:-4.8054107241327157e+00
6820:-4.9856135838633175e+00
6821:-4.9112261490814841e+00
6822:-4.8442644355054929e+00
6823:-4.8150787968091935e+00
6824:-4.7625533563488309e+00
6825:-4.7612046233421559e+00
6826:-4.7773995322103193e+00
6827:-4.8033987625309660e+00
6828:-4.5761665930593907e+00
6829:-4.6304850992564468e+00
6830:-4.7096676965855604e+00
6831:-4.7773015754719426e+00
6832:-4.7769576654583137e+00
6833:-4.7357805175385890e+00
6834:-4.7047974836705686e+00
6835:-4.6983943632956686e+00
6836:-4.8068334860013300e+00
6837:-4.7999064752524818e+00
6838:-4.8066891066891397e+00
6839:-4.8240911138322327e+00
6840:-4.8217614185006390e+00
6841:-4.8600184814553797e+00
6842:-4.9164726763507423e+00
6843:-4.9647898520806288e+00
6844:-4.8157390834535487e+00
6845:-4.8883885777876293e+00
6846:-4.9831012433310393e+00
6847:-5.0554108237912558e+00
6848:-4.7007419116340357e+00
6849:-4.7092286427917509e+00
6850:-4.7258304129142612e+00
6851:-4.7418248762805044e+00
6852:-4.8374137290103079e+00
6853:-4.8645198181494473e+00
6854:-4.9019846659429520e+00
6855:-4.9315146113894111e+00
6856:-4.9921432576706843e+00
6857:-5.0429821617521595e+00
6858:-5.1074352940371730e+00
6859:-5.1552255455674620e+00
6860:-5.0936404640456141e+00
6861:-5.1623936463480131e+00
6862:-5.2464956825111804e+00
6863:-5.3073194899928149e+00
6864:-4.7510689452406751e+00
6865:-4.7668170183070844e+00
6866:-4.7847125625104914e+00
6867:-4.7973346798143197e+00
6868:-4.9471014502607300e+00
6869:-4.9722410896267828e+00
6870:-4.9971003777920071e+00
6871:-5.0108484276231327e+00
6872:-5.1797697681702060e+00
6873:-5.2186383446913815e+00
6874:-5.2542265580827774e+00
6875:-5.2699965710150147e+00
6876:-5.3383069458884727e+00
6877:-5.3879585182835070e+00
6878:-5.4338295844060109e+00
6879:-5.4535896274727209e+00
6880:-4.8036256672830362e+00
6881:-4.8089223937764976e+00
6882:-4.8003588300436055e+00
6883:-4.7806002259492484e+00
6884:-5.0163025670714658e+00
6885:-5.0191998493320833e+00
6886:-5.0068116009624033e+00
6887:-4.9840721575683737e+00
6888:-5.2742909885010407e+00
6889:-5.2737109235225716e+00
6890:-5.2560140600733387e+00
6891:-5.2296454470477993e+00
6892:-5.4583930356381041e+00
6893:-5.4565404691726540e+00
6894:-5.4343527359178108e+00
6895:-5.4035625956275162e+00
6896:-4.7650332870052248e+00
6897:-4.7263118540428009e+00
6898:-4.6567107226632078e+00
6899:-4.5883237727592983e+00
6900:-4.9669359015540246e+00
6901:-4.9237313073179196e+00
6902:-4.8454505416452092e+00
6903:-4.7687173338680982e+00
6904:-5.2108794463517603e+00
6905:-5.1629743056311614e+00
6906:-5.0754994052443445e+00
6907:-4.9899620212070985e+00
6908:-5.3823555043313949e+00
6909:-5.3287230190422390e+00
6910:-5.2317609746933575e+00
6911:-5.1378427681711747e+00
6912:-4.5465764824761878e+00
6913:-4.4609133396583269e+00
6914:-4.3358280404568186e+00
6915:-4.2301886090708969e+00
6916:-4.7220054779620115e+00
6917:-4.6252344343110563e+00
6918:-4.4819497798106722e+00
6919:-4.3595178283830940e+00
6920:-4.9380098408765276e+00
6921:-4.8288035702240180e+00
6922:-4.6636693718419542e+00
6923:-4.5200239113883374e+00
6924:-5.0811258047245742e+00
6925:-4.9619205419680883e+00
6926:-4.7811921734517595e+00
6927:-4.6233244666689108e+00
6928:-4.1705772316481999e+00
6929:-4.0529678156260216e+00
6930:-3.8883138093047336e+00
6931:-3.7535172563991881e+00
6932:-4.2900623657736885e+00
6933:-4.1542946460743844e+00
6934:-3.9668335030227282e+00
6935:-3.8151052474003624e+00
6936:-4.4378072989107427e+00
6937:-4.2783666831905567e+00
6938:-4.0610944366301238e+00
6939:-3.8872630737419636e+00
6940:-4.5327228472751875e+00
6941:-4.3575640435767973e+00
6942:-4.1201670531788341e+00
6943:-3.9312255528812066e+00
6944:-3.6787742651025139e+00
6945:-3.5355655187064383e+00
6946:-3.3434000325593791e+00
6947:-3.1920018026455086e+00
6948:-3.7315378225138787e+00
6949:-3.5728423240927225e+00
6950:-3.3627040673924902e+00
6951:-3.1992242745141173e+00
6952:-3.7922099346062406e+00
6953:-3.6133911494286552e+00
6954:-3.3798821482809109e+00
6955:-3.2006063989511180e+00
6956:-3.8282658463606722e+00
6957:-3.6353700175285892e+00
6958:-3.3849680022249662e+00
6959:-3.1937694275452500e+00
6960:-3.1099934381344689e+00
6961:-2.9560600428449435e+00
6962:-2.7552887024806996e+00
6963:-2.6011445922499488e+00
6964:-3.1113700537764042e+00
6965:-2.9475195526062028e+00
6966:-2.7358238460647475e+00
6967:-2.5748159241974360e+00
6968:-3.1050537654214398e+00
6969:-2.9280374216331149e+00
6970:-2.7017514170862009e+00
6971:-2.5316223059253846e+00
6972:-3.0922023223406478e+00
6973:-2.9046590999339221e+00
6974:-2.6663376167822652e+00
6975:-2.4884491817849272e+00
6976:-2.5189611410944193e+00
6977:-2.3672517609371289e+00
6978:-2.1750625762844802e+00
6979:-2.0324236836423633e+00
6980:-2.4894669955348521e+00
6981:-2.3321368234736295e+00
6982:-2.1330369428140958e+00
6983:-1.9853530143935012e+00
6984:-2.4421158377656913e+00
6985:-2.2773615546653909e+00
6986:-2.0687907116642990e+00
6987:-1.9137162251788611e+00
6988:-2.3953574464449541e+00
6989:-2.2245567339387158e+00
6990:-2.0089035681761716e+00
6991:-1.8486104844410418e+00
6992:-1.9581483955185899e+00
6993:-1.8221166009295184e+00
6994:-1.6504101050168725e+00
6995:-1.5225142021018316e+00
6996:-1.9084998495829977e+00
6997:-1.7686182355182558e+00
6998:-1.5941886630044309e+00
6999:-1.4661487156639750e+00
7000:-1.8328616880302981e+00
7001:-1.6866197425375564e+00
7002:-1.5068911727643761e+00
7003:-1.3775185662256888e+00
7004:-1.7649504243188774e+00
7005:-1.6137598703599965e+00
7006:-1.4288453414092450e+00
7007:-1.2969795431462596e+00
7008:-1.4555240426734777e+00
7009:-1.3329484644245195e+00
7010:-1.1795508149971188e+00
7011:-1.0671318331645621e+00
7012:-1.3997913493379037e+00
7013:-1.2791807067219536e+00
7014:-1.1295678058019474e+00
7015:-1.0208196701863421e+00
7016:-1.3115013934146311e+00
7017:-1.1928131358556302e+00
7018:-1.0478094893543475e+00
7019:-9.4396957708349094e-01
7020:-1.2303013617002541e+00
7021:-1.1116202805165958e+00
7022:-9.6883132896651547e-01
7023:-8.6817899414905153e-01
7024:-1.0091287694914053e+00
7025:-9.0462532903747506e-01
7026:-7.7729884386050097e-01
7027:-6.8694980183233179e-01
7028:-9.6498891907569584e-01
7029:-8.6472827320281020e-01
7030:-7.4300732922881951e-01
7031:-6.5681335160702137e-01
7032:-8.9115407345404551e-01
7033:-7.9681628013451966e-01
7034:-6.8287697835600891e-01
7035:-6.0234742765711180e-01
7036:-8.1752512143879352e-01
7037:-7.2785876486039847e-01
7038:-6.2079421989354300e-01
7039:-5.4578320143613279e-01
7040:-6.4141852195989335e-01
7041:-5.6015712278816165e-01
7042:-4.6208254828405204e-01
7043:-3.9293057735131637e-01
7044:-6.1341468443676017e-01
7045:-5.3638675218877874e-01
7046:-4.4430292310769121e-01
7047:-3.8003278441350646e-01
7048:-5.6180092019973793e-01
7049:-4.9041306293460435e-01
7050:-4.0632995618343432e-01
7051:-3.4862861409627638e-01
7052:-5.0817820268459313e-01
7053:-4.4246490439495678e-01
7054:-3.6612103483904768e-01
7055:-3.1459571393301744e-01
7056:-3.5814926382781315e-01
7057:-2.9596721676294346e-01
7058:-2.2043798806581788e-01
7059:-1.6657801686208565e-01
7060:-3.4794032813629006e-01
7061:-2.9103721093373086e-01
7062:-2.2292609222423043e-01
7063:-1.7520932802568093e-01
7064:-3.2018300757216139e-01
7065:-2.7054402801622524e-01
7066:-2.1288345543207876e-01
7067:-1.7402701106657781e-01
7068:-2.8952451530783491e-01
7069:-2.4640306952175564e-01
7070:-1.9774874157266256e-01
7071:-1.6630112028674898e-01
7072:-4.1617175217228919e+00
7073:-4.2412726012851385e+00
7074:-4.3462376413208341e+00
7075:-4.4280002476963061e+00
7076:-3.6635391485295767e+00
7077:-3.8322574889169037e+00
7078:-4.0388131887303045e+00
7079:-4.1875555609777262e+00
7080:-3.0067415437506595e+00
7081:-3.2862988350894757e+00
7082:-3.6186979642181369e+00
7083:-3.8506870833563287e+00
7084:-2.5046434369322195e+00
7085:-2.8636788820212513e+00
7086:-3.2858226698858370e+00
7087:-3.5772952594056191e+00
7088:-4.4721287866301402e+00
7089:-4.5558809092001420e+00
7090:-4.6681333259089675e+00
7091:-4.7574708545352715e+00
7092:-4.2636974610998282e+00
7093:-4.4019469446865873e+00
7094:-4.5752695582668155e+00
7095:-4.7042892253173072e+00
7096:-3.9669097310156749e+00
7097:-4.1738822060168239e+00
7098:-4.4245308129845986e+00
7099:-4.6034613583783424e+00
7100:-3.7223672467434934e+00
7101:-3.9794052396182398e+00
7102:-4.2870998645678959e+00
7103:-4.5029706319399407e+00
7104:-4.8063378516253046e+00
7105:-4.8970163791759287e+00
7106:-5.0120980074542478e+00
7107:-5.0973957545329505e+00
7108:-4.7720142093212257e+00
7109:-4.8952899370289673e+00
7110:-5.0476151296543934e+00
7111:-5.1573153702301742e+00
7112:-4.6946047949109095e+00
7113:-4.8579522490876093e+00
7114:-5.0560570036316683e+00
7115:-5.1964481265319034e+00
7116:-4.6113310618475003e+00
7117:-4.8035363135270082e+00
7118:-5.0339460210967726e+00
7119:-5.1960217439788821e+00
7120:-5.1415665719812473e+00
7121:-5.2198440951979430e+00
7122:-5.3138483615006669e+00
7123:-5.3808665104184588e+00
7124:-5.2129755610710493e+00
7125:-5.3096890323457329e+00
7126:-5.4221128687975062e+00
7127:-5.4994157027675579e+00
7128:-5.2670350602199099e+00
7129:-5.3884348772670885e+00
7130:-5.5256919343960913e+00
7131:-5.6157551191989077e+00
7132:-5.2773776341975465e+00
7133:-5.4176707978803718e+00
7134:-5.5753026703316122e+00
7135:-5.6762079558941290e+00
7136:-5.4148413633271160e+00
7137:-5.4699892682008313e+00
7138:-5.5221576259605589e+00
7139:-5.5454193603348498e+00
7140:-5.5377646437684822e+00
7141:-5.6011013106206455e+00
7142:-5.6638345108280745e+00
7143:-5.6946691851455711e+00
7144:-5.6586560176829792e+00
7145:-5.7291700535508445e+00
7146:-5.8007118066492760e+00
7147:-5.8392117407912947e+00
7148:-5.7227904106787078e+00
7149:-5.7968767561712262e+00
7150:-5.8696396671783742e+00
7151:-5.9090376832076519e+00
7152:-5.5513998113860907e+00
7153:-5.5498900126805699e+00
7154:-5.5252574564326107e+00
7155:-5.4911449306399103e+00
7156:-5.7042147783948485e+00
7157:-5.7057747771439988e+00
7158:-5.6787006339366926e+00
7159:-5.6388485772225723e+00
7160:-5.8532736714833717e+00
7161:-5.8596708182250570e+00
7162:-5.8313154693371656e+00
7163:-5.7851209884439898e+00
7164:-5.9241552560378627e+00
7165:-5.9314961606134755e+00
7166:-5.9012958676542926e+00
7167:-5.8508814680135517e+00
7168:-5.4678571413465926e+00
7169:-5.4096913355706606e+00
7170:-5.3057824614583007e+00
7171:-5.2059650569163622e+00
7172:-5.6114591823620632e+00
7173:-5.5443292231062200e+00
7174:-5.4265196562445990e+00
7175:-5.3145205644824518e+00
7176:-5.7526868231788155e+00
7177:-5.6748578236828680e+00
7178:-5.5406566830873922e+00
7179:-5.4138838974063894e+00
7180:-5.8151912861557129e+00
7181:-5.7311409190201204e+00
7182:-5.5881787539383181e+00
7183:-5.4534725817275858e+00
7184:-5.1459799858218425e+00
7185:-5.0207162525923410e+00
7186:-4.8320083019211788e+00
7187:-4.6677201060774189e+00
7188:-5.2476414435719656e+00
7189:-5.1103017100919592e+00
7190:-4.9074868477048064e+00
7191:-4.7333213198405595e+00
7192:-5.3384083935220676e+00
7193:-5.1863282069952295e+00
7194:-4.9675559448165059e+00
7195:-4.7836392942449226e+00
7196:-5.3732137654344472e+00
7197:-5.2125145691154149e+00
7198:-4.9839031640700355e+00
7199:-4.7938720049418357e+00
7200:-4.5735335885722881e+00
7201:-4.3915664353367632e+00
7202:-4.1452277059717790e+00
7203:-3.9494277347882880e+00
7204:-4.6340755456818297e+00
7205:-4.4423533316252080e+00
7206:-4.1827281834956773e+00
7207:-3.9763830909757059e+00
7208:-4.6799630143539765e+00
7209:-4.4795097285313519e+00
7210:-4.2073410339245463e+00
7211:-3.9905422683204637e+00
7212:-4.6874677823994135e+00
7213:-4.4816302582697425e+00
7214:-4.2016278152560540e+00
7215:-3.9781920300343185e+00
7216:-3.8428308453543236e+00
7217:-3.6432841533430702e+00
7218:-3.3845127433569004e+00
7219:-3.1870803249262440e+00
7220:-3.8640593758759669e+00
7221:-3.6536120927146465e+00
7222:-3.3803132011977053e+00
7223:-3.1715034274054847e+00
7224:-3.8723495947960869e+00
7225:-3.6501482268789966e+00
7226:-3.3602078074878237e+00
7227:-3.1378111174566321e+00
7228:-3.8562234876140304e+00
7229:-3.6263459154551803e+00
7230:-3.3254726577379641e+00
7231:-3.0942370689232348e+00
7232:-3.0822487986153830e+00
7233:-2.8888701565418113e+00
7234:-2.6436734515205091e+00
7235:-2.4611982150674279e+00
7236:-3.0605486460704494e+00
7237:-2.8560992618855767e+00
7238:-2.5975258206614167e+00
7239:-2.4057375689059350e+00
7240:-3.0194122650563950e+00
7241:-2.8014008194809690e+00
7242:-2.5260115126959897e+00
7243:-2.3219405860153222e+00
7244:-2.9710569280801500e+00
7245:-2.7443332210693563e+00
7246:-2.4579072122658645e+00
7247:-2.2454038909135283e+00
7248:-2.3659444069080791e+00
7249:-2.1917010321364021e+00
7250:-1.9724785571586050e+00
7251:-1.8098888866486009e+00
7252:-2.3059275633898477e+00
7253:-2.1245706322195699e+00
7254:-1.8987890501181770e+00
7255:-1.7330510475439971e+00
7256:-2.2158432832237205e+00
7257:-2.0243786690988728e+00
7258:-1.7894511906189545e+00
7259:-1.6202307007060865e+00
7260:-2.1347842205631791e+00
7261:-1.9354151524329182e+00
7262:-1.6924502734223501e+00
7263:-1.5197142390905092e+00
7264:-1.7250687437366647e+00
7265:-1.5715710909252820e+00
7266:-1.3836967269500442e+00
7267:-1.2499152352094145e+00
7268:-1.6470940512359382e+00
7269:-1.4913063767523813e+00
7270:-1.3000902461997630e+00
7271:-1.1636457744302295e+00
7272:-1.5337129231574607e+00
7273:-1.3778187557201818e+00
7274:-1.1871607890004190e+00
7275:-1.0509211954873590e+00
7276:-1.4325276539471505e+00
7277:-1.2776670974009969e+00
7278:-1.0913036088548143e+00
7279:-9.5924064942184162e-01
7280:-1.1824472071255681e+00
7281:-1.0630333142018069e+00
7282:-9.2068570639307012e-01
7283:-8.2132923809266289e-01
7284:-1.0948273467723761e+00
7285:-9.7399887043470079e-01
7286:-8.3199017471045411e-01
7287:-7.3437795025756603e-01
7288:-9.8199462887866729e-01
7289:-8.6177683171183250e-01
7290:-7.2223264732248549e-01
7291:-6.2759574693696174e-01
7292:-8.9248843663753774e-01
7293:-7.7648303243652361e-01
7294:-6.4268531516864380e-01
7295:-5.5254307210419051e-01
7296:-7.7167560850172101e-01
7297:-6.8444949578109260e-01
7298:-5.8144307650128502e-01
7299:-5.1000166004898773e-01
7300:-6.8614202859400830e-01
7301:-6.0269882125436447e-01
7302:-5.0662002138641560e-01
7303:-4.4177793889899253e-01
7304:-5.8129486344085346e-01
7305:-5.0246617492086254e-01
7306:-4.1449041513139157e-01
7307:-3.5752576642245731e-01
7308:-5.0863375799260613e-01
7309:-4.3423415572959001e-01
7310:-3.5232019741095555e-01
7311:-3.0058698815077822e-01
7312:-4.7439573354161335e-01
7313:-4.1248170223888547e-01
7314:-3.4117509420161851e-01
7315:-2.9357671932060714e-01
7316:-4.1004690145436012e-01
7317:-3.5548688656636140e-01
7318:-2.9385543778527101e-01
7319:-2.5376112115771854e-01
7320:-3.3054751444896630e-01
7321:-2.8497116512958126e-01
7322:-2.3506162147207788e-01
7323:-2.0402265099300737e-01
7324:-2.7667504544380744e-01
7325:-2.3683759747734742e-01
7326:-1.9434904621160928e-01
7327:-1.6902769515324634e-01
7328:-2.7061908336580753e-01
7329:-2.3145137514434794e-01
7330:-1.8800595476542750e-01
7331:-1.6066729335414234e-01
7332:-2.3482722587668417e-01
7333:-2.0302764641694801e-01
7334:-1.6890273869781314e-01
7335:-1.4858676313442926e-01
7336:-1.8993747441889636e-01
7337:-1.6689824467166403e-01
7338:-1.4348778678698815e-01
7339:-1.3086280853875393e-01
7340:-1.5801164936937231e-01
7341:-1.4056407741918325e-01
7342:-1.2399756465427809e-01
7343:-1.1620222598903332e-01
7344:-2.2394373851186611e+00
7345:-2.6384772154014056e+00
7346:-3.1056089106192490e+00
7347:-3.4269155015671018e+00
7348:-1.7491105303058545e+00
7349:-2.2179792151740703e+00
7350:-2.7637272512745419e+00
7351:-3.1369580326201674e+00
7352:-1.1310080065839929e+00
7353:-1.6800370356699115e+00
7354:-2.3163125549834422e+00
7355:-2.7488481588454454e+00
7356:-6.7991761494685132e-01
7357:-1.2815947403219963e+00
7358:-1.9774919316542896e+00
7359:-2.4486009286993999e+00
7360:-3.5865199440781219e+00
7361:-3.8690315040284582e+00
7362:-4.2061204940878429e+00
7363:-4.4411885130000073e+00
7364:-3.3217034276423716e+00
7365:-3.6482331681843201e+00
7366:-4.0364579468114412e+00
7367:-4.3055607330642935e+00
7368:-2.9619154391210967e+00
7369:-3.3374453827089741e+00
7370:-3.7824427885688618e+00
7371:-4.0900842775117079e+00
7372:-2.6797092260958140e+00
7373:-3.0856379660707547e+00
7374:-3.5650916172005043e+00
7375:-3.8962955776338837e+00
7376:-4.5585047045585219e+00
7377:-4.7654672445702300e+00
7378:-5.0119997418101132e+00
7379:-5.1847383100112578e+00
7380:-4.4390951241801497e+00
7381:-4.6730237162342858e+00
7382:-4.9487950492840991e+00
7383:-5.1401076231535585e+00
7384:-4.2425396747412556e+00
7385:-4.5089993873093626e+00
7386:-4.8208137201313503e+00
7387:-5.0343523551051401e+00
7388:-4.0606601901070425e+00
7389:-4.3488953006001667e+00
7390:-4.6863552830195738e+00
7391:-4.9159049083134896e+00
7392:-5.2714105224435555e+00
7393:-5.4215436628564078e+00
7394:-5.5906012419918065e+00
7395:-5.6980901341534054e+00
7396:-5.2356306473214085e+00
7397:-5.4022817570344541e+00
7398:-5.5918781877201384e+00
7399:-5.7132760281046151e+00
7400:-5.1397982936031799e+00
7401:-5.3239144014347000e+00
7402:-5.5356655154552623e+00
7403:-5.6745413713969652e+00
7404:-5.0281796785453512e+00
7405:-5.2224973905280985e+00
7406:-5.4456022479116530e+00
7407:-5.5943270557338076e+00
7408:-5.7470527015841091e+00
7409:-5.8227865984885989e+00
7410:-5.8941735991226478e+00
7411:-5.9316872219722763e+00
7412:-5.7685062059153491e+00
7413:-5.8507250546490885e+00
7414:-5.9225867860004078e+00
7415:-5.9569818447178058e+00
7416:-5.7392155933442952e+00
7417:-5.8341360029473170e+00
7418:-5.9129948194092989e+00
7419:-5.9466565246200664e+00
7420:-5.6652094103941035e+00
7421:-5.7705228245241971e+00
7422:-5.8588093998628592e+00
7423:-5.8957002924363922e+00
7424:-5.9460110548345950e+00
7425:-5.9520970441060594e+00
7426:-5.9200349779396149e+00
7427:-5.8675059970847698e+00
7428:-5.9692108528727044e+00
7429:-5.9718767408333244e+00
7430:-5.9354151522414833e+00
7431:-5.8785730461448509e+00
7432:-5.9568815774423243e+00
7433:-5.9562462265561953e+00
7434:-5.9156821559175778e+00
7435:-5.8546332390581997e+00
7436:-5.9061797440694370e+00
7437:-5.9061848374416934e+00
7438:-5.8664322251034937e+00
7439:-5.8051140103672996e+00
7440:-5.8303654325481258e+00
7441:-5.7439412247777097e+00
7442:-5.5981953864733915e+00
7443:-5.4610712892138631e+00
7444:-5.8386433348292242e+00
7445:-5.7479089301903459e+00
7446:-5.5980528482033165e+00
7447:-5.4582955127880517e+00
7448:-5.8118645335066921e+00
7449:-5.7166597076810080e+00
7450:-5.5631183562512323e+00
7451:-5.4221913244036433e+00
7452:-5.7616802027920206e+00
7453:-5.6649710208237583e+00
7454:-5.5099322566516857e+00
7455:-5.3689164397428568e+00
7456:-5.3792852295614875e+00
7457:-5.2154354213245515e+00
7458:-4.9825602881021922e+00
7459:-4.7894589546086044e+00
7460:-5.3750666552774709e+00
7461:-5.2076887480550260e+00
7462:-4.9689673893545869e+00
7463:-4.7708771850677190e+00
7464:-5.3388201675817148e+00
7465:-5.1701914957150148e+00
7466:-4.9277115887606904e+00
7467:-4.7252837034817254e+00
7468:-5.2860001260660949e+00
7469:-5.1179667256489623e+00
7470:-4.8752447874632612e+00
7471:-4.6716383482932589e+00
7472:-4.6815554782082964e+00
7473:-4.4728115585929249e+00
7474:-4.1887266501002873e+00
7475:-3.9619184542241253e+00
7476:-4.6602541586049693e+00
7477:-4.4462592144733772e+00
7478:-4.1550561170486384e+00
7479:-3.9226302575028940e+00
7480:-4.6119106398043339e+00
7481:-4.3925356619802693e+00
7482:-4.0942735618106489e+00
7483:-3.8566533002595329e+00
7484:-4.5572504773630200e+00
7485:-4.3357381820630181e+00
7486:-4.0347191447085837e+00
7487:-3.7953508871301995e+00
7488:-3.8380577631717423e+00
7489:-3.6044332640689767e+00
7490:-3.2984545929604505e+00
7491:-3.0632943758914251e+00
7492:-3.7957319334588755e+00
7493:-3.5563967084600905e+00
7494:-3.2431577573829382e+00
7495:-3.0027579278478926e+00
7496:-3.7271367664692878e+00
7497:-3.4832759668787356e+00
7498:-3.1649098199916303e+00
7499:-2.9211808547770417e+00
7500:-3.6651211027191248e+00
7501:-3.4202165367549426e+00
7502:-3.1008611802025587e+00
7503:-2.8565080747550287e+00
7504:-2.9380656046619134e+00
7505:-2.7076212699746898e+00
7506:-2.4164051842223024e+00
7507:-2.2001162560859271e+00
7508:-2.8748899126819389e+00
7509:-2.6395672967668129e+00
7510:-2.3420311060671408e+00
7511:-2.1208873259309757e+00
7512:-2.7917128879209390e+00
7513:-2.5531200499297322e+00
7514:-2.2512492463270002e+00
7515:-2.0272560432484812e+00
7516:-2.7266798928766853e+00
7517:-2.4869539201400364e+00
7518:-2.1835670576481037e+00
7519:-1.9592298874991370e+00
7520:-2.0873908580413034e+00
7521:-1.8839972501670978e+00
7522:-1.6363633652071465e+00
7523:-1.4611284952813843e+00
7524:-2.0055361772101956e+00
7525:-1.7968430039935164e+00
7526:-1.5419840222300172e+00
7527:-1.3614080333118013e+00
7528:-1.9106984787540795e+00
7529:-1.7000574985256935e+00
7530:-1.4418831390977596e+00
7531:-1.2569797994308585e+00
7532:-1.8430779835765516e+00
7533:-1.6349560758644144e+00
7534:-1.3810602539194039e+00
7535:-1.1978804324023811e+00
7536:-1.3732200196523969e+00
7537:-1.2188647768812180e+00
7538:-1.0358694105561341e+00
7539:-9.0750073310861878e-01
7540:-1.2709922676840699e+00
7541:-1.1149736706799593e+00
7542:-9.3497400291774269e-01
7543:-8.1169994294382997e-01
7544:-1.1634758444444810e+00
7545:-1.0034138563642494e+00
7546:-8.2232468825140803e-01
7547:-7.0145780162979576e-01
7548:-1.1041465188109849e+00
7549:-9.4252501961346480e-01
7550:-7.5888035063373394e-01
7551:-6.3691341907715904e-01
7552:-8.4283031936009167e-01
7553:-7.3066481404175276e-01
7554:-6.0168930103519347e-01
7555:-5.1506385204584237e-01
7556:-7.5036181825648718e-01
7557:-6.4464880715077522e-01
7558:-5.2434601279879633e-01
7559:-4.4457467560266933e-01
7560:-6.4248040410889196e-01
7561:-5.4182555307518343e-01
7562:-4.2927911073914610e-01
7563:-3.5653340631069458e-01
7564:-5.7795817933594373e-01
7565:-4.7777915694289858e-01
7566:-3.6683764715173645e-01
7567:-2.9637564415424539e-01
7568:-4.7293875107755196e-01
7569:-4.0148767827620713e-01
7570:-3.2291550367826577e-01
7571:-2.7365195007821880e-01
7572:-4.0612813218100907e-01
7573:-3.4081541215074945e-01
7574:-2.6903833073545635e-01
7575:-2.2446596449288048e-01
7576:-3.2219802632894778e-01
7577:-2.6408589943030109e-01
7578:-2.0063204891755759e-01
7579:-1.6179331905523325e-01
7580:-2.6368579555263244e-01
7581:-2.0893493440900390e-01
7582:-1.5010569663902612e-01
7583:-1.1483495802976029e-01
7584:-2.5109833343070653e-01
7585:-2.1377167269323483e-01
7586:-1.7450230251449111e-01
7587:-1.5165437641434260e-01
7588:-2.0434417809538871e-01
7589:-1.7147354090182054e-01
7590:-1.3785039706951888e-01
7591:-1.1925210649922000e-01
7592:-1.4456029131526560e-01
7593:-1.1703035725591103e-01
7594:-9.0223319506869792e-02
7595:-7.6700013826229624e-02
7596:-9.9476393394493504e-02
7597:-7.5550856108357017e-02
7598:-5.3537560158021705e-02
7599:-4.3653798969938436e-02
7600:-1.4197077769891003e-01
7601:-1.2700754979383871e-01
7602:-1.1356672574597393e-01
7603:-1.0801137683442447e-01
7604:-1.1182345494257877e-01
7605:-1.0111953182518689e-01
7606:-9.3186496704622965e-02
7607:-9.1712865715788919e-02
7608:-7.1922960670263894e-02
7609:-6.6242492219737423e-02
7610:-6.4917366946285512e-02
7611:-6.8484167815040714e-02
7612:-4.0777797361117835e-02
7613:-3.8642401626114167e-02
7614:-4.1918981604702865e-02
7615:-4.8999601495577930e-02
7616:-4.4953884462997562e-01
7617:-1.0761033792617691e+00
7618:-1.8001919428010726e+00
7619:-2.2893197838461883e+00
7620:-4.3100605286251079e-02
7621:-7.1089469563246943e-01
7622:-1.4813542490327787e+00
7623:-1.9999207248453887e+00
7624:4.3402776607456944e-01
7625:-2.7695355989664483e-01
7626:-1.0949301851267828e+00
7627:-1.6430592651357807e+00
7628:7.5822751959504398e-01
7629:2.2237911004559369e-02
7630:-8.2206109423052143e-01
7631:-1.3858170122495581e+00
7632:-2.5286952332757813e+00
7633:-2.9481599286937454e+00
7634:-3.4424707715332228e+00
7635:-3.7837500328342064e+00
7636:-2.2527357015769165e+00
7637:-2.6939152118307015e+00
7638:-3.2112053261727334e+00
7639:-3.5671854380582091e+00
7640:-1.9092140988336304e+00
7641:-2.3717478386272388e+00
7642:-2.9105576818047361e+00
7643:-3.2787793769512192e+00
7644:-1.6588205323514846e+00
7645:-2.1323828402524052e+00
7646:-2.6818643257670645e+00
7647:-3.0551292184052117e+00
7648:-3.9532983506706532e+00
7649:-4.2516401991724733e+00
7650:-4.6018347530501851e+00
7651:-4.8396401211335540e+00
7652:-3.7439909486788814e+00
7653:-4.0569635482223676e+00
7654:-4.4269413520525100e+00
7655:-4.6789621315314465e+00
7656:-3.4609329440086007e+00
7657:-3.7847037214536359e+00
7658:-4.1706175788563957e+00
7659:-4.4360590707515142e+00
7660:-3.2388496270670823e+00
7661:-3.5649500996784926e+00
7662:-3.9544178061762643e+00
7663:-4.2242046405242260e+00
7664:-4.9554173294484389e+00
7665:-5.1541514798490073e+00
7666:-5.3810060772068233e+00
7667:-5.5330715359491549e+00
7668:-4.8014087638120087e+00
7669:-5.0086219890138164e+00
7670:-5.2418227664171182e+00
7671:-5.3983470821654072e+00
7672:-4.5657578588350924e+00
7673:-4.7825545831821374e+00
7674:-5.0225151807129800e+00
7675:-5.1824859867699367e+00
7676:-4.3569571835479710e+00
7677:-4.5780996322858947e+00
7678:-4.8213205216855926e+00
7679:-4.9827627987984693e+00
7680:-5.6064093421463692e+00
7681:-5.7167850058712570e+00
7682:-5.8111522698600337e+00
7683:-5.8512619739749221e+00
7684:-5.4748115216882507e+00
7685:-5.5924983073700361e+00
7686:-5.6968324308589509e+00
7687:-5.7428761445182088e+00
7688:-5.2610447989215938e+00
7689:-5.3852739021372011e+00
7690:-5.5006921752305207e+00
7691:-5.5545963412744674e+00
7692:-5.0621249133971808e+00
7693:-5.1903431607012713e+00
7694:-5.3141375393897441e+00
7695:-5.3749633830443457e+00
7696:-5.8627463558656361e+00
7697:-5.8646715413903827e+00
7698:-5.8273384400679697e+00
7699:-5.7673842044257668e+00
7700:-5.7564996324016073e+00
7701:-5.7627684120369151e+00
7702:-5.7318203213095744e+00
7703:-5.6768882240255998e+00
7704:-5.5715967919324401e+00
7705:-5.5847734714187443e+00
7706:-5.5648042180758779e+00
7707:-5.5200718728058575e+00
7708:-5.3953397561502543e+00
7709:-5.4150316549044391e+00
7710:-5.4051302347013968e+00
7711:-5.3701895682955048e+00
7712:-5.7243791438716665e+00
7713:-5.6278927651433897e+00
7714:-5.4726749241983166e+00
7715:-5.3317518641672921e+00
7716:-5.6364342634637881e+00
7717:-5.5436707247159029e+00
7718:-5.3919006791973345e+00
7719:-5.2532853055255311e+00
7720:-5.4856589762118340e+00
7721:-5.4035511039039887e+00
7722:-5.2640423602890980e+00
7723:-5.1336375010242215e+00
7724:-5.3419022517257586e+00
7725:-5.2716710538612572e+00
7726:-5.1473595409983464e+00
7727:-5.0277106854861362e+00
7728:-5.2491131658969561e+00
7729:-5.0817252549993643e+00
7730:-4.8397569834556560e+00
7731:-4.6364388697450210e+00
7732:-5.1719653397954657e+00
7733:-5.0072503868142659e+00
7734:-4.7689014234426788e+00
7735:-4.5682481996488713e+00
7736:-5.0563211860919646e+00
7737:-4.8990028023156142e+00
7738:-4.6704475391899090e+00
7739:-4.4776386406421418e+00
7740:-4.9556441608807136e+00
7741:-4.8076653031552441e+00
7742:-4.5910351506490308e+00
7743:-4.4077375551667375e+00
7744:-4.5220471255187640e+00
7745:-4.3003820519876639e+00
7746:-3.9991654214310310e+00
7747:-3.7598696821465083e+00
7748:-4.4551796517640625e+00
7749:-4.2358558290467760e+00
7750:-3.9376989264471725e+00
7751:-3.7009919237553839e+00
7752:-4.3689173582107959e+00
7753:-4.1577745308251517e+00
7754:-3.8701763111419396e+00
7755:-3.6413907785284030e+00
7756:-4.3043528074944843e+00
7757:-4.1032919407575212e+00
7758:-3.8284693848264202e+00
7759:-3.6088262914252063e+00
7760:-3.6298091545420887e+00
7761:-3.3852676469371676e+00
7762:-3.0663023800659452e+00
7763:-2.8220735596305788e+00
7764:-3.5724273536389792e+00
7765:-3.3302927886615139e+00
7766:-3.0136295270514570e+00
7767:-2.7705982600312615e+00
7768:-3.5168982923256618e+00
7769:-3.2811099182080601e+00
7770:-2.9707652687094606e+00
7771:-2.7317818966798519e+00
7772:-3.4888296952213662e+00
7773:-3.2601503397718328e+00
7774:-2.9574640134633587e+00
7775:-2.7241042675656257e+00
7776:-2.6922067019166844e+00
7777:-2.4521109036887876e+00
7778:-2.1482492342679822e+00
7779:-1.9241028687805437e+00
7780:-2.6411899222915363e+00
7781:-2.4016613039339778e+00
7782:-2.0981473810750932e+00
7783:-1.8741268541031737e+00
7784:-2.6045124181533161e+00
7785:-2.3697971034176391e+00
7786:-2.0723455053391371e+00
7787:-1.8510597387709038e+00
7788:-2.6001285407330705e+00
7789:-2.3734888843928110e+00
7790:-2.0873685463347651e+00
7791:-1.8725214040848839e+00
7792:-1.8084673931646045e+00
7793:-1.6029192658343749e+00
7794:-1.3538700611963352e+00
7795:-1.1739084806315716e+00
7796:-1.7587075444556379e+00
7797:-1.5561766548820526e+00
7798:-1.3145505361316314e+00
7799:-1.1410381567155532e+00
7800:-1.7360937971330868e+00
7801:-1.5353298009177889e+00
7802:-1.2987263423041058e+00
7803:-1.1313925402911194e+00
7804:-1.7594161165193767e+00
7805:-1.5599321736566443e+00
7806:-1.3235149262236432e+00
7807:-1.1575297824856534e+00
7808:-1.0812315695750816e+00
7809:-9.2005120086844405e-01
7810:-7.3511796240320904e-01
7811:-6.1178585156583232e-01
7812:-1.0514175695652850e+00
7813:-8.9341094978020830e-01
7814:-7.0893481990134899e-01
7815:-5.8462194296749714e-01
7816:-1.0457706281703270e+00
7817:-8.9341653074723903e-01
7818:-7.1283036658631704e-01
7819:-5.8956406496687330e-01
7820:-1.0736016483860118e+00
7821:-9.2441162615923933e-01
7822:-7.4703320631085179e-01
7823:-6.2514163255252919e-01
7824:-5.5224792403655065e-01
7825:-4.5108428339701123e-01
7826:-3.3922419197716791e-01
7827:-2.6854685102182219e-01
7828:-5.2448711812876114e-01
7829:-4.2187496011189279e-01
7830:-3.0773872198647534e-01
7831:-2.3534592249102251e-01
7832:-5.2949449511919122e-01
7833:-4.2595566762851517e-01
7834:-3.0876218408671730e-01
7835:-2.3285093009319585e-01
7836:-5.6531823762244549e-01
7837:-4.6137447276370314e-01
7838:-3.4200483439765894e-01
7839:-2.6318800824653282e-01
7840:-2.3597465536911347e-01
7841:-1.8186887303620344e-01
7842:-1.2450523771448269e-01
7843:-9.0656306826783786e-02
7844:-2.0198989922124033e-01
7845:-1.4713460680367962e-01
7846:-9.0000000021046078e-02
7847:-5.6984768142307331e-02
7848:-1.9732962965940010e-01
7849:-1.3889486700697434e-01
7850:-7.8078049510245495e-02
7851:-4.2849327423378110e-02
7852:-2.2572077592949050e-01
7853:-1.6350836244308165e-01
7854:-9.7694718467796732e-02
7855:-5.8631782382029103e-02
7856:-7.6113093479798472e-02
7857:-5.3837569168852427e-02
7858:-3.4134512123997915e-02
7859:-2.6062103443452219e-02
7860:-4.3045216792106239e-02
7861:-2.2177564952984414e-02
7862:-4.7344111993371961e-03
7863:1.3934076722336996e-03
7864:-2.7905446468966071e-02
7865:-5.4826357218202377e-03
7866:1.3391127720925468e-02
7867:2.0206023439661051e-02
7868:-4.1662033728878632e-02
7869:-1.5581614503903583e-02
7870:7.7177597237851666e-03
7871:1.7619670768225289e-02
7872:-2.4141786614333687e-02
7873:-2.3753578661632562e-02
7874:-2.9237737410699620e-02
7875:-3.7974373852493581e-02
7876:2.2404773630159743e-03
7877:6.7685179478970845e-04
7878:-7.2076708264595018e-03
7879:-1.7670306983178889e-02
7880:2.1294303741414153e-02
7881:2.0086345962857483e-02
7882:1.2607274800611828e-02
7883:2.5065504132839667e-03
7884:2.0228292596565469e-02
7885:2.1570589402177386e-02
7886:1.6977421388918362e-02
7887:8.9006271817103633e-03
7888:9.1595253408547650e-01
7889:1.6945679647857123e-01
7890:-6.8531937597033421e-01
7891:-1.2549051982594821e+00
7892:1.1795740992228139e+00
7893:4.1824516857966404e-01
7894:-4.5031057297078153e-01
7895:-1.0268604062181348e+00
7896:1.4588130598665823e+00
7897:6.8841921491244473e-01
7898:-1.8631096921987789e-01
7899:-7.6440221920339690e-01
7900:1.6231055320292578e+00
7901:8.5434129106225432e-01
7902:-1.5762513263358213e-02
7903:-5.8943644139299423e-01
7904:-1.5303536182463717e+00
7905:-2.0079649697370541e+00
7906:-2.5613432659803563e+00
7907:-2.9361260628483148e+00
7908:-1.3050313351409344e+00
7909:-1.7876046648918560e+00
7910:-2.3465021107387538e+00
7911:-2.7239122194374907e+00
7912:-1.0427199468369905e+00
7913:-1.5267457731076395e+00
7914:-2.0888930334884979e+00
7915:-2.4685921459109288e+00
7916:-8.6546693010541464e-01
7917:-1.3468440983906285e+00
7918:-1.9078918173789476e+00
7919:-2.2875540888235641e+00
7920:-3.1200265096904385e+00
7921:-3.4455543598447811e+00
7922:-3.8338320190096309e+00
7923:-4.1034880274531451e+00
7924:-2.9083485943717102e+00
7925:-3.2326486483081833e+00
7926:-3.6173536347039663e+00
7927:-3.8849669070938351e+00
7928:-2.6536835011117734e+00
7929:-2.9759382672736403e+00
7930:-3.3544036905632479e+00
7931:-3.6173717177599927e+00
7932:-2.4725003095227520e+00
7933:-2.7921858908360049e+00
7934:-3.1648563976558739e+00
7935:-3.4236693588589713e+00
7936:-4.2366940508422655e+00
7937:-4.4586962560722680e+00
7938:-4.7028102021308422e+00
7939:-4.8647601322736067e+00
7940:-4.0178851796673909e+00
7941:-4.2400303648063460e+00
7942:-4.4847116621880438e+00
7943:-4.6467647622553550e+00
7944:-3.7486877048760694e+00
7945:-3.9699476075599343e+00
7946:-4.2153759296995874e+00
7947:-4.3774693686513499e+00
7948:-3.5535473347832136e+00
7949:-3.7746969044207308e+00
7950:-4.0224687496661469e+00
7951:-4.1858395675675961e+00
7952:-4.9444206654176979e+00
7953:-5.0746465477158091e+00
7954:-5.2030899451045931e+00
7955:-5.2680583187790901e+00
7956:-4.7263603585397895e+00
7957:-4.8589218220061552e+00
7958:-4.9944860045196124e+00
7959:-5.0668562583049992e+00
7960:-4.4565366896552261e+00
7961:-4.5901808946076308e+00
7962:-4.7318280911393407e+00
7963:-4.8123364092823717e+00
7964:-4.2648333707922674e+00
7965:-4.3986595710088991e+00
7966:-4.5428014995629988e+00
7967:-4.6279982663583663e+00
7968:-5.2905784392148201e+00
7969:-5.3142404025035930e+00
7970:-5.3102109087576688e+00
7971:-5.2809643588324970e+00
7972:-5.0936547466678288e+00
7973:-5.1255185638379768e+00
7974:-5.1334275444821085e+00
7975:-5.1151220181858195e+00
7976:-4.8446133467442474e+00
7977:-4.8878216304660613e+00
7978:-4.9125567112042789e+00
7979:-4.9088382240952670e+00
7980:-4.6640073053961402e+00
7981:-4.7157842913847796e+00
7982:-4.7538604042068950e+00
7983:-4.7613867732913135e+00
7984:-5.2562927071680745e+00
7985:-5.1934126380665990e+00
7986:-5.0790302810672632e+00
7987:-4.9666790773680614e+00
7988:-5.0971202595776584e+00
7989:-5.0477314697998246e+00
7990:-4.9519009036429216e+00
7991:-4.8537744255996893e+00
7992:-4.8992289393405901e+00
7993:-4.8664067142516307e+00
7994:-4.7936165498547441e+00
7995:-4.7141500047677694e+00
7996:-4.7579452400678646e+00
7997:-4.7369262825659586e+00
7998:-4.6806409014484265e+00
7999:-4.6152530092697059e+00
8000:-4.8982342860621886e+00
8001:-4.7566337135936987e+00
8002:-4.5480097571842650e+00
8003:-4.3710231662283796e+00
8004:-4.7927066189396861e+00
8005:-4.6645139306171730e+00
8006:-4.4730460638301635e+00
8007:-4.3093972979655861e+00
8008:-4.6633450510976786e+00
8009:-4.5547731953466339e+00
8010:-4.3893588227509150e+00
8011:-4.2458357282860009e+00
8012:-4.5726138166091674e+00
8013:-4.4804072141064655e+00
8014:-4.3374985472269598e+00
8015:-4.2113676163850569e+00
8016:-4.2711633470644434e+00
8017:-4.0767092202635951e+00
8018:-3.8101149706034163e+00
8019:-3.5962123211661607e+00
8020:-4.2167942190296301e+00
8021:-4.0354873374837066e+00
8022:-3.7847919077521159e+00
8023:-3.5819691192845386e+00
8024:-4.1638828412390163e+00
8025:-4.0011573808314393e+00
8026:-3.7723611951428206e+00
8027:-3.5851221987849287e+00
8028:-4.1384592484670035e+00
8029:-3.9912428390439296e+00
8030:-3.7807837751832438e+00
8031:-3.6071864530659266e+00
8032:-3.4789839278113295e+00
8033:-3.2547852467392206e+00
8034:-2.9572131129629113e+00
8035:-2.7278369136362026e+00
8036:-3.4702097535731355e+00
8037:-3.2554516019152944e+00
8038:-2.9689204546137624e+00
8039:-2.7473275568621109e+00
8040:-3.4814639024728136e+00
8041:-3.2822195030779815e+00
8042:-3.0149448893567268e+00
8043:-2.8058083076884626e+00
8044:-3.5110254513698087e+00
8045:-3.3272442918630829e+00
8046:-3.0800741755124905e+00
8047:-2.8836183577465122e+00
8048:-2.6062557208451969e+00
8049:-2.3855601029075806e+00
8050:-2.1080572978172727e+00
8051:-1.8985299462728018e+00
8052:-2.6298829166506450e+00
8053:-2.4190251041597599e+00
8054:-2.1562604844279396e+00
8055:-1.9571464189807475e+00
8056:-2.6938829683649370e+00
8057:-2.4934712732481938e+00
8058:-2.2450231008427433e+00
8059:-2.0574070453846245e+00
8060:-2.7767493682638986e+00
8061:-2.5831745908862191e+00
8062:-2.3412878203091445e+00
8063:-2.1592638102091697e+00
8064:-1.7872247664977590e+00
8065:-1.5888280699226818e+00
8066:-1.3514494974040347e+00
8067:-1.1848118912244923e+00
8068:-1.8502968495657603e+00
8069:-1.6563943497831490e+00
8070:-1.4200417110075865e+00
8071:-1.2532245975382297e+00
8072:-1.9566784147761451e+00
8073:-1.7711560696353168e+00
8074:-1.5406404515847816e+00
8075:-1.3758707976969642e+00
8076:-2.0622638150023120e+00
8077:-1.8831850281810447e+00
8078:-1.6589555202645090e+00
8079:-1.4968928673756408e+00
8080:-1.1010679744371519e+00
8081:-9.5267761225938019e-01
8082:-7.7649948704511629e-01
8083:-6.5515461661875707e-01
8084:-1.1697809170626079e+00
8085:-1.0222243593819957e+00
8086:-8.4671254611321156e-01
8087:-7.2488071888431582e-01
8088:-1.2930661705018791e+00
8089:-1.1458039341314534e+00
8090:-9.6857301199260115e-01
8091:-8.4357896018914880e-01
8092:-1.4146561457311275e+00
8093:-1.2670190877782148e+00
8094:-1.0868703727478168e+00
8095:-9.5808323183279598e-01
8096:-5.9536151030779316e-01
8097:-4.9111065095065332e-01
8098:-3.7062528161039171e-01
8099:-2.9036235075653027e-01
8100:-6.6432319605384837e-01
8101:-5.5829666841080106e-01
8102:-4.3488469356656539e-01
8103:-3.5182674990287388e-01
8104:-7.8068359209206006e-01
8105:-6.7019469814440069e-01
8106:-5.4097241211586444e-01
8107:-4.5339126495106608e-01
8108:-8.9274058722726968e-01
8109:-7.7759898715085995e-01
8110:-6.4230523050015054e-01
8111:-5.5004932545460539e-01
8112:-2.5191003471170564e-01
8113:-1.8758711844717454e-01
8114:-1.1862262785461343e-01
8115:-7.6918541977189309e-02
8116:-3.1165845313478241e-01
8117:-2.4358515393522170e-01
8118:-1.6880742524827891e-01
8119:-1.2206879779404566e-01
8120:-4.1073949277798033e-01
8121:-3.3741875513539749e-01
8122:-2.5465464166648438e-01
8123:-2.0101364646447056e-01
8124:-5.0488026306933687e-01
8125:-4.2655992317172892e-01
8126:-3.3669631851205079e-01
8127:-2.7718200678380533e-01
8128:-5.8488910688199863e-02
8129:-2.9689121049842560e-02
8130:-2.9505405494512013e-03
8131:9.4600571901364457e-03
8132:-1.0080140330065472e-01
8133:-6.6668564807989578e-02
8134:-3.3044051326908991e-02
8135:-1.5442742427180359e-02
8136:-1.7584067083624452e-01
8137:-1.3436300554356753e-01
8138:-9.1117379962358816e-02
8139:-6.6032817696535920e-02
8140:-2.4874652054084920e-01
8141:-2.0118037964034752e-01
8142:-1.4994379495209348e-01
8143:-1.1854251585873692e-01
8144:1.3339404937176298e-02
8145:1.6806424933282136e-02
8146:1.4561269013305721e-02
8147:8.0609083715646613e-03
8148:-8.8599990711249483e-03
8149:-8.2651727439868696e-04
8150:1.9333850496222093e-03
8151:-1.3521459235894659e-03
8152:-5.5423576894595268e-02
8153:-4.0172200940614133e-02
8154:-2.8810680699293906e-02
8155:-2.6188127001625323e-02
8156:-1.0445038016101835e-01
8157:-8.2396860208634598e-02
8158:-6.1867976687557599e-02
8159:-5.2208276377988951e-02
8160:1.6929237225885350e+00
8161:9.2825117975247651e-01
8162:6.3956490484384940e-02
8163:-5.0548198705438796e-01
8164:1.7885498456347879e+00
8165:1.0375278358027580e+00
8166:1.8965387257854396e-01
8167:-3.6884559344610524e-01
8168:1.8458668964296066e+00
8169:1.1236619589559522e+00
8170:3.0722067378004819e-01
8171:-2.3159332632022722e-01
8172:1.8406107946885202e+00
8173:1.1481464180174499e+00
8174:3.6274745450035811e-01
8175:-1.5717046122965314e-01
8176:-7.7952193381576595e-01
8177:-1.2581901021346293e+00
8178:-1.8172109028640833e+00
8179:-2.1959561131008449e+00
8180:-6.3781938714772102e-01
8181:-1.1087370043352001e+00
8182:-1.6605190454243979e+00
8183:-2.0353786958096540e+00
8184:-4.9150528055413406e-01
8185:-9.4729233858270268e-01
8186:-1.4831109766128399e+00
8187:-1.8488553825903653e+00
8188:-4.0837840988846930e-01
8189:-8.4898998893632049e-01
8190:-1.3680283165190648e+00
8191:-1.7241010838869930e+00
8192:-2.3804291646428810e+00
8193:-2.6982388606100343e+00
8194:-3.0675727495512364e+00
8195:-3.3242386867199989e+00
8196:-2.2181188229479138e+00
8197:-2.5317189916857132e+00
8198:-2.8949349283699406e+00
8199:-3.1478074878117415e+00
8200:-2.0278255596316348e+00
8201:-2.3350831727814167e+00
8202:-2.6915833782290957e+00
8203:-2.9408590002377406e+00
8204:-1.8992701741731348e+00
8205:-2.2015377671386962e+00
8206:-2.5546740890107329e+00
8207:-2.8029538553194384e+00
8208:-3.4534725130682338e+00
8209:-3.6750848964152252e+00
8210:-3.9250932727754275e+00
8211:-4.0898754959892454e+00
8212:-3.2758233279416409e+00
8213:-3.4981780040498736e+00
8214:-3.7526313377627853e+00
8215:-3.9210736115974552e+00
8216:-3.0677324575553837e+00
8217:-3.2912551800278957e+00
8218:-3.5519118261537623e+00
8219:-3.7267588873778834e+00
8220:-2.9297025935549099e+00
8221:-3.1548322744321187e+00
8222:-3.4208327200413700e+00
8223:-3.6017162308504274e+00
8224:-4.1691189667152653e+00
8225:-4.3031078766935043e+00
8226:-4.4480718998317474e+00
8227:-4.5352707408803541e+00
8228:-4.0017288593081695e+00
8229:-4.1380486514283437e+00
8230:-4.2871372183726590e+00
8231:-4.3796352330441284e+00
8232:-3.8109011043236691e+00
8233:-3.9542652989960216e+00
8234:-4.1144852758102548e+00
8235:-4.2177196462398578e+00
8236:-3.6896266441501302e+00
8237:-3.8412475201055618e+00
8238:-4.0143805134800408e+00
8239:-4.1289408534289169e+00
8240:-4.5730692686127492e+00
8241:-4.6292749350388691e+00
8242:-4.6745002439641921e+00
8243:-4.6879903790359814e+00
8244:-4.4213581761454002e+00
8245:-4.4866001302154839e+00
8246:-4.5458403893050408e+00
8247:-4.5709545526542970e+00
8248:-4.2661189104155159e+00
8249:-4.3452007478423340e+00
8250:-4.4244218989591326e+00
8251:-4.4658587937707726e+00
8252:-4.1837976586761361e+00
8253:-4.2753265773018834e+00
8254:-4.3714662787464267e+00
8255:-4.4264968517138339e+00
8256:-4.6877374622646277e+00
8257:-4.6727085036214095e+00
8258:-4.6248336812853603e+00
8259:-4.5668519957157070e+00
8260:-4.5769800569049623e+00
8261:-4.5739473052289377e+00
8262:-4.5429162485414007e+00
8263:-4.4994083182865090e+00
8264:-4.4808289051766366e+00
8265:-4.4953470804724409e+00
8266:-4.4889541168208673e+00
8267:-4.4658010835038038e+00
8268:-4.4489897728244392e+00
8269:-4.4785414456258232e+00
8270:-4.4931561887727485e+00
8271:-4.4867402372374201e+00
8272:-4.5286380078488833e+00
8273:-4.4455174610139112e+00
8274:-4.3153201577374309e+00
8275:-4.1990193427755562e+00
8276:-4.4696332799206271e+00
8277:-4.4034385336338557e+00
8278:-4.2965606043592768e+00
8279:-4.1983435364699107e+00
8280:-4.4474009255111193e+00
8281:-4.4029400171262258e+00
8282:-4.3248597650755638e+00
8283:-4.2488801344813600e+00
8284:-4.4773228469904511e+00
8285:-4.4491582846415429e+00
8286:-4.3916454077611835e+00
8287:-4.3313694889525616e+00
8288:-4.1311872921656745e+00
8289:-3.9926814446428049e+00
8290:-3.7926931746244348e+00
8291:-3.6271448022849069e+00
8292:-4.1399678723718303e+00
8293:-4.0180788959332032e+00
8294:-3.8382626587316446e+00
8295:-3.6877731410694463e+00
8296:-4.2023458563594280e+00
8297:-4.1022179639914604e+00
8298:-3.9494459867992937e+00
8299:-3.8183250596783123e+00
8300:-4.2933390510235903e+00
8301:-4.2096249340359781e+00
8302:-4.0777952022749862e+00
8303:-3.9611106411923891e+00
8304:-3.5355325277322462e+00
8305:-3.3613644302961534e+00
8306:-3.1268894318437539e+00
8307:-2.9384277818473614e+00
8308:-3.6043499135057777e+00
8309:-3.4470618970963871e+00
8310:-3.2349895092124243e+00
8311:-3.0614552096375323e+00
8312:-3.7447281311452048e+00
8313:-3.6060591562415820e+00
8314:-3.4176831300450541e+00
8315:-3.2607790263957210e+00
8316:-3.8942875099295584e+00
8317:-3.7667372212997665e+00
8318:-3.5908147535865376e+00
8319:-3.4427775098660431e+00
8320:-2.8346574047903443e+00
8321:-2.6445058018115848e+00
8322:-2.4046336065317573e+00
8323:-2.2242710003472044e+00
8324:-2.9640422730569398e+00
8325:-2.7816224779528964e+00
8326:-2.5468739024736329e+00
8327:-2.3697218812396947e+00
8328:-3.1712415570671468e+00
8329:-2.9996176171779765e+00
8330:-2.7732944684002656e+00
8331:-2.6005656965874828e+00
8332:-3.3578843968943528e+00
8333:-3.1933799382270966e+00
8334:-2.9733632188319277e+00
8335:-2.8036174447966546e+00
8336:-2.1287154435558056e+00
8337:-1.9526518611399388e+00
8338:-1.7318763881073400e+00
8339:-1.5713292281111551e+00
8340:-2.2764306224444777e+00
8341:-2.1046338810753786e+00
8342:-1.8878708232216965e+00
8343:-1.7280712689992601e+00
8344:-2.5094999611929110e+00
8345:-2.3406860017161550e+00
8346:-2.1244576362538363e+00
8347:-1.9618358856998628e+00
8348:-2.7135746639857206e+00
8349:-2.5450946930705767e+00
8350:-2.3261846170633174e+00
8351:-2.1592251771251827e+00
8352:-1.4892965019706847e+00
8353:-1.3411259219421592e+00
8354:-1.1588983169278759e+00
8355:-1.0277656573002674e+00
8356:-1.6453363508894816e+00
8357:-1.4945622154551839e+00
8358:-1.3071382544195864e+00
8359:-1.1711120178065060e+00
8360:-1.8763446271411179e+00
8361:-1.7194608562475260e+00
8362:-1.5229156447724075e+00
8363:-1.3793534497342648e+00
8364:-2.0706962689754578e+00
8365:-1.9077160942803002e+00
8366:-1.7027051878149329e+00
8367:-1.5523265054789024e+00
8368:-9.6100266524463918e-01
8369:-8.4307745865287820e-01
8370:-7.0395740164492093e-01
8371:-6.0862758192628075e-01
8372:-1.1015413010382651e+00
8373:-9.7786834287247437e-01
8374:-8.3032269680035264e-01
8375:-7.2787402224228959e-01
8376:-1.3056266269535648e+00
8377:-1.1732070619095631e+00
8378:-1.0123664422510223e+00
8379:-8.9840351819052855e-01
8380:-1.4748362579656449e+00
8381:-1.3345597740873618e+00
8382:-1.1619278551855254e+00
8383:-1.0378696845302720e+00
8384:-5.6177399656079940e-01
8385:-4.8022890287583886e-01
8386:-3.8602073905841700e-01
8387:-3.2305631272362623e-01
8388:-6.7702552863869614e-01
8389:-5.8795180493517363e-01
8390:-4.8391011176946730e-01
8391:-4.1338515275803461e-01
8392:-8.4102511263572410e-01
8393:-7.3972377730326311e-01
8394:-6.1995554019436538e-01
8395:-5.3757247672430486e-01
8396:-9.7480214359538131e-01
8397:-8.6282202389800933e-01
8398:-7.2928717218726025e-01
8399:-6.3653310753364112e-01
8400:-2.9274358522882571e-01
8401:-2.4170351679193885e-01
8402:-1.8593664890710412e-01
8403:-1.5095640520863995e-01
8404:-3.7904276474241988e-01
8405:-3.2063304118165903e-01
8406:-2.5556089127616521e-01
8407:-2.1358870048640829e-01
8408:-4.9699277845156481e-01
8409:-4.2717917607854206e-01
8410:-3.4797655232670205e-01
8411:-2.9586590862223167e-01
8412:-5.9050225193103301e-01
8413:-5.1061135940942337e-01
8414:-4.1886938028835496e-01
8415:-3.5789800931808929e-01
8416:-1.3487425129577479e-01
8417:-1.0870524788897266e-01
8418:-8.2206990847537034e-02
8419:-6.7685909554308255e-02
8420:-1.9375952763065260e-01
8421:-1.5982782778783980e-01
8422:-1.2204199217305321e-01
8423:-9.8358930527462668e-02
8424:-2.7085892846420190e-01
8425:-2.2681339714295248e-01
8426:-1.7549067400677845e-01
8427:-1.4173026343254833e-01
8428:-3.2850526409393532e-01
8429:-2.7681405661947128e-01
8430:-2.1714202361003004e-01
8431:-1.7868626093008999e-01
8432:1.8211820246839772e+00
8433:1.1469946221724798e+00
8434:3.8038340268341564e-01
8435:-1.2820372105214034e-01
8436:1.7545818001656082e+00
8437:1.1186808686839629e+00
8438:3.9160497148022994e-01
8439:-9.3259493587194126e-02
8440:1.6116840534542138e+00
8441:1.0323313104464427e+00
8442:3.6425856234717924e-01
8443:-8.5229148155188353e-02
8444:1.4621589584213617e+00
8445:9.3011468140301778e-01
8446:3.1194505575245079e-01
8447:-1.0750977831149765e-01
8448:-3.7418402735146311e-01
8449:-8.0554921462112372e-01
8450:-1.3142376419000277e+00
8451:-1.6643716673630797e+00
8452:-3.2842626338158365e-01
8453:-7.4086389294226584e-01
8454:-1.2284145484295013e+00
8455:-1.5661738970655816e+00
8456:-3.0446689357811146e-01
8457:-6.8962568662431123e-01
8458:-1.1472661560082875e+00
8459:-1.4674141584883240e+00
8460:-3.1331009682273336e-01
8461:-6.7601057580276736e-01
8462:-1.1097772880358261e+00
8463:-1.4161495244876763e+00
8464:-1.8372735644100417e+00
8465:-2.1369490461223304e+00
8466:-2.4890322286135875e+00
8467:-2.7374955239719569e+00
8468:-1.7341650483067845e+00
8469:-2.0280363194194821e+00
8470:-2.3775420124837452e+00
8471:-2.6263560162360426e+00
8472:-1.6282175785162978e+00
8473:-1.9133279137829791e+00
8474:-2.2586752649948032e+00
8475:-2.5080360758940654e+00
8476:-1.5713525803398070e+00
8477:-1.8496486980709466e+00
8478:-2.1919432595048214e+00
8479:-2.4421304108755431e+00
8480:-2.8645034019400359e+00
8481:-3.0908408888327585e+00
8482:-3.3599609029500503e+00
8483:-3.5444284504410057e+00
8484:-2.7540006585634065e+00
8485:-2.9828950149695856e+00
8486:-3.2582244819263191e+00
8487:-3.4496860741890720e+00
8488:-2.6368205287836348e+00
8489:-2.8697687358298465e+00
8490:-3.1542291782444174e+00
8491:-3.3555871608339825e+00
8492:-2.5721345157891018e+00
8493:-2.8089550155497642e+00
8494:-3.1015305776033579e+00
8495:-3.3113502379067321e+00
8496:-3.6346837931078393e+00
8497:-3.7916070588348942e+00
8498:-3.9730474260272124e+00
8499:-4.0946860840787771e+00
8500:-3.5444871940056801e+00
8501:-3.7116544470798645e+00
8502:-3.9091900429699420e+00
8503:-4.0446634394347889e+00
8504:-3.4566908315004370e+00
8505:-3.6377444265714272e+00
8506:-3.8568783087960408e+00
8507:-4.0110503241020483e+00
8508:-3.4177272901311482e+00
8509:-3.6100265912247487e+00
8510:-3.8462403047335623e+00
8511:-4.0151453522172131e+00
8512:-4.1534526440810549e+00
8513:-4.2522895648774188e+00
8514:-4.3580843414084454e+00
8515:-4.4208049406826806e+00
8516:-4.1111388222447536e+00
8517:-4.2245175184044124e+00
8518:-4.3496179741991376e+00
8519:-4.4276352440850122e+00
8520:-4.0880756206823650e+00
8521:-4.2217529444617989e+00
8522:-4.3742068086453720e+00
8523:-4.4738444057172657e+00
8524:-4.1005382538180291e+00
8525:-4.2506309287089232e+00
8526:-4.4255630330929954e+00
8527:-4.5429795339812529e+00
8528:-4.4475709533157302e+00
8529:-4.4857085602768221e+00
8530:-4.5122380558582362e+00
8531:-4.5151044153310513e+00
8532:-4.4628298968306748e+00
8533:-4.5177464889030006e+00
8534:-4.5674124804601997e+00
8535:-4.5883162708090710e+00
8536:-4.5208200901447873e+00
8537:-4.5987344922085569e+00
8538:-4.6795938894238764e+00
8539:-4.7247402042964062e+00
8540:-4.5995601523466387e+00
8541:-4.6958084088420495e+00
8542:-4.8009645287066141e+00
8543:-4.8647919621137934e+00
8544:-4.5105498063504239e+00
8545:-4.4909314319109495e+00
8546:-4.4438453501391235e+00
8547:-4.3914400954727322e+00
8548:-4.5932492179727635e+00
8549:-4.5903423271958319e+00
8550:-4.5634215540603673e+00
8551:-4.5258037898545647e+00
8552:-4.7424964393576259e+00
8553:-4.7624961839136679e+00
8554:-4.7632355769446733e+00
8555:-4.7453089959936197e+00
8556:-4.8924408199655671e+00
8557:-4.9304440971968511e+00
8558:-4.9531686664882555e+00
8559:-4.9506488667329407e+00
8560:-4.3577082398070752e+00
8561:-4.2825434275842316e+00
8562:-4.1617763460062136e+00
8563:-4.0525271791031869e+00
8564:-4.4999410390691139e+00
8565:-4.4403250515028025e+00
8566:-4.3397961367427031e+00
8567:-4.2444677502816184e+00
8568:-4.7295357164218474e+00
8569:-4.6891648276531814e+00
8570:-4.6131244437797818e+00
8571:-4.5347875226665337e+00
8572:-4.9425266971987609e+00
8573:-4.9159341867917945e+00
8574:-4.8563656958145938e+00
8575:-4.7890697792749020e+00
8576:-3.9890046064864433e+00
8577:-3.8661886638145861e+00
8578:-3.6947105982983683e+00
8579:-3.5497761949505016e+00
8580:-4.1873004868757624e+00
8581:-4.0735172496087948e+00
8582:-3.9100533972901488e+00
8583:-3.7701999581151067e+00
8584:-4.4855733205834198e+00
8585:-4.3830425019400430e+00
8586:-4.2289564856247104e+00
8587:-4.0941902326926884e+00
8588:-4.7449803806187711e+00
8589:-4.6494876614839562e+00
8590:-4.5006102849853482e+00
8591:-4.3679675757629441e+00
8592:-3.4666786437571360e+00
8593:-3.3051999353568391e+00
8594:-3.0880753614711605e+00
8595:-2.9195433645561950e+00
8596:-3.6898899232053539e+00
8597:-3.5328897823783540e+00
8598:-3.3194951789686638e+00
8599:-3.1518605495205700e+00
8600:-4.0163400336732238e+00
8601:-3.8626056780691282e+00
8602:-3.6502996626165927e+00
8603:-3.4808297087068412e+00
8604:-4.2908795593944564e+00
8605:-4.1373308765021850e+00
8606:-3.9226328617953206e+00
8607:-3.7492818825276788e+00
8608:-2.8297258936209944e+00
8609:-2.6607067738520609e+00
8610:-2.4394500366129517e+00
8611:-2.2696782181685076e+00
8612:-3.0617257538371936e+00
8613:-2.8906018358794046e+00
8614:-2.6641125934905054e+00
8615:-2.4888450189892324e+00
8616:-3.3887221021176530e+00
8617:-3.2124245803700080e+00
8618:-2.9768317850685588e+00
8619:-2.7931835701240249e+00
8620:-3.6543932819167257e+00
8621:-3.4719592388405029e+00
8622:-3.2268738896270186e+00
8623:-3.0350166503973686e+00
8624:-2.1793773331497870e+00
8625:-2.0128819203881068e+00
8626:-1.8029457512046512e+00
8627:-1.6485119614196626e+00
8628:-2.3952120780631159e+00
8629:-2.2218398161874426e+00
8630:-2.0017359535135886e+00
8631:-1.8386101524125456e+00
8632:-2.6946716940774498e+00
8633:-2.5109411004664870e+00
8634:-2.2750245965683633e+00
8635:-2.0981691693273379e+00
8636:-2.9318271424652163e+00
8637:-2.7382824278123969e+00
8638:-2.4876468781641674e+00
8639:-2.2982459641365116e+00
8640:-1.5687450079935323e+00
8641:-1.4238036460415286e+00
8642:-1.2443607498380822e+00
8643:-1.1146005553664018e+00
8644:-1.7538944161665715e+00
8645:-1.5990569828920134e+00
8646:-1.4056754256827615e+00
8647:-1.2646018328520039e+00
8648:-2.0056261959084885e+00
8649:-1.8355245318100410e+00
8650:-1.6214403777418207e+00
8651:-1.4641424652328550e+00
8652:-2.1986448569948736e+00
8653:-2.0149954499378135e+00
8654:-1.7829598861362488e+00
8655:-1.6119155316350418e+00
8656:-1.0483564100571743e+00
8657:-9.3038816052469242e-01
8658:-7.8907993489520445e-01
8659:-6.9044200090346064e-01
8660:-1.1921616692407497e+00
8661:-1.0625126857970444e+00
8662:-9.0605241634380673e-01
8663:-7.9600220387569021e-01
8664:-1.3829994467216249e+00
8665:-1.2370021013115271e+00
8666:-1.0594898434838900e+00
8667:-9.3379416861226039e-01
8668:-1.5235076459119286e+00
8669:-1.3639580328955767e+00
8670:-1.1692214694050755e+00
8671:-1.0309628616439501e+00
8672:-6.4130945820937191e-01
8673:-5.5562901003414877e-01
8674:-4.5661748232807070e-01
8675:-3.9050406041177493e-01
8676:-7.4088538669493065e-01
8677:-6.4404457397859316e-01
8678:-5.3096723794134815e-01
8679:-4.5480703132562639e-01
8680:-8.7058326147431353e-01
8681:-7.5896430442484775e-01
8682:-6.2775529571564115e-01
8683:-5.3891242308557830e-01
8684:-9.6137297515037079e-01
8685:-8.3858378936818034e-01
8686:-6.9456124226835148e-01
8687:-5.9739293710900654e-01
8688:-3.5859721297312980e-01
8689:-3.0293131955800129e-01
8690:-2.3983494066080888e-01
8691:-2.0033000667035181e-01
8692:-4.1796210713943849e-01
8693:-3.5483443759284738e-01
8694:-2.8573246266127056e-01
8695:-2.4447723868660090e-01
8696:-4.9591350841887477e-01
8697:-4.2363355906169203e-01
8698:-3.4655974560668673e-01
8699:-3.0134541438693024e-01
8700:-5.5054778115206404e-01
8701:-4.7221701093593560e-01
8702:-3.8809489876199504e-01
8703:-3.3680525555200763e-01
8704:1.3693043901719903e+00
8705:8.6356087757494659e-01
8706:2.7334535896710943e-01
8707:-1.2921072636159903e-01
8708:1.1736991170001876e+00
8709:7.1909281473050102e-01
8710:1.8368051677304859e-01
8711:-1.8544712201172781e-01
8712:8.8017720827211965e-01
8713:4.9512184469075227e-01
8714:3.4799170084040661e-02
8715:-2.8820553889793427e-01
8716:6.2871921111554296e-01
8717:2.9853179883969899e-01
8718:-1.0244534554190733e-01
8719:-3.8902272127892684e-01
8720:-3.2746186838615715e-01
8721:-6.7775235113979881e-01
8722:-1.0986573697292299e+00
8723:-1.3977883760544096e+00
8724:-3.6868760887917079e-01
8725:-6.9450064948379331e-01
8726:-1.0903858013248129e+00
8727:-1.3756245727229286e+00
8728:-4.5067723943489685e-01
8729:-7.4300763285139337e-01
8730:-1.1053570678522828e+00
8731:-1.3724100645173301e+00
8732:-5.3514962650536890e-01
8733:-8.0146304558961678e-01
8734:-1.1383536932222276e+00
8735:-1.3920226274945855e+00
8736:-1.5500944648704487e+00
8737:-1.8249125246477229e+00
8738:-2.1657924593398654e+00
8739:-2.4166309815279585e+00
8740:-1.5224181381280171e+00
8741:-1.7905640372470673e+00
8742:-2.1286561846302625e+00
8743:-2.3807372629663783e+00
8744:-1.5121176809904282e+00
8745:-1.7717256396023000e+00
8746:-2.1064598963697527e+00
8747:-2.3605775374163764e+00
8748:-1.5266660846148703e+00
8749:-1.7803666709456678e+00
8750:-2.1133568421345856e+00
8751:-2.3697872934170556e+00
8752:-2.5474251149031821e+00
8753:-2.7866189876038523e+00
8754:-3.0839876154295078e+00
8755:-3.2987024141029897e+00
8756:-2.5130902535138993e+00
8757:-2.7570242992167504e+00
8758:-3.0640530491981504e+00
8759:-3.2886966984720143e+00
8760:-2.4952964164420171e+00
8761:-2.7462165502838554e+00
8762:-3.0672745014637455e+00
8763:-3.3062929730519519e+00
8764:-2.5067871252525991e+00
8765:-2.7639744004427858e+00
8766:-3.0970626957396212e+00
8767:-3.3481810054077812e+00
8768:-3.4080928277187095e+00
8769:-3.6066702094214449e+00
8770:-3.8522210503259737e+00
8771:-4.0291144969775807e+00
8772:-3.4042127360944976e+00
8773:-3.6154068659222274e+00
8774:-3.8793718311506700e+00
8775:-4.0717313956356325e+00
8776:-3.4306737827777143e+00
8777:-3.6599588271331758e+00
8778:-3.9498404364081856e+00
8779:-4.1634958905721220e+00
8780:-3.4799782120580369e+00
8781:-3.7243338581971179e+00
8782:-4.0355776577760043e+00
8783:-4.2665262422979469e+00
8784:-4.1190472432641254e+00
8785:-4.2781462197145661e+00
8786:-4.4655312536695071e+00
8787:-4.5928105130186880e+00
8788:-4.1703557283371238e+00
8789:-4.3466820507044366e+00
8790:-4.5579340467093328e+00
8791:-4.7041871129018675e+00
8792:-4.2739029867002101e+00
8793:-4.4733936817654163e+00
8794:-4.7165485786177026e+00
8795:-4.8881390420983211e+00
8796:-4.3863836756677932e+00
8797:-4.6042111544457480e+00
8798:-4.8722693621780877e+00
8799:-5.0634714521663211e+00
8800:-4.6546966876781353e+00
8801:-4.7609204821102500e+00
8802:-4.8790627789131449e+00
8803:-4.9527663145122709e+00
8804:-4.7763053426408062e+00
8805:-4.9016377076544915e+00
8806:-5.0443347648273420e+00
8807:-5.1364390656668295e+00
8808:-4.9739330122859995e+00
8809:-5.1246334049902256e+00
8810:-5.2994477565827802e+00
8811:-5.4151557768715888e+00
8812:-5.1598161447853084e+00
8813:-5.3299922957431107e+00
8814:-5.5291833609862984e+00
8815:-5.6625099607098841e+00
8816:-4.9856350594278247e+00
8817:-5.0332681674015936e+00
8818:-5.0678847654464292e+00
8819:-5.0736656472079193e+00
8820:-5.1789439557871439e+00
8821:-5.2444651216438603e+00
8822:-5.3014272922295858e+00
8823:-5.3229960282457425e+00
8824:-5.4698448759393861e+00
8825:-5.5579583425466614e+00
8826:-5.6431682649772670e+00
8827:-5.6847241018280110e+00
8828:-5.7261641808398958e+00
8829:-5.8306826566291656e+00
8830:-5.9359898558409139e+00
8831:-5.9914311893816183e+00
8832:-5.0695998420449087e+00
8833:-5.0499752120570198e+00
8834:-4.9982129885905593e+00
8835:-4.9358766636554448e+00
8836:-5.3266941746873888e+00
8837:-5.3201259111761434e+00
8838:-5.2824479911348954e+00
8839:-5.2286939503279317e+00
8840:-5.6982370840615753e+00
8841:-5.7076864049533675e+00
8842:-5.6863278929950649e+00
8843:-5.6418164051690276e+00
8844:-6.0116208698719538e+00
8845:-6.0315342974203441e+00
8846:-6.0200045586496955e+00
8847:-5.9804120235391904e+00
8848:-4.8940226043313313e+00
8849:-4.8014651520704836e+00
8850:-4.6544170737696637e+00
8851:-4.5221578256959871e+00
8852:-5.1905938682491799e+00
8853:-5.1028634288794690e+00
8854:-4.9585474319210858e+00
8855:-4.8264844559953124e+00
8856:-5.6075137085341629e+00
8857:-5.5243165810340251e+00
8858:-5.3816673270705335e+00
8859:-5.2484789431207410e+00
8860:-5.9478768925653229e+00
8861:-5.8662542805170137e+00
8862:-5.7227262353333170e+00
8863:-5.5870910618230720e+00
8864:-4.4450389849127969e+00
8865:-4.2907222965548950e+00
8866:-4.0735889370184895e+00
8867:-3.8973053548159609e+00
8868:-4.7489997399918131e+00
8869:-4.5926407753821090e+00
8870:-4.3701179529241356e+00
8871:-4.1876746197904025e+00
8872:-5.1697452742274193e+00
8873:-5.0092692058093169e+00
8874:-4.7778069893897799e+00
8875:-4.5858318906234867e+00
8876:-5.5065346815022416e+00
8877:-5.3413005023138558e+00
8878:-5.1009364042977721e+00
8879:-4.9000960786161718e+00
8880:-3.8004951222627961e+00
8881:-3.6139799140251330e+00
8882:-3.3627670783260974e+00
8883:-3.1656796799049922e+00
8884:-4.0868925072971916e+00
8885:-3.8919116468987016e+00
8886:-3.6279194280352010e+00
8887:-3.4198860686378318e+00
8888:-4.4790462757645413e+00
8889:-4.2713293167124906e+00
8890:-3.9882080119337400e+00
8891:-3.7638781550340439e+00
8892:-4.7878759914450360e+00
8893:-4.5688241456495096e+00
8894:-4.2690112269593108e+00
8895:-4.0306909921797418e+00
8896:-3.0595234419548949e+00
8897:-2.8598759757863292e+00
8898:-2.6003291158496538e+00
8899:-2.4035035241275033e+00
8900:-3.3075223191626555e+00
8901:-3.0953043741852686e+00
8902:-2.8177580601380812e+00
8903:-2.6061501759694226e+00
8904:-3.6423201138229500e+00
8905:-3.4117727396192157e+00
8906:-3.1084757116412201e+00
8907:-2.8760071746899252e+00
8908:-3.9013175161433375e+00
8909:-3.6553386444914646e+00
8910:-3.3305952570847994e+00
8911:-3.0808819227356583e+00
8912:-2.2997803736832614e+00
8913:-2.1082706471578989e+00
8914:-1.8659100754337621e+00
8915:-1.6870293363593378e+00
8916:-2.4942763825287266e+00
8917:-2.2872048396053737e+00
8918:-2.0243173836113830e+00
8919:-1.8297692540296475e+00
8920:-2.7527038740428136e+00
8921:-2.5237958223764170e+00
8922:-2.2319964568634445e+00
8923:-2.0152499249297846e+00
8924:-2.9481623797176888e+00
8925:-2.7012913022570735e+00
8926:-2.3857160543998273e+00
8927:-2.1506842675770779e+00
8928:-1.5945050910722001e+00
8929:-1.4273160845448356e+00
8930:-1.2229632644817450e+00
8931:-1.0777810811595199e+00
8932:-1.7289763928513555e+00
8933:-1.5463595924409739e+00
8934:-1.3224125044437807e+00
8935:-1.1629718711638004e+00
8936:-1.9026791985582441e+00
8937:-1.6979351761799799e+00
8938:-1.4455593392745207e+00
8939:-1.2651493649737400e+00
8940:-2.0283893708126874e+00
8941:-1.8053008917502196e+00
8942:-1.5291910203354937e+00
8943:-1.3311320542107605e+00
8944:-1.0047220480927881e+00
8945:-8.7607440156316785e-01
8946:-7.2576831602202829e-01
8947:-6.2486341516492949e-01
8948:-1.0827172707391626e+00
8949:-9.4197940755693177e-01
8950:-7.7879514184842080e-01
8951:-6.7024382362238255e-01
8952:-1.1742027031521158e+00
8953:-1.0153279692078880e+00
8954:-8.3233387985053431e-01
8955:-7.1144645490593617e-01
8956:-1.2311199095727929e+00
8957:-1.0565519415383120e+00
8958:-8.5562210583657650e-01
8959:-7.2277866871544150e-01
8960:-5.7640027109570757e-01
8961:-4.9519226827448881e-01
8962:-4.0656984159038612e-01
8963:-3.5039663408458305e-01
8964:-6.1841487670596584e-01
8965:-5.3058113826948550e-01
8966:-4.3135987542980492e-01
8967:-3.6464581814235913e-01
8968:-6.5393858995550835e-01
8969:-5.5568256815591599e-01
8970:-4.4333024209320798e-01
8971:-3.6718517437973813e-01
8972:-6.5954274503476995e-01
8973:-5.5294796443338257e-01
8974:-4.3606329623622059e-01
8975:-3.6255553562362669e-01
8976:4.8634576208569485e-01
8977:1.8578175164749144e-01
8978:-1.8320110745727741e-01
8979:-4.5021924255611179e-01
8980:2.0761482066989967e-01
8981:-3.6825965593846301e-02
8982:-3.4523335712386144e-01
8983:-5.7528528341799989e-01
8984:-1.7463213291489929e-01
8985:-3.4581158318942179e-01
8986:-5.7523222000416063e-01
8987:-7.5721760537365346e-01
8988:-4.7870119162692443e-01
8989:-5.9460391315990158e-01
8990:-7.6452583187377243e-01
8991:-9.1044292744278355e-01
8992:-5.8761663508527595e-01
8993:-8.4015879914051328e-01
8994:-1.1637965718633712e+00
8995:-1.4106652202601280e+00
8996:-6.9622337585557914e-01
8997:-9.2291546195719754e-01
8998:-1.2218903411793705e+00
8999:-1.4562709960449589e+00
9000:-8.5683603292384580e-01
9001:-1.0503356728220550e+00
9002:-1.3182263704877393e+00
9003:-1.5373653670192988e+00
9004:-9.9414631132788356e-01
9005:-1.1631766933204468e+00
9006:-1.4087980511033267e+00
9007:-1.6175984275181821e+00
9008:-1.5428010032825206e+00
9009:-1.7936892317032753e+00
9010:-2.1261831190665927e+00
9011:-2.3842164637723751e+00
9012:-1.5838676608545454e+00
9013:-1.8297531361054680e+00
9014:-2.1617037112683781e+00
9015:-2.4231688968177081e+00
9016:-1.6596362541710539e+00
9017:-1.8999588512077290e+00
9018:-2.2323546128659868e+00
9019:-2.4993157860772617e+00
9020:-1.7365236786714586e+00
9021:-1.9737796968655481e+00
9022:-2.3078629159981023e+00
9023:-2.5800703176494593e+00
9024:-2.5226509650310183e+00
9025:-2.7835761740713321e+00
9026:-3.1235683964813012e+00
9027:-3.3815026547651672e+00
9028:-2.5645889158894004e+00
9029:-2.8330941995886061e+00
9030:-3.1867107178538272e+00
9031:-3.4578308350996037e+00
9032:-2.6452737890658895e+00
9033:-2.9249431722583594e+00
9034:-3.2979346740935576e+00
9035:-3.5872902921850152e+00
9036:-2.7301035401823253e+00
9037:-3.0195198739372762e+00
9038:-3.4089136859881313e+00
9039:-3.7133223487518858e+00
9040:-3.5174489236791331e+00
9041:-3.7702244914951395e+00
9042:-4.0933612547148073e+00
9043:-4.3338817322844561e+00
9044:-3.6017172129438815e+00
9045:-3.8705383994310503e+00
9046:-4.2163446138827032e+00
9047:-4.4752127437474218e+00
9048:-3.7419777113971642e+00
9049:-4.0324018879337657e+00
9050:-4.4085983898187147e+00
9051:-4.6921981362963727e+00
9052:-3.8767877250375644e+00
9053:-4.1845436441554753e+00
9054:-4.5849091381704374e+00
9055:-4.8881998967381026e+00
9056:-4.4589410502714735e+00
9057:-4.6867647730290871e+00
9058:-4.9682374907199982e+00
9059:-5.1699105660195448e+00
9060:-4.6103006729419578e+00
9061:-4.8574069460864298e+00
9062:-5.1646848266392844e+00
9063:-5.3863860025103900e+00
9064:-4.8409043035484469e+00
9065:-5.1142138043986130e+00
9066:-5.4563981651950355e+00
9067:-5.7049333188446623e+00
9068:-5.0477975057435636e+00
9069:-5.3420285767320390e+00
9070:-5.7118763215632047e+00
9071:-5.9814228090769452e+00
9072:-5.2718645117591585e+00
9073:-5.4523699506677330e+00
9074:-5.6644184444784740e+00
9075:-5.8069584072499190e+00
9076:-5.4990152010032780e+00
9077:-5.6991491780364649e+00
9078:-5.9356585629504686e+00
9079:-6.0958127995653326e+00
9080:-5.8317432750374900e+00
9081:-6.0578674611617869e+00
9082:-6.3267909048034170e+00
9083:-6.5104484074237057e+00
9084:-6.1192244355654450e+00
9085:-6.3654117348276831e+00
9086:-6.6593403239512767e+00
9087:-6.8612204165735591e+00
9088:-5.8752614701419930e+00
9089:-5.9881606479749143e+00
9090:-6.1034750819515988e+00
9091:-6.1656139553998264e+00
9092:-6.1730453193967545e+00
9093:-6.3019658719466296e+00
9094:-6.4362051319029367e+00
9095:-6.5108181952783442e+00
9096:-6.5996767343677298e+00
9097:-6.7499253714990060e+00
9098:-6.9088374565133606e+00
9099:-6.9992212283885182e+00
9100:-6.9597948642880416e+00
9101:-7.1264300738568380e+00
9102:-7.3037132102584330e+00
9103:-7.4052827618628001e+00
9104:-6.1889358141862578e+00
9105:-6.2135836500885162e+00
9106:-6.2061600037653166e+00
9107:-6.1683321415885297e+00
9108:-6.5398973255680719e+00
9109:-6.5732175799617485e+00
9110:-6.5732165356138408e+00
9111:-6.5384205354608049e+00
9112:-7.0353776479687484e+00
9113:-7.0792537449306669e+00
9114:-7.0879783361279216e+00
9115:-7.0562878496775729e+00
9116:-7.4462213932196466e+00
9117:-7.4970296150844788e+00
9118:-7.5109772874348923e+00
9119:-7.4804736392894684e+00
9120:-6.1362993844636096e+00
9121:-6.0547668452402990e+00
9122:-5.9098831895106754e+00
9123:-5.7722729600757781e+00
9124:-6.5071455200132693e+00
9125:-6.4253930721801664e+00
9126:-6.2773079133714322e+00
9127:-6.1353038562977629e+00
9128:-7.0254716532039074e+00
9129:-6.9423097771839313e+00
9130:-6.7882037228145871e+00
9131:-6.6386399815102743e+00
9132:-7.4493192069092844e+00
9133:-7.3636667511961829e+00
9134:-7.2027781459639115e+00
9135:-7.0454155177129287e+00
9136:-5.6903760661570733e+00
9137:-5.5219231171449614e+00
9138:-5.2759472683696869e+00
9139:-5.0697314827959090e+00
9140:-6.0504467513105178e+00
9141:-5.8750827975790667e+00
9142:-5.6174504922579365e+00
9143:-5.4003434886264738e+00
9144:-6.5487822980663442e+00
9145:-6.3622610245935931e+00
9146:-6.0868043984931424e+00
9147:-5.8537239438551172e+00
9148:-6.9505267992385233e+00
9149:-6.7532808435945038e+00
9150:-6.4616287959671661e+00
9151:-6.2146699031517487e+00
9152:-4.9542732790336936e+00
9153:-4.7285686974254588e+00
9154:-4.4191339626056934e+00
9155:-4.1728653239516742e+00
9156:-5.2784165812235671e+00
9157:-5.0395743526198249e+00
9158:-4.7113525470948803e+00
9159:-4.4496632229067759e+00
9160:-5.7225241340888431e+00
9161:-5.4650165599317804e+00
9162:-5.1102485701160436e+00
9163:-4.8267694894808031e+00
9164:-6.0756044544920060e+00
9165:-5.8022785106355990e+00
9166:-5.4248956073685513e+00
9167:-5.1227004737970354e+00
9168:-4.0390874359189013e+00
9169:-3.7844412937618586e+00
9170:-3.4476898689296043e+00
9171:-3.1883396535879176e+00
9172:-4.3073578835603534e+00
9173:-4.0359328265602610e+00
9174:-3.6759683663316420e+00
9175:-3.3980439087766792e+00
9176:-4.6724002451824065e+00
9177:-4.3774685057639875e+00
9178:-3.9855233526776690e+00
9179:-3.6824518845222265e+00
9180:-4.9579240601364649e+00
9181:-4.6430900804280002e+00
9182:-4.2248898209583539e+00
9183:-3.9017994877931157e+00
9184:-3.0503628788070811e+00
9185:-2.7934829805105910e+00
9186:-2.4646895578434602e+00
9187:-2.2195035780153147e+00
9188:-3.2499623431811768e+00
9189:-2.9739098902925711e+00
9190:-2.6199300694031598e+00
9191:-2.3555040432684486e+00
9192:-3.5208469676695002e+00
9193:-3.2192668282348684e+00
9194:-2.8319926997947364e+00
9195:-2.5423371299031658e+00
9196:-3.7296376529769137e+00
9197:-3.4082316779042325e+00
9198:-2.9952570330068617e+00
9199:-2.6862648529299169e+00
9200:-2.0918090894539572e+00
9201:-1.8585226167296234e+00
9202:-1.5691877837030357e+00
9203:-1.3612650263156896e+00
9204:-2.2176209326471747e+00
9205:-1.9651961533992464e+00
9206:-1.6511987653691245e+00
9207:-1.4249573863455915e+00
9208:-2.3911911695364880e+00
9209:-2.1143403205979228e+00
9210:-1.7697646145378829e+00
9211:-1.5214144832126306e+00
9212:-2.5250352236043372e+00
9213:-2.2302148270354025e+00
9214:-1.8643395420377704e+00
9215:-1.6014689816044378e+00
9216:-1.2561669653573899e+00
9217:-1.0726281908748068e+00
9218:-8.6103544774752627e-01
9219:-7.2070291772923711e-01
9220:-1.3104120587121577e+00
9221:-1.1098418206603042e+00
9222:-8.7692131892525238e-01
9223:-7.2048957708314176e-01
9224:-1.3956187424844604e+00
9225:-1.1741138355858307e+00
9226:-9.1290382387500524e-01
9227:-7.3300362839730171e-01
9228:-1.4685447508482539e+00
9229:-1.2332221837775410e+00
9230:-9.5152274210466692e-01
9231:-7.5288135452655769e-01
9232:-6.5378598448503245e-01
9233:-5.4284293723517363e-01
9234:-4.2670564400643751e-01
9235:-3.5959326929198843e-01
9236:-6.4522615573842146e-01
9237:-5.2390099863409567e-01
9238:-4.0602177873996409e-01
9239:-3.4701275728260594e-01
9240:-6.4448435910967627e-01
9241:-4.9948112135680028e-01
9242:-3.5136368233069021e-01
9243:-2.6760749517959787e-01
9244:-6.5267624312543326e-01
9245:-4.7642918740363016e-01
9246:-2.6447917115948993e-01
9247:-1.1085334659525829e-01
