label=Stress xy
num_items=1568

0:-4.5613572431656374e-01
1:-4.1099018239724316e-01
2:-1.2971995439132724e+00
3:-1.9803793437686676e+00
4:-7.2116744616845652e-01
5:1.1154345666568478e-01
6:3.8755471353373305e-01
7:2.1832427812135177e-01
8:1.3146325759359350e+00
9:1.4515019440169949e+00
10:1.4877354928717652e+00
11:1.2937915045117718e+00
12:2.9923064252425471e+00
13:2.1747710823522661e+00
14:1.4664986725992493e+00
15:1.0246438904587576e+00
16:-2.1242628578217846e+00
17:-1.8252143722182426e+00
18:-8.2644855878301771e-01
19:-7.4888394811093967e-02
20:8.1088293208221293e-02
21:2.9693479771334449e-02
22:2.1289030321123048e-01
23:3.5200816157272263e-01
24:1.0916836345341834e+00
25:7.4842125644135826e-01
26:4.3862606967607015e-01
27:3.2296914152313183e-01
28:7.7925082362666254e-01
29:3.8581864227885426e-01
30:8.1267478188421977e-02
31:5.6993948955065675e-02
32:1.7756117422367615e-01
33:3.3229224568599292e-01
34:1.5973329629999017e-01
35:-3.3809981826898719e-02
36:3.6892836298986637e-01
37:2.9459084244040767e-01
38:1.1471029036344299e-01
39:2.3422012761885807e-02
40:3.0381510433663123e-01
41:2.5849645922293413e-01
42:1.8719829025191903e-01
43:1.4712536740177418e-01
44:1.2234311478326118e-01
45:2.1542360786770115e-01
46:2.4812815260304916e-01
47:2.1251900357090009e-01
48:-9.2444229299004754e-02
49:-1.1015632915523044e-01
50:-3.4526358923246361e-02
51:2.8875129009227157e-02
52:2.0404973414798487e-02
53:4.6935597842204357e-02
54:8.8457020133385078e-02
55:8.7380047001500885e-02
56:1.3729301948929371e-01
57:1.2833935817651632e-01
58:1.1706033577874160e-01
59:9.4851650223881284e-02
60:1.7690854141568171e-01
61:1.2631392943286154e-01
62:9.2462118341132382e-02
63:8.2525952749582146e-02
64:4.4444765954442182e-02
65:4.5256738114732305e-02
66:1.8850546776126475e-02
67:2.4074020935078598e-04
68:6.6227967304293020e-02
69:2.7008032306364501e-02
70:-2.3878816252348744e-03
71:2.2794725066023099e-03
72:7.5371524623931624e-02
73:4.5544452935840932e-02
74:2.7394596382102943e-02
75:3.1872959042695735e-02
76:8.0008635666400610e-02
77:7.3633958388782547e-02
78:6.3501592918319083e-02
79:5.6672300951693309e-02
80:-2.8979342374148825e-03
81:-2.9022563046555189e-03
82:6.7142936091237288e-04
83:8.9224971590046230e-04
84:1.5889915414241462e-02
85:3.4466604508185283e-02
86:3.6904413670279433e-02
87:2.0232678236942844e-02
88:4.0491152779541545e-02
89:5.0477329080140007e-02
90:4.7146875052852796e-02
91:3.1651037073249177e-02
92:5.3993191798551221e-02
93:4.9687058614894322e-02
94:4.3417139113450319e-02
95:3.6466332557988562e-02
96:-9.5248513376958188e-04
97:-1.0692868701222857e-03
98:2.5971619510410217e-03
99:4.1575340766608973e-03
100:5.6356440637053097e-03
101:-8.4349016545696640e-03
102:9.6613299070178469e-04
103:2.6224262511554165e-02
104:1.9581398828491411e-02
105:5.4543036533781421e-03
106:5.7838012454513371e-03
107:1.9275764765275951e-02
108:3.1622567695881509e-02
109:2.2303605965186747e-02
110:1.1323616943033533e-02
111:4.9107145912214937e-03
112:3.4143958105392489e+00
113:2.2152101715527754e+00
114:1.1612293632980080e+00
115:6.0576567278036031e-01
116:3.1051943821657781e+00
117:1.6758624487864699e+00
118:4.3110357614765060e-01
119:-1.2094384515094139e-01
120:1.4923639787730896e+00
121:4.0948973566638380e-01
122:-4.7395563342440278e-01
123:-7.5750064294760378e-01
124:1.9942897132747225e-01
125:-4.2327684472943694e-01
126:-8.7260814533512532e-01
127:-9.2291634288904811e-01
128:3.5999623749770349e-01
129:1.2361317080569456e-02
130:-1.8053531156132074e-01
131:-1.0222984367422262e-01
132:-2.9786941573891218e-01
133:-4.8596653813763058e-01
134:-4.7287701971474849e-01
135:-2.7534837648140881e-01
136:-7.8035539519552199e-01
137:-7.2721582974215604e-01
138:-5.3140105482306876e-01
139:-3.1514604446274408e-01
140:-8.4931007761596744e-01
141:-6.7694497924769537e-01
142:-4.4347069452960935e-01
143:-2.8258471105655836e-01
144:1.5825179735623852e-02
145:1.7998693390758738e-01
146:2.5415680030445215e-01
147:2.1791703567724624e-01
148:-1.1711216815599206e-01
149:9.8248675718813114e-02
150:2.0764930533543483e-01
151:1.8389547210783361e-01
152:-1.9023666525347566e-01
153:-2.0912207432906373e-02
154:8.1320151073014366e-02
155:9.2120207603392970e-02
156:-2.1080914099486128e-01
157:-1.0805372452829452e-01
158:-2.3001404330678547e-02
159:1.7594846938138720e-02
160:1.7368268497728462e-01
161:1.1279996390819050e-01
162:7.9689984242292081e-02
163:7.9738880826811825e-02
164:1.4423642804419295e-01
165:9.2814228725426245e-02
166:7.2948921258037411e-02
167:8.2536522357389425e-02
168:8.2860942229099982e-02
169:7.4731091994283516e-02
170:8.0058377109694309e-02
171:8.7941361036068491e-02
172:3.4449406354453392e-02
173:6.0237616012399943e-02
174:7.9804778484537445e-02
175:8.1454305785272227e-02
176:8.4889825656711743e-02
177:8.7404978335186387e-02
178:7.7992887282738912e-02
179:6.5164344551980058e-02
180:9.2001854448675716e-02
181:9.8452867504564598e-02
182:8.7710956279315591e-02
183:7.0986057493699517e-02
184:9.0743705526827229e-02
185:8.8703265836598572e-02
186:7.6860281515139517e-02
187:6.6165671180074603e-02
188:7.7332965173948526e-02
189:6.8980130713458723e-02
190:6.1068956373734218e-02
191:5.9450372797983729e-02
192:5.7849497173696154e-02
193:4.8452207978465098e-02
194:4.2402752128450648e-02
195:3.9522421827007326e-02
196:6.1357068891872042e-02
197:5.0140317761375827e-02
198:4.5573655229566544e-02
199:4.5260111416962158e-02
200:6.1593775094487040e-02
201:5.6819820878780312e-02
202:5.3901679404369761e-02
203:5.0171391455030162e-02
204:6.0542207752409490e-02
205:6.1593335868532967e-02
206:5.8108927520759621e-02
207:4.9976152065193478e-02
208:3.7538760466377094e-02
209:2.9792957530704104e-02
210:1.3855924958696603e-02
211:-3.8360319124013326e-04
212:4.4561813451337952e-02
213:3.6689804742722473e-02
214:1.6717851816199961e-02
215:-2.1311709021176336e-03
216:4.6428367121255351e-02
217:3.5640496052136428e-02
218:1.7854577496447175e-02
219:4.7745752443702650e-03
220:4.3431074208830273e-02
221:3.1271389418036415e-02
222:1.7855948264039665e-02
223:1.0634753715952691e-02
224:-2.4912274401666359e-01
225:-6.5179044563529953e-01
226:-9.1024162769689021e-01
227:-8.7959393344363490e-01
228:-5.3673374048287781e-01
229:-6.9249426168018591e-01
230:-7.6873346006544807e-01
231:-6.9874574212321039e-01
232:-2.5286425486683162e-01
233:-3.3922504049630209e-01
234:-4.1619447050739966e-01
235:-4.2427574238925658e-01
236:8.1410254896470288e-02
237:-6.5845257820536490e-02
238:-2.1856233900689825e-01
239:-3.0037061949971600e-01
240:-7.8315571552242014e-01
241:-5.9617213200898667e-01
242:-3.8677238168386824e-01
243:-2.6744627173857288e-01
244:-6.1294889607121772e-01
245:-4.6731938678500745e-01
246:-3.3107050086884499e-01
247:-2.6813451350900680e-01
248:-4.0623822421311090e-01
249:-3.7317738683005042e-01
250:-3.3448429545223324e-01
251:-3.0167794224981026e-01
252:-3.3027455967627156e-01
253:-3.6454054779467571e-01
254:-3.6458697929278294e-01
255:-3.2773394086306706e-01
256:-2.2157251880848669e-01
257:-1.4824017026995137e-01
258:-6.8033491854344263e-02
259:-1.4004077200966978e-02
260:-2.4744828221272286e-01
261:-1.9971110811031920e-01
262:-1.2071581844075643e-01
263:-5.4555581614843633e-02
264:-2.8071403589378841e-01
265:-2.2871071371680235e-01
266:-1.4722030904619468e-01
267:-8.5816653999511036e-02
268:-2.9536139952908952e-01
269:-2.3182396172944100e-01
270:-1.5482027627660447e-01
271:-1.0683570932922465e-01
272:1.2865596912876528e-02
273:5.0141044924374253e-02
274:7.2508523216795850e-02
275:7.1107117299263112e-02
276:-2.0438748626990053e-02
277:2.3955651229319776e-02
278:4.7379738003185103e-02
279:4.5784675403047363e-02
280:-5.7347499988115613e-02
281:-2.0371913974065896e-02
282:2.8976116981468138e-03
283:9.6556499843556548e-03
284:-8.6971596314623936e-02
285:-5.8055972362708520e-02
286:-3.1138797118834202e-02
287:-1.4239611286174932e-02
288:6.4978995547495672e-02
289:5.6424025818597581e-02
290:5.3275490705904892e-02
291:5.6640293924406761e-02
292:4.0796106112573456e-02
293:3.7328829417972095e-02
294:4.3087216103137468e-02
295:5.1793120742791361e-02
296:1.2031431111833205e-02
297:2.0103745297113559e-02
298:3.4112669746719337e-02
299:4.3279716686951610e-02
300:-5.2807126132854024e-03
301:1.0419967043295531e-02
302:2.6198778145343594e-02
303:3.2684113095612366e-02
304:6.0009496879003116e-02
305:6.2746107215308641e-02
306:5.7990979801779412e-02
307:4.8005553012791059e-02
308:5.6550083515821525e-02
309:5.9558363058048749e-02
310:5.3259260265624102e-02
311:4.2953096681775639e-02
312:4.6281714226820460e-02
313:4.7059712903915425e-02
314:4.1579782876148191e-02
315:3.5347043820505741e-02
316:3.3698204420615885e-02
317:3.3505236674374175e-02
318:3.1359832212454586e-02
319:2.9792333193768530e-02
320:4.0760473435217839e-02
321:2.9011251973781751e-02
322:1.7866302920402630e-02
323:1.2001353175660492e-02
324:3.6480554827397635e-02
325:2.6978479301398493e-02
326:1.7720495108158898e-02
327:1.0320790726729622e-02
328:3.2190541976685728e-02
329:2.6608761770172951e-02
330:1.6590301261271468e-02
331:3.7124722639697342e-03
332:2.9273913187836956e-02
333:2.5902875718123074e-02
334:1.4503639232652550e-02
335:-1.1224358197216310e-03
336:1.8540344526778299e-01
337:-7.2447713510697511e-03
338:-1.9332279710319100e-01
339:-2.9436630195710933e-01
340:2.0337203274708709e-01
341:-2.1542762383021805e-02
342:-2.1621231109141159e-01
343:-3.1451600066863977e-01
344:3.7122276016261849e-02
345:-1.3770267135218023e-01
346:-2.7210365823722105e-01
347:-3.2863354883736751e-01
348:-9.5095695106857836e-02
349:-1.8361672187496034e-01
350:-2.5315406315826033e-01
351:-2.8100161633075144e-01
352:-3.3546473890209155e-01
353:-3.8122584873196136e-01
354:-3.7986182921549982e-01
355:-3.3422981358578152e-01
356:-3.5509059400893889e-01
357:-3.9476254128050725e-01
358:-3.8028075084360352e-01
359:-3.2721447906811058e-01
360:-3.4899807353404977e-01
361:-3.6098241354788380e-01
362:-3.3380152153646619e-01
363:-2.9089271774675762e-01
364:-2.8944924184097182e-01
365:-2.9153656389603283e-01
366:-2.7401034818720338e-01
367:-2.5218149001786155e-01
368:-2.9641142475740834e-01
369:-2.3008009359463230e-01
370:-1.6012799297356717e-01
371:-1.2056391483113321e-01
372:-2.8844577656023890e-01
373:-2.2789059485331428e-01
374:-1.7303364965398149e-01
375:-1.4386325324796218e-01
376:-2.6434090070159777e-01
377:-2.2470207248590393e-01
378:-1.8779452883878303e-01
379:-1.6308069080344581e-01
380:-2.3985143093408523e-01
381:-2.1864372037611862e-01
382:-1.9078715586747078e-01
383:-1.6520295433120794e-01
384:-1.0451474093683860e-01
385:-7.7694208646284624e-02
386:-4.6406072150044955e-02
387:-2.3912036152633161e-02
388:-1.3082600233173022e-01
389:-1.0394324171527344e-01
390:-6.6074638058263635e-02
391:-3.7908264861735430e-02
392:-1.4882461619950660e-01
393:-1.1892911480617102e-01
394:-7.8713926337260293e-02
395:-5.1543341546030817e-02
396:-1.4911421933125155e-01
397:-1.1883957046787305e-01
398:-8.3089778980520806e-02
399:-6.1212878456171439e-02
400:-1.2252366733525730e-02
401:5.6294291031130242e-03
402:2.0370450832471257e-02
403:2.5093562062154202e-02
404:-2.4332012505250050e-02
405:-5.7480394885835043e-03
406:7.0788102918982847e-03
407:1.0836096103350096e-02
408:-3.9778111275199660e-02
409:-2.3896755582663583e-02
410:-1.1696615180491136e-02
411:-5.4165525728406298e-03
412:-5.2200915102991352e-02
413:-3.8532173444565068e-02
414:-2.4484912886380314e-02
415:-1.4634426814911658e-02
416:2.5481320280359820e-02
417:2.5805097157237986e-02
418:2.6399227932503610e-02
419:2.7196955615480217e-02
420:1.1663408909603042e-02
421:1.4387459261106921e-02
422:1.9192063622909129e-02
423:2.2294934245745673e-02
424:-2.1060765391262008e-03
425:4.6302799368889607e-03
426:1.2266778089922985e-02
427:1.5202670993880903e-02
428:-9.2161926385650461e-03
429:-3.3776555767922020e-04
430:7.1942035271974486e-03
431:8.8167850567193607e-03
432:2.7602483329895323e-02
433:2.4706666750026213e-02
434:1.2873860588574716e-02
435:-2.4869279826908773e-03
436:2.3127556721237022e-02
437:2.0428004427966648e-02
438:9.8989550241214176e-03
439:-1.7953424295379268e-03
440:1.5146901896529709e-02
441:1.2455489053375712e-02
442:6.4709009347248235e-03
443:2.2739567363597069e-03
444:8.0376917076223613e-03
445:6.0318542293121297e-03
446:4.2385560471835801e-03
447:4.7433173218909578e-03
448:-1.2622124997947753e-01
449:-1.6161337323565095e-01
450:-2.0171743869448200e-01
451:-2.2456477673778058e-01
452:-1.1301983201892737e-01
453:-9.0797415485313948e-02
454:-1.0568092426594244e-01
455:-1.3089424769199912e-01
456:-2.7037418250373754e-02
457:-5.1964323187241165e-03
458:-2.8670684429543420e-02
459:-6.3825424530676828e-02
460:3.0019720074398386e-02
461:1.0152016410520749e-02
462:-3.2808328936300722e-02
463:-6.8350196932337584e-02
464:-2.3291862969284877e-01
465:-2.4050515646900886e-01
466:-2.3833690858900675e-01
467:-2.3106458120974882e-01
468:-1.4349641157828075e-01
469:-1.6480868346438002e-01
470:-1.8726372222036419e-01
471:-1.9898187017419297e-01
472:-8.2133027683542317e-02
473:-1.1499665506430794e-01
474:-1.5148837533475312e-01
475:-1.7049601961444780e-01
476:-8.5297626708870491e-02
477:-1.1418770843080669e-01
478:-1.4347034051751967e-01
479:-1.5632756262898798e-01
480:-2.2614972707955430e-01
481:-2.1313980743276301e-01
482:-1.8765821399160723e-01
483:-1.6109643718187294e-01
484:-2.0252461320232978e-01
485:-1.9868414086383068e-01
486:-1.7665554850424436e-01
487:-1.5108756080229485e-01
488:-1.7605210324771636e-01
489:-1.7512046406694393e-01
490:-1.5766897720403206e-01
491:-1.3793279433037947e-01
492:-1.5888240166974002e-01
493:-1.5649582709408075e-01
494:-1.4369706772120394e-01
495:-1.3032116328512838e-01
496:-1.4465756902583821e-01
497:-1.1600298056395117e-01
498:-8.4982041970144737e-02
499:-6.6750205993342193e-02
500:-1.3605769190198883e-01
501:-1.1228536708583688e-01
502:-8.9091077495180540e-02
503:-7.5287987415427499e-02
504:-1.2717332663066166e-01
505:-1.1060945322696177e-01
506:-9.3608662716981400e-02
507:-8.1201935406272296e-02
508:-1.2311923020617133e-01
509:-1.1058000755795748e-01
510:-9.4515361255492591e-02
511:-8.0842411798906416e-02
512:-5.9054386986953339e-02
513:-4.5850331019058790e-02
514:-2.9886338586622315e-02
515:-1.8045502765543855e-02
516:-6.8615579913855099e-02
517:-5.5089616777758595e-02
518:-3.6504590231983172e-02
519:-2.2881801561437959e-02
520:-7.3954107216368567e-02
521:-5.9218355897691165e-02
522:-4.0018405657551701e-02
523:-2.7320061669091702e-02
524:-7.2711415826932108e-02
525:-5.7772739802733966e-02
526:-4.0524753794013942e-02
527:-3.0115106552999722e-02
528:-1.1834328760302167e-02
529:-2.5982786599802387e-03
530:4.1100001465956514e-03
531:5.0524747342125939e-03
532:-1.6356394477852532e-02
533:-7.5402906563280334e-03
534:-1.9127231067030432e-03
535:-9.5351446447762762e-04
536:-2.1880740090369239e-02
537:-1.4528193825662424e-02
538:-8.9167657369368623e-03
539:-6.1507368277737475e-03
540:-2.5836851098824637e-02
541:-1.9291118850098665e-02
542:-1.2549764319095479e-02
543:-7.9341577582791346e-03
544:4.1995636386625438e-03
545:3.0224408418314383e-03
546:3.2068724532430797e-03
547:4.9246879327557074e-03
548:-1.1566878808861958e-03
549:-5.2720118598090693e-04
550:1.6101009756810055e-03
551:3.2158613439600262e-03
552:-4.7571041947100734e-03
553:-2.0894722183232876e-03
554:3.4896656392331438e-05
555:-7.3204114800160349e-04
556:-5.4915349459903860e-03
557:-2.1175251920435194e-03
558:-9.3786198323774818e-04
559:-3.0427652226052131e-03
560:3.9762881388643145e-02
561:-9.7885640668301244e-03
562:-6.1523431108706429e-02
563:-9.1624030142762269e-02
564:2.8483066985293799e-02
565:-4.8859182409677231e-02
566:-1.0285635560258451e-01
567:-1.2211335136508036e-01
568:-8.5916270507356927e-03
569:-7.1308711571204275e-02
570:-1.0964869348680006e-01
571:-1.2077901158345125e-01
572:-2.4803016705226676e-02
573:-4.8454764609889352e-02
574:-7.0676089387764943e-02
575:-8.4598780138469748e-02
576:-1.0453307985916004e-01
577:-1.2525956243523240e-01
578:-1.4410138459953192e-01
579:-1.5054209474755315e-01
580:-1.2867425697051987e-01
581:-1.3709978776239329e-01
582:-1.4100633681645611e-01
583:-1.3904720499241621e-01
584:-1.2455797495196004e-01
585:-1.2770609708770511e-01
586:-1.2549615938353659e-01
587:-1.2089978823304010e-01
588:-9.1686312632416028e-02
589:-1.0050224012216546e-01
590:-1.0436183195228180e-01
591:-1.0344819027389547e-01
592:-1.5075145254326780e-01
593:-1.4732389753334160e-01
594:-1.3757436085032543e-01
595:-1.2764637026422324e-01
596:-1.3657835443653446e-01
597:-1.3239884786912379e-01
598:-1.2683832263989234e-01
599:-1.2096269288810152e-01
600:-1.1814405877261734e-01
601:-1.1476356462182570e-01
602:-1.1138214374542986e-01
603:-1.0685178065816435e-01
604:-1.0225629063672803e-01
605:-1.0011000992879021e-01
606:-9.6167864676239986e-02
607:-9.0831228926849611e-02
608:-1.2194414821224604e-01
609:-1.1044435133422952e-01
610:-9.3505601483147266e-02
611:-7.8764682908843531e-02
612:-1.1676154405296725e-01
613:-1.0615012369106717e-01
614:-8.8415419063450837e-02
615:-7.3299585290943783e-02
616:-1.0295116953899654e-01
617:-9.2979888806050334e-02
618:-7.6935698999018531e-02
619:-6.4221665016580443e-02
620:-8.6803640715909874e-02
621:-7.8117954731313430e-02
622:-6.5777692557883599e-02
623:-5.6412877271379128e-02
624:-7.0341959383653660e-02
625:-5.5922681258778639e-02
626:-4.0538237658031294e-02
627:-3.1556467043311803e-02
628:-6.5268735088352348e-02
629:-5.2618004422360698e-02
630:-4.0211232051183959e-02
631:-3.2830062764472874e-02
632:-5.7924615762561006e-02
633:-4.8110023919544838e-02
634:-3.8000261646413055e-02
635:-3.1017566557671135e-02
636:-5.1720249242187447e-02
637:-4.3642240132090539e-02
638:-3.3951613694719704e-02
639:-2.6631019034478641e-02
640:-2.7752163009872627e-02
641:-2.1244427730216182e-02
642:-1.3555046644444626e-02
643:-8.1071582840580476e-03
644:-2.9298627088785698e-02
645:-2.2485506482405163e-02
646:-1.3795517208654177e-02
647:-7.9631855040757597e-03
648:-2.7198075123004501e-02
649:-2.0089346924632500e-02
650:-1.1896257793424209e-02
651:-7.2585450779367898e-03
652:-2.2664742184640936e-02
653:-1.6091762822313879e-02
654:-9.6399796365769785e-03
655:-6.5022491320071421e-03
656:-5.3961882149810812e-03
657:-2.1022649471652646e-03
658:-1.4023255263092707e-03
659:-3.4127900262091275e-03
660:-5.4101547468574122e-03
661:-2.6236663070413674e-03
662:-1.8915923447749526e-03
663:-2.4246776891539298e-03
664:-5.5925876436812346e-03
665:-3.5533396883637141e-03
666:-1.6775190228327838e-03
667:3.1530633647360755e-04
668:-5.4637759775754630e-03
669:-3.6036269157343898e-03
670:-8.2443327699487068e-04
671:1.8505577120688627e-03
672:-2.1230054631849224e-02
673:-1.9549733145516845e-02
674:-3.4937671055624044e-02
675:-5.4053073151262759e-02
676:-5.5302761539158208e-03
677:1.6023228107023883e-02
678:6.5585715459326463e-03
679:-1.5355226062395599e-02
680:7.9007273980658595e-03
681:5.7235344341297059e-03
682:-1.1765859098682629e-03
683:-8.3375651235140982e-03
684:-6.6240403368619414e-03
685:-5.4115397703917573e-02
686:-5.4813907460749205e-02
687:-3.4937532022491433e-02
688:-6.4712441567505580e-02
689:-7.9652358629927783e-02
690:-8.9995050103013022e-02
691:-9.2554217546445022e-02
692:-2.7823604347918165e-02
693:-4.6812628353000034e-02
694:-6.2951501999277112e-02
695:-6.9278901864842701e-02
696:-1.2468755556168982e-02
697:-2.0612233922472606e-02
698:-3.0322809336400466e-02
699:-3.5463806571381054e-02
700:-2.5108227018030980e-02
701:-1.3779206929816292e-02
702:-8.8771305997158729e-03
703:-8.8198549447127666e-03
704:-9.2550288970107322e-02
705:-9.1060891768327684e-02
706:-8.6262873640765320e-02
707:-8.0303051546765397e-02
708:-7.0691113300903857e-02
709:-7.0263208396683041e-02
710:-6.5350875090970692e-02
711:-5.9746107099644931e-02
712:-3.6919550222597818e-02
713:-3.7376178192382002e-02
714:-3.4977532247536615e-02
715:-3.2139369041951596e-02
716:-8.9891352897258688e-03
717:-9.5871695363142721e-03
718:-1.0424472029145607e-02
719:-1.0503722940315449e-02
720:-7.6369592401310554e-02
721:-6.8950118806089505e-02
722:-5.9379841796993460e-02
723:-5.2030635274439734e-02
724:-5.6621215529679803e-02
725:-5.1736481608723101e-02
726:-4.6221174847540750e-02
727:-4.1467632998476327e-02
728:-3.0676251989560980e-02
729:-2.8396257212320468e-02
730:-2.5432092058010423e-02
731:-2.2296113319234378e-02
732:-1.0155058931659328e-02
733:-8.6061151206126927e-03
734:-5.5546751789655622e-03
735:-3.1170591344969745e-03
736:-4.8077400248777893e-02
737:-4.0557476624242125e-02
738:-3.0692471155900455e-02
739:-2.3230483933975154e-02
740:-3.8412400750823146e-02
741:-3.1955841087589955e-02
742:-2.3058066492895827e-02
743:-1.6669748526806912e-02
744:-2.0123607946626342e-02
745:-1.6138211441630832e-02
746:-1.1554070218006031e-02
747:-8.6878858674293881e-03
748:-2.0597567582868155e-03
749:-1.6208686781629231e-03
750:-2.7629660704189003e-03
751:-3.5246869125318140e-03
752:-1.9394972397226085e-02
753:-1.3555661333286874e-02
754:-8.4303258944574654e-03
755:-6.0444601569317009e-03
756:-1.3694947398799014e-02
757:-9.5958824682009624e-03
758:-6.3423951023081990e-03
759:-4.5851564573133208e-03
760:-7.4358117759823527e-03
761:-5.4591909561520499e-03
762:-3.2598494208554191e-03
763:-1.5679172921362991e-03
764:-3.4587464599466953e-03
765:-2.3029630950711128e-03
766:5.4595750574708033e-05
767:1.4328276545501955e-03
768:-5.1504729797556192e-03
769:-3.1466070943755816e-03
770:-1.6606013500165630e-04
771:1.9535241308444658e-03
772:-3.6337361402705650e-03
773:-1.5737084495443593e-03
774:5.6805504956928545e-04
775:7.5391674073564880e-04
776:-6.1935322222045623e-04
777:5.0794974870323943e-04
778:4.6406708997496159e-04
779:-7.9531661684978318e-04
780:1.6662314953661056e-03
781:9.0089388334306476e-04
782:-3.2977438670497454e-04
783:5.6663962244361506e-04
784:1.6091252461139944e+00
785:1.8583354730672412e+00
786:2.1338164241401252e+00
787:2.3082212589247053e+00
788:-2.7698112898168266e-02
789:5.4003377504162864e-01
790:1.1078330667979805e+00
791:1.4265503358078848e+00
792:-2.0890310501386486e+00
793:-1.1206234775988422e+00
794:-1.8196008486614765e-01
795:3.2284273846643491e-01
796:-3.5497970882908931e+00
797:-2.3060664927138070e+00
798:-1.1107679558146528e+00
799:-4.7528278904877436e-01
800:2.3887422888286802e+00
801:2.5210708299175466e+00
802:2.6555634918620363e+00
803:2.7275936322565921e+00
804:1.5604420815954603e+00
805:1.7713765349422137e+00
806:1.9757364189447260e+00
807:2.0806002101334560e+00
808:5.2696512390622896e-01
809:8.4341066077738736e-01
810:1.1457071566364252e+00
811:1.3005338027594144e+00
812:-2.2090473831973007e-01
813:1.7226819010155323e-01
814:5.4829074515195797e-01
815:7.4313736936557351e-01
816:2.7545703338833771e+00
817:2.7850274762722647e+00
818:2.7877958285368720e+00
819:2.7634552468573625e+00
820:2.1190693638356102e+00
821:2.1650100492050637e+00
822:2.1788103149640574e+00
823:2.1574133340715274e+00
824:1.3584084947223987e+00
825:1.4339988189612187e+00
826:1.4761720462974512e+00
827:1.4700535737825198e+00
828:8.1768985296119101e-01
829:9.2091341762663304e-01
830:9.9360752269234520e-01
831:1.0072462887246223e+00
832:2.7416370623031030e+00
833:2.6857455825848424e+00
834:2.5863860370988121e+00
835:2.4921636311608184e+00
836:2.1357236553182277e+00
837:2.0796644461193647e+00
838:1.9794464104701670e+00
839:1.8838591442145762e+00
840:1.4547099907029615e+00
841:1.4096453804803506e+00
842:1.3226426764805486e+00
843:1.2364916510063542e+00
844:1.0013635296304964e+00
845:9.7338176858755154e-01
846:9.0814599856381650e-01
847:8.3873142623253916e-01
848:2.4361343973839586e+00
849:2.3207387148602949e+00
850:2.1510757434045122e+00
851:2.0072112976101062e+00
852:1.8268320610698232e+00
853:1.7098115164284102e+00
854:1.5392512372203393e+00
855:1.3961237646984919e+00
856:1.1844064238291592e+00
857:1.0786028749918395e+00
858:9.2722578205470785e-01
859:8.0254818159156660e-01
860:7.9578374693687393e-01
861:7.0904035006909893e-01
862:5.8661776218294714e-01
863:4.8729705260015577e-01
864:1.9258580870495481e+00
865:1.7626092497773174e+00
866:1.5197561852205750e+00
867:1.3032733093636917e+00
868:1.3158487935249807e+00
869:1.1581779688419898e+00
870:9.3616535932527201e-01
871:7.5132611177002429e-01
872:7.3354298000390050e-01
873:6.0143928169239469e-01
874:4.2638770065185300e-01
875:2.9191003973560081e-01
876:4.3296312771676077e-01
877:3.3126678157639539e-01
878:2.0262116894552912e-01
879:1.0968444510835210e-01
880:1.1755278033557344e+00
881:9.1470242271912883e-01
882:5.1578011352931830e-01
883:1.4956865494409613e-01
884:6.4825459972567112e-01
885:4.6716179546746001e-01
886:2.5651034264121708e-01
887:1.1215019426606816e-01
888:2.2138491409270294e-01
889:1.0701431883349562e-01
890:4.5411927215238635e-03
891:-3.0978846152318790e-02
892:6.2919534100458557e-02
893:-1.6403884825161901e-02
894:-9.4339930745910558e-02
895:-1.2716511972347783e-01
896:-4.2658811339660891e+00
897:-2.8931927751007862e+00
898:-1.5771018154036414e+00
899:-8.7942753753998615e-01
900:-5.4508891983675918e+00
901:-3.8830292246095155e+00
902:-2.3824979335153498e+00
903:-1.5884536818439119e+00
904:-6.6339244156132668e+00
905:-4.9198812601712145e+00
906:-3.2777384373205578e+00
907:-2.4066458843145173e+00
908:-7.2277993816514590e+00
909:-5.4958242976278431e+00
910:-3.8319745794760269e+00
911:-2.9452287722348660e+00
912:-6.0079607462222862e-01
913:-1.7020895772408895e-01
914:2.4256337850961163e-01
915:4.5813804200340463e-01
916:-1.2716426652656125e+00
917:-7.8155785825070445e-01
918:-3.0926992685229787e-01
919:-5.9215806409052538e-02
920:-2.0580080921458523e+00
921:-1.5168133402870303e+00
922:-9.9053285025404558e-01
923:-7.0672164164889728e-01
924:-2.5885107542961170e+00
925:-2.0323162735871789e+00
926:-1.4862862305431750e+00
927:-1.1868448444838340e+00
928:5.4168828110629197e-01
929:6.6053273246812083e-01
930:7.5177069937525598e-01
931:7.7835442945049993e-01
932:3.9681926271261110e-02
933:1.8603656601466054e-01
934:3.1165560686419053e-01
935:3.6359979987226054e-01
936:-5.9179433298094464e-01
937:-4.1499554107677156e-01
938:-2.4804279843293037e-01
939:-1.6307207599690099e-01
940:-1.0632594840036065e+00
941:-8.6841126297390425e-01
942:-6.7410968464481036e-01
943:-5.6524027216391404e-01
944:7.7898020233652499e-01
945:7.6299504208783020e-01
946:7.1347304964785718e-01
947:6.5647275562266461e-01
948:3.7746021885157449e-01
949:3.8639893118146251e-01
950:3.7016376353111569e-01
951:3.3966135820648852e-01
952:-1.3109345440383471e-01
953:-8.6944455020069700e-02
954:-5.4791437707471899e-02
955:-4.6307820405288136e-02
956:-5.1948458523616714e-01
957:-4.4773173503612118e-01
958:-3.7660187889235280e-01
959:-3.3633647325197469e-01
960:6.2037795498643555e-01
961:5.4735296836172964e-01
962:4.4459017376096294e-01
963:3.6168936250362832e-01
964:3.1812792536929213e-01
965:2.7308456971821765e-01
966:2.0813331162440452e-01
967:1.5526572415674353e-01
968:-4.6462708227315179e-02
969:-5.1602413103166378e-02
970:-6.5116262933351626e-02
971:-7.8979310468735048e-02
972:-3.1903153403909551e-01
973:-2.9152798974215688e-01
974:-2.6299348754556423e-01
975:-2.4512228510520248e-01
976:3.1659461625273400e-01
977:2.3325731715987091e-01
978:1.3030060419327338e-01
979:5.8133805451235879e-02
980:1.2656317795967537e-01
981:7.4591261083639046e-02
982:1.3126033606544792e-02
983:-2.7312929599725932e-02
984:-8.7065898395193658e-02
985:-1.0146841653907444e-01
986:-1.1694760507651496e-01
987:-1.2504392343488388e-01
988:-2.3655142580889749e-01
989:-2.2133531794966096e-01
990:-2.0216377670525551e-01
991:-1.8722766521499043e-01
992:2.2473977058855125e-02
993:-4.1616755148451624e-02
994:-1.1496743810190284e-01
995:-1.5870927935461268e-01
996:-4.6421957545558515e-02
997:-8.4770493173942058e-02
998:-1.4117887683815708e-01
999:-1.8926588674522191e-01
1000:-1.2797627401467865e-01
1001:-1.3655937645604227e-01
1002:-1.5866376372111665e-01
1003:-1.8712435360937613e-01
1004:-1.7909710204310825e-01
1005:-1.6630985884234123e-01
1006:-1.5858832690794911e-01
1007:-1.6258393050849013e-01
1008:-7.4259631019216794e+00
1009:-5.7199634333176474e+00
1010:-4.0775569184709539e+00
1011:-3.1991589374392722e+00
1012:-7.5700454914394841e+00
1013:-5.9784108861184881e+00
1014:-4.4377897407721401e+00
1015:-3.6066702849440038e+00
1016:-7.3374715354408284e+00
1017:-6.0137601156956304e+00
1018:-4.7174373384090034e+00
1019:-4.0054964886386530e+00
1020:-6.8758545850774029e+00
1021:-5.8352401041900563e+00
1022:-4.7991529714789962e+00
1023:-4.2163127644140559e+00
1024:-2.8444859515061220e+00
1025:-2.2897524112992080e+00
1026:-1.7417034908528748e+00
1027:-1.4379835577178699e+00
1028:-3.2680810180548230e+00
1029:-2.7346127161354365e+00
1030:-2.1999255536958593e+00
1031:-1.8967128129084925e+00
1032:-3.7102835644764345e+00
1033:-3.2386070851133288e+00
1034:-2.7532379680881940e+00
1035:-2.4669057012142268e+00
1036:-3.9691403190341981e+00
1037:-3.5674381335079861e+00
1038:-3.1413272208309122e+00
1039:-2.8791558890729760e+00
1040:-1.3112289937708026e+00
1041:-1.1089573661349921e+00
1042:-9.0211537030472111e-01
1043:-7.8145522503065901e-01
1044:-1.7672010055505476e+00
1045:-1.5560000765854010e+00
1046:-1.3307648318924168e+00
1047:-1.1910616444617275e+00
1048:-2.3400038456258465e+00
1049:-2.1267646169376992e+00
1050:-1.8871184501442866e+00
1051:-1.7281193805333328e+00
1052:-2.7586867838381677e+00
1053:-2.5506566966537521e+00
1054:-2.3064690662259579e+00
1055:-2.1362526079716906e+00
1056:-7.2865591985055855e-01
1057:-6.4251492254459508e-01
1058:-5.5073802237336977e-01
1059:-4.9352133222317746e-01
1060:-1.1264519985161801e+00
1061:-1.0157943810634571e+00
1062:-8.8823389590843183e-01
1063:-8.0124582869621563e-01
1064:-1.6505719964811694e+00
1065:-1.5122401609020302e+00
1066:-1.3430114144641316e+00
1067:-1.2204968020563871e+00
1068:-2.0503090048369299e+00
1069:-1.8933031181605851e+00
1070:-1.6948652272047107e+00
1071:-1.5467364998700923e+00
1072:-4.6688090357241119e-01
1073:-4.2163966893207344e-01
1074:-3.6972924445630206e-01
1075:-3.3387953600132536e-01
1076:-7.5805631790052352e-01
1077:-6.8060216394691420e-01
1078:-5.8472079983356540e-01
1079:-5.1395769157574622e-01
1080:-1.1572784618188048e+00
1081:-1.0403314807078059e+00
1082:-8.8955204946229316e-01
1083:-7.7444059560422740e-01
1084:-1.4689076847635991e+00
1085:-1.3238067702877221e+00
1086:-1.1351301006803087e+00
1087:-9.9014803190841438e-01
1088:-3.1577837003434489e-01
1089:-2.8359621939050911e-01
1090:-2.4457140917207082e-01
1091:-2.1644094531728245e-01
1092:-4.7698651114333857e-01
1093:-4.1066837329593026e-01
1094:-3.3043883469228896e-01
1095:-2.7369410040148279e-01
1096:-7.1323385952506257e-01
1097:-6.0255996004504864e-01
1098:-4.6743303423299959e-01
1099:-3.7116687720197372e-01
1100:-9.1281442467024876e-01
1101:-7.7265948090314851e-01
1102:-6.0081842642156191e-01
1103:-4.7773623457171649e-01
1104:-2.0201424446009983e-01
1105:-1.7761084283998263e-01
1106:-1.5374076693975916e-01
1107:-1.4362067871479509e-01
1108:-2.4516162084247342e-01
1109:-1.9571866742276861e-01
1110:-1.3983557305100028e-01
1111:-1.0396166639099425e-01
1112:-3.2260938770913200e-01
1113:-2.3821660992065108e-01
1114:-1.4027576965582797e-01
1115:-7.3371847749225907e-02
1116:-4.1539689144437780e-01
1117:-3.0676594373774080e-01
1118:-1.7995155691979323e-01
1119:-9.2529175099269639e-02
1120:-6.5454307374907952e+00
1121:-5.6776054963518705e+00
1122:-4.8008506890978877e+00
1123:-4.2975861671672302e+00
1124:-5.8015263720661752e+00
1125:-5.2813861811185676e+00
1126:-4.7276360692035997e+00
1127:-4.3874926932843348e+00
1128:-4.6755443231932343e+00
1129:-4.6252005324663656e+00
1130:-4.5122499295164635e+00
1131:-4.3980948225293686e+00
1132:-3.7743005052269671e+00
1133:-4.0709236616502711e+00
1134:-4.2864810278247596e+00
1135:-4.3431912239681525e+00
1136:-4.0802888312942214e+00
1137:-3.7224783431291479e+00
1138:-3.3343606816169684e+00
1139:-3.0885696284078410e+00
1140:-4.2321490525647141e+00
1141:-3.9663640381440928e+00
1142:-3.6599004225954301e+00
1143:-3.4512476681870585e+00
1144:-4.3299259016406593e+00
1145:-4.1951215298535258e+00
1146:-4.0077165912438728e+00
1147:-3.8559281590912367e+00
1148:-4.3419260227821770e+00
1149:-4.3083915340413981e+00
1150:-4.2143677180543015e+00
1151:-4.1084780964557268e+00
1152:-2.9729774271250644e+00
1153:-2.7699355316735348e+00
1154:-2.5254245669433817e+00
1155:-2.3503609289323153e+00
1156:-3.3477275385093304e+00
1157:-3.1588187028031802e+00
1158:-2.9187238102611497e+00
1159:-2.7376119558387542e+00
1160:-3.7722565543577606e+00
1161:-3.6089124810557998e+00
1162:-3.3829424056101089e+00
1163:-3.1997549145740165e+00
1164:-4.0414737407941352e+00
1165:-3.9007789324170838e+00
1166:-3.6902498749080559e+00
1167:-3.5094949921466552e+00
1168:-2.2604148843504790e+00
1169:-2.0942022223108641e+00
1170:-1.8809024942578321e+00
1171:-1.7194510290806631e+00
1172:-2.6415373465234642e+00
1173:-2.4603755078581346e+00
1174:-2.2216250390242087e+00
1175:-2.0364886854532620e+00
1176:-3.0986432804719470e+00
1177:-2.9038992875523313e+00
1178:-2.6401419162840440e+00
1179:-2.4304311208780924e+00
1180:-3.4068811470672551e+00
1181:-3.2071943112855688e+00
1182:-2.9331654900279238e+00
1183:-2.7124407982132714e+00
1184:-1.6339694462748562e+00
1185:-1.4746569294271390e+00
1186:-1.2679035567649748e+00
1187:-1.1093704527554731e+00
1188:-1.9371843102315174e+00
1189:-1.7529270058143309e+00
1190:-1.5161562793852537e+00
1191:-1.3364889189692584e+00
1192:-2.3164080907477436e+00
1193:-2.1059753604471463e+00
1194:-1.8390336025541876e+00
1195:-1.6394862387004654e+00
1196:-2.5914950688032219e+00
1197:-2.3682627635770910e+00
1198:-2.0860524857510421e+00
1199:-1.8764116681841405e+00
1200:-1.0249254476552985e+00
1201:-8.7189693945277646e-01
1202:-6.8413409619800780e-01
1203:-5.4942815407723999e-01
1204:-1.2414234337557828e+00
1205:-1.0695372072524256e+00
1206:-8.5900339594096942e-01
1207:-7.0804008488561654e-01
1208:-1.5349805661696343e+00
1209:-1.3466531008071647e+00
1210:-1.1166503041033602e+00
1211:-9.5200569113834332e-01
1212:-1.7671859624082711e+00
1213:-1.5704071211376023e+00
1214:-1.3297827367003372e+00
1215:-1.1571352116578666e+00
1216:-4.8108531378625680e-01
1217:-3.6170988018346084e-01
1218:-2.2192283143775421e-01
1219:-1.2534771558543578e-01
1220:-6.3139031433627957e-01
1221:-4.9697409840487305e-01
1222:-3.3906181056440948e-01
1223:-2.3012719490453562e-01
1224:-8.6839069030015936e-01
1225:-7.2108751278579186e-01
1226:-5.4809636005619133e-01
1227:-4.3019394692076568e-01
1228:-1.0692502053388009e+00
1229:-9.1413295273305761e-01
1230:-7.3312949593550880e-01
1231:-6.1227047915036259e-01
1232:-3.3047872627268697e+00
1233:-3.7739485582356633e+00
1234:-4.1539678568583343e+00
1235:-4.2971621599039160e+00
1236:-2.4759641244160071e+00
1237:-3.2313989149435631e+00
1238:-3.8875038192863296e+00
1239:-4.1784409276563945e+00
1240:-1.5580554957230393e+00
1241:-2.5974322822324236e+00
1242:-3.5340085870690419e+00
1243:-3.9802623261179559e+00
1244:-1.0249983127437998e+00
1245:-2.2037616993588278e+00
1246:-3.2842025378918662e+00
1247:-3.8148631470288072e+00
1248:-4.3301444955744737e+00
1249:-4.3486560695073910e+00
1250:-4.3029526106274645e+00
1251:-4.2211405230883878e+00
1252:-4.2709333391039355e+00
1253:-4.3807108580531082e+00
1254:-4.4210030714559849e+00
1255:-4.3830248298111121e+00
1256:-4.1373424695544587e+00
1257:-4.3480299071480673e+00
1258:-4.4863376315982997e+00
1259:-4.5006046407116829e+00
1260:-4.0088228076505681e+00
1261:-4.2788488138628873e+00
1262:-4.4775318635026684e+00
1263:-4.5260684367959803e+00
1264:-4.1630435966057204e+00
1265:-4.0347987924026789e+00
1266:-3.8335881338035174e+00
1267:-3.6553859171551020e+00
1268:-4.3415535969316723e+00
1269:-4.2372247338230027e+00
1270:-4.0552527708432136e+00
1271:-3.8837198300840940e+00
1272:-4.4798829864645624e+00
1273:-4.4067667741301868e+00
1274:-4.2524596454310783e+00
1275:-4.0929782279478140e+00
1276:-4.5197716583973797e+00
1277:-4.4693661684891657e+00
1278:-4.3369320512735241e+00
1279:-4.1884659260357777e+00
1280:-3.5527972131787755e+00
1281:-3.3525650376467477e+00
1282:-3.0767545923802908e+00
1283:-2.8536112435635634e+00
1284:-3.7823137015722996e+00
1285:-3.5836695308987552e+00
1286:-3.3093249234895126e+00
1287:-3.0867414573906378e+00
1288:-3.9951835567806349e+00
1289:-3.8021295984559322e+00
1290:-3.5345462615112999e+00
1291:-3.3175609777969770e+00
1292:-4.0946176096339482e+00
1293:-3.9068926984056884e+00
1294:-3.6442832010327875e+00
1295:-3.4310909424861658e+00
1296:-2.7309558693179139e+00
1297:-2.5040495973628554e+00
1298:-2.2167067101920725e+00
1299:-2.0032968978224548e+00
1300:-2.9641033223480435e+00
1301:-2.7358936081214407e+00
1302:-2.4449593700215875e+00
1303:-2.2281071093230809e+00
1304:-3.1981319987666081e+00
1305:-2.9741924771802024e+00
1306:-2.6857928872941041e+00
1307:-2.4693024688014154e+00
1308:-3.3139838423667194e+00
1309:-3.0936872981001549e+00
1310:-2.8086775265119339e+00
1311:-2.5940420360208249e+00
1312:-1.8922097768266630e+00
1313:-1.6918184638490266e+00
1314:-1.4460853654158305e+00
1315:-1.2691643501221697e+00
1316:-2.1151022604726020e+00
1317:-1.9103540197350526e+00
1318:-1.6574408799265470e+00
1319:-1.4739943471975310e+00
1320:-2.3560942160016443e+00
1321:-2.1498295569535588e+00
1322:-1.8932336233727500e+00
1323:-1.7061992269970530e+00
1324:-2.4816426196794352e+00
1325:-2.2768083045918646e+00
1326:-2.0226560342231168e+00
1327:-1.8385459517723211e+00
1328:-1.1788798431431620e+00
1329:-1.0195906684129779e+00
1330:-8.3495013509048588e-01
1331:-7.1358886263932175e-01
1332:-1.3799821828150276e+00
1333:-1.2147529543276028e+00
1334:-1.0252192759896814e+00
1335:-9.0271136055990275e-01
1336:-1.6102393255030039e+00
1337:-1.4424471206507672e+00
1338:-1.2494899541800661e+00
1339:-1.1221820560318330e+00
1340:-1.7446092990374171e+00
1341:-1.5794458998351568e+00
1342:-1.3831922855464764e+00
1343:-1.2447430074218544e+00
1344:-8.1090036838083979e-01
1345:-2.0346066712101685e+00
1346:-3.1647378013762535e+00
1347:-3.7269682696277426e+00
1348:-5.3285743666636343e-01
1349:-1.7877164364189848e+00
1350:-2.9619719082491272e+00
1351:-3.5589968374677050e+00
1352:-4.0636879087466532e-01
1353:-1.6053408809683642e+00
1354:-2.7475957686485253e+00
1355:-3.3450280436095912e+00
1356:-4.7914458364047513e-01
1357:-1.5708327351678117e+00
1358:-2.6285521782069119e+00
1359:-3.1958705780406347e+00
1360:-3.9355782437560656e+00
1361:-4.2300107470032016e+00
1362:-4.4548353146360888e+00
1363:-4.5191628044852239e+00
1364:-3.7860218994976358e+00
1365:-4.1133922031057280e+00
1366:-4.3770715866055445e+00
1367:-4.4674441499285029e+00
1368:-3.5791860913254387e+00
1369:-3.9254278804407359e+00
1370:-4.2203243156753247e+00
1371:-4.3373947904233692e+00
1372:-3.4239195117470498e+00
1373:-3.7679396389262014e+00
1374:-4.0728585226387493e+00
1375:-4.2046737172015680e+00
1376:-4.5198596948502567e+00
1377:-4.4808347335543317e+00
1378:-4.3599673660548310e+00
1379:-4.2178109928552603e+00
1380:-4.4805871526103944e+00
1381:-4.4628188491808043e+00
1382:-4.3657484822519148e+00
1383:-4.2388450922920571e+00
1384:-4.3650857846662285e+00
1385:-4.3735539592092003e+00
1386:-4.3088585611301893e+00
1387:-4.2057549417154148e+00
1388:-4.2418424583879180e+00
1389:-4.2680385758908406e+00
1390:-4.2266160039689034e+00
1391:-4.1421183170412297e+00
1392:-4.1263976243415526e+00
1393:-3.9415713464258419e+00
1394:-3.6807679530659918e+00
1395:-3.4685245666216531e+00
1396:-4.1544193295720007e+00
1397:-3.9793405709142804e+00
1398:-3.7261932946930605e+00
1399:-3.5174429481459399e+00
1400:-4.1335830960923827e+00
1401:-3.9777692504504141e+00
1402:-3.7425480725909175e+00
1403:-3.5426198042765167e+00
1404:-4.0801755815019387e+00
1405:-3.9417593805662445e+00
1406:-3.7244252687144406e+00
1407:-3.5338711671488356e+00
1408:-3.3520292379800365e+00
1409:-3.1328144398459838e+00
1410:-2.8490565501114293e+00
1411:-2.6353125925284764e+00
1412:-3.4023538548919912e+00
1413:-3.1849765184725207e+00
1414:-2.9021165594647504e+00
1415:-2.6880097311172513e+00
1416:-3.4306504418295951e+00
1417:-3.2163102816481293e+00
1418:-2.9321277031114246e+00
1419:-2.7131529382792836e+00
1420:-3.4251671492138893e+00
1421:-3.2132667209335497e+00
1422:-2.9252375243625237e+00
1423:-2.6981578368016823e+00
1424:-2.5233978348548907e+00
1425:-2.3199292266354794e+00
1426:-2.0689620825616202e+00
1427:-1.8887294835529407e+00
1428:-2.5756189611627542e+00
1429:-2.3720529937258150e+00
1430:-2.1236201531478458e+00
1431:-1.9480829385989413e+00
1432:-2.5969407685841901e+00
1433:-2.3857527420873144e+00
1434:-2.1282029146388295e+00
1435:-1.9474619499409962e+00
1436:-2.5758874018647853e+00
1437:-2.3508715739219976e+00
1438:-2.0719866350887273e+00
1439:-1.8735491656425078e+00
1440:-1.7973282130735522e+00
1441:-1.6348694718892725e+00
1442:-1.4349643735294848e+00
1443:-1.2860166978081462e+00
1444:-1.8599548748565733e+00
1445:-1.6978871576995900e+00
1446:-1.4846821465466389e+00
1447:-1.3140751179656476e+00
1448:-1.8571372835932991e+00
1449:-1.6869152095801103e+00
1450:-1.4599889142421956e+00
1451:-1.2816387908978113e+00
1452:-1.7739235721215700e+00
1453:-1.5936995534826393e+00
1454:-1.3788281976538275e+00
1455:-1.2367972380209942e+00
1456:-5.7113064196183205e-01
1457:-1.5865838893459969e+00
1458:-2.5814818514937770e+00
1459:-3.1237003775976051e+00
1460:-8.0718638142467269e-01
1461:-1.6539321986739690e+00
1462:-2.5070418026519818e+00
1463:-2.9902773805796476e+00
1464:-1.2002823307422965e+00
1465:-1.7932653235102347e+00
1466:-2.4308773669322670e+00
1467:-2.8228325094491793e+00
1468:-1.5354873341986408e+00
1469:-1.9225056145582324e+00
1470:-2.3858364698937979e+00
1471:-2.7047757859281805e+00
1472:-3.3450268565733956e+00
1473:-3.6828494724649832e+00
1474:-3.9888933345904793e+00
1475:-4.1267843258989805e+00
1476:-3.1946445555306244e+00
1477:-3.5149405718970024e+00
1478:-3.8193563858693991e+00
1479:-3.9686570268950430e+00
1480:-3.0002204910060226e+00
1481:-3.2912970546858960e+00
1482:-3.5902170993014746e+00
1483:-3.7555770212131483e+00
1484:-2.8610331034106462e+00
1485:-3.1295830517819336e+00
1486:-3.4254523403537753e+00
1487:-3.6052056869373166e+00
1488:-4.1684527948416008e+00
1489:-4.2032392319970278e+00
1490:-4.1734538479262993e+00
1491:-4.0986485616362067e+00
1492:-4.0197194032542019e+00
1493:-4.0734024298423614e+00
1494:-4.0701043303901940e+00
1495:-4.0172051454906734e+00
1496:-3.8208607529537009e+00
1497:-3.9052098592621562e+00
1498:-3.9470677311299127e+00
1499:-3.9315255939267173e+00
1500:-3.6830265954965071e+00
1501:-3.7957135996940790e+00
1502:-3.8807251805159426e+00
1503:-3.9009452371819267e+00
1504:-4.0422014041506591e+00
1505:-3.9135521008809402e+00
1506:-3.7068129266944045e+00
1507:-3.5220429016086352e+00
1508:-3.9729553017733683e+00
1509:-3.8662490634098048e+00
1510:-3.6848798347859120e+00
1511:-3.5162161309649780e+00
1512:-3.9077177207291802e+00
1513:-3.8379089760873684e+00
1514:-3.7013751161972350e+00
1515:-3.5645660874515692e+00
1516:-3.8965117784416510e+00
1517:-3.8617351510269224e+00
1518:-3.7690070521703882e+00
1519:-3.6651718236700881e+00
1520:-3.4153848332272623e+00
1521:-3.2048488279481173e+00
1522:-2.9138315890982103e+00
1523:-2.6809526281417519e+00
1524:-3.4166717703931218e+00
1525:-3.2154726447587780e+00
1526:-2.9286129877548071e+00
1527:-2.6928336109269777e+00
1528:-3.4810346844553708e+00
1529:-3.3065513553870720e+00
1530:-3.0471838498526456e+00
1531:-2.8263962861990657e+00
1532:-3.5991826580344997e+00
1533:-3.4567296674462504e+00
1534:-3.2363059910559864e+00
1535:-3.0424168021285465e+00
1536:-2.5543763334533236e+00
1537:-2.3189934226169160e+00
1538:-2.0228416464122159e+00
1539:-1.8089496263288327e+00
1540:-2.5625112618761512e+00
1541:-2.3146719896565693e+00
1542:-1.9902216276473095e+00
1543:-1.7444355819852764e+00
1544:-2.7016833811937664e+00
1545:-2.4563923696467951e+00
1546:-2.1117888969131884e+00
1547:-1.8264445612688192e+00
1548:-2.9306695852799622e+00
1549:-2.7028538317718014e+00
1550:-2.3569644328419126e+00
1551:-2.0437673865527892e+00
1552:-1.7009745757326953e+00
1553:-1.5150148225416651e+00
1554:-1.3196793052444760e+00
1555:-1.2180681820863180e+00
1556:-1.6169039770393139e+00
1557:-1.4130836323588691e+00
1558:-1.2374920915091017e+00
1559:-1.1850299747334838e+00
1560:-1.6684812004252882e+00
1561:-1.4012170685737904e+00
1562:-1.1186785784565731e+00
1563:-9.5334904689127087e-01
1564:-1.8576650684318776e+00
1565:-1.4805628523533043e+00
1566:-9.1737278070717487e-01
1567:-4.1507411865938287e-01
